# vtk DataFile Version 2.0
Wound Healing Simulation
ASCII
DATASET UNSTRUCTURED_GRID
POINTS 3012 float
69.9759 18.75 4
67.2507 60.3285 4
69.976 18.75 2
73.0099 25.446 4
71.1327 20.9142 4
68.6801 16.6661 4
67.8256 19.9261 3.98279
67.2507 60.3286 2
71.1327 54.0858 4
68.6801 58.3339 4
65.6939 62.2254 4
65.3122 59.0013 3.98217
74.6784 42.3946 4
73.7221 47.2057 4
69.9759 18.75 0
73.0099 25.446 2
68.6801 16.6661 2
71.1327 20.9142 2
67.8261 19.929 2
74.6792 32.6053 4
73.7222 27.7943 4
72.1454 23.1494 4
70.6143 26.2209 3.98249
68.8858 21.958 3.98327
67.2507 14.6715 4
66.637 17.9721 3.98176
65.7966 21.0256 3.97362
67.2507 60.3285 0
71.1327 54.0858 2
68.6801 58.3339 2
65.694 62.2255 2
65.3133 58.9979 2
72.1454 51.8506 4
69.9759 56.25 4
68.8364 53.113 3.98233
64.0165 64.0165 4
66.6106 57.1337 3.98228
63.8858 60.7662 3.9843
63.4996 57.7703 3.97396
60.3285 67.2507 4
74.6792 42.3947 2
73.7222 47.2057 2
74.9194 39.9526 4
74.2788 44.8158 4
72.1682 42.0856 3.98143
73.0099 49.554 4
71.2493 46.5981 3.98144
73.0099 25.446 0
71.1327 20.9142 0
68.6801 16.6661 0
67.8256 19.9261 0.017207
74.6792 32.6053 2
73.7222 27.7943 2
67.2508 14.6715 2
72.1455 23.1494 2
70.6143 26.2213 2
66.6377 17.9755 2
68.8861 21.96 2
65.796 21.0261 2
74.9197 35.0474 4
74.2794 30.1841 4
72.1849 32.9432 3.98182
71.2783 28.4313 3.98187
69.8157 24.0596 3.98307
68.3466 26.9513 3.97212
66.7622 22.9333 3.97294
65.694 12.7746 4
65.3236 16.1035 3.98249
64.7127 19.1963 3.9736
63.8846 22.0371 3.96939
71.1327 54.0858 0
65.6939 62.2254 0
68.6801 58.3339 0
65.3122 59.0013 0.0178313
72.1455 51.8506 2
69.9759 56.25 2
68.8366 53.1111 2
64.0165 64.0165 2
66.6115 57.1303 2
63.8874 60.7636 2
63.4991 57.7704 2
62.2254 65.694 4
58.8948 65.4143 3.99125
69.769 50.9889 3.98221
67.7837 55.1672 3.98226
66.6489 52.2089 3.97195
62.3363 62.4277 3.98724
64.66 56.0307 3.97377
62.2023 59.4031 3.97554
61.8197 56.6771 3.9691
58.3339 68.6801 4
60.3285 67.2508 2
73.7221 47.2057 0
74.6784 42.3946 0
74.9197 39.9526 2
74.2794 44.8159 2
72.1679 42.0856 2
73.0099 49.554 2
71.2493 46.5979 2
75 37.5 4
72.4055 39.8022 3.98172
71.7826 44.3529 3.98152
69.8037 41.7894 3.97134
70.5752 48.8135 3.98179
68.9118 46.0145 3.97113
74.6792 32.6053 0
73.7222 27.7943 0
67.2507 14.6715 0
72.1454 23.1494 0
70.6143 26.2209 0.0175148
68.8858 21.958 0.0167329
66.637 17.9721 0.0182408
65.7966 21.0256 0.026382
74.9197 35.0474 2
74.2794 30.1841 2
72.1845 32.9434 2
71.2782 28.4316 2
65.694 12.7745 2
65.3249 16.1067 2
69.8158 24.0606 2
68.3465 26.9516 2
64.7121 19.1965 2
66.7617 22.9338 2
63.884 22.0372 2
72.4133 35.2241 3.98183
71.804 30.6762 3.98188
69.8397 33.2681 3.97179
68.9658 29.038 3.97182
67.611 24.9119 3.97244
66.1928 27.6351 3.96861
64.0165 10.9835 4
64.7545 23.8311 3.96911
63.8903 14.327 3.98537
63.5122 17.4489 3.97429
62.9033 20.324 3.96947
62.0873 22.9474 3.96773
60.6841 11.0977 3.98813
57.6122 11.4487 3.98065
72.1454 51.8506 0
69.9759 56.25 0
68.8364 53.113 0.0176703
64.0165 64.0165 0
63.8858 60.7662 0.0157045
66.6106 57.1337 0.0177169
63.4996 57.7703 0.026043
62.2255 65.694 2
58.8958 65.4139 2
69.769 50.9879 2
67.7841 55.1644 2
66.6485 52.2083 2
62.3379 62.426 2
64.6596 56.0305 2
62.2021 59.4038 2
61.8191 56.6777 2
60.669 63.9771 3.98931
57.0258 66.7349 3.99197
57.5581 63.6916 3.9833
67.507 50.1764 3.97135
65.7012 54.1727 3.97256
64.5354 51.3836 3.96797
60.7729 60.9371 3.97874
62.817 55.0645 3.96936
60.6557 58.1551 3.9698
60.3216 55.7773 3.96923
56.25 69.9759 4
58.3339 68.6801 2
60.3285 67.2507 0
58.9214 9.65598 3.98924
62.2254 9.30607 4
73.0099 49.554 0
74.2788 44.8158 0
71.2493 46.5981 0.0185645
72.1682 42.0856 0.0185658
74.9194 39.9526 0
75 37.5 2
72.4054 39.8024 2
71.7825 44.3526 2
69.8034 41.7891 2
70.5752 48.8132 2
68.9118 46.0141 2
72.4889 37.512 3.98154
70.0408 39.6571 3.97133
69.4299 43.9072 3.97122
67.5959 41.4967 3.96863
68.2655 48.1068 3.97116
66.708 45.4387 3.96808
74.9197 35.0474 0
74.2794 30.1841 0
72.1849 32.9432 0.0181817
71.2783 28.4313 0.018127
65.694 12.7746 0
65.3236 16.1035 0.0175144
69.8157 24.0596 0.0169275
68.3466 26.9513 0.0278845
66.7622 22.9333 0.0270597
64.7127 19.1963 0.026397
63.8846 22.0371 0.0306106
72.4133 35.2241 2
71.8039 30.6766 2
69.8394 33.2684 2
68.9658 29.0382 2
64.0165 10.9835 2
63.8919 14.3294 2
63.5118 17.4487 2
67.6107 24.9123 2
66.1928 27.6352 2
62.9027 20.3239 2
64.754 23.8311 2
62.0867 22.9474 2
60.6856 11.0993 2
57.6125 11.4479 2
70.0576 35.3917 3.97161
69.4667 31.1493 3.97161
67.6541 33.5909 3.96886
66.7705 29.6231 3.96852
65.5222 25.6999 3.96884
64.1325 28.2587 3.96923
62.3419 12.6549 3.98709
62.8497 24.6409 3.96838
62.199 15.7861 3.97761
61.8091 18.6904 3.96821
61.2108 21.3474 3.96702
60.4063 23.7363 3.96852
59.2462 12.7804 3.97931
55.8743 10.2347 3.98272
56.4046 13.1181 3.97654
69.769 50.9889 0.0177877
62.2254 65.694 0
58.8948 65.4143 0.00874939
67.7837 55.1672 0.0177444
66.6489 52.2089 0.0280452
62.3363 62.4277 0.012765
62.2023 59.4031 0.024463
64.66 56.0307 0.0262349
61.8197 56.6771 0.0308975
60.6702 63.9762 2
57.0264 66.7348 2
57.5583 63.693 2
67.5068 50.1759 2
65.7007 54.1722 2
64.5349 51.3835 2
60.773 60.9384 2
62.8165 55.065 2
60.6554 58.1561 2
60.3212 55.7774 2
55.0714 67.9319 3.99236
59.2192 62.3655 3.98026
55.805 64.91 3.98623
56.3263 62.0884 3.97864
65.3298 49.4069 3.96782
63.7031 53.29 3.96833
62.4284 50.6459 3.96727
59.332 59.554 3.97426
61.0704 54.3023 3.96872
59.2836 57.0014 3.96738
59.2328 55.1713 3.96875
48.103 68.5784 3.98814
50.9491 69.9315 3.99258
54.0858 71.1327 4
56.25 69.976 2
58.3339 68.6801 0
57.0587 8.33595 3.99014
60.3285 7.74928 4
58.9227 9.65699 2
62.2255 9.30602 2
70.5752 48.8135 0.018214
71.7826 44.3529 0.0184757
68.9118 46.0145 0.0288692
69.8037 41.7894 0.0286553
72.4055 39.8022 0.0182762
75 37.5 0
72.4885 37.5121 2
70.0408 39.657 2
69.4299 43.9069 2
67.5956 41.4966 2
68.2655 48.1064 2
66.7079 45.4385 2
70.1289 37.5213 3.97153
67.8332 39.5117 3.96873
67.222 43.4689 3.96829
65.5308 41.2069 3.97037
66.0668 47.4167 3.96797
64.6302 44.8436 3.96919
72.4133 35.2241 0.0181695
71.804 30.6762 0.0181181
69.8397 33.2681 0.0282119
68.9658 29.038 0.0281776
64.0165 10.9835 0
63.8903 14.327 0.0146319
63.5122 17.4489 0.0257073
67.611 24.9119 0.0275553
66.1928 27.6351 0.0313905
64.7545 23.8311 0.0308925
62.9033 20.324 0.030527
62.0873 22.9474 0.0322669
60.6841 11.0977 0.0118685
57.6122 11.4487 0.0193523
70.0576 35.3919 2
69.4667 31.1495 2
67.6538 33.591 2
66.7705 29.6232 2
62.3434 12.657 2
62.1986 15.7855 2
61.8087 18.6899 2
65.5219 25.7 2
64.132 28.2588 2
61.21 21.3474 2
62.8491 24.6409 2
60.4061 23.7366 2
59.2464 12.7799 2
56.4044 13.117 2
55.8746 10.2336 2
67.8694 35.5473 3.96895
67.2637 31.6226 3.96864
65.6796 33.9283 3.97054
64.6462 30.1948 3.9694
63.5274 26.4177 3.96888
62.2201 28.785 3.97237
60.7755 14.2248 3.97919
61.0216 25.3462 3.97002
60.6101 17.1322 3.97242
60.2115 19.8255 3.9651
59.6391 22.269 3.96575
58.9432 24.3336 3.97055
54.0376 9.13685 3.98422
57.9096 14.3363 3.97766
54.7864 12.0162 3.97837
55.3108 14.6546 3.97526
67.507 50.1764 0.0286467
57.0258 66.7349 0.00803229
60.669 63.9771 0.0106857
57.5581 63.6916 0.016695
65.7012 54.1727 0.027442
64.5354 51.3836 0.032026
60.7729 60.9371 0.021264
60.6557 58.1551 0.0301994
62.817 55.0645 0.0306409
60.3216 55.7773 0.0307686
55.0719 67.9319 2
59.2193 62.3668 2
55.805 64.911 2
56.3263 62.0898 2
65.3295 49.4067 2
63.7024 53.29 2
62.4288 50.6459 2
59.3319 59.5555 2
61.0702 54.3024 2
59.2835 57.0011 2
59.2325 55.1712 2
53.0433 68.9997 3.99248
53.9675 66.0128 3.98737
57.8797 60.8677 3.97719
54.6839 63.2067 3.9821
55.2098 60.612 3.9764
63.1751 48.6549 3.96791
61.7331 52.5692 3.96707
60.2338 50.0055 3.96871
58.0141 58.2551 3.9704
59.3166 53.9354 3.96778
58.1155 55.7967 3.9657
50.1097 67.8565 3.98802
47.4634 66.5802 3.98521
46.0565 69.1576 3.98819
48.1029 68.5789 2
48.8032 70.7228 3.99267
50.9495 69.9316 2
51.8506 72.1454 4
54.0858 71.1327 2
56.25 69.9759 0
55.1034 7.14042 3.99106
58.3339 6.31992 4
57.0598 8.33642 2
60.3286 7.74926 2
58.9214 9.65598 0.0107614
62.2254 9.30607 0
68.2655 48.1068 0.0288373
69.4299 43.9072 0.0287763
66.708 45.4387 0.031921
67.5959 41.4967 0.0313719
70.0408 39.6571 0.0286695
72.4889 37.512 0.0184612
70.1287 37.5213 2
67.8331 39.5117 2
67.2219 43.4687 2
65.5303 41.2068 2
66.0668 47.4166 2
64.6297 44.8435 2
67.9296 37.5216 3.96888
65.7633 39.3684 3.97061
65.1544 43.0215 3.96983
63.6941 40.9246 3.97333
63.9416 46.7109 3.96851
62.755 44.2076 3.97276
70.0576 35.3917 0.0283871
69.4667 31.1493 0.0283862
67.6541 33.5909 0.0311397
66.7705 29.6231 0.0314827
62.3419 12.6549 0.0129095
62.199 15.7861 0.0223886
61.8091 18.6904 0.0317874
65.5222 25.6999 0.0311629
64.1325 28.2587 0.0307671
62.8497 24.6409 0.0316155
61.2108 21.3474 0.0329844
60.4063 23.7363 0.0314797
59.2462 12.7804 0.0206931
56.4046 13.1181 0.0234588
55.8743 10.2347 0.0172807
67.8693 35.5474 2
67.2636 31.6226 2
65.6793 33.9283 2
64.6457 30.1949 2
60.7753 14.2242 2
60.6097 17.1311 2
60.2116 19.8252 2
63.5271 26.4177 2
62.2191 28.7852 2
59.6408 22.269 2
61.0211 25.3465 2
58.9424 24.3342 2
57.909 14.3354 2
55.3103 14.6541 2
54.0378 9.13601 2
54.7864 12.0148 2
65.8537 35.6669 3.97059
65.1642 32.1564 3.96985
64.2389 34.2512 3.97321
62.539 30.6422 3.973
61.6154 27.0808 3.97089
60.7887 29.1503 3.97573
59.3096 15.6726 3.97651
59.2804 25.8103 3.97343
59.1158 18.3648 3.96912
58.7193 20.8665 3.96438
58.2483 23.1073 3.96646
57.9168 24.6816 3.97245
52.1123 8.1546 3.98551
53.0581 11.0206 3.9802
56.6743 15.7497 3.97663
53.8084 13.6887 3.97601
54.3729 16.0103 3.97676
55.0714 67.9319 0.00764117
65.3298 49.4069 0.0321826
55.805 64.91 0.0137703
59.2192 62.3655 0.0197428
56.3263 62.0884 0.0213639
63.7031 53.29 0.0316679
62.4284 50.6459 0.0327336
59.332 59.554 0.025737
59.2836 57.0014 0.0326161
61.0704 54.3023 0.0312809
59.2328 55.1713 0.031252
53.0437 68.9997 2
53.9673 66.0136 2
57.8795 60.8689 2
54.6837 63.2079 2
55.2097 60.6135 2
63.1748 48.6548 2
61.7338 52.5693 2
60.2334 50.0052 2
58.0137 58.2569 2
59.3168 53.9351 2
58.1149 55.7962 2
52.0709 66.9995 3.98783
52.9537 64.2182 3.98408
56.6457 59.4843 3.97513
53.6805 61.6203 3.97943
54.2571 59.3137 3.97538
60.9381 47.8671 3.96935
59.6807 52.0916 3.96806
57.9573 49.5965 3.97053
56.7687 56.9717 3.96758
57.0989 54.1043 3.9666
50.1096 67.857 2
49.3373 65.9206 3.98507
47.4634 66.5808 2
46.8928 64.7347 3.98358
45.5585 67.0973 3.98525
43.9734 69.5898 3.98824
46.0565 69.1581 2
46.6098 71.3672 3.99266
48.103 68.5784 0.0118628
48.8036 70.723 2
49.554 73.0099 4
50.9491 69.9315 0.00741728
51.8506 72.1455 2
54.0858 71.1327 0
53.0647 6.07195 3.99151
55.1042 7.14057 2
56.25 5.02411 4
58.3339 6.3199 2
57.0587 8.33595 0.00986265
60.3285 7.74928 0
66.0668 47.4167 0.0320346
67.222 43.4689 0.0317113
64.6302 44.8436 0.0308061
65.5308 41.2069 0.0296309
67.8332 39.5117 0.0312671
70.1289 37.5213 0.0284678
67.9294 37.5216 2
65.7627 39.3683 2
65.154 43.0213 2
63.6935 40.9244 2
63.941 46.7108 2
62.7538 44.2073 2
65.8671 37.5009 3.9705
63.8347 39.2634 3.97322
63.2674 42.5431 3.973
62.3424 40.6912 3.97655
61.9143 45.9081 3.97116
61.3681 43.6716 3.97613
67.8694 35.5473 0.0310537
67.2637 31.6226 0.0313639
65.6796 33.9283 0.0294589
64.6462 30.1948 0.0305989
60.7755 14.2248 0.0208086
60.6101 17.1322 0.0275754
60.2115 19.8255 0.0348991
63.5274 26.4177 0.0311202
62.2201 28.785 0.0276346
61.0216 25.3462 0.029978
59.6391 22.269 0.0342458
58.9432 24.3336 0.0294508
57.9096 14.3363 0.0223424
55.3108 14.6546 0.024743
54.0376 9.13685 0.0157826
54.7864 12.0162 0.0216289
65.8532 35.6669 2
65.1642 32.1565 2
64.2386 34.2512 2
62.538 30.6424 2
59.3089 15.6717 2
59.1158 18.3638 2
58.7202 20.8668 2
61.6146 27.081 2
60.7881 29.1506 2
58.2484 23.1079 2
59.2799 25.8108 2
57.9165 24.6824 2
56.6737 15.7488 2
54.3721 16.0098 2
53.8081 13.6871 2
52.1124 8.1539 2
53.058 11.0196 2
64.0342 35.6325 3.97268
62.8627 33.0501 3.97367
60.5335 30.6215 3.97603
59.5018 27.9237 3.97454
57.9354 16.9905 3.9747
57.6755 25.7441 3.97506
57.6994 19.4901 3.96573
57.3355 21.8581 3.96308
57.1277 23.9667 3.96854
50.1126 7.28552 3.98699
51.2328 10.1275 3.98192
52.1716 12.8032 3.9782
55.5325 16.9826 3.9763
52.9755 15.2767 3.97435
53.7526 16.9945 3.97947
53.0433 68.9997 0.00752372
53.9675 66.0128 0.0126282
63.1751 48.6549 0.0320877
54.6839 63.2067 0.0179031
57.8797 60.8677 0.0228101
55.2098 60.612 0.0236033
61.7331 52.5692 0.0329335
60.2338 50.0055 0.0312937
58.0141 58.2551 0.0296016
58.1155 55.7967 0.0343026
59.3166 53.9354 0.0322241
52.0708 67.0001 2
52.9534 64.2189 2
56.6454 59.4853 2
53.6803 61.6216 2
54.2571 59.315 2
60.9368 47.8667 2
59.682 52.0914 2
57.9548 49.5957 2
56.7678 56.9761 2
57.0976 54.1038 2
51.1684 65.1276 3.98496
52.0462 62.5374 3.98169
55.4757 58.2427 3.97602
52.8322 60.1309 3.97754
53.6343 58.4636 3.97894
58.2131 46.8278 3.97376
57.519 51.7674 3.96799
56.1564 49.5294 3.97067
55.4555 55.7706 3.96429
55.3213 53.3602 3.96463
50.1097 67.8565 0.0119823
49.3372 65.9212 2
48.6186 64.1215 3.9838
47.4634 66.5802 0.0147926
45.5584 67.0978 2
46.8927 64.7352 2
46.3825 63.0511 3.98308
45.133 65.1957 3.98358
43.6316 67.4679 3.9853
41.8606 69.8772 3.98812
43.9734 69.5903 2
44.3771 71.8621 3.99256
46.0565 69.1576 0.0118135
46.6101 71.3675 2
47.2057 73.7222 4
48.8032 70.7228 0.00732702
49.554 73.0099 2
51.8506 72.1454 0
50.9547 5.13211 3.99208
53.0653 6.07193 2
54.0858 3.86728 4
55.1034 7.14042 0.00894329
56.25 5.02406 2
58.3339 6.31992 0
63.9416 46.7109 0.0314861
65.1544 43.0215 0.0301657
62.755 44.2076 0.0272417
63.6941 40.9246 0.0266706
65.7633 39.3684 0.0293869
67.9296 37.5216 0.0311172
65.8665 37.5009 2
63.8338 39.2633 2
63.2664 42.5429 2
62.3414 40.6911 2
61.913 45.9077 2
61.3669 43.6713 2
63.8972 37.4555 3.97276
62.0603 39.3506 3.97603
61.1179 41.9477 3.97593
60.1672 44.7553 3.97546
65.8537 35.6669 0.0294125
65.1642 32.1564 0.0301466
64.2389 34.2512 0.0267903
62.539 30.6422 0.0270047
59.3096 15.6726 0.0234862
59.1158 18.3648 0.0308812
58.7193 20.8665 0.035616
61.6154 27.0808 0.0291067
60.7887 29.1503 0.0242667
59.2804 25.8103 0.0265682
58.2483 23.1073 0.0335412
57.9168 24.6816 0.0275484
56.6743 15.7497 0.0233687
54.3729 16.0103 0.0232438
53.8084 13.6887 0.0239869
52.1123 8.1546 0.0144887
53.0581 11.0206 0.019795
64.0338 35.6325 2
62.8617 33.0502 2
60.5329 30.6218 2
57.9348 16.9897 2
57.6997 19.4887 2
57.3358 21.8585 2
59.5009 27.9242 2
57.1272 23.9676 2
57.6756 25.7449 2
50.1127 7.28477 2
55.5318 16.9816 2
53.7518 16.9937 2
52.9749 15.2757 2
52.1713 12.8024 2
51.2328 10.1268 2
62.093 35.3611 3.97465
60.1807 32.7537 3.97619
58.5176 30.0916 3.97649
57.2007 27.4019 3.976
56.6275 18.167 3.97403
56.2175 25.1256 3.97251
56.3312 20.5403 3.96301
56.0519 22.8926 3.96312
48.0566 6.52785 3.98825
49.325 9.33359 3.98298
50.4331 11.9989 3.97964
51.3757 14.5069 3.97543
54.4057 17.9339 3.97746
52.3556 17.0549 3.97337
52.0709 66.9995 0.0121699
52.9537 64.2182 0.015924
60.9381 47.8671 0.0306523
53.6805 61.6203 0.0205672
56.6457 59.4843 0.0248695
54.2571 59.3137 0.0246237
59.6807 52.0916 0.0319419
57.9573 49.5965 0.0294749
56.7687 56.9717 0.0324223
57.0989 54.1043 0.0333961
51.1681 65.1281 2
52.0458 62.5382 2
55.4754 58.2435 2
52.8322 60.1326 2
53.6341 58.4642 2
58.212 46.8272 2
57.5191 51.767 2
56.1544 49.5287 2
55.4557 55.7711 2
55.3224 53.3605 2
50.3467 63.38 3.98342
51.2433 60.9323 3.97904
54.2095 57.2586 3.97534
52.3078 58.624 3.97639
56.5595 44.1546 3.97779
55.3746 47.8662 3.97232
55.0108 51.3656 3.96709
53.9746 54.5182 3.96383
49.3373 65.9206 0.0149269
48.6184 64.122 2
47.9625 62.4726 3.9828
45.5585 67.0973 0.0147507
46.8928 64.7347 0.016416
43.6315 67.4684 2
46.3824 63.0516 2
45.1329 65.1963 2
45.9881 61.5827 3.98311
44.7678 63.4513 3.98247
43.357 65.505 3.98346
41.6637 67.6866 3.98504
39.7023 70.0242 3.98828
41.8606 69.8777 2
42.1113 72.207 3.9925
43.9734 69.5898 0.0117562
44.3773 71.8624 2
44.8159 74.2794 4
46.6098 71.3672 0.00734184
47.2057 73.7222 2
49.554 73.0099 0
48.7852 4.32282 3.99256
50.955 5.13187 2
51.8506 2.85458 4
53.0647 6.07195 0.0084916
54.0858 3.86728 2
56.25 5.02411 0
61.9143 45.9081 0.02884
63.2674 42.5431 0.0270032
61.3681 43.6716 0.023869
62.3424 40.6912 0.0234518
63.8347 39.2634 0.0267794
65.8671 37.5009 0.0294975
63.8963 37.4555 2
62.0594 39.3506 2
61.1166 41.9474 2
60.166 44.7548 2
61.8967 37.443 3.9753
60.1196 39.8365 3.97684
58.8571 42.8992 3.97742
64.0342 35.6325 0.0273166
62.8627 33.0501 0.0263328
60.5335 30.6215 0.023968
57.9354 16.9905 0.0253038
57.6994 19.4901 0.0342696
57.3355 21.8581 0.0369184
59.5018 27.9237 0.0254578
57.6755 25.7441 0.0249376
57.1277 23.9667 0.0314631
55.5325 16.9826 0.0237
53.7526 16.9945 0.02053
52.9755 15.2767 0.0256483
50.1126 7.28552 0.0130143
52.1716 12.8032 0.0217989
51.2328 10.1275 0.0180817
62.0921 35.3611 2
60.1786 32.754 2
58.517 30.0922 2
56.6269 18.166 2
56.3316 20.5375 2
56.0537 22.8932 2
57.2022 27.4026 2
56.2193 25.1264 2
48.0566 6.52704 2
49.325 9.33282 2
54.4052 17.9331 2
52.3546 17.0544 2
51.375 14.5056 2
50.433 11.9984 2
59.7625 35.1246 3.97701
57.8438 32.288 3.97706
56.4276 29.3637 3.97729
55.3357 26.629 3.97594
55.326 19.2022 3.97326
54.8539 24.0869 3.96601
54.9609 21.5864 3.96078
45.9626 5.88259 3.98891
43.3742 7.47387 3.98583
47.3556 8.62565 3.98441
48.6003 11.2981 3.98063
49.7124 13.7503 3.97885
50.6296 16.1473 3.97733
53.1117 18.6786 3.97298
51.291 18.0688 3.98012
51.1684 65.1276 0.0150387
52.0462 62.5374 0.0183142
58.2131 46.8278 0.0262365
52.8322 60.1309 0.0224572
55.4757 58.2427 0.023985
53.6343 58.4636 0.0210612
57.519 51.7674 0.0320082
56.1564 49.5294 0.0293346
55.4555 55.7706 0.0357126
55.3213 53.3602 0.0353707
50.3463 63.3802 2
51.2429 60.9331 2
54.2093 57.2596 2
52.3075 58.6245 2
56.5587 44.1538 2
55.3737 47.8655 2
55.0114 51.3654 2
53.9752 54.5194 2
49.5921 61.7429 3.98193
55.4165 41.6767 3.97625
50.5636 59.3236 3.97534
52.1705 56.4777 3.97005
54.0096 45.5237 3.97562
53.2234 49.2976 3.97045
52.6169 52.8238 3.96547
48.6186 64.1215 0.016202
47.9623 62.4729 2
47.3292 61.0059 3.98356
43.6316 67.4679 0.014703
45.133 65.1957 0.0164161
46.3825 63.0511 0.0169239
41.6637 67.6869 2
43.3569 65.5058 2
45.9881 61.5833 2
44.7677 63.452 2
45.7661 60.6265 3.98134
44.4842 61.8313 3.98211
43.147 63.7234 3.98201
41.5465 65.6426 3.9827
39.6328 67.7661 3.98465
37.5259 70.0491 3.98805
39.7023 70.0248 2
39.8179 72.404 3.99234
41.8606 69.8772 0.011883
42.1116 72.2073 2
42.3947 74.6792 4
44.3771 71.8621 0.00744283
44.8159 74.2794 2
47.2057 73.7222 0
43.852 5.35936 3.989
46.5712 3.64724 3.99278
48.7855 4.32251 2
49.554 1.99015 4
50.9547 5.13211 0.00791941
51.8506 2.85453 2
54.0858 3.86728 0
60.1672 44.7553 0.02454
61.1179 41.9477 0.0240654
62.0603 39.3506 0.023971
63.8972 37.4555 0.0272363
61.8956 37.4431 2
60.1184 39.8361 2
58.8561 42.8988 2
59.6162 37.5646 3.97787
57.8213 40.6381 3.97767
54.8559 39.6912 3.97621
62.093 35.3611 0.0253486
60.1807 32.7537 0.0238064
58.5176 30.0916 0.0235138
56.6275 18.167 0.0259666
56.3312 20.5403 0.0369914
56.0519 22.8926 0.0368834
57.2007 27.4019 0.0239983
56.2175 25.1256 0.027494
54.4057 17.9339 0.022537
52.3556 17.0549 0.0266298
51.3757 14.5069 0.0245718
48.0566 6.52785 0.011749
49.325 9.33359 0.0170161
50.4331 11.9989 0.0203606
59.7604 35.1248 2
45.9625 5.8821 2
43.374 7.47342 2
57.8433 32.2887 2
56.4276 29.3645 2
55.3257 19.2015 2
54.9621 21.5854 2
54.8535 24.0882 2
55.3312 26.6305 2
47.3556 8.62443 2
48.6002 11.2973 2
53.1116 18.6777 2
51.2904 18.0687 2
50.6289 16.1469 2
49.7117 13.7499 2
57.2072 34.7731 3.97757
55.5714 31.5452 3.97804
54.3557 28.4434 3.97831
53.6818 25.5342 3.97351
53.9456 20.156 3.97365
53.523 22.7447 3.95786
41.3993 7.07917 3.98635
45.3603 7.99556 3.98605
42.8662 9.41738 3.98317
46.667 10.6567 3.9818
47.7446 13.1082 3.98078
48.9289 15.4108 3.97628
49.9982 17.7153 3.97707
51.631 19.3455 3.97953
50.3467 63.38 0.0165755
51.2433 60.9323 0.0209555
56.5595 44.1546 0.0222092
55.3746 47.8662 0.0276753
52.3078 58.624 0.0236147
54.2095 57.2586 0.0246576
55.0108 51.3656 0.0329065
53.9746 54.5182 0.0361706
49.5915 61.7429 2
55.4169 41.6766 2
50.5633 59.3243 2
52.1702 56.4786 2
54.0142 45.523 2
53.2268 49.2975 2
52.6183 52.8234 2
48.8474 60.1992 3.97995
52.28 42.5994 3.98084
49.7814 57.6152 3.97525
50.5592 54.4084 3.96661
51.6521 47.2309 3.97599
51.1303 50.9175 3.96309
47.9256 43.7489 3.99067
47.9625 62.4726 0.0172041
47.3292 61.0063 2
46.618 59.7916 3.98254
41.6637 67.6866 0.0149643
43.357 65.505 0.0165411
44.7678 63.4513 0.0175283
45.9881 61.5827 0.016894
39.6329 67.7668 2
41.5463 65.6426 2
45.766 60.6271 2
43.1469 63.7241 2
44.4842 61.8319 2
44.6229 60.2883 3.98235
42.9512 62.0787 3.98045
41.6004 63.8165 3.98198
39.6478 65.61 3.98176
37.5634 67.7481 3.98436
31.6967 65.1285 3.98251
33.3922 67.4854 3.98412
35.3335 69.9591 3.98806
37.526 70.0498 2
37.5095 72.4586 3.9922
39.7023 70.0242 0.0117196
39.8181 72.4044 2
39.9526 74.9197 4
42.1113 72.207 0.00749841
42.3947 74.6792 2
44.8159 74.2794 0
41.7366 4.96853 3.9893
43.8519 5.35888 2
44.3264 3.11029 3.99313
46.5713 3.647 2
47.2057 1.27793 4
48.7852 4.32282 0.00744288
49.554 1.99013 2
51.8506 2.85458 0
58.8571 42.8992 0.0225784
60.1196 39.8365 0.0231552
61.8967 37.443 0.0247016
59.6149 37.5645 2
57.8206 40.6376 2
54.8568 39.6903 2
56.6105 37.8857 3.97766
49.3136 41.3066 3.98997
52.8777 39.3015 3.98393
39.4428 6.80282 3.98635
59.7625 35.1246 0.0229912
57.8438 32.288 0.0229415
56.4276 29.3637 0.0227122
55.326 19.2022 0.0267355
54.9609 21.5864 0.0392213
54.8539 24.0869 0.0339939
55.3357 26.629 0.024061
53.1117 18.6786 0.0270184
51.291 18.0688 0.0198767
50.6296 16.1473 0.0226747
45.9626 5.88259 0.0110936
49.7124 13.7503 0.0211481
47.3556 8.62565 0.0155923
48.6003 11.2981 0.0193668
43.3742 7.47387 0.0141729
57.2044 34.7728 2
41.3993 7.07866 2
45.3602 7.99514 2
42.8659 9.41691 2
55.5731 31.5459 2
54.3537 28.4448 2
53.9457 20.1559 2
53.5236 22.7418 2
53.6793 25.5358 2
46.6669 10.6549 2
47.7441 13.107 2
51.6311 19.3453 2
49.9972 17.7144 2
48.9279 15.4105 2
54.6496 33.9739 3.97657
53.3118 30.5297 3.97798
52.4553 27.2493 3.97501
52.0658 24.1425 3.9755
52.3563 21.0804 3.97711
41.014 9.05021 3.98335
44.7249 9.99649 3.98371
42.469 10.9048 3.9839
46.005 12.7352 3.97908
47.679 14.5922 3.97645
48.1056 16.9971 3.97554
49.8057 19.6705 3.97722
49.5921 61.7429 0.0180702
50.5636 59.3236 0.0246635
55.4165 41.6767 0.0237472
54.0096 45.5237 0.0243837
53.2234 49.2976 0.0295497
52.1705 56.4777 0.029949
52.6169 52.8238 0.034534
48.8471 60.1984 2
52.2872 42.6 2
49.7809 57.6159 2
50.5592 54.4096 2
51.6558 47.2309 2
51.1319 50.9166 2
47.9321 43.765 2
47.9828 58.736 3.97914
49.8754 45.2378 3.98043
48.579 55.9069 3.97697
49.0745 52.5701 3.97306
49.5553 49.0145 3.97061
45.7176 39.8571 3.88631
46.1621 42.6265 3.9246
46.2981 45.7899 3.98845
43.5414 41.1283 3.81544
41.8898 42.0044 3.69825
47.3292 61.0059 0.0164354
46.6175 59.792 2
45.466 58.7882 3.9814
39.6328 67.7661 0.0153462
41.5465 65.6426 0.0172998
43.147 63.7234 0.0179915
44.4842 61.8313 0.0178902
45.7661 60.6265 0.0186646
41.6004 63.8166 2
37.5635 67.7487 2
39.6477 65.6106 2
44.6229 60.2888 2
42.9512 62.0795 2
41.7541 62.4897 3.98084
42.4802 59.9769 3.98195
39.8941 63.55 3.98069
37.6423 65.5089 3.98219
35.4635 67.6572 3.98421
33.5752 65.3414 3.9819
31.959 63.299 3.982
29.8827 64.72 3.98342
31.6968 65.1293 2
31.3767 67.1954 3.98446
33.3922 67.4861 2
33.1564 69.7526 3.98785
35.3335 69.9599 2
35.1947 72.3729 3.99214
37.5259 70.0491 0.0119481
37.5095 72.459 2
37.5 75 4
39.8179 72.404 0.00766422
39.9526 74.9197 2
42.3947 74.6792 0
39.6243 4.71588 3.98957
41.7365 4.96802 2
42.0627 2.71782 3.99325
43.852 5.35936 0.0110003
44.3265 3.10998 2
44.8158 0.721173 4
46.5712 3.64724 0.0072238
47.2057 1.27779 2
49.554 1.99015 0
57.8213 40.6381 0.0223341
59.6162 37.5646 0.0221256
54.8559 39.6912 0.0237854
49.3313 41.3105 2
56.609 37.8857 2
52.8794 39.2966 2
53.7239 36.6306 3.97669
47.2395 40.3779 3.93297
50.2542 38.5091 3.99382
37.5167 6.6741 3.98636
39.4427 6.8022 2
39.2115 8.69305 3.98407
35.9425 8.49338 3.98407
57.2072 34.7731 0.0224298
55.5714 31.5452 0.021956
54.3557 28.4434 0.0216872
53.9456 20.156 0.0263458
53.523 22.7447 0.0421401
53.6818 25.5342 0.0264917
51.631 19.3455 0.0204656
49.9982 17.7153 0.0229308
48.9289 15.4108 0.0237161
45.3603 7.99556 0.013953
47.7446 13.1082 0.0192178
46.667 10.6567 0.0182035
41.3993 7.07917 0.0136522
42.8662 9.41738 0.0168258
54.648 33.9742 2
41.0138 9.04997 2
44.7244 9.99621 2
42.4685 10.9048 2
53.3086 30.5285 2
52.4606 27.2509 2
52.357 21.0802 2
52.0675 24.1436 2
46.0045 12.7324 2
47.6782 14.5909 2
49.8058 19.6691 2
48.1044 16.9965 2
52.2086 32.8905 3.98049
51.1304 29.206 3.97634
50.6711 25.7813 3.97164
49.9073 22.2536 3.97855
40.5701 11.61 3.98064
43.8588 11.9193 3.97992
45.7991 15.4298 3.98117
47.4961 19.2839 3.97755
46.0627 37.4843 3.89304
48.8474 60.1992 0.0200473
49.7814 57.6152 0.0247546
52.28 42.5994 0.0191565
51.6521 47.2309 0.0240085
51.1303 50.9175 0.0369091
50.5592 54.4084 0.0333901
47.9256 43.7489 0.0093331
47.9821 58.7368 2
49.8831 45.243 2
48.5779 55.9086 2
49.0743 52.5731 2
49.5582 49.0147 2
45.7467 39.8634 2
46.1838 42.6442 2
46.2977 45.7867 2
43.5655 41.1512 2
41.9016 42.0156 2
46.8307 57.3383 3.98276
44.2896 39.4113 3.81649
42.2403 40.869 3.74414
47.9118 47.2037 3.97655
47.137 54.2254 3.9743
47.5087 50.7236 3.96731
44.6589 47.3779 3.98035
44.8204 41.9385 3.87948
44.7714 44.5223 3.94064
42.4042 42.6414 3.82387
40.8035 42.341 3.73231
46.618 59.7916 0.0174574
45.4655 58.7884 2
43.8719 57.7108 3.984
37.5634 67.7481 0.0156401
39.6478 65.61 0.0182375
41.6004 63.8165 0.0180166
42.9512 62.0787 0.0195464
44.6229 60.2883 0.0176471
35.4635 67.6582 2
41.754 62.4901 2
39.894 63.5503 2
37.6424 65.5094 2
42.4805 59.9776 2
40.6237 61.6461 3.98133
40.4423 58.2042 3.98098
37.8372 63.2113 3.98025
35.5729 65.4304 3.98179
33.5753 65.3419 2
31.9588 63.2997 2
33.6286 63.3381 3.98121
30.3779 62.8582 3.9824
32.1228 62.0045 3.98274
26.8684 61.5004 3.98131
28.0616 64.1479 3.983
29.8828 64.7207 2
29.4061 66.7594 3.9848
31.6967 65.1285 0.0174943
31.3768 67.1961 2
31.0138 69.4176 3.98783
33.3922 67.4854 0.0158786
33.1564 69.7532 2
32.8916 72.1471 3.99221
35.3335 69.9591 0.0119379
35.1947 72.3733 2
35.0474 74.9194 4
37.5095 72.4586 0.00779636
37.5 75 2
39.9526 74.9197 0
35.6213 6.7252 3.98599
37.5236 4.61542 3.98961
39.6242 4.71527 2
39.7891 2.4743 3.99325
41.7366 4.96853 0.010697
42.0627 2.7175 2
42.3946 0.32156 4
44.3264 3.11029 0.00687083
44.8159 0.72056 2
47.2057 1.27793 0
49.3136 41.3066 0.0100308
56.6105 37.8857 0.022342
52.8777 39.3015 0.0160735
47.2574 40.3932 2
50.2662 38.5066 2
53.7311 36.6327 2
51.0447 35.5719 3.97834
47.8991 37.7455 3.94478
45.7178 35.1309 3.88738
43.5482 33.8574 3.81137
41.8992 32.9917 3.69436
37.4585 8.53494 3.98445
37.5166 6.67336 2
39.4428 6.80282 0.0136494
39.2114 8.69243 2
38.977 10.1275 3.98319
35.8993 9.77447 3.9825
34.1511 8.82305 3.98357
35.9422 8.49256 2
54.6496 33.9739 0.0234272
53.3118 30.5297 0.0220166
52.4553 27.2493 0.0249915
52.3563 21.0804 0.0228924
52.0658 24.1425 0.0245041
49.8057 19.6705 0.0227839
48.1056 16.9971 0.0244637
47.679 14.5922 0.0235538
44.7249 9.99649 0.0162945
46.005 12.7352 0.0209206
41.014 9.05021 0.0166549
42.469 10.9048 0.016096
52.2134 32.8908 2
40.5701 11.6107 2
43.8576 11.9193 2
51.1441 29.2069 2
50.675 25.783 2
49.9073 22.2516 2
45.7978 15.426 2
47.4954 19.2863 2
49.7447 31.4422 3.98232
49.1315 27.5528 3.97524
49.3255 24.4681 3.98632
47.1665 22.0273 3.97318
38.3032 12.7387 3.97929
42.102 14.3088 3.97838
44.7958 18.4829 3.97664
44.5987 37.4917 3.82095
46.1102 37.4919 2
47.9828 58.736 0.0208611
48.579 55.9069 0.0230349
49.8754 45.2378 0.0195654
49.5553 49.0145 0.0293857
49.0745 52.5701 0.0269412
45.7176 39.8571 0.113688
46.1621 42.6265 0.0754038
46.2981 45.7899 0.0115529
43.5414 41.1283 0.184565
41.8898 42.0044 0.301754
46.8296 57.3391 2
44.3119 39.4282 2
42.2291 40.8719 2
47.911 47.207 2
47.1356 54.2294 2
47.5096 50.7272 2
44.6641 47.3552 2
44.8427 41.9545 2
44.7848 44.5398 2
42.4417 42.6681 2
40.8039 42.3391 2
45.3838 55.9298 3.99011
42.5605 39.268 3.7557
40.6985 40.7808 3.82932
45.9802 48.8882 3.98414
45.4883 52.5167 3.98067
43.34 48.3998 4.00008
43.2861 46.0715 3.92565
43.4988 43.7265 3.87711
40.9946 43.7844 3.81756
39.2739 42.6765 3.74853
45.466 58.7882 0.0185998
43.8712 57.7108 2
42.1003 56.3317 3.98586
35.4635 67.6572 0.0157919
37.6423 65.5089 0.0178107
39.8941 63.55 0.0193127
41.7541 62.4897 0.019163
42.4802 59.9769 0.0180496
35.5731 65.4317 2
40.6236 61.6465 2
37.837 63.2115 2
40.4425 58.2052 2
38.9211 56.4954 3.98853
38.2507 60.328 3.98003
35.6069 63.2038 3.97963
33.5752 65.3414 0.0181043
31.959 63.299 0.0179988
33.6285 63.3388 2
30.3778 62.8587 2
32.1229 62.0052 2
28.6806 62.2029 3.98199
33.3456 61.5159 3.98191
31.0663 61.2216 3.98172
27.5688 59.5953 3.98091
23.7938 59.0825 3.98062
25.0343 60.873 3.9807
26.8686 61.5009 2
26.2283 63.4796 3.98276
28.0618 64.1485 2
27.4626 66.1834 3.98493
29.8827 64.72 0.0165832
29.4061 66.76 2
28.906 68.9434 3.98776
31.3767 67.1954 0.0155363
31.0138 69.4183 2
30.6139 71.778 3.99222
33.1564 69.7526 0.012155
32.8915 72.1475 2
32.6054 74.6784 4
35.1947 72.3729 0.00785657
35.0474 74.9197 2
37.5 75 0
33.724 6.97998 3.98554
35.4353 4.68566 3.98943
35.6211 6.72457 2
37.5145 2.38688 3.99325
37.5236 4.61487 2
39.6243 4.71588 0.0104295
39.789 2.47393 2
39.9526 0.0806499 4
42.0627 2.71782 0.00674605
42.3947 0.320817 2
44.8158 0.721173 0
44.3053 35.5714 3.81141
42.2513 34.1187 3.73996
47.2395 40.3779 0.0670277
50.2542 38.5091 0.0061805
53.7239 36.6306 0.0233122
47.91 37.7486 2
51.0569 35.5723 2
45.7416 35.1154 2
43.5751 33.8362 2
41.9104 32.9799 2
48.0718 34.3073 3.97151
44.8256 33.0441 3.87177
42.4181 32.3557 3.82123
40.8144 32.6584 3.72991
37.3114 10.6319 3.98169
37.4583 8.5339 2
37.5167 6.6741 0.0136358
39.2115 8.69305 0.0159271
38.9772 10.1269 2
34.7545 10.381 3.98145
35.8991 9.77362 2
32.3779 9.37031 3.9825
34.1507 8.82245 2
35.9425 8.49338 0.0159267
52.2086 32.8905 0.0195101
51.1304 29.206 0.0236579
50.6711 25.7813 0.0283591
49.9073 22.2536 0.0214528
47.4961 19.2839 0.0224527
45.7991 15.4298 0.018835
43.8588 11.9193 0.0200774
40.5701 11.61 0.0193604
49.7556 31.4397 2
38.3027 12.7373 2
42.1012 14.3112 2
49.1366 27.5532 2
49.3277 24.4646 2
47.1639 22.0227 2
44.7951 18.4938 2
47.5831 29.5462 3.98778
47.019 25.2145 3.98424
44.2761 21.4025 3.97541
36.5831 12.9357 3.97863
38.6826 14.8128 3.97779
41.7477 17.8564 3.97812
42.6784 37.4847 3.76665
44.6171 37.4918 2
46.0627 37.4843 0.106956
46.8307 57.3383 0.0172412
47.137 54.2254 0.0257013
47.9118 47.2037 0.0234471
47.5087 50.7236 0.0326867
44.2896 39.4113 0.183509
44.8204 41.9385 0.120521
44.7714 44.5223 0.0593636
44.6589 47.3779 0.0196495
42.4042 42.6414 0.176127
42.2403 40.869 0.25586
40.8035 42.341 0.267692
45.3826 55.9298 2
42.5504 39.2668 2
40.6855 40.7684 2
45.9789 48.8943 2
45.4877 52.5214 2
43.342 48.4186 2
43.315 46.0975 2
43.5236 43.7512 2
41.0219 43.814 2
39.2645 42.6656 2
43.7184 54.4374 3.99664
40.796 39.1596 3.86016
39.1407 40.8582 3.8521
43.6212 50.4565 4.00322
41.8981 47.6158 3.95983
41.8246 45.1495 3.88434
39.3407 44.4948 3.82692
37.4997 42.7813 3.77118
43.8719 57.7108 0.0160048
42.0996 56.3315 2
40.4099 54.9346 3.98701
35.5729 65.4304 0.0182089
37.8372 63.2113 0.0197462
40.6237 61.6461 0.0186738
40.4423 58.2042 0.019021
35.6068 63.2049 2
38.2505 60.328 2
38.9214 56.4965 2
37.9985 55.248 3.99439
36.9335 57.6254 3.98127
35.3635 60.9125 3.98055
33.6286 63.3381 0.0187947
30.3779 62.8582 0.0176015
32.1228 62.0045 0.0172642
33.3457 61.5168 2
28.6807 62.2033 2
31.0664 61.2221 2
29.4031 60.2899 3.98053
32.3577 59.748 3.98547
28.0261 58.3757 3.98722
27.5691 59.5959 2
25.3808 58.5944 3.97881
22.7607 58.2383 3.97207
23.4009 60.3519 3.97926
23.794 59.0834 2
25.0346 60.8737 2
24.4312 62.7718 3.98245
26.8684 61.5004 0.0186924
26.2286 63.4803 2
25.5467 65.4931 3.98456
28.0616 64.1479 0.0169966
27.4626 66.1839 2
26.8355 68.3317 3.98777
29.4061 66.7594 0.0151977
28.906 68.9438 2
28.3689 71.2632 3.99232
31.0138 69.4176 0.0121705
30.6137 71.7784 2
30.1842 74.2788 4
32.8916 72.1471 0.00778585
32.6053 74.6792 2
35.0474 74.9194 0
31.7885 7.42014 3.98485
33.3475 4.92493 3.98905
33.7238 6.97936 2
35.2446 2.46296 3.99321
35.4352 4.6852 2
35.6213 6.7252 0.014011
37.5 0 4
37.5144 2.38656 2
37.5236 4.61542 0.0103886
39.7891 2.4743 0.00675102
39.9526 0.0802889 2
42.3946 0.32156 0
42.5636 35.7089 3.75823
44.3233 35.5565 2
40.7086 34.2145 3.82774
42.2392 34.1173 2
47.8991 37.7455 0.0552183
51.0447 35.5719 0.0216598
45.7178 35.1309 0.112623
43.5482 33.8574 0.188627
41.8992 32.9917 0.30564
48.0882 34.289 2
44.8488 33.0292 2
42.4481 32.3309 2
40.8143 32.6595 2
46.0967 31.5821 3.94554
43.4936 31.2706 3.87915
41.0008 31.2133 3.81768
39.2829 32.3297 3.74782
35.6933 11.7781 3.98012
37.3115 10.6305 2
37.4585 8.53494 0.0155476
38.977 10.1275 0.0168095
33.0986 11.2188 3.97981
34.7543 10.3802 2
35.8993 9.77447 0.0175041
30.4826 10.019 3.98174
32.3776 9.36997 2
34.1511 8.82305 0.0164318
49.7447 31.4422 0.0176803
49.1315 27.5528 0.0247564
49.3255 24.4681 0.0136783
47.1665 22.0273 0.0268161
44.7958 18.4829 0.0233607
42.102 14.3088 0.0216202
38.3032 12.7387 0.0207105
36.5827 12.9347 2
47.5889 29.529 2
38.6814 14.8117 2
41.7464 17.863 2
47.0233 25.211 2
44.273 21.3851 2
45.4074 27.6727 4.00054
43.7529 24.1302 4.00401
41.3341 20.7746 3.97957
35.7733 14.7647 3.97747
38.6824 17.6036 3.97839
40.8439 37.4796 3.86997
42.6748 37.4869 2
44.5987 37.4917 0.179048
45.3838 55.9298 0.00988675
45.4883 52.5167 0.0193341
45.9802 48.8882 0.0158621
42.5605 39.268 0.244299
43.4988 43.7265 0.122889
43.2861 46.0715 0.0743514
43.34 48.3998 -8.16103e-05
40.9946 43.7844 0.182443
40.6985 40.7808 0.170685
39.2739 42.6765 0.251467
43.717 54.4369 2
40.7786 39.1524 2
39.1308 40.8419 2
43.6184 50.4717 2
41.8892 47.6341 2
41.8473 45.1736 2
37.4995 42.7699 2
39.3576 44.5153 2
41.8594 53.0049 3.99384
39.1549 39.1655 3.88536
37.4973 40.8953 3.87009
35.7284 42.6804 3.7489
40.8628 49.6697 3.99925
39.806 46.0331 3.86598
37.4973 44.7174 3.81361
42.1003 56.3317 0.0141364
40.4094 54.9339 2
38.7252 53.851 3.99418
35.6069 63.2038 0.0203716
38.2507 60.328 0.0199662
38.9211 56.4954 0.0114716
35.3636 60.9134 2
36.9338 57.6253 2
37.9989 55.248 2
36.3211 55.3543 3.99086
34.4886 58.522 3.98558
33.3456 61.5159 0.0180907
28.6806 62.2029 0.0180136
31.0663 61.2216 0.0182789
32.3579 59.7487 2
29.4034 60.2901 2
30.3032 57.8206 3.98441
28.0263 58.3764 2
26.9548 56.8269 3.97786
27.5688 59.5953 0.0190905
25.381 58.5953 2
23.8491 56.7964 3.96985
21.3407 57.3926 3.97103
21.9951 59.6226 3.97807
22.7607 58.24 2
22.7355 62.0226 3.98106
23.4011 60.3529 2
23.7938 59.0825 0.0193807
25.0343 60.873 0.0193038
24.4315 62.7726 2
23.6807 64.7111 3.98422
26.2283 63.4796 0.0172373
25.5468 65.4938 2
24.8077 67.5929 3.98761
27.4626 66.1834 0.0150693
26.8356 68.3324 2
26.1641 70.6039 3.99238
28.906 68.9434 0.0122388
28.3687 71.2635 2
27.7943 73.7221 4
30.6139 71.778 0.00778042
30.1841 74.2794 2
32.6054 74.6784 0
29.811 7.9938 3.98404
31.2528 5.33211 3.98834
31.7882 7.41957 2
32.9803 2.70118 3.99296
33.3473 4.92439 2
33.724 6.97998 0.0144576
35.0474 0.080333 4
35.2445 2.46269 2
35.4353 4.68566 0.0105689
37.5 0 2
37.5145 2.38688 0.00674922
39.9526 0.0806499 0
40.7974 35.8124 3.86148
42.553 35.7113 2
44.3053 35.5714 0.188586
28.5434 10.6949 3.98103
39.1479 34.1467 3.85141
40.6935 34.2266 2
42.2513 34.1187 0.260045
48.0718 34.3073 0.0284937
44.8256 33.0441 0.128226
42.4181 32.3557 0.178772
40.8144 32.6584 0.270092
46.1211 31.5722 2
43.5149 31.2502 2
41.0274 31.1852 2
39.2738 32.3404 2
44.2984 29.7789 3.93604
41.8344 29.849 3.88514
39.3552 30.5068 3.82619
37.5112 32.231 3.77034
34.0937 12.9378 3.97865
35.6932 11.777 2
37.3114 10.6319 0.0183052
31.1865 11.9878 3.97991
33.0986 11.2185 2
34.7545 10.381 0.018547
30.4823 10.0183 2
32.3779 9.37031 0.0175017
47.5831 29.5462 0.0122246
47.019 25.2145 0.0157639
36.5831 12.9357 0.0213717
44.2761 21.4025 0.0245852
41.7477 17.8564 0.0218756
38.6826 14.8128 0.0222126
35.7728 14.7648 2
45.412 27.673 2
38.6805 17.608 2
41.3308 20.7591 2
43.7538 24.1153 2
33.6095 15.8833 3.97685
42.9679 26.5178 3.99666
40.8904 23.3398 4.00903
38.4167 20.38 3.97623
35.8504 17.5203 3.97807
39.1685 37.4841 3.90013
40.8248 37.4764 2
42.6784 37.4847 0.233354
43.7184 54.4374 0.00335768
43.6212 50.4565 -0.00321969
40.796 39.1596 0.139836
41.8246 45.1495 0.115659
41.8981 47.6158 0.040167
39.3407 44.4948 0.173084
39.1407 40.8582 0.147902
37.4997 42.7813 0.228817
41.8603 53.003 2
39.1416 39.1586 2
37.4972 40.8805 2
40.8794 49.684 2
35.7351 42.6695 2
39.8303 46.0639 2
37.4944 44.7369 2
39.7978 51.893 3.99738
37.4965 39.1831 3.90362
35.8529 40.8718 3.8511
34.1948 42.3436 3.73098
35.6488 44.5044 3.82406
38.6723 48.6806 3.97702
37.4983 46.3394 3.87258
40.4099 54.9346 0.0129897
38.7254 53.8461 2
36.7366 53.1778 4.00036
35.3635 60.9125 0.0194517
36.9335 57.6254 0.0187302
37.9985 55.248 0.00561479
34.4889 58.523 2
36.3219 55.3605 2
33.2377 55.5064 3.99271
32.3577 59.748 0.0145254
29.4031 60.2899 0.0194727
30.3037 57.8209 2
28.7084 55.3156 3.9787
28.0261 58.3757 0.012777
26.9545 56.8277 2
25.3306 55.1346 3.97371
21.8266 55.3385 3.96552
25.3808 58.5944 0.0211851
23.8488 56.7985 2
20.2268 57.0209 3.97702
20.6481 58.7768 3.97532
21.3404 57.3943 2
21.1665 61.1713 3.97949
21.9952 59.6238 2
22.7607 58.2383 0.0279273
21.8943 63.8387 3.9834
22.7357 62.0236 2
23.4009 60.3519 0.0207415
24.4312 62.7718 0.0175501
23.6808 64.7118 2
22.8359 66.7363 3.98729
25.5467 65.4931 0.0154411
24.8078 67.5936 2
24.0083 69.8051 3.99245
26.8355 68.3317 0.0122307
26.1638 70.6042 2
25.446 73.0099 4
28.3689 71.2632 0.0076799
27.7943 73.7222 2
30.1842 74.2788 0
27.8208 8.65375 3.9836
29.1548 5.87795 3.98762
29.8107 7.99305 2
30.7255 3.09837 3.99265
31.2525 5.33161 2
31.7885 7.42014 0.0151489
32.6053 0.320823 4
32.9801 2.70088 2
33.3475 4.92493 0.010946
35.0474 0.0802903 2
35.2446 2.46296 0.00678845
37.5 0 0
39.1635 35.815 3.88385
40.7796 35.82 2
42.5636 35.7089 0.241768
28.5432 10.6945 2
26.622 11.3906 3.98126
29.2254 12.6451 3.98058
37.5028 34.1173 3.86861
39.1364 34.1635 2
40.7086 34.2145 0.17226
46.0967 31.5821 0.0544557
43.4936 31.2706 0.120847
41.0008 31.2133 0.182324
39.2829 32.3297 0.252175
44.3182 29.7631 2
41.851 29.8333 2
39.3724 30.4807 2
37.5111 32.2423 2
42.3069 28.428 3.91552
39.8425 28.9623 3.88509
37.518 30.287 3.81399
35.7421 32.328 3.748
31.9157 14.4849 3.97863
34.0938 12.9377 2
35.6933 11.7781 0.0198807
31.1867 11.9873 2
33.0986 11.2188 0.0201868
30.4826 10.019 0.0182604
45.4074 27.6727 -0.000542094
43.7529 24.1302 -0.00401246
35.7733 14.7647 0.0225307
41.3341 20.7746 0.0204267
38.6824 17.6036 0.0216134
33.6083 15.8837 2
35.8482 17.5202 2
42.9759 26.5149 2
38.4169 20.3788 2
40.8876 23.326 2
33.5527 17.3952 3.97834
40.3601 25.6832 3.99955
38.0684 22.9503 3.99609
35.5821 20.0977 3.97902
37.4965 37.4958 3.92068
39.152 37.4853 2
40.8439 37.4796 0.130028
41.8594 53.0049 0.00615501
40.8628 49.6697 0.000752528
39.1549 39.1655 0.114637
39.806 46.0331 0.134023
37.4973 44.7174 0.18639
37.4973 40.8953 0.129911
35.7284 42.6804 0.251097
39.8046 51.8923 2
37.4961 39.1737 2
35.8649 40.8547 2
38.6762 48.7155 2
34.1932 42.3429 2
35.6317 44.5293 2
37.4956 46.3662 2
37.6412 50.965 4.00949
35.8392 39.1837 3.88493
34.2977 40.7942 3.82798
33.1025 42.0091 3.69672
33.9937 43.7792 3.8167
35.1606 46.0197 3.87807
36.872 48.319 3.94391
38.7252 53.851 0.00581761
36.7358 53.1855 2
34.3785 52.46 3.99617
34.4886 58.522 0.0144193
36.3211 55.3543 0.00914219
33.2378 55.5075 2
30.5392 53.3571 3.97778
30.3032 57.8206 0.015591
28.7081 55.3177 2
26.9128 53.4272 3.97278
26.9548 56.8269 0.0221389
25.3302 55.138 2
23.6076 53.4692 3.96483
20.5027 53.2094 3.9612
19.9456 55.8237 3.97027
21.8256 55.3401 2
23.8491 56.7964 0.0301503
19.4429 57.8823 3.9741
20.2263 57.0225 2
19.7077 60.2022 3.97692
20.648 58.7778 2
21.3407 57.3926 0.0289653
20.2069 62.8592 3.98141
21.1667 61.1726 2
21.9951 59.6226 0.0219311
20.9373 65.7651 3.98684
21.8943 63.8396 2
22.7355 62.0226 0.0189417
23.6807 64.7111 0.0157772
22.836 66.737 2
21.9108 68.8721 3.99227
24.8077 67.5929 0.0123893
24.0079 69.8053 2
23.1494 72.1454 4
26.1641 70.6039 0.00761617
25.446 73.0099 2
27.7943 73.7221 0
25.86 9.38235 3.98303
27.0696 6.54217 3.98682
27.8206 8.65321 2
28.4876 3.64438 3.99231
29.1545 5.87736 2
29.811 7.9938 0.0159634
30.1841 0.720592 4
30.7251 3.09812 2
31.2528 5.33211 0.0116638
32.6053 0.320817 2
32.9803 2.70118 0.00703919
35.0474 0.080333 0
37.4985 35.8153 3.90352
39.1484 35.8221 2
40.7974 35.8124 0.138517
24.7768 12.0741 3.98154
23.7517 14.3612 3.98062
28.5434 10.6949 0.0189738
26.622 11.3902 2
29.2256 12.6445 2
27.2916 13.3779 3.98104
29.7811 14.2058 3.98037
35.862 34.142 3.8507
37.5026 34.1317 2
39.1479 34.1467 0.148586
37.5112 32.231 0.229659
44.2984 29.7789 0.0639577
41.8344 29.849 0.114861
39.3552 30.5068 0.173813
42.3338 28.4011 2
39.8544 28.9313 2
37.5202 30.2741 2
35.7485 32.3402 2
40.0309 27.5969 3.913
37.5245 28.6641 3.87816
35.6743 30.5129 3.82787
34.2136 32.6631 3.73054
30.9277 16.8446 3.97819
31.9156 14.4847 2
34.0937 12.9378 0.0213507
31.1865 11.9878 0.0200945
42.9679 26.5178 0.0033387
40.8904 23.3398 -0.00902986
33.6095 15.8833 0.0231532
35.8504 17.5203 0.0219304
38.4167 20.38 0.0237653
33.5508 17.3981 2
35.5842 20.103 2
40.3627 25.6689 2
38.064 22.9339 2
32.8634 19.8044 3.98119
37.7939 25.2614 4.00605
35.1943 22.6941 3.98978
35.8284 37.5015 3.90034
37.4943 37.4952 2
39.1685 37.4841 0.0998656
39.7978 51.893 0.00262076
38.6723 48.6806 0.0229815
37.4965 39.1831 0.0963832
37.4983 46.3394 0.12742
35.6488 44.5044 0.175939
35.8529 40.8718 0.148896
34.1948 42.3436 0.269016
37.6459 50.9826 2
35.8527 39.1748 2
34.3117 40.7831 2
36.8693 48.3461 2
33.0899 42.0212 2
33.9695 43.8065 2
35.1444 46.046 2
35.4953 50.1062 3.99714
34.2074 39.1828 3.86245
32.7441 40.8803 3.74244
32.5879 42.6462 3.82393
33.1708 45.1458 3.88267
34.294 47.3934 3.92013
36.7366 53.1778 -0.000356371
34.3773 52.4669 2
32.0425 51.1666 4.00139
33.2377 55.5064 0.00728816
30.5387 53.3621 2
28.4649 51.5731 3.97753
28.7084 55.3156 0.021295
26.9121 53.4302 2
25.1251 51.7292 3.96073
25.3306 55.1346 0.0262891
23.6067 53.4714 2
22.019 51.7883 3.95773
19.2537 51.6209 3.96422
18.9449 54.2982 3.96159
20.5017 53.2089 2
18.4553 56.7144 3.9733
19.9447 55.8253 2
21.8266 55.3385 0.0344787
18.3712 59.1037 3.97348
19.4424 57.8833 2
20.2268 57.0209 0.0229752
18.6188 61.764 3.9778
19.7077 60.2036 2
20.6481 58.7768 0.0246762
19.1263 64.6755 3.98578
20.207 62.8604 2
21.1665 61.1713 0.0205074
19.8849 67.8087 3.99218
20.9374 65.7659 2
21.8943 63.8387 0.0165977
22.8359 66.7363 0.0127092
21.9104 68.8721 2
20.9142 71.1327 4
24.0083 69.8051 0.0075488
23.1494 72.1455 2
25.446 73.0099 0
23.0962 12.7893 3.98115
23.9725 10.1695 3.98268
25.0233 7.31268 3.98613
25.8598 9.38191 2
26.2792 4.32868 3.9919
27.0692 6.54172 2
27.8208 8.65375 0.0163999
27.7943 1.27781 4
28.4872 3.64413 2
29.1548 5.87795 0.0123822
30.1841 0.720551 2
30.7255 3.09837 0.0073483
32.6053 0.320823 0
35.8389 35.8211 3.88466
37.4967 35.8252 2
39.1635 35.815 0.11615
24.7769 12.0739 2
23.7524 14.3612 2
22.4807 15.0384 3.98027
25.3578 13.91 3.98049
24.0259 15.6246 3.98013
26.622 11.3906 0.0187389
29.2254 12.6451 0.0194185
27.292 13.3776 2
29.7812 14.2055 2
28.3577 15.9808 3.9803
34.3078 34.2189 3.82719
35.872 34.1598 2
37.5028 34.1173 0.131394
35.7421 32.328 0.252003
37.518 30.287 0.186014
42.3069 28.428 0.0844764
39.8425 28.9623 0.114914
40.0394 27.5738 2
37.5239 28.6387 2
35.6511 30.4856 2
34.2071 32.6643 2
37.6047 27.2996 3.92812
35.1892 28.9734 3.8848
34.0161 31.2269 3.81741
33.1281 32.9965 3.69715
30.2101 19.3511 3.98341
30.927 16.8451 2
31.9157 14.4849 0.0213727
40.3601 25.6832 0.000446461
38.0684 22.9503 0.00390526
33.5527 17.3952 0.0216641
35.5821 20.0977 0.0209822
32.864 19.8088 2
35.193 22.6878 2
37.7819 25.2432 2
32.3104 22.4424 3.99366
35.0023 25.2402 4.00376
34.1533 37.5042 3.871
35.8424 37.501 2
37.4965 37.4958 0.0793216
37.6412 50.965 -0.00948691
36.872 48.319 0.0560944
35.8392 39.1837 0.115069
35.1606 46.0197 0.121929
33.9937 43.7792 0.183304
34.2977 40.7942 0.172022
33.1025 42.0091 0.303277
35.4901 50.1251 2
34.2305 39.1716 2
32.7547 40.8827 2
34.2831 47.4285 2
32.5565 42.67 2
33.154 45.1683 2
33.2933 49.1021 3.9973
32.4273 39.2855 3.76076
31.4401 41.1377 3.81441
31.5023 43.7291 3.8794
32.3146 46.319 3.9189
34.3785 52.46 0.00383394
32.0408 51.1759 2
29.9195 49.6879 3.98939
30.5392 53.3571 0.0222176
28.4633 51.5721 2
26.57 49.9615 3.97133
26.9128 53.4272 0.0272187
25.1235 51.7271 2
23.4098 50.1714 3.96679
23.6076 53.4692 0.0351728
22.0179 51.7876 2
20.5306 50.2981 3.9661
18.0464 50.3166 3.96822
17.8752 52.7798 3.96272
19.2521 51.6204 2
17.4511 55.3303 3.96468
18.9436 54.2978 2
20.5027 53.2094 0.0388
17.1398 57.8658 3.97233
18.4545 56.7153 2
19.9456 55.8237 0.0297293
17.1377 60.5442 3.97538
18.371 59.1048 2
19.4429 57.8823 0.0258991
17.4073 63.467 3.98283
18.6188 61.7654 2
19.7077 60.2022 0.0230766
17.9413 66.6172 3.99195
19.1263 64.6766 2
20.2069 62.8592 0.0185909
18.75 69.9759 4
19.8845 67.8087 2
20.9373 65.7651 0.0131643
21.9108 68.8721 0.00772899
20.9142 71.1327 2
23.1494 72.1454 0
21.5873 13.61 3.98062
22.1905 11.0292 3.98213
23.0966 12.7894 2
23.0411 8.17848 3.98561
23.9724 10.1691 2
24.1168 5.14355 3.99154
25.0229 7.31221 2
25.86 9.38235 0.0169703
25.446 1.99014 4
26.2787 4.32857 2
27.0696 6.54217 0.0131788
27.7943 1.27778 2
28.4876 3.64438 0.00769206
30.1841 0.720592 0
34.2018 35.827 3.85946
35.8509 35.8301 2
37.4985 35.8153 0.0964792
21.3066 15.8345 3.98084
24.7768 12.0741 0.0184631
23.7517 14.3612 0.0193813
25.3583 13.91 2
22.4816 15.0385 2
24.0267 15.6248 2
23.2658 16.2568 3.97891
25.3815 16.0934 3.98029
27.2916 13.3779 0.0189605
29.7811 14.2058 0.0196343
28.358 15.9813 2
27.4423 18.806 3.9825
32.7648 34.1263 3.74022
34.3264 34.2314 2
35.862 34.142 0.149303
34.2136 32.6631 0.269456
35.6743 30.5129 0.172128
37.5245 28.6641 0.121841
40.0309 27.5969 0.0870019
37.6054 27.2683 2
33.1134 32.9863 2
35.1808 28.9421 2
33.9818 31.1911 2
35.08 27.4296 3.92934
33.1882 29.8611 3.87903
32.6099 32.3528 3.81194
29.5861 21.9465 3.99625
30.2112 19.3543 2
30.9277 16.8446 0.0218144
37.7939 25.2614 -0.00605463
35.1943 22.6941 0.0102196
32.8634 19.8044 0.0188123
32.3099 22.4397 2
35.0169 25.2327 2
31.756 25.6636 4.00711
32.3072 37.5067 3.76886
34.1778 37.507 2
35.8284 37.5015 0.0996561
35.4953 50.1062 0.00286455
34.294 47.3934 0.079866
34.2074 39.1828 0.137554
33.1708 45.1458 0.117325
32.5879 42.6462 0.176073
32.7441 40.8803 0.257561
33.2879 49.0949 2
32.4424 39.2839 2
31.4168 41.1576 2
32.2845 46.3449 2
31.4761 43.7535 2
31.2282 47.9368 3.99065
30.6886 39.4237 3.81306
30.1685 41.9521 3.87237
30.5249 44.9107 3.93719
32.0425 51.1666 -0.00138729
29.9169 49.687 2
27.9675 48.1514 3.9676
28.4649 51.5731 0.0224718
26.5685 49.9598 2
24.7421 48.4419 3.97253
25.1251 51.7292 0.0392735
23.4089 50.1699 2
21.7583 48.7659 3.96965
22.019 51.7883 0.0422712
20.529 50.2972 2
19.1148 49.0754 3.97203
16.9519 49.3186 3.97226
16.8168 51.3955 3.96627
18.0472 50.3158 2
16.4084 53.8616 3.96474
17.8725 52.7797 2
19.2537 51.6209 0.035779
15.9853 56.4661 3.9672
17.4506 55.3305 2
18.9449 54.2982 0.0384083
15.7526 59.2047 3.97361
17.1394 57.8669 2
18.4553 56.7144 0.0267012
15.7888 62.1352 3.97883
17.1378 60.5458 2
18.3712 59.1037 0.0265163
16.0884 65.2999 3.99104
17.407 63.4683 2
18.6188 61.764 0.0222012
16.6661 68.6801 4
17.9407 66.6171 2
19.1263 64.6755 0.0142206
18.75 69.9759 2
19.8849 67.8087 0.00782171
20.9142 71.1327 0
20.2198 14.5996 3.9797
21.5878 13.6101 2
20.5298 11.9995 3.98147
21.1439 9.14852 3.98521
22.1906 11.0291 2
23.0962 12.7893 0.0188475
22.0159 6.08264 3.99126
23.0408 8.17805 2
23.9725 10.1695 0.0173193
23.1494 2.85457 4
24.1162 5.14351 2
25.0233 7.31268 0.0138742
25.446 1.99012 2
26.2792 4.32868 0.00810477
27.7943 1.27781 0
32.4315 35.7228 3.75395
34.2205 35.8384 2
35.8389 35.8211 0.115337
21.3075 15.8344 2
20.3052 16.9676 3.9819
22.099 16.641 3.97862
25.3578 13.91 0.0195111
22.4807 15.0384 0.0197281
24.0259 15.6246 0.019871
25.3822 16.0937 2
23.2667 16.257 2
24.207 18.4602 3.97662
27.0263 21.4684 3.9913
28.3577 15.9808 0.0197015
27.4442 18.8065 2
31.4687 33.8736 3.81471
32.7787 34.1236 2
34.3078 34.2189 0.172812
33.1281 32.9965 0.302853
34.0161 31.2269 0.182586
35.1892 28.9734 0.1152
37.6047 27.2996 0.0718821
35.06 27.3916 2
32.5508 32.3284 2
33.1709 29.8393 2
32.6156 28.1469 3.94029
31.513 31.282 3.88086
28.8591 24.4229 3.98094
29.5836 21.952 2
30.2101 19.3511 0.0165928
35.0023 25.2402 -0.00376073
32.3104 22.4424 0.00633736
31.7583 25.6453 2
29.7324 27.3372 3.96166
30.38 37.4983 3.82018
32.3182 37.5036 2
34.1533 37.5042 0.128997
33.2933 49.1021 0.00270449
32.3146 46.319 0.0811047
32.4273 39.2855 0.239236
31.5023 43.7291 0.120595
31.4401 41.1377 0.18559
31.2262 47.9395 2
30.6648 39.4404 2
30.1457 41.9676 2
30.5151 44.926 2
29.3083 46.5382 4.00075
29.2642 39.8552 3.8867
28.8815 43.1361 3.93808
29.9195 49.6879 0.0106069
27.9653 48.1477 2
26.0748 46.6228 3.97571
26.57 49.9615 0.0286711
24.7415 48.44 2
22.9373 47.0478 3.97408
23.4098 50.1714 0.0332139
21.7579 48.7645 2
20.088 47.5978 3.97703
20.5306 50.2981 0.0338997
19.1158 49.0744 2
17.7431 48.164 3.97593
16.1949 48.6717 3.97504
16.9531 49.3179 2
15.8919 50.1591 3.96947
15.403 52.407 3.96607
16.8165 51.3951 2
18.0464 50.3166 0.0317775
14.8793 54.9693 3.9669
16.4078 53.8617 2
17.8752 52.7798 0.0372831
14.4643 57.7326 3.97001
15.985 56.4665 2
17.4511 55.3303 0.035319
14.2675 60.6887 3.97735
15.7527 59.2061 2
17.1398 57.8658 0.0276721
14.3333 63.8587 3.98856
15.7885 62.1365 2
17.1377 60.5442 0.0246207
14.6715 67.2507 4
16.0874 65.2995 2
17.4073 63.467 0.0171731
16.6661 68.6801 2
17.9413 66.6172 0.00804819
18.75 69.9759 0
18.9342 15.7863 3.97999
20.2204 14.5996 2
18.9797 13.1108 3.98047
21.5873 13.61 0.0193776
20.5302 11.9995 2
19.3431 10.2366 3.9847
19.9905 7.14729 3.99113
21.1437 9.1483 2
22.1905 11.0292 0.0178742
20.9142 3.86727 4
22.0151 6.0828 2
23.0411 8.17848 0.0143906
23.1494 2.85451 2
24.1168 5.14355 0.00846456
25.446 1.99014 0
30.7077 35.5919 3.81622
32.4451 35.7233 2
34.2018 35.827 0.140536
21.3066 15.8345 0.019155
22.1001 16.6411 2
20.3062 16.967 2
19.25 18.4156 3.9773
21.7846 17.8581 3.98002
25.3815 16.0934 0.0197105
23.2658 16.2568 0.0210932
24.2084 18.4605 2
22.2897 19.9047 3.97342
24.6077 21.3378 3.98744
26.4681 23.7345 3.9695
27.0266 21.4681 2
27.4423 18.806 0.0175022
30.1994 33.0606 3.88122
31.4482 33.8386 2
32.7648 34.1263 0.259776
32.6099 32.3528 0.188062
33.1882 29.8611 0.120968
35.08 27.4296 0.0706628
32.6002 28.1311 2
31.4855 31.2531 2
30.2275 29.5841 3.9555
27.9743 26.5598 3.98183
28.8564 24.435 2
29.5861 21.9465 0.00375005
31.756 25.6636 -0.007109
29.7303 27.3064 2
28.9156 37.5108 3.89353
30.3691 37.4994 2
32.3072 37.5067 0.231138
31.2282 47.9368 0.00934653
30.5249 44.9107 0.0628059
30.6886 39.4237 0.186943
30.1685 41.9521 0.127634
29.3071 46.5522 2
29.2394 39.8733 2
28.8544 43.1547 2
27.4582 44.8331 3.97895
27.0378 40.5839 3.9625
27.9675 48.1514 0.0324014
26.0713 46.6254 2
24.1717 45.1761 3.97612
24.7421 48.4419 0.0274749
22.9378 47.046 2
21.06 45.8687 3.97858
21.7583 48.7659 0.0303505
20.089 47.5967 2
18.4181 46.7203 3.97805
19.1148 49.0754 0.0279703
17.7439 48.1632 2
16.3979 47.7012 3.97618
16.1958 48.6711 2
15.2362 49.0053 3.97264
16.9519 49.3186 0.0277363
15.893 50.1586 2
14.516 50.9769 3.96799
13.8395 53.4288 3.96693
15.4036 52.4067 2
16.8168 51.3955 0.0337269
13.2615 56.1606 3.96816
14.8794 54.9693 2
16.4084 53.8616 0.0352633
12.851 59.1219 3.97554
14.4645 57.7335 2
15.9853 56.4661 0.0327982
12.6792 62.3009 3.98604
14.2673 60.6896 2
15.7526 59.2047 0.0263882
12.7746 65.6939 4
14.332 63.8578 2
15.7888 62.1352 0.0211698
14.6714 67.2507 2
16.0884 65.2999 0.00896418
16.6661 68.6801 0
17.671 17.1624 3.9765
18.9349 15.7861 2
17.5116 14.3754 3.97948
20.2198 14.5996 0.0202967
18.9803 13.1106 2
17.6386 11.4558 3.98367
20.5298 11.9995 0.0185257
19.3431 10.2364 2
18.0507 8.34004 3.99102
18.75 5.0241 4
19.9896 7.14775 2
21.1439 9.14852 0.0147905
20.9142 3.86727 2
22.0159 6.08264 0.00873675
23.1494 2.85457 0
29.2846 35.1381 3.89001
30.6799 35.5701 2
32.4315 35.7228 0.246051
22.099 16.641 0.021376
20.3052 16.9676 0.0180977
21.7857 17.8579 2
19.2509 18.4146 2
17.9949 19.949 3.97286
20.8861 19.3886 3.97699
24.207 18.4602 0.0233823
22.2906 19.9044 2
24.6082 21.3382 2
22.3819 21.7329 3.97755
24.7383 23.1795 3.97348
25.5585 25.9622 3.97315
26.4702 23.7345 2
27.0263 21.4684 0.00869861
28.5785 32.3619 3.93814
30.1733 33.0448 2
31.4687 33.8736 0.185294
31.513 31.282 0.119142
32.6156 28.1469 0.0597085
30.2188 29.5825 2
27.1636 29.1459 4.00504
27.9701 26.5679 2
28.8591 24.4229 0.0190586
29.7324 27.3372 0.0383354
27.157 37.3656 3.94179
28.8748 37.5055 2
30.38 37.4983 0.179822
29.3083 46.5382 -0.000753763
28.8815 43.1361 0.0619234
29.2642 39.8552 0.113302
27.4528 44.8527 2
27.0218 40.6002 2
25.4773 43.1468 3.98505
24.2913 39.4466 3.97761
26.0748 46.6228 0.0242862
24.1667 45.1747 2
22.0624 43.9215 3.9786
22.9373 47.0478 0.0259161
21.0591 45.8675 2
19.1069 44.9507 3.97836
20.088 47.5978 0.0229741
18.4193 46.7194 2
16.7058 46.1998 3.97678
17.7431 48.164 0.0240668
16.3987 47.7007 2
14.9784 47.6601 3.97422
16.1949 48.6717 0.0249569
15.2373 49.0048 2
13.8137 49.5388 3.96962
15.8919 50.1591 0.0305275
14.5169 50.9766 2
12.9076 51.8695 3.96742
12.1486 54.5222 3.96892
13.8398 53.4289 2
15.403 52.407 0.0339296
11.5371 57.4541 3.97317
13.2617 56.1608 2
14.8793 54.9693 0.0330972
11.1341 60.6267 3.98392
12.8511 59.1223 2
14.4643 57.7326 0.0299892
10.9835 64.0165 4
12.6777 62.2991 2
14.2675 60.6887 0.0226508
12.7745 65.694 2
14.3333 63.8587 0.011437
14.6715 67.2507 0
16.4085 18.6588 3.97236
17.6715 17.1617 2
16.1034 15.7851 3.97836
18.9342 15.7863 0.0200118
17.5121 14.3749 2
16.0204 12.8098 3.98181
18.9797 13.1108 0.0195323
17.6388 11.4555 2
16.2019 9.66298 3.99072
19.3431 10.2366 0.0153006
18.0498 8.34078 2
16.6661 6.31991 4
18.75 5.02404 2
19.9905 7.14729 0.00887104
20.9142 3.86727 0
27.6819 34.7895 3.93552
29.259 35.115 2
30.7077 35.5919 0.18378
16.7058 21.3872 3.96241
21.7846 17.8581 0.0199819
19.25 18.4156 0.022697
20.8869 19.388 2
17.9958 19.9478 2
19.7483 21.5856 3.97487
22.2897 19.9047 0.0265758
24.6077 21.3378 0.0125581
22.3824 21.7327 2
24.7392 23.1791 2
22.9113 24.6139 3.97119
24.7047 28.5414 3.97737
25.5565 25.9614 2
26.4681 23.7345 0.0305016
26.4228 31.7245 3.98605
28.5505 32.3437 2
30.1994 33.0606 0.118775
30.2275 29.5841 0.0444958
27.182 29.1347 2
27.9743 26.5598 0.0181671
24.9845 36.8598 3.98641
27.1339 37.3597 2
28.9156 37.5108 0.106472
27.4582 44.8331 0.0210502
27.0378 40.5839 0.0374959
25.4638 43.1543 2
24.2767 39.4451 2
23.1864 41.8058 3.98018
22.0097 38.5154 3.97764
24.1717 45.1761 0.0238825
22.0608 43.9219 2
19.9106 42.876 3.97757
21.06 45.8687 0.0214225
19.1066 44.9503 2
17.0642 44.3664 3.97706
18.4181 46.7203 0.0219494
16.7068 46.1992 2
14.9143 46.0809 3.97486
16.3979 47.7012 0.0238176
14.9793 47.6597 2
13.3263 48.0017 3.97091
15.2362 49.0053 0.0273557
13.8146 49.5385 2
12.1261 50.249 3.96797
14.516 50.9769 0.0320116
12.908 51.8694 2
11.1433 52.8335 3.96895
10.3278 55.7079 3.9731
12.1491 54.5222 2
13.8395 53.4288 0.0330724
9.70104 58.8487 3.9817
11.5373 57.4541 2
13.2615 56.1606 0.031836
9.30605 62.2254 4
11.1325 60.6243 2
12.851 59.1219 0.0244551
10.9835 64.0165 2
12.6792 62.3009 0.0139641
12.7746 65.6939 0
15.1603 20.1956 3.96571
16.409 18.658 2
14.7515 17.3093 3.97398
17.671 17.1624 0.0235002
16.1039 15.784 2
14.4832 14.2926 3.98021
17.5116 14.3754 0.0205234
16.0207 12.8092 2
14.4448 11.1141 3.98992
17.6386 11.4558 0.0163322
16.201 9.66394 2
14.6715 7.74927 4
18.0507 8.34004 0.00898196
16.6661 6.31988 2
18.75 5.0241 0
25.6393 34.2727 3.99102
27.6613 34.7829 2
29.2846 35.1381 0.109987
17.8903 22.3372 3.97214
15.5474 22.9275 3.96762
16.7064 21.3867 2
20.8861 19.3886 0.0230105
17.9949 19.949 0.0271442
19.7489 21.585 2
19.7322 24.3943 3.96937
22.3819 21.7329 0.0224466
24.7383 23.1795 0.0265222
22.9115 24.6138 2
22.0729 27.8425 3.97162
23.9805 31.2077 3.97577
24.717 28.543 2
25.5585 25.9622 0.0268484
26.4109 31.7043 2
28.5785 32.3619 0.0618562
27.1636 29.1459 -0.00503788
22.736 36.286 3.98185
24.9628 36.8552 2
27.157 37.3656 0.0582105
25.4773 43.1468 0.0149458
24.2913 39.4466 0.0223905
23.1789 41.8043 2
22.0022 38.5137 2
20.9215 40.64 3.97622
20.3248 37.7989 3.97734
22.0624 43.9215 0.0213994
19.9099 42.8758 2
17.5113 42.0868 3.97707
19.1069 44.9507 0.0216444
17.0653 44.3659 2
14.9404 44.1918 3.97522
16.7058 46.1998 0.0232152
14.9152 46.0805 2
13.0092 46.289 3.97147
14.9784 47.6601 0.0257809
13.327 48.0015 2
11.4988 48.5464 3.96824
13.8137 49.5388 0.0303773
12.1265 50.2489 2
10.2687 51.0784 3.96877
12.9076 51.8695 0.0325788
11.1438 52.8334 2
9.23631 53.888 3.97326
8.38462 56.9816 3.98159
10.3282 55.7075 2
12.1486 54.5222 0.0310754
7.74927 60.3285 4
9.69984 58.8455 2
11.5371 57.4541 0.0268288
9.306 62.2255 2
11.1341 60.6267 0.0160798
10.9835 64.0165 0
13.9725 21.7592 3.9672
15.161 20.195 2
13.4566 18.9094 3.96866
16.4085 18.6588 0.0276411
14.7521 17.3081 2
13.0294 15.8864 3.97834
16.1034 15.7851 0.0216441
14.4834 14.2915 2
12.7823 12.6877 3.98834
16.0204 12.8098 0.0181869
14.4438 11.1153 2
12.7746 9.30605 4
16.2019 9.66298 0.00927943
14.6715 7.74924 2
16.6661 6.31991 0
23.3144 33.8173 3.98221
25.6197 34.2669 2
27.6819 34.7895 0.064478
17.6808 24.0547 3.97113
17.8907 22.3368 2
14.3498 24.4587 3.96971
15.5481 22.9272 2
16.7058 21.3872 0.037587
19.1693 27.2199 3.97095
19.7483 21.5856 0.0251346
19.7321 24.394 2
21.3709 30.683 3.97385
22.9113 24.6139 0.0288107
22.0804 27.8435 2
23.9667 31.2081 2
24.7047 28.5414 0.0226289
26.4228 31.7245 0.0139526
20.4455 35.9403 3.97719
22.7317 36.28 2
24.9845 36.8598 0.013587
23.1864 41.8058 0.0198192
22.0097 38.5154 0.0223574
20.9255 40.6402 2
20.3276 37.7985 2
18.2538 39.0046 3.97753
19.9106 42.876 0.0224341
17.5132 42.0861 2
14.9142 41.9123 3.97616
17.0642 44.3664 0.0229446
14.9417 44.1915 2
12.7636 44.3857 3.97175
14.9143 46.0809 0.0251411
13.0098 46.2887 2
11.0035 46.7303 3.96844
13.3263 48.0017 0.0290878
11.4992 48.5463 2
9.53164 49.2388 3.96845
12.1261 50.249 0.0320336
10.2691 51.0782 2
8.26914 52.0017 3.97278
11.1433 52.8335 0.0310498
9.23675 53.8874 2
7.19348 55.0323 3.98255
6.31991 58.3339 4
8.38378 56.9783 2
10.3278 55.7079 0.0269013
7.74924 60.3285 2
9.70104 58.8487 0.0182981
9.30605 62.2254 0
13.2553 25.3686 3.97154
12.8407 23.2861 3.96742
13.9735 21.7589 2
12.2438 20.5571 3.96886
15.1603 20.1956 0.0342918
13.4574 18.9084 2
11.6613 17.5689 3.97463
14.7515 17.3093 0.0260213
13.0298 15.8853 2
11.22 14.3731 3.98599
14.4832 14.2926 0.01979
12.7811 12.6891 2
10.9835 10.9835 4
14.4448 11.1141 0.01008
12.7745 9.306 2
14.6715 7.74927 0
20.8045 33.4134 3.97556
23.3209 33.8215 2
25.6393 34.2727 0.00898395
15.9917 26.4133 3.9716
17.6811 24.0544 2
17.8903 22.3372 0.0278611
14.35 24.4586 2
15.5474 22.9275 0.0323814
18.5317 30.1886 3.97437
19.1694 27.22 2
19.7322 24.3943 0.0306317
21.3796 30.6839 2
22.0729 27.8425 0.0283771
23.9805 31.2077 0.0242284
17.8687 35.9743 3.97791
20.444 35.941 2
22.736 36.286 0.0181513
20.9215 40.64 0.0237766
20.3248 37.7989 0.0226636
18.2559 39.0049 2
14.4272 39.1745 3.97713
17.5113 42.0868 0.0229267
14.9158 41.9121 2
12.4654 42.2716 3.97207
14.9404 44.1918 0.0247847
12.7643 44.3855 2
10.5862 44.7991 3.96891
13.0092 46.289 0.028531
11.0038 46.7302 2
8.91375 47.3181 3.9681
11.4988 48.5464 0.0317619
9.53187 49.2387 2
7.43603 50.0353 3.97225
10.2687 51.0784 0.0312267
8.26949 52.0011 2
6.13409 53.0074 3.98302
9.23631 53.888 0.0267413
7.19295 55.0295 2
5.0241 56.25 4
6.31988 58.3339 2
8.38462 56.9816 0.0184109
7.74927 60.3285 0
13.5152 26.822 3.97088
11.9495 24.7917 3.96898
13.2553 25.3685 2
11.1458 22.2385 3.96883
12.8409 23.2858 2
13.9725 21.7592 0.0328039
12.2448 20.5567 2
10.3931 19.3235 3.97291
13.4566 18.9094 0.0313359
11.662 17.5681 2
9.76133 16.1574 3.98301
13.0294 15.8864 0.021665
11.2187 14.3751 2
9.30607 12.7746 4
12.7823 12.6877 0.0116605
10.9835 10.9835 2
12.7746 9.30605 0
18.0392 33.1242 3.97674
20.8075 33.4137 2
23.3144 33.8173 0.0177924
15.6058 29.6483 3.9734
15.9921 26.4134 2
17.6808 24.0547 0.0288747
14.3498 24.4587 0.0302927
18.5314 30.1887 2
19.1693 27.2199 0.0290535
21.3709 30.683 0.0261547
15.0479 36.0223 3.97695
17.8716 35.9745 2
20.4455 35.9403 0.0228137
12.687 37.8293 3.97537
18.2538 39.0046 0.022469
14.4282 39.1745 2
11.9839 40.1373 3.97282
14.9142 41.9123 0.0238356
12.4661 42.2714 2
10.1948 42.7746 3.96898
12.7636 44.3857 0.0282478
10.5864 44.799 2
8.39158 45.3201 3.9679
11.0035 46.7303 0.0315587
8.91384 47.318 2
6.72729 48.0005 3.97175
9.53164 49.2388 0.0315518
7.43622 50.0348 2
5.21092 50.9107 3.98282
8.26914 52.0017 0.0272249
6.13382 53.0055 2
3.86727 54.0858 4
7.19348 55.0323 0.0174477
5.02404 56.25 2
6.31991 58.3339 0
12.9853 29.0403 3.97056
11.3881 26.4914 3.96895
13.5149 26.8219 2
10.2033 23.9696 3.96916
11.9501 24.7916 2
13.2553 25.3686 0.028459
9.24523 21.1404 3.97291
11.1467 22.2382 2
12.8407 23.2861 0.0325825
12.2438 20.5571 0.0311414
10.3941 19.3234 2
8.41757 18.0291 3.98134
11.6613 17.5689 0.0253725
9.76018 16.1602 2
7.74928 14.6715 4
11.22 14.3731 0.0140134
9.30602 12.7745 2
10.9835 10.9835 0
14.6068 32.8701 3.97533
18.0415 33.1246 2
20.8045 33.4134 0.0244447
15.6065 29.6485 2
15.9917 26.4133 0.0284024
18.5317 30.1886 0.0256336
12.9854 36.2111 3.97417
15.0499 36.0224 2
17.8687 35.9743 0.022092
12.6879 37.8292 2
11.3269 38.3086 3.97355
14.4272 39.1745 0.0228749
11.9852 40.1372 2
9.78579 40.7519 3.9697
12.4654 42.2716 0.0279266
10.1954 42.7745 2
7.94088 43.2689 3.96776
10.5862 44.7991 0.0310888
8.39168 45.3199 2
6.13356 45.9055 3.97123
8.91375 47.3181 0.0318956
6.72736 48.0001 2
4.42248 48.7514 3.98225
7.43603 50.0353 0.0277542
5.2108 50.9097 2
2.85457 51.8506 4
6.13409 53.0074 0.0169805
3.86727 54.0858 2
5.0241 56.25 0
12.1323 31.2624 3.97182
10.8078 28.419 3.96893
12.986 29.0403 2
9.4179 25.7992 3.96874
11.3882 26.4913 2
13.5152 26.822 0.0291219
8.23172 23.0239 3.97291
10.2039 23.9695 2
11.9495 24.7917 0.0310241
7.19961 19.979 3.98186
9.24615 21.1406 2
11.1458 22.2385 0.0311669
10.3931 19.3235 0.0270939
8.41699 18.0324 2
6.31992 16.6661 4
9.76133 16.1574 0.016992
7.74926 14.6714 2
9.30607 12.7746 0
12.1615 34.2981 3.97441
14.6079 32.8703 2
18.0392 33.1242 0.0232579
15.6058 29.6483 0.0266029
10.8895 36.6116 3.97291
12.9861 36.2111 2
15.0479 36.0223 0.0230516
12.687 37.8293 0.024626
11.3277 38.3085 2
9.37597 38.8222 3.9702
11.9839 40.1373 0.0271846
9.78633 40.7517 2
7.55196 41.2105 3.96806
10.1948 42.7746 0.0310155
7.9409 43.2688 2
5.6457 43.7683 3.97087
8.39158 45.3201 0.0320996
6.13366 45.9052 2
3.76813 46.5371 3.98167
6.72729 48.0005 0.028249
4.42249 48.751 2
1.99014 49.554 4
5.21092 50.9107 0.0171834
2.85451 51.8506 2
3.86727 54.0858 0
10.9722 32.9227 3.97325
10.1265 30.3857 3.96924
12.133 31.2625 2
8.72588 27.7327 3.96837
10.8081 28.4189 2
12.9853 29.0403 0.0294445
7.35719 24.9826 3.97219
9.4182 25.7991 2
11.3881 26.4914 0.0310466
6.1164 22.0023 3.98289
8.23238 23.0241 2
10.2033 23.9696 0.0308366
5.02411 18.75 4
7.19939 19.9817 2
9.24523 21.1404 0.0270869
8.41757 18.0291 0.0186618
6.3199 16.6661 2
7.74928 14.6715 0
10.4942 35.0017 3.97257
12.1623 34.2981 2
14.6068 32.8701 0.0246708
9.04349 36.9847 3.97054
10.8907 36.6115 2
12.9854 36.2111 0.0258322
11.3269 38.3086 0.0264546
9.37672 38.822 2
7.23229 39.1816 3.96839
9.78579 40.7519 0.0303003
7.55219 41.2103 2
5.26102 41.6139 3.97057
7.94088 43.2689 0.0322431
5.64573 43.768 2
3.24595 44.2819 3.98139
6.13356 45.9055 0.0287715
3.76826 46.5368 2
1.27781 47.2057 4
4.42248 48.7514 0.0177521
1.99012 49.554 2
2.85457 51.8506 0
10.1308 33.8837 3.97294
9.41318 32.1569 3.96996
10.9728 32.9228 2
8.0748 29.6961 3.96835
10.1269 30.3857 2
12.1323 31.2624 0.0281839
6.60106 27.0086 3.97159
8.7259 27.7326 2
10.8078 28.419 0.0310707
5.17178 24.095 3.98291
7.35753 24.9827 2
9.4179 25.7992 0.0312564
3.86728 20.9142 4
6.11636 22.004 2
8.23172 23.0239 0.0270926
5.02406 18.75 2
7.19961 19.979 0.0181393
6.31992 16.6661 0
8.86706 35.2801 3.97082
10.4947 35.0017 2
12.1615 34.2981 0.0255871
7.01575 37.2057 3.96864
9.0438 36.9846 2
10.8895 36.6116 0.0270871
9.37597 38.8222 0.0297958
7.23254 39.1815 2
4.98879 39.4672 3.97063
7.55196 41.2105 0.0319436
5.26124 41.6136 2
2.85648 42.0022 3.98122
5.6457 43.7683 0.0291285
3.24603 44.2818 2
0.720592 44.8159 4
3.76813 46.5371 0.0183337
1.27778 47.2057 2
1.99014 49.554 0
8.90501 33.6992 3.97068
10.1314 33.8837 2
7.51214 31.6096 3.96859
9.4136 32.1569 2
10.9722 32.9227 0.0267493
5.94619 29.0696 3.97148
8.07474 29.6961 2
10.1265 30.3857 0.0307645
4.35957 26.2475 3.98223
6.60112 27.0087 2
8.72588 27.7327 0.0316291
2.85458 23.1494 4
5.1718 24.0957 2
7.35719 24.9826 0.0278129
3.86728 20.9142 2
6.1164 22.0023 0.0171115
5.02411 18.75 0
6.96577 35.3061 3.96882
8.8676 35.2801 2
10.4942 35.0017 0.0274302
4.83872 37.3396 3.97131
7.01581 37.2057 2
9.04349 36.9847 0.0294639
7.23229 39.1816 0.0316124
4.98904 39.467 2
2.6046 39.7139 3.98095
5.26102 41.6139 0.0294296
2.85672 42.0024 2
0.320823 42.3947 4
3.24595 44.2819 0.0186056
0.720551 44.8159 2
1.27781 47.2057 0
7.12576 33.4611 3.96887
8.90528 33.6992 2
10.1308 33.8837 0.027059
5.41699 31.1335 3.97156
7.51218 31.6096 2
9.41318 32.1569 0.0300424
3.6813 28.4434 3.98173
5.94615 29.0697 2
8.0748 29.6961 0.0316509
1.99015 25.446 4
4.35961 26.2476 2
6.60106 27.0086 0.0284062
2.85453 23.1494 2
5.17178 24.095 0.0170887
3.86728 20.9142 0
4.85292 35.2514 3.97161
6.96607 35.3061 2
8.86706 35.2801 0.0291751
2.49595 37.4285 3.98163
4.83876 37.3397 2
7.01575 37.2057 0.0313644
4.98879 39.4672 0.0293707
2.60488 39.7143 2
0.080333 39.9526 4
2.85648 42.0022 0.0187826
0.320817 42.3947 2
0.720592 44.8159 0
5.0463 33.1901 3.97171
7.12587 33.4611 2
8.90501 33.6992 0.0293219
3.1456 30.6661 3.98149
5.41702 31.1337 2
7.51214 31.6096 0.031411
1.27793 27.7943 4
3.68138 28.4435 2
5.94619 29.0696 0.0285154
1.99013 25.446 2
4.35957 26.2475 0.0177736
2.85458 23.1494 0
2.54803 35.159 3.98167
4.85323 35.2516 2
6.96577 35.3061 0.0311849
0 37.5 4
2.49601 37.4289 2
4.83872 37.3396 0.0286858
2.6046 39.7139 0.0190465
0.0802903 39.9526 2
0.320823 42.3947 0
2.76563 32.9057 3.98175
5.04641 33.1903 2
7.12576 33.4611 0.0311289
0.721173 30.1842 4
3.14574 30.6665 2
5.41699 31.1335 0.0284431
1.27779 27.7943 2
3.6813 28.4434 0.0182699
1.99015 25.446 0
0.0806499 35.0474 4
2.54837 35.1594 2
4.85292 35.2514 0.0283941
0 37.5 2
2.49595 37.4285 0.0183687
0.080333 39.9526 0
0.32156 32.6054 4
2.76574 32.9062 2
5.0463 33.1901 0.0282861
0.72056 30.1841 2
3.1456 30.6661 0.0185099
1.27793 27.7943 0
0.0802889 35.0474 2
2.54803 35.159 0.018334
0 37.5 0
0.320817 32.6053 2
2.76563 32.9057 0.0182478
0.721173 30.1842 0
0.0806499 35.0474 0
0.32156 32.6054 0
CELLS 1910 17190
8 18 6 25 56 2 0 5 16
8 57 23 6 18 17 4 0 2
8 78 36 9 29 31 11 1 7
8 31 11 1 7 79 37 10 30
8 110 57 18 50 48 17 2 14
8 50 18 56 111 14 2 16 49
8 116 62 22 55 52 20 3 15
8 56 25 67 118 16 5 24 53
8 119 63 23 57 54 21 4 17
8 55 22 63 119 15 3 21 54
8 58 26 68 121 18 6 25 56
8 122 65 26 58 57 23 6 18
8 73 31 7 27 142 79 30 71
8 143 78 29 72 73 31 7 27
8 83 147 76 34 32 74 28 8
8 84 148 78 36 33 75 29 9
8 76 34 8 28 148 84 33 75
8 37 79 150 86 10 30 77 35
8 151 87 36 78 80 38 11 31
8 80 38 11 31 152 88 37 79
8 175 100 42 94 96 44 12 40
8 44 96 176 101 12 40 95 43
8 101 176 98 46 43 95 41 13
8 46 98 178 103 13 41 97 45
8 178 103 45 97 147 83 32 74
8 189 116 55 109 106 52 15 47
8 111 56 118 191 49 16 53 107
8 192 119 57 110 108 54 17 48
8 109 55 119 192 47 15 54 108
8 194 122 58 112 110 57 18 50
8 112 58 121 195 50 18 56 111
8 115 61 19 51 197 124 59 113
8 115 61 125 198 51 19 60 114
8 198 125 62 116 114 60 20 52
8 200 127 64 120 116 62 22 55
8 118 67 132 202 53 24 66 117
8 121 68 133 203 56 25 67 118
8 120 64 128 204 55 22 63 119
8 204 128 65 122 119 63 23 57
8 206 134 68 121 123 69 26 58
8 123 69 26 58 207 131 65 122
8 226 147 74 138 140 76 28 70
8 229 148 75 139 143 78 29 72
8 140 76 28 70 229 148 75 139
8 142 79 30 71 231 150 77 141
8 144 80 31 73 232 152 79 142
8 233 151 78 143 144 80 31 73
8 150 86 35 77 235 154 81 145
8 235 154 81 145 146 82 39 91
8 146 82 39 91 236 155 90 165
8 238 157 83 147 149 85 34 76
8 239 158 84 148 151 87 36 78
8 149 85 34 76 239 158 84 148
8 152 88 37 79 241 160 86 150
8 242 161 87 151 153 89 38 80
8 153 89 38 80 243 162 88 152
8 171 98 41 92 265 178 97 169
8 265 178 97 169 226 147 74 138
8 172 96 40 93 266 176 95 170
8 266 176 95 170 171 98 41 92
8 269 175 94 173 172 96 40 93
8 271 180 99 174 175 100 42 94
8 197 124 59 113 271 180 99 174
8 272 181 100 175 177 102 44 96
8 273 182 101 176 179 104 46 98
8 177 102 44 96 273 182 101 176
8 179 104 46 98 275 184 103 178
8 275 184 103 178 238 157 83 147
8 188 115 51 105 283 197 113 186
8 188 115 198 284 105 51 114 187
8 284 198 116 189 187 114 52 106
8 286 200 120 193 189 116 55 109
8 191 118 202 288 107 53 117 190
8 195 121 203 289 111 56 118 191
8 193 120 204 290 109 55 119 192
8 290 204 122 194 192 119 57 110
8 196 123 58 112 292 207 122 194
8 293 206 121 195 196 123 58 112
8 199 126 61 115 297 211 124 197
8 298 212 127 200 198 125 62 116
8 199 126 212 298 115 61 125 198
8 205 129 64 120 300 214 127 200
8 301 217 130 201 202 132 66 117
8 209 136 168 264 301 217 130 201
8 302 219 132 202 203 133 67 118
8 303 220 133 203 206 134 68 121
8 205 129 215 304 120 64 128 204
8 304 215 131 207 204 128 65 122
8 306 221 134 206 208 135 69 123
8 208 135 69 123 307 218 131 207
8 210 137 167 263 309 223 136 209
8 328 238 147 226 230 149 76 140
8 228 146 91 166 329 236 165 260
8 231 150 77 141 330 235 145 227
8 330 235 145 227 228 146 91 166
8 332 239 148 229 233 151 78 143
8 230 149 76 140 332 239 148 229
8 232 152 79 142 334 241 150 231
8 234 153 80 144 335 243 152 232
8 336 242 151 233 234 153 80 144
8 236 155 90 165 338 245 164 259
8 241 160 86 150 339 246 154 235
8 339 246 154 235 237 156 82 146
8 237 156 82 146 340 247 155 236
8 342 249 157 238 240 159 85 149
8 343 250 158 239 242 161 87 151
8 240 159 85 149 343 250 158 239
8 243 162 88 152 345 252 160 241
8 244 163 253 346 153 89 161 242
8 244 163 89 153 347 254 162 243
8 311 224 261 371 210 137 167 263
8 263 167 262 372 209 136 168 264
8 267 179 98 171 375 275 178 265
8 375 275 178 265 328 238 147 226
8 376 273 176 266 267 179 98 171
8 268 177 96 172 376 273 176 266
8 379 272 175 269 268 177 96 172
8 380 271 174 270 269 175 94 173
8 283 197 113 186 380 271 174 270
8 381 277 180 271 272 181 100 175
8 297 211 124 197 381 277 180 271
8 382 278 181 272 274 183 102 177
8 274 183 102 177 383 279 182 273
8 383 279 182 273 276 185 104 179
8 385 281 184 275 342 249 157 238
8 276 185 104 179 385 281 184 275
8 285 199 115 188 393 297 197 283
8 394 298 200 286 284 198 116 189
8 285 199 298 394 188 115 198 284
8 291 205 120 193 396 300 200 286
8 397 301 201 287 288 202 117 190
8 295 209 264 374 397 301 201 287
8 398 302 202 288 289 203 118 191
8 399 303 203 289 293 206 121 195
8 291 205 304 400 193 120 204 290
8 400 304 207 292 290 204 122 194
8 294 208 123 196 402 307 207 292
8 403 306 206 293 294 208 123 196
8 296 210 263 373 405 309 209 295
8 408 312 213 299 297 211 126 199
8 299 213 313 409 199 126 212 298
8 409 313 214 300 298 212 127 200
8 305 216 129 205 411 315 214 300
8 412 318 217 301 302 219 132 202
8 309 223 136 209 412 318 217 301
8 413 320 219 302 303 220 133 203
8 306 221 321 414 206 134 220 303
8 307 218 131 207 415 316 215 304
8 305 216 316 415 205 129 215 304
8 417 322 221 306 308 222 135 208
8 308 222 135 208 418 319 218 307
8 310 225 137 210 420 325 223 309
8 423 326 224 311 310 225 137 210
8 329 236 165 260 441 338 259 368
8 442 342 238 328 333 240 149 230
8 331 237 146 228 443 340 236 329
8 334 241 150 231 444 339 235 330
8 444 339 235 330 331 237 146 228
8 446 343 239 332 336 242 151 233
8 333 240 149 230 446 343 239 332
8 335 243 152 232 448 345 241 334
8 337 244 153 234 449 347 243 335
8 337 244 346 450 234 153 242 336
8 338 245 164 259 452 349 258 367
8 340 247 155 236 453 350 245 338
8 345 252 160 241 454 351 246 339
8 454 351 246 339 341 248 156 237
8 341 248 156 237 455 352 247 340
8 240 159 251 344 342 249 354 457
8 242 161 253 346 343 250 355 458
8 343 250 355 458 240 159 251 344
8 347 254 162 243 460 357 252 345
8 348 255 358 461 244 163 253 346
8 348 255 163 244 462 359 254 347
8 473 360 257 365 363 256 364 482
8 452 349 258 367 365 257 366 485
8 422 324 369 488 311 224 261 371
8 371 261 370 490 263 167 262 372
8 407 311 371 491 296 210 263 373
8 373 263 372 492 295 209 264 374
8 493 385 275 375 442 342 238 328
8 377 276 179 267 493 385 275 375
8 378 274 177 268 494 383 273 376
8 494 383 273 376 377 276 179 267
8 497 382 272 379 378 274 177 268
8 498 381 271 380 379 272 175 269
8 393 297 197 283 498 381 271 380
8 499 387 277 381 382 278 181 272
8 408 312 211 297 499 387 277 381
8 500 388 278 382 384 280 183 274
8 501 389 279 383 386 282 185 276
8 384 280 183 274 501 389 279 383
8 386 282 185 276 503 391 281 385
8 503 391 281 385 457 354 249 342
8 511 408 299 395 393 297 199 285
8 395 299 409 512 285 199 298 394
8 512 409 300 396 394 298 200 286
8 401 305 205 291 514 411 300 396
8 515 412 301 397 398 302 202 288
8 405 309 209 295 515 412 301 397
8 516 413 302 398 399 303 203 289
8 403 306 414 517 293 206 303 399
8 402 307 207 292 518 415 304 400
8 401 305 415 518 291 205 304 400
8 404 308 208 294 520 418 307 402
8 521 417 306 403 404 308 208 294
8 406 310 210 296 523 420 309 405
8 526 423 311 407 406 310 210 296
8 410 314 213 299 527 424 312 408
8 528 425 315 411 409 313 214 300
8 410 314 425 528 299 213 313 409
8 416 317 216 305 530 427 315 411
8 531 430 318 412 413 320 219 302
8 420 325 223 309 531 430 318 412
8 532 432 320 413 414 321 220 303
8 417 322 433 533 306 221 321 414
8 418 319 218 307 534 428 316 415
8 416 317 428 534 305 216 316 415
8 419 323 434 536 308 222 322 417
8 419 323 222 308 537 431 319 418
8 421 327 225 310 539 438 325 420
8 421 327 439 541 310 225 326 423
8 543 437 324 422 423 326 224 311
8 441 338 259 368 559 452 367 486
8 443 340 236 329 560 453 338 441
8 333 240 344 447 442 342 457 561
8 445 341 237 331 562 455 340 443
8 448 345 241 334 563 454 339 444
8 563 454 339 444 445 341 237 331
8 336 242 346 450 446 343 458 565
8 446 343 458 565 333 240 344 447
8 449 347 243 335 567 460 345 448
8 451 348 244 337 568 462 347 449
8 451 348 461 569 337 244 346 450
8 570 463 349 452 473 360 257 365
8 453 350 245 338 570 463 349 452
8 455 352 247 340 571 464 350 453
8 460 357 252 345 572 465 351 454
8 572 465 351 454 456 353 248 341
8 456 353 248 341 573 466 352 455
8 344 251 356 459 457 354 468 575
8 458 355 469 576 344 251 356 459
8 346 253 358 461 458 355 469 576
8 462 359 254 347 578 471 357 460
8 348 255 359 462 461 358 472 579
8 591 474 360 473 475 361 256 363
8 475 361 256 363 594 477 362 479
8 363 256 364 482 479 362 480 603
8 590 473 365 484 481 363 482 605
8 482 364 257 365 606 483 366 485
8 559 452 367 486 484 365 485 607
8 542 436 487 609 422 324 369 488
8 525 422 488 611 407 311 371 491
8 488 369 489 612 371 261 370 490
8 491 371 490 613 373 263 372 492
8 495 386 276 377 614 503 385 493
8 614 503 385 493 561 457 342 442
8 615 501 383 494 495 386 276 377
8 496 384 274 378 615 501 383 494
8 618 500 382 497 496 384 274 378
8 619 499 381 498 497 382 272 379
8 511 408 297 393 619 499 381 498
8 620 505 387 499 500 388 278 382
8 527 424 312 408 620 505 387 499
8 502 390 506 621 384 280 388 500
8 622 507 389 501 504 392 282 386
8 502 390 280 384 622 507 389 501
8 504 392 282 386 624 509 391 503
8 624 509 391 503 575 468 354 457
8 513 410 299 395 630 527 408 511
8 631 528 411 514 512 409 300 396
8 513 410 528 631 395 299 409 512
8 519 416 305 401 633 530 411 514
8 634 531 412 515 516 413 302 398
8 523 420 309 405 634 531 412 515
8 635 532 413 516 517 414 303 399
8 521 417 533 636 403 306 414 517
8 520 418 307 402 637 534 415 518
8 519 416 534 637 401 305 415 518
8 522 419 308 404 639 537 418 520
8 522 419 536 640 404 308 417 521
8 524 421 310 406 642 539 420 523
8 524 421 541 644 406 310 423 526
8 646 543 422 525 526 423 311 407
8 529 426 314 410 647 544 424 527
8 528 425 545 648 411 315 427 530
8 529 426 545 648 410 314 425 528
8 535 429 317 416 649 546 427 530
8 650 548 430 531 532 432 320 413
8 539 438 325 420 650 548 430 531
8 533 433 550 651 414 321 432 532
8 536 434 551 652 417 322 433 533
8 537 431 319 418 653 547 428 534
8 535 429 547 653 416 317 428 534
8 538 435 552 654 419 323 434 536
8 538 435 323 419 655 549 431 537
8 540 440 327 421 657 556 438 539
8 540 440 557 659 421 327 439 541
8 541 439 555 660 423 326 437 543
8 661 554 436 542 543 437 324 422
8 676 570 452 559 590 473 365 484
8 560 453 338 441 676 570 452 559
8 562 455 340 443 677 571 453 560
8 447 344 459 566 561 457 575 678
8 564 456 341 445 679 573 455 562
8 567 460 345 448 680 572 454 563
8 680 572 454 563 564 456 341 445
8 565 458 576 682 447 344 459 566
8 450 346 461 569 565 458 576 682
8 568 462 347 449 684 578 460 567
8 451 348 462 568 569 461 579 685
8 686 580 463 570 591 474 360 473
8 571 464 350 453 686 580 463 570
8 573 466 352 455 687 581 464 571
8 572 465 582 688 460 357 471 578
8 574 467 582 688 456 353 465 572
8 574 467 353 456 689 583 466 573
8 459 356 470 577 575 468 585 691
8 576 469 586 692 459 356 470 577
8 461 358 472 579 576 469 586 692
8 462 359 471 578 579 472 588 694
8 704 591 473 590 593 475 363 481
8 595 476 592 705 475 361 474 591
8 593 475 363 481 707 594 479 602
8 594 477 362 479 709 598 478 600
8 595 476 361 475 711 597 477 594
8 479 362 480 603 600 478 601 720
8 481 363 482 605 602 479 603 722
8 603 480 364 482 723 604 483 606
8 605 482 365 484 724 606 485 607
8 656 553 608 726 542 436 487 609
8 645 542 609 728 525 422 488 611
8 609 487 610 729 488 369 489 612
8 611 488 612 730 491 371 490 613
8 616 504 386 495 731 624 503 614
8 731 624 503 614 678 575 457 561
8 732 622 501 615 616 504 386 495
8 617 502 384 496 732 622 501 615
8 617 502 621 735 496 384 500 618
8 736 620 499 619 618 500 382 497
8 630 527 408 511 736 620 499 619
8 621 506 626 737 500 388 505 620
8 647 544 424 527 737 626 505 620
8 623 508 627 738 502 390 506 621
8 623 508 390 502 739 628 507 622
8 625 510 628 739 504 392 507 622
8 740 629 509 624 691 585 468 575
8 625 510 392 504 740 629 509 624
8 632 529 410 513 744 647 527 630
8 631 528 648 745 514 411 530 633
8 632 529 648 745 513 410 528 631
8 638 535 416 519 746 649 530 633
8 747 650 531 634 635 532 413 516
8 642 539 420 523 747 650 531 634
8 636 533 651 748 517 414 532 635
8 640 536 652 749 521 417 533 636
8 639 537 418 520 750 653 534 637
8 638 535 653 750 519 416 534 637
8 641 538 419 522 751 655 537 639
8 641 538 654 752 522 419 536 640
8 643 540 421 524 753 657 539 642
8 643 540 659 755 524 421 541 644
8 644 541 660 757 526 423 543 646
8 758 661 542 645 646 543 422 525
8 529 426 544 647 648 545 662 759
8 530 427 545 648 649 546 663 760
8 535 429 546 649 653 547 664 761
8 762 666 548 650 651 550 432 532
8 657 556 438 539 762 666 548 650
8 652 551 668 763 533 433 550 651
8 654 552 669 764 536 434 551 652
8 655 549 431 537 765 665 547 653
8 538 435 549 655 654 552 667 766
8 661 554 671 768 542 436 553 656
8 658 558 440 540 769 674 556 657
8 658 558 675 770 540 440 557 659
8 659 557 673 771 541 439 555 660
8 660 555 672 772 543 437 554 661
8 788 686 570 676 704 591 473 590
8 677 571 453 560 788 686 570 676
8 679 573 455 562 789 687 571 677
8 566 459 577 683 678 575 691 790
8 681 574 456 564 791 689 573 679
8 680 572 688 792 567 460 578 684
8 681 574 688 792 564 456 572 680
8 682 576 692 794 566 459 577 683
8 569 461 579 685 682 576 692 794
8 568 462 578 684 685 579 694 796
8 687 581 464 571 798 696 580 686
8 798 696 580 686 705 592 474 591
8 689 583 466 573 799 697 581 687
8 688 582 698 800 578 471 588 694
8 690 584 698 800 574 467 582 688
8 690 584 467 574 801 699 583 689
8 693 587 701 803 577 470 585 691
8 693 587 470 577 804 702 586 692
8 695 589 702 804 579 472 586 692
8 695 589 472 579 805 703 588 694
8 708 595 705 813 593 475 591 704
8 710 596 706 814 595 476 592 705
8 707 594 479 602 816 709 600 719
8 708 595 475 593 817 711 594 707
8 709 598 478 600 819 715 599 717
8 711 597 477 594 820 714 598 709
8 710 596 476 595 822 713 597 711
8 600 478 601 720 717 599 718 832
8 602 479 603 722 719 600 720 834
8 720 601 480 603 835 721 604 723
8 722 603 482 605 836 723 606 724
8 767 670 725 839 656 553 608 726
8 756 656 726 841 645 542 609 728
8 726 608 727 842 609 487 610 729
8 728 609 729 843 611 488 612 730
8 844 740 624 731 790 691 575 678
8 733 625 504 616 844 740 624 731
8 734 623 502 617 845 739 622 732
8 733 625 739 845 616 504 622 732
8 734 623 738 846 617 502 621 735
8 735 621 737 847 618 500 620 736
8 744 647 527 630 847 737 620 736
8 621 506 627 738 737 626 741 848
8 647 544 626 737 759 662 741 848
8 623 508 628 739 738 627 742 849
8 740 629 585 691 850 743 700 802
8 625 510 629 740 739 628 743 850
8 632 529 647 744 745 648 759 854
8 633 530 648 745 746 649 760 855
8 638 535 649 746 750 653 761 856
8 857 762 650 747 748 651 532 635
8 753 657 539 642 857 762 650 747
8 749 652 763 858 636 533 651 748
8 752 654 764 859 640 536 652 749
8 751 655 537 639 860 765 653 750
8 641 538 655 751 752 654 766 861
8 754 658 540 643 862 769 657 753
8 754 658 770 863 643 540 659 755
8 755 659 771 864 644 541 660 757
8 758 661 768 866 645 542 656 756
8 757 660 772 867 646 543 661 758
8 759 662 773 868 648 545 663 760
8 649 546 663 760 761 664 774 871
8 765 665 547 653 872 775 664 761
8 873 777 666 762 763 668 550 651
8 769 674 556 657 873 777 666 762
8 764 669 779 874 652 551 668 763
8 654 552 667 766 764 669 778 875
8 655 549 665 765 766 667 776 876
8 768 671 782 877 656 553 670 767
8 772 672 783 878 661 554 671 768
8 658 558 674 769 770 675 786 879
8 659 557 675 770 771 673 785 881
8 882 784 672 772 771 673 555 660
8 789 687 571 677 897 798 686 788
8 897 798 686 788 813 705 591 704
8 791 689 573 679 898 799 687 789
8 795 693 803 900 683 577 691 790
8 793 690 574 681 901 801 689 791
8 792 688 800 902 684 578 694 796
8 793 690 800 902 681 574 688 792
8 795 693 577 683 903 804 692 794
8 797 695 804 903 685 579 692 794
8 797 695 579 685 904 805 694 796
8 905 806 697 799 798 696 581 687
8 814 706 806 905 705 592 696 798
8 689 583 697 799 801 699 808 907
8 800 698 809 908 694 588 703 805
8 690 584 699 801 800 698 809 908
8 803 701 810 909 691 585 700 802
8 693 587 702 804 803 701 811 910
8 695 589 703 805 804 702 812 911
8 818 710 814 919 708 595 705 813
8 821 712 815 920 710 596 706 814
8 816 709 600 719 922 819 717 831
8 817 711 594 707 923 820 709 816
8 818 710 595 708 924 822 711 817
8 819 715 599 717 926 827 716 829
8 820 714 598 709 927 826 715 819
8 929 825 713 822 820 714 597 711
8 821 712 596 710 930 824 713 822
8 717 599 718 832 829 716 830 942
8 719 600 720 834 831 717 832 944
8 832 718 601 720 945 833 721 835
8 834 720 603 722 946 835 723 836
8 869 780 838 950 767 670 725 839
8 865 767 839 952 756 656 726 841
8 839 725 840 953 726 608 727 842
8 841 726 842 954 728 609 729 843
8 844 740 691 790 955 850 802 899
8 733 625 740 844 845 739 850 955
8 734 623 739 845 846 738 849 956
8 735 621 738 846 847 737 848 957
8 744 647 737 847 854 759 848 957
8 738 627 742 849 848 741 851 958
8 848 741 851 958 759 662 773 868
8 850 743 700 802 959 852 807 906
8 849 742 628 739 959 852 743 850
8 854 759 868 965 745 648 760 855
8 746 649 760 855 856 761 871 966
8 860 765 653 750 967 872 761 856
8 968 873 762 857 858 763 651 748
8 862 769 657 753 968 873 762 857
8 859 764 874 969 749 652 763 858
8 752 654 766 861 859 764 875 970
8 751 655 765 860 861 766 876 971
8 754 658 769 862 863 770 879 972
8 755 659 770 863 864 771 881 974
8 976 882 772 867 864 771 660 757
8 866 768 877 977 756 656 767 865
8 867 772 878 978 758 661 768 866
8 760 663 773 868 871 774 883 980
8 870 781 837 948 982 890 780 869
8 982 890 780 869 877 782 670 767
8 761 664 774 871 872 775 884 984
8 876 776 665 765 985 885 775 872
8 873 777 668 763 986 887 779 874
8 769 674 777 873 879 786 887 986
8 764 669 778 875 874 779 888 987
8 766 667 776 876 875 778 886 988
8 878 783 892 989 768 671 782 877
8 878 783 672 772 990 893 784 882
8 880 787 675 770 991 896 786 879
8 880 787 895 992 770 675 785 881
8 881 785 894 993 771 673 784 882
8 1006 905 799 898 897 798 687 789
8 919 814 905 1006 813 705 798 897
8 791 689 799 898 901 801 907 1007
8 900 803 909 1009 790 691 802 899
8 795 693 804 903 900 803 910 1010
8 902 800 908 1011 796 694 805 904
8 793 690 801 901 902 800 908 1011
8 797 695 805 904 903 804 911 1012
8 799 697 806 905 907 808 912 1013
8 920 815 912 1013 814 706 806 905
8 802 700 810 909 906 807 913 1014
8 801 699 808 907 908 809 914 1015
8 805 703 809 908 911 812 915 1016
8 803 701 811 910 909 810 916 1017
8 911 812 917 1018 804 702 811 910
8 925 821 920 1030 818 710 814 919
8 928 823 921 1031 821 712 815 920
8 922 819 717 831 1033 926 829 941
8 923 820 709 816 1034 927 819 922
8 1035 929 822 924 923 820 711 817
8 925 821 710 818 1036 930 822 924
8 1038 933 825 929 927 826 714 820
8 926 827 716 829 1039 935 828 939
8 927 826 715 819 1040 934 827 926
8 928 823 712 821 1041 931 824 930
8 1042 932 824 930 929 825 713 822
8 829 716 830 942 939 828 940 1058
8 831 717 832 944 941 829 942 1060
8 942 830 718 832 1061 943 833 945
8 944 832 720 834 1062 945 835 946
8 981 889 947 1064 870 781 837 948
8 948 837 949 1067 869 780 838 950
8 975 869 950 1069 865 767 839 952
8 950 838 951 1070 839 725 840 953
8 952 839 953 1071 841 726 842 954
8 955 850 802 899 1072 959 906 1008
8 956 849 739 845 1072 959 850 955
8 846 738 849 956 957 848 958 1073
8 957 848 958 1073 854 759 868 965
8 849 742 852 959 958 851 961 1076
8 960 853 961 1076 906 807 852 959
8 958 851 961 1076 868 773 883 980
8 960 853 807 906 1077 963 913 1014
8 855 760 868 965 966 871 980 1085
8 856 761 871 966 967 872 984 1086
8 971 876 765 860 1087 985 872 967
8 968 873 763 858 1088 986 874 969
8 862 769 873 968 972 879 986 1088
8 859 764 875 970 969 874 987 1089
8 861 766 876 971 970 875 988 1090
8 973 880 770 863 1091 991 879 972
8 973 880 992 1092 863 770 881 974
8 974 881 993 1093 864 771 882 976
8 979 870 948 1066 1094 982 869 975
8 1094 982 869 975 977 877 767 865
8 978 878 772 867 1095 990 882 976
8 978 878 989 1096 866 768 877 977
8 871 774 883 980 984 884 994 1099
8 983 891 999 1100 870 781 889 981
8 1101 1000 890 982 989 892 782 877
8 983 891 781 870 1101 1000 890 982
8 872 775 884 984 985 885 995 1103
8 876 776 885 985 988 886 996 1104
8 986 887 779 874 1105 998 888 987
8 879 786 887 986 991 896 998 1105
8 875 778 886 988 987 888 997 1106
8 990 893 1002 1107 878 783 892 989
8 1108 1003 893 990 993 894 784 882
8 880 787 896 991 992 895 1005 1109
8 993 894 785 881 1110 1004 895 992
8 898 799 905 1006 1007 907 1013 1120
8 1030 920 1013 1120 919 814 905 1006
8 901 801 907 1007 1011 908 1015 1121
8 899 802 909 1009 1008 906 1014 1122
8 900 803 910 1010 1009 909 1017 1123
8 1012 911 1018 1124 903 804 910 1010
8 904 805 908 1011 1012 911 1016 1125
8 1013 912 1020 1127 907 808 914 1015
8 1031 921 1020 1127 920 815 912 1013
8 1019 918 962 1075 1128 1021 913 1014
8 1128 1021 913 1014 1017 916 810 909
8 1015 914 1022 1129 908 809 915 1016
8 1016 915 1023 1130 911 812 917 1018
8 1018 917 1024 1131 910 811 916 1017
8 1037 928 1031 1148 925 821 920 1030
8 928 823 931 1041 1031 921 1032 1149
8 1033 926 829 941 1151 1039 939 1057
8 1034 927 819 922 1152 1040 926 1033
8 1153 1038 929 1035 1034 927 820 923
8 1154 1042 930 1036 1035 929 822 924
8 1037 928 821 925 1155 1041 930 1036
8 1039 935 828 939 1156 1047 938 1055
8 1157 1043 932 1042 1038 933 825 929
8 1038 933 826 927 1158 1045 934 1040
8 1040 934 827 926 1159 1046 935 1039
8 930 824 932 1042 1041 931 1044 1160
8 1051 936 1048 1165 1175 1052 937 1053
8 1156 1047 938 1055 1053 937 1054 1178
8 939 828 940 1058 1055 938 1056 1181
8 941 829 942 1060 1057 939 1058 1183
8 942 830 943 1061 1058 940 1059 1184
8 1060 942 832 944 1185 1061 945 1062
8 1082 964 1063 1188 981 889 947 1064
8 1097 981 1064 1190 979 870 948 1066
8 1064 947 1065 1191 948 837 949 1067
8 1066 948 1067 1193 975 869 950 1069
8 1067 949 1068 1194 950 838 951 1070
8 1069 950 1070 1195 952 839 953 1071
8 956 849 959 1072 1073 958 1076 1197
8 1074 960 1076 1197 1008 906 959 1072
8 1073 958 1076 1197 965 868 980 1085
8 1074 960 906 1008 1198 1077 1014 1122
8 1133 1026 1079 1199 1019 918 962 1075
8 1077 963 913 1014 1200 1080 962 1075
8 960 853 963 1077 1076 961 1078 1201
8 980 883 961 1076 1099 994 1078 1201
8 1210 1083 964 1082 1100 999 889 981
8 966 871 980 1085 1086 984 1099 1215
8 967 872 984 1086 1087 985 1103 1216
8 971 876 985 1087 1090 988 1104 1217
8 1088 986 874 969 1218 1105 987 1089
8 972 879 986 1088 1091 991 1105 1218
8 970 875 988 1090 1089 987 1106 1219
8 973 880 991 1091 1092 992 1109 1220
8 1093 993 881 974 1221 1110 992 1092
8 1222 1108 990 1095 1093 993 882 976
8 1223 1101 982 1094 1096 989 877 977
8 1098 983 870 979 1223 1101 982 1094
8 1095 990 1107 1224 978 878 989 1096
8 1098 983 1100 1225 979 870 981 1097
8 984 884 994 1099 1103 995 1111 1227
8 1102 1001 1115 1228 983 891 999 1100
8 1101 1000 892 989 1229 1116 1002 1107
8 1102 1001 891 983 1229 1116 1000 1101
8 985 885 995 1103 1104 996 1112 1230
8 988 886 996 1104 1106 997 1113 1231
8 1105 998 888 987 1232 1114 997 1106
8 991 896 998 1105 1109 1005 1114 1232
8 1108 1003 1117 1233 990 893 1002 1107
8 1108 1003 894 993 1233 1117 1004 1110
8 992 895 1005 1109 1110 1004 1118 1234
8 1120 1013 1127 1244 1007 907 1015 1121
8 1148 1031 1127 1244 1030 920 1013 1120
8 1121 1015 1129 1245 1011 908 1016 1125
8 1126 1019 1075 1196 1246 1128 1014 1122
8 1246 1128 1014 1122 1123 1017 909 1009
8 1124 1018 1131 1247 1010 910 1017 1123
8 1125 1016 1130 1248 1012 911 1018 1124
8 1127 1020 1137 1254 1015 914 1022 1129
8 1031 921 1032 1149 1127 1020 1137 1254
8 1134 1027 918 1019 1257 1140 1021 1128
8 1257 1140 1021 1128 1131 1024 916 1017
8 1129 1022 1141 1258 1016 915 1023 1130
8 1130 1023 1142 1259 1018 917 1024 1131
8 1261 1144 1025 1132 1133 1026 1079 1199
8 1255 1138 1025 1132 1135 1028 1144 1261
8 1133 1026 918 1019 1262 1145 1027 1134
8 1136 1029 1139 1256 1263 1146 1028 1135
8 1037 928 1041 1155 1148 1031 1149 1275
8 1041 931 1044 1160 1149 1032 1150 1276
8 1151 1039 939 1057 1278 1156 1055 1180
8 1152 1040 926 1033 1279 1159 1039 1151
8 1153 1038 927 1034 1280 1158 1040 1152
8 1281 1157 1042 1154 1153 1038 929 1035
8 1036 930 1042 1154 1155 1041 1160 1282
8 1283 1164 1046 1159 1156 1047 935 1039
8 1165 1048 1164 1283 1053 937 1047 1156
8 1157 1043 933 1038 1284 1161 1045 1158
8 1157 1043 1161 1284 1042 932 1044 1160
8 1040 934 1046 1159 1158 1045 1163 1285
8 1166 1049 1167 1292 1051 936 1048 1165
8 1166 1049 936 1051 1293 1168 1050 1172
8 1051 936 1052 1175 1172 1050 1173 1306
8 1174 1051 1165 1290 1308 1175 1053 1177
8 1053 937 1054 1178 1175 1052 1176 1309
8 1278 1156 1055 1180 1177 1053 1178 1311
8 1055 938 1056 1181 1178 1054 1179 1312
8 1057 939 1058 1183 1180 1055 1181 1314
8 1058 940 1059 1184 1181 1056 1182 1315
8 1060 942 1061 1185 1183 1058 1184 1316
8 1208 1081 1187 1321 1082 964 1063 1188
8 1209 1082 1188 1322 1097 981 1064 1190
8 1188 1063 1189 1323 1064 947 1065 1191
8 1190 1064 1191 1325 1066 948 1067 1193
8 1191 1065 1192 1326 1067 949 1068 1194
8 1067 1193 1069 950 1194 1327 1195 1070
8 1250 1133 1199 1330 1126 1019 1075 1196
8 1198 1077 1014 1122 1331 1200 1075 1196
8 1074 960 1077 1198 1197 1076 1201 1332
8 1085 980 1076 1197 1215 1099 1201 1332
8 1199 1079 1203 1333 1075 962 1080 1200
8 1132 1025 1119 1243 1199 1079 1203 1333
8 1201 1078 963 1077 1334 1202 1080 1200
8 1099 994 1078 1201 1227 1111 1202 1334
8 1343 1207 1081 1208 1210 1083 964 1082
8 1214 1084 1186 1319 1343 1207 1081 1208
8 1345 1210 1082 1209 1225 1100 981 1097
8 1346 1211 1083 1210 1228 1115 999 1100
8 1086 984 1099 1215 1216 1103 1227 1352
8 1087 985 1103 1216 1217 1104 1230 1353
8 1090 988 1104 1217 1219 1106 1231 1354
8 1218 1105 987 1089 1355 1232 1106 1219
8 1091 991 1105 1218 1220 1109 1232 1355
8 1092 992 1109 1220 1221 1110 1234 1356
8 1222 1108 1233 1357 1095 990 1107 1224
8 1222 1108 993 1093 1357 1233 1110 1221
8 1223 1101 989 1096 1358 1229 1107 1224
8 1226 1102 983 1098 1358 1229 1101 1223
8 1226 1102 1228 1359 1098 983 1100 1225
8 1103 995 1111 1227 1230 1112 1235 1360
8 1107 1002 1117 1233 1229 1116 1240 1362
8 1102 1001 1116 1229 1228 1115 1240 1362
8 1104 996 1112 1230 1231 1113 1236 1363
8 1364 1237 1114 1232 1231 1113 997 1106
8 1109 1005 1114 1232 1234 1118 1238 1365
8 1110 1004 1118 1234 1233 1117 1241 1366
8 1242 1374 1255 1138 1119 1243 1132 1025
8 1244 1127 1254 1376 1121 1015 1129 1245
8 1148 1031 1149 1275 1244 1127 1254 1376
8 1245 1129 1258 1377 1125 1016 1130 1248
8 1251 1134 1019 1126 1378 1257 1128 1246
8 1378 1257 1128 1246 1247 1131 1017 1123
8 1248 1130 1259 1379 1124 1018 1131 1247
8 1261 1381 1250 1133 1132 1249 1330 1199
8 1255 1380 1252 1135 1132 1249 1381 1261
8 1250 1133 1019 1126 1382 1262 1134 1251
8 1253 1136 1256 1385 1384 1263 1135 1252
8 1254 1137 1265 1387 1129 1022 1141 1258
8 1149 1032 1150 1276 1254 1137 1265 1387
8 1028 1135 1255 1138 1139 1256 1388 1266
8 1136 1029 1147 1264 1256 1139 1267 1389
8 1390 1268 1140 1257 1259 1142 1024 1131
8 1260 1143 1027 1134 1390 1268 1140 1257
8 1258 1141 1269 1391 1130 1023 1142 1259
8 1262 1145 1027 1134 1393 1271 1143 1260
8 1261 1144 1026 1133 1394 1272 1145 1262
8 1135 1028 1144 1261 1263 1146 1272 1394
8 1136 1029 1146 1263 1264 1147 1273 1395
8 1155 1041 1160 1282 1275 1149 1276 1405
8 1276 1150 1044 1160 1406 1277 1162 1286
8 1408 1283 1159 1279 1278 1156 1039 1151
8 1290 1165 1283 1408 1177 1053 1156 1278
8 1152 1040 1159 1279 1280 1158 1285 1409
8 1281 1157 1038 1153 1410 1284 1158 1280
8 1281 1157 1284 1410 1154 1042 1160 1282
8 1159 1046 1164 1283 1285 1163 1289 1412
8 1292 1167 1289 1412 1165 1048 1164 1283
8 1158 1045 1163 1285 1284 1161 1288 1413
8 1284 1161 1288 1413 1160 1044 1162 1286
8 1291 1166 1292 1418 1174 1051 1165 1290
8 1291 1166 1051 1174 1419 1293 1172 1305
8 1294 1169 1296 1421 1166 1049 1167 1292
8 1293 1168 1050 1172 1422 1295 1171 1303
8 1294 1169 1049 1166 1423 1297 1168 1293
8 1422 1295 1171 1303 1301 1170 1302 1435
8 1172 1050 1173 1306 1303 1171 1304 1438
8 1174 1051 1175 1308 1305 1172 1306 1440
8 1175 1052 1176 1309 1306 1173 1307 1441
8 1177 1053 1178 1311 1308 1175 1309 1443
8 1178 1054 1179 1312 1309 1176 1310 1444
8 1180 1055 1181 1314 1311 1178 1312 1446
8 1056 1181 1312 1179 1182 1315 1447 1313
8 1183 1058 1184 1316 1314 1181 1315 1448
8 1319 1186 1084 1214 1451 1317 1213 1350
8 1319 1186 1318 1453 1208 1081 1187 1321
8 1321 1187 1320 1456 1188 1063 1189 1323
8 1344 1208 1321 1457 1209 1082 1188 1322
8 1322 1188 1323 1458 1190 1064 1191 1325
8 1323 1189 1324 1459 1191 1065 1192 1326
8 1191 1325 1193 1067 1326 1460 1327 1194
8 1242 1374 1243 1119 1328 1462 1335 1204
8 1330 1199 1333 1465 1196 1075 1200 1331
8 1132 1249 1330 1199 1243 1375 1465 1333
8 1332 1201 1077 1198 1466 1334 1200 1331
8 1215 1099 1201 1332 1352 1227 1334 1466
8 1119 1243 1333 1203 1204 1335 1470 1338
8 1333 1203 1338 1470 1200 1080 1202 1334
8 1227 1111 1202 1334 1360 1235 1338 1470
8 1328 1462 1335 1204 1205 1336 1471 1339
8 1337 1206 1340 1472 1464 1329 1205 1336
8 1346 1211 1342 1479 1210 1083 1207 1343
8 1346 1211 1115 1228 1479 1342 1239 1361
8 1348 1212 1084 1214 1479 1342 1207 1343
8 1480 1343 1208 1344 1345 1210 1082 1209
8 1351 1214 1319 1454 1480 1343 1208 1344
8 1481 1346 1210 1345 1359 1228 1100 1225
8 1348 1212 1347 1483 1214 1084 1213 1350
8 1216 1103 1227 1352 1353 1230 1360 1488
8 1217 1104 1230 1353 1354 1231 1363 1489
8 1490 1364 1232 1355 1354 1231 1106 1219
8 1220 1109 1232 1355 1356 1234 1365 1491
8 1221 1110 1234 1356 1357 1233 1366 1492
8 1224 1107 1233 1357 1358 1229 1362 1493
8 1226 1102 1229 1358 1359 1228 1362 1493
8 1230 1112 1235 1360 1363 1236 1367 1496
8 1361 1239 1115 1228 1497 1371 1240 1362
8 1366 1241 1372 1498 1233 1117 1240 1362
8 1364 1237 1113 1231 1499 1368 1236 1363
8 1364 1237 1368 1499 1232 1114 1238 1365
8 1234 1118 1238 1365 1366 1241 1369 1500
8 1507 1373 1242 1374 1388 1266 1138 1255
8 1508 1374 1243 1375 1380 1255 1132 1249
8 1376 1254 1387 1509 1245 1129 1258 1377
8 1275 1149 1276 1405 1376 1254 1387 1509
8 1377 1258 1391 1510 1248 1130 1259 1379
8 1511 1390 1257 1378 1379 1259 1131 1247
8 1383 1260 1134 1251 1511 1390 1257 1378
8 1252 1135 1256 1385 1380 1255 1388 1512
8 1261 1381 1513 1394 1133 1250 1382 1262
8 1135 1252 1384 1263 1261 1381 1513 1394
8 1382 1262 1134 1251 1514 1393 1260 1383
8 1253 1136 1263 1384 1386 1264 1395 1516
8 1253 1136 1264 1386 1385 1256 1389 1517
8 1387 1265 1397 1519 1258 1141 1269 1391
8 1276 1150 1277 1406 1387 1265 1397 1519
8 1256 1139 1267 1389 1388 1266 1398 1520
8 1264 1147 1274 1396 1389 1267 1399 1521
8 1392 1270 1143 1260 1522 1400 1268 1390
8 1390 1268 1142 1259 1522 1400 1269 1391
8 1392 1270 1401 1523 1260 1143 1271 1393
8 1272 1394 1524 1402 1145 1262 1393 1271
8 1395 1273 1146 1263 1524 1402 1272 1394
8 1273 1395 1264 1147 1403 1526 1396 1274
8 1405 1276 1160 1282 1534 1406 1286 1411
8 1414 1287 1407 1535 1286 1162 1277 1406
8 1279 1159 1283 1408 1409 1285 1412 1537
8 1418 1292 1412 1537 1290 1165 1283 1408
8 1280 1158 1285 1409 1410 1284 1413 1538
8 1410 1284 1413 1538 1282 1160 1286 1411
8 1285 1163 1289 1412 1413 1288 1417 1540
8 1421 1296 1417 1540 1292 1167 1289 1412
8 1414 1287 1162 1286 1541 1416 1288 1413
8 1420 1294 1421 1545 1291 1166 1292 1418
8 1419 1293 1172 1305 1546 1422 1303 1437
8 1420 1294 1166 1291 1547 1423 1293 1419
8 1294 1169 1297 1423 1421 1296 1425 1548
8 1423 1297 1168 1293 1549 1424 1295 1422
8 1301 1170 1298 1427 1422 1295 1424 1549
8 1432 1300 1428 1554 1301 1170 1298 1427
8 1431 1299 1428 1554 1560 1430 1300 1432
8 1563 1433 1300 1432 1435 1302 1170 1301
8 1546 1422 1303 1437 1434 1301 1435 1565
8 1303 1171 1304 1438 1435 1302 1436 1566
8 1305 1172 1306 1440 1437 1303 1438 1568
8 1306 1173 1307 1441 1438 1304 1439 1569
8 1308 1175 1309 1443 1440 1306 1441 1571
8 1309 1176 1310 1444 1441 1307 1442 1572
8 1311 1178 1312 1446 1443 1309 1444 1574
8 1179 1312 1444 1310 1313 1447 1575 1445
8 1314 1181 1315 1448 1446 1312 1447 1576
8 1350 1213 1349 1486 1451 1317 1449 1579
8 1451 1317 1450 1581 1319 1186 1318 1453
8 1454 1319 1214 1351 1582 1451 1350 1487
8 1453 1318 1452 1584 1321 1187 1320 1456
8 1454 1319 1453 1585 1344 1208 1321 1457
8 1456 1320 1455 1586 1323 1189 1324 1459
8 1457 1321 1456 1587 1322 1188 1323 1458
8 1458 1323 1459 1588 1325 1191 1326 1460
8 1205 1336 1464 1329 1328 1462 1590 1461
8 1507 1373 1461 1590 1374 1242 1328 1462
8 1508 1374 1462 1591 1375 1243 1335 1467
8 1337 1206 1329 1464 1473 1341 1463 1594
8 1375 1243 1335 1467 1465 1333 1470 1596
8 1465 1333 1470 1596 1331 1200 1334 1466
8 1352 1227 1334 1466 1488 1360 1470 1596
8 1591 1462 1336 1468 1467 1335 1471 1597
8 1469 1337 1472 1598 1595 1464 1336 1468
8 1471 1339 1474 1600 1335 1204 1338 1470
8 1600 1474 1367 1496 1470 1338 1235 1360
8 1336 1205 1340 1472 1471 1339 1475 1601
8 1337 1206 1341 1473 1472 1340 1476 1602
8 1495 1370 1478 1609 1361 1239 1342 1479
8 1348 1212 1342 1479 1483 1347 1478 1609
8 1481 1346 1479 1610 1345 1210 1343 1480
8 1481 1346 1228 1359 1610 1479 1361 1494
8 1484 1348 1214 1351 1610 1479 1343 1480
8 1483 1347 1482 1612 1350 1213 1349 1486
8 1484 1348 1483 1613 1351 1214 1350 1487
8 1353 1230 1360 1488 1489 1363 1496 1616
8 1490 1364 1231 1354 1617 1499 1363 1489
8 1490 1364 1499 1617 1355 1232 1365 1491
8 1356 1234 1365 1491 1492 1366 1500 1619
8 1492 1366 1498 1620 1357 1233 1362 1493
8 1494 1361 1228 1359 1621 1497 1362 1493
8 1495 1370 1239 1361 1622 1504 1371 1497
8 1363 1236 1367 1496 1499 1368 1501 1623
8 1497 1371 1240 1362 1624 1505 1372 1498
8 1625 1503 1372 1498 1500 1369 1241 1366
8 1365 1238 1368 1499 1500 1369 1502 1626
8 1520 1398 1506 1633 1388 1266 1373 1507
8 1634 1507 1374 1508 1512 1388 1255 1380
8 1509 1387 1519 1635 1377 1258 1391 1510
8 1405 1276 1406 1534 1509 1387 1519 1635
8 1515 1392 1260 1383 1636 1522 1390 1511
8 1511 1390 1259 1379 1636 1522 1391 1510
8 1385 1256 1389 1517 1512 1388 1520 1637
8 1513 1394 1262 1382 1638 1524 1393 1514
8 1395 1516 1638 1524 1263 1384 1513 1394
8 1515 1392 1523 1639 1383 1260 1393 1514
8 1516 1395 1526 1640 1386 1264 1396 1518
8 1386 1264 1396 1518 1517 1389 1521 1641
8 1519 1397 1527 1643 1391 1269 1400 1522
8 1535 1407 1527 1643 1406 1277 1397 1519
8 1389 1267 1399 1521 1520 1398 1528 1644
8 1645 1529 1399 1521 1525 1404 1274 1396
8 1392 1270 1400 1522 1523 1401 1531 1646
8 1524 1402 1271 1393 1648 1532 1401 1523
8 1403 1526 1648 1532 1273 1395 1524 1402
8 1525 1404 1274 1396 1649 1533 1403 1526
8 1539 1414 1535 1657 1411 1286 1406 1534
8 1542 1415 1536 1658 1414 1287 1407 1535
8 1409 1285 1412 1537 1538 1413 1540 1660
8 1545 1421 1540 1660 1418 1292 1412 1537
8 1539 1414 1286 1411 1661 1541 1413 1538
8 1540 1417 1544 1663 1413 1288 1416 1541
8 1421 1296 1425 1548 1540 1417 1544 1663
8 1542 1415 1287 1414 1664 1543 1416 1541
8 1420 1294 1423 1547 1545 1421 1548 1666
8 1547 1423 1293 1419 1667 1549 1422 1546
8 1434 1301 1427 1553 1546 1422 1549 1667
8 1423 1297 1424 1549 1548 1425 1550 1668
8 1551 1426 1550 1668 1427 1298 1424 1549
8 1551 1426 1298 1427 1671 1552 1428 1554
8 1562 1432 1554 1674 1434 1301 1427 1553
8 1431 1299 1429 1558 1554 1428 1555 1675
8 1431 1299 1430 1560 1558 1429 1557 1680
8 1560 1430 1300 1432 1683 1559 1433 1563
8 1561 1431 1554 1674 1684 1560 1432 1562
8 1685 1563 1432 1562 1565 1435 1301 1434
8 1435 1302 1436 1566 1563 1433 1564 1686
8 1437 1303 1438 1568 1565 1435 1566 1688
8 1438 1304 1439 1569 1566 1436 1567 1689
8 1440 1306 1441 1571 1568 1438 1569 1691
8 1441 1307 1442 1572 1569 1439 1570 1692
8 1443 1309 1444 1574 1571 1441 1572 1694
8 1310 1444 1572 1442 1445 1575 1695 1573
8 1446 1312 1447 1576 1574 1444 1575 1696
8 1486 1349 1485 1614 1579 1449 1577 1699
8 1451 1317 1449 1579 1581 1450 1578 1701
8 1487 1350 1486 1615 1582 1451 1579 1702
8 1581 1450 1580 1704 1453 1318 1452 1584
8 1582 1451 1581 1705 1454 1319 1453 1585
8 1584 1452 1583 1706 1456 1320 1455 1586
8 1585 1453 1584 1707 1457 1321 1456 1587
8 1587 1456 1586 1708 1458 1323 1459 1588
8 1633 1506 1589 1710 1507 1373 1461 1590
8 1464 1329 1461 1590 1594 1463 1589 1710
8 1468 1336 1462 1591 1595 1464 1590 1711
8 1634 1507 1590 1711 1508 1374 1462 1591
8 1473 1341 1463 1594 1603 1477 1593 1716
8 1469 1337 1464 1595 1599 1473 1594 1717
8 1471 1597 1467 1335 1600 1718 1596 1470
8 1718 1600 1496 1616 1596 1470 1360 1488
8 1336 1468 1597 1471 1472 1598 1719 1601
8 1469 1337 1473 1599 1598 1472 1602 1720
8 1722 1604 1501 1623 1600 1474 1367 1496
8 1475 1601 1471 1339 1604 1722 1600 1474
8 1602 1476 1605 1723 1472 1340 1475 1601
8 1476 1602 1724 1606 1341 1473 1603 1477
8 1483 1347 1478 1609 1612 1482 1608 1731
8 1495 1370 1504 1622 1609 1478 1608 1731
8 1618 1495 1609 1732 1494 1361 1479 1610
8 1484 1348 1479 1610 1613 1483 1609 1732
8 1486 1349 1482 1612 1614 1485 1611 1733
8 1613 1483 1612 1734 1487 1350 1486 1615
8 1489 1363 1496 1616 1617 1499 1623 1736
8 1491 1365 1499 1617 1619 1500 1626 1737
8 1618 1495 1361 1494 1738 1622 1497 1621
8 1739 1625 1498 1620 1619 1500 1366 1492
8 1621 1497 1362 1493 1740 1624 1498 1620
8 1742 1631 1504 1622 1624 1505 1371 1497
8 1743 1628 1502 1626 1623 1501 1368 1499
8 1744 1630 1505 1624 1625 1503 1372 1498
8 1745 1629 1503 1625 1626 1502 1369 1500
8 1520 1398 1528 1644 1633 1506 1632 1751
8 1637 1520 1633 1752 1512 1388 1507 1634
8 1635 1519 1643 1753 1510 1391 1522 1636
8 1657 1535 1643 1753 1534 1406 1519 1635
8 1515 1392 1522 1636 1639 1523 1646 1754
8 1517 1389 1521 1641 1637 1520 1644 1755
8 1524 1638 1756 1648 1393 1514 1639 1523
8 1640 1526 1395 1516 1756 1648 1524 1638
8 1642 1525 1396 1518 1757 1649 1526 1640
8 1758 1645 1521 1641 1642 1525 1396 1518
8 1646 1531 1400 1522 1760 1650 1527 1643
8 1535 1407 1536 1658 1643 1527 1650 1760
8 1521 1399 1529 1645 1644 1528 1651 1761
8 1647 1530 1652 1762 1525 1404 1529 1645
8 1401 1523 1648 1532 1531 1646 1763 1655
8 1525 1404 1533 1649 1647 1530 1654 1765
8 1533 1649 1766 1656 1403 1526 1648 1532
8 1662 1542 1658 1774 1539 1414 1535 1657
8 1542 1415 1543 1664 1658 1536 1659 1775
8 1660 1540 1663 1777 1538 1413 1541 1661
8 1545 1421 1548 1666 1660 1540 1663 1777
8 1662 1542 1414 1539 1778 1664 1541 1661
8 1664 1543 1416 1541 1779 1665 1544 1663
8 1548 1425 1550 1668 1663 1544 1665 1779
8 1547 1423 1549 1667 1666 1548 1668 1781
8 1670 1551 1668 1781 1553 1427 1549 1667
8 1551 1426 1552 1671 1668 1550 1669 1782
8 1670 1551 1427 1553 1784 1671 1554 1674
8 1675 1555 1672 1785 1554 1428 1552 1671
8 1678 1556 1673 1789 1558 1429 1555 1675
8 1561 1431 1558 1681 1674 1554 1675 1790
8 1794 1677 1556 1678 1680 1557 1429 1558
8 1560 1430 1559 1683 1680 1557 1679 1797
8 1561 1431 1560 1684 1681 1558 1680 1798
8 1563 1433 1564 1686 1683 1559 1682 1800
8 1684 1560 1432 1562 1801 1683 1563 1685
8 1565 1435 1566 1688 1685 1563 1686 1802
8 1566 1436 1567 1689 1686 1564 1687 1803
8 1568 1438 1569 1691 1688 1566 1689 1805
8 1569 1439 1570 1692 1689 1567 1690 1806
8 1571 1441 1572 1694 1691 1569 1692 1808
8 1442 1572 1692 1570 1573 1695 1809 1693
8 1574 1444 1575 1696 1694 1572 1695 1810
8 1614 1485 1592 1712 1699 1577 1697 1813
8 1579 1449 1577 1699 1701 1578 1698 1815
8 1615 1486 1614 1735 1702 1579 1699 1816
8 1701 1578 1700 1818 1581 1450 1580 1704
8 1582 1451 1579 1702 1705 1581 1701 1819
8 1704 1580 1703 1820 1584 1452 1583 1706
8 1705 1581 1704 1821 1585 1453 1584 1707
8 1707 1584 1706 1822 1587 1456 1586 1708
8 1710 1589 1506 1633 1824 1709 1632 1751
8 1594 1463 1589 1710 1716 1593 1709 1824
8 1752 1633 1710 1825 1634 1507 1590 1711
8 1595 1464 1590 1711 1717 1594 1710 1825
8 1830 1714 1592 1712 1733 1611 1485 1614
8 1603 1477 1593 1716 1725 1607 1715 1834
8 1599 1473 1594 1717 1721 1603 1716 1835
8 1837 1722 1623 1736 1718 1600 1496 1616
8 1719 1601 1722 1837 1597 1471 1600 1718
8 1602 1720 1598 1472 1723 1838 1719 1601
8 1720 1602 1473 1599 1839 1724 1603 1721
8 1723 1605 1726 1840 1601 1475 1604 1722
8 1840 1726 1628 1743 1722 1604 1501 1623
8 1724 1606 1727 1841 1602 1476 1605 1723
8 1725 1607 1728 1842 1603 1477 1606 1724
8 1612 1482 1608 1731 1733 1611 1730 1849
8 1741 1627 1730 1849 1622 1504 1608 1731
8 1613 1483 1609 1732 1734 1612 1731 1850
8 1618 1495 1622 1738 1732 1609 1731 1850
8 1615 1486 1612 1734 1735 1614 1733 1851
8 1852 1743 1626 1737 1736 1623 1499 1617
8 1853 1745 1625 1739 1737 1626 1500 1619
8 1855 1742 1622 1738 1740 1624 1497 1621
8 1856 1744 1624 1740 1739 1625 1498 1620
8 1741 1627 1504 1622 1857 1746 1631 1742
8 1742 1631 1505 1624 1858 1749 1630 1744
8 1859 1747 1629 1745 1743 1628 1502 1626
8 1860 1748 1630 1744 1745 1629 1503 1625
8 1644 1528 1651 1761 1751 1632 1750 1865
8 1637 1520 1644 1755 1752 1633 1751 1866
8 1754 1646 1522 1636 1867 1760 1643 1753
8 1657 1535 1658 1774 1753 1643 1760 1867
8 1639 1523 1646 1754 1756 1648 1763 1868
8 1641 1521 1645 1758 1755 1644 1761 1869
8 1757 1649 1526 1640 1870 1766 1648 1756
8 1642 1525 1649 1757 1759 1647 1765 1871
8 1759 1647 1762 1872 1642 1525 1645 1758
8 1760 1650 1767 1874 1646 1531 1655 1763
8 1658 1536 1659 1775 1760 1650 1767 1874
8 1762 1652 1768 1875 1645 1529 1651 1761
8 1764 1653 1769 1876 1647 1530 1652 1762
8 1656 1766 1877 1773 1532 1648 1763 1655
8 1771 1879 1765 1654 1653 1764 1647 1530
8 1533 1649 1765 1654 1656 1766 1880 1772
8 1662 1542 1664 1778 1774 1658 1775 1887
8 1664 1543 1665 1779 1775 1659 1776 1888
8 1778 1664 1541 1661 1890 1779 1663 1777
8 1666 1548 1668 1781 1777 1663 1779 1890
8 1782 1669 1780 1891 1668 1550 1665 1779
8 1670 1551 1671 1784 1781 1668 1782 1893
8 1671 1552 1672 1785 1782 1669 1783 1894
8 1790 1675 1785 1896 1674 1554 1671 1784
8 1675 1555 1673 1789 1785 1672 1786 1897
8 1792 1676 1788 1903 1678 1556 1673 1789
8 1795 1678 1789 1904 1681 1558 1675 1790
8 1792 1676 1556 1678 1906 1791 1677 1794
8 1680 1557 1679 1797 1794 1677 1793 1909
8 1910 1794 1678 1795 1798 1680 1558 1681
8 1683 1559 1682 1800 1797 1679 1796 1912
8 1684 1560 1683 1801 1798 1680 1797 1913
8 1686 1564 1687 1803 1800 1682 1799 1915
8 1685 1563 1686 1802 1801 1683 1800 1916
8 1688 1566 1689 1805 1802 1686 1803 1917
8 1689 1567 1690 1806 1803 1687 1804 1918
8 1691 1569 1692 1808 1805 1689 1806 1920
8 1692 1570 1693 1809 1806 1690 1807 1921
8 1694 1572 1695 1810 1808 1692 1809 1922
8 1829 1713 1811 1926 1712 1592 1697 1813
8 1813 1697 1812 1928 1699 1577 1698 1815
8 1735 1614 1712 1828 1816 1699 1813 1929
8 1815 1698 1814 1931 1701 1578 1700 1818
8 1702 1579 1699 1816 1819 1701 1815 1932
8 1818 1700 1817 1933 1704 1580 1703 1820
8 1819 1701 1818 1934 1705 1581 1704 1821
8 1821 1704 1820 1935 1707 1584 1706 1822
8 1824 1709 1632 1751 1937 1823 1750 1865
8 1716 1593 1709 1824 1834 1715 1823 1937
8 1825 1710 1633 1752 1938 1824 1751 1866
8 1717 1594 1710 1825 1835 1716 1824 1938
8 1945 1830 1712 1828 1851 1733 1614 1735
8 1830 1714 1831 1946 1712 1592 1713 1829
8 1947 1832 1714 1830 1849 1730 1611 1733
8 1843 1729 1607 1725 1950 1833 1715 1834
8 1721 1603 1716 1835 1836 1725 1834 1951
8 1836 1725 1842 1953 1721 1603 1724 1839
8 1723 1838 1719 1601 1840 1954 1837 1722
8 1954 1840 1743 1852 1837 1722 1623 1736
8 1724 1839 1720 1602 1841 1955 1838 1723
8 1841 1727 1844 1956 1723 1605 1726 1840
8 1956 1844 1747 1859 1840 1726 1628 1743
8 1728 1842 1724 1606 1845 1957 1841 1727
8 1725 1607 1729 1843 1842 1728 1846 1958
8 1741 1627 1746 1857 1849 1730 1848 1965
8 1734 1612 1731 1850 1851 1733 1849 1966
8 1854 1741 1849 1966 1738 1622 1731 1850
8 1967 1859 1745 1853 1852 1743 1626 1737
8 1968 1860 1744 1856 1853 1745 1625 1739
8 1854 1741 1622 1738 1969 1857 1742 1855
8 1855 1742 1624 1740 1970 1858 1744 1856
8 1857 1746 1631 1742 1971 1861 1749 1858
8 1858 1749 1630 1744 1972 1863 1748 1860
8 1859 1747 1862 1973 1745 1629 1748 1860
8 1875 1768 1864 1977 1761 1651 1750 1865
8 1755 1644 1761 1869 1866 1751 1865 1978
8 1867 1760 1874 1979 1754 1646 1763 1868
8 1774 1658 1775 1887 1867 1760 1874 1979
8 1870 1766 1648 1756 1980 1877 1763 1868
8 1872 1762 1875 1981 1758 1645 1761 1869
8 1757 1649 1766 1870 1871 1765 1880 1982
8 1983 1879 1764 1873 1871 1765 1647 1759
8 1873 1764 1876 1984 1759 1647 1762 1872
8 1877 1773 1655 1763 1986 1881 1767 1874
8 1775 1659 1776 1888 1874 1767 1881 1986
8 1876 1769 1882 1987 1762 1652 1768 1875
8 1878 1770 1883 1988 1764 1653 1769 1876
8 1880 1772 1656 1766 1989 1886 1773 1877
8 1878 1770 1653 1764 1990 1884 1771 1879
8 1765 1654 1772 1880 1879 1771 1885 1991
8 1778 1664 1779 1890 1887 1775 1888 1997
8 1998 1889 1776 1888 1891 1780 1665 1779
8 1893 1782 1891 2000 1781 1668 1779 1890
8 1894 1783 1892 2001 1782 1669 1780 1891
8 1784 1671 1785 1896 1893 1782 1894 2003
8 1897 1786 1895 2004 1785 1672 1783 1894
8 1790 1675 1789 1904 1896 1785 1897 2006
8 1901 1787 1898 2007 1789 1673 1786 1897
8 1903 1788 1900 2013 1789 1673 1787 1901
8 1792 1676 1791 1906 1903 1788 1902 2016
8 1907 1792 1903 2017 1795 1678 1789 1904
8 1906 1791 1677 1794 2019 1905 1793 1909
8 1907 1792 1678 1795 2020 1906 1794 1910
8 1797 1679 1796 1912 1909 1793 1908 2022
8 1798 1680 1797 1913 1910 1794 1909 2023
8 1800 1682 1799 1915 1912 1796 1911 2025
8 1801 1683 1800 1916 1913 1797 1912 2026
8 1803 1687 1804 1918 1915 1799 1914 2028
8 1802 1686 1803 1917 1916 1800 1915 2029
8 1805 1689 1806 1920 1917 1803 1918 2030
8 1806 1690 1807 1921 1918 1804 1919 2031
8 1808 1692 1809 1922 1920 1806 1921 2032
8 1939 1826 1924 2037 1829 1713 1811 1926
8 1926 1811 1925 2039 1813 1697 1812 1928
8 1944 1829 1926 2040 1828 1712 1813 1929
8 1928 1812 1927 2042 1815 1698 1814 1931
8 1929 1813 1928 2043 1816 1699 1815 1932
8 1931 1814 1930 2044 1818 1700 1817 1933
8 1932 1815 1931 2045 1819 1701 1818 1934
8 1934 1818 1933 2046 1821 1704 1820 1935
8 2048 1936 1823 1937 1977 1864 1750 1865
8 1950 1833 1715 1834 2048 1936 1823 1937
8 1938 1824 1751 1866 2049 1937 1865 1978
8 1835 1716 1824 1938 1951 1834 1937 2049
8 1939 1826 1713 1829 2053 1942 1831 1946
8 1940 1827 1923 2035 2053 1942 1826 1939
8 1945 1830 1946 2058 1828 1712 1829 1944
8 2059 1947 1830 1945 1966 1849 1733 1851
8 1947 1832 1730 1849 2060 1948 1848 1965
8 1947 1832 1948 2060 1830 1714 1831 1946
8 1959 1847 1729 1843 2063 1949 1833 1950
8 1952 1843 1725 1836 2064 1950 1834 1951
8 1836 1725 1843 1952 1953 1842 1958 2066
8 1953 1842 1957 2067 1839 1724 1841 1955
8 1841 1955 1838 1723 1956 2068 1954 1840
8 2068 1956 1859 1967 1954 1840 1743 1852
8 1956 1844 1960 2069 1859 1747 1862 1973
8 1845 1957 1841 1727 1960 2069 1956 1844
8 1728 1842 1957 1845 1846 1958 2071 1961
8 1962 2072 1959 1847 1846 1958 1843 1729
8 1971 1861 1964 2077 1857 1746 1848 1965
8 1854 1741 1857 1969 1966 1849 1965 2078
8 1967 1859 1973 2079 1853 1745 1860 1968
8 1970 1858 1744 1856 2080 1972 1860 1968
8 1969 1857 1742 1855 2081 1971 1858 1970
8 1971 1861 1749 1858 2082 1974 1863 1972
8 1973 1862 1975 2083 1860 1748 1863 1972
8 1987 1882 1976 2086 1875 1768 1864 1977
8 1981 1875 1977 2087 1869 1761 1865 1978
8 1980 1877 1763 1868 2088 1986 1874 1979
8 1887 1775 1888 1997 1979 1874 1986 2088
8 1880 1982 2089 1989 1766 1870 1980 1877
8 1984 1876 1987 2090 1872 1762 1875 1981
8 1765 1871 1983 1879 1880 1982 2091 1991
8 1985 1878 1764 1873 2092 1990 1879 1983
8 1985 1878 1988 2093 1873 1764 1876 1984
8 2094 1992 1881 1986 1998 1889 1776 1888
8 1986 1881 1992 2094 1877 1773 1886 1989
8 1988 1883 1993 2095 1876 1769 1882 1987
8 1878 1770 1884 1990 1988 1883 1994 2096
8 1991 1885 1772 1880 2097 1996 1886 1989
8 1879 1771 1885 1991 1990 1884 1995 2098
8 2103 1998 1888 1997 2000 1891 1779 1890
8 2104 1999 1889 1998 2001 1892 1780 1891
8 2003 1894 2001 2106 1893 1782 1891 2000
8 2004 1895 2002 2107 1894 1783 1892 2001
8 2006 1897 2004 2109 1896 1785 1894 2003
8 2007 1898 2005 2110 1897 1786 1895 2004
8 2014 1901 2007 2112 1904 1789 1897 2006
8 2011 1899 2008 2113 1901 1787 1898 2007
8 2119 2010 1899 2011 2013 1900 1787 1901
8 2016 1902 2012 2122 1903 1788 1900 2013
8 2017 1903 2013 2123 1904 1789 1901 2014
8 1906 1791 1905 2019 2016 1902 2015 2125
8 1907 1792 1906 2020 2017 1903 2016 2126
8 1909 1793 1908 2022 2019 1905 2018 2128
8 2020 1906 1794 1910 2129 2019 1909 2023
8 1912 1796 1911 2025 2022 1908 2021 2131
8 1913 1797 1912 2026 2023 1909 2022 2132
8 1915 1799 1914 2028 2025 1911 2024 2134
8 1916 1800 1915 2029 2026 1912 2025 2135
8 1918 1804 1919 2031 2028 1914 2027 2136
8 1917 1803 1918 2030 2029 1915 2028 2137
8 1920 1806 1921 2032 2030 1918 2031 2138
8 1940 1827 1941 2054 2035 1923 2033 2140
8 2035 1923 2034 2143 1939 1826 1924 2037
8 2037 1924 2036 2146 1926 1811 1925 2039
8 2051 1939 2037 2147 1944 1829 1926 2040
8 2039 1925 2038 2149 1928 1812 1927 2042
8 2040 1926 2039 2150 1929 1813 1928 2043
8 2042 1927 2041 2151 1931 1814 1930 2044
8 2043 1928 2042 2152 1932 1815 1931 2045
8 2045 1931 2044 2153 1934 1818 1933 2046
8 2155 2047 1936 2048 2086 1976 1864 1977
8 2063 1949 1833 1950 2155 2047 1936 2048
8 2156 2048 1937 2049 2087 1977 1865 1978
8 2064 1950 1834 1951 2156 2048 1937 2049
8 2051 1939 1829 1944 2160 2053 1946 2058
8 2052 1940 2035 2144 2160 2053 1939 2051
8 2053 1942 1831 1946 2163 2057 1948 2060
8 2055 1943 1827 1940 2163 2057 1942 2053
8 2055 1943 2056 2164 1940 1827 1941 2054
8 2059 1947 1849 1966 2167 2060 1965 2078
8 2059 1947 2060 2167 1945 1830 1946 2058
8 2077 1964 2061 2168 1965 1848 1948 2060
8 2070 1963 1847 1959 2170 2062 1949 2063
8 2065 1959 1843 1952 2171 2063 1950 2064
8 2173 2072 1958 2066 2065 1959 1843 1952
8 1953 1842 1958 2066 2067 1957 2071 2174
8 2068 1956 2069 2175 1967 1859 1973 2079
8 2067 1957 2069 2175 1955 1841 1956 2068
8 1845 1957 2069 1960 1961 2071 2176 2073
8 2069 1960 2073 2176 1973 1862 1975 2083
8 2070 1963 2075 2177 1959 1847 1962 2072
8 1846 1958 2071 1961 1962 2072 2178 2074
8 2077 1964 1861 1971 2182 2076 1974 2082
8 2081 1971 2077 2183 1969 1857 1965 2078
8 2079 1973 2083 2184 1968 1860 1972 2080
8 2081 1971 1858 1970 2185 2082 1972 2080
8 2083 1975 2084 2186 1972 1863 1974 2082
8 2086 1976 1882 1987 2189 2085 1993 2095
8 2090 1987 2086 2190 1981 1875 1977 2087
8 2191 2094 1986 2088 2103 1998 1888 1997
8 2088 1986 2094 2191 1980 1877 1989 2089
8 1991 2091 2192 2097 1880 1982 2089 1989
8 2093 1988 2095 2193 1984 1876 1987 2090
8 1879 1983 2092 1990 1991 2091 2194 2098
8 1985 1878 1990 2092 2093 1988 2096 2195
8 2097 1996 1886 1989 2196 2099 1992 2094
8 2196 2099 1992 2094 2104 1999 1889 1998
8 1994 2096 1988 1883 2100 2197 2095 1993
8 2096 1994 1884 1990 2198 2101 1995 2098
8 1995 2098 2199 2102 1885 1991 2097 1996
8 2203 2104 1998 2103 2106 2001 1891 2000
8 2107 2002 2105 2204 2001 1892 1999 2104
8 2109 2004 2107 2206 2003 1894 2001 2106
8 2110 2005 2108 2207 2004 1895 2002 2107
8 2112 2007 2110 2209 2006 1897 2004 2109
8 2113 2008 2111 2210 2007 1898 2005 2110
8 2120 2011 2113 2212 2014 1901 2007 2112
8 2117 2009 2114 2213 2011 1899 2008 2113
8 2219 2116 2009 2117 2119 2010 1899 2011
8 2222 2118 2010 2119 2122 2012 1900 2013
8 2223 2119 2011 2120 2123 2013 1901 2014
8 2016 1902 2015 2125 2122 2012 2121 2225
8 2126 2016 2122 2226 2017 1903 2013 2123
8 2019 1905 2018 2128 2125 2015 2124 2228
8 2020 1906 2019 2129 2126 2016 2125 2229
8 2022 1908 2021 2131 2128 2018 2127 2231
8 2023 1909 2022 2132 2129 2019 2128 2232
8 2025 1911 2024 2134 2131 2021 2130 2234
8 2026 1912 2025 2135 2132 2022 2131 2235
8 1914 2028 2134 2024 2027 2136 2236 2133
8 2029 1915 2028 2137 2135 2025 2134 2237
8 2030 1918 2031 2138 2137 2028 2136 2238
8 2157 2050 2139 2240 2054 1941 2033 2140
8 2052 1940 2054 2161 2144 2035 2140 2242
8 2140 2033 2141 2243 2035 1923 2034 2143
8 2143 2034 2142 2246 2037 1924 2036 2146
8 2144 2035 2143 2247 2051 1939 2037 2147
8 2146 2036 2145 2249 2039 1925 2038 2149
8 2147 2037 2146 2250 2040 1926 2039 2150
8 2149 2038 2148 2251 2042 1927 2041 2151
8 2150 2039 2149 2252 2043 1928 2042 2152
8 2152 2042 2151 2253 2045 1931 2044 2153
8 2255 2154 2047 2155 2189 2085 1976 2086
8 2170 2062 1949 2063 2255 2154 2047 2155
8 2256 2155 2048 2156 2190 2086 1977 2087
8 2171 2063 1950 2064 2256 2155 2048 2156
8 2258 2159 2050 2157 2164 2056 1941 2054
8 2160 2053 1946 2058 2262 2163 2060 2167
8 2162 2055 1940 2052 2262 2163 2053 2160
8 2162 2055 2164 2263 2052 1940 2054 2161
8 2163 2057 1948 2060 2264 2165 2061 2168
8 2055 1943 2057 2163 2164 2056 2165 2264
8 2182 2076 2166 2268 2077 1964 2061 2168
8 2183 2077 2168 2269 2078 1965 2060 2167
8 2070 1963 2062 2170 2177 2075 2169 2271
8 2172 2070 1959 2065 2272 2170 2063 2171
8 2172 2070 2177 2273 2065 1959 2072 2173
8 2066 1958 2072 2173 2174 2071 2178 2274
8 2067 1957 2071 2174 2175 2069 2176 2275
8 2175 2069 2176 2275 2079 1973 2083 2184
8 2071 1961 2074 2178 2176 2073 2179 2276
8 2176 2073 2179 2276 2083 1975 2084 2186
8 2072 1962 2075 2177 2178 2074 2180 2277
8 2182 2076 1974 2082 2280 2181 2084 2186
8 2183 2077 1971 2081 2281 2182 2082 2185
8 2184 2083 2186 2282 2080 1972 2082 2185
8 2189 2085 1993 2095 2285 2188 2100 2197
8 2190 2086 1987 2090 2286 2189 2095 2193
8 2192 2097 1989 2089 2287 2196 2094 2191
8 2287 2196 2094 2191 2203 2104 1998 2103
8 2194 2098 1991 2091 2288 2199 2097 2192
8 2195 2096 2197 2289 2093 1988 2095 2193
8 2096 2195 2290 2198 1990 2092 2194 2098
8 2097 1996 2099 2196 2199 2102 2200 2291
8 2196 2099 1999 2104 2291 2200 2105 2204
8 2100 2197 2292 2201 1994 2096 2198 2101
8 1995 2098 2198 2101 2102 2199 2293 2202
8 2206 2107 2204 2296 2106 2001 2104 2203
8 2207 2108 2205 2297 2107 2002 2105 2204
8 2209 2110 2207 2299 2109 2004 2107 2206
8 2210 2111 2208 2300 2110 2005 2108 2207
8 2212 2113 2210 2302 2112 2007 2110 2209
8 2213 2114 2211 2303 2113 2008 2111 2210
8 2220 2117 2213 2305 2120 2011 2113 2212
8 2216 2115 2214 2306 2117 2009 2114 2213
8 2216 2115 2009 2117 2311 2217 2116 2219
8 2219 2116 2010 2119 2314 2218 2118 2222
8 2315 2219 2117 2220 2223 2119 2011 2120
8 2122 2012 2121 2225 2222 2118 2221 2317
8 2318 2222 2119 2223 2226 2122 2013 2123
8 2125 2015 2124 2228 2225 2121 2224 2320
8 2126 2016 2125 2229 2226 2122 2225 2321
8 2128 2018 2127 2231 2228 2124 2227 2323
8 2129 2019 2128 2232 2229 2125 2228 2324
8 2131 2021 2130 2234 2231 2127 2230 2326
8 2132 2022 2131 2235 2232 2128 2231 2327
8 2134 2024 2133 2236 2234 2130 2233 2328
8 2135 2025 2134 2237 2235 2131 2234 2329
8 2137 2028 2136 2238 2237 2134 2236 2330
8 2157 2050 2158 2259 2240 2139 2239 2332
8 2257 2157 2240 2334 2161 2054 2140 2242
8 2240 2139 2241 2335 2140 2033 2141 2243
8 2242 2140 2243 2337 2144 2035 2143 2247
8 2243 2141 2244 2338 2143 2034 2142 2246
8 2246 2142 2245 2341 2146 2036 2145 2249
8 2247 2143 2246 2342 2147 2037 2146 2250
8 2249 2145 2248 2343 2149 2038 2148 2251
8 2250 2146 2249 2344 2150 2039 2149 2252
8 2252 2149 2251 2345 2152 2042 2151 2253
8 2169 2271 2347 2254 2062 2170 2255 2154
8 2189 2085 2188 2285 2255 2154 2254 2347
8 2348 2255 2155 2256 2286 2189 2086 2190
8 2272 2170 2063 2171 2348 2255 2155 2256
8 2349 2258 2157 2257 2263 2164 2054 2161
8 2258 2159 2261 2351 2157 2050 2158 2259
8 2258 2159 2056 2164 2351 2261 2165 2264
8 2262 2163 2060 2167 2355 2264 2168 2269
8 2162 2055 2163 2262 2263 2164 2264 2355
8 2357 2266 2165 2264 2268 2166 2061 2168
8 2268 2166 2076 2182 2361 2267 2181 2280
8 2281 2182 2268 2362 2183 2077 2168 2269
8 2271 2169 2270 2364 2177 2075 2180 2277
8 2172 2070 2170 2272 2273 2177 2271 2365
8 2072 2173 2274 2178 2177 2273 2366 2277
8 2071 2174 2275 2176 2178 2274 2367 2276
8 2275 2176 2276 2367 2184 2083 2186 2282
8 2283 2187 2084 2186 2368 2278 2179 2276
8 2178 2074 2180 2277 2276 2179 2278 2368
8 2283 2187 2279 2370 2186 2084 2181 2280
8 2281 2182 2082 2185 2371 2280 2186 2282
8 2188 2285 2374 2284 2100 2197 2292 2201
8 2286 2189 2095 2193 2375 2285 2197 2289
8 2192 2097 2196 2287 2288 2199 2291 2376
8 2287 2196 2104 2203 2376 2291 2204 2296
8 2194 2098 2199 2288 2290 2198 2293 2377
8 2289 2197 2096 2195 2378 2292 2198 2290
8 2291 2200 2105 2204 2379 2294 2205 2297
8 2199 2102 2200 2291 2293 2202 2294 2379
8 2198 2101 2202 2293 2292 2201 2295 2380
8 2299 2207 2297 2383 2206 2107 2204 2296
8 2300 2208 2298 2384 2207 2108 2205 2297
8 2302 2210 2300 2386 2209 2110 2207 2299
8 2303 2211 2301 2387 2210 2111 2208 2300
8 2305 2213 2303 2389 2212 2113 2210 2302
8 2306 2214 2304 2390 2213 2114 2211 2303
8 2310 2216 2306 2392 2220 2117 2213 2305
8 2308 2215 2307 2393 2216 2115 2214 2306
8 2308 2215 2115 2216 2396 2309 2217 2311
8 2310 2216 2117 2220 2398 2311 2219 2315
8 2311 2217 2116 2219 2399 2312 2218 2314
8 2314 2218 2118 2222 2402 2313 2221 2317
8 2315 2219 2119 2223 2403 2314 2222 2318
8 2225 2121 2224 2320 2317 2221 2316 2405
8 2226 2122 2225 2321 2318 2222 2317 2406
8 2228 2124 2227 2323 2320 2224 2319 2408
8 2229 2125 2228 2324 2321 2225 2320 2409
8 2231 2127 2230 2326 2323 2227 2322 2411
8 2232 2128 2231 2327 2324 2228 2323 2412
8 2234 2130 2233 2328 2326 2230 2325 2413
8 2235 2131 2234 2329 2327 2231 2326 2414
8 2237 2134 2236 2330 2329 2234 2328 2415
8 2259 2158 2260 2352 2332 2239 2331 2417
8 2257 2157 2259 2350 2334 2240 2332 2419
8 2240 2139 2239 2332 2335 2241 2333 2420
8 2334 2240 2335 2422 2242 2140 2243 2337
8 2335 2241 2336 2423 2243 2141 2244 2338
8 2337 2243 2338 2425 2247 2143 2246 2342
8 2338 2244 2339 2426 2246 2142 2245 2341
8 2341 2245 2340 2428 2249 2145 2248 2343
8 2342 2246 2341 2429 2250 2146 2249 2344
8 2344 2249 2343 2430 2252 2149 2251 2345
8 2188 2285 2347 2254 2284 2374 2432 2346
8 2347 2254 2346 2432 2271 2169 2270 2364
8 2365 2271 2170 2272 2433 2347 2255 2348
8 2286 2189 2285 2375 2348 2255 2347 2433
8 2349 2258 2351 2435 2257 2157 2259 2350
8 2349 2258 2164 2263 2435 2351 2264 2355
8 2259 2158 2261 2351 2352 2260 2354 2437
8 2356 2265 2354 2437 2264 2165 2261 2351
8 2441 2357 2264 2355 2362 2268 2168 2269
8 2356 2265 2165 2264 2442 2358 2266 2357
8 2443 2359 2266 2357 2361 2267 2166 2268
8 2370 2279 2360 2446 2280 2181 2267 2361
8 2362 2268 2182 2281 2447 2361 2280 2371
8 2180 2277 2368 2278 2270 2364 2449 2363
8 2271 2365 2273 2177 2364 2450 2366 2277
8 2372 2283 2186 2282 2451 2368 2276 2367
8 2178 2274 2367 2276 2277 2366 2451 2368
8 2283 2187 2278 2368 2370 2279 2369 2452
8 2372 2283 2370 2453 2282 2186 2280 2371
8 2284 2374 2455 2373 2201 2292 2380 2295
8 2375 2285 2197 2289 2456 2374 2292 2378
8 2376 2291 2204 2296 2457 2379 2297 2383
8 2288 2199 2291 2376 2377 2293 2379 2457
8 2198 2290 2378 2292 2293 2377 2458 2380
8 2293 2202 2294 2379 2380 2295 2381 2459
8 2384 2298 2381 2459 2297 2205 2294 2379
8 2386 2300 2384 2463 2299 2207 2297 2383
8 2387 2301 2385 2464 2300 2208 2298 2384
8 2389 2303 2387 2466 2302 2210 2300 2386
8 2390 2304 2388 2467 2303 2211 2301 2387
8 2392 2306 2390 2469 2305 2213 2303 2389
8 2393 2307 2391 2470 2306 2214 2304 2390
8 2395 2308 2393 2472 2310 2216 2306 2392
8 2308 2215 2309 2396 2393 2307 2394 2473
8 2395 2308 2216 2310 2475 2396 2311 2398
8 2396 2309 2217 2311 2476 2397 2312 2399
8 2398 2311 2219 2315 2478 2399 2314 2403
8 2399 2312 2218 2314 2479 2400 2313 2402
8 2317 2221 2316 2405 2402 2313 2401 2482
8 2403 2314 2222 2318 2483 2402 2317 2406
8 2320 2224 2319 2408 2405 2316 2404 2485
8 2321 2225 2320 2409 2406 2317 2405 2486
8 2323 2227 2322 2411 2408 2319 2407 2488
8 2324 2228 2323 2412 2409 2320 2408 2489
8 2326 2230 2325 2413 2411 2322 2410 2490
8 2327 2231 2326 2414 2412 2323 2411 2491
8 2329 2234 2328 2415 2414 2326 2413 2492
8 2417 2331 2260 2352 2494 2416 2353 2438
8 2350 2259 2352 2436 2419 2332 2417 2496
8 2332 2239 2331 2417 2420 2333 2418 2497
8 2334 2240 2332 2419 2422 2335 2420 2499
8 2420 2333 2421 2500 2335 2241 2336 2423
8 2422 2335 2423 2502 2337 2243 2338 2425
8 2423 2336 2424 2503 2338 2244 2339 2426
8 2425 2338 2426 2505 2342 2246 2341 2429
8 2426 2339 2427 2506 2341 2245 2340 2428
8 2429 2341 2428 2507 2344 2249 2343 2430
8 2432 2346 2284 2374 2509 2431 2373 2455
8 2432 2346 2431 2509 2364 2270 2363 2449
8 2375 2285 2374 2456 2433 2347 2432 2510
8 2347 2433 2365 2271 2432 2510 2450 2364
8 2350 2259 2351 2435 2436 2352 2437 2514
8 2440 2356 2437 2514 2355 2264 2351 2435
8 2352 2260 2354 2437 2438 2353 2439 2516
8 2356 2265 2358 2442 2437 2354 2439 2516
8 2440 2356 2264 2355 2518 2442 2357 2441
8 2519 2443 2357 2441 2447 2361 2268 2362
8 2443 2359 2444 2520 2357 2266 2358 2442
8 2443 2359 2267 2361 2520 2444 2360 2446
8 2446 2360 2279 2370 2523 2445 2369 2452
8 2453 2370 2446 2524 2371 2280 2361 2447
8 2449 2363 2448 2525 2368 2278 2369 2452
8 2366 2277 2364 2450 2451 2368 2449 2526
8 2372 2283 2368 2451 2453 2370 2452 2527
8 2455 2373 2295 2380 2529 2454 2382 2460
8 2456 2374 2292 2378 2530 2455 2380 2458
8 2377 2293 2379 2457 2458 2380 2459 2531
8 2463 2384 2459 2531 2383 2297 2379 2457
8 2533 2461 2382 2460 2459 2381 2295 2380
8 2464 2385 2461 2533 2384 2298 2381 2459
8 2466 2387 2464 2537 2386 2300 2384 2463
8 2467 2388 2465 2538 2387 2301 2385 2464
8 2469 2390 2467 2540 2389 2303 2387 2466
8 2470 2391 2468 2541 2390 2304 2388 2467
8 2472 2393 2470 2543 2392 2306 2390 2469
8 2393 2307 2394 2473 2470 2391 2471 2544
8 2395 2308 2396 2475 2472 2393 2473 2546
8 2396 2309 2397 2476 2473 2394 2474 2547
8 2475 2396 2311 2398 2549 2476 2399 2478
8 2476 2397 2312 2399 2550 2477 2400 2479
8 2478 2399 2314 2403 2552 2479 2402 2483
8 2479 2400 2313 2402 2553 2480 2401 2482
8 2405 2316 2404 2485 2482 2401 2481 2556
8 2406 2317 2405 2486 2483 2402 2482 2557
8 2408 2319 2407 2488 2485 2404 2484 2559
8 2409 2320 2408 2489 2486 2405 2485 2560
8 2411 2322 2410 2490 2488 2407 2487 2561
8 2412 2323 2411 2491 2489 2408 2488 2562
8 2414 2326 2413 2492 2491 2411 2490 2563
8 2513 2434 2493 2565 2438 2353 2416 2494
8 2496 2417 2352 2436 2567 2494 2438 2515
8 2494 2416 2495 2568 2417 2331 2418 2497
8 2419 2332 2417 2496 2499 2420 2497 2570
8 2497 2418 2498 2571 2420 2333 2421 2500
8 2499 2420 2500 2573 2422 2335 2423 2502
8 2500 2421 2501 2574 2423 2336 2424 2503
8 2502 2423 2503 2576 2425 2338 2426 2505
8 2503 2424 2504 2577 2426 2339 2427 2506
8 2505 2426 2506 2578 2429 2341 2428 2507
8 2509 2431 2373 2455 2580 2508 2454 2529
8 2509 2431 2508 2580 2449 2363 2448 2525
8 2432 2510 2581 2509 2374 2456 2530 2455
8 2432 2510 2450 2364 2509 2581 2526 2449
8 2583 2511 2434 2513 2516 2439 2353 2438
8 2436 2352 2437 2514 2515 2438 2516 2588
8 2440 2356 2442 2518 2514 2437 2516 2588
8 2442 2358 2444 2520 2516 2439 2517 2589
8 2519 2443 2520 2591 2441 2357 2442 2518
8 2519 2443 2361 2447 2591 2520 2446 2524
8 2446 2360 2445 2523 2520 2444 2521 2592
8 2525 2448 2522 2593 2452 2369 2445 2523
8 2524 2446 2370 2453 2594 2523 2452 2527
8 2526 2449 2525 2595 2451 2368 2452 2527
8 2534 2462 2528 2597 2460 2382 2454 2529
8 2530 2455 2380 2458 2598 2529 2460 2532
8 2599 2533 2460 2532 2531 2459 2380 2458
8 2537 2464 2533 2599 2463 2384 2459 2531
8 2534 2462 2382 2460 2601 2535 2461 2533
8 2538 2465 2535 2601 2464 2385 2461 2533
8 2540 2467 2538 2604 2466 2387 2464 2537
8 2541 2468 2539 2605 2467 2388 2465 2538
8 2543 2470 2541 2607 2469 2390 2467 2540
8 2470 2391 2471 2544 2541 2468 2542 2608
8 2472 2393 2473 2546 2543 2470 2544 2610
8 2473 2394 2474 2547 2544 2471 2545 2611
8 2475 2396 2476 2549 2546 2473 2547 2613
8 2476 2397 2477 2550 2547 2474 2548 2614
8 2549 2476 2399 2478 2616 2550 2479 2552
8 2479 2400 2480 2553 2550 2477 2551 2617
8 2552 2479 2402 2483 2619 2553 2482 2557
8 2482 2401 2481 2556 2553 2480 2554 2620
8 2485 2404 2484 2559 2556 2481 2555 2623
8 2486 2405 2485 2560 2557 2482 2556 2624
8 2488 2407 2487 2561 2559 2484 2558 2625
8 2489 2408 2488 2562 2560 2485 2559 2626
8 2491 2411 2490 2563 2562 2488 2561 2627
8 2513 2434 2512 2585 2565 2493 2564 2630
8 2586 2513 2565 2632 2515 2438 2494 2567
8 2565 2493 2566 2633 2494 2416 2495 2568
8 2567 2494 2568 2635 2496 2417 2497 2570
8 2568 2495 2569 2636 2497 2418 2498 2571
8 2570 2497 2571 2638 2499 2420 2500 2573
8 2571 2498 2572 2639 2500 2421 2501 2574
8 2573 2500 2574 2641 2502 2423 2503 2576
8 2574 2501 2575 2642 2503 2424 2504 2577
8 2576 2503 2577 2643 2505 2426 2506 2578
8 2597 2528 2579 2645 2529 2454 2508 2580
8 2580 2508 2579 2645 2525 2448 2522 2593
8 2581 2509 2455 2530 2646 2580 2529 2598
8 2581 2509 2580 2646 2526 2449 2525 2595
8 2583 2511 2582 2648 2513 2434 2512 2585
8 2583 2511 2439 2516 2648 2582 2517 2589
8 2649 2583 2513 2586 2588 2516 2438 2515
8 2589 2517 2444 2520 2653 2587 2521 2592
8 2518 2442 2520 2591 2588 2516 2589 2654
8 2593 2522 2590 2655 2523 2445 2521 2592
8 2524 2446 2523 2594 2591 2520 2592 2656
8 2595 2525 2593 2657 2527 2452 2523 2594
8 2602 2536 2596 2659 2534 2462 2528 2597
8 2600 2534 2597 2660 2532 2460 2529 2598
8 2600 2534 2460 2532 2661 2601 2533 2599
8 2604 2538 2601 2661 2537 2464 2533 2599
8 2602 2536 2462 2534 2663 2603 2535 2601
8 2601 2535 2465 2538 2663 2603 2539 2605
8 2607 2541 2605 2665 2540 2467 2538 2604
8 2608 2542 2606 2666 2541 2468 2539 2605
8 2543 2470 2544 2610 2607 2541 2608 2668
8 2544 2471 2545 2611 2608 2542 2609 2669
8 2546 2473 2547 2613 2610 2544 2611 2671
8 2547 2474 2548 2614 2611 2545 2612 2672
8 2549 2476 2550 2616 2613 2547 2614 2674
8 2550 2477 2551 2617 2614 2548 2615 2675
8 2552 2479 2553 2619 2616 2550 2617 2677
8 2553 2480 2554 2620 2617 2551 2618 2678
8 2557 2482 2556 2624 2619 2553 2620 2680
8 2556 2481 2555 2623 2620 2554 2621 2681
8 2559 2484 2558 2625 2623 2555 2622 2683
8 2560 2485 2559 2626 2624 2556 2623 2684
8 2562 2488 2561 2627 2626 2559 2625 2685
8 2690 2629 2564 2630 2650 2584 2512 2585
8 2586 2513 2585 2651 2632 2565 2630 2691
8 2630 2564 2631 2692 2565 2493 2566 2633
8 2632 2565 2633 2694 2567 2494 2568 2635
8 2633 2566 2634 2695 2568 2495 2569 2636
8 2635 2568 2636 2697 2570 2497 2571 2638
8 2636 2569 2637 2698 2571 2498 2572 2639
8 2638 2571 2639 2700 2573 2500 2574 2641
8 2639 2572 2640 2701 2574 2501 2575 2642
8 2641 2574 2642 2702 2576 2503 2577 2643
8 2597 2528 2596 2659 2645 2579 2644 2704
8 2645 2579 2644 2704 2593 2522 2590 2655
8 2660 2597 2645 2705 2598 2529 2580 2646
8 2646 2580 2645 2705 2595 2525 2593 2657
8 2650 2584 2512 2585 2707 2647 2582 2648
8 2648 2582 2517 2589 2707 2647 2587 2653
8 2649 2583 2648 2708 2586 2513 2585 2651
8 2649 2583 2516 2588 2708 2648 2589 2654
8 2655 2590 2652 2710 2592 2521 2587 2653
8 2654 2589 2520 2591 2711 2653 2592 2656
8 2657 2593 2655 2712 2594 2523 2592 2656
8 2602 2536 2603 2663 2659 2596 2658 2714
8 2662 2602 2659 2715 2600 2534 2597 2660
8 2662 2602 2534 2600 2717 2663 2601 2661
8 2661 2601 2538 2604 2717 2663 2605 2665
8 2666 2606 2664 2718 2605 2539 2603 2663
8 2668 2608 2666 2720 2607 2541 2605 2665
8 2608 2542 2609 2669 2666 2606 2667 2721
8 2610 2544 2611 2671 2668 2608 2669 2723
8 2611 2545 2612 2672 2669 2609 2670 2724
8 2613 2547 2614 2674 2671 2611 2672 2726
8 2614 2548 2615 2675 2672 2612 2673 2727
8 2616 2550 2617 2677 2674 2614 2675 2729
8 2617 2551 2618 2678 2675 2615 2676 2730
8 2619 2553 2620 2680 2677 2617 2678 2732
8 2620 2554 2621 2681 2678 2618 2679 2733
8 2624 2556 2623 2684 2680 2620 2681 2735
8 2681 2621 2555 2623 2736 2682 2622 2683
8 2626 2559 2625 2685 2684 2623 2683 2737
8 2688 2628 2584 2650 2740 2686 2647 2707
8 2688 2628 2687 2742 2650 2584 2629 2690
8 2690 2629 2689 2745 2630 2564 2631 2692
8 2746 2690 2630 2691 2709 2650 2585 2651
8 2691 2630 2692 2747 2632 2565 2633 2694
8 2692 2631 2693 2748 2633 2566 2634 2695
8 2694 2633 2695 2750 2635 2568 2636 2697
8 2695 2634 2696 2751 2636 2569 2637 2698
8 2697 2636 2698 2753 2638 2571 2639 2700
8 2698 2637 2699 2754 2639 2572 2640 2701
8 2700 2639 2701 2755 2641 2574 2642 2702
8 2659 2596 2658 2714 2704 2644 2703 2757
8 2704 2644 2703 2757 2655 2590 2652 2710
8 2660 2597 2659 2715 2705 2645 2704 2758
8 2705 2645 2704 2758 2657 2593 2655 2712
8 2759 2706 2647 2707 2710 2652 2587 2653
8 2709 2650 2585 2651 2760 2707 2648 2708
8 2708 2648 2589 2654 2760 2707 2653 2711
8 2712 2655 2710 2761 2656 2592 2653 2711
8 2763 2713 2658 2714 2718 2664 2603 2663
8 2662 2602 2663 2717 2715 2659 2714 2764
8 2720 2666 2718 2767 2665 2605 2663 2717
8 2768 2719 2664 2718 2721 2667 2606 2666
8 2668 2608 2669 2723 2720 2666 2721 2770
8 2669 2609 2670 2724 2721 2667 2722 2771
8 2671 2611 2672 2726 2723 2669 2724 2773
8 2672 2612 2673 2727 2724 2670 2725 2774
8 2674 2614 2675 2729 2726 2672 2727 2776
8 2675 2615 2676 2730 2727 2673 2728 2777
8 2677 2617 2678 2732 2729 2675 2730 2779
8 2678 2618 2679 2733 2730 2676 2731 2780
8 2680 2620 2681 2735 2732 2678 2733 2782
8 2733 2679 2621 2681 2783 2734 2682 2736
8 2735 2681 2623 2684 2784 2736 2683 2737
8 2740 2686 2647 2707 2787 2738 2706 2759
8 2688 2628 2686 2740 2742 2687 2739 2789
8 2743 2688 2650 2709 2790 2740 2707 2760
8 2742 2687 2741 2792 2690 2629 2689 2745
8 2743 2688 2742 2793 2709 2650 2690 2746
8 2745 2689 2744 2795 2692 2631 2693 2748
8 2746 2690 2745 2796 2691 2630 2692 2747
8 2747 2692 2748 2797 2694 2633 2695 2750
8 2748 2693 2749 2798 2695 2634 2696 2751
8 2750 2695 2751 2800 2697 2636 2698 2753
8 2751 2696 2752 2801 2698 2637 2699 2754
8 2753 2698 2754 2802 2700 2639 2701 2755
8 2763 2713 2756 2804 2714 2658 2703 2757
8 2759 2706 2652 2710 2804 2756 2703 2757
8 2715 2659 2714 2764 2758 2704 2757 2805
8 2758 2704 2757 2805 2712 2655 2710 2761
8 2806 2759 2707 2760 2761 2710 2653 2711
8 2765 2716 2762 2808 2718 2664 2713 2763
8 2809 2763 2714 2764 2767 2718 2663 2717
8 2765 2716 2664 2718 2811 2766 2719 2768
8 2813 2768 2718 2767 2770 2721 2666 2720
8 2814 2769 2719 2768 2771 2722 2667 2721
8 2723 2669 2724 2773 2770 2721 2771 2816
8 2724 2670 2725 2774 2771 2722 2772 2817
8 2726 2672 2727 2776 2773 2724 2774 2819
8 2727 2673 2728 2777 2774 2725 2775 2820
8 2729 2675 2730 2779 2776 2727 2777 2822
8 2730 2676 2731 2780 2777 2728 2778 2823
8 2732 2678 2733 2782 2779 2730 2780 2825
8 2780 2731 2679 2733 2826 2781 2734 2783
8 2782 2733 2681 2735 2827 2783 2736 2784
8 2830 2785 2738 2787 2804 2756 2706 2759
8 2789 2739 2686 2740 2832 2786 2738 2787
8 2790 2740 2707 2760 2833 2787 2759 2806
8 2742 2687 2739 2789 2792 2741 2788 2835
8 2743 2688 2740 2790 2793 2742 2789 2836
8 2792 2741 2791 2838 2745 2689 2744 2795
8 2793 2742 2792 2839 2746 2690 2745 2796
8 2795 2744 2794 2841 2748 2693 2749 2798
8 2796 2745 2795 2842 2747 2692 2748 2797
8 2797 2748 2798 2843 2750 2695 2751 2800
8 2798 2749 2799 2844 2751 2696 2752 2801
8 2800 2751 2801 2845 2753 2698 2754 2802
8 2808 2762 2803 2847 2763 2713 2756 2804
8 2809 2763 2804 2848 2764 2714 2757 2805
8 2806 2759 2710 2761 2848 2804 2757 2805
8 2765 2716 2766 2811 2808 2762 2807 2850
8 2810 2765 2808 2851 2767 2718 2763 2809
8 2810 2765 2718 2767 2852 2811 2768 2813
8 2811 2766 2719 2768 2853 2812 2769 2814
8 2855 2814 2768 2813 2816 2771 2721 2770
8 2856 2815 2769 2814 2817 2772 2722 2771
8 2773 2724 2774 2819 2816 2771 2817 2858
8 2774 2725 2775 2820 2817 2772 2818 2859
8 2776 2727 2777 2822 2819 2774 2820 2861
8 2777 2728 2778 2823 2820 2775 2821 2862
8 2779 2730 2780 2825 2822 2777 2823 2864
8 2823 2778 2731 2780 2865 2824 2781 2826
8 2825 2780 2733 2782 2866 2826 2783 2827
8 2869 2828 2785 2830 2847 2803 2756 2804
8 2871 2829 2786 2832 2830 2785 2738 2787
8 2872 2830 2787 2833 2848 2804 2759 2806
8 2789 2739 2786 2832 2835 2788 2831 2874
8 2836 2789 2740 2790 2875 2832 2787 2833
8 2792 2741 2788 2835 2838 2791 2834 2877
8 2793 2742 2789 2836 2839 2792 2835 2878
8 2838 2791 2837 2880 2795 2744 2794 2841
8 2839 2792 2838 2881 2796 2745 2795 2842
8 2841 2794 2840 2882 2798 2749 2799 2844
8 2842 2795 2841 2883 2797 2748 2798 2843
8 2843 2798 2844 2884 2800 2751 2801 2845
8 2886 2846 2803 2847 2850 2807 2762 2808
8 2851 2808 2847 2887 2809 2763 2804 2848
8 2850 2807 2766 2811 2889 2849 2812 2853
8 2810 2765 2811 2852 2851 2808 2850 2890
8 2852 2811 2768 2813 2891 2853 2814 2855
8 2853 2812 2769 2814 2892 2854 2815 2856
8 2894 2856 2814 2855 2858 2817 2771 2816
8 2817 2772 2818 2859 2856 2815 2857 2895
8 2819 2774 2820 2861 2858 2817 2859 2897
8 2820 2775 2821 2862 2859 2818 2860 2898
8 2822 2777 2823 2864 2861 2820 2862 2900
8 2823 2778 2824 2865 2862 2821 2863 2901
8 2864 2823 2780 2825 2902 2865 2826 2866
8 2904 2867 2828 2869 2886 2846 2803 2847
8 2869 2828 2868 2906 2830 2785 2829 2871
8 2907 2869 2830 2872 2887 2847 2804 2848
8 2871 2829 2870 2909 2832 2786 2831 2874
8 2910 2871 2832 2875 2872 2830 2787 2833
8 2835 2788 2831 2874 2877 2834 2873 2912
8 2836 2789 2832 2875 2878 2835 2874 2913
8 2877 2834 2876 2915 2838 2791 2837 2880
8 2839 2792 2835 2878 2881 2838 2877 2916
8 2880 2837 2879 2917 2841 2794 2840 2882
8 2881 2838 2880 2918 2842 2795 2841 2883
8 2883 2841 2882 2919 2843 2798 2844 2884
8 2921 2885 2846 2886 2889 2849 2807 2850
8 2922 2886 2847 2887 2890 2850 2808 2851
8 2889 2849 2812 2853 2924 2888 2854 2892
8 2890 2850 2811 2852 2925 2889 2853 2891
8 2891 2853 2814 2855 2926 2892 2856 2894
8 2892 2854 2815 2856 2927 2893 2857 2895
8 2858 2817 2859 2897 2894 2856 2895 2929
8 2859 2818 2860 2898 2895 2857 2896 2930
8 2861 2820 2862 2900 2897 2859 2898 2932
8 2862 2821 2863 2901 2898 2860 2899 2933
8 2864 2823 2865 2902 2900 2862 2901 2934
8 2904 2867 2846 2886 2936 2903 2885 2921
8 2904 2867 2903 2936 2869 2828 2868 2906
8 2937 2904 2869 2907 2922 2886 2847 2887
8 2906 2868 2905 2939 2871 2829 2870 2909
8 2907 2869 2906 2940 2872 2830 2871 2910
8 2909 2870 2908 2942 2874 2831 2873 2912
8 2910 2871 2909 2943 2875 2832 2874 2913
8 2912 2873 2911 2945 2877 2834 2876 2915
8 2878 2835 2874 2913 2916 2877 2912 2946
8 2915 2876 2914 2947 2880 2837 2879 2917
8 2916 2877 2915 2948 2881 2838 2880 2918
8 2918 2880 2917 2949 2883 2841 2882 2919
8 2921 2885 2849 2889 2951 2920 2888 2924
8 2952 2921 2886 2922 2925 2889 2850 2890
8 2924 2888 2854 2892 2954 2923 2893 2927
8 2925 2889 2853 2891 2955 2924 2892 2926
8 2926 2892 2856 2894 2956 2927 2895 2929
8 2895 2857 2896 2930 2927 2893 2928 2957
8 2897 2859 2898 2932 2929 2895 2930 2959
8 2898 2860 2899 2933 2930 2896 2931 2960
8 2900 2862 2901 2934 2932 2898 2933 2961
8 2936 2903 2885 2921 2963 2935 2920 2951
8 2936 2903 2935 2963 2906 2868 2905 2939
8 2937 2904 2886 2922 2964 2936 2921 2952
8 2937 2904 2936 2964 2907 2869 2906 2940
8 2939 2905 2938 2966 2909 2870 2908 2942
8 2940 2906 2939 2967 2910 2871 2909 2943
8 2942 2908 2941 2969 2912 2873 2911 2945
8 2943 2909 2942 2970 2913 2874 2912 2946
8 2945 2911 2944 2971 2915 2876 2914 2947
8 2946 2912 2945 2972 2916 2877 2915 2948
8 2948 2915 2947 2973 2918 2880 2917 2949
8 2951 2920 2888 2924 2975 2950 2923 2954
8 2952 2921 2889 2925 2976 2951 2924 2955
8 2927 2893 2928 2957 2954 2923 2953 2978
8 2955 2924 2892 2926 2979 2954 2927 2956
8 2929 2895 2930 2959 2956 2927 2957 2980
8 2930 2896 2931 2960 2957 2928 2958 2981
8 2932 2898 2933 2961 2959 2930 2960 2982
8 2951 2920 2950 2975 2963 2935 2962 2984
8 2963 2935 2962 2984 2939 2905 2938 2966
8 2964 2936 2921 2952 2985 2963 2951 2976
8 2964 2936 2963 2985 2940 2906 2939 2967
8 2966 2938 2965 2987 2942 2908 2941 2969
8 2967 2939 2966 2988 2943 2909 2942 2970
8 2969 2941 2968 2989 2945 2911 2944 2971
8 2970 2942 2969 2990 2946 2912 2945 2972
8 2972 2945 2971 2991 2948 2915 2947 2973
8 2954 2923 2953 2978 2975 2950 2974 2993
8 2976 2951 2924 2955 2994 2975 2954 2979
8 2957 2928 2958 2981 2978 2953 2977 2995
8 2956 2927 2957 2980 2979 2954 2978 2996
8 2959 2930 2960 2982 2980 2957 2981 2997
8 2984 2962 2983 2999 2966 2938 2965 2987
8 2975 2950 2974 2993 2984 2962 2983 2999
8 2976 2951 2975 2994 2985 2963 2984 3000
8 2985 2963 2984 3000 2967 2939 2966 2988
8 2987 2965 2986 3001 2969 2941 2968 2989
8 2988 2966 2987 3002 2970 2942 2969 2990
8 2990 2969 2989 3003 2972 2945 2971 2991
8 2978 2953 2977 2995 2993 2974 2992 3004
8 2979 2954 2978 2996 2994 2975 2993 3005
8 2980 2957 2981 2997 2996 2978 2995 3006
8 2974 2993 2999 2983 2992 3004 3007 2998
8 2983 2999 2987 2965 2998 3007 3001 2986
8 3000 2984 2999 3008 2988 2966 2987 3002
8 2994 2975 2993 3005 3000 2984 2999 3008
8 3002 2987 3001 3009 2990 2969 2989 3003
8 2996 2978 2995 3006 3005 2993 3004 3010
8 3005 2993 3004 3010 3008 2999 3007 3011
8 3008 2999 3007 3011 3002 2987 3001 3009

CELL_TYPES 1910
12
12
12
12
12
12
12
12
12
12
12
12
12
12
12
12
12
12
12
12
12
12
12
12
12
12
12
12
12
12
12
12
12
12
12
12
12
12
12
12
12
12
12
12
12
12
12
12
12
12
12
12
12
12
12
12
12
12
12
12
12
12
12
12
12
12
12
12
12
12
12
12
12
12
12
12
12
12
12
12
12
12
12
12
12
12
12
12
12
12
12
12
12
12
12
12
12
12
12
12
12
12
12
12
12
12
12
12
12
12
12
12
12
12
12
12
12
12
12
12
12
12
12
12
12
12
12
12
12
12
12
12
12
12
12
12
12
12
12
12
12
12
12
12
12
12
12
12
12
12
12
12
12
12
12
12
12
12
12
12
12
12
12
12
12
12
12
12
12
12
12
12
12
12
12
12
12
12
12
12
12
12
12
12
12
12
12
12
12
12
12
12
12
12
12
12
12
12
12
12
12
12
12
12
12
12
12
12
12
12
12
12
12
12
12
12
12
12
12
12
12
12
12
12
12
12
12
12
12
12
12
12
12
12
12
12
12
12
12
12
12
12
12
12
12
12
12
12
12
12
12
12
12
12
12
12
12
12
12
12
12
12
12
12
12
12
12
12
12
12
12
12
12
12
12
12
12
12
12
12
12
12
12
12
12
12
12
12
12
12
12
12
12
12
12
12
12
12
12
12
12
12
12
12
12
12
12
12
12
12
12
12
12
12
12
12
12
12
12
12
12
12
12
12
12
12
12
12
12
12
12
12
12
12
12
12
12
12
12
12
12
12
12
12
12
12
12
12
12
12
12
12
12
12
12
12
12
12
12
12
12
12
12
12
12
12
12
12
12
12
12
12
12
12
12
12
12
12
12
12
12
12
12
12
12
12
12
12
12
12
12
12
12
12
12
12
12
12
12
12
12
12
12
12
12
12
12
12
12
12
12
12
12
12
12
12
12
12
12
12
12
12
12
12
12
12
12
12
12
12
12
12
12
12
12
12
12
12
12
12
12
12
12
12
12
12
12
12
12
12
12
12
12
12
12
12
12
12
12
12
12
12
12
12
12
12
12
12
12
12
12
12
12
12
12
12
12
12
12
12
12
12
12
12
12
12
12
12
12
12
12
12
12
12
12
12
12
12
12
12
12
12
12
12
12
12
12
12
12
12
12
12
12
12
12
12
12
12
12
12
12
12
12
12
12
12
12
12
12
12
12
12
12
12
12
12
12
12
12
12
12
12
12
12
12
12
12
12
12
12
12
12
12
12
12
12
12
12
12
12
12
12
12
12
12
12
12
12
12
12
12
12
12
12
12
12
12
12
12
12
12
12
12
12
12
12
12
12
12
12
12
12
12
12
12
12
12
12
12
12
12
12
12
12
12
12
12
12
12
12
12
12
12
12
12
12
12
12
12
12
12
12
12
12
12
12
12
12
12
12
12
12
12
12
12
12
12
12
12
12
12
12
12
12
12
12
12
12
12
12
12
12
12
12
12
12
12
12
12
12
12
12
12
12
12
12
12
12
12
12
12
12
12
12
12
12
12
12
12
12
12
12
12
12
12
12
12
12
12
12
12
12
12
12
12
12
12
12
12
12
12
12
12
12
12
12
12
12
12
12
12
12
12
12
12
12
12
12
12
12
12
12
12
12
12
12
12
12
12
12
12
12
12
12
12
12
12
12
12
12
12
12
12
12
12
12
12
12
12
12
12
12
12
12
12
12
12
12
12
12
12
12
12
12
12
12
12
12
12
12
12
12
12
12
12
12
12
12
12
12
12
12
12
12
12
12
12
12
12
12
12
12
12
12
12
12
12
12
12
12
12
12
12
12
12
12
12
12
12
12
12
12
12
12
12
12
12
12
12
12
12
12
12
12
12
12
12
12
12
12
12
12
12
12
12
12
12
12
12
12
12
12
12
12
12
12
12
12
12
12
12
12
12
12
12
12
12
12
12
12
12
12
12
12
12
12
12
12
12
12
12
12
12
12
12
12
12
12
12
12
12
12
12
12
12
12
12
12
12
12
12
12
12
12
12
12
12
12
12
12
12
12
12
12
12
12
12
12
12
12
12
12
12
12
12
12
12
12
12
12
12
12
12
12
12
12
12
12
12
12
12
12
12
12
12
12
12
12
12
12
12
12
12
12
12
12
12
12
12
12
12
12
12
12
12
12
12
12
12
12
12
12
12
12
12
12
12
12
12
12
12
12
12
12
12
12
12
12
12
12
12
12
12
12
12
12
12
12
12
12
12
12
12
12
12
12
12
12
12
12
12
12
12
12
12
12
12
12
12
12
12
12
12
12
12
12
12
12
12
12
12
12
12
12
12
12
12
12
12
12
12
12
12
12
12
12
12
12
12
12
12
12
12
12
12
12
12
12
12
12
12
12
12
12
12
12
12
12
12
12
12
12
12
12
12
12
12
12
12
12
12
12
12
12
12
12
12
12
12
12
12
12
12
12
12
12
12
12
12
12
12
12
12
12
12
12
12
12
12
12
12
12
12
12
12
12
12
12
12
12
12
12
12
12
12
12
12
12
12
12
12
12
12
12
12
12
12
12
12
12
12
12
12
12
12
12
12
12
12
12
12
12
12
12
12
12
12
12
12
12
12
12
12
12
12
12
12
12
12
12
12
12
12
12
12
12
12
12
12
12
12
12
12
12
12
12
12
12
12
12
12
12
12
12
12
12
12
12
12
12
12
12
12
12
12
12
12
12
12
12
12
12
12
12
12
12
12
12
12
12
12
12
12
12
12
12
12
12
12
12
12
12
12
12
12
12
12
12
12
12
12
12
12
12
12
12
12
12
12
12
12
12
12
12
12
12
12
12
12
12
12
12
12
12
12
12
12
12
12
12
12
12
12
12
12
12
12
12
12
12
12
12
12
12
12
12
12
12
12
12
12
12
12
12
12
12
12
12
12
12
12
12
12
12
12
12
12
12
12
12
12
12
12
12
12
12
12
12
12
12
12
12
12
12
12
12
12
12
12
12
12
12
12
12
12
12
12
12
12
12
12
12
12
12
12
12
12
12
12
12
12
12
12
12
12
12
12
12
12
12
12
12
12
12
12
12
12
12
12
12
12
12
12
12
12
12
12
12
12
12
12
12
12
12
12
12
12
12
12
12
12
12
12
12
12
12
12
12
12
12
12
12
12
12
12
12
12
12
12
12
12
12
12
12
12
12
12
12
12
12
12
12
12
12
12
12
12
12
12
12
12
12
12
12
12
12
12
12
12
12
12
12
12
12
12
12
12
12
12
12
12
12
12
12
12
12
12
12
12
12
12
12
12
12
12
12
12
12
12
12
12
12
12
12
12
12
12
12
12
12
12
12
12
12
12
12
12
12
12
12
12
12
12
12
12
12
12
12
12
12
12
12
12
12
12
12
12
12
12
12
12
12
12
12
12
12
12
12
12
12
12
12
12
12
12
12
12
12
12
12
12
12
12
12
12
12
12
12
12
12
12
12
12
12
12
12
12
12
12
12
12
12
12
12
12
12
12
12
12
12
12
12
12
12
12
12
12
12
12
12
12
12
12
12
12
12
12
12
12
12
12
12
12
12
12
12
12
12
12
12
12
12
12
12
12
12
12
12
12
12
12
12
12
12
12
12
12
12
12
12
12
12
12
12
12
12
12
12
12
12
12
12
12
12
12
12
12
12
12
12
12
12
12
12
12
12
12
12
12
12
12
12
12
12
12
12
12
12
12
12
12
12
12
12
12
12
12
12
12
12
12
12
12
12
12
12
12
12
12
12
12
12
12
12
12
12
12
12
12
12
12
12
12
12
12
12
12
12
12
12
12
12
12
12
12
12
12
12
12
12
12
12
12
12
12
12
12
12
12
12
12
12
12
12
12
12
12
12
12
12
12
12
12
12
12
12
12
12
12
12
12
12
12
12
12
12
12
12
12
12
12
12
12
12
12
12
12
12
12
12
12
12
12
12
12
12
12
12
12
12
12
12
12
12
12
12
12
12
12
12
12
12
12
12
12
12
12
12
12
12
12
12
12
12
12
12
12
12
12
12
12
12
12
12
12
12
12
12
12
12
12
12
12
12
12
12
12
12
12
12
12
12
12
12
12
12
12
12
12
12
12
12
12
12
12
12
12
12
12
12
12
12
12
12
12
12
12
12
12
12
12
12
12
12
12
12
12
12
12
12
12
12
12
12
12
12
12
12
12
12
12
12
12
12
12
12
12
12
12
12
12
12
12
12
12
12
12
12
12
12
12
12
12
12
12
12
12
12
12
12
12
12
12
12
12
12
12
12
12
12
12
12
12
12
12
12
12
12
12
12
12
12
12
12
12
12
12
12
12
12

POINT_DATA 3012
SCALARS Jp_lamdaP float 4
LOOKUP_TABLE default
0.999929 1 1 0.999929
1 1 1 1
0.999932 1 1 0.999932
0.999898 1 1 0.999898
0.999926 1 1 0.999926
0.999933 1 1 0.999933
0.99956 1 1 0.99956
1 1 1 1
1 1 1 1
1 1 1 1
0.999988 1 1 0.999988
0.999731 1 1 0.999731
0.999857 1 1 0.999857
0.999889 1 1 0.999889
0.999932 1 1 0.999932
0.999907 1 1 0.999907
0.999937 1 1 0.999937
0.999931 1 1 0.999931
0.999563 1 1 0.999563
1 1 1 1
0.999883 1 1 0.999883
0.999914 1 1 0.999914
0.999441 1 1 0.999441
0.999527 1 1 0.999527
0.999956 1 1 0.999956
0.999604 1 1 0.999604
0.998965 1 1 0.998965
1 1 1 1
0.999955 1 1 0.999955
0.999968 1 1 0.999968
1 1 1 1
0.999739 1 1 0.999739
0.999905 1 1 0.999905
0.999927 1 1 0.999927
0.999616 1 1 0.999616
1 1 1 1
0.999707 1 1 0.999707
0.999807 1 1 0.999807
0.999055 1 1 0.999055
1 1 1 1
1 1 1 1
0.999943 1 1 0.999943
1 1 1 1
0.999878 1 1 0.999878
0.999379 1 1 0.999379
1 1 1 1
0.999536 1 1 0.999536
0.999915 1 1 0.999915
0.999934 1 1 0.999934
0.99994 1 1 0.99994
0.999568 1 1 0.999568
0.999928 1 1 0.999928
0.999893 1 1 0.999893
0.999963 1 1 0.999963
0.999922 1 1 0.999922
0.999442 1 1 0.999442
0.999609 1 1 0.999609
0.99953 1 1 0.99953
0.998951 1 1 0.998951
1 1 1 1
0.999868 1 1 0.999868
0.999491 1 1 0.999491
0.99941 1 1 0.99941
0.999483 1 1 0.999483
0.99868 1 1 0.99868
0.998816 1 1 0.998816
0.999987 1 1 0.999987
0.999713 1 1 0.999713
0.999077 1 1 0.999077
0.998514 1.00013 1 0.998383
1 1 1 1
1 1 1 1
1 1 1 1
0.999747 1 1 0.999747
1 1 1 1
1 1 1 1
0.999576 1 1 0.999576
0.999999 1 1 0.999999
0.999683 1 1 0.999683
0.999831 1 1 0.999831
0.999053 1 1 0.999053
1 1 1 1
0.999991 1 1 0.999991
0.999526 1 1 0.999526
0.999614 1 1 0.999614
0.998664 1 1 0.998664
0.999902 1 1 0.999902
0.998958 1 1 0.998958
0.999166 1 1 0.999166
0.998638 1 1 0.998638
1 1 1 1
1 1 1 1
1 1 1 1
1 1 1 1
1 1 1 1
0.999935 1 1 0.999935
0.999433 1 1 0.999433
0.999947 1 1 0.999947
0.999512 1 1 0.999512
1 1 1 1
0.999353 1 1 0.999353
0.999505 1 1 0.999505
0.998348 1 1 0.998348
0.999565 1 1 0.999565
0.998453 1 1 0.998453
0.999871 1 1 0.999871
0.999902 1 1 0.999902
0.999969 1 1 0.999969
0.999928 1 1 0.999928
0.999444 1 1 0.999444
0.999534 1 1 0.999534
0.999614 1 1 0.999614
0.998937 1 1 0.998937
1 1 1 1
0.999879 1 1 0.999879
0.999378 1 1 0.999378
0.999411 1 1 0.999411
0.999994 1 1 0.999994
0.999753 1 1 0.999753
0.999486 1 1 0.999486
0.998647 1 1 0.998647
0.999058 1 1 0.999058
0.998839 1 1 0.998839
0.998628 1.00024 1 0.998386
0.999373 1 1 0.999373
0.999384 1 1 0.999384
0.99847 1 1 0.99847
0.998576 1 1 0.998576
0.998703 1 1 0.998703
1.00063 1.00249 1 0.998146
1 1 1 1
0.998906 1.0006 1 0.998305
0.999881 1 1 0.999881
0.999146 1 1 0.999146
0.998471 1.00001 1 0.998463
1.00142 1.00326 1 0.998158
0.999959 1 1 0.999959
0.999497 1 1 0.999497
1 1 1 1
1 1 1 1
0.999583 1 1 0.999583
1 1 1 1
0.999844 1 1 0.999844
0.999688 1 1 0.999688
0.999051 1 1 0.999051
1 1 1 1
0.999994 1 1 0.999994
0.99956 1 1 0.99956
0.999646 1 1 0.999646
0.998667 1 1 0.998667
0.99992 1 1 0.99992
0.99896 1 1 0.99896
0.999166 1 1 0.999166
0.998623 1 1 0.998623
0.99996 1 1 0.99996
1 1 1 1
0.999616 1 1 0.999616
0.998556 1 1 0.998556
0.998815 1 1 0.998815
1.00052 1.00233 1 0.998193
0.99931 1 1 0.99931
0.998631 1.00011 1 0.998524
0.99909 1 1.00037 0.998724
0.998486 1 1 0.998486
1 1 1 1
1 1 1 1
1 1 1 1
0.99998 1 1 0.99998
1 1 1 1
1 1 1 1
1 1 1 1
0.999485 1 1 0.999485
0.999401 1 1 0.999401
1 1 1 1
1 1 1 1
0.999356 1 1 0.999356
0.99948 1 1 0.99948
0.998349 1 1 0.998349
0.99951 1 1 0.99951
0.998453 1 1 0.998453
0.999343 1 1 0.999343
0.998291 1 1 0.998291
0.998411 1 1 0.998411
1.00337 1.00546 1 0.997928
0.998492 1 1 0.998492
1.00253 1.00451 1 0.998027
1 1 1 1
0.999889 1 1 0.999889
0.999258 1 1 0.999258
0.999411 1 1 0.999411
1 1 1 1
0.999792 1 1 0.999792
0.999489 1 1 0.999489
0.998613 1 1 0.998613
0.998863 1 1 0.998863
0.999038 1 1 0.999038
0.998733 1.00035 1 0.998388
0.99937 1 1 0.99937
0.999384 1 1 0.999384
0.9984 1 1 0.9984
0.998601 1 1 0.998601
1 1 1 1
0.999869 1 1 0.999869
0.999178 1 1 0.999178
0.998703 1 1 0.998703
1.00065 1.00255 1 0.998109
0.998485 1.00003 1 0.998456
0.999135 1.00081 1 0.998328
1.00134 1.00318 1 0.998162
0.999952 1 1 0.999952
0.999497 1 1 0.999497
0.998307 1 1 0.998307
0.998529 1 1 0.998529
1.00223 1.00422 1 0.998015
1.00094 1.00292 1 0.998024
0.999566 1.00133 1 0.998239
1.00661 1.00864 1 0.997986
0.999928 1 1 0.999928
1.00243 1.00433 1 0.998109
0.99926 1 1 0.99926
0.998704 1.00009 1 0.998614
1.00088 1.00266 1 0.998229
1.00561 1.00751 1 0.998111
0.999391 1 1 0.999391
0.999627 1 1 0.999627
0.99906 1 1 0.99906
0.999541 1 1 0.999541
1 1 1 1
0.999998 1 1 0.999998
0.999638 1 1 0.999638
0.998669 1 1 0.998669
0.999933 1 1 0.999933
0.999166 1 1 0.999166
0.998963 1 1 0.998963
0.998609 1 1 0.998609
0.999971 1 1 0.999971
1 1 1 1
0.999618 1 1 0.999618
0.998557 1 1 0.998557
0.99882 1 1 0.99882
1.00008 1.00189 1 0.998192
0.999312 1 1 0.999312
0.998623 1.00009 1 0.998534
0.998892 1 1.00017 0.998722
0.998474 1 1 0.998474
1 1 1 1
0.999455 1 1 0.999455
0.999769 1 1 0.999769
0.999183 1 1 0.999183
1.00176 1.00367 1 0.998097
0.999304 1.00094 1 0.998365
1.00516 1.00719 1 0.997986
0.999157 1 1.00027 0.998889
0.99997 1.00161 1 0.998362
0.999842 1 1.00139 0.998458
0.999179 1.00083 1 0.998353
0.999932 1 1 0.999932
1 1 1 1
1 1 1 1
1 1 1 1
1 1 1 1
0.999992 1 1 0.999992
1 1 1 1
0.999974 1 1 0.999974
1 1 1 1
0.999511 1 1 0.999511
0.999449 1 1 0.999449
0.998453 1 1 0.998453
0.998349 1 1 0.998349
0.999358 1 1 0.999358
1 1 1 1
0.999342 1 1 0.999342
0.998291 1 1 0.998291
0.99841 1 1 0.99841
1.00325 1.00534 1 0.997927
0.998492 1 1 0.998492
1.00257 1.00455 1 0.998027
0.998279 1 1 0.998279
1.00338 1.00552 1 0.997872
1.00292 1.00495 1 0.997985
1.01309 1.01526 1 0.997866
1.00245 1.00441 1 0.998056
1.01104 1.01313 1 0.99793
0.999367 1 1 0.999367
0.999384 1 1 0.999384
0.99833 1 1 0.99833
0.998626 1 1 0.998626
1 1 1 1
0.999856 1 1 0.999856
0.99921 1 1 0.99921
0.998704 1 1 0.998704
1.00067 1.0026 1 0.998072
0.999369 1.00102 1 0.998351
0.998504 1.00005 1 0.99845
1.00133 1.00317 1 0.998166
0.999944 1 1 0.999944
0.999497 1 1 0.999497
0.998285 1 1 0.998285
0.998528 1 1 0.998528
1.00241 1.00441 1 0.998005
1.00113 1.00308 1 0.998062
0.999919 1 1 0.999919
0.999258 1 1 0.999258
0.99869 1.00004 1 0.998646
0.999735 1.0015 1 0.99824
1.00694 1.00898 1 0.997984
1.00076 1.00257 1 0.998197
1.00261 1.00451 1 0.99811
1.00585 1.00775 1 0.998111
0.999393 1 1 0.999393
0.999068 1 1.00001 0.999059
0.999625 1 1 0.999625
1.00278 1.00483 1 0.997953
1.00232 1.00429 1 0.998038
1.01174 1.0139 1 0.997863
1.00855 1.01065 1 0.997916
1.00439 1.00635 1 0.998051
1.01246 1.01444 1 0.998039
0.999333 1 1 0.999333
1.00776 1.00968 1 0.998097
0.998869 1 1 0.998869
0.998901 1.00061 1 0.998287
1.00371 1.00566 1 0.998056
1.00934 1.01116 1 0.998198
0.999731 1 1 0.999731
0.999041 1 1 0.999041
0.999122 1 1 0.999122
0.998907 1 1 0.998907
0.998557 1 1 0.998557
1 1 1 1
0.999981 1 1 0.999981
0.99962 1 1 0.99962
0.998825 1 1 0.998825
0.999644 1.00146 1 0.99819
0.999313 1 1 0.999313
0.998737 1 1.00002 0.998719
0.998545 1 1 0.998545
0.998463 1 1 0.998463
1 1 1 1
0.999455 1 1 0.999455
0.999774 1 1 0.999774
0.999181 1 1 0.999181
1.00139 1.0033 1 0.998095
0.999 1.00063 1 0.998368
1.0051 1.00713 1 0.997985
0.999085 1 1.00019 0.998892
0.999436 1.00106 1 0.998376
0.999893 1 1.00145 0.998447
0.998865 1.00044 1 0.998423
1 1 1 1
0.99986 1 1 0.99986
0.999047 1 1 0.999047
0.999336 1 1 0.999336
0.999156 1 1.00021 0.998942
1.00721 1.00929 1 0.997932
1.00257 1.00442 1 0.998161
1.00811 1.01018 1 0.99795
1.00035 1 1.00177 0.998581
1.00026 1.00197 1 0.998285
0.999491 1.00044 1.00086 0.998195
0.99992 1 1 0.99992
0.999631 1 1 0.999631
0.99994 1 1 0.99994
0.999935 1 1 0.999935
1 1 1 1
1 1 1 1
1 1 1 1
1 1 1 1
1 1 1 1
0.999999 1 1 0.999999
1 1 1 1
0.999989 1 1 0.999989
1 1 1 1
0.999969 1 1 0.999969
1 1 1 1
0.998492 1 1 0.998492
0.99841 1 1 0.99841
1.00261 1.00459 1 0.998026
1.00311 1.0052 1 0.997926
0.998291 1 1 0.998291
0.999342 1 1 0.999342
0.998278 1 1 0.998278
1.00341 1.00555 1 0.997873
1.00276 1.00479 1 0.997984
1.01329 1.01545 1 0.997868
1.00232 1.00427 1 0.998055
1.01048 1.01258 1 0.99793
1.00325 1.0054 1 0.997859
1.01418 1.01639 1 0.997829
1.01229 1.01442 1 0.997899
1.01848 1.02059 1 0.997932
1.00889 1.01098 1 0.997937
1.0147 1.01667 1 0.998055
0.998264 1 1 0.998264
0.998526 1 1 0.998526
1.00257 1.00458 1 0.997994
1.00133 1.00323 1 0.9981
0.99991 1 1 0.99991
0.999256 1 1 0.999256
0.99869 1.00001 1 0.998678
0.999907 1.00167 1 0.998241
1.00727 1.00931 1 0.997981
1.00279 1.00468 1 0.998112
1.00058 1.00242 1 0.998166
1.00605 1.00796 1 0.998111
0.999396 1 1 0.999396
0.999135 1 1.00008 0.999058
0.999622 1 1 0.999622
1.00292 1.00501 1 0.997921
1.00227 1.00424 1 0.998037
1.01163 1.0138 1 0.997861
1.00904 1.01114 1 0.997922
0.999334 1 1 0.999334
0.998863 1 1 0.998863
0.999055 1.00069 1.00003 0.998332
1.00463 1.00659 1 0.998059
1.01185 1.01382 1 0.998059
1.00379 1.00578 1 0.99803
1.00774 1.00966 1 0.998099
1.00872 1.01052 1 0.998213
0.999044 1 1 0.999044
0.998932 1 1.00004 0.99889
0.999727 1 1 0.999727
0.999151 1 1.00001 0.99914
1.01248 1.0147 1 0.997811
1.0115 1.01363 1 0.997898
1.01815 1.02033 1 0.997866
1.01392 1.01595 1 0.998005
1.01042 1.01235 1 0.99809
1.01383 1.01571 1 0.998148
0.999003 1 1 0.999003
1.0099 1.01167 1 0.998256
0.998586 1 1 0.998586
1.00035 1.00211 1.00018 0.998067
1.00721 1.00926 1 0.997973
1.00955 1.01134 1 0.998232
0.999792 1 1 0.999792
0.999249 1 1 0.999249
0.998895 1 1 0.998895
0.999188 1 1.00026 0.998929
0.998852 1 1.00001 0.998846
1 1 1 1
1.00098 1.00289 1 0.998092
0.999779 1 1 0.999779
0.999455 1 1 0.999455
0.999178 1 1 0.999178
0.998787 1.00042 1 0.99837
1.00499 1.00702 1 0.997984
0.998969 1 1.00007 0.998895
0.999981 1 1.00155 0.998436
0.998957 1.00057 1 0.99839
0.9986 1.00011 1 0.998492
1 1 1 1
0.999866 1 1 0.999866
0.999048 1 1 0.999048
0.999337 1 1 0.999337
0.999091 1 1.00017 0.998923
1.00747 1.00956 1 0.997928
1.00206 1.00391 1 0.998162
1.00807 1.01014 1 0.997942
1.00042 1 1.00184 0.998585
1.0007 1.0024 1 0.9983
0.999736 1.00056 1.00096 0.998215
0.9999 1 1 0.9999
0.999471 1 1 0.999471
0.999247 1 1.00048 0.998772
0.99928 1 1.00021 0.999068
0.999371 1 1.00057 0.998799
1.01041 1.01249 1 0.997946
1.00419 1.00611 1 0.998096
1.00827 1.0102 1 0.99809
1.00213 1 1.00379 0.998348
1.00009 1.00202 1 0.998069
0.999923 1 1 0.999923
0.99957 1 1 0.99957
0.999613 1 1 0.999613
0.999438 1 1 0.999438
0.999638 1 1 0.999638
0.999942 1 1 0.999942
0.999941 1 1 0.999941
1 1 1 1
0.999937 1 1 0.999937
1 1 1 1
1 1 1 1
1 1 1 1
1 1 1 1
1 1 1 1
1 1 1 1
0.999997 1 1 0.999997
1 1 1 1
1 1 1 1
0.999986 1 1 0.999986
1 1 1 1
1.0022 1.00416 1 0.998053
1.00261 1.00464 1 0.997984
1.00994 1.01203 1 0.997929
1.01348 1.01565 1 0.997871
1.00347 1.00561 1 0.997873
0.998278 1 1 0.998278
1.00329 1.00544 1 0.99786
1.01418 1.01639 1 0.997822
1.0121 1.01423 1 0.997899
1.01821 1.0203 1 0.997947
1.00907 1.01116 1 0.997933
1.01487 1.01684 1 0.998064
1.01338 1.01562 1 0.997797
1.01888 1.02105 1 0.99788
1.01649 1.01851 1 0.998014
1.0177 1.01972 1 0.998015
1.01301 1.01502 1 0.998019
1.01626 1.01811 1 0.998177
1.00308 1.00521 1 0.997888
1.00222 1.00419 1 0.998036
1.01156 1.01374 1 0.997858
1.00955 1.01165 1 0.997928
0.999335 1 1 0.999335
0.998857 1 1 0.998857
0.999298 1.00074 1.00018 0.998377
1.00489 1.00684 1 0.998067
1.01125 1.0132 1 0.998079
1.0077 1.00961 1 0.998101
1.0039 1.00591 1 0.998005
1.00807 1.00986 1 0.998229
0.999047 1 1 0.999047
0.998891 1 1.00002 0.998872
0.999723 1 1 0.999723
0.999158 1 1 0.999158
1.01248 1.0147 1 0.997812
1.01144 1.01358 1 0.997892
1.01797 1.02013 1 0.997875
1.01333 1.01537 1 0.997997
0.999 1 1 0.999
0.998655 1 1.00003 0.998624
1.00066 1.00221 1.00039 0.998061
1.01008 1.01203 1 0.998074
1.01402 1.01586 1 0.998187
1.00697 1.00903 1 0.997963
1.00958 1.01134 1 0.998259
1.01028 1.01203 1 0.998266
0.998895 1 1 0.998895
0.998844 1 1 0.998844
0.99935 1 1.00043 0.998925
0.999763 1 1 0.999763
0.999264 1 1 0.999264
1.0191 1.0213 1 0.997852
1.01723 1.01936 1 0.997909
1.01473 1.01662 1 0.998134
1.01186 1.01365 1 0.998233
0.998836 1 1 0.998836
1.01129 1.01294 1 0.99837
0.998698 1 1.00029 0.998411
1.00298 1.00464 1.00051 0.997838
1.00859 1.01069 1 0.997925
0.999788 1 1 0.999788
0.999407 1 1 0.999407
0.999239 1 1.00018 0.999062
0.998857 1 1 0.998857
0.999759 1 1.00098 0.998779
0.998794 1 1 0.998794
1 1 1 1
0.999871 1 1 0.999871
1.00778 1.00988 1 0.997924
0.999337 1 1 0.999337
0.999048 1 1 0.999048
0.999052 1 1.00015 0.998904
1.00153 1.00337 1 0.998162
1.00795 1.01004 1 0.997935
1.00054 1 1.00195 0.998589
0.999671 1.00066 1.00077 0.998235
1.00111 1.0028 1 0.998316
0.999904 1 1 0.999904
0.999473 1 1 0.999473
0.999191 1 1.00041 0.998779
0.999247 1 1.00018 0.999066
0.999576 1 1.00079 0.998787
1.01051 1.01259 1 0.997942
1.00444 1.00636 1 0.998088
1.00817 1.01007 1 0.998111
1.00157 1 1.00324 0.998329
1.0001 1.00201 1.00006 0.99804
0.999555 1 1 0.999555
0.999169 1 1 0.999169
1.0006 1 1.00199 0.998608
0.99992 1 1.0011 0.998826
0.999498 1 1.00081 0.998686
1.01381 1.01558 1 0.998258
1.00435 1.00634 1 0.998014
1.00704 1.00892 1 0.998137
1.00299 1.00048 1.00433 0.998188
0.999175 1.00134 1 0.997837
0.999927 1 1 0.999927
0.999585 1 1 0.999585
0.99935 1 1 0.99935
0.999595 1 1 0.999595
0.999638 1 1 0.999638
0.999411 1 1 0.999411
0.999278 1 1 0.999278
0.999397 1 1 0.999397
0.999642 1 1 0.999642
0.999939 1 1 0.999939
0.999942 1 1 0.999942
1 1 1 1
0.999943 1 1 0.999943
1 1 1 1
1 1 1 1
1 1 1 1
1 1 1 1
1 1 1 1
1 1 1 1
1 1 1 1
1 1 1 1
0.999996 1 1 0.999996
1 1 1 1
1 1 1 1
1.00922 1.01131 1 0.997929
1.01192 1.01405 1 0.997899
1.01504 1.017 1 0.998072
1.01797 1.02004 1 0.997961
1.01415 1.01637 1 0.997815
1.00332 1.00548 1 0.99786
1.01346 1.0157 1 0.997789
1.01886 1.02103 1 0.997875
1.01661 1.01866 1 0.997997
1.01752 1.01953 1 0.998022
1.01243 1.01444 1 0.99802
1.01596 1.01778 1 0.998205
1.01845 1.02065 1 0.997844
1.01904 1.0211 1 0.997986
1.01817 1.0201 0.999975 0.998128
1.01515 1.0169 1 0.998277
1.01244 1.01466 1 0.997813
1.01136 1.0135 1 0.997885
1.01775 1.01991 1 0.997883
1.01273 1.01478 1 0.997989
0.998997 1 1 0.998997
0.998663 1 1 0.998663
1.00097 1.00234 1.00058 0.998056
1.00971 1.01167 1 0.998058
1.01421 1.01601 1 0.998226
1.00935 1.01111 1 0.998261
1.00669 1.00876 1 0.997952
1.01089 1.01261 1 0.9983
0.998895 1 1 0.998895
0.998842 1 1 0.998842
0.999561 1 1.00064 0.998921
0.999734 1 1 0.999734
0.99928 1 1 0.99928
1.01889 1.02108 1 0.997855
1.0172 1.01932 1 0.997915
1.0146 1.0165 1 0.998131
0.998831 1 1 0.998831
0.998723 1.00002 1.00026 0.998446
1.00291 1.00433 1.00076 0.99783
1.01221 1.01401 1 0.998223
1.00837 1.01041 1 0.997977
1.01075 1.01241 1 0.99836
0.999794 1 1 0.999794
0.998854 1 1 0.998854
0.998826 1 1 0.998826
0.999777 1 1.00101 0.998769
0.999186 1 1.00011 0.999071
0.999385 1 1 0.999385
1.0186 1.02074 1 0.997903
1.01799 1.02059 0.999414 0.998038
1.01414 1.01603 0.999919 0.99822
1.01522 1.01692 0.99995 0.99838
0.99873 1 1 0.99873
1.00871 1.01059 1 0.998139
0.999719 1.00001 1.00165 0.998065
1.0035 1.00476 1.00104 0.997707
0.999846 1 1 0.999846
0.999492 1 1 0.999492
0.999176 1 1 0.999176
0.999933 1 1.0011 0.998838
0.998782 1 1 0.998782
0.999037 1 1.00034 0.998697
0.999909 1 1 0.999909
0.999475 1 1 0.999475
1.01069 1.01277 1 0.997938
0.999189 1 1.00012 0.999065
0.999055 1 1.00027 0.998787
0.999873 1 1.0011 0.998774
1.00465 1.00659 1 0.998081
1.00817 1.01005 1 0.998132
1.00104 1 1.00273 0.998311
1.00022 1.00194 1.00027 0.99801
0.999557 1 1 0.999557
0.999179 1 1 0.999179
1.00061 1 1.00198 0.998626
1.00026 1 1.00143 0.99883
0.999145 1 1.00042 0.998721
1.01384 1.01559 1 0.998277
1.00418 1.00618 1 0.998013
1.00753 1.00933 1 0.998211
1.00301 1.00027 1.00458 0.998167
0.999535 1.00171 1.00003 0.9978
0.999295 1 1 0.999295
0.998938 1 1.00002 0.998914
1.00226 1 1.00378 0.998481
0.999755 1 1.00116 0.998595
1.01912 1.02183 0.998938 0.998411
1.01235 1.01413 0.999872 0.998372
1.00381 1.00598 1 0.997838
1.00267 1.00059 1.00426 0.997839
0.9996 1 1 0.9996
0.999362 1 1 0.999362
0.99922 1 1 0.99922
0.999638 1 1 0.999638
0.999385 1 1 0.999385
0.999642 1 1 0.999642
0.999259 1 1 0.999259
0.999407 1 1 0.999407
0.999152 1 1 0.999152
0.999249 1 1 0.999249
0.999394 1 1 0.999394
0.999635 1 1 0.999635
0.999935 1 1 0.999935
0.999939 1 1 0.999939
1 1 1 1
0.999942 1 1 0.999942
1 1 1 1
1 1 1 1
1 1 1 1
1 1 1 1
1 1 1 1
1 1 1 1
1 1 1 1
1 1 1 1
1 1 1 1
1 1 1 1
1 1 1 1
1.01186 1.01386 1 0.99802
1.01672 1.01878 1 0.99798
1.01564 1.01744 1 0.998232
1.01732 1.01933 1 0.998029
1.01884 1.02102 1 0.997871
1.01355 1.01581 1 0.99778
1.01832 1.02051 1 0.997849
1.01831 1.02037 1 0.997982
1.01792 1.01988 0.999949 0.998131
1.01637 1.01813 1 0.998275
1.01897 1.02107 1 0.997939
1.02133 1.02445 0.998804 0.99815
1.02078 1.02282 0.999738 0.998266
1.0187 1.02088 1 0.997859
1.01718 1.0193 1 0.997921
1.01444 1.01634 1 0.998128
0.998826 1 1 0.998826
0.99869 1.00003 1.00018 0.998482
1.00274 1.00408 1.00085 0.997821
1.01247 1.01428 1 0.998213
1.01039 1.01206 1 0.998349
1.00849 1.01048 1 0.99803
0.99885 1 1 0.99885
0.998858 1 1 0.998858
0.999734 1 1.00098 0.998759
0.9998 1 1 0.9998
0.999111 1 1.00003 0.99908
0.999363 1 1 0.999363
1.01924 1.02137 1 0.997907
1.01833 1.02072 0.999615 0.998043
1.01407 1.01595 0.999941 0.998209
0.998722 1 1 0.998722
0.999719 1.00019 1.0014 0.998135
1.0035 1.00488 1.0009 0.997724
1.0153 1.01701 0.999925 0.998393
1.00914 1.01103 1 0.99813
0.999874 1 1 0.999874
0.999492 1 1 0.999492
0.99879 1 1 0.99879
0.999149 1 1.00041 0.998739
0.999935 1 1.00109 0.998843
0.999158 1 1 0.999158
1.02166 1.02453 0.999132 0.998066
1.01546 1.02 0.997374 0.998167
1.01596 1.01839 0.99921 0.998401
1.01302 1.01461 1 0.99843
0.999438 1 1.00088 0.998555
1.00316 1.00402 1.0014 0.997745
1.00077 1.00024 1.00264 0.997889
0.999938 1 1 0.999938
0.999657 1 1 0.999657
0.999513 1 1 0.999513
0.999219 1 1 0.999219
0.999146 1 1.00019 0.998955
0.99946 1 1.00075 0.998711
0.998815 1 1 0.998815
1.00579 1 1.00696 0.998834
0.999558 1 1 0.999558
0.99919 1 1 0.99919
1.01375 1.01548 1 0.998296
1.00045 1 1.00162 0.998834
1.0008 1 1.00215 0.998644
0.998791 1 1.00004 0.998755
1.00398 1.00598 1 0.998013
1.008 1.00973 1 0.998285
1.00307 1.00012 1.00482 0.998147
0.999908 1.00215 1 0.997762
0.999283 1 1 0.999283
0.99909 1 1.00017 0.998923
1.00265 1 1.00415 0.998499
0.999518 1 1.0009 0.998617
1.01941 1.02207 0.998981 0.998414
1.01167 1.01339 0.999949 0.99835
1.00453 1.00667 1 0.997875
1.00223 1.00065 1.00377 0.997808
0.999124 1 1 0.999124
1.01846 1.0228 0.997358 0.99839
0.999803 1 1.00108 0.998719
1.00096 1 1.00268 0.998286
1.01713 1.01965 0.999027 0.998506
1.00616 1.00825 1 0.997929
1.00398 1.00308 1.00323 0.997674
0.999374 1 1 0.999374
0.999219 1 1 0.999219
0.999095 1 1 0.999095
0.999642 1 1 0.999642
0.999416 1 1 0.999416
0.999241 1 1 0.999241
0.999634 1 1 0.999634
0.999395 1 1 0.999395
0.999135 1 1 0.999135
0.999269 1 1 0.999269
0.999052 1 1 0.999052
0.999126 1 1 0.999126
0.999264 1 1 0.999264
0.999394 1 1 0.999394
0.999618 1 1 0.999618
0.999929 1 1 0.999929
0.999934 1 1 0.999934
1 1 1 1
0.999938 1 1 0.999938
1 1 1 1
1 1 1 1
1 1 1 1
1 1 1 1
1 1 1 1
0.999959 1 1 0.999959
1 1 1 1
1 1 1 1
1 1 1 1
1 1 1 1
1 1 1 1
1 1 1 1
1.0176 1.01936 1 0.998272
1.01769 1.01967 0.999925 0.998133
1.01758 1.01965 1 0.997977
1.01817 1.02036 1 0.997854
1.01903 1.02113 1 0.997952
1.02166 1.02472 0.998875 0.998138
1.02107 1.02318 0.99966 0.99828
1.0218 1.02562 0.998162 0.998119
1.02439 1.02835 0.99787 0.99827
1.01038 1.01995 0.992141 0.998461
1.01983 1.02197 1 0.997911
1.01867 1.02089 0.999783 0.998048
1.01406 1.01593 0.999957 0.998198
0.998769 1 1.00006 0.998713
0.999792 1.00033 1.00126 0.998205
1.00318 1.00467 1.00078 0.997742
1.01547 1.0172 0.999902 0.998406
1.009 1.0109 1 0.998121
0.998798 1 1 0.998798
0.999305 1 1.00053 0.99878
1.00007 1 1.00122 0.998848
0.999902 1 1 0.999902
0.999492 1 1 0.999492
0.99914 1 1 0.99914
1.02111 1.02409 0.999 0.998081
0.999934 1 1 0.999934
0.99964 1 1 0.99964
1.01562 1.0195 0.99803 0.998166
1.01682 1.01918 0.999317 0.998369
0.999448 1 1.00084 0.998609
1.00166 1.00052 1.0033 0.997855
1.00308 1.0045 1.00084 0.997751
1.0122 1.0138 1 0.998419
0.99956 1 1 0.99956
0.999217 1 1 0.999217
0.998767 1 1 0.998767
1.00313 1 1.00422 0.998914
0.999628 1 1.00094 0.998693
0.99914 1 1.00018 0.998962
1.02287 1.0271 0.997637 0.998237
1.01246 1.01957 0.994721 0.9983
1.01451 1.01819 0.997783 0.998597
1.00413 1.00609 0.999884 0.998165
1.00092 1 1.00234 0.998575
1.00402 1.00088 1.00547 0.997683
0.99966 1 1 0.99966
0.99961 1 1 0.99961
0.999429 1 1 0.999429
0.999222 1 1 0.999222
0.999053 1 1 0.999053
0.998988 1 1.00022 0.998763
1.00988 1 1.01126 0.998635
0.99988 1 1.00094 0.998943
0.999271 1 1 0.999271
0.999216 1 1.00028 0.998932
1.01979 1.02241 0.999025 0.998416
1.01119 1.01288 1 0.998327
0.999332 1 1.0007 0.998638
1.00292 1 1.00441 0.998517
1.00536 1.00743 1.00004 0.997913
1.00179 1.00067 1.00335 0.997776
0.999119 1 1 0.999119
1.01867 1.02373 0.996638 0.998412
0.999768 1 1.00104 0.998731
1.00095 1 1.00269 0.998263
1.01672 1.01923 0.999053 0.998482
1.00692 1.00897 1 0.997962
1.00371 1.00254 1.00348 0.997685
0.999549 1 1.00065 0.998898
1.01688 1.02451 0.993886 0.998659
0.999746 1 1.0012 0.998549
1.00225 1.00043 1.00379 0.998033
1.0083 1.01293 0.997225 0.998201
1.00184 1.00189 1.00221 0.997746
1.00542 1.00818 0.998499 0.998763
0.999217 1 1 0.999217
0.999094 1 1 0.999094
0.998985 1 1 0.998985
0.999633 1 1 0.999633
0.999396 1 1 0.999396
0.999289 1 1 0.999289
0.999118 1 1 0.999118
0.999618 1 1 0.999618
0.999384 1 1 0.999384
0.999041 1 1 0.999041
0.999263 1 1 0.999263
0.999142 1 1 0.999142
0.999031 1 1 0.999031
0.999157 1 1 0.999157
0.999262 1 1 0.999262
0.999343 1 1 0.999343
0.999567 1 1 0.999567
0.999425 1 1 0.999425
0.999568 1 1 0.999568
0.999925 1 1 0.999925
0.999929 1 1 0.999929
1 1 1 1
0.999933 1 1 0.999933
1 1 1 1
1 1 1 1
1 1 1 1
1 1 1 1
1 1 1 1
0.999972 1 1 0.999972
0.999956 1 1 0.999956
1 1 1 1
1 1 1 1
1 1 1 1
1 1 1 1
1 1 1 1
1 1 1 1
1.02134 1.02351 0.999586 0.998293
1.022 1.02501 0.998945 0.998126
1.01914 1.02122 1 0.997965
1.02163 1.02539 0.998213 0.998117
1.02321 1.02709 0.997949 0.998267
1.01113 1.0201 0.992746 0.998453
1.01939 1.02709 0.994156 0.998338
1.00559 1.01596 0.991542 0.998242
1.01345 1.02425 0.990642 0.998802
0.999726 1 1 0.999726
1.02059 1.02366 0.998899 0.998096
1.01583 1.01897 0.998744 0.998165
1.01745 1.01981 0.999343 0.998338
0.999483 1 1.00082 0.998664
1.00274 1.00091 1.00402 0.99782
1.00348 1.00528 1.00045 0.997757
1.01142 1.01304 1 0.998408
0.998721 1 1 0.998721
1.00038 1 1.00139 0.998997
0.999734 1 1.00106 0.998674
0.99993 1 1 0.99993
0.999092 1 1.00012 0.998969
0.999607 1 1 0.999607
0.999215 1 1 0.999215
0.999624 1 1 0.999624
1.02229 1.0278 0.996394 0.998244
0.999683 1 1 0.999683
0.999609 1 1 0.999609
0.999394 1 1 0.999394
1.01288 1.01962 0.995082 0.998303
1.01403 1.01749 0.998047 0.998551
1.00022 1 1.00163 0.998593
1.00372 1.00049 1.00555 0.997695
1.00393 1.00568 1.00009 0.998167
0.999246 1 1 0.999246
0.999037 1 1 0.999037
1.00159 1 1.00271 0.998886
1.00811 1 1.00945 0.99867
0.99894 1 1.00016 0.998783
1.01438 1.02235 0.993876 0.998318
1.01214 1.02191 0.992002 0.99842
1.00855 1.0118 0.998437 0.998351
1.00452 1.0033 1.00319 0.998027
1.00336 1 1.00481 0.998559
0.999391 1 1 0.999391
0.999298 1 1 0.999298
0.999203 1 1 0.999203
0.99905 1 1 0.99905
0.998893 1 1 0.998893
1.00686 1 1.0082 0.99867
1.01024 1 1.01167 0.99858
0.999114 1 1 0.999114
0.999698 1 1.00096 0.998742
1.01859 1.02457 0.995725 0.998434
1.01606 1.01864 0.999006 0.998458
1.0074 1.00942 1 0.997995
1.00091 1 1.00268 0.99824
1.00318 1.00189 1.0036 0.997695
0.999418 1 1.00049 0.998928
1.01617 1.02443 0.993266 0.998666
0.999611 1 1.00104 0.998569
1.00231 1.0002 1.00408 0.998044
1.00946 1.01341 0.997832 0.998262
1.00236 1.00194 1.00269 0.997733
1.00526 1.00841 0.998435 0.99844
0.999432 1 1.00065 0.998778
1.00467 1.0158 0.990384 0.998647
1.00047 1 1.00194 0.998525
1.00433 1 1.00636 0.997985
1.00336 1.00434 1.00104 0.997987
0.957885 0.976857 0.990909 0.989575
0.983584 0.98877 0.99959 0.995163
0.981029 1.00034 0.9818 0.998878
0.886826 0.9198 0.974624 0.989255
0.860213 0.9236 0.942384 0.988312
0.999092 1 1 0.999092
0.998998 1 1 0.998998
0.999004 1 1 0.999004
0.999617 1 1 0.999617
0.999375 1 1 0.999375
0.999263 1 1 0.999263
0.999159 1 1 0.999159
0.999029 1 1 0.999029
0.999244 1 1 0.999244
0.999586 1 1 0.999586
0.999356 1 1 0.999356
0.999036 1 1 0.999036
0.999156 1 1 0.999156
0.999164 1 1 0.999164
0.9991 1 1 0.9991
0.999198 1 1 0.999198
0.999317 1 1 0.999317
0.999561 1 1 0.999561
0.999375 1 1 0.999375
0.999273 1 1 0.999273
0.9994 1 1 0.9994
0.9994 1 1 0.9994
0.999612 1 1 0.999612
0.999567 1 1 0.999567
0.999922 1 1 0.999922
0.999925 1 1 0.999925
1 1 1 1
0.999928 1 1 0.999928
1 1 1 1
1 1 1 1
1 1 1 1
1 1 1 1
1 1 1 1
0.999977 1 1 0.999977
0.999969 1 1 0.999969
1 1 1 1
0.999953 1 1 0.999953
1 1 1 1
1 1 1 1
1 1 1 1
1 1 1 1
1 1 1 1
1.02209 1.02589 0.998035 0.998264
1.02142 1.02512 0.99827 0.998115
1.01185 1.02011 0.993447 0.998446
1.00569 1.01572 0.991832 0.998276
1.01854 1.02619 0.994193 0.998336
1.01678 1.02573 0.992531 0.99874
1.0215 1.02731 0.995994 0.998348
0.969169 0.984914 0.989551 0.994405
1.01143 1.01935 0.99364 0.998574
0.999736 1 1 0.999736
0.999725 1 1 0.999725
0.999467 1 1 0.999467
0.999496 1 1 0.999496
1.02166 1.02844 0.995152 0.998252
1.0132 1.01945 0.995557 0.998307
1.01374 1.01681 0.998466 0.998504
0.999381 1 1.00077 0.99861
1.00319 1.00013 1.00536 0.997707
1.00377 1.00548 1.00013 0.998169
1.00329 1 1.00447 0.998828
1.00643 1 1.00774 0.998705
0.998936 1 1.00013 0.998803
0.999608 1 1 0.999608
0.999021 1 1 0.999021
0.999271 1 1 0.999271
0.999706 1 1 0.999706
0.99936 1 1 0.99936
1.01264 1.02085 0.993613 0.998333
0.999428 1 1 0.999428
0.999321 1 1 0.999321
0.999212 1 1 0.999212
1.01417 1.02344 0.992496 0.998431
1.00737 1.01096 0.998103 0.998347
1.00324 1 1.0047 0.998552
1.00454 1.00374 1.00279 0.99802
0.999053 1 1 0.999052
0.998893 1 1 0.998893
1.01036 1 1.01179 0.99858
1.00779 1 1.00915 0.998649
1.0135 1.02485 0.990563 0.998355
1.00073 1.01775 0.984841 0.998413
1.00474 1.00597 1.00072 0.998066
1.00155 1 1.00306 0.998488
0.999132 1 1 0.999132
0.999098 1 1 0.999097
1.00096 1 1.00211 0.998849
1.0182 1 1.01979 0.998438
0.945648 0.972701 0.982855 0.989148
0.999467 1 1.00051 0.998958
0.999609 1 1.00102 0.998589
1.01529 1.0242 0.992617 0.998671
1.01072 1.01387 0.99857 0.998323
1.00313 1.00212 1.0033 0.997721
1.00251 1 1.00447 0.998054
1.00441 1.00832 0.998005 0.99811
0.999607 1 1.00081 0.998801
1.00376 1.01554 0.989752 0.998633
0.99997 1 1.00144 0.998535
1.00409 1.00001 1.00611 0.997987
1.00367 1.00552 1.00016 0.998009
0.955468 0.976902 0.988455 0.989483
0.978991 0.987265 0.997862 0.993743
0.982905 0.998828 0.985121 0.998922
0.890141 0.919706 0.978624 0.988995
0.845387 0.912179 0.938654 0.987348
0.999564 1 1.00067 0.998899
0.904181 0.932446 0.980523 0.988949
0.895663 0.92838 0.975388 0.989103
0.981387 1.00614 0.976776 0.99859
1.00493 1 1.00635 0.998588
1.01007 1.00175 1.01017 0.998154
0.981579 0.995332 0.987111 0.99906
0.959057 0.972703 0.996889 0.989048
0.969476 0.973936 1.00219 0.993246
0.869069 0.919682 0.955204 0.989282
0.898588 0.953358 0.952042 0.990031
0.99901 1 1 0.99901
0.998999 1 1 0.998999
0.999163 1 1 0.999163
0.999605 1 1 0.999605
0.999369 1 1 0.999369
0.999226 1 1 0.999226
0.999155 1 1 0.999155
0.999041 1 1 0.999041
0.999561 1 1 0.999561
0.999162 1 1 0.999162
0.999215 1 1 0.999215
0.999338 1 1 0.999338
0.999095 1 1 0.999095
0.999116 1 1 0.999116
0.99931 1 1.0002 0.999113
0.999189 1 1 0.999189
0.999351 1 1 0.999351
0.999374 1 1 0.999374
0.999258 1 1 0.999258
0.999229 1 1 0.999229
0.999251 1 1 0.999251
0.999192 1 1 0.999192
0.99914 1 1 0.99914
0.99938 1 1 0.99938
0.9994 1 1 0.9994
0.999615 1 1 0.999615
0.999374 1 1 0.999374
0.999596 1 1 0.999596
0.999921 1 1 0.999921
0.999565 1 1 0.999565
0.999922 1 1 0.999922
1 1 1 1
0.999924 1 1 0.999924
1 1 1 1
1 1 1 1
1 1 1 1
1 1 1 1
1 1 1 1
0.999724 1 1 0.999724
0.999978 1 1 0.999978
0.999976 1 1 0.999976
1 1 1 1
0.999967 1 1 0.999967
1 1 1 1
1 1 1 1
1 1 1 1
1 1 1 1
1 1 1 1
1.00687 1.01579 0.992893 0.998312
1.01789 1.02545 0.994282 0.998335
1.01998 1.02744 0.99405 0.998679
0.970339 0.98312 0.991792 0.995168
1.01159 1.01907 0.994019 0.998638
1.02289 1.0294 0.99534 0.998323
1.01717 1.02329 0.995621 0.998395
0.975418 0.985666 0.993986 0.995591
0.957468 0.976423 0.99211 0.988385
0.867586 0.911433 0.963296 0.988161
0.845638 0.903333 0.947453 0.988051
0.999457 1 1 0.999457
0.999735 1 1 0.999735
0.999724 1 1 0.999724
0.999456 1 1 0.999456
0.999291 1 1 0.999291
0.999329 1 1 0.999329
0.999464 1 1 0.999464
0.999478 1 1 0.999478
1.01103 1.01961 0.993231 0.998348
1.01645 1.02559 0.992629 0.99844
1.00619 1.01012 0.997765 0.998343
1.00341 1 1.00487 0.998546
1.00461 1.00388 1.00272 0.998013
1.01029 1 1.01173 0.998581
1.00889 1 1.01027 0.998628
0.998893 1 1 0.998893
0.999343 1 1 0.999343
0.999054 1 1 0.999054
0.999464 1 1 0.999464
0.999221 1 1 0.999221
1.01404 1.02517 0.990788 0.998334
0.999153 1 1 0.999153
0.999105 1 1 0.999105
1.00212 1.01673 0.987219 0.998395
1.00435 1.00634 0.999867 0.998156
1.00342 1.0002 1.00478 0.998437
1.00209 1 1.00327 0.998828
1.01613 1 1.01771 0.998444
1.01293 1.02311 0.991725 0.998308
0.984201 1.00506 0.9808 0.998412
0.999411 1 1.00103 0.998381
1.00729 1 1.0088 0.998506
0.999021 1 1 0.999021
1.00033 1 1.00142 0.998909
1.01302 1 1.01441 0.998627
0.892792 0.934706 0.965507 0.989281
0.953547 0.97404 0.988781 0.990068
0.999528 1 1.0007 0.998824
0.99961 1 1.00107 0.998545
1.00387 1.01571 0.989709 0.99862
1.00406 1.00687 0.999175 0.99803
1.00369 1 1.00571 0.997989
0.95569 0.975975 0.990761 0.988347
0.980731 0.989887 0.996274 0.994456
0.985418 0.997922 0.988495 0.998964
0.884217 0.920503 0.971478 0.988782
0.831145 0.900021 0.936227 0.986377
0.999302 1 1.0004 0.9989
0.897822 0.935439 0.970125 0.989343
0.893231 0.92438 0.977309 0.988739
0.983979 1.00693 0.978599 0.998579
1.00454 1 1.00594 0.998607
1.00925 1.0009 1.01012 0.998245
0.974175 0.991863 0.983045 0.999107
0.962211 0.977054 0.99645 0.988316
0.972053 0.977805 0.9995 0.994615
0.870969 0.91492 0.963356 0.988171
0.897766 0.953767 0.951197 0.989579
1.0011 1 1.00205 0.999053
0.916407 0.933099 0.991667 0.990364
0.969716 0.977475 0.998692 0.993362
0.988418 1.00082 0.988614 0.998981
1.01112 1.00058 1.01158 0.998969
0.994952 0.987946 1.0077 0.999395
0.960993 0.971071 0.993881 0.995715
0.956656 0.964367 1.00375 0.988295
0.891419 0.936052 0.963568 0.988325
0.924291 0.971612 0.959286 0.991671
0.998994 1 1 0.998994
0.999142 1 1 0.999142
0.999743 1 1.00042 0.999322
0.999561 1 1 0.999561
0.999358 1 1 0.999358
0.999233 1 1 0.999233
0.99916 1 1 0.99916
0.99909 1 1 0.99909
0.99935 1 1 0.99935
0.999126 1 1 0.999126
0.999188 1 1 0.999188
0.999373 1 1.00024 0.999129
0.999814 1 1.00055 0.99926
0.999194 1 1.00009 0.999108
0.999191 1 1 0.999191
0.999373 1 1 0.999373
0.999243 1 1 0.999243
0.999229 1 1 0.999229
0.999249 1 1 0.999249
0.999193 1 1 0.999193
0.999213 1 1 0.999213
0.999168 1 1 0.999168
0.99917 1 1 0.99917
0.998987 1 1 0.998987
0.999451 1 1.0007 0.998756
0.999036 1 1 0.999036
0.999137 1 1 0.999137
0.999336 1 1 0.999336
0.999379 1 1 0.999379
0.999608 1 1 0.999608
0.999399 1 1 0.999399
0.999615 1 1 0.999615
0.999921 1 1 0.999921
0.99958 1 1 0.99958
0.999921 1 1 0.999921
1 1 1 1
0.999922 1 1 0.999922
1 1 1 1
1 1 1 1
1 1 1 1
1 1 1 1
1 1 1 1
0.999742 1 1 0.999742
0.999973 1 1 0.999973
0.999724 1 1 0.999724
1 1 1 1
0.999978 1 1 0.999978
0.999975 1 1 0.999975
1 1 1 1
1 1 1 1
1 1 1 1
1 1 1 1
1 1 1 1
0.894537 0.927442 0.97495 0.989303
0.901084 0.929405 0.979661 0.989656
0.972612 0.985009 0.991716 0.995662
1.01258 1.01871 0.995277 0.998701
1.02428 1.03119 0.99499 0.998298
0.972759 0.982399 0.993405 0.996761
1.01741 1.02306 0.996051 0.998422
0.959807 0.978221 0.991464 0.989623
0.881576 0.91719 0.971848 0.989012
0.835982 0.900476 0.940543 0.987067
0.993997 0.999655 0.996656 0.997676
0.958784 0.972469 0.996449 0.989441
0.862298 0.915073 0.952771 0.989039
0.896344 0.948039 0.955911 0.989079
0.999229 1 1 0.999229
0.999473 1 1 0.999473
0.999735 1 1 0.999735
0.999445 1 1 0.999445
0.999313 1 1 0.999313
0.999258 1 1 0.999258
0.999328 1 1 0.999328
0.999366 1 1 0.999366
0.999444 1 1 0.999444
0.999461 1 1 0.999461
1.01415 1.02516 0.990932 0.998314
1.00257 1.01485 0.989499 0.998378
1.00402 1.00679 0.998995 0.998246
1.00502 1.00045 1.00619 0.998386
1.01341 1 1.01499 0.998449
1.0031 1 1.0043 0.998808
0.999113 1 1 0.999113
0.999173 1 1 0.999173
1.01104 1.02323 0.989761 0.998302
0.999013 1 1 0.999013
1.00026 1 1.00137 0.998886
0.985678 1.00443 0.982949 0.99835
0.999751 1 1.00127 0.998484
1.00737 1 1.00896 0.998427
1.0113 1 1.01271 0.998607
1.00139 1.00685 0.996003 0.99857
0.98995 1 0.991028 0.998912
1.01165 1 1.01309 0.998583
0.999002 1 1 0.999002
0.999353 1 1.00049 0.998866
1.00594 1 1.00723 0.99871
0.91929 0.937378 0.989129 0.991481
0.900138 0.93447 0.974113 0.988858
0.950324 0.975986 0.984402 0.989135
0.998901 1 1 0.998901
1.00415 1 1.00553 0.998625
0.986757 1.00748 0.980837 0.998568
1.00856 1 1.01024 0.998335
0.893695 0.932421 0.969379 0.988743
0.960678 0.974753 0.995619 0.989897
0.969723 0.978711 0.997488 0.993311
0.970976 0.989099 0.982505 0.999158
0.873678 0.915507 0.965084 0.988837
0.895151 0.928002 0.975719 0.988604
0.891941 0.950875 0.948076 0.989394
1.00164 1 1.00258 0.999056
0.916783 0.935986 0.98878 0.990598
0.972618 0.979584 0.999562 0.993324
0.990543 1.00035 0.991155 0.999032
1.01078 1.00013 1.01171 0.998956
0.994304 0.988886 1.00636 0.999129
0.961898 0.970909 0.99666 0.994039
0.957183 0.968428 0.999752 0.988633
0.896202 0.94211 0.961528 0.989332
0.916152 0.964648 0.957881 0.991488
1.00216 0.999757 1.00292 0.999487
0.971814 0.979209 0.997491 0.994944
0.966625 0.973218 0.99765 0.995565
1.00886 0.996015 1.01318 0.999715
0.977896 0.975621 1.00483 0.997514
0.962569 0.965632 1.00883 0.988099
0.929621 0.959001 0.979549 0.989603
0.931861 0.980881 0.958515 0.991142
0.999121 1 1 0.999121
0.999679 1 1.00036 0.999324
1.00192 1 1.00247 0.99945
0.99935 1 1 0.99935
0.999188 1 1 0.999188
0.999136 1 1 0.999136
0.999426 1 1.00028 0.999144
0.999191 1 1 0.999191
0.999136 1 1.00003 0.999106
1.001 1 1.00171 0.999289
1.00199 0.998775 1.00378 0.999446
1.00074 1 1.00154 0.999205
0.999128 1 1 0.999128
0.999228 1 1 0.999228
0.999247 1 1 0.999247
0.999194 1 1 0.999194
0.999171 1 1 0.999171
0.999212 1 1 0.999212
0.999174 1 1 0.999174
0.999115 1 1 0.999115
0.999212 1 1 0.999212
0.998994 1 1 0.998994
0.999004 1 1 0.999004
0.99952 1 1.00069 0.998826
0.999786 1 1.0013 0.998489
0.998985 1 1.00001 0.998974
0.999396 1 1.00058 0.998821
0.999063 1 1 0.999063
0.999231 1 1 0.999231
0.999135 1 1 0.999135
0.999334 1 1 0.999334
0.999582 1 1 0.999582
0.999377 1 1 0.999377
0.999607 1 1 0.999607
0.999919 1 1 0.999919
0.999615 1 1 0.999615
0.99992 1 1 0.99992
1 1 1 1
0.999921 1 1 0.999921
1 1 1 1
1 1 1 1
1 1 1 1
1 1 1 1
1 1 1 1
0.999653 1 1 0.999653
0.999966 1 1 0.999966
0.999703 1 1 0.999703
1 1 1 1
0.999974 1 1 0.999974
0.999724 1 1 0.999724
1 1 1 1
1 1 1 1
0.999978 1 1 0.999978
1 1 1 1
1 1 1 1
1 1 1 1
0.92186 0.937654 0.991818 0.991266
0.896368 0.93101 0.973685 0.988811
0.971311 0.981161 0.99673 0.993209
0.892063 0.922906 0.977112 0.989223
0.969171 0.982173 0.991569 0.995152
1.0167 1.02293 0.995455 0.998448
0.961178 0.97881 0.991052 0.990853
0.882777 0.921089 0.969706 0.988347
0.828213 0.899124 0.934134 0.986082
0.990307 0.998117 0.99509 0.997071
0.960583 0.973644 0.998146 0.988419
0.869571 0.919956 0.956794 0.987914
0.89361 0.947417 0.954016 0.98867
0.98221 0.990533 0.994974 0.996606
0.966228 0.96887 1.00937 0.988019
0.89608 0.943729 0.960004 0.989069
0.921834 0.97221 0.956959 0.990831
0.999107 1 1 0.999107
0.999252 1 1 0.999252
0.999488 1 1 0.999488
0.999334 1 1 0.999334
0.999133 1 1 0.999133
0.999274 1 1 0.999274
0.999328 1 1 0.999328
0.999345 1 1 0.999345
0.999388 1 1 0.999388
0.999423 1 1 0.999423
1.00944 1.0239 0.987553 0.998297
0.988202 1.00424 0.98572 0.998288
1.00009 1 1.00151 0.998587
1.00823 1 1.0099 0.99835
1.0102 1 1.01163 0.998588
1.0001 1 1.00124 0.998863
0.999005 1 1 0.999005
0.999004 1 1 0.999004
0.995842 1.00641 0.990902 0.998587
0.999119 1 1.00024 0.998878
1.00627 1 1.00757 0.998706
0.988544 1 0.989686 0.998847
1.01028 1 1.01173 0.99857
0.972 0.994822 0.977992 0.999045
1.00663 0.999967 1.00738 0.999284
1.00703 1 1.00827 0.998765
0.998916 1 1.00002 0.998901
1.00453 1 1.00583 0.998709
0.969277 0.975599 0.997754 0.995756
0.922985 0.937448 0.992869 0.991643
0.895447 0.931805 0.971125 0.989555
1.0022 1 1.00314 0.999059
1.01021 0.99953 1.01176 0.998941
0.990938 1 0.99185 0.999081
0.925408 0.940475 0.992763 0.991152
0.965445 0.968462 1.00897 0.98802
0.964232 0.972034 0.996736 0.995223
0.986563 0.987385 1.00033 0.998836
0.896445 0.940679 0.964235 0.988325
0.974829 0.980922 1.0005 0.993288
0.91242 0.961936 0.9566 0.991558
1.00204 0.999626 1.00294 0.999475
0.970722 0.977726 0.997413 0.995412
0.970419 0.976287 0.998406 0.995576
1.00977 0.997202 1.01304 0.999574
0.977358 0.975672 1.00467 0.997068
0.961401 0.967556 1.00613 0.987583
0.932012 0.983464 0.955597 0.991719
0.919328 0.953137 0.975157 0.989101
1.00432 0.997562 1.00706 0.999711
0.965039 0.97372 0.993031 0.998041
0.976579 0.985505 0.994935 0.995987
0.924426 0.973744 0.958119 0.990851
0.996375 0.982391 1.01494 0.999302
0.975068 0.97279 1.01391 0.988594
0.914461 0.939446 0.983719 0.989515
0.999593 1 1.00027 0.999326
1.00126 1 1.00185 0.999407
1.00504 0.998924 1.00656 0.999566
0.99919 1 1 0.99919
0.999103 1 1 0.999103
1.00269 1 1.00337 0.999318
0.999134 1 1 0.999134
1.00107 1 1.00186 0.999208
1.0036 0.999264 1.00492 0.999421
1.00184 0.999937 1.00241 0.999489
1.00079 1 1.00159 0.999201
0.999175 1 1 0.999175
0.99921 1 1 0.99921
0.999178 1 1 0.999178
0.999205 1 1 0.999205
0.999124 1 1 0.999124
0.999488 1 1.00032 0.999169
0.999062 1 1 0.999062
1.00121 1 1.00258 0.998626
0.999021 1 1 0.999021
0.99937 1 1.00056 0.998807
0.999352 1 1.00101 0.998341
0.999626 1 1.00118 0.99845
0.999448 1 1.0006 0.998846
0.999649 1 1.00115 0.998503
0.999148 1 1 0.999148
0.99899 1 1.00004 0.99895
0.999301 1 1.00042 0.998886
0.99909 1 1 0.99909
0.999255 1 1 0.999255
0.999533 1 1 0.999533
0.999333 1 1 0.999333
0.999581 1 1 0.999581
0.999913 1 1 0.999913
0.999606 1 1 0.999606
0.999918 1 1 0.999918
1 1 1 1
0.99992 1 1 0.99992
1 1 1 1
1 1 1 1
1 1 1 1
1 1 1 1
1 1 1 1
0.999537 1 1 0.999537
0.999896 1 1 0.999896
0.999651 1 1 0.999651
1 1 1 1
0.999943 1 1 0.999943
0.999663 1 1 0.999663
1 1 1 1
1 1 1 1
0.999976 1 1 0.999976
1 1 1 1
1 1 1 1
1 1 1 1
0.968525 0.976359 0.996549 0.995411
0.912101 0.935804 0.983596 0.990926
0.897619 0.928807 0.977563 0.988603
0.999277 1 1 0.999277
0.963597 0.971096 0.996247 0.996016
0.973944 0.981562 0.999053 0.99318
0.885647 0.922461 0.97074 0.989031
0.989823 0.998423 0.994994 0.996374
0.965455 0.975321 1.00062 0.989266
0.875378 0.928286 0.9539 0.988579
0.886977 0.942964 0.951531 0.98854
0.98394 0.992255 0.996764 0.994839
0.955721 0.964061 1.00271 0.988673
0.903226 0.945832 0.96577 0.9888
0.920452 0.970462 0.957535 0.99053
0.970425 0.978272 0.998393 0.993576
0.967925 0.963108 1.01818 0.987055
0.918923 0.954991 0.973169 0.988762
0.928431 0.97883 0.956994 0.991136
0.998992 1 1 0.998992
0.999093 1 1 0.999093
0.999275 1 1 0.999275
0.999131 1 1 0.999131
0.99916 1 1 0.99916
0.999289 1 1 0.999289
0.99935 1 1 0.99935
0.99941 1 1 0.99941
0.990143 1.00569 0.985925 0.9986
0.986578 1 0.987781 0.998782
0.999006 1 1 0.999006
1.00847 1 1.00992 0.998557
1.00635 1 1.00766 0.998701
0.999149 1 1.00026 0.998889
0.998972 1 1.00007 0.998906
0.977523 0.997151 0.981238 0.99906
1.00447 1 1.00574 0.998736
1.00657 1 1.00781 0.998766
1.00082 0.999941 1.00157 0.999305
0.999056 1 1.00012 0.998937
0.969997 0.988599 0.981747 0.999426
1.01144 0.998437 1.01358 0.999454
1.00635 1 1.00752 0.998842
1.00068 1 1.00182 0.998858
0.971828 0.975191 0.998162 0.998386
0.968904 0.974902 0.998012 0.995826
0.926996 0.937924 0.996509 0.991811
1.00184 0.999578 1.0028 0.999465
1.01168 0.998417 1.01386 0.999436
0.969901 0.976657 0.997193 0.995879
0.969818 0.966495 1.01515 0.988463
0.974113 0.972849 1.0062 0.995124
0.923597 0.955929 0.977535 0.988381
0.97337 0.978459 0.999208 0.995588
0.933734 0.987348 0.953044 0.992293
1.00455 0.997838 1.00705 0.999678
0.964273 0.973096 0.992865 0.998055
0.975837 0.983605 0.99552 0.996567
1.00531 0.989515 1.01607 0.999897
0.922344 0.972329 0.957657 0.990535
0.968647 0.968046 1.01242 0.988345
0.924198 0.953371 0.98069 0.988488
1.00791 0.995102 1.0131 0.999771
0.974631 0.984103 0.991853 0.99851
0.9645 0.972619 0.995598 0.996037
0.897293 0.950741 0.954157 0.989128
0.91893 0.95719 0.97114 0.988558
0.981478 0.977131 1.00538 0.999079
0.976473 0.96564 1.02443 0.987099
1.00042 1 1.00105 0.999364
1.00452 0.99861 1.00637 0.99955
1.00374 0.990449 1.01384 0.999582
0.99914 1 1 0.99914
1.00076 1 1.00155 0.999211
1.00453 1 1.00513 0.999396
0.999858 1 1.00066 0.999195
1.00164 0.99967 1.00248 0.999488
1.00614 0.99883 1.00801 0.999308
0.999198 1 1 0.999198
0.999133 1 1 0.999133
1.0001 1 1.00096 0.99914
1.00652 1 1.00777 0.998759
0.999131 1 1 0.999131
1.00067 1 1.00198 0.998696
1.00234 1 1.00413 0.998224
0.999903 1 1.00188 0.99803
0.999192 1 1.0004 0.998788
0.999384 1 1.00109 0.998291
0.999062 1 1.00053 0.998538
1.00038 1 1.00167 0.998713
0.999584 1 1.00109 0.998492
0.999192 1 1.00014 0.999052
0.999406 1 1.00057 0.998841
0.999574 1 1.00106 0.998518
0.999452 1 1 0.999452
0.99914 1 1 0.99914
0.998995 1 1.00007 0.998926
0.999279 1 1 0.999279
0.999532 1 1 0.999532
0.999897 1 1 0.999897
0.99958 1 1 0.99958
0.99991 1 1 0.99991
1 1 1 1
0.999917 1 1 0.999917
1 1 1 1
1 1 1 1
1 1 1 1
1 1 1 1
1 1 1 1
0.999492 1 1 0.999492
0.999852 1 1 0.999852
0.99956 1 1 0.99956
1 1 1 1
0.999893 1 1 0.999893
0.99965 1 1 0.99965
1 1 1 1
1 1 1 1
0.999919 1 1 0.999919
1 1 1 1
1 1 1 1
1 1 1 1
0.963971 0.971938 0.993747 0.998044
0.968839 0.976546 0.996677 0.995416
0.912375 0.936813 0.982776 0.990983
0.999288 1 1 0.999288
0.999251 1 1 0.999251
0.99916 1 1 0.99916
0.975807 0.98446 0.99522 0.99597
0.965443 0.97174 0.997473 0.996036
0.976321 0.981896 1.00118 0.99315
0.989379 0.992017 1.00116 0.996189
0.957896 0.965495 1.00411 0.988071
0.895408 0.938056 0.965763 0.988375
0.924629 0.974097 0.958331 0.990489
0.967952 0.974516 0.998147 0.995109
0.962541 0.963004 1.01158 0.988074
0.914986 0.946304 0.976801 0.989869
0.9297 0.981856 0.954796 0.991709
0.957228 0.967354 0.995149 0.994355
0.978341 0.97029 1.02026 0.988277
0.914157 0.93774 0.985095 0.989602
0.923338 0.970372 0.959578 0.991614
0.998987 1 1 0.998987
0.99899 1 1 0.99899
0.99908 1 1 0.99908
0.999127 1 1 0.999127
0.999188 1 1 0.999188
0.999356 1 1 0.999356
0.984019 0.999565 0.985362 0.999072
0.995783 1 0.996457 0.999324
0.998912 1 1 0.998912
1.00706 1 1.00831 0.998766
1.00483 1 1.00608 0.998763
0.999011 1 1.00009 0.998919
1.00066 1 1.0018 0.998866
0.981625 0.992253 0.989854 0.999429
1.00799 1 1.00908 0.998919
1.0066 0.994976 1.01221 0.99948
0.999109 1 1.00013 0.998977
0.997795 0.983094 1.01528 0.999676
0.994231 0.991092 1.00361 0.999554
1.00498 1 1.00595 0.99904
0.985746 0.987794 0.998977 0.998948
0.970786 0.974749 0.997388 0.998543
0.968977 0.974088 0.998853 0.995895
1.00519 0.998454 1.0071 0.999644
1.00067 0.991577 1.00955 0.999616
0.963482 0.972469 0.992675 0.998068
0.97263 0.966099 1.01556 0.991335
0.926439 0.950784 0.984444 0.989792
0.974974 0.981863 0.995824 0.997148
0.926311 0.975468 0.958701 0.990514
1.007 0.995038 1.01224 0.999788
0.973408 0.98382 0.990754 0.99865
0.96676 0.973394 0.997116 0.996057
0.980156 0.973417 1.01012 0.996837
0.893528 0.94891 0.952359 0.988741
0.913176 0.95004 0.971231 0.98967
0.986702 0.971678 1.02761 0.988179
1.00527 0.979543 1.02647 0.999801
0.964952 0.972893 0.993752 0.998074
0.97242 0.982787 0.996147 0.993278
0.844519 0.902888 0.946528 0.988194
0.898223 0.945817 0.960142 0.989104
0.977922 0.971748 1.01845 0.988122
0.955063 0.967996 0.990819 0.995782
1.00417 0.99805 1.00661 0.999534
1.00737 0.9933 1.01458 0.999586
1.01895 0.998527 1.02093 0.999529
0.999189 1 1 0.999189
1.00181 0.999195 1.00313 0.999487
1.00658 0.999416 1.00782 0.999355
1.01684 1 1.01788 0.998971
1.00067 1 1.00156 0.999111
1.00674 1 1.00806 0.998683
1.01349 1 1.0154 0.998118
1.00021 1 1.00145 0.998766
1.00319 1 1.005 0.998203
1.00315 1.00011 1.00528 0.997762
1.00069 1.0011 1.00191 0.99768
0.999373 1 1.00108 0.998297
1.0001 1.00021 1.00189 0.998001
0.999465 1 1.00123 0.998241
0.999772 1 1.00109 0.998686
0.999085 1 1.00048 0.998606
1.00016 1 1.00129 0.998874
1.00044 1 1.0017 0.998741
0.999499 1 1.00097 0.998534
0.999326 1 1 0.999326
0.99919 1 1.00014 0.999054
0.999372 1 1.00054 0.998836
0.999861 1 1 0.999861
0.99945 1 1 0.99945
0.999133 1 1 0.999133
0.99953 1 1 0.99953
0.999893 1 1 0.999893
1 1 1 1
0.999908 1 1 0.999908
1 1 1 1
1 1 1 1
1 1 1 1
1 1 1 1
1 1 1 1
0.99949 1 1 0.99949
0.999869 1 1 0.999869
0.999507 1 1 0.999507
1 1 1 1
0.999878 1 1 0.999878
0.999582 1 1 0.999582
1 1 1 1
1 1 1 1
0.99989 1 1 0.99989
1 1 1 1
1 1 1 1
1 1 1 1
0.974011 0.983726 0.991613 0.9985
0.964386 0.972892 0.993184 0.99806
0.968792 0.976669 0.996492 0.995426
0.999234 1 1 0.999234
0.999133 1 1 0.999133
0.999299 1 1 0.999299
0.999249 1 1 0.999249
0.999143 1 1 0.999143
0.999152 1 1 0.999152
0.999065 1 1 0.999065
0.965874 0.97293 0.997206 0.995529
0.974065 0.982023 0.995326 0.996553
0.967695 0.97232 0.999184 0.996056
0.93313 0.986421 0.953332 0.992282
0.959005 0.967242 0.997751 0.993719
0.968502 0.966181 1.01336 0.989188
0.919283 0.94439 0.984608 0.988631
0.955668 0.967349 0.994168 0.993721
0.967852 0.964415 1.01597 0.987791
0.925932 0.954419 0.981118 0.988824
0.915776 0.964283 0.957907 0.991428
0.952319 0.966035 0.990512 0.995245
0.969761 0.968261 1.01422 0.987504
0.932069 0.960856 0.980168 0.989668
0.896381 0.95189 0.951293 0.9899
0.999047 1 1 0.999047
0.998986 1 1 0.998986
0.998988 1 1 0.998988
0.999124 1 1 0.999124
0.991014 0.995463 0.996095 0.999433
1.00115 0.991905 1.00982 0.999505
0.9989 1 1 0.9989
1.00034 1 1.00147 0.998874
1.00818 1 1.00919 0.998995
0.999017 1 1.00004 0.998972
1.00573 1 1.00671 0.999026
0.993718 0.981475 1.01326 0.999224
0.995318 0.992268 1.00343 0.999649
1.00161 1 1.00251 0.999105
0.999375 0.978967 1.02167 0.999197
1.00678 0.995988 1.01152 0.999331
0.971904 0.975321 0.99808 0.998414
0.982126 0.985635 0.997365 0.999072
0.970437 0.974452 0.997176 0.9987
1.00606 0.994839 1.01148 0.999805
0.982072 0.973972 1.00921 0.999111
0.972235 0.983452 0.989792 0.99879
0.975392 0.966466 1.02219 0.987325
0.917492 0.94725 0.979945 0.988406
0.969468 0.974145 0.999119 0.996077
0.887217 0.94359 0.951088 0.988612
1.01027 0.982167 1.0288 0.999825
0.96467 0.97334 0.992989 0.998089
0.975157 0.983183 0.998579 0.993247
0.958281 0.969398 0.990796 0.997715
0.836501 0.900849 0.940596 0.987214
0.901309 0.945308 0.964296 0.988759
0.977322 0.968459 1.02114 0.988255
0.998348 0.982576 1.01664 0.999417
0.969127 0.977137 0.996303 0.995482
0.902189 0.930441 0.979629 0.989799
0.864526 0.915347 0.954783 0.989208
0.965308 0.962213 1.01505 0.988341
0.945558 0.96506 0.985379 0.99433
1.01141 0.996892 1.01497 0.99959
1.01893 0.996881 1.0226 0.999522
1.01337 1 1.014 0.999379
1.00694 0.999994 1.00755 0.999402
1.01648 0.999605 1.01787 0.99903
1.01005 1.00018 1.01154 0.99835
1.00711 1 1.00852 0.998607
1.01282 1 1.01477 0.998073
1.00682 1.00017 1.00898 0.997699
1.00402 1 1.00585 0.998183
1.00333 1.00005 1.00558 0.997717
1.00292 1.00184 1.00353 0.997549
1.00162 1.00395 1 0.997679
1.00023 1.00161 1.00077 0.997862
1.00104 1.00124 1.00218 0.997631
0.998623 1 1.00013 0.998497
0.99908 1 1.00074 0.998338
1.00027 1.00041 1.0019 0.997973
0.999819 1 1.0011 0.99872
0.999759 1 1.00108 0.998679
0.999099 1 1.00043 0.998673
0.999172 1 1.00002 0.999148
1.00004 1 1.00114 0.998902
1.00049 1 1.00172 0.998769
0.999771 1 1 0.999771
0.999326 1 1 0.999326
0.999182 1 1.00013 0.999056
1 1 1 1
0.999856 1 1 0.999856
0.999449 1 1 0.999449
0.999889 1 1 0.999889
1 1 1 1
1 1 1 1
1 1 1 1
1 1 1 1
1 1 1 1
0.999229 1 1 0.999229
0.999453 1 1 0.999453
0.999839 1 1 0.999839
0.999489 1 1 0.999489
1 1 1 1
0.999872 1 1 0.999872
0.999522 1 1 0.999522
1 1 1 1
1 1 1 1
0.999905 1 1 0.999905
1 1 1 1
1 1 1 1
1 1 1 1
0.964043 0.973311 0.992414 0.998049
0.97302 0.983556 0.990634 0.998641
0.96371 0.973856 0.991491 0.998075
0.999242 1 1 0.999242
0.99912 1 1 0.99912
0.999058 1 1 0.999058
0.999122 1 1 0.999122
0.999044 1 1 0.999044
0.999247 1 1 0.999247
0.999127 1 1 0.999127
0.999152 1 1 0.999152
0.999061 1 1 0.999061
0.999101 1 1 0.999101
0.968089 0.976032 0.998577 0.993275
0.968997 0.975448 0.997831 0.995546
0.971819 0.979543 0.994965 0.997135
0.912777 0.96227 0.956691 0.991509
0.925373 0.948775 0.985269 0.989916
0.947746 0.962275 0.991896 0.992949
0.975344 0.971894 1.01561 0.988123
0.953967 0.967158 0.992799 0.993515
0.981605 0.976192 1.01772 0.988041
0.920882 0.954199 0.975494 0.989328
0.896968 0.953173 0.951095 0.989422
0.972568 0.974305 1.00373 0.99451
0.970882 0.97003 1.01261 0.988418
0.888934 0.935511 0.961539 0.988221
0.860036 0.923408 0.942654 0.988032
0.999331 1 1 0.999331
0.999086 1 1.00004 0.999049
0.999013 1 1.00003 0.998986
0.990578 0.979518 1.01254 0.998768
0.996122 0.992485 1.00392 0.999748
0.999073 1 1.0001 0.998968
1.00703 1 1.00803 0.999013
1.0019 1 1.00279 0.999112
1.00723 0.997084 1.01086 0.999322
0.997206 0.977307 1.02115 0.999228
1.00694 0.999946 1.00764 0.999361
1.00016 0.986165 1.01521 0.998999
0.970392 0.976898 0.997627 0.995704
0.970453 0.974557 0.997216 0.998569
0.978065 0.983286 0.99549 0.999197
1.01474 0.984092 1.03131 0.999846
0.959531 0.972012 0.992036 0.995085
0.963555 0.973816 0.991343 0.998104
0.97397 0.971025 1.01688 0.986382
0.896709 0.938762 0.966443 0.98837
0.977107 0.983537 1.00025 0.993219
0.830332 0.900379 0.935077 0.986231
0.99699 0.981151 1.01665 0.999497
0.970214 0.978007 0.996529 0.995487
0.893045 0.92394 0.976948 0.989368
0.947102 0.966858 0.984221 0.99527
0.871839 0.92062 0.958445 0.988073
0.955576 0.960199 1.00784 0.98744
0.977621 0.982694 0.996002 0.998832
0.922668 0.938255 0.991916 0.991402
0.870271 0.912737 0.964745 0.988317
0.967811 0.970687 1.00903 0.988113
0.955051 0.966898 0.992222 0.99549
1.01834 0.995317 1.02363 0.999515
1.01518 0.999608 1.01623 0.99936
0.993375 1.00021 0.994269 0.998891
1.01585 0.999216 1.01758 0.999088
1.01053 1.00043 1.01169 0.998429
1.00237 1.00162 1.00272 0.998038
1.0119 1 1.01389 0.998028
1.00562 1.00031 1.00762 0.997711
0.999293 1.00147 1.00003 0.997797
1.00337 1 1.00571 0.997673
1.0032 1.00283 1.00281 0.997566
1.00454 1.00674 1 0.997812
1.00665 1.00874 1 0.997925
1.00273 1.005 1.00002 0.997728
1.00163 1.00395 1 0.997692
0.998982 1.00086 1 0.998125
0.999829 1.00094 1.00107 0.997818
1.00138 1.00136 1.00244 0.997582
0.998643 1 1 0.998643
0.998572 1 1.00002 0.998548
0.998697 1 1.00032 0.99838
0.999019 1 1.00005 0.998969
0.999879 1 1.00114 0.998736
0.999766 1 1.0011 0.998672
0.999606 1 1 0.999606
0.999284 1 1.00014 0.999148
0.999954 1 1.00103 0.998929
1 1 1 1
0.999767 1 1 0.999767
0.999326 1 1 0.999326
1 1 1 1
1 1 1 1
0.999851 1 1 0.999851
1 1 1 1
1 1 1 1
1 1 1 1
0.999156 1 1 0.999156
0.999406 1 1 0.999406
0.999218 1 1 0.999218
0.999816 1 1 0.999816
0.999453 1 1 0.999453
1 1 1 1
0.999842 1 1 0.999842
0.999488 1 1 0.999488
1 1 1 1
1 1 1 1
0.999876 1 1 0.999876
1 1 1 1
1 1 1 1
1 1 1 1
0.971046 0.978986 0.995948 0.995924
0.963587 0.972703 0.99255 0.998064
0.97247 0.983316 0.990175 0.998783
0.99905 1 1 0.99905
0.999251 1 1 0.999251
0.999106 1 1 0.999106
0.999135 1 1 0.999135
0.999072 1 1 0.999072
0.99904 1 1 0.99904
0.99897 1 1 0.99897
0.999023 1 1 0.999023
0.999152 1 1 0.999152
0.999057 1 1 0.999057
0.999094 1 1 0.999094
0.999163 1 1 0.999163
0.894505 0.927279 0.975448 0.988936
0.970666 0.978138 0.999118 0.993237
0.970913 0.976725 0.998481 0.995562
0.892422 0.950967 0.948659 0.989224
0.928063 0.960554 0.977108 0.988811
0.970109 0.967575 1.01526 0.987554
0.9558 0.96607 0.994907 0.994434
0.972553 0.973179 1.00337 0.996004
0.846031 0.912691 0.93908 0.987097
0.972086 0.968607 1.01651 0.987293
0.894376 0.941956 0.959924 0.989128
0.965055 0.97348 0.994995 0.996332
0.963584 0.962037 1.01281 0.988941
0.868259 0.919498 0.954921 0.988852
1.00004 1 1.00041 0.999632
0.999333 1 1 0.999333
0.999052 1 1 0.999052
0.997715 0.978551 1.02035 0.999253
1.00861 0.999127 1.01018 0.999313
1.00205 1 1.00293 0.999118
1.0067 1 1.00734 0.999361
0.999349 0.986863 1.01362 0.999042
1.00392 0.995303 1.00939 0.99928
0.919876 0.938119 0.989929 0.99053
0.970001 0.976168 0.997347 0.996326
0.969242 0.97373 0.996662 0.998724
0.99537 0.979196 1.01695 0.999576
0.94628 0.96883 0.980687 0.995959
0.971131 0.978845 0.996609 0.995495
0.963188 0.96266 1.01152 0.989152
0.880271 0.931267 0.956003 0.988742
0.886223 0.923052 0.970608 0.989175
0.977215 0.983449 0.99477 0.998885
0.912518 0.936114 0.983587 0.991059
0.884361 0.917983 0.973911 0.989181
0.954821 0.964835 0.995859 0.993736
0.956889 0.967076 1.00076 0.988712
0.967364 0.989476 0.97836 0.999278
0.895111 0.928202 0.974652 0.989429
0.960835 0.974118 0.997121 0.989212
0.968562 0.979195 0.995584 0.993528
1.01778 0.999111 1.01935 0.999341
0.989719 1.0001 0.990637 0.99897
0.982194 1.00198 0.981634 0.998589
1.01143 1.00069 1.01224 0.998508
1.00299 1.002 1.00296 0.998031
1.00068 1.00304 0.999428 0.998215
1.00479 1.00049 1.00659 0.997722
0.999419 1.00108 1.00053 0.997811
1.00728 1.0091 1 0.998196
1.00358 1.00383 1.00217 0.997582
1.00439 1.00658 1 0.997817
1.0106 1.0124 1 0.998219
1.01182 1.01364 1 0.998213
1.00646 1.00859 1 0.997887
1.0067 1.00878 1 0.997945
1.00187 1.00395 1 0.997934
1.00254 1.00478 1 0.997764
1.00164 1.00395 1 0.997704
0.998529 1.00009 1 0.998438
0.999568 1.00129 1.00014 0.998137
0.999669 1.00042 1.00148 0.997775
0.998845 1 1 0.998845
0.998639 1 1 0.998639
0.998599 1 1 0.998599
0.99941 1 1 0.99941
0.999087 1 1.00011 0.998972
0.999915 1 1.00116 0.998751
0.999996 1 1 0.999996
0.999603 1 1 0.999603
0.999354 1 1.0002 0.999149
1 1 1 1
1 1 1 1
0.999762 1 1 0.999762
1 1 1 1
1 1 1 1
1 1 1 1
0.999132 1 1 0.999132
0.999158 1 1 0.999158
0.999342 1 1 0.999342
0.999791 1 1 0.999791
0.999406 1 1 0.999406
0.999207 1 1 0.999207
1 1 1 1
0.999818 1 1 0.999818
0.999452 1 1 0.999452
1 1 1 1
1 1 1 1
0.999845 1 1 0.999845
1 1 1 1
1 1 1 1
1 1 1 1
0.915836 0.933152 0.990935 0.990421
0.970616 0.978039 0.996457 0.995938
0.963466 0.972453 0.992665 0.998079
0.999037 1 1 0.999037
0.998989 1 1 0.998989
0.99897 1 1 0.99897
0.999148 1 1 0.999148
0.999086 1 1 0.999086
0.999035 1 1 0.999035
0.99902 1 1 0.99902
0.998968 1 1 0.998968
0.998892 1 1 0.998892
0.999156 1 1 0.999156
0.999087 1 1 0.999087
0.99916 1 1 0.99916
0.881866 0.916264 0.97318 0.988983
0.890598 0.922408 0.976691 0.988557
0.97383 0.980767 0.999723 0.993202
0.831249 0.89982 0.93676 0.986159
0.894375 0.938996 0.963865 0.988188
0.976678 0.972701 1.01468 0.989557
0.973192 0.970487 1.00853 0.994305
0.962335 0.970255 0.997034 0.994787
0.868507 0.913914 0.961978 0.987877
0.956695 0.959804 1.00792 0.988932
0.963084 0.971811 0.995753 0.995247
0.957492 0.969809 0.99887 0.988416
1.00732 1 1.00819 0.99914
0.999856 1 1.00027 0.99959
0.999334 1 1 0.999334
0.995348 0.984378 1.01207 0.999083
1.00647 1 1.00711 0.999361
1.00433 0.996007 1.00918 0.999182
0.997652 1.0001 0.999023 0.998529
0.892351 0.93538 0.964271 0.989348
0.923844 0.938521 0.993142 0.991159
0.970924 0.97613 0.997716 0.996944
0.975621 0.984018 0.992501 0.998958
0.954559 0.964626 0.99489 0.994646
0.912692 0.937031 0.982761 0.991112
0.957295 0.965154 1.00371 0.988188
0.886564 0.92357 0.971102 0.988497
0.970879 0.990221 0.981516 0.998931
0.897906 0.932021 0.974196 0.988915
0.963245 0.975914 0.998631 0.988372
0.9723 0.978049 0.99912 0.994998
0.984993 0.997372 0.988504 0.999075
0.958729 0.978287 0.991646 0.988263
0.979473 0.989253 0.994173 0.995917
0.986007 1 0.986946 0.999048
0.983145 1.00246 0.982134 0.998569
0.983651 1.00527 0.979979 0.998483
1.00322 1.00235 1.00285 0.998023
1.00016 1.00331 0.998648 0.99821
1.00853 1.01276 0.997227 0.998598
0.99934 1.00062 1.00089 0.997826
1.00714 1.00896 1 0.998191
1.01506 1.01654 1 0.998546
1.00416 1.00635 1 0.997822
1.01009 1.0119 1 0.998219
1.01346 1.01501 1 0.99847
1.0113 1.01294 1 0.99838
1.01161 1.01339 1 0.998246
1.01041 1.01229 1 0.99814
1.00643 1.00847 1 0.997977
1.00696 1.00909 1 0.997891
1.00676 1.00881 1 0.997966
0.999095 1.00092 1 0.998178
1.00234 1.00438 1 0.997968
1.00223 1.00444 1 0.997799
0.998698 1 1 0.998698
0.998689 1.00026 1 0.998431
0.999912 1.00159 1.00017 0.99815
0.999262 1 1 0.999262
0.998845 1 1 0.998845
0.998634 1 1 0.998634
0.999969 1 1 0.999969
0.99941 1 1 0.99941
0.999196 1 1.00022 0.998975
1 1 1 1
0.99999 1 1 0.99999
0.999599 1 1 0.999599
1 1 1 1
1 1 1 1
1 1 1 1
0.999061 1 1 0.999061
0.99912 1 1 0.99912
0.999272 1 1 0.999272
0.99916 1 1 0.99916
0.999342 1 1 0.999342
0.999743 1 1 0.999743
1 1 1 1
0.999793 1 1 0.999793
0.999407 1 1 0.999407
1 1 1 1
1 1 1 1
0.999821 1 1 0.999821
1 1 1 1
1 1 1 1
1 1 1 1
0.902662 0.931303 0.980076 0.98895
0.916051 0.935459 0.989043 0.990102
0.969376 0.976302 0.996942 0.995951
0.999025 1 1 0.999025
0.998947 1 1 0.998947
0.999014 1 1 0.999014
0.998854 1 1 0.998854
0.998907 1 1 0.998907
0.999018 1 1 0.999018
0.998966 1 1 0.998966
0.998908 1 1 0.998908
0.998805 1 1 0.998805
0.998992 1 1 0.998992
0.998969 1.00031 1.00026 0.998402
0.999345 1 1.00015 0.999194
0.999156 1 1 0.999156
0.95856 0.977277 0.992871 0.98789
0.885667 0.916696 0.977125 0.98877
0.892197 0.925308 0.975503 0.98843
0.867939 0.913924 0.960732 0.988501
0.961656 0.962089 1.01258 0.987134
0.964594 0.969423 0.998559 0.996455
0.964857 0.97321 0.995186 0.996212
0.96005 0.970618 0.99992 0.989191
0.978575 0.992539 0.990677 0.99521
1.00251 1.00132 1.00284 0.998353
1.00577 1 1.00666 0.999121
0.999548 1 1 0.999548
1.00474 0.997632 1.00804 0.999095
0.999036 1.00101 0.999584 0.998441
0.947284 0.974206 0.983047 0.989134
0.8997 0.935211 0.972762 0.988966
0.927751 0.938925 0.996274 0.991794
0.97411 0.990946 0.984416 0.998572
0.966468 0.972456 1.00025 0.993598
0.89887 0.930324 0.977252 0.988681
0.963826 0.974254 1.00017 0.989124
0.983179 0.997591 0.98647 0.99907
0.960266 0.979439 0.990901 0.989428
0.980788 0.990456 0.995822 0.994394
1.00057 1.00542 0.99659 0.998574
0.989148 0.996893 0.995017 0.997201
0.983867 1.00302 0.982333 0.99855
0.985789 1.00479 0.982629 0.998437
1.00411 1.02081 0.985077 0.998547
0.999899 1.00358 0.998123 0.998204
1.0075 1.01177 0.997193 0.998589
1.01491 1.02036 0.995934 0.998717
1.007 1.00883 1 0.998185
1.01504 1.01669 0.999841 0.998532
1.01608 1.01767 0.999827 0.998608
1.00967 1.01148 1 0.998219
1.01359 1.01516 1 0.998456
1.01138 1.01293 1 0.998464
1.01179 1.0134 1 0.998414
1.01056 1.01232 1 0.998261
1.01143 1.01317 1 0.99828
1.01019 1.01208 1 0.998135
1.00747 1.0094 1 0.998086
1.00171 1.00362 1 0.998101
1.00617 1.00822 1 0.997969
1.00742 1.00955 1 0.997894
0.998576 1.00006 1 0.998514
0.999393 1.0012 1 0.9982
1.00292 1.00493 1 0.998001
0.999141 1 1 0.999141
0.998693 1 1 0.998693
0.998868 1.00044 1 0.998425
0.999907 1 1 0.999907
0.999263 1 1 0.999263
0.998844 1 1 0.998844
1 1 1 1
0.999955 1 1 0.999955
0.99941 1 1 0.99941
1 1 1 1
0.999984 1 1 0.999984
1 1 1 1
0.998883 1 1 0.998883
0.999061 1 1 0.999061
0.99916 1 1 0.99916
0.999108 1 1 0.999108
0.999253 1 1 0.999253
0.999648 1 1 0.999648
0.999342 1 1 0.999342
0.999745 1 1 0.999745
0.999999 1 1 0.999999
1 1 1 1
1 1 1 1
0.999795 1 1 0.999795
1 1 1 1
1 1 1 1
1 1 1 1
0.961186 0.97926 0.991962 0.989497
0.896152 0.933566 0.970203 0.989405
0.924236 0.940215 0.992829 0.990106
0.998924 1 1 0.998924
0.999039 1 1 0.999039
0.998917 1 1 0.998917
0.998863 1 1 0.998863
0.998662 1 1.00002 0.998641
0.998855 1 1 0.998855
0.998924 1 1 0.998924
0.998744 1 1 0.998744
0.999108 1 1.00015 0.998958
0.998646 1 1 0.998646
1.00064 1.00213 1 0.998505
0.99892 1.00124 0.999729 0.997949
0.999318 1.00078 1.00006 0.998479
0.99953 1 1.0003 0.999231
0.9766 0.990245 0.990798 0.99538
0.959886 0.976906 0.993741 0.988766
0.880324 0.917572 0.970592 0.988475
0.970757 0.976012 1.00652 0.988173
0.962906 0.973503 0.992109 0.996983
0.983364 0.994101 0.992244 0.996932
0.994472 1.0041 0.9919 0.998501
1.00004 1.00067 1.00093 0.998437
1.00472 1 1.00563 0.999101
0.99781 1.00112 0.99835 0.99834
0.975296 0.985145 0.994693 0.995284
0.9547 0.974981 0.989055 0.990034
0.893912 0.932085 0.969087 0.989638
0.983837 0.999288 0.985462 0.999063
0.987115 0.992345 0.999187 0.995538
0.961988 0.980209 0.9907 0.990624
0.994784 1.00469 0.991541 0.998582
0.986783 0.995825 0.994274 0.996627
1.00629 1.02154 0.986718 0.998332
1.00697 1.01464 0.994218 0.99821
0.987794 1.00417 0.98528 0.998391
1.00507 1.02079 0.986047 0.998539
1.00944 1.02431 0.986907 0.998557
1.00656 1.01102 0.997009 0.998579
1.0147 1.01995 0.99614 0.998706
1.01313 1.01792 0.996752 0.998538
1.01503 1.01687 0.999672 0.998517
1.01572 1.01746 0.999691 0.998594
1.01292 1.01473 0.999815 0.9984
1.01366 1.01524 1 0.998443
1.01105 1.01261 1 0.998466
1.01104 1.01281 1 0.998255
1.01226 1.01383 1 0.998449
1.01029 1.01203 1 0.998286
1.0081 1.00999 1 0.998129
1.01002 1.01191 1 0.998129
1.00743 1.00937 1 0.99808
1.00254 1.0044 1 0.99815
0.998489 1.00013 1 0.99836
1.00163 1.00352 1 0.99812
1.00593 1.00799 1 0.997962
0.998994 1 1 0.998994
0.998569 1.00005 1 0.998514
0.999692 1.00147 1 0.998221
0.99982 1 1 0.99982
0.999139 1 1 0.999139
0.998689 1 1 0.998689
1 1 1 1
0.999892 1 1 0.999892
0.999264 1 1 0.999264
1 1 1 1
0.99994 1 1 0.99994
1 1 1 1
0.998689 1 1 0.998689
0.998895 1 1 0.998895
0.999029 1 1 0.999029
0.999061 1 1 0.999061
0.999145 1 1 0.999145
0.999516 1 1 0.999516
0.999235 1 1 0.999235
0.99965 1 1 0.99965
0.999994 1 1 0.999994
0.999746 1 1 0.999746
0.999999 1 1 0.999999
1 1 1 1
1 1 1 1
1 1 1 1
1 1 1 1
0.973144 0.986272 0.991043 0.995608
0.956285 0.977962 0.988765 0.988946
0.891868 0.930862 0.969004 0.988757
1.00063 1.00218 1.00007 0.998385
0.998927 1 1 0.998927
0.998873 1 1 0.998873
0.998841 1 1 0.998841
0.998753 1 1.00012 0.99863
0.999118 1.00031 1 0.998806
0.998684 1 1 0.998684
0.999227 1 1.0003 0.998924
0.998689 1 1 0.998689
0.999991 1.0015 1 0.998494
1.00106 1.00306 1 0.998009
1.0035 1.0058 0.999895 0.997819
0.999932 1.00194 1.00008 0.997911
0.99989 1.00134 1 0.998557
0.999109 1.00616 0.994061 0.998923
0.976949 0.99126 0.990843 0.99467
0.962878 0.977732 0.994911 0.989845
0.979294 0.990751 0.992799 0.995606
0.998876 1.00603 0.994152 0.998725
0.999885 1.0002 1.00117 0.998522
1.00215 1.00668 0.997138 0.99835
0.974029 0.982586 0.994875 0.996399
0.950949 0.975676 0.985291 0.989207
0.988212 1.00301 0.986641 0.998589
0.987079 0.996162 0.994908 0.995954
1.00653 1.02223 0.986271 0.998345
1.00625 1.01284 0.995169 0.998315
1.01291 1.02658 0.988348 0.998311
1.01546 1.01956 0.997728 0.998248
1.00625 1.02072 0.987272 0.998531
1.01139 1.02532 0.987835 0.998563
1.00697 1.01739 0.991342 0.998406
1.01443 1.01938 0.996445 0.998694
1.0142 1.01858 0.997163 0.998536
1.01287 1.0158 0.99883 0.998283
1.01542 1.01729 0.999579 0.998581
1.01312 1.01487 0.999862 0.998416
1.01235 1.01423 1 0.998149
1.01074 1.01229 1 0.998468
1.01061 1.01237 1 0.998255
1.01001 1.01195 1 0.998086
1.01002 1.01173 1 0.998311
1.00819 1.01007 1 0.998141
1.0032 1.0051 1 0.99811
1.00737 1.00932 1 0.998073
1.00255 1.00443 1 0.998133
0.999077 1.00075 1 0.998331
0.998868 1 1 0.998868
0.998532 1.00015 1 0.998383
1.00154 1.00341 1 0.99814
0.999722 1 1 0.999722
0.998993 1 1 0.998993
0.998564 1.00005 1 0.998514
1 1 1 1
0.999809 1 1 0.999809
0.999138 1 1 0.999138
1 1 1 1
0.999878 1 1 0.999878
1 1 1 1
0.999037 1.0006 1 0.998435
0.998693 1 1 0.998693
0.998875 1 1 0.998875
0.998907 1 1 0.998907
0.999036 1 1 0.999036
0.999384 1 1 0.999384
0.99913 1 1 0.99913
0.999516 1 1 0.999516
0.999975 1 1 0.999975
0.999651 1 1 0.999651
0.999996 1 1 0.999996
1 1 1 1
1 1 1 1
1 1 1 1
1 1 1 1
1.00421 1.01045 0.994896 0.998918
0.971983 0.986365 0.991153 0.994216
0.959552 0.975388 0.993998 0.989704
1.00221 1.0037 1.00001 0.998502
1.00392 1.00581 1 0.998128
1.00034 1.0018 1.00013 0.998418
0.998827 1 1 0.998827
0.998863 1 1.00024 0.998619
0.999435 1.00067 1 0.998759
1.00348 1.00535 1 0.998141
0.998733 1 1 0.998733
0.999223 1.00074 1 0.998484
1.00127 1.00322 1 0.998056
1.00685 1.00916 1 0.997706
1.01215 1.01558 0.998479 0.998138
1.00296 1.00544 0.99973 0.997806
1.00049 1.00262 1 0.997872
1.00223 1.00877 0.994512 0.999003
0.976046 0.99069 0.991349 0.993815
1.00051 1.00742 0.99418 0.998953
1.01398 1.01776 0.99756 0.998722
1.00107 1.00539 0.99728 0.998416
0.972317 0.984015 0.993157 0.994921
1.00658 1.023 0.985569 0.998358
1.00503 1.01121 0.995462 0.998421
1.01162 1.02649 0.987136 0.998358
1.01779 1.02154 0.998068 0.998261
1.01256 1.02108 0.993361 0.99828
1.02313 1.02667 0.998175 0.99838
1.01305 1.02653 0.988276 0.998569
1.00715 1.01703 0.991863 0.99841
1.01577 1.02103 0.996643 0.998193
1.01518 1.0192 0.997518 0.998533
1.01305 1.01563 0.999168 0.998282
1.01462 1.01658 1 0.998078
1.01326 1.01496 0.999896 0.998432
1.01206 1.01394 1 0.998148
1.01286 1.01489 1 0.997994
1.01016 1.01193 1 0.998256
1.00997 1.01191 1 0.998087
1.00439 1.00636 1 0.998045
1.00827 1.01014 1 0.998152
1.00327 1.00516 1 0.998112
0.999216 1.00094 1 0.998275
1.00257 1.00446 1 0.998115
0.999027 1.00071 1 0.99832
0.998791 1 1 0.998791
0.999646 1 1 0.999646
0.998868 1 1 0.998868
0.998572 1.00017 1 0.998407
1 1 1 1
0.999711 1 1 0.999711
0.998992 1 1 0.998992
1 1 1 1
0.999797 1 1 0.999797
1 1 1 1
0.999522 1.00134 1 0.998186
0.999018 1.00061 1 0.99841
0.99865 1 1 0.99865
0.998698 1 1 0.998698
0.998879 1 1 0.998879
0.99925 1 1 0.99925
0.999043 1 1 0.999043
0.999383 1 1 0.999383
0.99993 1 1 0.99993
0.999515 1 1 0.999515
0.999981 1 1 0.999981
1 1 1 1
0.999998 1 1 0.999998
1 1 1 1
1 1 1 1
1.01268 1.01818 0.996065 0.998529
1.00203 1.00947 0.993928 0.998695
0.970804 0.98577 0.989751 0.995015
1.00751 1.0094 1 0.998126
1.00106 1.0024 1 0.998661
1.01117 1.01323 1 0.99797
1.0037 1.0056 1 0.998113
1.00004 1.00141 1.00018 0.998453
1.01352 1.01578 1 0.997775
0.999756 1.00104 1 0.998714
1.00351 1.00543 1 0.998089
1.01818 1.02036 1 0.997868
1.00137 1.00327 1 0.998103
1.00739 1.00973 1 0.99768
1.01128 1.01432 0.998858 0.998146
1.00213 1.00437 0.999982 0.997791
1.00471 1.01066 0.995019 0.999086
1.02267 1.02535 0.998916 0.998464
1.01361 1.01752 0.997431 0.998723
1.00033 1.00409 0.997775 0.99848
1.01037 1.02625 0.986097 0.998405
1.01922 1.02279 0.998224 0.998275
1.01257 1.0214 0.993055 0.998293
1.0238 1.02783 0.997687 0.998387
1.02382 1.02821 0.997451 0.99828
1.00734 1.01656 0.992501 0.998415
1.01594 1.02076 0.997077 0.998199
1.01791 1.02104 0.998865 0.998066
1.01324 1.0155 0.999502 0.998281
1.01421 1.01618 0.999999 0.998063
1.01522 1.01734 1 0.997913
1.01182 1.01369 1 0.998147
1.01269 1.01473 1 0.997992
1.00669 1.00875 1 0.997954
1.00994 1.01188 1 0.998087
1.00461 1.00658 1 0.998046
0.999486 1.0013 1 0.998187
1.00333 1.00523 1 0.998114
0.999276 1.001 1 0.998276
0.99872 1 1 0.99872
0.998968 1.00066 1 0.99831
0.99879 1 1 0.99879
0.999657 1 1 0.999657
0.999916 1 1 0.999916
0.999659 1 1 0.999659
0.998868 1 1 0.998868
1 1 1 1
0.999701 1 1 0.999701
1 1 1 1
1.01441 1.01643 1 0.998013
1.00325 1.00516 1 0.9981
0.999222 1.00106 1 0.998166
0.998859 1.00039 1 0.998466
0.999002 1.00062 1 0.998386
0.998655 1 1 0.998655
0.999102 1 1 0.999102
0.998883 1 1 0.998883
0.999253 1 1 0.999253
0.999857 1 1 0.999857
0.999383 1 1 0.999383
0.999944 1 1 0.999944
1 1 1 1
0.999988 1 1 0.999988
1 1 1 1
1 1 1 1
1.02323 1.02536 0.99969 0.998229
1.01663 1.02158 0.996548 0.998611
1.0013 1.00962 0.99328 0.998471
1.01567 1.01786 1 0.997847
1.00644 1.00825 1 0.998204
0.999872 1.00106 1 0.998818
1.01153 1.01357 1 0.997993
1.00347 1.00538 1 0.998098
1.02085 1.02305 1 0.997847
1.01257 1.01486 1 0.99774
1.00371 1.00568 1 0.998036
1.01805 1.02023 1 0.997862
1.00901 1.01139 1 0.997655
1.01264 1.01547 0.999058 0.998157
1.02656 1.02902 0.999249 0.998366
1.02419 1.0266 0.999186 0.998467
1.01413 1.01758 0.997887 0.998724
1.01321 1.02233 0.99276 0.998306
1.02495 1.02929 0.997377 0.998394
1.02377 1.02885 0.996761 0.998295
1.02313 1.02525 0.999815 0.998115
1.01609 1.02043 0.997534 0.998206
1.01832 1.02096 0.999356 0.998059
1.01701 1.01915 1 0.997899
1.01379 1.01577 1 0.998049
1.01529 1.01742 1 0.997913
1.00957 1.01172 1 0.997875
1.01252 1.01456 1 0.997991
1.00688 1.00894 1 0.997953
1.00012 1.00204 1 0.99809
1.00482 1.00679 1 0.998046
0.999667 1.00148 1 0.998187
0.998629 1 1 0.998629
0.999341 1.00106 1 0.998278
0.998718 1 1 0.998718
0.999649 1 1 0.999649
0.998789 1 1 0.998789
0.999652 1 1 0.999652
0.999918 1 1 0.999918
0.999959 1 1 0.999959
0.999673 1 1 0.999673
1 1 1 1
1.01654 1.01873 1 0.997857
1.00525 1.00716 1 0.998108
1.0141 1.01603 1 0.998103
0.999179 1.00085 1 0.99833
1.00377 1.00569 1 0.998096
0.998912 1.00077 1 0.998146
0.998722 1.00026 1 0.998465
0.998946 1 1 0.998946
0.998659 1 1 0.998659
0.999105 1 1 0.999105
0.999765 1 1 0.999765
0.999255 1 1 0.999255
0.999874 1 1 0.999874
1 1 1 1
0.999958 1 1 0.999958
1 1 1 1
1 1 1 1
1.02371 1.02565 1 0.998108
1.02248 1.02465 0.999651 0.998227
1.01841 1.02315 0.996682 0.998689
1.0205 1.02273 1 0.997819
1.01517 1.01736 1 0.997851
1.00539 1.00712 1 0.998283
1.01184 1.01385 1 0.998016
1.02062 1.02284 1 0.997833
1.01138 1.0137 1 0.997706
1.01592 1.0181 1 0.997855
1.0258 1.02768 0.999999 0.998177
1.02618 1.02866 0.999259 0.998329
1.02566 1.02797 0.999283 0.99847
1.02182 1.02384 1 0.998028
1.02361 1.02943 0.99603 0.998311
1.02274 1.02517 0.999517 0.99811
1.01867 1.02076 1 0.997957
1.01874 1.02091 0.999824 0.998053
1.01705 1.01919 1 0.997902
1.01221 1.01441 1 0.997831
1.01535 1.01747 1 0.997913
1.0094 1.01155 1 0.997876
1.00119 1.00319 1 0.998008
1.00706 1.00913 1 0.997953
1.00042 1.00233 1 0.99809
0.998537 1 1 0.998537
0.999851 1.00167 1 0.998188
0.998627 1 1 0.998627
0.99963 1 1 0.99963
0.998716 1 1 0.998716
0.999643 1 1 0.999643
0.999921 1 1 0.999921
0.999649 1 1 0.999649
0.99992 1 1 0.99992
1 1 1 1
1.01714 1.01943 1 0.997759
1.00833 1.01043 1 0.997923
1.0169 1.01906 1 0.997883
0.999356 1.00107 1 0.998289
1.0052 1.00711 1 0.998106
1.01386 1.01569 1 0.998193
0.998792 1 1 0.998792
0.999132 1.00081 1 0.998326
1.00438 1.0063 1 0.998092
0.998612 1.00015 1 0.998464
0.998947 1 1 0.998947
0.999672 1 1 0.999672
0.999107 1 1 0.999107
0.999777 1 1 0.999777
1 1 1 1
0.99989 1 1 0.99989
1 1 1 1
1 1 1 1
1.02315 1.02521 1 0.99799
1.02412 1.02608 1 0.998092
1.02291 1.02507 0.999666 0.998224
1.01995 1.02217 1 0.997823
1.01471 1.01689 1 0.997854
1.02062 1.02285 1 0.99782
1.02181 1.02383 1 0.998029
1.02563 1.02751 1 0.998169
1.02545 1.02796 0.999265 0.998292
1.02192 1.02392 1 0.99804
1.01882 1.02095 1 0.997921
1.02233 1.02505 0.999236 0.998106
1.01848 1.02058 1 0.997937
1.01415 1.01633 1 0.997848
1.01705 1.01919 1 0.997904
1.01188 1.01408 1 0.997834
1.00278 1.00485 1 0.997938
1.00929 1.01143 1 0.997877
1.00167 1.00367 1 0.998007
0.998463 1 1 0.998463
1.00072 1.00263 1 0.99809
0.998535 1 1 0.998535
0.999595 1 1 0.999595
0.998625 1 1 0.998625
0.999622 1 1 0.999622
0.999912 1 1 0.999912
0.999639 1 1 0.999639
0.999925 1 1 0.999925
0.999919 1 1 0.999919
1.01896 1.02111 1 0.997895
1.01084 1.01308 1 0.997788
1.01739 1.01967 1 0.997764
1.00082 1.00269 1 0.998127
1.00815 1.01024 1 0.997932
1.01718 1.01932 1 0.997909
0.998674 1 1 0.998674
0.999255 1.00101 1 0.998248
1.00508 1.00699 1 0.998104
0.999604 1 1 0.999604
0.998794 1 1 0.998794
0.999031 1.00071 1 0.998323
0.998949 1 1 0.998949
0.999682 1 1 0.999682
1 1 1 1
0.999789 1 1 0.999789
1 1 1 1
1 1 1 1
1.02024 1.02233 1 0.997955
1.02274 1.0248 1 0.997989
1.02451 1.02649 1 0.998076
1.01942 1.02164 1 0.997826
1.01962 1.02177 1 0.99789
1.0223 1.02431 1 0.998037
1.02546 1.02734 1 0.998161
1.02201 1.02401 1 0.998052
1.01868 1.02079 1 0.997928
1.01338 1.01556 1 0.997857
1.01835 1.02047 1 0.997918
1.0139 1.01609 1 0.997842
1.00433 1.00645 1 0.997893
1.01155 1.01374 1 0.997837
1.0033 1.00537 1 0.99794
0.998395 1 1 0.998395
1.00213 1.00414 1 0.998007
0.998462 1 1 0.998462
0.999506 1 1 0.999506
0.998534 1 1 0.998534
0.999565 1 1 0.999565
1 1 1 1
0.999614 1 1 0.999614
0.999919 1 1 0.999919
0.999927 1 1 0.999927
1.01807 1.02018 1 0.997931
1.01209 1.01429 1 0.997833
1.01867 1.02082 1 0.997894
1.00287 1.00493 1 0.997949
1.01092 1.01314 1 0.997808
1.01772 1.01999 1 0.997769
0.998497 1 1 0.998497
1.00084 1.00272 1 0.998125
1.00802 1.0101 1 0.997941
0.999567 1 1 0.999567
0.998637 1 1 0.998637
0.999181 1.00098 1 0.998206
1 1 1 1
0.999614 1 1 0.999614
0.998796 1 1 0.998796
0.999692 1 1 0.999692
1 1 1 1
1 1 1 1
1.01913 1.02128 1 0.997897
1.02068 1.02276 1 0.997964
1.0223 1.02436 1 0.997987
1.01433 1.01656 1 0.997809
1.01888 1.02103 1 0.997893
1.02278 1.02479 1 0.998044
1.01853 1.02064 1 0.997934
1.01348 1.01566 1 0.997857
1.00441 1.00649 1 0.99793
1.01362 1.01582 1 0.997837
1.00453 1.00662 1 0.997924
0.998267 1 1 0.998267
1.00382 1.00589 1 0.997941
0.998395 1 1 0.998395
0.999456 1 1 0.999456
0.998461 1 1 0.998461
0.999503 1 1 0.999503
1 1 1 1
0.999531 1 1 0.999531
0.999952 1 1 0.999952
0.999925 1 1 0.999925
1.01627 1.0184 1 0.99791
1.01249 1.01465 1 0.997872
1.01799 1.0201 1 0.997933
1.00365 1.00571 1 0.997955
1.01244 1.01465 1 0.99783
1.01838 1.02053 1 0.997893
0.998394 1 1 0.998394
1.00278 1.0048 1 0.997992
1.01097 1.01317 1 0.997829
0.999539 1 1 0.999539
0.998483 1 1 0.998483
1.00085 1.00274 1 0.998123
1 1 1 1
0.999575 1 1 0.999575
0.998601 1 1 0.998601
1 1 1 1
0.999625 1 1 0.999625
1 1 1 1
1.01458 1.01677 1 0.997841
1.01865 1.0208 1 0.997893
1.02114 1.02322 1 0.997973
1.00387 1.00598 1 0.997908
1.01434 1.01656 1 0.99782
1.0182 1.02035 1 0.997896
1.0136 1.01578 1 0.997857
1.00445 1.00653 1 0.997929
0.998221 1 1 0.998221
1.00474 1.0068 1 0.997956
0.9983 1 1 0.9983
0.99939 1 1 0.99939
0.998395 1 1 0.998395
0.999453 1 1 0.999453
1 1 1 1
0.9995 1 1 0.9995
1 1 1 1
0.999913 1 1 0.999913
1.01253 1.01467 1 0.997889
1.01648 1.0186 1 0.997915
1.00321 1.00527 1 0.997958
1.01235 1.01451 1 0.997871
1.01792 1.02003 1 0.997934
0.998407 1 1 0.998407
1.00358 1.00564 1 0.997952
1.0128 1.015 1 0.997826
0.999503 1 1 0.999503
0.998419 1 1 0.998419
1.00268 1.00466 1 0.998035
1 1 1 1
0.999544 1 1 0.999544
0.998469 1 1 0.998469
1 1 1 1
0.999583 1 1 0.999583
1 1 1 1
1.00357 1.00564 1 0.997942
1.01448 1.01668 1 0.997839
1.01809 1.02024 1 0.997889
0.998213 1 1 0.998213
1.0039 1.006 1 0.997908
1.0143 1.01651 1 0.997831
1.00448 1.00656 1 0.997929
0.998224 1 1 0.998224
0.999338 1 1 0.999338
0.998333 1 1 0.998333
0.999387 1 1 0.999387
1 1 1 1
0.99945 1 1 0.99945
1 1 1 1
1 1 1 1
1.00294 1.005 1 0.997949
1.0122 1.01434 1 0.997891
1.01668 1.0188 1 0.99792
0.99838 1 1 0.99838
1.00345 1.0055 1 0.997956
1.01219 1.01435 1 0.997871
0.999461 1 1 0.999461
0.998405 1 1 0.998405
1.00352 1.00558 1 0.997949
1 1 1 1
0.999506 1 1 0.999506
0.998445 1 1 0.998445
1 1 1 1
0.99955 1 1 0.99955
1 1 1 1
0.998292 1 1 0.998292
1.00356 1.00566 1 0.997909
1.01443 1.01663 1 0.997838
0.999327 1 1 0.999327
0.998213 1 1 0.998213
1.00393 1.00603 1 0.997908
0.998228 1 1 0.998228
0.999337 1 1 0.999337
1 1 1 1
0.999384 1 1 0.999384
1 1 1 1
1 1 1 1
0.998339 1 1 0.998339
1.00302 1.00509 1 0.99794
1.01188 1.01402 1 0.997893
0.999497 1 1 0.999497
0.998378 1 1 0.998378
1.00369 1.00575 1 0.997954
1 1 1 1
0.999463 1 1 0.999463
0.998404 1 1 0.998404
1 1 1 1
0.99951 1 1 0.99951
1 1 1 1
0.999328 1 1 0.999328
0.998265 1 1 0.998265
1.00354 1.00568 1 0.997875
1 1 1 1
0.999326 1 1 0.999326
0.998212 1 1 0.998212
0.999335 1 1 0.999335
1 1 1 1
1 1 1 1
0.999449 1 1 0.999449
0.998339 1 1 0.998339
1.00308 1.00516 1 0.997931
1 1 1 1
0.999422 1 1 0.999422
0.998376 1 1 0.998376
1 1 1 1
0.999464 1 1 0.999464
1 1 1 1
0.999831 1 1 0.999831
0.999385 1 1 0.999385
0.998238 1 1 0.998238
1 1 1 1
0.999326 1 1 0.999326
1 1 1 1
0.999849 1 1 0.999849
0.999417 1 1 0.999417
0.99834 1 1 0.99834
0.999929 1 1 0.999929
0.99942 1 1 0.99942
1 1 1 1
1 1 1 1
0.999345 1 1 0.999345
1 1 1 1
0.999921 1 1 0.999921
0.999379 1 1 0.999379
1 1 1 1
1 1 1 1
1 1 1 1

VECTORS lamdaE float
0.999892 1.00016 0.995468
0.999798 1.00025 0.997897
0.999645 1.00035 0.995609
1.00016 0.999924 0.995312
0.999974 0.99998 0.995541
0.999887 1.00028 0.995294
1.00109 1.00048 0.99278
0.999775 1.00012 0.997943
0.999723 1.00023 0.998103
0.999412 1.00062 0.998129
0.999768 0.999943 0.995898
1.00081 1.0012 0.992071
1.00012 1.00001 0.995195
0.999858 0.999969 0.99547
0.999426 1.00056 0.995722
0.999969 0.999901 0.995503
0.999627 1.00056 0.995425
0.999761 1.00006 0.995699
1.00123 1.00033 0.992717
1.0001 1 0.997753
1.0002 0.999981 0.995169
1.00009 0.99989 0.99547
1.00146 0.999974 0.99264
1.00126 1.00012 0.992841
0.999792 1.00011 0.995478
1.0009 1.00101 0.992568
1.00359 1.00031 0.988701
0.999721 1.00003 0.998016
0.999849 1.00011 0.996749
0.999603 1.00046 0.996753
0.999712 0.999738 0.998139
1.0007 1.00132 0.992084
1.0001 0.999843 0.995349
0.999853 1.00037 0.995381
1.00154 1.00016 0.993027
0.999427 0.999122 0.998639
1.0012 1.00083 0.993018
1.00047 1.00127 0.992604
1.00242 1.00216 0.98827
0.999517 0.998248 0.998926
1.00013 1.00001 0.997717
0.999996 0.999994 0.996602
1.00011 1 0.997724
0.999831 1.00003 0.995484
1.00167 1.00005 0.991655
0.999891 0.999954 0.998029
1.00176 1.0001 0.992747
0.999776 0.99984 0.995695
0.999561 1.00013 0.995842
0.99937 1.00089 0.995544
1.00137 1.00016 0.992667
0.999997 1.00001 0.996603
1 0.999977 0.99537
0.999579 1.00037 0.99561
0.999898 0.999881 0.995644
1.00154 0.999935 0.992566
1.00104 1.00087 0.992508
1.00137 1.00003 0.99278
1.00357 1.00032 0.988699
1.00007 1 0.997752
1.00019 1.00001 0.995161
1.00151 1.00001 0.993135
1.00151 1.00001 0.992504
1.00139 0.999955 0.992777
1.00388 0.999937 0.988474
1.00372 0.99998 0.988477
0.999686 0.999457 0.996182
1.00025 1.00155 0.99296
1.00326 1.00101 0.988562
1.00469 0.999947 0.986376
0.999997 1.00013 0.997848
0.999635 0.999512 0.998305
0.999781 1.0003 0.997878
1.00062 1.00139 0.992101
1.00012 0.999972 0.997819
0.999905 1.00031 0.997859
1.00145 1.00012 0.991898
0.999512 0.999198 0.997604
1.00101 1.00091 0.991896
1.00033 1.00132 0.993287
1.00244 1.0021 0.988261
0.999599 0.998651 0.998689
0.999646 0.999827 0.995509
1.00164 0.999959 0.991783
1.00136 1.0004 0.991875
1.00387 1.00016 0.987614
1.00005 1.00092 0.994692
1.00316 1.00109 0.987991
1.00145 1.00325 0.988965
1.00345 1.00222 0.986254
0.9995 0.997899 0.999089
0.999468 0.998177 0.998998
1.00015 0.999976 0.997754
1.00014 1.00001 0.997721
1.00013 1 0.997722
0.999983 1.00001 0.996607
1.00169 1.00003 0.992267
1.00001 0.999959 0.996649
1.0017 1.00011 0.992192
1.00012 0.999997 0.997731
1.00161 0.999979 0.991788
1.00175 1.00011 0.992771
1.00407 0.999778 0.987667
1.00171 1 0.992887
1.00408 0.999962 0.987484
1.00009 1.00001 0.995268
0.999794 0.999967 0.995576
0.999328 1.00067 0.995769
0.99971 0.999853 0.995815
1.00162 0.999934 0.992492
1.00147 0.999939 0.992726
1.00118 1.00069 0.992455
1.00356 1.00034 0.988697
1.00011 1 0.99774
0.999978 1.00001 0.995364
1.00161 0.999987 0.992117
1.00159 1 0.992421
0.999569 0.99964 0.997217
1.00049 1.00145 0.993092
1.00148 0.999903 0.992711
1.0039 0.999916 0.988352
1.00323 1.00106 0.988571
1.00372 1.00005 0.988568
1.00468 0.999969 0.98639
1.00158 0.999997 0.991841
1.00151 1 0.992499
1.00398 0.999718 0.988271
1.00394 0.999873 0.988191
1.00383 0.999855 0.988376
1.00494 0.999592 0.986601
0.999574 0.999048 0.998555
1.00478 0.99978 0.986393
0.999904 1.00149 0.993226
1.00214 1.00232 0.988501
1.00447 1.00049 0.986272
1.00513 0.999793 0.985749
0.9998 1.00066 0.994298
1.00021 1.00316 0.991159
1.00009 1 0.997832
0.999864 1.00029 0.99786
1.00145 1.0001 0.991899
0.999558 0.998957 0.998608
1.00013 1.00152 0.99281
1.00095 1.00097 0.991907
1.00248 1.00204 0.988251
0.99953 0.998579 0.99878
0.999646 0.999742 0.995552
1.00164 0.999991 0.992386
1.00134 1.00043 0.992458
1.00387 1.00017 0.987615
0.999907 1.00096 0.993896
1.00316 1.00108 0.987996
1.00143 1.00323 0.988968
1.00349 1.00217 0.986246
0.99973 1.00045 0.99475
0.999709 0.999206 0.996019
1.00018 1.00223 0.99219
1.00399 1.00006 0.987517
1.00359 1.00051 0.987781
1.00487 1.00004 0.98598
1.00081 1.00334 0.990046
1.00428 1.00075 0.986136
1.00231 1.00378 0.986816
1.00404 1.00169 0.985869
0.999551 0.99763 0.999151
0.999481 0.997851 0.999112
0.999428 0.998106 0.999049
0.999778 1.00025 0.994767
0.999571 0.998724 0.998701
1.00014 0.999967 0.997792
1.00013 0.999996 0.997728
1.00163 1.00012 0.991629
1.00162 1.00004 0.991706
1.00011 1 0.997728
1.0001 1 0.997731
1.0016 0.999987 0.991785
1.00169 1.0001 0.992201
1.00407 0.999774 0.987665
1.00162 1.00003 0.991721
1.00408 0.999962 0.98748
1.00158 0.999973 0.991826
1.00405 0.999708 0.987766
1.00408 0.999862 0.98756
1.00503 0.999207 0.986569
1.00405 1.00002 0.98747
1.00504 0.999547 0.986224
1.0001 0.999998 0.997733
0.999778 1.00002 0.995566
1.00162 0.999981 0.991188
1.00167 0.999994 0.992335
0.999332 0.999748 0.998439
1.00079 1.00127 0.993213
1.00156 0.999873 0.992646
1.00391 0.999881 0.988231
1.00371 1.00011 0.988661
1.00321 1.00114 0.988579
1.00467 0.999992 0.986403
1.00157 0.999984 0.991842
1.0016 1 0.992406
1.00399 0.999705 0.987966
1.00396 0.999909 0.988261
0.999592 0.999124 0.998495
1.0001 1.00133 0.993668
1.00214 1.00244 0.988743
1.00383 0.999887 0.988361
1.00494 0.999491 0.986531
1.00446 1.00052 0.98616
1.00478 0.999825 0.986514
1.00511 0.99978 0.985781
0.999809 1.00068 0.994293
1.00026 1.00306 0.991169
1.004 0.999706 0.987854
1.00398 0.999813 0.988179
1.00497 0.999278 0.986833
1.00497 0.999328 0.98651
1.00487 0.999595 0.986633
1.0052 0.998841 0.986697
0.999841 1.00104 0.993803
1.00516 0.999346 0.986136
1.00106 1.00322 0.989512
1.00359 1.00214 0.986049
1.00506 1.00044 0.985493
1.00518 0.999318 0.986224
1.00047 1.00318 0.990713
1.00011 1.00262 0.99185
1.00068 1.00409 0.989532
1.00157 0.999971 0.991838
0.99947 0.998489 0.998874
0.999649 0.999651 0.995594
1.00122 1.00048 0.991912
1.00387 1.00018 0.987616
0.999837 1.00102 0.993835
1.00138 1.00321 0.988971
1.00316 1.00108 0.988
1.00352 1.0021 0.986238
0.999713 1.00039 0.994777
0.999718 0.999131 0.996049
1.00008 1.00234 0.992205
1.00399 1.00008 0.987512
1.00359 1.0005 0.987788
1.00488 1.00003 0.985966
1.00073 1.00339 0.990064
1.00431 1.00081 0.986152
1.00232 1.00387 0.986792
1.0041 1.00155 0.98583
0.999818 0.998752 0.996271
1.00041 1.0029 0.991112
1.00006 1.00142 0.993197
1.00036 1.00369 0.990489
1.00495 0.999862 0.986025
1.00468 1.00031 0.986032
1.00513 0.999759 0.985793
1.00139 1.00427 0.988087
1.00477 1.00032 0.985759
1.00284 1.00369 0.985894
1.00476 1.00087 0.985506
1.00027 1.00003 0.99421
1 0.99825 0.996431
0.999637 0.997382 0.999181
0.999552 0.997581 0.999162
0.99947 0.997797 0.999132
0.999788 0.999784 0.995226
0.999564 0.998419 0.998831
0.999782 1.0003 0.994746
0.999599 0.998777 0.998651
1.00162 1.00005 0.991714
1.00164 1.00009 0.991636
1.00408 0.999964 0.987475
1.00408 0.99977 0.987663
1.00161 0.999994 0.991783
1.00013 1 0.997722
1.00159 0.999975 0.991825
1.00405 0.999713 0.987765
1.00408 0.99987 0.987557
1.00503 0.999209 0.986565
1.00404 1.00003 0.987462
1.00504 0.999549 0.986215
1.00402 0.999702 0.987833
1.00502 0.999101 0.986703
1.00505 0.999366 0.986387
1.0052 0.998197 0.987304
1.00501 0.999703 0.986107
1.00522 0.998693 0.98676
1.00158 0.999973 0.991843
1.00169 0.99999 0.992313
1.004 0.999677 0.987664
1.00398 0.999944 0.988332
0.999618 0.999207 0.998428
1.0003 1.00127 0.994028
1.00221 1.00252 0.988984
1.00383 0.999907 0.988346
1.00493 0.999387 0.98646
1.00478 0.999872 0.986635
1.00444 1.00054 0.986048
1.0051 0.999769 0.985812
0.999825 1.00071 0.994288
1.00032 1.00297 0.991178
1.004 0.999665 0.987784
1.004 0.999799 0.988165
1.00498 0.9992 0.9869
1.00497 0.999427 0.986558
0.999894 1.00103 0.993799
1.00118 1.00317 0.989483
1.00356 1.0022 0.986089
1.00488 0.999649 0.986619
1.0052 0.998703 0.986827
1.00506 1.00043 0.98541
1.00515 0.999343 0.986156
1.00518 0.999287 0.98622
1.00051 1.00309 0.990726
1.00054 1.00415 0.989567
1.00015 1.0026 0.991839
1.00498 0.999195 0.9869
1.00499 0.999265 0.986798
1.00518 0.998272 0.987294
1.00521 0.99856 0.986894
1.00517 0.998869 0.986586
1.00518 0.997573 0.98792
1.00067 1.00314 0.990358
1.00518 0.998532 0.986873
1.00212 1.00354 0.987449
1.00464 1.00183 0.984597
1.00518 1.00035 0.985274
1.00513 0.998549 0.987043
1.00014 1.00193 0.992514
1.001 1.0034 0.989553
1.00019 1.00439 0.989876
1.00103 1.00401 0.989151
1.00398 1.00009 0.987506
0.999721 0.999065 0.99608
0.999694 1.00034 0.994804
1.00002 1.00242 0.99222
1.0036 1.00049 0.987795
1.00488 1.00002 0.985951
1.00064 1.00345 0.990082
1.00233 1.00398 0.986768
1.00437 1.00087 0.986169
1.00414 1.00144 0.985789
0.999821 0.998717 0.996283
1.00038 1.00295 0.991116
1.00004 1.0014 0.993225
1.00026 1.00382 0.990479
1.00495 0.999864 0.986012
1.0047 1.0003 0.986027
1.00513 0.999771 0.98578
1.00133 1.00433 0.988107
1.00482 1.00041 0.985784
1.0029 1.00368 0.985855
1.00469 1.00075 0.985571
0.999925 0.998442 0.99638
1.00013 1.0007 0.993811
1.0008 1.00402 0.989408
1.00014 1.00295 0.991595
1.00034 1.00456 0.989636
1.00516 0.999417 0.9861
1.00501 1.00001 0.985679
1.00512 0.999101 0.986448
1.00177 1.00482 0.986869
1.00501 1.00006 0.985651
1.00377 1.00238 0.985145
1.00025 1.00011 0.994166
1.00024 1.00131 0.993039
1.00027 1.00002 0.994232
1.00027 1.00004 0.994209
1.00004 0.998072 0.997002
0.999991 0.99824 0.996703
0.999791 0.99719 0.998129
0.999647 0.997337 0.999186
0.999556 0.997528 0.999171
0.999833 0.999328 0.995613
0.999576 0.998105 0.99895
0.999792 0.999835 0.995201
0.999593 0.99847 0.998786
0.999788 1.00034 0.994725
0.999625 0.998833 0.998599
1.00404 1.00005 0.987454
1.00409 0.999876 0.987553
1.00502 0.999562 0.986206
1.00503 0.999211 0.986561
1.00405 0.999718 0.987763
1.00158 0.999977 0.991823
1.00402 0.9997 0.987833
1.00501 0.999103 0.986703
1.00504 0.999381 0.98638
1.0052 0.998106 0.987414
1.00501 0.999709 0.986097
1.00522 0.998713 0.986748
1.00499 0.99908 0.986768
1.00517 0.99796 0.987651
1.00522 0.998372 0.987069
1.00518 0.997062 0.98846
1.00519 0.999074 0.986431
1.00518 0.997315 0.988127
1.004 0.999624 0.987713
1.00402 0.999794 0.988151
1.00498 0.999129 0.986967
1.00497 0.999527 0.986607
0.999957 1.00101 0.993794
1.00121 1.00318 0.989457
1.00354 1.00225 0.986129
1.00488 0.999703 0.986604
1.0052 0.998562 0.986958
1.00514 0.999339 0.986177
1.00506 1.00041 0.985326
1.00518 0.999253 0.986216
1.00054 1.00301 0.990739
1.00049 1.00409 0.989602
1.00018 1.00258 0.991827
1.00498 0.999154 0.986835
1.00499 0.999264 0.986789
1.00518 0.998113 0.987455
1.00521 0.998606 0.986877
1.00073 1.0031 0.990338
1.00221 1.00346 0.987418
1.00446 1.00184 0.984789
1.00517 0.999008 0.986499
1.00517 0.997397 0.98813
1.00517 1.00039 0.985148
1.00518 0.998532 0.986893
1.00513 0.998457 0.987169
1.00106 1.00339 0.989557
1.001 1.00398 0.989131
1.00015 1.00195 0.992501
1.00015 1.00433 0.989984
1.00516 0.998126 0.987476
1.0052 0.998361 0.987282
1.00515 0.997228 0.988284
1.00516 0.996836 0.988659
1.00517 0.997848 0.987635
1.00512 0.996561 0.989036
1.00143 1.00321 0.988974
1.00511 0.997286 0.98813
1.0026 1.00353 0.986
1.00505 1.00177 0.984257
1.00514 1.00002 0.985456
1.00508 0.998152 0.987477
1.00014 1.00144 0.993014
1.00012 1.00374 0.990666
1.00138 1.00324 0.989086
1.00036 1.00487 0.989275
1.00127 1.00337 0.989369
0.999821 0.998693 0.996295
1.00496 0.999864 0.985999
1.00003 1.00137 0.993253
1.00031 1.00305 0.99112
1.00016 1.00395 0.990468
1.00469 1.0003 0.986022
1.00514 0.999782 0.985767
1.00136 1.00431 0.988127
1.00301 1.00365 0.985818
1.00486 1.00049 0.985808
1.00464 1.00064 0.985636
0.999925 0.998432 0.996385
1.00012 1.00068 0.993823
1.00081 1.00397 0.989419
1.00005 1.00304 0.991604
1.00026 1.00466 0.989575
1.00516 0.999428 0.986085
1.00505 1.00001 0.985661
1.00512 0.999083 0.986417
1.00172 1.00487 0.986887
1.00504 1.00008 0.985663
1.00392 1.00229 0.985168
1.00022 1.00029 0.994065
1.00015 1.00207 0.992469
1.00106 1.00447 0.988463
1 1.00423 0.990589
1.00066 1.00443 0.989423
1.00513 0.998564 0.986981
1.0051 0.999559 0.985968
1.00511 0.998334 0.986926
1.00215 1.00453 0.986308
1.00484 1.00077 0.985095
1.00025 1.00012 0.994164
1.00024 1.00131 0.992949
1.0002 1.00133 0.992996
1.00018 1.00204 0.992525
1.00021 1.00134 0.993052
1.00024 1.00006 0.99423
1.00026 1.00002 0.994232
1.00009 0.997975 0.997007
1.00026 1.00005 0.994207
1.00005 0.99808 0.997002
0.999892 0.996965 0.998155
0.999981 0.998237 0.996971
0.999761 0.997149 0.998667
0.999658 0.997292 0.999191
0.99989 0.998927 0.995921
0.999828 0.999377 0.995592
0.99961 0.997821 0.999038
0.9996 0.998166 0.99891
0.999795 0.999886 0.995177
0.999623 0.998521 0.998738
1.005 0.999714 0.986087
1.00503 0.999386 0.986373
1.00522 0.998729 0.986737
1.0052 0.998013 0.987524
1.00501 0.999105 0.986704
1.00402 0.999699 0.987832
1.00499 0.999078 0.98677
1.00517 0.997965 0.987658
1.00523 0.998384 0.987069
1.00517 0.996879 0.988663
1.00519 0.99908 0.986411
1.00518 0.997194 0.988249
1.00516 0.997993 0.987647
1.00509 0.996973 0.988688
1.00519 0.9968 0.988681
1.00518 0.995912 0.989572
1.00515 0.997899 0.987598
1.00515 0.996299 0.989208
1.00498 0.999111 0.986771
1.005 0.999271 0.986779
1.00517 0.997949 0.987615
1.0052 0.998649 0.986861
1.0008 1.00306 0.990317
1.0023 1.00338 0.987388
1.00425 1.00179 0.984981
1.00517 0.99915 0.986412
1.00516 0.997219 0.98834
1.00518 0.998532 0.986913
1.00517 1.00044 0.985022
1.00513 0.998369 0.987295
1.00103 1.00344 0.989561
1.00085 1.00409 0.989112
1.00017 1.00196 0.992489
1.00011 1.00425 0.990092
1.00516 0.998131 0.987472
1.0052 0.99842 0.987171
1.00515 0.997149 0.988398
1.00516 0.996928 0.98854
1.00143 1.00334 0.988933
1.00262 1.00357 0.986179
1.00499 1.00161 0.984221
1.00517 0.998003 0.987445
1.00512 0.996343 0.989184
1.00513 1.00006 0.985426
1.00511 0.997308 0.988137
1.00509 0.997942 0.987583
1.00145 1.0032 0.989065
1.00124 1.00327 0.989444
1.00034 1.00491 0.989241
1.00014 1.00143 0.992946
1.00009 1.00366 0.990773
1.00513 0.997024 0.988635
1.00516 0.9967 0.988842
1.00512 0.9958 0.989752
1.00511 0.996454 0.988942
1.00166 1.00371 0.988122
1.0051 0.996858 0.988762
1.00299 1.00335 0.985279
1.00513 1.00154 0.984058
1.00508 0.999563 0.985807
1.0001 1.00095 0.993379
1.0001 1.00303 0.991576
1.00026 1.00432 0.99007
1.00165 1.00278 0.98915
1.00058 1.00478 0.988874
1.00157 1.00246 0.989316
0.999923 0.998427 0.99639
1.00012 1.00065 0.993836
1.00516 0.99944 0.986071
0.999961 1.00314 0.991613
1.00074 1.004 0.98943
1.00017 1.00476 0.989514
1.00509 1.00001 0.985643
1.00512 0.999065 0.986387
1.00164 1.00494 0.986905
1.00402 1.00225 0.985189
1.00507 1.0001 0.985678
1.00021 1.00029 0.994067
1.0001 1.00208 0.992486
1.00104 1.00454 0.988433
0.999903 1.00435 0.990576
1.00057 1.00435 0.989467
1.00513 0.998578 0.986957
1.00511 0.999555 0.985934
1.00511 0.99837 0.986972
1.00215 1.0044 0.986209
1.00486 1.00092 0.985064
1.00021 1.00153 0.992884
0.999856 1.00345 0.991421
1.00137 1.00408 0.988228
1.00003 1.00486 0.98986
1.00109 1.00349 0.989323
1.00512 0.997061 0.988249
1.00511 0.999492 0.986001
1.00508 0.998273 0.98695
1.00329 1.00332 0.985793
1.00505 1.00061 0.984957
1.00024 1.00013 0.994161
1.00024 1.00132 0.992979
1.00006 1.00209 0.992466
1.00018 1.00135 0.992952
1.00019 1.00136 0.99305
1.00011 1.00209 0.992468
1.00003 1.00252 0.992254
1.00011 1.00215 0.992333
1.00017 1.00143 0.993027
1.0002 1.00016 0.994216
1.00024 1.00007 0.99423
1.00012 0.997941 0.996985
1.00026 1.00003 0.994233
1.0001 0.997993 0.997003
0.999966 0.996838 0.998153
1.00005 0.998085 0.997004
0.999881 0.996938 0.998161
0.999727 0.997095 0.999215
0.999944 0.998567 0.996198
0.999884 0.998972 0.9959
0.99966 0.997553 0.999105
0.999821 0.999435 0.995572
0.999622 0.997874 0.999012
0.999624 0.998214 0.998867
1.00519 0.999086 0.986391
1.00523 0.998399 0.987068
1.00518 0.997071 0.988371
1.00517 0.996694 0.988866
1.00516 0.997969 0.987666
1.00499 0.999079 0.986772
1.00516 0.998058 0.98757
1.00509 0.997084 0.988601
1.00519 0.996872 0.9886
1.00516 0.995725 0.989753
1.00515 0.997925 0.987589
1.00515 0.996081 0.989368
1.0051 0.997184 0.988545
1.00515 0.995676 0.989866
1.00517 0.995639 0.989809
1.00512 0.996188 0.989309
1.00516 0.998137 0.987467
1.0052 0.998476 0.987061
1.00516 0.997073 0.988511
1.00516 0.997023 0.98842
1.00149 1.0034 0.988892
1.00263 1.00361 0.986357
1.00496 1.00147 0.984184
1.00518 0.998158 0.987255
1.00512 0.996134 0.989332
1.00511 0.99733 0.988144
1.00513 1.00008 0.985397
1.0051 0.997735 0.987689
1.00153 1.00319 0.989045
1.00129 1.00308 0.989519
1.00031 1.00497 0.989207
1.00015 1.00141 0.992878
1.00007 1.00357 0.99088
1.00513 0.997055 0.988629
1.00517 0.996752 0.988795
1.00513 0.995873 0.98962
1.00171 1.00372 0.988087
1.0032 1.00341 0.985397
1.00511 1.00147 0.984007
1.00511 0.996488 0.988925
1.00508 0.999347 0.986076
1.00509 0.996811 0.988612
1.0001 1.00088 0.993457
1.00174 1.00269 0.989111
1.00143 1.00236 0.989733
1.00067 1.00484 0.988797
1.00025 1.00437 0.990086
1.0001 1.00301 0.991521
1.00516 0.996174 0.989223
1.00519 0.995553 0.989909
1.00513 0.995403 0.989886
1.00515 0.995739 0.98964
1.00205 1.00361 0.987594
1.00511 0.997656 0.987675
1.00419 1.00311 0.983866
1.00509 1.00152 0.983878
1.00014 1.00028 0.99398
1.0001 1.00241 0.992216
1.0002 1.0037 0.99085
1.00034 1.005 0.989176
1.00194 1.00217 0.98902
1.00155 1.00337 0.988632
1.0002 1.00028 0.994068
1.00007 1.00208 0.992502
1.00513 0.998592 0.986933
0.99981 1.00446 0.990564
1.00102 1.00458 0.988404
1.0004 1.00422 0.989512
1.00513 0.999551 0.9859
1.00511 0.998415 0.987018
1.00219 1.0043 0.986109
1.0049 1.00107 0.985034
1.00019 1.00152 0.992894
0.999918 1.00341 0.991438
1.0014 1.00414 0.988236
0.999909 1.00492 0.989816
1.00091 1.00333 0.989691
1.00512 0.997047 0.988447
1.0051 0.999476 0.986061
1.0051 0.998353 0.986932
1.0032 1.00343 0.985633
1.00507 1.00062 0.984852
0.999954 1.00239 0.992264
0.999783 1.00447 0.990386
1.00204 1.00334 0.98784
1.00027 1.00438 0.989065
1.00512 0.99558 0.98969
1.00493 0.99757 0.988219
1.00505 0.999602 0.985807
1.0038 1.00174 0.985099
1.00025 1.00131 0.99301
1.00007 1.00211 0.992484
0.999851 1.00276 0.992339
1.00017 1.00139 0.993048
1.00005 1.00213 0.992412
1.00017 1.00144 0.993021
0.99999 1.0025 0.99225
1.00012 1.00215 0.992364
0.999935 1.00268 0.992205
1.00007 1.0026 0.992028
1.00013 1.00225 0.992185
1.00016 1.00154 0.992922
1.00015 1.00025 0.994194
1.0002 1.00015 0.994214
1.00014 0.997938 0.996958
1.00024 1.00006 0.994229
1.00013 0.997966 0.99698
1.00002 0.996757 0.998133
1.0001 0.99801 0.997001
0.999959 0.996805 0.99816
0.99987 0.996915 0.998164
1.00002 0.998211 0.996425
0.999949 0.998588 0.996177
0.999729 0.99725 0.999166
0.999877 0.999021 0.995878
0.999665 0.997605 0.999086
0.99964 0.997923 0.998981
1.00515 0.99795 0.987581
1.00518 0.996946 0.988518
1.00514 0.995866 0.989527
1.00514 0.995542 0.989935
1.00509 0.997197 0.988514
1.00516 0.998124 0.987493
1.0051 0.997169 0.98856
1.00514 0.995762 0.989763
1.00517 0.995637 0.989784
1.00513 0.996155 0.989373
1.00515 0.996072 0.98951
1.00521 0.995095 0.990341
1.00516 0.995183 0.990056
1.00514 0.997086 0.988623
1.00518 0.996802 0.988749
1.00513 0.99595 0.989489
1.00177 1.00373 0.988051
1.00344 1.00346 0.985514
1.0051 1.00145 0.983956
1.00512 0.996516 0.988908
1.00509 0.996761 0.988461
1.00508 0.999136 0.986346
1.00182 1.0026 0.989072
1.00124 1.00229 0.99015
1.00077 1.00491 0.98872
1.00011 1.00081 0.993535
1.00022 1.00438 0.990102
1.0001 1.00298 0.991466
1.00517 0.996249 0.989262
1.00518 0.995495 0.989968
1.00513 0.995409 0.989916
1.00206 1.00363 0.987552
1.00395 1.00311 0.984242
1.00507 1.00133 0.984161
1.00514 0.995786 0.989573
1.00511 0.997619 0.987632
1.00013 1.00026 0.994121
1.00011 1.00241 0.992212
1.00174 1.00213 0.989157
1.00145 1.00346 0.989001
1.00032 1.00491 0.989344
1.00018 1.00372 0.990777
1.00519 0.995098 0.990382
1.00516 0.994995 0.990325
1.00512 0.995196 0.990142
1.00512 0.995955 0.98933
1.00223 1.00307 0.987036
1.00496 1.00009 0.985461
1.00489 1.00324 0.983397
1.00018 0.999904 0.994497
1.00019 1.00111 0.993329
1.00011 1.00173 0.9927
1.00005 1.00331 0.991382
1.00006 1.00442 0.99013
1.00007 1.00479 0.989417
1.00234 1.00102 0.989057
1.00154 1.00334 0.989702
1.00017 1.00153 0.992903
0.999974 1.0034 0.991455
1.00511 0.997038 0.988646
0.99995 1.00501 0.989771
1.00141 1.00424 0.988244
1.0007 1.00322 0.990057
1.00509 0.999445 0.986122
1.00511 0.998421 0.986916
1.00311 1.00349 0.985477
1.00508 1.00062 0.984748
0.999979 1.00246 0.992196
0.999855 1.00441 0.99041
1.00194 1.00341 0.987952
1.00056 1.00444 0.989133
1.00514 0.995453 0.989852
1.005 0.997598 0.988014
1.00506 0.99956 0.985839
1.00413 1.0019 0.984956
0.999806 1.00328 0.991735
1.00509 0.995174 0.99017
1.00036 1.00495 0.989592
1.00208 1.00369 0.987335
1.00495 0.996051 0.98983
1.00482 0.998749 0.986473
1.00463 1.00117 0.985139
1.00007 1.00215 0.992501
0.999836 1.00273 0.992317
0.999603 1.00324 0.992288
1.00017 1.00142 0.993016
1.00012 1.00215 0.992396
0.999912 1.00252 0.992245
1.00017 1.00153 0.99291
1.00012 1.00225 0.992208
0.999871 1.00273 0.992183
1.00011 1.00254 0.992065
1.00007 1.0026 0.992137
1.00003 1.0027 0.991997
1.00015 1.00277 0.991748
1.00025 1.00232 0.991962
1.00019 1.00166 0.992769
1.00012 1.00035 0.994149
1.00015 1.00026 0.994192
1.00015 0.997977 0.996908
1.0002 1.00016 0.994212
1.00014 0.99797 0.996953
1.00007 0.996695 0.998116
1.00013 0.997993 0.996976
1.00002 0.996721 0.998139
0.999953 0.996774 0.998164
1.00018 0.999811 0.994617
1.00008 0.997967 0.996577
1.00002 0.998229 0.996411
0.999814 0.996977 0.99921
0.999952 0.998618 0.996156
0.999728 0.997323 0.999148
0.999674 0.997661 0.999066
1.00514 0.99612 0.989437
1.00518 0.995636 0.989759
1.00513 0.995848 0.989659
1.0051 0.997152 0.988574
1.00517 0.995973 0.989598
1.00522 0.995092 0.990335
1.00515 0.995236 0.990064
1.00521 0.994916 0.990476
1.0052 0.994951 0.990426
1.00491 0.995057 0.990835
1.00517 0.996324 0.989302
1.00518 0.995428 0.990027
1.00514 0.995413 0.989945
1.00207 1.00365 0.98751
1.00371 1.00312 0.984621
1.00503 1.00113 0.984444
1.00514 0.995839 0.989507
1.00512 0.997577 0.987588
1.00157 1.00213 0.989295
1.00141 1.00351 0.989367
1.00021 1.00487 0.989513
1.00013 1.00022 0.994262
1.00013 1.00239 0.992207
1.00016 1.00377 0.990704
1.00518 0.995076 0.990355
1.00017 0.999917 0.994494
1.00016 1.00114 0.993269
1.00515 0.995005 0.990339
1.00512 0.9952 0.990118
1.002 1.00328 0.987462
1.00459 1.00311 0.983509
1.00498 0.999977 0.985396
1.00511 0.996051 0.989218
1.00012 1.00171 0.992876
1.00008 1.00327 0.991366
1.00255 1.00134 0.988826
1.001 1.00334 0.990026
1.00013 1.00478 0.989533
1.00003 1.00444 0.990212
1.00518 0.994955 0.990342
1.00509 0.994874 0.990561
1.00508 0.995133 0.989988
1.00494 0.996532 0.988726
1.00218 1.00267 0.987908
1.00453 1.00304 0.984141
1.00012 1.00113 0.993256
1.00017 1.00125 0.993219
1.00021 1.00198 0.992556
1.00008 1.00289 0.991559
0.999973 1.00393 0.991
1.00048 1.00445 0.989497
0.99962 1.00493 0.989899
1.00174 1.0011 0.99014
1.00001 1.00249 0.992128
0.999945 1.00433 0.990434
1.00515 0.995315 0.990014
1.00506 0.997653 0.987811
1.00083 1.0045 0.9892
1.00185 1.00343 0.988061
1.00507 0.999521 0.985868
1.00446 1.00208 0.984811
0.999851 1.00328 0.991693
1.00511 0.995024 0.990298
1.00015 1.00486 0.989697
1.0021 1.00352 0.98724
1.00498 0.995922 0.989744
1.00473 0.998826 0.986703
1.00465 1.00134 0.985179
0.999847 1.00445 0.990858
1.00457 0.995019 0.991844
1.00129 1.00435 0.989044
1.00288 1.00347 0.986719
1.00478 0.996748 0.988986
1.00407 1.00066 0.986124
0.999548 0.997058 0.991704
0.999813 1.00273 0.992297
0.999529 1.00332 0.992281
0.999816 1.00335 0.991967
1.00017 1.00154 0.992898
1.00011 1.00227 0.99223
1.00015 1.00249 0.992102
0.99983 1.00273 0.99216
1.00018 1.00165 0.992767
1.00023 1.00235 0.991957
1.00006 1.00266 0.992006
1.00013 1.0028 0.991752
1.00008 1.00265 0.991997
1.00019 1.00247 0.99201
1.00027 1.00293 0.991404
1.00019 1.00284 0.991622
1.00035 1.00244 0.991693
1.00022 1.00172 0.992534
1.00027 1.00228 0.992113
1.00021 1.00179 0.992453
1.00011 1.0004 0.9941
1.00011 1.00035 0.994148
1.00017 0.998062 0.996306
1.00015 1.00026 0.99419
1.00016 0.998017 0.996627
1.00003 0.996647 0.999189
1.00014 0.998004 0.996949
1.00006 0.996656 0.998122
1.00002 0.996687 0.998143
1.00014 0.999744 0.994724
1.00018 0.999792 0.994621
1.0001 0.997817 0.996693
1.00006 0.997971 0.996829
0.999888 0.996769 0.999245
1.00003 0.998243 0.996396
0.999806 0.99704 0.999198
0.999729 0.997386 0.999129
1.00515 0.995291 0.990072
1.00524 0.995082 0.990329
1.00518 0.995874 0.989686
1.00521 0.994918 0.990468
1.00518 0.99496 0.990407
1.00492 0.995185 0.990517
1.0052 0.994944 0.990397
1.00086 0.995803 0.988449
1.00414 0.994934 0.993414
1.00007 1.00113 0.993497
1.00517 0.995054 0.990328
1.00515 0.995032 0.990353
1.00511 0.9952 0.990093
1.00175 1.00345 0.987887
1.0043 1.00303 0.983621
1.00501 0.999864 0.985335
1.00508 0.996165 0.989106
1.00283 1.00151 0.988599
1.00043 1.00337 0.990356
1.00022 1.00474 0.98965
1.00016 0.999945 0.994491
1.00001 1.00446 0.990295
1.00012 1.00168 0.993052
1.0001 1.00324 0.991351
1.00015 1.00113 0.993209
1.00517 0.994947 0.990364
1.00011 1.00111 0.993352
1.00016 1.00127 0.993216
1.00021 1.00197 0.992461
1.00506 0.994893 0.99055
1.00509 0.995231 0.989921
1.0023 1.0026 0.987945
1.00422 1.00259 0.984554
1.00487 0.996868 0.98866
1.00005 1.00291 0.991663
1.00001 1.00392 0.990838
1.00162 1.00166 0.989984
0.999894 1.00482 0.989955
1.00044 1.00434 0.989594
1.00513 0.994951 0.990541
1.00509 0.994893 0.990525
1.00504 0.996043 0.989171
1.00458 0.998766 0.988232
1.00145 1.00297 0.989133
1.0001 1.00214 0.992284
1.00023 1.00216 0.992019
1.00004 1.00293 0.991682
0.999908 1.0041 0.991074
0.999986 1.00433 0.990423
0.999979 1.0046 0.989807
1.00019 1.00392 0.990271
0.999915 1.00325 0.99165
0.999911 1.00478 0.989803
1.00513 0.994944 0.990424
1.00503 0.9958 0.989658
1.00469 0.998869 0.986933
1.00212 1.00333 0.987148
1.00469 1.00149 0.985219
0.999828 1.00439 0.990987
1.00448 0.995018 0.991952
1.00093 1.00424 0.98921
1.00262 1.00354 0.986702
1.00474 0.996588 0.989313
1.0042 1.00062 0.986076
0.999556 0.997108 0.989749
0.999958 1.00448 0.990638
1.00373 0.996033 0.992056
1.00088 1.00396 0.989373
1.00257 1.00232 0.987366
1.00408 0.998009 0.988013
1.00043 0.99562 0.955433
0.996641 0.995953 0.974515
0.99745 1.00236 0.990772
0.999817 0.996797 0.911919
0.994797 0.998046 0.892669
0.999463 1.00335 0.992274
0.999611 1.00351 0.992021
1.00004 1.00261 0.992186
1.00018 1.00165 0.992764
1.00027 1.00228 0.991951
1.00013 1.0028 0.991756
1.00013 1.0026 0.991997
1.00007 1.00274 0.991876
1.00023 1.00279 0.991575
1.00022 1.0017 0.992605
1.00034 1.00242 0.991709
1.0002 1.00246 0.991958
1.00022 1.00295 0.991462
1.00028 1.00295 0.991446
1.00006 1.00276 0.991754
1.00033 1.00288 0.991362
1.00038 1.00242 0.991607
1.00023 1.00179 0.99244
1.00035 1.00241 0.991784
1.00027 1.00249 0.991838
1.00014 1.00231 0.992183
1.00026 1.0023 0.992046
1.00022 1.00164 0.99271
1.00022 1.0018 0.992445
1.00015 1.00039 0.994058
1.00011 1.00041 0.994098
1.00016 0.998132 0.996279
1.00011 1.00036 0.994146
1.00017 0.998071 0.996305
1.00004 0.996655 0.999181
1.00017 0.998055 0.996347
1.00006 0.996649 0.998638
1.00006 0.996619 0.998126
1.0001 0.999734 0.99481
1.00014 0.999744 0.994723
1.00012 0.997712 0.996766
1.00018 0.99977 0.994625
1.0001 0.997785 0.996947
0.999944 0.996595 0.999273
1.00007 0.998009 0.996545
0.999877 0.996853 0.999228
0.999801 0.997095 0.999186
1.00515 0.994973 0.990388
1.00521 0.994921 0.99046
1.00492 0.99526 0.990198
1.00072 0.995844 0.98855
1.00518 0.994944 0.99038
1.00404 0.995394 0.992959
1.00493 0.996227 0.991194
0.99721 0.99599 0.972947
1.00108 0.996291 0.990156
1.00008 1.00115 0.993465
1.0001 1.00109 0.993492
0.999999 1.00217 0.992561
1.00007 1.00208 0.992567
1.00517 0.994926 0.990384
1.00504 0.994898 0.990538
1.0051 0.995326 0.989853
1.00264 1.00237 0.987983
1.00386 1.00198 0.984962
1.00485 0.997235 0.98859
1.0014 1.00236 0.989825
1.00022 1.00473 0.990008
1.00037 1.00416 0.98969
1.00014 1.00131 0.993213
1.00003 1.0039 0.990675
1.00006 1.00291 0.991769
1.00012 1.00111 0.993449
1.00017 1.00201 0.992364
1.00514 0.994927 0.990527
1.00008 1.00219 0.992404
1.00021 1.00219 0.992159
0.99994 1.00279 0.991959
1.00508 0.994887 0.990456
1.005 0.99588 0.989191
1.00184 1.00245 0.989057
1.00428 0.998626 0.988522
0.999952 1.00401 0.991014
1.00012 1.0043 0.990133
1.00018 1.00423 0.990267
1.00034 1.0045 0.989752
1.0048 0.994804 0.991258
1.00508 0.995382 0.990198
1.00491 0.996729 0.989108
1.00214 1.00057 0.990525
0.999995 1.00331 0.991359
1.00005 1.00346 0.99112
0.999501 1.00453 0.991007
0.999676 1.00518 0.990002
1.00002 0.994932 0.949822
0.999792 1.00427 0.991116
1.0005 1.00419 0.989375
1.00442 0.994951 0.992054
1.00468 0.996428 0.989639
1.00432 1.00054 0.986025
1.00231 1.00363 0.986684
0.999688 0.996927 0.987744
0.999822 1.00455 0.990741
1.00389 0.995798 0.992056
1.00074 1.00404 0.989425
1.00283 1.00199 0.987352
1.00431 0.998078 0.988127
1.00153 0.995858 0.948459
0.996429 0.996046 0.970483
0.997371 1.00215 0.990567
0.999797 0.997535 0.914804
0.994726 0.997981 0.883851
0.999773 1.00372 0.991648
0.999878 0.995317 0.920013
0.995336 0.997774 0.894359
1.00243 1.00007 0.990643
1.00038 1.00374 0.990331
1.0025 1.00099 0.988146
0.996908 1.00365 0.990527
1.00009 0.997151 0.953535
0.994895 0.99718 0.968587
0.998417 0.998747 0.91801
0.994768 0.999345 0.891809
0.99943 1.00368 0.992075
0.999898 1.0029 0.992111
0.999861 1.00186 0.99351
1.00022 1.00167 0.992675
1.00035 1.00244 0.991725
1.00015 1.00286 0.991528
1.00018 1.00296 0.99152
1.00021 1.00246 0.991907
1.00024 1.00176 0.992449
1.00023 1.00302 0.991392
1.00032 1.00286 0.991385
1.00039 1.0024 0.991665
1.0001 1.00266 0.991816
1.00021 1.00306 0.991505
0.999943 1.00271 0.991903
1.00043 1.00286 0.991147
1.00042 1.00245 0.991623
1.00037 1.00239 0.991769
1.00027 1.00249 0.991845
1.00045 1.00249 0.991532
1.00011 1.00268 0.991881
1.00014 1.00241 0.991908
0.99975 1.00358 0.991545
1 1.00255 0.992178
1.00015 1.00232 0.99218
1.00018 1.00161 0.992825
1.00025 1.00233 0.99198
1.00023 1.00165 0.992651
1.0002 1.00033 0.994039
1.00023 1.00181 0.992437
1.00015 1.00039 0.994059
1.00013 0.998146 0.996848
1.00011 1.00041 0.994097
1.00015 0.998119 0.996564
1.00009 0.996687 0.998041
1.00017 0.998082 0.996303
1.00004 0.996664 0.999178
1.00009 0.996653 0.998085
1.00011 1.00124 0.993335
1.00007 0.99977 0.994819
1.0001 0.999726 0.994811
1.00013 0.997672 0.996787
1.00015 0.999743 0.994722
1.00013 0.997687 0.996765
0.999989 0.996491 0.999285
1.00008 0.997792 0.997181
0.999958 0.996668 0.998763
0.99992 0.996902 0.998193
1.00045 0.995908 0.988676
1.00516 0.99495 0.990365
1.00393 0.996055 0.992502
0.996609 0.995841 0.974431
1.00085 0.99621 0.990412
1.005 0.995688 0.990954
1.00348 0.99664 0.989693
0.997106 0.996698 0.977227
1.00005 0.995593 0.953588
0.999378 0.998039 0.920917
0.994658 0.998036 0.891359
0.999964 1.00213 0.992497
1.00009 1.00115 0.993464
1.00014 1.00105 0.993486
1.00001 1.00218 0.992517
0.999956 1.00298 0.991878
1.00017 1.00263 0.991902
1.00008 1.00234 0.992319
1.00002 1.00217 0.992495
1.00516 0.994902 0.990511
1.00507 0.994879 0.990382
1.00502 0.995628 0.989214
1.00203 1.00212 0.988983
1.00404 0.998555 0.988813
1.00017 1.0044 0.990263
1.00064 1.00443 0.989699
1.0003 1.00432 0.989845
1.00016 1.0022 0.992299
0.999958 1.00399 0.990952
1.00008 1.00226 0.992525
0.999957 1.0026 0.992236
1.00481 0.994832 0.991305
0.999986 1.00332 0.991442
1.00004 1.00344 0.991278
1.00503 0.995213 0.990105
1.00436 0.996541 0.989565
1.00215 1.00045 0.990418
0.999732 1.00469 0.990618
0.999955 1.00487 0.990052
1.00315 0.996998 0.991838
1.00463 0.995946 0.990865
1.00375 0.996095 0.991068
1.00125 1.00125 0.9908
1.00001 1.00398 0.990672
0.999695 1.0044 0.990768
0.999676 1.0052 0.990294
0.999917 0.994859 0.920776
1.00055 0.995081 0.958008
0.999741 1.00468 0.990845
1.00064 1.00402 0.989478
1.00395 0.995613 0.99206
1.00452 0.998198 0.988241
1.0031 1.00175 0.987342
1.00049 0.995226 0.953772
0.996911 0.996332 0.969768
0.997248 1.00192 0.990337
0.998948 0.997231 0.922474
0.994702 0.997959 0.874882
0.999741 1.00367 0.991666
0.999894 0.995862 0.91898
0.995344 0.997706 0.889973
1.00239 0.999914 0.990667
1.00031 1.00366 0.990414
1.00238 1.00107 0.988734
0.997259 1.00339 0.991149
1.00124 0.997021 0.948153
0.994893 0.996577 0.972345
0.998556 0.999305 0.918582
0.99494 0.99919 0.889712
0.999345 1.00309 0.993339
0.995573 0.99716 0.894941
0.995126 0.999057 0.90992
0.999793 1.00185 0.99269
0.999432 1.00383 0.992281
0.996344 1.00295 0.99185
0.994827 0.999325 0.972123
0.998131 0.999027 0.946347
0.99526 0.999889 0.9239
0.994786 0.997172 0.898854
0.999851 1.00309 0.992037
0.999951 1.00166 0.993465
0.999533 1.00127 0.994071
1.00025 1.00174 0.992457
1.00038 1.00238 0.991723
1.00031 1.00283 0.991407
1.0002 1.00309 0.991337
1.00009 1.0026 0.991879
1.00041 1.00246 0.991615
1.0002 1.00301 0.991465
1.00044 1.00286 0.991154
0.999713 1.0029 0.992047
0.998166 1.00382 0.993667
1.00022 1.00324 0.991247
1.00057 1.00278 0.991094
1.00039 1.00237 0.991755
1.0003 1.00247 0.991851
1.00044 1.00251 0.991521
1.00013 1.00269 0.991862
1.00018 1.00238 0.99197
0.999906 1.00312 0.991748
1.00022 1.00248 0.991755
0.999988 1.00258 0.992079
1.00018 1.00294 0.991514
0.99974 1.00492 0.989872
0.999524 1.00406 0.991259
0.999778 1.00359 0.991538
0.999888 1.00285 0.992057
1.00002 1.00255 0.992173
1.00011 1.00167 0.992857
1.00014 1.00236 0.992176
1.00019 1.0016 0.992829
1.00023 1.00025 0.994046
1.00025 1.00166 0.992592
1.0002 1.00032 0.994044
1.00012 0.998157 0.996853
1.00014 1.0004 0.99406
1.00014 0.998128 0.996566
1.00006 0.996696 0.998053
1.00017 0.998098 0.996279
1.00003 0.996694 0.999172
1.00004 0.996675 0.999175
1.00014 1.00135 0.993378
1.00008 0.999844 0.994734
1.0001 1.00124 0.993338
1.00014 0.997659 0.996782
1.00008 0.999761 0.994821
1.0001 0.999725 0.994812
1.00014 0.997664 0.996785
1.00002 0.996433 0.999287
1.00011 0.997674 0.997246
1.00001 0.996506 0.998795
0.999987 0.996661 0.998279
0.999847 0.996059 0.913599
0.995019 0.997353 0.893684
0.997647 0.995648 0.974904
1.00067 0.995728 0.990681
1.00506 0.99497 0.990716
0.996625 0.995748 0.978661
1.00359 0.996021 0.98998
1.00116 0.995933 0.953087
0.999822 0.997394 0.913286
0.994677 0.997975 0.882414
0.998404 0.995542 0.982154
0.999806 0.997731 0.954023
0.998369 0.99881 0.917099
0.994766 0.998582 0.890936
1.00007 1.00306 0.99157
0.999979 1.00214 0.99257
1.00011 1.00111 0.993464
1.00003 1.00215 0.992473
0.999949 1.00288 0.991969
1.00019 1.00299 0.991522
1.00015 1.00262 0.991904
1.00018 1.0026 0.991824
1.0001 1.00232 0.99224
0.999987 1.00225 0.992425
1.0048 0.994878 0.99136
1.0051 0.995095 0.99003
1.00373 0.996387 0.990029
1.00204 1.00052 0.99031
1.00024 1.00469 0.990101
0.999935 1.00484 0.990229
1.00002 1.00339 0.991437
0.999927 1.00334 0.991524
1.00327 0.996462 0.992063
0.999981 1.00409 0.990607
0.99969 1.00451 0.990648
1.00457 0.995899 0.990588
1.00323 0.996017 0.992005
1.0016 1.00139 0.990185
0.999895 1.00517 0.990135
1.00032 0.998185 0.993128
1.00211 0.996573 0.994566
0.999806 1.0035 0.990881
0.999851 1.00439 0.990476
0.999817 1.00467 0.990251
0.999595 1.00513 0.99032
0.994832 0.997128 0.908893
0.9999 0.994894 0.923779
1.00003 0.994943 0.949736
0.999609 1.00379 0.991683
1.00023 1.00354 0.990496
1.00239 0.999607 0.990697
1.00232 1.00113 0.989318
0.999862 0.995563 0.924403
0.999823 0.997036 0.948229
0.994894 0.995798 0.968703
0.99759 1.00235 0.991717
0.998551 0.998756 0.910211
0.995328 0.997574 0.891186
0.995009 0.999018 0.894543
0.999101 1.00302 0.993339
0.995489 0.996415 0.900295
0.99536 0.999216 0.909372
1.00009 1.00189 0.992616
0.999105 1.00389 0.992276
0.996162 1.00058 0.99457
0.994846 0.998361 0.970673
0.997433 0.998963 0.954342
0.997291 0.999902 0.915403
0.994786 0.997133 0.90396
0.998103 1.00274 0.995517
0.995287 0.996831 0.920792
0.994699 0.997073 0.921205
0.995995 1.00236 0.999156
0.99482 1 0.978584
0.995469 0.999999 0.954293
0.994815 0.999925 0.913635
0.994865 0.99523 0.901554
1.00002 1.0015 0.993419
0.999588 1.00133 0.994298
0.997919 1.00319 0.995677
1.00041 1.00249 0.991606
1.00046 1.00286 0.991161
1.00022 1.00292 0.991424
0.999503 1.0031 0.992194
1.00051 1.00283 0.991078
1.00018 1.00326 0.991246
0.998133 1.00383 0.994068
0.996232 1.00518 0.996278
0.998642 1.00419 0.993107
1.00037 1.00302 0.991236
1.00045 1.00252 0.99151
1.00013 1.0027 0.991843
1.00019 1.00238 0.992031
1.00022 1.0025 0.991786
0.999916 1.00315 0.991748
1.00003 1.00258 0.992101
1.00009 1.00286 0.991839
0.99948 1.00236 0.993075
1.00093 1.00098 0.991899
1.00022 1.00281 0.991634
0.999921 1.004 0.99064
1.00108 1.0049 0.987963
0.999792 1.00463 0.990802
0.999592 1.00491 0.990272
0.999619 1.00403 0.991325
0.999753 1.00322 0.991744
0.999808 1.00361 0.991532
0.999942 1.00282 0.992054
1.00006 1.00186 0.992761
1.00007 1.00253 0.992168
1.00014 1.00166 0.992854
1.00023 1.00026 0.994038
1.0002 1.00159 0.992833
1.00023 1.00026 0.994048
1.0001 0.998165 0.996872
1.0002 1.00032 0.994048
1.00013 0.998142 0.996576
1.00001 0.996784 0.998059
1.00016 0.998103 0.996282
1.00004 0.996713 0.998611
1.00003 0.996702 0.999173
1.00015 1.0016 0.992916
1.00012 0.999937 0.994591
1.0001 1.00139 0.993217
1.00015 0.997688 0.996737
1.00008 0.999836 0.994736
1.00007 1.00129 0.99334
1.00003 0.996409 0.999285
1.00014 0.997657 0.996783
1.00008 0.999745 0.994823
1.00014 0.997657 0.996782
1.00002 0.996444 0.999287
0.999987 0.996498 0.999284
0.994962 0.995525 0.902055
0.999873 0.995598 0.918224
0.995198 0.999433 0.90936
0.995219 0.997664 0.89115
0.997092 0.995167 0.9758
1.00361 0.996039 0.990283
1.00044 0.996391 0.952108
0.999818 0.996972 0.921679
0.994706 0.998047 0.87339
0.99834 0.996208 0.981109
1.00124 0.997367 0.94499
0.998582 0.99913 0.917737
0.994776 0.999038 0.886222
0.99533 0.997219 0.976707
0.99781 0.999126 0.94677
0.99586 0.999666 0.911368
0.994813 0.996721 0.893288
1.00004 1.00367 0.991041
1.00004 1.00303 0.991671
0.999957 1.00219 0.992641
0.999926 1.00278 0.992061
1.00032 1.00323 0.990933
1.00018 1.00292 0.991597
1.00011 1.00262 0.991905
1.00032 1.0026 0.991691
1.00021 1.00254 0.991914
1.00012 1.00232 0.992159
1.00349 0.996162 0.992272
1.00441 0.995824 0.990312
1.00283 0.99597 0.99293
1.00204 1.00124 0.989582
1.00004 1.00514 0.989978
0.999756 1.00461 0.990528
0.999983 1.00414 0.990543
0.999972 1.00434 0.990423
1.00059 0.99816 0.993435
0.99991 1.00471 0.990244
0.999774 1.00514 0.990309
1.00227 0.996518 0.99412
1.00038 1.00339 0.990729
0.998644 0.997095 0.994732
0.998501 0.998423 0.999422
0.999055 1.00478 0.991447
0.99998 1.00478 0.989944
0.999603 1.00504 0.990341
0.994762 0.996773 0.926548
0.994796 0.996851 0.907216
0.999888 0.994871 0.91615
0.998888 1.00292 0.993338
0.998896 1.00395 0.992255
1.00028 1.00203 0.992552
0.995477 0.995516 0.901499
0.997864 0.99887 0.947042
0.994852 0.997624 0.971219
0.99631 0.999477 0.997501
0.99607 0.999894 0.923801
0.995718 0.999392 0.908835
0.994812 0.99708 0.904096
0.998045 1.00276 0.995739
0.995367 0.995846 0.923607
0.99469 0.996997 0.921174
0.996243 1.00274 0.998263
0.994844 0.99985 0.979781
0.996154 0.999957 0.946894
0.994845 0.995862 0.902639
0.994857 0.999946 0.919676
0.996311 1.00402 0.998063
0.994561 0.994617 0.941947
0.994724 0.996042 0.924651
0.994804 0.996821 0.8936
0.994908 1.00125 0.993761
0.995184 0.999901 0.957194
0.994919 0.999989 0.918088
0.999722 1.00136 0.994526
0.998181 1.00317 0.995181
0.99557 1.00521 0.997967
1.00048 1.00286 0.991062
1.00012 1.00329 0.991244
0.998083 1.00373 0.994461
1.00029 1.00292 0.991308
0.998703 1.00403 0.993095
0.996274 1.00445 0.996721
0.99613 1.00511 0.996935
0.998919 1.00329 0.993203
1.00021 1.0025 0.991817
0.999922 1.00317 0.991749
1.00008 1.00258 0.992124
0.999623 1.00246 0.992974
1.00008 1.00277 0.991841
0.999784 1.00233 0.992813
1.00034 1.0014 0.992585
1.00073 1.00289 0.990226
1.00028 1.00266 0.991755
1.00028 1.00392 0.990466
1.00139 1.00393 0.987774
1.00148 1.00441 0.987454
1.00003 1.00488 0.989908
1.00089 1.00484 0.98811
0.99987 1.00378 0.99127
0.999717 1.00468 0.990732
0.999434 1.00493 0.990673
0.999715 1.004 0.991392
0.999797 1.00316 0.991828
1.00003 1.00208 0.992586
0.999986 1.00278 0.992051
1.00009 1.00184 0.992762
1.0002 1.00039 0.993972
1.00016 1.00165 0.992851
1.00024 1.00026 0.994037
1.00005 0.998203 0.996897
1.00024 1.00026 0.994051
1.00011 0.998153 0.9966
0.999948 0.996878 0.998082
1.00015 0.998101 0.996297
0.999991 0.996792 0.998615
0.999998 0.996758 0.999175
1.00024 1.00178 0.992394
1.00016 1.00014 0.994108
1.00016 1.00161 0.992914
1.00016 0.997779 0.996627
1.00012 0.999946 0.994467
1.00008 1.00141 0.993056
1.00003 0.996449 0.999272
1.00015 0.997687 0.996741
1.00008 0.999823 0.994738
1.00003 0.996417 0.999286
1.00014 0.997655 0.996784
1.00001 0.99645 0.999287
0.99496 0.995276 0.923925
0.994949 0.996063 0.905834
0.999856 0.996069 0.919221
1.00042 1.00264 0.99138
0.994717 0.997804 0.925044
0.995262 0.999236 0.908942
0.995338 0.997664 0.894532
0.998398 0.996615 0.979675
0.999602 0.997862 0.953749
0.998405 0.998576 0.908899
0.994752 0.999401 0.88866
0.996115 0.997206 0.97279
0.997457 0.998895 0.954008
0.997298 0.999894 0.914909
0.994802 0.997234 0.894993
0.994882 0.998028 0.968972
0.995416 0.999988 0.953075
0.994866 0.999938 0.919306
0.994855 0.995674 0.901341
1.00021 1.00398 0.990403
1.00006 1.00371 0.990945
1.00004 1.00299 0.991772
1.00034 1.00316 0.99095
1.00031 1.0032 0.991051
1.00017 1.00286 0.991673
1.00034 1.00259 0.99172
1.00024 1.00251 0.992003
1.00076 0.9982 0.993715
1.00238 0.996533 0.993651
1.00003 1.00431 0.99037
1.00093 1.00326 0.990566
0.999997 1.00514 0.990296
0.99991 1.00476 0.990237
0.999997 1.00475 0.990027
0.998364 0.997824 0.995236
0.999763 1.00508 0.99025
0.999571 1.00409 0.991508
0.998631 0.998099 0.999436
0.999956 1.0047 0.99003
0.996941 0.998505 0.995297
0.996621 0.99957 1.00195
0.999189 1.00527 0.991017
0.999952 1.00498 0.990191
0.99457 0.994917 0.946478
0.994774 0.996998 0.927009
0.994766 0.996915 0.905545
0.997893 1.0028 0.995982
0.996222 1.00276 0.99735
0.995364 0.995063 0.926372
0.995533 0.999995 0.954819
0.994843 0.999023 0.976503
0.994846 0.999932 0.918799
0.994687 0.996934 0.921142
0.994834 0.996414 0.903704
0.996421 1.00383 0.997804
0.994577 0.99471 0.941859
0.994713 0.995783 0.928967
0.994896 1.00217 0.99698
0.994798 0.997345 0.895217
0.995089 0.999289 0.952732
0.995143 0.99998 0.922171
0.995173 1.0048 0.998326
0.994622 0.994639 0.946615
0.994712 0.997962 0.925223
0.994766 0.998791 0.89118
0.995841 0.999944 0.918594
0.994895 0.998733 0.987002
0.995612 1.0009 0.945058
0.998378 1.00294 0.994675
0.995682 1.00521 0.997632
0.995007 1.00498 0.999944
1.00021 1.00283 0.99138
0.99874 1.00405 0.993082
0.996391 1.00363 0.997162
0.99903 1.00337 0.993143
0.9963 1.00412 0.996971
0.997779 1.0038 0.99533
0.999787 1.00254 0.992872
1.00002 1.00272 0.991843
0.999912 1.00242 0.992853
0.999457 1.00409 0.991138
0.999724 1.00179 0.993265
1.00053 1.00275 0.990607
1.00153 1.00379 0.988153
1.00368 1.00268 0.985373
1.00064 1.00383 0.990289
1.00162 1.00405 0.987482
1.00239 1.0033 0.987745
1.0003 1.00489 0.988863
1.0015 1.00428 0.987707
0.999787 1.00452 0.990558
1.00008 1.00489 0.989873
1.0007 1.00478 0.988258
1.00001 1.0025 0.992188
0.999824 1.00377 0.991265
0.999645 1.00476 0.990662
0.999843 1.0031 0.991912
1.00006 1.00206 0.992581
1.00016 1.00059 0.993837
1.00011 1.00183 0.992762
1.00021 1.00038 0.99397
1.00001 0.99833 0.996345
1.00025 1.00027 0.994035
1.00008 0.998199 0.99635
0.999822 0.996976 0.999195
1.00012 0.998129 0.996321
0.999931 0.996883 0.998627
0.999953 0.996831 0.999178
1.00028 1.00193 0.992165
1.00022 1.00038 0.99375
1.00024 1.0018 0.99248
1.00017 0.997922 0.996472
1.00017 1.00015 0.994064
1.00016 1.00162 0.992913
1.00002 0.996544 0.999244
1.00016 0.997775 0.996636
1.00012 0.99996 0.994342
1.00003 0.996435 0.999277
1.00015 0.997686 0.996745
1.00003 0.996423 0.999286
0.994617 0.994811 0.942538
0.994941 0.996146 0.923717
0.99493 0.996781 0.906022
1.00038 1.00266 0.991463
1.00038 1.0026 0.991428
1.00043 1.00298 0.991123
0.994743 0.995786 0.924212
0.9947 0.997251 0.925016
0.995447 0.999384 0.908521
0.995713 0.996949 0.975067
0.99831 0.999323 0.94576
0.995266 0.999899 0.923719
0.994821 0.997811 0.891754
0.995027 0.997677 0.972032
0.996427 0.999988 0.950512
0.994827 0.999959 0.920412
0.994846 0.995945 0.902314
0.994888 0.99813 0.967801
0.995482 0.999999 0.95434
0.994927 0.999993 0.918562
0.994798 0.997488 0.898546
1.00035 1.00378 0.990359
1.0002 1.00397 0.990401
1.00009 1.00373 0.99085
1.00036 1.00319 0.990928
1.00029 1.00317 0.991169
1.00037 1.00258 0.991748
0.998011 0.998249 0.995726
0.99836 0.998028 0.999466
1.00003 1.00471 0.990111
1.0001 1.00323 0.991571
0.999878 1.0051 0.990161
1.00007 1.00468 0.989895
0.999669 1.00498 0.990239
0.996736 0.997943 0.99566
0.999271 1.0046 0.991638
0.99622 1.00054 1.00131
0.999971 1.00459 0.990427
0.99554 0.997527 0.99614
0.996659 1.00248 0.99797
0.99901 1.00523 0.991832
0.994586 0.994893 0.952095
0.994538 0.994902 0.948036
0.994778 0.996941 0.92745
0.996681 1.00386 0.997537
0.995038 1.00213 0.994487
0.994577 0.994817 0.941769
0.994888 0.999153 0.956234
0.994908 0.999978 0.914442
0.994694 0.995574 0.933284
0.994809 0.997935 0.892066
0.995258 1.00478 0.998663
0.994619 0.994645 0.948273
0.994697 0.997355 0.9252
0.994926 0.998893 0.98282
0.994763 0.999162 0.886615
0.994827 0.999975 0.919639
0.995364 1.00067 0.953705
0.994947 1.00365 0.998104
0.994618 0.99473 0.942848
0.995271 0.999542 0.909716
0.994644 0.998061 0.892198
0.996132 0.999046 0.911342
0.995993 1.00001 0.953289
0.995701 0.999917 0.976134
0.995912 1.00525 0.997348
0.995259 1.0038 0.9999
0.996516 1.00358 0.998415
0.999127 1.00339 0.993085
0.996475 1.00326 0.997017
0.997067 1.00412 0.995694
0.999591 1.00288 0.993064
1.00005 1.00255 0.992893
1.00035 1.00383 0.990752
1.00119 1.00479 0.987794
1.00033 1.00264 0.990997
1.00168 1.00382 0.987889
1.00372 1.00392 0.984815
1.00488 1.00219 0.983808
1.00315 1.00227 0.986335
1.00355 1.00295 0.98534
1.00185 1.00415 0.987192
1.00187 1.00357 0.988355
1.00206 1.00298 0.988282
0.999979 1.00502 0.98939
1.00043 1.0049 0.988987
1.00153 1.00415 0.987964
0.99995 1.00347 0.991306
0.999902 1.00443 0.990568
1.00011 1.00487 0.989836
1.00011 1.00091 0.9936
1.00006 1.00247 0.992178
0.999782 1.00377 0.991261
1.00009 1.00205 0.992576
1.00017 1.0006 0.993834
0.999921 0.998528 0.996293
1.00022 1.00039 0.993968
1.00001 0.998328 0.996342
0.999755 0.997137 0.999186
1.00008 0.998187 0.996347
0.999853 0.997002 0.998639
0.999893 0.99693 0.999183
1.00034 1.00202 0.992129
1.00029 1.00057 0.993646
1.0003 1.00193 0.992215
1.00016 0.9981 0.996293
1.00023 1.00038 0.99383
1.00025 1.00182 0.992566
0.999991 0.996681 0.999208
1.00016 0.997914 0.996483
1.00017 1.00017 0.994021
1.00002 0.996523 0.999253
1.00015 0.997773 0.996644
1.00004 0.996429 0.999281
0.994617 0.994624 0.946347
0.99458 0.994681 0.942449
0.99493 0.996735 0.923615
1.00028 1.00277 0.991415
1.00024 1.00322 0.991178
1.00033 1.00267 0.991546
1.00035 1.00264 0.991433
1.00036 1.00303 0.991094
1.00029 1.00296 0.991275
1.00051 1.00308 0.990878
0.994717 0.996909 0.920662
0.994724 0.995865 0.928586
0.994682 0.996583 0.924991
0.994825 0.99617 0.903282
0.994864 0.997753 0.969327
0.995242 0.999994 0.94873
0.994866 0.999942 0.924612
0.994877 0.998445 0.967177
0.995046 1.00001 0.947608
0.995109 0.999987 0.923119
0.994791 0.997223 0.90371
0.995547 0.996881 0.971123
0.994951 1.00061 0.9469
0.994816 0.999933 0.914247
0.99477 0.999413 0.891163
0.999949 1.00404 0.990762
1.00032 1.00378 0.990358
1.00019 1.00398 0.990399
1.00039 1.00318 0.990907
0.996723 0.997741 0.996044
0.99616 1.00129 1.00068
1.00009 1.00468 0.989762
0.999664 1.00502 0.990287
0.999529 1.0042 0.992261
0.999856 1.00456 0.990427
0.998856 1.00523 0.991826
0.995435 0.998672 0.993498
0.996185 1.00357 0.998323
0.998324 1.00484 0.992616
0.995244 0.998875 0.991972
0.997628 1.00462 0.996332
0.994594 0.994857 0.946548
0.994589 0.99481 0.954634
0.994508 0.994792 0.94959
0.995149 1.0047 0.998942
0.994921 0.99756 0.987897
0.99462 0.994653 0.949951
0.996727 1.0009 0.945679
0.994884 0.999957 0.923702
0.994681 0.996697 0.925173
0.994736 0.999454 0.889039
0.994931 1.00234 0.998583
0.9946 0.994695 0.942777
0.995418 0.999136 0.909286
0.994916 1.00066 0.977505
0.99467 0.997968 0.883333
0.997357 0.999902 0.914551
0.994968 1 0.947036
0.995377 1.0046 0.99239
0.99521 0.994845 0.924536
0.995099 0.997313 0.894548
0.998716 0.997807 0.918007
0.995365 0.999966 0.953471
0.994895 0.999769 0.970705
0.995462 1.0027 0.999828
0.995864 1.00429 0.99839
0.998341 1.00042 0.997551
0.99636 1.00441 0.996057
0.998569 1.00311 0.99353
1.00285 1.00025 0.989883
1.00126 1.00352 0.990365
1.00153 1.00471 0.987668
1.00278 1.00392 0.985228
1.00185 1.00388 0.987627
1.00367 1.00392 0.984602
1.00451 1.00324 0.983438
1.00504 1.00115 0.984439
1.00504 1.00241 0.98383
1.0049 1.00225 0.983685
1.00262 1.00255 0.986921
1.00314 1.00239 0.986555
1.00342 1.00327 0.985307
1.00131 1.00441 0.988149
1.00174 1.00349 0.988376
1.00172 1.00267 0.988814
1.00006 1.00459 0.990047
1.00005 1.00497 0.989527
1.00057 1.0049 0.989112
1.00002 1.0016 0.99303
1.00006 1.00333 0.991305
0.999999 1.00436 0.990579
0.999832 0.998745 0.996222
1.00012 1.00092 0.993586
1.00011 1.00244 0.992169
1.00018 1.00059 0.993831
0.99992 0.998538 0.996287
0.999663 0.997333 0.999175
1.00001 0.998322 0.996338
0.999746 0.997172 0.999184
0.99982 0.997037 0.999188
1.00028 1.00288 0.991385
1.00039 1.00215 0.991956
1.00033 1.00077 0.993364
1.00035 1.00204 0.992117
1.00014 0.998326 0.996102
1.00028 1.00058 0.993645
1.00029 1.00197 0.992266
0.999953 0.996854 0.999167
1.00016 0.998097 0.996305
1.00023 1.00039 0.993909
0.999996 0.996651 0.999219
1.00016 0.997909 0.996494
1.00003 0.996495 0.999262
0.994607 0.99465 0.941617
0.994626 0.994644 0.94804
0.994546 0.99469 0.942347
1.00034 1.00272 0.991438
1.00017 1.00327 0.991148
1.00008 1.00351 0.991
1.00015 1.00319 0.991166
1.00025 1.0036 0.990865
1.00034 1.00268 0.991438
1.0003 1.0031 0.991066
1.00031 1.00294 0.99127
1.00042 1.00312 0.990946
1.00016 1.00335 0.991262
0.995159 0.999028 0.909154
0.994713 0.997094 0.920659
0.994715 0.996013 0.932952
0.994809 0.996935 0.90385
0.994927 0.999978 0.91489
0.994899 0.99882 0.965778
0.994943 1.00025 0.953944
0.994931 0.997238 0.9679
0.995204 1.00031 0.954176
0.994842 0.999964 0.920757
0.994961 0.999191 0.88892
0.995029 0.995304 0.972756
0.99494 1.0003 0.954927
0.995729 0.999901 0.923063
0.994811 0.998081 0.890818
0.998871 1.00329 0.993203
0.999923 1.00424 0.99075
1.00028 1.00386 0.990356
0.995239 0.999534 0.990805
0.995672 1.00435 0.998665
0.999838 1.00449 0.990426
0.998353 1.00522 0.991819
0.998455 1.00481 0.992659
0.996948 1.00427 0.996312
0.994934 0.999174 0.992219
0.996464 1.00276 0.997388
0.995935 1.00042 0.992053
0.994992 0.996515 0.926163
0.994573 0.994847 0.948078
0.994582 0.994753 0.957178
0.994957 1.00085 0.99903
0.994903 1.00115 0.973433
0.994582 0.994682 0.942691
0.996639 1.00002 0.951493
0.995263 0.999906 0.923248
0.99563 0.999245 0.908869
0.994699 0.998022 0.87438
0.995251 1.00456 0.992797
0.995115 0.995726 0.924336
0.995332 0.997528 0.892034
0.994903 0.999627 0.971712
0.998555 0.999084 0.918382
0.996345 0.999972 0.949289
0.995929 1.00187 0.990439
0.99501 0.995236 0.902989
0.999386 0.997805 0.921775
0.997836 0.998612 0.946826
0.994856 0.997721 0.973122
0.995247 1.00488 0.99834
0.998146 1.00063 0.99747
1.00291 0.998958 0.992492
0.99763 1.00332 0.993938
1.00187 1.00064 0.990308
1.00393 0.99883 0.988269
1.00185 1.00458 0.98754
1.00288 1.00382 0.985303
1.00441 1.00127 0.985271
1.00362 1.00392 0.98439
1.00438 1.00307 0.983501
1.00495 1.00052 0.985102
1.00512 0.999406 0.985926
1.00509 1.00162 0.983784
1.00496 1.00112 0.9845
1.00462 1.00201 0.984601
1.00496 1.00228 0.983737
1.0049 1.00229 0.983563
1.00218 1.00376 0.987134
1.00256 1.00255 0.987227
1.00313 1.0025 0.986778
1.00079 1.00448 0.988913
1.00116 1.00439 0.988261
1.00161 1.00342 0.988396
0.99994 1.00285 0.991886
1.00016 1.00441 0.990055
1.00013 1.00491 0.989663
0.99974 0.999106 0.996578
1.00005 1.00162 0.993
1.00017 1.0032 0.991304
0.999584 0.99757 0.99802
0.999829 0.998795 0.996476
1.00013 1.00093 0.993572
0.999919 0.998551 0.996281
0.999657 0.997376 0.999169
0.999737 0.997204 0.999181
1.00019 1.00324 0.991129
1.00037 1.00239 0.991751
1.00024 1.00295 0.991353
1.00034 1.00099 0.993138
1.00035 1.0022 0.99195
1.0001 0.998562 0.99593
1.00032 1.00078 0.993364
1.00037 1.00203 0.992105
0.999904 0.997065 0.999122
1.00014 0.998316 0.996114
1.00028 1.00058 0.993643
0.999958 0.996821 0.999179
1.00015 0.998094 0.996316
1 0.996623 0.99923
0.99561 0.994803 0.927116
0.994606 0.994689 0.941539
0.994639 0.99464 0.949747
1.0003 1.0031 0.991109
1.00033 1.00275 0.991461
1.00012 1.00333 0.991117
1.00021 1.00321 0.991194
1.0002 1.00344 0.991039
1.00017 1.00357 0.990915
1.00021 1.00388 0.990509
0.999927 1.00383 0.990797
1.00037 1.00288 0.991265
1.00032 1.00314 0.991014
1.00009 1.0034 0.991219
0.999433 1.0038 0.992447
0.995244 0.998181 0.893329
0.995546 0.999202 0.908601
0.9947 0.997295 0.920651
0.99524 0.998925 0.893809
0.994837 0.999945 0.920423
0.994942 1.00061 0.946876
0.99557 0.997229 0.965731
0.995108 0.995502 0.974509
0.99474 0.998072 0.882353
0.994927 1.00001 0.950954
0.997292 0.999832 0.914627
0.994873 0.996286 0.975415
0.995585 0.999983 0.955121
0.999347 0.99791 0.914836
0.998837 1.00167 0.99523
0.999103 1.00323 0.993163
0.999881 1.00444 0.990738
0.994844 0.999463 0.992446
0.996452 1.00392 0.996292
0.998562 1.00474 0.9927
0.99769 1.00257 0.997173
0.995502 1.0005 0.992163
0.996969 1.00012 0.993913
0.994901 0.998435 0.902706
0.99495 0.995751 0.930322
0.994555 0.994823 0.949608
0.995179 1.00494 0.993184
0.994916 0.999405 0.972158
0.994961 0.996372 0.924218
0.995268 0.999997 0.948048
0.998672 0.997676 0.909843
0.995545 0.99723 0.895413
0.996112 1.00225 0.990442
0.995075 0.995656 0.906683
0.999824 0.996864 0.914359
0.994878 0.997906 0.969124
0.997531 0.998651 0.953956
0.997875 0.999606 0.993066
0.999849 0.995851 0.914278
0.999778 0.997961 0.953691
0.994869 0.996923 0.968674
0.997893 1.001 0.997468
1.00218 0.99817 0.99305
1.00391 0.998901 0.98978
1.00087 1.00103 0.990735
1.00353 0.999444 0.988214
1.0047 0.998004 0.987787
1.00294 1.00369 0.985376
1.0042 1.00132 0.985267
1.00493 0.998349 0.987168
1.00425 1.00291 0.983562
1.00496 1.00035 0.98512
1.00508 0.9978 0.987551
1.00514 0.997909 0.987392
1.00514 1.00013 0.985208
1.00511 0.999333 0.985992
1.0051 1.00099 0.984345
1.00508 1.00153 0.98396
1.00489 1.00109 0.984561
1.00362 1.00253 0.985795
1.00433 1.002 0.984773
1.00485 1.00214 0.983643
1.00179 1.00373 0.987861
1.00225 1.00368 0.987108
1.00252 1.00253 0.987532
1.00032 1.00353 0.990583
1.00084 1.00441 0.988916
1.00102 1.00435 0.988375
0.99967 0.999749 0.995447
1.00007 1.00272 0.991869
1.00028 1.00424 0.990062
0.999482 0.997794 0.99914
0.999728 0.999189 0.995976
1.00009 1.00162 0.99297
0.999579 0.997573 0.999151
0.999816 0.998834 0.996187
0.999651 0.997426 0.999163
1.0004 1.00313 0.990969
1.00023 1.00323 0.991109
1.00035 1.0027 0.99147
1.0003 1.00125 0.992944
1.00033 1.00242 0.99175
1.00023 1.00296 0.99132
1.00005 0.998787 0.995801
1.00033 1.00099 0.993139
1.00033 1.00224 0.991944
0.999847 0.997273 0.999081
1.0001 0.998549 0.99594
1.00031 1.0008 0.993363
0.999909 0.99702 0.999135
1.00014 0.998309 0.996126
0.999964 0.996781 0.999192
0.995385 0.997171 0.895338
0.995386 0.994893 0.926939
0.994599 0.994728 0.941461
1.00016 1.00328 0.991087
1.00073 1.003 0.990901
1.00017 1.00352 0.990847
1.00024 1.00324 0.991222
1.00031 1.00335 0.991077
1.00001 1.00363 0.990967
1.00007 1.00376 0.990781
1.00016 1.0039 0.990558
1.00008 1.0043 0.990358
0.999888 1.00121 0.993342
1.00017 1.00327 0.991176
0.999522 1.00349 0.992234
0.999805 0.99722 0.910806
0.995235 0.998128 0.888795
0.995805 0.999414 0.908081
0.994698 0.998107 0.873769
0.996811 0.998746 0.922768
0.994893 1.00003 0.950223
0.995402 0.995209 0.972078
0.994937 0.996553 0.973795
0.998532 0.999115 0.917292
0.996203 0.999972 0.948481
0.995042 0.998118 0.974393
0.998739 0.998572 0.946813
1.00205 0.998362 0.993177
0.99905 1.0016 0.994979
0.99929 1.00314 0.993135
0.994998 1.00077 0.992241
0.99862 1.00241 0.996945
0.997654 1.00037 0.993199
0.999716 0.999473 0.990011
0.999923 0.994847 0.920612
0.994915 0.997485 0.9039
0.994783 0.994877 0.934404
0.996255 1.00234 0.990574
0.994886 0.998016 0.967485
0.995201 0.996295 0.90683
0.998582 0.998295 0.946008
0.999821 0.997348 0.92264
0.997675 0.999301 0.991113
0.999878 0.995508 0.918889
1.00131 0.997272 0.945128
0.994889 0.996613 0.972008
0.998998 0.996487 0.992797
1.00004 0.996225 0.953483
0.996182 0.99641 0.97449
1.00148 0.997222 0.993573
1.0037 0.99802 0.989737
1.00495 0.997179 0.989087
1.00305 1.00006 0.988164
1.00444 0.998198 0.987789
1.00481 0.996828 0.988734
1.00405 1.00141 0.985264
1.00484 0.998459 0.987108
1.00508 0.996029 0.989096
1.00495 1.00018 0.98514
1.00508 0.997745 0.987554
1.00512 0.996283 0.989045
1.00511 0.997023 0.988522
1.00514 0.997748 0.987581
1.00516 0.998731 0.986739
1.00515 1.00028 0.985225
1.00515 1.00015 0.985233
1.00509 0.999262 0.986058
1.00481 1.0009 0.985124
1.00509 1.00098 0.984447
1.00509 1.00141 0.984135
1.00284 1.00305 0.986672
1.00359 1.00257 0.985776
1.00409 1.00204 0.984944
1.00097 1.00334 0.989621
1.00186 1.00369 0.987839
1.00232 1.00361 0.987083
0.99976 1.00054 0.994472
1.00043 1.00339 0.990588
1.00092 1.00429 0.988919
0.999495 0.998056 0.99903
0.999676 0.999845 0.9954
1.00018 1.00263 0.991853
0.999515 0.997817 0.998537
0.999716 0.999259 0.995952
0.999583 0.99763 0.99914
1.00057 1.00288 0.990935
1.00025 1.00323 0.990998
1.00026 1.00309 0.991161
1.00029 1.00323 0.99109
1.00029 1.00276 0.991469
1.00025 1.00157 0.992701
0.999971 0.999015 0.995713
1.00029 1.00124 0.992949
1.00027 1.00248 0.99175
0.999784 0.997464 0.999049
1.00005 0.998775 0.995809
1.00032 1.001 0.993141
0.999852 0.997238 0.999093
1.0001 0.998542 0.995949
0.999916 0.99698 0.999149
0.999867 0.995274 0.920059
0.995455 0.997415 0.89691
0.995303 0.994955 0.926755
1.00004 1.00347 0.991064
1.00009 1.00377 0.990731
1.0005 1.003 0.991098
1.00143 1.0031 0.989448
1.00018 1.00397 0.990568
1.00018 1.00375 0.990765
1.00014 1.00389 0.990607
0.999983 1.00414 0.99057
1.00033 1.00351 0.989717
1.00076 1.00063 0.99277
1.00419 0.998651 0.98858
0.999791 1.00127 0.993618
0.999724 1.00314 0.992018
0.999384 0.997648 0.952988
0.99968 0.99779 0.914297
0.995279 0.997839 0.890162
0.999144 0.99924 0.908132
0.995885 0.999953 0.95257
0.994935 0.99643 0.975553
0.994869 0.998114 0.976475
0.997423 0.998583 0.955551
0.995997 0.99876 0.975483
1.00356 0.996233 0.992119
1.00144 0.998844 0.993292
0.999263 1.0016 0.994718
0.998376 1.00044 0.992548
1.001 0.999908 0.988077
1.00002 0.995012 0.949781
0.999909 0.994882 0.92389
0.995038 0.996694 0.905184
0.997348 0.999184 0.989116
0.994881 0.99655 0.968968
0.999862 0.995943 0.919845
0.99997 0.998087 0.95338
0.998426 0.997885 0.99316
1.00122 0.996271 0.952626
0.996447 0.996238 0.971323
1.00123 0.997178 0.991342
0.999114 0.995781 0.979907
1.00352 0.997229 0.989737
1.00494 0.996569 0.989016
1.005 0.995748 0.989998
1.0042 0.998443 0.987791
1.00474 0.996856 0.988688
1.0051 0.995259 0.989936
1.00472 0.998572 0.987049
1.00508 0.996108 0.989068
1.0051 0.99514 0.990063
1.00508 0.997694 0.987557
1.00512 0.996288 0.989005
1.0051 0.996067 0.989507
1.00512 0.996814 0.988655
1.00513 0.997721 0.987844
1.00514 0.997584 0.987772
1.00516 0.998754 0.98672
1.00516 0.99948 0.986029
1.00511 1.00017 0.985372
1.00515 1.00036 0.985184
1.00516 1.00018 0.985258
1.00404 1.00154 0.986017
1.00475 1.00095 0.98518
1.00506 1.00099 0.984549
1.00171 1.00287 0.988743
1.00287 1.003 0.986667
1.00356 1.0026 0.985757
1.00003 1.00107 0.993449
1.00103 1.00328 0.989613
1.00187 1.00369 0.987817
0.999562 0.998481 0.998817
0.999801 1.00057 0.994443
1.00055 1.00321 0.990594
0.99954 0.998133 0.998969
0.999686 0.999936 0.995352
0.999554 0.99785 0.999077
1.00145 1.00301 0.989222
1.00061 1.00276 0.990924
1.00034 1.0032 0.990799
1.00013 1.00329 0.991028
1.00022 1.00315 0.991118
1.00022 1.00202 0.992295
1.00024 1.0028 0.991468
1.00024 1.00157 0.992709
0.999882 0.999278 0.995612
0.999716 0.997642 0.999027
0.999973 0.998992 0.99572
1.00029 1.00123 0.992954
0.999788 0.997442 0.999059
1.00004 0.998765 0.995816
0.999857 0.997195 0.999105
1.00054 0.995138 0.956356
0.999879 0.995693 0.918899
0.995378 0.997876 0.894234
1.00001 1.00401 0.990616
1.00031 1.00294 0.991296
1.00028 1.0039 0.990597
1.00132 1.00305 0.98954
1.00249 1.00332 0.987249
1.00054 1.00362 0.989778
0.999875 1.00401 0.990782
1.00082 1.00358 0.989245
1.00058 1.00101 0.99262
1.00235 1.00067 0.98914
1.00438 0.997998 0.989672
1.00448 0.997071 0.989345
1.00369 0.998495 0.989302
0.999455 1.00157 0.993896
0.995985 0.996733 0.975052
1.00025 0.99685 0.951084
0.998561 0.997791 0.922371
0.998132 0.999161 0.946725
0.994828 0.9984 0.977705
0.996314 0.998529 0.979823
1.00017 0.998402 0.992281
1.00367 0.995993 0.992155
1.00114 0.999213 0.993412
1.00277 1.00024 0.986072
0.996959 0.99732 0.975825
1.00037 0.99528 0.958037
0.999891 0.994857 0.916144
0.997993 0.998751 0.993412
0.99645 0.995697 0.973392
1.00043 0.996585 0.951528
1.00111 0.997228 0.99148
0.998653 0.996009 0.978982
1.00377 0.996474 0.991061
1.0032 0.997672 0.988719
1.00486 0.995954 0.988922
1.00496 0.995616 0.989969
1.0051 0.994859 0.990511
1.00468 0.996869 0.988641
1.0051 0.995235 0.989894
1.00508 0.994943 0.990448
1.00508 0.996176 0.989039
1.00511 0.995248 0.990033
1.00512 0.995519 0.990028
1.00513 0.996292 0.988965
1.00511 0.996047 0.989407
1.00511 0.99682 0.988655
1.00512 0.996613 0.988788
1.00513 0.997587 0.988005
1.00517 0.998869 0.986679
1.00516 0.998776 0.9867
1.00516 0.999545 0.985995
1.00514 0.999805 0.985847
1.00464 1.00027 0.985986
1.0051 1.00025 0.985395
1.00515 1.00043 0.985144
1.00272 1.00184 0.988038
1.00401 1.00155 0.986033
1.00468 1.00099 0.985236
1.00029 1.00147 0.992557
1.00174 1.00289 0.988734
1.0029 1.00296 0.986661
0.999689 0.998986 0.998513
1.0001 1.00105 0.993437
1.00111 1.00322 0.989604
0.999632 0.998594 0.998709
0.999836 1.00061 0.994414
0.999597 0.998208 0.99889
1.00251 1.00327 0.987208
1.00153 1.00305 0.989222
1.00101 1.00325 0.989676
1.0006 1.00271 0.990913
1.00041 1.00316 0.990719
1.00037 1.00238 0.99171
1.00018 1.0032 0.991076
1.00021 1.00202 0.9923
0.9998 0.999637 0.995401
1.00023 1.00156 0.992716
0.999888 0.999238 0.995624
0.999653 0.997825 0.998997
0.99972 0.997623 0.999034
0.999976 0.998972 0.995727
0.999791 0.997412 0.999068
0.996598 0.996182 0.976631
1.00062 0.995306 0.948632
0.999858 0.99506 0.924481
1.00423 1.00213 0.985062
1.00038 1.00384 0.990625
1.00122 1.00301 0.989633
1.00077 1.00365 0.989606
1.0024 1.00327 0.987226
1.00239 1.00151 0.988576
1.0013 1.00365 0.988775
1.00041 1.00135 0.992474
1.00265 1.00058 0.989231
1.00441 0.997773 0.989249
1.0048 0.997609 0.987977
1.00422 0.995952 0.991116
1.00438 0.996803 0.989161
1.0031 0.998256 0.990024
1.00003 0.997665 0.99341
0.995921 0.9969 0.97339
0.999971 0.996566 0.949767
0.996493 0.997964 0.97769
1.00033 0.997361 0.994393
1.00326 0.995832 0.992166
1.0012 0.996867 0.988448
0.996676 0.996096 0.977573
1.00004 0.994931 0.949912
1.00073 0.997676 0.991659
0.998434 0.996648 0.977681
1.0035 0.996009 0.99133
1.00309 0.997282 0.989005
1.00469 0.994923 0.991155
1.00451 0.997346 0.990728
1.00498 0.995465 0.989944
1.00511 0.994894 0.990409
1.00511 0.994873 0.99045
1.00509 0.995212 0.989853
1.00507 0.994943 0.990441
1.00513 0.995141 0.990268
1.00511 0.995365 0.990003
1.00511 0.995505 0.989968
1.00511 0.996334 0.989146
1.00511 0.996028 0.989308
1.00511 0.996835 0.988654
1.00517 0.998184 0.98728
1.00513 0.997452 0.988166
1.00517 0.998754 0.986827
1.00517 0.999554 0.985973
1.00516 0.999612 0.985961
1.00514 0.999828 0.985772
1.00476 0.999988 0.986235
1.00343 1.0007 0.987912
1.00463 1.00033 0.986031
1.0051 1.00034 0.985417
1.00077 1.00132 0.991903
1.00268 1.00188 0.988047
1.00398 1.00155 0.986049
0.999765 0.999487 0.998228
1.00046 1.0013 0.992538
1.00177 1.00289 0.988726
0.999748 0.999081 0.998408
1.00019 1.00099 0.993423
0.999706 0.998683 0.998597
1.0041 1.00208 0.985293
1.0024 1.00329 0.987243
1.00188 1.00348 0.988056
1.00162 1.00309 0.989222
1.00105 1.00322 0.989691
1.00058 1.0028 0.990956
1.0005 1.00312 0.990638
1.00026 1.00252 0.991707
0.999763 1.00011 0.994987
1.00017 1.00206 0.992305
0.999808 0.999577 0.995421
0.999609 0.99805 0.998933
0.999895 0.999201 0.995635
0.999654 0.997801 0.999009
0.999724 0.997606 0.999041
1.00084 0.996492 0.991785
0.996907 0.995525 0.972949
1.0001 0.995138 0.957161
1.0036 1.00103 0.986473
1.00512 0.999571 0.985977
1.00415 1.00185 0.985207
1.00098 1.00367 0.989432
1.00231 1.00321 0.987194
1.00274 1.00145 0.988319
1.00508 0.998053 0.987621
1.00296 1.00049 0.989319
1.00442 0.997543 0.98882
1.00479 0.997625 0.988232
1.00501 0.996622 0.98881
1.0044 0.995481 0.99111
1.00417 0.996134 0.990841
1.00451 0.996754 0.988975
1.00018 0.997956 0.99354
0.995851 0.997123 0.971368
1.00062 0.996724 0.996555
1.00423 0.995544 0.992078
1.00092 0.997294 0.988614
0.996822 0.995427 0.975127
1.00352 0.995594 0.991572
1.00302 0.997364 0.989313
1.00473 0.994991 0.991385
1.0046 0.99656 0.990625
1.00514 0.994941 0.990326
1.00517 0.995135 0.99042
1.00511 0.994951 0.990305
1.0051 0.994886 0.990436
1.00516 0.995072 0.990249
1.00507 0.994943 0.990433
1.00513 0.99517 0.990205
1.00513 0.995813 0.989601
1.00511 0.99549 0.989908
1.00512 0.996345 0.989148
1.00517 0.997766 0.987705
1.00511 0.996852 0.988653
1.00517 0.998195 0.987293
1.00518 0.999326 0.986164
1.00517 0.998636 0.986974
1.00516 0.999509 0.98602
1.00482 0.999902 0.986221
1.00514 0.99985 0.985697
1.00476 0.999993 0.986193
1.00364 1.00021 0.988012
1.00113 1.00082 0.991712
1.00339 1.00074 0.987911
1.00462 1.00038 0.986077
0.999825 0.999967 0.997983
1.00084 1.00126 0.991885
1.00262 1.00196 0.988056
0.999819 0.99961 0.998131
1.00058 1.00121 0.992517
0.999805 0.999184 0.998307
1.00494 1.00051 0.985309
1.00403 1.00205 0.985311
1.0031 1.00266 0.986498
1.00231 1.00331 0.987278
1.00179 1.00353 0.988092
1.00101 1.00319 0.989846
1.00108 1.00319 0.989706
1.00048 1.00291 0.990969
0.999867 1.00063 0.994316
1.00019 1.00263 0.991707
0.999764 1.00006 0.995008
0.999593 0.998378 0.998797
0.999817 0.999521 0.99544
0.999601 0.998011 0.998959
0.999657 0.997782 0.999018
1.00439 0.994966 0.991941
1.00101 0.996006 0.990388
0.996625 0.994957 0.973304
1.00513 0.998395 0.98704
1.00389 1.0006 0.986598
1.00513 0.998578 0.986987
1.00511 0.999635 0.985975
1.00407 1.00156 0.985364
1.00511 0.997292 0.987989
1.00308 1.00138 0.988068
1.00507 0.99815 0.987434
1.00513 0.99595 0.989195
1.00476 0.997676 0.98849
1.00496 0.996734 0.988719
1.00438 0.995598 0.991226
1.00395 0.996108 0.990555
1.00015 0.998187 0.993643
1.00513 0.995018 0.990195
1.00424 0.99608 0.992139
1.00068 0.997379 0.988754
1.00474 0.995063 0.99162
1.00463 0.995678 0.990527
1.00513 0.994948 0.990383
1.00517 0.994992 0.990364
1.00519 0.994941 0.990378
1.0051 0.9949 0.990423
1.00515 0.995021 0.990273
1.00516 0.995511 0.989958
1.00512 0.995193 0.990142
1.00514 0.995856 0.989526
1.00517 0.997511 0.987972
1.00512 0.996356 0.98915
1.00517 0.997782 0.987709
1.0052 0.999088 0.986395
1.00517 0.998205 0.987306
1.00518 0.999318 0.986182
1.00488 0.999837 0.986185
1.00516 0.999465 0.986068
1.00481 0.999909 0.986233
1.00373 1.00012 0.987956
1.00475 0.999998 0.98615
1.00364 1.00022 0.988001
1.00121 1.00042 0.993225
1.00006 1 0.995264
1.00118 1.00076 0.992377
1.00336 1.00077 0.98791
0.999884 1.00005 0.997907
1.00096 1.00112 0.991873
0.999876 0.999712 0.998027
1.0052 0.998503 0.986985
1.00508 0.999555 0.986075
1.00496 1.00045 0.985422
1.00426 1.00099 0.986075
1.00395 1.00201 0.98533
1.00311 1.00272 0.986493
1.00188 1.00281 0.988603
1.00171 1.00359 0.988127
1.00092 1.00322 0.989878
1.00015 1.00117 0.993339
1.00038 1.00302 0.990983
0.999816 1.00064 0.99433
0.999593 0.998855 0.998565
0.999765 0.999997 0.995028
0.999571 0.998305 0.998852
0.999599 0.997976 0.998981
1.00513 0.995326 0.989849
1.00463 0.994957 0.992091
1.00144 0.995423 0.989011
1.00512 0.997562 0.987762
1.00512 0.99845 0.98695
1.0042 1.00018 0.986712
1.00513 0.99867 0.986928
1.00511 0.9997 0.985973
1.00512 0.996228 0.98935
1.0051 0.997315 0.987899
1.00507 0.998248 0.98725
1.00512 0.995961 0.989209
1.00496 0.99683 0.988628
1.00442 0.9958 0.991366
1.00519 0.995075 0.990384
1.00514 0.995041 0.99034
1.00429 0.996656 0.992203
1.00513 0.994918 0.990435
1.00518 0.99495 0.990307
1.0052 0.994942 0.990356
1.00515 0.995456 0.990155
1.00515 0.994978 0.990297
1.00517 0.995482 0.989913
1.00516 0.997312 0.988207
1.00514 0.995903 0.989451
1.00517 0.997515 0.987977
1.00521 0.998879 0.986604
1.00518 0.997798 0.987713
1.00519 0.999084 0.986406
1.00494 0.999791 0.986148
1.00518 0.99931 0.986201
1.00488 0.999837 0.986196
1.00382 1.0001 0.987815
1.00481 0.999916 0.986246
1.00374 1.00011 0.987952
1.00131 1.00012 0.993377
1.00363 1.00023 0.98799
1.00135 1.00033 0.993179
1.00002 1.00001 0.995422
0.999908 1.00023 0.99655
1.00133 1.00068 0.992928
0.999917 1.00016 0.997848
1.00517 0.99803 0.987515
1.00517 0.999172 0.986328
1.00521 0.998325 0.987103
1.00475 0.999987 0.986267
1.0051 0.999602 0.986005
1.00496 1.0004 0.985534
1.00432 1.00095 0.986049
1.00293 1.00152 0.98792
1.00312 1.00278 0.986487
1.00186 1.00279 0.988606
1.00054 1.00149 0.992306
1.00083 1.00325 0.989911
1 1.00128 0.993368
0.999619 0.999533 0.998241
0.999757 1.00066 0.994343
0.999562 0.998751 0.998658
0.99956 0.998237 0.998899
1.00515 0.995438 0.989886
1.00515 0.995344 0.989834
1.00476 0.994922 0.99221
1.00514 0.996876 0.988643
1.00512 0.997607 0.987743
1.00511 0.998506 0.986856
1.00512 0.998758 0.986869
1.00512 0.99621 0.989228
1.00508 0.997342 0.987808
1.00511 0.99595 0.989224
1.00516 0.995544 0.990018
1.00519 0.99509 0.990337
1.00516 0.995034 0.990485
1.00512 0.996146 0.989399
1.0052 0.994943 0.990333
1.00515 0.995575 0.989979
1.00514 0.99705 0.98869
1.00517 0.995447 0.989868
1.00516 0.997296 0.988213
1.00521 0.998686 0.9868
1.00517 0.997524 0.987983
1.0052 0.998878 0.98661
1.005 0.999706 0.986135
1.00519 0.999079 0.986417
1.00493 0.999787 0.986161
1.00391 1.0001 0.98766
1.00488 0.999837 0.986208
1.00383 1.00008 0.987818
1.0014 1.00003 0.993337
1.00374 1.00009 0.987948
1.00142 1.00007 0.993298
1.00005 0.999919 0.995486
1.00148 1.00022 0.993142
0.999785 1.00016 0.995557
0.999558 1.0005 0.998065
1.00517 0.997936 0.987511
1.00517 0.998826 0.986742
1.00518 0.998057 0.987405
1.00483 0.999723 0.98666
1.00517 0.999042 0.986403
1.00521 0.998152 0.987221
1.00358 1.00038 0.987892
1.00475 0.999947 0.986257
1.00513 0.999654 0.985936
1.00437 1.0009 0.986024
1.00297 1.00148 0.98791
1.00094 1.00123 0.991747
1.00185 1.00277 0.98861
1.0004 1.00161 0.992335
0.99969 1.00024 0.997937
0.99988 1.00137 0.993394
0.999564 0.999389 0.99837
0.999539 0.99863 0.99874
1.00516 0.996131 0.989264
1.00515 0.995386 0.989905
1.00515 0.995388 0.989818
1.00514 0.99679 0.9887
1.00512 0.997648 0.987724
1.00512 0.996192 0.989106
1.00513 0.996327 0.98935
1.00516 0.995567 0.989992
1.00518 0.995106 0.99029
1.00512 0.996157 0.989458
1.00514 0.99716 0.988455
1.00515 0.995694 0.989804
1.00515 0.997162 0.98846
1.00519 0.998357 0.98722
1.00517 0.997275 0.98822
1.00521 0.998674 0.986803
1.00504 0.999574 0.986182
1.00519 0.998869 0.986617
1.00499 0.999704 0.986146
1.004 1.00007 0.987508
1.00493 0.999782 0.986174
1.00391 1.00009 0.987666
1.00146 1.00009 0.993158
1.00384 1.00006 0.98782
1.0015 0.999991 0.993237
1.00011 0.999901 0.995413
1.00153 1.00002 0.993229
0.999838 0.999974 0.995646
0.999565 1.00034 0.995676
1.00516 0.997293 0.988274
1.00518 0.998749 0.986729
1.00517 0.99778 0.987666
1.00491 0.999472 0.98667
1.00517 0.998892 0.986667
1.00518 0.998084 0.987296
1.00376 0.999958 0.988021
1.00482 0.999627 0.986549
1.00516 0.998912 0.986477
1.0012 1.00065 0.991818
1.0036 1.00037 0.9879
1.00475 0.999907 0.986247
1.00301 1.00145 0.987899
1.00087 1.00132 0.991755
0.999739 1.00063 0.997817
1.00026 1.00173 0.992368
0.999614 1.00008 0.998047
0.999524 0.999216 0.998488
1.00513 0.996473 0.989054
1.00515 0.99614 0.989272
1.00516 0.995331 0.989924
1.00514 0.996704 0.988758
1.00514 0.99728 0.988356
1.00513 0.996313 0.989383
1.00516 0.995589 0.989966
1.00512 0.99617 0.989517
1.00513 0.997091 0.988512
1.00516 0.998293 0.987381
1.00515 0.997274 0.98823
1.00519 0.998493 0.987054
1.00506 0.9993 0.98642
1.0052 0.998671 0.986807
1.00504 0.999574 0.986191
1.00409 1.00001 0.987404
1.00498 0.999706 0.986157
1.004 1.00007 0.987513
1.00156 1.00014 0.991702
1.00392 1.00008 0.987672
1.00156 1.00006 0.992439
1.00006 0.999944 0.99784
1.0016 0.999967 0.99314
0.999923 0.999891 0.995586
0.999642 1.00003 0.995788
1.00514 0.997153 0.988506
1.00518 0.998481 0.987084
1.00516 0.997382 0.988223
1.005 0.999265 0.986465
1.00518 0.998743 0.986769
1.00517 0.997623 0.987821
1.00388 0.999774 0.987732
1.00491 0.999479 0.986679
1.00517 0.998957 0.986592
1.00133 1.00015 0.992072
1.00377 0.999914 0.987909
1.00482 0.999526 0.986439
0.999779 1.00057 0.997863
1.00118 1.00067 0.991818
1.00361 1.00035 0.987908
1.00079 1.00138 0.991769
0.999718 1.00049 0.997843
0.999534 0.999919 0.998169
1.00513 0.997224 0.988404
1.00513 0.996486 0.989059
1.00515 0.996149 0.98928
1.00517 0.998269 0.987319
1.00514 0.99721 0.988418
1.00513 0.996298 0.989417
1.00513 0.997017 0.988569
1.00517 0.998278 0.987385
1.00506 0.999194 0.986749
1.00519 0.998629 0.986887
1.00506 0.999406 0.986425
1.00415 0.999842 0.987257
1.00503 0.999567 0.986201
1.00409 1 0.987408
1.00163 1.00013 0.991597
1.004 1.00006 0.987518
1.00157 1.00014 0.991697
1.00009 0.999976 0.997796
1.00158 1.00004 0.991802
0.999989 0.999935 0.996681
0.999737 0.999861 0.995755
1.00513 0.997462 0.988176
1.00518 0.998354 0.987163
1.00514 0.997133 0.988519
1.00504 0.999291 0.986445
1.00518 0.998528 0.987
1.00515 0.997471 0.988171
1.00402 0.999664 0.98758
1.005 0.999356 0.98652
1.00519 0.998739 0.986809
1.00146 0.999902 0.992094
1.00388 0.999774 0.98771
1.00491 0.999486 0.986688
0.999882 1.00029 0.997911
1.00133 1.00014 0.992078
1.00377 0.999871 0.987797
0.999793 1.00051 0.997833
1.00116 1.00068 0.991816
0.999645 1.00043 0.997897
1.00517 0.998133 0.987495
1.00513 0.997265 0.988342
1.00513 0.9965 0.989063
1.00501 0.999059 0.986945
1.00517 0.998205 0.987407
1.00513 0.997148 0.988481
1.00517 0.998263 0.987389
1.00506 0.999196 0.986747
1.00414 0.999724 0.987393
1.00505 0.999513 0.98643
1.00414 0.999888 0.987319
1.00169 1.00007 0.991556
1.00409 0.999993 0.987413
1.00163 1.00013 0.991595
1.00012 1.00001 0.997735
1.00157 1.00013 0.99169
1.0001 0.999988 0.997769
1.00006 0.999888 0.995356
1.00518 0.998309 0.987242
1.00513 0.997323 0.988273
1.00504 0.999213 0.986551
1.00518 0.998361 0.987159
1.00514 0.99711 0.988531
1.00408 0.999705 0.987707
1.00503 0.999295 0.98644
1.00519 0.998573 0.986917
1.00159 0.999858 0.991916
1.00402 0.999716 0.987649
1.005 0.999451 0.986574
1.00003 1.00005 0.99787
1.00146 0.999894 0.992102
1.00389 0.999768 0.987686
0.999865 1.0003 0.997895
1.00133 1.00013 0.992082
0.999789 1.00049 0.997811
1.00499 0.999026 0.98703
1.00517 0.998181 0.987436
1.00513 0.997308 0.98828
1.00405 0.999648 0.98761
1.00501 0.999072 0.986946
1.00517 0.998136 0.987494
1.00506 0.9992 0.986745
1.00415 0.999718 0.987367
1.00169 1.00002 0.991602
1.00413 0.999931 0.98738
1.00168 1.00007 0.991557
1.00016 1.00001 0.997697
1.00163 1.00012 0.991593
1.00013 1.00001 0.997724
1.00012 0.999997 0.997747
1.00502 0.999142 0.986666
1.00517 0.998163 0.98739
1.00514 0.997185 0.98837
1.00406 0.999698 0.98775
1.00503 0.999216 0.986544
1.00518 0.998367 0.987155
1.00164 0.999939 0.991757
1.00408 0.999712 0.987701
1.00502 0.999298 0.986434
1.00014 0.999943 0.997787
1.00158 0.999874 0.991921
1.00402 0.99976 0.987718
0.999986 1.00009 0.997891
1.00145 0.999901 0.992111
0.999871 1.00029 0.997871
1.00401 0.999702 0.987857
1.00499 0.998989 0.98696
1.00517 0.998227 0.987377
1.00164 0.999975 0.991748
1.00407 0.999632 0.987582
1.00502 0.999084 0.986947
1.00416 0.999709 0.987342
1.00168 1.00001 0.99161
1.00019 1.00001 0.997669
1.00167 1.00008 0.991558
1.00017 1.00002 0.997682
1.00014 1.00002 0.997713
1.00403 0.999686 0.987826
1.00501 0.999056 0.986735
1.00517 0.998019 0.987537
1.00171 1 0.992902
1.00407 0.999695 0.987747
1.00501 0.99922 0.986536
1.00016 0.999949 0.997725
1.00164 0.999959 0.99176
1.00408 0.99972 0.987695
1.0001 0.999977 0.997819
1.00157 0.999901 0.991926
0.999958 1.0001 0.997905
1.00165 0.999974 0.991769
1.00402 0.999657 0.987775
1.00498 0.998951 0.98689
1.00015 0.999999 0.997696
1.00163 0.999975 0.991752
1.00409 0.99962 0.987555
1.00167 1.00001 0.991615
1.00018 1.00001 0.997674
1.00018 1.00002 0.997673
1.00174 0.999987 0.9929
1.00404 0.999681 0.987825
1.00499 0.998968 0.986804
0.999849 0.999987 0.998022
1.00164 1.00001 0.991723
1.00408 0.99969 0.987746
1.00015 0.999961 0.997753
1.00164 0.999979 0.991761
1.00007 0.999997 0.997849
1.00011 0.999998 0.995261
1.00166 0.999972 0.992374
1.00402 0.999614 0.987692
1.00015 0.999999 0.997703
1.00162 0.999975 0.99176
1.00019 1 0.997675
0.999797 1.00001 0.995563
1.00167 0.999987 0.992341
1.00404 0.999678 0.987825
0.999985 0.999987 0.996623
1.00164 1.00001 0.99173
1.00014 0.999972 0.997779
1.00011 0.999994 0.99772
1.00159 0.999973 0.991835
1.00012 0.999997 0.997712
0.999957 0.999994 0.996648
1.00161 0.99999 0.991794
1.00014 0.999974 0.997736
1.00012 0.999989 0.997732
1.00011 0.999985 0.99773

TENSORS stress float
0.00163069 -7.86902e-05 0.000157834
-7.86902e-05 0.000598732 -1.99357e-05
0.000157834 -1.99357e-05 0.000577899
0.0050408 -0.000119654 0.000148958
-0.000119654 0.00260116 1.42489e-05
0.000148958 1.42489e-05 0.00258007
0.00146726 -5.57139e-06 7.6057e-05
-5.57139e-06 0.000514567 -7.35534e-06
7.6057e-05 -7.35534e-06 0.000483973
0.00176574 -4.83855e-05 0.000157731
-4.83855e-05 0.000654697 -1.29758e-05
0.000157731 -1.29758e-05 0.000636256
0.00169255 -7.09798e-05 0.000154039
-7.09798e-05 0.000627715 -1.81669e-05
0.000154039 -1.81669e-05 0.000607922
0.00153735 -7.31093e-05 0.000160548
-7.31093e-05 0.000541475 -1.9335e-05
0.000160548 -1.9335e-05 0.000522225
0.00144179 -4.71737e-05 2.13434e-05
-4.71737e-05 0.000421834 -8.28736e-06
2.13434e-05 -8.28736e-06 0.000345571
0.00486211 -0.000128508 4.80971e-06
-0.000128508 0.00248987 -7.30943e-07
4.80971e-06 -7.30943e-07 0.00247372
0.00515222 4.50264e-06 5.86657e-05
4.50264e-06 0.00261948 2.9137e-06
5.86657e-05 2.9137e-06 0.00260692
0.00491172 -0.000272051 -2.55789e-06
-0.000272051 0.00254729 4.60039e-06
-2.55789e-06 4.60039e-06 0.00250052
0.00162165 4.27096e-05 0.00014556
4.27096e-05 0.000593041 1.24774e-05
0.00014556 1.24774e-05 0.000582507
0.000710569 0.000152455 1.94579e-05
0.000152455 1.61992e-05 1.24677e-05
1.94579e-05 1.24677e-05 -6.39533e-05
0.00163088 -2.83513e-05 0.000170918
-2.83513e-05 0.000571024 2.01898e-06
0.000170918 2.01898e-06 0.000558361
0.0012677 -2.12969e-05 2.32393e-05
-2.12969e-05 0.00038094 1.18839e-06
2.32393e-05 1.18839e-06 0.000345957
0.00137785 1.15929e-05 -2.08137e-05
1.15929e-05 0.000462627 4.42283e-06
-2.08137e-05 4.42283e-06 0.000428996
0.00150795 -4.88033e-05 5.86394e-05
-4.88033e-05 0.000516468 -3.35443e-06
5.86394e-05 -3.35443e-06 0.000490431
0.00146074 1.3985e-05 8.26955e-05
1.3985e-05 0.000517985 -6.68878e-06
8.26955e-05 -6.68878e-06 0.000482551
0.00147981 -2.51409e-05 6.74003e-05
-2.51409e-05 0.000509456 -6.96523e-06
6.74003e-05 -6.96523e-06 0.000484054
0.00150404 -9.16458e-05 -2.8613e-05
-9.16458e-05 0.00044573 2.49255e-06
-2.8613e-05 2.49255e-06 0.000378428
0.00526669 -0.00010472 0.000193386
-0.00010472 0.00269094 -4.89879e-06
0.000193386 -4.89879e-06 0.00269019
0.00175085 -3.23395e-05 0.000161135
-3.23395e-05 0.000642751 -9.80212e-06
0.000161135 -9.80212e-06 0.000624569
0.00175526 -6.17548e-05 0.000155139
-6.17548e-05 0.000654647 -1.57825e-05
0.000155139 -1.57825e-05 0.000635983
0.00146921 -8.66179e-05 4.07785e-05
-8.66179e-05 0.000403705 -6.15116e-06
4.07785e-05 -6.15116e-06 0.000336273
0.0014548 -6.52576e-05 2.99634e-05
-6.52576e-05 0.000409456 -7.35894e-06
2.99634e-05 -7.35894e-06 0.000341135
0.00130931 -4.17174e-05 0.000142553
-4.17174e-05 0.000407882 -1.57365e-05
0.000142553 -1.57365e-05 0.000392449
0.00139375 -2.94071e-05 1.43817e-05
-2.94071e-05 0.000415177 -9.39207e-06
1.43817e-05 -9.39207e-06 0.000329461
0.00200891 -0.000198132 1.21093e-05
-0.000198132 0.000603622 -4.75218e-06
1.21093e-05 -4.75218e-06 0.00047652
0.00469215 -0.000174279 -0.00012108
-0.000174279 0.00240146 -8.59194e-06
-0.00012108 -8.59194e-06 0.00237888
0.00332108 3.47247e-05 -9.08116e-05
3.47247e-05 0.00156855 -6.04737e-06
-9.08116e-05 -6.04737e-06 0.00155029
0.00318529 -8.17862e-05 -8.42255e-05
-8.17862e-05 0.00152163 -2.51924e-06
-8.42255e-05 -2.51924e-06 0.00149187
0.00441332 -0.000151566 8.97645e-06
-0.000151566 0.00223296 -8.19026e-07
8.97645e-06 -8.19026e-07 0.00221711
0.000626018 0.000139524 -1.31979e-06
0.000139524 -3.067e-05 -5.06822e-07
-1.31979e-06 -5.06822e-07 -0.000108427
0.00154086 4.95396e-05 0.000160869
4.95396e-05 0.000529723 1.16042e-05
0.000160869 1.16042e-05 0.000511932
0.00171982 0.000110832 0.000162868
0.000110832 0.000649018 1.67227e-05
0.000162868 1.67227e-05 0.000629092
0.0025377 0.000155696 9.93318e-05
0.000155696 0.00102467 1.19922e-05
9.93318e-05 1.19922e-05 0.000965767
0.00349339 -0.00020033 9.25586e-06
-0.00020033 0.00171052 2.61128e-06
9.25586e-06 2.61128e-06 0.00168519
0.00258536 0.000177013 9.69569e-05
0.000177013 0.00107931 1.32858e-05
9.69569e-05 1.32858e-05 0.00101637
0.000685709 0.000103229 1.93805e-05
0.000103229 1.08671e-05 1.52847e-05
1.93805e-05 1.52847e-05 -5.83293e-05
0.000940048 0.000159284 8.44787e-06
0.000159284 7.50488e-05 4.36404e-06
8.44787e-06 4.36404e-06 -6.77161e-05
0.00286398 -0.00010278 7.67486e-05
-0.00010278 0.00132345 2.74556e-06
7.67486e-05 2.74556e-06 0.00132657
0.00531922 5.5698e-05 3.91907e-06
5.5698e-05 0.00271081 -1.09186e-06
3.91907e-06 -1.09186e-06 0.00271547
0.00332093 4.10426e-05 -7.41997e-05
4.10426e-05 0.00156055 -2.46729e-06
-7.41997e-05 -2.46729e-06 0.001545
0.00525965 5.65838e-05 0.000191161
5.65838e-05 0.00267878 1.64697e-06
0.000191161 1.64697e-06 0.002683
0.00130263 4.52264e-05 2.61199e-05
4.52264e-05 0.000399086 1.5552e-06
2.61199e-05 1.5552e-06 0.000366684
0.000708772 5.16824e-06 1.61258e-05
5.16824e-06 -6.28291e-05 1.70106e-06
1.61258e-05 1.70106e-06 -0.000130709
0.00506477 0.000167687 8.9505e-05
0.000167687 0.00258578 7.39512e-06
8.9505e-05 7.39512e-06 0.00256546
0.00261928 4.47511e-05 9.9024e-05
4.47511e-05 0.00103986 5.67884e-06
9.9024e-05 5.67884e-06 0.000990668
0.00118651 -7.54267e-05 -3.75504e-05
-7.54267e-05 0.000346966 4.94065e-06
-3.75504e-05 4.94065e-06 0.000309867
0.00128125 -3.88824e-05 -3.23228e-05
-3.88824e-05 0.000401712 4.76191e-06
-3.23228e-05 4.76191e-06 0.000370078
0.0014554 7.56419e-05 -8.07284e-06
7.56419e-05 0.000523467 5.54015e-06
-8.07284e-06 5.54015e-06 0.000479277
0.00152132 -0.000107281 -8.53815e-05
-0.000107281 0.000448441 1.24018e-05
-8.53815e-05 1.24018e-05 0.00038685
0.00334323 1.79593e-05 -7.94631e-05
1.79593e-05 0.00157994 -1.38234e-06
-7.94631e-05 -1.38234e-06 0.0015612
0.00150917 -3.71889e-05 6.6003e-05
-3.71889e-05 0.00051342 -2.74008e-06
6.6003e-05 -2.74008e-06 0.000487625
0.0013205 2.91076e-05 7.48851e-05
2.91076e-05 0.000437613 -5.11056e-06
7.48851e-05 -5.11056e-06 0.000405617
0.00150335 -3.96431e-05 6.15563e-05
-3.96431e-05 0.000514527 -5.36442e-06
6.15563e-05 -5.36442e-06 0.000490554
0.00151539 -7.7787e-05 -2.29676e-05
-7.7787e-05 0.000425506 8.21196e-07
-2.29676e-05 8.21196e-07 0.000362943
0.00147863 -7.70081e-05 -3.319e-05
-7.70081e-05 0.000448232 2.00674e-06
-3.319e-05 2.00674e-06 0.000374173
0.00151016 -9.35461e-05 -2.40054e-05
-9.35461e-05 0.000437087 1.8307e-06
-2.40054e-05 1.8307e-06 0.000373584
0.00200219 -0.000196109 -5.8275e-06
-0.000196109 0.000598573 1.58604e-06
-5.8275e-06 1.58604e-06 0.000471823
0.00521225 5.13715e-05 0.000184021
5.13715e-05 0.00265275 -7.63139e-08
0.000184021 -7.63139e-08 0.00265702
0.00174369 -1.59254e-05 0.00016324
-1.59254e-05 0.000638936 -6.64031e-06
0.00016324 -6.64031e-06 0.000621646
0.00237511 3.47912e-05 2.56416e-05
3.47912e-05 0.00091465 -1.01172e-06
2.56416e-05 -1.01172e-06 0.000857186
0.00147467 -7.14754e-05 3.46608e-05
-7.14754e-05 0.000399403 -4.40709e-06
3.46608e-05 -4.40709e-06 0.000333299
0.00147028 -7.85294e-05 3.68638e-05
-7.85294e-05 0.000407006 -6.70002e-06
3.68638e-05 -6.70002e-06 0.000341029
0.00194985 -0.000120727 1.08126e-05
-0.000120727 0.000521688 -2.51562e-06
1.08126e-05 -2.51562e-06 0.000409259
0.00159412 -0.000155909 1.41146e-05
-0.000155909 0.000343305 -4.82017e-06
1.41146e-05 -4.82017e-06 0.000221652
0.0010992 1.16261e-05 0.000103993
1.16261e-05 0.000290995 -1.1369e-05
0.000103993 -1.1369e-05 0.000277356
0.00103383 8.38091e-06 9.00944e-06
8.38091e-06 0.000239499 -8.93105e-06
9.00944e-06 -8.93105e-06 0.000161486
0.00194699 -0.000210039 1.11636e-05
-0.000210039 0.000599903 -5.04829e-06
1.11636e-05 -5.04829e-06 0.0004634
0.00122669 -0.000179647 7.55178e-06
-0.000179647 6.53653e-05 -2.11241e-06
7.55178e-06 -2.11241e-06 -8.88936e-05
0.0053537 8.78531e-05 -0.000192675
8.78531e-05 0.00273335 -1.36178e-05
-0.000192675 -1.36178e-05 0.0027346
0.0041213 -0.000167867 -0.000103349
-0.000167867 0.00206689 -5.32533e-06
-0.000103349 -5.32533e-06 0.00205031
0.00504694 -0.000103189 -0.000151334
-0.000103189 0.00258483 -9.6381e-06
-0.000151334 -9.6381e-06 0.00257442
0.000523811 0.0001386 -1.94677e-05
0.0001386 -8.78004e-05 -1.26851e-05
-1.94677e-05 -1.26851e-05 -0.000163662
0.00538607 0.000125015 -2.80649e-06
0.000125015 0.00275011 -1.58738e-06
-2.80649e-06 -1.58738e-06 0.00275029
0.00537691 1.37286e-05 -8.39274e-06
1.37286e-05 0.00275662 -4.91171e-07
-8.39274e-06 -4.91171e-07 0.00275334
0.000567655 0.000113519 -3.4069e-07
0.000113519 -0.000109479 -2.12454e-07
-3.4069e-07 -2.12454e-07 -0.00018624
0.00233 -0.000110028 -4.53667e-05
-0.000110028 0.00102484 -5.02384e-07
-4.53667e-05 -5.02384e-07 0.00100652
0.000568681 0.000157735 -1.02099e-06
0.000157735 -7.86113e-05 -2.43101e-07
-1.02099e-06 -2.43101e-07 -0.000158902
0.00138154 8.02984e-05 2.97394e-05
8.02984e-05 0.000422842 4.03921e-07
2.97394e-05 4.03921e-07 0.000362713
0.000900224 0.000152817 4.66395e-07
0.000152817 4.95713e-05 -4.36634e-07
4.66395e-07 -4.36634e-07 -9.19586e-05
0.00332346 -0.0001046 0.000100232
-0.0001046 0.00158857 4.19578e-06
0.000100232 4.19578e-06 0.00158996
0.000606433 -5.92862e-05 6.61288e-07
-5.92862e-05 1.26507e-05 6.81277e-06
6.61288e-07 6.81277e-06 -2.39668e-05
0.000683148 8.287e-05 1.71083e-05
8.287e-05 -6.21691e-05 8.02272e-06
1.71083e-05 8.02272e-06 -0.000135296
0.000711215 0.000134193 2.16716e-05
0.000134193 -1.5303e-05 1.32694e-05
2.16716e-05 1.32694e-05 -9.62177e-05
0.00101732 0.000131283 1.25058e-05
0.000131283 -2.3626e-06 4.91197e-06
1.25058e-05 4.91197e-06 -0.000132628
0.00210125 1.51402e-05 6.07532e-05
1.51402e-05 0.000852565 7.62827e-06
6.07532e-05 7.62827e-06 0.000810233
0.000967023 0.000156674 1.02022e-05
0.000156674 3.47603e-05 5.24586e-06
1.02022e-05 5.24586e-06 -0.000103367
0.000953307 0.000152811 7.219e-06
0.000152811 0.000147568 5.04627e-06
7.219e-06 5.04627e-06 6.45812e-06
0.000951061 0.000189704 3.93815e-06
0.000189704 2.27055e-05 4.19719e-07
3.93815e-06 4.19719e-07 -0.00015435
0.00254609 -0.000109521 4.31629e-05
-0.000109521 0.00113782 2.41039e-06
4.31629e-05 2.41039e-06 0.0011394
0.00273419 -0.000122091 6.63594e-06
-0.000122091 0.00125251 -4.01986e-07
6.63594e-06 -4.01986e-07 0.00125058
0.00537354 6.57624e-06 -0.000186575
6.57624e-06 0.00273863 -7.44177e-06
-0.000186575 -7.44177e-06 0.00274193
0.00534565 4.74002e-05 -0.000194229
4.74002e-05 0.00272441 -4.03321e-06
-0.000194229 -4.03321e-06 0.00272964
0.00530691 7.85285e-05 -1.26549e-07
7.85285e-05 0.00271216 -1.95213e-06
-1.26549e-07 -1.95213e-06 0.00271224
0.00331418 3.14804e-06 -8.90284e-05
3.14804e-06 0.00155507 -2.7999e-06
-8.90284e-05 -2.7999e-06 0.00154182
0.00164987 2.554e-05 4.21434e-05
2.554e-05 0.00048103 6.73044e-07
4.21434e-05 6.73044e-07 0.000423196
0.00336367 8.40768e-05 -7.51535e-05
8.40768e-05 0.00158672 -3.56554e-06
-7.51535e-05 -3.56554e-06 0.00156939
0.00167388 6.23549e-05 4.08346e-05
6.23549e-05 0.000499244 1.3309e-06
4.08346e-05 1.3309e-06 0.00043844
0.00527983 0.000142223 0.000194245
0.000142223 0.00270685 4.28563e-06
0.000194245 4.28563e-06 0.0027006
0.000640006 5.88821e-06 1.75346e-05
5.88821e-06 -9.99806e-05 4.02016e-07
1.75346e-05 4.02016e-07 -0.000166778
0.00264255 1.4578e-05 9.9868e-05
1.4578e-05 0.0010515 3.70566e-06
9.9868e-05 3.70566e-06 0.00100391
0.00106451 3.02199e-05 1.19755e-05
3.02199e-05 -1.17403e-05 1.22535e-06
1.19755e-05 1.22535e-06 -0.000126465
0.00253747 8.69719e-05 9.95497e-05
8.69719e-05 0.0010017 7.04613e-06
9.95497e-05 7.04613e-06 0.000949915
0.00107525 7.19752e-05 1.17362e-05
7.19752e-05 2.30089e-06 2.4238e-06
1.17362e-05 2.4238e-06 -0.000118246
0.00163434 3.48913e-05 -0.000168648
3.48913e-05 0.000575522 1.22649e-06
-0.000168648 1.22649e-06 0.000562943
0.00125163 8.2883e-06 -2.38326e-05
8.2883e-06 0.000374402 1.61344e-06
-2.38326e-05 1.61344e-06 0.000340893
0.00133418 0.000135496 4.45381e-06
0.000135496 0.000481087 7.40803e-06
4.45381e-06 7.40803e-06 0.000424366
0.00121682 -5.94084e-05 -3.88418e-05
-5.94084e-05 0.000362064 5.06234e-06
-3.88418e-05 5.06234e-06 0.000328962
0.00162307 -5.69399e-05 -8.51716e-05
-5.69399e-05 0.000480264 6.91889e-06
-8.51716e-05 6.91889e-06 0.00042408
0.00156335 -9.20519e-05 -8.39216e-05
-9.20519e-05 0.000462158 1.10662e-05
-8.39216e-05 1.10662e-05 0.000403703
0.00150426 -0.000110639 -8.67937e-05
-0.000110639 0.000452635 1.2843e-05
-8.67937e-05 1.2843e-05 0.000386734
0.00200019 -0.000194748 -2.30714e-05
-0.000194748 0.000596714 7.54568e-06
-2.30714e-05 7.54568e-06 0.000470246
0.00527666 -8.16218e-05 2.08784e-06
-8.16218e-05 0.00269569 -1.25432e-06
2.08784e-06 -1.25432e-06 0.00269542
0.00148664 4.44309e-05 7.52035e-05
4.44309e-05 0.00049974 -2.1951e-06
7.52035e-05 -2.1951e-06 0.000474971
0.00112819 2.08073e-06 -4.47553e-05
2.08073e-06 0.000185413 7.1342e-07
-4.47553e-05 7.1342e-07 0.000126185
0.00153716 -4.21902e-05 -2.72772e-05
-4.21902e-05 0.000430632 1.15716e-06
-2.72772e-05 1.15716e-06 0.000369448
0.00256246 6.07847e-05 0.000106635
6.07847e-05 0.00115266 -1.31547e-06
0.000106635 -1.31547e-06 0.00114202
0.00172616 -3.80386e-05 -2.83983e-05
-3.80386e-05 0.00062505 -8.1262e-07
-2.83983e-05 -8.1262e-07 0.00055317
0.0015198 -8.69636e-05 -2.21429e-05
-8.69636e-05 0.000433078 1.26983e-06
-2.21429e-05 1.26983e-06 0.000370954
0.00179276 -0.000112681 -7.80773e-06
-0.000112681 0.000429997 1.35135e-06
-7.80773e-06 1.35135e-06 0.000316631
0.00197213 -0.000211998 -4.79847e-06
-0.000211998 0.000615111 1.39665e-06
-4.79847e-06 1.39665e-06 0.000478076
0.00181857 -0.000164846 -3.20465e-06
-0.000164846 0.000472235 7.17764e-07
-3.20465e-06 7.17764e-07 0.000351299
0.00125993 -0.000181229 2.17026e-07
-0.000181229 8.39184e-05 -4.29151e-08
2.17026e-07 -4.29151e-08 -7.0365e-05
0.000673099 1.08493e-05 1.79058e-05
1.08493e-05 -8.12536e-05 -1.19141e-06
1.79058e-05 -1.19141e-06 -0.000145651
0.00145877 1.76415e-05 2.61026e-05
1.76415e-05 0.000385652 -2.47753e-06
2.61026e-05 -2.47753e-06 0.00032199
0.00161105 -2.63187e-05 1.23239e-05
-2.63187e-05 0.000307742 -1.03263e-06
1.23239e-05 -1.03263e-06 0.000201189
0.00160957 -8.81383e-05 1.21334e-05
-8.81383e-05 0.000318275 -2.17818e-06
1.21334e-05 -2.17818e-06 0.00020554
0.00156454 -0.000131183 1.33656e-05
-0.000131183 0.000309694 -3.74651e-06
1.33656e-05 -3.74651e-06 0.000192314
0.00173497 -0.000132421 2.84652e-06
-0.000132421 0.0002961 -6.55787e-07
2.84652e-06 -6.55787e-07 0.000160191
0.00364885 0.00014169 9.33217e-05
0.00014169 0.00178441 -3.26837e-06
9.33217e-05 -3.26837e-06 0.00177603
0.00128932 -0.000163849 6.73512e-06
-0.000163849 8.07254e-05 -1.85662e-06
6.73512e-06 -1.85662e-06 -6.76101e-05
0.000419937 -3.12071e-05 8.64476e-06
-3.12071e-05 -0.000116774 -1.03464e-05
8.64476e-06 -1.03464e-05 -0.000174349
0.000758825 -0.000144857 6.85643e-06
-0.000144857 -1.29087e-05 -6.1365e-06
6.85643e-06 -6.1365e-06 -0.00015256
0.00126383 -0.00020332 8.53052e-06
-0.00020332 0.000117794 -1.5925e-06
8.53052e-06 -1.5925e-06 -4.77762e-05
0.00145727 -0.000210622 4.44918e-06
-0.000210622 0.000130544 -3.12452e-08
4.44918e-06 -3.12452e-08 -3.62026e-05
0.000474873 1.453e-05 4.50147e-06
1.453e-05 -7.59853e-05 -8.65057e-06
4.50147e-06 -8.65057e-06 -0.000121379
0.000662092 -8.39581e-06 1.30962e-06
-8.39581e-06 2.46802e-05 -4.03612e-06
1.30962e-06 -4.03612e-06 -6.89834e-05
0.00538986 0.000135554 -0.000203528
0.000135554 0.002755 -1.44565e-05
-0.000203528 -1.44565e-05 0.00275415
0.00523637 -4.06081e-06 -0.000173963
-4.06081e-06 0.00267481 -1.14514e-05
-0.000173963 -1.14514e-05 0.00267426
0.000563734 0.000105287 -1.72168e-05
0.000105287 -0.000112841 -9.24435e-06
-1.72168e-05 -9.24435e-06 -0.000189509
0.00354732 -0.000145046 -8.83398e-05
-0.000145046 0.00172804 -3.1423e-06
-8.83398e-05 -3.1423e-06 0.00171963
0.00045536 6.61915e-05 -1.14281e-05
6.61915e-05 -0.000108911 -1.15821e-05
-1.14281e-05 -1.15821e-05 -0.00017114
0.000515239 0.000144335 -1.9084e-05
0.000144335 -0.000104862 -1.20818e-05
-1.9084e-05 -1.20818e-05 -0.000186253
0.000884757 0.000149227 -8.69804e-06
0.000149227 3.82304e-05 -5.50933e-06
-8.69804e-06 -5.50933e-06 -0.000102474
0.0031699 -0.000120379 5.60544e-06
-0.000120379 0.0015046 -2.85897e-07
5.60544e-06 -2.85897e-07 0.00150283
0.000543255 -6.55237e-05 3.65926e-07
-6.55237e-05 -2.19577e-05 3.06389e-07
3.65926e-07 3.06389e-07 -5.87332e-05
0.00162193 0.000105047 4.03354e-05
0.000105047 0.00048187 2.21356e-06
4.03354e-05 2.21356e-06 0.000417058
0.00155349 0.000148206 3.84136e-05
0.000148206 0.000473007 1.84204e-06
3.84136e-05 1.84204e-06 0.000401514
0.00102706 0.000133801 1.5636e-07
0.000133801 4.46335e-06 -1.28939e-07
1.5636e-07 -1.28939e-07 -0.000126464
0.000623432 1.5363e-05 -6.00718e-07
1.5363e-05 1.63246e-06 1.24812e-07
-6.00718e-07 1.24812e-07 -4.90654e-05
0.000965384 0.000156594 5.1465e-07
0.000156594 3.45454e-05 2.11495e-07
5.1465e-07 2.11495e-07 -0.000103638
0.00085322 0.000138961 2.33775e-07
0.000138961 8.86797e-05 -4.38517e-07
2.33775e-07 -4.38517e-07 -4.99452e-05
0.000984288 0.000192855 7.33846e-08
0.000192855 3.95809e-05 -1.06078e-07
7.33846e-08 -1.06078e-07 -0.000137882
0.000638446 -1.78846e-05 5.96671e-06
-1.78846e-05 2.2536e-05 7.96162e-06
5.96671e-06 7.96162e-06 -2.02263e-05
0.000608849 -6.93123e-05 -1.53958e-06
-6.93123e-05 8.66968e-06 5.69813e-06
-1.53958e-06 5.69813e-06 -2.13058e-05
0.000698816 2.66656e-05 2.56836e-06
2.66656e-05 5.79598e-05 3.83738e-06
2.56836e-06 3.83738e-06 -3.00811e-05
0.00105209 0.00011145 1.22288e-05
0.00011145 2.92724e-06 4.03458e-06
1.22288e-05 4.03458e-06 -0.000123777
0.000988657 0.000148167 1.18661e-05
0.000148167 9.47928e-06 5.29599e-06
1.18661e-05 5.29599e-06 -0.000125055
0.00133216 0.000174187 6.64791e-06
0.000174187 8.85617e-05 1.76707e-06
6.64791e-06 1.76707e-06 -6.8915e-05
0.000920524 0.000127366 5.66103e-06
0.000127366 0.000167343 5.02749e-06
5.66103e-06 5.02749e-06 3.99739e-05
0.00089761 0.000178442 4.58983e-06
0.000178442 -8.13385e-05 1.60781e-06
4.58983e-06 1.60781e-06 -0.000246672
0.000975579 0.000189053 3.28432e-06
0.000189053 0.000121419 1.48137e-06
3.28432e-06 1.48137e-06 -6.28544e-05
0.00134314 0.000235399 -6.13682e-07
0.000235399 0.00020306 -2.70263e-07
-6.13682e-07 -2.70263e-07 1.51558e-05
0.00237753 -9.76791e-05 3.39726e-05
-9.76791e-05 0.00103332 2.85147e-06
3.39726e-05 2.85147e-06 0.00103792
0.00245894 -0.000109219 2.91938e-06
-0.000109219 0.00108798 -2.91501e-07
2.91938e-06 -2.91501e-07 0.00108936
0.00259882 -0.000122837 -4.08656e-05
-0.000122837 0.00117604 -2.39343e-06
-4.08656e-05 -2.39343e-06 0.00117349
0.00048869 2.68297e-05 3.21691e-06
2.68297e-05 -6.62916e-05 -7.51337e-06
3.21691e-06 -7.51337e-06 -0.000106477
0.00337943 0.00012991 8.01338e-05
0.00012991 0.00162395 -3.02455e-06
8.01338e-05 -3.02455e-06 0.00161897
0.00539422 0.000148837 -0.000206293
0.000148837 0.00276043 -1.34591e-05
-0.000206293 -1.34591e-05 0.0027579
0.00532809 4.19066e-05 -0.000189838
4.19066e-05 0.00271252 -5.7834e-06
-0.000189838 -5.7834e-06 0.00271768
0.000666621 7.23671e-05 -1.82478e-05
7.23671e-05 -7.96942e-05 -4.36272e-06
-1.82478e-05 -4.36272e-06 -0.000149899
0.000649953 3.13294e-05 -1.8199e-05
3.13294e-05 -9.18041e-05 -2.07895e-06
-1.8199e-05 -2.07895e-06 -0.00016053
0.00526314 -2.87053e-05 -0.000185679
-2.87053e-05 0.00267871 -8.80986e-07
-0.000185679 -8.80986e-07 0.00268424
0.00524557 1.73824e-05 -6.5048e-07
1.73824e-05 0.00266976 3.60377e-08
-6.5048e-07 3.60377e-08 0.0026748
0.000630632 -6.58238e-07 -1.31285e-07
-6.58238e-07 -0.000106468 -1.60265e-07
-1.31285e-07 -1.60265e-07 -0.000172368
0.00163613 2.51812e-05 4.1844e-05
2.51812e-05 0.000473673 1.1693e-06
4.1844e-05 1.1693e-06 0.000415655
0.00107039 3.43909e-05 8.89032e-08
3.43909e-05 -8.30053e-06 -1.07475e-07
8.89032e-08 -1.07475e-07 -0.000123259
0.000640602 6.38933e-05 -2.97871e-07
6.38933e-05 -9.02583e-05 -2.18209e-07
-2.97871e-07 -2.18209e-07 -0.000161565
0.00106906 7.44764e-05 -4.15768e-08
7.44764e-05 -8.80392e-07 -1.71155e-07
-4.15768e-08 -1.71155e-07 -0.000121869
0.000619925 -2.16961e-05 1.78645e-05
-2.16961e-05 -0.000113536 -6.35323e-07
1.78645e-05 -6.35323e-07 -0.000177892
0.00106603 1.33112e-05 1.18263e-05
1.33112e-05 -1.20145e-05 4.45949e-07
1.18263e-05 4.45949e-07 -0.000125201
0.00106274 5.15651e-05 1.18972e-05
5.15651e-05 -9.60388e-06 1.78415e-06
1.18972e-05 1.78415e-06 -0.000126974
0.00140815 4.66276e-05 3.70979e-06
4.66276e-05 6.3488e-05 2.85609e-07
3.70979e-06 2.85609e-07 -6.33725e-05
0.00106949 9.08848e-05 1.18189e-05
9.08848e-05 4.5424e-06 3.18013e-06
1.18189e-05 3.18013e-06 -0.000118988
0.00140818 9.66359e-05 3.8618e-06
9.66359e-05 8.08912e-05 5.18879e-07
3.8618e-06 5.18879e-07 -5.59689e-05
0.00523819 -4.42809e-05 -0.00019266
-4.42809e-05 0.00266792 -1.46184e-07
-0.00019266 -1.46184e-07 0.00267148
0.00126446 -0.00010662 -2.5528e-05
-0.00010662 0.000386587 2.74686e-06
-2.5528e-05 2.74686e-06 0.00035065
-0.000212691 -8.7238e-07 -1.33006e-05
-8.7238e-07 -0.000586924 2.07957e-06
-1.33006e-05 2.07957e-06 -0.000661943
0.00161477 -3.88961e-05 -8.63233e-05
-3.88961e-05 0.000471045 5.09309e-06
-8.63233e-05 5.09309e-06 0.000414707
0.00386474 0.000240907 -6.37011e-06
0.000240907 0.00194374 3.25785e-06
-6.37011e-06 3.25785e-06 0.00190558
0.00241925 -0.0001245 -8.02265e-05
-0.0001245 0.00100295 1.2196e-05
-8.02265e-05 1.2196e-05 0.000942285
0.00160578 -7.5435e-05 -8.42824e-05
-7.5435e-05 0.000476524 9.05027e-06
-8.42824e-05 9.05027e-06 0.000419928
0.00161025 -0.000103992 -2.44069e-05
-0.000103992 0.000323465 4.64384e-06
-2.44069e-05 4.64384e-06 0.000209333
0.0020298 -0.000173208 -2.17247e-05
-0.000173208 0.000593818 6.46749e-06
-2.17247e-05 6.46749e-06 0.000473745
0.00203572 -0.000216238 -2.06934e-05
-0.000216238 0.000652847 7.64547e-06
-2.06934e-05 7.64547e-06 0.000514921
0.00128981 -0.000182637 -6.57765e-06
-0.000182637 0.000100707 1.76976e-06
-6.57765e-06 1.76976e-06 -5.36042e-05
0.000625313 8.49846e-06 -2.58296e-08
8.49846e-06 -0.000107421 -5.63286e-08
-2.58296e-08 -5.63286e-08 -0.000172438
0.00155822 -5.33285e-05 -2.73723e-05
-5.33285e-05 0.000440588 2.98908e-07
-2.73723e-05 2.98908e-07 0.000380186
0.00117921 -2.25352e-05 -5.80307e-06
-2.25352e-05 5.94616e-05 2.70906e-07
-5.80307e-06 2.70906e-07 -5.11151e-05
0.00181984 -9.0577e-05 -4.17563e-06
-9.0577e-05 0.000437137 6.00762e-07
-4.17563e-06 6.00762e-07 0.000326003
0.00371985 0.000133717 -3.27693e-06
0.000133717 0.00182434 -5.03463e-07
-3.27693e-06 -5.03463e-07 0.00181728
0.00135836 -3.59705e-05 4.73034e-07
-3.59705e-05 0.000424792 5.37439e-07
4.73034e-07 5.37439e-07 0.000361831
0.0013018 -0.000174554 5.13858e-07
-0.000174554 0.000302445 -1.24614e-06
5.13858e-07 -1.24614e-06 0.000162429
0.00158899 -0.00013064 -4.50727e-06
-0.00013064 0.00032346 9.30178e-07
-4.50727e-06 9.30178e-07 0.000206114
0.00148862 -0.000124489 -2.59691e-06
-0.000124489 0.000153038 5.71566e-07
-2.59691e-06 5.71566e-07 1.65639e-05
0.00112492 -0.000194048 2.66473e-07
-0.000194048 3.69071e-05 1.96589e-07
2.66473e-07 1.96589e-07 -0.000129095
0.00152623 -0.000173697 2.56433e-07
-0.000173697 0.000215515 -1.72654e-07
2.56433e-07 -1.72654e-07 6.81265e-05
0.00141656 -0.000207505 4.26046e-07
-0.000207505 0.000109507 -9.12781e-08
4.26046e-07 -9.12781e-08 -5.64276e-05
0.000529399 9.07777e-06 -6.95057e-07
9.07777e-06 -4.61654e-05 1.11467e-07
-6.95057e-07 1.11467e-07 -9.17061e-05
0.000663377 -2.33868e-05 -4.79956e-07
-2.33868e-05 2.47995e-05 -1.3298e-08
-4.79956e-07 -1.3298e-08 -7.02436e-05
0.00105827 -1.09775e-05 1.17036e-05
-1.09775e-05 -1.32726e-05 -9.16822e-07
1.17036e-05 -9.16822e-07 -0.00012527
0.00162582 -5.22723e-05 1.18526e-05
-5.22723e-05 0.000319239 -1.52055e-06
1.18526e-05 -1.52055e-06 0.000210246
0.00171179 -3.74917e-05 2.50578e-06
-3.74917e-05 0.000251254 -1.10618e-07
2.50578e-06 -1.10618e-07 0.000129182
0.00131772 -9.64022e-05 4.66898e-06
-9.64022e-05 4.30293e-05 -5.64205e-07
4.66898e-06 -5.64205e-07 -8.97148e-05
0.00162431 -0.000159264 4.744e-06
-0.000159264 0.000252517 -9.52111e-07
4.744e-06 -9.52111e-07 0.000111558
0.00166107 -0.000147648 -3.73666e-07
-0.000147648 0.00016498 5.98703e-07
-3.73666e-07 5.98703e-07 3.066e-05
0.000428412 -1.03655e-05 6.97859e-06
-1.03655e-05 -0.00010723 -9.40189e-06
6.97859e-06 -9.40189e-06 -0.000157652
0.00145568 -0.000191917 2.66908e-06
-0.000191917 0.000104486 4.29388e-07
2.66908e-06 4.29388e-07 -4.98772e-05
0.000628421 -0.000113458 4.1948e-06
-0.000113458 -2.14948e-05 -4.51074e-06
4.1948e-06 -4.51074e-06 -0.00015051
0.000932174 -0.00019436 7.71293e-06
-0.00019436 4.10804e-06 -4.62047e-06
7.71293e-06 -4.62047e-06 -0.000176995
0.00180197 -0.000257396 3.9034e-06
-0.000257396 0.000360467 2.57216e-07
3.9034e-06 2.57216e-07 0.000176697
0.00174767 -0.000241356 -4.68053e-07
-0.000241356 0.000239582 3.0394e-06
-4.68053e-07 3.0394e-06 7.64998e-05
0.000736558 -6.21177e-05 2.95127e-06
-6.21177e-05 6.6738e-05 -3.68429e-06
2.95127e-06 -3.68429e-06 -4.1799e-05
0.000607567 -9.96303e-07 1.13092e-06
-9.96303e-07 -1.54181e-06 -3.45779e-06
1.13092e-06 -3.45779e-06 -8.52268e-05
0.000911133 -0.000104919 1.27002e-06
-0.000104919 0.000173523 -7.95743e-07
1.27002e-06 -7.95743e-07 3.57219e-05
0.000601804 8.43159e-05 -1.66803e-05
8.43159e-05 -0.000104427 -7.15534e-06
-1.66803e-05 -7.15534e-06 -0.000177894
0.00301797 -0.000139031 -5.80071e-05
-0.000139031 0.00142125 -2.1109e-06
-5.80071e-05 -2.1109e-06 0.00141482
0.000471377 -7.42122e-05 1.93266e-06
-7.42122e-05 -5.94584e-05 -6.39813e-06
1.93266e-06 -6.39813e-06 -9.78117e-05
0.000525331 0.000128573 -1.80753e-05
0.000128573 -0.000115974 -1.12034e-05
-1.80753e-05 -1.12034e-05 -0.000196065
0.00103423 0.00013645 -1.29166e-05
0.00013645 9.80593e-06 -5.15362e-06
-1.29166e-05 -5.15362e-06 -0.000121801
0.000430014 6.79697e-06 -7.03097e-06
6.79697e-06 -0.000106411 -9.57552e-06
-7.03097e-06 -9.57552e-06 -0.000156293
0.0007148 0.000122936 -5.43529e-06
0.000122936 8.47961e-06 -5.60894e-06
-5.43529e-06 -5.60894e-06 -0.000127402
0.000955234 0.000155672 -9.93817e-06
0.000155672 2.95168e-05 -4.99714e-06
-9.93817e-06 -4.99714e-06 -0.000108593
0.000950264 0.000190884 -5.37423e-06
0.000190884 1.79354e-05 -1.86162e-06
-5.37423e-06 -1.86162e-06 -0.000159164
0.000540117 -2.86455e-05 1.38147e-06
-2.86455e-05 -3.19976e-05 3.48377e-07
1.38147e-06 3.48377e-07 -7.43984e-05
0.000563157 -7.13604e-05 -2.68271e-07
-7.13604e-05 -1.72847e-05 1.99676e-07
-2.68271e-07 1.99676e-07 -4.73837e-05
0.000639636 -1.14388e-05 4.64222e-07
-1.14388e-05 1.95268e-05 3.7675e-07
4.64222e-07 3.7675e-07 -6.22332e-05
0.00105112 0.000113616 6.35863e-08
0.000113616 3.44398e-06 -2.32195e-07
6.35863e-08 -2.32195e-07 -0.000123922
0.00100292 0.00015024 3.89714e-07
0.00015024 1.84778e-05 -2.13568e-07
3.89714e-07 -2.13568e-07 -0.000116442
0.0013126 0.000172754 1.86816e-07
0.000172754 8.06002e-05 2.93976e-08
1.86816e-07 2.93976e-08 -7.68719e-05
0.000793572 0.000112376 -1.83061e-07
0.000112376 9.65202e-05 2.12674e-07
-1.83061e-07 2.12674e-07 -2.87089e-05
0.0010881 0.000191409 -3.39598e-07
0.000191409 2.92469e-05 -2.49362e-07
-3.39598e-07 -2.49362e-07 -0.000137727
0.00108468 0.000196273 7.74522e-07
0.000196273 0.000185493 -8.07578e-07
7.74522e-07 -8.07578e-07 9.47676e-07
0.00123703 0.000230598 -3.47306e-07
0.000230598 0.000136411 6.65404e-07
-3.47306e-07 6.65404e-07 -5.09233e-05
0.000604976 -6.22196e-05 -4.34575e-08
-6.22196e-05 -6.09881e-06 4.62971e-06
-4.34575e-08 4.62971e-06 -2.97141e-05
0.000741066 7.21568e-05 3.80427e-06
7.21568e-05 7.51219e-05 3.61366e-06
3.80427e-06 3.61366e-06 -3.03429e-05
0.000669672 -2.56397e-05 6.23601e-07
-2.56397e-05 3.0368e-05 3.18164e-06
6.23601e-07 3.18164e-06 -3.32683e-05
0.000855045 7.22783e-05 7.2716e-07
7.22783e-05 0.000160612 1.17347e-06
7.2716e-07 1.17347e-06 3.30821e-05
0.00136527 0.000149308 5.96801e-06
0.000149308 8.12108e-05 1.17716e-06
5.96801e-06 1.17716e-06 -6.89648e-05
0.00125386 0.00019049 6.91053e-06
0.00019049 7.9713e-05 2.24183e-06
6.91053e-06 2.24183e-06 -8.34489e-05
0.00153759 0.000216089 1.84923e-06
0.000216089 0.000134023 5.51335e-08
1.84923e-06 5.51335e-08 -3.31454e-05
0.00101322 0.000163096 2.65227e-06
0.000163096 0.000199692 3.41296e-06
2.65227e-06 3.41296e-06 3.33552e-05
0.0012333 0.000221353 8.32652e-07
0.000221353 5.47657e-05 1.04482e-06
8.32652e-07 1.04482e-06 -0.000120893
0.0010192 0.000209786 1.09527e-06
0.000209786 0.000115203 -5.93685e-07
1.09527e-06 -5.93685e-07 -9.55299e-05
0.00170347 0.000268486 9.40582e-07
0.000268486 0.000337093 4.00246e-07
9.40582e-07 4.00246e-07 0.000145782
0.000672094 -1.26635e-05 1.83771e-06
-1.26635e-05 9.7416e-06 2.02064e-06
1.83771e-06 2.02064e-06 -3.36336e-05
0.000601674 -4.41418e-05 8.10235e-07
-4.41418e-05 -2.87181e-05 4.13941e-06
8.10235e-07 4.13941e-06 -4.45544e-05
0.00228528 -8.52714e-05 2.89829e-05
-8.52714e-05 0.000971247 3.2742e-06
2.89829e-05 3.2742e-06 0.000979021
0.00232241 -9.58424e-05 2.40228e-06
-9.58424e-05 0.00100079 -2.29477e-07
2.40228e-06 -2.29477e-07 0.00100577
0.00237821 -0.000106873 -3.55812e-05
-0.000106873 0.00104125 -2.65996e-06
-3.55812e-05 -2.65996e-06 0.00104307
0.000509434 3.16588e-05 2.35917e-06
3.16588e-05 -5.71543e-05 -6.41745e-06
2.35917e-06 -6.41745e-06 -9.12621e-05
0.00310252 0.000120812 6.49691e-05
0.000120812 0.00146042 -2.9679e-06
6.49691e-05 -2.9679e-06 0.00145782
0.000545734 2.46773e-05 -2.79159e-07
2.46773e-05 -3.45181e-05 1.37668e-07
-2.79159e-07 1.37668e-07 -7.48958e-05
0.0034548 0.000121949 -2.65175e-06
0.000121949 0.00166558 -3.50575e-07
-2.65175e-06 -3.50575e-07 0.00166239
0.000658969 8.4264e-05 -1.80571e-05
8.4264e-05 -7.82303e-05 -5.68338e-06
-1.80571e-05 -5.68338e-06 -0.000150738
0.000660135 3.10076e-05 -1.76792e-05
3.10076e-05 -8.70434e-05 -3.07554e-06
-1.76792e-05 -3.07554e-06 -0.000155596
0.00106851 7.64088e-05 -1.16004e-05
7.64088e-05 -1.02057e-06 -2.75244e-06
-1.16004e-05 -2.75244e-06 -0.000122358
0.00107018 3.66047e-05 -1.20717e-05
3.66047e-05 -8.34225e-06 -1.42538e-06
-1.20717e-05 -1.42538e-06 -0.000123434
0.000670305 -4.55638e-06 -1.81781e-05
-4.55638e-06 -8.67478e-05 -8.43723e-07
-1.81781e-05 -8.43723e-07 -0.00015099
0.00529752 -9.63515e-05 -0.000200408
-9.63515e-05 0.00270701 2.74689e-06
-0.000200408 2.74689e-06 0.00270764
0.000655033 -7.66639e-07 1.41279e-07
-7.66639e-07 -9.46133e-05 -3.36079e-07
1.41279e-07 -3.36079e-07 -0.000158657
0.00107011 1.7936e-05 -1.40986e-08
1.7936e-05 -9.47967e-06 -1.53643e-07
-1.40986e-08 -1.53643e-07 -0.000122777
0.00106961 5.32027e-05 -1.44415e-08
5.32027e-05 -5.41483e-06 -1.48548e-07
-1.44415e-08 -1.48548e-07 -0.000123032
0.00139453 4.58753e-05 -6.61367e-08
4.58753e-05 5.67514e-05 3.52607e-08
-6.61367e-08 3.52607e-08 -7.01983e-05
0.00106146 9.35093e-05 -3.85083e-08
9.35093e-05 8.84047e-07 -1.82773e-07
-3.85083e-08 -1.82773e-07 -0.000123346
0.0013899 9.82663e-05 -4.32663e-08
9.82663e-05 7.07134e-05 -7.60817e-08
-4.32663e-08 -7.60817e-08 -6.66558e-05
0.00107062 -2.93237e-07 1.1771e-05
-2.93237e-07 -7.78092e-06 -2.6873e-07
1.1771e-05 -2.6873e-07 -0.000120147
0.00140316 2.66435e-05 3.55247e-06
2.66435e-05 5.88956e-05 1.36873e-07
3.55247e-06 1.36873e-07 -6.53549e-05
0.0014152 7.29216e-05 3.86004e-06
7.29216e-05 7.52991e-05 2.81564e-07
3.86004e-06 2.81564e-07 -5.61678e-05
0.00165663 6.65051e-05 -8.76499e-07
6.65051e-05 8.8899e-05 -3.25741e-07
-8.76499e-07 -3.25741e-07 -2.57922e-05
0.00140358 0.000123994 4.3046e-06
0.000123994 8.6463e-05 7.95892e-07
4.3046e-06 7.95892e-07 -5.6744e-05
0.00162019 0.000123856 -4.27087e-07
0.000123856 9.69775e-05 -9.00531e-07
-4.27087e-07 -9.00531e-07 -3.26447e-05
0.000640043 5.88104e-06 -1.73042e-05
5.88104e-06 -9.83381e-05 9.01556e-07
-1.73042e-05 9.01556e-07 -0.000164234
0.00162307 -1.82926e-05 -8.69414e-05
-1.82926e-05 0.000472763 3.31812e-06
-8.69414e-05 3.31812e-06 0.000417427
0.000730842 -1.74716e-05 -1.325e-05
-1.74716e-05 -0.000198164 1.57998e-06
-1.325e-05 1.57998e-06 -0.000312868
0.00202339 -9.18538e-05 -2.15375e-05
-9.18538e-05 0.000551876 3.30532e-06
-2.15375e-05 3.30532e-06 0.000442496
0.00381014 0.000117769 -0.000113195
0.000117769 0.00187366 4.89897e-06
-0.000113195 4.89897e-06 0.00186926
0.0023091 -6.18526e-05 -6.76319e-05
-6.18526e-05 0.000963788 9.05044e-06
-6.76319e-05 9.05044e-06 0.000910836
0.00196835 -0.000215412 -1.56288e-05
-0.000215412 0.0006859 6.57182e-06
-1.56288e-05 6.57182e-06 0.000544034
0.00159549 -0.000129163 -2.19813e-05
-0.000129163 0.000326678 5.32707e-06
-2.19813e-05 5.32707e-06 0.000209598
0.0012397 -0.000116355 -6.60503e-06
-0.000116355 8.45628e-06 1.32741e-06
-6.60503e-06 1.32741e-06 -0.000128557
0.00177046 -0.00018406 -7.59212e-06
-0.00018406 0.000354375 1.84017e-06
-7.59212e-06 1.84017e-06 0.000207876
0.000938989 -0.000181331 -7.23963e-06
-0.000181331 -7.05805e-05 1.59144e-06
-7.23963e-06 1.59144e-06 -0.000236566
0.00141181 -0.000206838 -2.98732e-06
-0.000206838 0.000107906 -3.94635e-07
-2.98732e-06 -3.94635e-07 -5.74784e-05
0.000598902 3.00879e-07 -6.70346e-06
3.00879e-07 -7.17462e-06 8.45042e-06
-6.70346e-06 8.45042e-06 -5.33354e-05
0.000700045 -4.08678e-05 -2.73418e-06
-4.08678e-05 4.64646e-05 3.32132e-06
-2.73418e-06 3.32132e-06 -5.0998e-05
0.000898709 -6.59821e-06 -3.99086e-07
-6.59821e-06 -0.000104455 -9.67685e-08
-3.99086e-07 -9.67685e-08 -0.000217552
0.00163206 -5.331e-05 -4.80599e-06
-5.331e-05 0.000321743 4.85446e-07
-4.80599e-06 4.85446e-07 0.000212769
0.00170554 -3.39955e-05 -2.36838e-06
-3.39955e-05 0.000244521 2.75068e-07
-2.36838e-06 2.75068e-07 0.00012371
0.00152738 -0.000100075 4.52455e-07
-0.000100075 0.000162892 -7.05386e-08
4.52455e-07 -7.05386e-08 3.08592e-05
0.000550222 -2.09543e-05 1.06792e-07
-2.09543e-05 -4.01944e-05 2.37342e-07
1.06792e-07 2.37342e-07 -9.1367e-05
0.000845193 -0.000135884 -1.41715e-07
-0.000135884 0.000100152 3.25273e-07
-1.41715e-07 3.25273e-07 -3.22319e-05
0.000991198 -0.00019826 1.83512e-06
-0.00019826 4.05913e-05 -1.74024e-06
1.83512e-06 -1.74024e-06 -0.000140363
0.0016898 -0.000159843 -2.00101e-06
-0.000159843 0.000288685 5.05181e-07
-2.00101e-06 5.05181e-07 0.000147643
0.00166086 -0.000147445 -9.45327e-08
-0.000147445 0.000159755 2.1205e-07
-9.45327e-08 2.1205e-07 2.77417e-05
0.00167159 -0.000249755 -2.12572e-06
-0.000249755 0.000284574 2.58331e-07
-2.12572e-06 2.58331e-07 0.000100324
0.0014649 -0.00019256 3.85944e-07
-0.00019256 0.000108847 -4.91613e-08
3.85944e-07 -4.91613e-08 -4.53104e-05
0.00171315 -0.000241089 6.39362e-07
-0.000241089 0.000216447 4.6533e-07
6.39362e-07 4.6533e-07 5.31948e-05
0.000731089 -7.10253e-05 -2.19238e-07
-7.10253e-05 6.34948e-05 -1.78953e-07
-2.19238e-07 -1.78953e-07 -4.6047e-05
0.00070189 -6.93737e-05 -7.30327e-07
-6.93737e-05 4.78269e-05 -6.01007e-07
-7.30327e-07 -6.01007e-07 -8.14892e-05
0.000664183 -1.09184e-05 2.12872e-07
-1.09184e-05 2.88391e-05 2.15518e-07
2.12872e-07 2.15518e-07 -5.51651e-05
0.00170521 -1.28193e-05 2.15689e-06
-1.28193e-05 0.000239763 -1.15441e-07
2.15689e-06 -1.15441e-07 0.00011912
0.00168422 -6.47665e-05 2.57057e-06
-6.47665e-05 0.000235366 1.18856e-07
2.57057e-06 1.18856e-07 0.000111134
0.00164878 -4.80966e-05 -9.37367e-07
-4.80966e-05 0.000100212 7.70875e-07
-9.37367e-07 7.70875e-07 -1.35841e-05
0.00159572 -0.000120581 -1.39479e-06
-0.000120581 9.90996e-05 9.33676e-07
-1.39479e-06 9.33676e-07 -2.77349e-05
0.00148308 -0.000172647 1.34069e-06
-0.000172647 8.94419e-05 1.13465e-06
1.34069e-06 1.13465e-06 -5.23034e-05
0.00171212 -0.000167474 -2.08338e-06
-0.000167474 0.000118175 1.5542e-06
-2.08338e-06 1.5542e-06 3.20458e-06
0.000696286 -9.45113e-05 3.7257e-06
-9.45113e-05 4.05549e-05 -3.10577e-06
3.7257e-06 -3.10577e-06 -7.79726e-05
0.0015951 -0.000225219 -1.0043e-06
-0.000225219 0.000113655 1.88976e-06
-1.0043e-06 1.88976e-06 -3.32667e-05
0.000996344 -0.000186393 1.93185e-06
-0.000186393 0.000148362 -3.6667e-06
1.93185e-06 -3.6667e-06 -2.40263e-05
0.00137807 -0.000254483 5.09715e-06
-0.000254483 0.000182498 -3.68321e-06
5.09715e-06 -3.68321e-06 -2.64345e-05
0.00185188 -0.000276762 1.18052e-06
-0.000276762 0.0003385 2.85769e-06
1.18052e-06 2.85769e-06 0.000147346
0.00187662 -0.000271111 -3.12387e-06
-0.000271111 0.000260114 3.85497e-06
-3.12387e-06 3.85497e-06 0.000106276
0.000618856 -6.83045e-06 1.24179e-06
-6.83045e-06 1.89121e-06 -3.04237e-06
1.24179e-06 -3.04237e-06 -7.14808e-05
0.00079409 -0.000114934 2.32595e-06
-0.000114934 8.38999e-05 7.45788e-07
2.32595e-06 7.45788e-07 -4.98598e-05
0.00057868 -4.56111e-05 1.19303e-06
-4.56111e-05 -2.01092e-06 -1.9407e-06
1.19303e-06 -1.9407e-06 -0.000128255
0.0011882 -0.000173866 -3.67131e-07
-0.000173866 0.000325885 1.98424e-06
-3.67131e-07 1.98424e-06 0.000172053
0.00104343 0.000115762 -1.26881e-05
0.000115762 1.27968e-07 -4.44672e-06
-1.26881e-05 -4.44672e-06 -0.000127901
0.00052047 -6.63754e-05 -1.20852e-07
-6.63754e-05 -4.41633e-05 -4.91013e-06
-1.20852e-07 -4.91013e-06 -7.26902e-05
0.000451911 -4.61904e-05 -8.68598e-08
-4.61904e-05 -7.7946e-05 -8.15042e-06
-8.68598e-08 -8.15042e-06 -0.000121403
0.000620395 -4.31882e-05 1.16488e-06
-4.31882e-05 1.24283e-05 -3.80964e-06
1.16488e-06 -3.80964e-06 -6.93187e-05
0.00101644 0.000152697 -1.15351e-05
0.000152697 2.7179e-05 -5.73834e-06
-1.15351e-05 -5.73834e-06 -0.000108238
0.00128777 0.000171014 -6.33888e-06
0.000171014 6.95975e-05 -1.73563e-06
-6.33888e-06 -1.73563e-06 -8.78543e-05
0.000669137 9.51475e-05 -3.58757e-06
9.51475e-05 2.68185e-05 -3.83697e-06
-3.58757e-06 -3.83697e-06 -9.58985e-05
0.00123098 0.000206536 -4.60193e-06
0.000206536 0.000271051 -4.20329e-06
-4.60193e-06 -4.20329e-06 8.54169e-05
0.00137407 0.000210561 -5.51424e-06
0.000210561 0.000193688 -1.59745e-06
-5.51424e-06 -1.59745e-06 2.44699e-05
0.00114354 0.000226271 -3.01519e-06
0.000226271 7.80264e-05 2.39284e-07
-3.01519e-06 2.39284e-07 -0.000108921
0.000579032 -5.85475e-05 -8.02371e-08
-5.85475e-05 -2.27025e-05 7.57153e-08
-8.02371e-08 7.57153e-08 -4.5372e-05
0.000733987 6.24105e-05 4.2081e-07
6.24105e-05 7.61025e-05 -1.78495e-07
4.2081e-07 -1.78495e-07 -3.11419e-05
0.00063189 -4.13262e-05 -7.14478e-07
-4.13262e-05 1.21425e-05 6.15446e-07
-7.14478e-07 6.15446e-07 -5.24404e-05
0.000784951 4.43058e-05 8.88872e-07
4.43058e-05 0.000118705 -4.46694e-07
8.88872e-07 -4.46694e-07 -4.62974e-06
0.00134984 0.000148447 6.2578e-07
0.000148447 7.52331e-05 -6.1713e-08
6.2578e-07 -6.1713e-08 -7.50752e-05
0.00128745 0.000193412 2.2115e-07
0.000193412 0.000100967 3.04177e-08
2.2115e-07 3.04177e-08 -6.26887e-05
0.00154883 0.000216716 2.29222e-07
0.000216716 0.000140504 1.59839e-07
2.29222e-07 1.59839e-07 -2.69541e-05
0.000982128 0.000161994 6.49365e-07
0.000161994 0.000184695 6.11114e-07
6.49365e-07 6.11114e-07 1.94526e-05
0.00152954 0.000239586 -7.70433e-07
0.000239586 0.000228741 -6.36078e-07
-7.70433e-07 -6.36078e-07 5.12703e-05
0.00113515 0.000221596 1.633e-07
0.000221596 0.000180851 -1.77155e-06
1.633e-07 -1.77155e-06 -3.33828e-05
0.00142828 0.000248193 -2.33588e-06
0.000248193 0.000185686 -3.51272e-07
-2.33588e-06 -3.51272e-07 -1.08138e-06
0.000596133 -5.19229e-05 8.48139e-07
-5.19229e-05 -2.34419e-05 4.22981e-06
8.48139e-07 4.22981e-06 -4.22003e-05
0.000686348 -2.7852e-05 1.23473e-06
-2.7852e-05 3.2734e-05 2.40511e-06
1.23473e-06 2.40511e-06 -2.00159e-05
0.00095777 0.000115452 2.14791e-06
0.000115452 0.000196621 1.85911e-06
2.14791e-06 1.85911e-06 5.40687e-05
0.000802755 4.3918e-05 -3.75801e-07
4.3918e-05 0.000132791 2.28291e-06
-3.75801e-07 2.28291e-06 2.63595e-05
0.000882388 0.000118786 2.54984e-07
0.000118786 0.000185808 -4.57399e-07
2.54984e-07 -4.57399e-07 3.61311e-05
0.00158634 0.000186336 1.65528e-06
0.000186336 0.000128092 -9.33132e-07
1.65528e-06 -9.33132e-07 -2.55128e-05
0.00139385 0.000227288 1.3276e-06
0.000227288 9.53909e-05 1.38536e-06
1.3276e-06 1.38536e-06 -7.91906e-05
0.00172606 0.000254419 -2.39796e-07
0.000254419 0.000191046 -4.68209e-07
-2.39796e-07 -4.68209e-07 2.77063e-05
0.0011521 0.000206218 3.83851e-06
0.000206218 0.000271605 4.74336e-06
3.83851e-06 4.74336e-06 6.41004e-05
0.00156222 0.000265992 2.82087e-06
0.000265992 0.000202727 1.26091e-06
2.82087e-06 1.26091e-06 1.90562e-05
0.000694295 0.000204004 3.20423e-06
0.000204004 -0.000157137 -1.59013e-06
3.20423e-06 -1.59013e-06 -0.000369083
0.000667377 -1.61959e-05 2.24211e-06
-1.61959e-05 9.37105e-06 2.01419e-06
2.24211e-06 2.01419e-06 -3.52542e-05
0.000715034 3.02593e-05 3.03537e-07
3.02593e-05 5.91533e-05 8.97281e-07
3.03537e-07 8.97281e-07 -1.27736e-05
0.000689469 -2.92262e-06 1.55062e-06
-2.92262e-06 1.91087e-05 2.0279e-06
1.55062e-06 2.0279e-06 -2.37581e-05
0.000670511 -2.49353e-05 -3.38187e-07
-2.49353e-05 1.04286e-05 9.31709e-09
-3.38187e-07 9.31709e-09 -3.37917e-05
0.0012597 -5.01368e-05 1.12022e-06
-5.01368e-05 0.000348025 2.45612e-06
1.12022e-06 2.45612e-06 0.00033765
0.000942921 -5.02656e-05 7.05772e-07
-5.02656e-05 0.000169777 -6.38611e-08
7.05772e-07 -6.38611e-08 0.000155649
0.000913051 -4.50277e-05 2.41093e-05
-4.50277e-05 0.000162343 6.92414e-06
2.41093e-05 6.92414e-06 0.000166881
0.00225189 -8.36028e-05 2.40156e-06
-8.36028e-05 0.000950848 -2.06578e-07
2.40156e-06 -2.06578e-07 0.00095903
0.00226971 -9.35974e-05 -3.20004e-05
-9.35974e-05 0.000969416 -3.04542e-06
-3.20004e-05 -3.04542e-06 0.00097492
0.000525849 4.5705e-05 -7.00145e-08
4.5705e-05 -5.06514e-05 -5.61478e-06
-7.00145e-08 -5.61478e-06 -8.07146e-05
0.00284741 0.000112915 4.78756e-05
0.000112915 0.0013084 -3.11609e-06
4.78756e-05 -3.11609e-06 0.00130787
0.000560143 3.03165e-05 -2.60495e-07
3.03165e-05 -2.84729e-05 1.47458e-07
-2.60495e-07 1.47458e-07 -6.28296e-05
0.00318861 0.000114325 -3.56356e-06
0.000114325 0.0015082 -2.91235e-07
-3.56356e-06 -2.91235e-07 0.00150724
0.000599392 2.16636e-05 -3.75903e-06
2.16636e-05 -4.78684e-06 7.68126e-06
-3.75903e-06 7.68126e-06 -4.53823e-05
0.00353142 0.000112654 -9.9326e-05
0.000112654 0.0017077 4.08068e-06
-9.9326e-05 4.08068e-06 0.0017064
0.00106457 9.63758e-05 -1.20463e-05
9.63758e-05 3.15776e-06 -3.49637e-06
-1.20463e-05 -3.49637e-06 -0.000121702
0.00107918 5.73258e-05 -1.18214e-05
5.73258e-05 4.63895e-07 -2.05342e-06
-1.18214e-05 -2.05342e-06 -0.000117569
0.00136648 9.63964e-05 -4.22809e-06
9.63964e-05 5.75969e-05 -7.01545e-07
-4.22809e-06 -7.01545e-07 -7.99666e-05
0.00138022 4.53041e-05 -3.93931e-06
4.53041e-05 4.9779e-05 -1.79164e-07
-3.93931e-06 -1.79164e-07 -7.7267e-05
0.00107287 2.13122e-05 -1.19868e-05
2.13122e-05 -7.6624e-06 -8.07988e-07
-1.19868e-05 -8.07988e-07 -0.000121089
0.000631777 2.07093e-05 -1.78407e-05
2.07093e-05 -0.000107137 -4.43542e-08
-1.78407e-05 -4.43542e-08 -0.000171415
0.00106719 1.99275e-06 9.81616e-09
1.99275e-06 -9.78648e-06 -9.65006e-08
9.81616e-09 -9.65006e-08 -0.000122188
0.00139167 2.82698e-05 -9.25572e-08
2.82698e-05 5.24868e-05 -2.15863e-08
-9.25572e-08 -2.15863e-08 -7.18857e-05
0.00138988 6.98996e-05 3.067e-09
6.98996e-05 6.25751e-05 -6.92695e-08
3.067e-09 -6.92695e-08 -6.89139e-05
0.00169849 6.74697e-05 -6.2868e-08
6.74697e-05 0.000109229 2.10169e-07
-6.2868e-08 2.10169e-07 -3.6493e-06
0.00137996 0.000123284 -1.88238e-07
0.000123284 7.43668e-05 -6.6814e-08
-1.88238e-07 -6.6814e-08 -6.90524e-05
0.00162831 0.000122306 -1.80728e-07
0.000122306 0.000106233 4.81216e-08
-1.80728e-07 4.81216e-08 -2.33981e-05
0.00139395 6.72191e-06 3.7417e-06
6.72191e-06 5.58427e-05 -5.09013e-08
3.7417e-06 -5.09013e-08 -6.7295e-05
0.00171183 4.02573e-05 -1.59313e-06
4.02573e-05 0.000112354 8.1799e-08
-1.59313e-06 8.1799e-08 4.14476e-06
0.00163937 0.000100754 -7.25842e-07
0.000100754 8.81808e-05 -7.48258e-07
-7.25842e-07 -7.48258e-07 -3.32262e-05
0.00177293 7.55317e-05 -1.44177e-06
7.55317e-05 8.94743e-05 -5.5337e-08
-1.44177e-06 -5.5337e-08 -5.69676e-06
0.00161231 0.000148708 -4.61941e-08
0.000148708 0.000119092 -9.98592e-07
-4.61941e-08 -9.98592e-07 -2.06251e-05
0.00169608 0.000146033 -2.82687e-06
0.000146033 7.64413e-05 -1.12881e-06
-2.82687e-06 -1.12881e-06 -3.05941e-05
0.000735338 -3.77332e-06 -1.15874e-05
-3.77332e-06 -0.000197567 6.16077e-07
-1.15874e-05 6.16077e-07 -0.000311821
0.00165976 -5.58031e-05 -2.12628e-05
-5.58031e-05 0.000336414 2.42949e-06
-2.12628e-05 2.42949e-06 0.000227444
0.00170349 -2.7682e-05 -6.99504e-06
-2.7682e-05 0.000240295 3.80586e-07
-6.99504e-06 3.80586e-07 0.000120896
0.00173527 -0.000103985 -5.11026e-06
-0.000103985 0.000281817 8.07153e-07
-5.11026e-06 8.07153e-07 0.000150477
0.000678214 -3.27967e-05 -9.29999e-06
-3.27967e-05 3.188e-05 9.60088e-06
-9.29999e-06 9.60088e-06 -2.12892e-05
0.000912009 -0.00014936 -6.40534e-06
-0.00014936 0.000139114 5.89251e-06
-6.40534e-06 5.89251e-06 4.34855e-06
0.00105443 -0.000202582 -4.03525e-06
-0.000202582 7.9396e-05 1.17152e-06
-4.03525e-06 1.17152e-06 -0.000101513
0.00175351 -0.000160254 -8.19748e-06
-0.000160254 0.000323862 1.99356e-06
-8.19748e-06 1.99356e-06 0.000182764
0.00165444 -0.000146916 -4.84983e-07
-0.000146916 0.000150956 -6.4755e-07
-4.84983e-07 -6.4755e-07 2.12841e-05
0.001473 -0.000193116 -2.18134e-06
-0.000193116 0.00011263 -4.67281e-07
-2.18134e-06 -4.67281e-07 -4.13109e-05
0.00152621 -0.000240828 -5.82112e-06
-0.000240828 0.000200422 5.19212e-09
-5.82112e-06 5.19212e-09 1.59293e-05
0.00166975 -0.000239909 2.139e-06
-0.000239909 0.000188427 -2.47078e-06
2.139e-06 -2.47078e-06 2.51729e-05
0.000713486 -7.65847e-05 -3.97048e-06
-7.65847e-05 5.09396e-05 3.18445e-06
-3.97048e-06 3.18445e-06 -5.80773e-05
0.000533924 -6.06298e-05 -2.52408e-06
-6.06298e-05 -4.57581e-05 -3.2469e-07
-2.52408e-06 -3.2469e-07 -0.000174798
0.000701233 -1.77396e-05 -1.35319e-06
-1.77396e-05 4.8812e-05 3.55581e-06
-1.35319e-06 3.55581e-06 -3.59048e-05
0.00155492 -1.08981e-05 -2.38227e-06
-1.08981e-05 0.000152387 1.56295e-07
-2.38227e-06 1.56295e-07 3.05988e-05
0.00169224 -7.14259e-05 -2.13845e-06
-7.14259e-05 0.000240034 3.70305e-07
-2.13845e-06 3.70305e-07 0.00011527
0.00164418 -4.46952e-05 2.11048e-07
-4.46952e-05 9.64686e-05 2.77307e-07
2.11048e-07 2.77307e-07 -1.44048e-05
0.00163212 -0.00011833 -1.1865e-06
-0.00011833 0.000116587 2.85335e-07
-1.1865e-06 2.85335e-07 -1.0237e-05
0.00076497 -0.000108715 2.88303e-07
-0.000108715 7.93296e-05 1.24443e-07
2.88303e-07 1.24443e-07 -4.10484e-05
0.00105072 -0.000191753 -9.78599e-07
-0.000191753 0.000174098 4.28564e-07
-9.78599e-07 4.28564e-07 1.22503e-06
0.00115302 -0.000234642 6.92682e-07
-0.000234642 6.28478e-05 -9.46789e-07
6.92682e-07 -9.46789e-07 -0.00014126
0.00154702 -0.000175397 -3.67003e-07
-0.000175397 0.000126502 3.0795e-07
-3.67003e-07 3.0795e-07 -1.71105e-05
0.0017444 -0.000167693 1.23047e-06
-0.000167693 0.000139321 1.64754e-07
1.23047e-06 1.64754e-07 2.81253e-05
0.00170846 -0.000270613 -9.65013e-07
-0.000270613 0.000255186 5.81477e-07
-9.65013e-07 5.81477e-07 6.21236e-05
0.00161658 -0.000225166 1.46075e-07
-0.000225166 0.000126382 2.64595e-07
1.46075e-07 2.64595e-07 -2.01059e-05
0.00192622 -0.000272378 1.24882e-06
-0.000272378 0.000290557 -5.31073e-07
1.24882e-06 -5.31073e-07 0.000139023
0.000923564 -0.00013355 1.67129e-07
-0.00013355 0.000161477 2.77143e-07
1.67129e-07 2.77143e-07 2.36319e-05
0.00104182 -0.000169374 -3.2567e-07
-0.000169374 0.000245276 3.94333e-07
-3.2567e-07 3.94333e-07 8.985e-05
0.000664352 -1.31728e-05 1.52261e-07
-1.31728e-05 2.7667e-05 1.93942e-07
1.52261e-07 1.93942e-07 -4.63379e-05
0.000510896 -1.91131e-05 -1.76494e-07
-1.91131e-05 -4.67969e-05 -8.41324e-07
-1.76494e-07 -8.41324e-07 -0.000166284
0.0016596 -2.60466e-05 -6.42079e-07
-2.60466e-05 9.92913e-05 9.17301e-08
-6.42079e-07 9.17301e-08 -1.14516e-05
0.00183834 -8.08881e-05 -5.18737e-07
-8.08881e-05 0.000212532 9.84982e-07
-5.18737e-07 9.84982e-07 9.63163e-05
0.00162618 -6.02093e-05 4.04001e-07
-6.02093e-05 1.37912e-05 1.29393e-07
4.04001e-07 1.29393e-07 -8.41965e-05
0.00175545 -0.000146622 -3.71689e-06
-0.000146622 0.00010996 1.09168e-06
-3.71689e-06 1.09168e-06 1.14428e-05
0.00169942 -0.00019933 -2.98546e-06
-0.00019933 0.00013758 2.72569e-06
-2.98546e-06 2.72569e-06 1.05683e-05
0.00180527 -0.000168389 8.66866e-07
-0.000168389 0.000141003 8.20164e-08
8.66866e-07 8.20164e-08 4.61183e-05
0.000822663 -0.000159526 1.63691e-06
-0.000159526 8.82928e-05 -9.1036e-07
1.63691e-06 -9.1036e-07 -6.08588e-05
0.00161894 -0.000243632 -4.25501e-06
-0.000243632 8.13605e-05 3.038e-06
-4.25501e-06 3.038e-06 -4.5697e-05
0.000266299 -0.000154488 9.62265e-08
-0.000154488 -0.000309469 -5.30163e-06
9.62265e-08 -5.30163e-06 -0.000499948
0.00205312 -0.000326003 3.89189e-06
-0.000326003 0.000523147 -7.135e-07
3.89189e-06 -7.135e-07 0.000295705
0.00170302 -0.000286767 -3.2913e-07
-0.000286767 0.000205184 5.43675e-06
-3.2913e-07 5.43675e-06 1.33456e-05
0.00191193 -0.000269673 -9.15456e-07
-0.000269673 0.000260881 1.51564e-06
-9.15456e-07 1.51564e-06 0.000115238
0.000622809 -1.46438e-05 1.56858e-06
-1.46438e-05 2.20771e-06 -2.92224e-06
1.56858e-06 -2.92224e-06 -6.37536e-05
0.000541451 -2.06835e-05 -6.64403e-08
-2.06835e-05 -1.75254e-05 -2.31242e-06
-6.64403e-08 -2.31242e-06 -0.000133426
0.000902471 -0.000175447 3.80515e-07
-0.000175447 0.000143411 2.02069e-06
3.80515e-07 2.02069e-06 -1.09753e-05
0.000855167 -0.000124468 1.7195e-06
-0.000124468 0.000164848 6.25952e-07
1.7195e-06 6.25952e-07 1.52858e-05
0.00122836 -0.000204673 -1.20776e-06
-0.000204673 0.000343608 3.95972e-06
-1.20776e-06 3.95972e-06 0.000185239
0.000561842 -5.5854e-05 -1.11126e-06
-5.5854e-05 -3.37491e-05 -4.30886e-06
-1.11126e-06 -4.30886e-06 -5.57486e-05
0.00133688 0.000147629 -4.70753e-06
0.000147629 7.09763e-05 -1.30219e-06
-4.70753e-06 -1.30219e-06 -7.94543e-05
0.000576986 -5.7966e-05 -1.02337e-07
-5.7966e-05 -1.47204e-05 -2.55052e-06
-1.02337e-07 -2.55052e-06 -8.11396e-05
0.000720745 4.21681e-05 -1.01464e-06
4.21681e-05 6.53854e-05 -3.84379e-06
-1.01464e-06 -3.84379e-06 -3.76394e-05
0.000702582 1.52682e-05 1.62816e-06
1.52682e-05 6.85759e-05 -1.74523e-06
1.62816e-06 -1.74523e-06 -4.97571e-05
0.00125519 0.000192214 -6.4251e-06
0.000192214 8.50812e-05 -2.15135e-06
-6.4251e-06 -2.15135e-06 -7.87314e-05
0.00157011 0.000217857 -6.31614e-07
0.000217857 0.000153009 4.13079e-07
-6.31614e-07 4.13079e-07 -1.47625e-05
0.0010438 0.000175136 -2.19107e-06
0.000175136 0.000223976 -2.56518e-06
-2.19107e-06 -2.56518e-06 5.69071e-05
0.00132646 0.000240078 -3.1746e-06
0.000240078 0.000287268 -2.82634e-06
-3.1746e-06 -2.82634e-06 6.86952e-05
0.00178217 0.000255005 -3.73445e-06
0.000255005 0.000377932 -1.8078e-06
-3.73445e-06 -1.8078e-06 0.000198956
0.00121078 0.000232573 -7.02412e-06
0.000232573 6.61525e-05 -1.33281e-07
-7.02412e-06 -1.33281e-07 -0.000116643
0.000590791 -5.01265e-05 5.80314e-08
-5.01265e-05 -2.72677e-05 2.03673e-09
5.80314e-08 2.03673e-09 -4.56626e-05
0.000653248 -3.62768e-05 -6.02883e-07
-3.62768e-05 1.55125e-05 2.45317e-07
-6.02883e-07 2.45317e-07 -3.78644e-05
0.000924762 0.000116779 4.96966e-07
0.000116779 0.00017699 3.18072e-07
4.96966e-07 3.18072e-07 3.52128e-05
0.00071387 -3.92568e-06 -4.72971e-07
-3.92568e-06 7.84222e-05 3.53952e-07
-4.72971e-07 3.53952e-07 -2.27162e-05
0.000717745 8.22686e-05 1.12557e-06
8.22686e-05 8.56124e-05 -4.81018e-07
1.12557e-06 -4.81018e-07 -5.80383e-05
0.00158593 0.000187642 4.39092e-07
0.000187642 0.000125436 -4.33731e-07
4.39092e-07 -4.33731e-07 -2.87184e-05
0.00146684 0.000231161 7.09242e-07
0.000231161 0.000138909 7.07189e-07
7.09242e-07 7.07189e-07 -3.61097e-05
0.00166334 0.000252847 1.51043e-06
0.000252847 0.000155333 2.67099e-07
1.51043e-06 2.67099e-07 -8.59341e-06
0.00110668 0.000202239 1.27523e-06
0.000202239 0.00025202 1.38217e-06
1.27523e-06 1.38217e-06 4.34104e-05
0.00167716 0.000274525 6.81706e-07
0.000274525 0.000265819 -2.10249e-07
6.81706e-07 -2.10249e-07 8.12777e-05
0.00101708 0.000228047 -2.16609e-06
0.000228047 1.96136e-05 -3.22413e-07
-2.16609e-06 -3.22413e-07 -0.000194391
0.000691344 -2.24943e-05 2.09551e-06
-2.24943e-05 2.75949e-05 2.09954e-06
2.09551e-06 2.09954e-06 -1.96738e-05
0.00077953 2.92675e-05 5.11921e-07
2.92675e-05 0.000106367 1.84532e-06
5.11921e-07 1.84532e-06 2.10324e-05
0.000999936 0.000181307 -9.2877e-07
0.000181307 0.000219431 -2.44664e-07
-9.2877e-07 -2.44664e-07 4.69738e-05
0.000876646 3.8502e-05 -4.26443e-07
3.8502e-05 0.000178988 1.10927e-06
-4.26443e-07 1.10927e-06 5.61659e-05
0.00126221 0.00010141 -3.50904e-06
0.00010141 0.000373771 -3.81729e-06
-3.50904e-06 -3.81729e-06 0.000224627
0.00165806 0.000198619 -2.68034e-06
0.000198619 0.000122168 -2.69756e-06
-2.68034e-06 -2.69756e-06 -1.82587e-05
0.00165003 0.000279231 1.43649e-06
0.000279231 0.000193921 4.59739e-07
1.43649e-06 4.59739e-07 1.4272e-05
0.00150888 0.000272134 1.54941e-06
0.000272134 3.37077e-05 -1.22258e-06
1.54941e-06 -1.22258e-06 -0.000124686
0.00104206 0.000209842 -6.07387e-07
0.000209842 0.000188225 2.84289e-06
-6.07387e-07 2.84289e-06 -4.61425e-05
0.00139659 0.000276796 5.75609e-06
0.000276796 0.000124585 -6.08037e-07
5.75609e-06 -6.08037e-07 -7.87409e-05
0.000668716 -2.49359e-05 -1.77989e-07
-2.49359e-05 1.10742e-05 1.95202e-09
-1.77989e-07 1.95202e-09 -3.40239e-05
0.000594894 8.75658e-06 1.4444e-06
8.75658e-06 -1.82002e-05 1.32124e-06
1.4444e-06 1.32124e-06 -8.67953e-05
0.000610671 -7.11704e-06 -5.71466e-07
-7.11704e-06 -4.19642e-06 -6.90518e-08
-5.71466e-07 -6.90518e-08 -7.37556e-05
0.000922448 6.37095e-05 7.55687e-07
6.37095e-05 0.000187573 -3.25601e-07
7.55687e-07 -3.25601e-07 0.000102001
0.000720894 4.74522e-05 1.728e-06
4.74522e-05 6.22201e-05 1.10984e-06
1.728e-06 1.10984e-06 -8.6078e-06
0.000674573 9.69582e-06 1.51921e-06
9.69582e-06 1.25372e-05 2.05328e-06
1.51921e-06 2.05328e-06 -3.07901e-05
0.000674999 -1.84126e-05 -5.24708e-07
-1.84126e-05 1.22433e-05 2.17305e-08
-5.24708e-07 2.17305e-08 -3.13236e-05
0.00125774 -3.94044e-05 7.77491e-07
-3.94044e-05 0.000341464 2.4001e-06
7.77491e-07 2.4001e-06 0.000332846
0.000671375 -3.37566e-05 -9.47941e-07
-3.37566e-05 1.19239e-05 -2.0513e-06
-9.47941e-07 -2.0513e-06 -3.27613e-05
0.00128871 -4.70895e-05 -4.99464e-06
-4.70895e-05 0.000364346 -1.31883e-06
-4.99464e-06 -1.31883e-06 0.000354416
0.000888865 -3.66311e-05 2.22047e-05
-3.66311e-05 0.000139672 7.12046e-06
2.22047e-05 7.12046e-06 0.000146801
0.00129469 -5.40113e-05 -9.65358e-06
-5.40113e-05 0.00037467 -3.60549e-06
-9.65358e-06 -3.60549e-06 0.000362678
0.00154344 -5.83713e-05 2.02728e-05
-5.83713e-05 0.0005298 1.93832e-06
2.02728e-05 1.93832e-06 0.000537528
0.00222311 -8.19138e-05 -2.83965e-05
-8.19138e-05 0.000933053 -3.47583e-06
-2.83965e-05 -3.47583e-06 0.000941648
0.000539332 5.00385e-05 -1.92215e-08
5.00385e-05 -4.92206e-05 -4.87208e-06
-1.92215e-08 -4.87208e-06 -7.45759e-05
0.000557131 3.8238e-05 1.07256e-08
3.8238e-05 -3.4136e-05 1.67242e-07
1.07256e-08 1.67242e-07 -6.34228e-05
0.00264874 0.000100175 3.80213e-05
0.000100175 0.00118752 -3.42161e-06
3.80213e-05 -3.42161e-06 0.00119022
0.00294047 0.000108409 -5.55416e-06
0.000108409 0.00136088 -2.96334e-07
-5.55416e-06 -2.96334e-07 0.00136161
0.000610957 2.86887e-05 -2.8883e-06
2.86887e-05 1.56938e-07 6.65171e-06
-2.8883e-06 6.65171e-06 -3.4471e-05
0.00327071 0.000105332 -8.61745e-05
0.000105332 0.00155351 3.73815e-06
-8.61745e-05 3.73815e-06 0.0015546
0.00135716 0.000122763 -4.7169e-06
0.000122763 6.25897e-05 -9.454e-07
-4.7169e-06 -9.454e-07 -8.10679e-05
0.00136656 7.00102e-05 -4.10022e-06
7.00102e-05 5.10495e-05 -4.05653e-07
-4.10022e-06 -4.05653e-07 -8.07538e-05
0.00163065 0.000121806 5.57349e-08
0.000121806 0.000112301 9.76405e-07
5.57349e-08 9.76405e-07 -1.74683e-05
0.00174035 6.84428e-05 7.30666e-07
6.84428e-05 0.000129476 6.39253e-07
7.30666e-07 6.39253e-07 1.84223e-05
0.00138239 3.13306e-05 -3.55697e-06
3.13306e-05 4.71622e-05 -1.50446e-07
-3.55697e-06 -1.50446e-07 -7.73741e-05
0.00107329 6.69596e-06 -1.17143e-05
6.69596e-06 -6.62967e-06 -2.56527e-08
-1.17143e-05 -2.56527e-08 -0.000118997
0.00138981 1.01516e-05 6.52466e-08
1.01516e-05 5.3423e-05 -1.06627e-08
6.52466e-08 -1.06627e-08 -6.98168e-05
0.00171657 3.01819e-05 -1.00855e-06
3.01819e-05 0.000115863 4.65128e-09
-1.00855e-06 4.65128e-09 7.9542e-06
0.0016579 9.96197e-05 -1.07345e-07
9.96197e-05 0.000100099 3.88867e-08
-1.07345e-07 3.88867e-08 -2.1142e-05
0.00180552 7.67796e-05 1.39326e-06
7.67796e-05 0.000107079 8.81875e-07
1.39326e-06 8.81875e-07 1.54469e-05
0.00160128 0.000149582 -2.24293e-07
0.000149582 0.000111028 -7.22939e-08
-2.24293e-07 -7.22939e-08 -2.92533e-05
0.00170595 0.0001433 -3.00113e-07
0.0001433 7.92557e-05 8.87715e-07
-3.00113e-07 8.87715e-07 -2.5199e-05
0.00169312 -1.28638e-07 -6.12405e-07
-1.28638e-07 0.00011178 1.56408e-07
-6.12405e-07 1.56408e-07 4.03712e-06
0.00169172 4.28595e-05 -2.42443e-07
4.28595e-05 4.8536e-05 6.60886e-07
-2.42443e-07 6.60886e-07 -4.26508e-05
0.00181527 0.000115172 -3.66041e-06
0.000115172 0.000120435 -9.32739e-07
-3.66041e-06 -9.32739e-07 2.64708e-05
0.00181359 8.23576e-05 1.3927e-06
8.23576e-05 9.64936e-05 4.48725e-08
1.3927e-06 4.48725e-08 2.13436e-05
0.00162967 0.000154147 -1.71455e-06
0.000154147 7.08853e-05 -2.53368e-06
-1.71455e-06 -2.53368e-06 -4.8271e-05
0.00188963 0.000155703 1.47434e-06
0.000155703 0.000146506 2.3726e-08
1.47434e-06 2.3726e-08 5.8777e-05
0.00140073 -9.38859e-06 -5.59446e-06
-9.38859e-06 6.26039e-05 2.51291e-07
-5.59446e-06 2.51291e-07 -6.03338e-05
0.00170719 -7.50188e-05 -6.94601e-06
-7.50188e-05 0.00024855 6.66199e-07
-6.94601e-06 6.66199e-07 0.000123438
0.0016347 -4.26706e-05 6.72833e-07
-4.26706e-05 8.97954e-05 -7.02897e-07
6.72833e-07 -7.02897e-07 -1.82466e-05
0.00166335 -0.000116429 -7.10638e-07
-0.000116429 0.000131026 -2.38991e-07
-7.10638e-07 -2.38991e-07 4.1637e-06
0.000880106 -0.000126625 -4.96059e-06
-0.000126625 0.000144844 4.23387e-06
-4.96059e-06 4.23387e-06 2.21151e-05
0.0011478 -0.000200383 -3.42874e-06
-0.000200383 0.00022468 4.22742e-06
-3.42874e-06 4.22742e-06 5.07774e-05
0.000800993 -0.000204561 -3.324e-06
-0.000204561 -0.000128825 4.38866e-07
-3.324e-06 4.38866e-07 -0.000327475
0.00161562 -0.000178359 -1.81758e-06
-0.000178359 0.000166134 -1.07397e-08
-1.81758e-06 -1.07397e-08 2.06265e-05
0.00177693 -0.000167798 3.27663e-06
-0.000167798 0.00016056 -1.96875e-06
3.27663e-06 -1.96875e-06 5.31631e-05
0.00164486 -0.000225428 1.65013e-06
-0.000225428 0.000143193 -1.38502e-06
1.65013e-06 -1.38502e-06 -2.87668e-06
0.00160346 -0.000268027 -1.53662e-06
-0.000268027 0.000194021 -1.31576e-06
-1.53662e-06 -1.31576e-06 -1.63106e-06
0.00197778 -0.000273282 4.93881e-06
-0.000273282 0.000322576 -6.14103e-06
4.93881e-06 -6.14103e-06 0.000173433
0.000931356 -0.000133999 -1.6602e-06
-0.000133999 0.000167197 6.50746e-09
-1.6602e-06 6.50746e-09 2.93275e-05
0.000789341 -0.000127018 -1.61007e-06
-0.000127018 9.30136e-05 -1.27886e-06
-1.61007e-06 -1.27886e-06 -5.28101e-05
0.00071182 -1.72824e-05 -1.54039e-06
-1.72824e-05 5.38314e-05 3.19654e-06
-1.54039e-06 3.19654e-06 -2.04129e-05
0.000468369 1.65916e-07 -1.03428e-07
1.65916e-07 -7.30066e-05 2.76131e-07
-1.03428e-07 2.76131e-07 -0.000188733
0.00165322 -2.57961e-05 -5.09252e-09
-2.57961e-05 9.59954e-05 5.64492e-08
-5.09252e-09 5.64492e-08 -1.4841e-05
0.00175573 -7.98988e-05 -2.52088e-07
-7.98988e-05 0.00016496 -1.43826e-07
-2.52088e-07 -1.43826e-07 4.69961e-05
0.00169438 -5.99312e-05 1.17652e-06
-5.99312e-05 5.40224e-05 -2.80659e-07
1.17652e-06 -2.80659e-07 -4.19045e-05
0.0016905 -0.000143779 -1.22044e-06
-0.000143779 8.03517e-05 5.52112e-07
-1.22044e-06 5.52112e-07 -2.01e-05
0.000958326 -0.000160882 -3.57308e-07
-0.000160882 0.000164303 9.87299e-07
-3.57308e-07 9.87299e-07 1.52109e-05
0.000621879 -0.000179754 1.24118e-06
-0.000179754 -0.000103637 -2.03013e-06
1.24118e-06 -2.03013e-06 -0.000295079
0.00164365 -0.000295531 -1.12549e-07
-0.000295531 0.000287343 6.3443e-07
-1.12549e-07 6.3443e-07 6.2026e-05
0.00164256 -0.000196649 -1.35846e-06
-0.000196649 0.000110016 6.47003e-07
-1.35846e-06 6.47003e-07 -2.00472e-05
0.00172339 -0.000168301 1.99807e-06
-0.000168301 8.98921e-05 -1.05132e-06
1.99807e-06 -1.05132e-06 -1.95455e-06
0.00169201 -0.000287552 -7.14973e-07
-0.000287552 0.00020093 1.11027e-06
-7.14973e-07 1.11027e-06 8.08011e-06
0.00166301 -0.000245287 -3.4581e-07
-0.000245287 0.000108739 9.26516e-07
-3.4581e-07 9.26516e-07 -1.8455e-05
0.00179787 -0.000264362 2.98636e-06
-0.000264362 0.000186602 -4.35306e-06
2.98636e-06 -4.35306e-06 4.43936e-05
0.00101324 -0.000185112 2.88981e-07
-0.000185112 0.000204643 7.42348e-07
2.88981e-07 7.42348e-07 4.87675e-05
0.00110763 -0.000187518 1.79164e-06
-0.000187518 0.000268531 7.17361e-07
1.79164e-06 7.17361e-07 0.000115833
0.000810357 -9.31887e-05 -4.32575e-07
-9.31887e-05 0.000134383 2.23912e-07
-4.32575e-07 2.23912e-07 -1.2524e-05
0.000524633 3.77929e-06 -8.94093e-07
3.77929e-06 -5.42534e-05 1.82742e-07
-8.94093e-07 1.82742e-07 -0.000121654
0.000499795 8.35386e-06 -1.66218e-07
8.35386e-06 -4.46779e-05 -7.29133e-07
-1.66218e-07 -7.29133e-07 -0.000156192
0.0017829 -3.77328e-05 2.30715e-07
-3.77328e-05 9.74429e-05 -3.65602e-07
2.30715e-07 -3.65602e-07 5.66998e-06
0.00178407 -8.65791e-05 6.30725e-07
-8.65791e-05 9.9511e-05 3.22671e-07
6.30725e-07 3.22671e-07 1.00237e-05
0.00185589 -0.000167941 -1.19706e-06
-0.000167941 0.00013799 -5.41998e-07
-1.19706e-06 -5.41998e-07 5.73193e-05
0.00156065 -0.000195458 -1.25267e-06
-0.000195458 1.62187e-05 8.52464e-07
-1.25267e-06 8.52464e-07 -8.52001e-05
0.000955606 -0.000187886 -8.59683e-07
-0.000187886 0.000158621 -1.05838e-06
-8.59683e-07 -1.05838e-06 -1.12897e-05
0.00212692 -0.000285518 -3.66187e-06
-0.000285518 0.000323554 1.62163e-06
-3.66187e-06 1.62163e-06 0.00020247
0.000106819 -0.000159277 3.64422e-07
-0.000159277 -0.000429434 -5.80623e-06
3.64422e-07 -5.80623e-06 -0.000635071
0.00184979 -0.00033501 3.76757e-06
-0.00033501 0.000357215 1.5975e-06
3.76757e-06 1.5975e-06 0.000119836
0.00156563 -0.000286446 7.95871e-07
-0.000286446 9.0913e-05 4.09823e-06
7.95871e-07 4.09823e-06 -9.52467e-05
0.00033358 1.53123e-05 9.03966e-07
1.53123e-05 -0.000164695 -3.63037e-06
9.03966e-07 -3.63037e-06 -0.000225603
0.000786253 -2.32244e-05 1.06625e-06
-2.32244e-05 0.000125343 -1.46636e-06
1.06625e-06 -1.46636e-06 2.1371e-05
0.00092741 -5.92058e-05 -3.9242e-07
-5.92058e-05 0.000200384 -6.86415e-07
-3.9242e-07 -6.86415e-07 7.00858e-05
0.00105751 -0.000195144 -3.12736e-06
-0.000195144 0.000215714 2.50443e-06
-3.12736e-06 2.50443e-06 6.0395e-05
0.000750496 -0.000116775 2.87335e-06
-0.000116775 9.05816e-05 2.75366e-06
2.87335e-06 2.75366e-06 -6.84188e-05
0.000636654 -0.000165429 3.52143e-07
-0.000165429 -2.96183e-05 1.58816e-06
3.52143e-07 1.58816e-06 -0.000178508
0.000587809 -4.8823e-05 -1.1723e-06
-4.8823e-05 -2.94432e-05 -4.1754e-06
-1.1723e-06 -4.1754e-06 -4.75937e-05
0.000623555 -3.91101e-05 -1.83587e-06
-3.91101e-05 -1.02837e-06 -1.99825e-06
-1.83587e-06 -1.99825e-06 -5.4347e-05
0.00158674 0.000189127 -9.29878e-07
0.000189127 0.000123023 4.39961e-08
-9.29878e-07 4.39961e-08 -3.17191e-05
0.000634338 -6.47662e-05 1.35497e-06
-6.47662e-05 3.21806e-05 -1.75255e-06
1.35497e-06 -1.75255e-06 -6.5404e-05
0.000813507 0.00010748 -8.78034e-07
0.00010748 0.000111788 -8.35271e-07
-8.78034e-07 -8.35271e-07 -2.64259e-05
0.000561895 4.94938e-05 1.82324e-06
4.94938e-05 -9.59633e-06 -3.82894e-07
1.82324e-06 -3.82894e-07 -0.00014724
0.00155638 0.000236143 -1.34743e-06
0.000236143 0.000191623 -3.87861e-07
-1.34743e-06 -3.87861e-07 1.60776e-05
0.00159656 0.00025077 1.05883e-06
0.00025077 0.000117941 6.43223e-07
1.05883e-06 6.43223e-07 -4.64866e-05
0.00101752 0.000194558 -7.94282e-08
0.000194558 0.000209024 -1.31201e-06
-7.94282e-08 -1.31201e-06 -7.17071e-07
0.00125561 0.000245255 -2.11741e-06
0.000245255 0.000148653 -6.95417e-07
-2.11741e-06 -6.95417e-07 -6.46112e-05
0.00179634 0.000283727 -4.16331e-06
0.000283727 0.000331438 -1.23524e-06
-4.16331e-06 -1.23524e-06 0.000145864
0.000667612 -2.33743e-05 -2.43677e-07
-2.33743e-05 1.45023e-05 7.11711e-08
-2.43677e-07 7.11711e-08 -3.28229e-05
0.000718756 -1.673e-05 -8.62444e-07
-1.673e-05 6.99808e-05 3.57602e-07
-8.62444e-07 3.57602e-07 -1.26912e-05
0.000986232 0.000179647 -8.47795e-07
0.000179647 0.000214207 -3.23241e-07
-8.47795e-07 -3.23241e-07 4.15987e-05
0.000788739 1.61834e-06 8.73896e-08
1.61834e-06 0.000125347 1.80485e-07
8.73896e-08 1.80485e-07 8.06997e-06
0.000968898 0.000117189 4.1098e-07
0.000117189 0.000220092 3.26875e-07
4.1098e-07 3.26875e-07 6.44088e-05
0.00166121 0.000201443 -1.72315e-06
0.000201443 0.000123427 -1.24762e-06
-1.72315e-06 -1.24762e-06 -1.81083e-05
0.00162396 0.000276368 1.32775e-06
0.000276368 0.000176639 3.97341e-07
1.32775e-06 3.97341e-07 -2.91183e-06
0.00162943 0.000275326 5.1472e-07
0.000275326 0.000102964 1.5219e-07
5.1472e-07 1.5219e-07 -5.45082e-05
0.000716929 0.000186539 3.71569e-07
0.000186539 -1.17266e-06 3.6002e-06
3.71569e-07 3.6002e-06 -0.000230883
0.00163891 0.000295996 -1.63484e-06
0.000295996 0.000265613 -6.71389e-07
-1.63484e-06 -6.71389e-07 5.76055e-05
0.000775577 2.24405e-05 9.76811e-07
2.24405e-05 9.32074e-05 1.3926e-06
9.76811e-07 1.3926e-06 1.91381e-05
0.000556112 -2.09166e-05 -8.32426e-07
-2.09166e-05 -1.52304e-05 2.41858e-06
-8.32426e-07 2.41858e-06 -0.000113335
0.000950011 0.00018562 -2.85563e-06
0.00018562 0.000174546 -7.86304e-07
-2.85563e-06 -7.86304e-07 -1.34817e-05
0.00082626 6.69229e-05 -2.77301e-06
6.69229e-05 0.000163948 -1.76295e-06
-2.77301e-06 -1.76295e-06 1.46541e-05
0.000885571 0.000170251 -1.15296e-06
0.000170251 0.000147307 -1.68338e-06
-1.15296e-06 -1.68338e-06 -1.43939e-05
0.00158417 0.000216689 -6.30042e-07
0.000216689 4.1771e-06 -2.66695e-06
-6.30042e-07 -2.66695e-06 -0.000112196
0.00185171 0.000320165 2.08717e-06
0.000320165 0.000279931 -1.7495e-06
2.08717e-06 -1.7495e-06 9.15032e-05
0.00150387 0.000280923 2.39037e-06
0.000280923 1.97162e-05 2.58051e-08
2.39037e-06 2.58051e-08 -0.000138845
0.00172697 0.000277509 3.71483e-06
0.000277509 0.000498089 6.67731e-06
3.71483e-06 6.67731e-06 0.00025014
0.00169393 0.000317589 -3.16008e-07
0.000317589 0.000268445 -9.9463e-07
-3.16008e-07 -9.9463e-07 5.43838e-05
0.000662848 -2.98609e-05 -1.43392e-06
-2.98609e-05 8.90903e-06 -2.06622e-06
-1.43392e-06 -2.06622e-06 -3.68068e-05
0.000656503 1.2017e-05 6.4963e-07
1.2017e-05 1.90393e-05 3.98654e-07
6.4963e-07 3.98654e-07 -5.01811e-05
0.000600933 -1.39597e-05 -1.48169e-07
-1.39597e-05 -5.99255e-06 6.86264e-07
-1.48169e-07 6.86264e-07 -8.42074e-05
0.000520714 -3.71829e-05 -7.95707e-07
-3.71829e-05 -5.79741e-05 -1.00915e-06
-7.95707e-07 -1.00915e-06 -0.000126289
0.000705084 1.94223e-05 -1.17835e-07
1.94223e-05 5.16845e-05 2.75151e-08
-1.17835e-07 2.75151e-08 -1.77127e-05
0.000730893 2.28496e-05 -9.84196e-08
2.28496e-05 6.92916e-05 -3.62442e-07
-9.84196e-08 -3.62442e-07 -9.7778e-06
0.000837697 5.10586e-05 -4.40459e-07
5.10586e-05 0.000139481 -9.4543e-07
-4.40459e-07 -9.4543e-07 5.14006e-05
0.000605087 -2.36134e-05 7.40304e-07
-2.36134e-05 6.40302e-06 3.18071e-07
7.40304e-07 3.18071e-07 -8.0119e-05
0.000726449 3.7057e-05 7.03386e-07
3.7057e-05 6.05018e-05 1.09094e-06
7.03386e-07 1.09094e-06 -6.29589e-06
0.000677063 1.64347e-05 1.4806e-06
1.64347e-05 1.73806e-05 2.03453e-06
1.4806e-06 2.03453e-06 -2.68463e-05
0.000679713 -5.9958e-06 -6.61982e-07
-5.9958e-06 1.5916e-05 1.53012e-08
-6.61982e-07 1.53012e-08 -2.75952e-05
0.00126495 -2.84841e-05 8.24264e-07
-2.84841e-05 0.000342095 2.35507e-06
8.24264e-07 2.35507e-06 0.000334377
0.00066497 -3.34123e-05 -6.14726e-07
-3.34123e-05 7.73924e-06 -2.04728e-06
-6.14726e-07 -2.04728e-06 -3.64103e-05
0.00129277 -3.65679e-05 -4.28564e-06
-3.65679e-05 0.00036153 -1.38077e-06
-4.28564e-06 -1.38077e-06 0.00035312
0.000897028 -3.02121e-05 1.84039e-05
-3.02121e-05 0.000138388 7.42729e-06
1.84039e-05 7.42729e-06 0.000146778
0.00131664 -4.48854e-05 -8.30842e-06
-4.48854e-05 0.000380085 -5.15901e-06
-8.30842e-06 -5.15901e-06 0.000370362
0.00083446 -3.7609e-05 6.9905e-06
-3.7609e-05 0.000107977 2.77204e-06
6.9905e-06 2.77204e-06 0.000114644
0.00215567 -7.71462e-05 -5.51577e-06
-7.71462e-05 0.000886275 -1.76575e-06
-5.51577e-06 -1.76575e-06 0.000896132
0.000568269 4.05954e-05 2.55427e-07
4.05954e-05 -4.18378e-05 -4.16367e-06
2.55427e-07 -4.16367e-06 -6.12286e-05
0.000560912 4.77846e-05 -1.67885e-08
4.77846e-05 -3.65651e-05 8.77702e-08
-1.67885e-08 8.77702e-08 -6.20868e-05
0.00248669 8.76435e-05 2.9507e-05
8.76435e-05 0.0010871 -3.72204e-06
2.9507e-05 -3.72204e-06 0.00109296
0.000595571 3.34692e-05 -2.30921e-06
3.34692e-05 -1.2458e-05 5.70119e-06
-2.30921e-06 5.70119e-06 -4.15332e-05
0.00272326 0.00010065 -4.72252e-06
0.00010065 0.00123036 -3.11865e-07
-4.72252e-06 -3.11865e-07 0.00123305
0.00301302 0.000100011 -7.02636e-05
0.000100011 0.00140103 3.37649e-06
-7.02636e-05 3.37649e-06 0.00140376
0.00158883 0.000150296 -1.36582e-06
0.000150296 0.000102408 6.41632e-07
-1.36582e-06 6.41632e-07 -3.84177e-05
0.00168107 9.76343e-05 9.24328e-07
9.76343e-05 0.00011442 9.12171e-07
9.24328e-07 9.12171e-07 -6.54766e-06
0.00171221 0.000140541 2.54579e-06
0.000140541 8.00028e-05 2.18648e-06
2.54579e-06 2.18648e-06 -2.18663e-05
0.00183637 7.78453e-05 3.19426e-06
7.78453e-05 0.000123364 8.11404e-07
3.19426e-06 8.11404e-07 3.52947e-05
0.00172013 2.26223e-05 -7.24001e-07
2.26223e-05 0.00011903 2.92079e-08
-7.24001e-07 2.92079e-08 1.1373e-05
0.00138487 1.28895e-05 -3.4351e-06
1.28895e-05 5.05705e-05 5.41586e-08
-3.4351e-06 5.41586e-08 -7.27186e-05
0.00167158 2.33053e-06 -8.33245e-07
2.33053e-06 9.94998e-05 -3.31621e-08
-8.33245e-07 -3.31621e-08 -9.66698e-06
0.00170436 3.7763e-05 1.00531e-06
3.7763e-05 5.90544e-05 -7.80542e-08
1.00531e-06 -7.80542e-08 -3.36166e-05
0.00178391 0.000113448 -1.23811e-06
0.000113448 0.000102194 -3.88596e-07
-1.23811e-06 -3.88596e-07 6.89629e-06
0.00176336 8.15948e-05 2.10488e-06
8.15948e-05 6.71607e-05 4.34372e-07
2.10488e-06 4.34372e-07 -4.86183e-06
0.00164615 0.000152951 -7.38326e-07
0.000152951 8.64838e-05 -1.65658e-07
-7.38326e-07 -1.65658e-07 -3.26366e-05
0.00180557 0.000156679 3.45095e-06
0.000156679 9.67587e-05 1.1378e-06
3.45095e-06 1.1378e-06 1.20089e-05
0.00174915 -2.81495e-06 -6.64745e-07
-2.81495e-06 9.37508e-05 3.01207e-07
-6.64745e-07 3.01207e-07 6.76856e-07
0.00173834 4.62556e-05 1.37105e-06
4.62556e-05 5.12691e-05 6.13659e-07
1.37105e-06 6.13659e-07 -1.81066e-05
0.0018373 0.000114895 1.04717e-06
0.000114895 9.30211e-05 -2.97969e-07
1.04717e-06 -2.97969e-07 2.06103e-05
0.0018436 0.000189093 -3.22473e-07
0.000189093 0.000125199 -1.36931e-06
-3.22473e-07 -1.36931e-06 3.51439e-05
0.00164421 -2.55349e-05 2.15923e-07
-2.55349e-05 9.14981e-05 5.92443e-08
2.15923e-07 5.92443e-08 -1.94354e-05
0.00166954 -8.07762e-05 5.70751e-07
-8.07762e-05 0.00011561 -9.90932e-07
5.70751e-07 -9.90932e-07 -4.2117e-06
0.00176468 -5.9953e-05 2.83243e-06
-5.9953e-05 9.57599e-05 -5.44731e-07
2.83243e-06 -5.44731e-07 1.86828e-06
0.00163191 -0.000140826 3.94532e-07
-0.000140826 5.41524e-05 -3.3195e-07
3.94532e-07 -3.3195e-07 -4.81989e-05
0.00113391 -0.000174318 -1.6757e-06
-0.000174318 0.00026484 2.61678e-06
-1.6757e-06 2.61678e-06 0.000112858
0.000957832 -0.000204072 6.60679e-07
-0.000204072 9.13141e-05 2.10011e-06
6.60679e-07 2.10011e-06 -0.000100446
0.00130028 -0.000270508 -2.96041e-06
-0.000270508 8.883e-05 9.59815e-07
-2.96041e-06 9.59815e-07 -0.000135063
0.00158263 -0.000193886 1.37605e-07
-0.000193886 8.09451e-05 -7.46107e-07
1.37605e-07 -7.46107e-07 -5.21666e-05
0.00165262 -0.000168838 3.79521e-06
-0.000168838 4.53386e-05 -2.53719e-06
3.79521e-06 -2.53719e-06 -4.35759e-05
0.00170789 -0.000247029 3.38334e-06
-0.000247029 0.000135815 -1.07489e-06
3.38334e-06 -1.07489e-06 8.46705e-06
0.00166479 -0.000287661 -1.09985e-06
-0.000287661 0.000187081 -3.36501e-06
-1.09985e-06 -3.36501e-06 -6.67546e-06
0.001693 -0.000259731 3.27134e-06
-0.000259731 0.000118571 -1.01827e-05
3.27134e-06 -1.01827e-05 -2.03216e-05
0.00115589 -0.000197435 5.73434e-07
-0.000197435 0.000284759 -2.93501e-07
5.73434e-07 -2.93501e-07 0.000126859
0.00105194 -0.00018318 1.18812e-06
-0.00018318 0.000231322 -3.89634e-06
1.18812e-06 -3.89634e-06 8.14077e-05
0.000802684 -7.37278e-05 -1.80778e-07
-7.37278e-05 0.000124962 6.32506e-08
-1.80778e-07 6.32506e-08 -1.92997e-05
0.000416447 1.5098e-05 -1.66378e-06
1.5098e-05 -0.000115744 2.88208e-06
-1.66378e-06 2.88208e-06 -0.000184979
0.000487113 3.38391e-05 4.53161e-07
3.38391e-05 -5.36506e-05 7.56699e-07
4.53161e-07 7.56699e-07 -0.000162094
0.00183374 -4.12109e-05 3.05647e-07
-4.12109e-05 0.000128636 -6.71235e-08
3.05647e-07 -6.71235e-08 3.66629e-05
0.00181196 -8.99781e-05 7.21384e-07
-8.99781e-05 0.000115214 -5.74239e-07
7.21384e-07 -5.74239e-07 2.46554e-05
0.00177443 -0.000163215 -1.67067e-06
-0.000163215 9.47259e-05 9.82973e-08
-1.67067e-06 9.82973e-08 1.21947e-05
0.00107347 -0.000196617 -1.09021e-07
-0.000196617 0.000223082 1.21346e-06
-1.09021e-07 1.21346e-06 5.18802e-05
0.00092484 -0.00022146 1.95524e-06
-0.00022146 3.01929e-05 -3.09126e-06
1.95524e-06 -3.09126e-06 -0.000180701
0.0016526 -0.000321664 -5.60148e-07
-0.000321664 0.000247791 8.70269e-07
-5.60148e-07 8.70269e-07 8.86825e-06
0.00159657 -0.000196734 3.67196e-07
-0.000196734 3.30329e-05 -1.97342e-07
3.67196e-07 -1.97342e-07 -6.89087e-05
0.00160755 -0.000285712 8.5183e-07
-0.000285712 0.000116615 -2.44431e-06
8.5183e-07 -2.44431e-06 -6.38657e-05
0.00181277 -0.000269122 -4.93674e-07
-0.000269122 0.000152777 -1.02984e-06
-4.93674e-07 -1.02984e-06 3.1334e-05
0.000365547 2.26525e-05 1.59553e-07
2.26525e-05 -0.000148448 -8.04152e-07
1.59553e-07 -8.04152e-07 -0.000207333
0.00111602 -0.000198991 -2.53641e-07
-0.000198991 0.000243795 8.3544e-07
-2.53641e-07 8.3544e-07 8.83965e-05
0.000705244 -0.000168794 -5.90947e-07
-0.000168794 1.71866e-05 2.15856e-07
-5.90947e-07 2.15856e-07 -0.000127078
0.000958106 -0.000136114 -4.43481e-07
-0.000136114 0.000212845 4.72894e-07
-4.43481e-07 4.72894e-07 4.73981e-05
0.0010052 -5.88856e-05 -9.84894e-08
-5.88856e-05 0.0002453 -1.76284e-07
-9.84894e-08 -1.76284e-07 0.000115379
0.000659917 6.32502e-06 -3.58732e-07
6.32502e-06 4.77938e-05 3.51448e-07
-3.58732e-07 3.51448e-07 -5.38484e-05
0.00156107 -4.74918e-05 -5.47133e-07
-4.74918e-05 -4.49717e-05 8.63617e-09
-5.47133e-07 8.63617e-09 -0.000125467
0.0019691 -0.000125726 1.00184e-06
-0.000125726 0.000148818 -1.69236e-07
1.00184e-06 -1.69236e-07 8.19633e-05
0.00157134 -0.000185812 2.8221e-07
-0.000185812 -3.32792e-05 -3.22963e-07
2.8221e-07 -3.22963e-07 -0.000112286
0.00197323 -0.000247052 -1.6395e-06
-0.000247052 0.000176411 -8.74687e-07
-1.6395e-06 -8.74687e-07 8.21372e-05
0.00113968 -0.000213843 -2.66094e-06
-0.000213843 0.000239249 -1.20515e-06
-2.66094e-06 -1.20515e-06 5.82907e-05
0.00179377 -0.000299964 8.11568e-07
-0.000299964 0.000162182 4.21413e-06
8.11568e-07 4.21413e-06 1.35537e-05
0.00117093 -0.000275684 -4.05243e-07
-0.000275684 0.000100389 -2.28751e-06
-4.05243e-07 -2.28751e-06 -0.000152527
0.00162778 -0.00033613 -2.29711e-08
-0.00033613 0.000212431 3.976e-06
-2.29711e-08 3.976e-06 -3.58554e-05
0.000350433 4.30038e-05 -1.06415e-06
4.30038e-05 -0.000161785 -2.86122e-06
-1.06415e-06 -2.86122e-06 -0.000212932
0.000790219 -7.88126e-06 7.51742e-07
-7.88126e-06 0.000120377 -1.37444e-06
7.51742e-07 -1.37444e-06 2.94361e-05
0.000989086 -8.22431e-05 -3.63445e-07
-8.22431e-05 0.000240346 5.30657e-07
-3.63445e-07 5.30657e-07 0.000120573
0.000859667 -2.08239e-05 -6.76159e-07
-2.08239e-05 0.000161683 3.37439e-07
-6.76159e-07 3.37439e-07 1.00943e-05
0.000782062 -0.000185852 -1.35367e-06
-0.000185852 3.0694e-05 2.44144e-07
-1.35367e-06 2.44144e-07 -0.00012332
0.000935369 -0.000186521 -4.11616e-06
-0.000186521 0.000152148 2.49856e-06
-4.11616e-06 2.49856e-06 -1.48072e-05
0.000645394 -3.18318e-05 -1.95699e-06
-3.18318e-05 2.74526e-06 -1.99925e-06
-1.95699e-06 -1.99925e-06 -4.49757e-05
0.00064003 -5.61343e-05 6.82431e-08
-5.61343e-05 2.36394e-05 -1.22298e-06
6.82431e-08 -1.22298e-06 -5.67136e-05
0.00166611 0.000204527 -1.41057e-06
0.000204527 0.000125 8.08113e-08
-1.41057e-06 8.08113e-08 -1.76917e-05
0.000686328 -3.39032e-05 7.43159e-07
-3.39032e-05 6.41932e-05 -9.91819e-07
7.43159e-07 -9.91819e-07 -4.80892e-05
0.000942791 0.000175409 7.38271e-07
0.000175409 0.000191062 -7.71248e-07
7.38271e-07 -7.71248e-07 1.92928e-05
0.000392672 6.73744e-05 2.22942e-06
6.73744e-05 -0.000114544 9.04794e-07
2.22942e-06 9.04794e-07 -0.000261348
0.0016047 0.000273893 -7.87189e-08
0.000273893 0.000163367 1.71974e-07
-7.87189e-08 1.71974e-07 -1.61115e-05
0.00177156 0.000280034 -7.28272e-07
0.000280034 0.000182897 1.35325e-06
-7.28272e-07 1.35325e-06 2.61172e-05
0.000532029 0.000173901 -8.96303e-07
0.000173901 -0.000111208 6.20792e-07
-8.96303e-07 6.20792e-07 -0.00033745
0.00190481 0.000316596 -2.25598e-06
0.000316596 0.000420962 7.79729e-07
-2.25598e-06 7.79729e-07 0.000207177
0.000716429 -2.29305e-06 -7.31211e-07
-2.29305e-06 5.77921e-05 1.45638e-07
-7.31211e-07 1.45638e-07 -1.44119e-05
0.000673717 -1.03343e-06 2.6975e-07
-1.03343e-06 5.1792e-05 1.08911e-06
2.6975e-07 1.08911e-06 -4.76706e-05
0.00111693 0.000199385 -1.09688e-07
0.000199385 0.000277973 -2.4235e-06
-1.09688e-07 -2.4235e-06 8.60123e-05
0.000554767 6.34665e-06 -5.81219e-07
6.34665e-06 -7.32381e-06 -2.16168e-07
-5.81219e-07 -2.16168e-07 -0.000143346
0.000709702 0.000140569 -1.64117e-06
0.000140569 4.29202e-05 -6.78109e-07
-1.64117e-06 -6.78109e-07 -0.000104109
0.00184922 0.000226238 -2.44971e-06
0.000226238 0.000154259 -1.25765e-06
-2.44971e-06 -1.25765e-06 4.00308e-05
0.00189005 0.000319042 1.1765e-06
0.000319042 0.000302988 -1.92862e-07
1.1765e-06 -1.92862e-07 0.000116252
0.00164377 0.000295545 9.51885e-07
0.000295545 9.41182e-05 1.72528e-06
9.51885e-07 1.72528e-06 -6.65624e-05
0.00141231 0.000255963 2.89425e-06
0.000255963 0.000328608 3.91224e-06
2.89425e-06 3.91224e-06 7.65167e-05
0.00159113 0.00031334 -2.73209e-06
0.00031334 0.000209133 4.06605e-07
-2.73209e-06 4.06605e-07 -7.02661e-06
0.000469249 -2.7619e-05 -2.80372e-07
-2.7619e-05 -7.24379e-05 1.92782e-06
-2.80372e-07 1.92782e-06 -0.000156591
0.000356773 6.60465e-05 -2.1597e-07
6.60465e-05 -0.000106469 1.03393e-06
-2.1597e-07 1.03393e-06 -0.00023398
0.00112745 0.000206408 1.3623e-06
0.000206408 0.00025066 3.19902e-06
1.3623e-06 3.19902e-06 4.14064e-05
-0.000358711 5.22534e-05 2.15143e-06
5.22534e-05 -0.000539124 9.42392e-08
2.15143e-06 9.42392e-08 -0.000692985
0.00188369 0.000232717 -2.95157e-06
0.000232717 5.11857e-05 -1.01589e-06
-2.95157e-06 -1.01589e-06 -2.64072e-05
0.00205024 0.000279426 5.62539e-07
0.000279426 0.000260193 -3.74331e-07
5.62539e-07 -3.74331e-07 0.000132047
0.00178153 0.000348721 -1.69842e-06
0.000348721 0.000222397 -2.96877e-06
-1.69842e-06 -2.96877e-06 2.11279e-05
-3.36932e-05 0.00016552 -2.99185e-07
0.00016552 -0.000564958 1.6202e-06
-2.99185e-07 1.6202e-06 -0.000814763
0.000711461 3.46922e-05 -8.5491e-07
3.46922e-05 5.55226e-05 -4.86418e-07
-8.5491e-07 -4.86418e-07 -1.65058e-05
0.000677798 1.42012e-05 -2.37417e-07
1.42012e-05 4.35422e-05 3.98402e-07
-2.37417e-07 3.98402e-07 -3.80826e-05
0.000867276 -8.86048e-07 -8.09572e-07
-8.86048e-07 0.00015489 -5.31176e-07
-8.09572e-07 -5.31176e-07 7.28406e-05
0.000689163 -1.65836e-05 -1.28507e-06
-1.65836e-05 3.80354e-05 -9.94814e-07
-1.28507e-06 -9.94814e-07 -2.77835e-05
0.000546532 -2.12396e-05 -2.56762e-07
-2.12396e-05 -3.42766e-05 -6.47442e-07
-2.56762e-07 -6.47442e-07 -0.000113929
0.00071337 9.94607e-06 1.73834e-08
9.94607e-06 5.47625e-05 -8.28877e-09
1.73834e-08 -8.28877e-09 -1.31005e-05
0.000703598 5.09212e-05 -4.64857e-07
5.09212e-05 7.07223e-05 -3.03335e-07
-4.64857e-07 -3.03335e-07 -2.16457e-05
0.000670596 6.23124e-06 5.54744e-07
6.23124e-06 4.63126e-05 3.53483e-07
5.54744e-07 3.53483e-07 -4.14716e-05
0.000780793 2.12166e-05 1.00975e-06
2.12166e-05 0.000105045 3.59718e-08
1.00975e-06 3.59718e-08 1.74751e-05
0.000736787 -3.10352e-05 1.10428e-06
-3.10352e-05 8.43717e-05 -5.05628e-07
1.10428e-06 -5.05628e-07 -9.33999e-06
0.000593149 3.00344e-05 5.82105e-07
3.00344e-05 -1.07251e-06 9.2601e-07
5.82105e-07 9.2601e-07 -8.9482e-05
0.000702382 5.00885e-05 9.96795e-07
5.00885e-05 5.05043e-05 1.35251e-06
9.96795e-07 1.35251e-06 -1.95621e-05
0.000648298 2.72135e-05 1.0216e-06
2.72135e-05 5.73558e-06 1.92275e-06
1.0216e-06 1.92275e-06 -4.02257e-05
0.000659412 -4.90125e-06 -5.62172e-07
-4.90125e-06 7.9203e-06 1.80965e-08
-5.62172e-07 1.80965e-08 -3.67613e-05
0.00127316 -1.80964e-05 6.4213e-07
-1.80964e-05 0.00034488 2.28438e-06
6.4213e-07 2.28438e-06 0.000337525
0.000661573 -2.9419e-05 -3.40952e-07
-2.9419e-05 6.47932e-06 -2.07849e-06
-3.40952e-07 -2.07849e-06 -3.76115e-05
0.00130117 -2.58871e-05 -3.56209e-06
-2.58871e-05 0.000363205 -1.45476e-06
-3.56209e-06 -1.45476e-06 0.000355518
0.000902987 -2.30902e-05 1.5366e-05
-2.30902e-05 0.000137251 7.74756e-06
1.5366e-05 7.74756e-06 0.000146442
0.00132558 -3.4443e-05 -6.87383e-06
-3.4443e-05 0.000380438 -5.19313e-06
-6.87383e-06 -5.19313e-06 0.000372051
0.00084308 -3.0636e-05 5.66208e-06
-3.0636e-05 0.000106653 2.87822e-06
5.66208e-06 2.87822e-06 0.000114877
0.000778403 -3.69243e-05 -1.67605e-06
-3.69243e-05 7.52269e-05 -1.96931e-06
-1.67605e-06 -1.96931e-06 8.19114e-05
0.000583007 3.42202e-05 4.53561e-07
3.42202e-05 -4.25545e-05 -3.71799e-06
4.53561e-07 -3.71799e-06 -5.70064e-05
0.000580595 4.33971e-05 -1.05887e-07
4.33971e-05 -3.4091e-05 9.50306e-08
-1.05887e-07 9.50306e-08 -5.40795e-05
0.00231412 7.36465e-05 2.35777e-05
7.36465e-05 0.000979432 -3.91068e-06
2.35777e-05 -3.91068e-06 0.000988965
0.000583989 4.10001e-05 -1.51218e-06
4.10001e-05 -2.42902e-05 5.05338e-06
-1.51218e-06 5.05338e-06 -4.91343e-05
0.00254917 8.86984e-05 -4.47433e-06
8.86984e-05 0.0011235 -2.92112e-07
-4.47433e-06 -2.92112e-07 0.00112912
0.00279547 9.6861e-05 -5.17618e-05
9.6861e-05 0.00127121 3.29213e-06
-5.17618e-05 3.29213e-06 0.00127494
0.00166032 0.00015177 1.09642e-06
0.00015177 0.000100744 2.29611e-06
1.09642e-06 2.29611e-06 -1.83505e-05
0.00175592 0.000111676 4.74874e-07
0.000111676 8.6078e-05 5.16376e-07
4.74874e-07 5.16376e-07 -1.05561e-05
0.00172254 0.000157562 4.36396e-06
0.000157562 4.76754e-05 1.73102e-06
4.36396e-06 1.73102e-06 -3.41037e-05
0.00171646 8.10666e-05 2.75033e-06
8.10666e-05 4.00143e-05 9.42742e-07
2.75033e-06 9.42742e-07 -2.89219e-05
0.00172008 3.35159e-05 2.72658e-06
3.35159e-05 7.13536e-05 -3.32906e-07
2.72658e-06 -3.32906e-07 -2.2845e-05
0.00165418 1.11824e-06 -8.4696e-07
1.11824e-06 8.92954e-05 -3.79457e-08
-8.4696e-07 -3.79457e-08 -2.12282e-05
0.0017393 -5.05358e-08 -2.24038e-07
-5.05358e-08 8.91065e-05 8.3694e-09
-2.24038e-07 8.3694e-09 -3.75545e-06
0.00168745 4.44998e-05 1.89636e-06
4.44998e-05 2.93765e-05 -4.23347e-07
1.89636e-06 -4.23347e-07 -4.17511e-05
0.00182365 0.000118467 4.46623e-07
0.000118467 8.52939e-05 -4.70463e-07
4.46623e-07 -4.70463e-07 1.24368e-05
0.0019195 0.000186914 3.07037e-07
0.000186914 0.000157378 2.9393e-07
3.07037e-07 2.9393e-07 6.89003e-05
0.00173045 -1.73299e-06 -1.67138e-06
-1.73299e-06 6.00569e-05 6.95713e-07
-1.67138e-06 6.95713e-07 -1.49153e-05
0.0019487 8.51823e-05 2.77166e-06
8.51823e-05 0.000104836 2.33628e-07
2.77166e-06 2.33628e-07 5.49788e-05
0.00171806 0.0001702 1.32641e-06
0.0001702 -2.71215e-05 -3.88866e-07
1.32641e-06 -3.88866e-07 -9.76698e-05
0.00188857 -4.45064e-05 1.39223e-06
-4.45064e-05 0.000161973 1.01587e-07
1.39223e-06 1.01587e-07 6.98133e-05
0.00183509 -9.30025e-05 8.4705e-07
-9.30025e-05 0.000128236 -7.07639e-07
8.4705e-07 -7.07639e-07 3.66247e-05
0.0016952 -0.000157886 -5.82633e-07
-0.000157886 5.3402e-05 -7.20506e-09
-5.82633e-07 -7.20506e-09 -3.09232e-05
0.00120031 -0.000206052 1.21146e-07
-0.000206052 0.000292618 3.67576e-06
1.21146e-07 3.67576e-06 0.000120031
0.00183644 -0.000291049 -1.00399e-06
-0.000291049 0.000541852 1.93396e-06
-1.00399e-06 1.93396e-06 0.000325418
0.00152481 -0.00031347 -3.68849e-06
-0.00031347 0.000176877 3.90893e-07
-3.68849e-06 3.90893e-07 -6.30742e-05
0.00162501 -0.000197674 9.03467e-07
-0.000197674 4.60781e-05 -7.64819e-07
9.03467e-07 -7.64819e-07 -5.63226e-05
0.00149734 -0.000254948 6.85161e-07
-0.000254948 -2.16072e-05 -3.15263e-06
6.85161e-07 -3.15263e-06 -0.000143829
0.00168337 -0.00028798 -1.19936e-06
-0.00028798 0.000158449 -8.40083e-06
-1.19936e-06 -8.40083e-06 -1.67822e-05
0.00114919 -0.000200806 1.69786e-06
-0.000200806 0.000257682 -1.21661e-07
1.69786e-06 -1.21661e-07 0.000102462
0.000697652 -0.000165303 -6.17778e-06
-0.000165303 2.13774e-05 -1.5675e-06
-6.17778e-06 -1.5675e-06 -0.000117333
0.00122772 -0.000160272 -2.53606e-07
-0.000160272 0.000377313 -3.9247e-07
-2.53606e-07 -3.9247e-07 0.000200698
0.000404875 1.90783e-05 -2.11878e-07
1.90783e-05 -0.000126551 1.47373e-06
-2.11878e-07 1.47373e-06 -0.000184444
0.000980242 -5.48065e-05 4.5634e-07
-5.48065e-05 0.000227038 8.06006e-07
4.5634e-07 8.06006e-07 0.00010104
0.000542731 3.2727e-05 1.19027e-06
3.2727e-05 -2.55312e-05 1.95195e-06
1.19027e-06 1.95195e-06 -0.000124381
0.00174005 -4.7967e-05 -8.62822e-07
-4.7967e-05 5.46782e-05 8.70029e-08
-8.62822e-07 8.70029e-08 -2.5455e-05
0.00195718 -0.000128452 7.93121e-08
-0.000128452 0.000143175 -9.97757e-08
7.93121e-08 -9.97757e-08 7.52478e-05
0.0016342 -0.000186024 -1.50736e-07
-0.000186024 3.14529e-06 3.95073e-07
-1.50736e-07 3.95073e-07 -7.55043e-05
0.00114774 -0.000212329 -9.77725e-09
-0.000212329 0.000239951 1.97258e-06
-9.77725e-09 1.97258e-06 5.9434e-05
0.00104616 -0.000260983 -1.25113e-06
-0.000260983 4.1482e-05 -3.72331e-09
-1.25113e-06 -3.72331e-09 -0.000202616
0.0016957 -0.000339187 -3.19142e-06
-0.000339187 0.000247488 1.51144e-07
-3.19142e-06 1.51144e-07 5.10003e-06
0.00192184 -0.000249716 9.7919e-07
-0.000249716 0.00014869 -5.73466e-07
9.7919e-07 -5.73466e-07 5.2709e-05
0.00169983 -0.000297785 1.14446e-06
-0.000297785 0.000103084 -1.70475e-06
1.14446e-06 -1.70475e-06 -4.5953e-05
0.00050512 3.16152e-05 1.13332e-07
3.16152e-05 -7.44869e-05 -8.07038e-07
1.13332e-07 -8.07038e-07 -0.000122553
0.000795514 -5.56003e-06 -4.84707e-07
-5.56003e-06 0.000122301 2.97432e-07
-4.84707e-07 2.97432e-07 3.19323e-05
0.000406524 -0.000153856 -2.58708e-06
-0.000153856 -0.000181695 2.11274e-06
-2.58708e-06 2.11274e-06 -0.000328948
0.0013347 -0.000206273 -1.25007e-07
-0.000206273 0.000389686 -1.26321e-07
-1.25007e-07 -1.26321e-07 0.000224896
0.000929837 -5.05971e-05 -1.20194e-07
-5.05971e-05 0.000206952 -2.4224e-07
-1.20194e-07 -2.4224e-07 5.47002e-05
0.00086324 -5.79447e-05 -4.0693e-07
-5.79447e-05 0.000167741 1.26819e-06
-4.0693e-07 1.26819e-06 4.78738e-05
0.00193065 -7.54457e-05 2.37001e-06
-7.54457e-05 9.98566e-05 3.16621e-07
2.37001e-06 3.16621e-07 4.75218e-05
0.00185924 -0.000180092 -3.31178e-08
-0.000180092 4.22599e-05 -1.0927e-06
-3.31178e-08 -1.0927e-06 -3.08563e-06
0.00181737 -0.000208263 2.29167e-07
-0.000208263 6.21567e-05 -6.92065e-07
2.29167e-07 -6.92065e-07 -8.0456e-06
0.00209427 -0.000339541 5.55933e-06
-0.000339541 0.00021664 -1.07493e-06
5.55933e-06 -1.07493e-06 9.81862e-05
0.000127532 -0.000150206 -3.40385e-06
-0.000150206 -0.000359141 -2.24162e-06
-3.40385e-06 -2.24162e-06 -0.00054902
0.00173977 -0.000351844 -2.14973e-06
-0.000351844 0.000236095 9.9659e-06
-2.14973e-06 9.9659e-06 1.10669e-05
0.00279244 -0.000432243 2.55312e-06
-0.000432243 0.00097076 -3.36761e-06
2.55312e-06 -3.36761e-06 0.000682745
0.000672978 3.18836e-05 4.60673e-07
3.18836e-05 1.56982e-05 -1.84171e-06
4.60673e-07 -1.84171e-06 -2.54991e-05
0.000715903 -8.88022e-05 1.95752e-06
-8.88022e-05 7.42481e-05 -1.98762e-06
1.95752e-06 -1.98762e-06 -2.55393e-06
0.000507799 2.41604e-05 -5.30491e-07
2.41604e-05 -4.40015e-05 -2.02329e-06
-5.30491e-07 -2.02329e-06 -0.000128256
0.000788426 -3.70998e-05 5.90528e-07
-3.70998e-05 0.000133622 8.22825e-07
5.90528e-07 8.22825e-07 2.03606e-05
0.000666507 -9.6411e-06 1.48318e-06
-9.6411e-06 4.71851e-05 -1.82162e-06
1.48318e-06 -1.82162e-06 -7.66453e-05
0.000196838 -9.66302e-05 1.16804e-06
-9.66302e-05 -0.000196129 1.49912e-06
1.16804e-06 1.49912e-06 -0.000350205
0.000247908 -0.000150507 -7.1693e-07
-0.000150507 -0.000318645 -6.19988e-07
-7.1693e-07 -6.19988e-07 -0.000457433
0.00241873 -0.000296122 -8.39593e-06
-0.000296122 0.00105688 3.23539e-06
-8.39593e-06 3.23539e-06 0.000832371
0.000682656 -2.36049e-05 -9.87074e-07
-2.36049e-05 3.45368e-05 -8.62032e-07
-9.87074e-07 -8.62032e-07 -3.41467e-05
0.000829278 4.37153e-06 7.73448e-08
4.37153e-06 0.000142928 -4.24865e-07
7.73448e-08 -4.24865e-07 4.08053e-05
0.00211497 0.000234852 -6.54925e-07
0.000234852 0.000306359 4.13467e-07
-6.54925e-07 4.13467e-07 0.00019443
0.000723341 3.58858e-05 -2.17399e-07
3.58858e-05 9.66514e-05 1.66479e-07
-2.17399e-07 1.66479e-07 -4.7034e-05
0.00129787 0.000214979 1.27584e-06
0.000214979 0.000391832 -3.26047e-06
1.27584e-06 -3.26047e-06 0.000193689
0.000523541 0.000110487 5.11516e-07
0.000110487 -6.44545e-05 3.52504e-07
5.11516e-07 3.52504e-07 -0.000197413
0.00190085 0.000315445 -7.55993e-07
0.000315445 0.000310949 5.1747e-07
-7.55993e-07 5.1747e-07 0.000126358
0.00177036 0.000309262 -4.09377e-07
0.000309262 0.00016082 3.87952e-06
-4.09377e-07 3.87952e-06 -1.72285e-06
0.00103568 0.000230903 6.20138e-08
0.000230903 0.000122997 -4.2583e-07
6.20138e-08 -4.2583e-07 -0.000132801
0.00146693 0.000307738 -3.47708e-06
0.000307738 0.000135783 2.53783e-06
-3.47708e-06 2.53783e-06 -8.17551e-05
0.000523102 -5.83705e-06 1.52069e-08
-5.83705e-06 -3.52667e-05 8.90851e-07
1.52069e-08 8.90851e-07 -0.000125073
0.000505254 7.16454e-05 -6.14886e-07
7.16454e-05 -2.26165e-05 -1.61063e-06
-6.14886e-07 -1.61063e-06 -0.000151688
0.00114051 0.000209353 1.72543e-06
0.000209353 0.000269386 -2.1583e-06
1.72543e-06 -2.1583e-06 5.57087e-05
0.00062106 0.000121802 -1.13287e-06
0.000121802 1.37826e-05 -2.44489e-06
-1.13287e-06 -2.44489e-06 -0.000145792
0.00196421 0.000230732 7.40623e-07
0.000230732 9.49532e-05 -1.09245e-06
7.40623e-07 -1.09245e-06 2.03633e-05
0.00197338 0.000282454 2.5574e-06
0.000282454 0.000222274 7.99701e-07
2.5574e-06 7.99701e-07 8.94549e-05
0.00177837 0.000342623 -1.5205e-06
0.000342623 0.000215195 -4.78315e-08
-1.5205e-06 -4.78315e-08 1.64591e-05
0.000930442 0.000245324 6.59148e-07
0.000245324 -4.3001e-05 1.33103e-06
6.59148e-07 1.33103e-06 -0.000295195
0.000629561 1.53709e-05 -3.35363e-07
1.53709e-05 2.15404e-05 1.86657e-06
-3.35363e-07 1.86657e-06 -6.96431e-05
0.00194127 0.00018177 -1.98408e-06
0.00018177 5.79201e-05 1.35416e-06
-1.98408e-06 1.35416e-06 1.04424e-05
0.00147171 0.00020935 3.20868e-07
0.00020935 0.00054002 3.32015e-06
3.20868e-07 3.32015e-06 0.00036631
0.0010966 0.000215282 1.99168e-06
0.000215282 0.000218104 4.35506e-06
1.99168e-06 4.35506e-06 2.18488e-06
0.00237067 0.000279143 -1.29344e-05
0.000279143 0.000346193 -2.33515e-06
-1.29344e-05 -2.33515e-06 0.000259414
0.00122147 0.000323838 -3.0127e-06
0.000323838 -0.000160875 -5.03042e-06
-3.0127e-06 -5.03042e-06 -0.000344235
0.0017052 0.000333551 -2.65821e-06
0.000333551 0.000306422 -3.60607e-07
-2.65821e-06 -3.60607e-07 5.6523e-05
0.000750803 2.49106e-05 -1.42954e-06
2.49106e-05 8.59181e-05 -2.04815e-07
-1.42954e-06 -2.04815e-07 4.60653e-06
0.000750883 1.47921e-05 -6.39743e-07
1.47921e-05 9.14898e-05 -1.54933e-07
-6.39743e-07 -1.54933e-07 7.66529e-06
0.000847708 1.52729e-06 -2.64331e-07
1.52729e-06 0.000157883 7.70342e-07
-2.64331e-07 7.70342e-07 7.07577e-05
0.000682963 -1.50902e-05 -3.12319e-07
-1.50902e-05 3.89803e-05 -1.38219e-06
-3.12319e-07 -1.38219e-06 -3.01449e-05
0.000710629 2.62572e-05 4.86844e-07
2.62572e-05 7.0768e-05 8.4734e-08
4.86844e-07 8.4734e-08 -1.74711e-05
0.000514665 -3.05017e-06 -9.01053e-07
-3.05017e-06 -2.93284e-05 3.273e-07
-9.01053e-07 3.273e-07 -0.000124655
0.000690045 -4.6207e-06 -3.10341e-07
-4.6207e-06 4.86075e-05 -4.31806e-08
-3.10341e-07 -4.31806e-08 -2.51916e-05
0.000579574 -2.48351e-05 -6.1745e-07
-2.48351e-05 -2.87515e-06 3.57313e-07
-6.1745e-07 3.57313e-07 -9.43997e-05
0.00064844 -2.26875e-05 6.78788e-07
-2.26875e-05 3.1076e-05 -2.30141e-07
6.78788e-07 -2.30141e-07 -5.59391e-05
0.000801047 2.27406e-05 3.44548e-07
2.27406e-05 0.00013014 9.12589e-08
3.44548e-07 9.12589e-08 3.01918e-05
0.00093316 7.48609e-06 7.33235e-07
7.48609e-06 0.000175424 -6.09295e-07
7.33235e-07 -6.09295e-07 9.17977e-05
0.000751294 -4.34319e-05 1.13055e-06
-4.34319e-05 8.49437e-05 -2.93171e-07
1.13055e-06 -2.93171e-07 -5.55503e-06
0.000790473 2.28976e-05 5.58401e-07
2.28976e-05 0.000120853 1.94966e-07
5.58401e-07 1.94966e-07 1.83506e-05
0.000686257 2.60309e-05 1.94816e-06
2.60309e-05 5.92072e-05 1.04131e-06
1.94816e-06 1.04131e-06 -3.95988e-05
0.000714058 1.51961e-05 1.18177e-06
1.51961e-05 5.67812e-05 1.48919e-06
1.18177e-06 1.48919e-06 -1.55431e-05
0.000642991 -1.21038e-05 -5.82126e-08
-1.21038e-05 3.27305e-06 1.81641e-06
-5.82126e-08 1.81641e-06 -4.24325e-05
0.00065513 -8.86349e-06 -2.43566e-07
-8.86349e-06 8.46981e-06 4.73795e-08
-2.43566e-07 4.73795e-08 -3.66433e-05
0.00127826 -8.01365e-06 5.14707e-07
-8.01365e-06 0.000347393 2.18899e-06
5.14707e-07 2.18899e-06 0.000339698
0.000672184 -2.04745e-05 3.4569e-07
-2.04745e-05 1.49623e-05 -2.1718e-06
3.4569e-07 -2.1718e-06 -2.94691e-05
0.00130824 -1.5772e-05 -2.67166e-06
-1.5772e-05 0.000365791 -1.51256e-06
-2.67166e-06 -1.51256e-06 0.000358308
0.000898369 -1.57866e-05 1.15116e-05
-1.57866e-05 0.00013122 7.94117e-06
1.15116e-05 7.94117e-06 0.000140961
0.00133957 -2.41172e-05 -4.96772e-06
-2.41172e-05 0.000385678 -5.2997e-06
-4.96772e-06 -5.2997e-06 0.000377842
0.000854096 -2.34304e-05 3.87895e-06
-2.34304e-05 0.000108145 2.99374e-06
3.87895e-06 2.99374e-06 0.0001173
0.000792625 -2.97558e-05 -1.16432e-06
-2.97558e-05 7.67452e-05 -1.95945e-06
-1.16432e-06 -1.95945e-06 8.51457e-05
0.000693863 7.23595e-06 8.21058e-07
7.23595e-06 2.50312e-05 -2.0116e-06
8.21058e-07 -2.0116e-06 -1.30374e-05
0.000599955 2.7182e-05 4.67902e-07
2.7182e-05 -3.96476e-05 -3.70108e-06
4.67902e-07 -3.70108e-06 -5.05611e-05
0.000603021 3.5048e-05 -3.08883e-08
3.5048e-05 -3.0902e-05 7.58047e-08
-3.08883e-08 7.58047e-08 -4.56116e-05
0.00220445 6.02053e-05 1.97261e-05
6.02053e-05 0.000907748 -4.10962e-06
1.97261e-05 -4.10962e-06 0.000920618
0.00060143 4.73694e-05 6.57126e-07
4.73694e-05 -2.09667e-05 4.59113e-06
6.57126e-07 4.59113e-06 -4.18613e-05
0.00239293 7.58928e-05 -3.32883e-06
7.58928e-05 0.00102581 -2.20305e-07
-3.32883e-06 -2.20305e-07 0.00103469
0.00262413 8.94448e-05 -3.62138e-05
8.94448e-05 0.0011669 3.61352e-06
-3.62138e-05 3.61352e-06 0.00117237
0.00199631 0.000184743 1.11228e-06
0.000184743 0.00019009 2.32893e-06
1.11228e-06 2.32893e-06 0.000103202
0.00181267 0.000122047 -8.09588e-10
0.000122047 7.90592e-05 2.01399e-08
-8.09588e-10 2.01399e-08 5.75056e-06
0.00163561 4.53589e-05 1.24857e-06
4.53589e-05 6.98681e-06 -8.34967e-07
1.24857e-06 -8.34967e-07 -6.5897e-05
0.00172446 2.84575e-06 9.65154e-07
2.84575e-06 8.17195e-05 -2.73865e-07
9.65154e-07 -2.73865e-07 -1.09234e-05
0.00175246 1.87733e-06 -8.17637e-07
1.87733e-06 6.98485e-05 2.04898e-07
-8.17637e-07 2.04898e-07 -3.27909e-06
0.00195506 8.11075e-05 2.49929e-07
8.11075e-05 0.000107688 1.23569e-07
2.49929e-07 1.23569e-07 5.74053e-05
0.00180306 0.000174292 -9.42379e-07
0.000174292 1.89047e-05 -3.0006e-07
-9.42379e-07 -3.0006e-07 -5.13225e-05
0.00184056 4.03035e-06 2.45223e-06
4.03035e-06 3.23955e-05 -1.5764e-07
2.45223e-06 -1.5764e-07 -7.788e-06
0.00197944 0.00011453 2.6162e-06
0.00011453 6.72697e-05 5.1695e-07
2.6162e-06 5.1695e-07 2.58905e-05
0.00187694 6.27964e-05 -3.71731e-06
6.27964e-05 4.94407e-05 1.89498e-06
-3.71731e-06 1.89498e-06 6.5155e-05
0.00192145 -4.85944e-05 -7.44613e-07
-4.85944e-05 0.000155853 -9.67593e-08
-7.44613e-07 -9.67593e-08 7.60875e-05
0.00194034 -0.00013235 -1.79928e-06
-0.00013235 0.000133283 3.75252e-07
-1.79928e-06 3.75252e-07 6.44926e-05
0.00169477 -0.000186746 -1.3909e-06
-0.000186746 3.72705e-05 8.16658e-07
-1.3909e-06 8.16658e-07 -4.10877e-05
0.00116145 -0.000211732 4.59402e-07
-0.000211732 0.000243635 5.42514e-06
4.59402e-07 5.42514e-06 6.3043e-05
0.000949784 -0.000248753 4.5687e-07
-0.000248753 -1.121e-06 5.18112e-06
4.5687e-07 5.18112e-06 -0.000238118
0.00169414 -0.000335851 -4.08136e-06
-0.000335851 0.000247925 -3.55266e-06
-4.08136e-06 -3.55266e-06 1.22697e-05
0.00187007 -0.000250071 3.19604e-06
-0.000250071 0.000121131 -6.61481e-07
3.19604e-06 -6.61481e-07 2.38494e-05
0.00158497 -0.000289868 -1.06737e-06
-0.000289868 3.90538e-05 -5.70582e-06
-1.06737e-06 -5.70582e-06 -0.000109296
0.00012877 -0.000129837 -3.46464e-06
-0.000129837 -0.000337247 3.55545e-06
-3.46464e-06 3.55545e-06 -0.000479167
0.00181415 -0.000236311 9.87063e-06
-0.000236311 0.000673567 -3.99788e-06
9.87063e-06 -3.99788e-06 0.000508698
0.000817468 -1.72027e-05 -5.16673e-07
-1.72027e-05 0.000132079 -3.33586e-08
-5.16673e-07 -3.33586e-08 -7.98067e-06
0.000646773 1.19264e-05 -3.5281e-07
1.19264e-05 5.83678e-06 1.13243e-06
-3.5281e-07 1.13243e-06 -3.95872e-05
0.000828779 1.48217e-05 -4.48093e-07
1.48217e-05 0.000139763 1.73617e-06
-4.48093e-07 1.73617e-06 4.96233e-05
0.000786849 -2.80637e-05 -2.0891e-08
-2.80637e-05 0.0001234 2.38345e-06
-2.0891e-08 2.38345e-06 3.27981e-06
0.00185268 -7.54462e-05 1.82289e-07
-7.54462e-05 5.58697e-05 5.78785e-08
1.82289e-07 5.78785e-08 4.35855e-06
0.000656353 9.36967e-06 1.06187e-06
9.36967e-06 6.83358e-06 7.21753e-08
1.06187e-06 7.21753e-08 -3.45352e-05
0.000598982 -2.51885e-05 -1.351e-06
-2.51885e-05 -7.11065e-06 -4.10541e-08
-1.351e-06 -4.10541e-08 -7.50316e-05
0.00187206 -0.000175229 -1.51121e-07
-0.000175229 6.23826e-05 2.77544e-07
-1.51121e-07 2.77544e-07 1.17447e-05
0.00174 -0.000207115 -1.72125e-06
-0.000207115 1.66231e-05 5.007e-07
-1.72125e-06 5.007e-07 -5.5027e-05
0.000419044 -0.000171087 1.4459e-06
-0.000171087 -0.000181199 3.61478e-06
1.4459e-06 3.61478e-06 -0.000368369
0.00192395 -0.000358868 -3.29839e-06
-0.000358868 0.000497027 8.62491e-07
-3.29839e-06 8.62491e-07 0.000210401
0.00152577 -0.000335296 2.11823e-06
-0.000335296 0.000106384 -1.55155e-06
2.11823e-06 -1.55155e-06 -0.000111734
0.0020401 -0.000335973 2.42846e-06
-0.000335973 0.000198517 -1.10355e-06
2.42846e-06 -1.10355e-06 7.83735e-05
0.000760004 -1.89157e-05 1.02179e-06
-1.89157e-05 0.000100814 -9.26947e-07
1.02179e-06 -9.26947e-07 1.89397e-05
0.000778646 -2.51055e-05 1.39579e-07
-2.51055e-05 0.00012825 1.03252e-06
1.39579e-07 1.03252e-06 1.3721e-05
0.000914075 -0.000186715 -2.30762e-06
-0.000186715 5.97637e-05 -5.19761e-07
-2.30762e-06 -5.19761e-07 -8.62935e-05
0.0014717 -0.00022464 1.07899e-05
-0.00022464 0.000511539 -2.59634e-06
1.07899e-05 -2.59634e-06 0.000323855
0.00053036 -8.16453e-05 -1.83067e-06
-8.16453e-05 -1.72481e-05 1.37471e-07
-1.83067e-06 1.37471e-07 -0.000166943
0.000723723 -8.2358e-06 2.48753e-07
-8.2358e-06 8.57214e-05 -6.96415e-07
2.48753e-07 -6.96415e-07 -3.94556e-05
0.00187726 -8.36038e-05 2.25725e-06
-8.36038e-05 8.40981e-06 2.09651e-08
2.25725e-06 2.09651e-08 -3.00229e-05
0.00182032 -0.000182138 7.04274e-07
-0.000182138 7.37307e-06 -8.86781e-07
7.04274e-07 -8.86781e-07 -9.80321e-06
0.00195701 -0.000310514 -7.66931e-07
-0.000310514 6.02079e-05 -1.49112e-06
-7.66931e-07 -1.49112e-06 -1.59391e-05
0.00158719 -0.00036961 2.40974e-06
-0.00036961 2.11468e-05 1.22762e-06
2.40974e-06 1.22762e-06 -0.000124478
0.000651353 -0.000151707 -7.4308e-06
-0.000151707 -5.36339e-05 -6.12991e-06
-7.4308e-06 -6.12991e-06 -0.000239833
0.00289555 -0.000471368 -5.55145e-06
-0.000471368 0.00098809 5.35888e-06
-5.55145e-06 5.35888e-06 0.000683011
0.000461177 5.58748e-05 -1.14782e-06
5.58748e-05 -7.91689e-05 -2.73952e-06
-1.14782e-06 -2.73952e-06 -0.000150218
0.000717964 -5.34041e-05 2.36115e-06
-5.34041e-05 6.42098e-05 -1.38605e-06
2.36115e-06 -1.38605e-06 -6.70489e-06
0.00093944 -7.11451e-05 1.59821e-06
-7.11451e-05 0.00020567 1.06094e-07
1.59821e-06 1.06094e-07 0.000113164
0.000496223 1.77173e-05 -4.5766e-07
1.77173e-05 -3.47554e-05 8.22258e-07
-4.5766e-07 8.22258e-07 -0.000146435
0.000963398 -4.57108e-05 4.17194e-08
-4.57108e-05 0.00022356 3.85146e-08
4.17194e-08 3.85146e-08 0.000110229
0.000930069 -4.68196e-05 2.50424e-06
-4.68196e-05 0.000177726 -3.88994e-07
2.50424e-06 -3.88994e-07 4.03454e-05
-0.000113756 -8.35102e-05 6.05872e-06
-8.35102e-05 -0.000272509 1.0831e-06
6.05872e-06 1.0831e-06 -0.000518788
0.000415729 -0.000199771 -1.57542e-05
-0.000199771 -0.000202284 3.72716e-06
-1.57542e-05 3.72716e-06 -0.00034969
0.000550078 2.27381e-05 -2.60801e-07
2.27381e-05 -1.62333e-05 -5.29224e-07
-2.60801e-07 -5.29224e-07 -0.000110143
0.000655606 8.95325e-05 -3.33931e-06
8.95325e-05 6.24994e-05 -3.2843e-06
-3.33931e-06 -3.2843e-06 -6.88471e-05
0.00203474 0.000229427 -1.60048e-06
0.000229427 0.000131674 -8.30834e-07
-1.60048e-06 -8.30834e-07 6.0013e-05
0.00189275 0.000285693 8.96155e-08
0.000285693 0.000181968 2.42018e-06
8.96155e-08 2.42018e-06 4.43493e-05
0.00153202 0.000168364 -5.10717e-06
0.000168364 0.000520929 -2.53711e-06
-5.10717e-06 -2.53711e-06 0.000360531
0.00106935 0.000204501 -1.96206e-06
0.000204501 0.000238489 -7.97768e-06
-1.96206e-06 -7.97768e-06 2.2439e-05
0.00178421 0.000337324 1.16463e-06
0.000337324 0.000212966 1.50589e-06
1.16463e-06 1.50589e-06 1.63114e-05
0.0018917 0.000323187 5.61282e-07
0.000323187 0.000480451 1.60522e-07
5.61282e-07 1.60522e-07 0.000224735
0.000682734 3.72814e-05 6.53703e-07
3.72814e-05 6.10472e-05 -7.84478e-07
6.53703e-07 -7.84478e-07 -3.78178e-05
0.00190522 0.000175342 1.89152e-07
0.000175342 2.61677e-05 -4.01237e-08
1.89152e-07 -4.01237e-08 -1.27821e-05
0.000944543 0.000147672 8.0449e-07
0.000147672 0.000235513 1.67077e-06
8.0449e-07 1.67077e-06 7.3943e-05
0.000736973 0.000186772 1.32358e-06
0.000186772 1.49791e-05 -3.91697e-08
1.32358e-06 -3.91697e-08 -0.000200249
0.00213187 0.000269731 2.50463e-06
0.000269731 0.00021391 3.03094e-07
2.50463e-06 3.03094e-07 0.000127095
0.00144402 0.000336416 -6.63215e-07
0.000336416 -3.85164e-05 -1.9763e-06
-6.63215e-07 -1.9763e-06 -0.000220548
0.00205222 0.000361519 6.47883e-08
0.000361519 0.000512376 1.96752e-07
6.47883e-08 1.96752e-07 0.000259122
0.00120668 9.56789e-05 -2.43842e-06
9.56789e-05 0.000379402 2.54032e-06
-2.43842e-06 2.54032e-06 0.000248841
0.0023292 0.000189569 -3.03403e-05
0.000189569 0.00030574 -5.48385e-06
-3.03403e-05 -5.48385e-06 0.000298609
0.00234486 0.000310476 -3.96824e-06
0.000310476 0.000991237 3.03466e-07
-3.96824e-06 3.03466e-07 0.000796391
0.0022491 0.000336568 -6.6317e-06
0.000336568 0.000788861 1.5933e-06
-6.6317e-06 1.5933e-06 0.000551371
0.00179995 0.000363518 -1.1817e-05
0.000363518 5.12884e-05 -1.02304e-05
-1.1817e-05 -1.02304e-05 -6.58477e-05
0.00131301 0.000333162 -9.53934e-06
0.000333162 3.59845e-05 -1.16541e-06
-9.53934e-06 -1.16541e-06 -0.000194712
0.000466668 0.000223321 1.99295e-05
0.000223321 -0.000593987 -8.47638e-06
1.99295e-05 -8.47638e-06 -0.000803214
0.000651701 2.59608e-05 3.40575e-07
2.59608e-05 4.0342e-05 -3.16761e-07
3.40575e-07 -3.16761e-07 -4.6515e-05
0.000751392 7.30596e-06 -1.04594e-07
7.30596e-06 0.000109272 6.38798e-07
-1.04594e-07 6.38798e-07 2.04731e-05
0.00111083 2.59648e-05 5.89214e-07
2.59648e-05 0.00029709 -6.06136e-07
5.89214e-07 -6.06136e-07 0.000204977
0.000676957 -5.49593e-05 -1.99079e-07
-5.49593e-05 4.6048e-05 -1.76813e-06
-1.99079e-07 -1.76813e-06 -3.09391e-05
0.000627509 -4.4961e-05 -1.27814e-06
-4.4961e-05 2.17136e-05 1.32807e-07
-1.27814e-06 1.32807e-07 -6.72897e-05
0.000881574 9.8416e-05 -4.54381e-07
9.8416e-05 0.000177656 5.24969e-07
-4.54381e-07 5.24969e-07 7.62287e-05
0.000498195 -3.27927e-05 -1.02357e-06
-3.27927e-05 -4.94654e-05 8.94344e-07
-1.02357e-06 8.94344e-07 -0.000138977
0.000688325 -2.41428e-05 1.21304e-08
-2.41428e-05 5.16333e-05 -2.12501e-08
1.21304e-08 -2.12501e-08 -2.68287e-05
0.000671836 2.77427e-05 -6.84143e-08
2.77427e-05 3.97884e-05 -2.96501e-07
-6.84143e-08 -2.96501e-07 -5.1174e-05
0.000808151 2.94641e-06 -5.78363e-07
2.94641e-06 0.000104978 -4.33637e-07
-5.78363e-07 -4.33637e-07 1.94452e-05
0.000783559 5.5958e-06 3.37826e-07
5.5958e-06 0.000107712 2.7613e-08
3.37826e-07 2.7613e-08 1.17841e-05
0.000810332 -2.14054e-05 -1.09325e-07
-2.14054e-05 0.000117603 -1.09105e-07
-1.09325e-07 -1.09105e-07 2.63941e-05
0.000854136 1.2779e-06 -2.11187e-07
1.2779e-06 0.0001242 -1.05072e-06
-2.11187e-07 -1.05072e-06 3.97237e-05
0.000848904 1.92468e-05 -3.52928e-07
1.92468e-05 0.000132745 -1.52409e-06
-3.52928e-07 -1.52409e-06 3.4275e-05
0.00082691 5.15288e-05 5.80274e-07
5.15288e-05 0.000124685 4.48933e-07
5.80274e-07 4.48933e-07 3.06831e-05
0.000710097 3.38557e-05 3.56685e-07
3.38557e-05 7.16252e-05 9.62098e-07
3.56685e-07 9.62098e-07 -3.23777e-05
0.000561679 -1.6561e-05 -1.72974e-07
-1.6561e-05 -3.36571e-05 1.81035e-06
-1.72974e-07 1.81035e-06 -0.000108375
0.000890585 -1.50204e-05 2.36048e-07
-1.50204e-05 0.000190574 -8.32032e-07
2.36048e-07 -8.32032e-07 8.45874e-05
0.000518465 -2.9178e-06 -5.54021e-07
-2.9178e-06 -5.32365e-05 1.79732e-06
-5.54021e-07 1.79732e-06 -0.000132024
0.000624881 9.08617e-06 -6.91954e-07
9.08617e-06 -4.97305e-06 1.75377e-06
-6.91954e-07 1.75377e-06 -5.23835e-05
0.000635503 1.37329e-05 6.26216e-07
1.37329e-05 1.84275e-07 4.12724e-09
6.26216e-07 4.12724e-09 -4.62138e-05
0.000606091 1.92938e-06 1.54914e-07
1.92938e-06 -4.28371e-05 3.63561e-06
1.54914e-07 3.63561e-06 -5.51488e-05
0.000645361 -3.39951e-06 -8.14166e-07
-3.39951e-06 3.60906e-06 -1.99262e-06
-8.14166e-07 -1.99262e-06 -4.20293e-05
0.000967614 -5.33526e-06 -1.76487e-06
-5.33526e-06 0.000167234 -1.59494e-06
-1.76487e-06 -1.59494e-06 0.000157417
0.00227423 -1.18222e-05 7.32921e-06
-1.18222e-05 0.000929578 4.9821e-06
7.32921e-06 4.9821e-06 0.000947044
0.00134774 -1.4262e-05 -2.89185e-06
-1.4262e-05 0.000389239 -5.24704e-06
-2.89185e-06 -5.24704e-06 0.000381504
0.000853678 -1.58189e-05 2.0471e-06
-1.58189e-05 0.00010426 3.07146e-06
2.0471e-06 3.07146e-06 0.000114127
0.000806628 -2.21961e-05 -6.09893e-07
-2.21961e-05 7.97024e-05 -1.99053e-06
-6.09893e-07 -1.99053e-06 8.91382e-05
0.000655257 9.6441e-06 -3.60188e-07
9.6441e-06 4.99535e-06 -2.01687e-06
-3.60188e-07 -2.01687e-06 -3.22173e-05
0.000676539 -3.23674e-06 6.01569e-07
-3.23674e-06 1.60139e-05 -6.16439e-08
6.01569e-07 -6.16439e-08 -2.27196e-05
0.000624865 2.06744e-05 3.72532e-07
2.06744e-05 -2.92829e-05 -3.60716e-06
3.72532e-07 -3.60716e-06 -3.77752e-05
0.000933835 3.22482e-05 -4.266e-07
3.22482e-05 0.000155016 4.47732e-08
-4.266e-07 4.47732e-08 0.000145607
0.00214516 4.78134e-05 1.57219e-05
4.78134e-05 0.000866564 -4.26784e-06
1.57219e-05 -4.26784e-06 0.000882022
0.000611488 3.62439e-05 -1.40136e-07
3.62439e-05 -2.57331e-05 3.97773e-06
-1.40136e-07 3.97773e-06 -4.07479e-05
0.00225929 6.23069e-05 -2.72823e-06
6.23069e-05 0.000940506 -1.57499e-07
-2.72823e-06 -1.57499e-07 0.000952768
0.00246166 7.7733e-05 -2.64943e-05
7.7733e-05 0.00106622 3.96983e-06
-2.64943e-05 3.96983e-06 0.00107456
0.00188979 0.000178528 -3.04855e-06
0.000178528 6.59303e-05 -8.12384e-07
-3.04855e-06 -8.12384e-07 -4.0473e-06
0.0019552 7.75529e-05 -7.73678e-07
7.75529e-05 0.000106757 -1.39426e-07
-7.73678e-07 -1.39426e-07 5.6051e-05
0.00177643 2.94797e-06 -7.99583e-07
2.94797e-06 8.04484e-05 -4.3403e-07
-7.99583e-07 -4.3403e-07 9.18522e-06
0.00181303 6.39206e-06 5.36033e-08
6.39206e-06 2.02993e-05 -2.6571e-07
5.36033e-08 -2.6571e-07 -2.04395e-05
0.00189267 0.000111845 -1.48455e-07
0.000111845 3.02194e-05 -1.53346e-07
-1.48455e-07 -1.53346e-07 -1.23271e-05
0.00176208 5.82778e-05 2.82413e-06
5.82778e-05 -2.30146e-05 5.25094e-07
2.82413e-06 5.25094e-07 -1.53724e-05
0.00190322 1.49689e-05 1.12066e-06
1.49689e-05 7.01831e-06 8.62281e-08
1.12066e-06 8.62281e-08 3.49228e-06
0.00270292 0.000207421 2.42206e-05
0.000207421 -2.52369e-06 -1.93972e-06
2.42206e-05 -1.93972e-06 -2.07054e-05
0.00199689 3.04323e-05 -2.49386e-05
3.04323e-05 0.000245786 4.45479e-06
-2.49386e-05 4.45479e-06 0.000285302
0.000676385 6.65062e-05 -6.58721e-07
6.65062e-05 4.42196e-05 -1.2869e-06
-6.58721e-07 -1.2869e-06 -2.1488e-05
0.00177044 -7.51841e-05 -2.5481e-06
-7.51841e-05 1.00551e-05 -2.45363e-07
-2.5481e-06 -2.45363e-07 -4.08882e-05
0.00190873 -0.000169784 -4.09651e-07
-0.000169784 9.75657e-05 1.03882e-06
-4.09651e-07 1.03882e-06 4.12489e-05
0.00166372 -0.000206721 1.21013e-06
-0.000206721 -2.77987e-05 1.28629e-06
1.21013e-06 1.28629e-06 -0.000100254
0.000620343 -0.000183904 3.28585e-06
-0.000183904 -5.52465e-05 7.20651e-06
3.28585e-06 7.20651e-06 -0.000238244
0.00114571 -0.000292712 1.6916e-06
-0.000292712 7.44237e-05 5.80603e-06
1.6916e-06 5.80603e-06 -0.000211767
0.00134642 -0.000324322 -4.44328e-07
-0.000324322 -7.03365e-06 -8.11172e-06
-4.44328e-07 -8.11172e-06 -0.000220601
0.00197407 -0.000334467 -5.38773e-06
-0.000334467 0.000172975 -2.88758e-06
-5.38773e-06 -2.88758e-06 5.05016e-05
0.00156934 -0.000225894 9.69887e-06
-0.000225894 0.000428157 -3.15477e-06
9.69887e-06 -3.15477e-06 0.000274644
0.000477132 -0.000151007 7.89089e-06
-0.000151007 -5.71424e-05 -6.35751e-06
7.89089e-06 -6.35751e-06 -0.000208397
0.000893569 -9.39738e-05 -1.25942e-07
-9.39738e-05 0.000185566 -1.58188e-06
-1.25942e-07 -1.58188e-06 3.52959e-05
0.000653348 -3.99836e-06 -1.19914e-06
-3.99836e-06 5.05525e-06 2.00922e-06
-1.19914e-06 2.00922e-06 -3.58583e-05
0.000815799 -1.0721e-05 4.22619e-07
-1.0721e-05 0.000145858 5.62279e-07
4.22619e-07 5.62279e-07 1.78255e-05
0.000978196 -4.80431e-05 7.90601e-07
-4.80431e-05 0.000231485 3.53767e-07
7.90601e-07 3.53767e-07 0.000148706
0.000774859 -1.84348e-05 -4.62114e-07
-1.84348e-05 0.000124001 5.41892e-07
-4.62114e-07 5.41892e-07 9.84433e-06
0.000472234 -1.73901e-05 -1.37106e-06
-1.73901e-05 -8.50633e-05 1.55744e-06
-1.37106e-06 1.55744e-06 -0.000150323
0.00191101 -9.33324e-05 -8.22888e-08
-9.33324e-05 9.56359e-06 9.11948e-08
-8.22888e-08 9.11948e-08 -1.81381e-05
0.000568699 3.49204e-05 9.24722e-08
3.49204e-05 -1.42028e-05 -1.02049e-06
9.24722e-08 -1.02049e-06 -8.57788e-05
0.000710291 -5.46148e-05 1.87909e-07
-5.46148e-05 6.68644e-05 2.96403e-07
1.87909e-07 2.96403e-07 -8.42899e-06
0.00080061 -4.02167e-05 -4.15235e-07
-4.02167e-05 0.00012781 7.65132e-07
-4.15235e-07 7.65132e-07 3.25578e-05
0.00180128 -0.00018747 9.4297e-07
-0.00018747 -4.17607e-06 -2.549e-07
9.4297e-07 -2.549e-07 -2.52728e-05
0.00198269 -0.000309541 -1.11122e-06
-0.000309541 8.81609e-05 -4.63814e-07
-1.11122e-06 -4.63814e-07 7.46987e-06
0.000948438 -0.000194934 3.04917e-06
-0.000194934 0.000102314 3.28452e-08
3.04917e-06 3.28452e-08 -8.15207e-05
0.00188593 -0.000388544 3.86713e-06
-0.000388544 0.000460389 2.09763e-07
3.86713e-06 2.09763e-07 0.000163134
0.00180299 -0.000386634 -1.38114e-08
-0.000386634 0.000147787 1.64281e-06
-1.38114e-08 1.64281e-06 -4.4401e-06
0.000592907 -7.96404e-06 -3.05537e-07
-7.96404e-06 2.23957e-05 -7.07767e-08
-3.05537e-07 -7.07767e-08 -8.79689e-05
0.000819893 -5.70029e-05 -1.06996e-06
-5.70029e-05 0.000146512 2.92963e-07
-1.06996e-06 2.92963e-07 2.6843e-05
0.000672493 -0.000219626 -3.93692e-06
-0.000219626 -3.90818e-05 1.14055e-06
-3.93692e-06 1.14055e-06 -0.000207981
0.000561121 -9.093e-05 -2.88683e-07
-9.093e-05 6.95708e-05 -8.6334e-07
-2.88683e-07 -8.6334e-07 -0.000149579
0.000783677 -6.65651e-05 -1.42433e-07
-6.65651e-05 9.71313e-05 -2.003e-07
-1.42433e-07 -2.003e-07 -3.88769e-05
0.002128 -0.00018152 -3.3988e-06
-0.00018152 0.000114707 -7.96282e-07
-3.3988e-06 -7.96282e-07 0.000101828
0.00183038 -0.000206559 -6.26762e-06
-0.000206559 -2.51158e-05 1.32235e-06
-6.26762e-06 1.32235e-06 -2.51395e-05
0.00229552 -0.000423689 -3.86705e-06
-0.000423689 0.000274405 -4.79554e-07
-3.86705e-06 -4.79554e-07 0.000150718
0.0029793 -0.000500187 -2.05756e-05
-0.000500187 0.00090708 3.19354e-06
-2.05756e-05 3.19354e-06 0.000692513
0.000940714 -0.000213914 -8.5548e-06
-0.000213914 0.000134902 -3.30071e-06
-8.5548e-06 -3.30071e-06 -8.33004e-05
0.000489658 1.83814e-05 1.27597e-06
1.83814e-05 -5.31624e-05 -2.24887e-06
1.27597e-06 -2.24887e-06 -0.000144795
0.000478639 4.71039e-05 8.36577e-07
4.71039e-05 -6.35447e-05 -4.49824e-07
8.36577e-07 -4.49824e-07 -0.000161479
0.000648369 7.39871e-06 1.03012e-06
7.39871e-06 4.58148e-05 -1.11802e-06
1.03012e-06 -1.11802e-06 -6.08342e-05
0.00115086 -0.000122207 5.4117e-07
-0.000122207 0.000350579 1.94054e-06
5.4117e-07 1.94054e-06 0.000226529
0.000770739 -5.2245e-05 8.74981e-07
-5.2245e-05 9.9517e-05 2.06233e-06
8.74981e-07 2.06233e-06 -1.53907e-05
0.00022387 -5.805e-05 2.59081e-06
-5.805e-05 -0.000118325 8.37942e-07
2.59081e-06 8.37942e-07 -0.000336489
0.000580006 -0.000233668 4.12403e-06
-0.000233668 8.38224e-05 2.80016e-07
4.12403e-06 2.80016e-07 -0.000188075
0.000750727 6.84247e-05 8.39935e-07
6.84247e-05 0.000110733 -3.62558e-06
8.39935e-07 -3.62558e-06 2.43482e-06
0.000326479 6.97326e-05 4.49485e-07
6.97326e-05 -0.000123491 -1.07862e-06
4.49485e-07 -1.07862e-06 -0.000269398
0.00197995 0.000169994 5.82403e-06
0.000169994 5.77071e-05 -1.74247e-07
5.82403e-06 -1.74247e-07 2.75882e-05
0.00193561 0.000261651 9.64868e-06
0.000261651 0.000106256 1.85266e-06
9.64868e-06 1.85266e-06 1.9909e-05
0.0017541 0.000353155 7.25717e-06
0.000353155 0.000130372 2.4781e-06
7.25717e-06 2.4781e-06 -5.02111e-05
0.000376303 0.000159011 1.26781e-06
0.000159011 -0.000190291 -1.86718e-06
1.26781e-06 -1.86718e-06 -0.000404264
0.00245943 0.000395207 3.53472e-06
0.000395207 0.000749167 1.44806e-06
3.53472e-06 1.44806e-06 0.000493869
0.00125778 7.86614e-05 -2.21592e-07
7.86614e-05 0.000399525 5.66773e-07
-2.21592e-07 5.66773e-07 0.000278759
0.00209659 0.000165597 -2.30217e-06
0.000165597 0.000190708 1.02021e-07
-2.30217e-06 1.02021e-07 0.000191673
0.00144785 0.000221694 -1.47015e-06
0.000221694 0.0004838 -3.07038e-07
-1.47015e-06 -3.07038e-07 0.000305709
0.00159771 0.000283708 -7.08436e-07
0.000283708 0.000447372 1.38484e-06
-7.08436e-07 1.38484e-06 0.000206646
0.00195528 0.000359732 -1.04042e-06
0.000359732 0.000139549 -2.48955e-06
-1.04042e-06 -2.48955e-06 2.58464e-05
0.00153706 0.000355994 -1.5186e-06
0.000355994 0.0001582 3.03926e-06
-1.5186e-06 3.03926e-06 -7.96134e-05
0.00168078 0.000288593 2.57608e-05
0.000288593 -0.00019253 9.78755e-07
2.57608e-05 9.78755e-07 -0.000476565
0.00122751 0.000137204 -3.16585e-06
0.000137204 0.000395153 -1.079e-06
-3.16585e-06 -1.079e-06 0.000255321
0.00227301 0.000271588 -3.53382e-05
0.000271588 0.00031832 -1.77049e-05
-3.53382e-05 -1.77049e-05 0.000320986
0.00125342 0.000227361 -5.27313e-06
0.000227361 0.000341054 -7.21226e-07
-5.27313e-06 -7.21226e-07 0.00016081
0.00105045 0.000271447 -3.55147e-06
0.000271447 6.53962e-05 -2.01722e-06
-3.55147e-06 -2.01722e-06 -0.000181506
0.000435577 0.00035969 -1.01424e-05
0.00035969 -0.000561548 -8.15384e-06
-1.01424e-05 -8.15384e-06 -0.00075482
0.00891445 0.000271832 -0.000137473
0.000271832 0.00219988 -3.88917e-05
-0.000137473 -3.88917e-05 0.00124902
0.00491386 0.000569402 0.000121484
0.000569402 0.00073398 -1.05404e-05
0.000121484 -1.05404e-05 0.000196778
0.00129529 0.000411755 2.06146e-05
0.000411755 -4.49952e-05 1.5222e-05
2.06146e-05 1.5222e-05 -0.000217094
-0.0047781 -0.000515176 0.000224322
-0.000515176 -0.00160171 -2.22162e-06
0.000224322 -2.22162e-06 -0.002417
0.00581456 -0.00149995 -9.5434e-06
-0.00149995 0.000991117 5.85913e-06
-9.5434e-06 5.85913e-06 0.00255472
0.000614166 1.65096e-05 1.38747e-06
1.65096e-05 3.58688e-05 -2.77425e-08
1.38747e-06 -2.77425e-08 -5.39291e-05
0.000885259 8.93578e-06 7.06134e-07
8.93578e-06 0.000179211 -5.77458e-07
7.06134e-07 -5.77458e-07 8.74682e-05
0.000919298 5.96187e-05 -1.43384e-06
5.96187e-05 0.000185099 -1.70497e-06
-1.43384e-06 -1.70497e-06 9.10327e-05
0.000671753 -5.80094e-05 8.25355e-08
-5.80094e-05 4.8576e-05 -1.51711e-06
8.25355e-08 -1.51711e-06 -3.40491e-05
0.000644785 5.39221e-05 -1.22419e-06
5.39221e-05 2.67169e-05 -9.42812e-07
-1.22419e-06 -9.42812e-07 -6.70665e-05
0.000786754 -3.47106e-05 -6.9493e-08
-3.47106e-05 0.000110469 -1.79681e-07
-6.9493e-08 -1.79681e-07 1.40909e-05
0.000866982 2.56136e-06 -1.49078e-06
2.56136e-06 0.000147996 1.15633e-06
-1.49078e-06 1.15633e-06 5.66323e-05
0.00076059 -6.73673e-06 -8.6523e-07
-6.73673e-06 7.76729e-05 -3.51517e-07
-8.6523e-07 -3.51517e-07 -9.61547e-06
0.00076428 6.35981e-05 -1.09006e-06
6.35981e-05 9.83651e-05 -3.64773e-07
-1.09006e-06 -3.64773e-07 -3.5565e-06
0.000619665 -7.3027e-06 -6.98713e-08
-7.3027e-06 5.11587e-06 6.84558e-07
-6.98713e-08 6.84558e-07 -7.19752e-05
0.00071153 2.08126e-05 3.04851e-08
2.08126e-05 6.97767e-05 -1.69144e-08
3.04851e-08 -1.69144e-08 -3.21514e-05
0.000802699 3.54398e-06 5.80521e-07
3.54398e-06 9.3786e-05 5.18996e-07
5.80521e-07 5.18996e-07 9.00242e-06
0.000839274 2.32769e-05 -5.45888e-07
2.32769e-05 0.000126335 -2.79182e-07
-5.45888e-07 -2.79182e-07 3.05484e-05
0.000978523 6.35142e-05 -4.81973e-07
6.35142e-05 0.000205408 -7.77406e-07
-4.81973e-07 -7.77406e-07 0.000108541
0.000563352 2.67337e-05 4.86012e-07
2.67337e-05 -3.10314e-05 -1.97897e-06
4.86012e-07 -1.97897e-06 -0.000120333
0.000859849 6.08214e-05 1.60134e-06
6.08214e-05 0.000139511 7.57731e-07
1.60134e-06 7.57731e-07 4.08107e-05
0.000642654 -1.37038e-05 9.37943e-07
-1.37038e-05 1.74131e-05 3.13909e-07
9.37943e-07 3.13909e-07 -7.88201e-05
0.000547389 -4.77828e-05 -1.16014e-06
-4.77828e-05 -3.54968e-05 1.51419e-06
-1.16014e-06 1.51419e-06 -0.000115758
0.000818817 9.97414e-06 -6.48667e-07
9.97414e-06 0.000130702 -1.5024e-07
-6.48667e-07 -1.5024e-07 3.03763e-05
0.000825848 4.83564e-05 9.43158e-08
4.83564e-05 0.000133272 -1.709e-06
9.43158e-08 -1.709e-06 3.39073e-05
0.0006908 -6.34745e-06 -8.53061e-07
-6.34745e-06 6.65281e-05 -1.5676e-07
-8.53061e-07 -1.5676e-07 -2.95893e-05
0.000816442 -6.33929e-06 9.84609e-07
-6.33929e-06 0.000134536 -5.15143e-07
9.84609e-07 -5.15143e-07 3.63038e-05
0.000702843 -6.42324e-05 -1.82531e-06
-6.42324e-05 5.41491e-05 1.05393e-06
-1.82531e-06 1.05393e-06 -2.2492e-05
0.000545664 -1.34075e-06 1.327e-07
-1.34075e-06 -3.47225e-05 6.96516e-07
1.327e-07 6.96516e-07 -0.000115743
0.000647954 2.61552e-07 -9.46536e-07
2.61552e-07 4.98979e-06 1.9183e-06
-9.46536e-07 1.9183e-06 -4.18874e-05
0.000638575 -8.14414e-06 5.27367e-07
-8.14414e-06 2.17267e-06 -2.63913e-08
5.27367e-07 -2.63913e-08 -4.48139e-05
0.000630644 7.29235e-06 -3.83992e-07
7.29235e-06 -2.70547e-05 5.23901e-06
-3.83992e-07 5.23901e-06 -4.01397e-05
0.000635502 4.25402e-06 -3.10139e-07
4.25402e-06 -1.93905e-07 -1.85219e-06
-3.10139e-07 -1.85219e-06 -4.62014e-05
0.000614268 1.98681e-06 2.97103e-07
1.98681e-06 -3.7971e-05 -1.57419e-08
2.97103e-07 -1.57419e-08 -5.03541e-05
0.00229085 -1.2825e-06 -2.09442e-07
-1.2825e-06 0.000938716 5.07889e-06
-2.09442e-07 5.07889e-06 0.00095605
0.000646965 -3.61504e-06 -4.94834e-07
-3.61504e-06 -1.91686e-05 -5.29741e-06
-4.94834e-07 -5.29741e-06 -3.11633e-05
0.00156677 -9.01766e-06 -1.93074e-07
-9.01766e-06 0.000517286 6.60541e-08
-1.93074e-07 6.60541e-08 0.000530916
0.000804663 -1.42381e-05 -1.13062e-07
-1.42381e-05 7.48436e-05 -1.98157e-06
-1.13062e-07 -1.98157e-06 8.50563e-05
0.000659063 1.49433e-06 4.21833e-07
1.49433e-06 8.09704e-06 -1.89356e-06
4.21833e-07 -1.89356e-06 -2.76151e-05
0.000666562 -7.51635e-06 3.44811e-07
-7.51635e-06 1.1051e-05 1.43771e-08
3.44811e-07 1.43771e-08 -2.6121e-05
0.000635119 1.39363e-05 2.56189e-07
1.39363e-05 -2.6259e-05 -3.46797e-06
2.56189e-07 -3.46797e-06 -3.30875e-05
0.000655802 -1.52616e-05 -1.78195e-06
-1.52616e-05 4.10816e-06 1.98322e-06
-1.78195e-06 1.98322e-06 -3.46963e-05
0.000921456 2.38581e-05 -1.1418e-07
2.38581e-05 0.000143146 -7.28621e-07
-1.1418e-07 -7.28621e-07 0.000136531
0.00208068 3.52984e-05 1.20561e-05
3.52984e-05 0.000823975 -4.40805e-06
1.20561e-05 -4.40805e-06 0.000841567
0.000611859 2.85781e-05 -4.35022e-07
2.85781e-05 -3.19233e-05 3.708e-06
-4.35022e-07 3.708e-06 -4.34388e-05
0.00221224 4.90768e-05 -7.4926e-06
4.90768e-05 0.000907423 1.16241e-06
-7.4926e-06 1.16241e-06 0.000922242
0.00230606 6.41119e-05 -2.03379e-05
6.41119e-05 0.000968514 4.13028e-06
-2.03379e-05 4.13028e-06 0.000980246
0.00180771 0.000109117 -2.79451e-06
0.000109117 -5.78501e-06 -6.1898e-07
-2.79451e-06 -6.1898e-07 -4.9566e-05
0.00178245 8.22965e-06 -1.85593e-06
8.22965e-06 6.73117e-06 -5.59464e-07
-1.85593e-06 -5.59464e-07 -3.4572e-05
0.00156003 5.21738e-05 1.0947e-05
5.21738e-05 -0.000144876 -3.53114e-07
1.0947e-05 -3.53114e-07 -0.000144781
0.00222312 0.000145041 2.64646e-05
0.000145041 -0.000175637 6.15863e-06
2.64646e-05 6.15863e-06 -0.000189856
0.0018669 5.36696e-06 -2.74624e-06
5.36696e-06 -1.02498e-05 -5.15761e-07
-2.74624e-06 -5.15761e-07 -1.39846e-05
0.00178162 3.99161e-05 4.5531e-06
3.99161e-05 0.00013304 -1.10985e-06
4.5531e-06 -1.10985e-06 0.000158362
0.00297911 -4.67197e-06 -2.28795e-05
-4.67197e-06 0.000781843 1.66632e-06
-2.28795e-05 1.66632e-06 0.000760063
0.00269778 -2.82289e-05 0.000125804
-2.82289e-05 -0.000412824 -1.94262e-05
0.000125804 -1.94262e-05 -0.000509594
0.00261937 2.08871e-05 1.83209e-07
2.08871e-05 0.000233355 6.29635e-06
1.83209e-07 6.29635e-06 0.000252246
0.000693157 6.14568e-05 -2.62614e-07
6.14568e-05 5.67662e-05 -1.39029e-06
-2.62614e-07 -1.39029e-06 -1.13879e-05
0.000705849 -8.37447e-06 7.31418e-07
-8.37447e-06 6.59302e-05 -1.22267e-07
7.31418e-07 -1.22267e-07 -4.02624e-06
0.00067477 -7.6818e-05 2.75183e-07
-7.6818e-05 5.15601e-05 -8.15622e-07
2.75183e-07 -8.15622e-07 -3.20632e-05
0.000714369 -3.14918e-05 -1.00202e-06
-3.14918e-05 8.91797e-05 -1.56601e-07
-1.00202e-06 -1.56601e-07 -5.13031e-06
0.00192084 -0.000102424 -4.5229e-06
-0.000102424 -3.18699e-06 1.56351e-07
-4.5229e-06 1.56351e-07 -2.00283e-05
0.00176051 -0.000191012 -7.9054e-07
-0.000191012 -2.47846e-05 1.039e-06
-7.9054e-07 1.039e-06 -5.08946e-05
0.00199814 -0.000306545 -5.14215e-06
-0.000306545 0.000111841 7.4221e-07
-5.14215e-06 7.4221e-07 2.5776e-05
0.00158955 -0.000274587 3.51531e-06
-0.000274587 0.000447436 5.26026e-06
3.51531e-06 5.26026e-06 0.000261202
0.000514144 -0.000277795 7.62695e-06
-0.000277795 -0.000270545 -4.30928e-06
7.62695e-06 -4.30928e-06 -0.00055646
0.00218119 -0.000414745 4.65759e-06
-0.000414745 0.000360451 -3.56903e-06
4.65759e-06 -3.56903e-06 0.000201064
0.000867413 -0.000224254 -5.19734e-06
-0.000224254 8.69955e-05 -9.47651e-08
-5.19734e-06 -9.47651e-08 -9.93465e-05
0.00142158 -0.000104615 -8.58479e-07
-0.000104615 0.000514608 -1.37449e-06
-8.58479e-07 -1.37449e-06 0.000322142
0.000476923 -7.92208e-05 -1.76557e-06
-7.92208e-05 -7.65777e-05 9.32597e-07
-1.76557e-06 9.32597e-07 -0.000209401
0.000721575 -2.74591e-05 -7.38172e-07
-2.74591e-05 6.88354e-05 1.67663e-06
-7.38172e-07 1.67663e-06 -3.09476e-06
0.000599023 -6.6839e-05 -7.29848e-07
-6.6839e-05 2.64716e-05 -2.02491e-07
-7.29848e-07 -2.02491e-07 -9.97592e-05
0.000786989 -9.45981e-06 -7.66872e-07
-9.45981e-06 0.000132417 1.72437e-07
-7.66872e-07 1.72437e-07 2.39097e-05
0.000710303 5.6019e-06 1.13489e-07
5.6019e-06 7.20959e-05 9.14183e-07
1.13489e-07 9.14183e-07 -1.32791e-06
0.000612643 1.59238e-05 -1.78479e-06
1.59238e-05 2.34158e-05 2.74599e-06
-1.78479e-06 2.74599e-06 -7.42672e-05
0.00210867 -0.000162889 1.09246e-06
-0.000162889 0.00012239 6.32073e-07
1.09246e-06 6.32073e-07 0.000114167
0.000694009 -1.50135e-06 9.07331e-07
-1.50135e-06 7.1629e-05 -4.67758e-07
9.07331e-07 -4.67758e-07 -2.24475e-05
0.000681124 8.92916e-06 1.25442e-06
8.92916e-06 5.98776e-05 -2.42858e-07
1.25442e-06 -2.42858e-07 -4.04809e-05
0.00057319 5.96156e-05 -1.38954e-07
5.96156e-05 7.94752e-06 1.51257e-06
-1.38954e-07 1.51257e-06 -9.53763e-05
0.00181224 -0.000208414 -1.72492e-06
-0.000208414 -5.44105e-05 -9.93282e-07
-1.72492e-06 -9.93282e-07 -5.92962e-05
0.00192466 -0.000395924 1.4635e-06
-0.000395924 8.21922e-05 -4.09624e-07
1.4635e-06 -4.09624e-07 -3.38683e-05
0.00119249 -0.000268291 -7.52635e-07
-0.000268291 0.000253785 -1.57572e-06
-7.52635e-07 -1.57572e-06 3.16557e-05
0.00238831 -0.000459766 -4.29352e-06
-0.000459766 0.00059146 1.7442e-06
-4.29352e-06 1.7442e-06 0.000380492
0.00104293 -5.69947e-05 -7.33045e-07
-5.69947e-05 0.000277533 3.8895e-07
-7.33045e-07 3.8895e-07 0.000158976
0.000667762 -6.77855e-05 -2.91681e-07
-6.77855e-05 4.10704e-05 1.06999e-06
-2.91681e-07 1.06999e-06 -8.19882e-05
0.000983736 -0.000268911 2.50932e-06
-0.000268911 0.000312478 -5.21111e-07
2.50932e-06 -5.21111e-07 3.50354e-05
0.000986318 -0.000127944 4.32101e-07
-0.000127944 0.000292637 2.30615e-07
4.32101e-07 2.30615e-07 7.39843e-05
0.00202223 -0.000162298 -1.67603e-05
-0.000162298 3.05649e-05 5.95829e-07
-1.67603e-05 5.95829e-07 5.62193e-05
0.00224453 -0.000329761 -1.62245e-05
-0.000329761 0.000148329 4.09485e-06
-1.62245e-05 4.09485e-06 0.000164417
0.00275684 -0.00051656 -1.20693e-05
-0.00051656 0.000618315 -4.54915e-06
-1.20693e-05 -4.54915e-06 0.000438962
0.00186646 -0.00040332 -2.15161e-06
-0.00040332 0.000522657 5.32658e-06
-2.15161e-06 5.32658e-06 0.000310023
0.000619942 1.33062e-05 -5.1596e-07
1.33062e-05 4.06661e-05 -2.92509e-06
-5.1596e-07 -2.92509e-06 -7.63574e-05
0.000635119 -7.33648e-05 1.46736e-06
-7.33648e-05 4.90434e-05 -3.13895e-06
1.46736e-06 -3.13895e-06 -7.36505e-05
0.00059662 -7.95525e-05 3.02482e-07
-7.95525e-05 6.14027e-05 1.94805e-06
3.02482e-07 1.94805e-06 -7.93576e-05
0.000554663 -9.28638e-05 1.93031e-06
-9.28638e-05 0.000183821 -3.76663e-06
1.93031e-06 -3.76663e-06 -0.000152116
0.000541616 -0.000271413 2.49316e-05
-0.000271413 -0.00239482 -2.88884e-06
2.49316e-05 -2.88884e-06 -0.00288906
0.00117198 6.35575e-05 8.60109e-07
6.35575e-05 0.000344977 -2.98374e-06
8.60109e-07 -2.98374e-06 0.000231824
0.000436618 0.000129515 2.68181e-06
0.000129515 -8.30703e-05 3.87471e-07
2.68181e-06 3.87471e-07 -0.000245697
0.00185011 0.000146442 3.31684e-05
0.000146442 6.74949e-05 4.63866e-06
3.31684e-05 4.63866e-06 7.45904e-05
0.00205572 0.000353639 1.1409e-05
0.000353639 0.000197734 4.22069e-06
1.1409e-05 4.22069e-06 8.68763e-05
0.00168506 0.000373765 4.95688e-06
0.000373765 0.000240786 5.09245e-06
4.95688e-06 5.09245e-06 -5.31034e-06
0.000825214 0.00022031 4.22611e-06
0.00022031 3.89547e-05 2.12612e-06
4.22611e-06 2.12612e-06 -0.000204745
0.00280238 0.000362415 4.19981e-05
0.000362415 0.000182358 1.31224e-05
4.19981e-05 1.31224e-05 -0.000190013
0.00111906 0.000116434 1.6032e-06
0.000116434 0.000337443 -1.91021e-07
1.6032e-06 -1.91021e-07 0.000199936
0.00233079 0.000273642 -9.49167e-06
0.000273642 0.000339302 -1.20665e-06
-9.49167e-06 -1.20665e-06 0.000352403
0.00105947 0.000210885 8.70461e-07
0.000210885 0.000246144 -1.05038e-07
8.70461e-07 -1.05038e-07 6.83576e-05
0.00123059 0.000297687 5.89756e-07
0.000297687 0.000170086 -5.4383e-07
5.89756e-07 -5.4383e-07 -8.1721e-05
0.00140002 0.000428741 -4.25835e-06
0.000428741 -7.8871e-05 -1.4182e-06
-4.25835e-06 -1.4182e-06 -0.000267721
0.00326586 -0.000183791 -8.3643e-05
-0.000183791 -0.000855482 -2.81501e-05
-8.3643e-05 -2.81501e-05 -0.00180469
0.0048367 0.000456303 -7.07394e-06
0.000456303 0.000457695 -2.4274e-05
-7.07394e-06 -2.4274e-05 -0.000179784
0.000270037 0.000299565 -7.63993e-07
0.000299565 -0.000495953 7.63975e-06
-7.63993e-07 7.63975e-06 -0.000687673
-0.000921824 -0.00039086 0.000107874
-0.00039086 0.00072569 4.06171e-05
0.000107874 4.06171e-05 -0.000295088
-0.000424115 -0.0014789 -5.75013e-05
-0.0014789 -0.001326 -7.6151e-05
-5.75013e-05 -7.6151e-05 0.00042287
0.00110092 0.000152801 -3.56537e-06
0.000152801 0.000321365 -3.81686e-06
-3.56537e-06 -3.81686e-06 0.00019355
0.000334434 0.000301927 8.6437e-05
0.000301927 0.00116039 -2.73243e-05
8.6437e-05 -2.73243e-05 0.000282807
0.00131114 -0.000510268 -6.97779e-05
-0.000510268 0.00174728 -0.000118048
-6.97779e-05 -0.000118048 0.000855584
0.00284476 0.000411919 -2.43687e-05
0.000411919 0.000679076 -1.0562e-05
-2.43687e-05 -1.0562e-05 0.000693199
0.00112622 0.000148469 -1.15001e-05
0.000148469 0.000274872 -1.74547e-06
-1.15001e-05 -1.74547e-06 9.18969e-05
0.000409101 0.000376044 -1.61739e-05
0.000376044 -0.000304669 -1.30101e-05
-1.61739e-05 -1.30101e-05 -0.000577092
-6.42607e-06 0.000344462 2.69804e-05
0.000344462 -0.000659478 5.65366e-05
2.69804e-05 5.65366e-05 -0.000754583
0.0101176 0.000402065 -3.25491e-05
0.000402065 0.00333699 -2.62293e-05
-3.25491e-05 -2.62293e-05 0.00187998
0.00355488 0.000780757 3.07813e-06
0.000780757 0.000831141 1.03455e-05
3.07813e-06 1.03455e-05 -0.00033782
0.00171201 -0.00127529 0.000149953
-0.00127529 -0.000339857 0.000114369
0.000149953 0.000114369 8.81068e-05
0.00316566 -0.000746385 5.84445e-06
-0.000746385 -0.0014085 0.000163622
5.84445e-06 0.000163622 1.70376e-05
0.0007335 -2.1254e-06 6.36336e-07
-2.1254e-06 0.000102922 -1.26602e-06
6.36336e-07 -1.26602e-06 1.10417e-05
0.000864523 5.95743e-05 9.50733e-07
5.95743e-05 0.000160881 1.00248e-06
9.50733e-07 1.00248e-06 6.53439e-05
0.00127842 0.000111448 -1.86208e-06
0.000111448 0.000403741 -2.76253e-06
-1.86208e-06 -2.76253e-06 0.000321137
0.000679041 3.93071e-06 3.9402e-07
3.93071e-06 5.39852e-05 -4.66516e-07
3.9402e-07 -4.66516e-07 -3.16337e-05
0.000766448 2.73488e-05 -1.21631e-07
2.73488e-05 9.96262e-05 -1.04957e-06
-1.21631e-07 -1.04957e-06 -9.24285e-07
0.000597914 -1.57442e-05 -1.11541e-06
-1.57442e-05 -7.39855e-06 -3.30614e-07
-1.11541e-06 -3.30614e-07 -0.000100929
0.000831481 2.88081e-05 -8.67079e-07
2.88081e-05 0.00012132 5.1283e-07
-8.67079e-07 5.1283e-07 2.7893e-05
0.000764194 5.17363e-06 -4.70133e-07
5.17363e-06 7.05876e-05 2.96234e-07
-4.70133e-07 2.96234e-07 -1.45537e-05
0.000538026 -1.04005e-06 3.69555e-07
-1.04005e-06 -3.82065e-05 7.04142e-07
3.69555e-07 7.04142e-07 -0.000120408
0.000861281 2.20882e-05 8.55284e-08
2.20882e-05 0.000139222 7.5618e-08
8.55284e-08 7.5618e-08 4.28046e-05
0.000838009 2.01576e-05 3.1783e-08
2.01576e-05 0.000128518 2.71687e-07
3.1783e-08 2.71687e-07 2.95772e-05
0.000725341 1.74133e-05 6.27752e-07
1.74133e-05 7.77659e-05 -3.79969e-07
6.27752e-07 -3.79969e-07 -2.61228e-05
0.000605856 2.96694e-05 -9.70504e-08
2.96694e-05 -8.4856e-06 2.50189e-08
-9.70504e-08 2.50189e-08 -9.69798e-05
0.00104221 2.91909e-05 1.13986e-07
2.91909e-05 0.0002387 -1.04484e-06
1.13986e-07 -1.04484e-06 0.00014654
0.000394768 4.49063e-05 -1.84661e-06
4.49063e-05 -0.000114814 -4.25723e-06
-1.84661e-06 -4.25723e-06 -0.00020803
0.000788358 -6.81686e-05 -1.46829e-07
-6.81686e-05 9.8372e-05 5.13385e-07
-1.46829e-07 5.13385e-07 -5.73091e-06
0.000809642 -5.48581e-05 -7.979e-07
-5.48581e-05 0.000130094 -8.24959e-07
-7.979e-07 -8.24959e-07 2.26695e-05
0.000826919 -1.94143e-05 -5.12617e-07
-1.94143e-05 0.000139576 -3.37601e-07
-5.12617e-07 -3.37601e-07 3.56321e-05
0.000844986 2.54836e-05 -4.6595e-07
2.54836e-05 0.000136926 -3.03267e-07
-4.6595e-07 -3.03267e-07 4.21958e-05
0.000850106 1.38195e-05 -1.26836e-06
1.38195e-05 0.000154887 -1.78825e-06
-1.26836e-06 -1.78825e-06 4.17314e-05
0.000753735 3.41709e-05 6.49663e-07
3.41709e-05 9.39441e-05 -7.28427e-07
6.49663e-07 -7.28427e-07 -2.12985e-06
0.000483907 8.59541e-07 5.74888e-07
8.59541e-07 -8.15761e-05 -1.65415e-06
5.74888e-07 -1.65415e-06 -0.000165901
0.000652926 2.92541e-05 1.05545e-06
2.92541e-05 4.10984e-05 5.81418e-07
1.05545e-06 5.81418e-07 -5.45161e-05
0.000696488 -2.1863e-05 1.87085e-09
-2.1863e-05 5.46543e-05 1.83218e-07
1.87085e-09 1.83218e-07 -2.85001e-05
0.000732233 -2.27811e-05 -2.11289e-07
-2.27811e-05 8.56399e-05 -1.16847e-08
-2.11289e-07 -1.16847e-08 -7.90725e-06
0.000699305 -2.92885e-05 -1.46295e-06
-2.92885e-05 4.4238e-05 8.16451e-07
-1.46295e-06 8.16451e-07 -2.48043e-05
0.000734822 -1.4513e-05 1.18161e-06
-1.4513e-05 7.26444e-05 -3.47879e-07
1.18161e-06 -3.47879e-07 -1.67917e-05
0.000658379 -5.89499e-05 -7.89476e-09
-5.89499e-05 2.69304e-05 1.19414e-07
-7.89476e-09 1.19414e-07 -4.98304e-05
0.000672518 1.76815e-06 -1.44502e-06
1.76815e-06 1.5836e-05 2.01981e-06
-1.44502e-06 2.01981e-06 -3.08439e-05
0.000554088 -2.2091e-06 9.11668e-07
-2.2091e-06 -2.36592e-05 -4.27715e-07
9.11668e-07 -4.27715e-07 -0.000108873
0.000649909 6.6093e-06 6.8655e-07
6.6093e-06 7.20221e-06 -2.47978e-08
6.8655e-07 -2.47978e-08 -4.03835e-05
0.00136947 1.67657e-05 -2.7198e-06
1.67657e-05 0.000404122 5.15952e-06
-2.7198e-06 5.15952e-06 0.000394605
0.000641977 1.97331e-05 -7.57595e-08
1.97331e-05 4.01136e-06 -1.77306e-06
-7.57595e-08 -1.77306e-06 -4.29138e-05
0.00099227 8.812e-06 -1.55402e-06
8.812e-06 0.000183248 7.87911e-07
-1.55402e-06 7.87911e-07 0.000172215
0.00086032 3.88875e-06 -3.61245e-06
3.88875e-06 0.000106975 4.93567e-06
-3.61245e-06 4.93567e-06 0.00011632
0.000624036 1.99634e-06 7.73741e-08
1.99634e-06 -3.21589e-05 -3.61982e-06
7.73741e-08 -3.61982e-06 -4.46236e-05
0.00229687 2.11177e-07 3.81007e-06
2.11177e-07 0.000942286 -4.01124e-09
3.81007e-06 -4.01124e-09 0.000959559
0.000877384 -3.55042e-06 -3.68835e-06
-3.55042e-06 0.000116449 -4.97248e-06
-3.68835e-06 -4.97248e-06 0.000126376
0.000706645 6.65739e-05 1.39258e-06
6.65739e-05 7.12971e-05 -6.6487e-07
1.39258e-06 -6.6487e-07 -3.62463e-06
0.000660455 1.38793e-05 -6.99051e-07
1.38793e-05 1.11314e-05 -2.03947e-06
-6.99051e-07 -2.03947e-06 -2.52627e-05
0.000652741 -2.60095e-06 7.3798e-07
-2.60095e-06 5.4268e-06 1.90359e-08
7.3798e-07 1.90359e-08 -3.10028e-05
0.00063554 7.78741e-06 6.48188e-08
7.78741e-06 -2.7408e-05 -3.44124e-06
6.48188e-08 -3.44124e-06 -3.3579e-05
0.000675427 -1.93818e-05 -1.38384e-06
-1.93818e-05 1.66891e-05 2.00951e-06
-1.38384e-06 2.00951e-06 -2.10679e-05
0.000617356 1.3861e-05 8.87132e-09
1.3861e-05 -3.70568e-05 -7.56642e-07
8.87132e-09 -7.56642e-07 -4.37012e-05
0.00206107 2.34032e-05 8.08832e-06
2.34032e-05 0.000808759 -4.57964e-06
8.08832e-06 -4.57964e-06 0.000827655
0.00123208 2.93976e-05 -8.27387e-07
2.93976e-05 0.000324395 2.09885e-06
-8.27387e-07 2.09885e-06 0.000319087
0.00149843 3.02423e-05 2.38196e-07
3.02423e-05 0.000485829 1.45158e-06
2.38196e-07 1.45158e-06 0.000499482
0.000926751 3.33621e-05 -1.54672e-05
3.33621e-05 0.000158857 7.32495e-06
-1.54672e-05 7.32495e-06 0.000166714
0.00148544 8.16545e-05 5.23797e-05
8.16545e-05 -0.000479487 1.51605e-05
5.23797e-05 1.51605e-05 -0.000509388
0.00184808 -3.94347e-06 1.31114e-06
-3.94347e-06 -1.8362e-05 1.31014e-07
1.31114e-06 1.31014e-07 -2.30454e-05
0.00181402 5.0041e-05 2.86405e-05
5.0041e-05 0.00016582 -5.30915e-06
2.86405e-05 -5.30915e-06 0.000179405
0.000974272 6.1702e-05 -2.35267e-06
6.1702e-05 -0.00093494 -6.15664e-06
-2.35267e-06 -6.15664e-06 -0.00106735
0.00178724 2.85225e-05 1.36214e-05
2.85225e-05 -0.000148522 1.17242e-06
1.36214e-05 1.17242e-06 -0.000132974
0.00231086 -1.23168e-05 -6.32108e-07
-1.23168e-05 0.000338893 -1.27664e-06
-6.32108e-07 -1.27664e-06 0.000321126
0.00322893 -4.43502e-05 -5.71445e-05
-4.43502e-05 0.000714905 4.85566e-06
-5.71445e-05 4.85566e-06 0.000704081
0.00322869 -8.01183e-05 0.00012726
-8.01183e-05 0.000499989 -6.79289e-06
0.00012726 -6.79289e-06 0.000275938
0.00855681 -0.000304477 8.58938e-07
-0.000304477 0.0021122 1.85698e-05
8.58938e-07 1.85698e-05 0.000872904
0.00721788 0.0012311 0.000218879
0.0012311 0.00355587 -9.82908e-05
0.000218879 -9.82908e-05 0.0036578
0.00335694 0.00126187 9.99073e-06
0.00126187 0.00221689 1.21009e-05
9.99073e-06 1.21009e-05 0.00309719
0.000431971 -7.03959e-05 2.18202e-06
-7.03959e-05 -8.2295e-05 -1.26005e-06
2.18202e-06 -1.26005e-06 -0.000168869
0.000702375 -9.20053e-06 1.12517e-06
-9.20053e-06 6.40719e-05 -1.19313e-07
1.12517e-06 -1.19313e-07 -5.62769e-06
0.000721984 -7.0728e-05 -1.4971e-06
-7.0728e-05 8.01778e-05 1.81458e-06
-1.4971e-06 1.81458e-06 5.97691e-06
0.000651578 -2.69421e-05 -4.07708e-07
-2.69421e-05 4.05285e-05 1.7757e-07
-4.07708e-07 1.7757e-07 -4.54746e-05
0.000776792 7.22886e-05 1.93719e-07
7.22886e-05 0.000127764 2.4784e-07
1.93719e-07 2.4784e-07 2.25864e-05
0.000850409 0.000116786 1.31259e-06
0.000116786 0.000160426 9.29916e-07
1.31259e-06 9.29916e-07 5.66855e-05
0.000777645 -8.08933e-06 1.60265e-06
-8.08933e-06 0.000118547 -2.18383e-06
1.60265e-06 -2.18383e-06 2.52189e-05
0.000641068 -2.79118e-05 -6.66894e-07
-2.79118e-05 3.92396e-05 6.69224e-07
-6.66894e-07 6.69224e-07 -4.97637e-05
0.00209968 -0.000146792 4.87368e-06
-0.000146792 0.000132347 8.72197e-07
4.87368e-06 8.72197e-07 0.000129787
0.00180497 -0.000214788 4.58208e-06
-0.000214788 -8.83172e-05 -1.71028e-06
4.58208e-06 -1.71028e-06 -9.56094e-05
0.00164695 -0.000374295 1.39494e-06
-0.000374295 -6.52553e-05 2.11949e-06
1.39494e-06 2.11949e-06 -0.000174282
0.00113207 -0.000287902 5.39941e-06
-0.000287902 0.000205013 3.72035e-06
5.39941e-06 3.72035e-06 -1.90492e-05
0.00202132 -0.000435409 5.13026e-06
-0.000435409 0.000398825 -2.77985e-07
5.13026e-06 -2.77985e-07 0.000189312
0.00119834 -0.000288484 -1.68471e-07
-0.000288484 0.000434285 -1.24058e-06
-1.68471e-07 -1.24058e-06 0.000152553
0.00164841 -0.000194493 -1.1601e-06
-0.000194493 0.000656043 -7.62176e-07
-1.1601e-06 -7.62176e-07 0.000431277
0.000754193 -9.98821e-05 -1.41259e-07
-9.98821e-05 9.17485e-05 8.31327e-07
-1.41259e-07 8.31327e-07 -4.17344e-05
0.000766882 -2.31032e-05 -4.26286e-07
-2.31032e-05 0.000114344 2.17534e-06
-4.26286e-07 2.17534e-06 1.3769e-05
0.000939903 -1.66547e-05 -1.37421e-06
-1.66547e-05 0.000208736 -3.24e-06
-1.37421e-06 -3.24e-06 9.58766e-05
0.000970246 -1.5279e-05 9.04556e-07
-1.5279e-05 0.000232911 1.17283e-06
9.04556e-07 1.17283e-06 0.000138757
0.000731282 0.000121536 2.26494e-06
0.000121536 0.000104639 3.4752e-06
2.26494e-06 3.4752e-06 3.07064e-07
0.00175543 -0.000160193 -5.65224e-07
-0.000160193 -8.26892e-05 -2.40109e-08
-5.65224e-07 -2.40109e-08 -5.94427e-05
0.000726135 2.69969e-05 -1.16471e-06
2.69969e-05 0.000102439 2.43714e-07
-1.16471e-06 2.43714e-07 -1.3589e-05
0.000815408 -6.48313e-05 -1.07551e-06
-6.48313e-05 0.000147003 2.83293e-07
-1.07551e-06 2.83293e-07 2.98748e-05
0.00178016 -0.000320369 9.49148e-07
-0.000320369 -9.01593e-05 -1.42921e-06
9.49148e-07 -1.42921e-06 -8.5602e-05
0.00142581 -0.00041669 1.11401e-07
-0.00041669 -6.68775e-05 2.64765e-06
1.11401e-07 2.64765e-06 -0.000220892
0.0016107 -0.000382858 1.58279e-06
-0.000382858 0.000384913 -1.42987e-06
1.58279e-06 -1.42987e-06 0.000159613
0.000887221 -9.86625e-05 3.58469e-07
-9.86625e-05 0.000224614 -2.55648e-06
3.58469e-07 -2.55648e-06 6.8154e-05
0.000937794 -0.000127563 -2.9498e-07
-0.000127563 0.000368578 1.21174e-07
-2.9498e-07 1.21174e-07 5.42125e-05
0.00274831 -0.000238741 -2.16114e-05
-0.000238741 0.000522126 4.06654e-06
-2.16114e-05 4.06654e-06 0.000482769
0.00283894 -0.000452136 -2.74637e-05
-0.000452136 0.000547608 3.57748e-06
-2.74637e-05 3.57748e-06 0.000562805
0.000905282 -0.000417697 -7.53427e-06
-0.000417697 -0.000218803 2.33231e-06
-7.53427e-06 2.33231e-06 -0.000377767
0.000556566 -0.000260884 -2.91343e-06
-0.000260884 -6.17136e-05 1.73337e-05
-2.91343e-06 1.73337e-05 -0.000297376
0.000661914 -0.000112055 1.707e-06
-0.000112055 6.24392e-05 -1.01872e-06
1.707e-06 -1.01872e-06 -6.33941e-05
0.000572545 -7.3533e-05 2.45069e-06
-7.3533e-05 3.23496e-05 -4.22247e-06
2.45069e-06 -4.22247e-06 -0.000102914
0.00101135 -4.23847e-05 8.32278e-07
-4.23847e-05 0.000393507 -4.82938e-06
8.32278e-07 -4.82938e-06 0.000129698
-0.00435464 -3.75191e-05 0.000218482
-3.75191e-05 -0.0025787 1.13196e-06
0.000218482 1.13196e-06 -0.00197879
0.00947948 -0.000115773 -1.3983e-05
-0.000115773 0.00293003 7.8053e-07
-1.3983e-05 7.8053e-07 0.00226778
0.00126022 9.96859e-05 3.25116e-06
9.96859e-05 0.000414806 -9.07845e-07
3.25116e-06 -9.07845e-07 0.000282913
0.000780096 0.000187254 3.48229e-06
0.000187254 0.00010039 -1.6777e-06
3.48229e-06 -1.6777e-06 -7.38998e-05
0.00217337 0.000258157 2.58435e-05
0.000258157 0.00025024 1.64809e-05
2.58435e-05 1.64809e-05 0.000275227
0.00235775 0.000495362 7.18718e-06
0.000495362 0.000403878 7.31909e-06
7.18718e-06 7.31909e-06 0.000220914
0.00155671 0.000335755 6.72183e-06
0.000335755 0.000355702 1.20815e-06
6.72183e-06 1.20815e-06 9.91871e-05
0.0086491 0.000406496 5.08456e-05
0.000406496 0.00212432 6.62655e-06
5.08456e-05 6.62655e-06 0.00104546
0.00690911 0.000687923 -0.000128368
0.000687923 0.00118782 -2.9727e-05
-0.000128368 -2.9727e-05 0.000641274
-0.000941896 0.000177557 -9.38104e-07
0.000177557 -0.00104004 -1.85733e-05
-9.38104e-07 -1.85733e-05 -0.00125556
0.00595284 -0.00100056 -3.89818e-05
-0.00100056 0.00296411 2.84079e-05
-3.89818e-05 2.84079e-05 0.00255451
-0.00707851 -0.001505 -0.000342822
-0.001505 -0.00367035 -0.000270618
-0.000342822 -0.000270618 -0.00181392
0.000950109 0.00014938 -4.40337e-08
0.00014938 0.000244417 -1.757e-06
-4.40337e-08 -1.757e-06 0.000115894
-0.00241357 -0.000430297 8.24909e-05
-0.000430297 -0.00176939 8.5915e-06
8.24909e-05 8.5915e-06 -0.00189341
-0.0018107 -0.000408235 -9.39217e-05
-0.000408235 0.000695212 -4.48191e-05
-9.39217e-05 -4.48191e-05 -0.000493618
0.00259694 0.00037643 -5.22533e-06
0.00037643 0.000521539 -1.12546e-06
-5.22533e-06 -1.12546e-06 0.000557398
0.000881228 0.000169466 -1.91403e-06
0.000169466 0.000169434 6.05231e-07
-1.91403e-06 6.05231e-07 -2.55299e-05
0.000817263 0.000354329 4.30078e-06
0.000354329 -6.20652e-05 1.78242e-06
4.30078e-06 1.78242e-06 -0.000325722
0.000885849 0.000291948 1.20934e-05
0.000291948 -9.62768e-05 1.08744e-05
1.20934e-05 1.08744e-05 -0.000107915
0.00762947 0.000297254 -3.49934e-05
0.000297254 0.00160976 -2.10469e-05
-3.49934e-05 -2.10469e-05 -4.34055e-05
0.00641494 0.00101461 -4.55413e-05
0.00101461 0.00169055 -1.81719e-05
-4.55413e-05 -1.81719e-05 0.000894423
0.00807273 -0.00121536 7.81295e-05
-0.00121536 0.00382862 -3.70449e-05
7.81295e-05 -3.70449e-05 0.00387024
0.00264682 -0.000899249 9.71405e-05
-0.000899249 -0.00182843 0.000202958
9.71405e-05 0.000202958 -0.000370667
0.00146998 0.000131103 -1.23275e-05
0.000131103 0.000558124 -7.40039e-06
-1.23275e-05 -7.40039e-06 0.000447919
-0.00421797 9.43669e-05 -7.33623e-05
9.43669e-05 0.000349216 -4.35018e-05
-7.33623e-05 -4.35018e-05 -0.00143664
0.00245831 0.000154089 -0.000108207
0.000154089 0.000953413 -0.000158717
-0.000108207 -0.000158717 -0.000825988
0.000395895 0.00030688 -1.41283e-05
0.00030688 -0.000334609 2.08584e-06
-1.41283e-05 2.08584e-06 -0.000345573
0.0014475 0.00036909 -3.95712e-05
0.00036909 0.000548274 -1.18485e-05
-3.95712e-05 -1.18485e-05 0.000322137
0.00258381 0.000291471 -7.00571e-05
0.000291471 0.0011759 -5.88321e-06
-7.00571e-05 -5.88321e-06 0.000876656
0.00341301 0.00083597 -5.65891e-05
0.00083597 0.000468046 -1.41403e-05
-5.65891e-05 -1.41403e-05 0.000105476
0.000493658 0.000423801 0.000117338
0.000423801 -0.00030478 8.77167e-05
0.000117338 8.77167e-05 -0.00267893
0.00871293 -0.00127853 1.89432e-05
-0.00127853 0.00272024 0.000169731
1.89432e-05 0.000169731 0.00246961
0.0030869 -0.00055398 -1.27082e-05
-0.00055398 -0.0020941 -2.01183e-05
-1.27082e-05 -2.01183e-05 -0.000729348
0.000915116 7.71279e-05 2.24159e-06
7.71279e-05 0.000198692 3.40898e-06
2.24159e-06 3.40898e-06 9.70718e-05
0.00115816 0.00010421 4.27142e-06
0.00010421 0.000328948 2.65681e-06
4.27142e-06 2.65681e-06 0.00024688
0.000358739 6.63447e-05 1.46744e-07
6.63447e-05 -0.000112728 -4.65698e-06
1.46744e-07 -4.65698e-06 -0.000184904
0.000531931 4.39055e-05 1.00101e-06
4.39055e-05 -4.25939e-05 -1.35964e-07
1.00101e-06 -1.35964e-07 -0.000124252
0.000767708 4.24287e-05 -6.67533e-07
4.24287e-05 0.000108089 -1.26293e-06
-6.67533e-07 -1.26293e-06 1.49232e-06
0.000801062 -6.08892e-06 -4.35305e-07
-6.08892e-06 0.000107271 5.49696e-07
-4.35305e-07 5.49696e-07 9.0133e-06
0.000800096 -3.21514e-06 8.32474e-07
-3.21514e-06 0.000108788 -3.01864e-07
8.32474e-07 -3.01864e-07 9.83113e-06
0.000588613 2.30708e-05 -1.20802e-07
2.30708e-05 -1.9172e-05 2.45852e-06
-1.20802e-07 2.45852e-06 -0.000106247
0.000809986 3.89501e-05 5.84376e-08
3.89501e-05 0.000130929 -6.9928e-07
5.84376e-08 -6.9928e-07 2.30961e-05
0.000893042 2.68395e-05 -9.39097e-08
2.68395e-05 0.000153388 2.68071e-07
-9.39097e-08 2.68071e-07 6.08198e-05
0.000825309 -3.23029e-05 -1.90935e-07
-3.23029e-05 0.000122296 4.84475e-07
-1.90935e-07 4.84475e-07 1.62904e-05
0.000274194 3.2186e-05 3.91219e-07
3.2186e-05 -0.000172456 5.11188e-08
3.91219e-07 5.11188e-08 -0.000263842
-0.000123094 1.81097e-05 -1.79237e-06
1.81097e-05 -0.000307018 -4.13122e-06
-1.79237e-06 -4.13122e-06 -0.000391224
0.000954757 -4.70939e-06 -2.12097e-06
-4.70939e-06 0.000198179 -2.29414e-06
-2.12097e-06 -2.29414e-06 9.62699e-05
0.000955875 2.96834e-06 -1.12947e-07
2.96834e-06 0.000214299 -1.34158e-06
-1.12947e-07 -1.34158e-06 9.29419e-05
0.000825795 -4.84491e-05 -3.42819e-08
-4.84491e-05 0.00014225 -5.86186e-07
-3.42819e-08 -5.86186e-07 3.54287e-05
0.000880047 -9.42378e-06 -5.32599e-07
-9.42378e-06 0.000151826 8.73046e-07
-5.32599e-07 8.73046e-07 5.96898e-05
0.000837691 -3.49472e-05 4.22737e-07
-3.49472e-05 0.000139167 -4.10377e-07
4.22737e-07 -4.10377e-07 3.16984e-05
0.000778889 2.90813e-05 -2.29344e-07
2.90813e-05 0.000105573 -9.88218e-08
-2.29344e-07 -9.88218e-08 1.04977e-05
0.000625562 -2.57286e-05 -1.19642e-07
-2.57286e-05 7.56734e-07 5.71235e-07
-1.19642e-07 5.71235e-07 -8.44905e-05
0.000674939 3.5818e-05 8.46128e-07
3.5818e-05 4.98334e-05 5.70521e-07
8.46128e-07 5.70521e-07 -4.34746e-05
0.000544698 -5.79702e-07 -2.97682e-07
-5.79702e-07 -2.77947e-05 -3.01896e-06
-2.97682e-07 -3.01896e-06 -0.000127889
0.00058464 -1.49746e-05 1.50878e-06
-1.49746e-05 -1.48061e-05 -9.58864e-07
1.50878e-06 -9.58864e-07 -9.90239e-05
0.000840369 -3.31651e-07 2.88436e-06
-3.31651e-07 0.000119612 -3.6426e-06
2.88436e-06 -3.6426e-06 2.48624e-05
0.000191427 -3.5439e-05 8.38013e-07
-3.5439e-05 -0.00020323 2.9852e-07
8.38013e-07 2.9852e-07 -0.000341775
0.000342712 2.6773e-05 -4.80087e-07
2.6773e-05 -0.000121856 -5.89626e-07
-4.80087e-07 -5.89626e-07 -0.000224696
0.000734953 2.25906e-05 3.65915e-07
2.25906e-05 8.72324e-05 3.7364e-07
3.65915e-07 3.7364e-07 -9.30032e-06
0.000678159 1.24734e-05 -4.33804e-08
1.24734e-05 4.67443e-05 4.83254e-07
-4.33804e-08 4.83254e-07 -3.72129e-05
0.000739622 -8.21892e-06 -6.00086e-08
-8.21892e-06 8.90007e-05 -1.11779e-08
-6.00086e-08 -1.11779e-08 -1.13048e-06
0.00065073 1.15582e-05 -6.13724e-07
1.15582e-05 2.23034e-05 7.2286e-07
-6.13724e-07 7.2286e-07 -4.83923e-05
0.000774444 -5.67124e-06 2.68658e-07
-5.67124e-06 0.000108062 3.82303e-08
2.68658e-07 3.82303e-08 1.5609e-05
0.000711666 -2.89312e-05 -2.71595e-07
-2.89312e-05 5.71556e-05 4.64463e-08
-2.71595e-07 4.64463e-08 -1.58419e-05
0.000635551 3.90598e-05 -7.04803e-07
3.90598e-05 -4.73654e-06 2.00921e-06
-7.04803e-07 2.00921e-06 -5.27887e-05
0.000609575 -5.04643e-05 1.17768e-06
-5.04643e-05 -5.24461e-06 -7.422e-07
1.17768e-06 -7.422e-07 -8.05561e-05
0.000655022 1.29357e-05 -1.97701e-07
1.29357e-05 6.30418e-06 -3.01739e-08
-1.97701e-07 -3.01739e-08 -4.06439e-05
0.00136901 2.56782e-05 -4.7752e-06
2.56782e-05 0.000405045 5.19709e-06
-4.7752e-06 5.19709e-06 0.000395104
0.000647658 -6.87151e-06 6.59598e-07
-6.87151e-06 5.43281e-06 -1.79479e-06
6.59598e-07 -1.79479e-06 -4.17932e-05
0.00098689 1.59188e-05 -2.46369e-06
1.59188e-05 0.000181059 7.50401e-07
-2.46369e-06 7.50401e-07 0.000169756
0.000805688 1.42827e-05 -3.75481e-07
1.42827e-05 7.61419e-05 1.93843e-06
-3.75481e-07 1.93843e-06 8.52462e-05
0.000608161 7.08002e-06 3.75156e-07
7.08002e-06 -4.08783e-05 -3.64532e-06
3.75156e-07 -3.64532e-06 -5.37056e-05
0.00231134 1.23939e-05 3.44999e-06
1.23939e-05 0.000951432 3.69874e-08
3.44999e-06 3.69874e-08 0.000968361
0.00230799 1.72827e-06 -2.29379e-07
1.72827e-06 0.000948812 -5.10528e-06
-2.29379e-07 -5.10528e-06 0.00096596
0.00101232 7.03957e-05 -1.29579e-06
7.03957e-05 0.000241654 -1.44286e-06
-1.29579e-06 -1.44286e-06 0.000169915
0.000667084 2.16722e-05 -8.50603e-07
2.16722e-05 1.56822e-05 -2.21329e-06
-8.50603e-07 -2.21329e-06 -2.23906e-05
0.000687253 -3.4143e-06 6.94563e-07
-3.4143e-06 5.85278e-05 8.19395e-07
6.94563e-07 8.19395e-07 -1.49755e-05
0.000636672 1.91942e-06 -4.51651e-08
1.91942e-06 -2.76146e-05 -3.53703e-06
-4.51651e-08 -3.53703e-06 -3.3636e-05
0.000656126 -4.7439e-06 2.31523e-07
-4.7439e-06 8.47132e-06 -3.25617e-08
2.31523e-07 -3.25617e-08 -2.78379e-05
0.000659666 -1.84503e-05 -1.19428e-06
-1.84503e-05 9.44675e-06 1.85798e-06
-1.19428e-06 1.85798e-06 -2.71216e-05
0.000627438 7.74312e-06 -1.74835e-07
7.74312e-06 -3.21997e-05 -1.95392e-08
-1.74835e-07 -1.95392e-08 -3.83283e-05
0.00205788 1.1721e-05 3.70951e-06
1.1721e-05 0.000804466 -4.71313e-06
3.70951e-06 -4.71313e-06 0.000824068
0.00121952 1.96319e-05 -6.73312e-07
1.96319e-05 0.000313779 2.1072e-06
-6.73312e-07 2.1072e-06 0.000310316
0.00144142 2.02153e-05 1.54636e-06
2.02153e-05 0.000447606 6.68508e-08
1.54636e-06 6.68508e-08 0.000463092
0.000878854 2.39158e-05 -1.39228e-05
2.39158e-05 0.000124551 7.19722e-06
-1.39228e-05 7.19722e-06 0.000135415
-0.00725982 0.000230505 0.00015643
0.000230505 -0.00334304 3.16633e-07
0.00015643 3.16633e-07 -0.00390392
-0.0020927 0.000133039 0.000159756
0.000133039 0.000840864 1.55519e-05
0.000159756 1.55519e-05 -0.000163722
0.00370295 0.000176042 -0.000183178
0.000176042 0.000340176 3.90568e-07
-0.000183178 3.90568e-07 0.00026345
0.000533237 3.16409e-05 3.31862e-05
3.16409e-05 -0.000765666 -3.73047e-06
3.31862e-05 -3.73047e-06 -0.000777578
0.00138878 -2.02785e-05 1.72791e-05
-2.02785e-05 -0.00025378 -2.32218e-07
1.72791e-05 -2.32218e-07 -0.000268832
0.000723549 4.16344e-05 1.05572e-05
4.16344e-05 -0.000666468 -3.96046e-06
1.05572e-05 -3.96046e-06 -0.000718835
0.00238281 -7.63137e-05 1.59604e-06
-7.63137e-05 0.000219061 2.83468e-06
1.59604e-06 2.83468e-06 0.000186224
0.00792071 0.00014054 2.677e-05
0.00014054 0.00162898 -2.68325e-05
2.677e-05 -2.68325e-05 0.000656166
-0.00350709 0.000675483 -3.31981e-05
0.000675483 -0.00110899 -5.88582e-06
-3.31981e-05 -5.88582e-06 -0.00183659
-0.001865 0.00134485 -7.17937e-05
0.00134485 -0.000724474 3.20867e-05
-7.17937e-05 3.20867e-05 0.000720834
0.00115806 -0.000164453 4.90066e-05
-0.000164453 -0.000688621 1.03298e-05
4.90066e-05 1.03298e-05 -0.000939523
0.010184 -5.30793e-05 5.7914e-05
-5.30793e-05 0.00311389 -2.78918e-05
5.7914e-05 -2.78918e-05 0.00174426
0.00121622 0.00126665 0.000105825
0.00126665 -0.000378471 -0.000173456
0.000105825 -0.000173456 0.000233678
0.00494409 0.000972708 -0.000114117
0.000972708 0.000165918 8.37061e-05
-0.000114117 8.37061e-05 0.000797625
0.000731336 6.82681e-05 -9.52756e-07
6.82681e-05 0.000106483 -7.04679e-07
-9.52756e-07 -7.04679e-07 -9.42028e-06
0.000585468 1.17184e-05 -2.77516e-07
1.17184e-05 2.74424e-06 -6.77431e-07
-2.77516e-07 -6.77431e-07 -8.14418e-05
0.000707684 -7.76952e-05 -1.16527e-06
-7.76952e-05 7.14099e-05 1.47884e-06
-1.16527e-06 1.47884e-06 -1.65295e-06
0.000592348 1.88756e-06 -1.11282e-08
1.88756e-06 1.09961e-05 1.15411e-06
-1.11282e-08 1.15411e-06 -7.89888e-05
0.000740419 6.78407e-05 9.34468e-07
6.78407e-05 0.000110053 1.44984e-06
9.34468e-07 1.44984e-06 4.50689e-06
0.000873322 7.13587e-05 -8.8736e-08
7.13587e-05 0.000180305 -4.6909e-07
-8.8736e-08 -4.6909e-07 6.58446e-05
0.000789699 8.28697e-05 1.63825e-06
8.28697e-05 0.000130165 1.62523e-06
1.63825e-06 1.62523e-06 2.4081e-05
0.000708973 3.52895e-06 1.42286e-06
3.52895e-06 7.18636e-05 -9.60871e-07
1.42286e-06 -9.60871e-07 -2.69818e-05
0.000680488 -1.64951e-05 5.21533e-07
-1.64951e-05 6.54762e-05 -9.52088e-07
5.21533e-07 -9.52088e-07 -3.13459e-05
0.000566867 -8.98239e-06 -4.79241e-07
-8.98239e-06 -1.07387e-05 1.31068e-06
-4.79241e-07 1.31068e-06 -9.50223e-05
0.00148502 -0.000152461 1.41112e-05
-0.000152461 -0.000196639 -1.08396e-06
1.41112e-05 -1.08396e-06 -0.000174238
0.00175303 -0.000326128 1.64465e-05
-0.000326128 -8.46982e-05 -3.22379e-06
1.64465e-05 -3.22379e-06 -0.000101193
-3.20529e-05 -0.000307901 1.28869e-05
-0.000307901 -0.000818605 2.15578e-06
1.28869e-05 2.15578e-06 -0.00094508
0.00127731 -0.000359911 1.97646e-06
-0.000359911 0.000214101 -1.4476e-06
1.97646e-06 -1.4476e-06 -1.84227e-05
0.00151368 -0.000161372 -3.20206e-07
-0.000161372 0.000658341 5.23271e-06
-3.20206e-07 5.23271e-06 0.000369163
0.00109031 -0.000133274 -6.07529e-07
-0.000133274 0.000343347 1.15486e-06
-6.07529e-07 1.15486e-06 0.000169355
0.000921511 -5.83476e-05 -1.22769e-06
-5.83476e-05 0.000197965 6.41441e-07
-1.22769e-06 6.41441e-07 8.99413e-05
0.000716437 3.62322e-05 -1.61912e-06
3.62322e-05 9.75115e-05 2.40568e-06
-1.61912e-06 2.40568e-06 -1.56764e-05
0.00167144 -0.000191975 -8.50309e-07
-0.000191975 -3.0373e-05 -8.00165e-07
-8.50309e-07 -8.00165e-07 -4.40706e-05
0.000636974 -4.63004e-05 -2.36695e-07
-4.63004e-05 5.09962e-05 -9.42285e-08
-2.36695e-07 -9.42285e-08 -7.64475e-05
0.000544653 -6.37541e-05 8.1504e-07
-6.37541e-05 1.9488e-05 -1.25747e-06
8.1504e-07 -1.25747e-06 -0.000119161
0.00202571 -0.000405031 4.69713e-06
-0.000405031 0.00014194 -7.73581e-07
4.69713e-06 -7.73581e-07 0.000146845
0.000759323 -0.000402006 1.34092e-06
-0.000402006 -0.000274638 2.83845e-06
1.34092e-06 2.83845e-06 -0.000421763
0.000945414 -0.000310162 7.58945e-06
-0.000310162 0.000146182 -2.5703e-06
7.58945e-06 -2.5703e-06 -0.000106469
0.00133375 -8.97992e-05 -4.53872e-07
-8.97992e-05 0.00055077 -3.04418e-06
-4.53872e-07 -3.04418e-06 0.000300272
0.000724987 -0.000250486 -1.4706e-05
-0.000250486 -0.000211896 -9.93971e-07
-1.4706e-05 -9.93971e-07 -0.000447193
0.00136738 -0.000332378 -2.62184e-05
-0.000332378 0.000106962 1.02258e-05
-2.62184e-05 1.02258e-05 6.46485e-05
-0.00018512 -0.000163675 -1.68662e-05
-0.000163675 -0.000295377 3.57056e-05
-1.68662e-05 3.57056e-05 -0.00056733
0.000544294 3.23943e-05 7.02572e-07
3.23943e-05 -2.15431e-06 8.47838e-07
7.02572e-07 8.47838e-07 -0.000127069
0.000531716 -9.94662e-05 2.71753e-06
-9.94662e-05 4.6243e-06 -1.92728e-06
2.71753e-06 -1.92728e-06 -0.000134072
0.000745426 -6.2772e-05 2.43287e-06
-6.2772e-05 0.000172954 -6.77719e-06
2.43287e-06 -6.77719e-06 -1.39282e-05
0.000679105 0.000114349 -0.000117976
0.000114349 0.0027357 1.93594e-06
-0.000117976 1.93594e-06 0.00162385
0.00207316 -0.000254683 1.82531e-05
-0.000254683 0.00146431 1.54015e-05
1.82531e-05 1.54015e-05 0.00133567
0.00020734 0.000508143 -5.87486e-05
0.000508143 -0.00268842 2.07744e-05
-5.87486e-05 2.07744e-05 -0.00328834
0.000797769 0.000138106 4.70102e-06
0.000138106 0.000167498 1.61706e-06
4.70102e-06 1.61706e-06 4.12018e-05
0.000555619 0.000184105 5.68907e-06
0.000184105 1.71195e-05 4.7751e-06
5.68907e-06 4.7751e-06 -0.000188012
0.0022527 0.000332742 1.45673e-05
0.000332742 0.000314293 1.07446e-05
1.45673e-05 1.07446e-05 0.000366932
0.00138914 0.000346532 1.2937e-05
0.000346532 0.000256425 1.10215e-05
1.2937e-05 1.10215e-05 -6.72761e-06
0.00578803 -0.00053026 4.52588e-05
-0.00053026 0.00229122 2.94416e-05
4.52588e-05 2.94416e-05 0.00242039
0.000989854 -6.39203e-05 -0.000100229
-6.39203e-05 -0.00162294 -7.33588e-06
-0.000100229 -7.33588e-06 -0.00312425
0.0029634 0.000892796 -8.9614e-05
0.000892796 -0.00030653 -2.39668e-05
-8.9614e-05 -2.39668e-05 -0.00110318
0.000446801 0.000178311 2.40265e-05
0.000178311 -0.000199469 -1.88942e-05
2.40265e-05 -1.88942e-05 -0.000179315
-0.00390633 -0.000601617 -5.4058e-05
-0.000601617 -0.00134248 -7.61186e-05
-5.4058e-05 -7.61186e-05 -0.00158466
-0.000155053 -0.000573894 -3.83974e-05
-0.000573894 0.000837694 1.27076e-05
-3.83974e-05 1.27076e-05 -0.000383439
0.0072108 -0.00119844 0.00013727
-0.00119844 0.000561186 0.000114156
0.00013727 0.000114156 0.00208428
0.000695509 0.000100198 4.90628e-06
0.000100198 0.000138243 -2.61952e-06
4.90628e-06 -2.61952e-06 2.11852e-05
-0.00119688 -3.58042e-05 -6.01619e-05
-3.58042e-05 0.00137174 -1.85295e-05
-6.01619e-05 -1.85295e-05 -9.02321e-05
0.00283301 0.000176725 -9.26485e-06
0.000176725 0.00113332 -4.53534e-05
-9.26485e-06 -4.53534e-05 -0.000713808
0.00102812 0.000298981 -7.90178e-06
0.000298981 4.3795e-05 3.69944e-06
-7.90178e-06 3.69944e-06 -1.33216e-05
0.000575413 0.000218675 4.37882e-07
0.000218675 0.000104991 1.79579e-06
4.37882e-07 1.79579e-06 -0.000121202
-1.06366e-05 0.000212418 3.45566e-05
0.000212418 -0.00024126 -2.95438e-05
3.45566e-05 -2.95438e-05 -0.000457904
0.00529255 0.00110563 -8.46036e-06
0.00110563 0.00161445 2.07485e-06
-8.46036e-06 2.07485e-06 0.00087622
0.00990172 0.000341898 4.68194e-05
0.000341898 0.0035855 1.73208e-05
4.68194e-05 1.73208e-05 0.00180101
0.00231517 -0.000804497 1.11312e-05
-0.000804497 -0.000981924 -2.33525e-05
1.11312e-05 -2.33525e-05 -0.0010262
0.00770243 -0.000778269 7.37639e-06
-0.000778269 0.000914771 -2.34792e-05
7.37639e-06 -2.34792e-05 0.00219821
0.000765642 0.000155373 -1.083e-05
0.000155373 0.00021366 -7.72764e-06
-1.083e-05 -7.72764e-06 0.000110008
0.00227808 1.89549e-06 -8.10292e-05
1.89549e-06 0.000708055 -3.62687e-05
-8.10292e-05 -3.62687e-05 -0.000527405
0.000568844 6.91122e-05 -1.25285e-05
6.91122e-05 0.00029673 -7.49155e-05
-1.25285e-05 -7.49155e-05 -0.000995425
-0.000920847 3.62323e-05 -1.83018e-05
3.62323e-05 -0.000459595 -1.63025e-05
-1.83018e-05 -1.63025e-05 -0.000605643
0.0021883 0.000364901 -1.89589e-05
0.000364901 0.000708502 4.75008e-05
-1.89589e-05 4.75008e-05 7.22158e-05
0.00947866 0.000614282 3.05466e-05
0.000614282 0.0039467 -2.18822e-06
3.05466e-05 -2.18822e-06 0.00135909
-0.00694777 -0.00116981 -3.92563e-05
-0.00116981 -0.00409303 8.14915e-05
-3.92563e-05 8.14915e-05 -0.00564259
0.00569036 0.000270575 3.33817e-06
0.000270575 -0.000804964 -0.000116256
3.33817e-06 -0.000116256 0.000633035
0.00104141 9.03662e-05 1.54335e-06
9.03662e-05 0.000253407 6.51166e-06
1.54335e-06 6.51166e-06 0.000174573
0.000929742 0.000106468 -4.22451e-06
0.000106468 0.000220827 -1.03582e-06
-4.22451e-06 -1.03582e-06 0.000144563
0.00117348 9.47095e-05 -6.89465e-06
9.47095e-05 0.000467056 -5.2731e-07
-6.89465e-06 -5.2731e-07 0.000382651
0.000821399 7.61382e-05 -1.86475e-06
7.61382e-05 0.000128373 -7.19699e-07
-1.86475e-06 -7.19699e-07 2.6466e-05
0.000874743 -3.47136e-05 -5.27111e-07
-3.47136e-05 0.000159501 4.27465e-07
-5.27111e-07 4.27465e-07 4.74116e-05
0.000724944 3.14605e-05 2.39617e-07
3.14605e-05 5.76593e-05 1.07711e-06
2.39617e-07 1.07711e-06 -3.6091e-05
0.000217717 2.41977e-05 9.33232e-07
2.41977e-05 -0.000192612 2.44471e-06
9.33232e-07 2.44471e-06 -0.000283254
0.000859602 -9.73699e-07 8.51766e-07
-9.73699e-07 0.000144506 1.1449e-07
8.51766e-07 1.1449e-07 3.39477e-05
0.000879757 1.20017e-05 2.42968e-08
1.20017e-05 0.000159528 -5.25234e-07
2.42968e-08 -5.25234e-07 5.64203e-05
0.000383127 3.94519e-06 -7.38593e-07
3.94519e-06 -6.51505e-06 2.04924e-06
-7.38593e-07 2.04924e-06 -9.73501e-05
0.000501418 1.19554e-05 -5.42449e-06
1.19554e-05 0.0001988 -3.26487e-06
-5.42449e-06 -3.26487e-06 0.000105426
0.00085642 -1.7897e-05 -3.40995e-07
-1.7897e-05 0.000235334 -7.12813e-06
-3.40995e-07 -7.12813e-06 0.000137675
0.000994834 3.94938e-05 -4.94896e-07
3.94938e-05 0.000232001 -2.98031e-06
-4.94896e-07 -2.98031e-06 0.000119875
0.00085837 -8.13463e-05 1.07622e-06
-8.13463e-05 0.000141094 8.5183e-07
1.07622e-06 8.5183e-07 3.96585e-05
0.000776334 3.15007e-05 -5.7074e-07
3.15007e-05 0.000101652 -2.34665e-08
-5.7074e-07 -2.34665e-08 7.74398e-06
0.000756192 -3.28186e-05 -1.86908e-06
-3.28186e-05 7.60644e-05 2.10813e-06
-1.86908e-06 2.10813e-06 -9.01044e-06
0.000616302 -1.21611e-05 8.55642e-07
-1.21611e-05 4.89217e-06 7.27558e-07
8.55642e-07 7.27558e-07 -8.95291e-05
0.000740445 3.24836e-05 2.98968e-07
3.24836e-05 8.84854e-05 2.38465e-07
2.98968e-07 2.38465e-07 -6.20274e-06
0.000723683 2.96301e-06 -6.75312e-07
2.96301e-06 6.36268e-05 1.23681e-07
-6.75312e-07 1.23681e-07 -2.06398e-05
0.000928283 1.11879e-05 4.21484e-07
1.11879e-05 0.000177289 -1.7932e-06
4.21484e-07 -1.7932e-06 8.81275e-05
0.000352612 -1.95013e-05 2.89746e-06
-1.95013e-05 -0.000120366 -3.59448e-06
2.89746e-06 -3.59448e-06 -0.00019456
0.000516962 -8.47933e-05 1.28419e-06
-8.47933e-05 -0.000101325 -8.61178e-07
1.28419e-06 -8.61178e-07 -0.000195668
0.000915608 -2.38929e-05 -1.75213e-06
-2.38929e-05 0.000168107 -3.12368e-07
-1.75213e-06 -3.12368e-07 6.94653e-05
0.000435536 -6.3251e-05 3.08644e-06
-6.3251e-05 -7.37873e-05 1.52227e-06
3.08644e-06 1.52227e-06 -0.000202724
0.00103881 -0.000194503 3.44655e-07
-0.000194503 0.000236926 5.35181e-06
3.44655e-07 5.35181e-06 4.34725e-05
0.00124243 -7.94677e-05 1.45999e-06
-7.94677e-05 0.000391756 -1.53568e-06
1.45999e-06 -1.53568e-06 0.000271648
0.000365218 -5.62715e-05 -1.57165e-06
-5.62715e-05 -9.10771e-05 -3.30486e-06
-1.57165e-06 -3.30486e-06 -0.000228109
0.000652321 1.69185e-05 -3.84655e-07
1.69185e-05 4.81566e-05 -4.75934e-07
-3.84655e-07 -4.75934e-07 -5.27753e-05
0.000409936 1.54604e-05 5.03813e-07
1.54604e-05 -9.74356e-05 3.87218e-07
5.03813e-07 3.87218e-07 -0.000188626
0.000830575 1.16652e-05 -1.54485e-07
1.16652e-05 0.000141358 4.41173e-07
-1.54485e-07 4.41173e-07 4.36986e-05
0.000757302 -1.54641e-05 -5.73496e-07
-1.54641e-05 9.88841e-05 4.87691e-07
-5.73496e-07 4.87691e-07 8.62928e-06
0.000667416 2.57389e-06 -7.10036e-07
2.57389e-06 2.99012e-05 8.03554e-07
-7.10036e-07 8.03554e-07 -3.96152e-05
0.000818298 -3.53615e-05 3.60258e-07
-3.53615e-05 0.000143673 -2.7999e-07
3.60258e-07 -2.7999e-07 4.56749e-05
0.000711596 -3.25296e-05 -4.71575e-07
-3.25296e-05 5.865e-05 2.31174e-08
-4.71575e-07 2.31174e-08 -1.38397e-05
0.000648027 3.34084e-05 -1.55729e-06
3.34084e-05 1.83477e-06 1.78195e-06
-1.55729e-06 1.78195e-06 -4.59058e-05
0.000746524 -6.14371e-05 1.4283e-06
-6.14371e-05 8.00321e-05 -8.61941e-07
1.4283e-06 -8.61941e-07 4.79688e-06
0.000679948 6.24475e-06 -2.7903e-07
6.24475e-06 1.76545e-05 9.0607e-09
-2.7903e-07 9.0607e-09 -2.86014e-05
0.00135992 3.49176e-05 -6.96557e-06
3.49176e-05 0.0004019 5.14848e-06
-6.96557e-06 5.14848e-06 0.000391485
0.000664887 -1.36757e-05 1.64977e-06
-1.36757e-05 1.17932e-05 -1.84323e-06
1.64977e-06 -1.84323e-06 -3.50968e-05
0.000988176 2.38248e-05 -3.347e-06
2.38248e-05 0.000183241 7.06994e-07
-3.347e-06 7.06994e-07 0.000171542
0.000808375 2.21849e-05 -7.91192e-07
2.21849e-05 8.18124e-05 1.94902e-06
-7.91192e-07 1.94902e-06 8.99221e-05
0.00059924 1.34031e-05 4.45627e-07
1.34031e-05 -4.51685e-05 -3.70438e-06
4.45627e-07 -3.70438e-06 -5.82392e-05
0.0015576 2.12016e-05 5.28705e-06
2.12016e-05 0.000514154 -1.464e-06
5.28705e-06 -1.464e-06 0.000526887
0.00231311 1.46192e-05 4.22685e-06
1.46192e-05 0.00095281 -5.0156e-06
4.22685e-06 -5.0156e-06 0.000969632
0.000759702 -3.38496e-06 8.19383e-07
-3.38496e-06 8.83127e-05 -1.58905e-06
8.19383e-07 -1.58905e-06 1.5095e-05
0.000690139 1.60428e-05 -4.75197e-07
1.60428e-05 2.72862e-05 -2.24802e-06
-4.75197e-07 -2.24802e-06 -1.23058e-05
0.000751076 -1.76544e-06 8.04288e-07
-1.76544e-06 8.93726e-05 1.70701e-07
8.04288e-07 1.70701e-07 1.78128e-05
0.000631834 -4.28715e-06 -5.55118e-08
-4.28715e-06 -3.04108e-05 -3.65093e-06
-5.55118e-08 -3.65093e-06 -3.69833e-05
0.000659249 1.39935e-05 4.60214e-08
1.39935e-05 1.06118e-05 -1.92995e-08
4.60214e-08 -1.92995e-08 -2.70326e-05
0.000678411 -7.173e-05 -2.91121e-06
-7.173e-05 4.83979e-05 2.12809e-06
-2.91121e-06 2.12809e-06 -2.10193e-05
0.00206017 5.29221e-08 -8.75758e-07
5.29221e-08 0.000804641 -4.77223e-06
-8.75758e-07 -4.77223e-06 0.000824518
0.000630538 1.86161e-06 -1.45721e-07
1.86161e-06 -3.10283e-05 -5.50745e-09
-1.45721e-07 -5.50745e-09 -3.70268e-05
0.000642566 -1.25447e-05 -1.00571e-06
-1.25447e-05 3.23379e-07 1.96326e-06
-1.00571e-06 1.96326e-06 -3.58198e-05
0.000620002 7.7188e-06 -2.44561e-07
7.7188e-06 -3.65972e-05 3.48724e-06
-2.44561e-07 3.48724e-06 -4.26956e-05
0.00206899 1.2969e-05 -3.36911e-06
1.2969e-05 0.000811098 -3.84458e-08
-3.36911e-06 -3.84458e-08 0.00083062
0.00206467 2.39561e-05 -1.05145e-05
2.39561e-05 0.000810998 4.45468e-06
-1.05145e-05 4.45468e-06 0.000829951
-0.00308291 -0.000152429 -3.4961e-05
-0.000152429 0.000685675 1.28118e-05
-3.4961e-05 1.28118e-05 -0.000824761
-0.00109204 0.000364176 -4.4538e-05
0.000364176 -0.000506042 1.08892e-05
-4.4538e-05 1.08892e-05 -0.000871879
0.00304536 -0.000188034 -0.000153508
-0.000188034 0.000809504 0.000124686
-0.000153508 0.000124686 -0.000836742
-0.00271125 0.000171142 0.000216175
0.000171142 0.000942902 -9.5377e-05
0.000216175 -9.5377e-05 6.19756e-05
0.00153613 0.000171433 -7.7412e-05
0.000171433 -0.000460308 1.37357e-05
-7.7412e-05 1.37357e-05 -0.000635792
0.00219551 -0.000118103 9.00732e-05
-0.000118103 7.7121e-05 -1.00555e-05
9.00732e-05 -1.00555e-05 4.9958e-05
0.00176008 -0.00041063 -7.96192e-05
-0.00041063 -0.00133358 -4.81248e-05
-7.96192e-05 -4.81248e-05 -0.00240764
0.00812995 0.000734976 -5.19055e-05
0.000734976 0.00397346 -1.35395e-05
-5.19055e-05 -1.35395e-05 0.00364396
-0.00717266 0.00147093 -0.00034717
0.00147093 -0.00381713 0.000277998
-0.00034717 0.000277998 -0.00180386
0.00247001 -4.99603e-05 -9.53374e-06
-4.99603e-05 -0.00012591 -5.18188e-06
-9.53374e-06 -5.18188e-06 -0.000334494
0.00402563 -0.000195258 3.2294e-05
-0.000195258 0.000109368 -4.37261e-05
3.2294e-05 -4.37261e-05 -0.00183096
0.00866865 0.0013896 -4.72051e-05
0.0013896 0.00280243 -5.41738e-05
-4.72051e-05 -5.41738e-05 0.00347961
0.00221308 0.000918892 -5.03823e-05
0.000918892 -0.0014837 0.000110733
-5.03823e-05 0.000110733 -0.00075688
0.00247837 -0.000514428 -5.66571e-05
-0.000514428 -0.000400357 1.60841e-05
-5.66571e-05 1.60841e-05 -0.000742599
0.0025188 -0.00053623 0.000150069
-0.00053623 0.000394761 -0.000110652
0.000150069 -0.000110652 -0.00244983
-0.00546053 0.000595796 -4.60057e-05
0.000595796 -0.00458562 -0.000218707
-4.60057e-05 -0.000218707 -0.0044449
0.00206549 0.000566993 -3.3828e-05
0.000566993 -0.00295539 -5.7247e-06
-3.3828e-05 -5.7247e-06 -0.00168064
0.000806871 -1.30527e-05 1.03147e-06
-1.30527e-05 0.000150681 -2.903e-07
1.03147e-06 -2.903e-07 2.66617e-05
0.000748092 5.82402e-05 -1.76896e-06
5.82402e-05 0.000112641 -7.72946e-07
-1.76896e-06 -7.72946e-07 1.47953e-06
0.000707266 4.99143e-05 1.00792e-07
4.99143e-05 7.06264e-05 -1.54462e-07
1.00792e-07 -1.54462e-07 -1.0659e-05
0.000659485 6.87131e-05 2.40346e-06
6.87131e-05 6.51476e-05 2.54436e-06
2.40346e-06 2.54436e-06 -3.90926e-05
0.000715756 3.50253e-05 -1.40187e-07
3.50253e-05 8.88049e-05 -5.97825e-07
-1.40187e-07 -5.97825e-07 -3.74922e-05
0.000857463 7.25124e-05 1.96826e-07
7.25124e-05 0.000172632 9.72012e-07
1.96826e-07 9.72012e-07 5.87333e-05
0.000690407 1.92403e-05 -7.73593e-07
1.92403e-05 6.96558e-05 2.36272e-06
-7.73593e-07 2.36272e-06 -3.27279e-05
0.000895311 0.000106006 -1.84449e-07
0.000106006 0.000197129 -4.25885e-07
-1.84449e-07 -4.25885e-07 8.03547e-05
0.000846897 5.92426e-05 -1.47986e-07
5.92426e-05 0.000167604 5.41567e-07
-1.47986e-07 5.41567e-07 5.82689e-05
0.000608499 -6.14309e-06 -1.76636e-06
-6.14309e-06 2.66311e-05 4.72935e-07
-1.76636e-06 4.72935e-07 -7.3579e-05
0.0011901 -0.000185063 3.09399e-05
-0.000185063 -0.000268582 -1.30322e-05
3.09399e-05 -1.30322e-05 -0.000261393
0.000911583 -0.000350004 2.5716e-05
-0.000350004 -0.000422834 -4.08854e-06
2.5716e-05 -4.08854e-06 -0.000429715
0.000989746 -0.000415926 1.44725e-05
-0.000415926 -0.000134604 -2.58012e-06
1.44725e-05 -2.58012e-06 -0.000274571
0.00117789 -0.00034838 8.80595e-06
-0.00034838 0.000263586 -1.67026e-05
8.80595e-06 -1.67026e-05 -1.50297e-05
0.00145248 -0.000117962 -1.20227e-06
-0.000117962 0.000592481 1.02695e-05
-1.20227e-06 1.02695e-05 0.000355783
0.00069657 -8.19272e-05 -1.65845e-06
-8.19272e-05 0.000113538 4.51294e-06
-1.65845e-06 4.51294e-06 -3.34157e-05
0.000633054 6.50835e-05 -6.6616e-07
6.50835e-05 5.23663e-05 -1.70365e-07
-6.6616e-07 -1.70365e-07 -7.83811e-05
0.000723875 -4.83827e-05 -4.56798e-07
-4.83827e-05 0.000104262 1.30477e-06
-4.56798e-07 1.30477e-06 -2.77138e-05
0.00129896 -0.000241545 -1.86064e-06
-0.000241545 6.04806e-05 -2.13575e-07
-1.86064e-06 -2.13575e-07 -9.28076e-05
0.000842995 -7.77856e-06 1.23716e-07
-7.77856e-06 0.000181804 2.54003e-07
1.23716e-07 2.54003e-07 4.07377e-05
0.00121342 -9.72407e-05 -2.15379e-08
-9.72407e-05 0.000446155 1.92029e-07
-2.15379e-08 1.92029e-07 0.000247914
0.00114866 -0.000321755 -2.67252e-06
-0.000321755 -3.57665e-05 -1.84436e-06
-2.67252e-06 -1.84436e-06 -6.60332e-05
0.00107179 -0.000210074 -1.22493e-05
-0.000210074 0.000360155 4.33348e-06
-1.22493e-05 4.33348e-06 0.000104977
-0.000350893 -0.000311745 -1.3291e-05
-0.000311745 -0.000846775 -1.75971e-05
-1.3291e-05 -1.75971e-05 -0.000826816
0.000606457 -0.000150914 -1.81113e-05
-0.000150914 9.39549e-05 2.44679e-05
-1.81113e-05 2.44679e-05 -3.4119e-08
0.000471007 -4.88181e-05 -6.03292e-06
-4.88181e-05 5.45212e-05 2.74419e-05
-6.03292e-06 2.74419e-05 -0.000136893
0.000696703 -3.91522e-06 6.08781e-07
-3.91522e-06 7.49841e-05 -6.71391e-07
6.08781e-07 -6.71391e-07 -5.47876e-05
0.000643606 2.16259e-05 1.93568e-06
2.16259e-05 0.000121681 -5.41169e-06
1.93568e-06 -5.41169e-06 -6.43702e-05
0.00162537 -3.15373e-05 -1.69085e-05
-3.15373e-05 0.000648071 -1.35862e-06
-1.69085e-05 -1.35862e-06 -0.00039399
-0.00161795 4.07257e-05 -8.78704e-05
4.07257e-05 0.00178296 -4.32829e-06
-8.78704e-05 -4.32829e-06 0.000368344
-0.00841616 -0.000324092 -0.000244507
-0.000324092 -0.00432638 5.15439e-06
-0.000244507 5.15439e-06 -0.0042672
-2.94122e-05 7.98635e-05 6.04912e-06
7.98635e-05 -0.000251449 -1.44129e-06
6.04912e-06 -1.44129e-06 -0.000379272
4.46708e-05 9.96396e-05 3.72263e-06
9.96396e-05 -0.0001651 2.96359e-06
3.72263e-06 2.96359e-06 -0.000386244
0.00154103 0.000277009 1.3052e-05
0.000277009 0.000331211 4.49048e-06
1.3052e-05 4.49048e-06 0.000266276
-0.00296061 0.000190263 -2.11241e-05
0.000190263 0.000602426 9.94751e-06
-2.11241e-05 9.94751e-06 -0.0010228
0.0020942 0.000359708 -6.59039e-05
0.000359708 0.000322181 -5.75713e-05
-6.59039e-05 -5.75713e-05 -0.00246817
0.00327227 0.000884043 9.3946e-05
0.000884043 0.000425003 1.45782e-05
9.3946e-05 1.45782e-05 -0.000133959
0.000681308 0.000268272 5.46049e-06
0.000268272 4.20386e-05 -1.62965e-05
5.46049e-06 -1.62965e-05 -7.88362e-06
0.0109071 -0.00100399 1.95534e-05
-0.00100399 0.00333001 -6.43664e-05
1.95534e-05 -6.43664e-05 0.00330836
0.00329646 0.000190732 9.32307e-05
0.000190732 0.00142813 6.61711e-05
9.32307e-05 6.61711e-05 -0.000484988
0.00760037 -0.000685098 2.92686e-05
-0.000685098 0.00111458 1.07053e-06
2.92686e-05 1.07053e-06 0.00247547
0.000951808 0.000165462 6.03473e-07
0.000165462 0.000353102 -2.4059e-06
6.03473e-07 -2.4059e-06 0.000243056
0.00252996 7.54445e-06 6.00362e-06
7.54445e-06 0.00100182 -7.30266e-06
6.00362e-06 -7.30266e-06 -8.51285e-05
0.000941702 9.53014e-05 8.6835e-06
9.53014e-05 0.000252556 1.42029e-05
8.6835e-06 1.42029e-05 -0.00108026
-9.84832e-05 0.000159207 -8.57913e-06
0.000159207 -7.43854e-05 -1.39371e-06
-8.57913e-06 -1.39371e-06 -0.000253267
0.00271808 0.00052166 -6.15574e-05
0.00052166 0.000815696 -3.54645e-05
-6.15574e-05 -3.54645e-05 0.000189619
0.00224504 0.00105639 5.51923e-05
0.00105639 0.000537053 4.17661e-05
5.51923e-05 4.17661e-05 -0.00234603
0.00467455 0.000106526 -7.62067e-06
0.000106526 -0.00203787 -8.05385e-05
-7.62067e-06 -8.05385e-05 -6.88433e-05
0.0012671 -0.000688054 -2.29694e-05
-0.000688054 -6.69599e-05 -1.91921e-05
-2.29694e-05 -1.91921e-05 -0.00110657
0.00110551 0.000110466 -3.64383e-06
0.000110466 0.000593123 -8.05083e-06
-3.64383e-06 -8.05083e-06 0.000479773
0.000847259 -5.03236e-05 -1.19936e-06
-5.03236e-05 0.000133571 -2.42858e-05
-1.19936e-06 -2.42858e-05 -0.000127975
0.00240485 -8.36047e-06 1.81174e-05
-8.36047e-06 0.000319272 -6.68505e-05
1.81174e-05 -6.68505e-05 -0.000677052
0.00223886 0.00059984 4.09893e-05
0.00059984 -0.00285662 4.14653e-06
4.09893e-05 4.14653e-06 -0.00167912
-0.00104905 4.67023e-05 -5.62271e-06
4.67023e-05 -0.000287754 -1.53011e-05
-5.62271e-06 -1.53011e-05 -0.000708183
0.00979274 0.000784253 0.000103996
0.000784253 0.00452819 4.36744e-05
0.000103996 4.36744e-05 0.00144831
-0.0087588 -0.000277047 5.66105e-05
-0.000277047 -0.00104355 0.000114237
5.66105e-05 0.000114237 -0.00255262
0.0016614 0.000168766 1.42223e-05
0.000168766 0.000645553 6.39984e-06
1.42223e-05 6.39984e-06 0.000562308
0.00112381 0.000115256 -3.43283e-06
0.000115256 0.000428027 5.89914e-07
-3.43283e-06 5.89914e-07 0.000337803
0.000541648 8.29429e-05 -1.19829e-05
8.29429e-05 0.000304213 -8.4442e-07
-1.19829e-05 -8.4442e-07 0.000196446
0.000789747 0.000120039 1.02233e-06
0.000120039 0.000113276 1.32515e-06
1.02233e-06 1.32515e-06 -2.16684e-06
0.000758686 4.30124e-05 5.7389e-07
4.30124e-05 8.72204e-05 1.19957e-06
5.7389e-07 1.19957e-06 -1.19854e-05
0.00068856 -2.05876e-06 3.2626e-06
-2.05876e-06 0.000181263 8.15762e-06
3.2626e-06 8.15762e-06 8.20511e-05
0.000736758 3.7425e-05 -2.60209e-07
3.7425e-05 7.84104e-05 -4.55792e-07
-2.60209e-07 -4.55792e-07 -2.66694e-05
0.000767382 -3.02785e-05 -3.01404e-07
-3.02785e-05 0.000187461 -1.2945e-06
-3.01404e-07 -1.2945e-06 8.5075e-05
0.000220104 1.78863e-05 6.96255e-06
1.78863e-05 3.50345e-05 2.92621e-06
6.96255e-06 2.92621e-06 -6.15462e-05
0.00114184 1.04418e-05 -9.0978e-06
1.04418e-05 0.000534719 -1.13917e-05
-9.0978e-06 -1.13917e-05 0.000463031
0.000399666 -2.95073e-05 -1.87648e-06
-2.95073e-05 -4.15297e-05 -6.22504e-06
-1.87648e-06 -6.22504e-06 -0.000135254
0.000661868 -2.12455e-05 1.84747e-07
-2.12455e-05 2.14245e-05 3.01719e-06
1.84747e-07 3.01719e-06 -6.63617e-05
0.000791012 3.29881e-05 -3.13763e-07
3.29881e-05 0.000118511 1.00667e-07
-3.13763e-07 1.00667e-07 2.26262e-05
0.000886441 1.4105e-05 -4.09901e-06
1.4105e-05 0.000155371 2.78132e-06
-4.09901e-06 2.78132e-06 7.08495e-05
0.000728101 -2.03063e-05 1.56527e-06
-2.03063e-05 8.76238e-05 1.24156e-07
1.56527e-06 1.24156e-07 1.23863e-05
0.000749985 1.8252e-05 -7.44986e-08
1.8252e-05 7.86312e-05 1.77853e-07
-7.44986e-08 1.77853e-07 -1.18678e-05
0.000716707 -6.45739e-05 2.33975e-06
-6.45739e-05 8.48929e-05 -1.48202e-08
2.33975e-06 -1.48202e-08 -5.95902e-06
0.000564678 -6.65437e-05 -1.44133e-06
-6.65437e-05 -4.74618e-05 -8.65308e-07
-1.44133e-06 -8.65308e-07 -0.000131664
0.000345275 -0.000130649 5.33848e-06
-0.000130649 -0.000142776 1.18147e-07
5.33848e-06 1.18147e-07 -0.000301898
0.00103081 -4.88319e-05 -8.19818e-07
-4.88319e-05 0.000237672 7.81372e-07
-8.19818e-07 7.81372e-07 0.000135535
0.00103778 -0.000117126 -7.7286e-07
-0.000117126 0.000258521 2.04642e-06
-7.7286e-07 2.04642e-06 0.000121081
0.000227594 -0.000146863 5.00426e-07
-0.000146863 -0.000255077 3.25287e-06
5.00426e-07 3.25287e-06 -0.000441574
0.000639824 -0.000165835 -6.08481e-06
-0.000165835 -1.95307e-05 -1.53365e-07
-6.08481e-06 -1.53365e-07 -0.00021223
0.000961776 -0.000148659 -1.54948e-06
-0.000148659 0.00024718 2.75964e-06
-1.54948e-06 2.75964e-06 9.3611e-05
0.000651638 -0.000157842 8.98016e-07
-0.000157842 1.99963e-05 4.63118e-07
8.98016e-07 4.63118e-07 -0.000165207
0.00085946 -4.23214e-05 4.75434e-07
-4.23214e-05 0.000160505 3.56897e-07
4.75434e-07 3.56897e-07 5.6984e-05
0.00101445 -7.21403e-05 -1.1933e-06
-7.21403e-05 0.000269296 -7.11594e-07
-1.1933e-06 -7.11594e-07 0.000145413
0.000544034 -7.62524e-05 8.21279e-07
-7.62524e-05 2.36003e-05 -6.61963e-06
8.21279e-07 -6.61963e-06 -0.000111279
0.00096965 6.58726e-06 -9.76119e-07
6.58726e-06 0.000222145 -6.04268e-07
-9.76119e-07 -6.04268e-07 0.000123345
0.000556721 7.6145e-06 2.02525e-07
7.6145e-06 -1.21336e-05 -2.23701e-08
2.02525e-07 -2.23701e-08 -0.000104516
0.000663138 1.54991e-05 -3.27191e-07
1.54991e-05 3.03047e-05 7.24953e-07
-3.27191e-07 7.24953e-07 -4.31276e-05
0.000809327 -3.24585e-05 -3.48561e-08
-3.24585e-05 0.000135791 1.83539e-07
-3.48561e-08 1.83539e-07 3.93169e-05
0.000710186 -1.65222e-05 -3.50405e-07
-1.65222e-05 5.96181e-05 3.34032e-09
-3.50405e-07 3.34032e-09 -1.4145e-05
0.000650027 3.28258e-05 -1.02884e-06
3.28258e-05 6.70843e-06 1.78617e-06
-1.02884e-06 1.78617e-06 -4.29902e-05
0.000753238 -5.01894e-05 8.4823e-07
-5.01894e-05 8.72915e-05 -9.12097e-07
8.4823e-07 -9.12097e-07 1.09988e-05
0.000666734 2.45486e-05 -6.014e-07
2.45486e-05 1.21087e-05 -3.11188e-08
-6.014e-07 -3.11188e-08 -3.56463e-05
0.00133136 4.52775e-05 -8.04354e-06
4.52775e-05 0.000389734 3.48165e-06
-8.04354e-06 3.48165e-06 0.00037836
0.000685814 -6.75702e-06 1.93243e-06
-6.75702e-06 2.08532e-05 -1.88312e-06
1.93243e-06 -1.88312e-06 -2.54629e-05
0.000974227 3.22365e-05 -4.20613e-06
3.22365e-05 0.000177637 6.33525e-07
-4.20613e-06 6.33525e-07 0.000165444
0.000815168 2.99131e-05 -1.33442e-06
2.99131e-05 9.06607e-05 1.97331e-06
-1.33442e-06 1.97331e-06 9.76971e-05
0.000586399 2.00978e-05 6.96583e-07
2.00978e-05 -5.13105e-05 -3.81518e-06
6.96583e-07 -3.81518e-06 -6.46432e-05
0.00155854 3.1468e-05 7.10981e-06
3.1468e-05 0.000518608 -1.35011e-06
7.10981e-06 -1.35011e-06 0.000530346
0.00232008 2.75678e-05 8.30274e-06
2.75678e-05 0.000959471 -4.8747e-06
8.30274e-06 -4.8747e-06 0.000975581
0.000479211 2.69892e-06 8.44123e-08
2.69892e-06 -6.45015e-05 -2.2361e-06
8.44123e-08 -2.2361e-06 -0.00015273
0.000397709 -2.53004e-06 -2.5509e-07
-2.53004e-06 -0.000141876 -3.22563e-06
-2.5509e-07 -3.22563e-06 -0.000187868
0.000786515 8.1015e-06 8.42582e-08
8.1015e-06 0.000108715 6.48687e-08
8.42582e-08 6.48687e-08 3.21269e-05
0.000627297 -1.05786e-05 -1.08084e-08
-1.05786e-05 -3.22962e-05 -3.80985e-06
-1.08084e-08 -3.80985e-06 -4.04625e-05
0.000518191 5.87654e-06 7.47912e-07
5.87654e-06 -7.16228e-05 -5.34497e-08
7.47912e-07 -5.34497e-08 -0.000112701
0.000483014 -6.71551e-05 -5.36185e-07
-6.71551e-05 -6.29022e-05 1.72198e-06
-5.36185e-07 1.72198e-06 -0.00013729
0.00209751 -1.18637e-05 -5.29912e-06
-1.18637e-05 0.000826709 -4.80269e-06
-5.29912e-06 -4.80269e-06 0.000846132
0.000632151 -4.2012e-06 -1.40564e-07
-4.2012e-06 -3.01642e-05 -2.44194e-08
-1.40564e-07 -2.44194e-08 -3.67063e-05
0.000642485 -3.52137e-06 -9.02608e-07
-3.52137e-06 7.33027e-07 2.11683e-06
-9.02608e-07 2.11683e-06 -3.66448e-05
0.00207089 1.23655e-06 -3.43934e-06
1.23655e-06 0.000810931 5.21144e-09
-3.43934e-06 5.21144e-09 0.000830763
0.000623899 1.8426e-06 -5.97388e-08
1.8426e-06 -3.4733e-05 3.50159e-06
-5.97388e-08 3.50159e-06 -4.07105e-05
0.00207172 1.4188e-05 -3.71872e-06
1.4188e-05 0.000812853 4.62859e-06
-3.71872e-06 4.62859e-06 0.000832306
0.000872739 -8.82084e-05 -7.08834e-05
-8.82084e-05 -5.53348e-05 2.81781e-05
-7.08834e-05 2.81781e-05 -0.00113884
0.00153351 0.000145757 -1.55541e-05
0.000145757 0.00252573 -9.95521e-06
-1.55541e-05 -9.95521e-06 0.00163139
0.00134233 -0.000286222 -0.000163147
-0.000286222 0.00163619 -7.54786e-06
-0.000163147 -7.54786e-06 0.000936703
0.000754042 6.15743e-05 -5.0794e-09
6.15743e-05 9.84501e-05 -1.71824e-07
-5.0794e-09 -1.71824e-07 -1.41265e-05
0.0033124 -0.000150326 -2.17912e-05
-0.000150326 0.00184285 7.8092e-05
-2.17912e-05 7.8092e-05 0.000897755
0.00310066 -0.000223057 -5.37923e-05
-0.000223057 0.000949589 4.9222e-06
-5.37923e-05 4.9222e-06 -0.000864813
0.00151243 0.000490233 0.0001138
0.000490233 0.00234309 -0.000113653
0.0001138 -0.000113653 0.00189329
0.00356654 -0.000170172 8.15413e-06
-0.000170172 0.000192358 -2.81693e-05
8.15413e-06 -2.81693e-05 -6.00171e-05
0.0102341 -6.42845e-05 7.98678e-05
-6.42845e-05 0.00318358 -3.97767e-05
7.98678e-05 -3.97767e-05 0.00148632
-0.00344394 0.000973664 -8.92662e-05
0.000973664 -0.00367781 0.000101281
-8.92662e-05 0.000101281 -0.00280524
0.00427163 0.00101948 9.70728e-06
0.00101948 -0.000268415 3.32397e-05
9.70728e-06 3.32397e-05 0.000420541
0.0046983 -0.000633108 -7.874e-05
-0.000633108 0.000438156 1.15578e-08
-7.874e-05 1.15578e-08 -0.000200423
0.00921936 -0.000349465 5.07198e-05
-0.000349465 0.00366788 -1.41079e-05
5.07198e-05 -1.41079e-05 0.00165727
0.00548149 0.000724073 4.10119e-05
0.000724073 0.000286025 -7.47839e-05
4.10119e-05 -7.47839e-05 0.000255383
0.00422636 0.000559506 -1.47709e-05
0.000559506 -0.00161979 7.4337e-06
-1.47709e-05 7.4337e-06 -0.000476464
0.00488979 -0.00109079 -6.4312e-06
-0.00109079 0.000805048 -6.02776e-06
-6.4312e-06 -6.02776e-06 -0.000198978
0.010077 -0.000834362 6.13206e-05
-0.000834362 0.0049805 -3.78319e-05
6.13206e-05 -3.78319e-05 0.00155015
0.00219096 -0.000123398 5.39179e-05
-0.000123398 -0.000267946 -0.000121237
5.39179e-05 -0.000121237 -0.000458408
0.00573472 0.000170643 -1.81147e-05
0.000170643 -0.000765271 5.30578e-05
-1.81147e-05 5.30578e-05 0.000792787
0.000779162 -2.75171e-05 2.64791e-07
-2.75171e-05 0.000127447 -1.28645e-06
2.64791e-07 -1.28645e-06 -5.51977e-06
0.000761641 -3.91227e-05 3.81219e-07
-3.91227e-05 0.00012754 4.93489e-08
3.81219e-07 4.93489e-08 1.50254e-08
0.00086832 8.45926e-05 -1.16637e-06
8.45926e-05 0.000186669 2.04491e-07
-1.16637e-06 2.04491e-07 7.34075e-05
0.000720624 2.28065e-05 -5.51874e-07
2.28065e-05 6.7645e-05 -9.69639e-07
-5.51874e-07 -9.69639e-07 -4.3535e-05
0.000837369 7.63535e-05 -7.12745e-07
7.63535e-05 0.000160215 7.12233e-07
-7.12745e-07 7.12233e-07 3.45837e-05
0.000856371 5.77519e-05 2.42244e-07
5.77519e-05 0.00017062 2.27821e-06
2.42244e-07 2.27821e-06 5.90678e-05
0.000961281 0.000100186 -7.36359e-07
0.000100186 0.000232444 7.46378e-09
-7.36359e-07 7.46378e-09 0.000117235
0.000982841 0.000106407 8.7886e-07
0.000106407 0.000253286 2.66879e-06
8.7886e-07 2.66879e-06 0.00013956
0.00157846 -0.0002209 4.86979e-05
-0.0002209 0.000158098 -1.60181e-05
4.86979e-05 -1.60181e-05 9.7404e-05
0.000874767 -0.000306057 7.9845e-06
-0.000306057 -0.000206612 -1.64722e-05
7.9845e-06 -1.64722e-05 -0.000220285
0.000752616 -0.000142654 -1.61607e-06
-0.000142654 0.000130461 1.13738e-06
-1.61607e-06 1.13738e-06 -1.01513e-05
0.00218494 -0.000236111 6.59119e-06
-0.000236111 0.000937866 -2.40859e-05
6.59119e-06 -2.40859e-05 0.000701261
0.00181104 -0.000130934 -2.75942e-06
-0.000130934 0.000780831 6.745e-06
-2.75942e-06 6.745e-06 0.000579116
0.000904059 -4.85982e-05 -2.34569e-06
-4.85982e-05 0.000208834 -3.47384e-07
-2.34569e-06 -3.47384e-07 7.23264e-05
0.000808416 1.31934e-05 1.77121e-07
1.31934e-05 0.000148802 -2.27033e-07
1.77121e-07 -2.27033e-07 1.29925e-05
0.000467088 -0.000373834 -1.00603e-05
-0.000373834 -0.000468816 -2.29445e-07
-1.00603e-05 -2.29445e-07 -0.000465758
0.00103338 3.69933e-05 -1.96754e-07
3.69933e-05 0.000345462 2.08065e-06
-1.96754e-07 2.08065e-06 0.000152126
0.000960618 -0.000110182 -2.08599e-06
-0.000110182 0.000300381 1.19548e-06
-2.08599e-06 1.19548e-06 0.000107405
0.000395896 -0.000134935 1.42256e-06
-0.000134935 -5.59315e-05 3.89375e-06
1.42256e-06 3.89375e-06 -0.000104237
0.000626842 2.70251e-05 1.39208e-06
2.70251e-05 2.23938e-05 -1.30255e-06
1.39208e-06 -1.30255e-06 -9.61253e-05
0.00128991 -0.000315348 2.36272e-05
-0.000315348 1.65135e-05 -2.96381e-05
2.36272e-05 -2.96381e-05 0.000171304
0.000473265 -0.000105677 -9.76522e-06
-0.000105677 0.000230292 3.04605e-05
-9.76522e-06 3.04605e-05 0.000127673
0.000866565 -1.12826e-05 -1.07468e-06
-1.12826e-05 0.000284786 9.84509e-06
-1.07468e-06 9.84509e-06 8.80263e-05
0.00133304 0.000171489 2.14277e-06
0.000171489 0.000479383 -2.87921e-06
2.14277e-06 -2.87921e-06 0.000316635
0.00110346 -3.42927e-05 -8.79457e-06
-3.42927e-05 0.000518193 -4.08975e-06
-8.79457e-06 -4.08975e-06 7.5476e-05
0.00142981 -4.97499e-05 5.7891e-05
-4.97499e-05 0.000593041 -6.34394e-06
5.7891e-05 -6.34394e-06 -0.000454891
-0.00371607 -5.12238e-05 -8.84274e-05
-5.12238e-05 0.0009454 4.88054e-06
-8.84274e-05 4.88054e-06 -0.000769742
0.000932139 0.000151063 1.47818e-05
0.000151063 0.000382081 1.32001e-06
1.47818e-05 1.32001e-06 0.000267587
-0.000629057 0.00020283 1.32594e-05
0.00020283 -0.000383201 1.0992e-05
1.32594e-05 1.0992e-05 -0.000610161
0.00282663 -2.8428e-07 7.02819e-05
-2.8428e-07 0.00128315 5.89392e-06
7.02819e-05 5.89392e-06 0.000359596
0.00801104 0.000304363 0.000118516
0.000304363 0.00361271 6.12816e-05
0.000118516 6.12816e-05 0.000671767
0.0026622 0.000566891 -8.62432e-05
0.000566891 0.000973207 -8.10922e-05
-8.62432e-05 -8.10922e-05 -6.60618e-06
0.00338726 -0.000413159 1.97588e-06
-0.000413159 0.000703462 -0.000122386
1.97588e-06 -0.000122386 -0.000355342
0.0012555 0.000113385 2.99973e-05
0.000113385 0.000227854 0.000102882
2.99973e-05 0.000102882 -0.00115079
0.00374256 1.41104e-06 9.20051e-07
1.41104e-06 -0.00333003 -7.84922e-05
9.20051e-07 -7.84922e-05 -0.00083743
0.000652171 0.000126107 2.0569e-06
0.000126107 0.000347798 -9.8913e-07
2.0569e-06 -9.8913e-07 0.000218953
0.000921017 -4.99456e-05 -2.70565e-07
-4.99456e-05 0.000179546 -8.90493e-06
-2.70565e-07 -8.90493e-06 -6.26737e-05
0.00248257 1.29584e-05 3.02826e-05
1.29584e-05 0.000574442 7.14752e-06
3.02826e-05 7.14752e-06 -0.000279932
-0.000873045 0.000107593 -1.31501e-05
0.000107593 -0.000354812 -5.59741e-06
-1.31501e-05 -5.59741e-06 -0.000694774
0.00450159 0.00064895 1.24544e-05
0.00064895 -0.00158762 -7.58855e-06
1.24544e-05 -7.58855e-06 -0.000460891
0.00550498 0.000800703 8.35978e-05
0.000800703 0.00271813 3.63737e-05
8.35978e-05 3.63737e-05 -0.000453661
0.00311422 0.000180972 -4.90502e-05
0.000180972 0.00206604 7.37581e-06
-4.90502e-05 7.37581e-06 0.0012047
0.000135026 0.000144327 -2.3438e-05
0.000144327 0.000140394 -1.25945e-05
-2.3438e-05 -1.25945e-05 -6.25056e-05
0.00170546 3.04993e-05 1.43298e-07
3.04993e-05 7.63794e-05 -2.47856e-05
1.43298e-07 -2.47856e-05 -2.88712e-05
0.00339483 -0.000115418 2.42068e-05
-0.000115418 0.00179442 -7.77793e-05
2.42068e-05 -7.77793e-05 0.000893538
0.00533444 0.00104599 0.00011434
0.00104599 -1.04633e-06 -8.45782e-05
0.00011434 -8.45782e-05 0.00079683
0.00512437 -5.52207e-05 -6.83379e-05
-5.52207e-05 0.000716079 0.000109758
-6.83379e-05 0.000109758 0.000759355
0.0013503 0.000205258 -1.07597e-05
0.000205258 0.000115252 -4.14676e-05
-1.07597e-05 -4.14676e-05 0.000133554
-0.000362675 0.000629785 0.000105686
0.000629785 0.00199128 3.74705e-05
0.000105686 3.74705e-05 -0.00275567
0.000586438 0.000112519 1.59967e-06
0.000112519 0.000111973 4.8523e-06
1.59967e-06 4.8523e-06 1.99567e-05
0.000451292 7.80946e-05 7.49225e-06
7.80946e-05 0.00025036 1.81698e-06
7.49225e-06 1.81698e-06 0.000139019
0.00114901 3.58294e-05 -2.54379e-05
3.58294e-05 0.000730308 -1.90796e-05
-2.54379e-05 -1.90796e-05 0.000637095
0.000518725 -1.39115e-05 5.83358e-07
-1.39115e-05 -5.76223e-05 3.10753e-06
5.83358e-07 3.10753e-06 -0.00015264
0.000879199 -3.73796e-05 1.79758e-06
-3.73796e-05 0.000247947 4.1614e-06
1.79758e-06 4.1614e-06 0.000147602
-3.87601e-06 1.43084e-06 -3.05435e-07
1.43084e-06 -0.00010775 7.98643e-06
-3.05435e-07 7.98643e-06 -0.000201244
0.000719265 -4.9304e-05 4.76589e-07
-4.9304e-05 0.000130965 -3.53352e-07
4.76589e-07 -3.53352e-07 4.28589e-05
0.000178328 -7.77054e-06 2.04974e-06
-7.77054e-06 -1.72304e-05 1.05996e-07
2.04974e-06 1.05996e-07 -9.09926e-05
0.00105789 -0.000168986 6.99483e-06
-0.000168986 0.000498674 -7.20995e-06
6.99483e-06 -7.20995e-06 0.000334053
0.00113264 -3.08518e-05 -1.8385e-06
-3.08518e-05 0.000312892 3.58221e-06
-1.8385e-06 3.58221e-06 0.000235664
0.000506284 3.46044e-05 -1.08463e-06
3.46044e-05 -5.55523e-05 1.54049e-06
-1.08463e-06 1.54049e-06 -0.000147159
0.00129954 -0.000106331 1.0626e-06
-0.000106331 0.000405939 1.65579e-06
1.0626e-06 1.65579e-06 0.000306752
1.68352e-06 -0.000114433 4.01625e-06
-0.000114433 -0.000220532 1.45466e-06
4.01625e-06 1.45466e-06 -0.00042817
0.000469386 -4.24603e-05 -4.26895e-06
-4.24603e-05 -7.40791e-05 1.35739e-06
-4.26895e-06 1.35739e-06 -0.000147883
0.0001766 -0.000117545 1.72007e-06
-0.000117545 -0.000238162 -1.00652e-06
1.72007e-06 -1.00652e-06 -0.000385162
0.00103808 -0.000225435 7.20235e-06
-0.000225435 0.000206427 -1.82371e-06
7.20235e-06 -1.82371e-06 -1.23236e-05
0.00129034 -0.000263463 -2.62315e-06
-0.000263463 0.000199808 4.53975e-06
-2.62315e-06 4.53975e-06 -3.18439e-05
0.00163411 -0.000171444 -2.20875e-06
-0.000171444 0.000588159 6.03471e-08
-2.20875e-06 6.03471e-08 0.000441865
0.0006066 -0.000179184 -9.28239e-08
-0.000179184 -4.92811e-05 3.14879e-08
-9.28239e-08 3.14879e-08 -0.000245097
0.00188002 -0.000280644 1.80119e-06
-0.000280644 0.000651604 -1.56693e-06
1.80119e-06 -1.56693e-06 0.000458017
0.000162582 -9.87164e-05 -2.42038e-06
-9.87164e-05 -0.000222421 -1.70498e-07
-2.42038e-06 -1.70498e-07 -0.00039343
0.00088605 -0.000184569 -4.8528e-07
-0.000184569 0.000123399 9.37674e-07
-4.8528e-07 9.37674e-07 -6.7319e-05
0.000701703 -3.77512e-05 7.31495e-08
-3.77512e-05 8.02681e-05 2.14816e-07
7.31495e-08 2.14816e-07 -3.74122e-05
0.00104423 -0.000162099 -3.27387e-06
-0.000162099 0.000294935 2.31232e-06
-3.27387e-06 2.31232e-06 0.000138594
0.000268273 -0.000121763 -1.89732e-06
-0.000121763 -0.000193972 -1.52044e-06
-1.89732e-06 -1.52044e-06 -0.000371902
0.00065333 3.30455e-05 4.02237e-07
3.30455e-05 3.31608e-05 9.69245e-07
4.02237e-07 9.69245e-07 -5.12925e-05
0.000722683 -2.81945e-05 8.08414e-07
-2.81945e-05 8.76986e-05 -8.22638e-08
8.08414e-07 -8.22638e-08 -1.78834e-05
0.000837396 -6.90835e-05 2.40123e-06
-6.90835e-05 0.000176969 -2.74107e-06
2.40123e-06 -2.74107e-06 4.83046e-05
0.000717343 -2.71028e-06 3.6106e-07
-2.71028e-06 8.08584e-05 -4.10077e-07
3.6106e-07 -4.10077e-07 -1.26608e-05
0.000719762 -2.53408e-06 -5.44182e-07
-2.53408e-06 6.74409e-05 -1.19493e-07
-5.44182e-07 -1.19493e-07 -1.02024e-05
0.00064685 3.63594e-05 -1.28194e-06
3.63594e-05 8.53515e-06 1.87576e-06
-1.28194e-06 1.87576e-06 -4.36486e-05
0.000762378 -3.31105e-05 7.16208e-07
-3.31105e-05 9.38862e-05 -8.14521e-07
7.16208e-07 -8.14521e-07 1.64076e-05
0.000666082 2.86517e-05 -4.09049e-07
2.86517e-05 1.46607e-05 -4.8941e-08
-4.09049e-07 -4.8941e-08 -3.45138e-05
0.000602481 4.29063e-05 -1.0825e-06
4.29063e-05 -2.8183e-05 3.85885e-06
-1.0825e-06 3.85885e-06 -4.50562e-05
0.000703933 3.21485e-06 1.89412e-06
3.21485e-06 3.0984e-05 -1.8264e-06
1.89412e-06 -1.8264e-06 -1.54783e-05
0.000606587 3.54783e-05 1.31614e-07
3.54783e-05 -3.2449e-05 1.72807e-08
1.31614e-07 1.72807e-08 -4.74302e-05
0.00220406 6.60801e-05 -4.3942e-06
6.60801e-05 0.000906157 1.79664e-06
-4.3942e-06 1.79664e-06 0.000918011
0.000584616 2.7903e-05 8.37294e-07
2.7903e-05 -4.94192e-05 -3.86522e-06
8.37294e-07 -3.86522e-06 -6.3375e-05
0.00154926 4.13334e-05 8.59899e-06
4.13334e-05 0.000518278 -1.18237e-06
8.59899e-06 -1.18237e-06 0.000528831
0.0023124 3.99692e-05 1.25317e-05
3.99692e-05 0.000958965 -4.64463e-06
1.25317e-05 -4.64463e-06 0.000974081
0.000480549 -6.21158e-06 -1.63348e-07
-6.21158e-06 -7.38986e-05 -2.05887e-06
-1.63348e-07 -2.05887e-06 -0.000159733
0.00037574 -4.95912e-06 -2.15474e-07
-4.95912e-06 -0.000155373 -3.20411e-06
-2.15474e-07 -3.20411e-06 -0.000206437
0.000647093 1.16909e-05 -4.22035e-07
1.16909e-05 3.13301e-05 -8.07976e-07
-4.22035e-07 -8.07976e-07 -5.52175e-05
0.000623261 -1.70174e-05 -4.89431e-08
-1.70174e-05 -3.28935e-05 -3.99587e-06
-4.89431e-08 -3.99587e-06 -4.34867e-05
0.000372082 -3.29056e-06 -2.67733e-07
-3.29056e-06 -0.000156428 -9.81345e-07
-2.67733e-07 -9.81345e-07 -0.00020312
0.000805108 1.86975e-05 -1.15817e-07
1.86975e-05 0.000126828 1.85515e-06
-1.15817e-07 1.85515e-06 4.54091e-05
0.00215841 -2.404e-05 -9.55646e-06
-2.404e-05 0.000863772 -4.78928e-06
-9.55646e-06 -4.78928e-06 0.000882061
0.000626327 -1.05323e-05 -1.48314e-07
-1.05323e-05 -3.27813e-05 -4.14666e-08
-1.48314e-07 -4.14666e-08 -4.087e-05
0.000352978 -2.33466e-06 4.25537e-07
-2.33466e-06 -0.000166562 2.22817e-06
4.25537e-07 2.22817e-06 -0.000209173
0.00208932 -1.06376e-05 -3.35829e-06
-1.06376e-05 0.000821731 3.97554e-08
-3.35829e-06 3.97554e-08 0.000841305
0.000630722 -4.12583e-06 1.92059e-08
-4.12583e-06 -3.09216e-05 3.59932e-06
1.92059e-08 3.59932e-06 -3.74225e-05
0.00207993 2.43331e-06 7.35565e-07
2.43331e-06 0.000816248 4.73427e-06
7.35565e-07 4.73427e-06 0.00083601
0.00127748 8.20465e-06 -8.70548e-07
8.20465e-06 0.000543327 1.81243e-05
-8.70548e-07 1.81243e-05 0.000243941
0.00136464 -6.81175e-05 9.13586e-06
-6.81175e-05 0.00026992 -5.46743e-06
9.13586e-06 -5.46743e-06 -0.000822052
0.00180763 8.64591e-05 2.6104e-05
8.64591e-05 0.00267065 -3.24107e-05
2.6104e-05 -3.24107e-05 0.0018928
0.000809737 6.76942e-05 -1.61182e-07
6.76942e-05 0.000124838 2.84519e-07
-1.61182e-07 2.84519e-07 1.7998e-05
0.000661099 3.85194e-05 -1.37061e-08
3.85194e-05 2.45558e-05 -2.39571e-08
-1.37061e-08 -2.39571e-08 -7.33069e-05
0.000916306 9.30384e-05 -1.11147e-07
9.30384e-05 0.000181873 7.3131e-07
-1.11147e-07 7.3131e-07 6.91518e-05
0.00211805 -5.13243e-05 9.58907e-06
-5.13243e-05 0.000186878 0.000126235
9.58907e-06 0.000126235 -0.000834769
0.00305402 -0.000127635 -2.92314e-06
-0.000127635 0.00173397 9.20688e-07
-2.92314e-06 9.20688e-07 0.0007359
0.00344408 -0.000254229 4.47517e-05
-0.000254229 0.00125038 -9.35561e-05
4.47517e-05 -9.35561e-05 -0.000700675
0.00501085 -0.000681683 -4.74148e-05
-0.000681683 0.000885304 -1.41227e-07
-4.74148e-05 -1.41227e-07 0.000196178
0.00156995 -0.000494341 -8.50187e-05
-0.000494341 6.55966e-05 6.99803e-05
-8.50187e-05 6.99803e-05 -0.00240543
0.00832215 0.000995448 6.99929e-05
0.000995448 0.00264064 3.98796e-05
6.99929e-05 3.98796e-05 0.00237683
0.00184576 0.000197174 2.16421e-05
0.000197174 -0.00304644 -5.27055e-05
2.16421e-05 -5.27055e-05 -0.00186995
0.00542013 -0.00109047 -1.46637e-05
-0.00109047 0.00143374 4.33445e-06
-1.46637e-05 4.33445e-06 0.000663131
0.00679741 -0.000710577 1.82233e-06
-0.000710577 0.00304624 1.0064e-05
1.82233e-06 1.0064e-05 0.000139195
-0.00225163 0.00050737 -1.53558e-05
0.00050737 -0.000494801 -7.41268e-05
-1.53558e-05 -7.41268e-05 -0.00169374
0.00457234 -2.80734e-05 -1.36995e-05
-2.80734e-05 -0.00208517 3.15883e-05
-1.36995e-05 3.15883e-05 -8.38755e-05
0.00263972 -0.000767417 -3.88524e-05
-0.000767417 0.000340675 -1.43108e-05
-3.88524e-05 -1.43108e-05 -0.000331667
0.0109732 -0.000985468 -2.43936e-06
-0.000985468 0.00510451 3.5386e-05
-2.43936e-06 3.5386e-05 0.00161742
-0.00884532 -0.000107129 4.93973e-05
-0.000107129 -0.000917715 -0.00015006
4.93973e-05 -0.00015006 -0.00258123
0.00304016 -0.000558709 6.57152e-06
-0.000558709 -0.00198209 -2.96124e-05
6.57152e-06 -2.96124e-05 -0.00065036
0.000787002 3.74778e-05 -5.81265e-07
3.74778e-05 0.00010973 -4.63722e-07
-5.81265e-07 -4.63722e-07 -1.35138e-05
0.000737719 2.12888e-06 1.03428e-07
2.12888e-06 0.000103153 -5.9785e-07
1.03428e-07 -5.9785e-07 -2.93061e-05
0.000740608 -5.6676e-05 1.7607e-07
-5.6676e-05 0.000115691 3.96987e-07
1.7607e-07 3.96987e-07 -1.44616e-05
0.000766806 4.62948e-05 -4.67051e-07
4.62948e-05 9.69681e-05 -5.57497e-07
-4.67051e-07 -5.57497e-07 -1.69432e-05
0.000911173 0.000115198 1.15366e-06
0.000115198 0.000202727 1.66489e-06
1.15366e-06 1.66489e-06 7.92951e-05
0.00105099 0.000112518 -6.88945e-07
0.000112518 0.000286111 1.17802e-06
-6.88945e-07 1.17802e-06 0.000169046
0.000652872 -0.000384103 1.61227e-05
-0.000384103 -0.000382607 6.21524e-06
1.61227e-05 6.21524e-06 -0.000416487
-0.000539756 -8.66876e-05 1.45978e-05
-8.66876e-05 -0.000577814 -2.25883e-05
1.45978e-05 -2.25883e-05 -0.000583627
0.000952573 5.98417e-05 -1.29641e-06
5.98417e-05 0.000238607 2.27094e-07
-1.29641e-06 2.27094e-07 9.81845e-05
0.00124609 -0.00014675 1.78916e-05
-0.00014675 0.00042105 -3.07926e-05
1.78916e-05 -3.07926e-05 0.000230841
0.00127175 1.58864e-05 -2.34921e-06
1.58864e-05 0.000474339 1.86656e-06
-2.34921e-06 1.86656e-06 0.000278414
0.000722752 1.87376e-05 8.55062e-08
1.87376e-05 7.73511e-05 2.35443e-07
8.55062e-08 2.35443e-07 -4.66388e-05
0.000646422 8.70982e-05 2.49111e-07
8.70982e-05 8.33066e-05 6.32991e-08
2.49111e-07 6.32991e-08 -6.59259e-05
0.000224817 -0.000315218 -3.15526e-06
-0.000315218 -0.000523969 -2.97639e-06
-3.15526e-06 -2.97639e-06 -0.000502888
0.000877582 -2.50169e-05 4.19908e-06
-2.50169e-05 0.000286846 -2.02725e-06
4.19908e-06 -2.02725e-06 9.60239e-05
0.000420524 -5.19611e-05 2.26643e-05
-5.19611e-05 0.000217802 3.03288e-07
2.26643e-05 3.03288e-07 0.000114179
0.00112575 6.48842e-05 2.26928e-06
6.48842e-05 0.000313672 -3.01419e-06
2.26928e-06 -3.01419e-06 0.000194123
-0.00246421 0.000129826 -5.45384e-05
0.000129826 -0.00112243 -1.49194e-05
-5.45384e-05 -1.49194e-05 -0.00147814
0.000100322 1.04303e-05 5.91017e-06
1.04303e-05 1.31979e-05 3.3587e-05
5.91017e-06 3.3587e-05 -7.73603e-05
0.00128631 7.93369e-06 2.15821e-06
7.93369e-06 0.000521253 9.49127e-07
2.15821e-06 9.49127e-07 0.000362171
0.00119046 -2.7964e-05 2.69068e-06
-2.7964e-05 1.25845e-05 2.55371e-07
2.69068e-06 2.55371e-07 -0.000357525
0.000926672 -2.68091e-05 -1.43671e-05
-2.68091e-05 0.000383759 -5.96277e-06
-1.43671e-05 -5.96277e-06 1.03943e-05
0.00103089 -3.46014e-05 0.000136193
-3.46014e-05 0.000450289 -3.9041e-06
0.000136193 -3.9041e-06 -0.000642423
0.000926111 0.000177079 1.77371e-05
0.000177079 0.000492492 1.2325e-05
1.77371e-05 1.2325e-05 0.00035243
0.0019744 0.000386946 1.62565e-05
0.000386946 0.000692275 -1.32744e-05
1.62565e-05 -1.32744e-05 0.000478089
0.00099723 -5.07375e-05 1.01156e-06
-5.07375e-05 0.000225943 6.26865e-06
1.01156e-06 6.26865e-06 3.90436e-06
-0.00172727 0.000425199 2.27411e-05
0.000425199 -2.62711e-05 3.33359e-05
2.27411e-05 3.33359e-05 -0.00327682
-0.0104388 0.000185797 -5.72662e-05
0.000185797 -0.0037061 -0.000147551
-5.72662e-05 -0.000147551 -0.00540187
0.00256681 2.93357e-05 3.19207e-05
2.93357e-05 0.000830222 6.06246e-05
3.19207e-05 6.06246e-05 0.000148188
0.00206293 0.000327436 -2.9545e-05
0.000327436 -0.00296171 5.38117e-05
-2.9545e-05 5.38117e-05 -0.00182848
0.00046215 0.000138676 5.07618e-06
0.000138676 0.000331909 -1.41359e-06
5.07618e-06 -1.41359e-06 0.000150178
0.00156258 -4.1854e-06 8.61731e-06
-4.1854e-06 -1.66922e-05 -1.53879e-05
8.61731e-06 -1.53879e-05 -5.0398e-05
0.0031269 -9.11755e-05 2.059e-06
-9.11755e-05 0.00168092 -1.11523e-06
2.059e-06 -1.11523e-06 0.000710006
0.00135817 0.000209885 -3.80968e-06
0.000209885 0.000214373 -4.36923e-06
-3.80968e-06 -4.36923e-06 -0.000166065
0.00244184 0.000959069 4.72899e-05
0.000959069 -0.00161453 -0.000109165
4.72899e-05 -0.000109165 -0.00072881
-0.00199996 0.000480956 1.33421e-05
0.000480956 -0.00116012 7.304e-05
1.33421e-05 7.304e-05 -0.00187858
0.00679653 -1.16127e-05 6.18321e-05
-1.16127e-05 0.00475542 -2.19066e-05
6.18321e-05 -2.19066e-05 0.000232267
0.00150618 -6.64782e-06 2.98889e-05
-6.64782e-06 0.00114709 -1.54778e-05
2.98889e-05 -1.54778e-05 0.000827245
0.00129134 3.31323e-05 9.4797e-07
3.31323e-05 0.000493747 -1.47192e-05
9.4797e-07 -1.47192e-05 0.000202157
0.00316682 -0.000152826 0.000151469
-0.000152826 0.000759979 -0.000125865
0.000151469 -0.000125865 -0.000825513
0.00355357 0.0013074 -8.16065e-06
0.0013074 0.0022402 -1.30271e-05
-8.16065e-06 -1.30271e-05 0.00318956
-0.00519543 0.000572594 4.36564e-05
0.000572594 -0.00464374 0.000208332
4.36564e-05 0.000208332 -0.00448127
0.011943 -0.000843733 8.72016e-05
-0.000843733 0.00497989 -8.37986e-05
8.72016e-05 -8.37986e-05 0.00165519
0.00429606 -0.000402089 -9.21271e-05
-0.000402089 0.00134922 0.000103493
-9.21271e-05 0.000103493 0.00125626
0.000837979 0.000108193 6.9889e-06
0.000108193 0.000470506 3.99036e-06
6.9889e-06 3.99036e-06 0.000348775
-3.53507e-05 -2.36165e-06 -8.08687e-06
-2.36165e-06 6.89434e-05 1.85534e-06
-8.08687e-06 1.85534e-06 -5.45623e-05
0.000978337 -0.000225385 9.72948e-06
-0.000225385 0.0006487 -1.49136e-05
9.72948e-06 -1.49136e-05 0.000402693
0.000924253 -6.07904e-05 1.22771e-06
-6.07904e-05 0.000241407 2.09098e-06
1.22771e-06 2.09098e-06 0.0001562
-0.000571214 -2.31768e-05 4.79915e-06
-2.31768e-05 -0.000442301 1.4194e-05
4.79915e-06 1.4194e-05 -0.000523045
0.000167411 -0.000135195 -1.64826e-06
-0.000135195 2.03887e-05 -1.47346e-07
-1.64826e-06 -1.47346e-07 -0.000133221
0.00124889 -0.000237887 2.34064e-05
-0.000237887 0.000545823 -1.48496e-05
2.34064e-05 -1.48496e-05 0.000276526
0.00196494 -0.000149605 -3.72207e-06
-0.000149605 0.000774149 3.36524e-06
-3.72207e-06 3.36524e-06 0.000666201
0.00157118 -0.000256504 1.5984e-06
-0.000256504 0.000596211 1.59492e-07
1.5984e-06 1.59492e-07 0.000379057
0.00115285 -0.000256752 8.49064e-06
-0.000256752 0.000376936 2.44902e-06
8.49064e-06 2.44902e-06 3.06524e-05
5.80209e-05 -9.91221e-05 -1.70414e-06
-9.91221e-05 -0.000307041 -5.92031e-07
-1.70414e-06 -5.92031e-07 -0.000439747
0.00117066 -0.000234279 -3.71688e-07
-0.000234279 0.000259463 1.47087e-06
-3.71688e-07 1.47087e-06 3.30121e-05
0.00267447 -0.000407778 2.95671e-06
-0.000407778 0.000973625 3.05258e-06
2.95671e-06 3.05258e-06 0.000677007
0.00186844 -0.000347173 -2.55423e-06
-0.000347173 0.000410221 2.3278e-06
-2.55423e-06 2.3278e-06 0.000148296
0.000494484 -0.000187273 8.47824e-07
-0.000187273 -0.000214839 6.81198e-06
8.47824e-07 6.81198e-06 -0.000414929
0.00127823 -0.000263446 -3.68773e-06
-0.000263446 0.00020021 2.00446e-06
-3.68773e-06 2.00446e-06 -3.37178e-05
0.000949609 -0.000208611 -5.54732e-06
-0.000208611 0.000135427 1.38661e-06
-5.54732e-06 1.38661e-06 -6.92447e-05
0.00172873 -0.000257058 4.95842e-06
-0.000257058 0.000600323 -3.11098e-06
4.95842e-06 -3.11098e-06 0.000413271
0.00127567 -0.000226927 2.90793e-06
-0.000226927 0.000313746 -2.52212e-06
2.90793e-06 -2.52212e-06 0.000136361
0.000256274 -4.58779e-05 2.01175e-06
-4.58779e-05 -0.00016967 8.94329e-07
2.01175e-06 8.94329e-07 -0.00031751
0.000699019 -0.000146606 1.47804e-06
-0.000146606 8.60345e-05 -5.31551e-07
1.47804e-06 -5.31551e-07 -8.99095e-05
0.001125 -0.000202485 5.70796e-06
-0.000202485 0.000261704 -4.22269e-06
5.70796e-06 -4.22269e-06 7.36115e-05
0.000657031 4.08461e-05 1.24167e-06
4.08461e-05 4.35956e-05 1.44764e-06
1.24167e-06 1.44764e-06 -5.68279e-05
0.000891916 -6.86368e-05 -4.87595e-07
-6.86368e-05 0.000193705 -5.25787e-09
-4.87595e-07 -5.25787e-09 6.90458e-05
0.00104514 -0.000168001 -7.133e-07
-0.000168001 0.000295164 -4.89935e-07
-7.133e-07 -4.89935e-07 0.000137404
0.000635893 3.56123e-05 -1.19785e-06
3.56123e-05 7.08662e-06 1.94994e-06
-1.19785e-06 1.94994e-06 -4.95066e-05
0.000733859 3.70909e-06 -6.83759e-07
3.70909e-06 7.71921e-05 -2.87081e-07
-6.83759e-07 -2.87081e-07 -7.79189e-06
0.000591072 -1.58701e-05 2.14782e-07
-1.58701e-05 1.76583e-05 -5.65944e-07
2.14782e-07 -5.65944e-07 -9.00158e-05
0.000772879 -2.30702e-05 6.62192e-07
-2.30702e-05 9.94307e-05 -1.05499e-06
6.62192e-07 -1.05499e-06 1.96822e-05
0.00067229 2.22232e-05 -2.61e-07
2.22232e-05 2.11722e-05 -7.49727e-08
-2.61e-07 -7.49727e-08 -3.00792e-05
0.000586935 5.07739e-05 -9.46878e-07
5.07739e-05 -2.84113e-05 4.08085e-06
-9.46878e-07 4.08085e-06 -4.82593e-05
0.000688393 1.25887e-05 1.86441e-06
1.25887e-05 2.52268e-05 -1.79634e-06
1.86441e-06 -1.79634e-06 -2.27993e-05
0.000603686 4.40982e-05 1.10089e-09
4.40982e-05 -2.73431e-05 -5.96116e-09
1.10089e-09 -5.96116e-09 -4.43615e-05
0.00224633 7.22383e-05 -2.35643e-05
7.22383e-05 0.000938108 3.7793e-06
-2.35643e-05 3.7793e-06 0.000948671
0.000594864 3.61993e-05 9.06429e-07
3.61993e-05 -3.92414e-05 -3.84236e-06
9.06429e-07 -3.84236e-06 -5.425e-05
0.00153295 5.14257e-05 1.02185e-05
5.14257e-05 0.000515493 -1.03705e-06
1.02185e-05 -1.03705e-06 0.000524426
0.0023053 5.21641e-05 1.6434e-05
5.21641e-05 0.00096014 -4.32965e-06
1.6434e-05 -4.32965e-06 0.000973898
0.000717073 5.05702e-05 -5.77296e-07
5.05702e-05 6.22601e-05 -1.0345e-06
-5.77296e-07 -1.0345e-06 -2.58608e-05
0.000664465 1.00009e-05 -7.24601e-07
1.00009e-05 9.45423e-06 -2.4509e-06
-7.24601e-07 -2.4509e-06 -4.31213e-05
0.000601297 3.1412e-05 -1.01226e-06
3.1412e-05 3.57078e-06 -7.84407e-07
-1.01226e-06 -7.84407e-07 -8.73264e-05
0.000612241 -2.3875e-05 1.07689e-07
-2.3875e-05 -3.62908e-05 -4.25782e-06
1.07689e-07 -4.25782e-06 -4.98987e-05
0.000505207 5.12495e-06 -9.94008e-07
5.12495e-06 -8.08075e-05 -9.70635e-07
-9.94008e-07 -9.70635e-07 -0.000130727
0.000820732 2.9405e-05 3.4654e-07
2.9405e-05 0.000131714 6.91334e-07
3.4654e-07 6.91334e-07 4.58762e-05
0.0022376 -3.65127e-05 -1.40946e-05
-3.65127e-05 0.000912657 -4.71246e-06
-1.40946e-05 -4.71246e-06 0.000929287
0.000619859 -1.67738e-05 -2.29037e-07
-1.67738e-05 -3.48884e-05 -3.85283e-08
-2.29037e-07 -3.85283e-08 -4.5352e-05
0.000336911 -3.60049e-06 -4.45264e-07
-3.60049e-06 -0.000176505 1.44221e-06
-4.45264e-07 1.44221e-06 -0.000223821
0.00214941 -2.28583e-05 -3.38742e-06
-2.28583e-05 0.00085815 7.89561e-08
-3.38742e-06 7.89561e-08 0.000876681
0.000626148 -1.05231e-05 6.84365e-09
-1.05231e-05 -3.27805e-05 3.72561e-06
6.84365e-09 3.72561e-06 -4.08062e-05
0.002092 -9.40316e-06 5.2995e-06
-9.40316e-06 0.000823112 4.75577e-06
5.2995e-06 4.75577e-06 0.000842746
0.00163693 -2.47502e-05 4.91086e-08
-2.47502e-05 4.31337e-05 2.60869e-05
4.91086e-08 2.60869e-05 -5.53279e-05
0.00123849 1.03046e-06 -3.58126e-06
1.03046e-06 0.000448505 -9.61292e-07
-3.58126e-06 -9.61292e-07 0.000179781
0.00173732 -6.10745e-05 9.07912e-05
-6.10745e-05 0.000512923 -2.60374e-05
9.07912e-05 -2.60374e-05 -0.000563312
0.00063741 -7.99181e-07 -2.64093e-07
-7.99181e-07 3.24409e-06 -6.29337e-07
-2.64093e-07 -6.29337e-07 -8.7135e-05
0.000876153 2.40504e-05 -1.198e-06
2.40504e-05 0.000148134 -6.63011e-07
-1.198e-06 -6.63011e-07 4.76572e-05
0.000816994 6.66378e-05 1.30668e-06
6.66378e-05 0.000126263 8.13364e-07
1.30668e-06 8.13364e-07 2.38738e-05
0.000671131 2.29874e-05 1.92122e-07
2.29874e-05 2.46546e-05 1.58224e-07
1.92122e-07 1.58224e-07 -6.87462e-05
0.000788198 4.65213e-05 5.02915e-08
4.65213e-05 0.000106995 2.07043e-07
5.02915e-08 2.07043e-07 -3.26632e-06
0.000777528 3.10591e-05 -9.86063e-07
3.10591e-05 9.30486e-05 -4.87394e-08
-9.86063e-07 -4.87394e-08 -7.93084e-06
0.000942666 0.000159671 5.82341e-07
0.000159671 0.000212713 2.58079e-07
5.82341e-07 2.58079e-07 8.21232e-05
0.000408867 2.74846e-05 3.43193e-05
2.74846e-05 0.000185226 0.000118552
3.43193e-05 0.000118552 -0.0010969
0.00236247 -3.16705e-05 -6.94285e-06
-3.16705e-05 0.000579613 4.34699e-05
-6.94285e-06 4.34699e-05 -0.000259959
0.00270882 -9.92606e-05 9.6263e-06
-9.92606e-05 0.00160225 -6.28055e-05
9.6263e-06 -6.28055e-05 0.000525338
0.00337545 -0.00013309 -2.54957e-05
-0.00013309 -0.00346895 3.81611e-05
-2.54957e-05 3.81611e-05 -0.00102339
0.00362239 -0.000931645 -4.40809e-05
-0.000931645 0.00119443 5.46369e-05
-4.40809e-05 5.46369e-05 0.000213203
-0.00184267 -0.000940388 2.15247e-05
-0.000940388 -0.000676647 5.60985e-05
2.15247e-05 5.60985e-05 -0.004014
0.00664995 0.00114962 5.49618e-05
0.00114962 0.00386551 -2.3188e-05
5.49618e-05 -2.3188e-05 0.00221492
0.00406368 -0.000889491 -2.01637e-05
-0.000889491 0.00100738 5.47991e-06
-2.01637e-05 5.47991e-06 0.000250286
0.000311018 -0.000415525 3.75235e-05
-0.000415525 0.000959802 6.77205e-06
3.75235e-05 6.77205e-06 -0.00266912
0.0043128 -6.63183e-05 -1.37831e-05
-6.63183e-05 0.00230064 -5.39875e-06
-1.37831e-05 -5.39875e-06 0.00146668
0.00757407 -0.00078526 -2.61014e-05
-0.00078526 0.000906994 -3.18238e-05
-2.61014e-05 -3.18238e-05 0.00219171
0.00094774 2.52966e-05 -8.13223e-05
2.52966e-05 -0.000656332 5.5603e-05
-8.13223e-05 5.5603e-05 -0.0005465
0.000645899 0.000728187 -4.63482e-06
0.000728187 0.000958324 -9.28376e-05
-4.63482e-06 -9.28376e-05 -0.00254039
-0.00689756 -0.00115525 5.65696e-05
-0.00115525 -0.00418822 -9.64031e-05
5.65696e-05 -9.64031e-05 -0.00574261
0.00293489 -0.000747221 1.21655e-05
-0.000747221 -0.00145907 -0.000161973
1.21655e-05 -0.000161973 3.90009e-05
0.000721863 3.91964e-06 -1.37766e-06
3.91964e-06 7.06394e-05 -3.6754e-07
-1.37766e-06 -3.6754e-07 -3.38401e-05
0.000714998 3.91947e-05 2.78056e-07
3.91947e-05 7.12394e-05 1.7562e-07
2.78056e-07 1.7562e-07 -5.28512e-05
0.000718296 1.42198e-05 -3.37879e-07
1.42198e-05 9.93416e-05 1.38086e-07
-3.37879e-07 1.38086e-07 -3.76282e-05
0.000808327 4.12343e-05 5.60729e-08
4.12343e-05 0.000130931 -6.88845e-07
5.60729e-08 -6.88845e-07 9.21621e-06
0.00030183 -0.000349058 5.46904e-07
-0.000349058 -0.000535343 1.93429e-05
5.46904e-07 1.93429e-05 -0.000589249
0.0010568 -4.43873e-05 -6.80816e-06
-4.43873e-05 0.00057484 -2.76738e-05
-6.80816e-06 -2.76738e-05 0.000487822
0.000559935 1.50857e-05 -1.29891e-06
1.50857e-05 -2.57351e-05 5.97775e-07
-1.29891e-06 5.97775e-07 -0.000145009
0.000744195 8.96507e-05 -1.83594e-06
8.96507e-05 0.000144095 2.34e-06
-1.83594e-06 2.34e-06 -5.68545e-06
0.00177388 -4.83825e-05 6.21877e-06
-4.83825e-05 0.000792401 -2.3454e-05
6.21877e-06 -2.3454e-05 0.000605618
0.000771043 4.20824e-05 -3.232e-07
4.20824e-05 0.000113432 6.40126e-07
-3.232e-07 6.40126e-07 -3.59337e-06
0.000883442 5.2751e-05 -1.56842e-06
5.2751e-05 0.000306356 -2.35158e-06
-1.56842e-06 -2.35158e-06 0.000137877
-0.000273325 2.8509e-05 1.91189e-05
2.8509e-05 -7.67958e-05 -1.26341e-05
1.91189e-05 -1.26341e-05 -0.000511901
0.000824493 -1.75551e-05 2.94418e-05
-1.75551e-05 0.000425458 1.19652e-07
2.94418e-05 1.19652e-07 0.000360635
0.000265664 8.92316e-05 -8.17056e-07
8.92316e-05 -6.95892e-05 -1.34517e-06
-8.17056e-07 -1.34517e-06 -0.000189492
0.000238038 -5.20433e-05 -2.40346e-05
-5.20433e-05 0.000677178 -3.83021e-05
-2.40346e-05 -3.83021e-05 -0.000421329
0.00314986 7.17455e-05 1.23664e-05
7.17455e-05 0.00164576 2.04879e-05
1.23664e-05 2.04879e-05 0.00149267
0.00109562 -1.77679e-05 8.72924e-06
-1.77679e-05 0.000496315 4.04221e-06
8.72924e-06 4.04221e-06 5.97385e-05
0.00136505 -2.82259e-05 2.56181e-07
-2.82259e-05 0.000170948 4.71588e-07
2.56181e-07 4.71588e-07 -8.96542e-05
0.00068342 -2.7023e-05 -7.56782e-06
-2.7023e-05 0.00023592 -7.9016e-06
-7.56782e-06 -7.9016e-06 -9.54021e-05
8.45063e-05 0.000104212 1.32046e-05
0.000104212 0.000147204 6.2759e-06
1.32046e-05 6.2759e-06 -1.33935e-05
-9.60869e-05 0.000204103 9.44399e-06
0.000204103 -0.000562658 3.30712e-05
9.44399e-06 3.30712e-05 -0.000665312
0.00142732 -2.01674e-05 9.74151e-06
-2.01674e-05 -9.41004e-05 1.70025e-06
9.74151e-06 1.70025e-06 -6.46814e-05
0.00389024 -0.000763804 0.000135188
-0.000763804 0.00344283 -0.000128504
0.000135188 -0.000128504 -0.000878395
0.00673898 0.00118804 -5.39933e-05
0.00118804 0.0033027 3.20198e-05
-5.39933e-05 3.20198e-05 0.00195073
0.00280696 -7.08983e-05 -1.40143e-05
-7.08983e-05 0.00156438 6.29283e-05
-1.40143e-05 6.29283e-05 0.000494977
0.00431111 0.00103128 -1.34291e-05
0.00103128 -0.000303659 -2.86093e-05
-1.34291e-05 -2.86093e-05 0.000434403
-0.000351521 8.40033e-05 1.1883e-05
8.40033e-05 0.000212728 5.55952e-06
1.1883e-05 5.55952e-06 -0.000198619
0.00129888 2.00405e-05 3.44771e-06
2.00405e-05 0.000451504 8.90493e-07
3.44771e-06 8.90493e-07 0.000197693
0.00316905 -0.000193575 5.20012e-05
-0.000193575 0.000874727 -4.93383e-06
5.20012e-05 -4.93383e-06 -0.000892075
0.000425108 -0.000108009 1.08733e-06
-0.000108009 -0.000717003 2.43051e-05
1.08733e-06 2.43051e-05 -0.000579598
-0.00168176 0.00139553 7.52976e-05
0.00139553 -0.000685342 -3.04353e-05
7.52976e-05 -3.04353e-05 0.000765917
0.00568949 0.000726729 -3.55001e-05
0.000726729 0.000200115 7.49566e-05
-3.55001e-05 7.49566e-05 0.00031966
-0.00218189 -0.000729859 5.92586e-05
-0.000729859 -1.35058e-05 -5.36906e-05
5.92586e-05 -5.36906e-05 -0.00427829
0.00105678 -5.27192e-05 4.2675e-05
-5.27192e-05 0.000501516 -1.1005e-05
4.2675e-05 -1.1005e-05 0.000352819
0.000944712 -7.36798e-05 5.76852e-05
-7.36798e-05 -7.33789e-05 -2.40079e-05
5.76852e-05 -2.40079e-05 -0.00112686
-0.00185395 0.00018288 -0.000161763
0.00018288 0.000865043 -1.73253e-05
-0.000161763 -1.73253e-05 -0.000109394
0.00147206 0.00123915 -0.00010519
0.00123915 -0.000209226 0.000165516
-0.00010519 0.000165516 0.000272905
0.00779427 -0.00042825 2.45061e-05
-0.00042825 0.00358675 -2.09917e-05
2.45061e-05 -2.09917e-05 0.000576697
0.00353781 -0.000366413 -6.48918e-05
-0.000366413 0.000849399 6.37105e-05
-6.48918e-05 6.37105e-05 0.000538772
-0.00133907 5.15174e-06 3.53249e-06
5.15174e-06 -0.000634666 1.40038e-05
3.53249e-06 1.40038e-05 -0.000796524
0.000201495 -0.000163705 -5.607e-06
-0.000163705 0.000243195 4.33336e-07
-5.607e-06 4.33336e-07 6.67814e-06
0.000736721 -0.000234258 2.18636e-05
-0.000234258 0.000243506 -7.81834e-06
2.18636e-05 -7.81834e-06 9.72162e-05
-0.000749315 -9.99824e-05 -3.24411e-06
-9.99824e-05 -0.000473464 6.34489e-06
-3.24411e-06 6.34489e-06 -0.000613573
-0.000528386 -0.000125408 1.27325e-06
-0.000125408 -0.000376186 -3.65803e-06
1.27325e-06 -3.65803e-06 -0.000649948
0.00257285 -0.000428678 2.57387e-05
-0.000428678 0.000906091 -5.23663e-06
2.57387e-05 -5.23663e-06 0.000645123
0.00308787 -0.000402915 -6.04758e-06
-0.000402915 0.00138146 2.18425e-06
-6.04758e-06 2.18425e-06 0.00115313
0.00182764 -0.000308612 3.43273e-06
-0.000308612 0.000699733 7.8758e-07
3.43273e-06 7.8758e-07 0.00036965
0.00102803 -0.000300833 7.56687e-06
-0.000300833 7.90015e-05 -4.23597e-06
7.56687e-06 -4.23597e-06 -0.000246429
0.00139152 -0.000251538 -5.25842e-06
-0.000251538 0.000360121 1.0028e-06
-5.25842e-06 1.0028e-06 0.000125983
0.0022751 -0.000377216 2.56109e-06
-0.000377216 0.00074002 -1.30157e-08
2.56109e-06 -1.30157e-08 0.000444906
0.00209277 -0.000382607 2.28742e-06
-0.000382607 0.000527905 -5.08963e-06
2.28742e-06 -5.08963e-06 0.000236683
0.00177716 -0.000327094 4.92115e-07
-0.000327094 0.000284107 -3.40001e-06
4.92115e-07 -3.40001e-06 5.97136e-05
0.00252048 -0.00038751 -5.74444e-06
-0.00038751 0.000783874 6.0951e-06
-5.74444e-06 6.0951e-06 0.000529253
0.00185081 -0.00034756 -1.498e-06
-0.00034756 0.00039821 -3.39693e-07
-1.498e-06 -3.39693e-07 0.000131951
0.000272928 -0.000157268 5.13857e-06
-0.000157268 -0.000317186 3.14122e-07
5.13857e-06 3.14122e-07 -0.00049503
0.000972087 -0.000222965 3.01496e-06
-0.000222965 5.64165e-05 -2.15613e-07
3.01496e-06 -2.15613e-07 -0.00014165
0.00137235 -0.000271853 -1.81023e-06
-0.000271853 0.000260148 -1.80115e-06
-1.81023e-06 -1.80115e-06 2.33479e-05
0.00113542 -0.000195567 2.06609e-06
-0.000195567 0.000288109 1.294e-07
2.06609e-06 1.294e-07 0.000104277
0.00130623 -0.000219568 -2.08104e-06
-0.000219568 0.000357263 -1.52633e-06
-2.08104e-06 -1.52633e-06 0.000175806
0.000685814 -0.000174574 4.52825e-06
-0.000174574 -1.51837e-05 -2.48349e-06
4.52825e-06 -2.48349e-06 -0.000176783
0.000761238 -2.89951e-05 2.12566e-06
-2.89951e-05 0.000113328 1.52346e-06
2.12566e-06 1.52346e-06 -1.53978e-05
0.000565978 -7.66829e-05 9.02278e-08
-7.66829e-05 1.29591e-05 8.16463e-07
9.02278e-08 8.16463e-07 -0.000138734
0.00126845 -0.000197913 2.42903e-06
-0.000197913 0.000413484 -2.37392e-06
2.42903e-06 -2.37392e-06 0.000231984
0.00057919 4.96451e-05 -7.85885e-08
4.96451e-05 -1.36513e-05 2.50528e-06
-7.85885e-08 2.50528e-06 -8.24222e-05
0.000733953 -1.96483e-06 -4.45825e-07
-1.96483e-06 8.92755e-05 -4.5e-07
-4.45825e-07 -4.5e-07 -1.59473e-05
0.00105264 -9.39315e-05 -6.27152e-07
-9.39315e-05 0.000290163 -6.82924e-07
-6.27152e-07 -6.82924e-07 0.000159266
0.000556531 5.83838e-05 -1.60656e-06
5.83838e-05 -3.59208e-05 5.70019e-06
-1.60656e-06 5.70019e-06 -5.92361e-05
0.00066089 3.25728e-05 -2.82266e-07
3.25728e-05 2.03613e-05 -2.17598e-07
-2.82266e-07 -2.17598e-07 -3.61582e-05
0.000808169 -1.85402e-05 -8.44442e-08
-1.85402e-05 0.000120633 -1.3245e-06
-8.44442e-08 -1.3245e-06 3.32556e-05
0.000682228 2.05686e-05 1.5076e-06
2.05686e-05 2.61208e-05 -1.95716e-06
1.5076e-06 -1.95716e-06 -2.49792e-05
0.000592219 5.25273e-05 3.53971e-08
5.25273e-05 -2.46248e-05 -4.52117e-09
3.53971e-08 -4.52117e-09 -4.48356e-05
0.00227467 8.43107e-05 -2.64555e-05
8.43107e-05 0.000962915 3.41556e-06
-2.64555e-05 3.41556e-06 0.000970758
0.00060312 4.54183e-05 6.90242e-07
4.54183e-05 -2.75422e-05 -3.94939e-06
6.90242e-07 -3.94939e-06 -4.47244e-05
0.00227059 7.41162e-05 2.29001e-06
7.41162e-05 0.000953073 1.78893e-07
2.29001e-06 1.78893e-07 0.000963253
0.00227648 6.36991e-05 1.98312e-05
6.36991e-05 0.000949788 -3.95329e-06
1.98312e-05 -3.95329e-06 0.000961947
0.000747194 3.43532e-05 -5.28079e-07
3.43532e-05 8.74283e-05 -8.6958e-07
-5.28079e-07 -8.6958e-07 -1.73719e-05
0.000777512 6.5856e-05 -6.4576e-07
6.5856e-05 0.000105752 -1.42376e-06
-6.4576e-07 -1.42376e-06 8.07547e-06
0.000668701 1.76161e-06 -9.04855e-07
1.76161e-06 1.09491e-05 -2.50803e-06
-9.04855e-07 -2.50803e-06 -4.53579e-05
0.000740233 5.99176e-05 -9.2315e-08
5.99176e-05 7.54762e-05 1.85086e-08
-9.2315e-08 1.85086e-08 -1.28404e-05
0.000598317 -3.10624e-05 2.3278e-08
-3.10624e-05 -3.94605e-05 -4.55777e-06
2.3278e-08 -4.55777e-06 -5.66722e-05
0.000667918 9.50097e-06 -1.17406e-07
9.50097e-06 1.18143e-05 -6.12184e-08
-1.17406e-07 -6.12184e-08 -4.07551e-05
0.000704908 3.46394e-05 -7.43476e-07
3.46394e-05 5.3222e-05 7.79532e-07
-7.43476e-07 7.79532e-07 -3.01342e-05
0.00232788 -4.93388e-05 -1.85382e-05
-4.93388e-05 0.000969177 -4.61345e-06
-1.85382e-05 -4.61345e-06 0.000983672
0.000613353 -2.34662e-05 -1.92281e-07
-2.34662e-05 -3.56072e-05 -4.56673e-08
-1.92281e-07 -4.56673e-08 -4.90996e-05
0.000643196 1.33069e-05 -5.10923e-07
1.33069e-05 -1.481e-06 1.53017e-06
-5.10923e-07 1.53017e-06 -5.02489e-05
0.00222138 -3.53287e-05 -3.53099e-06
-3.53287e-05 0.000902704 1.22268e-07
-3.53099e-06 1.22268e-07 0.000919646
0.000619768 -1.6571e-05 -5.29519e-08
-1.6571e-05 -3.49312e-05 3.88323e-06
-5.29519e-08 3.88323e-06 -4.52836e-05
0.00213308 -2.16078e-05 9.5353e-06
-2.16078e-05 0.000848261 4.71544e-06
9.5353e-06 4.71544e-06 0.000867044
0.000901208 -6.75011e-05 4.04571e-06
-6.75011e-05 0.000137525 2.22441e-05
4.04571e-06 2.22441e-05 -9.70789e-05
0.00154602 -4.09263e-05 -9.73776e-06
-4.09263e-05 -2.39901e-05 1.6169e-05
-9.73776e-06 1.6169e-05 -5.67451e-05
0.00130356 -1.06819e-05 -8.48169e-07
-1.06819e-05 0.000357522 -1.42126e-05
-8.48169e-07 -1.42126e-05 0.000177518
0.000749596 3.4509e-05 -1.56887e-07
3.4509e-05 8.06276e-05 -3.69621e-08
-1.56887e-07 -3.69621e-08 -1.95702e-05
0.000734672 1.11032e-05 1.66188e-07
1.11032e-05 6.73176e-05 1.04644e-07
1.66188e-07 1.04644e-07 -3.16385e-05
0.000641473 1.424e-05 -2.257e-06
1.424e-05 1.49603e-05 -1.90529e-06
-2.257e-06 -1.90529e-06 -8.50467e-05
0.000564944 -8.93001e-06 -9.22116e-07
-8.93001e-06 -2.95986e-05 -9.64004e-07
-9.22116e-07 -9.64004e-07 -0.000127423
0.00101906 9.55549e-05 -1.66682e-06
9.55549e-05 0.00024468 -8.97732e-07
-1.66682e-06 -8.97732e-07 0.000127987
0.000700093 4.54536e-06 3.24488e-08
4.54536e-06 3.74262e-05 2.83302e-07
3.24488e-08 2.83302e-07 -5.30107e-05
0.000694707 2.67837e-05 8.24736e-07
2.67837e-05 4.54395e-05 -2.81254e-07
8.24736e-07 -2.81254e-07 -5.83769e-05
0.000770132 4.09082e-05 -1.05036e-07
4.09082e-05 9.21958e-05 -5.18426e-08
-1.05036e-07 -5.18426e-08 -1.15332e-05
0.000873394 7.39542e-05 4.37999e-07
7.39542e-05 0.000152937 4.09486e-07
4.37999e-07 4.09486e-07 3.9191e-05
0.000960987 4.68655e-05 -1.15073e-06
4.68655e-05 0.000216714 -4.74937e-07
-1.15073e-06 -4.74937e-07 0.000105719
0.00217355 8.5743e-05 0.000104236
8.5743e-05 0.00090995 0.000156684
0.000104236 0.000156684 -0.000890391
0.000895549 6.07706e-05 1.02091e-05
6.07706e-05 0.000242845 4.01991e-05
1.02091e-05 4.01991e-05 -0.0010682
0.00264616 -1.39268e-05 -1.41261e-05
-1.39268e-05 0.000970638 -1.67138e-05
-1.41261e-05 -1.67138e-05 0.000339897
0.00740396 -0.000694463 -5.64044e-05
-0.000694463 0.000978273 -6.45573e-05
-5.64044e-05 -6.45573e-05 0.00231734
-0.0105328 0.000468958 -4.60796e-05
0.000468958 -0.00357039 0.000178606
-4.60796e-05 0.000178606 -0.00534501
0.00520442 -0.000886782 -9.75621e-05
-0.000886782 0.00178753 5.09577e-05
-9.75621e-05 5.09577e-05 0.00104382
0.00954847 -0.000522846 -4.36671e-05
-0.000522846 0.00384449 -2.56647e-05
-4.36671e-05 -2.56647e-05 0.000883512
0.00268864 -0.000128176 -2.51547e-05
-0.000128176 0.000316456 5.14471e-05
-2.51547e-05 5.14471e-05 -1.92119e-05
0.0110358 -0.000169179 3.166e-05
-0.000169179 0.00517849 -1.55927e-05
3.166e-05 -1.55927e-05 0.00162801
0.00153959 -0.000665482 4.34157e-05
-0.000665482 -4.95903e-05 4.01974e-05
4.34157e-05 4.01974e-05 -0.000973631
0.002388 -0.000887033 -8.97999e-05
-0.000887033 -0.00190428 -0.000196262
-8.97999e-05 -0.000196262 -0.000435481
0.00352503 0.000159644 -8.379e-05
0.000159644 0.000595679 1.52863e-05
-8.379e-05 1.52863e-05 0.000141051
0.00902201 0.000516765 -2.83167e-06
0.000516765 0.00398085 2.52281e-05
-2.83167e-06 2.52281e-05 0.00121054
0.00962777 -0.00142785 -1.62114e-06
-0.00142785 0.00298774 -0.000149809
-1.62114e-06 -0.000149809 0.0030181
0.00520429 -0.00137536 4.54859e-05
-0.00137536 0.000795539 5.13459e-06
4.54859e-05 5.13459e-06 0.00234934
0.000315882 4.46456e-05 -4.03716e-07
4.46456e-05 -9.28068e-05 5.33194e-08
-4.03716e-07 5.33194e-08 -0.000181833
0.000924293 7.09417e-07 1.46925e-08
7.09417e-07 0.000194544 8.92499e-07
1.46925e-08 8.92499e-07 8.51575e-05
0.000730492 3.67645e-05 1.50897e-07
3.67645e-05 8.03909e-05 6.14956e-07
1.50897e-07 6.14956e-07 -4.27096e-05
0.000906136 1.61314e-05 -3.9255e-05
1.61314e-05 0.000490479 1.50337e-05
-3.9255e-05 1.50337e-05 -4.61296e-05
0.000929969 -5.00867e-05 -6.93764e-05
-5.00867e-05 0.000515404 -2.84953e-05
-6.93764e-05 -2.84953e-05 0.000464929
0.000616872 -6.33007e-06 -9.15073e-07
-6.33007e-06 2.70955e-05 2.66304e-06
-9.15073e-07 2.66304e-06 -9.05459e-05
-0.000463405 4.40227e-05 -3.59214e-07
4.40227e-05 -0.000433106 -3.90149e-06
-3.59214e-07 -3.90149e-06 -0.000611464
0.000651958 7.43345e-05 -1.72658e-07
7.43345e-05 0.000156315 -2.66442e-06
-1.72658e-07 -2.66442e-06 2.54356e-05
0.000563282 6.44514e-05 -4.21409e-06
6.44514e-05 0.000264812 4.46145e-06
-4.21409e-06 4.46145e-06 9.88688e-05
-0.000182941 -1.03154e-05 9.05436e-05
-1.03154e-05 0.000609416 -3.74688e-05
9.05436e-05 -3.74688e-05 -0.000490674
-0.00220877 -1.09672e-05 -2.13521e-05
-1.09672e-05 -0.00125538 1.24108e-05
-2.13521e-05 1.24108e-05 -0.00138162
0.00192546 0.000210622 -1.59511e-05
0.000210622 0.00106276 -3.52335e-05
-1.59511e-05 -3.52335e-05 0.000372109
0.00179924 -5.28424e-06 6.01877e-05
-5.28424e-06 0.000652482 7.32547e-06
6.01877e-05 7.32547e-06 -0.000407001
0.000910724 -2.0278e-05 1.57748e-05
-2.0278e-05 0.00037089 6.3236e-06
1.57748e-05 6.3236e-06 9.09992e-06
0.00156668 -3.33566e-05 -3.48242e-06
-3.33566e-05 0.000334983 -5.96512e-07
-3.48242e-06 -5.96512e-07 0.000183637
-0.00243666 8.08725e-05 1.76081e-05
8.08725e-05 -0.000842992 1.12038e-05
1.76081e-05 1.12038e-05 -0.00137029
0.00329681 7.29837e-05 -1.65793e-05
7.29837e-05 0.000743376 -1.81638e-05
-1.65793e-05 -1.81638e-05 0.000370899
0.0013425 4.70692e-06 1.49842e-06
4.70692e-06 0.000378125 9.96272e-06
1.49842e-06 9.96272e-06 0.000211832
0.0151895 -0.000944283 0.00010587
-0.000944283 0.0067113 -2.06057e-05
0.00010587 -2.06057e-05 0.0033089
0.00815292 0.00103371 -6.18738e-05
0.00103371 0.0025235 -2.96502e-05
-6.18738e-05 -2.96502e-05 0.00218136
0.00354743 -0.000225533 -4.61716e-05
-0.000225533 0.00116556 9.49271e-05
-4.61716e-05 9.49271e-05 -0.000708952
-0.00695644 0.00154103 0.000352808
0.00154103 -0.00375419 -0.000277429
0.000352808 -0.000277429 -0.0017994
0.000603623 -6.98725e-05 -3.04318e-06
-6.98725e-05 0.000392035 -4.97747e-07
-3.04318e-06 -4.97747e-07 0.000185742
0.00142998 -6.41912e-05 -9.4814e-06
-6.41912e-05 0.000209744 5.65362e-06
-9.4814e-06 5.65362e-06 -0.000858374
-0.00248161 0.000226199 -0.00021533
0.000226199 0.000953928 9.59291e-05
-0.00021533 9.59291e-05 0.000110434
0.00184664 -0.000298913 -2.07029e-05
-0.000298913 5.52054e-05 3.01536e-05
-2.07029e-05 3.01536e-05 -0.000207241
0.00887974 0.00146444 4.87471e-05
0.00146444 0.00291319 5.15736e-05
4.87471e-05 5.15736e-05 0.00347889
0.0075318 -0.000877301 6.63578e-05
-0.000877301 0.00314449 -4.19352e-05
6.63578e-05 -4.19352e-05 0.00042031
0.0012749 -0.000232606 8.34762e-06
-0.000232606 0.000267836 2.56362e-05
8.34762e-06 2.56362e-05 0.000395829
-0.00301484 -0.00013419 1.9755e-05
-0.00013419 0.000676838 -1.25487e-05
1.9755e-05 -1.25487e-05 -0.000808086
0.00708854 0.00128527 -0.000216776
0.00128527 0.00348426 9.97923e-05
-0.000216776 9.97923e-05 0.00351186
0.00247162 -0.000436627 -0.000141077
-0.000436627 0.000100817 9.65945e-05
-0.000141077 9.65945e-05 -0.00269268
0.00249724 -0.000783836 5.63955e-05
-0.000783836 0.000341407 -1.69247e-05
5.63955e-05 -1.69247e-05 -0.000101186
-0.000837055 -9.45426e-05 -5.11358e-06
-9.45426e-05 -0.00029061 1.25835e-05
-5.11358e-06 1.25835e-05 -0.000527572
0.000415834 -0.000212551 -5.08402e-06
-0.000212551 0.000105461 2.9404e-06
-5.08402e-06 2.9404e-06 -9.26555e-05
0.00396888 -0.000506368 3.02374e-05
-0.000506368 0.00152882 3.18813e-06
3.02374e-05 3.18813e-06 0.00144916
-0.00219792 -1.87253e-05 -5.52943e-06
-1.87253e-05 -0.00124513 8.25739e-06
-5.52943e-06 8.25739e-06 -0.00151905
0.000748327 -0.000272072 2.9611e-06
-0.000272072 -5.42382e-06 1.1759e-07
2.9611e-06 1.1759e-07 -0.000272539
0.00167705 -0.000415091 5.8622e-06
-0.000415091 0.000187061 6.31072e-07
5.8622e-06 6.31072e-07 -2.47563e-05
0.00240905 -0.000350607 -8.58235e-06
-0.000350607 0.000969634 2.33371e-06
-8.58235e-06 2.33371e-06 0.000659163
0.00126433 -0.000315327 -2.62401e-06
-0.000315327 0.000184727 -2.75627e-06
-2.62401e-06 -2.75627e-06 -0.000122184
0.00204974 -0.000424227 5.24322e-06
-0.000424227 0.000388557 -3.40654e-06
5.24322e-06 -3.40654e-06 0.000152923
0.00181122 -0.000340477 -3.56209e-06
-0.000340477 0.000471502 -1.18918e-06
-3.56209e-06 -1.18918e-06 0.000178789
0.00155351 -0.000339173 -3.41031e-07
-0.000339173 0.000220173 -3.54205e-06
-3.41031e-07 -3.54205e-06 -6.02549e-05
0.00186647 -0.000353178 5.13354e-07
-0.000353178 0.000265533 -5.87511e-06
5.13354e-07 -5.87511e-06 5.15019e-05
0.00159849 -0.00027753 -8.67979e-07
-0.00027753 0.00011373 -3.24524e-06
-8.67979e-07 -3.24524e-06 -6.55443e-05
0.00149597 -0.000303475 1.79188e-06
-0.000303475 0.000140844 -1.50584e-06
1.79188e-06 -1.50584e-06 -9.16449e-05
0.00159952 -0.000313762 1.59041e-06
-0.000313762 0.000188281 -1.24479e-06
1.59041e-06 -1.24479e-06 -3.36108e-05
0.00172279 -0.000295486 -1.37601e-06
-0.000295486 0.000369958 5.31348e-06
-1.37601e-06 5.31348e-06 0.000150462
0.00199451 -0.000347284 -6.44699e-07
-0.000347284 0.000492722 1.49808e-07
-6.44699e-07 1.49808e-07 0.00023877
0.00174393 -0.000340976 -6.50639e-07
-0.000340976 0.000337523 -2.72384e-06
-6.50639e-07 -2.72384e-06 6.74771e-05
0.00106807 -0.00020584 2.90078e-06
-0.00020584 0.000185298 -2.00571e-07
2.90078e-06 -2.00571e-07 5.46543e-07
0.000551493 -0.000176593 -1.187e-06
-0.000176593 -0.000153563 -2.08289e-06
-1.187e-06 -2.08289e-06 -0.000328816
0.00143308 -0.000257746 6.26329e-06
-0.000257746 0.00031799 -6.41952e-06
6.26329e-06 -6.41952e-06 0.000122592
0.000910876 -0.000131555 1.35778e-07
-0.000131555 0.000173846 6.32484e-07
1.35778e-07 6.32484e-07 1.97595e-05
0.000879085 -0.000168166 1.54749e-07
-0.000168166 0.000143192 1.97712e-07
1.54749e-07 1.97712e-07 -3.51073e-05
0.00087846 -0.000181445 -1.63699e-06
-0.000181445 0.00011108 9.54966e-07
-1.63699e-06 9.54966e-07 -6.47231e-05
0.000545614 5.12983e-05 1.21867e-06
5.12983e-05 -2.39326e-05 3.87661e-06
1.21867e-06 3.87661e-06 -0.000111618
0.000784914 -4.95961e-05 6.97254e-07
-4.95961e-05 0.000130694 1.93122e-07
6.97254e-07 1.93122e-07 -4.45979e-06
0.000887147 -0.000112816 -1.79154e-06
-0.000112816 0.00020278 5.91166e-07
-1.79154e-06 5.91166e-07 4.64569e-05
0.00134255 9.2605e-05 -1.37312e-05
9.2605e-05 0.000435324 3.76167e-06
-1.37312e-05 3.76167e-06 0.000408342
0.000652003 2.70475e-05 -5.3624e-07
2.70475e-05 2.35834e-05 -5.68852e-07
-5.3624e-07 -5.68852e-07 -4.40478e-05
0.000814788 -3.69702e-05 -9.98828e-07
-3.69702e-05 0.000137781 -1.87054e-06
-9.98828e-07 -1.87054e-06 2.75559e-05
0.000762844 4.60113e-05 -2.63605e-05
4.60113e-05 9.1616e-05 3.39541e-06
-2.63605e-05 3.39541e-06 9.22096e-05
0.000987426 7.31082e-05 -7.63674e-06
7.31082e-05 0.000216486 1.51342e-07
-7.63674e-06 1.51342e-07 0.000193567
0.000682246 2.82514e-05 8.47624e-07
2.82514e-05 3.12515e-05 -2.33658e-06
8.47624e-07 -2.33658e-06 -2.50506e-05
0.00059905 5.50102e-05 3.53772e-07
5.50102e-05 -1.96293e-05 -4.18811e-06
3.53772e-07 -4.18811e-06 -4.03641e-05
0.00231124 8.61496e-05 2.36496e-06
8.61496e-05 0.000984979 2.07178e-07
2.36496e-06 2.07178e-07 0.000992409
0.00228857 7.56266e-05 2.33066e-05
7.56266e-05 0.000964435 -3.63764e-06
2.33066e-05 -3.63764e-06 0.000974294
0.000691981 2.61891e-05 -4.47704e-07
2.61891e-05 4.64168e-05 -8.49305e-07
-4.47704e-07 -8.49305e-07 -5.45041e-05
0.000790209 4.95655e-05 -4.23514e-07
4.95655e-05 0.00011125 -1.81368e-06
-4.23514e-07 -1.81368e-06 1.19796e-05
0.000710438 1.96766e-05 6.52631e-08
1.96766e-05 5.64588e-05 1.44347e-08
6.52631e-08 1.44347e-08 -4.12928e-05
0.00067288 -9.60468e-06 -1.14582e-06
-9.60468e-06 1.46097e-05 -2.69049e-06
-1.14582e-06 -2.69049e-06 -4.51166e-05
0.000745704 4.02373e-05 6.60086e-07
4.02373e-05 7.77734e-05 1.53585e-08
6.60086e-07 1.53585e-08 -1.25076e-05
0.000584837 -3.76736e-05 -1.15274e-07
-3.76736e-05 -4.1274e-05 -4.83808e-06
-1.15274e-07 -4.83808e-06 -6.21431e-05
0.000662291 5.1402e-06 -1.40824e-07
5.1402e-06 8.42369e-06 -5.24966e-08
-1.40824e-07 -5.24966e-08 -4.82485e-05
0.000762122 5.63149e-05 6.26488e-07
5.63149e-05 0.000101226 1.59836e-06
6.26488e-07 1.59836e-06 3.70757e-06
0.00244123 -6.22798e-05 -2.41312e-05
-6.22798e-05 0.0010402 -4.41906e-06
-2.41312e-05 -4.41906e-06 0.00105218
0.00059911 -3.01967e-05 -3.53604e-07
-3.01967e-05 -3.93019e-05 -3.0469e-08
-3.53604e-07 -3.0469e-08 -5.63109e-05
0.000660616 1.00663e-05 5.77268e-07
1.00663e-05 8.04134e-06 2.59172e-06
5.77268e-07 2.59172e-06 -4.45386e-05
0.00231288 -4.82718e-05 -3.40497e-06
-4.82718e-05 0.00095984 1.61666e-07
-3.40497e-06 1.61666e-07 0.000974659
0.000611507 -2.31211e-05 -9.05505e-09
-2.31211e-05 -3.66063e-05 4.14015e-06
-9.05505e-09 4.14015e-06 -4.99897e-05
0.00220977 -3.41398e-05 1.37273e-05
-3.41398e-05 0.000895416 4.66446e-06
1.37273e-05 4.66446e-06 0.000912627
0.00303811 -1.09508e-05 6.51666e-05
-1.09508e-05 0.00111866 3.10972e-05
6.51666e-05 3.10972e-05 0.000258714
0.000916006 -6.4371e-05 3.97661e-07
-6.4371e-05 0.000167042 9.17671e-06
3.97661e-07 9.17671e-06 -6.33324e-05
0.00143845 -5.14766e-05 -1.43637e-05
-5.14766e-05 -7.30068e-05 -2.68033e-06
-1.43637e-05 -2.68033e-06 -6.60236e-05
0.000777827 8.79355e-05 -3.37887e-06
8.79355e-05 9.88515e-05 -3.39342e-07
-3.37887e-06 -3.39342e-07 -1.20441e-05
0.000819598 3.6953e-05 4.84885e-07
3.6953e-05 0.000117746 5.88262e-07
4.84885e-07 5.88262e-07 1.98537e-05
0.000640826 5.02698e-06 9.24481e-07
5.02698e-06 1.32938e-05 8.41117e-07
9.24481e-07 8.41117e-07 -8.43503e-05
0.000810392 9.99771e-06 4.22094e-08
9.99771e-06 0.000106388 -9.08751e-08
4.22094e-08 -9.08751e-08 9.90826e-06
0.0008922 4.91321e-05 -2.11986e-07
4.91321e-05 0.000160795 -1.14715e-07
-2.11986e-07 -1.14715e-07 5.63058e-05
0.000825878 7.30296e-05 4.65755e-07
7.30296e-05 0.000132708 7.31309e-07
4.65755e-07 7.31309e-07 2.05042e-05
0.000797505 6.02238e-05 -2.34447e-06
6.02238e-05 0.000112604 -2.62789e-06
-2.34447e-06 -2.62789e-06 -4.66018e-06
0.000401823 2.49236e-06 -1.12055e-06
2.49236e-06 -0.000112258 -1.00647e-06
-1.12055e-06 -1.00647e-06 -0.000216718
0.000828973 9.45698e-05 4.34365e-07
9.45698e-05 0.000131785 -3.54191e-11
4.34365e-07 -3.54191e-11 2.21894e-05
0.000734231 -4.39133e-06 1.57624e-06
-4.39133e-06 5.38935e-05 2.63255e-07
1.57624e-06 2.63255e-07 -4.32067e-05
0.000800196 4.1758e-05 -4.04212e-07
4.1758e-05 0.000121135 6.43759e-08
-4.04212e-07 6.43759e-08 1.40768e-05
0.00146116 9.26292e-05 4.04089e-06
9.26292e-05 0.000538365 4.52137e-06
4.04089e-06 4.52137e-06 0.00043462
0.00109101 -0.000537149 6.05552e-05
-0.000537149 0.00175772 0.000127097
6.05552e-05 0.000127097 0.000839466
0.00275502 0.000128433 1.13514e-05
0.000128433 0.00117815 4.45166e-05
1.13514e-05 4.45166e-05 -0.000665274
0.00127783 8.20549e-05 -1.045e-05
8.20549e-05 0.000347025 -3.6735e-05
-1.045e-05 -3.6735e-05 -0.000987426
0.00715854 -0.00116685 -0.000156387
-0.00116685 0.000631319 -0.000124464
-0.000156387 -0.000124464 0.00209838
0.00451122 -0.000340862 1.69562e-05
-0.000340862 0.000654706 0.000148141
1.69562e-05 0.000148141 -0.000131047
0.000450875 -0.000556299 -9.5185e-05
-0.000556299 0.00086376 9.30368e-05
-9.5185e-05 9.30368e-05 -0.00272228
0.00225576 -0.000184499 -5.4099e-05
-0.000184499 0.000369994 7.62987e-05
-5.4099e-05 7.62987e-05 -0.000148361
0.00368639 -9.26853e-05 1.49026e-05
-9.26853e-05 0.00072581 4.43604e-05
1.49026e-05 4.43604e-05 0.000464338
-0.000712415 -0.00139901 5.10186e-05
-0.00139901 -0.001436 6.77721e-05
5.10186e-05 6.77721e-05 0.000297418
0.00523528 0.000553954 5.76701e-06
0.000553954 0.00303975 -2.27156e-06
5.76701e-06 -2.27156e-06 -0.000452286
0.00172392 -0.000752261 -2.00498e-05
-0.000752261 -0.00132347 2.83185e-05
-2.00498e-05 2.83185e-05 -0.00122537
0.00132405 0.000312718 -5.14443e-06
0.000312718 -0.000332624 2.3041e-05
-5.14443e-06 2.3041e-05 -0.000443469
0.00784627 0.0002857 -2.43299e-05
0.0002857 0.0039561 8.67658e-06
-2.43299e-05 8.67658e-06 0.00119532
0.000993484 -0.00118396 -7.13711e-05
-0.00118396 -0.000707362 -0.000100793
-7.13711e-05 -0.000100793 -0.000251086
0.000570057 0.000213189 1.63987e-06
0.000213189 2.07816e-05 -5.66341e-06
1.63987e-06 -5.66341e-06 -7.94476e-05
0.000789722 6.20334e-05 5.37672e-06
6.20334e-05 0.000167659 -3.00387e-07
5.37672e-06 -3.00387e-07 7.84174e-05
0.00109105 2.74712e-05 -1.07031e-07
2.74712e-05 0.000293012 1.6223e-06
-1.07031e-07 1.6223e-06 0.000182397
0.000251047 -2.50577e-06 -0.000143168
-2.50577e-06 0.000796952 -4.03809e-05
-0.000143168 -4.03809e-05 -0.000267053
-0.00152347 7.86899e-05 8.91145e-06
7.86899e-05 -0.00086872 -1.12867e-05
8.91145e-06 -1.12867e-05 -0.00104078
0.000923087 0.000111045 1.8374e-06
0.000111045 0.000313727 -2.36601e-06
1.8374e-06 -2.36601e-06 0.000174753
0.000677253 0.000214997 7.72039e-06
0.000214997 0.00024353 3.1134e-06
7.72039e-06 3.1134e-06 0.000105387
0.000682387 0.000209878 -4.76378e-06
0.000209878 0.000356723 -2.9136e-05
-4.76378e-06 -2.9136e-05 -0.000217762
-0.000266965 0.000333534 1.46714e-05
0.000333534 -0.000535863 -3.59661e-07
1.46714e-05 -3.59661e-07 -0.000775244
0.000116143 0.000108585 0.000111438
0.000108585 0.00237708 9.94747e-06
0.000111438 9.94747e-06 0.000939421
0.001817 -2.57131e-05 -4.72816e-06
-2.57131e-05 0.000718038 1.2771e-05
-4.72816e-06 1.2771e-05 -0.000156129
0.000705322 -2.09925e-05 4.01663e-06
-2.09925e-05 0.000257947 8.50781e-06
4.01663e-06 8.50781e-06 -4.68652e-05
0.00101371 -8.88572e-05 -3.5431e-05
-8.88572e-05 0.000702354 9.46457e-06
-3.5431e-05 9.46457e-06 0.00049747
0.000695101 -0.000133375 -3.20317e-05
-0.000133375 -0.000981181 -9.93713e-06
-3.20317e-05 -9.93713e-06 -0.000854841
0.00174242 -6.19462e-05 -7.6565e-05
-6.19462e-05 0.000388012 2.20669e-05
-7.6565e-05 2.20669e-05 -0.000682181
-0.00122901 -0.000933754 4.65527e-05
-0.000933754 -0.000412661 -6.51874e-05
4.65527e-05 -6.51874e-05 -0.00362416
-0.0030853 0.000999573 8.44621e-05
0.000999573 -0.00365829 -9.93089e-05
8.44621e-05 -9.93089e-05 -0.00292064
0.00159506 0.000545606 -0.000111308
0.000545606 0.00231029 0.000114314
-0.000111308 0.000114314 0.00188604
0.00214347 -0.000103811 -7.57184e-06
-0.000103811 0.000506262 1.6543e-06
-7.57184e-06 1.6543e-06 0.000774198
0.0015556 0.000153981 1.51781e-05
0.000153981 0.0025085 9.48323e-06
1.51781e-05 9.48323e-06 0.00164259
-0.00369806 0.000731568 3.13257e-05
0.000731568 -0.00112238 6.32442e-06
3.13257e-05 6.32442e-06 -0.00198571
0.00374937 -0.000863493 1.25339e-05
-0.000863493 0.00125599 -2.51894e-06
1.25339e-05 -2.51894e-06 0.000398926
0.0097623 -0.000256564 5.89947e-06
-0.000256564 0.00353596 -7.09736e-06
5.89947e-06 -7.09736e-06 0.0016958
0.0018233 -0.000401034 3.49137e-07
-0.000401034 0.000332685 2.20363e-05
3.49137e-07 2.20363e-05 0.000426731
-0.00721685 0.000280414 -0.000155886
0.000280414 -0.00344444 -2.1709e-06
-0.000155886 -2.1709e-06 -0.0039733
0.00994332 -8.19905e-05 -4.98867e-05
-8.19905e-05 0.00308736 2.0487e-05
-4.98867e-05 2.0487e-05 0.00162598
0.0046388 -0.00098235 -2.35055e-06
-0.00098235 0.000428471 -2.3375e-06
-2.35055e-06 -2.3375e-06 -0.000312904
0.000313223 -0.000197317 -2.29925e-05
-0.000197317 9.35228e-05 1.57035e-05
-2.29925e-05 1.57035e-05 -0.000166726
0.00175143 -0.000364164 -2.89097e-06
-0.000364164 0.000300665 1.10763e-06
-2.89097e-06 1.10763e-06 0.000297111
0.00281908 -0.000414943 1.43456e-05
-0.000414943 0.000671489 -2.36088e-06
1.43456e-05 -2.36088e-06 0.000662584
-0.00109508 -0.00011323 -4.6306e-06
-0.00011323 -0.000926748 3.69867e-07
-4.6306e-06 3.69867e-07 -0.00120479
0.00132994 -0.000382999 -3.50698e-06
-0.000382999 3.06804e-05 -1.09328e-06
-3.50698e-06 -1.09328e-06 -0.000188815
0.00218009 -0.000456757 2.30594e-06
-0.000456757 0.000315874 3.30406e-08
2.30594e-06 3.30406e-08 0.000139607
0.00136018 -0.00032014 -1.0091e-05
-0.00032014 0.000220116 -2.56521e-06
-1.0091e-05 -2.56521e-06 -7.16648e-05
0.00151096 -0.000379306 3.90365e-07
-0.000379306 0.000116185 3.91598e-07
3.90365e-07 3.91598e-07 -0.000119915
0.00195065 -0.000369502 -1.49115e-06
-0.000369502 0.000214156 -4.69715e-06
-1.49115e-06 -4.69715e-06 4.17287e-05
0.00104249 -0.000298679 -6.94514e-06
-0.000298679 -7.15852e-05 -1.22736e-07
-6.94514e-06 -1.22736e-07 -0.000341972
0.00164002 -0.000334749 -3.93807e-07
-0.000334749 0.000136939 4.84823e-07
-3.93807e-07 4.84823e-07 -7.35219e-05
0.00179141 -0.000294143 -8.51779e-07
-0.000294143 0.00013488 -5.30888e-06
-8.51779e-07 -5.30888e-06 -1.26029e-05
0.00158088 -0.000231949 -2.45748e-06
-0.000231949 4.45093e-05 -3.42564e-06
-2.45748e-06 -3.42564e-06 -9.34401e-05
0.001493 -0.000261912 -8.10304e-07
-0.000261912 8.52652e-05 -2.62424e-06
-8.10304e-07 -2.62424e-06 -0.000105338
0.00153437 -0.00026782 5.86056e-07
-0.00026782 7.87488e-05 1.31715e-06
5.86056e-07 1.31715e-06 -9.74236e-05
0.00122605 -0.000260112 -3.85726e-06
-0.000260112 9.71817e-06 4.10874e-07
-3.85726e-06 4.10874e-07 -0.000201624
0.00157995 -0.000305894 2.13027e-06
-0.000305894 0.000191779 -5.28014e-07
2.13027e-06 -5.28014e-07 -3.72061e-05
0.00144074 -0.000301846 7.04429e-07
-0.000301846 0.000102338 2.07463e-06
7.04429e-07 2.07463e-06 -0.00011715
0.00129379 -0.000237798 6.85244e-07
-0.000237798 0.0002131 3.5691e-06
6.85244e-07 3.5691e-06 1.58001e-05
0.00117409 -0.000253283 2.93739e-06
-0.000253283 6.8218e-05 -1.06153e-06
2.93739e-06 -1.06153e-06 -0.000145785
0.00134061 -0.000296592 -4.74759e-07
-0.000296592 0.000129946 -3.62528e-06
-4.74759e-07 -3.62528e-06 -0.000122746
0.000954331 -0.000173981 -1.223e-06
-0.000173981 0.000142367 9.74481e-07
-1.223e-06 9.74481e-07 -2.39168e-05
0.00110588 -0.000207758 6.33647e-08
-0.000207758 0.000200794 -1.21503e-06
6.33647e-08 -1.21503e-06 1.64864e-05
0.000832345 -0.000195837 -2.187e-06
-0.000195837 1.11593e-05 -5.82077e-06
-2.187e-06 -5.82077e-06 -0.00016211
0.000686789 -4.44199e-05 -4.51893e-07
-4.44199e-05 4.41935e-05 4.30891e-06
-4.51893e-07 4.30891e-06 -6.57139e-05
0.000937868 -0.000130411 6.65931e-07
-0.000130411 0.00018736 3.39795e-07
6.65931e-07 3.39795e-07 3.25956e-05
0.000604615 -0.000137459 -2.40728e-06
-0.000137459 -1.3147e-05 1.10092e-06
-2.40728e-06 1.10092e-06 -0.000185189
0.000461728 7.25867e-05 2.44665e-06
7.25867e-05 -6.63195e-05 6.51118e-06
2.44665e-06 6.51118e-06 -0.000106056
0.00068018 -1.24384e-05 -4.98017e-07
-1.24384e-05 4.9645e-05 -4.44143e-07
-4.98017e-07 -4.44143e-07 -4.05737e-05
0.000860816 -7.64775e-05 1.09045e-07
-7.64775e-05 0.000176196 -1.59628e-06
1.09045e-07 -1.59628e-06 3.52403e-05
0.00242224 0.000118812 -8.55984e-06
0.000118812 0.00106599 1.4214e-06
-8.55984e-06 1.4214e-06 0.0010648
0.000569956 7.19485e-05 -2.75978e-07
7.19485e-05 -1.33471e-05 -1.94924e-07
-2.75978e-07 -1.94924e-07 -4.4424e-05
0.000716727 6.51742e-06 1.5996e-06
6.51742e-06 5.82929e-05 -3.29555e-06
1.5996e-06 -3.29555e-06 -9.61015e-06
0.00236667 9.69035e-05 2.44025e-06
9.69035e-05 0.00102476 2.09493e-07
2.44025e-06 2.09493e-07 0.0010296
0.000596937 6.62687e-05 -9.30024e-07
6.62687e-05 -8.30863e-06 -4.66315e-06
-9.30024e-07 -4.66315e-06 -3.39629e-05
0.00236136 8.80499e-05 2.78249e-05
8.80499e-05 0.00101487 -3.21686e-06
2.78249e-05 -3.21686e-06 0.00102187
0.000874475 8.82151e-05 -8.52387e-07
8.82151e-05 0.000152392 4.19572e-07
-8.52387e-07 4.19572e-07 4.0496e-05
0.000769792 3.91413e-05 -1.18063e-07
3.91413e-05 9.24829e-05 -2.44039e-07
-1.18063e-07 -2.44039e-07 -1.08379e-05
0.000791587 3.00946e-05 -3.85741e-07
3.00946e-05 0.000118516 -2.18078e-06
-3.85741e-07 -2.18078e-06 1.07832e-05
0.000676475 -1.45105e-05 -1.26908e-06
-1.45105e-05 2.05275e-05 -3.09658e-06
-1.26908e-06 -3.09658e-06 -4.30575e-05
0.000734545 2.11451e-05 5.10148e-07
2.11451e-05 7.55685e-05 8.46309e-08
5.10148e-07 8.46309e-08 -2.00233e-05
0.000673151 2.93267e-05 1.14734e-06
2.93267e-05 4.02992e-05 1.06562e-06
1.14734e-06 1.06562e-06 -6.11726e-05
0.000579523 -4.44227e-05 -3.18463e-07
-4.44227e-05 -3.75801e-05 -5.1746e-06
-3.18463e-07 -5.1746e-06 -6.18382e-05
0.000660278 -2.98319e-06 -7.22985e-08
-2.98319e-06 8.54473e-06 -5.65283e-08
-7.22985e-08 -5.65283e-08 -5.1561e-05
0.000734008 3.7141e-05 1.39e-06
3.7141e-05 6.78569e-05 1.42859e-06
1.39e-06 1.42859e-06 -1.96472e-05
0.00253726 -7.46887e-05 -3.02125e-05
-7.46887e-05 0.00110188 -4.11593e-06
-3.02125e-05 -4.11593e-06 0.00111137
0.000582786 -3.65721e-05 -3.57492e-07
-3.65721e-05 -4.29114e-05 -1.31439e-08
-3.57492e-07 -1.31439e-08 -6.35296e-05
0.000664024 7.4622e-06 9.68908e-07
7.4622e-06 1.01118e-05 2.65055e-06
9.68908e-07 2.65055e-06 -4.66992e-05
0.0024102 -6.12079e-05 -3.80658e-06
-6.12079e-05 0.0010215 2.09741e-07
-3.80658e-06 2.09741e-07 0.00103385
0.000599349 -2.94868e-05 -7.66531e-08
-2.94868e-05 -3.93335e-05 4.46329e-06
-7.66531e-08 4.46329e-06 -5.61694e-05
0.00228782 -4.69213e-05 1.80182e-05
-4.69213e-05 0.000944641 4.56351e-06
1.80182e-05 4.56351e-06 0.000959839
-0.00412431 1.94624e-05 -4.02199e-06
1.94624e-05 0.000323945 4.46452e-05
-4.02199e-06 4.46452e-05 -0.00138243
0.00284512 -4.83398e-05 6.67906e-07
-4.83398e-05 0.0011199 1.1629e-05
6.67906e-07 1.1629e-05 0.000240382
0.000952199 -6.44757e-05 -2.80891e-06
-6.44757e-05 0.000186714 -3.6675e-06
-2.80891e-06 -3.6675e-06 -3.8355e-05
0.000642175 5.14717e-05 -5.3654e-07
5.14717e-05 1.8291e-05 3.12663e-07
-5.3654e-07 3.12663e-07 -8.65124e-05
0.00147238 0.000207443 -1.12889e-06
0.000207443 0.000504976 9.64817e-07
-1.12889e-06 9.64817e-07 0.000366294
0.000688898 5.24386e-05 -2.8213e-06
5.24386e-05 4.95675e-05 -2.64103e-07
-2.8213e-06 -2.64103e-07 -6.3035e-05
0.000971718 8.38492e-06 7.2398e-07
8.38492e-06 0.000195508 1.61017e-07
7.2398e-07 1.61017e-07 0.000100739
0.00111144 8.50787e-05 2.02064e-06
8.50787e-05 0.000285335 6.61346e-07
2.02064e-06 6.61346e-07 0.000178617
0.00057498 2.26959e-05 4.3447e-07
2.26959e-05 -1.87486e-05 2.59849e-06
4.3447e-07 2.59849e-06 -0.000120181
0.000646612 3.67558e-05 -1.06541e-06
3.67558e-05 3.44725e-05 2.76271e-07
-1.06541e-06 2.76271e-07 -7.92283e-05
0.000776269 4.60211e-05 -1.8902e-07
4.60211e-05 9.8809e-05 -2.68947e-07
-1.8902e-07 -2.68947e-07 -1.51318e-05
0.000885966 8.77522e-05 -6.3036e-07
8.77522e-05 0.0001855 -2.2396e-06
-6.3036e-07 -2.2396e-06 4.84184e-05
0.00043139 0.000133099 2.62598e-06
0.000133099 -0.000121992 -6.65073e-06
2.62598e-06 -6.65073e-06 -0.000217663
0.000770002 6.02918e-05 7.33302e-07
6.02918e-05 0.000107374 -8.71983e-08
7.33302e-07 -8.71983e-08 -5.34351e-06
0.000911296 8.73466e-05 5.86109e-07
8.73466e-05 0.000225215 1.92342e-06
5.86109e-07 1.92342e-06 0.00011765
-0.00526939 -0.000626988 -0.000237779
-0.000626988 -0.00166386 2.45055e-05
-0.000237779 2.45055e-05 -0.00242119
-0.00212363 -0.000439195 0.000101813
-0.000439195 0.000690962 4.6824e-05
0.000101813 4.6824e-05 -0.00047664
0.00326464 0.000145652 -8.85468e-05
0.000145652 0.00136899 -6.62045e-05
-8.85468e-05 -6.62045e-05 -0.000522845
-0.00725517 -0.00144677 0.000266681
-0.00144677 -0.00364389 0.000237999
0.000266681 0.000237999 -0.00181389
0.00994969 -0.000997268 -7.08928e-05
-0.000997268 0.00304096 6.78898e-05
-7.08928e-05 6.78898e-05 0.00305041
-0.000246434 0.000754977 4.77523e-07
0.000754977 4.66911e-05 -3.66098e-05
4.77523e-07 -3.66098e-05 -0.00335596
0.00360571 -5.6096e-05 -0.000150669
-5.6096e-05 0.000972519 5.21022e-05
-0.000150669 5.21022e-05 0.000228616
0.00288998 0.000281331 -1.76107e-05
0.000281331 0.000646788 1.55276e-05
-1.76107e-05 1.55276e-05 0.000362962
0.00739143 -0.0011503 -0.000100079
-0.0011503 0.00360142 4.31571e-05
-0.000100079 4.31571e-05 0.00374661
0.000492929 0.000560487 -1.04282e-06
0.000560487 0.000561032 -1.24263e-05
-1.04282e-06 -1.24263e-05 -0.0021906
0.00153995 0.000527899 -7.72243e-05
0.000527899 0.000327123 -7.21656e-05
-7.72243e-05 -7.21656e-05 -0.000213192
0.00359037 0.000972344 -0.000130557
0.000972344 0.000371417 -7.87122e-05
-0.000130557 -7.87122e-05 -0.00171343
0.00205258 0.000494932 1.34189e-05
0.000494932 0.000493262 -1.90288e-05
1.34189e-05 -1.90288e-05 0.000302442
0.000760376 0.000214701 -5.09851e-06
0.000214701 0.000119338 1.14287e-06
-5.09851e-06 1.14287e-06 2.03904e-05
0.00112047 6.68799e-05 2.64686e-07
6.68799e-05 0.000346563 -1.6309e-06
2.64686e-07 -1.6309e-06 0.000258094
-0.000594786 0.000172016 -3.60234e-05
0.000172016 -0.000235617 -3.54042e-05
-3.60234e-05 -3.54042e-05 -0.000707367
0.00272766 0.000334294 -1.25129e-05
0.000334294 0.00130767 -1.11429e-05
-1.25129e-05 -1.11429e-05 0.00115617
0.00119406 0.000450731 1.32814e-05
0.000450731 0.000132838 -4.09821e-06
1.32814e-05 -4.09821e-06 -0.000118309
0.00290755 0.00070613 7.81562e-05
0.00070613 0.000373277 2.71474e-05
7.81562e-05 2.71474e-05 0.000319641
-0.00426766 -3.59146e-05 -0.000236634
-3.59146e-05 -0.00273899 -2.09641e-06
-0.000236634 -2.09641e-06 -0.00204152
-0.00171968 6.44107e-05 8.49515e-05
6.44107e-05 0.00160438 1.1676e-06
8.49515e-05 1.1676e-06 2.07097e-05
0.00165791 -4.90931e-05 -5.34596e-05
-4.90931e-05 0.00065802 1.79902e-05
-5.34596e-05 1.79902e-05 -7.18032e-05
0.00278729 -0.000212229 -5.32904e-05
-0.000212229 0.000764446 -3.27533e-05
-5.32904e-05 -3.27533e-05 0.00101207
0.00245141 -0.000810795 -3.92667e-05
-0.000810795 0.000356401 1.6693e-06
-3.92667e-05 1.6693e-06 -0.000316817
0.00198938 0.000102037 -1.56624e-05
0.000102037 0.00271805 3.1347e-05
-1.56624e-05 3.1347e-05 0.00195607
0.00129963 -0.000495679 0.000114793
-0.000495679 -0.000101643 -9.45551e-05
0.000114793 -9.45551e-05 -0.00248676
0.00912025 0.00076062 3.33735e-05
0.00076062 0.00441301 1.26434e-05
3.33735e-05 1.26434e-05 0.0039907
0.00237954 -0.000543946 -1.60185e-05
-0.000543946 0.000489056 5.78679e-06
-1.60185e-05 5.78679e-06 0.000452493
-0.00108043 0.000409177 3.3698e-05
0.000409177 -0.000529164 -1.07952e-05
3.3698e-05 -1.07952e-05 -0.00092233
0.00383585 -0.000111116 -3.23733e-05
-0.000111116 -1.55864e-05 4.33085e-05
-3.23733e-05 4.33085e-05 -0.00198742
0.00582338 -0.000996136 -3.10954e-05
-0.000996136 0.00138739 1.18306e-05
-3.10954e-05 1.18306e-05 0.00063012
-0.000164028 -0.000277932 3.01756e-05
-0.000277932 -0.000676414 -7.08973e-06
3.01756e-05 -7.08973e-06 -0.000909279
0.00882637 -0.000313237 2.9325e-05
-0.000313237 0.00219101 -2.80675e-05
2.9325e-05 -2.80675e-05 0.000974748
0.00351331 -0.000451247 4.52719e-05
-0.000451247 -8.0849e-05 -2.69861e-05
4.52719e-05 -2.69861e-05 -0.000379159
-0.000589952 -0.000215868 -1.9936e-05
-0.000215868 -0.000993812 6.37903e-06
-1.9936e-05 6.37903e-06 -0.000918337
0.000787959 -0.000303587 -5.39409e-06
-0.000303587 -0.000415406 -9.062e-07
-5.39409e-06 -9.062e-07 -0.000386723
0.00266668 -0.000421021 1.83432e-05
-0.000421021 0.000433199 -1.51176e-05
1.83432e-05 -1.51176e-05 0.000436272
0.000740494 -0.000331433 -1.04263e-05
-0.000331433 -0.0002495 -3.65985e-06
-1.04263e-05 -3.65985e-06 -0.000470743
0.00169342 -0.000418083 -5.69322e-07
-0.000418083 7.05873e-05 -4.08407e-07
-5.69322e-07 -4.08407e-07 -9.58689e-05
0.00210135 -0.000381528 -4.69837e-06
-0.000381528 0.000173424 -4.3628e-07
-4.69837e-06 -4.3628e-07 6.08139e-05
0.0011765 -0.000349193 -1.75157e-06
-0.000349193 -4.93495e-05 1.91631e-06
-1.75157e-06 1.91631e-06 -0.000285867
0.00177932 -0.0003568 -2.47707e-06
-0.0003568 0.000123627 -1.36352e-07
-2.47707e-06 -1.36352e-07 -4.85617e-05
0.00178122 -0.000288396 -2.64527e-06
-0.000288396 3.27191e-05 -1.34957e-06
-2.64527e-06 -1.34957e-06 -7.76364e-05
0.00141302 -0.000316099 2.27422e-06
-0.000316099 9.10842e-06 4.39931e-06
2.27422e-06 4.39931e-06 -0.000197803
0.00169968 -0.000284102 -3.57326e-08
-0.000284102 8.93363e-05 5.25976e-07
-3.57326e-08 5.25976e-07 -5.60424e-05
0.00177763 -0.000239901 -1.5051e-06
-0.000239901 9.54956e-05 -2.10324e-06
-1.5051e-06 -2.10324e-06 -9.2338e-06
0.00180292 -0.000217279 -1.35361e-06
-0.000217279 0.000166651 -1.07427e-06
-1.35361e-06 -1.07427e-06 5.43114e-05
0.00160855 -0.000230977 -2.39792e-06
-0.000230977 6.06701e-05 2.82262e-06
-2.39792e-06 2.82262e-06 -7.31843e-05
0.00171412 -0.000234445 -2.76809e-07
-0.000234445 0.000159816 -5.57734e-06
-2.76809e-07 -5.57734e-06 8.55603e-06
0.00162114 -0.000259444 -3.69632e-06
-0.000259444 0.0001795 -1.51099e-06
-3.69632e-06 -1.51099e-06 -9.39347e-06
0.00157836 -0.000265989 1.1339e-06
-0.000265989 0.000131146 5.52375e-07
1.1339e-06 5.52375e-07 -5.94087e-05
0.00147392 -0.000258054 4.15053e-07
-0.000258054 4.56984e-05 6.18159e-06
4.15053e-07 6.18159e-06 -0.000127337
0.0012451 -0.000235686 -6.63976e-06
-0.000235686 8.02718e-05 1.91541e-06
-6.63976e-06 1.91541e-06 -0.000113157
0.00133847 -0.000267617 -1.71277e-08
-0.000267617 7.25944e-05 -1.19006e-07
-1.71277e-08 -1.19006e-07 -0.000138008
0.00165819 -0.000307907 3.13611e-06
-0.000307907 0.000239332 1.58054e-07
3.13611e-06 1.58054e-07 1.39492e-05
0.00110753 -0.00019936 -2.0137e-06
-0.00019936 0.000163112 3.14061e-06
-2.0137e-06 3.14061e-06 -1.67599e-05
0.00123393 -0.000231483 1.13099e-06
-0.000231483 0.000177099 1.1504e-06
1.13099e-06 1.1504e-06 -1.92547e-05
0.000818902 -0.000226219 1.58046e-06
-0.000226219 -0.0001248 -5.62161e-06
1.58046e-06 -5.62161e-06 -0.000334361
0.000739621 -0.000107229 -4.27885e-06
-0.000107229 4.70003e-05 3.82762e-06
-4.27885e-06 3.82762e-06 -7.99875e-05
0.00106283 -0.000184113 1.81296e-07
-0.000184113 0.000201596 -6.33844e-07
1.81296e-07 -6.33844e-07 3.37663e-05
0.00116997 -0.000211956 -1.2551e-06
-0.000211956 0.000232097 -2.86703e-06
-1.2551e-06 -2.86703e-06 4.77364e-05
0.000452479 3.01388e-05 -5.88642e-07
3.01388e-05 -8.44021e-05 8.38638e-06
-5.88642e-07 8.38638e-06 -0.000129719
0.000746393 -6.69565e-05 3.39574e-07
-6.69565e-05 8.09072e-05 3.7131e-07
3.39574e-07 3.7131e-07 -3.41236e-05
0.000979847 -0.000137369 7.19196e-07
-0.000137369 0.000210551 -2.53358e-07
7.19196e-07 -2.53358e-07 5.29755e-05
0.00267793 0.000124499 -4.1488e-05
0.000124499 0.00121749 2.2728e-06
-4.1488e-05 2.2728e-06 0.00121516
0.000554904 5.64404e-05 -2.73906e-07
5.64404e-05 -1.92098e-05 -4.85004e-07
-2.73906e-07 -4.85004e-07 -5.62135e-05
0.000811582 -5.56064e-05 2.75099e-06
-5.56064e-05 0.000123946 -4.29393e-06
2.75099e-06 -4.29393e-06 3.03825e-05
0.00167963 8.81479e-05 1.82152e-05
8.81479e-05 0.000632041 -9.7886e-08
1.82152e-05 -9.7886e-08 0.000630301
0.00060962 6.61807e-05 -7.32476e-07
6.61807e-05 7.88777e-06 -5.47181e-06
-7.32476e-07 -5.47181e-06 -2.21596e-05
0.00244708 9.94794e-05 3.39966e-05
9.94794e-05 0.00107178 -2.69949e-06
3.39966e-05 -2.69949e-06 0.00107616
0.000907654 0.000100278 9.25683e-07
0.000100278 0.00016093 8.30273e-07
9.25683e-07 8.30273e-07 4.77261e-05
0.000672708 4.55636e-05 -2.47345e-07
4.55636e-05 3.0882e-05 5.10845e-07
-2.47345e-07 5.10845e-07 -7.21869e-05
0.00070604 9.05117e-06 -3.97011e-07
9.05117e-06 5.91743e-05 -1.68886e-06
-3.97011e-07 -1.68886e-06 -4.49786e-05
0.000890177 6.07563e-05 9.363e-07
6.07563e-05 0.000163431 8.03311e-07
9.363e-07 8.03311e-07 5.68347e-05
0.000728886 7.34697e-06 2.22892e-07
7.34697e-06 6.90314e-05 3.53487e-08
2.22892e-07 3.53487e-08 -2.80945e-05
0.000675483 -1.4713e-05 -1.37234e-06
-1.4713e-05 2.42382e-05 -3.50348e-06
-1.37234e-06 -3.50348e-06 -4.44671e-05
0.0005798 -5.15113e-05 -2.96168e-07
-5.15113e-05 -2.92315e-05 -5.63261e-06
-2.96168e-07 -5.63261e-06 -5.68039e-05
0.000656388 -1.14791e-05 2.19605e-07
-1.14791e-05 9.85146e-06 -8.58035e-08
2.19605e-07 -8.58035e-08 -5.39229e-05
0.000676937 -8.52666e-06 3.00698e-07
-8.52666e-06 2.92949e-05 1.58212e-06
3.00698e-07 1.58212e-06 -5.60323e-05
0.00260318 -8.63549e-05 -3.64293e-05
-8.63549e-05 0.00114659 -3.70494e-06
-3.64293e-05 -3.70494e-06 0.00115377
0.000570877 -4.20903e-05 -4.62192e-07
-4.20903e-05 -4.30329e-05 3.24994e-08
-4.62192e-07 3.24994e-08 -6.69022e-05
0.0006538 4.29612e-06 1.72668e-06
4.29612e-06 6.14984e-06 2.80041e-06
1.72668e-06 2.80041e-06 -5.4478e-05
0.00251516 -7.39613e-05 -3.8362e-06
-7.39613e-05 0.00108848 2.46463e-07
-3.8362e-06 2.46463e-07 0.00109817
0.000583426 -3.55469e-05 1.7511e-07
-3.55469e-05 -4.28319e-05 4.78017e-06
1.7511e-07 4.78017e-06 -6.32534e-05
0.00238835 -6.01918e-05 2.21927e-05
-6.01918e-05 0.00100808 4.42585e-06
2.21927e-05 4.42585e-06 0.00102074
0.00054271 0.000272485 -0.000100633
0.000272485 0.00124495 5.67795e-05
-0.000100633 5.67795e-05 0.000387371
-0.00146863 -9.5502e-05 6.76144e-06
-9.5502e-05 0.00122963 1.25823e-05
6.76144e-06 1.25823e-05 -0.000396276
0.00271085 -7.40394e-05 -5.4122e-05
-7.40394e-05 0.00121099 -5.39082e-06
-5.4122e-05 -5.39082e-06 0.000317664
0.00056252 2.10289e-05 2.1862e-06
2.10289e-05 -2.88513e-05 -5.85971e-07
2.1862e-06 -5.85971e-07 -0.000128912
0.000660914 3.07207e-05 1.26466e-06
3.07207e-05 3.2104e-05 3.79778e-07
1.26466e-06 3.79778e-07 -7.84951e-05
0.00114174 0.000174488 -8.62464e-07
0.000174488 0.000322962 4.95205e-07
-8.62464e-07 4.95205e-07 0.000190913
0.00142588 0.00023229 7.38846e-07
0.00023229 0.000438639 -5.88758e-07
7.38846e-07 -5.88758e-07 0.000276768
0.000966277 0.000132898 -5.21413e-06
0.000132898 0.000235858 -1.88282e-06
-5.21413e-06 -1.88282e-06 9.66494e-05
0.000895299 8.54116e-05 2.05939e-06
8.54116e-05 0.00017581 2.17159e-06
2.05939e-06 2.17159e-06 5.88997e-05
0.000783444 5.42496e-05 3.03255e-06
5.42496e-05 0.000103734 1.83395e-06
3.03255e-06 1.83395e-06 -9.51999e-06
0.000697972 0.000103575 -2.55816e-06
0.000103575 8.06357e-05 -2.42313e-06
-2.55816e-06 -2.42313e-06 -5.06491e-05
-0.000525826 7.23633e-05 -1.48138e-06
7.23633e-05 -0.00064089 -1.30428e-07
-1.48138e-06 -1.30428e-07 -0.000779881
0.00111189 0.000209213 3.28911e-08
0.000209213 0.00021145 -4.39385e-06
3.28911e-08 -4.39385e-06 0.000101042
0.00222963 0.000443132 3.74993e-06
0.000443132 0.000527109 -1.3002e-05
3.74993e-06 -1.3002e-05 0.000340209
0.000567874 0.000147185 -4.32392e-06
0.000147185 -2.46953e-05 -3.46358e-07
-4.32392e-06 -3.46358e-07 -0.00012237
0.000626066 3.73842e-05 1.89479e-06
3.73842e-05 3.74977e-05 -9.99769e-07
1.89479e-06 -9.99769e-07 -6.1287e-05
0.0110483 0.000453393 -6.28761e-05
0.000453393 0.00322235 3.2512e-05
-6.28761e-05 3.2512e-05 0.00192151
-0.000995844 -0.000504458 -0.00012236
-0.000504458 0.00084052 -3.35805e-05
-0.00012236 -3.35805e-05 -7.59799e-05
-0.00041993 -0.000636523 4.66564e-05
-0.000636523 0.000912548 -2.97584e-05
4.66564e-05 -2.97584e-05 -0.000306252
-0.00309919 -0.000555931 -1.65508e-05
-0.000555931 -0.00121685 8.78489e-05
-1.65508e-05 8.78489e-05 -0.0011403
0.0103461 0.000430751 1.3833e-05
0.000430751 0.00495282 -4.82652e-06
1.3833e-05 -4.82652e-06 0.00195537
0.00131209 0.000307882 -4.83345e-05
0.000307882 -0.000126886 -1.32478e-05
-4.83345e-05 -1.32478e-05 -0.000261714
0.00131324 0.000531989 -2.10562e-05
0.000531989 0.000105337 -1.10694e-05
-2.10562e-05 -1.10694e-05 -0.000308785
0.00898127 0.000388575 3.59367e-05
0.000388575 0.00313169 1.84228e-05
3.59367e-05 1.84228e-05 0.00137974
0.00511835 0.00101836 -2.00332e-05
0.00101836 0.000864717 -3.78672e-05
-2.00332e-05 -3.78672e-05 0.000347569
0.00206489 0.000556088 -4.60247e-07
0.000556088 0.00031047 8.47741e-07
-4.60247e-07 8.47741e-07 0.000148502
0.00095269 0.000366123 4.98112e-06
0.000366123 3.87734e-05 -2.75982e-06
4.98112e-06 -2.75982e-06 -0.000147267
0.000994133 0.000211129 -1.49019e-05
0.000211129 0.000254438 1.06505e-05
-1.49019e-05 1.06505e-05 0.00015869
0.00252758 0.000577341 -3.50892e-05
0.000577341 0.000689271 -1.3351e-05
-3.50892e-05 -1.3351e-05 0.000450109
0.00226892 0.000660198 4.59146e-07
0.000660198 3.67676e-05 1.65501e-05
4.59146e-07 1.65501e-05 -5.987e-05
0.00048212 -0.0002737 -2.15426e-05
-0.0002737 -0.00250515 -3.27967e-06
-2.15426e-05 -3.27967e-06 -0.00299501
0.00238839 -0.000267721 -1.28623e-06
-0.000267721 0.00139489 -1.56749e-05
-1.28623e-06 -1.56749e-05 0.00138229
-0.00345337 9.6272e-06 0.000101461
9.6272e-06 0.000968699 -8.27755e-06
0.000101461 -8.27755e-06 -0.000748202
0.00238737 -0.000607231 -4.02999e-05
-0.000607231 0.000428047 3.92409e-06
-4.02999e-05 3.92409e-06 0.000318959
0.00359055 -0.000897845 2.45201e-05
-0.000897845 0.000849839 -1.46903e-05
2.45201e-05 -1.46903e-05 -0.000207992
0.00127554 -0.000244382 0.000139208
-0.000244382 0.00147862 1.46136e-05
0.000139208 1.46136e-05 0.000835042
0.0108505 -9.33447e-05 -9.546e-05
-9.33447e-05 0.00372319 5.12086e-05
-9.546e-05 5.12086e-05 0.00205797
0.00075113 -0.000330946 -1.8935e-05
-0.000330946 -0.00029676 -1.97869e-06
-1.8935e-05 -1.97869e-06 -0.000429447
0.00769645 7.12054e-05 -2.21182e-05
7.12054e-05 0.00150126 2.47186e-05
-2.21182e-05 2.47186e-05 0.000543632
0.00447673 -0.000537411 6.38905e-05
-0.000537411 0.000209302 3.74251e-07
6.38905e-05 3.74251e-07 -0.000380198
0.00210824 -0.000328525 2.97319e-05
-0.000328525 0.000386639 -7.78431e-06
2.97319e-05 -7.78431e-06 9.40451e-05
0.00288707 -0.000162827 -7.68931e-05
-0.000162827 0.00010513 -9.45011e-06
-7.68931e-05 -9.45011e-06 -0.000108958
-0.000921826 -0.000212086 -1.6572e-05
-0.000212086 -0.00134249 4.35215e-06
-1.6572e-05 4.35215e-06 -0.00127672
0.00157039 -0.000368144 5.33825e-07
-0.000368144 -0.000130793 -7.84009e-07
5.33825e-07 -7.84009e-07 -0.000132467
0.00205969 -0.000291457 8.71807e-06
-0.000291457 3.02345e-05 -6.2364e-06
8.71807e-06 -6.2364e-06 5.48381e-05
0.00133556 -0.000390083 -1.98346e-06
-0.000390083 -0.000105496 1.40477e-06
-1.98346e-06 1.40477e-06 -0.000266004
0.00180962 -0.000354639 -1.65196e-06
-0.000354639 3.7079e-05 -1.76946e-08
-1.65196e-06 -1.76946e-08 -7.3037e-05
0.00202959 -0.000267327 -1.23081e-06
-0.000267327 8.03725e-05 1.63362e-06
-1.23081e-06 1.63362e-06 2.9461e-05
0.00154919 -0.00033935 -2.21768e-06
-0.00033935 2.91016e-06 4.20847e-06
-2.21768e-06 4.20847e-06 -0.000168591
0.00182625 -0.000288516 5.50147e-07
-0.000288516 5.92028e-05 1.46576e-06
5.50147e-07 1.46576e-06 -5.08087e-05
0.0017507 -0.000239141 -5.1377e-07
-0.000239141 1.62421e-05 9.70453e-07
-5.1377e-07 9.70453e-07 -6.48363e-05
0.00161887 -0.000275256 2.71575e-06
-0.000275256 4.88034e-05 5.20415e-06
2.71575e-06 5.20415e-06 -9.46436e-05
0.0017379 -0.000239538 -5.79301e-08
-0.000239538 7.30361e-05 1.20803e-06
-5.79301e-08 1.20803e-06 -3.26043e-05
0.00198199 -0.000232843 5.13985e-07
-0.000232843 0.000235366 -2.92045e-07
5.13985e-07 -2.92045e-07 0.000140174
0.00173435 -0.000216951 -3.61852e-06
-0.000216951 0.000119989 3.43755e-06
-3.61852e-06 3.43755e-06 1.04637e-05
0.00177564 -0.000220917 2.22762e-06
-0.000220917 0.000177468 -3.41135e-06
2.22762e-06 -3.41135e-06 5.10418e-05
0.00163281 -0.000230414 1.03633e-06
-0.000230414 7.46988e-05 7.71639e-06
1.03633e-06 7.71639e-06 -5.51735e-05
0.00171742 -0.000236082 6.55141e-07
-0.000236082 0.000162616 -8.37258e-07
6.55141e-07 -8.37258e-07 1.06894e-05
0.00162759 -0.000225288 -1.68235e-06
-0.000225288 0.000156488 -2.97843e-06
-1.68235e-06 -2.97843e-06 -6.79817e-06
0.00137459 -0.000224173 -6.3202e-06
-0.000224173 9.4367e-05 6.5126e-07
-6.3202e-06 6.5126e-07 -8.48853e-05
0.00167076 -0.000263786 4.09272e-07
-0.000263786 0.000210946 -7.3164e-07
4.09272e-07 -7.3164e-07 2.04099e-05
0.00166747 -0.00027052 2.54412e-06
-0.00027052 0.000179746 3.67647e-06
2.54412e-06 3.67647e-06 -1.08539e-05
0.0012223 -0.000212041 -5.93386e-06
-0.000212041 0.000138479 3.05126e-06
-5.93386e-06 3.05126e-06 -4.05543e-05
0.00124222 -0.000234412 -1.7181e-06
-0.000234412 7.99759e-05 7.53993e-07
-1.7181e-06 7.53993e-07 -0.000112694
0.00139884 -0.000271218 4.20012e-06
-0.000271218 0.000106421 -1.29659e-06
4.20012e-06 -1.29659e-06 -0.000103138
0.0007608 -0.000129118 -5.23301e-06
-0.000129118 1.4667e-05 4.97367e-06
-5.23301e-06 4.97367e-06 -0.000122034
0.0011078 -0.000199567 9.06276e-07
-0.000199567 0.000160243 2.40801e-07
9.06276e-07 2.40801e-07 -1.92446e-05
0.00120378 -0.000227794 3.03792e-06
-0.000227794 0.000157518 -1.92975e-06
3.03792e-06 -1.92975e-06 -3.82677e-05
0.000446541 -3.12689e-05 -8.1757e-06
-3.12689e-05 -0.000108837 9.81665e-06
-8.1757e-06 9.81665e-06 -0.000161802
0.000803894 -0.000120521 -2.45595e-07
-0.000120521 8.29112e-05 1.2223e-07
-2.45595e-07 1.2223e-07 -4.58881e-05
0.00107791 -0.000183349 1.19032e-06
-0.000183349 0.000207384 -1.97909e-06
1.19032e-06 -1.97909e-06 4.00796e-05
0.00316887 0.000145832 -5.57501e-05
0.000145832 0.00150343 2.19567e-06
-5.57501e-05 2.19567e-06 0.00149568
0.000562513 1.13642e-05 5.41511e-07
1.13642e-05 -2.59675e-05 -4.0698e-07
5.41511e-07 -4.0698e-07 -7.09296e-05
0.000836439 -0.0001098 4.00522e-06
-0.0001098 0.000131229 -3.61579e-06
4.00522e-06 -3.61579e-06 1.27754e-05
0.00282023 0.000124562 4.51052e-06
0.000124562 0.00129774 3.4287e-07
4.51052e-06 3.4287e-07 0.00129567
0.000649936 4.29766e-05 2.54819e-06
4.29766e-05 3.18293e-05 -6.85062e-06
2.54819e-06 -6.85062e-06 -4.36515e-06
0.00259992 0.000109626 4.46705e-05
0.000109626 0.00116531 -2.27309e-06
4.46705e-05 -2.27309e-06 0.00116739
0.00096665 0.000178883 1.45688e-06
0.000178883 0.000169948 -1.81426e-06
1.45688e-06 -1.81426e-06 1.85011e-05
0.000820232 0.000127287 8.17455e-07
0.000127287 0.000118999 -8.28625e-08
8.17455e-07 -8.28625e-08 -7.45513e-07
0.000557388 2.19641e-05 -9.7247e-07
2.19641e-05 -3.22535e-05 -7.29578e-07
-9.7247e-07 -7.29578e-07 -0.000141423
0.000460175 1.19966e-05 8.75691e-07
1.19966e-05 -9.16584e-05 5.05682e-07
8.75691e-07 5.05682e-07 -0.000189854
0.000619725 -7.56343e-06 -1.70268e-07
-7.56343e-06 5.56279e-06 3.76717e-07
-1.70268e-07 3.76717e-07 -9.53751e-05
0.000661797 -1.26488e-05 -1.48721e-06
-1.26488e-05 1.96664e-05 -3.63052e-06
-1.48721e-06 -3.63052e-06 -5.68622e-05
0.000661438 -1.07551e-05 4.36303e-07
-1.07551e-05 2.40692e-05 1.84462e-06
4.36303e-07 1.84462e-06 -6.74786e-05
0.000642098 -1.95045e-05 3.30507e-07
-1.95045e-05 6.58821e-06 -1.85261e-07
3.30507e-07 -1.85261e-07 -6.22982e-05
0.000580587 -5.58723e-05 -3.92348e-07
-5.58723e-05 -2.03306e-05 -6.15103e-06
-3.92348e-07 -6.15103e-06 -5.1216e-05
0.00265008 -9.76269e-05 -4.20955e-05
-9.76269e-05 0.00118073 -3.20765e-06
-4.20955e-05 -3.20765e-06 0.00118561
0.000562281 -4.85765e-05 -2.99009e-08
-4.85765e-05 -4.01831e-05 2.05078e-08
-2.99009e-08 2.05078e-08 -6.7173e-05
0.000626269 -9.88352e-06 1.93666e-06
-9.88352e-06 -6.439e-06 3.07967e-06
1.93666e-06 3.07967e-06 -7.0395e-05
0.00259589 -8.59599e-05 -3.68671e-06
-8.59599e-05 0.00114191 2.79835e-07
-3.68671e-06 2.79835e-07 0.00114909
0.000563332 -4.11228e-05 4.71905e-07
-4.11228e-05 -4.76362e-05 5.13046e-06
4.71905e-07 5.13046e-06 -7.13158e-05
0.00248433 -7.29617e-05 2.75704e-05
-7.29617e-05 0.0010699 4.21831e-06
2.75704e-05 4.21831e-06 0.00107986
0.0101902 0.00039134 0.000146585
0.00039134 0.0026912 7.27097e-05
0.000146585 7.27097e-05 0.00173626
-0.0024667 -0.000506972 -8.25876e-05
-0.000506972 -0.00168452 -8.47283e-06
-8.25876e-05 -8.47283e-06 -0.00183925
-0.00346276 0.00012809 -3.79037e-05
0.00012809 0.000259248 -2.95395e-05
-3.79037e-05 -2.95395e-05 -0.00168619
0.000643151 3.5907e-06 5.10541e-06
3.5907e-06 1.80141e-05 1.22249e-06
5.10541e-06 1.22249e-06 -8.91669e-05
0.000821053 0.000152858 -6.08512e-07
0.000152858 0.000145615 1.21839e-06
-6.08512e-07 1.21839e-06 1.96394e-05
0.00116857 0.000152706 1.2007e-07
0.000152706 0.000347288 -1.5673e-07
1.2007e-07 -1.5673e-07 0.000207109
0.00117733 0.000210103 -2.17022e-06
0.000210103 0.000300634 1.86264e-07
-2.17022e-06 1.86264e-07 0.000143435
0.00151062 0.000257469 1.85332e-05
0.000257469 0.000413279 -1.43178e-06
1.85332e-05 -1.43178e-06 0.000222221
0.000298341 0.00013968 -2.36028e-06
0.00013968 -0.000170726 -1.90452e-06
-2.36028e-06 -1.90452e-06 -0.000319535
0.000512005 0.000106288 -9.11156e-07
0.000106288 -1.64335e-05 -1.8608e-06
-9.11156e-07 -1.8608e-06 -0.000145975
0.000225202 0.000140346 4.50941e-07
0.000140346 -0.000229893 1.16947e-06
4.50941e-07 1.16947e-06 -0.000385438
0.00100195 0.000202193 -9.81683e-07
0.000202193 0.000158549 3.97488e-07
-9.81683e-07 3.97488e-07 4.35709e-05
0.000315907 0.000200211 2.31899e-06
0.000200211 -0.000324344 -5.34558e-07
2.31899e-06 -5.34558e-07 -0.000474374
0.00333021 0.000486845 -3.75162e-06
0.000486845 0.00112288 -4.7473e-06
-3.75162e-06 -4.7473e-06 0.000952855
0.00195176 0.000450869 -4.37031e-06
0.000450869 0.000271054 2.03032e-06
-4.37031e-06 2.03032e-06 0.000104701
0.0016147 0.000393719 3.75436e-06
0.000393719 0.00021607 -3.40071e-06
3.75436e-06 -3.40071e-06 4.48418e-05
0.000468302 0.000155019 -1.84251e-06
0.000155019 -6.30757e-05 5.60642e-06
-1.84251e-06 5.60642e-06 -0.000161961
0.00462398 0.000409683 -1.61173e-05
0.000409683 0.000280321 1.13073e-05
-1.61173e-05 1.13073e-05 0.000219481
0.00754246 0.000302911 4.9813e-05
0.000302911 0.00155333 3.39693e-05
4.9813e-05 3.39693e-05 0.000170134
0.00563892 -0.00097358 4.29109e-05
-0.00097358 0.00311147 -6.21255e-05
4.29109e-05 -6.21255e-05 0.00272578
0.00412022 0.000817671 0.000279972
0.000817671 0.000486873 0.00010764
0.000279972 0.00010764 -0.00226257
0.00167238 0.000519739 1.77308e-06
0.000519739 0.000134345 1.95895e-05
1.77308e-06 1.95895e-05 6.60551e-05
0.00325972 0.000802931 -7.16752e-05
0.000802931 4.57677e-05 -2.35681e-05
-7.16752e-05 -2.35681e-05 -0.000251276
0.00336974 0.00066659 4.58884e-05
0.00066659 0.000590218 2.27267e-05
4.58884e-05 2.27267e-05 0.000592114
0.00270947 0.000601383 3.37791e-06
0.000601383 0.000579674 8.44057e-06
3.37791e-06 8.44057e-06 0.000430411
0.000705588 0.000322038 -5.4629e-06
0.000322038 -3.73376e-05 1.36773e-05
-5.4629e-06 1.36773e-05 -0.00021398
0.00313603 0.000736843 -0.000103745
0.000736843 0.000446335 -3.40394e-05
-0.000103745 -3.40394e-05 0.000269784
0.00310068 -0.000189335 -9.99192e-05
-0.000189335 0.000485665 7.64507e-06
-9.99192e-05 7.64507e-06 0.000161695
0.00972081 -0.000208752 4.60335e-06
-0.000208752 0.00297533 -3.59187e-06
4.60335e-06 -3.59187e-06 0.00229393
-0.00819237 -0.000347416 0.000257
-0.000347416 -0.00445148 -6.63084e-06
0.000257 -6.63084e-06 -0.0042377
0.00115103 -0.000375588 -3.73209e-05
-0.000375588 -0.000207312 8.62708e-06
-3.73209e-05 8.62708e-06 -0.000280769
0.00599417 -0.000651073 0.000103061
-0.000651073 0.00105006 1.35074e-05
0.000103061 1.35074e-05 0.000451447
0.00141688 -0.000392483 5.09393e-05
-0.000392483 -0.00166391 5.59916e-05
5.09393e-05 5.59916e-05 -0.00273332
0.00139786 -0.000267473 2.005e-05
-0.000267473 -2.36258e-05 -4.66294e-07
2.005e-05 -4.66294e-07 -0.000203985
0.00239358 -6.21592e-05 -1.23873e-06
-6.21592e-05 -0.000274242 6.64932e-06
-1.23873e-06 6.64932e-06 -0.000483548
0.0039601 -0.000291612 1.5573e-05
-0.000291612 0.00103567 -6.20905e-06
1.5573e-05 -6.20905e-06 0.00103345
0.00336812 -5.62413e-05 6.77475e-05
-5.62413e-05 0.000780268 -1.45146e-06
6.77475e-05 -1.45146e-06 0.000757941
0.000193414 -0.000306831 -7.44393e-06
-0.000306831 -0.000844604 5.74549e-06
-7.44393e-06 5.74549e-06 -0.000841305
0.00173383 -0.000285713 -2.55016e-07
-0.000285713 -0.000142468 7.47335e-07
-2.55016e-07 7.47335e-07 -0.000121518
0.0017134 -0.00017633 9.72084e-06
-0.00017633 -0.000156154 -5.5589e-07
9.72084e-06 -5.5589e-07 -0.000101767
0.00155154 -0.000331801 2.90951e-06
-0.000331801 -8.77242e-05 2.10995e-07
2.90951e-06 2.10995e-07 -0.000194373
0.00191831 -0.000263702 2.10604e-06
-0.000263702 2.67887e-05 9.34828e-07
2.10604e-06 9.34828e-07 -2.62026e-05
0.00182375 -0.000198462 1.24715e-06
-0.000198462 3.41038e-05 1.67533e-06
1.24715e-06 1.67533e-06 -4.78283e-06
0.0018447 -0.000287555 6.48506e-06
-0.000287555 7.00185e-05 3.56666e-06
6.48506e-06 3.56666e-06 -3.94308e-05
0.00183658 -0.000241095 1.02172e-06
-0.000241095 7.06109e-05 4.05492e-07
1.02172e-06 4.05492e-07 -1.041e-05
0.00198847 -0.000208593 -7.75485e-07
-0.000208593 0.000208583 1.02361e-06
-7.75485e-07 1.02361e-06 0.000129991
0.00169523 -0.000238373 2.25323e-06
-0.000238373 4.95766e-05 4.03973e-06
2.25323e-06 4.03973e-06 -5.68296e-05
0.00180317 -0.000225863 2.28198e-08
-0.000225863 0.000139105 5.83474e-07
2.28198e-08 5.83474e-07 4.30309e-05
0.00166071 -0.000211882 3.90467e-06
-0.000211882 8.87213e-05 -1.9865e-06
3.90467e-06 -1.9865e-06 -2.1036e-05
0.00167358 -0.000216961 -3.00458e-06
-0.000216961 7.81685e-05 7.35236e-06
-3.00458e-06 7.35236e-06 -2.8607e-05
0.00182211 -0.000221073 -1.92534e-06
-0.000221073 0.000203245 8.40641e-08
-1.92534e-06 8.40641e-08 7.99825e-05
0.00171279 -0.000206823 8.50313e-07
-0.000206823 0.000186875 -1.89526e-06
8.50313e-07 -1.89526e-06 4.12097e-05
0.00172046 -0.000237363 1.6872e-06
-0.000237363 0.000165007 3.46768e-06
1.6872e-06 3.46768e-06 1.25025e-05
0.00167836 -0.0002277 6.99107e-07
-0.0002277 0.000186256 -7.34164e-07
6.99107e-07 -7.34164e-07 2.20371e-05
0.00163115 -0.000209752 -3.0192e-06
-0.000209752 0.000218147 -6.39899e-07
-3.0192e-06 -6.39899e-07 5.47729e-05
0.000986417 -0.00018151 -8.73907e-06
-0.00018151 -5.81261e-05 1.99825e-06
-8.73907e-06 1.99825e-06 -0.00022279
0.00151345 -0.00023428 -1.12104e-06
-0.00023428 0.000176873 1.94534e-08
-1.12104e-06 1.94534e-08 -3.77564e-06
0.0017096 -0.000267232 4.13189e-06
-0.000267232 0.000235987 1.55019e-07
4.13189e-06 1.55019e-07 4.39824e-05
0.000943664 -0.000155337 -8.0988e-06
-0.000155337 5.51512e-05 6.07255e-06
-8.0988e-06 6.07255e-06 -8.76204e-05
0.0011754 -0.000206616 2.98819e-07
-0.000206616 0.000111663 6.95212e-07
2.98819e-07 6.95212e-07 -6.60493e-05
0.00119406 -0.000229218 2.74406e-06
-0.000229218 5.38569e-05 -6.66281e-07
2.74406e-06 -6.66281e-07 -0.000137399
0.000456238 -6.42659e-05 -1.20348e-05
-6.42659e-05 -0.00011886 1.10984e-05
-1.20348e-05 1.10984e-05 -0.00018231
0.00086794 -0.00014157 2.16611e-07
-0.00014157 7.65044e-05 -1.70213e-08
2.16611e-07 -1.70213e-08 -6.2274e-05
0.00112582 -0.000201202 3.86019e-06
-0.000201202 0.000167931 -2.52865e-06
3.86019e-06 -2.52865e-06 -1.14471e-05
0.00379974 0.000154946 -8.86308e-05
0.000154946 0.00186675 2.87705e-06
-8.86308e-05 2.87705e-06 0.00185631
0.000591871 -3.87312e-05 5.04949e-07
-3.87312e-05 -2.78196e-05 -2.60078e-07
5.04949e-07 -2.60078e-07 -8.26062e-05
0.000902032 -0.000133935 5.43868e-06
-0.000133935 0.000137148 -4.31069e-06
5.43868e-06 -4.31069e-06 6.73314e-06
0.00336037 0.000129547 6.12942e-06
0.000129547 0.00160924 2.75903e-07
6.12942e-06 2.75903e-07 0.00160549
0.000679237 1.34707e-06 6.66665e-06
1.34707e-06 3.73736e-05 -8.21863e-06
6.66665e-06 -8.21863e-06 -7.54846e-06
0.00296281 0.00010893 7.35526e-05
0.00010893 0.00137591 -2.60326e-06
7.35526e-05 -2.60326e-06 0.00137786
0.00134323 0.000227301 -7.79791e-07
0.000227301 0.000322693 -5.83153e-06
-7.79791e-07 -5.83153e-06 0.000139738
0.00125307 0.000202447 4.97463e-07
0.000202447 0.000336368 1.09448e-07
4.97463e-07 1.09448e-07 0.000180979
0.000776479 0.000116451 -1.21985e-06
0.000116451 7.2142e-05 -3.13841e-06
-1.21985e-06 -3.13841e-06 -6.2088e-05
0.000696994 0.000141892 -4.74398e-08
0.000141892 5.73083e-05 2.98585e-07
-4.74398e-08 2.98585e-07 -6.78455e-05
0.000583252 3.92854e-05 -3.77716e-07
3.92854e-05 -1.72103e-05 -2.06902e-07
-3.77716e-07 -2.06902e-07 -0.000130139
0.000740574 4.79051e-05 -2.53467e-06
4.79051e-05 7.37917e-05 -3.31282e-06
-2.53467e-06 -3.31282e-06 -2.19923e-05
0.000537297 -2.27538e-05 6.51563e-07
-2.27538e-05 -4.41593e-05 1.62378e-06
6.51563e-07 1.62378e-06 -0.000142955
0.000648171 -1.47232e-05 2.93398e-07
-1.47232e-05 1.44237e-05 -2.82565e-07
2.93398e-07 -2.82565e-07 -6.30405e-05
0.000582325 -5.36453e-05 -8.11701e-07
-5.36453e-05 -1.31737e-05 -6.7516e-06
-8.11701e-07 -6.7516e-06 -4.77291e-05
0.000612007 -2.29279e-05 1.44922e-06
-2.29279e-05 -9.4438e-06 3.41417e-06
1.44922e-06 3.41417e-06 -7.84056e-05
0.00055562 -5.41016e-05 2.15156e-07
-5.41016e-05 -3.55618e-05 -3.85677e-08
2.15156e-07 -3.85677e-08 -6.59322e-05
0.00270823 -0.000108237 -4.86482e-05
-0.000108237 0.00122118 -2.6526e-06
-4.86482e-05 -2.6526e-06 0.00122379
0.00264539 -9.73592e-05 -2.72931e-06
-9.73592e-05 0.00117755 2.71427e-07
-2.72931e-06 2.71427e-07 0.00118236
0.000551521 -4.42009e-05 1.30748e-06
-4.42009e-05 -4.75917e-05 5.49601e-06
1.30748e-06 5.49601e-06 -7.38306e-05
0.0025738 -8.52574e-05 3.34795e-05
-8.52574e-05 0.00112865 3.9016e-06
3.34795e-05 3.9016e-06 0.00113591
0.00318573 -1.93456e-05 -1.08943e-05
-1.93456e-05 -3.51713e-05 2.64739e-05
-1.08943e-05 2.64739e-05 -2.05255e-05
0.00189527 -0.000472661 4.02075e-05
-0.000472661 -0.00163063 2.01759e-05
4.02075e-05 2.01759e-05 -0.00267176
0.00547096 -0.000602039 -3.79785e-05
-0.000602039 0.00217669 -5.58088e-05
-3.79785e-05 -5.58088e-05 0.00234862
0.00143975 0.000265982 9.2516e-06
0.000265982 0.000225873 5.29892e-06
9.2516e-06 5.29892e-06 1.74011e-05
0.00138644 0.000177661 2.95096e-06
0.000177661 0.000469057 1.33028e-06
2.95096e-06 1.33028e-06 0.000326464
0.000979164 0.000192506 -1.70534e-06
0.000192506 0.00019198 2.15636e-06
-1.70534e-06 2.15636e-06 3.85535e-05
0.000705608 0.000177056 8.97049e-07
0.000177056 5.51312e-05 1.35884e-06
8.97049e-07 1.35884e-06 -0.000101974
0.00115323 0.000230362 -1.42159e-08
0.000230362 0.000213901 -3.64462e-06
-1.42159e-08 -3.64462e-06 2.46399e-05
0.000755663 0.000219126 1.01569e-06
0.000219126 -6.62767e-05 -4.78082e-07
1.01569e-06 -4.78082e-07 -0.000226821
0.000940596 0.000206258 -1.24539e-06
0.000206258 0.000162043 -1.22736e-06
-1.24539e-06 -1.22736e-06 -9.93845e-06
0.000829363 0.000194234 1.51484e-06
0.000194234 7.21419e-05 5.47714e-06
1.51484e-06 5.47714e-06 -4.70516e-05
0.00115803 0.000268017 1.44569e-06
0.000268017 0.000137046 -3.56028e-07
1.44569e-06 -3.56028e-07 -2.06647e-05
0.00237686 0.000416382 2.3366e-06
0.000416382 0.000605782 6.68881e-06
2.3366e-06 6.68881e-06 0.000442394
0.0016806 0.000395277 -1.24441e-06
0.000395277 0.000126908 -5.62088e-07
-1.24441e-06 -5.62088e-07 -4.76797e-05
0.00147503 0.00035648 5.52543e-06
0.00035648 2.24288e-05 6.15453e-06
5.52543e-06 6.15453e-06 -9.12116e-05
0.00106189 0.000389941 -1.84014e-06
0.000389941 -0.000201526 -2.83153e-06
-1.84014e-06 -2.83153e-06 -0.000364365
0.000580507 0.000308594 1.08889e-06
0.000308594 -0.000313918 3.62052e-06
1.08889e-06 3.62052e-06 -0.00046412
0.000795079 0.000252375 1.66475e-05
0.000252375 -0.000366337 1.95845e-05
1.66475e-05 1.95845e-05 -0.000357297
0.00499666 0.000548171 -3.54986e-05
0.000548171 0.000304051 -5.44013e-06
-3.54986e-05 -5.44013e-06 0.000136963
0.00195322 0.000115117 0.000177358
0.000115117 -0.00124755 1.96061e-05
0.000177358 1.96061e-05 -0.00267648
0.0013676 0.000650849 1.19787e-05
0.000650849 -0.000728659 -7.28722e-06
1.19787e-05 -7.28722e-06 -0.00110861
0.00216141 0.00052652 -2.49544e-05
0.00052652 0.000229781 -2.25298e-06
-2.49544e-05 -2.25298e-06 0.000203222
0.00168344 0.000501956 -4.40147e-05
0.000501956 9.53371e-05 -2.13116e-05
-4.40147e-05 -2.13116e-05 -5.59913e-05
0.00230822 -0.000153096 1.2624e-05
-0.000153096 0.000155989 2.04604e-06
1.2624e-05 2.04604e-06 0.000104584
0.00129094 -4.43907e-06 -7.6115e-06
-4.43907e-06 -0.000333713 3.97132e-06
-7.6115e-06 3.97132e-06 -0.000514586
0.000660198 0.000518423 7.48248e-05
0.000518423 -0.00243217 -2.6014e-05
7.48248e-05 -2.6014e-05 -0.00308693
0.000603076 -0.000187099 -1.15149e-05
-0.000187099 -0.000463208 2.30709e-05
-1.15149e-05 2.30709e-05 -0.000517015
0.00298347 -8.324e-05 -1.64862e-05
-8.324e-05 -0.000125782 3.15828e-05
-1.64862e-05 3.15828e-05 -0.000434904
0.00186428 -0.00019764 -7.72748e-06
-0.00019764 -4.19324e-05 2.63962e-06
-7.72748e-06 2.63962e-06 -1.37034e-05
0.0026645 -8.90356e-05 -7.03339e-06
-8.90356e-05 0.000391154 -2.64914e-06
-7.03339e-06 -2.64914e-06 0.000346514
0.00146261 -0.000113017 2.38392e-05
-0.000113017 -0.000278997 -6.31504e-07
2.38392e-05 -6.31504e-07 -0.00022916
0.00304585 -5.21788e-05 2.29974e-05
-5.21788e-05 0.000849937 1.57425e-06
2.29974e-05 1.57425e-06 0.000806
0.00154967 -0.000287594 -1.03049e-05
-0.000287594 -0.000239537 5.02062e-06
-1.03049e-05 5.02062e-06 -0.000228004
0.00175009 -0.000186456 1.51678e-06
-0.000186456 -0.000148911 1.74658e-06
1.51678e-06 1.74658e-06 -0.000104871
0.00187224 -0.000193359 1.00719e-06
-0.000193359 -3.5267e-06 8.81723e-07
1.00719e-06 8.81723e-07 9.1409e-06
0.00176681 -0.00025792 3.00903e-06
-0.00025792 -4.57605e-05 1.01179e-06
3.00903e-06 1.01179e-06 -0.00010147
0.00181467 -0.000209109 4.65594e-07
-0.000209109 2.35154e-05 1.2831e-07
4.65594e-07 1.2831e-07 -2.07409e-05
0.00186057 -0.000196559 4.09014e-07
-0.000196559 0.000101426 1.16701e-06
4.09014e-07 1.16701e-06 3.96256e-05
0.00193652 -0.000244433 9.80335e-07
-0.000244433 0.00013284 1.04649e-06
9.80335e-07 1.04649e-06 5.1434e-05
0.0018802 -0.000212599 -9.33192e-07
-0.000212599 0.000147019 6.47045e-08
-9.33192e-07 6.47045e-08 6.62116e-05
0.00167229 -0.000190341 1.7129e-06
-0.000190341 7.25044e-05 -1.43711e-07
1.7129e-06 -1.43711e-07 -2.41224e-05
0.00162521 -0.000219136 -1.72006e-06
-0.000219136 4.31583e-05 1.85419e-06
-1.72006e-06 1.85419e-06 -5.38455e-05
0.00167552 -0.000212523 4.9062e-07
-0.000212523 0.000100465 -6.35125e-07
4.9062e-07 -6.35125e-07 -9.46088e-06
0.00163404 -0.000195928 2.06031e-06
-0.000195928 0.000111138 -1.80513e-06
2.06031e-06 -1.80513e-06 -2.15177e-05
0.00186926 -0.000221069 -4.89498e-06
-0.000221069 0.000229411 4.9768e-06
-4.89498e-06 4.9768e-06 0.000109349
0.00176264 -0.000207712 -8.62863e-07
-0.000207712 0.000212555 5.32678e-08
-8.62863e-07 5.32678e-08 6.95914e-05
0.00151838 -0.000180372 -2.26415e-06
-0.000180372 0.000135729 -3.24143e-07
-2.26415e-06 -3.24143e-07 -1.83016e-05
0.00173144 -0.000230356 2.84426e-06
-0.000230356 0.000217382 1.30244e-06
2.84426e-06 1.30244e-06 5.21787e-05
0.00155759 -0.000206539 9.63719e-07
-0.000206539 0.000175485 -6.53445e-07
9.63719e-07 -6.53445e-07 1.10728e-05
0.00127897 -0.000173676 -7.29388e-06
-0.000173676 8.40702e-05 2.15593e-06
-7.29388e-06 2.15593e-06 -6.99265e-05
0.00101211 -0.000156877 -1.06907e-05
-0.000156877 4.02569e-05 5.15957e-06
-1.06907e-05 5.15957e-06 -9.64883e-05
0.00111495 -0.000188712 -2.06231e-06
-0.000188712 1.65993e-05 4.30603e-07
-2.06231e-06 4.30603e-07 -0.000148239
0.001666 -0.000245415 3.8872e-06
-0.000245415 0.000267417 -6.80874e-07
3.8872e-06 -6.80874e-07 8.51775e-05
0.000536273 -0.000141603 -1.84112e-05
-0.000141603 -9.09185e-05 1.23578e-05
-1.84112e-05 1.23578e-05 -0.000167704
0.00091298 -0.000155475 7.38033e-07
-0.000155475 3.96791e-05 5.16037e-07
7.38033e-07 5.16037e-07 -0.00010334
0.00114531 -0.000202609 6.4433e-06
-0.000202609 9.39608e-05 -1.63697e-06
6.4433e-06 -1.63697e-06 -8.25849e-05
0.00431818 0.000171435 -0.00010783
0.000171435 0.00217212 4.89366e-06
-0.00010783 4.89366e-06 0.0021553
0.000611318 -0.000102098 5.24129e-07
-0.000102098 -3.08853e-05 -5.34754e-08
5.24129e-07 -5.34754e-08 -9.96911e-05
0.000916716 -0.000151131 6.8191e-06
-0.000151131 0.000105101 -5.43946e-06
6.8191e-06 -5.43946e-06 -3.54529e-05
0.00394092 0.000135487 5.06283e-06
0.000135487 0.00194416 5.52464e-07
5.06283e-06 5.52464e-07 0.00193706
0.000726736 -5.67091e-05 1.15036e-05
-5.67091e-05 4.7561e-05 -1.00085e-05
1.15036e-05 -1.00085e-05 -9.73998e-06
0.0035234 0.000106204 0.000103081
0.000106204 0.00169778 -4.4655e-06
0.000103081 -4.4655e-06 0.00169829
0.00124546 0.000234634 -5.13038e-06
0.000234634 0.000144203 -4.07906e-07
-5.13038e-06 -4.07906e-07 -5.40315e-05
0.00113689 0.000210206 1.99721e-07
0.000210206 0.000209945 -1.75222e-06
1.99721e-07 -1.75222e-06 2.93666e-05
0.00112427 0.000185869 -1.65113e-06
0.000185869 0.000232332 -3.6396e-06
-1.65113e-06 -3.6396e-06 6.85713e-05
0.00152353 0.000224553 -7.53733e-07
0.000224553 0.000493384 9.72477e-07
-7.53733e-07 9.72477e-07 0.000334348
0.000858117 0.000124991 -1.08138e-06
0.000124991 0.000118156 -1.35305e-06
-1.08138e-06 -1.35305e-06 -1.63408e-05
0.000840049 8.6614e-05 -3.5857e-06
8.6614e-05 0.000126844 -3.27577e-06
-3.5857e-06 -3.27577e-06 1.58907e-05
0.000620018 6.09695e-05 3.65737e-07
6.09695e-05 1.37001e-06 3.53896e-07
3.65737e-07 3.53896e-07 -0.000113874
0.000665245 6.04359e-06 -5.08807e-07
6.04359e-06 2.66389e-05 -7.87947e-08
-5.08807e-07 -7.87947e-08 -6.32226e-05
0.000583909 -4.05411e-05 -2.76954e-06
-4.05411e-05 -1.10682e-05 -7.22637e-06
-2.76954e-06 -7.22637e-06 -5.04753e-05
0.000595507 -3.0156e-05 1.19128e-06
-3.0156e-05 -1.37294e-05 3.68215e-06
1.19128e-06 3.68215e-06 -9.09597e-05
0.000541962 -5.74078e-05 3.96129e-07
-5.74078e-05 -3.54734e-05 -1.61426e-07
3.96129e-07 -1.61426e-07 -7.03555e-05
0.00282686 -0.000117609 -5.85323e-05
-0.000117609 0.00129568 -2.15246e-06
-5.85323e-05 -2.15246e-06 0.00129605
0.00053389 -5.24219e-05 1.07405e-06
-5.24219e-05 -4.89282e-05 5.9454e-06
1.07405e-06 5.9454e-06 -7.87586e-05
0.00269445 -0.000108653 -2.054e-06
-0.000108653 0.00121297 2.51073e-07
-2.054e-06 2.51073e-07 0.00121532
0.00264078 -9.67995e-05 3.9779e-05
-9.67995e-05 0.0011745 3.47866e-06
3.9779e-05 3.47866e-06 0.0011793
0.000451788 3.00083e-05 8.28076e-06
3.00083e-05 -0.000665667 8.46917e-06
8.28076e-06 8.46917e-06 -0.000656954
0.00416625 2.70059e-05 4.04375e-05
2.70059e-05 0.000317531 8.81604e-06
4.04375e-05 8.81604e-06 0.000127313
0.0093464 0.000464883 -8.29724e-05
0.000464883 0.00282549 -4.62348e-05
-8.29724e-05 -4.62348e-05 0.00169334
0.000323976 0.000180149 1.33847e-06
0.000180149 -0.000427496 2.09909e-06
1.33847e-06 2.09909e-06 -0.000600032
0.00166631 0.000285528 1.56969e-06
0.000285528 0.000216844 2.52753e-06
1.56969e-06 2.52753e-06 3.54181e-05
0.00105131 0.000240623 -3.31104e-06
0.000240623 5.06177e-06 4.62695e-07
-3.31104e-06 4.62695e-07 -0.000198198
0.00106417 0.000210003 2.37162e-07
0.000210003 0.00025319 1.26463e-06
2.37162e-07 1.26463e-06 8.85787e-05
0.000769749 0.000200228 -1.30198e-06
0.000200228 -1.47795e-06 1.34916e-07
-1.30198e-06 1.34916e-07 -0.000188479
0.00126021 0.000264426 6.46096e-06
0.000264426 0.000198118 1.18709e-06
6.46096e-06 1.18709e-06 2.84456e-05
0.00235575 0.000409563 -8.28156e-06
0.000409563 0.000506251 -3.9262e-06
-8.28156e-06 -3.9262e-06 0.000329267
0.0019919 0.000335374 -1.18772e-06
0.000335374 0.00059358 1.77935e-06
-1.18772e-06 1.77935e-06 0.000428231
0.00137208 0.000342946 1.03343e-05
0.000342946 5.85195e-05 1.77334e-05
1.03343e-05 1.77334e-05 -9.80728e-05
0.00201267 0.000413555 -1.9413e-06
0.000413555 0.000312837 1.00936e-06
-1.9413e-06 1.00936e-06 0.000139596
0.00209101 0.000384889 -1.2924e-05
0.000384889 0.000258386 1.00883e-06
-1.2924e-05 1.00883e-06 0.000109548
0.000771783 0.000172062 1.29124e-05
0.000172062 -0.00042437 4.76984e-06
1.29124e-05 4.76984e-06 -0.000481177
0.00125178 0.000337387 8.56767e-06
0.000337387 -8.90116e-05 7.19603e-07
8.56767e-06 7.19603e-07 -0.000203878
0.00113402 0.000389248 -6.60567e-06
0.000389248 -0.000173156 -6.73999e-06
-6.60567e-06 -6.73999e-06 -0.000336603
0.00144383 0.000253598 -1.20065e-06
0.000253598 -4.02551e-05 4.14862e-06
-1.20065e-06 4.14862e-06 -4.54643e-05
0.00488639 0.000334374 3.17274e-05
0.000334374 0.00016219 -1.0675e-05
3.17274e-05 -1.0675e-05 -9.46558e-05
0.00200973 0.000452165 1.03047e-05
0.000452165 0.000372342 -1.93183e-05
1.03047e-05 -1.93183e-05 0.000344193
0.00133271 -3.65519e-05 2.25234e-05
-3.65519e-05 -6.71211e-05 3.39927e-06
2.25234e-05 3.39927e-06 -9.26343e-05
0.00205193 -8.57287e-05 -1.77304e-05
-8.57287e-05 7.78369e-05 -7.05568e-07
-1.77304e-05 -7.05568e-07 1.80913e-05
0.00129476 0.000148762 3.05638e-05
0.000148762 -0.000686405 -1.01422e-05
3.05638e-05 -1.01422e-05 -0.000934588
0.000575955 -0.000158225 -2.49208e-05
-0.000158225 -0.000694987 1.77047e-05
-2.49208e-05 1.77047e-05 -0.000646201
0.00277411 -0.000143009 -8.41695e-05
-0.000143009 0.000421383 2.51186e-06
-8.41695e-05 2.51186e-06 0.000382305
0.00172023 -0.000142142 1.73464e-06
-0.000142142 -0.000125297 -9.52584e-07
1.73464e-06 -9.52584e-07 -7.22497e-05
0.00232895 -5.91195e-05 -6.71575e-06
-5.91195e-05 0.00039871 2.86579e-07
-6.71575e-06 2.86579e-07 0.00035303
0.00195734 -0.00016049 2.88464e-06
-0.00016049 1.52687e-05 9.32585e-07
2.88464e-06 9.32585e-07 1.13726e-05
0.00218274 -2.7106e-05 3.95292e-06
-2.7106e-05 0.000197489 7.27447e-07
3.95292e-06 7.27447e-07 0.000158275
0.00183542 -0.000198545 -3.45639e-06
-0.000198545 -0.000120167 1.34092e-06
-3.45639e-06 1.34092e-06 -8.28397e-05
0.00186908 -0.000189004 -1.78853e-06
-0.000189004 5.80894e-07 -6.3933e-08
-1.78853e-06 -6.3933e-08 9.03092e-06
0.00197399 -0.000164509 -1.65103e-06
-0.000164509 8.01839e-05 7.84898e-07
-1.65103e-06 7.84898e-07 4.28016e-05
0.00184313 -0.000219971 -1.46531e-06
-0.000219971 3.3227e-05 -1.20947e-06
-1.46531e-06 -1.20947e-06 -1.57542e-05
0.00178827 -0.000192224 8.82922e-08
-0.000192224 6.61736e-05 -2.92694e-07
8.82922e-08 -2.92694e-07 6.94845e-07
0.00172747 -0.000168813 4.89009e-07
-0.000168813 5.78866e-05 3.56009e-07
4.89009e-07 3.56009e-07 -2.52365e-05
0.00177016 -0.00021588 -3.17472e-06
-0.00021588 8.4782e-05 -3.35413e-07
-3.17472e-06 -3.35413e-07 2.00413e-06
0.00169851 -0.000191024 2.58877e-07
-0.000191024 8.83183e-05 -1.99996e-07
2.58877e-07 -1.99996e-07 -8.29002e-06
0.00167587 -0.000176855 2.04534e-06
-0.000176855 9.84402e-05 -6.83796e-07
2.04534e-06 -6.83796e-07 -2.29067e-05
0.00168899 -0.00021308 -2.36101e-06
-0.00021308 0.00011147 6.51393e-07
-2.36101e-06 6.51393e-07 1.38273e-06
0.00165878 -0.000196168 -9.23909e-08
-0.000196168 0.000126019 -3.57395e-07
-9.23909e-08 -3.57395e-07 -6.4329e-06
0.00151366 -0.000167376 -1.28911e-06
-0.000167376 0.000114447 -2.47827e-07
-1.28911e-06 -2.47827e-07 -3.35132e-05
0.00180809 -0.000208535 -1.41562e-06
-0.000208535 0.000235705 2.90607e-06
-1.41562e-06 2.90607e-06 9.54405e-05
0.00151881 -0.00018098 -4.9834e-07
-0.00018098 0.000134888 -1.20184e-07
-4.9834e-07 -1.20184e-07 -1.84561e-05
0.00128317 -0.00015446 -6.73198e-06
-0.00015446 7.34646e-05 2.01962e-06
-6.73198e-06 2.01962e-06 -7.5465e-05
0.00148682 -0.000203685 4.9115e-06
-0.000203685 0.000134391 -5.16072e-07
4.9115e-06 -5.16072e-07 -3.11153e-05
0.00120989 -0.000170395 -1.37827e-08
-0.000170395 4.48464e-05 -4.64348e-08
-1.37827e-08 -4.64348e-08 -0.000109626
0.0010219 -0.000141556 -1.16453e-05
-0.000141556 2.18376e-05 5.04432e-06
-1.16453e-05 5.04432e-06 -0.00010664
0.000485584 -0.000148967 -1.92836e-05
-0.000148967 -0.000136174 1.20276e-05
-1.92836e-05 1.20276e-05 -0.000217133
0.000972146 -0.000154087 2.47814e-07
-0.000154087 1.86312e-05 1.29344e-07
2.47814e-07 1.29344e-07 -0.000117895
0.00122904 -0.000194956 5.25251e-06
-0.000194956 8.32892e-05 -1.40998e-06
5.25251e-06 -1.40998e-06 -8.16167e-05
0.00481979 0.000180747 -0.000119318
0.000180747 0.0024668 7.32665e-06
-0.000119318 7.32665e-06 0.0024443
0.000606708 -0.000131528 -1.17202e-06
-0.000131528 -5.26629e-05 4.45287e-07
-1.17202e-06 4.45287e-07 -0.000130386
0.000896857 -0.000157633 8.79957e-06
-0.000157633 3.37234e-05 -4.8015e-06
8.79957e-06 -4.8015e-06 -0.000109867
0.00450034 0.00015503 9.84195e-06
0.00015503 0.00227401 1.06066e-06
9.84195e-06 1.06066e-06 0.00225905
0.000767062 -0.000104985 1.58635e-05
-0.000104985 5.25815e-05 -1.17583e-05
1.58635e-05 -1.17583e-05 -1.72912e-05
0.00409544 0.000116678 0.000122213
0.000116678 0.00202836 -5.88812e-06
0.000122213 -5.88812e-06 0.00202401
0.00134732 0.000235284 -5.34958e-06
0.000235284 0.000115138 1.67627e-06
-5.34958e-06 1.67627e-06 -7.13284e-05
0.00102792 0.000216859 -1.49548e-06
0.000216859 2.15213e-05 2.45557e-06
-1.49548e-06 2.45557e-06 -0.000174352
0.00101348 0.000189674 -5.41047e-06
0.000189674 8.24924e-05 -1.3459e-06
-5.41047e-06 -1.3459e-06 -9.42826e-05
0.000951318 0.000195094 -4.47085e-07
0.000195094 0.000108871 1.61083e-06
-4.47085e-07 1.61083e-06 -6.96157e-05
0.00101932 0.000176175 -6.8542e-07
0.000176175 0.000176205 -6.98437e-07
-6.8542e-07 -6.98437e-07 1.40085e-05
0.000956236 0.000132444 -5.17677e-06
0.000132444 0.000174564 -4.71101e-06
-5.17677e-06 -4.71101e-06 4.53129e-05
0.000917779 0.000131253 2.39375e-07
0.000131253 0.000151785 -1.09732e-07
2.39375e-07 -1.09732e-07 1.72545e-05
0.000740463 6.60618e-05 -3.31728e-07
6.60618e-05 7.16249e-05 -1.85005e-08
-3.31728e-07 -1.85005e-08 -3.70143e-05
0.000652821 -3.91142e-07 -7.00974e-06
-3.91142e-07 2.19778e-05 -8.22335e-06
-7.00974e-06 -8.22335e-06 -2.54299e-05
0.000620664 -2.18117e-05 1.071e-06
-2.18117e-05 1.10555e-06 3.54601e-06
1.071e-06 3.54601e-06 -8.6248e-05
0.000529881 -4.87617e-05 -1.45285e-08
-4.87617e-05 -4.00094e-05 -2.4573e-07
-1.45285e-08 -2.4573e-07 -7.99699e-05
0.00306627 -0.000123286 -7.55091e-05
-0.000123286 0.0014386 -2.0055e-06
-7.55091e-05 -2.0055e-06 0.00143712
0.00050956 -5.87876e-05 6.50049e-07
-5.87876e-05 -5.40098e-05 6.51141e-06
6.50049e-07 6.51141e-06 -8.87788e-05
0.00278909 -0.000120137 -1.95872e-06
-0.000120137 0.00127426 2.47254e-07
-1.95872e-06 2.47254e-07 0.00127384
0.00268666 -0.000108269 4.48947e-05
-0.000108269 0.00120818 2.96603e-06
4.48947e-05 2.96603e-06 0.00121048
0.00090095 4.83601e-05 1.09866e-05
4.83601e-05 -0.000362429 -3.05755e-07
1.09866e-05 -3.05755e-07 -0.000370877
0.00178395 -2.23953e-06 -5.54336e-06
-2.23953e-06 -0.000118515 1.71793e-06
-5.54336e-06 1.71793e-06 -0.00011664
0.00370384 -1.44748e-06 0.00011151
-1.44748e-06 -5.40361e-05 -1.62237e-06
0.00011151 -1.62237e-06 -4.32085e-05
0.00179258 0.000322233 -2.25783e-06
0.000322233 0.000210822 7.90192e-07
-2.25783e-06 7.90192e-07 4.27748e-05
0.000695237 0.000223514 8.92376e-07
0.000223514 -0.000224013 -9.59609e-07
8.92376e-07 -9.59609e-07 -0.000398644
0.00187675 0.00028802 -1.50024e-06
0.00028802 0.000240951 3.14719e-06
-1.50024e-06 3.14719e-06 7.92842e-05
0.00172169 0.000288769 1.14753e-06
0.000288769 0.000252188 4.84298e-07
1.14753e-06 4.84298e-07 6.98418e-05
0.000690338 0.000218647 -3.20512e-06
0.000218647 -0.000201121 2.92657e-06
-3.20512e-06 2.92657e-06 -0.000399711
0.00185665 0.000317094 -6.26665e-06
0.000317094 0.000128866 1.47612e-06
-6.26665e-06 1.47612e-06 -1.99944e-05
0.00173205 0.000307202 -7.92802e-07
0.000307202 0.000445427 6.71444e-08
-7.92802e-07 6.71444e-08 0.00026697
0.00217119 0.000394005 -1.84214e-07
0.000394005 0.000408236 -1.46684e-06
-1.84214e-07 -1.46684e-06 0.000230667
0.00179646 0.000220813 -1.06566e-05
0.000220813 2.40483e-05 1.76255e-07
-1.06566e-05 1.76255e-07 -7.76404e-05
0.00237691 0.000434873 5.59915e-06
0.000434873 0.000517333 4.01746e-06
5.59915e-06 4.01746e-06 0.000344783
0.00202267 0.000382716 -1.12541e-06
0.000382716 0.000218911 5.57003e-07
-1.12541e-06 5.57003e-07 6.80543e-05
0.000963282 0.000188868 1.46292e-06
0.000188868 -0.000294233 2.24661e-06
1.46292e-06 2.24661e-06 -0.000355553
0.00020825 0.000271959 1.42026e-07
0.000271959 -0.000622089 -1.71025e-06
1.42026e-07 -1.71025e-06 -0.000736412
0.00143557 0.000249395 -3.3413e-05
0.000249395 -4.97349e-05 -1.35151e-05
-3.3413e-05 -1.35151e-05 -6.63793e-05
0.00172655 3.21855e-05 1.812e-06
3.21855e-05 -5.99858e-05 5.37249e-07
1.812e-06 5.37249e-07 -0.000107782
0.00203327 -1.96134e-05 4.78697e-07
-1.96134e-05 0.000342666 1.89803e-06
4.78697e-07 1.89803e-06 0.000320899
0.00137468 -8.61622e-06 -5.77371e-05
-8.61622e-06 -0.000224811 -8.22559e-06
-5.77371e-05 -8.22559e-06 -0.000323975
0.00196899 -0.000168674 -2.25288e-05
-0.000168674 2.00707e-05 7.8385e-07
-2.25288e-05 7.8385e-07 7.5771e-05
0.00127637 -6.7258e-05 -8.53285e-06
-6.7258e-05 -0.000239578 -3.41626e-07
-8.53285e-06 -3.41626e-07 -0.000285375
0.00192569 -0.000152777 1.08606e-07
-0.000152777 3.49937e-06 -3.40789e-07
1.08606e-07 -3.40789e-07 1.79909e-06
0.00197125 -2.68177e-05 -2.08583e-06
-2.68177e-05 5.72657e-05 6.9339e-07
-2.08583e-06 6.9339e-07 2.27101e-05
0.0019287 -5.91898e-05 -5.39619e-06
-5.91898e-05 2.9116e-05 -7.9881e-07
-5.39619e-06 -7.9881e-07 -5.65342e-06
0.00186253 -0.000184132 -2.64691e-06
-0.000184132 5.26023e-06 -1.21124e-06
-2.64691e-06 -1.21124e-06 8.55823e-06
0.00190126 -0.000158448 5.70782e-07
-0.000158448 4.79925e-05 -1.50632e-07
5.70782e-07 -1.50632e-07 7.83216e-06
0.00200717 -0.000125734 -4.49015e-07
-0.000125734 0.00014962 -4.24653e-07
-4.49015e-07 -4.24653e-07 8.88819e-05
0.0017105 -0.000188278 -9.57117e-07
-0.000188278 2.74033e-05 -1.10805e-06
-9.57117e-07 -1.10805e-06 -4.18103e-05
0.00169191 -0.000166341 1.18587e-07
-0.000166341 4.09951e-05 -5.61745e-08
1.18587e-07 -5.61745e-08 -4.32279e-05
0.00174131 -0.000143164 1.53218e-06
-0.000143164 9.89739e-05 -3.02108e-07
1.53218e-06 -3.02108e-07 -1.18873e-05
0.00172947 -0.000191805 -1.29929e-06
-0.000191805 0.000106427 -2.25559e-07
-1.29929e-06 -2.25559e-07 9.84515e-06
0.00170666 -0.000176528 4.44887e-08
-0.000176528 0.000117446 -1.51075e-07
4.44887e-08 -1.51075e-07 -3.71594e-06
0.00157095 -0.00014987 -4.3493e-07
-0.00014987 0.000117074 -2.83418e-07
-4.3493e-07 -2.83418e-07 -2.34928e-05
0.00168434 -0.000196493 -1.8277e-06
-0.000196493 0.000141272 9.77643e-07
-1.8277e-06 9.77643e-07 9.01643e-06
0.00152537 -0.000167527 -1.61788e-07
-0.000167527 0.000119504 -2.71953e-08
-1.61788e-07 -2.71953e-08 -2.81289e-05
0.0013052 -0.000137756 -5.75502e-06
-0.000137756 7.3364e-05 1.70083e-06
-5.75502e-06 1.70083e-06 -7.22298e-05
0.00151928 -0.000181509 1.88402e-06
-0.000181509 0.000133961 3.18854e-07
1.88402e-06 3.18854e-07 -1.86777e-05
0.00130267 -0.000154785 -1.58295e-07
-0.000154785 8.43095e-05 6.52369e-08
-1.58295e-07 6.52369e-08 -6.44068e-05
0.00104796 -0.000125659 -1.22938e-05
-0.000125659 2.40919e-05 5.0446e-06
-1.22938e-05 5.0446e-06 -0.000100537
0.00114342 -0.000167206 6.61175e-06
-0.000167206 7.10368e-06 -1.89806e-06
6.61175e-06 -1.89806e-06 -0.000147847
0.00101539 -0.000139884 1.58242e-07
-0.000139884 1.77663e-05 -6.66886e-08
1.58242e-07 -6.66886e-08 -0.000110494
0.0023158 -7.93095e-05 -2.08776e-05
-7.93095e-05 0.000917327 7.40677e-06
-2.08776e-05 7.40677e-06 0.000847022
0.00153394 -2.87509e-05 -0.000150668
-2.87509e-05 0.000526425 1.51142e-05
-0.000150668 1.51142e-05 0.000507633
0.0015021 -0.000117385 -2.16389e-06
-0.000117385 0.00045068 -1.67236e-07
-2.16389e-06 -1.67236e-07 0.000372425
0.000941662 -0.000152031 1.05112e-05
-0.000152031 2.31919e-06 -4.75107e-06
1.05112e-05 -4.75107e-06 -0.000134088
0.00499246 0.000134246 4.92907e-06
0.000134246 0.00255533 3.36127e-07
4.92907e-06 3.36127e-07 0.00253988
0.000695698 -0.000152486 1.95467e-05
-0.000152486 -3.3518e-06 -1.22441e-05
1.95467e-05 -1.22441e-05 -8.39842e-05
0.0046529 0.000116181 0.000143154
0.000116181 0.00235465 -8.79832e-06
0.000143154 -8.79832e-06 0.00234457
0.00186127 0.000235523 2.56847e-07
0.000235523 0.00020648 9.20803e-07
2.56847e-07 9.20803e-07 5.99341e-05
0.00153497 0.000237762 -3.62474e-07
0.000237762 0.000158132 2.51321e-06
-3.62474e-07 2.51321e-06 -1.141e-05
0.00147472 0.000245701 -3.0844e-07
0.000245701 0.000189409 -7.68127e-08
-3.0844e-07 -7.68127e-08 3.05546e-06
0.00114239 0.000198206 -6.93773e-06
0.000198206 6.27891e-05 -9.77854e-07
-6.93773e-06 -9.77854e-07 -0.000108383
0.000794948 0.000197843 1.39067e-06
0.000197843 -0.000109758 3.80961e-06
1.39067e-06 3.80961e-06 -0.000303109
0.00110784 0.00019604 -1.2637e-06
0.00019604 0.000138553 1.13395e-06
-1.2637e-06 1.13395e-06 -3.94384e-05
0.000933536 0.000151956 -7.32351e-06
0.000151956 0.000105563 -4.43869e-06
-7.32351e-06 -4.43869e-06 -3.60398e-05
0.000919547 0.000166793 1.44954e-06
0.000166793 0.000123046 2.85963e-06
1.44954e-06 2.85963e-06 -3.76341e-05
0.000802517 0.000116949 2.73589e-09
0.000116949 8.78875e-05 -3.36572e-07
2.73589e-09 -3.36572e-07 -3.85401e-05
0.000779241 6.69255e-05 -1.18186e-05
6.69255e-05 8.27379e-05 -1.03904e-05
-1.18186e-05 -1.03904e-05 2.13256e-05
0.00066291 4.56404e-05 1.7994e-06
4.56404e-05 2.55925e-05 2.71408e-06
1.7994e-06 2.71408e-06 -7.86864e-05
0.000542133 -1.20671e-05 -5.91005e-07
-1.20671e-05 -3.90779e-05 -3.54374e-07
-5.91005e-07 -3.54374e-07 -8.53732e-05
0.00342707 -0.000120883 -9.89513e-05
-0.000120883 0.00165121 -3.1285e-06
-9.89513e-05 -3.1285e-06 0.00164804
0.000469347 -5.73655e-05 3.59059e-07
-5.73655e-05 -7.14828e-05 7.31077e-06
3.59059e-07 7.31077e-06 -0.00011261
0.00298239 -0.000132395 -2.58647e-06
-0.000132395 0.00139192 2.88442e-07
-2.58647e-06 2.88442e-07 0.00138815
0.00276272 -0.000120447 4.99701e-05
-0.000120447 0.001259 2.40157e-06
4.99701e-05 2.40157e-06 0.00125842
0.0017833 0.000121162 -3.14079e-06
0.000121162 -3.2243e-05 7.44784e-07
-3.14079e-06 7.44784e-07 -9.9723e-05
0.00189667 4.10244e-05 1.10147e-05
4.10244e-05 0.000157914 7.53362e-07
1.10147e-05 7.53362e-07 0.000143657
0.00379686 -2.86961e-05 -6.58613e-05
-2.86961e-05 0.000778519 -1.54077e-05
-6.58613e-05 -1.54077e-05 0.000765541
0.00169302 0.000271724 -3.88266e-06
0.000271724 5.44342e-05 1.08736e-06
-3.88266e-06 1.08736e-06 -8.83193e-05
0.0016616 0.000310858 -1.22082e-06
0.000310858 0.000154685 -1.3986e-07
-1.22082e-06 -1.3986e-07 -1.28595e-05
0.00110944 0.000269639 -1.53653e-05
0.000269639 4.47941e-06 -5.41584e-06
-1.53653e-05 -5.41584e-06 -0.000172489
0.00188474 0.000278019 2.22408e-06
0.000278019 0.00024695 6.23726e-07
2.22408e-06 6.23726e-07 8.69894e-05
0.00180092 0.000293239 4.15769e-08
0.000293239 0.000301526 -3.17435e-06
4.15769e-08 -3.17435e-06 0.000118206
0.00214498 0.000217836 -3.94634e-06
0.000217836 0.000235621 1.24396e-06
-3.94634e-06 1.24396e-06 0.000137159
0.00172359 0.000312522 -1.3387e-06
0.000312522 6.13071e-05 8.08973e-07
-1.3387e-06 8.08973e-07 -8.9173e-05
0.00203784 0.000382269 3.5588e-06
0.000382269 0.00033569 4.41892e-09
3.5588e-06 4.41892e-09 0.000157125
0.00182538 0.000222201 -8.58984e-07
0.000222201 4.28332e-05 6.04153e-08
-8.58984e-07 6.04153e-08 -5.90496e-05
0.00208936 0.00038857 1.6863e-05
0.00038857 0.000240805 1.59333e-06
1.6863e-05 1.59333e-06 8.7648e-05
0.00149623 0.000208979 -1.82354e-05
0.000208979 4.0839e-06 -2.68406e-06
-1.82354e-05 -2.68406e-06 -6.10847e-05
0.00197716 3.83333e-05 -5.34538e-06
3.83333e-05 8.4764e-05 -1.45124e-07
-5.34538e-06 -1.45124e-07 3.54071e-05
0.0018819 4.15128e-05 -1.71514e-06
4.15128e-05 2.88631e-05 1.68596e-07
-1.71514e-06 1.68596e-07 -1.97275e-05
0.00289879 -2.09274e-06 -3.74413e-05
-2.09274e-06 0.000849508 -6.11477e-06
-3.74413e-05 -6.11477e-06 0.000825233
0.00187206 -0.000144359 -8.24762e-06
-0.000144359 -2.56516e-05 -1.2968e-06
-8.24762e-06 -1.2968e-06 -2.50204e-05
0.00191833 -2.62913e-05 2.69754e-06
-2.62913e-05 7.55556e-06 -5.91596e-07
2.69754e-06 -5.91596e-07 -2.42447e-05
0.00193838 -6.32029e-05 1.60533e-07
-6.32029e-05 2.04918e-05 1.30727e-07
1.60533e-07 1.30727e-07 -8.38531e-06
0.00195095 -4.61415e-05 -1.37035e-06
-4.61415e-05 0.000125105 8.17788e-09
-1.37035e-06 8.17788e-09 6.35476e-05
0.00183088 -0.000152118 2.73214e-06
-0.000152118 1.80995e-05 -1.1198e-06
2.73214e-06 -1.1198e-06 -2.50741e-05
0.00189285 -0.000125556 4.59209e-07
-0.000125556 9.07195e-05 -1.10437e-07
4.59209e-07 -1.10437e-07 2.49383e-05
0.00180862 -0.000103976 3.18207e-06
-0.000103976 0.000113088 -1.33247e-06
3.18207e-06 -1.33247e-06 1.12506e-05
0.00166165 -0.0001641 -4.89244e-07
-0.0001641 2.73065e-05 2.12619e-08
-4.89244e-07 2.12619e-08 -5.80761e-05
0.00176202 -0.00014359 -4.62327e-08
-0.00014359 0.000110425 2.70054e-09
-4.62327e-08 2.70054e-09 -3.77099e-07
0.00164435 -0.000125813 -1.74342e-07
-0.000125813 0.000121384 -3.67655e-07
-1.74342e-07 -3.67655e-07 -1.14461e-05
0.00173726 -0.000176092 -1.61369e-06
-0.000176092 0.000136447 3.51683e-07
-1.61369e-06 3.51683e-07 1.54891e-05
0.00157331 -0.000149541 -2.12132e-07
-0.000149541 0.000117118 8.0038e-08
-2.12132e-07 8.0038e-08 -2.32254e-05
0.00134284 -0.000118884 -5.11485e-06
-0.000118884 7.94573e-05 1.36428e-06
-5.11485e-06 1.36428e-06 -6.31084e-05
0.0015355 -0.000167636 9.39376e-07
-0.000167636 0.000123788 2.04824e-07
9.39376e-07 2.04824e-07 -2.35185e-05
0.00132464 -0.000138162 -1.16439e-07
-0.000138162 8.28502e-05 7.75487e-08
-1.16439e-07 7.75487e-08 -6.25345e-05
0.00105651 -0.000110575 -1.23029e-05
-0.000110575 1.86031e-05 4.34269e-06
-1.23029e-05 4.34269e-06 -0.000104642
0.00132255 -0.000155176 6.20269e-06
-0.000155176 9.53304e-05 -1.80919e-06
6.20269e-06 -1.80919e-06 -5.31817e-05
0.00104144 -0.000123595 2.21989e-07
-0.000123595 1.95281e-05 9.27353e-08
2.21989e-07 9.27353e-08 -0.000104646
0.00235825 -9.03638e-05 -2.78627e-05
-9.03638e-05 0.000928112 6.45506e-06
-2.78627e-05 6.45506e-06 0.000865547
0.000999645 -0.000137959 1.1624e-05
-0.000137959 8.61891e-06 -5.1429e-06
1.1624e-05 -5.1429e-06 -0.000119436
0.00247444 -0.000127625 3.37072e-05
-0.000127625 0.00100038 -3.71823e-06
3.37072e-05 -3.71823e-06 0.000936903
0.0016757 -6.97515e-05 -0.000158325
-6.97515e-05 0.000614587 1.88744e-05
-0.000158325 1.88744e-05 0.000595299
0.00335025 1.84221e-05 -0.000157008
1.84221e-05 0.00159926 6.85237e-06
-0.000157008 6.85237e-06 0.00158075
0.00257478 -0.000172039 9.67862e-05
-0.000172039 0.00106317 -1.24197e-05
9.67862e-05 -1.24197e-05 0.00100113
0.00515745 0.000121804 0.000150167
0.000121804 0.00265994 -1.3596e-05
0.000150167 -1.3596e-05 0.002639
0.001945 0.000231539 -2.15315e-06
0.000231539 0.000218444 -1.85875e-07
-2.15315e-06 -1.85875e-07 8.22787e-05
0.00158849 0.000207713 2.01714e-06
0.000207713 0.00015298 1.19048e-06
2.01714e-06 1.19048e-06 -1.06625e-06
0.00180271 0.000235397 4.02516e-07
0.000235397 0.00017159 -7.35466e-07
4.02516e-07 -7.35466e-07 2.7952e-05
0.00133312 0.000196994 -6.87023e-06
0.000196994 0.000119099 -7.34851e-07
-6.87023e-06 -7.34851e-07 -4.09194e-05
0.00155129 0.000236347 4.24208e-07
0.000236347 0.000162452 3.55704e-07
4.24208e-07 3.55704e-07 -7.4667e-06
0.00156262 0.000253453 4.36316e-06
0.000253453 0.000242226 -1.2745e-06
4.36316e-06 -1.2745e-06 5.62399e-05
0.00118454 0.000202412 -8.4129e-08
0.000202412 8.5975e-05 1.00171e-07
-8.4129e-08 1.00171e-07 -8.59922e-05
0.000885737 0.000152533 -9.92416e-06
0.000152533 2.26818e-06 -4.00999e-06
-9.92416e-06 -4.00999e-06 -0.000139209
0.00120768 0.000202767 3.43209e-06
0.000202767 0.000197836 3.70179e-06
3.43209e-06 3.70179e-06 1.85593e-05
0.000862736 0.000143694 -7.4899e-07
0.000143694 6.46907e-05 3.77726e-07
-7.4899e-07 3.77726e-07 -7.5596e-05
0.000772764 0.000127959 -1.7723e-05
0.000127959 6.12169e-05 -1.16037e-05
-1.7723e-05 -1.16037e-05 -1.39578e-05
0.000642092 0.0001003 3.02716e-06
0.0001003 -2.04432e-06 3.32402e-06
3.02716e-06 3.32402e-06 -0.000125707
0.00057682 4.24394e-05 -8.88041e-08
4.24394e-05 -2.81934e-05 -3.31579e-07
-8.88041e-08 -3.31579e-07 -8.68019e-05
0.00401948 -0.000111067 -0.000127354
-0.000111067 0.00199973 -6.58925e-06
-0.000127354 -6.58925e-06 0.00199234
0.000427131 -3.60596e-05 2.01512e-06
-3.60596e-05 -9.84728e-05 8.19446e-06
2.01512e-06 8.19446e-06 -0.000146005
0.00332946 -0.000144128 -4.639e-06
-0.000144128 0.00159861 3.8598e-07
-4.639e-06 3.8598e-07 0.00159096
0.00292374 -0.000134623 5.63829e-05
-0.000134623 0.00135843 1.91191e-06
5.63829e-05 1.91191e-06 0.00135413
0.00183772 0.000126353 -4.00362e-06
0.000126353 2.02634e-05 9.86202e-07
-4.00362e-06 9.86202e-07 -5.17434e-05
0.00182898 0.000120079 6.37388e-07
0.000120079 -7.79611e-07 -4.26535e-07
6.37388e-07 -4.26535e-07 -6.78657e-05
0.00249142 3.5081e-05 -4.5932e-05
3.5081e-05 0.000475477 -7.42651e-06
-4.5932e-05 -7.42651e-06 0.000461367
0.00197765 0.000193844 -2.77553e-08
0.000193844 0.000167344 1.34503e-06
-2.77553e-08 1.34503e-06 5.86581e-05
0.00169458 0.000266372 -6.54975e-07
0.000266372 6.58562e-05 8.73201e-08
-6.54975e-07 8.73201e-08 -7.62097e-05
0.00152849 0.000299565 -1.29403e-07
0.000299565 9.66176e-05 -3.16331e-06
-1.29403e-07 -3.16331e-06 -7.05209e-05
0.00188478 0.000267212 5.03222e-07
0.000267212 0.00024838 -2.3747e-06
5.03222e-07 -2.3747e-06 9.02802e-05
0.00194984 0.000208181 -4.85285e-07
0.000208181 0.000124992 -2.00037e-07
-4.85285e-07 -2.00037e-07 2.57209e-05
0.00159313 0.000307629 2.19058e-06
0.000307629 -3.31971e-06 -4.66988e-07
2.19058e-06 -4.66988e-07 -0.000155322
0.00181135 0.000219632 1.2189e-05
0.000219632 5.45235e-05 -5.61732e-08
1.2189e-05 -5.61732e-08 -4.701e-05
0.00190582 2.76218e-05 -6.31588e-07
2.76218e-05 8.3957e-05 6.8024e-07
-6.31588e-07 6.8024e-07 1.92034e-05
0.00192223 3.75251e-05 4.83844e-08
3.75251e-05 5.68647e-05 8.61846e-09
4.83844e-08 8.61846e-09 6.26955e-06
0.00202893 5.10295e-05 -6.13612e-06
5.10295e-05 0.000110702 -1.94534e-06
-6.13612e-06 -1.94534e-06 6.29556e-05
0.00162356 -1.57379e-05 -1.53191e-06
-1.57379e-05 -2.62208e-05 1.7308e-07
-1.53191e-06 1.7308e-07 -0.000102348
0.00194469 -6.95069e-05 4.79208e-06
-6.95069e-05 1.0125e-05 1.27071e-07
4.79208e-06 1.27071e-07 -1.25528e-05
0.00188142 -4.77674e-05 -1.11722e-06
-4.77674e-05 8.16649e-05 6.05826e-07
-1.11722e-06 6.05826e-07 1.95933e-05
0.00199603 -5.28604e-05 4.75538e-07
-5.28604e-05 0.000218146 -7.4668e-07
4.75538e-07 -7.4668e-07 0.000127416
0.00176953 -0.000125194 1.36464e-06
-0.000125194 2.6099e-05 -1.14339e-07
1.36464e-06 -1.14339e-07 -4.44788e-05
0.00179829 -0.000103745 1.89262e-06
-0.000103745 0.00010689 -6.30751e-07
1.89262e-06 -6.30751e-07 5.21117e-06
0.00168699 -9.18207e-05 4.90656e-07
-9.18207e-05 0.000112885 -8.43146e-07
4.90656e-07 -8.43146e-07 -1.24904e-05
0.00178659 -0.00014352 -1.24747e-06
-0.00014352 0.000124164 3.17598e-07
-1.24747e-06 3.17598e-07 1.34939e-05
0.001632 -0.00012386 -1.73833e-07
-0.00012386 0.000116121 -6.60481e-08
-1.73833e-07 -6.60481e-08 -1.64149e-05
0.00137666 -9.57813e-05 -4.60071e-06
-9.57813e-05 7.88198e-05 1.00266e-06
-4.60071e-06 1.00266e-06 -6.01485e-05
0.00157662 -0.000149163 5.51545e-07
-0.000149163 0.000117747 3.43291e-07
5.51545e-07 3.43291e-07 -2.23559e-05
0.00134527 -0.000118581 -1.24033e-07
-0.000118581 7.85489e-05 1.11752e-07
-1.24033e-07 1.11752e-07 -6.37769e-05
0.00106197 -9.3718e-05 -1.20366e-05
-9.3718e-05 1.23697e-05 3.5982e-06
-1.20366e-05 3.5982e-06 -0.000110053
0.00134506 -0.000138557 5.50603e-06
-0.000138557 9.28323e-05 -1.52624e-06
5.50603e-06 -1.52624e-06 -5.23317e-05
0.00105558 -0.000108115 1.02059e-07
-0.000108115 1.70014e-05 1.56883e-07
1.02059e-07 1.56883e-07 -0.000105606
0.00240523 -0.000104899 -3.52259e-05
-0.000104899 0.000946719 5.95995e-06
-3.52259e-05 5.95995e-06 0.000886891
0.00102996 -0.000121333 1.22122e-05
-0.000121333 1.20567e-05 -4.86305e-06
1.22122e-05 -4.86305e-06 -0.000111622
0.00246484 -0.000125425 3.03136e-05
-0.000125425 0.000985882 -3.26665e-06
3.03136e-05 -3.26665e-06 0.000927313
0.00171273 -6.10469e-05 -0.00015394
-6.10469e-05 0.000633365 1.70397e-05
-0.00015394 1.70397e-05 0.000614491
0.00260541 -0.000149618 9.74788e-05
-0.000149618 0.0010713 -1.4375e-05
9.74788e-05 -1.4375e-05 0.001012
0.00148653 -2.42157e-06 -7.43428e-05
-2.42157e-06 0.000515794 6.95215e-06
-7.43428e-05 6.95215e-06 0.000486733
0.00503586 0.000250634 5.52326e-06
0.000250634 0.00260234 -3.689e-06
5.52326e-06 -3.689e-06 0.0025612
0.00177049 0.000183105 7.03746e-07
0.000183105 0.000103802 8.9982e-07
7.03746e-07 8.9982e-07 -2.3816e-05
0.00173879 0.000199484 -7.22341e-07
0.000199484 0.000193509 -2.63237e-07
-7.22341e-07 -2.63237e-07 4.9081e-05
0.00183121 0.000227464 -2.72286e-06
0.000227464 0.000151923 4.47437e-08
-2.72286e-06 4.47437e-08 1.44086e-05
0.00174646 0.000194707 -4.29046e-06
0.000194707 0.000335949 -5.70005e-07
-4.29046e-06 -5.70005e-07 0.000187043
0.00152438 0.000209901 8.30304e-07
0.000209901 0.000112642 -7.98528e-07
8.30304e-07 -7.98528e-07 -4.07828e-05
0.0017546 0.000235842 -2.82302e-07
0.000235842 0.000142507 -2.53495e-06
-2.82302e-07 -2.53495e-06 1.78167e-06
0.000948547 0.000149553 -1.17726e-05
0.000149553 -1.48414e-05 -4.0608e-06
-1.17726e-05 -4.0608e-06 -0.000148546
0.00125526 0.000192645 4.12341e-08
0.000192645 7.45009e-05 2.09193e-07
4.12341e-08 2.09193e-07 -8.51343e-05
0.00159305 0.000237012 3.14727e-06
0.000237012 0.000180491 -1.01983e-06
3.14727e-06 -1.01983e-06 9.86673e-06
0.00122401 0.000206648 7.19532e-06
0.000206648 0.000107451 1.26594e-06
7.19532e-06 1.26594e-06 -6.53415e-05
0.000929028 0.000154424 -8.00043e-07
0.000154424 2.56224e-05 3.42089e-07
-8.00043e-07 3.42089e-07 -0.000115967
0.000656131 0.000172333 -2.17866e-05
0.000172333 -2.26856e-05 -1.1557e-05
-2.17866e-05 -1.1557e-05 -0.0001067
0.000784477 0.000134872 5.6268e-06
0.000134872 1.97164e-05 5.29252e-06
5.6268e-06 5.29252e-06 -0.000119122
0.000614251 0.000118716 -2.829e-07
0.000118716 -2.18449e-05 2.15652e-07
-2.829e-07 2.15652e-07 -9.65758e-05
0.00479729 -0.000105696 -0.000147876
-0.000105696 0.00246087 -1.2219e-05
-0.000147876 -1.2219e-05 0.00244234
0.00042552 2.96797e-05 7.46076e-06
2.96797e-05 -0.000112038 9.53397e-06
7.46076e-06 9.53397e-06 -0.000167601
0.00384855 -0.000155364 -8.51519e-06
-0.000155364 0.00190791 6.64139e-07
-8.51519e-06 6.64139e-07 0.00189437
0.00321214 -0.000152476 6.61508e-05
-0.000152476 0.00153208 1.63123e-06
6.61508e-05 1.63123e-06 0.00152258
0.00177301 0.000104753 -4.46703e-07
0.000104753 1.84533e-05 1.56185e-06
-4.46703e-07 1.56185e-06 -6.4534e-05
0.00178895 0.000127685 -4.44636e-07
0.000127685 -1.17561e-05 2.43453e-07
-4.44636e-07 2.43453e-07 -8.37221e-05
0.00188934 0.000123185 3.94011e-06
0.000123185 2.91591e-05 -5.50246e-07
3.94011e-06 -5.50246e-07 -3.84999e-05
0.00192649 0.000190087 8.26487e-07
0.000190087 0.000141285 -1.26398e-07
8.26487e-07 -1.26398e-07 3.43512e-05
0.00168713 0.000260466 5.35695e-07
0.000260466 7.22372e-05 -1.37357e-06
5.35695e-07 -1.37357e-06 -6.90832e-05
0.00173846 0.000198188 3.71248e-06
0.000198188 4.15995e-06 -1.31943e-06
3.71248e-06 -1.31943e-06 -9.59549e-05
0.00188442 2.80905e-05 -5.22684e-07
2.80905e-05 0.000120808 4.13968e-07
-5.22684e-07 4.13968e-07 4.26422e-05
0.00189323 2.82049e-05 7.8236e-07
2.82049e-05 7.95914e-05 -2.06614e-07
7.8236e-07 -2.06614e-07 1.42908e-05
0.00184856 3.72896e-05 5.472e-06
3.72896e-05 2.1007e-05 1.90081e-07
5.472e-06 1.90081e-07 -3.08404e-05
0.00172731 -2.23673e-05 -1.91378e-06
-2.23673e-05 3.4764e-05 -2.59372e-08
-1.91378e-06 -2.59372e-08 -4.06089e-05
0.00169455 -2.71994e-05 6.73562e-07
-2.71994e-05 5.43737e-05 -5.29232e-07
6.73562e-07 -5.29232e-07 -3.93002e-05
0.00181514 -4.92254e-05 7.52162e-07
-4.92254e-05 4.06158e-05 9.23932e-07
7.52162e-07 9.23932e-07 -2.21002e-05
0.00182681 -5.22227e-05 -8.77164e-07
-5.22227e-05 0.000122278 3.99809e-07
-8.77164e-07 3.99809e-07 2.77961e-05
0.00174876 -4.93478e-05 1.23582e-07
-4.93478e-05 0.000132986 -6.33548e-07
1.23582e-07 -6.33548e-07 1.73423e-05
0.0017812 -0.000103908 9.51689e-07
-0.000103908 9.72411e-05 8.83097e-08
9.51689e-07 8.83097e-08 -4.34624e-06
0.00166416 -9.28358e-05 6.84782e-07
-9.28358e-05 0.000103166 -4.16328e-07
6.84782e-07 -4.16328e-07 -2.22811e-05
0.00140311 -6.43682e-05 -4.57211e-06
-6.43682e-05 6.99524e-05 5.57485e-07
-4.57211e-06 5.57485e-07 -6.48182e-05
0.00160776 -0.000123358 4.58562e-08
-0.000123358 0.000103899 1.65459e-07
4.58562e-08 1.65459e-07 -2.85413e-05
0.00136932 -9.50486e-05 -2.85681e-08
-9.50486e-05 7.10648e-05 5.81217e-08
-2.85681e-08 5.81217e-08 -6.77398e-05
0.00106058 -7.31725e-05 -1.18513e-05
-7.31725e-05 6.25974e-07 2.95659e-06
-1.18513e-05 2.95659e-06 -0.000120597
0.00134579 -0.000118159 4.72665e-06
-0.000118159 7.65279e-05 -1.11958e-06
4.72665e-06 -1.11958e-06 -6.55512e-05
0.00106115 -9.10386e-05 -3.04857e-08
-9.10386e-05 1.10998e-05 1.55101e-07
-3.04857e-08 1.55101e-07 -0.000110716
0.00239566 -0.000120833 -3.85983e-05
-0.000120833 0.000938014 5.4388e-06
-3.85983e-05 5.4388e-06 0.000876361
0.0010517 -0.000105626 1.22711e-05
-0.000105626 1.36195e-05 -4.11778e-06
1.22711e-05 -4.11778e-06 -0.000108329
0.00246721 -0.00011688 2.92617e-05
-0.00011688 0.000979621 -2.52703e-06
2.92617e-05 -2.52703e-06 0.000922723
0.00175268 -5.30144e-05 -0.000153959
-5.30144e-05 0.000650778 1.47137e-05
-0.000153959 1.47137e-05 0.000632139
0.0025683 -0.00013035 9.62853e-05
-0.00013035 0.00104144 -1.26671e-05
9.62853e-05 -1.26671e-05 0.000986703
0.00148594 -1.80888e-05 -6.72097e-05
-1.80888e-05 0.000508304 6.53593e-06
-6.72097e-05 6.53593e-06 0.000483152
0.0013596 1.37233e-05 2.21935e-05
1.37233e-05 0.00044453 -4.31185e-06
2.21935e-05 -4.31185e-06 0.000411437
0.00189037 0.000109499 2.01481e-07
0.000109499 0.00014565 2.04716e-06
2.01481e-07 2.04716e-06 4.35489e-05
0.00166261 0.000163084 -1.35114e-06
0.000163084 0.000117458 4.17698e-07
-1.35114e-06 4.17698e-07 -2.05245e-05
0.00178998 0.000184039 -8.90565e-07
0.000184039 0.0001093 -9.39135e-08
-8.90565e-07 -9.39135e-08 -1.57008e-05
0.00165179 0.000168308 -4.13967e-06
0.000168308 0.000248357 -6.46861e-07
-4.13967e-06 -6.46861e-07 0.000105791
0.00171301 0.000196318 9.1367e-07
0.000196318 0.000182341 1.93628e-07
9.1367e-07 1.93628e-07 3.72366e-05
0.00171304 0.000223276 1.30775e-06
0.000223276 8.36823e-05 -2.89835e-07
1.30775e-06 -2.89835e-07 -5.52324e-05
0.00103724 0.000139114 -1.24555e-05
0.000139114 1.43421e-05 -4.26579e-06
-1.24555e-05 -4.26579e-06 -0.000112395
0.00144816 0.000183027 3.27272e-06
0.000183027 0.000163849 7.64027e-07
3.27272e-06 7.64027e-07 1.41528e-05
0.00145681 0.000211823 2.03276e-06
0.000211823 7.0506e-05 -1.71139e-06
2.03276e-06 -1.71139e-06 -8.2255e-05
0.000580307 0.00016275 -2.17915e-05
0.00016275 -8.36125e-05 -1.0201e-05
-2.17915e-05 -1.0201e-05 -0.000164525
0.000988373 0.000152099 -5.30904e-07
0.000152099 7.75432e-06 6.41348e-08
-5.30904e-07 6.41348e-08 -0.00012614
0.00117974 0.000188301 7.42017e-06
0.000188301 3.1643e-05 1.37965e-06
7.42017e-06 1.37965e-06 -0.000127592
0.00097959 0.000157044 9.69691e-06
0.000157044 5.33653e-05 5.01398e-06
9.69691e-06 5.01398e-06 -8.85136e-05
0.000602894 0.000160158 1.53534e-06
0.000160158 -5.15313e-05 4.51917e-07
1.53534e-06 4.51917e-07 -0.000134477
0.00532754 -9.40564e-05 -0.000150836
-9.40564e-05 0.0027761 -1.70758e-05
-0.000150836 -1.70758e-05 0.00274695
0.000456245 0.000106177 1.32503e-05
0.000106177 -0.00010979 1.13544e-05
1.32503e-05 1.13544e-05 -0.00018107
0.00452841 -0.000150598 -1.06084e-05
-0.000150598 0.00230785 8.19289e-07
-1.06084e-05 8.19289e-07 0.00228839
0.00365932 -0.000173792 8.19966e-05
-0.000173792 0.00180091 2.12443e-06
8.19966e-05 2.12443e-06 0.00178436
0.00176404 7.65855e-05 -4.37651e-07
7.65855e-05 5.47644e-05 3.6575e-07
-4.37651e-07 3.6575e-07 -3.02194e-05
0.00177723 0.00010412 6.05094e-07
0.00010412 2.54432e-05 5.45737e-07
6.05094e-07 5.45737e-07 -5.74572e-05
0.00176174 0.000128852 5.76132e-06
0.000128852 -3.15644e-05 -2.56718e-07
5.76132e-06 -2.56718e-07 -0.000103369
0.0018792 0.000186292 1.29176e-06
0.000186292 0.000116946 -1.15828e-06
1.29176e-06 -1.15828e-06 1.18148e-05
0.00173588 -7.7211e-06 1.48687e-06
-7.7211e-06 7.35845e-05 1.01419e-07
1.48687e-06 1.01419e-07 -2.21855e-05
0.00191863 2.27861e-05 -1.92904e-07
2.27861e-05 0.000137976 -2.33587e-07
-1.92904e-07 -2.33587e-07 6.04373e-05
0.0018711 2.81119e-05 2.19902e-06
2.81119e-05 7.00302e-05 -2.208e-07
2.19902e-06 -2.208e-07 4.21293e-06
0.00183335 -2.66213e-05 -3.56786e-06
-2.66213e-05 9.68909e-05 -1.08923e-06
-3.56786e-06 -1.08923e-06 2.23005e-05
0.00166631 -2.00013e-05 -1.4329e-06
-2.00013e-05 3.83139e-05 -1.80122e-08
-1.4329e-06 -1.80122e-08 -5.4104e-05
0.00176374 -1.84948e-05 1.72791e-06
-1.84948e-05 0.000154867 -5.16872e-07
1.72791e-06 -5.16872e-07 4.30095e-05
0.00165829 -5.15637e-05 -2.0539e-06
-5.15637e-05 2.61574e-05 1.48775e-06
-2.0539e-06 1.48775e-06 -7.20825e-05
0.00170015 -5.01637e-05 2.00075e-07
-5.01637e-05 0.000108371 2.73562e-07
2.00075e-07 2.73562e-07 -1.00827e-05
0.00142571 -3.26874e-05 -4.02715e-06
-3.26874e-05 6.18043e-05 1.34756e-07
-4.02715e-06 1.34756e-07 -6.6819e-05
0.00165593 -9.2487e-05 9.20847e-07
-9.2487e-05 0.000101609 -1.65146e-08
9.20847e-07 -1.65146e-08 -2.37139e-05
0.00139459 -6.25364e-05 -5.93685e-08
-6.25364e-05 6.12358e-05 -7.81099e-10
-5.93685e-08 -7.81099e-10 -7.32674e-05
0.00106225 -4.86308e-05 -1.18882e-05
-4.86308e-05 -8.96954e-06 2.30337e-06
-1.18882e-05 2.30337e-06 -0.000128846
0.00135901 -9.22753e-05 4.21834e-06
-9.22753e-05 6.17149e-05 -8.66583e-07
4.21834e-06 -8.66583e-07 -7.67266e-05
0.00106265 -7.21252e-05 9.79889e-09
-7.21252e-05 1.48082e-06 1.63695e-07
9.79889e-09 1.63695e-07 -0.000119486
0.000633282 -6.58516e-05 -1.80925e-05
-6.58516e-05 -9.54035e-05 4.33265e-06
-1.80925e-05 4.33265e-06 -0.00016404
0.00106952 -8.87087e-05 1.19357e-05
-8.87087e-05 1.4822e-05 -3.33398e-06
1.19357e-05 -3.33398e-06 -0.000106371
0.00155972 -7.59807e-05 3.90504e-05
-7.59807e-05 0.000446465 -2.39013e-06
3.90504e-05 -2.39013e-06 0.000385861
0.00523048 -0.000107716 -0.000188601
-0.000107716 0.00266293 1.10142e-05
-0.000188601 1.10142e-05 0.002664
0.00254957 -0.000106725 9.58965e-05
-0.000106725 0.00102068 -1.03395e-05
9.58965e-05 -1.03395e-05 0.000968599
0.00149986 -3.45783e-05 -6.05301e-05
-3.45783e-05 0.000510991 4.88979e-06
-6.05301e-05 4.88979e-06 0.000486695
0.00127332 -3.48141e-05 3.28506e-05
-3.48141e-05 0.000392063 -4.58101e-06
3.28506e-05 -4.58101e-06 0.00036102
0.00190074 7.92709e-05 9.45132e-07
7.92709e-05 0.000165224 1.2596e-06
9.45132e-07 1.2596e-06 7.02019e-05
0.00176427 0.000110031 1.42365e-07
0.000110031 0.000157375 1.53609e-06
1.42365e-07 1.53609e-06 3.39319e-05
0.00191877 0.000106935 3.75249e-07
0.000106935 0.000167927 1.22104e-08
3.75249e-07 1.22104e-08 6.49007e-05
0.00133901 0.000129161 -4.94263e-06
0.000129161 3.41297e-05 -5.94787e-07
-4.94263e-06 -5.94787e-07 -0.000104927
0.00171516 0.000162539 1.28559e-07
0.000162539 0.000146997 -9.19243e-09
1.28559e-07 -9.19243e-09 1.01202e-05
0.00181208 0.000185339 -3.91277e-07
0.000185339 0.0001157 -9.55991e-07
-3.91277e-07 -9.55991e-07 -6.75746e-06
0.000666921 0.000102285 -1.42804e-05
0.000102285 -0.000215271 -4.24224e-06
-1.42804e-05 -4.24224e-06 -0.000339718
0.00168177 0.000170869 1.89478e-06
0.000170869 0.000265579 5.23152e-07
1.89478e-06 5.23152e-07 0.000122829
0.00168335 0.000193121 1.9311e-06
0.000193121 0.000168934 -6.81261e-08
1.9311e-06 -6.81261e-08 2.31173e-05
0.000557453 0.000122828 -1.8832e-05
0.000122828 -0.000108626 -8.38071e-06
-1.8832e-05 -8.38071e-06 -0.000184165
0.000814618 0.000128904 5.59592e-07
0.000128904 -0.00011393 8.66525e-08
5.59592e-07 8.66525e-08 -0.000241528
0.00114443 0.000171029 9.18637e-06
0.000171029 -1.16897e-05 1.6685e-06
9.18637e-06 1.6685e-06 -0.00016212
0.00542876 -1.02029e-05 -0.000163227
-1.02029e-05 0.00280416 -1.55713e-05
-0.000163227 -1.55713e-05 0.0027907
0.000562222 0.00014946 1.48286e-06
0.00014946 -9.20686e-05 5.38823e-07
1.48286e-06 5.38823e-07 -0.000174191
0.00101966 0.000154335 1.1885e-05
0.000154335 2.55359e-05 4.25646e-06
1.1885e-05 4.25646e-06 -0.000108539
0.000496562 0.000149478 1.88619e-05
0.000149478 -0.000109024 1.17986e-05
1.88619e-05 1.17986e-05 -0.00019166
0.00511503 -8.93351e-05 2.88821e-06
-8.93351e-05 0.00263679 -8.58554e-07
2.88821e-06 -8.58554e-07 0.00261966
0.00424797 -0.000196586 9.82472e-05
-0.000196586 0.00215613 4.95614e-06
9.82472e-05 4.95614e-06 0.00212974
0.00179869 4.8744e-05 -9.16449e-07
4.8744e-05 0.000101464 -4.47491e-07
-9.16449e-07 -4.47491e-07 5.62614e-06
0.0017885 7.58996e-05 -2.16447e-07
7.58996e-05 6.52856e-05 4.33646e-07
-2.16447e-07 4.33646e-07 -1.95785e-05
0.00178101 0.000103727 2.05363e-06
0.000103727 3.23439e-05 -4.26976e-07
2.05363e-06 -4.26976e-07 -5.04972e-05
0.00166294 2.1087e-06 1.90229e-06
2.1087e-06 8.78215e-05 -3.92164e-07
1.90229e-06 -3.92164e-07 -2.52538e-05
0.00171634 -5.67897e-06 2.11233e-07
-5.67897e-06 6.67292e-05 1.20092e-07
2.11233e-07 1.20092e-07 -2.77827e-05
0.00195153 1.59547e-05 -7.61794e-07
1.59547e-05 0.00015445 -1.35012e-07
-7.61794e-07 -1.35012e-07 7.7504e-05
0.00163272 -1.40852e-05 -2.40658e-06
-1.40852e-05 1.90811e-05 6.70944e-07
-2.40658e-06 6.70944e-07 -7.20872e-05
0.00174779 -1.3897e-05 1.09739e-06
-1.3897e-05 0.00014462 -2.31285e-07
1.09739e-06 -2.31285e-07 3.29125e-05
0.00172756 -1.15799e-05 -1.82528e-06
-1.15799e-05 0.000232225 -1.83696e-07
-1.82528e-06 -1.83696e-07 0.000109784
0.00165062 -5.10279e-05 -1.3676e-08
-5.10279e-05 8.36186e-05 8.81234e-07
-1.3676e-08 8.81234e-07 -3.76551e-05
0.0015637 -3.28872e-05 3.10291e-09
-3.28872e-05 0.000140501 7.07773e-08
3.10291e-09 7.07773e-08 1.19991e-05
0.000780063 -2.19413e-05 -1.36715e-05
-2.19413e-05 -0.00017842 1.60686e-06
-1.36715e-05 1.60686e-06 -0.000299011
0.0013916 -6.29233e-05 4.11822e-06
-6.29233e-05 5.56043e-05 -5.61939e-07
4.11822e-06 -5.61939e-07 -7.8828e-05
0.00105684 -4.5537e-05 2.39629e-08
-4.5537e-05 -1.25483e-05 1.58405e-07
2.39629e-08 1.58405e-07 -0.000132067
0.00063853 -2.03648e-05 -1.75124e-05
-2.03648e-05 -9.89407e-05 2.8806e-06
-1.75124e-05 2.8806e-06 -0.000167623
0.00106536 -7.005e-05 1.18762e-05
-7.005e-05 2.62004e-06 -2.63033e-06
1.18762e-05 -2.63033e-06 -0.000117975
0.000645617 -5.08891e-05 -1.9828e-07
-5.08891e-05 -8.75233e-05 2.90566e-07
-1.9828e-07 2.90566e-07 -0.000157035
0.00528126 -1.67209e-06 -0.000179761
-1.67209e-06 0.00268812 6.89831e-06
-0.000179761 6.89831e-06 0.00269119
0.000677785 -6.02336e-05 1.62071e-05
-6.02336e-05 -6.58558e-05 -6.16263e-06
1.62071e-05 -6.16263e-06 -0.000135799
0.00333015 -7.00106e-05 8.75402e-05
-7.00106e-05 0.00156776 -2.44237e-06
8.75402e-05 -2.44237e-06 0.00155119
0.00121158 -6.02043e-05 3.81207e-05
-6.02043e-05 0.000358058 -5.01409e-06
3.81207e-05 -5.01409e-06 0.000324271
0.00180959 7.25516e-05 6.63097e-08
7.25516e-05 0.000132078 2.05915e-07
6.63097e-08 2.05915e-07 3.17715e-05
0.00162823 6.36068e-05 1.43806e-06
6.36068e-05 7.77482e-05 1.70858e-06
1.43806e-06 1.70858e-06 -3.92531e-05
0.00188607 7.65839e-05 -2.13748e-07
7.65839e-05 0.000157012 -2.20725e-07
-2.13748e-07 -2.20725e-07 6.24087e-05
0.00141763 9.19656e-05 -3.77765e-06
9.19656e-05 6.61018e-05 -1.16786e-07
-3.77765e-06 -1.16786e-07 -6.71093e-05
0.00171547 0.000108345 5.05688e-07
0.000108345 0.000126727 1.39656e-07
5.05688e-07 1.39656e-07 2.05221e-06
0.00194775 0.000104173 -7.64651e-07
0.000104173 0.000190643 -1.81682e-06
-7.64651e-07 -1.81682e-06 8.67209e-05
0.000679094 8.17621e-05 -1.38329e-05
8.17621e-05 -0.000223899 -3.1746e-06
-1.38329e-05 -3.1746e-06 -0.000345932
0.00153918 0.000134964 -8.12069e-07
0.000134964 0.000151444 -2.01866e-08
-8.12069e-07 -2.01866e-08 1.30278e-05
0.00177033 0.000161981 1.46599e-06
0.000161981 0.000178233 -6.14996e-07
1.46599e-06 -6.14996e-07 4.24856e-05
0.000574596 8.78016e-05 -1.73301e-05
8.78016e-05 -0.000114338 -6.43039e-06
-1.73301e-05 -6.43039e-06 -0.000185152
0.000648442 0.000102202 -2.81242e-06
0.000102202 -0.000225761 -5.84206e-07
-2.81242e-06 -5.84206e-07 -0.000350728
0.00171433 0.000173651 8.08751e-06
0.000173651 0.000284298 1.78954e-06
8.08751e-06 1.78954e-06 0.000141337
0.00537089 7.43056e-05 -0.000180714
7.43056e-05 0.00274927 -1.41656e-05
-0.000180714 -1.41656e-05 0.00274747
0.000554625 0.000115733 6.51427e-07
0.000115733 -0.000110039 2.89717e-07
6.51427e-07 2.89717e-07 -0.000186171
0.000592694 0.000118958 1.23269e-05
0.000118958 -0.000241866 3.95136e-06
1.23269e-05 3.95136e-06 -0.000370362
0.00533751 3.97294e-06 1.20116e-05
3.97294e-06 0.00274955 9.40677e-08
1.20116e-05 9.40677e-08 0.0027386
0.000526051 0.00013593 1.85591e-05
0.00013593 -0.000110696 1.03029e-05
1.85591e-05 1.03029e-05 -0.00019396
0.0049026 -0.000137136 0.000131762
-0.000137136 0.00251527 7.73119e-06
0.000131762 7.73119e-06 0.00249801
0.00176992 3.47034e-05 2.93562e-07
3.47034e-05 0.00014049 -3.64634e-07
2.93562e-07 -3.64634e-07 2.99192e-05
0.00175431 4.66968e-05 -7.98472e-07
4.66968e-05 8.15644e-05 1.95874e-07
-7.98472e-07 1.95874e-07 -1.52289e-05
0.00181382 7.4972e-05 4.27344e-07
7.4972e-05 7.6368e-05 -5.47984e-08
4.27344e-07 -5.47984e-08 -8.37715e-06
0.00169617 -3.55068e-06 -1.42386e-06
-3.55068e-06 0.00021946 -3.28418e-07
-1.42386e-06 -3.28418e-07 9.96591e-05
0.00169514 4.55164e-07 4.73312e-07
4.55164e-07 0.000105716 6.07939e-08
4.73312e-07 6.07939e-08 -5.87595e-06
0.00170752 -1.96196e-06 6.55832e-07
-1.96196e-06 6.56564e-05 -2.72976e-08
6.55832e-07 -2.72976e-08 -2.75849e-05
0.00173261 -9.70164e-06 2.00377e-07
-9.70164e-06 0.000134833 5.13143e-07
2.00377e-07 5.13143e-07 2.32507e-05
0.00172911 -1.0879e-05 2.26497e-06
-1.0879e-05 0.000232705 -2.33176e-07
2.26497e-06 -2.33176e-07 0.000110249
0.000785511 -8.11989e-06 -1.29584e-05
-8.11989e-06 -0.000177233 6.46319e-07
-1.29584e-05 6.46319e-07 -0.00029565
0.00170386 -3.32133e-05 4.80939e-06
-3.32133e-05 0.000220421 -2.10584e-07
4.80939e-06 -2.10584e-07 9.20397e-05
0.000918011 -2.08844e-05 -2.50699e-06
-2.08844e-05 -9.92416e-05 2.91628e-07
-2.50699e-06 2.91628e-07 -0.000218661
0.000648337 -5.83042e-06 -1.78741e-05
-5.83042e-06 -9.98775e-05 1.88327e-06
-1.78741e-05 1.88327e-06 -0.000168085
0.00105775 -4.37367e-05 1.1604e-05
-4.37367e-05 -1.25369e-05 -1.97354e-06
1.1604e-05 -1.97354e-06 -0.000131796
0.000631958 -2.54168e-05 5.83567e-07
-2.54168e-05 -0.000104083 6.25766e-09
5.83567e-07 6.25766e-09 -0.000171962
0.00530725 -9.58837e-05 -0.000191004
-9.58837e-05 0.00270764 6.51969e-06
-0.000191004 6.51969e-06 0.00270833
0.000635944 -3.57613e-05 1.67233e-05
-3.57613e-05 -9.40662e-05 -3.44001e-06
1.67233e-05 -3.44001e-06 -0.000163075
0.0052808 -3.59889e-05 8.13101e-06
-3.59889e-05 0.00268878 5.03383e-08
8.13101e-06 5.03383e-08 0.00269163
0.0015203 -1.27296e-05 0.00016005
-1.27296e-05 0.000515971 -7.97065e-06
0.00016005 -7.97065e-06 0.00050091
0.00165713 4.99815e-05 1.36407e-06
4.99815e-05 9.47266e-05 3.85426e-07
1.36407e-06 3.85426e-07 -1.98624e-05
0.00178318 7.66187e-05 -2.14002e-06
7.66187e-05 0.00011068 -3.04712e-07
-2.14002e-06 -3.04712e-07 1.19884e-05
0.00143679 5.35133e-05 -3.20331e-06
5.35133e-05 7.70687e-05 1.37255e-07
-3.20331e-06 1.37255e-07 -5.0116e-05
0.00163024 6.25337e-05 4.81489e-07
6.25337e-05 7.99639e-05 1.69138e-08
4.81489e-07 1.69138e-08 -3.70575e-05
0.00186914 7.39997e-05 -1.17442e-06
7.39997e-05 0.000147261 -2.09657e-06
-1.17442e-06 -2.09657e-06 5.30759e-05
0.00107134 6.71414e-05 -1.17851e-05
6.71414e-05 -7.42501e-06 -2.00176e-06
-1.17851e-05 -2.00176e-06 -0.000124108
0.00139894 9.14419e-05 6.32546e-08
9.14419e-05 5.63543e-05 1.31212e-07
6.32546e-08 1.31212e-07 -7.69932e-05
0.00166467 0.000106649 1.43571e-07
0.000106649 9.49487e-05 -9.64865e-07
1.43571e-07 -9.64865e-07 -3.09666e-05
0.000599804 6.15909e-05 -1.68802e-05
6.15909e-05 -0.000114527 -4.65477e-06
-1.68802e-05 -4.65477e-06 -0.000183129
0.000850064 8.88636e-05 -3.24123e-06
8.88636e-05 -0.000125342 -4.16202e-07
-3.24123e-06 -4.16202e-07 -0.00024691
0.00174675 0.000140962 5.15507e-06
0.000140962 0.000272948 9.58056e-07
5.15507e-06 9.58056e-07 0.000135169
0.00535747 0.000130155 -0.000199873
0.000130155 0.00273604 -1.36661e-05
-0.000199873 -1.36661e-05 0.00273603
0.000580675 8.54969e-05 7.75142e-08
8.54969e-05 -0.000111064 1.1159e-07
7.75142e-08 1.1159e-07 -0.000181987
0.000625971 0.000102066 8.5561e-06
0.000102066 -0.000238686 2.949e-06
8.5561e-06 2.949e-06 -0.000364143
0.00531127 9.28126e-05 1.03083e-05
9.28126e-05 0.00272142 1.78658e-06
1.03083e-05 1.78658e-06 0.00271686
0.000556893 0.000107416 1.73583e-05
0.000107416 -0.000109095 8.17154e-06
1.73583e-05 8.17154e-06 -0.000185401
0.00526508 -1.046e-06 0.000169898
-1.046e-06 0.00269602 1.13169e-05
0.000169898 1.13169e-05 0.00269324
0.00170787 2.42634e-05 -1.34606e-06
2.42634e-05 0.000229268 -1.71656e-07
-1.34606e-06 -1.71656e-07 0.000110671
0.00173786 3.02015e-05 -5.95824e-07
3.02015e-05 0.000124929 1.32245e-07
-5.95824e-07 1.32245e-07 1.34944e-05
0.00171351 4.44426e-05 -1.1458e-06
4.44426e-05 6.43418e-05 2.26856e-07
-1.1458e-06 2.26856e-07 -3.33689e-05
0.000765109 -9.59198e-06 -1.33759e-05
-9.59198e-06 -0.000184458 -3.32794e-07
-1.33759e-05 -3.32794e-07 -0.000300438
0.00171909 2.69055e-06 2.46626e-06
2.69055e-06 0.000232599 -7.91607e-08
2.46626e-06 -7.91607e-08 0.000112808
0.00172113 -1.28795e-06 8.0134e-08
-1.28795e-06 0.000120283 2.92717e-07
8.0134e-08 2.92717e-07 1.01845e-05
0.00173171 -1.05446e-05 6.21804e-06
-1.05446e-05 0.000233815 -2.88749e-08
6.21804e-06 -2.88749e-08 0.000111341
0.000769978 -7.92052e-06 -1.92387e-06
-7.92052e-06 -0.000186745 1.41842e-07
-1.92387e-06 1.41842e-07 -0.000305428
0.000655656 -2.14224e-05 -1.79782e-05
-2.14224e-05 -9.80102e-05 7.03587e-07
-1.79782e-05 7.03587e-07 -0.000165445
0.00104783 -1.90903e-05 9.40738e-06
-1.90903e-05 -2.47138e-05 -1.22482e-06
9.40738e-06 -1.22482e-06 -0.000142948
0.000633256 3.72406e-06 1.92484e-07
3.72406e-06 -0.000108668 7.06047e-08
1.92484e-07 7.06047e-08 -0.000176618
0.00538281 -7.52958e-05 -0.000200115
-7.52958e-05 0.0027481 4.38455e-06
-0.000200115 4.38455e-06 0.00275049
0.0006374 -2.27271e-05 1.74193e-05
-2.27271e-05 -0.000100476 -2.27117e-06
1.74193e-05 -2.27117e-06 -0.000168913
0.00534921 1.02236e-05 -2.94615e-06
1.02236e-05 0.00272458 1.0349e-06
-2.94615e-06 1.0349e-06 0.00272939
0.00531025 -5.7859e-05 0.000191961
-5.7859e-05 0.00270304 -6.0209e-06
0.000191961 -6.0209e-06 0.00270755
0.00143536 3.43354e-05 -3.2039e-06
3.43354e-05 7.94747e-05 -1.06374e-07
-3.2039e-06 -1.06374e-07 -4.48182e-05
0.00167429 5.28156e-05 -4.41326e-07
5.28156e-05 0.000103519 -7.5159e-07
-4.41326e-07 -7.5159e-07 -8.64425e-06
0.00175494 8.08975e-05 -3.50424e-06
8.08975e-05 8.83111e-05 -3.24292e-07
-3.50424e-06 -3.24292e-07 -8.77957e-06
0.001069 3.66169e-05 -1.16092e-05
3.66169e-05 -1.07255e-05 -1.44581e-06
-1.16092e-05 -1.44581e-06 -0.000124242
0.00140099 5.35462e-05 2.08166e-07
5.35462e-05 5.55548e-05 6.1187e-08
2.08166e-07 6.1187e-08 -7.19758e-05
0.00163147 6.14005e-05 -7.09149e-07
6.14005e-05 8.19777e-05 -1.61212e-06
-7.09149e-07 -1.61212e-06 -3.50613e-05
0.000624746 3.67581e-05 -1.64457e-05
3.67581e-05 -0.000107949 -3.453e-06
-1.64457e-05 -3.453e-06 -0.000175484
0.00106181 6.88105e-05 1.14901e-07
6.88105e-05 -1.24915e-05 2.19725e-07
1.14901e-07 2.19725e-07 -0.000129576
0.00137956 9.08804e-05 4.21052e-06
9.08804e-05 4.61478e-05 4.52445e-07
4.21052e-06 4.52445e-07 -8.73408e-05
0.00534376 0.0001386 -0.000212241
0.0001386 0.00272898 -1.20575e-05
-0.000212241 -1.20575e-05 0.00272838
0.000616942 6.27348e-05 2.57974e-07
6.27348e-05 -0.000104441 1.79464e-07
2.57974e-07 1.79464e-07 -0.000173259
0.00101669 9.58719e-05 8.7085e-06
9.58719e-05 -2.93289e-05 2.49719e-06
8.7085e-06 2.49719e-06 -0.00015039
0.0053101 0.000143364 5.42683e-06
0.000143364 0.00271578 2.01645e-06
5.42683e-06 2.01645e-06 0.00271301
0.000589941 8.36995e-05 1.65421e-05
8.36995e-05 -0.000105705 6.53078e-06
1.65421e-05 6.53078e-06 -0.000176649
0.00528513 0.000113244 0.000188516
0.000113244 0.00270336 1.48395e-05
0.000188516 1.48395e-05 0.00270136
0.00108798 1.09464e-05 -1.22475e-05
1.09464e-05 2.2108e-06 -7.59612e-07
-1.22475e-05 -7.59612e-07 -0.000109921
0.00154822 1.91874e-05 2.78489e-06
1.91874e-05 0.000138279 8.27362e-08
2.78489e-06 8.27362e-08 1.84665e-05
0.00170221 2.47631e-05 -1.21823e-06
2.47631e-05 0.000106854 2.3685e-07
-1.21823e-06 2.3685e-07 -5.45535e-06
0.000674341 2.60059e-05 -1.84276e-05
2.60059e-05 -9.24852e-05 -4.90279e-07
-1.84276e-05 -4.90279e-07 -0.000153755
0.00075184 -4.10074e-06 -2.15006e-06
-4.10074e-06 -0.000193285 -1.61625e-09
-2.15006e-06 -1.61625e-09 -0.000309505
0.00174282 8.97394e-06 6.41757e-06
8.97394e-06 0.000246164 1.77301e-07
6.41757e-06 1.77301e-07 0.000126374
0.000749172 -7.29638e-06 9.05073e-06
-7.29638e-06 -0.000199303 -3.44499e-07
9.05073e-06 -3.44499e-07 -0.000318244
0.000642881 -2.41976e-06 2.00628e-07
-2.41976e-06 -0.000105456 3.24494e-07
2.00628e-07 3.24494e-07 -0.000172643
0.00540725 4.99851e-05 -0.000207687
4.99851e-05 0.00275858 -8.71697e-07
-0.000207687 -8.71697e-07 0.00276332
0.000615192 1.30724e-05 1.70942e-05
1.30724e-05 -0.000119361 -1.1641e-06
1.70942e-05 -1.1641e-06 -0.000186899
0.00538878 -7.49335e-05 -7.89109e-06
-7.49335e-05 0.00275152 1.33162e-06
-7.89109e-06 1.33162e-06 0.00275363
0.00534794 3.27678e-05 0.000184908
3.27678e-05 0.0027243 -2.62967e-06
0.000184908 -2.62967e-06 0.0027284
0.00107396 1.91918e-05 -1.21019e-05
1.91918e-05 -6.99855e-06 -1.21736e-06
-1.21019e-05 -1.21736e-06 -0.000118993
0.00138223 3.367e-05 9.86045e-09
3.367e-05 4.75766e-05 -7.65882e-08
9.86045e-09 -7.65882e-08 -7.57304e-05
0.00169551 5.54902e-05 -2.18072e-06
5.54902e-05 0.000114542 -1.37044e-06
-2.18072e-06 -1.37044e-06 4.80362e-06
0.00257706 3.78265e-05 -0.0001024
3.78265e-05 0.00101534 -2.99605e-06
-0.0001024 -2.99605e-06 0.000968396
0.00107279 3.8856e-05 1.70685e-07
3.8856e-05 -8.94622e-06 1.86647e-07
1.70685e-07 1.86647e-07 -0.000122656
0.00136494 5.34548e-05 3.83476e-06
5.34548e-05 3.38525e-05 6.50085e-08
3.83476e-06 6.50085e-08 -9.40277e-05
0.00531679 0.00012284 -0.000215601
0.00012284 0.00271502 -9.36107e-06
-0.000215601 -9.36107e-06 0.00271457
0.000655079 4.88926e-05 6.16277e-07
4.88926e-05 -8.9103e-05 2.73913e-07
6.16277e-07 2.73913e-07 -0.000157689
0.00106316 7.08013e-05 1.17696e-05
7.08013e-05 -1.15786e-05 2.42566e-06
1.17696e-05 2.42566e-06 -0.000129043
0.00535433 0.000151967 1.09669e-06
0.000151967 0.00273874 1.60819e-06
1.09669e-06 1.60819e-06 0.00273659
0.000642354 6.48473e-05 1.69701e-05
6.48473e-05 -8.90192e-05 5.30565e-06
1.69701e-05 5.30565e-06 -0.000158313
0.00527204 0.000164545 0.000197954
0.000164545 0.00269911 1.61274e-05
0.000197954 1.61274e-05 0.00269405
0.000710186 8.03523e-06 -1.62532e-05
8.03523e-06 -6.20216e-05 -1.76259e-06
-1.62532e-05 -1.76259e-06 -0.000128889
0.000915235 8.66936e-06 6.31384e-07
8.66936e-06 -9.66455e-05 2.06029e-07
6.31384e-07 2.06029e-07 -0.000210111
0.00138295 1.38936e-05 6.0415e-06
1.38936e-05 4.41217e-05 2.31743e-07
6.0415e-06 2.31743e-07 -7.68841e-05
0.00530756 -9.23497e-05 -0.000192106
-9.23497e-05 0.002717 -3.27528e-07
-0.000192106 -3.27528e-07 0.00271247
0.000641452 7.69702e-06 -3.48908e-07
7.69702e-06 -0.000106547 2.03141e-07
-3.48908e-07 2.03141e-07 -0.000170372
0.000744976 1.07215e-06 9.00707e-06
1.07215e-06 -0.000198488 1.95253e-07
9.00707e-06 1.95253e-07 -0.000314934
0.00061406 1.92817e-05 1.74402e-05
1.92817e-05 -0.000121835 2.04934e-07
1.74402e-05 2.04934e-07 -0.000188755
0.00537704 1.49499e-05 2.78702e-06
1.49499e-05 0.00274474 -3.49229e-07
2.78702e-06 -3.49229e-07 0.00274679
0.00541164 1.68627e-05 0.000196473
1.68627e-05 0.00275684 -8.18271e-07
0.000196473 -8.18271e-07 0.00276267
0.00262168 2.31956e-06 -0.000100326
2.31956e-06 0.0010377 -2.00474e-06
-0.000100326 -2.00474e-06 0.000991599
0.00108791 2.18531e-05 1.2218e-08
2.18531e-05 4.87972e-07 5.14219e-08
1.2218e-08 5.14219e-08 -0.000111595
0.00132669 3.3199e-05 3.57045e-06
3.3199e-05 1.43539e-05 -1.06442e-07
3.57045e-06 -1.06442e-07 -0.000107969
0.00499104 -6.53004e-05 -5.06805e-05
-6.53004e-05 0.00253767 1.98005e-08
-5.06805e-05 1.98005e-08 0.00252285
0.000665809 3.96288e-05 -3.41771e-08
3.96288e-05 -8.50689e-05 2.39417e-07
-3.41771e-08 2.39417e-07 -0.000152588
0.00108953 4.16009e-05 1.17038e-05
4.16009e-05 -9.91646e-08 1.86219e-06
1.17038e-05 1.86219e-06 -0.000113963
0.00535697 8.81021e-05 -1.12139e-05
8.81021e-05 0.00273331 -6.56409e-07
-1.12139e-05 -6.56409e-07 0.00273527
0.000683728 6.74744e-05 1.83299e-05
6.74744e-05 -7.15555e-05 4.4251e-06
1.83299e-05 4.4251e-06 -0.000140913
0.00534039 0.000174692 0.000208264
0.000174692 0.0027375 1.55821e-05
0.000208264 1.55821e-05 0.00273212
0.00165932 -4.12521e-05 -0.000170319
-4.12521e-05 0.000589381 4.69822e-07
-0.000170319 4.69822e-07 0.000575749
0.00164207 2.0958e-05 -4.1276e-05
2.0958e-05 0.000470617 2.12629e-07
-4.1276e-05 2.12629e-07 0.000417473
0.000749468 8.81591e-06 1.19196e-05
8.81591e-06 -0.000191542 9.23192e-07
1.19196e-05 9.23192e-07 -0.000306362
0.00532704 -3.79068e-05 8.31038e-06
-3.79068e-05 0.00272364 4.5355e-07
8.31038e-06 4.5355e-07 0.00272283
0.000643476 -9.73059e-06 1.78889e-05
-9.73059e-06 -0.000101759 9.75669e-07
1.78889e-05 9.75669e-07 -0.000167584
0.00539496 -5.53857e-05 0.000211658
-5.53857e-05 0.00275517 -9.75664e-07
0.000211658 -9.75664e-07 0.00275804
0.00128909 -8.96932e-06 -2.44936e-05
-8.96932e-06 0.00039695 -7.02527e-07
-2.44936e-05 -7.02527e-07 0.000363122
0.00163584 1.07945e-05 -4.15902e-05
1.07945e-05 0.00047091 -3.53377e-07
-4.15902e-05 -3.53377e-07 0.00041524
0.00108925 2.30096e-05 1.18669e-05
2.30096e-05 1.1021e-06 1.35072e-06
1.18669e-05 1.35072e-06 -0.000111095
0.00331036 3.83247e-05 7.76066e-05
3.83247e-05 0.00155349 1.59576e-06
7.76066e-05 1.59576e-06 0.00153973
0.000675112 4.81289e-05 1.83936e-05
4.81289e-05 -7.94792e-05 3.56163e-06
1.83936e-05 3.56163e-06 -0.000147282
0.00538135 8.38845e-05 0.000199125
8.38845e-05 0.0027442 9.88725e-06
0.000199125 9.88725e-06 0.00274808
0.00525388 -2.55035e-05 -8.87038e-06
-2.55035e-05 0.00268435 -1.09414e-06
-8.87038e-06 -1.09414e-06 0.00268294
0.000653668 3.54003e-05 1.88656e-05
3.54003e-05 -9.9557e-05 1.77394e-06
1.88656e-05 1.77394e-06 -0.000160641
0.00525768 5.5204e-05 0.000196313
5.5204e-05 0.00268119 -4.14965e-07
0.000196313 -4.14965e-07 0.00268285
0.00328032 2.76361e-05 9.1818e-05
2.76361e-05 0.00154077 2.22787e-06
9.1818e-05 2.22787e-06 0.00152623
0.000681479 5.51582e-06 1.78969e-05
5.51582e-06 -7.73639e-05 2.49013e-06
1.78969e-05 2.49013e-06 -0.000143022
0.00533277 -3.70847e-05 0.000191998
-3.70847e-05 0.00271891 4.72846e-06
0.000191998 4.72846e-06 0.00272134
0.00526467 -0.000132805 0.000190929
-0.000132805 0.00269728 -1.88328e-06
0.000190929 -1.88328e-06 0.00269071
0.00526551 -2.24872e-05 0.000189853
-2.24872e-05 0.00267753 2.26372e-06
0.000189853 2.26372e-06 0.00268309
