# vtk DataFile Version 2.0
Wound Healing Simulation
ASCII
DATASET UNSTRUCTURED_GRID
POINTS 3012 float
69.9759 18.75 4
67.2507 60.3285 4
69.976 18.75 2
73.0099 25.446 4
71.1327 20.9142 4
68.6801 16.6661 4
67.8245 19.9262 3.98027
67.2507 60.3286 2
71.1327 54.0858 4
68.6801 58.3339 4
65.6939 62.2254 4
65.3111 59.0006 3.97929
74.6784 42.3946 4
73.7221 47.2057 4
69.9759 18.75 0
73.0099 25.446 2
68.6801 16.6661 2
71.1327 20.9142 2
67.8251 19.9297 2
74.6792 32.6053 4
73.7222 27.7943 4
72.1454 23.1494 4
70.6133 26.2209 3.97981
68.8847 21.958 3.98066
67.2507 14.6715 4
66.6359 17.9725 3.97925
65.7938 21.0271 3.96953
67.2507 60.3285 0
71.1327 54.0858 2
68.6801 58.3339 2
65.694 62.2255 2
65.3124 58.9966 2
72.1454 51.8506 4
69.9759 56.25 4
68.8354 53.113 3.97985
64.0165 64.0165 4
66.6097 57.1334 3.97982
63.8841 60.7649 3.97945
63.4971 57.768 3.97069
60.3285 67.2507 4
74.6792 42.3947 2
73.7222 47.2057 2
74.9194 39.9526 4
74.2788 44.8158 4
72.1676 42.0855 3.97959
73.0099 49.554 4
71.2485 46.5979 3.97913
73.0099 25.446 0
71.1327 20.9142 0
68.6801 16.6661 0
67.8245 19.9262 0.019727
74.6792 32.6053 2
73.7222 27.7943 2
67.2508 14.6715 2
72.1455 23.1494 2
70.6132 26.2215 2
66.6369 17.9768 2
68.8851 21.9602 2
65.7931 21.0281 2
74.9197 35.0474 4
74.2794 30.1841 4
72.1843 32.9434 3.97984
71.2774 28.4314 3.97941
69.8146 24.0595 3.98042
68.344 26.9523 3.9688
66.7594 22.9345 3.96914
65.694 12.7746 4
65.3222 16.1045 3.97875
64.7099 19.1981 3.96986
63.8748 22.0416 3.96609
71.1327 54.0858 0
65.6939 62.2254 0
68.6801 58.3339 0
65.3111 59.0006 0.0207073
72.1455 51.8506 2
69.9759 56.25 2
68.8356 53.111 2
64.0165 64.0165 2
66.6106 57.1295 2
63.8859 60.7613 2
63.4965 57.7677 2
62.2254 65.694 4
58.8937 65.4138 3.98908
69.768 50.9888 3.97957
67.7827 55.1671 3.97978
66.6463 52.2078 3.96845
62.3348 62.4267 3.98318
64.6574 56.0292 3.96976
62.1987 59.3974 3.96919
61.8159 56.6733 3.96591
58.3339 68.6801 4
60.3285 67.2508 2
73.7221 47.2057 0
74.6784 42.3946 0
74.9197 39.9526 2
74.2794 44.8159 2
72.1671 42.0854 2
73.0099 49.554 2
71.2484 46.5977 2
75 37.5 4
72.4049 39.8022 3.98025
71.7819 44.3528 3.97955
69.8018 41.7895 3.96907
70.5743 48.8134 3.97921
68.9095 46.0141 3.9686
74.6792 32.6053 0
73.7222 27.7943 0
67.2507 14.6715 0
72.1454 23.1494 0
70.6133 26.2209 0.0201863
68.8847 21.958 0.0193404
66.6359 17.9725 0.0207534
65.7938 21.0271 0.0304724
74.9197 35.0474 2
74.2794 30.1841 2
72.1837 32.9438 2
71.2773 28.4319 2
65.694 12.7745 2
65.3238 16.1092 2
69.8147 24.0607 2
68.3439 26.953 2
64.7093 19.1989 2
66.7589 22.9355 2
63.8745 22.0421 2
72.4128 35.2242 3.9803
71.8033 30.6764 3.97985
69.8378 33.2689 3.96921
68.9634 29.0389 3.96884
67.6083 24.913 3.96889
66.1734 27.6399 3.96698
64.0165 10.9835 4
64.7401 23.8359 3.96646
63.8884 14.3288 3.98007
63.5091 17.4526 3.97046
62.8975 20.3279 3.9655
62.0421 22.9619 3.96693
60.6828 11.0991 3.98471
57.6109 11.4538 3.97632
72.1454 51.8506 0
69.9759 56.25 0
68.8354 53.113 0.0201497
64.0165 64.0165 0
63.8841 60.7649 0.0205508
66.6097 57.1334 0.0201786
63.4971 57.768 0.0293136
62.2255 65.694 2
58.8952 65.4128 2
69.768 50.9878 2
67.7832 55.1639 2
66.6458 52.207 2
62.3368 62.4239 2
64.6568 56.0285 2
62.1981 59.3977 2
61.8153 56.6732 2
60.6675 63.9762 3.98597
57.0249 66.7346 3.99054
57.5563 63.6875 3.97864
67.5044 50.1755 3.96819
65.6986 54.1716 3.96888
64.5176 51.3784 3.96574
60.77 60.9313 3.97254
62.8128 55.0615 3.96566
60.6489 58.1471 3.96435
60.3158 55.7714 3.96465
56.25 69.9759 4
58.3339 68.6801 2
60.3285 67.2507 0
58.9204 9.657 3.98694
62.2254 9.30607 4
73.0099 49.554 0
74.2788 44.8158 0
71.2485 46.5979 0.0208747
72.1676 42.0855 0.0204077
74.9194 39.9526 0
75 37.5 2
72.4049 39.8024 2
71.7818 44.3524 2
69.8012 41.7892 2
70.5741 48.8131 2
68.9094 46.0135 2
72.4883 37.5121 3.97985
70.0392 39.6574 3.96921
69.4279 43.9071 3.96889
67.5768 41.4951 3.96844
68.2629 48.1061 3.96829
66.682 45.4345 3.96759
74.9197 35.0474 0
74.2794 30.1841 0
72.1843 32.9434 0.0201638
71.2774 28.4314 0.0205902
65.694 12.7746 0
65.3222 16.1045 0.0212502
69.8146 24.0595 0.019576
68.344 26.9523 0.0312026
66.7594 22.9345 0.0308566
64.7099 19.1981 0.0301364
63.8748 22.0416 0.0339136
72.4127 35.2244 2
71.8033 30.6769 2
69.8372 33.2693 2
68.9634 29.0395 2
64.0165 10.9835 2
63.8906 14.3329 2
63.5085 17.4534 2
67.608 24.9139 2
66.1735 27.6403 2
62.8971 20.3283 2
64.7397 23.8364 2
62.0415 22.9624 2
60.6854 11.1018 2
57.6121 11.4524 2
70.0559 35.3923 3.96934
69.4647 31.1501 3.96897
67.6382 33.5935 3.96812
66.7505 29.6275 3.96734
65.5037 25.705 3.96665
64.0666 28.2719 3.97025
62.3404 12.6563 3.9829
62.7958 24.6555 3.9682
62.1948 15.7937 3.97058
61.8044 18.6953 3.966
61.1749 21.3614 3.96521
60.3271 23.7596 3.96931
59.2439 12.7875 3.97342
55.8733 10.2392 3.97865
56.4024 13.1332 3.97303
69.768 50.9888 0.02043
62.2254 65.694 0
58.8937 65.4138 0.0109165
67.7827 55.1671 0.0202185
66.6463 52.2078 0.0315538
62.3348 62.4267 0.0168151
62.1987 59.3974 0.0308069
64.6574 56.0292 0.0302367
61.8159 56.6733 0.0340915
60.6694 63.9745 2
57.0259 66.7341 2
57.5564 63.6893 2
67.5041 50.1747 2
65.6979 54.1707 2
64.5175 51.378 2
60.7697 60.9319 2
62.8121 55.0613 2
60.6486 58.1472 2
60.3156 55.7711 2
55.0709 67.9315 3.99159
59.2166 62.3596 3.97369
55.8038 64.9068 3.98272
56.3235 62.0768 3.97467
65.3053 49.4011 3.96619
63.6941 53.2861 3.9655
62.3713 50.6317 3.96727
59.3264 59.5442 3.96738
61.0521 54.2938 3.96587
59.2706 56.9932 3.9635
59.2185 55.1634 3.96539
48.1014 68.5771 3.987
50.9487 69.9312 3.99171
54.0858 71.1327 4
56.25 69.976 2
58.3339 68.6801 0
57.0578 8.33678 3.98805
60.3285 7.74928 4
58.9228 9.65865 2
62.2255 9.30602 2
70.5743 48.8134 0.0207883
71.7819 44.3528 0.0204518
68.9095 46.0141 0.0313953
69.8018 41.7895 0.0309308
72.4049 39.8022 0.0197487
75 37.5 0
72.4878 37.5123 2
70.0391 39.6573 2
69.4277 43.9067 2
67.5768 41.4949 2
68.2628 48.1054 2
66.6814 45.4341 2
70.1272 37.5218 3.96924
67.8172 39.5113 3.96853
67.1982 43.466 3.96797
65.4685 41.2018 3.97281
66.0394 47.4114 3.96695
64.5562 44.8328 3.9709
72.4128 35.2242 0.0197011
71.8033 30.6764 0.020148
69.8378 33.2689 0.0307939
68.9634 29.0389 0.0311576
64.0165 10.9835 0
63.8884 14.3288 0.0199324
63.5091 17.4526 0.0295442
67.6083 24.913 0.0311137
66.1734 27.6399 0.0330175
64.7401 23.8359 0.033535
62.8975 20.3279 0.0345016
62.0421 22.9619 0.033067
60.6828 11.0991 0.0152934
57.6109 11.4538 0.0236782
70.0558 35.3925 2
69.4646 31.1506 2
67.6383 33.5937 2
66.7506 29.6278 2
62.3428 12.6602 2
62.1943 15.7938 2
61.8036 18.6957 2
65.5036 25.7055 2
64.0653 28.2725 2
61.1739 21.362 2
62.7951 24.6561 2
60.3267 23.7604 2
59.2452 12.7869 2
56.4031 13.1312 2
55.8742 10.2381 2
67.8562 35.5489 3.96851
67.2456 31.6261 3.96778
65.6216 33.9341 3.97272
64.5813 30.206 3.9712
63.4684 26.4318 3.96928
62.119 28.8043 3.97445
60.7724 14.2317 3.97273
60.9332 25.3689 3.97143
60.602 17.143 3.9655
60.1879 19.8378 3.96338
59.5686 22.2926 3.96612
58.8414 24.3634 3.97197
54.0368 9.1402 3.98074
57.9058 14.3496 3.97315
54.7843 12.0236 3.97415
55.3062 14.6733 3.97126
67.5044 50.1755 0.0318094
57.0249 66.7346 0.00945604
60.6675 63.9762 0.0140286
57.5563 63.6875 0.0213612
65.6986 54.1716 0.0311219
64.5176 51.3784 0.0342557
60.77 60.9313 0.0274615
60.6489 58.1471 0.0356536
62.8128 55.0615 0.0343355
60.3158 55.7714 0.0353535
55.0716 67.9314 2
59.2169 62.3609 2
55.8036 64.9079 2
56.3228 62.0791 2
65.3052 49.4007 2
63.694 53.2859 2
62.3711 50.6313 2
59.3256 59.5454 2
61.0527 54.2936 2
59.2712 56.993 2
59.2195 55.1631 2
53.0429 68.9993 3.99161
53.9662 66.0112 3.98465
57.8758 60.8564 3.97331
54.682 63.2011 3.97729
55.2053 60.5956 3.97337
63.1105 48.641 3.96854
61.6914 52.5567 3.96652
60.146 49.9854 3.96919
58.0029 58.2437 3.96481
59.2761 53.9226 3.96698
58.0789 55.7861 3.96092
50.1082 67.8555 3.98666
47.4623 66.5771 3.98328
46.0552 69.1561 3.9872
48.1014 68.5778 2
48.8027 70.7224 3.99182
50.9491 69.9311 2
51.8506 72.1454 4
54.0858 71.1327 2
56.25 69.9759 0
55.1027 7.14114 3.98993
58.3339 6.31992 4
57.0597 8.33775 2
60.3286 7.74926 2
58.9204 9.657 0.0130643
62.2254 9.30607 0
68.2629 48.1061 0.0317147
69.4279 43.9071 0.0311095
66.682 45.4345 0.0324099
67.5768 41.4951 0.0315593
70.0392 39.6574 0.0307934
72.4883 37.5121 0.0201511
70.1267 37.5218 2
67.817 39.5112 2
67.1988 43.4657 2
65.4672 41.2015 2
66.0396 47.411 2
64.5548 44.8323 2
67.9162 37.5223 3.96855
65.7055 39.3661 3.97307
65.0869 43.0136 3.97228
63.6052 40.9163 3.97735
63.8701 46.6981 3.96958
62.648 44.1919 3.97512
70.0559 35.3923 0.0306614
69.4647 31.1501 0.0310305
67.6382 33.5935 0.0318794
66.7505 29.6275 0.0326622
62.3404 12.6563 0.0171029
62.1948 15.7937 0.0294213
61.8044 18.6953 0.0339987
65.5037 25.705 0.0333534
64.0666 28.2719 0.0297532
62.7958 24.6555 0.0318048
61.1749 21.3614 0.0347858
60.3271 23.7596 0.0306894
59.2439 12.7875 0.0265784
56.4024 13.1332 0.0269725
55.8733 10.2392 0.0213502
67.8558 35.5491 2
67.2461 31.6264 2
65.6202 33.9344 2
64.5801 30.2064 2
60.7725 14.2326 2
60.6016 17.143 2
60.1892 19.8379 2
63.4674 26.4323 2
62.1166 28.8051 2
59.57 22.2932 2
60.9326 25.3697 2
58.8405 24.3646 2
57.9061 14.3483 2
55.3066 14.6724 2
54.0375 9.13861 2
54.785 12.0213 2
65.7978 35.6702 3.973
65.1009 32.1651 3.9717
64.1594 34.2593 3.97727
62.4363 30.6593 3.97558
61.5245 27.1018 3.97269
60.6706 29.175 3.9773
59.3036 15.6846 3.96917
59.1677 25.8402 3.97481
59.103 18.3781 3.96404
58.6674 20.8885 3.96301
58.1509 23.1386 3.96687
57.8094 24.716 3.9739
52.1118 8.15634 3.98355
53.0564 11.027 3.97604
56.6673 15.7666 3.97164
53.8048 13.7039 3.97388
54.364 16.0297 3.97271
55.0709 67.9315 0.00840598
65.3053 49.4011 0.0338105
55.8038 64.9068 0.0172778
59.2166 62.3596 0.0263063
56.3235 62.0768 0.0253258
63.6941 53.2861 0.0345032
62.3713 50.6317 0.0327274
59.3264 59.5442 0.0326231
59.2706 56.9932 0.0364998
61.0521 54.2938 0.0341337
59.2185 55.1634 0.0346142
53.0434 68.9993 2
53.9661 66.012 2
57.8749 60.8579 2
54.6814 63.2019 2
55.2048 60.5975 2
63.1097 48.6405 2
61.6922 52.5565 2
60.1457 49.9847 2
58.0022 58.245 2
59.2783 53.9223 2
58.0769 55.7849 2
52.0695 66.9983 3.98629
52.9525 64.2137 3.98133
56.6385 59.4713 3.97235
53.6768 61.6104 3.97622
54.2483 59.2974 3.97425
60.8338 47.8462 3.97019
59.6092 52.0734 3.96788
57.8526 49.5719 3.97096
56.7486 56.9627 3.9669
57.0438 54.0885 3.96488
50.108 67.8558 2
49.3363 65.9179 3.9833
47.4623 66.5777 2
46.8915 64.7301 3.98163
45.5573 67.0939 3.98331
43.9724 69.5881 3.98746
46.0551 69.1566 2
46.6092 71.3669 3.99187
48.1014 68.5771 0.0130009
48.8031 70.7226 2
49.554 73.0099 4
50.9487 69.9312 0.00828823
51.8506 72.1455 2
54.0858 71.1327 0
53.0644 6.0722 3.99126
55.1042 7.14126 2
56.25 5.02411 4
58.3339 6.3199 2
57.0578 8.33678 0.0119505
60.3285 7.74928 0
66.0394 47.4114 0.0330545
67.1982 43.466 0.0320337
64.5562 44.8328 0.0290987
65.4685 41.2018 0.0271859
67.8172 39.5113 0.0314662
70.1272 37.5218 0.0307642
67.9163 37.5223 2
65.7041 39.3659 2
65.0853 43.0131 2
63.6024 40.9158 2
63.8687 46.6975 2
62.6455 44.1912 2
65.8117 37.5015 3.97302
63.7549 39.2595 3.97742
63.1685 42.5308 3.97654
62.2317 40.6787 3.9771
61.8066 45.8894 3.9726
61.2402 43.6515 3.97714
67.8562 35.5489 0.0314928
67.2456 31.6261 0.0322185
65.6216 33.9341 0.0272782
64.5813 30.206 0.0287959
60.7724 14.2317 0.0272661
60.602 17.143 0.0344973
60.1879 19.8378 0.0366246
63.4684 26.4318 0.0307161
62.119 28.8043 0.0255475
60.9332 25.3689 0.0285691
59.5686 22.2926 0.0338833
58.8414 24.3634 0.0280343
57.9058 14.3496 0.0268499
55.3062 14.6733 0.0287358
54.0368 9.1402 0.0192649
54.7843 12.0236 0.0258491
65.7964 35.6703 2
65.0994 32.1655 2
64.1577 34.2597 2
62.4348 30.6599 2
59.3027 15.6852 2
59.1033 18.378 2
58.6724 20.8887 2
61.5229 27.1026 2
60.6692 29.1759 2
58.149 23.1401 2
59.1669 25.8413 2
57.8092 24.7176 2
56.6674 15.7649 2
54.3647 16.0307 2
53.8048 13.6981 2
52.1122 8.15524 2
53.057 11.0253 2
63.957 35.6376 3.9768
62.7671 33.0636 3.97632
60.4036 30.6475 3.97649
59.3836 27.953 3.97583
57.925 17.0072 3.96571
57.5572 25.7806 3.9764
57.6723 19.5077 3.96068
57.2524 21.8891 3.96313
57.0108 24.0054 3.96796
50.1122 7.28693 3.98642
51.2319 10.1315 3.97888
52.1683 12.812 3.97655
55.5205 17.0018 3.9701
52.9698 15.297 3.97103
53.7408 17.0161 3.97789
53.0429 68.9993 0.00838923
53.9662 66.0112 0.0153489
63.1105 48.641 0.0314599
54.682 63.2011 0.0227094
57.8758 60.8564 0.0266898
55.2053 60.5956 0.0266268
61.6914 52.5567 0.0334819
60.146 49.9854 0.0308146
58.0029 58.2437 0.035188
58.0789 55.7861 0.039077
59.2761 53.9226 0.033018
52.0694 66.9991 2
52.9521 64.2146 2
56.6379 59.4725 2
53.676 61.6104 2
54.248 59.2994 2
60.8324 47.8454 2
59.6094 52.0728 2
57.85 49.5706 2
56.7471 56.9669 2
57.0417 54.0873 2
51.1675 65.1246 3.9831
52.0438 62.5312 3.97781
55.4626 58.2292 3.97444
52.8252 60.1118 3.97731
53.6218 58.4476 3.97878
58.0739 46.7995 3.97432
57.4326 51.7457 3.9675
56.0362 49.501 3.97065
55.4254 55.7613 3.9629
55.253 53.3426 3.96287
50.1082 67.8555 0.0133443
49.3362 65.9181 2
48.6174 64.1176 3.98212
47.4623 66.5771 0.016716
45.5574 67.0944 2
46.8915 64.7305 2
46.381 63.0452 3.9821
45.1318 65.1903 3.98126
43.6306 67.4644 3.98358
41.86 69.8752 3.98718
43.9723 69.5886 2
44.3764 71.8617 3.99186
46.0552 69.1561 0.0127972
46.6095 71.3671 2
47.2057 73.7222 4
48.8027 70.7224 0.00817673
49.554 73.0099 2
51.8506 72.1454 0
50.9546 5.13265 3.99191
53.0654 6.07224 2
54.0858 3.86728 4
55.1027 7.14114 0.0100666
56.25 5.02406 2
58.3339 6.31992 0
63.8701 46.6981 0.0304238
65.0869 43.0136 0.0277155
62.648 44.1919 0.0248841
63.6052 40.9163 0.022645
65.7055 39.3661 0.0269309
67.9162 37.5223 0.0314522
65.8103 37.5015 2
63.7522 39.2593 2
63.1664 42.5301 2
62.2292 40.6781 2
61.8044 45.8886 2
61.2381 43.6506 2
63.8175 37.4562 3.97708
61.9494 39.3425 3.97711
60.9879 41.9298 3.97696
60.0303 44.7317 3.97676
65.7978 35.6702 0.027001
65.1009 32.1651 0.0282972
64.1594 34.2593 0.0227251
62.4363 30.6593 0.0244234
59.3036 15.6846 0.0308341
59.103 18.3781 0.0359553
58.6674 20.8885 0.0369886
61.5245 27.1018 0.027314
60.6706 29.175 0.0226958
59.1677 25.8402 0.025193
58.1509 23.1386 0.0331304
57.8094 24.716 0.0260984
56.6673 15.7666 0.0283569
54.364 16.0297 0.0272905
53.8048 13.7039 0.0261158
52.1118 8.15634 0.0164472
53.0564 11.027 0.0239572
63.9546 35.6378 2
62.7653 33.0642 2
60.402 30.6483 2
57.9238 17.0078 2
57.676 19.5068 2
57.2554 21.8899 2
59.3824 27.9539 2
57.0105 24.0074 2
57.5564 25.7824 2
50.1126 7.28524 2
55.5213 17.0012 2
53.7409 17.0155 2
52.9701 15.2951 2
52.1691 12.8125 2
51.2325 10.1301 2
61.9864 35.3731 3.97717
60.0393 32.7783 3.97698
58.3713 30.1266 3.97692
57.0599 27.4427 3.97699
56.6108 18.186 3.96656
56.0906 25.1703 3.97397
56.2852 20.5657 3.96005
55.9506 22.9315 3.96229
48.0567 6.52836 3.9885
49.3245 9.33615 3.98132
50.4311 12.0056 3.97596
51.3705 14.5201 3.97178
54.3889 17.9551 3.97182
52.3448 17.08 3.96768
52.0695 66.9983 0.0137115
52.9525 64.2137 0.0186692
60.8338 47.8462 0.0298098
53.6768 61.6104 0.0237813
56.6385 59.4713 0.0276484
54.2483 59.2974 0.0257468
59.6092 52.0734 0.0321195
57.8526 49.5719 0.0290446
56.7486 56.9627 0.0331001
57.0438 54.0885 0.0351195
51.1673 65.1253 2
52.0432 62.532 2
55.4621 58.2306 2
52.8247 60.1153 2
53.6213 58.4489 2
58.0726 46.7985 2
57.4313 51.7446 2
56.0334 49.4999 2
55.4246 55.7618 2
55.2555 53.3428 2
50.3453 63.3758 3.98185
51.2384 60.9225 3.97653
54.1904 57.2451 3.97504
52.2957 58.6057 3.9756
56.3792 44.1189 3.97744
55.2308 47.8344 3.97405
54.9064 51.3401 3.96565
53.9314 54.507 3.96426
49.3363 65.9179 0.016705
48.6172 64.1176 2
47.9606 62.4677 3.98161
45.5573 67.0939 0.0166878
46.8915 64.7301 0.0183687
43.6307 67.4649 2
46.381 63.0456 2
45.1318 65.1908 2
45.986 61.5762 3.98429
44.7664 63.4438 3.97998
43.3561 65.4994 3.98102
41.6629 67.6827 3.98333
39.7021 70.0217 3.98725
41.8598 69.8758 2
42.1107 72.2064 3.99198
43.9724 69.5881 0.0125385
44.3768 71.8618 2
44.8159 74.2794 4
46.6092 71.3669 0.00813166
47.2057 73.7222 2
49.554 73.0099 0
48.7854 4.32312 3.99257
50.9552 5.13208 2
51.8506 2.85458 4
53.0644 6.0722 0.00874344
54.0858 3.86728 2
56.25 5.02411 0
61.8066 45.8894 0.027404
63.1685 42.5308 0.0234608
61.2402 43.6515 0.0228604
62.2317 40.6787 0.0229012
63.7549 39.2595 0.022577
65.8117 37.5015 0.0269821
63.8145 37.4562 2
61.9475 39.3425 2
60.9861 41.9291 2
60.0296 44.7308 2
61.7851 37.443 3.97732
59.9727 39.8252 3.97714
58.6924 42.872 3.97686
63.957 35.6376 0.023196
62.7671 33.0636 0.0236751
60.4036 30.6475 0.0235111
57.925 17.0072 0.0342909
57.6723 19.5077 0.0393158
57.2524 21.8891 0.0368674
59.3836 27.953 0.0241713
57.5572 25.7806 0.0235966
57.0108 24.0054 0.0320428
55.5205 17.0018 0.0299036
53.7408 17.0161 0.0221111
52.9698 15.297 0.0289698
50.1122 7.28693 0.0135824
52.1683 12.812 0.0234505
51.2319 10.1315 0.0211154
61.9846 35.3735 2
60.0376 32.7785 2
58.3705 30.1274 2
56.6097 18.187 2
56.2888 20.5633 2
55.9536 22.9333 2
57.0599 27.4443 2
56.0909 25.1723 2
48.0568 6.52706 2
49.3251 9.33414 2
54.3897 17.9548 2
52.345 17.0793 2
51.3702 14.515 2
50.432 12.0038 2
59.6138 35.1365 3.97708
57.672 32.3171 3.97641
56.267 29.4084 3.97753
55.1754 26.6844 3.97721
55.3001 19.2252 3.9605
54.7362 24.1364 3.96391
54.8944 21.6205 3.95966
45.9628 5.8831 3.98895
43.3743 7.47455 3.98585
47.3556 8.62629 3.98415
48.5991 11.3021 3.97801
49.7076 13.758 3.97583
50.6206 16.1651 3.9751
53.0915 18.7047 3.96626
51.2777 18.1049 3.97735
51.1675 65.1246 0.0168994
52.0438 62.5312 0.0221917
58.0739 46.7995 0.0256822
52.8252 60.1118 0.0226901
55.4626 58.2292 0.0255619
53.6218 58.4476 0.0212241
57.4326 51.7457 0.0325045
56.0362 49.501 0.0293507
55.4254 55.7613 0.0370996
55.253 53.3426 0.0371326
50.3449 63.376 2
51.2376 60.9226 2
54.1903 57.2468 2
52.2951 58.6068 2
56.3785 44.118 2
55.23 47.8336 2
54.9084 51.34 2
53.932 54.5085 2
49.5895 61.7382 3.98006
55.1995 41.6659 3.97561
50.5539 59.3093 3.97312
52.1474 56.4632 3.97069
53.8218 45.4871 3.9748
53.096 49.2653 3.96946
52.5459 52.8072 3.96164
48.6174 64.1176 0.01788
47.9604 62.4672 2
47.3258 61.0005 3.9855
43.6306 67.4644 0.0164194
45.1318 65.1903 0.0187414
46.381 63.0452 0.017902
41.6631 67.6828 2
43.356 65.5002 2
45.9861 61.5767 2
44.7665 63.4444 2
45.7619 60.6205 3.98374
44.4825 61.8221 3.98076
43.1458 63.7153 3.97916
41.5458 65.6364 3.97982
39.6324 67.7616 3.98296
37.5261 70.0464 3.98656
39.7019 70.0222 2
39.8176 72.4032 3.99176
41.86 69.8752 0.0128241
42.1111 72.2067 2
42.3947 74.6792 4
44.3764 71.8617 0.00813546
44.8159 74.2794 2
47.2057 73.7222 0
43.852 5.36008 3.98888
46.5713 3.64754 3.9927
48.7856 4.32259 2
49.554 1.99015 4
50.9546 5.13265 0.00808954
51.8506 2.85453 2
54.0858 3.86728 0
60.0303 44.7317 0.0232415
60.9879 41.9298 0.0230398
61.9494 39.3425 0.022887
63.8175 37.4562 0.0229217
61.7833 37.443 2
59.9721 39.8252 2
58.6917 42.871 2
59.4734 37.5654 3.97748
57.6457 40.6238 3.97732
54.6177 39.6828 3.97519
61.9864 35.3731 0.0228345
60.0393 32.7783 0.0230185
58.3713 30.1266 0.0230769
56.6108 18.186 0.0334361
56.2852 20.5657 0.0399534
55.9506 22.9315 0.0377147
57.0599 27.4427 0.0230087
56.0906 25.1703 0.0260309
54.3889 17.9551 0.0281808
52.3448 17.08 0.0323246
51.3705 14.5201 0.0282213
48.0567 6.52836 0.011497
49.3245 9.33615 0.0186837
50.4311 12.0056 0.0240381
59.6137 35.1363 2
45.9626 5.88242 2
43.3741 7.47368 2
57.672 32.3176 2
56.2658 29.4095 2
55.2989 19.2261 2
54.9022 21.6209 2
54.7355 24.1384 2
55.1728 26.6867 2
47.3558 8.62397 2
48.5998 11.2997 2
53.0927 18.7038 2
51.2788 18.1056 2
50.6215 16.1653 2
49.7078 13.7565 2
57.0299 34.7816 3.97737
55.3827 31.5765 3.97678
54.1858 28.4975 3.97754
53.5407 25.597 3.97603
53.908 20.1862 3.95898
53.4408 22.7906 3.95477
41.3994 7.08044 3.98596
45.3605 7.99573 3.9866
42.8664 9.41792 3.98252
46.6669 10.6579 3.98132
47.7409 13.1135 3.97788
48.9211 15.4219 3.97263
49.9837 17.7293 3.97396
51.6089 19.3833 3.97482
50.3453 63.3758 0.0181503
51.2384 60.9225 0.0234709
56.3792 44.1189 0.0225647
55.2308 47.8344 0.0259458
52.2957 58.6057 0.0244025
54.1904 57.2451 0.0249564
54.9064 51.3401 0.0343474
53.9314 54.507 0.0357421
49.5888 61.7379 2
55.1962 41.6643 2
50.5534 59.3105 2
52.1472 56.4647 2
53.8232 45.4869 2
53.1043 49.2655 2
52.5462 52.8067 2
48.841 60.1937 3.97807
52.0331 42.5549 3.98141
49.7631 57.6025 3.96882
50.5124 54.3981 3.96183
51.4917 47.1951 3.9756
51.0332 50.893 3.95601
47.6992 43.6908 3.98745
47.9606 62.4677 0.0183947
47.3256 61 2
46.6113 59.7879 3.98633
41.6629 67.6827 0.0166662
43.3561 65.4994 0.0189794
44.7664 63.4438 0.0200214
45.986 61.5762 0.0157102
39.6328 67.7622 2
41.5455 65.6362 2
45.7618 60.621 2
43.1459 63.7162 2
44.4826 61.8228 2
44.6186 60.2796 3.98495
42.9496 62.0683 3.9765
41.5997 63.8077 3.97905
39.6472 65.6029 3.97868
37.5634 67.7427 3.98191
31.6975 65.1222 3.98004
33.3926 67.4811 3.98175
35.3339 69.9566 3.98683
37.5259 70.0474 2
37.5095 72.4577 3.9919
39.7021 70.0217 0.0127526
39.8178 72.4035 2
39.9526 74.9197 4
42.1107 72.2064 0.00802374
42.3947 74.6792 2
44.8159 74.2794 0
41.7365 4.96921 3.98907
43.852 5.35918 2
44.3265 3.11072 3.99303
46.5715 3.64719 2
47.2057 1.27793 4
48.7854 4.32312 0.00742544
49.554 1.99013 2
51.8506 2.85458 0
58.6924 42.872 0.0231431
59.9727 39.8252 0.0228614
61.7851 37.443 0.0226782
59.4735 37.566 2
57.6452 40.624 2
54.6154 39.6852 2
56.4166 37.8847 3.97714
49.0636 41.2615 3.98492
52.6275 39.307 3.9837
39.443 6.80431 3.98595
59.6138 35.1365 0.0229247
57.672 32.3171 0.0235928
56.267 29.4084 0.0224725
55.3001 19.2252 0.0394979
54.8944 21.6205 0.0403436
54.7362 24.1364 0.0360879
55.1754 26.6844 0.022787
53.0915 18.7047 0.0337361
51.2777 18.1049 0.0226522
50.6206 16.1651 0.0249044
45.9628 5.8831 0.0110501
49.7076 13.758 0.0241689
47.3556 8.62629 0.0158462
48.5991 11.3021 0.0219868
43.3743 7.47455 0.0141463
57.0297 34.7811 2
41.3994 7.07917 2
45.3602 7.99512 2
42.8661 9.41724 2
55.3854 31.5745 2
54.1861 28.4983 2
53.9094 20.1883 2
53.4399 22.7888 2
53.5393 25.5985 2
46.6672 10.654 2
47.7415 13.1098 2
51.611 19.3843 2
49.9837 17.7271 2
48.9208 15.4228 2
54.4232 33.9791 3.97578
53.1227 30.5864 3.97751
52.278 27.3165 3.97561
51.9681 24.2053 3.97746
52.3077 21.1232 3.97248
41.0138 9.0521 3.98214
44.7257 9.99575 3.98474
42.468 10.9042 3.98714
46.0023 12.7364 3.97698
47.6719 14.5986 3.97255
48.0907 17.0054 3.97198
49.7917 19.7331 3.97147
49.5895 61.7382 0.019943
50.5539 59.3093 0.0268773
55.1995 41.6659 0.0243852
53.8218 45.4871 0.0252028
53.096 49.2653 0.0305414
52.1474 56.4632 0.0293129
52.5459 52.8072 0.0383555
48.8403 60.1921 2
52.0483 42.5597 2
49.7622 57.6033 2
50.5122 54.3997 2
51.4955 47.1947 2
51.0342 50.8916 2
47.7093 43.7147 2
47.97 58.7264 3.97863
49.6569 45.1998 3.97874
48.5476 55.8958 3.97467
49.0113 52.5581 3.9774
49.4362 48.9828 3.97353
45.4632 39.8327 3.87939
45.9321 42.558 3.90896
46.1128 45.7203 3.98308
43.2727 41.0811 3.76021
41.7873 41.9616 3.59105
47.3258 61.0005 0.0144956
46.6106 59.7873 2
45.4565 58.7832 3.98391
39.6324 67.7616 0.0170424
41.5458 65.6364 0.0201848
43.1458 63.7153 0.0208379
44.4825 61.8221 0.0192354
45.7619 60.6205 0.016262
41.5997 63.8078 2
37.5636 67.7437 2
39.6471 65.6035 2
44.6187 60.2801 2
42.9497 62.069 2
41.7527 62.4788 3.97791
42.4771 59.9625 3.97988
39.8938 63.5396 3.97659
37.6421 65.5007 3.97955
35.4637 67.6525 3.98201
33.5757 65.3343 3.97899
31.9594 63.29 3.9795
29.8838 64.714 3.98132
31.6973 65.1228 2
31.3773 67.1913 3.98238
33.3927 67.4819 2
33.1573 69.7506 3.98678
35.3337 69.9574 2
35.1952 72.3721 3.99176
37.5261 70.0464 0.0134374
37.5095 72.4583 2
37.5 75 4
39.8176 72.4032 0.00824202
39.9526 74.9197 2
42.3947 74.6792 0
39.6242 4.71684 3.98945
41.7366 4.96827 2
42.0629 2.71816 3.99329
43.852 5.36008 0.0111183
44.3266 3.11014 2
44.8158 0.721173 4
46.5713 3.64754 0.0072962
47.2057 1.27779 2
49.554 1.99015 0
57.6457 40.6238 0.0226797
59.4734 37.5654 0.0225159
54.6177 39.6828 0.0248111
49.0873 41.2769 2
56.4173 37.8844 2
52.6266 39.2891 2
53.4741 36.6305 3.9774
46.988 40.3575 3.91435
50.005 38.5225 3.98976
37.517 6.67551 3.98585
39.443 6.80283 2
39.2112 8.69506 3.98331
35.9428 8.49513 3.98403
57.0299 34.7816 0.0226345
55.3827 31.5765 0.0232179
54.1858 28.4975 0.0224648
53.908 20.1862 0.0410227
53.4408 22.7906 0.0452283
53.5407 25.597 0.0239744
51.6089 19.3833 0.0251848
49.9837 17.7293 0.0260351
48.9211 15.4219 0.0273688
45.3605 7.99573 0.0133953
47.7409 13.1135 0.0221213
46.6669 10.6579 0.0186802
41.3994 7.08044 0.0140442
42.8664 9.41792 0.0174823
54.4203 33.9815 2
41.0139 9.0509 2
44.7248 9.99542 2
42.4677 10.9044 2
53.1195 30.5864 2
52.2868 27.3169 2
52.3119 21.1245 2
51.9692 24.2095 2
46.0024 12.7303 2
47.6719 14.5948 2
49.7942 19.7335 2
48.0897 17.0033 2
51.9602 32.8905 3.98071
50.9183 29.2766 3.97588
50.5386 25.836 3.97303
49.8612 22.3254 3.98365
40.5687 11.6121 3.98088
43.857 11.9155 3.98006
45.791 15.4367 3.98244
47.4837 19.3445 3.97736
45.8642 37.4836 3.87425
48.841 60.1937 0.0219285
49.7631 57.6025 0.0311754
52.0331 42.5549 0.0185879
51.4917 47.1951 0.0243955
51.0332 50.893 0.0439904
50.5124 54.3981 0.0381659
47.6992 43.6908 0.0125532
47.969 58.7282 2
49.6694 45.21 2
48.5455 55.8985 2
49.0103 52.5624 2
49.4402 48.9798 2
45.5124 39.8471 2
45.9575 42.5901 2
46.1199 45.729 2
43.2987 41.1106 2
41.8089 41.9802 2
46.8115 57.3285 3.97998
44.0232 39.3723 3.75868
42.1393 40.8389 3.6401
47.7509 47.202 3.97956
47.0942 54.2103 3.97011
47.4281 50.7102 3.97056
44.5289 47.3258 3.97676
44.5808 41.9004 3.85683
44.5904 44.4566 3.92462
42.1949 42.5689 3.77577
40.7303 42.2783 3.62612
46.6113 59.7879 0.0136727
45.4565 58.7831 2
43.8611 57.6955 3.98089
37.5634 67.7427 0.0180853
39.6472 65.6029 0.021323
41.5997 63.8077 0.0209466
42.9496 62.0683 0.0234977
44.6186 60.2796 0.0150539
35.4639 67.6534 2
41.7528 62.4793 2
39.8936 63.5401 2
37.642 65.5015 2
42.4774 59.9629 2
40.623 61.6323 3.97963
40.439 58.1803 3.97952
37.8369 63.2004 3.97754
35.573 65.4232 3.97937
33.5756 65.3349 2
31.9591 63.2906 2
33.6287 63.328 3.97785
30.3788 62.8496 3.9806
32.1241 61.9937 3.98392
26.8717 61.4907 3.978
28.0629 64.1426 3.98085
29.8836 64.7146 2
29.4069 66.7556 3.9831
31.6975 65.1222 0.0199633
31.3774 67.1921 2
31.0149 69.4156 3.98666
33.3926 67.4811 0.0182455
33.1571 69.7513 2
32.8924 72.1466 3.99183
35.3339 69.9566 0.0131656
35.195 72.3726 2
35.0474 74.9194 4
37.5095 72.4577 0.00810133
37.5 75 2
39.9526 74.9197 0
35.6216 6.7266 3.98549
37.5237 4.61627 3.98957
39.6242 4.71556 2
39.7894 2.47474 3.99325
41.7365 4.96921 0.0109313
42.0629 2.71761 2
42.3946 0.32156 4
44.3265 3.11072 0.00696573
44.8159 0.72056 2
47.2057 1.27793 0
49.0636 41.2615 0.0150766
56.4166 37.8847 0.022863
52.6275 39.307 0.0163007
47.0105 40.3555 2
50.0111 38.5112 2
53.4794 36.6385 2
50.7942 35.5788 3.97576
47.6572 37.7575 3.93062
45.4672 35.1516 3.87588
43.2796 33.9036 3.75464
41.788 33.0331 3.58697
37.4584 8.53676 3.98424
37.5169 6.67427 2
39.443 6.80431 0.0140451
39.2115 8.69333 2
38.9764 10.1298 3.98358
35.8991 9.777 3.98117
34.1519 8.82604 3.98266
35.9425 8.49355 2
54.4232 33.9791 0.0242231
53.1227 30.5864 0.022487
52.278 27.3165 0.0243862
52.3077 21.1232 0.0275206
51.9681 24.2053 0.0225383
49.7917 19.7331 0.02853
48.0907 17.0054 0.028016
47.6719 14.5986 0.0274526
44.7257 9.99575 0.0152552
46.0023 12.7364 0.0230239
41.0138 9.0521 0.0178577
42.468 10.9042 0.0128609
51.967 32.8903 2
40.5696 11.612 2
43.8557 11.9164 2
50.9375 29.2762 2
50.5434 25.8381 2
49.8629 22.3229 2
45.7893 15.4222 2
47.4858 19.3495 2
49.5093 31.4943 3.98719
48.9576 27.6055 3.97543
49.2256 24.51 3.97709
47.1423 22.0904 3.98428
38.3022 12.742 3.97776
42.0989 14.3069 3.97925
44.7868 18.527 3.97739
44.3839 37.4906 3.76794
45.9382 37.4898 2
47.97 58.7264 0.0213694
48.5476 55.8958 0.0253323
49.6569 45.1998 0.0212584
49.4362 48.9828 0.0264674
49.0113 52.5581 0.0225951
45.4632 39.8327 0.120612
45.9321 42.558 0.0910446
46.1128 45.7203 0.0169208
43.2727 41.0811 0.239793
41.7873 41.9616 0.408948
46.8096 57.33 2
44.0607 39.3939 2
42.1336 40.8501 2
47.7562 47.2043 2
47.0921 54.2145 2
47.4311 50.7144 2
44.5423 47.3041 2
44.6076 41.9258 2
44.6179 44.4755 2
42.2434 42.6024 2
40.7471 42.279 2
45.3575 55.9156 3.9895
42.4655 39.2608 3.65142
40.6112 40.7235 3.749
45.8736 48.8639 3.99182
45.4272 52.4956 3.98316
43.2398 48.3289 3.99751
43.1685 45.9871 3.90665
43.3299 43.6784 3.85382
40.8642 43.6711 3.7552
39.2401 42.5605 3.63902
45.4565 58.7832 0.0160911
43.8606 57.6967 2
42.0887 56.299 3.98364
35.4637 67.6525 0.0179937
37.6421 65.5007 0.0204456
39.8938 63.5396 0.0234128
41.7527 62.4788 0.0220903
42.4771 59.9625 0.0201231
35.573 65.4243 2
40.6232 61.6329 2
37.8365 63.2011 2
40.439 58.1817 2
38.9167 56.4743 3.99095
38.2507 60.3145 3.97892
35.6068 63.194 3.97651
33.5757 65.3343 0.0210125
31.9594 63.29 0.0205032
33.6285 63.3287 2
30.3787 62.8502 2
32.1245 61.9945 2
28.6824 62.1952 3.98044
33.3456 61.503 3.97918
31.0698 61.2111 3.97976
27.5767 59.5838 3.9809
23.8031 59.0712 3.97895
25.0383 60.8639 3.97876
26.872 61.4911 2
26.2302 63.4729 3.97983
28.0628 64.1426 2
27.4636 66.1798 3.98328
29.8838 64.714 0.0186784
29.4069 66.756 2
28.9073 68.9417 3.98644
31.3773 67.1913 0.0176167
31.0147 69.4163 2
30.6149 71.7776 3.99154
33.1573 69.7506 0.013224
32.892 72.147 2
32.6054 74.6784 4
35.1952 72.3721 0.0082441
35.0474 74.9197 2
37.5 75 0
33.7244 6.98209 3.98469
35.4357 4.68654 3.98944
35.6214 6.72558 2
37.515 2.38721 3.99328
37.5237 4.61539 2
39.6242 4.71684 0.0105494
39.7892 2.47404 2
39.9526 0.0806499 4
42.0629 2.71816 0.00671335
42.3947 0.320817 2
44.8158 0.721173 0
44.0339 35.6066 3.75701
42.1419 34.1487 3.63437
46.988 40.3575 0.0856518
50.005 38.5225 0.0102407
53.4741 36.6305 0.0226006
47.6558 37.7536 2
50.8068 35.5734 2
45.5073 35.1265 2
43.3115 33.8718 2
41.8102 33.0133 2
47.8269 34.3061 3.95809
44.5839 33.0686 3.85072
42.1995 32.4246 3.76773
40.7327 32.7206 3.62298
37.3109 10.6343 3.98101
37.4585 8.53503 2
37.517 6.67551 0.0141483
39.2112 8.69506 0.0166902
38.9776 10.1284 2
34.7549 10.3851 3.98137
35.8996 9.77415 2
32.3789 9.37367 3.98014
34.151 8.82376 2
35.9428 8.49513 0.0159696
51.9602 32.8905 0.0192944
50.9183 29.2766 0.0241174
50.5386 25.836 0.0269708
49.8612 22.3254 0.0163503
47.4837 19.3445 0.0226369
45.791 15.4367 0.0175557
43.857 11.9155 0.0199425
40.5687 11.6121 0.0191237
49.5246 31.4908 2
38.3023 12.7404 2
42.0996 14.3107 2
48.9661 27.6078 2
49.2297 24.5089 2
47.1387 22.0837 2
44.7874 18.5485 2
47.3527 29.6036 3.98409
46.9135 25.2546 3.97848
44.2607 21.463 3.97861
36.5834 12.942 3.97578
38.683 14.8248 3.97575
41.7448 17.8858 3.97847
42.5885 37.4831 3.6708
44.421 37.4898 2
45.8642 37.4836 0.125746
46.8115 57.3285 0.0200225
47.0942 54.2103 0.0298866
47.7509 47.202 0.0204419
47.4281 50.7102 0.0294393
44.0232 39.3723 0.241316
44.5808 41.9004 0.143168
44.5904 44.4566 0.0753776
44.5289 47.3258 0.0232357
42.1949 42.5689 0.224231
42.1393 40.8389 0.3599
40.7303 42.2783 0.373878
45.3557 55.9152 2
42.4569 39.2615 2
40.6144 40.7077 2
45.8761 48.8722 2
45.4259 52.5023 2
43.2458 48.346 2
43.2109 46.0187 2
43.3685 43.705 2
40.8979 43.7164 2
39.2372 42.562 2
43.6873 54.4066 3.99837
40.7115 39.1319 3.76276
39.1089 40.792 3.73909
43.5461 50.3944 4.0045
41.8471 47.5279 3.94338
41.7509 45.0845 3.86944
39.3353 44.3422 3.75391
37.5065 42.6561 3.6651
43.8611 57.6955 0.0191124
42.0884 56.3003 2
40.4005 54.879 3.98162
35.573 65.4232 0.020628
37.8369 63.2004 0.0224558
40.623 61.6323 0.0203725
40.439 58.1803 0.0204835
35.6064 63.1945 2
38.251 60.3152 2
38.9167 56.4741 2
37.9924 55.1986 3.99185
36.9334 57.6119 3.98529
35.3638 60.8995 3.97653
33.6287 63.328 0.0221465
30.3788 62.8496 0.0193992
32.1241 61.9937 0.0160818
33.3463 61.5037 2
28.6826 62.1951 2
31.0703 61.2119 2
29.4083 60.2806 3.9781
32.3617 59.7316 3.98833
28.0389 58.3654 3.99194
27.5779 59.5843 2
25.3921 58.5857 3.97746
22.7734 58.2249 3.9685
23.4063 60.3401 3.9794
23.8041 59.0721 2
25.0389 60.8644 2
24.4337 62.7644 3.97985
26.8717 61.4907 0.021995
26.2302 63.4736 2
25.548 65.489 3.98213
28.0629 64.1426 0.019146
27.4636 66.1802 2
26.8369 68.3301 3.98644
29.4069 66.7556 0.0168966
28.9071 68.9418 2
28.3698 71.2629 3.99148
31.0149 69.4156 0.0133356
30.6143 71.7779 2
30.1842 74.2788 4
32.8924 72.1466 0.0081686
32.6053 74.6792 2
35.0474 74.9194 0
31.789 7.42221 3.98338
33.3481 4.92613 3.98883
33.7241 6.98042 2
35.2452 2.46325 3.99317
35.4355 4.68592 2
35.6216 6.7266 0.0145123
37.5 0 4
37.5146 2.38674 2
37.5237 4.61627 0.0104281
39.7894 2.47474 0.0067505
39.9526 0.0802889 2
42.3946 0.32156 0
42.4526 35.7105 3.64912
44.074 35.5838 2
40.6171 34.2709 3.74762
42.133 34.1374 2
47.6572 37.7575 0.0693757
50.7942 35.5788 0.0242444
45.4672 35.1516 0.124123
43.2796 33.9036 0.245358
41.788 33.0331 0.413034
47.8444 34.3067 2
44.6127 33.0499 2
42.2529 32.3875 2
40.7502 32.7193 2
45.8627 31.6546 3.92914
43.3287 31.3185 3.85424
40.8661 31.3285 3.75689
39.2404 32.4494 3.63744
35.6937 11.7822 3.97941
37.3126 10.6318 2
37.4584 8.53676 0.0157598
38.9764 10.1298 0.0164197
33.0999 11.2243 3.97658
34.7543 10.3811 2
35.8991 9.777 0.018828
30.484 10.0236 3.97983
32.378 9.3727 2
34.1519 8.82604 0.0173351
49.5093 31.4943 0.0128142
48.9576 27.6055 0.0245668
49.2256 24.51 0.0229121
47.1423 22.0904 0.0157195
44.7868 18.527 0.0226113
42.0989 14.3069 0.0207463
38.3022 12.742 0.0222407
36.5822 12.9348 2
47.3683 29.5762 2
38.6815 14.8147 2
41.7419 17.8805 2
46.9207 25.254 2
44.2559 21.4495 2
45.2452 27.7321 4.00318
43.6883 24.1769 4.01077
41.3212 20.8536 3.98013
35.7738 14.7772 3.97737
38.6817 17.6275 3.97861
40.7622 37.4762 3.77465
42.5873 37.4858 2
44.3839 37.4906 0.232065
45.3575 55.9156 0.0105021
45.4272 52.4956 0.0168376
45.8736 48.8639 0.00818113
42.4655 39.2608 0.348576
43.3299 43.6784 0.146184
43.1685 45.9871 0.0933464
43.2398 48.3289 0.00249179
40.8642 43.6711 0.244796
40.6112 40.7235 0.251001
39.2401 42.5605 0.360985
43.6844 54.4061 2
40.6984 39.1275 2
39.1103 40.7749 2
43.5456 50.4112 2
41.8377 47.551 2
41.7744 45.1195 2
37.5036 42.6614 2
39.3512 44.3851 2
41.8392 52.9373 3.99515
39.1251 39.145 3.75961
37.507 40.8416 3.75515
35.7752 42.5684 3.64033
40.853 49.5828 3.99663
39.7903 45.9091 3.84594
37.5045 44.5742 3.75651
42.0887 56.299 0.0163615
40.3964 54.8911 2
38.7196 53.7556 3.99637
35.6068 63.194 0.0234878
38.2507 60.3145 0.0210818
38.9167 56.4743 0.00904999
35.3641 60.899 2
36.9341 57.6125 2
37.9913 55.1883 2
36.3231 55.2749 3.99812
34.49 58.5049 3.9865
33.3456 61.503 0.0208182
28.6824 62.1952 0.019556
31.0698 61.2111 0.0202363
32.3625 59.733 2
29.4093 60.2803 2
30.3161 57.8084 3.98454
28.0403 58.3657 2
26.9762 56.8192 3.97527
27.5767 59.5838 0.0191037
25.3935 58.5865 2
23.871 56.7858 3.96171
21.3571 57.3761 3.96687
22.0028 59.6093 3.97683
22.7742 58.2266 2
22.7387 62.0147 3.97788
23.407 60.3407 2
23.8031 59.0712 0.0210495
25.0383 60.8639 0.0212374
24.4339 62.7651 2
23.6823 64.7063 3.9814
26.2302 63.4729 0.020166
25.548 65.49 2
24.8091 67.5912 3.98601
27.4636 66.1798 0.0167199
26.8368 68.3307 2
26.165 70.6037 3.99151
28.9073 68.9417 0.0135636
28.3693 71.2629 2
27.7943 73.7221 4
30.6149 71.7776 0.00845717
30.1841 74.2794 2
32.6054 74.6784 0
29.8117 7.99698 3.98228
31.2536 5.33313 3.98788
31.7885 7.42102 2
32.981 2.70154 3.99287
33.3477 4.92497 2
33.7244 6.98209 0.0153087
35.0474 0.080333 4
35.2448 2.46297 2
35.4357 4.68654 0.0105609
37.5 0 2
37.515 2.38721 0.00672122
39.9526 0.0806499 0
40.7186 35.8357 3.76022
42.4461 35.7135 2
44.0339 35.6066 0.242989
28.5445 10.6989 3.97871
39.1037 34.2164 3.73852
40.6127 34.2865 2
42.1419 34.1487 0.365628
47.8269 34.3061 0.0419077
44.5839 33.0686 0.149275
42.1995 32.4246 0.23227
40.7327 32.7206 0.377019
45.8928 31.6345 2
43.3651 31.2864 2
40.9035 31.2809 2
39.2428 32.4488 2
44.1446 29.8513 3.92362
41.7461 29.9123 3.86876
39.3403 30.6619 3.75295
37.5101 32.3627 3.66496
34.0949 12.9459 3.97548
35.693 11.7754 2
37.3109 10.6343 0.0189912
31.1883 11.9943 3.97785
33.0997 11.2231 2
34.7549 10.3851 0.018633
30.4825 10.0208 2
32.3789 9.37367 0.0198609
47.3527 29.6036 0.0159138
46.9135 25.2546 0.0215217
36.5834 12.942 0.0242192
44.2607 21.463 0.0213906
41.7448 17.8858 0.0215276
38.683 14.8248 0.0242483
35.7748 14.7832 2
45.2504 27.7304 2
38.6789 17.6294 2
41.3162 20.8475 2
43.6914 24.1691 2
33.6114 15.895 3.97721
42.8684 26.5842 3.99157
40.8527 23.4257 4.0044
38.411 20.405 3.98561
35.8523 17.5309 3.97981
39.1304 37.4894 3.78278
40.7501 37.4773 2
42.5885 37.4831 0.329196
43.6873 54.4066 0.0016286
43.5461 50.3944 -0.00450446
40.7115 39.1319 0.237244
41.7509 45.0845 0.130555
41.8471 47.5279 0.0566208
39.3353 44.3422 0.246091
39.1089 40.792 0.260912
37.5065 42.6561 0.3349
41.8354 52.9352 2
39.1166 39.1318 2
37.506 40.8209 2
40.8531 49.5992 2
35.7721 42.5693 2
39.8095 45.9517 2
37.4969 44.6112 2
39.7793 51.7935 4.00099
37.5032 39.1545 3.78826
35.908 40.8048 3.73989
34.2814 42.2916 3.62409
35.6743 44.3537 3.75021
38.6672 48.5539 3.95763
37.5171 46.1989 3.86472
40.4005 54.879 0.0183771
38.7193 53.7469 2
36.7465 53.0889 3.99825
35.3638 60.8995 0.0234692
36.9334 57.6119 0.0147077
37.9924 55.1986 0.00814978
34.4904 58.5041 2
36.3229 55.277 2
33.2483 55.4636 3.99311
32.3617 59.7316 0.0116684
29.4083 60.2806 0.0219026
30.3176 57.808 2
28.7394 55.3058 3.97986
28.0389 58.3654 0.00805907
26.9773 56.8196 2
25.3658 55.1238 3.96667
21.8533 55.3247 3.96366
25.3921 58.5857 0.0225399
23.8715 56.7885 2
20.2438 57.0053 3.96958
20.6581 58.76 3.97075
21.3573 57.3776 2
21.1713 61.1597 3.97678
22.0035 59.6102 2
22.7734 58.2249 0.0314993
21.8963 63.8332 3.98006
22.7391 62.0153 2
23.4063 60.3401 0.0206
24.4337 62.7644 0.0201456
23.6824 64.7071 2
22.8375 66.7344 3.98497
25.548 65.489 0.0178721
24.809 67.5922 2
24.0092 69.8048 3.99157
26.8369 68.3301 0.0135552
26.1644 70.6039 2
25.446 73.0099 4
28.3698 71.2629 0.00851856
27.7943 73.7222 2
30.1842 74.2788 0
27.8215 8.65655 3.98198
29.1558 5.87948 3.98664
29.8108 7.99473 2
30.7264 3.09855 3.99258
31.2531 5.33208 2
31.789 7.42221 0.0166171
32.6053 0.320823 4
32.9805 2.70099 2
33.3481 4.92613 0.0111744
35.0474 0.0802903 2
35.2452 2.46325 0.00683235
37.5 0 0
39.1222 35.8459 3.76112
40.7016 35.8404 2
42.4526 35.7105 0.350879
28.5433 10.6978 2
26.6229 11.3951 3.97865
29.2274 12.65 3.97896
37.5027 34.1792 3.75378
39.1062 34.2351 2
40.6171 34.2709 0.252376
45.8627 31.6546 0.0708568
43.3287 31.3185 0.145758
40.8661 31.3285 0.243108
39.2404 32.4494 0.362556
44.152 29.839 2
41.7666 29.8817 2
39.3506 30.6186 2
37.5119 32.3568 2
42.1958 28.5213 3.89354
39.7887 29.0859 3.86648
37.5115 30.4396 3.75526
35.7804 32.4508 3.63892
31.9184 14.4944 3.97766
34.0954 12.9466 2
35.6937 11.7822 0.0205891
31.1872 11.9902 2
33.0999 11.2243 0.0234249
30.484 10.0236 0.0201714
45.2452 27.7321 -0.0031844
43.6883 24.1769 -0.0107651
35.7738 14.7772 0.0226334
41.3212 20.8536 0.0198666
38.6817 17.6275 0.0213892
33.6097 15.8898 2
35.8488 17.5339 2
42.8764 26.5851 2
38.4073 20.4061 2
40.8429 23.4099 2
33.5558 17.4051 3.97895
40.3064 25.7983 3.97692
38.0645 23.0959 3.9995
35.5831 20.1175 3.98376
37.5017 37.4994 3.80643
39.1222 37.4877 2
40.7622 37.4762 0.225349
41.8392 52.9373 0.00485126
40.853 49.5828 0.00336636
39.1251 39.145 0.240387
39.7903 45.9091 0.154065
37.5045 44.5742 0.243486
37.507 40.8416 0.244852
35.7752 42.5684 0.359673
39.7783 51.7974 2
37.504 39.142 2
35.9054 40.7892 2
38.6789 48.5979 2
34.2653 42.293 2
35.6556 44.3979 2
37.5179 46.2424 2
37.6614 50.8483 4.00057
35.8871 39.1623 3.76087
34.4028 40.746 3.74842
33.2221 41.9755 3.58966
34.1358 43.6738 3.75545
35.1959 45.9087 3.85962
36.9193 48.1729 3.92569
38.7196 53.7556 0.00363087
36.7443 53.0913 2
34.4063 52.402 3.99687
34.49 58.5049 0.0135042
36.3231 55.2749 0.00187901
33.2493 55.4678 2
30.5732 53.3307 3.98752
30.3161 57.8084 0.0154644
28.7404 55.3065 2
26.9652 53.4185 3.97172
26.9762 56.8192 0.0247311
25.3663 55.1279 2
23.6659 53.4524 3.95853
20.5789 53.1856 3.9613
19.9693 55.8069 3.96477
21.8518 55.3264 2
23.871 56.7858 0.0382933
19.4553 57.8667 3.96949
20.2435 57.0067 2
19.7132 60.1858 3.97478
20.6585 58.7604 2
21.3571 57.3761 0.0331253
20.2096 62.8529 3.97705
21.172 61.1616 2
22.0028 59.6093 0.023174
20.9389 65.7629 3.98367
21.8964 63.834 2
22.7387 62.0147 0.0221168
23.6823 64.7063 0.0185977
22.8374 66.7349 2
21.9117 68.8719 3.99123
24.8091 67.5912 0.0139925
24.0084 69.8049 2
23.1494 72.1454 4
26.165 70.6037 0.00849312
25.446 73.0099 2
27.7943 73.7221 0
25.8606 9.38551 3.98095
27.0705 6.54351 3.98556
27.8204 8.65553 2
28.4887 3.64457 3.99199
29.1551 5.87802 2
29.8117 7.99698 0.0177233
30.1841 0.720592 4
30.7256 3.09813 2
31.2536 5.33313 0.0121173
32.6053 0.320817 2
32.981 2.70154 0.00713447
35.0474 0.080333 0
37.5024 35.8507 3.78712
39.1102 35.8551 2
40.7186 35.8357 0.239778
24.7781 12.0812 3.97823
23.7544 14.3714 3.9761
28.5445 10.6989 0.0212878
26.622 11.3948 2
29.2264 12.6489 2
27.2938 13.3834 3.97823
29.7846 14.212 3.9787
35.9022 34.2168 3.73812
37.5051 34.1994 2
39.1037 34.2164 0.261475
37.5101 32.3627 0.335042
44.1446 29.8513 0.0763809
41.7461 29.9123 0.131236
39.3403 30.6619 0.247049
42.2176 28.4876 2
39.8018 29.0452 2
37.5148 30.4 2
35.7798 32.4494 2
39.9664 27.7259 3.90106
37.4972 28.8069 3.86389
35.6799 30.6747 3.7565
34.2911 32.7277 3.62363
30.9321 16.8555 3.97859
31.9172 14.4875 2
34.0949 12.9459 0.0245231
31.1883 11.9943 0.022148
42.8684 26.5842 0.00843028
40.8527 23.4257 -0.0044021
33.6114 15.895 0.0227901
35.8523 17.5309 0.0201851
38.411 20.405 0.0143921
33.5511 17.4165 2
35.5831 20.1209 2
40.3241 25.7846 2
38.0511 23.0847 2
32.871 19.8086 3.99163
37.7581 25.4034 3.98957
35.1952 22.8052 3.99526
35.8732 37.5035 3.78403
37.5013 37.4995 2
39.1304 37.4894 0.217224
39.7793 51.7935 -0.000990258
38.6672 48.5539 0.0423697
37.5032 39.1545 0.211736
37.5171 46.1989 0.135279
35.6743 44.3537 0.24979
35.908 40.8048 0.260108
34.2814 42.2916 0.375911
37.649 50.8703 2
35.8988 39.1504 2
34.4009 40.7316 2
36.8961 48.2178 2
33.1994 41.9932 2
34.1081 43.7186 2
35.1801 45.9448 2
35.5184 50.0186 3.99014
34.3021 39.1635 3.76231
32.8663 40.8581 3.63685
32.8103 42.5855 3.7703
33.265 45.0898 3.86535
34.363 47.2815 3.90037
36.7465 53.0889 0.00174914
34.3998 52.4087 2
32.0974 51.1452 4.01368
33.2483 55.4636 0.00688527
30.5736 53.3337 2
28.5321 51.5529 3.98591
28.7394 55.3058 0.0201409
26.9651 53.4219 2
25.2074 51.7037 3.95494
25.3658 55.1238 0.0333336
23.6651 53.4554 2
22.1161 51.7583 3.95389
19.3696 51.5891 3.96201
18.9907 54.2775 3.96274
20.5782 53.1849 2
18.472 56.7004 3.96733
19.968 55.8084 2
21.8533 55.3247 0.0363385
18.3792 59.0893 3.96862
19.4551 57.8677 2
20.2438 57.0053 0.0304211
18.6226 61.753 3.97411
19.714 60.1868 2
20.6581 58.76 0.0292486
19.128 64.6719 3.98209
20.2097 62.8539 2
21.1713 61.1597 0.0232191
19.886 67.8086 3.99106
20.9386 65.7635 2
21.8963 63.8332 0.0199449
22.8375 66.7344 0.0150301
21.9109 68.8716 2
20.9142 71.1327 4
24.0092 69.8048 0.00842586
23.1494 72.1455 2
25.446 73.0099 0
23.0977 12.7971 3.97751
23.9732 10.1742 3.97978
25.0241 7.31428 3.98448
25.8597 9.38492 2
26.2804 4.32866 3.99145
27.0697 6.54274 2
27.8215 8.65655 0.0180229
27.7943 1.27781 4
28.4876 3.64417 2
29.1558 5.87948 0.0133559
30.1841 0.720551 2
30.7264 3.09855 0.00741925
32.6053 0.320823 0
35.8768 35.8481 3.75756
37.5038 35.8638 2
39.1222 35.8459 0.238883
24.777 12.0795 2
23.7548 14.3721 2
22.4841 15.0496 3.97864
25.3603 13.9198 3.97615
24.0327 15.6349 3.98003
26.6229 11.3951 0.0213468
29.2274 12.65 0.0210379
27.2937 13.3835 2
29.7825 14.2102 2
28.3635 15.9869 3.97834
34.4035 34.2802 3.74729
35.8994 34.2339 2
37.5027 34.1792 0.246218
35.7804 32.4508 0.36108
37.5115 30.4396 0.244744
42.1958 28.5213 0.10646
39.7887 29.0859 0.133524
39.9833 27.6941 2
37.4985 28.7653 2
35.664 30.6265 2
34.2716 32.7291 2
37.5742 27.4441 3.91088
35.2073 29.1029 3.86546
34.144 31.3434 3.75548
33.2354 33.0448 3.58874
30.2184 19.3773 3.98088
30.9296 16.8482 2
31.9184 14.4944 0.0223363
40.3064 25.7983 0.0230792
38.0645 23.0959 0.0005015
33.5558 17.4051 0.0210501
35.5831 20.1175 0.0162431
32.868 19.8202 2
35.1872 22.7926 2
37.7705 25.3896 2
32.3258 22.5158 3.99616
35.0259 25.3565 4.0006
34.2451 37.5129 3.77565
35.8814 37.5046 2
37.5017 37.4994 0.193571
37.6614 50.8483 -0.000569176
36.9193 48.1729 0.0743148
35.8871 39.1623 0.239134
35.1959 45.9087 0.140385
34.1358 43.6738 0.244549
34.4028 40.746 0.251584
33.2221 41.9755 0.410337
35.5051 50.0244 2
34.318 39.1582 2
32.8708 40.8669 2
34.3574 47.323 2
32.7713 42.6188 2
33.2472 45.1219 2
33.3417 49.036 3.9806
32.5456 39.2897 3.65176
31.7242 41.0993 3.75752
31.6728 43.6881 3.85593
32.4438 46.2315 3.9
34.4063 52.402 0.00313213
32.0992 51.1553 2
30.0189 49.6911 3.99551
30.5732 53.3307 0.0124755
28.5309 51.5503 2
26.6773 49.9296 3.97003
26.9652 53.4185 0.0282776
25.206 51.7023 2
23.5304 50.1283 3.96357
23.6659 53.4524 0.0414659
22.1152 51.7565 2
20.6662 50.2584 3.96467
18.1787 50.2832 3.96796
17.9649 52.7535 3.96395
19.368 51.5884 2
17.4839 55.3148 3.96252
18.9869 54.2778 2
20.5789 53.1856 0.0386953
17.15 57.8526 3.96571
18.4714 56.7008 2
19.9693 55.8069 0.0352292
17.1413 60.5299 3.9714
18.3792 59.0904 2
19.4553 57.8667 0.0305116
17.4092 63.4629 3.97752
18.623 61.7537 2
19.7132 60.1858 0.0252214
17.9425 66.617 3.98992
19.1277 64.6726 2
20.2096 62.8529 0.0229508
18.75 69.9759 4
19.885 67.8081 2
20.9389 65.7629 0.0163324
21.9117 68.8719 0.00876706
20.9142 71.1327 2
23.1494 72.1454 0
21.5894 13.6197 3.97715
22.1912 11.0347 3.97859
23.0974 12.7979 2
23.0418 8.18082 3.98343
23.9721 10.1728 2
24.1181 5.14348 3.99088
25.0232 7.31354 2
25.8606 9.38551 0.0190542
25.446 1.99014 4
26.2792 4.32869 2
27.0705 6.54351 0.0144398
27.7943 1.27778 2
28.4887 3.64457 0.00800871
30.1841 0.720592 0
34.2991 35.861 3.76259
35.8861 35.8608 2
37.5024 35.8507 0.212875
21.3127 15.8475 3.98147
24.7781 12.0812 0.0217734
23.7544 14.3714 0.023895
25.3601 13.9172 2
22.4849 15.0497 2
24.0331 15.6371 2
23.2749 16.2654 3.97514
25.3888 16.1057 3.97938
27.2938 13.3834 0.021771
29.7846 14.212 0.0213032
28.3609 15.9908 2
27.4504 18.8295 3.97918
32.8706 34.1643 3.63834
34.4041 34.2968 2
35.9022 34.2168 0.261882
34.2911 32.7277 0.376373
35.6799 30.6747 0.243498
37.4972 28.8069 0.136106
39.9664 27.7259 0.0989446
37.5747 27.4073 2
33.2122 33.0277 2
35.2 29.055 2
34.1067 31.2926 2
35.104 27.5546 3.90991
33.2585 29.9251 3.86409
32.824 32.4283 3.75634
29.6185 21.9783 3.99593
30.2166 19.3882 2
30.9321 16.8555 0.0214094
37.7581 25.4034 0.0104272
35.1952 22.8052 0.00473626
32.871 19.8086 0.00836836
32.325 22.5068 2
35.0516 25.3445 2
31.8264 25.7471 4.00722
32.4044 37.5138 3.67346
34.2625 37.5117 2
35.8732 37.5035 0.21597
35.5184 50.0186 0.00985688
34.363 47.2815 0.0996304
34.3021 39.1635 0.237689
33.265 45.0898 0.134652
32.8103 42.5855 0.229705
32.8663 40.8581 0.363149
33.33 49.0357 2
32.5596 39.2891 2
31.6889 41.1272 2
32.4113 46.2653 2
31.6392 43.7167 2
31.3456 47.8772 3.98371
30.9744 39.3966 3.75846
30.4192 41.9359 3.85365
30.7055 44.8401 3.92064
32.0974 51.1452 -0.0136807
30.0189 49.7065 2
28.1112 48.1152 3.95888
28.5321 51.5529 0.0140903
26.676 49.9281 2
24.8923 48.3951 3.97216
25.2074 51.7037 0.0450635
23.5298 50.1264 2
21.9172 48.7183 3.97002
22.1161 51.7583 0.0461074
20.664 50.2573 2
19.257 49.0376 3.97201
17.0706 49.2895 3.97334
16.9171 51.3692 3.96703
18.1811 50.2819 2
16.4652 53.8422 3.96456
17.9629 52.7533 2
19.3696 51.5891 0.0379888
15.996 56.4573 3.96448
17.4806 55.3155 2
18.9907 54.2775 0.037258
15.758 59.1931 3.9679
17.1503 57.8532 2
18.472 56.7004 0.0326682
15.7909 62.1275 3.97276
17.1417 60.5316 2
18.3792 59.0893 0.0313793
16.0896 65.2993 3.98881
17.4087 63.4642 2
18.6226 61.753 0.0258948
16.6661 68.6801 4
17.9412 66.6163 2
19.128 64.6719 0.0179051
18.75 69.9759 2
19.886 67.8086 0.00894358
20.9142 71.1327 0
20.2233 14.6121 3.97593
21.5894 13.6198 2
20.531 12.0066 3.9777
21.1446 9.15132 3.98251
22.1907 11.0349 2
23.0977 12.7971 0.0224879
22.0172 6.08266 3.99028
23.0408 8.17974 2
23.9732 10.1742 0.0202238
23.1494 2.85457 4
24.1166 5.14365 2
25.0241 7.31428 0.0155222
25.446 1.99012 2
26.2804 4.32866 0.00855292
27.7943 1.27781 0
32.5344 35.7363 3.65072
34.315 35.866 2
35.8768 35.8481 0.242445
21.3136 15.8468 2
20.3152 16.9799 3.9794
22.1071 16.6527 3.97172
25.3603 13.9198 0.0238533
22.4841 15.0496 0.0213572
24.0327 15.6349 0.019975
25.3884 16.1039 2
23.2755 16.2658 2
24.2168 18.4894 3.97316
27.0597 21.5014 3.99281
28.3635 15.9869 0.0216612
27.4502 18.8284 2
31.739 33.9325 3.75391
32.8782 34.1526 2
34.4035 34.2802 0.252708
33.2354 33.0448 0.411259
34.144 31.3434 0.244524
35.2073 29.1029 0.134543
37.5742 27.4441 0.0891172
35.1077 27.5125 2
32.7543 32.3954 2
33.2431 29.9043 2
32.6965 28.2561 3.92042
31.672 31.3399 3.8556
28.9372 24.4635 3.98324
29.6127 21.9886 2
30.2184 19.3773 0.019116
35.0259 25.3565 -0.00059667
32.3258 22.5158 0.0038437
31.8261 25.7246 2
29.8487 27.397 3.97664
30.6065 37.5125 3.76643
32.4164 37.5125 2
34.2451 37.5129 0.22435
33.3417 49.036 0.0194011
32.4438 46.2315 0.100002
32.5456 39.2897 0.348243
31.6728 43.6881 0.144073
31.7242 41.0993 0.24248
31.342 47.8821 2
30.9278 39.4198 2
30.3909 41.9523 2
30.68 44.8651 2
29.4872 46.4863 3.99937
29.527 39.8539 3.87794
29.122 43.0763 3.92134
30.0189 49.6911 0.0044906
28.1077 48.1099 2
26.2569 46.5741 3.97651
26.6773 49.9296 0.0299744
24.8917 48.3929 2
23.1268 46.9933 3.97496
23.5304 50.1283 0.0364253
21.9151 48.7174 2
20.2342 47.5558 3.9771
20.6662 50.2584 0.0353277
19.2587 49.0361 2
17.8767 48.1311 3.97655
16.3082 48.6453 3.97621
17.0721 49.2886 2
15.997 50.1342 3.97076
15.4753 52.3865 3.96657
16.9183 51.3684 2
18.1787 50.2832 0.0320446
14.9067 54.9581 3.96408
16.4658 53.8419 2
17.9649 52.7535 0.0360473
14.4704 57.7251 3.96641
15.9965 56.4576 2
17.4839 55.3148 0.0374783
14.2704 60.6818 3.9716
15.7586 59.1941 2
17.15 57.8526 0.034286
14.335 63.8576 3.98464
15.7908 62.1291 2
17.1413 60.5299 0.028603
14.6715 67.2507 4
16.0878 65.2983 2
17.4092 63.4629 0.0224763
16.6661 68.6801 2
17.9425 66.617 0.0100781
18.75 69.9759 0
18.9394 15.7987 3.9771
20.2237 14.6117 2
18.9818 13.1196 3.97575
21.5894 13.6197 0.0228453
20.5307 12.0067 2
19.3439 10.2404 3.98145
19.9917 7.14738 3.98964
21.1439 9.15123 2
22.1912 11.0347 0.0214109
20.9142 3.86727 4
22.0153 6.08303 2
23.0418 8.18082 0.0165709
23.1494 2.85451 2
24.1181 5.14348 0.00912461
25.446 1.99014 0
30.9937 35.635 3.75778
32.546 35.7373 2
34.2991 35.861 0.237408
21.3127 15.8475 0.0185325
22.1078 16.6529 2
20.3157 16.9782 2
19.2684 18.4301 3.97067
21.795 17.8764 3.98055
25.3888 16.1057 0.020618
23.2749 16.2654 0.0248583
24.2158 18.4915 2
22.3185 19.9297 3.96744
24.6417 21.3819 3.9877
26.546 23.7699 3.97331
27.0586 21.4956 2
27.4504 18.8295 0.0208172
30.4528 33.102 3.8665
31.7115 33.893 2
32.8706 34.1643 0.361657
32.824 32.4283 0.243657
33.2585 29.9251 0.135909
35.104 27.5546 0.0900915
32.6536 28.2266 2
31.6315 31.3036 2
30.3899 29.6633 3.94195
28.0989 26.6085 3.9903
28.9303 24.4785 2
29.6185 21.9783 0.0040695
31.8264 25.7471 -0.00721542
29.8414 27.3704 2
29.1227 37.5188 3.87507
30.5751 37.5128 2
32.4044 37.5138 0.326539
31.3456 47.8772 0.0162888
30.7055 44.8401 0.0793592
30.9744 39.3966 0.24154
30.4192 41.9359 0.146354
29.4868 46.4993 2
29.4893 39.8732 2
29.0924 43.1074 2
27.6929 44.7943 3.97156
27.2976 40.5931 3.94772
28.1112 48.1152 0.0411181
26.2522 46.575 2
24.3936 45.1139 3.97618
24.8923 48.3951 0.0278367
23.1256 46.9933 2
21.2224 45.8225 3.97808
21.9172 48.7183 0.0299783
20.2329 47.5545 2
18.5675 46.6824 3.97786
19.257 49.0376 0.027987
17.8777 48.13 2
16.521 47.6734 3.97708
16.3096 48.6445 2
15.3417 48.9822 3.97429
17.0706 49.2895 0.0266555
15.9989 50.1334 2
14.5952 50.957 3.96893
13.8809 53.4155 3.96557
15.4763 52.386 2
16.9171 51.3692 0.0329651
13.2662 56.1571 3.96582
14.9061 54.9582 2
16.4652 53.8422 0.0354431
12.8542 59.1165 3.97019
14.4714 57.7251 2
15.996 56.4573 0.0355206
12.6808 62.2997 3.98162
14.2707 60.6824 2
15.758 59.1931 0.0321007
12.7746 65.6939 4
14.3329 63.8554 2
15.7909 62.1275 0.0272359
14.6714 67.2507 2
16.0896 65.2993 0.0111854
16.6661 68.6801 0
17.6816 17.1765 3.97003
18.9398 15.7978 2
17.5146 14.3854 3.97528
20.2233 14.6121 0.0240676
18.9817 13.1196 2
17.6397 11.4606 3.97971
20.531 12.0066 0.0222979
19.3434 10.2403 2
18.0517 8.34051 3.98906
18.75 5.0241 4
19.9897 7.14853 2
21.1446 9.15132 0.0174868
20.9142 3.86727 2
22.0172 6.08266 0.00972217
23.1494 2.85457 0
29.5453 35.1771 3.87961
30.9408 35.6116 2
32.5344 35.7363 0.349284
22.1071 16.6527 0.0282809
20.3152 16.9799 0.0205985
21.7955 17.8745 2
19.2684 18.4285 2
18.0319 19.9698 3.95944
20.912 19.407 3.9711
24.2168 18.4894 0.0268389
22.3174 19.9296 2
24.6407 21.3833 2
22.4295 21.7631 3.97811
24.8138 23.2111 3.97382
25.6889 26.0025 3.97806
26.5472 23.7661 2
27.0597 21.5014 0.00719476
28.8314 32.4349 3.92503
30.4132 33.0781 2
31.739 33.9325 0.246088
31.672 31.3399 0.144404
32.6965 28.2561 0.0795839
30.3805 29.6646 2
27.3476 29.1972 4.00731
28.0879 26.6197 2
28.9372 24.4635 0.0167644
29.8487 27.397 0.0233621
27.4075 37.3681 3.92763
29.0616 37.5078 2
30.6065 37.5125 0.233574
29.4872 46.4863 0.000627284
29.122 43.0763 0.0786598
29.527 39.8539 0.122061
27.6824 44.8218 2
27.2769 40.5953 2
25.7248 43.101 3.98826
24.5541 39.4535 3.97477
26.2569 46.5741 0.0234909
24.3844 45.1146 2
22.2802 43.8712 3.97764
23.1268 46.9933 0.0250448
21.2195 45.8221 2
19.2807 44.9157 3.97742
20.2342 47.5558 0.0228985
18.5677 46.6813 2
16.8489 46.1694 3.97708
17.8767 48.1311 0.0234473
16.5223 47.6725 2
15.0917 47.6372 3.97569
16.3082 48.6453 0.0237944
15.3435 48.9814 2
13.899 49.52 3.97118
15.997 50.1342 0.0292381
14.5962 50.9565 2
12.954 51.8563 3.96698
12.1568 54.5186 3.96561
13.8809 53.4154 2
15.4753 52.3865 0.0334348
11.5399 57.4514 3.96973
13.2668 56.1571 2
14.9067 54.9581 0.0359183
11.1356 60.6253 3.97952
12.8551 59.116 2
14.4704 57.7251 0.0335905
10.9835 64.0165 4
12.6788 62.2964 2
14.2704 60.6818 0.0284045
12.7745 65.694 2
14.335 63.8576 0.0153557
14.6715 67.2507 0
16.4262 18.6726 3.96409
17.6816 17.1754 2
16.1084 15.7963 3.97207
18.9394 15.7987 0.022902
17.5146 14.3845 2
16.022 12.8153 3.97726
18.9818 13.1196 0.0242463
17.6394 11.4605 2
16.2028 9.66377 3.98838
19.3439 10.2404 0.0185529
18.0498 8.34204 2
16.6661 6.31991 4
18.75 5.02404 2
19.9917 7.14738 0.0103572
20.9142 3.86727 0
27.9411 34.8143 3.91784
29.5037 35.157 2
30.9937 35.635 0.242223
16.744 21.4053 3.96533
21.795 17.8764 0.0194536
19.2684 18.4301 0.0293316
20.9116 19.4052 2
18.0319 19.9691 2
19.8031 21.6107 3.96835
22.3185 19.9297 0.0325618
24.6417 21.3819 0.0122998
22.4288 21.7634 2
24.8134 23.2102 2
23.0278 24.6533 3.97346
24.8896 28.5866 3.97888
25.6839 25.9993 2
26.546 23.7699 0.0266936
26.6808 31.7842 3.98069
28.8031 32.4123 2
30.4528 33.102 0.1335
30.3899 29.6633 0.0580524
27.3676 29.1783 2
28.0989 26.6085 0.00969524
25.2378 36.8592 3.97959
27.3958 37.3608 2
29.1227 37.5188 0.12493
27.6929 44.7943 0.0284424
27.2976 40.5931 0.0522817
25.7068 43.1154 2
24.5364 39.4541 2
23.4478 41.8141 3.98033
22.2709 38.5223 3.97775
24.3936 45.1139 0.0238171
22.2793 43.8715 2
20.1171 42.8516 3.97659
21.2224 45.8225 0.0219216
19.2811 44.9158 2
17.2277 44.3372 3.97672
18.5675 46.6824 0.022143
16.8507 46.1686 2
15.0363 46.0579 3.97603
16.521 47.6734 0.0229194
15.0931 47.6366 2
13.4199 47.9837 3.97298
15.3417 48.9822 0.0257132
13.9002 49.5194 2
12.1791 50.2362 3.96823
14.5952 50.957 0.0310737
12.9544 51.8561 2
11.1553 52.8296 3.96603
10.3305 55.7066 3.96951
12.1573 54.5185 2
13.8809 53.4155 0.0344282
9.70218 58.8478 3.97859
11.5404 57.4511 2
13.2662 56.1571 0.0341764
9.30605 62.2254 4
11.134 60.6217 2
12.8542 59.1165 0.029806
10.9835 64.0165 2
12.6808 62.2997 0.0183812
12.7746 65.6939 0
15.1781 20.2058 3.96377
16.4265 18.6725 2
14.7607 17.3219 3.96561
17.6816 17.1765 0.0299722
16.1087 15.7951 2
14.4858 14.2994 3.97424
17.5146 14.3854 0.0247197
16.0216 12.8151 2
14.4457 11.1153 3.98725
17.6397 11.4606 0.020286
16.2009 9.66579 2
14.6715 7.74927 4
18.0517 8.34051 0.0109384
16.6661 6.31988 2
18.75 5.0241 0
25.9012 34.3074 3.98724
27.9186 34.823 2
29.5453 35.1771 0.120389
17.957 22.3579 3.97111
15.6196 22.9488 3.96809
16.7442 21.4054 2
20.912 19.407 0.0289036
18.0319 19.9698 0.0405604
19.8031 21.6102 2
19.8623 24.4336 3.97085
22.4295 21.7631 0.0218934
24.8138 23.2111 0.0261844
23.0252 24.6531 2
22.2563 27.8905 3.97336
24.2381 31.2621 3.97672
24.9017 28.5875 2
25.6889 26.0025 0.0219363
26.6629 31.7513 2
28.8314 32.4349 0.0749746
27.3476 29.1972 -0.00730685
22.9914 36.2886 3.98253
25.2234 36.8635 2
27.4075 37.3681 0.0723746
25.7248 43.101 0.011738
24.5541 39.4535 0.0252307
23.4357 41.8134 2
22.2622 38.5201 2
21.1619 40.6342 3.97543
20.5494 37.8035 3.97696
22.2802 43.8712 0.0223613
20.1156 42.853 2
17.6907 42.065 3.97633
19.2807 44.9157 0.022576
17.2291 44.3373 2
15.0734 44.1682 3.9762
16.8489 46.1694 0.0229234
15.0376 46.0573 2
13.1117 46.2721 3.97415
15.0917 47.6372 0.0243111
13.4212 47.9832 2
11.5598 48.5342 3.9693
13.899 49.52 0.0288226
12.1799 50.2359 2
10.2834 51.0744 3.96633
12.954 51.8563 0.0330162
11.1558 52.8293 2
9.23917 53.8868 3.96941
8.38558 56.9812 3.97926
10.3311 55.7059 2
12.1568 54.5186 0.034392
7.74927 60.3285 4
9.70092 58.844 2
11.5399 57.4514 0.0302656
9.306 62.2255 2
11.1356 60.6253 0.0204771
10.9835 64.0165 0
14.0066 21.7721 3.9649
15.1782 20.2057 2
13.4623 18.916 3.96603
16.4262 18.6726 0.0359089
14.7614 17.3215 2
13.0333 15.8967 3.9713
16.1084 15.7963 0.0279325
14.4851 14.2989 2
12.7835 12.6894 3.98493
16.022 12.8153 0.0227398
14.4437 11.1177 2
12.7746 9.30605 4
16.2028 9.66377 0.0116239
14.6715 7.74924 2
16.6661 6.31991 0
23.5786 33.8462 3.98377
25.8764 34.2995 2
27.9411 34.8143 0.0821608
17.799 24.0852 3.96987
17.9588 22.3582 2
14.4544 24.4829 3.96982
15.6207 22.9491 2
16.744 21.4053 0.0346728
19.3232 27.262 3.97217
19.8031 21.6107 0.0316545
19.8583 24.4336 2
21.5996 30.7339 3.97559
23.0278 24.6533 0.0265367
22.2636 27.8923 2
24.2166 31.2624 2
24.8896 28.5866 0.0211211
26.6808 31.7842 0.0193139
20.671 35.9552 3.97664
22.9918 36.288 2
25.2378 36.8592 0.0204052
23.4478 41.8141 0.0196725
22.2709 38.5223 0.0222534
21.1679 40.6342 2
20.548 37.8019 2
18.4361 39.0033 3.97718
20.1171 42.8516 0.0234065
17.6911 42.0651 2
15.0577 41.8908 3.97675
17.2277 44.3372 0.0232766
15.0747 44.1677 2
12.874 44.3712 3.97507
15.0363 46.0579 0.0239709
13.1133 46.2716 2
11.0716 46.7192 3.97016
13.4199 47.9837 0.0270232
11.5606 48.5338 2
9.54943 49.2349 3.96647
12.1791 50.2362 0.0317743
10.2838 51.0741 2
8.27199 52.0008 3.96916
11.1553 52.8296 0.0339705
9.23974 53.886 2
7.19454 55.0321 3.98014
6.31991 58.3339 4
8.38468 56.9775 2
10.3305 55.7066 0.030493
7.74924 60.3285 2
9.70218 58.8478 0.0214074
9.30605 62.2254 0
13.3427 25.3886 3.97288
12.8993 23.3019 3.96719
14.0056 21.772 2
12.2489 20.5611 3.96588
15.1781 20.2058 0.0362318
13.4636 18.9159 2
11.6644 17.5749 3.97057
14.7607 17.3219 0.0343862
13.034 15.8958 2
11.2218 14.3755 3.9802
14.4858 14.2994 0.0257648
12.7812 12.6921 2
10.9835 10.9835 4
14.4457 11.1153 0.0127495
12.7745 9.306 2
14.6715 7.74927 0
21.0346 33.4533 3.97582
23.5785 33.8435 2
25.9012 34.3074 0.0127555
16.1213 26.4437 3.97226
17.7993 24.0854 2
17.957 22.3579 0.0288874
14.4545 24.4834 2
15.6196 22.9488 0.0319081
18.7095 30.2311 3.9748
19.3207 27.2624 2
19.8623 24.4336 0.0291465
21.6047 30.7345 2
22.2563 27.8905 0.0266403
24.2381 31.2621 0.0232784
18.0482 35.9866 3.97793
20.6724 35.9559 2
22.9914 36.2886 0.0174669
21.1619 40.6342 0.0245688
20.5494 37.8035 0.0230432
18.4341 39.0031 2
14.5642 39.1694 3.97746
17.6907 42.065 0.0236684
15.0586 41.8906 2
12.5683 42.2616 3.9762
15.0734 44.1682 0.0237991
12.8753 44.3708 2
10.6584 44.79 3.97121
13.1117 46.2721 0.0258527
11.0727 46.7189 2
8.93434 47.3143 3.96666
11.5598 48.5342 0.0307017
9.54958 49.2345 2
7.43883 50.0345 3.96878
10.2834 51.0744 0.0336731
8.27239 52 2
6.13518 53.0074 3.98051
9.23917 53.8868 0.0305901
7.194 55.0292 2
5.0241 56.25 4
6.31988 58.3339 2
8.38558 56.9812 0.020742
7.74927 60.3285 0
13.6096 26.8427 3.97233
12.0096 24.8064 3.9691
13.342 25.3889 2
11.1615 22.2442 3.96594
12.8997 23.3021 2
14.0066 21.7721 0.035103
12.25 20.5612 2
10.3955 19.3263 3.9698
13.4623 18.916 0.0339675
11.6655 17.5751 2
9.76276 16.1593 3.97865
13.0333 15.8967 0.0287006
11.2198 14.3795 2
9.30607 12.7746 4
12.7835 12.6894 0.0150723
10.9835 10.9835 2
12.7746 9.30605 0
18.2204 33.1608 3.977
21.0353 33.4552 2
23.5786 33.8462 0.0162343
15.745 29.6775 3.97507
16.1211 26.4443 2
17.799 24.0852 0.0301321
14.4544 24.4829 0.0301791
18.7086 30.2318 2
19.3232 27.262 0.0278315
21.5996 30.7339 0.0244065
15.1841 36.0358 3.97764
18.0483 35.9864 2
20.671 35.9552 0.0233578
12.7979 37.8309 3.97773
18.4361 39.0033 0.0228157
14.5648 39.1692 2
12.0716 40.1331 3.97703
15.0577 41.8908 0.0232505
12.5696 42.2612 2
10.2645 42.7684 3.97133
12.874 44.3712 0.0249258
10.6593 44.7897 2
8.41336 45.3168 3.96704
11.0716 46.7192 0.0298433
8.93406 47.314 2
6.72997 47.9999 3.96852
9.54943 49.2349 0.0335291
7.43908 50.0338 2
5.21198 50.9108 3.98022
8.27199 52.0008 0.0308354
6.13491 53.0054 2
3.86727 54.0858 4
7.19454 55.0321 0.0198587
5.02404 56.25 2
6.31991 58.3339 0
13.087 29.0599 3.97208
11.4539 26.5057 3.96957
13.6092 26.8431 2
10.2225 23.9756 3.9667
12.0109 24.8068 2
13.3427 25.3886 0.0271164
9.24775 21.1424 3.96925
11.1618 22.2443 2
12.8993 23.3019 0.0328139
12.2489 20.5611 0.0341214
10.3967 19.3268 2
8.41841 18.0302 3.97882
11.6644 17.5749 0.0294323
9.76128 16.1639 2
7.74928 14.6715 4
11.2218 14.3755 0.0198021
9.30602 12.7745 2
10.9835 10.9835 0
14.7378 32.8944 3.97694
18.2187 33.1605 2
21.0346 33.4533 0.0241839
15.7463 29.6782 2
16.1213 26.4437 0.0277396
18.7095 30.2311 0.0252048
13.0904 36.2197 3.97728
15.184 36.0357 2
18.0482 35.9866 0.0220673
12.7999 37.8305 2
11.4153 38.3089 3.97713
14.5642 39.1694 0.022539
12.0741 40.1327 2
9.84856 40.7485 3.97176
12.5683 42.2616 0.023799
10.2662 42.7681 2
7.96341 43.2665 3.96746
10.6584 44.79 0.0287881
8.41371 45.3165 2
6.13601 45.9051 3.96839
8.93434 47.3143 0.0333392
6.73018 47.9993 2
4.42345 48.7515 3.97962
7.43883 50.0345 0.0312215
5.21189 50.9097 2
2.85457 51.8506 4
6.13518 53.0074 0.0194855
3.86727 54.0858 2
5.0241 56.25 0
12.2304 31.2785 3.97319
10.8759 28.4321 3.96984
13.0883 29.0604 2
9.44037 25.805 3.96706
11.4547 26.5061 2
13.6096 26.8427 0.0276738
8.2345 23.0256 3.96918
10.223 23.9759 2
12.0096 24.8064 0.0309039
7.20048 19.9797 3.97962
9.24884 21.1431 2
11.1615 22.2442 0.0340602
10.3955 19.3263 0.0301995
8.41756 18.0346 2
6.31992 16.6661 4
9.76276 16.1593 0.021354
7.74926 14.6714 2
9.30607 12.7746 0
12.2569 34.3113 3.97721
14.739 32.8951 2
18.2204 33.1608 0.0230019
15.745 29.6775 0.0249333
10.9641 36.6156 3.97674
13.0918 36.2196 2
15.1841 36.0358 0.0223604
12.7979 37.8309 0.0222665
11.418 38.3087 2
9.43499 38.8215 3.97233
12.0716 40.1331 0.0229676
9.84983 40.7482 2
7.57409 41.2092 3.96797
10.2645 42.7684 0.0286683
7.96275 43.2663 2
5.64773 43.7681 3.96849
8.41336 45.3168 0.0329616
6.13617 45.9046 2
3.769 46.5371 3.97922
6.72997 47.9999 0.0314842
4.42357 48.7509 2
1.99014 49.554 4
5.21198 50.9108 0.0197824
2.85451 51.8506 2
3.86727 54.0858 0
11.0537 32.9339 3.97508
10.1914 30.3965 3.97041
12.2322 31.279 2
8.75232 27.7383 3.96717
10.8768 28.4324 2
13.087 29.0599 0.0279222
7.35987 24.9839 3.96894
9.44043 25.8053 2
11.4539 26.5057 0.0304279
6.11742 22.0027 3.98038
8.23518 23.0263 2
10.2225 23.9756 0.033299
5.02411 18.75 4
7.20011 19.983 2
9.24775 21.1424 0.0307513
8.41841 18.0302 0.0211806
6.3199 16.6661 2
7.74928 14.6715 0
10.5636 35.0082 3.97602
12.2592 34.3119 2
14.7378 32.8944 0.0230583
9.09711 36.9864 3.97294
10.9664 36.6156 2
13.0904 36.2197 0.0227179
11.4153 38.3089 0.0228666
9.43643 38.8213 2
7.25113 39.1815 3.96834
9.84856 40.7485 0.0282432
7.57422 41.209 2
5.26268 41.6139 3.96858
7.96341 43.2665 0.0325356
5.64785 43.7677 2
3.24666 44.2818 3.97934
6.13601 45.9051 0.0316085
3.7692 46.5367 2
1.27781 47.2057 4
4.42345 48.7515 0.0203823
1.99012 49.554 2
2.85457 51.8506 0
10.2009 33.8915 3.97605
9.47279 32.165 3.97129
11.0557 32.9343 2
8.09911 29.7008 3.96756
10.1927 30.3969 2
12.2304 31.2785 0.0268108
6.60336 27.0095 3.96879
8.75191 27.7385 2
10.8759 28.4321 0.030163
5.17279 24.0952 3.98032
7.36022 24.9845 2
9.44037 25.805 0.0329356
3.86728 20.9142 4
6.11729 22.0047 2
8.2345 23.0256 0.0308249
5.02406 18.75 2
7.20048 19.9797 0.0203824
6.31992 16.6661 0
8.91795 35.2839 3.97309
10.5654 35.0084 2
12.2569 34.3113 0.0227881
7.03019 37.2065 3.9683
9.0984 36.9863 2
10.9641 36.6156 0.0232634
9.43499 38.8215 0.027675
7.25162 39.1814 2
4.99025 39.4674 3.96873
7.57409 41.2092 0.0320299
5.26315 41.6136 2
2.85702 42.0021 3.97947
5.64773 43.7681 0.0315066
3.24674 44.2815 2
0.720592 44.8159 4
3.769 46.5371 0.0207768
1.27778 47.2057 2
1.99014 49.554 0
8.95905 33.7049 3.97259
10.2026 33.8918 2
7.53325 31.6131 3.96793
9.4743 32.1653 2
11.0537 32.9339 0.0249209
5.94825 29.0703 3.9689
8.09857 29.701 2
10.1914 30.3965 0.0295942
4.36043 26.2476 3.97985
6.60353 27.0099 2
8.75232 27.7383 0.0328324
2.85458 23.1494 4
5.17281 24.0961 2
7.35987 24.9839 0.0310584
3.86728 20.9142 2
6.11742 22.0027 0.0196181
5.02411 18.75 0
6.9784 35.3077 3.96825
8.91926 35.2839 2
10.5636 35.0082 0.0239772
4.84038 37.3399 3.96909
7.03081 37.2065 2
9.09711 36.9864 0.0270643
7.25113 39.1815 0.0316565
4.99072 39.4673 2
2.60505 39.7137 3.97945
5.26268 41.6139 0.0314248
2.85739 42.002 2
0.320823 42.3947 4
3.24666 44.2818 0.0206605
0.720551 44.8159 2
1.27781 47.2057 0
7.1423 33.4636 3.96814
8.96009 33.7051 2
10.2009 33.8915 0.0239486
5.41881 31.134 3.96919
7.53313 31.6132 2
9.47279 32.165 0.0287081
3.68203 28.4435 3.97953
5.94841 29.0707 2
8.09911 29.7008 0.0324363
1.99015 25.446 4
4.36053 26.2479 2
6.60336 27.0095 0.0312111
2.85453 23.1494 2
5.17279 24.0952 0.0196848
3.86728 20.9142 0
4.85472 35.2518 3.96914
6.97842 35.3077 2
8.91795 35.2839 0.026913
2.49649 37.4284 3.98014
4.84041 37.34 2
7.03019 37.2065 0.0316987
4.99025 39.4674 0.0312667
2.60551 39.7141 2
0.080333 39.9526 4
2.85702 42.0021 0.0205327
0.320817 42.3947 2
0.720592 44.8159 0
5.04809 33.1905 3.96922
7.14228 33.4637 2
8.95905 33.7049 0.0274063
3.14621 30.6662 3.97961
5.41897 31.1344 2
7.53325 31.6131 0.0320699
1.27793 27.7943 4
3.68225 28.4437 2
5.94825 29.0703 0.0311002
1.99013 25.446 2
4.36043 26.2476 0.0201547
2.85458 23.1494 0
2.5486 35.159 3.9799
4.85529 35.252 2
6.9784 35.3077 0.031754
0 37.5 4
2.49653 37.4288 2
4.84038 37.3399 0.0309137
2.60505 39.7137 0.0205452
0.0802903 39.9526 2
0.320823 42.3947 0
2.76622 32.9057 3.98007
5.04827 33.1909 2
7.1423 33.4636 0.0318615
0.721173 30.1842 4
3.14647 30.6666 2
5.41881 31.134 0.0308094
1.27779 27.7943 2
3.68203 28.4435 0.0204671
1.99015 25.446 0
0.0806499 35.0474 4
2.54914 35.1594 2
4.85472 35.2518 0.0308641
0 37.5 2
2.49649 37.4284 0.0198616
0.080333 39.9526 0
0.32156 32.6054 4
2.76633 32.9063 2
5.04809 33.1905 0.030785
0.72056 30.1841 2
3.14621 30.6662 0.0203864
1.27793 27.7943 0
0.0802889 35.0474 2
2.5486 35.159 0.0200953
0 37.5 0
0.320817 32.6053 2
2.76622 32.9057 0.0199285
0.721173 30.1842 0
0.0806499 35.0474 0
0.32156 32.6054 0
CELLS 1910 17190
8 18 6 25 56 2 0 5 16
8 57 23 6 18 17 4 0 2
8 78 36 9 29 31 11 1 7
8 31 11 1 7 79 37 10 30
8 110 57 18 50 48 17 2 14
8 50 18 56 111 14 2 16 49
8 116 62 22 55 52 20 3 15
8 56 25 67 118 16 5 24 53
8 119 63 23 57 54 21 4 17
8 55 22 63 119 15 3 21 54
8 58 26 68 121 18 6 25 56
8 122 65 26 58 57 23 6 18
8 73 31 7 27 142 79 30 71
8 143 78 29 72 73 31 7 27
8 83 147 76 34 32 74 28 8
8 84 148 78 36 33 75 29 9
8 76 34 8 28 148 84 33 75
8 37 79 150 86 10 30 77 35
8 151 87 36 78 80 38 11 31
8 80 38 11 31 152 88 37 79
8 175 100 42 94 96 44 12 40
8 44 96 176 101 12 40 95 43
8 101 176 98 46 43 95 41 13
8 46 98 178 103 13 41 97 45
8 178 103 45 97 147 83 32 74
8 189 116 55 109 106 52 15 47
8 111 56 118 191 49 16 53 107
8 192 119 57 110 108 54 17 48
8 109 55 119 192 47 15 54 108
8 194 122 58 112 110 57 18 50
8 112 58 121 195 50 18 56 111
8 115 61 19 51 197 124 59 113
8 115 61 125 198 51 19 60 114
8 198 125 62 116 114 60 20 52
8 200 127 64 120 116 62 22 55
8 118 67 132 202 53 24 66 117
8 121 68 133 203 56 25 67 118
8 120 64 128 204 55 22 63 119
8 204 128 65 122 119 63 23 57
8 206 134 68 121 123 69 26 58
8 123 69 26 58 207 131 65 122
8 226 147 74 138 140 76 28 70
8 229 148 75 139 143 78 29 72
8 140 76 28 70 229 148 75 139
8 142 79 30 71 231 150 77 141
8 144 80 31 73 232 152 79 142
8 233 151 78 143 144 80 31 73
8 150 86 35 77 235 154 81 145
8 235 154 81 145 146 82 39 91
8 146 82 39 91 236 155 90 165
8 238 157 83 147 149 85 34 76
8 239 158 84 148 151 87 36 78
8 149 85 34 76 239 158 84 148
8 152 88 37 79 241 160 86 150
8 242 161 87 151 153 89 38 80
8 153 89 38 80 243 162 88 152
8 171 98 41 92 265 178 97 169
8 265 178 97 169 226 147 74 138
8 172 96 40 93 266 176 95 170
8 266 176 95 170 171 98 41 92
8 269 175 94 173 172 96 40 93
8 271 180 99 174 175 100 42 94
8 197 124 59 113 271 180 99 174
8 272 181 100 175 177 102 44 96
8 273 182 101 176 179 104 46 98
8 177 102 44 96 273 182 101 176
8 179 104 46 98 275 184 103 178
8 275 184 103 178 238 157 83 147
8 188 115 51 105 283 197 113 186
8 188 115 198 284 105 51 114 187
8 284 198 116 189 187 114 52 106
8 286 200 120 193 189 116 55 109
8 191 118 202 288 107 53 117 190
8 195 121 203 289 111 56 118 191
8 193 120 204 290 109 55 119 192
8 290 204 122 194 192 119 57 110
8 196 123 58 112 292 207 122 194
8 293 206 121 195 196 123 58 112
8 199 126 61 115 297 211 124 197
8 298 212 127 200 198 125 62 116
8 199 126 212 298 115 61 125 198
8 205 129 64 120 300 214 127 200
8 301 217 130 201 202 132 66 117
8 209 136 168 264 301 217 130 201
8 302 219 132 202 203 133 67 118
8 303 220 133 203 206 134 68 121
8 205 129 215 304 120 64 128 204
8 304 215 131 207 204 128 65 122
8 306 221 134 206 208 135 69 123
8 208 135 69 123 307 218 131 207
8 210 137 167 263 309 223 136 209
8 328 238 147 226 230 149 76 140
8 228 146 91 166 329 236 165 260
8 231 150 77 141 330 235 145 227
8 330 235 145 227 228 146 91 166
8 332 239 148 229 233 151 78 143
8 230 149 76 140 332 239 148 229
8 232 152 79 142 334 241 150 231
8 234 153 80 144 335 243 152 232
8 336 242 151 233 234 153 80 144
8 236 155 90 165 338 245 164 259
8 241 160 86 150 339 246 154 235
8 339 246 154 235 237 156 82 146
8 237 156 82 146 340 247 155 236
8 342 249 157 238 240 159 85 149
8 343 250 158 239 242 161 87 151
8 240 159 85 149 343 250 158 239
8 243 162 88 152 345 252 160 241
8 244 163 253 346 153 89 161 242
8 244 163 89 153 347 254 162 243
8 311 224 261 371 210 137 167 263
8 263 167 262 372 209 136 168 264
8 267 179 98 171 375 275 178 265
8 375 275 178 265 328 238 147 226
8 376 273 176 266 267 179 98 171
8 268 177 96 172 376 273 176 266
8 379 272 175 269 268 177 96 172
8 380 271 174 270 269 175 94 173
8 283 197 113 186 380 271 174 270
8 381 277 180 271 272 181 100 175
8 297 211 124 197 381 277 180 271
8 382 278 181 272 274 183 102 177
8 274 183 102 177 383 279 182 273
8 383 279 182 273 276 185 104 179
8 385 281 184 275 342 249 157 238
8 276 185 104 179 385 281 184 275
8 285 199 115 188 393 297 197 283
8 394 298 200 286 284 198 116 189
8 285 199 298 394 188 115 198 284
8 291 205 120 193 396 300 200 286
8 397 301 201 287 288 202 117 190
8 295 209 264 374 397 301 201 287
8 398 302 202 288 289 203 118 191
8 399 303 203 289 293 206 121 195
8 291 205 304 400 193 120 204 290
8 400 304 207 292 290 204 122 194
8 294 208 123 196 402 307 207 292
8 403 306 206 293 294 208 123 196
8 296 210 263 373 405 309 209 295
8 408 312 213 299 297 211 126 199
8 299 213 313 409 199 126 212 298
8 409 313 214 300 298 212 127 200
8 305 216 129 205 411 315 214 300
8 412 318 217 301 302 219 132 202
8 309 223 136 209 412 318 217 301
8 413 320 219 302 303 220 133 203
8 306 221 321 414 206 134 220 303
8 307 218 131 207 415 316 215 304
8 305 216 316 415 205 129 215 304
8 417 322 221 306 308 222 135 208
8 308 222 135 208 418 319 218 307
8 310 225 137 210 420 325 223 309
8 423 326 224 311 310 225 137 210
8 329 236 165 260 441 338 259 368
8 442 342 238 328 333 240 149 230
8 331 237 146 228 443 340 236 329
8 334 241 150 231 444 339 235 330
8 444 339 235 330 331 237 146 228
8 446 343 239 332 336 242 151 233
8 333 240 149 230 446 343 239 332
8 335 243 152 232 448 345 241 334
8 337 244 153 234 449 347 243 335
8 337 244 346 450 234 153 242 336
8 338 245 164 259 452 349 258 367
8 340 247 155 236 453 350 245 338
8 345 252 160 241 454 351 246 339
8 454 351 246 339 341 248 156 237
8 341 248 156 237 455 352 247 340
8 240 159 251 344 342 249 354 457
8 242 161 253 346 343 250 355 458
8 343 250 355 458 240 159 251 344
8 347 254 162 243 460 357 252 345
8 348 255 358 461 244 163 253 346
8 348 255 163 244 462 359 254 347
8 473 360 257 365 363 256 364 482
8 452 349 258 367 365 257 366 485
8 422 324 369 488 311 224 261 371
8 371 261 370 490 263 167 262 372
8 407 311 371 491 296 210 263 373
8 373 263 372 492 295 209 264 374
8 493 385 275 375 442 342 238 328
8 377 276 179 267 493 385 275 375
8 378 274 177 268 494 383 273 376
8 494 383 273 376 377 276 179 267
8 497 382 272 379 378 274 177 268
8 498 381 271 380 379 272 175 269
8 393 297 197 283 498 381 271 380
8 499 387 277 381 382 278 181 272
8 408 312 211 297 499 387 277 381
8 500 388 278 382 384 280 183 274
8 501 389 279 383 386 282 185 276
8 384 280 183 274 501 389 279 383
8 386 282 185 276 503 391 281 385
8 503 391 281 385 457 354 249 342
8 511 408 299 395 393 297 199 285
8 395 299 409 512 285 199 298 394
8 512 409 300 396 394 298 200 286
8 401 305 205 291 514 411 300 396
8 515 412 301 397 398 302 202 288
8 405 309 209 295 515 412 301 397
8 516 413 302 398 399 303 203 289
8 403 306 414 517 293 206 303 399
8 402 307 207 292 518 415 304 400
8 401 305 415 518 291 205 304 400
8 404 308 208 294 520 418 307 402
8 521 417 306 403 404 308 208 294
8 406 310 210 296 523 420 309 405
8 526 423 311 407 406 310 210 296
8 410 314 213 299 527 424 312 408
8 528 425 315 411 409 313 214 300
8 410 314 425 528 299 213 313 409
8 416 317 216 305 530 427 315 411
8 531 430 318 412 413 320 219 302
8 420 325 223 309 531 430 318 412
8 532 432 320 413 414 321 220 303
8 417 322 433 533 306 221 321 414
8 418 319 218 307 534 428 316 415
8 416 317 428 534 305 216 316 415
8 419 323 434 536 308 222 322 417
8 419 323 222 308 537 431 319 418
8 421 327 225 310 539 438 325 420
8 421 327 439 541 310 225 326 423
8 543 437 324 422 423 326 224 311
8 441 338 259 368 559 452 367 486
8 443 340 236 329 560 453 338 441
8 333 240 344 447 442 342 457 561
8 445 341 237 331 562 455 340 443
8 448 345 241 334 563 454 339 444
8 563 454 339 444 445 341 237 331
8 336 242 346 450 446 343 458 565
8 446 343 458 565 333 240 344 447
8 449 347 243 335 567 460 345 448
8 451 348 244 337 568 462 347 449
8 451 348 461 569 337 244 346 450
8 570 463 349 452 473 360 257 365
8 453 350 245 338 570 463 349 452
8 455 352 247 340 571 464 350 453
8 460 357 252 345 572 465 351 454
8 572 465 351 454 456 353 248 341
8 456 353 248 341 573 466 352 455
8 344 251 356 459 457 354 468 575
8 458 355 469 576 344 251 356 459
8 346 253 358 461 458 355 469 576
8 462 359 254 347 578 471 357 460
8 348 255 359 462 461 358 472 579
8 591 474 360 473 475 361 256 363
8 475 361 256 363 594 477 362 479
8 363 256 364 482 479 362 480 603
8 590 473 365 484 481 363 482 605
8 482 364 257 365 606 483 366 485
8 559 452 367 486 484 365 485 607
8 542 436 487 609 422 324 369 488
8 525 422 488 611 407 311 371 491
8 488 369 489 612 371 261 370 490
8 491 371 490 613 373 263 372 492
8 495 386 276 377 614 503 385 493
8 614 503 385 493 561 457 342 442
8 615 501 383 494 495 386 276 377
8 496 384 274 378 615 501 383 494
8 618 500 382 497 496 384 274 378
8 619 499 381 498 497 382 272 379
8 511 408 297 393 619 499 381 498
8 620 505 387 499 500 388 278 382
8 527 424 312 408 620 505 387 499
8 502 390 506 621 384 280 388 500
8 622 507 389 501 504 392 282 386
8 502 390 280 384 622 507 389 501
8 504 392 282 386 624 509 391 503
8 624 509 391 503 575 468 354 457
8 513 410 299 395 630 527 408 511
8 631 528 411 514 512 409 300 396
8 513 410 528 631 395 299 409 512
8 519 416 305 401 633 530 411 514
8 634 531 412 515 516 413 302 398
8 523 420 309 405 634 531 412 515
8 635 532 413 516 517 414 303 399
8 521 417 533 636 403 306 414 517
8 520 418 307 402 637 534 415 518
8 519 416 534 637 401 305 415 518
8 522 419 308 404 639 537 418 520
8 522 419 536 640 404 308 417 521
8 524 421 310 406 642 539 420 523
8 524 421 541 644 406 310 423 526
8 646 543 422 525 526 423 311 407
8 529 426 314 410 647 544 424 527
8 528 425 545 648 411 315 427 530
8 529 426 545 648 410 314 425 528
8 535 429 317 416 649 546 427 530
8 650 548 430 531 532 432 320 413
8 539 438 325 420 650 548 430 531
8 533 433 550 651 414 321 432 532
8 536 434 551 652 417 322 433 533
8 537 431 319 418 653 547 428 534
8 535 429 547 653 416 317 428 534
8 538 435 552 654 419 323 434 536
8 538 435 323 419 655 549 431 537
8 540 440 327 421 657 556 438 539
8 540 440 557 659 421 327 439 541
8 541 439 555 660 423 326 437 543
8 661 554 436 542 543 437 324 422
8 676 570 452 559 590 473 365 484
8 560 453 338 441 676 570 452 559
8 562 455 340 443 677 571 453 560
8 447 344 459 566 561 457 575 678
8 564 456 341 445 679 573 455 562
8 567 460 345 448 680 572 454 563
8 680 572 454 563 564 456 341 445
8 565 458 576 682 447 344 459 566
8 450 346 461 569 565 458 576 682
8 568 462 347 449 684 578 460 567
8 451 348 462 568 569 461 579 685
8 686 580 463 570 591 474 360 473
8 571 464 350 453 686 580 463 570
8 573 466 352 455 687 581 464 571
8 572 465 582 688 460 357 471 578
8 574 467 582 688 456 353 465 572
8 574 467 353 456 689 583 466 573
8 459 356 470 577 575 468 585 691
8 576 469 586 692 459 356 470 577
8 461 358 472 579 576 469 586 692
8 462 359 471 578 579 472 588 694
8 704 591 473 590 593 475 363 481
8 595 476 592 705 475 361 474 591
8 593 475 363 481 707 594 479 602
8 594 477 362 479 709 598 478 600
8 595 476 361 475 711 597 477 594
8 479 362 480 603 600 478 601 720
8 481 363 482 605 602 479 603 722
8 603 480 364 482 723 604 483 606
8 605 482 365 484 724 606 485 607
8 656 553 608 726 542 436 487 609
8 645 542 609 728 525 422 488 611
8 609 487 610 729 488 369 489 612
8 611 488 612 730 491 371 490 613
8 616 504 386 495 731 624 503 614
8 731 624 503 614 678 575 457 561
8 732 622 501 615 616 504 386 495
8 617 502 384 496 732 622 501 615
8 617 502 621 735 496 384 500 618
8 736 620 499 619 618 500 382 497
8 630 527 408 511 736 620 499 619
8 621 506 626 737 500 388 505 620
8 647 544 424 527 737 626 505 620
8 623 508 627 738 502 390 506 621
8 623 508 390 502 739 628 507 622
8 625 510 628 739 504 392 507 622
8 740 629 509 624 691 585 468 575
8 625 510 392 504 740 629 509 624
8 632 529 410 513 744 647 527 630
8 631 528 648 745 514 411 530 633
8 632 529 648 745 513 410 528 631
8 638 535 416 519 746 649 530 633
8 747 650 531 634 635 532 413 516
8 642 539 420 523 747 650 531 634
8 636 533 651 748 517 414 532 635
8 640 536 652 749 521 417 533 636
8 639 537 418 520 750 653 534 637
8 638 535 653 750 519 416 534 637
8 641 538 419 522 751 655 537 639
8 641 538 654 752 522 419 536 640
8 643 540 421 524 753 657 539 642
8 643 540 659 755 524 421 541 644
8 644 541 660 757 526 423 543 646
8 758 661 542 645 646 543 422 525
8 529 426 544 647 648 545 662 759
8 530 427 545 648 649 546 663 760
8 535 429 546 649 653 547 664 761
8 762 666 548 650 651 550 432 532
8 657 556 438 539 762 666 548 650
8 652 551 668 763 533 433 550 651
8 654 552 669 764 536 434 551 652
8 655 549 431 537 765 665 547 653
8 538 435 549 655 654 552 667 766
8 661 554 671 768 542 436 553 656
8 658 558 440 540 769 674 556 657
8 658 558 675 770 540 440 557 659
8 659 557 673 771 541 439 555 660
8 660 555 672 772 543 437 554 661
8 788 686 570 676 704 591 473 590
8 677 571 453 560 788 686 570 676
8 679 573 455 562 789 687 571 677
8 566 459 577 683 678 575 691 790
8 681 574 456 564 791 689 573 679
8 680 572 688 792 567 460 578 684
8 681 574 688 792 564 456 572 680
8 682 576 692 794 566 459 577 683
8 569 461 579 685 682 576 692 794
8 568 462 578 684 685 579 694 796
8 687 581 464 571 798 696 580 686
8 798 696 580 686 705 592 474 591
8 689 583 466 573 799 697 581 687
8 688 582 698 800 578 471 588 694
8 690 584 698 800 574 467 582 688
8 690 584 467 574 801 699 583 689
8 693 587 701 803 577 470 585 691
8 693 587 470 577 804 702 586 692
8 695 589 702 804 579 472 586 692
8 695 589 472 579 805 703 588 694
8 708 595 705 813 593 475 591 704
8 710 596 706 814 595 476 592 705
8 707 594 479 602 816 709 600 719
8 708 595 475 593 817 711 594 707
8 709 598 478 600 819 715 599 717
8 711 597 477 594 820 714 598 709
8 710 596 476 595 822 713 597 711
8 600 478 601 720 717 599 718 832
8 602 479 603 722 719 600 720 834
8 720 601 480 603 835 721 604 723
8 722 603 482 605 836 723 606 724
8 767 670 725 839 656 553 608 726
8 756 656 726 841 645 542 609 728
8 726 608 727 842 609 487 610 729
8 728 609 729 843 611 488 612 730
8 844 740 624 731 790 691 575 678
8 733 625 504 616 844 740 624 731
8 734 623 502 617 845 739 622 732
8 733 625 739 845 616 504 622 732
8 734 623 738 846 617 502 621 735
8 735 621 737 847 618 500 620 736
8 744 647 527 630 847 737 620 736
8 621 506 627 738 737 626 741 848
8 647 544 626 737 759 662 741 848
8 623 508 628 739 738 627 742 849
8 740 629 585 691 850 743 700 802
8 625 510 629 740 739 628 743 850
8 632 529 647 744 745 648 759 854
8 633 530 648 745 746 649 760 855
8 638 535 649 746 750 653 761 856
8 857 762 650 747 748 651 532 635
8 753 657 539 642 857 762 650 747
8 749 652 763 858 636 533 651 748
8 752 654 764 859 640 536 652 749
8 751 655 537 639 860 765 653 750
8 641 538 655 751 752 654 766 861
8 754 658 540 643 862 769 657 753
8 754 658 770 863 643 540 659 755
8 755 659 771 864 644 541 660 757
8 758 661 768 866 645 542 656 756
8 757 660 772 867 646 543 661 758
8 759 662 773 868 648 545 663 760
8 649 546 663 760 761 664 774 871
8 765 665 547 653 872 775 664 761
8 873 777 666 762 763 668 550 651
8 769 674 556 657 873 777 666 762
8 764 669 779 874 652 551 668 763
8 654 552 667 766 764 669 778 875
8 655 549 665 765 766 667 776 876
8 768 671 782 877 656 553 670 767
8 772 672 783 878 661 554 671 768
8 658 558 674 769 770 675 786 879
8 659 557 675 770 771 673 785 881
8 882 784 672 772 771 673 555 660
8 789 687 571 677 897 798 686 788
8 897 798 686 788 813 705 591 704
8 791 689 573 679 898 799 687 789
8 795 693 803 900 683 577 691 790
8 793 690 574 681 901 801 689 791
8 792 688 800 902 684 578 694 796
8 793 690 800 902 681 574 688 792
8 795 693 577 683 903 804 692 794
8 797 695 804 903 685 579 692 794
8 797 695 579 685 904 805 694 796
8 905 806 697 799 798 696 581 687
8 814 706 806 905 705 592 696 798
8 689 583 697 799 801 699 808 907
8 800 698 809 908 694 588 703 805
8 690 584 699 801 800 698 809 908
8 803 701 810 909 691 585 700 802
8 693 587 702 804 803 701 811 910
8 695 589 703 805 804 702 812 911
8 818 710 814 919 708 595 705 813
8 821 712 815 920 710 596 706 814
8 816 709 600 719 922 819 717 831
8 817 711 594 707 923 820 709 816
8 818 710 595 708 924 822 711 817
8 819 715 599 717 926 827 716 829
8 820 714 598 709 927 826 715 819
8 929 825 713 822 820 714 597 711
8 821 712 596 710 930 824 713 822
8 717 599 718 832 829 716 830 942
8 719 600 720 834 831 717 832 944
8 832 718 601 720 945 833 721 835
8 834 720 603 722 946 835 723 836
8 869 780 838 950 767 670 725 839
8 865 767 839 952 756 656 726 841
8 839 725 840 953 726 608 727 842
8 841 726 842 954 728 609 729 843
8 844 740 691 790 955 850 802 899
8 733 625 740 844 845 739 850 955
8 734 623 739 845 846 738 849 956
8 735 621 738 846 847 737 848 957
8 744 647 737 847 854 759 848 957
8 738 627 742 849 848 741 851 958
8 848 741 851 958 759 662 773 868
8 850 743 700 802 959 852 807 906
8 849 742 628 739 959 852 743 850
8 854 759 868 965 745 648 760 855
8 746 649 760 855 856 761 871 966
8 860 765 653 750 967 872 761 856
8 968 873 762 857 858 763 651 748
8 862 769 657 753 968 873 762 857
8 859 764 874 969 749 652 763 858
8 752 654 766 861 859 764 875 970
8 751 655 765 860 861 766 876 971
8 754 658 769 862 863 770 879 972
8 755 659 770 863 864 771 881 974
8 976 882 772 867 864 771 660 757
8 866 768 877 977 756 656 767 865
8 867 772 878 978 758 661 768 866
8 760 663 773 868 871 774 883 980
8 870 781 837 948 982 890 780 869
8 982 890 780 869 877 782 670 767
8 761 664 774 871 872 775 884 984
8 876 776 665 765 985 885 775 872
8 873 777 668 763 986 887 779 874
8 769 674 777 873 879 786 887 986
8 764 669 778 875 874 779 888 987
8 766 667 776 876 875 778 886 988
8 878 783 892 989 768 671 782 877
8 878 783 672 772 990 893 784 882
8 880 787 675 770 991 896 786 879
8 880 787 895 992 770 675 785 881
8 881 785 894 993 771 673 784 882
8 1006 905 799 898 897 798 687 789
8 919 814 905 1006 813 705 798 897
8 791 689 799 898 901 801 907 1007
8 900 803 909 1009 790 691 802 899
8 795 693 804 903 900 803 910 1010
8 902 800 908 1011 796 694 805 904
8 793 690 801 901 902 800 908 1011
8 797 695 805 904 903 804 911 1012
8 799 697 806 905 907 808 912 1013
8 920 815 912 1013 814 706 806 905
8 802 700 810 909 906 807 913 1014
8 801 699 808 907 908 809 914 1015
8 805 703 809 908 911 812 915 1016
8 803 701 811 910 909 810 916 1017
8 911 812 917 1018 804 702 811 910
8 925 821 920 1030 818 710 814 919
8 928 823 921 1031 821 712 815 920
8 922 819 717 831 1033 926 829 941
8 923 820 709 816 1034 927 819 922
8 1035 929 822 924 923 820 711 817
8 925 821 710 818 1036 930 822 924
8 1038 933 825 929 927 826 714 820
8 926 827 716 829 1039 935 828 939
8 927 826 715 819 1040 934 827 926
8 928 823 712 821 1041 931 824 930
8 1042 932 824 930 929 825 713 822
8 829 716 830 942 939 828 940 1058
8 831 717 832 944 941 829 942 1060
8 942 830 718 832 1061 943 833 945
8 944 832 720 834 1062 945 835 946
8 981 889 947 1064 870 781 837 948
8 948 837 949 1067 869 780 838 950
8 975 869 950 1069 865 767 839 952
8 950 838 951 1070 839 725 840 953
8 952 839 953 1071 841 726 842 954
8 955 850 802 899 1072 959 906 1008
8 956 849 739 845 1072 959 850 955
8 846 738 849 956 957 848 958 1073
8 957 848 958 1073 854 759 868 965
8 849 742 852 959 958 851 961 1076
8 960 853 961 1076 906 807 852 959
8 958 851 961 1076 868 773 883 980
8 960 853 807 906 1077 963 913 1014
8 855 760 868 965 966 871 980 1085
8 856 761 871 966 967 872 984 1086
8 971 876 765 860 1087 985 872 967
8 968 873 763 858 1088 986 874 969
8 862 769 873 968 972 879 986 1088
8 859 764 875 970 969 874 987 1089
8 861 766 876 971 970 875 988 1090
8 973 880 770 863 1091 991 879 972
8 973 880 992 1092 863 770 881 974
8 974 881 993 1093 864 771 882 976
8 979 870 948 1066 1094 982 869 975
8 1094 982 869 975 977 877 767 865
8 978 878 772 867 1095 990 882 976
8 978 878 989 1096 866 768 877 977
8 871 774 883 980 984 884 994 1099
8 983 891 999 1100 870 781 889 981
8 1101 1000 890 982 989 892 782 877
8 983 891 781 870 1101 1000 890 982
8 872 775 884 984 985 885 995 1103
8 876 776 885 985 988 886 996 1104
8 986 887 779 874 1105 998 888 987
8 879 786 887 986 991 896 998 1105
8 875 778 886 988 987 888 997 1106
8 990 893 1002 1107 878 783 892 989
8 1108 1003 893 990 993 894 784 882
8 880 787 896 991 992 895 1005 1109
8 993 894 785 881 1110 1004 895 992
8 898 799 905 1006 1007 907 1013 1120
8 1030 920 1013 1120 919 814 905 1006
8 901 801 907 1007 1011 908 1015 1121
8 899 802 909 1009 1008 906 1014 1122
8 900 803 910 1010 1009 909 1017 1123
8 1012 911 1018 1124 903 804 910 1010
8 904 805 908 1011 1012 911 1016 1125
8 1013 912 1020 1127 907 808 914 1015
8 1031 921 1020 1127 920 815 912 1013
8 1019 918 962 1075 1128 1021 913 1014
8 1128 1021 913 1014 1017 916 810 909
8 1015 914 1022 1129 908 809 915 1016
8 1016 915 1023 1130 911 812 917 1018
8 1018 917 1024 1131 910 811 916 1017
8 1037 928 1031 1148 925 821 920 1030
8 928 823 931 1041 1031 921 1032 1149
8 1033 926 829 941 1151 1039 939 1057
8 1034 927 819 922 1152 1040 926 1033
8 1153 1038 929 1035 1034 927 820 923
8 1154 1042 930 1036 1035 929 822 924
8 1037 928 821 925 1155 1041 930 1036
8 1039 935 828 939 1156 1047 938 1055
8 1157 1043 932 1042 1038 933 825 929
8 1038 933 826 927 1158 1045 934 1040
8 1040 934 827 926 1159 1046 935 1039
8 930 824 932 1042 1041 931 1044 1160
8 1051 936 1048 1165 1175 1052 937 1053
8 1156 1047 938 1055 1053 937 1054 1178
8 939 828 940 1058 1055 938 1056 1181
8 941 829 942 1060 1057 939 1058 1183
8 942 830 943 1061 1058 940 1059 1184
8 1060 942 832 944 1185 1061 945 1062
8 1082 964 1063 1188 981 889 947 1064
8 1097 981 1064 1190 979 870 948 1066
8 1064 947 1065 1191 948 837 949 1067
8 1066 948 1067 1193 975 869 950 1069
8 1067 949 1068 1194 950 838 951 1070
8 1069 950 1070 1195 952 839 953 1071
8 956 849 959 1072 1073 958 1076 1197
8 1074 960 1076 1197 1008 906 959 1072
8 1073 958 1076 1197 965 868 980 1085
8 1074 960 906 1008 1198 1077 1014 1122
8 1133 1026 1079 1199 1019 918 962 1075
8 1077 963 913 1014 1200 1080 962 1075
8 960 853 963 1077 1076 961 1078 1201
8 980 883 961 1076 1099 994 1078 1201
8 1210 1083 964 1082 1100 999 889 981
8 966 871 980 1085 1086 984 1099 1215
8 967 872 984 1086 1087 985 1103 1216
8 971 876 985 1087 1090 988 1104 1217
8 1088 986 874 969 1218 1105 987 1089
8 972 879 986 1088 1091 991 1105 1218
8 970 875 988 1090 1089 987 1106 1219
8 973 880 991 1091 1092 992 1109 1220
8 1093 993 881 974 1221 1110 992 1092
8 1222 1108 990 1095 1093 993 882 976
8 1223 1101 982 1094 1096 989 877 977
8 1098 983 870 979 1223 1101 982 1094
8 1095 990 1107 1224 978 878 989 1096
8 1098 983 1100 1225 979 870 981 1097
8 984 884 994 1099 1103 995 1111 1227
8 1102 1001 1115 1228 983 891 999 1100
8 1101 1000 892 989 1229 1116 1002 1107
8 1102 1001 891 983 1229 1116 1000 1101
8 985 885 995 1103 1104 996 1112 1230
8 988 886 996 1104 1106 997 1113 1231
8 1105 998 888 987 1232 1114 997 1106
8 991 896 998 1105 1109 1005 1114 1232
8 1108 1003 1117 1233 990 893 1002 1107
8 1108 1003 894 993 1233 1117 1004 1110
8 992 895 1005 1109 1110 1004 1118 1234
8 1120 1013 1127 1244 1007 907 1015 1121
8 1148 1031 1127 1244 1030 920 1013 1120
8 1121 1015 1129 1245 1011 908 1016 1125
8 1126 1019 1075 1196 1246 1128 1014 1122
8 1246 1128 1014 1122 1123 1017 909 1009
8 1124 1018 1131 1247 1010 910 1017 1123
8 1125 1016 1130 1248 1012 911 1018 1124
8 1127 1020 1137 1254 1015 914 1022 1129
8 1031 921 1032 1149 1127 1020 1137 1254
8 1134 1027 918 1019 1257 1140 1021 1128
8 1257 1140 1021 1128 1131 1024 916 1017
8 1129 1022 1141 1258 1016 915 1023 1130
8 1130 1023 1142 1259 1018 917 1024 1131
8 1261 1144 1025 1132 1133 1026 1079 1199
8 1255 1138 1025 1132 1135 1028 1144 1261
8 1133 1026 918 1019 1262 1145 1027 1134
8 1136 1029 1139 1256 1263 1146 1028 1135
8 1037 928 1041 1155 1148 1031 1149 1275
8 1041 931 1044 1160 1149 1032 1150 1276
8 1151 1039 939 1057 1278 1156 1055 1180
8 1152 1040 926 1033 1279 1159 1039 1151
8 1153 1038 927 1034 1280 1158 1040 1152
8 1281 1157 1042 1154 1153 1038 929 1035
8 1036 930 1042 1154 1155 1041 1160 1282
8 1283 1164 1046 1159 1156 1047 935 1039
8 1165 1048 1164 1283 1053 937 1047 1156
8 1157 1043 933 1038 1284 1161 1045 1158
8 1157 1043 1161 1284 1042 932 1044 1160
8 1040 934 1046 1159 1158 1045 1163 1285
8 1166 1049 1167 1292 1051 936 1048 1165
8 1166 1049 936 1051 1293 1168 1050 1172
8 1051 936 1052 1175 1172 1050 1173 1306
8 1174 1051 1165 1290 1308 1175 1053 1177
8 1053 937 1054 1178 1175 1052 1176 1309
8 1278 1156 1055 1180 1177 1053 1178 1311
8 1055 938 1056 1181 1178 1054 1179 1312
8 1057 939 1058 1183 1180 1055 1181 1314
8 1058 940 1059 1184 1181 1056 1182 1315
8 1060 942 1061 1185 1183 1058 1184 1316
8 1208 1081 1187 1321 1082 964 1063 1188
8 1209 1082 1188 1322 1097 981 1064 1190
8 1188 1063 1189 1323 1064 947 1065 1191
8 1190 1064 1191 1325 1066 948 1067 1193
8 1191 1065 1192 1326 1067 949 1068 1194
8 1067 1193 1069 950 1194 1327 1195 1070
8 1250 1133 1199 1330 1126 1019 1075 1196
8 1198 1077 1014 1122 1331 1200 1075 1196
8 1074 960 1077 1198 1197 1076 1201 1332
8 1085 980 1076 1197 1215 1099 1201 1332
8 1199 1079 1203 1333 1075 962 1080 1200
8 1132 1025 1119 1243 1199 1079 1203 1333
8 1201 1078 963 1077 1334 1202 1080 1200
8 1099 994 1078 1201 1227 1111 1202 1334
8 1343 1207 1081 1208 1210 1083 964 1082
8 1214 1084 1186 1319 1343 1207 1081 1208
8 1345 1210 1082 1209 1225 1100 981 1097
8 1346 1211 1083 1210 1228 1115 999 1100
8 1086 984 1099 1215 1216 1103 1227 1352
8 1087 985 1103 1216 1217 1104 1230 1353
8 1090 988 1104 1217 1219 1106 1231 1354
8 1218 1105 987 1089 1355 1232 1106 1219
8 1091 991 1105 1218 1220 1109 1232 1355
8 1092 992 1109 1220 1221 1110 1234 1356
8 1222 1108 1233 1357 1095 990 1107 1224
8 1222 1108 993 1093 1357 1233 1110 1221
8 1223 1101 989 1096 1358 1229 1107 1224
8 1226 1102 983 1098 1358 1229 1101 1223
8 1226 1102 1228 1359 1098 983 1100 1225
8 1103 995 1111 1227 1230 1112 1235 1360
8 1107 1002 1117 1233 1229 1116 1240 1362
8 1102 1001 1116 1229 1228 1115 1240 1362
8 1104 996 1112 1230 1231 1113 1236 1363
8 1364 1237 1114 1232 1231 1113 997 1106
8 1109 1005 1114 1232 1234 1118 1238 1365
8 1110 1004 1118 1234 1233 1117 1241 1366
8 1242 1374 1255 1138 1119 1243 1132 1025
8 1244 1127 1254 1376 1121 1015 1129 1245
8 1148 1031 1149 1275 1244 1127 1254 1376
8 1245 1129 1258 1377 1125 1016 1130 1248
8 1251 1134 1019 1126 1378 1257 1128 1246
8 1378 1257 1128 1246 1247 1131 1017 1123
8 1248 1130 1259 1379 1124 1018 1131 1247
8 1261 1381 1250 1133 1132 1249 1330 1199
8 1255 1380 1252 1135 1132 1249 1381 1261
8 1250 1133 1019 1126 1382 1262 1134 1251
8 1253 1136 1256 1385 1384 1263 1135 1252
8 1254 1137 1265 1387 1129 1022 1141 1258
8 1149 1032 1150 1276 1254 1137 1265 1387
8 1028 1135 1255 1138 1139 1256 1388 1266
8 1136 1029 1147 1264 1256 1139 1267 1389
8 1390 1268 1140 1257 1259 1142 1024 1131
8 1260 1143 1027 1134 1390 1268 1140 1257
8 1258 1141 1269 1391 1130 1023 1142 1259
8 1262 1145 1027 1134 1393 1271 1143 1260
8 1261 1144 1026 1133 1394 1272 1145 1262
8 1135 1028 1144 1261 1263 1146 1272 1394
8 1136 1029 1146 1263 1264 1147 1273 1395
8 1155 1041 1160 1282 1275 1149 1276 1405
8 1276 1150 1044 1160 1406 1277 1162 1286
8 1408 1283 1159 1279 1278 1156 1039 1151
8 1290 1165 1283 1408 1177 1053 1156 1278
8 1152 1040 1159 1279 1280 1158 1285 1409
8 1281 1157 1038 1153 1410 1284 1158 1280
8 1281 1157 1284 1410 1154 1042 1160 1282
8 1159 1046 1164 1283 1285 1163 1289 1412
8 1292 1167 1289 1412 1165 1048 1164 1283
8 1158 1045 1163 1285 1284 1161 1288 1413
8 1284 1161 1288 1413 1160 1044 1162 1286
8 1291 1166 1292 1418 1174 1051 1165 1290
8 1291 1166 1051 1174 1419 1293 1172 1305
8 1294 1169 1296 1421 1166 1049 1167 1292
8 1293 1168 1050 1172 1422 1295 1171 1303
8 1294 1169 1049 1166 1423 1297 1168 1293
8 1422 1295 1171 1303 1301 1170 1302 1435
8 1172 1050 1173 1306 1303 1171 1304 1438
8 1174 1051 1175 1308 1305 1172 1306 1440
8 1175 1052 1176 1309 1306 1173 1307 1441
8 1177 1053 1178 1311 1308 1175 1309 1443
8 1178 1054 1179 1312 1309 1176 1310 1444
8 1180 1055 1181 1314 1311 1178 1312 1446
8 1056 1181 1312 1179 1182 1315 1447 1313
8 1183 1058 1184 1316 1314 1181 1315 1448
8 1319 1186 1084 1214 1451 1317 1213 1350
8 1319 1186 1318 1453 1208 1081 1187 1321
8 1321 1187 1320 1456 1188 1063 1189 1323
8 1344 1208 1321 1457 1209 1082 1188 1322
8 1322 1188 1323 1458 1190 1064 1191 1325
8 1323 1189 1324 1459 1191 1065 1192 1326
8 1191 1325 1193 1067 1326 1460 1327 1194
8 1242 1374 1243 1119 1328 1462 1335 1204
8 1330 1199 1333 1465 1196 1075 1200 1331
8 1132 1249 1330 1199 1243 1375 1465 1333
8 1332 1201 1077 1198 1466 1334 1200 1331
8 1215 1099 1201 1332 1352 1227 1334 1466
8 1119 1243 1333 1203 1204 1335 1470 1338
8 1333 1203 1338 1470 1200 1080 1202 1334
8 1227 1111 1202 1334 1360 1235 1338 1470
8 1328 1462 1335 1204 1205 1336 1471 1339
8 1337 1206 1340 1472 1464 1329 1205 1336
8 1346 1211 1342 1479 1210 1083 1207 1343
8 1346 1211 1115 1228 1479 1342 1239 1361
8 1348 1212 1084 1214 1479 1342 1207 1343
8 1480 1343 1208 1344 1345 1210 1082 1209
8 1351 1214 1319 1454 1480 1343 1208 1344
8 1481 1346 1210 1345 1359 1228 1100 1225
8 1348 1212 1347 1483 1214 1084 1213 1350
8 1216 1103 1227 1352 1353 1230 1360 1488
8 1217 1104 1230 1353 1354 1231 1363 1489
8 1490 1364 1232 1355 1354 1231 1106 1219
8 1220 1109 1232 1355 1356 1234 1365 1491
8 1221 1110 1234 1356 1357 1233 1366 1492
8 1224 1107 1233 1357 1358 1229 1362 1493
8 1226 1102 1229 1358 1359 1228 1362 1493
8 1230 1112 1235 1360 1363 1236 1367 1496
8 1361 1239 1115 1228 1497 1371 1240 1362
8 1366 1241 1372 1498 1233 1117 1240 1362
8 1364 1237 1113 1231 1499 1368 1236 1363
8 1364 1237 1368 1499 1232 1114 1238 1365
8 1234 1118 1238 1365 1366 1241 1369 1500
8 1507 1373 1242 1374 1388 1266 1138 1255
8 1508 1374 1243 1375 1380 1255 1132 1249
8 1376 1254 1387 1509 1245 1129 1258 1377
8 1275 1149 1276 1405 1376 1254 1387 1509
8 1377 1258 1391 1510 1248 1130 1259 1379
8 1511 1390 1257 1378 1379 1259 1131 1247
8 1383 1260 1134 1251 1511 1390 1257 1378
8 1252 1135 1256 1385 1380 1255 1388 1512
8 1261 1381 1513 1394 1133 1250 1382 1262
8 1135 1252 1384 1263 1261 1381 1513 1394
8 1382 1262 1134 1251 1514 1393 1260 1383
8 1253 1136 1263 1384 1386 1264 1395 1516
8 1253 1136 1264 1386 1385 1256 1389 1517
8 1387 1265 1397 1519 1258 1141 1269 1391
8 1276 1150 1277 1406 1387 1265 1397 1519
8 1256 1139 1267 1389 1388 1266 1398 1520
8 1264 1147 1274 1396 1389 1267 1399 1521
8 1392 1270 1143 1260 1522 1400 1268 1390
8 1390 1268 1142 1259 1522 1400 1269 1391
8 1392 1270 1401 1523 1260 1143 1271 1393
8 1272 1394 1524 1402 1145 1262 1393 1271
8 1395 1273 1146 1263 1524 1402 1272 1394
8 1273 1395 1264 1147 1403 1526 1396 1274
8 1405 1276 1160 1282 1534 1406 1286 1411
8 1414 1287 1407 1535 1286 1162 1277 1406
8 1279 1159 1283 1408 1409 1285 1412 1537
8 1418 1292 1412 1537 1290 1165 1283 1408
8 1280 1158 1285 1409 1410 1284 1413 1538
8 1410 1284 1413 1538 1282 1160 1286 1411
8 1285 1163 1289 1412 1413 1288 1417 1540
8 1421 1296 1417 1540 1292 1167 1289 1412
8 1414 1287 1162 1286 1541 1416 1288 1413
8 1420 1294 1421 1545 1291 1166 1292 1418
8 1419 1293 1172 1305 1546 1422 1303 1437
8 1420 1294 1166 1291 1547 1423 1293 1419
8 1294 1169 1297 1423 1421 1296 1425 1548
8 1423 1297 1168 1293 1549 1424 1295 1422
8 1301 1170 1298 1427 1422 1295 1424 1549
8 1432 1300 1428 1554 1301 1170 1298 1427
8 1431 1299 1428 1554 1560 1430 1300 1432
8 1563 1433 1300 1432 1435 1302 1170 1301
8 1546 1422 1303 1437 1434 1301 1435 1565
8 1303 1171 1304 1438 1435 1302 1436 1566
8 1305 1172 1306 1440 1437 1303 1438 1568
8 1306 1173 1307 1441 1438 1304 1439 1569
8 1308 1175 1309 1443 1440 1306 1441 1571
8 1309 1176 1310 1444 1441 1307 1442 1572
8 1311 1178 1312 1446 1443 1309 1444 1574
8 1179 1312 1444 1310 1313 1447 1575 1445
8 1314 1181 1315 1448 1446 1312 1447 1576
8 1350 1213 1349 1486 1451 1317 1449 1579
8 1451 1317 1450 1581 1319 1186 1318 1453
8 1454 1319 1214 1351 1582 1451 1350 1487
8 1453 1318 1452 1584 1321 1187 1320 1456
8 1454 1319 1453 1585 1344 1208 1321 1457
8 1456 1320 1455 1586 1323 1189 1324 1459
8 1457 1321 1456 1587 1322 1188 1323 1458
8 1458 1323 1459 1588 1325 1191 1326 1460
8 1205 1336 1464 1329 1328 1462 1590 1461
8 1507 1373 1461 1590 1374 1242 1328 1462
8 1508 1374 1462 1591 1375 1243 1335 1467
8 1337 1206 1329 1464 1473 1341 1463 1594
8 1375 1243 1335 1467 1465 1333 1470 1596
8 1465 1333 1470 1596 1331 1200 1334 1466
8 1352 1227 1334 1466 1488 1360 1470 1596
8 1591 1462 1336 1468 1467 1335 1471 1597
8 1469 1337 1472 1598 1595 1464 1336 1468
8 1471 1339 1474 1600 1335 1204 1338 1470
8 1600 1474 1367 1496 1470 1338 1235 1360
8 1336 1205 1340 1472 1471 1339 1475 1601
8 1337 1206 1341 1473 1472 1340 1476 1602
8 1495 1370 1478 1609 1361 1239 1342 1479
8 1348 1212 1342 1479 1483 1347 1478 1609
8 1481 1346 1479 1610 1345 1210 1343 1480
8 1481 1346 1228 1359 1610 1479 1361 1494
8 1484 1348 1214 1351 1610 1479 1343 1480
8 1483 1347 1482 1612 1350 1213 1349 1486
8 1484 1348 1483 1613 1351 1214 1350 1487
8 1353 1230 1360 1488 1489 1363 1496 1616
8 1490 1364 1231 1354 1617 1499 1363 1489
8 1490 1364 1499 1617 1355 1232 1365 1491
8 1356 1234 1365 1491 1492 1366 1500 1619
8 1492 1366 1498 1620 1357 1233 1362 1493
8 1494 1361 1228 1359 1621 1497 1362 1493
8 1495 1370 1239 1361 1622 1504 1371 1497
8 1363 1236 1367 1496 1499 1368 1501 1623
8 1497 1371 1240 1362 1624 1505 1372 1498
8 1625 1503 1372 1498 1500 1369 1241 1366
8 1365 1238 1368 1499 1500 1369 1502 1626
8 1520 1398 1506 1633 1388 1266 1373 1507
8 1634 1507 1374 1508 1512 1388 1255 1380
8 1509 1387 1519 1635 1377 1258 1391 1510
8 1405 1276 1406 1534 1509 1387 1519 1635
8 1515 1392 1260 1383 1636 1522 1390 1511
8 1511 1390 1259 1379 1636 1522 1391 1510
8 1385 1256 1389 1517 1512 1388 1520 1637
8 1513 1394 1262 1382 1638 1524 1393 1514
8 1395 1516 1638 1524 1263 1384 1513 1394
8 1515 1392 1523 1639 1383 1260 1393 1514
8 1516 1395 1526 1640 1386 1264 1396 1518
8 1386 1264 1396 1518 1517 1389 1521 1641
8 1519 1397 1527 1643 1391 1269 1400 1522
8 1535 1407 1527 1643 1406 1277 1397 1519
8 1389 1267 1399 1521 1520 1398 1528 1644
8 1645 1529 1399 1521 1525 1404 1274 1396
8 1392 1270 1400 1522 1523 1401 1531 1646
8 1524 1402 1271 1393 1648 1532 1401 1523
8 1403 1526 1648 1532 1273 1395 1524 1402
8 1525 1404 1274 1396 1649 1533 1403 1526
8 1539 1414 1535 1657 1411 1286 1406 1534
8 1542 1415 1536 1658 1414 1287 1407 1535
8 1409 1285 1412 1537 1538 1413 1540 1660
8 1545 1421 1540 1660 1418 1292 1412 1537
8 1539 1414 1286 1411 1661 1541 1413 1538
8 1540 1417 1544 1663 1413 1288 1416 1541
8 1421 1296 1425 1548 1540 1417 1544 1663
8 1542 1415 1287 1414 1664 1543 1416 1541
8 1420 1294 1423 1547 1545 1421 1548 1666
8 1547 1423 1293 1419 1667 1549 1422 1546
8 1434 1301 1427 1553 1546 1422 1549 1667
8 1423 1297 1424 1549 1548 1425 1550 1668
8 1551 1426 1550 1668 1427 1298 1424 1549
8 1551 1426 1298 1427 1671 1552 1428 1554
8 1562 1432 1554 1674 1434 1301 1427 1553
8 1431 1299 1429 1558 1554 1428 1555 1675
8 1431 1299 1430 1560 1558 1429 1557 1680
8 1560 1430 1300 1432 1683 1559 1433 1563
8 1561 1431 1554 1674 1684 1560 1432 1562
8 1685 1563 1432 1562 1565 1435 1301 1434
8 1435 1302 1436 1566 1563 1433 1564 1686
8 1437 1303 1438 1568 1565 1435 1566 1688
8 1438 1304 1439 1569 1566 1436 1567 1689
8 1440 1306 1441 1571 1568 1438 1569 1691
8 1441 1307 1442 1572 1569 1439 1570 1692
8 1443 1309 1444 1574 1571 1441 1572 1694
8 1310 1444 1572 1442 1445 1575 1695 1573
8 1446 1312 1447 1576 1574 1444 1575 1696
8 1486 1349 1485 1614 1579 1449 1577 1699
8 1451 1317 1449 1579 1581 1450 1578 1701
8 1487 1350 1486 1615 1582 1451 1579 1702
8 1581 1450 1580 1704 1453 1318 1452 1584
8 1582 1451 1581 1705 1454 1319 1453 1585
8 1584 1452 1583 1706 1456 1320 1455 1586
8 1585 1453 1584 1707 1457 1321 1456 1587
8 1587 1456 1586 1708 1458 1323 1459 1588
8 1633 1506 1589 1710 1507 1373 1461 1590
8 1464 1329 1461 1590 1594 1463 1589 1710
8 1468 1336 1462 1591 1595 1464 1590 1711
8 1634 1507 1590 1711 1508 1374 1462 1591
8 1473 1341 1463 1594 1603 1477 1593 1716
8 1469 1337 1464 1595 1599 1473 1594 1717
8 1471 1597 1467 1335 1600 1718 1596 1470
8 1718 1600 1496 1616 1596 1470 1360 1488
8 1336 1468 1597 1471 1472 1598 1719 1601
8 1469 1337 1473 1599 1598 1472 1602 1720
8 1722 1604 1501 1623 1600 1474 1367 1496
8 1475 1601 1471 1339 1604 1722 1600 1474
8 1602 1476 1605 1723 1472 1340 1475 1601
8 1476 1602 1724 1606 1341 1473 1603 1477
8 1483 1347 1478 1609 1612 1482 1608 1731
8 1495 1370 1504 1622 1609 1478 1608 1731
8 1618 1495 1609 1732 1494 1361 1479 1610
8 1484 1348 1479 1610 1613 1483 1609 1732
8 1486 1349 1482 1612 1614 1485 1611 1733
8 1613 1483 1612 1734 1487 1350 1486 1615
8 1489 1363 1496 1616 1617 1499 1623 1736
8 1491 1365 1499 1617 1619 1500 1626 1737
8 1618 1495 1361 1494 1738 1622 1497 1621
8 1739 1625 1498 1620 1619 1500 1366 1492
8 1621 1497 1362 1493 1740 1624 1498 1620
8 1742 1631 1504 1622 1624 1505 1371 1497
8 1743 1628 1502 1626 1623 1501 1368 1499
8 1744 1630 1505 1624 1625 1503 1372 1498
8 1745 1629 1503 1625 1626 1502 1369 1500
8 1520 1398 1528 1644 1633 1506 1632 1751
8 1637 1520 1633 1752 1512 1388 1507 1634
8 1635 1519 1643 1753 1510 1391 1522 1636
8 1657 1535 1643 1753 1534 1406 1519 1635
8 1515 1392 1522 1636 1639 1523 1646 1754
8 1517 1389 1521 1641 1637 1520 1644 1755
8 1524 1638 1756 1648 1393 1514 1639 1523
8 1640 1526 1395 1516 1756 1648 1524 1638
8 1642 1525 1396 1518 1757 1649 1526 1640
8 1758 1645 1521 1641 1642 1525 1396 1518
8 1646 1531 1400 1522 1760 1650 1527 1643
8 1535 1407 1536 1658 1643 1527 1650 1760
8 1521 1399 1529 1645 1644 1528 1651 1761
8 1647 1530 1652 1762 1525 1404 1529 1645
8 1401 1523 1648 1532 1531 1646 1763 1655
8 1525 1404 1533 1649 1647 1530 1654 1765
8 1533 1649 1766 1656 1403 1526 1648 1532
8 1662 1542 1658 1774 1539 1414 1535 1657
8 1542 1415 1543 1664 1658 1536 1659 1775
8 1660 1540 1663 1777 1538 1413 1541 1661
8 1545 1421 1548 1666 1660 1540 1663 1777
8 1662 1542 1414 1539 1778 1664 1541 1661
8 1664 1543 1416 1541 1779 1665 1544 1663
8 1548 1425 1550 1668 1663 1544 1665 1779
8 1547 1423 1549 1667 1666 1548 1668 1781
8 1670 1551 1668 1781 1553 1427 1549 1667
8 1551 1426 1552 1671 1668 1550 1669 1782
8 1670 1551 1427 1553 1784 1671 1554 1674
8 1675 1555 1672 1785 1554 1428 1552 1671
8 1678 1556 1673 1789 1558 1429 1555 1675
8 1561 1431 1558 1681 1674 1554 1675 1790
8 1794 1677 1556 1678 1680 1557 1429 1558
8 1560 1430 1559 1683 1680 1557 1679 1797
8 1561 1431 1560 1684 1681 1558 1680 1798
8 1563 1433 1564 1686 1683 1559 1682 1800
8 1684 1560 1432 1562 1801 1683 1563 1685
8 1565 1435 1566 1688 1685 1563 1686 1802
8 1566 1436 1567 1689 1686 1564 1687 1803
8 1568 1438 1569 1691 1688 1566 1689 1805
8 1569 1439 1570 1692 1689 1567 1690 1806
8 1571 1441 1572 1694 1691 1569 1692 1808
8 1442 1572 1692 1570 1573 1695 1809 1693
8 1574 1444 1575 1696 1694 1572 1695 1810
8 1614 1485 1592 1712 1699 1577 1697 1813
8 1579 1449 1577 1699 1701 1578 1698 1815
8 1615 1486 1614 1735 1702 1579 1699 1816
8 1701 1578 1700 1818 1581 1450 1580 1704
8 1582 1451 1579 1702 1705 1581 1701 1819
8 1704 1580 1703 1820 1584 1452 1583 1706
8 1705 1581 1704 1821 1585 1453 1584 1707
8 1707 1584 1706 1822 1587 1456 1586 1708
8 1710 1589 1506 1633 1824 1709 1632 1751
8 1594 1463 1589 1710 1716 1593 1709 1824
8 1752 1633 1710 1825 1634 1507 1590 1711
8 1595 1464 1590 1711 1717 1594 1710 1825
8 1830 1714 1592 1712 1733 1611 1485 1614
8 1603 1477 1593 1716 1725 1607 1715 1834
8 1599 1473 1594 1717 1721 1603 1716 1835
8 1837 1722 1623 1736 1718 1600 1496 1616
8 1719 1601 1722 1837 1597 1471 1600 1718
8 1602 1720 1598 1472 1723 1838 1719 1601
8 1720 1602 1473 1599 1839 1724 1603 1721
8 1723 1605 1726 1840 1601 1475 1604 1722
8 1840 1726 1628 1743 1722 1604 1501 1623
8 1724 1606 1727 1841 1602 1476 1605 1723
8 1725 1607 1728 1842 1603 1477 1606 1724
8 1612 1482 1608 1731 1733 1611 1730 1849
8 1741 1627 1730 1849 1622 1504 1608 1731
8 1613 1483 1609 1732 1734 1612 1731 1850
8 1618 1495 1622 1738 1732 1609 1731 1850
8 1615 1486 1612 1734 1735 1614 1733 1851
8 1852 1743 1626 1737 1736 1623 1499 1617
8 1853 1745 1625 1739 1737 1626 1500 1619
8 1855 1742 1622 1738 1740 1624 1497 1621
8 1856 1744 1624 1740 1739 1625 1498 1620
8 1741 1627 1504 1622 1857 1746 1631 1742
8 1742 1631 1505 1624 1858 1749 1630 1744
8 1859 1747 1629 1745 1743 1628 1502 1626
8 1860 1748 1630 1744 1745 1629 1503 1625
8 1644 1528 1651 1761 1751 1632 1750 1865
8 1637 1520 1644 1755 1752 1633 1751 1866
8 1754 1646 1522 1636 1867 1760 1643 1753
8 1657 1535 1658 1774 1753 1643 1760 1867
8 1639 1523 1646 1754 1756 1648 1763 1868
8 1641 1521 1645 1758 1755 1644 1761 1869
8 1757 1649 1526 1640 1870 1766 1648 1756
8 1642 1525 1649 1757 1759 1647 1765 1871
8 1759 1647 1762 1872 1642 1525 1645 1758
8 1760 1650 1767 1874 1646 1531 1655 1763
8 1658 1536 1659 1775 1760 1650 1767 1874
8 1762 1652 1768 1875 1645 1529 1651 1761
8 1764 1653 1769 1876 1647 1530 1652 1762
8 1656 1766 1877 1773 1532 1648 1763 1655
8 1771 1879 1765 1654 1653 1764 1647 1530
8 1533 1649 1765 1654 1656 1766 1880 1772
8 1662 1542 1664 1778 1774 1658 1775 1887
8 1664 1543 1665 1779 1775 1659 1776 1888
8 1778 1664 1541 1661 1890 1779 1663 1777
8 1666 1548 1668 1781 1777 1663 1779 1890
8 1782 1669 1780 1891 1668 1550 1665 1779
8 1670 1551 1671 1784 1781 1668 1782 1893
8 1671 1552 1672 1785 1782 1669 1783 1894
8 1790 1675 1785 1896 1674 1554 1671 1784
8 1675 1555 1673 1789 1785 1672 1786 1897
8 1792 1676 1788 1903 1678 1556 1673 1789
8 1795 1678 1789 1904 1681 1558 1675 1790
8 1792 1676 1556 1678 1906 1791 1677 1794
8 1680 1557 1679 1797 1794 1677 1793 1909
8 1910 1794 1678 1795 1798 1680 1558 1681
8 1683 1559 1682 1800 1797 1679 1796 1912
8 1684 1560 1683 1801 1798 1680 1797 1913
8 1686 1564 1687 1803 1800 1682 1799 1915
8 1685 1563 1686 1802 1801 1683 1800 1916
8 1688 1566 1689 1805 1802 1686 1803 1917
8 1689 1567 1690 1806 1803 1687 1804 1918
8 1691 1569 1692 1808 1805 1689 1806 1920
8 1692 1570 1693 1809 1806 1690 1807 1921
8 1694 1572 1695 1810 1808 1692 1809 1922
8 1829 1713 1811 1926 1712 1592 1697 1813
8 1813 1697 1812 1928 1699 1577 1698 1815
8 1735 1614 1712 1828 1816 1699 1813 1929
8 1815 1698 1814 1931 1701 1578 1700 1818
8 1702 1579 1699 1816 1819 1701 1815 1932
8 1818 1700 1817 1933 1704 1580 1703 1820
8 1819 1701 1818 1934 1705 1581 1704 1821
8 1821 1704 1820 1935 1707 1584 1706 1822
8 1824 1709 1632 1751 1937 1823 1750 1865
8 1716 1593 1709 1824 1834 1715 1823 1937
8 1825 1710 1633 1752 1938 1824 1751 1866
8 1717 1594 1710 1825 1835 1716 1824 1938
8 1945 1830 1712 1828 1851 1733 1614 1735
8 1830 1714 1831 1946 1712 1592 1713 1829
8 1947 1832 1714 1830 1849 1730 1611 1733
8 1843 1729 1607 1725 1950 1833 1715 1834
8 1721 1603 1716 1835 1836 1725 1834 1951
8 1836 1725 1842 1953 1721 1603 1724 1839
8 1723 1838 1719 1601 1840 1954 1837 1722
8 1954 1840 1743 1852 1837 1722 1623 1736
8 1724 1839 1720 1602 1841 1955 1838 1723
8 1841 1727 1844 1956 1723 1605 1726 1840
8 1956 1844 1747 1859 1840 1726 1628 1743
8 1728 1842 1724 1606 1845 1957 1841 1727
8 1725 1607 1729 1843 1842 1728 1846 1958
8 1741 1627 1746 1857 1849 1730 1848 1965
8 1734 1612 1731 1850 1851 1733 1849 1966
8 1854 1741 1849 1966 1738 1622 1731 1850
8 1967 1859 1745 1853 1852 1743 1626 1737
8 1968 1860 1744 1856 1853 1745 1625 1739
8 1854 1741 1622 1738 1969 1857 1742 1855
8 1855 1742 1624 1740 1970 1858 1744 1856
8 1857 1746 1631 1742 1971 1861 1749 1858
8 1858 1749 1630 1744 1972 1863 1748 1860
8 1859 1747 1862 1973 1745 1629 1748 1860
8 1875 1768 1864 1977 1761 1651 1750 1865
8 1755 1644 1761 1869 1866 1751 1865 1978
8 1867 1760 1874 1979 1754 1646 1763 1868
8 1774 1658 1775 1887 1867 1760 1874 1979
8 1870 1766 1648 1756 1980 1877 1763 1868
8 1872 1762 1875 1981 1758 1645 1761 1869
8 1757 1649 1766 1870 1871 1765 1880 1982
8 1983 1879 1764 1873 1871 1765 1647 1759
8 1873 1764 1876 1984 1759 1647 1762 1872
8 1877 1773 1655 1763 1986 1881 1767 1874
8 1775 1659 1776 1888 1874 1767 1881 1986
8 1876 1769 1882 1987 1762 1652 1768 1875
8 1878 1770 1883 1988 1764 1653 1769 1876
8 1880 1772 1656 1766 1989 1886 1773 1877
8 1878 1770 1653 1764 1990 1884 1771 1879
8 1765 1654 1772 1880 1879 1771 1885 1991
8 1778 1664 1779 1890 1887 1775 1888 1997
8 1998 1889 1776 1888 1891 1780 1665 1779
8 1893 1782 1891 2000 1781 1668 1779 1890
8 1894 1783 1892 2001 1782 1669 1780 1891
8 1784 1671 1785 1896 1893 1782 1894 2003
8 1897 1786 1895 2004 1785 1672 1783 1894
8 1790 1675 1789 1904 1896 1785 1897 2006
8 1901 1787 1898 2007 1789 1673 1786 1897
8 1903 1788 1900 2013 1789 1673 1787 1901
8 1792 1676 1791 1906 1903 1788 1902 2016
8 1907 1792 1903 2017 1795 1678 1789 1904
8 1906 1791 1677 1794 2019 1905 1793 1909
8 1907 1792 1678 1795 2020 1906 1794 1910
8 1797 1679 1796 1912 1909 1793 1908 2022
8 1798 1680 1797 1913 1910 1794 1909 2023
8 1800 1682 1799 1915 1912 1796 1911 2025
8 1801 1683 1800 1916 1913 1797 1912 2026
8 1803 1687 1804 1918 1915 1799 1914 2028
8 1802 1686 1803 1917 1916 1800 1915 2029
8 1805 1689 1806 1920 1917 1803 1918 2030
8 1806 1690 1807 1921 1918 1804 1919 2031
8 1808 1692 1809 1922 1920 1806 1921 2032
8 1939 1826 1924 2037 1829 1713 1811 1926
8 1926 1811 1925 2039 1813 1697 1812 1928
8 1944 1829 1926 2040 1828 1712 1813 1929
8 1928 1812 1927 2042 1815 1698 1814 1931
8 1929 1813 1928 2043 1816 1699 1815 1932
8 1931 1814 1930 2044 1818 1700 1817 1933
8 1932 1815 1931 2045 1819 1701 1818 1934
8 1934 1818 1933 2046 1821 1704 1820 1935
8 2048 1936 1823 1937 1977 1864 1750 1865
8 1950 1833 1715 1834 2048 1936 1823 1937
8 1938 1824 1751 1866 2049 1937 1865 1978
8 1835 1716 1824 1938 1951 1834 1937 2049
8 1939 1826 1713 1829 2053 1942 1831 1946
8 1940 1827 1923 2035 2053 1942 1826 1939
8 1945 1830 1946 2058 1828 1712 1829 1944
8 2059 1947 1830 1945 1966 1849 1733 1851
8 1947 1832 1730 1849 2060 1948 1848 1965
8 1947 1832 1948 2060 1830 1714 1831 1946
8 1959 1847 1729 1843 2063 1949 1833 1950
8 1952 1843 1725 1836 2064 1950 1834 1951
8 1836 1725 1843 1952 1953 1842 1958 2066
8 1953 1842 1957 2067 1839 1724 1841 1955
8 1841 1955 1838 1723 1956 2068 1954 1840
8 2068 1956 1859 1967 1954 1840 1743 1852
8 1956 1844 1960 2069 1859 1747 1862 1973
8 1845 1957 1841 1727 1960 2069 1956 1844
8 1728 1842 1957 1845 1846 1958 2071 1961
8 1962 2072 1959 1847 1846 1958 1843 1729
8 1971 1861 1964 2077 1857 1746 1848 1965
8 1854 1741 1857 1969 1966 1849 1965 2078
8 1967 1859 1973 2079 1853 1745 1860 1968
8 1970 1858 1744 1856 2080 1972 1860 1968
8 1969 1857 1742 1855 2081 1971 1858 1970
8 1971 1861 1749 1858 2082 1974 1863 1972
8 1973 1862 1975 2083 1860 1748 1863 1972
8 1987 1882 1976 2086 1875 1768 1864 1977
8 1981 1875 1977 2087 1869 1761 1865 1978
8 1980 1877 1763 1868 2088 1986 1874 1979
8 1887 1775 1888 1997 1979 1874 1986 2088
8 1880 1982 2089 1989 1766 1870 1980 1877
8 1984 1876 1987 2090 1872 1762 1875 1981
8 1765 1871 1983 1879 1880 1982 2091 1991
8 1985 1878 1764 1873 2092 1990 1879 1983
8 1985 1878 1988 2093 1873 1764 1876 1984
8 2094 1992 1881 1986 1998 1889 1776 1888
8 1986 1881 1992 2094 1877 1773 1886 1989
8 1988 1883 1993 2095 1876 1769 1882 1987
8 1878 1770 1884 1990 1988 1883 1994 2096
8 1991 1885 1772 1880 2097 1996 1886 1989
8 1879 1771 1885 1991 1990 1884 1995 2098
8 2103 1998 1888 1997 2000 1891 1779 1890
8 2104 1999 1889 1998 2001 1892 1780 1891
8 2003 1894 2001 2106 1893 1782 1891 2000
8 2004 1895 2002 2107 1894 1783 1892 2001
8 2006 1897 2004 2109 1896 1785 1894 2003
8 2007 1898 2005 2110 1897 1786 1895 2004
8 2014 1901 2007 2112 1904 1789 1897 2006
8 2011 1899 2008 2113 1901 1787 1898 2007
8 2119 2010 1899 2011 2013 1900 1787 1901
8 2016 1902 2012 2122 1903 1788 1900 2013
8 2017 1903 2013 2123 1904 1789 1901 2014
8 1906 1791 1905 2019 2016 1902 2015 2125
8 1907 1792 1906 2020 2017 1903 2016 2126
8 1909 1793 1908 2022 2019 1905 2018 2128
8 2020 1906 1794 1910 2129 2019 1909 2023
8 1912 1796 1911 2025 2022 1908 2021 2131
8 1913 1797 1912 2026 2023 1909 2022 2132
8 1915 1799 1914 2028 2025 1911 2024 2134
8 1916 1800 1915 2029 2026 1912 2025 2135
8 1918 1804 1919 2031 2028 1914 2027 2136
8 1917 1803 1918 2030 2029 1915 2028 2137
8 1920 1806 1921 2032 2030 1918 2031 2138
8 1940 1827 1941 2054 2035 1923 2033 2140
8 2035 1923 2034 2143 1939 1826 1924 2037
8 2037 1924 2036 2146 1926 1811 1925 2039
8 2051 1939 2037 2147 1944 1829 1926 2040
8 2039 1925 2038 2149 1928 1812 1927 2042
8 2040 1926 2039 2150 1929 1813 1928 2043
8 2042 1927 2041 2151 1931 1814 1930 2044
8 2043 1928 2042 2152 1932 1815 1931 2045
8 2045 1931 2044 2153 1934 1818 1933 2046
8 2155 2047 1936 2048 2086 1976 1864 1977
8 2063 1949 1833 1950 2155 2047 1936 2048
8 2156 2048 1937 2049 2087 1977 1865 1978
8 2064 1950 1834 1951 2156 2048 1937 2049
8 2051 1939 1829 1944 2160 2053 1946 2058
8 2052 1940 2035 2144 2160 2053 1939 2051
8 2053 1942 1831 1946 2163 2057 1948 2060
8 2055 1943 1827 1940 2163 2057 1942 2053
8 2055 1943 2056 2164 1940 1827 1941 2054
8 2059 1947 1849 1966 2167 2060 1965 2078
8 2059 1947 2060 2167 1945 1830 1946 2058
8 2077 1964 2061 2168 1965 1848 1948 2060
8 2070 1963 1847 1959 2170 2062 1949 2063
8 2065 1959 1843 1952 2171 2063 1950 2064
8 2173 2072 1958 2066 2065 1959 1843 1952
8 1953 1842 1958 2066 2067 1957 2071 2174
8 2068 1956 2069 2175 1967 1859 1973 2079
8 2067 1957 2069 2175 1955 1841 1956 2068
8 1845 1957 2069 1960 1961 2071 2176 2073
8 2069 1960 2073 2176 1973 1862 1975 2083
8 2070 1963 2075 2177 1959 1847 1962 2072
8 1846 1958 2071 1961 1962 2072 2178 2074
8 2077 1964 1861 1971 2182 2076 1974 2082
8 2081 1971 2077 2183 1969 1857 1965 2078
8 2079 1973 2083 2184 1968 1860 1972 2080
8 2081 1971 1858 1970 2185 2082 1972 2080
8 2083 1975 2084 2186 1972 1863 1974 2082
8 2086 1976 1882 1987 2189 2085 1993 2095
8 2090 1987 2086 2190 1981 1875 1977 2087
8 2191 2094 1986 2088 2103 1998 1888 1997
8 2088 1986 2094 2191 1980 1877 1989 2089
8 1991 2091 2192 2097 1880 1982 2089 1989
8 2093 1988 2095 2193 1984 1876 1987 2090
8 1879 1983 2092 1990 1991 2091 2194 2098
8 1985 1878 1990 2092 2093 1988 2096 2195
8 2097 1996 1886 1989 2196 2099 1992 2094
8 2196 2099 1992 2094 2104 1999 1889 1998
8 1994 2096 1988 1883 2100 2197 2095 1993
8 2096 1994 1884 1990 2198 2101 1995 2098
8 1995 2098 2199 2102 1885 1991 2097 1996
8 2203 2104 1998 2103 2106 2001 1891 2000
8 2107 2002 2105 2204 2001 1892 1999 2104
8 2109 2004 2107 2206 2003 1894 2001 2106
8 2110 2005 2108 2207 2004 1895 2002 2107
8 2112 2007 2110 2209 2006 1897 2004 2109
8 2113 2008 2111 2210 2007 1898 2005 2110
8 2120 2011 2113 2212 2014 1901 2007 2112
8 2117 2009 2114 2213 2011 1899 2008 2113
8 2219 2116 2009 2117 2119 2010 1899 2011
8 2222 2118 2010 2119 2122 2012 1900 2013
8 2223 2119 2011 2120 2123 2013 1901 2014
8 2016 1902 2015 2125 2122 2012 2121 2225
8 2126 2016 2122 2226 2017 1903 2013 2123
8 2019 1905 2018 2128 2125 2015 2124 2228
8 2020 1906 2019 2129 2126 2016 2125 2229
8 2022 1908 2021 2131 2128 2018 2127 2231
8 2023 1909 2022 2132 2129 2019 2128 2232
8 2025 1911 2024 2134 2131 2021 2130 2234
8 2026 1912 2025 2135 2132 2022 2131 2235
8 1914 2028 2134 2024 2027 2136 2236 2133
8 2029 1915 2028 2137 2135 2025 2134 2237
8 2030 1918 2031 2138 2137 2028 2136 2238
8 2157 2050 2139 2240 2054 1941 2033 2140
8 2052 1940 2054 2161 2144 2035 2140 2242
8 2140 2033 2141 2243 2035 1923 2034 2143
8 2143 2034 2142 2246 2037 1924 2036 2146
8 2144 2035 2143 2247 2051 1939 2037 2147
8 2146 2036 2145 2249 2039 1925 2038 2149
8 2147 2037 2146 2250 2040 1926 2039 2150
8 2149 2038 2148 2251 2042 1927 2041 2151
8 2150 2039 2149 2252 2043 1928 2042 2152
8 2152 2042 2151 2253 2045 1931 2044 2153
8 2255 2154 2047 2155 2189 2085 1976 2086
8 2170 2062 1949 2063 2255 2154 2047 2155
8 2256 2155 2048 2156 2190 2086 1977 2087
8 2171 2063 1950 2064 2256 2155 2048 2156
8 2258 2159 2050 2157 2164 2056 1941 2054
8 2160 2053 1946 2058 2262 2163 2060 2167
8 2162 2055 1940 2052 2262 2163 2053 2160
8 2162 2055 2164 2263 2052 1940 2054 2161
8 2163 2057 1948 2060 2264 2165 2061 2168
8 2055 1943 2057 2163 2164 2056 2165 2264
8 2182 2076 2166 2268 2077 1964 2061 2168
8 2183 2077 2168 2269 2078 1965 2060 2167
8 2070 1963 2062 2170 2177 2075 2169 2271
8 2172 2070 1959 2065 2272 2170 2063 2171
8 2172 2070 2177 2273 2065 1959 2072 2173
8 2066 1958 2072 2173 2174 2071 2178 2274
8 2067 1957 2071 2174 2175 2069 2176 2275
8 2175 2069 2176 2275 2079 1973 2083 2184
8 2071 1961 2074 2178 2176 2073 2179 2276
8 2176 2073 2179 2276 2083 1975 2084 2186
8 2072 1962 2075 2177 2178 2074 2180 2277
8 2182 2076 1974 2082 2280 2181 2084 2186
8 2183 2077 1971 2081 2281 2182 2082 2185
8 2184 2083 2186 2282 2080 1972 2082 2185
8 2189 2085 1993 2095 2285 2188 2100 2197
8 2190 2086 1987 2090 2286 2189 2095 2193
8 2192 2097 1989 2089 2287 2196 2094 2191
8 2287 2196 2094 2191 2203 2104 1998 2103
8 2194 2098 1991 2091 2288 2199 2097 2192
8 2195 2096 2197 2289 2093 1988 2095 2193
8 2096 2195 2290 2198 1990 2092 2194 2098
8 2097 1996 2099 2196 2199 2102 2200 2291
8 2196 2099 1999 2104 2291 2200 2105 2204
8 2100 2197 2292 2201 1994 2096 2198 2101
8 1995 2098 2198 2101 2102 2199 2293 2202
8 2206 2107 2204 2296 2106 2001 2104 2203
8 2207 2108 2205 2297 2107 2002 2105 2204
8 2209 2110 2207 2299 2109 2004 2107 2206
8 2210 2111 2208 2300 2110 2005 2108 2207
8 2212 2113 2210 2302 2112 2007 2110 2209
8 2213 2114 2211 2303 2113 2008 2111 2210
8 2220 2117 2213 2305 2120 2011 2113 2212
8 2216 2115 2214 2306 2117 2009 2114 2213
8 2216 2115 2009 2117 2311 2217 2116 2219
8 2219 2116 2010 2119 2314 2218 2118 2222
8 2315 2219 2117 2220 2223 2119 2011 2120
8 2122 2012 2121 2225 2222 2118 2221 2317
8 2318 2222 2119 2223 2226 2122 2013 2123
8 2125 2015 2124 2228 2225 2121 2224 2320
8 2126 2016 2125 2229 2226 2122 2225 2321
8 2128 2018 2127 2231 2228 2124 2227 2323
8 2129 2019 2128 2232 2229 2125 2228 2324
8 2131 2021 2130 2234 2231 2127 2230 2326
8 2132 2022 2131 2235 2232 2128 2231 2327
8 2134 2024 2133 2236 2234 2130 2233 2328
8 2135 2025 2134 2237 2235 2131 2234 2329
8 2137 2028 2136 2238 2237 2134 2236 2330
8 2157 2050 2158 2259 2240 2139 2239 2332
8 2257 2157 2240 2334 2161 2054 2140 2242
8 2240 2139 2241 2335 2140 2033 2141 2243
8 2242 2140 2243 2337 2144 2035 2143 2247
8 2243 2141 2244 2338 2143 2034 2142 2246
8 2246 2142 2245 2341 2146 2036 2145 2249
8 2247 2143 2246 2342 2147 2037 2146 2250
8 2249 2145 2248 2343 2149 2038 2148 2251
8 2250 2146 2249 2344 2150 2039 2149 2252
8 2252 2149 2251 2345 2152 2042 2151 2253
8 2169 2271 2347 2254 2062 2170 2255 2154
8 2189 2085 2188 2285 2255 2154 2254 2347
8 2348 2255 2155 2256 2286 2189 2086 2190
8 2272 2170 2063 2171 2348 2255 2155 2256
8 2349 2258 2157 2257 2263 2164 2054 2161
8 2258 2159 2261 2351 2157 2050 2158 2259
8 2258 2159 2056 2164 2351 2261 2165 2264
8 2262 2163 2060 2167 2355 2264 2168 2269
8 2162 2055 2163 2262 2263 2164 2264 2355
8 2357 2266 2165 2264 2268 2166 2061 2168
8 2268 2166 2076 2182 2361 2267 2181 2280
8 2281 2182 2268 2362 2183 2077 2168 2269
8 2271 2169 2270 2364 2177 2075 2180 2277
8 2172 2070 2170 2272 2273 2177 2271 2365
8 2072 2173 2274 2178 2177 2273 2366 2277
8 2071 2174 2275 2176 2178 2274 2367 2276
8 2275 2176 2276 2367 2184 2083 2186 2282
8 2283 2187 2084 2186 2368 2278 2179 2276
8 2178 2074 2180 2277 2276 2179 2278 2368
8 2283 2187 2279 2370 2186 2084 2181 2280
8 2281 2182 2082 2185 2371 2280 2186 2282
8 2188 2285 2374 2284 2100 2197 2292 2201
8 2286 2189 2095 2193 2375 2285 2197 2289
8 2192 2097 2196 2287 2288 2199 2291 2376
8 2287 2196 2104 2203 2376 2291 2204 2296
8 2194 2098 2199 2288 2290 2198 2293 2377
8 2289 2197 2096 2195 2378 2292 2198 2290
8 2291 2200 2105 2204 2379 2294 2205 2297
8 2199 2102 2200 2291 2293 2202 2294 2379
8 2198 2101 2202 2293 2292 2201 2295 2380
8 2299 2207 2297 2383 2206 2107 2204 2296
8 2300 2208 2298 2384 2207 2108 2205 2297
8 2302 2210 2300 2386 2209 2110 2207 2299
8 2303 2211 2301 2387 2210 2111 2208 2300
8 2305 2213 2303 2389 2212 2113 2210 2302
8 2306 2214 2304 2390 2213 2114 2211 2303
8 2310 2216 2306 2392 2220 2117 2213 2305
8 2308 2215 2307 2393 2216 2115 2214 2306
8 2308 2215 2115 2216 2396 2309 2217 2311
8 2310 2216 2117 2220 2398 2311 2219 2315
8 2311 2217 2116 2219 2399 2312 2218 2314
8 2314 2218 2118 2222 2402 2313 2221 2317
8 2315 2219 2119 2223 2403 2314 2222 2318
8 2225 2121 2224 2320 2317 2221 2316 2405
8 2226 2122 2225 2321 2318 2222 2317 2406
8 2228 2124 2227 2323 2320 2224 2319 2408
8 2229 2125 2228 2324 2321 2225 2320 2409
8 2231 2127 2230 2326 2323 2227 2322 2411
8 2232 2128 2231 2327 2324 2228 2323 2412
8 2234 2130 2233 2328 2326 2230 2325 2413
8 2235 2131 2234 2329 2327 2231 2326 2414
8 2237 2134 2236 2330 2329 2234 2328 2415
8 2259 2158 2260 2352 2332 2239 2331 2417
8 2257 2157 2259 2350 2334 2240 2332 2419
8 2240 2139 2239 2332 2335 2241 2333 2420
8 2334 2240 2335 2422 2242 2140 2243 2337
8 2335 2241 2336 2423 2243 2141 2244 2338
8 2337 2243 2338 2425 2247 2143 2246 2342
8 2338 2244 2339 2426 2246 2142 2245 2341
8 2341 2245 2340 2428 2249 2145 2248 2343
8 2342 2246 2341 2429 2250 2146 2249 2344
8 2344 2249 2343 2430 2252 2149 2251 2345
8 2188 2285 2347 2254 2284 2374 2432 2346
8 2347 2254 2346 2432 2271 2169 2270 2364
8 2365 2271 2170 2272 2433 2347 2255 2348
8 2286 2189 2285 2375 2348 2255 2347 2433
8 2349 2258 2351 2435 2257 2157 2259 2350
8 2349 2258 2164 2263 2435 2351 2264 2355
8 2259 2158 2261 2351 2352 2260 2354 2437
8 2356 2265 2354 2437 2264 2165 2261 2351
8 2441 2357 2264 2355 2362 2268 2168 2269
8 2356 2265 2165 2264 2442 2358 2266 2357
8 2443 2359 2266 2357 2361 2267 2166 2268
8 2370 2279 2360 2446 2280 2181 2267 2361
8 2362 2268 2182 2281 2447 2361 2280 2371
8 2180 2277 2368 2278 2270 2364 2449 2363
8 2271 2365 2273 2177 2364 2450 2366 2277
8 2372 2283 2186 2282 2451 2368 2276 2367
8 2178 2274 2367 2276 2277 2366 2451 2368
8 2283 2187 2278 2368 2370 2279 2369 2452
8 2372 2283 2370 2453 2282 2186 2280 2371
8 2284 2374 2455 2373 2201 2292 2380 2295
8 2375 2285 2197 2289 2456 2374 2292 2378
8 2376 2291 2204 2296 2457 2379 2297 2383
8 2288 2199 2291 2376 2377 2293 2379 2457
8 2198 2290 2378 2292 2293 2377 2458 2380
8 2293 2202 2294 2379 2380 2295 2381 2459
8 2384 2298 2381 2459 2297 2205 2294 2379
8 2386 2300 2384 2463 2299 2207 2297 2383
8 2387 2301 2385 2464 2300 2208 2298 2384
8 2389 2303 2387 2466 2302 2210 2300 2386
8 2390 2304 2388 2467 2303 2211 2301 2387
8 2392 2306 2390 2469 2305 2213 2303 2389
8 2393 2307 2391 2470 2306 2214 2304 2390
8 2395 2308 2393 2472 2310 2216 2306 2392
8 2308 2215 2309 2396 2393 2307 2394 2473
8 2395 2308 2216 2310 2475 2396 2311 2398
8 2396 2309 2217 2311 2476 2397 2312 2399
8 2398 2311 2219 2315 2478 2399 2314 2403
8 2399 2312 2218 2314 2479 2400 2313 2402
8 2317 2221 2316 2405 2402 2313 2401 2482
8 2403 2314 2222 2318 2483 2402 2317 2406
8 2320 2224 2319 2408 2405 2316 2404 2485
8 2321 2225 2320 2409 2406 2317 2405 2486
8 2323 2227 2322 2411 2408 2319 2407 2488
8 2324 2228 2323 2412 2409 2320 2408 2489
8 2326 2230 2325 2413 2411 2322 2410 2490
8 2327 2231 2326 2414 2412 2323 2411 2491
8 2329 2234 2328 2415 2414 2326 2413 2492
8 2417 2331 2260 2352 2494 2416 2353 2438
8 2350 2259 2352 2436 2419 2332 2417 2496
8 2332 2239 2331 2417 2420 2333 2418 2497
8 2334 2240 2332 2419 2422 2335 2420 2499
8 2420 2333 2421 2500 2335 2241 2336 2423
8 2422 2335 2423 2502 2337 2243 2338 2425
8 2423 2336 2424 2503 2338 2244 2339 2426
8 2425 2338 2426 2505 2342 2246 2341 2429
8 2426 2339 2427 2506 2341 2245 2340 2428
8 2429 2341 2428 2507 2344 2249 2343 2430
8 2432 2346 2284 2374 2509 2431 2373 2455
8 2432 2346 2431 2509 2364 2270 2363 2449
8 2375 2285 2374 2456 2433 2347 2432 2510
8 2347 2433 2365 2271 2432 2510 2450 2364
8 2350 2259 2351 2435 2436 2352 2437 2514
8 2440 2356 2437 2514 2355 2264 2351 2435
8 2352 2260 2354 2437 2438 2353 2439 2516
8 2356 2265 2358 2442 2437 2354 2439 2516
8 2440 2356 2264 2355 2518 2442 2357 2441
8 2519 2443 2357 2441 2447 2361 2268 2362
8 2443 2359 2444 2520 2357 2266 2358 2442
8 2443 2359 2267 2361 2520 2444 2360 2446
8 2446 2360 2279 2370 2523 2445 2369 2452
8 2453 2370 2446 2524 2371 2280 2361 2447
8 2449 2363 2448 2525 2368 2278 2369 2452
8 2366 2277 2364 2450 2451 2368 2449 2526
8 2372 2283 2368 2451 2453 2370 2452 2527
8 2455 2373 2295 2380 2529 2454 2382 2460
8 2456 2374 2292 2378 2530 2455 2380 2458
8 2377 2293 2379 2457 2458 2380 2459 2531
8 2463 2384 2459 2531 2383 2297 2379 2457
8 2533 2461 2382 2460 2459 2381 2295 2380
8 2464 2385 2461 2533 2384 2298 2381 2459
8 2466 2387 2464 2537 2386 2300 2384 2463
8 2467 2388 2465 2538 2387 2301 2385 2464
8 2469 2390 2467 2540 2389 2303 2387 2466
8 2470 2391 2468 2541 2390 2304 2388 2467
8 2472 2393 2470 2543 2392 2306 2390 2469
8 2393 2307 2394 2473 2470 2391 2471 2544
8 2395 2308 2396 2475 2472 2393 2473 2546
8 2396 2309 2397 2476 2473 2394 2474 2547
8 2475 2396 2311 2398 2549 2476 2399 2478
8 2476 2397 2312 2399 2550 2477 2400 2479
8 2478 2399 2314 2403 2552 2479 2402 2483
8 2479 2400 2313 2402 2553 2480 2401 2482
8 2405 2316 2404 2485 2482 2401 2481 2556
8 2406 2317 2405 2486 2483 2402 2482 2557
8 2408 2319 2407 2488 2485 2404 2484 2559
8 2409 2320 2408 2489 2486 2405 2485 2560
8 2411 2322 2410 2490 2488 2407 2487 2561
8 2412 2323 2411 2491 2489 2408 2488 2562
8 2414 2326 2413 2492 2491 2411 2490 2563
8 2513 2434 2493 2565 2438 2353 2416 2494
8 2496 2417 2352 2436 2567 2494 2438 2515
8 2494 2416 2495 2568 2417 2331 2418 2497
8 2419 2332 2417 2496 2499 2420 2497 2570
8 2497 2418 2498 2571 2420 2333 2421 2500
8 2499 2420 2500 2573 2422 2335 2423 2502
8 2500 2421 2501 2574 2423 2336 2424 2503
8 2502 2423 2503 2576 2425 2338 2426 2505
8 2503 2424 2504 2577 2426 2339 2427 2506
8 2505 2426 2506 2578 2429 2341 2428 2507
8 2509 2431 2373 2455 2580 2508 2454 2529
8 2509 2431 2508 2580 2449 2363 2448 2525
8 2432 2510 2581 2509 2374 2456 2530 2455
8 2432 2510 2450 2364 2509 2581 2526 2449
8 2583 2511 2434 2513 2516 2439 2353 2438
8 2436 2352 2437 2514 2515 2438 2516 2588
8 2440 2356 2442 2518 2514 2437 2516 2588
8 2442 2358 2444 2520 2516 2439 2517 2589
8 2519 2443 2520 2591 2441 2357 2442 2518
8 2519 2443 2361 2447 2591 2520 2446 2524
8 2446 2360 2445 2523 2520 2444 2521 2592
8 2525 2448 2522 2593 2452 2369 2445 2523
8 2524 2446 2370 2453 2594 2523 2452 2527
8 2526 2449 2525 2595 2451 2368 2452 2527
8 2534 2462 2528 2597 2460 2382 2454 2529
8 2530 2455 2380 2458 2598 2529 2460 2532
8 2599 2533 2460 2532 2531 2459 2380 2458
8 2537 2464 2533 2599 2463 2384 2459 2531
8 2534 2462 2382 2460 2601 2535 2461 2533
8 2538 2465 2535 2601 2464 2385 2461 2533
8 2540 2467 2538 2604 2466 2387 2464 2537
8 2541 2468 2539 2605 2467 2388 2465 2538
8 2543 2470 2541 2607 2469 2390 2467 2540
8 2470 2391 2471 2544 2541 2468 2542 2608
8 2472 2393 2473 2546 2543 2470 2544 2610
8 2473 2394 2474 2547 2544 2471 2545 2611
8 2475 2396 2476 2549 2546 2473 2547 2613
8 2476 2397 2477 2550 2547 2474 2548 2614
8 2549 2476 2399 2478 2616 2550 2479 2552
8 2479 2400 2480 2553 2550 2477 2551 2617
8 2552 2479 2402 2483 2619 2553 2482 2557
8 2482 2401 2481 2556 2553 2480 2554 2620
8 2485 2404 2484 2559 2556 2481 2555 2623
8 2486 2405 2485 2560 2557 2482 2556 2624
8 2488 2407 2487 2561 2559 2484 2558 2625
8 2489 2408 2488 2562 2560 2485 2559 2626
8 2491 2411 2490 2563 2562 2488 2561 2627
8 2513 2434 2512 2585 2565 2493 2564 2630
8 2586 2513 2565 2632 2515 2438 2494 2567
8 2565 2493 2566 2633 2494 2416 2495 2568
8 2567 2494 2568 2635 2496 2417 2497 2570
8 2568 2495 2569 2636 2497 2418 2498 2571
8 2570 2497 2571 2638 2499 2420 2500 2573
8 2571 2498 2572 2639 2500 2421 2501 2574
8 2573 2500 2574 2641 2502 2423 2503 2576
8 2574 2501 2575 2642 2503 2424 2504 2577
8 2576 2503 2577 2643 2505 2426 2506 2578
8 2597 2528 2579 2645 2529 2454 2508 2580
8 2580 2508 2579 2645 2525 2448 2522 2593
8 2581 2509 2455 2530 2646 2580 2529 2598
8 2581 2509 2580 2646 2526 2449 2525 2595
8 2583 2511 2582 2648 2513 2434 2512 2585
8 2583 2511 2439 2516 2648 2582 2517 2589
8 2649 2583 2513 2586 2588 2516 2438 2515
8 2589 2517 2444 2520 2653 2587 2521 2592
8 2518 2442 2520 2591 2588 2516 2589 2654
8 2593 2522 2590 2655 2523 2445 2521 2592
8 2524 2446 2523 2594 2591 2520 2592 2656
8 2595 2525 2593 2657 2527 2452 2523 2594
8 2602 2536 2596 2659 2534 2462 2528 2597
8 2600 2534 2597 2660 2532 2460 2529 2598
8 2600 2534 2460 2532 2661 2601 2533 2599
8 2604 2538 2601 2661 2537 2464 2533 2599
8 2602 2536 2462 2534 2663 2603 2535 2601
8 2601 2535 2465 2538 2663 2603 2539 2605
8 2607 2541 2605 2665 2540 2467 2538 2604
8 2608 2542 2606 2666 2541 2468 2539 2605
8 2543 2470 2544 2610 2607 2541 2608 2668
8 2544 2471 2545 2611 2608 2542 2609 2669
8 2546 2473 2547 2613 2610 2544 2611 2671
8 2547 2474 2548 2614 2611 2545 2612 2672
8 2549 2476 2550 2616 2613 2547 2614 2674
8 2550 2477 2551 2617 2614 2548 2615 2675
8 2552 2479 2553 2619 2616 2550 2617 2677
8 2553 2480 2554 2620 2617 2551 2618 2678
8 2557 2482 2556 2624 2619 2553 2620 2680
8 2556 2481 2555 2623 2620 2554 2621 2681
8 2559 2484 2558 2625 2623 2555 2622 2683
8 2560 2485 2559 2626 2624 2556 2623 2684
8 2562 2488 2561 2627 2626 2559 2625 2685
8 2690 2629 2564 2630 2650 2584 2512 2585
8 2586 2513 2585 2651 2632 2565 2630 2691
8 2630 2564 2631 2692 2565 2493 2566 2633
8 2632 2565 2633 2694 2567 2494 2568 2635
8 2633 2566 2634 2695 2568 2495 2569 2636
8 2635 2568 2636 2697 2570 2497 2571 2638
8 2636 2569 2637 2698 2571 2498 2572 2639
8 2638 2571 2639 2700 2573 2500 2574 2641
8 2639 2572 2640 2701 2574 2501 2575 2642
8 2641 2574 2642 2702 2576 2503 2577 2643
8 2597 2528 2596 2659 2645 2579 2644 2704
8 2645 2579 2644 2704 2593 2522 2590 2655
8 2660 2597 2645 2705 2598 2529 2580 2646
8 2646 2580 2645 2705 2595 2525 2593 2657
8 2650 2584 2512 2585 2707 2647 2582 2648
8 2648 2582 2517 2589 2707 2647 2587 2653
8 2649 2583 2648 2708 2586 2513 2585 2651
8 2649 2583 2516 2588 2708 2648 2589 2654
8 2655 2590 2652 2710 2592 2521 2587 2653
8 2654 2589 2520 2591 2711 2653 2592 2656
8 2657 2593 2655 2712 2594 2523 2592 2656
8 2602 2536 2603 2663 2659 2596 2658 2714
8 2662 2602 2659 2715 2600 2534 2597 2660
8 2662 2602 2534 2600 2717 2663 2601 2661
8 2661 2601 2538 2604 2717 2663 2605 2665
8 2666 2606 2664 2718 2605 2539 2603 2663
8 2668 2608 2666 2720 2607 2541 2605 2665
8 2608 2542 2609 2669 2666 2606 2667 2721
8 2610 2544 2611 2671 2668 2608 2669 2723
8 2611 2545 2612 2672 2669 2609 2670 2724
8 2613 2547 2614 2674 2671 2611 2672 2726
8 2614 2548 2615 2675 2672 2612 2673 2727
8 2616 2550 2617 2677 2674 2614 2675 2729
8 2617 2551 2618 2678 2675 2615 2676 2730
8 2619 2553 2620 2680 2677 2617 2678 2732
8 2620 2554 2621 2681 2678 2618 2679 2733
8 2624 2556 2623 2684 2680 2620 2681 2735
8 2681 2621 2555 2623 2736 2682 2622 2683
8 2626 2559 2625 2685 2684 2623 2683 2737
8 2688 2628 2584 2650 2740 2686 2647 2707
8 2688 2628 2687 2742 2650 2584 2629 2690
8 2690 2629 2689 2745 2630 2564 2631 2692
8 2746 2690 2630 2691 2709 2650 2585 2651
8 2691 2630 2692 2747 2632 2565 2633 2694
8 2692 2631 2693 2748 2633 2566 2634 2695
8 2694 2633 2695 2750 2635 2568 2636 2697
8 2695 2634 2696 2751 2636 2569 2637 2698
8 2697 2636 2698 2753 2638 2571 2639 2700
8 2698 2637 2699 2754 2639 2572 2640 2701
8 2700 2639 2701 2755 2641 2574 2642 2702
8 2659 2596 2658 2714 2704 2644 2703 2757
8 2704 2644 2703 2757 2655 2590 2652 2710
8 2660 2597 2659 2715 2705 2645 2704 2758
8 2705 2645 2704 2758 2657 2593 2655 2712
8 2759 2706 2647 2707 2710 2652 2587 2653
8 2709 2650 2585 2651 2760 2707 2648 2708
8 2708 2648 2589 2654 2760 2707 2653 2711
8 2712 2655 2710 2761 2656 2592 2653 2711
8 2763 2713 2658 2714 2718 2664 2603 2663
8 2662 2602 2663 2717 2715 2659 2714 2764
8 2720 2666 2718 2767 2665 2605 2663 2717
8 2768 2719 2664 2718 2721 2667 2606 2666
8 2668 2608 2669 2723 2720 2666 2721 2770
8 2669 2609 2670 2724 2721 2667 2722 2771
8 2671 2611 2672 2726 2723 2669 2724 2773
8 2672 2612 2673 2727 2724 2670 2725 2774
8 2674 2614 2675 2729 2726 2672 2727 2776
8 2675 2615 2676 2730 2727 2673 2728 2777
8 2677 2617 2678 2732 2729 2675 2730 2779
8 2678 2618 2679 2733 2730 2676 2731 2780
8 2680 2620 2681 2735 2732 2678 2733 2782
8 2733 2679 2621 2681 2783 2734 2682 2736
8 2735 2681 2623 2684 2784 2736 2683 2737
8 2740 2686 2647 2707 2787 2738 2706 2759
8 2688 2628 2686 2740 2742 2687 2739 2789
8 2743 2688 2650 2709 2790 2740 2707 2760
8 2742 2687 2741 2792 2690 2629 2689 2745
8 2743 2688 2742 2793 2709 2650 2690 2746
8 2745 2689 2744 2795 2692 2631 2693 2748
8 2746 2690 2745 2796 2691 2630 2692 2747
8 2747 2692 2748 2797 2694 2633 2695 2750
8 2748 2693 2749 2798 2695 2634 2696 2751
8 2750 2695 2751 2800 2697 2636 2698 2753
8 2751 2696 2752 2801 2698 2637 2699 2754
8 2753 2698 2754 2802 2700 2639 2701 2755
8 2763 2713 2756 2804 2714 2658 2703 2757
8 2759 2706 2652 2710 2804 2756 2703 2757
8 2715 2659 2714 2764 2758 2704 2757 2805
8 2758 2704 2757 2805 2712 2655 2710 2761
8 2806 2759 2707 2760 2761 2710 2653 2711
8 2765 2716 2762 2808 2718 2664 2713 2763
8 2809 2763 2714 2764 2767 2718 2663 2717
8 2765 2716 2664 2718 2811 2766 2719 2768
8 2813 2768 2718 2767 2770 2721 2666 2720
8 2814 2769 2719 2768 2771 2722 2667 2721
8 2723 2669 2724 2773 2770 2721 2771 2816
8 2724 2670 2725 2774 2771 2722 2772 2817
8 2726 2672 2727 2776 2773 2724 2774 2819
8 2727 2673 2728 2777 2774 2725 2775 2820
8 2729 2675 2730 2779 2776 2727 2777 2822
8 2730 2676 2731 2780 2777 2728 2778 2823
8 2732 2678 2733 2782 2779 2730 2780 2825
8 2780 2731 2679 2733 2826 2781 2734 2783
8 2782 2733 2681 2735 2827 2783 2736 2784
8 2830 2785 2738 2787 2804 2756 2706 2759
8 2789 2739 2686 2740 2832 2786 2738 2787
8 2790 2740 2707 2760 2833 2787 2759 2806
8 2742 2687 2739 2789 2792 2741 2788 2835
8 2743 2688 2740 2790 2793 2742 2789 2836
8 2792 2741 2791 2838 2745 2689 2744 2795
8 2793 2742 2792 2839 2746 2690 2745 2796
8 2795 2744 2794 2841 2748 2693 2749 2798
8 2796 2745 2795 2842 2747 2692 2748 2797
8 2797 2748 2798 2843 2750 2695 2751 2800
8 2798 2749 2799 2844 2751 2696 2752 2801
8 2800 2751 2801 2845 2753 2698 2754 2802
8 2808 2762 2803 2847 2763 2713 2756 2804
8 2809 2763 2804 2848 2764 2714 2757 2805
8 2806 2759 2710 2761 2848 2804 2757 2805
8 2765 2716 2766 2811 2808 2762 2807 2850
8 2810 2765 2808 2851 2767 2718 2763 2809
8 2810 2765 2718 2767 2852 2811 2768 2813
8 2811 2766 2719 2768 2853 2812 2769 2814
8 2855 2814 2768 2813 2816 2771 2721 2770
8 2856 2815 2769 2814 2817 2772 2722 2771
8 2773 2724 2774 2819 2816 2771 2817 2858
8 2774 2725 2775 2820 2817 2772 2818 2859
8 2776 2727 2777 2822 2819 2774 2820 2861
8 2777 2728 2778 2823 2820 2775 2821 2862
8 2779 2730 2780 2825 2822 2777 2823 2864
8 2823 2778 2731 2780 2865 2824 2781 2826
8 2825 2780 2733 2782 2866 2826 2783 2827
8 2869 2828 2785 2830 2847 2803 2756 2804
8 2871 2829 2786 2832 2830 2785 2738 2787
8 2872 2830 2787 2833 2848 2804 2759 2806
8 2789 2739 2786 2832 2835 2788 2831 2874
8 2836 2789 2740 2790 2875 2832 2787 2833
8 2792 2741 2788 2835 2838 2791 2834 2877
8 2793 2742 2789 2836 2839 2792 2835 2878
8 2838 2791 2837 2880 2795 2744 2794 2841
8 2839 2792 2838 2881 2796 2745 2795 2842
8 2841 2794 2840 2882 2798 2749 2799 2844
8 2842 2795 2841 2883 2797 2748 2798 2843
8 2843 2798 2844 2884 2800 2751 2801 2845
8 2886 2846 2803 2847 2850 2807 2762 2808
8 2851 2808 2847 2887 2809 2763 2804 2848
8 2850 2807 2766 2811 2889 2849 2812 2853
8 2810 2765 2811 2852 2851 2808 2850 2890
8 2852 2811 2768 2813 2891 2853 2814 2855
8 2853 2812 2769 2814 2892 2854 2815 2856
8 2894 2856 2814 2855 2858 2817 2771 2816
8 2817 2772 2818 2859 2856 2815 2857 2895
8 2819 2774 2820 2861 2858 2817 2859 2897
8 2820 2775 2821 2862 2859 2818 2860 2898
8 2822 2777 2823 2864 2861 2820 2862 2900
8 2823 2778 2824 2865 2862 2821 2863 2901
8 2864 2823 2780 2825 2902 2865 2826 2866
8 2904 2867 2828 2869 2886 2846 2803 2847
8 2869 2828 2868 2906 2830 2785 2829 2871
8 2907 2869 2830 2872 2887 2847 2804 2848
8 2871 2829 2870 2909 2832 2786 2831 2874
8 2910 2871 2832 2875 2872 2830 2787 2833
8 2835 2788 2831 2874 2877 2834 2873 2912
8 2836 2789 2832 2875 2878 2835 2874 2913
8 2877 2834 2876 2915 2838 2791 2837 2880
8 2839 2792 2835 2878 2881 2838 2877 2916
8 2880 2837 2879 2917 2841 2794 2840 2882
8 2881 2838 2880 2918 2842 2795 2841 2883
8 2883 2841 2882 2919 2843 2798 2844 2884
8 2921 2885 2846 2886 2889 2849 2807 2850
8 2922 2886 2847 2887 2890 2850 2808 2851
8 2889 2849 2812 2853 2924 2888 2854 2892
8 2890 2850 2811 2852 2925 2889 2853 2891
8 2891 2853 2814 2855 2926 2892 2856 2894
8 2892 2854 2815 2856 2927 2893 2857 2895
8 2858 2817 2859 2897 2894 2856 2895 2929
8 2859 2818 2860 2898 2895 2857 2896 2930
8 2861 2820 2862 2900 2897 2859 2898 2932
8 2862 2821 2863 2901 2898 2860 2899 2933
8 2864 2823 2865 2902 2900 2862 2901 2934
8 2904 2867 2846 2886 2936 2903 2885 2921
8 2904 2867 2903 2936 2869 2828 2868 2906
8 2937 2904 2869 2907 2922 2886 2847 2887
8 2906 2868 2905 2939 2871 2829 2870 2909
8 2907 2869 2906 2940 2872 2830 2871 2910
8 2909 2870 2908 2942 2874 2831 2873 2912
8 2910 2871 2909 2943 2875 2832 2874 2913
8 2912 2873 2911 2945 2877 2834 2876 2915
8 2878 2835 2874 2913 2916 2877 2912 2946
8 2915 2876 2914 2947 2880 2837 2879 2917
8 2916 2877 2915 2948 2881 2838 2880 2918
8 2918 2880 2917 2949 2883 2841 2882 2919
8 2921 2885 2849 2889 2951 2920 2888 2924
8 2952 2921 2886 2922 2925 2889 2850 2890
8 2924 2888 2854 2892 2954 2923 2893 2927
8 2925 2889 2853 2891 2955 2924 2892 2926
8 2926 2892 2856 2894 2956 2927 2895 2929
8 2895 2857 2896 2930 2927 2893 2928 2957
8 2897 2859 2898 2932 2929 2895 2930 2959
8 2898 2860 2899 2933 2930 2896 2931 2960
8 2900 2862 2901 2934 2932 2898 2933 2961
8 2936 2903 2885 2921 2963 2935 2920 2951
8 2936 2903 2935 2963 2906 2868 2905 2939
8 2937 2904 2886 2922 2964 2936 2921 2952
8 2937 2904 2936 2964 2907 2869 2906 2940
8 2939 2905 2938 2966 2909 2870 2908 2942
8 2940 2906 2939 2967 2910 2871 2909 2943
8 2942 2908 2941 2969 2912 2873 2911 2945
8 2943 2909 2942 2970 2913 2874 2912 2946
8 2945 2911 2944 2971 2915 2876 2914 2947
8 2946 2912 2945 2972 2916 2877 2915 2948
8 2948 2915 2947 2973 2918 2880 2917 2949
8 2951 2920 2888 2924 2975 2950 2923 2954
8 2952 2921 2889 2925 2976 2951 2924 2955
8 2927 2893 2928 2957 2954 2923 2953 2978
8 2955 2924 2892 2926 2979 2954 2927 2956
8 2929 2895 2930 2959 2956 2927 2957 2980
8 2930 2896 2931 2960 2957 2928 2958 2981
8 2932 2898 2933 2961 2959 2930 2960 2982
8 2951 2920 2950 2975 2963 2935 2962 2984
8 2963 2935 2962 2984 2939 2905 2938 2966
8 2964 2936 2921 2952 2985 2963 2951 2976
8 2964 2936 2963 2985 2940 2906 2939 2967
8 2966 2938 2965 2987 2942 2908 2941 2969
8 2967 2939 2966 2988 2943 2909 2942 2970
8 2969 2941 2968 2989 2945 2911 2944 2971
8 2970 2942 2969 2990 2946 2912 2945 2972
8 2972 2945 2971 2991 2948 2915 2947 2973
8 2954 2923 2953 2978 2975 2950 2974 2993
8 2976 2951 2924 2955 2994 2975 2954 2979
8 2957 2928 2958 2981 2978 2953 2977 2995
8 2956 2927 2957 2980 2979 2954 2978 2996
8 2959 2930 2960 2982 2980 2957 2981 2997
8 2984 2962 2983 2999 2966 2938 2965 2987
8 2975 2950 2974 2993 2984 2962 2983 2999
8 2976 2951 2975 2994 2985 2963 2984 3000
8 2985 2963 2984 3000 2967 2939 2966 2988
8 2987 2965 2986 3001 2969 2941 2968 2989
8 2988 2966 2987 3002 2970 2942 2969 2990
8 2990 2969 2989 3003 2972 2945 2971 2991
8 2978 2953 2977 2995 2993 2974 2992 3004
8 2979 2954 2978 2996 2994 2975 2993 3005
8 2980 2957 2981 2997 2996 2978 2995 3006
8 2974 2993 2999 2983 2992 3004 3007 2998
8 2983 2999 2987 2965 2998 3007 3001 2986
8 3000 2984 2999 3008 2988 2966 2987 3002
8 2994 2975 2993 3005 3000 2984 2999 3008
8 3002 2987 3001 3009 2990 2969 2989 3003
8 2996 2978 2995 3006 3005 2993 3004 3010
8 3005 2993 3004 3010 3008 2999 3007 3011
8 3008 2999 3007 3011 3002 2987 3001 3009

CELL_TYPES 1910
12
12
12
12
12
12
12
12
12
12
12
12
12
12
12
12
12
12
12
12
12
12
12
12
12
12
12
12
12
12
12
12
12
12
12
12
12
12
12
12
12
12
12
12
12
12
12
12
12
12
12
12
12
12
12
12
12
12
12
12
12
12
12
12
12
12
12
12
12
12
12
12
12
12
12
12
12
12
12
12
12
12
12
12
12
12
12
12
12
12
12
12
12
12
12
12
12
12
12
12
12
12
12
12
12
12
12
12
12
12
12
12
12
12
12
12
12
12
12
12
12
12
12
12
12
12
12
12
12
12
12
12
12
12
12
12
12
12
12
12
12
12
12
12
12
12
12
12
12
12
12
12
12
12
12
12
12
12
12
12
12
12
12
12
12
12
12
12
12
12
12
12
12
12
12
12
12
12
12
12
12
12
12
12
12
12
12
12
12
12
12
12
12
12
12
12
12
12
12
12
12
12
12
12
12
12
12
12
12
12
12
12
12
12
12
12
12
12
12
12
12
12
12
12
12
12
12
12
12
12
12
12
12
12
12
12
12
12
12
12
12
12
12
12
12
12
12
12
12
12
12
12
12
12
12
12
12
12
12
12
12
12
12
12
12
12
12
12
12
12
12
12
12
12
12
12
12
12
12
12
12
12
12
12
12
12
12
12
12
12
12
12
12
12
12
12
12
12
12
12
12
12
12
12
12
12
12
12
12
12
12
12
12
12
12
12
12
12
12
12
12
12
12
12
12
12
12
12
12
12
12
12
12
12
12
12
12
12
12
12
12
12
12
12
12
12
12
12
12
12
12
12
12
12
12
12
12
12
12
12
12
12
12
12
12
12
12
12
12
12
12
12
12
12
12
12
12
12
12
12
12
12
12
12
12
12
12
12
12
12
12
12
12
12
12
12
12
12
12
12
12
12
12
12
12
12
12
12
12
12
12
12
12
12
12
12
12
12
12
12
12
12
12
12
12
12
12
12
12
12
12
12
12
12
12
12
12
12
12
12
12
12
12
12
12
12
12
12
12
12
12
12
12
12
12
12
12
12
12
12
12
12
12
12
12
12
12
12
12
12
12
12
12
12
12
12
12
12
12
12
12
12
12
12
12
12
12
12
12
12
12
12
12
12
12
12
12
12
12
12
12
12
12
12
12
12
12
12
12
12
12
12
12
12
12
12
12
12
12
12
12
12
12
12
12
12
12
12
12
12
12
12
12
12
12
12
12
12
12
12
12
12
12
12
12
12
12
12
12
12
12
12
12
12
12
12
12
12
12
12
12
12
12
12
12
12
12
12
12
12
12
12
12
12
12
12
12
12
12
12
12
12
12
12
12
12
12
12
12
12
12
12
12
12
12
12
12
12
12
12
12
12
12
12
12
12
12
12
12
12
12
12
12
12
12
12
12
12
12
12
12
12
12
12
12
12
12
12
12
12
12
12
12
12
12
12
12
12
12
12
12
12
12
12
12
12
12
12
12
12
12
12
12
12
12
12
12
12
12
12
12
12
12
12
12
12
12
12
12
12
12
12
12
12
12
12
12
12
12
12
12
12
12
12
12
12
12
12
12
12
12
12
12
12
12
12
12
12
12
12
12
12
12
12
12
12
12
12
12
12
12
12
12
12
12
12
12
12
12
12
12
12
12
12
12
12
12
12
12
12
12
12
12
12
12
12
12
12
12
12
12
12
12
12
12
12
12
12
12
12
12
12
12
12
12
12
12
12
12
12
12
12
12
12
12
12
12
12
12
12
12
12
12
12
12
12
12
12
12
12
12
12
12
12
12
12
12
12
12
12
12
12
12
12
12
12
12
12
12
12
12
12
12
12
12
12
12
12
12
12
12
12
12
12
12
12
12
12
12
12
12
12
12
12
12
12
12
12
12
12
12
12
12
12
12
12
12
12
12
12
12
12
12
12
12
12
12
12
12
12
12
12
12
12
12
12
12
12
12
12
12
12
12
12
12
12
12
12
12
12
12
12
12
12
12
12
12
12
12
12
12
12
12
12
12
12
12
12
12
12
12
12
12
12
12
12
12
12
12
12
12
12
12
12
12
12
12
12
12
12
12
12
12
12
12
12
12
12
12
12
12
12
12
12
12
12
12
12
12
12
12
12
12
12
12
12
12
12
12
12
12
12
12
12
12
12
12
12
12
12
12
12
12
12
12
12
12
12
12
12
12
12
12
12
12
12
12
12
12
12
12
12
12
12
12
12
12
12
12
12
12
12
12
12
12
12
12
12
12
12
12
12
12
12
12
12
12
12
12
12
12
12
12
12
12
12
12
12
12
12
12
12
12
12
12
12
12
12
12
12
12
12
12
12
12
12
12
12
12
12
12
12
12
12
12
12
12
12
12
12
12
12
12
12
12
12
12
12
12
12
12
12
12
12
12
12
12
12
12
12
12
12
12
12
12
12
12
12
12
12
12
12
12
12
12
12
12
12
12
12
12
12
12
12
12
12
12
12
12
12
12
12
12
12
12
12
12
12
12
12
12
12
12
12
12
12
12
12
12
12
12
12
12
12
12
12
12
12
12
12
12
12
12
12
12
12
12
12
12
12
12
12
12
12
12
12
12
12
12
12
12
12
12
12
12
12
12
12
12
12
12
12
12
12
12
12
12
12
12
12
12
12
12
12
12
12
12
12
12
12
12
12
12
12
12
12
12
12
12
12
12
12
12
12
12
12
12
12
12
12
12
12
12
12
12
12
12
12
12
12
12
12
12
12
12
12
12
12
12
12
12
12
12
12
12
12
12
12
12
12
12
12
12
12
12
12
12
12
12
12
12
12
12
12
12
12
12
12
12
12
12
12
12
12
12
12
12
12
12
12
12
12
12
12
12
12
12
12
12
12
12
12
12
12
12
12
12
12
12
12
12
12
12
12
12
12
12
12
12
12
12
12
12
12
12
12
12
12
12
12
12
12
12
12
12
12
12
12
12
12
12
12
12
12
12
12
12
12
12
12
12
12
12
12
12
12
12
12
12
12
12
12
12
12
12
12
12
12
12
12
12
12
12
12
12
12
12
12
12
12
12
12
12
12
12
12
12
12
12
12
12
12
12
12
12
12
12
12
12
12
12
12
12
12
12
12
12
12
12
12
12
12
12
12
12
12
12
12
12
12
12
12
12
12
12
12
12
12
12
12
12
12
12
12
12
12
12
12
12
12
12
12
12
12
12
12
12
12
12
12
12
12
12
12
12
12
12
12
12
12
12
12
12
12
12
12
12
12
12
12
12
12
12
12
12
12
12
12
12
12
12
12
12
12
12
12
12
12
12
12
12
12
12
12
12
12
12
12
12
12
12
12
12
12
12
12
12
12
12
12
12
12
12
12
12
12
12
12
12
12
12
12
12
12
12
12
12
12
12
12
12
12
12
12
12
12
12
12
12
12
12
12
12
12
12
12
12
12
12
12
12
12
12
12
12
12
12
12
12
12
12
12
12
12
12
12
12
12
12
12
12
12
12
12
12
12
12
12
12
12
12
12
12
12
12
12
12
12
12
12
12
12
12
12
12
12
12
12
12
12
12
12
12
12
12
12
12
12
12
12
12
12
12
12
12
12
12
12
12
12
12
12
12
12
12
12
12
12
12
12
12
12
12
12
12
12
12
12
12
12
12
12
12
12
12
12
12
12
12
12
12
12
12
12
12
12
12
12
12
12
12
12
12
12
12
12
12
12
12
12
12
12
12
12
12
12
12
12
12
12
12
12
12
12
12
12
12
12
12
12
12
12
12
12
12
12
12
12
12
12
12
12
12
12
12
12
12
12
12
12
12
12
12
12
12
12
12
12
12
12
12
12
12
12
12
12
12
12
12
12
12
12
12
12
12
12
12
12
12
12
12
12
12
12
12
12
12
12
12
12
12
12
12
12
12
12
12
12
12
12
12
12
12
12
12
12
12
12
12
12
12
12
12
12
12
12
12
12
12
12
12
12
12
12
12
12
12
12
12
12
12
12
12
12
12
12
12
12
12
12
12
12
12
12
12
12
12
12
12
12
12
12
12
12
12
12
12
12
12
12
12
12
12
12
12
12
12
12
12
12
12
12
12
12
12
12
12
12
12
12
12
12
12
12
12
12
12
12
12
12
12
12
12
12
12
12
12
12
12
12
12
12
12
12
12
12
12
12
12
12
12
12
12
12
12
12
12
12
12
12
12
12
12
12
12
12
12
12
12
12
12
12
12
12
12
12
12
12
12
12
12
12
12
12
12
12
12
12
12
12
12
12
12
12
12
12
12
12
12
12
12
12
12
12
12
12
12
12
12
12
12
12
12
12
12
12
12
12
12
12
12
12
12
12
12
12
12
12
12
12

POINT_DATA 3012
SCALARS Jp_lamdaP float 4
LOOKUP_TABLE default
0.999842 1 1 0.999842
1 1 1 1
0.999847 1 1 0.999847
0.999797 1 1 0.999797
0.999841 1 1 0.999841
0.999835 1 1 0.999835
0.999284 1 1 0.999284
1 1 1 1
1 1 1 1
1 1 1 1
0.999914 1 1 0.999914
0.99944 1 1 0.99944
0.999762 1 1 0.999762
0.99979 1 1 0.99979
0.999846 1 1 0.999846
0.999814 1 1 0.999814
0.99984 1 1 0.99984
0.99985 1 1 0.99985
0.999287 1 1 0.999287
1 1 1 1
0.999777 1 1 0.999777
0.999823 1 1 0.999823
0.999155 1 1 0.999155
0.999254 1 1 0.999254
0.999854 1 1 0.999854
0.999316 1 1 0.999316
0.999315 1.00091 1 0.998406
1 1 1 1
0.99991 1 1 0.99991
0.999923 1 1 0.999923
1 1 1 1
0.999449 1 1 0.999449
0.999814 1 1 0.999814
0.999837 1 1 0.999837
0.999375 1 1 0.999375
1 1 1 1
0.999464 1 1 0.999464
0.999539 1 1 0.999539
0.998443 1 1 0.998443
1 1 1 1
1 1 1 1
0.999893 1 1 0.999893
1 1 1 1
0.999782 1 1 0.999782
0.999083 1 1 0.999083
1 1 1 1
0.99928 1 1 0.99928
0.999828 1 1 0.999828
0.999856 1 1 0.999856
0.999841 1 1 0.999841
0.999293 1 1 0.999293
0.999877 1 1 0.999877
0.999793 1 1 0.999793
0.999864 1 1 0.999864
0.999837 1 1 0.999837
0.999155 1 1 0.999155
0.99932 1 1 0.99932
0.999257 1 1 0.999257
0.999576 1.00119 1 0.998391
1 1 1 1
0.999766 1 1 0.999766
0.999259 1 1 0.999259
0.999119 1 1 0.999119
0.999206 1 1 0.999206
1.00154 1.00344 1 0.998109
1.00008 1.00184 1 0.998241
0.999911 1 1 0.999911
0.99943 1 1 0.99943
0.998726 1.00022 1 0.99851
1.00687 1.00925 1 0.997646
1 1 1 1
1 1 1 1
1 1 1 1
0.999457 1 1 0.999457
1 1 1 1
1 1 1 1
0.999287 1 1 0.999287
0.999979 1 1 0.999979
0.999394 1 1 0.999394
0.999598 1 1 0.999598
0.99844 1 1 0.99844
1 1 1 1
0.999939 1 1 0.999939
0.999226 1 1 0.999226
0.999323 1 1 0.999323
1.00131 1.00329 1 0.99802
0.999751 1 1 0.999751
0.998762 1.00042 1 0.998341
0.998579 1 1 0.998579
0.998548 1.00068 1 0.997872
1 1 1 1
1 1 1 1
1 1 1 1
1 1 1 1
1 1 1 1
0.999888 1 1 0.999888
0.999166 1 1 0.999166
0.999898 1 1 0.999898
0.999231 1 1 0.999231
1 1 1 1
0.999072 1 1 0.999072
0.999254 1 1 0.999254
1.00121 1.00349 1 0.997733
0.999315 1 1 0.999315
1.00269 1.00488 1 0.997816
0.999781 1 1 0.999781
0.999808 1 1 0.999808
0.999873 1 1 0.999873
0.999848 1 1 0.999848
0.999156 1 1 0.999156
0.999261 1 1 0.999261
0.999326 1 1 0.999326
0.999825 1.00145 1 0.998376
1 1 1 1
0.999782 1 1 0.999782
0.999097 1 1 0.999097
0.999117 1 1 0.999117
0.999955 1 1 0.999955
0.999486 1 1 0.999486
0.999208 1 1 0.999208
1.00151 1.00345 1 0.998068
0.99888 1.00039 1 0.998492
1.00029 1.00202 1 0.998271
1.007 1.00937 1 0.99765
0.999094 1 1 0.999094
0.999097 1 1 0.999097
1.00084 1.00294 1 0.997904
1.00157 1.00358 1 0.997993
1.00123 1.00311 1 0.998124
1.01403 1.01662 1 0.99745
1 1 1 1
1.00907 1.01152 1 0.997578
0.999657 1 1 0.999657
0.998541 1 1 0.998541
1.00495 1.00726 1 0.997713
1.01748 1.02012 1 0.997409
0.999845 1 1 0.999845
0.999821 1 1.00071 0.999113
1 1 1 1
1 1 1 1
0.999293 1 1 0.999293
1 1 1 1
0.999593 1 1 0.999593
0.999399 1 1 0.999399
0.998436 1 1 0.998436
1 1 1 1
0.999955 1 1 0.999955
0.999288 1 1 0.999288
0.999382 1 1 0.999382
1.00085 1.00283 1 0.998022
0.999761 1 1 0.999761
0.998588 1.00024 1 0.998345
0.998578 1 1 0.998578
0.998466 1.00061 1 0.997856
0.999861 1 1 0.999861
0.999985 1 1 0.999985
0.999585 1 1.00027 0.99931
1.0024 1.0045 1 0.997909
0.999851 1.00167 1 0.998183
1.0103 1.01289 1 0.997441
0.998804 1 1 0.998804
1.00223 1.00447 1 0.997766
0.998918 1.00039 1.00057 0.997963
1.00245 1.00477 1 0.99769
1 1 1 1
1 1 1 1
1 1 1 1
0.999906 1 1 0.999906
1 1 1 1
1 1 1 1
1 1 1 1
0.999179 1 1 0.999179
0.999109 1 1 0.999109
1 1 1 1
1 1 1 1
0.999073 1 1 0.999073
0.999204 1 1 0.999204
1.00147 1.00374 1 0.997733
0.999207 1 1 0.999207
1.00274 1.00494 1 0.997815
0.999065 1 1 0.999065
1.00055 1.00287 1 0.997685
1.00202 1.00425 1 0.997784
1.0172 1.02 1 0.997258
1.00281 1.00497 1 0.997848
1.01769 1.02042 1 0.997323
1 1 1 1
0.999798 1 1 0.999798
0.998922 1 1 0.998922
0.999116 1 1 0.999116
1 1 1 1
0.999543 1 1 0.999543
0.999211 1 1 0.999211
1.00148 1.00346 1 0.998028
1.00051 1.00221 1 0.9983
0.999024 1.00055 1 0.998473
1.00711 1.00948 1 0.997655
0.999091 1 1 0.999091
0.999095 1 1 0.999095
1.0007 1.0029 1 0.997809
1.00159 1.00358 1 0.998021
1 1 1 1
0.999657 1 1 0.999657
0.99863 1.00004 1 0.998595
1.00119 1.00307 1 0.998123
1.01391 1.01654 1 0.997414
1.00483 1.00714 1 0.997701
1.00933 1.01174 1 0.99761
1.01704 1.01967 1 0.997415
0.999835 1 1 0.999835
0.999901 1 1.00079 0.999114
1.0002 1.0025 1 0.997706
1.0013 1.00335 1 0.997954
1.01516 1.01785 1 0.997355
1.01441 1.01712 1 0.99734
1.01139 1.01388 1 0.997544
1.02538 1.02811 1 0.997344
0.999763 1 1 0.999763
1.01934 1.02199 1 0.997404
0.998807 1 1.0001 0.998707
1.00063 1.0028 1 0.997838
1.01522 1.01782 1 0.997444
1.0203 1.02292 1 0.997436
0.999538 1 1.00058 0.998959
0.99942 1 1.00011 0.99931
1.00068 1 1.00212 0.998554
0.999246 1 1 0.999246
1 1 1 1
0.99997 1 1 0.99997
0.999352 1 1 0.999352
1.00039 1.00237 1 0.998024
0.999769 1 1 0.999769
0.998617 1 1.00004 0.998577
0.998436 1.00009 1 0.998348
0.998416 1.00058 1 0.997839
0.99988 1 1 0.99988
0.99999 1 1 0.99999
0.999679 1 1.00037 0.999313
1.0021 1.0042 1 0.997909
0.99944 1.00125 1 0.998188
1.0102 1.01279 1 0.997439
0.998828 1 1.00002 0.998808
1.00182 1.00405 1 0.997777
0.998895 1.00047 1.00047 0.997958
1.00261 1.00495 1 0.997675
0.999999 1 1 0.999999
0.999241 1 1.00019 0.999047
0.999801 1 1.00024 0.999565
0.999818 1 1.00107 0.998747
1.01377 1.01645 1 0.997359
1.00661 1.00902 1 0.997608
1.01975 1.02255 1 0.997258
0.998752 1.00007 1.00045 0.998225
1.00793 1.01037 1 0.997588
1.00419 1.00498 1.00158 0.997643
1.01106 1.01355 1 0.997543
0.999846 1 1 0.999846
1 1 1 1
1 1 1 1
1 1 1 1
1 1 1 1
0.999951 1 1 0.999951
1 1 1 1
0.999894 1 1 0.999894
1 1 1 1
0.999208 1 1 0.999208
0.999148 1 1 0.999148
1.00288 1.00508 1 0.997815
1.0017 1.00398 1 0.997733
0.999075 1 1 0.999075
1 1 1 1
0.999064 1 1 0.999064
1.00071 1.00303 1 0.997685
1.00225 1.00448 1 0.997784
1.01693 1.01973 1 0.997257
1.00277 1.00493 1 0.997847
1.01766 1.0204 1 0.997321
1.00014 1.00247 1 0.997678
1.01626 1.0191 1 0.997214
1.01778 1.02054 1 0.997298
1.03082 1.0336 1 0.997305
1.01674 1.01946 1 0.997334
1.02954 1.03231 1 0.997312
0.999088 1 1 0.999088
0.999093 1 1 0.999093
1.00057 1.00286 1 0.997714
1.00162 1.00358 1 0.99805
1 1 1 1
0.999657 1 1 0.999657
0.998734 1.00009 1 0.998648
1.00115 1.00303 1 0.998122
1.0138 1.01647 1 0.997377
1.00956 1.01194 1 0.997641
1.00468 1.00701 1 0.99769
1.01669 1.01932 1 0.997422
0.999825 1 1 0.999825
0.999909 1 1.00079 0.999116
1.00016 1.00249 1 0.997681
1.00126 1.00331 1 0.997951
1.01537 1.01806 1 0.997354
1.01455 1.01722 1 0.997376
0.999753 1 1 0.999753
0.998731 1 1.00003 0.998704
1.00128 1.00341 1 0.997872
1.01162 1.01411 1 0.99754
1.02566 1.02838 1 0.997357
1.01455 1.01718 1 0.997411
1.01921 1.02186 1 0.997408
1.02068 1.0233 1 0.997436
0.999363 1 1.0004 0.998961
1.00061 1 1.00206 0.998556
0.99968 1 1.00037 0.999307
1.01527 1.01802 1 0.997301
1.01553 1.01819 1 0.997381
1.02929 1.03208 1 0.99729
1.02731 1.03008 1 0.997306
1.02136 1.02403 1 0.997396
1.0267 1.02925 1 0.997518
0.9989 1 1.00005 0.998853
1.02233 1.02491 1 0.997481
0.998681 1.00053 1 0.998153
1.00669 1.00928 1 0.997434
1.01791 1.02068 1 0.997289
1.01901 1.02146 1 0.997597
0.999481 1 1 0.999481
0.998735 1 1.00022 0.998519
1.00122 1 1.00258 0.998649
0.999658 1 1.00128 0.998377
1.00183 1.00393 1 0.997908
0.999995 1 1 0.999995
0.9999 1 1 0.9999
0.999663 1 1.00035 0.999315
0.998998 1.00081 1 0.998192
1.01008 1.01268 1 0.997436
0.998828 1 1.00002 0.998811
0.998784 1.0005 1.00033 0.997954
1.00138 1.0036 1 0.997787
1.00258 1.00493 1 0.99766
0.999999 1 1 0.999999
0.999265 1 1.00022 0.999047
0.999674 1 1.0001 0.999572
1.00009 1 1.00135 0.998742
1.01361 1.0163 1 0.997355
1.00591 1.00832 1 0.997609
1.0197 1.0225 1 0.997256
0.998703 1.00002 1.00045 0.998231
1.00807 1.0105 1 0.997601
1.00396 1.00461 1.00173 0.997632
1.01117 1.0136 1 0.99761
1 1 1 1
0.999722 1 1 0.999722
0.998934 1 1.00042 0.998515
0.9998 1 1.00081 0.998994
0.999817 1 1.00135 0.998464
1.02308 1.02591 1 0.99724
1.01406 1.0167 1 0.997403
1.0189 1.02168 1 0.997285
1.00158 1.00173 1.00199 0.997858
1.011 1.01351 1 0.997522
1.00764 1.00944 1.00086 0.99736
0.999827 1 1 0.999827
0.999441 1 1 0.999441
0.999859 1 1 0.999859
0.999848 1 1 0.999848
1 1 1 1
1 1 1 1
1 1 1 1
1 1 1 1
1 1 1 1
0.999983 1 1 0.999983
1 1 1 1
0.99994 1 1 0.99994
1 1 1 1
0.999883 1 1 0.999883
1 1 1 1
1.00269 1.00485 1 0.997845
1.00243 1.00466 1 0.997783
1.01748 1.02021 1 0.99732
1.01665 1.01945 1 0.997255
1.00092 1.00324 1 0.997685
0.999063 1 1 0.999063
1.00026 1.00259 1 0.997677
1.01619 1.01903 1 0.997214
1.01742 1.02018 1 0.997297
1.03106 1.03383 1 0.997319
1.01632 1.01904 1 0.997332
1.02905 1.03183 1 0.997311
1.01574 1.01859 1 0.997204
1.03017 1.03296 0.999996 0.997303
1.03095 1.03373 1 0.997315
1.03398 1.03689 0.999712 0.997483
1.02571 1.02851 1 0.997282
1.03006 1.03259 1 0.997554
1.00015 1.0025 1 0.997655
1.00123 1.00329 1 0.997948
1.01558 1.01828 1 0.997353
1.01469 1.01732 1 0.997411
0.999742 1 1 0.999742
0.998702 1 1 0.998702
1.00191 1.00401 1 0.997907
1.01188 1.01438 1 0.997536
1.02597 1.02867 1 0.997371
1.01909 1.02174 1 0.997411
1.01378 1.01645 1 0.997378
1.02102 1.02365 1 0.997435
0.999246 1 1.00028 0.998964
1.00055 1 1.002 0.998558
0.999906 1 1.0006 0.999304
1.0154 1.01819 1 0.997266
1.01564 1.01831 1 0.997379
1.02888 1.03166 1 0.997308
1.02755 1.03033 1 0.997306
0.998902 1 1.00005 0.998852
0.99925 1.00111 1 0.998146
1.00604 1.00854 1.00003 0.997485
1.02153 1.0242 1 0.997392
1.02628 1.0288 1 0.997556
1.01796 1.02076 1 0.997257
1.02234 1.02492 1 0.997484
1.01869 1.02112 1 0.997622
0.998854 1 1.00033 0.998522
0.999645 1 1.00129 0.998359
0.999476 1 1 0.999476
1.00113 1 1.00245 0.998676
1.02924 1.03206 1 0.997263
1.02952 1.03228 1 0.997321
1.03101 1.03383 0.999867 0.997404
1.02864 1.03147 0.999715 0.997547
1.02398 1.0265 1 0.997541
1.02519 1.02754 1 0.997713
0.998401 1 1 0.998401
1.01931 1.02161 1 0.997746
0.99948 1.00171 1 0.997772
1.01032 1.01298 1.00018 0.997197
1.01927 1.0221 1 0.997228
1.01801 1.0204 1 0.99766
0.9996 1 1 0.9996
0.99944 1 1.0006 0.998842
0.998333 1 1 0.998333
1.0013 1 1.00288 0.998425
0.999054 1 1.00072 0.998333
1 1 1 1
1.0134 1.01609 1 0.997352
0.99958 1 1 0.99958
0.999351 1 1.0003 0.999048
1.00042 1 1.00168 0.998737
1.00526 1.00767 1 0.997609
1.01971 1.02252 1 0.997254
0.998741 1 1.00051 0.998236
1.00407 1.00453 1.00193 0.997621
1.00831 1.01072 1 0.997614
1.0115 1.01385 1 0.997676
1 1 1 1
0.999729 1 1 0.999729
0.99894 1 1.00042 0.998517
0.999961 1 1.00097 0.998994
1.00017 1 1.00173 0.998443
1.02332 1.02616 1 0.997235
1.01439 1.01703 1 0.997402
1.01882 1.0216 1 0.997275
1.00117 1.00118 1.00213 0.997863
1.01351 1.01602 1 0.997531
1.00694 1.00862 1.00096 0.997379
0.999793 1 1 0.999793
0.999228 1 1.00001 0.999216
0.99868 1 1.00048 0.998203
1.00103 1 1.00237 0.998654
0.999704 1 1.00137 0.998333
1.02285 1.02559 1 0.997332
1.01457 1.01724 1 0.997379
1.01682 1.01941 1 0.997456
1.00164 1.00023 1.00379 0.997635
1.00687 1.00965 1 0.997246
0.99983 1 1 0.99983
0.999374 1 1 0.999374
0.99942 1 1 0.99942
0.999205 1 1 0.999205
0.99945 1 1 0.99945
0.999863 1 1 0.999863
0.99986 1 1 0.99986
1 1 1 1
0.99985 1 1 0.99985
1 1 1 1
1 1 1 1
1 1 1 1
1 1 1 1
1 1 1 1
0.999997 1 1 0.999997
0.999974 1 1 0.999974
1 1 1 1
1 1 1 1
0.999929 1 1 0.999929
1 1 1 1
1.01599 1.01871 1 0.997329
1.01723 1.01999 1 0.997296
1.02869 1.03146 1 0.997309
1.03138 1.03415 0.999993 0.997332
1.01606 1.0189 1 0.997214
1.00032 1.00265 1 0.997677
1.01558 1.01843 1 0.997205
1.03016 1.03296 0.999989 0.997296
1.03095 1.03372 1 0.997315
1.03324 1.03635 0.999486 0.997512
1.02625 1.02905 1 0.997276
1.03008 1.03272 0.999876 0.997573
1.0293 1.03212 1 0.99727
1.03211 1.03569 0.999099 0.997448
1.03244 1.03521 0.999755 0.997572
1.03184 1.03605 0.998301 0.997636
1.02699 1.0296 1 0.997464
1.02999 1.03279 0.99953 0.997757
1.01548 1.0183 1 0.997231
1.01574 1.01841 1 0.997377
1.02844 1.0312 1 0.997325
1.02777 1.03055 1 0.997307
0.998903 1 1.00005 0.99885
0.99987 1.00173 1 0.99814
1.00557 1.00787 1.00018 0.997536
1.0217 1.02438 1 0.997388
1.02579 1.02827 1 0.997593
1.02236 1.02494 1 0.997488
1.01807 1.0209 1 0.997224
1.01826 1.02066 1 0.997648
0.99898 1 1.00046 0.998524
0.999604 1 1.00127 0.99834
0.999471 1 1 0.999471
1.00081 1 1.00211 0.998703
1.02908 1.0319 1 0.997264
1.02902 1.03181 1 0.997304
1.03087 1.03368 0.999854 0.997429
1.02861 1.03128 0.999876 0.99753
0.998395 1 1 0.998395
0.99973 1.00189 1.00003 0.997818
1.0105 1.01296 1.00039 0.997189
1.02364 1.0262 1 0.997509
1.02493 1.02725 0.999971 0.997766
1.01838 1.02122 1 0.997215
1.01972 1.02202 1 0.997748
1.01921 1.02155 1 0.997705
0.99833 1 1 0.99833
0.998705 1 1.00037 0.998338
1.00197 1 1.00356 0.998418
0.999565 1 1 0.999565
0.999429 1 1.00056 0.998867
1.03111 1.03499 0.998814 0.997432
1.03163 1.03468 0.99957 0.99748
1.02613 1.02984 0.99865 0.997749
1.02218 1.0246 0.999856 0.997786
0.998277 1.00011 1 0.998163
1.02282 1.02496 1 0.997908
0.999682 1.00186 1.00029 0.997535
1.01017 1.01273 1.00051 0.996966
1.01722 1.02008 1 0.9972
0.999645 1 1 0.999645
0.999147 1 1.00006 0.999085
1.0002 1 1.00158 0.998616
0.998289 1 1 0.998289
1.00223 1 1.00399 0.998239
0.998269 1 1 0.998269
1 1 1 1
0.999736 1 1 0.999736
1.02359 1.02643 1 0.997229
1.00017 1 1.00118 0.998994
0.998861 1 1.00034 0.998519
1.00068 1 1.00226 0.998421
1.01455 1.01719 1 0.997401
1.01857 1.02136 1 0.997265
1.00068 1.00053 1.00229 0.997868
1.00573 1.00757 1.00077 0.997398
1.01582 1.01833 1 0.997541
0.999798 1 1 0.999798
0.999244 1 1.00002 0.99922
0.998621 1 1.00041 0.998208
1.00151 1 1.00287 0.998651
0.999808 1 1.00148 0.998327
1.02278 1.02552 1 0.997326
1.01503 1.0177 1 0.997369
1.01662 1.01919 1 0.997481
1.0014 1.00056 1.00324 0.997603
1.00575 1.0085 1.00006 0.997217
0.999349 1 1 0.999349
1.00027 1 1.00144 0.998828
1.00025 1.00021 1.002 0.99805
1.00159 1 1.0032 0.998389
0.999215 1 1.001 0.998222
1.02328 1.02559 1 0.997741
1.01275 1.01551 1 0.997289
1.01346 1.01599 1 0.997506
1.00357 1.00181 1.00433 0.997436
1.00097 1.00396 1 0.997023
0.999833 1 1 0.999833
0.999391 1 1 0.999391
0.999118 1 1 0.999118
0.999398 1 1 0.999398
0.99945 1 1 0.99945
0.999174 1 1 0.999174
0.99903 1 1 0.99903
0.999144 1 1 0.999144
0.999454 1 1 0.999454
0.99986 1 1 0.99986
0.999863 1 1 0.999863
1 1 1 1
0.999861 1 1 0.999861
1 1 1 1
1 1 1 1
1 1 1 1
1 1 1 1
1 1 1 1
1 1 1 1
0.999994 1 1 0.999994
1 1 1 1
0.999966 1 1 0.999966
1 1 1 1
1 1 1 1
1.02673 1.02954 1 0.997271
1.03078 1.03355 1 0.997314
1.03008 1.03284 0.999738 0.997592
1.03243 1.03575 0.999247 0.997541
1.03018 1.03298 1 0.99729
1.01551 1.01835 1 0.997206
1.02959 1.03242 0.999999 0.997253
1.03234 1.03572 0.999295 0.99744
1.03227 1.03495 0.999863 0.997551
1.03127 1.03577 0.997999 0.99765
1.02635 1.02896 1 0.997464
1.02911 1.03202 0.99938 0.997798
1.03171 1.03498 0.999429 0.997416
1.03177 1.03751 0.996835 0.997628
1.03091 1.03551 0.997798 0.997753
1.02717 1.02994 0.999466 0.997849
1.02895 1.03178 1 0.997264
1.02855 1.03134 1 0.997287
1.03075 1.03354 0.999845 0.997453
1.02862 1.03119 1 0.997513
0.998389 1 1 0.998389
0.99968 1.00182 1 0.997864
1.01062 1.01289 1.00058 0.997181
1.02324 1.02583 1 0.997476
1.02472 1.02701 0.99995 0.997819
1.02023 1.02253 1 0.99775
1.01762 1.02047 1 0.997202
1.02043 1.02273 1 0.99775
0.998328 1 1 0.998328
0.998342 1 1 0.998342
1.00326 1 1.00486 0.998412
0.999531 1 1 0.999531
0.9995 1 1.00061 0.998893
1.03164 1.03514 0.99918 0.997435
1.03177 1.03483 0.999559 0.997481
1.02606 1.02945 0.998965 0.997738
0.998606 1.00045 1 0.998156
1.00088 1.00305 1.00026 0.997579
1.0099 1.01221 1.00076 0.996956
1.02284 1.02526 0.999864 0.997775
1.01712 1.0199 1 0.997277
1.02113 1.02338 0.999914 0.997886
0.999659 1 1 0.999659
0.9984 1.00012 1 0.99828
0.998348 1 1 0.998348
1.0021 1 1.00389 0.998224
1.00015 1 1.00152 0.998628
0.999108 1 1.00005 0.999058
1.03136 1.03684 0.997197 0.997517
1.02937 1.03606 0.995873 0.997662
1.02245 1.02805 0.99671 0.997836
1.02673 1.03012 0.998733 0.99798
0.998941 1.00094 1 0.998006
1.01784 1.02031 1 0.997575
1.00245 1.0037 1.00165 0.997111
1.00616 1.00832 1.00104 0.996818
0.999766 1 1 0.999766
0.999245 1 1 0.999245
0.99889 1 1.0001 0.998792
1.00238 1 1.00407 0.998322
0.998183 1 1 0.998183
1.00071 1 1.0026 0.998111
0.999802 1 1 0.999802
0.999223 1 1 0.999223
1.02288 1.02563 1 0.99732
1.00162 1 1.00298 0.998647
0.998482 1 1.00027 0.998212
0.9998 1 1.00148 0.998322
1.01577 1.01846 1 0.997359
1.01665 1.01919 1 0.997506
1.00132 1.00102 1.00273 0.99757
1.0047 1.00727 1.00027 0.997188
0.999352 1 1 0.999352
0.999989 1 1.00116 0.998835
1.00016 1.00011 1.00198 0.998065
1.00178 1 1.0034 0.998394
0.998767 1 1.00048 0.998292
1.02368 1.026 0.999967 0.997776
1.0121 1.01485 1 0.997294
1.01488 1.01734 1 0.99758
1.00298 1.001 1.00458 0.997401
1.00163 1.00464 1.00003 0.996975
0.999043 1 1 0.999043
1.00102 1 1.00253 0.998498
1.00206 1.00039 1.00378 0.9979
0.999653 1 1.00155 0.998102
1.02627 1.03462 0.99393 0.997993
1.01823 1.02055 0.999872 0.99785
1.00711 1.01005 1 0.997088
1.00339 1.0021 1.00426 0.997041
0.999409 1 1 0.999409
0.999131 1 1 0.999131
0.998992 1 1 0.998992
0.99945 1 1 0.99945
0.999143 1 1 0.999143
0.999453 1 1 0.999453
0.999014 1 1 0.999014
0.999157 1 1 0.999157
0.998925 1 1 0.998925
0.998975 1 1 0.998975
0.999126 1 1 0.999126
0.999441 1 1 0.999441
0.999852 1 1 0.999852
0.999859 1 1 0.999859
1 1 1 1
0.999863 1 1 0.999863
1 1 1 1
1 1 1 1
1 1 1 1
1 1 1 1
1 1 1 1
1 1 1 1
1 1 1 1
1 1 1 1
0.999991 1 1 0.999991
1 1 1 1
1 1 1 1
1.02561 1.02822 1 0.997464
1.03219 1.03476 0.999985 0.997531
1.02826 1.03127 0.999246 0.997839
1.03072 1.0355 0.997717 0.997664
1.03254 1.03573 0.999487 0.997432
1.02986 1.03272 1 0.997236
1.03132 1.03492 0.999108 0.997419
1.03122 1.03677 0.997018 0.997619
1.03048 1.03515 0.997725 0.997752
1.02877 1.03146 0.999544 0.997853
1.03137 1.03719 0.99681 0.997569
1.03147 1.03993 0.994055 0.997796
1.0318 1.03757 0.99654 0.99789
1.03215 1.03528 0.999539 0.997437
1.0319 1.03495 0.999575 0.997482
1.02597 1.02899 0.999334 0.997727
0.999084 1.00094 1 0.998149
1.00211 1.00432 1.00018 0.997622
1.00932 1.01156 1.00085 0.996945
1.02345 1.02589 0.999861 0.997764
1.0195 1.02183 0.999848 0.997863
1.01722 1.01992 1 0.997354
0.998586 1.00031 1 0.998272
0.998426 1 1 0.998426
1.00188 1 1.00368 0.998209
0.999673 1 1 0.999673
0.999609 1 1.00097 0.99864
0.999055 1 1.00002 0.999031
1.03214 1.03715 0.99764 0.997524
1.02966 1.03626 0.995959 0.997671
1.02275 1.0278 0.997253 0.997828
0.999346 1.00135 1 0.997995
1.00198 1.00339 1.0014 0.997197
1.00554 1.0078 1.0009 0.996861
1.02668 1.02979 0.998994 0.997988
1.01829 1.02086 0.999924 0.997562
0.999807 1 1 0.999807
0.999244 1 1 0.999244
0.998234 1.00002 1 0.998215
1.00173 1 1.00354 0.998193
1.00231 1 1.00397 0.998344
0.998847 1 1.00008 0.998769
1.03067 1.03873 0.994515 0.997714
1.02207 1.03321 0.991398 0.997801
1.0227 1.02927 0.995582 0.998026
1.02014 1.02413 0.998087 0.998013
0.999968 1.00135 1.00088 0.997742
1.00529 1.00693 1.0014 0.996971
1.00308 1.00354 1.00264 0.996915
0.999902 1 1 0.999902
0.999531 1 1 0.999531
0.999331 1 1 0.999331
0.998893 1 1 0.998893
0.999735 1 1.00122 0.998514
1.0024 1 1.00419 0.998216
0.998247 1 1 0.998247
1.01526 1 1.01694 0.998348
0.999354 1 1 0.999354
0.999923 1 1.00108 0.998842
1.02399 1.0263 0.999933 0.99781
1.00231 1 1.00392 0.998399
1.00023 1 1.00215 0.998081
0.998398 1 1.00004 0.998362
1.01118 1.01392 1 0.9973
1.0161 1.01849 1 0.997654
1.0026 1.00042 1.00482 0.997367
1.00243 1.00552 1 0.996926
0.999024 1 1 0.999024
1.00122 1 1.00272 0.998512
1.00231 1.00024 1.00415 0.997925
0.999491 1 1.00136 0.998132
1.02766 1.03553 0.994379 0.998007
1.01804 1.02032 0.999949 0.997812
1.00815 1.01106 1 0.997128
1.00352 1.00276 1.00377 0.996998
0.999172 1 1.00034 0.998835
1.02494 1.03738 0.98998 0.998006
1.00109 1 1.00284 0.998249
1.00119 1.00087 1.00268 0.997655
1.02517 1.02896 0.998222 0.998095
1.00839 1.01121 1 0.997219
1.00478 1.0047 1.00323 0.996853
0.999144 1 1 0.999144
0.998988 1 1 0.998988
0.998895 1 1 0.998895
0.999453 1 1 0.999453
0.99917 1 1 0.99917
0.998998 1 1 0.998998
0.999439 1 1 0.999439
0.999129 1 1 0.999129
0.998912 1 1 0.998912
0.998997 1 1 0.998997
0.998855 1 1 0.998855
0.998877 1 1 0.998877
0.998957 1 1 0.998957
0.999109 1 1 0.999109
0.99941 1 1 0.99941
0.999841 1 1 0.999841
0.999851 1 1 0.999851
1 1 1 1
0.999858 1 1 0.999858
1 1 1 1
1 1 1 1
1 1 1 1
1 1 1 1
1 1 1 1
0.999929 1 1 0.999929
1 1 1 1
1 1 1 1
1 1 1 1
1 1 1 1
1 1 1 1
1 1 1 1
1.03043 1.03302 0.999634 0.997858
1.03001 1.03475 0.997663 0.997752
1.03065 1.03603 0.99719 0.99761
1.03094 1.03485 0.998792 0.997422
1.03092 1.0371 0.996446 0.997589
1.03166 1.03983 0.994343 0.997785
1.03124 1.03728 0.996264 0.997902
1.0314 1.04047 0.993501 0.99777
1.03526 1.04475 0.992995 0.997908
1.02025 1.03577 0.986862 0.998129
1.03295 1.0375 0.998083 0.997531
1.02996 1.03654 0.995969 0.997679
1.02297 1.02757 0.997699 0.997821
0.999715 1.00168 1.00006 0.997983
1.00145 1.00292 1.00126 0.997284
1.00509 1.00743 1.00078 0.996905
1.0268 1.02962 0.999269 0.997997
1.01831 1.02099 0.999829 0.997549
0.998248 1 1 0.998248
1.00272 1.00002 1.00443 0.998273
1.00281 1 1.00446 0.998365
0.999848 1 1 0.999848
0.999244 1 1 0.999244
0.998992 1 1.00025 0.998746
1.03057 1.039 0.994143 0.997726
0.999897 1 1 0.999897
0.999508 1 1 0.999508
1.02167 1.03238 0.991808 0.997801
1.02307 1.02987 0.995385 0.997994
0.999416 1.00075 1.00084 0.997828
1.00337 1.00319 1.0033 0.996892
1.00582 1.00803 1.00084 0.996972
1.01902 1.02311 0.998007 0.997996
0.999393 1 1 0.999393
0.998889 1 1 0.998889
0.998184 1.00001 1 0.998174
1.01125 1 1.01281 0.998461
1.00212 1 1.00392 0.998212
1.00014 1 1.00161 0.998528
1.0347 1.04408 0.993137 0.997868
1.01128 1.03079 0.983092 0.997939
1.01905 1.02738 0.993673 0.998203
1.00505 1.00981 0.997565 0.997718
1.00061 1.00043 1.00234 0.997838
1.00407 1.00183 1.00547 0.99678
0.999518 1 1 0.999518
0.999478 1 1 0.999478
0.999245 1 1 0.999245
0.998935 1 1 0.998935
0.998875 1 1.00019 0.998687
1.00012 1 1.00185 0.998273
1.02215 1 1.02401 0.998186
1.00082 1 1.00233 0.998492
0.999004 1 1 0.999004
1.00108 1 1.00256 0.998526
1.02872 1.03602 0.994914 0.998021
1.01803 1.0203 1 0.997774
0.999263 1 1.0011 0.998162
1.00235 1 1.00441 0.99795
1.00947 1.0123 1.00004 0.997167
1.0035 1.0032 1.00335 0.996954
0.999217 1 1.00039 0.998826
1.02616 1.03933 0.989264 0.998038
1.00093 1 1.00267 0.998267
1.00079 1.00049 1.00269 0.997621
1.02392 1.02814 0.997821 0.998068
1.00863 1.01138 1 0.997274
1.00474 1.0044 1.00348 0.996867
1.00029 1 1.00175 0.998547
1.01759 1.03073 0.988833 0.998399
1.00054 1.00069 1.00182 0.998036
1.00246 1.00134 1.00379 0.997336
1.01193 1.01747 0.996816 0.997733
1.00237 1.00317 1.00221 0.997001
1.00196 1.00703 0.996568 0.998388
0.998984 1 1 0.998984
0.998987 1 1.00009 0.998893
0.998879 1 1.0001 0.998776
0.999437 1 1 0.999437
0.999132 1 1 0.999132
0.999019 1 1 0.999019
0.998898 1 1 0.998898
0.99941 1 1 0.99941
0.999098 1 1 0.999098
0.998835 1 1 0.998835
0.998957 1 1 0.998957
0.998888 1 1 0.998888
0.998817 1 1 0.998817
0.998826 1 1 0.998826
0.998945 1 1 0.998945
0.999034 1 1 0.999034
0.999335 1 1 0.999335
0.999162 1 1 0.999162
0.999327 1 1 0.999327
0.999833 1 1 0.999833
0.99984 1 1 0.99984
1 1 1 1
0.999849 1 1 0.999849
1 1 1 1
1 1 1 1
1 1 1 1
1 1 1 1
1 1 1 1
0.999946 1 1 0.999946
0.999926 1 1 0.999926
1 1 1 1
1 1 1 1
1 1 1 1
1 1 1 1
1 1 1 1
1 1 1 1
1.03075 1.03713 0.995927 0.997913
1.03183 1.03975 0.994599 0.997774
1.03047 1.03701 0.996079 0.997608
1.03128 1.04031 0.99353 0.997768
1.03362 1.04302 0.993063 0.997905
1.02093 1.03542 0.987886 0.998093
1.03413 1.04594 0.990714 0.997971
0.992033 1.01596 0.97895 0.997446
1.00896 1.02824 0.982581 0.998649
0.999601 1 1 0.999601
1.03042 1.0392 0.993798 0.997739
1.02166 1.03164 0.992509 0.997801
1.02356 1.03047 0.995326 0.997962
0.999072 1.00034 1.00082 0.997914
1.00362 1.00275 1.00402 0.99687
1.00655 1.00915 1.00045 0.996972
1.01779 1.02194 0.99796 0.997978
0.998103 1 1 0.998103
1.00715 1 1.00859 0.998576
1.00162 1 1.00342 0.998208
0.999893 1 1 0.999893
1.00032 1 1.00178 0.998543
0.999455 1 1 0.999455
0.998885 1 1 0.998885
0.999486 1 1 0.999486
1.0333 1.04449 0.991396 0.997876
0.999549 1 1 0.999549
0.999477 1 1 0.999477
0.999205 1 1 0.999205
1.01274 1.03031 0.984971 0.997941
1.019 1.02744 0.99362 0.998156
0.99998 1.00033 1.0018 0.997858
1.00409 1.00171 1.00556 0.996836
1.00417 1.00834 0.998151 0.997712
0.998971 1 1 0.998971
0.998979 1 1.00032 0.998657
1.00404 1 1.00563 0.998417
1.01801 1 1.01983 0.998224
0.999881 1 1.00158 0.9983
1.02325 1.03723 0.988544 0.997958
1.01066 1.03293 0.980339 0.998059
1.01161 1.01765 0.996143 0.997909
1.00063 1.00397 0.999141 0.997523
1.00318 1 1.00515 0.998034
0.999172 1 1 0.999172
0.999072 1 1 0.999072
0.998955 1 1 0.998955
0.998967 1 1.00024 0.998726
0.999698 1 1.00121 0.998489
1.01598 1 1.01779 0.998222
1.01735 1 1.01922 0.998169
0.999256 1 1.00044 0.998817
1.00077 1 1.00249 0.998284
1.02701 1.04164 0.987855 0.99807
1.02254 1.02739 0.99723 0.998041
1.00836 1.01106 1 0.997328
1.00042 1.00016 1.00268 0.997588
1.00445 1.00398 1.0036 0.996881
1.00023 1 1.00165 0.998586
1.01537 1.03029 0.987082 0.998414
0.999742 1.00034 1.00134 0.998063
1.00216 1.00075 1.00408 0.997346
1.01283 1.01801 0.997085 0.997819
1.00225 1.00258 1.00269 0.996987
1.00083 1.00709 0.995959 0.997817
1.00024 1 1.00183 0.998414
1.00638 1.01856 0.989624 0.998396
1.0001 1.00011 1.00194 0.998048
1.00419 1.00046 1.00636 0.997379
0.999231 1.0058 0.99597 0.997493
0.949919 0.981706 0.982597 0.984758
0.966176 0.984631 0.988649 0.992523
0.984131 0.997025 0.988624 0.998425
0.837543 0.891497 0.960056 0.978566
0.789246 0.88429 0.916189 0.974165
0.998965 1 1.00008 0.99889
0.999115 1 1.00032 0.998796
0.998796 1 1 0.998796
0.999409 1 1 0.999409
0.999088 1 1 0.999088
0.998956 1 1 0.998956
0.998899 1 1 0.998899
0.998815 1 1 0.998815
0.998923 1 1 0.998923
0.99936 1 1 0.99936
0.999048 1 1 0.999048
0.998814 1 1 0.998814
0.998834 1 1 0.998834
0.998841 1 1 0.998841
0.998978 1 1.00015 0.998826
0.998862 1 1 0.998862
0.999005 1 1 0.999005
0.999319 1 1 0.999319
0.999073 1 1 0.999073
0.998995 1 1 0.998995
0.999147 1 1 0.999147
0.999131 1 1 0.999131
0.9994 1 1 0.9994
0.999325 1 1 0.999325
0.999828 1 1 0.999828
0.999832 1 1 0.999832
1 1 1 1
0.999839 1 1 0.999839
1 1 1 1
1 1 1 1
1 1 1 1
1 1 1 1
1 1 1 1
0.999956 1 1 0.999956
0.999943 1 1 0.999943
1 1 1 1
0.999924 1 1 0.999924
1 1 1 1
1 1 1 1
1 1 1 1
1 1 1 1
1 1 1 1
1.03188 1.04121 0.993124 0.997902
1.03117 1.04017 0.993565 0.997766
1.02183 1.03504 0.989159 0.998058
0.995494 1.01577 0.982497 0.997496
1.03199 1.04391 0.990596 0.997969
1.01515 1.03056 0.986471 0.998557
1.02871 1.03601 0.994905 0.998039
0.955839 0.984288 0.979229 0.991696
1.00288 1.01935 0.985861 0.997953
0.999607 1 1 0.999607
0.9996 1 1 0.9996
0.999265 1 1 0.999265
0.999296 1 1 0.999296
1.03174 1.04477 0.989615 0.997884
1.01329 1.02935 0.98643 0.997943
1.01878 1.02736 0.993522 0.99811
0.998815 1.00017 1.00077 0.997879
1.00391 1.00168 1.00536 0.996891
1.00338 1.00723 0.998461 0.997706
1.00713 1 1.00881 0.99834
1.01391 1 1.01568 0.998262
0.999603 1 1.00128 0.998328
0.999475 1 1 0.999475
0.998958 1 1.00033 0.998627
0.999007 1 1 0.999007
0.99958 1 1 0.99958
0.999165 1 1 0.999165
1.0212 1.03664 0.987108 0.997972
0.999216 1 1 0.999216
0.999108 1 1 0.999108
0.998997 1 1 0.998997
1.01326 1.03504 0.98086 0.998061
1.01019 1.01676 0.995623 0.997907
1.00271 1 1.0047 0.998021
1.00127 1.00435 0.999391 0.997548
0.999024 1 1.00031 0.998717
0.999303 1 1.00085 0.998455
1.01877 1 1.02065 0.998164
1.01679 1 1.01863 0.998193
1.00737 1.03245 0.977599 0.998063
1.00381 1.02585 0.98046 0.99802
1.00473 1.0079 0.999236 0.997613
0.996584 1.00034 0.998055 0.998192
0.998851 1 1 0.998851
0.999181 1 1.00038 0.998802
1.00528 1 1.00675 0.998534
1.03016 1 1.03218 0.998041
0.929062 0.972211 0.971433 0.98372
1.00044 1 1.00182 0.998625
0.999181 1 1.00109 0.998089
1.0136 1.02966 0.985947 0.998429
1.01406 1.01884 0.997395 0.997905
1.00263 1.00237 1.0033 0.996972
1.00194 1.00012 1.00447 0.997355
1.00008 1.00698 0.995895 0.997234
1.00024 1 1.0018 0.998448
1.0068 1.01917 0.989461 0.998384
0.999587 1.00009 1.00144 0.99806
1.00383 1.00035 1.00611 0.997378
1.00093 1.00676 0.99669 0.997516
0.948755 0.985038 0.978944 0.983883
0.961542 0.982112 0.988361 0.990585
0.984555 0.994961 0.99108 0.998448
0.839733 0.89018 0.963915 0.978643
0.773531 0.873072 0.911545 0.971963
0.999567 1 1.00095 0.998621
0.863631 0.91235 0.966525 0.979385
0.832515 0.889688 0.959191 0.975549
0.98552 1.00713 0.980238 0.998271
1.00509 1.00033 1.00657 0.998208
1.01127 1.0034 1.01019 0.997677
0.977257 0.990378 0.988151 0.998584
0.94531 0.971515 0.989152 0.983698
0.946585 0.962469 0.993694 0.989737
0.815658 0.891552 0.934355 0.979151
0.84648 0.926604 0.936085 0.975903
0.999497 1 1.00068 0.998816
0.999141 1 1.00036 0.998785
0.999736 1 1.00072 0.99902
0.999385 1 1 0.999385
0.999063 1 1 0.999063
0.998902 1 1 0.998902
0.998842 1 1 0.998842
0.998812 1 1 0.998812
0.99932 1 1 0.99932
0.998835 1 1 0.998835
0.99888 1 1 0.99888
0.99903 1 1 0.99903
0.99904 1 1.00021 0.998827
0.998975 1 1.00016 0.998816
0.999637 1 1.00078 0.998856
0.998842 1 1 0.998842
0.999034 1 1 0.999034
0.99907 1 1 0.99907
0.998984 1 1 0.998984
0.99891 1 1 0.99891
0.998983 1 1 0.998983
0.998933 1 1 0.998933
0.998831 1 1 0.998831
0.999125 1 1 0.999125
0.999146 1 1 0.999146
0.999417 1 1 0.999417
0.9991 1 1 0.9991
0.999378 1 1 0.999378
0.999825 1 1 0.999825
0.999323 1 1 0.999323
0.999828 1 1 0.999828
1 1 1 1
0.999832 1 1 0.999832
1 1 1 1
1 1 1 1
1 1 1 1
1 1 1 1
1 1 1 1
0.999582 1 1 0.999582
0.999955 1 1 0.999955
0.999954 1 1 0.999954
1 1 1 1
0.99994 1 1 0.99994
1 1 1 1
1 1 1 1
1 1 1 1
1 1 1 1
1 1 1 1
0.997875 1.01579 0.984775 0.997549
1.0304 1.04193 0.990957 0.997967
1.02 1.03299 0.98894 0.998464
0.950926 0.979072 0.978466 0.992627
1.00304 1.01907 0.986186 0.998056
1.03051 1.03901 0.993806 0.998
1.01595 1.02445 0.993843 0.997847
0.962755 0.981399 0.987517 0.993403
0.950412 0.979747 0.986654 0.983181
0.820239 0.884846 0.947508 0.97834
0.770157 0.856662 0.923336 0.973666
0.999252 1 1 0.999252
0.999607 1 1 0.999607
0.999599 1 1 0.999599
0.999253 1 1 0.999253
0.999041 1 1 0.999041
0.999075 1 1 0.999075
0.999238 1 1 0.999238
0.999272 1 1 0.999272
1.01945 1.03645 0.985579 0.997986
1.01683 1.03811 0.9814 0.998064
1.00906 1.01596 0.9953 0.997906
1.00301 1.00008 1.00493 0.998008
1.00196 1.00443 0.999969 0.997574
1.02003 1 1.02191 0.99816
1.01815 1 1.02003 0.998164
0.999077 1 1.00066 0.998422
0.999145 1 1 0.999145
0.999005 1 1.0003 0.998708
0.999261 1 1 0.999261
0.99904 1 1 0.99904
1.00846 1.03271 0.978421 0.998051
0.998878 1 1 0.998878
0.999016 1 1.00019 0.998823
1.00466 1.02531 0.981827 0.997998
1.00287 1.00746 0.99771 0.997724
0.998591 1.00065 0.999826 0.998116
1.00755 1 1.00909 0.998473
1.027 1 1.029 0.998053
1.00491 1.02648 0.980901 0.998045
0.986345 1.00789 0.980528 0.998056
0.993052 1.00059 0.994391 0.998069
1.0039 1.00025 1.00542 0.998246
0.999051 1 1.0004 0.998656
1.00302 1 1.00444 0.998585
1.02564 1 1.02742 0.998271
0.852124 0.917784 0.947388 0.980018
0.943215 0.976736 0.979891 0.985499
0.999875 1 1.0014 0.998481
0.999207 1.00007 1.00107 0.998072
1.0077 1.0201 0.989456 0.998374
1.00242 1.00761 0.9973 0.99754
1.00334 1.00027 1.00571 0.997378
0.945075 0.977554 0.983161 0.983333
0.96536 0.987317 0.986405 0.991237
0.985885 0.993603 0.993757 0.998465
0.834433 0.891377 0.955932 0.979272
0.76021 0.861642 0.909828 0.969722
0.999316 1 1.0007 0.998621
0.856679 0.915325 0.955235 0.979788
0.826072 0.883103 0.959853 0.974545
0.987326 1.00795 0.981244 0.998264
1.00473 1.00034 1.00617 0.998231
1.00997 1.00183 1.01033 0.997814
0.968942 0.984999 0.984994 0.998684
0.951237 0.980063 0.988039 0.982338
0.948653 0.966494 0.989841 0.991614
0.819181 0.886046 0.945535 0.977791
0.844556 0.928697 0.932545 0.975179
1.00105 1 1.00216 0.998885
0.860415 0.899405 0.978938 0.977232
0.928204 0.956954 0.987409 0.982326
0.989346 0.999867 0.990693 0.998774
1.01266 1.00194 1.01196 0.998753
0.982305 0.975944 1.00772 0.998808
0.930854 0.951005 0.986046 0.992662
0.934128 0.954454 0.996653 0.98199
0.833791 0.89936 0.947707 0.978248
0.874794 0.951107 0.939991 0.978483
0.99936 1 1.00059 0.998774
0.999409 1 1.00041 0.998997
1.00265 1 1.00346 0.999198
0.999321 1 1 0.999321
0.999056 1 1 0.999056
0.998897 1 1 0.998897
0.99883 1 1 0.99883
0.999151 1 1.00032 0.998829
0.999033 1 1 0.999033
0.998914 1 1.00009 0.998819
0.998843 1 1 0.998843
1.00066 1 1.00178 0.998884
1.0114 0.999976 1.01227 0.999158
0.999071 1 1.00028 0.998787
0.998817 1 1 0.998817
0.999067 1 1 0.999067
0.998973 1 1 0.998973
0.998908 1 1 0.998908
0.998978 1 1 0.998978
0.998948 1 1 0.998948
0.998928 1 1 0.998928
0.998876 1 1 0.998876
0.998935 1 1 0.998935
0.998727 1 1.00002 0.998705
0.999234 1 1.00093 0.998307
0.998806 1 1.0001 0.998708
0.998828 1 1 0.998828
0.999064 1 1 0.999064
0.999123 1 1 0.999123
0.999412 1 1 0.999412
0.999146 1 1 0.999146
0.999418 1 1 0.999418
0.999826 1 1 0.999826
0.999357 1 1 0.999357
0.999826 1 1 0.999826
1 1 1 1
0.999828 1 1 0.999828
1 1 1 1
1 1 1 1
1 1 1 1
1 1 1 1
1 1 1 1
0.999601 1 1 0.999601
0.999945 1 1 0.999945
0.999583 1 1 0.999583
1 1 1 1
0.999956 1 1 0.999956
0.999952 1 1 0.999952
1 1 1 1
1 1 1 1
1 1 1 1
1 1 1 1
1 1 1 1
0.85322 0.905804 0.962144 0.97901
0.835207 0.891117 0.960247 0.97606
0.953503 0.982648 0.977055 0.993128
1.00523 1.01871 0.98858 0.99816
1.03311 1.04185 0.993641 0.99796
0.953641 0.972156 0.986174 0.994709
1.01547 1.024 0.993743 0.997913
0.95528 0.98586 0.984249 0.984489
0.833626 0.891099 0.956102 0.978456
0.762181 0.857152 0.915365 0.971417
0.981443 0.99798 0.987278 0.996102
0.947828 0.97367 0.989117 0.98417
0.808861 0.886437 0.932359 0.978684
0.836319 0.917671 0.935149 0.974549
0.998945 1 1 0.998945
0.999275 1 1 0.999275
0.999606 1 1 0.999606
0.99924 1 1 0.99924
0.999075 1 1 0.999075
0.999192 1 1.00023 0.998961
0.999072 1 1 0.999072
0.999077 1 1 0.999077
0.99921 1 1 0.99921
0.999248 1 1 0.999248
1.00952 1.03247 0.97969 0.99804
1.00392 1.02356 0.982798 0.997978
1.00109 1.00726 0.996032 0.997835
1.00032 1.00097 1.00131 0.998041
1.02283 1 1.02481 0.998065
1.00999 1 1.01159 0.998413
0.998843 1 1 0.998843
0.998904 1 1 0.998904
1.00426 1.02679 0.979952 0.998063
0.999409 1 1.00077 0.998639
1.00297 1 1.00443 0.998553
0.986395 1.00645 0.982058 0.997976
0.992292 1.00043 0.993672 0.998186
1.00485 1.0008 1.00591 0.998147
1.02269 1 1.02448 0.998245
0.997141 1.00457 0.994239 0.998359
0.985887 1 0.987114 0.998757
1.01339 1.00043 1.01466 0.998326
1.00204 1 1.00343 0.998616
1.00151 1 1.00304 0.998474
1.01536 1 1.01702 0.998362
0.870036 0.90749 0.977963 0.980332
0.861078 0.916794 0.958615 0.979775
0.93517 0.97625 0.973745 0.983749
0.999053 1 1.00043 0.998622
1.00435 1.00029 1.00581 0.998254
0.989944 1.00861 0.983207 0.998259
1.00879 1.00028 1.01058 0.997949
0.849736 0.909846 0.953303 0.979682
0.951562 0.978305 0.988333 0.984146
0.941393 0.964811 0.985765 0.989817
0.96487 0.980515 0.985242 0.998785
0.819523 0.8865 0.945653 0.977576
0.828419 0.887937 0.957348 0.974536
0.834015 0.921363 0.927927 0.975505
1.00172 1 1.00283 0.998891
0.861366 0.902858 0.975364 0.978141
0.934455 0.962104 0.988837 0.982226
0.991555 1.00008 0.992615 0.998855
1.01225 1.0006 1.01293 0.998729
0.979724 0.974898 1.00615 0.998804
0.931571 0.953422 0.98619 0.990764
0.936481 0.9587 0.993572 0.983144
0.84675 0.912673 0.948241 0.978411
0.86329 0.940962 0.93733 0.978796
1.00359 0.999757 1.00438 0.999457
0.932706 0.962101 0.983597 0.985614
0.914458 0.950626 0.975609 0.986003
1.00232 0.988634 1.01413 0.999715
0.950954 0.953946 1.00153 0.995339
0.94169 0.953572 1.00528 0.982357
0.883474 0.931505 0.969524 0.97825
0.882285 0.964503 0.935318 0.978016
0.999192 1 1.00022 0.998974
1.00162 1 1.00242 0.999201
1.01414 1 1.01476 0.999389
0.999032 1 1 0.999032
0.998844 1 1 0.998844
0.998821 1 1 0.998821
1.00122 1 1.00232 0.998912
0.998815 1 1 0.998815
0.999199 1 1.00042 0.998782
1.01359 1 1.01439 0.999209
1.02276 0.997806 1.02558 0.999446
1.01119 1 1.01211 0.999089
0.998774 1 1 0.998774
0.998905 1 1 0.998905
0.998974 1 1 0.998974
0.998964 1 1 0.998964
0.998887 1 1 0.998887
0.998927 1 1 0.998927
0.998942 1 1 0.998942
0.99888 1 1.00003 0.998852
0.999722 1 1.00065 0.999077
0.998743 1 1 0.998743
0.998747 1 1.00001 0.998733
0.999137 1 1.00069 0.998444
0.999386 1 1.00153 0.997863
0.999217 1 1.0006 0.998615
0.999195 1 1.00079 0.998404
0.998783 1 1.00004 0.998739
0.99902 1 1.00009 0.998933
0.998825 1 1 0.998825
0.999063 1 1 0.999063
0.999371 1 1 0.999371
0.999121 1 1 0.999121
0.999411 1 1 0.999411
0.999823 1 1 0.999823
0.999418 1 1 0.999418
0.999826 1 1 0.999826
1 1 1 1
0.999827 1 1 0.999827
1 1 1 1
1 1 1 1
1 1 1 1
1 1 1 1
1 1 1 1
0.999461 1 1 0.999461
0.999927 1 1 0.999927
0.999548 1 1 0.999548
1 1 1 1
0.999948 1 1 0.999948
0.999583 1 1 0.999583
1 1 1 1
1 1 1 1
0.999957 1 1 0.999957
1 1 1 1
1 1 1 1
1 1 1 1
0.86244 0.902076 0.976544 0.979025
0.857298 0.912306 0.95986 0.979001
0.932295 0.96323 0.985553 0.982073
0.826936 0.884375 0.958817 0.975213
0.950886 0.976233 0.98115 0.99275
1.01305 1.02365 0.991651 0.997982
0.960072 0.985733 0.988077 0.985721
0.835861 0.894294 0.955104 0.978595
0.757983 0.860697 0.908699 0.969146
0.977947 0.995251 0.987169 0.995385
0.946255 0.973876 0.989309 0.982138
0.820989 0.89395 0.939603 0.977417
0.835966 0.920164 0.933176 0.973554
0.959874 0.983228 0.981875 0.994269
0.945656 0.959788 1.00366 0.981684
0.845954 0.915949 0.944657 0.977689
0.869747 0.951505 0.935809 0.976776
0.999413 1 1.00064 0.998769
0.998978 1 1 0.998978
0.999296 1 1 0.999296
0.99911 1 1 0.99911
0.99877 1 1.00001 0.998764
0.998989 1 1 0.998986
0.999069 1 1 0.999069
0.999044 1 1 0.999044
0.999106 1 1 0.999106
0.999182 1 1 0.999182
1.00504 1.02796 0.979587 0.99808
0.98845 1.00594 0.984681 0.997897
0.991406 1.00022 0.992871 0.998301
1.00652 1.00135 1.00712 0.998049
1.0196 1 1.02142 0.998218
1.00256 1 1.00404 0.998522
0.999738 1 1.00112 0.998622
1.00131 1 1.00271 0.998605
0.993539 1.00542 0.989796 0.998371
1.00118 1 1.0027 0.99848
1.01501 1 1.01669 0.998356
0.984738 1.00027 0.985778 0.99868
1.01351 1.00097 1.01426 0.9983
0.966175 0.990043 0.97701 0.998856
1.00169 0.997362 1.00508 0.999257
1.0222 1 1.02369 0.998544
1.00047 1 1.00198 0.99849
1.00825 1 1.0099 0.998366
0.934972 0.959097 0.987372 0.987314
0.874125 0.907367 0.982694 0.98033
0.852909 0.912217 0.954331 0.979728
1.00237 1 1.00348 0.998895
1.01198 0.999392 1.01391 0.998704
0.991291 1 0.992351 0.998932
0.870355 0.908418 0.978722 0.978929
0.9454 0.957956 1.00524 0.981751
0.933218 0.953617 0.98644 0.992061
0.969504 0.970802 0.99989 0.998772
0.847556 0.912172 0.949756 0.978317
0.9394 0.965841 0.990318 0.982133
0.864098 0.94189 0.937195 0.978888
1.00318 0.999387 1.00436 0.999431
0.929745 0.959935 0.981821 0.986484
0.91645 0.952362 0.975943 0.986012
1.00382 0.990885 1.01349 0.999568
0.95657 0.958198 1.00337 0.994948
0.929804 0.950617 0.997002 0.981047
0.885336 0.966241 0.936045 0.978871
0.883769 0.931735 0.969598 0.978261
1.00426 0.992752 1.01188 0.999711
0.912357 0.946694 0.972026 0.991464
0.926195 0.964013 0.973634 0.986789
0.871514 0.952348 0.936809 0.976849
0.987451 0.9742 1.01487 0.998755
0.95995 0.963682 1.01324 0.983113
0.895175 0.932903 0.980489 0.978654
1.00126 1 1.00206 0.999203
1.01327 1 1.01396 0.999322
1.01644 0.995794 1.02118 0.999566
0.998813 1 1 0.998813
0.999349 1 1.00057 0.998777
1.0173 1 1.01806 0.999259
0.998785 1 1 0.998785
1.01064 1 1.01155 0.999097
1.02468 0.997789 1.02755 0.999421
1.01133 0.997073 1.01481 0.999489
1.00704 1 1.00796 0.999089
0.998898 1 1 0.998898
0.998926 1 1 0.998926
0.99895 1 1 0.99895
0.999446 1 1.00039 0.999059
0.998871 1 1.00001 0.99886
0.999529 1 1.00053 0.999
0.998887 1 1 0.998887
1.00079 1 1.00259 0.998205
0.99876 1 1 0.99876
0.998969 1 1.00057 0.998403
0.998699 1 1.00101 0.997688
0.999066 1 1.00129 0.997779
0.999951 1 1.00155 0.998408
0.999266 1 1.00138 0.997887
0.999537 1 1.00074 0.9988
0.999372 1 1.00079 0.998586
0.999145 1 1.00065 0.998501
0.998771 1 1 0.998771
0.999014 1 1.00005 0.998964
0.999299 1 1 0.999299
0.999061 1 1 0.999061
0.99937 1 1 0.99937
0.999806 1 1 0.999806
0.99941 1 1 0.99941
0.999821 1 1 0.999821
1 1 1 1
0.999826 1 1 0.999826
1 1 1 1
1 1 1 1
1 1 1 1
1 1 1 1
1 1 1 1
0.999298 1 1 0.999298
0.999813 1 1 0.999813
0.99946 1 1 0.99946
1 1 1 1
0.999894 1 1 0.999894
0.999495 1 1 0.999495
1 1 1 1
1 1 1 1
0.999951 1 1 0.999951
1 1 1 1
1 1 1 1
1 1 1 1
0.925863 0.95776 0.980042 0.986383
0.852155 0.900081 0.966946 0.979117
0.856977 0.908925 0.963239 0.978829
0.998944 1 1 0.998944
0.916802 0.947894 0.979888 0.98705
0.933082 0.963377 0.986308 0.981999
0.82405 0.886983 0.952475 0.975404
0.981408 0.996622 0.990173 0.994508
0.947445 0.972448 0.990269 0.983863
0.827255 0.905382 0.935046 0.977181
0.829922 0.912788 0.933794 0.97368
0.961177 0.983225 0.985466 0.991994
0.932659 0.954093 0.994317 0.983122
0.856482 0.919583 0.952626 0.977698
0.868056 0.947251 0.938341 0.976611
0.939486 0.960764 0.98762 0.990112
0.940483 0.948596 1.0105 0.981147
0.890067 0.938595 0.969563 0.978067
0.882288 0.96303 0.936767 0.978001
0.999448 1 1.00086 0.998593
0.999754 1 1.00101 0.998744
0.999011 1 1 0.999011
0.998764 1 1 0.998764
0.99892 1 1.00012 0.998805
0.99901 1 1 0.99901
0.999052 1 1 0.999052
0.999135 1 1 0.999135
0.987415 1.0055 0.983603 0.998381
0.982555 1.00015 0.983782 0.998605
1.00056 1 1.00196 0.998595
1.01399 1.00156 1.01417 0.998272
1.01583 1 1.01751 0.998349
1.00119 1 1.0027 0.998486
1.00075 1 1.00225 0.998499
0.970884 0.991798 0.979999 0.998893
1.00923 1 1.01085 0.998396
1.01872 1.00019 1.02001 0.99855
0.996735 0.997906 0.999534 0.999293
1.00027 1 1.00174 0.998536
0.961208 0.981102 0.980575 0.999132
1.00765 0.994697 1.01358 0.999454
1.0325 1 1.03392 0.998629
1.00206 1 1.00355 0.998519
0.925146 0.949472 0.981739 0.992503
0.934331 0.958339 0.987358 0.987432
0.879337 0.9074 0.988516 0.980331
1.00209 0.99893 1.00375 0.999409
1.00692 0.993459 1.01414 0.999425
0.927911 0.958794 0.980193 0.987346
0.94946 0.952641 1.01402 0.98288
0.95082 0.956625 1.00147 0.992469
0.888204 0.935673 0.971257 0.97736
0.917476 0.953195 0.976175 0.986019
0.889483 0.969094 0.936846 0.979724
1.0058 0.995072 1.01112 0.999671
0.91303 0.94697 0.972458 0.991465
0.923973 0.962103 0.97202 0.988012
0.996396 0.980865 1.01607 0.999772
0.869015 0.948079 0.938523 0.976648
0.947377 0.95471 1.01022 0.982277
0.905739 0.94605 0.978952 0.977974
1.00634 0.990842 1.01587 0.999771
0.927034 0.961211 0.971726 0.992506
0.917676 0.948996 0.979617 0.987116
0.835423 0.918304 0.933417 0.97464
0.889704 0.940054 0.967991 0.977736
0.969781 0.966982 1.00516 0.997748
0.962731 0.957516 1.02579 0.980171
1.01075 1 1.0115 0.999256
1.01577 0.995199 1.02114 0.999539
1.00391 0.984336 1.02031 0.999582
0.998796 1 1 0.998796
1.00954 1 1.01045 0.999105
1.02538 0.9985 1.02754 0.999396
1.00416 1 1.00509 0.999075
1.01156 0.997768 1.01434 0.999488
1.00773 0.996865 1.01166 0.999247
0.999041 1 1 0.999041
0.998868 1 1 0.998868
1.00039 1 1.00142 0.998972
1.00631 1 1.00787 0.998453
0.99903 1 1 0.99903
1.00029 1 1.00198 0.998315
1.0017 1 1.00413 0.997586
1.00083 1.00175 1.00188 0.997211
0.998766 1 1.0004 0.998362
0.998938 1.00026 1.00109 0.997583
0.99859 1.0002 1.00053 0.997871
1.00048 1 1.00232 0.998168
0.99909 1 1.00125 0.997839
1.00098 1 1.00234 0.99865
1.00004 1 1.00164 0.998399
0.999186 1 1.00128 0.99791
0.999174 1 1 0.999174
0.999577 1 1.00078 0.998796
0.999614 1 1.00106 0.998558
0.998996 1 1 0.998996
0.999297 1 1 0.999297
0.999769 1 1 0.999769
0.999369 1 1 0.999369
0.999803 1 1 0.999803
1 1 1 1
0.99982 1 1 0.99982
1 1 1 1
1 1 1 1
1 1 1 1
1 1 1 1
1 1 1 1
0.999229 1 1 0.999229
0.999732 1 1 0.999732
0.999329 1 1 0.999329
1 1 1 1
0.999805 1 1 0.999805
0.999458 1 1 0.999458
1 1 1 1
1 1 1 1
0.99986 1 1 0.99986
1 1 1 1
1 1 1 1
1 1 1 1
0.914876 0.947448 0.973846 0.991554
0.927751 0.958057 0.981747 0.986372
0.852154 0.901294 0.965535 0.979227
0.998962 1 1 0.998962
0.99891 1 1 0.99891
0.998806 1 1 0.998806
0.923171 0.963198 0.971345 0.986718
0.914469 0.947327 0.97796 0.987069
0.934877 0.963625 0.988023 0.981927
0.967326 0.985716 0.98761 0.993655
0.930319 0.953833 0.993566 0.981665
0.846472 0.907197 0.953757 0.978303
0.878427 0.953813 0.943392 0.976227
0.942322 0.961866 0.987476 0.992107
0.937175 0.948208 1.0065 0.981982
0.877217 0.92238 0.97122 0.979219
0.884105 0.965158 0.935827 0.978836
0.930233 0.95148 0.98681 0.990738
0.954846 0.958545 1.0139 0.982482
0.896405 0.931403 0.983226 0.978843
0.875663 0.950727 0.94139 0.978389
0.998583 1 1 0.998583
0.999736 1 1.00115 0.998585
0.999833 1 1.00112 0.998719
0.998759 1 1 0.998759
0.998845 1 1 0.998845
0.99906 1 1 0.99906
0.97779 0.994265 0.984493 0.99892
0.992404 0.998385 0.994682 0.999323
1.00094 1 1.00244 0.998507
1.01447 1.00036 1.01556 0.998556
1.00999 1 1.01158 0.998425
1.00008 1 1.00157 0.998511
1.00171 1 1.00317 0.998536
0.972134 0.983703 0.989052 0.999178
1.02806 1 1.02936 0.998736
1.00649 0.990158 1.01703 0.999478
1.00001 1 1.00135 0.998656
0.986223 0.972764 1.01454 0.999305
1.0018 0.987504 1.01497 0.999522
1.02311 1 1.02428 0.998858
0.941652 0.965153 0.981769 0.993769
0.924848 0.949661 0.980878 0.992856
0.934029 0.95746 0.98783 0.987547
1.00856 0.9977 1.01125 0.999632
0.990526 0.982067 1.00944 0.999178
0.913991 0.94748 0.972958 0.991466
0.946354 0.947849 1.01273 0.98587
0.903886 0.943077 0.979447 0.978556
0.92283 0.960511 0.971224 0.989236
0.879479 0.954378 0.943891 0.976301
1.00401 0.98994 1.01443 0.999788
0.927885 0.961482 0.97197 0.992888
0.916011 0.948656 0.978171 0.987136
0.969067 0.964061 1.01036 0.994885
0.83467 0.920098 0.931666 0.97369
0.874601 0.924667 0.966267 0.978875
0.970742 0.961862 1.02739 0.982326
1.00085 0.97187 1.03029 0.999536
0.915603 0.947961 0.974016 0.991633
0.934045 0.964913 0.985539 0.982214
0.768198 0.854726 0.922822 0.973931
0.84665 0.916857 0.944479 0.97771
0.953915 0.957345 1.01458 0.982095
0.947868 0.959371 0.99479 0.993184
1.0156 0.994456 1.02176 0.999511
1.00731 0.988895 1.01904 0.999586
1.01658 0.994354 1.02283 0.999529
1.00133 1 1.00227 0.999061
1.01226 0.99784 1.01498 0.999487
1.00933 0.996638 1.01342 0.999325
1.01445 1 1.01566 0.998816
1.00137 1 1.00243 0.998944
1.0066 1 1.00827 0.998344
1.0149 1 1.01743 0.997508
0.99987 1 1.00145 0.998427
1.00312 1.0005 1.00509 0.997544
1.00483 1.00202 1.00596 0.996861
1.00328 1.00459 1.00191 0.996792
0.999135 1.00053 1.00108 0.997528
1.00075 1.00169 1.00189 0.99717
0.999196 1.00048 1.00124 0.997478
0.999163 1 1.0011 0.998068
0.998562 1.00012 1.00048 0.997963
1.00112 1 1.00275 0.998375
1.00057 1 1.00237 0.998209
0.999066 1 1.00117 0.997898
1.00027 1 1.00131 0.998961
1.00054 1 1.0019 0.998652
0.999996 1 1.00161 0.99839
0.999701 1 1 0.999701
0.999194 1 1.00002 0.999171
0.999519 1 1.00073 0.998793
0.999295 1 1 0.999295
0.999765 1 1 0.999765
1 1 1 1
0.9998 1 1 0.9998
1 1 1 1
1 1 1 1
1 1 1 1
1 1 1 1
1 1 1 1
0.999217 1 1 0.999217
0.999735 1 1 0.999735
0.999249 1 1 0.999249
1 1 1 1
0.999765 1 1 0.999765
0.999359 1 1 0.999359
1 1 1 1
1 1 1 1
0.999798 1 1 0.999798
1 1 1 1
1 1 1 1
1 1 1 1
0.92661 0.960605 0.971942 0.992456
0.91517 0.947872 0.973719 0.991558
0.927753 0.958235 0.981565 0.986374
0.99888 1 1 0.99888
0.998758 1 1 0.998758
0.998981 1 1 0.998981
0.998906 1 1 0.998906
0.998787 1 1 0.998787
0.998791 1 1 0.998791
0.998692 1 1 0.998692
0.911875 0.950277 0.973325 0.985887
0.922902 0.961065 0.972004 0.98795
0.911824 0.946546 0.975916 0.98709
0.886478 0.967709 0.935066 0.979672
0.9312 0.952263 0.987425 0.990334
0.939345 0.948405 1.00762 0.982954
0.882036 0.925164 0.974372 0.978459
0.925083 0.950946 0.98263 0.989999
0.945938 0.950408 1.01436 0.981208
0.908053 0.947271 0.97969 0.978471
0.862803 0.940591 0.937252 0.97871
0.931229 0.952785 0.985284 0.991973
0.953888 0.956994 1.01626 0.980811
0.886151 0.933801 0.96987 0.978453
0.844213 0.92524 0.935206 0.975641
1.00071 1 1.00202 0.99869
0.9987 1 1.00012 0.998584
1.0002 1 1.00162 0.998576
0.998754 1 1 0.998754
0.979759 0.985055 0.995389 0.999231
1.0044 0.98652 1.01864 0.999501
0.998543 1 1.00006 0.998486
1.00144 1 1.00289 0.998553
1.0233 1 1.02449 0.998843
0.999466 1 1.00082 0.998648
1.02363 0.99956 1.02526 0.998844
0.982517 0.971322 1.01297 0.998569
1.00463 0.986302 1.01896 0.999633
1.01087 0.998594 1.01335 0.998961
0.986716 0.969083 1.01982 0.998403
1.02096 0.99227 1.02964 0.999296
0.925733 0.949576 0.982214 0.992544
0.937531 0.963407 0.978819 0.9942
0.924276 0.949866 0.979712 0.993209
1.00047 0.987896 1.01292 0.999805
0.972759 0.966326 1.00876 0.997912
0.927825 0.961142 0.971874 0.993273
0.965771 0.961586 1.02428 0.980548
0.87767 0.92513 0.969971 0.978069
0.913552 0.948288 0.975904 0.987157
0.829526 0.912638 0.933369 0.973819
1.00567 0.975567 1.03124 0.999629
0.915412 0.948386 0.973371 0.991638
0.93434 0.964671 0.986173 0.982139
0.950065 0.958981 0.995282 0.995398
0.761935 0.856152 0.915861 0.971713
0.853484 0.917951 0.951082 0.977593
0.951435 0.952277 1.01784 0.981603
1.00011 0.978201 1.02365 0.998773
0.927363 0.958871 0.980324 0.986552
0.835635 0.891098 0.960485 0.976339
0.811923 0.887651 0.934345 0.978962
0.93769 0.945208 1.00974 0.982473
0.92808 0.950459 0.98541 0.990912
1.01051 0.992931 1.01812 0.99959
1.01722 0.992806 1.02508 0.999522
1.00726 0.99679 1.01116 0.999356
1.01116 0.99664 1.01518 0.999402
1.01348 0.998018 1.01661 0.998894
1.00715 1.0008 1.00837 0.997994
1.00708 1 1.00886 0.998235
1.01397 1 1.01656 0.997455
1.00895 1.00017 1.01196 0.996859
1.00461 1.00108 1.00604 0.997501
1.00503 1.00173 1.00654 0.996786
1.00301 1.00209 1.00437 0.996562
1.00619 1.00938 1 0.996841
1.00557 1.00783 1.00077 0.996995
1.00381 1.0049 1.00218 0.996739
0.998964 1.00107 1.00013 0.997769
0.998846 1.00052 1.00074 0.997585
1.0007 1.00168 1.0019 0.997129
0.999203 1 1.00112 0.99809
0.999274 1.00013 1.00108 0.998059
0.99848 1 1.00043 0.998055
1.00131 1 1.00264 0.998679
1.00106 1 1.00265 0.998419
1.00068 1 1.00244 0.99825
0.99955 1 1 0.99955
1.00001 1 1.00104 0.998963
1.00026 1 1.00161 0.998654
0.999999 1 1 0.999999
0.999695 1 1 0.999695
0.999274 1 1.0001 0.999169
0.99976 1 1 0.99976
1 1 1 1
1 1 1 1
1 1 1 1
1 1 1 1
1 1 1 1
0.998872 1 1 0.998872
0.999155 1 1 0.999155
0.999675 1 1 0.999675
0.999215 1 1 0.999215
0.999999 1 1 0.999999
0.999739 1 1 0.999739
0.999269 1 1 0.999269
1 1 1 1
1 1 1 1
0.999798 1 1 0.999798
1 1 1 1
1 1 1 1
1 1 1 1
0.911651 0.946746 0.971261 0.991424
0.927048 0.960946 0.971678 0.992844
0.915702 0.948433 0.973706 0.991561
0.99889 1 1 0.99889
0.998744 1 1 0.998744
0.998693 1 1 0.998693
0.998746 1 1 0.998746
0.999657 1 1.001 0.998657
0.998903 1 1 0.998903
0.998769 1 1 0.998769
0.998792 1 1 0.998792
0.998694 1 1 0.998694
1.00026 1 1.00152 0.99874
0.926527 0.955616 0.987228 0.982103
0.915287 0.952084 0.975092 0.985908
0.923624 0.959806 0.972829 0.98918
0.862108 0.941434 0.935556 0.978817
0.904948 0.941635 0.981882 0.978772
0.917415 0.946794 0.979754 0.988993
0.95425 0.958109 1.01397 0.982246
0.931987 0.955205 0.985778 0.98977
0.96508 0.966002 1.01718 0.982169
0.886438 0.932919 0.97082 0.978736
0.843958 0.928107 0.932786 0.974857
0.951645 0.961093 0.998839 0.991321
0.955318 0.958179 1.0146 0.982662
0.832611 0.8995 0.946447 0.978012
0.792112 0.885686 0.91865 0.973547
1.00288 1 1.00376 0.999124
1.00222 1 1.00353 0.998689
0.999496 1 1.00091 0.998586
0.981706 0.970936 1.0133 0.997817
1.00754 0.984474 1.02369 0.999748
0.999797 1 1.00116 0.99864
1.02489 0.999292 1.02682 0.99883
1.01221 0.999411 1.01385 0.998968
1.02221 0.99444 1.02866 0.999285
0.983649 0.96654 1.0193 0.998435
1.0173 0.998271 1.01973 0.999345
0.990236 0.976931 1.01536 0.998283
0.936795 0.960984 0.987483 0.987186
0.925454 0.949749 0.981395 0.992892
0.933379 0.961709 0.975781 0.994631
1.01118 0.980082 1.03203 0.999714
0.94973 0.960708 0.996431 0.992114
0.916135 0.948782 0.973731 0.991641
0.953991 0.959487 1.01447 0.980087
0.845047 0.905682 0.95382 0.978226
0.935266 0.964442 0.987456 0.982068
0.759447 0.860849 0.909988 0.969472
0.999325 0.976825 1.02416 0.998899
0.929094 0.959255 0.981771 0.986542
0.827845 0.885253 0.958641 0.975496
0.930693 0.953935 0.983457 0.992047
0.823183 0.894533 0.941255 0.977671
0.925476 0.943222 1.00003 0.981154
0.972978 0.975052 1 0.997874
0.862913 0.903019 0.975783 0.979303
0.822341 0.885471 0.948967 0.978647
0.944783 0.960186 1.00224 0.981758
0.922793 0.948887 0.979836 0.992513
1.01698 0.991362 1.02634 0.999515
1.00908 0.99528 1.01455 0.999328
0.997367 1.001 0.997716 0.998647
1.01212 0.995673 1.01757 0.998971
1.007 1.00093 1.00798 0.998091
1.00088 1.00198 1.00141 0.997498
1.01276 1 1.01539 0.997403
1.00733 1.00032 1.01017 0.996874
0.999546 1.00147 1.00111 0.996974
1.00491 1.00139 1.00683 0.99671
1.00321 1.00301 1.00362 0.996585
1.00671 1.00974 1 0.997006
1.0177 1.02055 1 0.997208
1.01114 1.01428 1.00002 0.996884
1.00571 1.00888 1 0.99686
1.00325 1.00599 1 0.997274
1.00384 1.00583 1.00107 0.996949
1.00438 1.00527 1.00244 0.996687
0.998397 1.00047 1 0.997923
0.998648 1.00079 1.00002 0.997835
0.998499 1.00054 1.00032 0.997642
0.99983 1 1.00142 0.998409
0.999402 1 1.00129 0.998117
0.999456 1.00031 1.0011 0.99805
1.00003 1 1.00076 0.999271
1.00103 1 1.00235 0.998681
1.00095 1 1.00249 0.998464
0.999991 1 1 0.999991
0.999639 1 1.0001 0.999543
0.999718 1 1.00075 0.998965
1 1 1 1
0.999997 1 1 0.999997
0.999688 1 1 0.999688
1 1 1 1
1 1 1 1
1 1 1 1
0.99884 1 1.00005 0.998786
0.999083 1 1 0.999083
0.998858 1 1 0.998858
0.999624 1 1 0.999624
0.999154 1 1 0.999154
0.999994 1 1 0.999994
0.999678 1 1 0.999678
0.999213 1 1 0.999213
1 1 1 1
1 1 1 1
0.999742 1 1 0.999742
1 1 1 1
1 1 1 1
1 1 1 1
0.930994 0.962507 0.979529 0.987474
0.912209 0.946884 0.971708 0.991429
0.927047 0.960592 0.971653 0.993234
0.9987 1 1 0.9987
0.998901 1 1 0.998901
0.998731 1 1 0.998731
0.998759 1 1 0.998759
0.99871 1 1 0.99871
0.999299 1 1.00063 0.998668
1.00122 1 1.00269 0.99854
1.0014 1 1.00277 0.998635
0.998792 1 1 0.998792
0.998695 1 1 0.998695
1.00036 1 1.00163 0.99873
1.00183 1 1.00293 0.998897
0.833176 0.890952 0.958949 0.975184
0.933211 0.961412 0.988454 0.982004
0.917005 0.952188 0.976798 0.985927
0.835963 0.922435 0.929314 0.975188
0.892931 0.94001 0.971149 0.978137
0.955327 0.957746 1.01693 0.980866
0.936972 0.955461 0.990027 0.990528
0.950416 0.957938 0.999046 0.993095
0.776073 0.874332 0.913738 0.971414
0.949979 0.95331 1.0158 0.981005
0.84425 0.911995 0.946464 0.97808
0.941991 0.956902 0.990795 0.993562
0.942792 0.950644 1.00852 0.983366
0.815954 0.892205 0.93496 0.978156
1.00057 1 1.00099 0.99958
1.00263 1 1.00351 0.999128
1.00333 1 1.00465 0.998687
0.980124 0.963585 1.01872 0.998469
1.0244 0.997749 1.02746 0.999273
1.01329 0.999962 1.01437 0.998976
1.01704 0.999278 1.01844 0.999344
0.990413 0.978803 1.01355 0.998334
0.999149 0.991176 1.00924 0.99881
0.872277 0.908447 0.981265 0.978517
0.934746 0.959645 0.985508 0.988377
0.924667 0.949831 0.980132 0.99324
0.999523 0.975216 1.02594 0.999008
0.92536 0.952816 0.978206 0.992822
0.928827 0.959532 0.981206 0.98654
0.934002 0.94298 1.00783 0.982781
0.831025 0.90698 0.937368 0.977477
0.824161 0.887124 0.952167 0.975696
0.97495 0.975544 1.00146 0.997935
0.852764 0.900771 0.966631 0.979387
0.836379 0.89214 0.957806 0.978797
0.925586 0.949672 0.984281 0.990202
0.933454 0.957199 0.991924 0.983132
0.964496 0.985303 0.979967 0.998893
0.852796 0.905876 0.961345 0.979257
0.949956 0.976177 0.98903 0.983932
0.93777 0.962292 0.984365 0.989996
1.0118 0.994435 1.01817 0.999301
0.990879 1.00008 0.992037 0.998751
0.987368 1.00269 0.986569 0.998123
1.00735 1.00108 1.00808 0.998186
1.00275 1.00241 1.00286 0.997488
1.00041 1.00336 0.999428 0.997634
1.00606 1.0005 1.00869 0.996889
0.999579 1.00113 1.00146 0.996987
1.01263 1.0151 1 0.997567
1.0036 1.00395 1.00306 0.996607
1.00619 1.00921 1 0.997014
1.01719 1.0196 1 0.997635
1.02285 1.02527 1 0.997635
1.01999 1.02291 1 0.997138
1.01709 1.01991 1 0.997238
1.01054 1.01348 1 0.997096
1.01027 1.01338 1 0.996927
1.00506 1.00821 1 0.996879
1.00137 1.00373 1 0.997646
1.00316 1.00574 1.00014 0.997298
1.00221 1.00384 1.00148 0.996902
0.998187 1 1 0.998187
0.999085 1.00117 1 0.997918
0.998203 1.0003 1 0.997902
0.999819 1 1.00086 0.998956
0.99971 1 1.0013 0.99841
0.99963 1.00004 1.00145 0.998145
0.999959 1 1 0.999959
1.00003 1 1.00076 0.999267
1.00063 1 1.00195 0.998683
1 1 1 1
0.999985 1 1 0.999985
0.999708 1 1.00017 0.999536
1 1 1 1
0.999996 1 1 0.999996
1 1 1 1
0.998772 1 1.00003 0.998745
0.998882 1 1.0001 0.998784
0.998991 1 1 0.998991
0.999574 1 1 0.999574
0.999083 1 1 0.999083
0.998845 1 1 0.998845
0.999985 1 1 0.999985
0.999627 1 1 0.999627
0.999153 1 1 0.999153
1 1 1 1
0.999996 1 1 0.999996
0.999681 1 1 0.999681
1 1 1 1
1 1 1 1
1 1 1 1
0.859012 0.898394 0.978311 0.977362
0.928908 0.96026 0.979616 0.987478
0.913338 0.947555 0.972217 0.991434
0.998894 1 1.00021 0.998684
0.998984 1 1.00037 0.998612
1.00027 1 1.00169 0.998591
0.998772 1 1 0.998772
0.998728 1 1 0.998728
0.999464 1 1.00079 0.998679
1.00133 1 1.0027 0.998629
1.00107 1 1.00253 0.998547
1.00188 1 1.00343 0.998456
0.998096 1 0.99906 0.999035
1.00002 1 1.0013 0.998721
1.0011 1 1.00223 0.998873
0.832258 0.888481 0.957761 0.978031
0.825596 0.882998 0.959801 0.974152
0.939177 0.966278 0.989853 0.981916
0.761193 0.861181 0.911935 0.969252
0.84524 0.909957 0.949756 0.978019
0.948793 0.954722 1.01064 0.983326
0.952601 0.956967 1.00445 0.991025
0.940479 0.956484 0.991428 0.991768
0.817913 0.88504 0.945712 0.977204
0.931939 0.94575 1.00283 0.98262
0.934575 0.958563 0.982379 0.992464
0.93099 0.958608 0.988845 0.982145
1.00698 1 1.00796 0.999033
1.00022 1 1.0007 0.999516
1.00204 1 1.00291 0.999132
0.989639 0.979421 1.01207 0.99838
1.01643 1 1.0171 0.999344
0.999488 0.991979 1.00887 0.998713
0.990478 0.995388 0.99713 0.997931
0.852511 0.919156 0.946354 0.980069
0.875828 0.908526 0.984323 0.979363
0.933612 0.958514 0.984299 0.989557
0.975515 0.978526 0.998883 0.998038
0.924985 0.949351 0.983251 0.990931
0.85283 0.90199 0.965298 0.979489
0.929832 0.953852 0.992888 0.9818
0.841205 0.898387 0.956524 0.978909
0.968327 0.985553 0.98419 0.998304
0.858171 0.913088 0.959783 0.979238
0.949389 0.977092 0.989318 0.982139
0.945044 0.96484 0.987443 0.991939
0.976918 0.99316 0.984888 0.998739
0.953047 0.982192 0.986999 0.983108
0.958033 0.983326 0.980868 0.993281
0.984615 0.998936 0.986796 0.998853
0.987196 1.00358 0.985545 0.998101
0.983819 1.00694 0.978989 0.998004
1.00382 1.00278 1.00356 0.997479
0.99974 1.00347 0.998648 0.997629
1.01664 1.02185 0.996786 0.998108
0.999431 1.00071 1.00173 0.997
1.01255 1.01508 0.999961 0.997555
1.02226 1.02477 0.999463 0.998085
1.00553 1.00853 1 0.997023
1.01658 1.01899 1 0.997634
1.02329 1.02532 1 0.998017
1.02071 1.02285 1 0.997899
1.0234 1.02578 1 0.997685
1.02273 1.02528 1 0.997518
1.01932 1.02217 1 0.997215
1.0205 1.02343 1 0.997145
1.01658 1.01937 1 0.997267
1.00744 1.0101 1 0.997369
1.01127 1.01418 1 0.997131
1.00942 1.01249 1 0.996971
0.998605 1.00065 1 0.99796
1.00199 1.00436 1 0.997639
1.00323 1.00575 1.00017 0.997323
0.998779 1 1.00005 0.99873
0.998241 1.00006 1 0.998186
0.999811 1.0019 1 0.997912
0.99986 1 1 0.99986
0.999618 1 1.00066 0.998957
0.999681 1 1.00127 0.998412
1 1 1 1
0.99994 1 1 0.99994
0.999968 1 1.00071 0.999263
1 1 1 1
0.999979 1 1 0.999979
1 1 1 1
0.99868 1 1 0.99868
0.998825 1 1.00009 0.998739
0.998914 1 1.00002 0.998891
0.9989 1 1.00012 0.998783
0.998991 1 1 0.998991
0.999499 1 1 0.999499
0.999976 1 1 0.999976
0.999577 1 1 0.999577
0.999083 1 1 0.999083
1 1 1 1
0.999987 1 1 0.999987
0.999629 1 1 0.999629
1 1 1 1
0.999997 1 1 0.999997
1 1 1 1
0.860215 0.909619 0.965645 0.979331
0.86197 0.902968 0.976898 0.97717
0.927266 0.958625 0.979552 0.98748
0.998913 1 1.00025 0.998668
1.00049 1 1.00195 0.998537
0.998748 1 1.00009 0.998657
0.998274 1 1 0.998274
1.00015 1 1.00164 0.998512
1.00131 1 1.00269 0.998623
1.00057 1 1.00202 0.998554
1.00176 1 1.00327 0.998492
0.998321 1 1 0.998321
0.996518 1.00056 0.99713 0.998824
0.99857 1.00035 1.00026 0.997966
0.999274 1 1.00019 0.999087
1.00067 1 1.00182 0.998849
0.944365 0.975128 0.985707 0.982495
0.834921 0.88683 0.962377 0.978272
0.826345 0.885853 0.957578 0.974149
0.815725 0.886012 0.942472 0.976867
0.938108 0.950043 1.00638 0.981177
0.943504 0.954407 0.994848 0.993696
0.935891 0.957275 0.983848 0.993712
0.938016 0.960258 0.992894 0.983829
0.960173 0.983579 0.983351 0.992732
1.00016 1.00132 1.00061 0.99823
1.00566 1 1.00666 0.99901
0.999753 1 1.0003 0.999453
1.00048 0.993851 1.00804 0.998636
0.996175 0.999474 0.998825 0.997872
0.931065 0.973009 0.972723 0.983726
0.861947 0.918263 0.957921 0.979905
0.880485 0.908806 0.988382 0.980224
0.972065 0.986925 0.987227 0.997687
0.940828 0.960985 0.988798 0.990116
0.859111 0.910609 0.963647 0.979037
0.948067 0.973164 0.990368 0.983686
0.978183 0.993103 0.986188 0.998771
0.956528 0.986738 0.984856 0.98429
0.958602 0.982936 0.983756 0.991346
0.996301 1.00466 0.993479 0.99819
0.976241 0.995629 0.985104 0.995354
0.987524 1.00463 0.984856 0.998085
0.985225 1.00637 0.980996 0.997955
1.00529 1.02812 0.979602 0.99816
0.999318 1.00358 0.998123 0.997624
1.01624 1.02155 0.996696 0.998094
1.02397 1.03266 0.993263 0.998314
1.01253 1.01514 0.999888 0.997543
1.02193 1.02492 0.999018 0.998068
1.02073 1.02462 0.997978 0.998227
1.01613 1.01854 1 0.997633
1.02356 1.0257 0.999922 0.998
1.02236 1.02435 1 0.998055
1.02132 1.02342 1 0.997945
1.0205 1.02282 1 0.997731
1.02392 1.02625 1 0.997736
1.02265 1.0252 1 0.99751
1.02221 1.02488 1 0.997397
1.01462 1.01734 1 0.997323
1.01918 1.02204 1 0.997206
1.02098 1.0239 1 0.997151
1.00124 1.0035 1 0.997753
1.00703 1.00966 1 0.997389
1.01195 1.01483 1 0.997167
0.998552 1 1 0.998552
0.999315 1.00136 1 0.997956
1.00229 1.00467 1 0.997633
0.99971 1 1 0.99971
0.998742 1 1.00001 0.99873
0.99834 1.00016 1 0.998184
1 1 1 1
0.999837 1 1 0.999837
0.999464 1 1.00051 0.998957
1 1 1 1
0.999921 1 1 0.999921
1 1 1 1
0.999104 1.00082 1 0.998288
0.998678 1 1 0.998678
0.998798 1 1.00005 0.998751
0.998901 1 1.00017 0.998734
0.998894 1 1.00002 0.99887
0.999365 1 1 0.999365
0.99899 1 1 0.99899
0.999502 1 1 0.999502
0.999966 1 1 0.999966
1 1 1 1
0.999979 1 1 0.999979
0.999579 1 1 0.999579
1 1 1 1
0.99999 1 1 0.99999
1 1 1 1
0.952118 0.982934 0.983682 0.984718
0.853424 0.912283 0.954749 0.979819
0.872468 0.909011 0.982545 0.97685
1.00091 1 1.00243 0.998484
0.998702 1 1 0.998702
1.00003 1 1.00152 0.998517
0.998436 1.00014 1 0.998294
1.00241 1.00452 1.00002 0.997876
0.998365 1 1 0.998365
1.0018 1 1.00327 0.998528
0.998204 1 1 0.998204
0.997837 1.00029 0.998757 0.998791
0.998614 1.00045 1 0.998161
0.998624 1.0029 0.997584 0.998144
0.997979 1.00129 0.999116 0.997576
0.998146 1.00082 0.999233 0.998096
1.00062 1 1.00148 0.99914
0.958775 0.985363 0.979981 0.992895
0.947235 0.976532 0.986559 0.983214
0.830366 0.88773 0.955607 0.978835
0.950674 0.96683 1.00151 0.981808
0.936025 0.95607 0.984361 0.994589
0.964108 0.984162 0.984482 0.995066
0.992971 1.00377 0.991111 0.998117
0.998012 1.00067 0.999074 0.998269
1.00461 1 1.00563 0.998988
0.996303 1.00112 0.997388 0.997794
0.961747 0.980231 0.988124 0.992936
0.943937 0.977229 0.980177 0.985467
0.852365 0.912821 0.953002 0.979819
0.980411 0.993735 0.987777 0.9988
0.962848 0.985319 0.984327 0.992754
0.960582 0.986544 0.988035 0.985474
0.989961 1.00373 0.988054 0.998205
0.973652 0.993126 0.985619 0.994696
0.9955 1.02393 0.974196 0.997986
1.00535 1.01544 0.992507 0.997546
0.986211 1.00567 0.98271 0.997902
1.00469 1.02727 0.979831 0.998152
1.00892 1.03679 0.97488 0.998199
1.01605 1.02162 0.996456 0.998079
1.0237 1.03253 0.993134 0.998299
1.01629 1.02627 0.99209 0.998173
1.02158 1.02501 0.998603 0.99805
1.02006 1.02411 0.997829 0.998211
1.02272 1.0267 0.998104 0.998023
1.02378 1.02603 0.99983 0.997983
1.02153 1.02363 0.999901 0.99805
1.02083 1.02309 1 0.997788
1.02195 1.02401 1 0.997991
1.02052 1.0228 1 0.997769
1.02226 1.02482 1 0.997502
1.02263 1.02519 1 0.997503
1.02213 1.0248 1 0.997388
1.01814 1.02077 1 0.99742
1.00492 1.00733 1 0.997605
1.01425 1.01696 1 0.997341
1.01901 1.02188 1 0.997196
0.998447 1.00007 1 0.998375
1.00219 1.00444 1 0.997754
1.00687 1.00948 1 0.99741
0.999555 1 1 0.999555
0.99855 1 1 0.99855
1 1.00205 1 0.997951
1 1 1 1
0.999694 1 1 0.999694
0.99873 1 1 0.99873
1 1 1 1
0.999814 1 1 0.999814
1 1 1 1
1.00154 1.00361 1 0.997936
0.998726 1.00043 1 0.998301
0.998489 1 1 0.998487
0.998677 1 1 0.998677
0.998748 1 1.00002 0.998728
0.999177 1 1 0.999177
0.998855 1 1.00001 0.998849
0.999367 1 1 0.999367
0.999946 1 1 0.999946
0.999504 1 1 0.999504
0.999969 1 1 0.999969
1 1 1 1
1 1 1 1
0.999981 1 1 0.999981
1 1 1 1
0.95978 0.983882 0.982069 0.993314
0.947797 0.98345 0.980022 0.983394
0.846885 0.90748 0.952611 0.979652
1.00876 1.01116 1.00007 0.997554
0.999742 1 1.00122 0.998522
0.998627 1.00031 1 0.998315
0.99833 1 1 0.99833
1.00205 1.00407 1.00012 0.997865
1.00043 1.00222 1 0.998211
0.998087 1 1 0.998087
0.999017 1.00008 1.00018 0.998759
0.998691 1.00069 0.999806 0.9982
0.996924 1.00194 0.996877 0.99811
1.00137 1.00388 1 0.997507
1.00275 1.00588 0.99934 0.997551
0.998996 1.00195 0.999516 0.99753
0.997865 1.00134 0.998305 0.998225
0.993846 1.00618 0.989106 0.998621
0.957487 0.985648 0.979307 0.991955
0.950863 0.978041 0.987761 0.984258
0.957538 0.980104 0.983468 0.993399
0.996797 1.00581 0.992508 0.998518
0.998882 1.0002 1.00038 0.998305
0.995988 1.00668 0.991778 0.997579
0.956166 0.972408 0.989005 0.994228
0.935335 0.976188 0.973901 0.983827
0.983205 1.00208 0.98292 0.998217
0.97789 0.99451 0.989358 0.993865
0.997259 1.02498 0.974871 0.998031
1.0043 1.01416 0.992564 0.997697
1.00456 1.03233 0.975049 0.998004
1.02548 1.03152 0.996231 0.997903
1.00393 1.02606 0.980253 0.998144
1.01158 1.038 0.976306 0.998195
1.00929 1.03159 0.980304 0.998035
1.02304 1.03199 0.99303 0.998284
1.0165 1.0263 0.992267 0.99817
1.02167 1.02892 0.995026 0.997912
1.0194 1.02359 0.997701 0.998195
1.02251 1.02624 0.998328 0.998035
1.02339 1.02587 0.999862 0.997719
1.02071 1.02288 0.99983 0.998046
1.02105 1.02331 1 0.997788
1.02396 1.0265 1 0.997521
1.02048 1.02273 1 0.997806
1.02233 1.02486 1 0.997528
1.01998 1.02263 1 0.997404
1.02202 1.0247 1 0.997379
1.01795 1.0206 1 0.997399
1.00801 1.01044 1 0.997592
0.998819 1.00057 1 0.998251
1.00511 1.0075 1 0.99763
1.01385 1.01654 1 0.997359
0.999421 1 1 0.999421
0.998559 1.00018 1 0.998375
1.00307 1.00533 1 0.997754
1 1 1 1
0.999543 1 1 0.999543
0.998549 1 1 0.998549
1 1 1 1
0.999679 1 1 0.999679
1 1 1 1
1.00375 1.00615 1 0.997619
1.00102 1.00308 1 0.997941
0.999203 1.00101 1 0.998198
0.998321 1 1.00001 0.998314
0.998516 1 1.00002 0.998493
0.999158 1 1.0002 0.998962
0.998753 1 1.00005 0.998704
0.999177 1 1 0.999177
0.999901 1 1 0.999901
0.999369 1 1 0.999369
0.999953 1 1 0.999953
1 1 1 1
0.999972 1 1 0.999972
1 1 1 1
1 1 1 1
0.996437 1.01056 0.987442 0.998569
0.953969 0.981689 0.980102 0.991492
0.945533 0.975483 0.98403 0.985028
1.0072 1.00942 1.00001 0.997788
1.01457 1.0172 1 0.997407
1.00737 1.00966 1.00013 0.997597
0.998296 1 1 0.998296
1.00162 1.00353 1.00024 0.997853
1.00125 1.0031 1 0.998157
1.00935 1.01181 1 0.997563
0.998684 1.00087 0.999576 0.998238
0.995057 1.0008 0.99618 0.998074
1.00218 1.00482 0.999796 0.997572
1.01161 1.01451 0.999883 0.997264
1.01009 1.01843 0.993937 0.99786
1.00311 1.00641 0.999201 0.997524
0.999686 1.00262 0.999585 0.997483
0.998111 1.00843 0.990999 0.998755
0.960571 0.986298 0.982889 0.99087
0.997111 1.00698 0.991264 0.998929
1.01488 1.02448 0.992145 0.99848
0.995033 1.00539 0.99201 0.997668
0.95665 0.977914 0.985699 0.992448
0.999597 1.0263 0.975862 0.998074
1.00251 1.01318 0.9916 0.997854
1.00398 1.03251 0.974245 0.998076
1.027 1.03355 0.995738 0.997911
1.02255 1.03731 0.987836 0.997908
1.03979 1.04717 0.99492 0.998021
1.01445 1.03987 0.977323 0.998192
1.01115 1.03138 0.982309 0.998038
1.02471 1.03575 0.991507 0.997817
1.01687 1.02644 0.992499 0.998167
1.02187 1.02845 0.995685 0.997909
1.02707 1.03078 0.998717 0.997679
1.02225 1.02576 0.998533 0.998048
1.02376 1.02619 0.99992 0.997717
1.02656 1.02916 1 0.997473
1.02126 1.02352 1 0.997788
1.02379 1.02633 1 0.997521
1.02237 1.02507 1 0.997366
1.02241 1.02492 1 0.997553
1.01975 1.0224 1 0.997412
1.00965 1.01214 1 0.99754
1.01779 1.02046 1 0.997378
1.00785 1.0103 1 0.997581
0.999569 1.00139 1 0.998177
0.999344 1 1 0.999344
0.99904 1.00079 1 0.99825
1.00535 1.00771 1 0.997655
1 1 1 1
0.99941 1 1 0.99941
0.998675 1.0003 1 0.998374
1 1 1 1
0.99953 1 1 0.99953
1 1 1 1
1.0077 1.01032 1 0.997404
1.00393 1.00635 1 0.997593
1.00139 1.00349 1 0.997903
1.00048 1.00254 1 0.997947
0.998943 1.00074 1 0.998203
0.998779 1 1.00005 0.998726
0.998509 1 1.00001 0.998499
0.999176 1 1.00021 0.998963
0.999812 1 1.00001 0.999804
0.999177 1 1 0.999177
0.999915 1 1 0.999915
1 1 1 1
0.999959 1 1 0.999959
1 1 1 1
1 1 1 1
1.00917 1.02415 0.987027 0.998321
0.993736 1.00952 0.986187 0.998152
0.952116 0.982635 0.976471 0.992289
1.01639 1.01894 1 0.997491
1.00759 1.00965 1 0.997953
1.02619 1.02893 1 0.997344
1.01499 1.01764 1 0.997393
1.00614 1.00833 1.00018 0.997643
1.02322 1.02604 1 0.997252
1.00213 1.00404 1 0.998103
1.00824 1.01076 1 0.997505
1.02809 1.03288 0.997908 0.997448
1.00289 1.00564 0.999629 0.997637
1.01281 1.01569 0.999941 0.997229
1.00988 1.01815 0.993992 0.997878
1.00296 1.0061 0.999391 0.997494
1.00224 1.0103 0.993121 0.998889
1.03118 1.0421 0.991411 0.998091
1.01485 1.02449 0.992099 0.998485
0.995259 1.00409 0.993438 0.997752
1.0036 1.03219 0.9741 0.998149
1.02745 1.03477 0.994987 0.99792
1.02092 1.03744 0.986123 0.997924
1.03987 1.04814 0.994073 0.998022
1.03559 1.04585 0.992261 0.997919
1.01272 1.03091 0.984279 0.998041
1.02455 1.03529 0.991787 0.997826
1.03007 1.03701 0.995607 0.997692
1.02202 1.02799 0.996279 0.997906
1.02669 1.03013 0.99899 0.997661
1.02883 1.03148 1 0.997423
1.02421 1.02658 0.999973 0.997715
1.02634 1.02894 1 0.997472
1.0255 1.02827 1 0.997306
1.02363 1.02617 1 0.997522
1.02233 1.02502 1 0.997368
1.01163 1.01421 1 0.997456
1.01954 1.02217 1 0.997419
1.00978 1.01227 1 0.997543
1.00023 1.00213 1 0.998101
1.00768 1.01013 1 0.997571
0.999758 1.00159 1 0.998175
0.999423 1 1 0.999423
0.999817 1 1 0.999817
0.999383 1 1 0.999383
0.999254 1.00101 1 0.998249
1 1 1 1
0.999398 1 1 0.999398
1 1 1 1
1.03274 1.03543 1 0.997394
1.01834 1.02101 1 0.997383
1.00872 1.01136 1 0.997391
1.0046 1.0069 1 0.997718
1.00408 1.00652 1 0.997567
1.00062 1.00272 1 0.997906
0.998545 1.00004 1 0.998506
0.998709 1.0005 1 0.998209
0.998924 1 1.0002 0.998729
0.999645 1 1 0.999645
0.999158 1 1.00019 0.998964
0.999823 1 1 0.999823
1 1 1 1
0.999928 1 1 0.999928
1 1 1 1
1 1 1 1
1.03076 1.04063 0.992655 0.997844
1.0128 1.02769 0.987083 0.998403
0.991382 1.00962 0.984165 0.997738
1.02653 1.02931 1 0.997292
1.01587 1.01836 1 0.997558
1.00778 1.00968 1 0.998116
1.02561 1.02832 1 0.997363
1.01539 1.01806 1 0.997379
1.03452 1.03811 0.999116 0.997427
1.02067 1.02352 1 0.997212
1.00724 1.00982 1 0.997445
1.02751 1.0322 0.998006 0.997441
1.01506 1.01795 0.999971 0.997195
1.01184 1.0204 0.993696 0.997901
1.03701 1.04647 0.992931 0.998011
1.03306 1.04333 0.992036 0.998107
1.01527 1.02455 0.992441 0.998492
1.02015 1.03839 0.984466 0.99794
1.04076 1.04975 0.993408 0.998022
1.03579 1.0467 0.991627 0.997931
1.033 1.04025 0.995264 0.997762
1.02428 1.0347 0.992078 0.997834
1.02963 1.03626 0.995904 0.997682
1.03121 1.0341 0.999769 0.997434
1.02628 1.02944 0.999285 0.997642
1.02956 1.03222 1 0.997423
1.02855 1.03138 1 0.997253
1.02607 1.02867 1 0.99747
1.02561 1.02838 1 0.997306
1.0137 1.01637 1 0.997365
1.02227 1.02497 1 0.997371
1.01188 1.01446 1 0.997458
1.00079 1.00279 1 0.998001
1.00991 1.0124 1 0.997546
1.00039 1.0023 1 0.998099
0.999424 1 1 0.999424
0.999945 1.00178 1 0.998173
0.999419 1 1 0.999419
0.999829 1 1 0.999829
0.999911 1 1 0.999911
0.999425 1 1 0.999425
1 1 1 1
1.03087 1.03366 1 0.997295
1.02407 1.02673 1 0.997413
1.03238 1.03497 1 0.997498
1.00875 1.01118 1 0.997596
1.01992 1.0226 1 0.997374
1.00984 1.01249 1 0.997379
1.00375 1.00604 1 0.997716
0.999255 1.00093 1 0.998326
0.999861 1.00196 1 0.997909
0.99852 1.00001 1 0.998507
0.999479 1 1 0.999479
0.999105 1 1.00037 0.998733
0.999668 1 1 0.999664
1 1 1 1
0.999842 1 1 0.999842
1 1 1 1
1 1 1 1
1.03568 1.04235 0.995856 0.997727
1.0304 1.04019 0.992723 0.997841
1.01479 1.02963 0.987091 0.998478
1.03406 1.03686 0.999948 0.997347
1.02528 1.02807 1 0.997295
1.01551 1.01793 1 0.997625
1.02489 1.02758 1 0.997382
1.03395 1.03757 0.999102 0.997405
1.01809 1.02097 1 0.997172
1.0252 1.02975 0.99814 0.997435
1.03483 1.04204 0.995247 0.997823
1.03637 1.04547 0.993309 0.997973
1.03485 1.04448 0.992637 0.998123
1.0333 1.03872 0.99712 0.997649
1.03576 1.04732 0.991005 0.997943
1.03276 1.04008 0.995206 0.997749
1.03271 1.03597 0.99933 0.997524
1.02924 1.03558 0.996199 0.997672
1.03226 1.03522 0.999703 0.997437
1.02966 1.03252 1 0.99723
1.03029 1.03295 1 0.997424
1.02825 1.03108 1 0.997254
1.01547 1.01822 1 0.997293
1.02568 1.02845 1 0.997307
1.01395 1.01663 1 0.997367
1.00128 1.00339 1 0.997901
1.01211 1.01468 1 0.99746
1.00095 1.00295 1 0.998
0.999401 1 1 0.999401
1.00057 1.00247 1 0.998097
0.999416 1 1 0.999416
0.999832 1 1 0.999832
0.999416 1 1 0.999416
0.999832 1 1 0.999832
1 1 1 1
1.03127 1.03417 1 0.997197
1.02541 1.02821 1 0.997277
1.03165 1.03443 1 0.99731
1.01174 1.01419 1 0.997581
1.02446 1.02711 1 0.997423
1.03212 1.0346 1 0.997602
1.00059 1.00242 1 0.998171
1.00851 1.01095 1 0.99759
1.02159 1.02429 1 0.997365
1.00276 1.00506 1 0.997714
0.99891 1.00058 1 0.998327
0.999366 1 1 0.999366
0.998508 1 1 0.998508
0.999493 1 1 0.999493
1 1 1 1
0.999683 1 1 0.999683
1 1 1 1
1 1 1 1
1.03549 1.03951 0.998544 0.997581
1.03564 1.04275 0.995453 0.997712
1.03083 1.04063 0.992733 0.997837
1.03349 1.03625 0.999981 0.997357
1.02397 1.02675 1 0.997297
1.03337 1.03703 0.999085 0.997383
1.03373 1.03882 0.997441 0.997653
1.03513 1.04208 0.995505 0.997816
1.03577 1.04454 0.993655 0.997935
1.03385 1.03924 0.997135 0.997669
1.0336 1.03679 0.999461 0.997467
1.03251 1.03991 0.995139 0.997736
1.033 1.03623 0.999396 0.997487
1.02947 1.03227 1 0.997285
1.03322 1.03624 0.999638 0.997439
1.02929 1.03214 1 0.997233
1.01676 1.01958 1 0.997238
1.02808 1.03091 1 0.997255
1.01583 1.01859 1 0.997293
1.00165 1.00384 1 0.997823
1.01429 1.01697 1 0.997368
1.00141 1.00352 1 0.9979
0.999354 1 1 0.999354
1.00112 1.00313 1 0.997998
0.999389 1 1 0.999389
0.999818 1 1 0.999818
0.999411 1 1 0.999411
0.999841 1 1 0.999841
0.999832 1 1 0.999832
1.03312 1.03581 1 0.997399
1.02756 1.0305 1 0.99715
1.0318 1.03468 1 0.997215
1.01431 1.01692 1 0.997438
1.02501 1.02781 1 0.997277
1.03238 1.03514 1 0.997325
1.00134 1.00329 1 0.998057
1.0118 1.0143 1 0.997536
1.0247 1.02734 1 0.997432
0.999312 1 1 0.999312
1.00019 1.00202 1 0.998174
1.00837 1.01081 1 0.997584
0.998575 1.00025 1 0.998329
0.999376 1 1 0.999376
1 1 1 1
0.999506 1 1 0.999506
1 1 1 1
1 1 1 1
1.03273 1.03641 0.998894 0.997552
1.03457 1.03893 0.99823 0.997577
1.03555 1.04308 0.995074 0.997697
1.03287 1.0356 1 0.997367
1.03306 1.036 0.999727 0.997429
1.03449 1.03964 0.997381 0.997663
1.0354 1.04205 0.995795 0.997809
1.03442 1.03979 0.997137 0.997689
1.03293 1.03631 0.999266 0.997478
1.02958 1.03237 1 0.997294
1.0334 1.03662 0.999449 0.997451
1.02925 1.03208 1 0.997261
1.01754 1.02037 1 0.997223
1.02891 1.03176 1 0.997236
1.01698 1.01979 1 0.99724
1.00178 1.00403 1 0.997757
1.01604 1.01879 1 0.997294
1.00169 1.00387 1 0.997823
0.999203 1 1 0.999203
1.00151 1.00362 1 0.9979
0.999297 1 1 0.999297
1 1 1 1
0.999379 1 1 0.999379
0.999831 1 1 0.999831
0.999846 1 1 0.999846
1.03187 1.03449 1 0.997467
1.02867 1.03153 1 0.997229
1.03268 1.03538 1 0.997394
1.01674 1.01953 1 0.997259
1.02749 1.03041 1 0.997172
1.03241 1.03527 1 0.997233
1.00193 1.00407 1 0.997868
1.01444 1.01704 1 0.997437
1.02469 1.02748 1 0.997278
0.999292 1 1 0.999292
1.00115 1.00314 1 0.998014
1.01187 1.01441 1 0.997491
1 1 1 1
0.999322 1 1 0.999322
0.999742 1.00157 1 0.998177
0.999387 1 1 0.999387
1 1 1 1
1 1 1 1
1.03151 1.03425 0.999908 0.997442
1.0333 1.03695 0.99892 0.997559
1.03365 1.03833 0.997913 0.997573
1.02968 1.03253 1 0.997239
1.03213 1.03515 0.999645 0.997439
1.03519 1.04039 0.997321 0.997673
1.03228 1.03582 0.999091 0.997489
1.02958 1.03238 1 0.997295
1.01687 1.01964 1 0.997281
1.02894 1.03179 1 0.997237
1.01748 1.02029 1 0.997249
1.00181 1.00419 1 0.997629
1.01727 1.02009 1 0.997242
1.00185 1.0041 1 0.997757
0.999152 1 1 0.999152
1.00178 1.00397 1 0.997823
0.9992 1 1 0.9992
1 1 1 1
0.999232 1 1 0.999232
0.999902 1 1 0.999902
0.999842 1 1 0.999842
1.02946 1.03215 0.999971 0.997424
1.02881 1.03162 1 0.997279
1.03173 1.03435 1 0.997471
1.01766 1.02046 1 0.997262
1.02924 1.03211 1 0.997219
1.03227 1.03497 1 0.99739
1.00255 1.0048 1 0.997763
1.01667 1.01942 1 0.997301
1.02738 1.03027 1 0.997193
0.999265 1 1 0.999265
1.0019 1.00405 1 0.997854
1.01455 1.01716 1 0.997437
1 1 1 1
0.999301 1 1 0.999301
1.00098 1.00301 1 0.997971
1 1 1 1
0.999333 1 1 0.999333
1 1 1 1
1.03018 1.03298 1 0.997285
1.03084 1.03363 0.999876 0.997431
1.03394 1.03756 0.998941 0.997566
1.01587 1.01865 1 0.99727
1.02975 1.03258 1 0.997257
1.0313 1.0344 0.999554 0.997448
1.02958 1.03237 1 0.997296
1.01692 1.0197 1 0.99728
1.00129 1.00371 1 0.997595
1.01744 1.02022 1 0.997275
1.0018 1.00415 1 0.997664
0.999089 1 1 0.999089
1.00186 1.00411 1 0.997758
0.999148 1 1 0.999148
1 1 1 1
0.999197 1 1 0.999197
1 1 1 1
0.999823 1 1 0.999823
1.02916 1.03194 1 0.997302
1.02929 1.03194 0.999995 0.997441
1.01721 1.01998 1 0.997277
1.02899 1.0318 1 0.997278
1.03158 1.03419 1 0.997476
1.00237 1.00459 1 0.997787
1.01742 1.02022 1 0.997258
1.02978 1.03266 1 0.997209
0.999218 1 1 0.999218
1.00263 1.00485 1 0.997792
1.01659 1.01929 1 0.997343
1 1 1 1
0.999271 1 1 0.999271
1.00186 1.00403 1 0.997839
1 1 1 1
0.999309 1 1 0.999309
1 1 1 1
1.01587 1.01861 1 0.997306
1.03005 1.03286 1 0.997276
1.03011 1.03291 0.999863 0.99742
1.00043 1.00284 1 0.997599
1.01591 1.01869 1 0.99727
1.0298 1.03261 1 0.997276
1.01698 1.01975 1 0.99728
1.00129 1.0037 1 0.997597
0.999043 1 1 0.999043
1.00181 1.00412 1 0.997699
0.999085 1 1 0.999085
1 1 1 1
0.999145 1 1 0.999145
1 1 1 1
1 1 1 1
1.01654 1.01932 1 0.997277
1.02888 1.03164 1 0.997321
1.02909 1.03171 1 0.997457
1.0017 1.00394 1 0.997767
1.01712 1.0199 1 0.997274
1.02915 1.03196 1 0.997277
0.999168 1 1 0.999168
1.00251 1.00474 1 0.997785
1.01722 1.02002 1 0.997255
1 1 1 1
0.999222 1 1 0.999222
1.00272 1.0049 1 0.997822
1 1 1 1
0.999277 1 1 0.999277
1 1 1 1
1.00014 1.00245 1 0.99769
1.01578 1.01856 1 0.99727
1.02994 1.03276 1 0.997268
0.999044 1 1 0.999044
1.00047 1.00288 1 0.997598
1.01596 1.01874 1 0.99727
1.00129 1.0037 1 0.997599
0.999043 1 1 0.999043
1 1 1 1
0.999082 1 1 0.999082
1 1 1 1
1 1 1 1
1.00075 1.00302 1 0.997734
1.01626 1.01903 1 0.997278
1.02864 1.03138 1 0.99734
0.999258 1 1 0.999258
1.00193 1.00417 1 0.997765
1.01703 1.01981 1 0.997271
1 1 1 1
0.99917 1 1 0.99917
1.00264 1.00487 1 0.997783
1 1 1 1
0.999226 1 1 0.999226
1 1 1 1
0.999043 1 1 0.999043
1.00026 1.00261 1 0.997659
1.0157 1.01852 1 0.997233
1 1 1 1
0.999043 1 1 0.999043
1.0005 1.00291 1 0.997596
0.999041 1 1 0.999041
1 1 1 1
1 1 1 1
0.999211 1 1 0.999211
1.00104 1.00331 1 0.997734
1.01594 1.01871 1 0.997279
1 1 1 1
0.99913 1 1 0.99913
1.00217 1.00442 1 0.997763
1 1 1 1
0.999171 1 1 0.999171
1 1 1 1
0.999744 1 1 0.999744
0.999129 1 1 0.999129
1.00038 1.00275 1 0.997627
1 1 1 1
0.999044 1 1 0.999044
1 1 1 1
0.999761 1 1 0.999761
0.999156 1 1 0.999156
1.00134 1.00362 1 0.997734
0.999883 1 1 0.999883
0.999129 1 1 0.999129
1 1 1 1
1 1 1 1
0.999066 1 1 0.999066
1 1 1 1
0.999877 1 1 0.999877
0.999096 1 1 0.999096
1 1 1 1
1 1 1 1
1 1 1 1

VECTORS lamdaE float
1.00045 1.00013 0.994776
1.00022 1.00049 0.997487
1.0001 1.00034 0.994983
1.0007 0.999951 0.99459
1.00055 0.999948 0.994823
1.00041 1.00033 0.994603
1.00173 1.00047 0.991899
1.00025 1.0004 0.99749
1.00014 1.00021 0.997817
0.999718 1.00078 0.997847
1.00024 1.00041 0.994768
1.00154 1.00124 0.99084
1.00048 1 0.99474
1.00021 0.999996 0.994967
0.999786 1.00057 0.995163
1.00044 0.99993 0.994843
1.00003 1.00066 0.994786
1.00026 1.00002 0.995046
1.00192 1.0003 0.991808
1.0005 1.00001 0.997432
1.0007 1.00001 0.994509
1.00065 0.999893 0.994741
1.00205 1.00002 0.991833
1.0019 1.00012 0.991968
1.00041 1.00035 0.994531
1.00153 1.00101 0.991701
1.00446 1.00028 0.987474
1.00025 1.00034 0.997507
1.00031 1.00009 0.996283
0.999977 1.00058 0.996289
1.00024 1.00022 0.997576
1.00143 1.00138 0.990843
1.00059 0.999843 0.994679
1.00031 1.00035 0.99475
1.00218 1.00014 0.992217
0.999703 0.999788 0.998215
1.00185 1.00084 0.992167
1.00122 1.0017 0.990907
1.00364 1.00161 0.986822
0.999786 0.998609 0.998601
1.0005 1 0.997418
1.00039 1.00001 0.996184
1.00045 0.999991 0.997444
1.00013 1.00004 0.995058
1.00212 1 0.991074
1.00031 0.999965 0.997731
1.00233 1.00009 0.992058
1.00019 0.999869 0.995097
0.999988 1.00007 0.995255
0.999657 1.00104 0.994953
1.00209 1.00011 0.991731
1.00035 1.00003 0.996219
1.00043 1.00002 0.994769
1.00001 1.00075 0.9947
1.00039 0.999877 0.99498
1.00215 0.999982 0.991724
1.00175 1.00077 0.991616
1.00204 1.00002 0.991875
1.00443 1.00031 0.987476
1.00043 1 0.997456
1.00062 1.00003 0.994596
1.00194 1 0.992619
1.00205 1.00005 0.991798
1.00201 0.999989 0.991928
1.00452 1 0.987557
1.00451 1.00001 0.987416
1.00022 0.999986 0.994955
1.00105 1.00179 0.991655
1.00429 1.00067 0.987383
1.00521 1.00018 0.985531
1.00051 1.00012 0.997473
1.00013 1.00002 0.997756
1.00024 1.00042 0.997489
1.00136 1.00148 0.990837
1.00063 0.999973 0.997427
1.00039 1.00031 0.997489
1.00207 1.0001 0.990978
0.99985 0.999805 0.996853
1.00163 1.00091 0.990943
1.00111 1.00178 0.991721
1.00371 1.0015 0.986816
0.999971 0.999123 0.99824
0.999828 1.00074 0.994383
1.00226 0.999981 0.990829
1.002 1.00036 0.990938
1.00456 1.00021 0.986637
1.00067 1.00182 0.993158
1.00406 1.00092 0.986805
1.00274 1.00314 0.986873
1.00483 1.00133 0.985033
0.999675 0.998119 0.998885
0.999684 0.998511 0.998721
1.00061 0.999992 0.997384
1.00053 1 0.997411
1.00048 0.999994 0.997444
1.00034 1.00001 0.996239
1.00216 0.99999 0.991719
1.00045 0.999974 0.996181
1.00226 1.0001 0.991448
1.00047 0.999992 0.997454
1.00202 0.999928 0.991278
1.00227 1.00008 0.992175
1.00454 0.999643 0.987273
1.00231 1.00001 0.992114
1.00461 0.99986 0.986947
1.00046 1.00001 0.994779
1.00016 1.00001 0.995033
0.999619 1.00118 0.994873
1.00014 0.999837 0.995215
1.00226 0.999983 0.991614
1.00217 0.999931 0.991789
1.00196 1.00049 0.991538
1.00441 1.00034 0.987478
1.00047 0.999995 0.997454
1.00035 1.00003 0.994856
1.00208 0.999977 0.991527
1.00215 1.00003 0.991679
1.00007 1.00033 0.996276
1.00134 1.0016 0.991798
1.00212 0.999935 0.991829
1.00454 0.999971 0.987506
1.00426 1.00071 0.987382
1.00451 1.00009 0.987461
1.0052 1.00018 0.985555
1.00201 0.999962 0.991292
1.00197 1.00002 0.991916
1.00447 0.999613 0.987882
1.00452 0.999863 0.987543
1.00453 0.999914 0.987462
1.00523 0.999518 0.986435
0.99986 0.999802 0.998067
1.00522 0.999895 0.985801
1.00057 1.00238 0.991194
1.00373 1.00142 0.986842
1.00517 1.00055 0.985289
1.00522 0.999659 0.986007
0.999935 1.00189 0.992817
1.00038 1.00475 0.989354
1.00061 1 0.997447
1.00035 1.00031 0.99749
1.00208 1.00008 0.990971
0.999947 0.999497 0.998134
1.00083 1.00208 0.991106
1.00159 1.00093 0.990958
1.00378 1.0014 0.986811
0.999854 0.999045 0.998378
0.999793 1.00066 0.994438
1.00227 1.00001 0.991503
1.002 1.00039 0.991581
1.00455 1.00022 0.986627
1.0004 1.00191 0.99214
1.00407 1.00089 0.986809
1.00279 1.00308 0.98686
1.00486 1.00124 0.985003
1.00007 1.00146 0.993248
0.999798 0.999904 0.995258
1.00043 1.00395 0.990264
1.00461 1.00008 0.986684
1.00439 1.00047 0.98666
1.00521 1.00006 0.985666
1.00172 1.0043 0.987525
1.00497 1.00075 0.985277
1.00435 1.00239 0.984948
1.00511 1.00123 0.984661
0.999673 0.997768 0.999038
0.999635 0.998043 0.99895
0.999617 0.998386 0.998823
0.999857 1.00127 0.993612
0.999739 0.999368 0.998332
1.00065 0.999975 0.997401
1.00055 1 0.99739
1.00216 1.00012 0.990854
1.00207 0.999991 0.991136
1.00045 0.999996 0.997443
1.00044 0.999994 0.997452
1.00201 0.999936 0.991274
1.0022 1.00007 0.991563
1.00453 0.999642 0.987274
1.0022 1.00004 0.990831
1.0046 0.999858 0.986941
1.00199 0.999931 0.991317
1.0045 0.999583 0.98739
1.00458 0.999735 0.987116
1.00524 0.998654 0.987153
1.00463 0.999972 0.986792
1.00524 0.999131 0.986655
1.00044 0.999993 0.997449
1.00008 1.00005 0.995117
1.00209 0.999972 0.990544
1.00226 1.00003 0.991557
0.999589 1.00071 0.997916
1.00171 1.00129 0.99194
1.00223 0.999906 0.991731
1.00455 0.999925 0.987456
1.0045 1.00016 0.987507
1.00423 1.00077 0.987381
1.00518 1.00018 0.985579
1.00199 0.999948 0.991294
1.00209 1.00002 0.991792
1.0045 0.999595 0.987562
1.00454 0.999916 0.987553
0.99993 0.99988 0.997963
1.00081 1.00212 0.991866
1.00363 1.00168 0.98709
1.00453 0.999952 0.987435
1.00523 0.999354 0.986522
1.00512 1.00055 0.985306
1.00522 0.999938 0.98589
1.00522 0.999656 0.986034
1.00001 1.00189 0.992798
1.00048 1.00454 0.989371
1.00447 0.999612 0.987419
1.00449 0.999763 0.987712
1.00524 0.998894 0.987049
1.00522 0.999006 0.986824
1.00523 0.999545 0.986352
1.00523 0.998162 0.987627
1.00021 1.00227 0.991953
1.00521 0.999013 0.986686
1.00255 1.00322 0.987061
1.005 1.00097 0.984981
1.00522 1.00047 0.985353
1.00517 0.998563 0.987281
1.00082 1.00487 0.988491
1.00028 1.00401 0.990265
1.00129 1.00471 0.988053
1.00218 0.999998 0.990903
0.999732 0.998938 0.998519
0.99977 1.00055 0.994492
1.00187 1.00042 0.990988
1.00455 1.00022 0.986617
1.0003 1.00202 0.992059
1.0028 1.00301 0.986846
1.00409 1.00086 0.986813
1.00488 1.00114 0.984972
1.00001 1.00143 0.993278
0.999805 0.999771 0.9953
1.00024 1.00407 0.990255
1.00461 1.00009 0.98667
1.0044 1.00046 0.986655
1.00522 1.00007 0.985647
1.00167 1.00436 0.987542
1.00502 1.00077 0.985246
1.00432 1.00234 0.984941
1.00514 1.00111 0.984648
0.999892 0.999209 0.995743
1.00104 1.00432 0.988722
1.00016 1.00285 0.99169
1.00077 1.00478 0.988892
1.00523 0.999744 0.985979
1.00515 1.00039 0.985405
1.0052 0.999303 0.986424
1.00307 1.00378 0.98588
1.0052 1.00036 0.985458
1.00485 1.00189 0.984419
1.00526 1.00087 0.984659
1.00028 1.00062 0.993697
1.00014 0.998491 0.996015
0.999733 0.997516 0.999092
0.99966 0.997723 0.999058
0.999607 0.99797 0.998998
0.99987 1.00059 0.994314
0.999689 0.998907 0.998545
0.999893 1.00132 0.993584
0.999828 0.999433 0.998238
1.0022 1.00007 0.990827
1.00213 1.00005 0.990974
1.00459 0.999858 0.986937
1.00452 0.999644 0.987275
1.00203 0.999947 0.991273
1.00048 0.999991 0.997448
1.002 0.999932 0.991318
1.00449 0.99959 0.987391
1.00457 0.999741 0.987114
1.00523 0.998664 0.987151
1.00462 0.999981 0.986778
1.00524 0.999133 0.98664
1.00447 0.999589 0.987432
1.00523 0.998536 0.987279
1.00524 0.998865 0.986935
1.00523 0.996832 0.989026
1.00525 0.999422 0.986322
1.00521 0.997673 0.988164
1.00201 0.999938 0.991298
1.00221 1 0.991667
1.00452 0.999563 0.987245
1.00456 0.99996 0.987563
1.00002 0.999995 0.997848
1.00108 1.00196 0.992394
1.00362 1.00187 0.987336
1.00454 0.999977 0.987407
1.00522 0.999185 0.986609
1.00521 0.999983 0.985979
1.00508 1.00055 0.985324
1.00522 0.999651 0.986061
1.00009 1.00187 0.992779
1.00058 1.00444 0.989387
1.00447 0.999539 0.987409
1.00452 0.999746 0.987694
1.00524 0.998751 0.987221
1.00522 0.999176 0.986707
1.0003 1.00223 0.991939
1.00262 1.00318 0.987068
1.00496 1.00103 0.98504
1.00523 0.99965 0.986261
1.00522 0.997939 0.987879
1.00522 1.00043 0.9854
1.00521 0.999008 0.986704
1.00518 0.998507 0.987271
1.00092 1.00472 0.988489
1.00113 1.00464 0.988073
1.00033 1.00395 0.990267
1.00523 0.998737 0.98722
1.00523 0.99886 0.98713
1.00525 0.99708 0.988698
1.0052 0.99762 0.988199
1.00522 0.998245 0.987429
1.00517 0.996394 0.989358
1.00156 1.00436 0.987716
1.00518 0.997541 0.988088
1.00419 1.00228 0.985211
1.00519 1.00123 0.984431
1.00517 0.999834 0.98598
1.00513 0.99759 0.988234
1.00019 1.00325 0.99121
1.00181 1.00411 0.987528
1.0006 1.00507 0.988526
1.00218 1.00377 0.98764
1.0046 1.0001 0.986655
0.999815 0.999663 0.995341
0.99993 1.00143 0.993308
1.0001 1.00424 0.990248
1.00441 1.00045 0.986649
1.00523 1.00007 0.985629
1.00161 1.00441 0.98756
1.00433 1.00233 0.984933
1.00508 1.0008 0.985213
1.00516 1.00101 0.984634
0.999912 0.999118 0.99577
1.00091 1.00451 0.988737
1.0001 1.00289 0.991714
1.00062 1.00489 0.988859
1.00523 0.999755 0.985964
1.00518 1.00038 0.985383
1.0052 0.999302 0.986413
1.00304 1.00369 0.985909
1.00521 1.00042 0.985403
1.00494 1.0017 0.98443
1.00527 1.00087 0.984712
1.00005 0.998713 0.995944
1.00026 1.00169 0.992685
1.00172 1.0044 0.987588
1.00033 1.00459 0.98998
1.00139 1.00401 0.988623
1.00521 0.998776 0.986974
1.0052 0.999813 0.985876
1.00515 0.9984 0.987278
1.00396 1.00253 0.985403
1.00519 0.999971 0.985815
1.00465 1.00184 0.984379
1.0003 1.00069 0.993583
1.0003 1.00201 0.992312
1.0002 1.00067 0.993788
1.00026 1.00063 0.993694
1.00015 0.998316 0.996665
1.00013 0.998473 0.996322
0.999892 0.997322 0.997912
0.999739 0.997478 0.999095
0.999654 0.997672 0.999075
0.99983 0.999962 0.995022
0.999679 0.998475 0.998752
0.999877 1.00066 0.994291
0.99975 0.998996 0.998475
0.999941 1.00136 0.993556
0.999901 0.999495 0.998141
1.00461 0.999987 0.986765
1.00456 0.999744 0.987111
1.00524 0.999151 0.986625
1.00522 0.998673 0.987149
1.00448 0.999597 0.987392
1.00199 0.999931 0.991317
1.00447 0.999589 0.987433
1.00523 0.99854 0.987279
1.00523 0.998881 0.986924
1.00522 0.996661 0.989181
1.00524 0.999431 0.986309
1.00521 0.997687 0.988144
1.00523 0.99852 0.987301
1.00525 0.996361 0.989479
1.0052 0.997154 0.988713
1.00514 0.995404 0.990505
1.00522 0.998245 0.987548
1.0052 0.995941 0.989651
1.00448 0.999468 0.987399
1.00454 0.999743 0.987676
1.00524 0.998622 0.987393
1.00522 0.999349 0.986591
1.00042 1.00219 0.991929
1.00256 1.0032 0.987076
1.00491 1.0011 0.985098
1.00523 0.999755 0.98617
1.00522 0.997715 0.988131
1.00521 0.999003 0.986722
1.00522 1.00038 0.985447
1.00518 0.998451 0.98726
1.00103 1.00453 0.988486
1.00109 1.0046 0.988093
1.00038 1.00383 0.990272
1.00523 0.998668 0.987237
1.00523 0.998859 0.987122
1.00525 0.996816 0.989001
1.0052 0.997734 0.988084
1.00158 1.00437 0.987692
1.00423 1.00227 0.985216
1.00517 1.00131 0.98444
1.00522 0.99847 0.987212
1.00518 0.996181 0.989559
1.00518 0.99982 0.985911
1.00517 0.997561 0.988096
1.00514 0.997462 0.988356
1.00195 1.00404 0.987511
1.00208 1.00382 0.987605
1.00024 1.00316 0.991203
1.0005 1.00503 0.988635
1.00526 0.996669 0.989154
1.00521 0.997326 0.98857
1.00518 0.995522 0.990268
1.00518 0.995586 0.990083
1.00517 0.996727 0.988919
1.00517 0.995574 0.990159
1.00309 1.00322 0.986271
1.00515 0.996142 0.989325
1.00493 1.00212 0.984183
1.00515 1.00127 0.984434
1.00516 0.999288 0.986294
1.00516 0.997278 0.988499
1.00014 1.00234 0.99215
1.00023 1.0049 0.989353
1.00278 1.00322 0.986793
1.00089 1.00505 0.98825
1.00254 1.00307 0.987763
0.999924 0.99904 0.995795
1.00523 0.999764 0.985948
1.00005 1.00288 0.991738
1.00075 1.00473 0.988749
1.00048 1.00495 0.988824
1.0052 1.00038 0.985362
1.00519 0.999301 0.986402
1.00314 1.00343 0.985938
1.00507 1.00152 0.984443
1.00522 1.00047 0.985349
1.00528 1.00088 0.984766
1.00006 0.998688 0.995958
1.00021 1.00172 0.992715
1.00173 1.00432 0.987603
1.00014 1.00458 0.989967
1.00119 1.00397 0.98865
1.0052 0.998769 0.986962
1.0052 0.999807 0.985861
1.00515 0.998371 0.987251
1.004 1.00248 0.985433
1.0052 1 0.985677
1.00492 1.00178 0.98436
1.00032 1.00099 0.993303
1.00022 1.00343 0.99122
1.00266 1.00291 0.987439
1.00046 1.00499 0.989433
1.00175 1.00277 0.989206
1.00516 0.997685 0.988012
1.00515 0.999095 0.986523
1.00515 0.997645 0.987651
1.00368 1.0018 0.98619
1.00495 1.00092 0.984868
1.00031 1.00068 0.99358
1.0003 1.00195 0.992269
1.00021 1.0021 0.99227
1.00035 1.0026 0.991798
1.00022 1.00213 0.992332
1.00012 1.00074 0.993836
1.00019 1.00066 0.993789
1.00016 0.998276 0.996697
1.00026 1.00066 0.993691
1.00016 0.998345 0.996669
0.999984 0.997103 0.997943
1.00012 0.998472 0.996623
0.999852 0.997285 0.998511
0.999748 0.997422 0.999098
0.999873 0.999253 0.995663
0.999833 1.00002 0.994992
0.999658 0.998022 0.998948
0.99972 0.998553 0.998674
0.999882 1.00074 0.994268
0.999822 0.999048 0.998394
1.00524 0.99944 0.986297
1.00523 0.998882 0.986915
1.00522 0.997695 0.988123
1.00522 0.996486 0.989335
1.00523 0.998544 0.987278
1.00447 0.999589 0.987434
1.00523 0.998522 0.987302
1.00526 0.996349 0.989489
1.0052 0.997159 0.988703
1.00515 0.995232 0.990632
1.00522 0.998238 0.987527
1.00519 0.995885 0.989752
1.00526 0.996349 0.989485
1.00516 0.995269 0.990627
1.00517 0.995312 0.990446
1.00515 0.994947 0.9909
1.00518 0.996846 0.988858
1.00519 0.99519 0.990353
1.00523 0.998595 0.987253
1.00523 0.998865 0.987115
1.00525 0.996542 0.989304
1.00519 0.997844 0.987969
1.00163 1.00435 0.987669
1.00429 1.00224 0.98522
1.00512 1.00132 0.984448
1.00522 0.998696 0.986995
1.00519 0.995974 0.989759
1.00517 0.99758 0.988105
1.00518 0.999816 0.985843
1.00515 0.997334 0.988477
1.00193 1.00407 0.987494
1.00182 1.00387 0.987569
1.0003 1.00313 0.991197
1.0004 1.00499 0.988745
1.00526 0.996677 0.98915
1.00521 0.99743 0.988434
1.00518 0.995314 0.990511
1.00519 0.995621 0.990031
1.00292 1.00358 0.98624
1.00479 1.00209 0.984233
1.00515 1.00124 0.984399
1.00516 0.99694 0.988711
1.00516 0.995368 0.990318
1.00514 0.999342 0.986266
1.00516 0.996163 0.989321
1.00515 0.996994 0.988666
1.00292 1.00308 0.986778
1.00246 1.00301 0.98785
1.00088 1.00505 0.988227
1.00014 1.00234 0.992086
1.00014 1.0048 0.989479
1.00518 0.995081 0.99083
1.00515 0.995343 0.990528
1.0052 0.995024 0.990508
1.00516 0.995497 0.990025
1.00394 1.00287 0.9853
1.00517 0.995737 0.989868
1.00509 1.00223 0.983588
1.00508 1.00117 0.984523
1.00512 0.99903 0.986452
1.00003 1.00146 0.993017
1.00007 1.00428 0.99042
1.00056 1.00504 0.988982
1.0033 1.00258 0.986749
1.00115 1.00482 0.987709
1.00282 1.00216 0.987538
1.00006 0.99867 0.995974
1.00017 1.00173 0.992744
1.0052 0.998762 0.98695
0.999947 1.00456 0.989954
1.00159 1.00443 0.98762
1.00101 1.00392 0.988675
1.00521 0.999801 0.985845
1.00515 0.998344 0.987224
1.00399 1.00241 0.985462
1.00516 1.00177 0.984338
1.00522 1.00002 0.985541
1.00029 1.00097 0.993313
1.00008 1.00346 0.991232
1.00268 1.00294 0.987342
1.00026 1.00501 0.989403
1.00166 1.00254 0.989339
1.00517 0.997678 0.987991
1.00515 0.999104 0.986497
1.00514 0.997686 0.98769
1.00385 1.00177 0.98599
1.00498 1.00101 0.984903
1.00027 1.00238 0.992059
0.999762 1.00459 0.990376
1.00324 1.00106 0.988151
1.00046 1.00437 0.989639
1.00237 1.00107 0.989491
1.00515 0.99631 0.989106
1.00514 0.999162 0.986371
1.00513 0.997577 0.987626
1.00413 1.00131 0.985959
1.00481 1.0008 0.985149
1.00031 1.00067 0.993578
1.0003 1.00197 0.992294
1.00011 1.00259 0.991909
1.00014 1.00218 0.992229
1.00017 1.0022 0.992325
1.0002 1.00272 0.991765
1.00013 1.00284 0.991836
1.0001 1.00302 0.991476
1.00012 1.0023 0.992342
1.00006 1.00088 0.99381
1.00012 1.00074 0.993835
1.00014 0.998297 0.996714
1.00018 1.00065 0.99379
1.00017 0.998301 0.996699
1.00004 0.996986 0.997957
1.00016 0.99836 0.996676
0.999972 0.997075 0.99795
0.999808 0.997243 0.999124
0.999925 0.998722 0.996121
0.999859 0.999346 0.995624
0.999676 0.997674 0.999074
0.999837 1.0001 0.994963
0.999692 0.998135 0.998886
0.999768 0.998633 0.998606
1.00522 0.998232 0.987505
1.0052 0.99717 0.988693
1.00518 0.995837 0.989852
1.00517 0.995069 0.99076
1.00526 0.996326 0.989498
1.00523 0.998524 0.987302
1.00526 0.996478 0.989353
1.00516 0.995283 0.990651
1.00518 0.995285 0.990492
1.00515 0.994949 0.990885
1.00518 0.996861 0.988855
1.00518 0.9951 0.99044
1.00517 0.995037 0.9909
1.00512 0.994982 0.990948
1.0052 0.994937 0.9907
1.00519 0.995442 0.99009
1.00526 0.996685 0.989145
1.00521 0.997531 0.988299
1.00517 0.995111 0.990753
1.0052 0.995667 0.989978
1.00288 1.0038 0.986209
1.00472 1.00205 0.984285
1.00516 1.00125 0.984364
1.00516 0.997147 0.988502
1.00515 0.995139 0.990475
1.00517 0.996183 0.989317
1.00513 0.999383 0.986236
1.00515 0.996713 0.988832
1.00304 1.00297 0.986763
1.00245 1.00269 0.987936
1.00083 1.00507 0.988203
1.00017 1.0023 0.992024
1.00013 1.00469 0.989606
1.00519 0.995053 0.990822
1.00515 0.995416 0.990433
1.0052 0.99505 0.990496
1.00378 1.00304 0.985294
1.00489 1.00225 0.983671
1.00506 1.0011 0.984513
1.00516 0.995525 0.990002
1.00514 0.998767 0.986782
1.00516 0.995734 0.989725
1.00006 1.0013 0.993156
1.00346 1.0023 0.986672
1.00253 1.00184 0.988315
1.00133 1.00497 0.987654
1.00055 1.00504 0.989094
1.00008 1.00426 0.990347
1.00514 0.994936 0.990941
1.00517 0.995004 0.990672
1.00518 0.99493 0.990514
1.00514 0.995079 0.990476
1.0045 1.00242 0.98488
1.0051 0.996912 0.98855
1.00496 1.00277 0.983051
1.00499 1.0014 0.984308
1.00012 1.00036 0.994004
1.00004 1.00311 0.991647
1.00029 1.00485 0.989637
1.00106 1.00504 0.988039
1.00362 1.00223 0.986019
1.00251 1.00372 0.986772
1.00027 1.00096 0.993322
0.999964 1.00348 0.991245
1.00517 0.997671 0.98797
1.00004 1.00505 0.989373
1.00273 1.00296 0.987244
1.00133 1.00244 0.989477
1.00515 0.999113 0.98647
1.00514 0.99773 0.987729
1.00399 1.00177 0.985788
1.00505 1.00109 0.984938
1.00021 1.00241 0.992074
0.999868 1.00467 0.990253
1.00341 1.00106 0.988056
1.00023 1.00458 0.989677
1.00224 1.00079 0.989876
1.00515 0.99626 0.989282
1.00513 0.999118 0.986485
1.00513 0.997718 0.987597
1.00418 1.00149 0.985849
1.00488 1.00087 0.984989
0.999853 1.00317 0.991575
0.999756 1.00505 0.989649
1.00364 1.00011 0.988141
1.00131 1.00244 0.989184
1.0052 0.99519 0.990028
1.00511 0.996721 0.989016
1.005 0.999725 0.985834
1.00445 1.00081 0.985415
1.00032 1.00195 0.99232
1.00015 1.0026 0.991916
0.999816 1.00304 0.992251
1.00011 1.00229 0.992317
1.00005 1.00283 0.991733
1.00009 1.00234 0.992331
1.00003 1.00281 0.99193
1.00014 1.00301 0.991502
0.999991 1.00232 0.99256
1.00006 1.00336 0.991345
1.00011 1.00332 0.991185
1.00009 1.00243 0.992248
1.00001 1.00103 0.993714
1.00006 1.00086 0.993808
1.0001 0.998345 0.996725
1.00011 1.00073 0.993835
1.00014 0.998328 0.996715
1.00006 0.996937 0.997965
1.00017 0.998328 0.996703
1.00003 0.996957 0.997963
0.999956 0.997054 0.997952
1.00002 0.998279 0.996409
0.999932 0.998768 0.996083
0.99973 0.997332 0.999156
0.999845 0.99944 0.995583
0.999693 0.997726 0.999041
0.999732 0.998217 0.998801
1.00518 0.996875 0.988851
1.00519 0.99525 0.990539
1.00518 0.995001 0.990528
1.00514 0.994946 0.99087
1.00516 0.995306 0.990675
1.00526 0.996609 0.989222
1.00517 0.995168 0.990757
1.00513 0.99498 0.990961
1.00519 0.994946 0.990694
1.00519 0.995357 0.990179
1.00512 0.994977 0.991006
1.00519 0.99494 0.990781
1.00522 0.994933 0.990543
1.00519 0.995026 0.990814
1.00515 0.995479 0.990338
1.00519 0.995078 0.990483
1.0036 1.0032 0.985286
1.00482 1.00227 0.983749
1.00508 1.00103 0.984503
1.00516 0.995567 0.989979
1.00513 0.995702 0.989583
1.00515 0.998494 0.987113
1.00359 1.0021 0.986591
1.00222 1.00174 0.989089
1.0016 1.00505 0.987599
1.00008 1.00119 0.993296
1.00038 1.00504 0.989205
1.00006 1.00424 0.990274
1.00514 0.994938 0.990957
1.00517 0.99496 0.990682
1.00517 0.994962 0.99053
1.00422 1.00268 0.98486
1.00487 1.00276 0.983032
1.00499 1.00118 0.984638
1.00514 0.995036 0.990425
1.00509 0.996878 0.988482
1.00011 1.00032 0.994173
1.00006 1.0031 0.991649
1.00331 1.00206 0.986459
1.00234 1.00377 0.987345
1.00095 1.00504 0.988279
1.00024 1.00487 0.989613
1.00516 0.994932 0.990851
1.00519 0.99492 0.990513
1.00514 0.994906 0.9906
1.00507 0.995051 0.990261
1.00472 1.00306 0.982986
1.00481 1.00024 0.985726
1.00485 1.00325 0.982925
1.00022 0.999854 0.994567
1.00024 1.00097 0.993467
1.00008 1.00177 0.992776
1.00004 1.00418 0.990532
1.00044 1.00495 0.98894
1.00077 1.00462 0.988199
1.00317 1.00198 0.986584
1.00241 1.00389 0.988033
1.00014 1.00248 0.992089
0.999975 1.00476 0.99013
1.00516 0.996202 0.989458
1.00028 1.00461 0.989711
1.00359 1.0011 0.987962
1.00208 1.00058 0.990257
1.00513 0.999056 0.986601
1.00512 0.997841 0.98757
1.0042 1.00163 0.985743
1.00492 1.0009 0.98483
0.999902 1.00328 0.991451
0.999897 1.00504 0.989697
1.0038 1.00014 0.988203
1.00161 1.00259 0.989298
1.0052 0.995141 0.990133
1.00511 0.996722 0.988841
1.00501 0.999667 0.985871
1.00472 1.00084 0.985246
0.999704 1.00388 0.991153
1.00525 0.994895 0.990304
1.00105 1.00469 0.988863
1.00372 1.00057 0.987649
1.00516 0.995645 0.990083
1.00509 0.998383 0.986117
1.00489 1.00144 0.984698
1.00015 1.00264 0.991922
0.999774 1.00299 0.992206
0.999455 1.00283 0.99311
1.00008 1.00232 0.992322
1.00016 1.00302 0.991529
0.999753 1.00297 0.992023
1.00007 1.00245 0.992233
1.00004 1.00336 0.991219
0.999716 1.00247 0.992682
1.00015 1.00325 0.991347
0.999959 1.00176 0.993461
0.99986 1.00295 0.99209
1.00011 1.00403 0.990584
1.00029 1.00344 0.990854
1.00008 1.00267 0.992012
0.999966 1.00123 0.993589
0.999989 1.00108 0.993705
1.00006 0.998467 0.996698
1.00004 1.00089 0.993805
1.0001 0.998393 0.996721
1.00005 0.996922 0.997981
1.00015 0.998361 0.996717
1.00006 0.996908 0.997968
1.00003 0.996931 0.997965
1.0002 0.999886 0.994597
1.00009 0.998029 0.996555
1.00002 0.998316 0.99639
0.99982 0.997038 0.999206
0.999935 0.998824 0.996046
0.999738 0.997417 0.999135
0.999716 0.997811 0.999009
1.00519 0.995274 0.990268
1.00518 0.994962 0.990687
1.00514 0.99498 0.990975
1.00517 0.995296 0.990615
1.00513 0.994973 0.990998
1.00518 0.994946 0.990796
1.00521 0.994932 0.990505
1.00517 0.994954 0.990851
1.00524 0.994938 0.990597
1.00528 0.994928 0.990954
1.00514 0.99494 0.990973
1.00517 0.994922 0.990691
1.00517 0.994981 0.990546
1.00387 1.0029 0.984844
1.00498 1.00277 0.983023
1.00494 1.00099 0.984967
1.00515 0.994994 0.990374
1.00509 0.996888 0.988415
1.00307 1.00195 0.986905
1.00225 1.00383 0.987918
1.00069 1.00506 0.988519
1.0001 1.00023 0.994342
1.00012 1.00305 0.991652
1.00022 1.00494 0.989587
1.00516 0.994933 0.990831
1.0002 0.999879 0.994561
1.00019 1.00102 0.993386
1.00519 0.994914 0.990531
1.00513 0.994902 0.9906
1.00456 1.00321 0.983272
1.00484 1.00306 0.983054
1.00484 1.00006 0.985654
1.00507 0.995204 0.990191
1.00007 1.00178 0.992962
1.0001 1.00414 0.990504
1.00346 1.00255 0.986184
1.00174 1.00379 0.988519
1.00085 1.00465 0.988411
1.0004 1.00501 0.98904
1.00523 0.994933 0.990561
1.00519 0.994822 0.990553
1.0051 0.994903 0.990295
1.00471 0.995722 0.989986
1.00405 1.00376 0.983583
1.00428 1.00355 0.983791
1.0001 1.00131 0.993167
1.00021 1.00101 0.993454
1.00048 1.00137 0.992822
1.00021 1.00289 0.991412
1.00008 1.0048 0.989979
1.00141 1.00433 0.98826
1.00002 1.005 0.988808
1.00248 1.00126 0.988242
0.999948 1.00337 0.991328
1.00011 1.00503 0.989747
1.00519 0.995098 0.990239
1.00511 0.996751 0.988667
1.00189 1.00273 0.989412
1.00397 1.00012 0.988264
1.00502 0.999635 0.985906
1.00502 1.0009 0.985077
0.999841 1.00387 0.9911
1.00525 0.994899 0.990438
1.00085 1.00462 0.988905
1.00392 1.00062 0.987287
1.00517 0.995507 0.990082
1.00508 0.998521 0.986394
1.00485 1.00139 0.984724
0.999942 1.00471 0.990468
1.00455 0.994989 0.991515
1.00245 1.00297 0.988233
1.00428 1.00145 0.986057
1.00486 0.99665 0.98931
1.00371 1.00143 0.98566
0.998508 0.997625 0.989859
0.999683 1.00302 0.992162
0.999246 1.00299 0.993087
0.999647 1.00278 0.993161
1.00003 1.0025 0.992219
1.00003 1.0034 0.991252
1.00032 1.00309 0.991349
0.999555 1.00249 0.992804
1.00006 1.00267 0.992016
1.00023 1.00352 0.990849
0.999908 1.00176 0.99337
1.0001 1.00405 0.990595
1 1.00287 0.991959
0.999841 1.00222 0.993061
1.00031 1.00424 0.990138
1.00016 1.00424 0.99037
1.00039 1.00365 0.990497
1.00011 1.00283 0.991665
1.00024 1.00337 0.991212
1.00012 1.00287 0.991549
0.999966 1.00124 0.993555
0.999971 1.00122 0.993582
1.00004 0.998578 0.996083
0.999998 1.00106 0.993696
1.00006 0.998519 0.996391
1.00002 0.996961 0.999132
1.00011 0.998436 0.996717
1.00006 0.996885 0.997985
1.00006 0.99688 0.997968
1.00014 0.999882 0.99466
1.00021 0.999826 0.994609
1.0001 0.997919 0.996662
1.00007 0.998036 0.996813
0.999892 0.996859 0.999237
1.00002 0.998353 0.996371
0.999811 0.997113 0.999194
0.999748 0.99746 0.999114
1.00521 0.99493 0.990468
1.00518 0.99495 0.99081
1.00513 0.994968 0.99099
1.00517 0.994955 0.990853
1.00523 0.994939 0.990602
1.00528 0.994932 0.990572
1.00529 0.994939 0.990567
1.00111 0.994868 0.985706
1.00447 0.994879 0.992993
1.00002 1.00132 0.993414
1.00517 0.994934 0.99081
1.00519 0.994911 0.990549
1.00513 0.994897 0.9906
1.00418 1.00331 0.983549
1.0049 1.00298 0.983183
1.00489 0.999938 0.985587
1.00507 0.995362 0.990119
1.00397 1.00268 0.985786
1.00101 1.0037 0.989009
1.00099 1.00469 0.988624
1.00017 0.999935 0.994556
1.00041 1.00504 0.98914
1.00005 1.00176 0.993145
1.00022 1.00407 0.990476
1.00019 1.001 0.993305
1.00523 0.994922 0.990562
1.00011 1.00126 0.993268
1.00017 1.00108 0.99345
1.00042 1.00139 0.992803
1.00519 0.994847 0.99053
1.00511 0.994898 0.990325
1.00417 1.00371 0.983623
1.0043 1.0028 0.984404
1.00464 0.996248 0.989873
1.00005 1.003 0.991564
1.00022 1.0047 0.98981
1.00242 1.00226 0.987972
1.00056 1.0048 0.988826
1.00124 1.0042 0.988398
1.00523 0.994977 0.990653
1.00513 0.994785 0.990702
1.00506 0.995383 0.989883
1.00444 0.998151 0.989121
1.0021 1.00372 0.987442
1.00007 1.00227 0.992251
1.00048 1.00152 0.992331
1.0001 1.00217 0.992186
0.999944 1.00439 0.991038
1.00015 1.00471 0.989673
1.00033 1.00458 0.989051
1.00097 1.00301 0.989243
1.00005 1.00379 0.991042
1.00054 1.00457 0.988945
1.00526 0.994891 0.990565
1.00518 0.995407 0.990078
1.00508 0.998692 0.98667
1.00412 1.00063 0.986924
1.00481 1.00128 0.984751
1.00009 1.00456 0.990568
1.00452 0.995091 0.991632
1.00235 1.00291 0.988097
1.00417 1.00152 0.985907
1.00499 0.996068 0.989575
1.00393 1.00159 0.985675
0.998511 0.997767 0.987648
1.00027 1.00433 0.990204
1.00253 0.998482 0.991519
1.00236 1.0021 0.988445
1.00252 1.00163 0.987677
1.00354 0.997625 0.98967
1.00003 0.994923 0.951649
0.996987 0.994874 0.970356
0.996278 1.00143 0.989166
0.999789 0.995954 0.889461
0.994718 0.995328 0.861362
0.999063 1.00316 0.993066
0.999151 1.0031 0.993334
0.999547 1.00306 0.99291
1.00005 1.00268 0.992019
1.0003 1.00339 0.990844
1.00008 1.00408 0.990607
1.00015 1.00278 0.991825
0.999816 1.00175 0.99328
1.00021 1.0042 0.990323
1.00011 1.00281 0.991735
1.00038 1.00363 0.990525
0.999901 1.00204 0.992922
1.00019 1.00423 0.990312
1.00022 1.00451 0.990316
0.999646 1.0042 0.990999
1.00022 1.00432 0.990139
1.00035 1.00355 0.990575
1.00017 1.00279 0.99157
1.00032 1.00364 0.990689
1.00014 1.00363 0.991068
1.00007 1.00332 0.991366
1.0002 1.00342 0.991134
1.0002 1.00256 0.99193
1.00014 1.00287 0.991539
1.00002 1.00117 0.993558
0.999978 1.00125 0.993555
1.00003 0.99864 0.996065
0.999959 1.00126 0.993576
1.00003 0.998596 0.99608
1.00001 0.996953 0.999137
1.00006 0.998578 0.996084
1.00003 0.996955 0.998544
1.00007 0.996849 0.997987
1.00006 0.999912 0.994759
1.00015 0.999873 0.994663
1.00011 0.997827 0.996754
1.00022 0.999777 0.994621
1.0001 0.997872 0.99692
0.999941 0.996691 0.999269
1.00008 0.998077 0.99653
0.999882 0.996933 0.999223
0.999808 0.99718 0.999182
1.00523 0.994939 0.990607
1.00517 0.994957 0.990855
1.00529 0.994937 0.990194
1.00083 0.99495 0.985834
1.00527 0.994936 0.990567
1.00433 0.995223 0.992587
1.00506 0.996227 0.99115
0.996494 0.994908 0.969482
1.00047 0.996837 0.987796
1.00005 1.00133 0.993389
1.00009 1.00127 0.993403
1 1.00234 0.992432
0.99997 1.00222 0.992608
1.00522 0.994917 0.990562
1.00519 0.994871 0.990507
1.00512 0.994894 0.990355
1.0048 1.00351 0.983659
1.00418 1.00164 0.985009
1.00457 0.996775 0.989755
1.00209 1.00353 0.987704
1.00124 1.00459 0.988842
1.00107 1.00397 0.988534
1.00012 1.0012 0.993447
1.00026 1.00468 0.989639
1.00005 1.00305 0.991718
1.00012 1.00126 0.99337
1.0003 1.00144 0.992778
1.00523 0.994961 0.990658
1.00012 1.00228 0.992318
1.00047 1.00152 0.992515
0.999791 1.00212 0.9928
1.00514 0.994799 0.9906
1.00495 0.995418 0.989903
1.00274 1.00293 0.987357
1.00409 0.997829 0.989578
1.00006 1.00413 0.990836
1.0003 1.00486 0.989203
1.00113 1.00375 0.989117
1.00107 1.00432 0.988877
1.00451 0.994944 0.991592
1.00506 0.995436 0.990505
1.00501 0.996045 0.98969
1.00207 0.999458 0.991704
0.999782 1.00332 0.991752
1.00026 1.00263 0.991585
0.99915 1.00468 0.991429
0.99947 1.00485 0.990105
0.999994 0.994921 0.942404
1.00017 1.00443 0.990668
1.00212 1.00301 0.98796
1.00449 0.994992 0.991756
1.00508 0.995612 0.989837
1.00406 1.00165 0.985679
1.00401 1.0017 0.985751
0.998606 0.997654 0.985369
1.00014 1.0045 0.990401
1.00258 0.997959 0.99155
1.00233 1.0022 0.988463
1.00311 1.00118 0.987645
1.00383 0.99765 0.989595
1.00099 0.995019 0.941062
0.996909 0.994892 0.965995
0.996364 1.00205 0.989025
0.999776 0.9952 0.893214
0.994741 0.995362 0.850194
0.999969 1.00387 0.991301
0.999811 0.994852 0.900173
0.994697 0.995236 0.860083
1.00138 1.00003 0.991368
1.00119 1.002 0.990244
1.00181 1.00065 0.990128
0.996152 1.00233 0.989578
1.00072 0.996321 0.94755
0.994908 0.995566 0.96359
0.997335 0.998351 0.900343
0.994798 0.995322 0.854675
0.998797 1.00336 0.993504
0.999361 1.00314 0.992805
0.999439 1.00338 0.992908
1.00014 1.00275 0.991805
1.00037 1.00365 0.990552
0.999961 1.00445 0.990278
1.00007 1.00422 0.990486
1.00001 1.00185 0.992783
1.00017 1.0028 0.991575
1.00003 1.00465 0.990262
1.00023 1.00433 0.990122
1.00042 1.00348 0.990626
0.999633 1.00417 0.991114
0.99979 1.00477 0.99076
0.998814 1.00498 0.991515
1.00042 1.00392 0.990224
1.00038 1.00359 0.99064
1.00034 1.00363 0.990672
1.00008 1.00362 0.991149
1.00039 1.00378 0.99042
0.999974 1.00365 0.991238
0.999587 1.00367 0.991401
0.999714 1.00455 0.990654
0.999925 1.0036 0.991311
1.00012 1.00328 0.991367
1.00013 1.00246 0.99213
1.00018 1.00343 0.991056
1.00021 1.00256 0.991858
1.0001 1.00111 0.993517
1.00018 1.00286 0.991529
1.00001 1.00119 0.993562
1.00008 0.998571 0.996652
0.999962 1.00127 0.993554
1.00004 0.9986 0.996367
1.00004 0.996968 0.997948
1.00003 0.998608 0.996077
1.00001 0.996967 0.999136
1.00005 0.996962 0.997954
1.0001 1.0014 0.99322
1 0.999962 0.994797
1.00006 0.999899 0.994761
1.0001 0.997803 0.996788
1.00016 0.999844 0.994667
1.00012 0.997785 0.996756
0.99998 0.996592 0.999285
1.00009 0.997869 0.997154
0.999957 0.996783 0.998749
0.999925 0.996988 0.998179
1.00048 0.995227 0.98598
1.00526 0.994942 0.990567
1.00411 0.995969 0.992175
0.996667 0.994883 0.970582
1.00042 0.996531 0.988111
1.00509 0.99579 0.991018
1.00306 0.997331 0.988104
0.996504 0.996792 0.973457
1.00003 0.995224 0.948692
0.999501 0.997366 0.903692
0.994678 0.995492 0.859373
0.999917 1.0023 0.992502
1.00008 1.0013 0.993384
1.00016 1.0012 0.993392
1.00001 1.00234 0.992433
0.999728 1.0033 0.991943
1.00026 1.00239 0.991904
1.00003 1.00274 0.992187
0.999992 1.00227 0.99249
1.00524 0.994882 0.990659
1.00515 0.99481 0.990498
1.00483 0.995307 0.989924
1.0029 1.00252 0.98728
1.00378 0.997724 0.990042
1.00132 1.00448 0.988985
1.00173 1.00416 0.988703
1.0006 1.00502 0.988736
1.00034 1.00152 0.992701
1.00005 1.00417 0.990632
1.00018 1.0023 0.992388
0.999642 1.00205 0.993411
1.00455 0.994848 0.991747
0.999783 1.00335 0.991808
1.00022 1.00277 0.991779
1.00496 0.99522 0.990469
1.00481 0.995596 0.989836
1.00202 0.99943 0.991317
0.999637 1.00497 0.990762
1.00021 1.00453 0.990194
1.00327 0.995226 0.991975
1.00445 0.996717 0.990616
1.0047 0.995082 0.991055
1.00134 0.99929 0.992697
0.999931 1.00445 0.990438
0.999503 1.00419 0.991308
0.999422 1.00517 0.990975
0.999837 0.994849 0.901695
1.00041 0.994924 0.95294
1.00008 1.00458 0.9906
1.00235 1.00211 0.988487
1.00254 0.997527 0.99159
1.0042 0.997785 0.989523
1.00381 1.00073 0.987628
1.00004 0.994951 0.950208
0.997195 0.994907 0.965243
0.996447 1.00255 0.988835
0.999665 0.996239 0.9049
0.994763 0.99557 0.838595
1.00001 1.00367 0.991252
0.999839 0.995326 0.899145
0.994682 0.995315 0.854259
1.00141 1.00004 0.991424
1.00135 1.00184 0.9903
1.00195 1.00041 0.990718
0.996283 1.00265 0.990213
1.00174 0.996317 0.940582
0.994916 0.99508 0.967349
0.998333 0.998738 0.899938
0.994798 0.995196 0.853185
0.999583 1.00348 0.99272
0.994686 0.995434 0.856783
0.994807 0.995078 0.871305
0.999047 1.00168 0.994108
0.999613 1.00253 0.99356
0.995534 1.00249 0.989767
0.994873 0.997426 0.966864
0.997578 0.998687 0.93767
0.994719 0.999772 0.905297
0.994834 0.9948 0.857018
0.99931 1.00316 0.992705
0.999608 1.00313 0.992736
0.998318 1.00417 0.993054
1.00017 1.0028 0.99158
1.00044 1.00343 0.990677
1.00025 1.00431 0.990104
0.9999 1.00477 0.990207
0.999507 1.0042 0.991228
1.00038 1.00359 0.990637
0.999829 1.00457 0.990614
1.00043 1.00388 0.990252
0.99855 1.00499 0.991766
0.99686 1.00519 0.994254
0.999895 1.00432 0.990854
1.00058 1.00405 0.98992
1.00037 1.00361 0.990656
1.0001 1.00352 0.99123
1.00038 1.00386 0.990372
1.00003 1.00361 0.991192
0.999523 1.00359 0.991809
0.999729 1.00421 0.990989
0.999723 1.00414 0.990899
0.999383 1.00355 0.991947
1.00032 1.00266 0.991605
1.00053 1.00393 0.98933
0.999578 1.00466 0.990591
0.999812 1.00447 0.990659
0.999776 1.00413 0.991018
0.999956 1.00361 0.991301
1.00001 1.0026 0.992126
1.00011 1.00332 0.991368
1.00014 1.00245 0.992137
1.00017 1.00096 0.993492
1.00021 1.00257 0.991786
1.00009 1.00108 0.993529
1.00012 0.998548 0.996592
1.00001 1.00119 0.993566
1.00008 0.998544 0.996342
1.00005 0.9969 0.997945
1.00005 0.998571 0.996072
1.00001 0.996969 0.999133
1.00001 0.996963 0.999137
1.00013 1.00166 0.993184
0.999987 1.0001 0.994702
1.00009 1.00144 0.993227
1.0001 0.997808 0.996781
1 0.999967 0.994799
1.00007 0.999905 0.994764
1.00011 0.997791 0.996784
1.00001 0.996533 0.999288
1.0001 0.997759 0.997233
0.999997 0.996602 0.998795
0.999978 0.996794 0.998262
0.999837 0.995318 0.89075
0.994685 0.995371 0.856745
0.99804 0.994881 0.970402
1.00048 0.995462 0.988448
1.00515 0.995027 0.990888
0.996159 0.995847 0.974323
1.00336 0.996245 0.988488
1.00118 0.995572 0.947135
0.999814 0.996116 0.891979
0.994722 0.995454 0.848247
0.998602 0.994879 0.978173
1.00001 0.996947 0.948135
0.997998 0.998587 0.898063
0.994801 0.995111 0.855157
1.00006 1.00327 0.991493
0.999911 1.00225 0.992593
1.00012 1.00126 0.993379
0.999994 1.00233 0.992434
0.999729 1.00312 0.992128
1.00003 1.00356 0.991247
1.00019 1.00275 0.991798
1.00028 1.00318 0.991094
1.00006 1.00267 0.99208
0.999978 1.00239 0.992374
1.0046 0.994819 0.991899
1.00493 0.995013 0.990446
1.00446 0.995313 0.98998
1.00182 0.999521 0.99093
1.00072 1.00455 0.990285
0.999782 1.00513 0.990095
1.00022 1.00272 0.991979
0.999749 1.00342 0.991862
1.00317 0.995329 0.992264
0.999905 1.00462 0.990302
0.999401 1.00431 0.991225
1.00458 0.99612 0.990533
1.00457 0.995202 0.99077
1.00116 0.999304 0.992822
0.999584 1.0051 0.990933
1.00061 0.996689 0.992454
1.0028 0.996394 0.993745
1.00026 1.00129 0.992998
0.999307 1.00472 0.990198
0.999555 1.00499 0.990223
0.999255 1.00509 0.991062
0.994747 0.995779 0.87443
0.999836 0.994872 0.905342
0.999983 0.994901 0.942775
0.99986 1.00367 0.991199
1.00147 1.00177 0.990349
1.00144 1.00004 0.991479
1.0021 1.00015 0.991302
0.999828 0.994846 0.907657
0.999999 0.996174 0.940258
0.994889 0.994856 0.963796
0.996385 1.0022 0.990824
0.997439 0.998439 0.888436
0.994703 0.995277 0.857098
0.994781 0.994964 0.860715
0.999309 1.00333 0.992639
0.994693 0.995167 0.864099
0.994835 0.995156 0.870934
0.998933 1.00144 0.994271
0.999368 1.00226 0.993564
0.995505 0.99955 0.992531
0.994883 0.997196 0.965857
0.997423 0.99961 0.947914
0.996766 0.999912 0.89265
0.994806 0.994794 0.865075
0.997517 1.00344 0.995792
0.994823 0.995498 0.879793
0.994779 0.994778 0.872881
0.995533 1.00209 0.999704
0.994815 0.999328 0.973416
0.994899 0.999954 0.948716
0.994895 0.999047 0.88803
0.99488 0.99482 0.864163
0.999776 1.00277 0.992559
0.998604 1.00413 0.993351
0.996983 1.00493 0.995172
1.00033 1.00366 0.990635
1.00047 1.00383 0.99028
0.999912 1.00432 0.990468
0.998278 1.0051 0.992025
1.00048 1.00413 0.989916
0.999843 1.00436 0.990801
0.996996 1.00512 0.994707
0.995136 1.00529 0.997288
0.997497 1.00493 0.994367
1.00034 1.00402 0.990332
1.0004 1.00394 0.990323
1.00005 1.00359 0.991146
0.999379 1.00359 0.99221
0.99976 1.00404 0.991012
0.999777 1.00418 0.991009
0.999399 1.00376 0.992008
0.999963 1.00355 0.99155
0.998022 1.00418 0.993592
1.00164 0.999436 0.992193
1.00033 1.0025 0.991746
1.00074 1.00303 0.990223
1.0025 1.00383 0.986704
1.00006 1.0046 0.99054
1.00033 1.00407 0.989757
0.999766 1.00457 0.990593
0.999623 1.00446 0.990738
0.999908 1.00439 0.990665
0.999896 1.00399 0.991021
0.999977 1.00299 0.991816
1.00008 1.00351 0.991291
1.00009 1.00255 0.992119
1.00021 1.00096 0.993445
1.00018 1.00239 0.992145
1.00019 1.00098 0.993499
1.00016 0.998531 0.996547
1.0001 1.00107 0.993541
1.00013 0.998532 0.996277
1.00005 0.996981 0.997886
1.0001 0.998524 0.996042
1.00003 0.996928 0.99854
1.00001 0.996951 0.999133
1.00016 1.00214 0.992417
1.00005 1.00023 0.994504
1.00009 1.00168 0.993006
1.0001 0.997875 0.996717
0.999994 1.00008 0.994704
1.00006 1.00148 0.993231
1.00003 0.996513 0.999285
1.0001 0.997809 0.996781
1.00001 0.999962 0.994801
1.00011 0.997779 0.99678
1.00001 0.996554 0.999288
0.999979 0.996588 0.999286
0.994675 0.994815 0.862201
0.999859 0.995288 0.898407
0.994832 0.995467 0.869513
0.994704 0.995386 0.854462
0.99589 0.99563 0.971783
1.00343 0.995984 0.988908
1.00006 0.995894 0.94507
0.999821 0.996583 0.904284
0.994776 0.996037 0.836829
0.998238 0.995599 0.977415
1.0015 0.996859 0.936596
0.998216 0.999065 0.898639
0.994806 0.995535 0.849591
0.99549 0.995595 0.97189
0.997605 0.998618 0.93796
0.995363 0.999764 0.887348
0.994811 0.994806 0.852394
1.00012 1.00411 0.990822
1.00003 1.00312 0.991626
0.999901 1.00227 0.992682
0.999731 1.00296 0.992315
1.00042 1.00398 0.990048
0.999978 1.00347 0.991392
1.00002 1.00302 0.991693
1.00053 1.00305 0.991
1.00032 1.00322 0.991175
1.00009 1.00258 0.991974
1.00315 0.994841 0.992541
1.00465 0.995449 0.990464
1.00464 0.995361 0.990483
1.00114 0.999037 0.992957
1.00004 1.00479 0.990891
0.999508 1.00444 0.991145
0.999826 1.00477 0.990167
0.999952 1.00489 0.989959
1.00046 0.996283 0.992754
0.999861 1.00492 0.990111
0.999563 1.00508 0.991044
1.00294 0.99599 0.993808
1.00093 1.00033 0.992841
0.998149 0.997011 0.99339
0.998144 0.999328 0.999473
0.998611 1.00353 0.993035
1.00001 1.00469 0.990111
0.999256 1.00497 0.991178
0.994839 0.995766 0.884248
0.994742 0.995662 0.871556
0.99982 0.994857 0.893736
0.999097 1.00314 0.992565
0.999143 1.00185 0.993555
0.998946 1.00136 0.994445
0.994677 0.994828 0.864107
0.997375 0.998526 0.938897
0.994851 0.996983 0.966104
0.995788 0.997756 0.995523
0.994883 0.999836 0.905973
0.994807 0.99536 0.870699
0.994805 0.994805 0.865363
0.997523 1.00324 0.996155
0.994798 0.995129 0.882554
0.994768 0.994776 0.873017
0.995648 1.00223 0.998679
0.994852 0.999005 0.975032
0.99591 0.999715 0.938633
0.994872 0.994816 0.863209
0.994875 0.999906 0.895602
0.995551 1.0049 0.99844
0.994731 0.994802 0.889336
0.994832 0.994781 0.876263
0.994809 0.994798 0.853092
0.995069 1.00001 0.992105
0.99495 0.999442 0.952138
0.99501 0.999472 0.897668
0.999017 1.00412 0.993646
0.997567 1.00505 0.994285
0.995159 1.00511 0.998388
1.00045 1.00414 0.989911
0.999745 1.0044 0.990745
0.99696 1.00493 0.995146
1.00017 1.00413 0.99035
0.997574 1.00476 0.994389
0.99536 1.00529 0.997136
0.99514 1.00524 0.998239
0.997566 1.00462 0.994174
0.999768 1.00401 0.991129
0.999828 1.00415 0.99103
0.999453 1.00395 0.992076
0.998336 1.00427 0.993449
0.999816 1.00353 0.991506
0.999529 1.00262 0.993091
1.00067 0.999933 0.993436
1.00155 1.00158 0.989624
1.00034 1.00235 0.99189
1.00125 1.003 0.989858
1.00328 1.00268 0.986275
1.00339 1.00284 0.985924
1.00061 1.00455 0.989373
1.00214 1.00371 0.986854
0.999909 1.00485 0.990226
0.999915 1.00465 0.990509
1.00009 1.0042 0.990185
0.999944 1.00448 0.990596
0.999693 1.00435 0.990803
1 1.00336 0.991409
1 1.00386 0.991025
1.00005 1.00292 0.99182
1.00019 1.0012 0.993239
1.00014 1.00253 0.992113
1.00022 1.00096 0.993439
1.00014 0.998531 0.996546
1.0002 1.00096 0.993506
1.00016 0.998511 0.996239
1.00003 0.997054 0.997872
1.00015 0.998489 0.995979
1.00003 0.996984 0.998505
1.00001 0.996956 0.999123
1.00034 1.00231 0.991777
1.0001 1.00055 0.993864
1.00019 1.00212 0.992416
1.00012 0.997966 0.996582
1.00004 1.00023 0.994359
1.0001 1.00167 0.99283
1.00003 0.996568 0.999266
1.0001 0.99786 0.996723
0.999998 1.00005 0.994707
1.00002 0.996528 0.999286
1.00009 0.997811 0.996781
1 0.996548 0.999289
0.994833 0.994811 0.878228
0.994686 0.995185 0.869823
0.999845 0.995307 0.898865
1.00066 1.00311 0.990618
0.994748 0.994809 0.879298
0.994805 0.995259 0.869384
0.994735 0.995108 0.861234
0.998486 0.995924 0.976225
0.999665 0.997328 0.94705
0.997884 0.998399 0.886425
0.994777 0.995523 0.853456
0.996588 0.995143 0.968349
0.997428 0.999081 0.947235
0.996516 0.999905 0.891437
0.994807 0.994815 0.85615
0.994883 0.995379 0.963998
0.995199 0.99981 0.94678
0.99486 0.999983 0.896797
0.994885 0.994827 0.863857
1.00012 1.00462 0.990039
1.0001 1.00414 0.990625
1.00008 1.00299 0.991759
1.00047 1.00377 0.990239
1.00031 1.00405 0.990266
0.999998 1.00344 0.991535
1.00057 1.00305 0.991014
1.00032 1.00324 0.991254
0.999937 0.997031 0.992965
1.00314 0.995615 0.993825
1.00013 1.00502 0.989719
1.00143 0.999843 0.992678
0.999834 1.00508 0.991023
1.00002 1.00501 0.989999
0.999893 1.00472 0.99009
0.997351 0.997345 0.994055
0.999497 1.00475 0.991303
0.999195 1.00329 0.993114
0.998024 0.998994 0.999533
0.999992 1.00471 0.990385
0.996013 0.999675 0.991806
0.99507 1.00306 1.00068
0.997551 1.00507 0.993478
0.999549 1.00448 0.991488
0.994753 0.994773 0.894732
0.994848 0.995655 0.88368
0.994733 0.995603 0.868661
0.997479 1.00322 0.996541
0.995452 1.00194 0.997646
0.99481 0.994816 0.885209
0.994892 0.99997 0.948799
0.994865 0.998627 0.972282
0.994827 0.999955 0.895061
0.994793 0.994775 0.873098
0.994855 0.994818 0.862262
0.995845 1.00473 0.998079
0.994761 0.994808 0.88913
0.994822 0.994779 0.879653
0.994892 1.00076 0.995535
0.994805 0.99481 0.856626
0.994923 0.998677 0.946137
0.994986 0.999621 0.9018
0.99497 1.0041 0.998374
0.994773 0.994813 0.893284
0.994738 0.994804 0.879841
0.994783 0.99542 0.855532
0.995495 0.999985 0.896512
0.994897 1.00006 0.980822
0.994997 0.999735 0.938829
0.998286 1.00501 0.993404
0.995519 1.00512 0.99793
0.994916 1.00511 0.999383
0.999998 1.00418 0.990368
0.997612 1.00471 0.994414
0.995826 1.00526 0.996994
0.997759 1.00454 0.994076
0.995227 1.00475 0.998236
0.99759 1.00306 0.996703
0.998651 1.00431 0.993299
0.999574 1.00357 0.991462
0.999557 1.00278 0.993291
0.999155 1.0034 0.991749
0.999704 1.0004 0.994654
1.00147 1.00132 0.990273
1.0035 1.00264 0.985787
1.00473 1.00179 0.984506
1.00177 1.00298 0.989487
1.00362 1.00279 0.985511
1.00462 1.00169 0.98585
1.0017 1.0038 0.987546
1.00332 1.00284 0.986121
0.999976 1.00505 0.989631
1.00063 1.00457 0.989314
1.00177 1.00362 0.987005
0.999991 1.00393 0.990769
0.999756 1.00485 0.990334
0.999797 1.00468 0.990477
0.999774 1.00427 0.990869
1.00006 1.00331 0.991414
1.00021 1.00156 0.992837
1.00011 1.00288 0.991825
1.0002 1.0012 0.99323
1.0001 0.998667 0.995901
1.00024 1.00099 0.993432
1.00016 0.998529 0.995933
0.999913 0.997105 0.999103
1.00017 0.998501 0.995934
1 0.997057 0.998483
1 0.997009 0.999103
1.00036 1.00251 0.991496
1.00021 1.00088 0.993348
1.0003 1.00235 0.991889
1.00015 0.998125 0.996383
1.00013 1.00055 0.993801
1.00019 1.00213 0.992412
1.00004 0.99662 0.999235
1.00012 0.99795 0.996594
1.00005 1.00024 0.994216
1.00004 0.99654 0.999272
1.0001 0.997843 0.996728
1.00002 0.996545 0.999288
0.994769 0.994807 0.891242
0.994826 0.995248 0.878152
0.994683 0.995648 0.870004
1.00057 1.00314 0.990728
1.00052 1.00333 0.99048
1.00063 1.00339 0.990504
0.994849 0.994776 0.875695
0.994767 0.994784 0.879381
0.994777 0.995346 0.869257
0.996513 0.994869 0.970487
0.9981 0.998819 0.936644
0.995078 0.99993 0.904957
0.994831 0.994833 0.851997
0.994903 0.995966 0.967516
0.995796 0.999951 0.943231
0.994818 0.999751 0.8958
0.994877 0.994821 0.862785
0.994911 0.996185 0.963406
0.994878 0.999442 0.948658
0.99511 0.99979 0.897401
0.994842 0.994809 0.856978
1.00034 1.00404 0.990114
1.00023 1.00453 0.989885
1.00026 1.00403 0.990427
1.00056 1.00365 0.990207
1.00014 1.00413 0.990487
1.00058 1.00309 0.991028
0.996756 0.997533 0.994715
0.997597 0.998638 0.999633
1.00001 1.00446 0.990069
0.999771 1.00258 0.993191
0.999539 1.0047 0.991428
0.999871 1.00461 0.990317
0.999181 1.00454 0.991644
0.995683 0.999672 0.99198
0.997641 1.00514 0.994113
0.995356 1.00261 0.999804
0.999411 1.00389 0.9921
0.995455 0.999952 0.990389
0.995922 1.00314 0.997178
0.99779 1.0051 0.99427
0.994757 0.994768 0.897939
0.994744 0.994774 0.895471
0.994852 0.995494 0.883105
0.995994 1.0046 0.997694
0.994853 1.00086 0.992234
0.994758 0.994815 0.888931
0.99485 0.999238 0.947324
0.994991 0.999466 0.889837
0.994811 0.994772 0.883027
0.994842 0.994837 0.852648
0.995108 1.00391 0.998874
0.994765 0.994813 0.894672
0.994777 0.994851 0.879932
0.994917 0.999665 0.977683
0.994789 0.995728 0.850088
0.994867 0.999976 0.895159
0.994924 0.999667 0.949858
0.995098 1.00489 0.993995
0.994769 0.994803 0.89154
0.994856 0.995739 0.870082
0.994653 0.995978 0.860097
0.995721 0.998988 0.88718
0.995568 0.999947 0.947166
0.99493 1.00051 0.971634
0.995991 1.00518 0.99748
0.995224 1.00433 0.999298
0.996989 1.00295 0.997924
0.997912 1.00457 0.993981
0.995464 1.00429 0.99824
0.996498 1.00419 0.996923
0.999488 0.999393 0.997177
0.999611 1.00293 0.99349
1.00079 1.00271 0.991342
1.00216 1.00364 0.987411
1.00136 1.00111 0.990949
1.0035 1.00268 0.985911
1.00418 1.00394 0.983331
1.00483 1.0019 0.98409
1.00474 1.00144 0.984922
1.00472 1.00198 0.984334
1.00404 1.00285 0.984747
1.00407 1.00202 0.986393
1.0043 1.00155 0.98604
1.00091 1.00444 0.9882
1.00183 1.00385 0.987725
1.00328 1.00285 0.986318
0.999998 1.00471 0.989736
1.00017 1.00503 0.989607
1.00062 1.00462 0.989254
1.0002 1.00216 0.992292
1.00012 1.00388 0.990769
0.999619 1.00484 0.990442
1.00012 1.00324 0.991419
1.00023 1.00157 0.992829
1.00003 0.998912 0.995779
1.00022 1.0012 0.99322
1.00011 0.998673 0.995889
0.999868 0.997247 0.999089
1.00016 0.99853 0.995929
0.999952 0.997133 0.998483
0.999971 0.997086 0.999094
1.00038 1.00288 0.99131
1.0003 1.00111 0.993154
1.0004 1.00249 0.991563
1.00018 0.998319 0.996125
1.00021 1.00088 0.993432
1.0003 1.00236 0.992001
1.00004 0.996733 0.99919
1.00015 0.998096 0.9964
1.00015 1.00054 0.993738
1.00004 0.996617 0.999245
1.00012 0.997936 0.996605
1.00004 0.996544 0.999279
0.994778 0.994819 0.892921
0.994768 0.994815 0.891043
0.994817 0.995576 0.878185
1.00039 1.00393 0.99007
1.00074 1.004 0.989713
1.00049 1.0032 0.990841
1.00046 1.00348 0.990435
1.00045 1.00351 0.990503
1.00033 1.00383 0.990348
1.00042 1.00358 0.990478
0.994808 0.994762 0.872345
0.994839 0.994781 0.879145
0.994785 0.994772 0.879476
0.994869 0.99482 0.861758
0.994902 0.995989 0.964438
0.995069 0.999958 0.939786
0.994876 0.999335 0.904648
0.995 0.996661 0.962431
0.994883 0.999771 0.938878
0.994964 0.999539 0.901994
0.994821 0.994794 0.865085
0.995639 0.996354 0.966245
0.994919 0.999882 0.939211
0.994949 0.999508 0.888574
0.994814 0.995542 0.854023
0.999438 1.00492 0.991017
1.00019 1.00426 0.99016
1.00028 1.00465 0.989729
1.00066 1.00359 0.990177
0.995399 1.00007 0.992325
0.995372 1.00335 0.998896
0.999785 1.00494 0.990251
0.999138 1.00448 0.991801
0.997979 1.00512 0.994738
0.999396 1.00398 0.992019
0.997575 1.00509 0.994261
0.995388 1.00141 0.987486
0.995192 1.00434 0.997725
0.997261 1.00453 0.995327
0.994793 0.999997 0.987499
0.996801 1.00405 0.997684
0.994746 0.994779 0.894856
0.994769 0.994767 0.90074
0.99474 0.994764 0.896206
0.994976 1.00374 0.999315
0.994934 0.998467 0.981561
0.994763 0.99481 0.896104
0.995722 0.999189 0.939526
0.994884 0.99961 0.904072
0.994814 0.994764 0.88003
0.994746 0.995696 0.85395
0.994905 1.00404 0.994706
0.994766 0.994804 0.891358
0.994801 0.995491 0.86997
0.994944 1.00061 0.972247
0.994696 0.995784 0.849101
0.996564 0.999912 0.890966
0.994881 0.999876 0.93833
0.995521 1.00478 0.988498
0.994826 0.994806 0.878909
0.994659 0.995547 0.857602
0.998409 0.997409 0.89877
0.994974 0.999933 0.946832
0.995 1.00001 0.96506
0.995237 1.00372 0.999468
0.996148 1.00373 0.997965
0.997042 1.00043 0.999409
0.995463 1.00515 0.997133
0.998181 1 0.997436
1.0024 0.998866 0.992768
1.00245 1.00192 0.990936
1.00262 1.00339 0.987339
1.00314 1.00424 0.984341
1.00343 1.00272 0.986037
1.00446 1.00391 0.983021
1.00427 1.00445 0.982632
1.00496 1.00114 0.98475
1.00502 1.00127 0.984566
1.00478 1.00207 0.984062
1.00465 1.00125 0.985318
1.00471 1.00134 0.98508
1.00466 1.00222 0.984161
1.00308 1.00336 0.986296
1.00382 1.00196 0.986354
1.00396 1.0014 0.986227
1.00059 1.00498 0.988531
1.00093 1.00452 0.988438
1.00196 1.00386 0.987908
1.00011 1.0031 0.991376
1.00021 1.00467 0.989758
1.00033 1.00501 0.989584
0.999948 0.999223 0.995599
1.00024 1.00212 0.992276
1.00023 1.00384 0.990769
1.00025 1.00157 0.992822
1.00003 0.998943 0.995761
0.999794 0.997442 0.999069
1.00012 0.998675 0.995878
0.999863 0.99728 0.999085
0.999921 0.997154 0.999094
1.00033 1.00429 0.989945
1.00051 1.00316 0.99084
1.00034 1.00151 0.992707
1.0004 1.00284 0.991299
1.00018 0.998586 0.995846
1.00029 1.00114 0.993152
1.00036 1.00255 0.99163
1.00003 0.99688 0.999129
1.00017 0.998315 0.996142
1.0002 1.00088 0.993516
1.00004 0.996708 0.999204
1.00015 0.998078 0.996417
1.00004 0.996586 0.999254
0.994734 0.994797 0.888918
0.994764 0.994814 0.894352
0.994771 0.994827 0.890822
1.00045 1.00396 0.990092
1.00056 1.00403 0.989772
1.00027 1.00346 0.990332
1.00019 1.00434 0.98987
1.00066 1.00428 0.989956
1.00047 1.00357 0.99039
1.00038 1.00362 0.990503
1.00041 1.00378 0.990356
1.00046 1.00368 0.990524
0.999979 1.00455 0.990498
0.994809 0.995415 0.87073
0.99478 0.994771 0.872554
0.994821 0.994778 0.882563
0.994815 0.994798 0.865377
0.995091 0.999784 0.889759
0.995044 0.997762 0.960861
0.994897 0.999831 0.948456
0.995287 0.996351 0.963053
0.994917 0.998922 0.949236
0.994851 0.999932 0.896842
0.994809 0.995453 0.852274
0.994831 0.995612 0.967783
0.994894 0.99998 0.949061
0.995135 0.999831 0.904032
0.994727 0.995695 0.85887
0.99851 1.00399 0.993134
0.999536 1.00477 0.990944
1.0002 1.00425 0.990209
0.995285 1.00177 0.984383
0.995114 1.00452 0.998273
0.999315 1.00392 0.991937
0.996929 1.00517 0.994259
0.997301 1.00413 0.99533
0.996091 1.00366 0.997798
0.994955 0.999922 0.987285
0.99589 1.00203 0.998995
0.995922 0.999724 0.989816
0.994836 0.99546 0.883759
0.994743 0.994778 0.895567
0.994775 0.994777 0.903545
0.994935 1.00285 0.995028
0.994951 1.00065 0.969055
0.994768 0.994819 0.891146
0.995586 0.999961 0.946467
0.99487 0.999925 0.9043
0.994747 0.995697 0.869879
0.994759 0.996066 0.837798
0.995509 1.00469 0.989107
0.994819 0.995021 0.878835
0.99469 0.995629 0.855318
0.994949 0.999989 0.966037
0.998287 0.998788 0.899244
0.995817 0.999921 0.942109
0.994988 1.00475 0.986497
0.994676 0.994819 0.863157
0.999781 0.996798 0.904635
0.997454 0.998375 0.938043
0.994838 0.997384 0.968161
0.995533 1.00453 0.997995
0.996779 1.00074 0.99935
1.00013 1.00262 0.993912
0.996874 1.00074 0.997643
1.00125 0.999332 0.993113
1.00358 0.999383 0.989012
1.00303 1.0031 0.987264
1.0032 1.00417 0.984319
1.00425 1.00184 0.984713
1.00475 1.00393 0.982713
1.0043 1.00406 0.982737
1.00476 1.00105 0.985114
1.00515 0.998951 0.986414
1.0051 1.0005 0.985003
1.00491 1.00104 0.984837
1.00509 1.00143 0.984483
1.00503 1.00131 0.984537
1.00473 1.00219 0.984033
1.00443 1.00195 0.985275
1.00447 1.00127 0.985459
1.00469 1.00126 0.985239
1.00194 1.00411 0.987232
1.00286 1.00333 0.986467
1.00353 1.00194 0.986315
1.00013 1.00443 0.989847
1.00075 1.00498 0.988539
1.00099 1.00461 0.988675
0.999885 0.999821 0.995791
1.00022 1.00308 0.991354
1.00042 1.00466 0.98978
0.99973 0.997704 0.9977
0.999944 0.999335 0.995838
1.00028 1.00207 0.992259
1.00002 0.998976 0.995744
0.999791 0.997474 0.999059
0.999856 0.997293 0.99908
1.00021 1.00457 0.989917
1.00043 1.00377 0.990393
1.00028 1.00434 0.989904
1.00037 1.0019 0.99226
1.00039 1.00334 0.990834
1.00016 0.998908 0.995569
1.00034 1.00149 0.992712
1.00048 1.00275 0.991288
1.00001 0.997084 0.999065
1.00018 0.998565 0.995862
1.00028 1.00115 0.99315
1.00003 0.996868 0.999148
1.00016 0.9983 0.99616
1.00004 0.996691 0.999218
0.994814 0.994826 0.886066
0.994768 0.994802 0.88872
0.994761 0.994809 0.895813
1.00053 1.00306 0.990593
1.00036 1.00415 0.990114
1.00047 1.00399 0.989832
1.00038 1.0044 0.989816
1.00062 1.00331 0.990373
1.00046 1.00404 0.990333
1.00115 1.00364 0.989237
0.999565 1.00481 0.990241
1.00046 1.0037 0.990365
1.00017 1.00375 0.990568
0.999843 1.00446 0.990479
0.999095 1.0051 0.9918
0.994707 0.995738 0.859092
0.994843 0.995398 0.870389
0.994801 0.994778 0.872711
0.994791 0.99524 0.859887
0.994832 0.999943 0.896617
0.995065 0.999574 0.939235
0.995078 0.996074 0.962267
0.99488 0.995687 0.969123
0.994753 0.995942 0.84809
0.994883 0.999395 0.943398
0.996662 0.999931 0.891544
0.994871 0.996124 0.970461
0.994932 0.999947 0.949441
0.998841 0.998483 0.894995
0.999064 1.00151 0.995323
0.998633 1.00408 0.993102
0.999444 1.00467 0.990871
0.994955 1.00022 0.987428
0.995464 1.00332 0.997903
0.99731 1.00376 0.995336
0.996974 1.00191 0.998873
0.995373 0.99948 0.989931
0.996937 0.998523 0.993167
0.994753 0.995976 0.868958
0.994833 0.995156 0.88676
0.994745 0.994766 0.89627
0.995368 1.00462 0.989422
0.994855 0.99998 0.966099
0.994809 0.995241 0.878875
0.994869 0.99995 0.939116
0.998268 0.997388 0.887233
0.994729 0.995405 0.862044
0.994926 1.00463 0.986527
0.994689 0.995022 0.870686
0.999813 0.995743 0.892969
0.9949 0.996911 0.964207
0.997434 0.998822 0.947307
0.995674 1.0032 0.991002
0.99982 0.995232 0.891353
1 0.996699 0.948468
0.994875 0.995108 0.963538
0.996449 1.00081 0.999389
0.999536 1.00164 0.993901
1.00262 1.00247 0.988978
1.00019 0.999836 0.993463
1.00299 1.00005 0.988932
1.00445 0.998621 0.987977
1.00324 1.00411 0.984297
1.00417 1.00191 0.98469
1.00498 0.997604 0.987507
1.00432 1.00363 0.982841
1.00467 1.00085 0.985158
1.00514 0.997216 0.988059
1.00514 0.997146 0.988377
1.00517 0.999197 0.986198
1.00515 0.998827 0.986559
1.00514 1.00056 0.98494
1.0051 1.0005 0.985098
1.00488 1.00094 0.984924
1.00511 1.00123 0.984746
1.00498 1.00137 0.984603
1.00503 1.00131 0.984507
1.00357 1.00257 0.986046
1.00435 1.00197 0.985265
1.00436 1.00127 0.985599
1.00085 1.00489 0.988324
1.00206 1.00414 0.987206
1.0026 1.00329 0.986639
0.999797 1.00078 0.994209
1.00042 1.00421 0.98985
1.00095 1.00498 0.988546
0.999642 0.998055 0.998934
0.999876 0.999928 0.995025
1.00033 1.00302 0.991333
0.999737 0.99769 0.99902
0.999919 0.999418 0.995494
0.999791 0.997525 0.999048
1.00083 1.00387 0.989632
1.00027 1.00454 0.989833
1.00043 1.00426 0.989903
1.00029 1.00248 0.991832
1.00038 1.00378 0.990385
1.00033 1.00426 0.989864
1.00014 0.99923 0.995288
1.00034 1.00194 0.992267
1.0003 1.00347 0.99083
0.999977 0.997307 0.998996
1.00016 0.998862 0.995584
1.00034 1.00148 0.992717
1.00001 0.997044 0.999084
1.00018 0.998548 0.995878
1.00003 0.996829 0.999167
0.994767 0.995316 0.858071
0.994816 0.994813 0.886043
0.994766 0.994809 0.888527
1.00038 1.00334 0.990533
1.00187 1.00307 0.989723
1.00061 1.00356 0.990144
1.00041 1.00452 0.989762
1.00097 1.00315 0.990412
1.00007 1.00366 0.990708
0.999854 1.00478 0.990128
1.00084 1.00385 0.989418
1.00058 1.00458 0.989344
0.999865 1.00073 0.993976
1.0001 1.0044 0.990461
0.999217 1.00493 0.991471
0.999807 0.997132 0.887173
0.994731 0.995747 0.85326
0.994825 0.995533 0.870205
0.994774 0.996349 0.83694
0.996338 0.999165 0.904347
0.994856 0.999875 0.94055
0.99509 0.995565 0.966741
0.994874 0.99605 0.96911
0.998284 0.999256 0.897516
0.995892 0.999838 0.939537
0.994889 0.997413 0.970715
0.998252 0.998579 0.937849
1.00169 0.99762 0.995038
0.99897 1.00173 0.995226
0.998729 1.00421 0.99308
0.994881 0.999273 0.990011
0.997799 1.0018 0.998733
0.997492 0.998674 0.992794
0.998617 0.997741 0.990825
0.999848 0.99486 0.901263
0.994737 0.995582 0.868429
0.994842 0.994827 0.889661
0.9949 1.00475 0.986748
0.994862 0.996563 0.962251
0.994687 0.995197 0.870823
0.998506 0.997989 0.937151
0.999824 0.995881 0.905343
0.995454 1.00232 0.988493
0.999844 0.995164 0.89913
1.00138 0.996555 0.937332
0.994892 0.995195 0.966876
0.998097 0.997863 0.990203
1.00002 0.995295 0.949294
0.996091 0.995453 0.969533
0.998922 1.00071 0.993818
1.00238 1.00073 0.988971
1.00486 0.998457 0.988642
1.00234 1.00064 0.988861
1.00413 0.998784 0.987999
1.00493 0.99624 0.989314
1.0042 1.00194 0.984669
1.00493 0.997949 0.987424
1.00514 0.995531 0.98959
1.00461 1.00066 0.9852
1.00514 0.997235 0.988032
1.00514 0.995646 0.989753
1.00513 0.996225 0.989592
1.00515 0.99697 0.988594
1.00514 0.997793 0.987916
1.00518 0.999608 0.986009
1.00516 0.999265 0.986259
1.00515 0.998699 0.986705
1.00518 1.00082 0.984945
1.00515 1.00059 0.984911
1.0051 1.00049 0.985192
1.00463 1.00137 0.985421
1.00502 1.00127 0.984748
1.00486 1.00135 0.984726
1.00194 1.00405 0.987398
1.00358 1.00264 0.986035
1.00432 1.00199 0.985256
0.999989 1.00173 0.992852
1.00099 1.00475 0.988328
1.00223 1.00406 0.987181
0.999696 0.998387 0.998766
0.999832 1.00086 0.994157
1.00065 1.00416 0.989853
0.999688 0.998065 0.9982
0.999869 1.00001 0.995016
0.999754 0.997774 0.998975
1.00136 1.00292 0.989627
1.00048 1.00404 0.989795
1.00036 1.00471 0.989401
1.00038 1.00451 0.98975
1.00032 1.00437 0.989895
1.00027 1.00301 0.991332
1.00007 0.999649 0.995003
1.00029 1.00245 0.991836
1.0003 1.00388 0.990378
0.99993 0.997538 0.998919
1.00012 0.99922 0.995301
1.0003 1.00197 0.992273
0.999978 0.997264 0.999017
1.00017 0.998831 0.995598
1.00001 0.997025 0.999103
0.999815 0.994875 0.899653
0.994704 0.995242 0.861437
0.994834 0.994799 0.885977
1.00022 1.00374 0.990473
1.00062 1.00425 0.989418
1.00141 1.00309 0.990003
1.00306 1.0034 0.986284
1.00056 1.00415 0.98985
1.00002 1.00485 0.990018
1.00067 1.00412 0.989602
1.0003 1.00457 0.989598
1.00132 1.00306 0.988556
1.00153 0.999721 0.992708
1.00421 0.996361 0.990796
1.00024 1.00023 0.994024
0.999755 1.00413 0.991139
0.998651 0.997058 0.94785
0.999793 0.997228 0.89221
0.994707 0.995646 0.85591
0.998802 0.999514 0.884953
0.995307 0.999951 0.946868
0.994837 0.995906 0.970064
0.994877 0.997336 0.972365
0.997418 0.998847 0.948922
0.995859 0.996942 0.971893
1.0018 0.995972 0.995466
1.00101 0.998332 0.995092
0.998896 1.00205 0.995123
0.998229 0.998221 0.992522
0.999004 0.997608 0.99088
0.999979 0.99499 0.942468
0.99984 0.994889 0.905276
0.994708 0.995225 0.86801
0.994958 1.00185 0.985911
0.994991 0.994892 0.963828
0.999834 0.995281 0.899628
1.00029 0.996737 0.94722
0.997133 0.998893 0.990656
1.00102 0.995537 0.947253
0.996638 0.994998 0.966659
1.00138 0.99623 0.98948
0.998995 0.99527 0.975894
1.00225 0.998785 0.989058
1.00478 0.997158 0.988605
1.00499 0.99593 0.990307
1.00381 0.99897 0.98802
1.00473 0.996421 0.989234
1.00518 0.994947 0.990203
1.00481 0.998355 0.987341
1.00514 0.995628 0.989535
1.00511 0.994961 0.990438
1.00515 0.997245 0.988006
1.00515 0.995695 0.989707
1.00516 0.995269 0.990298
1.00513 0.995997 0.989713
1.00512 0.996685 0.989126
1.00516 0.996794 0.988813
1.00514 0.997802 0.987895
1.00518 0.998617 0.987047
1.00521 1.00015 0.985567
1.00518 0.999653 0.985988
1.00516 0.999333 0.986322
1.00504 1.00072 0.985287
1.00515 1.00086 0.984883
1.00517 1.00062 0.98488
1.00308 1.00248 0.986924
1.00454 1.00149 0.985427
1.00491 1.00132 0.984749
1.0005 1.0021 0.991649
1.00196 1.004 0.987397
1.00345 1.00284 0.986023
0.999827 0.999026 0.998433
1.00008 1.00177 0.992828
1.00119 1.00453 0.988332
0.999767 0.998537 0.998663
0.999884 1.00097 0.994104
0.99976 0.99811 0.998839
1.00304 1.00299 0.986423
1.00147 1.00276 0.989576
1.00058 1.0044 0.989084
1.00018 1.00412 0.98996
1.0003 1.00472 0.989405
1.00032 1.00358 0.990675
1.00023 1.00445 0.989885
1.00024 1.00301 0.991342
1 1.00007 0.994698
0.999861 0.997854 0.99884
1.00006 0.999608 0.995016
1.00029 1.00242 0.991841
0.999932 0.997522 0.998944
1.00011 0.999204 0.995313
0.999983 0.99722 0.999038
1.00004 0.995114 0.951815
0.999862 0.994879 0.898604
0.994695 0.995148 0.857582
1.00064 1.00479 0.988692
1.00106 1.00287 0.990286
1.00093 1.00392 0.989628
1.00296 1.00345 0.986524
1.00424 1.00253 0.984401
1.00154 1.00348 0.987978
1.00003 1.00454 0.989849
1.0021 1.00287 0.987753
1.00136 0.999639 0.992757
1.00315 0.999532 0.989008
1.00479 0.995665 0.990959
1.00399 0.996171 0.991426
1.00375 0.996421 0.99124
1.00002 1.00026 0.994073
0.995991 0.99572 0.971015
0.999941 0.99694 0.944614
0.998155 0.997003 0.904073
0.997452 0.999318 0.937859
0.994862 0.997694 0.972845
0.995657 0.997245 0.97692
0.999556 0.997485 0.992196
1.00219 0.995675 0.995295
1.00055 0.998967 0.995147
1.00017 0.998285 0.990934
0.996506 0.997298 0.971898
1.00013 0.995017 0.952865
0.999823 0.994879 0.893559
0.996291 0.999521 0.990929
0.996807 0.994873 0.968453
1.00004 0.996248 0.945027
1.00079 0.996245 0.98958
0.998427 0.995658 0.975306
1.00361 0.995448 0.990536
1.00273 0.998165 0.986751
1.00464 0.996034 0.988533
1.00484 0.995703 0.990342
1.00517 0.994875 0.990618
1.0046 0.996593 0.989154
1.00518 0.994948 0.990161
1.00515 0.994942 0.990496
1.00514 0.995692 0.98948
1.0051 0.995035 0.990404
1.00518 0.995008 0.990495
1.00515 0.995753 0.989661
1.00515 0.995285 0.990237
1.00514 0.99572 0.989856
1.00513 0.995775 0.989832
1.00513 0.99654 0.989258
1.00516 0.997867 0.987954
1.00515 0.997812 0.987873
1.00519 0.998674 0.98702
1.00521 0.999548 0.986258
1.00518 1.00033 0.985416
1.00521 1.00022 0.98549
1.00519 0.999699 0.985968
1.00395 1.00113 0.986771
1.005 1.00077 0.9853
1.00511 1.00088 0.984821
1.00098 1.002 0.990926
1.00303 1.00257 0.98693
1.00448 1.00159 0.985432
1.00008 0.999605 0.998
1.00062 1.00201 0.991638
1.00198 1.00392 0.987395
0.999959 0.999146 0.998265
1.00016 1.00178 0.992805
0.999872 0.99862 0.998533
1.00432 1.0024 0.984787
1.00331 1.00294 0.986454
1.00208 1.004 0.987091
1.00145 1.00273 0.989524
1.00073 1.00432 0.988944
1.00069 1.00389 0.98976
1.00023 1.00474 0.989409
1.0003 1.00358 0.990677
0.999942 1.00057 0.994312
1.00021 1.00301 0.991351
0.999988 1.00003 0.994717
0.999789 0.998178 0.998754
0.999866 0.997794 0.998867
1.00006 0.999575 0.995029
0.99993 0.997469 0.998968
0.996843 0.994857 0.972534
1.00002 0.995478 0.9416
0.999843 0.995072 0.9071
1.00514 1.00078 0.984681
1.0013 1.00381 0.989406
1.00286 1.00352 0.986765
1.00201 1.00333 0.987791
1.00433 1.00274 0.98437
1.00389 1.0007 0.986916
1.00284 1.00283 0.986952
1.00113 0.999566 0.992811
1.00353 0.999438 0.98885
1.00483 0.995697 0.990354
1.00481 0.996152 0.989487
1.00412 0.995512 0.992134
1.00389 0.99579 0.991431
1.00327 0.996417 0.991683
0.999831 0.996915 0.99173
0.995794 0.995501 0.969295
0.99933 0.996197 0.941904
0.995184 0.997029 0.975609
0.999707 0.996659 0.994313
1.00203 0.995153 0.99511
1.00059 0.997526 0.985886
0.996418 0.996056 0.973168
0.999979 0.994899 0.942554
0.999913 0.996765 0.989752
0.998468 0.99596 0.974272
1.00307 0.995479 0.990888
1.00284 0.997554 0.987278
1.00438 0.994856 0.991118
1.00463 0.997479 0.990628
1.00472 0.995465 0.990373
1.00518 0.994878 0.990508
1.00522 0.994865 0.990404
1.00518 0.994948 0.990119
1.00514 0.994934 0.990489
1.00521 0.994927 0.990481
1.0051 0.995113 0.99037
1.00517 0.994979 0.99048
1.00518 0.995351 0.990223
1.00513 0.99528 0.990177
1.00515 0.995733 0.98984
1.00516 0.99692 0.988811
1.00514 0.996395 0.989391
1.00516 0.99772 0.988133
1.00521 0.999034 0.986783
1.00519 0.998731 0.986994
1.0052 0.999546 0.986253
1.0052 1.00015 0.985621
1.00431 1.00045 0.986806
1.00514 1.00041 0.985387
1.00521 1.0003 0.985415
1.0015 1.00139 0.990681
1.0039 1.00119 0.986767
1.00498 1.00082 0.985314
1.00024 1.00003 0.997684
1.00117 1.00176 0.990919
1.00299 1.0026 0.986937
1.00018 0.999693 0.99787
1.00076 1.00187 0.991631
1.00008 0.999268 0.998101
1.00511 1.00127 0.984482
1.00445 1.00231 0.984777
1.00385 1.00269 0.985559
1.00361 1.00288 0.986486
1.00219 1.00401 0.987035
1.00123 1.00432 0.988507
1.00092 1.0042 0.988802
1.00051 1.00414 0.989762
0.999946 1.00118 0.993701
1.00022 1.00363 0.99068
0.999922 1.00052 0.994337
0.999736 0.998556 0.998636
0.999975 0.999992 0.994735
0.999792 0.99812 0.998785
0.999871 0.99776 0.998892
1.00102 0.99487 0.989831
0.996672 0.994872 0.969219
0.999998 0.994913 0.952189
1.00505 0.999551 0.986234
1.00518 0.999143 0.986479
1.00511 1.00068 0.98486
1.00245 1.0031 0.987601
1.00444 1.00294 0.984336
1.00403 1.00054 0.987027
1.00501 0.997182 0.988166
1.00394 0.999308 0.988692
1.00485 0.995851 0.989742
1.00483 0.996352 0.989618
1.00502 0.995298 0.990169
1.00414 0.995429 0.99172
1.00379 0.995673 0.992068
1.00403 0.995484 0.991431
1.00016 0.996721 0.991858
0.995833 0.995393 0.967625
1.00003 0.996414 0.996515
1.00427 0.995475 0.991725
1.00053 0.997542 0.98608
0.996311 0.995737 0.97097
1.00289 0.994889 0.991213
1.00289 0.99733 0.98784
1.00445 0.99497 0.991531
1.00465 0.996716 0.990624
1.00526 0.994935 0.990455
1.00531 0.994971 0.990651
1.00518 0.994876 0.990401
1.00523 0.994889 0.990386
1.00522 0.994917 0.990419
1.00513 0.994929 0.990482
1.0052 0.994927 0.990485
1.0052 0.995077 0.990451
1.00517 0.99496 0.990464
1.00518 0.995334 0.990206
1.00516 0.996265 0.98945
1.00516 0.995747 0.989824
1.00516 0.996942 0.988809
1.00522 0.998505 0.987246
1.00517 0.99757 0.988312
1.0052 0.998976 0.98685
1.00522 0.999945 0.985795
1.0052 0.999544 0.986248
1.0052 1.00011 0.985658
1.00444 1.00019 0.986853
1.00177 1.00076 0.990796
1.0043 1.00049 0.986796
1.00511 1.00049 0.985358
1.00033 1.0003 0.997494
1.00155 1.00132 0.99068
1.00382 1.00131 0.986763
1.00029 1.00012 0.997597
1.00127 1.00164 0.990915
1.00025 0.99981 0.997749
1.00522 1.00015 0.985415
1.00512 1.00119 0.984565
1.00485 1.00115 0.985178
1.00456 1.00221 0.984767
1.0038 1.00267 0.985576
1.00219 1.00365 0.98742
1.00225 1.00407 0.986982
1.00098 1.00455 0.988528
1.00017 1.00196 0.992609
1.00034 1.00433 0.989764
0.999908 1.00114 0.99373
0.999747 0.999034 0.99843
0.999909 1.00047 0.994363
0.999724 0.998474 0.998684
0.999794 0.998057 0.998814
1.00413 0.994845 0.992459
1.001 0.99489 0.988016
0.996554 0.994879 0.968449
1.00512 0.998324 0.987528
1.00509 0.999128 0.986493
1.00524 0.997793 0.98773
1.00519 0.999112 0.986476
1.00509 1.00055 0.985041
1.00514 0.996213 0.989024
1.0042 1.00038 0.987138
1.00499 0.997431 0.988157
1.0052 0.994958 0.990256
1.00487 0.996512 0.989751
1.00498 0.995398 0.990052
1.00415 0.995518 0.991863
1.00327 0.995793 0.991996
1.00046 0.996387 0.991885
1.00528 0.994917 0.990479
1.00421 0.996232 0.991815
1.00058 0.997204 0.986265
1.00448 0.995144 0.991934
1.00465 0.996019 0.990623
1.00525 0.994924 0.990496
1.00532 0.995002 0.990582
1.00524 0.99495 0.990645
1.00523 0.99491 0.990369
1.00521 0.994921 0.990435
1.00518 0.994934 0.990648
1.0052 0.994924 0.990489
1.0052 0.995055 0.990424
1.00517 0.995744 0.989959
1.00518 0.995319 0.99019
1.00517 0.99629 0.989441
1.00523 0.997985 0.987773
1.00516 0.996963 0.988807
1.00522 0.998513 0.987264
1.00523 0.999746 0.985997
1.0052 0.998916 0.986916
1.00522 0.99994 0.985815
1.00449 1.00011 0.986856
1.0052 1.00007 0.985696
1.00444 1.0002 0.986851
1.00183 1.00038 0.992473
1.00055 1.00009 0.994598
1.00182 1.00072 0.991512
1.00429 1.00053 0.986786
1.00035 1.00035 0.99746
1.00168 1.00113 0.990676
1.00033 1.00022 0.997517
1.00525 0.997697 0.987926
1.00524 0.999167 0.986466
1.00523 1.00016 0.985532
1.00502 1.00056 0.985416
1.00514 1.00112 0.984647
1.0049 1.0011 0.985157
1.00337 1.00193 0.986957
1.00377 1.00261 0.985593
1.00218 1.00357 0.987418
1.00072 1.00224 0.991343
1.0008 1.00477 0.988547
1.00005 1.00199 0.992636
0.999884 0.999692 0.998023
0.999875 1.00109 0.993758
0.999694 0.998918 0.998516
0.999719 0.9984 0.998724
1.00527 0.994844 0.990477
1.00447 0.994844 0.992332
1.00117 0.994897 0.986251
1.00517 0.996766 0.988623
1.00512 0.998247 0.987371
1.00512 0.998727 0.986749
1.00522 0.997938 0.987695
1.00521 0.999076 0.986473
1.00524 0.995365 0.990097
1.00511 0.996224 0.988985
1.00496 0.997707 0.988147
1.0052 0.994928 0.990263
1.00499 0.995488 0.989935
1.00415 0.995636 0.992024
1.00524 0.994914 0.990738
1.00528 0.994917 0.990655
1.00414 0.996981 0.991911
1.00524 0.994916 0.99053
1.00533 0.994964 0.990515
1.00525 0.994948 0.990592
1.00514 0.994959 0.990905
1.00521 0.994928 0.990452
1.00518 0.994931 0.990612
1.00518 0.995362 0.990385
1.0052 0.995032 0.990396
1.00517 0.995761 0.989956
1.00522 0.997578 0.988206
1.00517 0.996317 0.989431
1.00523 0.997993 0.987784
1.00525 0.999538 0.986216
1.00521 0.998521 0.987281
1.00523 0.999737 0.986016
1.00453 1.0001 0.986821
1.00522 0.999934 0.985835
1.0045 1.0001 0.986862
1.00194 1.0001 0.992587
1.00445 1.0002 0.986849
1.002 1.00028 0.99239
1.00054 0.999986 0.994763
1.00034 1.00034 0.996059
1.00199 1.00066 0.992092
1.00034 1.00042 0.997439
1.00518 0.99702 0.988731
1.00525 0.998779 0.986796
1.00524 0.997502 0.988126
1.00515 1.00008 0.985685
1.00525 0.999246 0.986424
1.00524 1.00018 0.985649
1.00508 1.00053 0.985381
1.00408 1.00084 0.986829
1.00496 1.00106 0.985136
1.00347 1.00178 0.986944
1.00128 1.00181 0.990682
1.00213 1.00355 0.987418
1.00053 1.00242 0.991352
1.00004 1.00043 0.997607
0.999893 1.00207 0.992662
0.999756 0.999578 0.998193
0.99967 0.998803 0.998589
1.00524 0.99489 0.990533
1.00525 0.994846 0.990461
1.00474 0.994855 0.992175
1.00519 0.995893 0.989693
1.00515 0.996856 0.988603
1.00512 0.998174 0.98722
1.00521 0.998083 0.987661
1.00523 0.995363 0.990047
1.00508 0.996246 0.988946
1.00519 0.994919 0.99027
1.00517 0.994926 0.99091
1.00523 0.994917 0.99073
1.00527 0.994922 0.99083
1.00512 0.994957 0.991
1.00525 0.994944 0.990539
1.00515 0.994956 0.990887
1.00518 0.995204 0.990657
1.00519 0.994928 0.990577
1.00517 0.995385 0.990388
1.00522 0.997349 0.988477
1.00518 0.995781 0.989952
1.00522 0.997587 0.988215
1.00525 0.999312 0.986468
1.00523 0.998002 0.987795
1.00524 0.999526 0.986233
1.00455 1.00007 0.986804
1.00524 0.999727 0.986034
1.00453 1.00008 0.986832
1.00201 1.00005 0.992532
1.00451 1.00009 0.986866
1.00208 1.00004 0.992476
1.0006 0.999886 0.994797
1.00215 1.00018 0.992316
1.00023 1.00015 0.994964
0.99988 1.00064 0.997792
1.00517 0.996948 0.988743
1.00522 0.998197 0.987523
1.00519 0.997084 0.988586
1.00526 0.99972 0.986095
1.00526 0.998566 0.986986
1.00523 0.997315 0.988325
1.00441 1.00025 0.986831
1.00519 1.00007 0.985653
1.00525 0.999322 0.986382
1.00516 1.0005 0.985346
1.0041 1.00076 0.986836
1.00159 1.00123 0.990696
1.00354 1.00161 0.986932
1.00116 1.00197 0.99069
1.00008 1.00086 0.997438
1.0004 1.00253 0.991367
0.999938 1.00027 0.997757
0.999667 0.99939 0.998338
1.00516 0.995268 0.990491
1.00524 0.994889 0.990532
1.00525 0.994845 0.990446
1.00518 0.995786 0.989814
1.00514 0.996938 0.988582
1.00522 0.995352 0.989998
1.00517 0.994923 0.990968
1.00517 0.994934 0.990919
1.00523 0.994918 0.990723
1.00511 0.994957 0.991036
1.00519 0.995414 0.990475
1.00515 0.994952 0.990869
1.00517 0.995376 0.990491
1.00524 0.996895 0.98898
1.00516 0.995403 0.990391
1.00522 0.997324 0.988482
1.00524 0.999069 0.986726
1.00521 0.997585 0.988223
1.00525 0.999298 0.986477
1.00457 0.999998 0.986846
1.00524 0.999513 0.986249
1.00456 1.00007 0.986817
1.00205 1.00012 0.992383
1.00454 1.00007 0.986843
1.00214 1 0.992403
1.00066 0.999889 0.994704
1.00221 0.999995 0.992375
1.00032 0.999937 0.995021
0.999933 1.00033 0.995149
1.00518 0.996317 0.989504
1.00522 0.997988 0.987733
1.00518 0.996763 0.988905
1.00525 0.999254 0.986591
1.00522 0.998294 0.987411
1.00521 0.997145 0.988442
1.00455 0.999924 0.986922
1.00526 0.999577 0.986125
1.00526 0.998354 0.987177
1.00177 1.00062 0.990946
1.00442 1.00022 0.986835
1.00522 1.00006 0.985621
1.00413 1.0007 0.986844
1.00153 1.00131 0.990704
1.0001 1.00093 0.997443
1.00105 1.00213 0.990698
1.00006 1.00073 0.997484
0.999803 1.00013 0.997926
1.00517 0.995061 0.990735
1.00516 0.995298 0.990432
1.00524 0.994888 0.99053
1.00518 0.995699 0.989934
1.00517 0.995449 0.990431
1.00515 0.99493 0.990981
1.00517 0.994943 0.990928
1.00511 0.994957 0.991072
1.0052 0.995405 0.990481
1.00527 0.996919 0.988926
1.00516 0.995545 0.990325
1.00524 0.997149 0.988681
1.00524 0.998645 0.987195
1.00523 0.99731 0.988486
1.00524 0.999064 0.986726
1.00457 0.999893 0.986954
1.00524 0.999294 0.986485
1.00457 0.999995 0.986855
1.00211 1.00018 0.990869
1.00456 1.00006 0.98683
1.00217 1.00008 0.991567
1.00057 0.999945 0.997448
1.00226 0.999973 0.992275
1.00041 0.999877 0.99494
1.00006 0.99998 0.995229
1.0052 0.995858 0.989973
1.00523 0.997617 0.988189
1.00518 0.996377 0.989466
1.00525 0.998975 0.986752
1.00522 0.997997 0.987715
1.00519 0.996573 0.989067
1.00459 0.999692 0.986923
1.00526 0.999254 0.986599
1.00521 0.99839 0.987299
1.00195 1.0001 0.991153
1.00454 0.999876 0.986873
1.00526 0.999427 0.986155
1.0002 1.00068 0.997509
1.00178 1.00061 0.990952
1.00442 1.0002 0.986837
1.00147 1.00136 0.990715
1.00011 1.00084 0.997432
1 1.00065 0.997552
1.00517 0.995343 0.99051
1.00517 0.995106 0.990701
1.00516 0.995319 0.990374
1.00522 0.99706 0.988808
1.00518 0.995324 0.99055
1.00514 0.994938 0.990994
1.0052 0.995395 0.990486
1.00527 0.996896 0.98893
1.00522 0.998613 0.9874
1.00525 0.997405 0.988381
1.00524 0.998832 0.987054
1.00454 0.999653 0.987109
1.00525 0.99905 0.986727
1.00457 0.99989 0.986959
1.00211 1.00014 0.990913
1.00458 0.999994 0.986864
1.00212 1.00016 0.99087
1.00056 0.99999 0.997416
1.0022 1.00007 0.990856
1.00046 0.999942 0.996175
1.00016 0.999844 0.995173
1.00519 0.995886 0.989898
1.00522 0.997448 0.988401
1.0052 0.995809 0.990038
1.00524 0.999024 0.986716
1.00523 0.997675 0.98811
1.00518 0.99644 0.989428
1.00461 0.999614 0.987
1.00525 0.99912 0.986672
1.00521 0.998007 0.987698
1.00207 0.999869 0.991171
1.00458 0.999687 0.98693
1.00526 0.999255 0.986607
1.00038 1.00031 0.997536
1.00196 1.00008 0.991155
1.00454 0.999826 0.986823
1.00021 1.00064 0.99748
1.00178 1.0006 0.990956
1.00009 1.0008 0.997437
1.00521 0.996943 0.988981
1.00517 0.995476 0.990394
1.00518 0.995147 0.990668
1.00522 0.998504 0.987516
1.00522 0.996919 0.988928
1.00519 0.995204 0.990669
1.00526 0.996873 0.988934
1.00522 0.998612 0.987395
1.00451 0.999554 0.987273
1.00524 0.99902 0.986912
1.00455 0.999722 0.987094
1.00211 1.00004 0.991013
1.00457 0.999885 0.986964
1.0021 1.00014 0.990918
1.00054 1.00002 0.997388
1.00212 1.00015 0.99087
1.00055 1 0.9974
1.00054 0.999901 0.994689
1.00522 0.997342 0.988466
1.00518 0.995699 0.990072
1.00523 0.998891 0.986897
1.00522 0.997454 0.988385
1.0052 0.995764 0.990104
1.00459 0.999687 0.987135
1.00524 0.999033 0.986711
1.00523 0.997732 0.988031
1.00215 0.999858 0.991074
1.0046 0.999668 0.987019
1.00525 0.999269 0.986592
1.00053 1.00005 0.997492
1.00209 0.999863 0.991171
1.00457 0.999674 0.986936
1.00035 1.00033 0.997528
1.00198 1.00007 0.991156
1.00022 1.00063 0.997455
1.00523 0.998497 0.987481
1.00521 0.997025 0.988879
1.00517 0.995596 0.990277
1.00449 0.999508 0.987358
1.00522 0.998509 0.987513
1.00522 0.996774 0.989047
1.00522 0.998615 0.98739
1.00452 0.999545 0.987252
1.00206 1 0.991139
1.00455 0.99979 0.987078
1.00209 1.00006 0.991017
1.00054 1.00001 0.997391
1.0021 1.00014 0.990923
1.00053 1.00003 0.997392
1.00055 1.00001 0.99739
1.00524 0.998766 0.987027
1.00522 0.997097 0.988726
1.00517 0.995528 0.990246
1.00455 0.999669 0.987241
1.00523 0.998899 0.986886
1.00523 0.997459 0.98837
1.00214 0.999943 0.991024
1.00457 0.999693 0.987129
1.00523 0.999042 0.986707
1.0006 0.999952 0.997424
1.00215 0.999874 0.991074
1.00459 0.999717 0.987037
1.0005 1.00009 0.997511
1.00209 0.999874 0.991173
1.00036 1.00032 0.997512
1.00449 0.999632 0.987359
1.00523 0.998425 0.987489
1.0052 0.997108 0.988777
1.00203 0.999941 0.991267
1.0045 0.99949 0.987349
1.00522 0.998511 0.98751
1.00454 0.999531 0.987233
1.00206 0.999984 0.991145
1.00052 1.00001 0.997391
1.00207 1.00007 0.991021
1.00053 1.00002 0.997386
1.00051 1.00004 0.997395
1.00451 0.999646 0.987321
1.00523 0.998617 0.987183
1.00522 0.996853 0.988987
1.00219 0.999996 0.992331
1.00453 0.99967 0.987242
1.00523 0.998908 0.986875
1.00058 0.999959 0.997388
1.00214 0.999964 0.991024
1.00456 0.999701 0.987124
1.00058 0.999981 0.99745
1.00215 0.999899 0.991073
1.00048 1.0001 0.997525
1.00209 0.999941 0.991197
1.00449 0.999559 0.987358
1.00523 0.998352 0.987498
1.00047 0.999992 0.997427
1.00202 0.99994 0.991264
1.00451 0.999474 0.98734
1.00205 0.999967 0.991147
1.0005 1.00001 0.997401
1.00052 1.00003 0.997387
1.00221 0.999972 0.992365
1.00451 0.999645 0.987321
1.00523 0.998464 0.987339
1.00016 0.999997 0.997794
1.00209 1 0.991089
1.00452 0.999668 0.987244
1.00058 0.999971 0.997406
1.00214 0.999985 0.991023
1.00057 1 0.997474
1.00046 0.999972 0.994822
1.00211 0.999941 0.991843
1.00449 0.999487 0.987355
1.00049 0.999993 0.997431
1.00202 0.999942 0.991268
1.00052 1 0.997407
1.00006 0.999997 0.995204
1.00213 0.999964 0.991784
1.0045 0.999649 0.987321
1.00033 0.999991 0.996268
1.00209 1 0.991101
1.00059 0.999981 0.997425
1.00048 0.999984 0.997428
1.00201 0.999936 0.991284
1.00046 0.999992 0.99743
1.00028 0.999981 0.996321
1.00205 0.99996 0.99122
1.00054 0.999984 0.997408
1.00049 0.999982 0.99744
1.00048 0.999983 0.997428

TENSORS stress float
0.00182974 -0.000108809 0.000197842
-0.000108809 0.000761865 -2.89256e-05
0.000197842 -2.89256e-05 0.000739729
0.00571109 -6.69232e-05 0.000201151
-6.69232e-05 0.00311897 2.10118e-05
0.000201151 2.10118e-05 0.00310593
0.00157691 -4.01647e-05 8.91673e-05
-4.01647e-05 0.000614716 -1.14336e-05
8.91673e-05 -1.14336e-05 0.000583226
0.00192735 -6.38245e-05 0.00019643
-6.38245e-05 0.000795736 -1.77091e-05
0.00019643 -1.77091e-05 0.000778603
0.00188608 -9.71652e-05 0.00019394
-9.71652e-05 0.000786529 -2.58729e-05
0.00019394 -2.58729e-05 0.000766415
0.00176592 -0.000107083 0.000203656
-0.000107083 0.000723162 -2.91296e-05
0.000203656 -2.91296e-05 0.000702194
0.0015491 -8.72233e-05 3.34077e-05
-8.72233e-05 0.00051612 -1.05706e-05
3.34077e-05 -1.05706e-05 0.00042706
0.00564888 -7.40713e-05 -7.0514e-06
-7.40713e-05 0.00307112 1.4556e-08
-7.0514e-06 1.4556e-08 0.00306333
0.00561418 0.000103958 9.5956e-05
0.000103958 0.00302196 6.72283e-06
9.5956e-05 6.72283e-06 0.00300595
0.00542123 -0.000163732 3.1944e-05
-0.000163732 0.00293486 2.53017e-06
3.1944e-05 2.53017e-06 0.00290606
0.00171285 0.000118658 0.000201881
0.000118658 0.000685067 2.04012e-05
0.000201881 2.04012e-05 0.00067752
0.000611848 0.000207025 2.4343e-05
0.000207025 -2.93991e-05 1.5478e-05
2.4343e-05 1.5478e-05 -0.000130132
0.00166781 -3.39742e-05 0.000203084
-3.39742e-05 0.000635808 2.85283e-06
0.000203084 2.85283e-06 0.000629967
0.00130727 -7.22447e-06 4.18746e-05
-7.22447e-06 0.000441825 1.19123e-06
4.18746e-05 1.19123e-06 0.000402978
0.00138468 -3.463e-05 -3.61046e-05
-3.463e-05 0.000502755 6.41598e-06
-3.61046e-05 6.41598e-06 0.000463589
0.00161675 -6.71807e-05 6.7625e-05
-6.71807e-05 0.000623402 -3.89933e-06
6.7625e-05 -3.89933e-06 0.000594512
0.00157429 -2.39689e-05 9.64706e-05
-2.39689e-05 0.000620734 -1.13566e-05
9.64706e-05 -1.13566e-05 0.000585128
0.00159332 -5.43248e-05 7.94261e-05
-5.43248e-05 0.00061369 -9.60657e-06
7.94261e-05 -9.60657e-06 0.000586097
0.00161552 -0.000127318 -3.32089e-05
-0.000127318 0.000548736 3.74798e-06
-3.32089e-05 3.74798e-06 0.000468213
0.00561474 -0.000116335 0.000249798
-0.000116335 0.00303021 -8.21025e-06
0.000249798 -8.21025e-06 0.0030376
0.00189354 -4.49116e-05 0.000198013
-4.49116e-05 0.000773358 -1.31989e-05
0.000198013 -1.31989e-05 0.000757431
0.00193255 -8.22741e-05 0.000194618
-8.22741e-05 0.000804878 -2.20414e-05
0.000194618 -2.20414e-05 0.00078677
0.00157063 -0.000111692 5.47511e-05
-0.000111692 0.000504737 -8.34498e-06
5.47511e-05 -8.34498e-06 0.000424774
0.00156656 -0.000100659 4.26815e-05
-0.000100659 0.00051017 -9.79747e-06
4.26815e-05 -9.79747e-06 0.000428392
0.00169969 -7.99293e-05 0.000198165
-7.99293e-05 0.000675586 -2.54714e-05
0.000198165 -2.54714e-05 0.000658082
0.00153344 -7.69657e-05 2.61027e-05
-7.69657e-05 0.000526158 -1.1462e-05
2.61027e-05 -1.1462e-05 0.000427503
0.0020024 -0.000232912 1.47536e-05
-0.000232912 0.000639288 -6.59789e-06
1.47536e-05 -6.59789e-06 0.000485001
0.00560512 -8.81544e-05 -0.000198747
-8.81544e-05 0.00303593 -1.26169e-05
-0.000198747 -1.26169e-05 0.00303263
0.00362271 9.10463e-05 -0.000114031
9.10463e-05 0.0018312 -1.03477e-05
-0.000114031 -1.03477e-05 0.00181228
0.00350489 -1.46127e-05 -0.000108444
-1.46127e-05 0.00178081 -6.65835e-06
-0.000108444 -6.65835e-06 0.0017577
0.00546673 -0.000140791 -1.54074e-06
-0.000140791 0.00297673 6.60027e-07
-1.54074e-06 6.60027e-07 0.00296064
0.000565133 0.000192881 -2.13779e-06
0.000192881 -5.60751e-05 -7.36774e-07
-2.13779e-06 -7.36774e-07 -0.000155066
0.00163099 5.64504e-05 0.000200237
5.64504e-05 0.000623183 1.61559e-05
0.000200237 1.61559e-05 0.00060779
0.00177434 0.000133838 0.00020315
0.000133838 0.000734544 2.44134e-05
0.00020315 2.44134e-05 0.0007122
0.00265469 0.000182085 0.000123628
0.000182085 0.00115741 1.62663e-05
0.000123628 1.62663e-05 0.00108851
0.00441341 -0.000304685 -7.89289e-06
-0.000304685 0.00238908 6.10818e-06
-7.89289e-06 6.10818e-06 0.00233417
0.00275019 0.000234629 0.000124583
0.000234629 0.0012444 1.90258e-05
0.000124583 1.90258e-05 0.00116819
0.000565294 0.000169308 2.75934e-05
0.000169308 -5.20341e-05 1.96354e-05
2.75934e-05 1.96354e-05 -0.000147352
0.000877268 0.000188615 1.07073e-05
0.000188615 3.47017e-05 5.95536e-06
1.07073e-05 5.95536e-06 -0.000135908
0.00346021 -0.00010487 0.000118095
-0.00010487 0.00176736 5.74183e-06
0.000118095 5.74183e-06 0.00177102
0.00561267 7.12084e-05 3.59539e-06
7.12084e-05 0.00301973 -1.4585e-06
3.59539e-06 -1.4585e-06 0.00303234
0.00355321 6.76478e-05 -9.46339e-05
6.76478e-05 0.00178402 -3.61567e-06
-9.46339e-05 -3.61567e-06 0.00177063
0.00550385 6.02436e-05 0.000244136
6.02436e-05 0.00295722 3.04937e-06
0.000244136 3.04937e-06 0.00296987
0.00130394 7.64002e-05 4.51234e-05
7.64002e-05 0.000438045 2.59401e-06
4.51234e-05 2.59401e-06 0.000403848
0.000643927 9.53126e-06 1.61534e-05
9.53126e-06 -7.87694e-05 1.70086e-06
1.61534e-05 1.70086e-06 -0.000153783
0.00551934 0.000197986 0.000129314
0.000197986 0.00298903 1.15281e-05
0.000129314 1.15281e-05 0.00296612
0.0027144 6.15121e-05 0.000119969
6.15121e-05 0.00115969 7.17508e-06
0.000119969 7.17508e-06 0.00110674
0.00124624 -7.45383e-05 -5.57371e-05
-7.45383e-05 0.000416965 6.90627e-06
-5.57371e-05 6.90627e-06 0.000375004
0.00129601 -7.43434e-05 -4.82631e-05
-7.43434e-05 0.000449644 7.62429e-06
-4.82631e-05 7.62429e-06 0.000409165
0.00145489 1.53446e-05 -2.44381e-05
1.53446e-05 0.00055072 6.22191e-06
-2.44381e-05 6.22191e-06 0.000507829
0.00164835 -0.000135558 -0.000107099
-0.000135558 0.00056137 1.77672e-05
-0.000107099 1.77672e-05 0.00048849
0.0035187 5.04486e-06 -9.96396e-05
5.04486e-06 0.00177018 -1.95359e-06
-9.96396e-05 -1.95359e-06 0.00175475
0.00160639 -5.08247e-05 7.3999e-05
-5.08247e-05 0.000612038 -3.27274e-06
7.3999e-05 -3.27274e-06 0.000585642
0.00152562 9.39651e-08 9.94352e-05
9.39651e-08 0.00059433 -9.28557e-06
9.94352e-05 -9.28557e-06 0.000557689
0.0016118 -6.21579e-05 7.22079e-05
-6.21579e-05 0.000619727 -6.64478e-06
7.22079e-05 -6.64478e-06 0.000592681
0.00162815 -9.21687e-05 -2.66878e-05
-9.21687e-05 0.000531329 1.33692e-06
-2.66878e-05 1.33692e-06 0.000459373
0.0016011 -0.00012165 -3.86213e-05
-0.00012165 0.000553145 3.89871e-06
-3.86213e-05 3.89871e-06 0.000466752
0.0016239 -0.000123212 -2.83106e-05
-0.000123212 0.000542615 2.68817e-06
-2.83106e-05 2.68817e-06 0.000466409
0.00200644 -0.000232378 -7.60778e-06
-0.000232378 0.000638848 2.04549e-06
-7.60778e-06 2.04549e-06 0.000484713
0.00548023 3.41045e-05 0.000238884
3.41045e-05 0.00294215 -3.7585e-07
0.000238884 -3.7585e-07 0.00295573
0.00185782 -2.48811e-05 0.000197149
-2.48811e-05 0.000754486 -9.0578e-06
0.000197149 -9.0578e-06 0.000740515
0.00242459 1.28072e-05 3.91103e-05
1.28072e-05 0.00100428 -9.40352e-07
3.91103e-05 -9.40352e-07 0.000942427
0.00156847 -9.0469e-05 4.81919e-05
-9.0469e-05 0.000494988 -5.62662e-06
4.81919e-05 -5.62662e-06 0.000419882
0.00156912 -0.000107882 5.01265e-05
-0.000107882 0.00050496 -9.2334e-06
5.01265e-05 -9.2334e-06 0.000425242
0.00189672 -0.000146172 1.16055e-05
-0.000146172 0.000518392 -3.05399e-06
1.16055e-05 -3.05399e-06 0.000386564
0.00169707 -0.000193326 1.61383e-05
-0.000193326 0.000429877 -5.77074e-06
1.61383e-05 -5.77074e-06 0.000283702
0.00128741 -3.85093e-05 0.000163284
-3.85093e-05 0.000429479 -1.84792e-05
0.000163284 -1.84792e-05 0.000415831
0.0013847 -3.35279e-05 1.71075e-05
-3.35279e-05 0.000459789 -1.1455e-05
1.71075e-05 -1.1455e-05 0.000361317
0.00200655 -0.000253265 1.3927e-05
-0.000253265 0.000670203 -7.27763e-06
1.3927e-05 -7.27763e-06 0.000506009
0.00131388 -0.000250485 7.52589e-06
-0.000250485 9.59975e-05 -2.16707e-06
7.52589e-06 -2.16707e-06 -9.64886e-05
0.00589624 0.000170157 -0.000255271
0.000170157 0.00319192 -2.28685e-05
-0.000255271 -2.28685e-05 0.00319514
0.00516606 -0.000164689 -0.000157385
-0.000164689 0.0027986 -1.03802e-05
-0.000157385 -1.03802e-05 0.00278255
0.00566796 -1.17381e-05 -0.000216184
-1.17381e-05 0.00306185 -1.53771e-05
-0.000216184 -1.53771e-05 0.00306595
0.0005196 0.000186332 -2.43605e-05
0.000186332 -7.86392e-05 -1.56585e-05
-2.43605e-05 -1.56585e-05 -0.000179
0.00590055 0.000179636 -2.8528e-06
0.000179636 0.00319327 -1.97202e-06
-2.8528e-06 -1.97202e-06 0.00319684
0.0059136 0.000104901 -8.81374e-06
0.000104901 0.00320264 -1.61056e-06
-8.81374e-06 -1.61056e-06 0.00320621
0.00050057 0.000123496 -8.10152e-08
0.000123496 -0.000134575 -2.32044e-07
-8.10152e-08 -2.32044e-07 -0.000226348
0.00284682 -0.000134133 -6.5057e-05
-0.000134133 0.00141445 -2.91696e-06
-6.5057e-05 -2.91696e-06 0.00138284
0.000502531 0.000186259 -3.92673e-07
0.000186259 -9.64564e-05 -4.04457e-07
-3.92673e-07 -4.04457e-07 -0.000197435
0.00160188 0.000154559 4.14382e-05
0.000154559 0.00057602 1.39736e-06
4.14382e-05 1.39736e-06 0.000495944
0.000867704 0.000185714 -2.74883e-08
0.000185714 2.53366e-05 2.90398e-07
-2.74883e-08 2.90398e-07 -0.000144324
0.00415718 -0.000112507 0.00014733
-0.000112507 0.00218531 9.11686e-06
0.00014733 9.11686e-06 0.00218494
0.000660195 -1.58524e-05 5.91394e-06
-1.58524e-05 6.60906e-05 9.36232e-06
5.91394e-06 9.36232e-06 2.07923e-05
0.000612355 9.34322e-05 1.67968e-05
9.34322e-05 -8.82085e-05 8.9593e-06
1.67968e-05 8.9593e-06 -0.000175115
0.000654663 0.000149461 2.17453e-05
0.000149461 -2.95213e-05 1.55368e-05
2.17453e-05 1.55368e-05 -0.000127258
0.000992046 0.000160377 1.38933e-05
0.000160377 -7.24252e-06 5.49789e-06
1.38933e-05 5.49789e-06 -0.000161763
0.0026115 9.0442e-05 9.57096e-05
9.0442e-05 0.00120349 1.27615e-05
9.57096e-05 1.27615e-05 0.001145
0.000930982 0.000183726 1.21745e-05
0.000183726 2.96068e-05 6.67951e-06
1.21745e-05 6.67951e-06 -0.000134748
0.000845512 0.000196685 1.04498e-05
0.000196685 7.99625e-05 5.25418e-06
1.04498e-05 5.25418e-06 -0.000100936
0.0011082 0.000242621 5.30757e-06
0.000242621 0.000104192 1.94952e-06
5.30757e-06 1.94952e-06 -0.000104692
0.00287965 -0.00012081 6.84893e-05
-0.00012081 0.00141768 2.50179e-06
6.84893e-05 2.50179e-06 0.0014177
0.00323748 -0.000139769 1.25945e-05
-0.000139769 0.00163983 -2.71074e-07
1.25945e-05 -2.71074e-07 0.00163461
0.00582057 3.13037e-05 -0.00024779
3.13037e-05 0.00313611 -1.07138e-05
-0.00024779 -1.07138e-05 0.00314744
0.00567635 6.14741e-05 -0.000250245
6.14741e-05 0.00305492 -6.53409e-06
-0.000250245 -6.53409e-06 0.00306842
0.00558088 8.42454e-05 -1.30971e-07
8.42454e-05 0.00300913 -2.89041e-06
-1.30971e-07 -2.89041e-06 0.00301785
0.0034994 1.72933e-05 -0.000108128
1.72933e-05 0.00175013 -4.61473e-06
-0.000108128 -4.61473e-06 0.00174045
0.0016466 3.40446e-05 5.14565e-05
3.40446e-05 0.000523415 1.09353e-06
5.14565e-05 1.09353e-06 0.00046135
0.003645 0.000116671 -9.65215e-05
0.000116671 0.00184322 -4.99547e-06
-9.65215e-05 -4.99547e-06 0.00182475
0.00168557 8.02401e-05 5.09852e-05
8.02401e-05 0.000547212 2.09651e-06
5.09852e-05 2.09651e-06 0.000479222
0.0055506 0.00013715 0.000247007
0.00013715 0.003001 6.20038e-06
0.000247007 6.20038e-06 0.00300373
0.000567721 1.05675e-05 1.86622e-05
1.05675e-05 -0.000120476 5.90371e-07
1.86622e-05 5.90371e-07 -0.000193521
0.00272928 2.82568e-05 0.000119787
2.82568e-05 0.00116801 4.80101e-06
0.000119787 4.80101e-06 0.00111844
0.00102558 3.90691e-05 1.24593e-05
3.90691e-05 -2.01924e-05 1.19851e-06
1.24593e-05 1.19851e-06 -0.000144401
0.00263611 0.000103854 0.000122547
0.000103854 0.00112042 9.21877e-06
0.000122547 9.21877e-06 0.00106312
0.0010537 9.2472e-05 1.21942e-05
9.2472e-05 -7.49502e-06 2.52684e-06
1.21942e-05 2.52684e-06 -0.000142032
0.0016818 4.26506e-05 -0.000201766
4.26506e-05 0.000645049 1.88294e-06
-0.000201766 1.88294e-06 0.000639646
0.0012847 -2.35624e-06 -4.27338e-05
-2.35624e-06 0.000431242 1.8616e-06
-4.27338e-05 1.8616e-06 0.000393097
0.00143348 5.56428e-05 -1.57302e-05
5.56428e-05 0.000546275 6.52292e-06
-1.57302e-05 6.52292e-06 0.000499393
0.0012507 -8.16645e-05 -5.64002e-05
-8.16645e-05 0.000421701 8.0116e-06
-5.64002e-05 8.0116e-06 0.000380324
0.0017453 -7.21031e-05 -0.000105191
-7.21031e-05 0.000593155 9.21415e-06
-0.000105191 9.21415e-06 0.000529582
0.00169843 -0.000115207 -0.000105137
-0.000115207 0.000579602 1.5284e-05
-0.000105137 1.5284e-05 0.000511405
0.00160755 -0.000143035 -0.000109022
-0.000143035 0.000547986 1.86885e-05
-0.000109022 1.86885e-05 0.000470414
0.00201253 -0.000232028 -2.8375e-05
-0.000232028 0.00064015 9.98912e-06
-2.8375e-05 9.98912e-06 0.000486253
0.00557045 -8.79543e-05 2.05051e-06
-8.79543e-05 0.00300387 -1.54339e-06
2.05051e-06 -1.54339e-06 0.00301199
0.00153895 4.25653e-05 8.22069e-05
4.25653e-05 0.000569859 -3.249e-06
8.22069e-05 -3.249e-06 0.00054739
0.00113362 -3.01701e-06 -5.45943e-05
-3.01701e-06 0.000220694 1.10004e-06
-5.45943e-05 1.10004e-06 0.000157063
0.00162825 -5.60769e-05 -3.04907e-05
-5.60769e-05 0.00052582 1.87474e-06
-3.04907e-05 1.87474e-06 0.000456991
0.00332924 3.42464e-05 0.000175219
3.42464e-05 0.0016813 -5.18052e-06
0.000175219 -5.18052e-06 0.00166866
0.00205119 -0.000106177 -3.4232e-05
-0.000106177 0.000840638 1.24162e-06
-3.4232e-05 1.24162e-06 0.000754793
0.00163101 -0.000110126 -2.60467e-05
-0.000110126 0.000538618 1.81524e-06
-2.60467e-05 1.81524e-06 0.000465054
0.00183754 -0.000141282 -9.07324e-06
-0.000141282 0.000480322 1.61493e-06
-9.07324e-06 1.61493e-06 0.00034848
0.00200306 -0.000254076 -6.45492e-06
-0.000254076 0.000666686 1.85757e-06
-6.45492e-06 1.85757e-06 0.000502008
0.00186141 -0.000200282 -5.06146e-06
-0.000200282 0.000527638 1.2803e-06
-5.06146e-06 1.2803e-06 0.000381865
0.0013233 -0.000250823 3.34317e-07
-0.000250823 0.000101458 -1.21751e-07
3.34317e-07 -1.21751e-07 -9.06461e-05
0.000606032 1.27242e-05 1.9256e-05
1.27242e-05 -0.000100455 -1.09638e-06
1.9256e-05 -1.09638e-06 -0.00017035
0.00150228 1.27522e-05 3.92726e-05
1.27522e-05 0.00045027 -2.59952e-06
3.92726e-05 -2.59952e-06 0.000381547
0.00166599 -3.7025e-05 1.26117e-05
-3.7025e-05 0.000367173 -9.86928e-07
1.26117e-05 -9.86928e-07 0.000252358
0.00167534 -0.000110585 1.24554e-05
-0.000110585 0.000377081 -2.34907e-06
1.24554e-05 -2.34907e-06 0.000249887
0.0016754 -0.000165489 1.4623e-05
-0.000165489 0.000394226 -4.30196e-06
1.4623e-05 -4.30196e-06 0.000255558
0.00173411 -0.000185435 1.35889e-06
-0.000185435 0.000246374 -6.13067e-07
1.35889e-06 -6.13067e-07 9.1528e-05
0.00461695 0.000177674 0.000130794
0.000177674 0.00248472 -8.72849e-06
0.000130794 -8.72849e-06 0.00246514
0.00135485 -0.000232635 6.17044e-06
-0.000232635 8.49171e-05 -1.79594e-06
6.17044e-06 -1.79594e-06 -9.57535e-05
0.000341932 -0.000112225 1.81483e-05
-0.000112225 -0.000173147 -1.53969e-05
1.81483e-05 -1.53969e-05 -0.000251177
0.000863873 -0.000190963 1.08793e-05
-0.000190963 2.30124e-05 -6.8791e-06
1.08793e-05 -6.8791e-06 -0.000147272
0.00136637 -0.000273582 8.4404e-06
-0.000273582 0.000167405 -3.38187e-06
8.4404e-06 -3.38187e-06 -3.87531e-05
0.00161155 -0.000323926 3.33545e-06
-0.000323926 0.000154996 7.17782e-07
3.33545e-06 7.17782e-07 -4.84754e-05
0.000337537 -4.58508e-05 1.02645e-05
-4.58508e-05 -0.000134481 -1.24314e-05
1.02645e-05 -1.24314e-05 -0.000195659
0.000663021 -5.02299e-05 7.61703e-07
-5.02299e-05 6.8916e-05 -4.45626e-06
7.61703e-07 -4.45626e-06 -6.16685e-05
0.0059182 0.000197133 -0.000266433
0.000197133 0.0032086 -2.31641e-05
-0.000266433 -2.31641e-05 0.00320975
0.00579486 8.70592e-05 -0.000236054
8.70592e-05 0.00313013 -1.94283e-05
-0.000236054 -1.94283e-05 0.00313689
0.000496965 0.000117552 -1.84614e-05
0.000117552 -0.000138573 -1.07562e-05
-1.84614e-05 -1.07562e-05 -0.000230242
0.00448367 -0.000182991 -0.000126555
-0.000182991 0.00240099 -7.72036e-06
-0.000126555 -7.72036e-06 0.00238322
0.000438789 0.00013872 -2.115e-05
0.00013872 -0.000123747 -1.52127e-05
-2.115e-05 -1.52127e-05 -0.000206048
0.000463989 0.000170599 -2.04531e-05
0.000170599 -0.000115744 -1.49467e-05
-2.04531e-05 -1.49467e-05 -0.000218139
0.000877053 0.000185628 -1.21558e-05
0.000185628 2.74311e-05 -5.58048e-06
-1.21558e-05 -5.58048e-06 -0.000141748
0.00394582 -0.000137624 9.76785e-06
-0.000137624 0.00206637 -6.41868e-07
9.76785e-06 -6.41868e-07 0.00206116
0.000529869 -2.73969e-05 4.26404e-07
-2.73969e-05 -7.07388e-06 5.66742e-07
4.26404e-07 5.66742e-07 -5.24264e-05
0.00166034 0.000123903 5.15465e-05
0.000123903 0.0005436 3.61917e-06
5.15465e-05 3.61917e-06 0.000467691
0.00161648 0.000176359 5.0368e-05
0.000176359 0.000551267 3.48274e-06
5.0368e-05 3.48274e-06 0.000464748
0.000972076 0.000160225 8.45713e-08
0.000160225 -1.45251e-05 -2.13521e-07
8.45713e-08 -2.13521e-07 -0.000169539
0.000591425 8.63134e-05 -3.26674e-07
8.63134e-05 -8.78969e-06 4.72874e-09
-3.26674e-07 4.72874e-09 -7.86247e-05
0.000922282 0.000183347 6.83359e-07
0.000183347 2.5791e-05 3.75253e-08
6.83359e-07 3.75253e-08 -0.000138479
0.000846399 0.000186846 4.97753e-07
0.000186846 7.6623e-05 -1.33032e-06
4.97753e-07 -1.33032e-06 -0.000102266
0.00101882 0.000237994 -5.33262e-07
0.000237994 4.82974e-05 8.13758e-08
-5.33262e-07 8.13758e-08 -0.000160374
0.00069009 3.97127e-05 1.31445e-05
3.97127e-05 6.99546e-05 1.14734e-05
1.31445e-05 1.14734e-05 1.16708e-05
0.000619375 -5.15462e-05 1.47381e-06
-5.15462e-05 4.78792e-05 7.26313e-06
1.47381e-06 7.26313e-06 1.05044e-05
0.000920042 9.20977e-05 3.15059e-06
9.20977e-05 0.000238117 4.85773e-06
3.15059e-06 4.85773e-06 0.000110139
0.00102336 0.000139999 1.32782e-05
0.000139999 -1.01819e-05 4.36797e-06
1.32782e-05 4.36797e-06 -0.000158222
0.000940188 0.00017513 1.36708e-05
0.00017513 -4.76692e-06 6.28681e-06
1.36708e-05 6.28681e-06 -0.000165107
0.00141513 0.000248383 5.53206e-06
0.000248383 0.000112235 1.38849e-06
5.53206e-06 1.38849e-06 -7.63046e-05
0.00082449 0.000193822 7.82504e-06
0.000193822 0.000135164 7.14364e-06
7.82504e-06 7.14364e-06 -4.325e-05
0.00109154 0.000248169 5.37733e-06
0.000248169 3.65053e-05 1.76059e-06
5.37733e-06 1.76059e-06 -0.000166709
0.00126325 0.000265717 6.16692e-06
0.000265717 0.000249334 1.30852e-06
6.16692e-06 1.30852e-06 2.10293e-05
0.00135557 0.000293643 -1.12375e-06
0.000293643 0.000192194 -8.07235e-07
-1.12375e-06 -8.07235e-07 -3.50472e-05
0.00258682 -0.000123323 3.53241e-05
-0.000123323 0.0012383 2.97056e-06
3.53241e-05 2.97056e-06 0.0012372
0.00276356 -0.000138426 8.99736e-06
-0.000138426 0.00135193 -7.25486e-07
8.99736e-06 -7.25486e-07 0.00134672
0.00303226 -0.000158609 -5.09781e-05
-0.000158609 0.00152133 -2.51237e-06
-5.09781e-05 -2.51237e-06 0.00151038
0.000383394 -2.34661e-05 7.6357e-06
-2.34661e-05 -0.000100484 -1.00281e-05
7.6357e-06 -1.00281e-05 -0.000152828
0.00406466 0.00015225 0.000112339
0.00015225 0.00214679 -6.77152e-06
0.000112339 -6.77152e-06 0.00213474
0.00590947 0.000180507 -0.00026898
0.000180507 0.00320161 -2.01581e-05
-0.00026898 -2.01581e-05 0.00320508
0.00569502 7.01635e-05 -0.000248078
7.01635e-05 0.00306401 -9.07482e-06
-0.000248078 -9.07482e-06 0.0030767
0.000582884 9.08777e-05 -1.9712e-05
9.08777e-05 -0.00011258 -4.89964e-06
-1.9712e-05 -4.89964e-06 -0.000192281
0.000567446 4.08179e-05 -1.93073e-05
4.08179e-05 -0.000119535 -2.38459e-06
-1.93073e-05 -2.38459e-06 -0.000195403
0.00551998 -1.23456e-05 -0.000239755
-1.23456e-05 0.00296333 -1.60903e-06
-0.000239755 -1.60903e-06 0.00297776
0.00548831 1.66649e-05 -5.78471e-07
1.66649e-05 0.00294569 -5.36199e-07
-5.78471e-07 -5.36199e-07 0.00295984
0.000549602 8.50553e-07 -1.40268e-07
8.50553e-07 -0.000133704 -8.1935e-09
-1.40268e-07 -8.1935e-09 -0.000205023
0.00163228 3.29631e-05 5.14662e-05
3.29631e-05 0.000512346 1.8849e-06
5.14662e-05 1.8849e-06 0.000449553
0.00100032 4.27371e-05 -2.19067e-08
4.27371e-05 -3.59976e-05 -1.29821e-07
-2.19067e-08 -1.29821e-07 -0.000160671
0.000550651 7.61776e-05 -4.11595e-07
7.61776e-05 -0.000127687 -3.08496e-07
-4.11595e-07 -3.08496e-07 -0.000211465
0.00101103 9.38024e-05 -1.31004e-07
9.38024e-05 -3.21746e-05 -1.34033e-07
-1.31004e-07 -1.34033e-07 -0.000167359
0.000543069 -2.83133e-05 1.91741e-05
-2.83133e-05 -0.00013954 -8.52885e-07
1.91741e-05 -8.52885e-07 -0.000208484
0.00100133 1.66868e-05 1.22592e-05
1.66868e-05 -2.99679e-05 5.53046e-07
1.22592e-05 5.53046e-07 -0.000151942
0.00102277 6.56816e-05 1.2172e-05
6.56816e-05 -2.47662e-05 1.9e-06
1.2172e-05 1.9e-06 -0.000153404
0.00151337 6.70668e-05 9.95471e-07
6.70668e-05 6.18166e-05 8.67681e-08
9.95471e-07 8.67681e-08 -6.41953e-05
0.00105134 0.000116548 1.26044e-05
0.000116548 -4.97774e-06 3.30394e-06
1.26044e-05 3.30394e-06 -0.00014608
0.00154523 0.000147495 2.11146e-06
0.000147495 8.90554e-05 1.3402e-07
2.11146e-06 1.3402e-07 -5.58206e-05
0.0054947 -4.81025e-05 -0.000245856
-4.81025e-05 0.002953 9.23632e-07
-0.000245856 9.23632e-07 0.00296509
0.00125931 -0.000139166 -4.49679e-05
-0.000139166 0.000421934 4.75844e-06
-4.49679e-05 4.75844e-06 0.000383429
-0.000272146 -2.31858e-06 -1.28052e-05
-2.31858e-06 -0.000618903 2.10818e-06
-1.28052e-05 2.10818e-06 -0.000702848
0.00172211 -4.99087e-05 -0.000105183
-4.99087e-05 0.000576672 6.60373e-06
-0.000105183 6.60373e-06 0.000514603
0.00504086 0.000360974 1.46711e-05
0.000360974 0.00279009 7.8742e-06
1.46711e-05 7.8742e-06 0.00271633
0.00271629 -0.000192969 -0.0001102
-0.000192969 0.00122878 1.87105e-05
-0.0001102 1.87105e-05 0.00114969
0.00173436 -9.39574e-05 -0.000104928
-9.39574e-05 0.000591776 1.22141e-05
-0.000104928 1.22141e-05 0.000526729
0.00175143 -0.000135259 -2.79291e-05
-0.000135259 0.000425872 5.47328e-06
-2.79291e-05 5.47328e-06 0.000294251
0.00200757 -0.000206085 -2.68173e-05
-0.000206085 0.000614372 8.35065e-06
-2.68173e-05 8.35065e-06 0.000469312
0.00203278 -0.000256928 -2.58422e-05
-0.000256928 0.000683942 1.05563e-05
-2.58422e-05 1.05563e-05 0.000518447
0.00133218 -0.000251136 -6.20031e-06
-0.000251136 0.000106663 1.79727e-06
-6.20031e-06 1.79727e-06 -8.50725e-05
0.000545653 6.98179e-06 -6.08476e-08
6.98179e-06 -0.00013459 1.3926e-07
-6.08476e-08 1.3926e-07 -0.000205434
0.0016275 -6.96647e-05 -2.97095e-05
-6.96647e-05 0.000525704 3.29051e-07
-2.97095e-05 3.29051e-07 0.000459847
0.00124835 -3.2445e-05 -7.69148e-06
-3.2445e-05 0.000117802 4.17044e-07
-7.69148e-06 4.17044e-07 -1.48459e-06
0.00182619 -0.00011195 -5.92485e-06
-0.00011195 0.000466 9.0361e-07
-5.92485e-06 9.0361e-07 0.000339856
0.00475848 0.00016266 -7.82559e-06
0.00016266 0.0025649 -1.16593e-06
-7.82559e-06 -1.16593e-06 0.00254807
0.0015513 -0.000101147 -1.52939e-06
-0.000101147 0.000564953 3.53294e-08
-1.52939e-06 3.53294e-08 0.000474104
0.00132869 -0.00021841 1.43424e-06
-0.00021841 0.000309356 -8.12436e-07
1.43424e-06 -8.12436e-07 0.000138365
0.00170952 -0.000166209 -6.18739e-06
-0.000166209 0.000414559 1.41207e-06
-6.18739e-06 1.41207e-06 0.000275705
0.00163389 -0.00018359 -2.18662e-06
-0.00018359 0.000184136 4.07935e-07
-2.18662e-06 4.07935e-07 3.0571e-05
0.00127135 -0.000268047 1.59937e-07
-0.000268047 0.000113474 -1.54233e-07
1.59937e-07 -1.54233e-07 -9.23583e-05
0.00153376 -0.000240397 3.99484e-07
-0.000240397 0.00019106 -1.33475e-07
3.99484e-07 -1.33475e-07 1.13556e-05
0.00164366 -0.000324422 6.55299e-07
-0.000324422 0.000178756 6.24198e-09
6.55299e-07 6.24198e-09 -2.40918e-05
0.00051858 -5.3533e-05 -1.1471e-06
-5.3533e-05 -3.09828e-05 1.97242e-07
-1.1471e-06 1.97242e-07 -9.30532e-05
0.000634068 -7.4623e-05 -4.00189e-08
-7.4623e-05 5.15027e-05 2.47887e-07
-4.00189e-08 2.47887e-07 -8.23015e-05
0.000985317 -1.56127e-05 1.2222e-05
-1.56127e-05 -3.41074e-05 -7.8629e-07
1.2222e-05 -7.8629e-07 -0.000155598
0.00170415 -6.90199e-05 1.18128e-05
-6.90199e-05 0.000389726 -1.60322e-06
1.18128e-05 -1.60322e-06 0.000270294
0.00168912 -6.0504e-05 3.09373e-07
-6.0504e-05 0.000186628 1.10408e-07
3.09373e-07 1.10408e-07 6.05763e-05
0.00154156 -0.000146434 2.28107e-06
-0.000146434 0.000113431 -1.03255e-07
2.28107e-06 -1.03255e-07 -2.81869e-05
0.00169051 -0.000224013 3.14498e-06
-0.000224013 0.000250473 -7.13827e-07
3.14498e-06 -7.13827e-07 8.51171e-05
0.00180481 -0.000224862 -3.74683e-07
-0.000224862 0.000156419 5.06723e-07
-3.74683e-07 5.06723e-07 1.43762e-05
0.000349974 -8.64257e-05 1.582e-05
-8.64257e-05 -0.000146334 -1.41986e-05
1.582e-05 -1.41986e-05 -0.000215763
0.00167465 -0.000297722 1.45055e-06
-0.000297722 0.000154853 7.49367e-07
1.45055e-06 7.49367e-07 -2.55707e-05
0.000715431 -0.000174179 6.61905e-06
-0.000174179 1.45321e-05 -7.45576e-06
6.61905e-06 -7.45576e-06 -0.000161327
0.000997315 -0.0002552 9.88106e-06
-0.0002552 1.19209e-05 -3.38467e-06
9.88106e-06 -3.38467e-06 -0.000202501
0.00178907 -0.000365493 3.05459e-06
-0.000365493 0.000314132 4.33567e-08
3.05459e-06 4.33567e-08 8.332e-05
0.0019629 -0.000359473 -1.63997e-06
-0.000359473 0.000312311 3.25162e-06
-1.63997e-06 3.25162e-06 0.000125509
0.000725053 -0.00012503 1.61974e-06
-0.00012503 0.000109975 -5.4767e-06
1.61974e-06 -5.4767e-06 -4.86316e-05
0.000636574 -3.76429e-05 4.1788e-07
-3.76429e-05 5.52366e-05 -4.09124e-06
4.1788e-07 -4.09124e-06 -5.71435e-05
0.00105754 -0.000180659 -6.53761e-07
-0.000180659 0.000323929 8.03135e-07
-6.53761e-07 8.03135e-07 0.000123354
0.000527614 9.67489e-05 -1.78167e-05
9.67489e-05 -0.000133801 -8.28653e-06
-1.78167e-05 -8.28653e-06 -0.00022135
0.00368737 -0.000165522 -8.99212e-05
-0.000165522 0.00191744 -3.68727e-06
-8.99212e-05 -3.68727e-06 0.0019052
0.000372593 -3.95025e-05 -6.06843e-07
-3.95025e-05 -9.50909e-05 -8.59504e-06
-6.06843e-07 -8.59504e-06 -0.000141546
0.000477455 0.000145977 -1.95742e-05
0.000145977 -0.000128717 -1.35044e-05
-1.95742e-05 -1.35044e-05 -0.000226444
0.000952967 0.000160314 -1.4467e-05
0.000160314 -2.1375e-05 -5.88763e-06
-1.4467e-05 -5.88763e-06 -0.000176898
0.000364554 7.93847e-05 -1.7205e-05
7.93847e-05 -0.000143868 -1.33177e-05
-1.7205e-05 -1.33177e-05 -0.000210322
0.000759251 0.000173957 -8.43115e-06
0.000173957 2.23045e-05 -7.32474e-06
-8.43115e-06 -7.32474e-06 -0.000154573
0.000918658 0.000183215 -1.19851e-05
0.000183215 2.48874e-05 -7.02798e-06
-1.19851e-05 -7.02798e-06 -0.000139335
0.0008874 0.000229679 -6.92308e-06
0.000229679 -3.267e-05 -1.55022e-06
-6.92308e-06 -1.55022e-06 -0.000240525
0.000531728 2.91536e-05 2.37175e-06
2.91536e-05 -2.26221e-05 4.37268e-07
2.37175e-06 4.37268e-07 -7.85962e-05
0.00049806 -6.17601e-05 3.38769e-07
-6.17601e-05 -2.06518e-05 2.5968e-07
3.38769e-07 2.5968e-07 -5.96233e-05
0.000609631 3.72186e-05 4.22709e-07
3.72186e-05 4.13203e-05 6.4715e-07
4.22709e-07 6.4715e-07 -7.36017e-05
0.00100055 0.00014054 1.98476e-09
0.00014054 -2.04535e-05 -2.69064e-07
1.98476e-09 -2.69064e-07 -0.0001692
0.000947677 0.000176015 3.86213e-07
0.000176015 3.25283e-06 -2.20853e-07
3.86213e-07 -2.20853e-07 -0.000157448
0.00141835 0.000248678 1.49716e-07
0.000248678 0.000114258 -1.82154e-08
1.49716e-07 -1.82154e-08 -7.46522e-05
0.000801689 0.000176775 -5.09265e-07
0.000176775 0.000122333 -2.64563e-09
-5.09265e-07 -2.64563e-09 -5.38545e-05
0.00119561 0.000252815 3.27052e-07
0.000252815 0.0001008 8.50793e-10
3.27052e-07 8.50793e-10 -0.000102759
0.00111014 0.000252791 4.28881e-07
0.000252791 0.000158194 -1.26942e-06
4.28881e-07 -1.26942e-06 -6.78917e-05
0.00129251 0.00029777 -6.98613e-07
0.00029777 0.000148873 5.07698e-08
-6.98613e-07 5.07698e-08 -8.0362e-05
0.000544174 -6.68918e-05 -1.84931e-06
-6.68918e-05 -7.73611e-07 6.22783e-06
-1.84931e-06 6.22783e-06 -3.32476e-05
0.000784017 0.000132485 5.40714e-06
0.000132485 0.000135559 5.19022e-06
5.40714e-06 5.19022e-06 -1.77442e-05
0.000687378 1.24346e-05 1.95827e-06
1.24346e-05 8.27779e-05 4.14387e-06
1.95827e-06 4.14387e-06 -5.43223e-06
0.00102763 0.000121409 1.51139e-06
0.000121409 0.000328872 -1.54166e-07
1.51139e-06 -1.54166e-07 0.000145626
0.00149122 0.000221536 4.12993e-06
0.000221536 0.000109225 3.54182e-07
4.12993e-06 3.54182e-07 -6.4471e-05
0.00130486 0.000260618 6.15283e-06
0.000260618 0.000100943 1.89401e-06
6.15283e-06 1.89401e-06 -9.85914e-05
0.00177417 0.000325633 1.28169e-06
0.000325633 0.000210767 -1.09484e-07
1.28169e-06 -1.09484e-07 1.6429e-05
0.00123663 0.000240346 4.18053e-06
0.000240346 0.000317154 3.47484e-06
4.18053e-06 3.47484e-06 9.91127e-05
0.00173399 0.000365039 -1.20663e-06
0.000365039 0.000334284 -6.69204e-07
-1.20663e-06 -6.69204e-07 0.000105796
0.00127577 0.000296225 1.01571e-06
0.000296225 0.000190802 -6.89308e-07
1.01571e-06 -6.89308e-07 -6.45216e-05
0.00147248 0.00033367 7.48215e-07
0.00033367 0.000158972 8.905e-09
7.48215e-07 8.905e-09 -7.70705e-05
0.000608921 1.25229e-05 2.53875e-06
1.25229e-05 1.89932e-05 2.46984e-06
2.53875e-06 2.46984e-06 -3.37553e-05
0.000524547 -4.30387e-05 7.72989e-07
-4.30387e-05 -3.92565e-05 4.82318e-06
7.72989e-07 4.82318e-06 -6.01254e-05
0.00244879 -0.000107151 2.87649e-05
-0.000107151 0.00114678 3.31389e-06
2.87649e-05 3.31389e-06 0.00114977
0.00251833 -0.000121385 3.73266e-06
-0.000121385 0.00119698 -4.01565e-07
3.73266e-06 -4.01565e-07 0.00119618
0.00265717 -0.000138693 -3.60259e-05
-0.000138693 0.00128883 -2.78545e-06
-3.60259e-05 -2.78545e-06 0.00128319
0.00043345 -1.23281e-05 5.86695e-06
-1.23281e-05 -7.15949e-05 -8.53563e-06
5.86695e-06 -8.53563e-06 -0.000115065
0.0035737 0.00013331 9.54256e-05
0.00013331 0.00184462 -5.19595e-06
9.54256e-05 -5.19595e-06 0.00183829
0.000510758 -2.61025e-05 -2.85596e-07
-2.61025e-05 -2.73009e-05 3.64873e-07
-2.85596e-07 3.64873e-07 -8.02404e-05
0.00424671 0.000139049 -6.84043e-06
0.000139049 0.00225088 -9.59861e-07
-6.84043e-06 -9.59861e-07 0.00224198
0.000576845 0.000100604 -1.92749e-05
0.000100604 -0.000110237 -6.53765e-06
-1.92749e-05 -6.53765e-06 -0.000195538
0.000586586 3.32309e-05 -1.84729e-05
3.32309e-05 -0.000112511 -3.30709e-06
-1.84729e-05 -3.30709e-06 -0.00018873
0.000986949 9.50192e-05 -1.20772e-05
9.50192e-05 -4.68728e-05 -2.78639e-06
-1.20772e-05 -2.78639e-06 -0.00018258
0.000974352 4.47377e-05 -1.23302e-05
4.47377e-05 -5.22434e-05 -1.42617e-06
-1.23302e-05 -1.42617e-06 -0.00017724
0.000601886 -6.82377e-06 -1.93715e-05
-6.82377e-06 -0.000106137 -7.55055e-07
-1.93715e-05 -7.55055e-07 -0.00017545
0.00556739 -9.46393e-05 -0.000252709
-9.46393e-05 0.00300186 3.90543e-06
-0.000252709 3.90543e-06 0.00301106
0.000588299 -7.09103e-07 1.28948e-07
-7.09103e-07 -0.000113153 -5.29928e-07
1.28948e-07 -5.29928e-07 -0.000182187
0.000990181 2.15564e-05 -5.03619e-08
2.15564e-05 -3.70545e-05 -5.99761e-08
-5.03619e-08 -5.99761e-08 -0.000159259
0.00101119 6.74424e-05 -9.75051e-08
6.74424e-05 -3.27287e-05 -1.06632e-07
-9.75051e-08 -1.06632e-07 -0.000161795
0.00150599 6.59453e-05 -6.19e-08
6.59453e-05 5.96639e-05 1.09479e-07
-6.19e-08 1.09479e-07 -6.64502e-05
0.00101616 0.000118038 -1.57487e-07
0.000118038 -2.43128e-05 -2.2354e-07
-1.57487e-07 -2.2354e-07 -0.000166308
0.00152723 0.000147704 -7.3223e-08
0.000147704 7.84882e-05 2.24109e-08
-7.3223e-08 2.24109e-08 -6.69316e-05
0.00098469 -1.01467e-06 1.22221e-05
-1.01467e-06 -3.5165e-05 -3.15045e-07
1.22221e-05 -3.15045e-07 -0.000156544
0.00149786 3.452e-05 1.21085e-06
3.452e-05 5.79019e-05 1.29272e-07
1.21085e-06 1.29272e-07 -6.40692e-05
0.00152286 0.000106236 1.16107e-06
0.000106236 6.84721e-05 -2.02713e-08
1.16107e-06 -2.02713e-08 -6.54124e-05
0.00183353 9.47985e-05 -1.98179e-06
9.47985e-05 0.00010517 -3.3134e-07
-1.98179e-06 -3.3134e-07 8.63543e-06
0.00153986 0.000188109 3.10508e-06
0.000188109 0.000101462 2.89175e-07
3.10508e-06 2.89175e-07 -5.72516e-05
0.00182549 0.000190978 -2.84347e-07
0.000190978 0.000124718 -1.46383e-06
-2.84347e-07 -1.46383e-06 -9.67687e-07
0.000569745 3.79905e-07 -1.85403e-05
3.79905e-07 -0.000117975 1.10891e-06
-1.85403e-05 1.10891e-06 -0.000190628
0.0017102 -2.73335e-05 -0.000104551
-2.73335e-05 0.000569217 4.34931e-06
-0.000104551 4.34931e-06 0.000509946
0.000801232 -2.6638e-05 -1.49989e-05
-2.6638e-05 -0.000148612 1.71615e-06
-1.49989e-05 1.71615e-06 -0.000272612
0.00195943 -0.000112074 -2.49203e-05
-0.000112074 0.000544024 3.95541e-06
-2.49203e-05 3.95541e-06 0.000419113
0.00499869 0.000136425 -0.000166363
0.000136425 0.00270145 1.25417e-05
-0.000166363 1.25417e-05 0.00268921
0.00275765 -0.000150892 -0.000107555
-0.000150892 0.00127631 1.48076e-05
-0.000107555 1.48076e-05 0.00120539
0.00194099 -0.000262203 -2.08842e-05
-0.000262203 0.00068032 9.06478e-06
-2.08842e-05 9.06478e-06 0.000505911
0.00172357 -0.000165608 -2.64998e-05
-0.000165608 0.000422562 6.79142e-06
-2.64998e-05 6.79142e-06 0.000283839
0.00152984 -0.000181602 -5.29535e-06
-0.000181602 0.000119335 9.07993e-07
-5.29535e-06 9.07993e-07 -3.29362e-05
0.00171356 -0.000248281 -6.45301e-06
-0.000248281 0.000298035 1.92725e-06
-6.45301e-06 1.92725e-06 0.00011927
0.00118427 -0.000263545 -7.27591e-06
-0.000263545 6.409e-05 2.16585e-06
-7.27591e-06 2.16585e-06 -0.000141637
0.00167689 -0.000325309 -1.7152e-06
-0.000325309 0.000202179 -8.17578e-07
-1.7152e-06 -8.17578e-07 -1.36835e-07
0.000654295 -6.35728e-05 -1.33774e-05
-6.35728e-05 4.78357e-05 1.2652e-05
-1.33774e-05 1.2652e-05 -1.64072e-05
0.000764328 -0.000100495 -1.17954e-06
-0.000100495 0.000131629 3.9259e-06
-1.17954e-06 3.9259e-06 -6.80963e-06
0.000885468 -1.06962e-05 -1.89142e-07
-1.06962e-05 -9.45565e-05 -5.29485e-09
-1.89142e-07 -5.29485e-09 -0.000216206
0.0017132 -7.0199e-05 -6.38159e-06
-7.0199e-05 0.000393862 6.84276e-07
-6.38159e-06 6.84276e-07 0.000274524
0.00172979 -5.69189e-05 -1.66052e-06
-5.69189e-05 0.00020759 2.35379e-07
-1.66052e-06 2.35379e-07 8.47742e-05
0.00160522 -0.000146918 -7.99938e-07
-0.000146918 0.000153267 2.93054e-07
-7.99938e-07 2.93054e-07 9.97448e-06
0.000510451 -9.64578e-05 3.04395e-07
-9.64578e-05 -5.12425e-05 3.76373e-07
3.04395e-07 3.76373e-07 -0.000124395
0.000846748 -0.000189417 -7.76905e-07
-0.000189417 9.01552e-05 -5.92565e-07
-7.76905e-07 -5.92565e-07 -8.71454e-05
0.00105863 -0.000260645 2.68904e-06
-0.000260645 4.87002e-05 -8.35521e-07
2.68904e-06 -8.35521e-07 -0.000166045
0.0017056 -0.000222675 -2.95844e-06
-0.000222675 0.000259179 7.68626e-07
-2.95844e-06 7.68626e-07 9.26529e-05
0.00185711 -0.000229244 1.02675e-06
-0.000229244 0.000181318 -2.75813e-07
1.02675e-06 -2.75813e-07 4.31783e-05
0.00182069 -0.000372835 -1.49343e-06
-0.000372835 0.000335027 2.08715e-07
-1.49343e-06 2.08715e-07 0.000102634
0.00169607 -0.000298483 5.16127e-07
-0.000298483 0.000168877 -1.07379e-08
5.16127e-07 -1.07379e-08 -1.12537e-05
0.00189456 -0.000357147 7.74628e-07
-0.000357147 0.000264588 6.44594e-07
7.74628e-07 6.44594e-07 7.77565e-05
0.000735707 -0.000135428 -2.89453e-07
-0.000135428 0.000114442 -2.5861e-07
-2.89453e-07 -2.5861e-07 -4.51109e-05
0.000562434 -0.000115497 -4.85223e-07
-0.000115497 1.28607e-05 -5.38891e-07
-4.85223e-07 -5.38891e-07 -0.000171048
0.000679288 -5.20442e-05 -2.61635e-08
-5.20442e-05 7.99472e-05 9.60111e-08
-2.61635e-08 9.60111e-08 -3.48953e-05
0.00166969 -2.45279e-05 7.87621e-08
-2.45279e-05 0.000170947 7.75847e-08
7.87621e-08 7.75847e-08 4.90488e-05
0.00175925 -9.91203e-05 -1.79559e-07
-9.91203e-05 0.000228316 5.16283e-07
-1.79559e-07 5.16283e-07 9.98953e-05
0.00173395 -8.01177e-05 -1.71679e-06
-8.01177e-05 5.97319e-05 1.17358e-06
-1.71679e-06 1.17358e-06 -4.04955e-05
0.00178913 -0.000184876 -2.50871e-06
-0.000184876 0.000116507 1.31028e-06
-2.50871e-06 1.31028e-06 -7.28236e-06
0.00166652 -0.000268682 -1.67307e-07
-0.000268682 0.000112415 1.60206e-06
-1.67307e-07 1.60206e-06 -4.49061e-05
0.0018871 -0.00025204 -1.71451e-07
-0.00025204 0.000147418 7.73072e-07
-1.71451e-07 7.73072e-07 3.35244e-05
0.000746086 -0.000164493 4.01754e-06
-0.000164493 9.52057e-05 -6.17384e-06
4.01754e-06 -6.17384e-06 -7.73471e-05
0.001758 -0.000325065 -1.68026e-06
-0.000325065 0.000137617 1.81677e-06
-1.68026e-06 1.81677e-06 -2.27018e-05
0.00101314 -0.000248543 4.69972e-06
-0.000248543 0.000112789 -5.47539e-06
4.69972e-06 -5.47539e-06 -0.000105716
0.00142402 -0.000367556 3.95231e-06
-0.000367556 0.000194365 -1.29949e-06
3.95231e-06 -1.29949e-06 -6.47985e-05
0.00192683 -0.000408251 1.48873e-06
-0.000408251 0.00033855 3.2591e-06
1.48873e-06 3.2591e-06 0.000106335
0.00203853 -0.000379697 -2.93457e-06
-0.000379697 0.000331379 3.51198e-06
-2.93457e-06 3.51198e-06 0.000158997
0.000632298 -3.50963e-05 3.90735e-07
-3.50963e-05 5.90341e-05 -3.94713e-06
3.90735e-07 -3.94713e-06 -4.01597e-05
0.00075149 -0.000173862 -4.12497e-08
-0.000173862 9.2874e-05 -8.82823e-08
-4.12497e-08 -8.82823e-08 -9.17955e-05
0.000499835 -0.000100057 -9.98693e-07
-0.000100057 1.00899e-05 1.59454e-06
-9.98693e-07 1.59454e-06 -0.000174425
0.00139185 -0.000245814 -3.48809e-06
-0.000245814 0.000482238 2.6739e-06
-3.48809e-06 2.6739e-06 0.000273542
0.000973855 0.000141223 -1.38886e-05
0.000141223 -3.31745e-05 -4.84385e-06
-1.38886e-05 -4.84385e-06 -0.000182648
0.000419855 -6.50839e-05 1.93202e-06
-6.50839e-05 -6.59624e-05 -7.09978e-06
1.93202e-06 -7.09978e-06 -0.000105199
0.000355093 9.69431e-06 -6.87404e-06
9.69431e-06 -0.000122569 -1.10651e-05
-6.87404e-06 -1.10651e-05 -0.000177597
0.000497225 1.75863e-07 -2.57497e-07
1.75863e-07 -2.36935e-05 -4.933e-06
-2.57497e-07 -4.933e-06 -0.000135317
0.000942515 0.000176343 -1.37609e-05
0.000176343 4.12385e-06 -6.83217e-06
-1.37609e-05 -6.83217e-06 -0.000156916
0.00142317 0.00024897 -5.36312e-06
0.00024897 0.000117353 -1.37807e-06
-5.36312e-06 -1.37807e-06 -7.19062e-05
0.000725308 0.000155474 -5.13229e-06
0.000155474 7.62311e-05 -5.2741e-06
-5.13229e-06 -5.2741e-06 -9.62643e-05
0.00108907 0.000251545 -6.44815e-06
0.000251545 0.000145999 -4.19869e-06
-6.44815e-06 -4.19869e-06 -7.94095e-05
0.00132554 0.000259505 -5.61988e-06
0.000259505 0.000180687 -2.32575e-06
-5.61988e-06 -2.32575e-06 -2.3534e-05
0.00118911 0.000297522 -3.28369e-06
0.000297522 8.3481e-05 -1.74009e-07
-3.28369e-06 -1.74009e-07 -0.000146994
0.00049892 -6.575e-05 -5.04446e-07
-6.575e-05 -2.92257e-05 2.79734e-07
-5.04446e-07 2.79734e-07 -6.09593e-05
0.000754567 0.000128032 3.72905e-07
0.000128032 0.000127889 -5.15228e-07
3.72905e-07 -5.15228e-07 -2.75597e-05
0.00062067 -8.05265e-06 -1.64295e-07
-8.05265e-06 4.56997e-05 5.82855e-07
-1.64295e-07 5.82855e-07 -4.1301e-05
0.000770813 9.96134e-05 1.24515e-06
9.96134e-05 0.000172673 -7.75485e-07
1.24515e-06 -7.75485e-07 -5.53341e-06
0.00148427 0.000221003 -1.41532e-07
0.000221003 0.000105922 -4.70769e-07
-1.41532e-07 -4.70769e-07 -6.80627e-05
0.00132285 0.000260887 2.04702e-07
0.000260887 0.00011628 -3.59814e-08
2.04702e-07 -3.59814e-08 -8.34107e-05
0.00174585 0.000323618 2.64842e-07
0.000323618 0.000194209 1.65237e-07
2.64842e-07 1.65237e-07 -7.0363e-08
0.00105786 0.000229062 1.62038e-06
0.000229062 0.000213226 9.22887e-08
1.62038e-06 9.22887e-08 -2.92649e-06
0.0017467 0.000360467 -9.79695e-07
0.000360467 0.000342921 -9.61066e-08
-9.79695e-07 -9.61066e-08 0.000115314
0.0012508 0.000296212 -3.94338e-08
0.000296212 0.000172228 -1.37303e-06
-3.94338e-08 -1.37303e-06 -8.39401e-05
0.00156175 0.000339211 -3.71644e-06
0.000339211 0.000212424 8.63049e-07
-3.71644e-06 8.63049e-07 -2.26113e-05
0.000517323 -5.71822e-05 -5.43383e-07
-5.71822e-05 -3.21902e-05 5.32337e-06
-5.43383e-07 5.32337e-06 -5.78359e-05
0.000670891 -4.15174e-06 1.61036e-06
-4.15174e-06 6.47582e-05 3.6572e-06
1.61036e-06 3.6572e-06 -5.44025e-06
0.00105218 0.000200175 1.01382e-06
0.000200175 0.000283816 2.02999e-06
1.01382e-06 2.02999e-06 9.13196e-05
0.00117748 7.51345e-05 -8.62663e-07
7.51345e-05 0.000427053 2.34617e-06
-8.62663e-07 2.34617e-06 0.000270116
0.00114598 0.000189998 -7.31174e-07
0.000189998 0.00037166 -2.2346e-06
-7.31174e-07 -2.2346e-06 0.000174781
0.00181904 0.000286648 8.86089e-07
0.000286648 0.000188358 -1.5727e-06
8.86089e-07 -1.5727e-06 1.8079e-05
0.00168524 0.000354693 7.10607e-07
0.000354693 0.000226655 2.72077e-08
7.10607e-07 2.72077e-08 1.03618e-05
0.00185469 0.000360228 1.35746e-07
0.000360228 0.000222843 -1.76657e-07
1.35746e-07 -1.76657e-07 3.55456e-05
0.00122818 0.000293152 3.38101e-06
0.000293152 0.000254665 4.07653e-06
3.38101e-06 4.07653e-06 1.72431e-06
0.00199293 0.000429706 6.76317e-07
0.000429706 0.000420801 -6.0661e-07
6.76317e-07 -6.0661e-07 0.000182043
0.000852663 0.000284345 4.90954e-06
0.000284345 -0.000125888 -1.5097e-06
4.90954e-06 -1.5097e-06 -0.000381595
0.000608011 7.17407e-06 2.82162e-06
7.17407e-06 1.84626e-05 2.52179e-06
2.82162e-06 2.52179e-06 -3.61662e-05
0.000677914 5.2575e-05 1.93543e-07
5.2575e-05 9.02015e-05 1.26808e-06
1.93543e-07 1.26808e-06 -5.59355e-07
0.000627256 2.28147e-05 2.34576e-06
2.28147e-05 3.44352e-05 2.49788e-06
2.34576e-06 2.49788e-06 -1.82702e-05
0.000593027 -1.27268e-05 -5.5829e-07
-1.27268e-05 1.17005e-05 -3.72336e-09
-5.5829e-07 -3.72336e-09 -4.20255e-05
0.00124365 -5.06698e-05 1.11157e-06
-5.06698e-05 0.000389913 2.76996e-06
1.11157e-06 2.76996e-06 0.000375054
0.000908161 -5.08486e-05 4.92893e-07
-5.08486e-05 0.000192064 -1.00601e-07
4.92893e-07 -1.00601e-07 0.000173124
0.000891627 -5.28052e-05 2.38179e-05
-5.28052e-05 0.000193912 7.6395e-06
2.38179e-05 7.6395e-06 0.000194604
0.00241383 -0.000104601 4.12429e-06
-0.000104601 0.00112468 -3.71148e-07
4.12429e-06 -3.71148e-07 0.0011282
0.00245193 -0.000117525 -3.34242e-05
-0.000117525 0.00115637 -3.02963e-06
-3.34242e-05 -3.02963e-06 0.00115644
0.000441219 1.13071e-05 1.83135e-06
1.13071e-05 -6.48767e-05 -6.83505e-06
1.83135e-06 -6.83505e-06 -0.00010052
0.00322171 0.000135299 6.39473e-05
0.000135299 0.00162665 -3.45695e-06
6.39473e-05 -3.45695e-06 0.00162059
0.000523253 -1.29911e-05 -5.22248e-07
-1.29911e-05 -1.85376e-05 1.86877e-07
-5.22248e-07 1.86877e-07 -6.27828e-05
0.00375581 0.000123375 -6.40893e-06
0.000123375 0.00195089 -6.06049e-07
-6.40893e-06 -6.06049e-07 0.00194687
0.000650952 -2.89704e-05 -8.42161e-06
-2.89704e-05 5.33035e-05 1.0593e-05
-8.42161e-06 1.0593e-05 -5.2874e-07
0.0043823 0.000123205 -0.000144251
0.000123205 0.00232673 9.60576e-06
-0.000144251 9.60576e-06 0.00232126
0.000985648 0.000119527 -1.28344e-05
0.000119527 -4.09317e-05 -3.70203e-06
-1.28344e-05 -3.70203e-06 -0.000183731
0.000985149 7.10406e-05 -1.20972e-05
7.10406e-05 -4.82972e-05 -2.09716e-06
-1.20972e-05 -2.09716e-06 -0.000178035
0.00152744 0.000144803 -2.98088e-06
0.000144803 7.94939e-05 -1.70976e-07
-2.98088e-06 -1.70976e-07 -6.59491e-05
0.00149805 6.49951e-05 -1.35148e-06
6.49951e-05 5.73336e-05 1.74247e-07
-1.35148e-06 1.74247e-07 -6.88938e-05
0.00098414 2.54714e-05 -1.2312e-05
2.54714e-05 -4.15774e-05 -7.15599e-07
-1.2312e-05 -7.15599e-07 -0.000164019
0.000552896 2.79552e-05 -1.9167e-05
2.79552e-05 -0.000134447 -2.06014e-07
-1.9167e-05 -2.06014e-07 -0.000203031
0.000983989 1.65646e-06 -4.6204e-09
1.65646e-06 -3.6453e-05 -1.46631e-07
-4.6204e-09 -1.46631e-07 -0.000157874
0.00149447 3.58462e-05 -7.02033e-08
3.58462e-05 5.67535e-05 6.1007e-08
-7.02033e-08 6.1007e-08 -6.53468e-05
0.0015224 0.000103649 -2.62078e-09
0.000103649 7.02598e-05 1.75312e-09
-2.62078e-09 1.75312e-09 -6.36088e-05
0.00181164 9.31196e-05 1.48712e-07
9.31196e-05 8.65071e-05 2.9196e-07
1.48712e-07 2.9196e-07 -7.13557e-06
0.00152511 0.000186948 -2.55032e-07
0.000186948 9.55551e-05 -7.46162e-08
-2.55032e-07 -7.46162e-08 -6.33374e-05
0.00182459 0.000188804 -3.74228e-07
0.000188804 0.00012811 6.06526e-09
-3.74228e-07 6.06526e-09 2.47831e-06
0.0014866 4.27086e-06 1.42778e-06
4.27086e-06 5.50568e-05 2.6073e-08
1.42778e-06 2.6073e-08 -6.58822e-05
0.00182082 4.76715e-05 -3.37916e-06
4.76715e-05 9.8824e-05 -8.28405e-08
-3.37916e-06 -8.28405e-08 1.41382e-05
0.00183586 0.000146045 -1.38532e-06
0.000146045 0.000110742 -9.0891e-07
-1.38532e-06 -9.0891e-07 2.15482e-06
0.00182421 9.44967e-05 4.37813e-06
9.44967e-05 4.36546e-05 6.17286e-07
4.37813e-06 6.17286e-07 -2.37785e-05
0.00184394 0.000239198 1.66318e-07
0.000239198 0.00017086 -1.30994e-06
1.66318e-07 -1.30994e-06 2.44085e-05
0.0017799 0.000209891 5.96558e-07
0.000209891 3.69022e-05 -1.16262e-06
5.96558e-07 -1.16262e-06 -6.17927e-05
0.000789213 -7.28578e-06 -1.21721e-05
-7.28578e-06 -0.0001529 6.99935e-07
-1.21721e-05 6.99935e-07 -0.00027477
0.00174546 -7.26579e-05 -2.44615e-05
-7.26579e-05 0.000411881 2.93286e-06
-2.44615e-05 2.93286e-06 0.000292584
0.00179624 -5.12608e-05 -4.73128e-06
-5.12608e-05 0.000243617 -3.06558e-08
-4.73128e-06 -3.06558e-08 0.000124299
0.00167218 -0.000147465 -3.84174e-06
-0.000147465 0.000195173 9.4431e-07
-3.84174e-06 9.4431e-07 5.02077e-05
0.000736763 -0.000115462 -1.88333e-05
-0.000115462 8.1763e-05 1.49177e-05
-1.88333e-05 1.49177e-05 4.87399e-06
0.000735712 -0.000190161 -9.03933e-06
-0.000190161 2.64802e-05 6.88554e-06
-9.03933e-06 6.88554e-06 -0.000150824
0.00111595 -0.000265239 -5.1671e-06
-0.000265239 8.36233e-05 2.70632e-06
-5.1671e-06 2.70632e-06 -0.000131264
0.0017212 -0.000221215 -7.73016e-06
-0.000221215 0.000268081 2.19902e-06
-7.73016e-06 2.19902e-06 0.000100416
0.00191005 -0.000233558 5.82139e-07
-0.000233558 0.000206309 -1.29295e-06
5.82139e-07 -1.29295e-06 7.21126e-05
0.00171571 -0.000299136 -8.75173e-07
-0.000299136 0.000181843 -6.59984e-07
-8.75173e-07 -6.59984e-07 2.01447e-06
0.00184168 -0.000378831 -4.32184e-06
-0.000378831 0.000350258 -8.27662e-07
-4.32184e-06 -8.27662e-07 0.000116606
0.00182482 -0.00035372 3.04883e-06
-0.00035372 0.000216467 -2.55335e-06
3.04883e-06 -2.55335e-06 2.99333e-05
0.000722733 -0.000136982 -3.39757e-06
-0.000136982 9.9037e-05 5.39311e-06
-3.39757e-06 5.39311e-06 -5.82635e-05
0.000439698 -9.94167e-05 1.4978e-08
-9.94167e-05 -5.99594e-05 -1.36881e-06
1.4978e-08 -1.36881e-06 -0.000242127
0.000637653 -6.16198e-05 -1.40251e-06
-6.16198e-05 5.48227e-05 3.61174e-06
-1.40251e-06 3.61174e-06 -6.24427e-05
0.00159881 -2.20635e-05 -1.86824e-06
-2.20635e-05 0.000126989 1.51967e-07
-1.86824e-06 1.51967e-07 5.19689e-06
0.00175824 -0.000107087 -2.89579e-06
-0.000107087 0.000226605 4.38575e-07
-2.89579e-06 4.38575e-07 9.71899e-05
0.0017911 -7.74692e-05 1.96659e-06
-7.74692e-05 9.44038e-05 5.22519e-07
1.96659e-06 5.22519e-07 -7.56349e-08
0.00177606 -0.000180585 -1.83625e-06
-0.000180585 0.000107953 5.99574e-07
-1.83625e-06 5.99574e-07 -1.7198e-05
0.000773007 -0.000176155 3.16903e-07
-0.000176155 0.000113278 -2.43587e-08
3.16903e-07 -2.43587e-08 -6.18126e-05
0.00112419 -0.000260323 -1.48567e-06
-0.000260323 0.000172598 -6.46265e-07
-1.48567e-06 -6.46265e-07 -4.77187e-05
0.00146882 -0.000366508 2.30184e-06
-0.000366508 0.000230969 -1.19287e-07
2.30184e-06 -1.19287e-07 -2.75289e-05
0.00166582 -0.000267134 -1.09903e-06
-0.000267134 0.000114667 6.73823e-07
-1.09903e-06 6.73823e-07 -4.63209e-05
0.00191013 -0.000253743 1.77258e-06
-0.000253743 0.000159298 -1.76834e-07
1.77258e-06 -1.76834e-07 4.93712e-05
0.00184342 -0.000409159 -6.20988e-07
-0.000409159 0.000284455 4.36018e-07
-6.20988e-07 4.36018e-07 4.94961e-05
0.00178567 -0.000325674 9.33946e-08
-0.000325674 0.000154113 3.81241e-07
9.33946e-08 3.81241e-07 -6.07993e-06
0.0020598 -0.000375471 1.96367e-06
-0.000375471 0.000341269 -2.65592e-07
1.96367e-06 -2.65592e-07 0.000172869
0.00100206 -0.000203361 4.30324e-07
-0.000203361 0.000244624 8.37556e-07
4.30324e-07 8.37556e-07 5.21798e-05
0.00115982 -0.000233302 -3.10523e-07
-0.000233302 0.000350052 3.16728e-07
-3.10523e-07 3.16728e-07 0.000139974
0.000621294 -4.17014e-05 -1.16325e-07
-4.17014e-05 5.0299e-05 1.48879e-07
-1.16325e-07 1.48879e-07 -4.93678e-05
0.000339889 -5.11525e-05 -1.61744e-07
-5.11525e-05 -9.83255e-05 -7.3499e-07
-1.61744e-07 -7.3499e-07 -0.000268802
0.00180374 -4.22561e-05 -2.357e-06
-4.22561e-05 9.89267e-05 2.87848e-07
-2.357e-06 2.87848e-07 8.39066e-06
0.00184249 -0.000127729 -3.32177e-07
-0.000127729 0.000128434 1.36293e-06
-3.32177e-07 1.36293e-06 2.01592e-05
0.00171759 -8.57926e-05 3.11082e-06
-8.57926e-05 6.6396e-06 -3.00472e-07
3.11082e-06 -3.00472e-07 -6.50886e-05
0.00184177 -0.000206846 -2.53409e-06
-0.000206846 7.54542e-05 6.1264e-07
-2.53409e-06 6.1264e-07 -1.29933e-05
0.00174086 -0.000289021 -2.92275e-06
-0.000289021 9.45643e-05 2.3173e-06
-2.92275e-06 2.3173e-06 -3.8464e-05
0.00197184 -0.000262915 3.62852e-06
-0.000262915 0.000182292 -1.28863e-06
3.62852e-06 -1.28863e-06 8.41028e-05
0.000946564 -0.000228567 9.69747e-07
-0.000228567 0.000153034 -4.73736e-06
9.69747e-07 -4.73736e-06 -5.46525e-05
0.00167877 -0.000335819 -4.19596e-06
-0.000335819 7.19895e-05 2.01211e-06
-4.19596e-06 2.01211e-06 -6.57117e-05
0.00145598 -0.000349263 3.18978e-06
-0.000349263 0.000326555 -3.27926e-06
3.18978e-06 -3.27926e-06 6.38867e-05
0.00171559 -0.000445411 -1.69359e-06
-0.000445411 0.00030872 1.77844e-06
-1.69359e-06 1.77844e-06 2.4071e-05
0.00178316 -0.000415498 2.15627e-06
-0.000415498 0.000203505 4.90479e-06
2.15627e-06 4.90479e-06 -2.58274e-05
0.00212229 -0.000369332 3.19037e-07
-0.000369332 0.000364747 3.888e-07
3.19037e-07 3.888e-07 0.000202289
0.000516143 -4.18078e-05 6.63985e-07
-4.18078e-05 -1.07584e-05 -3.60392e-06
6.63985e-07 -3.60392e-06 -9.57865e-05
0.000474785 -5.18879e-05 -2.5724e-06
-5.18879e-05 -4.59404e-06 -8.2476e-07
-2.5724e-06 -8.2476e-07 -0.000157151
0.000920047 -0.000232934 -1.87319e-06
-0.000232934 0.00015862 4.8194e-07
-1.87319e-06 4.8194e-07 -4.88383e-05
0.000819939 -0.000163847 -5.20072e-07
-0.000163847 0.00020664 3.71993e-06
-5.20072e-07 3.71993e-06 1.47622e-07
0.00148924 -0.000287802 -5.86261e-06
-0.000287802 0.000528256 4.24677e-06
-5.86261e-06 4.24677e-06 0.000314499
0.000453732 -6.26946e-05 -2.91692e-07
-6.26946e-05 -5.82049e-05 -5.35128e-06
-2.91692e-07 -5.35128e-06 -8.86754e-05
0.00147551 0.000220208 -4.43113e-06
0.000220208 0.000102073 -1.23898e-06
-4.43113e-06 -1.23898e-06 -7.21631e-05
0.000515375 -2.63011e-05 -3.41488e-07
-2.63011e-05 -1.35411e-05 -3.73483e-06
-3.41488e-07 -3.73483e-06 -0.000100146
0.00070524 0.000101335 -1.623e-06
0.000101335 9.47844e-05 -5.22023e-06
-1.623e-06 -5.22023e-06 -5.36437e-05
0.00045873 7.75463e-05 1.2193e-06
7.75463e-05 -1.77812e-05 -8.82528e-08
1.2193e-06 -8.82528e-08 -0.00019036
0.00133131 0.000260674 -5.99243e-06
0.000260674 0.000125523 -1.96075e-06
-5.99243e-06 -1.96075e-06 -7.4317e-05
0.00171766 0.00032176 -2.21873e-08
0.00032176 0.00017718 6.12033e-07
-2.21873e-08 6.12033e-07 -1.70887e-05
0.000950049 0.0002268 -1.89365e-06
0.0002268 0.000150708 -4.16201e-06
-1.89365e-06 -4.16201e-06 -6.67309e-05
0.00138959 0.000313517 -2.8581e-06
0.000313517 0.000248536 -1.59575e-06
-2.8581e-06 -1.59575e-06 -1.19396e-05
0.00174803 0.000355156 -1.47607e-06
0.000355156 0.000343857 1.78371e-08
-1.47607e-06 1.78371e-08 0.000117251
0.00166758 0.000348019 -4.02539e-06
0.000348019 0.000275707 5.09368e-06
-4.02539e-06 5.09368e-06 4.07566e-05
0.00052451 -5.10215e-05 2.03043e-09
-5.10215e-05 -3.09479e-05 4.90938e-09
2.03043e-09 4.90938e-09 -5.49412e-05
0.000626823 -1.36373e-05 -6.69056e-07
-1.36373e-05 4.18391e-05 3.77402e-07
-6.69056e-07 3.77402e-07 -2.84864e-05
0.00098075 0.000196963 -1.53987e-07
0.000196963 0.000241791 1.03217e-06
-1.53987e-07 1.03217e-06 4.97931e-05
0.000675053 3.19904e-05 -4.57353e-07
3.19904e-05 0.000117059 -7.04625e-08
-4.57353e-07 -7.04625e-08 -2.80662e-05
0.000627692 0.00013108 6.98519e-07
0.00013108 5.12762e-05 -4.76259e-07
6.98519e-07 -4.76259e-07 -0.000131803
0.00179503 0.000286773 -4.43296e-07
0.000286773 0.000171352 -9.88031e-07
-4.43296e-07 -9.88031e-07 6.56497e-07
0.00166136 0.000353858 5.35176e-07
0.000353858 0.000209675 1.50751e-07
5.35176e-07 1.50751e-07 -6.86228e-06
0.00177638 0.000356513 1.74348e-06
0.000356513 0.000178487 2.39098e-07
1.74348e-06 2.39098e-07 -9.08924e-06
0.00126726 0.000295331 1.52252e-06
0.000295331 0.000287181 5.76602e-07
1.52252e-06 5.76602e-07 3.22835e-05
0.00186066 0.000417334 1.20695e-06
0.000417334 0.000324352 1.34054e-07
1.20695e-06 1.34054e-07 8.61441e-05
0.00146371 0.000338153 -1.58388e-06
0.000338153 0.000237519 2.91474e-07
-1.58388e-06 2.91474e-07 -2.55941e-05
0.000681379 5.12906e-07 2.13113e-06
5.12906e-07 6.4235e-05 2.74144e-06
2.13113e-06 2.74144e-06 4.7296e-06
0.000974908 7.4696e-05 7.36632e-07
7.4696e-05 0.000285406 2.70234e-06
7.36632e-07 2.70234e-06 0.000167163
0.00117936 0.00026084 -3.45623e-06
0.00026084 0.000310532 -1.02088e-06
-3.45623e-06 -1.02088e-06 0.000101391
0.00136315 0.000101539 -1.70479e-07
0.000101539 0.000534622 2.68487e-07
-1.70479e-07 2.68487e-07 0.000354197
0.00115603 0.000158254 -5.95148e-06
0.000158254 0.00031662 -6.60132e-06
-5.95148e-06 -6.60132e-06 0.000149189
0.00181434 0.000297304 -2.63682e-06
0.000297304 0.000152021 -2.58359e-06
-2.63682e-06 -2.58359e-06 -1.19235e-06
0.00184302 0.000409409 1.1353e-06
0.000409409 0.000262645 2.88859e-07
1.1353e-06 2.88859e-07 4.34116e-05
0.00158154 0.000379874 3.65719e-06
0.000379874 3.68631e-05 -5.62272e-07
3.65719e-06 -5.62272e-07 -0.000148924
0.000711114 0.000262097 -1.48523e-06
0.000262097 -3.70369e-05 2.63046e-06
-1.48523e-06 2.63046e-06 -0.000296121
0.00139715 0.000378628 6.79608e-06
0.000378628 0.000121461 -1.33404e-06
6.79608e-06 -1.33404e-06 -0.000133436
0.000613492 -1.93266e-07 -1.89319e-07
-1.93266e-07 2.06932e-05 3.15863e-08
-1.89319e-07 3.15863e-08 -3.34279e-05
0.00054026 2.90562e-05 1.53181e-06
2.90562e-05 -3.5487e-06 1.82516e-06
1.53181e-06 1.82516e-06 -8.84139e-05
0.000530258 2.10496e-05 -6.01869e-07
2.10496e-05 -6.34085e-06 -1.24833e-07
-6.01869e-07 -1.24833e-07 -9.02412e-05
0.000937771 0.000102435 3.33402e-07
0.000102435 0.000250339 -6.03187e-07
3.33402e-07 -6.03187e-07 0.000144285
0.000673883 7.86629e-05 2.04354e-06
7.86629e-05 8.98858e-05 1.66749e-06
2.04354e-06 1.66749e-06 1.27854e-07
0.000599535 3.48951e-05 2.44381e-06
3.48951e-05 2.40545e-05 2.58042e-06
2.44381e-06 2.58042e-06 -2.99025e-05
0.000597176 -4.72733e-06 -6.19753e-07
-4.72733e-06 1.75069e-05 -1.75461e-08
-6.19753e-07 -1.75461e-08 -3.55223e-05
0.00124461 -3.75243e-05 9.58613e-07
-3.75243e-05 0.000387583 2.63136e-06
9.58613e-07 2.63136e-06 0.000374589
0.000603991 -9.91176e-06 -1.54707e-06
-9.91176e-06 1.6156e-05 -2.52889e-06
-1.54707e-06 -2.52889e-06 -3.60284e-05
0.0012987 -4.74108e-05 -5.60686e-06
-4.74108e-05 0.000422818 -1.42399e-06
-5.60686e-06 -1.42399e-06 0.000408467
0.00085113 -4.09846e-05 2.40232e-05
-4.09846e-05 0.000161074 7.7528e-06
2.40232e-05 7.7528e-06 0.00016512
0.00131794 -5.66297e-05 -9.80472e-06
-5.66297e-05 0.000439936 -3.97696e-06
-9.80472e-06 -3.97696e-06 0.000423317
0.00159371 -7.0203e-05 2.14999e-05
-7.0203e-05 0.000619341 1.88429e-06
2.14999e-05 1.88429e-06 0.000623316
0.00236037 -0.000101316 -2.94558e-05
-0.000101316 0.00109118 -3.60202e-06
-2.94558e-05 -3.60202e-06 0.0010954
0.0004406 6.81796e-05 -2.9922e-06
6.81796e-05 -5.89345e-05 -5.55565e-06
-2.9922e-06 -5.55565e-06 -9.30076e-05
0.000496712 1.32428e-05 4.29616e-07
1.32428e-05 -3.00737e-05 3.93558e-07
4.29616e-07 3.93558e-07 -6.76638e-05
0.00279058 0.000128451 3.19628e-05
0.000128451 0.00136268 -3.63671e-06
3.19628e-05 -3.63671e-06 0.00135844
0.0033231 0.00011124 -7.59069e-06
0.00011124 0.0016847 -5.0139e-07
-7.59069e-06 -5.0139e-07 0.00168445
0.000618421 -1.49138e-05 -6.71814e-06
-1.49138e-05 3.75486e-05 8.6128e-06
-6.71814e-06 8.6128e-06 -7.4471e-06
0.00389903 0.000106538 -0.000126968
0.000106538 0.00203186 7.85663e-06
-0.000126968 7.85663e-06 0.0020317
0.00151107 0.000186143 -3.75345e-06
0.000186143 8.93545e-05 -4.1999e-07
-3.75345e-06 -4.1999e-07 -6.97859e-05
0.00150557 0.000103883 -1.84669e-06
0.000103883 6.161e-05 1.96205e-10
-1.84669e-06 1.96205e-10 -7.27111e-05
0.00181703 0.000187742 -5.24598e-07
0.000187742 0.000126893 1.44162e-06
-5.24598e-07 1.44162e-06 1.1155e-06
0.00178977 9.15119e-05 1.02945e-06
9.15119e-05 6.69717e-05 7.10651e-07
1.02945e-06 7.10651e-07 -2.36709e-05
0.0014868 3.85382e-05 -1.31935e-06
3.85382e-05 5.374e-05 2.21947e-08
-1.31935e-06 2.21947e-08 -6.85428e-05
0.000989351 6.28416e-06 -1.20914e-05
6.28416e-06 -3.39295e-05 -8.54318e-08
-1.20914e-05 -8.54318e-08 -0.000155317
0.00148388 7.88486e-06 6.95217e-08
7.88486e-06 5.53655e-05 3.31546e-08
6.95217e-08 3.31546e-08 -6.56604e-05
0.00181883 3.91644e-05 -2.08015e-06
3.91644e-05 9.75964e-05 -7.20085e-08
-2.08015e-06 -7.20085e-08 1.34032e-05
0.0018317 0.000144587 -3.39061e-07
0.000144587 0.000107775 2.70045e-07
-3.39061e-07 2.70045e-07 -6.91028e-07
0.00181712 9.25315e-05 2.42979e-06
9.25315e-05 3.67242e-05 6.06032e-07
2.42979e-06 6.06032e-07 -2.55667e-05
0.0018146 0.000239696 -2.85151e-07
0.000239696 0.000148535 -1.37867e-07
-2.85151e-07 -1.37867e-07 1.42861e-06
0.00180782 0.000206465 -4.0134e-07
0.000206465 5.28219e-05 7.39587e-07
-4.0134e-07 7.39587e-07 -4.23241e-05
0.00178978 9.25257e-07 -2.44822e-06
9.25257e-07 8.92099e-05 1.19809e-07
-2.44822e-06 1.19809e-07 5.57403e-06
0.00179284 4.26423e-05 4.79548e-06
4.26423e-05 3.2423e-05 2.51239e-07
4.79548e-06 2.51239e-07 -2.36862e-05
0.00184688 0.000151156 1.0613e-06
0.000151156 5.46078e-05 -2.1213e-07
1.0613e-06 -2.1213e-07 -1.94677e-05
0.00190616 9.80595e-05 6.39731e-06
9.80595e-05 6.62346e-05 8.89001e-07
6.39731e-06 8.89001e-07 2.011e-05
0.00180483 0.00023882 2.6688e-07
0.00023882 9.94663e-05 -2.14153e-06
2.6688e-07 -2.14153e-06 -2.09445e-05
0.00185149 0.000213315 4.20821e-06
0.000213315 4.1404e-05 1.07002e-06
4.20821e-06 1.07002e-06 -3.82857e-05
0.00151603 -1.97678e-05 -3.24828e-06
-1.97678e-05 7.64275e-05 3.12377e-09
-3.24828e-06 3.12377e-09 -4.52722e-05
0.00176944 -0.000112514 -5.71084e-06
-0.000112514 0.000231985 6.33659e-07
-5.71084e-06 6.33659e-07 0.000101863
0.00182789 -7.59136e-05 3.20545e-06
-7.59136e-05 0.00011725 -1.40472e-06
3.20545e-06 -1.40472e-06 2.83683e-05
0.00175234 -0.000176576 -3.65488e-07
-0.000176576 9.34894e-05 -9.68402e-08
-3.65488e-07 -9.68402e-08 -3.31094e-05
0.000823976 -0.000200202 -5.89627e-06
-0.000200202 0.000146493 7.74153e-06
-5.89627e-06 7.74153e-06 -3.28262e-05
0.00123904 -0.000272487 -7.03019e-06
-0.000272487 0.000234122 3.81353e-06
-7.03019e-06 3.81353e-06 1.19377e-05
0.00133817 -0.000349606 -1.00323e-07
-0.000349606 0.000163064 9.43785e-07
-1.00323e-07 9.43785e-07 -9.28039e-05
0.00166977 -0.000265822 -1.12141e-06
-0.000265822 0.000119669 1.32104e-07
-1.12141e-06 1.32104e-07 -4.50194e-05
0.00193791 -0.000255156 2.04725e-06
-0.000255156 0.000174925 -1.61259e-06
2.04725e-06 -1.61259e-06 6.90026e-05
0.00181664 -0.000326521 2.08507e-06
-0.000326521 0.000172461 -1.03185e-06
2.08507e-06 -1.03185e-06 1.23648e-05
0.00177813 -0.000412652 -7.17985e-07
-0.000412652 0.000240538 -1.96942e-06
-7.17985e-07 -1.96942e-06 2.21848e-06
0.00206695 -0.000370699 5.68317e-06
-0.000370699 0.00034413 -6.0863e-06
5.68317e-06 -6.0863e-06 0.000179693
0.000969825 -0.000204102 7.12795e-07
-0.000204102 0.000226441 1.91204e-06
7.12795e-07 1.91204e-06 3.27609e-05
0.000528715 -0.000160747 1.36851e-06
-0.000160747 -3.66178e-05 -6.36436e-07
1.36851e-06 -6.36436e-07 -0.000231589
0.000711359 -4.87835e-05 -1.08217e-06
-4.87835e-05 0.000101108 3.69535e-06
-1.08217e-06 3.69535e-06 1.17688e-06
0.000186712 -2.1502e-05 1.44401e-06
-2.1502e-05 -0.000196792 -2.82101e-06
1.44401e-06 -2.82101e-06 -0.000356394
0.00180671 -4.2297e-05 2.18943e-08
-4.2297e-05 0.000102246 1.71963e-07
2.18943e-08 1.71963e-07 1.16168e-05
0.00179688 -0.000127264 8.60319e-07
-0.000127264 0.000104605 -3.6535e-07
8.60319e-07 -3.6535e-07 -5.94904e-06
0.00175339 -8.43952e-05 2.43918e-06
-8.43952e-05 2.77958e-05 -5.75543e-07
2.43918e-06 -5.75543e-07 -3.93582e-05
0.00181374 -0.000203686 -1.96734e-06
-0.000203686 6.404e-05 6.56115e-07
-1.96734e-06 6.56115e-07 -2.65447e-05
0.00100304 -0.000226336 -1.3453e-06
-0.000226336 0.00019102 4.84971e-07
-1.3453e-06 4.84971e-07 -1.62243e-05
0.00110181 -0.000309455 2.09806e-06
-0.000309455 0.000116447 -1.67812e-06
2.09806e-06 -1.67812e-06 -0.000136664
0.00163418 -0.000444311 -6.22968e-08
-0.000444311 0.000258861 8.51159e-07
-6.22968e-08 8.51159e-07 -2.92412e-05
0.00171997 -0.00028625 -1.55683e-06
-0.00028625 8.88806e-05 7.88179e-07
-1.55683e-06 7.88179e-07 -4.78256e-05
0.00187645 -0.000260225 1.82511e-06
-0.000260225 0.000125264 -9.19344e-07
1.82511e-06 -9.19344e-07 3.08207e-05
0.00177352 -0.000418192 -4.63867e-07
-0.000418192 0.000205311 6.06512e-07
-4.63867e-07 6.06512e-07 -2.58744e-05
0.00173487 -0.000339626 -7.05479e-07
-0.000339626 9.92869e-05 1.05481e-06
-7.05479e-07 1.05481e-06 -3.90539e-05
0.00194168 -0.000356946 3.77566e-06
-0.000356946 0.000247128 -5.6729e-06
3.77566e-06 -5.6729e-06 9.07507e-05
0.00107344 -0.000248623 5.30794e-07
-0.000248623 0.000243765 1.58223e-06
5.30794e-07 1.58223e-06 3.41757e-05
0.00133139 -0.0002666 4.37194e-06
-0.0002666 0.00042578 1.62343e-06
4.37194e-06 1.62343e-06 0.000221464
0.000789097 -0.000131407 -1.22285e-07
-0.000131407 0.000185957 -2.92505e-07
-1.22285e-07 -2.92505e-07 -2.23304e-05
0.000452863 -1.41642e-05 -1.54812e-06
-1.41642e-05 -4.87881e-05 5.37884e-07
-1.54812e-06 5.37884e-07 -0.000135259
0.000295103 -1.49832e-05 -3.04073e-07
-1.49832e-05 -0.000116738 -4.49882e-07
-3.04073e-07 -4.49882e-07 -0.00026164
0.00187237 -5.34687e-05 2.95858e-06
-5.34687e-05 8.02114e-05 -7.96901e-07
2.95858e-06 -7.96901e-07 2.96003e-05
0.00188116 -0.000124913 3.95472e-06
-0.000124913 8.42481e-05 -2.26247e-07
3.95472e-06 -2.26247e-07 1.6351e-05
0.0018896 -0.00024809 2.14211e-06
-0.00024809 7.44006e-05 -1.8396e-06
2.14211e-06 -1.8396e-06 8.70756e-08
0.00172033 -0.000287534 2.34505e-07
-0.000287534 5.27352e-05 -5.47541e-07
2.34505e-07 -5.47541e-07 -5.39581e-05
0.00135675 -0.00029653 -1.81496e-06
-0.00029653 0.00035562 -4.9267e-06
-1.81496e-06 -4.9267e-06 0.000119197
0.00221335 -0.000408151 -2.24032e-06
-0.000408151 0.000314257 -3.88503e-07
-2.24032e-06 -3.88503e-07 0.000174868
0.00144357 -0.000400546 2.66543e-06
-0.000400546 0.000292282 -4.94869e-06
2.66543e-06 -4.94869e-06 -2.61479e-06
0.00179462 -0.00049834 -6.0205e-07
-0.00049834 0.000315332 1.87867e-06
-6.0205e-07 1.87867e-06 1.1853e-05
0.00170215 -0.000404302 1.69922e-06
-0.000404302 0.000140647 3.67354e-06
1.69922e-06 3.67354e-06 -8.16494e-05
0.000205106 8.63202e-06 -2.0933e-07
8.63202e-06 -0.000196488 -3.62004e-06
-2.0933e-07 -3.62004e-06 -0.000268681
0.000699365 -5.13834e-05 2.38425e-07
-5.13834e-05 0.00013845 -7.6623e-07
2.38425e-07 -7.6623e-07 3.13145e-06
0.00101019 -8.24774e-05 -1.57908e-06
-8.24774e-05 0.000314258 1.07888e-06
-1.57908e-06 1.07888e-06 0.000138488
0.00134181 -0.000286862 -8.70402e-06
-0.000286862 0.000382303 -1.15303e-07
-8.70402e-06 -1.15303e-07 0.000165871
0.000422389 -0.000133636 2.72896e-06
-0.000133636 -4.8652e-05 5.75954e-06
2.72896e-06 5.75954e-06 -0.000267635
0.000649641 -0.000225586 -2.71555e-06
-0.000225586 -1.90812e-05 1.90567e-07
-2.71555e-06 1.90567e-07 -0.000215424
0.000531405 -4.90772e-05 -1.13818e-06
-4.90772e-05 -2.81583e-05 -4.79847e-06
-1.13818e-06 -4.79847e-06 -5.15613e-05
0.000573326 -1.77573e-05 -1.74332e-06
-1.77573e-05 1.25554e-05 -3.04363e-06
-1.74332e-06 -3.04363e-06 -5.76913e-05
0.00176996 0.000286882 -1.74433e-06
0.000286882 0.000153563 -4.1117e-07
-1.74433e-06 -4.1117e-07 -1.75589e-05
0.000132347 -4.48412e-05 1.19072e-06
-4.48412e-05 -0.000210705 -2.63762e-06
1.19072e-06 -2.63762e-06 -0.000347715
0.000789824 0.000181487 -9.42389e-07
0.000181487 0.000131301 7.031e-08
-9.42389e-07 7.031e-08 -5.70419e-05
0.00013412 7.42359e-05 1.80534e-06
7.42359e-05 -0.000253432 1.6559e-06
1.80534e-06 1.6559e-06 -0.000424209
0.00164077 0.000352884 3.69069e-07
0.000352884 0.000195865 3.0947e-07
3.69069e-07 3.0947e-07 -2.08295e-05
0.00169755 0.000352322 3.99062e-07
0.000352322 0.000135217 1.28427e-07
3.99062e-07 1.28427e-07 -5.2509e-05
0.00116707 0.000283322 1.50229e-06
0.000283322 0.000237208 -1.57448e-06
1.50229e-06 -1.57448e-06 -1.72318e-05
0.00202878 0.000385894 -1.49845e-06
0.000385894 0.000572916 -1.0546e-06
-1.49845e-06 -1.0546e-06 0.000305386
0.0017278 0.00040486 -2.19e-06
0.00040486 0.000228875 6.85762e-07
-2.19e-06 6.85762e-07 -8.76833e-06
0.0006069 6.24518e-07 -4.04047e-07
6.24518e-07 2.08268e-05 3.39953e-07
-4.04047e-07 3.39953e-07 -3.8431e-05
0.000704084 1.13919e-05 -7.94291e-07
1.13919e-05 0.000119737 4.80337e-07
-7.94291e-07 4.80337e-07 8.5841e-06
0.00113532 0.000256886 -9.00658e-07
0.000256886 0.000286342 8.86798e-08
-9.00658e-07 8.86798e-08 7.6532e-05
0.000833201 5.25476e-05 3.36461e-07
5.25476e-05 0.000211774 6.53134e-08
3.36461e-07 6.53134e-08 4.12703e-05
0.000760271 0.000166067 2.18343e-06
0.000166067 9.90732e-05 1.32924e-06
2.18343e-06 1.32924e-06 -7.47561e-05
0.00178593 0.000298346 -2.04915e-06
0.000298346 0.000137341 -1.58239e-06
-2.04915e-06 -1.58239e-06 -1.69606e-05
0.001802 0.000405678 1.64711e-06
0.000405678 0.000237205 4.02089e-07
1.64711e-06 4.02089e-07 1.82365e-05
0.00169961 0.00038259 4.29055e-07
0.00038259 0.000107313 -1.54416e-07
4.29055e-07 -1.54416e-07 -7.72338e-05
0.000840884 0.000283341 1.0591e-06
0.000283341 3.0672e-05 3.37819e-06
1.0591e-06 3.37819e-06 -0.000231882
0.00163878 0.000399756 -2.43009e-06
0.000399756 0.000276477 -1.31289e-06
-2.43009e-06 -1.31289e-06 1.69871e-05
0.000772272 3.95019e-05 6.69686e-07
3.95019e-05 0.000149231 2.25817e-06
6.69686e-07 2.25817e-06 5.27811e-05
0.000344392 -9.41173e-06 -1.43038e-06
-9.41173e-06 -7.9177e-05 1.99525e-06
-1.43038e-06 1.99525e-06 -0.000213806
0.0011207 0.000272655 -3.87254e-06
0.000272655 0.000232228 -2.2877e-06
-3.87254e-06 -2.2877e-06 2.31081e-05
0.000753319 0.000140109 -5.52144e-06
0.000140109 0.000178085 -4.98562e-06
-5.52144e-06 -4.98562e-06 -1.37268e-05
0.000721679 0.000222977 -1.30806e-06
0.000222977 3.63351e-05 -3.43075e-06
-1.30806e-06 -3.43075e-06 -0.000138166
0.00169496 0.000319606 -4.17728e-07
0.000319606 1.95047e-05 -2.05386e-06
-4.17728e-07 -2.05386e-06 -0.000112468
0.0019476 0.000444302 3.62261e-06
0.000444302 0.000307812 -1.77673e-06
3.62261e-06 -1.77673e-06 7.53817e-05
0.00158947 0.000397138 2.35179e-06
0.000397138 3.33291e-05 1.0314e-07
2.35179e-06 1.0314e-07 -0.000155517
0.00100212 0.000307102 1.16884e-06
0.000307102 8.24568e-05 8.06613e-06
1.16884e-06 8.06613e-06 -0.000194496
0.00144208 0.000411403 -9.42941e-07
0.000411403 0.000174642 -7.5413e-07
-9.42941e-07 -7.5413e-07 -9.00756e-05
0.000593542 -1.01288e-05 -1.85252e-06
-1.01288e-05 9.17207e-06 -2.62115e-06
-1.85252e-06 -2.62115e-06 -4.518e-05
0.00059731 3.3779e-05 1.0889e-06
3.3779e-05 3.25065e-05 3.75279e-07
1.0889e-06 3.75279e-07 -5.30049e-05
0.000504093 1.54297e-05 4.21983e-08
1.54297e-05 -2.51079e-05 1.17634e-06
4.21983e-08 1.17634e-06 -0.000114388
0.000407796 -2.55064e-05 -8.07902e-07
-2.55064e-05 -7.85424e-05 -1.66389e-06
-8.07902e-07 -1.66389e-06 -0.000162044
0.000647447 4.16634e-05 -2.90743e-07
4.16634e-05 7.34562e-05 7.0525e-09
-2.90743e-07 7.0525e-09 -1.47246e-05
0.000681409 5.68386e-05 -4.60206e-07
5.68386e-05 8.55272e-05 -3.24209e-07
-4.60206e-07 -3.24209e-07 -9.6188e-06
0.000803213 8.96543e-05 -1.36328e-06
8.96543e-05 0.000168491 -2.24618e-06
-1.36328e-06 -2.24618e-06 6.48796e-05
0.000462105 -6.15538e-06 9.86454e-07
-6.15538e-06 -2.81904e-05 1.85392e-07
9.86454e-07 1.85392e-07 -0.000135192
0.000682871 6.74511e-05 1.05407e-06
6.74511e-05 9.19021e-05 1.84166e-06
1.05407e-06 1.84166e-06 6.98965e-06
0.000615777 4.21782e-05 2.67678e-06
4.21782e-05 3.86648e-05 2.60025e-06
2.67678e-06 2.60025e-06 -1.71078e-05
0.000598274 4.78026e-06 -1.43318e-06
4.78026e-06 2.29563e-05 -6.42186e-09
-1.43318e-06 -6.42186e-09 -3.07062e-05
0.00125084 -2.49148e-05 1.07544e-06
-2.49148e-05 0.000390958 2.57479e-06
1.07544e-06 2.57479e-06 0.000378885
0.000553214 -4.96993e-05 6.92202e-08
-4.96993e-05 -4.03207e-06 -2.563e-06
6.92202e-08 -2.563e-06 -5.9626e-05
0.00129837 -3.42331e-05 -4.86093e-06
-3.42331e-05 0.00041965 -1.4814e-06
-4.86093e-06 -1.4814e-06 0.000407003
0.00083992 -3.27664e-05 2.03897e-05
-3.27664e-05 0.000149422 8.13963e-06
2.03897e-05 8.13963e-06 0.000155058
0.00134186 -4.51166e-05 -8.77622e-06
-4.51166e-05 0.000448531 -5.64599e-06
-8.77622e-06 -5.64599e-06 0.000434404
0.000798313 -4.21216e-05 7.37144e-06
-4.21216e-05 0.000128576 3.04355e-06
7.37144e-06 3.04355e-06 0.000131971
0.00229309 -9.48396e-05 -4.28288e-06
-9.48396e-05 0.00104223 -2.05131e-06
-4.28288e-06 -2.05131e-06 0.00104787
0.000472879 4.74483e-05 -1.14422e-06
4.74483e-05 -5.52711e-05 -3.95556e-06
-1.14422e-06 -3.95556e-06 -7.77988e-05
0.000491676 3.95773e-05 -1.64155e-06
3.95773e-05 -3.49679e-05 -3.41685e-08
-1.64155e-06 -3.41685e-08 -6.55422e-05
0.00251387 0.000108455 2.39554e-05
0.000108455 0.00118911 -3.72449e-06
2.39554e-05 -3.72449e-06 0.0011903
0.000580636 -4.46572e-06 -5.12915e-06
-4.46572e-06 1.58835e-05 7.19844e-06
-5.12915e-06 7.19844e-06 -2.01524e-05
0.00295268 0.000123932 -1.94742e-05
0.000123932 0.00145893 -8.35089e-07
-1.94742e-05 -8.35089e-07 0.00145606
0.00346281 9.77313e-05 -0.000105696
9.77313e-05 0.00176578 6.06986e-06
-0.000105696 6.06986e-06 0.00176864
0.0017859 0.000240066 -1.93873e-06
0.000240066 0.000127007 7.53549e-07
-1.93873e-06 7.53549e-07 -2.07225e-05
0.00182511 0.000141957 1.10464e-06
0.000141957 0.000104394 1.51275e-06
1.10464e-06 1.51275e-06 -3.79217e-06
0.00184882 0.000203565 1.0271e-07
0.000203565 7.63238e-05 2.12937e-06
1.0271e-07 2.12937e-06 -1.5206e-05
0.00181834 9.05386e-05 -3.40651e-08
9.05386e-05 3.53117e-05 4.58479e-07
-3.40651e-08 4.58479e-07 -2.17442e-05
0.00180189 3.27686e-05 -9.20519e-07
3.27686e-05 8.72645e-05 1.16633e-07
-9.20519e-07 1.16633e-07 3.36592e-06
0.00148612 1.07969e-05 -1.18928e-06
1.07969e-05 5.77424e-05 6.28546e-08
-1.18928e-06 6.28546e-08 -6.3297e-05
0.00178529 2.00496e-06 -2.04655e-06
2.00496e-06 8.57964e-05 1.66596e-09
-2.04655e-06 1.66596e-09 -3.0223e-07
0.00182245 4.13829e-05 2.3681e-06
4.13829e-05 5.44818e-05 9.95782e-08
2.3681e-06 9.95782e-08 -3.23123e-06
0.00189219 0.000151047 -1.1058e-06
0.000151047 8.41786e-05 -3.79194e-07
-1.1058e-06 -3.79194e-07 9.98894e-06
0.00188712 9.93008e-05 1.26675e-06
9.93008e-05 5.2018e-05 3.06086e-07
1.26675e-06 3.06086e-07 8.51601e-06
0.00180374 0.000236738 -8.6106e-07
0.000236738 0.000106702 -3.00349e-07
-8.6106e-07 -3.00349e-07 -1.3386e-05
0.00186555 0.000216948 3.35564e-06
0.000216948 5.06055e-05 1.41518e-06
3.35564e-06 1.41518e-06 -2.62868e-05
0.00181176 -6.94968e-06 3.31567e-06
-6.94968e-06 5.67241e-05 1.36133e-07
3.31567e-06 1.36133e-07 2.74927e-06
0.0018504 4.49992e-05 5.81737e-06
4.49992e-05 1.95487e-05 1.36009e-07
5.81737e-06 1.36009e-07 -9.80536e-06
0.00192737 0.000153776 4.67643e-06
0.000153776 5.62515e-05 1.29567e-06
4.67643e-06 1.29567e-06 7.41298e-06
0.00194422 0.000275312 4.30341e-07
0.000275312 0.000109854 2.33071e-08
4.30341e-07 2.33071e-08 1.59356e-05
0.0018136 -4.23993e-05 1.47589e-06
-4.23993e-05 0.000107614 8.17323e-08
1.47589e-06 8.17323e-08 1.69041e-05
0.00174803 -0.000128077 2.38189e-06
-0.000128077 7.88416e-05 -1.1893e-06
2.38189e-06 -1.1893e-06 -3.41392e-05
0.00179785 -8.2956e-05 2.58228e-06
-8.2956e-05 5.43087e-05 -1.67825e-06
2.58228e-06 -1.67825e-06 -8.31804e-06
0.0018097 -0.000200824 -2.28504e-06
-0.000200824 6.56482e-05 5.8587e-07
-2.28504e-06 5.8587e-07 -2.67402e-05
0.00120495 -0.000243826 -2.22353e-06
-0.000243826 0.000316362 4.84173e-06
-2.22353e-06 4.84173e-06 0.000104677
0.00091581 -0.000285304 -1.0654e-06
-0.000285304 6.50068e-06 1.93574e-06
-1.0654e-06 1.93574e-06 -0.000239141
0.00161886 -0.000449419 1.73205e-06
-0.000449419 0.000249194 -8.89074e-07
1.73205e-06 -8.89074e-07 -4.36017e-05
0.00168831 -0.000283197 -5.30865e-07
-0.000283197 7.71606e-05 -1.65846e-07
-5.30865e-07 -1.65846e-07 -6.31966e-05
0.00174507 -0.000256559 1.31092e-06
-0.000256559 4.63293e-05 -3.30317e-07
1.31092e-06 -3.30317e-07 -4.43359e-05
0.0018023 -0.000344239 2.83414e-06
-0.000344239 0.000132119 1.17198e-07
2.83414e-06 1.17198e-07 -6.94588e-06
0.00175987 -0.000419265 -2.62626e-06
-0.000419265 0.000203473 -2.42015e-06
-2.62626e-06 -2.42015e-06 -2.90153e-05
0.00178392 -0.000345519 2.08777e-06
-0.000345519 0.000143011 -1.10622e-05
2.08777e-06 -1.10622e-05 -7.36644e-06
0.00121344 -0.000262864 3.72892e-06
-0.000262864 0.000322233 2.13348e-06
3.72892e-06 2.13348e-06 0.000110518
0.00098467 -0.000230614 6.29763e-06
-0.000230614 0.000201678 -2.00679e-06
6.29763e-06 -2.00679e-06 1.17885e-05
0.000643456 -0.000106208 2.60519e-06
-0.000106208 9.92581e-05 -5.1316e-06
2.60519e-06 -5.1316e-06 -0.000112557
0.000360241 4.9128e-06 -6.49812e-07
4.9128e-06 -0.000103885 3.31707e-06
-6.49812e-07 3.31707e-06 -0.000192532
0.000277397 1.61167e-05 2.0146e-06
1.61167e-05 -0.000130108 -3.90719e-08
2.0146e-06 -3.90719e-08 -0.000271227
0.00183929 -5.89504e-05 -3.54029e-07
-5.89504e-05 6.09338e-05 -1.44842e-07
-3.54029e-07 -1.44842e-07 6.69397e-06
0.00184953 -0.000125953 1.44971e-06
-0.000125953 6.37776e-05 -6.68272e-07
1.44971e-06 -6.68272e-07 -6.05197e-06
0.00186305 -0.000240912 -1.80933e-06
-0.000240912 6.91415e-05 3.0679e-07
-1.80933e-06 3.0679e-07 -7.68201e-06
0.00118802 -0.000278928 -1.7685e-06
-0.000278928 0.000255611 -4.27977e-07
-1.7685e-06 -4.27977e-07 2.18583e-05
0.00104016 -0.000351934 9.11486e-07
-0.000351934 4.73713e-05 -1.70098e-06
9.11486e-07 -1.70098e-06 -0.000234585
0.00165561 -0.000489661 -3.66172e-07
-0.000489661 0.000237456 -5.17098e-08
-3.66172e-07 -5.17098e-08 -6.81035e-05
0.00172512 -0.00028766 5.78757e-07
-0.00028766 5.0501e-05 -2.61158e-07
5.78757e-07 -2.61158e-07 -5.68035e-05
0.00182011 -0.000410715 9.24283e-07
-0.000410715 0.000209825 -2.69248e-06
9.24283e-07 -2.69248e-06 -6.08364e-06
0.00192539 -0.000386112 -4.6643e-07
-0.000386112 0.000164512 -1.06273e-06
-4.6643e-07 -1.06273e-06 2.67464e-05
0.000265155 3.8621e-05 -6.15723e-07
3.8621e-05 -0.000166879 -8.92834e-07
-6.15723e-07 -8.92834e-07 -0.000234392
0.00123261 -0.000275029 -4.69215e-07
-0.000275029 0.000300851 7.87478e-07
-4.69215e-07 7.87478e-07 8.87141e-05
0.000555104 -0.000212979 8.95327e-07
-0.000212979 -6.89825e-05 1.29361e-06
8.95327e-07 1.29361e-06 -0.00025194
0.0010047 -0.00018635 -6.01755e-07
-0.00018635 0.000303464 5.66085e-07
-6.01755e-07 5.66085e-07 7.34291e-05
0.00115854 -8.78218e-05 6.30999e-07
-8.78218e-05 0.000403293 -1.77006e-06
6.30999e-07 -1.77006e-06 0.00022865
0.000578924 -5.78531e-06 -6.13889e-07
-5.78531e-06 5.82848e-05 6.1273e-07
-6.13889e-07 6.1273e-07 -7.32069e-05
0.00184754 -6.88162e-05 4.38529e-06
-6.88162e-05 2.46634e-05 -6.12959e-07
4.38529e-06 -6.12959e-07 -1.00259e-05
0.00198996 -0.000167328 2.6563e-06
-0.000167328 6.47608e-05 -2.2188e-07
2.6563e-06 -2.2188e-07 3.00431e-05
0.00181991 -0.000282352 2.40912e-06
-0.000282352 1.90462e-05 -1.97507e-06
2.40912e-06 -1.97507e-06 -4.43646e-05
0.00208538 -0.000359116 7.55687e-07
-0.000359116 0.000171232 -2.83864e-06
7.55687e-07 -2.83864e-06 7.0206e-05
0.00169078 -0.00035504 -4.55644e-06
-0.00035504 0.000509334 -4.86897e-06
-4.55644e-06 -4.86897e-06 0.000254779
0.00188601 -0.000433916 1.91529e-06
-0.000433916 0.000175698 3.40765e-06
1.91529e-06 3.40765e-06 -4.67272e-06
0.00146873 -0.000460937 -3.61998e-06
-0.000460937 0.000264495 1.45969e-06
-3.61998e-06 1.45969e-06 -7.60512e-05
0.00178032 -0.000517893 -4.64266e-06
-0.000517893 0.000310481 2.25975e-06
-4.64266e-06 2.25975e-06 -9.15972e-06
0.000276482 5.58014e-05 -2.33487e-06
5.58014e-05 -0.000164514 -2.11123e-06
-2.33487e-06 -2.11123e-06 -0.000220416
0.000691828 2.22509e-06 -7.41456e-07
2.22509e-06 0.000120969 -4.21346e-07
-7.41456e-07 -4.21346e-07 1.11151e-05
0.000978786 -0.000114401 -2.46492e-06
-0.000114401 0.000300894 2.40836e-06
-2.46492e-06 2.40836e-06 0.000146102
0.000959255 -2.97412e-05 -2.50302e-06
-2.97412e-05 0.000273135 4.93116e-06
-2.50302e-06 4.93116e-06 6.28789e-05
0.000739047 -0.000259513 -5.16166e-06
-0.000259513 -1.48247e-05 -5.22673e-06
-5.16166e-06 -5.22673e-06 -0.000237926
0.00101681 -0.000253425 -8.71094e-06
-0.000253425 0.000245674 2.10965e-06
-8.71094e-06 2.10965e-06 7.97014e-06
0.000539147 -6.72892e-06 -2.39761e-06
-6.72892e-06 -1.92598e-05 -2.52231e-06
-2.39761e-06 -2.52231e-06 -7.78689e-05
0.000455528 -2.73081e-05 7.56445e-07
-2.73081e-05 -3.79933e-05 -2.00656e-06
7.56445e-07 -2.00656e-06 -0.000139075
0.00176132 0.000300051 -2.63849e-06
0.000300051 0.000123367 -7.56937e-07
-2.63849e-06 -7.56937e-07 -3.21396e-05
0.000292705 3.65201e-06 4.73931e-07
3.65201e-06 -0.000118006 -1.28919e-07
4.73931e-07 -1.28919e-07 -0.00027634
0.00112196 0.000255668 2.02025e-06
0.000255668 0.000280839 -1.66927e-07
2.02025e-06 -1.66927e-07 7.03549e-05
-1.13895e-05 7.80826e-05 3.5207e-06
7.80826e-05 -0.00037394 3.6976e-06
3.5207e-06 3.6976e-06 -0.00052446
0.00176545 0.000402747 -4.37703e-08
0.000402747 0.00021212 1.13377e-07
-4.37703e-08 1.13377e-07 -6.76051e-06
0.00182694 0.000386364 -2.58504e-06
0.000386364 0.000180577 9.15816e-07
-2.58504e-06 9.15816e-07 -2.96453e-06
0.000927324 0.000299063 -1.17577e-06
0.000299063 7.62016e-05 4.80841e-07
-1.17577e-06 4.80841e-07 -0.000189432
0.00198033 0.000429503 -2.71672e-06
0.000429503 0.000490143 7.23387e-07
-2.71672e-06 7.23387e-07 0.000223807
0.000688189 1.5906e-05 -9.74205e-07
1.5906e-05 9.51115e-05 2.08692e-07
-9.74205e-07 2.08692e-07 3.24032e-06
0.000546457 2.81764e-05 8.98153e-07
2.81764e-05 4.14078e-05 7.27103e-07
8.98153e-07 7.27103e-07 -9.69372e-05
0.00138023 0.000297619 -6.51991e-07
0.000297619 0.000396608 -2.56583e-06
-6.51991e-07 -2.56583e-06 0.000179332
0.00055776 5.00413e-05 -1.17216e-06
5.00413e-05 2.95484e-05 -3.24962e-07
-1.17216e-06 -3.24962e-07 -0.000133204
0.000553583 0.000189719 -1.41206e-06
0.000189719 -7.62244e-05 -5.5374e-07
-1.41206e-06 -5.5374e-07 -0.000230757
0.00190298 0.000331162 -2.95148e-06
0.000331162 0.000136725 -1.24948e-06
-2.95148e-06 -1.24948e-06 6.74918e-06
0.00203203 0.000445049 2.05145e-06
0.000445049 0.000361702 -3.33394e-07
2.05145e-06 -3.33394e-07 0.000132269
0.00176047 0.000415979 1.68899e-06
0.000415979 0.000121957 2.58785e-06
1.68899e-06 2.58785e-06 -7.07896e-05
0.00123681 0.000333942 4.23154e-06
0.000333942 0.000231968 4.55708e-06
4.23154e-06 4.55708e-06 -5.29372e-05
0.00150221 0.000425544 -3.41488e-06
0.000425544 0.000204048 5.11505e-07
-3.41488e-06 5.11505e-07 -6.77553e-05
0.00020413 -1.60891e-05 -1.29411e-06
-1.60891e-05 -0.000183541 3.13396e-06
-1.29411e-06 3.13396e-06 -0.00028403
-5.28215e-05 8.11877e-05 7.6517e-07
8.11877e-05 -0.000278691 1.792e-07
7.6517e-07 1.792e-07 -0.000455427
0.000789091 0.000248817 1.94375e-06
0.000248817 1.94565e-05 2.33831e-06
1.94375e-06 2.33831e-06 -0.000203501
-0.000422312 9.40051e-05 4.27228e-06
9.40051e-05 -0.000608304 -1.33097e-06
4.27228e-06 -1.33097e-06 -0.000774093
0.00199774 0.000338131 -4.92112e-07
0.000338131 2.78676e-06 1.78722e-07
-4.92112e-07 1.78722e-07 -5.18537e-05
0.00241836 0.000423342 1.14939e-06
0.000423342 0.000434199 -1.02841e-06
1.14939e-06 -1.02841e-06 0.000280368
0.00185284 0.000479074 -3.28771e-06
0.000479074 0.00027246 -3.92616e-06
-3.28771e-06 -3.92616e-06 1.52959e-05
0.000678046 0.000326114 -6.70361e-07
0.000326114 -0.000162329 1.95231e-06
-6.70361e-07 1.95231e-06 -0.000458236
0.000652158 6.62694e-05 -1.11731e-06
6.62694e-05 7.00908e-05 -1.02831e-06
-1.11731e-06 -1.02831e-06 -1.84734e-05
0.000614105 4.45158e-05 -2.30652e-07
4.45158e-05 4.99917e-05 1.91186e-07
-2.30652e-07 1.91186e-07 -4.59781e-05
0.000936109 3.98827e-05 -2.70582e-06
3.98827e-05 0.000241024 -1.53276e-06
-2.70582e-06 -1.53276e-06 0.00015259
0.000636168 1.60224e-05 -1.55578e-06
1.60224e-05 5.42879e-05 -1.71417e-06
-1.55578e-06 -1.71417e-06 -2.47414e-05
0.000421589 4.75063e-06 -5.82098e-07
4.75063e-06 -6.7086e-05 -6.77265e-07
-5.82098e-07 -6.77265e-07 -0.00016041
0.000651227 3.22024e-05 -9.30553e-08
3.22024e-05 7.55535e-05 2.24947e-08
-9.30553e-08 2.24947e-08 -1.03929e-05
0.000660857 8.8445e-05 -8.38956e-07
8.8445e-05 9.47244e-05 -1.11745e-07
-8.38956e-07 -1.11745e-07 -1.23338e-05
0.000576153 2.80415e-05 8.92266e-07
2.80415e-05 4.31876e-05 3.30224e-07
8.92266e-07 3.30224e-07 -6.64741e-05
0.000769808 6.17029e-05 1.14068e-06
6.17029e-05 0.000137045 -1.48644e-06
1.14068e-06 -1.48644e-06 4.84289e-05
0.000668773 -1.0499e-05 2.60556e-06
-1.0499e-05 9.59845e-05 -2.19178e-06
2.60556e-06 -2.19178e-06 -1.59111e-05
0.000489363 5.31292e-05 9.66384e-07
5.31292e-05 -7.70351e-06 1.6005e-06
9.66384e-07 1.6005e-06 -0.000120999
0.000661633 7.9453e-05 1.59419e-06
7.9453e-05 8.59234e-05 2.30465e-06
1.59419e-06 2.30465e-06 -3.69681e-06
0.000554576 5.11637e-05 2.27125e-06
5.11637e-05 8.62738e-06 2.43207e-06
2.27125e-06 2.43207e-06 -5.07482e-05
0.000565121 -8.46628e-07 -1.30363e-06
-8.46628e-07 9.90829e-06 -4.0427e-08
-1.30363e-06 -4.0427e-08 -4.66146e-05
0.00124748 -1.23526e-05 9.25878e-07
-1.23526e-05 0.00039043 2.44964e-06
9.25878e-07 2.44964e-06 0.000378654
0.000558642 -4.6589e-05 8.19939e-08
-4.6589e-05 2.4759e-06 -2.53609e-06
8.19939e-08 -2.53609e-06 -5.29911e-05
0.00130336 -2.17247e-05 -4.14864e-06
-2.17247e-05 0.000422707 -1.56605e-06
-4.14864e-06 -1.56605e-06 0.000410772
0.000833443 -2.42586e-05 1.73399e-05
-2.42586e-05 0.000143168 8.42509e-06
1.73399e-05 8.42509e-06 0.00014974
0.00134763 -3.19814e-05 -7.48134e-06
-3.19814e-05 0.000449433 -5.67866e-06
-7.48134e-06 -5.67866e-06 0.00043682
0.000793769 -3.34701e-05 6.03985e-06
-3.34701e-05 0.000120696 3.14818e-06
6.03985e-06 3.14818e-06 0.00012595
0.000737124 -4.08158e-05 -1.10044e-06
-4.08158e-05 9.11335e-05 -2.25298e-06
-1.10044e-06 -2.25298e-06 9.45679e-05
0.000507343 3.76412e-05 1.59923e-07
3.76412e-05 -4.73525e-05 -3.29425e-06
1.59923e-07 -3.29425e-06 -6.30976e-05
0.000503044 5.69893e-05 1.98233e-08
5.69893e-05 -3.40462e-05 1.57801e-07
1.98233e-08 1.57801e-07 -5.89e-05
0.00226844 8.92111e-05 1.90634e-05
8.92111e-05 0.0010331 -3.78198e-06
1.90634e-05 -3.78198e-06 0.00103945
0.000534321 3.36299e-05 -2.98043e-06
3.36299e-05 -9.03314e-06 6.00818e-06
-2.98043e-06 6.00818e-06 -4.00755e-05
0.00258259 0.000110785 -6.57654e-06
0.000110785 0.00123054 -5.36005e-07
-6.57654e-06 -5.36005e-07 0.00123119
0.00304891 8.99741e-05 -8.38756e-05
8.99741e-05 0.00151257 4.77411e-06
-8.38756e-05 4.77411e-06 0.00151769
0.00179535 0.000234174 -7.65169e-07
0.000234174 0.000110598 1.95419e-06
-7.65169e-07 1.95419e-06 -9.12294e-06
0.00193181 0.000150744 -2.76775e-06
0.000150744 0.000109747 3.44054e-07
-2.76775e-06 3.44054e-07 3.5384e-05
0.00186361 0.000219785 6.79853e-07
0.000219785 5.02137e-05 2.3094e-07
6.79853e-07 2.3094e-07 -2.39035e-05
0.00186707 0.000100815 -5.17448e-06
0.000100815 3.71759e-05 -8.65243e-07
-5.17448e-06 -8.65243e-07 -3.92964e-06
0.00186368 4.07742e-05 -4.78003e-07
4.07742e-05 8.38055e-05 -1.95269e-07
-4.78003e-07 -1.95269e-07 2.44499e-05
0.00178344 7.52361e-08 -5.82318e-07
7.52361e-08 8.39242e-05 8.51134e-08
-5.82318e-07 8.51134e-08 -4.6005e-06
0.00178958 -3.69385e-06 -4.5808e-07
-3.69385e-06 4.23957e-05 -5.48767e-08
-4.5808e-07 -5.48767e-08 -1.11489e-05
0.00187926 4.55699e-05 9.00825e-07
4.55699e-05 4.52819e-05 1.80355e-07
9.00825e-07 1.80355e-07 1.42015e-05
0.00192191 0.000158478 5.03744e-07
0.000158478 5.35616e-05 -4.06833e-08
5.03744e-07 -4.06833e-08 4.464e-06
0.00196687 0.000271927 3.54801e-07
0.000271927 0.000109692 1.85855e-07
3.54801e-07 1.85855e-07 1.77639e-05
0.00184751 -8.68418e-06 4.03072e-06
-8.68418e-06 3.05212e-05 -1.93748e-07
4.03072e-06 -1.93748e-07 2.776e-06
0.00195808 9.15963e-05 3.03034e-06
9.15963e-05 1.48239e-05 -3.00006e-08
3.03034e-06 -3.00006e-08 7.06099e-06
0.00206661 0.000236539 3.23569e-06
0.000236539 7.64399e-05 1.20589e-06
3.23569e-06 1.20589e-06 2.50945e-05
0.00180677 -6.43882e-05 -1.70327e-06
-6.43882e-05 4.19116e-05 3.67392e-07
-1.70327e-06 3.67392e-07 -1.58532e-05
0.0018035 -0.00012687 -1.01382e-06
-0.00012687 3.49985e-05 -6.31958e-07
-1.01382e-06 -6.31958e-07 -3.697e-05
0.0018365 -0.000233731 -3.00998e-06
-0.000233731 6.51183e-05 1.31347e-06
-3.00998e-06 1.31347e-06 -1.46862e-05
0.000970394 -0.000256935 -1.56833e-06
-0.000256935 0.000125326 4.15506e-06
-1.56833e-06 4.15506e-06 -0.000104939
0.00095575 -0.000335194 2.22742e-06
-0.000335194 -9.4676e-06 1.17856e-06
2.22742e-06 1.17856e-06 -0.000284222
0.00160948 -0.000491458 1.71277e-06
-0.000491458 0.000211099 -1.18069e-06
1.71277e-06 -1.18069e-06 -9.70488e-05
0.00175046 -0.000288509 -8.01917e-07
-0.000288509 6.06213e-05 5.53275e-07
-8.01917e-07 5.53275e-07 -4.72692e-05
0.00158735 -0.000363064 -7.30044e-08
-0.000363064 -1.65258e-05 -1.84545e-06
-7.30044e-08 -1.84545e-06 -0.000152842
0.00190002 -0.00041603 -2.51131e-06
-0.00041603 0.000255365 -7.76098e-06
-2.51131e-06 -7.76098e-06 4.56466e-05
0.00116897 -0.000268903 3.15228e-06
-0.000268903 0.000251043 5.18822e-06
3.15228e-06 5.18822e-06 4.09303e-05
0.000703498 -0.000222378 -7.68613e-06
-0.000222378 3.30547e-05 2.5149e-06
-7.68613e-06 2.5149e-06 -0.000142086
0.00173884 -0.000243879 1.63509e-06
-0.000243879 0.000753798 -1.62937e-06
1.63509e-06 -1.62937e-06 0.000504905
0.000344605 3.09037e-05 9.56866e-07
3.09037e-05 -0.000120878 6.21716e-07
9.56866e-07 6.21716e-07 -0.000186398
0.000881237 -9.20982e-05 2.32873e-06
-9.20982e-05 0.00023159 -9.39625e-07
2.32873e-06 -9.39625e-07 6.99101e-05
0.000417366 3.23336e-05 3.30835e-06
3.23336e-05 -4.59864e-05 1.65111e-06
3.30835e-06 1.65111e-06 -0.000173222
0.0018578 -6.8842e-05 -4.07882e-07
-6.8842e-05 3.30305e-05 1.72457e-07
-4.07882e-07 1.72457e-07 -5.36996e-06
0.00194375 -0.000173576 1.96923e-07
-0.000173576 3.47798e-05 -1.80835e-07
1.96923e-07 -1.80835e-07 -1.2203e-06
0.00187671 -0.00028268 -3.33074e-07
-0.00028268 5.90518e-05 4.6163e-07
-3.33074e-07 4.6163e-07 -8.6413e-06
0.00134004 -0.000320801 -2.13518e-06
-0.000320801 0.000304155 7.02536e-07
-2.13518e-06 7.02536e-07 5.42347e-05
0.00117943 -0.000428478 3.08432e-07
-0.000428478 9.62541e-05 -1.21669e-06
3.08432e-07 -1.21669e-06 -0.000235185
0.00192963 -0.000523789 -3.98875e-06
-0.000523789 0.000396642 5.23548e-07
-3.98875e-06 5.23548e-07 8.48565e-05
0.00195861 -0.000358389 6.6305e-07
-0.000358389 0.000100728 -3.11693e-07
6.6305e-07 -3.11693e-07 -3.94625e-06
0.00170896 -0.000423714 1.26038e-06
-0.000423714 6.61471e-05 -3.07573e-06
1.26038e-06 -3.07573e-06 -0.000113161
0.000437529 4.93791e-05 -4.86556e-07
4.93791e-05 -7.10352e-05 -1.02448e-06
-4.86556e-07 -1.02448e-06 -0.000122729
0.000707009 -9.57934e-06 -6.45024e-07
-9.57934e-06 0.000127899 3.16515e-07
-6.45024e-07 3.16515e-07 1.90536e-05
0.000317342 -0.000216874 -4.44431e-06
-0.000216874 -0.000261388 6.40977e-06
-4.44431e-06 6.40977e-06 -0.000470059
0.0014761 -0.00027716 1.10141e-06
-0.00027716 0.000533864 -8.82636e-07
1.10141e-06 -8.82636e-07 0.00029269
0.00101943 -8.03511e-05 -1.6193e-07
-8.03511e-05 0.00032096 -1.63199e-06
-1.6193e-07 -1.63199e-06 0.000109909
0.000854985 -8.76569e-05 -7.33966e-07
-8.76569e-05 0.000227951 1.19164e-06
-7.33966e-07 1.19164e-06 7.34914e-05
0.00191713 -8.50231e-05 1.49828e-06
-8.50231e-05 8.78195e-06 1.84348e-07
1.49828e-06 1.84348e-07 -1.96651e-06
0.00202 -0.000248205 4.64109e-07
-0.000248205 2.34087e-05 2.79256e-07
4.64109e-07 2.79256e-07 1.66877e-05
0.00197686 -0.000307158 1.62557e-06
-0.000307158 7.98291e-05 -2.15039e-06
1.62557e-06 -2.15039e-06 2.42422e-05
0.00195427 -0.000471633 4.4861e-06
-0.000471633 7.35597e-05 -2.60326e-06
4.4861e-06 -2.60326e-06 -5.58678e-05
0.000778647 -0.000321746 -4.32168e-06
-0.000321746 -6.03896e-05 -7.7893e-06
-4.32168e-06 -7.7893e-06 -0.000357659
0.00189767 -0.000529434 -2.42662e-06
-0.000529434 0.000333757 1.24813e-05
-2.42662e-06 1.24813e-05 4.01062e-05
0.00196853 -0.000545716 -4.13179e-06
-0.000545716 0.000523912 -6.29206e-07
-4.13179e-06 -6.29206e-07 0.000150376
0.000604304 5.01427e-05 1.03701e-07
5.01427e-05 1.98014e-05 -1.15473e-06
1.03701e-07 -1.15473e-06 -2.38018e-05
0.000673446 -0.000112442 3.07066e-06
-0.000112442 0.000101594 -1.60854e-06
3.07066e-06 -1.60854e-06 1.71157e-05
0.000443974 5.63735e-05 -2.83217e-06
5.63735e-05 -3.94398e-05 -7.28127e-07
-2.83217e-06 -7.28127e-07 -0.000128325
0.000635837 -4.82174e-05 -1.77686e-06
-4.82174e-05 0.000103629 3.33186e-06
-1.77686e-06 3.33186e-06 -3.57551e-05
0.000529566 -3.92259e-05 7.11074e-07
-3.92259e-05 6.27498e-06 1.80963e-07
7.11074e-07 1.80963e-07 -0.000153841
-0.00016344 -7.10308e-05 -1.2307e-06
-7.10308e-05 -0.000382048 1.82349e-06
-1.2307e-06 1.82349e-06 -0.000590503
4.71887e-05 -0.000219195 -5.77405e-06
-0.000219195 -0.000414114 -8.00868e-06
-5.77405e-06 -8.00868e-06 -0.000621986
0.00291843 -0.000415773 -1.40697e-05
-0.000415773 0.00146377 3.03257e-06
-1.40697e-05 3.03257e-06 0.00110744
0.000638308 -3.43095e-06 -1.1791e-06
-3.43095e-06 5.92811e-05 -1.07667e-06
-1.1791e-06 -1.07667e-06 -2.64276e-05
0.000761498 5.63695e-05 4.03589e-07
5.63695e-05 0.000172933 -1.3095e-06
4.03589e-07 -1.3095e-06 2.80019e-05
0.00209776 0.000341565 -1.67749e-06
0.000341565 0.000247448 -6.82793e-07
-1.67749e-06 -6.82793e-07 0.000119713
0.000775682 8.88398e-05 -1.55844e-06
8.88398e-05 0.000172942 3.58966e-06
-1.55844e-06 3.58966e-06 -2.40471e-06
0.00173389 0.000333308 2.68537e-06
0.000333308 0.000616888 -6.31584e-07
2.68537e-06 -6.31584e-07 0.000388029
0.000384606 0.00015638 -8.34284e-07
0.00015638 -0.000185374 2.34679e-06
-8.34284e-07 2.34679e-06 -0.000321478
0.0020842 0.000441846 -3.07571e-06
0.000441846 0.000399957 -2.09441e-07
-3.07571e-06 -2.09441e-07 0.000174414
0.00190555 0.000432966 -1.62723e-06
0.000432966 0.000197106 5.85184e-06
-1.62723e-06 5.85184e-06 9.19561e-07
0.00138825 0.000355775 -1.03018e-06
0.000355775 0.00033044 -5.06443e-07
-1.03018e-06 -5.06443e-07 3.78004e-05
0.00145451 0.00043082 -2.79388e-07
0.00043082 0.000168627 1.33325e-06
-2.79388e-07 1.33325e-06 -0.000108288
0.000301103 1.55217e-05 -1.26043e-07
1.55217e-05 -0.000119129 1.24076e-06
-1.26043e-07 1.24076e-06 -0.000226679
0.000362676 0.000116365 -6.33586e-07
0.000116365 -2.80161e-05 -2.28055e-06
-6.33586e-07 -2.28055e-06 -0.000211327
0.00135489 0.000308976 4.07941e-06
0.000308976 0.000358179 -1.83221e-06
4.07941e-06 -1.83221e-06 0.000123104
0.000712194 0.000183538 -2.55947e-06
0.000183538 6.38021e-05 -2.80948e-06
-2.55947e-06 -2.80948e-06 -0.00011279
0.00205092 0.000328986 9.3876e-07
0.000328986 3.22341e-05 -8.4868e-07
9.3876e-07 -8.4868e-07 -2.17671e-05
0.0021645 0.000416118 3.04229e-06
0.000416118 0.000294635 6.32092e-07
3.04229e-06 6.32092e-07 0.000136632
0.00184146 0.000471137 -7.71883e-07
0.000471137 0.000259371 3.5245e-07
-7.71883e-07 3.5245e-07 5.79882e-06
0.00121633 0.000380848 -1.31727e-07
0.000380848 0.000126981 7.04626e-07
-1.31727e-07 7.04626e-07 -0.000172306
0.000285931 3.89948e-05 -1.32508e-06
3.89948e-05 -0.000132888 3.0089e-06
-1.32508e-06 3.0089e-06 -0.000241926
0.0020228 0.000270019 1.21457e-06
0.000270019 -4.05742e-05 2.38722e-06
1.21457e-06 2.38722e-06 -3.85149e-05
0.00164819 0.000296889 2.40248e-06
0.000296889 0.000716571 4.36052e-06
2.40248e-06 4.36052e-06 0.000484149
0.00116506 0.000304474 6.41487e-06
0.000304474 0.000213145 3.32855e-06
6.41487e-06 3.32855e-06 -2.20739e-05
0.00247937 0.000412652 -1.73399e-05
0.000412652 0.000359879 -5.41056e-06
-1.73399e-05 -5.41056e-06 0.00025118
0.00102003 0.000438801 -6.37801e-06
0.000438801 -0.000304119 -8.11048e-06
-6.37801e-06 -8.11048e-06 -0.00054018
0.00206237 0.000490913 -8.23728e-07
0.000490913 0.000541103 2.50253e-06
-8.23728e-07 2.50253e-06 0.000221291
0.000691401 6.03768e-05 -1.48003e-06
6.03768e-05 9.57864e-05 -8.48083e-07
-1.48003e-06 -8.48083e-07 3.45942e-07
0.000680963 5.49525e-05 -1.7333e-06
5.49525e-05 9.72385e-05 -6.15951e-07
-1.7333e-06 -6.15951e-07 4.99187e-06
0.000958315 4.47724e-05 -1.98306e-06
4.47724e-05 0.000267168 5.57383e-07
-1.98306e-06 5.57383e-07 0.000185299
0.000600756 -2.75796e-06 -1.77927e-09
-2.75796e-06 4.841e-05 -2.41711e-06
-1.77927e-09 -2.41711e-06 -3.93495e-05
0.000659697 5.49565e-05 7.86058e-07
5.49565e-05 9.49574e-05 -6.21707e-08
7.86058e-07 -6.21707e-08 -1.6019e-05
0.000311082 3.07965e-05 -1.34466e-06
3.07965e-05 -0.000101044 1.87631e-06
-1.34466e-06 1.87631e-06 -0.000207024
0.000614363 6.27203e-06 -7.31893e-07
6.27203e-06 6.54394e-05 1.71427e-09
-7.31893e-07 1.71427e-09 -2.86813e-05
0.00042778 -1.69162e-05 -6.03618e-07
-1.69162e-05 -3.51105e-05 3.65386e-07
-6.03618e-07 3.65386e-07 -0.000152
0.000472281 1.4477e-05 2.71513e-07
1.4477e-05 -3.27339e-05 4.5738e-07
2.71513e-07 4.5738e-07 -0.000116491
0.000753883 5.19735e-05 6.66502e-07
5.19735e-05 0.000158812 -4.81886e-07
6.66502e-07 -4.81886e-07 3.68034e-05
0.00119323 5.92798e-05 6.57687e-07
5.92798e-05 0.000375782 -1.02551e-06
6.57687e-07 -1.02551e-06 0.00030332
0.000675448 -9.56027e-06 3.31224e-06
-9.56027e-06 8.75323e-05 -2.86722e-06
3.31224e-06 -2.86722e-06 -6.53174e-06
0.000670017 5.4953e-05 3.80217e-07
5.4953e-05 0.000114064 7.94838e-07
3.80217e-07 7.94838e-07 -1.87213e-05
0.000639452 3.97822e-05 2.61622e-06
3.97822e-05 9.39452e-05 1.9643e-06
2.61622e-06 1.9643e-06 -3.55669e-05
0.000652403 2.3469e-05 1.79328e-06
2.3469e-05 8.18523e-05 2.35669e-06
1.79328e-06 2.35669e-06 -1.14209e-05
0.000560787 -3.43732e-05 -9.05398e-08
-3.43732e-05 1.12924e-05 2.29309e-06
-9.05398e-08 2.29309e-06 -4.77769e-05
0.00057307 -5.6826e-06 -3.63067e-07
-5.6826e-06 1.65193e-05 -2.75845e-08
-3.63067e-07 -2.75845e-08 -4.06071e-05
0.00128374 -9.96334e-07 1.0776e-06
-9.96334e-07 0.000414963 2.36763e-06
1.0776e-06 2.36763e-06 0.000402377
0.000579312 -2.43913e-05 6.20278e-07
-2.43913e-05 1.59002e-05 -2.66471e-06
6.20278e-07 -2.66471e-06 -3.88147e-05
0.00130992 -9.23579e-06 -3.1977e-06
-9.23579e-06 0.000428524 -1.60177e-06
-3.1977e-06 -1.60177e-06 0.000416585
0.000821746 -1.61809e-05 1.30171e-05
-1.61809e-05 0.000135624 8.46009e-06
1.30171e-05 8.46009e-06 0.000142678
0.00136138 -1.9593e-05 -5.44516e-06
-1.9593e-05 0.000457874 -5.81446e-06
-5.44516e-06 -5.81446e-06 0.000445808
0.000807022 -2.52002e-05 4.02207e-06
-2.52002e-05 0.000125655 3.25775e-06
4.02207e-06 3.25775e-06 0.000131957
0.000761665 -3.24986e-05 -7.35854e-07
-3.24986e-05 9.9759e-05 -2.24552e-06
-7.35854e-07 -2.24552e-06 0.000105167
0.000651215 1.02484e-05 1.29106e-06
1.02484e-05 4.35781e-05 -1.37389e-06
1.29106e-06 -1.37389e-06 3.47385e-06
0.000523833 2.86652e-05 3.98404e-07
2.86652e-05 -4.52886e-05 -3.39269e-06
3.98404e-07 -3.39269e-06 -5.70995e-05
0.000530619 3.89023e-05 2.19463e-07
3.89023e-05 -3.24649e-05 1.45006e-07
2.19463e-07 1.45006e-07 -4.87157e-05
0.00213852 7.17345e-05 1.75832e-05
7.17345e-05 0.000945754 -3.94379e-06
1.75832e-05 -3.94379e-06 0.000956571
0.000537955 6.08638e-05 3.69398e-06
6.08638e-05 -1.1557e-05 5.11915e-06
3.69398e-06 5.11915e-06 -3.79925e-05
0.00238361 9.35143e-05 -4.64086e-06
9.35143e-05 0.00110319 -3.80807e-07
-4.64086e-06 -3.80807e-07 0.0011085
0.00272112 0.000115663 -2.61778e-05
0.000115663 0.00131415 4.0962e-06
-2.61778e-05 4.0962e-06 0.0013136
0.00199078 0.000268904 -6.69404e-07
0.000268904 0.000110124 7.00378e-07
-6.69404e-07 7.00378e-07 2.00204e-05
0.00192163 0.000163181 -3.83527e-06
0.000163181 5.45787e-05 -7.04242e-07
-3.83527e-06 -7.04242e-07 5.11662e-06
0.0019083 4.80007e-05 -4.95314e-06
4.80007e-05 7.11826e-05 -2.64206e-07
-4.95314e-06 -2.64206e-07 3.851e-05
0.00176453 -4.53934e-07 -2.18718e-06
-4.53934e-07 2.64005e-05 -2.32322e-08
-2.18718e-06 -2.32322e-08 -2.67673e-05
0.00184379 -4.96487e-06 -8.23722e-07
-4.96487e-06 2.48752e-05 -3.00468e-08
-8.23722e-07 -3.00468e-08 5.86772e-07
0.00194137 8.64814e-05 7.64439e-08
8.64814e-05 1.05421e-05 1.37265e-09
7.64439e-08 1.37265e-09 8.09496e-07
0.00200947 0.000238858 -6.80748e-07
0.000238858 4.18168e-05 -5.98077e-08
-6.80748e-07 -5.98077e-08 -7.84039e-06
0.00193567 -2.1992e-06 1.55873e-06
-2.1992e-06 2.60101e-06 -5.37001e-07
1.55873e-06 -5.37001e-07 3.84173e-06
0.00207107 0.000133936 3.10694e-06
0.000133936 9.60831e-06 -3.73871e-07
3.10694e-06 -3.73871e-07 6.501e-06
0.0022854 8.74794e-05 -2.71675e-06
8.74794e-05 0.000183652 6.11034e-06
-2.71675e-06 6.11034e-06 0.000227962
0.00186976 -6.90812e-05 -4.88532e-06
-6.90812e-05 4.2075e-05 2.59586e-07
-4.88532e-06 2.59586e-07 -7.38781e-08
0.00191191 -0.00018103 -3.66717e-06
-0.00018103 1.16702e-05 6.38797e-07
-3.66717e-06 6.38797e-07 -2.51517e-05
0.00191695 -0.000282202 -3.3135e-06
-0.000282202 8.83587e-05 1.88594e-06
-3.3135e-06 1.88594e-06 1.72314e-05
0.000738992 -0.00026043 1.24065e-06
-0.00026043 -4.82523e-05 6.02458e-06
1.24065e-06 6.02458e-06 -0.000288559
0.00143566 -0.000449671 1.37788e-06
-0.000449671 0.000245162 -6.09416e-07
1.37788e-06 -6.09416e-07 -8.69674e-05
0.00197117 -0.000516388 -2.00826e-06
-0.000516388 0.000425814 -1.516e-06
-2.00826e-06 -1.516e-06 0.0001239
0.00181887 -0.000355122 1.30754e-06
-0.000355122 2.33752e-05 1.52968e-06
1.30754e-06 1.52968e-06 -8.44931e-05
0.0016088 -0.0004146 -4.3077e-06
-0.0004146 6.95673e-06 -5.81593e-06
-4.3077e-06 -5.81593e-06 -0.000170814
0.000188707 -0.000201193 -9.81495e-07
-0.000201193 -0.000334344 1.2674e-05
-9.81495e-07 1.2674e-05 -0.000533499
0.00214911 -0.000324746 1.6028e-05
-0.000324746 0.000952709 -3.67074e-06
1.6028e-05 -3.67074e-06 0.000703443
0.000733252 -3.26873e-05 9.01309e-07
-3.26873e-05 0.000139377 -1.04687e-06
9.01309e-07 -1.04687e-06 -5.41263e-05
0.000521744 1.55499e-05 2.28083e-07
1.55499e-05 -2.22811e-05 3.61656e-07
2.28083e-07 3.61656e-07 -7.03524e-05
0.000794768 2.92213e-05 2.25765e-06
2.92213e-05 0.000176419 6.6403e-07
2.25765e-06 6.6403e-07 6.82334e-05
0.000867449 -5.8445e-05 8.60429e-07
-5.8445e-05 0.000237424 1.64599e-06
8.60429e-07 1.64599e-06 8.07253e-05
0.00193485 -8.78735e-05 2.91639e-07
-8.78735e-05 1.11103e-05 -3.10862e-08
2.91639e-07 -3.10862e-08 3.05354e-06
0.000574563 1.85556e-05 1.02791e-06
1.85556e-05 1.09264e-06 1.31796e-07
1.02791e-06 1.31796e-07 -4.14986e-05
0.00051855 -4.47343e-05 -1.76497e-06
-4.47343e-05 -1.09981e-05 -4.68995e-08
-1.76497e-06 -4.68995e-08 -8.27834e-05
0.00199934 -0.000238095 -1.39123e-07
-0.000238095 2.6824e-05 2.47345e-07
-1.39123e-07 2.47345e-07 1.75974e-05
0.00192163 -0.000304199 -1.35479e-06
-0.000304199 4.453e-05 1.62493e-07
-1.35479e-06 1.62493e-07 -8.98377e-06
0.00097791 -0.000339528 -2.15864e-06
-0.000339528 6.27198e-05 1.45998e-06
-2.15864e-06 1.45998e-06 -0.000232488
0.00184807 -0.000534978 4.54416e-07
-0.000534978 0.000459953 6.47038e-07
4.54416e-07 6.47038e-07 8.3495e-05
0.001603 -0.000505463 3.48312e-06
-0.000505463 0.000151877 -1.74799e-06
3.48312e-06 -1.74799e-06 -0.000133628
0.00207813 -0.000476191 2.37e-06
-0.000476191 0.000154422 -8.99166e-07
2.37e-06 -8.99166e-07 2.29691e-05
0.00070572 -7.04839e-06 7.61671e-07
-7.04839e-06 0.000123935 -1.18895e-06
7.61671e-07 -1.18895e-06 3.36075e-05
0.000716511 -3.06608e-05 2.58266e-07
-3.06608e-05 0.000152733 1.38651e-06
2.58266e-07 1.38651e-06 1.04008e-05
0.00105594 -0.000288988 -3.52705e-06
-0.000288988 0.000174255 -1.87946e-06
-3.52705e-06 -1.87946e-06 -4.8586e-05
0.00172555 -0.000303349 1.54975e-05
-0.000303349 0.000752655 -3.25038e-06
1.54975e-05 -3.25038e-06 0.000452633
0.000415516 -7.99781e-05 -2.88077e-06
-7.99781e-05 -4.63421e-05 -4.99312e-07
-2.88077e-06 -4.99312e-07 -0.000250232
0.000650481 -3.36174e-05 6.27212e-07
-3.36174e-05 9.28958e-05 -7.03539e-07
6.27212e-07 -7.03539e-07 -7.53911e-05
0.00195575 -0.000102991 1.3968e-06
-0.000102991 -5.53103e-05 -1.13371e-06
1.3968e-06 -1.13371e-06 -5.69533e-05
0.00193123 -0.000285105 -2.47435e-07
-0.000285105 -8.70383e-05 6.08513e-07
-2.47435e-07 6.08513e-07 -1.96463e-05
0.00204292 -0.00041908 -4.57475e-06
-0.00041908 3.77309e-05 -1.45648e-06
-4.57475e-06 -1.45648e-06 -3.14293e-05
0.00154849 -0.000539945 5.9068e-07
-0.000539945 -2.88558e-05 -9.44198e-07
5.9068e-07 -9.44198e-07 -0.000196397
0.000893013 -0.000314775 -8.71891e-06
-0.000314775 4.28683e-05 -8.36468e-06
-8.71891e-06 -8.36468e-06 -0.000256489
0.00242145 -0.0006329 -9.60724e-06
-0.0006329 0.000750334 9.41338e-06
-9.60724e-06 9.41338e-06 0.000348357
0.000363412 5.18976e-05 -1.19042e-06
5.18976e-05 -9.33879e-05 -2.06135e-06
-1.19042e-06 -2.06135e-06 -0.000171334
0.000645733 -5.74737e-05 3.50597e-06
-5.74737e-05 6.5438e-05 -6.83517e-07
3.50597e-06 -6.83517e-07 -6.76143e-06
0.000937391 -9.78043e-05 1.38131e-06
-9.78043e-05 0.000251018 2.42048e-06
1.38131e-06 2.42048e-06 0.000152197
0.000459475 1.92971e-05 -2.21234e-06
1.92971e-05 -1.06656e-05 3.65854e-06
-2.21234e-06 3.65854e-06 -0.000138228
0.00089005 -7.44256e-05 -2.76246e-06
-7.44256e-05 0.00023664 3.96889e-06
-2.76246e-06 3.96889e-06 9.45609e-05
0.0011446 -5.32366e-05 1.73491e-06
-5.32366e-05 0.00033826 3.85511e-08
1.73491e-06 3.85511e-08 0.000156203
-0.00064875 -0.000111993 5.375e-06
-0.000111993 -0.00047913 3.647e-07
5.375e-06 3.647e-07 -0.000875568
-0.000206179 -0.000268362 -2.37198e-05
-0.000268362 -0.000549973 1.7433e-06
-2.37198e-05 1.7433e-06 -0.000771549
0.000379214 4.93868e-05 -2.71042e-07
4.93868e-05 -6.54295e-05 -9.51733e-07
-2.71042e-07 -9.51733e-07 -0.000180418
0.000980602 0.000163292 -6.01871e-06
0.000163292 0.000338064 -3.04618e-06
-6.01871e-06 -3.04618e-06 0.000149602
0.00209732 0.000320465 -4.24339e-06
0.000320465 6.09395e-05 -1.88181e-06
-4.24339e-06 -1.88181e-06 6.69464e-06
0.00194546 0.000410471 -7.02217e-07
0.000410471 0.000174278 1.63142e-06
-7.02217e-07 1.63142e-06 1.19157e-05
0.00183054 0.000247708 -7.92534e-06
0.000247708 0.000711768 -9.30337e-07
-7.92534e-06 -9.30337e-07 0.000533952
0.00188316 0.000363804 -4.80067e-06
0.000363804 0.000673158 -8.38809e-06
-4.80067e-06 -8.38809e-06 0.000428857
0.00186381 0.000466617 1.82811e-06
0.000466617 0.000263657 2.08692e-06
1.82811e-06 2.08692e-06 1.26235e-05
0.00187513 0.000445018 -3.22857e-07
0.000445018 0.000489196 -1.50744e-06
-3.22857e-07 -1.50744e-06 0.000184563
0.000536475 7.0723e-05 7.63387e-07
7.0723e-05 2.92167e-05 -1.01441e-06
7.63387e-07 -1.01441e-06 -9.28833e-05
0.00209313 0.000255485 -1.14153e-06
0.000255485 -3.96332e-06 -8.30897e-07
-1.14153e-06 -8.30897e-07 3.7466e-06
0.00110747 0.000215548 1.20931e-06
0.000215548 0.000381492 1.59973e-06
1.20931e-06 1.59973e-06 0.000169508
0.00122692 0.000312507 1.25464e-06
0.000312507 0.00025318 -1.0506e-06
1.25464e-06 -1.0506e-06 1.02074e-05
0.00228926 0.000405217 2.46805e-06
0.000405217 0.000255319 5.78821e-07
2.46805e-06 5.78821e-07 0.000149655
0.00162194 0.000479889 -1.35828e-06
0.000479889 3.16096e-05 -3.94849e-06
-1.35828e-06 -3.94849e-06 -0.000205689
0.00191452 0.00047587 -1.60878e-07
0.00047587 0.000466307 2.40054e-07
-1.60878e-07 2.40054e-07 0.000147062
0.00115156 0.000168945 -3.82189e-06
0.000168945 0.000419555 3.55726e-06
-3.82189e-06 3.55726e-06 0.000251926
0.0023862 0.000296193 -4.9257e-05
0.000296193 0.000224599 -1.33173e-05
-4.9257e-05 -1.33173e-05 0.000252122
0.00198621 0.000384703 -5.60105e-06
0.000384703 0.000816435 7.50364e-07
-5.60105e-06 7.50364e-07 0.000575405
0.00201046 0.000435663 -8.11985e-06
0.000435663 0.000614996 -5.49668e-07
-8.11985e-06 -5.49668e-07 0.000329362
0.00213981 0.000535884 -2.53254e-05
0.000535884 0.000213146 -1.31101e-05
-2.53254e-05 -1.31101e-05 4.44189e-05
0.000797446 0.000402846 -1.90943e-05
0.000402846 -0.000213533 -2.0047e-06
-1.90943e-05 -2.0047e-06 -0.000504992
0.00109996 0.000413842 3.59657e-05
0.000413842 -0.000442755 -2.2338e-05
3.59657e-05 -2.2338e-05 -0.000687934
0.000410619 6.9136e-05 1.06188e-06
6.9136e-05 -5.13376e-05 -7.30843e-07
1.06188e-06 -7.30843e-07 -0.000148378
0.000615208 5.27999e-05 -1.2162e-07
5.27999e-05 8.02335e-05 1.07613e-06
-1.2162e-07 1.07613e-06 -5.57208e-06
0.00146875 8.81944e-05 8.09523e-07
8.81944e-05 0.000564333 1.94471e-07
8.09523e-07 1.94471e-07 0.000476567
0.000564449 -6.26166e-05 2.55984e-07
-6.26166e-05 4.34278e-05 -2.9483e-06
2.55984e-07 -2.9483e-06 -5.47634e-05
0.000501181 -3.92685e-05 -1.4295e-06
-3.92685e-05 3.6139e-06 -2.12076e-07
-1.4295e-06 -2.12076e-07 -0.000109231
0.000925225 0.000138347 -3.62899e-07
0.000138347 0.000262112 8.94409e-07
-3.62899e-07 8.94409e-07 0.000135076
0.000255648 -7.04174e-07 -2.06643e-06
-7.04174e-07 -0.00015067 4.73788e-06
-2.06643e-06 4.73788e-06 -0.000235211
0.000611341 -2.25939e-05 -1.70433e-07
-2.25939e-05 7.00161e-05 -3.27567e-08
-1.70433e-07 -3.27567e-08 -3.08191e-05
0.000606568 4.68635e-05 -1.99468e-08
4.68635e-05 5.83672e-05 -4.95509e-07
-1.99468e-08 -4.95509e-07 -5.94165e-05
0.000926945 5.14314e-05 -1.3247e-06
5.14314e-05 0.000219634 7.89237e-07
-1.3247e-06 7.89237e-07 0.000146399
0.000700989 3.33221e-05 8.64383e-07
3.33221e-05 0.000118368 1.22376e-07
8.64383e-07 1.22376e-07 -5.03818e-06
0.000735112 1.42829e-05 -6.45128e-07
1.42829e-05 0.000119608 -5.44703e-07
-6.45128e-07 -5.44703e-07 2.24781e-05
0.000984638 5.25037e-05 1.00481e-06
5.25037e-05 0.000258458 -3.88581e-06
1.00481e-06 -3.88581e-06 0.000180075
0.000866589 6.19829e-05 -1.87158e-06
6.19829e-05 0.000200757 -2.19113e-06
-1.87158e-06 -2.19113e-06 7.3473e-05
0.000824844 8.40776e-05 9.43603e-07
8.40776e-05 0.000183975 6.26961e-07
9.43603e-07 6.26961e-07 6.14843e-05
0.000679613 4.46206e-05 5.2015e-07
4.46206e-05 0.000117927 1.58787e-06
5.2015e-07 1.58787e-06 -1.84784e-05
0.00046195 -2.40684e-05 -2.41458e-07
-2.40684e-05 -3.55296e-05 2.51608e-06
-2.41458e-07 2.51608e-06 -0.000131972
0.000912091 -3.40118e-05 3.34109e-07
-3.40118e-05 0.000279635 -7.09638e-07
3.34109e-07 -7.09638e-07 0.000142105
0.000363869 -2.0019e-05 -9.67416e-07
-2.0019e-05 -9.13465e-05 2.53459e-06
-9.67416e-07 2.53459e-06 -0.000191255
0.000530135 4.30965e-06 -1.4449e-06
4.30965e-06 -4.02497e-06 2.36065e-06
-1.4449e-06 2.36065e-06 -6.54197e-05
0.000550355 2.49902e-05 1.60165e-06
2.49902e-05 7.0457e-06 -2.66267e-08
1.60165e-06 -2.66267e-08 -5.34705e-05
0.000506932 1.00349e-05 8.23247e-07
1.00349e-05 -4.95661e-05 3.89619e-06
8.23247e-07 3.89619e-06 -6.71553e-05
0.000552828 1.05023e-06 -2.1827e-06
1.05023e-06 6.82718e-06 -2.513e-06
-2.1827e-06 -2.513e-06 -5.21469e-05
0.000927957 3.35879e-06 -2.21124e-06
3.35879e-06 0.000201828 -1.66109e-06
-2.21124e-06 -1.66109e-06 0.000186842
0.00243253 -1.31604e-05 8.93035e-06
-1.31604e-05 0.00110548 5.28001e-06
8.93035e-06 5.28001e-06 0.00112026
0.00136905 -7.11682e-06 -3.7087e-06
-7.11682e-06 0.000464666 -5.70438e-06
-3.7087e-06 -5.70438e-06 0.000452418
0.000800403 -1.64183e-05 2.35094e-06
-1.64183e-05 0.000120715 3.28279e-06
2.35094e-06 3.28279e-06 0.000127804
0.000777474 -2.37416e-05 -1.52493e-07
-2.37416e-05 0.000106027 -2.26854e-06
-1.52493e-07 -2.26854e-06 0.00011257
0.00058255 1.30454e-05 -7.62519e-07
1.30454e-05 5.27097e-06 -1.33311e-06
-7.62519e-07 -1.33311e-06 -3.41765e-05
0.000605471 -4.05771e-06 1.10555e-06
-4.05771e-06 1.75038e-05 -1.41353e-07
1.10555e-06 -1.41353e-07 -2.35434e-05
0.000556244 2.19466e-05 3.47881e-07
2.19466e-05 -2.89642e-05 -3.31323e-06
3.47881e-07 -3.31323e-06 -3.85919e-05
0.000859022 3.5271e-05 -3.44908e-07
3.5271e-05 0.0001581 5.15116e-08
-3.44908e-07 5.15116e-08 0.000147659
0.00210748 5.74614e-05 1.37307e-05
5.74614e-05 0.000920126 -4.16686e-06
1.37307e-05 -4.16686e-06 0.000933799
0.000542361 4.27762e-05 1.20007e-06
4.27762e-05 -2.3528e-05 3.76548e-06
1.20007e-06 3.76548e-06 -4.07648e-05
0.00220866 7.54179e-05 -2.87902e-06
7.54179e-05 0.000989285 -1.99619e-07
-2.87902e-06 -1.99619e-07 0.000999137
0.00243904 9.62894e-05 -1.89583e-05
9.62894e-05 0.001137 4.07664e-06
-1.89583e-05 4.07664e-06 0.0011416
0.00196138 0.000241721 -4.00396e-06
0.000241721 1.09378e-05 -1.9607e-06
-4.00396e-06 -1.9607e-06 -3.65674e-05
0.00192461 8.22325e-05 -1.9355e-06
8.22325e-05 5.87865e-06 3.87293e-07
-1.9355e-06 3.87293e-07 -5.55912e-06
0.00183763 -2.76634e-06 -4.98011e-06
-2.76634e-06 1.7707e-05 4.15386e-08
-4.98011e-06 4.15386e-08 -3.04569e-06
0.00192896 -5.11782e-07 1.47533e-07
-5.11782e-07 1.05371e-06 -1.9371e-07
1.47533e-07 -1.9371e-07 2.19558e-06
0.00205503 0.000134968 -1.32224e-08
0.000134968 1.52735e-05 2.08335e-07
-1.32224e-08 2.08335e-07 1.09508e-05
0.00197929 7.33354e-05 5.85064e-06
7.33354e-05 -1.15007e-05 -2.08187e-06
5.85064e-06 -2.08187e-06 2.70162e-05
0.00206242 3.66646e-06 -1.22758e-06
3.66646e-06 -1.9532e-05 -1.30342e-06
-1.22758e-06 -1.30342e-06 5.47709e-06
0.0031768 0.000383274 3.62155e-05
0.000383274 -0.000389389 5.52424e-06
3.62155e-05 5.52424e-06 -8.47104e-05
0.00231494 4.73211e-05 -3.03288e-05
4.73211e-05 0.00034667 1.86653e-05
-3.03288e-05 1.86653e-05 0.000444264
0.000568719 8.65886e-05 -8.96015e-07
8.65886e-05 3.37507e-05 -9.47268e-08
-8.96015e-07 -9.47268e-08 -4.15831e-05
0.00195024 -9.00079e-05 -1.6139e-06
-9.00079e-05 1.32379e-05 -2.10404e-07
-1.6139e-06 -2.10404e-07 7.6977e-06
0.00197125 -0.000228094 -3.633e-07
-0.000228094 2.76355e-05 9.11397e-09
-3.633e-07 9.11397e-09 1.35636e-05
0.00187641 -0.000304039 -1.01806e-06
-0.000304039 1.52466e-05 2.19429e-06
-1.01806e-06 2.19429e-06 -3.77772e-05
0.000513022 -0.000291337 -2.78322e-06
-0.000291337 -0.000203498 9.47578e-06
-2.78322e-06 9.47578e-06 -0.000485153
0.00205233 -0.000553599 4.07237e-06
-0.000553599 0.000580568 4.57262e-06
4.07237e-06 4.57262e-06 0.000199449
0.00148574 -0.000500622 1.15233e-06
-0.000500622 6.46711e-05 -8.70503e-06
1.15233e-06 -8.70503e-06 -0.00021701
0.00221591 -0.00048275 -2.43365e-06
-0.00048275 0.00024385 -1.32493e-06
-2.43365e-06 -1.32493e-06 0.000109501
0.00196022 -0.000352338 1.82968e-05
-0.000352338 0.000688345 -1.53214e-08
1.82968e-05 -1.53214e-08 0.000452694
0.000384976 -0.000179173 1.37559e-05
-0.000179173 -4.09851e-05 -4.60139e-06
1.37559e-05 -4.60139e-06 -0.000286122
0.00114494 -0.000114575 2.31053e-06
-0.000114575 0.00037907 -2.41036e-06
2.31053e-06 -2.41036e-06 0.000178167
0.000575367 5.48429e-06 -4.89606e-07
5.48429e-06 1.01262e-06 1.38328e-06
-4.89606e-07 1.38328e-06 -4.05555e-05
0.000866747 -2.05857e-05 2.37226e-06
-2.05857e-05 0.000233883 -1.7871e-06
2.37226e-06 -1.7871e-06 5.79259e-05
0.000879887 -3.46905e-05 2.55554e-06
-3.46905e-05 0.000236656 -8.28845e-07
2.55554e-06 -8.28845e-07 0.000144505
0.000859236 -2.88691e-05 1.74427e-06
-2.88691e-05 0.000234592 -1.47763e-06
1.74427e-06 -1.47763e-06 9.02974e-05
0.000353929 -3.01771e-05 -2.35625e-06
-3.01771e-05 -0.000116186 6.5719e-07
-2.35625e-06 6.5719e-07 -0.00018474
0.00198397 -0.000117309 -3.42339e-07
-0.000117309 -6.10834e-05 1.90497e-07
-3.42339e-07 1.90497e-07 -4.82613e-05
0.000468365 3.62676e-05 -6.11468e-08
3.62676e-05 -2.40972e-05 -1.4481e-06
-6.11468e-08 -1.4481e-06 -0.000105062
0.000628818 -5.4016e-05 1.07634e-06
-5.4016e-05 6.55015e-05 5.09831e-07
1.07634e-06 5.09831e-07 -1.21626e-05
0.000787408 -6.79553e-05 2.30439e-07
-6.79553e-05 0.000159064 7.44481e-07
2.30439e-07 7.44481e-07 6.26484e-05
0.0019644 -0.000288081 1.31763e-06
-0.000288081 -5.2259e-05 -1.96716e-07
1.31763e-06 -1.96716e-07 -3.18693e-06
0.00208033 -0.000421599 7.83936e-08
-0.000421599 6.52603e-05 -5.53612e-07
7.83936e-08 -5.53612e-07 -4.36652e-06
0.00118398 -0.000347632 8.00078e-06
-0.000347632 0.000202222 -5.73995e-07
8.00078e-06 -5.73995e-07 -9.69996e-05
0.00219842 -0.000612355 6.92035e-06
-0.000612355 0.000632574 -1.11185e-07
6.92035e-06 -1.11185e-07 0.000242448
0.00196912 -0.000567436 -1.15535e-06
-0.000567436 0.000224725 1.57753e-06
-1.15535e-06 1.57753e-06 4.3541e-05
0.00042481 -1.4868e-05 -5.46888e-07
-1.4868e-05 -2.76626e-05 -2.97086e-07
-5.46888e-07 -2.97086e-07 -0.000151018
0.000850362 -8.50837e-05 -1.8555e-06
-8.50837e-05 0.00022115 6.17197e-07
-1.8555e-06 6.17197e-07 6.74182e-05
0.000706737 -0.000349993 -6.91669e-06
-0.000349993 -1.49587e-05 -5.6204e-07
-6.91669e-06 -5.6204e-07 -0.000282418
0.000525217 -0.0001211 -6.8819e-08
-0.0001211 0.000118819 -1.77397e-06
-6.8819e-08 -1.77397e-06 -0.000210041
0.000729216 -7.00183e-05 -4.17178e-08
-7.00183e-05 9.13964e-05 4.29623e-07
-4.17178e-08 4.29623e-07 -8.23907e-05
0.00237845 -0.000235684 -3.92802e-06
-0.000235684 0.000153217 -1.62808e-06
-3.92802e-06 -1.62808e-06 0.000171221
0.00179272 -0.000304994 -1.27474e-05
-0.000304994 -0.000179732 2.37357e-06
-1.27474e-05 2.37357e-06 -9.48861e-05
0.00239021 -0.000581044 -1.11696e-05
-0.000581044 0.000278608 -1.24876e-06
-1.11696e-05 -1.24876e-06 0.000132868
0.00294511 -0.000692563 -2.34196e-05
-0.000692563 0.000880728 7.42016e-07
-2.34196e-05 7.42016e-07 0.000632331
0.00117783 -0.000391969 -2.37394e-05
-0.000391969 0.000243202 -2.77691e-06
-2.37394e-05 -2.77691e-06 -6.48281e-05
0.000399898 -3.07077e-06 1.32173e-06
-3.07077e-06 -6.44891e-05 1.41801e-07
1.32173e-06 1.41801e-07 -0.000162287
0.000458278 3.54803e-05 5.69008e-07
3.54803e-05 -4.69488e-05 1.69212e-06
5.69008e-07 1.69212e-06 -0.000145833
0.000270333 -7.94866e-06 -2.18602e-07
-7.94866e-06 -0.000140825 -9.52115e-07
-2.18602e-07 -9.52115e-07 -0.000246417
0.00146695 -0.000177709 -4.34694e-06
-0.000177709 0.000608924 7.50758e-06
-4.34694e-06 7.50758e-06 0.000460635
0.000520764 -6.3246e-05 -2.32962e-06
-6.3246e-05 -5.58464e-07 8.41088e-06
-2.32962e-06 8.41088e-06 -0.000144644
-0.000247251 -9.01043e-05 8.17058e-07
-9.01043e-05 -0.000234422 4.72815e-06
8.17058e-07 4.72815e-06 -0.000605104
-0.000174699 -0.000404861 4.36057e-07
-0.000404861 -0.000277956 -1.16158e-07
4.36057e-07 -1.16158e-07 -0.000707746
0.000869538 0.000116656 4.5864e-07
0.000116656 0.000241504 -4.64677e-06
4.5864e-07 -4.64677e-06 0.000102992
0.000290823 0.000103699 -2.58597e-06
0.000103699 -0.000119237 -1.59405e-06
-2.58597e-06 -1.59405e-06 -0.000304306
0.00215325 0.000237131 7.37605e-06
0.000237131 2.07653e-05 4.06457e-07
7.37605e-06 4.06457e-07 3.95343e-05
0.00215973 0.000400153 1.43639e-05
0.000400153 0.000186408 4.03876e-06
1.43639e-05 4.03876e-06 8.51222e-05
0.00228365 0.000524303 1.38134e-05
0.000524303 0.000403897 3.98863e-06
1.38134e-05 3.98863e-06 0.000165041
0.00121549 0.000313817 -7.86659e-07
0.000313817 0.000247841 -1.35856e-06
-7.86659e-07 -1.35856e-06 -1.26896e-06
0.00168687 0.000453573 1.28287e-06
0.000453573 0.000345125 1.60031e-06
1.28287e-06 1.60031e-06 2.86954e-05
0.00145897 0.000152822 2.38998e-08
0.000152822 0.000578654 1.11777e-07
2.38998e-08 1.11777e-07 0.000424607
0.00239318 0.000263528 -2.67958e-06
0.000263528 0.000260503 8.4977e-07
-2.67958e-06 8.4977e-07 0.000294529
0.00143976 0.000305526 -2.08472e-06
0.000305526 0.000482073 9.59411e-07
-2.08472e-06 9.59411e-07 0.000259619
0.00153255 0.000390362 7.49552e-07
0.000390362 0.000370284 2.3803e-06
7.49552e-07 2.3803e-06 7.84264e-05
0.00204992 0.000522679 -1.46733e-06
0.000522679 0.000155063 -2.69463e-06
-1.46733e-06 -2.69463e-06 1.24025e-06
0.00165743 0.00048558 -3.65453e-06
0.00048558 0.000268435 5.29508e-06
-3.65453e-06 5.29508e-06 -3.87304e-05
0.00240174 0.000546221 4.94241e-05
0.000546221 -8.55752e-05 4.35324e-06
4.94241e-05 4.35324e-06 -0.000394441
0.00106603 0.000211267 -5.62855e-06
0.000211267 0.000366248 -9.29745e-08
-5.62855e-06 -9.29745e-08 0.000185716
0.00316295 0.000462849 -6.38569e-05
0.000462849 0.000812733 -2.80212e-05
-6.38569e-05 -2.80212e-05 0.000769304
0.00110629 0.000303135 -3.81644e-06
0.000303135 0.000199775 -1.8945e-06
-3.81644e-06 -1.8945e-06 -1.66209e-05
0.000304756 0.000295477 -1.04733e-06
0.000295477 -0.000330894 -6.14714e-06
-1.04733e-06 -6.14714e-06 -0.000612269
0.000511913 0.000482175 -2.20497e-05
0.000482175 -0.000518087 -4.88988e-06
-2.20497e-05 -4.88988e-06 -0.000708213
0.0113951 0.000414501 -0.000242666
0.000414501 0.0023609 -5.55066e-05
-0.000242666 -5.55066e-05 0.00147408
0.00607842 0.000972022 0.00011705
0.000972022 0.000683815 -4.19349e-05
0.00011705 -4.19349e-05 0.000564617
-8.30894e-05 0.000646499 9.96447e-06
0.000646499 -0.000863651 4.91292e-06
9.96447e-06 4.91292e-06 -0.00116566
-0.00379539 -0.000963683 0.00054933
-0.000963683 -0.000401887 8.82872e-05
0.00054933 8.82872e-05 -0.00212323
0.0107614 -0.00345357 -2.59356e-05
-0.00345357 0.0027763 2.59651e-05
-2.59356e-05 2.59651e-05 0.00369258
0.00035922 6.08715e-05 4.27582e-06
6.08715e-05 -5.80461e-05 6.53623e-07
4.27582e-06 6.53623e-07 -0.000146403
0.00090617 5.94928e-05 1.35436e-06
5.94928e-05 0.00025575 -9.67033e-07
1.35436e-06 -9.67033e-07 0.000169332
0.00123607 0.000134301 -1.44862e-06
0.000134301 0.000456082 -2.49549e-07
-1.44862e-06 -2.49549e-07 0.000348587
0.000580377 -6.19017e-05 -2.36316e-07
-6.19017e-05 6.00843e-05 -2.12612e-06
-2.36316e-07 -2.12612e-06 -4.56368e-05
0.000583466 5.96567e-05 -1.50651e-06
5.96567e-05 4.76501e-05 -1.96121e-06
-1.50651e-06 -1.96121e-06 -7.41161e-05
0.000716358 -2.32447e-05 -1.64427e-07
-2.32447e-05 0.000129753 -5.27371e-07
-1.64427e-07 -5.27371e-07 5.60802e-06
0.00079193 3.75322e-05 -2.61424e-06
3.75322e-05 0.000149432 3.7654e-06
-2.61424e-06 3.7654e-06 4.94405e-05
0.000538215 3.79862e-05 -1.55698e-06
3.79862e-05 -7.77156e-06 2.98395e-06
-1.55698e-06 2.98395e-06 -8.12751e-05
0.000794548 9.01045e-05 -1.85301e-06
9.01045e-05 0.000182455 -5.71758e-07
-1.85301e-06 -5.71758e-07 4.77028e-05
0.000522395 -1.01562e-05 4.09043e-08
-1.01562e-05 7.41776e-06 7.29398e-07
4.09043e-08 7.29398e-07 -9.21934e-05
0.000651571 1.95063e-05 2.86927e-07
1.95063e-05 9.68178e-05 2.14168e-07
2.86927e-07 2.14168e-07 -3.60374e-05
0.000674848 4.91032e-05 6.7631e-07
4.91032e-05 7.16845e-05 -6.96885e-07
6.7631e-07 -6.96885e-07 -7.48331e-06
0.000812498 6.42092e-05 -1.05471e-06
6.42092e-05 0.000169054 -2.68954e-07
-1.05471e-06 -2.68954e-07 4.6673e-05
0.00131627 0.000119446 -1.63316e-06
0.000119446 0.000478377 -1.3693e-06
-1.63316e-06 -1.3693e-06 0.000349534
0.000371994 5.92577e-05 4.21518e-07
5.92577e-05 -7.35812e-05 -3.01129e-06
4.21518e-07 -3.01129e-06 -0.000186997
0.000746039 8.55496e-05 1.90386e-06
8.55496e-05 0.000137788 6.90797e-07
1.90386e-06 6.90797e-07 1.03867e-05
0.00054808 -2.46836e-05 1.30541e-06
-2.46836e-05 2.08028e-05 8.02896e-08
1.30541e-06 8.02896e-08 -0.000102033
0.000410091 -5.6264e-05 -1.18231e-06
-5.6264e-05 -6.22082e-05 2.26049e-06
-1.18231e-06 2.26049e-06 -0.000164202
0.000766473 -9.17487e-06 -5.02578e-07
-9.17487e-06 0.000163057 1.5024e-07
-5.02578e-07 1.5024e-07 3.54333e-05
0.000863927 3.07225e-05 1.11183e-07
3.07225e-05 0.000225406 -3.70931e-06
1.11183e-07 -3.70931e-06 0.000101074
0.000647476 -3.01389e-05 -6.12288e-07
-3.01389e-05 0.000103421 2.37255e-07
-6.12288e-07 2.37255e-07 -1.73922e-05
0.000789922 -2.89496e-05 1.2721e-06
-2.89496e-05 0.000185813 -6.37742e-07
1.2721e-06 -6.37742e-07 6.10367e-05
0.000664371 -9.30714e-05 -2.44465e-06
-9.30714e-05 9.12521e-05 1.71831e-06
-2.44465e-06 1.71831e-06 -7.52382e-06
0.000414764 -1.45363e-05 1.66162e-07
-1.45363e-05 -5.87174e-05 9.08877e-07
1.66162e-07 9.08877e-07 -0.000160803
0.000567445 -2.72115e-05 -1.6633e-06
-2.72115e-05 1.04377e-05 2.65913e-06
-1.6633e-06 2.65913e-06 -4.7592e-05
0.000563134 -2.31081e-05 1.21713e-06
-2.31081e-05 1.39006e-05 2.58283e-08
1.21713e-06 2.58283e-08 -4.67282e-05
0.00055515 5.68202e-06 3.26394e-07
5.68202e-06 -1.99562e-05 5.7185e-06
3.26394e-07 5.7185e-06 -3.80435e-05
0.000562743 2.50026e-05 -1.15616e-06
2.50026e-05 1.1334e-05 -2.42041e-06
-1.15616e-06 -2.42041e-06 -4.70766e-05
0.000520577 6.8493e-06 4.53068e-07
6.8493e-06 -4.11178e-05 1.29384e-08
4.53068e-07 1.29384e-08 -5.88008e-05
0.00240428 -1.51485e-06 -8.14032e-07
-1.51485e-06 0.00108868 5.32983e-06
-8.14032e-07 5.32983e-06 0.00110351
0.00057108 7.18514e-06 -1.25719e-06
7.18514e-06 -1.27762e-05 -5.90983e-06
-1.25719e-06 -5.90983e-06 -3.03301e-05
0.00162129 -9.8595e-06 8.53551e-09
-9.8595e-06 0.000615704 9.32256e-08
8.53551e-09 9.32256e-08 0.000626375
0.000774092 -1.46641e-05 2.71154e-07
-1.46641e-05 0.000102741 -2.15868e-06
2.71154e-07 -2.15868e-06 0.000110174
0.000581668 -1.54198e-05 1.02057e-06
-1.54198e-05 7.56168e-06 -1.23812e-06
1.02057e-06 -1.23812e-06 -3.0723e-05
0.000610176 -2.38309e-05 3.83061e-07
-2.38309e-05 2.26516e-05 -5.27046e-08
3.83061e-07 -5.27046e-08 -1.77855e-05
0.000573139 1.40038e-05 5.44561e-07
1.40038e-05 -2.10148e-05 -3.04572e-06
5.44561e-07 -3.04572e-06 -2.87898e-05
0.000580408 -1.78679e-05 -1.39486e-06
-1.78679e-05 1.08197e-06 1.14908e-06
-1.39486e-06 1.14908e-06 -3.92681e-05
0.000840958 2.59327e-05 -5.26784e-08
2.59327e-05 0.000142946 -7.13685e-07
-5.26784e-08 -7.13685e-07 0.000135276
0.00202993 4.26935e-05 1.02306e-05
4.26935e-05 0.000868381 -4.28161e-06
1.02306e-05 -4.28161e-06 0.000884599
0.000541596 3.08711e-05 -4.00628e-07
3.08711e-05 -3.32066e-05 3.3661e-06
-4.00628e-07 3.3661e-06 -4.5711e-05
0.00216444 5.9871e-05 -7.04872e-06
5.9871e-05 0.000956716 1.10961e-06
-7.04872e-06 1.10961e-06 0.000969686
0.00228139 7.92207e-05 -1.47293e-05
7.92207e-05 0.00103431 4.11052e-06
-1.47293e-05 4.11052e-06 0.00104321
0.00203216 0.000136246 -2.71165e-06
0.000136246 1.74558e-05 -6.18878e-07
-2.71165e-06 -6.18878e-07 1.20407e-05
0.0019266 2.37061e-07 -1.40897e-06
2.37061e-07 1.98802e-06 2.53503e-07
-1.40897e-06 2.53503e-07 2.96173e-06
0.00169329 5.91565e-05 7.92714e-06
5.91565e-05 -0.000197387 1.09416e-06
7.92714e-06 1.09416e-06 -0.000164326
0.00227132 0.00027593 4.4138e-05
0.00027593 -0.000664062 9.75533e-06
4.4138e-05 9.75533e-06 -0.000464808
0.00202182 -1.19444e-05 -2.17129e-06
-1.19444e-05 -3.06877e-05 -9.21674e-07
-2.17129e-06 -9.21674e-07 -4.95447e-06
0.0019354 5.53853e-05 3.56682e-06
5.53853e-05 0.000128794 -4.15781e-06
3.56682e-06 -4.15781e-06 0.000204238
0.00294562 -1.96895e-05 -2.86784e-05
-1.96895e-05 0.000765141 4.50815e-06
-2.86784e-05 4.50815e-06 0.000746347
0.001893 -8.88383e-06 3.80518e-05
-8.88383e-06 -0.00160475 -3.08166e-05
3.80518e-05 -3.08166e-05 -0.00129282
0.00249309 0.000104233 4.54887e-05
0.000104233 -0.000212789 2.66558e-05
4.54887e-05 2.66558e-05 -3.21696e-06
0.000609422 7.232e-05 1.50719e-07
7.232e-05 6.13883e-05 -4.45636e-07
1.50719e-07 -4.45636e-07 -1.7015e-05
0.000631988 -8.13465e-06 5.59476e-07
-8.13465e-06 7.71582e-05 -1.97072e-07
5.59476e-07 -1.97072e-07 -3.44009e-06
0.000600374 -9.7962e-05 -1.16148e-06
-9.7962e-05 5.837e-05 1.28378e-06
-1.16148e-06 1.28378e-06 -3.70889e-05
0.000576211 -4.35797e-05 -1.35273e-06
-4.35797e-05 6.61772e-05 1.08153e-06
-1.35273e-06 1.08153e-06 -3.94172e-05
0.00202561 -0.000130384 -3.25932e-06
-0.000130384 -5.79537e-05 4.27186e-07
-3.25932e-06 4.27186e-07 -3.04058e-05
0.0019913 -0.00028591 7.54734e-07
-0.00028591 -1.80082e-05 -6.01753e-07
7.54734e-07 -6.01753e-07 1.68753e-05
0.00210619 -0.000420387 -1.9909e-06
-0.000420387 8.71208e-05 1.8339e-06
-1.9909e-06 1.8339e-06 1.82573e-05
0.00265698 -0.000506403 1.21301e-05
-0.000506403 0.00102915 2.33936e-06
1.21301e-05 2.33936e-06 0.000714113
0.000996683 -0.000503049 1.18721e-05
-0.000503049 -2.71107e-05 -3.71698e-06
1.18721e-05 -3.71698e-06 -0.00039764
0.0023536 -0.000592215 7.69484e-06
-0.000592215 0.000455152 -3.34914e-06
7.69484e-06 -3.34914e-06 0.000262804
0.00129249 -0.000392593 -3.55666e-06
-0.000392593 0.000333892 3.4126e-06
-3.55666e-06 3.4126e-06 3.30989e-05
0.00206363 -0.000159513 1.96141e-06
-0.000159513 0.000927052 -4.09911e-07
1.96141e-06 -4.09911e-07 0.000664357
0.000170879 -6.86849e-05 4.419e-07
-6.86849e-05 -0.000245834 -1.25749e-06
4.419e-07 -1.25749e-06 -0.00040687
0.000671951 -4.25771e-05 -6.85371e-08
-4.25771e-05 9.10282e-05 9.6264e-07
-6.85371e-08 9.6264e-07 1.44616e-05
0.000683544 -9.29439e-05 1.0479e-06
-9.29439e-05 0.000133056 -3.69328e-06
1.0479e-06 -3.69328e-06 -3.09408e-05
0.000742444 -6.50417e-06 1.18357e-06
-6.50417e-06 0.000164782 -1.50592e-06
1.18357e-06 -1.50592e-06 4.10074e-05
0.000633617 6.54015e-06 1.07211e-07
6.54015e-06 8.14038e-05 -3.0443e-07
1.07211e-07 -3.0443e-07 -2.57995e-06
0.000539499 -7.24009e-06 -3.84734e-06
-7.24009e-06 9.54194e-06 2.25808e-06
-3.84734e-06 2.25808e-06 -8.33186e-05
0.00235283 -0.000219543 1.39643e-06
-0.000219543 0.000145867 7.15585e-07
1.39643e-06 7.15585e-07 0.000177837
0.0006312 -1.5823e-05 1.06261e-06
-1.5823e-05 8.61929e-05 -1.44499e-07
1.06261e-06 -1.44499e-07 -1.99057e-05
0.000703684 -9.38153e-07 2.88214e-06
-9.38153e-07 0.000110582 -2.61528e-07
2.88214e-06 -2.61528e-07 6.63267e-06
0.000288128 2.3401e-05 2.84393e-07
2.3401e-05 -0.000129393 1.21404e-06
2.84393e-07 1.21404e-06 -0.000219703
0.00178832 -0.000309152 -7.16564e-07
-0.000309152 -0.000208611 -1.54786e-06
-7.16564e-07 -1.54786e-06 -0.000128229
0.00210349 -0.000552204 1.68844e-06
-0.000552204 0.000136922 -4.881e-07
1.68844e-06 -4.881e-07 1.00679e-06
0.00171048 -0.000478049 -1.52819e-06
-0.000478049 0.00053391 5.92942e-07
-1.52819e-06 5.92942e-07 0.000214387
0.00214391 -0.000629735 -5.94624e-06
-0.000629735 0.000448969 1.93316e-06
-5.94624e-06 1.93316e-06 0.000205844
0.00110712 -8.5143e-05 -9.85815e-07
-8.5143e-05 0.000373185 5.39381e-07
-9.85815e-07 5.39381e-07 0.000234993
0.000435546 -6.98014e-05 6.62725e-07
-6.98014e-05 -5.46232e-05 9.57464e-07
6.62725e-07 9.57464e-07 -0.000204691
0.00115177 -0.000493806 4.1939e-06
-0.000493806 0.00047209 -1.67171e-06
4.1939e-06 -1.67171e-06 2.56964e-05
0.00116961 -0.000213232 -1.06776e-07
-0.000213232 0.000479395 -4.9529e-07
-1.06776e-07 -4.9529e-07 0.000155062
0.00249933 -0.000271342 -2.54344e-05
-0.000271342 0.000136443 -1.64782e-06
-2.54344e-05 -1.64782e-06 0.000272717
0.00235636 -0.000448406 -3.15355e-05
-0.000448406 0.000169085 6.94099e-06
-3.15355e-05 6.94099e-06 0.000190661
0.00280896 -0.000710957 -1.27823e-05
-0.000710957 0.000620571 -5.08338e-06
-1.27823e-05 -5.08338e-06 0.000393966
0.00168219 -0.000542737 -1.11443e-05
-0.000542737 0.000387762 2.2831e-06
-1.11443e-05 2.2831e-06 0.000158856
0.000502343 -1.75764e-05 -1.32521e-06
-1.75764e-05 2.61769e-05 -1.87845e-06
-1.32521e-06 -1.87845e-06 -9.59348e-05
0.00048232 -8.2368e-05 -1.16819e-06
-8.2368e-05 1.58898e-06 -4.8982e-06
-1.16819e-06 -4.8982e-06 -0.000132003
0.000391978 -0.000127477 -4.03844e-06
-0.000127477 6.11628e-05 1.37778e-05
-4.03844e-06 1.37778e-05 -0.000144432
-0.000481236 -0.000254313 -4.51362e-06
-0.000254313 -0.000198841 -7.3779e-06
-4.51362e-06 -7.3779e-06 -0.000741937
0.00117155 -0.000444349 2.81276e-05
-0.000444349 -0.00348194 -4.3976e-06
2.81276e-05 -4.3976e-06 -0.00367306
0.00160926 0.000142402 5.03608e-07
0.000142402 0.000654485 -4.14343e-06
5.03608e-07 -4.14343e-06 0.000508991
0.000799914 0.000227011 2.22854e-06
0.000227011 0.00010577 2.13427e-06
2.22854e-06 2.13427e-06 -0.00010364
0.00210043 0.000232025 5.68379e-05
0.000232025 0.00011254 1.19182e-05
5.68379e-05 1.19182e-05 0.000151949
0.00200968 0.000510251 1.91989e-05
0.000510251 0.000125267 6.36978e-06
1.91989e-05 6.36978e-06 -1.59547e-05
0.00208489 0.000528811 8.48964e-06
0.000528811 0.000519199 8.71671e-06
8.48964e-06 8.71671e-06 0.000199227
0.00111716 0.000350978 6.2149e-06
0.000350978 0.000159202 4.56136e-06
6.2149e-06 4.56136e-06 -0.00013984
0.00350012 0.000662592 8.19522e-05
0.000662592 0.000194757 3.34466e-05
8.19522e-05 3.34466e-05 -0.000217703
0.00126877 0.000199634 4.12962e-06
0.000199634 0.000487857 7.46527e-07
4.12962e-06 7.46527e-07 0.000310859
0.00246982 0.000421247 -1.0209e-05
0.000421247 0.000407651 -7.42833e-07
-1.0209e-05 -7.42833e-07 0.000390586
0.00114127 0.000307411 1.71783e-06
0.000307411 0.000242388 7.36402e-07
1.71783e-06 7.36402e-07 2.32208e-05
0.00117647 0.000397581 2.02385e-06
0.000397581 0.000159118 -3.01332e-06
2.02385e-06 -3.01332e-06 -0.000138226
0.00130815 0.000543735 -5.66163e-06
0.000543735 -0.000105558 -1.2271e-06
-5.66163e-06 -1.2271e-06 -0.000304612
0.00270432 -0.000362558 -0.000136247
-0.000362558 -0.00299274 -4.10082e-05
-0.000136247 -4.10082e-05 -0.00400589
0.00631584 0.00083496 -3.03587e-05
0.00083496 0.000651928 -5.17777e-05
-3.03587e-05 -5.17777e-05 0.000295529
0.000674282 0.00058834 -8.24107e-06
0.00058834 -0.000354997 7.20126e-06
-8.24107e-06 7.20126e-06 -0.000700095
-0.00235157 -0.00075537 0.000234277
-0.00075537 0.00113636 0.000100469
0.000234277 0.000100469 -0.00076757
0.00267899 -0.003438 -0.000175275
-0.003438 0.000182569 -0.00018368
-0.000175275 -0.00018368 0.00124909
0.00127579 0.000229358 -7.45025e-06
0.000229358 0.000468019 -2.43244e-06
-7.45025e-06 -2.43244e-06 0.000305356
0.000717413 0.000484403 0.00028378
0.000484403 0.00234133 2.23648e-06
0.00028378 2.23648e-06 0.00102479
0.00106429 -0.00102878 -0.000131576
-0.00102878 0.00299815 -0.000196217
-0.000131576 -0.000196217 0.000455554
0.00266866 0.000655718 -3.43465e-05
0.000655718 0.000493697 -1.00346e-05
-3.43465e-05 -1.00346e-05 0.000498805
0.000684038 0.000183525 -1.50766e-05
0.000183525 -1.10327e-05 -4.55761e-06
-1.50766e-05 -4.55761e-06 -0.000211295
0.000495199 0.000439714 -2.71585e-05
0.000439714 -0.000201819 -1.83477e-05
-2.71585e-05 -1.83477e-05 -0.000493593
0.000178076 0.000618188 3.5822e-05
0.000618188 -0.000678368 7.50866e-05
3.5822e-05 7.50866e-05 -0.000861156
0.0136099 0.00107539 -9.45969e-06
0.00107539 0.00376715 -5.06112e-05
-9.45969e-06 -5.06112e-05 0.00229635
0.00259271 0.00116621 1.06027e-05
0.00116621 0.000332849 4.37171e-07
1.06027e-05 4.37171e-07 -0.000707553
0.00463298 -0.0030499 0.000452635
-0.0030499 0.0003687 0.000299559
0.000452635 0.000299559 0.000201698
0.00719328 -0.00156356 -4.68673e-05
-0.00156356 0.000189742 0.000307702
-4.68673e-05 0.000307702 0.000599973
0.000611849 4.41486e-05 2.61702e-06
4.41486e-05 0.000101269 -2.8682e-06
2.61702e-06 -2.8682e-06 1.37953e-05
0.000722302 0.000103802 4.19415e-06
0.000103802 0.000157109 8.72652e-07
4.19415e-06 8.72652e-07 5.072e-05
0.00142271 0.000182159 -1.15188e-06
0.000182159 0.000582873 -2.67745e-06
-1.15188e-06 -2.67745e-06 0.000459065
0.00060913 5.70984e-06 8.34071e-07
5.70984e-06 7.76268e-05 -5.36796e-07
8.34071e-07 -5.36796e-07 -3.33051e-05
0.000722915 3.64319e-05 9.00881e-09
3.64319e-05 0.000137089 -1.93833e-06
9.00881e-09 -1.93833e-06 6.07033e-06
0.000477968 2.31863e-06 -1.89025e-06
2.31863e-06 -1.88297e-05 1.81887e-07
-1.89025e-06 1.81887e-07 -0.000139468
0.000744875 6.69778e-05 -2.79201e-06
6.69778e-05 0.000130309 1.20684e-06
-2.79201e-06 1.20684e-06 1.22767e-05
0.000470505 4.68495e-05 -2.34127e-06
4.68495e-05 -5.54986e-05 -2.9297e-07
-2.34127e-06 -2.9297e-07 -0.000135166
0.000421537 -5.62319e-06 2.23787e-07
-5.62319e-06 -5.03551e-05 7.90521e-07
2.23787e-07 7.90521e-07 -0.000155342
0.000932588 5.31056e-05 6.57942e-07
5.31056e-05 0.000252315 6.43336e-07
6.57942e-07 6.43336e-07 0.000127038
0.00076401 3.42651e-05 4.19027e-07
3.42651e-05 0.000149757 4.26594e-07
4.19027e-07 4.26594e-07 2.13635e-05
0.000680977 1.8645e-05 7.36264e-07
1.8645e-05 0.000116095 -3.01239e-07
7.36264e-07 -3.01239e-07 -1.77201e-05
0.000466609 6.34477e-05 -2.9828e-07
6.34477e-05 -1.53433e-05 -9.93218e-07
-2.9828e-07 -9.93218e-07 -0.000129143
0.00123756 7.79902e-05 -1.1573e-06
7.79902e-05 0.000438853 -2.95709e-06
-1.1573e-06 -2.95709e-06 0.000321416
0.000134923 4.91119e-05 -3.31636e-06
4.91119e-05 -0.000159942 -5.08462e-06
-3.31636e-06 -5.08462e-06 -0.00028066
0.00076441 -8.49184e-05 -1.98691e-07
-8.49184e-05 0.000149354 -1.38704e-07
-1.98691e-07 -1.38704e-07 1.78033e-05
0.000756751 -5.85785e-05 -4.60717e-07
-5.85785e-05 0.000169096 -2.28696e-07
-4.60717e-07 -2.28696e-07 3.15083e-05
0.000782236 -2.88865e-05 -3.57037e-07
-2.88865e-05 0.00018378 -3.50947e-07
-3.57037e-07 -3.50947e-07 4.82286e-05
0.000818134 -1.96922e-06 -1.59591e-06
-1.96922e-06 0.000188978 -2.05989e-07
-1.59591e-06 -2.05989e-07 7.27224e-05
0.000749702 2.71758e-05 -3.35586e-06
2.71758e-05 0.000169989 -2.21035e-06
-3.35586e-06 -2.21035e-06 2.36754e-05
0.000731125 8.71919e-07 1.5439e-06
8.71919e-07 0.000139179 -2.15191e-06
1.5439e-06 -2.15191e-06 2.4518e-05
1.63508e-05 -2.30683e-05 -3.40385e-07
-2.30683e-05 -0.000289022 -2.4822e-06
-3.40385e-07 -2.4822e-06 -0.00038995
0.000579282 -9.93137e-06 8.34968e-07
-9.93137e-06 3.43487e-05 -1.32645e-08
8.34968e-07 -1.32645e-08 -7.61298e-05
0.000639182 -5.69489e-05 3.72564e-07
-5.69489e-05 7.41224e-05 6.87328e-07
3.72564e-07 6.87328e-07 -2.94255e-05
0.000713236 -5.48617e-05 -2.47098e-07
-5.48617e-05 0.000135819 -3.26797e-08
-2.47098e-07 -3.26797e-08 1.76728e-05
0.000647953 -5.9602e-05 -2.06861e-06
-5.9602e-05 6.85263e-05 1.39991e-06
-2.06861e-06 1.39991e-06 -1.79755e-05
0.000647129 -4.29696e-05 1.41383e-06
-4.29696e-05 7.91152e-05 -6.61001e-07
1.41383e-06 -6.61001e-07 -3.27082e-05
0.000582576 -8.53992e-05 5.98317e-08
-8.53992e-05 3.97439e-05 2.32506e-07
5.98317e-08 2.32506e-07 -5.86036e-05
0.00061189 -2.59837e-05 -2.11331e-06
-2.59837e-05 3.29706e-05 2.9042e-06
-2.11331e-06 2.9042e-06 -2.5017e-05
0.000472598 -5.74234e-06 1.22802e-06
-5.74234e-06 -1.33641e-05 -8.62843e-07
1.22802e-06 -8.62843e-07 -0.000123226
0.00056565 2.16111e-06 1.43579e-06
2.16111e-06 1.43562e-05 1.02515e-09
1.43579e-06 1.02515e-09 -4.63866e-05
0.00139668 6.46252e-06 -3.54965e-06
6.46252e-06 0.000484267 5.6427e-06
-3.54965e-06 5.6427e-06 0.000470624
0.000558393 4.04782e-05 -8.32116e-07
4.04782e-05 1.14675e-05 -2.46378e-06
-8.32116e-07 -2.46378e-06 -4.90066e-05
0.000940752 9.85203e-07 -2.02304e-06
9.85203e-07 0.00021195 8.04157e-07
-2.02304e-06 8.04157e-07 0.000196257
0.000824566 2.95545e-06 -4.24144e-06
2.95545e-06 0.000137291 5.08111e-06
-4.24144e-06 5.08111e-06 0.000143896
0.000525539 -7.88141e-07 6.97982e-07
-7.88141e-07 -3.79174e-05 -3.94869e-06
6.97982e-07 -3.94869e-06 -5.56627e-05
0.00242188 2.07949e-07 4.82485e-06
2.07949e-07 0.00109937 -7.82331e-09
4.82485e-06 -7.82331e-09 0.00111413
0.00085199 -2.51367e-06 -4.40185e-06
-2.51367e-06 0.000153022 -5.20856e-06
-4.40185e-06 -5.20856e-06 0.000159722
0.000572552 6.35326e-05 2.09491e-06
6.35326e-05 4.52603e-05 2.72817e-07
2.09491e-06 2.72817e-07 -4.02275e-05
0.000556492 3.19877e-05 -1.49598e-06
3.19877e-05 -1.70656e-06 -1.72726e-06
-1.49598e-06 -1.72726e-06 -4.1756e-05
0.000570487 -6.22962e-06 1.08384e-06
-6.22962e-06 3.66427e-06 1.84073e-08
1.08384e-06 1.84073e-08 -3.64637e-05
0.000572184 8.27321e-06 4.74903e-07
8.27321e-06 -2.19684e-05 -2.99761e-06
4.74903e-07 -2.99761e-06 -2.90657e-05
0.000601738 -3.81977e-05 -1.7482e-06
-3.81977e-05 1.97061e-05 1.29254e-06
-1.7482e-06 1.29254e-06 -2.24552e-05
0.000541276 1.40369e-05 2.35956e-08
1.40369e-05 -4.08053e-05 -7.55061e-07
2.35956e-08 -7.55061e-07 -4.82587e-05
0.00200863 2.8809e-05 6.89692e-06
2.8809e-05 0.0008519 -4.43657e-06
6.89692e-06 -4.43657e-06 0.000869724
0.00113642 3.2641e-05 -6.06935e-07
3.2641e-05 0.000322199 1.774e-06
-6.06935e-07 1.774e-06 0.000315781
0.00147306 3.68568e-05 4.30198e-08
3.68568e-05 0.000532247 1.39075e-06
4.30198e-08 1.39075e-06 0.00054434
0.000882414 4.00955e-05 -1.26141e-05
4.00955e-05 0.000180663 7.16511e-06
-1.26141e-05 7.16511e-06 0.000186852
0.0015266 0.000188028 7.91276e-05
0.000188028 -0.000926034 1.64652e-05
7.91276e-05 1.64652e-05 -0.000754065
0.0019839 -2.53747e-05 1.94758e-06
-2.53747e-05 -3.55819e-05 1.85076e-06
1.94758e-06 1.85076e-06 -1.39216e-05
0.00188474 6.75278e-05 3.56977e-05
6.75278e-05 0.000114041 -1.30392e-05
3.56977e-05 -1.30392e-05 0.000181063
0.00165826 0.00016208 -2.33572e-05
0.00016208 -0.00129868 -1.52742e-05
-2.33572e-05 -1.52742e-05 -0.000771416
0.00190687 7.0994e-05 2.19683e-05
7.0994e-05 -0.000421966 -2.61615e-07
2.19683e-05 -2.61615e-07 -0.000235721
0.00238252 -2.31805e-05 1.24024e-06
-2.31805e-05 0.000374095 -3.76138e-06
1.24024e-06 -3.76138e-06 0.000362905
0.00368339 -0.00011429 -5.98667e-05
-0.00011429 0.000889817 2.82376e-07
-5.98667e-05 2.82376e-07 0.000861016
0.00307814 -7.88939e-05 6.9757e-05
-7.88939e-05 0.000318971 7.41377e-06
6.9757e-05 7.41377e-06 0.000318721
0.0107516 -0.000544349 1.53547e-05
-0.000544349 0.00239298 4.31593e-05
1.53547e-05 4.31593e-05 0.000814571
0.0110419 0.00241335 0.000557687
0.00241335 0.0048419 -0.000239659
0.000557687 -0.000239659 0.00438652
0.00694157 0.00265868 -3.10836e-05
0.00265868 0.00526613 1.82801e-05
-3.10836e-05 1.82801e-05 0.00515757
0.000408628 -9.26774e-05 1.65553e-06
-9.26774e-05 -4.7071e-05 -1.78786e-07
1.65553e-06 -1.78786e-07 -0.000144853
0.000627145 -1.17804e-05 1.34336e-06
-1.17804e-05 7.37916e-05 -1.68416e-07
1.34336e-06 -1.68416e-07 -6.46979e-06
0.000681041 -8.17734e-05 -1.64067e-06
-8.17734e-05 0.000113034 1.01215e-06
-1.64067e-06 1.01215e-06 2.64075e-05
0.000615378 -4.52205e-05 -1.32318e-07
-4.52205e-05 6.90878e-05 2.75808e-07
-1.32318e-07 2.75808e-07 -2.78177e-05
0.000606621 5.83224e-05 -1.67814e-06
5.83224e-05 8.70091e-05 2.05004e-06
-1.67814e-06 2.05004e-06 -2.72436e-05
0.00056659 0.000118031 1.45371e-06
0.000118031 3.74372e-05 4.47909e-06
1.45371e-06 4.47909e-06 -7.32518e-05
0.000883276 -1.57226e-05 3.03922e-06
-1.57226e-05 0.000249305 7.23003e-07
3.03922e-06 7.23003e-07 0.000136383
0.00055143 -2.82177e-05 -1.19798e-06
-2.82177e-05 3.86756e-05 1.03757e-06
-1.19798e-06 1.03757e-06 -6.13719e-05
0.00223458 -0.000205328 6.31146e-06
-0.000205328 7.83198e-05 2.24676e-06
6.31146e-06 2.24676e-06 0.000126065
0.0018186 -0.00032296 1.04929e-05
-0.00032296 -0.000228405 -2.70841e-06
1.04929e-05 -2.70841e-06 -0.000154612
0.00160954 -0.000509298 7.69152e-06
-0.000509298 -0.000119462 2.53675e-06
7.69152e-06 2.53675e-06 -0.00024502
0.001462 -0.000474381 1.72328e-05
-0.000474381 0.000382047 -6.18287e-08
1.72328e-05 -6.18287e-08 5.91379e-05
0.00180266 -0.000607952 6.73618e-06
-0.000607952 0.000269766 3.03141e-06
6.73618e-06 3.03141e-06 2.85707e-05
0.00254645 -0.000587345 1.04179e-05
-0.000587345 0.00126234 -2.47652e-06
1.04179e-05 -2.47652e-06 0.000793876
0.00251485 -0.000338998 2.17771e-06
-0.000338998 0.00118028 -3.03814e-06
2.17771e-06 -3.03814e-06 0.000881941
0.000768588 -0.00013783 5.77894e-06
-0.00013783 0.000152681 -5.87991e-06
5.77894e-06 -5.87991e-06 -1.80811e-05
0.000647809 -2.94239e-05 3.9803e-07
-2.94239e-05 7.70377e-05 2.35345e-06
3.9803e-07 2.35345e-06 -2.10906e-05
0.000852511 -5.31223e-05 2.84667e-06
-5.31223e-05 0.00020355 -9.0121e-06
2.84667e-06 -9.0121e-06 7.56885e-05
0.00091497 -2.44335e-05 1.83936e-06
-2.44335e-05 0.000259217 -2.81299e-07
1.83936e-06 -2.81299e-07 0.000150015
0.000699757 8.38956e-05 2.05145e-06
8.38956e-05 0.000119825 1.64019e-06
2.05145e-06 1.64019e-06 3.76782e-05
0.00204052 -0.000256324 -5.72995e-07
-0.000256324 -5.37013e-05 2.26184e-06
-5.72995e-07 2.26184e-06 6.52633e-05
0.000636262 6.06915e-06 -1.63618e-06
6.06915e-06 0.000107006 -2.95762e-08
-1.63618e-06 -2.95762e-08 -1.50254e-05
0.000867834 -9.97845e-05 -3.06007e-06
-9.97845e-05 0.000221961 2.15681e-06
-3.06007e-06 2.15681e-06 9.80423e-05
0.00171122 -0.00042529 2.42356e-06
-0.00042529 -0.000183192 -1.77883e-06
2.42356e-06 -1.77883e-06 -0.000159164
0.00162787 -0.000605188 3.39792e-07
-0.000605188 -1.11483e-05 -2.4603e-07
3.39792e-07 -2.4603e-07 -0.000200084
0.000972782 -0.000477465 -1.17252e-06
-0.000477465 2.81584e-07 -1.96445e-06
-1.17252e-06 -1.96445e-06 -0.000237673
0.00115901 -0.000182272 2.65081e-07
-0.000182272 0.000484868 -6.68751e-06
2.65081e-07 -6.68751e-06 0.000258291
0.00119841 -0.000327158 -2.08822e-06
-0.000327158 0.000691038 1.6742e-06
-2.08822e-06 1.6742e-06 0.000200878
0.00309122 -0.000390026 -3.6663e-05
-0.000390026 0.000466299 4.80264e-06
-3.6663e-05 4.80264e-06 0.000520381
0.00290615 -0.000619423 -3.92985e-05
-0.000619423 0.000611419 6.84658e-06
-3.92985e-05 6.84658e-06 0.000564949
0.00198866 -0.000690347 -1.33253e-05
-0.000690347 0.00026827 -5.9744e-07
-1.33253e-05 -5.9744e-07 7.35309e-05
0.000458743 -0.000341052 -1.64932e-05
-0.000341052 -0.00011542 1.57328e-05
-1.64932e-05 1.57328e-05 -0.000327961
0.000657631 -0.000140103 1.61886e-06
-0.000140103 0.000125892 2.53245e-06
1.61886e-06 2.53245e-06 -2.5211e-05
0.000426349 -0.000119238 3.04421e-06
-0.000119238 3.16743e-05 9.4219e-07
3.04421e-06 9.4219e-07 -0.000142612
0.00115303 -0.000131583 -1.20642e-06
-0.000131583 0.000665353 -3.94861e-06
-1.20642e-06 -3.94861e-06 0.000260474
-0.00545882 -0.000137915 0.000299406
-0.000137915 -0.00402546 1.48616e-06
0.000299406 1.48616e-06 -0.00281613
0.0103923 -0.000166274 2.02894e-05
-0.000166274 0.00254763 9.62966e-07
2.02894e-05 9.62966e-07 0.00202585
0.00154322 0.000179744 6.59567e-06
0.000179744 0.000635728 -4.47432e-06
6.59567e-06 -4.47432e-06 0.000471869
0.00103982 0.000298196 2.07003e-06
0.000298196 0.00020308 -1.25715e-06
2.07003e-06 -1.25715e-06 -1.6233e-05
0.00164544 0.000356934 4.9415e-05
0.000356934 -5.65818e-05 2.5207e-05
4.9415e-05 2.5207e-05 -4.66585e-05
0.00249611 0.000640186 1.7056e-05
0.000640186 0.000514029 5.82678e-06
1.7056e-05 5.82678e-06 0.000302099
0.00236879 0.000531447 1.19624e-05
0.000531447 0.000817583 1.4051e-06
1.19624e-05 1.4051e-06 0.000502532
0.0118473 0.000665874 5.84809e-05
0.000665874 0.00297152 2.99357e-05
5.84809e-05 2.99357e-05 0.00187245
0.00778016 0.00118224 -0.000175931
0.00118224 0.000793952 -1.04339e-05
-0.000175931 -1.04339e-05 0.00053492
0.0011526 0.000538547 4.36212e-06
0.000538547 4.08779e-06 -1.97259e-05
4.36212e-06 -1.97259e-05 -0.00040703
0.0110803 -0.00189925 -0.000161653
-0.00189925 0.00496024 8.47452e-06
-0.000161653 8.47452e-06 0.00400801
-0.00641808 -0.00350024 -0.000946766
-0.00350024 -0.00252555 -0.000715748
-0.000946766 -0.000715748 -0.00161311
0.000998303 0.000216349 -6.66436e-07
0.000216349 0.000317651 -1.06034e-06
-6.66436e-07 -1.06034e-06 0.00015323
-0.00241789 -0.00102183 0.000185724
-0.00102183 -0.0023967 2.89115e-05
0.000185724 2.89115e-05 -0.00284507
-0.00327378 -0.00072782 -0.000216513
-0.00072782 0.00210473 -0.000107216
-0.000216513 -0.000107216 -0.000783414
0.0029077 0.000599634 -1.31856e-05
0.000599634 0.000631324 -1.1512e-06
-1.31856e-05 -1.1512e-06 0.000639428
0.000911611 0.000258912 -4.41352e-06
0.000258912 0.00014879 1.59308e-06
-4.41352e-06 1.59308e-06 -7.72522e-05
0.00126066 0.000527936 5.57077e-06
0.000527936 0.000213236 2.30309e-06
5.57077e-06 2.30309e-06 -9.33739e-05
0.00123937 0.00055468 2.25222e-05
0.00055468 3.44381e-05 1.80056e-05
2.25222e-05 1.80056e-05 -2.57823e-05
0.0102835 0.000870202 -7.80036e-05
0.000870202 0.00142973 -3.72904e-05
-7.80036e-05 -3.72904e-05 -0.000470497
0.00584176 0.00168277 -6.78074e-05
0.00168277 0.00123982 -3.36422e-05
-6.78074e-05 -3.36422e-05 0.000542594
0.0122687 -0.00230062 0.000188739
-0.00230062 0.0052925 -4.58456e-05
0.000188739 -4.58456e-05 0.00472771
0.00693557 -0.00197147 0.000176173
-0.00197147 -0.000610558 0.000396976
0.000176173 0.000396976 -0.000106214
0.00171828 0.000217697 -1.70016e-05
0.000217697 0.000742064 -9.66459e-06
-1.70016e-05 -9.66459e-06 0.000596189
-0.0073712 0.000497498 -9.44893e-05
0.000497498 0.00139635 -7.04185e-05
-9.44893e-05 -7.04185e-05 -0.00215655
0.00350473 0.00042217 -0.000217463
0.00042217 0.00222467 -0.000273806
-0.000217463 -0.000273806 -0.0011931
0.00186163 0.000516786 -2.06375e-05
0.000516786 0.000329404 7.63345e-06
-2.06375e-05 7.63345e-06 0.000330946
0.0017063 0.000475466 -5.54745e-05
0.000475466 0.000666229 -1.97439e-05
-5.54745e-05 -1.97439e-05 0.000412253
0.00227088 0.000471648 -6.09997e-05
0.000471648 0.00130842 -5.89348e-06
-6.09997e-05 -5.89348e-06 0.000845796
0.00109831 0.00109513 -4.83381e-05
0.00109513 -0.000101143 -1.81265e-05
-4.83381e-05 -1.81265e-05 -0.000321224
0.000120097 0.00110412 0.000187793
0.00110412 -0.000773325 0.000125539
0.000187793 0.000125539 -0.00367581
0.0113192 -0.0027324 0.000142283
-0.0027324 0.00426886 0.000357357
0.000142283 0.000357357 0.00324358
0.00571495 -0.00105151 -6.46327e-05
-0.00105151 -0.00203797 -6.89307e-05
-6.46327e-05 -6.89307e-05 -0.000841233
0.000460941 0.000114987 2.69217e-06
0.000114987 1.64985e-05 -3.08019e-07
2.69217e-06 -3.08019e-07 -0.000100301
0.00123732 0.000165454 6.74281e-06
0.000165454 0.000462241 3.52704e-06
6.74281e-06 3.52704e-06 0.00034247
-0.000137364 5.87658e-05 3.81495e-06
5.87658e-05 -0.000271827 -8.9085e-06
3.81495e-06 -8.9085e-06 -0.000401089
0.000434256 4.72062e-05 1.45349e-06
4.72062e-05 -4.30856e-05 -5.72282e-07
1.45349e-06 -5.72282e-07 -0.00014784
0.000743803 5.24361e-05 -4.05326e-07
5.24361e-05 0.00016009 -1.2547e-06
-4.05326e-07 -1.2547e-06 2.23972e-05
0.000763457 -8.07295e-06 -7.04759e-07
-8.07295e-06 0.000148795 1.68244e-06
-7.04759e-07 1.68244e-06 2.01705e-05
0.000703286 7.86315e-06 3.51697e-06
7.86315e-06 0.000125888 6.5655e-07
3.51697e-06 6.5655e-07 -2.70871e-06
0.000355269 5.06496e-05 -5.59142e-07
5.06496e-05 -7.63433e-05 2.19021e-06
-5.59142e-07 2.19021e-06 -0.000189038
0.000757921 4.67709e-05 1.97793e-08
4.67709e-05 0.000170357 -8.3274e-07
1.97793e-08 -8.3274e-07 3.24012e-05
0.000823436 5.36494e-05 2.25484e-07
5.36494e-05 0.000188753 8.45826e-08
2.25484e-07 8.45826e-08 7.15471e-05
0.000776667 -4.30049e-05 -7.03892e-07
-4.30049e-05 0.000158664 8.07823e-07
-7.03892e-07 8.07823e-07 2.58333e-05
-0.000171932 3.06961e-05 7.50015e-07
3.06961e-05 -0.000321777 5.93276e-07
7.50015e-07 5.93276e-07 -0.000447799
-0.000680308 1.94513e-05 -7.50846e-07
1.94513e-05 -0.000433167 -1.24983e-06
-7.50846e-07 -1.24983e-06 -0.000643454
0.000963894 -2.53418e-06 -3.90894e-06
-2.53418e-06 0.000283855 -5.5593e-06
-3.90894e-06 -5.5593e-06 0.000159624
0.000920269 6.05971e-06 -1.58662e-07
6.05971e-06 0.000268576 2.85242e-08
-1.58662e-07 2.85242e-08 0.000112013
0.000783127 -5.76178e-05 -5.02113e-07
-5.76178e-05 0.000189439 -9.94763e-07
-5.02113e-07 -9.94763e-07 4.99218e-05
0.000860714 -4.89248e-05 2.66977e-07
-4.89248e-05 0.000207334 1.61342e-06
2.66977e-07 1.61342e-06 9.54167e-05
0.000804578 -5.0852e-05 4.58615e-07
-5.0852e-05 0.000191449 -7.12792e-07
4.58615e-07 -7.12792e-07 5.17268e-05
0.000759118 -1.08454e-05 -3.46843e-07
-1.08454e-05 0.000149467 3.61572e-08
-3.46843e-07 3.61572e-08 3.64795e-05
0.000333505 -5.34798e-05 5.90479e-07
-5.34798e-05 -9.06097e-05 1.69507e-06
5.90479e-07 1.69507e-06 -0.000191624
0.000592112 -1.6245e-06 8.03828e-07
-1.6245e-06 5.07204e-05 1.05656e-06
8.03828e-07 1.05656e-06 -5.83785e-05
0.000304294 -5.96769e-06 -3.48522e-06
-5.96769e-06 -9.17025e-05 -3.58826e-06
-3.48522e-06 -3.58826e-06 -0.000218692
0.000119966 -4.39341e-05 2.45923e-06
-4.39341e-05 -0.000215626 -1.21729e-06
2.45923e-06 -1.21729e-06 -0.000313329
0.000767271 -4.66209e-05 3.46128e-06
-4.66209e-05 0.000107067 -6.55414e-06
3.46128e-06 -6.55414e-06 1.00499e-05
-5.78905e-05 -4.64985e-05 -3.11848e-07
-4.64985e-05 -0.000367214 1.81266e-06
-3.11848e-07 1.81266e-06 -0.00051785
0.000317355 -3.23822e-06 -1.46678e-06
-3.23822e-06 -0.000112514 -8.18679e-07
-1.46678e-06 -8.18679e-07 -0.000228169
0.000731035 -1.87695e-05 2.18976e-07
-1.87695e-05 0.000122078 1.41986e-07
2.18976e-07 1.41986e-07 9.37695e-06
0.000623763 -2.07344e-05 2.85302e-07
-2.07344e-05 6.28237e-05 9.22541e-07
2.85302e-07 9.22541e-07 -4.04573e-05
0.000713815 -3.90916e-05 -1.7991e-07
-3.90916e-05 0.000132493 -5.68737e-08
-1.7991e-07 -5.68737e-08 1.8875e-05
0.000550641 -2.76909e-06 -4.35149e-07
-2.76909e-06 1.81134e-05 1.24498e-06
-4.35149e-07 1.24498e-06 -7.07151e-05
0.000766889 -3.51125e-05 -1.57665e-07
-3.51125e-05 0.000164995 -2.56529e-07
-1.57665e-07 -2.56529e-07 4.86945e-05
0.000656618 -5.23833e-05 -5.52246e-07
-5.23833e-05 8.31924e-05 1.1541e-07
-5.52246e-07 1.1541e-07 -9.39092e-06
0.000539208 4.06199e-05 -6.53765e-07
4.06199e-05 -1.16401e-05 2.72938e-06
-6.53765e-07 2.72938e-06 -7.09508e-05
0.000507412 -7.51864e-05 1.83591e-06
-7.51864e-05 -1.05254e-05 -1.31757e-06
1.83591e-06 -1.31757e-06 -0.000106643
0.000579686 -9.14015e-06 -4.25511e-07
-9.14015e-06 1.29e-05 1.21837e-08
-4.25511e-07 1.21837e-08 -4.42801e-05
0.00139284 1.80355e-05 -5.11195e-06
1.80355e-05 0.000479871 5.8573e-06
-5.11195e-06 5.8573e-06 0.000465665
0.000569508 -3.23591e-05 1.1721e-06
-3.23591e-05 1.40748e-05 -2.44599e-06
1.1721e-06 -2.44599e-06 -4.50207e-05
0.000934894 5.51347e-06 -2.95629e-06
5.51347e-06 0.000205781 7.29137e-07
-2.95629e-06 7.29137e-07 0.000190248
0.000759577 1.4571e-05 1.22938e-07
1.4571e-05 9.50001e-05 2.06618e-06
1.22938e-07 2.06618e-06 0.000101749
0.000519276 -3.5991e-06 9.80641e-07
-3.5991e-06 -4.31243e-05 -3.95629e-06
9.80641e-07 -3.95629e-06 -6.06054e-05
0.00242424 1.39172e-05 4.73284e-06
1.39172e-05 0.0011009 6.19094e-08
4.73284e-06 6.19094e-08 0.00111553
0.00241424 1.9356e-06 -5.54117e-07
1.9356e-06 0.0010948 -5.27752e-06
-5.54117e-07 -5.27752e-06 0.00110955
0.000989768 7.23667e-05 -8.99353e-07
7.23667e-05 0.000290966 -4.17106e-07
-8.99353e-07 -4.17106e-07 0.000206525
0.000577436 4.15143e-05 -1.3084e-06
4.15143e-05 1.46405e-05 -2.01829e-06
-1.3084e-06 -2.01829e-06 -2.86668e-05
0.000619165 -1.09096e-05 5.48749e-07
-1.09096e-05 7.29088e-05 8.66009e-07
5.48749e-07 8.66009e-07 -1.21358e-05
0.000573198 3.61633e-06 4.48787e-07
3.61633e-06 -2.15083e-05 -3.23587e-06
4.48787e-07 -3.23587e-06 -2.85645e-05
0.000569254 -1.51917e-05 1.65505e-07
-1.51917e-05 6.53255e-06 -2.13329e-08
1.65505e-07 -2.13329e-08 -3.39554e-05
0.000598099 -3.84639e-05 -1.49591e-06
-3.84639e-05 2.15395e-05 1.15145e-06
-1.49591e-06 1.15145e-06 -1.96851e-05
0.00055571 7.77159e-06 -2.64059e-07
7.77159e-06 -3.19327e-05 -1.97831e-08
-2.64059e-07 -1.97831e-08 -3.89609e-05
0.00199462 1.57434e-05 2.33062e-06
1.57434e-05 0.000841039 -4.58683e-06
2.33062e-06 -4.58683e-06 0.000859781
0.0011248 2.12749e-05 -7.05124e-07
2.12749e-05 0.000312266 1.75141e-06
-7.05124e-07 1.75141e-06 0.000307969
0.00137682 2.43827e-05 4.66107e-07
2.43827e-05 0.000469248 -6.70681e-09
4.66107e-07 -6.70681e-09 0.000483745
0.000853264 2.9052e-05 -1.21186e-05
2.9052e-05 0.00015742 6.97633e-06
-1.21186e-05 6.97633e-06 0.000166662
-0.0089118 0.000563472 0.000255393
0.000563472 -0.0038006 -3.19037e-07
0.000255393 -3.19037e-07 -0.00505281
-0.00225288 -3.88405e-05 0.000372204
-3.88405e-05 0.00285446 -4.26163e-05
0.000372204 -4.26163e-05 0.000756196
0.00444889 0.000247948 -0.000226988
0.000247948 -6.08608e-05 -1.72796e-05
-0.000226988 -1.72796e-05 0.000596927
0.000490727 4.56923e-05 2.67681e-05
4.56923e-05 -0.00110825 -1.89876e-05
2.67681e-05 -1.89876e-05 -0.000992484
0.00146092 -3.22638e-05 1.76039e-05
-3.22638e-05 -0.00023942 1.78551e-06
1.76039e-05 1.78551e-06 -0.00024836
-0.000252251 4.99684e-05 -2.89498e-05
4.99684e-05 -0.000907502 -1.00184e-05
-2.89498e-05 -1.00184e-05 -0.00070937
0.00281061 -0.000154744 -3.24881e-06
-0.000154744 0.000292139 4.67703e-06
-3.24881e-06 4.67703e-06 0.000264093
0.00977733 9.48299e-05 7.45572e-05
9.48299e-05 0.00103726 -3.60617e-05
7.45572e-05 -3.60617e-05 -2.14761e-05
-0.002798 0.00148701 -1.55907e-05
0.00148701 -0.000568296 -2.32147e-05
-1.55907e-05 -2.32147e-05 -0.0022418
0.000357221 0.00292518 -0.000191361
0.00292518 0.00153238 0.00010388
-0.000191361 0.00010388 0.00200176
0.00193474 -0.000317732 6.7695e-05
-0.000317732 -0.000873002 -9.97808e-06
6.7695e-05 -9.97808e-06 -0.000750205
0.0133334 -0.000689566 0.000127445
-0.000689566 0.00313685 -3.32731e-05
0.000127445 -3.32731e-05 0.00156694
0.00528681 0.00282646 0.000187985
0.00282646 0.000830785 -0.000332777
0.000187985 -0.000332777 0.000868819
0.00884499 0.00202337 -0.000261182
0.00202337 0.00165968 0.000162079
-0.000261182 0.000162079 0.00122859
0.000751059 0.000102199 -2.43008e-06
0.000102199 0.000180258 1.84295e-06
-2.43008e-06 1.84295e-06 4.57029e-05
0.000463739 1.93345e-05 -1.1078e-07
1.93345e-05 -1.98811e-05 -7.86437e-07
-1.1078e-07 -7.86437e-07 -0.000112788
0.000652732 -9.07332e-05 -8.42839e-07
-9.07332e-05 9.47983e-05 8.10311e-07
-8.42839e-07 8.10311e-07 9.89268e-06
0.000550411 -8.18303e-06 1.3591e-06
-8.18303e-06 3.82141e-05 -7.367e-07
1.3591e-06 -7.367e-07 -6.30608e-05
0.000609342 5.69961e-05 1.06939e-06
5.69961e-05 9.41784e-05 1.37829e-06
1.06939e-06 1.37829e-06 -2.10409e-05
0.000734864 4.81225e-05 2.96206e-07
4.81225e-05 0.000170917 3.79385e-06
2.96206e-07 3.79385e-06 3.48354e-05
0.000746054 9.01216e-05 1.41434e-06
9.01216e-05 0.000158664 2.03554e-06
1.41434e-06 2.03554e-06 3.96065e-05
0.000587047 2.62724e-05 3.71982e-06
2.62724e-05 4.92348e-05 6.81387e-07
3.71982e-06 6.81387e-07 -6.9801e-05
0.000715332 -2.85823e-05 1.62005e-06
-2.85823e-05 0.000148956 -9.57281e-07
1.62005e-06 -9.57281e-07 3.38797e-05
0.000516254 -8.86732e-06 -4.81137e-08
-8.86732e-06 6.05878e-06 -7.04384e-07
-4.81137e-08 -7.04384e-07 -8.79404e-05
0.00172479 -0.000239053 2.24836e-05
-0.000239053 -0.000154202 2.52957e-07
2.24836e-05 2.52957e-07 -5.82789e-05
0.0012893 -0.000405584 2.95105e-05
-0.000405584 -0.000403451 -4.82173e-06
2.95105e-05 -4.82173e-06 -0.00037926
0.000246401 -0.000477005 1.66898e-05
-0.000477005 -0.000750934 3.1181e-06
1.66898e-05 3.1181e-06 -0.000893071
-8.62245e-06 -0.000390527 8.42493e-06
-0.000390527 -0.000523206 -7.96038e-07
8.42493e-06 -7.96038e-07 -0.000758524
0.0027672 -0.00039299 5.53274e-06
-0.00039299 0.00152115 7.55959e-06
5.53274e-06 7.55959e-06 0.00108914
0.000831227 -0.000225827 5.33887e-06
-0.000225827 0.000295735 -2.87489e-06
5.33887e-06 -2.87489e-06 3.59678e-05
0.00109884 -0.000116162 2.54186e-07
-0.000116162 0.00034548 -7.47312e-07
2.54186e-07 -7.47312e-07 0.000233646
0.000730838 -4.6618e-07 -1.86568e-06
-4.6618e-07 0.000162616 1.66422e-06
-1.86568e-06 1.66422e-06 4.26558e-05
0.00218835 -0.000328861 7.37422e-06
-0.000328861 4.79939e-05 -4.24668e-06
7.37422e-06 -4.24668e-06 0.000120948
0.000642025 -6.74857e-05 -1.96449e-07
-6.74857e-05 0.000121053 -2.10771e-07
-1.96449e-07 -2.10771e-07 -3.5378e-05
0.000212754 -0.000102384 9.60462e-07
-0.000102384 -8.85428e-05 -2.16707e-06
9.60462e-07 -2.16707e-06 -0.000264704
0.0020328 -0.000559936 7.57514e-06
-0.000559936 0.00015314 -1.41234e-06
7.57514e-06 -1.41234e-06 0.000112365
0.00155256 -0.000662126 4.69694e-07
-0.000662126 -5.21047e-06 3.04359e-06
4.69694e-07 3.04359e-06 -0.000170472
0.000300649 -0.000374374 9.28773e-06
-0.000374374 -0.000195751 -5.30092e-06
9.28773e-06 -5.30092e-06 -0.000431694
0.0014486 -0.0001959 -1.17657e-06
-0.0001959 0.000808307 -5.60694e-06
-1.17657e-06 -5.60694e-06 0.000424668
0.00240265 -0.000526598 -3.95067e-05
-0.000526598 0.000566308 7.362e-06
-3.95067e-05 7.362e-06 0.000272894
0.00167434 -0.000530066 -4.51007e-05
-0.000530066 0.000223257 6.69999e-06
-4.51007e-05 6.69999e-06 0.000133968
0.000681674 -0.000306187 -3.91641e-05
-0.000306187 0.000207427 3.59778e-05
-3.91641e-05 3.59778e-05 -7.86231e-05
-0.000899736 -5.09512e-05 -2.5565e-07
-5.09512e-05 -0.000776855 3.53909e-06
-2.5565e-07 3.53909e-06 -0.000937037
0.000157458 -0.000113032 3.1679e-06
-0.000113032 -0.000124368 3.12462e-06
3.1679e-06 3.12462e-06 -0.000309526
0.000779039 -9.23348e-05 4.63872e-06
-9.23348e-05 0.000327459 1.6557e-06
4.63872e-06 1.6557e-06 5.46606e-05
-0.000386069 0.000434319 -0.000199237
0.000434319 0.00462401 6.68146e-06
-0.000199237 6.68146e-06 0.00223634
0.00148184 -0.000592506 1.31322e-05
-0.000592506 0.00144951 2.63932e-05
1.31322e-05 2.63932e-05 0.00142558
0.00133292 0.000847418 -6.49892e-05
0.000847418 -0.0034826 -2.25412e-06
-6.49892e-05 -2.25412e-06 -0.00384288
0.000482669 0.000171869 5.58741e-06
0.000171869 2.46239e-05 2.53781e-06
5.58741e-06 2.53781e-06 -0.000133376
0.00115804 0.000335802 8.05449e-06
0.000335802 0.000316509 1.24595e-05
8.05449e-06 1.24595e-05 6.60998e-05
0.00312994 0.000528986 3.57371e-05
0.000528986 0.000776347 1.3267e-05
3.57371e-05 1.3267e-05 0.000776795
0.00199058 0.000585256 1.85427e-05
0.000585256 0.000613015 1.48308e-05
1.85427e-05 1.48308e-05 0.000297449
0.00806646 -0.00117259 8.74458e-05
-0.00117259 0.00280754 4.45778e-05
8.74458e-05 4.45778e-05 0.00298636
0.00345541 0.000260981 -0.000191681
0.000260981 -0.00220423 -5.79837e-06
-0.000191681 -5.79837e-06 -0.00406231
0.00315848 0.00153448 -5.13825e-05
0.00153448 -0.000333371 -8.17317e-06
-5.13825e-05 -8.17317e-06 -0.00087365
0.00101573 0.000393694 2.91699e-05
0.000393694 0.000144355 -2.64065e-05
2.91699e-05 -2.64065e-05 0.000137224
-0.00302896 -0.0013933 -0.000169221
-0.0013933 -0.000504581 -0.000182365
-0.000169221 -0.000182365 -0.00136894
-0.000886273 -0.00120713 -0.000173457
-0.00120713 0.00217425 -4.41357e-05
-0.000173457 -4.41357e-05 -0.000752515
0.0117403 -0.00249624 0.000298323
-0.00249624 0.00194692 0.000204502
0.000298323 0.000204502 0.00255436
0.000645709 0.000154127 8.44036e-06
0.000154127 0.000136859 -2.65448e-06
8.44036e-06 -2.65448e-06 -1.36972e-05
-0.00268167 0.000175895 -0.000108608
0.000175895 0.00276635 -2.71926e-05
-0.000108608 -2.71926e-05 -0.000211224
0.00390543 0.000483186 -2.51348e-05
0.000483186 0.00213161 -9.98924e-05
-2.51348e-05 -9.98924e-05 -0.0014391
0.00131698 0.000481603 -3.5053e-06
0.000481603 9.30929e-05 4.87295e-06
-3.5053e-06 4.87295e-06 5.76836e-05
0.000563541 0.000334464 5.75644e-06
0.000334464 9.53595e-05 2.78047e-06
5.75644e-06 2.78047e-06 -0.00016476
-0.000391102 0.00038021 6.70307e-06
0.00038021 -0.00020129 -4.29061e-05
6.70307e-06 -4.29061e-05 -0.00053874
0.00483792 0.00173378 -6.75398e-06
0.00173378 0.00168177 7.86895e-06
-6.75398e-06 7.86895e-06 0.00115442
0.0134559 0.00134472 7.02128e-05
0.00134472 0.00446005 2.4574e-05
7.02128e-05 2.4574e-05 0.00237199
0.00512429 -0.00177141 3.77351e-05
-0.00177141 0.000318044 -5.41363e-05
3.77351e-05 -5.41363e-05 -0.000883748
0.0107516 -0.00147556 -5.03154e-07
-0.00147556 0.00141859 -4.37349e-05
-5.03154e-07 -4.37349e-05 0.00267905
0.000520957 0.000220917 -7.68323e-06
0.000220917 0.000113426 -1.26447e-05
-7.68323e-06 -1.26447e-05 -3.27024e-05
0.00297353 0.00013106 -0.000159684
0.00013106 0.00128029 -2.86587e-05
-0.000159684 -2.86587e-05 -0.000983404
6.83061e-05 0.000164958 -3.37084e-05
0.000164958 -2.68968e-05 -0.000109376
-3.37084e-05 -0.000109376 -0.00155512
-0.000946143 0.000110204 -8.60193e-06
0.000110204 -0.000424651 -1.76423e-05
-8.60193e-06 -1.76423e-05 -0.000600662
0.000977592 0.000367646 -5.69154e-05
0.000367646 0.000984759 3.66359e-05
-5.69154e-05 3.66359e-05 0.000254305
0.0104843 0.00182831 4.758e-05
0.00182831 0.00402858 -2.11126e-07
4.758e-05 -2.11126e-07 0.00074046
-0.00659793 -0.00256821 -3.70392e-05
-0.00256821 -0.00317329 0.000156145
-3.70392e-05 0.000156145 -0.00579479
0.0087141 0.000525437 2.86643e-05
0.000525437 -0.00115945 -0.000214416
2.86643e-05 -0.000214416 0.00110418
0.000886593 0.000129252 1.10138e-06
0.000129252 0.000235605 8.48304e-06
1.10138e-06 8.48304e-06 0.000125563
0.000983531 0.000155341 -6.23607e-06
0.000155341 0.000388885 -1.29379e-06
-6.23607e-06 -1.29379e-06 0.000252142
0.000385469 9.77992e-05 -1.40746e-06
9.77992e-05 0.00020362 -6.92833e-06
-1.40746e-06 -6.92833e-06 -1.16115e-05
0.000739896 8.03315e-05 -2.52995e-06
8.03315e-05 0.000148461 -1.58357e-06
-2.52995e-06 -1.58357e-06 1.87804e-05
0.000841566 -3.04219e-05 -8.49914e-07
-3.04219e-05 0.000207642 1.85876e-06
-8.49914e-07 1.85876e-06 6.75229e-05
0.000450807 3.73191e-05 1.66887e-06
3.73191e-05 -3.76664e-05 2.15658e-06
1.66887e-06 2.15658e-06 -0.000155053
-0.00034219 2.2017e-05 1.44771e-06
2.2017e-05 -0.000402354 4.28608e-06
1.44771e-06 4.28608e-06 -0.000532052
0.000789803 -9.16715e-06 1.1208e-06
-9.16715e-06 0.000170945 1.516e-07
1.1208e-06 1.516e-07 2.95026e-05
0.000808314 2.53482e-05 1.67567e-07
2.53482e-05 0.000196487 -1.23766e-06
1.67567e-07 -1.23766e-06 6.95555e-05
0.00022809 -5.2325e-06 1.17811e-06
-5.2325e-06 9.87597e-05 2.24153e-06
1.17811e-06 2.24153e-06 -0.000112002
-0.000886933 1.58907e-05 -1.46315e-06
1.58907e-05 -0.000311678 2.51912e-06
-1.46315e-06 2.51912e-06 -0.000629638
0.000796336 2.87431e-06 -2.41145e-06
2.87431e-06 0.000377539 -6.3635e-06
-2.41145e-06 -6.3635e-06 0.000193628
0.000878998 3.32403e-05 -1.6342e-06
3.32403e-05 0.000232125 -3.54178e-06
-1.6342e-06 -3.54178e-06 9.22371e-05
0.000882894 -0.000117065 1.21889e-06
-0.000117065 0.000225656 5.56239e-07
1.21889e-06 5.56239e-07 9.27846e-05
0.000725236 -1.18736e-05 -2.07136e-07
-1.18736e-05 0.000122813 -2.13856e-07
-2.07136e-07 -2.13856e-07 1.2502e-05
0.000541557 -6.30345e-05 -9.2865e-07
-6.30345e-05 4.18094e-05 4.10516e-06
-9.2865e-07 4.10516e-06 -5.63371e-05
0.000424541 -2.85126e-05 2.087e-06
-2.85126e-05 -3.27175e-05 1.89023e-06
2.087e-06 1.89023e-06 -0.000151563
0.000694743 -7.80239e-06 2.54127e-07
-7.80239e-06 0.000111673 -1.57609e-07
2.54127e-07 -1.57609e-07 8.25286e-07
0.000557601 -3.76927e-05 -2.3811e-07
-3.76927e-05 4.11403e-05 -4.06165e-07
-2.3811e-07 -4.06165e-07 -5.4745e-05
0.0010353 -3.92802e-05 -1.79235e-06
-3.92802e-05 0.000292113 -3.5317e-06
-1.79235e-06 -3.5317e-06 0.000192872
-6.22757e-05 -3.88569e-05 4.30775e-06
-3.88569e-05 -0.000244487 -4.93956e-06
4.30775e-06 -4.93956e-06 -0.000337355
0.000352849 -0.000115414 1.19473e-07
-0.000115414 -0.000199195 2.34149e-09
1.19473e-07 2.34149e-09 -0.000294381
0.000762184 -8.0008e-05 -3.41793e-06
-8.0008e-05 0.000111931 -4.50391e-07
-3.41793e-06 -4.50391e-07 9.23621e-06
0.000435992 -0.000109828 5.22885e-06
-0.000109828 -8.01911e-05 3.73833e-06
5.22885e-06 3.73833e-06 -0.000224083
0.00121932 -0.000266883 -2.04101e-06
-0.000266883 0.00033153 8.88789e-06
-2.04101e-06 8.88789e-06 9.51903e-05
0.00140069 -0.000139704 7.58649e-07
-0.000139704 0.000538302 -9.72346e-07
7.58649e-07 -9.72346e-07 0.000393419
0.000241677 -8.38595e-05 -2.68957e-06
-8.38595e-05 -0.000169947 -5.23433e-06
-2.68957e-06 -5.23433e-06 -0.000323266
0.000674122 -2.27641e-05 -1.23938e-07
-2.27641e-05 8.7699e-05 2.74083e-07
-1.23938e-07 2.74083e-07 -2.66341e-05
0.000313526 -1.10909e-05 -2.13513e-07
-1.10909e-05 -0.000110088 -3.73769e-08
-2.13513e-07 -3.73769e-08 -0.000221993
0.000871576 -3.40796e-05 -7.30727e-07
-3.40796e-05 0.000203803 8.20752e-07
-7.30727e-07 8.20752e-07 8.85521e-05
0.000723962 -4.95669e-05 -5.89022e-07
-4.95669e-05 0.000134049 6.59064e-07
-5.89022e-07 6.59064e-07 1.96654e-05
0.000590131 -2.8944e-05 -4.50497e-07
-2.8944e-05 3.43752e-05 1.30324e-06
-4.50497e-07 1.30324e-06 -5.33605e-05
0.000854758 -7.06439e-05 -4.76702e-07
-7.06439e-05 0.000230443 -1.15629e-06
-4.76702e-07 -1.15629e-06 0.000104148
0.000668981 -6.1022e-05 -6.05789e-07
-6.1022e-05 8.98042e-05 -3.77289e-08
-6.05789e-07 -3.77289e-08 -1.94329e-06
0.000565655 2.75481e-05 -2.01212e-06
2.75481e-05 2.65182e-06 2.19623e-06
-2.01212e-06 2.19623e-06 -5.70918e-05
0.000701826 -9.26767e-05 1.9303e-06
-9.26767e-05 0.000113194 -1.53552e-06
1.9303e-06 -1.53552e-06 1.74687e-05
0.000628843 -2.05644e-05 -2.54344e-07
-2.05644e-05 3.77298e-05 5.73895e-08
-2.54344e-07 5.73895e-08 -1.94249e-05
0.00138694 2.87754e-05 -7.97183e-06
2.87754e-05 0.000475348 5.89798e-06
-7.97183e-06 5.89798e-06 0.000460421
0.000597464 -3.91411e-05 2.09704e-06
-3.91411e-05 2.67757e-05 -2.517e-06
2.09704e-06 -2.517e-06 -3.25609e-05
0.000943816 1.5276e-05 -3.98504e-06
1.5276e-05 0.000208972 7.08694e-07
-3.98504e-06 7.08694e-07 0.000192796
0.000770567 2.3474e-05 -8.52377e-08
2.3474e-05 0.000103465 2.25508e-06
-8.52377e-08 2.25508e-06 0.00010868
0.000524428 2.81486e-06 5.53387e-07
2.81486e-06 -4.28677e-05 -4.08506e-06
5.53387e-07 -4.08506e-06 -6.03114e-05
0.00157968 2.34949e-05 6.20996e-06
2.34949e-05 0.000591277 -1.49731e-06
6.20996e-06 -1.49731e-06 0.000601783
0.00239904 1.62569e-05 4.71626e-06
1.62569e-05 0.00108568 -5.19733e-06
4.71626e-06 -5.19733e-06 0.00110036
0.000671151 1.66943e-05 1.56554e-06
1.66943e-05 8.89645e-05 -1.14106e-06
1.56554e-06 -1.14106e-06 9.71186e-07
0.000631621 3.78899e-05 -7.74777e-07
3.78899e-05 4.40845e-05 -1.81361e-06
-7.74777e-07 -1.81361e-06 -1.21835e-06
0.000676458 -3.55355e-06 1.23481e-06
-3.55355e-06 0.000100032 3.95827e-07
1.23481e-06 3.95827e-07 1.63285e-05
0.00055919 -1.58444e-06 6.1601e-07
-1.58444e-06 -2.8812e-05 -3.46913e-06
6.1601e-07 -3.46913e-06 -3.67813e-05
0.000571935 3.04338e-05 9.22089e-08
3.04338e-05 8.98797e-06 -3.58069e-08
9.22089e-08 -3.58069e-08 -3.29365e-05
0.000637207 -9.63467e-05 -3.55109e-06
-9.63467e-05 7.76475e-05 1.25047e-06
-3.55109e-06 1.25047e-06 -3.0325e-06
0.00201093 2.79748e-06 -2.49433e-06
2.79748e-06 0.000849439 -4.71881e-06
-2.49433e-06 -4.71881e-06 0.000868529
0.000553426 3.00914e-06 -1.80704e-07
3.00914e-06 -3.2865e-05 4.07457e-10
-1.80704e-07 4.07457e-10 -3.99269e-05
0.000574713 -1.98216e-05 -1.6392e-06
-1.98216e-05 7.92554e-06 1.56327e-06
-1.6392e-06 1.56327e-06 -3.14475e-05
0.000536794 7.34358e-06 -7.3878e-07
7.34358e-06 -4.3381e-05 3.08247e-06
-7.3878e-07 3.08247e-06 -5.03578e-05
0.00202189 1.72693e-05 -4.15795e-06
1.72693e-05 0.000857684 -5.57859e-08
-4.15795e-06 -5.57859e-08 0.000876257
0.00200086 2.96895e-05 -8.87313e-06
2.96895e-05 0.000847218 4.31306e-06
-8.87313e-06 4.31306e-06 0.000865159
-0.00519787 -0.000603929 -6.87563e-05
-0.000603929 0.00228789 2.63454e-05
-6.87563e-05 2.63454e-05 -0.000422307
-4.92743e-05 0.000633973 -0.000116397
0.000633973 -0.000229175 2.77399e-05
-0.000116397 2.77399e-05 -0.00100723
0.00326708 -0.000520629 -0.000343298
-0.000520629 0.00113954 0.00018783
-0.000343298 0.00018783 -0.0021448
-0.0030837 6.32136e-05 0.000496738
6.32136e-05 0.00289455 -0.000203213
0.000496738 -0.000203213 0.000738024
0.000454822 0.000316656 -1.43032e-05
0.000316656 -0.00128569 -1.44254e-06
-1.43032e-05 -1.44254e-06 -0.00110576
0.00249846 -0.000212485 0.000101657
-0.000212485 2.57303e-05 -7.28348e-06
0.000101657 -7.28348e-06 3.13153e-05
0.00111815 -0.000388724 2.62236e-05
-0.000388724 -0.00252772 -7.45965e-05
2.62236e-05 -7.45965e-05 -0.0042281
0.0122687 0.00145203 -0.000219556
0.00145203 0.00583375 -4.87237e-06
-0.000219556 -4.87237e-06 0.00479332
-0.00646532 0.00332357 -0.000880535
0.00332357 -0.00251826 0.000683528
-0.000880535 0.000683528 -0.00154963
0.0030765 -0.000193505 -5.36937e-07
-0.000193505 -0.000268616 -2.73626e-06
-5.36937e-07 -2.73626e-06 -0.000232913
0.00587681 -0.000733983 7.10958e-05
-0.000733983 -0.000315735 -6.70954e-05
7.10958e-05 -6.70954e-05 -0.00256774
0.0131087 0.00261319 -0.000124968
0.00261319 0.00387987 -9.30781e-05
-0.000124968 -9.30781e-05 0.00396645
0.00576365 0.00202435 -8.04129e-05
0.00202435 -0.000486069 0.000215446
-8.04129e-05 0.000215446 -0.000901693
0.00239447 -0.000841472 -7.91893e-05
-0.000841472 -0.00127308 2.31841e-05
-7.91893e-05 2.31841e-05 -0.00100823
0.00315759 -0.001343 0.000228421
-0.001343 -4.65054e-05 -0.000153817
0.000228421 -0.000153817 -0.0035606
-0.00292669 0.00161889 -7.29111e-05
0.00161889 -0.00335761 -0.000409468
-7.29111e-05 -0.000409468 -0.0040833
0.00510063 0.00101067 -0.000106266
0.00101067 -0.00297344 6.96537e-06
-0.000106266 6.96537e-06 -0.00168536
0.0011725 -4.6435e-05 1.12175e-06
-4.6435e-05 0.000454133 6.19991e-06
1.12175e-06 6.19991e-06 0.000288708
0.000641284 8.62012e-05 -1.72736e-06
8.62012e-05 0.00010413 -1.47686e-06
-1.72736e-06 -1.47686e-06 -2.05089e-05
0.000608049 7.3392e-05 2.17349e-07
7.3392e-05 6.14712e-05 -1.59784e-06
2.17349e-07 -1.59784e-06 -2.71006e-05
0.00065456 6.11949e-05 4.13536e-06
6.11949e-05 0.000124303 5.84519e-07
4.13536e-06 5.84519e-07 9.81328e-06
0.000618729 5.70742e-05 2.10383e-06
5.70742e-05 8.87743e-05 2.24489e-06
2.10383e-06 2.24489e-06 -6.57041e-05
0.000690685 5.80306e-05 -2.48676e-07
5.80306e-05 0.000141701 1.57847e-06
-2.48676e-07 1.57847e-06 1.16026e-05
0.000569687 3.5599e-05 7.87198e-07
3.5599e-05 5.52898e-05 -6.24157e-07
7.87198e-07 -6.24157e-07 -6.15149e-05
0.000875434 0.000136818 1.81698e-06
0.000136818 0.000246334 2.60045e-06
1.81698e-06 2.60045e-06 0.000102832
0.000841515 8.88281e-05 -1.07542e-07
8.88281e-05 0.000227867 3.46249e-07
-1.07542e-07 3.46249e-07 9.16006e-05
0.00048596 -1.35329e-05 -3.60392e-06
-1.35329e-05 7.84593e-06 -2.51783e-06
-3.60392e-06 -2.51783e-06 -0.000106725
0.00066876 -0.000248475 4.82071e-05
-0.000248475 -0.000741081 -1.86079e-05
4.82071e-05 -1.86079e-05 -0.000646544
0.000931884 -0.000499971 3.80444e-05
-0.000499971 -0.000435072 -4.85203e-06
3.80444e-05 -4.85203e-06 -0.000474434
0.00173759 -0.000685055 1.6642e-05
-0.000685055 7.497e-05 6.15926e-06
1.6642e-05 6.15926e-06 -8.34882e-05
0.000183167 -0.00041546 1.07945e-05
-0.00041546 -0.000258427 -1.40171e-05
1.07945e-05 -1.40171e-05 -0.000532993
0.0021593 -0.000239641 -2.61779e-06
-0.000239641 0.00114567 1.77558e-05
-2.61779e-06 1.77558e-05 0.000812531
0.000579824 -0.000102393 -1.41797e-06
-0.000102393 0.000132682 7.56796e-07
-1.41797e-06 7.56796e-07 -5.02548e-05
0.00045078 8.22759e-05 -6.43925e-07
8.22759e-05 1.22826e-05 -5.2266e-06
-6.43925e-07 -5.2266e-06 -0.000147389
0.000650335 -7.03473e-05 -6.9373e-07
-7.03473e-05 0.00014495 4.0997e-06
-6.9373e-07 4.0997e-06 -3.69493e-05
0.00126015 -0.000404455 3.64113e-08
-0.000404455 -0.000121373 -1.96962e-06
3.64113e-08 -1.96962e-06 -0.000276204
0.000685129 -3.09786e-05 1.42775e-07
-3.09786e-05 0.000168885 2.01348e-06
1.42775e-07 2.01348e-06 -1.34837e-05
0.00154627 -0.000167141 -1.95575e-07
-0.000167141 0.000773646 -9.5271e-07
-1.95575e-07 -9.5271e-07 0.000494124
0.00170738 -0.000540622 9.85435e-07
-0.000540622 0.000203668 3.01843e-06
9.85435e-07 3.01843e-06 0.000128931
0.00088371 -0.000378796 -1.41712e-05
-0.000378796 0.00027928 4.89115e-06
-1.41712e-05 4.89115e-06 -8.41258e-06
0.00125632 -0.000704404 -2.33934e-07
-0.000704404 -0.000159298 -2.43049e-05
-2.33934e-07 -2.43049e-05 -0.000181953
0.00138153 -0.000310479 -1.50178e-05
-0.000310479 0.00053988 1.33949e-05
-1.50178e-05 1.33949e-05 0.000414388
-0.000540875 -5.34609e-05 2.72476e-07
-5.34609e-05 -0.000333159 1.65511e-05
2.72476e-07 1.65511e-05 -0.000669005
0.000726215 1.26752e-05 -9.27883e-07
1.26752e-05 0.000160915 -3.75451e-06
-9.27883e-07 -3.75451e-06 -1.13445e-06
0.000788945 3.98819e-05 3.81065e-06
3.98819e-05 0.000315207 1.04612e-06
3.81065e-06 1.04612e-06 7.82461e-05
0.00175905 -3.78726e-05 -2.2858e-05
-3.78726e-05 0.00145363 -1.01664e-05
-2.2858e-05 -1.01664e-05 -0.000771367
-0.00343512 0.000162009 -0.000164158
0.000162009 0.00375833 -6.40023e-06
-0.000164158 -6.40023e-06 0.000880596
-0.0106832 -0.000883499 -0.000359101
-0.000883499 -0.0055626 -2.52586e-06
-0.000359101 -2.52586e-06 -0.00531841
-0.000313059 0.000111669 6.35891e-06
0.000111669 -0.00039512 -1.50193e-06
6.35891e-06 -1.50193e-06 -0.000558601
-0.000736202 0.000213197 3.09262e-07
0.000213197 -0.000575241 6.22988e-06
3.09262e-07 6.22988e-06 -0.000843867
0.00143482 0.000488992 2.59225e-05
0.000488992 0.000145204 8.8521e-06
2.59225e-05 8.8521e-06 0.00012033
-0.00432938 0.00072673 -1.35681e-05
0.00072673 0.00235975 2.57592e-05
-1.35681e-05 2.57592e-05 -0.000585142
0.00180203 0.00116804 -0.000111349
0.00116804 -4.46562e-05 -0.00011631
-0.000111349 -0.00011631 -0.00365214
0.00285076 0.00128195 0.000218012
0.00128195 0.000592554 5.56566e-05
0.000218012 5.56566e-05 0.000249713
-9.62011e-06 0.000404218 8.24522e-06
0.000404218 -0.000152973 -3.38345e-05
8.24522e-06 -3.38345e-05 -0.000233393
0.0144511 -0.00188789 -3.026e-05
-0.00188789 0.00421087 -0.000156086
-3.026e-05 -0.000156086 0.00349058
0.00433023 0.000542087 0.000205027
0.000542087 0.00217559 8.09117e-05
0.000205027 8.09117e-05 -0.00156706
0.0108193 -0.00130187 6.97851e-05
-0.00130187 0.00164655 2.16794e-05
6.97851e-05 2.16794e-05 0.0029502
0.000757604 0.000236803 2.46318e-06
0.000236803 0.000308617 -2.37051e-06
2.46318e-06 -2.37051e-06 0.000153177
0.00370137 0.000164872 1.1047e-05
0.000164872 0.00184251 6.0566e-06
1.1047e-05 6.0566e-06 6.37427e-05
0.00067856 0.000188952 2.40587e-05
0.000188952 4.41877e-05 1.02619e-05
2.40587e-05 1.02619e-05 -0.00153642
-0.000429029 0.000248511 -4.83109e-06
0.000248511 -0.00022313 -1.89664e-06
-4.83109e-06 -1.89664e-06 -0.000445663
0.00180675 0.000689862 -8.57633e-05
0.000689862 0.00109134 -4.06466e-05
-8.57633e-05 -4.06466e-05 0.000142491
0.00267936 0.00209267 9.97215e-05
0.00209267 0.00101316 6.56897e-05
9.97215e-05 6.56897e-05 -0.00245645
0.00667627 0.000190476 -1.20767e-05
0.000190476 -0.00281362 -0.000139615
-1.20767e-05 -0.000139615 -0.000227336
0.00273548 -0.00154879 -4.3911e-05
-0.00154879 0.000999629 -6.44261e-05
-4.3911e-05 -6.44261e-05 -0.00126872
0.000962025 0.000193279 -4.99109e-06
0.000193279 0.000632914 -1.3437e-05
-4.99109e-06 -1.3437e-05 0.000449418
-0.000263096 -2.96418e-05 -4.587e-07
-2.96418e-05 -6.45652e-05 -3.08658e-06
-4.587e-07 -3.08658e-06 8.07898e-06
0.00300596 2.91681e-05 4.07968e-05
2.91681e-05 0.000109657 -0.000104409
4.07968e-05 -0.000104409 -0.000965413
0.00520784 0.0010574 0.000113972
0.0010574 -0.0028396 -1.31466e-05
0.000113972 -1.31466e-05 -0.0016803
-0.00098744 0.000117285 3.45331e-06
0.000117285 -2.79134e-05 -2.10413e-05
3.45331e-06 -2.10413e-05 -0.00061212
0.0108972 0.00163697 0.000151494
0.00163697 0.00520766 5.18272e-05
0.000151494 5.18272e-05 0.00122629
-0.00798803 -0.000444946 7.74956e-05
-0.000444946 -0.000103838 0.00024408
7.74956e-05 0.00024408 -0.00237587
0.00246374 0.000283118 1.92938e-05
0.000283118 0.00127089 1.492e-05
1.92938e-05 1.492e-05 0.00111465
0.000803534 0.000158754 -5.43498e-06
0.000158754 0.000425824 -2.61832e-06
-5.43498e-06 -2.61832e-06 0.000196319
-0.000190641 7.18267e-05 -2.06882e-06
7.18267e-05 7.06276e-05 2.01755e-07
-2.06882e-06 2.01755e-07 -0.000183711
0.000712512 0.000141655 2.34224e-07
0.000141655 0.000137931 7.78415e-08
2.34224e-07 7.78415e-08 -1.07171e-05
0.000533968 6.33148e-05 1.19835e-06
6.33148e-05 3.00933e-05 2.25403e-06
1.19835e-06 2.25403e-06 -9.29265e-05
0.000483177 7.61612e-06 7.39135e-06
7.61612e-06 0.000278074 5.16302e-06
7.39135e-06 5.16302e-06 4.39431e-05
0.00063061 4.43628e-05 -2.16174e-07
4.43628e-05 8.07898e-05 -4.52915e-07
-2.16174e-07 -4.52915e-07 -5.16606e-05
0.000760361 -1.4842e-05 -2.23554e-06
-1.4842e-05 0.000358162 -2.26301e-06
-2.23554e-06 -2.26301e-06 0.0001722
-0.00041727 3.7569e-05 4.14601e-06
3.7569e-05 -4.82952e-05 5.40295e-06
4.14601e-06 5.40295e-06 -0.00036967
0.000540987 -2.66737e-07 -6.08452e-06
-2.66737e-07 0.000374741 -5.4546e-06
-6.08452e-06 -5.4546e-06 0.000204215
0.000229221 -3.89905e-05 -2.44326e-06
-3.89905e-05 2.00239e-05 -7.28654e-06
-2.44326e-06 -7.28654e-06 -0.000138033
0.00058801 -5.63866e-05 2.72231e-06
-5.63866e-05 5.12577e-05 4.49058e-06
2.72231e-06 4.49058e-06 -5.8251e-05
0.000814284 -9.6625e-06 -1.04056e-06
-9.6625e-06 0.000181778 -2.55971e-07
-1.04056e-06 -2.55971e-07 6.96278e-05
0.00108673 -3.86221e-05 -8.65823e-06
-3.86221e-05 0.00035173 5.93182e-06
-8.65823e-06 5.93182e-06 0.000256847
0.000682779 -5.30138e-05 4.34942e-06
-5.30138e-05 0.000177886 -5.59054e-07
4.34942e-06 -5.59054e-07 8.67052e-05
0.000561252 -2.90083e-05 -1.34343e-06
-2.90083e-05 1.9511e-05 2.03655e-08
-1.34343e-06 2.03655e-08 -8.07597e-05
0.000793782 -0.000103893 2.19656e-06
-0.000103893 0.00018965 -1.62398e-07
2.19656e-06 -1.62398e-07 8.63854e-05
0.000365013 -9.94903e-05 -3.01548e-06
-9.94903e-05 -0.000150971 -8.96407e-07
-3.01548e-06 -8.96407e-07 -0.00022959
-0.000456951 -0.000162481 7.4675e-06
-0.000162481 -0.000604449 3.31616e-06
7.4675e-06 3.31616e-06 -0.000792079
0.000801021 -0.00011307 6.05474e-07
-0.00011307 0.000142869 9.11185e-07
6.05474e-07 9.11185e-07 3.43104e-05
0.00122283 -0.0001937 -8.14422e-07
-0.0001937 0.000373581 3.44621e-06
-8.14422e-07 3.44621e-06 0.00021139
0.00106572 -0.000290098 -5.04992e-06
-0.000290098 0.000198386 5.20408e-06
-5.04992e-06 5.20408e-06 -4.50475e-05
0.000970606 -0.000256727 -5.17065e-06
-0.000256727 0.00013327 2.41989e-07
-5.17065e-06 2.41989e-07 -0.000104541
0.00104637 -0.000204455 -2.81716e-06
-0.000204455 0.000343434 6.04701e-06
-2.81716e-06 6.04701e-06 0.000150848
0.000314149 -0.000170521 2.72719e-06
-0.000170521 -0.000201494 -1.08246e-07
2.72719e-06 -1.08246e-07 -0.000417014
0.000896327 -8.84705e-05 1.00815e-06
-8.84705e-05 0.000239935 -8.75892e-07
1.00815e-06 -8.75892e-07 0.000103839
0.00106059 -0.000130275 -1.79473e-06
-0.000130275 0.000349559 -4.02525e-07
-1.79473e-06 -4.02525e-07 0.000199399
0.000414472 -0.00010984 5.19788e-06
-0.00010984 -4.97021e-05 -1.25943e-05
5.19788e-06 -1.25943e-05 -0.00020255
0.00100514 -4.29525e-05 3.6591e-07
-4.29525e-05 0.000272906 2.64989e-08
3.6591e-07 2.64989e-08 0.000160002
0.00042942 -2.11502e-05 4.39916e-07
-2.11502e-05 -3.92221e-05 -1.80698e-07
4.39916e-07 -1.80698e-07 -0.000153638
0.000615225 -1.84115e-05 -2.29694e-07
-1.84115e-05 4.77776e-05 1.02441e-06
-2.29694e-07 1.02441e-06 -4.56526e-05
0.000793515 -6.91907e-05 -4.17199e-07
-6.91907e-05 0.000186469 -1.58752e-07
-4.17199e-07 -1.58752e-07 6.18099e-05
0.000667291 -4.37468e-05 -8.0535e-08
-4.37468e-05 8.94687e-05 3.75811e-08
-8.0535e-08 3.75811e-08 -5.91112e-06
0.000571888 2.67743e-05 -5.94855e-08
2.67743e-05 1.0887e-05 2.35642e-06
-5.94855e-08 2.35642e-06 -5.35838e-05
0.000731541 -7.66724e-05 4.41434e-07
-7.66724e-05 0.000135424 -1.6356e-06
4.41434e-07 -1.6356e-06 3.71098e-05
0.000590798 1.84474e-05 -1.14482e-06
1.84474e-05 1.85318e-05 -8.3534e-08
-1.14482e-06 -8.3534e-08 -4.22298e-05
0.00134905 4.31784e-05 -8.95445e-06
4.31784e-05 0.0004553 3.9581e-06
-8.95445e-06 3.9581e-06 0.000439239
0.000631321 -3.204e-05 2.35014e-06
-3.204e-05 4.09161e-05 -2.57112e-06
2.35014e-06 -2.57112e-06 -1.74671e-05
0.000929684 2.56808e-05 -4.9785e-06
2.56808e-05 0.000199769 6.273e-07
-4.9785e-06 6.273e-07 0.000182861
0.000801302 3.26283e-05 -7.5233e-07
3.26283e-05 0.000124509 2.36481e-06
-7.5233e-07 2.36481e-06 0.000128348
0.000513542 1.12533e-05 7.94472e-07
1.12533e-05 -5.20832e-05 -4.39142e-06
7.94472e-07 -4.39142e-06 -7.00209e-05
0.00159696 3.55142e-05 8.51255e-06
3.55142e-05 0.000603373 -1.3469e-06
8.51255e-06 -1.3469e-06 0.000612628
0.00239298 3.16114e-05 8.16559e-06
3.16114e-05 0.00108297 -5.19155e-06
8.16559e-06 -5.19155e-06 0.00109706
0.000416342 7.86361e-06 1.03864e-06
7.86361e-06 -5.28915e-05 -2.75018e-07
1.03864e-06 -2.75018e-07 -0.000161072
0.000291453 7.21559e-06 5.8128e-09
7.21559e-06 -0.000160637 -3.17337e-06
5.8128e-09 -3.17337e-06 -0.000214264
0.000714358 2.59201e-05 5.93671e-09
2.59201e-05 0.000121313 1.27683e-07
5.93671e-09 1.27683e-07 2.82567e-05
0.00055472 -5.61856e-06 5.0699e-07
-5.61856e-06 -3.14808e-05 -3.5969e-06
5.0699e-07 -3.5969e-06 -4.11479e-05
0.000421292 1.21699e-06 1.26373e-06
1.21699e-06 -8.41165e-05 -5.8714e-08
1.26373e-06 -5.8714e-08 -0.000129519
0.000413651 -8.58685e-05 -1.60105e-06
-8.58685e-05 -5.70429e-05 5.63245e-07
-1.60105e-06 5.63245e-07 -0.000143362
0.00208246 -1.06198e-05 -6.97701e-06
-1.06198e-05 0.000892591 -4.76241e-06
-6.97701e-06 -4.76241e-06 0.00091112
0.000553436 -1.75966e-06 -1.00916e-07
-1.75966e-06 -3.25623e-05 -4.78047e-08
-1.00916e-07 -4.78047e-08 -4.04093e-05
0.000546454 -1.87733e-05 -1.83086e-06
-1.87733e-05 -8.33378e-06 1.8587e-06
-1.83086e-06 1.8587e-06 -4.88633e-05
0.00202727 4.21099e-06 -4.03989e-06
4.21099e-06 0.000859506 1.57249e-08
-4.03989e-06 1.57249e-08 0.000878493
0.000536098 2.6556e-06 -6.32983e-07
2.6556e-06 -4.27474e-05 3.21626e-06
-6.32983e-07 3.21626e-06 -4.98264e-05
0.00201181 1.86509e-05 -1.89266e-06
1.86509e-05 0.000851694 4.51211e-06
-1.89266e-06 4.51211e-06 0.000870241
0.000275652 -0.000254224 -0.000123856
-0.000254224 -0.00025506 3.27059e-05
-0.000123856 3.27059e-05 -0.00201697
0.00130577 0.000211488 -3.9865e-05
0.000211488 0.00418588 -4.34366e-06
-3.9865e-05 -4.34366e-06 0.00233104
0.0010626 -0.000340927 -0.000358608
-0.000340927 0.00234275 2.84595e-05
-0.000358608 2.84595e-05 0.00120932
0.000748707 9.02775e-05 2.40562e-06
9.02775e-05 0.000147239 1.11201e-06
2.40562e-06 1.11201e-06 1.0009e-05
0.00352512 -0.000337371 -1.93485e-05
-0.000337371 0.00249862 0.000115632
-1.93485e-05 0.000115632 0.000997562
0.00370821 -0.000601431 -0.000140315
-0.000601431 0.00137411 9.65661e-06
-0.000140315 9.65661e-06 -0.00198025
0.00339152 0.000968064 0.00024263
0.000968064 0.00410799 -0.000189307
0.00024263 -0.000189307 0.00242615
0.00467149 -0.000335742 4.38067e-05
-0.000335742 0.000467028 -3.74747e-05
4.38067e-05 -3.74747e-05 0.000224688
0.0120093 -0.000741583 0.000146247
-0.000741583 0.00262295 -7.23247e-05
0.000146247 -7.23247e-05 0.00101936
-0.000345585 0.00221094 -0.000207146
0.00221094 -0.00317409 0.00020158
-0.000207146 0.00020158 -0.00289491
0.00679598 0.00213613 3.66791e-05
0.00213613 0.000859976 6.77782e-05
3.66791e-05 6.77782e-05 5.42628e-05
0.00524527 -0.00100721 -9.99551e-05
-0.00100721 0.000208491 -2.37655e-06
-9.99551e-05 -2.37655e-06 -9.72719e-06
0.0122265 -0.00127676 5.5789e-05
-0.00127676 0.00407445 -1.68006e-05
5.5789e-05 -1.68006e-05 0.00189706
0.00759277 0.00140849 9.06461e-05
0.00140849 0.00095117 -0.000158727
9.06461e-05 -0.000158727 2.59103e-05
0.0068778 0.000939392 4.44845e-06
0.000939392 -0.0014775 1.38958e-05
4.44845e-06 1.38958e-05 -0.000574133
0.00271714 -0.00139134 1.01286e-05
-0.00139134 -0.00014289 1.12606e-05
1.01286e-05 1.12606e-05 -0.000786279
0.0116783 -0.00189587 0.000108946
-0.00189587 0.00531373 -5.92919e-05
0.000108946 -5.92919e-05 0.0015014
0.00436657 -7.79996e-05 8.92898e-05
-7.79996e-05 0.0010398 -0.000238028
8.92898e-05 -0.000238028 0.00011
0.00840135 0.000504133 -6.0451e-05
0.000504133 -0.00106741 0.000134825
-6.0451e-05 0.000134825 0.000997789
0.000781258 -2.17211e-05 2.29594e-06
-2.17211e-05 0.000206257 2.95922e-06
2.29594e-06 2.95922e-06 3.95643e-05
0.00086162 -7.4473e-05 -4.15593e-07
-7.4473e-05 0.000270917 -3.46166e-08
-4.15593e-07 -3.46166e-08 0.00010169
0.000775531 0.000109534 -2.30335e-07
0.000109534 0.000189424 -3.10451e-06
-2.30335e-07 -3.10451e-06 6.18417e-05
0.000717624 6.03402e-05 1.22187e-06
6.03402e-05 0.000117483 3.74161e-06
1.22187e-06 3.74161e-06 -1.65876e-05
0.000763777 0.000106001 -3.81825e-07
0.000106001 0.000185024 7.31256e-07
-3.81825e-07 7.31256e-07 2.97184e-05
0.000894397 6.44634e-05 -2.743e-06
6.44634e-05 0.000262757 -1.18549e-06
-2.743e-06 -1.18549e-06 0.000134291
0.00099939 0.000130643 -1.03055e-06
0.000130643 0.0003193 -7.23333e-08
-1.03055e-06 -7.23333e-08 0.000175683
0.000992865 0.000139427 6.89756e-07
0.000139427 0.000330967 2.09034e-06
6.89756e-07 2.09034e-06 0.000187662
0.000515913 -0.000303448 6.18762e-05
-0.000303448 -0.000581767 -2.5015e-05
6.18762e-05 -2.5015e-05 -0.00057603
0.00189761 -0.000563348 1.20917e-05
-0.000563348 0.000261218 -9.14711e-06
1.20917e-05 -9.14711e-06 0.000208032
0.000947583 -0.000191531 -8.49835e-07
-0.000191531 0.000330594 -6.23573e-06
-8.49835e-07 -6.23573e-06 0.000137244
0.00132176 -0.000450973 1.93727e-05
-0.000450973 0.000501413 -1.99929e-05
1.93727e-05 -1.99929e-05 0.000209845
0.00225714 -0.000248666 -6.43175e-06
-0.000248666 0.00117645 1.92903e-06
-6.43175e-06 1.92903e-06 0.000893945
0.00107 -8.75905e-05 -1.84837e-06
-8.75905e-05 0.000385915 -9.06508e-06
-1.84837e-06 -9.06508e-06 0.00020311
0.000446187 -1.84089e-05 1.02697e-06
-1.84089e-05 9.01744e-07 3.31496e-06
1.02697e-06 3.31496e-06 -0.000162745
0.000261491 -0.00062715 -3.83756e-06
-0.00062715 -0.000709742 -1.08531e-06
-3.83756e-06 -1.08531e-06 -0.000682131
0.00127347 4.3862e-05 2.0555e-07
4.3862e-05 0.000601684 6.62522e-07
2.0555e-07 6.62522e-07 0.000354194
0.000870895 -0.000188114 -9.1224e-06
-0.000188114 0.000411327 2.88475e-06
-9.1224e-06 2.88475e-06 0.00010707
0.000508022 -0.000233746 1.70123e-05
-0.000233746 3.18453e-05 2.53729e-06
1.70123e-05 2.53729e-06 -4.58494e-05
0.00113466 8.48842e-05 1.53062e-06
8.48842e-05 0.000375781 -1.94645e-06
1.53062e-06 -1.94645e-06 0.000237077
0.00119263 -0.000560423 1.39472e-05
-0.000560423 4.31877e-06 -3.81486e-05
1.39472e-05 -3.81486e-05 0.000112466
0.000194652 -0.000151869 5.86489e-06
-0.000151869 0.000133967 1.85966e-05
5.86489e-06 1.85966e-05 -1.03537e-05
-0.000463638 4.94827e-05 6.06807e-06
4.94827e-05 -0.000110718 6.61231e-06
6.06807e-06 6.61231e-06 -0.000557554
0.00131377 0.000203929 2.53015e-06
0.000203929 0.000565427 -3.96183e-06
2.53015e-06 -3.96183e-06 0.000382214
6.54708e-05 6.25089e-06 4.59929e-06
6.25089e-06 0.000769834 -7.34264e-06
4.59929e-06 -7.34264e-06 0.000137572
0.00116183 -4.12663e-05 9.38607e-05
-4.12663e-05 0.00112568 -1.51661e-05
9.38607e-05 -1.51661e-05 -0.00111519
-0.00661432 -8.68723e-05 -0.000168788
-8.68723e-05 0.00299828 9.779e-06
-0.000168788 9.779e-06 -0.000443165
0.00113628 0.000255018 1.46299e-05
0.000255018 0.000599542 4.62036e-06
1.46299e-05 4.62036e-06 0.000434406
-0.00148961 0.000311911 3.4276e-06
0.000311911 -0.000821848 9.65772e-06
3.4276e-06 9.65772e-06 -0.00112005
0.00444685 0.000161152 0.00012006
0.000161152 0.00234131 1.06018e-05
0.00012006 1.06018e-05 0.00104179
0.00769019 0.00124621 0.000180343
0.00124621 0.00343506 9.45237e-05
0.000180343 9.45237e-05 -0.000322728
0.00339179 0.00107044 -0.000106937
0.00107044 0.00173171 -8.76751e-05
-0.000106937 -8.76751e-05 0.000613373
0.00491266 -0.00106588 -4.43176e-05
-0.00106588 0.00193449 -0.000263011
-4.43176e-05 -0.000263011 1.63242e-05
0.00122037 0.000209312 6.33916e-05
0.000209312 0.000130505 0.00013622
6.33916e-05 0.00013622 -0.00143278
0.00481422 -7.89899e-05 -2.08466e-05
-7.89899e-05 -0.0045474 -0.000145463
-2.08466e-05 -0.000145463 -0.0015276
0.000767834 0.00021952 -6.49177e-07
0.00021952 0.00052175 -2.70135e-06
-6.49177e-07 -2.70135e-06 0.000318742
-0.000224489 -3.91843e-05 6.38599e-07
-3.91843e-05 -6.60025e-05 -8.32408e-07
6.38599e-07 -8.32408e-07 -2.89433e-05
0.00303213 6.13166e-05 4.84856e-05
6.13166e-05 0.000240019 1.95939e-05
4.84856e-05 1.95939e-05 -0.000379009
-0.00103904 0.00019569 -8.76397e-06
0.00019569 -0.000349983 -6.13975e-06
-8.76397e-06 -6.13975e-06 -0.000826753
0.00698583 0.00103407 -3.3753e-06
0.00103407 -0.00145966 -1.26642e-05
-3.3753e-06 -1.26642e-05 -0.000603997
0.00472492 0.00112555 0.000135998
0.00112555 0.00321088 7.275e-05
0.000135998 7.275e-05 -0.00101195
0.00396738 0.000513774 -9.16503e-05
0.000513774 0.00259655 6.37845e-06
-9.16503e-05 6.37845e-06 0.000931435
0.000206196 0.000218391 -1.23533e-05
0.000218391 0.000231146 -1.73634e-05
-1.23533e-05 -1.73634e-05 -6.51708e-05
0.00156828 8.51364e-05 1.25984e-05
8.51364e-05 -0.000305343 -1.68283e-05
1.25984e-05 -1.68283e-05 -4.56309e-05
0.00347753 -0.000286557 2.53887e-05
-0.000286557 0.00243178 -0.000119573
2.53887e-05 -0.000119573 0.000977345
0.00902595 0.00215087 0.000242562
0.00215087 0.00150637 -0.000159994
0.000242562 -0.000159994 0.00125341
0.00641309 -0.000144844 -9.86275e-05
-0.000144844 0.00176556 0.000238243
-9.86275e-05 0.000238243 0.000955204
0.000980617 0.000189051 4.01493e-06
0.000189051 0.000302078 -7.95952e-05
4.01493e-06 -7.95952e-05 0.000100752
-0.000394203 0.00119613 0.00014177
0.00119613 0.00300813 3.08501e-05
0.00014177 3.08501e-05 -0.00329031
0.00137383 0.000240397 3.72623e-06
0.000240397 0.000710825 1.95556e-05
3.72623e-06 1.95556e-05 0.000482444
0.000251417 0.000113513 2.66978e-06
0.000113513 0.000312766 8.64063e-07
2.66978e-06 8.64063e-07 5.62716e-05
0.000848217 -3.91388e-06 -9.79412e-06
-3.91388e-06 0.00070374 -1.07943e-05
-9.79412e-06 -1.07943e-05 0.000529992
0.000311568 -2.75823e-05 1.09121e-06
-2.75823e-05 -0.000122689 3.72717e-06
1.09121e-06 3.72717e-06 -0.00024152
0.000817583 -1.10725e-05 2.05255e-06
-1.10725e-05 0.000389587 4.20684e-06
2.05255e-06 4.20684e-06 0.000206204
0.000607498 -8.86011e-06 2.7102e-06
-8.86011e-06 0.000499057 -5.72982e-06
2.7102e-06 -5.72982e-06 0.000199403
0.000480305 -5.47299e-05 4.79295e-07
-5.47299e-05 0.000134288 -1.20205e-07
4.79295e-07 -1.20205e-07 8.94278e-07
2.61116e-05 -1.65046e-05 8.61401e-07
-1.65046e-05 7.82177e-05 1.94685e-06
8.61401e-07 1.94685e-06 -0.00010085
0.00136898 -0.000236488 6.94312e-06
-0.000236488 0.000764973 -1.10214e-05
6.94312e-06 -1.10214e-05 0.00056025
0.00132389 -7.40458e-05 -2.15448e-06
-7.40458e-05 0.0005404 4.46878e-06
-2.15448e-06 4.46878e-06 0.000450714
-5.82958e-05 -1.1505e-05 -5.86333e-07
-1.1505e-05 -0.000336738 1.80228e-06
-5.86333e-07 1.80228e-06 -0.000436817
0.00144598 -0.000170322 1.83826e-06
-0.000170322 0.000561175 2.0778e-06
1.83826e-06 2.0778e-06 0.000443947
-0.00103565 -0.000121016 5.98822e-06
-0.000121016 -0.000770495 2.27561e-06
5.98822e-06 2.27561e-06 -0.000999877
0.000301456 -7.98641e-05 -3.8566e-06
-7.98641e-05 -0.000147931 6.57681e-07
-3.8566e-06 6.57681e-07 -0.000209859
-6.10679e-05 -0.000177252 3.17795e-06
-0.000177252 -0.000383005 -1.1711e-06
3.17795e-06 -1.1711e-06 -0.000556033
0.00114767 -0.000332719 9.25058e-06
-0.000332719 0.000214586 -4.84047e-06
9.25058e-06 -4.84047e-06 -7.15143e-05
0.00136542 -0.000370996 -4.31969e-06
-0.000370996 0.00023305 2.50483e-06
-4.31969e-06 2.50483e-06 -5.32173e-05
0.00200097 -0.000277191 -1.37919e-06
-0.000277191 0.000823054 1.80945e-07
-1.37919e-06 1.80945e-07 0.000642156
0.0010526 -0.000289232 2.00931e-07
-0.000289232 0.000164418 3.06125e-07
2.00931e-07 3.06125e-07 -8.90658e-05
0.00235558 -0.00040655 2.83276e-06
-0.00040655 0.000912526 -1.59681e-06
2.83276e-06 -1.59681e-06 0.000660967
0.000182276 -0.000144103 -1.89446e-06
-0.000144103 -0.000234912 3.27353e-06
-1.89446e-06 3.27353e-06 -0.000444365
0.00103083 -0.000257768 -5.63066e-07
-0.000257768 0.000176959 -4.17564e-07
-5.63066e-07 -4.17564e-07 -5.77835e-05
0.000500687 -7.95805e-05 2.32908e-07
-7.95805e-05 1.78413e-05 -1.5925e-06
2.32908e-07 -1.5925e-06 -0.0001433
0.00105563 -0.00021988 -4.35709e-06
-0.00021988 0.000353624 2.57197e-06
-4.35709e-06 2.57197e-06 0.000155111
-0.00057672 -7.59851e-05 -2.35199e-06
-7.59851e-05 -0.000724223 -4.44742e-06
-2.35199e-06 -4.44742e-06 -0.00092051
0.000493665 -2.4126e-06 9.36766e-07
-2.4126e-06 -1.69791e-05 1.38804e-06
9.36766e-07 1.38804e-06 -0.000125134
0.000650882 -7.04592e-05 4.10154e-07
-7.04592e-05 0.000103904 -1.71918e-09
4.10154e-07 -1.71918e-09 -3.26479e-05
0.000748456 -0.000122696 4.85325e-06
-0.000122696 0.000176473 -3.00808e-06
4.85325e-06 -3.00808e-06 2.01279e-05
0.000607899 -3.22703e-05 3.26899e-07
-3.22703e-05 6.8638e-05 -3.39647e-07
3.26899e-07 -3.39647e-07 -4.84717e-05
0.000685908 -2.98007e-05 -6.46088e-07
-2.98007e-05 0.000101087 -7.71987e-08
-6.46088e-07 -7.71987e-08 -1.3392e-06
0.000548188 3.08022e-05 7.29202e-08
3.08022e-05 -2.98551e-06 3.04262e-06
7.29202e-08 3.04262e-06 -7.26349e-05
0.000771136 -5.6835e-05 3.02672e-07
-5.6835e-05 0.000159756 -1.09755e-06
3.02672e-07 -1.09755e-06 5.72172e-05
0.000593515 2.3767e-05 -1.03891e-06
2.3767e-05 2.22431e-05 -1.82746e-07
-1.03891e-06 -1.82746e-07 -4.17129e-05
0.000526705 3.9898e-05 -9.21361e-07
3.9898e-05 -3.55696e-05 4.60918e-06
-9.21361e-07 4.60918e-06 -5.8017e-05
0.000668388 -2.40023e-05 2.14434e-06
-2.40023e-05 6.02974e-05 -2.41881e-06
2.14434e-06 -2.41881e-06 1.87147e-06
0.000534778 2.94943e-05 1.86124e-07
2.94943e-05 -3.73579e-05 -2.61508e-10
1.86124e-07 -2.61508e-10 -5.72907e-05
0.00233038 7.95002e-05 -3.76177e-06
7.95002e-05 0.0010551 2.04361e-06
-3.76177e-06 2.04361e-06 0.00106376
0.000514324 2.10399e-05 9.23994e-07
2.10399e-05 -5.14622e-05 -4.53272e-06
9.23994e-07 -4.53272e-06 -7.04326e-05
0.00160878 4.76092e-05 1.00952e-05
4.76092e-05 0.000613712 -1.14168e-06
1.00952e-05 -1.14168e-06 0.000621388
0.00241241 4.65915e-05 1.32292e-05
4.65915e-05 0.00109692 -5.05529e-06
1.32292e-05 -5.05529e-06 0.00110978
0.000363212 7.11695e-06 8.64495e-07
7.11695e-06 -9.97732e-05 -1.59614e-06
8.64495e-07 -1.59614e-06 -0.000202764
0.000312527 2.94633e-06 3.5249e-07
2.94633e-06 -0.000150566 -2.76067e-06
3.5249e-07 -2.76067e-06 -0.000211713
0.000547658 1.85154e-05 -4.53346e-07
1.85154e-05 2.49634e-05 -1.12482e-06
-4.53346e-07 -1.12482e-06 -8.01157e-05
0.000560031 -1.09492e-05 8.04133e-07
-1.09492e-05 -2.73425e-05 -3.87944e-06
8.04133e-07 -3.87944e-06 -3.97202e-05
0.000276042 5.90212e-06 -5.0269e-07
5.90212e-06 -0.000170367 -1.34495e-06
-5.0269e-07 -1.34495e-06 -0.000225051
0.0007157 3.51806e-05 -3.23466e-07
3.51806e-05 0.000131405 1.41605e-06
-3.23466e-07 1.41605e-06 3.25353e-05
0.00212667 -2.38332e-05 -1.19242e-05
-2.38332e-05 0.000919719 -4.68705e-06
-1.19242e-05 -4.68705e-06 0.000937435
0.000549986 -6.31324e-06 -2.69393e-07
-6.31324e-06 -3.45014e-05 -5.25153e-08
-2.69393e-07 -5.25153e-08 -4.39769e-05
0.00023807 5.78415e-06 7.91397e-07
5.78415e-06 -0.000192264 1.69216e-06
7.91397e-07 1.69216e-06 -0.000240508
0.00205407 -9.09448e-06 -3.73672e-06
-9.09448e-06 0.000875212 4.47714e-08
-3.73672e-06 4.47714e-08 0.00089401
0.000544007 -1.91024e-06 -6.36445e-07
-1.91024e-06 -3.84366e-05 3.41741e-06
-6.36445e-07 3.41741e-06 -4.61185e-05
0.00204813 5.70043e-06 2.80339e-06
5.70043e-06 0.000872313 4.65619e-06
2.80339e-06 4.65619e-06 0.000891123
0.000641759 -4.92462e-06 2.52409e-05
-4.92462e-06 0.000583843 5.47406e-06
2.52409e-05 5.47406e-06 0.000512198
0.000529205 -0.000172549 -6.61344e-06
-0.000172549 7.86861e-05 -1.42322e-05
-6.61344e-06 -1.42322e-05 -0.00189011
0.00122975 0.000117791 3.01433e-05
0.000117791 0.00413374 -2.60566e-05
3.01433e-05 -2.60566e-05 0.00246951
0.000741138 9.72439e-05 -1.1632e-07
9.72439e-05 0.000135284 3.63098e-07
-1.1632e-07 3.63098e-07 6.59717e-06
0.000533998 6.77965e-05 2.21515e-06
6.77965e-05 -4.52716e-06 -7.71455e-08
2.21515e-06 -7.71455e-08 -0.000124764
0.00096481 0.000138897 3.37583e-06
0.000138897 0.000269308 3.21272e-06
3.37583e-06 3.21272e-06 0.000131575
0.00311378 -6.08016e-05 8.53564e-07
-6.08016e-05 -5.85295e-05 0.000183522
8.53564e-07 0.000183522 -0.000894054
0.00350381 -0.000300221 2.46929e-05
-0.000300221 0.00242562 -6.5083e-06
2.46929e-05 -6.5083e-06 0.00115731
0.0041497 -0.00066979 7.31225e-05
-0.00066979 0.00169481 -0.000137832
7.31225e-05 -0.000137832 -0.00183074
0.00663194 -0.00125063 -8.49921e-05
-0.00125063 0.000832659 -8.67317e-06
-8.49921e-05 -8.67317e-06 0.000681608
0.00207823 -0.00122693 -0.000161147
-0.00122693 -0.000364775 9.28092e-05
-0.000161147 9.28092e-05 -0.00306833
0.0136593 0.00199426 0.000120989
0.00199426 0.00494979 5.52098e-05
0.000120989 5.52098e-05 0.00372462
0.00366593 0.000251205 0.000105517
0.000251205 -0.00316128 -0.000122146
0.000105517 -0.000122146 -0.00258609
0.00534118 -0.00165942 -2.29228e-05
-0.00165942 0.00109534 6.96456e-06
-2.29228e-05 6.96456e-06 0.000588234
0.00665229 -0.00158576 -4.11471e-05
-0.00158576 0.0029898 2.36739e-05
-4.11471e-05 2.36739e-05 -0.000625099
-0.00323302 0.00163068 -4.55877e-05
0.00163068 0.000627224 -0.000163459
-4.55877e-05 -0.000163459 -0.0018643
0.00657347 0.000157703 -2.37722e-05
0.000157703 -0.00284556 6.89816e-05
-2.37722e-05 6.89816e-05 -0.000255803
0.00115246 -0.000914479 -4.75351e-05
-0.000914479 0.000109571 -9.93292e-06
-4.75351e-05 -9.93292e-06 -0.000359605
0.0115274 -0.00178158 -0.000100324
-0.00178158 0.00514193 7.66131e-05
-0.000100324 7.66131e-05 0.00114594
-0.00804952 -0.000107536 3.74306e-05
-0.000107536 0.000160485 -0.000229977
3.74306e-05 -0.000229977 -0.00241464
0.00538837 -0.00106997 5.1337e-05
-0.00106997 -0.00198031 -3.626e-06
5.1337e-05 -3.626e-06 -0.000929088
0.000615492 6.55988e-05 1.79227e-06
6.55988e-05 6.63992e-05 9.11463e-06
1.79227e-06 9.11463e-06 -7.56683e-05
0.000706883 -9.20008e-06 1.4151e-06
-9.20008e-06 0.000158832 -1.17951e-06
1.4151e-06 -1.17951e-06 -1.23012e-05
0.000845071 -9.42824e-05 1.6412e-07
-9.42824e-05 0.00024553 -3.85713e-06
1.6412e-07 -3.85713e-06 7.72612e-05
0.00071176 7.88253e-05 -1.01206e-06
7.88253e-05 0.000114446 -3.16902e-07
-1.01206e-06 -3.16902e-07 -2.27565e-05
0.000765578 0.000119333 4.50651e-07
0.000119333 0.000189222 -1.61524e-06
4.50651e-07 -1.61524e-06 4.02385e-05
0.00110127 0.000142649 -2.67367e-06
0.000142649 0.000384759 -1.4581e-06
-2.67367e-06 -1.4581e-06 0.000238023
-0.000272353 -0.000588475 1.95731e-05
-0.000588475 -0.0010159 8.84059e-06
1.95731e-05 8.84059e-06 -0.00100696
-0.0011557 -0.00016712 1.80651e-05
-0.00016712 -0.000912642 -1.42159e-05
1.80651e-05 -1.42159e-05 -0.000944127
0.000342547 3.45614e-05 -2.27509e-06
3.45614e-05 -5.58137e-05 -3.76307e-06
-2.27509e-06 -3.76307e-06 -0.000226253
0.00155227 -0.000300773 4.08045e-05
-0.000300773 0.000746275 -2.89002e-05
4.08045e-05 -2.89002e-05 0.000458912
0.00149028 2.76423e-06 -4.76025e-06
2.76423e-06 0.000719877 -5.01835e-06
-4.76025e-06 -5.01835e-06 0.000475909
0.000562365 6.2744e-05 2.81931e-07
6.2744e-05 5.03047e-05 2.40662e-06
2.81931e-07 2.40662e-06 -9.34769e-05
0.000679228 0.000127403 4.50645e-07
0.000127403 0.000190329 -1.75314e-06
4.50645e-07 -1.75314e-06 2.50044e-05
0.000333858 -0.000594455 -8.95242e-07
-0.000594455 -0.000430967 -5.25968e-06
-8.95242e-07 -5.25968e-06 -0.000483235
0.000704192 -1.15083e-05 -1.31269e-06
-1.15083e-05 0.000477002 5.36227e-07
-1.31269e-06 5.36227e-07 0.000131759
6.17089e-05 -0.000131283 9.94083e-07
-0.000131283 0.000121134 -3.02478e-06
9.94083e-07 -3.02478e-06 -6.91892e-05
0.00096912 0.000109616 3.37268e-06
0.000109616 0.000312289 -8.86823e-06
3.37268e-06 -8.86823e-06 0.000185448
-0.00221201 -4.3443e-05 -5.16074e-05
-4.3443e-05 -0.000765586 -1.9451e-05
-5.16074e-05 -1.9451e-05 -0.00128107
-0.000310903 4.82317e-06 1.8649e-05
4.82317e-06 -6.16e-05 1.85178e-05
1.8649e-05 1.85178e-05 -0.000243227
0.00117019 3.38935e-05 8.45568e-06
3.38935e-05 0.000689535 3.52306e-06
8.45568e-06 3.52306e-06 0.000419176
0.000668212 -1.84034e-06 -1.37944e-06
-1.84034e-06 -0.00030009 1.14589e-06
-1.37944e-06 1.14589e-06 -0.000757711
-0.00017045 8.16111e-06 -9.8393e-06
8.16111e-06 0.000508112 -1.39099e-05
-9.8393e-06 -1.39099e-05 -4.53738e-06
0.000424747 -4.45489e-05 0.000205271
-4.45489e-05 0.00077431 -6.53637e-06
0.000205271 -6.53637e-06 -0.0015255
0.000205807 0.000206918 5.17892e-06
0.000206918 0.000193834 1.75169e-05
5.17892e-06 1.75169e-05 -2.97692e-05
0.00091912 0.000478665 5.38111e-06
0.000478665 0.000215405 -1.10258e-05
5.38111e-06 -1.10258e-05 -0.000143109
-0.000211 -4.4037e-05 1.14199e-05
-4.4037e-05 -9.4431e-05 3.83521e-07
1.14199e-05 3.83521e-07 -9.90126e-05
-0.00321256 0.000595096 4.43141e-05
0.000595096 0.000656341 8.90607e-05
4.43141e-05 8.90607e-05 -0.00351792
-0.00928896 0.000705349 -0.000107617
0.000705349 -0.00356887 -0.000289408
-0.000107617 -0.000289408 -0.00609864
0.00288388 7.65345e-05 4.3674e-05
7.65345e-05 0.000365214 7.5379e-05
4.3674e-05 7.5379e-05 0.000100646
0.00371448 0.000327002 -0.000109392
0.000327002 -0.00307312 0.000123142
-0.000109392 0.000123142 -0.00256243
0.0005594 0.00020749 5.60862e-06
0.00020749 0.000435326 -9.9801e-07
5.60862e-06 -9.9801e-07 0.000181439
0.00133951 1.50334e-05 1.71896e-05
1.50334e-05 -0.00042828 -2.82974e-05
1.71896e-05 -2.82974e-05 -0.000140763
0.00349279 -0.000224006 -2.41766e-05
-0.000224006 0.00239929 6.24467e-06
-2.41766e-05 6.24467e-06 0.00113367
0.000958241 0.000282744 -6.1877e-05
0.000282744 0.000689383 -4.91085e-06
-6.1877e-05 -4.91085e-06 -7.46595e-05
0.00566943 0.0020933 7.29499e-05
0.0020933 -0.000640154 -0.0002106
7.29499e-05 -0.0002106 -0.000876821
-0.00256405 0.00141773 4.40297e-05
0.00141773 0.000166294 0.000160478
4.40297e-05 0.000160478 -0.00192832
0.00724833 0.000159965 5.58188e-05
0.000159965 0.00601721 -2.59447e-05
5.58188e-05 -2.59447e-05 0.00031042
0.00144477 -5.50507e-05 5.3572e-05
-5.50507e-05 0.00137216 -2.08902e-05
5.3572e-05 -2.08902e-05 0.000808743
0.000702277 1.81943e-05 -2.54965e-05
1.81943e-05 0.000582084 -2.20051e-06
-2.54965e-05 -2.20051e-06 0.000509544
0.00320414 -0.000478092 0.000356921
-0.000478092 0.00104695 -0.000187247
0.000356921 -0.000187247 -0.00220533
0.00705335 0.0027543 4.70233e-06
0.0027543 0.00540187 -5.06389e-06
4.70233e-06 -5.06389e-06 0.00535083
-0.00260679 0.00159592 2.37753e-05
0.00159592 -0.00337789 0.000406685
2.37753e-05 0.000406685 -0.00404874
0.0130304 -0.00175621 0.000141314
-0.00175621 0.00547933 -0.000128715
0.000141314 -0.000128715 0.00136321
0.00307068 -0.000503996 -6.27055e-05
-0.000503996 0.00151506 6.54788e-05
-6.27055e-05 6.54788e-05 0.00106853
0.00110337 0.00017982 8.61381e-06
0.00017982 0.000786358 4.70806e-06
8.61381e-06 4.70806e-06 0.000529312
0.000216443 -3.5125e-06 -2.56932e-05
-3.5125e-06 0.000295316 8.57513e-07
-2.56932e-05 8.57513e-07 0.000110702
0.00146387 -0.00031659 2.34996e-05
-0.00031659 0.000945676 -8.63277e-06
2.34996e-05 -8.63277e-06 0.000614203
0.000787009 -7.91095e-05 1.22529e-06
-7.91095e-05 0.000287563 3.0278e-06
1.22529e-06 3.0278e-06 0.000175691
-2.48368e-05 -3.98996e-05 -8.34941e-07
-3.98996e-05 4.73235e-05 2.88887e-06
-8.34941e-07 2.88887e-06 -0.000141172
0.000508851 -0.000217214 -1.19923e-06
-0.000217214 0.000328732 -7.99633e-07
-1.19923e-06 -7.99633e-07 0.000127314
0.00152095 -0.000377361 2.53291e-05
-0.000377361 0.000701721 -1.90611e-05
2.53291e-05 -1.90611e-05 0.000477484
0.00215085 -0.000238287 -5.34468e-06
-0.000238287 0.00096328 4.07085e-06
-5.34468e-06 4.07085e-06 0.000829694
0.00187441 -0.00040414 6.03891e-06
-0.00040414 0.000789455 -9.46365e-07
6.03891e-06 -9.46365e-07 0.000532859
0.00149703 -0.000395183 1.324e-05
-0.000395183 0.000584011 1.82174e-06
1.324e-05 1.82174e-06 0.000158251
0.000355507 -0.000180273 -2.63936e-06
-0.000180273 -0.000153487 -1.75621e-06
-2.63936e-06 -1.75621e-06 -0.000307138
0.00145378 -0.000360622 -2.46375e-06
-0.000360622 0.000361879 1.16294e-06
-2.46375e-06 1.16294e-06 6.95388e-05
0.00183814 -0.000473548 -1.03251e-06
-0.000473548 0.000522675 1.71495e-06
-1.03251e-06 1.71495e-06 0.000140058
0.00167426 -0.000485299 -3.93359e-06
-0.000485299 0.000318874 2.89301e-06
-3.93359e-06 2.89301e-06 -8.36904e-06
0.00125506 -0.000345631 -1.02602e-06
-0.000345631 0.000197207 3.40208e-06
-1.02602e-06 3.40208e-06 -6.64175e-05
0.00136706 -0.000373935 -2.73021e-06
-0.000373935 0.000233432 1.50889e-06
-2.73021e-06 1.50889e-06 -5.73452e-05
0.00115239 -0.000300569 -6.54257e-06
-0.000300569 0.000193105 1.90531e-06
-6.54257e-06 1.90531e-06 -7.22372e-05
0.00211402 -0.000371543 5.41039e-06
-0.000371543 0.000808446 -1.33132e-06
5.41039e-06 -1.33132e-06 0.000565544
0.00158134 -0.000330316 3.12174e-06
-0.000330316 0.000455497 -2.79592e-06
3.12174e-06 -2.79592e-06 0.00022172
-3.7024e-05 -7.34316e-05 1.35414e-06
-7.34316e-05 -0.000342839 1.34166e-06
1.35414e-06 1.34166e-06 -0.000527987
0.00082284 -0.000212961 2.25675e-06
-0.000212961 0.000155607 -1.47801e-06
2.25675e-06 -1.47801e-06 -6.45146e-05
0.00118628 -0.000268433 6.18284e-06
-0.000268433 0.000277504 -5.42327e-06
6.18284e-06 -5.42327e-06 4.4381e-05
0.000172322 -2.73262e-06 8.23716e-07
-2.73262e-06 -0.000196814 1.79255e-06
8.23716e-07 1.79255e-06 -0.000333217
0.000931976 -0.000124276 -5.46988e-07
-0.000124276 0.000280992 1.18943e-07
-5.46988e-07 1.18943e-07 0.000109662
0.00102173 -0.000229077 -1.07319e-06
-0.000229077 0.000338469 -1.62752e-06
-1.07319e-06 -1.62752e-06 0.000136127
0.000636268 1.04989e-05 -9.4689e-07
1.04989e-05 5.01678e-05 3.46577e-06
-9.4689e-07 3.46577e-06 -2.66421e-05
0.000755643 -4.2054e-05 -3.24744e-07
-4.2054e-05 0.000138292 -3.07338e-07
-3.24744e-07 -3.07338e-07 2.64381e-05
0.00043581 -5.14566e-05 3.30831e-07
-5.14566e-05 -1.47228e-05 4.98593e-07
3.30831e-07 4.98593e-07 -0.000151433
0.000747156 -4.89478e-05 3.11685e-07
-4.89478e-05 0.000141303 -1.33885e-06
3.11685e-07 -1.33885e-06 3.45775e-05
0.000626316 -5.78026e-06 -2.33779e-07
-5.78026e-06 3.84139e-05 -2.28146e-07
-2.33779e-07 -2.28146e-07 -2.88964e-05
0.000519993 4.89918e-05 6.96543e-08
4.89918e-05 -3.08405e-05 5.34871e-06
6.96543e-08 5.34871e-06 -5.73103e-05
0.000636654 -1.44561e-05 1.64245e-06
-1.44561e-05 4.26591e-05 -2.42154e-06
1.64245e-06 -2.42154e-06 -1.86996e-05
0.000539211 4.26283e-05 -4.32095e-07
4.26283e-05 -2.75851e-05 -6.72189e-08
-4.32095e-07 -6.72189e-08 -5.05213e-05
0.00239816 8.75148e-05 -2.61368e-05
8.75148e-05 0.00110335 4.00154e-06
-2.61368e-05 4.00154e-06 0.00111064
0.000533341 3.04536e-05 9.90522e-07
3.04536e-05 -3.80627e-05 -4.49773e-06
9.90522e-07 -4.49773e-06 -5.81235e-05
0.00158886 5.99627e-05 1.21202e-05
5.99627e-05 0.000606968 -9.59741e-07
1.21202e-05 -9.59741e-07 0.000612833
0.00243045 6.20992e-05 1.73277e-05
6.20992e-05 0.00111181 -4.72071e-06
1.73277e-05 -4.72071e-06 0.00112297
0.000697394 7.05835e-05 9.67872e-07
7.05835e-05 0.00010793 -8.36514e-07
9.67872e-07 -8.36514e-07 -3.20162e-06
0.000598557 2.98943e-05 1.10162e-08
2.98943e-05 1.92847e-05 -2.38534e-06
1.10162e-08 -2.38534e-06 -4.50128e-05
0.000537456 4.19554e-05 -1.18863e-06
4.19554e-05 1.72751e-05 -1.19283e-06
-1.18863e-06 -1.19283e-06 -9.41791e-05
0.000544412 -1.45878e-05 6.44647e-07
-1.45878e-05 -3.55585e-05 -4.40942e-06
6.44647e-07 -4.40942e-06 -5.13905e-05
0.000419045 2.17551e-05 -1.63317e-06
2.17551e-05 -8.60236e-05 -1.34436e-06
-1.63317e-06 -1.34436e-06 -0.000146074
0.000748581 4.85233e-05 -5.33278e-07
4.85233e-05 0.000145777 -1.06481e-06
-5.33278e-07 -1.06481e-06 4.16087e-05
0.00222477 -3.81561e-05 -1.66444e-05
-3.81561e-05 0.000980383 -4.66249e-06
-1.66444e-05 -4.66249e-06 0.000996464
0.000544456 -1.13093e-05 -1.73205e-07
-1.13093e-05 -3.70521e-05 -8.35427e-08
-1.73205e-07 -8.35427e-08 -4.91543e-05
0.000219553 4.68566e-06 -1.01405e-06
4.68566e-06 -0.000204569 6.50072e-07
-1.01405e-06 6.50072e-07 -0.000260089
0.00213883 -2.27434e-05 -4.31575e-06
-2.27434e-05 0.00092686 1.00434e-07
-4.31575e-06 1.00434e-07 0.000944668
0.000544693 -7.26953e-06 -8.46902e-07
-7.26953e-06 -3.77801e-05 3.44699e-06
-8.46902e-07 3.44699e-06 -4.71117e-05
0.00207453 -7.61388e-06 7.55723e-06
-7.61388e-06 0.000887413 4.71373e-06
7.55723e-06 4.71373e-06 0.000906188
0.00142889 -5.58396e-05 -1.70055e-05
-5.58396e-05 -0.000320621 2.04003e-05
-1.70055e-05 2.04003e-05 -8.68823e-05
0.000620671 -5.64175e-05 1.59581e-05
-5.64175e-05 0.000534295 -1.55377e-06
1.59581e-05 -1.55377e-06 0.000473925
0.000833214 -0.000161946 0.000119088
-0.000161946 0.000264596 -4.29325e-05
0.000119088 -4.29325e-05 -0.00170989
0.000500254 3.01221e-05 1.32054e-06
3.01221e-05 -3.74204e-05 -8.1189e-08
1.32054e-06 -8.1189e-08 -0.000151629
0.00102158 6.78521e-05 -3.95656e-07
6.78521e-05 0.000265895 1.47325e-06
-3.95656e-07 1.47325e-06 0.000136892
0.000784201 0.00010752 -7.06489e-07
0.00010752 0.000160401 -4.00345e-07
-7.06489e-07 -4.00345e-07 3.57113e-05
0.000554297 5.25974e-05 2.67196e-07
5.25974e-05 -4.22924e-07 3.72288e-07
2.67196e-07 3.72288e-07 -0.000114519
0.000664347 6.94368e-05 1.50511e-07
6.94368e-05 8.49013e-05 2.83935e-07
1.50511e-07 2.83935e-07 -4.42944e-05
0.00062724 6.31307e-05 1.85122e-06
6.31307e-05 5.3532e-05 -1.15421e-06
1.85122e-06 -1.15421e-06 -6.83784e-05
0.000655169 0.000155415 4.87703e-06
0.000155415 0.00010725 3.84739e-06
4.87703e-06 3.84739e-06 -4.13146e-05
0.000141453 0.000121651 6.72597e-05
0.000121651 -0.000174783 0.000180136
6.72597e-05 0.000180136 -0.00151268
0.00288499 -3.99488e-05 -1.40581e-05
-3.99488e-05 0.000239698 5.33276e-05
-1.40581e-05 5.33276e-05 -0.000414773
0.00340756 -0.000223693 4.64573e-05
-0.000223693 0.00233816 -7.25801e-05
4.64573e-05 -7.25801e-05 0.00130877
0.00473937 -0.000127233 -7.86255e-06
-0.000127233 -0.00465867 7.70558e-05
-7.86255e-06 7.70558e-05 -0.00148322
0.00306164 -0.0013633 -9.27621e-05
-0.0013633 0.000920192 6.83425e-05
-9.27621e-05 6.83425e-05 0.000210678
-0.00189566 -0.00169122 -4.47341e-05
-0.00169122 -3.44132e-05 9.13709e-05
-4.47341e-05 9.13709e-05 -0.00426785
0.00996168 0.00221263 8.28235e-05
0.00221263 0.00513227 -7.44475e-05
8.28235e-05 -7.44475e-05 0.00280622
0.00311101 -0.00121546 -3.02823e-05
-0.00121546 0.000738934 6.86782e-06
-3.02823e-05 6.86782e-06 0.00039214
-0.000823924 -0.000532785 2.18373e-05
-0.000532785 0.00184264 3.29499e-05
2.18373e-05 3.29499e-05 -0.00305577
0.00494058 0.000225981 4.28572e-05
0.000225981 0.00258512 -1.21883e-05
4.28572e-05 -1.21883e-05 0.000868263
0.0104686 -0.00148111 -3.4427e-05
-0.00148111 0.00137398 -3.70428e-05
-3.4427e-05 -3.70428e-05 0.00263977
-0.000562349 -0.000144142 -0.000113582
-0.000144142 -0.000754716 8.13257e-05
-0.000113582 8.13257e-05 -0.000504607
0.00106613 0.00155434 -7.6574e-05
0.00155434 0.00240501 -8.29486e-05
-7.6574e-05 -8.29486e-05 -0.00257154
-0.00601181 -0.00247034 5.12986e-05
-0.00247034 -0.00314594 -0.000159626
5.12986e-05 -0.000159626 -0.00569332
0.00679726 -0.0015474 6.65981e-05
-0.0015474 0.000111321 -0.000312733
6.65981e-05 -0.000312733 0.000623244
0.000958273 2.81444e-05 6.68052e-06
2.81444e-05 0.000292963 9.04762e-07
6.68052e-06 9.04762e-07 0.000163885
0.000638866 8.52309e-05 -3.61298e-07
8.52309e-05 8.7461e-05 -1.16955e-06
-3.61298e-07 -1.16955e-06 -5.49807e-05
0.00080248 -1.28467e-05 4.23921e-08
-1.28467e-05 0.000229491 -2.96767e-06
4.23921e-08 -2.96767e-06 4.40637e-05
0.000827864 7.02421e-05 -1.96858e-06
7.02421e-05 0.000198089 -5.28589e-06
-1.96858e-06 -5.28589e-06 4.84945e-05
0.000485525 -0.000486942 -5.89904e-06
-0.000486942 -0.000327724 3.57804e-05
-5.89904e-06 3.57804e-05 -0.000437713
0.000927491 -0.000117324 -1.81547e-05
-0.000117324 0.000692978 -1.92351e-05
-1.81547e-05 -1.92351e-05 0.000458229
0.000743474 5.1151e-05 -3.60454e-06
5.1151e-05 0.000137158 -5.69909e-06
-3.60454e-06 -5.69909e-06 1.34821e-05
0.000705428 0.000173193 -1.30004e-06
0.000173193 0.000217402 3.62682e-06
-1.30004e-06 3.62682e-06 4.72167e-05
0.00239465 -1.29591e-06 5.71403e-06
-1.29591e-06 0.00136833 -1.81883e-05
5.71403e-06 -1.81883e-05 0.00111698
0.000960135 7.87351e-05 3.83741e-06
7.87351e-05 0.000291294 3.67504e-06
3.83741e-06 3.67504e-06 0.000175996
0.000580905 0.000123608 -2.3838e-06
0.000123608 0.000380903 -9.97209e-07
-2.3838e-06 -9.97209e-07 8.18223e-05
0.000732974 -0.000126127 7.69613e-06
-0.000126127 0.00070635 -5.29806e-06
7.69613e-06 -5.29806e-06 6.59298e-05
0.000110424 1.00883e-05 2.31769e-05
1.00883e-05 0.000237887 -1.78444e-06
2.31769e-05 -1.78444e-06 4.11488e-05
0.000798288 0.000142749 6.30807e-07
0.000142749 0.000438333 -5.38871e-06
6.30807e-07 -5.38871e-06 0.000238113
-0.000267978 -3.47257e-05 -3.22122e-05
-3.47257e-05 0.000715389 -4.34415e-05
-3.22122e-05 -4.34415e-05 -0.000595379
0.00330428 0.000176293 2.11417e-05
0.000176293 0.00190457 2.25168e-05
2.11417e-05 2.25168e-05 0.00162602
4.98083e-05 2.11839e-05 -1.07267e-05
2.11839e-05 0.000798843 1.46895e-05
-1.07267e-05 1.46895e-05 0.000133791
0.001193 -2.20372e-05 1.45176e-07
-2.20372e-05 -5.76103e-05 4.96273e-07
1.45176e-07 4.96273e-07 -0.000180451
-0.00034854 4.20567e-06 4.03025e-06
4.20567e-06 0.00024023 -2.24137e-05
4.03025e-06 -2.24137e-05 -0.000122167
7.67848e-05 0.000125087 -2.81071e-06
0.000125087 0.000232123 6.11608e-06
-2.81071e-06 6.11608e-06 2.59996e-05
-0.00125445 0.000377748 6.8949e-05
0.000377748 -0.000817183 5.86416e-05
6.8949e-05 5.86416e-05 -0.00115687
0.00117092 -1.78186e-05 2.33784e-05
-1.78186e-05 -0.000495396 -6.62963e-06
2.33784e-05 -6.62963e-06 -0.000152103
0.00266014 -0.0013587 0.000133499
-0.0013587 0.00362593 -0.000130341
0.000133499 -0.000130341 -0.00238293
0.0105707 0.00216693 -9.06825e-05
0.00216693 0.00488083 7.01569e-05
-9.06825e-05 7.01569e-05 0.00285208
0.00348474 -0.00015778 -5.35239e-05
-0.00015778 0.00229489 7.81952e-05
-5.35239e-05 7.81952e-05 0.00128585
0.00656347 0.00215226 -2.56353e-05
0.00215226 0.000788492 -6.53927e-05
-2.56353e-05 -6.53927e-05 3.19941e-05
0.000119575 0.000121918 -4.33844e-05
0.000121918 0.000614251 1.148e-05
-4.33844e-05 1.148e-05 3.89937e-06
0.000735257 -1.09678e-05 -1.85532e-05
-1.09678e-05 0.000518359 1.8991e-06
-1.85532e-05 1.8991e-06 0.00050103
0.00365943 -0.000559596 0.000137822
-0.000559596 0.0013083 -1.17525e-05
0.000137822 -1.17525e-05 -0.00200527
-0.000384076 -0.000197579 1.53631e-05
-0.000197579 -0.000365457 2.60947e-05
1.53631e-05 2.60947e-05 -0.000528785
0.000264755 0.00299299 0.000198522
0.00299299 0.00164314 -9.8131e-05
0.000198522 -9.8131e-05 0.00209954
0.00764542 0.00137154 -8.41096e-05
0.00137154 0.00082717 0.000158288
-8.41096e-05 0.000158288 5.76462e-05
-0.00308212 -0.000810864 7.75087e-05
-0.000810864 0.00102101 -8.46923e-05
7.75087e-05 -8.46923e-05 -0.00448679
0.000428387 -0.000222312 4.1495e-05
-0.000222312 0.00050565 -1.05691e-05
4.1495e-05 -1.05691e-05 -1.05476e-06
0.000430494 -0.000239201 0.000114177
-0.000239201 -0.000262269 -3.29696e-05
0.000114177 -3.29696e-05 -0.00202093
-0.00222359 2.9987e-05 -0.000362927
2.9987e-05 0.00288836 5.0581e-05
-0.000362927 5.0581e-05 0.000806645
0.00554932 0.00282564 -0.000282776
0.00282564 0.000860119 0.000347044
-0.000282776 0.000347044 0.000772376
0.00798206 -0.0012319 -3.44584e-05
-0.0012319 0.00359873 1.03704e-05
-3.44584e-05 1.03704e-05 0.000117686
0.0029246 -0.000689336 -5.74675e-05
-0.000689336 0.00127912 3.97321e-05
-5.74675e-05 3.97321e-05 0.000875079
-0.000589451 2.37978e-05 2.24449e-05
2.37978e-05 -0.000183672 8.79818e-06
2.24449e-05 8.79818e-06 -0.000381274
0.000335395 -0.000230972 -4.02134e-07
-0.000230972 0.000352425 5.21049e-07
-4.02134e-07 5.21049e-07 2.77374e-05
0.00098993 -0.000389401 1.57806e-05
-0.000389401 0.000412142 -3.05806e-06
1.57806e-05 -3.05806e-06 0.00026599
-0.000469468 -0.00018948 -6.21817e-06
-0.00018948 -0.000174106 7.13286e-06
-6.21817e-06 7.13286e-06 -0.000371649
-0.000703001 -0.000206562 -2.54209e-07
-0.000206562 -0.000464506 -3.11058e-06
-2.54209e-07 -3.11058e-06 -0.000689606
0.003101 -0.00060292 3.48941e-05
-0.00060292 0.00125371 -3.48101e-06
3.48941e-05 -3.48101e-06 0.000984123
0.00471146 -0.000694965 -1.02435e-05
-0.000694965 0.00230292 3.77984e-06
-1.02435e-05 3.77984e-06 0.00201751
0.00241664 -0.000490011 7.66277e-06
-0.000490011 0.00101497 1.13835e-07
7.66277e-06 1.13835e-07 0.000611596
0.00126739 -0.000453493 8.71706e-06
-0.000453493 0.000234309 -7.39949e-06
8.71706e-06 -7.39949e-06 -0.000198879
0.0016192 -0.000375181 -8.64138e-06
-0.000375181 0.000428368 1.92683e-06
-8.64138e-06 1.92683e-06 0.000132108
0.00214361 -0.000513496 1.06951e-06
-0.000513496 0.00066189 4.71239e-07
1.06951e-06 4.71239e-07 0.000270459
0.00205711 -0.000534437 1.81061e-06
-0.000534437 0.00057087 -6.1035e-06
1.81061e-06 -6.1035e-06 0.000177549
0.00198422 -0.000494978 -1.71581e-06
-0.000494978 0.000404335 -3.21816e-06
-1.71581e-06 -3.21816e-06 0.000116281
0.00180507 -0.000492035 -9.97368e-07
-0.000492035 0.000373519 2.4661e-06
-9.97368e-07 2.4661e-06 6.77121e-05
0.00175909 -0.000497777 -1.16485e-06
-0.000497777 0.000366641 -7.46068e-08
-1.16485e-06 -7.46068e-08 3.25438e-05
0.00116689 -0.000316272 6.27745e-06
-0.000316272 0.000154059 6.49617e-07
6.27745e-06 6.49617e-07 -8.47418e-05
0.00124034 -0.000336541 1.93892e-06
-0.000336541 0.000186974 4.93554e-08
1.93892e-06 4.93554e-08 -6.74708e-05
0.00134072 -0.000373069 1.12145e-06
-0.000373069 0.0002202 -1.34199e-06
1.12145e-06 -1.34199e-06 -7.46488e-05
0.00130599 -0.000274651 3.2648e-06
-0.000274651 0.000373106 2.2123e-06
3.2648e-06 2.2123e-06 0.000140164
0.00134277 -0.000295538 -2.31804e-06
-0.000295538 0.000344098 -1.48988e-06
-2.31804e-06 -1.48988e-06 0.000114388
0.000719184 -0.000245196 6.82083e-06
-0.000245196 -5.31061e-05 -4.74579e-06
6.82083e-06 -4.74579e-06 -0.000267369
0.000361154 -0.000103454 2.05106e-06
-0.000103454 -7.39327e-05 7.56883e-07
2.05106e-06 7.56883e-07 -0.000260241
0.00047693 -0.000124532 -8.45928e-07
-0.000124532 -1.88203e-05 1.27032e-06
-8.45928e-07 1.27032e-06 -0.000214395
0.00144603 -0.000281155 3.54967e-06
-0.000281155 0.000535512 -5.58995e-06
3.54967e-06 -5.58995e-06 0.000304461
0.000466711 1.13927e-05 2.13514e-07
1.13927e-05 -4.69594e-05 4.1443e-06
2.13514e-07 4.1443e-06 -0.000137208
0.000693388 -4.41829e-05 -3.67704e-07
-4.41829e-05 0.000121818 -8.4692e-08
-3.67704e-07 -8.4692e-08 -2.54832e-05
0.00127949 -0.000171353 8.09075e-07
-0.000171353 0.000494586 -5.04726e-07
8.09075e-07 -5.04726e-07 0.00031336
0.000496156 4.82354e-05 -1.55713e-06
4.82354e-05 -3.77616e-05 7.68905e-06
-1.55713e-06 7.68905e-06 -6.76228e-05
0.000638873 5.7881e-06 -3.30752e-07
5.7881e-06 4.8821e-05 -2.64451e-07
-3.30752e-07 -2.64451e-07 -2.76626e-05
0.000973352 -6.78126e-05 -2.3473e-07
-6.78126e-05 0.000273735 -1.46902e-06
-2.3473e-07 -1.46902e-06 0.000154284
0.000663904 -6.61293e-06 1.23763e-06
-6.61293e-06 5.99479e-05 -2.9733e-06
1.23763e-06 -2.9733e-06 -7.50545e-06
0.000530986 4.89982e-05 4.02247e-07
4.89982e-05 -2.37861e-05 1.79546e-08
4.02247e-07 1.79546e-08 -5.05248e-05
0.00246319 0.000104707 -2.76914e-05
0.000104707 0.0011509 3.66988e-06
-2.76914e-05 3.66988e-06 0.00115438
0.000549666 4.56872e-05 -4.2244e-07
4.56872e-05 -2.10051e-05 -4.97138e-06
-4.2244e-07 -4.97138e-06 -4.44992e-05
0.00242524 9.06793e-05 2.93171e-06
9.06793e-05 0.00112052 2.87748e-07
2.93171e-06 2.87748e-07 0.00112719
0.00240441 7.66786e-05 2.08816e-05
7.66786e-05 0.00110154 -4.24848e-06
2.08816e-05 -4.24848e-06 0.00111083
0.000696795 6.6561e-05 1.09865e-07
6.6561e-05 0.000117633 -1.1052e-06
1.09865e-07 -1.1052e-06 -2.14546e-05
0.000767934 9.15908e-05 1.22196e-06
9.15908e-05 0.000160756 -1.29419e-06
1.22196e-06 -1.29419e-06 3.29413e-05
0.000626388 2.18842e-05 1.89684e-07
2.18842e-05 3.60932e-05 -2.7591e-06
1.89684e-07 -2.7591e-06 -3.46332e-05
0.000686556 8.34454e-05 -6.3641e-09
8.34454e-05 9.97296e-05 -7.54455e-08
-6.3641e-09 -7.54455e-08 -1.09917e-05
0.000534788 -1.64295e-05 -3.20109e-07
-1.64295e-05 -3.80604e-05 -5.11793e-06
-3.20109e-07 -5.11793e-06 -5.79972e-05
0.00060618 3.10116e-05 6.36105e-08
3.10116e-05 2.44509e-05 -9.86691e-08
6.36105e-08 -9.86691e-08 -3.98852e-05
0.000616191 4.42456e-05 -2.39523e-06
4.42456e-05 5.32947e-05 1.20261e-07
-2.39523e-06 1.20261e-07 -4.9109e-05
0.0023318 -5.27658e-05 -2.18381e-05
-5.27658e-05 0.00104745 -4.63284e-06
-2.18381e-05 -4.63284e-06 0.00106134
0.00054294 -1.6405e-05 -3.87171e-07
-1.6405e-05 -3.59464e-05 -7.30206e-08
-3.87171e-07 -7.30206e-08 -5.17234e-05
0.000533117 3.4486e-05 -1.65201e-06
3.4486e-05 -1.70311e-05 7.00907e-07
-1.65201e-06 7.00907e-07 -7.59496e-05
0.00220905 -3.68479e-05 -4.21438e-06
-3.68479e-05 0.000970603 1.685e-07
-4.21438e-06 1.685e-07 0.000986968
0.000543527 -1.12201e-05 -9.11106e-07
-1.12201e-05 -3.78857e-05 3.65156e-06
-9.11106e-07 3.65156e-06 -4.97448e-05
0.00211355 -2.14461e-05 1.1727e-05
-2.14461e-05 0.000911272 4.66413e-06
1.1727e-05 4.66413e-06 0.000929329
-6.90763e-05 -6.21695e-05 -2.51312e-06
-6.21695e-05 -6.6573e-05 4.49077e-06
-2.51312e-06 4.49077e-06 5.90604e-05
0.00136868 -9.62668e-05 -1.72467e-05
-9.62668e-05 -0.000410068 2.76588e-05
-1.72467e-05 2.76588e-05 -0.000111136
0.000653515 -8.80038e-05 1.00385e-05
-8.80038e-05 0.000505815 -1.70655e-05
1.00385e-05 -1.70655e-05 0.000440265
0.000733045 6.81263e-05 -2.41619e-07
6.81263e-05 0.000125575 1.51181e-07
-2.41619e-07 1.51181e-07 -5.4271e-06
0.000688148 5.3676e-05 1.473e-06
5.3676e-05 6.94465e-05 -3.96436e-07
1.473e-06 -3.96436e-07 -5.50081e-05
-8.16063e-05 3.16178e-05 -4.235e-06
3.16178e-05 -0.000384418 -4.66866e-06
-4.235e-06 -4.66866e-06 -0.000497589
0.000334627 1.72007e-05 1.24062e-06
1.72007e-05 -0.000123192 2.42444e-06
1.24062e-06 2.42444e-06 -0.00024599
0.00156866 0.000186163 -6.76055e-07
0.000186163 0.000635471 -3.7698e-07
-6.76055e-07 -3.7698e-07 0.000472771
0.000651976 3.29232e-05 -2.10194e-06
3.29232e-05 5.05917e-05 1.80619e-07
-2.10194e-06 1.80619e-07 -5.99748e-05
0.000661789 5.88696e-05 -2.82197e-06
5.88696e-05 7.45963e-05 -3.48118e-06
-2.82197e-06 -3.48118e-06 -4.75776e-05
0.000757676 6.76227e-05 -8.03042e-08
6.76227e-05 0.00013249 -2.19642e-07
-8.03042e-08 -2.19642e-07 7.769e-06
0.000988703 0.000110311 1.20756e-07
0.000110311 0.000282886 -1.87922e-07
1.20756e-07 -1.87922e-07 0.00014783
0.00100892 8.65911e-05 3.25475e-06
8.65911e-05 0.000325437 -2.01496e-06
3.25475e-06 -2.01496e-06 0.000177369
0.00332263 0.000308045 0.000205142
0.000308045 0.00230167 0.000270843
0.000205142 0.000270843 -0.00115357
0.000670774 0.000139873 9.94965e-06
0.000139873 -7.57352e-06 7.08335e-05
9.94965e-06 7.08335e-05 -0.00152841
0.00268907 -4.73664e-05 -1.24826e-05
-4.73664e-05 0.000464452 -7.61894e-06
-1.24826e-05 -7.61894e-06 1.55269e-05
0.0107097 -0.00128975 -0.000111288
-0.00128975 0.00147708 -0.000115097
-0.000111288 -0.000115097 0.00296861
-0.00929461 0.0010666 -1.05954e-05
0.0010666 -0.00321955 0.000283339
-1.05954e-05 0.000283339 -0.00600811
0.005049 -0.00136338 -0.000121497
-0.00136338 0.00187893 3.32182e-05
-0.000121497 3.32182e-05 0.00155704
0.011043 -0.00110749 -8.30459e-05
-0.00110749 0.004976 -2.90197e-06
-8.30459e-05 -2.90197e-06 0.00124707
0.00205229 -0.000313729 -2.74852e-05
-0.000313729 0.000495798 7.09557e-05
-2.74852e-05 7.09557e-05 0.000338226
0.0114159 -0.000147352 -2.38898e-05
-0.000147352 0.00598153 -1.20317e-05
-2.38898e-05 -1.20317e-05 0.00124904
0.00278976 -0.00153073 6.13744e-05
-0.00153073 0.00101765 8.42508e-05
6.13744e-05 8.42508e-05 -0.00118772
0.00641444 -0.00190192 -0.000155834
-0.00190192 -0.000684499 -0.000379149
-0.000155834 -0.000379149 -0.00020083
0.00281678 0.000133919 -0.000116963
0.000133919 0.000990621 5.81782e-05
-0.000116963 5.81782e-05 0.000418853
0.0104098 0.00127769 -6.29381e-05
0.00127769 0.00488852 1.49156e-05
-6.29381e-05 1.49156e-05 0.00108772
0.0118865 -0.00268411 -0.000102296
-0.00268411 0.00431064 -0.00033281
-0.000102296 -0.00033281 0.0035855
0.00972297 -0.00315198 8.34809e-05
-0.00315198 0.0025698 -5.94843e-06
8.34809e-05 -5.94843e-06 0.00334672
0.000195137 8.07128e-05 6.47753e-06
8.07128e-05 -6.98348e-05 -3.48493e-06
6.47753e-06 -3.48493e-06 -0.000218017
0.000860895 2.9002e-05 1.29467e-06
2.9002e-05 0.000255442 2.7781e-06
1.29467e-06 2.7781e-06 0.000104761
0.000693763 9.89531e-05 -3.39559e-06
9.89531e-05 0.000122094 -6.68431e-06
-3.39559e-06 -6.68431e-06 -2.37402e-05
0.00161631 -0.000233484 -2.65822e-05
-0.000233484 0.00102473 2.52277e-05
-2.65822e-05 2.52277e-05 0.000244961
0.000803444 -2.90597e-05 -5.36497e-05
-2.90597e-05 0.000652758 -2.20813e-05
-5.36497e-05 -2.20813e-05 0.000474571
0.000544366 6.91869e-06 -5.80748e-06
6.91869e-06 4.31937e-05 2.65904e-06
-5.80748e-06 2.65904e-06 -6.90125e-05
-0.000997703 9.09224e-05 -8.82192e-06
9.09224e-05 -0.000471552 -4.22614e-06
-8.82192e-06 -4.22614e-06 -0.000814855
0.000336538 9.14344e-05 5.32678e-07
9.14344e-05 0.000156609 -1.94656e-06
5.32678e-07 -1.94656e-06 -4.87483e-05
0.000671077 0.000159038 1.89198e-06
0.000159038 0.000492229 2.68576e-06
1.89198e-06 2.68576e-06 0.000166768
-0.000647759 -7.18139e-05 0.000122951
-7.18139e-05 0.000699475 -3.76699e-05
0.000122951 -3.76699e-05 -0.000615815
-0.00204524 3.93257e-05 -1.92662e-05
3.93257e-05 -0.00106274 1.28963e-05
-1.92662e-05 1.28963e-05 -0.00130622
0.00261261 0.000378451 -6.73907e-05
0.000378451 0.00169747 -5.02084e-05
-6.73907e-05 -5.02084e-05 0.000803742
0.0019504 6.59147e-05 9.53456e-05
6.59147e-05 0.00131014 2.13512e-05
9.53456e-05 2.13512e-05 -0.0009868
-0.000182716 1.8701e-05 1.10286e-05
1.8701e-05 0.000540578 1.56351e-05
1.10286e-05 1.56351e-05 -1.03963e-05
0.00172764 -7.90229e-05 4.64056e-08
-7.90229e-05 0.000187178 -2.4231e-07
4.64056e-08 -2.4231e-07 0.000384366
-0.00171414 0.000318577 0.000108636
0.000318577 -0.000391205 6.93441e-06
0.000108636 6.93441e-06 -0.00111407
0.00277957 0.000171471 -3.52423e-05
0.000171471 0.0014919 2.2517e-05
-3.52423e-05 2.2517e-05 0.000665352
0.000680757 -5.62107e-05 -1.01635e-05
-5.62107e-05 0.000494834 1.2681e-05
-1.01635e-05 1.2681e-05 0.000441024
0.0159864 -0.00198197 0.000139234
-0.00198197 0.00707709 -4.36741e-05
0.000139234 -4.36741e-05 0.00272331
0.012332 0.00206666 -6.746e-05
0.00206666 0.00456411 -5.55388e-05
-6.746e-05 -5.55388e-05 0.00326314
0.00430454 -0.000614292 -9.09471e-05
-0.000614292 0.00172254 0.000138891
-9.09471e-05 0.000138891 -0.00170457
-0.00652173 0.00338825 0.00091545
0.00338825 -0.00245022 -0.000700514
0.00091545 -0.000700514 -0.00156711
0.000700202 -0.00022068 1.32727e-05
-0.00022068 0.000750057 -4.23122e-06
1.32727e-05 -4.23122e-06 0.000158984
0.000639766 -0.000180475 5.52908e-06
-0.000180475 7.79035e-06 1.37054e-05
5.52908e-06 1.37054e-05 -0.00193365
-0.00287243 0.000154471 -0.000500995
0.000154471 0.00288134 0.00020383
-0.000500995 0.00020383 0.000785952
0.00121391 -0.000398686 -2.17764e-05
-0.000398686 0.000421026 3.50826e-05
-2.17764e-05 3.50826e-05 6.45e-05
0.0133443 0.00270511 0.000131812
0.00270511 0.00395161 8.46101e-05
0.000131812 8.46101e-05 0.00394013
0.00788279 -0.00190122 0.000101078
-0.00190122 0.00323143 -5.8792e-05
0.000101078 -5.8792e-05 5.24755e-05
0.00230212 -0.000551217 3.14791e-06
-0.000551217 0.00107006 2.38347e-05
3.14791e-06 2.38347e-05 0.000891143
-0.00491104 -0.00058232 4.87191e-05
-0.00058232 0.00226289 -3.04436e-05
4.87191e-05 -3.04436e-05 -0.000307361
0.0113892 0.00249327 -0.000568673
0.00249327 0.00500564 0.000264078
-0.000568673 0.000264078 0.00452017
0.00248067 -0.00122366 -0.000236932
-0.00122366 -0.000474093 0.00015139
-0.000236932 0.00015139 -0.00384864
0.002517 -0.00108708 0.000112326
-0.00108708 0.000556396 -5.59483e-05
0.000112326 -5.59483e-05 0.00066509
-0.000230223 -0.000205508 -5.26863e-05
-0.000205508 2.99425e-05 1.54388e-05
-5.26863e-05 1.54388e-05 -0.000276386
0.00062871 -0.000337667 -7.18105e-06
-0.000337667 0.000286323 9.8173e-06
-7.18105e-06 9.8173e-06 7.00486e-05
0.0039256 -0.000655161 2.82883e-05
-0.000655161 0.00172461 1.17724e-06
2.82883e-05 1.17724e-06 0.00153413
-0.00281312 -6.05737e-05 -1.17616e-06
-6.05737e-05 -0.00155521 9.97906e-06
-1.17616e-06 9.97906e-06 -0.00178233
0.000828464 -0.000364724 4.60786e-06
-0.000364724 8.40526e-05 1.60642e-06
4.60786e-06 1.60642e-06 -0.000178266
0.00227423 -0.00059926 5.7038e-06
-0.00059926 0.000552838 6.24769e-07
5.7038e-06 6.24769e-07 0.000289142
0.00310386 -0.000558013 -1.64585e-05
-0.000558013 0.00131981 5.68662e-06
-1.64585e-05 5.68662e-06 0.000942451
0.00131232 -0.000445801 -2.43461e-06
-0.000445801 0.000230876 -4.03364e-06
-2.43461e-06 -4.03364e-06 -0.000179697
0.00172575 -0.000569533 5.27948e-06
-0.000569533 0.000233494 -7.30674e-06
5.27948e-06 -7.30674e-06 -9.14391e-05
0.00256398 -0.000563286 -3.43917e-06
-0.000563286 0.000867409 -3.39046e-07
-3.43917e-06 -3.39046e-07 0.000467917
0.00170567 -0.000504918 4.02731e-07
-0.000504918 0.000351963 -3.8488e-06
4.02731e-07 -3.8488e-06 -2.54814e-05
0.0021497 -0.000511965 1.01454e-06
-0.000511965 0.000439504 -7.09316e-06
1.01454e-06 -7.09316e-06 0.000161164
0.00167363 -0.000387973 -4.00509e-06
-0.000387973 0.000103286 -3.31279e-06
-4.00509e-06 -3.31279e-06 -0.000111209
0.00162635 -0.00047454 1.43792e-06
-0.00047454 0.000178032 -8.81957e-07
1.43792e-06 -8.81957e-07 -0.000104311
0.00181232 -0.000478701 2.02381e-06
-0.000478701 0.000308919 -2.55873e-06
2.02381e-06 -2.55873e-06 2.52731e-05
0.00172761 -0.000420361 4.44812e-07
-0.000420361 0.000388305 1.53774e-06
4.44812e-07 1.53774e-06 0.000112506
0.0018265 -0.000494783 -2.08138e-06
-0.000494783 0.000402971 1.31986e-07
-2.08138e-06 1.31986e-07 9.21333e-05
0.00180826 -0.00050829 1.35301e-06
-0.00050829 0.000393258 -3.54641e-06
1.35301e-06 -3.54641e-06 5.27826e-05
0.001387 -0.000304489 2.92556e-06
-0.000304489 0.000320564 8.34039e-07
2.92556e-06 8.34039e-07 8.757e-05
0.000930745 -0.000289956 4.92595e-07
-0.000289956 2.04141e-05 -2.66198e-07
4.92595e-07 -2.66198e-07 -0.000209951
0.00127351 -0.000333232 3.94619e-06
-0.000333232 0.000203391 -2.67877e-06
3.94619e-06 -2.67877e-06 -4.22711e-05
0.000698235 -0.000208978 -3.85901e-07
-0.000208978 6.73941e-05 6.66704e-07
-3.85901e-07 6.66704e-07 -0.000139984
0.000953556 -0.000236831 1.34018e-07
-0.000236831 0.000165661 -8.84205e-08
1.34018e-07 -8.84205e-08 -5.89506e-05
0.00053615 -0.000216461 -2.48515e-06
-0.000216461 -0.000140173 -1.05227e-06
-2.48515e-06 -1.05227e-06 -0.000356423
0.00025632 6.12904e-06 -1.55425e-07
6.12904e-06 -0.000165639 5.3038e-06
-1.55425e-07 5.3038e-06 -0.000285962
0.000777604 -0.000123526 1.29276e-06
-0.000123526 0.000181075 4.20064e-07
1.29276e-06 4.20064e-07 -1.41603e-05
0.00109897 -0.000179984 -2.26396e-06
-0.000179984 0.000369469 -5.93557e-08
-2.26396e-06 -5.93557e-08 0.00016223
0.0014726 8.37756e-05 -1.91867e-05
8.37756e-05 0.000563168 5.1394e-06
-1.91867e-05 5.1394e-06 0.000528173
0.000678011 -1.85638e-05 1.43993e-07
-1.85638e-05 7.49582e-05 -5.99652e-07
1.43993e-07 -5.99652e-07 -1.70674e-05
0.00123463 -8.17418e-05 -1.93367e-06
-8.17418e-05 0.00045277 -1.90007e-06
-1.93367e-06 -1.90007e-06 0.000294561
0.000735793 4.96402e-05 -3.02983e-05
4.96402e-05 0.000113034 3.91323e-06
-3.02983e-05 3.91323e-06 0.000109797
0.000990379 6.39211e-05 -9.44235e-06
6.39211e-05 0.000262595 -1.9856e-07
-9.44235e-06 -1.9856e-07 0.000232888
0.000653347 -5.06144e-07 8.9389e-07
-5.06144e-07 5.41598e-05 -3.8569e-06
8.9389e-07 -3.8569e-06 -2.18702e-05
0.00053939 5.18762e-05 -9.41749e-08
5.18762e-05 -1.74586e-05 -5.6733e-06
-9.41749e-08 -5.6733e-06 -4.49498e-05
0.0024876 0.000106527 4.55528e-06
0.000106527 0.00116635 4.13362e-07
4.55528e-06 4.13362e-07 0.00116949
0.00242061 9.26108e-05 2.29482e-05
9.26108e-05 0.00111863 -4.01251e-06
2.29482e-05 -4.01251e-06 0.00112491
0.000801761 7.4578e-05 9.09232e-07
7.4578e-05 0.000165163 1.56531e-06
9.09232e-07 1.56531e-06 3.52579e-05
0.000789608 8.38021e-05 8.33368e-07
8.38021e-05 0.000175303 -2.18123e-06
8.33368e-07 -2.18123e-06 4.19376e-05
0.000588667 5.29062e-05 -4.44589e-07
5.29062e-05 3.32467e-05 5.70822e-07
-4.44589e-07 5.70822e-07 -9.22897e-05
0.000633692 1.12033e-05 -3.20383e-09
1.12033e-05 4.05808e-05 -3.15312e-06
-3.20383e-09 -3.15312e-06 -3.63256e-05
0.000724498 6.97897e-05 5.60997e-07
6.97897e-05 0.000122787 3.24931e-08
5.60997e-07 3.24931e-08 5.70296e-06
0.000533845 -1.71287e-05 -9.74698e-07
-1.71287e-05 -3.39969e-05 -5.70839e-06
-9.74698e-07 -5.70839e-06 -5.83683e-05
0.000598671 2.42761e-05 -3.03435e-08
2.42761e-05 2.0696e-05 -1.49193e-07
-3.03435e-08 -1.49193e-07 -5.05063e-05
0.000728058 6.86107e-05 -9.866e-07
6.86107e-05 0.000141485 1.52389e-06
-9.866e-07 1.52389e-06 1.79697e-05
0.00248464 -6.83461e-05 -2.85605e-05
-6.83461e-05 0.0011436 -4.50026e-06
-2.85605e-05 -4.50026e-06 0.00115472
0.000524794 -1.88986e-05 -5.67131e-07
-1.88986e-05 -4.39525e-05 -5.93083e-08
-5.67131e-07 -5.93083e-08 -6.37811e-05
0.000595505 3.40327e-05 2.60717e-07
3.40327e-05 1.88765e-05 2.53207e-06
2.60717e-07 2.53207e-06 -4.54738e-05
0.0023408 -5.21623e-05 -4.61588e-06
-5.21623e-05 0.00105264 2.51775e-07
-4.61588e-06 2.51775e-07 0.00106668
0.000525554 -1.75861e-05 -1.28676e-06
-1.75861e-05 -4.6075e-05 4.23345e-06
-1.28676e-06 4.23345e-06 -6.17353e-05
0.00221047 -3.55093e-05 1.67399e-05
-3.55093e-05 0.00097114 4.57033e-06
1.67399e-05 4.57033e-06 0.000987703
0.00521334 0.000145701 0.000131515
0.000145701 0.00221393 2.4024e-05
0.000131515 2.4024e-05 0.000951088
-5.97031e-05 -6.38265e-05 -7.84052e-07
-6.38265e-05 -6.88198e-05 -1.16368e-06
-7.84052e-07 -1.16368e-06 2.04046e-05
0.00125995 -7.11575e-05 -1.97529e-05
-7.11575e-05 -0.000442539 3.90964e-06
-1.97529e-05 3.90964e-06 -9.51962e-05
0.000384668 0.000104419 -6.29444e-06
0.000104419 -9.5028e-05 -2.06361e-06
-6.29444e-06 -2.06361e-06 -0.000222223
0.000810381 6.80533e-05 -1.58731e-06
6.80533e-05 0.000167656 -2.05411e-07
-1.58731e-06 -2.05411e-07 4.22308e-05
0.000501252 4.39914e-05 3.6779e-07
4.39914e-05 -4.40767e-05 -4.63259e-07
3.6779e-07 -4.63259e-07 -0.000164057
0.000827157 4.5925e-05 2.18412e-07
4.5925e-05 0.000160384 -2.71227e-07
2.18412e-07 -2.71227e-07 3.72066e-05
0.000663892 8.30969e-05 -9.46661e-07
8.30969e-05 5.52493e-05 2.44353e-07
-9.46661e-07 2.44353e-07 -6.5565e-05
0.00127361 0.000155192 5.78534e-07
0.000155192 0.000455364 -1.16121e-06
5.78534e-07 -1.16121e-06 0.000307929
0.000872449 0.000119261 -1.04344e-06
0.000119261 0.000189129 -7.29204e-06
-1.04344e-06 -7.29204e-06 1.83153e-05
-3.83628e-05 2.88422e-05 1.00272e-06
2.88422e-05 -0.000286905 1.97521e-06
1.00272e-06 1.97521e-06 -0.000438286
0.000787596 0.000120513 -1.95616e-06
0.000120513 0.000164261 6.6871e-07
-1.95616e-06 6.6871e-07 2.91424e-05
0.000414546 2.76767e-05 -3.47783e-06
2.76767e-05 -8.36773e-05 -2.8308e-06
-3.47783e-06 -2.8308e-06 -0.00019369
0.000502071 6.05793e-05 -7.16938e-08
6.05793e-05 2.04886e-05 9.42558e-07
-7.16938e-08 9.42558e-07 -0.000121465
0.00147873 0.00017748 1.04542e-05
0.00017748 0.000657941 6.33773e-06
1.04542e-05 6.33773e-06 0.000492092
0.00107125 -0.00108586 0.000133536
-0.00108586 0.00290697 0.000214393
0.000133536 0.000214393 0.000325639
0.00385577 0.00040247 2.89498e-05
0.00040247 0.00217639 0.000100146
2.89498e-05 0.000100146 -0.00141498
0.00103112 0.000130771 -2.36711e-05
0.000130771 0.000249649 -4.61487e-05
-2.36711e-05 -4.61487e-05 -0.00144333
0.0113255 -0.00238216 -0.000316318
-0.00238216 0.00193993 -0.000218507
-0.000316318 -0.000218507 0.00239142
0.00591796 -0.000863933 9.03674e-05
-0.000863933 0.00172838 0.000283686
9.03674e-05 0.000283686 8.1833e-05
0.00110575 -0.000884307 -0.000107361
-0.000884307 0.00227236 8.95569e-05
-0.000107361 8.95569e-05 -0.00279241
0.000982388 -0.000383926 1.40651e-05
-0.000383926 0.000309281 5.11318e-05
1.40651e-05 5.11318e-05 -0.000230613
0.00211303 -0.00010891 2.34982e-05
-0.00010891 0.000759011 5.1586e-05
2.34982e-05 5.1586e-05 0.000404268
0.00209129 -0.00323009 0.000158063
-0.00323009 0.000120651 0.000167435
0.000158063 0.000167435 0.00102081
0.0043601 0.00102162 -2.2223e-05
0.00102162 0.00371446 -3.34877e-05
-2.2223e-05 -3.34877e-05 -0.00103483
0.00370251 -0.00162193 -5.07563e-05
-0.00162193 -0.000276731 6.11016e-05
-5.07563e-05 6.11016e-05 -0.00127798
0.000594317 0.000355451 -1.54127e-05
0.000355451 0.000191364 5.40907e-05
-1.54127e-05 5.40907e-05 6.77279e-05
0.00829468 0.00136475 -4.58559e-05
0.00136475 0.00376485 -2.56732e-05
-4.58559e-05 -2.56732e-05 0.000443415
0.00521296 -0.00272352 -0.000321221
-0.00272352 0.000504732 -0.000261849
-0.000321221 -0.000261849 0.000310514
0.00085625 0.000353289 6.84207e-06
0.000353289 0.000197829 -1.15782e-05
6.84207e-06 -1.15782e-05 4.08828e-05
0.000626585 9.64793e-05 2.8379e-06
9.64793e-05 0.000173065 -2.03413e-07
2.8379e-06 -2.03413e-07 3.09171e-05
0.000370244 4.40174e-05 -4.51313e-06
4.40174e-05 -2.64275e-05 -2.50404e-06
-4.51313e-06 -2.50404e-06 -0.000185979
-0.000382269 -0.000116959 -0.000148031
-0.000116959 0.00100386 -4.27833e-05
-0.000148031 -4.27833e-05 -0.000265116
-0.00165907 0.000155362 1.664e-06
0.000155362 -0.000810456 -1.68213e-05
1.664e-06 -1.68213e-05 -0.00115505
-0.000183154 9.22689e-05 -6.84221e-06
9.22689e-05 -0.000131583 3.56729e-06
-6.84221e-06 3.56729e-06 -0.000362349
0.000564145 0.000344584 1.31741e-05
0.000344584 0.000290232 3.12232e-06
1.31741e-05 3.12232e-06 1.84303e-05
0.000606181 0.000289995 6.007e-06
0.000289995 0.000584385 -3.42565e-05
6.007e-06 -3.42565e-05 -0.000190256
8.75259e-06 0.000595192 3.44145e-05
0.000595192 -0.000411759 7.06032e-06
3.44145e-05 7.06032e-06 -0.000819601
-0.00208714 0.000431852 0.00018006
0.000431852 0.00372294 4.53529e-06
0.00018006 4.53529e-06 0.000438597
0.0022063 -1.40077e-05 -5.13308e-06
-1.40077e-05 0.00144618 2.87922e-05
-5.13308e-06 2.87922e-05 -0.000335633
-0.000429653 -1.76801e-05 -1.53886e-06
-1.76801e-05 0.000245549 1.90978e-05
-1.53886e-06 1.90978e-05 -0.000146067
7.01544e-05 -0.000150881 -5.84616e-05
-0.000150881 0.000526656 5.77226e-06
-5.84616e-05 5.77226e-06 -7.30041e-05
-0.000645596 -0.000125412 -6.77926e-05
-0.000125412 -0.00100032 2.71686e-05
-6.77926e-05 2.71686e-05 -0.000726805
0.000982013 -0.000141372 -0.000103796
-0.000141372 0.000152519 4.23395e-05
-0.000103796 4.23395e-05 -0.00177292
-0.00249767 -0.00167318 9.29672e-05
-0.00167318 0.000166053 -0.000110791
9.29672e-05 -0.000110791 -0.0041878
0.000168515 0.00224599 0.000257873
0.00224599 -0.00301769 -0.000222139
0.000257873 -0.000222139 -0.00289425
0.00334617 0.00103446 -0.000249668
0.00103446 0.00409672 0.000177109
-0.000249668 0.000177109 0.00247443
0.00139371 -0.000288801 -4.54254e-06
-0.000288801 0.00064446 -2.85802e-06
-4.54254e-06 -2.85802e-06 0.000531263
0.00142857 0.00022044 4.11679e-05
0.00022044 0.00411254 5.00587e-06
4.11679e-05 5.00587e-06 0.00232704
-0.0029419 0.00156781 2.38925e-05
0.00156781 -0.000589348 2.09279e-05
2.38925e-05 2.09279e-05 -0.00237742
0.0034368 -0.00127703 5.61286e-05
-0.00127703 0.00121634 -1.5968e-05
5.61286e-05 -1.5968e-05 0.000754242
0.0125469 -0.00116754 1.92887e-05
-0.00116754 0.00377151 -1.25364e-05
1.92887e-05 -1.25364e-05 0.00186216
0.00318781 -0.000808848 -1.23571e-05
-0.000808848 0.00111571 2.22749e-05
-1.23571e-05 2.22749e-05 0.00107292
-0.00866249 0.000588545 -0.000251733
0.000588545 -0.00381904 1.30088e-05
-0.000251733 1.30088e-05 -0.00497807
0.0132748 -0.000711565 -0.000121663
-0.000711565 0.00314718 3.73799e-05
-0.000121663 3.73799e-05 0.00157793
0.00322691 -0.00143636 2.78137e-05
-0.00143636 -0.000214728 -3.05983e-05
2.78137e-05 -3.05983e-05 -0.000583828
-9.96934e-05 -0.000235752 -1.43696e-05
-0.000235752 -3.7046e-05 1.56812e-05
-1.43696e-05 1.56812e-05 -0.000322612
0.00151088 -0.000485506 -4.02623e-06
-0.000485506 0.000319363 7.35809e-07
-4.02623e-06 7.35809e-07 0.000256263
0.00370755 -0.000620122 1.38236e-05
-0.000620122 0.00127463 -3.58424e-06
1.38236e-05 -3.58424e-06 0.00113198
-0.0011646 -0.000158666 -6.35208e-06
-0.000158666 -0.000931566 3.76865e-06
-6.35208e-06 3.76865e-06 -0.00119399
0.00137503 -0.000507759 -5.95487e-06
-0.000507759 0.000117358 -2.54646e-06
-5.95487e-06 -2.54646e-06 -0.000158787
0.00242767 -0.000647545 3.96241e-06
-0.000647545 0.000472918 -1.715e-06
3.96241e-06 -1.715e-06 0.000226611
0.00133387 -0.000438181 -1.69095e-05
-0.000438181 0.000219825 -3.98547e-07
-1.69095e-05 -3.98547e-07 -0.00017137
0.00155913 -0.000542967 -9.2513e-08
-0.000542967 0.000153294 4.71863e-07
-9.2513e-08 4.71863e-07 -0.000174525
0.0015575 -0.000474852 1.98223e-06
-0.000474852 -3.92546e-05 -6.08067e-06
1.98223e-06 -6.08067e-06 -0.000252367
0.00126529 -0.00046824 -4.72048e-06
-0.00046824 8.49742e-05 -1.48916e-07
-4.72048e-06 -1.48916e-07 -0.000277401
0.00166505 -0.000464334 -4.74842e-07
-0.000464334 0.00017433 6.50169e-07
-4.74842e-07 6.50169e-07 -9.52351e-05
0.00177285 -0.00038215 -1.59131e-06
-0.00038215 0.000100535 -5.28422e-06
-1.59131e-06 -5.28422e-06 -7.25187e-05
0.00166401 -0.000305252 -4.82347e-06
-0.000305252 5.43545e-05 -2.75267e-06
-4.82347e-06 -2.75267e-06 -9.44515e-05
0.00154047 -0.000378095 -3.94472e-06
-0.000378095 4.56374e-05 -2.19993e-06
-3.94472e-06 -2.19993e-06 -0.000174212
0.00165452 -0.000378248 1.17212e-06
-0.000378248 0.000100275 1.75943e-06
1.17212e-06 1.75943e-06 -0.000108931
0.00144292 -0.000406585 -2.56899e-06
-0.000406585 0.000119044 -1.3617e-06
-2.56899e-06 -1.3617e-06 -0.000142863
0.00173804 -0.000477667 1.74113e-06
-0.000477667 0.000253027 -3.2691e-07
1.74113e-06 -3.2691e-07 -2.67654e-05
0.00171064 -0.000467999 1.82182e-06
-0.000467999 0.000253248 2.43438e-07
1.82182e-06 2.43438e-07 -2.66097e-05
0.00149918 -0.000342991 -2.01699e-06
-0.000342991 0.000305081 1.4717e-06
-2.01699e-06 1.4717e-06 5.97078e-05
0.00154066 -0.000404818 1.02947e-06
-0.000404818 0.000281693 -5.29774e-07
1.02947e-06 -5.29774e-07 8.69915e-06
0.00179564 -0.000491836 -2.64852e-06
-0.000491836 0.000402002 -1.449e-06
-2.64852e-06 -1.449e-06 8.66186e-05
0.000992337 -0.00023464 -2.03757e-06
-0.00023464 0.000138611 2.47073e-06
-2.03757e-06 2.47073e-06 -6.86288e-05
0.00120177 -0.000287298 1.45276e-06
-0.000287298 0.000204312 8.28534e-08
1.45276e-06 8.28534e-08 -2.55395e-05
0.000821422 -0.00027479 -2.52879e-07
-0.00027479 -3.77207e-05 -3.52602e-06
-2.52879e-07 -3.52602e-06 -0.000262032
0.000587963 -0.000110902 -1.69701e-06
-0.000110902 1.99166e-05 4.86279e-06
-1.69701e-06 4.86279e-06 -0.000138528
0.00101495 -0.000215125 1.16282e-08
-0.000215125 0.00025054 4.56459e-08
1.16282e-08 4.56459e-08 4.18483e-05
0.000461526 -0.000187588 -3.60853e-06
-0.000187588 -0.000125149 -5.04211e-07
-3.60853e-06 -5.04211e-07 -0.000339241
0.000368822 2.88498e-05 -1.44842e-06
2.88498e-05 -0.000101165 8.77395e-06
-1.44842e-06 8.77395e-06 -0.000149384
0.00067436 -7.16262e-05 -4.69681e-07
-7.16262e-05 8.3106e-05 -3.31069e-07
-4.69681e-07 -3.31069e-07 -4.64325e-05
0.00130689 -0.000145288 1.00969e-06
-0.000145288 0.000500878 -2.11922e-06
1.00969e-06 -2.11922e-06 0.000297356
0.0027813 0.000154988 -5.62054e-06
0.000154988 0.00136202 2.24775e-06
-5.62054e-06 2.24775e-06 0.00135119
0.000513556 4.1927e-05 -2.64302e-07
4.1927e-05 -2.05688e-05 -1.31927e-07
-2.64302e-07 -1.31927e-07 -5.85489e-05
0.00083937 -4.39982e-05 2.62971e-06
-4.39982e-05 0.000170302 -4.91425e-06
2.62971e-06 -4.91425e-06 7.45959e-05
0.00260909 0.000120938 4.47277e-06
0.000120938 0.00124691 3.55993e-07
4.47277e-06 3.55993e-07 0.0012467
0.000562089 4.61429e-05 5.33851e-07
4.61429e-05 3.28058e-06 -6.35437e-06
5.33851e-07 -6.35437e-06 -2.80549e-05
0.0025469 0.000108695 3.01604e-05
0.000108695 0.00120275 -3.43688e-06
3.01604e-05 -3.43688e-06 0.00120548
0.000911222 0.000137234 1.76091e-06
0.000137234 0.000220132 2.64238e-06
1.76091e-06 2.64238e-06 7.42205e-05
0.000767855 8.22318e-05 2.07681e-07
8.22318e-05 0.000148042 2.71693e-07
2.07681e-07 2.71693e-07 1.37931e-05
0.000840533 7.47573e-05 6.92228e-07
7.47573e-05 0.00021072 -2.82496e-06
6.92228e-07 -2.82496e-06 6.53432e-05
0.00065281 1.14424e-05 -5.47297e-07
1.14424e-05 5.82985e-05 -4.04984e-06
-5.47297e-07 -4.04984e-06 -2.62124e-05
0.000710587 5.14302e-05 2.56547e-07
5.14302e-05 0.000118254 2.84074e-07
2.56547e-07 2.84074e-07 -7.66914e-06
0.000534834 7.00471e-05 5.75934e-07
7.00471e-05 8.63546e-06 1.41698e-06
5.75934e-07 1.41698e-06 -0.000123426
0.000541992 -1.60705e-05 -1.74521e-06
-1.60705e-05 -2.55881e-05 -6.3821e-06
-1.74521e-06 -6.3821e-06 -5.42081e-05
0.000617533 1.78259e-05 -2.56995e-08
1.78259e-05 3.46359e-05 -1.00869e-07
-2.56995e-08 -1.00869e-07 -4.3554e-05
0.000674051 6.58875e-05 -1.91381e-07
6.58875e-05 8.89029e-05 1.36239e-06
-1.91381e-07 1.36239e-06 -2.30931e-05
0.00262541 -8.33629e-05 -3.67225e-05
-8.33629e-05 0.00123376 -4.22184e-06
-3.67225e-05 -4.22184e-06 0.00124196
0.000507765 -1.9749e-05 4.64808e-07
-1.9749e-05 -4.98838e-05 -1.10618e-07
4.64808e-07 -1.10618e-07 -7.40139e-05
0.000603203 2.74298e-05 3.76965e-08
2.74298e-05 2.41993e-05 2.84596e-06
3.76965e-08 2.84596e-06 -4.73447e-05
0.002458 -6.74481e-05 -5.04828e-06
-6.74481e-05 0.00112709 3.22965e-07
-5.04828e-06 3.22965e-07 0.00113846
0.000515939 -2.0842e-05 -1.06155e-06
-2.0842e-05 -4.91106e-05 4.94655e-06
-1.06155e-06 4.94655e-06 -6.88397e-05
0.00230854 -5.07596e-05 2.08108e-05
-5.07596e-05 0.00103289 4.49308e-06
2.08108e-05 4.49308e-06 0.00104728
-0.00672928 0.000390793 -1.75429e-05
0.000390793 0.00172524 5.12329e-05
-1.75429e-05 5.12329e-05 -0.00167078
0.00495841 6.04214e-05 -6.36646e-06
6.04214e-05 0.00235559 1.58495e-06
-6.36646e-06 1.58495e-06 0.00112396
-2.43212e-05 -6.89771e-05 -8.38859e-06
-6.89771e-05 -0.000102763 -6.17825e-06
-8.38859e-06 -6.17825e-06 -5.77889e-05
0.000313037 7.19944e-05 -1.525e-06
7.19944e-05 -0.000142037 1.57736e-06
-1.525e-06 1.57736e-06 -0.000263589
0.00261059 0.000381716 1.19712e-06
0.000381716 0.00123855 4.6021e-06
1.19712e-06 4.6021e-06 0.0010322
0.000675085 7.88341e-05 -3.7275e-06
7.88341e-05 7.64204e-05 -1.78851e-07
-3.7275e-06 -1.78851e-07 -6.59769e-05
0.0010224 4.94061e-05 -1.58723e-06
4.94061e-05 0.000271434 -2.9396e-06
-1.58723e-06 -2.9396e-06 0.000150174
0.00137209 0.00014452 2.59457e-06
0.00014452 0.000471247 -8.96055e-08
2.59457e-06 -8.96055e-08 0.000343705
0.000263426 5.42891e-05 -3.51655e-06
5.42891e-05 -0.000160418 2.7012e-06
-3.51655e-06 2.7012e-06 -0.000280408
0.000499388 7.28203e-05 -1.16665e-06
7.28203e-05 3.28967e-05 1.50944e-06
-1.16665e-06 1.50944e-06 -0.000128738
0.000655125 9.28948e-05 -2.17563e-06
9.28948e-05 6.7208e-05 -2.57106e-06
-2.17563e-06 -2.57106e-06 -9.58566e-05
0.00101169 0.000178005 3.10117e-06
0.000178005 0.000321823 -5.21706e-06
3.10117e-06 -5.21706e-06 0.00011175
0.000651302 0.000269772 2.34306e-06
0.000269772 5.55226e-06 -1.96443e-06
2.34306e-06 -1.96443e-06 -0.000111248
0.00103979 8.75499e-05 -3.45524e-06
8.75499e-05 0.000345043 5.90928e-07
-3.45524e-06 5.90928e-07 0.000192729
0.00103618 0.000151731 9.07067e-07
0.000151731 0.000401327 3.22896e-06
9.07067e-07 3.22896e-06 0.00023578
-0.00447196 -0.00111397 -0.000540489
-0.00111397 -0.000626142 -4.89078e-05
-0.000540489 -4.89078e-05 -0.00230585
-0.00336114 -0.000811621 0.000219651
-0.000811621 0.00209555 0.00010718
0.000219651 0.00010718 -0.000832735
0.00445404 0.000466275 -0.000194962
0.000466275 0.00217311 -7.87716e-05
-0.000194962 -7.87716e-05 -0.00158219
-0.00685583 -0.0033263 0.000782676
-0.0033263 -0.00235786 0.000616393
0.000782676 0.000616393 -0.0016389
0.0155392 -0.00184015 -4.0701e-05
-0.00184015 0.00479747 0.00017362
-4.0701e-05 0.00017362 0.00421557
-0.0016964 0.00118264 -5.47288e-06
0.00118264 0.000598265 -9.5407e-05
-5.47288e-06 -9.5407e-05 -0.00385048
0.00212169 1.12336e-05 -0.000142614
1.12336e-05 0.00113612 1.9672e-05
-0.000142614 1.9672e-05 0.000191253
0.00199784 0.000466344 8.9641e-06
0.000466344 0.000807304 2.8021e-05
8.9641e-06 2.8021e-05 0.000573763
0.0111632 -0.0020656 -0.00023017
-0.0020656 0.00511319 5.43937e-05
-0.00023017 5.43937e-05 0.00453522
-0.00033871 0.00135633 -2.44662e-05
0.00135633 0.000586252 -3.59966e-05
-2.44662e-05 -3.59966e-05 -0.00304853
0.00206475 0.000968847 -2.65252e-05
0.000968847 0.000413567 -5.99672e-05
-2.65252e-05 -5.99672e-05 0.000535712
0.00417575 0.00199635 -0.000212895
0.00199635 -8.92503e-05 -0.000122793
-0.000212895 -0.000122793 -0.00255643
0.00231383 0.00070986 1.87245e-05
0.00070986 0.000667528 -1.88456e-05
1.87245e-05 -1.88456e-05 0.000411257
0.000835434 0.000330881 -4.77879e-06
0.000330881 0.000189644 4.79107e-07
-4.77879e-06 4.79107e-07 4.23125e-05
0.00106626 0.000106831 -7.55528e-06
0.000106831 0.000419583 3.02917e-06
-7.55528e-06 3.02917e-06 0.000287599
-0.00121057 0.000214646 -4.37109e-05
0.000214646 -0.000453498 -5.07704e-05
-4.37109e-05 -5.07704e-05 -0.00113293
0.00239027 0.000535691 -2.58111e-05
0.000535691 0.00121583 -1.68148e-05
-2.58111e-05 -1.68148e-05 0.000939218
0.00137533 0.000724244 1.42145e-05
0.000724244 0.00022844 -4.42841e-06
1.42145e-05 -4.42841e-06 -0.00017465
0.00273442 0.00109266 0.000110033
0.00109266 0.00025613 3.30661e-05
0.000110033 3.30661e-05 8.63583e-05
-0.00505366 -0.00012883 -0.000318186
-0.00012883 -0.00413939 9.19856e-06
-0.000318186 9.19856e-06 -0.00287631
-0.00416443 0.000237177 0.000163713
0.000237177 0.00320656 3.37139e-06
0.000163713 3.37139e-06 -0.000171922
0.00241969 -6.39514e-05 -7.99516e-05
-6.39514e-05 0.0015966 3.0769e-05
-7.99516e-05 3.0769e-05 0.000265625
0.00186911 -0.000360537 -5.33999e-05
-0.000360537 0.000673012 -4.03457e-05
-5.33999e-05 -4.03457e-05 0.00056033
0.00112139 -0.00108068 -6.21417e-06
-0.00108068 -0.000169449 1.68748e-05
-6.21417e-06 1.68748e-05 -0.00043939
0.00132466 0.000180911 -1.73416e-05
0.000180911 0.00398332 2.95524e-05
-1.73416e-05 2.95524e-05 0.00234325
0.00290854 -0.00124249 0.000215798
-0.00124249 -0.000111697 -0.000139425
0.000215798 -0.000139425 -0.00264071
0.0119862 0.00152153 0.000215743
0.00152153 0.00549421 -1.67249e-05
0.000215743 -1.67249e-05 0.00432712
0.00275446 -0.000952049 -2.53884e-05
-0.000952049 0.000734356 7.43016e-06
-2.53884e-05 7.43016e-06 0.000500502
-7.08359e-05 0.000664269 0.0001118
0.000664269 -0.000357871 -2.76623e-05
0.0001118 -2.76623e-05 -0.00109607
0.00557925 -0.000653161 -7.29178e-05
-0.000653161 -0.000602204 6.65413e-05
-7.29178e-05 6.65413e-05 -0.00280314
0.00549545 -0.00158065 -3.56752e-05
-0.00158065 0.000933042 1.91808e-05
-3.56752e-05 1.91808e-05 0.00049545
0.00184599 -0.000685309 5.55972e-05
-0.000685309 0.000202908 -1.34798e-05
5.55972e-05 -1.34798e-05 -4.38662e-05
0.0111241 -0.000503844 -6.225e-07
-0.000503844 0.00261016 -2.2985e-05
-6.225e-07 -2.2985e-05 0.00101733
0.00337683 -0.000851558 8.49611e-05
-0.000851558 -0.00100015 -5.21734e-05
8.49611e-05 -5.21734e-05 -0.000691084
-0.000938614 -0.000300754 -2.29846e-05
-0.000300754 -0.00107755 1.51368e-05
-2.29846e-05 1.51368e-05 -0.00103269
0.000386567 -0.000375695 -1.43282e-05
-0.000375695 -0.000533864 -3.56572e-07
-1.43282e-05 -3.56572e-07 -0.000591067
0.00384312 -0.000652995 3.6181e-05
-0.000652995 0.00107367 -1.82821e-05
3.6181e-05 -1.82821e-05 0.000994748
0.000204588 -0.000388222 -1.4858e-05
-0.000388222 -0.000463969 -7.7703e-06
-1.4858e-05 -7.7703e-06 -0.000740823
0.00175282 -0.000579484 2.56591e-07
-0.000579484 0.000132388 -1.16972e-06
2.56591e-07 -1.16972e-06 -9.86168e-05
0.00230259 -0.000537537 -1.81551e-07
-0.000537537 0.000219153 -1.81992e-06
-1.81551e-07 -1.81992e-06 7.15915e-05
0.00166618 -0.000541984 -3.26017e-06
-0.000541984 0.000213323 5.24003e-06
-3.26017e-06 5.24003e-06 -0.00011898
0.00183899 -0.000496963 -1.86315e-06
-0.000496963 0.000111062 9.50539e-07
-1.86315e-06 9.50539e-07 -0.000107362
0.00186502 -0.000383888 8.65211e-07
-0.000383888 4.26877e-05 -9.37149e-07
8.65211e-07 -9.37149e-07 -8.5845e-05
0.00125474 -0.000422345 3.24986e-06
-0.000422345 -5.03703e-05 4.81354e-06
3.24986e-06 4.81354e-06 -0.000311856
0.00174766 -0.000373393 -3.25777e-07
-0.000373393 9.33179e-05 1.1244e-06
-3.25777e-07 1.1244e-06 -7.78192e-05
0.0017805 -0.000318227 -3.33308e-06
-0.000318227 6.0786e-05 -9.36672e-07
-3.33308e-06 -9.36672e-07 -5.75558e-05
0.00201903 -0.000304994 -3.35641e-06
-0.000304994 0.000267626 -3.50364e-07
-3.35641e-06 -3.50364e-07 0.000146738
0.00174335 -0.000308056 -2.5375e-06
-0.000308056 9.4686e-05 3.21596e-06
-2.5375e-06 3.21596e-06 -4.95869e-05
0.00178556 -0.000324902 -1.8942e-06
-0.000324902 0.000158215 -5.41358e-06
-1.8942e-06 -5.41358e-06 -6.29221e-06
0.0017063 -0.000380958 -4.49964e-06
-0.000380958 0.000179509 -2.05321e-06
-4.49964e-06 -2.05321e-06 -4.36282e-05
0.00169939 -0.000389908 1.26704e-06
-0.000389908 0.000139846 4.97933e-07
1.26704e-06 4.97933e-07 -8.10157e-05
0.00163501 -0.000368613 4.49944e-06
-0.000368613 9.57737e-05 6.15365e-06
4.49944e-06 6.15365e-06 -0.000108129
0.00156656 -0.00036756 -6.6611e-06
-0.00036756 0.000259509 8.97368e-07
-6.6611e-06 8.97368e-07 1.31628e-05
0.00146569 -0.00041036 -6.36036e-07
-0.00041036 0.000126457 2.96784e-07
-6.36036e-07 2.96784e-07 -0.00013648
0.00182816 -0.000479718 3.03918e-06
-0.000479718 0.000314989 4.54615e-07
3.03918e-06 4.54615e-07 3.77485e-05
0.00116532 -0.00025917 -5.35385e-06
-0.00025917 0.000165136 2.91071e-06
-5.35385e-06 2.91071e-06 -4.62915e-05
0.00131972 -0.000328307 5.52888e-07
-0.000328307 0.00019485 3.97798e-07
5.52888e-07 3.97798e-07 -4.8527e-05
0.0013756 -0.000391883 2.02836e-06
-0.000391883 0.000185464 -1.50388e-06
2.02836e-06 -1.50388e-06 -8.46141e-05
0.000809378 -0.000169892 -5.89628e-06
-0.000169892 0.000106912 4.93386e-06
-5.89628e-06 4.93386e-06 -6.76401e-05
0.00110257 -0.000244934 9.42668e-07
-0.000244934 0.000205281 3.71097e-08
9.42668e-07 3.71097e-08 -4.23636e-06
0.00113643 -0.000282383 8.57995e-07
-0.000282383 0.000158881 -1.37288e-06
8.57995e-07 -1.37288e-06 -7.02629e-05
0.000289857 -3.19855e-05 -7.65241e-06
-3.19855e-05 -0.000167072 1.2019e-05
-7.65241e-06 1.2019e-05 -0.000226727
0.000736677 -0.000120206 7.46844e-07
-0.000120206 0.000116563 7.32394e-07
7.46844e-07 7.32394e-07 -5.06306e-05
0.00131982 -0.000235822 3.82501e-07
-0.000235822 0.000428847 -1.36354e-06
3.82501e-07 -1.36354e-06 0.00021519
0.00315339 0.000159341 -5.41836e-05
0.000159341 0.00158933 2.53502e-06
-5.41836e-05 2.53502e-06 0.00157863
0.000509615 1.31218e-05 -1.39786e-07
1.31218e-05 -2.30915e-05 -7.56178e-07
-1.39786e-07 -7.56178e-07 -7.06697e-05
0.00120358 -0.000110394 1.79241e-06
-0.000110394 0.000403033 -5.76624e-06
1.79241e-06 -5.76624e-06 0.000262975
0.00186285 0.00010626 2.67551e-05
0.00010626 0.000802895 6.03354e-07
2.67551e-05 6.03354e-07 0.000794426
0.000611859 3.50084e-05 2.74565e-06
3.50084e-05 3.6103e-05 -7.5943e-06
2.74565e-06 -7.5943e-06 -1.22562e-06
0.00270791 0.000121784 4.24135e-05
0.000121784 0.00130628 -2.89916e-06
4.24135e-05 -2.89916e-06 0.00130599
0.000904634 0.000150872 4.64137e-06
0.000150872 0.000184121 5.80998e-07
4.64137e-06 5.80998e-07 3.95477e-05
0.000527638 8.12243e-05 -1.05305e-07
8.12243e-05 -1.37641e-05 -1.74853e-07
-1.05305e-07 -1.74853e-07 -0.000144294
0.000622955 6.7294e-05 -7.25083e-08
6.7294e-05 5.56381e-05 -1.31479e-06
-7.25083e-08 -1.31479e-06 -8.04429e-05
0.00087736 0.000101493 1.47894e-07
0.000101493 0.000216216 2.83101e-07
1.47894e-07 2.83101e-07 7.61942e-05
0.000709522 4.81006e-05 2.10912e-07
4.81006e-05 0.000111044 3.30583e-09
2.10912e-07 3.30583e-09 -1.73036e-05
0.000676752 1.7963e-05 -1.02227e-06
1.7963e-05 7.41136e-05 -4.91748e-06
-1.02227e-06 -4.91748e-06 -1.87918e-05
0.00055905 -1.67241e-05 -2.55123e-06
-1.67241e-05 -8.91125e-06 -7.36443e-06
-2.55123e-06 -7.36443e-06 -4.25453e-05
0.000605727 1.07573e-05 2.71562e-07
1.07573e-05 3.17158e-05 -8.02532e-08
2.71562e-07 -8.02532e-08 -5.35328e-05
0.000627975 2.57855e-05 -7.60954e-07
2.57855e-05 4.63965e-05 2.00631e-06
-7.60954e-07 2.00631e-06 -6.29097e-05
0.00273183 -9.6954e-05 -4.64196e-05
-9.6954e-05 0.00130436 -3.93555e-06
-4.64196e-05 -3.93555e-06 0.00130978
0.000509161 -1.55418e-05 6.86407e-08
-1.55418e-05 -4.38954e-05 -1.07799e-07
6.86407e-08 -1.07799e-07 -7.25137e-05
0.000580075 2.07273e-05 3.07906e-07
2.07273e-05 1.64626e-05 3.23067e-06
3.07906e-07 3.23067e-06 -6.3331e-05
0.00259675 -8.31061e-05 -5.40184e-06
-8.31061e-05 0.00121606 3.75144e-07
-5.40184e-06 3.75144e-07 0.00122432
0.000497619 -2.43274e-05 -6.03473e-08
-2.43274e-05 -5.54717e-05 5.59923e-06
-6.03473e-08 5.59923e-06 -7.97303e-05
0.00246206 -6.68392e-05 2.60608e-05
-6.68392e-05 0.00112911 4.4468e-06
2.60608e-05 4.4468e-06 0.00114059
-5.74436e-06 0.000310212 -0.000300939
0.000310212 0.00204442 1.47478e-05
-0.000300939 1.47478e-05 0.00073115
-0.00344224 4.5575e-05 2.35978e-05
4.5575e-05 0.00232871 1.35334e-05
2.35978e-05 1.35334e-05 -0.0011076
0.00470761 -1.74176e-05 -8.88898e-05
-1.74176e-05 0.00243587 -1.41706e-05
-8.88898e-05 -1.41706e-05 0.00124758
0.000417565 4.70502e-05 2.28938e-06
4.70502e-05 -8.23064e-05 -2.5974e-06
2.28938e-06 -2.5974e-06 -0.000198792
0.000678083 6.01838e-05 3.03628e-06
6.01838e-05 7.48151e-05 1.20681e-06
3.03628e-06 1.20681e-06 -7.56077e-05
0.00186591 0.00030285 -1.72366e-06
0.00030285 0.000802613 1.37036e-06
-1.72366e-06 1.37036e-06 0.000616114
0.00138254 0.000315233 3.86804e-06
0.000315233 0.000409269 -2.48776e-06
3.86804e-06 -2.48776e-06 0.000171326
0.00104736 0.000224878 -5.31112e-06
0.000224878 0.000355996 3.44502e-07
-5.31112e-06 3.44502e-07 0.000158629
0.000874816 0.000122483 -1.84208e-07
0.000122483 0.000258299 2.61684e-06
-1.84208e-07 2.61684e-06 8.84792e-05
0.000855844 0.000118029 5.31227e-06
0.000118029 0.000198925 3.64384e-06
5.31227e-06 3.64384e-06 3.69545e-05
0.000626339 0.000181028 -5.00896e-06
0.000181028 0.000110943 -3.3735e-06
-5.00896e-06 -3.3735e-06 -9.48539e-05
-0.000342547 0.000174718 1.76918e-06
0.000174718 -0.000546608 -5.741e-07
1.76918e-06 -5.741e-07 -0.000741328
0.0017873 0.000393262 4.64116e-06
0.000393262 0.000570568 -2.63711e-06
4.64116e-06 -2.63711e-06 0.000431649
0.00197355 0.000594776 9.07825e-06
0.000594776 0.000390821 -5.63268e-06
9.07825e-06 -5.63268e-06 0.000175688
0.000872944 0.000297665 -5.82002e-06
0.000297665 0.000146175 -8.32812e-07
-5.82002e-06 -8.32812e-07 1.40957e-05
0.000782492 0.000113434 -3.24794e-06
0.000113434 0.000197127 -1.89335e-06
-3.24794e-06 -1.89335e-06 4.65e-05
0.0120752 0.00109485 -9.97628e-05
0.00109485 0.00274364 4.35087e-05
-9.97628e-05 4.35087e-05 0.00125365
-0.000112822 -0.000884978 -0.000249157
-0.000884978 0.00240758 -8.67691e-05
-0.000249157 -8.67691e-05 0.000657983
-0.00134656 -0.00131744 0.000168533
-0.00131744 0.00220066 1.78766e-05
0.000168533 1.78766e-05 -0.000768127
-0.000269896 -0.00116814 6.19673e-05
-0.00116814 0.000243881 0.000197605
6.19673e-05 0.000197605 -0.000379429
0.0114316 0.00163311 -1.03015e-05
0.00163311 0.00488723 1.56954e-06
-1.03015e-05 1.56954e-06 0.0014767
-0.000670564 0.000275329 -1.7281e-05
0.000275329 -0.000422977 -2.77724e-05
-1.7281e-05 -2.77724e-05 -0.000620473
0.0016656 0.000871649 -2.56506e-05
0.000871649 0.000350892 -1.19698e-05
-2.56506e-05 -1.19698e-05 0.000435445
0.0117519 0.0014478 2.39682e-05
0.0014478 0.00360648 2.47341e-05
2.39682e-05 2.47341e-05 0.00154572
0.00608845 0.00180381 -4.29411e-05
0.00180381 0.000913635 -6.1343e-05
-4.29411e-05 -6.1343e-05 0.000543161
0.00154867 0.000709387 6.56575e-06
0.000709387 0.000118511 -5.96545e-06
6.56575e-06 -5.96545e-06 -6.04686e-05
0.00116368 0.000549248 5.75215e-06
0.000549248 0.000182988 -3.50321e-07
5.75215e-06 -3.50321e-07 -5.44969e-05
0.000958405 0.000308178 -1.85069e-05
0.000308178 0.000280059 1.5468e-05
-1.85069e-05 1.5468e-05 0.000143293
0.00264734 0.000886716 -5.02288e-05
0.000886716 0.000771749 -1.91148e-05
-5.02288e-05 -1.91148e-05 0.000381962
0.00184953 0.00100721 4.23489e-06
0.00100721 -0.000322317 1.92078e-05
4.23489e-06 1.92078e-05 -0.000487668
0.00116861 -0.000383849 -4.76105e-05
-0.000383849 -0.00339448 2.81332e-05
-4.76105e-05 2.81332e-05 -0.0036325
0.00188974 -0.000642713 2.51696e-07
-0.000642713 0.00128445 -2.42907e-05
2.51696e-07 -2.42907e-05 0.00132686
-0.00649637 6.68274e-06 0.000185628
6.68274e-06 0.00277515 -6.1998e-06
0.000185628 -6.1998e-06 -0.000738298
0.00154272 -0.000955307 -2.5769e-05
-0.000955307 1.67559e-05 6.04977e-06
-2.5769e-05 6.04977e-06 -0.000332642
0.00321195 -0.00142314 4.04644e-05
-0.00142314 0.000379566 -2.10874e-07
4.04644e-05 -2.10874e-07 -0.000361356
0.00128478 -0.000303895 0.000344648
-0.000303895 0.00235563 -4.05436e-05
0.000344648 -4.05436e-05 0.00124808
0.0128658 -0.000806564 -0.000161628
-0.000806564 0.00316912 7.34631e-05
-0.000161628 7.34631e-05 0.00158851
0.00121034 -0.000662466 -3.25374e-05
-0.000662466 -0.000162421 -1.90658e-06
-3.25374e-05 -1.90658e-06 -0.000352675
0.00900909 4.87981e-05 -8.59706e-05
4.87981e-05 0.000731737 3.39255e-05
-8.59706e-05 3.39255e-05 -0.000358123
0.00503786 -0.000940748 8.44758e-05
-0.000940748 -0.000125249 7.15376e-06
8.44758e-05 7.15376e-06 -0.000231914
0.00374953 -0.000657905 6.03258e-05
-0.000657905 0.00103168 -1.72982e-05
6.03258e-05 -1.72982e-05 0.000688287
0.00305697 -0.000345966 -8.13006e-05
-0.000345966 -0.000394417 6.89069e-06
-8.13006e-05 6.89069e-06 -0.000241464
-0.00269597 -0.000161115 -1.43691e-05
-0.000161115 -0.00224448 5.11655e-06
-1.43691e-05 5.11655e-06 -0.00221102
0.00152486 -0.000504992 -1.64892e-06
-0.000504992 -0.000175984 -3.03772e-07
-1.64892e-06 -3.03772e-07 -0.00021058
0.00256939 -0.000455772 2.0018e-05
-0.000455772 0.000238534 -9.543e-06
2.0018e-05 -9.543e-06 0.000270748
0.00108603 -0.00051644 -3.28864e-06
-0.00051644 -0.000201762 4.28889e-06
-3.28864e-06 4.28889e-06 -0.00042028
0.00182477 -0.000492251 -2.15599e-06
-0.000492251 -1.31948e-05 6.1575e-07
-2.15599e-06 6.1575e-07 -0.000156651
0.00207956 -0.000393841 2.55852e-06
-0.000393841 1.78092e-05 4.73348e-07
2.55852e-06 4.73348e-07 -3.42631e-05
0.00198339 -0.000504463 -5.5073e-06
-0.000504463 0.000193397 7.20109e-06
-5.5073e-06 7.20109e-06 -2.83124e-05
0.00190599 -0.000385067 3.10684e-07
-0.000385067 6.63917e-05 1.73476e-06
3.10684e-07 1.73476e-06 -5.98802e-05
0.00190516 -0.000348731 -2.62106e-07
-0.000348731 7.46642e-05 1.97041e-06
-2.62106e-07 1.97041e-06 -1.39799e-05
0.00171264 -0.000365007 3.59218e-06
-0.000365007 7.92538e-05 5.81016e-06
3.59218e-06 5.81016e-06 -9.00837e-05
0.00178377 -0.000321508 -3.49712e-07
-0.000321508 6.09332e-05 1.49753e-06
-3.49712e-07 1.49753e-06 -5.86197e-05
0.00197783 -0.000329067 -1.39393e-06
-0.000329067 0.00018259 6.35714e-07
-1.39393e-06 6.35714e-07 7.37597e-05
0.00187438 -0.000299611 -4.08081e-06
-0.000299611 0.000174363 3.48621e-06
-4.08081e-06 3.48621e-06 5.68581e-05
0.00191156 -0.000308796 8.4338e-07
-0.000308796 0.000226208 -2.99732e-06
8.4338e-07 -2.99732e-06 9.29123e-05
0.00182649 -0.0003117 3.4334e-06
-0.0003117 0.000137548 7.94145e-06
3.4334e-06 7.94145e-06 -2.40587e-06
0.00178911 -0.000325621 3.40222e-07
-0.000325621 0.000158811 -8.46192e-07
3.40222e-07 -8.46192e-07 -6.11524e-06
0.00170999 -0.000327471 -1.82185e-06
-0.000327471 0.000140599 -3.45791e-06
-1.82185e-06 -3.45791e-06 -4.22251e-05
0.00164895 -0.000347596 -5.13325e-06
-0.000347596 0.000217642 -1.39634e-06
-5.13325e-06 -1.39634e-06 -4.37235e-06
0.00175179 -0.000385504 2.16294e-07
-0.000385504 0.000207611 -2.33457e-07
2.16294e-07 -2.33457e-07 -1.70418e-05
0.00185705 -0.000401484 5.24021e-06
-0.000401484 0.000234135 2.97224e-06
5.24021e-06 2.97224e-06 1.2299e-05
0.0011876 -0.000261404 -7.43731e-06
-0.000261404 0.000112322 2.97887e-06
-7.43731e-06 2.97887e-06 -9.57228e-05
0.00142773 -0.000352768 -1.08099e-06
-0.000352768 0.000182239 2.21956e-07
-1.08099e-06 2.21956e-07 -6.22417e-05
0.00149141 -0.000413577 2.92327e-06
-0.000413577 0.000136147 1.03415e-06
2.92327e-06 1.03415e-06 -0.000127659
0.000806847 -0.000176633 -8.18878e-06
-0.000176633 3.12821e-05 6.32481e-06
-8.18878e-06 6.32481e-06 -0.000140832
0.0011274 -0.000257099 5.799e-07
-0.000257099 0.000140962 1.59813e-07
5.799e-07 1.59813e-07 -7.09336e-05
0.0011135 -0.000309489 3.60253e-06
-0.000309489 7.18108e-05 -9.99024e-07
3.60253e-06 -9.99024e-07 -0.000168663
0.000392983 -0.000106324 -1.80768e-05
-0.000106324 -0.000135592 1.37759e-05
-1.80768e-05 1.37759e-05 -0.000208418
0.000797817 -0.000180264 -3.86144e-07
-0.000180264 0.000100064 4.11892e-07
-3.86144e-07 4.11892e-07 -7.54975e-05
0.00105426 -0.000235309 3.00947e-06
-0.000235309 0.000177423 -1.55526e-06
3.00947e-06 -1.55526e-06 -2.99099e-05
0.00393517 0.000180449 -8.58175e-05
0.000180449 0.00206282 3.44821e-06
-8.58175e-05 3.44821e-06 0.00204694
0.000551479 -5.217e-05 1.27511e-06
-5.217e-05 -1.4682e-05 -3.75765e-07
1.27511e-06 -3.75765e-07 -7.67142e-05
0.000922158 -0.000170752 4.89062e-06
-0.000170752 0.000227671 -4.59052e-06
4.89062e-06 -4.59052e-06 5.43581e-05
0.00340377 0.000148612 1.03384e-05
0.000148612 0.00173585 3.08804e-07
1.03384e-05 3.08804e-07 0.00172871
0.000730816 -5.15034e-06 7.97524e-06
-5.15034e-06 0.00010383 -9.89466e-06
7.97524e-06 -9.89466e-06 5.58603e-05
0.00301755 0.000127226 6.83228e-05
0.000127226 0.00149652 -2.2719e-06
6.83228e-05 -2.2719e-06 0.00149551
0.000769905 0.000226067 4.44077e-06
0.000226067 3.70165e-05 -4.29323e-06
4.44077e-06 -4.29323e-06 -0.000171787
0.000861514 0.000173941 1.40881e-06
0.000173941 0.000167449 -3.30605e-07
1.40881e-06 -3.30605e-07 1.42051e-05
0.000282973 6.81511e-05 1.3925e-06
6.81511e-05 -0.000159202 -5.77415e-07
1.3925e-06 -5.77415e-07 -0.000300287
0.000111453 3.60984e-05 -9.52722e-07
3.60984e-05 -0.000259237 -1.69921e-06
-9.52722e-07 -1.69921e-06 -0.000380432
0.000487239 3.47747e-05 -3.02866e-07
3.47747e-05 -2.95764e-05 8.53574e-07
-3.02866e-07 8.53574e-07 -0.000161048
0.000691307 3.03947e-05 -1.4784e-06
3.03947e-05 7.99871e-05 -4.97178e-06
-1.4784e-06 -4.97178e-06 -2.32317e-05
0.000586914 2.35527e-05 -2.66176e-07
2.35527e-05 2.73512e-05 2.42033e-06
-2.66176e-07 2.42033e-06 -9.1413e-05
0.000602304 1.02927e-05 3.22992e-07
1.02927e-05 3.21069e-05 -2.49876e-07
3.22992e-07 -2.49876e-07 -6.08663e-05
0.000573937 -1.86707e-05 -3.25614e-06
-1.86707e-05 5.55298e-06 -8.36753e-06
-3.25614e-06 -8.36753e-06 -3.32209e-05
0.00290244 -0.000112037 -5.70895e-05
-0.000112037 0.00141567 -3.53204e-06
-5.70895e-05 -3.53204e-06 0.00141765
0.000501063 -1.79314e-05 3.38571e-07
-1.79314e-05 -4.2969e-05 -7.12535e-08
3.38571e-07 -7.12535e-08 -7.64074e-05
0.00056504 1.21726e-05 7.68042e-07
1.21726e-05 8.58391e-06 4.1199e-06
7.68042e-07 4.1199e-06 -7.70524e-05
0.0027504 -9.88066e-05 -5.91857e-06
-9.88066e-05 0.0013154 4.61407e-07
-5.91857e-06 4.61407e-07 0.00132028
0.000462418 -2.64034e-05 5.3536e-08
-2.64034e-05 -6.99535e-05 6.30291e-06
5.3536e-08 6.30291e-06 -9.90624e-05
0.00257551 -8.25143e-05 3.22464e-05
-8.25143e-05 0.00120254 4.29655e-06
3.22464e-05 4.29655e-06 0.00121097
0.0121416 0.000550352 0.000245264
0.000550352 0.00261916 7.0003e-05
0.000245264 7.0003e-05 0.00174495
-0.00323252 -0.00119163 -0.000180162
-0.00119163 -0.0026688 -2.81441e-05
-0.000180162 -2.81441e-05 -0.00314623
-0.00630103 0.0005756 -8.55694e-05
0.0005756 0.00131366 -5.19745e-05
-8.55694e-05 -5.19745e-05 -0.00270583
0.000481638 2.93888e-05 1.14415e-05
2.93888e-05 -4.85693e-05 1.64472e-06
1.14415e-05 1.64472e-06 -0.000206098
0.00102706 0.000218275 -5.86151e-06
0.000218275 0.000302528 1.33626e-06
-5.86151e-06 1.33626e-06 0.00013866
0.00134179 0.000247897 -1.39208e-06
0.000247897 0.000507752 -1.48517e-06
-1.39208e-06 -1.48517e-06 0.00030754
0.00149538 0.000322581 -4.04107e-06
0.000322581 0.000488158 1.15543e-06
-4.04107e-06 1.15543e-06 0.000251327
0.000719299 0.000291659 1.29547e-05
0.000291659 -0.000123363 3.14933e-06
1.29547e-05 3.14933e-06 -0.00037812
4.14083e-05 0.000196759 3.3081e-06
0.000196759 -0.000330641 -1.74345e-06
3.3081e-06 -1.74345e-06 -0.000533811
0.000236539 0.000159879 -4.59721e-06
0.000159879 -0.000100056 -2.74448e-06
-4.59721e-06 -2.74448e-06 -0.000302265
0.000327789 0.000249889 1.72171e-06
0.000249889 -0.000187631 1.75788e-06
1.72171e-06 1.75788e-06 -0.000405619
0.00131024 0.000366259 -7.64347e-07
0.000366259 0.000312429 1.20555e-06
-7.64347e-07 1.20555e-06 0.000164196
0.000601729 0.000357408 6.10613e-06
0.000357408 -0.000193199 2.39982e-06
6.10613e-06 2.39982e-06 -0.000396677
0.00282319 0.000632624 -3.91508e-07
0.000632624 0.000826952 -1.89053e-06
-3.91508e-07 -1.89053e-06 0.000634859
0.00204615 0.000628313 2.33214e-07
0.000628313 0.000357305 6.53747e-06
2.33214e-07 6.53747e-06 0.000154355
0.00135656 0.000537249 4.1177e-06
0.000537249 6.94741e-05 -4.13713e-06
4.1177e-06 -4.13713e-06 -0.00012255
0.000350178 0.000270735 -3.73878e-06
0.000270735 -0.00013463 3.49752e-07
-3.73878e-06 3.49752e-07 -0.000273516
0.00589637 0.000820399 -7.93243e-06
0.000820399 0.00020884 1.14531e-05
-7.93243e-06 1.14531e-05 0.000618193
0.0103355 0.00100656 0.000128397
0.00100656 0.00178395 6.24216e-05
0.000128397 6.24216e-05 9.55606e-05
0.00656205 -0.00182802 0.000146312
-0.00182802 0.00352876 -5.28394e-05
0.000146312 -5.28394e-05 0.00244341
0.00367272 0.00186849 0.000370909
0.00186849 -0.000251198 0.000193478
0.000370909 0.000193478 -0.00394743
0.000646401 0.000649053 -5.89158e-05
0.000649053 3.64024e-05 -7.31437e-06
-5.89158e-05 -7.31437e-06 0.000257328
0.00341753 0.00135816 -9.41922e-05
0.00135816 -0.000133669 -2.87129e-05
-9.41922e-05 -2.87129e-05 -0.000223515
0.0044117 0.00113695 4.80438e-05
0.00113695 0.000840092 1.88311e-05
4.80438e-05 1.88311e-05 0.000752722
0.00326569 0.000882428 1.12912e-05
0.000882428 0.000888363 4.44522e-06
1.12912e-05 4.44522e-06 0.000696542
0.000682383 0.000474258 -1.31025e-05
0.000474258 -1.89413e-05 1.67847e-05
-1.31025e-05 1.67847e-05 -0.000238402
0.0047433 0.00126779 -0.000139593
0.00126779 0.00104815 -2.16027e-05
-0.000139593 -2.16027e-05 0.000820859
0.00302633 -0.000255101 -4.7467e-05
-0.000255101 0.000375186 6.2657e-06
-4.7467e-05 6.2657e-06 0.000290327
0.0102212 -0.000328344 -1.47509e-05
-0.000328344 0.00235794 5.51739e-06
-1.47509e-05 5.51739e-06 0.00181717
-0.0101422 -0.000933081 0.000368373
-0.000933081 -0.00556376 -6.36438e-06
0.000368373 -6.36438e-06 -0.00524264
0.00010163 -0.000593049 -4.84683e-05
-0.000593049 -0.000816545 1.37636e-05
-4.84683e-05 1.37636e-05 -0.000941897
0.00740824 -0.00124087 9.69939e-05
-0.00124087 0.00089495 4.36496e-05
9.69939e-05 4.36496e-05 0.000926946
0.00166483 -0.000339585 -4.73524e-05
-0.000339585 -0.00229454 5.99819e-05
-4.73524e-05 5.99819e-05 -0.00398743
0.00166218 -0.000479957 1.51369e-05
-0.000479957 -0.000152454 1.77629e-06
1.51369e-05 1.77629e-06 -0.000292569
0.00327611 -0.000223395 -1.14438e-05
-0.000223395 -0.000308951 4.03425e-06
-1.14438e-05 4.03425e-06 -0.000245215
0.0044255 -0.000473497 2.7945e-05
-0.000473497 0.000999208 -1.32415e-05
2.7945e-05 -1.32415e-05 0.00111334
0.00376346 -0.000126115 7.22032e-05
-0.000126115 0.000863252 2.33789e-06
7.22032e-05 2.33789e-06 0.000816296
-0.000756164 -0.000366051 -7.3148e-06
-0.000366051 -0.0014068 6.69694e-06
-7.3148e-06 6.69694e-06 -0.00139196
0.0018183 -0.00041585 -5.90544e-07
-0.00041585 -0.000168955 4.4332e-07
-5.90544e-07 4.4332e-07 -0.000117612
0.00188865 -0.000297455 1.56394e-05
-0.000297455 -0.0002146 -3.54067e-06
1.56394e-05 -3.54067e-06 -7.76803e-05
0.00153373 -0.000462942 -7.61474e-07
-0.000462942 -0.000156227 3.37859e-06
-7.61474e-07 3.37859e-06 -0.00029684
0.00201958 -0.000392793 1.69255e-06
-0.000392793 -1.24345e-05 7.01829e-07
1.69255e-06 7.01829e-07 -6.51389e-05
0.00196367 -0.00032772 9.61356e-07
-0.00032772 3.03656e-05 7.86655e-07
9.61356e-07 7.86655e-07 7.71814e-06
0.0019008 -0.000383276 2.37741e-06
-0.000383276 6.29086e-05 3.89482e-06
2.37741e-06 3.89482e-06 -6.07728e-05
0.00190308 -0.000343997 6.69132e-07
-0.000343997 8.25718e-05 3.68753e-07
6.69132e-07 3.68753e-07 -4.82156e-06
0.00196421 -0.000311422 -2.81349e-06
-0.000311422 0.00012205 1.59737e-06
-2.81349e-06 1.59737e-06 4.11219e-05
0.00179616 -0.000324708 4.47141e-06
-0.000324708 6.65053e-05 3.36702e-06
4.47141e-06 3.36702e-06 -5.4079e-05
0.00185348 -0.000323041 1.85182e-07
-0.000323041 0.000119725 3.9449e-07
1.85182e-07 3.9449e-07 1.09638e-05
0.0017342 -0.000298283 2.29471e-06
-0.000298283 8.60243e-05 -1.26641e-06
2.29471e-06 -1.26641e-06 -2.93908e-05
0.00173202 -0.000294314 -1.35036e-06
-0.000294314 8.27763e-05 6.38843e-06
-1.35036e-06 6.38843e-06 -3.13922e-05
0.00191577 -0.000305305 -2.22799e-06
-0.000305305 0.000224621 2.529e-07
-2.22799e-06 2.529e-07 9.50907e-05
0.00185899 -0.000304734 4.08942e-07
-0.000304734 0.00021402 -2.02772e-06
4.08942e-07 -2.02772e-06 5.77155e-05
0.0017907 -0.000325571 3.14168e-06
-0.000325571 0.000158176 3.74638e-06
3.14168e-06 3.74638e-06 -6.9602e-06
0.00175926 -0.000331628 4.55526e-07
-0.000331628 0.00017111 -5.61491e-07
4.55526e-07 -5.61491e-07 -1.30226e-05
0.00175556 -0.000312221 -1.93009e-06
-0.000312221 0.000232867 -1.77012e-06
-1.93009e-06 -1.77012e-06 3.97389e-05
0.00125753 -0.000259952 -9.05163e-06
-0.000259952 9.26156e-05 2.23324e-06
-9.05163e-06 2.23324e-06 -0.00010808
0.00164785 -0.000348621 -1.01137e-06
-0.000348621 0.000220729 -3.43398e-07
-1.01137e-06 -3.43398e-07 -3.03189e-06
0.00179232 -0.000389765 4.19861e-06
-0.000389765 0.000233356 1.23073e-06
4.19861e-06 1.23073e-06 7.21134e-06
0.000895686 -0.000187338 -1.10058e-05
-0.000187338 2.38453e-05 6.38341e-06
-1.10058e-05 6.38341e-06 -0.000144403
0.0011909 -0.000263995 5.25e-08
-0.000263995 0.000108828 2.09793e-07
5.25e-08 2.09793e-07 -0.000100043
0.00126015 -0.000336127 2.56053e-06
-0.000336127 8.60273e-05 1.0334e-08
2.56053e-06 1.0334e-08 -0.000156353
0.000436796 -0.000133024 -1.9669e-05
-0.000133024 -0.00013271 1.48707e-05
-1.9669e-05 1.48707e-05 -0.000216394
0.000835776 -0.000181533 4.86147e-07
-0.000181533 5.13149e-05 3.36726e-07
4.86147e-07 3.36726e-07 -0.000122012
0.00113916 -0.000259792 6.74723e-06
-0.000259792 0.00014571 -2.52629e-06
6.74723e-06 -2.52629e-06 -6.73828e-05
0.00479112 0.000194531 -0.000128114
0.000194531 0.00257961 7.29185e-06
-0.000128114 7.29185e-06 0.00255859
0.000549295 -0.000110385 -6.99314e-07
-0.000110385 -4.2238e-05 -3.03486e-07
-6.99314e-07 -3.03486e-07 -0.000119636
0.000747448 -0.000190975 7.22301e-06
-0.000190975 6.89064e-05 -5.39713e-06
7.22301e-06 -5.39713e-06 -0.000107165
0.00419749 0.000149109 1.12778e-05
0.000149109 0.00221281 6.38585e-07
1.12778e-05 6.38585e-07 0.00220423
0.000730633 -6.23751e-05 1.40642e-05
-6.23751e-05 8.87434e-05 -1.2034e-05
1.40642e-05 -1.2034e-05 2.49872e-05
0.00360105 0.000111432 0.000115292
0.000111432 0.00184645 -5.38756e-06
0.000115292 -5.38756e-06 0.00184823
0.00104812 0.000279721 -3.7879e-06
0.000279721 9.96088e-05 -3.85014e-06
-3.7879e-06 -3.85014e-06 -0.000137514
0.00143279 0.000287823 1.21694e-06
0.000287823 0.000438357 6.94265e-07
1.21694e-06 6.94265e-07 0.0002186
0.000690525 0.000172574 3.96889e-07
0.000172574 3.3716e-05 -5.93616e-06
3.96889e-07 -5.93616e-06 -0.000153309
0.000697724 0.000182404 -3.16693e-06
0.000182404 8.26862e-05 -5.11687e-07
-3.16693e-06 -5.11687e-07 -7.78786e-05
0.000350403 7.84943e-05 6.90226e-07
7.84943e-05 -0.000121065 -5.53364e-07
6.90226e-07 -5.53364e-07 -0.000267083
0.000773344 0.000113167 -2.49677e-06
0.000113167 0.000136886 -5.49426e-06
-2.49677e-06 -5.49426e-06 4.01054e-06
0.00035101 1.16053e-05 -2.37441e-07
1.16053e-05 -0.000116899 1.68208e-06
-2.37441e-07 1.68208e-06 -0.000242445
0.000628362 2.7984e-05 -5.46837e-08
2.7984e-05 4.4631e-05 -2.40283e-07
-5.46837e-08 -2.40283e-07 -5.88418e-05
0.000587755 -1.24775e-05 -4.4511e-06
-1.24775e-05 1.72745e-05 -9.42706e-06
-4.4511e-06 -9.42706e-06 -2.70173e-05
0.000539519 6.57493e-06 7.62004e-07
6.57493e-06 -4.71862e-06 4.84274e-06
7.62004e-07 4.84274e-06 -9.68671e-05
0.000502666 -1.60525e-05 2.92729e-07
-1.60525e-05 -3.63064e-05 -1.05011e-07
2.92729e-07 -1.05011e-07 -7.45803e-05
0.00306793 -0.000124269 -6.98275e-05
-0.000124269 0.00152415 -3.09254e-06
-6.98275e-05 -3.09254e-06 0.0015232
0.00286799 -0.000113504 -4.92859e-06
-0.000113504 0.00139449 4.76512e-07
-4.92859e-06 4.76512e-07 0.00139591
0.000463555 -8.00689e-06 3.32356e-06
-8.00689e-06 -6.58654e-05 7.31704e-06
3.32356e-06 7.31704e-06 -9.84539e-05
0.00270123 -9.82075e-05 3.96044e-05
-9.82075e-05 0.00128544 4.02602e-06
3.96044e-05 4.02602e-06 0.00129033
0.0037608 6.3202e-05 4.40371e-05
6.3202e-05 -0.000353939 1.42853e-05
4.40371e-05 1.42853e-05 2.87037e-05
0.00332294 -0.000624399 7.95326e-05
-0.000624399 -0.00255726 3.77616e-05
7.95326e-05 3.77616e-05 -0.00365862
0.00841377 -0.00124529 -0.000109819
-0.00124529 0.00313407 -6.43435e-05
-0.000109819 -6.43435e-05 0.00335998
0.00112808 0.000365226 6.88216e-06
0.000365226 -1.24189e-05 4.97013e-06
6.88216e-06 4.97013e-06 -0.000269309
0.00184273 0.000295807 -2.7728e-07
0.000295807 0.000787971 2.12823e-06
-2.7728e-07 2.12823e-06 0.000579785
0.00167689 0.000337668 -5.80791e-06
0.000337668 0.000608771 7.17182e-06
-5.80791e-06 7.17182e-06 0.000371097
0.000793976 0.000277719 1.84342e-06
0.000277719 0.000100546 2.44221e-06
1.84342e-06 2.44221e-06 -0.000120837
0.00121575 0.000339593 -1.53002e-06
0.000339593 0.000184868 -1.00071e-06
-1.53002e-06 -1.00071e-06 -8.21937e-05
0.00118117 0.000411907 9.82996e-06
0.000411907 0.000118059 7.31669e-06
9.82996e-06 7.31669e-06 -0.000125346
0.00108405 0.000332613 -1.01142e-05
0.000332613 0.000227426 -4.5227e-06
-1.01142e-05 -4.5227e-06 -1.60039e-05
0.000697015 0.000331297 3.44142e-06
0.000331297 -2.24337e-05 3.18004e-06
3.44142e-06 3.18004e-06 -0.000175547
0.00125016 0.000424412 2.0842e-06
0.000424412 0.00016099 -1.21558e-06
2.0842e-06 -1.21558e-06 -5.32774e-05
0.00204361 0.000563179 2.40637e-06
0.000563179 0.000388894 5.94789e-06
2.40637e-06 5.94789e-06 0.000215281
0.00171985 0.000567464 5.48312e-06
0.000567464 0.000142968 1.06879e-06
5.48312e-06 1.06879e-06 -7.09711e-05
0.00174094 0.000529577 9.25081e-06
0.000529577 0.000171954 6.57245e-06
9.25081e-06 6.57245e-06 2.48952e-05
0.00120548 0.000556325 -3.30066e-06
0.000556325 -9.1107e-05 -2.60817e-06
-3.30066e-06 -2.60817e-06 -0.0002811
0.000590543 0.000461606 -3.82867e-06
0.000461606 -0.000328994 -1.87489e-06
-3.82867e-06 -1.87489e-06 -0.00049356
0.00162363 0.000456864 3.47453e-05
0.000456864 -0.000302303 3.5474e-05
3.47453e-05 3.5474e-05 -0.000217709
0.00538655 0.000915867 -5.97377e-05
0.000915867 -0.00033317 -1.67984e-05
-5.97377e-05 -1.67984e-05 7.33098e-05
0.00251536 0.000635506 0.000328587
0.000635506 -0.00243031 4.74158e-05
0.000328587 4.74158e-05 -0.00430078
0.00022225 0.000982372 -3.76376e-05
0.000982372 -0.00143174 -2.63261e-05
-3.76376e-05 -2.63261e-05 -0.00141342
0.0030422 0.00091486 -2.79208e-05
0.00091486 0.000439367 -4.18306e-06
-2.79208e-05 -4.18306e-06 0.000349615
0.00281474 0.000835357 -7.63071e-05
0.000835357 0.000648924 -2.50004e-05
-7.63071e-05 -2.50004e-05 0.000454019
0.00240965 -0.000211173 -2.34851e-05
-0.000211173 -4.35151e-05 -1.08778e-05
-2.34851e-05 -1.08778e-05 7.97645e-06
0.000688052 -0.000102754 2.35441e-05
-0.000102754 -0.000279858 7.32273e-06
2.35441e-05 7.32273e-06 -0.000321027
0.00132191 0.00078534 0.000108028
0.00078534 -0.00355191 -1.93797e-05
0.000108028 -1.93797e-05 -0.00390161
-0.000397158 -0.00031216 -2.26273e-05
-0.00031216 -0.00129525 3.49983e-05
-2.26273e-05 3.49983e-05 -0.0012271
0.00423201 -0.000198602 -5.67827e-05
-0.000198602 0.000185876 3.97995e-05
-5.67827e-05 3.97995e-05 -5.99606e-05
0.00228531 -0.000345462 -1.84503e-05
-0.000345462 -0.000105517 6.88969e-06
-1.84503e-05 6.88969e-06 4.61177e-05
0.00333845 -0.000174502 2.70626e-08
-0.000174502 0.000573837 -3.81258e-06
2.70626e-08 -3.81258e-06 0.000531534
0.0016455 -0.000196584 3.52779e-05
-0.000196584 -0.000403042 -2.69732e-06
3.52779e-05 -2.69732e-06 -0.000217187
0.00331697 -5.11813e-05 2.82389e-05
-5.11813e-05 0.000994284 4.53513e-07
2.82389e-05 4.53513e-07 0.000954885
0.00108254 -0.000371623 -1.91889e-05
-0.000371623 -0.000554402 8.5571e-06
-1.91889e-05 8.5571e-06 -0.000489217
0.00185064 -0.000308056 1.49279e-07
-0.000308056 -0.000253425 2.13179e-06
1.49279e-07 2.13179e-06 -0.000128466
0.00205111 -0.000293864 2.50306e-06
-0.000293864 -7.75536e-05 -1.07121e-06
2.50306e-06 -1.07121e-06 1.11475e-05
0.00194025 -0.000388066 -8.42212e-07
-0.000388066 -4.87325e-05 2.34657e-06
-8.42212e-07 2.34657e-06 -0.000101828
0.00196516 -0.000331728 3.85834e-07
-0.000331728 3.17265e-05 -2.84832e-09
3.85834e-07 -2.84832e-09 5.44387e-06
0.00198505 -0.000288688 -1.86374e-06
-0.000288688 7.00566e-05 3.65754e-07
-1.86374e-06 3.65754e-07 2.36503e-05
0.00190507 -0.000339735 2.86415e-07
-0.000339735 9.33751e-05 2.13697e-07
2.86415e-07 2.13697e-07 6.88494e-06
0.00189036 -0.000314406 -6.24571e-07
-0.000314406 8.48666e-05 4.13929e-08
-6.24571e-07 4.13929e-08 5.36803e-07
0.0018421 -0.000277533 -5.06582e-07
-0.000277533 0.00010939 6.3652e-07
-5.06582e-07 6.3652e-07 9.50963e-06
0.00170242 -0.000315631 5.02168e-07
-0.000315631 4.15607e-05 5.62445e-07
5.02168e-07 5.62445e-07 -6.71285e-05
0.00176095 -0.000300059 8.82632e-07
-0.000300059 9.84757e-05 -7.2105e-07
8.82632e-07 -7.2105e-07 -1.74022e-05
0.00178568 -0.000287082 1.60995e-06
-0.000287082 0.000133418 -2.05173e-06
1.60995e-06 -2.05173e-06 -1.6899e-06
0.00191956 -0.000301631 -4.12502e-06
-0.000301631 0.00022329 4.72703e-06
-4.12502e-06 4.72703e-06 9.75553e-05
0.00191617 -0.000305681 -1.51322e-06
-0.000305681 0.000244373 4.23425e-07
-1.51322e-06 4.23425e-07 9.17176e-05
0.00176439 -0.000284856 -1.22998e-06
-0.000284856 0.000207426 -1.39346e-06
-1.22998e-06 -1.39346e-06 3.342e-05
0.00181056 -0.000336275 2.67329e-06
-0.000336275 0.000202695 2.07698e-06
2.67329e-06 2.07698e-06 1.71417e-05
0.00174809 -0.000313985 8.18115e-07
-0.000313985 0.000229182 -5.97635e-07
8.18115e-07 -5.97635e-07 3.51468e-05
0.00136429 -0.000242098 -7.13858e-06
-0.000242098 0.000112952 1.66444e-06
-7.13858e-06 1.66444e-06 -7.48443e-05
0.000910104 -0.00017881 -1.23918e-05
-0.00017881 -4.20855e-06 6.29822e-06
-1.23918e-05 6.29822e-06 -0.000164722
0.00123794 -0.000258203 -1.28242e-06
-0.000258203 8.28447e-05 2.58253e-07
-1.28242e-06 2.58253e-07 -0.00011824
0.00165037 -0.00035005 3.1202e-06
-0.00035005 0.0002259 6.51474e-08
3.1202e-06 6.51474e-08 3.04256e-07
0.000511233 -0.000185343 -2.20658e-05
-0.000185343 -9.2301e-05 1.54833e-05
-2.20658e-05 1.54833e-05 -0.000193429
0.000865044 -0.000186161 5.02979e-07
-0.000186161 6.92684e-06 1.21533e-07
5.02979e-07 1.21533e-07 -0.000161481
0.00122889 -0.000269319 6.86138e-06
-0.000269319 0.000126372 -2.22958e-06
6.86138e-06 -2.22958e-06 -8.37243e-05
0.00536001 0.000168234 -0.000161507
0.000168234 0.00290765 9.57035e-06
-0.000161507 9.57035e-06 0.002891
0.000547872 -0.000172003 -1.26467e-06
-0.000172003 -6.148e-05 1.90236e-07
-1.26467e-06 1.90236e-07 -0.000153985
0.000798481 -0.000184713 9.57116e-06
-0.000184713 3.21574e-05 -6.10047e-06
9.57116e-06 -6.10047e-06 -0.000142399
0.00497404 0.000153485 7.7958e-06
0.000153485 0.00267707 9.79639e-07
7.7958e-06 9.79639e-07 0.00266422
0.00070878 -0.00013067 1.93924e-05
-0.00013067 5.18616e-05 -1.45614e-05
1.93924e-05 -1.45614e-05 -3.02645e-05
0.00445098 0.000113993 0.000151687
0.000113993 0.00235585 -9.712e-06
0.000151687 -9.712e-06 0.00235335
0.00121003 0.000315703 -3.24541e-06
0.000315703 0.000104944 5.45059e-07
-3.24541e-06 5.45059e-07 -0.000137708
0.00123441 0.000297085 -2.32118e-06
0.000297085 0.000212341 -7.89377e-07
-2.32118e-06 -7.89377e-07 -2.77531e-05
0.00120716 0.000252819 -5.18914e-06
0.000252819 0.00024544 -2.26218e-06
-5.18914e-06 -2.26218e-06 3.10029e-05
0.00216169 0.000355529 -2.23616e-06
0.000355529 0.000879173 3.31888e-06
-2.23616e-06 3.31888e-06 0.000647477
0.000896659 0.000191417 -1.48196e-06
0.000191417 0.000157816 -2.18251e-06
-1.48196e-06 -2.18251e-06 -3.32324e-05
0.000967965 0.000173211 -4.43521e-06
0.000173211 0.000245667 -6.3514e-06
-4.43521e-06 -6.3514e-06 8.20061e-05
0.000445495 9.34188e-05 -8.58477e-07
9.34188e-05 -6.81843e-05 -1.11706e-07
-8.58477e-07 -1.11706e-07 -0.000219435
0.000673763 5.98987e-05 -5.49015e-07
5.98987e-05 6.88212e-05 -3.5027e-07
-5.49015e-07 -3.5027e-07 -5.29495e-05
0.000609342 8.17537e-06 -7.36043e-06
8.17537e-06 2.81184e-05 -1.07188e-05
-7.36043e-06 -1.07188e-05 -2.38157e-05
0.000524494 6.62396e-06 8.37461e-07
6.62396e-06 -1.53615e-05 5.3264e-06
8.37461e-07 5.3264e-06 -0.000117562
0.000497167 -1.60119e-05 3.80952e-07
-1.60119e-05 -3.46587e-05 -1.76358e-07
3.80952e-07 -1.76358e-07 -7.88108e-05
0.00331364 -0.000132459 -8.77557e-05
-0.000132459 0.00167994 -3.01506e-06
-8.77557e-05 -3.01506e-06 0.00167683
0.000437467 -1.37949e-05 3.57583e-06
-1.37949e-05 -7.46352e-05 8.20514e-06
3.57583e-06 8.20514e-06 -0.000112424
0.00303514 -0.000128955 -4.13769e-06
-0.000128955 0.00150458 4.45463e-07
-4.13769e-06 4.45463e-07 0.00150215
0.00286921 -0.000114444 4.90042e-05
-0.000114444 0.0013948 3.71654e-06
4.90042e-05 3.71654e-06 0.00139586
0.000412687 6.50966e-05 1.57486e-05
6.50966e-05 -0.00108026 1.12656e-05
1.57486e-05 1.12656e-05 -0.000918102
0.00488936 4.29794e-05 5.4962e-05
4.29794e-05 0.000192211 1.34104e-06
5.4962e-05 1.34104e-06 0.000489288
0.0114293 0.000701452 -7.10591e-05
0.000701452 0.00300345 -1.76127e-05
-7.10591e-05 -1.76127e-05 0.00207253
0.00162807 0.000464343 3.84873e-06
0.000464343 0.000239365 2.89341e-06
3.84873e-06 2.89341e-06 -1.21164e-05
0.00180726 0.00046251 2.90104e-06
0.00046251 0.000258587 2.25155e-06
2.90104e-06 2.25155e-06 2.05022e-05
0.00120894 0.000379215 9.07742e-07
0.000379215 4.4684e-05 -2.22952e-06
9.07742e-07 -2.22952e-06 -0.00021344
0.00134742 0.000339099 -3.04818e-06
0.000339099 0.000412719 2.85505e-06
-3.04818e-06 2.85505e-06 0.000177448
0.00172305 0.000387275 -1.90881e-06
0.000387275 0.000499615 -1.47576e-06
-1.90881e-06 -1.47576e-06 0.000220487
0.00150245 0.00044305 7.16368e-06
0.00044305 0.000283554 1.21471e-06
7.16368e-06 1.21471e-06 3.78529e-05
0.00168723 0.000527437 -1.10296e-06
0.000527437 0.000101325 -1.51652e-06
-1.10296e-06 -1.51652e-06 -0.000122061
0.00193112 0.000494687 -8.3183e-06
0.000494687 0.000530143 3.19271e-07
-8.3183e-06 3.19271e-07 0.000304795
0.0013757 0.000504814 8.4304e-06
0.000504814 1.31969e-05 1.48577e-05
8.4304e-06 1.48577e-05 -0.000145513
0.00222235 0.000608229 -2.53438e-06
0.000608229 0.000420247 1.1065e-06
-2.53438e-06 1.1065e-06 0.000202531
0.00197656 0.000529556 -8.94442e-06
0.000529556 0.000168674 -1.31252e-07
-8.94442e-06 -1.31252e-07 -7.04259e-06
0.000714438 0.000272012 1.73477e-05
0.000272012 -0.000499959 9.13217e-06
1.73477e-05 9.13217e-06 -0.000526746
0.000950183 0.000467252 1.07445e-05
0.000467252 -0.00023152 -1.89929e-08
1.07445e-05 -1.89929e-08 -0.000372588
0.00117902 0.000545816 -1.5189e-05
0.000545816 -0.00011089 -1.02222e-05
-1.5189e-05 -1.02222e-05 -0.000297014
0.00212238 0.000475713 4.12639e-06
0.000475713 -4.36239e-05 7.7115e-06
4.12639e-06 7.7115e-06 -1.56913e-05
0.00550057 0.000607796 2.1282e-05
0.000607796 -0.000186521 -2.28604e-05
2.1282e-05 -2.28604e-05 -0.000151913
0.0030923 0.000796465 1.98859e-06
0.000796465 0.000745881 -3.34821e-05
1.98859e-06 -3.34821e-05 0.000677334
0.00151121 -4.74791e-05 2.5392e-05
-4.74791e-05 -4.85383e-05 -1.9155e-06
2.5392e-05 -1.9155e-06 -3.40632e-05
0.00220039 -0.000140039 -3.00927e-05
-0.000140039 -9.60472e-05 4.82956e-07
-3.00927e-05 4.82956e-07 -6.1638e-05
0.00165696 0.000219293 2.35932e-05
0.000219293 -0.000553377 -8.2578e-06
2.35932e-05 -8.2578e-06 -0.000657132
0.000202543 -0.000240323 -3.46898e-05
-0.000240323 -0.00119103 2.72783e-05
-3.46898e-05 2.72783e-05 -0.00102284
0.00339427 -0.000250753 -9.80375e-05
-0.000250753 0.000517022 -1.5268e-06
-9.80375e-05 -1.5268e-06 0.000522869
0.00196232 -0.00022588 4.74979e-06
-0.00022588 -0.000163284 -3.13599e-06
4.74979e-06 -3.13599e-06 2.80006e-06
0.00237912 -6.09372e-05 -8.37596e-06
-6.09372e-05 0.000398799 4.17134e-07
-8.37596e-06 4.17134e-07 0.000366127
0.0021187 -0.000195951 5.42132e-06
-0.000195951 5.53023e-06 8.21339e-07
5.42132e-06 8.21339e-07 3.76664e-05
0.00205443 -2.16154e-05 6.87568e-06
-2.16154e-05 1.69926e-05 9.88453e-07
6.87568e-06 9.88453e-07 6.69892e-06
0.00183557 -0.000323669 -9.18179e-06
-0.000323669 -0.000290017 3.37608e-06
-9.18179e-06 3.37608e-06 -0.000174132
0.00207547 -0.000294073 -1.92831e-06
-0.000294073 -5.12223e-05 1.5639e-07
-1.92831e-06 1.5639e-07 2.05315e-05
0.00203946 -0.000221535 -1.27179e-06
-0.000221535 3.16067e-06 -6.00055e-07
-1.27179e-06 -6.00055e-07 -1.20674e-07
0.00197384 -0.000336281 -2.022e-06
-0.000336281 3.62584e-05 -3.68901e-07
-2.022e-06 -3.68901e-07 6.02722e-06
0.00196653 -0.000284264 6.15752e-08
-0.000284264 7.01058e-05 2.86611e-08
6.15752e-08 2.86611e-08 1.84583e-05
0.00195917 -0.000251616 -1.7028e-06
-0.000251616 0.000100234 5.27747e-07
-1.7028e-06 5.27747e-07 2.3394e-05
0.00183035 -0.000317943 -6.40988e-07
-0.000317943 5.57357e-05 -1.41654e-06
-6.40988e-07 -1.41654e-06 -3.18826e-05
0.00180016 -0.000275292 5.24104e-07
-0.000275292 8.1083e-05 -1.88255e-07
5.24104e-07 -1.88255e-07 -1.91637e-05
0.00178845 -0.00025711 8.14833e-07
-0.00025711 9.46592e-05 -8.05879e-07
8.14833e-07 -8.05879e-07 -2.05586e-05
0.00178822 -0.000301915 -3.92198e-07
-0.000301915 0.000111168 -1.60252e-07
-3.92198e-07 -1.60252e-07 -5.17468e-06
0.001807 -0.000287514 -4.08689e-09
-0.000287514 0.000147034 -3.87703e-07
-4.08689e-09 -3.87703e-07 1.1852e-05
0.00170758 -0.00026108 -2.1358e-07
-0.00026108 0.000140084 -1.21373e-06
-2.1358e-07 -1.21373e-06 -1.89968e-05
0.00197285 -0.000306672 -1.79494e-06
-0.000306672 0.000274105 3.66959e-06
-1.79494e-06 3.66959e-06 0.000125099
0.00177424 -0.000285862 -6.20976e-07
-0.000285862 0.000214142 -1.18599e-07
-6.20976e-07 -1.18599e-07 4.11158e-05
0.00137112 -0.000219627 -6.20364e-06
-0.000219627 8.9741e-05 1.4559e-06
-6.20364e-06 1.4559e-06 -8.74798e-05
0.00174089 -0.000315691 3.87586e-06
-0.000315691 0.000225575 7.24528e-07
3.87586e-06 7.24528e-07 3.06473e-05
0.00136765 -0.000243366 -2.58561e-07
-0.000243366 0.000115444 -3.81136e-08
-2.58561e-07 -3.81136e-08 -7.21348e-05
0.000937951 -0.00016372 -1.35391e-05
-0.00016372 -1.14323e-05 6.10209e-06
-1.35391e-05 6.10209e-06 -0.000164489
0.000438538 -0.000172124 -2.02308e-05
-0.000172124 -0.000145691 1.4526e-05
-2.02308e-05 1.4526e-05 -0.000246958
0.000926921 -0.000179831 2.13734e-07
-0.000179831 4.70309e-06 9.47705e-08
2.13734e-07 9.47705e-08 -0.000156143
0.00120606 -0.000255484 5.72094e-06
-0.000255484 6.57042e-05 -1.65207e-06
5.72094e-06 -1.65207e-06 -0.000135651
0.0057129 9.64258e-05 -0.00019385
9.64258e-05 0.00309478 1.07205e-05
-0.00019385 1.07205e-05 0.00309067
0.00053205 -0.000181906 -1.63534e-06
-0.000181906 -8.71966e-05 8.3111e-07
-1.63534e-06 8.3111e-07 -0.000184825
0.00084381 -0.000185945 1.11996e-05
-0.000185945 -3.36769e-06 -6.05473e-06
1.11996e-05 -6.05473e-06 -0.000172107
0.00549686 0.00014133 5.84888e-08
0.00014133 0.00298582 -1.89547e-07
5.84888e-08 -1.89547e-07 0.00297171
0.00063933 -0.000174983 2.25822e-05
-0.000174983 -9.94709e-06 -1.54533e-05
2.25822e-05 -1.54533e-05 -0.000104152
0.00516492 0.000134239 0.000171222
0.000134239 0.00278842 -1.28309e-05
0.000171222 -1.28309e-05 0.00277696
0.00142073 0.000368356 -2.16129e-06
0.000368356 0.000150657 2.07521e-06
-2.16129e-06 2.07521e-06 -8.64757e-05
0.00124046 0.00032118 4.98205e-08
0.00032118 0.000120693 4.90723e-07
4.98205e-08 4.90723e-07 -0.000122121
0.00109097 0.000252553 -7.07842e-06
0.000252553 7.71355e-05 -2.00534e-06
-7.07842e-06 -2.00534e-06 -0.000132907
0.00134129 0.000306934 -4.67169e-07
0.000306934 0.000277683 2.4484e-06
-4.67169e-07 2.4484e-06 3.60791e-05
0.00106491 0.000238241 -2.01813e-06
0.000238241 0.000162997 1.01848e-06
-2.01813e-06 1.01848e-06 -4.85098e-05
0.000924714 0.000193444 -7.4575e-06
0.000193444 0.000164028 -5.0558e-06
-7.4575e-06 -5.0558e-06 -1.17902e-05
0.00105875 0.000203807 -1.10224e-06
0.000203807 0.000256447 1.05381e-06
-1.10224e-06 1.05381e-06 6.26043e-05
0.000713914 0.000139349 -8.75355e-08
0.000139349 9.92448e-05 -6.02903e-08
-8.75355e-08 -6.02903e-08 -5.97992e-05
0.000769357 7.07486e-05 -1.41163e-05
7.07486e-05 0.000114247 -1.32463e-05
-1.41163e-05 -1.32463e-05 4.57226e-05
0.000553998 2.35463e-05 1.15022e-06
2.35463e-05 -3.97317e-06 5.3478e-06
1.15022e-06 5.3478e-06 -0.000119955
0.000494508 -8.94699e-07 -2.93665e-07
-8.94699e-07 -3.72301e-05 -3.39347e-07
-2.93665e-07 -3.39347e-07 -8.86687e-05
0.0037386 -0.000134235 -0.000114791
-0.000134235 0.00194095 -4.30395e-06
-0.000114791 -4.30395e-06 0.00193635
0.000419675 -1.65081e-05 3.84169e-06
-1.65081e-05 -7.96986e-05 9.09434e-06
3.84169e-06 9.09434e-06 -0.000123416
0.00323184 -0.000142565 -4.10725e-06
-0.000142565 0.00163224 4.29173e-07
-4.10725e-06 4.29173e-07 0.0016262
0.00299033 -0.000129943 5.75774e-05
-0.000129943 0.00147731 3.33585e-06
5.75774e-05 3.33585e-06 0.00147436
0.000576455 7.59101e-05 2.14981e-05
7.59101e-05 -0.000605889 6.23606e-06
2.14981e-05 6.23606e-06 -0.000529715
0.00210449 5.14906e-05 -9.01798e-06
5.14906e-05 -0.000384878 -1.87641e-06
-9.01798e-06 -1.87641e-06 -0.000199668
0.00420199 6.38394e-05 0.00015169
6.38394e-05 -0.00060327 4.13297e-05
0.00015169 4.13297e-05 0.000106359
0.00232493 0.000528988 -1.88237e-06
0.000528988 0.000476174 3.81103e-08
-1.88237e-06 3.81103e-08 0.000247524
0.00158896 0.000479361 -2.51233e-06
0.000479361 0.000201919 -3.49283e-06
-2.51233e-06 -3.49283e-06 -4.76735e-05
0.00197387 0.000407587 -2.44775e-07
0.000407587 0.000216879 3.2815e-06
-2.44775e-07 3.2815e-06 2.47563e-05
0.00179881 0.000456756 8.26714e-07
0.000456756 0.000250944 2.69634e-07
8.26714e-07 2.69634e-07 1.45166e-05
0.00128441 0.000393239 1.41433e-06
0.000393239 9.61034e-05 -7.09445e-06
1.41433e-06 -7.09445e-06 -0.000163264
0.00184308 0.000428094 -2.09594e-07
0.000428094 6.68982e-05 8.31918e-07
-2.09594e-07 8.31918e-07 -0.000104043
0.00190349 0.000482953 -4.35996e-06
0.000482953 0.000497159 -2.15014e-06
-4.35996e-06 -2.15014e-06 0.000247214
0.00194572 0.000539556 9.61379e-08
0.000539556 0.000264695 -1.12947e-07
9.61379e-08 -1.12947e-07 3.90751e-05
0.00182697 0.00031418 -5.27223e-06
0.00031418 -3.82988e-05 -8.16476e-07
-5.27223e-06 -8.16476e-07 -0.000129962
0.00270809 0.00064825 1.27058e-06
0.00064825 0.00068573 1.83259e-06
1.27058e-06 1.83259e-06 0.000464491
0.00195102 0.000531736 -1.81649e-06
0.000531736 0.000144717 3.42288e-08
-1.81649e-06 3.42288e-08 -3.45275e-05
0.000895258 0.000285185 5.32793e-06
0.000285185 -0.000364157 3.25922e-06
5.32793e-06 3.25922e-06 -0.000400163
-0.000476509 0.00036071 -7.19417e-06
0.00036071 -0.000963387 -3.09201e-06
-7.19417e-06 -3.09201e-06 -0.00109337
0.00221735 0.000494023 -6.2664e-05
0.000494023 -7.03793e-06 -2.95488e-05
-6.2664e-05 -2.95488e-05 -2.91787e-05
0.00190331 4.71627e-05 4.3544e-07
4.71627e-05 -8.98178e-05 -8.11906e-07
4.3544e-07 -8.11906e-07 -7.19658e-05
0.00222716 -4.23951e-05 1.50418e-06
-4.23951e-05 0.000401789 1.18189e-06
1.50418e-06 1.18189e-06 0.000415552
0.00175305 -8.77074e-05 -5.78544e-05
-8.77074e-05 -0.000228447 9.2767e-07
-5.78544e-05 9.2767e-07 -0.000298389
0.00230388 -0.000255036 -3.94237e-05
-0.000255036 8.88103e-05 3.40685e-06
-3.94237e-05 3.40685e-06 0.000228923
0.00147284 -7.99359e-05 -1.05169e-05
-7.99359e-05 -0.000173496 7.1474e-07
-1.05169e-05 7.1474e-07 -0.000198225
0.0020417 -0.000189936 -4.23451e-09
-0.000189936 -4.28864e-05 -8.31624e-07
-4.23451e-09 -8.31624e-07 2.22503e-06
0.00212102 -2.27738e-05 -1.49847e-06
-2.27738e-05 3.47001e-05 1.50929e-06
-1.49847e-06 1.50929e-06 3.0748e-05
0.0021172 -6.98815e-05 -1.48118e-06
-6.98815e-05 2.47183e-05 -2.56998e-07
-1.48118e-06 -2.56998e-07 3.35048e-05
0.00208742 -0.000291891 -4.37434e-06
-0.000291891 -2.82326e-05 7.56622e-07
-4.37434e-06 7.56622e-07 2.7028e-05
0.00201578 -0.000213155 4.12923e-07
-0.000213155 7.34797e-07 -2.04221e-07
4.12923e-07 -2.04221e-07 -3.96348e-06
0.00200635 -0.000174076 -1.77172e-06
-0.000174076 4.53705e-05 -1.43047e-07
-1.77172e-06 -1.43047e-07 1.28669e-05
0.00194681 -0.000280215 1.15048e-06
-0.000280215 6.87963e-05 -9.39073e-07
1.15048e-06 -9.39073e-07 1.23388e-05
0.00187449 -0.000245989 2.31946e-07
-0.000245989 5.78747e-05 5.06777e-08
2.31946e-07 5.06777e-08 -2.11626e-05
0.00180818 -0.000203224 -4.68836e-08
-0.000203224 6.67485e-05 -3.82802e-07
-4.68836e-08 -3.82802e-07 -2.7516e-05
0.00176238 -0.000273337 1.25925e-06
-0.000273337 5.43641e-05 -8.41276e-07
1.25925e-06 -8.41276e-07 -4.62383e-05
0.00182529 -0.000257982 9.92474e-08
-0.000257982 0.000117156 -1.65853e-07
9.92474e-08 -1.65853e-07 1.81475e-06
0.00175944 -0.000231328 5.58438e-07
-0.000231328 0.000129448 -9.97279e-07
5.58438e-07 -9.97279e-07 -1.22502e-05
0.00182377 -0.000287762 -8.8054e-07
-0.000287762 0.000157907 1.09615e-06
-8.8054e-07 1.09615e-06 2.26521e-05
0.00173862 -0.000262096 -3.09634e-07
-0.000262096 0.000159471 -9.2292e-08
-3.09634e-07 -9.2292e-08 6.29043e-07
0.00141925 -0.000200276 -4.53815e-06
-0.000200276 9.09577e-05 1.10955e-06
-4.53815e-06 1.10955e-06 -7.71365e-05
0.00178291 -0.000286735 7.32553e-07
-0.000286735 0.000219993 1.30654e-06
7.32553e-07 1.30654e-06 4.79823e-05
0.00139378 -0.000220746 -2.60094e-07
-0.000220746 0.000102326 6.41698e-08
-2.60094e-07 6.41698e-08 -7.45717e-05
0.000957795 -0.000146892 -1.39049e-05
-0.000146892 -1.579e-05 5.63648e-06
-1.39049e-05 5.63648e-06 -0.000163431
0.00137163 -0.000244708 6.28105e-06
-0.000244708 0.000118294 -1.29524e-06
6.28105e-06 -1.29524e-06 -6.90826e-05
0.000957826 -0.000163918 1.58346e-07
-0.000163918 -1.61593e-06 6.41097e-08
1.58346e-07 6.41097e-08 -0.000154485
0.0024832 -0.00012643 -3.34019e-05
-0.00012643 0.0010689 9.10163e-06
-3.34019e-05 9.10163e-06 0.000987067
0.00176925 -5.71482e-05 -0.000193697
-5.71482e-05 0.000709704 2.22154e-05
-0.000193697 2.22154e-05 0.000691897
0.00154713 -0.000160016 -6.84957e-06
-0.000160016 0.000514315 -3.61483e-07
-6.84957e-06 -3.61483e-07 0.000420089
0.000943739 -0.000180849 1.25306e-05
-0.000180849 1.38259e-05 -5.9512e-06
1.25306e-05 -5.9512e-06 -0.000147386
0.00579475 7.99288e-05 -6.4426e-06
7.99288e-05 0.00315029 -3.32281e-07
-6.4426e-06 -3.32281e-07 0.00314289
0.000588936 -0.000205256 2.3937e-05
-0.000205256 -5.40659e-05 -1.50951e-05
2.3937e-05 -1.50951e-05 -0.000154548
0.00562699 0.000123965 0.000187527
0.000123965 0.0030693 -1.67962e-05
0.000187527 -1.67962e-05 0.0030523
0.00196601 0.000319528 5.36658e-07
0.000319528 0.000181775 2.76855e-07
5.36658e-07 2.76855e-07 2.17789e-05
0.0017409 0.000377767 1.6518e-06
0.000377767 0.000213277 3.17715e-06
1.6518e-06 3.17715e-06 6.77315e-07
0.00167051 0.000393239 9.05448e-08
0.000393239 0.000288073 1.41076e-07
9.05448e-08 1.41076e-07 4.80798e-05
0.00115503 0.000267203 -6.6479e-06
0.000267203 5.68744e-05 -1.55124e-06
-6.6479e-06 -1.55124e-06 -0.000149876
0.00130678 0.00033039 4.94719e-06
0.00033039 0.000158455 1.17912e-06
4.94719e-06 1.17912e-06 -8.53584e-05
0.00112573 0.000251943 -1.19372e-07
0.000251943 0.000100452 4.01542e-08
-1.19372e-07 4.01542e-08 -0.000108685
0.000834371 0.000184654 -1.00413e-05
0.000184654 2.56856e-05 -5.39263e-06
-1.00413e-05 -5.39263e-06 -0.000144139
0.000908591 0.000222726 2.57534e-06
0.000222726 7.0692e-05 4.84672e-06
2.57534e-06 4.84672e-06 -0.000137554
0.000785517 0.000179634 -5.06878e-08
0.000179634 8.07575e-05 8.29716e-07
-5.06878e-08 8.29716e-07 -9.41157e-05
0.000729451 0.000155124 -2.14094e-05
0.000155124 6.98018e-05 -1.47966e-05
-2.14094e-05 -1.47966e-05 -1.88725e-05
0.000598781 0.000104517 1.46615e-06
0.000104517 2.73278e-05 5.07884e-06
1.46615e-06 5.07884e-06 -0.000123694
0.000532286 5.61461e-05 -1.69962e-06
5.61461e-05 -2.48663e-05 -6.88078e-07
-1.69962e-06 -6.88078e-07 -8.92642e-05
0.00445498 -0.00012863 -0.0001532
-0.00012863 0.00237354 -8.70941e-06
-0.0001532 -8.70941e-06 0.00236553
0.000371818 -8.79711e-06 4.53814e-06
-8.79711e-06 -0.000106558 1.02697e-05
4.53814e-06 1.02697e-05 -0.000157909
0.00356084 -0.000155168 -5.51933e-06
-0.000155168 0.00183854 4.32999e-07
-5.51933e-06 4.32999e-07 0.00182869
0.00317046 -0.000146572 6.72562e-05
-0.000146572 0.00159576 2.81073e-06
6.72562e-05 2.81073e-06 0.00158839
0.00198362 0.000164404 1.31986e-07
0.000164404 -3.9615e-05 -8.4976e-07
1.31986e-07 -8.4976e-07 -4.44439e-05
0.00192668 5.55354e-05 1.85725e-05
5.55354e-05 0.000101801 -1.20299e-06
1.85725e-05 -1.20299e-06 0.000165609
0.00438103 6.55799e-05 -0.000102305
6.55799e-05 0.000582761 -1.49402e-05
-0.000102305 -1.49402e-05 0.000818287
0.00181413 0.000367353 -2.86011e-06
0.000367353 6.4925e-05 1.16982e-06
-2.86011e-06 1.16982e-06 -9.64867e-05
0.00194184 0.000493751 -2.78618e-06
0.000493751 0.000269894 -7.2414e-08
-2.78618e-06 -7.2414e-08 4.51063e-05
0.00150657 0.000489496 -1.01761e-05
0.000489496 0.000141774 -7.6816e-06
-1.01761e-05 -7.6816e-06 -0.000104627
0.00205048 0.000400334 2.81984e-06
0.000400334 0.000275435 1.1211e-06
2.81984e-06 1.1211e-06 8.55538e-05
0.0017774 0.000450372 -1.82526e-06
0.000450372 0.000236699 -2.81784e-06
-1.82526e-06 -2.81784e-06 1.89206e-06
0.00222517 0.00031032 6.56665e-08
0.00031032 0.000192364 2.78643e-07
6.56665e-08 2.78643e-07 9.08249e-05
0.00172989 0.000421725 -3.04187e-07
0.000421725 2.33444e-05 7.37843e-07
-3.04187e-07 7.37843e-07 -0.000148144
0.0022475 0.000555705 -4.1249e-06
0.000555705 0.000451612 -4.84071e-07
-4.1249e-06 -4.84071e-07 0.000222876
0.00184069 0.000317501 -1.01403e-06
0.000317501 -2.56625e-05 -3.82531e-07
-1.01403e-06 -3.82531e-07 -0.000118359
0.00204441 0.000542452 1.67239e-05
0.000542452 0.000175125 2.98748e-06
1.67239e-05 2.98748e-06 -8.04336e-06
0.00113258 0.000286624 -2.99273e-05
0.000286624 -0.000209886 -7.12654e-06
-2.99273e-05 -7.12654e-06 -0.000252735
0.00206855 5.51094e-05 -1.34856e-06
5.51094e-05 9.28912e-06 4.73951e-07
-1.34856e-06 4.73951e-07 1.5623e-05
0.00201099 5.6775e-05 -1.91199e-06
5.6775e-05 -1.57331e-05 1.93875e-07
-1.91199e-06 1.93875e-07 -1.88512e-06
0.00292186 -3.30163e-05 -3.93561e-05
-3.30163e-05 0.000844927 3.24731e-06
-3.93561e-05 3.24731e-06 0.000853694
0.00195658 -0.00018254 -1.0216e-05
-0.00018254 -0.000100281 -4.2016e-07
-1.0216e-05 -4.2016e-07 -4.26401e-05
0.00210382 -2.16498e-05 -3.56643e-06
-2.16498e-05 -3.11646e-06 -2.41807e-06
-3.56643e-06 -2.41807e-06 -1.44212e-06
0.00207981 -7.39882e-05 -3.17468e-07
-7.39882e-05 -1.36996e-05 9.61547e-08
-3.17468e-07 9.61547e-08 1.94753e-07
0.00192405 -5.82832e-05 -2.31935e-06
-5.82832e-05 1.5625e-05 2.40039e-07
-2.31935e-06 2.40039e-07 4.12145e-07
0.00199291 -0.000203685 1.5251e-06
-0.000203685 4.4991e-07 2.04456e-07
1.5251e-06 2.04456e-07 -5.69747e-06
0.00193669 -0.000174846 1.15155e-07
-0.000174846 1.45903e-05 -1.87392e-09
1.15155e-07 -1.87392e-09 -2.13671e-05
0.00185565 -0.000136536 1.88017e-06
-0.000136536 6.6033e-05 -1.30985e-06
1.88017e-06 -1.30985e-06 -7.73243e-06
0.0017861 -0.000239987 1.95648e-06
-0.000239987 1.40874e-05 -4.90894e-07
1.95648e-06 -4.90894e-07 -6.73093e-05
0.00185432 -0.000205687 -8.5807e-08
-0.000205687 8.75298e-05 -7.87878e-11
-8.5807e-08 -7.87878e-11 -7.01134e-06
0.00181332 -0.00019017 6.77565e-07
-0.00019017 0.00011863 -8.74125e-07
6.77565e-07 -8.74125e-07 -6.26314e-06
0.00186524 -0.000258859 9.51668e-08
-0.000258859 0.000141861 3.90505e-07
9.51668e-08 3.90505e-07 2.64207e-05
0.00178614 -0.000232295 -2.40275e-07
-0.000232295 0.00014488 2.83012e-08
-2.40275e-07 2.83012e-08 3.28352e-06
0.00147035 -0.00017563 -3.40281e-06
-0.00017563 9.27042e-05 6.97887e-07
-3.40281e-06 6.97887e-07 -6.56827e-05
0.00176951 -0.000263134 -2.44652e-07
-0.000263134 0.000178841 9.70242e-07
-2.44652e-07 9.70242e-07 2.02292e-05
0.00143851 -0.0002011 -2.01931e-07
-0.0002011 0.00010053 7.92927e-08
-2.01931e-07 7.92927e-08 -6.71979e-05
0.000967964 -0.000130454 -1.35298e-05
-0.000130454 -2.22117e-05 4.84378e-06
-1.35298e-05 4.84378e-06 -0.000166478
0.00141499 -0.000221799 5.32982e-06
-0.000221799 0.000114091 -1.24475e-06
5.32982e-06 -1.24475e-06 -6.24814e-05
0.000977405 -0.000146355 1.12675e-07
-0.000146355 -6.49067e-06 1.21072e-07
1.12675e-07 1.21072e-07 -0.000153604
0.00251612 -0.000130978 -4.11597e-05
-0.000130978 0.00107656 8.40857e-06
-4.11597e-05 8.40857e-06 0.00100208
0.000972809 -0.000164095 1.35506e-05
-0.000164095 5.42819e-06 -5.90808e-06
1.35506e-05 -5.90808e-06 -0.000147287
0.00263524 -0.000169998 3.93388e-05
-0.000169998 0.00115647 -5.25903e-06
3.93388e-05 -5.25903e-06 0.00108097
0.00183485 -9.64777e-05 -0.00019685
-9.64777e-05 0.000755847 2.65995e-05
-0.00019685 2.65995e-05 0.000736373
0.00372109 -3.75858e-05 -0.000193555
-3.75858e-05 0.00190014 1.39852e-05
-0.000193555 1.39852e-05 0.00188876
0.00271834 -0.000224029 0.000123588
-0.000224029 0.00121374 -1.76325e-05
0.000123588 -1.76325e-05 0.0011396
0.00585766 6.52388e-05 0.00020435
6.52388e-05 0.00319736 -1.9735e-05
0.00020435 -1.9735e-05 0.00318559
0.00209144 0.00031266 -2.11175e-06
0.00031266 0.000240713 -9.79975e-07
-2.11175e-06 -9.79975e-07 9.83831e-05
0.00162601 0.000299792 2.84187e-06
0.000299792 8.68591e-05 1.04101e-06
2.84187e-06 1.04101e-06 -9.25891e-05
0.00196266 0.000316218 3.70882e-07
0.000316218 0.000179349 -1.31497e-06
3.70882e-07 -1.31497e-06 2.47037e-05
0.0012997 0.000269801 -5.87405e-06
0.000269801 7.93662e-05 -7.12599e-07
-5.87405e-06 -7.12599e-07 -0.000118676
0.00180709 0.000380689 6.18088e-07
0.000380689 0.000242429 4.10341e-07
6.18088e-07 4.10341e-07 2.91862e-05
0.0019237 0.000418775 1.84618e-06
0.000418775 0.00042674 -1.48633e-06
1.84618e-06 -1.48633e-06 0.000183769
0.00121301 0.00026922 -2.89741e-07
0.00026922 9.52369e-05 1.57922e-07
-2.89741e-07 1.57922e-07 -0.000111571
0.000934354 0.000188818 -1.21085e-05
0.000188818 2.5729e-05 -6.00429e-06
-1.21085e-05 -6.00429e-06 -0.000139564
0.00116589 0.000251835 7.77704e-06
0.000251835 0.000127383 2.22452e-06
7.77704e-06 2.22452e-06 -8.10263e-05
0.000835061 0.000181304 -2.77705e-07
0.000181304 2.10352e-05 6.25188e-08
-2.77705e-07 6.25188e-08 -0.000147535
0.000584502 0.000199372 -2.38103e-05
0.000199372 -3.87966e-05 -1.56319e-05
-2.38103e-05 -1.56319e-05 -0.000138638
0.000620826 0.000167214 4.41761e-06
0.000167214 -1.40228e-05 5.59474e-06
4.41761e-06 5.59474e-06 -0.000189143
0.000539453 0.000126899 3.13417e-07
0.000126899 -4.15429e-05 2.48202e-07
3.13417e-07 2.48202e-07 -0.000124855
0.00531688 -0.000133038 -0.000179599
-0.000133038 0.00290285 -1.5698e-05
-0.000179599 -1.5698e-05 0.00288227
0.000277627 2.67985e-05 7.84569e-06
2.67985e-05 -0.000168988 1.21499e-05
7.84569e-06 1.21499e-05 -0.000231702
0.00421188 -0.000173585 -1.02813e-05
-0.000173585 0.00223927 7.24011e-07
-1.02813e-05 7.24011e-07 0.00222241
0.00343821 -0.000164513 7.89396e-05
-0.000164513 0.00176652 2.57046e-06
7.89396e-05 2.57046e-06 0.00175411
0.00203538 0.000182375 -1.1437e-06
0.000182375 1.27579e-05 4.17593e-07
-1.1437e-06 4.17593e-07 -2.41904e-05
0.00191684 0.000165571 9.31093e-07
0.000165571 -7.47072e-05 -1.66095e-07
9.31093e-07 -1.66095e-07 -8.0225e-05
0.00306163 4.10486e-05 -7.37095e-05
4.10486e-05 0.00070282 -8.10364e-06
-7.37095e-05 -8.10364e-06 0.000760226
0.00200371 0.000270942 6.98268e-07
0.000270942 0.000115741 4.6149e-07
6.98268e-07 4.6149e-07 3.53487e-06
0.0018365 0.000365124 -2.56652e-07
0.000365124 9.78093e-05 3.42765e-07
-2.56652e-07 3.42765e-07 -6.36629e-05
0.00157309 0.000459255 -3.22088e-07
0.000459255 7.0352e-05 -1.95997e-06
-3.22088e-07 -1.95997e-06 -0.000150617
0.00212703 0.000392662 -5.92418e-07
0.000392662 0.000334481 -2.27381e-06
-5.92418e-07 -2.27381e-06 0.000146991
0.00209491 0.000299486 -7.28081e-07
0.000299486 0.000120979 -4.36071e-08
-7.28081e-07 -4.36071e-08 2.01421e-05
0.00161512 0.000415261 -3.5371e-06
0.000415261 -2.14345e-05 4.09545e-07
-3.5371e-06 4.09545e-07 -0.000193486
0.00179898 0.000317518 7.84258e-06
0.000317518 -2.83207e-05 9.5755e-07
7.84258e-06 9.5755e-07 -0.000122133
0.00194194 5.0944e-05 -7.11629e-07
5.0944e-05 1.24366e-05 5.46772e-07
-7.11629e-07 5.46772e-07 -1.43806e-06
0.00203142 5.4637e-05 9.51095e-08
5.4637e-05 -8.29686e-07 -1.40421e-07
9.51095e-08 -1.40421e-07 1.73527e-06
0.00208548 6.7307e-05 -8.41898e-06
6.7307e-05 4.01847e-05 -9.99534e-08
-8.41898e-06 -9.99534e-08 5.06929e-05
0.00182001 -1.21251e-05 -4.47335e-06
-1.21251e-05 3.95081e-07 4.16503e-07
-4.47335e-06 4.16503e-07 -2.9471e-05
0.00204115 -8.24567e-05 1.601e-06
-8.24567e-05 -5.20556e-05 -5.68925e-07
1.601e-06 -5.68925e-07 -3.34527e-05
0.00193008 -6.11775e-05 -6.79796e-07
-6.11775e-05 1.72543e-05 2.70452e-07
-6.79796e-07 2.70452e-07 1.70931e-06
0.00187499 -8.00674e-05 -2.64518e-06
-8.00674e-05 7.11849e-05 -3.37359e-09
-2.64518e-06 -3.37359e-09 1.2428e-05
0.00186913 -0.000175637 2.576e-06
-0.000175637 -1.5636e-05 -2.24754e-07
2.576e-06 -2.24754e-07 -5.50031e-05
0.00186542 -0.00013704 2.08286e-06
-0.00013704 6.33787e-05 -7.78649e-07
2.08286e-06 -7.78649e-07 -1.00173e-05
0.00183923 -0.000134597 3.01982e-06
-0.000134597 0.000115285 -1.08625e-06
3.01982e-06 -1.08625e-06 4.26669e-06
0.00190971 -0.000207932 5.87179e-07
-0.000207932 0.000113729 3.40996e-07
5.87179e-07 3.40996e-07 1.8996e-05
0.00182612 -0.000188898 -1.44404e-07
-0.000188898 0.000129051 -2.23943e-07
-1.44404e-07 -2.23943e-07 4.50945e-06
0.00150973 -0.000142701 -2.57055e-06
-0.000142701 8.98509e-05 3.0918e-07
-2.57055e-06 3.0918e-07 -5.77731e-05
0.00181319 -0.000233142 -5.55401e-07
-0.000233142 0.000160839 9.41554e-07
-5.55401e-07 9.41554e-07 1.93739e-05
0.00147446 -0.000175234 -2.00195e-07
-0.000175234 9.33276e-05 1.12809e-07
-2.00195e-07 1.12809e-07 -6.45972e-05
0.000980291 -0.000112018 -1.29776e-05
-0.000112018 -2.67267e-05 3.88957e-06
-1.29776e-05 3.88957e-06 -0.000167592
0.00145639 -0.000201763 3.97351e-06
-0.000201763 0.000109405 -9.37922e-07
3.97351e-06 -9.37922e-07 -5.79288e-05
0.000991207 -0.000129332 1.54955e-09
-0.000129332 -1.08959e-05 2.08404e-07
1.54955e-09 2.08404e-07 -0.000154423
0.0025373 -0.000136582 -4.89586e-05
-0.000136582 0.0010839 8.18461e-06
-4.89586e-05 8.18461e-06 0.00101181
0.000997764 -0.00014593 1.37906e-05
-0.00014593 3.01768e-06 -5.42958e-06
1.37906e-05 -5.42958e-06 -0.000143538
0.00261561 -0.000159743 3.58546e-05
-0.000159743 0.00113496 -4.30716e-06
3.58546e-05 -4.30716e-06 0.00106514
0.0018776 -8.36098e-05 -0.000192636
-8.36098e-05 0.000775901 2.36816e-05
-0.000192636 2.36816e-05 0.000757704
0.00276702 -0.000184493 0.000121669
-0.000184493 0.00123142 -1.93548e-05
0.000121669 -1.93548e-05 0.00116191
0.00158504 -3.47083e-05 -8.59334e-05
-3.47083e-05 0.000611313 1.03979e-05
-8.59334e-05 1.03979e-05 0.000581919
0.00555279 0.000140985 4.18566e-05
0.000140985 0.00300278 -2.19217e-06
4.18566e-05 -2.19217e-06 0.00297764
0.00189235 0.000258396 5.79072e-07
0.000258396 0.000109736 2.31383e-07
5.79072e-07 2.31383e-07 -2.01673e-05
0.00188411 0.000286521 -8.4207e-08
0.000286521 0.000196551 -8.28498e-07
-8.4207e-08 -8.28498e-07 3.68281e-05
0.0019922 0.000309287 -3.56683e-06
0.000309287 0.000177783 1.32093e-08
-3.56683e-06 1.32093e-08 3.32962e-05
0.00166582 0.000260591 -3.12179e-06
0.000260591 0.000248175 -5.58511e-07
-3.12179e-06 -5.58511e-07 6.69793e-05
0.00166168 0.000306809 1.81103e-07
0.000306809 9.78013e-05 -1.59889e-06
1.81103e-07 -1.59889e-06 -7.95797e-05
0.00196787 0.000313535 -3.11083e-06
0.000313535 0.000182031 -3.47908e-06
-3.11083e-06 -3.47908e-06 3.26656e-05
0.000967028 0.000182717 -1.35813e-05
0.000182717 3.02088e-06 -5.67028e-06
-1.35813e-05 -5.67028e-06 -0.000156398
0.00132442 0.000271856 6.61651e-08
0.000271856 9.3817e-05 2.99119e-07
6.61651e-08 2.99119e-07 -0.000104893
0.00186968 0.000383242 2.69691e-06
0.000383242 0.000268746 -2.10394e-06
2.69691e-06 -2.10394e-06 5.4897e-05
0.00129894 0.000273057 7.85017e-06
0.000273057 0.000150988 2.47991e-06
7.85017e-06 2.47991e-06 -5.60536e-05
0.000877582 0.00018386 -5.99808e-07
0.00018386 -6.38098e-06 -3.30633e-09
-5.99808e-07 -3.30633e-09 -0.000170554
0.000530115 0.000217054 -2.51259e-05
0.000217054 -7.93594e-05 -1.52783e-05
-2.51259e-05 -1.52783e-05 -0.00018305
0.000748132 0.000173598 9.62617e-06
0.000173598 -3.54207e-05 5.69026e-06
9.62617e-06 5.69026e-06 -0.000202145
0.000517841 0.000189869 2.1894e-06
0.000189869 -7.47672e-05 4.8556e-07
2.1894e-06 4.8556e-07 -0.000173446
0.00581036 -9.17311e-05 -0.000195017
-9.17311e-05 0.00319868 -2.13601e-05
-0.000195017 -2.13601e-05 0.00317408
0.000373512 0.000113292 1.7241e-05
0.000113292 -0.000143288 1.46214e-05
1.7241e-05 1.46214e-05 -0.000219782
0.0050487 -0.000164249 -8.69518e-06
-0.000164249 0.00273831 4.58631e-07
-8.69518e-06 4.58631e-07 0.00271937
0.00392046 -0.000189342 9.48969e-05
-0.000189342 0.00206809 3.43416e-06
9.48969e-05 3.43416e-06 0.00204778
0.00195201 0.000146371 -1.47148e-06
0.000146371 5.51831e-05 9.42097e-07
-1.47148e-06 9.42097e-07 -5.78947e-06
0.0020511 0.000185905 5.47843e-07
0.000185905 1.44436e-05 4.04387e-07
5.47843e-07 4.04387e-07 -1.93854e-05
0.00191577 0.000169707 3.89959e-07
0.000169707 -8.15048e-05 8.17543e-07
3.89959e-07 8.17543e-07 -8.76858e-05
0.00199781 0.000265617 4.00097e-07
0.000265617 0.000117661 4.08123e-08
4.00097e-07 4.08123e-08 8.59536e-06
0.00184657 0.000361895 -1.24376e-06
0.000361895 0.000124503 -7.09685e-07
-1.24376e-06 -7.09685e-07 -3.69012e-05
0.00198396 0.000289008 7.93941e-08
0.000289008 6.06978e-05 -5.33085e-07
7.93941e-08 -5.33085e-07 -3.92623e-05
0.00193108 5.68256e-05 -2.54495e-06
5.68256e-05 6.01454e-05 1.11565e-07
-2.54495e-06 1.11565e-07 2.58555e-05
0.00195105 4.83924e-05 3.39502e-07
4.83924e-05 2.23213e-05 -1.38552e-07
3.39502e-07 -1.38552e-07 6.20618e-06
0.00201108 5.45843e-05 1.32698e-06
5.45843e-05 -1.80407e-06 -1.37002e-07
1.32698e-06 -1.37002e-07 -2.80607e-06
0.00186129 -1.60977e-05 -1.71454e-06
-1.60977e-05 2.195e-05 9.49206e-08
-1.71454e-06 9.49206e-08 -7.43165e-06
0.00182014 -3.57554e-05 -3.23244e-06
-3.57554e-05 4.6637e-05 -1.5056e-08
-3.23244e-06 -1.5056e-08 -1.454e-05
0.00193614 -6.4052e-05 1.79817e-06
-6.4052e-05 1.87745e-05 3.35647e-08
1.79817e-06 3.35647e-08 2.95442e-06
0.00184208 -7.8575e-05 -1.99435e-06
-7.8575e-05 5.30544e-05 6.27556e-07
-1.99435e-06 6.27556e-07 -9.56507e-06
0.00187039 -8.04341e-05 -1.16829e-07
-8.04341e-05 0.000135868 -4.73383e-07
-1.16829e-07 -4.73383e-07 3.99554e-05
0.00186256 -0.000137568 3.10987e-06
-0.000137568 5.41121e-05 -3.33535e-07
3.10987e-06 -3.33535e-07 -1.90015e-05
0.00181859 -0.00013527 2.56857e-06
-0.00013527 0.000106194 -6.91878e-07
2.56857e-06 -6.91878e-07 -4.88631e-06
0.0015254 -0.000102166 -1.18767e-06
-0.000102166 7.70892e-05 -2.15381e-07
-1.18767e-06 -2.15381e-07 -6.0319e-05
0.00182364 -0.000188884 -1.04614e-06
-0.000188884 0.000129593 4.16923e-07
-1.04614e-06 4.16923e-07 5.12083e-06
0.00150431 -0.000142489 -1.2004e-07
-0.000142489 8.36538e-05 3.22999e-08
-1.2004e-07 3.22999e-08 -6.37262e-05
0.000984609 -8.89074e-05 -1.25249e-05
-8.89074e-05 -3.54014e-05 2.9743e-06
-1.25249e-05 2.9743e-06 -0.000171697
0.00148249 -0.000175079 2.84978e-06
-0.000175079 9.55019e-05 -4.87475e-07
2.84978e-06 -4.87475e-07 -6.19802e-05
0.00100052 -0.000110326 -1.35212e-07
-0.000110326 -1.66455e-05 2.20481e-07
-1.35212e-07 2.20481e-07 -0.00015678
0.00251124 -0.000147223 -5.24313e-05
-0.000147223 0.00106518 7.3363e-06
-5.24313e-05 7.3363e-06 0.000993129
0.00101449 -0.000128278 1.3438e-05
-0.000128278 2.473e-07 -4.50951e-06
1.3438e-05 -4.50951e-06 -0.000142521
0.00260411 -0.000142393 3.44857e-05
-0.000142393 0.00112016 -3.26533e-06
3.44857e-05 -3.26533e-06 0.00105328
0.0019119 -7.10958e-05 -0.000192507
-7.10958e-05 0.000789882 2.02456e-05
-0.000192507 2.02456e-05 0.000772364
0.00271416 -0.000157881 0.000119857
-0.000157881 0.00118843 -1.67357e-05
0.000119857 -1.67357e-05 0.00112524
0.00158837 -4.52444e-05 -7.80063e-05
-4.52444e-05 0.000606989 8.85808e-06
-7.80063e-05 8.85808e-06 0.000580426
0.00138163 -2.90539e-05 3.87575e-05
-2.90539e-05 0.000494583 -5.91813e-06
3.87575e-05 -5.91813e-06 0.000456554
0.00196154 0.00015708 -1.33701e-06
0.00015708 0.00012985 1.33837e-06
-1.33701e-06 1.33837e-06 3.50324e-05
0.00186125 0.000240944 -1.09928e-06
0.000240944 0.000152471 2.01957e-07
-1.09928e-06 2.01957e-07 7.86136e-06
0.00191185 0.000259772 -6.43528e-07
0.000259772 0.000112537 -5.84274e-08
-6.43528e-07 -5.84274e-08 -1.44358e-05
0.00177762 0.000242049 -2.42809e-06
0.000242049 0.000267504 -3.82992e-07
-2.42809e-06 -3.82992e-07 0.00010172
0.00183006 0.000281982 1.16581e-07
0.000281982 0.000170738 -9.44298e-08
1.16581e-07 -9.44298e-08 9.80747e-06
0.00188759 0.000305854 6.29964e-07
0.000305854 0.000111946 2.27871e-07
6.29964e-07 2.27871e-07 -3.47535e-05
0.000998671 0.000167433 -1.41811e-05
0.000167433 -4.36898e-06 -5.22175e-06
-1.41811e-05 -5.22175e-06 -0.000155914
0.00153754 0.000258247 3.14988e-06
0.000258247 0.000165965 5.44037e-07
3.14988e-06 5.44037e-07 -1.52375e-05
0.0017023 0.000314139 -3.14027e-09
0.000314139 0.000112124 -2.32907e-06
-3.14027e-09 -2.32907e-06 -6.31974e-05
0.000476942 0.000179865 -2.2684e-05
0.000179865 -0.000122051 -1.33253e-05
-2.2684e-05 -1.33253e-05 -0.000221666
0.000944089 0.000180314 -5.66338e-07
0.000180314 -7.80544e-06 1.49672e-07
-5.66338e-07 1.49672e-07 -0.000166725
0.00134153 0.000273581 7.41006e-06
0.000273581 0.000103224 1.79931e-06
7.41006e-06 1.79931e-06 -9.61787e-05
0.000852676 0.000181266 1.19017e-05
0.000181266 -1.97025e-05 6.32861e-06
1.19017e-05 6.32861e-06 -0.000183124
0.000511542 0.000198879 1.39641e-06
0.000198879 -8.65272e-05 6.70496e-07
1.39641e-06 6.70496e-07 -0.000191646
0.00600387 3.1093e-06 -0.000210119
3.1093e-06 0.00329308 -2.41109e-05
-0.000210119 -2.41109e-05 0.00327742
0.000463293 0.000175092 2.146e-05
0.000175092 -0.000105671 1.51867e-05
2.146e-05 1.51867e-05 -0.000202102
0.0056555 -0.000114772 4.91623e-06
-0.000114772 0.00309369 -1.01055e-06
4.91623e-06 -1.01055e-06 0.00307634
0.00474511 -0.000219517 0.000119568
-0.000219517 0.00257432 6.74227e-06
0.000119568 6.74227e-06 0.00254311
0.00186222 0.000101713 -4.0471e-06
0.000101713 4.29416e-05 9.00182e-07
-4.0471e-06 9.00182e-07 -1.19796e-05
0.0019165 0.000146361 1.25957e-06
0.000146361 3.5813e-05 7.63311e-07
1.25957e-06 7.63311e-07 -2.32532e-05
0.00204654 0.000189293 -1.90903e-07
0.000189293 5.10447e-06 -3.86634e-07
-1.90903e-07 -3.86634e-07 -2.58202e-05
0.00201522 0.000260668 2.51465e-06
0.000260668 0.000133817 -7.12283e-08
2.51465e-06 -7.12283e-08 2.79884e-05
0.00171609 4.62431e-06 -7.47094e-07
4.62431e-06 -4.47047e-06 1.67202e-07
-7.47094e-07 1.67202e-07 -6.91538e-05
0.00191236 4.90249e-05 2.7528e-07
4.90249e-05 4.39346e-05 6.68084e-08
2.7528e-07 6.68084e-08 1.05844e-05
0.00196167 4.59544e-05 1.60187e-06
4.59544e-05 3.39464e-05 -2.08973e-07
1.60187e-06 -2.08973e-07 1.52785e-05
0.00190199 -1.79795e-05 1.53984e-06
-1.79795e-05 4.29975e-05 -6.3761e-07
1.53984e-06 -6.3761e-07 1.41397e-05
0.00182739 -2.93173e-05 -2.173e-06
-2.93173e-05 5.27947e-05 1.63327e-07
-2.173e-06 1.63327e-07 -6.27981e-06
0.00183099 -3.17569e-05 2.28904e-06
-3.17569e-05 0.000116636 -9.51914e-07
2.28904e-06 -9.51914e-07 2.30837e-05
0.00180735 -7.71771e-05 -6.60462e-07
-7.71771e-05 3.26878e-05 1.02889e-06
-6.60462e-07 1.02889e-06 -3.36866e-05
0.00181556 -8.02297e-05 -3.56883e-07
-8.02297e-05 0.000106685 3.10824e-07
-3.56883e-07 3.10824e-07 5.53512e-06
0.00158037 -5.98632e-05 -2.2796e-06
-5.98632e-05 9.52725e-05 -1.96775e-07
-2.2796e-06 -1.96775e-07 -2.96707e-05
0.00181691 -0.000134926 1.82034e-06
-0.000134926 0.000108104 -2.25919e-07
1.82034e-06 -2.25919e-07 -2.77733e-06
0.00152846 -0.000100242 7.81129e-07
-0.000100242 7.68058e-05 -2.55144e-07
7.81129e-07 -2.55144e-07 -6.01528e-05
0.000983731 -6.23095e-05 -1.23074e-05
-6.23095e-05 -4.41199e-05 2.11874e-06
-1.23074e-05 2.11874e-06 -0.000175582
0.00150641 -0.000140252 2.30969e-06
-0.000140252 8.28783e-05 -2.94128e-07
2.30969e-06 -2.94128e-07 -6.39228e-05
0.000994353 -8.8198e-05 -6.55717e-08
-8.8198e-05 -3.02217e-05 1.93333e-07
-6.55717e-08 1.93333e-07 -0.000166159
0.000561956 -8.30978e-05 -1.98357e-05
-8.30978e-05 -0.000122631 5.05779e-06
-1.98357e-05 5.05779e-06 -0.0002011
0.00102005 -0.000108579 1.28282e-05
-0.000108579 -6.79522e-06 -3.49933e-06
1.28282e-05 -3.49933e-06 -0.000146168
0.00158212 -9.48132e-05 4.91348e-05
-9.48132e-05 0.000496838 -3.32457e-06
4.91348e-05 -3.32457e-06 0.000426718
0.00573976 -0.0001264 -0.000249654
-0.0001264 0.00309394 1.616e-05
-0.000249654 1.616e-05 0.00310222
0.00268902 -0.000128616 0.000118763
-0.000128616 0.00116252 -1.34818e-05
0.000118763 -1.34818e-05 0.00110322
0.00160318 -5.36454e-05 -7.03533e-05
-5.36454e-05 0.000612789 6.00766e-06
-7.03533e-05 6.00766e-06 0.000586116
0.00130087 -6.73192e-05 5.00309e-05
-6.73192e-05 0.000447902 -7.07727e-06
5.00309e-05 -7.07727e-06 0.000409036
0.00189866 0.000110756 -1.85526e-06
0.000110756 0.000106261 1.67439e-06
-1.85526e-06 1.67439e-06 2.67589e-05
0.00190601 0.000171167 3.27078e-08
0.000171167 0.00016304 1.36484e-06
3.27078e-08 1.36484e-06 4.14363e-05
0.00197131 0.000153866 4.53735e-07
0.000153866 0.000142439 1.04777e-07
4.53735e-07 1.04777e-07 4.7017e-05
0.00160276 0.000194991 -2.72784e-06
0.000194991 0.000125792 -1.769e-07
-2.72784e-06 -1.769e-07 -2.73022e-05
0.0018305 0.000237354 3.88475e-07
0.000237354 0.000134893 7.74552e-09
3.88475e-07 7.74552e-09 -9.19818e-06
0.00192506 0.000261379 3.89332e-07
0.000261379 0.000110878 6.83577e-08
3.89332e-07 6.83577e-08 -1.32528e-05
0.000789561 0.000136847 -1.56621e-05
0.000136847 -0.000151561 -4.55825e-06
-1.56621e-05 -4.55825e-06 -0.00029676
0.00178931 0.000242663 2.55877e-06
0.000242663 0.000274122 6.5998e-07
2.55877e-06 6.5998e-07 0.000108474
0.00176848 0.000276907 8.10542e-08
0.000276907 0.000140496 -3.98025e-07
8.10542e-08 -3.98025e-07 -2.16114e-05
0.000466753 0.000131138 -1.95856e-05
0.000131138 -0.000148131 -1.02768e-05
-1.95856e-05 -1.02768e-05 -0.00023879
0.000837477 0.000159408 4.07132e-07
0.000159408 -0.000100346 3.02777e-07
4.07132e-07 3.02777e-07 -0.000252254
0.00139857 0.000255148 8.72772e-06
0.000255148 7.71686e-05 1.29668e-06
8.72772e-06 1.29668e-06 -0.00010391
0.00600747 8.79593e-05 -0.000222566
8.79593e-05 0.00327178 -2.36793e-05
-0.000222566 -2.36793e-05 0.00326667
0.000478091 0.000167956 9.76311e-07
0.000167956 -0.000121375 6.7695e-07
9.76311e-07 6.7695e-07 -0.000221831
0.000907422 0.000177086 1.36169e-05
0.000177086 -2.6312e-05 6.15251e-06
1.36169e-05 6.15251e-06 -0.000184657
0.000447468 0.000182241 2.09629e-05
0.000182241 -0.000120651 1.51048e-05
2.09629e-05 1.51048e-05 -0.000226879
0.00588563 -7.03477e-06 9.31533e-06
-7.03477e-06 0.00321281 -3.69733e-07
9.31533e-06 -3.69733e-07 0.00320434
0.00549218 -0.000149533 0.000171073
-0.000149533 0.00299117 8.81372e-06
0.000171073 8.81372e-06 0.00297551
0.00180957 6.34549e-05 -3.53743e-06
6.34549e-05 5.3558e-05 -2.90992e-07
-3.53743e-06 -2.90992e-07 -1.3098e-05
0.00189211 0.000101386 5.40149e-07
0.000101386 5.70814e-05 6.74714e-07
5.40149e-07 6.74714e-07 1.48398e-06
0.00186802 0.000146079 2.25123e-06
0.000146079 8.65563e-06 3.2597e-07
2.25123e-06 3.2597e-07 -4.84317e-05
0.00170746 5.19011e-06 2.54953e-06
5.19011e-06 4.57794e-05 -7.52481e-07
2.54953e-06 -7.52481e-07 -5.03904e-05
0.00175364 8.17822e-06 3.43012e-07
8.17822e-06 2.13903e-05 2.3023e-07
3.43012e-07 2.3023e-07 -4.01749e-05
0.00189408 3.98324e-05 2.42339e-06
3.98324e-05 2.83143e-05 -2.52672e-07
2.42339e-06 -2.52672e-07 -4.04652e-06
0.00183292 -2.39888e-05 -1.05099e-06
-2.39888e-05 5.80048e-05 8.00694e-07
-1.05099e-06 8.00694e-07 8.81767e-07
0.00179596 -2.87445e-05 1.00924e-06
-2.87445e-05 9.50543e-05 -1.42681e-07
1.00924e-06 -1.42681e-07 1.70546e-06
0.00176691 -2.27716e-05 -7.85473e-08
-2.27716e-05 0.000214389 -5.87841e-07
-7.85473e-08 -5.87841e-07 9.5391e-05
0.00176038 -7.98538e-05 -2.23656e-06
-7.98538e-05 7.82012e-05 1.04468e-06
-2.23656e-06 1.04468e-06 -2.81905e-05
0.0016399 -6.05387e-05 8.80017e-08
-6.05387e-05 0.000133367 5.55989e-08
8.80017e-08 5.55989e-08 6.269e-06
0.000815175 -3.15216e-05 -1.36932e-05
-3.15216e-05 -0.000152113 1.28302e-06
-1.36932e-05 1.28302e-06 -0.000279572
0.00151966 -0.000100281 2.74008e-06
-0.000100281 6.92804e-05 -3.69186e-07
2.74008e-06 -3.69186e-07 -6.75619e-05
0.000992813 -5.93072e-05 -5.67103e-08
-5.93072e-05 -3.99266e-05 1.36807e-07
-5.67103e-08 1.36807e-07 -0.000170892
0.000567931 -2.10881e-05 -1.85487e-05
-2.10881e-05 -0.000122689 3.19259e-06
-1.85487e-05 3.19259e-06 -0.000199161
0.00101967 -8.69511e-05 1.24279e-05
-8.69511e-05 -1.66906e-05 -2.58421e-06
1.24279e-05 -2.58421e-06 -0.000152108
0.000567266 -6.65177e-05 -2.10245e-07
-6.65177e-05 -0.000117423 3.79062e-07
-2.10245e-07 3.79062e-07 -0.000197308
0.00574149 -2.11585e-05 -0.000240893
-2.11585e-05 0.00309111 9.79727e-06
-0.000240893 9.79727e-06 0.00310202
0.000600838 -6.90491e-05 1.58329e-05
-6.90491e-05 -9.5786e-05 -6.9544e-06
1.58329e-05 -6.9544e-06 -0.000178279
0.00361694 -8.29878e-05 0.000110619
-8.29878e-05 0.00182266 -4.44977e-06
0.000110619 -4.44977e-06 0.00180675
0.00126108 -7.54675e-05 5.62811e-05
-7.54675e-05 0.000425405 -7.50398e-06
5.62811e-05 -7.50398e-06 0.000384689
0.00178609 9.57242e-05 -2.35738e-06
9.57242e-05 5.90803e-05 1.42034e-07
-2.35738e-06 1.42034e-07 -2.04373e-05
0.0018016 0.000107877 2.09207e-06
0.000107877 0.000105744 2.38219e-06
2.09207e-06 2.38219e-06 -2.7556e-06
0.00192631 0.00010695 1.03661e-07
0.00010695 0.000123638 -3.02921e-07
1.03661e-07 -3.02921e-07 4.56632e-05
0.00154397 0.000140166 -1.61227e-06
0.000140166 7.69041e-05 4.69841e-08
-1.61227e-06 4.69841e-08 -6.59456e-05
0.00188386 0.000170271 5.23821e-07
0.000170271 0.000145225 2.0891e-07
5.23821e-07 2.0891e-07 2.24048e-05
0.00198695 0.000150507 1.031e-06
0.000150507 0.000158414 -1.33951e-06
1.031e-06 -1.33951e-06 6.24311e-05
0.000833185 0.000113606 -1.46791e-05
0.000113606 -0.000141416 -3.4483e-06
-1.46791e-05 -3.4483e-06 -0.000280173
0.00167588 0.000195619 2.00208e-07
0.000195619 0.000173523 3.11065e-07
2.00208e-07 3.11065e-07 1.94942e-05
0.00180494 0.000233898 6.78608e-07
0.000233898 0.000120679 -3.72817e-07
6.78608e-07 -3.72817e-07 -2.28719e-05
0.000481267 9.3161e-05 -1.80381e-05
9.3161e-05 -0.000158121 -7.48451e-06
-1.80381e-05 -7.48451e-06 -0.000241592
0.000761333 0.000135551 -2.62156e-06
0.000135551 -0.000167456 -2.99478e-07
-2.62156e-06 -2.99478e-07 -0.00031269
0.00180445 0.000243679 7.67799e-06
0.000243679 0.000282774 1.82142e-06
7.67799e-06 1.82142e-06 0.000117191
0.00593381 0.000161952 -0.000240638
0.000161952 0.00321555 -2.2758e-05
-0.000240638 -2.2758e-05 0.0032165
0.00047964 0.000126395 3.00822e-07
0.000126395 -0.000141448 3.98583e-07
3.00822e-07 3.98583e-07 -0.000232539
0.00068556 0.000152299 1.39328e-05
0.000152299 -0.000191112 5.17045e-06
1.39328e-05 5.17045e-06 -0.000343491
0.0059211 0.000102202 1.29255e-05
0.000102202 0.00322268 1.64938e-06
1.29255e-05 1.64938e-06 0.00321786
0.000465075 0.000155693 1.96339e-05
0.000155693 -0.000129079 1.3187e-05
1.96339e-05 1.3187e-05 -0.000230228
0.00577965 -3.97308e-05 0.000205329
-3.97308e-05 0.00313891 1.34803e-05
0.000205329 1.34803e-05 0.00313709
0.00184817 4.5657e-05 7.11576e-07
4.5657e-05 0.000119523 -4.38949e-07
7.11576e-07 -4.38949e-07 2.53731e-05
0.00181694 6.20398e-05 -1.81345e-06
6.20398e-05 6.63654e-05 2.69106e-07
-1.81345e-06 2.69106e-07 -2.06801e-06
0.00191196 0.000100639 3.69366e-06
0.000100639 6.47239e-05 2.40272e-07
3.69366e-06 2.40272e-07 8.52162e-06
0.00176013 -1.90865e-06 9.53769e-07
-1.90865e-06 0.000217338 -4.44726e-07
9.53769e-07 -4.44726e-07 0.00010062
0.00168687 4.58098e-06 -1.34816e-08
4.58098e-06 3.05625e-05 -3.04554e-08
-1.34816e-08 -3.04554e-08 -6.33386e-05
0.0017997 1.31223e-05 2.83556e-06
1.31223e-05 5.17433e-05 3.57222e-07
2.83556e-06 3.57222e-07 -6.65724e-06
0.00175961 -2.61718e-05 -3.93203e-07
-2.61718e-05 7.28933e-05 7.30091e-07
-3.93203e-07 7.30091e-07 -2.02724e-05
0.00175979 -2.25914e-05 2.79683e-06
-2.25914e-05 0.000209286 -2.74572e-07
2.79683e-06 -2.74572e-07 9.02321e-05
0.000826936 -1.06461e-05 -1.31959e-05
-1.06461e-05 -0.000142072 5.66027e-07
-1.31959e-05 5.66027e-07 -0.000266436
0.00170381 -6.14341e-05 2.46684e-06
-6.14341e-05 0.000173951 7.71783e-08
2.46684e-06 7.71783e-08 4.46917e-05
0.000907777 -3.13697e-05 -2.05589e-06
-3.13697e-05 -9.61942e-05 1.64532e-07
-2.05589e-06 1.64532e-07 -0.000223453
0.000569278 -6.75036e-06 -1.87893e-05
-6.75036e-06 -0.00012453 2.04482e-06
-1.87893e-05 2.04482e-06 -0.000199242
0.00100574 -5.74723e-05 1.19462e-05
-5.74723e-05 -3.29977e-05 -1.82557e-06
1.19462e-05 -1.82557e-06 -0.00016358
0.000547591 -3.22671e-05 8.73091e-07
-3.22671e-05 -0.000136169 -7.74238e-08
8.73091e-07 -7.74238e-08 -0.000211389
0.00567351 -0.000118882 -0.000248861
-0.000118882 0.00305989 1.04693e-05
-0.000248861 1.04693e-05 0.0030672
0.000541181 -4.97697e-05 1.79087e-05
-4.97697e-05 -0.000133019 -3.91566e-06
1.79087e-05 -3.91566e-06 -0.000212677
0.00571653 -5.74347e-05 7.68764e-06
-5.74347e-05 0.00307728 -5.79398e-08
7.68764e-06 -5.79398e-08 0.00308836
0.00160424 -2.28285e-05 0.000198226
-2.28285e-05 0.000604978 -1.12873e-05
0.000198226 -1.12873e-05 0.000592528
0.00169869 7.59044e-05 2.17406e-06
7.59044e-05 4.09128e-05 4.9258e-07
2.17406e-06 4.9258e-07 -6.33419e-05
0.00177189 9.90353e-05 -3.21806e-06
9.90353e-05 4.74491e-05 -1.02673e-06
-3.21806e-06 -1.02673e-06 -2.93869e-05
0.00153931 8.84682e-05 -6.60754e-07
8.84682e-05 7.40358e-05 2.70561e-07
-6.60754e-07 2.70561e-07 -5.80494e-05
0.00180501 0.000106988 6.83837e-07
0.000106988 0.000105836 2.00039e-07
6.83837e-07 2.00039e-07 -2.77621e-06
0.00196355 0.000103488 8.87519e-07
0.000103488 0.000146744 -2.92737e-06
8.87519e-07 -2.92737e-06 7.02742e-05
0.00105015 8.7085e-05 -1.25629e-05
8.7085e-05 -1.34323e-05 -2.33965e-06
-1.25629e-05 -2.33965e-06 -0.000144483
0.00154082 0.000139634 1.20828e-07
0.000139634 7.71617e-05 7.13385e-08
1.20828e-07 7.13385e-08 -6.58287e-05
0.00185761 0.000169217 6.05596e-07
0.000169217 0.000125223 -8.18311e-07
6.05596e-07 -8.18311e-07 1.18277e-06
0.000510301 6.64681e-05 -1.76041e-05
6.64681e-05 -0.000153299 -5.37153e-06
-1.76041e-05 -5.37153e-06 -0.000232789
0.000902365 0.000116367 -2.79644e-06
0.000116367 -9.80601e-05 -2.1776e-07
-2.79644e-06 -2.1776e-07 -0.000236718
0.00175176 0.000196116 3.82946e-06
0.000196116 0.000223168 1.04463e-06
3.82946e-06 1.04463e-06 6.82424e-05
0.00586972 0.000201609 -0.000259073
0.000201609 0.00318023 -2.18288e-05
-0.000259073 -2.18288e-05 0.00318028
0.000507499 9.30923e-05 1.10557e-09
9.30923e-05 -0.000143575 1.68116e-07
1.10557e-09 1.68116e-07 -0.00022726
0.000733523 0.000134319 9.89061e-06
0.000134319 -0.000183365 3.73562e-06
9.89061e-06 3.73562e-06 -0.000328577
0.00589054 0.000182581 1.08558e-05
0.000182581 0.00319971 3.23476e-06
1.08558e-05 3.23476e-06 0.00319608
0.000495407 0.000119972 1.84845e-05
0.000119972 -0.000133596 1.03301e-05
1.84845e-05 1.03301e-05 -0.00022467
0.00587499 9.80896e-05 0.000230702
9.80896e-05 0.0031843 1.99302e-05
0.000230702 1.99302e-05 0.00318694
0.00174196 3.19356e-05 1.95342e-06
3.19356e-05 0.000204777 -3.48412e-08
1.95342e-06 -3.48412e-08 8.73765e-05
0.00179093 4.12825e-05 -1.74732e-06
4.12825e-05 8.87662e-05 9.93746e-08
-1.74732e-06 9.93746e-08 -6.9825e-06
0.00181266 6.00788e-05 -3.93728e-07
6.00788e-05 7.26634e-05 2.33903e-08
-3.93728e-07 2.33903e-08 2.3973e-06
0.000825582 -7.32588e-06 -1.37375e-05
-7.32588e-06 -0.000135276 -1.19119e-07
-1.37375e-05 -1.19119e-07 -0.000258279
0.00176196 4.0542e-06 3.27352e-06
4.0542e-06 0.000218272 -2.17341e-07
3.27352e-06 -2.17341e-07 0.00010147
0.00165964 3.82784e-06 -1.34756e-06
3.82784e-06 1.1345e-05 6.61621e-07
-1.34756e-06 6.61621e-07 -8.02612e-05
0.0017585 -2.27885e-05 5.46417e-06
-2.27885e-05 0.000207719 7.52664e-08
5.46417e-06 7.52664e-08 8.86076e-05
0.000820041 -1.08757e-05 -1.48512e-06
-1.08757e-05 -0.000147046 9.46868e-08
-1.48512e-06 9.46868e-08 -0.000271598
0.000570816 -2.99847e-05 -1.9174e-05
-2.99847e-05 -0.000124434 8.75906e-07
-1.9174e-05 8.75906e-07 -0.000196887
0.000981989 -3.03673e-05 1.04205e-05
-3.03673e-05 -5.10952e-05 -1.20895e-06
1.04205e-05 -1.20895e-06 -0.000178177
0.000549583 4.25614e-06 3.27974e-07
4.25614e-06 -0.000136756 4.49262e-08
3.27974e-07 4.49262e-08 -0.000210728
0.00567547 -9.47922e-05 -0.000254175
-9.47922e-05 0.00305922 7.49031e-06
-0.000254175 7.49031e-06 0.00306887
0.000557824 -3.68241e-05 1.8742e-05
-3.68241e-05 -0.000128236 -2.63968e-06
1.8742e-05 -2.63968e-06 -0.000204574
0.00569568 -1.28874e-05 -3.04918e-06
-1.28874e-05 0.00306372 1.81939e-06
-3.04918e-06 1.81939e-06 0.00307669
0.00571728 -7.46812e-05 0.000248665
-7.46812e-05 0.00307674 -9.26285e-06
0.000248665 -9.26285e-06 0.00308882
0.00150457 5.26421e-05 -4.81889e-07
5.26421e-05 5.9356e-05 3.64985e-08
-4.81889e-07 3.64985e-08 -6.72232e-05
0.00175905 7.86734e-05 -1.82702e-06
7.86734e-05 7.43169e-05 -1.27079e-06
-1.82702e-06 -1.27079e-06 -2.52975e-05
0.00177425 0.000103047 -3.38822e-06
0.000103047 4.60984e-05 -2.1875e-06
-3.38822e-06 -2.1875e-06 -2.80162e-05
0.00104962 5.15248e-05 -1.22748e-05
5.15248e-05 -1.07304e-05 -1.81689e-06
-1.22748e-05 -1.81689e-06 -0.000136172
0.00152559 8.79657e-05 2.02805e-07
8.79657e-05 6.68605e-05 -1.08901e-08
2.02805e-07 -1.08901e-08 -6.56075e-05
0.00180848 0.000106022 -5.53777e-07
0.000106022 0.000106174 -1.78408e-06
-5.53777e-07 -1.78408e-06 -2.53808e-06
0.000536264 4.21822e-05 -1.72295e-05
4.21822e-05 -0.000142436 -3.84686e-06
-1.72295e-05 -3.84686e-06 -0.000219358
0.00101719 8.82829e-05 2.6552e-07
8.82829e-05 -3.2948e-05 2.39363e-07
2.6552e-07 2.39363e-07 -0.000164614
0.00153849 0.000139163 2.24224e-06
0.000139163 7.75084e-05 1.49891e-07
2.24224e-06 1.49891e-07 -6.56405e-05
0.00578561 0.000186718 -0.000270506
0.000186718 0.00313195 -1.87183e-05
-0.000270506 -1.87183e-05 0.00313386
0.000537827 7.00853e-05 3.40827e-07
7.00853e-05 -0.000136836 1.62439e-07
3.40827e-07 1.62439e-07 -0.000216958
0.00097002 0.000119123 9.90437e-06
0.000119123 -5.58238e-05 3.11687e-06
9.90437e-06 3.11687e-06 -0.000194345
0.00586077 0.000215306 6.35362e-06
0.000215306 0.00318141 2.87033e-06
6.35362e-06 2.87033e-06 0.00317881
0.000537157 9.45089e-05 1.78012e-05
9.45089e-05 -0.000126235 7.92064e-06
1.78012e-05 7.92064e-06 -0.000210385
0.00587365 0.000206654 0.000248601
0.000206654 0.00319095 2.529e-05
0.000248601 2.529e-05 0.00318705
0.00100144 1.55456e-05 -1.28953e-05
1.55456e-05 -2.61906e-05 -7.24204e-07
-1.28953e-05 -7.24204e-07 -0.000148646
0.0016511 2.76385e-05 3.75232e-06
2.76385e-05 0.000150665 7.94402e-08
3.75232e-06 7.94402e-08 3.3257e-05
0.00173556 3.64163e-05 -4.47621e-06
3.64163e-05 5.88254e-05 2.64738e-07
-4.47621e-06 2.64738e-07 -3.85526e-05
0.000602212 3.04723e-05 -1.97241e-05
3.04723e-05 -0.000113539 -5.04481e-07
-1.97241e-05 -5.04481e-07 -0.000178999
0.000802139 -1.63707e-06 -1.69911e-06
-1.63707e-06 -0.000150095 5.89985e-08
-1.69911e-06 5.89985e-08 -0.000273237
0.00176096 1.06879e-05 5.61702e-06
1.06879e-05 0.000217448 1.58818e-07
5.61702e-06 1.58818e-07 0.000100542
0.000810221 -1.06862e-05 1.02877e-05
-1.06862e-05 -0.00015389 -4.30166e-07
1.02877e-05 -4.30166e-07 -0.000278612
0.000566522 -4.78983e-06 2.86861e-07
-4.78983e-06 -0.000126775 3.44159e-07
2.86861e-07 3.44159e-07 -0.000199486
0.00563652 3.53405e-05 -0.000258959
3.53405e-05 0.00303126 -2.42654e-07
-0.000258959 -2.42654e-07 0.00304519
0.000527332 1.5775e-05 1.82734e-05
1.5775e-05 -0.00015117 -1.23885e-06
1.82734e-05 -1.23885e-06 -0.000224046
0.00565156 -9.34648e-05 -7.80254e-06
-9.34648e-05 0.00304586 1.60961e-06
-7.80254e-06 1.60961e-06 0.00305512
0.0056514 6.48099e-06 0.000238942
6.48099e-06 0.00303767 -4.24628e-06
0.000238942 -4.24628e-06 0.00305038
0.00102235 2.78524e-05 -1.2672e-05
2.78524e-05 -1.91135e-05 -1.43531e-06
-1.2672e-05 -1.43531e-06 -0.000141959
0.00151653 5.16636e-05 -1.7795e-07
5.16636e-05 6.6677e-05 -1.03059e-07
-1.7795e-07 -1.03059e-07 -5.72328e-05
0.00182059 8.11552e-05 -4.51013e-06
8.11552e-05 0.000108287 -2.18388e-06
-4.51013e-06 -2.18388e-06 1.33272e-05
0.00262827 5.28114e-05 -0.000123424
5.28114e-05 0.00111082 -4.04347e-06
-0.000123424 -4.04347e-06 0.00106201
0.0010133 5.34084e-05 2.89652e-07
5.34084e-05 -3.29732e-05 1.03647e-07
2.89652e-07 1.03647e-07 -0.000158876
0.00151189 8.73857e-05 1.98112e-06
8.73857e-05 5.96589e-05 -1.41666e-07
1.98112e-06 -1.41666e-07 -7.32045e-05
0.0057 0.00014407 -0.000271765
0.00014407 0.00307781 -1.37715e-05
-0.000271765 -1.37715e-05 0.00308451
0.000571749 5.98337e-05 8.24882e-07
5.98337e-05 -0.000119271 3.6239e-07
8.24882e-07 3.6239e-07 -0.00019785
0.000987278 8.958e-05 1.24377e-05
8.958e-05 -5.05831e-05 2.76442e-06
1.24377e-05 2.76442e-06 -0.000182842
0.00583378 0.00019895 1.8384e-06
0.00019895 0.0031625 1.65987e-06
1.8384e-06 1.65987e-06 0.00316338
0.000575923 7.64909e-05 1.80812e-05
7.64909e-05 -0.000112951 6.22425e-06
1.80812e-05 6.22425e-06 -0.000194332
0.00585125 0.000243733 0.000260563
0.000243733 0.00318509 2.66695e-05
0.000260563 2.66695e-05 0.00317748
0.000651189 9.84688e-06 -1.63218e-05
9.84688e-06 -7.37742e-05 -1.81764e-06
-1.63218e-05 -1.81764e-06 -0.000147612
0.000895419 1.40295e-05 6.21407e-07
1.40295e-05 -9.10812e-05 2.69182e-07
6.21407e-07 2.69182e-07 -0.000213823
0.00155888 2.265e-05 4.7561e-06
2.265e-05 9.55606e-05 1.43726e-07
4.7561e-06 1.43726e-07 -2.181e-05
0.00551429 -9.48627e-05 -0.000243181
-9.48627e-05 0.00297455 1.55765e-06
-0.000243181 1.55765e-06 0.00297856
0.000562285 8.07959e-06 -5.38998e-07
8.07959e-06 -0.000132752 1.0198e-07
-5.38998e-07 1.0198e-07 -0.00020083
0.000794144 3.29608e-06 1.02015e-05
3.29608e-06 -0.00015594 1.03415e-07
1.02015e-05 1.03415e-07 -0.000279172
0.000526795 2.06893e-05 1.84911e-05
2.06893e-05 -0.000151172 1.52886e-07
1.84911e-05 1.52886e-07 -0.0002232
0.0055921 -4.25167e-07 2.40819e-06
-4.25167e-07 0.00300931 -1.04422e-06
2.40819e-06 -1.04422e-06 0.00301973
0.00565897 -1.01291e-05 0.000247899
-1.01291e-05 0.00304044 -2.37289e-06
0.000247899 -2.37289e-06 0.00305465
0.00270596 9.37739e-06 -0.000119854
9.37739e-06 0.00115426 -2.48955e-06
-0.000119854 -2.48955e-06 0.00110705
0.00101455 3.08984e-05 5.29441e-08
3.08984e-05 -2.55442e-05 7.13198e-08
5.29441e-08 7.13198e-08 -0.000148713
0.00152233 5.08508e-05 1.73533e-06
5.08508e-05 7.06012e-05 -2.43897e-07
1.73533e-06 -2.43897e-07 -5.06315e-05
0.00527803 -5.22209e-05 -9.00993e-05
-5.22209e-05 0.00283623 5.24819e-07
-9.00993e-05 5.24819e-07 0.00282277
0.000588292 5.2242e-05 6.92595e-08
5.2242e-05 -0.000110529 2.06397e-07
6.92595e-08 2.06397e-07 -0.000185772
0.000994198 5.58523e-05 1.21736e-05
5.58523e-05 -4.55551e-05 2.05727e-06
1.21736e-05 2.05727e-06 -0.000171859
0.00575529 0.000115656 -1.07367e-05
0.000115656 0.00310617 -1.32813e-06
-1.07367e-05 -1.32813e-06 0.00311449
0.000604175 8.23447e-05 1.95278e-05
8.23447e-05 -9.9356e-05 5.19237e-06
1.95278e-05 5.19237e-06 -0.000178649
0.00585285 0.000223098 0.000271263
0.000223098 0.00318121 2.41552e-05
0.000271263 2.41552e-05 0.00317863
0.0016863 -5.09981e-05 -0.000202638
-5.09981e-05 0.000649437 8.26828e-07
-0.000202638 8.26828e-07 0.000642545
0.00164536 2.69371e-05 -5.03327e-05
2.69371e-05 0.000515709 2.12255e-07
-5.03327e-05 2.12255e-07 0.000459796
0.000785768 1.50034e-05 1.24734e-05
1.50034e-05 -0.000157806 9.84535e-07
1.24734e-05 9.84535e-07 -0.000280902
0.00558127 -4.1621e-05 7.59483e-06
-4.1621e-05 0.00300888 1.60413e-06
7.59483e-06 1.60413e-06 0.00301735
0.00057887 -1.25618e-05 1.90578e-05
-1.25618e-05 -0.00011727 7.96813e-07
1.90578e-05 7.96813e-07 -0.000188773
0.00563246 -6.721e-05 0.00026229
-6.721e-05 0.00303486 -2.58326e-06
0.00026229 -2.58326e-06 0.00304571
0.00127203 1.39495e-05 -4.36915e-05
1.39495e-05 0.000425482 -7.27966e-07
-4.36915e-05 -7.27966e-07 0.00039104
0.00163325 1.37749e-05 -5.06714e-05
1.37749e-05 0.000512357 -7.82458e-07
-5.06714e-05 -7.82458e-07 0.000453226
0.000995953 3.25694e-05 1.2405e-05
3.25694e-05 -3.81421e-05 1.62833e-06
1.2405e-05 1.62833e-06 -0.000161663
0.0034904 5.40817e-05 9.63781e-05
5.40817e-05 0.00174686 2.39022e-06
9.63781e-05 2.39022e-06 0.00173637
0.000596537 6.26778e-05 1.98012e-05
6.26778e-05 -0.000105561 3.99078e-06
1.98012e-05 3.99078e-06 -0.000180826
0.00581354 0.000104638 0.00025949
0.000104638 0.00313501 1.45781e-05
0.00025949 1.45781e-05 0.00314643
0.0055336 -2.12221e-05 -8.93515e-06
-2.12221e-05 0.00298297 -2.22388e-06
-8.93515e-06 -2.22388e-06 0.00299052
0.000578602 4.52292e-05 2.04834e-05
4.52292e-05 -0.000126357 2.09413e-06
2.04834e-05 2.09413e-06 -0.000191522
0.00549777 4.75694e-05 0.000249569
4.75694e-05 0.00295561 1.22981e-07
0.000249569 1.22981e-07 0.00296709
0.00342349 2.74784e-05 0.000109834
2.74784e-05 0.00171073 3.60347e-06
0.000109834 3.60347e-06 0.00170084
0.0006081 5.69633e-06 1.89754e-05
5.69633e-06 -0.000100044 2.6836e-06
1.89754e-05 2.6836e-06 -0.000171947
0.00567779 -1.97772e-05 0.000249896
-1.97772e-05 0.00305626 6.37813e-06
0.000249896 6.37813e-06 0.00306758
0.00556768 -0.000125236 0.000245739
-0.000125236 0.00300876 -3.27251e-06
0.000245739 -3.27251e-06 0.00301151
0.00555006 -6.01093e-06 0.000245378
-6.01093e-06 0.00297824 3.42201e-06
0.000245378 3.42201e-06 0.00299275
