# vtk DataFile Version 2.0
Wound Healing Simulation
ASCII
DATASET UNSTRUCTURED_GRID
POINTS 3012 float
69.9759 18.75 4
67.2507 60.3285 4
69.976 18.75 2
73.0099 25.446 4
71.1327 20.9142 4
68.6801 16.6661 4
67.8264 19.9138 3.99332
67.2507 60.3286 2
71.1327 54.0858 4
68.6801 58.3339 4
65.6939 62.2254 4
65.313 59.0109 3.99414
74.6784 42.3946 4
73.7221 47.2057 4
69.9759 18.75 0
73.0099 25.446 2
68.6801 16.6661 2
71.1327 20.9142 2
67.8264 19.9133 2
74.6792 32.6053 4
73.7222 27.7943 4
72.1454 23.1494 4
70.6165 26.2108 3.99185
68.8871 21.9461 3.9929
67.2507 14.6715 4
66.6377 17.9603 3.99372
65.8042 21.0037 3.98926
67.2507 60.3285 0
71.1327 54.0858 2
68.6801 58.3339 2
65.694 62.2255 2
65.3129 59.0114 2
72.1454 51.8506 4
69.9759 56.25 4
68.8379 53.1249 3.99266
64.0165 64.0165 4
66.6115 57.1447 3.99384
63.8865 60.774 3.99443
63.5045 57.7937 3.9903
60.3285 67.2507 4
74.6792 42.3947 2
73.7222 47.2057 2
74.9194 39.9526 4
74.2788 44.8158 4
72.1715 42.0914 3.99048
73.0099 49.554 4
71.252 46.6075 3.99123
73.0099 25.446 0
71.1327 20.9142 0
68.6801 16.6661 0
67.8264 19.9138 0.00667654
74.6792 32.6053 2
73.7222 27.7943 2
67.2508 14.6715 2
72.1455 23.1494 2
70.6165 26.2104 2
66.6377 17.9597 2
68.8871 21.9455 2
65.8042 21.0032 2
74.9197 35.0474 4
74.2794 30.1841 4
72.188 32.9378 3.99031
71.2808 28.4223 3.99126
69.8175 24.0484 3.99242
68.357 26.9363 3.9878
66.7709 22.9136 3.98878
65.694 12.7746 4
65.3242 16.0932 3.99405
64.7193 19.1718 3.98976
63.9014 22.0065 3.98722
71.1327 54.0858 0
65.6939 62.2254 0
68.6801 58.3339 0
65.313 59.0109 0.00586255
72.1455 51.8506 2
69.9759 56.25 2
68.8378 53.1254 2
64.0165 64.0165 2
66.6114 57.1452 2
63.8864 60.7745 2
63.5045 57.7942 2
62.2254 65.694 4
58.8937 65.4192 3.99467
69.7709 51.0002 3.99206
67.7848 55.1791 3.99334
66.6581 52.2286 3.98843
62.3366 62.4341 3.99461
64.6665 56.0535 3.98989
62.2053 59.4253 3.99074
61.832 56.7109 3.988
58.3339 68.6801 4
60.3285 67.2508 2
73.7221 47.2057 0
74.6784 42.3946 0
74.9197 39.9526 2
74.2794 44.8159 2
72.1716 42.0916 2
73.0099 49.554 2
71.2521 46.6078 2
75 37.5 4
72.4091 39.8054 3.99067
71.7856 44.3607 3.99076
69.816 41.7972 3.98705
70.5775 48.824 3.99163
68.9233 46.0283 3.9875
74.6792 32.6053 0
73.7222 27.7943 0
67.2507 14.6715 0
72.1454 23.1494 0
70.6165 26.2108 0.00814881
68.8871 21.9461 0.00710196
66.6377 17.9603 0.00627919
65.8042 21.0037 0.010737
74.9197 35.0474 2
74.2794 30.1841 2
72.188 32.9376 2
71.2809 28.422 2
65.694 12.7745 2
65.3241 16.0927 2
69.8175 24.0479 2
68.3571 26.936 2
64.7193 19.1713 2
66.771 22.9131 2
63.9014 22.0062 2
72.4168 35.2212 3.99039
71.8068 30.6687 3.99072
69.8514 33.2616 3.98687
68.9769 29.0256 3.98734
67.6207 24.8945 3.9883
66.2136 27.6153 3.98625
64.0165 10.9835 4
64.773 23.804 3.98695
63.8904 14.3188 3.99429
63.5167 17.4237 3.99024
62.9186 20.2897 3.98749
62.1143 22.908 3.98638
60.6839 11.0915 3.99451
57.6121 11.4328 3.991
72.1454 51.8506 0
69.9759 56.25 0
68.8379 53.1249 0.00734058
64.0165 64.0165 0
63.8865 60.774 0.00556683
66.6115 57.1447 0.00615761
63.5045 57.7937 0.00969651
62.2255 65.694 2
58.8936 65.4196 2
69.7709 51.0007 2
67.7847 55.1796 2
66.6581 52.229 2
62.3365 62.4346 2
64.6665 56.054 2
62.2053 59.4258 2
61.832 56.7113 2
60.6686 63.9828 3.99465
57.0241 66.7393 3.99471
57.5575 63.7041 3.99117
67.5171 50.1943 3.98799
65.7093 54.1943 3.98916
64.5544 51.4111 3.9864
60.7742 60.9562 3.99106
62.8317 55.0972 3.98778
60.6645 58.1879 3.98827
60.3407 55.8214 3.98702
56.25 69.9759 4
58.3339 68.6801 2
60.3285 67.2507 0
58.9208 9.65039 3.99456
62.2254 9.30607 4
73.0099 49.554 0
74.2788 44.8158 0
71.252 46.6075 0.00876931
72.1715 42.0914 0.00952193
74.9194 39.9526 0
75 37.5 2
72.4092 39.8055 2
71.7856 44.361 2
69.8161 41.7974 2
70.5775 48.8245 2
68.9234 46.0286 2
72.4925 37.5121 3.9903
70.0537 39.6614 3.98753
69.4418 43.9183 3.98711
67.6191 41.5068 3.98602
68.2764 48.1229 3.98777
66.7303 45.4567 3.9861
74.9197 35.0474 0
74.2794 30.1841 0
72.188 32.9378 0.00969399
71.2808 28.4223 0.00874251
65.694 12.7746 0
65.3242 16.0932 0.0059471
69.8175 24.0484 0.00758088
68.357 26.9363 0.0121987
66.7709 22.9136 0.0112189
64.7193 19.1718 0.0102386
63.9014 22.0065 0.0127768
72.4169 35.2211 2
71.8069 30.6684 2
69.8515 33.2615 2
68.977 29.0253 2
64.0165 10.9835 2
63.8904 14.3183 2
63.5167 17.4232 2
67.6208 24.8941 2
66.2138 27.6151 2
62.9187 20.2893 2
64.7731 23.8037 2
62.1145 22.9078 2
60.6838 11.0911 2
57.6121 11.4323 2
70.07 35.3885 3.98714
69.4782 31.1397 3.98703
67.6763 33.5829 3.98568
66.7921 29.607 3.98584
65.542 25.6764 3.98665
64.1745 28.2318 3.98558
62.3418 12.648 3.99443
62.8813 24.6052 3.98621
62.2005 15.7631 3.9906
61.8218 18.654 3.98787
61.2353 21.3046 3.98646
60.4541 23.6868 3.98609
59.2464 12.762 3.99094
55.8738 10.221 3.99107
56.4061 13.0921 3.98869
69.7709 51.0002 0.00794014
62.2254 65.694 0
58.8937 65.4192 0.00533214
67.7848 55.1791 0.00665543
66.6581 52.2286 0.0115749
62.3366 62.4341 0.00538896
62.2053 59.4253 0.00925959
64.6665 56.0535 0.0101091
61.832 56.7109 0.0119951
60.6685 63.9832 2
57.024 66.7397 2
57.5575 63.7046 2
67.5171 50.1947 2
65.7093 54.1947 2
64.5545 51.4114 2
60.7742 60.9567 2
62.8317 55.0976 2
60.6645 58.1883 2
60.3408 55.8217 2
55.0697 67.9357 3.99476
59.2197 62.3816 3.99113
55.8036 64.9198 3.99125
56.328 62.1079 3.98889
65.3502 49.4315 3.98618
63.7204 53.3204 3.98703
62.4666 50.6839 3.98549
59.3368 59.5821 3.98865
61.0934 54.3444 3.98683
59.2984 57.047 3.98688
59.2575 55.2223 3.98681
48.1021 68.5841 3.99144
50.9477 69.9344 3.99482
54.0858 71.1327 4
56.25 69.976 2
58.3339 68.6801 0
57.0579 8.33086 3.9946
60.3285 7.74928 4
58.9207 9.64998 2
62.2255 9.30602 2
70.5775 48.824 0.00837085
71.7856 44.3607 0.00923671
68.9233 46.0283 0.0124969
69.816 41.7972 0.0129478
72.4091 39.8054 0.00932583
75 37.5 0
72.4925 37.5121 2
70.0538 39.6614 2
69.4419 43.9185 2
67.6192 41.5068 2
68.2765 48.1232 2
66.7305 45.4569 2
70.1416 37.5218 3.98734
67.8572 39.5173 3.98657
67.2446 43.4831 3.98584
65.5877 41.2207 3.98574
66.0884 47.4382 3.98624
64.6824 44.8687 3.98565
72.4168 35.2212 0.0096138
71.8068 30.6687 0.00927715
69.8514 33.2616 0.0131263
68.9769 29.0256 0.012655
64.0165 10.9835 0
63.8904 14.3188 0.00571151
63.5167 17.4237 0.00976373
67.6207 24.8945 0.0116967
66.2136 27.6153 0.0137456
64.773 23.804 0.0130481
62.9186 20.2897 0.01251
62.1143 22.908 0.0136157
60.6839 11.0915 0.0054927
57.6121 11.4328 0.00899971
70.0701 35.3884 2
69.4783 31.1395 2
67.6764 33.5828 2
66.7923 29.6069 2
62.3418 12.6476 2
62.2005 15.7627 2
61.8218 18.6536 2
65.5422 25.6762 2
64.1747 28.2317 2
61.2353 21.3043 2
62.8814 24.605 2
60.4542 23.6866 2
59.2463 12.7616 2
56.4062 13.0917 2
55.8738 10.2206 2
67.8924 35.5435 3.98602
67.2857 31.6104 3.9856
65.728 33.9181 3.98546
64.6923 30.1732 3.98501
63.5647 26.386 3.986
62.2943 28.7502 3.98558
60.7757 14.2043 3.99083
61.0773 25.3005 3.98593
60.6171 17.0991 3.98825
60.2349 19.7798 3.98672
59.6846 22.216 3.98595
59.0124 24.275 3.9863
54.0368 9.12552 3.99113
57.9116 14.3084 3.98867
54.7872 11.9938 3.98875
55.3142 14.6203 3.98735
67.5171 50.1943 0.0120145
57.0241 66.7393 0.00528777
60.6686 63.9828 0.00535454
57.5575 63.7041 0.00882986
65.7093 54.1943 0.0108398
64.5544 51.4111 0.0135951
60.7742 60.9562 0.00893767
60.6645 58.1879 0.0117254
62.8317 55.0972 0.0122171
60.3407 55.8214 0.0129827
55.0696 67.936 2
59.2196 62.3821 2
55.8035 64.9203 2
56.328 62.1083 2
65.3503 49.4317 2
63.7205 53.3207 2
62.4668 50.6841 2
59.3368 59.5825 2
61.0935 54.3447 2
59.2984 57.0473 2
59.2576 55.2226 2
53.0416 69.003 3.9948
53.9657 66.0209 3.99133
57.8828 60.8916 3.98882
54.6839 63.2215 3.98898
55.2137 60.6382 3.98743
63.2218 48.6898 3.98555
61.7625 52.6092 3.9859
60.3068 50.0568 3.98499
58.0237 58.2912 3.98715
59.3467 53.9873 3.98635
58.1392 55.8524 3.98573
50.1084 67.8627 3.99142
47.4628 66.5895 3.98923
46.056 69.163 3.99142
48.102 68.5845 2
48.802 70.7253 3.99484
50.9476 69.9347 2
51.8506 72.1454 4
54.0858 71.1327 2
56.25 69.9759 0
55.1022 7.13591 3.99462
58.3339 6.31992 4
57.0578 8.33047 2
60.3286 7.74926 2
58.9208 9.65039 0.00544448
62.2254 9.30607 0
68.2764 48.1229 0.0122251
69.4418 43.9183 0.0128944
66.7303 45.4567 0.0139043
67.6191 41.5068 0.0139752
70.0537 39.6614 0.0124729
72.4925 37.5121 0.00969554
70.1417 37.5218 2
67.8574 39.5173 2
67.2448 43.4832 2
65.5879 41.2207 2
66.0886 47.4384 2
64.6826 44.8688 2
67.9532 37.5224 3.98658
65.8208 39.3762 3.9863
65.2067 43.041 3.9854
63.797 40.9418 3.98573
63.9948 46.7414 3.98579
62.8468 44.2398 3.98556
70.07 35.3885 0.0128586
69.4782 31.1397 0.0129718
67.6763 33.5829 0.0143172
66.7921 29.607 0.0141596
62.3418 12.648 0.00556519
62.2005 15.7631 0.00940433
61.8218 18.654 0.0121271
65.542 25.6764 0.0133488
64.1745 28.2318 0.0144203
62.8813 24.6052 0.0137883
61.2353 21.3046 0.013541
60.4541 23.6868 0.0139051
59.2464 12.762 0.0090618
56.4061 13.0921 0.0113093
55.8738 10.221 0.00892539
67.8926 35.5435 2
67.2858 31.6103 2
65.7281 33.9181 2
64.6925 30.1731 2
60.7757 14.2039 2
60.6172 17.0988 2
60.235 19.7795 2
63.5649 26.3858 2
62.2945 28.7501 2
59.6847 22.2158 2
61.0775 25.3003 2
59.0126 24.2749 2
57.9116 14.308 2
55.3142 14.6199 2
54.0368 9.1251 2
54.7872 11.9934 2
65.908 35.6623 3.98547
65.2162 32.1404 3.98497
64.3217 34.2401 3.98481
62.6342 30.6136 3.98513
61.6866 27.0394 3.98581
60.8943 29.1104 3.98561
59.3127 15.643 3.98853
59.3703 25.7543 3.98622
59.1304 18.3218 3.98709
58.7568 20.8127 3.98598
58.3138 23.0453 3.98583
58.0058 24.6167 3.98679
52.1115 8.14501 3.99111
53.0581 11.0019 3.98881
56.6786 15.7142 3.98744
53.8107 13.6581 3.98728
54.3783 15.9692 3.98673
55.0697 67.9357 0.00523632
65.3502 49.4315 0.0138157
55.8036 64.9198 0.00875293
59.2197 62.3816 0.00887051
56.328 62.1079 0.0111132
63.7204 53.3204 0.0129716
62.4666 50.6839 0.0145101
59.3368 59.5821 0.0113461
59.2984 57.047 0.0131181
61.0934 54.3444 0.01317
59.2575 55.2223 0.013194
53.0415 69.0033 2
53.9656 66.0213 2
57.8828 60.892 2
54.6839 63.2219 2
55.2137 60.6385 2
63.222 48.6899 2
61.7626 52.6095 2
60.307 50.057 2
58.0238 58.2915 2
59.3468 53.9875 2
58.1393 55.8527 2
52.0693 67.0064 3.99139
52.9529 64.2302 3.98909
56.6518 59.5147 3.98746
53.6822 61.6404 3.9875
54.2632 59.347 3.98662
61.0313 47.9149 3.98545
59.7365 52.1448 3.98559
58.0661 49.6617 3.98617
56.7847 57.0231 3.98587
57.1405 54.1669 3.98536
50.1083 67.8631 2
49.3364 65.9303 3.98917
47.4628 66.5899 2
46.8921 64.7476 3.98774
45.558 67.1065 3.98922
43.9733 69.5953 3.99137
46.056 69.1634 2
46.6088 71.3696 3.99482
48.1021 68.5841 0.00855643
48.8019 70.7256 2
49.554 73.0099 4
50.9477 69.9344 0.00517547
51.8506 72.1455 2
54.0858 71.1327 0
53.0633 6.06784 3.9946
55.1021 7.13554 2
56.25 5.02411 4
58.3339 6.3199 2
57.0579 8.33086 0.00540197
60.3285 7.74928 0
66.0884 47.4382 0.0137565
67.2446 43.4831 0.0141599
64.6824 44.8687 0.0143469
65.5877 41.2207 0.0142597
67.8572 39.5173 0.0134301
70.1416 37.5218 0.0126614
67.9534 37.5224 2
65.821 39.3762 2
65.2069 43.0411 2
63.7972 40.9417 2
63.995 46.7416 2
62.847 44.2399 2
65.9235 37.5024 3.98651
63.9433 39.2734 3.98602
63.3694 42.5678 3.98525
62.4807 40.7106 3.98436
62.007 45.9486 3.98614
61.4993 43.7092 3.98541
67.8924 35.5435 0.0139833
67.2857 31.6104 0.0143982
65.728 33.9181 0.0145396
64.6923 30.1732 0.0149914
60.7757 14.2043 0.00917454
60.6171 17.0991 0.0117457
60.2349 19.7798 0.0132773
63.5647 26.386 0.0140044
62.2943 28.7502 0.0144191
61.0773 25.3005 0.0140708
59.6846 22.216 0.0140491
59.0124 24.275 0.0137046
57.9116 14.3084 0.0113323
55.3142 14.6203 0.0126504
54.0368 9.12552 0.00887091
54.7872 11.9938 0.0112547
65.9081 35.6623 2
65.2164 32.1404 2
64.3219 34.2401 2
62.6344 30.6136 2
59.3127 15.6426 2
59.1305 18.3214 2
58.7569 20.8125 2
61.6869 27.0393 2
60.8945 29.1103 2
58.314 23.0451 2
59.3705 25.7542 2
58.006 24.6166 2
56.6786 15.7139 2
54.3784 15.9689 2
53.8107 13.6577 2
52.1114 8.1446 2
53.0581 11.0015 2
64.1313 35.627 3.98494
62.9725 33.0314 3.98476
60.6636 30.5863 3.98528
59.6185 27.8732 3.9859
57.9427 16.9527 3.98733
57.7833 25.6787 3.9868
57.7245 19.4383 3.98631
57.3924 21.795 3.9854
57.2208 23.8969 3.98608
50.1116 7.2777 3.99118
51.2324 10.1118 3.98886
52.1727 12.7775 3.9872
55.54 16.9407 3.98677
52.9791 15.2368 3.98648
53.7606 16.9493 3.98636
53.0416 69.003 0.00519514
53.9657 66.0209 0.00866738
63.2218 48.6898 0.0144473
54.6839 63.2215 0.0110155
57.8828 60.8916 0.0111798
55.2137 60.6382 0.0125747
61.7625 52.6092 0.0140964
60.3068 50.0568 0.0150129
58.0237 58.2912 0.0128475
58.1392 55.8524 0.0142672
59.3467 53.9873 0.0136506
52.0692 67.0068 2
52.9529 64.2306 2
56.6519 59.5151 2
53.6822 61.6408 2
54.2633 59.3473 2
61.0316 47.915 2
59.7367 52.145 2
58.0663 49.6618 2
56.7848 57.0234 2
57.1406 54.1671 2
51.1673 65.138 3.98912
52.0464 62.5536 3.98754
55.4851 58.2794 3.98671
52.8364 60.1569 3.98673
53.6438 58.499 3.98625
58.3576 46.8907 3.98693
57.5913 51.8319 3.98538
56.2923 49.6032 3.98719
55.483 55.8336 3.98515
55.3806 53.4295 3.98401
50.1084 67.8627 0.00858183
49.3364 65.9307 2
48.6178 64.1345 3.98767
47.4628 66.5895 0.0107735
45.558 67.1068 2
46.8921 64.7479 2
46.3816 63.0672 3.98677
45.1323 65.2088 3.98778
43.6313 67.4771 3.98917
41.8607 69.8828 3.9913
43.9732 69.5956 2
44.3764 71.8643 3.99478
46.056 69.163 0.00857814
46.6088 71.3699 2
47.2057 73.7222 4
48.802 70.7253 0.00516179
49.554 73.0099 2
51.8506 72.1454 0
50.9531 5.12855 3.99468
53.0632 6.0675 2
54.0858 3.86728 4
55.1022 7.13591 0.0053847
56.25 5.02406 2
58.3339 6.31992 0
63.9948 46.7414 0.0142079
65.2067 43.041 0.0145982
62.8468 44.2398 0.0144434
63.797 40.9418 0.0142689
65.8208 39.3762 0.0137017
67.9532 37.5224 0.0134198
65.9236 37.5024 2
63.9435 39.2734 2
63.3696 42.5678 2
62.4809 40.7106 2
62.0072 45.9486 2
61.4995 43.7092 2
64.0038 37.4576 3.98671
62.2125 39.3622 3.9853
61.2719 41.9784 3.9847
60.301 44.8031 3.9868
65.908 35.6623 0.0145273
65.2162 32.1404 0.0150319
64.3217 34.2401 0.0151894
62.6342 30.6136 0.0148714
59.3127 15.643 0.0114731
59.1304 18.3218 0.0129108
58.7568 20.8127 0.0140223
61.6866 27.0394 0.01419
60.8943 29.1104 0.014395
59.3703 25.7543 0.0137812
58.3138 23.0453 0.014174
58.0058 24.6167 0.0132051
56.6786 15.7142 0.0125618
54.3783 15.9692 0.0132719
53.8107 13.6581 0.0127234
52.1115 8.14501 0.00888977
53.0581 11.0019 0.0111893
64.1315 35.627 2
62.9726 33.0314 2
60.6639 30.5863 2
57.9428 16.9524 2
57.7246 19.438 2
57.3925 21.7948 2
59.6188 27.8731 2
57.2209 23.8968 2
57.7836 25.6786 2
50.1116 7.27731 2
55.5401 16.9404 2
53.7607 16.949 2
52.9792 15.2365 2
52.1727 12.7772 2
51.2324 10.1114 2
62.2414 35.3517 3.98515
60.3471 32.727 3.9846
58.6809 30.0431 3.98562
57.3465 27.3366 3.98647
56.6406 18.1221 3.98659
56.336 25.0496 3.9868
56.3702 20.4808 3.98559
56.1367 22.82 3.98503
48.0555 6.52149 3.99128
49.3243 9.32071 3.98881
50.4335 11.9774 3.98734
51.3789 14.4752 3.98621
54.4183 17.888 3.9862
52.3632 17.0056 3.98586
52.0693 67.0064 0.00861492
52.9529 64.2302 0.0109145
61.0313 47.9149 0.0145544
53.6822 61.6404 0.0124952
56.6518 59.5147 0.0125376
54.2632 59.347 0.013381
59.7365 52.1448 0.0144059
58.0661 49.6617 0.0138262
56.7847 57.0231 0.0141257
57.1405 54.1669 0.0146417
51.1673 65.1384 2
52.0464 62.554 2
55.4852 58.2798 2
52.8365 60.1573 2
53.6439 58.4994 2
58.3578 46.8908 2
57.5915 51.832 2
56.2925 49.6032 2
55.4832 55.8339 2
55.3808 53.4297 2
50.3461 63.3936 3.98756
51.2451 60.9533 3.98648
54.225 57.2964 3.98594
52.3156 58.6597 3.98612
56.7916 44.2227 3.98707
55.5505 47.9448 3.98711
55.1048 51.4397 3.98475
54.0206 54.5893 3.98454
49.3364 65.9303 0.0108271
48.6178 64.1348 2
47.962 62.4888 3.98669
45.558 67.1065 0.0107793
46.8921 64.7476 0.0122583
43.6313 67.4775 2
46.3816 63.0675 2
45.1323 65.2091 2
45.9872 61.6016 3.98609
44.7668 63.468 3.98685
43.3562 65.5183 3.98778
41.6636 67.6962 3.98907
39.7026 70.0302 3.99124
41.8607 69.8832 2
42.111 72.2091 3.99473
43.9733 69.5953 0.00863071
44.3764 71.8646 2
44.8159 74.2794 4
46.6088 71.3696 0.00518139
47.2057 73.7222 2
49.554 73.0099 0
48.7837 4.31989 3.99474
50.953 5.12823 2
51.8506 2.85458 4
53.0633 6.06784 0.00539677
54.0858 3.86728 2
56.25 5.02411 0
62.007 45.9486 0.0138624
63.3694 42.5678 0.0147508
61.4993 43.7092 0.0145934
62.4807 40.7106 0.0156379
63.9433 39.2734 0.0139823
65.9235 37.5024 0.0134885
64.0039 37.4576 2
62.2127 39.3622 2
61.2721 41.9784 2
60.3012 44.8032 2
62.0532 37.4445 3.98707
60.3164 39.8586 3.98447
59.0608 42.9487 3.98628
64.1313 35.627 0.015057
62.9725 33.0314 0.0152396
60.6636 30.5863 0.0147226
57.9427 16.9527 0.0126734
57.7245 19.4383 0.0136915
57.3924 21.795 0.0146039
59.6185 27.8732 0.0141012
57.7833 25.6787 0.0132001
57.2208 23.8969 0.0139235
55.54 16.9407 0.0132334
53.7606 16.9493 0.0136422
52.9791 15.2368 0.0135246
50.1116 7.2777 0.00881992
52.1727 12.7775 0.0128023
51.2324 10.1118 0.0111362
62.2416 35.3518 2
60.3473 32.727 2
58.6812 30.043 2
56.6407 18.1218 2
56.3704 20.4806 2
56.1369 22.8199 2
57.3468 27.3365 2
56.3362 25.0494 2
48.0554 6.52111 2
49.3243 9.32033 2
54.4184 17.8877 2
52.3633 17.0053 2
51.3789 14.4749 2
50.4335 11.977 2
59.9615 35.1102 3.98537
58.0651 32.2448 3.98479
56.6145 29.299 3.98626
55.5053 26.5464 3.98731
55.3483 19.1544 3.98597
54.9674 24.0029 3.9854
55.0195 21.5189 3.98497
45.9615 5.87723 3.99135
43.3735 7.46608 3.98908
47.3548 8.61531 3.98895
48.6001 11.2803 3.9871
49.7146 13.7241 3.98639
50.6347 16.1066 3.98555
53.1288 18.6266 3.98572
51.3057 18.018 3.98548
51.1673 65.138 0.0108805
52.0464 62.5536 0.0124602
58.3576 46.8907 0.0130717
52.8364 60.1569 0.0132725
55.4851 58.2794 0.0132948
53.6438 58.499 0.0137548
57.5913 51.8319 0.014623
56.2923 49.6032 0.0128057
55.483 55.8336 0.0148502
55.3806 53.4295 0.0159927
50.3461 63.3939 2
51.2452 60.9537 2
54.2251 57.2967 2
52.3156 58.66 2
56.7919 44.2227 2
55.5508 47.9448 2
55.105 51.4397 2
54.0208 54.5895 2
49.5921 61.7597 3.98653
55.7396 41.7363 3.98491
50.5688 59.3496 3.98558
52.1915 56.5215 3.98517
54.2683 45.6112 3.98797
53.3969 49.384 3.98566
52.6941 52.9033 3.9838
48.6178 64.1345 0.0123308
47.962 62.4891 2
47.3294 61.0253 3.98605
43.6313 67.4771 0.0108279
45.1323 65.2088 0.0122167
46.3816 63.0672 0.013234
41.6635 67.6966 2
43.3562 65.5186 2
45.9872 61.602 2
44.7668 63.4684 2
45.7662 60.647 3.98576
44.483 61.8509 3.98607
43.146 63.7404 3.98686
41.5457 65.6562 3.98773
39.6328 67.7764 3.98895
37.5263 70.0555 3.9912
39.7026 70.0305 2
39.8179 72.4063 3.9947
41.8607 69.8828 0.00870164
42.1109 72.2094 2
42.3947 74.6792 4
44.3764 71.8643 0.00522393
44.8159 74.2794 2
47.2057 73.7222 0
43.851 5.35469 3.99137
46.5698 3.64476 3.99475
48.7836 4.31959 2
49.554 1.99015 4
50.9531 5.12855 0.00531911
51.8506 2.85453 2
54.0858 3.86728 0
60.301 44.8031 0.0131978
61.2719 41.9784 0.0152993
62.2125 39.3622 0.0146996
64.0038 37.4576 0.0132899
62.0533 37.4445 2
60.3166 39.8585 2
59.061 42.9488 2
59.8409 37.5671 3.98726
58.0871 40.6796 3.98507
55.2311 39.7398 3.99036
62.2414 35.3517 0.0148462
60.3471 32.727 0.0154
58.6809 30.0431 0.0143764
56.6406 18.1221 0.0134102
56.3702 20.4808 0.0144059
56.1367 22.82 0.0149673
57.3465 27.3366 0.0135323
56.336 25.0496 0.0131988
54.4183 17.888 0.0138017
52.3632 17.0056 0.0141357
51.3789 14.4752 0.0137941
48.0555 6.52149 0.0087221
49.3243 9.32071 0.0111861
50.4335 11.9774 0.012665
59.9616 35.1102 2
45.9615 5.87686 2
43.3735 7.46572 2
58.0652 32.2448 2
56.6149 29.299 2
55.3484 19.1541 2
55.0197 21.5187 2
54.9676 24.0029 2
55.5056 26.5462 2
47.3548 8.61491 2
48.6001 11.28 2
53.1289 18.6264 2
51.3058 18.0177 2
50.6348 16.1063 2
49.7147 13.7237 2
57.4851 34.7477 3.98367
55.8133 31.4845 3.98561
54.5902 28.3531 3.98794
53.8238 25.439 3.98651
53.9767 20.1 3.9855
53.6062 22.6603 3.98443
41.3986 7.07147 3.98932
45.3595 7.98741 3.98916
42.8653 9.40607 3.98751
46.6664 10.6419 3.9873
47.7455 13.0863 3.98619
48.932 15.3795 3.98537
50.0078 17.6722 3.98514
51.6576 19.295 3.98559
50.3461 63.3936 0.0124386
51.2451 60.9533 0.0135196
56.7916 44.2227 0.0129326
55.5505 47.9448 0.0128899
52.3156 58.6597 0.0138813
54.225 57.2964 0.0140567
55.1048 51.4397 0.0152519
54.0206 54.5893 0.0154581
49.5921 61.76 2
55.7399 41.7363 2
50.5688 59.35 2
52.1917 56.5218 2
54.2686 45.6111 2
53.3972 49.3839 2
52.6944 52.9035 2
48.8497 60.2194 3.98587
52.6571 42.6827 3.98961
49.7925 57.6527 3.98515
50.6097 54.4611 3.98421
51.9051 47.3269 3.98672
51.259 51.0039 3.98291
48.3688 43.784 3.98048
47.962 62.4888 0.0133136
47.3294 61.0256 2
46.619 59.8133 3.98568
41.6636 67.6962 0.0109277
43.3562 65.5183 0.0122185
44.7668 63.468 0.0131535
45.9872 61.6016 0.0139101
39.6328 67.7767 2
41.5457 65.6566 2
45.7662 60.6473 2
43.146 63.7407 2
44.483 61.8512 2
44.6235 60.3096 3.98555
42.9501 62.0994 3.98608
41.5993 63.8339 3.98676
39.6474 65.6249 3.98754
37.5635 67.7591 3.98888
31.6981 65.1438 3.9875
33.3926 67.4967 3.9889
35.3337 69.9657 3.99116
37.5263 70.0559 2
37.5097 72.4609 3.99468
39.7026 70.0302 0.00875546
39.8179 72.4065 2
39.9526 74.9197 4
42.111 72.2091 0.00527073
42.3947 74.6792 2
44.8159 74.2794 0
41.7358 4.96407 3.99152
43.851 5.35434 2
44.3253 3.10822 3.99481
46.5697 3.64447 2
47.2057 1.27793 4
48.7837 4.31989 0.00526363
49.554 1.99013 2
51.8506 2.85458 0
59.0608 42.9487 0.0137202
60.3164 39.8586 0.0155303
62.0532 37.4445 0.0129336
59.841 37.5671 2
58.0874 40.6796 2
55.2313 39.7399 2
56.9356 37.9037 3.98569
49.8349 41.3323 3.99031
53.2854 39.3275 3.99319
39.442 6.79512 3.98933
59.9615 35.1102 0.0146296
58.0651 32.2448 0.0152118
56.6145 29.299 0.0137363
55.3483 19.1544 0.0140313
55.0195 21.5189 0.015025
54.9674 24.0029 0.0146006
55.5053 26.5464 0.0126871
53.1288 18.6266 0.014278
51.3057 18.018 0.0145203
50.6347 16.1066 0.0144481
45.9615 5.87723 0.00864543
49.7146 13.7241 0.0136055
47.3548 8.61531 0.0110542
48.6001 11.2803 0.0128951
43.3735 7.46608 0.0109219
57.4853 34.7478 2
41.3986 7.07111 2
45.3595 7.98703 2
42.8653 9.40571 2
55.8135 31.4845 2
54.5906 28.3529 2
53.9769 20.0998 2
53.6065 22.6601 2
53.824 25.439 2
46.6664 10.6415 2
47.7456 13.0859 2
51.6578 19.2947 2
50.0079 17.6719 2
48.9321 15.3791 2
54.9976 33.9486 3.98255
53.5969 30.4402 3.98764
52.6655 27.138 3.9878
52.1824 24.0284 3.985
52.4041 21.0343 3.98513
41.0132 9.03923 3.98767
44.7236 9.98529 3.98755
42.468 10.891 3.98705
46.0051 12.7148 3.98581
47.6817 14.5659 3.98571
48.114 16.9647 3.98438
49.8203 19.5635 3.98497
49.5921 61.7597 0.0134709
50.5688 59.3496 0.0144159
55.7396 41.7363 0.0150855
54.2683 45.6112 0.0120284
53.3969 49.384 0.0143385
52.1915 56.5215 0.0148269
52.6941 52.9033 0.0161951
48.8497 60.2197 2
52.6575 42.6825 2
49.7926 57.653 2
50.61 54.4615 2
51.9055 47.3267 2
51.2593 51.004 2
48.3693 43.783 2
47.988 58.7635 3.98542
50.2411 45.3258 3.98582
48.6053 55.9457 3.98499
49.1566 52.6424 3.98305
49.7414 49.1117 3.98205
46.1874 39.8979 3.95414
46.6297 42.7472 3.99411
46.6562 45.7903 3.97694
44.048 41.2465 4.01033
42.0783 41.9873 4.0061
47.3294 61.0253 0.0139504
46.619 59.8136 2
45.4688 58.8105 3.98549
39.6328 67.7764 0.0110461
41.5457 65.6562 0.012273
43.146 63.7404 0.0131438
44.483 61.8509 0.0139296
45.7662 60.647 0.0142355
41.5993 63.8342 2
37.5635 67.7595 2
39.6474 65.6252 2
44.6235 60.3099 2
42.9501 62.0997 2
41.753 62.5099 3.98612
42.481 60.0015 3.98546
39.8929 63.5692 3.9865
37.6423 65.5243 3.98738
35.4638 67.6686 3.98886
33.5761 65.3574 3.98746
31.9605 63.3178 3.98647
29.8842 64.7347 3.98746
31.6981 65.1441 2
31.3774 67.2063 3.98893
33.3926 67.497 2
33.1567 69.759 3.99115
35.3337 69.966 2
35.1952 72.3753 3.99465
37.5263 70.0555 0.00879733
37.5097 72.4611 2
37.5 75 4
39.8179 72.4063 0.00529912
39.9526 74.9197 2
42.3947 74.6792 0
39.6235 4.71135 3.99159
41.7358 4.96372 2
42.0618 2.71597 3.99489
43.851 5.35469 0.00862867
44.3252 3.10795 2
44.8158 0.721173 4
46.5698 3.64476 0.00524825
47.2057 1.27779 2
49.554 1.99015 0
58.0871 40.6796 0.0149293
59.8409 37.5671 0.0127369
55.2311 39.7398 0.00963983
49.8352 41.3316 2
56.9357 37.9037 2
53.2856 39.3276 2
54.1343 36.626 3.98391
47.7615 40.4521 3.9973
50.7875 38.4995 3.98967
37.5158 6.66603 3.98967
39.442 6.79477 2
39.2107 8.68202 3.98787
35.941 8.48155 3.98831
57.4851 34.7477 0.016325
55.8133 31.4845 0.0143859
54.5902 28.3531 0.0120602
53.9767 20.1 0.014503
53.6062 22.6603 0.0155685
53.8238 25.439 0.013493
51.6576 19.295 0.0144142
50.0078 17.6722 0.0148558
48.932 15.3795 0.0146329
45.3595 7.98741 0.0108405
47.7455 13.0863 0.0138123
46.6664 10.6419 0.0126954
41.3986 7.07147 0.0106764
42.8653 9.40607 0.012486
54.9978 33.9488 2
41.0132 9.03885 2
44.7236 9.98492 2
42.468 10.8907 2
53.5973 30.4398 2
52.6658 27.1381 2
52.4043 21.0341 2
52.1827 24.0283 2
46.0051 12.7144 2
47.6818 14.5656 2
49.8204 19.5632 2
48.1141 16.9644 2
52.5508 32.8357 3.98563
51.4504 29.0953 3.99108
50.8532 25.6591 3.98452
49.9537 22.132 3.98521
40.5689 11.5938 3.98627
43.8578 11.905 3.98596
45.8022 15.4015 3.98478
47.5053 19.1939 3.984
46.5216 37.5077 3.95823
48.8497 60.2194 0.0141337
49.7925 57.6527 0.0148543
52.6571 42.6827 0.0103947
51.9051 47.3269 0.0132841
51.259 51.0039 0.0170885
50.6097 54.4611 0.0157944
48.3688 43.784 0.0195238
47.988 58.7638 2
50.2415 45.3255 2
48.6055 55.9461 2
49.1569 52.6428 2
49.7418 49.1117 2
46.1867 39.8965 2
46.6303 42.7471 2
46.657 45.7898 2
44.0458 41.241 2
42.0766 41.9858 2
46.8408 57.3677 3.98554
44.8013 39.4998 4.01567
42.4373 40.8581 4.0049
48.1975 47.318 3.98219
47.1807 54.2822 3.98481
47.6318 50.8278 3.97987
44.9197 47.4216 3.97414
45.2748 42.0134 3.94141
45.1431 44.6461 3.99687
42.8622 42.7474 4.00477
40.925 42.341 4.00437
46.619 59.8133 0.0143169
45.4688 58.8108 2
43.8774 57.7352 3.98541
37.5635 67.7591 0.0111237
39.6474 65.6249 0.0124632
41.5993 63.8339 0.0132374
42.9501 62.0994 0.0139195
44.6235 60.3096 0.0144493
35.4638 67.6689 2
41.753 62.5102 2
39.8929 63.5695 2
37.6423 65.5246 2
42.481 60.0018 2
40.6227 61.6688 3.98571
40.4453 58.2342 3.98537
37.8366 63.2308 3.98623
35.5734 65.4466 3.98742
33.5761 65.3577 2
31.9605 63.3181 2
33.6298 63.3577 3.98638
30.3795 62.8765 3.98645
32.1239 62.0251 3.98608
26.8687 61.5209 3.98603
28.063 64.1629 3.98734
29.8842 64.7351 2
29.407 66.7699 3.98893
31.6981 65.1438 0.0125014
31.3774 67.2066 2
31.0141 69.424 3.99114
33.3926 67.4967 0.0111022
33.1567 69.7593 2
32.8924 72.1496 3.99463
35.3337 69.9657 0.00883614
35.1952 72.3756 2
35.0474 74.9194 4
37.5097 72.4609 0.00531929
37.5 75 2
39.9526 74.9197 0
35.6203 6.71705 3.98951
37.5229 4.61089 3.99174
39.6235 4.71102 2
39.7884 2.47249 3.99497
41.7358 4.96407 0.00847502
42.0617 2.71571 2
42.3946 0.32156 4
44.3253 3.10822 0.00518971
44.8159 0.72056 2
47.2057 1.27793 0
49.8349 41.3323 0.00968573
56.9356 37.9037 0.0143122
53.2854 39.3275 0.0068097
47.7619 40.4517 2
50.7876 38.4992 2
54.1343 36.6263 2
51.5631 35.5651 3.97852
48.4288 37.7588 3.99768
46.1831 35.1179 3.9593
44.0437 33.7613 4.01232
42.0784 33.0108 4.00285
37.4573 8.52316 3.98825
37.5158 6.66567 2
39.442 6.79512 0.0106678
39.2107 8.68165 2
38.9758 10.1132 3.98746
35.8975 9.7598 3.98759
34.1493 8.8106 3.98812
35.941 8.48118 2
54.9976 33.9486 0.0174459
53.5969 30.4402 0.0123593
52.6655 27.138 0.0121962
52.4041 21.0343 0.0148726
52.1824 24.0284 0.0149974
49.8203 19.5635 0.0150274
48.114 16.9647 0.0156192
47.6817 14.5659 0.0142938
44.7236 9.98529 0.0124472
46.0051 12.7148 0.0141922
41.0132 9.03923 0.0123271
42.468 10.891 0.0129463
52.5512 32.8353 2
40.5689 11.5934 2
43.8578 11.9046 2
51.4507 29.0955 2
50.8535 25.6592 2
49.954 22.1318 2
45.8023 15.4011 2
47.5054 19.1936 2
50.1694 31.3679 3.98957
49.3846 27.4049 3.98733
49.4467 24.3385 3.98349
47.1936 21.8698 3.98398
38.3011 12.7173 3.98498
42.1002 14.2873 3.98485
44.8003 18.4347 3.98357
45.0846 37.5065 4.01483
46.5206 37.5082 2
47.988 58.7635 0.0145767
48.6053 55.9457 0.0150103
50.2411 45.3258 0.0141771
49.7414 49.1117 0.017953
49.1566 52.6424 0.0169458
46.1874 39.8979 0.0458638
46.6297 42.7472 0.00589179
46.6562 45.7903 0.0230602
44.048 41.2465 -0.0103327
42.0783 41.9873 -0.00609914
46.8408 57.3679 2
44.7994 39.4955 2
42.4351 40.8568 2
48.198 47.3179 2
47.1809 54.2828 2
47.6323 50.8283 2
44.9206 47.4221 2
45.2744 42.0111 2
45.145 44.6468 2
42.8613 42.7424 2
40.9234 42.342 2
45.4019 55.9545 3.98553
42.7736 39.2577 3.99276
40.8764 40.8057 3.96585
46.1663 49.0205 3.98204
45.5694 52.5742 3.98459
43.5467 48.5152 3.97154
43.5134 46.2128 4.00173
43.8434 43.8217 3.93329
41.3275 43.9112 3.99778
39.3004 42.6646 3.97503
45.4688 58.8105 0.0145059
43.8774 57.7354 2
42.1088 56.3615 3.98526
35.4638 67.6686 0.01114
37.6423 65.5243 0.0126199
39.8929 63.5692 0.0135014
41.753 62.5099 0.0138839
42.481 60.0015 0.0145368
35.5734 65.4469 2
40.6227 61.6691 2
37.8366 63.2311 2
40.4453 58.2345 2
38.9266 56.5299 3.98545
38.2503 60.3527 3.98537
35.6073 63.2245 3.98627
33.5761 65.3574 0.0125363
31.9605 63.3178 0.0135347
33.6298 63.358 2
30.3795 62.8768 2
32.1239 62.0254 2
28.6818 62.2221 3.98633
33.3464 61.538 3.98559
31.0669 61.2425 3.98561
27.5672 59.6207 3.98568
23.7883 59.1134 3.98663
25.0333 60.8956 3.98647
26.8686 61.5213 2
26.2294 63.4956 3.98721
28.063 64.1632 2
27.4637 66.1939 3.9889
29.8842 64.7347 0.0125422
29.4071 66.7703 2
28.9066 68.9496 3.99115
31.3774 67.2063 0.0110708
31.0141 69.4243 2
30.6149 71.7807 3.99462
33.1567 69.759 0.00884657
32.8924 72.1498 2
32.6054 74.6784 4
35.1952 72.3753 0.00534998
35.0474 74.9197 2
37.5 75 0
33.7228 6.9713 3.98941
35.4344 4.68118 3.99167
35.6203 6.7167 2
37.5141 2.38516 3.995
37.5229 4.61056 2
39.6235 4.71135 0.00840871
39.7884 2.47224 2
39.9526 0.0806499 4
42.0618 2.71597 0.00510977
42.3947 0.320817 2
44.8158 0.721173 0
44.8052 35.5106 4.01555
42.4346 34.1396 4.00832
47.7615 40.4521 0.00269944
50.7875 38.4995 0.0103314
54.1343 36.626 0.0160934
48.4291 37.7585 2
51.5631 35.5648 2
46.1823 35.1195 2
44.0413 33.7665 2
42.0768 33.0117 2
48.587 34.2491 3.99034
45.2727 33.001 3.94179
42.8653 32.2528 4.00644
40.925 32.6541 4.00376
37.3096 10.6152 3.98672
37.4573 8.52278 2
37.5158 6.66603 0.0103253
39.2107 8.68202 0.0121306
38.9758 10.1128 2
34.7526 10.365 3.98685
35.8975 9.75942 2
32.3759 9.35667 3.98777
34.1493 8.81024 2
35.941 8.48155 0.0116935
52.5508 32.8357 0.0143665
51.4504 29.0953 0.0089165
50.8532 25.6591 0.0154833
49.9537 22.132 0.0147928
47.5053 19.1939 0.0159983
45.8022 15.4015 0.0152237
43.8578 11.905 0.0140361
40.5689 11.5938 0.0137298
50.1698 31.3687 2
38.3011 12.7169 2
42.1003 14.287 2
49.3851 27.4051 2
49.4471 24.3383 2
47.1939 21.8696 2
44.8004 18.4343 2
47.9497 29.503 3.98737
47.1503 25.0452 3.98377
44.2924 21.2834 3.98196
36.5806 12.9136 3.98514
38.6796 14.7864 3.98434
41.7489 17.8132 3.98386
42.9081 37.4916 3.98776
45.0838 37.5064 2
46.5216 37.5077 0.0417711
46.8408 57.3677 0.0144634
47.1807 54.2822 0.015191
48.1975 47.318 0.0178106
47.6318 50.8278 0.0201284
44.8013 39.4998 -0.0156667
45.2748 42.0134 0.0585948
45.1431 44.6461 0.00312984
44.9197 47.4216 0.0258617
42.8622 42.7474 -0.00476877
42.4373 40.8581 -0.00490426
40.925 42.341 -0.00437446
45.4019 55.9548 2
42.7716 39.2568 2
40.8743 40.8066 2
46.167 49.021 2
45.5698 52.5749 2
43.5473 48.5169 2
43.5144 46.2141 2
43.844 43.8189 2
41.3273 43.9089 2
39.2994 42.6692 2
43.7442 54.4643 3.98603
40.9595 39.1749 3.9534
39.2239 40.8753 3.95449
43.7525 50.5557 3.98725
42.0667 47.7527 3.99831
42.0063 45.221 3.93232
39.5357 44.6762 3.98098
37.5042 42.7855 3.96006
43.8774 57.7352 0.0145874
42.1088 56.3618 2
40.4228 54.9705 3.98514
35.5734 65.4466 0.012582
37.8366 63.2308 0.013774
40.6227 61.6688 0.0142873
40.4453 58.2342 0.0146295
35.6073 63.2248 2
38.2503 60.353 2
38.9266 56.5301 2
38.0015 55.2854 3.98553
36.9348 57.6565 3.98494
35.3638 60.9372 3.98537
33.6298 63.3577 0.0136238
30.3795 62.8765 0.0135453
32.1239 62.0251 0.0139226
33.3464 61.5383 2
28.6818 62.2224 2
31.0669 61.2428 2
29.4027 60.3129 3.98543
32.3563 59.7706 3.98551
28.019 58.4012 3.98601
27.5672 59.621 2
25.3757 58.6245 3.98585
22.75 58.2749 3.98584
23.3981 60.3774 3.98676
23.7882 59.1137 2
25.0333 60.8959 2
24.4315 62.7891 3.98738
26.8687 61.5209 0.0139665
26.2294 63.4959 2
25.5478 65.5044 3.98887
28.063 64.1629 0.0126552
27.4637 66.1943 2
26.8365 68.3382 3.99117
29.407 66.7699 0.0110693
28.9067 68.9499 2
28.3701 71.266 3.99462
31.0141 69.424 0.00885511
30.6149 71.781 2
30.1842 74.2788 4
32.8924 72.1496 0.00536834
32.6053 74.6792 2
35.0474 74.9194 0
31.7872 7.41052 3.98925
33.3465 4.92005 3.99162
33.7228 6.97094 2
35.2444 2.46127 3.99498
35.4344 4.68086 2
35.6203 6.71705 0.0104941
37.5 0 4
37.5141 2.38492 2
37.5229 4.61089 0.00826328
39.7884 2.47249 0.00503192
39.9526 0.0802889 2
42.3946 0.32156 0
42.7765 35.7301 3.99234
44.8035 35.5147 2
40.8735 34.1882 3.96646
42.4324 34.1404 2
48.4288 37.7588 0.00231933
51.5631 35.5651 0.0214826
46.1831 35.1179 0.0406995
44.0437 33.7613 -0.0123151
42.0784 33.0108 -0.00284521
48.5869 34.2495 2
45.2721 33.0033 2
42.8644 32.2571 2
40.9236 32.6524 2
46.565 31.5238 3.99199
43.8511 31.1839 3.9349
41.3352 31.0863 3.99998
39.2971 32.3388 3.97798
35.6911 11.759 3.98573
37.3096 10.6148 2
37.4573 8.52316 0.0117483
38.9758 10.1132 0.0125353
33.0965 11.2006 3.98642
34.7526 10.3646 2
35.8975 9.7598 0.0124073
30.4807 10.004 3.98752
32.3759 9.35629 2
34.1493 8.8106 0.0118775
50.1694 31.3679 0.0104327
49.3846 27.4049 0.0126705
49.4467 24.3385 0.0165081
47.1936 21.8698 0.0160151
44.8003 18.4347 0.0164281
42.1002 14.2873 0.0151457
38.3011 12.7173 0.0150199
36.5806 12.9133 2
47.9503 29.5036 2
38.6796 14.786 2
41.749 17.8128 2
47.1508 25.045 2
44.2926 21.283 2
45.6782 27.6898 3.98261
43.8265 23.983 3.98194
41.3431 20.6885 3.98278
35.7699 14.7372 3.98474
38.68 17.5709 3.9839
41.0074 37.48 3.94813
42.9067 37.4914 2
45.0846 37.5065 -0.0148308
45.4019 55.9545 0.0144744
45.5694 52.5742 0.0154096
46.1663 49.0205 0.017959
42.7736 39.2577 0.00724374
43.8434 43.8217 0.0667146
43.5134 46.2128 -0.00172587
43.5467 48.5152 0.0284613
41.3275 43.9112 0.00222215
40.8764 40.8057 0.0341472
39.3004 42.6646 0.0249683
43.7442 54.4646 2
40.9575 39.1752 2
39.2227 40.8782 2
43.753 50.5568 2
42.0673 47.7539 2
42.0056 45.2186 2
37.5044 42.7905 2
39.536 44.6805 2
41.8915 53.0367 3.9836
39.2209 39.165 3.94805
37.5044 40.9121 3.95522
35.7082 42.6611 3.98168
40.9947 49.7778 3.99172
39.8783 46.1047 3.96058
37.4967 44.9602 3.96208
42.1088 56.3615 0.0147437
40.4228 54.9707 2
38.7332 53.9038 3.98582
35.6073 63.2245 0.0137346
38.2503 60.3527 0.0146336
38.9266 56.5299 0.014552
35.3638 60.9375 2
36.9348 57.6567 2
38.0016 55.2855 2
36.3206 55.416 3.98516
34.4874 58.5488 3.98484
33.3464 61.538 0.0144132
28.6818 62.2221 0.0136722
31.0669 61.2425 0.0143935
32.3563 59.7709 2
29.4027 60.3132 2
30.2951 57.8446 3.98514
28.019 58.4015 2
26.9361 56.8559 3.9851
27.5672 59.6207 0.0143184
25.3757 58.6249 2
23.8276 56.8442 3.98518
21.3241 57.4375 3.98597
21.9894 59.6522 3.98695
22.7499 58.2753 2
22.7347 62.0421 3.98745
23.3981 60.3778 2
23.7883 59.1134 0.0133673
25.0333 60.8956 0.0135344
24.4315 62.7895 2
23.6816 64.7234 3.98889
26.2294 63.4956 0.012789
25.5478 65.5047 2
24.8091 67.5998 3.99119
27.4637 66.1939 0.0111015
26.8366 68.3386 2
26.1655 70.6069 3.99465
28.9066 68.9496 0.00885498
28.3702 71.2662 2
27.7943 73.7221 4
30.6149 71.7807 0.00538105
30.1841 74.2794 2
32.6054 74.6784 0
29.8097 7.98315 3.98906
31.2518 5.32673 3.9915
31.7872 7.41014 2
32.9803 2.69926 3.99496
33.3465 4.91971 2
33.7228 6.9713 0.0105852
35.0474 0.080333 4
35.2445 2.46103 2
35.4344 4.68118 0.00832699
37.5 0 2
37.5141 2.38516 0.00499737
39.9526 0.0806499 0
40.9632 35.7964 3.95138
42.7747 35.7304 2
44.8052 35.5106 -0.0155473
28.5417 10.6787 3.98727
39.2192 34.1271 3.95792
40.8712 34.1866 2
42.4346 34.1396 -0.00831847
48.587 34.2491 0.00965608
45.2727 33.001 0.0582146
42.8653 32.2528 -0.00643593
40.925 32.6541 -0.00376166
46.5656 31.5237 2
43.8503 31.1864 2
41.3353 31.0879 2
39.2962 32.3347 2
44.6184 29.6651 3.99487
42.014 29.7797 3.93448
39.5434 30.3266 3.97387
37.4996 32.2102 3.95893
34.0907 12.9154 3.98533
35.6911 11.7586 2
37.3096 10.6152 0.0132805
31.1846 11.968 3.98625
33.0964 11.2002 2
34.7526 10.365 0.0131544
30.4806 10.0036 2
32.3759 9.35667 0.0122304
47.9497 29.503 0.0126347
47.1503 25.0452 0.0162313
36.5806 12.9136 0.0148581
44.2924 21.2834 0.0180415
41.7489 17.8132 0.016135
38.6796 14.7864 0.0156615
35.7699 14.7368 2
45.679 27.6898 2
38.68 17.5705 2
41.3432 20.6881 2
43.827 23.9826 2
33.6057 15.8533 3.98434
43.1401 26.3821 3.98025
40.9276 23.2615 3.98339
38.4224 20.2983 3.98352
35.8464 17.4846 3.984
39.2311 37.4815 3.94536
41.0059 37.4797 2
42.9081 37.4916 0.0122416
43.7442 54.4643 0.013966
43.7525 50.5557 0.0127478
40.9595 39.1749 0.0465983
42.0063 45.221 0.067677
42.0667 47.7527 0.00168897
39.5357 44.6762 0.0190233
39.2239 40.8753 0.0455119
37.5042 42.7855 0.039938
41.8915 53.037 2
39.2198 39.1663 2
37.5046 40.915 2
40.9955 49.7775 2
35.7094 42.665 2
39.8784 46.1084 2
37.4969 44.9662 2
39.8311 51.9532 3.98392
37.5009 39.1739 3.95139
35.7876 40.8817 3.95841
34.0804 42.3437 4.00637
35.4576 44.6611 3.97956
38.7472 48.9138 4.00986
37.4959 46.3907 3.96559
40.4228 54.9705 0.0148558
38.7333 53.9037 2
36.7194 53.246 3.98782
35.3638 60.9372 0.0146349
36.9348 57.6565 0.0150553
38.0015 55.2854 0.0144722
34.4875 58.5491 2
36.3207 55.4163 2
33.2235 55.5321 3.98419
32.3563 59.7706 0.0144936
29.4027 60.3129 0.014566
30.2951 57.8449 2
28.673 55.3417 3.98416
28.019 58.4012 0.0139876
26.9359 56.8563 2
25.2899 55.1864 3.98455
21.7889 55.3911 3.98488
25.3757 58.6245 0.01415
23.8274 56.8446 2
20.2068 57.0695 3.9863
20.6389 58.8133 3.98684
21.324 57.4378 2
21.1639 61.1945 3.98772
21.9894 59.6526 2
22.75 58.2749 0.0141645
21.8947 63.8527 3.98896
22.7346 62.0425 2
23.3981 60.3774 0.0132434
24.4315 62.7891 0.0126234
23.6816 64.7238 2
22.8375 66.7441 3.99119
25.5478 65.5044 0.0111342
24.8091 67.6002 2
24.0099 69.8083 3.99468
26.8365 68.3382 0.00883082
26.1656 70.6072 2
25.446 73.0099 4
28.3701 71.266 0.00537856
27.7943 73.7222 2
30.1842 74.2788 0
27.8197 8.64211 3.98889
29.1539 5.87198 3.99132
29.8097 7.98279 2
30.7257 3.09621 3.99489
31.2518 5.32638 2
31.7872 7.41052 0.0107461
32.6053 0.320823 4
32.9804 2.69901 2
33.3465 4.92005 0.00837582
35.0474 0.0802903 2
35.2444 2.46127 0.00501826
37.5 0 0
39.2246 35.8109 3.94864
40.9613 35.7955 2
42.7765 35.7301 0.0076605
28.5417 10.6784 2
26.6208 11.3729 3.98739
29.2236 12.6244 3.98627
37.4974 34.0884 3.9538
39.2177 34.1243 2
40.8735 34.1882 0.0335423
46.565 31.5238 0.00801494
43.8511 31.1839 0.0651015
41.3352 31.0863 1.9945e-05
39.2971 32.3388 0.0220237
44.6194 29.6646 2
42.0131 29.7809 2
39.5437 30.323 2
37.4998 32.2055 2
42.464 28.3193 3.99818
39.8873 28.8898 3.95279
37.5026 30.0297 3.95981
35.7039 32.334 3.97695
31.9124 14.4598 3.98521
34.0907 12.9151 2
35.6911 11.759 0.0142712
31.1845 11.9677 2
33.0965 11.2006 0.0135832
30.4807 10.004 0.0124795
45.6782 27.6898 0.0173861
43.8265 23.983 0.0180595
35.7699 14.7372 0.0152644
41.3431 20.6885 0.0172171
38.68 17.5709 0.0160963
33.6057 15.8529 2
35.8464 17.4842 2
43.1409 26.3816 2
38.4225 20.2978 2
40.928 23.2608 2
33.5478 17.362 3.98379
40.4946 25.5617 3.97994
38.0833 22.8297 3.98604
35.583 20.0516 3.98277
37.5012 37.4905 3.95094
39.2304 37.4814 2
41.0074 37.48 0.0518731
41.8915 53.0367 0.0164031
40.9947 49.7778 0.00828214
39.2209 39.165 0.051954
39.8783 46.1047 0.03942
37.4967 44.9602 0.037918
37.5044 40.9121 0.0447774
35.7082 42.6611 0.0183195
39.8314 51.9529 2
37.5008 39.1751 2
35.7891 40.8843 2
38.7478 48.9154 2
34.0821 42.3447 2
35.4576 44.6642 2
37.4956 46.3945 2
37.662 51.1029 3.98462
35.785 39.1801 3.94939
34.1407 40.8161 3.96752
32.9254 41.9877 4.00425
33.6654 43.9058 4.0011
35.1172 46.0933 3.95403
36.8634 48.5065 4.01623
38.7332 53.9038 0.0141838
36.7195 53.2464 2
34.3475 52.5189 3.98544
34.4874 58.5488 0.0151603
36.3206 55.416 0.014843
33.2235 55.5324 2
30.4961 53.4523 3.98338
30.2951 57.8446 0.0148632
28.6729 55.3422 2
26.8502 53.4942 3.98348
26.9361 56.8559 0.0148972
25.2897 55.1868 2
23.5386 53.5342 3.98385
20.4326 53.2789 3.98426
19.9153 55.8754 3.98588
21.7888 55.3913 2
23.8276 56.8442 0.0148212
19.4293 57.9288 3.98665
20.2067 57.0698 2
19.7024 60.2311 3.9876
20.6388 58.8137 2
21.3241 57.4375 0.0140253
20.2064 62.876 3.9891
21.1639 61.1948 2
21.9894 59.6522 0.0130548
20.9389 65.7742 3.99123
21.8947 63.8531 2
22.7347 62.0421 0.0125507
23.6816 64.7234 0.0111117
22.8376 66.7445 2
21.9126 68.8757 3.99468
24.8091 67.5998 0.0088095
24.01 69.8086 2
23.1494 72.1454 4
26.1655 70.6069 0.00535004
25.446 73.0099 2
27.7943 73.7221 0
25.8591 9.36941 3.98893
27.0688 6.53542 3.99121
27.8197 8.64173 2
28.488 3.64189 3.99478
29.1539 5.87162 2
29.8097 7.98315 0.0109446
30.1841 0.720592 4
30.7257 3.09594 2
31.2518 5.32673 0.00850319
32.6053 0.320817 2
32.9803 2.69926 0.00504438
35.0474 0.080333 0
37.5011 35.8129 3.95001
39.2235 35.8095 2
40.9632 35.7964 0.0486172
24.7758 12.0549 3.98749
23.7496 14.3365 3.98691
28.5417 10.6787 0.0127297
26.6208 11.3726 2
29.2236 12.624 2
27.2898 13.3561 3.98623
29.7784 14.182 3.98593
35.7798 34.119 3.95667
37.4972 34.0857 2
39.2192 34.1271 0.0420751
37.4996 32.2102 0.0410746
44.6184 29.6651 0.0051329
42.014 29.7797 0.0655154
39.5434 30.3266 0.0261265
42.4651 28.3184 2
39.8872 28.8875 2
37.5028 30.0243 2
35.7051 32.3298 2
40.1072 27.4665 4.00834
37.5019 28.5948 3.9568
35.4608 30.3236 3.97418
34.0796 32.6519 4.00336
30.9239 16.8148 3.98513
31.9124 14.4594 2
34.0907 12.9154 0.0146732
31.1846 11.968 0.0137489
43.1401 26.3821 0.0197534
40.9276 23.2615 0.0166131
33.6057 15.8533 0.0156633
35.8464 17.4846 0.0159969
38.4224 20.2983 0.0164794
33.5477 17.3616 2
35.5829 20.0511 2
40.4951 25.5605 2
38.0834 22.8287 2
32.8602 19.7694 3.98253
37.786 25.145 3.9835
35.2043 22.6104 3.98227
35.774 37.4968 3.946
37.5012 37.4905 2
39.2311 37.4815 0.0546418
39.8311 51.9532 0.0160802
38.7472 48.9138 -0.00986149
37.5009 39.1739 0.0486085
37.4959 46.3907 0.0344077
35.4576 44.6611 0.0204351
35.7876 40.8817 0.0415894
34.0804 42.3437 -0.0063734
37.6621 51.1036 2
35.7859 39.1812 2
34.1431 40.8171 2
36.8638 48.5088 2
32.9272 41.9862 2
33.6656 43.9033 2
35.1174 46.0948 2
35.4043 50.278 3.98321
34.0538 39.1922 3.95252
32.5708 40.86 4.00956
32.1348 42.7453 4.00677
32.9915 45.2156 3.93409
34.2207 47.5246 4.00586
36.7194 53.246 0.0121765
34.3474 52.5196 2
31.9577 51.2948 3.98325
33.2235 55.5321 0.0158093
30.4958 53.4529 2
28.3812 51.7003 3.98173
28.673 55.3417 0.0158446
26.8499 53.4946 2
25.0286 51.8371 3.98292
25.2899 55.1864 0.0154514
23.5384 53.5345 2
21.9153 51.8718 3.98391
19.1558 51.6918 3.9847
18.8958 54.3555 3.98505
20.4324 53.2791 2
18.4345 56.7628 3.98656
19.9151 55.8757 2
21.7889 55.3911 0.0151187
18.3628 59.1419 3.98732
19.4292 57.9291 2
20.2068 57.0695 0.0136977
18.6165 61.786 3.98902
19.7023 60.2315 2
20.6389 58.8133 0.0131586
19.1275 64.6863 3.99128
20.2064 62.8764 2
21.1639 61.1945 0.0122821
19.8867 67.8128 3.9947
20.9389 65.7746 2
21.8947 63.8527 0.011037
22.8375 66.7441 0.00880741
21.9127 68.8761 2
20.9142 71.1327 4
24.0099 69.8083 0.00532407
23.1494 72.1455 2
25.446 73.0099 0
23.0952 12.7686 3.98758
23.9719 10.1551 3.98897
25.0228 7.3049 3.99119
25.8591 9.36905 2
26.2798 4.32583 3.9947
27.0688 6.53504 2
27.8197 8.64211 0.0111107
27.7943 1.27781 4
28.488 3.64161 2
29.1539 5.87198 0.00867584
30.1841 0.720551 2
30.7257 3.09621 0.00511263
32.6053 0.320823 0
35.7795 35.8156 3.94839
37.501 35.8118 2
39.2246 35.8109 0.0513617
24.7758 12.0546 2
23.7496 14.3362 2
22.4779 15.0114 3.98707
25.3559 13.8869 3.98662
24.0223 15.5966 3.98655
26.6208 11.3729 0.0126133
29.2236 12.6244 0.0137326
27.2897 13.3558 2
29.7784 14.1817 2
28.3545 15.9543 3.98578
34.1341 34.1844 3.96552
35.7808 34.1162 2
37.4974 34.0884 0.0462005
35.7039 32.334 0.0230519
37.5026 30.0297 0.0401946
42.464 28.3193 0.00181545
39.8873 28.8898 0.0472074
40.1079 27.464 2
37.5021 28.5894 2
35.4609 30.3198 2
34.0813 32.6503 2
37.6002 27.1052 4.01951
35.1154 28.8857 3.95276
33.6689 31.0861 4.0022
32.9262 33.0118 4.00661
30.2046 19.316 3.98549
30.9239 16.8145 2
31.9124 14.4598 0.0147917
40.4946 25.5617 0.0200582
38.0833 22.8297 0.0139575
33.5478 17.362 0.0162106
35.583 20.0516 0.0172304
32.8602 19.769 2
35.2042 22.6099 2
37.786 25.1432 2
32.3057 22.3834 3.98305
34.9312 25.1153 3.97785
34.0035 37.4991 3.94863
35.7748 37.4966 2
37.5012 37.4905 0.0490551
37.662 51.1029 0.0153848
36.8634 48.5065 -0.0162294
35.785 39.1801 0.0506089
35.1172 46.0933 0.0459652
33.6654 43.9058 -0.00110109
34.1407 40.8161 0.0324759
32.9254 41.9877 -0.00424781
35.404 50.2792 2
34.0556 39.1926 2
32.5731 40.8586 2
34.2203 47.5269 2
32.1358 42.7403 2
32.9927 45.2135 2
33.1513 49.2718 3.98316
32.2296 39.2668 3.9937
30.9548 41.2406 4.0117
31.1522 43.8181 3.93403
32.1137 46.4496 3.99962
34.3475 52.5189 0.0145562
31.9572 51.2957 2
29.7764 49.8238 3.98136
30.4961 53.4523 0.01662
28.3807 51.7009 2
26.4296 50.0878 3.98168
26.8502 53.4942 0.0165178
25.0283 51.8373 2
23.2714 50.2734 3.98437
23.5386 53.5342 0.016151
21.9151 51.8719 2
20.406 50.38 3.98527
17.9392 50.3837 3.9858
17.7999 52.8409 3.98498
19.1556 51.6918 2
17.4187 55.3816 3.9859
18.8956 54.3557 2
20.4326 53.2789 0.0157428
17.1266 57.9065 3.98731
18.4344 56.7631 2
19.9153 55.8754 0.0141171
17.133 60.5722 3.9887
18.3628 59.1422 2
19.4293 57.9288 0.0133516
17.4074 63.4805 3.99125
18.6165 61.7864 2
19.7024 60.2311 0.0124015
17.9429 66.6218 3.99471
19.1276 64.6867 2
20.2064 62.876 0.0108986
18.75 69.9759 4
19.8868 67.8132 2
20.9389 65.7742 0.00876757
21.9126 68.8757 0.00531858
20.9142 71.1327 2
23.1494 72.1454 0
21.5858 13.5872 3.98769
22.1902 11.0135 3.989
23.0952 12.7682 2
23.041 8.16961 3.99122
23.9719 10.1548 2
24.1175 5.14025 3.99465
25.0229 7.30453 2
25.8591 9.36941 0.0110686
25.446 1.99014 4
26.2799 4.32553 2
27.0688 6.53542 0.00879299
27.7943 1.27778 2
28.488 3.64189 0.00521528
30.1841 0.720592 0
34.0458 35.8065 3.9515
35.7804 35.8143 2
37.5011 35.8129 0.0499913
21.3025 15.8052 3.98688
24.7758 12.0549 0.012506
23.7496 14.3365 0.0130909
25.3559 13.8866 2
22.4778 15.0111 2
24.0222 15.5963 2
23.2611 16.2266 3.98637
25.3777 16.0646 3.98632
27.2898 13.3561 0.0137659
29.7784 14.182 0.0140674
28.3545 15.954 2
27.4358 18.7725 3.98573
32.5692 34.1407 4.0084
34.1359 34.1829 2
35.7798 34.119 0.0433336
34.0796 32.6519 -0.00335614
35.4608 30.3236 0.0258177
37.5019 28.5948 0.0432022
40.1072 27.4665 -0.00834104
37.6001 27.1012 2
32.928 33.013 2
35.1159 28.8832 2
33.6691 31.0877 2
34.9989 27.2696 4.00654
32.9897 29.7829 3.93592
32.1403 32.2555 4.00807
29.5646 21.9103 3.98656
30.2045 19.3156 2
30.9239 16.8148 0.0148654
37.786 25.145 0.0164977
35.2043 22.6104 0.0177304
32.8602 19.7694 0.017474
32.3057 22.3831 2
34.9306 25.1145 2
31.6119 25.5559 3.98199
32.0955 37.5021 3.98794
34.005 37.4989 2
35.774 37.4968 0.0539983
35.4043 50.278 0.0167906
34.2207 47.5246 -0.00586268
34.0538 39.1922 0.0474755
32.9915 45.2156 0.0659077
32.1348 42.7453 -0.00676843
32.5708 40.86 -0.00956489
33.1505 49.2731 2
32.2313 39.2659 2
30.9573 41.235 2
32.1129 46.4509 2
31.1529 43.815 2
31.0143 48.0159 3.97836
30.1921 39.4936 4.01607
29.7268 42.0052 3.93998
30.1912 45.0258 3.99893
31.9577 51.2948 0.016746
29.7757 49.8244 2
27.756 48.293 3.98277
28.3812 51.7003 0.0182741
26.4291 50.0878 2
24.5499 48.5583 3.98583
25.0286 51.8371 0.0170795
23.2711 50.2734 2
21.5709 48.8632 3.98681
21.9153 51.8718 0.0160926
20.4058 50.38 2
18.971 49.151 3.98683
16.8453 49.3796 3.98643
16.7359 51.4547 3.98554
17.939 50.3839 2
16.3656 53.9129 3.9856
17.7998 52.8411 2
19.1558 51.6918 0.0153018
15.9652 56.5102 3.98693
17.4186 55.3818 2
18.8958 54.3555 0.0149549
15.7453 59.2356 3.98849
17.1266 57.9068 2
18.4345 56.7628 0.0134415
15.7874 62.1531 3.99107
17.133 60.5726 2
18.3628 59.1419 0.0126843
16.0893 65.305 3.99471
17.4075 63.481 2
18.6165 61.786 0.0109798
16.6661 68.6801 4
17.9429 66.6222 2
19.1275 64.6863 0.008717
18.75 69.9759 2
19.8867 67.8128 0.00530165
20.9142 71.1327 0
20.2173 14.5741 3.98752
21.5858 13.5869 2
20.5295 11.982 3.98904
21.1443 9.13869 3.99123
22.1902 11.0131 2
23.0952 12.7686 0.0124225
22.0167 6.07896 3.99466
23.0411 8.16922 2
23.9719 10.1551 0.0110335
23.1494 2.85457 4
24.1176 5.13993 2
25.0228 7.3049 0.00880697
25.446 1.99012 2
26.2798 4.32583 0.00530007
27.7943 1.27781 0
32.2279 35.7365 3.99149
34.0475 35.8056 2
35.7795 35.8156 0.0516137
21.3024 15.8048 2
20.2987 16.9362 3.98691
22.0939 16.6094 3.98663
25.3559 13.8869 0.0133842
22.4779 15.0114 0.0129275
24.0223 15.5966 0.0134476
25.3776 16.0643 2
23.2611 16.2263 2
24.1998 18.4225 3.98585
27.0025 21.4284 3.986
28.3545 15.9543 0.0142213
27.4357 18.7722 2
30.9565 33.7631 4.01033
32.5707 34.1414 2
34.1341 34.1844 0.0344797
32.9262 33.0118 -0.00660579
33.6689 31.0861 -0.00219678
35.1154 28.8857 0.0472369
37.6002 27.1052 -0.0195111
34.998 27.2676 2
32.1418 32.2603 2
32.9908 29.7842 2
32.3928 28.0159 4.00069
31.1541 31.1901 3.94005
28.7337 24.3796 3.98646
29.5646 21.9099 2
30.2046 19.316 0.0145139
34.9312 25.1153 0.0221531
32.3057 22.3834 0.0169542
31.6109 25.5556 2
29.5103 27.1862 3.98876
29.9113 37.5005 4.01522
32.097 37.5018 2
34.0035 37.4991 0.0513732
33.1513 49.2718 0.0168407
32.1137 46.4496 0.00037516
32.2296 39.2668 0.00629603
31.1522 43.8181 0.0659708
30.9548 41.2406 -0.0116965
31.0133 48.0164 2
30.1937 39.4896 2
29.7271 42.0029 2
30.19 45.0281 2
29.0113 46.549 3.9809
28.8138 39.8883 3.95817
28.4187 43.2213 3.99323
29.7764 49.8238 0.0186385
27.7553 48.293 2
25.7991 46.75 3.98875
26.4296 50.0878 0.0183167
24.5495 48.5581 2
22.6917 47.1607 3.98916
23.2714 50.2734 0.0156331
21.5706 48.8631 2
19.9055 47.6804 3.98803
20.406 50.38 0.014727
18.9707 49.1511 2
17.6134 48.2282 3.98686
16.0964 48.7266 3.98647
16.845 49.3797 2
15.8112 50.2142 3.98611
15.3511 52.4569 3.98573
16.7357 51.4549 2
17.9392 50.3837 0.0142023
14.8534 55.0126 3.98644
16.3655 53.9131 2
17.7999 52.8409 0.015018
14.4532 57.7664 3.98816
15.9651 56.5105 2
17.4187 55.3816 0.0140953
14.265 60.7097 3.99086
15.7453 59.236 2
17.1266 57.9065 0.0126939
14.3333 63.8647 3.99462
15.7875 62.1536 2
17.133 60.5722 0.0112993
14.6715 67.2507 4
16.0894 65.3054 2
17.4074 63.4805 0.00874721
16.6661 68.6801 2
17.9429 66.6218 0.005286
18.75 69.9759 0
18.9303 15.7583 3.98743
20.2173 14.5737 2
18.979 13.091 3.98892
21.5858 13.5872 0.0123122
20.5295 11.9816 2
19.3437 10.2256 3.99123
19.9914 7.14332 3.99468
21.1443 9.13828 2
22.1902 11.0135 0.0110014
20.9142 3.86727 4
22.0167 6.07862 2
23.041 8.16961 0.00878477
23.1494 2.85451 2
24.1175 5.14025 0.00534572
25.446 1.99014 0
30.193 35.5095 4.01305
32.2295 35.7369 2
34.0458 35.8065 0.0484982
21.3025 15.8052 0.013121
22.0939 16.6091 2
20.2987 16.9359 2
19.236 18.3798 3.98681
21.7775 17.8222 3.98651
25.3777 16.0646 0.0136777
23.2611 16.2266 0.0136317
24.1998 18.4222 2
22.2679 19.859 3.98616
24.5776 21.2865 3.98557
26.3672 23.6846 3.98688
27.0024 21.428 2
27.4358 18.7725 0.0142693
29.7319 32.9991 3.94607
30.958 33.7684 2
32.5692 34.1407 -0.00840137
32.1403 32.2555 -0.00806563
32.9897 29.7829 0.0640835
34.9989 27.2696 -0.00653827
32.3918 28.0145 2
31.1548 31.1938 2
29.8938 29.4724 3.9964
27.7641 26.4983 3.98155
28.7331 24.3791 2
29.5646 21.9103 0.013443
31.6119 25.5559 0.0180149
29.5092 27.186 2
28.4729 37.4983 3.95808
29.9123 37.5006 2
32.0955 37.5021 0.0120624
31.0143 48.0159 0.0216416
30.1912 45.0258 0.00106557
30.1921 39.4936 -0.0160695
29.7268 42.0052 0.0600174
29.0104 46.5486 2
28.8146 39.8864 2
28.4178 43.2217 2
27.0691 44.9005 3.98738
26.5352 40.6416 3.9903
27.756 48.293 0.0172295
25.7986 46.7497 2
23.8237 45.288 3.99265
24.5499 48.5583 0.0141697
22.6913 47.1604 2
20.8205 45.9595 3.98906
21.5709 48.8632 0.0131888
19.9051 47.6806 2
18.2495 46.7865 3.98709
18.971 49.151 0.0131682
17.6131 48.2283 2
16.2823 47.7551 3.98622
16.0961 48.7268 2
15.1558 49.0554 3.98618
16.8453 49.3796 0.013572
15.811 50.2143 2
14.4622 51.0233 3.98599
13.8123 53.4687 3.98626
15.351 52.4571 2
16.7359 51.4547 0.0144557
13.2462 56.1954 3.98769
14.8533 55.0129 2
16.3656 53.9129 0.0144038
12.847 59.1449 3.99058
14.4532 57.7668 2
15.9652 56.5102 0.0130729
12.6785 62.3079 3.99447
14.2651 60.7101 2
15.7453 59.2356 0.0115148
12.7746 65.6939 4
14.3334 63.8652 2
15.7874 62.1531 0.00893129
14.6714 67.2507 2
16.0893 65.305 0.00528993
16.6661 68.6801 0
17.6635 17.1309 3.98726
18.9303 15.7579 2
17.5099 14.3527 3.98874
20.2173 14.5741 0.0124786
18.979 13.0906 2
17.6393 11.4432 3.99115
20.5295 11.982 0.0109602
19.3438 10.2252 2
18.0516 8.33577 3.99468
18.75 5.0241 4
19.9915 7.14296 2
21.1443 9.13869 0.00876909
20.9142 3.86727 2
22.0167 6.07896 0.00533775
23.1494 2.85457 0
28.8049 35.1092 3.95434
30.1944 35.5133 2
32.2279 35.7365 0.00850712
22.0939 16.6094 0.0133656
20.2987 16.9362 0.0130901
21.7774 17.8219 2
19.2359 18.3795 2
17.9683 19.9083 3.98671
20.8674 19.3455 3.98645
24.1998 18.4225 0.0141481
22.2678 19.8587 2
24.5775 21.2861 2
22.3386 21.6792 3.98612
24.6548 23.129 3.98669
25.3633 25.9094 3.9832
26.3668 23.6841 2
27.0025 21.4284 0.0140005
28.0884 32.261 4.00019
29.7321 33.0016 2
30.9565 33.7631 -0.0103328
31.1541 31.1901 0.0599516
32.3928 28.0159 -0.000686435
29.893 29.4717 2
26.8552 29.1039 3.97342
27.7631 26.4978 2
28.7337 24.3796 0.0135448
29.5103 27.1862 0.0112444
26.6417 37.3561 3.99637
28.4741 37.4976 2
29.9113 37.5005 -0.0152222
29.0113 46.549 0.0190999
28.4187 43.2213 0.00677025
28.8138 39.8883 0.0418293
27.0683 44.8996 2
26.5352 40.6405 2
25.0337 43.2203 3.98961
23.788 39.4392 3.97926
25.7991 46.75 0.0112533
23.8233 45.2877 2
21.7817 44.0053 3.98794
22.6917 47.1607 0.0108373
20.82 45.9598 2
18.8983 45.015 3.987
19.9055 47.6804 0.0119678
18.2491 46.7865 2
16.5652 46.2508 3.98589
17.6134 48.2282 0.0131381
16.282 47.7553 2
14.8818 47.7065 3.98584
16.0964 48.7266 0.0135323
15.1556 49.0555 2
13.7579 49.5811 3.98597
15.8112 50.2142 0.0138926
14.462 51.0235 2
12.8768 51.9061 3.98624
12.1317 54.5541 3.98734
13.8122 53.469 2
15.3511 52.4569 0.0142711
11.5307 57.4784 3.99013
13.2462 56.1958 2
14.8534 55.0126 0.0135567
11.1331 60.635 3.99429
12.847 59.1454 2
14.4532 57.7664 0.0118371
10.9835 64.0165 4
12.6786 62.3084 2
14.265 60.7097 0.00914421
12.7745 65.694 2
14.3333 63.8647 0.00537726
14.6715 67.2507 0
16.3939 18.6215 3.98724
17.6635 17.1306 2
16.1003 15.7593 3.98851
18.9303 15.7583 0.0125742
17.5099 14.3523 2
16.0207 12.7949 3.99098
18.979 13.091 0.0110796
17.6393 11.4428 2
16.2028 9.65833 3.99464
19.3437 10.2256 0.00876996
18.0517 8.33539 2
16.6661 6.31991 4
18.75 5.02404 2
19.9914 7.14332 0.00532056
20.9142 3.86727 0
27.1531 34.7283 4.0036
28.8057 35.1105 2
30.193 35.5095 -0.0130462
16.6638 21.3397 3.98607
21.7775 17.8222 0.0134946
19.236 18.3798 0.0131895
20.8673 19.3452 2
17.9682 19.908 2
19.7059 21.534 3.98657
22.2679 19.859 0.0138381
24.5776 21.2865 0.0144284
22.3385 21.6788 2
24.6545 23.1286 2
22.7861 24.5591 3.98461
24.4101 28.49 3.98028
25.3626 25.909 2
26.3672 23.6846 0.0131227
25.9359 31.6868 3.97914
28.0875 32.261 2
29.7319 32.9991 0.0539272
29.8938 29.4724 0.00360262
26.8545 29.1042 2
27.7641 26.4983 0.0184499
24.4635 36.8589 3.98698
26.6416 37.3565 2
28.4729 37.4983 0.0419152
27.0691 44.9005 0.0126222
26.5352 40.6416 0.00969582
25.0333 43.2192 2
23.7879 39.4397 2
22.8195 41.8385 3.9847
21.5511 38.5054 3.98507
23.8237 45.288 0.00735115
21.7812 44.0058 2
19.6375 42.9247 3.98601
20.8205 45.9595 0.0109418
18.8979 45.015 2
16.8858 44.4127 3.98573
18.2495 46.7865 0.0129127
16.5648 46.2508 2
14.7971 46.1228 3.98532
16.2823 47.7551 0.0137752
14.8815 47.7067 2
13.262 48.0402 3.98562
15.1558 49.0554 0.0138189
13.7577 49.5813 2
12.0939 50.2821 3.98613
14.4622 51.0233 0.0140104
12.8767 51.9064 2
11.1257 52.862 3.98712
10.3202 55.7309 3.98961
12.1317 54.5544 2
13.8123 53.4687 0.0137435
9.69981 58.8587 3.99403
11.5307 57.4788 2
13.2462 56.1954 0.0123116
9.30605 62.2254 4
11.1332 60.6355 2
12.847 59.1449 0.00941976
10.9835 64.0165 2
12.6785 62.3079 0.00552839
12.7746 65.6939 0
15.1357 20.1531 3.98684
16.3938 18.6212 2
14.7448 17.2794 3.9882
17.6635 17.1309 0.0127363
16.1002 15.7589 2
14.4829 14.2745 3.99077
17.5099 14.3527 0.0112649
16.0208 12.7944 2
14.4454 11.1089 3.99453
17.6393 11.4432 0.00885049
16.2029 9.65791 2
14.6715 7.74927 4
18.0516 8.33577 0.00532217
16.6661 6.31988 2
18.75 5.0241 0
25.1051 34.264 3.99214
27.1527 34.7285 2
28.8049 35.1092 0.0456565
17.8313 22.2831 3.98674
15.5032 22.8814 3.98547
16.6636 21.3394 2
20.8674 19.3455 0.0135539
17.9683 19.9083 0.013287
19.7058 21.5337 2
19.6159 24.3391 3.98553
22.3386 21.6792 0.0138781
24.6548 23.129 0.0133118
22.7855 24.5587 2
21.8044 27.7832 3.98043
23.5682 31.1539 3.9839
24.4096 28.4902 2
25.3633 25.9094 0.0168033
25.9354 31.6877 2
28.0884 32.261 -0.000187387
26.8552 29.1039 0.0265811
22.252 36.2573 3.99162
24.4636 36.8594 2
26.6417 37.3561 0.00363389
25.0337 43.2203 0.0103887
23.788 39.4392 0.0207401
22.8189 41.8389 2
21.5511 38.5052 2
20.5472 40.6528 3.98294
19.9196 37.7826 3.98769
21.7817 44.0053 0.0120645
19.6373 42.9247 2
17.2721 42.1247 3.98491
18.8983 45.015 0.012996
16.8855 44.4127 2
14.793 44.2272 3.9847
16.5652 46.2508 0.0141133
14.7968 46.1229 2
12.9304 46.3233 3.98517
14.8818 47.7065 0.0141605
13.2618 48.0403 2
11.4632 48.5762 3.98581
13.7579 49.5811 0.0140344
12.0937 50.2824 2
10.25 51.1037 3.98687
12.8768 51.9061 0.0137596
11.1256 52.8623 2
9.22811 53.9086 3.98915
8.38342 56.9927 3.99366
10.3202 55.7313 2
12.1317 54.5541 0.0126581
7.74927 60.3285 4
9.69988 58.8592 2
11.5307 57.4784 0.00987249
9.306 62.2255 2
11.1331 60.635 0.00570702
10.9835 64.0165 0
13.9444 21.7182 3.98644
15.1356 20.1528 2
13.444 18.8743 3.98783
16.3939 18.6215 0.0127637
14.7448 17.279 2
13.028 15.865 3.9905
16.1003 15.7593 0.0114919
14.483 14.274 2
12.7826 12.6815 3.99438
16.0207 12.7949 0.00902104
14.4455 11.1085 2
12.7746 9.30605 4
16.2028 9.65833 0.00536258
14.6715 7.74924 2
16.6661 6.31991 0
22.8517 33.7718 3.99335
25.1049 34.2649 2
27.1531 34.7283 -0.00359633
17.5888 24.0012 3.98593
17.8311 22.2828 2
14.2814 24.414 3.98466
15.5029 22.8811 2
16.6638 21.3397 0.0139298
18.9543 27.1627 3.9818
19.7059 21.534 0.013427
19.6155 24.3388 2
21.0289 30.6301 3.98175
22.7861 24.5591 0.0153946
21.804 27.7832 2
23.5677 31.1544 2
24.4101 28.49 0.0197203
25.9359 31.6868 0.0208645
20.0287 35.9099 3.99028
22.252 36.2574 2
24.4635 36.8589 0.0130228
22.8195 41.8385 0.0152974
21.5511 38.5054 0.014934
20.547 40.6525 2
19.9196 37.7825 2
17.9298 39.0096 3.98601
19.6375 42.9247 0.013989
17.272 42.1247 2
14.7342 41.9368 3.98442
16.8858 44.4127 0.0142738
14.7927 44.2272 2
12.6669 44.4147 3.98456
14.7971 46.1228 0.0146787
12.9302 46.3234 2
10.9625 46.7569 3.98541
13.262 48.0402 0.014381
11.463 48.5764 2
9.51183 49.2613 3.98652
12.0939 50.2821 0.0138746
10.2499 51.104 2
8.26016 52.0204 3.98871
11.1257 52.862 0.0128766
9.22809 53.909 2
7.19234 55.0438 3.99326
6.31991 58.3339 4
8.38347 56.9933 2
10.3202 55.7309 0.010392
7.74924 60.3285 2
9.69981 58.8587 0.0059731
9.30605 62.2254 0
13.2011 25.3305 3.98573
12.8083 23.2478 3.98596
13.9442 21.7178 2
12.2273 20.5223 3.98753
15.1357 20.1531 0.0131638
13.4439 18.8739 2
11.6571 17.5443 3.99017
14.7448 17.2794 0.0117977
13.028 15.8645 2
11.2199 14.3654 3.99419
14.4829 14.2745 0.00922989
12.7827 12.681 2
10.9835 10.9835 4
14.4454 11.1089 0.00546827
12.7745 9.306 2
14.6715 7.74927 0
20.4259 33.3695 3.98858
22.8514 33.7722 2
25.1051 34.264 0.00786044
15.853 26.3637 3.98347
17.5885 24.0009 2
17.8313 22.2831 0.0132577
14.2811 24.4138 2
15.5032 22.8814 0.0145287
18.2841 30.1411 3.98134
18.954 27.1626 2
19.6159 24.3391 0.0144683
21.0286 30.6304 2
21.8044 27.7832 0.0195653
23.5682 31.1539 0.0161015
17.5447 35.956 3.9908
20.0285 35.9101 2
22.252 36.2573 0.00837984
20.5472 40.6528 0.0170639
19.9196 37.7826 0.0123063
17.9297 39.0095 2
14.233 39.1838 3.98665
17.2721 42.1247 0.0150946
14.734 41.9367 2
12.3505 42.2936 3.98532
14.793 44.2272 0.0153015
12.6667 44.4147 2
10.5374 44.8218 3.98493
12.9304 46.3233 0.0148286
10.9623 46.757 2
8.89285 47.338 3.98612
11.4632 48.5762 0.0141901
9.51168 49.2616 2
7.42624 50.0522 3.98823
10.25 51.1037 0.0131259
8.26011 52.0208 2
6.13271 53.0189 3.99284
9.22811 53.9086 0.0108506
7.19239 55.0444 2
5.0241 56.25 4
6.31988 58.3339 2
8.38342 56.9927 0.00633912
7.74927 60.3285 0
13.4326 26.7842 3.9839
11.9195 24.7586 3.98521
13.2009 25.3303 2
11.128 22.2073 3.98713
12.8081 23.2474 2
13.9444 21.7182 0.0135554
12.2272 20.5218 2
10.3862 19.2982 3.98982
13.444 18.8743 0.012171
11.6571 17.5438 2
9.76084 16.1475 3.99398
13.028 15.865 0.00950223
11.22 14.3649 2
9.30607 12.7746 4
12.7826 12.6815 0.00561517
10.9835 10.9835 2
12.7746 9.30605 0
17.7378 33.09 3.98658
20.4256 33.3699 2
22.8517 33.7718 0.00665101
15.4311 29.6079 3.98255
15.8527 26.3635 2
17.5888 24.0012 0.0140689
14.2814 24.414 0.0153353
18.2838 30.1413 2
18.9543 27.1627 0.0181968
21.0289 30.6301 0.0182508
14.8156 36.0124 3.98968
17.5444 35.9561 2
20.0287 35.9099 0.00972272
12.535 37.8321 3.98647
17.9298 39.0096 0.0139933
14.2329 39.1837 2
11.8602 40.1522 3.98694
14.7342 41.9368 0.0155822
12.3503 42.2936 2
10.1346 42.7929 3.98513
12.6669 44.4147 0.0154387
10.5371 44.8219 2
8.36944 45.3371 3.98568
10.9625 46.7569 0.0145864
8.89267 47.3382 2
6.71676 48.0156 3.98771
9.51183 49.2613 0.0134775
7.42615 50.0526 2
5.20912 50.9218 3.99233
8.26016 52.0204 0.0112851
6.13274 53.0194 2
3.86727 54.0858 4
7.19234 55.0438 0.00674182
5.02404 56.25 2
6.31991 58.3339 0
12.8837 29.0083 3.98295
11.3469 26.4617 3.98453
13.4324 26.7841 2
10.1855 23.9429 3.98629
11.9193 24.7584 2
13.2011 25.3305 0.0142683
9.23719 21.1173 3.98924
11.1279 22.2069 2
12.8083 23.2478 0.0140433
12.2273 20.5223 0.0124716
10.3862 19.2976 2
8.4167 18.0172 3.99375
11.6571 17.5443 0.00982513
9.76092 16.147 2
7.74928 14.6715 4
11.2199 14.3654 0.00581042
9.30602 12.7745 2
10.9835 10.9835 0
14.4153 32.8434 3.9858
17.7375 33.0903 2
20.4259 33.3695 0.011424
15.4309 29.608 2
15.853 26.3637 0.0165315
18.2841 30.1411 0.018655
12.819 36.2055 3.98774
14.8154 36.0125 2
17.5447 35.956 0.00919612
12.5348 37.8321 2
11.2168 38.3157 3.98662
14.233 39.1838 0.0133528
11.86 40.1521 2
9.71757 40.765 3.98636
12.3505 42.2936 0.0146784
10.1344 42.7928 2
7.91764 43.2826 3.98549
10.5374 44.8218 0.0150723
8.36926 45.3372 2
6.12223 45.9187 3.98723
8.89285 47.338 0.0138816
6.71665 48.0159 2
4.42028 48.7619 3.99172
7.42624 50.0522 0.0117742
5.20912 50.9223 2
2.85457 51.8506 4
6.13271 53.0189 0.00716102
3.86727 54.0858 2
5.0241 56.25 0
12.0213 31.2367 3.98611
10.7574 28.3935 3.98355
12.8835 29.0082 2
9.39903 25.7763 3.98557
11.3467 26.4615 2
13.4326 26.7842 0.0160996
8.22328 23.0039 3.98829
10.1854 23.9426 2
11.9195 24.7586 0.0147877
7.19867 19.9663 3.99339
9.23715 21.1168 2
11.128 22.2073 0.0128684
10.3862 19.2982 0.010182
8.41676 18.0167 2
6.31992 16.6661 4
9.76084 16.1475 0.00602337
7.74926 14.6714 2
9.30607 12.7746 0
12.0311 34.2833 3.98464
14.415 32.8436 2
17.7378 33.09 0.0134215
15.4311 29.6079 0.017452
10.7804 36.6113 3.98743
12.8187 36.2055 2
14.8156 36.0124 0.0103191
12.535 37.8321 0.0135322
11.2166 38.3157 2
9.31086 38.8298 3.98696
11.8602 40.1522 0.0130575
9.71742 40.765 2
7.52738 41.2205 3.98623
10.1346 42.7929 0.0148674
7.91748 43.2827 2
5.63368 43.7791 3.98677
8.36944 45.3371 0.0143244
6.12211 45.919 2
3.76556 46.5466 3.99111
6.71676 48.0156 0.0122937
4.42026 48.7623 2
1.99014 49.554 4
5.20912 50.9218 0.00766989
2.85451 51.8506 2
3.86727 54.0858 0
10.8841 32.9044 3.98592
10.0684 30.3649 3.98502
12.0211 31.2367 2
8.70609 27.7137 3.98465
10.7572 28.3935 2
12.8837 29.0083 0.0170516
7.34797 24.9653 3.98753
9.39888 25.7761 2
11.3469 26.4617 0.0154686
6.11534 21.9899 3.99274
8.22321 23.0035 2
10.1855 23.9429 0.0137066
5.02411 18.75 4
7.19871 19.9657 2
9.23719 21.1173 0.0107606
8.4167 18.0172 0.00625014
6.3199 16.6661 2
7.74928 14.6715 0
10.3961 34.9941 3.98495
12.0308 34.2834 2
14.4153 32.8434 0.0142026
8.9836 36.9862 3.9874
10.7801 36.6114 2
12.819 36.2055 0.0122564
11.2168 38.3157 0.0133758
9.31068 38.8298 2
7.20652 39.1874 3.987
9.71757 40.765 0.013641
7.52724 41.2206 2
5.24819 41.6218 3.98709
7.91764 43.2826 0.0145058
5.63356 43.7792 2
3.24296 44.29 3.99045
6.12223 45.9187 0.0127686
3.76552 46.547 2
1.27781 47.2057 4
4.42028 48.7619 0.00828055
1.99012 49.554 2
2.85457 51.8506 0
10.0527 33.8715 3.98471
9.3601 32.141 3.98602
10.8839 32.9044 2
8.05429 29.6809 3.98504
10.0683 30.3649 2
12.0213 31.2367 0.0138894
6.59108 26.9938 3.98674
8.70596 27.7135 2
10.7574 28.3935 0.0164537
5.17026 24.0835 3.992
7.34789 24.9649 2
9.39903 25.7763 0.0144328
3.86728 20.9142 4
6.11536 21.9894 2
8.22328 23.0039 0.0117073
5.02406 18.75 2
7.19867 19.9663 0.00661081
6.31992 16.6661 0
8.8119 35.2753 3.98607
10.3959 34.9941 2
12.0311 34.2833 0.0153622
6.99087 37.2068 3.98751
8.98338 36.9862 2
10.7804 36.6113 0.0125695
9.31086 38.8298 0.0130416
7.20635 39.1875 2
4.97494 39.4719 3.98788
7.52738 41.2205 0.013774
5.24807 41.6219 2
2.85308 42.0083 3.99033
5.63368 43.7791 0.0132306
3.2429 44.2903 2
0.720592 44.8159 4
3.76556 46.5466 0.00889327
1.27778 47.2057 2
1.99014 49.554 0
8.85605 33.6888 3.9858
10.0525 33.8715 2
7.49027 31.5978 3.98614
9.35989 32.141 2
10.8841 32.9044 0.0140802
5.93574 29.0574 3.98655
8.05415 29.6808 2
10.0684 30.3649 0.0149813
4.35755 26.2371 3.99116
6.591 26.9935 2
8.70609 27.7137 0.0153493
2.85458 23.1494 4
5.17026 24.083 2
7.34797 24.9653 0.0124748
3.86728 20.9142 2
6.11534 21.9899 0.00726419
5.02411 18.75 0
6.942 35.3025 3.987
8.81168 35.2753 2
10.3961 34.9941 0.0150478
4.82536 37.3405 3.98819
6.99067 37.2068 2
8.9836 36.9862 0.0126028
7.20652 39.1874 0.0130036
4.97479 39.472 2
2.60065 39.7174 3.99083
5.24819 41.6218 0.0129099
2.85302 42.0085 2
0.320823 42.3947 4
3.24296 44.29 0.00955144
0.720551 44.8159 2
1.27781 47.2057 0
7.10332 33.4533 3.98638
8.85585 33.6888 2
10.0527 33.8715 0.0152896
5.40557 31.1239 3.98726
7.49009 31.5977 2
9.3601 32.141 0.0139767
3.67897 28.4344 3.99055
5.93564 29.0572 2
8.05429 29.6809 0.0149586
1.99015 25.446 4
4.35753 26.2367 2
6.59108 26.9938 0.0132642
2.85453 23.1494 2
5.17026 24.0835 0.00800224
3.86728 20.9142 0
4.84003 35.2485 3.98809
6.9418 35.3025 2
8.8119 35.2753 0.0139343
2.4921 37.4288 3.99093
4.8252 37.3405 2
6.99087 37.2068 0.0124884
4.97494 39.4719 0.0121246
2.60057 39.7175 2
0.080333 39.9526 4
2.85308 42.0083 0.0096651
0.320817 42.3947 2
0.720592 44.8159 0
5.03429 33.1836 3.98754
7.10314 33.4533 2
8.85605 33.6888 0.0142017
3.14279 30.6587 3.9907
5.40544 31.1238 2
7.49027 31.5978 0.0138613
1.27793 27.7943 4
3.67894 28.4341 2
5.93574 29.0574 0.0134519
1.99013 25.446 2
4.35755 26.2371 0.00883521
2.85458 23.1494 0
2.54437 35.1563 3.99114
4.83987 35.2484 2
6.942 35.3025 0.0130043
0 37.5 4
2.49201 37.4288 2
4.82536 37.3405 0.0118129
2.60065 39.7174 0.00916685
0.0802903 39.9526 2
0.320823 42.3947 0
2.76239 32.9004 3.99081
5.03415 33.1835 2
7.10332 33.4533 0.013621
0.721173 30.1842 4
3.14273 30.6584 2
5.40557 31.1239 0.0127377
1.27779 27.7943 2
3.67897 28.4344 0.00944995
1.99015 25.446 0
0.0806499 35.0474 4
2.54429 35.1562 2
4.84003 35.2485 0.0119067
0 37.5 2
2.4921 37.4288 0.00906894
0.080333 39.9526 0
0.32156 32.6054 4
2.76232 32.9002 2
5.03429 33.1836 0.0124648
0.72056 30.1841 2
3.14279 30.6587 0.00930221
1.27793 27.7943 0
0.0802889 35.0474 2
2.54437 35.1563 0.00886449
0 37.5 0
0.320817 32.6053 2
2.76239 32.9004 0.00918714
0.721173 30.1842 0
0.0806499 35.0474 0
0.32156 32.6054 0
CELLS 1910 17190
8 18 6 25 56 2 0 5 16
8 57 23 6 18 17 4 0 2
8 78 36 9 29 31 11 1 7
8 31 11 1 7 79 37 10 30
8 110 57 18 50 48 17 2 14
8 50 18 56 111 14 2 16 49
8 116 62 22 55 52 20 3 15
8 56 25 67 118 16 5 24 53
8 119 63 23 57 54 21 4 17
8 55 22 63 119 15 3 21 54
8 58 26 68 121 18 6 25 56
8 122 65 26 58 57 23 6 18
8 73 31 7 27 142 79 30 71
8 143 78 29 72 73 31 7 27
8 83 147 76 34 32 74 28 8
8 84 148 78 36 33 75 29 9
8 76 34 8 28 148 84 33 75
8 37 79 150 86 10 30 77 35
8 151 87 36 78 80 38 11 31
8 80 38 11 31 152 88 37 79
8 175 100 42 94 96 44 12 40
8 44 96 176 101 12 40 95 43
8 101 176 98 46 43 95 41 13
8 46 98 178 103 13 41 97 45
8 178 103 45 97 147 83 32 74
8 189 116 55 109 106 52 15 47
8 111 56 118 191 49 16 53 107
8 192 119 57 110 108 54 17 48
8 109 55 119 192 47 15 54 108
8 194 122 58 112 110 57 18 50
8 112 58 121 195 50 18 56 111
8 115 61 19 51 197 124 59 113
8 115 61 125 198 51 19 60 114
8 198 125 62 116 114 60 20 52
8 200 127 64 120 116 62 22 55
8 118 67 132 202 53 24 66 117
8 121 68 133 203 56 25 67 118
8 120 64 128 204 55 22 63 119
8 204 128 65 122 119 63 23 57
8 206 134 68 121 123 69 26 58
8 123 69 26 58 207 131 65 122
8 226 147 74 138 140 76 28 70
8 229 148 75 139 143 78 29 72
8 140 76 28 70 229 148 75 139
8 142 79 30 71 231 150 77 141
8 144 80 31 73 232 152 79 142
8 233 151 78 143 144 80 31 73
8 150 86 35 77 235 154 81 145
8 235 154 81 145 146 82 39 91
8 146 82 39 91 236 155 90 165
8 238 157 83 147 149 85 34 76
8 239 158 84 148 151 87 36 78
8 149 85 34 76 239 158 84 148
8 152 88 37 79 241 160 86 150
8 242 161 87 151 153 89 38 80
8 153 89 38 80 243 162 88 152
8 171 98 41 92 265 178 97 169
8 265 178 97 169 226 147 74 138
8 172 96 40 93 266 176 95 170
8 266 176 95 170 171 98 41 92
8 269 175 94 173 172 96 40 93
8 271 180 99 174 175 100 42 94
8 197 124 59 113 271 180 99 174
8 272 181 100 175 177 102 44 96
8 273 182 101 176 179 104 46 98
8 177 102 44 96 273 182 101 176
8 179 104 46 98 275 184 103 178
8 275 184 103 178 238 157 83 147
8 188 115 51 105 283 197 113 186
8 188 115 198 284 105 51 114 187
8 284 198 116 189 187 114 52 106
8 286 200 120 193 189 116 55 109
8 191 118 202 288 107 53 117 190
8 195 121 203 289 111 56 118 191
8 193 120 204 290 109 55 119 192
8 290 204 122 194 192 119 57 110
8 196 123 58 112 292 207 122 194
8 293 206 121 195 196 123 58 112
8 199 126 61 115 297 211 124 197
8 298 212 127 200 198 125 62 116
8 199 126 212 298 115 61 125 198
8 205 129 64 120 300 214 127 200
8 301 217 130 201 202 132 66 117
8 209 136 168 264 301 217 130 201
8 302 219 132 202 203 133 67 118
8 303 220 133 203 206 134 68 121
8 205 129 215 304 120 64 128 204
8 304 215 131 207 204 128 65 122
8 306 221 134 206 208 135 69 123
8 208 135 69 123 307 218 131 207
8 210 137 167 263 309 223 136 209
8 328 238 147 226 230 149 76 140
8 228 146 91 166 329 236 165 260
8 231 150 77 141 330 235 145 227
8 330 235 145 227 228 146 91 166
8 332 239 148 229 233 151 78 143
8 230 149 76 140 332 239 148 229
8 232 152 79 142 334 241 150 231
8 234 153 80 144 335 243 152 232
8 336 242 151 233 234 153 80 144
8 236 155 90 165 338 245 164 259
8 241 160 86 150 339 246 154 235
8 339 246 154 235 237 156 82 146
8 237 156 82 146 340 247 155 236
8 342 249 157 238 240 159 85 149
8 343 250 158 239 242 161 87 151
8 240 159 85 149 343 250 158 239
8 243 162 88 152 345 252 160 241
8 244 163 253 346 153 89 161 242
8 244 163 89 153 347 254 162 243
8 311 224 261 371 210 137 167 263
8 263 167 262 372 209 136 168 264
8 267 179 98 171 375 275 178 265
8 375 275 178 265 328 238 147 226
8 376 273 176 266 267 179 98 171
8 268 177 96 172 376 273 176 266
8 379 272 175 269 268 177 96 172
8 380 271 174 270 269 175 94 173
8 283 197 113 186 380 271 174 270
8 381 277 180 271 272 181 100 175
8 297 211 124 197 381 277 180 271
8 382 278 181 272 274 183 102 177
8 274 183 102 177 383 279 182 273
8 383 279 182 273 276 185 104 179
8 385 281 184 275 342 249 157 238
8 276 185 104 179 385 281 184 275
8 285 199 115 188 393 297 197 283
8 394 298 200 286 284 198 116 189
8 285 199 298 394 188 115 198 284
8 291 205 120 193 396 300 200 286
8 397 301 201 287 288 202 117 190
8 295 209 264 374 397 301 201 287
8 398 302 202 288 289 203 118 191
8 399 303 203 289 293 206 121 195
8 291 205 304 400 193 120 204 290
8 400 304 207 292 290 204 122 194
8 294 208 123 196 402 307 207 292
8 403 306 206 293 294 208 123 196
8 296 210 263 373 405 309 209 295
8 408 312 213 299 297 211 126 199
8 299 213 313 409 199 126 212 298
8 409 313 214 300 298 212 127 200
8 305 216 129 205 411 315 214 300
8 412 318 217 301 302 219 132 202
8 309 223 136 209 412 318 217 301
8 413 320 219 302 303 220 133 203
8 306 221 321 414 206 134 220 303
8 307 218 131 207 415 316 215 304
8 305 216 316 415 205 129 215 304
8 417 322 221 306 308 222 135 208
8 308 222 135 208 418 319 218 307
8 310 225 137 210 420 325 223 309
8 423 326 224 311 310 225 137 210
8 329 236 165 260 441 338 259 368
8 442 342 238 328 333 240 149 230
8 331 237 146 228 443 340 236 329
8 334 241 150 231 444 339 235 330
8 444 339 235 330 331 237 146 228
8 446 343 239 332 336 242 151 233
8 333 240 149 230 446 343 239 332
8 335 243 152 232 448 345 241 334
8 337 244 153 234 449 347 243 335
8 337 244 346 450 234 153 242 336
8 338 245 164 259 452 349 258 367
8 340 247 155 236 453 350 245 338
8 345 252 160 241 454 351 246 339
8 454 351 246 339 341 248 156 237
8 341 248 156 237 455 352 247 340
8 240 159 251 344 342 249 354 457
8 242 161 253 346 343 250 355 458
8 343 250 355 458 240 159 251 344
8 347 254 162 243 460 357 252 345
8 348 255 358 461 244 163 253 346
8 348 255 163 244 462 359 254 347
8 473 360 257 365 363 256 364 482
8 452 349 258 367 365 257 366 485
8 422 324 369 488 311 224 261 371
8 371 261 370 490 263 167 262 372
8 407 311 371 491 296 210 263 373
8 373 263 372 492 295 209 264 374
8 493 385 275 375 442 342 238 328
8 377 276 179 267 493 385 275 375
8 378 274 177 268 494 383 273 376
8 494 383 273 376 377 276 179 267
8 497 382 272 379 378 274 177 268
8 498 381 271 380 379 272 175 269
8 393 297 197 283 498 381 271 380
8 499 387 277 381 382 278 181 272
8 408 312 211 297 499 387 277 381
8 500 388 278 382 384 280 183 274
8 501 389 279 383 386 282 185 276
8 384 280 183 274 501 389 279 383
8 386 282 185 276 503 391 281 385
8 503 391 281 385 457 354 249 342
8 511 408 299 395 393 297 199 285
8 395 299 409 512 285 199 298 394
8 512 409 300 396 394 298 200 286
8 401 305 205 291 514 411 300 396
8 515 412 301 397 398 302 202 288
8 405 309 209 295 515 412 301 397
8 516 413 302 398 399 303 203 289
8 403 306 414 517 293 206 303 399
8 402 307 207 292 518 415 304 400
8 401 305 415 518 291 205 304 400
8 404 308 208 294 520 418 307 402
8 521 417 306 403 404 308 208 294
8 406 310 210 296 523 420 309 405
8 526 423 311 407 406 310 210 296
8 410 314 213 299 527 424 312 408
8 528 425 315 411 409 313 214 300
8 410 314 425 528 299 213 313 409
8 416 317 216 305 530 427 315 411
8 531 430 318 412 413 320 219 302
8 420 325 223 309 531 430 318 412
8 532 432 320 413 414 321 220 303
8 417 322 433 533 306 221 321 414
8 418 319 218 307 534 428 316 415
8 416 317 428 534 305 216 316 415
8 419 323 434 536 308 222 322 417
8 419 323 222 308 537 431 319 418
8 421 327 225 310 539 438 325 420
8 421 327 439 541 310 225 326 423
8 543 437 324 422 423 326 224 311
8 441 338 259 368 559 452 367 486
8 443 340 236 329 560 453 338 441
8 333 240 344 447 442 342 457 561
8 445 341 237 331 562 455 340 443
8 448 345 241 334 563 454 339 444
8 563 454 339 444 445 341 237 331
8 336 242 346 450 446 343 458 565
8 446 343 458 565 333 240 344 447
8 449 347 243 335 567 460 345 448
8 451 348 244 337 568 462 347 449
8 451 348 461 569 337 244 346 450
8 570 463 349 452 473 360 257 365
8 453 350 245 338 570 463 349 452
8 455 352 247 340 571 464 350 453
8 460 357 252 345 572 465 351 454
8 572 465 351 454 456 353 248 341
8 456 353 248 341 573 466 352 455
8 344 251 356 459 457 354 468 575
8 458 355 469 576 344 251 356 459
8 346 253 358 461 458 355 469 576
8 462 359 254 347 578 471 357 460
8 348 255 359 462 461 358 472 579
8 591 474 360 473 475 361 256 363
8 475 361 256 363 594 477 362 479
8 363 256 364 482 479 362 480 603
8 590 473 365 484 481 363 482 605
8 482 364 257 365 606 483 366 485
8 559 452 367 486 484 365 485 607
8 542 436 487 609 422 324 369 488
8 525 422 488 611 407 311 371 491
8 488 369 489 612 371 261 370 490
8 491 371 490 613 373 263 372 492
8 495 386 276 377 614 503 385 493
8 614 503 385 493 561 457 342 442
8 615 501 383 494 495 386 276 377
8 496 384 274 378 615 501 383 494
8 618 500 382 497 496 384 274 378
8 619 499 381 498 497 382 272 379
8 511 408 297 393 619 499 381 498
8 620 505 387 499 500 388 278 382
8 527 424 312 408 620 505 387 499
8 502 390 506 621 384 280 388 500
8 622 507 389 501 504 392 282 386
8 502 390 280 384 622 507 389 501
8 504 392 282 386 624 509 391 503
8 624 509 391 503 575 468 354 457
8 513 410 299 395 630 527 408 511
8 631 528 411 514 512 409 300 396
8 513 410 528 631 395 299 409 512
8 519 416 305 401 633 530 411 514
8 634 531 412 515 516 413 302 398
8 523 420 309 405 634 531 412 515
8 635 532 413 516 517 414 303 399
8 521 417 533 636 403 306 414 517
8 520 418 307 402 637 534 415 518
8 519 416 534 637 401 305 415 518
8 522 419 308 404 639 537 418 520
8 522 419 536 640 404 308 417 521
8 524 421 310 406 642 539 420 523
8 524 421 541 644 406 310 423 526
8 646 543 422 525 526 423 311 407
8 529 426 314 410 647 544 424 527
8 528 425 545 648 411 315 427 530
8 529 426 545 648 410 314 425 528
8 535 429 317 416 649 546 427 530
8 650 548 430 531 532 432 320 413
8 539 438 325 420 650 548 430 531
8 533 433 550 651 414 321 432 532
8 536 434 551 652 417 322 433 533
8 537 431 319 418 653 547 428 534
8 535 429 547 653 416 317 428 534
8 538 435 552 654 419 323 434 536
8 538 435 323 419 655 549 431 537
8 540 440 327 421 657 556 438 539
8 540 440 557 659 421 327 439 541
8 541 439 555 660 423 326 437 543
8 661 554 436 542 543 437 324 422
8 676 570 452 559 590 473 365 484
8 560 453 338 441 676 570 452 559
8 562 455 340 443 677 571 453 560
8 447 344 459 566 561 457 575 678
8 564 456 341 445 679 573 455 562
8 567 460 345 448 680 572 454 563
8 680 572 454 563 564 456 341 445
8 565 458 576 682 447 344 459 566
8 450 346 461 569 565 458 576 682
8 568 462 347 449 684 578 460 567
8 451 348 462 568 569 461 579 685
8 686 580 463 570 591 474 360 473
8 571 464 350 453 686 580 463 570
8 573 466 352 455 687 581 464 571
8 572 465 582 688 460 357 471 578
8 574 467 582 688 456 353 465 572
8 574 467 353 456 689 583 466 573
8 459 356 470 577 575 468 585 691
8 576 469 586 692 459 356 470 577
8 461 358 472 579 576 469 586 692
8 462 359 471 578 579 472 588 694
8 704 591 473 590 593 475 363 481
8 595 476 592 705 475 361 474 591
8 593 475 363 481 707 594 479 602
8 594 477 362 479 709 598 478 600
8 595 476 361 475 711 597 477 594
8 479 362 480 603 600 478 601 720
8 481 363 482 605 602 479 603 722
8 603 480 364 482 723 604 483 606
8 605 482 365 484 724 606 485 607
8 656 553 608 726 542 436 487 609
8 645 542 609 728 525 422 488 611
8 609 487 610 729 488 369 489 612
8 611 488 612 730 491 371 490 613
8 616 504 386 495 731 624 503 614
8 731 624 503 614 678 575 457 561
8 732 622 501 615 616 504 386 495
8 617 502 384 496 732 622 501 615
8 617 502 621 735 496 384 500 618
8 736 620 499 619 618 500 382 497
8 630 527 408 511 736 620 499 619
8 621 506 626 737 500 388 505 620
8 647 544 424 527 737 626 505 620
8 623 508 627 738 502 390 506 621
8 623 508 390 502 739 628 507 622
8 625 510 628 739 504 392 507 622
8 740 629 509 624 691 585 468 575
8 625 510 392 504 740 629 509 624
8 632 529 410 513 744 647 527 630
8 631 528 648 745 514 411 530 633
8 632 529 648 745 513 410 528 631
8 638 535 416 519 746 649 530 633
8 747 650 531 634 635 532 413 516
8 642 539 420 523 747 650 531 634
8 636 533 651 748 517 414 532 635
8 640 536 652 749 521 417 533 636
8 639 537 418 520 750 653 534 637
8 638 535 653 750 519 416 534 637
8 641 538 419 522 751 655 537 639
8 641 538 654 752 522 419 536 640
8 643 540 421 524 753 657 539 642
8 643 540 659 755 524 421 541 644
8 644 541 660 757 526 423 543 646
8 758 661 542 645 646 543 422 525
8 529 426 544 647 648 545 662 759
8 530 427 545 648 649 546 663 760
8 535 429 546 649 653 547 664 761
8 762 666 548 650 651 550 432 532
8 657 556 438 539 762 666 548 650
8 652 551 668 763 533 433 550 651
8 654 552 669 764 536 434 551 652
8 655 549 431 537 765 665 547 653
8 538 435 549 655 654 552 667 766
8 661 554 671 768 542 436 553 656
8 658 558 440 540 769 674 556 657
8 658 558 675 770 540 440 557 659
8 659 557 673 771 541 439 555 660
8 660 555 672 772 543 437 554 661
8 788 686 570 676 704 591 473 590
8 677 571 453 560 788 686 570 676
8 679 573 455 562 789 687 571 677
8 566 459 577 683 678 575 691 790
8 681 574 456 564 791 689 573 679
8 680 572 688 792 567 460 578 684
8 681 574 688 792 564 456 572 680
8 682 576 692 794 566 459 577 683
8 569 461 579 685 682 576 692 794
8 568 462 578 684 685 579 694 796
8 687 581 464 571 798 696 580 686
8 798 696 580 686 705 592 474 591
8 689 583 466 573 799 697 581 687
8 688 582 698 800 578 471 588 694
8 690 584 698 800 574 467 582 688
8 690 584 467 574 801 699 583 689
8 693 587 701 803 577 470 585 691
8 693 587 470 577 804 702 586 692
8 695 589 702 804 579 472 586 692
8 695 589 472 579 805 703 588 694
8 708 595 705 813 593 475 591 704
8 710 596 706 814 595 476 592 705
8 707 594 479 602 816 709 600 719
8 708 595 475 593 817 711 594 707
8 709 598 478 600 819 715 599 717
8 711 597 477 594 820 714 598 709
8 710 596 476 595 822 713 597 711
8 600 478 601 720 717 599 718 832
8 602 479 603 722 719 600 720 834
8 720 601 480 603 835 721 604 723
8 722 603 482 605 836 723 606 724
8 767 670 725 839 656 553 608 726
8 756 656 726 841 645 542 609 728
8 726 608 727 842 609 487 610 729
8 728 609 729 843 611 488 612 730
8 844 740 624 731 790 691 575 678
8 733 625 504 616 844 740 624 731
8 734 623 502 617 845 739 622 732
8 733 625 739 845 616 504 622 732
8 734 623 738 846 617 502 621 735
8 735 621 737 847 618 500 620 736
8 744 647 527 630 847 737 620 736
8 621 506 627 738 737 626 741 848
8 647 544 626 737 759 662 741 848
8 623 508 628 739 738 627 742 849
8 740 629 585 691 850 743 700 802
8 625 510 629 740 739 628 743 850
8 632 529 647 744 745 648 759 854
8 633 530 648 745 746 649 760 855
8 638 535 649 746 750 653 761 856
8 857 762 650 747 748 651 532 635
8 753 657 539 642 857 762 650 747
8 749 652 763 858 636 533 651 748
8 752 654 764 859 640 536 652 749
8 751 655 537 639 860 765 653 750
8 641 538 655 751 752 654 766 861
8 754 658 540 643 862 769 657 753
8 754 658 770 863 643 540 659 755
8 755 659 771 864 644 541 660 757
8 758 661 768 866 645 542 656 756
8 757 660 772 867 646 543 661 758
8 759 662 773 868 648 545 663 760
8 649 546 663 760 761 664 774 871
8 765 665 547 653 872 775 664 761
8 873 777 666 762 763 668 550 651
8 769 674 556 657 873 777 666 762
8 764 669 779 874 652 551 668 763
8 654 552 667 766 764 669 778 875
8 655 549 665 765 766 667 776 876
8 768 671 782 877 656 553 670 767
8 772 672 783 878 661 554 671 768
8 658 558 674 769 770 675 786 879
8 659 557 675 770 771 673 785 881
8 882 784 672 772 771 673 555 660
8 789 687 571 677 897 798 686 788
8 897 798 686 788 813 705 591 704
8 791 689 573 679 898 799 687 789
8 795 693 803 900 683 577 691 790
8 793 690 574 681 901 801 689 791
8 792 688 800 902 684 578 694 796
8 793 690 800 902 681 574 688 792
8 795 693 577 683 903 804 692 794
8 797 695 804 903 685 579 692 794
8 797 695 579 685 904 805 694 796
8 905 806 697 799 798 696 581 687
8 814 706 806 905 705 592 696 798
8 689 583 697 799 801 699 808 907
8 800 698 809 908 694 588 703 805
8 690 584 699 801 800 698 809 908
8 803 701 810 909 691 585 700 802
8 693 587 702 804 803 701 811 910
8 695 589 703 805 804 702 812 911
8 818 710 814 919 708 595 705 813
8 821 712 815 920 710 596 706 814
8 816 709 600 719 922 819 717 831
8 817 711 594 707 923 820 709 816
8 818 710 595 708 924 822 711 817
8 819 715 599 717 926 827 716 829
8 820 714 598 709 927 826 715 819
8 929 825 713 822 820 714 597 711
8 821 712 596 710 930 824 713 822
8 717 599 718 832 829 716 830 942
8 719 600 720 834 831 717 832 944
8 832 718 601 720 945 833 721 835
8 834 720 603 722 946 835 723 836
8 869 780 838 950 767 670 725 839
8 865 767 839 952 756 656 726 841
8 839 725 840 953 726 608 727 842
8 841 726 842 954 728 609 729 843
8 844 740 691 790 955 850 802 899
8 733 625 740 844 845 739 850 955
8 734 623 739 845 846 738 849 956
8 735 621 738 846 847 737 848 957
8 744 647 737 847 854 759 848 957
8 738 627 742 849 848 741 851 958
8 848 741 851 958 759 662 773 868
8 850 743 700 802 959 852 807 906
8 849 742 628 739 959 852 743 850
8 854 759 868 965 745 648 760 855
8 746 649 760 855 856 761 871 966
8 860 765 653 750 967 872 761 856
8 968 873 762 857 858 763 651 748
8 862 769 657 753 968 873 762 857
8 859 764 874 969 749 652 763 858
8 752 654 766 861 859 764 875 970
8 751 655 765 860 861 766 876 971
8 754 658 769 862 863 770 879 972
8 755 659 770 863 864 771 881 974
8 976 882 772 867 864 771 660 757
8 866 768 877 977 756 656 767 865
8 867 772 878 978 758 661 768 866
8 760 663 773 868 871 774 883 980
8 870 781 837 948 982 890 780 869
8 982 890 780 869 877 782 670 767
8 761 664 774 871 872 775 884 984
8 876 776 665 765 985 885 775 872
8 873 777 668 763 986 887 779 874
8 769 674 777 873 879 786 887 986
8 764 669 778 875 874 779 888 987
8 766 667 776 876 875 778 886 988
8 878 783 892 989 768 671 782 877
8 878 783 672 772 990 893 784 882
8 880 787 675 770 991 896 786 879
8 880 787 895 992 770 675 785 881
8 881 785 894 993 771 673 784 882
8 1006 905 799 898 897 798 687 789
8 919 814 905 1006 813 705 798 897
8 791 689 799 898 901 801 907 1007
8 900 803 909 1009 790 691 802 899
8 795 693 804 903 900 803 910 1010
8 902 800 908 1011 796 694 805 904
8 793 690 801 901 902 800 908 1011
8 797 695 805 904 903 804 911 1012
8 799 697 806 905 907 808 912 1013
8 920 815 912 1013 814 706 806 905
8 802 700 810 909 906 807 913 1014
8 801 699 808 907 908 809 914 1015
8 805 703 809 908 911 812 915 1016
8 803 701 811 910 909 810 916 1017
8 911 812 917 1018 804 702 811 910
8 925 821 920 1030 818 710 814 919
8 928 823 921 1031 821 712 815 920
8 922 819 717 831 1033 926 829 941
8 923 820 709 816 1034 927 819 922
8 1035 929 822 924 923 820 711 817
8 925 821 710 818 1036 930 822 924
8 1038 933 825 929 927 826 714 820
8 926 827 716 829 1039 935 828 939
8 927 826 715 819 1040 934 827 926
8 928 823 712 821 1041 931 824 930
8 1042 932 824 930 929 825 713 822
8 829 716 830 942 939 828 940 1058
8 831 717 832 944 941 829 942 1060
8 942 830 718 832 1061 943 833 945
8 944 832 720 834 1062 945 835 946
8 981 889 947 1064 870 781 837 948
8 948 837 949 1067 869 780 838 950
8 975 869 950 1069 865 767 839 952
8 950 838 951 1070 839 725 840 953
8 952 839 953 1071 841 726 842 954
8 955 850 802 899 1072 959 906 1008
8 956 849 739 845 1072 959 850 955
8 846 738 849 956 957 848 958 1073
8 957 848 958 1073 854 759 868 965
8 849 742 852 959 958 851 961 1076
8 960 853 961 1076 906 807 852 959
8 958 851 961 1076 868 773 883 980
8 960 853 807 906 1077 963 913 1014
8 855 760 868 965 966 871 980 1085
8 856 761 871 966 967 872 984 1086
8 971 876 765 860 1087 985 872 967
8 968 873 763 858 1088 986 874 969
8 862 769 873 968 972 879 986 1088
8 859 764 875 970 969 874 987 1089
8 861 766 876 971 970 875 988 1090
8 973 880 770 863 1091 991 879 972
8 973 880 992 1092 863 770 881 974
8 974 881 993 1093 864 771 882 976
8 979 870 948 1066 1094 982 869 975
8 1094 982 869 975 977 877 767 865
8 978 878 772 867 1095 990 882 976
8 978 878 989 1096 866 768 877 977
8 871 774 883 980 984 884 994 1099
8 983 891 999 1100 870 781 889 981
8 1101 1000 890 982 989 892 782 877
8 983 891 781 870 1101 1000 890 982
8 872 775 884 984 985 885 995 1103
8 876 776 885 985 988 886 996 1104
8 986 887 779 874 1105 998 888 987
8 879 786 887 986 991 896 998 1105
8 875 778 886 988 987 888 997 1106
8 990 893 1002 1107 878 783 892 989
8 1108 1003 893 990 993 894 784 882
8 880 787 896 991 992 895 1005 1109
8 993 894 785 881 1110 1004 895 992
8 898 799 905 1006 1007 907 1013 1120
8 1030 920 1013 1120 919 814 905 1006
8 901 801 907 1007 1011 908 1015 1121
8 899 802 909 1009 1008 906 1014 1122
8 900 803 910 1010 1009 909 1017 1123
8 1012 911 1018 1124 903 804 910 1010
8 904 805 908 1011 1012 911 1016 1125
8 1013 912 1020 1127 907 808 914 1015
8 1031 921 1020 1127 920 815 912 1013
8 1019 918 962 1075 1128 1021 913 1014
8 1128 1021 913 1014 1017 916 810 909
8 1015 914 1022 1129 908 809 915 1016
8 1016 915 1023 1130 911 812 917 1018
8 1018 917 1024 1131 910 811 916 1017
8 1037 928 1031 1148 925 821 920 1030
8 928 823 931 1041 1031 921 1032 1149
8 1033 926 829 941 1151 1039 939 1057
8 1034 927 819 922 1152 1040 926 1033
8 1153 1038 929 1035 1034 927 820 923
8 1154 1042 930 1036 1035 929 822 924
8 1037 928 821 925 1155 1041 930 1036
8 1039 935 828 939 1156 1047 938 1055
8 1157 1043 932 1042 1038 933 825 929
8 1038 933 826 927 1158 1045 934 1040
8 1040 934 827 926 1159 1046 935 1039
8 930 824 932 1042 1041 931 1044 1160
8 1051 936 1048 1165 1175 1052 937 1053
8 1156 1047 938 1055 1053 937 1054 1178
8 939 828 940 1058 1055 938 1056 1181
8 941 829 942 1060 1057 939 1058 1183
8 942 830 943 1061 1058 940 1059 1184
8 1060 942 832 944 1185 1061 945 1062
8 1082 964 1063 1188 981 889 947 1064
8 1097 981 1064 1190 979 870 948 1066
8 1064 947 1065 1191 948 837 949 1067
8 1066 948 1067 1193 975 869 950 1069
8 1067 949 1068 1194 950 838 951 1070
8 1069 950 1070 1195 952 839 953 1071
8 956 849 959 1072 1073 958 1076 1197
8 1074 960 1076 1197 1008 906 959 1072
8 1073 958 1076 1197 965 868 980 1085
8 1074 960 906 1008 1198 1077 1014 1122
8 1133 1026 1079 1199 1019 918 962 1075
8 1077 963 913 1014 1200 1080 962 1075
8 960 853 963 1077 1076 961 1078 1201
8 980 883 961 1076 1099 994 1078 1201
8 1210 1083 964 1082 1100 999 889 981
8 966 871 980 1085 1086 984 1099 1215
8 967 872 984 1086 1087 985 1103 1216
8 971 876 985 1087 1090 988 1104 1217
8 1088 986 874 969 1218 1105 987 1089
8 972 879 986 1088 1091 991 1105 1218
8 970 875 988 1090 1089 987 1106 1219
8 973 880 991 1091 1092 992 1109 1220
8 1093 993 881 974 1221 1110 992 1092
8 1222 1108 990 1095 1093 993 882 976
8 1223 1101 982 1094 1096 989 877 977
8 1098 983 870 979 1223 1101 982 1094
8 1095 990 1107 1224 978 878 989 1096
8 1098 983 1100 1225 979 870 981 1097
8 984 884 994 1099 1103 995 1111 1227
8 1102 1001 1115 1228 983 891 999 1100
8 1101 1000 892 989 1229 1116 1002 1107
8 1102 1001 891 983 1229 1116 1000 1101
8 985 885 995 1103 1104 996 1112 1230
8 988 886 996 1104 1106 997 1113 1231
8 1105 998 888 987 1232 1114 997 1106
8 991 896 998 1105 1109 1005 1114 1232
8 1108 1003 1117 1233 990 893 1002 1107
8 1108 1003 894 993 1233 1117 1004 1110
8 992 895 1005 1109 1110 1004 1118 1234
8 1120 1013 1127 1244 1007 907 1015 1121
8 1148 1031 1127 1244 1030 920 1013 1120
8 1121 1015 1129 1245 1011 908 1016 1125
8 1126 1019 1075 1196 1246 1128 1014 1122
8 1246 1128 1014 1122 1123 1017 909 1009
8 1124 1018 1131 1247 1010 910 1017 1123
8 1125 1016 1130 1248 1012 911 1018 1124
8 1127 1020 1137 1254 1015 914 1022 1129
8 1031 921 1032 1149 1127 1020 1137 1254
8 1134 1027 918 1019 1257 1140 1021 1128
8 1257 1140 1021 1128 1131 1024 916 1017
8 1129 1022 1141 1258 1016 915 1023 1130
8 1130 1023 1142 1259 1018 917 1024 1131
8 1261 1144 1025 1132 1133 1026 1079 1199
8 1255 1138 1025 1132 1135 1028 1144 1261
8 1133 1026 918 1019 1262 1145 1027 1134
8 1136 1029 1139 1256 1263 1146 1028 1135
8 1037 928 1041 1155 1148 1031 1149 1275
8 1041 931 1044 1160 1149 1032 1150 1276
8 1151 1039 939 1057 1278 1156 1055 1180
8 1152 1040 926 1033 1279 1159 1039 1151
8 1153 1038 927 1034 1280 1158 1040 1152
8 1281 1157 1042 1154 1153 1038 929 1035
8 1036 930 1042 1154 1155 1041 1160 1282
8 1283 1164 1046 1159 1156 1047 935 1039
8 1165 1048 1164 1283 1053 937 1047 1156
8 1157 1043 933 1038 1284 1161 1045 1158
8 1157 1043 1161 1284 1042 932 1044 1160
8 1040 934 1046 1159 1158 1045 1163 1285
8 1166 1049 1167 1292 1051 936 1048 1165
8 1166 1049 936 1051 1293 1168 1050 1172
8 1051 936 1052 1175 1172 1050 1173 1306
8 1174 1051 1165 1290 1308 1175 1053 1177
8 1053 937 1054 1178 1175 1052 1176 1309
8 1278 1156 1055 1180 1177 1053 1178 1311
8 1055 938 1056 1181 1178 1054 1179 1312
8 1057 939 1058 1183 1180 1055 1181 1314
8 1058 940 1059 1184 1181 1056 1182 1315
8 1060 942 1061 1185 1183 1058 1184 1316
8 1208 1081 1187 1321 1082 964 1063 1188
8 1209 1082 1188 1322 1097 981 1064 1190
8 1188 1063 1189 1323 1064 947 1065 1191
8 1190 1064 1191 1325 1066 948 1067 1193
8 1191 1065 1192 1326 1067 949 1068 1194
8 1067 1193 1069 950 1194 1327 1195 1070
8 1250 1133 1199 1330 1126 1019 1075 1196
8 1198 1077 1014 1122 1331 1200 1075 1196
8 1074 960 1077 1198 1197 1076 1201 1332
8 1085 980 1076 1197 1215 1099 1201 1332
8 1199 1079 1203 1333 1075 962 1080 1200
8 1132 1025 1119 1243 1199 1079 1203 1333
8 1201 1078 963 1077 1334 1202 1080 1200
8 1099 994 1078 1201 1227 1111 1202 1334
8 1343 1207 1081 1208 1210 1083 964 1082
8 1214 1084 1186 1319 1343 1207 1081 1208
8 1345 1210 1082 1209 1225 1100 981 1097
8 1346 1211 1083 1210 1228 1115 999 1100
8 1086 984 1099 1215 1216 1103 1227 1352
8 1087 985 1103 1216 1217 1104 1230 1353
8 1090 988 1104 1217 1219 1106 1231 1354
8 1218 1105 987 1089 1355 1232 1106 1219
8 1091 991 1105 1218 1220 1109 1232 1355
8 1092 992 1109 1220 1221 1110 1234 1356
8 1222 1108 1233 1357 1095 990 1107 1224
8 1222 1108 993 1093 1357 1233 1110 1221
8 1223 1101 989 1096 1358 1229 1107 1224
8 1226 1102 983 1098 1358 1229 1101 1223
8 1226 1102 1228 1359 1098 983 1100 1225
8 1103 995 1111 1227 1230 1112 1235 1360
8 1107 1002 1117 1233 1229 1116 1240 1362
8 1102 1001 1116 1229 1228 1115 1240 1362
8 1104 996 1112 1230 1231 1113 1236 1363
8 1364 1237 1114 1232 1231 1113 997 1106
8 1109 1005 1114 1232 1234 1118 1238 1365
8 1110 1004 1118 1234 1233 1117 1241 1366
8 1242 1374 1255 1138 1119 1243 1132 1025
8 1244 1127 1254 1376 1121 1015 1129 1245
8 1148 1031 1149 1275 1244 1127 1254 1376
8 1245 1129 1258 1377 1125 1016 1130 1248
8 1251 1134 1019 1126 1378 1257 1128 1246
8 1378 1257 1128 1246 1247 1131 1017 1123
8 1248 1130 1259 1379 1124 1018 1131 1247
8 1261 1381 1250 1133 1132 1249 1330 1199
8 1255 1380 1252 1135 1132 1249 1381 1261
8 1250 1133 1019 1126 1382 1262 1134 1251
8 1253 1136 1256 1385 1384 1263 1135 1252
8 1254 1137 1265 1387 1129 1022 1141 1258
8 1149 1032 1150 1276 1254 1137 1265 1387
8 1028 1135 1255 1138 1139 1256 1388 1266
8 1136 1029 1147 1264 1256 1139 1267 1389
8 1390 1268 1140 1257 1259 1142 1024 1131
8 1260 1143 1027 1134 1390 1268 1140 1257
8 1258 1141 1269 1391 1130 1023 1142 1259
8 1262 1145 1027 1134 1393 1271 1143 1260
8 1261 1144 1026 1133 1394 1272 1145 1262
8 1135 1028 1144 1261 1263 1146 1272 1394
8 1136 1029 1146 1263 1264 1147 1273 1395
8 1155 1041 1160 1282 1275 1149 1276 1405
8 1276 1150 1044 1160 1406 1277 1162 1286
8 1408 1283 1159 1279 1278 1156 1039 1151
8 1290 1165 1283 1408 1177 1053 1156 1278
8 1152 1040 1159 1279 1280 1158 1285 1409
8 1281 1157 1038 1153 1410 1284 1158 1280
8 1281 1157 1284 1410 1154 1042 1160 1282
8 1159 1046 1164 1283 1285 1163 1289 1412
8 1292 1167 1289 1412 1165 1048 1164 1283
8 1158 1045 1163 1285 1284 1161 1288 1413
8 1284 1161 1288 1413 1160 1044 1162 1286
8 1291 1166 1292 1418 1174 1051 1165 1290
8 1291 1166 1051 1174 1419 1293 1172 1305
8 1294 1169 1296 1421 1166 1049 1167 1292
8 1293 1168 1050 1172 1422 1295 1171 1303
8 1294 1169 1049 1166 1423 1297 1168 1293
8 1422 1295 1171 1303 1301 1170 1302 1435
8 1172 1050 1173 1306 1303 1171 1304 1438
8 1174 1051 1175 1308 1305 1172 1306 1440
8 1175 1052 1176 1309 1306 1173 1307 1441
8 1177 1053 1178 1311 1308 1175 1309 1443
8 1178 1054 1179 1312 1309 1176 1310 1444
8 1180 1055 1181 1314 1311 1178 1312 1446
8 1056 1181 1312 1179 1182 1315 1447 1313
8 1183 1058 1184 1316 1314 1181 1315 1448
8 1319 1186 1084 1214 1451 1317 1213 1350
8 1319 1186 1318 1453 1208 1081 1187 1321
8 1321 1187 1320 1456 1188 1063 1189 1323
8 1344 1208 1321 1457 1209 1082 1188 1322
8 1322 1188 1323 1458 1190 1064 1191 1325
8 1323 1189 1324 1459 1191 1065 1192 1326
8 1191 1325 1193 1067 1326 1460 1327 1194
8 1242 1374 1243 1119 1328 1462 1335 1204
8 1330 1199 1333 1465 1196 1075 1200 1331
8 1132 1249 1330 1199 1243 1375 1465 1333
8 1332 1201 1077 1198 1466 1334 1200 1331
8 1215 1099 1201 1332 1352 1227 1334 1466
8 1119 1243 1333 1203 1204 1335 1470 1338
8 1333 1203 1338 1470 1200 1080 1202 1334
8 1227 1111 1202 1334 1360 1235 1338 1470
8 1328 1462 1335 1204 1205 1336 1471 1339
8 1337 1206 1340 1472 1464 1329 1205 1336
8 1346 1211 1342 1479 1210 1083 1207 1343
8 1346 1211 1115 1228 1479 1342 1239 1361
8 1348 1212 1084 1214 1479 1342 1207 1343
8 1480 1343 1208 1344 1345 1210 1082 1209
8 1351 1214 1319 1454 1480 1343 1208 1344
8 1481 1346 1210 1345 1359 1228 1100 1225
8 1348 1212 1347 1483 1214 1084 1213 1350
8 1216 1103 1227 1352 1353 1230 1360 1488
8 1217 1104 1230 1353 1354 1231 1363 1489
8 1490 1364 1232 1355 1354 1231 1106 1219
8 1220 1109 1232 1355 1356 1234 1365 1491
8 1221 1110 1234 1356 1357 1233 1366 1492
8 1224 1107 1233 1357 1358 1229 1362 1493
8 1226 1102 1229 1358 1359 1228 1362 1493
8 1230 1112 1235 1360 1363 1236 1367 1496
8 1361 1239 1115 1228 1497 1371 1240 1362
8 1366 1241 1372 1498 1233 1117 1240 1362
8 1364 1237 1113 1231 1499 1368 1236 1363
8 1364 1237 1368 1499 1232 1114 1238 1365
8 1234 1118 1238 1365 1366 1241 1369 1500
8 1507 1373 1242 1374 1388 1266 1138 1255
8 1508 1374 1243 1375 1380 1255 1132 1249
8 1376 1254 1387 1509 1245 1129 1258 1377
8 1275 1149 1276 1405 1376 1254 1387 1509
8 1377 1258 1391 1510 1248 1130 1259 1379
8 1511 1390 1257 1378 1379 1259 1131 1247
8 1383 1260 1134 1251 1511 1390 1257 1378
8 1252 1135 1256 1385 1380 1255 1388 1512
8 1261 1381 1513 1394 1133 1250 1382 1262
8 1135 1252 1384 1263 1261 1381 1513 1394
8 1382 1262 1134 1251 1514 1393 1260 1383
8 1253 1136 1263 1384 1386 1264 1395 1516
8 1253 1136 1264 1386 1385 1256 1389 1517
8 1387 1265 1397 1519 1258 1141 1269 1391
8 1276 1150 1277 1406 1387 1265 1397 1519
8 1256 1139 1267 1389 1388 1266 1398 1520
8 1264 1147 1274 1396 1389 1267 1399 1521
8 1392 1270 1143 1260 1522 1400 1268 1390
8 1390 1268 1142 1259 1522 1400 1269 1391
8 1392 1270 1401 1523 1260 1143 1271 1393
8 1272 1394 1524 1402 1145 1262 1393 1271
8 1395 1273 1146 1263 1524 1402 1272 1394
8 1273 1395 1264 1147 1403 1526 1396 1274
8 1405 1276 1160 1282 1534 1406 1286 1411
8 1414 1287 1407 1535 1286 1162 1277 1406
8 1279 1159 1283 1408 1409 1285 1412 1537
8 1418 1292 1412 1537 1290 1165 1283 1408
8 1280 1158 1285 1409 1410 1284 1413 1538
8 1410 1284 1413 1538 1282 1160 1286 1411
8 1285 1163 1289 1412 1413 1288 1417 1540
8 1421 1296 1417 1540 1292 1167 1289 1412
8 1414 1287 1162 1286 1541 1416 1288 1413
8 1420 1294 1421 1545 1291 1166 1292 1418
8 1419 1293 1172 1305 1546 1422 1303 1437
8 1420 1294 1166 1291 1547 1423 1293 1419
8 1294 1169 1297 1423 1421 1296 1425 1548
8 1423 1297 1168 1293 1549 1424 1295 1422
8 1301 1170 1298 1427 1422 1295 1424 1549
8 1432 1300 1428 1554 1301 1170 1298 1427
8 1431 1299 1428 1554 1560 1430 1300 1432
8 1563 1433 1300 1432 1435 1302 1170 1301
8 1546 1422 1303 1437 1434 1301 1435 1565
8 1303 1171 1304 1438 1435 1302 1436 1566
8 1305 1172 1306 1440 1437 1303 1438 1568
8 1306 1173 1307 1441 1438 1304 1439 1569
8 1308 1175 1309 1443 1440 1306 1441 1571
8 1309 1176 1310 1444 1441 1307 1442 1572
8 1311 1178 1312 1446 1443 1309 1444 1574
8 1179 1312 1444 1310 1313 1447 1575 1445
8 1314 1181 1315 1448 1446 1312 1447 1576
8 1350 1213 1349 1486 1451 1317 1449 1579
8 1451 1317 1450 1581 1319 1186 1318 1453
8 1454 1319 1214 1351 1582 1451 1350 1487
8 1453 1318 1452 1584 1321 1187 1320 1456
8 1454 1319 1453 1585 1344 1208 1321 1457
8 1456 1320 1455 1586 1323 1189 1324 1459
8 1457 1321 1456 1587 1322 1188 1323 1458
8 1458 1323 1459 1588 1325 1191 1326 1460
8 1205 1336 1464 1329 1328 1462 1590 1461
8 1507 1373 1461 1590 1374 1242 1328 1462
8 1508 1374 1462 1591 1375 1243 1335 1467
8 1337 1206 1329 1464 1473 1341 1463 1594
8 1375 1243 1335 1467 1465 1333 1470 1596
8 1465 1333 1470 1596 1331 1200 1334 1466
8 1352 1227 1334 1466 1488 1360 1470 1596
8 1591 1462 1336 1468 1467 1335 1471 1597
8 1469 1337 1472 1598 1595 1464 1336 1468
8 1471 1339 1474 1600 1335 1204 1338 1470
8 1600 1474 1367 1496 1470 1338 1235 1360
8 1336 1205 1340 1472 1471 1339 1475 1601
8 1337 1206 1341 1473 1472 1340 1476 1602
8 1495 1370 1478 1609 1361 1239 1342 1479
8 1348 1212 1342 1479 1483 1347 1478 1609
8 1481 1346 1479 1610 1345 1210 1343 1480
8 1481 1346 1228 1359 1610 1479 1361 1494
8 1484 1348 1214 1351 1610 1479 1343 1480
8 1483 1347 1482 1612 1350 1213 1349 1486
8 1484 1348 1483 1613 1351 1214 1350 1487
8 1353 1230 1360 1488 1489 1363 1496 1616
8 1490 1364 1231 1354 1617 1499 1363 1489
8 1490 1364 1499 1617 1355 1232 1365 1491
8 1356 1234 1365 1491 1492 1366 1500 1619
8 1492 1366 1498 1620 1357 1233 1362 1493
8 1494 1361 1228 1359 1621 1497 1362 1493
8 1495 1370 1239 1361 1622 1504 1371 1497
8 1363 1236 1367 1496 1499 1368 1501 1623
8 1497 1371 1240 1362 1624 1505 1372 1498
8 1625 1503 1372 1498 1500 1369 1241 1366
8 1365 1238 1368 1499 1500 1369 1502 1626
8 1520 1398 1506 1633 1388 1266 1373 1507
8 1634 1507 1374 1508 1512 1388 1255 1380
8 1509 1387 1519 1635 1377 1258 1391 1510
8 1405 1276 1406 1534 1509 1387 1519 1635
8 1515 1392 1260 1383 1636 1522 1390 1511
8 1511 1390 1259 1379 1636 1522 1391 1510
8 1385 1256 1389 1517 1512 1388 1520 1637
8 1513 1394 1262 1382 1638 1524 1393 1514
8 1395 1516 1638 1524 1263 1384 1513 1394
8 1515 1392 1523 1639 1383 1260 1393 1514
8 1516 1395 1526 1640 1386 1264 1396 1518
8 1386 1264 1396 1518 1517 1389 1521 1641
8 1519 1397 1527 1643 1391 1269 1400 1522
8 1535 1407 1527 1643 1406 1277 1397 1519
8 1389 1267 1399 1521 1520 1398 1528 1644
8 1645 1529 1399 1521 1525 1404 1274 1396
8 1392 1270 1400 1522 1523 1401 1531 1646
8 1524 1402 1271 1393 1648 1532 1401 1523
8 1403 1526 1648 1532 1273 1395 1524 1402
8 1525 1404 1274 1396 1649 1533 1403 1526
8 1539 1414 1535 1657 1411 1286 1406 1534
8 1542 1415 1536 1658 1414 1287 1407 1535
8 1409 1285 1412 1537 1538 1413 1540 1660
8 1545 1421 1540 1660 1418 1292 1412 1537
8 1539 1414 1286 1411 1661 1541 1413 1538
8 1540 1417 1544 1663 1413 1288 1416 1541
8 1421 1296 1425 1548 1540 1417 1544 1663
8 1542 1415 1287 1414 1664 1543 1416 1541
8 1420 1294 1423 1547 1545 1421 1548 1666
8 1547 1423 1293 1419 1667 1549 1422 1546
8 1434 1301 1427 1553 1546 1422 1549 1667
8 1423 1297 1424 1549 1548 1425 1550 1668
8 1551 1426 1550 1668 1427 1298 1424 1549
8 1551 1426 1298 1427 1671 1552 1428 1554
8 1562 1432 1554 1674 1434 1301 1427 1553
8 1431 1299 1429 1558 1554 1428 1555 1675
8 1431 1299 1430 1560 1558 1429 1557 1680
8 1560 1430 1300 1432 1683 1559 1433 1563
8 1561 1431 1554 1674 1684 1560 1432 1562
8 1685 1563 1432 1562 1565 1435 1301 1434
8 1435 1302 1436 1566 1563 1433 1564 1686
8 1437 1303 1438 1568 1565 1435 1566 1688
8 1438 1304 1439 1569 1566 1436 1567 1689
8 1440 1306 1441 1571 1568 1438 1569 1691
8 1441 1307 1442 1572 1569 1439 1570 1692
8 1443 1309 1444 1574 1571 1441 1572 1694
8 1310 1444 1572 1442 1445 1575 1695 1573
8 1446 1312 1447 1576 1574 1444 1575 1696
8 1486 1349 1485 1614 1579 1449 1577 1699
8 1451 1317 1449 1579 1581 1450 1578 1701
8 1487 1350 1486 1615 1582 1451 1579 1702
8 1581 1450 1580 1704 1453 1318 1452 1584
8 1582 1451 1581 1705 1454 1319 1453 1585
8 1584 1452 1583 1706 1456 1320 1455 1586
8 1585 1453 1584 1707 1457 1321 1456 1587
8 1587 1456 1586 1708 1458 1323 1459 1588
8 1633 1506 1589 1710 1507 1373 1461 1590
8 1464 1329 1461 1590 1594 1463 1589 1710
8 1468 1336 1462 1591 1595 1464 1590 1711
8 1634 1507 1590 1711 1508 1374 1462 1591
8 1473 1341 1463 1594 1603 1477 1593 1716
8 1469 1337 1464 1595 1599 1473 1594 1717
8 1471 1597 1467 1335 1600 1718 1596 1470
8 1718 1600 1496 1616 1596 1470 1360 1488
8 1336 1468 1597 1471 1472 1598 1719 1601
8 1469 1337 1473 1599 1598 1472 1602 1720
8 1722 1604 1501 1623 1600 1474 1367 1496
8 1475 1601 1471 1339 1604 1722 1600 1474
8 1602 1476 1605 1723 1472 1340 1475 1601
8 1476 1602 1724 1606 1341 1473 1603 1477
8 1483 1347 1478 1609 1612 1482 1608 1731
8 1495 1370 1504 1622 1609 1478 1608 1731
8 1618 1495 1609 1732 1494 1361 1479 1610
8 1484 1348 1479 1610 1613 1483 1609 1732
8 1486 1349 1482 1612 1614 1485 1611 1733
8 1613 1483 1612 1734 1487 1350 1486 1615
8 1489 1363 1496 1616 1617 1499 1623 1736
8 1491 1365 1499 1617 1619 1500 1626 1737
8 1618 1495 1361 1494 1738 1622 1497 1621
8 1739 1625 1498 1620 1619 1500 1366 1492
8 1621 1497 1362 1493 1740 1624 1498 1620
8 1742 1631 1504 1622 1624 1505 1371 1497
8 1743 1628 1502 1626 1623 1501 1368 1499
8 1744 1630 1505 1624 1625 1503 1372 1498
8 1745 1629 1503 1625 1626 1502 1369 1500
8 1520 1398 1528 1644 1633 1506 1632 1751
8 1637 1520 1633 1752 1512 1388 1507 1634
8 1635 1519 1643 1753 1510 1391 1522 1636
8 1657 1535 1643 1753 1534 1406 1519 1635
8 1515 1392 1522 1636 1639 1523 1646 1754
8 1517 1389 1521 1641 1637 1520 1644 1755
8 1524 1638 1756 1648 1393 1514 1639 1523
8 1640 1526 1395 1516 1756 1648 1524 1638
8 1642 1525 1396 1518 1757 1649 1526 1640
8 1758 1645 1521 1641 1642 1525 1396 1518
8 1646 1531 1400 1522 1760 1650 1527 1643
8 1535 1407 1536 1658 1643 1527 1650 1760
8 1521 1399 1529 1645 1644 1528 1651 1761
8 1647 1530 1652 1762 1525 1404 1529 1645
8 1401 1523 1648 1532 1531 1646 1763 1655
8 1525 1404 1533 1649 1647 1530 1654 1765
8 1533 1649 1766 1656 1403 1526 1648 1532
8 1662 1542 1658 1774 1539 1414 1535 1657
8 1542 1415 1543 1664 1658 1536 1659 1775
8 1660 1540 1663 1777 1538 1413 1541 1661
8 1545 1421 1548 1666 1660 1540 1663 1777
8 1662 1542 1414 1539 1778 1664 1541 1661
8 1664 1543 1416 1541 1779 1665 1544 1663
8 1548 1425 1550 1668 1663 1544 1665 1779
8 1547 1423 1549 1667 1666 1548 1668 1781
8 1670 1551 1668 1781 1553 1427 1549 1667
8 1551 1426 1552 1671 1668 1550 1669 1782
8 1670 1551 1427 1553 1784 1671 1554 1674
8 1675 1555 1672 1785 1554 1428 1552 1671
8 1678 1556 1673 1789 1558 1429 1555 1675
8 1561 1431 1558 1681 1674 1554 1675 1790
8 1794 1677 1556 1678 1680 1557 1429 1558
8 1560 1430 1559 1683 1680 1557 1679 1797
8 1561 1431 1560 1684 1681 1558 1680 1798
8 1563 1433 1564 1686 1683 1559 1682 1800
8 1684 1560 1432 1562 1801 1683 1563 1685
8 1565 1435 1566 1688 1685 1563 1686 1802
8 1566 1436 1567 1689 1686 1564 1687 1803
8 1568 1438 1569 1691 1688 1566 1689 1805
8 1569 1439 1570 1692 1689 1567 1690 1806
8 1571 1441 1572 1694 1691 1569 1692 1808
8 1442 1572 1692 1570 1573 1695 1809 1693
8 1574 1444 1575 1696 1694 1572 1695 1810
8 1614 1485 1592 1712 1699 1577 1697 1813
8 1579 1449 1577 1699 1701 1578 1698 1815
8 1615 1486 1614 1735 1702 1579 1699 1816
8 1701 1578 1700 1818 1581 1450 1580 1704
8 1582 1451 1579 1702 1705 1581 1701 1819
8 1704 1580 1703 1820 1584 1452 1583 1706
8 1705 1581 1704 1821 1585 1453 1584 1707
8 1707 1584 1706 1822 1587 1456 1586 1708
8 1710 1589 1506 1633 1824 1709 1632 1751
8 1594 1463 1589 1710 1716 1593 1709 1824
8 1752 1633 1710 1825 1634 1507 1590 1711
8 1595 1464 1590 1711 1717 1594 1710 1825
8 1830 1714 1592 1712 1733 1611 1485 1614
8 1603 1477 1593 1716 1725 1607 1715 1834
8 1599 1473 1594 1717 1721 1603 1716 1835
8 1837 1722 1623 1736 1718 1600 1496 1616
8 1719 1601 1722 1837 1597 1471 1600 1718
8 1602 1720 1598 1472 1723 1838 1719 1601
8 1720 1602 1473 1599 1839 1724 1603 1721
8 1723 1605 1726 1840 1601 1475 1604 1722
8 1840 1726 1628 1743 1722 1604 1501 1623
8 1724 1606 1727 1841 1602 1476 1605 1723
8 1725 1607 1728 1842 1603 1477 1606 1724
8 1612 1482 1608 1731 1733 1611 1730 1849
8 1741 1627 1730 1849 1622 1504 1608 1731
8 1613 1483 1609 1732 1734 1612 1731 1850
8 1618 1495 1622 1738 1732 1609 1731 1850
8 1615 1486 1612 1734 1735 1614 1733 1851
8 1852 1743 1626 1737 1736 1623 1499 1617
8 1853 1745 1625 1739 1737 1626 1500 1619
8 1855 1742 1622 1738 1740 1624 1497 1621
8 1856 1744 1624 1740 1739 1625 1498 1620
8 1741 1627 1504 1622 1857 1746 1631 1742
8 1742 1631 1505 1624 1858 1749 1630 1744
8 1859 1747 1629 1745 1743 1628 1502 1626
8 1860 1748 1630 1744 1745 1629 1503 1625
8 1644 1528 1651 1761 1751 1632 1750 1865
8 1637 1520 1644 1755 1752 1633 1751 1866
8 1754 1646 1522 1636 1867 1760 1643 1753
8 1657 1535 1658 1774 1753 1643 1760 1867
8 1639 1523 1646 1754 1756 1648 1763 1868
8 1641 1521 1645 1758 1755 1644 1761 1869
8 1757 1649 1526 1640 1870 1766 1648 1756
8 1642 1525 1649 1757 1759 1647 1765 1871
8 1759 1647 1762 1872 1642 1525 1645 1758
8 1760 1650 1767 1874 1646 1531 1655 1763
8 1658 1536 1659 1775 1760 1650 1767 1874
8 1762 1652 1768 1875 1645 1529 1651 1761
8 1764 1653 1769 1876 1647 1530 1652 1762
8 1656 1766 1877 1773 1532 1648 1763 1655
8 1771 1879 1765 1654 1653 1764 1647 1530
8 1533 1649 1765 1654 1656 1766 1880 1772
8 1662 1542 1664 1778 1774 1658 1775 1887
8 1664 1543 1665 1779 1775 1659 1776 1888
8 1778 1664 1541 1661 1890 1779 1663 1777
8 1666 1548 1668 1781 1777 1663 1779 1890
8 1782 1669 1780 1891 1668 1550 1665 1779
8 1670 1551 1671 1784 1781 1668 1782 1893
8 1671 1552 1672 1785 1782 1669 1783 1894
8 1790 1675 1785 1896 1674 1554 1671 1784
8 1675 1555 1673 1789 1785 1672 1786 1897
8 1792 1676 1788 1903 1678 1556 1673 1789
8 1795 1678 1789 1904 1681 1558 1675 1790
8 1792 1676 1556 1678 1906 1791 1677 1794
8 1680 1557 1679 1797 1794 1677 1793 1909
8 1910 1794 1678 1795 1798 1680 1558 1681
8 1683 1559 1682 1800 1797 1679 1796 1912
8 1684 1560 1683 1801 1798 1680 1797 1913
8 1686 1564 1687 1803 1800 1682 1799 1915
8 1685 1563 1686 1802 1801 1683 1800 1916
8 1688 1566 1689 1805 1802 1686 1803 1917
8 1689 1567 1690 1806 1803 1687 1804 1918
8 1691 1569 1692 1808 1805 1689 1806 1920
8 1692 1570 1693 1809 1806 1690 1807 1921
8 1694 1572 1695 1810 1808 1692 1809 1922
8 1829 1713 1811 1926 1712 1592 1697 1813
8 1813 1697 1812 1928 1699 1577 1698 1815
8 1735 1614 1712 1828 1816 1699 1813 1929
8 1815 1698 1814 1931 1701 1578 1700 1818
8 1702 1579 1699 1816 1819 1701 1815 1932
8 1818 1700 1817 1933 1704 1580 1703 1820
8 1819 1701 1818 1934 1705 1581 1704 1821
8 1821 1704 1820 1935 1707 1584 1706 1822
8 1824 1709 1632 1751 1937 1823 1750 1865
8 1716 1593 1709 1824 1834 1715 1823 1937
8 1825 1710 1633 1752 1938 1824 1751 1866
8 1717 1594 1710 1825 1835 1716 1824 1938
8 1945 1830 1712 1828 1851 1733 1614 1735
8 1830 1714 1831 1946 1712 1592 1713 1829
8 1947 1832 1714 1830 1849 1730 1611 1733
8 1843 1729 1607 1725 1950 1833 1715 1834
8 1721 1603 1716 1835 1836 1725 1834 1951
8 1836 1725 1842 1953 1721 1603 1724 1839
8 1723 1838 1719 1601 1840 1954 1837 1722
8 1954 1840 1743 1852 1837 1722 1623 1736
8 1724 1839 1720 1602 1841 1955 1838 1723
8 1841 1727 1844 1956 1723 1605 1726 1840
8 1956 1844 1747 1859 1840 1726 1628 1743
8 1728 1842 1724 1606 1845 1957 1841 1727
8 1725 1607 1729 1843 1842 1728 1846 1958
8 1741 1627 1746 1857 1849 1730 1848 1965
8 1734 1612 1731 1850 1851 1733 1849 1966
8 1854 1741 1849 1966 1738 1622 1731 1850
8 1967 1859 1745 1853 1852 1743 1626 1737
8 1968 1860 1744 1856 1853 1745 1625 1739
8 1854 1741 1622 1738 1969 1857 1742 1855
8 1855 1742 1624 1740 1970 1858 1744 1856
8 1857 1746 1631 1742 1971 1861 1749 1858
8 1858 1749 1630 1744 1972 1863 1748 1860
8 1859 1747 1862 1973 1745 1629 1748 1860
8 1875 1768 1864 1977 1761 1651 1750 1865
8 1755 1644 1761 1869 1866 1751 1865 1978
8 1867 1760 1874 1979 1754 1646 1763 1868
8 1774 1658 1775 1887 1867 1760 1874 1979
8 1870 1766 1648 1756 1980 1877 1763 1868
8 1872 1762 1875 1981 1758 1645 1761 1869
8 1757 1649 1766 1870 1871 1765 1880 1982
8 1983 1879 1764 1873 1871 1765 1647 1759
8 1873 1764 1876 1984 1759 1647 1762 1872
8 1877 1773 1655 1763 1986 1881 1767 1874
8 1775 1659 1776 1888 1874 1767 1881 1986
8 1876 1769 1882 1987 1762 1652 1768 1875
8 1878 1770 1883 1988 1764 1653 1769 1876
8 1880 1772 1656 1766 1989 1886 1773 1877
8 1878 1770 1653 1764 1990 1884 1771 1879
8 1765 1654 1772 1880 1879 1771 1885 1991
8 1778 1664 1779 1890 1887 1775 1888 1997
8 1998 1889 1776 1888 1891 1780 1665 1779
8 1893 1782 1891 2000 1781 1668 1779 1890
8 1894 1783 1892 2001 1782 1669 1780 1891
8 1784 1671 1785 1896 1893 1782 1894 2003
8 1897 1786 1895 2004 1785 1672 1783 1894
8 1790 1675 1789 1904 1896 1785 1897 2006
8 1901 1787 1898 2007 1789 1673 1786 1897
8 1903 1788 1900 2013 1789 1673 1787 1901
8 1792 1676 1791 1906 1903 1788 1902 2016
8 1907 1792 1903 2017 1795 1678 1789 1904
8 1906 1791 1677 1794 2019 1905 1793 1909
8 1907 1792 1678 1795 2020 1906 1794 1910
8 1797 1679 1796 1912 1909 1793 1908 2022
8 1798 1680 1797 1913 1910 1794 1909 2023
8 1800 1682 1799 1915 1912 1796 1911 2025
8 1801 1683 1800 1916 1913 1797 1912 2026
8 1803 1687 1804 1918 1915 1799 1914 2028
8 1802 1686 1803 1917 1916 1800 1915 2029
8 1805 1689 1806 1920 1917 1803 1918 2030
8 1806 1690 1807 1921 1918 1804 1919 2031
8 1808 1692 1809 1922 1920 1806 1921 2032
8 1939 1826 1924 2037 1829 1713 1811 1926
8 1926 1811 1925 2039 1813 1697 1812 1928
8 1944 1829 1926 2040 1828 1712 1813 1929
8 1928 1812 1927 2042 1815 1698 1814 1931
8 1929 1813 1928 2043 1816 1699 1815 1932
8 1931 1814 1930 2044 1818 1700 1817 1933
8 1932 1815 1931 2045 1819 1701 1818 1934
8 1934 1818 1933 2046 1821 1704 1820 1935
8 2048 1936 1823 1937 1977 1864 1750 1865
8 1950 1833 1715 1834 2048 1936 1823 1937
8 1938 1824 1751 1866 2049 1937 1865 1978
8 1835 1716 1824 1938 1951 1834 1937 2049
8 1939 1826 1713 1829 2053 1942 1831 1946
8 1940 1827 1923 2035 2053 1942 1826 1939
8 1945 1830 1946 2058 1828 1712 1829 1944
8 2059 1947 1830 1945 1966 1849 1733 1851
8 1947 1832 1730 1849 2060 1948 1848 1965
8 1947 1832 1948 2060 1830 1714 1831 1946
8 1959 1847 1729 1843 2063 1949 1833 1950
8 1952 1843 1725 1836 2064 1950 1834 1951
8 1836 1725 1843 1952 1953 1842 1958 2066
8 1953 1842 1957 2067 1839 1724 1841 1955
8 1841 1955 1838 1723 1956 2068 1954 1840
8 2068 1956 1859 1967 1954 1840 1743 1852
8 1956 1844 1960 2069 1859 1747 1862 1973
8 1845 1957 1841 1727 1960 2069 1956 1844
8 1728 1842 1957 1845 1846 1958 2071 1961
8 1962 2072 1959 1847 1846 1958 1843 1729
8 1971 1861 1964 2077 1857 1746 1848 1965
8 1854 1741 1857 1969 1966 1849 1965 2078
8 1967 1859 1973 2079 1853 1745 1860 1968
8 1970 1858 1744 1856 2080 1972 1860 1968
8 1969 1857 1742 1855 2081 1971 1858 1970
8 1971 1861 1749 1858 2082 1974 1863 1972
8 1973 1862 1975 2083 1860 1748 1863 1972
8 1987 1882 1976 2086 1875 1768 1864 1977
8 1981 1875 1977 2087 1869 1761 1865 1978
8 1980 1877 1763 1868 2088 1986 1874 1979
8 1887 1775 1888 1997 1979 1874 1986 2088
8 1880 1982 2089 1989 1766 1870 1980 1877
8 1984 1876 1987 2090 1872 1762 1875 1981
8 1765 1871 1983 1879 1880 1982 2091 1991
8 1985 1878 1764 1873 2092 1990 1879 1983
8 1985 1878 1988 2093 1873 1764 1876 1984
8 2094 1992 1881 1986 1998 1889 1776 1888
8 1986 1881 1992 2094 1877 1773 1886 1989
8 1988 1883 1993 2095 1876 1769 1882 1987
8 1878 1770 1884 1990 1988 1883 1994 2096
8 1991 1885 1772 1880 2097 1996 1886 1989
8 1879 1771 1885 1991 1990 1884 1995 2098
8 2103 1998 1888 1997 2000 1891 1779 1890
8 2104 1999 1889 1998 2001 1892 1780 1891
8 2003 1894 2001 2106 1893 1782 1891 2000
8 2004 1895 2002 2107 1894 1783 1892 2001
8 2006 1897 2004 2109 1896 1785 1894 2003
8 2007 1898 2005 2110 1897 1786 1895 2004
8 2014 1901 2007 2112 1904 1789 1897 2006
8 2011 1899 2008 2113 1901 1787 1898 2007
8 2119 2010 1899 2011 2013 1900 1787 1901
8 2016 1902 2012 2122 1903 1788 1900 2013
8 2017 1903 2013 2123 1904 1789 1901 2014
8 1906 1791 1905 2019 2016 1902 2015 2125
8 1907 1792 1906 2020 2017 1903 2016 2126
8 1909 1793 1908 2022 2019 1905 2018 2128
8 2020 1906 1794 1910 2129 2019 1909 2023
8 1912 1796 1911 2025 2022 1908 2021 2131
8 1913 1797 1912 2026 2023 1909 2022 2132
8 1915 1799 1914 2028 2025 1911 2024 2134
8 1916 1800 1915 2029 2026 1912 2025 2135
8 1918 1804 1919 2031 2028 1914 2027 2136
8 1917 1803 1918 2030 2029 1915 2028 2137
8 1920 1806 1921 2032 2030 1918 2031 2138
8 1940 1827 1941 2054 2035 1923 2033 2140
8 2035 1923 2034 2143 1939 1826 1924 2037
8 2037 1924 2036 2146 1926 1811 1925 2039
8 2051 1939 2037 2147 1944 1829 1926 2040
8 2039 1925 2038 2149 1928 1812 1927 2042
8 2040 1926 2039 2150 1929 1813 1928 2043
8 2042 1927 2041 2151 1931 1814 1930 2044
8 2043 1928 2042 2152 1932 1815 1931 2045
8 2045 1931 2044 2153 1934 1818 1933 2046
8 2155 2047 1936 2048 2086 1976 1864 1977
8 2063 1949 1833 1950 2155 2047 1936 2048
8 2156 2048 1937 2049 2087 1977 1865 1978
8 2064 1950 1834 1951 2156 2048 1937 2049
8 2051 1939 1829 1944 2160 2053 1946 2058
8 2052 1940 2035 2144 2160 2053 1939 2051
8 2053 1942 1831 1946 2163 2057 1948 2060
8 2055 1943 1827 1940 2163 2057 1942 2053
8 2055 1943 2056 2164 1940 1827 1941 2054
8 2059 1947 1849 1966 2167 2060 1965 2078
8 2059 1947 2060 2167 1945 1830 1946 2058
8 2077 1964 2061 2168 1965 1848 1948 2060
8 2070 1963 1847 1959 2170 2062 1949 2063
8 2065 1959 1843 1952 2171 2063 1950 2064
8 2173 2072 1958 2066 2065 1959 1843 1952
8 1953 1842 1958 2066 2067 1957 2071 2174
8 2068 1956 2069 2175 1967 1859 1973 2079
8 2067 1957 2069 2175 1955 1841 1956 2068
8 1845 1957 2069 1960 1961 2071 2176 2073
8 2069 1960 2073 2176 1973 1862 1975 2083
8 2070 1963 2075 2177 1959 1847 1962 2072
8 1846 1958 2071 1961 1962 2072 2178 2074
8 2077 1964 1861 1971 2182 2076 1974 2082
8 2081 1971 2077 2183 1969 1857 1965 2078
8 2079 1973 2083 2184 1968 1860 1972 2080
8 2081 1971 1858 1970 2185 2082 1972 2080
8 2083 1975 2084 2186 1972 1863 1974 2082
8 2086 1976 1882 1987 2189 2085 1993 2095
8 2090 1987 2086 2190 1981 1875 1977 2087
8 2191 2094 1986 2088 2103 1998 1888 1997
8 2088 1986 2094 2191 1980 1877 1989 2089
8 1991 2091 2192 2097 1880 1982 2089 1989
8 2093 1988 2095 2193 1984 1876 1987 2090
8 1879 1983 2092 1990 1991 2091 2194 2098
8 1985 1878 1990 2092 2093 1988 2096 2195
8 2097 1996 1886 1989 2196 2099 1992 2094
8 2196 2099 1992 2094 2104 1999 1889 1998
8 1994 2096 1988 1883 2100 2197 2095 1993
8 2096 1994 1884 1990 2198 2101 1995 2098
8 1995 2098 2199 2102 1885 1991 2097 1996
8 2203 2104 1998 2103 2106 2001 1891 2000
8 2107 2002 2105 2204 2001 1892 1999 2104
8 2109 2004 2107 2206 2003 1894 2001 2106
8 2110 2005 2108 2207 2004 1895 2002 2107
8 2112 2007 2110 2209 2006 1897 2004 2109
8 2113 2008 2111 2210 2007 1898 2005 2110
8 2120 2011 2113 2212 2014 1901 2007 2112
8 2117 2009 2114 2213 2011 1899 2008 2113
8 2219 2116 2009 2117 2119 2010 1899 2011
8 2222 2118 2010 2119 2122 2012 1900 2013
8 2223 2119 2011 2120 2123 2013 1901 2014
8 2016 1902 2015 2125 2122 2012 2121 2225
8 2126 2016 2122 2226 2017 1903 2013 2123
8 2019 1905 2018 2128 2125 2015 2124 2228
8 2020 1906 2019 2129 2126 2016 2125 2229
8 2022 1908 2021 2131 2128 2018 2127 2231
8 2023 1909 2022 2132 2129 2019 2128 2232
8 2025 1911 2024 2134 2131 2021 2130 2234
8 2026 1912 2025 2135 2132 2022 2131 2235
8 1914 2028 2134 2024 2027 2136 2236 2133
8 2029 1915 2028 2137 2135 2025 2134 2237
8 2030 1918 2031 2138 2137 2028 2136 2238
8 2157 2050 2139 2240 2054 1941 2033 2140
8 2052 1940 2054 2161 2144 2035 2140 2242
8 2140 2033 2141 2243 2035 1923 2034 2143
8 2143 2034 2142 2246 2037 1924 2036 2146
8 2144 2035 2143 2247 2051 1939 2037 2147
8 2146 2036 2145 2249 2039 1925 2038 2149
8 2147 2037 2146 2250 2040 1926 2039 2150
8 2149 2038 2148 2251 2042 1927 2041 2151
8 2150 2039 2149 2252 2043 1928 2042 2152
8 2152 2042 2151 2253 2045 1931 2044 2153
8 2255 2154 2047 2155 2189 2085 1976 2086
8 2170 2062 1949 2063 2255 2154 2047 2155
8 2256 2155 2048 2156 2190 2086 1977 2087
8 2171 2063 1950 2064 2256 2155 2048 2156
8 2258 2159 2050 2157 2164 2056 1941 2054
8 2160 2053 1946 2058 2262 2163 2060 2167
8 2162 2055 1940 2052 2262 2163 2053 2160
8 2162 2055 2164 2263 2052 1940 2054 2161
8 2163 2057 1948 2060 2264 2165 2061 2168
8 2055 1943 2057 2163 2164 2056 2165 2264
8 2182 2076 2166 2268 2077 1964 2061 2168
8 2183 2077 2168 2269 2078 1965 2060 2167
8 2070 1963 2062 2170 2177 2075 2169 2271
8 2172 2070 1959 2065 2272 2170 2063 2171
8 2172 2070 2177 2273 2065 1959 2072 2173
8 2066 1958 2072 2173 2174 2071 2178 2274
8 2067 1957 2071 2174 2175 2069 2176 2275
8 2175 2069 2176 2275 2079 1973 2083 2184
8 2071 1961 2074 2178 2176 2073 2179 2276
8 2176 2073 2179 2276 2083 1975 2084 2186
8 2072 1962 2075 2177 2178 2074 2180 2277
8 2182 2076 1974 2082 2280 2181 2084 2186
8 2183 2077 1971 2081 2281 2182 2082 2185
8 2184 2083 2186 2282 2080 1972 2082 2185
8 2189 2085 1993 2095 2285 2188 2100 2197
8 2190 2086 1987 2090 2286 2189 2095 2193
8 2192 2097 1989 2089 2287 2196 2094 2191
8 2287 2196 2094 2191 2203 2104 1998 2103
8 2194 2098 1991 2091 2288 2199 2097 2192
8 2195 2096 2197 2289 2093 1988 2095 2193
8 2096 2195 2290 2198 1990 2092 2194 2098
8 2097 1996 2099 2196 2199 2102 2200 2291
8 2196 2099 1999 2104 2291 2200 2105 2204
8 2100 2197 2292 2201 1994 2096 2198 2101
8 1995 2098 2198 2101 2102 2199 2293 2202
8 2206 2107 2204 2296 2106 2001 2104 2203
8 2207 2108 2205 2297 2107 2002 2105 2204
8 2209 2110 2207 2299 2109 2004 2107 2206
8 2210 2111 2208 2300 2110 2005 2108 2207
8 2212 2113 2210 2302 2112 2007 2110 2209
8 2213 2114 2211 2303 2113 2008 2111 2210
8 2220 2117 2213 2305 2120 2011 2113 2212
8 2216 2115 2214 2306 2117 2009 2114 2213
8 2216 2115 2009 2117 2311 2217 2116 2219
8 2219 2116 2010 2119 2314 2218 2118 2222
8 2315 2219 2117 2220 2223 2119 2011 2120
8 2122 2012 2121 2225 2222 2118 2221 2317
8 2318 2222 2119 2223 2226 2122 2013 2123
8 2125 2015 2124 2228 2225 2121 2224 2320
8 2126 2016 2125 2229 2226 2122 2225 2321
8 2128 2018 2127 2231 2228 2124 2227 2323
8 2129 2019 2128 2232 2229 2125 2228 2324
8 2131 2021 2130 2234 2231 2127 2230 2326
8 2132 2022 2131 2235 2232 2128 2231 2327
8 2134 2024 2133 2236 2234 2130 2233 2328
8 2135 2025 2134 2237 2235 2131 2234 2329
8 2137 2028 2136 2238 2237 2134 2236 2330
8 2157 2050 2158 2259 2240 2139 2239 2332
8 2257 2157 2240 2334 2161 2054 2140 2242
8 2240 2139 2241 2335 2140 2033 2141 2243
8 2242 2140 2243 2337 2144 2035 2143 2247
8 2243 2141 2244 2338 2143 2034 2142 2246
8 2246 2142 2245 2341 2146 2036 2145 2249
8 2247 2143 2246 2342 2147 2037 2146 2250
8 2249 2145 2248 2343 2149 2038 2148 2251
8 2250 2146 2249 2344 2150 2039 2149 2252
8 2252 2149 2251 2345 2152 2042 2151 2253
8 2169 2271 2347 2254 2062 2170 2255 2154
8 2189 2085 2188 2285 2255 2154 2254 2347
8 2348 2255 2155 2256 2286 2189 2086 2190
8 2272 2170 2063 2171 2348 2255 2155 2256
8 2349 2258 2157 2257 2263 2164 2054 2161
8 2258 2159 2261 2351 2157 2050 2158 2259
8 2258 2159 2056 2164 2351 2261 2165 2264
8 2262 2163 2060 2167 2355 2264 2168 2269
8 2162 2055 2163 2262 2263 2164 2264 2355
8 2357 2266 2165 2264 2268 2166 2061 2168
8 2268 2166 2076 2182 2361 2267 2181 2280
8 2281 2182 2268 2362 2183 2077 2168 2269
8 2271 2169 2270 2364 2177 2075 2180 2277
8 2172 2070 2170 2272 2273 2177 2271 2365
8 2072 2173 2274 2178 2177 2273 2366 2277
8 2071 2174 2275 2176 2178 2274 2367 2276
8 2275 2176 2276 2367 2184 2083 2186 2282
8 2283 2187 2084 2186 2368 2278 2179 2276
8 2178 2074 2180 2277 2276 2179 2278 2368
8 2283 2187 2279 2370 2186 2084 2181 2280
8 2281 2182 2082 2185 2371 2280 2186 2282
8 2188 2285 2374 2284 2100 2197 2292 2201
8 2286 2189 2095 2193 2375 2285 2197 2289
8 2192 2097 2196 2287 2288 2199 2291 2376
8 2287 2196 2104 2203 2376 2291 2204 2296
8 2194 2098 2199 2288 2290 2198 2293 2377
8 2289 2197 2096 2195 2378 2292 2198 2290
8 2291 2200 2105 2204 2379 2294 2205 2297
8 2199 2102 2200 2291 2293 2202 2294 2379
8 2198 2101 2202 2293 2292 2201 2295 2380
8 2299 2207 2297 2383 2206 2107 2204 2296
8 2300 2208 2298 2384 2207 2108 2205 2297
8 2302 2210 2300 2386 2209 2110 2207 2299
8 2303 2211 2301 2387 2210 2111 2208 2300
8 2305 2213 2303 2389 2212 2113 2210 2302
8 2306 2214 2304 2390 2213 2114 2211 2303
8 2310 2216 2306 2392 2220 2117 2213 2305
8 2308 2215 2307 2393 2216 2115 2214 2306
8 2308 2215 2115 2216 2396 2309 2217 2311
8 2310 2216 2117 2220 2398 2311 2219 2315
8 2311 2217 2116 2219 2399 2312 2218 2314
8 2314 2218 2118 2222 2402 2313 2221 2317
8 2315 2219 2119 2223 2403 2314 2222 2318
8 2225 2121 2224 2320 2317 2221 2316 2405
8 2226 2122 2225 2321 2318 2222 2317 2406
8 2228 2124 2227 2323 2320 2224 2319 2408
8 2229 2125 2228 2324 2321 2225 2320 2409
8 2231 2127 2230 2326 2323 2227 2322 2411
8 2232 2128 2231 2327 2324 2228 2323 2412
8 2234 2130 2233 2328 2326 2230 2325 2413
8 2235 2131 2234 2329 2327 2231 2326 2414
8 2237 2134 2236 2330 2329 2234 2328 2415
8 2259 2158 2260 2352 2332 2239 2331 2417
8 2257 2157 2259 2350 2334 2240 2332 2419
8 2240 2139 2239 2332 2335 2241 2333 2420
8 2334 2240 2335 2422 2242 2140 2243 2337
8 2335 2241 2336 2423 2243 2141 2244 2338
8 2337 2243 2338 2425 2247 2143 2246 2342
8 2338 2244 2339 2426 2246 2142 2245 2341
8 2341 2245 2340 2428 2249 2145 2248 2343
8 2342 2246 2341 2429 2250 2146 2249 2344
8 2344 2249 2343 2430 2252 2149 2251 2345
8 2188 2285 2347 2254 2284 2374 2432 2346
8 2347 2254 2346 2432 2271 2169 2270 2364
8 2365 2271 2170 2272 2433 2347 2255 2348
8 2286 2189 2285 2375 2348 2255 2347 2433
8 2349 2258 2351 2435 2257 2157 2259 2350
8 2349 2258 2164 2263 2435 2351 2264 2355
8 2259 2158 2261 2351 2352 2260 2354 2437
8 2356 2265 2354 2437 2264 2165 2261 2351
8 2441 2357 2264 2355 2362 2268 2168 2269
8 2356 2265 2165 2264 2442 2358 2266 2357
8 2443 2359 2266 2357 2361 2267 2166 2268
8 2370 2279 2360 2446 2280 2181 2267 2361
8 2362 2268 2182 2281 2447 2361 2280 2371
8 2180 2277 2368 2278 2270 2364 2449 2363
8 2271 2365 2273 2177 2364 2450 2366 2277
8 2372 2283 2186 2282 2451 2368 2276 2367
8 2178 2274 2367 2276 2277 2366 2451 2368
8 2283 2187 2278 2368 2370 2279 2369 2452
8 2372 2283 2370 2453 2282 2186 2280 2371
8 2284 2374 2455 2373 2201 2292 2380 2295
8 2375 2285 2197 2289 2456 2374 2292 2378
8 2376 2291 2204 2296 2457 2379 2297 2383
8 2288 2199 2291 2376 2377 2293 2379 2457
8 2198 2290 2378 2292 2293 2377 2458 2380
8 2293 2202 2294 2379 2380 2295 2381 2459
8 2384 2298 2381 2459 2297 2205 2294 2379
8 2386 2300 2384 2463 2299 2207 2297 2383
8 2387 2301 2385 2464 2300 2208 2298 2384
8 2389 2303 2387 2466 2302 2210 2300 2386
8 2390 2304 2388 2467 2303 2211 2301 2387
8 2392 2306 2390 2469 2305 2213 2303 2389
8 2393 2307 2391 2470 2306 2214 2304 2390
8 2395 2308 2393 2472 2310 2216 2306 2392
8 2308 2215 2309 2396 2393 2307 2394 2473
8 2395 2308 2216 2310 2475 2396 2311 2398
8 2396 2309 2217 2311 2476 2397 2312 2399
8 2398 2311 2219 2315 2478 2399 2314 2403
8 2399 2312 2218 2314 2479 2400 2313 2402
8 2317 2221 2316 2405 2402 2313 2401 2482
8 2403 2314 2222 2318 2483 2402 2317 2406
8 2320 2224 2319 2408 2405 2316 2404 2485
8 2321 2225 2320 2409 2406 2317 2405 2486
8 2323 2227 2322 2411 2408 2319 2407 2488
8 2324 2228 2323 2412 2409 2320 2408 2489
8 2326 2230 2325 2413 2411 2322 2410 2490
8 2327 2231 2326 2414 2412 2323 2411 2491
8 2329 2234 2328 2415 2414 2326 2413 2492
8 2417 2331 2260 2352 2494 2416 2353 2438
8 2350 2259 2352 2436 2419 2332 2417 2496
8 2332 2239 2331 2417 2420 2333 2418 2497
8 2334 2240 2332 2419 2422 2335 2420 2499
8 2420 2333 2421 2500 2335 2241 2336 2423
8 2422 2335 2423 2502 2337 2243 2338 2425
8 2423 2336 2424 2503 2338 2244 2339 2426
8 2425 2338 2426 2505 2342 2246 2341 2429
8 2426 2339 2427 2506 2341 2245 2340 2428
8 2429 2341 2428 2507 2344 2249 2343 2430
8 2432 2346 2284 2374 2509 2431 2373 2455
8 2432 2346 2431 2509 2364 2270 2363 2449
8 2375 2285 2374 2456 2433 2347 2432 2510
8 2347 2433 2365 2271 2432 2510 2450 2364
8 2350 2259 2351 2435 2436 2352 2437 2514
8 2440 2356 2437 2514 2355 2264 2351 2435
8 2352 2260 2354 2437 2438 2353 2439 2516
8 2356 2265 2358 2442 2437 2354 2439 2516
8 2440 2356 2264 2355 2518 2442 2357 2441
8 2519 2443 2357 2441 2447 2361 2268 2362
8 2443 2359 2444 2520 2357 2266 2358 2442
8 2443 2359 2267 2361 2520 2444 2360 2446
8 2446 2360 2279 2370 2523 2445 2369 2452
8 2453 2370 2446 2524 2371 2280 2361 2447
8 2449 2363 2448 2525 2368 2278 2369 2452
8 2366 2277 2364 2450 2451 2368 2449 2526
8 2372 2283 2368 2451 2453 2370 2452 2527
8 2455 2373 2295 2380 2529 2454 2382 2460
8 2456 2374 2292 2378 2530 2455 2380 2458
8 2377 2293 2379 2457 2458 2380 2459 2531
8 2463 2384 2459 2531 2383 2297 2379 2457
8 2533 2461 2382 2460 2459 2381 2295 2380
8 2464 2385 2461 2533 2384 2298 2381 2459
8 2466 2387 2464 2537 2386 2300 2384 2463
8 2467 2388 2465 2538 2387 2301 2385 2464
8 2469 2390 2467 2540 2389 2303 2387 2466
8 2470 2391 2468 2541 2390 2304 2388 2467
8 2472 2393 2470 2543 2392 2306 2390 2469
8 2393 2307 2394 2473 2470 2391 2471 2544
8 2395 2308 2396 2475 2472 2393 2473 2546
8 2396 2309 2397 2476 2473 2394 2474 2547
8 2475 2396 2311 2398 2549 2476 2399 2478
8 2476 2397 2312 2399 2550 2477 2400 2479
8 2478 2399 2314 2403 2552 2479 2402 2483
8 2479 2400 2313 2402 2553 2480 2401 2482
8 2405 2316 2404 2485 2482 2401 2481 2556
8 2406 2317 2405 2486 2483 2402 2482 2557
8 2408 2319 2407 2488 2485 2404 2484 2559
8 2409 2320 2408 2489 2486 2405 2485 2560
8 2411 2322 2410 2490 2488 2407 2487 2561
8 2412 2323 2411 2491 2489 2408 2488 2562
8 2414 2326 2413 2492 2491 2411 2490 2563
8 2513 2434 2493 2565 2438 2353 2416 2494
8 2496 2417 2352 2436 2567 2494 2438 2515
8 2494 2416 2495 2568 2417 2331 2418 2497
8 2419 2332 2417 2496 2499 2420 2497 2570
8 2497 2418 2498 2571 2420 2333 2421 2500
8 2499 2420 2500 2573 2422 2335 2423 2502
8 2500 2421 2501 2574 2423 2336 2424 2503
8 2502 2423 2503 2576 2425 2338 2426 2505
8 2503 2424 2504 2577 2426 2339 2427 2506
8 2505 2426 2506 2578 2429 2341 2428 2507
8 2509 2431 2373 2455 2580 2508 2454 2529
8 2509 2431 2508 2580 2449 2363 2448 2525
8 2432 2510 2581 2509 2374 2456 2530 2455
8 2432 2510 2450 2364 2509 2581 2526 2449
8 2583 2511 2434 2513 2516 2439 2353 2438
8 2436 2352 2437 2514 2515 2438 2516 2588
8 2440 2356 2442 2518 2514 2437 2516 2588
8 2442 2358 2444 2520 2516 2439 2517 2589
8 2519 2443 2520 2591 2441 2357 2442 2518
8 2519 2443 2361 2447 2591 2520 2446 2524
8 2446 2360 2445 2523 2520 2444 2521 2592
8 2525 2448 2522 2593 2452 2369 2445 2523
8 2524 2446 2370 2453 2594 2523 2452 2527
8 2526 2449 2525 2595 2451 2368 2452 2527
8 2534 2462 2528 2597 2460 2382 2454 2529
8 2530 2455 2380 2458 2598 2529 2460 2532
8 2599 2533 2460 2532 2531 2459 2380 2458
8 2537 2464 2533 2599 2463 2384 2459 2531
8 2534 2462 2382 2460 2601 2535 2461 2533
8 2538 2465 2535 2601 2464 2385 2461 2533
8 2540 2467 2538 2604 2466 2387 2464 2537
8 2541 2468 2539 2605 2467 2388 2465 2538
8 2543 2470 2541 2607 2469 2390 2467 2540
8 2470 2391 2471 2544 2541 2468 2542 2608
8 2472 2393 2473 2546 2543 2470 2544 2610
8 2473 2394 2474 2547 2544 2471 2545 2611
8 2475 2396 2476 2549 2546 2473 2547 2613
8 2476 2397 2477 2550 2547 2474 2548 2614
8 2549 2476 2399 2478 2616 2550 2479 2552
8 2479 2400 2480 2553 2550 2477 2551 2617
8 2552 2479 2402 2483 2619 2553 2482 2557
8 2482 2401 2481 2556 2553 2480 2554 2620
8 2485 2404 2484 2559 2556 2481 2555 2623
8 2486 2405 2485 2560 2557 2482 2556 2624
8 2488 2407 2487 2561 2559 2484 2558 2625
8 2489 2408 2488 2562 2560 2485 2559 2626
8 2491 2411 2490 2563 2562 2488 2561 2627
8 2513 2434 2512 2585 2565 2493 2564 2630
8 2586 2513 2565 2632 2515 2438 2494 2567
8 2565 2493 2566 2633 2494 2416 2495 2568
8 2567 2494 2568 2635 2496 2417 2497 2570
8 2568 2495 2569 2636 2497 2418 2498 2571
8 2570 2497 2571 2638 2499 2420 2500 2573
8 2571 2498 2572 2639 2500 2421 2501 2574
8 2573 2500 2574 2641 2502 2423 2503 2576
8 2574 2501 2575 2642 2503 2424 2504 2577
8 2576 2503 2577 2643 2505 2426 2506 2578
8 2597 2528 2579 2645 2529 2454 2508 2580
8 2580 2508 2579 2645 2525 2448 2522 2593
8 2581 2509 2455 2530 2646 2580 2529 2598
8 2581 2509 2580 2646 2526 2449 2525 2595
8 2583 2511 2582 2648 2513 2434 2512 2585
8 2583 2511 2439 2516 2648 2582 2517 2589
8 2649 2583 2513 2586 2588 2516 2438 2515
8 2589 2517 2444 2520 2653 2587 2521 2592
8 2518 2442 2520 2591 2588 2516 2589 2654
8 2593 2522 2590 2655 2523 2445 2521 2592
8 2524 2446 2523 2594 2591 2520 2592 2656
8 2595 2525 2593 2657 2527 2452 2523 2594
8 2602 2536 2596 2659 2534 2462 2528 2597
8 2600 2534 2597 2660 2532 2460 2529 2598
8 2600 2534 2460 2532 2661 2601 2533 2599
8 2604 2538 2601 2661 2537 2464 2533 2599
8 2602 2536 2462 2534 2663 2603 2535 2601
8 2601 2535 2465 2538 2663 2603 2539 2605
8 2607 2541 2605 2665 2540 2467 2538 2604
8 2608 2542 2606 2666 2541 2468 2539 2605
8 2543 2470 2544 2610 2607 2541 2608 2668
8 2544 2471 2545 2611 2608 2542 2609 2669
8 2546 2473 2547 2613 2610 2544 2611 2671
8 2547 2474 2548 2614 2611 2545 2612 2672
8 2549 2476 2550 2616 2613 2547 2614 2674
8 2550 2477 2551 2617 2614 2548 2615 2675
8 2552 2479 2553 2619 2616 2550 2617 2677
8 2553 2480 2554 2620 2617 2551 2618 2678
8 2557 2482 2556 2624 2619 2553 2620 2680
8 2556 2481 2555 2623 2620 2554 2621 2681
8 2559 2484 2558 2625 2623 2555 2622 2683
8 2560 2485 2559 2626 2624 2556 2623 2684
8 2562 2488 2561 2627 2626 2559 2625 2685
8 2690 2629 2564 2630 2650 2584 2512 2585
8 2586 2513 2585 2651 2632 2565 2630 2691
8 2630 2564 2631 2692 2565 2493 2566 2633
8 2632 2565 2633 2694 2567 2494 2568 2635
8 2633 2566 2634 2695 2568 2495 2569 2636
8 2635 2568 2636 2697 2570 2497 2571 2638
8 2636 2569 2637 2698 2571 2498 2572 2639
8 2638 2571 2639 2700 2573 2500 2574 2641
8 2639 2572 2640 2701 2574 2501 2575 2642
8 2641 2574 2642 2702 2576 2503 2577 2643
8 2597 2528 2596 2659 2645 2579 2644 2704
8 2645 2579 2644 2704 2593 2522 2590 2655
8 2660 2597 2645 2705 2598 2529 2580 2646
8 2646 2580 2645 2705 2595 2525 2593 2657
8 2650 2584 2512 2585 2707 2647 2582 2648
8 2648 2582 2517 2589 2707 2647 2587 2653
8 2649 2583 2648 2708 2586 2513 2585 2651
8 2649 2583 2516 2588 2708 2648 2589 2654
8 2655 2590 2652 2710 2592 2521 2587 2653
8 2654 2589 2520 2591 2711 2653 2592 2656
8 2657 2593 2655 2712 2594 2523 2592 2656
8 2602 2536 2603 2663 2659 2596 2658 2714
8 2662 2602 2659 2715 2600 2534 2597 2660
8 2662 2602 2534 2600 2717 2663 2601 2661
8 2661 2601 2538 2604 2717 2663 2605 2665
8 2666 2606 2664 2718 2605 2539 2603 2663
8 2668 2608 2666 2720 2607 2541 2605 2665
8 2608 2542 2609 2669 2666 2606 2667 2721
8 2610 2544 2611 2671 2668 2608 2669 2723
8 2611 2545 2612 2672 2669 2609 2670 2724
8 2613 2547 2614 2674 2671 2611 2672 2726
8 2614 2548 2615 2675 2672 2612 2673 2727
8 2616 2550 2617 2677 2674 2614 2675 2729
8 2617 2551 2618 2678 2675 2615 2676 2730
8 2619 2553 2620 2680 2677 2617 2678 2732
8 2620 2554 2621 2681 2678 2618 2679 2733
8 2624 2556 2623 2684 2680 2620 2681 2735
8 2681 2621 2555 2623 2736 2682 2622 2683
8 2626 2559 2625 2685 2684 2623 2683 2737
8 2688 2628 2584 2650 2740 2686 2647 2707
8 2688 2628 2687 2742 2650 2584 2629 2690
8 2690 2629 2689 2745 2630 2564 2631 2692
8 2746 2690 2630 2691 2709 2650 2585 2651
8 2691 2630 2692 2747 2632 2565 2633 2694
8 2692 2631 2693 2748 2633 2566 2634 2695
8 2694 2633 2695 2750 2635 2568 2636 2697
8 2695 2634 2696 2751 2636 2569 2637 2698
8 2697 2636 2698 2753 2638 2571 2639 2700
8 2698 2637 2699 2754 2639 2572 2640 2701
8 2700 2639 2701 2755 2641 2574 2642 2702
8 2659 2596 2658 2714 2704 2644 2703 2757
8 2704 2644 2703 2757 2655 2590 2652 2710
8 2660 2597 2659 2715 2705 2645 2704 2758
8 2705 2645 2704 2758 2657 2593 2655 2712
8 2759 2706 2647 2707 2710 2652 2587 2653
8 2709 2650 2585 2651 2760 2707 2648 2708
8 2708 2648 2589 2654 2760 2707 2653 2711
8 2712 2655 2710 2761 2656 2592 2653 2711
8 2763 2713 2658 2714 2718 2664 2603 2663
8 2662 2602 2663 2717 2715 2659 2714 2764
8 2720 2666 2718 2767 2665 2605 2663 2717
8 2768 2719 2664 2718 2721 2667 2606 2666
8 2668 2608 2669 2723 2720 2666 2721 2770
8 2669 2609 2670 2724 2721 2667 2722 2771
8 2671 2611 2672 2726 2723 2669 2724 2773
8 2672 2612 2673 2727 2724 2670 2725 2774
8 2674 2614 2675 2729 2726 2672 2727 2776
8 2675 2615 2676 2730 2727 2673 2728 2777
8 2677 2617 2678 2732 2729 2675 2730 2779
8 2678 2618 2679 2733 2730 2676 2731 2780
8 2680 2620 2681 2735 2732 2678 2733 2782
8 2733 2679 2621 2681 2783 2734 2682 2736
8 2735 2681 2623 2684 2784 2736 2683 2737
8 2740 2686 2647 2707 2787 2738 2706 2759
8 2688 2628 2686 2740 2742 2687 2739 2789
8 2743 2688 2650 2709 2790 2740 2707 2760
8 2742 2687 2741 2792 2690 2629 2689 2745
8 2743 2688 2742 2793 2709 2650 2690 2746
8 2745 2689 2744 2795 2692 2631 2693 2748
8 2746 2690 2745 2796 2691 2630 2692 2747
8 2747 2692 2748 2797 2694 2633 2695 2750
8 2748 2693 2749 2798 2695 2634 2696 2751
8 2750 2695 2751 2800 2697 2636 2698 2753
8 2751 2696 2752 2801 2698 2637 2699 2754
8 2753 2698 2754 2802 2700 2639 2701 2755
8 2763 2713 2756 2804 2714 2658 2703 2757
8 2759 2706 2652 2710 2804 2756 2703 2757
8 2715 2659 2714 2764 2758 2704 2757 2805
8 2758 2704 2757 2805 2712 2655 2710 2761
8 2806 2759 2707 2760 2761 2710 2653 2711
8 2765 2716 2762 2808 2718 2664 2713 2763
8 2809 2763 2714 2764 2767 2718 2663 2717
8 2765 2716 2664 2718 2811 2766 2719 2768
8 2813 2768 2718 2767 2770 2721 2666 2720
8 2814 2769 2719 2768 2771 2722 2667 2721
8 2723 2669 2724 2773 2770 2721 2771 2816
8 2724 2670 2725 2774 2771 2722 2772 2817
8 2726 2672 2727 2776 2773 2724 2774 2819
8 2727 2673 2728 2777 2774 2725 2775 2820
8 2729 2675 2730 2779 2776 2727 2777 2822
8 2730 2676 2731 2780 2777 2728 2778 2823
8 2732 2678 2733 2782 2779 2730 2780 2825
8 2780 2731 2679 2733 2826 2781 2734 2783
8 2782 2733 2681 2735 2827 2783 2736 2784
8 2830 2785 2738 2787 2804 2756 2706 2759
8 2789 2739 2686 2740 2832 2786 2738 2787
8 2790 2740 2707 2760 2833 2787 2759 2806
8 2742 2687 2739 2789 2792 2741 2788 2835
8 2743 2688 2740 2790 2793 2742 2789 2836
8 2792 2741 2791 2838 2745 2689 2744 2795
8 2793 2742 2792 2839 2746 2690 2745 2796
8 2795 2744 2794 2841 2748 2693 2749 2798
8 2796 2745 2795 2842 2747 2692 2748 2797
8 2797 2748 2798 2843 2750 2695 2751 2800
8 2798 2749 2799 2844 2751 2696 2752 2801
8 2800 2751 2801 2845 2753 2698 2754 2802
8 2808 2762 2803 2847 2763 2713 2756 2804
8 2809 2763 2804 2848 2764 2714 2757 2805
8 2806 2759 2710 2761 2848 2804 2757 2805
8 2765 2716 2766 2811 2808 2762 2807 2850
8 2810 2765 2808 2851 2767 2718 2763 2809
8 2810 2765 2718 2767 2852 2811 2768 2813
8 2811 2766 2719 2768 2853 2812 2769 2814
8 2855 2814 2768 2813 2816 2771 2721 2770
8 2856 2815 2769 2814 2817 2772 2722 2771
8 2773 2724 2774 2819 2816 2771 2817 2858
8 2774 2725 2775 2820 2817 2772 2818 2859
8 2776 2727 2777 2822 2819 2774 2820 2861
8 2777 2728 2778 2823 2820 2775 2821 2862
8 2779 2730 2780 2825 2822 2777 2823 2864
8 2823 2778 2731 2780 2865 2824 2781 2826
8 2825 2780 2733 2782 2866 2826 2783 2827
8 2869 2828 2785 2830 2847 2803 2756 2804
8 2871 2829 2786 2832 2830 2785 2738 2787
8 2872 2830 2787 2833 2848 2804 2759 2806
8 2789 2739 2786 2832 2835 2788 2831 2874
8 2836 2789 2740 2790 2875 2832 2787 2833
8 2792 2741 2788 2835 2838 2791 2834 2877
8 2793 2742 2789 2836 2839 2792 2835 2878
8 2838 2791 2837 2880 2795 2744 2794 2841
8 2839 2792 2838 2881 2796 2745 2795 2842
8 2841 2794 2840 2882 2798 2749 2799 2844
8 2842 2795 2841 2883 2797 2748 2798 2843
8 2843 2798 2844 2884 2800 2751 2801 2845
8 2886 2846 2803 2847 2850 2807 2762 2808
8 2851 2808 2847 2887 2809 2763 2804 2848
8 2850 2807 2766 2811 2889 2849 2812 2853
8 2810 2765 2811 2852 2851 2808 2850 2890
8 2852 2811 2768 2813 2891 2853 2814 2855
8 2853 2812 2769 2814 2892 2854 2815 2856
8 2894 2856 2814 2855 2858 2817 2771 2816
8 2817 2772 2818 2859 2856 2815 2857 2895
8 2819 2774 2820 2861 2858 2817 2859 2897
8 2820 2775 2821 2862 2859 2818 2860 2898
8 2822 2777 2823 2864 2861 2820 2862 2900
8 2823 2778 2824 2865 2862 2821 2863 2901
8 2864 2823 2780 2825 2902 2865 2826 2866
8 2904 2867 2828 2869 2886 2846 2803 2847
8 2869 2828 2868 2906 2830 2785 2829 2871
8 2907 2869 2830 2872 2887 2847 2804 2848
8 2871 2829 2870 2909 2832 2786 2831 2874
8 2910 2871 2832 2875 2872 2830 2787 2833
8 2835 2788 2831 2874 2877 2834 2873 2912
8 2836 2789 2832 2875 2878 2835 2874 2913
8 2877 2834 2876 2915 2838 2791 2837 2880
8 2839 2792 2835 2878 2881 2838 2877 2916
8 2880 2837 2879 2917 2841 2794 2840 2882
8 2881 2838 2880 2918 2842 2795 2841 2883
8 2883 2841 2882 2919 2843 2798 2844 2884
8 2921 2885 2846 2886 2889 2849 2807 2850
8 2922 2886 2847 2887 2890 2850 2808 2851
8 2889 2849 2812 2853 2924 2888 2854 2892
8 2890 2850 2811 2852 2925 2889 2853 2891
8 2891 2853 2814 2855 2926 2892 2856 2894
8 2892 2854 2815 2856 2927 2893 2857 2895
8 2858 2817 2859 2897 2894 2856 2895 2929
8 2859 2818 2860 2898 2895 2857 2896 2930
8 2861 2820 2862 2900 2897 2859 2898 2932
8 2862 2821 2863 2901 2898 2860 2899 2933
8 2864 2823 2865 2902 2900 2862 2901 2934
8 2904 2867 2846 2886 2936 2903 2885 2921
8 2904 2867 2903 2936 2869 2828 2868 2906
8 2937 2904 2869 2907 2922 2886 2847 2887
8 2906 2868 2905 2939 2871 2829 2870 2909
8 2907 2869 2906 2940 2872 2830 2871 2910
8 2909 2870 2908 2942 2874 2831 2873 2912
8 2910 2871 2909 2943 2875 2832 2874 2913
8 2912 2873 2911 2945 2877 2834 2876 2915
8 2878 2835 2874 2913 2916 2877 2912 2946
8 2915 2876 2914 2947 2880 2837 2879 2917
8 2916 2877 2915 2948 2881 2838 2880 2918
8 2918 2880 2917 2949 2883 2841 2882 2919
8 2921 2885 2849 2889 2951 2920 2888 2924
8 2952 2921 2886 2922 2925 2889 2850 2890
8 2924 2888 2854 2892 2954 2923 2893 2927
8 2925 2889 2853 2891 2955 2924 2892 2926
8 2926 2892 2856 2894 2956 2927 2895 2929
8 2895 2857 2896 2930 2927 2893 2928 2957
8 2897 2859 2898 2932 2929 2895 2930 2959
8 2898 2860 2899 2933 2930 2896 2931 2960
8 2900 2862 2901 2934 2932 2898 2933 2961
8 2936 2903 2885 2921 2963 2935 2920 2951
8 2936 2903 2935 2963 2906 2868 2905 2939
8 2937 2904 2886 2922 2964 2936 2921 2952
8 2937 2904 2936 2964 2907 2869 2906 2940
8 2939 2905 2938 2966 2909 2870 2908 2942
8 2940 2906 2939 2967 2910 2871 2909 2943
8 2942 2908 2941 2969 2912 2873 2911 2945
8 2943 2909 2942 2970 2913 2874 2912 2946
8 2945 2911 2944 2971 2915 2876 2914 2947
8 2946 2912 2945 2972 2916 2877 2915 2948
8 2948 2915 2947 2973 2918 2880 2917 2949
8 2951 2920 2888 2924 2975 2950 2923 2954
8 2952 2921 2889 2925 2976 2951 2924 2955
8 2927 2893 2928 2957 2954 2923 2953 2978
8 2955 2924 2892 2926 2979 2954 2927 2956
8 2929 2895 2930 2959 2956 2927 2957 2980
8 2930 2896 2931 2960 2957 2928 2958 2981
8 2932 2898 2933 2961 2959 2930 2960 2982
8 2951 2920 2950 2975 2963 2935 2962 2984
8 2963 2935 2962 2984 2939 2905 2938 2966
8 2964 2936 2921 2952 2985 2963 2951 2976
8 2964 2936 2963 2985 2940 2906 2939 2967
8 2966 2938 2965 2987 2942 2908 2941 2969
8 2967 2939 2966 2988 2943 2909 2942 2970
8 2969 2941 2968 2989 2945 2911 2944 2971
8 2970 2942 2969 2990 2946 2912 2945 2972
8 2972 2945 2971 2991 2948 2915 2947 2973
8 2954 2923 2953 2978 2975 2950 2974 2993
8 2976 2951 2924 2955 2994 2975 2954 2979
8 2957 2928 2958 2981 2978 2953 2977 2995
8 2956 2927 2957 2980 2979 2954 2978 2996
8 2959 2930 2960 2982 2980 2957 2981 2997
8 2984 2962 2983 2999 2966 2938 2965 2987
8 2975 2950 2974 2993 2984 2962 2983 2999
8 2976 2951 2975 2994 2985 2963 2984 3000
8 2985 2963 2984 3000 2967 2939 2966 2988
8 2987 2965 2986 3001 2969 2941 2968 2989
8 2988 2966 2987 3002 2970 2942 2969 2990
8 2990 2969 2989 3003 2972 2945 2971 2991
8 2978 2953 2977 2995 2993 2974 2992 3004
8 2979 2954 2978 2996 2994 2975 2993 3005
8 2980 2957 2981 2997 2996 2978 2995 3006
8 2974 2993 2999 2983 2992 3004 3007 2998
8 2983 2999 2987 2965 2998 3007 3001 2986
8 3000 2984 2999 3008 2988 2966 2987 3002
8 2994 2975 2993 3005 3000 2984 2999 3008
8 3002 2987 3001 3009 2990 2969 2989 3003
8 2996 2978 2995 3006 3005 2993 3004 3010
8 3005 2993 3004 3010 3008 2999 3007 3011
8 3008 2999 3007 3011 3002 2987 3001 3009

CELL_TYPES 1910
12
12
12
12
12
12
12
12
12
12
12
12
12
12
12
12
12
12
12
12
12
12
12
12
12
12
12
12
12
12
12
12
12
12
12
12
12
12
12
12
12
12
12
12
12
12
12
12
12
12
12
12
12
12
12
12
12
12
12
12
12
12
12
12
12
12
12
12
12
12
12
12
12
12
12
12
12
12
12
12
12
12
12
12
12
12
12
12
12
12
12
12
12
12
12
12
12
12
12
12
12
12
12
12
12
12
12
12
12
12
12
12
12
12
12
12
12
12
12
12
12
12
12
12
12
12
12
12
12
12
12
12
12
12
12
12
12
12
12
12
12
12
12
12
12
12
12
12
12
12
12
12
12
12
12
12
12
12
12
12
12
12
12
12
12
12
12
12
12
12
12
12
12
12
12
12
12
12
12
12
12
12
12
12
12
12
12
12
12
12
12
12
12
12
12
12
12
12
12
12
12
12
12
12
12
12
12
12
12
12
12
12
12
12
12
12
12
12
12
12
12
12
12
12
12
12
12
12
12
12
12
12
12
12
12
12
12
12
12
12
12
12
12
12
12
12
12
12
12
12
12
12
12
12
12
12
12
12
12
12
12
12
12
12
12
12
12
12
12
12
12
12
12
12
12
12
12
12
12
12
12
12
12
12
12
12
12
12
12
12
12
12
12
12
12
12
12
12
12
12
12
12
12
12
12
12
12
12
12
12
12
12
12
12
12
12
12
12
12
12
12
12
12
12
12
12
12
12
12
12
12
12
12
12
12
12
12
12
12
12
12
12
12
12
12
12
12
12
12
12
12
12
12
12
12
12
12
12
12
12
12
12
12
12
12
12
12
12
12
12
12
12
12
12
12
12
12
12
12
12
12
12
12
12
12
12
12
12
12
12
12
12
12
12
12
12
12
12
12
12
12
12
12
12
12
12
12
12
12
12
12
12
12
12
12
12
12
12
12
12
12
12
12
12
12
12
12
12
12
12
12
12
12
12
12
12
12
12
12
12
12
12
12
12
12
12
12
12
12
12
12
12
12
12
12
12
12
12
12
12
12
12
12
12
12
12
12
12
12
12
12
12
12
12
12
12
12
12
12
12
12
12
12
12
12
12
12
12
12
12
12
12
12
12
12
12
12
12
12
12
12
12
12
12
12
12
12
12
12
12
12
12
12
12
12
12
12
12
12
12
12
12
12
12
12
12
12
12
12
12
12
12
12
12
12
12
12
12
12
12
12
12
12
12
12
12
12
12
12
12
12
12
12
12
12
12
12
12
12
12
12
12
12
12
12
12
12
12
12
12
12
12
12
12
12
12
12
12
12
12
12
12
12
12
12
12
12
12
12
12
12
12
12
12
12
12
12
12
12
12
12
12
12
12
12
12
12
12
12
12
12
12
12
12
12
12
12
12
12
12
12
12
12
12
12
12
12
12
12
12
12
12
12
12
12
12
12
12
12
12
12
12
12
12
12
12
12
12
12
12
12
12
12
12
12
12
12
12
12
12
12
12
12
12
12
12
12
12
12
12
12
12
12
12
12
12
12
12
12
12
12
12
12
12
12
12
12
12
12
12
12
12
12
12
12
12
12
12
12
12
12
12
12
12
12
12
12
12
12
12
12
12
12
12
12
12
12
12
12
12
12
12
12
12
12
12
12
12
12
12
12
12
12
12
12
12
12
12
12
12
12
12
12
12
12
12
12
12
12
12
12
12
12
12
12
12
12
12
12
12
12
12
12
12
12
12
12
12
12
12
12
12
12
12
12
12
12
12
12
12
12
12
12
12
12
12
12
12
12
12
12
12
12
12
12
12
12
12
12
12
12
12
12
12
12
12
12
12
12
12
12
12
12
12
12
12
12
12
12
12
12
12
12
12
12
12
12
12
12
12
12
12
12
12
12
12
12
12
12
12
12
12
12
12
12
12
12
12
12
12
12
12
12
12
12
12
12
12
12
12
12
12
12
12
12
12
12
12
12
12
12
12
12
12
12
12
12
12
12
12
12
12
12
12
12
12
12
12
12
12
12
12
12
12
12
12
12
12
12
12
12
12
12
12
12
12
12
12
12
12
12
12
12
12
12
12
12
12
12
12
12
12
12
12
12
12
12
12
12
12
12
12
12
12
12
12
12
12
12
12
12
12
12
12
12
12
12
12
12
12
12
12
12
12
12
12
12
12
12
12
12
12
12
12
12
12
12
12
12
12
12
12
12
12
12
12
12
12
12
12
12
12
12
12
12
12
12
12
12
12
12
12
12
12
12
12
12
12
12
12
12
12
12
12
12
12
12
12
12
12
12
12
12
12
12
12
12
12
12
12
12
12
12
12
12
12
12
12
12
12
12
12
12
12
12
12
12
12
12
12
12
12
12
12
12
12
12
12
12
12
12
12
12
12
12
12
12
12
12
12
12
12
12
12
12
12
12
12
12
12
12
12
12
12
12
12
12
12
12
12
12
12
12
12
12
12
12
12
12
12
12
12
12
12
12
12
12
12
12
12
12
12
12
12
12
12
12
12
12
12
12
12
12
12
12
12
12
12
12
12
12
12
12
12
12
12
12
12
12
12
12
12
12
12
12
12
12
12
12
12
12
12
12
12
12
12
12
12
12
12
12
12
12
12
12
12
12
12
12
12
12
12
12
12
12
12
12
12
12
12
12
12
12
12
12
12
12
12
12
12
12
12
12
12
12
12
12
12
12
12
12
12
12
12
12
12
12
12
12
12
12
12
12
12
12
12
12
12
12
12
12
12
12
12
12
12
12
12
12
12
12
12
12
12
12
12
12
12
12
12
12
12
12
12
12
12
12
12
12
12
12
12
12
12
12
12
12
12
12
12
12
12
12
12
12
12
12
12
12
12
12
12
12
12
12
12
12
12
12
12
12
12
12
12
12
12
12
12
12
12
12
12
12
12
12
12
12
12
12
12
12
12
12
12
12
12
12
12
12
12
12
12
12
12
12
12
12
12
12
12
12
12
12
12
12
12
12
12
12
12
12
12
12
12
12
12
12
12
12
12
12
12
12
12
12
12
12
12
12
12
12
12
12
12
12
12
12
12
12
12
12
12
12
12
12
12
12
12
12
12
12
12
12
12
12
12
12
12
12
12
12
12
12
12
12
12
12
12
12
12
12
12
12
12
12
12
12
12
12
12
12
12
12
12
12
12
12
12
12
12
12
12
12
12
12
12
12
12
12
12
12
12
12
12
12
12
12
12
12
12
12
12
12
12
12
12
12
12
12
12
12
12
12
12
12
12
12
12
12
12
12
12
12
12
12
12
12
12
12
12
12
12
12
12
12
12
12
12
12
12
12
12
12
12
12
12
12
12
12
12
12
12
12
12
12
12
12
12
12
12
12
12
12
12
12
12
12
12
12
12
12
12
12
12
12
12
12
12
12
12
12
12
12
12
12
12
12
12
12
12
12
12
12
12
12
12
12
12
12
12
12
12
12
12
12
12
12
12
12
12
12
12
12
12
12
12
12
12
12
12
12
12
12
12
12
12
12
12
12
12
12
12
12
12
12
12
12
12
12
12
12
12
12
12
12
12
12
12
12
12
12
12
12
12
12
12
12
12
12
12
12
12
12
12
12
12
12
12
12
12
12
12
12
12
12
12
12
12
12
12
12
12
12
12
12
12
12
12
12
12
12
12
12
12
12
12
12
12
12
12
12
12
12
12
12
12
12
12
12
12
12
12
12
12
12
12
12
12
12
12
12
12
12
12
12
12
12
12
12
12
12
12
12
12
12
12
12
12
12
12
12
12
12
12
12
12
12
12
12
12
12
12
12
12
12
12
12
12
12
12
12
12
12
12
12
12
12
12
12
12
12
12
12
12
12
12
12
12
12
12
12
12
12
12
12
12
12
12
12
12
12
12
12
12
12
12
12
12
12
12
12
12
12
12
12
12
12
12
12
12
12
12
12
12
12
12
12
12
12
12
12
12
12
12
12
12
12
12
12
12
12
12
12
12
12
12
12
12
12
12
12
12
12
12
12
12
12
12
12
12
12
12
12
12
12
12
12
12
12
12
12
12
12
12
12
12
12
12
12
12
12
12
12
12
12
12
12
12
12
12
12
12
12
12
12
12
12
12
12
12
12
12
12
12
12
12
12
12
12
12
12
12
12
12
12
12
12
12
12
12
12
12
12
12
12
12
12
12
12
12
12
12
12
12
12
12
12
12
12
12
12
12
12
12
12
12
12
12
12
12
12
12
12
12
12
12
12
12
12
12
12
12
12
12
12
12
12
12
12
12
12
12
12
12
12
12
12
12
12
12
12
12
12
12
12
12
12
12
12
12
12
12
12
12
12
12
12
12
12
12

POINT_DATA 3012
SCALARS Jp_lamdaP float 4
LOOKUP_TABLE default
1 1 1 1
1 1 1 1
1 1 1 1
1 1 1 1
1 1 1 1
1 1 1 1
1 1 1 1
1 1 1 1
1 1 1 1
1 1 1 1
1 1 1 1
1 1 1 1
1 1 1 1
1 1 1 1
1 1 1 1
1 1 1 1
1 1 1 1
1 1 1 1
1 1 1 1
1 1 1 1
1 1 1 1
1 1 1 1
0.999998 1 1 0.999998
1 1 1 1
1 1 1 1
1 1 1 1
0.999998 1 1 0.999998
1 1 1 1
1 1 1 1
1 1 1 1
1 1 1 1
1 1 1 1
1 1 1 1
1 1 1 1
1 1 1 1
1 1 1 1
1 1 1 1
1 1 1 1
1 1 1 1
1 1 1 1
1 1 1 1
1 1 1 1
1 1 1 1
1 1 1 1
1 1 1 1
1 1 1 1
1 1 1 1
1 1 1 1
1 1 1 1
1 1 1 1
1 1 1 1
1 1 1 1
1 1 1 1
1 1 1 1
1 1 1 1
0.999999 1 1 0.999999
1 1 1 1
1 1 1 1
0.999998 1 1 0.999998
1 1 1 1
1 1 1 1
1 1 1 1
0.999998 1 1 0.999998
0.999999 1 1 0.999999
0.999992 1 1 0.999992
0.999995 1 1 0.999995
1 1 1 1
1 1 1 1
0.999999 1 1 0.999999
0.999987 1 1 0.999987
1 1 1 1
1 1 1 1
1 1 1 1
1 1 1 1
1 1 1 1
1 1 1 1
1 1 1 1
1 1 1 1
1 1 1 1
1 1 1 1
1 1 1 1
1 1 1 1
1 1 1 1
1 1 1 1
1 1 1 1
0.999995 1 1 0.999995
1 1 1 1
0.999999 1 1 0.999999
1 1 1 1
0.999993 1 1 0.999993
1 1 1 1
1 1 1 1
1 1 1 1
1 1 1 1
1 1 1 1
1 1 1 1
1 1 1 1
1 1 1 1
1 1 1 1
1 1 1 1
1 1 1 1
1 1 1 1
0.999989 1 1 0.999989
1 1 1 1
0.99999 1 1 0.99999
1 1 1 1
1 1 1 1
1 1 1 1
1 1 1 1
0.999999 1 1 0.999999
1 1 1 1
1 1 1 1
0.999998 1 1 0.999998
1 1 1 1
1 1 1 1
0.999999 1 1 0.999999
0.999998 1 1 0.999998
1 1 1 1
1 1 1 1
0.999999 1 1 0.999999
0.999991 1 1 0.999991
0.999999 1 1 0.999999
0.999996 1 1 0.999996
0.999987 1 1 0.999987
1 1 1 1
0.999997 1 1 0.999997
0.999989 1 1 0.999989
0.999989 1 1 0.999989
0.999993 1 1 0.999993
0.999981 1 1 0.999981
1 1 1 1
0.999985 1 1 0.999985
1 1 1 1
1 1 1 1
0.999988 1 1 0.999988
0.99998 1 1 0.99998
1 1 1 1
1 1 1 1
1 1 1 1
1 1 1 1
1 1 1 1
1 1 1 1
1 1 1 1
1 1 1 1
1 1 1 1
1 1 1 1
1 1 1 1
1 1 1 1
1 1 1 1
0.999995 1 1 0.999995
1 1 1 1
0.999999 1 1 0.999999
1 1 1 1
0.999992 1 1 0.999992
1 1 1 1
1 1 1 1
1 1 1 1
0.999992 1 1 0.999992
0.999997 1 1 0.999997
0.999983 1 1 0.999983
1 1 1 1
0.999989 1 1 0.999989
0.999994 1 1 0.999994
0.999986 1 1 0.999986
1 1 1 1
1 1 1 1
1 1 1 1
1 1 1 1
1 1 1 1
1 1 1 1
1 1 1 1
1 1 1 1
1 1 1 1
1 1 1 1
1 1 1 1
1 1 1 1
1 1 1 1
0.999989 1 1 0.999989
1 1 1 1
0.999989 1 1 0.999989
1 1 1 1
0.999991 1 1 0.999991
0.999989 1 1 0.999989
0.999982 1 1 0.999982
0.999991 1 1 0.999991
0.999981 1 1 0.999981
1 1 1 1
1 1 1 1
0.999997 1 1 0.999997
0.999998 1 1 0.999998
1 1 1 1
1 1 1 1
1 1 1 1
0.99999 1 1 0.99999
0.999997 1 1 0.999997
0.999999 1 1 0.999999
0.999987 1 1 0.999987
1 1 1 1
0.999997 1 1 0.999997
0.999988 1 1 0.999988
0.99999 1 1 0.99999
1 1 1 1
1 1 1 1
1 1 1 1
0.999993 1 1 0.999993
0.99998 1 1 0.99998
0.999988 1 1 0.999988
0.999986 1 1 0.999986
0.99998 1 1 0.99998
1 1 1 1
1 1 1 1
0.99999 1 1 0.99999
0.999988 1 1 0.999988
0.99998 1 1 0.99998
0.999977 1 1 0.999977
0.999984 1 1 0.999984
0.999976 1 1 0.999976
1 1 1 1
0.999979 1 1 0.999979
1 1 1 1
0.99999 1 1 0.99999
0.999982 1 1 0.999982
0.999978 1 1 0.999978
1 1 1 1
1 1 1 1
0.999996 1 1 0.999996
1 1 1 1
1 1 1 1
1 1 1 1
1 1 1 1
0.999995 1 1 0.999995
1 1 1 1
1 1 1 1
1 1 1 1
0.999991 1 1 0.999991
1 1 1 1
1 1 1 1
1 1 1 1
0.999992 1 1 0.999992
0.999998 1 1 0.999998
0.999983 1 1 0.999983
1 1 1 1
0.999989 1 1 0.999989
0.999994 1 1 0.999994
0.999986 1 1 0.999986
1 1 1 1
1 1 1 1
1 1 1 1
0.999997 1 1 0.999997
0.999981 1 1 0.999981
0.999986 1 1 0.999986
0.999977 1 1 0.999977
0.999996 1 1 0.999996
0.999982 1 1 0.999982
0.999986 1 1 0.999986
0.999982 1 1 0.999982
1 1 1 1
1 1 1 1
1 1 1 1
1 1 1 1
1 1 1 1
1 1 1 1
1 1 1 1
1 1 1 1
1 1 1 1
1 1 1 1
1 1 1 1
0.999989 1 1 0.999989
0.999989 1 1 0.999989
1 1 1 1
1 1 1 1
1 1 1 1
0.999991 1 1 0.999991
0.999989 1 1 0.999989
0.999982 1 1 0.999982
0.999991 1 1 0.999991
0.999981 1 1 0.999981
0.999992 1 1 0.999992
0.999985 1 1 0.999985
0.99998 1 1 0.99998
0.999979 1 1 0.999979
0.999981 1 1 0.999981
0.999978 1 1 0.999978
1 1 1 1
0.999997 1 1 0.999997
0.999986 1 1 0.999986
0.99999 1 1 0.99999
1 1 1 1
1 1 1 1
1 1 1 1
0.999993 1 1 0.999993
0.999979 1 1 0.999979
0.999986 1 1 0.999986
0.999988 1 1 0.999988
0.99998 1 1 0.99998
1 1 1 1
1 1 1 1
0.999989 1 1 0.999989
0.999988 1 1 0.999988
0.999981 1 1 0.999981
0.999978 1 1 0.999978
1 1 1 1
1 1 1 1
0.999991 1 1 0.999991
0.999984 1 1 0.999984
0.999975 1 1 0.999975
0.999982 1 1 0.999982
0.999979 1 1 0.999979
0.999978 1 1 0.999978
1 1 1 1
0.999995 1 1 0.999995
1 1 1 1
0.999984 1 1 0.999984
0.999979 1 1 0.999979
0.999977 1 1 0.999977
0.999974 1 1 0.999974
0.999978 1 1 0.999978
0.999974 1 1 0.999974
1 1 1 1
0.999977 1 1 0.999977
0.999993 1 1 0.999993
0.999982 1 1 0.999982
0.999979 1 1 0.999979
0.999979 1 1 0.999979
1 1 1 1
0.999996 1 1 0.999996
0.999995 1 1 0.999995
0.999989 1 1 0.999989
0.999992 1 1 0.999992
1 1 1 1
1 1 1 1
1 1 1 1
0.999998 1 1 0.999998
0.999983 1 1 0.999983
1 1 1 1
0.999994 1 1 0.999994
0.999989 1 1 0.999989
0.999985 1 1 0.999985
1 1 1 1
1 1 1 1
1 1 1 1
0.999997 1 1 0.999997
0.999981 1 1 0.999981
0.999986 1 1 0.999986
0.999977 1 1 0.999977
0.999996 1 1 0.999996
0.999983 1 1 0.999983
0.999986 1 1 0.999986
0.999982 1 1 0.999982
1 1 1 1
1 1 1 1
0.999997 1 1 0.999997
0.999997 1 1 0.999997
0.999989 1 1 0.999989
0.999977 1 1 0.999977
0.999979 1 1 0.999979
0.999976 1 1 0.999976
0.999987 1 1 0.999987
0.99998 1 1 0.99998
0.999979 1 1 0.999979
1 1 1 1
0.999998 1 1 0.999998
1 1 1 1
1 1 1 1
1 1 1 1
1 1 1 1
1 1 1 1
1 1 1 1
1 1 1 1
1 1 1 1
1 1 1 1
1 1 1 1
1 1 1 1
1 1 1 1
1 1 1 1
0.999991 1 1 0.999991
0.999988 1 1 0.999988
0.999981 1 1 0.999981
0.999982 1 1 0.999982
0.999991 1 1 0.999991
1 1 1 1
0.999992 1 1 0.999992
0.999985 1 1 0.999985
0.99998 1 1 0.99998
0.999979 1 1 0.999979
0.999981 1 1 0.999981
0.999978 1 1 0.999978
0.999985 1 1 0.999985
0.999982 1 1 0.999982
0.999978 1 1 0.999978
0.999977 1 1 0.999977
0.999978 1 1 0.999978
0.999977 1 1 0.999977
0.999989 1 1 0.999989
0.999988 1 1 0.999988
0.999981 1 1 0.999981
0.999979 1 1 0.999979
1 1 1 1
1 1 1 1
0.999991 1 1 0.999991
0.999984 1 1 0.999984
0.999975 1 1 0.999975
0.999979 1 1 0.999979
0.999981 1 1 0.999981
0.999978 1 1 0.999978
1 1 1 1
0.999995 1 1 0.999995
1 1 1 1
0.999983 1 1 0.999983
0.999978 1 1 0.999978
0.999977 1 1 0.999977
0.999974 1 1 0.999974
1 1 1 1
0.999993 1 1 0.999993
0.999983 1 1 0.999983
0.999978 1 1 0.999978
0.999974 1 1 0.999974
0.999978 1 1 0.999978
0.999977 1 1 0.999977
0.999979 1 1 0.999979
0.999996 1 1 0.999996
0.999988 1 1 0.999988
1 1 1 1
0.999995 1 1 0.999995
0.99998 1 1 0.99998
0.999974 1 1 0.999974
0.999975 1 1 0.999975
0.999973 1 1 0.999973
0.999976 1 1 0.999976
0.999974 1 1 0.999974
0.999995 1 1 0.999995
0.999978 1 1 0.999978
0.999984 1 1 0.999984
0.999979 1 1 0.999979
0.999978 1 1 0.999978
0.999981 1 1 0.999981
1 1 1 1
0.999995 1 1 0.999995
0.999988 1 1 0.999988
0.999988 1 1 0.999988
0.999984 1 1 0.999984
1 1 1 1
0.999981 1 1 0.999981
1 1 1 1
1 1 1 1
0.999997 1 1 0.999997
0.999986 1 1 0.999986
0.999977 1 1 0.999977
0.999996 1 1 0.999996
0.999986 1 1 0.999986
0.999984 1 1 0.999984
0.999983 1 1 0.999983
1 1 1 1
1 1 1 1
0.999997 1 1 0.999997
0.999997 1 1 0.999997
0.999988 1 1 0.999988
0.999977 1 1 0.999977
0.999979 1 1 0.999979
0.999976 1 1 0.999976
0.999987 1 1 0.999987
0.99998 1 1 0.99998
0.999979 1 1 0.999979
1 1 1 1
0.999998 1 1 0.999998
0.999987 1 1 0.999987
0.999989 1 1 0.999989
0.999984 1 1 0.999984
0.999978 1 1 0.999978
0.999977 1 1 0.999977
0.99998 1 1 0.99998
0.99998 1 1 0.99998
0.999976 1 1 0.999976
1 1 1 1
0.999996 1 1 0.999996
0.999997 1 1 0.999997
0.99999 1 1 0.99999
0.999998 1 1 0.999998
1 1 1 1
1 1 1 1
1 1 1 1
1 1 1 1
1 1 1 1
1 1 1 1
1 1 1 1
1 1 1 1
1 1 1 1
1 1 1 1
1 1 1 1
1 1 1 1
1 1 1 1
1 1 1 1
1 1 1 1
0.999981 1 1 0.999981
0.99998 1 1 0.99998
0.999978 1 1 0.999978
0.99998 1 1 0.99998
0.999985 1 1 0.999985
0.999992 1 1 0.999992
0.999985 1 1 0.999985
0.999983 1 1 0.999983
0.999978 1 1 0.999978
0.999977 1 1 0.999977
0.999978 1 1 0.999978
0.999977 1 1 0.999977
0.999983 1 1 0.999983
0.999981 1 1 0.999981
0.999975 1 1 0.999975
0.999975 1 1 0.999975
0.999979 1 1 0.999979
0.999977 1 1 0.999977
0.999983 1 1 0.999983
0.999978 1 1 0.999978
0.999976 1 1 0.999976
0.999974 1 1 0.999974
1 1 1 1
0.999993 1 1 0.999993
0.999984 1 1 0.999984
0.999978 1 1 0.999978
0.999974 1 1 0.999974
0.999977 1 1 0.999977
0.999978 1 1 0.999978
0.99998 1 1 0.99998
0.999996 1 1 0.999996
0.999987 1 1 0.999987
1 1 1 1
0.999995 1 1 0.999995
0.99998 1 1 0.99998
0.999975 1 1 0.999975
0.999974 1 1 0.999974
0.999973 1 1 0.999973
0.999995 1 1 0.999995
0.999985 1 1 0.999985
0.999979 1 1 0.999979
0.999976 1 1 0.999976
0.999974 1 1 0.999974
0.999978 1 1 0.999978
0.999978 1 1 0.999978
0.999981 1 1 0.999981
0.999988 1 1 0.999988
0.999983 1 1 0.999983
0.999988 1 1 0.999988
1 1 1 1
0.999995 1 1 0.999995
0.999978 1 1 0.999978
0.999973 1 1 0.999973
0.999972 1 1 0.999972
0.999977 1 1 0.999977
0.999987 1 1 0.999987
0.999982 1 1 0.999982
0.99998 1 1 0.99998
0.999976 1 1 0.999976
0.999978 1 1 0.999978
1 1 1 1
0.999995 1 1 0.999995
0.999988 1 1 0.999988
0.999983 1 1 0.999983
0.999982 1 1 0.999982
0.99998 1 1 0.99998
1 1 1 1
1 1 1 1
0.999977 1 1 0.999977
0.999997 1 1 0.999997
0.999997 1 1 0.999997
0.999988 1 1 0.999988
0.999979 1 1 0.999979
0.999975 1 1 0.999975
0.999987 1 1 0.999987
0.999979 1 1 0.999979
0.99998 1 1 0.99998
1 1 1 1
0.999998 1 1 0.999998
0.999988 1 1 0.999988
0.999989 1 1 0.999989
0.999984 1 1 0.999984
0.999978 1 1 0.999978
0.999977 1 1 0.999977
0.99998 1 1 0.99998
0.99998 1 1 0.99998
0.999975 1 1 0.999975
0.999998 1 1 0.999998
0.999988 1 1 0.999988
0.999982 1 1 0.999982
0.999983 1 1 0.999983
0.999981 1 1 0.999981
0.999984 1 1 0.999984
0.999977 1 1 0.999977
0.999981 1 1 0.999981
0.999976 1 1 0.999976
0.999973 1 1 0.999973
1 1 1 1
0.999997 1 1 0.999997
0.999988 1 1 0.999988
0.999996 1 1 0.999996
0.999998 1 1 0.999998
0.999989 1 1 0.999989
0.999984 1 1 0.999984
0.999988 1 1 0.999988
0.999997 1 1 0.999997
1 1 1 1
1 1 1 1
1 1 1 1
1 1 1 1
1 1 1 1
1 1 1 1
1 1 1 1
1 1 1 1
1 1 1 1
1 1 1 1
1 1 1 1
1 1 1 1
1 1 1 1
1 1 1 1
1 1 1 1
0.999978 1 1 0.999978
0.999978 1 1 0.999978
0.999977 1 1 0.999977
0.999976 1 1 0.999976
0.999983 1 1 0.999983
0.999985 1 1 0.999985
0.999983 1 1 0.999983
0.999981 1 1 0.999981
0.999976 1 1 0.999976
0.999973 1 1 0.999973
0.999979 1 1 0.999979
0.999976 1 1 0.999976
0.999984 1 1 0.999984
0.999979 1 1 0.999979
0.999973 1 1 0.999973
0.999982 1 1 0.999982
0.99998 1 1 0.99998
0.999975 1 1 0.999975
0.999973 1 1 0.999973
0.999973 1 1 0.999973
0.999995 1 1 0.999995
0.999985 1 1 0.999985
0.999979 1 1 0.999979
0.999977 1 1 0.999977
0.999974 1 1 0.999974
0.999978 1 1 0.999978
0.999978 1 1 0.999978
0.999982 1 1 0.999982
0.999988 1 1 0.999988
0.999983 1 1 0.999983
0.999988 1 1 0.999988
1 1 1 1
0.999995 1 1 0.999995
0.999977 1 1 0.999977
0.999973 1 1 0.999973
0.999973 1 1 0.999973
0.999987 1 1 0.999987
0.99998 1 1 0.99998
0.999976 1 1 0.999976
0.999976 1 1 0.999976
0.999979 1 1 0.999979
0.999982 1 1 0.999982
1 1 1 1
0.999983 1 1 0.999983
0.99998 1 1 0.99998
0.999982 1 1 0.999982
0.999988 1 1 0.999988
0.999995 1 1 0.999995
0.999977 1 1 0.999977
0.999972 1 1 0.999972
0.999975 1 1 0.999975
0.99998 1 1 0.99998
0.999982 1 1 0.999982
0.999982 1 1 0.999982
0.999976 1 1 0.999976
0.999974 1 1 0.999974
1 1 1 1
0.999995 1 1 0.999995
0.999989 1 1 0.999989
0.999981 1 1 0.999981
0.999979 1 1 0.999979
0.999978 1 1 0.999978
1 1 1 1
0.999997 1 1 0.999997
0.999978 1 1 0.999978
0.999989 1 1 0.999989
0.999988 1 1 0.999988
0.999983 1 1 0.999983
0.999977 1 1 0.999977
0.999981 1 1 0.999981
0.99998 1 1 0.99998
0.999975 1 1 0.999975
0.999998 1 1 0.999998
0.999989 1 1 0.999989
0.999982 1 1 0.999982
0.999983 1 1 0.999983
0.999981 1 1 0.999981
0.999984 1 1 0.999984
0.999977 1 1 0.999977
0.999983 1 1 0.999983
0.999976 1 1 0.999976
0.999971 1 1 0.999971
0.999988 1 1 0.999988
0.999982 1 1 0.999982
0.999978 1 1 0.999978
0.999979 1 1 0.999979
0.999984 1 1 0.999984
0.999986 1 1 0.999986
0.999974 1 1 0.999974
0.999971 1 1 0.999971
0.999998 1 1 0.999998
0.999989 1 1 0.999989
0.999983 1 1 0.999983
0.999998 1 1 0.999998
0.999988 1 1 0.999988
0.999997 1 1 0.999997
0.999983 1 1 0.999983
0.999989 1 1 0.999989
0.99998 1 1 0.99998
0.999983 1 1 0.999983
0.999988 1 1 0.999988
0.999997 1 1 0.999997
1 1 1 1
1 1 1 1
1 1 1 1
1 1 1 1
1 1 1 1
1 1 1 1
1 1 1 1
1 1 1 1
1 1 1 1
1 1 1 1
1 1 1 1
1 1 1 1
1 1 1 1
1 1 1 1
1 1 1 1
0.999979 1 1 0.999979
0.999976 1 1 0.999976
0.999976 1 1 0.999976
0.999972 1 1 0.999972
0.999981 1 1 0.999981
0.999984 1 1 0.999984
0.999983 1 1 0.999983
0.999978 1 1 0.999978
0.999973 1 1 0.999973
0.999981 1 1 0.999981
0.999982 1 1 0.999982
0.999976 1 1 0.999976
0.999978 1 1 0.999978
0.999976 1 1 0.999976
0.999973 1 1 0.999973
0.999973 1 1 0.999973
0.999987 1 1 0.999987
0.999981 1 1 0.999981
0.999976 1 1 0.999976
0.999976 1 1 0.999976
0.999982 1 1 0.999982
0.999979 1 1 0.999979
0.999983 1 1 0.999983
0.99998 1 1 0.99998
0.999983 1 1 0.999983
1 1 1 1
0.999988 1 1 0.999988
0.999995 1 1 0.999995
0.999978 1 1 0.999978
0.999972 1 1 0.999972
0.999974 1 1 0.999974
0.999982 1 1 0.999982
0.999976 1 1 0.999976
0.999975 1 1 0.999975
0.999981 1 1 0.999981
0.999981 1 1 0.999981
1 1 1 1
0.999995 1 1 0.999995
0.999979 1 1 0.999979
0.999978 1 1 0.999978
0.999981 1 1 0.999981
0.999988 1 1 0.999988
0.999979 1 1 0.999979
0.99997 1 1 0.99997
0.99998 1 1 0.99998
0.999984 1 1 0.999984
0.999977 1 1 0.999977
0.999977 1 1 0.999977
0.999974 1 1 0.999974
1 1 1 1
0.999997 1 1 0.999997
0.999995 1 1 0.999995
0.999987 1 1 0.999987
0.999981 1 1 0.999981
0.999977 1 1 0.999977
0.999977 1 1 0.999977
0.999976 1 1 0.999976
0.999998 1 1 0.999998
0.999989 1 1 0.999989
0.999984 1 1 0.999984
0.999984 1 1 0.999984
0.999983 1 1 0.999983
0.999981 1 1 0.999981
0.999976 1 1 0.999976
0.999984 1 1 0.999984
0.999976 1 1 0.999976
0.99997 1 1 0.99997
0.999988 1 1 0.999988
0.999983 1 1 0.999983
0.999978 1 1 0.999978
0.999979 1 1 0.999979
0.999983 1 1 0.999983
0.999985 1 1 0.999985
0.999975 1 1 0.999975
0.999971 1 1 0.999971
0.999983 1 1 0.999983
0.999982 1 1 0.999982
0.999979 1 1 0.999979
0.999975 1 1 0.999975
0.999989 1 1 0.999989
0.999975 1 1 0.999975
0.99997 1 1 0.99997
0.999989 1 1 0.999989
0.999983 1 1 0.999983
0.999979 1 1 0.999979
0.999997 1 1 0.999997
0.999989 1 1 0.999989
0.999983 1 1 0.999983
0.999997 1 1 0.999997
0.999988 1 1 0.999988
0.999979 1 1 0.999979
0.999983 1 1 0.999983
0.999977 1 1 0.999977
0.999979 1 1 0.999979
0.999984 1 1 0.999984
0.999988 1 1 0.999988
0.999996 1 1 0.999996
1 1 1 1
1 1 1 1
1 1 1 1
1 1 1 1
1 1 1 1
1 1 1 1
1 1 1 1
1 1 1 1
1 1 1 1
1 1 1 1
1 1 1 1
1 1 1 1
1 1 1 1
1 1 1 1
1 1 1 1
1 1 1 1
0.999981 1 1 0.999981
0.999974 1 1 0.999974
0.999978 1 1 0.999978
0.999982 1 1 0.999982
0.999983 1 1 0.999983
0.999976 1 1 0.999976
0.999979 1 1 0.999979
0.999981 1 1 0.999981
0.999978 1 1 0.999978
0.999988 1 1 0.999988
0.999979 1 1 0.999979
0.999971 1 1 0.999971
0.999974 1 1 0.999974
0.999982 1 1 0.999982
0.999976 1 1 0.999976
0.999975 1 1 0.999975
0.999982 1 1 0.999982
0.999981 1 1 0.999981
0.999979 1 1 0.999979
0.999978 1 1 0.999978
0.999981 1 1 0.999981
1 1 1 1
0.999995 1 1 0.999995
0.999988 1 1 0.999988
0.999978 1 1 0.999978
1 1 1 1
0.999996 1 1 0.999996
0.99997 1 1 0.99997
0.999979 1 1 0.999979
0.999977 1 1 0.999977
0.999974 1 1 0.999974
0.999977 1 1 0.999977
0.999984 1 1 0.999984
0.999996 1 1 0.999996
0.999987 1 1 0.999987
0.999977 1 1 0.999977
0.999976 1 1 0.999976
0.999977 1 1 0.999977
0.999981 1 1 0.999981
0.999969 1 1 0.999969
0.999974 1 1 0.999974
0.999988 1 1 0.999988
0.999981 1 1 0.999981
0.999975 1 1 0.999975
0.999973 1 1 0.999973
0.999996 1 1 0.999996
0.999997 1 1 0.999997
0.99999 1 1 0.99999
0.999985 1 1 0.999985
0.999981 1 1 0.999981
0.999975 1 1 0.999975
0.999974 1 1 0.999974
0.999975 1 1 0.999975
0.999988 1 1 0.999988
0.999983 1 1 0.999983
0.999983 1 1 0.999983
0.999985 1 1 0.999985
0.99998 1 1 0.99998
0.999979 1 1 0.999979
0.999975 1 1 0.999975
0.999971 1 1 0.999971
0.999983 1 1 0.999983
0.999985 1 1 0.999985
0.999978 1 1 0.999978
0.999975 1 1 0.999975
0.999989 1 1 0.999989
0.999976 1 1 0.999976
0.99997 1 1 0.99997
0.999978 1 1 0.999978
0.999992 1 1 0.999992
0.999975 1 1 0.999975
0.99997 1 1 0.99997
0.999976 1 1 0.999976
0.999967 1 1 0.999967
0.997327 1 0.997363 0.999963
0.999983 1 1 0.999983
0.999979 1 1 0.999979
0.999977 1 1 0.999977
0.999997 1 1 0.999997
0.999988 1 1 0.999988
0.999984 1 1 0.999984
0.999979 1 1 0.999979
0.999996 1 1 0.999996
0.999988 1 1 0.999988
0.999978 1 1 0.999978
0.999984 1 1 0.999984
0.999979 1 1 0.999979
0.999976 1 1 0.999976
0.999979 1 1 0.999979
0.999984 1 1 0.999984
0.999987 1 1 0.999987
0.999995 1 1 0.999995
0.999989 1 1 0.999989
0.999995 1 1 0.999995
1 1 1 1
1 1 1 1
1 1 1 1
1 1 1 1
1 1 1 1
1 1 1 1
1 1 1 1
1 1 1 1
1 1 1 1
1 1 1 1
1 1 1 1
1 1 1 1
1 1 1 1
1 1 1 1
1 1 1 1
1 1 1 1
1 1 1 1
0.99998 1 1 0.99998
0.999976 1 1 0.999976
0.999983 1 1 0.999983
0.999981 1 1 0.999981
0.999977 1 1 0.999977
0.999993 1 1 0.999993
0.999979 1 1 0.999979
0.999998 1 1 0.999998
1 1 1 1
0.999999 1 1 0.999999
0.999976 1 1 0.999976
0.999971 1 1 0.999971
0.999978 1 1 0.999978
0.999978 1 1 0.999978
0.999973 1 1 0.999973
0.999977 1 1 0.999977
0.999985 1 1 0.999985
0.999977 1 1 0.999977
0.999976 1 1 0.999976
0.999976 1 1 0.999976
1 1 1 1
0.999981 1 1 0.999981
0.999997 1 1 0.999997
0.999987 1 1 0.999987
0.999996 1 1 0.999996
0.999968 1 1 0.999968
0.999997 1 1 0.999997
0.999997 1 1 0.999997
0.999989 1 1 0.999989
0.999974 1 1 0.999974
0.999987 1 1 0.999987
0.999975 1 1 0.999975
0.999973 1 1 0.999973
0.999981 1 1 0.999981
0.999986 1 1 0.999986
0.999981 1 1 0.999981
0.999975 1 1 0.999975
0.999974 1 1 0.999974
0.999975 1 1 0.999975
1.00001 1 1.00004 0.999962
0.999986 1 1 0.999986
0.999986 1 1 0.999986
0.999974 1 1 0.999974
0.999974 1 1 0.999974
0.999988 1 1 0.999988
0.999986 1 1 0.999986
0.999983 1 1 0.999983
0.999979 1 1 0.999979
0.999976 1 1 0.999976
0.999971 1 1 0.999971
0.999972 1 1 0.999972
0.999983 1 1 0.999983
0.999978 1 1 0.999978
0.999988 1 1 0.999988
0.999988 1 1 0.999988
0.999976 1 1 0.999976
0.999974 1 1 0.999974
0.999969 1 1 0.999969
0.999979 1 1 0.999979
0.999993 1 1 0.999993
0.999975 1 1 0.999975
0.99997 1 1 0.99997
0.999978 1 1 0.999978
0.999967 1 1 0.999967
0.998038 1.00018 0.997891 0.999964
0.999975 1 1 0.999975
0.999972 1 1 0.999972
0.999972 1 1 0.999972
0.999964 1 1 0.999964
0.999958 1 1 0.999958
0.982209 0.982617 0.999654 0.99993
0.998502 1.00071 0.997836 0.999954
0.997636 1 0.997692 0.999944
0.982905 0.984145 0.99873 1.00001
0.99724 0.999934 0.997304 1
0.999979 1 1 0.999979
0.999977 1 1 0.999977
0.999976 1 1 0.999976
0.999996 1 1 0.999996
0.999988 1 1 0.999988
0.999984 1 1 0.999984
0.99998 1 1 0.99998
0.999978 1 1 0.999978
0.999983 1 1 0.999983
0.999995 1 1 0.999995
0.999987 1 1 0.999987
0.999977 1 1 0.999977
0.999979 1 1 0.999979
0.99998 1 1 0.99998
0.999976 1 1 0.999976
0.999981 1 1 0.999981
0.999986 1 1 0.999986
0.999995 1 1 0.999995
0.999988 1 1 0.999988
0.999983 1 1 0.999983
0.999988 1 1 0.999988
0.999988 1 1 0.999988
0.999996 1 1 0.999996
0.999995 1 1 0.999995
1 1 1 1
1 1 1 1
1 1 1 1
1 1 1 1
1 1 1 1
1 1 1 1
1 1 1 1
1 1 1 1
1 1 1 1
1 1 1 1
1 1 1 1
1 1 1 1
1 1 1 1
1 1 1 1
1 1 1 1
1 1 1 1
1 1 1 1
1 1 1 1
0.999977 1 1 0.999977
0.999981 1 1 0.999981
0.999998 1 1 0.999998
0.999792 1 0.999794 0.999998
0.999979 1 1 0.999979
0.999997 1 1 0.999997
1.00001 1 1.00004 0.999975
0.999962 1 1 0.999962
0.999999 1 1 0.999999
0.999999 1 1 0.999999
0.999998 1 1 0.999998
0.99999 1 1 0.99999
0.999992 1 1 0.999992
0.999966 1 1 0.999966
0.999974 1 1 0.999974
0.999986 1 1 0.999986
0.999975 1 1 0.999975
0.999973 1 1 0.999973
0.999981 1 1 0.999981
0.999975 1 1 0.999975
0.999974 1 1 0.999974
0.999976 1 1 0.999976
0.999997 1 1 0.999997
0.999981 1 1 0.999981
0.999987 1 1 0.999987
0.999998 1 1 0.999998
0.999988 1 1 0.999988
0.999998 1 1.00003 0.999963
0.999989 1 1 0.999989
0.999987 1 1 0.999987
0.999984 1 1 0.999984
0.999985 1 1 0.999985
0.999985 1 1 0.999985
0.999974 1 1 0.999974
0.999975 1 1 0.999975
0.999979 1 1 0.999979
0.999976 1 1 0.999976
0.999972 1 1 0.999972
0.999971 1 1 0.999971
1 1 1.00003 0.999973
0.999993 1 1 0.999993
0.999976 1 1 0.999976
0.999972 1 1 0.999972
0.999981 1 1 0.999981
0.999979 1 1 0.999979
0.999971 1 1 0.999971
0.999968 1 1 0.999968
0.97959 0.981546 0.998058 0.999949
0.999979 1 1 0.999979
0.999975 1 1 0.999975
0.999994 1 1 0.999994
0.99998 1 1 0.99998
0.999966 1 1 0.999966
0.99997 1 1 0.99997
0.998844 1.00043 0.998447 0.999965
0.999976 1 1 0.999976
0.999972 1 1 0.999972
0.999973 1 1 0.999973
0.999964 1 1 0.999964
0.999961 1 1 0.999961
0.981798 0.982852 0.998994 0.999934
0.997745 1.00046 0.997361 0.999926
0.998364 1.00022 0.998207 0.999941
0.983053 0.984458 0.998577 0.999996
0.998333 0.999969 0.998363 1
0.999975 1 1 0.999975
0.981511 0.982462 0.99904 0.999993
0.998561 0.999735 0.998825 1
0.999951 1 1 0.999951
0.999969 1 1 0.999969
0.999953 1 1 0.999953
1.00055 1 1.00062 0.99993
0.984651 0.984198 1.00058 0.999879
1.00004 1.0008 0.999339 0.999907
0.984215 0.988247 0.995915 1.00001
0.999863 0.999982 0.999882 1
0.999977 1 1 0.999977
0.999975 1 1 0.999975
0.999974 1 1 0.999974
0.999996 1 1 0.999996
0.999988 1 1 0.999988
0.999982 1 1 0.999982
0.999979 1 1 0.999979
0.999977 1 1 0.999977
0.999995 1 1 0.999995
0.99998 1 1 0.99998
0.999982 1 1 0.999982
0.999987 1 1 0.999987
0.999976 1 1 0.999976
0.999977 1 1 0.999977
0.999974 1 1 0.999974
0.99998 1 1 0.99998
0.999987 1 1 0.999987
0.999988 1 1 0.999988
0.999982 1 1 0.999982
0.999982 1 1 0.999982
0.999982 1 1 0.999982
0.999979 1 1 0.999979
0.999981 1 1 0.999981
0.999988 1 1 0.999988
0.999988 1 1 0.999988
0.999996 1 1 0.999996
0.999987 1 1 0.999987
0.999996 1 1 0.999996
1 1 1 1
0.999995 1 1 0.999995
1 1 1 1
1 1 1 1
1 1 1 1
1 1 1 1
1 1 1 1
1 1 1 1
1 1 1 1
1 1 1 1
0.999999 1 1 0.999999
1 1 1 1
1 1 1 1
1 1 1 1
1 1 1 1
1 1 1 1
1 1 1 1
1 1 1 1
1 1 1 1
1 1 1 1
0.999569 1 0.999571 0.999998
0.999979 1 1 0.999979
0.999994 1 1 0.999994
0.999764 1 0.999786 0.999977
1.0001 1 1.0001 0.999999
1.00001 1 1.00003 0.999972
1.00026 1 1.00029 0.999968
0.999968 1 1 0.999966
0.980397 0.98088 0.999597 0.99991
0.980976 0.983758 0.997193 0.999979
0.996977 1.00005 0.996931 1
0.99999 1 1 0.99999
0.999999 1 1 0.999999
0.999998 1 1 0.999998
0.99999 1 1 0.99999
0.999985 1 1 0.999985
0.999986 1 1 0.999986
0.999991 1 1 0.999991
0.999992 1 1 0.999992
0.99999 1 1.00003 0.999964
0.999985 1 1 0.999985
0.999985 1 1 0.999985
0.999973 1 1 0.999973
0.999975 1 1 0.999975
0.999972 1 1 0.999972
0.999972 1 1 0.999972
0.999977 1 1 0.999977
0.999988 1 1 0.999988
0.999979 1 1 0.999979
0.99999 1 1 0.99999
0.999984 1 1 0.999984
1.00001 1 1.00004 0.999973
0.999981 1 1 0.999981
0.99998 1 1 0.99998
0.999992 1 1 0.999992
0.999976 1 1 0.999976
0.999971 1 1 0.999971
0.999972 1 1 0.999972
0.999968 1 1 0.999968
0.999979 1 0.999993 0.999986
0.999979 1 1 0.999979
0.999969 1 1 0.999969
0.999964 1 1 0.999964
0.999974 1 1 0.999974
0.999973 1 1 0.999973
0.999966 1 1 0.999966
0.978487 0.982998 0.995392 1.00002
0.980641 0.981679 0.998995 0.999948
0.999976 1 1 0.999976
0.999973 1 1 0.999973
0.999973 1 1 0.999973
0.999963 1 1 0.999963
0.999964 1 1 0.999964
0.982187 0.982618 0.999654 0.999908
0.997941 1.00017 0.997816 0.999959
0.998997 1.00037 0.998692 0.999939
0.981181 0.983996 0.997163 0.999976
0.999299 1 0.999295 1
0.999975 1 1 0.999975
0.980675 0.983747 0.99686 1.00002
0.998902 0.999755 0.999146 1
0.999951 1 1 0.999951
0.999969 1 1 0.999969
0.999955 1 1 0.999955
1.00065 1 1.00072 0.999929
0.983569 0.983679 1.00003 0.99986
0.998421 1.00044 0.998036 0.999946
0.98485 0.988095 0.996754 0.999962
0.999662 0.999977 0.999685 1
0.999974 1 1 0.999974
0.999614 0.999675 0.999939 1
1.00007 0.99992 1.00016 1
1.00053 1 1.00059 0.999944
0.999965 1 1 0.999965
1.00198 1 1.00203 0.999951
1.00334 1 1.00339 0.999946
0.988982 0.987777 1.00137 0.999854
0.991163 0.995798 0.995391 0.999955
0.999879 0.999894 0.999986 1
0.999975 1 1 0.999975
0.999974 1 1 0.999974
0.999973 1 1 0.999973
0.999995 1 1 0.999995
0.999987 1 1 0.999987
0.999983 1 1 0.999983
0.99998 1 1 0.99998
0.999975 1 1 0.999975
0.999987 1 1 0.999987
0.999978 1 1 0.999978
0.999981 1 1 0.999981
0.999974 1 1 0.999974
0.999973 1 1 0.999973
0.999976 1 1 0.999976
0.999981 1 1 0.999981
0.999988 1 1 0.999988
0.999982 1 1 0.999982
0.999982 1 1 0.999982
0.999982 1 1 0.999982
0.999979 1 1 0.999979
0.999982 1 1 0.999982
0.999978 1 1 0.999978
0.999978 1 1 0.999978
0.999978 1 1 0.999978
0.999981 1 1 0.999981
0.999982 1 1 0.999982
0.999981 1 1 0.999981
0.999988 1 1 0.999988
0.999988 1 1 0.999988
0.999997 1 1 0.999997
0.999988 1 1 0.999988
0.999996 1 1 0.999996
1 1 1 1
0.999995 1 1 0.999995
1 1 1 1
1 1 1 1
1 1 1 1
1 1 1 1
1 1 1 1
1 1 1 1
1 1 1 1
1 1 1 1
0.999998 1 1 0.999998
1 1 1 1
0.999999 1 1 0.999999
1 1 1 1
1 1 1 1
1 1 1 1
1 1 1 1
1 1 1 1
1 1 1 1
1 1 1 1
1 1 1 1
0.979696 0.982633 0.996993 1.00002
0.999839 0.999892 0.999947 1
1.00008 1 1.0001 0.999983
1.00019 1 1.00019 0.999999
0.999998 1 1.00003 0.999969
1.00009 1 1.0001 0.999993
1.00012 1 1.00015 0.999969
0.980121 0.981233 0.998934 0.999933
0.982356 0.984428 0.997883 1.00001
0.998217 1.00001 0.998201 1
1.00041 1 1.00044 0.999967
0.984287 0.983338 1.00107 0.999892
0.984175 0.987954 0.996169 1.00001
0.998909 1.00055 0.998359 1
0.999982 1 1 0.999982
0.999991 1 1 0.999991
0.999999 1 1 0.999999
0.99999 1 1 0.99999
0.999985 1 1 0.999985
0.999985 1 1 0.999985
0.999987 1 1 0.999987
0.999989 1 1 0.999989
0.99999 1 1 0.99999
0.999991 1 1 0.999991
1.00001 1 1.00004 0.999973
0.999992 1 1 0.999992
0.999976 1 1 0.999976
0.99997 1 1 0.99997
0.999968 1 1 0.999968
0.999972 1 1 0.999972
0.99998 1 1 0.99998
0.999981 1 1 0.999981
0.99998 1 0.999994 0.999986
0.999974 1 1 0.999974
0.999972 1 1 0.999972
0.999981 1 1 0.999981
0.999967 1 1 0.999967
0.999964 1 1 0.999964
0.999965 1 1 0.999965
0.999965 1 0.999988 0.999977
0.99996 1 1 0.99996
0.999959 1 1 0.999959
0.999974 1 1 0.999974
0.99997 1 1 0.99997
0.999967 1 1 0.999967
0.998893 0.999796 0.999095 1
0.97908 0.981984 0.997043 0.999999
0.980405 0.98231 0.998115 0.999945
0.999975 1 1 0.999975
0.99997 1 1 0.99997
0.999951 1 1 0.999951
0.999956 1 1 0.999956
0.979412 0.983228 0.996126 0.999993
0.983832 0.983908 1 0.999922
0.996941 1.00012 0.996914 0.999909
1.0008 1 1.00087 0.999929
0.986168 0.988343 0.997794 1
0.998281 0.999772 0.998507 1
0.998758 1.00047 0.998288 1
0.999974 1 1 0.999974
0.999239 0.999771 0.999467 1
1.00005 0.99989 1.00016 1
1.00057 1 1.00062 0.999943
0.999965 1 1 0.999965
1.0018 1 1.00186 0.99994
1.00319 1 1.00327 0.999912
0.987231 0.986624 1.00077 0.999845
0.99364 0.996067 0.997564 1
0.999826 1.00026 0.99957 1
0.999971 1 1 0.999971
0.999937 0.999937 1 1
0.999921 0.999873 1.00005 1
1.0007 1 1.00073 0.999967
1.00649 1 1.00654 0.99996
0.995357 0.992515 1.003 0.999861
0.98949 1.0006 0.988902 0.999992
0.999917 0.999967 0.99995 1
0.999974 1 1 0.999974
0.999973 1 1 0.999973
0.99997 1 1 0.99997
0.999987 1 1 0.999987
0.999981 1 1 0.999981
0.999978 1 1 0.999978
0.999974 1 1 0.999974
0.999981 1 1 0.999981
0.999976 1 1 0.999976
0.999972 1 1 0.999972
0.999973 1 1 0.999973
0.999973 1 1 0.999973
0.999976 1 1 0.999976
0.999982 1 1 0.999982
0.999982 1 1 0.999982
0.99998 1 1 0.99998
0.999978 1 1 0.999978
0.999982 1 1 0.999982
0.999978 1 1 0.999978
0.999977 1 1 0.999977
0.999976 1 1 0.999976
0.999976 1 1 0.999976
0.999978 1 1 0.999978
0.999978 1 1 0.999978
0.999979 1 1 0.999979
0.999985 1 1 0.999985
0.999981 1 1 0.999981
0.999982 1 1 0.999982
0.999987 1 1 0.999987
0.999981 1 1 0.999981
0.999988 1 1 0.999988
0.999997 1 1 0.999997
0.999988 1 1 0.999988
0.999997 1 1 0.999997
1 1 1 1
0.999997 1 1 0.999997
1 1 1 1
1 1 1 1
1 1 1 1
1 1 1 1
1 1 1 1
1 1 1 1
1 1 1 1
1 1 1 1
0.999997 1 1 0.999997
1 1 1 1
0.999998 1 1 0.999998
1 1 1 1
1 1 1 1
0.999999 1 1 0.999999
1 1 1 1
1 1 1 1
1 1 1 1
1 1 1 1
1 1 1 1
1 1 1 1
0.999772 0.999831 0.999941 1
0.978922 0.981675 0.997189 1.00001
1.00012 0.999926 1.00019 1
0.999675 0.999875 0.9998 1
1.00018 1 1.00021 0.999972
1.00001 1 1.00004 0.999969
0.980846 0.98129 0.999587 0.99996
0.980895 0.983607 0.997263 0.99998
0.999342 0.999979 0.999363 1
1.00007 1 1.00011 0.999965
0.984323 0.983662 1.00079 0.999884
0.984739 0.987655 0.997084 0.999964
0.998942 0.999962 0.99898 1
1.00146 1 1.00151 0.999953
0.99124 0.987626 1.00381 0.999845
0.993917 0.995606 0.998303 1
0.999741 0.999724 1.00002 1
0.999978 1 1 0.999978
0.999983 1 1 0.999983
0.999991 1 1 0.999991
0.999986 1 1 0.999986
0.999981 1 1 0.999981
0.999985 1 1 0.999985
0.999987 1 1 0.999987
0.999989 1 1 0.999989
0.99999 1 1 0.99999
0.99999 1 1 0.99999
0.999986 1 1 0.999986
0.999983 1 1 0.999983
0.999965 1 1 0.999965
0.999964 1 1 0.999964
0.999965 1 1 0.999965
0.999972 1 1 0.999972
0.999973 1 1 0.999973
0.999974 1 1 0.999974
0.99996 1 0.999983 0.999977
0.99997 1 1 0.99997
0.999966 1 1 0.999966
0.999962 1 1 0.999962
0.999959 1 1 0.999959
0.999958 1 1 0.999958
0.999953 1 1 0.999953
0.99996 1 1 0.99996
0.999971 1 1 0.999971
0.999967 1 1 0.999967
0.999928 0.999928 1 1
0.999406 0.9998 0.999605 1
0.97926 0.982998 0.996179 1.00002
0.999974 1 1 0.999974
0.999965 1 1 0.999965
1.00058 1 1.00063 0.999942
0.999813 0.99986 0.999954 1
0.988871 0.987725 1.00132 0.999844
1.00263 1 1.00269 0.999946
1.00161 1 1.00168 0.999928
0.99045 0.993773 0.996695 0.999961
1.00003 0.999868 1.00016 1
0.999879 1.00016 0.999717 1
0.999972 1 1 0.999972
1 1 1 1
0.999904 0.999873 1.00003 1
1.0008 1 1.00083 0.999963
1.00694 1 1.00699 0.999956
0.996695 0.994257 1.0026 0.999855
0.999918 0.999914 1 1
0.993877 0.999795 0.9941 0.99998
0.999969 1 1 0.999969
1.00004 1.00004 1 1
0.999913 0.999899 1.00001 1
0.999778 0.999717 1.00006 1
1.00334 1 1.00337 0.999974
1.0087 0.997667 1.01117 0.999894
0.983787 1.00071 0.9831 0.999988
0.999973 1 1 0.999973
0.99997 1 1 0.99997
0.99997 1 1 0.99997
0.999981 1 1 0.999981
0.999976 1 1 0.999976
0.999972 1 1 0.999972
0.999977 1 1 0.999977
0.999972 1 1 0.999972
0.999972 1 1 0.999972
0.999973 1 1 0.999973
0.999974 1 1 0.999974
0.999978 1 1 0.999978
0.999982 1 1 0.999982
0.999978 1 1 0.999978
0.999976 1 1 0.999976
0.999977 1 1 0.999977
0.999974 1 1 0.999974
0.999977 1 1 0.999977
0.999972 1 1 0.999972
0.999978 1 1 0.999978
0.999978 1 1 0.999978
0.999974 1 1 0.999974
0.999978 1 1 0.999978
0.999984 1 1 0.999984
0.999978 1 1 0.999978
0.999989 1 1 0.999989
0.999984 1 1 0.999984
0.999982 1 1 0.999982
0.999983 1 1 0.999983
0.999988 1 1 0.999988
0.999997 1 1 0.999997
0.999988 1 1 0.999988
0.999997 1 1 0.999997
1 1 1 1
0.999997 1 1 0.999997
1 1 1 1
1 1 1 1
1 1 1 1
1 1 1 1
1 1 1 1
1 1 1 1
1 1 1 1
1 1 1 1
0.999996 1 1 0.999996
1 1 1 1
0.999996 1 1 0.999996
1 1 1 1
1 1 1 1
0.999997 1 1 0.999997
1 1 1 1
1 1 1 1
1 1 1 1
1 1 1 1
1 1 1 1
1 1 1 1
0.999891 0.999873 1.00002 1
0.998759 0.999819 0.998939 1
0.98007 0.981304 0.998742 1
0.999987 1 1 0.999987
1.00008 1.00007 1.00001 1
1.00006 0.999919 1.00014 1
0.998386 0.999857 0.998528 1
0.999954 1 1 0.999954
0.985031 0.983372 1.00182 0.99987
0.98611 0.98791 0.998171 1.00001
0.998375 1.00004 0.998335 1
1.0012 1.00003 1.00125 0.999923
0.990306 0.986697 1.00381 0.999846
0.992915 0.994906 0.998022 0.999977
0.999731 1.00002 0.999708 1
1.00381 1 1.0039 0.99991
0.998019 0.993644 1.00459 0.99981
0.996283 1.00009 0.996237 0.999962
0.999988 1.00004 0.999947 1
0.999975 1 1 0.999975
0.999978 1 1 0.999978
0.999984 1 1 0.999984
0.999981 1 1 0.999981
0.999982 1 1 0.999982
0.999985 1 1 0.999985
0.999989 1 1 0.999989
0.99999 1 1 0.99999
0.999943 1 0.999966 0.999977
0.999963 1 1 0.999963
0.999974 1 1 0.999974
0.999959 1 1 0.999959
0.999966 1 1 0.999966
0.99997 1 1 0.99997
0.999971 1 1 0.999971
0.999941 1 0.999983 0.999957
0.999967 1 1 0.999967
0.99996 1 1 0.99996
0.999986 1 1.00003 0.999953
0.99997 1 1 0.99997
1.00102 1 1.00107 0.999949
0.999955 1 1 0.999955
0.999964 1 1 0.999964
0.999965 1 1 0.999965
1.00005 1.00005 1 1
0.99989 0.99989 1 1
0.999795 0.999804 0.999991 1
0.999973 1 1 0.999973
1.0009 1 1.00094 0.99996
1.00007 1.00007 1 1
0.996501 0.992522 1.00417 0.99984
1.00631 1 1.00638 0.999931
0.993435 0.999948 0.993517 0.99997
0.999888 0.999856 1.00003 1
0.999913 0.999844 1.00007 1
0.999969 1 1 0.999969
1.00005 1.00005 1 1
0.999967 0.999955 1.00001 1
1.00226 1 1.00228 0.999981
0.999691 1.00003 0.999666 1
1.00486 0.998866 1.0061 0.999899
0.98726 1.0005 0.986803 0.999966
0.999974 1 1 0.999974
1.00002 1.00003 0.999997 1
1.00008 1.00008 1.00001 1
0.998806 1.00056 0.998243 1
0.994588 0.999278 0.99534 0.999967
1.01116 1 1.01117 0.999989
1.00916 0.998911 1.01035 0.999912
0.99997 1 1 0.99997
0.99997 1 1 0.99997
0.999975 1 1 0.999975
0.999977 1 1 0.999977
0.999972 1 1 0.999972
0.999972 1 1 0.999972
0.999974 1 1 0.999974
0.999973 1 1 0.999973
0.999969 1 1 0.999969
0.999976 1 1 0.999976
0.999977 1 1 0.999977
0.999974 1 1 0.999974
0.999969 1 1 0.999969
0.999978 1 1 0.999978
0.999972 1 1 0.999972
0.999969 1 1 0.999969
0.999973 1 1 0.999973
0.999978 1 1 0.999978
0.999974 1 1 0.999974
0.999979 1 1 0.999979
0.999983 1 1 0.999983
0.999979 1 1 0.999979
0.99999 1 1 0.99999
0.999984 1 1 0.999984
0.999978 1 1 0.999978
0.999997 1 1 0.999997
0.999989 1 1 0.999989
0.999984 1 1 0.999984
0.999988 1 1 0.999988
0.999997 1 1 0.999997
1 1 1 1
0.999997 1 1 0.999997
1 1 1 1
1 1 1 1
1 1 1 1
1 1 1 1
1 1 1 1
1 1 1 1
1 1 1 1
1 1 1 1
0.999995 1 1 0.999995
1 1 1 1
0.999996 1 1 0.999996
1 1 1 1
1 1 1 1
0.999996 1 1 0.999996
1 1 1 1
1 1 1 1
1 1 1 1
1 1 1 1
1 1 1 1
1 1 1 1
1.00004 1.00004 1 1
0.999892 0.99988 1.00001 1
0.998917 0.999821 0.999094 1
0.999987 1 1 0.999987
0.999986 1 1 0.999986
0.999981 1 1 0.999981
0.999903 0.999895 1.00001 1
1.00009 1.00008 1.00001 1
0.999998 0.999916 1.00008 1
1.00148 1.00004 1.00149 0.999949
0.991485 0.987524 1.00416 0.999855
0.991899 0.995485 0.996441 0.999957
0.999825 0.999714 1.00011 1
1.00416 1.00002 1.0042 0.999943
0.9989 0.992688 1.0064 0.999854
0.996386 1.00102 0.995377 0.999989
0.999938 0.999942 0.999996 1
1.00709 1 1.00713 0.99996
1.00272 0.998748 1.00411 0.999867
0.986029 1.00108 0.984982 0.999983
0.999897 0.999896 1 1
0.999974 1 1 0.999974
0.999975 1 1 0.999975
0.999977 1 1 0.999977
0.999981 1 1 0.999981
0.999983 1 1 0.999983
0.999989 1 1 0.999989
0.999929 1 0.999973 0.999957
1.00002 1 1.00006 0.999953
0.999971 1 1 0.999971
0.999959 1 1 0.999959
0.999966 1 1 0.999966
0.999969 1 1 0.999969
0.999965 1 1 0.999965
1.00067 1 1.00073 0.999948
0.999964 1 1 0.999964
0.999986 1 1.00003 0.999954
0.999965 1 1 0.999965
1.00243 1 1.00248 0.999953
0.999978 1 1.00002 0.99996
0.999959 1 1 0.999959
0.999959 0.999957 1 1
1.00002 1.00002 1 1
0.99985 0.99985 1 1
0.99997 1 1 0.99997
1.00455 1 1.00456 0.999983
1.00005 1.00005 1 1
1.00482 0.999682 1.0052 0.999939
0.983289 1.0004 0.98291 0.999989
1.00002 1.00002 1 1
0.999874 0.999706 1.00017 1
0.999974 1 1 0.999974
1.00001 1.00001 0.999999 1
1.00009 1.00008 1.00001 1
1.01318 0.999952 1.01327 0.999967
0.998902 0.999959 0.998943 1
0.99472 1.00102 0.993715 0.999992
1.00187 0.999669 1.0023 0.999905
1.00004 1 1.00006 0.999981
1.00004 1.00004 1 1
1.00014 0.999917 1.00023 1
0.996788 1.00003 0.996757 1
0.99331 0.995195 0.998105 1
1.00652 0.997863 1.00879 0.999883
1.01921 0.999481 1.01978 0.999956
0.99997 1 1 0.99997
0.999975 1 1 0.999975
0.999983 1 1.00002 0.999965
0.999974 1 1 0.999974
0.999974 1 1 0.999974
0.999969 1 1 0.999969
0.999958 1 1 0.999958
0.999973 1 1 0.999973
0.999968 1 1 0.999968
0.999964 1 1 0.999964
0.999973 1 1 0.999973
0.999969 1 1 0.999969
0.999968 1 1 0.999968
0.999971 1 1 0.999971
0.999976 1 1 0.999976
0.999972 1 1 0.999972
0.999974 1 1 0.999974
0.999983 1 1 0.999983
0.99998 1 1 0.99998
0.999988 1 1 0.999988
0.999984 1 1 0.999984
0.999979 1 1 0.999979
0.999997 1 1 0.999997
0.99999 1 1 0.99999
0.999984 1 1 0.999984
1 1 1 1
0.999997 1 1 0.999997
0.999988 1 1 0.999988
0.999997 1 1 0.999997
1 1 1 1
1 1 1 1
1 1 1 1
1 1 1 1
1 1 1 1
1 1 1 1
1 1 1 1
1 1 1 1
0.999997 1 1 0.999997
1 1 1 1
0.999996 1 1 0.999996
1 1 1 1
1 1 1 1
0.999996 1 1 0.999996
1 1 1 1
1 1 1 1
1 1 1 1
1 1 1 1
1 1 1 1
1 1 1 1
1.00003 1.00003 0.999998 1
1.00004 1.00004 1 1
0.999873 0.999873 1 1
0.999987 1 1 0.999987
0.999985 1 1 0.999985
0.999987 1 1 0.999987
0.999986 1 1 0.999986
0.999981 1 1 0.999981
0.999981 1 1 0.999981
0.999977 1 1 0.999977
0.999938 0.999871 1.00007 1
0.999965 0.999964 1 1
1.00009 1.00009 1 1
0.999881 0.999848 1.00003 1
1.00356 1.00006 1.00359 0.999907
1.00057 0.994602 1.00612 0.999888
0.98908 1.00004 0.989083 0.999954
1.0065 1 1.00657 0.999935
1.00243 0.998775 1.00378 0.999879
0.989543 1.0006 0.988992 0.999956
0.9999 1.00035 0.999554 1
1.01181 1 1.01184 0.99997
1.008 1.00011 1.008 0.999888
0.991066 1.00086 0.990228 0.999989
0.999858 0.999989 0.999868 1
0.999971 1 1 0.999971
0.999974 1 1 0.999974
0.999975 1 1 0.999975
0.99998 1 1 0.99998
1.00036 1 1.00041 0.999947
1.00002 1 1.00007 0.999954
0.999969 1 1 0.999969
0.999964 1 1 0.999964
0.999963 1 1 0.999963
0.999965 1 1 0.999965
0.999959 1 1 0.999959
1.00207 1 1.00211 0.999954
0.999987 1 1.00003 0.999961
0.999961 1 1 0.999961
1.0033 1 1.00333 0.999968
0.999951 1 1 0.999951
1.00005 1.00005 1 1
0.999979 0.999978 1 1
1 1 1 1
0.999973 1 1 0.999973
1.0111 1 1.01111 0.99999
0.999989 0.999989 1 1
1.00955 0.998767 1.01089 0.999907
0.986639 0.999587 0.987087 0.999959
1.00009 1.00009 1 1
0.998268 1.00004 0.998232 1
1.00001 1 1.00003 0.999982
1.00004 1.00004 1 1
1.00008 0.999911 1.00017 1
1.02417 1 1.02419 0.999974
0.998118 1 0.998114 1
0.991868 0.994442 0.997432 0.999979
1.00519 0.998228 1.00708 0.999896
1.00138 1 1.00141 0.999969
0.999912 0.999868 1.00004 1
0.999838 0.999883 0.999954 1
0.983568 0.987575 0.995935 1.00001
0.998823 0.993097 1.00592 0.999848
1.01774 1 1.01781 0.999931
0.999975 1 1 0.999975
0.999976 1 1.00001 0.999965
1.00052 1 1.00057 0.999952
0.99997 1 1 0.99997
0.999959 1 1 0.999959
0.999954 1 1 0.999954
0.999967 1 1 0.999967
0.999963 1 1 0.999963
0.999963 1 1 0.999963
0.999969 1 1 0.999969
0.999968 1 1 0.999968
0.99997 1 1 0.99997
0.999973 1 1 0.999973
0.999974 1 1 0.999974
0.999971 1 1 0.999971
0.99998 1 1 0.99998
0.999977 1 1 0.999977
0.999972 1 1 0.999972
0.999987 1 1 0.999987
0.999983 1 1 0.999983
0.99998 1 1 0.99998
0.999997 1 1 0.999997
0.999989 1 1 0.999989
0.999985 1 1 0.999985
1 1 1 1
0.999997 1 1 0.999997
0.99999 1 1 0.99999
1 1 1 1
1 1 1 1
0.999997 1 1 0.999997
1 1 1 1
1 1 1 1
1 1 1 1
1 1 1 1
1 1 1 1
1 1 1 1
0.999989 1 1 0.999989
0.999997 1 1 0.999997
1 1 1 1
0.999996 1 1 0.999996
1 1 1 1
1 1 1 1
0.999996 1 1 0.999996
1 1 1 1
1 1 1 1
1 1 1 1
1 1 1 1
1 1 1 1
1 1 1 1
1.00004 1.00004 1 1
1.00001 1.00001 1 1
1.00004 1.00004 1 1
0.999988 1 1 0.999988
0.999984 1 1 0.999984
0.999984 1 1 0.999984
0.999982 1 1 0.999982
0.999982 1 1 0.999982
0.999986 1 1 0.999986
0.99998 1 1 0.99998
0.999981 1 1 0.999981
0.999977 1 1 0.999977
0.999977 1 1 0.999977
1.00007 0.999932 1.00014 1
0.999919 0.999871 1.00005 1
1.00002 1.00002 1 1
0.999992 1.00022 0.999768 1
0.985528 1.00072 0.984837 0.999984
1.00659 1 1.00667 0.999919
1.00696 0.998766 1.00832 0.999883
1.01326 0.999995 1.01332 0.99994
0.998842 0.999996 0.998962 0.999884
0.995707 0.999937 0.995796 0.999974
0.99966 0.999975 0.999685 1
1.01754 0.999961 1.01763 0.999949
1.00624 0.997458 1.00892 0.999882
0.991112 0.995471 0.995664 0.999957
0.997372 0.999941 0.997429 1
0.999973 1 1 0.999973
0.999971 1 1 0.999971
0.999974 1 1 0.999974
1.00168 1 1.00173 0.999956
0.999997 1 1.00004 0.999962
0.999966 1 1 0.999966
0.999959 1 1 0.999959
0.999961 1 1 0.999961
0.999951 1 1 0.999951
1.0033 1 1.00333 0.999968
0.999957 1 1 0.999957
1.0011 1 1.00114 0.999958
0.99992 0.99992 1 1
1.00002 1.00002 1 1
0.999998 0.999997 1 1
0.999982 1 1 0.999982
1.0239 0.999881 1.02407 0.999951
1.00004 1.00004 1 1
1.00728 0.997388 1.01006 0.999865
0.99115 0.995058 0.996114 0.999958
1.00003 0.999908 1.00012 1
0.999329 0.999974 0.999356 1
1.00141 1 1.00144 0.999969
0.999902 0.999876 1.00003 1
0.999672 0.999866 0.999806 1
1.01902 0.999846 1.01923 0.999948
0.984278 0.987363 0.996912 0.999964
0.99896 0.992093 1.00709 0.999831
1.00271 1 1.00276 0.999955
0.999774 0.999825 0.99995 1
0.980893 0.983895 0.996971 0.999978
0.990413 0.9872 1.00341 0.999845
1.00832 1 1.00838 0.999941
0.999965 1 1 0.999965
1.00052 1 1.00057 0.999952
1.0005 1 1.00056 0.999948
0.99996 1 1 0.99996
0.999954 1 1 0.999954
0.99996 1 1 0.99996
0.999962 1 1 0.999962
0.999964 1 1 0.999964
0.999972 1 1 0.999972
0.999967 1 1 0.999967
0.99997 1 1 0.99997
0.999976 1 1 0.999976
0.999977 1 1 0.999977
0.999973 1 1 0.999973
0.999973 1 1 0.999973
0.999978 1 1 0.999978
0.999973 1 1 0.999973
0.99997 1 1 0.99997
0.999986 1 1 0.999986
0.999981 1 1 0.999981
0.999977 1 1 0.999977
0.999996 1 1 0.999996
0.999987 1 1 0.999987
0.999982 1 1 0.999982
1 1 1 1
0.999997 1 1 0.999997
0.999989 1 1 0.999989
1 1 1 1
1 1 1 1
0.999998 1 1 0.999998
1 1 1 1
1 1 1 1
1 1 1 1
1 1 1 1
1 1 1 1
1 1 1 1
0.999989 1 1 0.999989
0.999997 1 1 0.999997
0.999989 1 1 0.999989
1 1 1 1
0.999997 1 1 0.999997
1 1 1 1
1 1 1 1
0.999996 1 1 0.999996
1 1 1 1
1 1 1 1
1 1 1 1
1 1 1 1
1 1 1 1
1 1 1 1
1.00008 1.00008 1 1
1.00005 1.00005 1 1
0.999989 0.999989 1 1
0.999985 1 1 0.999985
0.999988 1 1 0.999988
0.999984 1 1 0.999984
0.999983 1 1 0.999983
0.999985 1 1 0.999985
0.999982 1 1 0.999982
0.999981 1 1 0.999981
0.99998 1 1 0.99998
0.999981 1 1 0.999981
0.999978 1 1 0.999978
0.999977 1 1 0.999977
0.999977 1 1 0.999977
0.998371 0.999725 0.998644 1
1.00004 0.999897 1.00015 1
0.9999 0.999872 1.00003 1
0.998755 1.00057 0.99819 1
0.995802 1.00042 0.995424 0.999959
1.00798 1.00011 1.00798 0.999888
1.01233 1 1.01235 0.999977
1.02239 1 1.02241 0.999977
0.998426 0.999952 0.998474 1
0.999917 0.998665 1.00139 0.999866
0.993104 0.995503 0.99759 1
1.00928 1 1.0093 0.999974
0.998662 0.992247 1.00661 0.999855
0.984133 0.987985 0.996093 1.00001
0.999974 1 1 0.999974
0.999973 1 1 0.999973
0.999972 1 1 0.999972
1.0033 1 1.00334 0.999968
0.999951 1 1 0.999951
0.999961 1 1 0.999961
0.999957 1 1 0.999957
1.00107 1 1.00111 0.999959
0.999963 1 1 0.999963
0.998617 0.999619 0.998996 1
0.999965 0.999965 1 1
1 1 1 1
1.00145 1 1.00149 0.999969
1.01724 1 1.01729 0.999954
0.999869 0.99987 1 1
1.00292 0.99411 1.00896 0.999899
0.985616 0.987544 0.998041 1.00001
0.99832 0.999849 0.99847 1
1.00296 1 1.003 0.999955
0.998671 0.999813 0.998856 1
0.982217 0.984425 0.997744 1.00001
1.00881 1 1.0089 0.999909
0.989849 0.986408 1.00364 0.999845
1.00108 1 1.00114 0.999941
0.979691 0.982898 0.996718 1.00002
0.984087 0.983411 1.0008 0.99989
1.00263 1 1.00273 0.999907
1.00052 1 1.00057 0.999952
1.00058 1 1.00064 0.999946
0.999964 1 1 0.99996
0.999954 1 1 0.999954
0.999961 1 1 0.999961
0.999977 1 1 0.999977
0.999964 1 1 0.999964
0.999972 1 1 0.999972
0.999982 1 1 0.999982
0.99997 1 1 0.99997
0.999976 1 1 0.999976
0.999982 1 1 0.999982
0.99998 1 1 0.99998
0.999976 1 1 0.999976
0.999977 1 1 0.999977
0.999976 1 1 0.999976
0.999974 1 1 0.999974
0.999973 1 1 0.999973
0.999984 1 1 0.999984
0.999978 1 1 0.999978
0.999973 1 1 0.999973
0.999995 1 1 0.999995
0.999986 1 1 0.999986
0.999981 1 1 0.999981
1 1 1 1
0.999996 1 1 0.999996
0.999987 1 1 0.999987
1 1 1 1
1 1 1 1
0.999997 1 1 0.999997
1 1 1 1
1 1 1 1
1 1 1 1
1 1 1 1
1 1 1 1
1 1 1 1
0.99999 1 1 0.99999
0.999989 1 1 0.999989
0.999997 1 1 0.999997
1 1 1 1
0.999997 1 1 0.999997
0.999988 1 1 0.999988
1 1 1 1
1 1 1 1
0.999997 1 1 0.999997
1 1 1 1
1 1 1 1
1 1 1 1
1 1 1 1
1 1 1 1
1 1 1 1
0.999577 0.999642 0.999935 1
1.00008 1.00008 1 1
1.00005 1.00005 1 1
0.999985 1 1 0.999985
0.999984 1 1 0.999984
0.999982 1 1 0.999982
0.999984 1 1 0.999984
0.999986 1 1 0.999986
0.999982 1 1 0.999982
0.99998 1 1 0.99998
0.999981 1 1 0.999981
0.999978 1 1 0.999978
0.999977 1 1 0.999977
0.999977 1 1 0.999977
0.999976 1 1 0.999976
0.983204 0.984634 0.998536 1.00001
0.998929 0.999753 0.999175 1
1.00002 0.99987 1.00015 1
0.999339 0.999963 0.999376 1
0.989906 0.993388 0.996533 0.999962
1.00393 0.99998 1.00405 0.999904
1.01885 0.999995 1.01891 0.999949
1.01151 1 1.01157 0.99994
0.984392 0.987541 0.996842 0.99997
0.999879 0.994081 1.00595 0.999884
1.00629 1 1.00637 0.999923
0.990968 0.987074 1.00407 0.999875
0.999971 1 1 0.999971
0.999975 1 1 0.999975
0.999973 1 1 0.999973
1.00104 1 1.00108 0.999959
0.999958 1 1 0.999958
0.999976 1 1.00001 0.999964
0.999964 1 1 0.999964
0.978317 0.983386 0.994826 1.00002
0.999261 0.999713 0.999547 1
1.00002 1.00002 1 1
1.00321 1 1.00326 0.999954
1.00868 1 1.00873 0.999948
0.998804 0.999816 0.998986 1
0.990616 0.987305 1.0035 0.999853
0.980641 0.983505 0.997109 0.99998
1.00106 1 1.00111 0.999943
0.978802 0.981838 0.996901 1.00001
0.984234 0.983671 1.00069 0.999882
1.0032 1.00017 1.00309 0.999942
0.999055 1 0.999103 0.999952
0.9805 0.981032 0.999551 0.999906
1.00078 1 1.00083 0.999953
1.00069 1 1.00075 0.999945
0.999971 1 1.00001 0.99996
0.999983 1 1 0.999983
0.999961 1 1 0.999961
0.999977 1 1 0.999977
0.999991 1 1 0.999991
0.999973 1 1 0.999973
0.999982 1 1 0.999982
0.999987 1 1 0.999987
0.999976 1 1 0.999976
0.999982 1 1 0.999982
0.999982 1 1 0.999982
0.999979 1 1 0.999979
0.99998 1 1 0.99998
0.999978 1 1 0.999978
0.999977 1 1 0.999977
0.999976 1 1 0.999976
0.999977 1 1 0.999977
0.999981 1 1 0.999981
0.999977 1 1 0.999977
0.999974 1 1 0.999974
0.999993 1 1 0.999993
0.999984 1 1 0.999984
0.999978 1 1 0.999978
1 1 1 1
0.999995 1 1 0.999995
0.999986 1 1 0.999986
1 1 1 1
1 1 1 1
0.999996 1 1 0.999996
1 1 1 1
1 1 1 1
1 1 1 1
1 1 1 1
1 1 1 1
1 1 1 1
0.999989 1 1 0.999989
0.999989 1 1 0.999989
0.999997 1 1 0.999997
0.99999 1 1 0.99999
0.999997 1 1 0.999997
1 1 1 1
1 1 1 1
1 1 1 1
0.999997 1 1 0.999997
1 1 1 1
1 1 1 1
1 1 1 1
1 1 1 1
1 1 1 1
1 1 1 1
0.981779 0.982895 0.998871 0.999994
0.99904 0.999667 0.999372 1
1.00008 1.00008 1 1
0.999984 1 1 0.999984
0.999982 1 1 0.999982
0.999984 1 1 0.999984
0.999983 1 1 0.999983
0.999981 1 1 0.999981
0.99998 1 1 0.99998
0.999982 1 1 0.999982
0.999978 1 1 0.999978
0.999978 1 1 0.999978
0.999977 1 1 0.999977
0.999974 1 1 0.999974
0.999977 1 1 0.999977
0.999976 1 1 0.999976
0.98495 0.984227 1.00086 0.999871
0.983085 0.984605 0.998457 1
0.998362 0.999781 0.998579 1
0.986098 0.988211 0.997855 1.00001
0.998568 0.992191 1.00661 0.999817
1.00927 1 1.0093 0.999974
1.00643 1 1.00649 0.99994
0.990209 0.986665 1.00372 0.999868
1.00282 1 1.00288 0.999937
0.999959 1 1 0.999959
0.99997 1 1 0.99997
0.999975 1 1 0.999975
0.999988 1 1.00002 0.999964
0.999968 1 1 0.999968
0.979746 0.981868 0.997893 0.999946
0.979053 0.982309 0.996686 0.999999
0.999779 0.999799 0.99998 1
1.00109 1 1.00115 0.999944
1.00307 1.00037 1.0028 0.999904
0.980155 0.981522 0.998608 0.999999
0.9854 0.983477 1.00209 0.999867
0.999006 1 0.999056 0.999951
0.980323 0.981488 0.998882 0.99993
1.00033 1.00018 1.00022 0.999922
0.998735 1 0.998761 0.999974
1.00129 1 1.00132 0.999968
0.99996 1 1 0.99996
0.999983 1 1 0.999983
0.999995 1 1 0.999995
0.999978 1 1 0.999978
0.99999 1 1 0.99999
0.99999 1 1 0.99999
0.999982 1 1 0.999982
0.999987 1 1 0.999987
0.999983 1 1 0.999983
0.999982 1 1 0.999982
0.999982 1 1 0.999982
0.999978 1 1 0.999978
0.999979 1 1 0.999979
0.999977 1 1 0.999977
0.99998 1 1 0.99998
0.999978 1 1 0.999978
0.999978 1 1 0.999978
0.99998 1 1 0.99998
0.999977 1 1 0.999977
0.999976 1 1 0.999976
0.99999 1 1 0.99999
0.999982 1 1 0.999982
0.999977 1 1 0.999977
1 1 1 1
0.999993 1 1 0.999993
0.999984 1 1 0.999984
1 1 1 1
1 1 1 1
0.999995 1 1 0.999995
1 1 1 1
1 1 1 1
1 1 1 1
1 1 1 1
1 1 1 1
1 1 1 1
0.999986 1 1 0.999986
0.999989 1 1 0.999989
0.999995 1 1 0.999995
0.999988 1 1 0.999988
0.999996 1 1 0.999996
1 1 1 1
0.999997 1 1 0.999997
1 1 1 1
1 1 1 1
1 1 1 1
1 1 1 1
1 1 1 1
1 1 1 1
1 1 1 1
1 1 1 1
0.98281 0.983266 0.999606 0.999931
0.980689 0.984216 0.996399 1.00002
0.999648 0.999692 0.999956 1
0.999982 1 1 0.999982
0.999984 1 1 0.999984
0.999981 1 1 0.999981
0.999983 1 1 0.999983
0.999982 1 1 0.999982
0.999981 1 1 0.999981
0.999978 1 1 0.999978
0.999978 1 1 0.999978
0.999977 1 1 0.999977
0.999977 1 1 0.999977
0.999975 1 1 0.999975
0.999962 1 1 0.999962
0.999974 1 1 0.999974
0.999977 1 1 0.999977
1.00003 1 1.00005 0.99998
0.983817 0.983908 1 0.999903
0.98075 0.983741 0.996977 0.999983
0.991233 0.987761 1.00365 0.999862
1.00646 1 1.00649 0.999965
1.0034 1 1.00344 0.99996
0.999952 1 1 0.999952
0.999958 1 1 0.999958
0.999969 1 1 0.999969
0.999973 1 1 0.999973
1.0003 1 1.00033 0.999962
0.981123 0.98209 0.99907 0.999945
0.979166 0.983386 0.995691 1.00002
0.998847 1 0.998897 0.99995
1.00108 1.00034 1.00079 0.999948
0.981237 0.981497 0.999776 0.999958
0.998837 1 0.998863 0.999974
1.00038 1 1.00041 0.999965
0.999593 1 0.999609 0.999985
1.00061 1 1.00064 0.99997
0.999983 1 1 0.999983
0.999994 1 1 0.999994
0.999987 1 1 0.999987
0.99999 1 1 0.99999
0.99999 1 1 0.99999
0.999982 1 1 0.999982
0.999986 1 1 0.999986
0.999983 1 1 0.999983
0.999977 1 1 0.999977
0.999982 1 1 0.999982
0.999979 1 1 0.999979
0.999975 1 1 0.999975
0.999979 1 1 0.999979
0.999977 1 1 0.999977
0.999977 1 1 0.999977
0.999978 1 1 0.999978
0.999978 1 1 0.999978
0.99998 1 1 0.99998
0.999987 1 1 0.999987
0.999981 1 1 0.999981
0.999977 1 1 0.999977
1 1 1 1
0.99999 1 1 0.99999
0.999982 1 1 0.999982
1 1 1 1
1 1 1 1
0.999993 1 1 0.999993
1 1 1 1
1 1 1 1
1 1 1 1
1 1 1 1
1 1 1 1
1 1 1 1
0.999986 1 1 0.999986
0.999987 1 1 0.999987
0.999994 1 1 0.999994
0.999989 1 1 0.999989
0.999995 1 1 0.999995
1 1 1 1
0.999996 1 1 0.999996
1 1 1 1
1 1 1 1
1 1 1 1
1 1 1 1
1 1 1 1
1 1 1 1
1 1 1 1
1 1 1 1
0.999224 1 0.99923 0.999994
0.982227 0.983379 0.998896 0.999932
0.979582 0.983908 0.995609 0.999995
0.99998 1 1 0.99998
0.999982 1 1 0.999982
0.999984 1 1 0.999984
0.99998 1 1 0.99998
0.999982 1 1 0.999982
0.999979 1 1 0.999979
0.999978 1 1 0.999978
0.999977 1 1 0.999977
0.999977 1 1 0.999977
0.999976 1 1 0.999976
0.999969 1 1 0.999969
0.999951 1 1 0.999951
0.999962 1 1 0.999962
0.999974 1 1 0.999974
0.999466 1 0.999504 0.999962
0.999843 1 0.999884 0.999959
0.984233 0.983671 1.00064 0.999933
1.00297 1 1.00304 0.99993
0.999945 1 1 0.999945
0.999958 1 1 0.999958
1.00002 1 1.00002 0.999996
1.00056 1 1.00058 0.999987
0.980581 0.982679 0.997922 0.999943
0.998952 1 0.998979 0.999973
1.00015 1 1.0002 0.999954
0.999774 1 0.999789 0.999984
1.00027 1 1.0003 0.999972
0.999973 1 1 0.999973
0.999974 1 1 0.999974
0.999994 1 1 0.999994
0.999987 1 1 0.999987
0.999975 1 1 0.999975
0.999989 1 1 0.999989
0.999982 1 1 0.999982
0.999975 1 1 0.999975
0.999983 1 1 0.999983
0.999977 1 1 0.999977
0.999973 1 1 0.999973
0.999979 1 1 0.999979
0.999975 1 1 0.999975
0.999975 1 1 0.999975
0.999977 1 1 0.999977
0.999977 1 1 0.999977
0.999978 1 1 0.999978
0.999978 1 1 0.999978
0.99998 1 1 0.99998
0.999986 1 1 0.999986
0.999999 1 1 0.999999
0.999988 1 1 0.999988
0.999981 1 1 0.999981
1 1 1 1
1 1 1 1
0.99999 1 1 0.99999
1 1 1 1
1 1 1 1
1 1 1 1
1 1 1 1
1 1 1 1
1 1 1 1
0.999984 1 1 0.999984
0.999986 1 1 0.999986
0.999993 1 1 0.999993
0.999988 1 1 0.999988
0.999994 1 1 0.999994
1 1 1 1
0.999995 1 1 0.999995
1 1 1 1
1 1 1 1
1 1 1 1
1 1 1 1
1 1 1 1
1 1 1 1
1 1 1 1
1 1 1 1
0.999478 1 0.999487 0.999991
0.999105 1 0.999141 0.999964
0.982911 0.983304 0.999659 0.999941
0.999979 1 1 0.999979
0.999977 1 1 0.999977
0.99998 1 1 0.99998
0.99998 1 1 0.99998
0.999982 1 1 0.999982
0.999979 1 1 0.999979
0.99997 1 1 0.99997
0.999978 1 1 0.999978
0.999977 1 1 0.999977
0.999968 1 1 0.999968
0.999956 1 1 0.999956
0.999971 1 1 0.999971
0.999952 1 1 0.999952
0.999963 1 1 0.999963
0.999546 1 0.999583 0.999963
0.999791 1 0.999842 0.999948
0.999939 1 1 0.999939
0.999999 1 1 0.999999
1.00029 1 1.0003 0.999996
1.00055 1 1.00058 0.999971
0.999984 1 1 0.999984
0.999987 1 1.00001 0.999974
0.999973 1 1 0.999973
0.999976 1 1 0.999976
0.999971 1 1 0.999971
0.999989 1 1 0.999989
0.999986 1 1 0.999986
0.999976 1 1 0.999976
0.999972 1 1 0.999972
0.999982 1 1 0.999982
0.999975 1 1 0.999975
0.999972 1 1 0.999972
0.999977 1 1 0.999977
0.999973 1 1 0.999973
0.999972 1 1 0.999972
0.999975 1 1 0.999975
0.999975 1 1 0.999975
0.999976 1 1 0.999976
0.999977 1 1 0.999977
0.999978 1 1 0.999978
0.999984 1 1 0.999984
0.99998 1 1 0.99998
0.999986 1 1 0.999986
0.999998 1 1 0.999998
1 1 1 1
0.999999 1 1 0.999999
0.999988 1 1 0.999988
1 1 1 1
1 1 1 1
0.999999 1 1 0.999999
1 1 1 1
1 1 1 1
1 1 1 1
0.999981 1 1 0.999981
0.999983 1 1 0.999983
0.999991 1 1 0.999991
0.999986 1 1 0.999986
0.999993 1 1 0.999993
1 1 1 1
0.999995 1 1 0.999995
1 1 1 1
1 1 1 1
1 1 1 1
1 1 1 1
1 1 1 1
1 1 1 1
1 1 1 1
1 1 1 1
0.999994 1 1 0.999994
0.999574 1 0.999582 0.999992
0.999045 1 0.999049 0.999996
0.999974 1 1 0.999974
0.999979 1 1 0.999979
0.999971 1 1 0.999971
0.999977 1 1 0.999977
0.99998 1 1 0.99998
0.999961 1 1 0.999961
0.999979 1 1 0.999979
0.99997 1 1 0.99997
0.999966 1 1 0.999966
0.999968 1 1 0.999968
0.999955 1 1 0.999955
0.99997 1 1 0.99997
0.999953 1 1 0.999953
0.999624 1 0.999661 0.999964
0.999999 1 1 0.999999
0.999998 1 1 0.999998
1.00053 1 1.00053 0.999996
0.999974 1 1 0.999974
0.999978 1 1 0.999978
0.99997 1 1 0.99997
0.99999 1 1 0.99999
0.999985 1 1 0.999985
0.999976 1 1 0.999976
0.999972 1 1 0.999972
0.999975 1 1 0.999975
0.999975 1 1 0.999975
0.999972 1 1 0.999972
0.999972 1 1 0.999972
0.999973 1 1 0.999973
0.999972 1 1 0.999972
0.999974 1 1 0.999974
0.999975 1 1 0.999975
0.999976 1 1 0.999976
0.999982 1 1 0.999982
0.999978 1 1 0.999978
0.999984 1 1 0.999984
0.999996 1 1 0.999996
0.999985 1 1 0.999985
0.999998 1 1 0.999998
1 1 1 1
1 1 1 1
1 1 1 1
0.999999 1 1 0.999999
1 1 1 1
1 1 1 1
1 1 1 1
0.999971 1 1 0.999971
0.999977 1 1 0.999977
0.99998 1 1 0.99998
0.999989 1 1 0.999989
0.999983 1 1 0.999983
0.999991 1 1 0.999991
1 1 1 1
0.999993 1 1 0.999993
1 1 1 1
1 1 1 1
1 1 1 1
1 1 1 1
1 1 1 1
1 1 1 1
1 1 1 1
1 1 1 1
0.999988 1 1 0.999988
0.999994 1 1 0.999994
0.999673 1 0.99968 0.999993
0.999966 1 1 0.999966
0.999975 1 1 0.999975
0.99998 1 1 0.99998
0.999972 1 1 0.999972
0.999977 1 1 0.999977
0.999963 1 1 0.999963
0.999961 1 1 0.999961
0.99997 1 1 0.99997
0.999965 1 1 0.999965
0.999953 1 1 0.999953
0.99997 1 1 0.99997
0.999997 1 1 0.999997
0.999999 1 1 0.999999
0.999997 1 1 0.999997
0.999969 1 1 0.999969
0.999991 1 1 0.999991
0.999985 1 1 0.999985
0.999985 1 1 0.999985
0.999973 1 1 0.999973
0.999974 1 1 0.999974
0.999977 1 1 0.999977
0.999971 1 1 0.999971
0.999972 1 1 0.999972
0.999974 1 1 0.999974
0.999972 1 1 0.999972
0.999974 1 1 0.999974
0.999979 1 1 0.999979
0.999976 1 1 0.999976
0.999982 1 1 0.999982
0.999993 1 1 0.999993
0.999984 1 1 0.999984
0.999996 1 1 0.999996
1 1 1 1
0.999997 1 1 0.999997
1 1 1 1
1 1 1 1
1 1 1 1
1 1 1 1
1 1 1 1
0.999967 1 1 0.999967
0.999976 1 1 0.999976
0.999973 1 1 0.999973
0.999986 1 1 0.999986
0.999978 1 1 0.999978
0.99998 1 1 0.99998
0.999989 1 1 0.999989
0.999999 1 1 0.999999
0.999991 1 1 0.999991
1 1 1 1
1 1 1 1
1 1 1 1
1 1 1 1
1 1 1 1
1 1 1 1
1 1 1 1
1 1 1 1
0.999982 1 1 0.999982
0.999988 1 1 0.999988
0.999994 1 1 0.999994
0.999966 1 1 0.999966
0.999966 1 1 0.999966
0.999976 1 1 0.999976
0.999973 1 1 0.999973
0.999963 1 1 0.999963
0.99996 1 1 0.99996
0.999965 1 1 0.999965
0.999994 1 1 0.999994
0.999996 1 1 0.999996
0.999998 1 1 0.999998
0.999988 1 1 0.999988
0.999984 1 1 0.999984
0.999985 1 1 0.999985
0.999983 1 1 0.999983
0.999973 1 1 0.999973
0.999977 1 1 0.999977
0.999977 1 1 0.999977
0.999972 1 1 0.999972
0.999974 1 1 0.999974
0.999977 1 1 0.999977
0.999974 1 1 0.999974
0.999979 1 1 0.999979
0.99999 1 1 0.99999
0.999982 1 1 0.999982
0.999993 1 1 0.999993
1 1 1 1
0.999996 1 1 0.999996
1 1 1 1
1 1 1 1
1 1 1 1
1 1 1 1
1 1 1 1
0.999966 1 1 0.999966
0.99997 1 1 0.99997
0.999967 1 1 0.999967
0.999984 1 1 0.999984
0.999976 1 1 0.999976
0.999974 1 1 0.999974
0.999997 1 1 0.999997
0.999986 1 1 0.999986
0.999978 1 1 0.999978
0.999989 1 1 0.999989
0.999999 1 1 0.999999
1 1 1 1
1 1 1 1
1 1 1 1
1 1 1 1
1 1 1 1
1 1 1 1
1 1 1 1
0.999979 1 1 0.999979
0.999981 1 1 0.999981
0.999988 1 1 0.999988
0.999964 1 1 0.999964
0.999966 1 1 0.999966
0.999963 1 1 0.999963
0.999988 1 1 0.999988
0.999994 1 1 0.999994
0.999994 1 1 0.999994
0.999987 1 1 0.999987
0.999986 1 1 0.999986
0.999985 1 1 0.999985
0.999983 1 1 0.999983
0.999982 1 1 0.999982
0.999977 1 1 0.999977
0.999977 1 1 0.999977
0.999979 1 1 0.999979
0.999974 1 1 0.999974
0.999977 1 1 0.999977
0.999987 1 1 0.999987
0.999979 1 1 0.999979
0.99999 1 1 0.99999
1 1 1 1
0.999993 1 1 0.999993
1 1 1 1
1 1 1 1
1 1 1 1
1 1 1 1
1 1 1 1
0.999979 1 1 0.999979
0.999967 1 1 0.999967
0.999966 1 1 0.999966
0.999978 1 1 0.999978
0.999971 1 1 0.999971
0.999968 1 1 0.999968
0.999995 1 1 0.999995
0.999983 1 1 0.999983
0.999975 1 1 0.999975
1 1 1 1
0.999998 1 1 0.999998
0.999986 1 1 0.999986
0.999999 1 1 0.999999
1 1 1 1
1 1 1 1
1 1 1 1
1 1 1 1
1 1 1 1
0.999977 1 1 0.999977
0.999979 1 1 0.999979
0.99998 1 1 0.99998
0.999963 1 1 0.999963
0.999985 1 1 0.999985
0.999989 1 1 0.999989
0.999995 1 1 0.999995
0.999986 1 1 0.999986
0.999986 1 1 0.999986
0.999986 1 1 0.999986
0.999983 1 1 0.999983
0.999982 1 1 0.999982
0.999982 1 1 0.999982
0.999977 1 1 0.999977
0.999979 1 1 0.999979
0.999986 1 1 0.999986
0.999977 1 1 0.999977
0.999987 1 1 0.999987
1 1 1 1
0.99999 1 1 0.99999
1 1 1 1
1 1 1 1
1 1 1 1
1 1 1 1
1 1 1 1
0.999978 1 1 0.999978
0.999975 1 1 0.999975
0.999978 1 1 0.999978
0.999973 1 1 0.999973
0.999969 1 1 0.999969
0.999965 1 1 0.999965
0.999989 1 1 0.999989
0.999978 1 1 0.999978
0.999971 1 1 0.999971
1 1 1 1
0.999994 1 1 0.999994
0.999981 1 1 0.999981
1 1 1 1
1 1 1 1
0.999998 1 1 0.999998
1 1 1 1
1 1 1 1
1 1 1 1
0.999978 1 1 0.999978
0.999979 1 1 0.999979
0.999978 1 1 0.999978
0.999989 1 1 0.999989
0.999985 1 1 0.999985
0.999989 1 1 0.999989
0.999986 1 1 0.999986
0.999987 1 1 0.999987
0.999988 1 1 0.999988
0.999982 1 1 0.999982
0.999982 1 1 0.999982
0.999988 1 1 0.999988
0.999979 1 1 0.999979
0.999987 1 1 0.999987
1 1 1 1
0.999987 1 1 0.999987
1 1 1 1
1 1 1 1
1 1 1 1
1 1 1 1
1 1 1 1
0.999977 1 1 0.999977
0.999979 1 1 0.999979
0.999977 1 1 0.999977
0.999976 1 1 0.999976
0.999976 1 1 0.999976
0.999978 1 1 0.999978
0.999984 1 1 0.999984
0.999974 1 1 0.999974
0.99997 1 1 0.99997
1 1 1 1
0.999988 1 1 0.999988
0.999978 1 1 0.999978
1 1 1 1
1 1 1 1
0.999993 1 1 0.999993
1 1 1 1
1 1 1 1
1 1 1 1
0.999983 1 1 0.999983
0.999979 1 1 0.999979
0.999981 1 1 0.999981
0.999991 1 1 0.999991
0.999988 1 1 0.999988
0.999985 1 1 0.999985
0.999987 1 1 0.999987
0.999988 1 1 0.999988
0.999993 1 1 0.999993
0.999983 1 1 0.999983
0.999988 1 1 0.999988
1 1 1 1
0.999987 1 1 0.999987
1 1 1 1
1 1 1 1
1 1 1 1
1 1 1 1
1 1 1 1
0.99998 1 1 0.99998
0.999976 1 1 0.999976
0.999981 1 1 0.999981
0.999979 1 1 0.999979
0.999977 1 1 0.999977
0.999986 1 1 0.999986
0.999976 1 1 0.999976
0.999976 1 1 0.999976
1 1 1 1
0.999985 1 1 0.999985
0.999975 1 1 0.999975
1 1 1 1
1 1 1 1
0.999988 1 1 0.999988
1 1 1 1
1 1 1 1
1 1 1 1
0.999987 1 1 0.999987
0.999983 1 1 0.999983
0.999979 1 1 0.999979
0.999995 1 1 0.999995
0.999991 1 1 0.999991
0.999987 1 1 0.999987
0.999988 1 1 0.999988
0.999992 1 1 0.999992
1 1 1 1
0.999989 1 1 0.999989
1 1 1 1
1 1 1 1
1 1 1 1
1 1 1 1
1 1 1 1
0.999983 1 1 0.999983
0.999979 1 1 0.999979
0.999974 1 1 0.999974
0.999988 1 1 0.999988
0.999981 1 1 0.999981
0.999979 1 1 0.999979
1 1 1 1
0.999986 1 1 0.999986
0.999976 1 1 0.999976
1 1 1 1
1 1 1 1
0.999985 1 1 0.999985
1 1 1 1
1 1 1 1
1 1 1 1
0.999994 1 1 0.999994
0.999987 1 1 0.999987
0.999983 1 1 0.999983
1 1 1 1
0.999995 1 1 0.999995
0.999991 1 1 0.999991
0.999992 1 1 0.999992
1 1 1 1
1 1 1 1
1 1 1 1
1 1 1 1
1 1 1 1
0.999992 1 1 0.999992
0.999983 1 1 0.999983
0.999979 1 1 0.999979
1 1 1 1
0.999988 1 1 0.999988
0.999981 1 1 0.999981
1 1 1 1
1 1 1 1
0.999985 1 1 0.999985
1 1 1 1
1 1 1 1
1 1 1 1
1 1 1 1
0.999994 1 1 0.999994
0.999987 1 1 0.999987
1 1 1 1
1 1 1 1
0.999995 1 1 0.999995
1 1 1 1
1 1 1 1
1 1 1 1
1 1 1 1
0.999991 1 1 0.999991
0.999983 1 1 0.999983
1 1 1 1
1 1 1 1
0.999988 1 1 0.999988
1 1 1 1
1 1 1 1
1 1 1 1
1 1 1 1
1 1 1 1
0.999993 1 1 0.999993
1 1 1 1
1 1 1 1
1 1 1 1
1 1 1 1
1 1 1 1
0.999991 1 1 0.999991
1 1 1 1
1 1 1 1
1 1 1 1
1 1 1 1
1 1 1 1
1 1 1 1
1 1 1 1
1 1 1 1
1 1 1 1
1 1 1 1
1 1 1 1

VECTORS lamdaE float
0.999368 0.997607 0.998315
0.999478 0.997072 0.99937
0.99937 0.997568 0.998329
0.998992 0.998826 0.997941
0.999263 0.997956 0.998206
0.999451 0.997314 0.998415
0.999566 0.99848 0.99698
0.999488 0.997086 0.999379
0.999291 0.997856 0.999225
0.999432 0.997271 0.999347
0.999543 0.996856 0.998602
0.99963 0.99799 0.997169
0.998433 1.00022 0.997636
0.99884 0.999216 0.997819
0.999372 0.997527 0.998342
0.998988 0.998786 0.99796
0.999455 0.997274 0.998427
0.999263 0.997915 0.998221
0.99956 0.998491 0.996987
0.998503 0.999898 0.998977
0.998836 0.999319 0.997794
0.999135 0.998365 0.998083
0.999328 0.999563 0.996432
0.999498 0.998803 0.996813
0.999523 0.997066 0.9985
0.999615 0.998201 0.997141
0.999864 0.999891 0.995064
0.999498 0.997101 0.999388
0.99929 0.997893 0.998686
0.999433 0.997288 0.998891
0.999539 0.996882 0.999404
0.999625 0.997969 0.997176
0.999152 0.998298 0.998019
0.999355 0.997562 0.998326
0.99955 0.998779 0.997035
0.999607 0.996674 0.999429
0.999597 0.998219 0.997456
0.999655 0.997812 0.997286
0.999837 0.999518 0.995237
0.999703 0.996435 0.999435
0.998448 0.999914 0.998998
0.998811 0.999213 0.998424
0.998312 1.00017 0.998995
0.998651 0.999734 0.997707
0.998975 1.00082 0.995601
0.999017 0.99863 0.999115
0.999253 0.99988 0.996483
0.998984 0.998745 0.99798
0.999264 0.997873 0.998237
0.999459 0.997234 0.998439
0.999554 0.998502 0.996994
0.998483 1.00005 0.998286
0.99883 0.99928 0.997814
0.999529 0.997025 0.998509
0.999134 0.998324 0.998101
0.999326 0.999565 0.996438
0.999609 0.998215 0.997148
0.999493 0.99881 0.99682
0.999869 0.999895 0.995034
0.998395 1.00012 0.998975
0.998673 0.999807 0.997664
0.999009 1.00068 0.996205
0.99924 0.999959 0.996232
0.999414 0.999171 0.996633
0.999862 1.00059 0.994336
0.999866 1.00012 0.994714
0.999601 0.996876 0.998566
0.999661 0.997944 0.997301
0.999854 0.999685 0.995286
1.00012 1.00051 0.993681
0.999303 0.997883 0.999244
0.999552 0.996905 0.999414
0.999439 0.997322 0.999354
0.99962 0.997947 0.997182
0.999159 0.998255 0.999154
0.999354 0.997574 0.999282
0.999549 0.998782 0.996523
0.999609 0.996688 0.999034
0.999596 0.998193 0.997027
0.999655 0.997794 0.997501
0.999832 0.999517 0.995236
0.999649 0.996555 0.999432
0.999798 0.997374 0.997432
0.999493 0.999143 0.996213
0.999567 0.998504 0.996744
0.99996 1.00011 0.994374
0.999703 0.997628 0.997773
0.999862 0.999702 0.995001
0.999829 0.999355 0.995422
0.999989 1.00034 0.994101
0.999751 0.996324 0.999439
0.999711 0.996451 0.999436
0.998881 0.999051 0.999082
0.998518 0.999854 0.999004
0.998337 1.00015 0.998996
0.998625 0.999687 0.998349
0.998988 1.00074 0.995955
0.999023 0.998715 0.998505
0.999276 0.999935 0.996199
0.99831 1.00024 0.998979
0.998867 1.00108 0.995601
0.999121 1.00029 0.996338
0.999715 1.00127 0.993733
0.999403 0.999447 0.996661
0.999891 1.00075 0.993873
0.998467 1.00021 0.997593
0.998824 0.999241 0.997833
0.999534 0.996984 0.998519
0.999132 0.998281 0.998118
0.999323 0.999568 0.996444
0.999489 0.998817 0.996827
0.999603 0.998229 0.997154
0.999874 0.999899 0.995003
0.998369 1.00015 0.998975
0.998666 0.999771 0.997681
0.999018 1.00075 0.995734
0.999239 0.999958 0.996237
0.999597 0.996836 0.99898
0.999654 0.997957 0.997434
0.999411 0.999174 0.99664
0.999868 1.00059 0.994262
0.999859 0.999696 0.995256
0.999869 1.00011 0.994763
1.00011 1.0005 0.993687
0.998912 1.00108 0.995509
0.999142 1.00034 0.996063
0.999782 1.0012 0.993771
0.999869 1.0008 0.994027
0.99986 1.00036 0.994466
1.00019 1.00086 0.993274
0.999655 0.99669 0.999412
1.00014 1.00059 0.993565
0.999708 0.99773 0.997258
0.999856 0.999493 0.995216
1.00008 1.00046 0.993805
1.0003 1.00061 0.993223
0.999794 0.997433 0.997353
0.999963 0.998913 0.995567
0.999206 0.998231 0.999179
0.999373 0.997581 0.999308
0.999528 0.998776 0.996514
0.99961 0.996736 0.999429
0.999654 0.997758 0.997308
0.999585 0.99817 0.997022
0.999828 0.999516 0.995235
0.999658 0.996574 0.999432
0.999798 0.997362 0.997433
0.999492 0.999125 0.996534
0.999561 0.998483 0.99702
0.999956 1.00012 0.99437
0.999707 0.997607 0.99739
0.999852 0.999708 0.995002
0.999826 0.999348 0.995423
0.999988 1.00036 0.994053
0.999755 0.99748 0.997417
0.999837 0.997274 0.997452
0.999929 0.998911 0.995653
0.999992 1.00025 0.994155
0.9999 0.999929 0.994689
1.00025 1.00056 0.993334
0.999861 0.999153 0.995559
1.00005 1.00042 0.993828
0.999957 1.00031 0.994219
1.00009 1.00072 0.993609
0.999795 0.99622 0.999444
0.999758 0.996337 0.99944
0.999719 0.996468 0.999437
0.999829 0.997341 0.997378
0.999706 0.996557 0.999419
0.999062 0.998624 0.999126
0.998696 0.999478 0.999037
0.999249 0.999997 0.995878
0.998981 1.00083 0.995612
0.99836 1.00013 0.998998
0.998302 1.00024 0.998985
0.998863 1.00109 0.995599
0.999144 1.00037 0.996035
0.999718 1.00127 0.993727
0.999409 0.999517 0.996066
0.999889 1.00076 0.99387
0.998841 1.00119 0.995549
0.999595 1.00144 0.993813
0.999818 1.00104 0.993738
1.00003 1.00126 0.993119
0.99996 1.00046 0.994017
1.00021 1.00089 0.993106
0.99834 1.00017 0.998977
0.998658 0.999735 0.997698
0.999027 1.00082 0.995265
0.999238 0.999958 0.996242
0.999591 0.996795 0.999395
0.999647 0.997969 0.997567
0.999408 0.999178 0.996646
0.999874 1.00059 0.994189
0.999871 1.00011 0.994811
0.999865 0.999708 0.995225
1.00011 1.00049 0.993692
0.998913 1.00107 0.995512
0.999143 1.00034 0.996066
0.999794 1.00121 0.993636
0.999872 1.0008 0.994061
0.999645 0.996671 0.999408
0.999706 0.997748 0.997454
0.99986 0.999494 0.995337
0.999862 1.00036 0.994463
1.00019 1.00086 0.993193
1.00007 1.00045 0.993785
1.00014 1.00058 0.993621
1.0003 1.0006 0.993227
0.999794 0.997447 0.997352
0.999963 0.998918 0.995567
0.999663 1.00139 0.9937
0.999859 1.00101 0.993826
1.00013 1.00124 0.993012
1.00022 1.00099 0.992965
1.00016 1.0007 0.993484
1.00036 1.00087 0.992852
0.999751 0.997557 0.997314
1.00033 1.00063 0.993145
0.999875 0.999298 0.995356
1.00003 1.00037 0.993927
1.00025 1.00065 0.993352
1.00038 1.0006 0.993067
0.999943 0.998989 0.995531
0.999978 0.998853 0.995599
1.00005 0.999913 0.9944
0.999481 0.999131 0.996258
0.999668 0.996593 0.999433
0.999797 0.997351 0.997434
0.999551 0.998453 0.996795
0.999951 1.00013 0.994367
0.999702 0.997587 0.997388
0.999823 0.99934 0.995425
0.999842 0.999714 0.995003
0.999986 1.00038 0.994004
0.999755 0.997467 0.997418
0.999836 0.997264 0.997453
0.999928 0.998906 0.995653
0.999991 1.00026 0.994149
0.999889 0.99994 0.99469
1.00026 1.00056 0.993328
0.999858 0.999145 0.995561
1.00005 1.00043 0.993854
0.999952 1.00032 0.994214
1.00008 1.00073 0.993554
0.999872 0.997177 0.997474
0.999902 0.999 0.995623
0.999951 0.99883 0.995687
1.00001 0.999915 0.994496
1.00031 1.00055 0.993213
1.00014 1.00054 0.993602
1.00045 1.00063 0.992861
0.999973 1.00015 0.994354
1.00019 1.00069 0.993327
1.00002 1.00087 0.993538
1.00015 1.00087 0.993237
1.00004 0.998554 0.995778
0.999937 0.997004 0.997504
0.999836 0.996122 0.999449
0.999801 0.996229 0.999445
0.999764 0.99635 0.999442
0.99986 0.997261 0.997396
0.999748 0.996443 0.999425
0.999829 0.997352 0.997377
0.999697 0.996536 0.999418
0.999381 0.999539 0.996058
0.999118 1.00045 0.995702
0.999887 1.00077 0.993866
0.99972 1.00127 0.99372
0.998859 1.0011 0.995596
0.998296 1.00024 0.998988
0.998837 1.00119 0.995552
0.999598 1.00144 0.993808
0.999818 1.00105 0.993733
1.00004 1.00125 0.993115
0.999959 1.00047 0.994011
1.00021 1.0009 0.993104
0.99958 1.0015 0.99379
0.999881 1.00141 0.993274
1.00014 1.00111 0.993043
1.0002 1.00118 0.992893
1.00028 1.00066 0.993176
1.00036 1.00085 0.992854
0.998914 1.00106 0.995516
0.999144 1.00033 0.996068
0.999806 1.00122 0.993501
0.999876 1.00081 0.994096
0.999635 0.996651 0.999405
0.999703 0.997767 0.997651
0.999863 0.999496 0.995459
0.999864 1.00036 0.994461
1.00019 1.00085 0.993112
1.00014 1.00057 0.993677
1.00007 1.00044 0.993765
1.0003 1.0006 0.993231
0.999794 0.997461 0.99735
0.999962 0.998922 0.995567
0.999669 1.00139 0.993656
0.99986 1.00101 0.99382
1.00012 1.00123 0.993008
1.00022 1.00099 0.993045
0.999752 0.997573 0.997311
0.999879 0.999304 0.995354
1.00003 1.00035 0.993982
1.00016 1.0007 0.993495
1.00036 1.00086 0.992826
1.00025 1.00065 0.993298
1.00033 1.00063 0.993147
1.00038 1.00058 0.993068
0.999943 0.998995 0.995531
1.00006 0.999907 0.994354
0.999977 0.998857 0.995598
0.99999 1.00139 0.993168
1.00022 1.0011 0.992946
1.00026 1.00116 0.99274
1.0004 1.00099 0.992644
1.00034 1.00071 0.993039
1.00044 1.00076 0.992775
0.99991 0.999117 0.995469
1.0004 1.0006 0.993018
1.00002 1.00021 0.994182
1.00017 1.00068 0.993356
1.00033 1.00072 0.993069
1.00042 1.00048 0.99314
0.999996 0.998796 0.995619
1.00005 0.999947 0.994377
1.00006 0.999893 0.994315
1.00011 1.00048 0.993827
0.999991 1.00027 0.994142
0.999836 0.997253 0.997454
0.999754 0.997454 0.997419
0.999927 0.9989 0.995654
0.999879 0.999951 0.994691
1.00026 1.00057 0.993322
0.999855 0.999137 0.995564
0.999947 1.00034 0.99421
1.00005 1.00044 0.993881
1.00008 1.00073 0.993499
0.999872 0.997168 0.997476
0.9999 0.998993 0.995624
0.99995 0.998826 0.995688
1.00001 0.999912 0.994495
1.00032 1.00056 0.993205
1.00014 1.00054 0.993601
1.00046 1.00064 0.992856
0.999965 1.00016 0.994355
1.0002 1.00069 0.993377
1.00002 1.00088 0.993526
1.00014 1.00085 0.993287
0.999907 0.997086 0.997493
0.999974 0.998743 0.995724
1 0.999991 0.994448
1.00002 0.999847 0.994537
1.00006 1.00054 0.993771
1.0005 1.00052 0.992861
1.00031 1.00072 0.99307
1.00055 1.00058 0.992732
1.00002 1.00082 0.993608
1.00025 1.00081 0.993111
1.00009 1.00121 0.992965
1.00002 0.998604 0.995769
1.00009 0.999596 0.994651
1.00006 0.998522 0.99577
1.00004 0.998553 0.995778
0.999963 0.996921 0.997882
0.999935 0.997001 0.997691
0.999882 0.996069 0.998705
0.999841 0.996129 0.99945
0.999807 0.996238 0.999447
0.999892 0.997189 0.997404
0.999787 0.996339 0.999428
0.99986 0.99727 0.997395
0.999742 0.996424 0.999423
0.999829 0.997363 0.997376
0.99969 0.996515 0.999416
0.999958 1.00047 0.994005
0.999819 1.00105 0.993728
1.00021 1.0009 0.993102
1.00004 1.00125 0.993111
0.999602 1.00144 0.993802
0.998833 1.00119 0.995555
0.999577 1.0015 0.993792
0.999886 1.00141 0.99327
1.00014 1.00111 0.993039
1.00019 1.00117 0.992909
1.00028 1.00067 0.993171
1.00035 1.00085 0.992858
0.999855 1.00148 0.993264
1 1.00136 0.993095
1.00028 1.00105 0.992814
1.00026 1.00115 0.992788
1.00045 1.0006 0.992904
1.00047 1.00069 0.992848
0.999675 1.00138 0.993612
0.99986 1.00101 0.993813
1.00012 1.00122 0.993004
1.00021 1.00099 0.993125
0.999754 0.997589 0.997309
0.999882 0.99931 0.995352
1.00003 1.00034 0.994036
1.00016 1.0007 0.993507
1.00037 1.00084 0.992801
1.00033 1.00062 0.993149
1.00024 1.00064 0.993243
1.00038 1.00057 0.99307
0.999943 0.999001 0.99553
1.00006 0.999902 0.994309
0.999977 0.998862 0.995598
0.999975 1.00138 0.993143
1.00021 1.00111 0.992939
1.00027 1.00116 0.992708
1.0004 1.00099 0.992668
0.999911 0.999123 0.995468
1.00002 1.0002 0.994182
1.00017 1.00068 0.993407
1.00033 1.00072 0.993069
1.00044 1.00075 0.992777
1.00033 1.00073 0.993039
1.00041 1.00059 0.993018
1.00042 1.00043 0.993161
1.00005 0.999941 0.994378
1.00012 1.00047 0.993755
0.999996 0.9988 0.995618
1.00006 0.999889 0.994318
1.00012 1.00135 0.992875
1.00043 1.00104 0.992593
1.00032 1.00116 0.992544
1.00048 1.00082 0.992612
1.00042 1.00064 0.992954
1.00048 1.00064 0.992815
1.00003 1.00006 0.99431
1.00044 1.00041 0.993119
1.00012 1.00062 0.993509
1.00025 1.0009 0.993055
1.00037 1.0007 0.992993
1.00045 1.00028 0.993239
1.00001 0.998766 0.995626
1.00007 0.999852 0.994329
1.00012 1.00045 0.993736
1.0001 1.00053 0.993738
1.00016 1.00074 0.993432
0.999872 0.997159 0.997477
1.00032 1.00057 0.993198
0.999949 0.998821 0.995689
0.999899 0.998987 0.995626
1.00001 0.999908 0.994494
1.00013 1.00055 0.9936
1.00046 1.00064 0.992851
0.999956 1.00016 0.994357
1.00003 1.00088 0.993514
1.0002 1.00069 0.993426
1.00013 1.00083 0.993337
0.999907 0.997079 0.997494
0.999974 0.99874 0.995725
0.999997 0.999989 0.994449
1.00002 0.999844 0.994536
1.00006 1.00055 0.993743
1.00051 1.00054 0.992851
1.00031 1.00073 0.99307
1.00055 1.0006 0.992718
1.00001 1.00081 0.993611
1.00026 1.00081 0.993134
1.0001 1.00119 0.992993
0.999998 0.998665 0.995751
1.00005 0.999761 0.994576
1.00005 1.00065 0.993669
1.00007 1.00051 0.993794
1.00007 1.00092 0.993419
1.00064 1.00028 0.992845
1.00039 1.00077 0.992873
1.00052 1.00025 0.993052
1.00003 1.0013 0.993073
1.00025 1.00123 0.992723
1.00002 0.998602 0.99577
1.00008 0.999641 0.99452
1.00009 0.999599 0.994596
1.00011 1.0003 0.994015
1.0001 0.999578 0.994647
1.00007 0.998512 0.995747
1.00006 0.998521 0.99577
0.999989 0.99687 0.997878
1.00004 0.998551 0.995779
0.999963 0.996937 0.997882
0.999923 0.995996 0.998708
0.999933 0.996997 0.997878
0.999882 0.996036 0.999079
0.999846 0.996136 0.999451
0.999922 0.99712 0.997412
0.999893 0.997195 0.997404
0.999826 0.996241 0.999429
0.999782 0.996324 0.999427
0.999861 0.997279 0.997394
0.999736 0.996405 0.999422
1.00029 1.00067 0.993167
1.00014 1.00111 0.993035
1.00035 1.00085 0.992861
1.00018 1.00117 0.992924
0.99989 1.00141 0.993267
0.999575 1.0015 0.993794
0.999852 1.00148 0.993268
0.999984 1.00136 0.993122
1.00028 1.00105 0.992813
1.00027 1.00117 0.992747
1.00045 1.00061 0.992903
1.00046 1.00069 0.992838
0.999948 1.00146 0.993126
0.999978 1.00144 0.993041
1.00038 1.00097 0.992676
1.00027 1.0014 0.992574
1.00057 1.0003 0.992947
1.00052 1.00063 0.99286
0.999961 1.00138 0.993118
1.00021 1.00113 0.992932
1.00029 1.00115 0.992675
1.0004 1.00098 0.992691
0.999913 0.99913 0.995466
1.00003 1.00019 0.994182
1.00016 1.00069 0.993458
1.00033 1.00072 0.993099
1.00044 1.00073 0.992779
1.00041 1.00058 0.993018
1.00033 1.00074 0.99301
1.00042 1.00039 0.993183
1.00006 0.999935 0.994379
1.00012 1.00046 0.993683
0.999995 0.998803 0.995617
1.00006 0.999886 0.99432
1.00011 1.00135 0.992883
1.00042 1.00105 0.992595
1.00035 1.00118 0.992513
1.00048 1.00084 0.992622
1.00004 1.00005 0.99431
1.00012 1.00062 0.99355
1.00024 1.00092 0.993048
1.00042 1.00065 0.992956
1.00048 1.00064 0.992819
1.00038 1.00072 0.992981
1.00044 1.00041 0.993118
1.00045 1.00023 0.993288
1.00012 1.00045 0.993737
1.00017 1.00073 0.993392
1.0001 1.00053 0.993733
1.00001 0.998765 0.995546
1.00007 0.999852 0.994332
1.00015 1.00138 0.992748
1.00049 1.001 0.992446
1.00052 1.0007 0.992682
1.00048 1.00046 0.993
1.00011 1.00052 0.993686
1.0005 1.00005 0.99336
1.00016 1.00092 0.993148
1.0003 1.00106 0.992794
1.00044 1.00057 0.992974
1.00002 0.998724 0.995478
1.00007 0.999823 0.994518
1.0001 1.00056 0.993713
1.00017 1.00072 0.993384
1.00016 1.00089 0.993266
1.0002 1.00088 0.993164
0.999906 0.997072 0.997494
0.999974 0.998737 0.995725
1.00051 1.00055 0.992841
1.00002 0.999841 0.994536
0.999992 0.999988 0.99445
1.00006 1.00056 0.993715
1.00031 1.00073 0.99307
1.00054 1.00062 0.992703
1.00001 1.00081 0.993615
1.00012 1.00117 0.99302
1.00026 1.00081 0.993158
0.999998 0.998663 0.995752
1.00005 0.999759 0.994575
1.00004 1.00064 0.993702
1.00007 1.00051 0.993791
1.00007 1.00093 0.993373
1.00062 1.00031 0.992843
1.00039 1.00077 0.992857
1.00053 1.00021 0.993084
1.00002 1.00131 0.993047
1.00025 1.00126 0.992685
1.00007 0.999689 0.994602
1.0001 1.00044 0.993736
1.00005 1.00112 0.993219
1.00009 1.00091 0.993306
1.00012 1.00109 0.993132
1.00074 0.999566 0.993384
1.0004 1.0009 0.992769
1.00057 0.999994 0.993121
1.00012 1.00154 0.992759
1.00024 1.00147 0.992387
1.00002 0.9986 0.99577
1.00008 0.999644 0.994572
1.00011 1.00034 0.993801
1.00009 0.999602 0.994542
1.0001 0.999578 0.994648
1.00011 1.0003 0.993928
1.00011 1.0008 0.99349
1.00012 1.00029 0.993855
1.00011 0.999583 0.994625
1.00009 0.998517 0.995716
1.00007 0.998513 0.995746
1.00001 0.996838 0.997863
1.00006 0.998521 0.99577
0.999989 0.996888 0.997876
0.999956 0.995932 0.998703
0.999963 0.996954 0.997882
0.999925 0.995961 0.998708
0.999882 0.996005 0.999453
0.999952 0.997037 0.997436
0.999923 0.997126 0.997412
0.999864 0.996141 0.999432
0.999894 0.997202 0.997404
0.999821 0.99623 0.999429
0.999777 0.996308 0.999426
1.00045 1.00061 0.992901
1.00029 1.00105 0.992811
1.00046 1.0007 0.992829
1.00028 1.0012 0.992706
0.999965 1.00135 0.99315
0.99985 1.00149 0.993271
0.999935 1.00146 0.993138
0.999999 1.00141 0.993041
1.00038 1.00096 0.992687
1.00027 1.00148 0.992475
1.00056 1.00031 0.992959
1.00052 1.00062 0.992822
0.999872 1.00146 0.993249
0.999991 1.00158 0.992862
1.00034 1.00127 0.992475
1.00064 0.999967 0.993261
1.0001 1.00135 0.99289
1.00041 1.00105 0.992597
1.00038 1.0012 0.992481
1.00048 1.00085 0.992632
1.00004 1.00004 0.99431
1.00012 1.00062 0.993591
1.00024 1.00094 0.993042
1.00042 1.00067 0.992958
1.00048 1.00064 0.992823
1.00045 1.00041 0.993118
1.00038 1.00073 0.992969
1.00045 1.00017 0.993337
1.00013 1.00045 0.993737
1.00017 1.00072 0.993351
1.0001 1.00053 0.993729
1.00001 0.998763 0.995466
1.00007 0.999851 0.994336
1.00019 1.00137 0.992684
1.00048 1.00101 0.992474
1.00051 1.00071 0.992692
1.00012 1.00052 0.993685
1.00016 1.00091 0.993199
1.00029 1.00109 0.992783
1.00049 1.00048 0.992981
1.00044 1.00053 0.993028
1.0005 1.00007 0.99336
1.00002 0.99872 0.995483
1.00017 1.00072 0.993381
1.0002 1.00086 0.993173
1.00015 1.00088 0.993293
1.0001 1.00056 0.993741
1.00007 0.999819 0.994437
1.00028 1.00129 0.992634
1.0005 1.00099 0.992451
1.00055 1.00046 0.992868
1.00056 1.00004 0.993258
1.00016 1.00081 0.993307
1.00056 1.00004 0.993257
1.0002 1.00121 0.992796
1.00035 1.00112 0.99264
1.00004 0.998628 0.995531
1.00007 0.999829 0.994506
1.00009 1.00055 0.993805
1.00013 1.00101 0.993161
1.00019 1.00095 0.99307
1.00021 1.00105 0.992965
0.999998 0.998661 0.995752
1.00005 0.999758 0.994574
1.00061 1.00035 0.99284
1.00007 1.00052 0.993789
1.00004 1.00064 0.993734
1.00007 1.00095 0.993327
1.0004 1.00077 0.99284
1.00055 1.00017 0.993115
1.00002 1.00132 0.993022
1.00026 1.00129 0.992647
1.00007 0.999688 0.994602
1.00009 1.00045 0.99377
1.00005 1.0011 0.993274
1.00008 1.00092 0.993335
1.0001 1.0011 0.993135
1.00074 0.999566 0.993404
1.00042 1.00087 0.992769
1.00054 0.999995 0.993255
1.00011 1.00154 0.992733
1.00027 1.00155 0.992291
1.00011 1.00039 0.993758
1.0001 1.00096 0.993222
1.00009 1.00137 0.992914
1.00011 1.00116 0.992987
1.00074 0.999643 0.993417
1.0008 0.999255 0.993561
1.00042 1.00108 0.992487
1.00014 1.00178 0.992301
1.00008 0.999646 0.994624
1.00011 1.00035 0.993851
1.00011 1.00086 0.993399
1.0001 0.999578 0.994649
1.00012 1.0003 0.993841
1.00011 0.999585 0.994626
1.00011 1.0008 0.993431
1.00011 1.00028 0.99389
1.00012 1.0011 0.993128
1.00011 1.00078 0.993386
1.00012 1.00028 0.993852
1.00011 0.999612 0.994584
1.00009 0.998528 0.995687
1.00009 0.998519 0.995715
1.00003 0.996817 0.997846
1.00007 0.998513 0.995746
1.00001 0.996855 0.997861
0.999985 0.995884 0.998692
0.99999 0.996905 0.997874
0.999957 0.995899 0.998704
0.999927 0.995926 0.998709
0.999983 0.996948 0.997461
0.999953 0.997043 0.997435
0.9999 0.996038 0.999439
0.999925 0.997131 0.997412
0.999859 0.996136 0.999431
0.999816 0.996218 0.999429
1.00056 1.00032 0.992971
1.00037 1.00095 0.992698
1.00052 1.0006 0.992785
1.00026 1.00154 0.992376
1.00002 1.00138 0.99304
0.999922 1.00146 0.993149
0.999921 1.00146 0.993167
1.00002 1.00156 0.992852
1.00031 1.00123 0.992542
1.00063 0.999962 0.993213
0.999956 1.00145 0.993077
0.999968 1.00177 0.9927
1.00048 1.00057 0.992921
1.00023 1.00137 0.99262
1.00047 1.00102 0.992501
1.00051 1.00072 0.992702
1.00012 1.00052 0.993685
1.00017 1.00091 0.99325
1.00028 1.00112 0.992772
1.00049 1.0005 0.992961
1.00049 1.00008 0.99336
1.00043 1.00049 0.993082
1.00017 1.00073 0.993378
1.00021 1.00083 0.993182
1.00015 1.00087 0.99332
1.00002 0.998716 0.995489
1.0001 1.00057 0.993769
1.00008 0.999816 0.994356
1.00023 1.00128 0.992715
1.00052 1.00095 0.992438
1.00054 1.0005 0.992836
1.00016 1.00082 0.993305
1.00019 1.0012 0.992832
1.00034 1.00109 0.992682
1.00056 1.00002 0.993301
1.00055 1.00007 0.993243
1.00004 0.998626 0.995617
1.00007 0.999835 0.994505
1.00019 1.00095 0.993082
1.00021 1.00105 0.992973
1.00013 1.001 0.993185
1.0001 1.00054 0.993766
1.00022 1.00119 0.992815
1.00055 1.0009 0.992455
1.0006 0.999908 0.993307
1.00065 0.999626 0.993528
1.00018 1.00111 0.992945
1.00045 1.00074 0.992799
1.00024 1.00141 0.992595
1.00006 0.998554 0.995732
1.0001 0.999618 0.9946
1.00007 0.999745 0.994414
1.0001 1.00061 0.993681
1.00012 1.00102 0.993176
1.00017 1.00125 0.992863
1.00019 1.00113 0.992922
1.0002 1.00132 0.992776
1.00007 0.999687 0.994603
1.00009 1.00046 0.993804
1.00074 0.999568 0.993425
1.00008 1.00093 0.993364
1.00004 1.00109 0.99333
1.00009 1.00111 0.993138
1.00044 1.00083 0.992769
1.00051 0.999995 0.993389
1.00009 1.00155 0.992706
1.00029 1.00163 0.992196
1.00011 1.0004 0.993753
1.0001 1.00095 0.993267
1.00008 1.00136 0.992953
1.00012 1.00117 0.993015
1.00074 0.999613 0.993369
1.00075 0.99935 0.993523
1.00045 1.00106 0.992539
1.00016 1.00179 0.992276
1.0001 1.00093 0.993333
1.00032 1.00054 0.99321
1.00012 1.00133 0.992935
1.00014 1.00152 0.992661
1.00099 0.998685 0.99397
1.00065 1.00043 0.992576
1.00023 1.0019 0.992123
1.00011 1.00036 0.9939
1.0001 1.00086 0.993399
1.0001 1.00118 0.993073
1.00011 0.999586 0.994626
1.00011 1.00028 0.993924
1.00011 1.0008 0.993372
1.00011 0.999617 0.994583
1.00012 1.00028 0.993855
1.00013 1.00111 0.99309
1.00011 1.00078 0.993446
1.00015 1.00125 0.992917
1.00014 1.0011 0.993037
1.00012 1.00076 0.993461
1.00011 1.00033 0.993876
1.00011 0.999656 0.994534
1.0001 0.998544 0.995664
1.00009 0.998531 0.995686
1.00005 0.996802 0.997832
1.00009 0.998522 0.995714
1.00003 0.996834 0.997844
1.00001 0.995846 0.998682
1.00001 0.996873 0.997858
0.999984 0.995852 0.998694
0.999957 0.995866 0.998705
1.00007 0.9985 0.995764
1.00001 0.99688 0.997478
0.999985 0.996954 0.997459
0.999934 0.995949 0.999443
0.999955 0.997049 0.997433
0.999895 0.996038 0.999437
0.999853 0.996132 0.99943
1.00062 0.999957 0.993164
1.00029 1.00118 0.992609
1.00006 1.00153 0.992842
0.999969 1.00145 0.993085
0.999941 1.00144 0.993141
0.999965 1.00183 0.992681
1.00045 1.00052 0.993014
0.99994 1.00158 0.993002
1.00005 1.00149 0.992771
1 1.00062 0.994035
1.00019 1.00128 0.992797
1.00054 1.00091 0.992426
1.00054 1.00054 0.992803
1.00016 1.00082 0.993303
1.00019 1.0012 0.992869
1.00033 1.00105 0.992724
1.00055 1.00001 0.993343
1.00054 1.00009 0.99323
1.00019 1.00094 0.993094
1.00021 1.00105 0.99298
1.00013 1.00099 0.993209
1.00004 0.998625 0.995702
1.00007 0.999841 0.994503
1.0001 1.00054 0.993726
1.00023 1.0012 0.992745
1.00006 0.998556 0.995732
1.0001 0.999612 0.994553
1.00054 1.00087 0.992483
1.00059 1 0.993228
1.00017 1.0011 0.992966
1.00023 1.00141 0.992585
1.00045 1.00069 0.992808
1.00065 0.999617 0.993526
1.00007 0.999745 0.994556
1.00009 1.00062 0.993676
1.00019 1.00113 0.992926
1.0002 1.00128 0.992774
1.00018 1.00125 0.992821
1.00013 1.00101 0.993186
1.00028 1.00175 0.992205
1.00057 1.00041 0.992891
1.00071 0.999092 0.993901
1.0006 1.00006 0.99317
1.00017 1.00133 0.992769
1.0003 1.00144 0.992476
1.00011 0.999547 0.994554
1.0001 0.999651 0.994581
1.00011 1.00037 0.993943
1.00008 1.00061 0.993581
1.00012 1.00107 0.993199
1.00017 1.00137 0.992674
1.00018 1.00156 0.992572
1.00017 1.00136 0.992737
1.00011 1.0004 0.993748
1.0001 1.00095 0.993312
1.00074 0.999581 0.993321
1.0007 0.999442 0.993485
1.00013 1.00118 0.993043
1.00008 1.00135 0.992991
1.00048 1.00104 0.992592
1.00019 1.0018 0.992252
1.0001 1.00093 0.99333
1.00023 1.00041 0.9935
1.00012 1.0013 0.992926
1.00015 1.00152 0.99262
1.0009 0.998757 0.993901
1.00071 1.00044 0.992609
1.00023 1.00194 0.992101
1.0001 1.00132 0.992963
1.00052 0.999118 0.994226
1.00019 1.00149 0.992677
1.00021 1.00192 0.992229
1.00118 0.999214 0.992701
1.00033 1.00182 0.991874
1.00285 0.996195 0.991868
1.0001 1.00086 0.993398
1.0001 1.00119 0.993072
1.00013 1.00135 0.99288
1.00011 0.999621 0.994582
1.00012 1.00028 0.993858
1.00011 1.00078 0.993507
1.00013 1.00112 0.993052
1.00011 0.999661 0.994532
1.00011 1.00033 0.993843
1.00014 1.00125 0.992913
1.00012 1.00076 0.99346
1.00014 1.0011 0.993082
1.00017 1.00127 0.992825
1.00014 1.00108 0.993127
1.00013 1.00079 0.993455
1.00011 1.0004 0.993732
1.00011 0.999696 0.994389
1.00011 1.00045 0.993878
1.00011 0.999713 0.994395
1.0001 0.998564 0.995647
1.0001 0.998545 0.995664
1.00006 0.996813 0.997437
1.00009 0.998534 0.995685
1.00005 0.996818 0.997639
1.00001 0.995787 0.99944
1.00003 0.99685 0.997841
1.00001 0.995816 0.998683
0.999984 0.995821 0.998695
1.00008 0.998434 0.995813
1.00007 0.998501 0.995764
1.00003 0.996818 0.997503
1.00001 0.996884 0.997666
0.999963 0.995875 0.999448
0.999986 0.996959 0.997458
0.999929 0.995947 0.999442
0.99989 0.996039 0.999435
1.00042 1.00048 0.993107
0.999963 1.00188 0.992661
0.999926 1.00144 0.993205
0.999944 1.00157 0.993012
1.00006 1.00152 0.992773
0.999699 1.00078 0.99436
0.999985 1.00171 0.992873
1.0011 0.997521 0.995656
0.999192 1.00047 0.995419
1.00011 0.999451 0.994749
1.00025 1.00121 0.992675
1.00054 1.00083 0.992512
1.00058 1.00009 0.993148
1.00017 1.00108 0.992988
1.00022 1.00142 0.992575
1.00045 1.00064 0.992818
1.00065 0.999609 0.993524
1.0002 1.00114 0.992929
1.00021 1.00124 0.992771
1.00018 1.00126 0.99278
1.00006 0.998558 0.995731
1.00013 1.001 0.993196
1.00008 0.999746 0.994698
1.00009 1.00063 0.993671
1.0001 0.999606 0.994505
1.00033 1.00168 0.992108
1.00011 0.999537 0.994619
1.0001 0.999655 0.99458
1.00012 1.00038 0.993854
1.00055 1.00044 0.992893
1.00071 0.999192 0.99379
1.00018 1.00132 0.992773
1.00027 1.00142 0.992486
1.0006 1.00003 0.993178
1.00008 1.0006 0.993643
1.00013 1.00107 0.993176
1.00017 1.00136 0.992739
1.00018 1.0015 0.99261
1.00016 1.00138 0.992712
1.00034 1.00196 0.991854
1.0007 0.999079 0.993913
1.00079 0.999176 0.993621
1.0004 1.0011 0.992627
1.00014 1.00152 0.992636
1.00011 1.0003 0.993815
1.0001 1.00046 0.993666
1.00008 1.00095 0.993357
1.0001 1.00125 0.993031
1.00016 1.00131 0.992775
1.00016 1.00178 0.992392
1.00016 1.00164 0.992477
1.0001 1.00093 0.993328
1.00012 1.00127 0.992917
1.00013 1.00028 0.99379
1.0008 0.998833 0.993833
1.00077 1.00046 0.992643
1.00015 1.00151 0.99258
1.00023 1.00198 0.992079
1.0001 1.0013 0.992986
1.00041 0.999051 0.994352
1.00017 1.00147 0.992665
1.00018 1.00191 0.992222
1.00118 0.999161 0.992901
1.00035 1.00191 0.991826
1.00315 0.996303 0.992273
1.00013 1.00149 0.992737
1.00148 0.998495 0.992368
1.00014 1.00174 0.992471
1.00011 1.00256 0.9917
1.0008 1.00137 0.991177
0.995744 0.999985 0.985303
1.00111 0.99939 0.993106
1.00294 0.997435 0.990457
0.997324 0.993507 1.00044
1.00852 0.982372 1.00135
1.00009 1.00119 0.993071
1.00012 1.00134 0.992888
1.00013 1.00141 0.99279
1.00011 0.999667 0.99453
1.00012 1.00033 0.99381
1.00012 1.00076 0.993459
1.00013 1.0011 0.993126
1.00014 1.00124 0.992909
1.00013 1.00079 0.993396
1.00011 0.999697 0.994442
1.00011 1.0004 0.993773
1.00016 1.00127 0.99285
1.00014 1.00108 0.993108
1.00015 1.00107 0.993115
1.00018 1.00128 0.992833
1.00014 1.00088 0.993245
1.00011 1.00049 0.993649
1.00011 0.999715 0.994381
1.00011 1.00046 0.993787
1.00012 1.00094 0.993348
1.00011 1.00046 0.993757
1.00011 1.00045 0.99379
1.0001 0.999714 0.994508
1.00011 0.999712 0.994393
1.00009 0.998583 0.99564
1.0001 0.998563 0.995648
1.00006 0.99684 0.997426
1.0001 0.998547 0.995663
1.00006 0.996815 0.997437
1.00001 0.995776 0.999439
1.00006 0.996834 0.997447
1.00001 0.995786 0.999058
1.00001 0.995785 0.998684
1.00009 0.998363 0.995868
1.00008 0.998437 0.995812
1.00004 0.996759 0.997538
1.00007 0.998502 0.995764
1.00002 0.996815 0.99769
0.999984 0.99581 0.999454
1.00001 0.996887 0.997473
0.999956 0.995891 0.999445
0.999924 0.995946 0.999441
1.00007 1.00155 0.992774
0.999948 1.00157 0.993021
0.999397 1.00093 0.994684
1.00096 0.99774 0.995627
0.999911 1.00171 0.992915
0.999256 1.00083 0.994959
0.999619 1.00238 0.992592
0.999616 0.999089 0.992004
0.999301 1.00137 0.995737
1.00011 0.999388 0.994817
1.00011 0.999455 0.994746
1.00011 1.00021 0.993988
1.00009 1.00007 0.994168
1.00038 1.00161 0.992011
1.00053 1.00047 0.992896
1.00071 0.999296 0.993679
1.00018 1.00131 0.992777
1.00024 1.0014 0.992495
1.00059 1 0.993186
1.00017 1.00136 0.99274
1.00018 1.00145 0.992648
1.00016 1.00139 0.99275
1.0001 0.999659 0.994579
1.00013 1.00107 0.993154
1.00008 1.00059 0.993706
1.00011 0.999527 0.994684
1.00012 1.0004 0.993765
1.00037 1.00182 0.991929
1.00011 1.00031 0.993908
1.0001 1.00046 0.993722
1.00008 1.00088 0.993406
1.00068 0.999231 0.993871
1.0008 0.99914 0.993606
1.00015 1.00153 0.99263
1.00036 1.00107 0.992663
1.0001 1.00125 0.993054
1.00016 1.00129 0.992802
1.00016 1.00164 0.992477
1.00016 1.00177 0.992408
1.00042 1.00069 0.992911
1.00096 0.998052 0.994503
1.0006 1.00041 0.992772
1.00017 1.00162 0.992503
1.00007 1.0011 0.993182
1.0001 1.00114 0.993073
1.00013 1.00174 0.992438
1.00016 1.00208 0.992088
0.995176 0.997117 0.98826
1.0001 1.00128 0.99301
1.00016 1.00145 0.992653
1.0003 0.998986 0.994479
1.00117 0.999105 0.9931
1.00037 1.002 0.991779
1.00015 1.00191 0.992215
1.00341 0.996427 0.992678
1.00011 1.00149 0.992761
1.00152 0.998613 0.992424
1.00013 1.0017 0.992488
1.00012 1.00251 0.99171
1.00086 1.00124 0.991366
0.994997 0.999505 0.987641
1.00146 0.998939 0.989916
1.0031 0.997576 0.990355
0.997555 0.99414 0.998591
1.00854 0.98224 1.00192
1.00008 1.00161 0.992717
0.997182 0.994348 0.996697
1.00661 0.988472 1.00014
1.00121 1.00096 0.990608
0.999996 1.00228 0.992248
1.00005 1.00351 0.990886
1.00188 1.001 0.989617
0.996308 1.00245 0.981477
1.00157 0.999156 0.989748
0.999145 0.99414 0.998625
1.01191 0.985222 0.994321
1.00011 1.00134 0.992897
1.00013 1.00141 0.992787
1.00013 1.00145 0.992752
1.00011 0.999698 0.994495
1.00011 1.0004 0.993815
1.00013 1.00079 0.993336
1.00015 1.00107 0.993089
1.00016 1.00127 0.992876
1.00011 0.999714 0.99438
1.00015 1.00105 0.993104
1.00013 1.00088 0.99331
1.00011 1.00048 0.993708
1.00018 1.00128 0.992811
1.00017 1.00117 0.992899
1.00019 1.00134 0.992722
1.00013 1.00102 0.993182
1.00011 1.00049 0.993761
1.00011 1.00047 0.993787
1.00012 1.00094 0.99329
1.00012 1.00097 0.993251
1.00011 1.00097 0.993248
1.00011 1.00123 0.992999
1.00012 1.00105 0.99315
1.0001 1.00051 0.993711
1.00011 1.00046 0.993757
1.0001 0.999723 0.994505
1.00011 1.00045 0.993701
1.0001 0.999712 0.994456
1.00008 0.998606 0.995639
1.00011 0.999712 0.994391
1.00009 0.998582 0.995641
1.00004 0.996865 0.997804
1.0001 0.998563 0.995648
1.00006 0.996834 0.997618
1.00003 0.995782 0.998663
1.00006 0.996817 0.997436
1.00001 0.995775 0.999438
1.00002 0.995785 0.998676
1.00011 0.999401 0.99481
1.00009 0.998321 0.995905
1.00009 0.998368 0.995866
1.00005 0.996713 0.99757
1.00008 0.998439 0.995811
1.00004 0.996757 0.997538
0.999999 0.995757 0.999463
1.00002 0.996813 0.997871
0.999988 0.995828 0.999076
0.999969 0.995907 0.998689
1.00082 0.997953 0.995598
0.999837 1.00171 0.992957
0.999321 1.00119 0.994499
0.999735 0.999735 0.993725
0.999161 1.00138 0.995727
0.999805 1.00235 0.992286
0.999826 1.00345 0.992097
0.998598 1.00195 0.992015
0.995957 0.998542 0.98256
0.997519 0.994014 0.996995
1.00607 0.986147 1.0017
1.0001 1.00012 0.994018
1.00011 0.99939 0.994815
1.00011 0.999459 0.994744
1.00011 1.00021 0.993969
1.00009 1.00077 0.993536
1.0001 1.00057 0.99369
1.00009 1.0002 0.99409
1.00009 1.0001 0.994124
1.00041 1.00169 0.992005
1.00065 0.999392 0.99383
1.00081 0.999106 0.993591
1.00016 1.00154 0.992624
1.00032 1.00105 0.992699
1.00017 1.00164 0.992477
1.00015 1.00176 0.992425
1.00017 1.00126 0.992828
1.00011 1.00046 0.993778
1.0001 1.00125 0.993076
1.00011 1.00033 0.994
1.00008 1.00081 0.993456
1.00039 1.00079 0.992903
1.00008 1.00108 0.993199
1.00009 1.00115 0.993117
1.00096 0.998094 0.994464
1.00059 1.00034 0.992843
1.00019 1.00164 0.992424
1.00013 1.00174 0.992454
1.00016 1.00203 0.99211
1.00127 0.99752 0.994189
1.00079 0.999619 0.993369
1.00034 1.00138 0.992275
1.00023 1.00217 0.991878
1.00007 1.00163 0.992664
1.00008 1.00173 0.992557
1.00011 1.00236 0.991974
0.996589 0.993253 1.00304
0.995816 0.999019 0.98669
1.0001 1.00148 0.992785
1.00012 1.00167 0.992504
1.00157 0.998723 0.99248
1.00091 1.00112 0.991555
1.00012 1.00246 0.991721
0.995936 0.99863 0.98246
1.00132 0.999341 0.99388
1.00328 0.997735 0.990254
0.997607 0.994164 0.9962
1.00848 0.982216 1.00248
1.00007 1.0016 0.992718
0.996458 0.993701 1.00301
1.0065 0.988739 1.0004
1.00133 1.00095 0.990604
0.999985 1.00221 0.992284
0.999982 1.00339 0.991035
1.00171 1.00128 0.989556
0.9958 1.00217 0.979677
1.00148 0.998824 0.994243
0.999846 0.993241 0.993382
1.0115 0.982865 0.996497
1 1.00178 0.992696
1.00622 0.993946 0.995814
1.013 0.993014 0.986897
0.999808 1.00413 0.99036
0.999625 1.0033 0.992036
1.00033 1.00362 0.992518
1.00045 1.00049 0.995369
0.996265 1.00381 0.979799
1.00223 0.992275 0.990508
1.01361 0.991362 0.986158
1.00013 1.00141 0.992783
1.00013 1.00145 0.992749
1.00011 1.00153 0.992683
1.00011 0.999713 0.99438
1.00011 1.00048 0.993767
1.00013 1.00087 0.993375
1.00015 1.00103 0.993094
1.00018 1.00129 0.99279
1.00011 1.00049 0.99376
1.00017 1.00116 0.99294
1.00013 1.00102 0.993184
1.00019 1.00136 0.992714
1.00017 1.00143 0.992685
1.00017 1.00132 0.992796
1.00013 1.00102 0.99319
1.00011 1.00047 0.993786
1.00012 1.00094 0.993233
1.00012 1.00097 0.993246
1.00011 1.00098 0.993245
1.00011 1.00121 0.993013
1.0001 1.00106 0.993175
1.00012 1.00133 0.992897
1.00011 1.00132 0.992853
1.00016 1.00121 0.992906
1.00011 1.00104 0.993138
1.00013 1.00094 0.9932
1.00012 1.00105 0.993153
1.0001 1.00054 0.993682
1.0001 1.00052 0.993709
1.00009 0.999746 0.994492
1.00011 1.00047 0.993756
1.0001 0.999724 0.994504
1.00007 0.998629 0.995642
1.0001 0.99971 0.994404
1.00008 0.998605 0.99564
1.00003 0.996901 0.9978
1.00009 0.998581 0.995642
1.00005 0.99686 0.997609
1.00002 0.995779 0.998658
1.00006 0.996829 0.997425
1.00001 0.995783 0.999435
1.00001 0.995774 0.999437
1.0001 0.999462 0.994919
1.00009 0.998337 0.995898
1.00011 0.999397 0.99481
1.00005 0.996695 0.997585
1.00009 0.998324 0.995904
1.00009 0.998372 0.995865
1.00005 0.996718 0.997568
1.00001 0.995721 0.999469
1.00003 0.996754 0.997904
1 0.995759 0.99909
0.999997 0.995845 0.998705
0.996352 0.993926 1.0016
1.00576 0.990131 0.997507
0.999442 1.00089 0.994793
0.999019 1.00141 0.995718
0.99999 1.00233 0.99198
0.998502 1.00281 0.995325
0.999963 1.00302 0.992115
0.99565 0.999244 0.986327
0.996936 0.994448 1.0015
1.0071 0.984802 1.00173
0.999708 1.003 0.992919
0.996214 1.00129 0.982529
0.99863 0.994291 0.999292
1.01132 0.984861 0.996799
1.00007 1.0009 0.993352
1.0001 1.00013 0.99407
1.00011 0.999392 0.994812
1.00011 1.00022 0.993951
1.00009 1.0007 0.993593
1.00009 1.00078 0.993525
1.0001 1.00052 0.993722
1.00008 1.00039 0.993903
1.00009 1.00021 0.994032
1.00009 1.00013 0.994081
1.00036 1.00087 0.992896
1.00096 0.998122 0.994425
1.00059 1.00026 0.992914
1.00021 1.00166 0.992346
1.00016 1.00198 0.992132
1.00012 1.00174 0.99247
1.00009 1.00116 0.993161
1.00008 1.00107 0.993217
1.00109 0.997867 0.994084
1.00006 1.00167 0.992627
1.00008 1.00176 0.992499
1.00078 0.999354 0.993579
1.00039 1.00147 0.992133
1.0002 1.00217 0.991866
1.00012 1.00234 0.991936
1.00206 0.996261 0.993805
1.00027 1.00216 0.991831
1.00015 1.00271 0.991436
1.00006 1.00167 0.992626
1.00007 1.00206 0.992283
1.00009 1.00228 0.992023
1.0063 0.995744 0.993006
0.997158 0.993818 0.998057
0.995107 0.997381 0.98788
1.00007 1.00159 0.992718
0.999974 1.00214 0.99232
1.00144 1.00093 0.9906
0.999912 1.00327 0.991184
0.997042 0.993736 0.998449
0.995533 1.00097 0.987
1.00206 0.998588 0.989947
1.00157 1.00157 0.989495
0.999654 0.992882 0.998209
1.00647 0.989267 1.0007
1.01074 0.98478 0.996462
0.999991 1.0018 0.992697
1.00609 0.994195 0.995681
1.01274 0.993015 0.987002
0.999865 1.00404 0.99032
0.999604 1.00323 0.992029
1.00039 1.004 0.990655
1.0007 1.00056 0.990669
0.996519 1.00334 0.978981
1.00147 0.9942 0.995035
1.013 0.990713 0.987168
0.99978 1.0022 0.992609
1.01342 0.998366 0.982255
1.0162 0.994548 0.979955
0.998874 1.00394 0.992688
0.998522 1.00346 0.995625
0.996803 1.00274 0.981009
1.00635 0.99163 0.989005
1.0131 0.99406 0.983329
1.00013 1.00145 0.992747
1.00012 1.00155 0.992692
1.00014 1.00162 0.99255
1.00011 1.00049 0.993759
1.00013 1.00102 0.993186
1.00017 1.00115 0.992982
1.00019 1.00137 0.992706
1.00013 1.00102 0.993189
1.00017 1.00133 0.992791
1.00017 1.00142 0.992691
1.00007 1.00148 0.99281
1.00018 1.00151 0.992574
1.00015 1.00139 0.992806
1.00013 1.00097 0.993242
1.00011 1.00098 0.993241
1.00011 1.00118 0.993028
1.00013 1.0013 0.992919
1.0001 1.00106 0.993177
1.00012 1.00131 0.992871
1.00014 1.00137 0.992793
1.00009 1.00157 0.992697
1.00017 1.00139 0.992723
1.00016 1.00122 0.992898
1.00015 1.00116 0.992943
1.00015 1.00114 0.993009
1.00012 1.00077 0.99348
1.00011 1.001 0.993191
1.00013 1.00094 0.993249
1.00011 1.00051 0.993655
1.00012 1.00105 0.993156
1.0001 1.00054 0.993683
1.00008 0.999779 0.994481
1.00011 1.00052 0.993706
1.00009 0.99975 0.99449
1.00005 0.998654 0.995649
1.0001 0.999725 0.994502
1.00007 0.99863 0.995641
1.00001 0.996944 0.9978
1.00008 0.998605 0.99564
1.00003 0.996895 0.997606
1.00001 0.995818 0.998655
1.00005 0.996854 0.997416
1.00001 0.995794 0.999046
1.00001 0.995784 0.999434
1.00008 0.999588 0.994727
1.00008 0.998377 0.995871
1.0001 0.999464 0.994793
1.00005 0.996707 0.99758
1.00009 0.998332 0.995899
1.00011 0.999393 0.99481
1.00001 0.99571 0.999471
1.00005 0.996696 0.997585
1.00009 0.998327 0.995903
1.00005 0.996722 0.997567
1.00001 0.995723 0.999467
0.999997 0.99576 0.99946
1.00625 0.9944 0.992816
0.996853 0.993921 1.0001
1.01246 0.99249 0.987698
1.00602 0.989384 0.998486
0.998247 1.00141 0.99258
1.00011 1.00258 0.992134
0.995307 0.99975 0.990186
0.997083 0.99456 0.99672
1.00807 0.983666 1.00176
0.999907 1.00183 0.992275
0.995765 1.0018 0.983074
0.999176 0.993544 0.994389
1.01124 0.983211 0.998088
1.00077 1.00049 0.993179
0.995998 1.00341 0.979813
1.00232 0.992065 0.996402
1.01339 0.991194 0.986939
1.00008 1.0013 0.993005
1.00008 1.00087 0.993428
1.0001 1.00013 0.994122
1.00008 1.00062 0.99365
1.00011 1.00097 0.993243
1.0001 1.00074 0.993564
1.0001 1.00048 0.993754
1.00008 1.00048 0.993885
1.00008 1.00038 0.993957
1.00009 1.00022 0.993973
1.00092 0.998242 0.99398
1.00076 0.999087 0.993788
1.00044 1.00156 0.991991
1.00018 1.00217 0.991853
1.00012 1.00232 0.991899
1.00008 1.00179 0.992441
1.00006 1.00171 0.99259
1.00006 1.00169 0.992615
1.00174 0.996685 0.993715
1.00006 1.00206 0.992299
1.0001 1.00232 0.992007
1.00026 1.00206 0.991933
1.00016 1.00269 0.991438
1.00154 0.999009 0.992408
0.999855 1.0035 0.991305
1.00012 1.0026 0.991553
1.00007 1.00193 0.992379
1.00011 1.00224 0.991987
1.01366 1.00044 0.979334
1.00627 0.996287 0.991898
0.996552 0.993873 1.00127
0.999978 1.00182 0.992698
0.999584 1.00317 0.992022
0.999924 1.00396 0.990279
1.006 0.994653 0.993553
0.996176 1.00339 0.979171
1.00067 0.999985 0.995366
1.00044 1.00431 0.988795
1.0013 0.993414 0.9918
1.01245 0.993021 0.987106
1.01263 0.991772 0.986014
0.999796 1.00218 0.992668
1.01332 0.998917 0.98096
1.01625 0.994407 0.979632
0.998994 1.00406 0.992348
0.99884 1.00336 0.994448
0.996788 1.00318 0.979725
1.01374 0.994812 0.982823
1.00446 0.994825 0.987981
0.999742 1.00218 0.992561
1.01766 0.996504 0.975095
1.0171 0.993319 0.979042
1.01348 0.989435 0.988405
0.998677 1.00249 0.994496
0.99591 1.00097 0.985334
1.00655 0.995892 0.982762
1.00013 1.00156 0.992701
1.00013 1.00164 0.992569
1.00006 1.00162 0.99272
1.00013 1.00102 0.993188
1.00017 1.00134 0.992787
1.00016 1.00142 0.992697
1.00015 1.00138 0.992816
1.00018 1.00153 0.992564
1.00009 1.00146 0.992801
1.00007 1.00154 0.992802
1.00011 1.00167 0.992546
1.00013 1.00128 0.992941
1.0001 1.00107 0.99318
1.00012 1.0013 0.992889
1.0001 1.00155 0.992701
1.00013 1.00136 0.99279
1.0001 1.00168 0.992591
1.00016 1.00132 0.992807
1.00016 1.00159 0.992469
1.00016 1.00123 0.99289
1.00017 1.00118 0.992953
1.00018 1.00139 0.992666
1.0001 1.00122 0.993008
1.0001 1.00079 0.993455
1.00013 1.00114 0.993004
1.00011 1.00041 0.993804
1.00013 1.00078 0.993437
1.00011 1.00097 0.993244
1.00013 1.00094 0.993298
1.00011 1.0005 0.993686
1.00008 0.999783 0.994492
1.0001 1.00054 0.993684
1.00008 0.999779 0.994481
1.00003 0.998688 0.995655
1.00009 0.999754 0.994488
1.00005 0.998656 0.995648
0.999984 0.996969 0.997809
1.00007 0.998631 0.995641
1.00001 0.996936 0.997608
0.999982 0.995865 0.998656
1.00004 0.996889 0.997412
0.999998 0.995834 0.999044
1 0.99581 0.999433
1.00007 0.999707 0.994463
1.00007 0.998466 0.995654
1.00008 0.99959 0.994725
1.00004 0.996741 0.997562
1.00008 0.998379 0.995787
1.00009 0.999466 0.994666
1.00001 0.995717 0.999469
1.00005 0.996704 0.997581
1.00009 0.998327 0.995901
1.00001 0.99571 0.999471
1.00005 0.996697 0.997584
1 0.995726 0.999466
1.01349 0.997977 0.981072
1.00617 0.994226 0.994785
0.997203 0.993399 0.997872
1.00011 1.00051 0.993697
1.01611 0.993262 0.980441
1.01254 0.992698 0.987842
1.00656 0.98907 0.999186
1.00015 1.00129 0.991047
0.996495 1.00246 0.980814
0.998771 0.993045 0.999549
1.01081 0.986111 0.997235
1.00125 0.999981 0.989844
0.996416 1.00336 0.979265
1.00265 0.991353 0.992541
1.01325 0.990557 0.988449
1.00093 1.00016 0.989672
0.99622 1.00275 0.975577
1.00291 0.996202 0.9857
1.01303 0.995399 0.98229
1.00012 1.00149 0.992702
1.00008 1.00133 0.992962
1.00008 1.00083 0.993504
1.00011 1.00102 0.993194
1.00011 1.00095 0.993305
1.0001 1.00071 0.993603
1.00009 1.00047 0.993899
1.00009 1.00037 0.994011
1.00141 0.997116 0.993625
1.00024 1.00197 0.992036
1.00006 1.00172 0.992605
1.00016 1.00267 0.99144
1.0001 1.00236 0.991992
1.00005 1.00206 0.992314
1.00007 1.00193 0.99237
1.00129 0.999036 0.992321
1.00011 1.00226 0.991986
1.00013 1.00265 0.991525
0.999887 1.00347 0.991316
1.0001 1.0019 0.992319
1.00032 1.00225 0.991652
0.999787 1.00352 0.991501
1.00015 1.00227 0.99185
1.00012 1.00227 0.991957
1.01795 0.997929 0.973847
1.01368 1.00004 0.979393
1.00624 0.996794 0.990791
0.999812 1.00215 0.992727
0.999115 1.00418 0.992006
1.01322 0.999408 0.979664
0.996217 1.00306 0.979064
0.99948 1.00326 0.991334
1.00326 0.993352 0.987647
1.01631 0.994242 0.97931
1.01445 0.995453 0.982316
0.999779 1.00232 0.992618
1.01756 0.996526 0.974993
1.0174 0.993656 0.97841
0.998418 1.00253 0.99503
1.01333 0.989106 0.989835
0.996661 1.00027 0.98504
1.00417 0.996005 0.984101
1.00001 1.00087 0.993557
1.01892 0.993517 0.975858
1.01641 0.992229 0.980996
1.0114 0.98363 0.997957
1.00262 0.995537 0.987118
0.998 1.00105 0.999185
0.997269 0.997705 0.984987
1.00011 1.00166 0.992589
1.00005 1.00165 0.992685
0.99973 1.00172 0.993056
1.00015 1.00137 0.992826
1.00017 1.00155 0.992554
1.00012 1.00141 0.992792
1.00012 1.00166 0.992544
1.00008 1.0015 0.992837
1.00004 1.00214 0.992306
1.00011 1.00153 0.992705
1.00013 1.00135 0.992788
1.00011 1.00169 0.992562
1.00005 1.00205 0.992263
1.00014 1.00126 0.992891
1.00015 1.00158 0.992515
1.00019 1.00181 0.992279
1.0002 1.00151 0.992547
1.00018 1.00119 0.992963
1.00018 1.00141 0.992651
1.0001 1.00119 0.99311
1.00004 1.00094 0.993377
1.0001 1.00119 0.99305
1.00008 1.00041 0.993856
1.0001 1.0008 0.993449
1.00012 1.00115 0.992999
1.00007 0.999754 0.994531
1.00011 1.00041 0.993776
1.00013 1.00079 0.993395
1.00011 1.00049 0.993718
1.00007 0.999781 0.994494
1.00001 0.998718 0.995663
1.00008 0.99978 0.994481
1.00003 0.998689 0.995655
0.999962 0.99702 0.997433
1.00005 0.998658 0.995647
0.999991 0.99697 0.997424
0.999939 0.995921 0.999435
1.00002 0.99693 0.997414
0.999976 0.995884 0.999044
0.999984 0.995849 0.999432
1.00008 0.999749 0.994398
1.00005 0.998581 0.995567
1.00008 0.99971 0.994538
1.00003 0.996802 0.997528
1.00007 0.998472 0.995643
1.00008 0.999592 0.994723
0.999996 0.995742 0.999464
1.00004 0.996736 0.997563
1.00008 0.998382 0.995703
1.00001 0.995718 0.99947
1.00005 0.996701 0.997582
1.00001 0.995711 0.99947
1.01761 0.996356 0.975329
1.01355 0.997957 0.98101
1.00625 0.993974 0.994514
1.00012 1.0005 0.993728
1.00014 1.00044 0.993642
1.00013 1.00098 0.99326
1.01687 0.994131 0.978579
1.01615 0.994125 0.98011
1.01261 0.992828 0.987985
1.0015 1.00031 0.993327
0.996244 1.00362 0.980334
1.00192 0.993172 0.99109
1.01328 0.991567 0.988385
1.00073 1.00047 0.993754
0.99636 1.00323 0.980231
1.00583 0.995142 0.985966
1.01368 0.995847 0.98191
0.999341 1.00108 0.995915
0.995578 1.00045 0.982972
1.0073 0.996146 0.981064
1.01359 0.991165 0.986484
1.00014 1.0015 0.992673
1.00012 1.00149 0.99271
1.00008 1.00136 0.99292
1.00011 1.00103 0.993186
1.00011 1.00093 0.993366
1.00009 1.00046 0.993913
1.00104 0.999035 0.992234
0.999917 1.00345 0.991327
1.00008 1.00194 0.99236
1.00014 1.00271 0.991496
1.00011 1.00227 0.991985
1.0001 1.00196 0.992285
1.00011 1.00226 0.991932
1.00031 1.00187 0.991548
1.00015 1.00231 0.991878
0.999782 1.0035 0.991474
1.0001 1.00229 0.991891
0.999634 1.00327 0.992101
0.999923 1.00242 0.991971
1.00014 1.00259 0.991608
1.01948 0.994489 0.97436
1.01793 0.997282 0.97388
1.01369 0.999613 0.979451
0.999821 1.00245 0.992676
0.998308 1.00247 0.995649
1.01745 0.996548 0.97489
0.99698 1.00075 0.989988
1.00754 0.994384 0.98388
1.01769 0.994032 0.977777
1.01338 0.990073 0.989732
1.00002 1.00099 0.993406
1.01895 0.993832 0.975605
1.01646 0.993077 0.980652
0.998033 1.00058 0.995866
1.01132 0.981961 0.999191
1.0051 0.994436 0.988031
0.995029 0.998294 0.987856
0.999823 1.00015 0.995804
1.01771 0.995757 0.975789
1.01275 0.991484 0.988252
1.00618 0.985286 1.00233
1.00222 0.991497 0.997174
0.995945 0.99997 0.984637
0.997776 1.00009 0.99658
1.00006 1.00168 0.99265
0.999797 1.00165 0.993051
0.999512 1.00286 0.992348
1.00012 1.00165 0.992542
1.00008 1.00148 0.992872
1.00003 1.00211 0.992344
0.999942 1.00294 0.991617
1.00012 1.0017 0.992532
1.00009 1.00213 0.9922
1.00013 1.0024 0.99185
1.00014 1.00158 0.992561
1.00019 1.00182 0.992264
1.00024 1.00196 0.992113
1.00028 1.00157 0.992355
1.00013 1.00128 0.992861
1.00019 1.00153 0.992515
1.00019 1.00142 0.992637
1.00008 1.00094 0.993404
1.00009 1.00115 0.993127
1.00003 1.00056 0.993772
1.00005 1.00093 0.993433
1.00011 1.00116 0.993093
1.00005 0.999762 0.994566
1.00009 1.00041 0.993857
1.00011 1.00081 0.993443
0.999996 0.998736 0.99568
1.00007 0.999752 0.994533
1.00012 1.00041 0.993747
1.00007 0.999779 0.994495
1.00001 0.998719 0.995663
0.99993 0.997078 0.997438
1.00003 0.998691 0.995655
0.999963 0.997023 0.997433
0.999909 0.996027 0.999436
0.999994 0.996973 0.997424
0.999945 0.995937 0.999048
0.999961 0.995895 0.999432
1.00009 0.999732 0.994508
1.00004 0.998645 0.995679
1.00008 0.999756 0.994448
1.00001 0.996883 0.997485
1.00005 0.998582 0.995643
1.00008 0.999714 0.994613
0.999981 0.995791 0.999456
1.00003 0.996794 0.997531
1.00006 0.99848 0.995633
0.999998 0.995744 0.999466
1.00004 0.99673 0.997564
1.00001 0.99572 0.99947
1.01885 0.99399 0.975437
1.01763 0.996649 0.975211
1.01362 0.99807 0.98095
1.00014 1.00036 0.993724
1.00017 1.00064 0.993508
1.00012 1.00049 0.993759
1.00014 1.00044 0.993649
1.00013 1.00099 0.993203
1.00015 1.00092 0.993242
1.00014 1.00124 0.992924
1.01615 0.994139 0.980493
1.01711 0.994592 0.977952
1.0162 0.994999 0.979779
1.0144 0.996235 0.981529
1.00108 1.00084 0.989466
0.996228 1.00385 0.983484
1.00517 0.992616 0.985487
0.999222 1.00199 0.993079
0.997398 1.00003 0.981447
1.00524 0.996333 0.981885
1.01317 0.990375 0.987041
0.997904 1.00172 0.99701
0.997526 0.997856 0.982152
1.00693 0.992133 0.988046
1.01183 0.985411 0.994327
1.00011 1.00173 0.992491
1.00013 1.00153 0.99266
1.00011 1.00149 0.992719
1.00011 1.00104 0.993178
1.00029 1.0015 0.991444
0.999788 1.00345 0.991447
1.00009 1.00203 0.99225
1.00011 1.00226 0.991906
1.00014 1.00236 0.991906
1.00009 1.00228 0.991969
1.00014 1.0026 0.991587
0.999373 1.00311 0.992999
0.999946 1.00226 0.992111
1.00011 1.00263 0.991642
0.998836 1.00219 0.995957
1.00005 1.00325 0.990954
1.01804 0.997545 0.974053
1.01934 0.994127 0.974661
1.0179 0.996676 0.973913
1.00001 1.0011 0.993254
0.997969 1.00078 0.998799
1.01899 0.994164 0.975351
0.997121 0.997777 0.984519
1.00484 0.991942 0.987034
1.01652 0.993933 0.980307
1.01085 0.984741 0.998359
0.999888 0.999907 0.995613
1.01772 0.996028 0.975678
1.01282 0.991645 0.988417
0.997909 0.999372 1.00069
1.0072 0.983957 1.00238
1.00247 0.990712 0.993544
0.996731 0.999999 0.98399
0.999687 1.0008 0.995862
1.01361 0.997246 0.98159
1.00596 0.989225 0.998065
0.998593 0.994171 0.999446
0.996201 1.0022 0.980282
0.998902 1.00043 0.993408
0.999865 1.00159 0.993046
0.999548 1.00283 0.992346
0.999393 1.00385 0.991594
1.00002 1.00208 0.992382
0.999931 1.00285 0.991711
1.0001 1.00325 0.991058
1.00012 1.0022 0.992136
1.00014 1.00245 0.991786
1.00025 1.00228 0.991707
1.00019 1.00183 0.992249
1.00024 1.00196 0.992071
1.00035 1.00163 0.992152
1.00044 1.00109 0.992479
1.00026 1.00135 0.992643
1.00028 1.00159 0.992319
1.0001 1.00099 0.993192
1.00013 1.00126 0.992902
1.00019 1.00155 0.992483
1.00005 1.00064 0.993717
1.00008 1.00095 0.99336
1.00008 1.00112 0.993144
1.00001 0.999877 0.99453
1.00003 1.00054 0.993808
1.00005 1.00092 0.993488
0.999973 0.998767 0.995696
1.00005 0.999763 0.994567
1.0001 1.0004 0.993857
0.999899 0.997165 0.997444
0.999997 0.998735 0.995681
1.00007 0.999751 0.994535
1.00001 0.998719 0.995664
0.999931 0.997082 0.997439
0.999873 0.996108 0.999437
0.999964 0.997026 0.997433
0.999904 0.996022 0.999436
0.999932 0.99595 0.999435
1.00014 1.00032 0.993835
1.00009 0.999718 0.994528
1.00003 0.998679 0.995665
1.00009 0.999737 0.994507
0.999989 0.996961 0.99745
1.00004 0.998646 0.995679
1.00008 0.999764 0.994499
0.999959 0.995859 0.999446
1.00001 0.996874 0.997488
1.00005 0.998582 0.99572
0.999984 0.995791 0.999459
1.00003 0.996786 0.997533
1 0.995746 0.999467
1.01766 0.996238 0.975342
1.01891 0.994329 0.9752
1.01764 0.996938 0.975093
1.00014 1.00037 0.993759
1.00017 1.00064 0.993468
1.00015 1.00062 0.993481
1.00016 1.00073 0.993347
1.00019 1.00082 0.993285
1.00014 1.00043 0.993657
1.00013 1.00101 0.993146
1.00015 1.00091 0.993243
1.00015 1.00121 0.99294
1.00015 1.00122 0.992956
1.01279 0.993506 0.986715
1.01606 0.994144 0.980166
1.01735 0.995072 0.977325
1.01296 0.99134 0.985842
1.00808 0.994842 0.982146
0.999348 1.00243 0.991341
0.99541 0.999611 0.984571
0.997477 1.00212 0.994199
0.995889 0.998207 0.985664
1.00514 0.99501 0.986303
1.01137 0.983006 0.996563
0.996586 1.00149 0.995786
0.995395 1.00024 0.984002
1.00227 0.992278 0.991002
1.00795 0.982876 1.00214
1.00006 1.00161 0.992718
1.00011 1.0017 0.992541
1.00013 1.00156 0.992648
0.999111 1.00294 0.993897
0.999973 1.0021 0.992252
1.00008 1.00226 0.992046
1.00015 1.00262 0.991565
1.00008 1.00267 0.991666
1.00004 1.00326 0.99095
0.998843 1.00204 0.995952
0.999868 1.00309 0.991442
0.999166 1.00363 0.993634
1.01384 1.00005 0.979702
1.01801 0.996911 0.974082
1.01922 0.993754 0.974961
0.999959 0.999699 0.995425
0.997915 0.999053 0.996333
1.01774 0.996296 0.975566
0.995486 0.999839 0.98175
1.0018 0.99274 0.991708
1.0129 0.991717 0.988583
1.00815 0.98284 1.00244
0.999658 1.00063 0.995858
1.01368 0.997256 0.981519
1.00622 0.988493 0.999043
0.9984 1.00027 0.995952
0.999191 0.993415 0.994462
0.996558 1.00291 0.977492
0.999768 1.00159 0.994309
1.00637 0.993644 0.993369
0.997615 0.993926 0.996866
0.996053 1.00325 0.979776
1.00033 0.999872 0.994101
0.999579 1.0028 0.992343
0.999423 1.00382 0.991612
0.999845 1.00418 0.990883
0.999921 1.00274 0.991805
1.00007 1.00325 0.991114
1.00043 1.00213 0.991454
1.00014 1.00251 0.991722
1.00024 1.00222 0.991743
1.00049 1.00119 0.992323
1.00023 1.00196 0.992029
1.00034 1.00157 0.992183
1.00056 1.00061 0.992707
1.00057 1.00045 0.992849
1.00036 1.00114 0.992564
1.00044 1.00105 0.992497
1.00019 1.0011 0.992976
1.00024 1.00139 0.99259
1.00027 1.0016 0.992283
1.00007 1.00064 0.993646
1.0001 1.00097 0.993235
1.00014 1.00124 0.992944
0.999991 1.00003 0.994419
1.00004 1.00063 0.993704
1.00007 1.00096 0.993316
0.999938 0.998857 0.995674
1.00001 0.999881 0.994528
1.00004 1.00052 0.993845
0.999856 0.997208 0.997833
0.999974 0.998769 0.995696
1.00005 0.999764 0.994568
0.999846 0.996188 0.998674
0.999894 0.997154 0.997637
0.999997 0.998735 0.995683
0.999932 0.997086 0.997439
0.999867 0.9961 0.999438
0.999898 0.996016 0.999437
1.00013 1.00032 0.993815
1.00008 0.999711 0.994547
1.00014 1.00032 0.993813
1.00002 0.9987 0.995671
1.00009 0.99972 0.994527
0.999964 0.997027 0.997432
1.00003 0.998681 0.995664
1.00009 0.999741 0.994505
0.999933 0.995936 0.999438
0.999987 0.996955 0.997451
1.00004 0.998647 0.995679
0.999963 0.995859 0.999449
1.00001 0.996866 0.99749
0.999987 0.995792 0.999461
1.0134 0.9994 0.979127
1.01758 0.996246 0.975235
1.01898 0.994683 0.974964
1.00013 1.00068 0.993541
1.00013 1.00037 0.993794
1.00017 1.00064 0.993428
1.00016 1.00074 0.993391
1.00015 1.00063 0.993522
1.00019 1.00079 0.993288
1.00017 1.00085 0.993236
1.00017 1.00095 0.993133
1.00015 1.00091 0.993244
1.00015 1.00117 0.992957
1.00015 1.0012 0.992955
1.00017 1.00126 0.992942
1.00649 0.988239 1.00066
1.01258 0.993521 0.986818
1.01598 0.994148 0.979838
1.01054 0.985223 0.99676
1.00381 0.993772 0.985601
0.997525 0.997831 0.982155
0.997129 1.0023 0.99973
0.996624 1.00125 1.00097
1.00786 0.982849 1.00257
0.996929 1.00006 0.980707
1.00133 0.99301 0.995972
0.9973 1.00308 0.997296
0.996099 1.00295 0.980336
0.998574 0.993468 1.00019
0.999919 1.00166 0.992948
1.00008 1.00157 0.992725
1.00011 1.00166 0.992592
0.998843 1.00189 0.995949
1.00002 1.00326 0.990946
1.00006 1.00271 0.991689
0.999891 1.00313 0.991487
0.999242 1.00359 0.993515
0.99954 1.00223 0.993369
1.0068 0.994405 0.995814
1.01375 1.00016 0.978161
1.01798 0.996311 0.97411
0.999641 1.00041 0.995854
0.998711 1.0005 0.996852
1.01375 0.997398 0.981449
0.996384 1.00318 0.985069
0.998785 0.992868 0.999732
1.00675 0.98829 0.999646
0.99981 1.00162 0.994406
1.0063 0.993561 0.995262
0.997044 0.99433 1.00144
1.00041 1.00006 0.990604
0.996486 1.00304 0.979359
1.00115 1.00097 0.991212
0.996448 0.993543 1.00175
0.99613 1.00169 0.982204
1.00159 0.998766 0.990314
0.999457 1.00379 0.99163
0.99973 1.00417 0.990807
1.00052 1.00184 0.991789
1.00003 1.00326 0.991169
1.00043 1.00201 0.991503
1.00085 0.999873 0.992875
1.00024 1.00216 0.991779
1.00048 1.00108 0.992369
1.00073 0.999662 0.9933
1.00033 1.00151 0.992213
1.00056 1.00055 0.992723
1.00066 0.999799 0.993268
1.00054 1.00017 0.993151
1.00049 1.00068 0.992808
1.00056 1.00042 0.992865
1.00028 1.00098 0.992838
1.00035 1.00112 0.992613
1.00044 1.001 0.992515
1.00011 1.00074 0.993484
1.00017 1.00111 0.992971
1.00022 1.00142 0.992537
0.999996 1.00015 0.994294
1.00008 1.00064 0.993644
1.0001 1.00096 0.993279
0.999906 0.999002 0.995597
0.999995 1.00002 0.99442
1.00004 1.00063 0.993691
0.999819 0.997297 0.997443
0.999941 0.998863 0.995672
1.00001 0.999884 0.994527
0.999791 0.99624 0.999441
0.99986 0.997208 0.997452
0.999974 0.99877 0.995697
0.999831 0.996192 0.999439
0.999899 0.997147 0.997447
0.999861 0.996092 0.999438
1.00009 1.00041 0.993925
1.00012 1.00033 0.993841
1.00007 0.999749 0.994547
1 0.998723 0.995678
1.00008 0.999712 0.994546
1.00014 1.00032 0.993791
0.999936 0.997084 0.997432
1.00002 0.998698 0.99567
1.00009 0.999721 0.994526
0.999902 0.996014 0.999435
0.999963 0.997023 0.997432
1.00003 0.998682 0.995663
0.999937 0.995939 0.999441
0.999986 0.99695 0.997452
0.999967 0.995859 0.999452
1.00689 0.993212 0.995142
1.0134 0.999466 0.979052
1.01748 0.996254 0.975128
1.00013 1.00069 0.993506
1.00013 1.00073 0.993474
1.00016 1.0008 0.993317
1.00015 1.00075 0.993435
1.00015 1.00064 0.993564
1.00019 1.00076 0.99329
1.00017 1.00094 0.993153
1.00017 1.00084 0.993258
1.00014 1.00114 0.99304
1.00013 1.00117 0.993077
1.00015 1.00118 0.992954
1.00016 1.00124 0.99292
0.997246 0.992779 1.00121
1.00624 0.988406 1.00111
1.01233 0.993542 0.986921
1.00775 0.982974 1.00299
1.00131 0.992542 0.993065
0.996556 1.00054 0.985231
0.996451 1.00159 0.995915
0.997378 1.0031 0.993271
0.999331 0.992612 0.995039
0.996447 1.00306 0.983416
0.998684 1.00273 0.990506
0.996181 1.0029 0.982056
0.999761 1.00247 0.992677
0.999946 1.00159 0.99296
1.00011 1.00152 0.992733
0.999309 1.00354 0.993395
0.999911 1.00316 0.991531
0.999817 1.00214 0.993391
1.00013 1.00097 0.993551
0.996826 0.992838 1.00307
1.00666 0.99531 0.993473
1.01365 1.00019 0.976621
0.999839 1.00164 0.994501
1.00026 1.0002 0.995656
1.00637 0.993264 0.995014
0.996251 1.00349 0.980182
0.997163 0.99468 0.99652
1.00089 1.00082 0.991886
0.996942 0.9937 1.00018
0.995623 1.00226 0.982635
1.00118 0.99876 0.994859
1.00235 0.997508 0.992036
0.995889 0.998904 0.98213
1.0009 1.00033 0.993566
0.999612 1.00413 0.99073
1.00051 1.00162 0.991826
1.00129 0.99817 0.993883
1.00043 1.00188 0.991552
1.00081 0.999763 0.99292
1.00096 0.998228 0.994216
1.00047 1.00097 0.992415
1.00073 0.999609 0.993303
1.00077 0.999058 0.993789
1.00056 1.00049 0.992739
1.00066 0.999816 0.993257
1.00061 0.999784 0.993382
1.00052 1.00018 0.993175
1.00055 1.00015 0.993165
1.00049 1.00038 0.993079
1.00041 1.00069 0.992946
1.00047 1.00069 0.992817
1.00055 1.0004 0.992881
1.00019 1.00074 0.993237
1.00028 1.00099 0.992888
1.00034 1.00111 0.992661
1 1.00029 0.994133
1.00011 1.00074 0.993483
1.00015 1.00111 0.992966
0.999884 0.999155 0.995487
1 1.00013 0.994295
1.00008 1.00064 0.993643
0.999773 0.997427 0.997404
0.999908 0.999008 0.995595
1 1.00002 0.994421
0.999744 0.996403 0.999439
0.99982 0.997308 0.997441
0.999943 0.998869 0.995669
0.999793 0.996254 0.999059
0.999862 0.997218 0.997452
0.999821 0.996173 0.999439
1.00007 1.00052 0.993817
1.0001 1.00041 0.993855
1.00004 0.999843 0.994512
1.00012 1.00033 0.993867
1.00007 0.999747 0.994546
0.999984 0.998773 0.995671
0.999905 0.997142 0.997436
1 0.998721 0.995678
1.00008 0.999713 0.994545
0.999867 0.996088 0.999436
0.999935 0.997079 0.997432
1.00002 0.998697 0.99567
0.999907 0.99602 0.999436
0.999961 0.997019 0.997432
0.999942 0.995941 0.999443
0.997735 0.993487 0.996595
1.00668 0.993067 0.996857
1.01341 0.999533 0.978978
1.00013 1.00069 0.993471
1.00015 1.00081 0.993321
1.00012 1.00073 0.993492
1.0001 1.00082 0.993425
1.00015 1.00088 0.993266
1.00018 1.00093 0.993172
1.00017 1.00083 0.993279
1.00014 1.00112 0.993029
1.00009 1.0011 0.9931
1.00011 1.0013 0.992953
1.00009 1.00142 0.992913
1.00011 1.0012 0.99304
1.00015 1.00121 0.992898
0.996774 1.00002 0.979574
0.997502 0.993817 0.999112
1.0063 0.988915 1.00108
0.999306 0.991922 0.999715
0.996128 1.00301 0.975987
0.997514 1.00316 0.997033
0.998844 1.00269 0.992474
0.996209 1.00217 0.981031
1.00014 1.00063 0.991801
1.00015 1.00275 0.991493
0.999726 1.00255 0.992613
0.999975 1.00152 0.992973
1.00011 1.00205 0.993412
1.00011 1.00029 0.99378
0.995125 0.997226 0.988098
0.997471 0.993387 0.997884
1.00652 0.996241 0.991133
1.00064 1.00067 0.992562
1.00155 0.999257 0.990085
0.997289 0.993001 0.998005
0.996425 1.00278 0.980512
1.00208 0.997631 0.991932
0.995494 0.999718 0.986037
1.00132 0.999654 0.990171
1.00273 0.994761 0.993827
0.999578 1.0034 0.99294
1.0005 1.00142 0.991863
1.00124 0.998056 0.993893
1.00113 0.997183 0.99504
1.00078 0.999654 0.992965
1.00095 0.998247 0.994182
1.00084 0.998403 0.994294
1.00074 0.999554 0.993305
1.00076 0.999115 0.993761
1.00065 0.999555 0.993541
1.00066 0.999837 0.993246
1.00061 0.999832 0.993361
1.00056 1.00011 0.993169
1.00052 1.00016 0.993197
1.0005 1.00037 0.993058
1.00055 1.00013 0.993179
1.0005 1.00037 0.993076
1.00045 1.00049 0.993053
1.00031 1.00061 0.993152
1.00041 1.00071 0.992935
1.00046 1.0007 0.992826
1.00005 1.00041 0.993931
1.00019 1.00075 0.993274
1.00027 1.001 0.992938
0.999864 0.999335 0.995341
1.00001 1.00027 0.994132
1.00011 1.00074 0.993482
0.99973 0.997578 0.997337
0.999886 0.999162 0.995486
1.00001 1.00012 0.994295
0.999692 0.996537 0.999433
0.999775 0.997442 0.997401
0.99991 0.999014 0.995592
0.999736 0.996389 0.999438
0.999821 0.99732 0.99744
0.999777 0.996264 0.99944
1.00005 1.00065 0.993656
1.00007 1.00052 0.993819
1.00001 0.999995 0.994337
1.0001 1.00042 0.993784
1.00004 0.999853 0.994457
0.999956 0.998875 0.995629
1.00006 0.999745 0.994546
0.999984 0.998769 0.995671
0.999871 0.997218 0.997432
0.999829 0.996166 0.999437
0.999905 0.997136 0.997436
1 0.998719 0.995677
0.999873 0.9961 0.999435
0.999934 0.997075 0.997431
0.999912 0.996028 0.999437
0.996158 0.999277 0.985543
0.997217 0.993181 1.00231
1.00667 0.992965 0.996395
1.00015 1.00081 0.993326
1.00012 1.00073 0.99351
1.00015 1.00088 0.993284
1.00011 1.00081 0.993444
1.00006 1.001 0.993342
1.00011 1.00097 0.993257
1.00013 1.00111 0.993018
1.0001 1.00112 0.9931
1.00008 1.00131 0.992967
1.00006 1.00122 0.992989
1.00026 1.00124 0.992903
1.00043 1.00197 0.99166
1.00007 1.0014 0.992902
1.0001 1.00123 0.993002
1.00065 0.998682 0.996174
0.996029 1.00004 0.98376
0.997514 0.993532 0.996915
0.996045 1.0026 0.981338
0.999076 1.00236 0.995248
1.00001 1.00077 0.994159
1.00176 1.00002 0.991231
1.00011 1.00248 0.991541
0.999684 1.00262 0.992549
1.00007 0.999676 0.99401
0.99844 1.00245 0.991727
0.995697 0.999239 0.986633
0.996855 0.993414 1.00111
1.00179 0.997751 0.991828
1.00146 0.999756 0.99392
0.995177 1.00004 0.98993
1.00238 0.995331 0.993687
0.999813 1.00224 0.992233
1.00143 0.997125 0.994193
0.999663 1.00358 0.991925
1.0012 0.997954 0.993902
1.00111 0.997264 0.994996
1.00074 0.998748 0.994194
1.00094 0.998266 0.994148
1.00081 0.99853 0.994241
1.00066 0.999553 0.993563
1.00075 0.999175 0.993732
1.00065 0.999606 0.993521
1.0006 1.00013 0.993074
1.00061 0.999879 0.99334
1.00055 1.00013 0.993182
1.00052 1.00045 0.992932
1.00052 1.00014 0.993219
1.0005 1.00034 0.993076
1.00046 1.00052 0.992997
1.0005 1.00036 0.993073
1.00045 1.00049 0.993047
1.00037 1.00051 0.993207
1.00012 1.00043 0.993681
1.0003 1.00062 0.993193
1.0004 1.00072 0.992925
0.999862 0.999544 0.995136
1.00005 1.0004 0.993933
1.00018 1.00076 0.993311
0.999688 0.997749 0.997246
0.999869 0.999342 0.995338
1.00002 1.00026 0.994131
0.999638 0.996695 0.999419
0.999733 0.997595 0.997333
0.999888 0.999168 0.995484
0.999683 0.996524 0.999429
0.999777 0.997456 0.997398
0.999727 0.996375 0.999436
1.00003 1.00079 0.993611
1.00005 1.00065 0.993716
0.999983 1.00018 0.994219
1.00006 1.00052 0.993822
1.00001 1.00001 0.994324
0.999922 0.999024 0.995552
1.00004 0.999864 0.994402
0.999955 0.99887 0.995631
0.999831 0.997327 0.997408
0.999984 0.998765 0.995671
0.999871 0.997209 0.997433
0.999785 0.996258 0.999435
0.999835 0.996182 0.999436
0.999905 0.99713 0.997436
0.999879 0.996112 0.999435
0.999836 0.998921 0.99682
0.99542 0.997718 0.986806
0.997483 0.992951 0.99827
1.00009 1.00109 0.993228
1.00015 1.00088 0.993302
1.00011 1.0008 0.993462
1.00011 1.00098 0.993246
1.00006 1.00101 0.993337
1.00004 1.00112 0.99322
1.00012 1.00114 0.9931
1.00005 1.00133 0.992982
1.00009 1.00124 0.993022
1.00015 1.00123 0.993034
1.00035 1.00147 0.99229
1.00123 1.00145 0.990508
1.00036 1.00194 0.991784
1.00006 1.00138 0.992891
1.00219 0.997569 0.991715
1.00074 0.998567 0.9941
0.995635 1.00005 0.987892
1.00041 1.00086 0.990378
1.00177 1.0005 0.990275
1.00007 1.00217 0.991588
0.999277 1.00204 0.995168
0.998454 1.00345 0.994969
0.995077 0.997344 0.987817
1.00202 0.995898 0.993547
1 1.00151 0.990985
1.00129 0.997435 0.994093
0.999752 1.00331 0.992228
1.00043 1.00079 0.992543
0.999533 1.00275 0.992214
1.00108 0.99733 0.994951
1.0007 0.998912 0.99416
1.00053 1.00039 0.99304
1.00079 0.99866 0.994189
1.00065 0.999589 0.993556
1.00061 1.00024 0.99296
1.00065 0.999655 0.9935
1.00059 1.00014 0.993092
1.00056 1.00058 0.992695
1.00055 1.00015 0.993195
1.00052 1.00045 0.992933
1.00048 1.00063 0.992844
1.0005 1.0003 0.993094
1.00046 1.00048 0.992998
1.00038 1.00056 0.993081
1.00046 1.00048 0.993041
1.00037 1.0005 0.993176
1.00018 1.00044 0.993614
0.999883 0.999733 0.994905
1.00012 1.00042 0.99373
1.0003 1.00063 0.993233
0.999649 0.99795 0.997119
0.999866 0.999547 0.995135
1.00005 1.00038 0.993935
0.999581 0.996874 0.9994
0.999693 0.997767 0.99724
0.999873 0.999349 0.995335
0.999629 0.996683 0.999414
0.999736 0.997611 0.997329
0.999675 0.996511 0.999425
1.00004 1.00089 0.993476
1.00003 1.00078 0.993611
0.999966 1.00034 0.994167
1.00005 1.00064 0.993775
0.999977 1.00018 0.994254
0.999884 0.999209 0.995447
1 1.00003 0.99431
0.99992 0.99902 0.995554
0.999784 0.997475 0.997359
0.999954 0.998865 0.995632
0.999831 0.997315 0.99741
0.999734 0.996375 0.999428
0.999871 0.9972 0.997433
0.999793 0.996275 0.999436
0.999842 0.996198 0.999436
1.00088 0.997175 0.995123
0.999791 0.998476 0.993601
0.996239 0.99782 0.986369
1.00008 1.00109 0.993139
1.00024 1.00109 0.992927
1.00005 1.00111 0.993217
1.00012 1.00099 0.993234
1.00005 1.00102 0.993331
1.00006 1.00113 0.99319
1.00037 1.00133 0.992368
1.00011 1.00126 0.993054
1.00004 1.00122 0.993164
1.00034 1.00147 0.992261
1.00096 1.00135 0.991002
1.00137 0.999273 0.992438
1.00123 1.00139 0.990633
1.00029 1.0019 0.991909
1.0022 0.997659 0.991758
1.00022 0.998282 0.992755
1.00179 1.00102 0.989319
0.99923 1.00081 0.995009
0.999233 1.00188 0.995131
0.998254 1.00191 0.992666
1.00117 0.99777 0.993993
0.999847 1.00301 0.99253
1.00044 1.00081 0.992697
0.999635 1.00265 0.992423
1.00021 1.00178 0.992265
0.999568 1.00191 0.993729
1.00066 0.999082 0.994126
1.00052 1.00033 0.993074
1.00053 1.00088 0.992568
1.00063 0.999624 0.993549
1.0006 1.00028 0.992937
1.00057 1.00069 0.992542
1.00059 1.00015 0.99311
1.00056 1.00059 0.9927
1.00051 1.00077 0.992617
1.00052 1.00045 0.992935
1.00048 1.00062 0.992843
1.0004 1.00068 0.992946
1.00047 1.00045 0.992998
1.00039 1.00054 0.99308
1.00021 1.00052 0.993493
1.00037 1.0005 0.993146
1.00017 1.00043 0.993593
0.999907 0.999902 0.994686
0.999624 0.998178 0.996978
0.999888 0.999728 0.994907
1.00011 1.00042 0.993779
0.999522 0.997074 0.999374
0.999655 0.997969 0.997112
0.999871 0.99955 0.995134
0.999571 0.996861 0.999393
0.999698 0.997786 0.997235
0.99962 0.996669 0.999409
1.0001 1.00096 0.993201
1.00003 1.00089 0.993435
0.999985 1.00048 0.994001
1.00002 1.00078 0.993611
0.999958 1.00035 0.994166
0.999848 0.999418 0.995314
0.999971 1.00019 0.994289
0.999881 0.999205 0.995448
0.99973 0.99766 0.997288
0.999918 0.999015 0.995555
0.999782 0.997461 0.997362
0.999673 0.996526 0.999416
0.99983 0.997303 0.997412
0.999744 0.996391 0.99943
0.999801 0.996292 0.999436
1.00048 0.998516 0.995127
1.00091 0.997456 0.995497
0.999411 0.99954 0.998001
1.0004 1.00106 0.992657
1.00005 1.0011 0.99321
1.00037 1.00112 0.992397
1.00024 1.00109 0.992909
1.00001 1.00113 0.993207
1.00085 1.00122 0.991488
1.00008 1.00115 0.99316
1.00037 1.0013 0.992375
1.00121 1.00004 0.991759
1.00033 1.00146 0.992232
1.00106 1.00137 0.990841
1.00144 0.999228 0.992357
1.00122 1.00134 0.990759
1.0022 0.997741 0.991801
0.999575 1.00064 0.994821
0.999189 1.0009 0.994957
0.99919 1.00172 0.995093
1.00043 1.00081 0.992852
0.999736 1.00257 0.992632
1.00028 1.00175 0.992198
0.999603 1.00171 0.993753
0.999881 1.0013 0.99342
1.0005 1.00028 0.993109
1.00052 1.00079 0.992614
1.00046 1.00096 0.992597
1.0006 1.00032 0.992914
1.00058 1.00073 0.992515
1.00053 1.00088 0.992488
1.00056 1.00059 0.992704
1.00052 1.00077 0.992615
1.00043 1.00082 0.992747
1.00048 1.00062 0.992842
1.0004 1.00068 0.992946
1.00022 1.00065 0.993323
1.00039 1.00053 0.993079
1.0002 1.00051 0.993497
0.999914 1.0001 0.994471
1.00017 1.00042 0.993572
0.999913 0.999892 0.994689
0.999588 0.998416 0.997278
0.999467 0.997324 0.998411
0.999624 0.998197 0.997191
0.999892 0.999723 0.994909
0.999512 0.997063 0.999365
0.999662 0.997989 0.997104
0.999562 0.996847 0.999386
1.00047 1.001 0.992424
1.00017 1.00108 0.992911
1.00011 1.00096 0.993167
1.00001 1.00059 0.993826
1.00003 1.00089 0.993395
0.999973 1.00049 0.994002
0.999825 0.999623 0.99516
0.99995 1.00036 0.994165
0.999844 0.999413 0.995316
0.999672 0.997872 0.997199
0.999878 0.999201 0.99545
0.999727 0.997645 0.997292
0.999602 0.996711 0.999399
0.999781 0.997447 0.997365
0.999685 0.996537 0.99942
0.999754 0.996406 0.999433
1.00058 0.999552 0.993767
1.00048 0.9985 0.994974
1.00094 0.997758 0.99587
1.00075 1.00101 0.991911
1.00034 1.00106 0.992771
1.00002 1.0011 0.99328
1.00043 1.00109 0.992448
1.00023 1.0011 0.992891
1.00106 1.00068 0.991487
1.00085 1.00127 0.991448
1.00037 1.00127 0.992382
1.00129 1.00005 0.991697
1.00115 1.00139 0.990679
1.00151 0.999186 0.992277
0.999387 1.00092 0.994567
0.999501 1.00077 0.994775
0.999142 1.00097 0.994905
1.00035 1.00171 0.99213
0.999631 1.00151 0.993777
0.999915 1.00127 0.993394
0.999969 1.00115 0.993357
1.00052 1.0007 0.992659
1.00051 1.00091 0.992538
1.00045 1.00079 0.992753
1.0006 1.00076 0.992488
1.00053 1.00088 0.992483
1.00044 1.00095 0.992594
1.00052 1.00077 0.992613
1.00043 1.00082 0.992745
1.00025 1.00079 0.993122
1.0004 1.00067 0.992946
1.00022 1.00064 0.993325
0.999913 1.00033 0.994239
1.0002 1.0005 0.993501
0.999921 1.00009 0.994474
0.999529 0.998717 0.997116
0.999918 0.999882 0.994692
0.999582 0.998443 0.997253
0.999388 0.997585 0.998299
0.999463 0.997289 0.99887
0.999625 0.998216 0.997404
0.999502 0.997051 0.999355
1.00074 1.00094 0.991962
1.00032 1.00103 0.992834
1.00044 1.00096 0.992551
1.00004 1.00077 0.99358
1.0002 1.00109 0.992924
1.00013 1.00096 0.993134
1 1.00061 0.993825
0.999812 0.99984 0.994971
0.999961 1.0005 0.994003
0.999819 0.999621 0.995162
0.999611 0.998099 0.997098
0.99984 0.999409 0.995319
0.999666 0.997857 0.997204
0.999522 0.996927 0.999378
0.999724 0.99763 0.997296
0.999617 0.996718 0.999404
0.999698 0.996549 0.999424
1.00039 1.00051 0.993162
1.00054 0.99956 0.99378
1.0005 0.998483 0.994821
1.00092 1.00062 0.991759
1.00076 1.00101 0.991904
1.00027 1.00106 0.992885
1.00049 1.00106 0.992499
1.0011 1.00068 0.99151
1.00086 1.00132 0.991408
1.00136 1.00006 0.991634
0.999524 1.0012 0.994158
0.999516 1.00097 0.994394
0.99943 1.0009 0.994729
0.999791 1.00131 0.993555
0.999953 1.00124 0.993368
0.99996 1.00116 0.993375
1.00017 1.00092 0.993198
1.00057 1.00085 0.992478
1.00043 1.00081 0.992757
1.00038 1.00094 0.992729
1.00053 1.00088 0.992479
1.00044 1.00094 0.9926
1.00026 1.00096 0.992933
1.00043 1.00081 0.992744
1.00025 1.00079 0.993122
0.999917 1.00057 0.993992
1.00022 1.00064 0.993328
0.999921 1.00032 0.994241
0.999452 0.999079 0.996931
0.999928 1.00007 0.994477
0.999524 0.998737 0.997089
0.999292 0.997918 0.99819
0.999576 0.998472 0.997229
0.99939 0.997547 0.998313
0.999457 0.997254 0.99933
1.00096 1.00069 0.991813
1.00059 1.00095 0.992285
1.00071 1.00095 0.992036
1.00016 1.00083 0.993423
1.00032 1.00103 0.992791
1.00041 1.00091 0.992678
0.999823 1.00011 0.994683
1.00004 1.00078 0.993578
1.00022 1.00109 0.992936
0.999992 1.00062 0.993825
0.999803 0.999846 0.994972
0.999551 0.998349 0.996974
0.999813 0.999618 0.995164
0.999604 0.998085 0.997103
0.999436 0.997166 0.999355
0.999661 0.997843 0.997208
0.999539 0.99693 0.999384
0.999631 0.996725 0.999409
1.00044 1.00069 0.992891
1.00049 1.00048 0.993033
1.0005 0.999568 0.993793
1.00105 1.00058 0.991628
1.00076 1.00101 0.991897
1.00114 1.00067 0.991532
0.999567 1.00165 0.993643
0.999468 1.00129 0.994234
0.999647 1.00103 0.994221
0.99982 1.00137 0.993463
0.999867 1.00132 0.9934
0.999951 1.00117 0.993393
1.00016 1.00092 0.993201
1.00021 1.00096 0.993118
1.00041 1.00082 0.992761
1.00037 1.00094 0.992742
1.00023 1.00105 0.992919
1.00043 1.00094 0.992606
1.00026 1.00096 0.992938
0.999916 1.00082 0.99375
1.00025 1.00079 0.993123
0.999923 1.00056 0.993995
0.999344 0.999508 0.996681
0.999928 1.00031 0.994244
0.999449 0.99909 0.996899
0.999168 0.998327 0.998059
0.999519 0.998757 0.997062
0.999292 0.997876 0.998206
0.999391 0.997507 0.998326
1.00077 1.00016 0.992811
1.00081 1.00081 0.991965
1.00099 1.00067 0.991791
1.00036 1.00085 0.992912
1.00058 1.00095 0.992334
1.00068 1.00097 0.99211
0.999882 1.00031 0.994352
1.00015 1.00084 0.993312
1.00031 1.00103 0.992748
0.999506 0.998638 0.996779
0.99981 1.00012 0.994684
1.00004 1.00079 0.993575
0.999793 0.999852 0.994972
0.999541 0.998335 0.996981
0.999349 0.997427 0.999325
0.999597 0.998072 0.997109
0.999453 0.997166 0.999362
0.999555 0.996933 0.99939
1.0001 1.00157 0.992708
1.00048 1.00066 0.992843
1.00059 1.00044 0.992904
1.00117 1.00054 0.991497
0.99966 1.00179 0.99335
0.999544 1.00168 0.9937
0.999412 1.00137 0.994311
0.999849 1.00142 0.993372
0.999852 1.00134 0.99343
0.999868 1.00127 0.993457
1.00015 1.00092 0.993205
1.0002 1.00097 0.993107
1.0001 1.00113 0.993131
1.00035 1.00095 0.992756
1.00021 1.00106 0.99293
0.999885 1.00103 0.993611
1.00025 1.00096 0.992943
0.999918 1.00081 0.993755
0.99926 1.00002 0.995821
0.999929 1.00055 0.993998
0.999359 0.999537 0.996361
0.999005 0.998643 0.999122
0.999446 0.999103 0.996867
0.999167 0.998283 0.998078
0.999292 0.997832 0.998221
1.00044 1.00088 0.992796
1.00074 1.00038 0.992576
1.00071 1.00021 0.992781
1.0005 1.00082 0.992442
1.0008 1.00077 0.992074
1.00102 1.00064 0.991768
0.999999 1.00045 0.993817
1.00036 1.00085 0.992912
1.00058 1.00095 0.992382
0.999495 0.998934 0.996497
0.999874 1.00034 0.994255
1.00015 1.00085 0.993202
0.999273 0.997713 0.999276
0.999492 0.99862 0.99679
0.999797 1.00013 0.994685
0.999532 0.998321 0.996988
0.999365 0.997425 0.999334
0.999471 0.997166 0.999368
0.999795 1.00198 0.992852
1.00001 1.00152 0.992865
1.00051 1.00062 0.992795
0.999616 1.00162 0.993627
0.999668 1.00178 0.993368
0.999521 1.0017 0.993757
0.999838 1.00135 0.993459
0.999871 1.00126 0.993463
0.999757 1.00139 0.993599
1.00019 1.00098 0.993097
1.00009 1.00115 0.993165
0.999752 1.0012 0.993666
1.0002 1.00106 0.992942
0.999877 1.00103 0.993621
0.999158 1.00047 0.995599
0.999919 1.00081 0.99376
0.99928 1.00001 0.995813
0.998883 0.999051 0.999076
0.999372 0.999563 0.996042
0.998991 0.998703 0.998525
0.999165 0.998237 0.998097
1.00015 1.00159 0.992732
1.00044 1.00068 0.992867
1.0004 1.00087 0.992767
1.00048 1.00068 0.992713
1.00069 1.0004 0.992604
1.00065 1.00025 0.99275
1.00011 1.00057 0.993445
1.00052 1.00082 0.992542
1.00078 1.00073 0.992184
0.999503 0.999235 0.996163
1.00001 1.00048 0.993761
1.00036 1.00085 0.992911
0.99921 0.998021 0.999206
0.999478 0.998919 0.99651
0.999867 1.00037 0.994158
0.999285 0.997708 0.999292
0.999478 0.998603 0.996802
0.999381 0.997422 0.999343
0.999762 1.0017 0.993185
0.999816 1.00194 0.992881
0.999929 1.00147 0.993023
0.999558 1.00161 0.993771
0.999661 1.0016 0.993576
0.999676 1.00178 0.993385
0.999874 1.00125 0.993469
0.999762 1.00137 0.9936
0.999475 1.00143 0.99399
1.00007 1.00117 0.993199
0.999761 1.00121 0.993677
0.999004 1.00084 0.995564
0.99987 1.00103 0.993631
0.99917 1.00045 0.995598
0.99872 0.999481 0.999014
0.9993 0.99999 0.995806
0.998844 0.999092 0.999056
0.998979 0.998766 0.997927
1.00012 1.0013 0.992979
1.00013 1.00163 0.992637
1.00026 1.00085 0.993034
1.00042 1.00067 0.992887
1.00036 1.00086 0.992738
1.0001 1.00063 0.993543
1.0005 1.00068 0.992698
1.00064 1.00042 0.992632
0.999492 0.999562 0.995836
1.00012 1.00058 0.993482
1.00054 1.00081 0.992641
0.99914 0.998356 0.999125
0.999484 0.999227 0.996175
1.00002 1.00051 0.993704
0.999219 0.998012 0.999228
0.999461 0.998903 0.996523
0.999296 0.997701 0.999307
0.999743 1.00155 0.993486
0.999802 1.00168 0.993172
0.999836 1.0019 0.99291
0.999346 1.00157 0.994128
0.999564 1.00159 0.993779
0.999705 1.00159 0.993525
0.999767 1.00135 0.9936
0.999501 1.00142 0.993953
0.99881 1.00113 0.99569
0.999769 1.00122 0.993689
0.999004 1.00082 0.995573
0.998538 0.999856 0.998985
0.999183 1.00043 0.995597
0.998676 0.999525 0.999001
0.998804 0.999134 0.999036
0.999998 1.00125 0.993239
1.00012 1.00133 0.992928
1.00012 1.00167 0.992541
0.999913 1.00085 0.993718
1.00026 1.00085 0.993035
1.00041 1.00067 0.992908
0.999399 0.999909 0.995653
1.00011 1.00063 0.993528
1.00052 1.00069 0.992683
0.99904 0.998728 0.999046
0.999474 0.999566 0.995844
1.00013 1.00059 0.99352
0.999154 0.998341 0.999149
0.999465 0.99922 0.996187
0.999228 0.998002 0.999249
0.999449 1.00148 0.994096
0.999722 1.00155 0.993475
0.999843 1.00165 0.993159
0.998701 1.00124 0.995803
0.99935 1.00157 0.994122
0.99957 1.00157 0.993787
0.999527 1.00142 0.993917
0.998806 1.00111 0.995698
0.998339 1.00013 0.999007
0.999004 1.0008 0.995581
0.998482 0.999893 0.998991
0.998631 0.999569 0.998989
0.99965 1.00121 0.993927
0.999978 1.00126 0.993241
1.00013 1.00137 0.992877
0.99919 1.00019 0.996325
0.999919 1.00085 0.99371
1.00026 1.00085 0.993037
0.998865 0.999126 0.999011
0.999392 0.999926 0.995649
1.00012 1.00063 0.993514
0.999065 0.998704 0.999069
0.999457 0.999571 0.995851
0.999168 0.998326 0.999173
0.998729 1.00111 0.99584
0.999448 1.00148 0.994059
0.999702 1.00155 0.993464
0.99822 1.00025 0.999036
0.998699 1.00123 0.995804
0.999353 1.00157 0.994115
0.998803 1.0011 0.995707
0.998301 1.00015 0.999017
0.998427 0.999932 0.998996
0.998914 1.00061 0.996411
0.999651 1.00121 0.993924
0.999958 1.00127 0.993243
0.998681 0.999491 0.999016
0.999212 1.00033 0.995646
0.999925 1.00086 0.993701
0.998916 0.999095 0.999018
0.999386 0.999943 0.995645
0.99909 0.99868 0.999091
0.998239 1.00052 0.99776
0.998758 1.00102 0.996138
0.999446 1.00148 0.994022
0.998215 1.00025 0.999043
0.998698 1.00123 0.995806
0.998261 1.00018 0.999028
0.998443 1.00014 0.997702
0.998962 1.0007 0.996064
0.999653 1.00121 0.993921
0.998694 0.999629 0.998345
0.999192 1.00036 0.995641
0.998967 0.999063 0.999025
0.998239 1.00016 0.999051
0.998756 1.00112 0.995812
0.998211 1.00025 0.999046
0.998412 1.00007 0.998376
0.998945 1.0008 0.995736
0.998759 0.999461 0.999008
0.998302 1.00012 0.999044
0.998511 0.999837 0.999024

TENSORS stress float
0.00119221 2.01438e-05 8.44936e-06
2.01438e-05 0.000131716 -3.51415e-06
8.44936e-06 -3.51415e-06 0.00013636
0.00231499 -2.01867e-05 5.78327e-06
-2.01867e-05 0.000659644 2.43795e-06
5.78327e-06 2.43795e-06 0.000675345
0.00116173 2.05047e-05 3.06253e-06
2.05047e-05 0.000116533 -1.45814e-06
3.06253e-06 -1.45814e-06 0.000121565
0.0012148 2.03389e-05 1.03227e-05
2.03389e-05 0.000187436 -2.77673e-06
1.03227e-05 -2.77673e-06 0.000180842
0.00120408 2.07082e-05 9.00538e-06
2.07082e-05 0.000150006 -3.27502e-06
9.00538e-06 -3.27502e-06 0.000151383
0.00117881 1.93169e-05 7.9032e-06
1.93169e-05 0.000115146 -3.73073e-06
7.9032e-06 -3.73073e-06 0.00012263
0.00116315 1.54462e-05 3.50726e-06
1.54462e-05 0.000104694 -1.3216e-06
3.50726e-06 -1.3216e-06 9.36396e-05
0.00238158 -2.02071e-05 8.69225e-08
-2.02071e-05 0.000690978 -7.28052e-08
8.69225e-08 -7.28052e-08 0.000706616
0.00264817 -2.39604e-05 2.98782e-06
-2.39604e-05 0.000843887 7.73204e-07
2.98782e-06 7.73204e-07 0.000852991
0.00242491 -2.18883e-05 2.61527e-06
-2.18883e-05 0.000718524 8.66157e-07
2.61527e-06 8.66157e-07 0.000732601
0.00108145 -1.72956e-05 5.13046e-06
-1.72956e-05 5.60296e-05 2.38096e-06
5.13046e-06 2.38096e-06 6.82503e-05
0.000928847 -1.36719e-05 3.60039e-06
-1.36719e-05 -1.82268e-05 1.62618e-06
3.60039e-06 1.62618e-06 -2.39602e-05
0.00100056 -1.31209e-05 8.43605e-06
-1.31209e-05 0.00014801 5.40064e-07
8.43605e-06 5.40064e-07 0.000130016
0.00111533 -2.02161e-05 2.98892e-06
-2.02161e-05 0.000157019 3.75011e-07
2.98892e-06 3.75011e-07 0.000146887
0.00112936 2.08702e-05 -2.35623e-06
2.08702e-05 0.000100459 5.99193e-07
-2.35623e-06 5.99193e-07 0.000105884
0.00117096 2.07127e-05 3.8015e-06
2.07127e-05 0.000166475 -1.15055e-06
3.8015e-06 -1.15055e-06 0.000160294
0.00115161 1.96699e-05 2.85713e-06
1.96699e-05 0.000101354 -1.52944e-06
2.85713e-06 -1.52944e-06 0.00010922
0.00116858 2.10751e-05 3.28088e-06
2.10751e-05 0.000132581 -1.36211e-06
3.28088e-06 -1.36211e-06 0.000134357
0.0011689 1.53489e-05 -7.03762e-07
1.53489e-05 0.000108134 1.89962e-07
-7.03762e-07 1.89962e-07 9.70668e-05
0.00272644 1.86903e-05 9.20714e-06
1.86903e-05 0.000971787 -8.96461e-07
9.20714e-06 -8.96461e-07 0.000965748
0.00121819 1.90845e-05 1.11358e-05
1.90845e-05 0.000207569 -2.41905e-06
1.11358e-05 -2.41905e-06 0.000196596
0.00121016 2.08294e-05 9.60287e-06
2.08294e-05 0.000168138 -3.04254e-06
9.60287e-06 -3.04254e-06 0.000165755
0.00117715 1.55671e-05 3.64913e-06
1.55671e-05 0.000141968 -9.52515e-07
3.64913e-06 -9.52515e-07 0.000119355
0.00117245 1.5784e-05 3.60751e-06
1.5784e-05 0.000117996 -1.17405e-06
3.60751e-06 -1.17405e-06 0.000103443
0.00117381 1.83292e-05 7.42829e-06
1.83292e-05 0.000104014 -3.91396e-06
7.42829e-06 -3.91396e-06 0.000113921
0.00114777 1.49538e-05 3.34969e-06
1.49538e-05 9.05627e-05 -1.45787e-06
3.34969e-06 -1.45787e-06 8.2667e-05
0.00139661 8.86743e-06 1.4043e-06
8.86743e-06 0.000198383 -1.7971e-07
1.4043e-06 -1.7971e-07 0.00016367
0.00244909 -2.0234e-05 -5.60126e-06
-2.0234e-05 0.000722717 -2.45597e-06
-5.60126e-06 -2.45597e-06 0.000738295
0.00190789 -2.22798e-05 -2.1464e-06
-2.22798e-05 0.000486803 -8.12987e-07
-2.1464e-06 -8.12987e-07 0.000491917
0.00178295 -2.05392e-05 -1.84109e-06
-2.05392e-05 0.000408524 -8.66794e-07
-1.84109e-06 -8.66794e-07 0.000419411
0.00228526 -1.89618e-05 7.3771e-08
-1.89618e-05 0.000638116 -5.69831e-08
7.3771e-08 -5.69831e-08 0.000655432
0.000888976 -1.37326e-05 8.27161e-08
-1.37326e-05 -3.7112e-05 -3.12969e-08
8.27161e-08 -3.12969e-08 -4.26399e-05
0.00107086 -2.06096e-05 7.10241e-06
-2.06096e-05 9.89165e-05 1.67056e-06
7.10241e-06 1.67056e-06 9.65789e-05
0.00110181 -2.00526e-05 6.19055e-06
-2.00526e-05 8.89604e-05 2.01375e-06
6.19055e-06 2.01375e-06 9.40706e-05
0.00163045 -1.58178e-05 4.85361e-06
-1.58178e-05 0.000333816 1.29534e-06
4.85361e-06 1.29534e-06 0.000321341
0.00223808 -1.8058e-05 2.28667e-06
-1.8058e-05 0.000607339 1.04583e-06
2.28667e-06 1.04583e-06 0.000626336
0.00157873 -1.49975e-05 4.47212e-06
-1.49975e-05 0.000300398 1.55441e-06
4.47212e-06 1.55441e-06 0.0002949
0.000917398 -1.31444e-05 4.32413e-06
-1.31444e-05 -2.7396e-05 2.68033e-06
4.32413e-06 2.68033e-06 -3.10149e-05
0.00101001 -7.77734e-06 2.16638e-06
-7.77734e-06 1.19992e-05 8.8534e-07
2.16638e-06 8.8534e-07 -1.89293e-05
0.00220667 -1.49356e-05 4.83121e-06
-1.49356e-05 0.000581252 2.97627e-06
4.83121e-06 2.97627e-06 0.000602093
0.00260633 -1.81114e-05 1.41422e-07
-1.81114e-05 0.000919211 -1.38268e-07
1.41422e-07 -1.38268e-07 0.000913202
0.00190593 -2.11987e-05 -2.56261e-06
-2.11987e-05 0.000541347 -5.56323e-07
-2.56261e-06 -5.56323e-07 0.000535611
0.00253947 -1.51755e-05 7.55942e-06
-1.51755e-05 0.00090198 2.90356e-07
7.55942e-06 2.90356e-07 0.00089432
0.00109716 -1.81027e-05 3.13945e-06
-1.81027e-05 0.000170205 3.23236e-07
3.13945e-06 3.23236e-07 0.000155827
0.000658318 -1.12273e-05 6.37122e-06
-1.12273e-05 -6.60346e-05 5.49211e-07
6.37122e-06 5.49211e-07 -0.000102621
0.00273324 -2.45148e-05 3.34246e-06
-2.45148e-05 0.000916721 6.07674e-07
3.34246e-06 6.07674e-07 0.000919806
0.00147636 -1.59507e-05 6.91317e-06
-1.59507e-05 0.000295603 1.37739e-06
6.91317e-06 1.37739e-06 0.000271564
0.00112544 2.11192e-05 -2.80114e-06
2.11192e-05 0.000144702 4.48281e-07
-2.80114e-06 4.48281e-07 0.000138941
0.00113043 2.14484e-05 -2.48842e-06
2.14484e-05 0.000113886 5.33268e-07
-2.48842e-06 5.33268e-07 0.000116073
0.00112345 2.00281e-05 -2.22431e-06
2.00281e-05 8.71134e-05 6.61466e-07
-2.22431e-06 6.61466e-07 9.53644e-05
0.00117532 1.52481e-05 -4.92069e-06
1.52481e-05 0.000111894 1.71157e-06
-4.92069e-06 1.71157e-06 0.00010081
0.00187154 1.6267e-05 -1.17379e-06
1.6267e-05 0.000562185 -2.08107e-07
-1.17379e-06 -2.08107e-07 0.00055006
0.00116898 1.94697e-05 4.12084e-06
1.94697e-05 0.000184262 -1.00942e-06
4.12084e-06 -1.00942e-06 0.000173678
0.00114599 1.86677e-05 2.67781e-06
1.86677e-05 8.97711e-05 -1.58726e-06
2.67781e-06 -1.58726e-06 0.000100051
0.00117055 2.12015e-05 3.52047e-06
2.12015e-05 0.000148941 -1.25733e-06
3.52047e-06 -1.25733e-06 0.000146972
0.00118165 1.54804e-05 -1.06505e-06
1.54804e-05 0.000144336 1.87107e-07
-1.06505e-06 1.87107e-07 0.000121781
0.0011581 1.48726e-05 -6.38671e-07
1.48726e-05 9.62246e-05 1.91289e-07
-6.38671e-07 1.91289e-07 8.8292e-05
0.00117558 1.56879e-05 -7.90063e-07
1.56879e-05 0.000120005 1.9341e-07
-7.90063e-07 1.9341e-07 0.000105471
0.00137285 8.08781e-06 -8.4237e-07
8.08781e-06 0.000186471 5.14219e-07
-8.4237e-07 5.14219e-07 0.000151483
0.0027092 1.65535e-05 9.19681e-06
1.65535e-05 0.000975358 -4.65026e-07
9.19681e-06 -4.65026e-07 0.000967906
0.00121599 1.69494e-05 1.19445e-05
1.69494e-05 0.000225646 -1.94228e-06
1.19445e-05 -1.94228e-06 0.00021052
0.00145098 1.27089e-05 2.89164e-06
1.27089e-05 0.000312388 -2.57719e-07
2.89164e-06 -2.57719e-07 0.000281117
0.00118062 1.49097e-05 3.66183e-06
1.49097e-05 0.000154842 -8.0408e-07
3.66183e-06 -8.0408e-07 0.000128076
0.00117472 1.5844e-05 3.64099e-06
1.5844e-05 0.000129785 -1.05932e-06
3.64099e-06 -1.05932e-06 0.000111351
0.00135216 5.89595e-06 1.04167e-06
5.89595e-06 0.000181648 -5.92892e-08
1.04167e-06 -5.92892e-08 0.000136556
0.00121946 8.02426e-06 1.63196e-06
8.02426e-06 0.000114143 -3.41989e-07
1.63196e-06 -3.41989e-07 7.50329e-05
0.0012458 1.71823e-05 7.10096e-06
1.71823e-05 0.000129933 -4.06882e-06
7.10096e-06 -4.06882e-06 0.000141701
0.00115447 1.44342e-05 3.17019e-06
1.44342e-05 8.75385e-05 -1.54088e-06
3.17019e-06 -1.54088e-06 8.26578e-05
0.00138453 8.86764e-06 1.45452e-06
8.86764e-06 0.000192209 -2.87857e-07
1.45452e-06 -2.87857e-07 0.000160593
0.00109747 -1.21689e-06 9.04026e-07
-1.21689e-06 3.37735e-05 -2.38736e-07
9.04026e-07 -2.38736e-07 -1.63357e-05
0.00275582 -2.35915e-05 -6.63915e-06
-2.35915e-05 0.000894792 -2.06697e-06
-6.63915e-06 -2.06697e-06 0.000903839
0.00237807 -1.89645e-05 -5.34412e-06
-1.89645e-05 0.000681834 -2.58286e-06
-5.34412e-06 -2.58286e-06 0.000699019
0.00253322 -2.14583e-05 -5.90662e-06
-2.14583e-05 0.000770516 -2.31481e-06
-5.90662e-06 -2.31481e-06 0.000784268
0.000849367 -1.37934e-05 -3.44184e-06
-1.37934e-05 -5.58664e-05 -1.73602e-06
-3.44184e-06 -1.73602e-06 -6.11905e-05
0.00270162 -2.37749e-05 1.01361e-07
-2.37749e-05 0.000885036 -9.85857e-08
1.01361e-07 -9.85857e-08 0.000890941
0.00252118 -2.24708e-05 7.98206e-08
-2.24708e-05 0.000774551 -6.94969e-08
7.98206e-08 -6.94969e-08 0.00078605
0.000876402 -1.4726e-05 1.07965e-07
-1.4726e-05 -3.00453e-05 -6.06223e-08
1.07965e-07 -6.06223e-08 -4.60856e-05
0.00168391 -1.70435e-05 -1.58495e-06
-1.70435e-05 0.000339602 -9.56164e-07
-1.58495e-06 -9.56164e-07 0.0003559
0.000905842 -1.41505e-05 3.85353e-08
-1.41505e-05 -2.45787e-05 -1.20624e-08
3.85353e-08 -1.20624e-08 -3.27766e-05
0.00120744 -1.35737e-05 8.84543e-07
-1.35737e-05 0.000112564 4.54223e-07
8.84543e-07 4.54223e-07 0.00011051
0.000991912 -7.66848e-06 7.01796e-08
-7.66848e-06 3.70202e-06 -4.46088e-08
7.01796e-08 -4.46088e-08 -2.72323e-05
0.00220297 -1.63146e-05 5.02744e-06
-1.63146e-05 0.000585507 2.82044e-06
5.02744e-06 2.82044e-06 0.00060543
0.000955932 -1.08552e-05 2.79426e-06
-1.08552e-05 -2.58525e-05 2.12387e-06
2.79426e-06 2.12387e-06 -2.52502e-05
0.000773792 -1.47646e-05 5.70678e-06
-1.47646e-05 -7.17048e-05 1.84926e-06
5.70678e-06 1.84926e-06 -9.25837e-05
0.000853062 -1.41476e-05 5.11806e-06
-1.41476e-05 -4.50575e-05 2.3234e-06
5.11806e-06 2.3234e-06 -5.75246e-05
0.00101007 -2.69562e-06 2.07888e-06
-2.69562e-06 3.93641e-06 5.59146e-07
2.07888e-06 5.59146e-07 -3.78181e-05
0.0015215 -1.32328e-05 3.87593e-06
-1.32328e-05 0.000258391 1.89738e-06
3.87593e-06 1.89738e-06 0.000259362
0.00101517 -5.81147e-06 2.1371e-06
-5.81147e-06 1.33295e-05 8.97106e-07
2.1371e-06 8.97106e-07 -2.06826e-05
0.00101637 -7.77346e-06 2.08395e-06
-7.77346e-06 1.46878e-05 1.08026e-06
2.08395e-06 1.08026e-06 -1.36859e-05
0.0010565 1.04825e-06 1.20214e-06
1.04825e-06 2.52372e-05 3.33286e-07
1.20214e-06 3.33286e-07 -2.0287e-05
0.00220699 -1.35635e-05 4.58036e-06
-1.35635e-05 0.000575989 3.10994e-06
4.58036e-06 3.10994e-06 0.000597683
0.00225768 -1.49096e-05 9.46948e-08
-1.49096e-05 0.000605269 -4.95705e-08
9.46948e-08 -4.95705e-08 0.00062598
0.00286381 -2.36923e-05 -8.01492e-06
-2.36923e-05 0.000995574 -1.44894e-06
-8.01492e-06 -1.44894e-06 0.000995661
0.00275396 -1.9748e-05 -8.84021e-06
-1.9748e-05 0.000983175 -8.38554e-07
-8.84021e-06 -8.38554e-07 0.000977587
0.00258815 -1.5484e-05 2.18782e-07
-1.5484e-05 0.000922793 -1.0199e-07
2.18782e-07 -1.0199e-07 0.000915309
0.0018915 -1.91754e-05 -2.71403e-06
-1.91754e-05 0.000555586 -4.56071e-07
-2.71403e-06 -4.56071e-07 0.000546226
0.00111265 -1.23909e-05 1.47204e-06
-1.23909e-05 0.000151375 -1.91968e-08
1.47204e-06 -1.91968e-08 0.000117922
0.00198109 -2.2537e-05 -2.42664e-06
-2.2537e-05 0.000553631 -6.68241e-07
-2.42664e-06 -6.68241e-07 0.00055179
0.00121205 -1.56752e-05 1.32663e-06
-1.56752e-05 0.000166186 2.15594e-07
1.32663e-06 2.15594e-07 0.000139779
0.00261163 2.03394e-07 8.75093e-06
2.03394e-07 0.000937453 -9.23929e-08
8.75093e-06 -9.23929e-08 0.000929292
0.000694226 -9.25922e-06 4.3005e-06
-9.25922e-06 -3.66398e-05 2.37205e-07
4.3005e-06 2.37205e-07 -7.4818e-05
0.0014451 -1.48213e-05 7.1981e-06
-1.48213e-05 0.000296002 1.09695e-06
7.1981e-06 1.09695e-06 0.000268171
0.000983729 -9.21928e-06 1.58968e-06
-9.21928e-06 2.20728e-05 -2.97558e-07
1.58968e-06 -2.97558e-07 -3.23098e-05
0.00158563 -1.66916e-05 5.11221e-06
-1.66916e-05 0.000330948 8.7845e-07
5.11221e-06 8.7845e-07 0.000311133
0.00100501 -8.60933e-06 1.65703e-06
-8.60933e-06 1.21916e-05 3.14278e-07
1.65703e-06 3.14278e-07 -3.78575e-05
0.0010317 1.29627e-05 -8.77829e-06
1.29627e-05 0.000159684 5.80836e-07
-8.77829e-06 5.80836e-07 0.000141451
0.00111871 1.99078e-05 -3.00026e-06
1.99078e-05 0.000160444 4.06209e-07
-3.00026e-06 4.06209e-07 0.000150254
0.00111789 1.90102e-05 -2.10759e-06
1.90102e-05 7.53995e-05 7.18469e-07
-2.10759e-06 7.18469e-07 8.60533e-05
0.00112868 2.15906e-05 -2.62957e-06
2.15906e-05 0.000128648 4.81813e-07
-2.62957e-06 4.81813e-07 0.000127103
0.00118772 1.53729e-05 -5.79364e-06
1.53729e-05 0.000147454 1.32622e-06
-5.79364e-06 1.32622e-06 0.000124951
0.00118008 1.55873e-05 -5.19351e-06
1.55873e-05 0.000122668 1.56287e-06
-5.19351e-06 1.56287e-06 0.000108148
0.00116866 1.47885e-05 -4.63685e-06
1.47885e-05 0.000101997 1.84242e-06
-4.63685e-06 1.84242e-06 9.40264e-05
0.00135001 7.34984e-06 -2.95125e-06
7.34984e-06 0.000174984 1.18316e-06
-2.95125e-06 1.18316e-06 0.000139721
0.00265464 1.55181e-05 -2.43509e-07
1.55181e-05 0.000951832 -1.21479e-07
-2.43509e-07 -1.21479e-07 0.000944246
0.00116259 1.73776e-05 4.43746e-06
1.73776e-05 0.000200494 -8.20222e-07
4.43746e-06 -8.20222e-07 0.000185708
0.00089829 1.09969e-05 -2.4632e-06
1.09969e-05 4.52304e-05 1.81311e-07
-2.4632e-06 1.81311e-07 9.82603e-06
0.00118235 1.47855e-05 -1.23546e-06
1.47855e-05 0.000155736 1.75799e-07
-1.23546e-06 1.75799e-07 0.000129034
0.00178272 1.82119e-05 3.20846e-06
1.82119e-05 0.000389413 -1.69111e-06
3.20846e-06 -1.69111e-06 0.000404232
0.00134554 1.46037e-05 -5.17558e-07
1.46037e-05 0.00018053 2.30766e-07
-5.17558e-07 2.30766e-07 0.000176621
0.00117857 1.57624e-05 -9.08286e-07
1.57624e-05 0.000131944 1.9455e-07
-9.08286e-07 1.9455e-07 0.000113556
0.00126593 5.80493e-06 -8.33945e-07
5.80493e-06 0.00013939 3.57596e-07
-8.33945e-07 3.57596e-07 9.36209e-05
0.00137331 8.55895e-06 -8.01846e-07
8.55895e-06 0.000186333 5.53483e-07
-8.01846e-07 5.53483e-07 0.000154402
0.00129498 7.68832e-06 -5.07126e-07
7.68832e-06 0.000150323 2.17003e-07
-5.07126e-07 2.17003e-07 0.000111695
0.00108949 -8.7119e-07 4.59226e-08
-8.7119e-07 2.99522e-05 -4.59145e-08
4.59226e-08 -4.59145e-08 -2.00641e-05
0.000706689 8.08976e-06 4.56917e-06
8.08976e-06 -3.48976e-05 -1.99273e-07
4.56917e-06 -1.99273e-07 -7.37822e-05
0.00118232 1.38e-05 3.67024e-06
1.38e-05 0.00016763 -6.10385e-07
3.67024e-06 -6.10385e-07 0.000137083
0.0011555 9.13098e-06 1.19375e-06
9.13098e-06 9.80169e-05 9.11097e-08
1.19375e-06 9.11097e-08 4.4396e-05
0.00122907 6.60938e-06 1.31669e-06
6.60938e-06 0.000122761 -2.25881e-07
1.31669e-06 -2.25881e-07 7.372e-05
0.00119116 6.43973e-06 1.44381e-06
6.43973e-06 0.000102662 -2.82884e-07
1.44381e-06 -2.82884e-07 5.99794e-05
0.00125328 -1.57822e-06 1.87153e-07
-1.57822e-06 0.000103665 -5.86736e-09
1.87153e-07 -5.86736e-09 4.80179e-05
0.00239341 1.76819e-05 5.21931e-06
1.76819e-05 0.000677773 -2.75227e-06
5.21931e-06 -2.75227e-06 0.000696518
0.00112562 -7.99627e-07 7.40929e-07
-7.99627e-07 4.5092e-05 -1.36257e-07
7.40929e-07 -1.36257e-07 -6.44316e-06
0.000930279 1.33573e-05 3.23073e-06
1.33573e-05 -2.69868e-05 -1.78029e-06
3.23073e-06 -1.78029e-06 -3.02145e-05
0.00100488 7.87056e-06 2.06827e-06
7.87056e-06 7.44494e-06 -9.72049e-07
2.06827e-06 -9.72049e-07 -2.34827e-05
0.00108315 -1.31958e-06 9.85822e-07
-1.31958e-06 3.0284e-05 -4.30713e-07
9.85822e-07 -4.30713e-07 -1.84845e-05
0.00116712 -7.7202e-06 2.69287e-07
-7.7202e-06 5.01281e-05 9.83391e-08
2.69287e-07 9.83391e-08 -4.51477e-06
0.000913779 1.15379e-05 2.8764e-06
1.15379e-05 -4.54099e-05 -2.06352e-06
2.8764e-06 -2.06352e-06 -4.57904e-05
0.00101497 5.90298e-06 1.71745e-06
5.90298e-06 -2.05648e-06 -1.263e-06
1.71745e-06 -1.263e-06 -2.63271e-05
0.00285647 -2.42485e-05 -7.1941e-06
-2.42485e-05 0.000955044 -1.91334e-06
-7.1941e-06 -1.91334e-06 0.00096126
0.00263276 -2.26122e-05 -6.19464e-06
-2.26122e-05 0.000826593 -2.18028e-06
-6.19464e-06 -2.18028e-06 0.000838191
0.000789014 -1.46196e-05 -4.03884e-06
-1.46196e-05 -7.02243e-05 -1.51316e-06
-4.03884e-06 -1.51316e-06 -8.62865e-05
0.00233844 -1.76295e-05 -5.18025e-06
-1.76295e-05 0.000655941 -2.72906e-06
-5.18025e-06 -2.72906e-06 0.000674472
0.000867188 -1.33076e-05 -3.22245e-06
-1.33076e-05 -5.19249e-05 -1.82658e-06
-3.22245e-06 -1.82658e-06 -5.49895e-05
0.000826364 -1.4175e-05 -3.67457e-06
-1.4175e-05 -6.19822e-05 -1.58677e-06
-3.67457e-06 -1.58677e-06 -7.00543e-05
0.000973556 -7.56401e-06 -2.17112e-06
-7.56401e-06 -4.70525e-06 -1.05354e-06
-2.17112e-06 -1.05354e-06 -3.5646e-05
0.00226253 -1.62841e-05 8.98674e-08
-1.62841e-05 0.000613535 -5.39763e-08
8.98674e-08 -5.39763e-08 0.000633305
0.00093872 -1.087e-05 6.96629e-08
-1.087e-05 -3.42016e-05 -2.98357e-08
6.96629e-08 -2.98357e-08 -3.35021e-05
0.001215 -1.55614e-05 1.2536e-06
-1.55614e-05 0.000141301 3.00221e-07
1.2536e-06 3.00221e-07 0.000122836
0.00120868 -1.48406e-05 1.06314e-06
-1.48406e-05 0.00012709 4.2533e-07
1.06314e-06 4.2533e-07 0.000116668
0.00100537 -2.78312e-06 8.44265e-09
-2.78312e-06 2.21395e-06 -1.06804e-07
8.44265e-09 -1.06804e-07 -3.96335e-05
0.000939279 -1.26031e-05 3.09545e-08
-1.26031e-05 -2.33474e-05 -2.15322e-08
3.09545e-08 -2.15322e-08 -2.47457e-05
0.000993071 -6.22152e-06 1.12422e-08
-6.22152e-06 3.67362e-06 3.25722e-08
1.12422e-08 3.25722e-08 -3.03737e-05
0.000997098 -7.71688e-06 4.72812e-08
-7.71688e-06 5.65208e-06 -6.38374e-09
4.72812e-08 -6.38374e-09 -2.26738e-05
0.00100859 7.73748e-07 -2.7941e-08
7.73748e-07 2.39586e-06 -7.42356e-08
-2.7941e-08 -7.42356e-08 -4.36891e-05
0.000949479 -1.17381e-05 3.02208e-06
-1.17381e-05 -2.40289e-05 1.96498e-06
3.02208e-06 1.96498e-06 -2.43119e-05
0.000962939 -9.96759e-06 2.53249e-06
-9.96759e-06 -2.68842e-05 2.26682e-06
2.53249e-06 2.26682e-06 -2.5414e-05
0.0010263 -6.594e-06 1.84348e-06
-6.594e-06 6.68967e-06 1.19833e-06
1.84348e-06 1.19833e-06 -1.69023e-05
0.00100663 -4.37282e-06 1.97037e-06
-4.37282e-06 1.57369e-07 2.90695e-07
1.97037e-06 2.90695e-07 -4.4352e-05
0.00101716 -3.15936e-06 2.108e-06
-3.15936e-06 1.2037e-05 8.27665e-07
2.108e-06 8.27665e-07 -2.59851e-05
0.00110455 4.79957e-06 8.38055e-07
4.79957e-06 2.401e-05 2.40828e-07
8.38055e-07 2.40828e-07 -2.9358e-05
0.00102258 -7.43013e-06 2.03557e-06
-7.43013e-06 1.32002e-05 1.13474e-06
2.03557e-06 1.13474e-06 -1.27514e-05
0.000978912 2.61636e-06 9.8972e-07
2.61636e-06 -1.78955e-05 4.09158e-07
9.8972e-07 4.09158e-07 -6.62895e-05
0.00107152 3.85297e-07 1.20361e-06
3.85297e-07 3.53788e-05 5.51314e-07
1.20361e-06 5.51314e-07 -8.91036e-06
0.00120523 8.8558e-06 2.1259e-07
8.8558e-06 8.99792e-05 -2.74547e-07
2.1259e-07 -2.74547e-07 3.79768e-05
0.00220316 -1.21947e-05 4.27995e-06
-1.21947e-05 0.000569187 3.21417e-06
4.27995e-06 3.21417e-06 0.000591702
0.0022493 -1.35444e-05 9.70034e-08
-1.35444e-05 0.000595893 -4.39761e-08
9.70034e-08 -4.39761e-08 0.000617488
0.00230928 -1.4888e-05 -4.74882e-06
-1.4888e-05 0.000629555 -3.02466e-06
-4.74882e-06 -3.02466e-06 0.000650135
0.000926006 1.06114e-05 2.63699e-06
1.06114e-05 -4.34995e-05 -2.20778e-06
2.63699e-06 -2.20778e-06 -4.30238e-05
0.00237337 1.62413e-05 5.02899e-06
1.62413e-05 0.000662326 -2.90643e-06
5.02899e-06 -2.90643e-06 0.000682108
0.00288751 -2.43545e-05 -7.65627e-06
-2.43545e-05 0.000986637 -1.69649e-06
-7.65627e-06 -1.69649e-06 0.00098985
0.00282436 -2.21718e-05 -8.41341e-06
-2.21718e-05 0.000997407 -1.17827e-06
-8.41341e-06 -1.17827e-06 0.000994424
0.00074362 -1.43715e-05 -4.3645e-06
-1.43715e-05 -5.67234e-05 -9.44491e-07
-4.3645e-06 -9.44491e-07 -8.58671e-05
0.000715674 -1.10397e-05 -4.52683e-06
-1.10397e-05 -3.88375e-05 -5.26061e-07
-4.52683e-06 -5.26061e-07 -7.53925e-05
0.00263171 -1.64344e-05 -8.87989e-06
-1.64344e-05 0.000941414 -4.53369e-07
-8.87989e-06 -4.53369e-07 0.000934088
0.00259458 -4.99446e-09 2.48909e-07
-4.99446e-09 0.000930015 -1.39487e-07
2.48909e-07 -1.39487e-07 0.00092187
0.000694931 -8.71639e-06 -7.83772e-09
-8.71639e-06 -3.58273e-05 2.22128e-08
-7.83772e-09 2.22128e-08 -7.40835e-05
0.00117708 -1.45623e-05 1.43622e-06
-1.45623e-05 0.00016499 9.90759e-08
1.43622e-06 9.90759e-08 0.000134543
0.000988828 -9.1271e-06 -2.16908e-08
-9.1271e-06 2.43526e-05 -1.56384e-07
-2.16908e-08 -1.56384e-07 -3.01045e-05
0.000833181 -1.53479e-05 6.61526e-08
-1.53479e-05 -3.23135e-05 -7.24396e-08
6.61526e-08 -7.24396e-08 -5.68247e-05
0.00100244 -8.50211e-06 -2.65243e-08
-8.50211e-06 1.12278e-05 -7.00745e-09
-2.65243e-08 -7.00745e-09 -3.88865e-05
0.000696209 -4.70725e-07 4.42126e-06
-4.70725e-07 -3.24542e-05 -5.55265e-08
4.42126e-06 -5.55265e-08 -7.16915e-05
0.000962737 -8.36174e-06 1.34764e-06
-8.36174e-06 2.46402e-05 2.11357e-08
1.34764e-06 2.11357e-08 -3.00772e-05
0.000995862 -9.10194e-06 1.62153e-06
-9.10194e-06 1.66899e-05 1.02238e-07
1.62153e-06 1.02238e-07 -3.63021e-05
0.00109707 -9.28682e-06 3.97381e-07
-9.28682e-06 4.59498e-05 -4.41512e-07
3.97381e-07 -4.41512e-07 -1.3583e-05
0.00100665 -7.06232e-06 1.80207e-06
-7.06232e-06 4.58299e-06 2.45979e-07
1.80207e-06 2.45979e-07 -4.24279e-05
0.00112118 -7.01542e-06 3.73976e-07
-7.01542e-06 3.83453e-05 1.40133e-07
3.73976e-07 1.40133e-07 -1.90704e-05
0.00259717 1.51366e-05 -8.22016e-06
1.51366e-05 0.000927094 2.58225e-07
-8.22016e-06 2.58225e-07 0.000919358
0.00110833 1.78757e-05 -3.18901e-06
1.78757e-05 0.000174931 3.40585e-07
-3.18901e-06 3.40585e-07 0.000160486
0.00033755 9.68093e-06 -6.49282e-06
9.68093e-06 -0.000225749 6.67855e-07
-6.49282e-06 6.67855e-07 -0.000265271
0.00118566 1.46341e-05 -6.17344e-06
1.46341e-05 0.000157391 1.17752e-06
-6.17344e-06 1.17752e-06 0.000130748
0.00231557 1.95147e-05 -2.38073e-06
1.95147e-05 0.000647061 9.89085e-07
-2.38073e-06 9.89085e-07 0.000664926
0.00153637 1.4804e-05 -4.45741e-06
1.4804e-05 0.000273402 1.93669e-06
-4.45741e-06 1.93669e-06 0.000270466
0.00118402 1.56698e-05 -5.46909e-06
1.56698e-05 0.000134868 1.43499e-06
-5.46909e-06 1.43499e-06 0.000116522
0.00117726 5.68103e-06 -2.65276e-06
5.68103e-06 9.60066e-05 8.60893e-07
-2.65276e-06 8.60893e-07 4.95614e-05
0.00137002 7.3856e-06 -2.58672e-06
7.3856e-06 0.000186294 7.49952e-07
-2.58672e-06 7.49952e-07 0.000148148
0.00136296 8.21188e-06 -2.94111e-06
8.21188e-06 0.000180857 1.37163e-06
-2.94111e-06 1.37163e-06 0.000148612
0.00108107 -5.627e-07 -8.42699e-07
-5.627e-07 2.59249e-05 1.6328e-07
-8.42699e-07 1.6328e-07 -2.39982e-05
0.000699227 8.60457e-06 1.19556e-08
8.60457e-06 -3.86869e-05 -6.37904e-08
1.19556e-08 -6.37904e-08 -7.74878e-05
0.0011785 1.36311e-05 -1.41024e-06
1.36311e-05 0.000165635 1.56972e-07
-1.41024e-06 1.56972e-07 0.000135161
0.00101316 8.61605e-06 -4.35279e-07
8.61605e-06 2.8248e-05 1.12395e-07
-4.35279e-07 1.12395e-07 -2.66409e-05
0.00129804 6.3748e-06 -4.8846e-07
6.3748e-06 0.000155744 1.42752e-07
-4.8846e-07 1.42752e-07 0.000107022
0.00232612 1.77038e-05 -8.55225e-08
1.77038e-05 0.000646117 -5.63712e-08
-8.55225e-08 -5.63712e-08 0.000665001
0.00123704 1.37468e-05 4.67142e-08
1.37468e-05 0.000121579 -7.8518e-08
4.67142e-08 -7.8518e-08 0.000119516
0.00119582 8.19793e-06 1.87083e-08
8.19793e-06 9.92747e-05 -5.76683e-09
1.87083e-08 -5.76683e-09 6.93109e-05
0.00119417 6.55491e-06 -5.21541e-07
6.55491e-06 0.000103914 2.06226e-07
-5.21541e-07 2.06226e-07 6.12158e-05
0.00113611 -1.47266e-06 -3.2229e-07
-1.47266e-06 4.70022e-05 1.94022e-07
-3.2229e-07 1.94022e-07 -9.40563e-06
0.00102068 -1.0843e-06 1.68145e-08
-1.0843e-06 5.38904e-07 -7.32272e-08
1.68145e-08 -7.32272e-08 -4.83693e-05
0.00119839 -3.98585e-07 3.1784e-08
-3.98585e-07 8.00591e-05 -1.95486e-08
3.1784e-08 -1.95486e-08 2.90863e-05
0.0011594 -7.58752e-06 4.94776e-08
-7.58752e-06 4.65273e-05 -7.21294e-10
4.94776e-08 -7.21294e-10 -8.05175e-06
0.000931947 1.15187e-05 -5.58239e-08
1.15187e-05 -3.65386e-05 -3.0188e-08
-5.58239e-08 -3.0188e-08 -3.70369e-05
0.00102023 5.91834e-06 -5.90622e-08
5.91834e-06 5.51989e-07 -2.56619e-08
-5.90622e-08 -2.56619e-08 -2.37463e-05
0.000952551 7.98319e-06 1.55199e-06
7.98319e-06 1.28563e-05 1.51245e-07
1.55199e-06 1.51245e-07 -4.2561e-05
0.00120877 8.18569e-06 1.29575e-06
8.18569e-06 0.000115155 -1.13042e-07
1.29575e-06 -1.13042e-07 6.31412e-05
0.0012408 9.39472e-06 1.61593e-07
9.39472e-06 0.000105578 1.74161e-07
1.61593e-07 1.74161e-07 4.52995e-05
0.00109942 1.75942e-06 7.12406e-07
1.75942e-06 2.70375e-05 -3.45805e-07
7.12406e-07 -3.45805e-07 -3.21984e-05
0.00123237 -6.78024e-07 3.80297e-07
-6.78024e-07 9.58105e-05 -4.89219e-08
3.80297e-07 -4.89219e-08 4.28905e-05
0.00121981 -2.49621e-06 -2.95148e-07
-2.49621e-06 7.07997e-05 -3.39382e-08
-2.95148e-07 -3.39382e-08 1.1363e-05
0.000897231 1.24791e-05 3.06752e-06
1.24791e-05 -4.82983e-05 -1.90993e-06
3.06752e-06 -1.90993e-06 -4.98643e-05
0.00116748 -6.39265e-06 6.12417e-08
-6.39265e-06 4.78047e-05 7.05683e-08
6.12417e-08 7.05683e-08 -7.62706e-06
0.000985076 7.38646e-06 2.0218e-06
7.38646e-06 -5.29728e-06 -9.99881e-07
2.0218e-06 -9.99881e-07 -3.38298e-05
0.000954097 -8.74718e-07 1.27459e-06
-8.74718e-07 -2.75866e-05 -7.95761e-07
1.27459e-06 -7.95761e-07 -7.47973e-05
0.00126868 -9.15625e-06 1.36061e-07
-9.15625e-06 0.000103915 1.4963e-07
1.36061e-07 1.4963e-07 5.01703e-05
0.00117638 -8.93154e-06 -2.52706e-07
-8.93154e-06 4.69217e-05 4.26482e-07
-2.52706e-07 4.26482e-07 -9.03037e-06
0.00100753 6.35062e-06 1.88707e-06
6.35062e-06 -3.14635e-06 -1.14616e-06
1.88707e-06 -1.14616e-06 -2.82217e-05
0.00102011 5.51464e-06 1.53665e-06
5.51464e-06 -1.41831e-06 -1.33557e-06
1.53665e-06 -1.33557e-06 -2.50309e-05
0.00107019 -2.16985e-07 1.06066e-06
-2.16985e-07 2.26728e-05 -6.81561e-07
1.06066e-06 -6.81561e-07 -1.7577e-05
0.000781147 -1.48593e-05 -4.23958e-06
-1.48593e-05 -6.69892e-05 -1.3052e-06
-4.23958e-06 -1.3052e-06 -8.74223e-05
0.00232265 -1.62568e-05 -4.99682e-06
-1.62568e-05 0.000641811 -2.88653e-06
-4.99682e-06 -2.88653e-06 0.00066143
0.0009215 -1.08852e-05 -2.63509e-06
-1.08852e-05 -4.25499e-05 -2.19654e-06
-2.63509e-06 -2.19654e-06 -4.17535e-05
0.000801744 -1.44326e-05 -3.82405e-06
-1.44326e-05 -6.86174e-05 -1.55908e-06
-3.82405e-06 -1.55908e-06 -8.03485e-05
0.00100065 -2.86143e-06 -2.08876e-06
-2.86143e-06 4.75501e-07 -7.86873e-07
-2.08876e-06 -7.86873e-07 -4.1464e-05
0.000889267 -1.2626e-05 -3.07473e-06
-1.2626e-05 -4.71386e-05 -1.89944e-06
-3.07473e-06 -1.89944e-06 -4.83959e-05
0.000978117 -7.66331e-06 -2.06357e-06
-7.66331e-06 -3.24364e-06 -1.1393e-06
-2.06357e-06 -1.1393e-06 -3.15221e-05
0.000970843 -6.71867e-06 -2.20052e-06
-6.71867e-06 -6.02739e-06 -8.89542e-07
-2.20052e-06 -8.89542e-07 -4.01127e-05
0.000959918 5.0407e-07 -1.20697e-06
5.0407e-07 -2.08105e-05 -5.0725e-07
-1.20697e-06 -5.0725e-07 -6.74545e-05
0.000929268 -1.17563e-05 5.73851e-08
-1.17563e-05 -3.38043e-05 -3.34949e-08
5.73851e-08 -3.34949e-08 -3.3981e-05
0.000947553 -9.98172e-06 7.01322e-08
-9.98172e-06 -3.43367e-05 -1.9952e-08
7.01322e-08 -1.9952e-08 -3.27755e-05
0.0010166 -6.58258e-06 6.10396e-08
-6.58258e-06 2.0501e-06 -2.38731e-08
6.10396e-08 -2.38731e-08 -2.15021e-05
0.00100844 -4.21533e-06 -2.87651e-08
-4.21533e-06 1.1146e-06 -9.81724e-08
-2.87651e-08 -9.81724e-08 -4.34941e-05
0.000998748 -3.77125e-06 3.38398e-08
-3.77125e-06 4.308e-06 -3.42372e-08
3.38398e-08 -3.42372e-08 -3.3777e-05
0.00111766 5.16666e-06 3.48802e-08
5.16666e-06 2.99686e-05 7.45964e-09
3.48802e-08 7.45964e-09 -2.34801e-05
0.00100601 -7.41776e-06 3.37146e-09
-7.41776e-06 5.42594e-06 1.90714e-08
3.37146e-09 1.90714e-08 -2.04634e-05
0.00102984 3.01456e-06 -4.24819e-08
3.01456e-06 6.73085e-06 -5.35277e-08
-4.24819e-08 -5.35277e-08 -4.14568e-05
0.00107013 -1.00856e-07 3.99501e-08
-1.00856e-07 3.53047e-05 -6.35542e-08
3.99501e-08 -6.35542e-08 -9.11898e-06
0.00112526 8.77116e-06 -3.64743e-07
8.77116e-06 5.16496e-05 -1.04924e-07
-3.64743e-07 -1.04924e-07 -9.00841e-07
0.000969254 -9.04905e-06 2.27177e-06
-9.04905e-06 -2.80168e-05 2.38007e-06
2.27177e-06 2.38007e-06 -2.56634e-05
0.00102405 -6.96038e-06 2.00939e-06
-6.96038e-06 8.87973e-06 1.11559e-06
2.00939e-06 1.11559e-06 -1.55456e-05
0.00102952 -6.21002e-06 1.64246e-06
-6.21002e-06 5.53958e-06 1.29958e-06
1.64246e-06 1.29958e-06 -1.72312e-05
0.00107403 -5.57444e-06 1.10711e-06
-5.57444e-06 2.8679e-05 6.45697e-07
1.10711e-06 6.45697e-07 -1.07947e-05
0.00111488 9.45805e-07 8.13812e-07
9.45805e-07 2.29139e-05 -3.63153e-08
8.13812e-07 -3.63153e-08 -3.14291e-05
0.00109532 5.01843e-06 9.37174e-07
5.01843e-06 3.04897e-05 5.25775e-07
9.37174e-07 5.25775e-07 -2.04645e-05
0.00116782 8.24246e-06 2.28162e-07
8.24246e-06 3.57213e-05 9.85664e-08
2.28162e-07 9.85664e-08 -2.22257e-05
0.00108442 -8.48007e-07 1.17532e-06
-8.48007e-07 3.89748e-05 7.28712e-07
1.17532e-06 7.28712e-07 -3.14924e-06
0.00109046 9.94786e-06 9.34834e-08
9.94786e-06 2.38382e-05 1.07166e-08
9.34834e-08 1.07166e-08 -3.04523e-05
0.00110884 7.19747e-06 7.43525e-07
7.19747e-06 5.06542e-05 -1.65223e-08
7.43525e-07 -1.65223e-08 -2.89813e-06
0.00108139 1.13546e-05 1.68333e-07
1.13546e-05 2.48962e-05 -3.60324e-07
1.68333e-07 -3.60324e-07 -3.13214e-05
0.00104525 -3.7414e-06 9.86732e-07
-3.7414e-06 2.56241e-06 1.5679e-06
9.86732e-07 1.5679e-06 -1.76021e-05
0.000969103 -7.07587e-06 1.77909e-06
-7.07587e-06 -3.56375e-05 2.5688e-06
1.77909e-06 2.5688e-06 -3.17916e-05
0.00219916 -1.08109e-05 3.94593e-06
-1.08109e-05 0.000562639 3.29924e-06
3.94593e-06 3.29924e-06 0.000585921
0.00223803 -1.21766e-05 9.81117e-08
-1.21766e-05 0.000585541 -3.80295e-08
9.81117e-08 -3.80295e-08 0.000607985
0.0022916 -1.35282e-05 -4.45121e-06
-1.35282e-05 0.000615788 -3.13639e-06
-4.45121e-06 -3.13639e-06 0.000637286
0.000936302 9.71411e-06 2.39092e-06
9.71411e-06 -4.20769e-05 -2.31725e-06
2.39092e-06 -2.31725e-06 -4.08857e-05
0.00235217 1.48206e-05 4.78279e-06
1.48206e-05 0.000647196 -3.04132e-06
4.78279e-06 -3.04132e-06 0.000667868
0.000941631 1.05959e-05 -6.76106e-08
1.05959e-05 -3.58872e-05 -2.82749e-08
-6.76106e-08 -2.82749e-08 -3.55096e-05
0.00231285 1.62707e-05 -9.04397e-08
1.62707e-05 0.000633727 -5.25905e-08
-9.04397e-08 -5.25905e-08 0.00065367
0.000766034 -1.49245e-05 -4.33201e-06
-1.49245e-05 -6.18324e-05 -1.0704e-06
-4.33201e-06 -1.0704e-06 -8.65535e-05
0.000726114 -1.30356e-05 -4.4432e-06
-1.30356e-05 -4.94709e-05 -8.41919e-07
-4.4432e-06 -8.41919e-07 -8.29062e-05
0.000999973 -8.32227e-06 -1.71332e-06
-8.32227e-06 1.03054e-05 -3.4114e-07
-1.71332e-06 -3.4114e-07 -3.98729e-05
0.000994141 -9.03618e-06 -1.58988e-06
-9.03618e-06 2.67305e-05 -2.69258e-08
-1.58988e-06 -2.69258e-08 -2.78009e-05
0.000695402 -8.17386e-06 -4.45745e-06
-8.17386e-06 -3.51392e-05 -1.8297e-07
-4.45745e-06 -1.8297e-07 -7.34716e-05
0.00258132 -1.7543e-07 -8.45005e-06
-1.7543e-07 0.000924115 -1.34435e-07
-8.45005e-06 -1.34435e-07 0.00091601
0.000687517 2.47527e-08 4.5239e-08
2.47527e-08 -3.62416e-05 -1.69574e-07
4.5239e-08 -1.69574e-07 -7.54597e-05
0.000970153 -7.93712e-06 -8.03967e-08
-7.93712e-06 2.78875e-05 1.21842e-07
-8.03967e-08 1.21842e-07 -2.68816e-05
0.000999048 -9.00414e-06 5.60008e-09
-9.00414e-06 1.82164e-05 -1.17116e-07
5.60008e-09 -1.17116e-07 -3.48472e-05
0.0011028 -9.32459e-06 -1.00368e-08
-9.32459e-06 4.82968e-05 -1.0834e-07
-1.00368e-08 -1.0834e-07 -1.12528e-05
0.00100633 -6.71062e-06 -4.81691e-08
-6.71062e-06 4.54918e-06 -2.55208e-08
-4.81691e-08 -2.55208e-08 -4.25428e-05
0.00112209 -6.77732e-06 -3.30731e-08
-6.77732e-06 3.87126e-05 1.0675e-08
-3.30731e-08 1.0675e-08 -1.87223e-05
0.000969932 1.40127e-07 1.39651e-06
1.40127e-07 2.9907e-05 1.41856e-07
1.39651e-06 1.41856e-07 -2.53562e-05
0.00107022 -7.35796e-06 2.07639e-07
-7.35796e-06 4.84131e-05 -1.28982e-07
2.07639e-07 -1.28982e-07 -1.06986e-05
0.00110807 -8.48493e-06 4.03922e-07
-8.48493e-06 4.03405e-05 -1.18469e-07
4.03922e-07 -1.18469e-07 -1.89536e-05
0.0011888 -1.02384e-05 7.61645e-10
-1.02384e-05 7.35728e-05 -4.89193e-07
7.61645e-10 -4.89193e-07 1.26044e-05
0.00112278 -3.91091e-06 4.73346e-07
-3.91091e-06 3.05795e-05 -1.90187e-08
4.73346e-07 -1.90187e-08 -2.47932e-05
0.00117056 -7.61468e-06 -2.10952e-07
-7.61468e-06 4.75239e-05 1.3095e-07
-2.10952e-07 1.3095e-07 -1.18112e-05
0.000691469 9.1194e-06 -4.44275e-06
9.1194e-06 -4.26326e-05 8.31031e-08
-4.44275e-06 8.31031e-08 -8.13479e-05
0.00117606 1.34274e-05 -6.55232e-06
1.34274e-05 0.000164311 9.61463e-07
-6.55232e-06 9.61463e-07 0.000133906
0.000872207 8.11377e-06 -2.12729e-06
8.11377e-06 -4.08299e-05 7.89509e-08
-2.12729e-06 7.89509e-08 -9.69936e-05
0.00136772 6.21275e-06 -2.28947e-06
6.21275e-06 0.000189023 5.29524e-07
-2.28947e-06 5.29524e-07 0.000140623
0.00225896 1.77238e-05 -5.24931e-06
1.77238e-05 0.000614502 2.69936e-06
-5.24931e-06 2.69936e-06 0.000633528
0.0015453 1.39951e-05 -4.03057e-06
1.39951e-05 0.00027081 1.75328e-06
-4.03057e-06 1.75328e-06 0.000269915
0.00138764 8.50769e-06 -2.1984e-06
8.50769e-06 0.000191525 8.78163e-07
-2.1984e-06 8.78163e-07 0.000162523
0.00119724 6.64318e-06 -2.46742e-06
6.64318e-06 0.000105195 6.88703e-07
-2.46742e-06 6.88703e-07 6.24807e-05
0.00101947 -1.36996e-06 -8.36664e-07
-1.36996e-06 -9.41581e-06 4.87982e-07
-8.36664e-07 4.87982e-07 -6.6585e-05
0.00127081 -6.07743e-08 -6.82808e-07
-6.07743e-08 0.000114862 9.53398e-08
-6.82808e-07 9.53398e-08 6.44524e-05
0.000958074 -7.77696e-07 -9.83695e-07
-7.77696e-07 -2.92798e-05 3.14299e-07
-9.83695e-07 3.14299e-07 -7.83269e-05
0.00115118 -7.45109e-06 -1.77758e-07
-7.45109e-06 4.26946e-05 -9.59656e-08
-1.77758e-07 -9.59656e-08 -1.18206e-05
0.000950263 1.14989e-05 -3.00402e-06
1.14989e-05 -2.7595e-05 1.98369e-06
-3.00402e-06 1.98369e-06 -2.82116e-05
0.00102545 5.93396e-06 -1.82078e-06
5.93396e-06 3.12952e-06 1.19566e-06
-1.82078e-06 1.19566e-06 -2.11953e-05
0.000900479 7.89653e-06 5.85009e-08
7.89653e-06 -1.28641e-05 -1.22956e-08
5.85009e-08 -1.22956e-08 -6.86695e-05
0.00120579 8.32573e-06 -4.62072e-07
8.32573e-06 0.000113687 1.16684e-07
-4.62072e-07 1.16684e-07 6.16043e-05
0.00119814 9.25302e-06 -2.88378e-07
9.25302e-06 8.56389e-05 2.91659e-08
-2.88378e-07 2.91659e-08 2.5351e-05
0.00120685 1.43279e-06 1.85073e-07
1.43279e-06 7.92591e-05 -1.45124e-07
1.85073e-07 -1.45124e-07 2.07879e-05
0.000921428 1.24489e-05 -4.4753e-08
1.24489e-05 -3.6639e-05 -2.33021e-08
-4.4753e-08 -2.33021e-08 -3.83465e-05
0.00100237 7.41763e-06 -2.05458e-08
7.41763e-06 2.75989e-06 -3.62138e-09
-2.05458e-08 -3.62138e-09 -2.58228e-05
0.00101856 -1.17249e-06 2.64764e-07
-1.17249e-06 3.21891e-06 -2.68667e-07
2.64764e-07 -2.68667e-07 -4.33989e-05
0.00125515 -7.49583e-07 -1.83977e-07
-7.49583e-07 0.000106552 1.06653e-07
-1.83977e-07 1.06653e-07 5.3756e-05
0.00116836 -1.80525e-06 -1.48562e-07
-1.80525e-06 4.55976e-05 1.9205e-07
-1.48562e-07 1.9205e-07 -1.40021e-05
0.00116414 -8.65972e-06 -2.22183e-07
-8.65972e-06 5.38653e-05 1.62656e-07
-2.22183e-07 1.62656e-07 -3.68236e-07
0.00116599 -6.27805e-06 2.85265e-08
-6.27805e-06 4.70199e-05 -9.53475e-09
2.85265e-08 -9.53475e-09 -8.36873e-06
0.00116334 -8.70485e-06 1.02805e-07
-8.70485e-06 4.02224e-05 1.13637e-07
1.02805e-07 1.13637e-07 -1.56103e-05
0.00101571 6.37032e-06 -3.40512e-08
6.37032e-06 8.35222e-07 -2.07973e-08
-3.40512e-08 -2.07973e-08 -2.42791e-05
0.00100914 2.53754e-07 -5.53462e-08
2.53754e-07 -7.26452e-06 -3.49673e-08
-5.53462e-08 -3.49673e-08 -4.78903e-05
0.00102451 5.52221e-06 -5.29003e-08
5.52221e-06 7.70214e-07 -1.10667e-08
-5.29003e-08 -1.10667e-08 -2.28735e-05
0.00123014 9.45928e-06 1.34096e-07
9.45928e-06 0.000114945 2.66579e-07
1.34096e-07 2.66579e-07 5.51482e-05
0.00122091 5.98106e-06 4.44134e-07
5.98106e-06 8.67883e-05 9.57875e-08
4.44134e-07 9.57875e-08 2.67725e-05
0.00115559 1.00705e-05 1.85362e-07
1.00705e-05 5.12385e-05 1.08428e-07
1.85362e-07 1.08428e-07 -1.10281e-05
0.00122885 3.28048e-06 -1.2962e-07
3.28048e-06 7.17047e-05 -3.16383e-07
-1.2962e-07 -3.16383e-07 9.70736e-06
0.00115874 -4.90163e-06 -3.31369e-08
-4.90163e-06 4.30325e-05 -7.91876e-08
-3.31369e-08 -7.91876e-08 -1.37874e-05
0.00121448 -1.04249e-06 -5.02818e-07
-1.04249e-06 5.95176e-05 -2.01489e-08
-5.02818e-07 -2.01489e-08 8.07687e-08
0.000996574 6.91154e-06 1.9719e-06
6.91154e-06 -4.33744e-06 -1.04842e-06
1.9719e-06 -1.04842e-06 -3.07632e-05
0.00119449 -6.87482e-06 -4.59737e-07
-6.87482e-06 5.29364e-05 1.79046e-07
-4.59737e-07 1.79046e-07 -3.39755e-06
0.00107161 -9.50145e-07 1.05715e-06
-9.50145e-07 2.90802e-05 -5.42122e-07
1.05715e-06 -5.42122e-07 -1.49415e-05
0.00104667 -8.54098e-06 6.30775e-07
-8.54098e-06 4.90321e-06 -4.30584e-07
6.30775e-07 -4.30584e-07 -4.9101e-05
0.00120945 -1.04662e-05 -2.73321e-09
-1.04662e-05 6.77434e-05 4.63915e-07
-2.73321e-09 4.63915e-07 1.11067e-05
0.00123375 -9.24928e-06 -7.59886e-07
-9.24928e-06 6.98859e-05 7.71986e-07
-7.59886e-07 7.71986e-07 1.53655e-05
0.00102513 5.0094e-06 1.39158e-06
5.0094e-06 -1.14246e-06 -1.35666e-06
1.39158e-06 -1.35666e-06 -2.42021e-05
0.00107106 -1.47351e-07 1.15807e-06
-1.47351e-07 2.37952e-05 -5.76972e-07
1.15807e-06 -5.76972e-07 -1.68675e-05
0.000935066 5.23153e-07 1.20853e-06
5.23153e-07 -4.32589e-05 -1.12408e-06
1.20853e-06 -1.12408e-06 -8.41531e-05
0.0012446 -6.47237e-06 3.48235e-07
-6.47237e-06 0.000105046 1.51694e-07
3.48235e-07 1.51694e-07 5.64647e-05
0.00100998 -3.96789e-06 -2.03291e-06
-3.96789e-06 1.94435e-06 -4.93769e-07
-2.03291e-06 -4.93769e-07 -4.27626e-05
0.000931959 -9.99609e-06 -2.37633e-06
-9.99609e-06 -4.18848e-05 -2.32124e-06
-2.37633e-06 -2.32124e-06 -4.02325e-05
0.000908861 -1.17742e-05 -2.88076e-06
-1.17742e-05 -4.36661e-05 -2.04287e-06
-2.88076e-06 -2.04287e-06 -4.37368e-05
0.00100685 -6.57149e-06 -1.72257e-06
-6.57149e-06 -2.6138e-06 -1.24583e-06
-1.72257e-06 -1.24583e-06 -2.61263e-05
0.000980783 -4.34484e-06 -2.06616e-06
-4.34484e-06 -3.21509e-06 -9.26943e-07
-2.06616e-06 -9.26943e-07 -4.13624e-05
0.00113067 5.48873e-06 -8.185e-07
5.48873e-06 3.58811e-05 -2.40218e-07
-8.185e-07 -2.40218e-07 -1.7648e-05
0.000989203 -7.40161e-06 -2.02258e-06
-7.40161e-06 -2.46234e-06 -1.08789e-06
-2.02258e-06 -1.08789e-06 -2.82892e-05
0.00106923 -5.46902e-07 -1.17276e-06
-5.46902e-07 3.54705e-05 -7.37115e-07
-1.17276e-06 -7.37115e-07 -9.08897e-06
0.00108197 3.39465e-06 -9.83476e-07
3.39465e-06 3.19055e-05 -4.52814e-07
-9.83476e-07 -4.52814e-07 -1.60741e-05
0.00104496 8.68115e-06 -1.04299e-06
8.68115e-06 1.31832e-05 -2.09164e-07
-1.04299e-06 -2.09164e-07 -3.99169e-05
0.000956348 -9.05825e-06 6.29561e-08
-9.05825e-06 -3.4271e-05 -1.32045e-08
6.29561e-08 -1.32045e-08 -3.18408e-05
0.00101243 -6.95275e-06 4.29684e-08
-6.95275e-06 3.35363e-06 -1.96565e-08
4.29684e-08 -1.96565e-08 -2.10224e-05
0.0010213 -6.20273e-06 5.47215e-08
-6.20273e-06 1.61494e-06 -1.37403e-08
5.47215e-08 -1.37403e-08 -2.11212e-05
0.00106602 -5.69102e-06 5.45186e-08
-5.69102e-06 2.48779e-05 -1.81e-08
5.45186e-08 -1.81e-08 -1.45887e-05
0.00113241 1.24898e-06 1.37358e-07
1.24898e-06 3.10642e-05 1.55992e-08
1.37358e-07 1.55992e-08 -2.33945e-05
0.00109366 5.41968e-06 1.62674e-08
5.41968e-06 3.00139e-05 4.8964e-09
1.62674e-08 4.8964e-09 -2.09824e-05
0.00118413 8.33745e-06 3.84501e-09
8.33745e-06 4.29937e-05 1.39304e-07
3.84501e-09 1.39304e-07 -1.50033e-05
0.00107002 -1.82176e-06 4.1114e-09
-1.82176e-06 3.28774e-05 3.00976e-08
4.1114e-09 3.00976e-08 -9.28799e-06
0.00117379 1.02829e-05 -1.75024e-07
1.02829e-05 6.36944e-05 -3.49802e-07
-1.75024e-07 -3.49802e-07 9.87733e-06
0.00111378 7.67418e-06 7.99364e-08
7.67418e-06 5.26999e-05 -1.5743e-07
7.99364e-08 -1.5743e-07 -9.96654e-07
0.00109067 1.12631e-05 -5.83944e-07
1.12631e-05 3.02581e-05 -2.15322e-07
-5.83944e-07 -2.15322e-07 -2.53926e-05
0.00097545 -8.07216e-06 2.02798e-06
-8.07216e-06 -2.90508e-05 2.47682e-06
2.02798e-06 2.47682e-06 -2.58917e-05
0.00103209 -5.66512e-06 1.46902e-06
-5.66512e-06 3.89713e-06 1.3756e-06
1.46902e-06 1.3756e-06 -1.79911e-05
0.00108077 -3.45885e-06 1.2031e-06
-3.45885e-06 3.34758e-05 6.55237e-07
1.2031e-06 6.55237e-07 -6.86962e-06
0.0010749 -5.58238e-06 9.80874e-07
-5.58238e-06 2.74612e-05 7.50158e-07
9.80874e-07 7.50158e-07 -1.12415e-05
0.00109074 -1.45062e-07 6.95624e-07
-1.45062e-07 3.62753e-05 2.25479e-07
6.95624e-07 2.25479e-07 -1.326e-05
0.00117952 1.5564e-06 1.98574e-07
1.5564e-06 3.5346e-05 -3.82889e-07
1.98574e-07 -3.82889e-07 -2.18646e-05
0.00115416 1.05602e-05 1.93852e-07
1.05602e-05 4.28784e-05 4.75903e-07
1.93852e-07 4.75903e-07 -1.38026e-05
0.001236 7.5383e-06 -6.83142e-07
7.5383e-06 5.8032e-05 -1.24243e-07
-6.83142e-07 -1.24243e-07 -6.59041e-07
0.00112351 4.45174e-06 9.10463e-07
4.45174e-06 5.77316e-05 8.61144e-07
9.10463e-07 8.61144e-07 5.12321e-06
0.00113968 1.25953e-05 2.73039e-07
1.25953e-05 4.26511e-05 -5.69839e-09
2.73039e-07 -5.69839e-09 -1.42743e-05
0.000980528 1.09116e-05 6.49848e-07
1.09116e-05 -1.56385e-05 -3.41993e-07
6.49848e-07 -3.41993e-07 -7.63418e-05
0.00104115 -4.36572e-06 1.17428e-06
-4.36572e-06 2.8741e-06 1.51316e-06
1.17428e-06 1.51316e-06 -1.77059e-05
0.00108571 -2.47973e-06 6.077e-07
-2.47973e-06 2.45929e-05 9.27236e-07
6.077e-07 9.27236e-07 -1.15219e-05
0.0010483 -3.01368e-06 8.17172e-07
-3.01368e-06 1.94439e-06 1.60321e-06
8.17172e-07 1.60321e-06 -1.80495e-05
0.0010416 -3.74298e-06 4.21067e-08
-3.74298e-06 8.49613e-07 -4.03181e-09
4.21067e-08 -4.03181e-09 -1.93025e-05
0.00148618 -6.37079e-06 1.20362e-06
-6.37079e-06 0.000211185 1.63144e-06
1.20362e-06 1.63144e-06 0.000218112
0.00123337 -7.2477e-06 1.39154e-07
-7.2477e-06 9.2272e-05 1.67974e-08
1.39154e-07 1.67974e-08 9.7352e-05
0.00117986 -8.71362e-06 4.18103e-06
-8.71362e-06 6.51512e-05 5.42097e-06
4.18103e-06 5.42097e-06 8.40095e-05
0.00222861 -1.07875e-05 1.05286e-07
-1.07875e-05 0.000576397 -3.28484e-08
1.05286e-07 -3.28484e-08 0.000599623
0.00227332 -1.21574e-05 -4.12969e-06
-1.21574e-05 0.000602089 -3.23146e-06
-4.12969e-06 -3.23146e-06 0.00062446
0.00094701 8.7932e-06 2.16452e-06
8.7932e-06 -4.05397e-05 -2.41556e-06
2.16452e-06 -2.41556e-06 -3.87617e-05
0.0023315 1.34214e-05 4.49936e-06
1.34214e-05 0.000632721 -3.15837e-06
4.49936e-06 -3.15837e-06 0.000654203
0.000950732 9.69937e-06 -6.43662e-08
9.69937e-06 -3.51143e-05 -2.04756e-08
-6.43662e-08 -2.04756e-08 -3.40034e-05
0.00230215 1.48446e-05 -9.4815e-08
1.48446e-05 0.000623489 -4.81365e-08
-9.4815e-08 -4.81365e-08 0.000644305
0.000957191 1.0581e-05 -2.78787e-06
1.0581e-05 -2.83052e-05 2.13649e-06
-2.78787e-06 2.13649e-06 -2.80254e-05
0.00225328 1.63015e-05 -5.06317e-06
1.63015e-05 0.000605569 2.84608e-06
-5.06317e-06 2.84608e-06 0.000625669
0.0010057 -6.4364e-06 -1.88775e-06
-6.4364e-06 4.36925e-06 -3.0465e-07
-1.88775e-06 -3.0465e-07 -4.28036e-05
0.00100258 -8.9501e-06 -1.62407e-06
-8.9501e-06 1.98999e-05 -3.54065e-07
-1.62407e-06 -3.54065e-07 -3.3236e-05
0.00112302 -6.29098e-06 -3.83027e-07
-6.29098e-06 3.90724e-05 -1.09751e-07
-3.83027e-07 -1.09751e-07 -1.83777e-05
0.00110834 -9.36193e-06 -3.92011e-07
-9.36193e-06 5.05603e-05 2.17559e-07
-3.92011e-07 2.17559e-07 -9.00625e-06
0.000977423 -7.40304e-06 -1.4721e-06
-7.40304e-06 3.10674e-05 2.10212e-07
-1.4721e-06 2.10212e-07 -2.37525e-05
0.000679276 5.20589e-07 -4.37029e-06
5.20589e-07 -3.98348e-05 -2.731e-07
-4.37029e-06 -2.731e-07 -7.90324e-05
0.000965116 5.29937e-07 3.05768e-08
5.29937e-07 2.78177e-05 -2.26934e-08
3.05768e-08 -2.26934e-08 -2.74272e-05
0.00107856 -7.29391e-06 -6.34158e-08
-7.29391e-06 5.19975e-05 1.28174e-07
-6.34158e-08 1.28174e-07 -7.13606e-06
0.00111576 -8.23878e-06 6.43785e-09
-8.23878e-06 4.35679e-05 -1.33836e-07
6.43785e-09 -1.33836e-07 -1.57432e-05
0.00117866 -1.02639e-05 -1.58309e-08
-1.02639e-05 6.96069e-05 -3.00824e-08
-1.58309e-08 -3.00824e-08 8.76705e-06
0.0011299 -3.64331e-06 -6.816e-08
-3.64331e-06 3.37404e-05 2.82407e-08
-6.816e-08 2.82407e-08 -2.16791e-05
0.0011736 -7.69332e-06 -3.86943e-09
-7.69332e-06 4.90687e-05 1.97565e-08
-3.86943e-09 1.97565e-08 -1.02333e-05
0.00107655 2.02406e-06 3.31335e-07
2.02406e-06 5.44359e-05 4.00975e-07
3.31335e-07 4.00975e-07 -5.16701e-06
0.00112624 -8.14268e-06 2.48581e-08
-8.14268e-06 6.31785e-05 -3.76661e-07
2.48581e-08 -3.76661e-07 2.86467e-06
0.00115936 -8.94793e-06 -4.99156e-08
-8.94793e-06 5.06606e-05 -2.49823e-07
-4.99156e-08 -2.49823e-07 -1.02636e-05
0.00120587 -1.12776e-05 5.89932e-07
-1.12776e-05 7.52622e-05 -2.57745e-07
5.89932e-07 -2.57745e-07 1.35304e-05
0.00118585 -4.77505e-06 -2.28327e-07
-4.77505e-06 4.41694e-05 -9.60163e-08
-2.28327e-07 -9.60163e-08 -1.31573e-05
0.00128696 -9.49964e-06 -4.84951e-07
-9.49964e-06 9.1633e-05 2.95191e-07
-4.84951e-07 2.95191e-07 3.33053e-05
0.000847727 7.80416e-06 -1.45508e-06
7.80416e-06 -3.89332e-05 -2.13199e-07
-1.45508e-06 -2.13199e-07 -9.51224e-05
0.00120201 8.42714e-06 -2.21595e-06
8.42714e-06 0.00011184 4.07232e-07
-2.21595e-06 4.07232e-07 5.96904e-05
0.00115446 9.10759e-06 -8.32571e-07
9.10759e-06 6.51871e-05 -2.03802e-07
-8.32571e-07 -2.03802e-07 4.89529e-06
0.00131385 1.13358e-06 -4.05594e-07
1.13358e-06 0.00013128 3.86633e-08
-4.05594e-07 3.86633e-08 7.35727e-05
0.000945326 1.24174e-05 -3.17606e-06
1.24174e-05 -2.5112e-05 1.8411e-06
-3.17606e-06 1.8411e-06 -2.69617e-05
0.00101953 7.44497e-06 -2.0412e-06
7.44497e-06 1.07566e-05 9.79755e-07
-2.0412e-06 9.79755e-07 -1.78767e-05
0.00108392 -1.53568e-06 -8.05885e-07
-1.53568e-06 3.44305e-05 2.41036e-07
-8.05885e-07 2.41036e-07 -1.15948e-05
0.00127793 -7.90969e-07 -7.39001e-07
-7.90969e-07 0.000117295 2.08713e-07
-7.39001e-07 2.08713e-07 6.46227e-05
0.0011166 -1.0851e-06 9.61966e-08
-1.0851e-06 2.02613e-05 4.28296e-07
9.61966e-08 4.28296e-07 -3.95029e-05
0.00116428 -6.16237e-06 -2.24538e-08
-6.16237e-06 4.61372e-05 -8.14589e-08
-2.24538e-08 -8.14589e-08 -9.20837e-06
0.00106025 -8.17375e-06 -5.71762e-07
-8.17375e-06 4.09988e-06 1.63038e-07
-5.71762e-07 1.63038e-07 -5.06216e-05
0.00115149 -8.47291e-06 3.46733e-07
-8.47291e-06 3.40558e-05 -2.79156e-07
3.46733e-07 -2.79156e-07 -2.16564e-05
0.00102375 6.38729e-06 -1.94594e-06
6.38729e-06 4.74968e-06 1.09587e-06
-1.94594e-06 1.09587e-06 -2.04033e-05
0.000949159 7.17711e-07 -1.12822e-06
7.17711e-07 -3.6716e-05 6.08445e-07
-1.12822e-06 6.08445e-07 -7.77185e-05
0.0010293 5.52915e-06 -1.63444e-06
5.52915e-06 3.14183e-06 1.30201e-06
-1.63444e-06 1.30201e-06 -2.05338e-05
0.00113788 9.13564e-06 -2.68059e-07
9.13564e-06 7.17805e-05 -1.44967e-07
-2.68059e-07 -1.44967e-07 1.1747e-05
0.00122256 6.60734e-06 -1.5814e-07
6.60734e-06 8.7855e-05 6.51073e-08
-1.5814e-07 6.51073e-08 2.77005e-05
0.00114048 1.0091e-05 -1.9565e-07
1.0091e-05 4.25907e-05 -8.04955e-08
-1.9565e-07 -8.04955e-08 -1.99286e-05
0.00123968 3.70028e-06 -3.47271e-08
3.70028e-06 7.7302e-05 -1.45201e-07
-3.47271e-08 -1.45201e-07 1.5564e-05
0.00100977 6.92065e-06 -1.99803e-08
6.92065e-06 1.89851e-06 -1.01302e-08
-1.99803e-08 -1.01302e-08 -2.45766e-05
0.00107638 -1.10129e-06 4.97568e-09
-1.10129e-06 3.05272e-05 1.83022e-09
4.97568e-09 1.83022e-09 -1.34074e-05
0.00110912 -8.56517e-06 1.48077e-07
-8.56517e-06 3.56157e-05 -2.02781e-07
1.48077e-07 -2.02781e-07 -1.79356e-05
0.00121455 -4.92106e-06 5.06923e-08
-4.92106e-06 7.00786e-05 -6.32094e-08
5.06923e-08 -6.32094e-08 1.35014e-05
0.00118605 -1.33533e-06 2.96253e-08
-1.33533e-06 4.58482e-05 1.28602e-07
2.96253e-08 1.28602e-07 -1.34834e-05
0.00117473 -1.04403e-05 -2.53037e-08
-1.04403e-05 5.12475e-05 1.31123e-07
-2.53037e-08 1.31123e-07 -5.73108e-06
0.00119535 -6.59096e-06 1.49521e-08
-6.59096e-06 5.29596e-05 -8.52925e-09
1.49521e-08 -8.52925e-09 -3.3268e-06
0.00120542 -8.96877e-06 1.71916e-07
-8.96877e-06 5.58003e-05 2.12782e-07
1.71916e-07 2.12782e-07 1.72949e-06
0.00107664 -2.62526e-07 -1.54045e-09
-2.62526e-07 2.608e-05 -5.19172e-09
-1.54045e-09 -5.19172e-09 -1.45342e-05
0.0011438 -6.13719e-06 -2.68774e-07
-6.13719e-06 5.5896e-05 2.79352e-07
-2.68774e-07 2.79352e-07 6.69596e-06
0.00102864 5.01372e-06 -3.46123e-08
5.01372e-06 5.77478e-07 -4.49717e-09
-3.46123e-08 -4.49717e-09 -2.25105e-05
0.00093867 8.67967e-07 2.28893e-07
8.67967e-07 -4.17052e-05 -3.45861e-07
2.28893e-07 -3.45861e-07 -8.25545e-05
0.00116295 1.03841e-05 3.10318e-07
1.03841e-05 6.97058e-05 2.2947e-07
3.10318e-07 2.2947e-07 7.52407e-06
0.00131443 8.09421e-06 -8.2689e-08
8.09421e-06 0.000110687 7.12559e-08
-8.2689e-08 7.12559e-08 4.79773e-05
0.0010641 1.05488e-05 -1.19043e-07
1.05488e-05 1.16558e-06 7.59242e-08
-1.19043e-07 7.59242e-08 -6.29169e-05
0.00118231 4.86774e-06 -5.12236e-07
4.86774e-06 4.06401e-05 -3.90598e-07
-5.12236e-07 -3.90598e-07 -2.06365e-05
0.0012094 -4.57014e-06 -5.7401e-07
-4.57014e-06 5.89428e-05 4.79602e-08
-5.7401e-07 4.79602e-08 1.82462e-06
0.00120974 -4.6115e-07 -5.25969e-07
-4.6115e-07 5.2871e-05 2.86153e-08
-5.25969e-07 2.86153e-08 -5.46148e-06
0.00106911 -1.51894e-07 1.10549e-06
-1.51894e-07 2.55347e-05 -5.3832e-07
1.10549e-06 -5.3832e-07 -1.63907e-05
0.00118758 -6.07061e-06 -1.07125e-06
-6.07061e-06 4.46619e-05 2.44606e-07
-1.07125e-06 2.44606e-07 -9.61744e-06
0.0010193 -8.09538e-06 6.03714e-07
-8.09538e-06 -3.46966e-06 -4.72263e-07
6.03714e-07 -4.72263e-07 -5.58279e-05
0.00118847 -1.10523e-05 2.94985e-07
-1.10523e-05 6.71528e-05 2.88331e-08
2.94985e-07 2.88331e-08 9.20363e-06
0.00121692 -1.13413e-05 -1.20177e-07
-1.13413e-05 6.70886e-05 1.06874e-06
-1.20177e-07 1.06874e-06 9.87698e-06
0.0012141 -8.83829e-06 -6.09213e-07
-8.83829e-06 5.53504e-05 5.68658e-07
-6.09213e-07 5.68658e-07 2.92644e-06
0.00103027 4.67215e-06 1.18599e-06
4.67215e-06 -6.54075e-08 -1.42957e-06
1.18599e-06 -1.42957e-06 -2.28632e-05
0.000926727 2.53722e-07 1.09539e-06
2.53722e-07 -4.84964e-05 -1.22871e-06
1.09539e-06 -1.22871e-06 -8.90146e-05
0.00111107 -6.62286e-06 6.08662e-07
-6.62286e-06 3.94282e-05 -1.03378e-07
6.08662e-07 -1.03378e-07 -9.84041e-06
0.00116685 -5.33848e-06 5.82786e-07
-5.33848e-06 6.88162e-05 -1.27107e-07
5.82786e-07 -1.27107e-07 1.90825e-05
0.00121654 -9.75576e-06 2.12659e-07
-9.75576e-06 8.81993e-05 2.52135e-07
2.12659e-07 2.52135e-07 3.45737e-05
0.000943337 -9.06731e-06 -2.13656e-06
-9.06731e-06 -4.05739e-05 -2.42654e-06
-2.13656e-06 -2.42654e-06 -3.80664e-05
0.00115003 1.57105e-06 -5.29589e-07
1.57105e-06 3.9257e-05 6.7443e-08
-5.29589e-07 6.7443e-08 -1.53179e-05
0.00101286 -6.1945e-06 -1.53775e-06
-6.1945e-06 -2.42372e-06 -1.33209e-06
-1.53775e-06 -1.33209e-06 -2.51242e-05
0.0010009 -6.94279e-06 -1.90758e-06
-6.94279e-06 -2.13063e-06 -1.13911e-06
-1.90758e-06 -1.13911e-06 -2.6458e-05
0.00105761 -5.61262e-06 -1.0391e-06
-5.61262e-06 2.0872e-05 -7.18871e-07
-1.0391e-06 -7.18871e-07 -1.85827e-05
0.00109095 5.86499e-06 -9.0796e-07
5.86499e-06 2.90609e-05 -5.06776e-07
-9.0796e-07 -5.06776e-07 -2.19787e-05
0.00120086 8.42074e-06 -1.45978e-07
8.42074e-06 5.04523e-05 2.07415e-07
-1.45978e-07 2.07415e-07 -7.59473e-06
0.00105591 -2.80909e-06 -1.14013e-06
-2.80909e-06 2.69337e-05 -6.80005e-07
-1.14013e-06 -6.80005e-07 -1.52739e-05
0.00111983 8.11069e-06 -7.62168e-07
8.11069e-06 5.52715e-05 -4.37564e-07
-7.62168e-07 -4.37564e-07 1.42862e-06
0.00125648 1.06488e-05 -6.06209e-07
1.06488e-05 0.000103246 -6.18997e-07
-6.06209e-07 -6.18997e-07 4.99032e-05
0.00110109 1.1178e-05 -1.369e-06
1.1178e-05 3.61256e-05 2.52163e-07
-1.369e-06 2.52163e-07 -1.89567e-05
0.000965338 -8.07753e-06 6.29315e-08
-8.07753e-06 -3.39392e-05 -1.24315e-08
6.29315e-08 -1.24315e-08 -3.07233e-05
0.00102654 -5.65216e-06 3.36012e-08
-5.65216e-06 1.22302e-06 -6.84981e-09
3.36012e-08 -6.84981e-09 -2.06418e-05
0.00106674 -4.10011e-06 2.90328e-08
-4.10011e-06 2.71072e-05 1.4777e-08
2.90328e-08 1.4777e-08 -1.32261e-05
0.00106991 -5.47591e-06 3.4636e-08
-5.47591e-06 2.50263e-05 -7.50043e-09
3.4636e-08 -7.50043e-09 -1.36632e-05
0.00105874 -8.40363e-07 6.35542e-08
-8.40363e-07 2.10594e-05 -5.60429e-08
6.35542e-08 -5.60429e-08 -2.87947e-05
0.00119605 1.80736e-06 2.35192e-07
1.80736e-06 4.30465e-05 -9.03089e-09
2.35192e-07 -9.03089e-09 -1.43186e-05
0.00115772 1.07859e-05 -4.63572e-10
1.07859e-05 4.48746e-05 1.37573e-07
-4.63572e-10 1.37573e-07 -1.18555e-05
0.00121968 8.23361e-06 1.19838e-07
8.23361e-06 5.09756e-05 2.48744e-07
1.19838e-07 2.48744e-07 -7.97502e-06
0.00110243 5.08504e-06 2.37101e-07
5.08504e-06 4.81629e-05 2.9574e-07
2.37101e-07 2.9574e-07 -4.40714e-06
0.0011906 1.25892e-05 1.47182e-07
1.25892e-05 6.66414e-05 -2.64193e-07
1.47182e-07 -2.64193e-07 9.96694e-06
0.00105322 1.12317e-05 -3.02541e-07
1.12317e-05 1.7545e-05 -2.57974e-07
-3.02541e-07 -2.57974e-07 -4.2762e-05
0.00103597 -4.98924e-06 1.34047e-06
-4.98924e-06 2.86206e-06 1.44003e-06
1.34047e-06 1.44003e-06 -1.82777e-05
0.00107536 -4.64891e-06 9.03254e-07
-4.64891e-06 2.50139e-05 8.09741e-07
9.03254e-07 8.09741e-07 -1.28058e-05
0.0010603 2.33813e-06 5.82176e-07
2.33813e-06 2.33417e-05 2.6751e-07
5.82176e-07 2.6751e-07 -2.77569e-05
0.00110541 -2.6077e-06 5.45419e-07
-2.6077e-06 4.20739e-05 3.40555e-07
5.45419e-07 3.40555e-07 -7.00565e-06
0.00117902 4.89721e-06 2.3072e-07
4.89721e-06 7.96819e-05 -2.44677e-07
2.3072e-07 -2.44677e-07 2.48459e-05
0.00122189 -3.72534e-07 -6.83518e-07
-3.72534e-07 4.14049e-05 -1.01564e-06
-6.83518e-07 -1.01564e-06 -1.43723e-05
0.00118378 1.28907e-05 -1.20336e-07
1.28907e-05 5.01071e-05 2.86624e-07
-1.20336e-07 2.86624e-07 -8.62064e-06
0.00111933 1.05828e-05 -1.03626e-06
1.05828e-05 2.24716e-06 -7.00622e-07
-1.03626e-06 -7.00622e-07 -5.16262e-05
0.0011041 1.04178e-05 3.07558e-07
1.04178e-05 4.96598e-05 8.1499e-07
3.07558e-07 8.1499e-07 -1.05577e-05
0.00119964 1.35191e-05 8.12766e-07
1.35191e-05 7.37967e-05 -2.38819e-07
8.12766e-07 -2.38819e-07 1.09775e-05
0.00103695 -4.36332e-06 5.12414e-08
-4.36332e-06 8.91854e-07 -8.68698e-09
5.12414e-08 -8.68698e-09 -1.96709e-05
0.000936192 -2.78139e-06 8.55092e-07
-2.78139e-06 -4.6569e-05 1.31101e-06
8.55092e-07 1.31101e-06 -8.41433e-05
0.00101271 -2.44152e-06 1.97543e-08
-2.44152e-06 -1.07102e-05 8.88559e-09
1.97543e-08 8.88559e-09 -4.7331e-05
0.00125746 1.34397e-06 2.66815e-07
1.34397e-06 0.000110441 1.33086e-07
2.66815e-07 1.33086e-07 6.45544e-05
0.00108619 -1.86144e-06 5.01815e-07
-1.86144e-06 2.37679e-05 9.35331e-07
5.01815e-07 9.35331e-07 -1.22586e-05
0.00104987 -2.2768e-06 6.41497e-07
-2.2768e-06 1.1168e-06 1.63046e-06
6.41497e-07 1.63046e-06 -1.89879e-05
0.0010457 -3.01687e-06 4.16062e-08
-3.01687e-06 7.43923e-07 -3.41078e-09
4.16062e-08 -3.41078e-09 -1.92465e-05
0.00149113 -5.20218e-06 9.94854e-07
-5.20218e-06 0.000210645 1.67781e-06
9.94854e-07 1.67781e-06 0.000217914
0.00103794 -3.74498e-06 -9.02248e-07
-3.74498e-06 -8.64668e-07 -1.57045e-06
-9.02248e-07 -1.57045e-06 -2.10046e-05
0.00151036 -6.26427e-06 -6.38918e-07
-6.26427e-06 0.000222969 -1.06093e-06
-6.38918e-07 -1.06093e-06 0.000229763
0.00121108 -7.35876e-06 3.64608e-06
-7.35876e-06 7.56879e-05 5.51337e-06
3.64608e-06 5.51337e-06 9.51202e-05
0.00149528 -7.2928e-06 -2.24914e-06
-7.2928e-06 0.000219054 -2.6057e-06
-2.24914e-06 -2.6057e-06 0.00022538
0.00168006 -9.04935e-06 2.11613e-06
-9.04935e-06 0.000306679 2.07977e-06
2.11613e-06 2.07977e-06 0.000328216
0.0022583 -1.07626e-05 -3.77863e-06
-1.07626e-05 0.000590264 -3.31815e-06
-3.77863e-06 -3.31815e-06 0.000613433
0.000956346 7.9231e-06 1.85729e-06
7.9231e-06 -3.94722e-05 -2.53466e-06
1.85729e-06 -2.53466e-06 -3.71248e-05
0.000959249 8.78204e-06 -5.77519e-08
8.78204e-06 -3.46923e-05 -1.85015e-08
-5.77519e-08 -1.85015e-08 -3.29667e-05
0.00231588 1.20189e-05 4.19538e-06
1.20189e-05 0.000620736 -3.27001e-06
4.19538e-06 -3.27001e-06 0.000642962
0.00229058 1.34419e-05 -9.63502e-08
1.34419e-05 0.000613348 -4.21857e-08
-9.63502e-08 -4.21857e-08 0.000634948
0.00096496 9.68508e-06 -2.54017e-06
9.68508e-06 -2.82454e-05 2.27128e-06
-2.54017e-06 2.27128e-06 -2.72147e-05
0.00225226 1.48727e-05 -4.86171e-06
1.48727e-05 0.000599839 2.9937e-06
-4.86171e-06 2.9937e-06 0.000620801
0.00113717 -3.50702e-06 -5.57808e-07
-3.50702e-06 3.69742e-05 8.4955e-08
-5.57808e-07 8.4955e-08 -1.84944e-05
0.00112361 -8.11627e-06 -3.4708e-07
-8.11627e-06 4.68667e-05 -1.46979e-07
-3.4708e-07 -1.46979e-07 -1.24621e-05
0.00117775 -7.99132e-06 3.27837e-07
-7.99132e-06 5.11203e-05 -5.30869e-08
3.27837e-07 -5.30869e-08 -8.15082e-06
0.00116743 -1.02867e-05 1.40089e-08
-1.02867e-05 6.51598e-05 3.47354e-07
1.40089e-08 3.47354e-07 4.44685e-06
0.00108672 -7.25794e-06 -3.28026e-07
-7.25794e-06 5.55003e-05 3.72865e-07
-3.28026e-07 3.72865e-07 -3.65585e-06
0.000960411 8.10063e-07 -1.31757e-06
8.10063e-07 2.57814e-05 -2.04966e-07
-1.31757e-06 -2.04966e-07 -2.94462e-05
0.00107268 1.86736e-06 4.45677e-08
1.86736e-06 5.28442e-05 1.48089e-07
4.45677e-08 1.48089e-07 -6.73428e-06
0.00109708 -8.44546e-06 4.99318e-08
-8.44546e-06 5.10288e-05 -1.23372e-07
4.99318e-08 -1.23372e-07 -9.05218e-06
0.00116739 -9.12491e-06 4.75258e-08
-9.12491e-06 5.40721e-05 -1.71944e-07
4.75258e-08 -1.71944e-07 -6.84733e-06
0.00122023 -1.15282e-05 -4.67601e-08
-1.15282e-05 8.12317e-05 -1.2474e-07
-4.67601e-08 -1.2474e-07 1.89907e-05
0.00119025 -4.72415e-06 -7.86904e-08
-4.72415e-06 4.63531e-05 1.04338e-07
-7.86904e-08 1.04338e-07 -1.10157e-05
0.00127114 -9.47614e-06 1.23182e-07
-9.47614e-06 8.42714e-05 1.32453e-09
1.23182e-07 1.32453e-09 2.58201e-05
0.00113488 1.84707e-06 4.33931e-08
1.84707e-06 7.33708e-05 5.63167e-07
4.33931e-08 5.63167e-07 1.27474e-05
0.0010862 -7.43495e-06 1.4809e-07
-7.43495e-06 4.68859e-05 -6.0084e-07
1.4809e-07 -6.0084e-07 -1.44288e-05
0.00116494 -1.0414e-05 4.4174e-07
-1.0414e-05 4.30365e-05 1.35835e-07
4.4174e-07 1.35835e-07 -1.86442e-05
0.00131077 -1.29088e-05 6.76614e-09
-1.29088e-05 0.000125931 -9.10133e-08
6.76614e-09 -9.10133e-08 6.08441e-05
0.00118631 -5.99485e-06 -8.27131e-07
-5.99485e-06 3.06573e-05 1.23642e-07
-8.27131e-07 1.23642e-07 -2.43875e-05
0.00136945 -1.10409e-05 -7.57881e-07
-1.10409e-05 0.000126229 1.97381e-07
-7.57881e-07 1.97381e-07 6.84015e-05
0.0010461 8.81652e-06 -6.74674e-07
8.81652e-06 2.88728e-05 -5.38981e-07
-6.74674e-07 -5.38981e-07 -3.14028e-05
0.00122438 7.25079e-06 -7.40193e-07
7.25079e-06 8.90114e-05 1.40309e-07
-7.40193e-07 1.40309e-07 2.87167e-05
0.00112602 1.01179e-05 -3.14057e-07
1.01179e-05 3.42558e-05 -1.33345e-07
-3.14057e-07 -1.33345e-07 -2.85176e-05
0.00125238 4.0023e-06 4.49953e-08
4.0023e-06 8.37386e-05 6.79997e-08
4.49953e-08 6.79997e-08 2.22637e-05
0.00102272 6.92598e-06 -2.0076e-06
6.92598e-06 8.02377e-06 1.02426e-06
-2.0076e-06 1.02426e-06 -1.85011e-05
0.0010811 -1.45294e-06 -1.05718e-06
-1.45294e-06 3.19589e-05 5.35035e-07
-1.05718e-06 5.35035e-07 -1.18911e-05
0.00116999 -8.57387e-06 -3.00236e-07
-8.57387e-06 6.56373e-05 3.84404e-08
-3.00236e-07 3.84404e-08 1.25351e-05
0.00127031 -4.90114e-06 1.07714e-07
-4.90114e-06 9.70952e-05 -8.01566e-08
1.07714e-07 -8.01566e-08 4.07616e-05
0.00115923 -1.62372e-06 5.6854e-07
-1.62372e-06 3.29243e-05 2.96872e-07
5.6854e-07 2.96872e-07 -2.63022e-05
0.00119648 -6.30925e-06 4.07876e-07
-6.30925e-06 5.31046e-05 -1.75574e-07
4.07876e-07 -1.75574e-07 -3.13359e-06
0.00113904 -1.04149e-05 -1.66394e-07
-1.04149e-05 3.43121e-05 -2.14378e-07
-1.66394e-07 -2.14378e-07 -2.30089e-05
0.00117779 -8.7108e-06 8.91841e-07
-8.7108e-06 4.20667e-05 -6.80327e-07
8.91841e-07 -6.80327e-07 -1.1559e-05
0.00108141 -3.6899e-07 -1.13293e-06
-3.6899e-07 2.79876e-05 5.41325e-07
-1.13293e-06 5.41325e-07 -1.25769e-05
0.00104304 -5.79787e-06 -9.13912e-07
-5.79787e-06 6.78267e-06 4.4979e-07
-9.13912e-07 4.4979e-07 -4.3038e-05
0.00103236 5.0185e-06 -1.469e-06
5.0185e-06 2.40357e-06 1.36316e-06
-1.469e-06 1.36316e-06 -2.07138e-05
0.000942121 1.07974e-06 -7.50157e-07
1.07974e-06 -4.02062e-05 4.20154e-07
-7.50157e-07 4.20154e-07 -8.10138e-05
0.00115491 1.03047e-05 -2.38369e-09
1.03047e-05 6.65227e-05 -2.90939e-07
-2.38369e-09 -2.90939e-07 4.38723e-06
0.00129026 8.41695e-06 -7.78212e-08
8.41695e-06 9.99938e-05 6.40726e-08
-7.78212e-08 6.40726e-08 3.72664e-05
0.00113678 1.09343e-05 -2.46564e-07
1.09343e-05 3.36621e-05 -1.46412e-07
-2.46564e-07 -1.46412e-07 -3.07698e-05
0.00121503 4.59395e-06 -5.0748e-08
4.59395e-06 5.65912e-05 -6.1793e-08
-5.0748e-08 -6.1793e-08 -4.663e-06
0.00107613 -6.28879e-07 1.16423e-09
-6.28879e-07 2.82112e-05 3.21838e-09
1.16423e-09 3.21838e-09 -1.36522e-05
0.00107111 -7.58997e-06 1.68805e-07
-7.58997e-06 2.15684e-05 -2.00054e-07
1.68805e-07 -2.00054e-07 -3.03769e-05
0.00118725 -1.1057e-05 -3.60854e-08
-1.1057e-05 6.72134e-05 3.86107e-08
-3.60854e-08 3.86107e-08 9.09826e-06
0.00123461 -4.43612e-06 -5.36279e-09
-4.43612e-06 7.1091e-05 -3.02092e-08
-5.36279e-09 -3.02092e-08 1.39261e-05
0.00120823 -8.5386e-07 8.40611e-08
-8.5386e-07 5.22912e-05 1.79638e-07
8.40611e-08 1.79638e-07 -5.99384e-06
0.00122388 -1.13845e-05 -1.47852e-08
-1.13845e-05 7.03886e-05 2.10631e-07
-1.47852e-08 2.10631e-07 1.29857e-05
0.00119748 -5.8733e-06 -2.73693e-08
-5.8733e-06 4.91986e-05 6.9717e-08
-2.73693e-08 6.9717e-08 -5.08396e-06
0.00119765 -8.98378e-06 2.62157e-07
-8.98378e-06 4.71682e-05 -4.17363e-07
2.62157e-07 -4.17363e-07 -4.48974e-06
0.0011186 -6.45743e-06 3.99244e-08
-6.45743e-06 4.27697e-05 3.92838e-09
3.99244e-08 3.92838e-09 -6.48278e-06
0.00116475 -9.57681e-06 -1.50017e-07
-9.57681e-06 6.25428e-05 1.66191e-07
-1.50017e-07 1.66191e-07 8.59209e-06
0.00116282 -5.68206e-06 -5.09537e-08
-5.68206e-06 6.67757e-05 1.56649e-07
-5.09537e-08 1.56649e-07 1.69964e-05
0.000913942 4.56447e-06 -7.33592e-08
4.56447e-06 -5.63059e-05 -2.82118e-08
-7.33592e-08 -2.82118e-08 -7.97755e-05
0.00093261 7.30427e-07 1.81331e-07
7.30427e-07 -4.57057e-05 -3.76046e-07
1.81331e-07 -3.76046e-07 -8.6191e-05
0.00113419 1.16664e-05 -6.86988e-08
1.16664e-05 5.23921e-05 4.0458e-07
-6.86988e-08 4.0458e-07 -1.11144e-05
0.00123197 1.05386e-05 -2.81832e-07
1.05386e-05 6.48814e-05 1.50666e-07
-2.81832e-07 1.50666e-07 1.01261e-06
0.00122339 5.14546e-06 -5.69804e-07
5.14546e-06 5.61486e-05 -4.06053e-07
-5.69804e-07 -4.06053e-07 -3.7466e-06
0.00121828 -1.65687e-06 -8.95988e-07
-1.65687e-06 5.57671e-05 -7.47868e-08
-8.95988e-07 -7.47868e-08 1.99056e-07
0.00111059 -7.43656e-06 5.02495e-07
-7.43656e-06 4.02736e-05 -1.72211e-07
5.02495e-07 -1.72211e-07 -9.84594e-06
0.00121229 -6.36071e-06 -9.53657e-07
-6.36071e-06 4.80753e-05 2.28652e-07
-9.53657e-07 2.28652e-07 -1.81705e-06
0.00104423 -1.01796e-05 3.69606e-07
-1.01796e-05 6.58073e-06 -4.1392e-07
3.69606e-07 -4.1392e-07 -5.07121e-05
0.00121069 -1.22843e-05 2.89428e-07
-1.22843e-05 7.36109e-05 3.48712e-07
2.89428e-07 3.48712e-07 1.24325e-05
0.00120946 -1.14082e-05 -2.00267e-07
-1.14082e-05 5.60789e-05 1.02348e-06
-2.00267e-07 1.02348e-06 -4.73356e-07
0.000800194 4.17796e-06 1.19463e-06
4.17796e-06 -0.000112858 -2.04962e-06
1.19463e-06 -2.04962e-06 -0.000136636
0.00116138 1.04238e-06 7.1519e-07
1.04238e-06 6.45933e-05 -6.94818e-07
7.1519e-07 -6.94818e-07 2.58709e-05
0.00115203 -5.37023e-06 4.97318e-07
-5.37023e-06 6.21245e-05 -2.82348e-07
4.97318e-07 -2.82348e-07 1.20184e-05
0.00113865 -9.59062e-06 3.15858e-07
-9.59062e-06 4.97221e-05 2.15614e-08
3.15858e-07 2.15614e-08 -4.23489e-06
0.00118434 -9.88626e-06 2.75361e-07
-9.88626e-06 7.38511e-05 2.14978e-07
2.75361e-07 2.14978e-07 1.78512e-05
0.00116017 -1.02163e-05 1.46709e-09
-1.02163e-05 5.81417e-05 3.18486e-07
1.46709e-09 3.18486e-07 1.26671e-06
0.00095511 -8.08343e-06 -1.89504e-06
-8.08343e-06 -3.88825e-05 -2.52052e-06
-1.89504e-06 -2.52052e-06 -3.56093e-05
0.00102116 -5.63805e-06 -1.4087e-06
-5.63805e-06 -1.3699e-06 -1.39803e-06
-1.4087e-06 -1.39803e-06 -2.32116e-05
0.00121209 2.13116e-06 1.95107e-07
2.13116e-06 5.05294e-05 3.28645e-07
1.95107e-07 3.28645e-07 -6.99187e-06
0.00106509 -5.36779e-06 -9.43471e-07
-5.36779e-06 2.26737e-05 -7.90904e-07
-9.43471e-07 -7.90904e-07 -1.60032e-05
0.00105221 -4.96094e-06 -1.13932e-06
-4.96094e-06 2.05111e-05 -6.45115e-07
-1.13932e-06 -6.45115e-07 -1.98139e-05
0.00102712 -1.69403e-06 -5.13629e-07
-1.69403e-06 6.02178e-06 -2.83164e-07
-5.13629e-07 -2.83164e-07 -4.4149e-05
0.00116101 1.09487e-05 -2.14897e-07
1.09487e-05 4.67498e-05 -2.02422e-07
-2.14897e-07 -2.02422e-07 -1.00287e-05
0.00120232 8.88384e-06 6.72051e-07
8.88384e-06 4.34301e-05 5.53234e-07
6.72051e-07 5.53234e-07 -1.57784e-05
0.00107933 5.78518e-06 -3.79366e-07
5.78518e-06 3.75876e-05 -1.94982e-07
-3.79366e-07 -1.94982e-07 -1.49355e-05
0.00112383 1.15338e-05 -7.10136e-07
1.15338e-05 4.97546e-05 -3.81308e-08
-7.10136e-07 -3.81308e-08 -1.01544e-05
0.00124116 1.2582e-05 -5.11183e-07
1.2582e-05 9.04857e-05 -3.8552e-07
-5.11183e-07 -3.8552e-07 3.40602e-05
0.00103182 -4.97752e-06 4.36142e-08
-4.97752e-06 8.77564e-07 -1.1953e-08
4.36142e-08 -1.1953e-08 -2.02466e-05
0.00107491 -4.5259e-06 3.88446e-09
-4.5259e-06 2.46844e-05 -1.16908e-09
3.88446e-09 -1.16908e-09 -1.31287e-05
0.00107855 2.71613e-06 -3.1806e-08
2.71613e-06 3.26842e-05 -6.77868e-08
-3.1806e-08 -6.77868e-08 -1.80775e-05
0.00110474 -1.61719e-06 -2.10217e-08
-1.61719e-06 4.20146e-05 -4.54986e-09
-2.10217e-08 -4.54986e-09 -7.14e-06
0.00112641 4.99133e-06 -1.22712e-07
4.99133e-06 5.44785e-05 -2.08102e-07
-1.22712e-07 -2.08102e-07 -8.61718e-07
0.00122997 2.00421e-07 -2.37038e-07
2.00421e-07 4.67409e-05 -3.49255e-07
-2.37038e-07 -3.49255e-07 -9.27749e-06
0.00117674 1.2869e-05 3.03304e-07
1.2869e-05 4.61781e-05 1.43141e-07
3.03304e-07 1.43141e-07 -1.2695e-05
0.00114389 1.01811e-05 3.20733e-08
1.01811e-05 1.28141e-05 2.4302e-07
3.20733e-08 2.4302e-07 -4.05252e-05
0.00104943 1.02389e-05 1.88587e-07
1.02389e-05 2.4172e-05 4.75061e-07
1.88587e-07 4.75061e-07 -3.63585e-05
0.00119184 1.34913e-05 4.10454e-08
1.34913e-05 6.99574e-05 -1.84989e-07
4.10454e-08 -1.84989e-07 6.62655e-06
0.00107784 -3.49993e-06 8.74386e-07
-3.49993e-06 2.36374e-05 8.61457e-07
8.74386e-07 8.61457e-07 -1.34921e-05
0.00101145 4.78421e-08 7.22232e-07
4.78421e-08 -6.3786e-06 6.77227e-07
7.22232e-07 6.77227e-07 -5.56073e-05
0.00111625 9.66601e-06 1.09332e-07
9.66601e-06 5.25464e-05 -5.96313e-08
1.09332e-07 -5.96313e-08 -5.28939e-06
0.00104415 4.37883e-06 2.60386e-07
4.37883e-06 1.33916e-05 5.05793e-08
2.60386e-07 5.05793e-08 -4.24641e-05
0.00115217 7.70092e-06 -4.09046e-08
7.70092e-06 6.35237e-05 -3.86214e-07
-4.09046e-08 -3.86214e-07 5.14633e-06
0.0012869 1.87566e-06 -1.31044e-06
1.87566e-06 5.81742e-05 -5.41878e-07
-1.31044e-06 -5.41878e-07 1.16859e-05
0.00128131 1.50327e-05 -1.20554e-07
1.50327e-05 9.62149e-05 -8.17554e-07
-1.20554e-07 -8.17554e-07 3.58262e-05
0.00100358 1.12736e-05 -4.11478e-07
1.12736e-05 -5.99182e-05 -4.56596e-07
-4.11478e-07 -4.56596e-07 -0.000111666
0.00128811 1.20899e-05 4.49244e-07
1.20899e-05 0.000130939 8.66149e-07
4.49244e-07 8.66149e-07 6.66805e-05
0.00103019 1.32416e-05 -1.39978e-07
1.32416e-05 -5.69941e-06 -2.11161e-07
-1.39978e-07 -2.11161e-07 -7.30594e-05
0.00103271 -4.36133e-06 -1.07246e-06
-4.36133e-06 -1.10885e-06 -1.52828e-06
-1.07246e-06 -1.52828e-06 -2.16545e-05
0.00100718 -2.8383e-06 1.77322e-07
-2.8383e-06 -1.20079e-05 3.79043e-07
1.77322e-07 3.79043e-07 -4.91257e-05
0.00101921 7.18057e-07 5.17083e-07
7.18057e-07 -4.82406e-06 8.11095e-07
5.17083e-07 8.11095e-07 -5.28918e-05
0.000940155 -2.39191e-06 -5.40288e-07
-2.39191e-06 -4.5793e-05 -9.26048e-07
-5.40288e-07 -9.26048e-07 -8.29216e-05
0.00108609 -1.84598e-06 2.30439e-08
-1.84598e-06 2.3762e-05 2.31622e-09
2.30439e-08 2.31622e-09 -1.22574e-05
0.00113981 1.0385e-07 -1.09979e-07
1.0385e-07 5.32481e-05 -3.78489e-07
-1.09979e-07 -3.78489e-07 6.58402e-06
0.00121389 4.04676e-06 1.36801e-07
4.04676e-06 9.267e-05 -9.27435e-09
1.36801e-07 -9.27435e-09 3.91991e-05
0.00101881 -6.09814e-07 2.88625e-07
-6.09814e-07 -5.59568e-06 7.9774e-07
2.88625e-07 7.9774e-07 -5.28192e-05
0.00108626 -1.1551e-06 4.03799e-07
-1.1551e-06 2.30781e-05 9.24739e-07
4.03799e-07 9.24739e-07 -1.31604e-05
0.0010501 -1.6469e-06 4.45008e-07
-1.6469e-06 1.21644e-07 1.6482e-06
4.45008e-07 1.6482e-06 -2.02528e-05
0.00104894 -2.28127e-06 4.55488e-08
-2.28127e-06 7.20183e-07 -1.5139e-09
4.55488e-08 -1.5139e-09 -1.93935e-05
0.00149776 -4.00552e-06 7.74989e-07
-4.00552e-06 0.000211361 1.71491e-06
7.74989e-07 1.71491e-06 0.000218774
0.00104307 -3.02038e-06 -7.34489e-07
-3.02038e-06 -4.66609e-07 -1.60604e-06
-7.34489e-07 -1.60604e-06 -2.04536e-05
0.00151481 -5.10008e-06 -5.3714e-07
-5.10008e-06 0.000222168 -1.0765e-06
-5.3714e-07 -1.0765e-06 0.000229286
0.00121727 -6.00902e-06 3.04529e-06
-6.00902e-06 7.5012e-05 5.61633e-06
3.04529e-06 5.61633e-06 9.48935e-05
0.00153423 -6.17736e-06 -2.35372e-06
-6.17736e-06 0.000234619 -3.75427e-06
-2.35372e-06 -3.75427e-06 0.000241281
0.00116552 -7.43929e-06 1.21631e-06
-7.43929e-06 5.33098e-05 2.11335e-06
1.21631e-06 2.11335e-06 7.30139e-05
0.00218462 -9.64487e-06 -1.49484e-06
-9.64487e-06 0.000550288 -1.36503e-06
-1.49484e-06 -1.36503e-06 0.00057448
0.000965247 7.03332e-06 1.57281e-06
7.03332e-06 -3.86971e-05 -2.60006e-06
1.57281e-06 -2.60006e-06 -3.55636e-05
0.000968093 7.90777e-06 -9.18956e-08
7.90777e-06 -3.3902e-05 -1.85968e-08
-9.18956e-08 -1.85968e-08 -3.15984e-05
0.00229564 1.0635e-05 3.77819e-06
1.0635e-05 0.000606602 -3.34578e-06
3.77819e-06 -3.34578e-06 0.000629609
0.000971256 8.77105e-06 -2.29893e-06
8.77105e-06 -2.89516e-05 2.37612e-06
-2.29893e-06 2.37612e-06 -2.7278e-05
0.00228149 1.20438e-05 -9.889e-08
1.20438e-05 0.000604554 -3.65606e-08
-9.889e-08 -3.65606e-08 0.000626875
0.0022496 1.34643e-05 -4.61367e-06
1.34643e-05 0.000593942 3.12255e-06
-4.61367e-06 3.12255e-06 0.000615663
0.0011948 -4.62799e-06 1.23856e-07
-4.62799e-06 4.86054e-05 3.11487e-07
1.23856e-07 3.11487e-07 -8.80425e-06
0.00117543 -9.15741e-06 1.56716e-07
-9.15741e-06 5.748e-05 -9.5736e-08
1.56716e-07 -9.5736e-08 -3.43194e-06
0.00125707 -9.41549e-06 8.82111e-07
-9.41549e-06 7.77161e-05 -3.3166e-07
8.82111e-07 -3.3166e-07 1.91408e-05
0.00123641 -1.17859e-05 -3.29634e-07
-1.17859e-05 8.81475e-05 5.0178e-07
-3.29634e-07 5.0178e-07 2.53861e-05
0.00106835 -8.74698e-06 1.02457e-07
-8.74698e-06 3.90399e-05 3.35781e-07
1.02457e-07 3.35781e-07 -2.08027e-05
0.00106957 1.7401e-06 -2.05144e-07
1.7401e-06 5.16021e-05 -1.19034e-07
-2.05144e-07 -1.19034e-07 -7.95127e-06
0.00110908 1.77947e-06 4.34348e-08
1.77947e-06 6.21952e-05 2.91998e-07
4.34348e-08 2.91998e-07 1.65766e-06
0.00110619 -7.77041e-06 1.12108e-07
-7.77041e-06 5.42924e-05 1.71667e-07
1.12108e-07 1.71667e-07 -6.82157e-06
0.00115301 -1.03938e-05 1.51974e-07
-1.03938e-05 3.74707e-05 -7.26757e-08
1.51974e-07 -7.26757e-08 -2.40418e-05
0.00125458 -1.28362e-05 -5.21739e-07
-1.28362e-05 9.97649e-05 1.32982e-07
-5.21739e-07 1.32982e-07 3.33231e-05
0.0011964 -6.01184e-06 -1.94639e-07
-6.01184e-06 3.62336e-05 2.77934e-07
-1.94639e-07 2.77934e-07 -1.876e-05
0.00130801 -1.07081e-05 4.74678e-07
-1.07081e-05 9.61606e-05 -3.89656e-07
4.74678e-07 -3.89656e-07 3.80497e-05
0.00107568 3.03352e-06 -3.06382e-07
3.03352e-06 5.2168e-05 3.78855e-07
-3.06382e-07 3.78855e-07 -7.46423e-06
0.00107419 -9.96937e-06 -9.27381e-09
-9.96937e-06 4.06282e-05 -7.67663e-07
-9.27381e-09 -7.67663e-07 -2.31372e-05
0.00118893 -1.27194e-05 -6.52552e-07
-1.27194e-05 5.98556e-05 5.51199e-07
-6.52552e-07 5.51199e-07 -5.40168e-06
0.00137455 -7.08774e-06 -1.27432e-06
-7.08774e-06 0.000112702 2.85715e-07
-1.27432e-06 2.85715e-07 6.25845e-05
0.00114713 1.02237e-05 -6.80818e-08
1.02237e-05 6.34616e-05 -8.26164e-07
-6.80818e-08 -8.26164e-07 1.37228e-06
0.00126341 8.74988e-06 -2.4119e-07
8.74988e-06 8.8072e-05 -4.98894e-09
-2.4119e-07 -4.98894e-09 2.53255e-05
0.00120919 1.1315e-05 -4.30803e-07
1.1315e-05 6.60229e-05 -4.11366e-08
-4.30803e-07 -4.11366e-08 1.24297e-06
0.00124406 4.33613e-06 4.59186e-07
4.33613e-06 7.08552e-05 1.28964e-07
4.59186e-07 1.28964e-07 9.62254e-06
0.00108316 -8.59876e-07 -1.08998e-06
-8.59876e-07 3.08993e-05 5.24608e-07
-1.08998e-06 5.24608e-07 -1.09007e-05
0.00112482 -7.07262e-06 -2.74321e-07
-7.07262e-06 4.7461e-05 4.64088e-08
-2.74321e-07 4.64088e-08 -4.06974e-06
0.00118596 -1.10627e-05 -2.69178e-07
-1.10627e-05 6.7265e-05 1.933e-07
-2.69178e-07 1.933e-07 8.98133e-06
0.00125922 -4.30144e-06 4.30324e-07
-4.30144e-06 8.29417e-05 -9.59158e-08
4.30324e-07 -9.59158e-08 2.57319e-05
0.00120454 -1.30651e-06 6.73583e-07
-1.30651e-06 5.06696e-05 4.09284e-07
6.73583e-07 4.09284e-07 -7.56314e-06
0.0012094 -5.64415e-06 9.22572e-07
-5.64415e-06 5.46596e-05 -9.78769e-08
9.22572e-07 -9.78769e-08 3.74769e-07
0.00122977 -1.14249e-05 6.99627e-08
-1.14249e-05 7.31225e-05 -6.464e-07
6.99627e-08 -6.464e-07 1.55376e-05
0.00117725 -9.10813e-06 7.14841e-07
-9.10813e-06 3.70974e-05 -1.32162e-06
7.14841e-07 -1.32162e-06 -1.37838e-05
0.00112629 -6.41761e-06 -5.74229e-07
-6.41761e-06 4.61752e-05 1.6113e-07
-5.74229e-07 1.6113e-07 -3.06024e-06
0.00111264 -9.39868e-06 -5.74546e-07
-9.39868e-06 3.67281e-05 8.99979e-08
-5.74546e-07 8.99979e-08 -1.7547e-05
0.00115922 -5.89382e-06 -6.94098e-07
-5.89382e-06 6.49232e-05 4.39161e-07
-6.94098e-07 4.39161e-07 1.5101e-05
0.000797626 4.44488e-06 -1.29607e-06
4.44488e-06 -0.000112551 1.41021e-06
-1.29607e-06 1.41021e-06 -0.000136691
0.0009382 1.39411e-06 -6.41491e-07
1.39411e-06 -4.30594e-05 4.71026e-07
-6.41491e-07 4.71026e-07 -8.35114e-05
0.0011602 1.17434e-05 2.11408e-07
1.17434e-05 6.11295e-05 -4.55446e-07
2.11408e-07 -4.55446e-07 -2.8961e-06
0.00124994 1.05059e-05 -7.30873e-08
1.05059e-05 7.45212e-05 1.42028e-07
-7.30873e-08 1.42028e-07 1.08812e-05
0.0012366 5.25831e-06 3.44839e-08
5.25831e-06 6.31027e-05 7.5706e-08
3.44839e-08 7.5706e-08 3.24479e-06
0.00112056 -6.86097e-06 1.56593e-08
-6.86097e-06 4.46971e-05 1.96968e-09
1.56593e-08 1.96968e-09 -5.40651e-06
0.0011418 -1.0515e-05 1.51232e-07
-1.0515e-05 5.28889e-05 -1.92724e-07
1.51232e-07 -1.92724e-07 -3.8855e-06
0.0012029 -1.22703e-05 -3.12648e-08
-1.22703e-05 7.09764e-05 8.05055e-08
-3.12648e-08 8.05055e-08 9.52857e-06
0.00122791 -1.58953e-06 -2.7794e-08
-1.58953e-06 6.03154e-05 -3.55074e-08
-2.7794e-08 -3.55074e-08 4.45391e-06
0.00120624 -1.10879e-05 -1.34513e-08
-1.10879e-05 5.48149e-05 -3.91957e-07
-1.34513e-08 -3.91957e-07 -9.9968e-07
0.00121548 -7.08029e-06 -2.74988e-08
-7.08029e-06 5.04041e-05 -2.84273e-08
-2.74988e-08 -2.84273e-08 4.02204e-07
0.000795833 4.24282e-06 1.65805e-07
4.24282e-06 -0.000114828 -5.34369e-07
1.65805e-07 -5.34369e-07 -0.000138536
0.00114564 -9.64046e-06 1.75397e-08
-9.64046e-06 5.30519e-05 3.79685e-08
1.75397e-08 3.79685e-08 -9.60078e-07
0.001148 -1.01453e-05 -3.62127e-07
-1.01453e-05 5.15895e-05 2.68628e-07
-3.62127e-07 2.68628e-07 -5.03957e-06
0.00120022 -9.8949e-06 -1.95358e-07
-9.8949e-06 8.1793e-05 1.93943e-07
-1.95358e-07 1.93943e-07 2.6092e-05
0.00120903 -5.60133e-06 -7.69297e-08
-5.60133e-06 8.95955e-05 1.28079e-07
-7.69297e-08 1.28079e-07 3.97144e-05
0.0010474 1.24253e-06 -3.47105e-08
1.24253e-06 9.23367e-06 1.52245e-07
-3.47105e-08 1.52245e-07 -3.0158e-05
0.00124112 1.27736e-05 -5.14504e-07
1.27736e-05 9.14094e-05 1.35801e-06
-5.14504e-07 1.35801e-06 2.7477e-05
0.00126722 1.08126e-05 -2.92219e-07
1.08126e-05 8.03576e-05 -4.66975e-08
-2.92219e-07 -4.66975e-08 1.66192e-05
0.0012432 4.44919e-06 -9.11813e-07
4.44919e-06 6.10178e-05 -5.46586e-07
-9.11813e-07 -5.46586e-07 4.29894e-06
0.00122651 -2.95618e-06 -1.03894e-06
-2.95618e-06 4.92763e-05 -8.48469e-08
-1.03894e-06 -8.48469e-08 -1.37435e-06
0.00113716 -1.00343e-05 2.4936e-07
-1.00343e-05 5.04189e-05 -1.29641e-07
2.4936e-07 -1.29641e-07 -4.78833e-06
0.00122318 -1.01766e-05 -5.34143e-07
-1.01766e-05 4.79771e-05 7.54068e-07
-5.34143e-07 7.54068e-07 -2.78211e-06
0.00109244 -1.16433e-05 1.43394e-07
-1.16433e-05 2.74578e-05 -2.00623e-07
1.43394e-07 -2.00623e-07 -3.46644e-05
0.00124459 -1.30239e-05 4.20642e-08
-1.30239e-05 8.50347e-05 7.7827e-07
4.20642e-08 7.7827e-07 2.2169e-05
0.00079262 3.6128e-06 9.56793e-07
3.6128e-06 -0.000118922 -2.06066e-06
9.56793e-07 -2.06066e-06 -0.000141632
0.00116773 2.45552e-06 6.13673e-07
2.45552e-06 6.72775e-05 -7.68133e-07
6.13673e-07 -7.68133e-07 2.84057e-05
0.00126094 -4.26591e-06 1.26773e-07
-4.26591e-06 0.000114989 2.03727e-07
1.26773e-07 2.03727e-07 6.5805e-05
0.00112926 -9.51285e-06 4.03479e-07
-9.51285e-06 5.04568e-05 -3.47867e-07
4.03479e-07 -3.47867e-07 -7.22578e-06
0.00110954 -1.04646e-05 6.69119e-08
-1.04646e-05 3.45349e-05 9.93276e-08
6.69119e-08 9.93276e-08 -2.36126e-05
0.00115664 -1.06771e-05 2.68421e-07
-1.06771e-05 5.62787e-05 1.84897e-07
2.68421e-07 1.84897e-07 -3.36155e-06
0.00102784 -4.96599e-06 -1.25777e-06
-4.96599e-06 -1.02534e-06 -1.46898e-06
-1.25777e-06 -1.46898e-06 -2.21346e-05
0.00107457 -4.40283e-06 -9.18092e-07
-4.40283e-06 2.44126e-05 -8.29165e-07
-9.18092e-07 -8.29165e-07 -1.33949e-05
0.00123766 7.95674e-07 5.93356e-07
7.95674e-07 5.19458e-05 4.53144e-07
5.93356e-07 4.53144e-07 -4.31957e-06
0.00110563 -1.27676e-06 -6.06541e-07
-1.27676e-06 4.27109e-05 -3.83237e-07
-6.06541e-07 -3.83237e-07 -6.52506e-06
0.00109692 3.07476e-06 -5.40145e-07
3.07476e-06 4.21311e-05 -3.15878e-07
-5.40145e-07 -3.15878e-07 -8.29783e-06
0.00107582 5.19097e-06 -4.31879e-07
5.19097e-06 3.02481e-05 -2.41464e-07
-4.31879e-07 -2.41464e-07 -2.56015e-05
0.00117046 1.28512e-05 1.49386e-07
1.28512e-05 4.25799e-05 -1.24388e-07
1.49386e-07 -1.24388e-07 -1.64358e-05
0.0011684 9.8048e-06 9.00787e-07
9.8048e-06 2.33581e-05 7.82813e-07
9.00787e-07 7.82813e-07 -2.9446e-05
0.000995686 1.00707e-05 -1.38503e-07
1.00707e-05 -8.57234e-07 1.60106e-08
-1.38503e-07 1.60106e-08 -6.17051e-05
0.00118837 1.34837e-05 -1.98911e-07
1.34837e-05 6.82098e-05 1.56304e-07
-1.98911e-07 1.56304e-07 4.35582e-06
0.00107852 -3.38499e-06 3.51542e-08
-3.38499e-06 2.38997e-05 -1.26107e-08
3.51542e-08 -1.26107e-08 -1.32199e-05
0.00106405 8.64971e-07 1.82516e-07
8.64971e-07 1.93953e-05 2.63731e-07
1.82516e-07 2.63731e-07 -2.95762e-05
0.00115726 9.81391e-06 -3.81064e-08
9.81391e-06 7.27178e-05 -3.25776e-07
-3.81064e-08 -3.25776e-07 1.54788e-05
0.00108956 3.95721e-06 -1.47935e-07
3.95721e-06 3.56477e-05 1.54019e-08
-1.47935e-07 1.54019e-08 -1.99712e-05
0.00112933 7.73259e-06 -2.89335e-07
7.73259e-06 5.39091e-05 -3.5417e-07
-2.89335e-07 -3.5417e-07 -4.53047e-06
0.00131817 1.43239e-06 -2.78437e-07
1.43239e-06 7.32497e-05 -2.37789e-07
-2.78437e-07 -2.37789e-07 2.69478e-05
0.00128355 1.49813e-05 1.83287e-07
1.49813e-05 9.53489e-05 -2.56204e-08
1.83287e-07 -2.56204e-08 3.51894e-05
0.00109651 1.14141e-05 -1.33074e-07
1.14141e-05 -1.20284e-05 5.5982e-07
-1.33074e-07 5.5982e-07 -6.25543e-05
0.00120034 1.17498e-05 2.42991e-07
1.17498e-05 9.04298e-05 4.09539e-07
2.42991e-07 4.09539e-07 2.5829e-05
0.00109407 1.35952e-05 -3.49027e-07
1.35952e-05 2.31606e-05 -6.95316e-08
-3.49027e-07 -6.95316e-08 -4.54957e-05
0.00102456 2.75935e-06 6.94252e-07
2.75935e-06 -2.05191e-06 7.98113e-07
6.94252e-07 7.98113e-07 -5.07732e-05
0.00104605 8.17049e-06 3.43333e-07
8.17049e-06 1.28937e-05 -4.7958e-08
3.43333e-07 -4.7958e-08 -4.39706e-05
0.00114472 1.02371e-05 -4.10045e-09
1.02371e-05 6.44304e-05 -2.68134e-08
-4.10045e-09 -2.68134e-08 2.46016e-06
0.00102758 8.43687e-06 3.12241e-07
8.43687e-06 4.15467e-06 -3.43641e-08
3.12241e-07 -3.43641e-08 -5.59937e-05
0.00148554 -4.74235e-06 -1.19727e-06
-4.74235e-06 0.000152976 2.7092e-07
-1.19727e-06 2.7092e-07 0.00010633
0.00132812 8.32447e-06 -1.67395e-07
8.32447e-06 6.8263e-05 -3.52594e-07
-1.67395e-07 -3.52594e-07 2.53357e-05
0.00120069 1.47183e-05 1.07146e-08
1.47183e-05 5.61021e-05 -1.22522e-06
1.07146e-08 -1.22522e-06 -7.87263e-06
0.00101977 1.2111e-05 -1.01432e-07
1.2111e-05 1.49681e-06 3.56421e-07
-1.01432e-07 3.56421e-07 -6.84763e-05
0.00107801 -2.90804e-06 -5.37942e-07
-2.90804e-06 2.24715e-05 -5.25697e-07
-5.37942e-07 -5.25697e-07 -1.4189e-05
0.00109049 4.31684e-07 1.19018e-07
4.31684e-07 2.98969e-05 2.85156e-07
1.19018e-07 2.85156e-07 -1.77509e-05
0.00116136 5.98943e-06 2.29372e-07
5.98943e-06 6.7677e-05 1.68049e-07
2.29372e-07 1.68049e-07 1.30398e-05
0.00108598 -1.8296e-06 -4.55295e-07
-1.8296e-06 2.37463e-05 -9.12005e-07
-4.55295e-07 -9.12005e-07 -1.22658e-05
0.00102213 -8.81645e-07 -4.15916e-07
-8.81645e-07 -3.9566e-06 -9.22205e-07
-4.15916e-07 -9.22205e-07 -5.1401e-05
0.00108749 -1.14441e-06 2.38421e-08
-1.14441e-06 2.37248e-05 1.5103e-09
2.38421e-08 1.5103e-09 -1.2517e-05
0.00114415 3.46269e-06 -4.45814e-08
3.46269e-06 5.85762e-05 -2.81058e-07
-4.45814e-08 -2.81058e-07 4.54543e-06
0.0010647 2.10506e-07 7.98421e-08
2.10506e-07 1.66206e-05 2.83843e-07
7.98421e-08 2.83843e-07 -3.02767e-05
0.00119041 7.60777e-06 9.65051e-08
7.60777e-06 8.13055e-05 -1.2522e-07
9.65051e-08 -1.2522e-07 2.28344e-05
0.00105314 -1.60658e-06 1.37798e-07
-1.60658e-06 1.41448e-05 5.4757e-07
1.37798e-07 5.4757e-07 -4.01584e-05
0.00102357 2.92569e-06 2.94072e-07
2.92569e-06 -3.62173e-06 7.53142e-07
2.94072e-07 7.53142e-07 -5.08828e-05
0.00108448 -1.05521e-06 3.00284e-07
-1.05521e-06 2.19069e-05 9.07823e-07
3.00284e-07 9.07823e-07 -1.48588e-05
0.00105085 -9.9106e-07 2.2025e-07
-9.9106e-07 -2.25218e-07 1.65638e-06
2.2025e-07 1.65638e-06 -2.0893e-05
0.00105123 -1.65209e-06 5.85649e-08
-1.65209e-06 7.16345e-07 5.82724e-10
5.85649e-08 5.82724e-10 -1.96827e-05
0.00150426 -2.80314e-06 5.30953e-07
-2.80314e-06 0.000212502 1.73836e-06
5.30953e-07 1.73836e-06 0.000219949
0.00104793 -2.28594e-06 -5.52286e-07
-2.28594e-06 2.82793e-07 -1.63356e-06
-5.52286e-07 -1.63356e-06 -1.98397e-05
0.00152055 -3.91073e-06 -4.19694e-07
-3.91073e-06 0.00022245 -1.08975e-06
-4.19694e-07 -1.08975e-06 0.000229704
0.00122396 -4.62954e-06 2.38307e-06
-4.62954e-06 7.50972e-05 5.70361e-06
2.38307e-06 5.70361e-06 9.52779e-05
0.00153831 -5.02117e-06 -1.91361e-06
-5.02117e-06 0.000233614 -3.82964e-06
-1.91361e-06 -3.82964e-06 0.000240581
0.00117179 -6.0714e-06 9.85023e-07
-6.0714e-06 5.27922e-05 2.14498e-06
9.85023e-07 2.14498e-06 7.29399e-05
0.00112056 -7.48111e-06 -9.9724e-07
-7.48111e-06 3.11911e-05 -1.27931e-06
-9.9724e-07 -1.27931e-06 5.1169e-05
0.00097396 5.95204e-06 1.3513e-06
5.95204e-06 -3.81851e-05 -2.64705e-06
1.3513e-06 -2.64705e-06 -3.42205e-05
0.000977395 7.01396e-06 -7.16549e-08
7.01396e-06 -3.29424e-05 -1.39711e-09
-7.16549e-08 -1.39711e-09 -2.98632e-05
0.00227166 9.2263e-06 3.3235e-06
9.2263e-06 0.00059078 -3.3996e-06
3.3235e-06 -3.3996e-06 0.000614613
0.000979735 7.89307e-06 -2.04684e-06
7.89307e-06 -2.83762e-05 2.47455e-06
-2.04684e-06 2.47455e-06 -2.6117e-05
0.00227009 1.06513e-05 -1.23454e-07
1.06513e-05 0.000594741 -3.37669e-08
-1.23454e-07 -3.37669e-08 0.000617783
0.00224725 1.20679e-05 -4.32445e-06
1.20679e-05 0.000588437 3.22945e-06
-4.32445e-06 3.22945e-06 0.000610855
0.00120711 -6.05427e-06 8.22408e-07
-6.05427e-06 4.20674e-05 6.24477e-07
8.22408e-07 6.24477e-07 -1.28722e-05
0.00114031 -1.03726e-05 2.20109e-07
-1.03726e-05 3.15301e-05 -8.06218e-08
2.20109e-07 -8.06218e-08 -2.98118e-05
0.00124181 -1.03682e-05 1.5578e-06
-1.03682e-05 6.39459e-05 -1.41654e-06
1.5578e-06 -1.41654e-06 5.54783e-06
0.00119596 -1.27522e-05 -1.00148e-06
-1.27522e-05 7.22797e-05 3.70962e-07
-1.00148e-06 3.70962e-07 4.50447e-06
0.00112777 -8.12948e-06 -2.18228e-07
-8.12948e-06 6.23699e-05 8.05105e-07
-2.18228e-07 8.05105e-07 1.46299e-06
0.00108363 1.67945e-06 1.8484e-07
1.67945e-06 5.12205e-05 -1.1261e-07
1.8484e-07 -1.1261e-07 -9.23626e-06
0.00110588 3.50526e-06 2.26643e-07
3.50526e-06 6.19137e-05 -3.9458e-08
2.26643e-07 -3.9458e-08 1.62123e-06
0.00112992 -1.02635e-05 -4.1673e-07
-1.02635e-05 6.39875e-05 5.84016e-07
-4.1673e-07 5.84016e-07 3.35551e-07
0.00113305 -1.23702e-05 1.21186e-07
-1.23702e-05 3.52661e-05 1.21032e-07
1.21186e-07 1.21032e-07 -2.91754e-05
0.00126496 -7.17438e-06 2.91507e-07
-7.17438e-06 6.06788e-05 6.32873e-08
2.91507e-07 6.32873e-08 1.01119e-05
0.0010728 2.35496e-06 -1.2287e-07
2.35496e-06 4.25675e-05 -4.39741e-07
-1.2287e-07 -4.39741e-07 -1.85034e-05
0.00103166 -1.3302e-05 -3.62375e-07
-1.3302e-05 2.35415e-05 -2.88634e-07
-3.62375e-07 -2.88634e-07 -4.28232e-05
0.00124619 -1.0694e-05 -1.4118e-06
-1.0694e-05 7.00769e-05 9.45535e-07
-1.4118e-06 9.45535e-07 1.31582e-05
0.0011863 1.18258e-05 1.60062e-07
1.18258e-05 6.98891e-05 -1.39828e-06
1.60062e-07 -1.39828e-06 5.34671e-06
0.00127141 1.04896e-05 1.95278e-07
1.04896e-05 8.57664e-05 7.61559e-08
1.95278e-07 7.61559e-08 2.23546e-05
0.00125078 5.42414e-06 6.39482e-07
5.42414e-06 7.0509e-05 3.62289e-07
6.39482e-07 3.62289e-07 1.06876e-05
0.00112984 -6.17882e-06 -4.88764e-07
-6.17882e-06 4.87905e-05 2.10561e-07
-4.88764e-07 2.10561e-07 -1.29496e-06
0.00123926 -1.08492e-05 -8.97277e-08
-1.08492e-05 9.91346e-05 1.93196e-08
-8.97277e-08 1.93196e-08 4.28796e-05
0.00119523 -1.22573e-05 -2.03926e-07
-1.22573e-05 6.84373e-05 1.18435e-08
-2.03926e-07 1.18435e-08 6.71577e-06
0.00124026 -1.5118e-06 7.84313e-07
-1.5118e-06 6.61231e-05 4.90836e-08
7.84313e-07 4.90836e-08 9.96624e-06
0.00121388 -7.78337e-06 1.06396e-06
-7.78337e-06 5.04673e-05 -3.01363e-07
1.06396e-06 -3.01363e-07 3.64926e-07
0.00121179 -1.08179e-05 -5.08889e-09
-1.08179e-05 5.77965e-05 -1.59077e-06
-5.08889e-09 -1.59077e-06 2.69062e-06
0.001153 -9.69136e-06 -2.81931e-07
-9.69136e-06 5.65565e-05 5.98289e-08
-2.81931e-07 5.98289e-08 2.48906e-06
0.00113512 -1.00678e-05 -7.16727e-07
-1.00678e-05 4.47159e-05 2.576e-07
-7.16727e-07 2.576e-07 -1.16682e-05
0.00121547 -9.90083e-06 -6.5166e-07
-9.90083e-06 8.94324e-05 1.64139e-07
-6.5166e-07 1.64139e-07 3.4032e-05
0.000792031 4.31164e-06 -8.28078e-07
4.31164e-06 -0.000116546 9.83786e-07
-8.28078e-07 9.83786e-07 -0.000140184
0.00126592 -6.02085e-06 -5.65171e-07
-6.02085e-06 0.00011705 5.83489e-07
-5.65171e-07 5.83489e-07 6.73903e-05
0.000933656 2.46705e-07 -8.18902e-07
2.46705e-07 -4.59975e-05 9.62552e-07
-8.18902e-07 9.62552e-07 -8.60607e-05
0.00120403 1.25738e-05 -7.19359e-08
1.25738e-05 7.78554e-05 4.57284e-07
-7.19359e-08 4.57284e-07 1.46571e-05
0.00124412 1.06327e-05 5.66431e-09
1.06327e-05 6.73501e-05 1.97481e-07
5.66431e-09 1.97481e-07 3.72845e-06
0.00123492 4.83772e-06 -5.98447e-08
4.83772e-06 5.78667e-05 -1.0105e-07
-5.98447e-08 -1.0105e-07 6.02928e-07
0.00114497 -1.00865e-05 2.17765e-09
-1.00865e-05 5.40034e-05 2.32409e-08
2.17765e-09 2.32409e-08 -1.23183e-06
0.00112376 -1.17089e-05 -6.80118e-09
-1.17089e-05 4.29718e-05 2.12014e-08
-6.80118e-09 2.12014e-08 -1.87787e-05
0.00122499 -1.27171e-05 -2.26201e-07
-1.27171e-05 7.63562e-05 1.84503e-07
-2.26201e-07 1.84503e-07 1.40555e-05
0.00125439 -3.28516e-06 1.75021e-07
-3.28516e-06 6.29662e-05 1.22653e-07
1.75021e-07 1.22653e-07 1.27935e-05
0.00121641 -1.01904e-05 -1.86437e-07
-1.01904e-05 4.54193e-05 -3.91336e-07
-1.86437e-07 -3.91336e-07 -5.59862e-06
0.000919313 3.70471e-06 1.53361e-07
3.70471e-06 -5.78528e-05 -5.21586e-07
1.53361e-07 -5.21586e-07 -7.98204e-05
0.00116315 2.50026e-06 -7.28272e-08
2.50026e-06 6.54406e-05 1.24066e-07
-7.28272e-08 1.24066e-07 2.65141e-05
0.00111153 -1.04395e-05 -1.45044e-07
-1.04395e-05 3.56465e-05 1.73552e-07
-1.45044e-07 1.73552e-07 -2.23582e-05
0.00116724 -1.07411e-05 -6.78769e-08
-1.07411e-05 6.13962e-05 3.27655e-08
-6.78769e-08 3.27655e-08 1.82812e-06
0.00114029 -9.49237e-06 1.08846e-07
-9.49237e-06 5.60371e-05 -1.74341e-07
1.08846e-07 -1.74341e-07 -1.37854e-06
0.00121412 -5.70405e-06 -3.41407e-07
-5.70405e-06 9.18299e-05 6.06658e-07
-3.41407e-07 6.06658e-07 4.23063e-05
0.00118351 1.30217e-05 3.11577e-07
1.30217e-05 6.85493e-05 1.20361e-06
3.11577e-07 1.20361e-06 6.72631e-06
0.0012896 1.02325e-05 -3.46211e-07
1.02325e-05 8.60956e-05 -6.91496e-07
-3.46211e-07 -6.91496e-07 2.29547e-05
0.00122595 9.73931e-07 -1.58884e-06
9.73931e-07 4.46281e-05 -4.57948e-07
-1.58884e-06 -4.57948e-07 -4.78317e-06
0.00129539 -7.75247e-06 -1.02626e-06
-7.75247e-06 7.14089e-05 2.81111e-07
-1.02626e-06 2.81111e-07 2.57319e-05
0.00109697 -1.10517e-05 -2.94425e-08
-1.10517e-05 3.12568e-05 1.06595e-08
-2.94425e-08 1.06595e-08 -2.89688e-05
0.00124918 -1.26827e-05 6.83938e-09
-1.26827e-05 7.47787e-05 1.59514e-06
6.83938e-09 1.59514e-06 1.5677e-05
0.0012506 -1.32237e-05 8.02603e-09
-1.32237e-05 0.000100371 -7.95011e-08
8.02603e-09 -7.95011e-08 3.53551e-05
0.00104186 2.81852e-06 7.73705e-07
2.81852e-06 -1.00994e-06 -1.5708e-06
7.73705e-07 -1.5708e-06 -2.15187e-05
0.00109136 1.22869e-06 1.9804e-07
1.22869e-06 2.60637e-05 -9.98845e-07
1.9804e-07 -9.98845e-07 -1.06026e-05
0.000904864 3.98359e-06 3.97292e-07
3.98359e-06 -6.01153e-05 -1.3255e-06
3.97292e-07 -1.3255e-06 -9.92566e-05
0.00118219 -1.58977e-06 1.91211e-07
-1.58977e-06 7.72612e-05 -5.3286e-08
1.91211e-07 -5.3286e-08 2.65535e-05
0.00113359 -9.31189e-06 5.11192e-07
-9.31189e-06 5.34627e-05 -3.75905e-07
5.11192e-07 -3.75905e-07 -4.14882e-06
0.00117824 -1.04862e-05 3.32085e-07
-1.04862e-05 7.13567e-05 1.34148e-07
3.32085e-07 1.34148e-07 9.66325e-06
0.00113801 -1.12959e-05 2.35519e-07
-1.12959e-05 4.9848e-05 -8.20742e-08
2.35519e-07 -8.20742e-08 -1.06676e-05
0.00125628 -1.17199e-05 -1.12304e-07
-1.17199e-05 0.000106615 4.3415e-07
-1.12304e-07 4.3415e-07 4.37408e-05
0.00107927 -3.27787e-06 -8.09615e-07
-3.27787e-06 2.41952e-05 -8.75304e-07
-8.09615e-07 -8.75304e-07 -1.29138e-05
0.00111526 2.36984e-06 -4.1512e-07
2.36984e-06 4.45146e-05 -1.87596e-07
-4.1512e-07 -1.87596e-07 -4.19747e-06
0.00135304 9.71696e-07 9.07997e-07
9.71696e-07 9.00304e-05 1.98507e-07
9.07997e-07 1.98507e-07 4.39071e-05
0.0011368 4.5309e-06 -4.87965e-07
4.5309e-06 5.87047e-05 -6.90126e-10
-4.87965e-07 -6.90126e-10 3.32033e-06
0.00119839 9.95675e-06 -3.98068e-07
9.95675e-06 9.29156e-05 -6.95318e-07
-3.98068e-07 -6.95318e-07 3.62774e-05
0.00109928 7.47885e-06 -3.99222e-07
7.47885e-06 4.09346e-05 -3.46225e-07
-3.99222e-07 -3.46225e-07 -1.75582e-05
0.00128285 1.49211e-05 5.69564e-07
1.49211e-05 9.30414e-05 5.05417e-07
5.69564e-07 5.05417e-07 3.31192e-05
0.00118765 1.15473e-05 4.39962e-07
1.15473e-05 3.50266e-05 1.70292e-06
4.39962e-07 1.70292e-06 -1.42788e-05
0.00111154 1.13974e-05 1.49875e-07
1.13974e-05 4.93935e-05 1.93242e-07
1.49875e-07 1.93242e-07 -1.55442e-05
0.00114846 1.39042e-05 -4.74535e-07
1.39042e-05 4.74525e-05 4.42372e-08
-4.74535e-07 4.42372e-08 -2.24777e-05
0.00101855 2.47448e-06 1.75367e-07
2.47448e-06 -4.64198e-06 2.81079e-07
1.75367e-07 2.81079e-07 -5.34498e-05
0.00110173 8.18067e-06 -1.43856e-07
8.18067e-06 3.97319e-05 -2.84837e-07
-1.43856e-07 -2.84837e-07 -1.66745e-05
0.00116931 1.03369e-05 -8.62616e-08
1.03369e-05 7.68609e-05 -3.11653e-07
-8.62616e-08 -3.11653e-07 1.5287e-05
0.00111532 8.22283e-06 2.36374e-08
8.22283e-06 4.57365e-05 -3.47884e-08
2.36374e-08 -3.47884e-08 -1.41862e-05
0.00136481 -4.60138e-06 2.27617e-07
-4.60138e-06 9.47594e-05 -4.463e-07
2.27617e-07 -4.463e-07 4.78359e-05
0.001237 7.98363e-06 3.34303e-07
7.98363e-06 3.03776e-05 -7.5678e-08
3.34303e-07 -7.5678e-08 -1.35346e-05
0.00132788 1.50997e-05 -3.53799e-07
1.50997e-05 0.000114939 -6.5e-08
-3.53799e-07 -6.5e-08 5.16367e-05
0.00107719 1.25357e-05 1.51379e-07
1.25357e-05 2.66897e-05 1.76601e-07
1.51379e-07 1.76601e-07 -4.34944e-05
0.00116601 8.02138e-06 1.38412e-07
8.02138e-06 7.06208e-05 -4.8274e-08
1.38412e-07 -4.8274e-08 1.49585e-05
0.0011618 -1.24196e-05 -2.58921e-06
-1.24196e-05 4.20877e-05 -3.40745e-07
-2.58921e-06 -3.40745e-07 -1.22592e-05
0.00123425 9.89622e-06 3.58429e-07
9.89622e-06 0.000103831 2.05019e-07
3.58429e-07 2.05019e-07 4.23577e-05
0.00117435 1.13325e-05 7.51226e-08
1.13325e-05 7.42644e-05 1.35275e-07
7.51226e-08 1.35275e-07 9.16668e-06
0.00165787 3.51911e-06 -2.45677e-07
3.51911e-06 0.000207466 -7.20949e-07
-2.45677e-07 -7.20949e-07 0.000171963
0.00111504 1.40488e-05 1.08017e-06
1.40488e-05 -1.13532e-05 -1.63855e-06
1.08017e-06 -1.63855e-06 -7.05915e-05
0.00124421 1.4315e-05 -1.91501e-07
1.4315e-05 0.000100859 2.9722e-07
-1.91501e-07 2.9722e-07 2.88005e-05
0.00116191 2.08283e-08 -3.00466e-07
2.08283e-08 6.46862e-05 -2.37756e-07
-3.00466e-07 -2.37756e-07 1.74588e-05
0.00115564 5.74795e-06 -2.47941e-08
5.74795e-06 6.52103e-05 -7.22057e-08
-2.47941e-08 -7.22057e-08 1.05553e-05
0.00116239 8.45849e-06 1.34894e-07
8.45849e-06 7.01821e-05 -3.67257e-08
1.34894e-07 -3.67257e-08 1.0726e-05
0.00108874 -1.13092e-06 -3.55666e-07
-1.13092e-06 2.4387e-05 -8.92454e-07
-3.55666e-07 -8.92454e-07 -1.18584e-05
0.00111039 1.02393e-06 -1.67663e-07
1.02393e-06 3.87435e-05 -2.37742e-07
-1.67663e-07 -2.37742e-07 -7.82665e-06
0.00107367 2.83585e-06 -2.27407e-07
2.83585e-06 2.41262e-05 -5.96704e-07
-2.27407e-07 -5.96704e-07 -3.04621e-05
0.00108877 -1.10797e-06 3.81762e-08
-1.10797e-06 2.40458e-05 -1.76767e-09
3.81762e-08 -1.76767e-09 -1.27539e-05
0.00101988 1.09138e-06 5.05562e-08
1.09138e-06 -5.30733e-06 2.89473e-07
5.05562e-08 2.89473e-07 -5.25197e-05
0.00114599 6.55668e-06 -4.56924e-08
6.55668e-06 5.98499e-05 -2.42631e-07
-4.56924e-08 -2.42631e-07 9.83131e-07
0.00113881 1.06452e-06 5.1366e-08
1.06452e-06 5.56606e-05 2.49418e-07
5.1366e-08 2.49418e-07 1.91195e-06
0.00117095 8.55763e-06 -2.64465e-09
8.55763e-06 7.07776e-05 -3.43705e-07
-2.64465e-09 -3.43705e-07 9.53565e-06
0.00110723 2.06573e-06 1.38087e-07
2.06573e-06 3.91703e-05 1.649e-07
1.38087e-07 1.649e-07 -2.00682e-05
0.0011538 6.34743e-06 1.9486e-07
6.34743e-06 6.18783e-05 2.7297e-07
1.9486e-07 2.7297e-07 8.39134e-06
0.00110986 5.67991e-08 1.9473e-07
5.67991e-08 3.87918e-05 4.66706e-07
1.9473e-07 4.66706e-07 -8.49622e-06
0.00108479 -1.25166e-06 1.62061e-07
-1.25166e-06 2.20832e-05 8.97682e-07
1.62061e-07 8.97682e-07 -1.53731e-05
0.00105257 -9.92268e-08 3.22036e-08
-9.92268e-08 3.41201e-07 1.65831e-06
3.22036e-08 1.65831e-06 -2.06141e-05
0.0010532 -9.97193e-07 4.74763e-08
-9.97193e-07 9.41925e-07 3.06691e-09
4.74763e-08 3.06691e-09 -1.97541e-05
0.00150605 -1.52295e-06 2.68011e-07
-1.52295e-06 0.000211886 1.74448e-06
2.68011e-07 1.74448e-06 0.000219348
0.00105234 -1.65773e-06 -3.30929e-07
-1.65773e-06 1.29511e-06 -1.65592e-06
-3.30929e-07 -1.65592e-06 -1.91281e-05
0.00152588 -2.72041e-06 -2.82584e-07
-2.72041e-06 0.000223025 -1.09748e-06
-2.82584e-07 -1.09748e-06 0.000230321
0.00122843 -3.22702e-06 1.63409e-06
-3.22702e-06 7.47009e-05 5.75732e-06
1.63409e-06 5.75732e-06 9.50974e-05
0.00154315 -3.84396e-06 -1.42387e-06
-3.84396e-06 0.000233453 -3.89117e-06
-1.42387e-06 -3.89117e-06 0.000240548
0.00117791 -4.67307e-06 7.23099e-07
-4.67307e-06 5.27081e-05 2.17268e-06
7.23099e-07 2.17268e-06 7.31484e-05
0.00112671 -6.08732e-06 -8.09594e-07
-6.08732e-06 3.07441e-05 -1.31865e-06
-8.09594e-07 -1.31865e-06 5.116e-05
0.00104595 2.31288e-06 4.62399e-07
2.31288e-06 -4.84072e-07 -1.65381e-06
4.62399e-07 -1.65381e-06 -2.03697e-05
0.000981167 4.78149e-06 1.10878e-06
4.78149e-06 -3.76815e-05 -2.73692e-06
1.10878e-06 -2.73692e-06 -3.30825e-05
0.00098436 5.93362e-06 -4.83994e-08
5.93362e-06 -3.32591e-05 -7.11121e-09
-4.83994e-08 -7.11121e-09 -2.93445e-05
0.00225853 7.72483e-06 2.9101e-06
7.72483e-06 0.00058049 -3.46764e-06
2.9101e-06 -3.46764e-06 0.000605034
0.000989454 6.99602e-06 -1.71995e-06
6.99602e-06 -2.72282e-05 2.57236e-06
-1.71995e-06 2.57236e-06 -2.4203e-05
0.00225171 9.2477e-06 -1.28174e-07
9.2477e-06 0.000581655 -2.69321e-08
-1.28174e-07 -2.69321e-08 0.00060548
0.00224469 1.0673e-05 -3.9918e-06
1.0673e-05 0.000582945 3.32896e-06
-3.9918e-06 3.32896e-06 0.000606023
0.00115455 -7.2602e-06 1.21038e-06
-7.2602e-06 8.28893e-06 -3.41002e-07
1.21038e-06 -3.41002e-07 -4.27276e-05
0.00107935 -1.20279e-05 3.98429e-07
-1.20279e-05 1.17256e-05 -5.68477e-07
3.98429e-07 -5.68477e-07 -5.19057e-05
0.00118664 -1.0564e-05 -2.01873e-07
-1.0564e-05 8.78964e-05 1.50264e-06
-2.01873e-07 1.50264e-06 2.43467e-05
0.00113253 4.04265e-06 2.96023e-07
4.04265e-06 7.0063e-05 -5.96765e-07
2.96023e-07 -5.96765e-07 9.10677e-06
0.00111216 2.19737e-06 6.53896e-08
2.19737e-06 6.29137e-05 -4.6024e-07
6.53896e-08 -4.6024e-07 2.44959e-06
0.0010814 -1.34153e-05 -5.28892e-08
-1.34153e-05 4.7911e-05 4.05877e-07
-5.28892e-08 4.05877e-07 -1.89243e-05
0.00121591 -1.06201e-05 -3.02926e-07
-1.06201e-05 5.8021e-05 2.19289e-07
-3.02926e-07 2.19289e-07 2.17629e-06
0.00110212 7.18539e-07 2.10034e-07
7.18539e-07 5.89373e-05 -1.25166e-06
2.10034e-07 -1.25166e-06 -3.5666e-06
0.00100652 -1.37978e-05 -1.88325e-06
-1.37978e-05 9.8091e-07 7.5648e-07
-1.88325e-06 7.5648e-07 -6.30969e-05
0.00128371 -1.62255e-05 -1.35557e-06
-1.62255e-05 0.000141237 -3.16375e-07
-1.35557e-06 -3.16375e-07 9.32866e-05
0.0011663 1.23714e-05 3.80386e-07
1.23714e-05 6.40295e-05 -4.80078e-07
3.80386e-07 -4.80078e-07 1.5625e-06
0.00122335 1.04521e-05 2.64824e-07
1.04521e-05 5.55065e-05 1.34061e-07
2.64824e-07 1.34061e-07 -8.00946e-06
0.00122289 5.22031e-06 7.75809e-07
5.22031e-06 5.30359e-05 3.43554e-07
7.75809e-07 3.43554e-07 -4.77818e-06
0.00115205 -1.01358e-05 -2.37574e-07
-1.01358e-05 5.72539e-05 1.73751e-07
-2.37574e-07 1.73751e-07 1.99065e-06
0.00115366 -1.17688e-05 -6.88846e-08
-1.17688e-05 5.78078e-05 2.94349e-07
-6.88846e-08 2.94349e-07 -3.56691e-06
0.00119767 -1.23642e-05 -9.7195e-08
-1.23642e-05 6.3908e-05 -5.36504e-07
-9.7195e-08 -5.36504e-07 2.20083e-06
0.00128902 -3.67326e-06 1.75821e-06
-3.67326e-06 7.97709e-05 1.38162e-07
1.75821e-06 1.38162e-07 3.00717e-05
0.00121396 -1.02073e-05 -3.22681e-08
-1.02073e-05 4.49307e-05 -1.32242e-06
-3.22681e-08 -1.32242e-06 -6.35915e-06
0.00111337 -1.04133e-05 -3.59093e-07
-1.04133e-05 3.66786e-05 1.83264e-07
-3.59093e-07 1.83264e-07 -2.11827e-05
0.0011789 -1.08101e-05 -3.21626e-07
-1.08101e-05 6.69962e-05 -1.02117e-07
-3.21626e-07 -1.02117e-07 7.49996e-06
0.00115199 -9.47165e-06 -2.24411e-07
-9.47165e-06 6.1913e-05 -6.17388e-08
-2.24411e-07 -6.17388e-08 4.76643e-06
0.00104507 3.80625e-06 -7.14173e-07
3.80625e-06 2.80269e-06 1.00826e-06
-7.14173e-07 1.00826e-06 -1.84243e-05
0.00115744 2.35348e-06 -6.89391e-07
2.35348e-06 6.30701e-05 1.04634e-06
-6.89391e-07 1.04634e-06 2.40955e-05
0.00116514 -5.93018e-06 -8.7815e-07
-5.93018e-06 6.76341e-05 1.01537e-06
-8.7815e-07 1.01537e-06 1.7777e-05
0.00112828 1.25516e-05 2.01067e-08
1.25516e-05 4.0842e-05 2.38999e-07
2.01067e-08 2.38999e-07 -2.16808e-05
0.00104653 2.82195e-06 -4.2331e-09
2.82195e-06 1.18352e-06 -6.78172e-09
-4.2331e-09 -6.78172e-09 -1.93397e-05
0.0010119 1.24937e-06 -1.54685e-07
1.24937e-06 -1.23375e-05 -3.54184e-08
-1.54685e-07 -3.54184e-08 -4.94043e-05
0.00126366 1.00559e-05 5.69111e-08
1.00559e-05 7.37737e-05 4.17777e-07
5.69111e-08 4.17777e-07 1.10998e-05
0.00122117 8.68375e-07 -1.17383e-07
8.68375e-07 4.36857e-05 -1.48057e-07
-1.17383e-07 -1.48057e-07 -7.01101e-06
0.00109412 -1.0978e-05 -7.63635e-08
-1.0978e-05 3.01056e-05 2.16491e-07
-7.63635e-08 2.16491e-07 -2.98343e-05
0.00120835 -1.30472e-05 -8.83406e-08
-1.30472e-05 8.09559e-05 8.64661e-08
-8.83406e-08 8.64661e-08 1.57994e-05
0.0011881 -1.2316e-05 1.70184e-07
-1.2316e-05 4.50518e-05 8.2291e-08
1.70184e-07 8.2291e-08 -1.37068e-05
0.00129368 -8.06985e-06 9.04077e-08
-8.06985e-06 7.00386e-05 -2.43682e-07
9.04077e-08 -2.43682e-07 2.44107e-05
0.0011185 4.30252e-06 3.98724e-08
4.30252e-06 4.29065e-05 -3.8417e-07
3.98724e-08 -3.8417e-07 5.00938e-06
0.00117283 -2.00701e-06 -1.5912e-07
-2.00701e-06 7.31098e-05 3.87612e-07
-1.5912e-07 3.87612e-07 2.23172e-05
0.00116631 -1.14015e-05 1.57524e-07
-1.14015e-05 6.29578e-05 -8.90597e-08
1.57524e-07 -8.90597e-08 2.4713e-06
0.00119823 -1.14907e-05 -2.40352e-07
-1.14907e-05 7.82342e-05 6.45335e-08
-2.40352e-07 6.45335e-08 1.55382e-05
0.00114004 -1.03771e-05 6.72821e-08
-1.03771e-05 5.25742e-05 6.44465e-08
6.72821e-08 6.44465e-08 -9.55189e-06
0.0011387 -9.33134e-06 1.71325e-07
-9.33134e-06 5.57426e-05 -2.47733e-07
1.71325e-07 -2.47733e-07 -1.7127e-06
0.00130572 1.36494e-05 7.9355e-07
1.36494e-05 0.000124075 6.03586e-07
7.9355e-07 6.03586e-07 5.3676e-05
0.00127283 8.68342e-06 -9.39934e-07
8.68342e-06 7.29187e-05 -1.18733e-06
-9.39934e-07 -1.18733e-06 1.66401e-05
0.00126803 -4.58256e-06 -2.15569e-06
-4.58256e-06 4.81166e-05 2.39448e-08
-2.15569e-06 2.39448e-08 9.16099e-06
0.00127194 -1.22699e-05 -2.88161e-07
-1.22699e-05 6.70281e-05 1.21763e-06
-2.88161e-07 1.21763e-06 1.54494e-05
0.00114785 -1.20898e-05 -1.15945e-07
-1.20898e-05 5.73033e-05 -1.8647e-07
-1.15945e-07 -1.8647e-07 -5.74394e-06
0.00129273 -1.42099e-05 -2.31116e-07
-1.42099e-05 0.000115538 6.5669e-07
-2.31116e-07 6.5669e-07 4.93349e-05
0.000929135 1.33999e-06 2.65837e-07
1.33999e-06 -5.30448e-05 -1.4346e-06
2.65837e-07 -1.4346e-06 -8.97286e-05
0.00108361 1.31225e-06 5.72424e-07
1.31225e-06 2.33831e-05 -8.86742e-07
5.72424e-07 -8.86742e-07 -1.36612e-05
0.00126404 7.27402e-07 7.29176e-08
7.27402e-07 0.000113497 2.65937e-08
7.29176e-08 2.65937e-08 6.65833e-05
0.000978035 -2.45511e-07 2.76827e-07
-2.45511e-07 -1.95332e-05 -5.42613e-07
2.76827e-07 -5.42613e-07 -7.12075e-05
0.0012255 -7.57276e-06 3.8784e-07
-7.57276e-06 9.84734e-05 -3.16905e-08
3.8784e-07 -3.16905e-08 4.0856e-05
0.00106501 -1.0064e-05 1.12701e-07
-1.0064e-05 1.80189e-05 -5.49329e-08
1.12701e-07 -5.49329e-08 -4.61558e-05
0.00122492 -1.14504e-05 3.08263e-07
-1.14504e-05 9.54409e-05 2.79647e-07
3.08263e-07 2.79647e-07 2.93285e-05
0.00113116 -1.21566e-05 -1.13604e-07
-1.21566e-05 4.99406e-05 2.77977e-07
-1.13604e-07 2.77977e-07 -1.35807e-05
0.0010131 2.60867e-06 -3.42448e-07
2.60867e-06 -6.98544e-06 -2.45632e-07
-3.42448e-07 -2.45632e-07 -5.58836e-05
0.00115722 7.22318e-06 -7.09794e-07
7.22318e-06 6.64484e-05 -3.89473e-07
-7.09794e-07 -3.89473e-07 1.05094e-05
0.00124356 -4.47045e-06 8.04623e-07
-4.47045e-06 3.61613e-05 -9.5559e-07
8.04623e-07 -9.5559e-07 -1.10225e-05
0.00114049 7.65256e-06 5.25295e-07
7.65256e-06 -1.00598e-05 8.27021e-07
5.25295e-07 8.27021e-07 -5.49399e-05
0.00120489 8.28338e-06 -3.82036e-07
8.28338e-06 8.81576e-05 -3.66268e-08
-3.82036e-07 -3.66268e-08 2.84571e-05
0.00119722 1.03755e-05 -2.4257e-07
1.03755e-05 9.08474e-05 -5.4606e-07
-2.4257e-07 -5.4606e-07 2.96661e-05
0.0014578 1.5483e-05 9.10596e-08
1.5483e-05 0.000175094 7.52869e-07
9.10596e-08 7.52869e-07 0.000112458
0.00114002 1.29842e-05 -4.55114e-09
1.29842e-05 5.45343e-05 -1.33753e-07
-4.55114e-09 -1.33753e-07 -1.58787e-05
0.00115249 8.3818e-06 -1.74884e-07
8.3818e-06 6.42316e-05 -2.8259e-07
-1.74884e-07 -2.8259e-07 8.55238e-06
0.00104779 -1.19027e-05 -3.85578e-07
-1.19027e-05 -2.82605e-06 6.59715e-07
-3.85578e-07 6.59715e-07 -5.39492e-05
0.00117613 9.71576e-06 1.08355e-07
9.71576e-06 7.57722e-05 2.47503e-07
1.08355e-07 2.47503e-07 1.43391e-05
0.00112581 1.11261e-05 9.08074e-08
1.11261e-05 5.03592e-05 -3.40786e-09
9.08074e-08 -3.40786e-09 -1.51191e-05
0.00134526 2.52302e-06 4.04778e-07
2.52302e-06 6.6772e-05 -2.78846e-07
4.04778e-07 -2.78846e-07 3.00816e-05
0.00137486 1.50023e-05 3.99282e-07
1.50023e-05 0.000107912 -2.99075e-07
3.99282e-07 -2.99075e-07 4.90671e-05
0.00127758 1.45686e-05 1.69746e-07
1.45686e-05 0.000117177 3.30364e-07
1.69746e-07 3.30364e-07 4.46892e-05
0.00119359 9.06241e-06 1.04624e-07
9.06241e-06 8.62887e-05 2.25199e-08
1.04624e-07 2.25199e-08 2.50769e-05
0.00140971 -7.1054e-06 -8.10172e-07
-7.1054e-06 0.000121571 -2.36893e-06
-8.10172e-07 -2.36893e-06 8.51478e-05
0.00130049 1.10848e-05 8.4961e-09
1.10848e-05 0.000130696 -1.50156e-07
8.4961e-09 -1.50156e-07 6.60104e-05
0.001345 1.39993e-05 -4.10567e-07
1.39993e-05 0.000152427 3.0741e-07
-4.10567e-07 3.0741e-07 8.12625e-05
0.00113527 1.4467e-05 1.88296e-06
1.4467e-05 -5.78627e-05 -1.52138e-06
1.88296e-06 -1.52138e-06 -0.000108026
0.00105691 1.55183e-05 2.23996e-07
1.55183e-05 1.26801e-06 4.61024e-09
2.23996e-07 4.61024e-09 -7.26805e-05
0.0012371 -1.5923e-05 -4.29736e-06
-1.5923e-05 -0.000236897 -4.48263e-06
-4.29736e-06 -4.48263e-06 -0.000250198
0.00115025 5.64657e-06 -2.47025e-07
5.64657e-06 6.28997e-05 -3.23387e-07
-2.47025e-07 -3.23387e-07 8.22531e-06
0.00115119 8.39289e-06 -3.6699e-08
8.39289e-06 6.53662e-05 -6.0828e-08
-3.6699e-08 -6.0828e-08 5.86135e-06
0.00120897 8.86607e-06 -5.26823e-09
8.86607e-06 9.1147e-05 -3.29601e-07
-5.26823e-09 -3.29601e-07 2.90303e-05
0.00109282 -1.16422e-06 -2.22515e-07
-1.16422e-06 2.60688e-05 -8.92691e-07
-2.22515e-07 -8.92691e-07 -1.07639e-05
0.00101632 -1.02219e-06 -1.33431e-07
-1.02219e-06 -6.93327e-06 -2.14627e-07
-1.33431e-07 -2.14627e-07 -5.40986e-05
0.0012251 3.56204e-06 -1.10178e-07
3.56204e-06 9.74688e-05 -5.56879e-08
-1.10178e-07 -5.56879e-08 4.42766e-05
0.00110208 5.58154e-06 -2.35549e-07
5.58154e-06 3.86455e-05 -3.5526e-07
-2.35549e-07 -3.5526e-07 -2.06189e-05
0.00108966 -1.40206e-06 3.89872e-08
-1.40206e-06 2.44824e-05 -1.35216e-09
3.89872e-08 -1.35216e-09 -1.30219e-05
0.00106485 9.47131e-07 3.80437e-08
9.47131e-07 1.69434e-05 1.14691e-08
3.80437e-08 1.14691e-08 -3.06452e-05
0.00114896 8.41547e-06 -1.18956e-07
8.41547e-06 6.03296e-05 -2.71049e-07
-1.18956e-07 -2.71049e-07 -9.22698e-07
0.00115443 3.69193e-06 -1.11885e-08
3.69193e-06 6.21629e-05 -2.39246e-08
-1.11885e-08 -2.39246e-08 8.67559e-06
0.00115731 2.14617e-06 4.30477e-08
2.14617e-06 6.40037e-05 -7.46511e-09
4.30477e-08 -7.46511e-09 5.16476e-06
0.0011373 5.76992e-06 4.9594e-08
5.76992e-06 5.23011e-05 -1.09546e-08
4.9594e-08 -1.09546e-08 -9.85192e-06
0.0011978 6.37114e-06 8.26758e-08
6.37114e-06 8.35263e-05 -1.24907e-07
8.26758e-08 -1.24907e-07 2.51974e-05
0.00122813 6.53593e-06 1.09893e-07
6.53593e-06 9.72323e-05 4.86522e-08
1.09893e-07 4.86522e-08 4.3512e-05
0.000999033 -1.00697e-06 1.13349e-07
-1.00697e-06 -1.40371e-05 4.67593e-07
1.13349e-07 4.67593e-07 -6.30741e-05
0.000923741 -6.35874e-08 5.74869e-09
-6.35874e-08 -5.51394e-05 1.25736e-06
5.74869e-09 1.25736e-06 -9.4142e-05
0.00126318 3.85287e-07 -1.02785e-07
3.85287e-07 0.000114139 1.25139e-07
-1.02785e-07 1.25139e-07 6.62113e-05
0.000939187 1.57766e-06 -2.35294e-07
1.57766e-06 -4.70205e-05 1.22503e-06
-2.35294e-07 1.22503e-06 -8.60807e-05
0.00105352 8.57765e-07 -1.28679e-07
8.57765e-07 1.0504e-06 1.64759e-06
-1.28679e-07 1.64759e-06 -2.01682e-05
0.0010543 -1.03728e-07 3.44678e-08
-1.03728e-07 1.18019e-06 2.35788e-09
3.44678e-08 2.35788e-09 -1.97862e-05
0.000996881 -1.66856e-07 5.6071e-08
-1.66856e-07 -3.57528e-05 2.82053e-06
5.6071e-08 2.82053e-06 -3.09367e-05
0.00105553 -1.00347e-06 -1.28472e-07
-1.00347e-06 2.09982e-06 -1.66065e-06
-1.28472e-07 -1.66065e-06 -1.86242e-05
0.0012621 -1.45444e-06 -1.46039e-07
-1.45444e-06 9.36178e-05 -1.11807e-06
-1.46039e-07 -1.11807e-06 9.97063e-05
0.00224699 -1.84913e-06 7.87026e-07
-1.84913e-06 0.000566893 3.59744e-06
7.87026e-07 3.59744e-06 0.000592652
0.00154755 -2.67033e-06 -8.75089e-07
-2.67033e-06 0.000233574 -3.92692e-06
-8.75089e-07 -3.92692e-06 0.00024072
0.00118169 -3.24971e-06 4.28921e-07
-3.24971e-06 5.20543e-05 2.19012e-06
4.28921e-07 2.19012e-06 7.27001e-05
0.00113215 -4.6605e-06 -6.05166e-07
-4.6605e-06 3.04449e-05 -1.35111e-06
-6.05166e-07 -1.35111e-06 5.11463e-05
0.00104777 1.76756e-06 3.40692e-07
1.76756e-06 -8.75096e-07 -1.70539e-06
3.40692e-07 -1.70539e-06 -1.99362e-05
0.00104926 2.30255e-06 -1.0669e-07
2.30255e-06 1.06241e-06 -1.91648e-08
-1.0669e-07 -1.91648e-08 -1.88298e-05
0.000985693 3.6741e-06 7.72918e-07
3.6741e-06 -3.76595e-05 -2.80031e-06
7.72918e-07 -2.80031e-06 -3.24284e-05
0.00125403 4.8752e-06 -1.13493e-07
4.8752e-06 9.45061e-05 1.52248e-08
-1.13493e-07 1.52248e-08 0.00010029
0.00224943 6.17895e-06 2.44608e-06
6.17895e-06 0.000572794 -3.52849e-06
2.44608e-06 -3.52849e-06 0.000597929
0.000994364 5.91584e-06 -1.46303e-06
5.91584e-06 -2.85256e-05 2.63499e-06
-1.46303e-06 2.63499e-06 -2.46596e-05
0.00223829 7.77105e-06 -1.24238e-07
7.77105e-06 0.000571202 -2.22498e-08
-1.24238e-07 -2.22498e-08 0.000595755
0.00223236 9.26829e-06 -3.5706e-06
9.26829e-06 0.000572819 3.41161e-06
-3.5706e-06 3.41161e-06 0.000596633
0.00118716 -1.05546e-05 6.61002e-07
-1.05546e-05 4.66652e-05 -5.67742e-07
6.61002e-07 -5.67742e-07 -8.10795e-06
0.00113157 -1.35273e-05 6.77517e-07
-1.35273e-05 7.2428e-05 1.18935e-06
6.77517e-07 1.18935e-06 5.12756e-06
0.0011505 2.02923e-06 2.73713e-07
2.02923e-06 8.27549e-05 -4.81764e-07
2.73713e-07 -4.81764e-07 2.29018e-05
0.00111994 3.49451e-07 -3.18384e-07
3.49451e-07 6.71738e-05 -9.25171e-07
-3.18384e-07 -9.25171e-07 4.80246e-06
0.00108217 -1.37937e-05 -2.65065e-08
-1.37937e-05 3.67816e-05 1.39221e-07
-2.65065e-08 1.39221e-07 -2.74024e-05
0.00111663 -1.6066e-05 1.03174e-06
-1.6066e-05 8.53516e-05 2.11825e-07
1.03174e-06 2.11825e-07 3.90503e-05
0.00127229 -3.43502e-06 -1.1928e-06
-3.43502e-06 0.000136348 1.27239e-06
-1.1928e-06 1.27239e-06 7.20512e-05
0.00092618 -2.69907e-05 -4.07011e-06
-2.69907e-05 -7.01384e-05 -3.07324e-06
-4.07011e-06 -3.07324e-06 -8.41954e-05
0.000746036 -7.913e-06 -1.34512e-06
-7.913e-06 -5.59769e-05 1.35957e-07
-1.34512e-06 1.35957e-07 -9.15906e-05
0.00108978 8.20921e-07 -1.58864e-07
8.20921e-07 2.33697e-05 -1.02165e-06
-1.58864e-07 -1.02165e-06 -1.09943e-05
0.00107046 1.20748e-05 -3.01325e-07
1.20748e-05 1.18718e-05 -3.68043e-07
-3.01325e-07 -3.68043e-07 -5.13401e-05
0.00123889 9.88922e-06 6.03757e-07
9.88922e-06 6.2042e-05 7.35118e-07
6.03757e-07 7.35118e-07 -1.70584e-07
0.00120539 7.36917e-07 1.39406e-06
7.36917e-07 3.75501e-05 3.89335e-07
1.39406e-06 3.89335e-07 -1.4409e-05
0.00109305 -1.09136e-05 -1.57781e-07
-1.09136e-05 2.98102e-05 3.3595e-07
-1.57781e-07 3.3595e-07 -2.98489e-05
0.0011672 -1.28766e-05 1.23752e-07
-1.28766e-05 6.20975e-05 2.50283e-07
1.23752e-07 2.50283e-07 -3.20615e-06
0.00112655 -1.1962e-05 -1.00889e-08
-1.1962e-05 1.50851e-05 -1.11267e-06
-1.00889e-08 -1.11267e-06 -4.33267e-05
0.00128411 -8.34437e-06 1.09155e-06
-8.34437e-06 6.51728e-05 -1.12124e-06
1.09155e-06 -1.12124e-06 1.95826e-05
0.00119567 -1.15082e-05 1.47597e-07
-1.15082e-05 7.65878e-05 -2.10694e-07
1.47597e-07 -2.10694e-07 1.61266e-05
0.00113713 -1.12512e-05 -5.49327e-07
-1.12512e-05 4.84233e-05 -3.17518e-07
-5.49327e-07 -3.17518e-07 -1.40912e-05
0.0011 -1.02616e-05 -3.94126e-07
-1.02616e-05 3.29379e-05 -8.09642e-08
-3.94126e-07 -8.09642e-08 -2.96199e-05
0.00105096 2.8232e-06 -7.79968e-07
2.8232e-06 3.26531e-06 1.55999e-06
-7.79968e-07 1.55999e-06 -1.72714e-05
0.001146 -9.35964e-06 -1.06167e-07
-9.35964e-06 5.90683e-05 1.88069e-08
-1.06167e-07 1.88069e-08 1.76382e-06
0.00133313 4.7738e-06 -4.00551e-07
4.7738e-06 0.000146373 4.93915e-07
-4.00551e-07 4.93915e-07 0.00010972
0.00116643 -2.11621e-06 -6.10341e-07
-2.11621e-06 7.03329e-05 7.84309e-07
-6.10341e-07 7.84309e-07 1.94488e-05
0.000933414 1.26188e-06 -5.23345e-07
1.26188e-06 -5.03149e-05 9.36208e-07
-5.23345e-07 9.36208e-07 -8.77793e-05
0.00122785 1.3533e-05 1.27195e-07
1.3533e-05 8.11913e-05 5.34179e-08
1.27195e-07 5.34179e-08 1.02482e-05
0.00100963 1.34461e-06 5.30067e-08
1.34461e-06 -1.42645e-05 -4.31735e-07
5.30067e-08 -4.31735e-07 -5.02948e-05
0.00108818 1.47862e-06 9.25479e-08
1.47862e-06 2.56077e-05 1.24708e-08
9.25479e-08 1.24708e-08 -1.14645e-05
0.00116094 4.1035e-07 -1.47633e-08
4.1035e-07 6.36147e-05 4.07815e-07
-1.47633e-08 4.07815e-07 1.58123e-05
0.00126842 8.52476e-06 3.02229e-07
8.52476e-06 7.22736e-05 1.95505e-07
3.02229e-07 1.95505e-07 1.58414e-05
0.00125818 -5.03731e-06 2.09401e-08
-5.03731e-06 4.36346e-05 -5.30109e-07
2.09401e-08 -5.30109e-07 3.05651e-06
0.00116073 -1.21388e-05 6.38276e-08
-1.21388e-05 6.28516e-05 4.46245e-09
6.38276e-08 4.46245e-09 -9.32735e-08
0.00118688 -1.37673e-05 2.20832e-07
-1.37673e-05 6.71382e-05 1.42514e-07
2.20832e-07 1.42514e-07 1.06188e-06
0.00121411 -1.20327e-05 -2.15871e-07
-1.20327e-05 3.97221e-05 7.51945e-09
-2.15871e-07 7.51945e-09 -1.16151e-05
0.00105233 3.19856e-07 -1.8273e-08
3.19856e-07 1.63311e-05 1.49131e-08
-1.8273e-08 1.49131e-08 -3.47099e-05
0.00121346 -7.76668e-06 1.16417e-07
-7.76668e-06 9.2127e-05 3.12444e-08
1.16417e-07 3.12444e-08 3.42935e-05
0.00114532 -1.21573e-05 -4.74299e-08
-1.21573e-05 5.64547e-05 -8.19926e-08
-4.74299e-08 -8.19926e-08 -7.0489e-06
0.0012013 -1.13142e-05 4.71072e-09
-1.13142e-05 8.34639e-05 6.89733e-09
4.71072e-09 6.89733e-09 1.80228e-05
0.00112541 -1.02493e-05 -2.81459e-07
-1.02493e-05 4.75748e-05 2.65755e-07
-2.81459e-07 2.65755e-07 -1.62938e-05
0.00130549 1.57691e-05 6.86363e-08
1.57691e-05 0.000119586 -5.62748e-07
6.86363e-08 -5.62748e-07 4.44567e-05
0.0012447 2.36888e-06 -2.19788e-06
2.36888e-06 3.72095e-05 -1.3037e-06
-2.19788e-06 -1.3037e-06 -1.58369e-06
0.00128754 -1.11905e-05 -1.32091e-06
-1.11905e-05 4.78615e-05 1.35257e-06
-1.32091e-06 1.35257e-06 5.90829e-06
0.00134311 -1.4979e-05 2.52623e-07
-1.4979e-05 0.000127814 7.02247e-07
2.52623e-07 7.02247e-07 6.50508e-05
0.00112431 -1.31878e-05 -3.76669e-07
-1.31878e-05 5.05569e-05 -8.28531e-08
-3.76669e-07 -8.28531e-08 -1.48376e-05
0.000953162 4.58382e-06 1.00658e-07
4.58382e-06 -3.63112e-05 -6.87166e-07
1.00658e-07 -6.87166e-07 -8.40366e-05
0.000962319 -1.22837e-06 2.92229e-07
-1.22837e-06 -3.06229e-05 -4.34555e-07
2.92229e-07 -4.34555e-07 -8.06133e-05
0.00114816 3.56344e-06 1.05161e-08
3.56344e-06 6.47922e-05 2.15713e-07
1.05161e-08 2.15713e-07 9.17084e-06
0.0011904 -7.89706e-06 3.83397e-07
-7.89706e-06 8.40865e-05 -2.4521e-07
3.83397e-07 -2.4521e-07 2.39041e-05
0.00108689 -9.80963e-06 1.6609e-09
-9.80963e-06 2.92186e-05 2.7614e-07
1.6609e-09 2.7614e-07 -3.36909e-05
0.00123722 -1.15044e-05 6.29165e-07
-1.15044e-05 0.000104012 -1.58032e-07
6.29165e-07 -1.58032e-07 3.50115e-05
0.00114628 -1.27431e-05 2.32966e-07
-1.27431e-05 5.93791e-05 4.79555e-07
2.32966e-07 4.79555e-07 -8.10917e-06
0.00113689 8.31852e-06 -4.29083e-07
8.31852e-06 5.69321e-05 -5.39017e-07
-4.29083e-07 -5.39017e-07 1.23559e-06
0.00112127 9.55374e-06 -1.26859e-07
9.55374e-06 4.93014e-05 2.52286e-07
-1.26859e-07 2.52286e-07 -1.21018e-05
0.000932296 -1.13615e-05 2.46494e-06
-1.13615e-05 -4.80141e-05 1.0366e-06
2.46494e-06 1.0366e-06 -9.59448e-05
0.00103769 1.53528e-06 1.80072e-06
1.53528e-06 -7.13429e-05 -1.92752e-07
1.80072e-06 -1.92752e-07 -0.000109243
0.00163915 1.59617e-05 1.45856e-07
1.59617e-05 0.000229221 7.44924e-07
1.45856e-07 7.44924e-07 0.000170766
0.00107189 1.09058e-05 9.68653e-08
1.09058e-05 2.38785e-05 1.06682e-08
9.68653e-08 1.06682e-08 -4.19683e-05
0.00130402 1.47939e-05 1.28622e-08
1.47939e-05 0.000130161 3.49485e-07
1.28622e-08 3.49485e-07 5.72588e-05
0.00119772 9.06681e-06 1.32906e-08
9.06681e-06 8.83137e-05 1.99981e-08
1.32906e-08 1.99981e-08 2.74127e-05
0.00111022 -6.83436e-06 -9.58462e-07
-6.83436e-06 -1.08921e-05 2.94612e-08
-9.58462e-07 2.94612e-08 -4.59542e-05
0.00120359 1.06683e-05 -2.94766e-08
1.06683e-05 8.51963e-05 4.79814e-08
-2.94766e-08 4.79814e-08 2.04638e-05
0.00122722 1.33895e-05 -5.9248e-08
1.33895e-05 9.84664e-05 1.75032e-07
-5.9248e-08 1.75032e-07 2.71837e-05
0.00136711 1.37489e-05 1.0527e-06
1.37489e-05 5.28932e-05 -8.36768e-07
1.0527e-06 -8.36768e-07 4.90263e-06
0.00118691 1.63043e-05 -1.07274e-07
1.63043e-05 6.25312e-05 6.7636e-07
-1.07274e-07 6.7636e-07 -1.22858e-05
0.00188803 -1.3493e-05 -1.03215e-06
-1.3493e-05 0.000111182 3.20177e-07
-1.03215e-06 3.20177e-07 9.30247e-05
0.00119429 9.38102e-06 -2.09639e-07
9.38102e-06 8.52649e-05 -4.08319e-07
-2.09639e-07 -4.08319e-07 2.10388e-05
0.00100976 1.32624e-05 3.4066e-06
1.32624e-05 -0.000176108 9.1231e-07
3.4066e-06 9.1231e-07 -0.000225023
0.00122572 1.17862e-05 -5.92711e-07
1.17862e-05 0.00010002 -3.3783e-07
-5.92711e-07 -3.3783e-07 3.19894e-05
0.00119878 1.55082e-05 -6.22825e-07
1.55082e-05 9.49611e-05 8.05429e-07
-6.22825e-07 8.05429e-07 1.5253e-05
0.000892604 2.07227e-05 1.24504e-06
2.07227e-05 -0.000125809 -1.0186e-06
1.24504e-06 -1.0186e-06 -0.000203741
0.00523051 1.23292e-05 -2.02315e-05
1.23292e-05 0.00155508 -1.96886e-06
-2.02315e-05 -1.96886e-06 0.00140239
0.00109403 6.26551e-06 2.39441e-05
6.26551e-06 -4.52867e-05 1.09614e-05
2.39441e-05 1.09614e-05 -9.49061e-05
0.00134392 1.25447e-05 -7.00659e-06
1.25447e-05 -0.000185973 -5.84871e-06
-7.00659e-06 -5.84871e-06 -0.000223687
-0.00376119 -4.30907e-05 -3.74104e-05
-4.30907e-05 -0.00167652 -1.82e-05
-3.74104e-05 -1.82e-05 -0.00165696
0.000657335 -3.53542e-05 3.8773e-06
-3.53542e-05 9.99206e-05 2.03171e-06
3.8773e-06 2.03171e-06 0.000179169
0.00114063 8.32993e-06 -1.61618e-07
8.32993e-06 6.08329e-05 -1.07686e-07
-1.61618e-07 -1.07686e-07 1.28012e-06
0.00118556 8.71372e-06 1.06221e-08
8.71372e-06 8.06453e-05 -9.31546e-08
1.06221e-08 -9.31546e-08 1.8625e-05
0.00116206 8.74126e-06 5.97556e-08
8.74126e-06 6.87625e-05 -3.83503e-07
5.97556e-08 -3.83503e-07 5.48117e-06
0.00109461 -1.55873e-06 -7.91568e-08
-1.55873e-06 2.69257e-05 -9.07428e-07
-7.91568e-08 -9.07428e-07 -1.06273e-05
0.00101976 1.8603e-06 -1.51661e-07
1.8603e-06 -4.93813e-06 -4.62381e-07
-1.51661e-07 -4.62381e-07 -5.28313e-05
0.00115496 1.53394e-06 -1.12793e-07
1.53394e-06 6.24013e-05 -3.25129e-07
-1.12793e-07 -3.25129e-07 8.9121e-06
0.00120781 2.72665e-06 -9.59895e-08
2.72665e-06 8.90119e-05 -1.54042e-07
-9.59895e-08 -1.54042e-07 3.05759e-05
0.00112674 8.2723e-06 -3.52412e-07
8.2723e-06 4.97483e-05 -2.11173e-07
-3.52412e-07 -2.11173e-07 -1.1512e-05
0.00114266 6.39184e-06 -4.94227e-08
6.39184e-06 5.57779e-05 -2.68955e-07
-4.94227e-08 -2.68955e-07 1.50856e-06
0.00100786 -1.2449e-07 1.93847e-08
-1.2449e-07 -1.46655e-05 3.51192e-07
1.93847e-08 3.51192e-07 -5.31865e-05
0.00105357 -1.52058e-06 1.86876e-08
-1.52058e-06 1.23833e-05 -7.29513e-09
1.86876e-08 -7.29513e-09 -3.62519e-05
0.00115996 6.37841e-06 -1.04988e-08
6.37841e-06 6.36473e-05 1.19979e-07
-1.04988e-08 1.19979e-07 1.73554e-06
0.00118034 5.92287e-06 -5.25377e-08
5.92287e-06 7.44949e-05 -2.33713e-07
-5.25377e-08 -2.33713e-07 1.60161e-05
0.00118383 8.72953e-06 4.18409e-09
8.72953e-06 7.59253e-05 -2.55872e-07
4.18409e-09 -2.55872e-07 1.75403e-05
0.00118364 6.01103e-06 6.43316e-08
6.01103e-06 7.39278e-05 -1.13659e-07
6.43316e-08 -1.13659e-07 1.18465e-05
0.00108364 5.69014e-06 1.64285e-07
5.69014e-06 2.70823e-05 5.75709e-07
1.64285e-07 5.75709e-07 -2.90848e-05
0.00099725 4.11117e-07 2.19805e-08
4.11117e-07 -1.41725e-05 1.96852e-07
2.19805e-08 1.96852e-07 -6.44348e-05
0.000932926 6.8806e-07 -1.11246e-07
6.8806e-07 -5.03784e-05 1.23006e-06
-1.11246e-07 1.23006e-06 -8.95675e-05
0.00116874 2.21247e-06 -1.06033e-07
2.21247e-06 6.83323e-05 4.10357e-07
-1.06033e-07 4.10357e-07 1.94584e-05
0.00123619 1.75945e-08 -1.011e-07
1.75945e-08 0.00010334 -1.06074e-07
-1.011e-07 -1.06074e-07 4.78408e-05
0.00110704 -3.59463e-06 -2.73361e-07
-3.59463e-06 3.88608e-05 4.72197e-07
-2.73361e-07 4.72197e-07 -1.02543e-05
0.00114011 -6.52889e-07 1.04225e-07
-6.52889e-07 5.45836e-05 -3.53963e-07
1.04225e-07 -3.53963e-07 5.83933e-06
0.00109087 1.68825e-06 -2.99941e-07
1.68825e-06 2.66434e-05 8.60054e-07
-2.99941e-07 8.60054e-07 -1.14e-05
0.000934039 1.61101e-06 -1.9616e-08
1.61101e-06 -4.94705e-05 3.55952e-07
-1.9616e-08 3.55952e-07 -8.85447e-05
0.00105217 1.64923e-06 -3.13524e-07
1.64923e-06 1.1562e-06 1.62001e-06
-3.13524e-07 1.62001e-06 -2.02547e-05
0.00105417 8.53085e-07 4.3824e-08
8.53085e-07 1.34358e-06 2.60488e-09
4.3824e-08 2.60488e-09 -1.98668e-05
0.00102327 1.08524e-06 -3.20009e-07
1.08524e-06 -2.2931e-05 3.93755e-06
-3.20009e-07 3.93755e-06 -1.84016e-05
0.00105604 -1.08407e-07 3.36434e-08
-1.08407e-07 2.02401e-06 -1.65113e-06
3.36434e-08 -1.65113e-06 -1.89534e-05
0.000998853 -1.79013e-07 5.74668e-08
-1.79013e-07 -3.47893e-05 1.30596e-09
5.74668e-08 1.30596e-09 -2.99922e-05
0.00225185 -3.3769e-07 7.36899e-08
-3.3769e-07 0.000568465 3.5996e-06
7.36899e-08 3.5996e-06 0.000594295
0.00102013 -1.42508e-06 -3.05655e-07
-1.42508e-06 -2.37534e-05 -3.94938e-06
-3.05655e-07 -3.94938e-06 -1.90395e-05
0.00171426 -1.78151e-06 2.40613e-08
-1.78151e-06 0.000308494 1.47471e-08
2.40613e-08 1.47471e-08 0.000331789
0.00113512 -3.20736e-06 -3.84721e-07
-3.20736e-06 2.94761e-05 -1.37251e-06
-3.84721e-07 -1.37251e-06 5.03726e-05
0.00104788 1.03052e-06 4.00341e-08
1.03052e-06 -2.06017e-06 -1.70714e-06
4.00341e-08 -1.70714e-06 -2.02032e-05
0.00105156 1.76071e-06 -8.01555e-09
1.76071e-06 9.17047e-07 -3.65907e-09
-8.01555e-09 -3.65907e-09 -1.81602e-05
0.000989785 2.52381e-06 4.93284e-07
2.52381e-06 -3.73113e-05 -2.84498e-06
4.93284e-07 -2.84498e-06 -3.13947e-05
0.00105285 2.29377e-06 -6.69197e-07
2.29377e-06 2.748e-06 1.60902e-06
-6.69197e-07 1.60902e-06 -1.71517e-05
0.00124843 3.71446e-06 1.93298e-08
3.71446e-06 8.95157e-05 -5.38546e-07
1.93298e-08 -5.38546e-07 9.59818e-05
0.00223405 4.65494e-06 1.81851e-06
4.65494e-06 0.000562833 -3.56438e-06
1.81851e-06 -3.56438e-06 0.000588509
0.000985386 4.78644e-06 -1.24492e-06
4.78644e-06 -3.55772e-05 2.69463e-06
-1.24492e-06 2.69463e-06 -3.10717e-05
0.00224679 6.18312e-06 -8.13162e-07
6.18312e-06 0.000572292 1.03647e-06
-8.13162e-07 1.03647e-06 0.000597297
0.0022178 7.81029e-06 -3.11289e-06
7.81029e-06 0.000561798 3.45029e-06
-3.11289e-06 3.45029e-06 0.000586361
0.0011571 -1.37753e-05 3.23909e-07
-1.37753e-05 7.22006e-05 2.90333e-07
3.23909e-07 2.90333e-07 7.90931e-06
0.00113788 -1.43737e-08 -9.30767e-08
-1.43737e-08 7.5468e-05 -7.62461e-07
-9.30767e-08 -7.62461e-07 1.32275e-05
0.000945438 -1.58821e-05 5.82385e-06
-1.58821e-05 2.67448e-05 1.41462e-06
5.82385e-06 1.41462e-06 -1.78419e-05
0.000840261 -2.59632e-05 -1.77958e-06
-2.59632e-05 -0.000102888 -8.73342e-07
-1.77958e-06 -8.73342e-07 -0.000116648
0.00107245 -3.31796e-06 1.51066e-08
-3.31796e-06 4.83083e-05 -1.92536e-07
1.51066e-08 -1.92536e-07 -1.57945e-05
0.000898108 -8.02618e-06 -1.25948e-07
-8.02618e-06 8.58879e-06 -2.18958e-06
-1.25948e-07 -2.18958e-06 -3.31334e-05
0.000881399 1.12073e-05 -9.10118e-07
1.12073e-05 -2.41828e-05 3.02238e-06
-9.10118e-07 3.02238e-06 -9.61197e-05
0.000540049 -8.57292e-06 4.90296e-05
-8.57292e-06 -0.000497461 1.19552e-05
4.90296e-05 1.19552e-05 -0.000573487
0.00105705 -3.9779e-06 -3.78224e-06
-3.9779e-06 0.000184267 3.98148e-06
-3.78224e-06 3.98148e-06 0.000146159
0.001096 -1.24777e-07 8.83497e-08
-1.24777e-07 2.59444e-05 -9.4161e-07
8.83497e-08 -9.4161e-07 -7.44473e-06
0.00109265 8.59314e-07 -1.64495e-07
8.59314e-07 2.47575e-05 -2.20638e-09
-1.64495e-07 -2.20638e-09 -9.65107e-06
0.0010886 4.86973e-06 -2.02175e-07
4.86973e-06 2.81209e-05 -4.1931e-07
-2.02175e-07 -4.1931e-07 -1.75046e-05
0.00108851 -1.62069e-06 9.41112e-09
-1.62069e-06 2.88403e-05 -1.58535e-07
9.41112e-09 -1.58535e-07 -1.43689e-05
0.00115875 1.34349e-05 -5.70076e-07
1.34349e-05 4.23303e-05 1.96791e-07
-5.70076e-07 1.96791e-07 -2.91589e-05
0.00125932 8.35831e-06 1.57688e-06
8.35831e-06 6.93e-05 1.31778e-06
1.57688e-06 1.31778e-06 1.27283e-05
0.00126095 -5.50417e-06 1.47257e-06
-5.50417e-06 4.5036e-05 -4.93295e-07
1.47257e-06 -4.93295e-07 2.81937e-06
0.00117303 -1.21868e-05 2.14646e-07
-1.21868e-05 6.81247e-05 1.58415e-07
2.14646e-07 1.58415e-07 5.28365e-06
0.00107966 -1.33194e-05 5.23886e-07
-1.33194e-05 1.8128e-05 -3.62023e-07
5.23886e-07 -3.62023e-07 -4.7822e-05
0.00115743 -1.18074e-05 8.20584e-08
-1.18074e-05 1.28903e-05 -1.47856e-06
8.20584e-08 -1.47856e-06 -3.81964e-05
0.00115908 -1.21561e-05 -1.25494e-07
-1.21561e-05 6.27543e-05 -2.22298e-07
-1.25494e-07 -2.22298e-07 -7.28438e-07
0.00118098 -1.11917e-05 -3.96034e-07
-1.11917e-05 7.30345e-05 -3.27574e-07
-3.96034e-07 -3.27574e-07 8.26078e-06
0.00118471 -1.04315e-05 -4.34548e-07
-1.04315e-05 7.65969e-05 5.11132e-07
-4.34548e-07 5.11132e-07 1.30379e-05
0.00109304 1.49017e-06 -3.75114e-07
1.49017e-06 2.79813e-05 9.06979e-07
-3.75114e-07 9.06979e-07 -9.11973e-06
0.00119835 -8.07714e-06 -3.78446e-07
-8.07714e-06 8.43627e-05 1.50183e-07
-3.78446e-07 1.50183e-07 2.63146e-05
0.00112532 8.14218e-07 -2.58934e-07
8.14218e-07 5.16193e-05 5.94834e-07
-2.58934e-07 5.94834e-07 1.20777e-06
0.001089 1.3568e-06 -1.41569e-07
1.3568e-06 2.40223e-05 6.08953e-07
-1.41569e-07 6.08953e-07 -1.13575e-05
0.00105515 1.10189e-07 -4.41421e-07
1.10189e-07 1.24729e-05 9.85229e-07
-4.41421e-07 9.85229e-07 -3.62151e-05
0.00128594 1.54105e-05 3.07448e-07
1.54105e-05 0.000107734 9.1271e-07
3.07448e-07 9.1271e-07 3.41694e-05
0.00111225 4.04665e-06 -2.46454e-08
4.04665e-06 4.04313e-05 -2.74927e-07
-2.46454e-08 -2.74927e-07 -6.50762e-06
0.00104477 -3.48479e-06 7.58544e-08
-3.48479e-06 9.07001e-06 -6.49118e-09
7.58544e-08 -6.49118e-09 -4.03888e-05
0.00111107 3.48839e-07 -1.98804e-08
3.48839e-07 4.653e-05 6.41419e-07
-1.98804e-08 6.41419e-07 -8.23997e-06
0.00129248 2.42253e-06 2.2933e-07
2.42253e-06 6.53755e-05 -5.77625e-09
2.2933e-07 -5.77625e-09 2.52176e-05
0.00125254 -1.11527e-05 -3.7872e-07
-1.11527e-05 2.91951e-05 -7.15055e-07
-3.7872e-07 -7.15055e-07 -1.26561e-05
0.0011601 -1.32824e-05 6.90825e-08
-1.32824e-05 6.69913e-05 -1.1666e-07
6.90825e-08 -1.1666e-07 1.51294e-06
0.00122167 -1.43836e-05 1.28639e-07
-1.43836e-05 7.32427e-05 4.12304e-07
1.28639e-07 4.12304e-07 1.08891e-05
0.00121692 -7.79221e-06 3.32358e-08
-7.79221e-06 9.73388e-05 -1.34789e-08
3.32358e-08 -1.34789e-08 3.73519e-05
0.00111103 -1.00632e-05 -3.09984e-07
-1.00632e-05 4.01576e-05 5.14409e-07
-3.09984e-07 5.14409e-07 -2.23518e-05
0.0011565 -1.2797e-05 -8.76084e-08
-1.2797e-05 6.40927e-05 -9.55916e-08
-8.76084e-08 -9.55916e-08 -3.39054e-06
0.00122791 -1.13617e-05 2.32297e-07
-1.13617e-05 9.99289e-05 -1.79821e-07
2.32297e-07 -1.79821e-07 3.11446e-05
0.00126721 1.39578e-05 -1.55527e-06
1.39578e-05 8.40128e-05 -2.83501e-06
-1.55527e-06 -2.83501e-06 2.60098e-05
0.001326 -8.7466e-06 -2.22347e-06
-8.7466e-06 4.9534e-05 -8.3881e-07
-2.22347e-06 -8.3881e-07 2.26483e-05
0.00126283 -1.50863e-05 4.08357e-07
-1.50863e-05 6.10515e-05 2.24016e-06
4.08357e-07 2.24016e-06 3.72005e-06
0.00117157 -1.54164e-05 -2.17513e-07
-1.54164e-05 7.0656e-05 -6.69258e-08
-2.17513e-07 -6.69258e-08 3.52948e-06
0.0010846 2.71857e-06 -5.39052e-08
2.71857e-06 3.53171e-05 -2.90701e-07
-5.39052e-08 -2.90701e-07 -2.26785e-05
0.00108243 -8.50288e-06 1.40866e-07
-8.50288e-06 3.1878e-05 -8.28543e-07
1.40866e-07 -8.28543e-07 -2.73658e-05
0.00113647 -1.02842e-05 1.73912e-07
-1.02842e-05 5.8305e-05 -1.52689e-07
1.73912e-07 -1.52689e-07 -1.00936e-05
0.00120612 -1.24987e-05 4.14348e-07
-1.24987e-05 9.15631e-05 4.65735e-07
4.14348e-07 4.65735e-07 1.80952e-05
-2.11294e-05 1.71118e-06 -3.18231e-05
1.71118e-06 -0.000888008 2.17894e-06
-3.18231e-05 2.17894e-06 -0.000939806
0.00119758 9.04999e-06 -6.12935e-08
9.04999e-06 8.83032e-05 -4.33284e-08
-6.12935e-08 -4.33284e-08 2.77225e-05
0.00111141 1.02689e-05 1.77607e-07
1.02689e-05 4.18981e-05 4.26661e-07
1.77607e-07 4.26661e-07 -2.28856e-05
0.000847589 -6.74685e-06 7.57122e-07
-6.74685e-06 -0.000127246 3.00883e-07
7.57122e-07 3.00883e-07 -0.000160966
0.00158741 1.306e-05 4.66058e-08
1.306e-05 0.000158242 2.51171e-07
4.66058e-08 2.51171e-07 0.00011245
0.00131568 1.70848e-05 -7.17906e-07
1.70848e-05 0.000123152 1.03763e-06
-7.17906e-07 1.03763e-06 4.74739e-05
0.00111677 1.28073e-05 3.31872e-07
1.28073e-05 4.80269e-05 1.80075e-07
3.31872e-07 1.80075e-07 -2.33907e-05
0.00255885 -1.119e-05 3.54981e-06
-1.119e-05 0.00046577 6.40505e-06
3.54981e-06 6.40505e-06 0.000442992
0.00118462 9.29888e-06 -3.75728e-09
9.29888e-06 8.16756e-05 -1.46789e-07
-3.75728e-09 -1.46789e-07 1.76887e-05
0.00138959 1.2374e-05 1.38519e-06
1.2374e-05 4.84269e-06 -1.43806e-07
1.38519e-06 -1.43806e-07 -4.40795e-05
0.00116266 1.14476e-05 -4.96974e-08
1.14476e-05 7.04093e-05 -1.24523e-07
-4.96974e-08 -1.24523e-07 2.68515e-06
0.00114902 1.52111e-05 -3.41087e-07
1.52111e-05 7.04532e-05 2.08763e-07
-3.41087e-07 2.08763e-07 -8.93773e-06
0.00115943 2.05866e-05 2.29496e-07
2.05866e-05 -3.49623e-06 -1.59961e-07
2.29496e-07 -1.59961e-07 -7.8588e-05
-3.16392e-05 9.14286e-06 -1.74028e-06
9.14286e-06 -0.000765895 1.22041e-06
-1.74028e-06 1.22041e-06 -0.000876361
0.00230798 1.30636e-05 4.65232e-06
1.30636e-05 0.000222006 -1.56206e-06
4.65232e-06 -1.56206e-06 0.000123709
0.0019309 1.82369e-05 -1.82674e-06
1.82369e-05 8.54492e-05 -4.6214e-07
-1.82674e-06 -4.6214e-07 4.06221e-05
-0.000432001 -4.36678e-05 -8.5653e-06
-4.36678e-05 -0.000281291 -4.16571e-06
-8.5653e-06 -4.16571e-06 -0.000291056
0.00038354 -3.66455e-05 -4.04779e-06
-3.66455e-05 -4.75669e-05 -7.77345e-07
-4.04779e-06 -7.77345e-07 2.96167e-05
0.00117802 9.60173e-06 -1.71014e-07
9.60173e-06 8.28172e-05 -4.9982e-07
-1.71014e-07 -4.9982e-07 1.77159e-05
0.000163358 -2.41988e-06 -5.80823e-05
-2.41988e-06 -3.99019e-05 -5.47322e-06
-5.80823e-05 -5.47322e-06 -5.75986e-05
0.00108054 -2.45015e-05 1.00627e-05
-2.45015e-05 0.00045917 6.27878e-06
1.00627e-05 6.27878e-06 0.000502076
0.00122011 2.68915e-05 3.35425e-06
2.68915e-05 -3.48727e-05 1.53795e-06
3.35425e-06 1.53795e-06 -0.000116178
0.0012193 1.24794e-05 -7.66574e-07
1.24794e-05 0.000114501 -1.4325e-07
-7.66574e-07 -1.4325e-07 4.13433e-05
0.00126383 1.86496e-05 -1.60069e-06
1.86496e-05 0.00013384 -5.12309e-07
-1.60069e-06 -5.12309e-07 4.14153e-05
0.00196934 2.81281e-05 -1.47689e-05
2.81281e-05 0.000262855 -1.69997e-05
-1.47689e-05 -1.69997e-05 0.000168432
0.00589747 -1.16104e-05 -5.27273e-05
-1.16104e-05 0.00174484 -2.18759e-05
-5.27273e-05 -2.18759e-05 0.00149029
0.00116199 4.1796e-05 2.14273e-05
4.1796e-05 -0.000196209 2.27896e-05
2.14273e-05 2.27896e-05 -0.000367017
-0.000101157 -7.99106e-05 -3.57335e-05
-7.99106e-05 2.64096e-05 -3.05156e-05
-3.57335e-05 -3.05156e-05 3.42071e-05
-0.000302196 -2.02901e-05 9.03925e-06
-2.02901e-05 -0.000469152 7.25611e-07
9.03925e-06 7.25611e-07 -0.000434625
0.00116017 8.552e-06 -7.79378e-08
8.552e-06 6.92292e-05 1.21962e-08
-7.79378e-08 1.21962e-08 7.30578e-06
0.00116624 8.77259e-06 8.01679e-09
8.77259e-06 7.06554e-05 1.93055e-08
8.01679e-09 1.93055e-08 7.33483e-06
0.0011616 8.4058e-06 -5.07473e-08
8.4058e-06 6.89789e-05 -5.11295e-07
-5.07473e-08 -5.11295e-07 5.10657e-06
0.00109134 -1.79442e-07 1.32411e-08
-1.79442e-07 2.55206e-05 -5.59714e-07
1.32411e-08 -5.59714e-07 -1.25194e-05
0.00110844 -2.0148e-06 -6.09731e-08
-2.0148e-06 3.8958e-05 -4.51951e-07
-6.09731e-08 -4.51951e-07 -9.27265e-06
0.00105731 5.76836e-06 -2.42323e-07
5.76836e-06 1.43794e-05 -5.90062e-07
-2.42323e-07 -5.90062e-07 -4.0434e-05
0.00116221 5.21656e-06 -1.5325e-07
5.21656e-06 6.51569e-05 -3.87479e-07
-1.5325e-07 -3.87479e-07 6.53039e-06
0.00118158 6.36557e-06 -7.38876e-08
6.36557e-06 7.4521e-05 2.95709e-07
-7.38876e-08 2.95709e-07 1.28485e-05
0.000929906 1.10831e-06 3.20304e-09
1.10831e-06 -5.18294e-05 3.49006e-07
3.20304e-09 3.49006e-07 -9.10185e-05
0.00115194 8.39352e-06 -1.33684e-07
8.39352e-06 5.99985e-05 -4.19048e-07
-1.33684e-07 -4.19048e-07 1.63114e-06
0.00115388 3.27336e-06 6.77448e-08
3.27336e-06 6.14377e-05 2.88792e-07
6.77448e-08 2.88792e-07 5.91596e-06
0.00107827 4.64722e-07 9.0318e-09
4.64722e-07 2.48829e-05 -2.69024e-07
9.0318e-09 -2.69024e-07 -2.48189e-05
0.00116716 5.62469e-06 3.22692e-08
5.62469e-06 6.57259e-05 1.44244e-07
3.22692e-08 1.44244e-07 3.41831e-06
0.00110859 7.02976e-06 4.06141e-08
7.02976e-06 3.76278e-05 1.19802e-07
4.06141e-08 1.19802e-07 -2.33103e-05
0.00117055 2.28983e-06 1.00664e-08
2.28983e-06 6.63538e-05 -3.60212e-07
1.00664e-08 -3.60212e-07 2.91739e-06
0.00115401 2.06098e-06 2.35957e-08
2.06098e-06 6.2891e-05 2.79681e-07
2.35957e-08 2.79681e-07 5.42117e-06
0.00115933 -3.48649e-07 -5.0322e-08
-3.48649e-07 6.40414e-05 1.15846e-07
-5.0322e-08 1.15846e-07 1.48081e-05
0.00116495 1.51273e-06 1.13425e-08
1.51273e-06 6.66058e-05 -6.38332e-08
1.13425e-08 -6.38332e-08 1.77254e-05
0.00116065 -2.84868e-06 -7.53044e-09
-2.84868e-06 6.66686e-05 -2.70353e-07
-7.53044e-09 -2.70353e-07 1.06168e-05
0.00115891 9.50609e-07 -1.74782e-07
9.50609e-07 6.59192e-05 2.24305e-07
-1.74782e-07 2.24305e-07 9.29797e-06
0.00113334 -4.07378e-06 -1.55658e-07
-4.07378e-06 5.43059e-05 1.86404e-07
-1.55658e-07 1.86404e-07 -2.34216e-06
0.00114732 -4.98362e-06 -3.39723e-08
-4.98362e-06 6.25773e-05 -3.23284e-07
-3.39723e-08 -3.23284e-07 2.1916e-06
0.00111904 -7.2703e-06 -4.82466e-07
-7.2703e-06 4.74787e-05 2.52704e-07
-4.82466e-07 2.52704e-07 -1.05216e-05
0.00110115 -2.70985e-06 -2.91268e-07
-2.70985e-06 3.67304e-05 4.69386e-07
-2.91268e-07 4.69386e-07 -1.30865e-05
0.00111333 -3.94303e-06 5.86228e-09
-3.94303e-06 4.19034e-05 -1.04833e-08
5.86228e-09 -1.04833e-08 -7.24152e-06
0.00108591 8.84942e-07 -4.32111e-07
8.84942e-07 2.47433e-05 8.41569e-07
-4.32111e-07 8.41569e-07 -1.3386e-05
0.001017 -1.9882e-06 3.20669e-07
-1.9882e-06 -4.98654e-06 -8.22582e-07
3.20669e-07 -8.22582e-07 -5.45489e-05
0.00101081 1.50981e-06 4.2192e-08
1.50981e-06 -1.19768e-05 8.79859e-09
4.2192e-08 8.79859e-09 -5.04868e-05
0.0010484 2.25481e-06 -5.06238e-07
2.25481e-06 5.25476e-07 1.58239e-06
-5.06238e-07 1.58239e-06 -2.10512e-05
0.000929176 1.52796e-06 1.96838e-07
1.52796e-06 -5.17832e-05 -5.28169e-07
1.96838e-07 -5.28169e-07 -9.0872e-05
0.00105309 1.63981e-06 4.7392e-08
1.63981e-06 1.55e-06 2.99469e-09
4.7392e-08 2.99469e-09 -1.98469e-05
0.0015576 2.36224e-06 -9.18331e-07
2.36224e-06 0.000237265 3.89894e-06
-9.18331e-07 3.89894e-06 0.000244044
0.00105483 8.48451e-07 2.12494e-07
8.48451e-07 1.64248e-06 -1.63202e-06
2.12494e-07 -1.63202e-06 -1.95595e-05
0.00127804 1.12374e-06 -1.22138e-07
1.12374e-06 0.000100756 5.52867e-07
-1.22138e-07 5.52867e-07 0.000106571
0.00118471 1.13393e-06 -4.62874e-07
1.13393e-06 5.08517e-05 3.49488e-06
-4.62874e-07 3.49488e-06 7.16117e-05
0.00100074 -1.91281e-07 6.77713e-08
-1.91281e-07 -3.38747e-05 -2.81643e-06
6.77713e-08 -2.81643e-06 -2.90956e-05
0.00224918 -2.69524e-07 2.05035e-07
-2.69524e-07 0.000567168 9.66357e-11
2.05035e-07 9.66357e-11 0.000593002
0.00117741 -1.62776e-06 -2.97649e-07
-1.62776e-06 4.82268e-05 -3.50142e-06
-2.97649e-07 -3.50142e-06 6.90613e-05
0.00110272 -1.39797e-06 -4.88311e-08
-1.39797e-06 2.93385e-05 -5.77721e-07
-4.88311e-08 -5.77721e-07 -4.19218e-06
0.00104937 7.06343e-08 1.33527e-08
7.06343e-08 -1.91823e-06 -1.71168e-06
1.33527e-08 -1.71168e-06 -1.94871e-05
0.00105274 1.01801e-06 -9.72573e-08
1.01801e-06 2.9408e-07 -1.14868e-09
-9.72573e-08 -1.14868e-09 -1.78906e-05
0.000992794 1.30774e-06 1.91869e-07
1.30774e-06 -3.68958e-05 -2.84877e-06
1.91869e-07 -2.84877e-06 -3.04086e-05
0.00105523 1.75335e-06 -3.532e-07
1.75335e-06 2.6469e-06 1.69331e-06
-3.532e-07 1.69331e-06 -1.6446e-05
0.000988967 2.49888e-06 3.98745e-08
2.49888e-06 -3.77945e-05 -5.61946e-07
3.98745e-08 -5.61946e-07 -3.18479e-05
0.00221456 3.1095e-06 1.18574e-06
3.1095e-06 0.000551608 -3.58207e-06
1.18574e-06 -3.58207e-06 0.000577754
0.00149356 3.87097e-06 -7.77194e-07
3.87097e-06 0.000208527 1.70254e-06
-7.77194e-07 1.70254e-06 0.000216182
0.00171448 4.56552e-06 -1.85545e-07
4.56552e-06 0.000311515 1.06123e-06
-1.85545e-07 1.06123e-06 0.000334607
0.00120066 5.88484e-06 -3.0468e-06
5.88484e-06 6.5566e-05 5.63063e-06
-3.0468e-06 5.63063e-06 8.55565e-05
0.000703654 -2.47635e-05 9.18742e-07
-2.47635e-05 -0.000158306 1.15202e-06
9.18742e-07 1.15202e-06 -0.000171514
0.000864623 -3.25153e-06 2.30358e-07
-3.25153e-06 -4.32432e-05 -6.22098e-07
2.30358e-07 -6.22098e-07 -0.000107151
0.00104645 -8.03905e-06 1.00023e-07
-8.03905e-06 7.15472e-05 -3.92784e-06
1.00023e-07 -3.92784e-06 2.37155e-05
0.00115225 -1.4357e-05 1.46916e-05
-1.4357e-05 -4.2982e-05 2.26201e-06
1.46916e-05 2.26201e-06 -9.40886e-05
0.000718752 -5.78086e-06 -1.23914e-06
-5.78086e-06 2.91686e-05 8.88002e-07
-1.23914e-06 8.88002e-07 -8.91212e-06
0.000929536 1.07366e-05 -5.98845e-07
1.07366e-05 -1.58688e-05 -3.91462e-07
-5.98845e-07 -3.91462e-07 -9.01347e-05
0.00113255 2.10939e-05 -1.92868e-06
2.10939e-05 0.000149241 3.70706e-06
-1.92868e-06 3.70706e-06 6.79254e-05
0.00119988 -9.90856e-06 3.5525e-05
-9.90856e-06 -4.34751e-05 4.13103e-06
3.5525e-05 4.13103e-06 -0.000130979
0.00430957 1.16231e-05 -5.42679e-05
1.16231e-05 0.000930016 2.51203e-05
-5.42679e-05 2.51203e-05 0.000751101
0.00175242 7.1626e-05 -1.32979e-05
7.1626e-05 0.000858173 8.9194e-06
-1.32979e-05 8.9194e-06 0.000821256
0.000653309 3.54651e-05 3.14001e-06
3.54651e-05 0.000162377 -2.67625e-06
3.14001e-06 -2.67625e-06 0.000225062
0.00095689 1.04228e-07 9.7013e-08
1.04228e-07 -3.46863e-05 -9.05922e-07
9.7013e-08 -9.05922e-07 -7.95736e-05
0.00109522 -5.98246e-08 1.37783e-07
-5.98246e-08 2.55803e-05 7.46639e-09
1.37783e-07 7.46639e-09 -7.84303e-06
0.00109551 8.90516e-07 -1.68658e-07
8.90516e-07 2.61394e-05 1.03832e-06
-1.68658e-07 1.03832e-06 -8.31347e-06
0.00105632 3.80769e-06 5.12658e-08
3.80769e-06 1.27436e-05 1.04425e-08
5.12658e-08 1.04425e-08 -3.30555e-05
0.00118856 8.72462e-06 4.58451e-09
8.72462e-06 8.18698e-05 2.23268e-07
4.58451e-09 2.23268e-07 2.89049e-05
0.00115766 1.73081e-06 3.60466e-08
1.73081e-06 6.43114e-05 1.16851e-07
3.60466e-08 1.16851e-07 1.39558e-05
0.00114432 -2.80585e-07 6.14844e-08
-2.80585e-07 5.74147e-05 -1.09529e-06
6.14844e-08 -1.09529e-06 1.27028e-05
0.00105486 -3.15e-06 8.73744e-08
-3.15e-06 1.30796e-05 3.65122e-07
8.73744e-08 3.65122e-07 -3.06908e-05
0.0012703 1.50387e-05 1.15007e-06
1.50387e-05 9.77902e-05 1.14929e-06
1.15007e-06 1.14929e-06 2.57848e-05
0.00134896 2.48043e-06 3.04673e-06
2.48043e-06 9.79791e-05 7.55482e-07
3.04673e-06 7.55482e-07 5.64068e-05
0.00121388 -1.11005e-05 -1.77702e-07
-1.11005e-05 8.97061e-06 -1.98475e-06
-1.77702e-07 -1.98475e-06 -3.27944e-05
0.0011981 -1.33842e-05 5.24264e-07
-1.33842e-05 8.44693e-05 -1.76879e-07
5.24264e-07 -1.76879e-07 1.89025e-05
0.0011058 -1.38075e-05 3.93111e-07
-1.38075e-05 2.12755e-05 -4.00633e-07
3.93111e-07 -4.00633e-07 -4.06773e-05
0.0011667 -1.28514e-05 -3.87313e-07
-1.28514e-05 6.88424e-05 -4.43169e-07
-3.87313e-07 -4.43169e-07 1.35951e-06
0.00121695 -1.12072e-05 1.00844e-08
-1.12072e-05 9.50513e-05 -2.10677e-07
1.00844e-08 -2.10677e-07 2.64875e-05
0.00113809 -1.03273e-05 -5.44174e-07
-1.03273e-05 5.24899e-05 6.58698e-07
-5.44174e-07 6.58698e-07 -9.62585e-06
0.00112878 -4.13123e-06 -2.77932e-07
-4.13123e-06 4.94752e-05 6.73238e-07
-2.77932e-07 6.73238e-07 5.55912e-07
0.00124508 -7.61589e-06 -1.91447e-07
-7.61589e-06 0.000111297 2.16904e-07
-1.91447e-07 2.16904e-07 5.15109e-05
0.00127317 3.31762e-06 -3.4417e-08
3.31762e-06 0.000118022 2.58178e-07
-3.4417e-08 2.58178e-07 7.18691e-05
0.00107695 -2.84457e-06 -7.64894e-08
-2.84457e-06 2.96853e-05 9.37023e-07
-7.64894e-08 9.37023e-07 -2.42408e-05
0.0013829 1.4195e-05 4.66747e-07
1.4195e-05 0.000139153 2.75863e-07
4.66747e-07 2.75863e-07 8.05116e-05
0.00110252 2.05847e-06 -2.01472e-07
2.05847e-06 4.35354e-05 1.54433e-07
-2.01472e-07 1.54433e-07 -1.42457e-05
0.00114631 -7.94753e-06 5.66262e-08
-7.94753e-06 6.3312e-05 -2.15788e-07
5.66262e-08 -2.15788e-07 4.41552e-06
0.0012856 -8.84386e-06 -1.22186e-06
-8.84386e-06 3.27216e-05 -8.42757e-07
-1.22186e-06 -8.42757e-07 5.30052e-06
0.00117676 -1.48033e-05 7.88431e-07
-1.48033e-05 2.27643e-05 2.3506e-07
7.88431e-07 2.3506e-07 -3.34485e-05
0.00117364 -1.54518e-05 -3.31528e-07
-1.54518e-05 6.90114e-05 -7.88723e-08
-3.31528e-07 -7.88723e-08 1.04095e-06
0.00114467 -1.02261e-05 -3.66674e-08
-1.02261e-05 6.26681e-05 -1.13574e-07
-3.66674e-08 -1.13574e-07 -5.56926e-06
0.00117504 -1.24102e-05 6.43435e-08
-1.24102e-05 7.60423e-05 1.71691e-07
6.43435e-08 1.71691e-07 3.02504e-06
0.00158879 -1.44601e-06 -3.08774e-06
-1.44601e-06 0.000114187 -1.36036e-06
-3.08774e-06 -1.36036e-06 8.91079e-05
0.00144187 -1.84948e-05 3.29463e-07
-1.84948e-05 0.000131021 2.57156e-06
3.29463e-07 2.57156e-06 8.43018e-05
0.000974204 -1.70866e-05 -4.76712e-07
-1.70866e-05 -3.92903e-05 3.73092e-07
-4.76712e-07 3.73092e-07 -0.000107156
0.00123183 -1.69037e-05 -5.56504e-08
-1.69037e-05 9.88679e-05 4.34214e-07
-5.56504e-08 4.34214e-07 2.29626e-05
0.00111561 -5.84282e-06 -8.02869e-09
-5.84282e-06 5.33573e-05 -6.03062e-07
-8.02869e-09 -6.03062e-07 -1.23498e-05
0.00114837 -9.40663e-06 8.48139e-08
-9.40663e-06 6.87725e-05 -4.68605e-07
8.48139e-08 -4.68605e-07 1.47886e-06
0.00130419 -1.13874e-05 1.89486e-07
-1.13874e-05 0.000144608 -9.4911e-08
1.89486e-07 -9.4911e-08 6.86323e-05
-0.00277042 1.66304e-06 -5.80899e-05
1.66304e-06 -0.000916845 -9.21358e-07
-5.80899e-05 -9.21358e-07 -0.000786263
0.0054564 7.21731e-06 -1.1153e-05
7.21731e-06 0.00166306 2.36824e-06
-1.1153e-05 2.36824e-06 0.00156763
0.00117536 9.21766e-06 1.52373e-07
9.21766e-06 7.82708e-05 1.04423e-07
1.52373e-07 1.04423e-07 1.45226e-05
0.00110234 1.11246e-05 4.99211e-07
1.11246e-05 4.20979e-05 8.16394e-08
4.99211e-07 8.16394e-08 -2.5324e-05
0.00176328 1.16152e-05 -2.22221e-06
1.16152e-05 0.000182563 3.30372e-07
-2.22221e-06 3.30372e-07 0.0001337
0.00143186 2.0495e-05 -3.84553e-07
2.0495e-05 0.000121487 1.13058e-06
-3.84553e-07 1.13058e-06 4.92295e-05
0.00109613 1.48929e-05 -5.21112e-08
1.48929e-05 4.44616e-05 -3.83553e-07
-5.21112e-08 -3.83553e-07 -3.46095e-05
0.00554748 1.30931e-05 3.52932e-05
1.30931e-05 0.00136098 1.61587e-05
3.52932e-05 1.61587e-05 0.00117745
0.000695664 4.18799e-07 -1.90213e-05
4.18799e-07 -0.000145009 -1.32526e-05
-1.90213e-05 -1.32526e-05 -0.000191544
0.00258578 2.34606e-05 7.62481e-06
2.34606e-05 0.000388922 8.35144e-06
7.62481e-06 8.35144e-06 0.000336521
0.00143595 -5.66103e-05 1.51017e-05
-5.66103e-05 0.000668503 8.65839e-06
1.51017e-05 8.65839e-06 0.00062387
0.000103975 -3.74177e-05 -5.26108e-06
-3.74177e-05 -0.000196238 -3.19807e-06
-5.26108e-06 -3.19807e-06 -0.00012091
0.00115206 9.45663e-06 8.56139e-08
9.45663e-06 7.06902e-05 -8.86819e-08
8.56139e-08 -8.86819e-08 5.61881e-06
-0.00242616 -5.25251e-06 -1.20006e-05
-5.25251e-06 -0.000719885 -1.05966e-06
-1.20006e-05 -1.05966e-06 -0.000640453
0.000727195 -2.40181e-05 -2.44317e-06
-2.40181e-05 0.000264418 -1.05042e-06
-2.44317e-06 -1.05042e-06 0.000306338
0.00156316 2.73285e-05 1.10967e-06
2.73285e-05 0.000119309 1.1012e-06
1.10967e-06 1.1012e-06 3.86913e-05
0.00112726 1.19439e-05 -1.18392e-07
1.19439e-05 7.10543e-05 -4.54056e-07
-1.18392e-07 -4.54056e-07 -1.47163e-06
0.00102955 1.77776e-05 -6.12885e-08
1.77776e-05 2.95399e-05 1.37518e-07
-6.12885e-08 1.37518e-07 -6.10613e-05
0.00179425 2.92383e-05 -8.00582e-06
2.92383e-05 0.000194522 -9.30639e-06
-8.00582e-06 -9.30639e-06 9.73785e-05
0.00290521 6.6858e-06 7.44923e-06
6.6858e-06 0.000242376 6.88803e-06
7.44923e-06 6.88803e-06 -4.11513e-05
0.000446509 2.95755e-05 -6.0513e-06
2.95755e-05 -0.000253306 -7.27101e-06
-6.0513e-06 -7.27101e-06 -0.000302184
0.00152746 -9.97697e-05 -9.35736e-07
-9.97697e-05 0.000359517 3.23696e-06
-9.35736e-07 3.23696e-06 0.000291889
-0.000755575 -2.38119e-05 2.57699e-07
-2.38119e-05 -0.00076213 -6.02309e-06
2.57699e-07 -6.02309e-06 -0.000707765
0.00116243 9.52186e-06 -3.03015e-07
9.52186e-06 8.36038e-05 -7.14406e-07
-3.03015e-07 -7.14406e-07 1.72716e-05
-2.31635e-05 -1.17035e-05 1.65677e-05
-1.17035e-05 -0.000144972 6.75365e-06
1.65677e-05 6.75365e-06 -0.000136953
0.000769468 -8.06261e-06 1.13958e-05
-8.06261e-06 0.00022413 1.47317e-05
1.13958e-05 1.47317e-05 0.000200735
0.00105424 2.23253e-05 3.16519e-06
2.23253e-05 4.26508e-05 3.36414e-06
3.16519e-06 3.36414e-06 -6.62261e-05
0.0012276 1.27185e-05 -2.80567e-06
1.27185e-05 0.000158113 -5.38187e-07
-2.80567e-06 -5.38187e-07 7.74914e-05
0.00269168 2.64356e-05 -5.3586e-06
2.64356e-05 0.000907857 -4.55781e-06
-5.3586e-06 -4.55781e-06 0.000823462
0.000421038 4.17456e-05 -5.86488e-06
4.17456e-05 -8.06421e-05 -4.77892e-06
-5.86488e-06 -4.77892e-06 -0.000152838
0.00351102 -2.65941e-05 1.39875e-06
-2.65941e-05 0.000445449 1.59846e-06
1.39875e-06 1.59846e-06 0.000100574
0.00211794 -0.000129416 -7.63504e-06
-0.000129416 0.000394243 -2.01477e-05
-7.63504e-06 -2.01477e-05 0.000334407
7.08011e-05 -2.64081e-06 5.24243e-06
-2.64081e-06 -0.000234656 1.30392e-06
5.24243e-06 1.30392e-06 -0.000253534
0.00117072 8.80649e-06 4.84458e-08
8.80649e-06 7.27055e-05 4.95784e-07
4.84458e-08 4.95784e-07 9.34336e-06
0.00116692 8.5484e-06 1.64192e-08
8.5484e-06 7.1443e-05 5.29716e-08
1.64192e-08 5.29716e-08 7.53522e-06
0.00112106 3.6313e-06 1.70778e-07
3.6313e-06 5.17991e-05 -3.30809e-07
1.70778e-07 -3.30809e-07 -1.31648e-05
0.000926806 1.5327e-06 1.13608e-07
1.5327e-06 -5.33207e-05 -5.45057e-07
1.13608e-07 -5.45057e-07 -9.25093e-05
0.00116015 3.97533e-07 -6.46464e-09
3.97533e-07 6.43204e-05 -7.18447e-07
-6.46464e-09 -7.18447e-07 1.51825e-05
0.00122387 6.26333e-07 -5.64723e-08
6.26333e-07 9.56851e-05 2.38266e-08
-5.64723e-08 2.38266e-08 4.08084e-05
0.00112002 8.31731e-06 -3.17131e-07
8.31731e-06 4.40643e-05 -6.61487e-07
-3.17131e-07 -6.61487e-07 -1.42889e-05
0.00115171 5.41969e-06 -6.52509e-09
5.41969e-06 5.80159e-05 3.47596e-07
-6.52509e-09 3.47596e-07 -4.5215e-06
0.00115749 2.30605e-06 2.90686e-08
2.30605e-06 6.31671e-05 -3.39569e-07
2.90686e-08 -3.39569e-07 1.39117e-05
0.00114197 6.55042e-06 6.10595e-09
6.55042e-06 5.3985e-05 1.26153e-07
6.10595e-09 1.26153e-07 -6.49153e-06
0.00115984 2.63414e-06 -5.0395e-08
2.63414e-06 6.57331e-05 9.48867e-08
-5.0395e-08 9.48867e-08 8.25991e-06
0.00117958 2.0564e-06 -3.13911e-08
2.0564e-06 7.08178e-05 6.96294e-08
-3.13911e-08 6.96294e-08 7.22791e-06
0.00116878 5.09049e-07 -1.10086e-07
5.09049e-07 6.81822e-05 -4.24975e-07
-1.10086e-07 -4.24975e-07 3.90817e-06
0.00117212 3.73139e-06 1.05617e-07
3.73139e-06 6.92058e-05 -4.70939e-08
1.05617e-07 -4.70939e-08 6.54907e-06
0.00116325 1.31319e-06 -5.31338e-08
1.31319e-06 6.74463e-05 2.43378e-07
-5.31338e-08 2.43378e-07 1.00362e-05
0.00116108 8.99776e-07 1.4152e-07
8.99776e-07 6.48434e-05 -5.38431e-07
1.4152e-07 -5.38431e-07 1.59563e-05
0.00108509 -6.02651e-06 2.8283e-07
-6.02651e-06 2.99857e-05 -5.61407e-07
2.8283e-07 -5.61407e-07 -2.66218e-05
0.00116397 9.84903e-07 1.4946e-08
9.84903e-07 6.80037e-05 -6.30537e-08
1.4946e-08 -6.30537e-08 1.13598e-05
0.00113507 -4.66428e-06 -1.90613e-08
-4.66428e-06 5.50503e-05 2.10335e-08
-1.90613e-08 2.10335e-08 -1.64824e-06
0.00112927 -6.69509e-06 1.47332e-07
-6.69509e-06 5.38213e-05 -3.56167e-07
1.47332e-07 -3.56167e-07 -6.31062e-06
0.00111714 -4.73966e-06 -2.29427e-07
-4.73966e-06 4.80849e-05 4.6515e-07
-2.29427e-07 4.6515e-07 -9.73164e-06
0.00117494 -3.45517e-06 -1.93303e-07
-3.45517e-06 7.5372e-05 -2.01629e-07
-1.93303e-07 -2.01629e-07 1.35481e-05
0.00106235 -8.50083e-06 5.59561e-08
-8.50083e-06 2.1908e-05 -7.51371e-08
5.59561e-08 -7.51371e-08 -4.03322e-05
0.00113976 -8.70032e-06 -1.41941e-07
-8.70032e-06 5.41007e-05 -5.53468e-07
-1.41941e-07 -5.53468e-07 -7.01161e-06
0.0010694 -9.99769e-06 6.1579e-08
-9.99769e-06 2.37209e-05 -2.95731e-07
6.1579e-08 -2.95731e-07 -3.43884e-05
0.00106515 -8.40886e-06 -3.63446e-07
-8.40886e-06 1.96045e-05 -3.17979e-07
-3.63446e-07 -3.17979e-07 -3.7339e-05
0.00112488 -6.7923e-06 -1.82847e-07
-6.7923e-06 5.00424e-05 2.03689e-07
-1.82847e-07 2.03689e-07 -7.90456e-06
0.00110811 -2.55719e-06 -5.57287e-07
-2.55719e-06 4.02093e-05 7.26277e-07
-5.57287e-07 7.26277e-07 -1.0059e-05
0.00110966 -2.96435e-06 -6.3572e-09
-2.96435e-06 4.07913e-05 -1.76737e-08
-6.3572e-09 -1.76737e-08 -9.0842e-06
0.00108081 8.91586e-07 -5.3611e-07
8.91586e-07 2.30235e-05 8.49505e-07
-5.3611e-07 8.49505e-07 -1.53606e-05
0.00111897 -4.06158e-06 2.76895e-07
-4.06158e-06 4.46321e-05 -4.40812e-07
2.76895e-07 -4.40812e-07 -4.53968e-06
0.00108526 1.03251e-06 3.33848e-08
1.03251e-06 2.44381e-05 -1.03905e-09
3.33848e-08 -1.03905e-09 -1.37079e-05
0.00104325 2.77782e-06 -7.10802e-07
2.77782e-06 -5.27705e-07 1.5334e-06
-7.10802e-07 1.5334e-06 -2.22458e-05
0.000930943 1.37421e-06 3.72995e-07
1.37421e-06 -5.05259e-05 -8.64583e-07
3.72995e-07 -8.64583e-07 -8.95005e-05
0.00105059 2.24759e-06 5.39574e-08
2.24759e-06 1.52141e-06 4.53952e-09
5.39574e-08 4.53952e-09 -2.005e-05
0.00155633 3.56539e-06 -1.43523e-06
3.56539e-06 0.000238339 3.86124e-06
-1.43523e-06 3.86124e-06 0.000244821
0.00105382 1.63068e-06 4.03645e-07
1.63068e-06 1.8539e-06 -1.60313e-06
4.03645e-07 -1.60313e-06 -1.9528e-05
0.00127507 2.39334e-06 -2.24251e-07
2.39334e-06 0.000100336 5.5442e-07
-2.24251e-07 5.5442e-07 0.000105899
0.00113934 2.7969e-06 -3.98733e-07
2.7969e-06 2.98906e-05 1.35969e-06
-3.98733e-07 1.35969e-06 5.06489e-05
0.0010011 1.09422e-06 3.41791e-07
1.09422e-06 -3.3601e-05 -2.80532e-06
3.41791e-07 -2.80532e-06 -2.89937e-05
0.00225811 1.31802e-06 2.02278e-07
1.31802e-06 0.000571495 3.28993e-09
2.02278e-07 3.28993e-09 0.000597253
0.00224666 -2.00972e-07 2.67642e-07
-2.00972e-07 0.000565947 -3.59423e-06
2.67642e-07 -3.59423e-06 0.000591783
0.00131376 -1.26874e-06 -1.27935e-07
-1.26874e-06 0.000132843 -7.44568e-07
-1.27935e-07 -7.44568e-07 9.98296e-05
0.00105765 -8.50932e-07 -2.16131e-07
-8.50932e-07 2.30889e-06 -1.71985e-06
-2.16131e-07 -1.71985e-06 -1.54222e-05
0.00109452 -1.41654e-06 -6.96926e-08
-1.41654e-06 2.54115e-05 3.46052e-07
-6.96926e-08 3.46052e-07 -8.0962e-06
0.000995743 3.97427e-08 -4.07685e-08
3.97427e-08 -3.58301e-05 -2.85567e-06
-4.07685e-08 -2.85567e-06 -2.90993e-05
0.00105269 7.33656e-08 2.87094e-08
7.33656e-08 -2.97644e-07 5.2842e-09
2.87094e-08 5.2842e-09 -1.78974e-05
0.00105789 1.00519e-06 -2.30061e-07
1.00519e-06 2.78857e-06 1.71488e-06
-2.30061e-07 1.71488e-06 -1.54388e-05
0.000997297 1.30396e-06 -7.49164e-08
1.30396e-06 -3.46872e-05 1.6351e-09
-7.49164e-08 1.6351e-09 -2.82453e-05
0.00219858 1.55933e-06 4.7544e-07
1.55933e-06 0.000542847 -3.59518e-06
4.7544e-07 -3.59518e-06 0.000569309
0.0014974 2.64279e-06 -5.01465e-07
2.64279e-06 0.000208721 1.75279e-06
-5.01465e-07 1.75279e-06 0.000217045
0.00169054 3.08754e-06 1.78823e-07
3.08754e-06 0.000297782 4.2744e-09
1.78823e-07 4.2744e-09 0.000321509
0.00122323 4.39163e-06 -2.44421e-06
4.39163e-06 7.33078e-05 5.70628e-06
-2.44421e-06 5.70628e-06 9.38826e-05
-0.00461374 3.45387e-05 -2.9149e-05
3.45387e-05 -0.00200071 1.26222e-05
-2.9149e-05 1.26222e-05 -0.00190972
-0.00149064 3.09412e-05 9.67289e-06
3.09412e-05 -0.00108539 -4.49046e-06
9.67289e-06 -4.49046e-06 -0.00105911
0.000472879 -8.53111e-06 -2.27299e-05
-8.53111e-06 -0.00017714 -5.91662e-06
-2.27299e-05 -5.91662e-06 -0.000223213
0.000371033 -7.06781e-06 1.31766e-06
-7.06781e-06 -0.000129842 -1.05531e-06
1.31766e-06 -1.05531e-06 -0.000167881
0.000990311 1.0322e-05 -1.75202e-06
1.0322e-05 -1.20866e-06 -2.14695e-06
-1.75202e-06 -2.14695e-06 -7.78311e-05
0.000936289 -2.07638e-06 6.44372e-06
-2.07638e-06 0.000158421 1.87506e-08
6.44372e-06 1.87506e-08 0.000107931
0.00121518 2.16129e-05 2.14335e-07
2.16129e-05 0.000160576 1.91943e-06
2.14335e-07 1.91943e-06 8.18793e-05
0.0028603 3.61239e-06 -1.85441e-05
3.61239e-06 0.000502319 7.66438e-06
-1.85441e-05 7.66438e-06 0.000388701
-0.00170452 4.80397e-05 1.52762e-05
4.80397e-05 -0.000611795 -5.84174e-06
1.52762e-05 -5.84174e-06 -0.000586552
0.000342996 3.65706e-05 -2.7235e-06
3.65706e-05 -3.31994e-05 2.81708e-06
-2.7235e-06 2.81708e-06 3.18951e-05
0.00120948 -4.58305e-06 1.14112e-05
-4.58305e-06 0.000197609 -8.3763e-06
1.14112e-05 -8.3763e-06 0.000123886
0.0037071 2.97232e-05 -4.76396e-05
2.97232e-05 0.000857141 2.88539e-05
-4.76396e-05 2.88539e-05 0.00062322
-0.000372021 7.88866e-05 -2.85482e-05
7.88866e-05 -6.47722e-05 3.40302e-05
-2.85482e-05 3.40302e-05 -5.46223e-05
0.00121795 2.29174e-05 6.16694e-06
2.29174e-05 0.000460005 -4.95053e-06
6.16694e-06 -4.95053e-06 0.00050628
0.00104582 1.51832e-06 5.36155e-08
1.51832e-06 1.56236e-05 -8.40031e-07
5.36155e-08 -8.40031e-07 -3.97627e-05
0.00104295 1.22302e-07 1.33715e-08
1.22302e-07 6.62627e-06 -3.43186e-07
1.33715e-08 -3.43186e-07 -3.77869e-05
0.0010942 1.02647e-08 1.97492e-07
1.02647e-08 2.51018e-05 9.95073e-07
1.97492e-07 9.95073e-07 -8.35498e-06
0.00102351 2.93894e-06 -4.16649e-08
2.93894e-06 -2.9017e-06 4.71869e-07
-4.16649e-08 4.71869e-07 -4.8871e-05
0.00114488 8.43767e-06 1.64751e-07
8.43767e-06 6.06767e-05 6.75857e-07
1.64751e-07 6.75857e-07 8.65884e-06
0.00119468 3.07714e-06 8.13481e-08
3.07714e-06 8.43969e-05 -4.01442e-07
8.13481e-08 -4.01442e-07 3.13501e-05
0.00112737 6.79994e-08 4.44363e-08
6.79994e-08 4.9793e-05 7.92502e-07
4.44363e-08 7.92502e-07 -2.75174e-08
0.0011334 2.43589e-07 -4.2796e-08
2.43589e-07 5.37318e-05 -2.40045e-07
-4.2796e-08 -2.40045e-07 6.26621e-06
0.00107549 -9.11791e-07 -3.06519e-08
-9.11791e-07 2.41583e-05 -3.99316e-07
-3.06519e-08 -3.99316e-07 -2.11255e-05
0.00101964 -4.61595e-06 -1.03119e-07
-4.61595e-06 -3.43837e-06 9.48408e-07
-1.03119e-07 9.48408e-07 -4.77655e-05
0.00146795 1.44144e-05 2.64444e-06
1.44144e-05 0.000178994 2.91231e-06
2.64444e-06 2.91231e-06 0.000119848
0.00123114 -8.94688e-06 -4.54635e-08
-8.94688e-06 8.82887e-06 -1.24254e-06
-4.54635e-08 -1.24254e-06 -1.90306e-05
0.00108551 -1.44983e-05 3.67169e-07
-1.44983e-05 -1.79571e-05 -1.38491e-06
3.67169e-07 -1.38491e-06 -7.30232e-05
0.00116079 -1.54234e-05 1.78815e-07
-1.54234e-05 6.04589e-05 -1.17548e-07
1.78815e-07 -1.17548e-07 -8.34794e-06
0.0011431 -1.23232e-05 -2.34802e-07
-1.23232e-05 6.00642e-05 -2.98106e-07
-2.34802e-07 -2.98106e-07 -1.24964e-05
0.0011535 -1.01729e-05 -1.34439e-07
-1.01729e-05 6.73394e-05 -4.79535e-08
-1.34439e-07 -4.79535e-08 -7.39047e-07
0.0012077 -9.00597e-06 9.07317e-08
-9.00597e-06 9.3616e-05 3.09635e-08
9.07317e-08 3.09635e-08 3.50577e-05
0.00111905 1.44734e-06 -7.13218e-08
1.44734e-06 5.1086e-05 6.20935e-07
-7.13218e-08 6.20935e-07 -6.47678e-06
0.00153776 -2.10856e-06 -8.66512e-07
-2.10856e-06 0.000100456 -9.53751e-07
-8.66512e-07 -9.53751e-07 7.19503e-05
0.00109216 -3.0051e-06 8.6464e-09
-3.0051e-06 4.29713e-05 -1.89086e-07
8.6464e-09 -1.89086e-07 -2.33013e-05
0.00110807 -9.29844e-06 6.89494e-08
-9.29844e-06 4.93729e-05 -3.15847e-07
6.89494e-08 -3.15847e-07 -1.86274e-05
0.00123218 -1.72677e-05 1.43368e-07
-1.72677e-05 3.37867e-05 8.05201e-07
1.43368e-07 8.05201e-07 -9.40379e-06
0.00111505 -1.78544e-05 -4.43478e-07
-1.78544e-05 2.10456e-05 -3.31061e-07
-4.43478e-07 -3.31061e-07 -4.85662e-05
0.00117926 -1.6614e-05 -4.81147e-08
-1.6614e-05 7.3488e-05 -6.30414e-08
-4.81147e-08 -6.30414e-08 -2.60521e-06
0.00123707 -1.10703e-05 1.09381e-07
-1.10703e-05 0.000111698 -1.35816e-07
1.09381e-07 -1.35816e-07 3.54423e-05
0.00207968 -2.30717e-05 -1.70705e-06
-2.30717e-05 0.000245655 3.02527e-06
-1.70705e-06 3.02527e-06 0.000226177
0.00115663 -2.11797e-05 4.12237e-07
-2.11797e-05 6.42797e-05 1.05365e-06
4.12237e-07 1.05365e-06 -1.18533e-05
0.00120841 -1.3549e-05 1.52363e-07
-1.3549e-05 9.39973e-05 4.53494e-07
1.52363e-07 4.53494e-07 1.09516e-05
0.00108534 1.41954e-06 -4.86121e-08
1.41954e-06 3.97364e-05 3.42426e-07
-4.86121e-08 3.42426e-07 -2.65367e-05
0.00118247 -5.67479e-06 -8.40117e-08
-5.67479e-06 8.83639e-05 1.2563e-08
-8.40117e-08 1.2563e-08 1.67976e-05
0.00120105 -8.81545e-06 -1.00332e-07
-8.81545e-06 9.60641e-05 2.69755e-07
-1.00332e-07 2.69755e-07 2.09275e-05
0.000771468 -1.95512e-06 1.60136e-05
-1.95512e-06 0.000303972 7.80187e-07
1.60136e-05 7.80187e-07 0.000293279
0.00117506 4.65743e-06 1.21772e-06
4.65743e-06 0.000541543 -4.36471e-06
1.21772e-06 -4.36471e-06 0.000587855
-0.000193501 1.82211e-05 1.58381e-05
1.82211e-05 -0.00099864 5.7187e-06
1.58381e-05 5.7187e-06 -0.00106293
0.00112409 9.29997e-06 3.68788e-07
9.29997e-06 5.76132e-05 3.34219e-07
3.68788e-07 3.34219e-07 -7.42648e-06
0.00104233 1.14478e-05 9.33815e-07
1.14478e-05 3.08877e-05 -3.6235e-07
9.33815e-07 -3.6235e-07 -4.10055e-05
0.00187379 2.77798e-05 -9.64103e-07
2.77798e-05 0.000258629 3.59423e-07
-9.64103e-07 3.59423e-07 0.000178688
0.000803507 1.69321e-05 1.74641e-06
1.69321e-05 -7.06189e-05 2.95352e-07
1.74641e-06 2.95352e-07 -0.000159443
0.00193441 -2.94145e-05 1.79604e-05
-2.94145e-05 0.000968109 4.48231e-06
1.79604e-05 4.48231e-06 0.00100574
4.9636e-05 -1.40464e-05 7.10006e-05
-1.40464e-05 -0.000648877 4.68086e-05
7.10006e-05 4.68086e-05 -0.000811978
0.00238869 3.81878e-05 -5.29275e-05
3.81878e-05 0.000263327 -4.29368e-05
-5.29275e-05 -4.29368e-05 0.000158816
0.00174093 3.09214e-05 2.16062e-06
3.09214e-05 0.000183599 1.69303e-06
2.16062e-06 1.69303e-06 8.30269e-05
-0.00195611 -7.98267e-05 2.92437e-05
-7.98267e-05 -0.00107742 3.46087e-05
2.92437e-05 3.46087e-05 -0.0010663
0.00181196 -2.17514e-05 -1.15267e-05
-2.17514e-05 0.000922214 -7.36695e-06
-1.15267e-05 -7.36695e-06 0.000962974
0.00055666 -3.00825e-05 -1.54495e-05
-3.00825e-05 4.32017e-05 -1.3522e-05
-1.54495e-05 -1.3522e-05 8.97761e-05
0.00114733 9.45513e-06 1.30162e-07
9.45513e-06 7.76017e-05 -1.45282e-07
1.30162e-07 -1.45282e-07 1.11849e-05
0.000636425 -1.16672e-05 6.60978e-06
-1.16672e-05 0.000243713 1.73543e-06
6.60978e-06 1.73543e-06 0.000248165
0.000523005 -8.77351e-06 2.42067e-06
-8.77351e-06 7.65419e-05 3.12924e-06
2.42067e-06 3.12924e-06 5.42475e-05
0.000983682 2.36287e-05 1.69592e-06
2.36287e-05 5.52003e-06 2.11389e-06
1.69592e-06 2.11389e-06 -0.000102449
0.0010689 1.17806e-05 -8.91996e-08
1.17806e-05 8.28283e-05 1.1977e-07
-8.91996e-08 1.1977e-07 2.26077e-06
0.00209305 2.41009e-05 4.84061e-06
2.41009e-05 0.000545071 4.50327e-06
4.84061e-06 4.50327e-06 0.000436442
0.00108915 5.09162e-05 -7.99053e-06
5.09162e-05 -9.50571e-05 -2.53666e-05
-7.99053e-06 -2.53666e-05 -0.000273916
0.00468744 -6.71861e-05 8.52229e-06
-6.71861e-05 0.00104579 2.2336e-06
8.52229e-06 2.2336e-06 0.000721822
-0.000395631 -0.000100444 3.09665e-06
-0.000100444 -0.000476005 1.15997e-05
3.09665e-06 1.15997e-05 -0.00049171
0.000456033 -6.07711e-06 -1.95655e-06
-6.07711e-06 -1.91582e-05 -7.85039e-07
-1.95655e-06 -7.85039e-07 -3.0205e-05
0.000948114 6.15932e-06 -5.62313e-08
6.15932e-06 2.97795e-06 -2.8308e-07
-5.62313e-08 -2.8308e-07 -6.66874e-05
0.00166129 -2.50811e-06 1.22493e-05
-2.50811e-06 0.000793911 6.16416e-06
1.22493e-05 6.16416e-06 0.000738191
0.000823037 7.59727e-06 7.27236e-06
7.59727e-06 0.000199039 3.54528e-06
7.27236e-06 3.54528e-06 0.000143668
0.000671572 6.50251e-06 -2.89008e-07
6.50251e-06 -2.79482e-05 2.55961e-06
-2.89008e-07 2.55961e-06 -0.000112169
-0.000536447 2.94383e-05 1.04109e-05
2.94383e-05 -0.000349668 1.55835e-05
1.04109e-05 1.55835e-05 -0.000455509
0.0059461 -8.8435e-05 -2.42286e-05
-8.8435e-05 0.0014747 -3.12897e-05
-2.42286e-05 -3.12897e-05 0.00114319
6.72134e-05 -7.5395e-05 -5.13774e-08
-7.5395e-05 -0.0008858 -2.74931e-05
-5.13774e-08 -2.74931e-05 -0.000713998
1.5578e-05 2.10495e-06 -1.64934e-06
2.10495e-06 -0.000274095 -1.15637e-06
-1.64934e-06 -1.15637e-06 -0.000313509
0.00116953 8.88281e-06 -3.34598e-08
8.88281e-06 7.25876e-05 5.4321e-07
-3.34598e-08 5.4321e-07 8.65095e-06
0.00118236 3.66935e-06 -1.07029e-07
3.66935e-06 8.06091e-05 2.28638e-07
-1.07029e-07 2.28638e-07 1.56818e-05
0.00118478 -2.08279e-06 -2.70192e-07
-2.08279e-06 7.87326e-05 -3.50987e-07
-2.70192e-07 -3.50987e-07 1.21072e-05
0.00115515 5.06279e-06 6.26379e-08
5.06279e-06 6.20708e-05 -7.95099e-07
6.26379e-08 -7.95099e-07 1.27919e-05
0.00116527 3.63581e-06 -1.33119e-08
3.63581e-06 6.83914e-05 -7.54954e-08
-1.33119e-08 -7.54954e-08 1.09122e-05
0.00117542 6.08456e-06 -1.03269e-07
6.08456e-06 7.03662e-05 7.71719e-08
-1.03269e-07 7.71719e-08 1.03508e-05
0.00118832 1.86532e-06 -5.35896e-08
1.86532e-06 7.51259e-05 3.78519e-07
-5.35896e-08 3.78519e-07 1.13864e-05
0.0011624 4.01768e-06 2.25052e-09
4.01768e-06 6.69949e-05 7.53348e-09
2.25052e-09 7.53348e-09 9.56674e-06
0.001189 4.99123e-06 2.72553e-08
4.99123e-06 7.72801e-05 1.66735e-07
2.72553e-08 1.66735e-07 1.45146e-05
0.00115532 3.4157e-07 -1.01403e-07
3.4157e-07 6.19428e-05 4.76706e-09
-1.01403e-07 4.76706e-09 -2.24919e-06
0.00113904 -1.05042e-06 -2.90117e-07
-1.05042e-06 6.21164e-05 -5.11358e-07
-2.90117e-07 -5.11358e-07 -1.43942e-06
0.00115455 3.2985e-06 2.71307e-07
3.2985e-06 6.09768e-05 -4.27966e-07
2.71307e-07 -4.27966e-07 -4.73495e-06
0.00121323 2.66111e-06 -4.44754e-08
2.66111e-06 9.17223e-05 -1.50582e-08
-4.44754e-08 -1.50582e-08 2.87794e-05
0.0011687 9.27497e-07 9.75837e-08
9.27497e-07 6.99402e-05 -3.3914e-07
9.75837e-08 -3.3914e-07 1.32735e-05
0.00113741 -4.88547e-06 1.80439e-07
-4.88547e-06 5.60842e-05 -2.5349e-07
1.80439e-07 -2.5349e-07 -6.63176e-07
0.00110874 -8.383e-06 2.36513e-07
-8.383e-06 4.39245e-05 -5.20345e-07
2.36513e-07 -5.20345e-07 -1.59526e-05
0.00118636 -3.26771e-06 6.28891e-08
-3.26771e-06 8.03314e-05 -1.5239e-07
6.28891e-08 -1.5239e-07 1.88488e-05
0.00112591 -3.8725e-06 -4.43865e-08
-3.8725e-06 5.22999e-05 1.46573e-07
-4.43865e-08 1.46573e-07 -5.50723e-06
0.00109379 -8.57115e-06 2.23289e-08
-8.57115e-06 3.66196e-05 -1.42672e-07
2.23289e-08 -1.42672e-07 -2.54076e-05
0.00112734 -8.17426e-06 -3.96975e-07
-8.17426e-06 5.13106e-05 -1.40773e-07
-3.96975e-07 -1.40773e-07 -1.17148e-05
0.00113545 -9.02138e-06 9.04654e-08
-9.02138e-06 6.06677e-05 -2.01177e-07
9.04654e-08 -2.01177e-07 -4.38217e-06
0.00116279 -1.05707e-05 8.42736e-08
-1.05707e-05 6.5362e-05 -4.45724e-07
8.42736e-08 -4.45724e-07 1.59467e-06
0.00114364 -8.62852e-06 -1.65173e-07
-8.62852e-06 5.58096e-05 -4.57383e-08
-1.65173e-07 -4.57383e-08 -5.40955e-06
0.00109587 -1.05941e-05 -7.97265e-08
-1.05941e-05 3.3386e-05 -1.57827e-08
-7.97265e-08 -1.57827e-08 -2.71526e-05
0.00113851 -1.1024e-05 -2.8795e-07
-1.1024e-05 5.42979e-05 5.4821e-07
-2.8795e-07 5.4821e-07 -5.49747e-06
0.0012122 -8.47617e-06 -1.77583e-07
-8.47617e-06 9.0102e-05 -4.20347e-07
-1.77583e-07 -4.20347e-07 3.66874e-05
0.00109066 -1.01918e-05 2.53638e-07
-1.01918e-05 3.38983e-05 -5.11691e-07
2.53638e-07 -5.11691e-07 -2.3521e-05
0.00113531 -8.55348e-06 1.85863e-07
-8.55348e-06 5.34005e-05 -1.6953e-07
1.85863e-07 -1.6953e-07 -3.06178e-06
0.00102043 -2.63024e-06 -5.80438e-07
-2.63024e-06 -2.58555e-06 3.23534e-07
-5.80438e-07 3.23534e-07 -5.28989e-05
0.00113166 -6.43414e-06 8.00723e-08
-6.43414e-06 5.30665e-05 2.0235e-07
8.00723e-08 2.0235e-07 -4.83081e-06
0.00110924 -3.03549e-06 -9.48826e-08
-3.03549e-06 4.07238e-05 2.64382e-07
-9.48826e-08 2.64382e-07 -9.5271e-06
0.00108161 1.86716e-06 -6.66939e-07
1.86716e-06 2.45407e-05 8.60746e-07
-6.66939e-07 8.60746e-07 -1.41505e-05
0.00111949 -3.15043e-06 2.89622e-07
-3.15043e-06 4.54878e-05 -4.90777e-07
2.89622e-07 -4.90777e-07 -4.44959e-06
0.00108402 9.5629e-07 3.14674e-08
9.5629e-07 2.45936e-05 -5.26019e-09
3.14674e-08 -5.26019e-09 -1.38334e-05
0.00103868 3.37417e-06 -9.04262e-07
3.37417e-06 -1.00296e-06 1.48573e-06
-9.04262e-07 1.48573e-06 -2.28397e-05
0.00108499 1.2162e-06 4.92655e-07
1.2162e-06 2.43134e-05 -8.55553e-07
4.92655e-07 -8.55553e-07 -1.3851e-05
0.00104707 2.7708e-06 5.22851e-08
2.7708e-06 1.24142e-06 8.22213e-09
5.22851e-08 8.22213e-09 -2.04867e-05
0.00155436 4.72072e-06 -1.93857e-06
4.72072e-06 0.000239639 3.79529e-06
-1.93857e-06 3.79529e-06 0.000245806
0.0010527 2.24118e-06 6.09796e-07
2.24118e-06 2.47471e-06 -1.56583e-06
6.09796e-07 -1.56583e-06 -1.90912e-05
0.00127195 3.57911e-06 -3.16748e-07
3.57911e-06 0.000100563 5.56646e-07
-3.16748e-07 5.56646e-07 0.000105835
0.00113898 4.29245e-06 -6.12803e-07
4.29245e-06 3.1615e-05 1.34155e-06
-6.12803e-07 1.34155e-06 5.20526e-05
0.000999394 2.32402e-06 6.34901e-07
2.32402e-06 -3.34704e-05 -2.78332e-06
6.34901e-07 -2.78332e-06 -2.91105e-05
0.0017059 2.88574e-06 5.53226e-07
2.88574e-06 0.000304569 -1.10274e-06
5.53226e-07 -1.10274e-06 0.000327727
0.00225133 1.42604e-06 9.04008e-07
1.42604e-06 0.000568437 -3.58953e-06
9.04008e-07 -3.58953e-06 0.000594183
0.00115288 -2.27898e-06 -1.69159e-07
-2.27898e-06 5.79963e-05 -7.72046e-07
-1.69159e-07 -7.72046e-07 2.25096e-05
0.00105693 -1.49891e-06 -3.93943e-07
-1.49891e-06 2.88375e-06 -1.69302e-06
-3.93943e-07 -1.69302e-06 -1.53359e-05
0.00112121 -1.42036e-06 7.14495e-08
-1.42036e-06 4.0188e-05 1.92564e-07
7.14495e-08 1.92564e-07 6.06886e-06
0.000999703 -1.17088e-06 -3.61597e-07
-1.17088e-06 -3.36355e-05 -2.84454e-06
-3.61597e-07 -2.84454e-06 -2.70333e-05
0.00105271 -8.55074e-07 -7.91812e-08
-8.55074e-07 -9.22208e-08 2.34424e-10
-7.91812e-08 2.34424e-10 -1.77816e-05
0.00108697 -1.45011e-06 -8.90253e-08
-1.45011e-06 2.18094e-05 1.33299e-06
-8.90253e-08 1.33299e-06 -1.16792e-05
0.00219092 -1.38484e-08 -1.75197e-07
-1.38484e-08 0.000538852 -3.60543e-06
-1.75197e-07 -3.60543e-06 0.000565419
0.000996715 4.42518e-08 -4.44813e-08
4.42518e-08 -3.5344e-05 -6.82033e-10
-4.44813e-08 -6.82033e-10 -2.86275e-05
0.00105557 7.6626e-08 4.64852e-08
7.6626e-08 1.11115e-06 1.72318e-06
4.64852e-08 1.72318e-06 -1.65175e-05
0.00100175 1.30054e-06 -3.48032e-07
1.30054e-06 -3.25083e-05 2.84828e-06
-3.48032e-07 2.84828e-06 -2.61107e-05
0.00219552 1.60214e-06 -2.28212e-07
1.60214e-06 0.000541487 -3.84066e-09
-2.28212e-07 -3.84066e-09 0.000567925
0.00221027 3.12757e-06 -1.54877e-06
3.12757e-06 0.000549746 3.57825e-06
-1.54877e-06 3.57825e-06 0.000575852
-0.0014063 1.90281e-05 1.25211e-05
1.90281e-05 -0.00101764 -3.62705e-06
1.25211e-05 -3.62705e-06 -0.0010232
-0.00120833 2.35701e-05 2.29809e-05
2.35701e-05 -0.000368738 -5.92848e-06
2.29809e-05 -5.92848e-06 -0.000316142
0.000393324 8.16991e-06 1.74439e-05
8.16991e-06 -4.3551e-06 -7.83809e-06
1.74439e-05 -7.83809e-06 -2.37516e-05
-0.0010278 3.30358e-05 -4.32888e-06
3.30358e-05 -0.000806595 9.99083e-07
-4.32888e-06 9.99083e-07 -0.000774869
-0.000285 1.52834e-06 -1.86951e-05
1.52834e-06 -0.000709081 -3.6165e-06
-1.86951e-05 -3.6165e-06 -0.000787699
0.00119974 2.16646e-05 2.43977e-06
2.16646e-05 0.00012917 3.10933e-07
2.43977e-06 3.10933e-07 5.30532e-05
0.000892835 -2.01585e-06 8.20874e-06
-2.01585e-06 -7.56383e-05 -2.09769e-06
8.20874e-06 -2.09769e-06 -0.000158857
0.00147723 5.56079e-05 6.35656e-05
5.56079e-05 0.000708962 -3.15465e-05
6.35656e-05 -3.15465e-05 0.00066933
0.000107064 3.72415e-05 -6.72723e-06
3.72415e-05 -0.00017923 2.29258e-06
-6.72723e-06 2.29258e-06 -0.000112391
0.00121811 9.2888e-07 -7.16819e-07
9.2888e-07 6.96007e-05 2.47451e-07
-7.16819e-07 2.47451e-07 -5.10957e-06
0.00169896 1.89517e-06 -2.11987e-06
1.89517e-06 -0.000119854 1.44842e-06
-2.11987e-06 1.44842e-06 -0.000371297
0.00177324 0.000102998 1.51822e-07
0.000102998 0.000520731 2.86551e-06
1.51822e-07 2.86551e-06 0.000457448
0.000540129 1.71354e-05 -3.20231e-06
1.71354e-05 4.03845e-05 -6.63833e-08
-3.20231e-06 -6.63833e-08 0.000101817
0.000242499 -2.81185e-05 5.41725e-06
-2.81185e-05 -0.000316132 -5.37812e-06
5.41725e-06 -5.37812e-06 -0.000387197
0.00197469 4.1362e-05 -1.35263e-06
4.1362e-05 -0.000193646 9.98518e-06
-1.35263e-06 9.98518e-06 -0.000623629
-0.000270896 0.00010323 -9.42332e-06
0.00010323 -0.000455537 4.2527e-05
-9.42332e-06 4.2527e-05 -0.000460992
6.87442e-05 9.63733e-07 1.09076e-05
9.63733e-07 -0.0002266 5.92939e-08
1.09076e-05 5.92939e-08 -0.000241411
0.00115148 -2.79221e-06 1.73744e-08
-2.79221e-06 6.79449e-05 -5.02255e-07
1.73744e-08 -5.02255e-07 7.23432e-06
0.00112553 2.6471e-06 -1.46914e-07
2.6471e-06 5.31849e-05 -1.65491e-07
-1.46914e-07 -1.65491e-07 -1.28029e-06
0.00112962 1.30882e-07 1.41022e-07
1.30882e-07 4.82624e-05 2.67194e-07
1.41022e-07 2.67194e-07 4.31803e-06
0.00110189 8.16353e-06 5.55832e-08
8.16353e-06 3.98431e-05 9.60579e-07
5.55832e-08 9.60579e-07 -1.12339e-05
0.00110044 3.77431e-06 -8.23519e-08
3.77431e-06 3.90139e-05 -1.07941e-07
-8.23519e-08 -1.07941e-07 -1.77032e-05
0.00121596 2.91191e-06 3.07544e-09
2.91191e-06 9.39468e-05 3.043e-07
3.07544e-09 3.043e-07 4.14581e-05
0.00109828 -5.94691e-07 -1.24794e-07
-5.94691e-07 3.58458e-05 1.48402e-06
-1.24794e-07 1.48402e-06 -1.34439e-05
0.00124382 3.65836e-06 -2.25979e-07
3.65836e-06 0.000107634 -4.37168e-07
-2.25979e-07 -4.37168e-07 5.9493e-05
0.00120258 1.53177e-06 4.52508e-08
1.53177e-06 8.68186e-05 3.55188e-07
4.52508e-08 3.55188e-07 3.99187e-05
0.00100743 -1.1225e-06 -9.61803e-09
-1.1225e-06 -8.7296e-06 2.62648e-07
-9.61803e-09 2.62648e-07 -5.45933e-05
0.00155027 -2.87943e-06 4.83677e-07
-2.87943e-06 0.000117204 9.80699e-07
4.83677e-07 9.80699e-07 8.50262e-05
0.00101672 -1.59922e-05 -3.01284e-07
-1.59922e-05 -6.62578e-05 -7.95287e-07
-3.01284e-07 -7.95287e-07 -0.000105924
0.00128349 -1.87445e-05 -7.8991e-08
-1.87445e-05 9.38751e-05 -1.58397e-07
-7.8991e-08 -1.58397e-07 2.25125e-05
0.00113126 -1.63384e-05 -6.29247e-07
-1.63384e-05 5.0243e-05 -2.40365e-07
-6.29247e-07 -2.40365e-07 -2.60325e-05
0.00117095 -1.07505e-05 1.5662e-07
-1.07505e-05 7.93589e-05 -2.58876e-07
1.5662e-07 -2.58876e-07 2.81114e-06
0.00106621 -9.18398e-06 4.45736e-08
-9.18398e-06 2.92623e-05 -2.55004e-07
4.45736e-08 -2.55004e-07 -3.9445e-05
0.00106885 -5.08668e-07 -1.13158e-07
-5.08668e-07 3.26654e-05 8.77444e-08
-1.13158e-07 8.77444e-08 -3.41767e-05
0.00110986 -3.70843e-06 7.64801e-08
-3.70843e-06 5.17919e-05 5.18947e-07
7.64801e-08 5.18947e-07 -1.47345e-05
0.00157005 -2.23586e-05 3.03874e-08
-2.23586e-05 3.19894e-05 4.57377e-08
3.03874e-08 4.57377e-08 8.65648e-06
0.00118007 -3.43358e-06 3.11183e-08
-3.43358e-06 8.79451e-05 -1.86426e-07
3.11183e-08 -1.86426e-07 1.65183e-05
0.00125162 -9.64032e-06 -1.37208e-09
-9.64032e-06 0.000120298 9.73944e-09
-1.37208e-09 9.73944e-09 4.48309e-05
0.00117132 -2.06056e-05 2.99748e-07
-2.06056e-05 6.92226e-05 3.35089e-07
2.99748e-07 3.35089e-07 -5.43834e-06
0.00120239 -1.29149e-05 2.89052e-07
-1.29149e-05 9.02468e-05 -2.70037e-07
2.89052e-07 -2.70037e-07 7.34962e-06
0.00227103 -3.37192e-05 -3.1747e-06
-3.37192e-05 0.000412515 6.90272e-06
-3.1747e-06 6.90272e-06 0.000361743
0.00102569 -1.10468e-05 -6.54594e-07
-1.10468e-05 4.84755e-05 -1.96848e-07
-6.54594e-07 -1.96848e-07 -3.99763e-05
0.00112956 -7.64396e-06 -9.13476e-07
-7.64396e-06 5.84638e-05 1.14379e-06
-9.13476e-07 1.14379e-06 -2.2934e-05
0.00113915 2.25814e-06 -7.09285e-08
2.25814e-06 6.60912e-05 2.01025e-07
-7.09285e-08 2.01025e-07 -3.83804e-06
0.00114725 -1.21213e-06 -5.27357e-08
-1.21213e-06 6.85875e-05 4.33807e-07
-5.27357e-08 4.33807e-07 -6.69077e-06
0.00139724 -3.55901e-07 5.45798e-06
-3.55901e-07 0.000631235 1.12558e-06
5.45798e-06 1.12558e-06 0.000557564
-0.000226055 -2.50194e-07 2.29536e-06
-2.50194e-07 -0.00029285 -2.47819e-07
2.29536e-06 -2.47819e-07 -0.000308831
-0.00474724 5.49918e-07 5.8125e-05
5.49918e-07 -0.0021037 -3.2175e-07
5.8125e-05 -3.2175e-07 -0.00198025
0.00113107 9.38646e-06 5.21714e-07
9.38646e-06 7.11859e-05 3.9717e-07
5.21714e-07 3.9717e-07 4.67028e-06
0.000906249 1.08267e-05 1.218e-06
1.08267e-05 5.59938e-06 -5.3032e-07
1.218e-06 -5.3032e-07 -7.49051e-05
0.000923979 2.50448e-05 1.83974e-06
2.50448e-05 -2.65378e-05 -9.37944e-08
1.83974e-06 -9.37944e-08 -0.000133302
-0.00102546 -1.13619e-05 -6.73043e-06
-1.13619e-05 -0.000771622 -2.74022e-06
-6.73043e-06 -2.74022e-06 -0.000776231
0.0018234 -3.9015e-05 2.28326e-05
-3.9015e-05 -0.000362664 2.21353e-05
2.28326e-05 2.21353e-05 -0.000720875
0.00033345 3.86209e-05 -1.48129e-05
3.86209e-05 -0.000149235 -1.9522e-05
-1.48129e-05 -1.9522e-05 -0.000215779
0.00141365 2.16123e-05 2.03661e-05
2.16123e-05 0.000140705 5.97352e-06
2.03661e-05 5.97352e-06 7.54619e-06
0.00290872 -0.000121987 3.28029e-05
-0.000121987 0.000805455 5.00612e-05
3.28029e-05 5.00612e-05 0.000729765
0.000260315 -9.55281e-06 -1.51637e-05
-9.55281e-06 -7.97347e-05 -8.8685e-06
-1.51637e-05 -8.8685e-06 -0.000100804
-4.59551e-05 -4.19993e-06 -1.00139e-05
-4.19993e-06 -0.000320403 -3.01807e-06
-1.00139e-05 -3.01807e-06 -0.000340382
0.00105461 7.92916e-06 5.61618e-07
7.92916e-06 5.28621e-05 8.38247e-08
5.61618e-07 8.38247e-08 -1.60955e-05
0.00117235 -1.66111e-06 2.06242e-06
-1.66111e-06 0.000488561 1.28958e-06
2.06242e-06 1.28958e-06 0.000426446
0.000587305 8.00281e-06 5.32662e-07
8.00281e-06 4.99414e-05 -4.64193e-07
5.32662e-07 -4.64193e-07 -6.52963e-06
0.000870706 8.67381e-06 2.34031e-06
8.67381e-06 5.12981e-05 3.15302e-07
2.34031e-06 3.15302e-07 -3.85939e-05
0.000800543 3.05683e-05 -4.0873e-06
3.05683e-05 0.000176184 -5.4033e-07
-4.0873e-06 -5.4033e-07 3.41033e-05
0.00377304 -5.5979e-05 4.02404e-06
-5.5979e-05 0.000345939 3.45812e-06
4.02404e-06 3.45812e-06 -1.09314e-05
0.000540509 3.53854e-06 -1.12263e-06
3.53854e-06 5.77515e-05 2.46358e-06
-1.12263e-06 2.46358e-06 1.4727e-05
0.00276759 -9.2065e-05 3.08977e-06
-9.2065e-05 0.000414967 1.46693e-06
3.08977e-06 1.46693e-06 0.000475068
0.000734542 -3.75814e-06 -8.16401e-07
-3.75814e-06 -9.73104e-05 -1.90497e-06
-8.16401e-07 -1.90497e-06 -0.000167465
0.000763913 7.80883e-06 2.633e-06
7.80883e-06 0.00013052 2.16309e-06
2.633e-06 2.16309e-06 4.70582e-05
0.000440025 3.49578e-06 -1.84947e-06
3.49578e-06 -6.36173e-05 2.66582e-06
-1.84947e-06 2.66582e-06 -0.000118782
-2.06527e-05 1.21819e-06 -1.17423e-05
1.21819e-06 -0.000291198 9.02744e-07
-1.17423e-05 9.02744e-07 -0.000294363
0.000304994 2.43482e-06 -5.43803e-06
2.43482e-06 -0.000161977 -1.97466e-06
-5.43803e-06 -1.97466e-06 -0.000245021
0.00538223 -2.79124e-05 -2.44093e-05
-2.79124e-05 0.00124728 -1.2354e-05
-2.44093e-05 -1.2354e-05 0.000862254
0.00120499 1.20661e-05 3.40543e-06
1.20661e-05 -0.000712524 -1.30361e-05
3.40543e-06 -1.30361e-05 -0.000452526
0.00124944 3.30722e-06 5.47511e-08
3.30722e-06 0.000112223 6.02946e-07
5.47511e-08 6.02946e-07 4.73175e-05
0.00118294 -3.72056e-06 -1.11925e-08
-3.72056e-06 7.99028e-05 -2.11863e-07
-1.11925e-08 -2.11863e-07 1.33311e-05
0.00115183 -3.8987e-06 -1.00964e-06
-3.8987e-06 7.0844e-05 -3.43009e-07
-1.00964e-06 -3.43009e-07 5.70596e-06
0.00116189 6.7644e-06 -2.59291e-08
6.7644e-06 6.66911e-05 -2.32427e-07
-2.59291e-08 -2.32427e-07 9.24594e-06
0.00120396 6.251e-06 6.76814e-10
6.251e-06 8.44366e-05 3.50681e-07
6.76814e-10 3.50681e-07 2.15667e-05
0.00116071 -1.11798e-07 -5.24201e-08
-1.11798e-07 6.4862e-05 4.86811e-07
-5.24201e-08 4.86811e-07 6.90163e-07
0.00121235 2.1752e-06 -1.41328e-08
2.1752e-06 9.12384e-05 -1.98518e-08
-1.41328e-08 -1.98518e-08 2.84368e-05
0.00116262 3.70144e-06 7.46165e-08
3.70144e-06 6.54941e-05 -2.02429e-08
7.46165e-08 -2.02429e-08 -4.62604e-07
0.00115106 3.77677e-07 2.64008e-07
3.77677e-07 6.6598e-05 3.78321e-07
2.64008e-07 3.78321e-07 3.10639e-06
0.00113074 3.67231e-06 2.00259e-07
3.67231e-06 6.32559e-05 -1.01901e-06
2.00259e-07 -1.01901e-06 -6.91143e-07
0.00114043 -3.00464e-06 -2.02846e-07
-3.00464e-06 6.16991e-05 -1.80743e-07
-2.02846e-07 -1.80743e-07 -5.28677e-06
0.00120053 -3.35807e-06 1.16317e-07
-3.35807e-06 8.66138e-05 -2.16248e-07
1.16317e-07 -2.16248e-07 2.54637e-05
0.00113249 -3.00418e-06 3.04255e-08
-3.00418e-06 5.54675e-05 2.55373e-09
3.04255e-08 2.55373e-09 -2.32427e-06
0.0011261 -8.64425e-06 4.09485e-08
-8.64425e-06 5.17285e-05 2.12149e-08
4.09485e-08 2.12149e-08 -1.00854e-05
0.00114743 -9.05794e-06 8.9191e-08
-9.05794e-06 6.54686e-05 -6.40135e-08
8.9191e-08 -6.40135e-08 5.60769e-07
0.00109334 -7.60808e-06 -1.6252e-07
-7.60808e-06 3.53164e-05 1.95075e-07
-1.6252e-07 1.95075e-07 -2.76881e-05
0.00117934 -1.04724e-05 -1.66677e-07
-1.04724e-05 8.17663e-05 5.64147e-08
-1.66677e-07 5.64147e-08 1.51254e-05
0.00114614 -1.05257e-05 1.45959e-07
-1.05257e-05 5.81881e-05 -2.97781e-07
1.45959e-07 -2.97781e-07 -4.47124e-06
0.00106199 -1.16815e-05 2.56752e-07
-1.16815e-05 1.84138e-05 4.72758e-09
2.56752e-07 4.72758e-09 -4.88982e-05
0.0011541 -8.52115e-06 2.20212e-07
-8.52115e-06 6.04639e-05 2.22503e-07
2.20212e-07 2.22503e-07 -8.52926e-07
0.00117764 -1.08963e-05 5.42342e-08
-1.08963e-05 7.14276e-05 2.59727e-07
5.42342e-08 2.59727e-07 1.09521e-05
0.00110711 -1.18228e-05 1.16644e-07
-1.18228e-05 3.75227e-05 3.01065e-07
1.16644e-07 3.01065e-07 -2.68478e-05
0.00111905 -1.05626e-05 -2.95279e-07
-1.05626e-05 4.95314e-05 -6.49208e-08
-2.95279e-07 -6.49208e-08 -1.0771e-05
0.0011315 -8.08754e-06 -5.31731e-07
-8.08754e-06 5.34857e-05 2.34527e-07
-5.31731e-07 2.34527e-07 -3.12551e-07
0.00109636 -1.0816e-05 -1.59226e-07
-1.0816e-05 3.52813e-05 1.6059e-07
-1.59226e-07 1.6059e-07 -2.46178e-05
0.00111357 -2.94256e-06 -5.51791e-07
-2.94256e-06 4.15041e-05 2.25873e-07
-5.51791e-07 2.25873e-07 -6.90797e-06
0.00117353 -8.60561e-06 5.8039e-08
-8.60561e-06 7.11317e-05 -2.00094e-07
5.8039e-08 -2.00094e-07 1.72766e-05
0.00111135 -1.03244e-05 2.15186e-07
-1.03244e-05 4.38327e-05 -5.59509e-07
2.15186e-07 -5.59509e-07 -1.2898e-05
0.00120785 -8.68219e-06 6.74263e-07
-8.68219e-06 8.82925e-05 -1.7026e-07
6.74263e-07 -1.7026e-07 3.23113e-05
0.0010632 -2.98964e-06 2.81982e-08
-2.98964e-06 1.78894e-05 -1.82961e-08
2.81982e-08 -1.82961e-08 -3.20941e-05
0.00108099 2.54135e-06 -8.03173e-07
2.54135e-06 2.49662e-05 8.13287e-07
-8.03173e-07 8.13287e-07 -1.36592e-05
0.00110862 -3.41341e-06 3.71284e-07
-3.41341e-06 4.04252e-05 -1.82334e-07
3.71284e-07 -1.82334e-07 -9.80688e-06
0.0010816 2.18181e-06 3.53867e-08
2.18181e-06 2.45743e-05 7.13176e-09
3.53867e-08 7.13176e-09 -1.41223e-05
0.00103525 4.10785e-06 -1.07088e-06
4.10785e-06 -5.35456e-07 1.45146e-06
-1.07088e-06 1.45146e-06 -2.25604e-05
0.00108725 8.54102e-07 5.98256e-07
8.54102e-07 2.61674e-05 -8.74201e-07
5.98256e-07 -8.74201e-07 -1.23018e-05
0.00104328 3.37161e-06 4.26253e-08
3.37161e-06 1.13769e-06 8.78308e-09
4.26253e-08 8.78308e-09 -2.07181e-05
0.00151846 5.90726e-06 -1.93068e-06
5.90726e-06 0.000225067 2.62454e-06
-1.93068e-06 2.62454e-06 0.000231123
0.0010508 2.76389e-06 8.16029e-07
2.76389e-06 2.96898e-06 -1.52529e-06
8.16029e-07 -1.52529e-06 -1.87692e-05
0.00126751 4.71654e-06 -3.99432e-07
4.71654e-06 0.000100711 5.58254e-07
-3.99432e-07 5.58254e-07 0.000105698
0.00113606 5.74983e-06 -8.19748e-07
5.74983e-06 3.27884e-05 1.30999e-06
-8.19748e-07 1.30999e-06 5.28677e-05
0.000997072 3.49147e-06 9.42745e-07
3.49147e-06 -3.2882e-05 -2.74402e-06
9.42745e-07 -2.74402e-06 -2.88197e-05
0.00171009 4.43223e-06 7.51495e-07
4.43223e-06 0.000308408 -1.09608e-06
7.51495e-07 -1.09608e-06 0.000331241
0.00225497 3.02887e-06 1.54363e-06
3.02887e-06 0.000571322 -3.57528e-06
1.54363e-06 -3.57528e-06 0.000596857
0.000918578 -1.89446e-06 -4.17537e-07
-1.89446e-06 -5.37068e-05 -1.2836e-06
-4.17537e-07 -1.2836e-06 -9.21775e-05
0.000832631 -2.36219e-06 -5.97859e-07
-2.36219e-06 -0.000103688 -2.1834e-06
-5.97859e-07 -2.1834e-06 -0.000124292
0.00115555 -2.2021e-06 4.97731e-08
-2.2021e-06 5.92092e-05 1.59486e-07
4.97731e-08 1.59486e-07 2.36872e-05
0.00100173 -2.3489e-06 -6.44305e-07
-2.3489e-06 -3.17821e-05 -2.8036e-06
-6.44305e-07 -2.8036e-06 -2.55612e-05
0.000938019 -1.51236e-06 -3.05078e-08
-1.51236e-06 -5.45226e-05 4.74496e-09
-3.05078e-08 4.74496e-09 -7.34555e-05
0.000927008 -1.55547e-06 1.94694e-07
-1.55547e-06 -5.3246e-05 1.13051e-06
1.94694e-07 1.13051e-06 -8.84676e-05
0.00218701 -1.55874e-06 -9.11166e-07
-1.55874e-06 0.000537359 -3.58904e-06
-9.11166e-07 -3.58904e-06 0.00056386
0.000996204 -1.17317e-06 -8.49429e-08
-1.17317e-06 -3.53446e-05 3.77668e-09
-8.49429e-08 3.77668e-09 -2.87122e-05
0.00104783 -8.59033e-07 6.08565e-08
-8.59033e-07 -2.46535e-06 1.69627e-06
6.08565e-08 1.69627e-06 -2.01128e-05
0.00219153 3.60204e-08 -1.97611e-07
3.60204e-08 0.000539153 9.99954e-10
-1.97611e-07 9.99954e-10 0.000565713
0.000997458 4.88598e-08 -5.71061e-08
4.88598e-08 -3.4978e-05 2.86526e-06
-5.71061e-08 2.86526e-06 -2.82737e-05
0.00219274 1.64473e-06 -8.82014e-07
1.64473e-06 0.000540272 3.60134e-06
-8.82014e-07 3.60134e-06 0.000566683
0.000753673 2.45331e-06 9.88182e-06
2.45331e-06 0.000222122 -4.47404e-06
9.88182e-06 -4.47404e-06 0.000159576
0.000834528 1.83054e-05 -1.8451e-06
1.83054e-05 0.000338309 1.24249e-06
-1.8451e-06 1.24249e-06 0.000338632
0.000495145 2.90241e-05 8.08384e-05
2.90241e-05 0.000126061 -1.41268e-05
8.08384e-05 -1.41268e-05 0.000131326
0.00110588 4.44026e-06 -4.30819e-07
4.44026e-06 3.81151e-05 -4.1294e-07
-4.30819e-07 -4.1294e-07 -1.18295e-05
0.000359387 -7.76826e-06 6.60926e-06
-7.76826e-06 -0.000100011 -8.79033e-06
6.60926e-06 -8.79033e-06 -0.000149033
0.000660905 8.58488e-06 3.33674e-06
8.58488e-06 0.000164148 -7.28704e-07
3.33674e-06 -7.28704e-07 0.000145643
0.000953589 3.33088e-05 -1.67412e-05
3.33088e-05 0.000373047 1.19539e-05
-1.67412e-05 1.19539e-05 0.000408757
0.00170047 -7.02126e-06 -1.32993e-05
-7.02126e-06 0.000156984 1.05146e-06
-1.32993e-05 1.05146e-06 6.77814e-05
0.00507941 1.91765e-05 1.25552e-05
1.91765e-05 0.00147314 -3.9928e-06
1.25552e-05 -3.9928e-06 0.00116902
-0.0017586 8.34013e-05 3.46797e-05
8.34013e-05 -0.000928252 -3.09742e-05
3.46797e-05 -3.09742e-05 -0.000913468
0.00182582 1.55512e-05 -1.16589e-05
1.55512e-05 0.000847922 2.84001e-06
-1.16589e-05 2.84001e-06 0.00089329
0.00200491 -4.24947e-05 -1.30499e-05
-4.24947e-05 0.000185147 3.42685e-06
-1.30499e-05 3.42685e-06 5.8299e-05
0.00456509 7.10917e-05 9.68137e-06
7.10917e-05 0.00106007 -1.57879e-05
9.68137e-06 -1.57879e-05 0.000682145
-0.000544538 0.000109066 3.34018e-06
0.000109066 -0.000903182 6.36321e-06
3.34018e-06 6.36321e-06 -0.00092992
0.000893742 4.28685e-06 1.35647e-06
4.28685e-06 0.000271471 -2.13472e-06
1.35647e-06 -2.13472e-06 0.000266583
0.00108338 -5.68778e-05 2.32924e-05
-5.68778e-05 -0.000199968 -2.84746e-05
2.32924e-05 -2.84746e-05 -0.000382304
0.004875 8.37962e-05 -3.84365e-06
8.37962e-05 0.000594619 -2.10065e-05
-3.84365e-06 -2.10065e-05 9.59415e-05
0.00140536 8.70835e-05 6.4178e-06
8.70835e-05 -0.000511072 3.13303e-05
6.4178e-06 3.13303e-05 -0.000424607
0.000134049 -1.52562e-06 2.53369e-06
-1.52562e-06 -0.000193723 2.29116e-06
2.53369e-06 2.29116e-06 -0.000241781
0.00112873 -2.23183e-06 -2.72218e-07
-2.23183e-06 5.37065e-05 -3.4007e-07
-2.72218e-07 -3.4007e-07 -1.07939e-05
0.00113951 -3.60751e-06 1.1528e-08
-3.60751e-06 6.21585e-05 3.61802e-08
1.1528e-08 3.61802e-08 8.82684e-07
0.00120518 3.93533e-06 6.79505e-10
3.93533e-06 9.06839e-05 5.3249e-07
6.79505e-10 5.3249e-07 3.71457e-05
0.00110504 5.21786e-06 -4.21699e-07
5.21786e-06 4.11424e-05 -6.8751e-07
-4.21699e-07 -6.8751e-07 -1.62479e-05
0.00117234 6.44586e-06 6.38217e-08
6.44586e-06 7.32735e-05 2.78859e-07
6.38217e-08 2.78859e-07 1.72498e-05
0.0012367 1.55037e-06 1.5799e-07
1.55037e-06 0.000103269 1.10151e-06
1.5799e-07 1.10151e-06 5.1336e-05
0.00126129 3.429e-06 -5.18468e-08
3.429e-06 0.000115528 4.21057e-08
-5.18468e-08 4.21057e-08 6.75925e-05
0.0012717 3.70279e-06 2.16192e-07
3.70279e-06 0.000119862 9.79507e-07
2.16192e-07 9.79507e-07 7.35376e-05
0.00105981 -2.16667e-05 -2.43881e-07
-2.16667e-05 -0.000181629 -7.15963e-07
-2.43881e-07 -7.15963e-07 -0.000208742
0.00120658 -2.01358e-05 5.35442e-08
-2.01358e-05 8.42148e-05 -4.23492e-07
5.35442e-08 -4.23492e-07 1.09548e-05
0.00113543 -8.67348e-06 2.80789e-07
-8.67348e-06 6.43291e-05 4.2073e-07
2.80789e-07 4.2073e-07 -2.44939e-06
0.00120567 -1.21351e-05 3.07672e-07
-1.21351e-05 9.09573e-05 -5.67788e-07
3.07672e-07 -5.67788e-07 8.18953e-06
0.00130559 -1.03685e-05 1.10757e-07
-1.03685e-05 0.000146085 -2.07874e-08
1.10757e-07 -2.07874e-08 7.02892e-05
0.00117901 -8.03868e-07 -7.80107e-08
-8.03868e-07 8.81039e-05 -4.07092e-07
-7.80107e-08 -4.07092e-07 1.68203e-05
0.00113544 1.21952e-06 -1.00482e-08
1.21952e-06 6.43864e-05 1.35501e-08
-1.00482e-08 1.35501e-08 -5.66898e-06
0.00136862 -3.04618e-05 9.09572e-07
-3.04618e-05 2.64679e-06 1.42001e-07
9.09572e-07 1.42001e-07 -4.90594e-05
0.00117882 -2.8872e-06 2.16851e-08
-2.8872e-06 8.32678e-05 -2.27732e-08
2.16851e-08 -2.27732e-08 7.90038e-06
0.00119715 -7.31369e-06 -4.70128e-08
-7.31369e-06 9.02558e-05 9.57204e-08
-4.70128e-08 9.57204e-08 8.39528e-06
0.00111474 -1.20046e-05 -2.39001e-07
-1.20046e-05 8.82417e-05 -3.30443e-08
-2.39001e-07 -3.30443e-08 -1.28881e-07
0.00110093 1.13626e-06 -1.39672e-08
1.13626e-06 4.50691e-05 4.41765e-07
-1.39672e-08 4.41765e-07 -2.52893e-05
0.00191175 -2.44153e-05 -5.77543e-06
-2.44153e-05 0.000390034 1.07603e-05
-5.77543e-06 1.07603e-05 0.000304503
0.00112695 1.64746e-06 -1.96586e-06
1.64746e-06 0.000104387 1.09097e-07
-1.96586e-06 1.09097e-07 1.77329e-05
0.00114757 -3.87585e-06 -1.77662e-07
-3.87585e-06 6.3467e-05 1.06334e-06
-1.77662e-07 1.06334e-06 -1.32549e-05
0.00119067 1.19162e-06 1.41598e-07
1.19162e-06 8.7665e-05 3.37527e-07
1.41598e-07 3.37527e-07 1.19636e-05
0.00118362 8.97824e-07 1.13034e-06
8.97824e-07 0.000392519 3.65113e-07
1.13034e-06 3.65113e-07 0.000300337
0.00119146 3.49705e-07 -4.51618e-06
3.49705e-07 0.000500191 3.64811e-07
-4.51618e-06 3.64811e-07 0.00042692
-0.00126045 1.247e-06 -1.24676e-05
1.247e-06 -0.000912981 -3.11041e-07
-1.24676e-05 -3.11041e-07 -0.000933674
0.00114948 9.5786e-06 4.75523e-08
9.5786e-06 9.69911e-05 1.32364e-07
4.75523e-08 1.32364e-07 2.87843e-05
0.0010749 1.02667e-05 1.63686e-06
1.02667e-05 0.00013344 2.34854e-06
1.63686e-06 2.34854e-06 3.79602e-05
0.000645576 -6.97344e-07 -1.25191e-05
-6.97344e-07 0.000159315 -3.52758e-06
-1.25191e-05 -3.52758e-06 9.08684e-05
0.00340715 -9.53561e-05 5.49961e-06
-9.53561e-05 0.000266456 4.81166e-06
5.49961e-06 4.81166e-06 -0.000127591
0.00218058 4.68626e-05 2.22412e-07
4.68626e-05 0.000568237 -2.06989e-05
2.22412e-07 -2.06989e-05 0.000385649
0.00147995 -8.51778e-05 -5.24448e-06
-8.51778e-05 -0.000623433 4.12314e-05
-5.24448e-06 4.12314e-05 -0.000423127
0.000346526 8.42823e-06 -5.613e-06
8.42823e-06 -0.000102845 -4.92517e-06
-5.613e-06 -4.92517e-06 -0.000160411
0.00107225 4.82086e-06 1.87752e-06
4.82086e-06 0.000392214 1.99107e-06
1.87752e-06 1.99107e-06 0.000346026
0.00109681 -1.18978e-06 -4.18825e-07
-1.18978e-06 7.71801e-05 -5.36948e-07
-4.18825e-07 -5.36948e-07 7.08804e-06
0.000609837 7.74315e-06 4.2545e-07
7.74315e-06 3.59689e-05 6.54406e-07
4.2545e-07 6.54406e-07 -4.84552e-05
0.000642678 3.11213e-06 -1.76583e-06
3.11213e-06 5.60998e-05 3.77866e-07
-1.76583e-06 3.77866e-07 -2.82462e-06
0.000602066 -3.65237e-06 4.00681e-07
-3.65237e-06 -1.58854e-05 -1.74333e-06
4.00681e-07 -1.74333e-06 -8.5822e-05
0.0009404 4.16993e-06 -1.30731e-06
4.16993e-06 0.00029385 2.38131e-06
-1.30731e-06 2.38131e-06 0.000298969
0.00311929 -6.85109e-06 -1.2694e-06
-6.85109e-06 6.41877e-05 1.15931e-05
-1.2694e-06 1.15931e-05 -0.000172111
0.00376425 2.34992e-05 9.05064e-06
2.34992e-05 0.000176639 9.88517e-07
9.05064e-06 9.88517e-07 0.000592502
0.00110832 -9.65041e-06 -1.66249e-06
-9.65041e-06 5.07598e-05 -2.35896e-06
-1.66249e-06 -2.35896e-06 -2.91717e-06
0.000671721 2.69843e-06 1.36526e-07
2.69843e-06 3.78271e-05 1.58965e-06
1.36526e-07 1.58965e-06 -3.31967e-05
0.000374256 -6.65581e-06 -6.89923e-06
-6.65581e-06 -0.000100368 9.55662e-06
-6.89923e-06 9.55662e-06 -0.000143559
0.00127338 2.13555e-05 -5.95453e-06
2.13555e-05 0.000488167 5.75702e-06
-5.95453e-06 5.75702e-06 0.000542831
0.00169453 9.14964e-05 -3.62035e-06
9.14964e-05 -0.000365774 -3.04732e-05
-3.62035e-06 -3.04732e-05 -0.000230445
0.000968231 6.02306e-06 -1.62998e-06
6.02306e-06 0.000366208 -6.55688e-06
-1.62998e-06 -6.55688e-06 0.000272971
0.00404338 9.70433e-06 1.99062e-06
9.70433e-06 0.000562149 4.85196e-06
1.99062e-06 4.85196e-06 5.97388e-05
0.00116463 -4.78601e-06 6.10885e-07
-4.78601e-06 7.34414e-05 -2.95824e-07
6.10885e-07 -2.95824e-07 6.93184e-06
0.00108448 -2.6144e-06 4.5508e-07
-2.6144e-06 4.15352e-05 -4.23228e-07
4.5508e-07 -4.23228e-07 -2.41088e-05
0.00102319 7.625e-06 3.02656e-07
7.625e-06 2.5677e-05 -1.71065e-06
3.02656e-07 -1.71065e-06 -3.75066e-05
0.00121181 1.9404e-06 -2.86951e-08
1.9404e-06 9.09037e-05 3.60959e-08
-2.86951e-08 3.60959e-08 2.82467e-05
0.0011632 3.73116e-06 -9.88751e-08
3.73116e-06 6.63463e-05 3.85367e-07
-9.88751e-08 3.85367e-07 1.72648e-07
0.00113755 1.4797e-06 1.28486e-07
1.4797e-06 5.81901e-05 1.0184e-06
1.28486e-07 1.0184e-06 -5.09884e-06
0.00113291 -3.17042e-06 -6.92607e-08
-3.17042e-06 5.77383e-05 1.48468e-07
-6.92607e-08 1.48468e-07 -9.20423e-06
0.00113743 2.40808e-06 -3.27493e-07
2.40808e-06 6.57609e-05 4.26555e-07
-3.27493e-07 4.26555e-07 2.35516e-06
0.00117477 -6.0971e-06 6.90672e-07
-6.0971e-06 9.11315e-05 -4.44756e-07
6.90672e-07 -4.44756e-07 1.93319e-05
0.00115549 -9.0843e-06 1.68255e-07
-9.0843e-06 6.83636e-05 1.22569e-07
1.68255e-07 1.22569e-07 3.61001e-06
0.0010587 -7.10506e-06 9.82754e-09
-7.10506e-06 1.90973e-05 3.27559e-07
9.82754e-09 3.27559e-07 -4.38953e-05
0.0011869 -1.05758e-05 6.75874e-08
-1.05758e-05 8.42495e-05 1.90045e-07
6.75874e-08 1.90045e-07 1.72828e-05
0.00108811 -1.2367e-05 -8.81183e-09
-1.2367e-05 4.44516e-05 4.27827e-07
-8.81183e-09 4.27827e-07 -2.73855e-05
0.00111539 -1.04131e-05 6.57188e-08
-1.04131e-05 4.4523e-05 1.51645e-07
6.57188e-08 1.51645e-07 -1.70263e-05
0.00107995 -1.16197e-05 1.77927e-07
-1.16197e-05 2.84122e-05 -1.72831e-07
1.77927e-07 -1.72831e-07 -3.84483e-05
0.00119695 -1.33647e-05 2.44759e-07
-1.33647e-05 8.20618e-05 1.13113e-07
2.44759e-07 1.13113e-07 1.18344e-05
0.00118336 -1.26273e-05 -3.39456e-07
-1.26273e-05 7.28061e-05 4.10411e-07
-3.39456e-07 4.10411e-07 6.74166e-06
0.00125309 -1.11992e-05 1.43755e-07
-1.11992e-05 0.000106565 2.13318e-07
1.43755e-07 2.13318e-07 4.61534e-05
0.00113035 -1.19982e-05 -5.61124e-08
-1.19982e-05 4.81859e-05 -1.50701e-08
-5.61124e-08 -1.50701e-08 -1.63814e-05
0.00122969 -1.08588e-05 4.60085e-08
-1.08588e-05 0.000102774 -2.73267e-07
4.60085e-08 -2.73267e-07 4.3581e-05
0.00103774 -5.98463e-06 -3.47221e-07
-5.98463e-06 1.48822e-05 1.42058e-07
-3.47221e-07 1.42058e-07 -4.05237e-05
0.00114297 -1.06291e-05 1.59849e-07
-1.06291e-05 6.07871e-05 -1.78667e-07
1.59849e-07 -1.78667e-07 1.03867e-06
0.00110731 -1.07242e-06 -6.97302e-07
-1.07242e-06 4.09208e-05 1.42108e-07
-6.97302e-07 1.42108e-07 -7.05432e-06
0.00114196 -8.0667e-06 -2.65222e-07
-8.0667e-06 5.82984e-05 2.67929e-07
-2.65222e-07 2.67929e-07 4.41177e-06
0.00105384 -1.06135e-05 -6.73736e-08
-1.06135e-05 1.6078e-05 3.40257e-08
-6.73736e-08 3.40257e-08 -4.39229e-05
0.00107979 2.33702e-06 -9.4926e-07
2.33702e-06 2.46835e-05 7.10567e-07
-9.4926e-07 7.10567e-07 -1.34375e-05
0.00107798 -2.99678e-06 6.37584e-08
-2.99678e-06 2.39533e-05 3.6903e-08
6.37584e-08 3.6903e-08 -2.47013e-05
0.0011338 -8.76121e-06 6.53671e-07
-8.76121e-06 5.16799e-05 -1.89356e-07
6.53671e-07 -1.89356e-07 -2.61714e-06
0.00110445 -3.27078e-06 6.01286e-07
-3.27078e-06 3.76809e-05 -3.33783e-07
6.01286e-07 -3.33783e-07 -1.19742e-05
0.00107837 3.02314e-06 4.81388e-08
3.02314e-06 2.37431e-05 1.30545e-08
4.81388e-08 1.30545e-08 -1.48609e-05
0.00103183 4.75893e-06 -1.22926e-06
4.75893e-06 -1.99863e-07 1.40139e-06
-1.22926e-06 1.40139e-06 -2.23824e-05
0.00108163 2.43171e-06 7.14221e-07
2.43171e-06 2.46177e-05 -8.30942e-07
7.14221e-07 -8.30942e-07 -1.40806e-05
0.00103888 4.11441e-06 3.66506e-08
4.11441e-06 1.17135e-06 7.96203e-09
3.66506e-08 7.96203e-09 -2.08656e-05
0.000968797 6.85128e-06 -1.62956e-06
6.85128e-06 -3.8093e-05 2.54237e-06
-1.62956e-06 2.54237e-06 -3.48579e-05
0.00104774 3.36944e-06 9.95532e-07
3.36944e-06 3.21518e-06 -1.48936e-06
9.95532e-07 -1.48936e-06 -1.86595e-05
0.000978829 5.74207e-06 6.22605e-08
5.74207e-06 -3.64904e-05 1.61447e-08
6.22605e-08 1.61447e-08 -3.29405e-05
0.00222077 7.87661e-06 -1.29161e-06
7.87661e-06 0.0005616 1.38642e-06
-1.29161e-06 1.38642e-06 0.0005863
0.000993629 4.6066e-06 1.2486e-06
4.6066e-06 -3.22835e-05 -2.679e-06
1.2486e-06 -2.679e-06 -2.85055e-05
0.00171069 5.94762e-06 9.21064e-07
5.94762e-06 0.000311228 -1.08505e-06
9.21064e-07 -1.08505e-06 0.000333676
0.00225529 4.60499e-06 2.14819e-06
4.60499e-06 0.000573407 -3.54362e-06
2.14819e-06 -3.54362e-06 0.000598639
0.000913263 -1.3012e-06 -6.84826e-07
-1.3012e-06 -5.68243e-05 -1.23451e-06
-6.84826e-07 -1.23451e-06 -9.61165e-05
0.000820157 -2.94304e-06 -8.08344e-07
-2.94304e-06 -0.000107276 -2.11809e-06
-8.08344e-07 -2.11809e-06 -0.000129352
0.00104076 -2.57203e-06 -6.96791e-08
-2.57203e-06 5.09123e-06 -3.78454e-07
-6.96791e-08 -3.78454e-07 -3.27674e-05
0.00100339 -3.55814e-06 -8.94173e-07
-3.55814e-06 -2.93696e-05 -2.75563e-06
-8.94173e-07 -2.75563e-06 -2.38374e-05
0.000817991 -2.37298e-06 -1.16015e-07
-2.37298e-06 -0.000110421 -5.38583e-07
-1.16015e-07 -5.38583e-07 -0.000131159
0.00115828 -2.1139e-06 3.03332e-07
-2.1139e-06 6.04512e-05 1.08564e-06
3.03332e-07 1.08564e-06 2.48942e-05
0.00218723 -3.11325e-06 -1.55412e-06
-3.11325e-06 0.000538558 -3.55619e-06
-1.55412e-06 -3.55619e-06 0.000564836
0.000995801 -2.35323e-06 -6.15876e-08
-2.35323e-06 -3.46748e-05 6.65968e-09
-6.15876e-08 6.65968e-09 -2.84047e-05
0.000820391 -1.52612e-06 3.18338e-07
-1.52612e-06 -0.000111343 1.69439e-06
3.18338e-07 1.69439e-06 -0.00013099
0.00219369 -1.51812e-06 -2.40058e-07
-1.51812e-06 0.000540492 6.1703e-09
-2.40058e-07 6.1703e-09 0.000566985
0.000992701 -1.17555e-06 1.83411e-07
-1.17555e-06 -3.7062e-05 2.84754e-06
1.83411e-07 2.84754e-06 -3.03983e-05
0.00219222 8.59482e-08 -1.74062e-07
8.59482e-08 0.000539496 3.6012e-06
-1.74062e-07 3.6012e-06 0.00056605
0.000747234 -7.3543e-06 2.22502e-06
-7.3543e-06 0.000121287 -3.07215e-06
2.22502e-06 -3.07215e-06 3.96498e-05
0.000761941 2.46515e-06 -2.05812e-07
2.46515e-06 0.000226211 2.51797e-07
-2.05812e-07 2.51797e-07 0.000164047
0.000563691 1.80786e-05 -1.52774e-05
1.80786e-05 0.000167157 6.71736e-06
-1.52774e-05 6.71736e-06 0.000167913
0.0011424 5.02991e-06 -1.07362e-07
5.02991e-06 5.54201e-05 2.1519e-08
-1.07362e-07 2.1519e-08 5.81763e-06
0.00102808 5.84701e-06 -4.76004e-07
5.84701e-06 -2.81815e-06 -4.51176e-07
-4.76004e-07 -4.51176e-07 -5.28822e-05
0.00120319 5.39124e-06 -5.03507e-08
5.39124e-06 8.66544e-05 2.56298e-07
-5.03507e-08 2.56298e-07 3.01039e-05
0.000421148 -3.67643e-07 -5.45952e-07
-3.67643e-07 -6.79653e-05 -3.44047e-06
-5.45952e-07 -3.44047e-06 -0.000127903
0.000747147 -8.04375e-06 7.39875e-07
-8.04375e-06 0.000145799 -7.36891e-07
7.39875e-07 -7.36891e-07 9.38538e-05
0.000879359 8.92566e-06 -9.93163e-06
8.92566e-06 0.00030287 9.48431e-06
-9.93163e-06 9.48431e-06 0.000285464
0.00211242 -3.15906e-05 -1.59179e-05
-3.15906e-05 0.00053469 1.15587e-05
-1.59179e-05 1.15587e-05 0.000466036
0.00339852 2.20585e-05 3.16316e-05
2.20585e-05 0.000524274 -3.24952e-05
3.16316e-05 -3.24952e-05 0.000100559
0.00287735 0.000130212 7.19713e-06
0.000130212 0.000823185 -2.18971e-05
7.19713e-06 -2.18971e-05 0.000739581
0.00108732 2.14891e-06 -7.06586e-06
2.14891e-06 0.000416446 1.01583e-06
-7.06586e-06 1.01583e-06 0.000405717
0.000615457 -4.07867e-05 -7.92962e-06
-4.07867e-05 -9.57134e-05 7.73303e-06
-7.92962e-06 7.73303e-06 -0.000198649
0.00484935 8.1624e-05 1.25014e-05
8.1624e-05 0.000978357 -2.65846e-05
1.25014e-05 -2.65846e-05 0.000533359
0.00112569 9.49108e-05 3.87881e-06
9.49108e-05 -0.000276921 5.60681e-06
3.87881e-06 5.60681e-06 -0.000273683
0.000563614 4.18017e-07 2.239e-06
4.18017e-07 7.67586e-05 -1.33417e-06
2.239e-06 -1.33417e-06 2.67099e-05
0.000183776 -3.84972e-05 6.93327e-06
-3.84972e-05 -0.000151885 -2.41081e-05
6.93327e-06 -2.41081e-05 -0.00025344
0.00421518 7.11585e-05 5.92824e-07
7.11585e-05 0.000202062 -2.28387e-05
5.92824e-07 -2.28387e-05 4.30363e-05
0.0012058 4.86275e-06 -2.45768e-06
4.86275e-06 -0.000722671 2.09362e-05
-2.45768e-06 2.09362e-05 -0.000513291
0.000124132 -2.27536e-06 -4.88302e-06
-2.27536e-06 -0.000200942 1.70086e-06
-4.88302e-06 1.70086e-06 -0.000217724
0.00114377 5.54693e-06 -4.80501e-07
5.54693e-06 5.99869e-05 -2.99677e-09
-4.80501e-07 -2.99677e-09 -4.86954e-06
0.00112096 -2.26441e-06 1.64794e-08
-2.26441e-06 5.05964e-05 -1.7826e-07
1.64794e-08 -1.7826e-07 -1.38352e-05
0.00112713 -4.48271e-06 1.09535e-07
-4.48271e-06 5.61737e-05 5.10159e-07
1.09535e-07 5.10159e-07 -5.66623e-06
0.00112174 5.39069e-06 -2.14108e-07
5.39069e-06 4.90104e-05 -5.1903e-07
-2.14108e-07 -5.1903e-07 -8.52286e-06
0.00124279 7.867e-06 3.29708e-07
7.867e-06 0.000106822 7.77544e-07
3.29708e-07 7.77544e-07 5.14962e-05
0.00127805 2.99561e-06 1.20151e-07
2.99561e-06 0.00012308 6.15956e-07
1.20151e-07 6.15956e-07 7.53531e-05
0.000413482 -2.69945e-05 2.05613e-06
-2.69945e-05 -0.000432696 -3.42169e-06
2.05613e-06 -3.42169e-06 -0.000485221
0.00119793 -1.14756e-05 3.95406e-07
-1.14756e-05 0.000125427 -5.50766e-07
3.95406e-07 -5.50766e-07 3.71484e-05
0.00113087 6.99523e-08 2.37442e-08
6.99523e-08 6.22858e-05 -1.26431e-07
2.37442e-08 -1.26431e-07 -7.89393e-06
0.00126355 -7.1706e-06 7.66023e-07
-7.1706e-06 0.000121511 -5.94025e-07
7.66023e-07 -5.94025e-07 3.91817e-05
0.00120273 -4.36884e-06 -1.07544e-07
-4.36884e-06 9.44075e-05 -3.19915e-07
-1.07544e-07 -3.19915e-07 1.89504e-05
0.00113469 1.57438e-06 1.0794e-07
1.57438e-06 6.18663e-05 2.88449e-07
1.0794e-07 2.88449e-07 -9.12505e-06
0.00113487 2.09042e-06 -5.71906e-08
2.09042e-06 6.10892e-05 1.83393e-07
-5.71906e-08 1.83393e-07 -1.4853e-05
0.00112708 -2.18147e-05 1.13781e-07
-2.18147e-05 1.02584e-05 -3.03419e-07
1.13781e-07 -3.03419e-07 -7.23362e-05
0.00119657 -5.19067e-06 1.89659e-07
-5.19067e-06 8.99392e-05 -3.38356e-07
1.89659e-07 -3.38356e-07 1.32691e-05
0.00122668 2.73006e-06 -4.20378e-07
2.73006e-06 0.000142991 2.9711e-07
-4.20378e-07 2.9711e-07 5.58906e-05
0.00106415 5.02174e-06 -2.96e-07
5.02174e-06 2.86737e-05 -1.02884e-07
-2.96e-07 -1.02884e-07 -4.78676e-05
0.00145694 -6.62366e-06 -5.46717e-06
-6.62366e-06 0.000274544 1.41395e-05
-5.46717e-06 1.41395e-05 0.000176557
0.00111901 -8.63851e-07 2.05541e-07
-8.63851e-07 5.57826e-05 6.53724e-07
2.05541e-07 6.53724e-07 -2.12328e-05
0.00112871 -5.51753e-06 5.11698e-07
-5.51753e-06 6.22325e-05 2.42799e-07
5.11698e-07 2.42799e-07 -1.84355e-05
0.000921514 1.53397e-06 -3.86004e-07
1.53397e-06 0.000187045 4.07735e-07
-3.86004e-07 4.07735e-07 0.00010611
0.000767874 5.1033e-07 4.66788e-07
5.1033e-07 0.000130416 4.22965e-07
4.66788e-07 4.22965e-07 3.89255e-05
0.00095693 9.64264e-07 -1.49058e-05
9.64264e-07 0.000351116 2.88581e-07
-1.49058e-05 2.88581e-07 0.000278287
0.00146499 1.74274e-06 -2.4259e-07
1.74274e-06 0.000253995 1.31222e-06
-2.4259e-07 1.31222e-06 0.000184017
0.0011829 -4.8238e-06 6.2212e-06
-4.8238e-06 0.000279878 -1.81558e-06
6.2212e-06 -1.81558e-06 0.000201773
0.000448526 7.67559e-06 -1.24864e-06
7.67559e-06 -6.30129e-05 -8.52314e-07
-1.24864e-06 -8.52314e-07 -0.000148439
0.0026446 -2.69034e-05 1.46133e-06
-2.69034e-05 0.000105321 -6.12588e-07
1.46133e-06 -6.12588e-07 0.000101726
0.00129759 1.5825e-05 1.58328e-06
1.5825e-05 -0.000651146 1.33799e-05
1.58328e-06 1.33799e-05 -0.000379036
0.00085218 2.75151e-06 8.51181e-07
2.75151e-06 0.000180415 -9.72126e-07
8.51181e-07 -9.72126e-07 0.000117663
0.00109865 2.26193e-06 7.7383e-06
2.26193e-06 0.000415862 -1.79322e-06
7.7383e-06 -1.79322e-06 0.000415293
0.00118622 -8.92748e-06 7.11886e-07
-8.92748e-06 8.21769e-05 1.42162e-06
7.11886e-07 1.42162e-06 2.65588e-05
0.000736469 1.6656e-06 2.92346e-07
1.6656e-06 7.92528e-05 1.09452e-06
2.92346e-07 1.09452e-06 6.19753e-06
0.000754373 -7.15785e-06 -9.18321e-07
-7.15785e-06 0.000140573 7.30449e-07
-9.18321e-07 7.30449e-07 9.43091e-05
0.000330165 2.22162e-05 -2.99817e-07
2.22162e-05 -5.17289e-05 3.68803e-07
-2.99817e-07 3.68803e-07 -0.000329655
0.000540899 1.59431e-05 2.91051e-06
1.59431e-05 3.33149e-05 -3.40697e-09
2.91051e-06 -3.40697e-09 0.000103935
0.000687308 9.75527e-05 -3.86454e-06
9.75527e-05 -0.000448472 -5.77837e-06
-3.86454e-06 -5.77837e-06 -0.000392096
0.00477171 3.12218e-05 -6.40226e-07
3.12218e-05 0.000183189 -1.26551e-05
-6.40226e-07 -1.26551e-05 0.000515971
0.00110919 3.99127e-06 -1.04927e-07
3.99127e-06 0.000148789 -8.14173e-06
-1.04927e-07 -8.14173e-06 0.000114948
0.000752429 -6.49634e-06 -2.26246e-06
-6.49634e-06 0.000120969 3.38236e-06
-2.26246e-06 3.38236e-06 4.33009e-05
0.000408671 8.1147e-06 -1.76331e-05
8.1147e-06 -3.54472e-06 8.38069e-06
-1.76331e-05 8.38069e-06 -1.75369e-05
0.000629914 3.24961e-05 -3.03843e-06
3.24961e-05 0.000141467 3.17326e-06
-3.03843e-06 3.17326e-06 0.000210448
-0.00030578 9.91509e-05 1.22833e-05
9.91509e-05 -0.000451687 -4.18291e-05
1.22833e-05 -4.18291e-05 -0.000450212
0.00650686 5.10748e-05 1.03301e-06
5.10748e-05 0.0013437 -1.10184e-06
1.03301e-06 -1.10184e-06 0.00121387
0.00122635 -1.20363e-05 1.24433e-06
-1.20363e-05 0.000506248 2.37527e-05
1.24433e-06 2.37527e-05 5.85126e-05
0.00103089 -1.28406e-06 1.60597e-06
-1.28406e-06 1.84285e-05 -5.61952e-07
1.60597e-06 -5.61952e-07 -4.77038e-05
0.00109429 5.38732e-06 1.56202e-07
5.38732e-06 5.54658e-05 -1.12485e-06
1.56202e-07 -1.12485e-06 -7.26683e-06
0.00107828 3.96732e-06 8.02256e-07
3.96732e-06 7.41693e-05 -8.10655e-07
8.02256e-07 -8.10655e-07 -2.04453e-06
0.00112928 -2.91315e-06 -8.81802e-09
-2.91315e-06 5.5617e-05 2.93142e-07
-8.81802e-09 2.93142e-07 -1.12893e-05
0.00116147 1.55724e-06 -2.72353e-08
1.55724e-06 7.6671e-05 2.06604e-06
-2.72353e-08 2.06604e-06 1.37554e-05
0.00117242 -5.29099e-06 -2.55561e-08
-5.29099e-06 9.00396e-05 2.01583e-07
-2.55561e-08 2.01583e-07 1.8741e-05
0.0010431 -1.23486e-05 1.13702e-06
-1.23486e-05 4.09772e-05 -1.63981e-08
1.13702e-06 -1.63981e-08 -4.1764e-05
0.00119121 -1.06543e-05 1.02824e-07
-1.06543e-05 8.52989e-05 3.06596e-07
1.02824e-07 3.06596e-07 1.7999e-05
0.00122109 -1.31318e-05 -1.52517e-07
-1.31318e-05 0.000105545 3.23563e-07
-1.52517e-07 3.23563e-07 3.28175e-05
0.00125301 -1.53013e-05 -6.53538e-09
-1.53013e-05 0.000118165 5.25863e-07
-6.53538e-09 5.25863e-07 4.06925e-05
0.00110886 -1.16011e-05 -4.0577e-08
-1.16011e-05 4.34526e-05 -7.9007e-08
-4.0577e-08 -7.9007e-08 -2.29581e-05
0.00118802 -1.33178e-05 -7.15768e-10
-1.33178e-05 7.78733e-05 1.3506e-08
-7.15768e-10 1.3506e-08 7.45669e-06
0.00133878 -1.48238e-05 -5.10354e-08
-1.48238e-05 0.000146205 1.4358e-07
-5.10354e-08 1.4358e-07 7.37541e-05
0.00127209 -1.39849e-05 -2.52595e-07
-1.39849e-05 0.000107562 3.76058e-08
-2.52595e-07 3.76058e-08 3.94824e-05
0.00107383 -1.12641e-05 -1.71805e-07
-1.12641e-05 2.54019e-05 3.8557e-07
-1.71805e-07 3.8557e-07 -3.65821e-05
0.00115051 -1.25656e-05 -8.76957e-08
-1.25656e-05 5.75184e-05 1.13773e-07
-8.76957e-08 1.13773e-07 -8.97934e-06
0.00115664 -1.2175e-05 -1.52692e-07
-1.2175e-05 6.02886e-05 -3.16583e-08
-1.52692e-07 -3.16583e-08 -4.48024e-06
0.0012247 -9.11019e-06 -5.24672e-08
-9.11019e-06 0.000100861 -1.57979e-07
-5.24672e-08 -1.57979e-07 4.57534e-05
0.00115918 -1.04825e-05 3.47118e-07
-1.04825e-05 6.96342e-05 -4.21928e-07
3.47118e-07 -4.21928e-07 1.07865e-05
0.00100348 2.28448e-06 -4.68991e-07
2.28448e-06 -2.59964e-06 5.26363e-07
-4.68991e-07 5.26363e-07 -5.22542e-05
0.00112164 -6.14422e-06 3.31158e-08
-6.14422e-06 5.47039e-05 -4.28733e-08
3.31158e-08 -4.28733e-08 -1.02272e-07
0.00116658 -1.06934e-05 6.53294e-07
-1.06934e-05 7.18935e-05 -5.18735e-07
6.53294e-07 -5.18735e-07 1.26991e-05
0.00107084 3.91892e-06 -1.08561e-06
3.91892e-06 2.26181e-05 6.24915e-07
-1.08561e-06 6.24915e-07 -1.52864e-05
0.00111717 -1.49547e-06 -1.21614e-07
-1.49547e-06 4.50214e-05 -3.30321e-08
-1.21614e-07 -3.30321e-08 -2.89977e-06
0.00115496 -8.05416e-06 1.46482e-07
-8.05416e-06 6.43489e-05 1.04584e-07
1.46482e-07 1.04584e-07 1.03643e-05
0.00102799 5.31325e-06 -1.42642e-06
5.31325e-06 -2.98831e-07 1.30719e-06
-1.42642e-06 1.30719e-06 -2.24767e-05
0.00107845 2.93469e-06 6.37481e-08
2.93469e-06 2.40758e-05 3.0093e-08
6.37481e-08 3.0093e-08 -1.40223e-05
0.00104497 -3.23959e-06 7.46327e-07
-3.23959e-06 7.58337e-06 -1.80481e-07
7.46327e-07 -1.80481e-07 -4.13129e-05
0.00107613 3.63758e-06 8.70912e-07
3.63758e-06 2.26972e-05 -7.72266e-07
8.70912e-07 -7.72266e-07 -1.5887e-05
0.00103418 4.76916e-06 5.64966e-08
4.76916e-06 9.01971e-07 1.63049e-08
5.64966e-08 1.63049e-08 -2.12785e-05
0.000960695 7.91268e-06 -1.86474e-06
7.91268e-06 -3.85163e-05 2.45291e-06
-1.86474e-06 2.45291e-06 -3.56751e-05
0.00104272 4.12172e-06 1.14485e-06
4.12172e-06 2.9884e-06 -1.44198e-06
1.14485e-06 -1.44198e-06 -1.90619e-05
0.0009769 6.8454e-06 5.47802e-08
6.8454e-06 -3.42496e-05 1.63659e-08
5.47802e-08 1.63659e-08 -3.10405e-05
0.0022812 9.11436e-06 -3.34521e-06
9.11436e-06 0.000594431 3.3648e-06
-3.34521e-06 3.3648e-06 0.000618322
0.000989597 5.71957e-06 1.51793e-06
5.71957e-06 -3.14742e-05 -2.5968e-06
1.51793e-06 -2.5968e-06 -2.79546e-05
0.00169525 7.46731e-06 1.05768e-06
7.46731e-06 0.00030712 -1.06931e-06
1.05768e-06 -1.06931e-06 0.000329194
0.002249 6.1589e-06 2.67885e-06
6.1589e-06 0.000572973 -3.48289e-06
2.67885e-06 -3.48289e-06 0.000597858
0.00107153 2.8668e-07 -7.43748e-07
2.8668e-07 1.88537e-05 -7.90959e-07
-7.43748e-07 -7.90959e-07 -1.93211e-05
0.00104227 -3.33276e-06 -9.66957e-07
-3.33276e-06 1.54611e-06 -1.49348e-06
-9.66957e-07 -1.49348e-06 -1.99973e-05
0.000996945 -3.02481e-07 -2.09978e-07
-3.02481e-07 -1.63181e-05 -3.5347e-07
-2.09978e-07 -3.5347e-07 -5.51905e-05
0.00100151 -4.69364e-06 -1.17603e-06
-4.69364e-06 -2.79882e-05 -2.69609e-06
-1.17603e-06 -2.69609e-06 -2.33566e-05
0.000929622 -2.99443e-06 -1.66456e-07
-2.99443e-06 -5.42985e-05 -5.17621e-07
-1.66456e-07 -5.17621e-07 -7.5736e-05
0.00116452 -3.04304e-06 2.57521e-07
-3.04304e-06 6.46218e-05 5.27781e-07
2.57521e-07 5.27781e-07 2.73734e-05
0.0021961 -4.66851e-06 -2.11353e-06
-4.66851e-06 0.000544705 -3.52484e-06
-2.11353e-06 -3.52484e-06 0.000570553
0.000993744 -3.57103e-06 -5.72974e-08
-3.57103e-06 -3.40338e-05 3.3489e-09
-5.72974e-08 3.3489e-09 -2.84271e-05
0.000803518 -2.3851e-06 3.75198e-07
-2.3851e-06 -0.000117052 1.10426e-06
3.75198e-07 1.10426e-06 -0.000137926
0.00219901 -3.06609e-06 -1.95528e-07
-3.06609e-06 0.000544054 1.09639e-08
-1.95528e-07 1.09639e-08 0.000570323
0.000989763 -2.35773e-06 5.12663e-07
-2.35773e-06 -3.76258e-05 2.82339e-06
5.12663e-07 2.82339e-06 -3.13049e-05
0.00220084 -1.47828e-06 4.82499e-07
-1.47828e-06 0.000543861 3.59643e-06
4.82499e-07 3.59643e-06 0.000570342
0.000631093 -2.06348e-07 -5.98215e-07
-2.06348e-07 1.54032e-05 -1.3843e-06
-5.98215e-07 -1.3843e-06 -5.92789e-05
0.000875609 -7.4266e-06 7.09792e-07
-7.4266e-06 0.00020221 -3.54761e-07
7.09792e-07 -3.54761e-07 0.000119803
0.000867138 2.54313e-06 -1.03725e-05
2.54313e-06 0.000290937 4.53098e-06
-1.03725e-05 4.53098e-06 0.000229043
0.00103153 4.58652e-06 -5.15292e-07
4.58652e-06 -1.77165e-06 -3.26271e-07
-5.15292e-07 -3.26271e-07 -5.06022e-05
0.00120617 8.52293e-06 -2.21229e-07
8.52293e-06 8.20993e-05 1.97541e-07
-2.21229e-07 1.97541e-07 2.97186e-05
0.00118091 5.76655e-06 2.96516e-07
5.76655e-06 7.36857e-05 5.16798e-07
2.96516e-07 5.16798e-07 2.44191e-05
0.00102109 5.62769e-06 7.60526e-09
5.62769e-06 -5.98932e-06 4.63384e-09
7.60526e-09 4.63384e-09 -5.59457e-05
0.00115136 5.93413e-06 1.40138e-07
5.93413e-06 6.14044e-05 2.75416e-07
1.40138e-07 2.75416e-07 4.23921e-06
0.00117863 9.19747e-06 -2.54198e-07
9.19747e-06 7.19462e-05 8.66543e-10
-2.54198e-07 8.66543e-10 1.55237e-05
0.00115258 9.31208e-06 4.83601e-09
9.31208e-06 6.19871e-05 4.1993e-07
4.83601e-09 4.1993e-07 8.68267e-07
0.000845657 4.81908e-06 -7.7384e-06
4.81908e-06 0.000213259 -6.23182e-06
-7.7384e-06 -6.23182e-06 0.000161486
0.000641584 -4.66904e-07 7.97884e-07
-4.66904e-07 6.45403e-05 -1.52609e-06
7.97884e-07 -1.52609e-06 6.33512e-07
0.00114072 -8.3604e-06 -4.53922e-06
-8.3604e-06 0.000394976 3.09448e-06
-4.53922e-06 3.09448e-06 0.000339971
0.00102063 2.17028e-06 3.18378e-07
2.17028e-06 0.000363257 -1.31029e-06
3.18378e-07 -1.31029e-06 0.000311528
0.00233812 -5.11314e-05 -3.89916e-05
-5.11314e-05 0.000426548 4.78509e-05
-3.89916e-05 4.78509e-05 0.000199865
0.00222467 8.36195e-05 3.66517e-05
8.36195e-05 7.83804e-05 -6.24179e-05
3.66517e-05 -6.24179e-05 -0.000301408
0.00407568 9.39551e-05 8.3341e-07
9.39551e-05 0.000659271 -1.47961e-05
8.3341e-07 -1.47961e-05 0.000783435
0.000244717 -4.01847e-05 -1.5641e-05
-4.01847e-05 -0.000241677 1.84589e-05
-1.5641e-05 1.84589e-05 -0.000428879
0.00407829 3.98893e-05 -5.00903e-07
3.98893e-05 0.000271477 -2.225e-05
-5.00903e-07 -2.225e-05 -5.02659e-05
0.00435917 1.0421e-05 -9.20408e-06
1.0421e-05 0.000445823 -4.78158e-08
-9.20408e-06 -4.78158e-08 0.000762727
0.000353504 -6.39108e-06 3.38862e-06
-6.39108e-06 -8.91508e-05 2.53004e-06
3.38862e-06 2.53004e-06 -9.88117e-05
0.000107599 -2.35659e-05 -2.6304e-07
-2.35659e-05 -8.48075e-05 -6.25778e-06
-2.6304e-07 -6.25778e-06 -0.000238062
0.00259515 2.00829e-07 1.13229e-06
2.00829e-07 -0.000313789 -5.97545e-05
1.13229e-06 -5.97545e-05 -0.000845978
0.00082907 -7.4113e-05 -5.87729e-06
-7.4113e-05 -0.000487808 3.12367e-05
-5.87729e-06 3.12367e-05 -0.000373707
-0.000279348 -2.029e-05 -9.51895e-06
-2.029e-05 -0.000453105 -3.63833e-07
-9.51895e-06 -3.63833e-07 -0.000419024
0.00114082 1.04994e-05 -1.28512e-06
1.04994e-05 6.23873e-05 9.89029e-08
-1.28512e-06 9.89029e-08 -5.50712e-06
0.00116455 4.3247e-06 -3.71913e-08
4.3247e-06 7.03581e-05 -5.96357e-08
-3.71913e-08 -5.96357e-08 5.22814e-06
0.00111576 -2.52332e-06 1.1488e-07
-2.52332e-06 4.87368e-05 -1.63221e-07
1.1488e-07 -1.63221e-07 -1.56386e-05
0.00113863 5.0536e-06 2.36473e-08
5.0536e-06 5.69702e-05 -2.75767e-07
2.36473e-08 -2.75767e-07 -7.00985e-07
0.000371283 -1.94579e-05 3.42203e-06
-1.94579e-05 -0.00035598 -6.92285e-06
3.42203e-06 -6.92285e-06 -0.000435716
0.00132862 2.75848e-06 1.42377e-06
2.75848e-06 0.000181834 -7.28963e-07
1.42377e-06 -7.28963e-07 9.43782e-05
0.00117063 2.11453e-06 2.93273e-07
2.11453e-06 7.97226e-05 3.67218e-07
2.93273e-07 3.67218e-07 8.08932e-06
0.00108322 2.58511e-06 -1.44878e-07
2.58511e-06 3.63623e-05 1.33205e-07
-1.44878e-07 1.33205e-07 -3.9816e-05
0.00123559 -6.64597e-06 -1.2684e-07
-6.64597e-06 0.000111782 -1.74732e-06
-1.2684e-07 -1.74732e-06 3.51774e-05
0.00113647 5.7552e-06 -1.94524e-07
5.7552e-06 6.40873e-05 -4.67061e-08
-1.94524e-07 -4.67061e-08 -1.16196e-05
0.00113783 -4.05962e-06 -3.51554e-07
-4.05962e-06 6.62217e-05 -2.8864e-07
-3.51554e-07 -2.8864e-07 -1.47262e-05
0.000873038 -4.22142e-06 1.03986e-06
-4.22142e-06 5.43755e-05 -4.66633e-07
1.03986e-06 -4.66633e-07 -3.08971e-05
0.00110917 -1.77874e-06 9.42429e-07
-1.77874e-06 5.08259e-05 -3.2757e-07
9.42429e-07 -3.2757e-07 -2.40675e-05
0.00113299 5.88716e-06 -1.58111e-07
5.88716e-06 6.7488e-05 2.01351e-07
-1.58111e-07 2.01351e-07 -1.31176e-05
0.000837595 1.14467e-06 -1.04948e-06
1.14467e-06 0.000148323 2.20336e-05
-1.04948e-06 2.20336e-05 9.01926e-05
0.00123482 -4.15563e-06 2.14767e-06
-4.15563e-06 0.000105685 -8.63755e-07
2.14767e-06 -8.63755e-07 1.48674e-05
0.00116225 3.06033e-07 -9.21745e-07
3.06033e-07 0.000376261 3.28225e-07
-9.21745e-07 3.28225e-07 0.00028605
0.000729828 3.39952e-07 -9.84869e-08
3.39952e-07 6.85892e-05 2.06525e-07
-9.84869e-08 2.06525e-07 -1.01368e-05
0.000372681 2.13322e-07 1.63588e-07
2.13322e-07 -0.00011856 -5.48684e-08
1.63588e-07 -5.48684e-08 -0.00020942
0.00122703 -8.11083e-06 6.45423e-07
-8.11083e-06 9.73359e-05 4.19498e-06
6.45423e-07 4.19498e-06 3.97657e-05
0.000561873 4.43587e-06 2.05082e-07
4.43587e-06 0.00013642 7.75032e-06
2.05082e-07 7.75032e-06 4.34993e-05
0.000814529 6.41915e-07 1.22745e-06
6.41915e-07 0.000129029 1.13659e-07
1.22745e-06 1.13659e-07 5.39282e-05
0.00321454 3.33252e-05 -2.64087e-06
3.33252e-05 0.000173512 -2.19751e-05
-2.64087e-06 -2.19751e-05 -0.000342393
0.00433498 9.28045e-05 -8.32888e-07
9.28045e-05 0.000775982 1.3443e-05
-8.32888e-07 1.3443e-05 0.000966848
0.00113872 -7.70589e-06 4.47373e-06
-7.70589e-06 0.000383929 -3.45958e-06
4.47373e-06 -3.45958e-06 0.000334448
0.00172633 1.44185e-05 1.11936e-05
1.44185e-05 0.00077806 -3.68944e-06
1.11936e-05 -3.68944e-06 0.000833296
0.000976124 2.30772e-06 6.67487e-07
2.30772e-06 6.20195e-05 1.1746e-07
6.67487e-07 1.1746e-07 2.90371e-05
0.000874443 -6.46651e-06 -8.53378e-07
-6.46651e-06 0.000197766 2.68132e-07
-8.53378e-07 2.68132e-07 0.000119428
0.000662652 8.30145e-06 -3.25732e-06
8.30145e-06 0.000156178 7.36579e-07
-3.25732e-06 7.36579e-07 0.000143211
0.000366763 6.48746e-07 -1.24435e-06
6.48746e-07 0.00019279 4.29636e-06
-1.24435e-06 4.29636e-06 -3.54416e-06
0.000337123 3.36272e-05 2.33771e-06
3.36272e-05 -4.23204e-05 -2.81951e-06
2.33771e-06 -2.81951e-06 2.8477e-05
-0.000654179 0.00010395 -2.08769e-06
0.00010395 -0.000931507 -7.38661e-06
-2.08769e-06 -7.38661e-06 -0.000935751
0.00186978 4.21564e-05 6.50636e-06
4.21564e-05 -0.000468423 -1.7385e-05
6.50636e-06 -1.7385e-05 -0.000805179
0.00126051 5.09377e-06 5.68889e-06
5.09377e-06 0.000263219 -1.25486e-05
5.68889e-06 -1.25486e-05 0.00022501
0.000746755 1.57419e-06 -9.90194e-06
1.57419e-06 0.000213413 4.9084e-06
-9.90194e-06 4.9084e-06 0.000155069
-0.00149953 2.87406e-05 -9.20956e-06
2.87406e-05 -0.00109755 4.7287e-06
-9.20956e-06 4.7287e-06 -0.00106613
-0.000402864 7.30367e-05 2.92225e-05
7.30367e-05 -6.81233e-05 -3.34569e-05
2.92225e-05 -3.34569e-05 -5.61043e-05
0.00434214 8.16094e-05 1.43774e-05
8.16094e-05 0.000631597 -1.9756e-05
1.43774e-05 -1.9756e-05 0.000288675
0.0020102 -5.13254e-05 -8.13803e-06
-5.13254e-05 0.000558795 4.47992e-05
-8.13803e-06 4.47992e-05 0.000202162
0.00116959 2.99952e-06 3.8018e-07
2.99952e-06 8.73084e-05 -6.74385e-07
3.8018e-07 -6.74385e-07 2.5015e-05
0.00112809 4.29888e-06 -4.28538e-08
4.29888e-06 9.48986e-05 -1.39341e-07
-4.28538e-08 -1.39341e-07 1.89891e-05
0.000990327 -9.73976e-06 2.2177e-06
-9.73976e-06 5.64541e-05 -2.28392e-07
2.2177e-06 -2.28392e-07 -3.70676e-05
0.0011577 -4.67021e-06 -6.26406e-07
-4.67021e-06 8.34528e-05 8.07719e-07
-6.26406e-07 8.07719e-07 1.26413e-05
0.00100067 -1.18566e-05 2.68256e-07
-1.18566e-05 2.1104e-05 2.63996e-07
2.68256e-07 2.63996e-07 -6.02725e-05
0.00130777 -1.81879e-05 7.52257e-07
-1.81879e-05 0.000148504 2.35611e-08
7.52257e-07 2.35611e-08 5.90713e-05
0.00135665 -1.39292e-05 -2.3214e-07
-1.39292e-05 0.000167869 2.12469e-07
-2.3214e-07 2.12469e-07 9.42454e-05
0.00125044 -1.53825e-05 -1.37727e-07
-1.53825e-05 0.000116829 2.90508e-07
-1.37727e-07 2.90508e-07 3.85e-05
0.00123766 -1.63952e-05 -3.29004e-07
-1.63952e-05 9.90647e-05 -6.54873e-07
-3.29004e-07 -6.54873e-07 2.09875e-05
0.00117863 -1.32907e-05 -1.8959e-07
-1.32907e-05 7.35554e-05 -1.19756e-07
-1.8959e-07 -1.19756e-07 2.9413e-06
0.00127013 -1.45359e-05 -3.70919e-08
-1.45359e-05 0.000113318 3.22535e-08
-3.70919e-08 3.22535e-08 4.04299e-05
0.00126649 -1.45421e-05 -2.56137e-08
-1.45421e-05 9.88157e-05 -1.04143e-06
-2.56137e-08 -1.04143e-06 2.85889e-05
0.00124315 -1.31366e-05 -6.47686e-08
-1.31366e-05 7.57913e-05 -1.11764e-06
-6.47686e-08 -1.11764e-06 1.16833e-05
0.00128584 -1.32255e-05 -3.7835e-07
-1.32255e-05 0.000115573 4.66553e-07
-3.7835e-07 4.66553e-07 5.13513e-05
0.00121749 -1.37714e-05 -1.17951e-07
-1.37714e-05 8.20057e-05 -3.56034e-08
-1.17951e-07 -3.56034e-08 1.34782e-05
0.00102799 -1.02401e-05 -2.35772e-07
-1.02401e-05 4.88247e-06 9.86266e-08
-2.35772e-07 9.86266e-08 -5.25006e-05
0.00111758 -1.13636e-05 1.40529e-07
-1.13636e-05 4.60879e-05 -2.73426e-08
1.40529e-07 -2.73426e-08 -1.53909e-05
0.00111934 -1.2522e-05 -4.01443e-08
-1.2522e-05 4.29825e-05 -2.01678e-07
-4.01443e-08 -2.01678e-07 -2.3947e-05
0.00111639 -2.15566e-06 -3.39815e-07
-2.15566e-06 5.01787e-05 2.86459e-07
-3.39815e-07 2.86459e-07 -3.88414e-07
0.00115966 -8.81694e-06 1.07729e-07
-8.81694e-06 7.00034e-05 -2.06147e-07
1.07729e-07 -2.06147e-07 1.4417e-05
0.00108906 -1.01119e-05 7.0383e-07
-1.01119e-05 3.67055e-05 -4.20499e-07
7.0383e-07 -4.20499e-07 -2.18007e-05
0.00105627 6.06932e-06 -9.30054e-07
6.06932e-06 2.02229e-05 6.60898e-07
-9.30054e-07 6.60898e-07 -1.87478e-05
0.0010492 1.90905e-06 -1.14963e-07
1.90905e-06 1.88172e-05 2.04521e-07
-1.14963e-07 2.04521e-07 -3.03889e-05
0.001203 -6.27564e-06 2.87893e-07
-6.27564e-06 9.32942e-05 -2.07468e-07
2.87893e-07 -2.07468e-07 3.90961e-05
0.00101984 6.03033e-06 -1.58201e-06
6.03033e-06 -1.70997e-06 1.20314e-06
-1.58201e-06 1.20314e-06 -2.39843e-05
0.00107683 4.25832e-06 -4.80702e-08
4.25832e-06 2.54191e-05 -1.28358e-08
-4.80702e-08 -1.28358e-08 -1.24807e-05
0.00112608 -1.90624e-06 4.86228e-07
-1.90624e-06 4.86759e-05 -2.40635e-07
4.86228e-07 -2.40635e-07 8.10648e-07
0.000992419 8.89509e-06 -2.80763e-06
8.89509e-06 -1.94938e-05 3.32922e-06
-2.80763e-06 3.32922e-06 -1.72675e-05
0.00102975 5.33034e-06 5.12041e-08
5.33034e-06 5.32237e-07 2.33042e-08
5.12041e-08 2.33042e-08 -2.16332e-05
0.00107735 3.52387e-06 1.05238e-06
3.52387e-06 2.3577e-05 -6.51385e-07
1.05238e-06 -6.51385e-07 -1.44986e-05
0.0010368 4.77924e-06 1.33844e-06
4.77924e-06 2.13733e-06 -1.36337e-06
1.33844e-06 -1.36337e-06 -2.00421e-05
0.000969467 7.90689e-06 6.90539e-08
7.90689e-06 -3.4331e-05 2.07617e-08
6.90539e-08 2.07617e-08 -3.15205e-05
0.00228444 1.06004e-05 -3.70699e-06
1.06004e-05 0.000600052 3.27183e-06
-3.70699e-06 3.27183e-06 0.000623341
0.000984956 6.84006e-06 1.75332e-06
6.84006e-06 -3.04284e-05 -2.51013e-06
1.75332e-06 -2.51013e-06 -2.72451e-05
0.00225542 9.15744e-06 1.10793e-07
9.15744e-06 0.000582473 2.49347e-08
1.10793e-07 2.49347e-08 0.000606418
0.00223838 7.69268e-06 3.12466e-06
7.69268e-06 0.000571029 -3.40394e-06
3.12466e-06 -3.40394e-06 0.000595519
0.00112372 3.7707e-06 -5.91818e-07
3.7707e-06 4.25713e-05 -2.39337e-07
-5.91818e-07 -2.39337e-07 -4.98301e-06
0.00107533 -1.38637e-06 -8.15051e-07
-1.38637e-06 2.06911e-05 -7.60907e-07
-8.15051e-07 -7.60907e-07 -1.72295e-05
0.00103415 -3.74976e-06 -1.14494e-06
-3.74976e-06 -1.02347e-06 -1.41586e-06
-1.14494e-06 -1.41586e-06 -2.29191e-05
0.00107898 5.45052e-07 -8.53023e-09
5.45052e-07 2.23794e-05 1.0497e-08
-8.53023e-09 1.0497e-08 -1.58341e-05
0.000994406 -5.72754e-06 -1.4705e-06
-5.72754e-06 -2.87536e-05 -2.6095e-06
-1.4705e-06 -2.6095e-06 -2.49597e-05
0.00104032 -3.34625e-06 -7.21915e-08
-3.34625e-06 7.12512e-07 2.31699e-08
-7.21915e-08 2.31699e-08 -2.08397e-05
0.00108034 5.54676e-07 3.63371e-07
5.54676e-07 2.40519e-05 5.07585e-07
3.63371e-07 5.07585e-07 -1.43997e-05
0.00221216 -6.19126e-06 -2.64637e-06
-6.19126e-06 0.000555043 -3.48512e-06
-2.64637e-06 -3.48512e-06 0.000580299
0.000989752 -4.71072e-06 -7.30266e-08
-4.71072e-06 -3.36448e-05 4.94205e-09
-7.30266e-08 4.94205e-09 -2.89351e-05
0.00103755 -3.04613e-06 5.1104e-07
-3.04613e-06 -2.04684e-06 1.07324e-06
5.1104e-07 1.07324e-06 -2.28419e-05
0.00221084 -4.62424e-06 -1.68039e-07
-4.62424e-06 0.000551522 1.57217e-08
-1.68039e-07 1.57217e-08 0.000577379
0.000983789 -3.58437e-06 7.71218e-07
-3.58437e-06 -3.88543e-05 2.77555e-06
7.71218e-07 2.77555e-06 -3.31714e-05
0.00221119 -3.01776e-06 1.22552e-06
-3.01776e-06 0.000549748 3.57543e-06
1.22552e-06 3.57543e-06 0.000576006
0.000748751 5.29472e-06 -2.36176e-06
5.29472e-06 0.000120377 -2.68012e-06
-2.36176e-06 -2.68012e-06 3.88314e-05
0.000755117 -1.06043e-06 -2.16389e-07
-1.06043e-06 9.34619e-05 -1.20008e-06
-2.16389e-07 -1.20008e-06 1.68951e-05
0.0010014 -7.48015e-06 -8.09277e-07
-7.48015e-06 0.000281487 1.26916e-06
-8.09277e-07 1.26916e-06 0.000198277
0.00106949 4.56397e-06 1.49053e-08
4.56397e-06 1.71888e-05 7.4157e-09
1.49053e-08 7.4157e-09 -3.13537e-05
0.00115128 8.27896e-06 2.25026e-07
8.27896e-06 5.53967e-05 1.55041e-07
2.25026e-07 1.55041e-07 2.65652e-06
0.00106427 4.1172e-06 -2.47928e-07
4.1172e-06 1.53184e-05 -2.72867e-07
-2.47928e-07 -2.72867e-07 -3.72085e-05
0.00108156 8.56795e-06 -5.76607e-07
8.56795e-06 2.27286e-05 -1.91745e-07
-5.76607e-07 -1.91745e-07 -3.16228e-05
0.00121582 9.47047e-06 6.04162e-08
9.47047e-06 8.5248e-05 3.7035e-07
6.04162e-08 3.7035e-07 2.98808e-05
0.00101232 5.39968e-06 5.61281e-07
5.39968e-06 -9.97866e-06 4.32653e-07
5.61281e-07 4.32653e-07 -5.98267e-05
0.00109995 7.10674e-06 3.19846e-07
7.10674e-06 3.63563e-05 3.50334e-07
3.19846e-07 3.50334e-07 -2.14335e-05
0.00116679 9.19752e-06 5.51578e-09
9.19752e-06 6.61983e-05 -3.9701e-09
5.51578e-09 -3.9701e-09 9.83281e-06
0.00113911 8.83815e-06 2.15863e-07
8.83815e-06 5.50017e-05 2.58767e-07
2.15863e-07 2.58767e-07 -5.7795e-06
0.001211 1.00826e-05 -2.25059e-07
1.00826e-05 8.89461e-05 3.17507e-07
-2.25059e-07 3.17507e-07 2.82483e-05
0.000745703 -1.28219e-05 -1.10295e-05
-1.28219e-05 0.000213934 -1.41843e-05
-1.10295e-05 -1.41843e-05 0.000188355
0.000548138 4.57772e-06 -1.61977e-06
4.57772e-06 2.88358e-05 -1.63439e-06
-1.61977e-06 -1.63439e-06 -2.45438e-05
0.000865433 -4.95845e-07 -6.92934e-07
-4.95845e-07 0.000199157 -3.13629e-08
-6.92934e-07 -3.13629e-08 0.000131233
-6.68751e-05 -4.65444e-06 1.1115e-05
-4.65444e-06 -0.000342436 3.81816e-06
1.1115e-05 3.81816e-06 -0.000361773
0.00117661 8.7623e-06 -1.48243e-06
8.7623e-06 -0.000732126 -2.13454e-05
-1.48243e-06 -2.13454e-05 -0.00051161
0.00198408 -4.88262e-05 -2.36503e-05
-4.88262e-05 0.000452408 6.56349e-05
-2.36503e-05 6.56349e-05 0.000194682
0.00487824 5.87156e-05 1.1333e-05
5.87156e-05 0.000704865 -1.82004e-05
1.1333e-05 -1.82004e-05 0.000398724
0.000511458 -3.56396e-05 -2.54484e-06
-3.56396e-05 -1.35815e-05 8.80843e-06
-2.54484e-06 8.80843e-06 -0.000332568
0.00608319 1.38523e-05 9.83336e-07
1.38523e-05 0.000602282 2.28526e-06
9.83336e-07 2.28526e-06 0.000910955
0.00287506 -9.75814e-05 -9.65913e-07
-9.75814e-05 0.000441417 -1.10707e-06
-9.65913e-07 -1.10707e-06 0.000438083
-0.00076356 -2.3593e-05 -6.85795e-07
-2.3593e-05 -0.000764973 5.42506e-06
-6.85795e-07 5.42506e-06 -0.000710472
-7.36616e-05 -1.61702e-05 2.41598e-06
-1.61702e-05 -0.000100398 -2.41554e-05
2.41598e-06 -2.41554e-05 -0.000567111
0.00457645 -6.60491e-05 2.02719e-05
-6.60491e-05 0.000691358 3.99688e-05
2.02719e-05 3.99688e-05 0.000310122
0.00277633 -0.000132349 3.09095e-06
-0.000132349 0.000731746 2.0285e-05
3.09095e-06 2.0285e-05 0.000666159
0.000820426 -4.0368e-05 -4.30788e-06
-4.0368e-05 0.000216573 -2.01144e-06
-4.30788e-06 -2.01144e-06 0.00029415
0.00112158 1.29197e-05 -3.65797e-07
1.29197e-05 5.72504e-05 8.08574e-07
-3.65797e-07 8.08574e-07 -7.94665e-06
0.00116285 1.05082e-05 -3.55994e-07
1.05082e-05 7.26747e-05 -1.14874e-07
-3.55994e-07 -1.14874e-07 5.46414e-06
0.00118461 2.74911e-06 2.30608e-07
2.74911e-06 8.03723e-05 -2.60773e-07
2.30608e-07 -2.60773e-07 1.49801e-05
0.000324137 -1.88713e-06 4.84507e-06
-1.88713e-06 -0.000150453 -8.94773e-06
4.84507e-06 -8.94773e-06 -0.000223023
0.00111418 -3.26121e-06 4.05675e-07
-3.26121e-06 5.26152e-05 -2.11941e-06
4.05675e-07 -2.11941e-06 -2.01499e-05
0.00120535 6.64527e-06 3.11861e-07
6.64527e-06 9.79512e-05 4.88651e-08
3.11861e-07 4.88651e-08 2.30811e-05
0.0011515 -2.34773e-06 -3.24793e-07
-2.34773e-06 7.22436e-05 -6.2089e-07
-3.24793e-07 -6.2089e-07 -8.97219e-06
0.0011683 5.85126e-06 5.20361e-07
5.85126e-06 8.64656e-05 -1.7871e-08
5.20361e-07 -1.7871e-08 5.85292e-06
0.00118677 -3.85573e-06 -8.76695e-10
-3.85573e-06 8.43773e-05 -8.72757e-07
-8.76695e-10 -8.72757e-07 -6.57171e-06
0.000674998 -4.08246e-07 -6.12965e-07
-4.08246e-07 7.03057e-05 7.87126e-06
-6.12965e-07 7.87126e-06 1.11288e-05
0.00106315 1.22188e-05 -1.61018e-06
1.22188e-05 4.29959e-05 -1.46229e-08
-1.61018e-06 -1.46229e-08 -4.25271e-05
0.000848927 1.06071e-05 4.15947e-06
1.06071e-05 0.000112251 1.6666e-05
4.15947e-06 1.6666e-05 3.63993e-05
0.00156034 -3.48405e-06 -1.08511e-05
-3.48405e-06 0.000728117 -7.10167e-07
-1.08511e-05 -7.10167e-07 0.000657254
0.000744997 -1.1555e-07 -5.60087e-07
-1.1555e-07 0.000113307 -3.47314e-07
-5.60087e-07 -3.47314e-07 2.38026e-05
0.000553464 -9.09679e-07 8.30631e-08
-9.09679e-07 -4.06382e-05 -1.67193e-07
8.30631e-08 -1.67193e-07 -0.000117144
0.000866742 1.28224e-06 9.723e-07
1.28224e-06 -1.199e-05 9.94913e-06
9.723e-07 9.94913e-06 -4.42811e-05
-4.47605e-05 2.25598e-05 2.28672e-06
2.25598e-05 -5.12185e-05 -1.03576e-05
2.28672e-06 -1.03576e-05 -0.000599767
0.000994487 -6.41683e-06 5.46125e-07
-6.41683e-06 0.000273291 -1.57451e-06
5.46125e-07 -1.57451e-06 0.000194252
0.00684008 3.86003e-05 -6.91898e-06
3.86003e-05 0.0014722 -7.20825e-06
-6.91898e-06 -7.20825e-06 0.00105412
0.00282268 0.000126125 -8.23209e-06
0.000126125 0.000817253 2.07006e-05
-8.23209e-06 2.07006e-05 0.000739518
0.00086203 8.42373e-06 1.03296e-05
8.42373e-06 0.000282709 -1.06339e-05
1.03296e-05 -1.06339e-05 0.00027104
0.000110012 3.43262e-05 5.67131e-06
3.43262e-05 -0.000181724 -2.53671e-06
5.67131e-06 -2.53671e-06 -0.000109756
0.000889219 4.77841e-06 -1.62226e-06
4.77841e-06 8.88684e-05 -1.1601e-06
-1.62226e-06 -1.1601e-06 4.84167e-05
0.000769287 1.67344e-06 2.47217e-07
1.67344e-06 0.000226514 -3.50475e-07
2.47217e-07 -3.50475e-07 0.000168437
-0.00102638 3.06191e-05 4.56269e-06
3.06191e-05 -0.0008122 -1.04816e-06
4.56269e-06 -1.04816e-06 -0.000775505
0.000470324 -3.70172e-05 -3.44377e-07
-3.70172e-05 6.28105e-05 1.5618e-05
-3.44377e-07 1.5618e-05 -0.000268763
0.00174557 9.67826e-05 -1.74343e-07
9.67826e-05 0.0005195 -2.78056e-06
-1.74343e-07 -2.78056e-06 0.000456083
0.00417542 6.03515e-05 5.28334e-06
6.03515e-05 0.000563753 -4.95378e-06
5.28334e-06 -4.95378e-06 3.20362e-06
0.000718035 -1.26176e-05 6.86556e-06
-1.26176e-05 -2.81892e-06 -9.04863e-06
6.86556e-06 -9.04863e-06 -7.31274e-05
-0.00141753 1.63905e-05 -1.23633e-05
1.63905e-05 -0.00102899 4.18659e-06
-1.23633e-05 4.18659e-06 -0.00103007
0.00168899 6.62447e-05 1.44709e-05
6.62447e-05 0.000825316 -9.19403e-06
1.44709e-05 -9.19403e-06 0.000788056
0.0021271 3.46561e-05 -6.38879e-06
3.46561e-05 -0.000139531 -1.11419e-06
-6.38879e-06 -1.11419e-06 -0.000558786
0.000487965 -4.17821e-05 -1.20498e-05
-4.17821e-05 -0.00016019 2.97194e-05
-1.20498e-05 2.97194e-05 -0.000300676
0.00118204 4.75777e-06 -1.08211e-06
4.75777e-06 0.000117539 3.79902e-07
-1.08211e-06 3.79902e-07 4.19291e-05
0.00106662 -7.86599e-06 -1.18708e-07
-7.86599e-06 8.99709e-05 5.2347e-08
-1.18708e-07 5.2347e-08 -2.99862e-06
0.00145011 -2.25883e-05 1.00525e-06
-2.25883e-05 0.000257423 2.68906e-09
1.00525e-06 2.68906e-09 0.000157611
0.000956784 -1.13534e-05 -7.00888e-07
-1.13534e-05 3.48918e-07 5.2253e-07
-7.00888e-07 5.2253e-07 -7.96402e-05
0.00122955 -1.72688e-05 8.72939e-08
-1.72688e-05 0.000117086 -6.82585e-08
8.72939e-08 -6.82585e-08 2.81454e-05
0.00131561 -2.00694e-05 -6.5138e-07
-2.00694e-05 0.000113446 -2.23003e-06
-6.5138e-07 -2.23003e-06 3.39666e-05
0.00125706 -1.54997e-05 -2.89415e-07
-1.54997e-05 0.000119694 -6.56838e-08
-2.89415e-07 -6.56838e-08 4.05125e-05
0.00118545 -1.60288e-05 -7.97697e-08
-1.60288e-05 7.39902e-05 -5.6542e-07
-7.97697e-08 -5.6542e-07 -3.45077e-06
0.00132087 -1.55274e-05 -1.67215e-07
-1.55274e-05 0.000108748 -1.92565e-06
-1.67215e-07 -1.92565e-06 4.28024e-05
0.00119621 -1.42088e-05 -2.90004e-07
-1.42088e-05 7.79568e-05 -6.84576e-08
-2.90004e-07 -6.84576e-08 4.63713e-06
0.00119208 -1.4e-05 1.90043e-08
-1.4e-05 6.348e-05 -4.40722e-07
1.90043e-08 -4.40722e-07 -6.16847e-06
0.00126462 -1.25828e-05 1.94873e-07
-1.25828e-05 7.08179e-05 -1.79924e-06
1.94873e-07 -1.79924e-06 1.17534e-05
0.00124582 -1.1052e-05 4.56233e-07
-1.1052e-05 6.06272e-05 -1.02284e-06
4.56233e-07 -1.02284e-06 3.78477e-06
0.00119593 -1.28265e-05 -1.46263e-07
-1.28265e-05 6.04483e-05 -4.19831e-07
-1.46263e-07 -4.19831e-07 -3.21668e-06
0.00119536 -1.27286e-05 3.01966e-08
-1.27286e-05 5.25906e-05 -2.8616e-07
3.01966e-08 -2.8616e-07 -1.10979e-05
0.00117545 -1.1596e-05 -2.938e-07
-1.1596e-05 6.77812e-05 4.02125e-07
-2.938e-07 4.02125e-07 7.92889e-06
0.00118934 -1.28974e-05 -1.37858e-07
-1.28974e-05 7.11659e-05 1.24026e-07
-1.37858e-07 1.24026e-07 6.21152e-06
0.0011604 -1.35394e-05 -1.61701e-07
-1.35394e-05 5.52949e-05 4.70118e-08
-1.61701e-07 4.70118e-08 -1.36802e-05
0.00109915 -6.53984e-06 -5.0182e-07
-6.53984e-06 3.94005e-05 1.16482e-07
-5.0182e-07 1.16482e-07 -1.18174e-05
0.00106987 -1.03361e-05 -5.06848e-08
-1.03361e-05 2.49038e-05 -1.63781e-07
-5.06848e-08 -1.63781e-07 -3.19675e-05
0.00116198 -1.14649e-05 3.92847e-07
-1.14649e-05 6.70638e-05 -4.51826e-07
3.92847e-07 -4.51826e-07 6.09138e-06
0.00106008 5.17414e-06 -8.94432e-07
5.17414e-06 2.47211e-05 7.07794e-07
-8.94432e-07 7.07794e-07 -1.61226e-05
0.00107024 -1.7487e-06 8.6506e-08
-1.7487e-06 2.84677e-05 9.31345e-08
8.6506e-08 9.31345e-08 -2.22101e-05
0.00109446 -8.55157e-06 4.00561e-07
-8.55157e-06 3.9065e-05 -2.0844e-07
4.00561e-07 -2.0844e-07 -1.69988e-05
0.00100903 6.82195e-06 -1.64167e-06
6.82195e-06 -2.95436e-06 1.14481e-06
-1.64167e-06 1.14481e-06 -2.60246e-05
0.00107059 6.19963e-06 -1.311e-08
6.19963e-06 2.68331e-05 -3.4206e-08
-1.311e-08 -3.4206e-08 -1.21648e-05
0.0010959 1.47642e-06 2.70355e-07
1.47642e-06 4.07043e-05 -9.11245e-08
2.70355e-07 -9.11245e-08 -8.05609e-06
0.00148935 1.03786e-05 -3.03922e-06
1.03786e-05 0.00022509 2.22793e-06
-3.03922e-06 2.22793e-06 0.000229541
0.00102584 6.04699e-06 1.89456e-08
6.04699e-06 1.11415e-06 1.0556e-08
1.89456e-08 1.0556e-08 -2.117e-05
0.00108206 4.71276e-06 9.62574e-07
4.71276e-06 2.786e-05 -6.41814e-07
9.62574e-07 -6.41814e-07 -1.0035e-05
0.00119083 1.09695e-05 -3.70789e-06
1.09695e-05 7.4822e-05 3.0154e-06
-3.70789e-06 3.0154e-06 9.25379e-05
0.00124515 9.11987e-06 -6.22751e-07
9.11987e-06 0.000102993 5.28113e-07
-6.22751e-07 5.28113e-07 0.00010656
0.00103171 5.34819e-06 1.52021e-06
5.34819e-06 1.45702e-06 -1.25006e-06
1.52021e-06 -1.25006e-06 -2.06962e-05
0.000978111 7.90188e-06 2.01494e-06
7.90188e-06 -3.02051e-05 -2.40451e-06
2.01494e-06 -2.40451e-06 -2.74252e-05
0.00225384 1.06329e-05 1.09264e-07
1.06329e-05 0.000585785 3.0228e-08
1.09264e-07 3.0228e-08 0.000609145
0.00223006 9.19698e-06 3.50855e-06
9.19698e-06 0.000570722 -3.32321e-06
3.50855e-06 -3.32321e-06 0.000594718
0.00105556 1.84111e-06 -6.23755e-07
1.84111e-06 1.09237e-05 -4.24306e-07
-6.23755e-07 -4.24306e-07 -3.6847e-05
0.00107618 -2.77516e-06 -9.47514e-07
-2.77516e-06 2.15636e-05 -6.83849e-07
-9.47514e-07 -6.83849e-07 -1.61551e-05
0.00108828 3.49228e-06 -3.11539e-08
3.49228e-06 2.56604e-05 2.17223e-08
-3.11539e-08 2.17223e-08 -2.21147e-05
0.00103189 -4.35331e-06 -1.30082e-06
-4.35331e-06 -7.6671e-07 -1.35027e-06
-1.30082e-06 -1.35027e-06 -2.27653e-05
0.00107879 -1.11863e-06 -1.91053e-08
-1.11863e-06 2.23024e-05 4.80788e-09
-1.91053e-08 4.80788e-09 -1.5637e-05
0.000984844 -6.72645e-06 -1.7538e-06
-6.72645e-06 -3.04604e-05 -2.50819e-06
-1.7538e-06 -2.50819e-06 -2.72838e-05
0.00103504 -3.72946e-06 -4.08928e-08
-3.72946e-06 -5.81502e-07 1.92808e-08
-4.08928e-08 1.92808e-08 -2.2493e-05
0.00108621 8.07347e-07 7.3957e-07
8.07347e-07 2.57996e-05 8.19337e-07
7.3957e-07 8.19337e-07 -1.24514e-05
0.00222725 -7.67925e-06 -3.12929e-06
-7.67925e-06 0.000565466 -3.42563e-06
-3.12929e-06 -3.42563e-06 0.000590082
0.00098361 -5.74538e-06 -7.71803e-08
-5.74538e-06 -3.3885e-05 1.12067e-08
-7.71803e-08 1.12067e-08 -3.00405e-05
0.00103832 -3.36314e-06 8.24072e-07
-3.36314e-06 -1.4532e-07 1.53556e-06
8.24072e-07 1.53556e-06 -2.17064e-05
0.00222895 -6.15332e-06 -1.60835e-07
-6.15332e-06 0.000562763 2.06354e-08
-1.60835e-07 2.06354e-08 0.000588035
0.000977958 -4.72839e-06 1.02277e-06
-4.72839e-06 -3.93209e-05 2.72707e-06
1.02277e-06 2.72707e-06 -3.45326e-05
0.00222527 -4.5771e-06 1.83755e-06
-4.5771e-06 0.00055819 3.53041e-06
1.83755e-06 3.53041e-06 0.000584057
0.000501882 -8.09657e-06 -1.29965e-05
-8.09657e-06 6.32951e-05 -6.42767e-06
-1.29965e-05 -6.42767e-06 -8.69962e-06
0.000603162 4.67434e-06 -6.46421e-07
4.67434e-06 3.07555e-05 -1.03741e-06
-6.46421e-07 -1.03741e-06 -5.1708e-05
0.00089044 -1.90075e-06 -1.04464e-06
-1.90075e-06 0.000178577 -4.19144e-07
-1.04464e-06 -4.19144e-07 0.000100125
0.00118958 3.59372e-06 -1.00049e-07
3.59372e-06 7.80657e-05 2.991e-07
-1.00049e-07 2.991e-07 2.57193e-05
0.00110834 4.54297e-06 5.21556e-07
4.54297e-06 3.6542e-05 3.74632e-07
5.21556e-07 3.74632e-07 -1.17105e-05
0.00109614 8.03555e-06 5.17212e-07
8.03555e-06 2.85651e-05 6.96539e-08
5.17212e-07 6.96539e-08 -2.45332e-05
0.0011457 8.76981e-06 -1.74568e-07
8.76981e-06 5.42134e-05 -1.94148e-07
-1.74568e-07 -1.94148e-07 2.15724e-07
0.00113611 4.85032e-06 -1.2063e-07
4.85032e-06 5.01716e-05 -2.42011e-07
-1.2063e-07 -2.42011e-07 -2.01607e-06
0.00117081 9.22775e-06 1.93925e-07
9.22775e-06 6.35105e-05 2.17967e-07
1.93925e-07 2.17967e-07 8.32297e-06
0.00112266 9.0537e-06 -1.88769e-07
9.0537e-06 4.24059e-05 1.80835e-08
-1.88769e-07 1.80835e-08 -1.36146e-05
0.00111024 9.59972e-06 -1.34864e-07
9.59972e-06 3.75261e-05 2.48706e-07
-1.34864e-07 2.48706e-07 -2.00508e-05
0.00115616 9.1978e-06 3.09919e-07
9.1978e-06 6.10156e-05 -2.10251e-08
3.09919e-07 -2.10251e-08 4.70594e-06
0.0011233 8.95947e-06 5.30892e-07
8.95947e-06 4.69066e-05 -6.66352e-09
5.30892e-07 -6.66352e-09 -1.3539e-05
0.00117573 9.91472e-06 -1.06446e-07
9.91472e-06 7.19254e-05 -3.42817e-08
-1.06446e-07 -3.42817e-08 1.13184e-05
0.00129023 1.08677e-05 1.27662e-07
1.08677e-05 0.000126084 5.74837e-07
1.27662e-07 5.74837e-07 6.5076e-05
0.0011036 -3.33577e-05 -9.93071e-06
-3.33577e-05 0.000473056 -5.518e-06
-9.93071e-06 -5.518e-06 0.000518764
0.000556102 -1.34423e-05 -2.40948e-06
-1.34423e-05 0.000101149 -2.56249e-06
-2.40948e-06 -2.56249e-06 7.65787e-05
0.000265565 4.2981e-06 3.96672e-06
4.2981e-06 -0.000146617 3.48159e-06
3.96672e-06 3.48159e-06 -0.000201583
0.000798178 -3.05318e-05 1.61899e-05
-3.05318e-05 0.000203214 1.29257e-05
1.61899e-05 1.29257e-05 0.000246719
0.000832961 -7.87634e-05 7.53847e-06
-7.87634e-05 -0.000919535 -4.67924e-05
7.53847e-06 -4.67924e-05 -0.000813471
0.00258586 1.61151e-05 -3.05389e-07
1.61151e-05 -0.000322388 6.00275e-05
-3.05389e-07 6.00275e-05 -0.000852264
0.000367407 -2.25681e-05 -3.97412e-07
-2.25681e-05 0.000207033 1.51188e-05
-3.97412e-07 1.51188e-05 7.79772e-05
0.000867631 1.34486e-07 -2.20023e-07
1.34486e-07 0.000478793 -6.69322e-06
-2.20023e-07 -6.69322e-06 0.000277031
0.000421732 -4.20251e-05 4.57562e-06
-4.20251e-05 -7.72637e-06 1.38797e-06
4.57562e-06 1.38797e-06 6.76831e-05
0.0057583 -3.07876e-05 6.83564e-06
-3.07876e-05 0.000813259 2.33852e-05
6.83564e-06 2.33852e-05 0.000585054
-0.00101922 -0.000105257 -2.49965e-06
-0.000105257 -0.000786703 -1.25341e-05
-2.49965e-06 -1.25341e-05 -0.000786413
0.00061008 2.70539e-05 -3.97815e-06
2.70539e-05 0.000184378 -2.0641e-05
-3.97815e-06 -2.0641e-05 5.44765e-05
0.00446474 -0.000112174 3.48361e-05
-0.000112174 0.000845392 4.50998e-05
3.48361e-05 4.50998e-05 0.000417277
-0.000206475 -8.84105e-05 3.36229e-05
-8.84105e-05 -3.12128e-05 2.76267e-05
3.36229e-05 2.76267e-05 -7.08932e-06
0.00106805 1.75927e-05 -7.70821e-07
1.75927e-05 4.46901e-05 7.09079e-07
-7.70821e-07 7.09079e-07 -1.87618e-05
0.00115981 1.24874e-05 7.76682e-07
1.24874e-05 7.2501e-05 1.58191e-07
7.76682e-07 1.58191e-07 7.64883e-06
0.00118573 1.05162e-05 1.23372e-07
1.05162e-05 8.33453e-05 -5.15104e-07
1.23372e-07 -5.15104e-07 1.68189e-05
0.000489105 -4.59014e-07 -3.18862e-07
-4.59014e-07 -1.81001e-05 -6.73576e-06
-3.18862e-07 -6.73576e-06 -7.84208e-05
0.0011149 -3.39153e-06 -4.12932e-07
-3.39153e-06 5.23842e-05 -4.84933e-07
-4.12932e-07 -4.84933e-07 -3.87307e-05
0.00120802 5.75416e-06 1.45523e-06
5.75416e-06 0.00010734 -1.51609e-07
1.45523e-06 -1.51609e-07 2.67282e-05
0.00120987 1.27604e-05 -7.75588e-08
1.27604e-05 0.00011387 -1.51448e-09
-7.75588e-08 -1.51448e-09 2.87818e-05
0.000892793 1.15801e-05 1.427e-06
1.15801e-05 0.00012605 6.54038e-06
1.427e-06 6.54038e-06 4.87104e-05
0.000130958 3.10641e-05 1.31286e-06
3.10641e-05 -0.000308614 5.8042e-06
1.31286e-06 5.8042e-06 -0.000373601
0.00201746 -4.8609e-06 -1.36447e-05
-4.8609e-06 0.00107851 3.09485e-07
-1.36447e-05 3.09485e-07 0.00108487
0.000660824 -2.3005e-06 -1.12461e-06
-2.3005e-06 0.000162999 -1.23647e-06
-1.12461e-06 -1.23647e-06 8.37451e-05
0.000345751 -4.55576e-07 -6.35019e-08
-4.55576e-07 -0.000138135 -5.01431e-07
-6.35019e-08 -5.01431e-07 -0.000226986
0.000552871 3.07576e-06 -5.30037e-06
3.07576e-06 -7.21397e-05 1.28604e-05
-5.30037e-06 1.28604e-05 -0.000114568
0.000170538 -2.58828e-05 4.01081e-06
-2.58828e-05 -7.45911e-05 -2.31186e-05
4.01081e-06 -2.31186e-05 -0.000273604
0.00088874 1.8473e-06 1.04475e-05
1.8473e-06 0.000300257 -5.08544e-06
1.04475e-05 -5.08544e-06 0.000242305
0.00361016 6.17219e-05 -2.40888e-05
6.17219e-05 0.000798944 4.76292e-05
-2.40888e-05 4.76292e-05 0.000393735
-0.00175321 7.76476e-05 -3.56587e-05
7.76476e-05 -0.000911008 3.01977e-05
-3.56587e-05 3.01977e-05 -0.000894366
0.000958296 3.08443e-05 1.67526e-05
3.08443e-05 0.000369714 -1.26018e-05
1.67526e-05 -1.26018e-05 0.000409814
0.0010608 -1.06984e-05 1.32808e-07
-1.06984e-05 0.00015439 2.89179e-07
1.32808e-07 2.89179e-07 8.75193e-05
0.000847308 1.58531e-05 1.83647e-06
1.58531e-05 0.00034208 -1.25334e-06
1.83647e-06 -1.25334e-06 0.000346147
-0.00168403 4.22085e-05 -1.54579e-05
4.22085e-05 -0.000601344 5.96637e-06
-1.54579e-05 5.96637e-06 -0.000576752
0.00134591 -5.79899e-05 -7.10702e-06
-5.79899e-05 4.2471e-05 2.46941e-05
-7.10702e-06 2.46941e-05 -0.0002377
0.00447458 6.17426e-05 -2.85452e-06
6.17426e-05 0.00101445 6.47053e-06
-2.85452e-06 6.47053e-06 0.000636851
0.0018332 -3.05189e-05 8.67912e-06
-3.05189e-05 0.000276063 -8.96856e-06
8.67912e-06 -8.96856e-06 0.00019419
-0.00467816 3.32615e-05 3.02547e-05
3.32615e-05 -0.00205037 -1.32591e-05
3.02547e-05 -1.32591e-05 -0.00195071
0.00369994 2.35923e-05 4.712e-05
2.35923e-05 0.000848302 -2.69545e-05
4.712e-05 -2.69545e-05 0.000607786
0.00172037 -5.85955e-05 -2.54522e-05
-5.85955e-05 4.5699e-05 2.63272e-05
-2.54522e-05 2.63272e-05 -0.00011584
0.00116094 -6.12551e-06 -1.7036e-06
-6.12551e-06 0.000131467 8.54121e-07
-1.7036e-06 8.54121e-07 3.9182e-05
0.00112276 -2.05436e-05 5.16099e-07
-2.05436e-05 0.000103634 1.91032e-07
5.16099e-07 1.91032e-07 8.44509e-07
0.00141011 -2.69764e-05 -1.12982e-06
-2.69764e-05 0.000160375 -1.49148e-06
-1.12982e-06 -1.49148e-06 8.64144e-05
0.00116493 -1.63926e-05 -9.74628e-07
-1.63926e-05 9.20012e-05 2.06452e-07
-9.74628e-07 2.06452e-07 3.53775e-06
0.00119765 -1.93895e-05 -4.59428e-07
-1.93895e-05 5.61638e-05 -8.34292e-07
-4.59428e-07 -8.34292e-07 -2.22257e-05
0.00143205 -1.78875e-05 -1.63601e-07
-1.78875e-05 0.000114462 -2.92845e-06
-1.63601e-07 -2.92845e-06 6.16147e-05
0.00112947 -1.56418e-05 -9.76067e-08
-1.56418e-05 4.70996e-05 -2.20959e-07
-9.76067e-08 -2.20959e-07 -2.96998e-05
0.00119269 -1.47171e-05 1.03201e-07
-1.47171e-05 4.73998e-05 -4.84191e-07
1.03201e-07 -4.84191e-07 -1.7574e-05
0.00128565 -1.18392e-05 6.46878e-07
-1.18392e-05 5.84458e-05 -1.92286e-06
6.46878e-07 -1.92286e-06 1.06001e-05
0.00111847 -1.34592e-05 -1.17591e-07
-1.34592e-05 2.85016e-05 3.4887e-07
-1.17591e-07 3.4887e-07 -4.05671e-05
0.00120649 -1.2199e-05 -2.20469e-09
-1.2199e-05 4.23743e-05 -1.44392e-07
-2.20469e-09 -1.44392e-07 -1.62339e-05
0.00123268 -9.26053e-06 1.04273e-06
-9.26053e-06 4.0225e-05 -1.14947e-06
1.04273e-06 -1.14947e-06 -8.8404e-06
0.00120709 -8.51769e-06 7.74235e-07
-8.51769e-06 4.24436e-05 -6.09723e-07
7.74235e-07 -6.09723e-07 -1.00214e-05
0.00127443 -1.17827e-05 1.09318e-07
-1.17827e-05 8.36905e-05 -7.23033e-07
1.09318e-07 -7.23033e-07 2.50372e-05
0.00121435 -1.07038e-05 1.38059e-07
-1.07038e-05 4.59672e-05 3.1658e-07
1.38059e-07 3.1658e-07 -1.06115e-05
0.00110101 -1.1453e-05 -4.29287e-07
-1.1453e-05 2.18961e-05 -2.44065e-08
-4.29287e-07 -2.44065e-08 -3.84778e-05
0.00120472 -1.27418e-05 2.74009e-07
-1.27418e-05 6.58575e-05 -2.18164e-07
2.74009e-07 -2.18164e-07 2.71295e-06
0.00114617 -1.2309e-05 3.92776e-08
-1.2309e-05 2.8682e-05 6.40657e-07
3.92776e-08 6.40657e-07 -3.45779e-05
0.00111324 -9.08907e-06 -4.24597e-07
-9.08907e-06 4.35138e-05 3.49337e-07
-4.24597e-07 3.49337e-07 -9.6975e-06
0.00110607 -1.13131e-05 3.63484e-08
-1.13131e-05 3.63267e-05 -4.43196e-08
3.63484e-08 -4.43196e-08 -2.36357e-05
0.00109081 -1.25621e-05 4.16073e-08
-1.25621e-05 2.58262e-05 -1.6365e-07
4.16073e-08 -1.6365e-07 -3.98603e-05
0.00106764 2.274e-06 -1.0408e-06
2.274e-06 2.86754e-05 5.70831e-07
-1.0408e-06 5.70831e-07 -1.39537e-05
0.00111258 -5.93244e-06 -5.03816e-08
-5.93244e-06 4.5474e-05 -4.11093e-08
-5.03816e-08 -4.11093e-08 -5.75453e-06
0.0011134 -1.04408e-05 1.55488e-07
-1.04408e-05 4.57223e-05 -3.5169e-07
1.55488e-07 -3.5169e-07 -1.06417e-05
0.00100302 7.31849e-06 -1.72343e-06
7.31849e-06 -1.67517e-06 1.13451e-06
-1.72343e-06 1.13451e-06 -2.63297e-05
0.00106866 4.81349e-06 1.00658e-07
4.81349e-06 2.83875e-05 3.06407e-08
1.00658e-07 3.06407e-08 -1.24107e-05
0.00102381 -1.3733e-06 5.64998e-07
-1.3733e-06 6.61775e-06 -1.5975e-07
5.64998e-07 -1.5975e-07 -4.41681e-05
0.000925648 1.10148e-05 -2.55545e-06
1.10148e-05 -4.30542e-05 2.07152e-06
-2.55545e-06 2.07152e-06 -4.18048e-05
0.00102174 6.8224e-06 1.43319e-08
6.8224e-06 2.99409e-06 -5.88111e-09
1.43319e-08 -5.88111e-09 -2.01296e-05
0.00108447 6.17238e-06 8.60077e-07
6.17238e-06 3.3234e-05 -7.01935e-07
8.60077e-07 -7.01935e-07 -5.78884e-06
0.00221539 1.38734e-05 -1.93261e-06
1.38734e-05 0.000575632 1.19613e-06
-1.93261e-06 1.19613e-06 0.000597951
0.000942085 9.98077e-06 5.55572e-08
9.98077e-06 -3.97622e-05 2.70363e-08
5.55572e-08 2.70363e-08 -3.77909e-05
0.00103151 6.06095e-06 1.61819e-06
6.06095e-06 3.78016e-06 -1.18009e-06
1.61819e-06 -1.18009e-06 -1.85121e-05
0.00227339 1.20694e-05 9.29757e-08
1.20694e-05 0.000599381 3.49747e-08
9.29757e-08 3.49747e-08 0.000622044
0.000969828 8.92831e-06 2.26289e-06
8.92831e-06 -3.05381e-05 -2.27599e-06
2.26289e-06 -2.27599e-06 -2.81603e-05
0.00222328 1.0667e-05 3.86287e-06
1.0667e-05 0.000571536 -3.22841e-06
3.86287e-06 -3.22841e-06 0.000594967
0.00122974 -4.9535e-08 -3.05001e-07
-4.9535e-08 9.90722e-05 1.3144e-07
-3.05001e-07 1.3144e-07 5.17673e-05
0.00107987 6.2288e-07 -8.54315e-08
6.2288e-07 2.34255e-05 -1.7623e-07
-8.54315e-08 -1.7623e-07 -2.41471e-05
0.00107968 -3.9998e-06 -9.40819e-07
-3.9998e-06 2.50344e-05 -6.60574e-07
-9.40819e-07 -6.60574e-07 -1.2942e-05
0.00102976 -5.04713e-06 -1.46397e-06
-5.04713e-06 -2.34784e-07 -1.26081e-06
-1.46397e-06 -1.26081e-06 -2.23389e-05
0.00107745 -2.47974e-06 -4.01302e-08
-2.47974e-06 2.21251e-05 1.71178e-08
-4.01302e-08 1.71178e-08 -1.56083e-05
0.00105317 3.22429e-06 5.46895e-07
3.22429e-06 8.91169e-06 3.11058e-07
5.46895e-07 3.11058e-07 -3.90854e-05
0.000976171 -7.72624e-06 -2.01006e-06
-7.72624e-06 -3.15252e-05 -2.39701e-06
-2.01006e-06 -2.39701e-06 -2.87775e-05
0.00103097 -4.33166e-06 -3.99586e-08
-4.33166e-06 -1.26269e-06 1.25894e-08
-3.99586e-08 1.25894e-08 -2.32534e-05
0.00108237 -8.24664e-07 7.97021e-07
-8.24664e-07 2.39604e-05 7.81462e-07
7.97021e-07 7.81462e-07 -1.39972e-05
0.00223518 -9.14479e-06 -3.54152e-06
-9.14479e-06 0.000572837 -3.33784e-06
-3.54152e-06 -3.33784e-06 0.000596845
0.000975406 -6.7347e-06 -7.07742e-08
-6.7347e-06 -3.49354e-05 1.9631e-08
-7.07742e-08 1.9631e-08 -3.17265e-05
0.00103593 -3.70834e-06 1.06579e-06
-3.70834e-06 -1.35717e-07 1.4511e-06
1.06579e-06 1.4511e-06 -2.20627e-05
0.00224892 -7.6435e-06 -1.41937e-07
-7.6435e-06 0.000575503 2.52048e-08
-1.41937e-07 2.52048e-08 0.000600107
0.000972499 -5.76486e-06 1.31286e-06
-5.76486e-06 -3.91676e-05 2.66115e-06
1.31286e-06 2.66115e-06 -3.52715e-05
0.00224648 -6.11455e-06 2.37787e-06
-6.11455e-06 0.000570841 3.48592e-06
2.37787e-06 3.48592e-06 0.000596125
-0.000220034 -1.82276e-05 -1.28492e-05
-1.82276e-05 -0.000283409 -6.28902e-06
-1.28492e-05 -6.28902e-06 -0.000274536
0.000495504 -5.82684e-06 -7.08269e-07
-5.82684e-06 6.06355e-05 -1.83671e-06
-7.08269e-07 -1.83671e-06 -1.15858e-05
0.000448275 4.05033e-06 1.33309e-06
4.05033e-06 -6.4557e-05 6.30265e-07
1.33309e-06 6.30265e-07 -0.00014797
0.00115397 3.6103e-06 5.14399e-08
3.6103e-06 6.06766e-05 2.01197e-07
5.14399e-08 2.01197e-07 7.97921e-06
0.00115503 5.09615e-06 -7.84818e-08
5.09615e-06 6.1973e-05 3.6346e-07
-7.84818e-08 3.6346e-07 8.7397e-06
0.00113245 9.03626e-06 -3.908e-09
9.03626e-06 4.83846e-05 4.00219e-07
-3.908e-09 4.00219e-07 -6.69198e-06
0.00120907 8.97086e-06 1.77306e-07
8.97086e-06 8.53568e-05 -2.94354e-07
1.77306e-07 -2.94354e-07 3.17121e-05
0.00120915 5.55619e-06 2.11585e-07
5.55619e-06 8.56006e-05 -1.41119e-07
2.11585e-07 -1.41119e-07 3.37488e-05
0.00112501 8.98299e-06 2.22184e-07
8.98299e-06 4.14163e-05 2.36854e-07
2.22184e-07 2.36854e-07 -1.35918e-05
0.00113381 9.61052e-06 -7.02759e-08
9.61052e-06 4.84568e-05 1.63267e-08
-7.02759e-08 1.63267e-08 -8.86332e-06
0.00113981 9.09845e-06 4.79308e-08
9.09845e-06 5.06338e-05 3.75164e-08
4.79308e-08 3.75164e-08 -5.12997e-06
0.00116938 1.01807e-05 -1.78051e-07
1.01807e-05 6.98617e-05 2.10005e-07
-1.78051e-07 2.10005e-07 1.03432e-05
0.00121999 1.20277e-05 5.53678e-07
1.20277e-05 9.55741e-05 1.22965e-06
5.53678e-07 1.22965e-06 3.62128e-05
0.00114134 9.752e-06 3.05494e-08
9.752e-06 5.53026e-05 -3.59496e-07
3.05494e-08 -3.59496e-07 -5.21364e-06
0.00119408 1.05251e-05 -1.25765e-08
1.05251e-05 8.03706e-05 4.79544e-08
-1.25765e-08 4.79544e-08 1.925e-05
-0.00383224 -6.00576e-05 3.66348e-05
-6.00576e-05 -0.00173826 1.66367e-05
3.66348e-05 1.66367e-05 -0.00170699
0.000672656 -3.28672e-05 2.06963e-06
-3.28672e-05 0.00023169 1.41502e-06
2.06963e-06 1.41502e-06 0.00027716
0.000345952 -1.40711e-05 1.4836e-05
-1.40711e-05 -2.27857e-05 9.23077e-06
1.4836e-05 9.23077e-06 -4.61961e-05
0.000103636 -4.28224e-05 7.34675e-06
-4.28224e-05 -0.000179431 3.22782e-06
7.34675e-06 3.22782e-06 -0.000106642
0.00327627 -0.000130631 -2.34208e-05
-0.000130631 0.00100019 -5.34998e-05
-2.34208e-05 -5.34998e-05 0.000940699
0.000859457 -5.43461e-05 1.95836e-06
-5.43461e-05 -0.00100583 1.79446e-05
1.95836e-06 1.79446e-05 -0.00116421
-0.000254311 1.90254e-05 1.43984e-06
1.90254e-05 -0.00016173 1.23776e-05
1.43984e-06 1.23776e-05 -0.000645336
0.00109637 4.14209e-05 -5.00693e-06
4.14209e-05 0.0002042 -1.82236e-05
-5.00693e-06 -1.82236e-05 -8.88566e-05
0.00160015 -0.000109071 -3.60104e-07
-0.000109071 0.000404802 -4.13677e-06
-3.60104e-07 -4.13677e-06 0.000362674
0.0041138 -6.76159e-05 1.27008e-05
-6.76159e-05 0.000783925 2.44332e-05
1.27008e-05 2.44332e-05 0.000433626
0.000556766 5.2399e-05 -1.86804e-05
5.2399e-05 -0.000237677 -5.27616e-05
-1.86804e-05 -5.27616e-05 -0.000507158
0.0033907 -2.18959e-05 3.66812e-05
-2.18959e-05 0.000595895 3.66757e-05
3.66812e-05 3.66757e-05 0.000218936
0.00126385 2.50119e-05 1.93323e-06
2.50119e-05 0.000162642 -7.95157e-07
1.93323e-06 -7.95157e-07 9.23828e-05
0.00105123 1.67205e-05 4.71294e-08
1.67205e-05 3.48522e-05 5.60008e-08
4.71294e-08 5.60008e-08 -2.80971e-05
0.00119403 1.20542e-05 1.23433e-06
1.20542e-05 8.60102e-05 -6.70874e-07
1.23433e-06 -6.70874e-07 2.14948e-05
0.000914435 1.25437e-05 -2.25613e-06
1.25437e-05 0.000129716 -3.85399e-06
-2.25613e-06 -3.85399e-06 5.09052e-05
0.00136769 1.33851e-05 8.43179e-07
1.33851e-05 0.000189448 -9.05343e-08
8.43179e-07 -9.05343e-08 0.000104776
0.00102054 3.37023e-05 1.46756e-07
3.37023e-05 8.83756e-05 1.46509e-06
1.46756e-07 1.46509e-06 2.45436e-05
-7.87562e-05 3.54862e-05 3.50596e-06
3.54862e-05 -0.000446443 1.85533e-06
3.50596e-06 1.85533e-06 -0.000502382
-0.00269674 3.68382e-06 5.8393e-05
3.68382e-06 -0.000914651 1.8842e-06
5.8393e-05 1.8842e-06 -0.000771581
0.000459908 -3.76008e-06 -2.6617e-06
-3.76008e-06 0.000130122 2.83409e-07
-2.6617e-06 2.83409e-07 0.000124155
-0.000307738 -1.08871e-06 1.15542e-05
-1.08871e-06 -0.000445458 -1.91003e-06
1.15542e-05 -1.91003e-06 -0.000533025
0.00127757 -8.19146e-06 -7.15311e-06
-8.19146e-06 0.000257224 8.79366e-06
-7.15311e-06 8.79366e-06 0.000192923
0.000727984 -4.41978e-05 -1.55825e-06
-4.41978e-05 9.1252e-05 -1.27786e-06
-1.55825e-06 -1.27786e-06 -3.55542e-05
0.000560456 1.57755e-05 1.51208e-05
1.57755e-05 0.000160635 -7.00838e-06
1.51208e-05 -7.00838e-06 0.000165534
0.00343835 1.52361e-05 -4.03533e-06
1.52361e-05 0.000496529 -2.28528e-06
-4.03533e-06 -2.28528e-06 8.63839e-05
0.00158639 4.90555e-05 -6.48929e-05
4.90555e-05 0.000761465 3.19034e-05
-6.48929e-05 3.19034e-05 0.000717306
0.000839663 -2.6616e-05 -2.10318e-07
-2.6616e-05 -0.000130691 4.53036e-07
-2.10318e-07 4.53036e-07 -0.000206223
-0.00115487 2.02008e-05 -2.37028e-05
2.02008e-05 -0.000357698 6.12433e-06
-2.37028e-05 6.12433e-06 -0.000300514
0.00167161 -4.36985e-06 9.83128e-07
-4.36985e-06 -0.00013686 -3.94697e-07
9.83128e-07 -3.94697e-07 -0.000397077
0.000563823 -4.17033e-05 2.02437e-06
-4.17033e-05 -0.000139813 1.79737e-07
2.02437e-06 1.79737e-07 -0.000223843
0.00235595 -3.54448e-05 6.13961e-06
-3.54448e-05 0.000346219 -8.59765e-06
6.13961e-06 -8.59765e-06 0.000307688
0.00434637 1.78225e-05 5.34538e-05
1.78225e-05 0.000929154 -2.49097e-05
5.34538e-05 -2.49097e-05 0.000741482
0.000591688 -2.48745e-05 -4.85338e-06
-2.48745e-05 -0.000138495 5.63786e-06
-4.85338e-06 5.63786e-06 -0.000206943
0.000724954 -1.81506e-05 -8.57853e-07
-1.81506e-05 -8.27861e-05 -1.1929e-07
-8.57853e-07 -1.1929e-07 -0.000188722
0.00109707 -2.54615e-05 2.58069e-08
-2.54615e-05 9.32032e-06 -4.05394e-09
2.58069e-08 -4.05394e-09 -6.32954e-05
0.00156892 -2.16095e-05 -2.89436e-06
-2.16095e-05 0.000138933 -2.13783e-06
-2.89436e-06 -2.13783e-06 0.00010621
0.00107758 -1.86867e-05 -2.4257e-07
-1.86867e-05 -2.24391e-06 5.51081e-07
-2.4257e-07 5.51081e-07 -7.95285e-05
0.00121366 -1.69236e-05 2.32891e-07
-1.69236e-05 1.2065e-05 -1.58684e-07
2.32891e-07 -1.58684e-07 -3.97626e-05
0.00130691 -1.0756e-05 1.86065e-06
-1.0756e-05 3.4125e-05 -1.47735e-06
1.86065e-06 -1.47735e-06 3.63735e-06
0.00106735 -1.39215e-05 2.52108e-07
-1.39215e-05 -1.26794e-05 1.1563e-06
2.52108e-07 1.1563e-06 -7.66771e-05
0.00122216 -1.16288e-05 1.68882e-07
-1.16288e-05 2.71641e-05 1.89125e-07
1.68882e-07 1.89125e-07 -2.03327e-05
0.00123346 -7.15821e-06 1.87396e-06
-7.15821e-06 2.56318e-05 -6.36389e-07
1.87396e-06 -6.36389e-07 -1.40978e-05
0.00114719 -1.18279e-05 -2.78492e-08
-1.18279e-05 1.33321e-05 1.40225e-06
-2.78492e-08 1.40225e-06 -4.48099e-05
0.00122819 -9.30016e-06 2.10014e-07
-9.30016e-06 3.85847e-05 3.72739e-07
2.10014e-07 3.72739e-07 -1.06844e-05
0.00119716 -6.12239e-06 1.50409e-06
-6.12239e-06 2.85668e-05 -1.32645e-07
1.50409e-06 -1.32645e-07 -1.94204e-05
0.00119439 -6.73277e-06 7.84472e-07
-6.73277e-06 3.8304e-05 -2.80227e-07
7.84472e-07 -2.80227e-07 -1.40053e-05
0.00122158 -8.54086e-06 -1.09925e-07
-8.54086e-06 4.87793e-05 4.14153e-07
-1.09925e-07 4.14153e-07 -3.44894e-06
0.00123838 -9.68072e-06 5.61335e-07
-9.68072e-06 6.41945e-05 -8.31368e-07
5.61335e-07 -8.31368e-07 9.78053e-06
0.00124185 -1.10159e-05 -1.51019e-07
-1.10159e-05 7.57581e-05 -5.20019e-07
-1.51019e-07 -5.20019e-07 1.82109e-05
0.001257 -1.16555e-05 2.03272e-07
-1.16555e-05 7.65798e-05 2.35964e-09
2.03272e-07 2.35964e-09 1.79485e-05
0.00118918 -1.03843e-05 -2.98905e-08
-1.03843e-05 3.43225e-05 1.49458e-06
-2.98905e-08 1.49458e-06 -2.20108e-05
0.00104055 -9.74322e-06 -7.4813e-07
-9.74322e-06 7.31074e-08 4.85555e-07
-7.4813e-07 4.85555e-07 -5.53725e-05
0.00117954 -1.16958e-05 2.02317e-08
-1.16958e-05 6.01913e-05 -1.11958e-08
2.02317e-08 -1.11958e-08 2.36556e-07
0.00120963 -1.26352e-05 3.99258e-07
-1.26352e-05 6.94152e-05 5.98971e-08
3.99258e-07 5.98971e-08 6.79957e-06
0.00107054 -7.04501e-07 -9.89033e-07
-7.04501e-07 3.02663e-05 5.59649e-07
-9.89033e-07 5.59649e-07 -1.46409e-05
0.00112208 -8.67159e-06 2.43163e-08
-8.67159e-06 4.7481e-05 -3.64859e-09
2.43163e-08 -3.64859e-09 -5.73499e-06
0.00103831 -1.10393e-05 2.42946e-07
-1.10393e-05 5.59613e-06 -4.65737e-07
2.42946e-07 -4.65737e-07 -5.44748e-05
0.000995101 7.46792e-06 -1.88765e-06
7.46792e-06 -2.22963e-06 1.06176e-06
-1.88765e-06 1.06176e-06 -2.87783e-05
0.0010738 1.34553e-06 1.51216e-08
1.34553e-06 3.08238e-05 5.51427e-10
1.51216e-08 5.51427e-10 -1.17161e-05
0.00112541 -5.26383e-06 4.9631e-07
-5.26383e-06 5.12597e-05 -2.90367e-07
4.9631e-07 -2.90367e-07 2.11232e-08
0.000909149 1.19407e-05 -2.73263e-06
1.19407e-05 -4.56234e-05 1.97058e-06
-2.73263e-06 1.97058e-06 -4.56031e-05
0.00101588 7.31464e-06 5.49961e-08
7.31464e-06 4.35027e-06 1.64485e-08
5.49961e-08 1.64485e-08 -2.03551e-05
0.0010776 4.64823e-06 1.02345e-06
4.64823e-06 3.22354e-05 -5.77622e-07
1.02345e-06 -5.77622e-07 -8.5216e-06
0.00230138 1.49695e-05 -4.57143e-06
1.49695e-05 0.00062277 2.91555e-06
-4.57143e-06 2.91555e-06 0.000643842
0.000943751 1.09991e-05 4.14405e-08
1.09991e-05 -3.43354e-05 1.75522e-08
4.14405e-08 1.75522e-08 -3.31879e-05
0.00103425 6.82037e-06 1.687e-06
6.82037e-06 8.84998e-06 -1.1757e-06
1.687e-06 -1.1757e-06 -1.43268e-05
0.00167977 1.31587e-05 1.44421e-06
1.31587e-05 0.000316715 -9.72257e-07
1.44421e-06 -9.72257e-07 0.000336447
0.000963747 9.96748e-06 2.4838e-06
9.96748e-06 -2.94262e-05 -2.14408e-06
2.4838e-06 -2.14408e-06 -2.75432e-05
0.00221422 1.21244e-05 4.16254e-06
1.21244e-05 0.000571609 -3.11476e-06
4.16254e-06 -3.11476e-06 0.000594437
0.00115597 -2.681e-06 -3.74909e-07
-2.681e-06 6.64462e-05 1.18128e-07
-3.74909e-07 1.18128e-07 1.74954e-05
0.00114048 -1.94083e-06 1.66451e-07
-1.94083e-06 5.59109e-05 3.50332e-07
1.66451e-07 3.50332e-07 7.92315e-06
0.00108578 -5.36169e-06 -9.94347e-07
-5.36169e-06 3.10638e-05 -6.03734e-07
-9.94347e-07 -6.03734e-07 -7.80926e-06
0.00110354 -5.92041e-07 4.04276e-07
-5.92041e-07 3.56167e-05 4.73534e-08
4.04276e-07 4.73534e-08 -1.17568e-05
0.00107547 -3.84623e-06 1.75214e-08
-3.84623e-06 2.30131e-05 -4.00189e-09
1.75214e-08 -4.00189e-09 -1.49526e-05
0.00102909 -5.82581e-06 -1.57886e-06
-5.82581e-06 1.65924e-06 -1.18375e-06
-1.57886e-06 -1.18375e-06 -2.08523e-05
0.000968554 -8.75896e-06 -2.24606e-06
-8.75896e-06 -3.17879e-05 -2.2703e-06
-2.24606e-06 -2.2703e-06 -2.94496e-05
0.00102767 -5.02241e-06 -4.587e-08
-5.02241e-06 -1.29307e-06 1.60015e-08
-4.587e-08 1.60015e-08 -2.33854e-05
0.00107871 -2.23004e-06 8.87337e-07
-2.23004e-06 2.26841e-05 7.26984e-07
8.87337e-07 7.26984e-07 -1.50639e-05
0.00223262 -1.06006e-05 -3.88169e-06
-1.06006e-05 0.000575455 -3.2295e-06
-3.88169e-06 -3.2295e-06 0.000598903
0.000967023 -7.73157e-06 -6.07151e-08
-7.73157e-06 -3.59077e-05 2.3579e-08
-6.07151e-08 2.3579e-08 -3.3123e-05
0.00103013 -4.30983e-06 1.22126e-06
-4.30983e-06 -1.71337e-06 1.37215e-06
1.22126e-06 1.37215e-06 -2.36966e-05
0.00226291 -9.10797e-06 -1.22181e-07
-9.10797e-06 0.000585782 2.98533e-08
-1.22181e-07 2.98533e-08 0.000609734
0.000965938 -6.74327e-06 1.60517e-06
-6.74327e-06 -3.94244e-05 2.56715e-06
1.60517e-06 2.56715e-06 -3.61825e-05
0.00227001 -7.60876e-06 2.89983e-06
-7.60876e-06 0.000585261 3.43936e-06
2.89983e-06 3.43936e-06 0.000609855
0.000197661 -9.02069e-06 5.67667e-05
-9.02069e-06 -6.34454e-05 4.75783e-06
5.67667e-05 4.75783e-06 -7.49781e-05
0.00117344 -1.80254e-05 -1.98225e-06
-1.80254e-05 0.000567943 -1.1096e-06
-1.98225e-06 -1.1096e-06 0.000581538
0.000493278 -3.59539e-06 1.20435e-05
-3.59539e-06 6.03461e-05 2.52454e-06
1.20435e-05 2.52454e-06 -1.20867e-05
0.00111663 3.49075e-06 3.34366e-07
3.49075e-06 4.24401e-05 2.23891e-07
3.34366e-07 2.23891e-07 -1.0601e-05
0.00112628 8.9603e-06 3.06311e-07
8.9603e-06 4.58512e-05 2.42404e-07
3.06311e-07 2.42404e-07 -9.19176e-06
0.00116654 5.57875e-06 8.55459e-08
5.57875e-06 6.78265e-05 1.18576e-07
8.55459e-08 1.18576e-07 1.47687e-05
0.00113903 7.68026e-06 5.08279e-08
7.68026e-06 5.68663e-05 3.75889e-07
5.08279e-08 3.75889e-07 2.65688e-06
0.0011267 9.25303e-06 -2.00333e-07
9.25303e-06 4.71615e-05 3.21914e-07
-2.00333e-07 3.21914e-07 -8.79271e-06
0.00115747 9.62261e-06 8.45798e-08
9.62261e-06 5.9428e-05 -1.42521e-07
8.45798e-08 -1.42521e-07 2.36462e-06
0.00115676 9.13638e-06 3.31652e-07
9.13638e-06 5.87567e-05 -1.01671e-07
3.31652e-07 -1.01671e-07 3.2509e-06
0.00111646 1.00174e-05 -9.6988e-08
1.00174e-05 4.44915e-05 -7.68155e-08
-9.6988e-08 -7.68155e-08 -1.505e-05
0.00103519 1.00253e-05 8.18785e-08
1.00253e-05 9.42285e-06 5.8493e-07
8.18785e-08 5.8493e-07 -4.94123e-05
0.00115911 1.25458e-05 2.11933e-07
1.25458e-05 6.90572e-05 9.12545e-07
2.11933e-07 9.12545e-07 7.81031e-06
0.00128615 1.78133e-05 8.01918e-07
1.78133e-05 0.000129308 -2.72732e-07
8.01918e-07 -2.72732e-07 6.6941e-05
0.00116919 1.19849e-05 2.38126e-08
1.19849e-05 7.24365e-05 -5.47422e-08
2.38126e-08 -5.47422e-08 1.25308e-05
0.001098 1.01813e-05 -6.64838e-10
1.01813e-05 3.47259e-05 -5.46066e-07
-6.64838e-10 -5.46066e-07 -2.65116e-05
0.0062759 -1.46696e-05 2.29238e-05
-1.46696e-05 0.00160707 1.18597e-05
2.29238e-05 1.18597e-05 0.00132864
-0.000273767 -5.84545e-05 7.98987e-06
-5.84545e-05 -0.000229376 3.58994e-06
7.98987e-06 3.58994e-06 -0.000229609
0.00162646 -3.08741e-05 1.10929e-05
-3.08741e-05 0.000805368 8.66993e-06
1.10929e-05 8.66993e-06 0.000849268
-0.00202088 -8.94001e-05 -2.68815e-05
-8.94001e-05 -0.00111406 -3.2778e-05
-2.68815e-05 -3.2778e-05 -0.00108611
0.00417595 -0.000107142 6.92951e-07
-0.000107142 0.000474985 2.45656e-05
6.92951e-07 2.45656e-05 -9.41851e-05
0.00104926 2.9304e-05 -4.03287e-06
2.9304e-05 0.000380258 -6.85095e-06
-4.03287e-06 -6.85095e-06 0.000247888
0.000765987 5.01942e-05 -1.18974e-05
5.01942e-05 -2.92916e-05 -1.3675e-05
-1.18974e-05 -1.3675e-05 -0.000225194
0.00432312 -7.39427e-05 6.55972e-06
-7.39427e-05 0.000973609 8.76521e-06
6.55972e-06 8.76521e-06 0.000643678
0.000813807 3.64753e-05 -2.41632e-05
3.64753e-05 -0.000148982 -2.45454e-05
-2.41632e-05 -2.45454e-05 -0.000324888
0.0012129 2.95346e-05 6.07946e-06
2.95346e-05 0.000101098 -5.84365e-07
6.07946e-06 -5.84365e-07 1.82563e-05
0.00112338 2.44892e-05 -7.96572e-07
2.44892e-05 0.000101521 -1.18051e-06
-7.96572e-07 -1.18051e-06 3.02052e-05
0.00103841 1.58722e-05 7.61674e-07
1.58722e-05 2.69086e-05 -6.37215e-07
7.61674e-07 -6.37215e-07 -3.5542e-05
0.00184231 3.60622e-05 -3.48747e-06
3.60622e-05 0.00045749 -4.85747e-06
-3.48747e-06 -4.85747e-06 0.000394849
0.000516897 3.90627e-05 -2.36545e-06
3.90627e-05 -0.000231812 -7.9295e-07
-2.36545e-06 -7.9295e-07 -0.000280805
-2.30741e-05 2.04084e-05 3.19926e-05
2.04084e-05 -0.000912872 -2.25019e-06
3.19926e-05 -2.25019e-06 -0.00096346
0.0011887 7.04674e-06 -6.1972e-07
7.04674e-06 0.000508171 4.17552e-06
-6.1972e-07 4.17552e-06 0.00056177
-0.00108248 -2.93527e-06 1.24834e-05
-2.93527e-06 -0.000809139 -6.48437e-07
1.24834e-05 -6.48437e-07 -0.000826873
-1.47637e-05 -2.35874e-05 -6.54397e-06
-2.35874e-05 -0.000476401 7.84559e-06
-6.54397e-06 7.84559e-06 -0.000545824
0.00189775 -5.53629e-05 1.91664e-05
-5.53629e-05 0.000203331 -2.26113e-05
1.91664e-05 -2.26113e-05 -1.94281e-05
0.000382562 2.66915e-05 -8.31273e-05
2.66915e-05 5.69479e-05 1.53921e-05
-8.31273e-05 1.53921e-05 6.48416e-05
0.00502428 1.3578e-05 -1.20242e-05
1.3578e-05 0.0014428 2.84213e-06
-1.20242e-05 2.84213e-06 0.00113209
0.00151257 -3.28572e-05 3.06379e-07
-3.28572e-05 -3.5618e-05 2.26752e-07
3.06379e-07 2.26752e-07 -7.33932e-05
0.00291535 7.8441e-06 1.80867e-05
7.8441e-06 0.000518788 -7.70286e-06
1.80867e-05 -7.70286e-06 0.000399816
0.00204422 -3.79149e-05 1.49517e-05
-3.79149e-05 0.00020474 -4.16505e-06
1.49517e-05 -4.16505e-06 8.20806e-05
0.00223629 -1.99273e-05 1.51978e-06
-1.99273e-05 0.000227918 -5.222e-06
1.51978e-06 -5.222e-06 0.00022732
0.00113279 2.16858e-06 -1.23315e-05
2.16858e-06 0.000195597 9.74617e-06
-1.23315e-05 9.74617e-06 0.000113046
0.000814094 -2.40638e-05 1.49167e-06
-2.40638e-05 -0.000127105 1.15618e-06
1.49167e-06 1.15618e-06 -0.000198301
0.00124538 -2.06642e-05 -1.17576e-06
-2.06642e-05 -1.25913e-05 -5.56449e-08
-1.17576e-06 -5.56449e-08 -4.44285e-05
0.00140155 -6.77977e-06 2.59634e-06
-6.77977e-06 6.21734e-05 2.0073e-06
2.59634e-06 2.0073e-06 4.5828e-05
0.000999119 -1.59857e-05 9.51624e-07
-1.59857e-05 -8.85824e-05 2.40218e-06
9.51624e-07 2.40218e-06 -0.000139387
0.00126439 -1.09204e-05 4.60504e-07
-1.09204e-05 1.40309e-05 8.60877e-07
4.60504e-07 8.60877e-07 -1.68358e-05
0.00124056 -2.76084e-06 2.52892e-06
-2.76084e-06 1.74869e-05 4.18873e-07
2.52892e-06 4.18873e-07 -1.35196e-05
0.00115686 -1.14178e-05 -4.16767e-08
-1.14178e-05 -5.03634e-06 2.08656e-06
-4.16767e-08 2.08656e-06 -5.21702e-05
0.00125464 -7.26787e-06 3.26581e-07
-7.26787e-06 3.68932e-05 5.29502e-07
3.26581e-07 5.29502e-07 -3.42875e-06
0.00121576 -1.8766e-06 2.0939e-06
-1.8766e-06 3.23105e-05 2.04577e-07
2.0939e-06 2.04577e-07 -1.28038e-05
0.00122964 -9.34797e-06 -3.75627e-07
-9.34797e-06 3.98045e-05 1.63364e-06
-3.75627e-07 1.63364e-06 -9.68985e-06
0.00124065 -6.39787e-06 8.93776e-08
-6.39787e-06 4.97757e-05 2.86863e-07
8.93776e-08 2.86863e-07 1.319e-06
0.00119558 -4.15136e-06 1.13415e-06
-4.15136e-06 3.53963e-05 1.15184e-07
1.13415e-06 1.15184e-07 -1.65632e-05
0.00120186 -7.22352e-06 -3.26538e-07
-7.22352e-06 4.18026e-05 4.62581e-08
-3.26538e-07 4.62581e-08 -1.02167e-05
0.00122006 -8.09987e-06 8.35902e-07
-8.09987e-06 5.48291e-05 -3.97036e-07
8.35902e-07 -3.97036e-07 2.44151e-07
0.00123309 -8.56741e-06 -6.55739e-07
-8.56741e-06 5.36486e-05 1.07583e-06
-6.55739e-07 1.07583e-06 1.67075e-06
0.00124327 -9.63519e-06 3.58547e-08
-9.63519e-06 6.59004e-05 -1.13298e-07
3.58547e-08 -1.13298e-07 1.15067e-05
0.00123969 -9.70338e-06 3.03862e-07
-9.70338e-06 6.93578e-05 -5.53307e-07
3.03862e-07 -5.53307e-07 1.4014e-05
0.00109764 -9.36177e-06 -6.27746e-07
-9.36177e-06 1.53939e-05 5.7441e-08
-6.27746e-07 5.7441e-08 -3.99058e-05
0.00123563 -1.10262e-05 3.25583e-08
-1.10262e-05 7.31678e-05 -1.37143e-07
3.25583e-08 -1.37143e-07 1.5445e-05
0.00124373 -1.1552e-05 1.29067e-07
-1.1552e-05 7.14209e-05 8.34136e-07
1.29067e-07 8.34136e-07 1.28056e-05
0.00108353 -2.37049e-06 -1.01706e-06
-2.37049e-06 3.33072e-05 5.91858e-07
-1.01706e-06 5.91858e-07 -1.40762e-05
0.00109069 -9.86276e-06 -1.69488e-07
-9.86276e-06 2.47876e-05 2.40737e-07
-1.69488e-07 2.40737e-07 -3.0351e-05
0.00125458 -1.19212e-05 3.44523e-07
-1.19212e-05 9.68834e-05 -9.88844e-08
3.44523e-07 -9.88844e-08 3.73481e-05
0.000982389 7.56786e-06 -1.97247e-06
7.56786e-06 -5.24439e-06 1.00144e-06
-1.97247e-06 1.00144e-06 -3.41509e-05
0.00107818 -1.26864e-06 -4.85715e-09
-1.26864e-06 3.28835e-05 -9.36749e-09
-4.85715e-09 -9.36749e-09 -1.19333e-05
0.00113176 -8.23072e-06 4.60593e-07
-8.23072e-06 5.1838e-05 -3.65185e-07
4.60593e-07 -3.65185e-07 -1.38294e-06
0.00089197 1.26941e-05 -2.94228e-06
1.26941e-05 -4.86233e-05 1.86304e-06
-2.94228e-06 1.86304e-06 -5.01825e-05
0.00100877 7.47484e-06 3.976e-08
7.47484e-06 4.19543e-06 1.70737e-08
3.976e-08 1.70737e-08 -2.23981e-05
0.00107972 4.87777e-07 1.06695e-06
4.87777e-07 3.28736e-05 -5.35923e-07
1.06695e-06 -5.35923e-07 -9.57766e-06
0.00231882 1.63945e-05 -4.77794e-06
1.63945e-05 0.000637153 2.78224e-06
-4.77794e-06 2.78224e-06 0.00065718
0.000933875 1.1912e-05 5.59633e-08
1.1912e-05 -3.37969e-05 1.4941e-08
5.59633e-08 1.4941e-08 -3.39109e-05
0.00102896 7.31135e-06 1.83362e-06
7.31135e-06 1.04821e-05 -1.10482e-06
1.83362e-06 -1.10482e-06 -1.4275e-05
0.00225025 1.49963e-05 8.41249e-08
1.49963e-05 0.000598789 4.28668e-08
8.41249e-08 4.28668e-08 0.000619973
0.000961725 1.09824e-05 2.66933e-06
1.09824e-05 -2.56749e-05 -2.03525e-06
2.66933e-06 -2.03525e-06 -2.46293e-05
0.00220335 1.35816e-05 4.40934e-06
1.35816e-05 0.000571298 -2.98614e-06
4.40934e-06 -2.98614e-06 0.00059345
0.00105566 -5.185e-08 -3.69251e-07
-5.185e-08 2.09529e-05 7.01232e-08
-3.69251e-07 7.01232e-08 -3.02995e-05
0.00115426 -2.35522e-06 9.39866e-08
-2.35522e-06 6.59522e-05 1.55496e-07
9.39866e-08 1.55496e-07 1.69988e-05
0.000968207 -6.14113e-06 -1.19513e-06
-6.14113e-06 -2.21349e-05 -7.93153e-07
-1.19513e-06 -7.93153e-07 -6.35179e-05
0.00105128 -3.68504e-06 6.35735e-07
-3.68504e-06 1.27786e-05 5.51095e-07
6.35735e-07 5.51095e-07 -3.58924e-05
0.00101777 -5.22139e-06 -2.10075e-08
-5.22139e-06 -1.61928e-06 1.7054e-08
-2.10075e-08 1.7054e-08 -4.10543e-05
0.00102828 -6.65859e-06 -1.67109e-06
-6.65859e-06 4.7041e-06 -1.10512e-06
-1.67109e-06 -1.10512e-06 -1.88301e-05
0.00107117 -3.68569e-06 9.85974e-07
-3.68569e-06 2.09573e-05 6.53399e-07
9.85974e-07 6.53399e-07 -1.69982e-05
0.0010239 -5.8037e-06 -2.61133e-08
-5.8037e-06 -8.62362e-07 1.11719e-08
-2.61133e-08 1.11719e-08 -2.33462e-05
0.000962119 -9.82005e-06 -2.45817e-06
-9.82005e-06 -3.10459e-05 -2.13722e-06
-2.45817e-06 -2.13722e-06 -2.93003e-05
0.00222413 -1.20605e-05 -4.16294e-06
-1.20605e-05 0.000575593 -3.10895e-06
-4.16294e-06 -3.10895e-06 0.000598458
0.000958782 -8.76217e-06 -5.7478e-08
-8.76217e-06 -3.65347e-05 2.55085e-08
-5.7478e-08 2.55085e-08 -3.41438e-05
0.00102568 -4.998e-06 1.3781e-06
-4.998e-06 -2.30877e-06 1.29985e-06
1.3781e-06 1.29985e-06 -2.43898e-05
0.00226856 -1.0563e-05 -1.0613e-07
-1.0563e-05 0.000592357 3.34039e-08
-1.0613e-07 3.34039e-08 0.000615701
0.000957844 -7.73739e-06 1.87133e-06
-7.73739e-06 -4.03041e-05 2.44695e-06
1.87133e-06 2.44695e-06 -3.74822e-05
0.00229131 -9.07177e-06 3.36368e-06
-9.07177e-06 0.000599057 3.37421e-06
3.36368e-06 3.37421e-06 0.000622948
0.00567178 1.53591e-05 1.93458e-05
1.53591e-05 0.00170169 4.12216e-07
1.93458e-05 4.12216e-07 0.00155954
-0.00215593 -1.08952e-05 1.16593e-05
-1.08952e-05 -0.000651604 1.33103e-06
1.16593e-05 1.33103e-06 -0.00056906
0.000210678 -1.77948e-05 9.76675e-06
-1.77948e-05 -1.04756e-05 3.29243e-06
9.76675e-06 3.29243e-06 2.40007e-06
0.00112247 8.89792e-06 5.28651e-07
8.89792e-06 4.44538e-05 -9.22856e-08
5.28651e-07 -9.22856e-08 -1.05623e-05
0.0011781 6.06128e-06 2.74048e-07
6.06128e-06 7.37352e-05 -9.77269e-08
2.74048e-07 -9.77269e-08 2.08493e-05
0.00115431 9.34623e-06 -4.55122e-08
9.34623e-06 6.04595e-05 -6.02282e-09
-4.55122e-08 -6.02282e-09 4.67207e-06
0.00115872 8.12972e-06 4.55049e-08
8.12972e-06 6.61941e-05 6.46689e-08
4.55049e-08 6.46689e-08 1.22022e-05
0.00115915 8.3752e-06 3.32054e-07
8.3752e-06 7.14186e-05 1.11219e-07
3.32054e-07 1.11219e-07 1.53944e-05
0.00112037 9.5611e-06 -9.97836e-08
9.5611e-06 4.84153e-05 4.37168e-07
-9.97836e-08 4.37168e-07 -8.18289e-06
0.00105957 9.83476e-06 1.08303e-08
9.83476e-06 1.72613e-05 -4.82296e-07
1.08303e-08 -4.82296e-07 -4.22983e-05
0.00109744 1.01422e-05 2.65892e-07
1.01422e-05 3.85213e-05 6.48818e-08
2.65892e-07 6.48818e-08 -2.03733e-05
0.00110353 1.23799e-05 2.32761e-07
1.23799e-05 4.52831e-05 -1.37717e-07
2.32761e-07 -1.37717e-07 -1.59692e-05
0.000960439 1.22969e-05 5.72026e-07
1.22969e-05 -2.29825e-05 2.95877e-07
5.72026e-07 2.95877e-07 -8.36303e-05
0.00152398 1.69808e-05 7.92762e-07
1.69808e-05 0.000228006 6.06034e-07
7.92762e-07 6.06034e-07 0.000166839
0.00136769 2.42882e-05 1.01143e-06
2.42882e-05 0.000138262 -1.50875e-06
1.01143e-06 -1.50875e-06 6.13799e-05
0.00116652 1.71763e-05 -9.77954e-08
1.71763e-05 7.37464e-05 1.35056e-07
-9.77954e-08 1.35056e-07 1.13358e-05
0.00110001 1.18648e-05 -3.17267e-07
1.18648e-05 4.07252e-05 -1.06007e-06
-3.17267e-07 -1.06007e-06 -1.97059e-05
0.00131448 -1.54545e-06 -1.85614e-05
-1.54545e-06 0.000203591 -5.1852e-06
-1.85614e-05 -5.1852e-06 0.000174298
0.00277338 -2.47899e-05 -1.08345e-05
-2.47899e-05 0.000313967 -3.7535e-06
-1.08345e-05 -3.7535e-06 0.000113506
0.00133101 -6.93865e-05 -1.5507e-05
-6.93865e-05 0.000615248 -6.98918e-06
-1.5507e-05 -6.98918e-06 0.000587959
0.00189086 -4.55651e-05 -1.3286e-05
-4.55651e-05 -0.000188519 -2.59496e-05
-1.3286e-05 -2.59496e-05 -0.00057083
0.00220331 5.12243e-05 6.57381e-06
5.12243e-05 0.000747096 1.82164e-05
6.57381e-06 1.82164e-05 0.000638532
0.000584365 3.33689e-05 -5.1175e-06
3.33689e-05 -0.000106692 -1.29356e-06
-5.1175e-06 -1.29356e-06 -0.000199827
0.00137264 1.02474e-05 1.00841e-05
1.02474e-05 3.96008e-05 3.89986e-06
1.00841e-05 3.89986e-06 -2.99683e-05
0.000943626 3.10446e-05 3.42467e-07
3.10446e-05 -3.68413e-05 1.59604e-06
3.42467e-07 1.59604e-06 -0.000118121
0.000951357 2.37981e-05 -7.17176e-07
2.37981e-05 2.5726e-05 -6.37586e-08
-7.17176e-07 -6.37586e-08 -4.66484e-05
0.00122884 4.2841e-05 -8.97293e-06
4.2841e-05 3.56909e-05 -9.64538e-06
-8.97293e-06 -9.64538e-06 -6.67962e-06
0.0009118 1.64977e-06 -3.67627e-05
1.64977e-06 -0.000156698 -4.53907e-06
-3.67627e-05 -4.53907e-06 -0.000253401
0.00534279 2.50503e-05 1.21253e-05
2.50503e-05 0.00160137 -2.53227e-06
1.21253e-05 -2.53227e-06 0.00150614
-0.00476155 1.99919e-06 -5.84902e-05
1.99919e-06 -0.00215808 -1.00448e-06
-5.84902e-05 -1.00448e-06 -0.00202185
0.000605696 -2.96623e-05 -1.67063e-06
-2.96623e-05 -0.000446909 5.62751e-06
-1.67063e-06 5.62751e-06 -0.000483019
0.00155436 -2.57201e-05 1.66063e-05
-2.57201e-05 0.00029426 -1.20673e-05
1.66063e-05 -1.20673e-05 0.000229414
0.000692799 2.35063e-06 -7.53509e-06
2.35063e-06 -0.000172127 1.5367e-06
-7.53509e-06 1.5367e-06 -0.000260307
0.00176864 -2.0092e-05 -1.58063e-06
-2.0092e-05 3.85448e-05 -4.45922e-07
-1.58063e-06 -4.45922e-07 3.3415e-05
0.0012839 9.81414e-06 9.93008e-07
9.81414e-06 0.000123156 -4.08973e-07
9.93008e-07 -4.08973e-07 4.40523e-05
0.0015718 5.97248e-06 3.89555e-06
5.97248e-06 8.20733e-05 2.1495e-06
3.89555e-06 2.1495e-06 6.32246e-05
0.00072795 2.30668e-05 2.08859e-06
2.30668e-05 -3.87813e-05 -2.9051e-06
2.08859e-06 -2.9051e-06 -0.000123354
0.000949517 -1.97927e-05 1.00108e-06
-1.97927e-05 -0.000151026 1.33072e-06
1.00108e-06 1.33072e-06 -0.000182092
0.00132467 -6.86003e-06 1.66522e-06
-6.86003e-06 3.07392e-05 1.03626e-06
1.66522e-06 1.03626e-06 1.35455e-05
0.00128177 6.41053e-06 2.09962e-06
6.41053e-06 4.91445e-05 2.00438e-06
2.09962e-06 2.00438e-06 1.49574e-05
0.00121585 -1.1066e-05 -3.64116e-07
-1.1066e-05 -8.77404e-06 2.5195e-06
-3.64116e-07 2.5195e-06 -4.00254e-05
0.00128567 -2.82333e-06 7.0913e-08
-2.82333e-06 4.19546e-05 6.04813e-07
7.0913e-08 6.04813e-07 9.64705e-06
0.00127529 4.73661e-06 2.02997e-06
4.73661e-06 6.00052e-05 6.66823e-07
2.02997e-06 6.66823e-07 1.50771e-05
0.00128071 -7.36827e-06 -1.05737e-06
-7.36827e-06 5.0576e-05 1.47963e-06
-1.05737e-06 1.47963e-06 9.63641e-06
0.00126034 -1.96854e-06 4.539e-09
-1.96854e-06 5.41479e-05 1.34252e-07
4.539e-09 1.34252e-07 8.54559e-06
0.00122144 1.25437e-06 1.31255e-06
1.25437e-06 4.38684e-05 2.5043e-07
1.31255e-06 2.5043e-07 -9.0154e-06
0.00128158 -6.66167e-06 -1.31615e-06
-6.66167e-06 6.97758e-05 6.76144e-07
-1.31615e-06 6.76144e-07 2.08552e-05
0.00122537 -4.71899e-06 -2.49205e-07
-4.71899e-06 5.04014e-05 -1.04387e-07
-2.49205e-07 -1.04387e-07 -1.54412e-06
0.00121085 -5.84811e-06 1.03434e-06
-5.84811e-06 4.88476e-05 1.57521e-07
1.03434e-06 1.57521e-07 -7.29343e-06
0.00120618 -7.69988e-06 -1.25078e-06
-7.69988e-06 4.39193e-05 1.28566e-07
-1.25078e-06 1.28566e-07 -7.81639e-06
0.00119963 -7.87482e-06 -1.08743e-07
-7.87482e-06 4.45699e-05 -1.61002e-07
-1.08743e-07 -1.61002e-07 -9.64195e-06
0.00122377 -8.67921e-06 5.45144e-07
-8.67921e-06 6.11954e-05 -3.27169e-07
5.45144e-07 -3.27169e-07 5.17681e-06
0.0012493 -9.5847e-06 -4.31264e-07
-9.5847e-06 6.81471e-05 6.77974e-07
-4.31264e-07 6.77974e-07 1.37715e-05
0.00123548 -9.66106e-06 6.40926e-08
-9.66106e-06 6.70614e-05 -1.38001e-07
6.40926e-08 -1.38001e-07 1.16814e-05
0.00121191 -8.62806e-06 -7.13912e-08
-8.62806e-06 6.45137e-05 -2.76458e-07
-7.13912e-08 -2.76458e-07 1.03852e-05
0.000985969 -2.49564e-06 -1.30648e-06
-2.49564e-06 -2.0836e-05 5.83172e-07
-1.30648e-06 5.83172e-07 -7.05184e-05
0.00114793 -9.54933e-06 -1.69554e-07
-9.54933e-06 4.04889e-05 1.02701e-07
-1.69554e-07 1.02701e-07 -1.45008e-05
0.00122955 -1.10377e-05 2.30745e-07
-1.10377e-05 7.0613e-05 2.58829e-07
2.30745e-07 2.58829e-07 1.27179e-05
0.000979607 7.69758e-06 -2.01296e-06
7.69758e-06 -4.8613e-06 1.01217e-06
-2.01296e-06 1.01217e-06 -3.6765e-05
0.00108106 -2.35218e-06 7.74817e-09
-2.35218e-06 3.15676e-05 5.88076e-08
7.74817e-09 5.88076e-08 -1.57092e-05
0.00114025 -1.00046e-05 3.581e-07
-1.00046e-05 4.92506e-05 -2.67767e-08
3.581e-07 -2.67767e-08 -5.58299e-06
0.000873166 1.33324e-05 -3.14503e-06
1.33324e-05 -5.23811e-05 1.7376e-06
-3.14503e-06 1.7376e-06 -5.58271e-05
0.0010022 7.6111e-06 1.88713e-08
7.6111e-06 3.94634e-06 -1.04662e-08
1.88713e-08 -1.04662e-08 -2.50149e-05
0.00108581 -1.94008e-06 1.02945e-06
-1.94008e-06 3.54993e-05 -5.87868e-07
1.02945e-06 -5.87868e-07 -9.22824e-06
0.00235484 1.77603e-05 -5.01275e-06
1.77603e-05 0.000660864 2.65928e-06
-5.01275e-06 2.65928e-06 0.000679624
0.000921582 1.26591e-05 6.36257e-08
1.26591e-05 -3.45344e-05 2.12314e-08
6.36257e-08 2.12314e-08 -3.62432e-05
0.0010222 7.47564e-06 1.94972e-06
7.47564e-06 1.05096e-05 -1.01519e-06
1.94972e-06 -1.01519e-06 -1.61286e-05
0.00226579 1.64038e-05 8.57767e-08
1.64038e-05 0.000612293 4.86133e-08
8.57767e-08 4.86133e-08 0.000632407
0.000958495 1.18836e-05 2.86437e-06
1.18836e-05 -2.20139e-05 -1.92084e-06
2.86437e-06 -1.92084e-06 -2.22629e-05
0.00219956 1.50203e-05 4.6355e-06
1.50203e-05 0.000575002 -2.86714e-06
4.6355e-06 -2.86714e-06 0.0005963
0.0011151 2.41464e-06 -3.55606e-07
2.41464e-06 5.24333e-05 -1.83634e-07
-3.55606e-07 -1.83634e-07 1.91854e-08
0.001136 -8.40475e-08 2.26131e-08
-8.40475e-08 5.95825e-05 4.0302e-08
2.26131e-08 4.0302e-08 8.92737e-06
0.000963121 -6.29569e-06 -1.08222e-06
-6.29569e-06 -2.03506e-05 -6.40687e-07
-1.08222e-06 -6.40687e-07 -6.38892e-05
0.0011519 -2.02788e-06 5.40044e-07
-2.02788e-06 6.51378e-05 2.13452e-07
5.40044e-07 2.13452e-07 1.61848e-05
0.000953663 -6.11696e-06 -1.9282e-07
-6.11696e-06 -2.83815e-05 -2.68452e-07
-1.9282e-07 -2.68452e-07 -6.99985e-05
0.0010238 -7.40025e-06 -1.7702e-06
-7.40025e-06 6.90388e-06 -1.002e-06
-1.7702e-06 -1.002e-06 -1.82436e-05
0.000950358 -5.06713e-06 9.46071e-07
-5.06713e-06 -3.4011e-05 6.38666e-07
9.46071e-07 6.38666e-07 -7.401e-05
0.00101897 -6.6439e-06 -2.69574e-08
-6.6439e-06 2.96383e-07 1.08277e-08
-2.69574e-08 1.08277e-08 -2.31974e-05
0.000956898 -1.08894e-05 -2.64083e-06
-1.08894e-05 -2.8914e-05 -2.00759e-06
-2.64083e-06 -2.00759e-06 -2.81449e-05
0.00101876 -5.77947e-06 1.52958e-06
-5.77947e-06 -3.36037e-06 1.21164e-06
1.52958e-06 1.21164e-06 -2.58168e-05
0.00095013 -9.8251e-06 -5.0555e-08
-9.8251e-06 -3.69122e-05 2.52899e-08
-5.0555e-08 2.52899e-08 -3.50873e-05
0.00221458 -1.35285e-05 -4.39547e-06
-1.35285e-05 0.000575833 -2.98039e-06
-4.39547e-06 -2.98039e-06 0.000597996
0.00226836 -1.20221e-05 -9.74519e-08
-1.20221e-05 0.000596452 3.76789e-08
-9.74519e-08 3.76789e-08 0.000619183
0.000948812 -8.76617e-06 2.11246e-06
-8.76617e-06 -4.13752e-05 2.32468e-06
2.11246e-06 2.32468e-06 -3.89311e-05
0.00230491 -1.05254e-05 3.75554e-06
-1.05254e-05 0.000609454 3.28336e-06
3.75554e-06 3.28336e-06 0.000632691
0.00164048 -1.25926e-05 -2.08813e-05
-1.25926e-05 0.000344098 -5.87977e-06
-2.08813e-05 -5.87977e-06 0.000327911
0.000184156 1.08723e-05 -1.4122e-05
1.08723e-05 -0.000879682 -5.45288e-06
-1.4122e-05 -5.45288e-06 -0.00098025
0.00178182 -3.93035e-05 -1.89798e-05
-3.93035e-05 0.000826028 -4.29919e-06
-1.89798e-05 -4.29919e-06 0.000876237
0.00120157 9.91631e-06 7.40423e-07
9.91631e-06 9.01947e-05 3.72465e-07
7.40423e-07 3.72465e-07 3.26289e-05
0.00118149 9.44008e-06 1.62116e-07
9.44008e-06 7.3588e-05 -3.14495e-07
1.62116e-07 -3.14495e-07 1.7964e-05
0.00117795 8.50582e-06 1.52324e-07
8.50582e-06 7.52733e-05 -1.69621e-07
1.52324e-07 -1.69621e-07 2.15044e-05
0.00114275 9.66378e-06 1.34189e-08
9.66378e-06 5.86474e-05 9.94688e-09
1.34189e-08 9.94688e-09 1.88933e-06
0.00113658 8.73457e-06 -1.30583e-07
8.73457e-06 6.14228e-05 -2.8334e-07
-1.30583e-07 -2.8334e-07 5.27598e-06
0.00107117 1.08822e-05 -1.97121e-08
1.08822e-05 3.18308e-05 3.21393e-07
-1.97121e-08 3.21393e-07 -2.60474e-05
0.00117192 1.03126e-05 3.4913e-07
1.03126e-05 7.33739e-05 -5.00243e-07
3.4913e-07 -5.00243e-07 1.44023e-05
0.00105588 1.22555e-05 -6.72336e-07
1.22555e-05 2.5368e-05 -9.86322e-07
-6.72336e-07 -9.86322e-07 -3.59158e-05
0.0011196 1.28531e-05 -8.97558e-08
1.28531e-05 5.12398e-05 1.8659e-09
-8.97558e-08 1.8659e-09 -9.10838e-06
0.00132439 1.60713e-05 6.00303e-08
1.60713e-05 0.00014332 2.42067e-07
6.00303e-08 2.42067e-07 8.32469e-05
0.00124446 1.89014e-05 1.02528e-06
1.89014e-05 8.67565e-05 -1.13549e-06
1.02528e-06 -1.13549e-06 1.85975e-05
0.00132208 1.97111e-05 -2.40759e-06
1.97111e-05 4.43989e-05 -8.24531e-07
-2.40759e-06 -8.24531e-07 -3.97264e-05
0.00125928 2.36031e-05 8.41349e-07
2.36031e-05 9.27963e-05 1.14861e-06
8.41349e-07 1.14861e-06 1.721e-05
0.00106969 1.66294e-05 -1.00408e-06
1.66294e-05 2.86715e-05 4.59201e-07
-1.00408e-06 4.59201e-07 -3.37905e-05
0.0014332 -2.99224e-05 3.58907e-06
-2.99224e-05 -8.01805e-05 7.98727e-06
3.58907e-06 7.98727e-06 -0.000124978
0.0012817 7.81952e-06 8.27199e-07
7.81952e-06 2.43479e-05 1.17529e-06
8.27199e-07 1.17529e-06 -3.01496e-05
6.82271e-05 -2.4958e-05 -5.52735e-05
-2.4958e-05 -0.000627702 -3.4058e-05
-5.52735e-05 -3.4058e-05 -0.000777583
0.00207348 4.99546e-05 9.76482e-06
4.99546e-05 0.000277619 1.88868e-05
9.76482e-06 1.88868e-05 0.000134492
0.00148828 1.21966e-05 2.97772e-06
1.21966e-05 5.66814e-05 4.61556e-07
2.97772e-06 4.61556e-07 -2.48407e-05
0.000637186 3.25559e-05 -9.19981e-07
3.25559e-05 -0.000193705 4.15784e-06
-9.19981e-07 4.15784e-06 -0.000273192
0.00107215 -3.97428e-06 4.23537e-06
-3.97428e-06 0.00020069 -6.30883e-06
4.23537e-06 -6.30883e-06 0.000154009
0.00090516 5.92253e-06 -6.97852e-06
5.92253e-06 0.000168341 4.18534e-07
-6.97852e-06 4.18534e-07 0.000108735
-0.000195563 3.98924e-05 -1.26049e-05
3.98924e-05 -0.00103 -5.34834e-06
-1.26049e-05 -5.34834e-06 -0.00108944
0.00127731 -2.02664e-05 -8.67083e-07
-2.02664e-05 -0.000162192 3.02292e-07
-8.67083e-07 3.02292e-07 -0.000171582
0.00140768 2.84246e-06 1.46085e-05
2.84246e-06 3.58289e-05 -2.26727e-06
1.46085e-05 -2.26727e-06 -5.81479e-05
0.00163141 4.34515e-06 1.19286e-06
4.34515e-06 0.00011769 1.04314e-06
1.19286e-06 1.04314e-06 9.42998e-05
0.00104214 2.43596e-05 9.62615e-07
2.43596e-05 0.000102565 -2.06181e-06
9.62615e-07 -2.06181e-06 2.32509e-05
0.00119282 1.87799e-05 -2.34706e-07
1.87799e-05 3.24135e-05 2.42316e-06
-2.34706e-07 2.42316e-06 -2.98386e-05
0.000547348 1.70866e-05 -3.72323e-07
1.70866e-05 -0.0001731 -2.71508e-06
-3.72323e-07 -2.71508e-06 -0.000250184
0.00122295 -6.94085e-06 2.85284e-07
-6.94085e-06 -1.27451e-05 6.47743e-07
2.85284e-07 6.47743e-07 -3.06683e-05
0.00131667 6.35986e-06 -4.4943e-07
6.35986e-06 7.24595e-05 -2.80002e-07
-4.4943e-07 -2.80002e-07 3.68333e-05
0.00134292 1.33032e-05 1.05659e-06
1.33032e-05 0.000109541 7.97386e-07
1.05659e-06 7.97386e-07 5.47422e-05
0.00133234 -2.84688e-06 -2.08826e-06
-2.84688e-06 6.72863e-05 4.28274e-07
-2.08826e-06 4.28274e-07 3.36578e-05
0.00127999 4.69361e-06 -1.40881e-07
4.69361e-06 6.36963e-05 -1.26738e-07
-1.40881e-07 -1.26738e-07 1.8467e-05
0.00126365 7.49323e-06 1.58769e-06
7.49323e-06 6.32982e-05 5.66088e-07
1.58769e-06 5.66088e-07 8.70285e-06
0.00130036 -2.05333e-06 -2.14297e-06
-2.05333e-06 7.38464e-05 1.77058e-07
-2.14297e-06 1.77058e-07 2.77649e-05
0.00124129 6.5604e-07 -4.41196e-07
6.5604e-07 5.39526e-05 -1.57762e-07
-4.41196e-07 -1.57762e-07 1.19436e-06
0.00122274 -1.07665e-06 9.60337e-07
-1.07665e-06 5.06656e-05 4.11939e-07
9.60337e-07 4.11939e-07 -8.37156e-06
0.00125312 -5.25706e-06 -1.68062e-06
-5.25706e-06 6.44435e-05 -2.11396e-07
-1.68062e-06 -2.11396e-07 1.25159e-05
0.00122083 -5.60911e-06 3.13549e-08
-5.60911e-06 5.34669e-05 -5.40562e-08
3.13549e-08 -5.40562e-08 -2.65518e-06
0.00121559 -7.11307e-06 6.02763e-07
-7.11307e-06 5.6177e-05 8.1947e-08
6.02763e-07 8.1947e-08 -1.84147e-06
0.00117908 -7.6952e-06 -1.02565e-06
-7.6952e-06 3.4249e-05 1.23896e-07
-1.02565e-06 1.23896e-07 -1.95893e-05
0.00118679 -8.33558e-06 2.58185e-08
-8.33558e-06 4.27388e-05 -1.52602e-07
2.58185e-08 -1.52602e-07 -1.30819e-05
0.00115626 -7.55478e-06 -1.89564e-08
-7.55478e-06 3.62203e-05 -1.18763e-07
-1.89564e-08 -1.18763e-07 -1.93207e-05
0.00123208 -9.62132e-06 -1.00735e-07
-9.62132e-06 6.51519e-05 3.89041e-07
-1.00735e-07 3.89041e-07 9.73377e-06
0.00116847 -8.44178e-06 1.07746e-07
-8.44178e-06 4.33158e-05 -1.23184e-07
1.07746e-07 -1.23184e-07 -1.10797e-05
0.00109428 -3.18032e-06 -9.04881e-07
-3.18032e-06 2.58066e-05 1.96584e-07
-9.04881e-07 1.96584e-07 -2.44387e-05
0.000988846 7.19635e-06 -2.07462e-06
7.19635e-06 -1.21921e-06 9.2942e-07
-2.07462e-06 9.2942e-07 -3.62128e-05
0.00104354 -2.38683e-06 -2.82673e-07
-2.38683e-06 7.12082e-06 2.51331e-07
-2.82673e-07 2.51331e-07 -4.20749e-05
0.00119846 -9.72983e-06 3.29198e-07
-9.72983e-06 6.56821e-05 1.31863e-07
3.29198e-07 1.31863e-07 1.10035e-05
0.000855441 1.3865e-05 -3.3283e-06
1.3865e-05 -5.57425e-05 1.66161e-06
-3.3283e-06 1.66161e-06 -6.15403e-05
0.000997857 7.65906e-06 4.78376e-08
7.65906e-06 3.49733e-06 6.07281e-09
4.78376e-08 6.07281e-09 -2.84285e-05
0.00107969 -2.34406e-06 1.05838e-06
-2.34406e-06 3.03256e-05 -4.8089e-07
1.05838e-06 -4.8089e-07 -1.68441e-05
0.00240441 1.9084e-05 -5.25773e-06
1.9084e-05 0.000691506 2.53128e-06
-5.25773e-06 2.53128e-06 0.000708823
0.000908592 1.32883e-05 5.04623e-08
1.32883e-05 -3.56503e-05 9.12497e-09
5.04623e-08 9.12497e-09 -3.92704e-05
0.00102165 7.64912e-06 1.96965e-06
7.64912e-06 1.2973e-05 -1.00045e-06
1.96965e-06 -1.00045e-06 -1.60431e-05
0.00229791 1.77584e-05 8.78082e-08
1.77584e-05 0.000634178 5.5853e-08
8.78082e-08 5.5853e-08 0.000653014
0.000950915 1.26231e-05 3.07937e-06
1.26231e-05 -2.05678e-05 -1.78808e-06
3.07937e-06 -1.78808e-06 -2.2427e-05
0.00221299 1.64127e-05 4.87801e-06
1.64127e-05 0.000587524 -2.75749e-06
4.87801e-06 -2.75749e-06 0.000607724
0.00108725 5.93991e-06 -2.43377e-07
5.93991e-06 3.89044e-05 -1.38228e-07
-2.43377e-07 -1.38228e-07 -1.5301e-05
0.00110072 2.50548e-06 -4.02208e-08
2.50548e-06 4.57421e-05 -1.40249e-07
-4.02208e-08 -1.40249e-07 -6.64993e-06
0.00107429 -4.29348e-06 -8.60497e-07
-4.29348e-06 3.59996e-05 -3.54183e-07
-8.60497e-07 -3.54183e-07 -8.93238e-06
0.00121684 -2.22297e-10 3.56657e-07
-2.22297e-10 9.84872e-05 -6.07795e-08
3.56657e-07 -6.07795e-08 4.84227e-05
0.00100458 -6.63337e-06 -1.69583e-07
-6.63337e-06 2.84538e-07 -2.47662e-07
-1.69583e-07 -2.47662e-07 -4.29795e-05
0.00101794 -8.00287e-06 -1.83599e-06
-8.00287e-06 9.03944e-06 -9.10659e-07
-1.83599e-06 -9.10659e-07 -1.8178e-05
0.000939445 -6.09615e-06 7.85559e-07
-6.09615e-06 -3.44738e-05 2.51795e-07
7.85559e-07 2.51795e-07 -7.63254e-05
0.00101238 -7.37949e-06 -3.28343e-08
-7.37949e-06 1.56197e-06 1.94418e-08
-3.28343e-08 1.94418e-08 -2.35499e-05
0.000950484 -1.1902e-05 -2.82475e-06
-1.1902e-05 -2.63778e-05 -1.8677e-06
-2.82475e-06 -1.8677e-06 -2.70403e-05
0.00100964 -6.629e-06 1.62223e-06
-6.629e-06 -4.12327e-06 1.13385e-06
1.62223e-06 1.13385e-06 -2.75764e-05
0.000940729 -1.09019e-05 -4.43788e-08
-1.09019e-05 -3.67744e-05 2.01741e-08
-4.43788e-08 2.01741e-08 -3.58952e-05
0.00220975 -1.49863e-05 -4.60383e-06
-1.49863e-05 0.000579283 -2.85541e-06
-4.60383e-06 -2.85541e-06 0.000600524
0.000937982 -9.8299e-06 2.33735e-06
-9.8299e-06 -4.28524e-05 2.19591e-06
2.33735e-06 2.19591e-06 -4.09478e-05
0.00226701 -1.34901e-05 -9.08083e-08
-1.34901e-05 0.000600515 4.2296e-08
-9.08083e-08 4.2296e-08 0.000622538
0.00231277 -1.19848e-05 4.07585e-06
-1.19848e-05 0.000617392 3.16742e-06
4.07585e-06 3.16742e-06 0.000639989
0.00111297 -4.34874e-05 4.93005e-06
-4.34874e-05 -8.53037e-05 -5.34593e-07
4.93005e-06 -5.34593e-07 -9.72928e-05
0.00114126 -8.57642e-06 -3.23166e-06
-8.57642e-06 -0.000154447 1.6672e-06
-3.23166e-06 1.6672e-06 -0.000210939
0.00486645 1.15221e-05 -6.02147e-05
1.15221e-05 0.00129723 -2.05109e-05
-6.02147e-05 -2.05109e-05 0.00117292
0.00104881 1.05992e-05 5.54362e-07
1.05992e-05 1.71334e-05 4.70186e-07
5.54362e-07 4.70186e-07 -4.13293e-05
0.00125215 1.23484e-05 5.91663e-07
1.23484e-05 9.94373e-05 -2.09334e-07
5.91663e-07 -2.09334e-07 3.93049e-05
0.00109034 9.98086e-06 1.64951e-07
9.98086e-06 4.01432e-05 9.09946e-08
1.64951e-07 9.09946e-08 -1.76873e-05
0.00116238 9.75474e-06 6.43342e-08
9.75474e-06 6.74887e-05 -4.58495e-07
6.43342e-08 -4.58495e-07 1.05866e-05
0.00111781 9.11443e-06 -2.34988e-07
9.11443e-06 5.31673e-05 -3.88103e-07
-2.34988e-07 -3.88103e-07 -3.10302e-06
0.00111428 1.1194e-05 4.68489e-08
1.1194e-05 5.08277e-05 4.92191e-08
4.68489e-08 4.92191e-08 -7.38227e-06
0.00119807 1.61804e-05 1.91113e-07
1.61804e-05 6.21113e-05 -6.16928e-07
1.91113e-07 -6.16928e-07 -4.5601e-06
0.00127366 1.34045e-05 -5.42054e-09
1.34045e-05 0.000123119 -2.55734e-07
-5.42054e-09 -2.55734e-07 6.30705e-05
0.00113231 1.52015e-05 -1.92825e-06
1.52015e-05 6.20296e-05 -3.78448e-07
-1.92825e-06 -3.78448e-07 3.05964e-06
0.00116715 1.86685e-05 -1.99961e-08
1.86685e-05 4.99331e-05 -3.65171e-08
-1.99961e-08 -3.65171e-08 -1.85824e-05
0.00112107 1.68893e-05 8.97388e-07
1.68893e-05 -3.12225e-05 -1.0953e-06
8.97388e-07 -1.0953e-06 -0.00011047
0.00136809 -8.12096e-06 -9.53955e-07
-8.12096e-06 4.01992e-05 4.78102e-06
-9.53955e-07 4.78102e-06 -1.28736e-05
0.00144177 1.90534e-05 -8.54387e-07
1.90534e-05 0.000100912 5.01319e-07
-8.54387e-07 5.01319e-07 1.8381e-05
0.00115619 2.29743e-05 -7.96731e-07
2.29743e-05 4.96841e-05 2.98669e-06
-7.96731e-07 2.98669e-06 -2.45838e-05
0.00169547 -2.76838e-05 3.6698e-07
-2.76838e-05 4.50165e-05 1.39805e-06
3.6698e-07 1.39805e-06 -3.59129e-07
0.000220014 9.86103e-07 3.38982e-05
9.86103e-07 -0.000595076 9.3584e-06
3.38982e-05 9.3584e-06 -0.000668107
0.00164704 1.42309e-05 -3.62239e-06
1.42309e-05 9.66691e-05 -1.16069e-07
-3.62239e-06 -1.16069e-07 2.99659e-06
0.000979774 -7.33148e-06 5.36182e-07
-7.33148e-06 4.31005e-05 -2.59849e-06
5.36182e-07 -2.59849e-06 2.26388e-06
0.000744146 -7.35554e-06 1.69018e-06
-7.35554e-06 4.01746e-05 -1.68571e-06
1.69018e-06 -1.68571e-06 -5.70485e-06
0.000466648 1.17764e-05 1.83378e-05
1.17764e-05 -0.000340712 5.33888e-06
1.83378e-05 5.33888e-06 -0.000421409
0.00176196 2.45106e-06 -2.6515e-07
2.45106e-06 0.000187181 -1.8596e-06
-2.6515e-07 -1.8596e-06 0.000158705
0.00124062 2.51612e-05 -2.40711e-06
2.51612e-05 0.000193084 -1.45245e-06
-2.40711e-06 -1.45245e-06 0.000119079
0.00140341 1.91959e-05 -8.22102e-07
1.91959e-05 0.000136717 -3.2589e-08
-8.22102e-07 -3.2589e-08 7.60813e-05
0.000950768 1.81651e-05 1.99002e-07
1.81651e-05 1.59281e-05 9.92173e-07
1.99002e-07 9.92173e-07 -5.82583e-05
0.00111619 1.82258e-05 -2.7474e-07
1.82258e-05 4.4674e-05 -6.90193e-07
-2.7474e-07 -6.90193e-07 -2.55222e-05
0.00133735 1.57503e-05 -7.42301e-08
1.57503e-05 0.000215999 -1.28636e-06
-7.42301e-08 -1.28636e-06 0.000157964
0.00136534 6.31628e-06 -3.63297e-06
6.31628e-06 0.000102377 -1.58603e-06
-3.63297e-06 -1.58603e-06 6.52802e-05
0.00126579 1.29726e-05 -8.4653e-08
1.29726e-05 7.30348e-05 -7.27598e-07
-8.4653e-08 -7.27598e-07 1.8856e-05
0.0013483 1.49597e-05 5.7429e-07
1.49597e-05 0.000115921 6.15844e-07
5.7429e-07 6.15844e-07 5.39461e-05
0.00128267 4.6273e-06 -2.47638e-06
4.6273e-06 6.64312e-05 -6.11899e-07
-2.47638e-06 -6.11899e-07 2.09067e-05
0.00125864 7.24348e-06 -1.14924e-07
7.24348e-06 6.18966e-05 -1.45936e-07
-1.14924e-07 -1.45936e-07 6.86232e-06
0.00117072 5.80801e-06 8.85373e-07
5.80801e-06 2.53868e-05 5.19268e-07
8.85373e-07 5.19268e-07 -3.57033e-05
0.00126204 1.32965e-07 -2.10084e-06
1.32965e-07 6.44481e-05 -3.30936e-07
-2.10084e-06 -3.30936e-07 1.18153e-05
0.00122955 -6.97127e-07 2.56634e-08
-6.97127e-07 5.40025e-05 -4.51026e-09
2.56634e-08 -4.51026e-09 -5.00138e-06
0.00122325 -3.09688e-06 5.49901e-07
-3.09688e-06 5.70394e-05 3.0733e-07
5.49901e-07 3.0733e-07 -3.856e-06
0.0012315 -5.32928e-06 -1.01338e-06
-5.32928e-06 5.83993e-05 -2.59596e-07
-1.01338e-06 -2.59596e-07 2.29724e-06
0.00121371 -6.87734e-06 1.04818e-08
-6.87734e-06 5.50124e-05 -3.0737e-08
1.04818e-08 -3.0737e-08 -2.98222e-06
0.00119149 -6.80488e-06 8.82722e-08
-6.80488e-06 5.25493e-05 6.97917e-08
8.82722e-08 6.97917e-08 -4.92262e-06
0.00114958 -8.05541e-06 -5.0258e-07
-8.05541e-06 2.41689e-05 4.22139e-08
-5.0258e-07 4.22139e-08 -3.14539e-05
0.0011424 -7.39107e-06 -4.72637e-08
-7.39107e-06 2.9202e-05 -3.86405e-08
-4.72637e-08 -3.86405e-08 -2.62726e-05
0.00112244 -3.01006e-06 -7.54337e-07
-3.01006e-06 3.7065e-05 1.36527e-07
-7.54337e-07 1.36527e-07 -1.46601e-05
0.00112338 -8.26207e-06 3.79809e-07
-8.26207e-06 2.13861e-05 7.63538e-08
3.79809e-07 7.63538e-08 -3.32787e-05
0.00103949 -2.40869e-06 -4.75069e-08
-2.40869e-06 -3.86471e-07 3.28853e-08
-4.75069e-08 3.28853e-08 -5.07934e-05
0.000995426 6.09234e-06 -2.10606e-06
6.09234e-06 7.1553e-07 7.42783e-07
-2.10606e-06 7.42783e-07 -3.71505e-05
0.000903368 1.43831e-05 -3.55659e-06
1.43831e-05 -2.86265e-05 1.58735e-06
-3.55659e-06 1.58735e-06 -3.70698e-05
0.000998729 6.6425e-06 6.70472e-08
6.6425e-06 3.06769e-06 3.93959e-08
6.70472e-08 3.93959e-08 -3.18738e-05
0.00109979 -2.31409e-06 8.02477e-07
-2.31409e-06 3.44632e-05 -1.09192e-07
8.02477e-07 -1.09192e-07 -1.42441e-05
0.00246884 2.03701e-05 -5.49709e-06
2.03701e-05 0.000729664 2.40318e-06
-5.49709e-06 2.40318e-06 0.000745345
0.000894575 1.381e-05 6.54523e-08
1.381e-05 -3.73449e-05 1.54097e-09
6.54523e-08 1.54097e-09 -4.33391e-05
0.00101655 7.5157e-06 2.00501e-06
7.5157e-06 1.20638e-05 -9.43057e-07
2.00501e-06 -9.43057e-07 -1.9884e-05
0.0023433 1.9073e-05 8.07521e-08
1.9073e-05 0.000662843 5.89158e-08
8.07521e-08 5.89158e-08 0.000680225
0.000943597 1.32421e-05 3.26792e-06
1.32421e-05 -1.91092e-05 -1.69368e-06
3.26792e-06 -1.69368e-06 -2.29037e-05
0.00224123 1.77589e-05 5.12428e-06
1.77589e-05 0.000607587 -2.63292e-06
5.12428e-06 -2.63292e-06 0.000626502
0.000997256 8.77866e-06 -2.02923e-07
8.77866e-06 -9.96112e-06 -2.76223e-07
-2.02923e-07 -2.76223e-07 -6.70893e-05
0.0010266 6.25612e-06 -1.74113e-08
6.25612e-06 9.7374e-06 -2.7876e-08
-1.74113e-08 -2.7876e-08 -4.48612e-05
0.00108967 -7.63692e-07 -8.93755e-07
-7.63692e-07 4.24653e-05 -3.02928e-07
-8.93755e-07 -3.02928e-07 -4.70855e-06
0.00108662 2.56362e-06 1.52611e-07
2.56362e-06 3.91593e-05 -1.98745e-07
1.52611e-07 -1.98745e-07 -1.32077e-05
0.00105956 -5.15352e-06 -6.92963e-09
-5.15352e-06 2.97331e-05 -1.1419e-08
-6.92963e-09 -1.1419e-08 -1.52783e-05
0.00101415 -8.46322e-06 -1.8929e-06
-8.46322e-06 1.21405e-05 -8.37416e-07
-1.8929e-06 -8.37416e-07 -1.75126e-05
0.00104522 -6.98043e-06 8.01306e-07
-6.98043e-06 2.05309e-05 1.74797e-07
8.01306e-07 1.74797e-07 -2.24569e-05
0.00100455 -7.97135e-06 -2.13728e-08
-7.97135e-06 2.84219e-06 1.36686e-08
-2.13728e-08 1.36686e-08 -2.43433e-05
0.000942219 -1.27929e-05 -2.99853e-06
-1.27929e-05 -2.38184e-05 -1.73038e-06
-2.99853e-06 -1.73038e-06 -2.63239e-05
0.001001 -7.35795e-06 1.71918e-06
-7.35795e-06 -3.76294e-06 1.05527e-06
1.71918e-06 1.05527e-06 -2.88389e-05
0.000929579 -1.19207e-05 -5.10484e-08
-1.19207e-05 -3.644e-05 2.05546e-08
-5.10484e-08 2.05546e-08 -3.6973e-05
0.00221452 -1.63971e-05 -4.8154e-06
-1.63971e-05 0.000588542 -2.72887e-06
-4.8154e-06 -2.72887e-06 0.000608577
0.000924346 -1.09144e-05 2.53291e-06
-1.09144e-05 -4.47335e-05 2.06312e-06
2.53291e-06 2.06312e-06 -4.37439e-05
0.00226892 -1.4957e-05 -8.48855e-08
-1.4957e-05 0.000607011 4.61258e-08
-8.48855e-08 4.61258e-08 0.000628132
0.0023198 -1.34519e-05 4.34269e-06
-1.34519e-05 0.000625366 3.03863e-06
4.34269e-06 3.03863e-06 0.000647249
0.00127038 -2.56419e-05 1.59478e-06
-2.56419e-05 7.57346e-05 3.78186e-07
1.59478e-06 3.78186e-07 5.03644e-05
0.0013393 -4.18083e-05 9.45909e-07
-4.18083e-05 6.77841e-05 -3.61261e-06
9.45909e-07 -3.61261e-06 5.5796e-05
0.00059941 -9.99413e-06 1.89379e-05
-9.99413e-06 4.90613e-06 6.07324e-06
1.89379e-05 6.07324e-06 -4.28131e-06
0.00135214 1.36557e-05 6.86553e-07
1.36557e-05 0.000131542 -4.12191e-07
6.86553e-07 -4.12191e-07 6.91977e-05
0.00106522 1.09184e-05 -8.68409e-08
1.09184e-05 2.78348e-05 2.0126e-07
-8.68409e-08 2.0126e-07 -3.00279e-05
0.000949705 1.26441e-05 -3.74934e-07
1.26441e-05 -5.90562e-05 -2.42005e-07
-3.74934e-07 -2.42005e-07 -0.00012432
0.00122059 1.22552e-05 2.43264e-08
1.22552e-05 8.47063e-05 1.94394e-08
2.43264e-08 1.94394e-08 2.43501e-05
0.000980664 1.00419e-05 -3.33697e-07
1.00419e-05 -9.08065e-06 2.77965e-07
-3.33697e-07 2.77965e-07 -6.71897e-05
0.00133046 1.62487e-05 -3.18584e-08
1.62487e-05 7.76842e-05 -2.04726e-06
-3.18584e-08 -2.04726e-06 3.81033e-06
0.00115998 1.14976e-05 -2.6719e-07
1.14976e-05 7.10177e-05 -3.81317e-07
-2.6719e-07 -3.81317e-07 1.24758e-05
0.00117596 1.59566e-05 -2.73624e-09
1.59566e-05 5.08977e-05 4.91438e-07
-2.73624e-09 4.91438e-07 -1.55378e-05
0.00121855 -6.26631e-06 1.38599e-06
-6.26631e-06 -2.25255e-05 3.68154e-06
1.38599e-06 3.68154e-06 -8.67828e-05
0.00108224 1.83627e-05 -4.69411e-07
1.83627e-05 9.61676e-06 1.03299e-06
-4.69411e-07 1.03299e-06 -5.92554e-05
0.00127071 1.75724e-05 -9.37176e-08
1.75724e-05 2.9613e-05 -4.81567e-07
-9.37176e-08 -4.81567e-07 -5.11985e-05
0.00140971 -8.62368e-06 1.51653e-07
-8.62368e-06 5.32668e-05 1.36135e-06
1.51653e-07 1.36135e-06 -2.52936e-07
0.00154691 1.82201e-05 -5.311e-07
1.82201e-05 0.000150729 1.02684e-06
-5.311e-07 1.02684e-06 6.97803e-05
0.00191831 -2.56133e-05 -6.29009e-06
-2.56133e-05 0.00015197 -6.08424e-06
-6.29009e-06 -6.08424e-06 0.000106034
0.0012503 -1.05343e-05 4.22156e-07
-1.05343e-05 0.000156162 -1.34831e-06
4.22156e-07 -1.34831e-06 0.000114787
0.000825128 -6.6151e-06 1.18142e-07
-6.6151e-06 -2.33399e-05 7.92784e-07
1.18142e-07 7.92784e-07 -6.53245e-05
0.00040911 -1.00516e-05 -1.29189e-06
-1.00516e-05 -0.000123479 1.9091e-06
-1.29189e-06 1.9091e-06 -0.00016855
0.0015784 1.95879e-05 -2.90743e-06
1.95879e-05 0.000223273 -3.73345e-06
-2.90743e-06 -3.73345e-06 0.000164356
0.00134383 1.91487e-05 2.56145e-06
1.91487e-05 0.00020089 3.96412e-06
2.56145e-06 3.96412e-06 0.000129591
0.00120852 1.86954e-05 -5.44367e-07
1.86954e-05 8.12909e-05 -9.4075e-07
-5.44367e-07 -9.4075e-07 1.07925e-05
0.00126596 1.5165e-05 3.56756e-07
1.5165e-05 0.000172934 1.99276e-06
3.56756e-07 1.99276e-06 0.000116229
0.00112548 1.62807e-05 -6.12339e-07
1.62807e-05 7.37403e-05 -2.35263e-06
-6.12339e-07 -2.35263e-06 1.63974e-05
0.00119765 1.26592e-05 -1.4352e-06
1.26592e-05 4.09506e-05 -1.5927e-06
-1.4352e-06 -1.5927e-06 -1.26535e-05
0.00126817 1.44891e-05 2.12382e-08
1.44891e-05 7.73779e-05 -3.266e-07
2.12382e-08 -3.266e-07 1.62847e-05
0.00128551 1.34684e-05 -2.22677e-07
1.34684e-05 9.32207e-05 -4.183e-07
-2.22677e-07 -4.183e-07 3.09493e-05
0.0012548 6.88749e-06 -1.69711e-06
6.88749e-06 6.09983e-05 -5.83403e-07
-1.69711e-06 -5.83403e-07 5.52955e-06
0.00122683 6.25586e-06 1.66537e-07
6.25586e-06 5.15542e-05 2.92527e-08
1.66537e-07 2.92527e-08 -9.97694e-06
0.00124116 4.67557e-06 4.00335e-07
4.67557e-06 6.46855e-05 3.09721e-07
4.00335e-07 3.09721e-07 2.00386e-06
0.00123705 -2.81763e-07 -1.08806e-06
-2.81763e-07 5.76544e-05 -4.16242e-07
-1.08806e-06 -4.16242e-07 -1.316e-06
0.00122301 -2.71399e-06 1.68284e-08
-2.71399e-06 5.66804e-05 -3.1855e-08
1.68284e-08 -3.1855e-08 -4.21203e-06
0.00119642 -4.23371e-06 9.28268e-08
-4.23371e-06 5.29336e-05 2.29225e-07
9.28268e-08 2.29225e-07 -7.11589e-06
0.00121226 -6.67896e-06 -5.54852e-07
-6.67896e-06 5.40421e-05 -1.44841e-07
-5.54852e-07 -1.44841e-07 -3.92826e-06
0.00118798 -6.63957e-06 -1.10998e-08
-6.63957e-06 5.0676e-05 -7.34436e-09
-1.10998e-08 -7.34436e-09 -6.76704e-06
0.00112689 -2.78146e-06 -5.82049e-07
-2.78146e-06 3.81517e-05 1.68766e-07
-5.82049e-07 1.68766e-07 -1.58488e-05
0.00113029 -7.19627e-06 -1.30922e-09
-7.19627e-06 2.29646e-05 2.23053e-08
-1.30922e-09 2.23053e-08 -3.24409e-05
0.00111283 -2.45679e-06 -4.21227e-08
-2.45679e-06 3.25629e-05 1.34818e-08
-4.21227e-08 1.34818e-08 -1.91023e-05
0.000995249 5.57339e-06 -2.03856e-06
5.57339e-06 1.22578e-06 5.97186e-07
-2.03856e-06 5.97186e-07 -3.96754e-05
0.000985578 -1.60398e-06 8.71997e-07
-1.60398e-06 -2.61859e-05 -1.51186e-07
8.71997e-07 -1.51186e-07 -7.67533e-05
0.00100186 5.551e-06 2.44657e-08
5.551e-06 3.22987e-06 4.07552e-08
2.44657e-08 4.07552e-08 -3.45471e-05
0.00157556 1.60911e-05 -2.78174e-06
1.60911e-05 0.000301183 7.59664e-07
-2.78174e-06 7.59664e-07 0.000293001
0.00124131 1.92105e-05 -7.79892e-06
1.92105e-05 0.000143845 3.63479e-06
-7.79892e-06 3.63479e-06 0.000151211
0.00124449 1.48414e-05 -2.12606e-08
1.48414e-05 0.000136247 8.50422e-08
-2.12606e-08 8.50422e-08 0.000129092
0.00100889 6.26083e-06 2.09237e-06
6.26083e-06 7.49531e-06 -7.80501e-07
2.09237e-06 -7.80501e-07 -2.7397e-05
0.00240502 2.03368e-05 7.94733e-08
2.03368e-05 0.00069974 6.41175e-08
7.94733e-08 6.41175e-08 0.000715454
0.000933903 1.37548e-05 3.46279e-06
1.37548e-05 -1.88499e-05 -1.61981e-06
3.46279e-06 -1.61981e-06 -2.50418e-05
0.00228164 1.90589e-05 5.38409e-06
1.90589e-05 0.000633916 -2.51568e-06
5.38409e-06 -2.51568e-06 0.000651366
0.00114656 1.27141e-05 1.99319e-07
1.27141e-05 2.5315e-05 3.08001e-08
1.99319e-07 3.08001e-08 -3.88402e-05
0.000983432 1.02382e-05 1.25391e-07
1.02382e-05 -2.32108e-05 -2.53313e-07
1.25391e-07 -2.53313e-07 -8.36039e-05
0.00100586 9.13708e-06 -1.87829e-08
9.13708e-06 -7.64155e-06 -1.89808e-08
-1.87829e-08 -1.89808e-08 -6.50558e-05
0.00109645 1.23729e-06 -8.64825e-07
1.23729e-06 4.35253e-05 -3.43009e-07
-8.64825e-07 -3.43009e-07 -5.84336e-06
0.000965191 6.5608e-06 9.3571e-08
6.5608e-06 -1.97949e-05 1.18481e-07
9.3571e-08 1.18481e-07 -7.47835e-05
0.00107013 -1.77557e-06 -3.49879e-08
-1.77557e-06 3.42708e-05 2.21968e-08
-3.49879e-08 2.21968e-08 -1.29814e-05
0.00101356 -8.76651e-06 -1.94714e-06
-8.76651e-06 1.55302e-05 -7.48303e-07
-1.94714e-06 -7.48303e-07 -1.66986e-05
0.00104491 -6.04694e-06 8.99339e-07
-6.04694e-06 2.35078e-05 3.83457e-07
8.99339e-07 3.83457e-07 -2.15838e-05
0.000996882 -8.4117e-06 -2.58756e-08
-8.4117e-06 4.1852e-06 8.40718e-09
-2.58756e-08 8.40718e-09 -2.54305e-05
0.000932786 -1.35242e-05 -3.18764e-06
-1.35242e-05 -2.11874e-05 -1.59633e-06
-3.18764e-06 -1.59633e-06 -2.58562e-05
0.000991177 -7.93889e-06 1.80864e-06
-7.93889e-06 -3.35108e-06 9.48833e-07
1.80864e-06 9.48833e-07 -3.05044e-05
0.000916157 -1.28151e-05 -4.96348e-08
-1.28151e-05 -3.62126e-05 1.608e-08
-4.96348e-08 1.608e-08 -3.85812e-05
0.00223061 -1.77233e-05 -5.04408e-06
-1.77233e-05 0.000604467 -2.60353e-06
-5.04408e-06 -2.60353e-06 0.000623015
0.000908583 -1.19393e-05 2.71218e-06
-1.19393e-05 -4.65413e-05 1.93757e-06
2.71218e-06 1.93757e-06 -4.69452e-05
0.00227801 -1.63851e-05 -8.47313e-08
-1.63851e-05 0.000618092 5.12746e-08
-8.47313e-08 5.12746e-08 0.000638048
0.00232818 -1.49256e-05 4.56055e-06
-1.49256e-05 0.000634774 2.90215e-06
4.56055e-06 2.90215e-06 0.000655778
0.00136051 -2.68036e-05 1.68237e-06
-2.68036e-05 0.000103998 1.5145e-06
1.68237e-06 1.5145e-06 6.05056e-05
0.00124852 -2.59465e-05 7.76639e-07
-2.59465e-05 5.34143e-05 -1.77737e-06
7.76639e-07 -1.77737e-06 2.68645e-05
0.00166993 -4.02908e-05 -5.72844e-06
-4.02908e-05 0.000267248 -6.89941e-06
-5.72844e-06 -6.89941e-06 0.000255138
0.00131955 1.41837e-05 -1.3137e-07
1.41837e-05 8.10211e-05 -1.07552e-06
-1.3137e-07 -1.07552e-06 1.23422e-05
0.00129041 1.32699e-05 -3.01183e-09
1.32699e-05 0.000108497 1.56226e-07
-3.01183e-09 1.56226e-07 4.71404e-05
0.00106792 1.12117e-05 -9.53687e-07
1.12117e-05 3.21715e-05 -1.69105e-07
-9.53687e-07 -1.69105e-07 -2.50824e-05
0.00117856 1.32433e-05 7.5977e-08
1.32433e-05 4.51512e-05 2.62975e-07
7.5977e-08 2.62975e-07 -1.93068e-05
0.00118829 1.21588e-05 -6.03029e-07
1.21588e-05 6.95591e-05 3.39301e-07
-6.03029e-07 3.39301e-07 8.98731e-06
0.00120701 -1.50876e-06 3.25788e-07
-1.50876e-06 -5.26083e-06 1.23676e-06
3.25788e-07 1.23676e-06 -7.59624e-05
0.0013543 1.64623e-05 -4.18343e-07
1.64623e-05 8.9523e-05 -7.94124e-07
-4.18343e-07 -7.94124e-07 1.49881e-05
0.00114826 1.5745e-05 -2.18739e-07
1.5745e-05 3.72814e-05 1.62096e-06
-2.18739e-07 1.62096e-06 -2.89357e-05
0.00138173 -5.90807e-06 6.58336e-08
-5.90807e-06 4.90096e-05 1.14971e-06
6.58336e-08 1.14971e-06 -1.57576e-05
0.00141525 1.82422e-05 -8.12253e-07
1.82422e-05 8.80066e-05 4.24303e-07
-8.12253e-07 4.24303e-07 5.65291e-06
0.00145135 -8.99165e-06 1.47641e-06
-8.99165e-06 6.6491e-05 -2.05266e-06
1.47641e-06 -2.05266e-06 1.25163e-05
0.000617475 -3.36703e-06 4.15789e-07
-3.36703e-06 -0.000125081 -2.55269e-07
4.15789e-07 -2.55269e-07 -0.000170699
0.00107696 -9.34987e-06 -5.2153e-07
-9.34987e-06 8.38009e-05 -3.3796e-07
-5.2153e-07 -3.3796e-07 4.12061e-05
0.000642407 -5.97848e-06 9.1735e-07
-5.97848e-06 -0.000102895 4.18423e-06
9.1735e-07 4.18423e-06 -0.000146017
0.00130767 1.91938e-05 7.2722e-07
1.91938e-05 0.000121179 -1.15847e-06
7.2722e-07 -1.15847e-06 5.03872e-05
0.0011886 1.45798e-05 1.33225e-06
1.45798e-05 0.00012725 4.67224e-06
1.33225e-06 4.67224e-06 7.1829e-05
0.0011558 1.62444e-05 -5.78575e-07
1.62444e-05 8.45656e-05 -2.939e-07
-5.78575e-07 -2.939e-07 2.71725e-05
0.00109386 1.29951e-05 4.36607e-07
1.29951e-05 4.93492e-05 -1.18217e-06
4.36607e-07 -1.18217e-06 -7.53213e-06
0.00117597 1.39875e-05 -8.06309e-07
1.39875e-05 3.30125e-05 -4.28641e-07
-8.06309e-07 -4.28641e-07 -2.71648e-05
0.00129715 1.33503e-05 -2.07804e-07
1.33503e-05 9.31153e-05 -1.39138e-07
-2.07804e-07 -1.39138e-07 3.06653e-05
0.00122662 1.11584e-05 -2.52745e-07
1.11584e-05 6.5071e-05 -1.36472e-06
-2.52745e-07 -1.36472e-06 5.22326e-06
0.00128428 6.66885e-06 -9.29248e-07
6.66885e-06 7.82895e-05 -2.42511e-07
-9.29248e-07 -2.42511e-07 1.63228e-05
0.00123408 4.88545e-06 1.92228e-08
4.88545e-06 6.13849e-05 3.18597e-07
1.92228e-08 3.18597e-07 -1.35705e-06
0.00120763 3.30491e-06 3.52945e-08
3.30491e-06 5.75497e-05 2.70676e-07
3.52945e-08 2.70676e-07 -4.6156e-06
0.00122267 -2.25798e-06 -5.14168e-07
-2.25798e-06 5.62738e-05 -3.70097e-07
-5.14168e-07 -3.70097e-07 -4.61518e-06
0.00119611 -4.07223e-06 -5.02316e-09
-4.07223e-06 5.25783e-05 -1.30573e-08
-5.02316e-09 -1.30573e-08 -7.46833e-06
0.00113137 -1.82668e-06 -5.02547e-07
-1.82668e-06 3.85877e-05 2.39538e-07
-5.02547e-07 2.39538e-07 -1.80472e-05
0.00118474 -6.5063e-06 -6.59794e-08
-6.5063e-06 4.89276e-05 -9.75314e-08
-6.59794e-08 -9.75314e-08 -8.48678e-06
0.00112138 -2.44205e-06 -3.01933e-08
-2.44205e-06 3.55641e-05 1.80504e-08
-3.01933e-08 1.80504e-08 -1.84016e-05
0.000996141 5.21739e-06 -1.90995e-06
5.21739e-06 3.24793e-06 5.30437e-07
-1.90995e-06 5.30437e-07 -4.10848e-05
0.00110285 -1.92628e-06 7.00958e-07
-1.92628e-06 2.78921e-05 -1.22752e-07
7.00958e-07 -1.22752e-07 -2.37128e-05
0.00100336 5.19595e-06 -3.76558e-09
5.19595e-06 4.35538e-06 3.28333e-08
-3.76558e-09 3.28333e-08 -3.64439e-05
0.00159206 1.6663e-05 -2.86193e-06
1.6663e-05 0.000316864 6.55505e-07
-2.86193e-06 6.55505e-07 0.000305413
0.00100829 4.96168e-06 2.07582e-06
4.96168e-06 5.75217e-06 -6.10423e-07
2.07582e-06 -6.10423e-07 -3.19357e-05
0.00156069 1.58137e-05 1.54443e-06
1.58137e-05 0.00029476 -6.99896e-07
1.54443e-06 -6.99896e-07 0.000286206
0.00120271 2.01061e-05 -8.4255e-06
2.01061e-05 0.000134641 3.48753e-06
-8.4255e-06 3.48753e-06 0.000139327
0.00185021 2.04563e-05 -3.54109e-06
2.04563e-05 0.000438104 1.54496e-06
-3.54109e-06 1.54496e-06 0.00044883
0.00158844 1.51561e-05 4.40202e-06
1.51561e-05 0.000302389 -1.51167e-06
4.40202e-06 -1.51167e-06 0.000296527
0.00234152 2.02996e-05 5.70647e-06
2.02996e-05 0.000669953 -2.41498e-06
5.70647e-06 -2.41498e-06 0.0006857
0.00123771 1.2045e-05 -1.17489e-07
1.2045e-05 4.30877e-05 -8.40389e-07
-1.17489e-07 -8.40389e-07 -2.47619e-05
0.00129163 1.16495e-05 5.04768e-07
1.16495e-05 0.00011064 -1.00586e-07
5.04768e-07 -1.00586e-07 5.00416e-05
0.00116177 1.28358e-05 3.66942e-07
1.28358e-05 3.53828e-05 5.06909e-07
3.66942e-07 5.06909e-07 -2.73503e-05
0.00109249 3.25889e-06 -7.19836e-07
3.25889e-06 3.984e-05 -5.99629e-07
-7.19836e-07 -5.99629e-07 -1.27337e-05
0.00109389 1.08789e-05 -8.36784e-08
1.08789e-05 2.76529e-05 -2.95289e-09
-8.36784e-08 -2.95289e-09 -3.25922e-05
0.00101659 9.48772e-06 1.77946e-07
9.48772e-06 -4.36065e-06 3.38949e-07
1.77946e-07 3.38949e-07 -6.2059e-05
0.00108486 7.09798e-07 2.57669e-08
7.09798e-07 3.9149e-05 3.85713e-09
2.57669e-08 3.85713e-09 -1.0335e-05
0.00101309 -8.95247e-06 -1.88729e-06
-8.95247e-06 1.8062e-05 -7.50942e-07
-1.88729e-06 -7.50942e-07 -1.71053e-05
0.0010511 -2.77961e-06 7.83891e-07
-2.77961e-06 2.6316e-05 3.31212e-07
7.83891e-07 3.31212e-07 -2.10151e-05
0.000993148 -8.68177e-06 -4.20462e-08
-8.68177e-06 6.25031e-06 9.86841e-09
-4.20462e-08 9.86841e-09 -2.59595e-05
0.000921328 -1.40765e-05 -3.38906e-06
-1.40765e-05 -1.9208e-05 -1.46305e-06
-3.38906e-06 -1.46305e-06 -2.62292e-05
0.00097986 -8.3605e-06 1.8616e-06
-8.3605e-06 -3.65546e-06 8.64857e-07
1.8616e-06 8.64857e-07 -3.32339e-05
0.000901449 -1.35473e-05 -5.70281e-08
-1.35473e-05 -3.59132e-05 1.68469e-08
-5.70281e-08 1.68469e-08 -4.04443e-05
0.00225747 -1.89349e-05 -5.29915e-06
-1.89349e-05 0.000626657 -2.47408e-06
-5.29915e-06 -2.47408e-06 0.000643479
0.000890096 -1.28366e-05 2.89647e-06
-1.28366e-05 -4.86015e-05 1.80136e-06
2.89647e-06 1.80136e-06 -5.0834e-05
0.00229655 -1.77359e-05 -8.16001e-08
-1.77359e-05 0.000634951 5.51574e-08
-8.16001e-08 5.51574e-08 0.000653463
0.0023418 -1.63718e-05 4.75249e-06
-1.63718e-05 0.00064778 2.76524e-06
4.75249e-06 2.76524e-06 0.000667658
0.00123061 -1.80904e-05 3.56464e-08
-1.80904e-05 6.98753e-05 2.97026e-06
3.56464e-08 2.97026e-06 1.50748e-05
0.00126573 -2.60488e-05 2.11242e-07
-2.60488e-05 6.21291e-05 -1.07702e-06
2.11242e-07 -1.07702e-06 1.86526e-05
0.00126749 -2.63834e-05 8.42851e-07
-2.63834e-05 4.91215e-05 -2.96112e-06
8.42851e-07 -2.96112e-06 2.13905e-05
0.00106369 2.06688e-06 -2.73506e-07
2.06688e-06 -6.08388e-05 6.8411e-07
-2.73506e-07 6.8411e-07 -0.00012871
0.00132003 1.38874e-05 7.39758e-08
1.38874e-05 8.11969e-05 -3.32415e-07
7.39758e-08 -3.32415e-07 1.24106e-05
0.00124186 1.29226e-05 -7.17028e-07
1.29226e-05 9.15378e-05 6.01937e-07
-7.17028e-07 6.01937e-07 3.11654e-05
0.00140641 1.38432e-05 -8.6342e-08
1.38432e-05 0.000148879 3.4851e-07
-8.6342e-08 3.4851e-07 8.5229e-05
0.00136407 -8.92344e-07 -1.49247e-08
-8.92344e-07 6.65245e-05 7.85177e-08
-1.49247e-08 7.85177e-08 -3.80898e-06
0.00138016 1.66627e-05 -4.17383e-07
1.66627e-05 0.000102283 3.74524e-07
-4.17383e-07 3.74524e-07 2.70874e-05
0.0015407 -5.51842e-06 -8.45534e-07
-5.51842e-06 0.000118646 -1.24879e-06
-8.45534e-07 -1.24879e-06 5.33625e-05
0.000893781 -1.71219e-06 1.714e-06
-1.71219e-06 -3.33905e-06 2.26372e-07
1.714e-06 2.26372e-07 -5.38973e-05
0.000869896 -2.6122e-06 -2.01525e-08
-2.6122e-06 -1.57186e-05 -6.62085e-08
-2.01525e-08 -6.62085e-08 -6.29667e-05
0.000907186 -7.93042e-06 -1.77259e-06
-7.93042e-06 1.3116e-05 1.04835e-06
-1.77259e-06 1.04835e-06 -3.06889e-05
0.00103307 1.02548e-05 5.05119e-07
1.02548e-05 3.86116e-05 -3.75481e-07
5.05119e-07 -3.75481e-07 -1.75288e-05
0.00120265 1.6237e-05 3.30058e-07
1.6237e-05 0.000103067 1.18392e-06
3.30058e-07 1.18392e-06 4.56155e-05
0.00110105 1.30603e-05 3.70154e-07
1.30603e-05 5.39012e-05 -9.65015e-08
3.70154e-07 -9.65015e-08 -2.90779e-06
0.00117545 1.2312e-05 2.07598e-07
1.2312e-05 6.78118e-05 -7.37675e-08
2.07598e-07 -7.37675e-08 1.10327e-05
0.00130972 1.32401e-05 -4.91473e-07
1.32401e-05 9.3573e-05 3.09946e-07
-4.91473e-07 3.09946e-07 3.09278e-05
0.00120555 1.09011e-05 -3.91035e-07
1.09011e-05 5.65792e-05 -4.9668e-07
-3.91035e-07 -4.9668e-07 -3.34949e-06
0.00120885 1.00741e-05 -1.79529e-07
1.00741e-05 6.35539e-05 -9.71258e-07
-1.79529e-07 -9.71258e-07 2.58303e-06
0.00122583 5.09314e-06 8.25448e-09
5.09314e-06 5.75527e-05 2.80148e-07
8.25448e-09 2.80148e-07 -5.24944e-06
0.0011945 3.32171e-06 7.02001e-09
3.32171e-06 5.18347e-05 1.97508e-07
7.02001e-09 1.97508e-07 -1.02859e-05
0.00114394 2.75616e-06 -4.92362e-07
2.75616e-06 4.41381e-05 2.88061e-07
-4.92362e-07 2.88061e-07 -1.5134e-05
0.00119477 -3.83935e-06 -6.03418e-08
-3.83935e-06 5.17552e-05 -2.65674e-07
-6.03418e-08 -2.65674e-07 -8.28886e-06
0.00113001 -1.62854e-06 -1.89277e-08
-1.62854e-06 3.79385e-05 1.33452e-08
-1.89277e-08 1.33452e-08 -1.86856e-05
0.000999325 5.03385e-06 -1.78971e-06
5.03385e-06 5.90158e-06 5.0007e-07
-1.78971e-06 5.0007e-07 -4.20018e-05
0.00111585 -2.03748e-06 5.77795e-07
-2.03748e-06 3.2971e-05 -1.49515e-07
5.77795e-07 -1.49515e-07 -2.09605e-05
0.00100488 5.05845e-06 -1.79626e-08
5.05845e-06 6.67785e-06 3.80618e-08
-1.79626e-08 3.80618e-08 -3.75538e-05
0.00160054 1.70504e-05 -2.88361e-06
1.70504e-05 0.000330959 5.86321e-07
-2.88361e-06 5.86321e-07 0.000315658
0.0010113 4.85321e-06 1.98804e-06
4.85321e-06 7.41096e-06 -5.03276e-07
1.98804e-06 -5.03276e-07 -3.32867e-05
0.00156392 1.63422e-05 1.64188e-06
1.63422e-05 0.000303923 -6.60651e-07
1.64188e-06 -6.60651e-07 0.000292134
0.00121949 2.08342e-05 -8.97779e-06
2.08342e-05 0.000154371 3.25861e-06
-8.97779e-06 3.25861e-06 0.000155893
0.00154757 1.55372e-05 5.83055e-06
1.55372e-05 0.000289142 -2.17075e-06
5.83055e-06 -2.17075e-06 0.000280214
0.00117228 2.04651e-05 -3.04935e-06
2.04651e-05 0.000119537 1.45445e-06
-3.04935e-06 1.45445e-06 0.000124603
0.00245448 2.20001e-05 2.59726e-06
2.20001e-05 0.0007303 -8.62191e-07
2.59726e-06 -8.62191e-07 0.000744378
0.00138238 2.49719e-06 -3.7203e-07
2.49719e-06 8.9086e-05 2.38063e-07
-3.7203e-07 2.38063e-07 2.16151e-05
0.00124284 1.14791e-05 1.08098e-07
1.14791e-05 6.00695e-05 -7.82055e-07
1.08098e-07 -7.82055e-07 -4.91588e-06
0.00128079 1.23427e-05 -2.84149e-07
1.23427e-05 6.65392e-05 4.2237e-07
-2.84149e-07 4.2237e-07 -7.06043e-07
0.00132623 5.82974e-06 -3.95571e-07
5.82974e-06 0.000142175 -1.58349e-07
-3.95571e-07 -1.58349e-07 8.79708e-05
0.00121453 1.16134e-05 2.80707e-07
1.16134e-05 7.38318e-05 -3.70573e-08
2.80707e-07 -3.70573e-08 1.28067e-05
0.00117567 1.29465e-05 4.24478e-07
1.29465e-05 4.48663e-05 8.77784e-07
4.24478e-07 8.77784e-07 -1.64481e-05
0.00101693 -6.39046e-06 -1.85932e-06
-6.39046e-06 2.05916e-05 -9.25462e-07
-1.85932e-06 -9.25462e-07 -1.86153e-05
0.00109397 3.3271e-06 4.1894e-08
3.3271e-06 4.09601e-05 -5.82883e-08
4.1894e-08 -5.82883e-08 -1.16934e-05
0.00120327 1.1539e-05 3.45801e-07
1.1539e-05 7.80823e-05 4.95281e-07
3.45801e-07 4.95281e-07 1.79784e-05
0.00107177 2.40599e-07 7.95125e-07
2.40599e-07 3.40736e-05 2.86169e-07
7.95125e-07 2.86169e-07 -1.55247e-05
0.000992458 -8.82079e-06 -2.60935e-08
-8.82079e-06 9.04823e-06 -2.85723e-08
-2.60935e-08 -2.85723e-08 -2.61597e-05
0.000910503 -1.44126e-05 -3.56815e-06
-1.44126e-05 -1.68162e-05 -1.40396e-06
-3.56815e-06 -1.40396e-06 -2.65078e-05
0.00097288 -8.60168e-06 1.91695e-06
-8.60168e-06 -2.96459e-06 7.96721e-07
1.91695e-06 7.96721e-07 -3.51553e-05
0.000886208 -1.40978e-05 -6.3033e-08
-1.40978e-05 -3.55802e-05 1.98347e-08
-6.3033e-08 1.98347e-08 -4.24668e-05
0.00229403 -2.00203e-05 -5.5797e-06
-2.00203e-05 0.000654323 -2.335e-06
-5.5797e-06 -2.335e-06 0.000669251
0.000870309 -1.35693e-05 3.06921e-06
-1.35693e-05 -5.05443e-05 1.66854e-06
3.06921e-06 1.66854e-06 -5.49384e-05
0.00232453 -1.89766e-05 -8.10942e-08
-1.89766e-05 0.000657476 6.01044e-08
-8.10942e-08 6.01044e-08 0.0006743
0.00236277 -1.77459e-05 4.95553e-06
-1.77459e-05 0.000665554 2.63102e-06
4.95553e-06 2.63102e-06 0.000684033
0.00126663 -1.27608e-05 5.99418e-07
-1.27608e-05 8.39352e-05 1.64204e-06
5.99418e-07 1.64204e-06 2.59655e-05
0.00131176 -1.82415e-05 4.70947e-08
-1.82415e-05 9.92279e-05 6.04882e-07
4.70947e-08 6.04882e-07 4.36053e-05
0.00116997 -2.53046e-05 -1.32561e-06
-2.53046e-05 1.98097e-05 -3.62765e-06
-1.32561e-06 -3.62765e-06 -2.36427e-05
0.00123027 1.53804e-06 -9.82643e-08
1.53804e-06 6.57522e-06 -1.26534e-07
-9.82643e-08 -1.26534e-07 -6.21073e-05
0.0013165 1.3578e-05 -8.61908e-08
1.3578e-05 7.94452e-05 4.27544e-07
-8.61908e-08 4.27544e-07 1.05612e-05
0.00151188 -2.58363e-07 -7.35315e-08
-2.58363e-07 0.000134059 -1.18454e-06
-7.35315e-08 -1.18454e-06 6.4096e-05
0.000944864 -2.09667e-06 9.30792e-07
-2.09667e-06 1.96603e-05 4.57318e-07
9.30792e-07 4.57318e-07 -3.78919e-05
0.000948479 -1.23278e-06 5.02781e-07
-1.23278e-06 2.88529e-05 -1.3462e-08
5.02781e-07 -1.3462e-08 -2.15244e-05
0.00112974 -1.89932e-06 -4.23156e-07
-1.89932e-06 9.70464e-05 2.70401e-07
-4.23156e-07 2.70401e-07 4.81667e-05
0.00108061 1.02076e-05 -2.25041e-07
1.02076e-05 5.90737e-05 4.63947e-07
-2.25041e-07 4.63947e-07 1.83688e-06
0.00107175 1.06549e-05 1.99701e-07
1.06549e-05 5.0017e-05 -1.27184e-07
1.99701e-07 -1.27184e-07 -7.50189e-06
0.00110941 1.314e-05 2.32407e-08
1.314e-05 5.89852e-05 7.94829e-07
2.32407e-08 7.94829e-07 2.24929e-06
0.00114452 1.20408e-05 9.86627e-08
1.20408e-05 5.40585e-05 3.92747e-07
9.86627e-08 3.92747e-07 -2.72103e-06
0.00125523 1.20444e-05 3.85831e-07
1.20444e-05 0.000102811 -2.67033e-07
3.85831e-07 -2.67033e-07 4.50999e-05
0.00118408 1.06389e-05 -1.14521e-07
1.06389e-05 4.79154e-05 3.15721e-07
-1.14521e-07 3.15721e-07 -1.20964e-05
0.00118172 1.00091e-05 -1.93649e-07
1.00091e-05 5.20602e-05 -3.50153e-07
-1.93649e-07 -3.50153e-07 -8.82887e-06
0.00114625 8.55204e-06 -6.16045e-07
8.55204e-06 4.9439e-05 -2.02434e-07
-6.16045e-07 -2.02434e-07 -1.05926e-05
0.0011817 3.33635e-06 -3.23601e-08
3.33635e-06 4.62709e-05 1.26276e-07
-3.23601e-08 1.26276e-07 -1.58055e-05
0.00113226 3.0507e-06 -1.72516e-08
3.0507e-06 3.90659e-05 8.86588e-08
-1.72516e-08 8.86588e-08 -2.01764e-05
0.00100645 6.09689e-06 -1.71078e-06
6.09689e-06 1.09043e-05 4.72252e-07
-1.71078e-06 4.72252e-07 -4.05816e-05
0.0011285 -1.40071e-06 5.13941e-07
-1.40071e-06 3.72275e-05 -2.24297e-07
5.13941e-07 -2.24297e-07 -1.93859e-05
0.00100758 5.02612e-06 -2.41874e-08
5.02612e-06 9.23933e-06 5.18558e-08
-2.41874e-08 5.18558e-08 -3.85797e-05
0.00151502 1.66272e-05 -2.89069e-06
1.66272e-05 0.00030311 5.5417e-07
-2.89069e-06 5.5417e-07 0.000283038
0.00101348 4.85363e-06 1.87429e-06
4.85363e-06 1.00392e-05 -4.45586e-07
1.87429e-06 -4.45586e-07 -3.40907e-05
0.00156217 1.66977e-05 1.75301e-06
1.66977e-05 0.000312738 -6.11938e-07
1.75301e-06 -6.11938e-07 0.000297119
0.0012271 2.11046e-05 -9.57944e-06
2.11046e-05 0.000172827 3.03458e-06
-9.57944e-06 3.03458e-06 0.000170531
0.00153698 1.60216e-05 6.07562e-06
1.60216e-05 0.000291562 -1.98131e-06
6.07562e-06 -1.98131e-06 0.000279429
0.00118143 2.11917e-05 -3.26683e-06
2.11917e-05 0.000135707 1.35768e-06
-3.26683e-06 1.35768e-06 0.000137645
0.00113992 2.08268e-05 2.35039e-06
2.08268e-05 0.000103525 -5.87152e-07
2.35039e-06 -5.87152e-07 0.000108976
0.00143772 -1.04779e-05 3.39298e-07
-1.04779e-05 0.00013125 1.1285e-06
3.39298e-07 1.1285e-06 7.59985e-05
0.00129609 3.66636e-06 -4.54956e-07
3.66636e-06 6.2989e-05 1.34097e-07
-4.54956e-07 1.34097e-07 -3.92213e-06
0.00141761 2.31671e-06 -1.04361e-07
2.31671e-06 0.000102888 -2.55797e-07
-1.04361e-07 -2.55797e-07 3.53625e-05
0.00125864 8.01761e-06 -6.03037e-07
8.01761e-06 8.97389e-05 -5.87577e-07
-6.03037e-07 -5.87577e-07 3.09689e-05
0.0012974 1.15137e-05 2.22824e-07
1.15137e-05 8.70443e-05 3.47501e-07
2.22824e-07 3.47501e-07 2.25199e-05
0.00132366 1.26484e-05 2.69901e-07
1.26484e-05 8.99157e-05 9.78597e-07
2.69901e-07 9.78597e-07 2.32735e-05
0.00102395 -3.09927e-06 -1.99961e-06
-3.09927e-06 1.95446e-05 -8.44757e-07
-1.99961e-06 -8.44757e-07 -2.36622e-05
0.00116074 5.88368e-06 3.63715e-07
5.88368e-06 6.28724e-05 4.06019e-07
3.63715e-07 4.06019e-07 7.55373e-06
0.00113662 1.16087e-05 3.64761e-07
1.16087e-05 3.66274e-05 9.402e-07
3.64761e-07 9.402e-07 -2.48217e-05
0.000903069 -1.44435e-05 -3.74966e-06
-1.44435e-05 -1.40239e-05 -1.47641e-06
-3.74966e-06 -1.47641e-06 -2.71539e-05
0.000995096 -6.92173e-06 -4.45624e-08
-6.92173e-06 1.14113e-05 -6.86414e-08
-4.45624e-08 -6.86414e-08 -2.78738e-05
0.00109555 3.33533e-06 7.09882e-07
3.33533e-06 4.21194e-05 4.27742e-07
7.09882e-07 4.27742e-07 -1.06119e-05
0.000970609 -8.68789e-06 1.96298e-06
-8.68789e-06 -5.23419e-07 7.59325e-07
1.96298e-06 7.59325e-07 -3.57721e-05
0.000869257 -1.44353e-05 -6.04202e-08
-1.44353e-05 -3.58976e-05 -2.57312e-09
-6.04202e-08 -2.57312e-09 -4.54407e-05
0.00235104 -2.09697e-05 -5.93252e-06
-2.09697e-05 0.00069206 -2.22062e-06
-5.93252e-06 -2.22062e-06 0.000704912
0.000851205 -1.41181e-05 3.25522e-06
-1.41181e-05 -5.18898e-05 1.53455e-06
3.25522e-06 1.53455e-06 -5.86431e-05
0.002361 -2.00903e-05 -8.03279e-08
-2.00903e-05 0.000684984 6.54133e-08
-8.03279e-08 6.54133e-08 0.000699938
0.00239204 -1.90166e-05 5.16992e-06
-1.90166e-05 0.000688495 2.49589e-06
5.16992e-06 2.49589e-06 0.000705323
0.0011703 -1.34582e-05 9.52581e-07
-1.34582e-05 7.63782e-05 -7.39011e-07
9.52581e-07 -7.39011e-07 1.14268e-05
0.00126322 -1.29036e-05 -8.75916e-08
-1.29036e-05 7.8457e-05 3.10622e-07
-8.75916e-08 3.10622e-07 2.02414e-05
0.0013897 -1.83608e-05 -4.94295e-07
-1.83608e-05 0.000127044 -1.8527e-06
-4.94295e-07 -1.8527e-06 7.06074e-05
0.00140454 1.00788e-06 4.14213e-07
1.00788e-06 7.75829e-05 -5.49623e-07
4.14213e-07 -5.49623e-07 8.07856e-06
0.00101322 -6.59509e-07 9.16617e-08
-6.59509e-07 4.44365e-05 1.49126e-06
9.16617e-08 1.49126e-06 -1.63031e-05
0.00098524 -1.66217e-06 -5.20007e-07
-1.66217e-06 4.15531e-05 7.46742e-08
-5.20007e-07 7.46742e-08 -1.56084e-05
0.000999643 -7.68869e-07 -1.04213e-06
-7.68869e-07 5.93304e-05 -6.69457e-08
-1.04213e-06 -6.69457e-08 9.14628e-06
0.00112122 1.01376e-05 -6.22306e-07
1.01376e-05 7.63044e-05 1.23501e-06
-6.22306e-07 1.23501e-06 1.79799e-05
0.00109147 1.07438e-05 2.11744e-07
1.07438e-05 6.10505e-05 3.56182e-07
2.11744e-07 3.56182e-07 3.70275e-06
0.00108072 1.12215e-05 -8.86496e-09
1.12215e-05 5.3938e-05 -5.58547e-07
-8.86496e-09 -5.58547e-07 -2.77908e-06
0.00111218 1.17641e-05 1.10505e-07
1.17641e-05 3.95822e-05 1.09823e-06
1.10505e-07 1.09823e-06 -1.71885e-05
0.00121503 1.18837e-05 1.00518e-07
1.18837e-05 8.46522e-05 2.96309e-07
1.00518e-07 2.96309e-07 2.67648e-05
0.00115635 1.05793e-05 -2.81933e-07
1.05793e-05 6.68722e-05 -5.85764e-07
-2.81933e-07 -5.85764e-07 8.23888e-06
0.00115448 9.90685e-06 -1.98485e-07
9.90685e-06 4.05198e-05 2.76011e-07
-1.98485e-07 2.76011e-07 -2.02871e-05
0.00112169 8.45022e-06 -1.1116e-07
8.45022e-06 3.90917e-05 4.1402e-08
-1.1116e-07 4.1402e-08 -2.08829e-05
0.0010168 8.44535e-06 -1.65197e-06
8.44535e-06 2.02668e-05 3.31259e-07
-1.65197e-06 3.31259e-07 -3.37312e-05
0.00111976 3.44849e-06 4.52992e-07
3.44849e-06 3.36312e-05 -1.07408e-07
4.52992e-07 -1.07408e-07 -2.55849e-05
0.00100736 6.33757e-06 -2.93793e-08
6.33757e-06 1.11733e-05 4.67468e-08
-2.93793e-08 4.67468e-08 -4.02383e-05
0.000735766 1.42484e-05 -4.34176e-06
1.42484e-05 -6.13787e-05 1.05068e-06
-4.34176e-06 1.05068e-06 -9.11389e-05
0.0010159 5.00934e-06 1.78768e-06
5.00934e-06 1.25987e-05 -4.02253e-07
1.78768e-06 -4.02253e-07 -3.5135e-05
0.00113453 1.57233e-05 2.03822e-06
1.57233e-05 0.000118149 -5.97706e-07
2.03822e-06 -5.97706e-07 9.55932e-05
0.0027248 2.39807e-05 -7.48964e-06
2.39807e-05 0.00091377 1.7279e-06
-7.48964e-06 1.7279e-06 0.000916833
0.00152434 1.63392e-05 6.29725e-06
1.63392e-05 0.000294807 -1.82212e-06
6.29725e-06 -1.82212e-06 0.000278861
0.00118373 2.14615e-05 -3.50796e-06
2.14615e-05 0.000151808 1.25993e-06
-3.50796e-06 1.25993e-06 0.000149958
0.00114053 2.15523e-05 2.48094e-06
2.15523e-05 0.000115681 -5.19524e-07
2.48094e-06 -5.19524e-07 0.000118048
0.0013974 -1.28633e-05 7.71172e-07
-1.28633e-05 0.000148653 -8.70241e-07
7.71172e-07 -8.70241e-07 8.87726e-05
0.00132364 -7.54213e-06 -1.18198e-07
-7.54213e-06 8.05552e-05 1.04902e-06
-1.18198e-07 1.04902e-06 2.17925e-05
0.00126498 -1.01597e-05 2.05392e-07
-1.01597e-05 5.4043e-05 6.39189e-08
2.05392e-07 6.39189e-08 -1.87218e-06
0.000993805 4.12684e-06 -9.99508e-07
4.12684e-06 -5.2047e-05 -2.35059e-07
-9.99508e-07 -2.35059e-07 -0.000114973
0.00134155 3.47012e-06 7.38424e-08
3.47012e-06 8.64592e-05 5.32414e-10
7.38424e-08 5.32414e-10 2.08031e-05
0.00145118 2.1596e-06 2.28216e-07
2.1596e-06 0.000115887 -8.05441e-07
2.28216e-07 -8.05441e-07 4.83144e-05
0.000830946 -1.10292e-06 -2.46127e-06
-1.10292e-06 -8.40633e-05 -1.23075e-06
-2.46127e-06 -1.23075e-06 -0.000132821
0.00126607 8.01189e-06 1.7861e-07
8.01189e-06 9.31277e-05 4.562e-08
1.7861e-07 4.562e-08 3.43399e-05
0.00135343 1.15657e-05 4.49551e-07
1.15657e-05 0.000114685 9.96822e-07
4.49551e-07 9.96822e-07 5.06223e-05
0.000889507 -1.42507e-05 -4.03632e-06
-1.42507e-05 -1.73938e-05 -1.46056e-06
-4.03632e-06 -1.46056e-06 -3.46622e-05
0.000897508 -3.64407e-06 -7.80666e-08
-3.64407e-06 -4.0528e-05 2.98878e-08
-7.80666e-08 2.98878e-08 -8.48083e-05
0.000995517 5.87488e-06 1.04787e-06
5.87488e-06 -1.63199e-05 1.06135e-06
1.04787e-06 1.06135e-06 -7.27518e-05
0.00245586 -2.17712e-05 -6.47504e-06
-2.17712e-05 0.000751867 -2.17077e-06
-6.47504e-06 -2.17077e-06 0.000762356
0.00084929 -1.44717e-05 -8.0445e-08
-1.44717e-05 -3.87453e-05 -4.21842e-08
-8.0445e-08 -4.21842e-08 -5.1676e-05
0.00097325 -7.49021e-06 1.89709e-06
-7.49021e-06 2.24252e-06 8.69543e-07
1.89709e-06 8.69543e-07 -3.71234e-05
0.00082741 -1.44537e-05 3.44534e-06
-1.44537e-05 -5.52419e-05 1.42839e-06
3.44534e-06 1.42839e-06 -6.46383e-05
0.00241448 -2.10732e-05 -7.41408e-08
-2.10732e-05 0.000721108 6.74669e-08
-7.41408e-08 6.74669e-08 0.000734019
0.00242923 -2.01596e-05 5.4147e-06
-2.01596e-05 0.000716202 2.35889e-06
5.4147e-06 2.35889e-06 0.000731186
0.00101346 -1.17019e-05 2.67925e-07
-1.17019e-05 3.24598e-05 4.45533e-07
2.67925e-07 4.45533e-07 -3.38099e-05
0.00105989 -1.30653e-05 -5.54465e-07
-1.30653e-05 3.09475e-05 -8.94791e-07
-5.54465e-07 -8.94791e-07 -3.2425e-05
0.00125669 -1.30451e-05 -4.90357e-07
-1.30451e-05 7.16084e-05 -9.95572e-07
-4.90357e-07 -9.95572e-07 1.3141e-05
0.00102612 1.22072e-06 2.07398e-07
1.22072e-06 5.40723e-05 4.55371e-07
2.07398e-07 4.55371e-07 -3.27136e-06
0.00106122 -6.61893e-07 1.42276e-07
-6.61893e-07 6.68205e-05 6.12568e-07
1.42276e-07 6.12568e-07 6.27407e-06
0.00102778 -1.21868e-06 -1.67706e-06
-1.21868e-06 6.44467e-05 -2.75098e-07
-1.67706e-06 -2.75098e-07 7.67486e-06
0.0011147 1.08489e-05 -1.03824e-07
1.08489e-05 7.37224e-05 5.2056e-07
-1.03824e-07 5.2056e-07 1.65417e-05
0.00108311 1.12506e-05 -7.81063e-10
1.12506e-05 5.47236e-05 1.53228e-07
-7.81063e-10 1.53228e-07 -1.8731e-06
0.00110586 1.02402e-05 -2.46621e-08
1.02402e-05 7.75299e-05 -5.80681e-07
-2.46621e-08 -5.80681e-07 2.13511e-05
0.00117495 1.17224e-05 -2.20577e-08
1.17224e-05 6.65424e-05 1.1409e-06
-2.20577e-08 1.1409e-06 8.48064e-06
0.0011907 1.06125e-05 6.10184e-09
1.06125e-05 8.49401e-05 1.22871e-08
6.10184e-09 1.22871e-08 2.65036e-05
0.000907192 9.3555e-06 -1.81725e-06
9.3555e-06 -1.88419e-05 -3.99982e-07
-1.81725e-06 -3.99982e-07 -7.34587e-05
0.00109975 8.19055e-06 3.4879e-07
8.19055e-06 2.99045e-05 3.02965e-07
3.4879e-07 3.02965e-07 -3.00068e-05
0.00100077 8.49412e-06 -4.02794e-09
8.49412e-06 1.32235e-05 2.15275e-07
-4.02794e-09 2.15275e-07 -4.0679e-05
0.000731265 1.29773e-05 -4.48201e-06
1.29773e-05 -5.07654e-05 8.88485e-07
-4.48201e-06 8.88485e-07 -8.51055e-05
0.00100752 6.61114e-06 1.67254e-06
6.61114e-06 1.10936e-05 -3.77899e-07
1.67254e-06 -3.77899e-07 -4.02435e-05
0.000764997 1.45658e-05 1.21834e-07
1.45658e-05 -4.93791e-05 4.15426e-08
1.21834e-07 4.15426e-08 -7.90912e-05
0.00286169 2.37475e-05 -7.90016e-06
2.37475e-05 0.000994312 1.45373e-06
-7.90016e-06 1.45373e-06 0.000994359
0.000747975 1.49994e-05 5.74803e-06
1.49994e-05 -6.95812e-05 -1.69095e-06
5.74803e-06 -1.69095e-06 -9.46161e-05
0.00188907 2.23113e-05 8.83729e-07
2.23113e-05 0.000512212 1.35731e-07
8.83729e-07 1.35731e-07 0.000510629
0.00113789 2.18327e-05 2.62209e-06
2.18327e-05 0.000129591 -4.70703e-07
2.62209e-06 -4.70703e-07 0.0001282
0.00140884 -1.41171e-05 2.53859e-07
-1.41171e-05 0.000186614 -2.09262e-07
2.53859e-07 -2.09262e-07 0.000121879
0.00120258 -1.07655e-05 -1.43284e-07
-1.07655e-05 5.34123e-05 -2.46224e-07
-1.43284e-07 -2.46224e-07 -4.72069e-06
0.00122078 -1.23436e-05 -4.03038e-07
-1.23436e-05 6.69079e-05 2.00254e-08
-4.03038e-07 2.00254e-08 6.72502e-06
0.00112712 -4.33968e-06 -7.81903e-07
-4.33968e-06 1.28711e-05 8.23972e-07
-7.81903e-07 8.23972e-07 -4.66599e-05
0.00122997 -7.81688e-06 3.00972e-07
-7.81688e-06 4.04793e-05 -1.92954e-07
3.00972e-07 -1.92954e-07 -1.82352e-05
0.00109359 -9.86359e-06 9.75945e-08
-9.86359e-06 -2.25863e-05 -5.49553e-07
9.75945e-08 -5.49553e-07 -7.91614e-05
0.000810094 -1.42804e-06 -2.5437e-06
-1.42804e-06 -0.000103974 -8.6414e-07
-2.5437e-06 -8.6414e-07 -0.000156671
0.00119593 4.85011e-06 -2.64477e-07
4.85011e-06 4.352e-05 7.4447e-08
-2.64477e-07 7.4447e-08 -1.83464e-05
0.00138643 3.22211e-06 5.32863e-07
3.22211e-06 0.000109684 -5.79667e-07
5.32863e-07 -5.79667e-07 4.52787e-05
0.000868511 -1.41345e-05 -4.30376e-06
-1.41345e-05 -2.62651e-05 -1.42952e-06
-4.30376e-06 -1.42952e-06 -4.8113e-05
0.000821288 -8.56925e-07 -4.0736e-07
-8.56925e-07 -8.93588e-05 -3.70417e-07
-4.0736e-07 -3.70417e-07 -0.000138789
0.00127376 8.04484e-06 9.48365e-07
8.04484e-06 9.66319e-05 7.41697e-07
9.48365e-07 7.41697e-07 3.78262e-05
0.00259997 -2.24344e-05 -7.18536e-06
-2.24344e-05 0.000829643 -2.10202e-06
-7.18536e-06 -2.10202e-06 0.000837512
0.000829598 -1.42593e-05 -1.55023e-07
-1.42593e-05 -4.47359e-05 -1.77771e-09
-1.55023e-07 -1.77771e-09 -6.18061e-05
0.000772718 -4.1041e-06 1.84313e-06
-4.1041e-06 -9.98237e-05 1.05519e-06
1.84313e-06 1.05519e-06 -0.00014518
0.00250736 -2.19213e-05 -6.63611e-08
-2.19213e-05 0.000775609 7.02171e-08
-6.63611e-08 7.02171e-08 0.000786229
0.000795225 -1.44919e-05 3.62761e-06
-1.44919e-05 -6.35794e-05 1.441e-06
3.62761e-06 1.441e-06 -7.63129e-05
0.00247738 -2.11713e-05 5.68263e-06
-2.11713e-05 0.000749872 2.21868e-06
5.68263e-06 2.21868e-06 0.000762848
0.000980133 -9.29366e-06 -3.24852e-07
-9.29366e-06 1.82263e-05 4.67098e-07
-3.24852e-07 4.67098e-07 -4.35074e-05
0.00105964 -1.17375e-05 5.05645e-07
-1.17375e-05 5.24879e-05 -9.50754e-07
5.05645e-07 -9.50754e-07 -1.32388e-05
0.000951061 -1.26672e-05 -1.37953e-06
-1.26672e-05 -1.37693e-05 -1.45661e-06
-1.37953e-06 -1.45661e-06 -7.55632e-05
0.00104101 1.11228e-06 -1.21587e-08
1.11228e-06 6.68731e-05 2.61168e-07
-1.21587e-08 2.61168e-07 1.07991e-05
0.00107359 1.23602e-06 -1.38887e-07
1.23602e-06 7.25306e-05 8.75183e-09
-1.38887e-07 8.75183e-09 1.48736e-05
0.00110961 -6.65649e-07 -3.44106e-07
-6.65649e-07 8.93961e-05 -1.14322e-08
-3.44106e-07 -1.14322e-08 2.90403e-05
0.00108463 1.12753e-05 -1.37748e-07
1.12753e-05 5.50927e-05 4.80061e-07
-1.37748e-07 4.80061e-07 -1.38123e-06
0.00109841 1.02722e-05 1.89709e-07
1.02722e-05 7.33506e-05 -4.09203e-09
1.89709e-07 -4.09203e-09 1.72685e-05
0.000821145 8.50457e-06 -1.58114e-06
8.50457e-06 -3.20619e-05 -5.77892e-07
-1.58114e-06 -5.77892e-07 -8.53503e-05
0.00122351 1.06382e-05 3.24243e-07
1.06382e-05 0.000102341 7.03942e-07
3.24243e-07 7.03942e-07 4.40971e-05
0.000962888 9.5564e-06 -3.26611e-07
9.5564e-06 7.25277e-06 -3.98132e-08
-3.26611e-07 -3.98132e-08 -4.72741e-05
0.000727707 1.1223e-05 -4.53428e-06
1.1223e-05 -3.51862e-05 3.66947e-07
-4.53428e-06 3.66947e-07 -7.21512e-05
0.000985477 8.52481e-06 1.63227e-06
8.52481e-06 6.51097e-06 1.1392e-07
1.63227e-06 1.1392e-07 -4.72947e-05
0.000738762 1.33642e-05 1.17398e-07
1.33642e-05 -4.85091e-05 1.74427e-07
1.17398e-07 1.74427e-07 -8.27384e-05
0.00287332 2.22742e-05 -8.4894e-06
2.22742e-05 0.00101864 1.1964e-06
-8.4894e-06 1.1964e-06 0.00101549
0.000794173 1.48778e-05 4.29814e-06
1.48778e-05 -3.7396e-05 -8.99984e-07
4.29814e-06 -8.99984e-07 -6.70608e-05
0.00276547 2.29938e-05 8.3855e-08
2.29938e-05 0.000952036 1.13018e-07
8.3855e-08 1.13018e-07 0.000951686
0.00106422 2.02181e-05 7.40169e-06
2.02181e-05 0.000115661 -1.44455e-06
7.40169e-06 -1.44455e-06 0.000109422
0.00124791 -1.18479e-05 -5.03839e-07
-1.18479e-05 0.000110192 8.47332e-08
-5.03839e-07 8.47332e-08 4.92586e-05
0.00128306 -1.35763e-05 2.38541e-07
-1.35763e-05 0.000127491 1.81008e-07
2.38541e-07 1.81008e-07 6.15874e-05
0.00112852 -9.58125e-06 -5.38239e-07
-9.58125e-06 3.59922e-05 3.1769e-07
-5.38239e-07 3.1769e-07 -2.17838e-05
0.00117797 -1.07428e-05 1.04996e-07
-1.07428e-05 4.30032e-05 -3.39233e-07
1.04996e-07 -3.39233e-07 -1.49463e-05
0.00104386 -1.18177e-05 -1.06166e-07
-1.18177e-05 -1.48648e-05 9.40594e-07
-1.06166e-07 9.40594e-07 -7.53623e-05
0.000999806 -5.58057e-06 -2.11755e-06
-5.58057e-06 -1.09855e-05 3.11475e-07
-2.11755e-06 3.11475e-07 -6.30518e-05
0.00116807 -4.12937e-06 3.64356e-08
-4.12937e-06 3.09479e-05 1.97833e-07
3.64356e-08 1.97833e-07 -2.87085e-05
0.00113462 -8.01042e-06 1.27811e-08
-8.01042e-06 -3.62235e-07 -1.31685e-06
1.27811e-08 -1.31685e-06 -5.90279e-05
0.000832395 -1.41643e-05 -4.57245e-06
-1.41643e-05 -4.03636e-05 -1.19708e-06
-4.57245e-06 -1.19708e-06 -6.69343e-05
0.00092201 -9.16461e-07 -4.62337e-07
-9.16461e-07 -5.11692e-05 -1.53411e-07
-4.62337e-07 -1.53411e-07 -0.000103512
0.00139857 5.51784e-06 6.65272e-07
5.51784e-06 0.00013933 2.55453e-07
6.65272e-07 2.55453e-07 7.85233e-05
0.0027464 -2.28759e-05 -8.00512e-06
-2.28759e-05 0.000909273 -2.00086e-06
-8.00512e-06 -2.00086e-06 0.000914304
0.000811927 -1.40587e-05 -1.62331e-07
-1.40587e-05 -5.17275e-05 -3.25313e-09
-1.62331e-07 -3.25313e-09 -7.34372e-05
0.000812005 -6.55918e-07 1.62863e-06
-6.55918e-07 -9.44904e-05 6.11353e-07
1.62863e-06 6.11353e-07 -0.000144592
0.0026483 -2.26367e-05 -7.75502e-08
-2.26367e-05 0.000852021 8.96784e-08
-7.75502e-08 8.96784e-08 0.000860084
0.000769656 -1.42659e-05 3.88285e-06
-1.42659e-05 -7.20746e-05 1.54996e-06
3.88285e-06 1.54996e-06 -8.8949e-05
0.00255856 -2.20556e-05 6.00084e-06
-2.20556e-05 0.000799173 2.09948e-06
6.00084e-06 2.09948e-06 0.000809928
0.00113388 -8.83271e-06 -5.58547e-07
-8.83271e-06 9.34016e-05 4.82453e-07
-5.58547e-07 4.82453e-07 3.53044e-05
0.00105429 -9.63964e-06 1.51299e-08
-9.63964e-06 4.99222e-05 -3.01875e-07
1.51299e-08 -3.01875e-07 -1.171e-05
0.00110677 -1.17816e-05 -2.06639e-07
-1.17816e-05 7.30695e-05 -1.93142e-06
-2.06639e-07 -1.93142e-06 7.87359e-06
0.000820483 7.47982e-07 -1.36091e-06
7.47982e-07 -1.91253e-05 1.44992e-08
-1.36091e-06 1.44992e-08 -7.20888e-05
0.00104029 1.27152e-06 1.27805e-07
1.27152e-06 6.58387e-05 -2.68918e-08
1.27805e-07 -2.68918e-08 9.96716e-06
0.00111996 1.17501e-06 -6.80422e-08
1.17501e-06 9.05128e-05 -1.25619e-07
-6.80422e-08 -1.25619e-07 3.2539e-05
0.0010903 1.03012e-05 3.86954e-07
1.03012e-05 6.88577e-05 4.8453e-07
3.86954e-07 4.8453e-07 1.28744e-05
0.000843513 8.70269e-06 -3.12099e-07
8.70269e-06 -2.38511e-05 -1.53201e-07
-3.12099e-07 -1.53201e-07 -7.74024e-05
0.000704907 8.51466e-06 -4.32697e-06
8.51466e-06 -2.56945e-05 -5.04257e-08
-4.32697e-06 -5.04257e-08 -6.34323e-05
0.0010194 9.76472e-06 1.28606e-06
9.76472e-06 3.37838e-05 3.77426e-07
1.28606e-06 3.77426e-07 -2.06605e-05
0.000711286 1.165e-05 -6.35766e-09
1.165e-05 -4.32448e-05 1.99133e-07
-6.35766e-09 1.99133e-07 -8.00366e-05
0.00279305 1.98393e-05 -8.96712e-06
1.98393e-05 0.00100008 8.21718e-07
-8.96712e-06 8.21718e-07 0.000994358
0.000747063 1.37492e-05 4.45254e-06
1.37492e-05 -4.58963e-05 -4.95039e-07
4.45254e-06 -4.95039e-07 -8.00145e-05
0.00277489 2.13003e-05 1.02669e-07
2.13003e-05 0.000975831 1.43248e-07
1.02669e-07 1.43248e-07 0.00097232
0.00266838 2.22115e-05 8.50344e-06
2.22115e-05 0.000909366 -1.37558e-06
8.50344e-06 -1.37558e-06 0.000908619
0.00115941 -1.02177e-05 -6.26322e-07
-1.02177e-05 7.9173e-05 4.63303e-07
-6.26322e-07 4.63303e-07 2.07429e-05
0.00123451 -1.20103e-05 6.51736e-08
-1.20103e-05 0.000103499 2.20214e-07
6.51736e-08 2.20214e-07 4.19131e-05
0.00115453 -1.30278e-05 1.70673e-07
-1.30278e-05 6.69027e-05 1.1285e-06
1.70673e-07 1.1285e-06 -1.4821e-07
0.000989542 -9.11924e-06 -1.79219e-06
-9.11924e-06 3.23964e-06 2.43554e-07
-1.79219e-06 2.43554e-07 -4.87444e-05
0.00113076 -9.4991e-06 1.41543e-07
-9.4991e-06 3.72243e-05 -1.95966e-07
1.41543e-07 -1.95966e-07 -2.05546e-05
0.00115574 -1.07328e-05 -2.66468e-07
-1.07328e-05 3.36448e-05 -6.91889e-07
-2.66468e-07 -6.91889e-07 -2.41167e-05
0.000773865 -1.41485e-05 -4.79838e-06
-1.41485e-05 -5.73274e-05 -5.82692e-07
-4.79838e-06 -5.82692e-07 -8.76497e-05
0.00102785 -5.49176e-06 1.5882e-08
-5.49176e-06 1.28116e-06 2.66859e-07
1.5882e-08 2.66859e-07 -5.09163e-05
0.00120854 -3.93283e-06 8.54948e-07
-3.93283e-06 4.88105e-05 -4.08603e-07
8.54948e-07 -4.08603e-07 -1.09718e-05
0.00285245 -2.2893e-05 -8.78202e-06
-2.2893e-05 0.000972628 -1.78903e-06
-8.78202e-06 -1.78903e-06 0.000974639
0.000793149 -1.39853e-05 -1.91185e-07
-1.39853e-05 -5.75333e-05 7.93163e-08
-1.91185e-07 7.93163e-08 -8.40721e-05
0.00103247 -3.40816e-07 1.69267e-06
-3.40816e-07 9.45618e-07 4.99877e-07
1.69267e-06 4.99877e-07 -5.104e-05
0.00280535 -2.31788e-05 -7.72398e-08
-2.31788e-05 0.000936298 1.0008e-07
-7.72398e-08 1.0008e-07 0.000941578
0.000755352 -1.39845e-05 4.26235e-06
-1.39845e-05 -7.71693e-05 1.54517e-06
4.26235e-06 1.54517e-06 -9.87421e-05
0.00269521 -2.28324e-05 6.48583e-06
-2.28324e-05 0.000873721 2.0225e-06
6.48583e-06 2.0225e-06 0.000881983
0.00096569 -8.01768e-06 -1.41241e-06
-8.01768e-06 4.04647e-05 2.2102e-07
-1.41241e-06 2.2102e-07 -1.21266e-05
0.0010475 -8.79134e-06 4.7076e-08
-8.79134e-06 5.37317e-05 1.975e-07
4.7076e-08 1.975e-07 -4.49789e-06
0.00112884 -9.99057e-06 8.06551e-07
-9.99057e-06 8.17362e-05 -1.35224e-06
8.06551e-07 -1.35224e-06 2.02115e-05
0.000678576 -1.97546e-07 -4.11515e-06
-1.97546e-07 -2.7203e-05 1.79021e-08
-4.11515e-06 1.79021e-08 -6.47323e-05
0.000818419 8.00082e-07 -1.84264e-07
8.00082e-07 -2.04411e-05 -7.1956e-08
-1.84264e-07 -7.1956e-08 -7.34501e-05
0.00103846 1.46599e-06 2.46815e-07
1.46599e-06 6.42703e-05 9.75586e-08
2.46815e-07 9.75586e-08 8.60514e-06
0.000866431 8.90449e-06 1.08754e-06
8.90449e-06 -1.53808e-05 2.60968e-07
1.08754e-06 2.60968e-07 -6.91958e-05
0.000685387 9.00373e-06 -7.0571e-08
9.00373e-06 -3.4837e-05 6.16047e-09
-7.0571e-08 6.16047e-09 -7.24399e-05
0.00258468 1.63e-05 -8.81446e-06
1.63e-05 0.000920688 4.07805e-07
-8.81446e-06 4.07805e-07 0.000913392
0.00069613 1.20787e-05 4.4458e-06
1.20787e-05 -5.07514e-05 3.50938e-08
4.4458e-06 3.50938e-08 -8.73685e-05
0.00267517 1.86674e-05 1.364e-07
1.86674e-05 0.000948931 1.47321e-07
1.364e-07 1.47321e-07 0.000943007
0.00267616 2.03331e-05 8.94424e-06
2.03331e-05 0.000932911 -1.00732e-06
8.94424e-06 -1.00732e-06 0.000929038
0.000970764 -9.1682e-06 -1.64071e-06
-9.1682e-06 2.17872e-05 4.09371e-07
-1.64071e-06 4.09371e-07 -3.06074e-05
0.00111232 -1.01165e-05 -1.42186e-08
-1.01165e-05 5.84442e-05 9.68436e-08
-1.42186e-08 9.68436e-08 -6.15933e-08
0.0012225 -1.21758e-05 2.96517e-07
-1.21758e-05 9.75482e-05 1.3459e-07
2.96517e-07 1.3459e-07 3.52982e-05
0.00150107 -1.5153e-05 -5.62833e-06
-1.5153e-05 0.000315674 -3.56089e-07
-5.62833e-06 -3.56089e-07 0.000288415
0.00100379 -9.12699e-06 1.29429e-07
-9.12699e-06 9.53703e-06 -5.26085e-08
1.29429e-07 -5.26085e-08 -4.25289e-05
0.00113334 -9.42851e-06 5.73915e-07
-9.42851e-06 3.85922e-05 -7.57695e-07
5.73915e-07 -7.57695e-07 -1.9188e-05
0.00281851 -2.21891e-05 -9.05444e-06
-2.21891e-05 0.000975872 -1.36933e-06
-9.05444e-06 -1.36933e-06 0.000975011
0.000769752 -1.39072e-05 -1.35599e-07
-1.39072e-05 -5.84678e-05 2.23196e-07
-1.35599e-07 2.23196e-07 -8.89164e-05
0.00105573 -5.41859e-06 2.14778e-06
-5.41859e-06 1.34669e-05 2.36928e-07
2.14778e-06 2.36928e-07 -3.88611e-05
0.00293242 -2.33522e-05 -9.12955e-08
-2.33522e-05 0.00100862 1.24235e-07
-9.12955e-08 1.24235e-07 0.00101093
0.000754555 -1.38181e-05 4.56967e-06
-1.38181e-05 -7.43886e-05 1.48034e-06
4.56967e-06 1.48034e-06 -0.000100897
0.00286356 -2.34659e-05 7.20501e-06
-2.34659e-05 0.000962971 1.9424e-06
7.20501e-06 1.9424e-06 0.000968502
0.000637636 -8.33634e-06 -5.94198e-06
-8.33634e-06 -5.04971e-05 -2.27245e-07
-5.94198e-06 -2.27245e-07 -8.70021e-05
0.000910475 -7.72492e-06 1.08367e-07
-7.72492e-06 1.39474e-05 -2.94762e-08
1.08367e-07 -2.94762e-08 -3.90021e-05
0.000962873 -8.57288e-06 6.16794e-07
-8.57288e-06 1.4879e-05 -5.25476e-07
6.16794e-07 -5.25476e-07 -4.34828e-05
0.00241277 5.13426e-07 -8.07663e-06
5.13426e-07 0.000850177 8.44569e-08
-8.07663e-06 8.44569e-08 0.000842334
0.00067305 2.56948e-07 -2.06382e-08
2.56948e-07 -2.97117e-05 9.71608e-08
-2.06382e-08 9.71608e-08 -6.72174e-05
0.000816611 9.0537e-07 9.5643e-07
9.0537e-07 -2.16506e-05 6.88127e-08
9.5643e-07 6.88127e-08 -7.47026e-05
0.000665805 9.49177e-06 4.1812e-06
9.49177e-06 -4.40248e-05 4.83801e-08
4.1812e-06 4.83801e-08 -8.14909e-05
0.00250876 1.52466e-05 1.88347e-07
1.52466e-05 0.000887965 1.03368e-07
1.88347e-07 1.03368e-07 0.000880583
0.00255913 1.75977e-05 8.80027e-06
1.75977e-05 0.000898651 -5.53657e-07
8.80027e-06 -5.53657e-07 0.000892521
0.00134407 -1.28795e-05 -7.32052e-06
-1.28795e-05 0.000269345 -4.14894e-07
-7.32052e-06 -4.14894e-07 0.000240091
0.000973274 -9.11662e-06 3.31152e-08
-9.11662e-06 2.2891e-05 1.16603e-07
3.31152e-08 1.16603e-07 -2.95377e-05
0.00106479 -1.00162e-05 3.76948e-07
-1.00162e-05 3.75483e-05 -1.8919e-07
3.76948e-07 -1.8919e-07 -2.10367e-05
0.00276386 -2.22244e-05 -3.84749e-06
-2.22244e-05 0.000969887 -3.97954e-07
-3.84749e-06 -3.97954e-07 0.000966659
0.000775104 -1.3557e-05 1.39188e-08
-1.3557e-05 -3.57408e-05 9.36823e-08
1.39188e-08 9.36823e-08 -6.88539e-05
0.00101806 -9.13325e-06 1.96198e-06
-9.13325e-06 1.58422e-05 -3.49225e-07
1.96198e-06 -3.49225e-07 -3.63053e-05
0.00294651 -2.28361e-05 -1.11794e-07
-2.28361e-05 0.0010325 1.5575e-07
-1.11794e-07 1.5575e-07 0.00103189
0.000766288 -1.36637e-05 4.83725e-06
-1.36637e-05 -5.9306e-05 1.10773e-06
4.83725e-06 1.10773e-06 -8.98829e-05
0.00301285 -2.38146e-05 8.00374e-06
-2.38146e-05 0.00104483 1.81813e-06
8.00374e-06 1.81813e-06 0.00104743
0.00099229 -1.01784e-05 -6.78818e-06
-1.01784e-05 0.000164734 -1.72363e-07
-6.78818e-06 -1.72363e-07 0.000145809
0.00103732 -9.5325e-06 -1.32468e-06
-9.5325e-06 0.000139012 -9.74005e-08
-1.32468e-06 -9.74005e-08 0.000105287
0.000853351 -7.60866e-06 1.49133e-06
-7.60866e-06 -1.34959e-05 -3.47959e-07
1.49133e-06 -3.47959e-07 -6.67997e-05
0.00240621 1.39246e-08 -3.73369e-08
1.39246e-08 0.000847536 1.21326e-07
-3.73369e-08 1.21326e-07 0.000839708
0.000667964 7.08748e-07 4.1338e-06
7.08748e-07 -3.20321e-05 1.65287e-07
4.1338e-06 1.65287e-07 -6.95124e-05
0.00242976 1.47442e-05 7.31865e-06
1.47442e-05 0.000853949 -2.25359e-07
7.31865e-06 -2.25359e-07 0.000846467
0.00101917 -1.5251e-05 -3.17984e-06
-1.5251e-05 0.000155448 -1.57219e-07
-3.17984e-06 -1.57219e-07 0.000138389
0.00112488 -1.27021e-05 -1.43151e-06
-1.27021e-05 0.000159578 -1.08975e-08
-1.43151e-06 -1.08975e-08 0.000127235
0.000976273 -9.0683e-06 1.61806e-06
-9.0683e-06 2.42169e-05 -1.71841e-07
1.61806e-06 -1.71841e-07 -2.82457e-05
0.00202324 -1.97498e-05 2.82014e-06
-1.97498e-05 0.00061208 4.70894e-07
2.82014e-06 4.70894e-07 0.000603073
0.000751665 -1.28805e-05 4.83592e-06
-1.28805e-05 -4.48304e-05 4.96193e-07
4.83592e-06 4.96193e-07 -7.81813e-05
0.0030769 -2.35556e-05 8.81673e-06
-2.35556e-05 0.00109022 1.58055e-06
8.81673e-06 1.58055e-06 0.00108987
0.00236983 -1.45554e-05 -1.0092e-07
-1.45554e-05 0.00082697 9.86489e-08
-1.0092e-07 9.86489e-08 0.000819749
0.000695854 -8.09381e-06 4.32795e-06
-8.09381e-06 -2.49347e-05 6.18145e-08
4.32795e-06 6.18145e-08 -6.16612e-05
0.00240139 -5.2316e-07 7.97442e-06
-5.2316e-07 0.000845507 1.07932e-07
7.97442e-06 1.07932e-07 0.000837715
0.00179945 -1.63555e-05 2.78404e-06
-1.63555e-05 0.000534392 3.36531e-07
2.78404e-06 3.36531e-07 0.000522811
0.000722536 -1.10565e-05 4.5386e-06
-1.10565e-05 -3.22476e-05 2.94826e-07
4.5386e-06 2.94826e-07 -6.75924e-05
0.0029638 -2.2239e-05 9.23929e-06
-2.2239e-05 0.00105842 1.1957e-06
9.23929e-06 1.1957e-06 0.00105537
0.00250646 -1.62239e-05 8.6664e-06
-1.62239e-05 0.000886468 4.2023e-07
8.6664e-06 4.2023e-07 0.00087945
0.00273312 -1.97693e-05 9.03856e-06
-1.97693e-05 0.000973727 8.07455e-07
9.03856e-06 8.07455e-07 0.000968376
