# vtk DataFile Version 2.0
Wound Healing Simulation
ASCII
DATASET UNSTRUCTURED_GRID
POINTS 3012 float
69.9759 18.75 4
67.2507 60.3285 4
69.976 18.75 2
73.0099 25.446 4
71.1327 20.9142 4
68.6801 16.6661 4
67.8277 19.923 3.98866
67.2507 60.3286 2
71.1327 54.0858 4
68.6801 58.3339 4
65.6939 62.2254 4
65.314 59.0053 3.99004
74.6784 42.3946 4
73.7221 47.2057 4
69.9759 18.75 0
73.0099 25.446 2
68.6801 16.6661 2
71.1327 20.9142 2
67.828 19.9236 2
74.6792 32.6053 4
73.7222 27.7943 4
72.1454 23.1494 4
70.6164 26.222 3.98759
68.8881 21.9566 3.98832
67.2507 14.6715 4
66.639 17.9676 3.98937
65.8042 21.0189 3.9844
67.2507 60.3285 0
71.1327 54.0858 2
68.6801 58.3339 2
65.694 62.2255 2
65.3142 59.0054 2
72.1454 51.8506 4
69.9759 56.25 4
68.8391 53.1141 3.98825
64.0165 64.0165 4
66.6128 57.1374 3.98953
63.8873 60.7699 3.99105
63.5059 57.781 3.98553
60.3285 67.2507 4
74.6792 42.3947 2
73.7222 47.2057 2
74.9194 39.9526 4
74.2788 44.8158 4
72.1697 42.0851 3.98648
73.0099 49.554 4
71.2515 46.5968 3.98766
73.0099 25.446 0
71.1327 20.9142 0
68.6801 16.6661 0
67.8277 19.923 0.011339
74.6792 32.6053 2
73.7222 27.7943 2
67.2508 14.6715 2
72.1455 23.1494 2
70.6165 26.223 2
66.6393 17.9677 2
68.8884 21.9575 2
65.8044 21.0185 2
74.9197 35.0474 4
74.2794 30.1841 4
72.1863 32.9434 3.98665
71.2802 28.4323 3.9874
69.818 24.0597 3.988
68.3531 26.9503 3.9813
66.7698 22.929 3.98366
65.694 12.7746 4
65.3254 16.0988 3.99036
64.7202 19.186 3.98525
63.8986 22.0247 3.98198
71.1327 54.0858 0
65.6939 62.2254 0
68.6801 58.3339 0
65.314 59.0053 0.00996491
72.1455 51.8506 2
69.9759 56.25 2
68.8394 53.1133 2
64.0165 64.0165 2
66.613 57.1373 2
63.8874 60.7698 2
63.506 57.7813 2
62.2254 65.694 4
58.8943 65.4166 3.99255
69.7717 50.9885 3.98792
67.7862 55.1699 3.98894
66.6574 52.213 3.98363
62.3373 62.4307 3.99187
64.6677 56.0394 3.98564
62.2068 59.4142 3.98576
61.8323 56.6948 3.98348
58.3339 68.6801 4
60.3285 67.2508 2
73.7221 47.2057 0
74.6784 42.3946 0
74.9197 39.9526 2
74.2794 44.8159 2
72.1697 42.0853 2
73.0099 49.554 2
71.2515 46.5964 2
75 37.5 4
72.4066 39.802 3.98559
71.7844 44.352 3.98725
69.809 41.789 3.9799
70.5777 48.8123 3.98784
68.9187 46.0148 3.9808
74.6792 32.6053 0
73.7222 27.7943 0
67.2507 14.6715 0
72.1454 23.1494 0
70.6164 26.222 0.0124123
68.8881 21.9566 0.0116849
66.639 17.9676 0.0106317
65.8042 21.0189 0.0156046
74.9197 35.0474 2
74.2794 30.1841 2
72.1863 32.9435 2
71.2802 28.4331 2
65.694 12.7745 2
65.3256 16.0987 2
69.8183 24.0609 2
68.353 26.9503 2
64.7205 19.1855 2
66.7699 22.9287 2
63.8988 22.0243 2
72.4144 35.224 3.9856
71.8056 30.6768 3.98728
69.8448 33.2684 3.98009
68.9719 29.0378 3.98059
67.6182 24.9095 3.98258
66.2045 27.6308 3.97883
64.0165 10.9835 4
64.7684 23.8219 3.98133
63.8914 14.323 3.99122
63.5184 17.4364 3.98609
62.9177 20.3072 3.98266
62.1083 22.9288 3.98079
60.6846 11.0946 3.99216
57.613 11.4389 3.98732
72.1454 51.8506 0
69.9759 56.25 0
68.8391 53.1141 0.0117513
64.0165 64.0165 0
63.8873 60.7699 0.00894614
66.6128 57.1374 0.0104677
63.5059 57.781 0.0144711
62.2255 65.694 2
58.8944 65.4167 2
69.7719 50.9875 2
67.7865 55.1695 2
66.6576 52.2133 2
62.3374 62.4307 2
64.6679 56.0399 2
62.2068 59.4145 2
61.8324 56.6952 2
60.6692 63.9798 3.99223
57.0247 66.7372 3.99294
57.5583 63.698 3.98744
67.5152 50.1788 3.98252
65.7098 54.1792 3.98486
64.5507 51.393 3.98087
60.7755 60.947 3.98642
62.8315 55.0803 3.98377
60.6652 58.1732 3.98346
60.3401 55.8026 3.98264
56.25 69.9759 4
58.3339 68.6801 2
60.3285 67.2507 0
58.9215 9.65298 3.99255
62.2254 9.30607 4
73.0099 49.554 0
74.2788 44.8158 0
71.2515 46.5968 0.0123416
72.1697 42.0851 0.0135221
74.9194 39.9526 0
75 37.5 2
72.4065 39.8023 2
71.7844 44.352 2
69.809 41.7889 2
70.5778 48.8115 2
68.9186 46.0147 2
72.4898 37.5119 3.9851
70.0451 39.6567 3.97883
69.4362 43.907 3.98049
67.6056 41.498 3.97719
68.2731 48.108 3.98157
66.7202 45.4419 3.97841
74.9197 35.0474 0
74.2794 30.1841 0
72.1863 32.9434 0.0133501
71.2802 28.4323 0.012603
65.694 12.7746 0
65.3254 16.0988 0.00963977
69.818 24.0597 0.0120001
68.3531 26.9503 0.018704
66.7698 22.929 0.0163392
64.7202 19.186 0.0147539
63.8986 22.0247 0.0180187
72.4144 35.2242 2
71.8056 30.6771 2
69.8448 33.2685 2
68.9718 29.0379 2
64.0165 10.9835 2
63.8915 14.3229 2
63.5186 17.4359 2
67.6183 24.9093 2
66.2045 27.6305 2
62.918 20.3068 2
64.7685 23.8214 2
62.1085 22.9286 2
60.6847 11.0945 2
57.613 11.4384 2
70.0618 35.3919 3.97926
69.4725 31.1494 3.98048
67.6635 33.5894 3.97735
66.7815 29.62 3.978
65.5352 25.6934 3.98012
64.1596 28.2486 3.97804
62.3426 12.6516 3.99176
62.8727 24.6253 3.98037
62.2023 15.7743 3.98632
61.8223 18.67 3.98374
61.2318 21.325 3.98098
60.4445 23.71 3.98055
59.2475 12.7698 3.98659
55.8746 10.2257 3.98849
56.4067 13.1012 3.98439
69.7717 50.9885 0.0120821
62.2254 65.694 0
58.8943 65.4166 0.00744851
67.7862 55.1699 0.0110555
66.6574 52.213 0.0163683
62.3373 62.4307 0.00813383
62.2068 59.4142 0.0142389
64.6677 56.0394 0.0143637
61.8323 56.6948 0.0165171
60.6694 63.9799 2
57.0249 66.7373 2
57.5583 63.6984 2
67.5152 50.179 2
65.71 54.1797 2
64.5508 51.3935 2
60.7756 60.9475 2
62.8317 55.0807 2
60.6653 58.1737 2
60.3402 55.8029 2
55.0702 67.934 3.99327
59.2206 62.374 3.98677
55.8042 64.9149 3.98838
56.3284 62.0988 3.98458
65.3443 49.4137 3.97979
63.7189 53.3026 3.98245
62.4593 50.6632 3.97949
59.3378 59.5695 3.98433
61.0919 54.3249 3.98296
59.2983 57.0294 3.98188
59.2561 55.2017 3.98288
48.1024 68.5819 3.99013
50.948 69.9333 3.99378
54.0858 71.1327 4
56.25 69.976 2
58.3339 68.6801 0
57.0585 8.33294 3.99305
60.3285 7.74928 4
58.9217 9.65289 2
62.2255 9.30602 2
70.5777 48.8123 0.0121649
71.7844 44.352 0.0127522
68.9187 46.0148 0.0191958
69.809 41.789 0.0201035
72.4066 39.802 0.0144125
75 37.5 0
72.4898 37.5122 2
70.0451 39.6567 2
69.4361 43.9069 2
67.6056 41.4981 2
68.273 48.108 2
66.7201 45.4422 2
70.1327 37.5212 3.97843
67.8412 39.5122 3.97614
67.2331 43.4711 3.97792
65.5674 41.2116 3.97638
66.0803 47.4215 3.97909
64.6663 44.8527 3.97758
72.4144 35.224 0.0144004
71.8056 30.6768 0.0127211
69.8448 33.2684 0.0199066
68.9719 29.0378 0.0194134
64.0165 10.9835 0
63.8914 14.323 0.0087797
63.5184 17.4364 0.0139088
67.6182 24.9095 0.0174225
66.2045 27.6308 0.0211691
64.7684 23.8219 0.0186728
62.9177 20.3072 0.0173352
62.1083 22.9288 0.0192108
60.6846 11.0946 0.00784469
57.613 11.4389 0.0126839
70.0619 35.392 2
69.4725 31.1495 2
67.6636 33.5892 2
66.7814 29.6198 2
62.3427 12.6515 2
62.2024 15.7739 2
61.8226 18.6696 2
65.5352 25.6931 2
64.1595 28.2483 2
61.2321 21.3247 2
62.8728 24.625 2
60.4447 23.7099 2
59.2475 12.7693 2
56.4067 13.1007 2
55.8746 10.2252 2
67.8774 35.5466 3.97668
67.2743 31.6202 3.97794
65.7088 33.9243 3.97633
64.6753 30.1867 3.97688
63.553 26.4049 3.97913
62.2737 28.7679 3.97849
60.7772 14.2139 3.98632
61.0643 25.3226 3.98022
60.6184 17.1136 3.98447
60.2339 19.7986 3.98224
59.6781 22.2392 3.97979
58.9996 24.3007 3.98091
54.0376 9.1293 3.98926
57.9126 14.3193 3.98444
54.7876 12.0007 3.98513
55.3147 14.6317 3.98323
67.5152 50.1788 0.0174827
57.0247 66.7372 0.00705643
60.6692 63.9798 0.00777139
57.5583 63.698 0.012558
65.7098 54.1792 0.0151431
64.5507 51.393 0.0191264
60.7755 60.947 0.013581
60.6652 58.1732 0.0165392
62.8315 55.0803 0.0162269
60.3401 55.8026 0.0173625
55.0704 67.934 2
59.2206 62.3745 2
55.8042 64.9153 2
56.3284 62.0992 2
65.3442 49.4141 2
63.719 53.3032 2
62.4594 50.6636 2
59.3378 59.5701 2
61.0921 54.3252 2
59.2984 57.0297 2
59.2562 55.2019 2
53.0421 69.0016 3.99355
53.9663 66.0168 3.98906
57.8835 60.8808 3.98449
54.6842 63.2142 3.98526
55.2139 60.6265 3.98324
63.2111 48.6697 3.9786
61.7586 52.5889 3.98122
60.2953 50.0335 3.97876
58.0243 58.276 3.98279
59.3441 53.9655 3.98217
58.1381 55.8318 3.98034
50.1089 67.8599 3.98988
47.4628 66.5862 3.9878
46.0563 69.1614 3.99037
48.1025 68.5823 2
48.8023 70.7244 3.99398
50.9482 69.9334 2
51.8506 72.1454 4
54.0858 71.1327 2
56.25 69.9759 0
55.1028 7.13757 3.99338
58.3339 6.31992 4
57.0587 8.33279 2
60.3286 7.74926 2
58.9215 9.65298 0.00745041
62.2254 9.30607 0
68.2731 48.108 0.0184299
69.4362 43.907 0.0195142
66.7202 45.4419 0.0215882
67.6056 41.498 0.0228129
70.0451 39.6567 0.0211692
72.4898 37.5119 0.0148968
70.1328 37.5212 2
67.8412 39.5122 2
67.233 43.4713 2
65.5674 41.2118 2
66.0802 47.4218 2
64.6662 44.853 2
67.9368 37.5214 3.9755
65.7972 39.3708 3.97542
65.1889 43.0283 3.97702
63.7701 40.9326 3.9763
63.9811 46.7229 3.97807
62.8245 44.2227 3.97818
70.0618 35.3919 0.0207385
69.4725 31.1494 0.019518
67.6635 33.5894 0.02265
66.7815 29.62 0.0220009
62.3426 12.6516 0.00823577
62.2023 15.7743 0.0136789
61.8223 18.67 0.0162637
65.5352 25.6934 0.0198848
64.1596 28.2486 0.0219586
62.8727 24.6253 0.0196281
61.2318 21.325 0.0190225
60.4445 23.71 0.0194535
59.2475 12.7698 0.0134115
56.4067 13.1012 0.0156135
55.8746 10.2257 0.0115072
67.8776 35.5465 2
67.2742 31.6201 2
65.7088 33.9241 2
64.6752 30.1865 2
60.7772 14.2134 2
60.6186 17.1131 2
60.2343 19.7982 2
63.5529 26.4046 2
62.2736 28.7677 2
59.6784 22.239 2
61.0644 25.3224 2
58.9998 24.3007 2
57.9125 14.3189 2
55.3147 14.6312 2
54.0376 9.12876 2
54.7876 12 2
65.8862 35.6651 3.97573
65.1983 32.1499 3.97674
64.2975 34.2463 3.97599
62.6105 30.6276 3.97681
61.6694 27.0598 3.97883
60.8693 29.1282 3.98039
59.314 15.6558 3.98457
59.3534 25.7788 3.98152
59.1309 18.3386 3.98355
58.7536 20.8339 3.98068
58.304 23.0713 3.97871
57.9908 24.6443 3.98165
52.1122 8.14808 3.98973
53.0582 11.0072 3.98613
56.6795 15.7275 3.98368
53.811 13.6671 3.98334
54.379 15.9826 3.98309
55.0702 67.934 0.00673079
65.3443 49.4137 0.0202098
55.8042 64.9149 0.0116188
59.2206 62.374 0.0132327
56.3284 62.0988 0.0154226
63.7189 53.3026 0.0175524
62.4593 50.6632 0.0205147
59.3378 59.5695 0.0156715
59.2983 57.0294 0.0181245
61.0919 54.3249 0.0170428
59.2561 55.2017 0.017122
53.0423 69.0017 2
53.9663 66.0172 2
57.8835 60.8812 2
54.6841 63.2147 2
55.2139 60.627 2
63.2111 48.6701 2
61.7587 52.5894 2
60.2953 50.0339 2
58.0245 58.2765 2
59.3442 53.9658 2
58.1383 55.8321 2
52.0698 67.0031 3.98956
52.953 64.2243 3.98609
56.6524 59.5014 3.98344
53.6823 61.6308 3.98372
54.2635 59.3331 3.9824
61.0148 47.8922 3.97789
59.7303 52.1219 3.98092
58.051 49.6343 3.97952
56.7847 57.0052 3.98072
57.1372 54.1428 3.98
50.109 67.8603 2
49.3364 65.9263 3.9874
47.4627 66.5867 2
46.8917 64.7432 3.98595
45.558 67.1038 3.98792
43.9734 69.5941 3.9906
46.0563 69.1618 2
46.6091 71.3689 3.99421
48.1024 68.5819 0.00986864
48.8025 70.7246 2
49.554 73.0099 4
50.948 69.9333 0.00621955
51.8506 72.1455 2
54.0858 71.1327 0
53.0638 6.06919 3.99363
55.103 7.13741 2
56.25 5.02411 4
58.3339 6.3199 2
57.0585 8.33294 0.00695258
60.3285 7.74928 0
66.0803 47.4215 0.0209072
67.2331 43.4711 0.0220793
64.6663 44.8527 0.0224212
65.5674 41.2116 0.0236159
67.8412 39.5122 0.023862
70.1327 37.5212 0.0215655
67.9368 37.5214 2
65.7973 39.3709 2
65.1888 43.0286 2
63.7701 40.9328 2
63.981 46.7233 2
62.8244 44.2229 2
65.8991 37.5012 3.97437
63.9125 39.268 3.97536
63.345 42.5548 3.97691
62.4486 40.7014 3.97622
61.9869 45.9278 3.97803
61.4719 43.6912 3.97951
67.8774 35.5466 0.023321
67.2743 31.6202 0.022055
65.7088 33.9243 0.0236742
64.6753 30.1867 0.0231245
60.7772 14.2139 0.0136779
60.6184 17.1136 0.0155257
60.2339 19.7986 0.0177553
63.553 26.4049 0.0208678
62.2737 28.7679 0.0215065
61.0643 25.3226 0.0197794
59.6781 22.2392 0.0202096
58.9996 24.3007 0.0190924
57.9126 14.3193 0.0155605
55.3147 14.6317 0.0167685
54.0376 9.1293 0.0107386
54.7876 12.0007 0.0148686
65.8864 35.6649 2
65.1983 32.1496 2
64.2975 34.246 2
62.6103 30.6273 2
59.314 15.6553 2
59.1313 18.338 2
58.7541 20.8336 2
61.6693 27.0597 2
60.8691 29.128 2
58.3043 23.0713 2
59.3535 25.7788 2
57.991 24.6444 2
56.6795 15.727 2
54.379 15.9821 2
53.811 13.6665 2
52.1122 8.14758 2
53.0582 11.0066 2
64.1035 35.6301 3.97528
62.9465 33.0405 3.97575
60.6341 30.6006 3.97716
59.5943 27.8951 3.97987
57.9437 16.9678 3.98389
57.7645 25.7061 3.98301
57.7238 19.4571 3.98246
57.3863 21.8187 3.97866
57.2072 23.9257 3.97851
50.1123 7.28043 3.98997
51.2325 10.1159 3.98687
52.1729 12.7844 3.98441
55.5409 16.9557 3.98357
52.9797 15.2483 3.98201
53.7613 16.9639 3.98333
53.0421 69.0016 0.00644636
53.9663 66.0168 0.0109363
63.2111 48.6697 0.0213982
54.6842 63.2142 0.0147369
57.8835 60.8808 0.0155142
55.2139 60.6265 0.0167561
61.7586 52.5889 0.0187764
60.2953 50.0335 0.0212405
58.0243 58.276 0.0172079
58.1381 55.8318 0.0196564
59.3441 53.9655 0.0178263
52.0699 67.0035 2
52.9529 64.2247 2
56.6524 59.5019 2
53.6822 61.6313 2
54.2635 59.3337 2
61.0148 47.8926 2
59.7304 52.1223 2
58.0509 49.6346 2
56.7849 57.0057 2
57.1373 54.1429 2
51.1673 65.1332 3.9868
52.0463 62.5458 3.98435
55.4856 58.2639 3.98294
52.8366 60.1451 3.98271
53.6442 58.4837 3.98229
58.3336 46.8629 3.98041
57.583 51.8059 3.97972
56.2752 49.5724 3.98195
55.4819 55.8127 3.97917
55.375 53.4032 3.97668
50.1089 67.8599 0.0101214
49.3363 65.9268 2
48.6175 64.1292 3.98553
47.4628 66.5862 0.0122026
45.558 67.1043 2
46.8916 64.7436 2
46.3812 63.0615 3.98455
45.1319 65.2049 3.98622
43.6313 67.475 3.98811
41.8607 69.8817 3.99068
43.9735 69.5945 2
44.3766 71.8638 3.99434
46.0563 69.1614 0.00962675
46.6092 71.3691 2
47.2057 73.7222 4
48.8023 70.7244 0.00601514
49.554 73.0099 2
51.8506 72.1454 0
50.9536 5.12973 3.99379
53.064 6.06901 2
54.0858 3.86728 4
55.1028 7.13757 0.00662278
56.25 5.02406 2
58.3339 6.31992 0
63.9811 46.7229 0.0219315
65.1889 43.0283 0.0229845
62.8245 44.2227 0.0218162
63.7701 40.9326 0.0236969
65.7972 39.3708 0.0245826
67.9368 37.5214 0.0244975
65.8991 37.5011 2
63.9127 39.2681 2
63.345 42.5551 2
62.4487 40.7016 2
61.9868 45.9281 2
61.4719 43.6915 2
63.9715 37.4564 3.97428
62.1756 39.357 3.97581
61.2393 41.9647 3.97702
60.2735 44.7801 3.9799
65.8862 35.6651 0.0242674
65.1983 32.1499 0.0232642
64.2975 34.2463 0.024005
62.6105 30.6276 0.0231903
59.314 15.6558 0.0154319
59.1309 18.3386 0.0164513
58.7536 20.8339 0.0193167
61.6694 27.0598 0.0211742
60.8693 29.1282 0.0196112
59.3534 25.7788 0.0184754
58.304 23.0713 0.0212909
57.9908 24.6443 0.0183463
56.6795 15.7275 0.0163211
54.379 15.9826 0.016905
53.811 13.6671 0.0166563
52.1122 8.14808 0.0102749
53.0582 11.0072 0.0138713
64.1037 35.6299 2
62.9465 33.0401 2
60.6338 30.6003 2
57.9439 16.9672 2
57.7244 19.4564 2
57.3868 21.8185 2
59.5941 27.895 2
57.2075 23.9258 2
57.7646 25.7062 2
50.1123 7.27995 2
55.541 16.9552 2
53.7614 16.9633 2
52.9796 15.2477 2
52.1728 12.7839 2
51.2325 10.1154 2
62.2076 35.3558 3.97486
60.3132 32.7372 3.97514
58.6466 30.0607 3.97775
57.3195 27.3614 3.98227
56.6412 18.1388 3.98365
56.3173 25.0813 3.9794
56.3677 20.5014 3.98056
56.1268 22.8469 3.97576
48.0561 6.52371 3.99021
49.3243 9.32426 3.98746
50.4334 11.983 3.98484
51.3793 14.4838 3.98272
54.4189 17.9038 3.98333
52.3639 17.02 3.98214
52.0698 67.0031 0.0104427
52.953 64.2243 0.0139103
61.0148 47.8922 0.0221143
53.6823 61.6308 0.0162844
56.6524 59.5014 0.0165623
54.2635 59.3331 0.0176008
59.7303 52.1219 0.0190849
58.051 49.6343 0.0204802
56.7847 57.0052 0.0192757
57.1372 54.1428 0.0199982
51.1672 65.1336 2
52.0462 62.5462 2
55.4857 58.2645 2
52.8365 60.1456 2
53.6443 58.4843 2
58.3335 46.8632 2
57.583 51.8061 2
56.275 49.5726 2
55.4821 55.8131 2
55.3752 53.4034 2
50.3459 63.3873 3.98498
51.2451 60.9436 3.98285
54.2254 57.279 3.98187
52.3159 58.6454 3.98171
56.7525 44.1982 3.97927
55.526 47.9134 3.98145
55.0938 51.4083 3.97705
54.0172 54.565 3.97688
49.3364 65.9263 0.0126034
48.6174 64.1297 2
47.9616 62.4822 3.98417
45.558 67.1038 0.0120758
46.8917 64.7432 0.01405
43.6313 67.4755 2
46.381 63.0619 2
45.1319 65.2054 2
45.9868 61.5946 3.98343
44.7664 63.463 3.98503
43.3559 65.515 3.9863
41.6635 67.6944 3.9882
39.7024 70.029 3.99067
41.8607 69.8822 2
42.111 72.2086 3.99432
43.9734 69.5941 0.00939827
44.3767 71.8641 2
44.8159 74.2794 4
46.6091 71.3689 0.00579249
47.2057 73.7222 2
49.554 73.0099 0
48.7841 4.32084 3.994
50.9537 5.12952 2
51.8506 2.85458 4
53.0638 6.06919 0.00637425
54.0858 3.86728 2
56.25 5.02411 0
61.9869 45.9278 0.0219749
63.345 42.5548 0.0230943
61.4719 43.6912 0.0204909
62.4486 40.7014 0.0237834
63.9125 39.268 0.0246431
65.8991 37.5012 0.0256259
63.9714 37.4563 2
62.1758 39.357 2
61.2393 41.965 2
60.2735 44.7804 2
62.0127 37.444 3.9747
60.2738 39.8514 3.97636
59.0235 42.9279 3.97778
64.1035 35.6301 0.0247164
62.9465 33.0405 0.0242492
60.6341 30.6006 0.0228415
57.9437 16.9678 0.0161141
57.7238 19.4571 0.0175389
57.3863 21.8187 0.0213416
59.5943 27.8951 0.0201306
57.7645 25.7061 0.0169944
57.2072 23.9257 0.0214921
55.5409 16.9557 0.0164259
53.7613 16.9639 0.0166652
52.9797 15.2483 0.0179928
50.1123 7.28043 0.010033
52.1729 12.7844 0.0155883
51.2325 10.1159 0.0131295
62.2079 35.3557 2
60.313 32.7369 2
58.6462 30.0604 2
56.6415 18.1381 2
56.3685 20.5008 2
56.1272 22.847 2
57.3193 27.3613 2
56.3175 25.0818 2
48.0561 6.52331 2
49.3243 9.32373 2
54.4191 17.9033 2
52.364 17.0194 2
51.3792 14.4832 2
50.4333 11.9824 2
59.9199 35.1151 3.97489
58.0243 32.2578 3.97561
56.5764 29.3195 3.97867
55.4783 26.5792 3.98313
55.3481 19.172 3.98314
54.9517 24.0342 3.97451
55.0142 21.5415 3.979
45.9621 5.8789 3.99049
43.3734 7.46787 3.98854
47.3547 8.6183 3.98774
48.5999 11.2848 3.98556
49.7148 13.7312 3.98361
50.6356 16.1178 3.98117
53.129 18.6432 3.98224
51.306 18.0332 3.98378
51.1673 65.1332 0.0131971
52.0463 62.5458 0.0156521
58.3336 46.8629 0.0195866
52.8366 60.1451 0.0172885
55.4856 58.2639 0.0170568
53.6442 58.4837 0.017711
57.583 51.8059 0.0202765
56.2752 49.5724 0.0180524
55.4819 55.8127 0.0208263
55.375 53.4032 0.0233185
50.3458 63.3877 2
51.245 60.9441 2
54.2256 57.2796 2
52.3159 58.646 2
56.7525 44.1987 2
55.5258 47.9138 2
55.0937 51.4083 2
54.0175 54.5653 2
49.5919 61.7519 3.98363
55.6867 41.7184 3.97716
50.5689 59.3376 3.98125
52.1916 56.5029 3.97982
54.2285 45.5824 3.98189
53.3755 49.3463 3.97807
52.6871 52.8711 3.97561
48.6175 64.1292 0.0144681
47.9615 62.4827 2
47.3291 61.0173 3.98296
43.6313 67.475 0.0118876
45.1319 65.2049 0.0137828
46.3812 63.0615 0.0154512
41.6635 67.6949 2
43.3559 65.5155 2
45.9866 61.5949 2
44.7662 63.4635 2
45.766 60.6389 3.98264
44.4825 61.8445 3.98369
43.1455 63.7358 3.98493
41.5455 65.6534 3.98658
39.6326 67.7745 3.98826
37.5259 70.0543 3.9907
39.7024 70.0294 2
39.8179 72.4057 3.99426
41.8607 69.8817 0.00932036
42.1111 72.2089 2
42.3947 74.6792 4
44.3766 71.8638 0.00566044
44.8159 74.2794 2
47.2057 73.7222 0
43.8515 5.35603 3.99072
46.5702 3.64549 3.99421
48.7842 4.32065 2
49.554 1.99015 4
50.9536 5.12973 0.00621212
51.8506 2.85453 2
54.0858 3.86728 0
60.2735 44.7801 0.0201002
61.2393 41.9647 0.0229824
62.1756 39.357 0.0241895
63.9715 37.4564 0.0257187
62.0126 37.444 2
60.2741 39.8513 2
59.0235 42.9281 2
59.7912 37.5669 3.97575
58.0382 40.6639 3.97626
55.1674 39.7279 3.97604
62.2076 35.3558 0.0251413
60.3132 32.7372 0.0248571
58.6466 30.0607 0.0222501
56.6412 18.1388 0.0163488
56.3677 20.5014 0.0194428
56.1268 22.8469 0.0242357
57.3195 27.3614 0.0177334
56.3173 25.0813 0.0205992
54.4189 17.9038 0.0166744
52.3639 17.02 0.0178558
51.3793 14.4838 0.0172832
48.0561 6.52371 0.0097946
49.3243 9.32426 0.0125359
50.4334 11.983 0.0151622
59.9203 35.115 2
45.9621 5.87849 2
43.3735 7.46746 2
58.024 32.2575 2
56.5759 29.3191 2
55.3486 19.1713 2
55.0151 21.5409 2
54.9521 24.0352 2
55.4782 26.5797 2
47.3547 8.6179 2
48.5999 11.2842 2
53.1293 18.6426 2
51.3061 18.0325 2
50.6356 16.117 2
49.7147 13.7306 2
57.4358 34.7533 3.97642
55.7661 31.5011 3.97509
54.55 28.3817 3.98438
53.8004 25.4764 3.97747
53.9758 20.1189 3.98311
53.5969 22.6859 3.97447
41.3985 7.07306 3.9887
45.3595 7.98979 3.98809
42.8651 9.40832 3.9869
46.6661 10.6458 3.98586
47.7455 13.0917 3.98387
48.9328 15.3883 3.98262
50.0086 17.6867 3.97949
51.657 19.3108 3.98517
50.3459 63.3873 0.0150233
51.2451 60.9436 0.0171495
56.7525 44.1982 0.0207276
55.526 47.9134 0.0185468
52.3159 58.6454 0.0182929
54.2254 57.279 0.018125
55.0938 51.4083 0.0229533
54.0172 54.565 0.0231245
49.5917 61.7523 2
55.6873 41.7177 2
50.5688 59.3381 2
52.1919 56.5036 2
54.2284 45.5831 2
53.3752 49.3457 2
52.6873 52.8705 2
48.8497 60.2099 3.98244
52.5968 42.6601 3.97615
49.7929 57.6378 3.9809
50.6066 54.4386 3.97705
51.8693 47.2869 3.98072
51.2439 50.9644 3.97341
48.2769 43.7631 3.98229
47.9616 62.4822 0.0158255
47.329 61.0176 2
46.619 59.8038 3.98231
41.6635 67.6944 0.0117953
43.3559 65.515 0.0137028
44.7664 63.463 0.0149693
45.9868 61.5946 0.0165698
39.6326 67.775 2
41.5455 65.6539 2
45.7659 60.6392 2
43.1454 63.7363 2
44.4823 61.845 2
44.6233 60.3015 3.98281
42.9496 62.0936 3.98431
41.5989 63.83 3.98508
39.6471 65.6225 3.98678
37.5632 67.7573 3.98822
31.6973 65.1418 3.98702
33.392 67.4951 3.98827
35.3333 69.9645 3.99069
37.526 70.0548 2
37.5096 72.4604 3.99424
39.7024 70.029 0.00932861
39.8179 72.406 2
39.9526 74.9197 4
42.111 72.2086 0.00567675
42.3947 74.6792 2
44.8159 74.2794 0
41.7361 4.96512 3.99097
43.8515 5.35562 2
44.3255 3.10883 3.99433
46.5703 3.64526 2
47.2057 1.27793 4
48.7841 4.32084 0.00600025
49.554 1.99013 2
51.8506 2.85458 0
59.0235 42.9279 0.0222218
60.2738 39.8514 0.023644
62.0127 37.444 0.0252967
59.791 37.5669 2
58.0385 40.6636 2
55.1671 39.7275 2
56.8739 37.8969 3.97756
49.7304 41.3175 3.97844
53.2097 39.3138 3.97509
39.4419 6.79659 3.98891
59.9199 35.1151 0.0251055
58.0243 32.2578 0.0243914
56.5764 29.3195 0.0213333
55.3481 19.172 0.0168615
55.0142 21.5415 0.0209972
54.9517 24.0342 0.0254945
55.4783 26.5792 0.0168654
53.129 18.6432 0.0177629
51.306 18.0332 0.0162211
50.6356 16.1178 0.0188311
45.9621 5.8789 0.00951087
49.7148 13.7312 0.0163879
47.3547 8.6183 0.0122639
48.5999 11.2848 0.0144359
43.3734 7.46787 0.0114606
57.4362 34.7534 2
41.3986 7.07257 2
45.3595 7.98942 2
42.8651 9.4079 2
55.7656 31.5006 2
54.5493 28.3822 2
53.9766 20.118 2
53.5978 22.6844 2
53.8004 25.4776 2
46.666 10.6455 2
47.7454 13.0912 2
51.6572 19.3099 2
50.0087 17.686 2
48.9327 15.3877 2
54.9423 33.9588 3.9777
53.5442 30.4611 3.97846
52.6281 27.1795 3.98024
52.1665 24.0681 3.97459
52.4008 21.0501 3.98073
41.0131 9.04156 3.98706
44.7232 9.9886 3.98636
42.4678 10.8941 3.98529
46.0049 12.7197 3.98445
47.6823 14.5731 3.98325
48.1154 16.9753 3.98104
49.8211 19.5852 3.97809
49.5919 61.7519 0.016372
50.5689 59.3376 0.018753
55.6867 41.7184 0.0228408
54.2285 45.5824 0.01811
53.3755 49.3463 0.0219292
52.1916 56.5029 0.0201801
52.6871 52.8711 0.0243928
48.8495 60.2103 2
52.5981 42.6593 2
49.7929 57.6381 2
50.6069 54.4397 2
51.8688 47.2863 2
51.2438 50.963 2
48.2695 43.7655 2
47.9884 58.7521 3.98151
50.1851 45.2876 3.97752
48.6045 55.9297 3.98121
49.1484 52.6165 3.97779
49.7137 49.0639 3.97231
46.1473 39.8875 3.91708
46.531 42.7207 3.96539
46.5855 45.7992 3.98517
43.9897 41.2071 3.95022
42.1118 41.9889 3.94212
47.3291 61.0173 0.0170355
46.6189 59.8041 2
45.4689 58.8002 3.98183
39.6326 67.7745 0.011742
41.5455 65.6534 0.0134223
43.1455 63.7358 0.0150725
44.4825 61.8445 0.016311
45.766 60.6389 0.0173569
41.5988 63.8303 2
37.5633 67.7578 2
39.6472 65.6229 2
44.6232 60.3018 2
42.9495 62.094 2
41.7527 62.5051 3.98483
42.481 59.9941 3.98336
39.8924 63.566 3.98518
37.6419 65.522 3.9866
35.4633 67.6668 3.98824
33.5754 65.3554 3.98698
31.9597 63.3155 3.98566
29.8835 64.7325 3.98676
31.6974 65.1423 2
31.3766 67.2047 3.98835
33.3921 67.4956 2
33.1561 69.7579 3.99072
35.3333 69.9649 2
35.195 72.3748 3.99423
37.5259 70.0543 0.00930027
37.5096 72.4606 2
37.5 75 4
39.8179 72.4057 0.0057437
39.9526 74.9197 2
42.3947 74.6792 0
39.6237 4.71231 3.99107
41.7361 4.96468 2
42.062 2.71646 3.9945
43.8515 5.35603 0.00927874
44.3256 3.10859 2
44.8158 0.721173 4
46.5702 3.64549 0.00579266
47.2057 1.27779 2
49.554 1.99015 0
58.0382 40.6639 0.0237443
59.7912 37.5669 0.0242458
55.1674 39.7279 0.0239567
49.7301 41.3184 2
56.8735 37.897 2
53.2089 39.3126 2
54.0648 36.6212 3.97609
47.6608 40.4379 3.98521
50.6977 38.4958 3.97908
37.5157 6.66767 3.9889
39.4419 6.79609 2
39.2107 8.68408 3.98729
35.9412 8.484 3.98742
57.4358 34.7533 0.0235811
55.7661 31.5011 0.0249053
54.55 28.3817 0.0156244
53.9758 20.1189 0.0168865
53.5969 22.6859 0.0255272
53.8004 25.4764 0.0225313
51.657 19.3108 0.0148325
50.0086 17.6867 0.020506
48.9328 15.3883 0.0173809
45.3595 7.98979 0.0119099
47.7455 13.0917 0.0161339
46.6661 10.6458 0.0141355
41.3985 7.07306 0.0113037
42.8651 9.40832 0.0130999
54.9428 33.9591 2
41.0131 9.041 2
44.7232 9.98827 2
42.4677 10.8936 2
53.5432 30.4593 2
52.6278 27.1819 2
52.4014 21.0489 2
52.1673 24.0691 2
46.0047 12.7195 2
47.6822 14.5726 2
49.8213 19.5845 2
48.1154 16.9747 2
52.4902 32.8545 3.97654
51.3944 29.1364 3.97884
50.8242 25.705 3.97185
49.9497 22.1635 3.9792
40.5686 11.5973 3.98476
43.8576 11.909 3.98489
45.8034 15.4082 3.98307
47.5069 19.208 3.97952
46.4854 37.4972 3.9169
48.8497 60.2099 0.0175579
49.7929 57.6378 0.0191037
52.5968 42.6601 0.0238536
51.8693 47.2869 0.0192836
51.2439 50.9644 0.026588
50.6066 54.4386 0.0229452
48.2769 43.7631 0.0177081
47.9883 58.7525 2
50.1841 45.2908 2
48.6044 55.9301 2
49.1484 52.6178 2
49.7128 49.0623 2
46.1544 39.8906 2
46.537 42.7254 2
46.5801 45.8002 2
43.9971 41.2116 2
42.1189 41.991 2
46.841 57.355 3.98264
44.7573 39.4843 3.94479
42.4932 40.8672 3.95172
48.1554 47.2603 3.97984
47.1791 54.2634 3.98137
47.6176 50.7754 3.97739
44.8715 47.3547 3.99488
45.21 41.9943 3.91878
44.9986 44.6251 3.96306
42.7907 42.7201 3.94898
40.961 42.3413 3.95071
46.619 59.8038 0.0176866
45.4687 58.8004 2
43.8769 57.7248 3.98216
37.5632 67.7573 0.0117814
39.6471 65.6225 0.0132226
41.5989 63.83 0.0149184
42.9496 62.0936 0.0156902
44.6233 60.3015 0.0171888
35.4634 67.6672 2
41.7525 62.5054 2
39.8924 63.5664 2
37.642 65.5225 2
42.4809 59.9944 2
40.6225 61.6642 3.98417
40.4447 58.2273 3.98225
37.8361 63.2283 3.98584
35.5728 65.4445 3.98676
33.5755 65.3559 2
31.9598 63.316 2
33.6291 63.3557 3.9858
30.3786 62.8738 3.98538
32.1231 62.0225 3.98454
26.8677 61.5161 3.98406
28.0623 64.1601 3.98645
29.8836 64.733 2
29.4062 66.7681 3.98832
31.6973 65.1418 0.0129772
31.3767 67.2051 2
31.0134 69.4228 3.99064
33.392 67.4951 0.0117274
33.1561 69.7583 2
32.8921 72.149 3.99426
35.3333 69.9645 0.00930944
35.1949 72.3751 2
35.0474 74.9194 4
37.5096 72.4604 0.00576136
37.5 75 2
39.9526 74.9197 0
35.6202 6.71878 3.98891
37.5228 4.61179 3.99116
39.6237 4.71189 2
39.7885 2.47294 3.99458
41.7361 4.96512 0.00903339
42.062 2.71619 2
42.3946 0.32156 4
44.3255 3.10883 0.00567477
44.8159 0.72056 2
47.2057 1.27793 0
49.7304 41.3175 0.0215552
56.8739 37.8969 0.0224406
53.2097 39.3138 0.0249124
47.6613 40.4364 2
50.696 38.4958 2
54.0644 36.6212 2
51.4845 35.5712 3.96589
48.3314 37.7607 3.9869
46.15 35.1063 3.91594
43.9893 33.7837 3.94835
42.1054 33.0165 3.94239
37.4575 8.52579 3.98739
37.5156 6.6672 2
39.4419 6.79659 0.0110946
39.2107 8.6835 2
38.9757 10.116 3.98658
35.8977 9.76306 3.98634
34.1496 8.81344 3.98714
35.9411 8.48345 2
54.9423 33.9588 0.0223017
53.5442 30.4611 0.0215406
52.6281 27.1795 0.0197639
52.4008 21.0501 0.0192694
52.1665 24.0681 0.0254086
49.8211 19.5852 0.0219121
48.1154 16.9753 0.0189633
47.6823 14.5731 0.0167491
44.7232 9.9886 0.0136401
46.0049 12.7197 0.0155451
41.0131 9.04156 0.0129432
42.4678 10.8941 0.0147094
52.4911 32.8538 2
40.5685 11.5968 2
43.8574 11.9086 2
51.3932 29.1388 2
50.8249 25.7074 2
49.9505 22.1626 2
45.8032 15.4079 2
47.5069 19.2071 2
50.1008 31.3924 3.97218
49.3355 27.4599 3.97105
49.4293 24.3764 3.98118
47.1925 21.9096 3.97813
38.3011 12.7219 3.98409
42.1009 14.2925 3.98282
44.8026 18.4429 3.98137
45.039 37.4975 3.94257
46.4987 37.4988 2
47.9884 58.7521 0.0184885
48.6045 55.9297 0.0187929
50.1851 45.2876 0.0224785
49.7137 49.0639 0.0276919
49.1484 52.6165 0.0222062
46.1473 39.8875 0.0829227
46.531 42.7207 0.0346072
46.5855 45.7992 0.0148308
43.9897 41.2071 0.0497752
42.1118 41.9889 0.057881
46.8409 57.3554 2
44.7677 39.4848 2
42.4941 40.8682 2
48.1534 47.2576 2
47.1789 54.2635 2
47.6174 50.7753 2
44.8699 47.347 2
45.2142 41.9978 2
45.0069 44.6341 2
42.8034 42.7209 2
40.968 42.3416 2
45.4013 55.9415 3.98082
42.8202 39.2572 3.95907
40.9331 40.8005 3.97095
46.1415 48.937 3.98071
45.5624 52.564 3.98297
43.5097 48.4753 3.96671
43.3972 46.195 3.97063
43.761 43.8075 3.91544
41.2644 43.8826 3.954
39.3244 42.6593 3.94811
45.4689 58.8002 0.0181718
43.8768 57.7249 2
42.1075 56.3507 3.98242
35.4633 67.6668 0.0117565
37.6419 65.522 0.0134017
39.8924 63.566 0.0148206
41.7527 62.5051 0.015169
42.481 59.9941 0.0166387
35.5729 65.4449 2
40.6224 61.6645 2
37.836 63.2286 2
40.4447 58.2276 2
38.9259 56.5205 3.98355
38.2501 60.3501 3.98427
35.6067 63.2223 3.98583
33.5754 65.3554 0.0130237
31.9597 63.3155 0.0143416
33.6292 63.356 2
30.3788 62.8742 2
32.1231 62.0229 2
28.6808 62.2188 3.98514
33.3457 61.5357 3.98454
31.0658 61.2394 3.98399
27.5652 59.6141 3.98267
23.7869 59.1008 3.98395
25.0324 60.8879 3.98326
26.8678 61.5165 2
26.2286 63.4917 3.9858
28.0624 64.1605 2
27.4628 66.1916 3.9882
29.8835 64.7325 0.0132369
29.4062 66.7686 2
28.9057 68.9482 3.99057
31.3766 67.2047 0.011651
31.0134 69.4232 2
30.6145 71.7801 3.99427
33.1561 69.7579 0.00927566
32.892 72.1493 2
32.6054 74.6784 4
35.195 72.3748 0.00577026
35.0474 74.9197 2
37.5 75 0
33.7228 6.97341 3.98866
35.4342 4.68223 3.99105
35.6201 6.71827 2
37.514 2.38557 3.99465
37.5228 4.61139 2
39.6237 4.71231 0.00893072
39.7885 2.47267 2
39.9526 0.0806499 4
42.062 2.71646 0.00549786
42.3947 0.320817 2
44.8158 0.721173 0
44.7666 35.5055 3.94363
42.4915 34.1297 3.95129
47.6608 40.4379 0.0147862
50.6977 38.4958 0.0209221
54.0648 36.6212 0.023906
48.3304 37.7596 2
51.4842 35.5706 2
46.1538 35.1046 2
44.0017 33.7776 2
42.1088 33.0166 2
48.498 34.2577 4.00279
45.2038 32.9965 3.91306
42.7857 32.2825 3.94756
40.953 32.6677 3.95281
37.3097 10.619 3.98574
37.4574 8.52521 2
37.5157 6.66767 0.0110962
39.2107 8.68408 0.0127141
38.9757 10.1154 2
34.7528 10.3686 3.98567
35.8976 9.76247 2
32.3763 9.36009 3.98638
34.1495 8.81281 2
35.9412 8.484 0.0125845
52.4902 32.8545 0.0234647
51.3944 29.1364 0.021164
50.8242 25.705 0.028154
49.9497 22.1635 0.0208012
47.5069 19.208 0.0204754
45.8034 15.4082 0.0169342
43.8576 11.909 0.0151132
40.5686 11.5973 0.015242
50.0988 31.3927 2
38.3009 12.7211 2
42.1007 14.2922 2
49.3347 27.4613 2
49.4303 24.3754 2
47.193 21.9103 2
44.8024 18.4423 2
47.876 29.5931 3.96895
47.132 25.1013 3.9796
44.2924 21.2952 3.97959
36.5808 12.9183 3.98392
38.6803 14.7916 3.98266
41.7506 17.8213 3.98054
42.9553 37.488 3.95735
45.0551 37.4972 2
46.4854 37.4972 0.0831036
46.841 57.355 0.0173601
47.1791 54.2634 0.018627
48.1554 47.2603 0.0201642
47.6176 50.7754 0.0226138
44.7573 39.4843 0.0552121
45.21 41.9943 0.0812224
44.9986 44.6251 0.0369392
44.8715 47.3547 0.00512063
42.7907 42.7201 0.0510219
42.4932 40.8672 0.0482821
40.961 42.3413 0.0492893
45.4014 55.9418 2
42.8217 39.2574 2
40.9326 40.8007 2
46.1415 48.9325 2
45.5625 52.563 2
43.5083 48.4772 2
43.4248 46.2062 2
43.769 43.8132 2
41.2724 43.8773 2
39.3279 42.6637 2
43.7408 54.4528 3.9871
40.9998 39.1717 3.96741
39.2479 40.8613 3.95462
43.7404 50.5338 3.98677
42.0096 47.7276 4.0046
41.9203 45.2031 3.90934
39.4857 44.6408 3.9565
37.4971 42.7885 3.94759
43.8769 57.7248 0.0178442
42.1074 56.3507 2
40.4211 54.9553 3.98005
35.5728 65.4445 0.0132388
37.8361 63.2283 0.0141604
40.6225 61.6642 0.01583
40.4447 58.2273 0.0177502
35.6067 63.2226 2
38.25 60.3502 2
38.9256 56.5218 2
38 55.2768 3.98252
36.9348 57.6538 3.98257
35.3633 60.9351 3.98474
33.6291 63.3557 0.0142043
30.3786 62.8738 0.0146165
32.1231 62.0225 0.0154572
33.3457 61.536 2
28.681 62.2192 2
31.0658 61.2397 2
29.4011 60.3089 3.98353
32.3552 59.7678 3.98371
28.0168 58.3938 3.98311
27.5653 59.6145 2
25.3736 58.613 3.98227
22.7491 58.2597 3.98065
23.3971 60.3671 3.98271
23.7869 59.1013 2
25.0325 60.8883 2
24.4308 62.7834 3.98498
26.8677 61.5161 0.0159386
26.2288 63.4922 2
25.5469 65.5012 3.98779
28.0623 64.1601 0.0135514
27.4629 66.192 2
26.8354 68.3363 3.99041
29.4062 66.7681 0.0116836
28.9057 68.9486 2
28.3697 71.2653 3.99425
31.0134 69.4228 0.00935643
30.6144 71.7803 2
30.1842 74.2788 4
32.8921 72.149 0.00573971
32.6053 74.6792 2
35.0474 74.9194 0
31.7872 7.41308 3.98829
33.3461 4.9214 3.99088
33.7227 6.97278 2
35.2443 2.46174 3.99457
35.4342 4.68178 2
35.6202 6.71878 0.0110886
37.5 0 4
37.5141 2.3853 2
37.5228 4.61179 0.00884471
39.7885 2.47294 0.00541721
39.9526 0.0802889 2
42.3946 0.32156 0
42.8267 35.7268 3.9582
44.7736 35.5072 2
40.9319 34.2045 3.97125
42.4918 34.1303 2
48.3314 37.7607 0.0131027
51.4845 35.5712 0.0341071
46.15 35.1063 0.0840603
43.9893 33.7837 0.0516464
42.1054 33.0165 0.0576124
48.4997 34.2569 2
45.2113 32.9914 2
42.7974 32.2808 2
40.9564 32.6649 2
46.4203 31.508 3.98414
43.7503 31.1927 3.91448
41.2599 31.1281 3.9462
39.314 32.3504 3.94578
35.6911 11.7633 3.98422
37.3096 10.6182 2
37.4575 8.52579 0.0126093
38.9757 10.116 0.0134231
33.0967 11.2052 3.98463
34.7527 10.368 2
35.8977 9.76306 0.0136562
30.4809 10.0081 3.9859
32.3762 9.35948 2
34.1496 8.81344 0.0128623
50.1008 31.3924 0.0278155
49.3355 27.4599 0.0289473
49.4293 24.3764 0.0188152
47.1925 21.9096 0.0218687
44.8026 18.4429 0.0186339
42.1009 14.2925 0.0171847
38.3011 12.7219 0.0159146
36.5806 12.9179 2
47.8725 29.5934 2
38.68 14.7907 2
41.7502 17.8209 2
47.1331 25.1011 2
44.2927 21.2945 2
45.6264 27.7899 3.97675
43.8201 24.0279 3.98121
41.3436 20.6987 3.98021
35.7705 14.743 3.98295
38.681 17.578 3.98091
41.0447 37.4844 3.96303
42.958 37.4894 2
45.039 37.4975 0.0574341
45.4013 55.9415 0.0191784
45.5624 52.564 0.0170323
46.1415 48.937 0.0192889
42.8202 39.2572 0.0409299
43.761 43.8075 0.0845555
43.3972 46.195 0.0293665
43.5097 48.4753 0.033295
41.2644 43.8826 0.0460016
40.9331 40.8005 0.029052
39.3244 42.6593 0.051892
43.7412 54.4532 2
40.9999 39.172 2
39.247 40.8655 2
43.7398 50.5359 2
42.0112 47.7327 2
41.9336 45.2058 2
37.4989 42.7963 2
39.4988 44.6448 2
41.8906 53.0217 3.98806
39.2364 39.1606 3.92906
37.4998 40.9018 3.92576
35.676 42.6714 3.94772
40.9798 49.7615 3.99771
39.8156 46.0825 3.90994
37.5009 44.9065 3.95809
42.1075 56.3507 0.0175774
40.4208 54.9553 2
38.7296 53.8868 3.9844
35.6067 63.2223 0.0141743
38.2501 60.3501 0.0157298
38.9259 56.5205 0.0164467
35.3633 60.9353 2
36.9345 57.6537 2
37.9995 55.2768 2
36.3188 55.4137 3.9843
34.4868 58.5468 3.98343
33.3457 61.5357 0.0154645
28.6808 62.2188 0.014858
31.0658 61.2394 0.0160051
32.3552 59.768 2
29.4012 60.3092 2
30.293 57.8404 3.98325
28.0168 58.3941 2
26.9345 56.8435 3.98104
27.5652 59.6141 0.0173255
25.3737 58.6134 2
23.8277 56.8254 3.9788
21.3238 57.4197 3.98124
21.9884 59.6396 3.98302
22.749 58.2603 2
22.7339 62.0342 3.98419
23.3972 60.3676 2
23.7869 59.1008 0.0160521
25.0324 60.8879 0.0167383
24.4309 62.7839 2
23.6807 64.7191 3.98699
26.2286 63.4917 0.0141968
25.547 65.5017 2
24.8078 67.5973 3.99022
27.4628 66.1916 0.0117961
26.8354 68.3367 2
26.165 70.6061 3.99413
28.9057 68.9482 0.00942917
28.3695 71.2655 2
27.7943 73.7221 4
30.6145 71.7801 0.00572501
30.1841 74.2794 2
32.6054 74.6784 0
29.8097 7.98627 3.98778
31.2513 5.32845 3.99058
31.7871 7.41246 2
32.9801 2.69984 3.99446
33.3461 4.92086 2
33.7228 6.97341 0.0113444
35.0474 0.080333 4
35.2443 2.46145 2
35.4342 4.68223 0.008946
37.5 0 2
37.514 2.38557 0.00535482
39.9526 0.0806499 0
41.0069 35.8088 3.96686
42.8269 35.7282 2
44.7666 35.5055 0.0563736
28.5418 10.6835 3.98564
39.2448 34.1483 3.95417
40.93 34.2043 2
42.4915 34.1297 0.04871
48.498 34.2577 -0.00278845
45.2038 32.9965 0.0869355
42.7857 32.2825 0.0524404
40.953 32.6677 0.0471935
46.4311 31.5045 2
43.7537 31.1869 2
41.2708 31.1247 2
39.3176 32.3458 2
44.4425 29.6792 3.97469
41.9102 29.8106 3.91452
39.4779 30.3774 3.95514
37.4827 32.2226 3.9445
34.0908 12.9213 3.98357
35.691 11.7627 2
37.3097 10.619 0.0142573
31.1847 11.9734 3.98464
33.0966 11.2047 2
34.7528 10.3686 0.0143291
30.4809 10.0076 2
32.3763 9.36009 0.0136173
47.876 29.5931 0.0310507
47.132 25.1013 0.0203956
36.5808 12.9183 0.0160837
44.2924 21.2952 0.0204107
41.7506 17.8213 0.0194596
38.6803 14.7916 0.017335
35.7702 14.7429 2
45.6244 27.7912 2
38.6806 17.577 2
41.3434 20.6978 2
43.8207 24.0316 2
33.6057 15.86 3.98297
43.1052 26.5182 3.98896
40.9252 23.2717 3.98037
38.422 20.3061 3.9818
35.8467 17.4911 3.9819
39.2474 37.4863 3.92526
41.0444 37.4842 2
42.9553 37.488 0.0426485
43.7408 54.4528 0.0129046
43.7404 50.5338 0.0132283
40.9998 39.1717 0.0325891
41.9203 45.2031 0.090665
42.0096 47.7276 -0.00459523
39.4857 44.6408 0.0435029
39.2479 40.8613 0.0453841
37.4971 42.7885 0.0524064
41.8906 53.0229 2
39.2363 39.1629 2
37.4998 40.9068 2
40.9785 49.7624 2
35.673 42.6754 2
39.8313 46.0925 2
37.4984 44.8945 2
39.8312 51.9459 3.99295
37.4987 39.1743 3.91908
35.7539 40.8757 3.95314
34.0386 42.3508 3.95152
35.4998 44.6466 3.95482
38.7677 48.7679 4.02377
37.5044 46.3927 3.90704
40.4211 54.9553 0.0199499
38.7293 53.8858 2
36.7168 53.2445 3.99205
35.3633 60.9351 0.0152649
36.9348 57.6538 0.0174289
38 55.2768 0.0174838
34.4867 58.5469 2
36.3185 55.413 2
33.2217 55.5305 3.98324
32.3552 59.7678 0.0162911
29.4011 60.3089 0.016472
30.2929 57.8405 2
28.6739 55.333 3.97986
28.0168 58.3938 0.0168908
26.9345 56.8438 2
25.2924 55.1637 3.9786
21.791 55.3688 3.9787
25.3736 58.613 0.0177251
23.8276 56.826 2
20.207 57.0505 3.98314
20.6381 58.7981 3.98267
21.3236 57.4202 2
21.1631 61.1842 3.98414
21.9884 59.6401 2
22.7491 58.2597 0.0193537
21.8938 63.8467 3.98624
22.734 62.0347 2
23.3971 60.3671 0.017288
24.4308 62.7834 0.0150244
23.6808 64.7196 2
22.8362 66.7409 3.9899
25.5469 65.5012 0.0122066
24.8078 67.5977 2
24.0093 69.8072 3.99398
26.8354 68.3363 0.00958633
26.1648 70.6062 2
25.446 73.0099 4
28.3697 71.2653 0.00574832
27.7943 73.7222 2
30.1842 74.2788 0
27.8197 8.64592 3.9875
29.1533 5.87415 3.9902
29.8096 7.9857 2
30.7254 3.09693 3.99427
31.2512 5.32792 2
31.7872 7.41308 0.0117065
32.6053 0.320823 4
32.98 2.69954 2
33.3461 4.9214 0.0091175
35.0474 0.0802903 2
35.2443 2.46174 0.00542803
37.5 0 0
39.2432 35.8245 3.92842
41.0063 35.8084 2
42.8267 35.7268 0.0418012
28.5418 10.6831 2
26.6207 11.3788 3.98531
29.2236 12.6301 3.9845
37.495 34.11 3.92549
39.243 34.1444 2
40.9319 34.2045 0.0287502
46.4203 31.508 0.0158634
43.7503 31.1927 0.0855165
41.2599 31.1281 0.0538
39.314 32.3504 0.0542158
44.454 29.6717 2
41.9259 29.8025 2
39.4886 30.374 2
37.4842 32.2114 2
42.3585 28.3529 3.97128
39.8183 28.9284 3.9142
37.4852 30.1028 3.95841
35.6585 32.3396 3.94601
31.9122 14.4666 3.98336
34.0908 12.9208 2
35.6911 11.7633 0.0157761
31.1847 11.9728 2
33.0967 11.2052 0.0153685
30.4809 10.0081 0.014104
45.6264 27.7899 0.0232521
43.8201 24.0279 0.018792
35.7705 14.743 0.0170513
41.3436 20.6987 0.0197863
38.681 17.578 0.0190921
33.6055 15.8601 2
35.8463 17.4912 2
43.1039 26.5214 2
38.4218 20.3059 2
40.9256 23.27 2
33.5475 17.368 3.98358
40.478 25.6173 4.00492
38.0819 22.8346 3.98836
35.5822 20.058 3.98335
37.5012 37.4967 3.91984
39.2472 37.4868 2
41.0447 37.4844 0.0369687
41.8906 53.0217 0.011942
40.9798 49.7615 0.00228841
39.2364 39.1606 0.070944
39.8156 46.0825 0.0900611
37.5009 44.9065 0.0419095
37.4998 40.9018 0.0742368
35.676 42.6714 0.052285
39.8315 51.9456 2
37.4994 39.1763 2
35.7552 40.8805 2
38.7636 48.779 2
34.0339 42.3532 2
35.4938 44.6495 2
37.5033 46.4067 2
37.6686 51.0374 3.99064
35.7658 39.1789 3.92729
34.0746 40.816 3.96936
32.8853 41.9971 3.94162
33.72 43.8926 3.94953
35.1844 46.0901 3.9145
36.896 48.4119 4.00856
38.7296 53.8868 0.0155951
36.7165 53.2434 2
34.3506 52.5029 3.98317
34.4868 58.5468 0.0165706
36.3188 55.4137 0.0156981
33.2215 55.5303 2
30.4999 53.4313 3.98118
30.293 57.8404 0.0167464
28.6738 55.3328 2
26.8563 53.4682 3.97812
26.9345 56.8435 0.0189641
25.2921 55.1643 2
23.5455 53.5066 3.97617
20.4399 53.2525 3.97674
19.9165 55.8549 3.98199
21.7905 55.3693 2
23.8277 56.8254 0.0212035
19.4289 57.9111 3.98254
20.2067 57.051 2
19.7015 60.2185 3.98348
20.638 58.7986 2
21.3238 57.4197 0.018758
20.2055 62.868 3.98563
21.1632 61.1847 2
21.9884 59.6396 0.0169764
20.9376 65.7699 3.98937
21.8939 63.8472 2
22.7339 62.0342 0.0158054
23.6807 64.7191 0.013006
22.8362 66.7413 2
21.9118 68.8743 3.9938
24.8078 67.5973 0.00977553
24.0091 69.8073 2
23.1494 72.1454 4
26.165 70.6061 0.00586514
25.446 73.0099 2
27.7943 73.7221 0
25.859 9.37393 3.98698
27.0681 6.53823 3.98982
27.8196 8.64544 2
28.4876 3.6428 3.99403
29.1532 5.87367 2
29.8097 7.98627 0.0122155
30.1841 0.720592 4
30.7252 3.09666 2
31.2513 5.32845 0.00941857
32.6053 0.320817 2
32.9801 2.69984 0.00554185
35.0474 0.080333 0
37.502 35.8247 3.9174
39.2425 35.8231 2
41.0069 35.8088 0.0331362
24.7755 12.0618 3.98519
23.7491 14.3458 3.98404
28.5418 10.6835 0.0143629
26.6208 11.3785 2
29.2236 12.6297 2
27.2896 13.3632 3.98442
29.7781 14.1889 3.98367
35.7508 34.1341 3.9552
37.495 34.1034 2
39.2448 34.1483 0.0458332
37.4827 32.2226 0.0555043
44.4425 29.6792 0.0253107
41.9102 29.8106 0.0854756
39.4779 30.3774 0.0448641
42.3672 28.3402 2
39.8342 28.9202 2
37.4833 30.1147 2
35.6571 32.3356 2
40.0393 27.5271 3.98667
37.493 28.6133 3.90959
35.4833 30.3694 3.95388
34.0275 32.6541 3.95113
30.9232 16.8233 3.98293
31.9123 14.4661 2
34.0908 12.9213 0.0164314
31.1847 11.9734 0.0153608
43.1052 26.5182 0.0110448
40.9252 23.2717 0.0196331
33.6057 15.86 0.0170335
35.8467 17.4911 0.0181019
38.422 20.3061 0.0181978
33.5472 17.3684 2
35.5821 20.0579 2
40.4754 25.6208 2
38.0821 22.836 2
32.8597 19.774 3.98256
37.788 25.1293 4.02265
35.2024 22.6157 3.97951
35.7582 37.5019 3.92377
37.5019 37.4965 2
39.2474 37.4863 0.0747352
39.8312 51.9459 0.00705343
38.7677 48.7679 -0.0237737
37.4987 39.1743 0.0809211
37.5044 46.3927 0.0929634
35.4998 44.6466 0.0451819
35.7539 40.8757 0.0468608
34.0386 42.3508 0.0484755
37.669 51.0467 2
35.7673 39.1813 2
34.076 40.8164 2
36.8929 48.4176 2
32.8809 41.9978 2
33.7145 43.8923 2
35.1668 46.1 2
35.4241 50.1705 3.99195
34.0097 39.1923 3.96271
32.5056 40.8786 3.95264
32.1994 42.7241 3.94874
33.0881 45.2056 3.91612
34.2839 47.5046 3.98569
36.7168 53.2445 0.00795223
34.3503 52.5037 2
31.9684 51.2279 3.98007
33.2217 55.5305 0.0167587
30.5 53.4328 2
28.3924 51.6531 3.98075
28.6739 55.333 0.020135
26.8561 53.4697 2
25.0408 51.794 3.97416
25.2924 55.1637 0.0213993
23.5451 53.5074 2
21.9276 51.8398 3.97434
19.1677 51.6624 3.97608
18.8999 54.3326 3.97918
20.4396 53.2526 2
18.4347 56.7439 3.9832
19.916 55.8553 2
21.791 55.3688 0.0212966
18.3621 59.1268 3.9827
19.4288 57.9115 2
20.207 57.0505 0.0168606
18.6156 61.7761 3.98497
19.7015 60.219 2
20.6381 58.7981 0.0173271
19.1263 64.6808 3.98866
20.2056 62.8685 2
21.1631 61.1842 0.0158603
19.8859 67.811 3.99346
20.9376 65.7703 2
21.8938 63.8467 0.0137591
22.8362 66.7409 0.0100976
21.9116 68.8745 2
20.9142 71.1327 4
24.0093 69.8072 0.00601618
23.1494 72.1455 2
25.446 73.0099 0
23.0946 12.7765 3.9848
23.9716 10.1605 3.98667
25.022 7.30817 3.9896
25.859 9.37346 2
26.2794 4.32698 3.99373
27.068 6.53779 2
27.8197 8.64592 0.0125048
27.7943 1.27781 4
28.4874 3.64257 2
29.1533 5.87415 0.00979566
30.1841 0.720551 2
30.7254 3.09693 0.00573135
32.6053 0.320823 0
35.7634 35.8267 3.92643
37.5022 35.8221 2
39.2432 35.8245 0.0715828
24.7756 12.0614 2
23.7493 14.3457 2
22.4772 15.0221 3.98374
25.3556 13.8951 3.98413
24.0216 15.6074 3.98344
26.6207 11.3788 0.0146906
29.2236 12.6301 0.0154981
27.2897 13.3629 2
29.7782 14.1884 2
28.3538 15.9629 3.98357
34.0779 34.1948 3.96911
35.7527 34.1306 2
37.495 34.11 0.0745075
35.6585 32.3396 0.0539852
37.4852 30.1028 0.0415876
42.3585 28.3529 0.0287165
39.8183 28.9284 0.0857952
40.042 27.5221 2
37.4927 28.5999 2
35.4751 30.3663 2
34.028 32.6501 2
37.6268 27.2179 3.99068
35.1487 28.918 3.91371
33.7026 31.1188 3.94824
32.8806 33.0095 3.94096
30.203 19.3262 3.98391
30.9231 16.8229 2
31.9122 14.4666 0.0166419
40.478 25.6173 -0.00491843
38.0819 22.8346 0.0116373
33.5475 17.368 0.0164154
35.5822 20.058 0.0166464
32.8594 19.7749 2
35.2027 22.6145 2
37.787 25.1339 2
32.3038 22.3879 3.98167
34.9413 25.1446 3.99715
33.9672 37.5035 3.9597
35.7596 37.5025 2
37.5012 37.4967 0.0801642
37.6686 51.0374 0.00935983
36.896 48.4119 -0.00855997
35.7658 39.1789 0.0727056
35.1844 46.0901 0.0854974
33.72 43.8926 0.0504694
34.0746 40.816 0.0306355
32.8853 41.9971 0.0583809
35.4234 50.1782 2
34.0113 39.1925 2
32.5051 40.8773 2
34.2768 47.52 2
32.189 42.7226 2
33.073 45.2144 2
33.1851 49.1575 3.993
32.1779 39.2744 3.95892
31.001 41.2173 3.94806
31.2382 43.8067 3.91778
32.2252 46.4274 3.9752
34.3506 52.5029 0.0168296
31.9685 51.2301 2
29.7966 49.7551 3.98124
30.4999 53.4313 0.0188248
28.3921 51.6519 2
26.4516 50.0355 3.9755
26.8563 53.4682 0.0218768
25.0404 51.7933 2
23.2908 50.2335 3.9754
23.5455 53.5066 0.0238262
21.9273 51.8396 2
20.4234 50.3453 3.97556
17.9547 50.3531 3.97771
17.8076 52.8155 3.97799
19.1677 51.6621 2
17.4205 55.3609 3.9813
18.8996 54.3328 2
20.4399 53.2525 0.023262
17.1261 57.8898 3.98359
18.4344 56.7444 2
19.9165 55.8549 0.0180076
17.132 60.5604 3.98413
18.362 59.1273 2
19.4289 57.9111 0.0174563
17.4062 63.4739 3.98788
18.6157 61.7766 2
19.7015 60.2185 0.0165201
17.942 66.6195 3.9931
19.1263 64.6812 2
20.2055 62.868 0.0143672
18.75 69.9759 4
19.8857 67.8111 2
20.9376 65.7699 0.0106285
21.9118 68.8743 0.00620006
20.9142 71.1327 2
23.1494 72.1454 0
21.585 13.5963 3.98447
22.1896 11.0196 3.9861
23.0948 12.7763 2
23.0401 8.17345 3.98941
23.9716 10.1601 2
24.117 5.14158 3.99359
25.0219 7.30777 2
25.859 9.37393 0.01302
25.446 1.99014 4
26.2791 4.3268 2
27.0681 6.53823 0.010185
27.7943 1.27778 2
28.4876 3.6428 0.00597189
30.1841 0.720592 0
34.005 35.8159 3.96294
35.7645 35.8256 2
37.502 35.8247 0.0826018
21.3017 15.8175 3.98338
24.7755 12.0618 0.0148077
23.7491 14.3458 0.0159601
25.3557 13.8949 2
22.4775 15.0221 2
24.0219 15.6074 2
23.2602 16.2386 3.98319
25.3769 16.0751 3.98377
27.2896 13.3632 0.0155849
29.7781 14.1889 0.016331
28.3539 15.9628 2
27.4345 18.7842 3.98381
32.5181 34.1293 3.95296
34.0799 34.1932 2
35.7508 34.1341 0.0448011
34.0275 32.6541 0.0488729
35.4833 30.3694 0.0461178
37.493 28.6133 0.0904137
40.0393 27.5271 0.0133292
37.6227 27.1891 2
32.8811 33.01 2
35.1294 28.9086 2
33.6923 31.1119 2
35.0532 27.3306 3.99155
33.0502 29.8049 3.91701
32.1864 32.2741 3.94812
29.5643 21.9208 3.98933
30.2032 19.3264 2
30.9232 16.8233 0.0170723
37.788 25.1293 -0.0226483
35.2024 22.6157 0.0204869
32.8597 19.774 0.0174355
32.3039 22.3895 2
34.9427 25.152 2
31.6367 25.6044 3.98904
32.0518 37.5055 3.95687
33.9689 37.5031 2
35.7582 37.5019 0.0762251
35.4241 50.1705 0.00804825
34.2839 47.5046 0.0143052
34.0097 39.1923 0.0372904
33.0881 45.2056 0.0838779
32.1994 42.7241 0.0512604
32.5056 40.8786 0.0473571
33.1852 49.1422 2
32.1778 39.2728 2
30.9892 41.22 2
32.2105 46.4402 2
31.2313 43.811 2
31.0582 47.9249 3.9913
30.2282 39.4886 3.94319
29.7848 42 3.91264
30.3379 45.0004 3.97502
31.9684 51.2279 0.0199306
29.797 49.7533 2
27.7893 48.2314 3.98357
28.3924 51.6531 0.0192502
26.4515 50.0337 2
24.5814 48.5098 3.97421
25.0408 51.794 0.0258449
23.2908 50.2329 2
21.5971 48.8233 3.97712
21.9276 51.8398 0.0256571
20.4237 50.3446 2
18.9921 49.1168 3.97952
16.8627 49.3506 3.9806
16.747 51.4278 3.97821
17.955 50.3529 2
16.37 53.8902 3.9799
17.8075 52.8155 2
19.1677 51.6624 0.0239248
15.9654 56.492 3.98282
17.4202 55.3612 2
18.8999 54.3326 0.0208202
15.7444 59.2219 3.98419
17.1259 57.8903 2
18.4347 56.7439 0.0168028
15.7861 62.145 3.98692
17.1321 60.561 2
18.3621 59.1268 0.0172967
16.0885 65.3022 3.99283
17.4063 63.4744 2
18.6156 61.7761 0.0150302
16.6661 68.6801 4
17.9418 66.6196 2
19.1263 64.6808 0.0113419
18.75 69.9759 2
19.8859 67.811 0.00653872
20.9142 71.1327 0
20.2165 14.585 3.98398
21.5853 13.5963 2
20.5286 11.9892 3.98564
21.1433 9.14292 3.98919
22.1897 11.0193 2
23.0946 12.7765 0.015197
22.0161 6.08051 3.99341
23.0401 8.1731 2
23.9716 10.1605 0.0133269
23.1494 2.85457 4
24.1168 5.14145 2
25.022 7.30817 0.0103977
25.446 1.99012 2
26.2794 4.32698 0.00626776
27.7943 1.27781 0
32.1838 35.7334 3.95764
34.0063 35.8149 2
35.7634 35.8267 0.0735654
21.3019 15.8175 2
20.2979 16.9507 3.98401
22.093 16.6227 3.98287
25.3556 13.8951 0.0158705
22.4772 15.0221 0.0162599
24.0216 15.6074 0.0165579
25.3772 16.0751 2
23.2606 16.2387 2
24.1986 18.437 3.98205
27.0009 21.4427 3.98296
28.3538 15.9629 0.0164341
27.4348 18.7845 2
31.0092 33.7859 3.94519
32.5174 34.1313 2
34.0779 34.1948 0.0308906
32.8806 33.0095 0.059042
33.7026 31.1188 0.0517643
35.1487 28.918 0.0862864
37.6268 27.2179 0.00931698
35.0421 27.3177 2
32.1865 32.2766 2
33.042 29.7944 2
32.4745 28.0529 3.99802
31.2087 31.1974 3.91941
28.7551 24.3854 3.98721
29.5643 21.9219 2
30.203 19.3262 0.0160895
34.9413 25.1446 0.00285071
32.3038 22.3879 0.0183275
31.637 25.594 2
29.5677 27.2918 3.9815
29.9587 37.4986 3.94224
32.0522 37.5047 2
33.9672 37.5035 0.0402983
33.1851 49.1575 0.00700472
32.2252 46.4274 0.0247958
32.1779 39.2744 0.0410799
31.2382 43.8067 0.0822203
31.001 41.2173 0.0519356
31.0605 47.9164 2
30.2199 39.4921 2
29.7777 42.005 2
30.3244 45.0099 2
29.0662 46.4974 3.97898
28.8413 39.8898 3.91276
28.5302 43.2237 3.97757
29.7966 49.7551 0.0187612
27.7899 48.2288 2
25.8512 46.6932 3.97358
26.4516 50.0355 0.0245001
24.5819 48.5087 2
22.7313 47.1167 3.98165
23.2908 50.2335 0.0246031
21.5978 48.8222 2
19.9351 47.645 3.98284
20.4234 50.3453 0.0244365
18.9926 49.1164 2
17.6358 48.1982 3.98229
16.1146 48.7002 3.98263
16.863 49.3507 2
15.8249 50.1876 3.97975
15.3583 52.4329 3.97936
16.7471 51.4277 2
17.9547 50.3531 0.0222909
14.8552 54.9927 3.98145
16.3698 53.8904 2
17.8076 52.8155 0.0220123
14.4523 57.7511 3.98395
15.9652 56.4924 2
17.4205 55.3609 0.0186975
14.2636 60.6997 3.9862
15.7443 59.2224 2
17.1261 57.8898 0.0164109
14.3325 63.8615 3.99243
15.7862 62.1455 2
17.132 60.5604 0.0158739
14.6715 67.2507 4
16.0883 65.3022 2
17.4062 63.4739 0.012118
16.6661 68.6801 2
17.942 66.6195 0.00689904
18.75 69.9759 0
18.9294 15.7714 3.98387
20.2167 14.5849 2
18.9779 13.1 3.98507
21.585 13.5963 0.0155333
20.5288 11.9891 2
19.3426 10.2305 3.98876
19.9907 7.14506 3.99335
21.1433 9.14264 2
22.1896 11.0196 0.0138954
20.9142 3.86727 4
22.0158 6.08046 2
23.0401 8.17345 0.010594
23.1494 2.85451 2
24.117 5.14158 0.00641193
25.446 1.99014 0
30.2436 35.5237 3.94733
32.1825 35.734 2
34.005 35.8159 0.0370562
21.3017 15.8175 0.0166159
22.0932 16.6226 2
20.298 16.9504 2
19.2354 18.3966 3.98366
21.7763 17.8379 3.98317
25.3769 16.0751 0.0162332
23.2602 16.2386 0.0168103
24.1989 18.4373 2
22.2676 19.8779 3.98215
24.577 21.307 3.98293
26.3818 23.7081 3.98227
27.0017 21.4436 2
27.4345 18.7842 0.0161886
29.7845 32.998 3.91675
30.998 33.7777 2
32.5181 34.1293 0.0470414
32.1864 32.2741 0.0518782
33.0502 29.8049 0.0829851
35.0532 27.3306 0.0084518
32.4601 28.0488 2
31.2163 31.1985 2
30.015 29.4986 3.99176
27.8102 26.5314 3.97078
28.7553 24.3905 2
29.5643 21.9208 0.0106734
31.6367 25.6044 0.0109609
29.5593 27.2575 2
28.5108 37.4997 3.91909
29.9506 37.5024 2
32.0518 37.5055 0.0431293
31.0582 47.9249 0.00869609
30.3379 45.0004 0.0249769
30.2282 39.4886 0.0568102
29.7848 42 0.0873557
29.0707 46.5076 2
28.8349 39.8909 2
28.5197 43.2299 2
27.1401 44.8072 3.96678
26.6206 40.6393 4.00563
27.7893 48.2314 0.0164302
25.8528 46.6913 2
23.8819 45.2456 3.97452
24.5814 48.5098 0.025792
22.7324 47.1151 2
20.8631 45.9272 3.98353
21.5971 48.8233 0.0228833
19.9359 47.6446 2
18.2799 46.7586 3.98394
18.9921 49.1168 0.0204826
17.6363 48.1983 2
16.304 47.73 3.98236
16.1149 48.7004 2
15.1716 49.0305 3.98121
16.8627 49.3506 0.0194035
15.8251 50.1877 2
14.4721 50.9992 3.97972
13.8163 53.4476 3.9806
15.3583 52.433 2
16.747 51.4278 0.021788
13.2462 56.1786 3.98307
14.855 54.993 2
16.37 53.8902 0.0200987
12.8454 59.1334 3.98602
14.4522 57.7516 2
15.9654 56.492 0.0171848
12.6777 62.3042 3.99174
14.2637 60.7001 2
15.7444 59.2219 0.0158079
12.7746 65.6939 4
14.3323 63.8615 2
15.7861 62.145 0.0130783
14.6714 67.2507 2
16.0885 65.3022 0.00716542
16.6661 68.6801 0
17.6626 17.1462 3.98369
18.9295 15.7711 2
17.5088 14.3638 3.98471
20.2165 14.585 0.0160229
18.9781 13.0997 2
17.6381 11.4494 3.98794
20.5286 11.9892 0.0143582
19.3427 10.2303 2
18.0509 8.33785 3.99316
18.75 5.0241 4
19.9904 7.14508 2
21.1433 9.14292 0.0108091
20.9142 3.86727 2
22.0161 6.08051 0.00658871
23.1494 2.85457 0
28.8496 35.1087 3.9176
30.2346 35.5223 2
32.1838 35.7334 0.0423576
22.093 16.6227 0.0171343
20.2979 16.9507 0.0159869
21.7765 17.8375 2
19.2355 18.3962 2
17.9691 19.9278 3.98324
20.8669 19.3644 3.98345
24.1986 18.437 0.0179515
22.268 19.8773 2
24.5779 21.3075 2
22.3403 21.7018 3.98333
24.6663 23.152 3.98239
25.4001 25.9368 3.97301
26.3828 23.7079 2
27.0009 21.4427 0.0170379
28.1722 32.2686 3.97159
29.7791 32.998 2
31.0092 33.7859 0.0548134
31.2087 31.1974 0.0805941
32.4745 28.0529 0.001976
29.99 29.4918 2
26.9132 29.1258 3.97919
27.8057 26.5294 2
28.7551 24.3854 0.0127926
29.5677 27.2918 0.0184967
26.7393 37.3553 3.98254
28.5051 37.498 2
29.9587 37.4986 0.0577611
29.0662 46.4974 0.0210224
28.5302 43.2237 0.0224274
28.8413 39.8898 0.087243
27.1459 44.8087 2
26.6194 40.6428 2
25.1075 43.1952 3.97171
23.8669 39.4317 3.96685
25.8512 46.6932 0.0264175
23.8826 45.2453 2
21.8357 43.979 3.97855
22.7313 47.1167 0.0183513
20.8642 45.9274 2
18.9386 44.9919 3.98019
19.9351 47.645 0.0171642
18.2805 46.759 2
16.5938 46.2287 3.98052
17.6358 48.1982 0.0177135
16.3044 47.7303 2
14.9011 47.6838 3.98089
16.1146 48.7002 0.0173711
15.1719 49.0308 2
13.7702 49.5582 3.98031
15.8249 50.1876 0.0202494
14.4722 50.9993 2
12.8831 51.8846 3.98027
12.1331 54.536 3.98224
13.8162 53.4478 2
15.3583 52.4329 0.0206422
11.5293 57.4652 3.98551
13.246 56.179 2
14.8552 54.9927 0.018551
11.1322 60.6305 3.99111
12.8453 59.1337 2
14.4523 57.7511 0.0160524
10.9835 64.0165 4
12.6776 62.3042 2
14.2636 60.6997 0.0137987
12.7745 65.694 2
14.3325 63.8615 0.00757047
14.6715 67.2507 0
16.3935 18.6393 3.98371
17.6626 17.1458 2
16.099 15.7723 3.98467
18.9294 15.7714 0.0161265
17.5089 14.3633 2
16.0194 12.8026 3.98696
18.9779 13.1 0.0149343
17.6383 11.449 2
16.202 9.66092 3.99282
19.3426 10.2305 0.011237
18.0507 8.33792 2
16.6661 6.31991 4
18.75 5.02404 2
19.9907 7.14506 0.00665478
20.9142 3.86727 0
27.2463 34.7344 3.96946
28.8412 35.1077 2
30.2436 35.5237 0.0526675
16.6669 21.3626 3.98122
21.7763 17.8379 0.0168328
19.2354 18.3966 0.0163367
20.8671 19.3638 2
17.9692 19.9274 2
19.7081 21.5562 3.98512
22.2676 19.8779 0.0178546
24.577 21.307 0.0170659
22.341 21.7005 2
24.6665 23.152 2
22.8077 24.5855 3.97729
24.4609 28.5143 3.97121
25.3974 25.9351 2
26.3818 23.7081 0.0177309
26.0103 31.6954 3.98455
28.1653 32.2633 2
29.7845 32.998 0.0832538
30.015 29.4986 0.00823569
26.9176 29.1271 2
27.8102 26.5314 0.029223
24.5551 36.8584 3.97934
26.7383 37.3597 2
28.5108 37.4997 0.0809062
27.1401 44.8072 0.0332194
26.6206 40.6393 -0.00563378
25.1082 43.1968 2
23.8667 39.4329 2
22.8813 41.8169 3.97783
21.6228 38.5011 3.97448
23.8819 45.2456 0.025483
21.836 43.9805 2
19.6858 42.905 3.97574
20.8631 45.9272 0.0164656
18.9393 44.9928 2
16.9217 44.3944 3.97706
18.2799 46.7586 0.0160591
16.5943 46.2292 2
14.822 46.1026 3.97869
16.304 47.73 0.0176445
14.9014 47.6841 2
13.2774 48.019 3.97975
15.1716 49.0305 0.018793
13.7704 49.5585 2
12.1023 50.2613 3.98021
14.4721 50.9992 0.0202763
12.8831 51.8849 2
11.1286 52.8433 3.98156
10.3194 55.7162 3.98474
12.1329 54.5364 2
13.8163 53.4476 0.0194033
9.6987 58.853 3.99015
11.5292 57.4656 2
13.2462 56.1786 0.0169262
9.30605 62.2254 4
11.1321 60.6306 2
12.8454 59.1334 0.0139806
10.9835 64.0165 2
12.6777 62.3042 0.00826019
12.7746 65.6939 0
15.1368 20.173 3.98238
16.3936 18.6389 2
14.7438 17.2946 3.98415
17.6626 17.1462 0.0163081
16.0991 15.7717 2
14.4814 14.2841 3.98638
17.5088 14.3638 0.0152927
16.0196 12.8021 2
14.4446 11.112 3.99242
17.6381 11.4494 0.0120623
16.2019 9.66092 2
14.6715 7.74927 4
18.0509 8.33785 0.00683613
16.6661 6.31988 2
18.75 5.0241 0
25.1929 34.2592 3.98462
27.2435 34.7356 2
28.8496 35.1087 0.0824022
17.8371 22.3071 3.98568
15.51 22.9061 3.97947
16.6669 21.362 2
20.8669 19.3644 0.0165473
17.9691 19.9278 0.0167614
19.7084 21.5554 2
19.6328 24.3617 3.98028
22.3403 21.7018 0.016671
24.6663 23.152 0.0176096
22.8059 24.5835 2
21.846 27.8065 3.97263
23.6292 31.1721 3.97344
24.463 28.5155 2
25.4001 25.9368 0.026994
26.0169 31.6918 2
28.1722 32.2686 0.0284104
26.9132 29.1258 0.0208105
22.334 36.2649 3.981
24.5554 36.8591 2
26.7393 37.3553 0.0174556
25.1075 43.1952 0.0282895
23.8669 39.4317 0.0331466
22.8804 41.8177 2
21.6225 38.5014 2
20.6054 40.6383 3.97666
19.9866 37.7801 3.97751
21.8357 43.979 0.0214474
19.6857 42.9056 2
17.314 42.1108 3.97615
18.9386 44.9919 0.0198074
16.9222 44.3951 2
14.8228 44.2108 3.97621
16.5938 46.2287 0.0194801
14.8223 46.1031 2
12.9501 46.3043 3.97777
14.9011 47.6838 0.0191111
13.2776 48.0194 2
11.474 48.5567 3.97951
13.7702 49.5582 0.0196946
12.1024 50.2616 2
10.2545 51.0853 3.98105
12.8831 51.8846 0.0197331
11.1285 52.8437 2
9.22819 53.893 3.98408
8.38218 56.9852 3.98915
10.3192 55.7166 2
12.1331 54.536 0.0177647
7.74927 60.3285 4
9.69852 58.8531 2
11.5293 57.4652 0.014488
9.306 62.2255 2
11.1322 60.6305 0.00889227
10.9835 64.0165 0
13.9477 21.7395 3.98111
15.1368 20.1724 2
13.4435 18.8912 3.98344
16.3935 18.6393 0.0162893
14.7439 17.294 2
13.0263 15.8766 3.98593
16.099 15.7723 0.0153271
14.4815 14.2835 2
12.7818 12.6852 3.99189
16.0194 12.8026 0.0130437
14.4445 11.112 2
12.7746 9.30605 4
16.202 9.66092 0.00718349
14.6715 7.74924 2
16.6661 6.31991 0
22.9273 33.7861 3.97983
25.1913 34.258 2
27.2463 34.7344 0.0305402
17.6019 24.0261 3.98109
17.837 22.3062 2
14.2917 24.4388 3.97787
15.5094 22.9051 2
16.6669 21.3626 0.0187754
18.9861 27.1847 3.97197
19.7081 21.5562 0.0148847
19.6316 24.3614 2
21.0798 30.647 3.9741
22.8077 24.5855 0.0227141
21.8476 27.8069 2
23.6268 31.1726 2
24.4609 28.5143 0.028792
26.0103 31.6954 0.0154545
20.1021 35.9139 3.9814
22.334 36.266 2
24.5551 36.8584 0.0206573
22.8813 41.8169 0.022174
21.6228 38.5011 0.0255161
20.6048 40.6383 2
19.9862 37.7804 2
17.9843 39.0038 3.97715
19.6858 42.905 0.0242627
17.3138 42.1113 2
14.7683 41.9255 3.97587
16.9217 44.3944 0.0229375
14.8231 44.2113 2
12.69 44.399 3.97621
14.822 46.1026 0.0213076
12.9503 46.3048 2
10.9765 46.739 3.97786
13.2774 48.019 0.020248
11.4742 48.5571 2
9.51819 49.2437 3.98026
12.1023 50.2613 0.0197911
10.2546 51.0857 2
8.26127 52.0045 3.98346
11.1286 52.8433 0.0184363
9.22804 53.8933 2
7.19111 55.0346 3.98845
6.31991 58.3339 4
8.38193 56.9851 2
10.3194 55.7162 0.0152583
7.74924 60.3285 2
9.6987 58.853 0.00984794
9.30605 62.2254 0
13.213 25.3534 3.98217
12.8142 23.2697 3.97991
13.9473 21.7386 2
12.228 20.5404 3.98283
15.1368 20.173 0.017615
13.4435 18.8905 2
11.6555 17.5574 3.98576
14.7438 17.2946 0.0158534
13.0264 15.876 2
11.219 14.3698 3.99117
14.4814 14.2841 0.0136197
12.7817 12.6851 2
10.9835 10.9835 4
14.4446 11.112 0.00758455
12.7745 9.306 2
14.6715 7.74927 0
20.49 33.3807 3.97756
22.9269 33.7865 2
25.1929 34.2592 0.0153782
15.8735 26.3885 3.97545
17.6012 24.0251 2
17.8371 22.3071 0.0143242
14.2916 24.4387 2
15.51 22.9061 0.020525
18.3248 30.1582 3.97303
18.9872 27.1848 2
19.6328 24.3617 0.0197189
21.0782 30.646 2
21.846 27.8065 0.0273689
23.6292 31.1721 0.0265573
17.608 35.9591 3.97901
20.1021 35.9143 2
22.334 36.2649 0.019004
20.6054 40.6383 0.0233411
19.9866 37.7801 0.0224904
17.9837 39.004 2
14.2735 39.1789 3.97661
17.314 42.1108 0.0238531
14.7682 41.9261 2
12.3762 42.282 3.97611
14.8228 44.2108 0.0237947
12.6902 44.3995 2
10.5538 44.8067 3.97686
12.9501 46.3043 0.0222294
10.9767 46.7395 2
8.90136 47.3216 3.97889
11.474 48.5567 0.0204906
9.51828 49.2442 2
7.42852 50.0366 3.98259
10.2545 51.0853 0.0189466
8.2612 52.0048 2
6.13166 53.0081 3.98807
9.22819 53.893 0.015918
7.19081 55.0341 2
5.0241 56.25 4
6.31988 58.3339 2
8.38218 56.9852 0.0108491
7.74927 60.3285 0
13.449 26.8054 3.97687
11.9281 24.7803 3.9791
13.2131 25.3529 2
11.1306 22.2262 3.98169
12.814 23.2691 2
13.9477 21.7395 0.0188865
12.2277 20.5395 2
10.3851 19.3126 3.98545
13.4435 18.8912 0.0165587
11.6555 17.5568 2
9.75974 16.153 3.99035
13.0263 15.8766 0.0140662
11.219 14.3697 2
9.30607 12.7746 4
12.7818 12.6852 0.00810606
10.9835 10.9835 2
12.7746 9.30605 0
17.7897 33.1007 3.97531
20.4896 33.3812 2
22.9273 33.7861 0.0201693
15.4617 29.6268 3.97461
15.8743 26.3884 2
17.6019 24.0261 0.0189106
14.2917 24.4388 0.0221288
18.3235 30.1576 2
18.9861 27.1847 0.0280348
21.0798 30.647 0.0259011
14.8667 36.0152 3.97702
17.6079 35.9593 2
20.1021 35.9139 0.018601
12.5726 37.8296 3.97638
17.9843 39.0038 0.0228473
14.2731 39.1793 2
11.8895 40.1442 3.97647
14.7683 41.9255 0.0241337
12.3761 42.2826 2
10.1526 42.7813 3.97656
12.69 44.399 0.0237913
10.554 44.8072 2
8.37965 45.3228 3.97808
10.9765 46.739 0.0221367
8.9015 47.322 2
6.72034 48.0008 3.98139
9.51819 49.2437 0.0197408
7.42854 50.0369 2
5.20846 50.9101 3.98786
8.26127 52.0045 0.0165387
6.13139 53.0073 2
3.86727 54.0858 4
7.19111 55.0346 0.0115458
5.02404 56.25 2
6.31991 58.3339 0
12.9052 29.0264 3.9736
11.3583 26.4817 3.97799
13.4494 26.8046 2
10.1903 23.9621 3.98008
11.9281 24.7797 2
13.213 25.3534 0.0178342
9.2371 21.1327 3.98441
11.1304 22.2255 2
12.8142 23.2697 0.0200895
12.228 20.5404 0.0171726
10.385 19.3118 2
8.41546 18.0243 3.98954
11.6555 17.5574 0.0142392
9.75966 16.1528 2
7.74928 14.6715 4
11.219 14.3698 0.00883131
9.30602 12.7745 2
10.9835 10.9835 0
14.4533 32.8553 3.97546
17.7895 33.1008 2
20.49 33.3807 0.0224389
15.4607 29.6262 2
15.8735 26.3885 0.024554
18.3248 30.1582 0.0269728
12.8612 36.207 3.97542
14.8666 36.0154 2
17.608 35.9591 0.0209882
12.5724 37.8298 2
11.2485 38.311 3.97576
14.2735 39.1789 0.0233873
11.8893 40.1446 2
9.73845 40.7568 3.97664
12.3762 42.282 0.0238936
10.1526 42.7818 2
7.92887 43.2713 3.97773
10.5538 44.8067 0.023137
8.37983 45.3232 2
6.1269 45.9054 3.98065
8.90136 47.3216 0.0211098
6.72044 48.001 2
4.42021 48.7502 3.98764
7.42852 50.0366 0.0174108
5.20827 50.9092 2
2.85457 51.8506 4
6.13166 53.0081 0.0119262
3.86727 54.0858 2
5.0241 56.25 0
12.0461 31.2513 3.97576
10.7717 28.4108 3.97593
12.9044 29.0256 2
9.40565 25.7943 3.97909
11.3585 26.4811 2
13.449 26.8054 0.0231323
8.2246 23.0198 3.98276
10.1903 23.9615 2
11.9281 24.7803 0.0209036
7.19746 19.9752 3.98873
9.23695 21.132 2
11.1306 22.2262 0.0183133
10.3851 19.3126 0.0145535
8.41522 18.0242 2
6.31992 16.6661 4
9.75974 16.153 0.00965312
7.74926 14.6714 2
9.30607 12.7746 0
12.0646 34.2911 3.97537
14.4532 32.8554 2
17.7897 33.1007 0.0246946
15.4617 29.6268 0.0253949
10.8135 36.6099 3.97477
12.8612 36.207 2
14.8667 36.0152 0.0229794
12.5726 37.8296 0.0236154
11.2482 38.3111 2
9.33466 38.8247 3.97614
11.8895 40.1442 0.0235296
9.7383 40.7571 2
7.5407 41.2122 3.97746
10.1526 42.7813 0.0234407
7.92888 43.2717 2
5.63904 43.7682 3.98063
8.37965 45.3228 0.0219218
6.12706 45.9055 2
3.7661 46.536 3.9875
6.72034 48.0008 0.0186056
4.42012 48.7493 2
1.99014 49.554 4
5.20846 50.9101 0.0121433
2.85451 51.8506 2
3.86727 54.0858 0
10.9098 32.9156 3.9766
10.0852 30.3787 3.97622
12.0459 31.2513 2
8.71454 27.7295 3.97785
10.7712 28.41 2
12.9052 29.0264 0.026397
7.35043 24.9805 3.98174
9.40581 25.7937 2
11.3583 26.4817 0.0220096
6.11444 22.0003 3.98779
8.22455 23.0192 2
10.1903 23.9621 0.0199221
5.02411 18.75 4
7.19715 19.9755 2
9.2371 21.1327 0.0155889
8.41546 18.0243 0.0104622
6.3199 16.6661 2
7.74928 14.6715 0
10.425 34.998 3.97606
12.0645 34.2911 2
14.4533 32.8553 0.0245372
9.00886 36.9847 3.9747
10.8134 36.6099 2
12.8612 36.207 0.0245829
11.2485 38.311 0.0242374
9.33452 38.8249 2
7.22248 39.1824 3.97704
9.73845 40.7568 0.0233571
7.54064 41.2125 2
5.25485 41.6138 3.98017
7.92887 43.2713 0.0222674
5.63907 43.7683 2
3.24402 44.2814 3.98738
6.1269 45.9054 0.0193545
3.76611 46.5354 2
1.27781 47.2057 4
4.42021 48.7502 0.0123568
1.99012 49.554 2
2.85457 51.8506 0
10.0776 33.8791 3.97655
9.3792 32.1519 3.97669
10.9097 32.9155 2
8.06439 29.6938 3.97745
10.085 30.3785 2
12.0461 31.2513 0.0242404
6.59465 27.0076 3.98078
8.71426 27.7289 2
10.7717 28.4108 0.0240716
5.1697 24.0947 3.98741
7.35058 24.9801 2
9.40565 25.7943 0.0209052
3.86728 20.9142 4
6.11415 22.0011 2
8.2246 23.0198 0.0172439
5.02406 18.75 2
7.19746 19.9752 0.0112706
6.31992 16.6661 0
8.83525 35.2783 3.97583
10.4249 34.9979 2
12.0646 34.2911 0.0246302
7.00792 37.2057 3.97588
9.0088 36.9847 2
10.8135 36.6099 0.0252349
9.33466 38.8247 0.0238557
7.22242 39.1826 2
4.9835 39.4671 3.97939
7.5407 41.2122 0.0225355
5.25483 41.6139 2
2.85477 42.0022 3.98685
5.63904 43.7682 0.0193705
3.244 44.2811 2
0.720592 44.8159 4
3.7661 46.536 0.0125013
1.27778 47.2057 2
1.99014 49.554 0
8.87644 33.6959 3.97662
10.0775 33.879 2
7.50265 31.608 3.97746
9.37904 32.1518 2
10.9098 32.9156 0.0234046
5.9403 29.0693 3.98017
8.06427 29.6936 2
10.0852 30.3787 0.0237837
4.35751 26.2482 3.98729
6.59454 27.0073 2
8.71454 27.7295 0.0221537
2.85458 23.1494 4
5.16959 24.0956 2
7.35043 24.9805 0.0182591
3.86728 20.9142 2
6.11444 22.0003 0.0122076
5.02411 18.75 0
6.95835 35.3056 3.97622
8.83519 35.2783 2
10.425 34.998 0.0239387
4.83454 37.3396 3.97872
7.00791 37.2058 2
9.00886 36.9847 0.0253005
7.22248 39.1824 0.0229641
4.98349 39.4672 2
2.60319 39.7141 3.98586
5.25485 41.6138 0.0198285
2.85476 42.0022 2
0.320823 42.3947 4
3.24402 44.2814 0.0126187
0.720551 44.8159 2
1.27781 47.2057 0
7.11745 33.4601 3.97709
8.87633 33.6958 2
10.0776 33.8791 0.0234529
5.41172 31.1336 3.97993
7.50252 31.6078 2
9.3792 32.1519 0.0233099
3.67949 28.4442 3.98711
5.94025 29.0692 2
8.06439 29.6938 0.0225545
1.99015 25.446 4
4.35735 26.2489 2
6.59465 27.0076 0.0192163
2.85453 23.1494 2
5.1697 24.0947 0.0125935
3.86728 20.9142 0
4.84903 35.2516 3.97881
6.95832 35.3056 2
8.83525 35.2783 0.0241674
2.49487 37.4286 3.98545
4.83456 37.3398 2
7.00792 37.2057 0.0241207
4.9835 39.4671 0.0206074
2.6032 39.7142 2
0.080333 39.9526 4
2.85477 42.0022 0.0131504
0.320817 42.3947 2
0.720592 44.8159 0
5.04184 33.1903 3.97953
7.11735 33.4601 2
8.87644 33.6959 0.0233806
3.14412 30.6666 3.98668
5.41163 31.1337 2
7.50265 31.608 0.0225359
1.27793 27.7943 4
3.67942 28.4448 2
5.9403 29.0693 0.0198306
1.99013 25.446 2
4.35751 26.2482 0.0127093
2.85458 23.1494 0
2.54708 35.1592 3.98539
4.849 35.2518 2
6.95835 35.3056 0.023783
0 37.5 4
2.49491 37.4289 2
4.83454 37.3396 0.0212754
2.60319 39.7141 0.0141353
0.0802903 39.9526 2
0.320823 42.3947 0
2.76446 32.906 3.98599
5.04176 33.1905 2
7.11745 33.4601 0.0229132
0.721173 30.1842 4
3.14405 30.667 2
5.41172 31.1336 0.020074
1.27779 27.7943 2
3.67949 28.4442 0.0128866
1.99015 25.446 0
0.0806499 35.0474 4
2.54708 35.1595 2
4.84903 35.2516 0.0211891
0 37.5 2
2.49487 37.4286 0.0145545
0.080333 39.9526 0
0.32156 32.6054 4
2.76443 32.9063 2
5.04184 33.1903 0.0204679
0.72056 30.1841 2
3.14412 30.6666 0.0133206
1.27793 27.7943 0
0.0802889 35.0474 2
2.54708 35.1592 0.0146063
0 37.5 0
0.320817 32.6053 2
2.76446 32.906 0.014014
0.721173 30.1842 0
0.0806499 35.0474 0
0.32156 32.6054 0
CELLS 1910 17190
8 18 6 25 56 2 0 5 16
8 57 23 6 18 17 4 0 2
8 78 36 9 29 31 11 1 7
8 31 11 1 7 79 37 10 30
8 110 57 18 50 48 17 2 14
8 50 18 56 111 14 2 16 49
8 116 62 22 55 52 20 3 15
8 56 25 67 118 16 5 24 53
8 119 63 23 57 54 21 4 17
8 55 22 63 119 15 3 21 54
8 58 26 68 121 18 6 25 56
8 122 65 26 58 57 23 6 18
8 73 31 7 27 142 79 30 71
8 143 78 29 72 73 31 7 27
8 83 147 76 34 32 74 28 8
8 84 148 78 36 33 75 29 9
8 76 34 8 28 148 84 33 75
8 37 79 150 86 10 30 77 35
8 151 87 36 78 80 38 11 31
8 80 38 11 31 152 88 37 79
8 175 100 42 94 96 44 12 40
8 44 96 176 101 12 40 95 43
8 101 176 98 46 43 95 41 13
8 46 98 178 103 13 41 97 45
8 178 103 45 97 147 83 32 74
8 189 116 55 109 106 52 15 47
8 111 56 118 191 49 16 53 107
8 192 119 57 110 108 54 17 48
8 109 55 119 192 47 15 54 108
8 194 122 58 112 110 57 18 50
8 112 58 121 195 50 18 56 111
8 115 61 19 51 197 124 59 113
8 115 61 125 198 51 19 60 114
8 198 125 62 116 114 60 20 52
8 200 127 64 120 116 62 22 55
8 118 67 132 202 53 24 66 117
8 121 68 133 203 56 25 67 118
8 120 64 128 204 55 22 63 119
8 204 128 65 122 119 63 23 57
8 206 134 68 121 123 69 26 58
8 123 69 26 58 207 131 65 122
8 226 147 74 138 140 76 28 70
8 229 148 75 139 143 78 29 72
8 140 76 28 70 229 148 75 139
8 142 79 30 71 231 150 77 141
8 144 80 31 73 232 152 79 142
8 233 151 78 143 144 80 31 73
8 150 86 35 77 235 154 81 145
8 235 154 81 145 146 82 39 91
8 146 82 39 91 236 155 90 165
8 238 157 83 147 149 85 34 76
8 239 158 84 148 151 87 36 78
8 149 85 34 76 239 158 84 148
8 152 88 37 79 241 160 86 150
8 242 161 87 151 153 89 38 80
8 153 89 38 80 243 162 88 152
8 171 98 41 92 265 178 97 169
8 265 178 97 169 226 147 74 138
8 172 96 40 93 266 176 95 170
8 266 176 95 170 171 98 41 92
8 269 175 94 173 172 96 40 93
8 271 180 99 174 175 100 42 94
8 197 124 59 113 271 180 99 174
8 272 181 100 175 177 102 44 96
8 273 182 101 176 179 104 46 98
8 177 102 44 96 273 182 101 176
8 179 104 46 98 275 184 103 178
8 275 184 103 178 238 157 83 147
8 188 115 51 105 283 197 113 186
8 188 115 198 284 105 51 114 187
8 284 198 116 189 187 114 52 106
8 286 200 120 193 189 116 55 109
8 191 118 202 288 107 53 117 190
8 195 121 203 289 111 56 118 191
8 193 120 204 290 109 55 119 192
8 290 204 122 194 192 119 57 110
8 196 123 58 112 292 207 122 194
8 293 206 121 195 196 123 58 112
8 199 126 61 115 297 211 124 197
8 298 212 127 200 198 125 62 116
8 199 126 212 298 115 61 125 198
8 205 129 64 120 300 214 127 200
8 301 217 130 201 202 132 66 117
8 209 136 168 264 301 217 130 201
8 302 219 132 202 203 133 67 118
8 303 220 133 203 206 134 68 121
8 205 129 215 304 120 64 128 204
8 304 215 131 207 204 128 65 122
8 306 221 134 206 208 135 69 123
8 208 135 69 123 307 218 131 207
8 210 137 167 263 309 223 136 209
8 328 238 147 226 230 149 76 140
8 228 146 91 166 329 236 165 260
8 231 150 77 141 330 235 145 227
8 330 235 145 227 228 146 91 166
8 332 239 148 229 233 151 78 143
8 230 149 76 140 332 239 148 229
8 232 152 79 142 334 241 150 231
8 234 153 80 144 335 243 152 232
8 336 242 151 233 234 153 80 144
8 236 155 90 165 338 245 164 259
8 241 160 86 150 339 246 154 235
8 339 246 154 235 237 156 82 146
8 237 156 82 146 340 247 155 236
8 342 249 157 238 240 159 85 149
8 343 250 158 239 242 161 87 151
8 240 159 85 149 343 250 158 239
8 243 162 88 152 345 252 160 241
8 244 163 253 346 153 89 161 242
8 244 163 89 153 347 254 162 243
8 311 224 261 371 210 137 167 263
8 263 167 262 372 209 136 168 264
8 267 179 98 171 375 275 178 265
8 375 275 178 265 328 238 147 226
8 376 273 176 266 267 179 98 171
8 268 177 96 172 376 273 176 266
8 379 272 175 269 268 177 96 172
8 380 271 174 270 269 175 94 173
8 283 197 113 186 380 271 174 270
8 381 277 180 271 272 181 100 175
8 297 211 124 197 381 277 180 271
8 382 278 181 272 274 183 102 177
8 274 183 102 177 383 279 182 273
8 383 279 182 273 276 185 104 179
8 385 281 184 275 342 249 157 238
8 276 185 104 179 385 281 184 275
8 285 199 115 188 393 297 197 283
8 394 298 200 286 284 198 116 189
8 285 199 298 394 188 115 198 284
8 291 205 120 193 396 300 200 286
8 397 301 201 287 288 202 117 190
8 295 209 264 374 397 301 201 287
8 398 302 202 288 289 203 118 191
8 399 303 203 289 293 206 121 195
8 291 205 304 400 193 120 204 290
8 400 304 207 292 290 204 122 194
8 294 208 123 196 402 307 207 292
8 403 306 206 293 294 208 123 196
8 296 210 263 373 405 309 209 295
8 408 312 213 299 297 211 126 199
8 299 213 313 409 199 126 212 298
8 409 313 214 300 298 212 127 200
8 305 216 129 205 411 315 214 300
8 412 318 217 301 302 219 132 202
8 309 223 136 209 412 318 217 301
8 413 320 219 302 303 220 133 203
8 306 221 321 414 206 134 220 303
8 307 218 131 207 415 316 215 304
8 305 216 316 415 205 129 215 304
8 417 322 221 306 308 222 135 208
8 308 222 135 208 418 319 218 307
8 310 225 137 210 420 325 223 309
8 423 326 224 311 310 225 137 210
8 329 236 165 260 441 338 259 368
8 442 342 238 328 333 240 149 230
8 331 237 146 228 443 340 236 329
8 334 241 150 231 444 339 235 330
8 444 339 235 330 331 237 146 228
8 446 343 239 332 336 242 151 233
8 333 240 149 230 446 343 239 332
8 335 243 152 232 448 345 241 334
8 337 244 153 234 449 347 243 335
8 337 244 346 450 234 153 242 336
8 338 245 164 259 452 349 258 367
8 340 247 155 236 453 350 245 338
8 345 252 160 241 454 351 246 339
8 454 351 246 339 341 248 156 237
8 341 248 156 237 455 352 247 340
8 240 159 251 344 342 249 354 457
8 242 161 253 346 343 250 355 458
8 343 250 355 458 240 159 251 344
8 347 254 162 243 460 357 252 345
8 348 255 358 461 244 163 253 346
8 348 255 163 244 462 359 254 347
8 473 360 257 365 363 256 364 482
8 452 349 258 367 365 257 366 485
8 422 324 369 488 311 224 261 371
8 371 261 370 490 263 167 262 372
8 407 311 371 491 296 210 263 373
8 373 263 372 492 295 209 264 374
8 493 385 275 375 442 342 238 328
8 377 276 179 267 493 385 275 375
8 378 274 177 268 494 383 273 376
8 494 383 273 376 377 276 179 267
8 497 382 272 379 378 274 177 268
8 498 381 271 380 379 272 175 269
8 393 297 197 283 498 381 271 380
8 499 387 277 381 382 278 181 272
8 408 312 211 297 499 387 277 381
8 500 388 278 382 384 280 183 274
8 501 389 279 383 386 282 185 276
8 384 280 183 274 501 389 279 383
8 386 282 185 276 503 391 281 385
8 503 391 281 385 457 354 249 342
8 511 408 299 395 393 297 199 285
8 395 299 409 512 285 199 298 394
8 512 409 300 396 394 298 200 286
8 401 305 205 291 514 411 300 396
8 515 412 301 397 398 302 202 288
8 405 309 209 295 515 412 301 397
8 516 413 302 398 399 303 203 289
8 403 306 414 517 293 206 303 399
8 402 307 207 292 518 415 304 400
8 401 305 415 518 291 205 304 400
8 404 308 208 294 520 418 307 402
8 521 417 306 403 404 308 208 294
8 406 310 210 296 523 420 309 405
8 526 423 311 407 406 310 210 296
8 410 314 213 299 527 424 312 408
8 528 425 315 411 409 313 214 300
8 410 314 425 528 299 213 313 409
8 416 317 216 305 530 427 315 411
8 531 430 318 412 413 320 219 302
8 420 325 223 309 531 430 318 412
8 532 432 320 413 414 321 220 303
8 417 322 433 533 306 221 321 414
8 418 319 218 307 534 428 316 415
8 416 317 428 534 305 216 316 415
8 419 323 434 536 308 222 322 417
8 419 323 222 308 537 431 319 418
8 421 327 225 310 539 438 325 420
8 421 327 439 541 310 225 326 423
8 543 437 324 422 423 326 224 311
8 441 338 259 368 559 452 367 486
8 443 340 236 329 560 453 338 441
8 333 240 344 447 442 342 457 561
8 445 341 237 331 562 455 340 443
8 448 345 241 334 563 454 339 444
8 563 454 339 444 445 341 237 331
8 336 242 346 450 446 343 458 565
8 446 343 458 565 333 240 344 447
8 449 347 243 335 567 460 345 448
8 451 348 244 337 568 462 347 449
8 451 348 461 569 337 244 346 450
8 570 463 349 452 473 360 257 365
8 453 350 245 338 570 463 349 452
8 455 352 247 340 571 464 350 453
8 460 357 252 345 572 465 351 454
8 572 465 351 454 456 353 248 341
8 456 353 248 341 573 466 352 455
8 344 251 356 459 457 354 468 575
8 458 355 469 576 344 251 356 459
8 346 253 358 461 458 355 469 576
8 462 359 254 347 578 471 357 460
8 348 255 359 462 461 358 472 579
8 591 474 360 473 475 361 256 363
8 475 361 256 363 594 477 362 479
8 363 256 364 482 479 362 480 603
8 590 473 365 484 481 363 482 605
8 482 364 257 365 606 483 366 485
8 559 452 367 486 484 365 485 607
8 542 436 487 609 422 324 369 488
8 525 422 488 611 407 311 371 491
8 488 369 489 612 371 261 370 490
8 491 371 490 613 373 263 372 492
8 495 386 276 377 614 503 385 493
8 614 503 385 493 561 457 342 442
8 615 501 383 494 495 386 276 377
8 496 384 274 378 615 501 383 494
8 618 500 382 497 496 384 274 378
8 619 499 381 498 497 382 272 379
8 511 408 297 393 619 499 381 498
8 620 505 387 499 500 388 278 382
8 527 424 312 408 620 505 387 499
8 502 390 506 621 384 280 388 500
8 622 507 389 501 504 392 282 386
8 502 390 280 384 622 507 389 501
8 504 392 282 386 624 509 391 503
8 624 509 391 503 575 468 354 457
8 513 410 299 395 630 527 408 511
8 631 528 411 514 512 409 300 396
8 513 410 528 631 395 299 409 512
8 519 416 305 401 633 530 411 514
8 634 531 412 515 516 413 302 398
8 523 420 309 405 634 531 412 515
8 635 532 413 516 517 414 303 399
8 521 417 533 636 403 306 414 517
8 520 418 307 402 637 534 415 518
8 519 416 534 637 401 305 415 518
8 522 419 308 404 639 537 418 520
8 522 419 536 640 404 308 417 521
8 524 421 310 406 642 539 420 523
8 524 421 541 644 406 310 423 526
8 646 543 422 525 526 423 311 407
8 529 426 314 410 647 544 424 527
8 528 425 545 648 411 315 427 530
8 529 426 545 648 410 314 425 528
8 535 429 317 416 649 546 427 530
8 650 548 430 531 532 432 320 413
8 539 438 325 420 650 548 430 531
8 533 433 550 651 414 321 432 532
8 536 434 551 652 417 322 433 533
8 537 431 319 418 653 547 428 534
8 535 429 547 653 416 317 428 534
8 538 435 552 654 419 323 434 536
8 538 435 323 419 655 549 431 537
8 540 440 327 421 657 556 438 539
8 540 440 557 659 421 327 439 541
8 541 439 555 660 423 326 437 543
8 661 554 436 542 543 437 324 422
8 676 570 452 559 590 473 365 484
8 560 453 338 441 676 570 452 559
8 562 455 340 443 677 571 453 560
8 447 344 459 566 561 457 575 678
8 564 456 341 445 679 573 455 562
8 567 460 345 448 680 572 454 563
8 680 572 454 563 564 456 341 445
8 565 458 576 682 447 344 459 566
8 450 346 461 569 565 458 576 682
8 568 462 347 449 684 578 460 567
8 451 348 462 568 569 461 579 685
8 686 580 463 570 591 474 360 473
8 571 464 350 453 686 580 463 570
8 573 466 352 455 687 581 464 571
8 572 465 582 688 460 357 471 578
8 574 467 582 688 456 353 465 572
8 574 467 353 456 689 583 466 573
8 459 356 470 577 575 468 585 691
8 576 469 586 692 459 356 470 577
8 461 358 472 579 576 469 586 692
8 462 359 471 578 579 472 588 694
8 704 591 473 590 593 475 363 481
8 595 476 592 705 475 361 474 591
8 593 475 363 481 707 594 479 602
8 594 477 362 479 709 598 478 600
8 595 476 361 475 711 597 477 594
8 479 362 480 603 600 478 601 720
8 481 363 482 605 602 479 603 722
8 603 480 364 482 723 604 483 606
8 605 482 365 484 724 606 485 607
8 656 553 608 726 542 436 487 609
8 645 542 609 728 525 422 488 611
8 609 487 610 729 488 369 489 612
8 611 488 612 730 491 371 490 613
8 616 504 386 495 731 624 503 614
8 731 624 503 614 678 575 457 561
8 732 622 501 615 616 504 386 495
8 617 502 384 496 732 622 501 615
8 617 502 621 735 496 384 500 618
8 736 620 499 619 618 500 382 497
8 630 527 408 511 736 620 499 619
8 621 506 626 737 500 388 505 620
8 647 544 424 527 737 626 505 620
8 623 508 627 738 502 390 506 621
8 623 508 390 502 739 628 507 622
8 625 510 628 739 504 392 507 622
8 740 629 509 624 691 585 468 575
8 625 510 392 504 740 629 509 624
8 632 529 410 513 744 647 527 630
8 631 528 648 745 514 411 530 633
8 632 529 648 745 513 410 528 631
8 638 535 416 519 746 649 530 633
8 747 650 531 634 635 532 413 516
8 642 539 420 523 747 650 531 634
8 636 533 651 748 517 414 532 635
8 640 536 652 749 521 417 533 636
8 639 537 418 520 750 653 534 637
8 638 535 653 750 519 416 534 637
8 641 538 419 522 751 655 537 639
8 641 538 654 752 522 419 536 640
8 643 540 421 524 753 657 539 642
8 643 540 659 755 524 421 541 644
8 644 541 660 757 526 423 543 646
8 758 661 542 645 646 543 422 525
8 529 426 544 647 648 545 662 759
8 530 427 545 648 649 546 663 760
8 535 429 546 649 653 547 664 761
8 762 666 548 650 651 550 432 532
8 657 556 438 539 762 666 548 650
8 652 551 668 763 533 433 550 651
8 654 552 669 764 536 434 551 652
8 655 549 431 537 765 665 547 653
8 538 435 549 655 654 552 667 766
8 661 554 671 768 542 436 553 656
8 658 558 440 540 769 674 556 657
8 658 558 675 770 540 440 557 659
8 659 557 673 771 541 439 555 660
8 660 555 672 772 543 437 554 661
8 788 686 570 676 704 591 473 590
8 677 571 453 560 788 686 570 676
8 679 573 455 562 789 687 571 677
8 566 459 577 683 678 575 691 790
8 681 574 456 564 791 689 573 679
8 680 572 688 792 567 460 578 684
8 681 574 688 792 564 456 572 680
8 682 576 692 794 566 459 577 683
8 569 461 579 685 682 576 692 794
8 568 462 578 684 685 579 694 796
8 687 581 464 571 798 696 580 686
8 798 696 580 686 705 592 474 591
8 689 583 466 573 799 697 581 687
8 688 582 698 800 578 471 588 694
8 690 584 698 800 574 467 582 688
8 690 584 467 574 801 699 583 689
8 693 587 701 803 577 470 585 691
8 693 587 470 577 804 702 586 692
8 695 589 702 804 579 472 586 692
8 695 589 472 579 805 703 588 694
8 708 595 705 813 593 475 591 704
8 710 596 706 814 595 476 592 705
8 707 594 479 602 816 709 600 719
8 708 595 475 593 817 711 594 707
8 709 598 478 600 819 715 599 717
8 711 597 477 594 820 714 598 709
8 710 596 476 595 822 713 597 711
8 600 478 601 720 717 599 718 832
8 602 479 603 722 719 600 720 834
8 720 601 480 603 835 721 604 723
8 722 603 482 605 836 723 606 724
8 767 670 725 839 656 553 608 726
8 756 656 726 841 645 542 609 728
8 726 608 727 842 609 487 610 729
8 728 609 729 843 611 488 612 730
8 844 740 624 731 790 691 575 678
8 733 625 504 616 844 740 624 731
8 734 623 502 617 845 739 622 732
8 733 625 739 845 616 504 622 732
8 734 623 738 846 617 502 621 735
8 735 621 737 847 618 500 620 736
8 744 647 527 630 847 737 620 736
8 621 506 627 738 737 626 741 848
8 647 544 626 737 759 662 741 848
8 623 508 628 739 738 627 742 849
8 740 629 585 691 850 743 700 802
8 625 510 629 740 739 628 743 850
8 632 529 647 744 745 648 759 854
8 633 530 648 745 746 649 760 855
8 638 535 649 746 750 653 761 856
8 857 762 650 747 748 651 532 635
8 753 657 539 642 857 762 650 747
8 749 652 763 858 636 533 651 748
8 752 654 764 859 640 536 652 749
8 751 655 537 639 860 765 653 750
8 641 538 655 751 752 654 766 861
8 754 658 540 643 862 769 657 753
8 754 658 770 863 643 540 659 755
8 755 659 771 864 644 541 660 757
8 758 661 768 866 645 542 656 756
8 757 660 772 867 646 543 661 758
8 759 662 773 868 648 545 663 760
8 649 546 663 760 761 664 774 871
8 765 665 547 653 872 775 664 761
8 873 777 666 762 763 668 550 651
8 769 674 556 657 873 777 666 762
8 764 669 779 874 652 551 668 763
8 654 552 667 766 764 669 778 875
8 655 549 665 765 766 667 776 876
8 768 671 782 877 656 553 670 767
8 772 672 783 878 661 554 671 768
8 658 558 674 769 770 675 786 879
8 659 557 675 770 771 673 785 881
8 882 784 672 772 771 673 555 660
8 789 687 571 677 897 798 686 788
8 897 798 686 788 813 705 591 704
8 791 689 573 679 898 799 687 789
8 795 693 803 900 683 577 691 790
8 793 690 574 681 901 801 689 791
8 792 688 800 902 684 578 694 796
8 793 690 800 902 681 574 688 792
8 795 693 577 683 903 804 692 794
8 797 695 804 903 685 579 692 794
8 797 695 579 685 904 805 694 796
8 905 806 697 799 798 696 581 687
8 814 706 806 905 705 592 696 798
8 689 583 697 799 801 699 808 907
8 800 698 809 908 694 588 703 805
8 690 584 699 801 800 698 809 908
8 803 701 810 909 691 585 700 802
8 693 587 702 804 803 701 811 910
8 695 589 703 805 804 702 812 911
8 818 710 814 919 708 595 705 813
8 821 712 815 920 710 596 706 814
8 816 709 600 719 922 819 717 831
8 817 711 594 707 923 820 709 816
8 818 710 595 708 924 822 711 817
8 819 715 599 717 926 827 716 829
8 820 714 598 709 927 826 715 819
8 929 825 713 822 820 714 597 711
8 821 712 596 710 930 824 713 822
8 717 599 718 832 829 716 830 942
8 719 600 720 834 831 717 832 944
8 832 718 601 720 945 833 721 835
8 834 720 603 722 946 835 723 836
8 869 780 838 950 767 670 725 839
8 865 767 839 952 756 656 726 841
8 839 725 840 953 726 608 727 842
8 841 726 842 954 728 609 729 843
8 844 740 691 790 955 850 802 899
8 733 625 740 844 845 739 850 955
8 734 623 739 845 846 738 849 956
8 735 621 738 846 847 737 848 957
8 744 647 737 847 854 759 848 957
8 738 627 742 849 848 741 851 958
8 848 741 851 958 759 662 773 868
8 850 743 700 802 959 852 807 906
8 849 742 628 739 959 852 743 850
8 854 759 868 965 745 648 760 855
8 746 649 760 855 856 761 871 966
8 860 765 653 750 967 872 761 856
8 968 873 762 857 858 763 651 748
8 862 769 657 753 968 873 762 857
8 859 764 874 969 749 652 763 858
8 752 654 766 861 859 764 875 970
8 751 655 765 860 861 766 876 971
8 754 658 769 862 863 770 879 972
8 755 659 770 863 864 771 881 974
8 976 882 772 867 864 771 660 757
8 866 768 877 977 756 656 767 865
8 867 772 878 978 758 661 768 866
8 760 663 773 868 871 774 883 980
8 870 781 837 948 982 890 780 869
8 982 890 780 869 877 782 670 767
8 761 664 774 871 872 775 884 984
8 876 776 665 765 985 885 775 872
8 873 777 668 763 986 887 779 874
8 769 674 777 873 879 786 887 986
8 764 669 778 875 874 779 888 987
8 766 667 776 876 875 778 886 988
8 878 783 892 989 768 671 782 877
8 878 783 672 772 990 893 784 882
8 880 787 675 770 991 896 786 879
8 880 787 895 992 770 675 785 881
8 881 785 894 993 771 673 784 882
8 1006 905 799 898 897 798 687 789
8 919 814 905 1006 813 705 798 897
8 791 689 799 898 901 801 907 1007
8 900 803 909 1009 790 691 802 899
8 795 693 804 903 900 803 910 1010
8 902 800 908 1011 796 694 805 904
8 793 690 801 901 902 800 908 1011
8 797 695 805 904 903 804 911 1012
8 799 697 806 905 907 808 912 1013
8 920 815 912 1013 814 706 806 905
8 802 700 810 909 906 807 913 1014
8 801 699 808 907 908 809 914 1015
8 805 703 809 908 911 812 915 1016
8 803 701 811 910 909 810 916 1017
8 911 812 917 1018 804 702 811 910
8 925 821 920 1030 818 710 814 919
8 928 823 921 1031 821 712 815 920
8 922 819 717 831 1033 926 829 941
8 923 820 709 816 1034 927 819 922
8 1035 929 822 924 923 820 711 817
8 925 821 710 818 1036 930 822 924
8 1038 933 825 929 927 826 714 820
8 926 827 716 829 1039 935 828 939
8 927 826 715 819 1040 934 827 926
8 928 823 712 821 1041 931 824 930
8 1042 932 824 930 929 825 713 822
8 829 716 830 942 939 828 940 1058
8 831 717 832 944 941 829 942 1060
8 942 830 718 832 1061 943 833 945
8 944 832 720 834 1062 945 835 946
8 981 889 947 1064 870 781 837 948
8 948 837 949 1067 869 780 838 950
8 975 869 950 1069 865 767 839 952
8 950 838 951 1070 839 725 840 953
8 952 839 953 1071 841 726 842 954
8 955 850 802 899 1072 959 906 1008
8 956 849 739 845 1072 959 850 955
8 846 738 849 956 957 848 958 1073
8 957 848 958 1073 854 759 868 965
8 849 742 852 959 958 851 961 1076
8 960 853 961 1076 906 807 852 959
8 958 851 961 1076 868 773 883 980
8 960 853 807 906 1077 963 913 1014
8 855 760 868 965 966 871 980 1085
8 856 761 871 966 967 872 984 1086
8 971 876 765 860 1087 985 872 967
8 968 873 763 858 1088 986 874 969
8 862 769 873 968 972 879 986 1088
8 859 764 875 970 969 874 987 1089
8 861 766 876 971 970 875 988 1090
8 973 880 770 863 1091 991 879 972
8 973 880 992 1092 863 770 881 974
8 974 881 993 1093 864 771 882 976
8 979 870 948 1066 1094 982 869 975
8 1094 982 869 975 977 877 767 865
8 978 878 772 867 1095 990 882 976
8 978 878 989 1096 866 768 877 977
8 871 774 883 980 984 884 994 1099
8 983 891 999 1100 870 781 889 981
8 1101 1000 890 982 989 892 782 877
8 983 891 781 870 1101 1000 890 982
8 872 775 884 984 985 885 995 1103
8 876 776 885 985 988 886 996 1104
8 986 887 779 874 1105 998 888 987
8 879 786 887 986 991 896 998 1105
8 875 778 886 988 987 888 997 1106
8 990 893 1002 1107 878 783 892 989
8 1108 1003 893 990 993 894 784 882
8 880 787 896 991 992 895 1005 1109
8 993 894 785 881 1110 1004 895 992
8 898 799 905 1006 1007 907 1013 1120
8 1030 920 1013 1120 919 814 905 1006
8 901 801 907 1007 1011 908 1015 1121
8 899 802 909 1009 1008 906 1014 1122
8 900 803 910 1010 1009 909 1017 1123
8 1012 911 1018 1124 903 804 910 1010
8 904 805 908 1011 1012 911 1016 1125
8 1013 912 1020 1127 907 808 914 1015
8 1031 921 1020 1127 920 815 912 1013
8 1019 918 962 1075 1128 1021 913 1014
8 1128 1021 913 1014 1017 916 810 909
8 1015 914 1022 1129 908 809 915 1016
8 1016 915 1023 1130 911 812 917 1018
8 1018 917 1024 1131 910 811 916 1017
8 1037 928 1031 1148 925 821 920 1030
8 928 823 931 1041 1031 921 1032 1149
8 1033 926 829 941 1151 1039 939 1057
8 1034 927 819 922 1152 1040 926 1033
8 1153 1038 929 1035 1034 927 820 923
8 1154 1042 930 1036 1035 929 822 924
8 1037 928 821 925 1155 1041 930 1036
8 1039 935 828 939 1156 1047 938 1055
8 1157 1043 932 1042 1038 933 825 929
8 1038 933 826 927 1158 1045 934 1040
8 1040 934 827 926 1159 1046 935 1039
8 930 824 932 1042 1041 931 1044 1160
8 1051 936 1048 1165 1175 1052 937 1053
8 1156 1047 938 1055 1053 937 1054 1178
8 939 828 940 1058 1055 938 1056 1181
8 941 829 942 1060 1057 939 1058 1183
8 942 830 943 1061 1058 940 1059 1184
8 1060 942 832 944 1185 1061 945 1062
8 1082 964 1063 1188 981 889 947 1064
8 1097 981 1064 1190 979 870 948 1066
8 1064 947 1065 1191 948 837 949 1067
8 1066 948 1067 1193 975 869 950 1069
8 1067 949 1068 1194 950 838 951 1070
8 1069 950 1070 1195 952 839 953 1071
8 956 849 959 1072 1073 958 1076 1197
8 1074 960 1076 1197 1008 906 959 1072
8 1073 958 1076 1197 965 868 980 1085
8 1074 960 906 1008 1198 1077 1014 1122
8 1133 1026 1079 1199 1019 918 962 1075
8 1077 963 913 1014 1200 1080 962 1075
8 960 853 963 1077 1076 961 1078 1201
8 980 883 961 1076 1099 994 1078 1201
8 1210 1083 964 1082 1100 999 889 981
8 966 871 980 1085 1086 984 1099 1215
8 967 872 984 1086 1087 985 1103 1216
8 971 876 985 1087 1090 988 1104 1217
8 1088 986 874 969 1218 1105 987 1089
8 972 879 986 1088 1091 991 1105 1218
8 970 875 988 1090 1089 987 1106 1219
8 973 880 991 1091 1092 992 1109 1220
8 1093 993 881 974 1221 1110 992 1092
8 1222 1108 990 1095 1093 993 882 976
8 1223 1101 982 1094 1096 989 877 977
8 1098 983 870 979 1223 1101 982 1094
8 1095 990 1107 1224 978 878 989 1096
8 1098 983 1100 1225 979 870 981 1097
8 984 884 994 1099 1103 995 1111 1227
8 1102 1001 1115 1228 983 891 999 1100
8 1101 1000 892 989 1229 1116 1002 1107
8 1102 1001 891 983 1229 1116 1000 1101
8 985 885 995 1103 1104 996 1112 1230
8 988 886 996 1104 1106 997 1113 1231
8 1105 998 888 987 1232 1114 997 1106
8 991 896 998 1105 1109 1005 1114 1232
8 1108 1003 1117 1233 990 893 1002 1107
8 1108 1003 894 993 1233 1117 1004 1110
8 992 895 1005 1109 1110 1004 1118 1234
8 1120 1013 1127 1244 1007 907 1015 1121
8 1148 1031 1127 1244 1030 920 1013 1120
8 1121 1015 1129 1245 1011 908 1016 1125
8 1126 1019 1075 1196 1246 1128 1014 1122
8 1246 1128 1014 1122 1123 1017 909 1009
8 1124 1018 1131 1247 1010 910 1017 1123
8 1125 1016 1130 1248 1012 911 1018 1124
8 1127 1020 1137 1254 1015 914 1022 1129
8 1031 921 1032 1149 1127 1020 1137 1254
8 1134 1027 918 1019 1257 1140 1021 1128
8 1257 1140 1021 1128 1131 1024 916 1017
8 1129 1022 1141 1258 1016 915 1023 1130
8 1130 1023 1142 1259 1018 917 1024 1131
8 1261 1144 1025 1132 1133 1026 1079 1199
8 1255 1138 1025 1132 1135 1028 1144 1261
8 1133 1026 918 1019 1262 1145 1027 1134
8 1136 1029 1139 1256 1263 1146 1028 1135
8 1037 928 1041 1155 1148 1031 1149 1275
8 1041 931 1044 1160 1149 1032 1150 1276
8 1151 1039 939 1057 1278 1156 1055 1180
8 1152 1040 926 1033 1279 1159 1039 1151
8 1153 1038 927 1034 1280 1158 1040 1152
8 1281 1157 1042 1154 1153 1038 929 1035
8 1036 930 1042 1154 1155 1041 1160 1282
8 1283 1164 1046 1159 1156 1047 935 1039
8 1165 1048 1164 1283 1053 937 1047 1156
8 1157 1043 933 1038 1284 1161 1045 1158
8 1157 1043 1161 1284 1042 932 1044 1160
8 1040 934 1046 1159 1158 1045 1163 1285
8 1166 1049 1167 1292 1051 936 1048 1165
8 1166 1049 936 1051 1293 1168 1050 1172
8 1051 936 1052 1175 1172 1050 1173 1306
8 1174 1051 1165 1290 1308 1175 1053 1177
8 1053 937 1054 1178 1175 1052 1176 1309
8 1278 1156 1055 1180 1177 1053 1178 1311
8 1055 938 1056 1181 1178 1054 1179 1312
8 1057 939 1058 1183 1180 1055 1181 1314
8 1058 940 1059 1184 1181 1056 1182 1315
8 1060 942 1061 1185 1183 1058 1184 1316
8 1208 1081 1187 1321 1082 964 1063 1188
8 1209 1082 1188 1322 1097 981 1064 1190
8 1188 1063 1189 1323 1064 947 1065 1191
8 1190 1064 1191 1325 1066 948 1067 1193
8 1191 1065 1192 1326 1067 949 1068 1194
8 1067 1193 1069 950 1194 1327 1195 1070
8 1250 1133 1199 1330 1126 1019 1075 1196
8 1198 1077 1014 1122 1331 1200 1075 1196
8 1074 960 1077 1198 1197 1076 1201 1332
8 1085 980 1076 1197 1215 1099 1201 1332
8 1199 1079 1203 1333 1075 962 1080 1200
8 1132 1025 1119 1243 1199 1079 1203 1333
8 1201 1078 963 1077 1334 1202 1080 1200
8 1099 994 1078 1201 1227 1111 1202 1334
8 1343 1207 1081 1208 1210 1083 964 1082
8 1214 1084 1186 1319 1343 1207 1081 1208
8 1345 1210 1082 1209 1225 1100 981 1097
8 1346 1211 1083 1210 1228 1115 999 1100
8 1086 984 1099 1215 1216 1103 1227 1352
8 1087 985 1103 1216 1217 1104 1230 1353
8 1090 988 1104 1217 1219 1106 1231 1354
8 1218 1105 987 1089 1355 1232 1106 1219
8 1091 991 1105 1218 1220 1109 1232 1355
8 1092 992 1109 1220 1221 1110 1234 1356
8 1222 1108 1233 1357 1095 990 1107 1224
8 1222 1108 993 1093 1357 1233 1110 1221
8 1223 1101 989 1096 1358 1229 1107 1224
8 1226 1102 983 1098 1358 1229 1101 1223
8 1226 1102 1228 1359 1098 983 1100 1225
8 1103 995 1111 1227 1230 1112 1235 1360
8 1107 1002 1117 1233 1229 1116 1240 1362
8 1102 1001 1116 1229 1228 1115 1240 1362
8 1104 996 1112 1230 1231 1113 1236 1363
8 1364 1237 1114 1232 1231 1113 997 1106
8 1109 1005 1114 1232 1234 1118 1238 1365
8 1110 1004 1118 1234 1233 1117 1241 1366
8 1242 1374 1255 1138 1119 1243 1132 1025
8 1244 1127 1254 1376 1121 1015 1129 1245
8 1148 1031 1149 1275 1244 1127 1254 1376
8 1245 1129 1258 1377 1125 1016 1130 1248
8 1251 1134 1019 1126 1378 1257 1128 1246
8 1378 1257 1128 1246 1247 1131 1017 1123
8 1248 1130 1259 1379 1124 1018 1131 1247
8 1261 1381 1250 1133 1132 1249 1330 1199
8 1255 1380 1252 1135 1132 1249 1381 1261
8 1250 1133 1019 1126 1382 1262 1134 1251
8 1253 1136 1256 1385 1384 1263 1135 1252
8 1254 1137 1265 1387 1129 1022 1141 1258
8 1149 1032 1150 1276 1254 1137 1265 1387
8 1028 1135 1255 1138 1139 1256 1388 1266
8 1136 1029 1147 1264 1256 1139 1267 1389
8 1390 1268 1140 1257 1259 1142 1024 1131
8 1260 1143 1027 1134 1390 1268 1140 1257
8 1258 1141 1269 1391 1130 1023 1142 1259
8 1262 1145 1027 1134 1393 1271 1143 1260
8 1261 1144 1026 1133 1394 1272 1145 1262
8 1135 1028 1144 1261 1263 1146 1272 1394
8 1136 1029 1146 1263 1264 1147 1273 1395
8 1155 1041 1160 1282 1275 1149 1276 1405
8 1276 1150 1044 1160 1406 1277 1162 1286
8 1408 1283 1159 1279 1278 1156 1039 1151
8 1290 1165 1283 1408 1177 1053 1156 1278
8 1152 1040 1159 1279 1280 1158 1285 1409
8 1281 1157 1038 1153 1410 1284 1158 1280
8 1281 1157 1284 1410 1154 1042 1160 1282
8 1159 1046 1164 1283 1285 1163 1289 1412
8 1292 1167 1289 1412 1165 1048 1164 1283
8 1158 1045 1163 1285 1284 1161 1288 1413
8 1284 1161 1288 1413 1160 1044 1162 1286
8 1291 1166 1292 1418 1174 1051 1165 1290
8 1291 1166 1051 1174 1419 1293 1172 1305
8 1294 1169 1296 1421 1166 1049 1167 1292
8 1293 1168 1050 1172 1422 1295 1171 1303
8 1294 1169 1049 1166 1423 1297 1168 1293
8 1422 1295 1171 1303 1301 1170 1302 1435
8 1172 1050 1173 1306 1303 1171 1304 1438
8 1174 1051 1175 1308 1305 1172 1306 1440
8 1175 1052 1176 1309 1306 1173 1307 1441
8 1177 1053 1178 1311 1308 1175 1309 1443
8 1178 1054 1179 1312 1309 1176 1310 1444
8 1180 1055 1181 1314 1311 1178 1312 1446
8 1056 1181 1312 1179 1182 1315 1447 1313
8 1183 1058 1184 1316 1314 1181 1315 1448
8 1319 1186 1084 1214 1451 1317 1213 1350
8 1319 1186 1318 1453 1208 1081 1187 1321
8 1321 1187 1320 1456 1188 1063 1189 1323
8 1344 1208 1321 1457 1209 1082 1188 1322
8 1322 1188 1323 1458 1190 1064 1191 1325
8 1323 1189 1324 1459 1191 1065 1192 1326
8 1191 1325 1193 1067 1326 1460 1327 1194
8 1242 1374 1243 1119 1328 1462 1335 1204
8 1330 1199 1333 1465 1196 1075 1200 1331
8 1132 1249 1330 1199 1243 1375 1465 1333
8 1332 1201 1077 1198 1466 1334 1200 1331
8 1215 1099 1201 1332 1352 1227 1334 1466
8 1119 1243 1333 1203 1204 1335 1470 1338
8 1333 1203 1338 1470 1200 1080 1202 1334
8 1227 1111 1202 1334 1360 1235 1338 1470
8 1328 1462 1335 1204 1205 1336 1471 1339
8 1337 1206 1340 1472 1464 1329 1205 1336
8 1346 1211 1342 1479 1210 1083 1207 1343
8 1346 1211 1115 1228 1479 1342 1239 1361
8 1348 1212 1084 1214 1479 1342 1207 1343
8 1480 1343 1208 1344 1345 1210 1082 1209
8 1351 1214 1319 1454 1480 1343 1208 1344
8 1481 1346 1210 1345 1359 1228 1100 1225
8 1348 1212 1347 1483 1214 1084 1213 1350
8 1216 1103 1227 1352 1353 1230 1360 1488
8 1217 1104 1230 1353 1354 1231 1363 1489
8 1490 1364 1232 1355 1354 1231 1106 1219
8 1220 1109 1232 1355 1356 1234 1365 1491
8 1221 1110 1234 1356 1357 1233 1366 1492
8 1224 1107 1233 1357 1358 1229 1362 1493
8 1226 1102 1229 1358 1359 1228 1362 1493
8 1230 1112 1235 1360 1363 1236 1367 1496
8 1361 1239 1115 1228 1497 1371 1240 1362
8 1366 1241 1372 1498 1233 1117 1240 1362
8 1364 1237 1113 1231 1499 1368 1236 1363
8 1364 1237 1368 1499 1232 1114 1238 1365
8 1234 1118 1238 1365 1366 1241 1369 1500
8 1507 1373 1242 1374 1388 1266 1138 1255
8 1508 1374 1243 1375 1380 1255 1132 1249
8 1376 1254 1387 1509 1245 1129 1258 1377
8 1275 1149 1276 1405 1376 1254 1387 1509
8 1377 1258 1391 1510 1248 1130 1259 1379
8 1511 1390 1257 1378 1379 1259 1131 1247
8 1383 1260 1134 1251 1511 1390 1257 1378
8 1252 1135 1256 1385 1380 1255 1388 1512
8 1261 1381 1513 1394 1133 1250 1382 1262
8 1135 1252 1384 1263 1261 1381 1513 1394
8 1382 1262 1134 1251 1514 1393 1260 1383
8 1253 1136 1263 1384 1386 1264 1395 1516
8 1253 1136 1264 1386 1385 1256 1389 1517
8 1387 1265 1397 1519 1258 1141 1269 1391
8 1276 1150 1277 1406 1387 1265 1397 1519
8 1256 1139 1267 1389 1388 1266 1398 1520
8 1264 1147 1274 1396 1389 1267 1399 1521
8 1392 1270 1143 1260 1522 1400 1268 1390
8 1390 1268 1142 1259 1522 1400 1269 1391
8 1392 1270 1401 1523 1260 1143 1271 1393
8 1272 1394 1524 1402 1145 1262 1393 1271
8 1395 1273 1146 1263 1524 1402 1272 1394
8 1273 1395 1264 1147 1403 1526 1396 1274
8 1405 1276 1160 1282 1534 1406 1286 1411
8 1414 1287 1407 1535 1286 1162 1277 1406
8 1279 1159 1283 1408 1409 1285 1412 1537
8 1418 1292 1412 1537 1290 1165 1283 1408
8 1280 1158 1285 1409 1410 1284 1413 1538
8 1410 1284 1413 1538 1282 1160 1286 1411
8 1285 1163 1289 1412 1413 1288 1417 1540
8 1421 1296 1417 1540 1292 1167 1289 1412
8 1414 1287 1162 1286 1541 1416 1288 1413
8 1420 1294 1421 1545 1291 1166 1292 1418
8 1419 1293 1172 1305 1546 1422 1303 1437
8 1420 1294 1166 1291 1547 1423 1293 1419
8 1294 1169 1297 1423 1421 1296 1425 1548
8 1423 1297 1168 1293 1549 1424 1295 1422
8 1301 1170 1298 1427 1422 1295 1424 1549
8 1432 1300 1428 1554 1301 1170 1298 1427
8 1431 1299 1428 1554 1560 1430 1300 1432
8 1563 1433 1300 1432 1435 1302 1170 1301
8 1546 1422 1303 1437 1434 1301 1435 1565
8 1303 1171 1304 1438 1435 1302 1436 1566
8 1305 1172 1306 1440 1437 1303 1438 1568
8 1306 1173 1307 1441 1438 1304 1439 1569
8 1308 1175 1309 1443 1440 1306 1441 1571
8 1309 1176 1310 1444 1441 1307 1442 1572
8 1311 1178 1312 1446 1443 1309 1444 1574
8 1179 1312 1444 1310 1313 1447 1575 1445
8 1314 1181 1315 1448 1446 1312 1447 1576
8 1350 1213 1349 1486 1451 1317 1449 1579
8 1451 1317 1450 1581 1319 1186 1318 1453
8 1454 1319 1214 1351 1582 1451 1350 1487
8 1453 1318 1452 1584 1321 1187 1320 1456
8 1454 1319 1453 1585 1344 1208 1321 1457
8 1456 1320 1455 1586 1323 1189 1324 1459
8 1457 1321 1456 1587 1322 1188 1323 1458
8 1458 1323 1459 1588 1325 1191 1326 1460
8 1205 1336 1464 1329 1328 1462 1590 1461
8 1507 1373 1461 1590 1374 1242 1328 1462
8 1508 1374 1462 1591 1375 1243 1335 1467
8 1337 1206 1329 1464 1473 1341 1463 1594
8 1375 1243 1335 1467 1465 1333 1470 1596
8 1465 1333 1470 1596 1331 1200 1334 1466
8 1352 1227 1334 1466 1488 1360 1470 1596
8 1591 1462 1336 1468 1467 1335 1471 1597
8 1469 1337 1472 1598 1595 1464 1336 1468
8 1471 1339 1474 1600 1335 1204 1338 1470
8 1600 1474 1367 1496 1470 1338 1235 1360
8 1336 1205 1340 1472 1471 1339 1475 1601
8 1337 1206 1341 1473 1472 1340 1476 1602
8 1495 1370 1478 1609 1361 1239 1342 1479
8 1348 1212 1342 1479 1483 1347 1478 1609
8 1481 1346 1479 1610 1345 1210 1343 1480
8 1481 1346 1228 1359 1610 1479 1361 1494
8 1484 1348 1214 1351 1610 1479 1343 1480
8 1483 1347 1482 1612 1350 1213 1349 1486
8 1484 1348 1483 1613 1351 1214 1350 1487
8 1353 1230 1360 1488 1489 1363 1496 1616
8 1490 1364 1231 1354 1617 1499 1363 1489
8 1490 1364 1499 1617 1355 1232 1365 1491
8 1356 1234 1365 1491 1492 1366 1500 1619
8 1492 1366 1498 1620 1357 1233 1362 1493
8 1494 1361 1228 1359 1621 1497 1362 1493
8 1495 1370 1239 1361 1622 1504 1371 1497
8 1363 1236 1367 1496 1499 1368 1501 1623
8 1497 1371 1240 1362 1624 1505 1372 1498
8 1625 1503 1372 1498 1500 1369 1241 1366
8 1365 1238 1368 1499 1500 1369 1502 1626
8 1520 1398 1506 1633 1388 1266 1373 1507
8 1634 1507 1374 1508 1512 1388 1255 1380
8 1509 1387 1519 1635 1377 1258 1391 1510
8 1405 1276 1406 1534 1509 1387 1519 1635
8 1515 1392 1260 1383 1636 1522 1390 1511
8 1511 1390 1259 1379 1636 1522 1391 1510
8 1385 1256 1389 1517 1512 1388 1520 1637
8 1513 1394 1262 1382 1638 1524 1393 1514
8 1395 1516 1638 1524 1263 1384 1513 1394
8 1515 1392 1523 1639 1383 1260 1393 1514
8 1516 1395 1526 1640 1386 1264 1396 1518
8 1386 1264 1396 1518 1517 1389 1521 1641
8 1519 1397 1527 1643 1391 1269 1400 1522
8 1535 1407 1527 1643 1406 1277 1397 1519
8 1389 1267 1399 1521 1520 1398 1528 1644
8 1645 1529 1399 1521 1525 1404 1274 1396
8 1392 1270 1400 1522 1523 1401 1531 1646
8 1524 1402 1271 1393 1648 1532 1401 1523
8 1403 1526 1648 1532 1273 1395 1524 1402
8 1525 1404 1274 1396 1649 1533 1403 1526
8 1539 1414 1535 1657 1411 1286 1406 1534
8 1542 1415 1536 1658 1414 1287 1407 1535
8 1409 1285 1412 1537 1538 1413 1540 1660
8 1545 1421 1540 1660 1418 1292 1412 1537
8 1539 1414 1286 1411 1661 1541 1413 1538
8 1540 1417 1544 1663 1413 1288 1416 1541
8 1421 1296 1425 1548 1540 1417 1544 1663
8 1542 1415 1287 1414 1664 1543 1416 1541
8 1420 1294 1423 1547 1545 1421 1548 1666
8 1547 1423 1293 1419 1667 1549 1422 1546
8 1434 1301 1427 1553 1546 1422 1549 1667
8 1423 1297 1424 1549 1548 1425 1550 1668
8 1551 1426 1550 1668 1427 1298 1424 1549
8 1551 1426 1298 1427 1671 1552 1428 1554
8 1562 1432 1554 1674 1434 1301 1427 1553
8 1431 1299 1429 1558 1554 1428 1555 1675
8 1431 1299 1430 1560 1558 1429 1557 1680
8 1560 1430 1300 1432 1683 1559 1433 1563
8 1561 1431 1554 1674 1684 1560 1432 1562
8 1685 1563 1432 1562 1565 1435 1301 1434
8 1435 1302 1436 1566 1563 1433 1564 1686
8 1437 1303 1438 1568 1565 1435 1566 1688
8 1438 1304 1439 1569 1566 1436 1567 1689
8 1440 1306 1441 1571 1568 1438 1569 1691
8 1441 1307 1442 1572 1569 1439 1570 1692
8 1443 1309 1444 1574 1571 1441 1572 1694
8 1310 1444 1572 1442 1445 1575 1695 1573
8 1446 1312 1447 1576 1574 1444 1575 1696
8 1486 1349 1485 1614 1579 1449 1577 1699
8 1451 1317 1449 1579 1581 1450 1578 1701
8 1487 1350 1486 1615 1582 1451 1579 1702
8 1581 1450 1580 1704 1453 1318 1452 1584
8 1582 1451 1581 1705 1454 1319 1453 1585
8 1584 1452 1583 1706 1456 1320 1455 1586
8 1585 1453 1584 1707 1457 1321 1456 1587
8 1587 1456 1586 1708 1458 1323 1459 1588
8 1633 1506 1589 1710 1507 1373 1461 1590
8 1464 1329 1461 1590 1594 1463 1589 1710
8 1468 1336 1462 1591 1595 1464 1590 1711
8 1634 1507 1590 1711 1508 1374 1462 1591
8 1473 1341 1463 1594 1603 1477 1593 1716
8 1469 1337 1464 1595 1599 1473 1594 1717
8 1471 1597 1467 1335 1600 1718 1596 1470
8 1718 1600 1496 1616 1596 1470 1360 1488
8 1336 1468 1597 1471 1472 1598 1719 1601
8 1469 1337 1473 1599 1598 1472 1602 1720
8 1722 1604 1501 1623 1600 1474 1367 1496
8 1475 1601 1471 1339 1604 1722 1600 1474
8 1602 1476 1605 1723 1472 1340 1475 1601
8 1476 1602 1724 1606 1341 1473 1603 1477
8 1483 1347 1478 1609 1612 1482 1608 1731
8 1495 1370 1504 1622 1609 1478 1608 1731
8 1618 1495 1609 1732 1494 1361 1479 1610
8 1484 1348 1479 1610 1613 1483 1609 1732
8 1486 1349 1482 1612 1614 1485 1611 1733
8 1613 1483 1612 1734 1487 1350 1486 1615
8 1489 1363 1496 1616 1617 1499 1623 1736
8 1491 1365 1499 1617 1619 1500 1626 1737
8 1618 1495 1361 1494 1738 1622 1497 1621
8 1739 1625 1498 1620 1619 1500 1366 1492
8 1621 1497 1362 1493 1740 1624 1498 1620
8 1742 1631 1504 1622 1624 1505 1371 1497
8 1743 1628 1502 1626 1623 1501 1368 1499
8 1744 1630 1505 1624 1625 1503 1372 1498
8 1745 1629 1503 1625 1626 1502 1369 1500
8 1520 1398 1528 1644 1633 1506 1632 1751
8 1637 1520 1633 1752 1512 1388 1507 1634
8 1635 1519 1643 1753 1510 1391 1522 1636
8 1657 1535 1643 1753 1534 1406 1519 1635
8 1515 1392 1522 1636 1639 1523 1646 1754
8 1517 1389 1521 1641 1637 1520 1644 1755
8 1524 1638 1756 1648 1393 1514 1639 1523
8 1640 1526 1395 1516 1756 1648 1524 1638
8 1642 1525 1396 1518 1757 1649 1526 1640
8 1758 1645 1521 1641 1642 1525 1396 1518
8 1646 1531 1400 1522 1760 1650 1527 1643
8 1535 1407 1536 1658 1643 1527 1650 1760
8 1521 1399 1529 1645 1644 1528 1651 1761
8 1647 1530 1652 1762 1525 1404 1529 1645
8 1401 1523 1648 1532 1531 1646 1763 1655
8 1525 1404 1533 1649 1647 1530 1654 1765
8 1533 1649 1766 1656 1403 1526 1648 1532
8 1662 1542 1658 1774 1539 1414 1535 1657
8 1542 1415 1543 1664 1658 1536 1659 1775
8 1660 1540 1663 1777 1538 1413 1541 1661
8 1545 1421 1548 1666 1660 1540 1663 1777
8 1662 1542 1414 1539 1778 1664 1541 1661
8 1664 1543 1416 1541 1779 1665 1544 1663
8 1548 1425 1550 1668 1663 1544 1665 1779
8 1547 1423 1549 1667 1666 1548 1668 1781
8 1670 1551 1668 1781 1553 1427 1549 1667
8 1551 1426 1552 1671 1668 1550 1669 1782
8 1670 1551 1427 1553 1784 1671 1554 1674
8 1675 1555 1672 1785 1554 1428 1552 1671
8 1678 1556 1673 1789 1558 1429 1555 1675
8 1561 1431 1558 1681 1674 1554 1675 1790
8 1794 1677 1556 1678 1680 1557 1429 1558
8 1560 1430 1559 1683 1680 1557 1679 1797
8 1561 1431 1560 1684 1681 1558 1680 1798
8 1563 1433 1564 1686 1683 1559 1682 1800
8 1684 1560 1432 1562 1801 1683 1563 1685
8 1565 1435 1566 1688 1685 1563 1686 1802
8 1566 1436 1567 1689 1686 1564 1687 1803
8 1568 1438 1569 1691 1688 1566 1689 1805
8 1569 1439 1570 1692 1689 1567 1690 1806
8 1571 1441 1572 1694 1691 1569 1692 1808
8 1442 1572 1692 1570 1573 1695 1809 1693
8 1574 1444 1575 1696 1694 1572 1695 1810
8 1614 1485 1592 1712 1699 1577 1697 1813
8 1579 1449 1577 1699 1701 1578 1698 1815
8 1615 1486 1614 1735 1702 1579 1699 1816
8 1701 1578 1700 1818 1581 1450 1580 1704
8 1582 1451 1579 1702 1705 1581 1701 1819
8 1704 1580 1703 1820 1584 1452 1583 1706
8 1705 1581 1704 1821 1585 1453 1584 1707
8 1707 1584 1706 1822 1587 1456 1586 1708
8 1710 1589 1506 1633 1824 1709 1632 1751
8 1594 1463 1589 1710 1716 1593 1709 1824
8 1752 1633 1710 1825 1634 1507 1590 1711
8 1595 1464 1590 1711 1717 1594 1710 1825
8 1830 1714 1592 1712 1733 1611 1485 1614
8 1603 1477 1593 1716 1725 1607 1715 1834
8 1599 1473 1594 1717 1721 1603 1716 1835
8 1837 1722 1623 1736 1718 1600 1496 1616
8 1719 1601 1722 1837 1597 1471 1600 1718
8 1602 1720 1598 1472 1723 1838 1719 1601
8 1720 1602 1473 1599 1839 1724 1603 1721
8 1723 1605 1726 1840 1601 1475 1604 1722
8 1840 1726 1628 1743 1722 1604 1501 1623
8 1724 1606 1727 1841 1602 1476 1605 1723
8 1725 1607 1728 1842 1603 1477 1606 1724
8 1612 1482 1608 1731 1733 1611 1730 1849
8 1741 1627 1730 1849 1622 1504 1608 1731
8 1613 1483 1609 1732 1734 1612 1731 1850
8 1618 1495 1622 1738 1732 1609 1731 1850
8 1615 1486 1612 1734 1735 1614 1733 1851
8 1852 1743 1626 1737 1736 1623 1499 1617
8 1853 1745 1625 1739 1737 1626 1500 1619
8 1855 1742 1622 1738 1740 1624 1497 1621
8 1856 1744 1624 1740 1739 1625 1498 1620
8 1741 1627 1504 1622 1857 1746 1631 1742
8 1742 1631 1505 1624 1858 1749 1630 1744
8 1859 1747 1629 1745 1743 1628 1502 1626
8 1860 1748 1630 1744 1745 1629 1503 1625
8 1644 1528 1651 1761 1751 1632 1750 1865
8 1637 1520 1644 1755 1752 1633 1751 1866
8 1754 1646 1522 1636 1867 1760 1643 1753
8 1657 1535 1658 1774 1753 1643 1760 1867
8 1639 1523 1646 1754 1756 1648 1763 1868
8 1641 1521 1645 1758 1755 1644 1761 1869
8 1757 1649 1526 1640 1870 1766 1648 1756
8 1642 1525 1649 1757 1759 1647 1765 1871
8 1759 1647 1762 1872 1642 1525 1645 1758
8 1760 1650 1767 1874 1646 1531 1655 1763
8 1658 1536 1659 1775 1760 1650 1767 1874
8 1762 1652 1768 1875 1645 1529 1651 1761
8 1764 1653 1769 1876 1647 1530 1652 1762
8 1656 1766 1877 1773 1532 1648 1763 1655
8 1771 1879 1765 1654 1653 1764 1647 1530
8 1533 1649 1765 1654 1656 1766 1880 1772
8 1662 1542 1664 1778 1774 1658 1775 1887
8 1664 1543 1665 1779 1775 1659 1776 1888
8 1778 1664 1541 1661 1890 1779 1663 1777
8 1666 1548 1668 1781 1777 1663 1779 1890
8 1782 1669 1780 1891 1668 1550 1665 1779
8 1670 1551 1671 1784 1781 1668 1782 1893
8 1671 1552 1672 1785 1782 1669 1783 1894
8 1790 1675 1785 1896 1674 1554 1671 1784
8 1675 1555 1673 1789 1785 1672 1786 1897
8 1792 1676 1788 1903 1678 1556 1673 1789
8 1795 1678 1789 1904 1681 1558 1675 1790
8 1792 1676 1556 1678 1906 1791 1677 1794
8 1680 1557 1679 1797 1794 1677 1793 1909
8 1910 1794 1678 1795 1798 1680 1558 1681
8 1683 1559 1682 1800 1797 1679 1796 1912
8 1684 1560 1683 1801 1798 1680 1797 1913
8 1686 1564 1687 1803 1800 1682 1799 1915
8 1685 1563 1686 1802 1801 1683 1800 1916
8 1688 1566 1689 1805 1802 1686 1803 1917
8 1689 1567 1690 1806 1803 1687 1804 1918
8 1691 1569 1692 1808 1805 1689 1806 1920
8 1692 1570 1693 1809 1806 1690 1807 1921
8 1694 1572 1695 1810 1808 1692 1809 1922
8 1829 1713 1811 1926 1712 1592 1697 1813
8 1813 1697 1812 1928 1699 1577 1698 1815
8 1735 1614 1712 1828 1816 1699 1813 1929
8 1815 1698 1814 1931 1701 1578 1700 1818
8 1702 1579 1699 1816 1819 1701 1815 1932
8 1818 1700 1817 1933 1704 1580 1703 1820
8 1819 1701 1818 1934 1705 1581 1704 1821
8 1821 1704 1820 1935 1707 1584 1706 1822
8 1824 1709 1632 1751 1937 1823 1750 1865
8 1716 1593 1709 1824 1834 1715 1823 1937
8 1825 1710 1633 1752 1938 1824 1751 1866
8 1717 1594 1710 1825 1835 1716 1824 1938
8 1945 1830 1712 1828 1851 1733 1614 1735
8 1830 1714 1831 1946 1712 1592 1713 1829
8 1947 1832 1714 1830 1849 1730 1611 1733
8 1843 1729 1607 1725 1950 1833 1715 1834
8 1721 1603 1716 1835 1836 1725 1834 1951
8 1836 1725 1842 1953 1721 1603 1724 1839
8 1723 1838 1719 1601 1840 1954 1837 1722
8 1954 1840 1743 1852 1837 1722 1623 1736
8 1724 1839 1720 1602 1841 1955 1838 1723
8 1841 1727 1844 1956 1723 1605 1726 1840
8 1956 1844 1747 1859 1840 1726 1628 1743
8 1728 1842 1724 1606 1845 1957 1841 1727
8 1725 1607 1729 1843 1842 1728 1846 1958
8 1741 1627 1746 1857 1849 1730 1848 1965
8 1734 1612 1731 1850 1851 1733 1849 1966
8 1854 1741 1849 1966 1738 1622 1731 1850
8 1967 1859 1745 1853 1852 1743 1626 1737
8 1968 1860 1744 1856 1853 1745 1625 1739
8 1854 1741 1622 1738 1969 1857 1742 1855
8 1855 1742 1624 1740 1970 1858 1744 1856
8 1857 1746 1631 1742 1971 1861 1749 1858
8 1858 1749 1630 1744 1972 1863 1748 1860
8 1859 1747 1862 1973 1745 1629 1748 1860
8 1875 1768 1864 1977 1761 1651 1750 1865
8 1755 1644 1761 1869 1866 1751 1865 1978
8 1867 1760 1874 1979 1754 1646 1763 1868
8 1774 1658 1775 1887 1867 1760 1874 1979
8 1870 1766 1648 1756 1980 1877 1763 1868
8 1872 1762 1875 1981 1758 1645 1761 1869
8 1757 1649 1766 1870 1871 1765 1880 1982
8 1983 1879 1764 1873 1871 1765 1647 1759
8 1873 1764 1876 1984 1759 1647 1762 1872
8 1877 1773 1655 1763 1986 1881 1767 1874
8 1775 1659 1776 1888 1874 1767 1881 1986
8 1876 1769 1882 1987 1762 1652 1768 1875
8 1878 1770 1883 1988 1764 1653 1769 1876
8 1880 1772 1656 1766 1989 1886 1773 1877
8 1878 1770 1653 1764 1990 1884 1771 1879
8 1765 1654 1772 1880 1879 1771 1885 1991
8 1778 1664 1779 1890 1887 1775 1888 1997
8 1998 1889 1776 1888 1891 1780 1665 1779
8 1893 1782 1891 2000 1781 1668 1779 1890
8 1894 1783 1892 2001 1782 1669 1780 1891
8 1784 1671 1785 1896 1893 1782 1894 2003
8 1897 1786 1895 2004 1785 1672 1783 1894
8 1790 1675 1789 1904 1896 1785 1897 2006
8 1901 1787 1898 2007 1789 1673 1786 1897
8 1903 1788 1900 2013 1789 1673 1787 1901
8 1792 1676 1791 1906 1903 1788 1902 2016
8 1907 1792 1903 2017 1795 1678 1789 1904
8 1906 1791 1677 1794 2019 1905 1793 1909
8 1907 1792 1678 1795 2020 1906 1794 1910
8 1797 1679 1796 1912 1909 1793 1908 2022
8 1798 1680 1797 1913 1910 1794 1909 2023
8 1800 1682 1799 1915 1912 1796 1911 2025
8 1801 1683 1800 1916 1913 1797 1912 2026
8 1803 1687 1804 1918 1915 1799 1914 2028
8 1802 1686 1803 1917 1916 1800 1915 2029
8 1805 1689 1806 1920 1917 1803 1918 2030
8 1806 1690 1807 1921 1918 1804 1919 2031
8 1808 1692 1809 1922 1920 1806 1921 2032
8 1939 1826 1924 2037 1829 1713 1811 1926
8 1926 1811 1925 2039 1813 1697 1812 1928
8 1944 1829 1926 2040 1828 1712 1813 1929
8 1928 1812 1927 2042 1815 1698 1814 1931
8 1929 1813 1928 2043 1816 1699 1815 1932
8 1931 1814 1930 2044 1818 1700 1817 1933
8 1932 1815 1931 2045 1819 1701 1818 1934
8 1934 1818 1933 2046 1821 1704 1820 1935
8 2048 1936 1823 1937 1977 1864 1750 1865
8 1950 1833 1715 1834 2048 1936 1823 1937
8 1938 1824 1751 1866 2049 1937 1865 1978
8 1835 1716 1824 1938 1951 1834 1937 2049
8 1939 1826 1713 1829 2053 1942 1831 1946
8 1940 1827 1923 2035 2053 1942 1826 1939
8 1945 1830 1946 2058 1828 1712 1829 1944
8 2059 1947 1830 1945 1966 1849 1733 1851
8 1947 1832 1730 1849 2060 1948 1848 1965
8 1947 1832 1948 2060 1830 1714 1831 1946
8 1959 1847 1729 1843 2063 1949 1833 1950
8 1952 1843 1725 1836 2064 1950 1834 1951
8 1836 1725 1843 1952 1953 1842 1958 2066
8 1953 1842 1957 2067 1839 1724 1841 1955
8 1841 1955 1838 1723 1956 2068 1954 1840
8 2068 1956 1859 1967 1954 1840 1743 1852
8 1956 1844 1960 2069 1859 1747 1862 1973
8 1845 1957 1841 1727 1960 2069 1956 1844
8 1728 1842 1957 1845 1846 1958 2071 1961
8 1962 2072 1959 1847 1846 1958 1843 1729
8 1971 1861 1964 2077 1857 1746 1848 1965
8 1854 1741 1857 1969 1966 1849 1965 2078
8 1967 1859 1973 2079 1853 1745 1860 1968
8 1970 1858 1744 1856 2080 1972 1860 1968
8 1969 1857 1742 1855 2081 1971 1858 1970
8 1971 1861 1749 1858 2082 1974 1863 1972
8 1973 1862 1975 2083 1860 1748 1863 1972
8 1987 1882 1976 2086 1875 1768 1864 1977
8 1981 1875 1977 2087 1869 1761 1865 1978
8 1980 1877 1763 1868 2088 1986 1874 1979
8 1887 1775 1888 1997 1979 1874 1986 2088
8 1880 1982 2089 1989 1766 1870 1980 1877
8 1984 1876 1987 2090 1872 1762 1875 1981
8 1765 1871 1983 1879 1880 1982 2091 1991
8 1985 1878 1764 1873 2092 1990 1879 1983
8 1985 1878 1988 2093 1873 1764 1876 1984
8 2094 1992 1881 1986 1998 1889 1776 1888
8 1986 1881 1992 2094 1877 1773 1886 1989
8 1988 1883 1993 2095 1876 1769 1882 1987
8 1878 1770 1884 1990 1988 1883 1994 2096
8 1991 1885 1772 1880 2097 1996 1886 1989
8 1879 1771 1885 1991 1990 1884 1995 2098
8 2103 1998 1888 1997 2000 1891 1779 1890
8 2104 1999 1889 1998 2001 1892 1780 1891
8 2003 1894 2001 2106 1893 1782 1891 2000
8 2004 1895 2002 2107 1894 1783 1892 2001
8 2006 1897 2004 2109 1896 1785 1894 2003
8 2007 1898 2005 2110 1897 1786 1895 2004
8 2014 1901 2007 2112 1904 1789 1897 2006
8 2011 1899 2008 2113 1901 1787 1898 2007
8 2119 2010 1899 2011 2013 1900 1787 1901
8 2016 1902 2012 2122 1903 1788 1900 2013
8 2017 1903 2013 2123 1904 1789 1901 2014
8 1906 1791 1905 2019 2016 1902 2015 2125
8 1907 1792 1906 2020 2017 1903 2016 2126
8 1909 1793 1908 2022 2019 1905 2018 2128
8 2020 1906 1794 1910 2129 2019 1909 2023
8 1912 1796 1911 2025 2022 1908 2021 2131
8 1913 1797 1912 2026 2023 1909 2022 2132
8 1915 1799 1914 2028 2025 1911 2024 2134
8 1916 1800 1915 2029 2026 1912 2025 2135
8 1918 1804 1919 2031 2028 1914 2027 2136
8 1917 1803 1918 2030 2029 1915 2028 2137
8 1920 1806 1921 2032 2030 1918 2031 2138
8 1940 1827 1941 2054 2035 1923 2033 2140
8 2035 1923 2034 2143 1939 1826 1924 2037
8 2037 1924 2036 2146 1926 1811 1925 2039
8 2051 1939 2037 2147 1944 1829 1926 2040
8 2039 1925 2038 2149 1928 1812 1927 2042
8 2040 1926 2039 2150 1929 1813 1928 2043
8 2042 1927 2041 2151 1931 1814 1930 2044
8 2043 1928 2042 2152 1932 1815 1931 2045
8 2045 1931 2044 2153 1934 1818 1933 2046
8 2155 2047 1936 2048 2086 1976 1864 1977
8 2063 1949 1833 1950 2155 2047 1936 2048
8 2156 2048 1937 2049 2087 1977 1865 1978
8 2064 1950 1834 1951 2156 2048 1937 2049
8 2051 1939 1829 1944 2160 2053 1946 2058
8 2052 1940 2035 2144 2160 2053 1939 2051
8 2053 1942 1831 1946 2163 2057 1948 2060
8 2055 1943 1827 1940 2163 2057 1942 2053
8 2055 1943 2056 2164 1940 1827 1941 2054
8 2059 1947 1849 1966 2167 2060 1965 2078
8 2059 1947 2060 2167 1945 1830 1946 2058
8 2077 1964 2061 2168 1965 1848 1948 2060
8 2070 1963 1847 1959 2170 2062 1949 2063
8 2065 1959 1843 1952 2171 2063 1950 2064
8 2173 2072 1958 2066 2065 1959 1843 1952
8 1953 1842 1958 2066 2067 1957 2071 2174
8 2068 1956 2069 2175 1967 1859 1973 2079
8 2067 1957 2069 2175 1955 1841 1956 2068
8 1845 1957 2069 1960 1961 2071 2176 2073
8 2069 1960 2073 2176 1973 1862 1975 2083
8 2070 1963 2075 2177 1959 1847 1962 2072
8 1846 1958 2071 1961 1962 2072 2178 2074
8 2077 1964 1861 1971 2182 2076 1974 2082
8 2081 1971 2077 2183 1969 1857 1965 2078
8 2079 1973 2083 2184 1968 1860 1972 2080
8 2081 1971 1858 1970 2185 2082 1972 2080
8 2083 1975 2084 2186 1972 1863 1974 2082
8 2086 1976 1882 1987 2189 2085 1993 2095
8 2090 1987 2086 2190 1981 1875 1977 2087
8 2191 2094 1986 2088 2103 1998 1888 1997
8 2088 1986 2094 2191 1980 1877 1989 2089
8 1991 2091 2192 2097 1880 1982 2089 1989
8 2093 1988 2095 2193 1984 1876 1987 2090
8 1879 1983 2092 1990 1991 2091 2194 2098
8 1985 1878 1990 2092 2093 1988 2096 2195
8 2097 1996 1886 1989 2196 2099 1992 2094
8 2196 2099 1992 2094 2104 1999 1889 1998
8 1994 2096 1988 1883 2100 2197 2095 1993
8 2096 1994 1884 1990 2198 2101 1995 2098
8 1995 2098 2199 2102 1885 1991 2097 1996
8 2203 2104 1998 2103 2106 2001 1891 2000
8 2107 2002 2105 2204 2001 1892 1999 2104
8 2109 2004 2107 2206 2003 1894 2001 2106
8 2110 2005 2108 2207 2004 1895 2002 2107
8 2112 2007 2110 2209 2006 1897 2004 2109
8 2113 2008 2111 2210 2007 1898 2005 2110
8 2120 2011 2113 2212 2014 1901 2007 2112
8 2117 2009 2114 2213 2011 1899 2008 2113
8 2219 2116 2009 2117 2119 2010 1899 2011
8 2222 2118 2010 2119 2122 2012 1900 2013
8 2223 2119 2011 2120 2123 2013 1901 2014
8 2016 1902 2015 2125 2122 2012 2121 2225
8 2126 2016 2122 2226 2017 1903 2013 2123
8 2019 1905 2018 2128 2125 2015 2124 2228
8 2020 1906 2019 2129 2126 2016 2125 2229
8 2022 1908 2021 2131 2128 2018 2127 2231
8 2023 1909 2022 2132 2129 2019 2128 2232
8 2025 1911 2024 2134 2131 2021 2130 2234
8 2026 1912 2025 2135 2132 2022 2131 2235
8 1914 2028 2134 2024 2027 2136 2236 2133
8 2029 1915 2028 2137 2135 2025 2134 2237
8 2030 1918 2031 2138 2137 2028 2136 2238
8 2157 2050 2139 2240 2054 1941 2033 2140
8 2052 1940 2054 2161 2144 2035 2140 2242
8 2140 2033 2141 2243 2035 1923 2034 2143
8 2143 2034 2142 2246 2037 1924 2036 2146
8 2144 2035 2143 2247 2051 1939 2037 2147
8 2146 2036 2145 2249 2039 1925 2038 2149
8 2147 2037 2146 2250 2040 1926 2039 2150
8 2149 2038 2148 2251 2042 1927 2041 2151
8 2150 2039 2149 2252 2043 1928 2042 2152
8 2152 2042 2151 2253 2045 1931 2044 2153
8 2255 2154 2047 2155 2189 2085 1976 2086
8 2170 2062 1949 2063 2255 2154 2047 2155
8 2256 2155 2048 2156 2190 2086 1977 2087
8 2171 2063 1950 2064 2256 2155 2048 2156
8 2258 2159 2050 2157 2164 2056 1941 2054
8 2160 2053 1946 2058 2262 2163 2060 2167
8 2162 2055 1940 2052 2262 2163 2053 2160
8 2162 2055 2164 2263 2052 1940 2054 2161
8 2163 2057 1948 2060 2264 2165 2061 2168
8 2055 1943 2057 2163 2164 2056 2165 2264
8 2182 2076 2166 2268 2077 1964 2061 2168
8 2183 2077 2168 2269 2078 1965 2060 2167
8 2070 1963 2062 2170 2177 2075 2169 2271
8 2172 2070 1959 2065 2272 2170 2063 2171
8 2172 2070 2177 2273 2065 1959 2072 2173
8 2066 1958 2072 2173 2174 2071 2178 2274
8 2067 1957 2071 2174 2175 2069 2176 2275
8 2175 2069 2176 2275 2079 1973 2083 2184
8 2071 1961 2074 2178 2176 2073 2179 2276
8 2176 2073 2179 2276 2083 1975 2084 2186
8 2072 1962 2075 2177 2178 2074 2180 2277
8 2182 2076 1974 2082 2280 2181 2084 2186
8 2183 2077 1971 2081 2281 2182 2082 2185
8 2184 2083 2186 2282 2080 1972 2082 2185
8 2189 2085 1993 2095 2285 2188 2100 2197
8 2190 2086 1987 2090 2286 2189 2095 2193
8 2192 2097 1989 2089 2287 2196 2094 2191
8 2287 2196 2094 2191 2203 2104 1998 2103
8 2194 2098 1991 2091 2288 2199 2097 2192
8 2195 2096 2197 2289 2093 1988 2095 2193
8 2096 2195 2290 2198 1990 2092 2194 2098
8 2097 1996 2099 2196 2199 2102 2200 2291
8 2196 2099 1999 2104 2291 2200 2105 2204
8 2100 2197 2292 2201 1994 2096 2198 2101
8 1995 2098 2198 2101 2102 2199 2293 2202
8 2206 2107 2204 2296 2106 2001 2104 2203
8 2207 2108 2205 2297 2107 2002 2105 2204
8 2209 2110 2207 2299 2109 2004 2107 2206
8 2210 2111 2208 2300 2110 2005 2108 2207
8 2212 2113 2210 2302 2112 2007 2110 2209
8 2213 2114 2211 2303 2113 2008 2111 2210
8 2220 2117 2213 2305 2120 2011 2113 2212
8 2216 2115 2214 2306 2117 2009 2114 2213
8 2216 2115 2009 2117 2311 2217 2116 2219
8 2219 2116 2010 2119 2314 2218 2118 2222
8 2315 2219 2117 2220 2223 2119 2011 2120
8 2122 2012 2121 2225 2222 2118 2221 2317
8 2318 2222 2119 2223 2226 2122 2013 2123
8 2125 2015 2124 2228 2225 2121 2224 2320
8 2126 2016 2125 2229 2226 2122 2225 2321
8 2128 2018 2127 2231 2228 2124 2227 2323
8 2129 2019 2128 2232 2229 2125 2228 2324
8 2131 2021 2130 2234 2231 2127 2230 2326
8 2132 2022 2131 2235 2232 2128 2231 2327
8 2134 2024 2133 2236 2234 2130 2233 2328
8 2135 2025 2134 2237 2235 2131 2234 2329
8 2137 2028 2136 2238 2237 2134 2236 2330
8 2157 2050 2158 2259 2240 2139 2239 2332
8 2257 2157 2240 2334 2161 2054 2140 2242
8 2240 2139 2241 2335 2140 2033 2141 2243
8 2242 2140 2243 2337 2144 2035 2143 2247
8 2243 2141 2244 2338 2143 2034 2142 2246
8 2246 2142 2245 2341 2146 2036 2145 2249
8 2247 2143 2246 2342 2147 2037 2146 2250
8 2249 2145 2248 2343 2149 2038 2148 2251
8 2250 2146 2249 2344 2150 2039 2149 2252
8 2252 2149 2251 2345 2152 2042 2151 2253
8 2169 2271 2347 2254 2062 2170 2255 2154
8 2189 2085 2188 2285 2255 2154 2254 2347
8 2348 2255 2155 2256 2286 2189 2086 2190
8 2272 2170 2063 2171 2348 2255 2155 2256
8 2349 2258 2157 2257 2263 2164 2054 2161
8 2258 2159 2261 2351 2157 2050 2158 2259
8 2258 2159 2056 2164 2351 2261 2165 2264
8 2262 2163 2060 2167 2355 2264 2168 2269
8 2162 2055 2163 2262 2263 2164 2264 2355
8 2357 2266 2165 2264 2268 2166 2061 2168
8 2268 2166 2076 2182 2361 2267 2181 2280
8 2281 2182 2268 2362 2183 2077 2168 2269
8 2271 2169 2270 2364 2177 2075 2180 2277
8 2172 2070 2170 2272 2273 2177 2271 2365
8 2072 2173 2274 2178 2177 2273 2366 2277
8 2071 2174 2275 2176 2178 2274 2367 2276
8 2275 2176 2276 2367 2184 2083 2186 2282
8 2283 2187 2084 2186 2368 2278 2179 2276
8 2178 2074 2180 2277 2276 2179 2278 2368
8 2283 2187 2279 2370 2186 2084 2181 2280
8 2281 2182 2082 2185 2371 2280 2186 2282
8 2188 2285 2374 2284 2100 2197 2292 2201
8 2286 2189 2095 2193 2375 2285 2197 2289
8 2192 2097 2196 2287 2288 2199 2291 2376
8 2287 2196 2104 2203 2376 2291 2204 2296
8 2194 2098 2199 2288 2290 2198 2293 2377
8 2289 2197 2096 2195 2378 2292 2198 2290
8 2291 2200 2105 2204 2379 2294 2205 2297
8 2199 2102 2200 2291 2293 2202 2294 2379
8 2198 2101 2202 2293 2292 2201 2295 2380
8 2299 2207 2297 2383 2206 2107 2204 2296
8 2300 2208 2298 2384 2207 2108 2205 2297
8 2302 2210 2300 2386 2209 2110 2207 2299
8 2303 2211 2301 2387 2210 2111 2208 2300
8 2305 2213 2303 2389 2212 2113 2210 2302
8 2306 2214 2304 2390 2213 2114 2211 2303
8 2310 2216 2306 2392 2220 2117 2213 2305
8 2308 2215 2307 2393 2216 2115 2214 2306
8 2308 2215 2115 2216 2396 2309 2217 2311
8 2310 2216 2117 2220 2398 2311 2219 2315
8 2311 2217 2116 2219 2399 2312 2218 2314
8 2314 2218 2118 2222 2402 2313 2221 2317
8 2315 2219 2119 2223 2403 2314 2222 2318
8 2225 2121 2224 2320 2317 2221 2316 2405
8 2226 2122 2225 2321 2318 2222 2317 2406
8 2228 2124 2227 2323 2320 2224 2319 2408
8 2229 2125 2228 2324 2321 2225 2320 2409
8 2231 2127 2230 2326 2323 2227 2322 2411
8 2232 2128 2231 2327 2324 2228 2323 2412
8 2234 2130 2233 2328 2326 2230 2325 2413
8 2235 2131 2234 2329 2327 2231 2326 2414
8 2237 2134 2236 2330 2329 2234 2328 2415
8 2259 2158 2260 2352 2332 2239 2331 2417
8 2257 2157 2259 2350 2334 2240 2332 2419
8 2240 2139 2239 2332 2335 2241 2333 2420
8 2334 2240 2335 2422 2242 2140 2243 2337
8 2335 2241 2336 2423 2243 2141 2244 2338
8 2337 2243 2338 2425 2247 2143 2246 2342
8 2338 2244 2339 2426 2246 2142 2245 2341
8 2341 2245 2340 2428 2249 2145 2248 2343
8 2342 2246 2341 2429 2250 2146 2249 2344
8 2344 2249 2343 2430 2252 2149 2251 2345
8 2188 2285 2347 2254 2284 2374 2432 2346
8 2347 2254 2346 2432 2271 2169 2270 2364
8 2365 2271 2170 2272 2433 2347 2255 2348
8 2286 2189 2285 2375 2348 2255 2347 2433
8 2349 2258 2351 2435 2257 2157 2259 2350
8 2349 2258 2164 2263 2435 2351 2264 2355
8 2259 2158 2261 2351 2352 2260 2354 2437
8 2356 2265 2354 2437 2264 2165 2261 2351
8 2441 2357 2264 2355 2362 2268 2168 2269
8 2356 2265 2165 2264 2442 2358 2266 2357
8 2443 2359 2266 2357 2361 2267 2166 2268
8 2370 2279 2360 2446 2280 2181 2267 2361
8 2362 2268 2182 2281 2447 2361 2280 2371
8 2180 2277 2368 2278 2270 2364 2449 2363
8 2271 2365 2273 2177 2364 2450 2366 2277
8 2372 2283 2186 2282 2451 2368 2276 2367
8 2178 2274 2367 2276 2277 2366 2451 2368
8 2283 2187 2278 2368 2370 2279 2369 2452
8 2372 2283 2370 2453 2282 2186 2280 2371
8 2284 2374 2455 2373 2201 2292 2380 2295
8 2375 2285 2197 2289 2456 2374 2292 2378
8 2376 2291 2204 2296 2457 2379 2297 2383
8 2288 2199 2291 2376 2377 2293 2379 2457
8 2198 2290 2378 2292 2293 2377 2458 2380
8 2293 2202 2294 2379 2380 2295 2381 2459
8 2384 2298 2381 2459 2297 2205 2294 2379
8 2386 2300 2384 2463 2299 2207 2297 2383
8 2387 2301 2385 2464 2300 2208 2298 2384
8 2389 2303 2387 2466 2302 2210 2300 2386
8 2390 2304 2388 2467 2303 2211 2301 2387
8 2392 2306 2390 2469 2305 2213 2303 2389
8 2393 2307 2391 2470 2306 2214 2304 2390
8 2395 2308 2393 2472 2310 2216 2306 2392
8 2308 2215 2309 2396 2393 2307 2394 2473
8 2395 2308 2216 2310 2475 2396 2311 2398
8 2396 2309 2217 2311 2476 2397 2312 2399
8 2398 2311 2219 2315 2478 2399 2314 2403
8 2399 2312 2218 2314 2479 2400 2313 2402
8 2317 2221 2316 2405 2402 2313 2401 2482
8 2403 2314 2222 2318 2483 2402 2317 2406
8 2320 2224 2319 2408 2405 2316 2404 2485
8 2321 2225 2320 2409 2406 2317 2405 2486
8 2323 2227 2322 2411 2408 2319 2407 2488
8 2324 2228 2323 2412 2409 2320 2408 2489
8 2326 2230 2325 2413 2411 2322 2410 2490
8 2327 2231 2326 2414 2412 2323 2411 2491
8 2329 2234 2328 2415 2414 2326 2413 2492
8 2417 2331 2260 2352 2494 2416 2353 2438
8 2350 2259 2352 2436 2419 2332 2417 2496
8 2332 2239 2331 2417 2420 2333 2418 2497
8 2334 2240 2332 2419 2422 2335 2420 2499
8 2420 2333 2421 2500 2335 2241 2336 2423
8 2422 2335 2423 2502 2337 2243 2338 2425
8 2423 2336 2424 2503 2338 2244 2339 2426
8 2425 2338 2426 2505 2342 2246 2341 2429
8 2426 2339 2427 2506 2341 2245 2340 2428
8 2429 2341 2428 2507 2344 2249 2343 2430
8 2432 2346 2284 2374 2509 2431 2373 2455
8 2432 2346 2431 2509 2364 2270 2363 2449
8 2375 2285 2374 2456 2433 2347 2432 2510
8 2347 2433 2365 2271 2432 2510 2450 2364
8 2350 2259 2351 2435 2436 2352 2437 2514
8 2440 2356 2437 2514 2355 2264 2351 2435
8 2352 2260 2354 2437 2438 2353 2439 2516
8 2356 2265 2358 2442 2437 2354 2439 2516
8 2440 2356 2264 2355 2518 2442 2357 2441
8 2519 2443 2357 2441 2447 2361 2268 2362
8 2443 2359 2444 2520 2357 2266 2358 2442
8 2443 2359 2267 2361 2520 2444 2360 2446
8 2446 2360 2279 2370 2523 2445 2369 2452
8 2453 2370 2446 2524 2371 2280 2361 2447
8 2449 2363 2448 2525 2368 2278 2369 2452
8 2366 2277 2364 2450 2451 2368 2449 2526
8 2372 2283 2368 2451 2453 2370 2452 2527
8 2455 2373 2295 2380 2529 2454 2382 2460
8 2456 2374 2292 2378 2530 2455 2380 2458
8 2377 2293 2379 2457 2458 2380 2459 2531
8 2463 2384 2459 2531 2383 2297 2379 2457
8 2533 2461 2382 2460 2459 2381 2295 2380
8 2464 2385 2461 2533 2384 2298 2381 2459
8 2466 2387 2464 2537 2386 2300 2384 2463
8 2467 2388 2465 2538 2387 2301 2385 2464
8 2469 2390 2467 2540 2389 2303 2387 2466
8 2470 2391 2468 2541 2390 2304 2388 2467
8 2472 2393 2470 2543 2392 2306 2390 2469
8 2393 2307 2394 2473 2470 2391 2471 2544
8 2395 2308 2396 2475 2472 2393 2473 2546
8 2396 2309 2397 2476 2473 2394 2474 2547
8 2475 2396 2311 2398 2549 2476 2399 2478
8 2476 2397 2312 2399 2550 2477 2400 2479
8 2478 2399 2314 2403 2552 2479 2402 2483
8 2479 2400 2313 2402 2553 2480 2401 2482
8 2405 2316 2404 2485 2482 2401 2481 2556
8 2406 2317 2405 2486 2483 2402 2482 2557
8 2408 2319 2407 2488 2485 2404 2484 2559
8 2409 2320 2408 2489 2486 2405 2485 2560
8 2411 2322 2410 2490 2488 2407 2487 2561
8 2412 2323 2411 2491 2489 2408 2488 2562
8 2414 2326 2413 2492 2491 2411 2490 2563
8 2513 2434 2493 2565 2438 2353 2416 2494
8 2496 2417 2352 2436 2567 2494 2438 2515
8 2494 2416 2495 2568 2417 2331 2418 2497
8 2419 2332 2417 2496 2499 2420 2497 2570
8 2497 2418 2498 2571 2420 2333 2421 2500
8 2499 2420 2500 2573 2422 2335 2423 2502
8 2500 2421 2501 2574 2423 2336 2424 2503
8 2502 2423 2503 2576 2425 2338 2426 2505
8 2503 2424 2504 2577 2426 2339 2427 2506
8 2505 2426 2506 2578 2429 2341 2428 2507
8 2509 2431 2373 2455 2580 2508 2454 2529
8 2509 2431 2508 2580 2449 2363 2448 2525
8 2432 2510 2581 2509 2374 2456 2530 2455
8 2432 2510 2450 2364 2509 2581 2526 2449
8 2583 2511 2434 2513 2516 2439 2353 2438
8 2436 2352 2437 2514 2515 2438 2516 2588
8 2440 2356 2442 2518 2514 2437 2516 2588
8 2442 2358 2444 2520 2516 2439 2517 2589
8 2519 2443 2520 2591 2441 2357 2442 2518
8 2519 2443 2361 2447 2591 2520 2446 2524
8 2446 2360 2445 2523 2520 2444 2521 2592
8 2525 2448 2522 2593 2452 2369 2445 2523
8 2524 2446 2370 2453 2594 2523 2452 2527
8 2526 2449 2525 2595 2451 2368 2452 2527
8 2534 2462 2528 2597 2460 2382 2454 2529
8 2530 2455 2380 2458 2598 2529 2460 2532
8 2599 2533 2460 2532 2531 2459 2380 2458
8 2537 2464 2533 2599 2463 2384 2459 2531
8 2534 2462 2382 2460 2601 2535 2461 2533
8 2538 2465 2535 2601 2464 2385 2461 2533
8 2540 2467 2538 2604 2466 2387 2464 2537
8 2541 2468 2539 2605 2467 2388 2465 2538
8 2543 2470 2541 2607 2469 2390 2467 2540
8 2470 2391 2471 2544 2541 2468 2542 2608
8 2472 2393 2473 2546 2543 2470 2544 2610
8 2473 2394 2474 2547 2544 2471 2545 2611
8 2475 2396 2476 2549 2546 2473 2547 2613
8 2476 2397 2477 2550 2547 2474 2548 2614
8 2549 2476 2399 2478 2616 2550 2479 2552
8 2479 2400 2480 2553 2550 2477 2551 2617
8 2552 2479 2402 2483 2619 2553 2482 2557
8 2482 2401 2481 2556 2553 2480 2554 2620
8 2485 2404 2484 2559 2556 2481 2555 2623
8 2486 2405 2485 2560 2557 2482 2556 2624
8 2488 2407 2487 2561 2559 2484 2558 2625
8 2489 2408 2488 2562 2560 2485 2559 2626
8 2491 2411 2490 2563 2562 2488 2561 2627
8 2513 2434 2512 2585 2565 2493 2564 2630
8 2586 2513 2565 2632 2515 2438 2494 2567
8 2565 2493 2566 2633 2494 2416 2495 2568
8 2567 2494 2568 2635 2496 2417 2497 2570
8 2568 2495 2569 2636 2497 2418 2498 2571
8 2570 2497 2571 2638 2499 2420 2500 2573
8 2571 2498 2572 2639 2500 2421 2501 2574
8 2573 2500 2574 2641 2502 2423 2503 2576
8 2574 2501 2575 2642 2503 2424 2504 2577
8 2576 2503 2577 2643 2505 2426 2506 2578
8 2597 2528 2579 2645 2529 2454 2508 2580
8 2580 2508 2579 2645 2525 2448 2522 2593
8 2581 2509 2455 2530 2646 2580 2529 2598
8 2581 2509 2580 2646 2526 2449 2525 2595
8 2583 2511 2582 2648 2513 2434 2512 2585
8 2583 2511 2439 2516 2648 2582 2517 2589
8 2649 2583 2513 2586 2588 2516 2438 2515
8 2589 2517 2444 2520 2653 2587 2521 2592
8 2518 2442 2520 2591 2588 2516 2589 2654
8 2593 2522 2590 2655 2523 2445 2521 2592
8 2524 2446 2523 2594 2591 2520 2592 2656
8 2595 2525 2593 2657 2527 2452 2523 2594
8 2602 2536 2596 2659 2534 2462 2528 2597
8 2600 2534 2597 2660 2532 2460 2529 2598
8 2600 2534 2460 2532 2661 2601 2533 2599
8 2604 2538 2601 2661 2537 2464 2533 2599
8 2602 2536 2462 2534 2663 2603 2535 2601
8 2601 2535 2465 2538 2663 2603 2539 2605
8 2607 2541 2605 2665 2540 2467 2538 2604
8 2608 2542 2606 2666 2541 2468 2539 2605
8 2543 2470 2544 2610 2607 2541 2608 2668
8 2544 2471 2545 2611 2608 2542 2609 2669
8 2546 2473 2547 2613 2610 2544 2611 2671
8 2547 2474 2548 2614 2611 2545 2612 2672
8 2549 2476 2550 2616 2613 2547 2614 2674
8 2550 2477 2551 2617 2614 2548 2615 2675
8 2552 2479 2553 2619 2616 2550 2617 2677
8 2553 2480 2554 2620 2617 2551 2618 2678
8 2557 2482 2556 2624 2619 2553 2620 2680
8 2556 2481 2555 2623 2620 2554 2621 2681
8 2559 2484 2558 2625 2623 2555 2622 2683
8 2560 2485 2559 2626 2624 2556 2623 2684
8 2562 2488 2561 2627 2626 2559 2625 2685
8 2690 2629 2564 2630 2650 2584 2512 2585
8 2586 2513 2585 2651 2632 2565 2630 2691
8 2630 2564 2631 2692 2565 2493 2566 2633
8 2632 2565 2633 2694 2567 2494 2568 2635
8 2633 2566 2634 2695 2568 2495 2569 2636
8 2635 2568 2636 2697 2570 2497 2571 2638
8 2636 2569 2637 2698 2571 2498 2572 2639
8 2638 2571 2639 2700 2573 2500 2574 2641
8 2639 2572 2640 2701 2574 2501 2575 2642
8 2641 2574 2642 2702 2576 2503 2577 2643
8 2597 2528 2596 2659 2645 2579 2644 2704
8 2645 2579 2644 2704 2593 2522 2590 2655
8 2660 2597 2645 2705 2598 2529 2580 2646
8 2646 2580 2645 2705 2595 2525 2593 2657
8 2650 2584 2512 2585 2707 2647 2582 2648
8 2648 2582 2517 2589 2707 2647 2587 2653
8 2649 2583 2648 2708 2586 2513 2585 2651
8 2649 2583 2516 2588 2708 2648 2589 2654
8 2655 2590 2652 2710 2592 2521 2587 2653
8 2654 2589 2520 2591 2711 2653 2592 2656
8 2657 2593 2655 2712 2594 2523 2592 2656
8 2602 2536 2603 2663 2659 2596 2658 2714
8 2662 2602 2659 2715 2600 2534 2597 2660
8 2662 2602 2534 2600 2717 2663 2601 2661
8 2661 2601 2538 2604 2717 2663 2605 2665
8 2666 2606 2664 2718 2605 2539 2603 2663
8 2668 2608 2666 2720 2607 2541 2605 2665
8 2608 2542 2609 2669 2666 2606 2667 2721
8 2610 2544 2611 2671 2668 2608 2669 2723
8 2611 2545 2612 2672 2669 2609 2670 2724
8 2613 2547 2614 2674 2671 2611 2672 2726
8 2614 2548 2615 2675 2672 2612 2673 2727
8 2616 2550 2617 2677 2674 2614 2675 2729
8 2617 2551 2618 2678 2675 2615 2676 2730
8 2619 2553 2620 2680 2677 2617 2678 2732
8 2620 2554 2621 2681 2678 2618 2679 2733
8 2624 2556 2623 2684 2680 2620 2681 2735
8 2681 2621 2555 2623 2736 2682 2622 2683
8 2626 2559 2625 2685 2684 2623 2683 2737
8 2688 2628 2584 2650 2740 2686 2647 2707
8 2688 2628 2687 2742 2650 2584 2629 2690
8 2690 2629 2689 2745 2630 2564 2631 2692
8 2746 2690 2630 2691 2709 2650 2585 2651
8 2691 2630 2692 2747 2632 2565 2633 2694
8 2692 2631 2693 2748 2633 2566 2634 2695
8 2694 2633 2695 2750 2635 2568 2636 2697
8 2695 2634 2696 2751 2636 2569 2637 2698
8 2697 2636 2698 2753 2638 2571 2639 2700
8 2698 2637 2699 2754 2639 2572 2640 2701
8 2700 2639 2701 2755 2641 2574 2642 2702
8 2659 2596 2658 2714 2704 2644 2703 2757
8 2704 2644 2703 2757 2655 2590 2652 2710
8 2660 2597 2659 2715 2705 2645 2704 2758
8 2705 2645 2704 2758 2657 2593 2655 2712
8 2759 2706 2647 2707 2710 2652 2587 2653
8 2709 2650 2585 2651 2760 2707 2648 2708
8 2708 2648 2589 2654 2760 2707 2653 2711
8 2712 2655 2710 2761 2656 2592 2653 2711
8 2763 2713 2658 2714 2718 2664 2603 2663
8 2662 2602 2663 2717 2715 2659 2714 2764
8 2720 2666 2718 2767 2665 2605 2663 2717
8 2768 2719 2664 2718 2721 2667 2606 2666
8 2668 2608 2669 2723 2720 2666 2721 2770
8 2669 2609 2670 2724 2721 2667 2722 2771
8 2671 2611 2672 2726 2723 2669 2724 2773
8 2672 2612 2673 2727 2724 2670 2725 2774
8 2674 2614 2675 2729 2726 2672 2727 2776
8 2675 2615 2676 2730 2727 2673 2728 2777
8 2677 2617 2678 2732 2729 2675 2730 2779
8 2678 2618 2679 2733 2730 2676 2731 2780
8 2680 2620 2681 2735 2732 2678 2733 2782
8 2733 2679 2621 2681 2783 2734 2682 2736
8 2735 2681 2623 2684 2784 2736 2683 2737
8 2740 2686 2647 2707 2787 2738 2706 2759
8 2688 2628 2686 2740 2742 2687 2739 2789
8 2743 2688 2650 2709 2790 2740 2707 2760
8 2742 2687 2741 2792 2690 2629 2689 2745
8 2743 2688 2742 2793 2709 2650 2690 2746
8 2745 2689 2744 2795 2692 2631 2693 2748
8 2746 2690 2745 2796 2691 2630 2692 2747
8 2747 2692 2748 2797 2694 2633 2695 2750
8 2748 2693 2749 2798 2695 2634 2696 2751
8 2750 2695 2751 2800 2697 2636 2698 2753
8 2751 2696 2752 2801 2698 2637 2699 2754
8 2753 2698 2754 2802 2700 2639 2701 2755
8 2763 2713 2756 2804 2714 2658 2703 2757
8 2759 2706 2652 2710 2804 2756 2703 2757
8 2715 2659 2714 2764 2758 2704 2757 2805
8 2758 2704 2757 2805 2712 2655 2710 2761
8 2806 2759 2707 2760 2761 2710 2653 2711
8 2765 2716 2762 2808 2718 2664 2713 2763
8 2809 2763 2714 2764 2767 2718 2663 2717
8 2765 2716 2664 2718 2811 2766 2719 2768
8 2813 2768 2718 2767 2770 2721 2666 2720
8 2814 2769 2719 2768 2771 2722 2667 2721
8 2723 2669 2724 2773 2770 2721 2771 2816
8 2724 2670 2725 2774 2771 2722 2772 2817
8 2726 2672 2727 2776 2773 2724 2774 2819
8 2727 2673 2728 2777 2774 2725 2775 2820
8 2729 2675 2730 2779 2776 2727 2777 2822
8 2730 2676 2731 2780 2777 2728 2778 2823
8 2732 2678 2733 2782 2779 2730 2780 2825
8 2780 2731 2679 2733 2826 2781 2734 2783
8 2782 2733 2681 2735 2827 2783 2736 2784
8 2830 2785 2738 2787 2804 2756 2706 2759
8 2789 2739 2686 2740 2832 2786 2738 2787
8 2790 2740 2707 2760 2833 2787 2759 2806
8 2742 2687 2739 2789 2792 2741 2788 2835
8 2743 2688 2740 2790 2793 2742 2789 2836
8 2792 2741 2791 2838 2745 2689 2744 2795
8 2793 2742 2792 2839 2746 2690 2745 2796
8 2795 2744 2794 2841 2748 2693 2749 2798
8 2796 2745 2795 2842 2747 2692 2748 2797
8 2797 2748 2798 2843 2750 2695 2751 2800
8 2798 2749 2799 2844 2751 2696 2752 2801
8 2800 2751 2801 2845 2753 2698 2754 2802
8 2808 2762 2803 2847 2763 2713 2756 2804
8 2809 2763 2804 2848 2764 2714 2757 2805
8 2806 2759 2710 2761 2848 2804 2757 2805
8 2765 2716 2766 2811 2808 2762 2807 2850
8 2810 2765 2808 2851 2767 2718 2763 2809
8 2810 2765 2718 2767 2852 2811 2768 2813
8 2811 2766 2719 2768 2853 2812 2769 2814
8 2855 2814 2768 2813 2816 2771 2721 2770
8 2856 2815 2769 2814 2817 2772 2722 2771
8 2773 2724 2774 2819 2816 2771 2817 2858
8 2774 2725 2775 2820 2817 2772 2818 2859
8 2776 2727 2777 2822 2819 2774 2820 2861
8 2777 2728 2778 2823 2820 2775 2821 2862
8 2779 2730 2780 2825 2822 2777 2823 2864
8 2823 2778 2731 2780 2865 2824 2781 2826
8 2825 2780 2733 2782 2866 2826 2783 2827
8 2869 2828 2785 2830 2847 2803 2756 2804
8 2871 2829 2786 2832 2830 2785 2738 2787
8 2872 2830 2787 2833 2848 2804 2759 2806
8 2789 2739 2786 2832 2835 2788 2831 2874
8 2836 2789 2740 2790 2875 2832 2787 2833
8 2792 2741 2788 2835 2838 2791 2834 2877
8 2793 2742 2789 2836 2839 2792 2835 2878
8 2838 2791 2837 2880 2795 2744 2794 2841
8 2839 2792 2838 2881 2796 2745 2795 2842
8 2841 2794 2840 2882 2798 2749 2799 2844
8 2842 2795 2841 2883 2797 2748 2798 2843
8 2843 2798 2844 2884 2800 2751 2801 2845
8 2886 2846 2803 2847 2850 2807 2762 2808
8 2851 2808 2847 2887 2809 2763 2804 2848
8 2850 2807 2766 2811 2889 2849 2812 2853
8 2810 2765 2811 2852 2851 2808 2850 2890
8 2852 2811 2768 2813 2891 2853 2814 2855
8 2853 2812 2769 2814 2892 2854 2815 2856
8 2894 2856 2814 2855 2858 2817 2771 2816
8 2817 2772 2818 2859 2856 2815 2857 2895
8 2819 2774 2820 2861 2858 2817 2859 2897
8 2820 2775 2821 2862 2859 2818 2860 2898
8 2822 2777 2823 2864 2861 2820 2862 2900
8 2823 2778 2824 2865 2862 2821 2863 2901
8 2864 2823 2780 2825 2902 2865 2826 2866
8 2904 2867 2828 2869 2886 2846 2803 2847
8 2869 2828 2868 2906 2830 2785 2829 2871
8 2907 2869 2830 2872 2887 2847 2804 2848
8 2871 2829 2870 2909 2832 2786 2831 2874
8 2910 2871 2832 2875 2872 2830 2787 2833
8 2835 2788 2831 2874 2877 2834 2873 2912
8 2836 2789 2832 2875 2878 2835 2874 2913
8 2877 2834 2876 2915 2838 2791 2837 2880
8 2839 2792 2835 2878 2881 2838 2877 2916
8 2880 2837 2879 2917 2841 2794 2840 2882
8 2881 2838 2880 2918 2842 2795 2841 2883
8 2883 2841 2882 2919 2843 2798 2844 2884
8 2921 2885 2846 2886 2889 2849 2807 2850
8 2922 2886 2847 2887 2890 2850 2808 2851
8 2889 2849 2812 2853 2924 2888 2854 2892
8 2890 2850 2811 2852 2925 2889 2853 2891
8 2891 2853 2814 2855 2926 2892 2856 2894
8 2892 2854 2815 2856 2927 2893 2857 2895
8 2858 2817 2859 2897 2894 2856 2895 2929
8 2859 2818 2860 2898 2895 2857 2896 2930
8 2861 2820 2862 2900 2897 2859 2898 2932
8 2862 2821 2863 2901 2898 2860 2899 2933
8 2864 2823 2865 2902 2900 2862 2901 2934
8 2904 2867 2846 2886 2936 2903 2885 2921
8 2904 2867 2903 2936 2869 2828 2868 2906
8 2937 2904 2869 2907 2922 2886 2847 2887
8 2906 2868 2905 2939 2871 2829 2870 2909
8 2907 2869 2906 2940 2872 2830 2871 2910
8 2909 2870 2908 2942 2874 2831 2873 2912
8 2910 2871 2909 2943 2875 2832 2874 2913
8 2912 2873 2911 2945 2877 2834 2876 2915
8 2878 2835 2874 2913 2916 2877 2912 2946
8 2915 2876 2914 2947 2880 2837 2879 2917
8 2916 2877 2915 2948 2881 2838 2880 2918
8 2918 2880 2917 2949 2883 2841 2882 2919
8 2921 2885 2849 2889 2951 2920 2888 2924
8 2952 2921 2886 2922 2925 2889 2850 2890
8 2924 2888 2854 2892 2954 2923 2893 2927
8 2925 2889 2853 2891 2955 2924 2892 2926
8 2926 2892 2856 2894 2956 2927 2895 2929
8 2895 2857 2896 2930 2927 2893 2928 2957
8 2897 2859 2898 2932 2929 2895 2930 2959
8 2898 2860 2899 2933 2930 2896 2931 2960
8 2900 2862 2901 2934 2932 2898 2933 2961
8 2936 2903 2885 2921 2963 2935 2920 2951
8 2936 2903 2935 2963 2906 2868 2905 2939
8 2937 2904 2886 2922 2964 2936 2921 2952
8 2937 2904 2936 2964 2907 2869 2906 2940
8 2939 2905 2938 2966 2909 2870 2908 2942
8 2940 2906 2939 2967 2910 2871 2909 2943
8 2942 2908 2941 2969 2912 2873 2911 2945
8 2943 2909 2942 2970 2913 2874 2912 2946
8 2945 2911 2944 2971 2915 2876 2914 2947
8 2946 2912 2945 2972 2916 2877 2915 2948
8 2948 2915 2947 2973 2918 2880 2917 2949
8 2951 2920 2888 2924 2975 2950 2923 2954
8 2952 2921 2889 2925 2976 2951 2924 2955
8 2927 2893 2928 2957 2954 2923 2953 2978
8 2955 2924 2892 2926 2979 2954 2927 2956
8 2929 2895 2930 2959 2956 2927 2957 2980
8 2930 2896 2931 2960 2957 2928 2958 2981
8 2932 2898 2933 2961 2959 2930 2960 2982
8 2951 2920 2950 2975 2963 2935 2962 2984
8 2963 2935 2962 2984 2939 2905 2938 2966
8 2964 2936 2921 2952 2985 2963 2951 2976
8 2964 2936 2963 2985 2940 2906 2939 2967
8 2966 2938 2965 2987 2942 2908 2941 2969
8 2967 2939 2966 2988 2943 2909 2942 2970
8 2969 2941 2968 2989 2945 2911 2944 2971
8 2970 2942 2969 2990 2946 2912 2945 2972
8 2972 2945 2971 2991 2948 2915 2947 2973
8 2954 2923 2953 2978 2975 2950 2974 2993
8 2976 2951 2924 2955 2994 2975 2954 2979
8 2957 2928 2958 2981 2978 2953 2977 2995
8 2956 2927 2957 2980 2979 2954 2978 2996
8 2959 2930 2960 2982 2980 2957 2981 2997
8 2984 2962 2983 2999 2966 2938 2965 2987
8 2975 2950 2974 2993 2984 2962 2983 2999
8 2976 2951 2975 2994 2985 2963 2984 3000
8 2985 2963 2984 3000 2967 2939 2966 2988
8 2987 2965 2986 3001 2969 2941 2968 2989
8 2988 2966 2987 3002 2970 2942 2969 2990
8 2990 2969 2989 3003 2972 2945 2971 2991
8 2978 2953 2977 2995 2993 2974 2992 3004
8 2979 2954 2978 2996 2994 2975 2993 3005
8 2980 2957 2981 2997 2996 2978 2995 3006
8 2974 2993 2999 2983 2992 3004 3007 2998
8 2983 2999 2987 2965 2998 3007 3001 2986
8 3000 2984 2999 3008 2988 2966 2987 3002
8 2994 2975 2993 3005 3000 2984 2999 3008
8 3002 2987 3001 3009 2990 2969 2989 3003
8 2996 2978 2995 3006 3005 2993 3004 3010
8 3005 2993 3004 3010 3008 2999 3007 3011
8 3008 2999 3007 3011 3002 2987 3001 3009

CELL_TYPES 1910
12
12
12
12
12
12
12
12
12
12
12
12
12
12
12
12
12
12
12
12
12
12
12
12
12
12
12
12
12
12
12
12
12
12
12
12
12
12
12
12
12
12
12
12
12
12
12
12
12
12
12
12
12
12
12
12
12
12
12
12
12
12
12
12
12
12
12
12
12
12
12
12
12
12
12
12
12
12
12
12
12
12
12
12
12
12
12
12
12
12
12
12
12
12
12
12
12
12
12
12
12
12
12
12
12
12
12
12
12
12
12
12
12
12
12
12
12
12
12
12
12
12
12
12
12
12
12
12
12
12
12
12
12
12
12
12
12
12
12
12
12
12
12
12
12
12
12
12
12
12
12
12
12
12
12
12
12
12
12
12
12
12
12
12
12
12
12
12
12
12
12
12
12
12
12
12
12
12
12
12
12
12
12
12
12
12
12
12
12
12
12
12
12
12
12
12
12
12
12
12
12
12
12
12
12
12
12
12
12
12
12
12
12
12
12
12
12
12
12
12
12
12
12
12
12
12
12
12
12
12
12
12
12
12
12
12
12
12
12
12
12
12
12
12
12
12
12
12
12
12
12
12
12
12
12
12
12
12
12
12
12
12
12
12
12
12
12
12
12
12
12
12
12
12
12
12
12
12
12
12
12
12
12
12
12
12
12
12
12
12
12
12
12
12
12
12
12
12
12
12
12
12
12
12
12
12
12
12
12
12
12
12
12
12
12
12
12
12
12
12
12
12
12
12
12
12
12
12
12
12
12
12
12
12
12
12
12
12
12
12
12
12
12
12
12
12
12
12
12
12
12
12
12
12
12
12
12
12
12
12
12
12
12
12
12
12
12
12
12
12
12
12
12
12
12
12
12
12
12
12
12
12
12
12
12
12
12
12
12
12
12
12
12
12
12
12
12
12
12
12
12
12
12
12
12
12
12
12
12
12
12
12
12
12
12
12
12
12
12
12
12
12
12
12
12
12
12
12
12
12
12
12
12
12
12
12
12
12
12
12
12
12
12
12
12
12
12
12
12
12
12
12
12
12
12
12
12
12
12
12
12
12
12
12
12
12
12
12
12
12
12
12
12
12
12
12
12
12
12
12
12
12
12
12
12
12
12
12
12
12
12
12
12
12
12
12
12
12
12
12
12
12
12
12
12
12
12
12
12
12
12
12
12
12
12
12
12
12
12
12
12
12
12
12
12
12
12
12
12
12
12
12
12
12
12
12
12
12
12
12
12
12
12
12
12
12
12
12
12
12
12
12
12
12
12
12
12
12
12
12
12
12
12
12
12
12
12
12
12
12
12
12
12
12
12
12
12
12
12
12
12
12
12
12
12
12
12
12
12
12
12
12
12
12
12
12
12
12
12
12
12
12
12
12
12
12
12
12
12
12
12
12
12
12
12
12
12
12
12
12
12
12
12
12
12
12
12
12
12
12
12
12
12
12
12
12
12
12
12
12
12
12
12
12
12
12
12
12
12
12
12
12
12
12
12
12
12
12
12
12
12
12
12
12
12
12
12
12
12
12
12
12
12
12
12
12
12
12
12
12
12
12
12
12
12
12
12
12
12
12
12
12
12
12
12
12
12
12
12
12
12
12
12
12
12
12
12
12
12
12
12
12
12
12
12
12
12
12
12
12
12
12
12
12
12
12
12
12
12
12
12
12
12
12
12
12
12
12
12
12
12
12
12
12
12
12
12
12
12
12
12
12
12
12
12
12
12
12
12
12
12
12
12
12
12
12
12
12
12
12
12
12
12
12
12
12
12
12
12
12
12
12
12
12
12
12
12
12
12
12
12
12
12
12
12
12
12
12
12
12
12
12
12
12
12
12
12
12
12
12
12
12
12
12
12
12
12
12
12
12
12
12
12
12
12
12
12
12
12
12
12
12
12
12
12
12
12
12
12
12
12
12
12
12
12
12
12
12
12
12
12
12
12
12
12
12
12
12
12
12
12
12
12
12
12
12
12
12
12
12
12
12
12
12
12
12
12
12
12
12
12
12
12
12
12
12
12
12
12
12
12
12
12
12
12
12
12
12
12
12
12
12
12
12
12
12
12
12
12
12
12
12
12
12
12
12
12
12
12
12
12
12
12
12
12
12
12
12
12
12
12
12
12
12
12
12
12
12
12
12
12
12
12
12
12
12
12
12
12
12
12
12
12
12
12
12
12
12
12
12
12
12
12
12
12
12
12
12
12
12
12
12
12
12
12
12
12
12
12
12
12
12
12
12
12
12
12
12
12
12
12
12
12
12
12
12
12
12
12
12
12
12
12
12
12
12
12
12
12
12
12
12
12
12
12
12
12
12
12
12
12
12
12
12
12
12
12
12
12
12
12
12
12
12
12
12
12
12
12
12
12
12
12
12
12
12
12
12
12
12
12
12
12
12
12
12
12
12
12
12
12
12
12
12
12
12
12
12
12
12
12
12
12
12
12
12
12
12
12
12
12
12
12
12
12
12
12
12
12
12
12
12
12
12
12
12
12
12
12
12
12
12
12
12
12
12
12
12
12
12
12
12
12
12
12
12
12
12
12
12
12
12
12
12
12
12
12
12
12
12
12
12
12
12
12
12
12
12
12
12
12
12
12
12
12
12
12
12
12
12
12
12
12
12
12
12
12
12
12
12
12
12
12
12
12
12
12
12
12
12
12
12
12
12
12
12
12
12
12
12
12
12
12
12
12
12
12
12
12
12
12
12
12
12
12
12
12
12
12
12
12
12
12
12
12
12
12
12
12
12
12
12
12
12
12
12
12
12
12
12
12
12
12
12
12
12
12
12
12
12
12
12
12
12
12
12
12
12
12
12
12
12
12
12
12
12
12
12
12
12
12
12
12
12
12
12
12
12
12
12
12
12
12
12
12
12
12
12
12
12
12
12
12
12
12
12
12
12
12
12
12
12
12
12
12
12
12
12
12
12
12
12
12
12
12
12
12
12
12
12
12
12
12
12
12
12
12
12
12
12
12
12
12
12
12
12
12
12
12
12
12
12
12
12
12
12
12
12
12
12
12
12
12
12
12
12
12
12
12
12
12
12
12
12
12
12
12
12
12
12
12
12
12
12
12
12
12
12
12
12
12
12
12
12
12
12
12
12
12
12
12
12
12
12
12
12
12
12
12
12
12
12
12
12
12
12
12
12
12
12
12
12
12
12
12
12
12
12
12
12
12
12
12
12
12
12
12
12
12
12
12
12
12
12
12
12
12
12
12
12
12
12
12
12
12
12
12
12
12
12
12
12
12
12
12
12
12
12
12
12
12
12
12
12
12
12
12
12
12
12
12
12
12
12
12
12
12
12
12
12
12
12
12
12
12
12
12
12
12
12
12
12
12
12
12
12
12
12
12
12
12
12
12
12
12
12
12
12
12
12
12
12
12
12
12
12
12
12
12
12
12
12
12
12
12
12
12
12
12
12
12
12
12
12
12
12
12
12
12
12
12
12
12
12
12
12
12
12
12
12
12
12
12
12
12
12
12
12
12
12
12
12
12
12
12
12
12
12
12
12
12
12
12
12
12
12
12
12
12
12
12
12
12
12
12
12
12
12
12
12
12
12
12
12
12
12
12
12
12
12
12
12
12
12
12
12
12
12
12
12
12
12
12
12
12
12
12
12
12
12
12
12
12
12
12
12
12
12
12
12
12
12
12
12
12
12
12
12
12
12
12
12
12
12
12
12
12
12
12
12
12
12
12
12
12
12
12
12
12
12
12
12
12
12
12
12
12
12
12
12
12
12
12
12
12
12
12
12
12
12
12
12
12
12
12
12
12
12
12
12
12
12
12
12
12
12
12
12
12
12
12
12
12
12
12
12
12
12
12
12
12
12
12
12
12
12
12
12
12
12
12
12
12
12
12
12
12
12
12
12
12
12
12
12
12
12
12
12
12
12
12
12
12
12
12
12
12
12
12
12
12
12
12
12
12
12
12
12
12
12
12
12
12
12
12
12
12
12
12
12
12
12
12
12
12
12
12
12
12
12
12
12
12
12
12
12
12
12
12
12
12
12
12
12
12
12
12
12
12
12
12
12
12
12
12
12
12
12
12
12
12
12
12
12
12
12
12
12
12
12
12
12
12
12
12
12
12
12
12
12
12
12
12
12
12
12
12
12
12
12
12
12
12
12
12
12
12
12
12
12
12
12
12
12
12
12
12
12
12
12
12
12
12
12
12
12
12
12
12
12
12
12
12
12
12
12
12
12
12
12
12
12
12
12
12
12
12
12
12
12
12
12
12
12
12
12
12
12
12
12
12
12
12
12
12
12
12
12
12
12
12
12
12
12
12
12
12
12
12
12
12
12
12
12
12
12
12
12
12
12

POINT_DATA 3012
SCALARS Jp_lamdaP float 4
LOOKUP_TABLE default
1 1 1 1
1 1 1 1
1 1 1 1
1 1 1 1
1 1 1 1
1 1 1 1
0.999957 1 1 0.999957
1 1 1 1
1 1 1 1
1 1 1 1
1 1 1 1
0.999996 1 1 0.999996
0.999999 1 1 0.999999
1 1 1 1
1 1 1 1
1 1 1 1
1 1 1 1
1 1 1 1
0.999958 1 1 0.999958
1 1 1 1
1 1 1 1
1 1 1 1
0.99992 1 1 0.99992
0.999947 1 1 0.999947
1 1 1 1
0.999969 1 1 0.999969
0.999861 1 1 0.999861
1 1 1 1
1 1 1 1
1 1 1 1
1 1 1 1
0.999997 1 1 0.999997
1 1 1 1
1 1 1 1
0.999972 1 1 0.999972
1 1 1 1
0.999991 1 1 0.999991
0.999999 1 1 0.999999
0.999885 1 1 0.999885
1 1 1 1
1 1 1 1
1 1 1 1
1 1 1 1
1 1 1 1
0.999934 1 1 0.999934
1 1 1 1
0.999953 1 1 0.999953
1 1 1 1
1 1 1 1
1 1 1 1
0.999958 1 1 0.999958
1 1 1 1
1 1 1 1
1 1 1 1
1 1 1 1
0.999921 1 1 0.999921
0.999969 1 1 0.999969
0.999947 1 1 0.999947
0.999857 1 1 0.999857
1 1 1 1
1 1 1 1
0.99994 1 1 0.99994
0.99991 1 1 0.99991
0.999934 1 1 0.999934
0.999769 1 1 0.999769
0.999822 1 1 0.999822
1 1 1 1
0.999979 1 1 0.999979
0.999887 1 1 0.999887
0.999718 1 1 0.999718
1 1 1 1
1 1 1 1
1 1 1 1
0.999998 1 1 0.999998
1 1 1 1
1 1 1 1
0.999976 1 1 0.999976
1 1 1 1
0.999993 1 1 0.999993
0.999999 1 1 0.999999
0.999885 1 1 0.999885
1 1 1 1
1 1 1 1
0.999964 1 1 0.999964
0.999983 1 1 0.999983
0.99981 1 1 0.99981
1 1 1 1
0.999873 1 1 0.999873
0.999899 1 1 0.999899
0.999777 1 1 0.999777
1 1 1 1
1 1 1 1
1 1 1 1
1 1 1 1
1 1 1 1
1 1 1 1
0.999937 1 1 0.999937
1 1 1 1
0.999955 1 1 0.999955
1 1 1 1
0.999925 1 1 0.999925
0.999946 1 1 0.999946
0.999691 1 1 0.999691
0.999958 1 1 0.999958
0.999727 1 1 0.999727
0.999999 1 1 0.999999
1 1 1 1
1 1 1 1
1 1 1 1
0.999921 1 1 0.999921
0.999948 1 1 0.999948
0.99997 1 1 0.99997
0.999854 1 1 0.999854
1 1 1 1
1 1 1 1
0.99992 1 1 0.99992
0.999911 1 1 0.999911
1 1 1 1
0.999989 1 1 0.999989
0.999935 1 1 0.999935
0.99976 1 1 0.99976
0.999883 1 1 0.999883
0.999828 1 1 0.999828
0.999719 1 1 0.999719
0.999931 1 1 0.999931
0.999908 1 1 0.999908
0.999713 1 1 0.999713
0.999733 1 1 0.999733
0.999789 1 1 0.999789
0.999633 1 1 0.999633
1 1 1 1
0.999701 1 1 0.999701
1 1 1 1
0.999892 1 1 0.999892
0.999737 1 1 0.999737
0.999663 1 1 0.999663
1 1 1 1
0.999925 1 1 0.999925
1 1 1 1
1 1 1 1
0.999979 1 1 0.999979
1 1 1 1
1 1 1 1
0.999994 1 1 0.999994
0.999885 1 1 0.999885
1 1 1 1
1 1 1 1
0.999966 1 1 0.999966
0.999986 1 1 0.999986
0.99981 1 1 0.99981
1 1 1 1
0.999873 1 1 0.999873
0.999899 1 1 0.999899
0.999774 1 1 0.999774
1 1 1 1
1 1 1 1
0.999933 1 1 0.999933
0.999775 1 1 0.999775
0.999847 1 1 0.999847
0.99969 1 1 0.99969
0.999915 1 1 0.999915
0.999762 1 1 0.999762
0.999784 1 1 0.999784
0.999729 1 1 0.999729
1 1 1 1
1 1 1 1
1 1 1 1
1 1 1 1
1 1 1 1
1 1 1 1
1 1 1 1
0.999956 1 1 0.999956
0.999939 1 1 0.999939
1 1 1 1
1 1 1 1
0.999926 1 1 0.999926
0.999948 1 1 0.999948
0.999691 1 1 0.999691
0.99996 1 1 0.99996
0.999727 1 1 0.999727
0.999923 1 1 0.999923
0.999674 1 1 0.999674
0.99971 1 1 0.99971
0.999577 1 1 0.999577
0.999748 1 1 0.999748
0.999616 1 1 0.999616
1 1 1 1
1 1 1 1
0.9999 1 1 0.9999
0.999911 1 1 0.999911
1 1 1 1
0.999998 1 1 0.999998
0.999936 1 1 0.999936
0.999751 1 1 0.999751
0.999835 1 1 0.999835
0.999879 1 1 0.999879
0.99972 1 1 0.99972
0.999929 1 1 0.999929
0.999908 1 1 0.999908
0.999694 1 1 0.999694
0.999739 1 1 0.999739
1 1 1 1
1 1 1 1
0.999899 1 1 0.999899
0.99979 1 1 0.99979
0.999622 1 1 0.999622
0.999735 1 1 0.999735
0.999706 1 1 0.999706
0.999664 1 1 0.999664
1 1 1 1
0.999925 1 1 0.999925
0.999679 1 1 0.999679
0.999723 1 1 0.999723
0.999589 1 1 0.999589
0.999586 1 1 0.999586
0.999679 1 1 0.999679
0.99958 1 1 0.99958
1 1 1 1
0.99965 1 1 0.99965
0.999904 1 1 0.999904
0.999761 1 1 0.999761
0.999679 1 1 0.999679
0.999649 1 1 0.999649
0.999915 1 1 0.999915
0.999943 1 1 0.999943
0.999788 1 1 0.999788
0.999969 1 1 0.999969
1 1 1 1
1 1 1 1
0.999988 1 1 0.999988
0.999811 1 1 0.999811
1 1 1 1
0.999899 1 1 0.999899
0.999873 1 1 0.999873
0.99977 1 1 0.99977
1 1 1 1
1 1 1 1
0.999933 1 1 0.999933
0.999775 1 1 0.999775
0.999848 1 1 0.999848
0.99969 1 1 0.99969
0.999915 1 1 0.999915
0.999766 1 1 0.999766
0.999783 1 1 0.999783
0.999724 1 1 0.999724
1 1 1 1
0.999925 1 1 0.999925
0.999945 1 1 0.999945
0.999806 1 1 0.999806
0.999658 1 1 0.999658
0.999735 1 1 0.999735
0.999631 1 1 0.999631
0.999797 1 1 0.999797
0.999715 1 1 0.999715
0.999713 1 1 0.999713
0.999689 1 1 0.999689
0.999981 1 1 0.999981
1 1 1 1
1 1 1 1
1 1 1 1
1 1 1 1
1 1 1 1
1 1 1 1
1 1 1 1
1 1 1 1
0.999961 1 1 0.999961
0.99995 1 1 0.99995
0.999728 1 1 0.999728
0.999691 1 1 0.999691
0.999927 1 1 0.999927
1 1 1 1
0.999923 1 1 0.999923
0.999674 1 1 0.999674
0.99971 1 1 0.99971
0.999577 1 1 0.999577
0.999748 1 1 0.999748
0.999616 1 1 0.999616
0.99967 1 1 0.99967
0.999561 1 1 0.999561
0.999596 1 1 0.999596
0.999542 1 1 0.999542
0.999637 1 1 0.999637
0.999577 1 1 0.999577
0.999928 1 1 0.999928
0.999909 1 1 0.999909
0.999676 1 1 0.999676
0.999745 1 1 0.999745
1 1 1 1
1 1 1 1
0.999906 1 1 0.999906
0.999791 1 1 0.999791
0.999611 1 1 0.999611
0.999711 1 1 0.999711
0.999733 1 1 0.999733
0.999665 1 1 0.999665
1 1 1 1
0.999925 1 1 0.999925
0.999672 1 1 0.999672
0.999723 1 1 0.999723
0.999585 1 1 0.999585
0.999598 1 1 0.999598
1 1 1 1
0.999904 1 1 0.999904
0.999769 1 1 0.999769
0.999679 1 1 0.999679
0.999577 1 1 0.999577
0.999671 1 1 0.999671
0.99965 1 1 0.99965
0.999648 1 1 0.999648
0.999916 1 1 0.999916
0.999785 1 1 0.999785
0.999943 1 1 0.999943
0.99958 1 1 0.99958
0.999588 1 1 0.999588
0.999531 1 1 0.999531
0.999544 1 1 0.999544
0.999626 1 1 0.999626
0.999582 1 1 0.999582
0.999911 1 1 0.999911
0.999642 1 1 0.999642
0.999794 1 1 0.999794
0.999692 1 1 0.999692
0.999632 1 1 0.999632
0.999666 1 1 0.999666
0.999963 1 1 0.999963
0.999794 1 1 0.999794
0.99978 1 1 0.99978
0.999731 1 1 0.999731
0.999775 1 1 0.999775
1 1 1 1
1 1 1 1
0.999933 1 1 0.999933
0.999849 1 1 0.999849
0.99969 1 1 0.99969
0.999916 1 1 0.999916
0.999783 1 1 0.999783
0.99977 1 1 0.99977
0.999719 1 1 0.999719
1 1 1 1
0.999925 1 1 0.999925
0.999945 1 1 0.999945
0.999805 1 1 0.999805
0.999657 1 1 0.999657
0.999736 1 1 0.999736
0.999631 1 1 0.999631
0.999797 1 1 0.999797
0.99972 1 1 0.99972
0.999712 1 1 0.999712
0.9997 1 1 0.9997
1 1 1 1
0.999958 1 1 0.999958
0.999804 1 1 0.999804
0.999812 1 1 0.999812
0.999729 1 1 0.999729
0.999607 1 1 0.999607
0.999678 1 1 0.999678
0.99961 1 1 0.99961
0.99972 1 1 0.99972
0.999684 1 1 0.999684
0.999641 1 1 0.999641
0.999975 1 1 0.999975
0.999869 1 1 0.999869
0.999986 1 1 0.999986
0.999983 1 1 0.999983
1 1 1 1
1 1 1 1
1 1 1 1
1 1 1 1
1 1 1 1
1 1 1 1
1 1 1 1
1 1 1 1
1 1 1 1
1 1 1 1
1 1 1 1
0.999748 1 1 0.999748
0.99971 1 1 0.99971
0.999616 1 1 0.999616
0.999577 1 1 0.999577
0.999674 1 1 0.999674
0.999922 1 1 0.999922
0.99967 1 1 0.99967
0.999561 1 1 0.999561
0.999596 1 1 0.999596
0.99954 1 1 0.99954
0.999636 1 1 0.999636
0.999577 1 1 0.999577
0.999556 1 1 0.999556
0.99953 1 1 0.99953
0.999555 1 1 0.999555
0.999534 1 1 0.999534
0.999595 1 1 0.999595
0.999592 1 1 0.999592
0.999665 1 1 0.999665
0.999723 1 1 0.999723
0.999582 1 1 0.999582
0.999609 1 1 0.999609
1 1 1 1
0.999904 1 1 0.999904
0.999776 1 1 0.999776
0.999679 1 1 0.999679
0.999575 1 1 0.999575
0.99965 1 1 0.99965
0.999663 1 1 0.999663
0.999647 1 1 0.999647
0.999916 1 1 0.999916
0.999781 1 1 0.999781
0.999942 1 1 0.999942
0.999572 1 1 0.999572
0.999588 1 1 0.999588
0.999525 1 1 0.999525
0.999546 1 1 0.999546
0.999911 1 1 0.999911
0.999793 1 1 0.999793
0.9997 1 1 0.9997
0.999629 1 1 0.999629
0.999586 1 1 0.999586
0.999625 1 1 0.999625
0.999642 1 1 0.999642
0.99967 1 1 0.99967
0.999795 1 1 0.999795
0.999725 1 1 0.999725
0.999962 1 1 0.999962
0.999782 1 1 0.999782
0.99952 1 1 0.99952
0.999527 1 1 0.999527
0.999497 1 1 0.999497
0.999539 1 1 0.999539
0.999628 1 1 0.999628
0.999604 1 1 0.999604
0.999799 1 1 0.999799
0.999676 1 1 0.999676
0.999726 1 1 0.999726
0.999638 1 1 0.999638
0.999602 1 1 0.999602
0.999672 1 1 0.999672
0.999975 1 1 0.999975
0.999798 1 1 0.999798
0.999738 1 1 0.999738
0.999709 1 1 0.999709
0.999701 1 1 0.999701
1 1 1 1
0.999657 1 1 0.999657
0.999945 1 1 0.999945
0.999925 1 1 0.999925
0.999805 1 1 0.999805
0.999736 1 1 0.999736
0.999631 1 1 0.999631
0.999797 1 1 0.999797
0.99971 1 1 0.99971
0.999725 1 1 0.999725
0.99971 1 1 0.99971
1 1 1 1
0.999958 1 1 0.999958
0.999804 1 1 0.999804
0.999812 1 1 0.999812
0.999728 1 1 0.999728
0.999606 1 1 0.999606
0.999678 1 1 0.999678
0.999607 1 1 0.999607
0.999721 1 1 0.999721
0.999688 1 1 0.999688
0.999647 1 1 0.999647
0.999968 1 1 0.999968
0.999824 1 1 0.999824
0.999727 1 1 0.999727
0.99973 1 1 0.99973
0.999696 1 1 0.999696
0.999596 1 1 0.999596
0.999649 1 1 0.999649
0.999628 1 1 0.999628
0.999655 1 1 0.999655
0.999606 1 1 0.999606
0.999977 1 1 0.999977
0.999838 1 1 0.999838
0.999861 1 1 0.999861
0.999785 1 1 0.999785
0.999878 1 1 0.999878
0.99999 1 1 0.99999
0.999987 1 1 0.999987
1 1 1 1
0.999984 1 1 0.999984
1 1 1 1
1 1 1 1
1 1 1 1
1 1 1 1
1 1 1 1
1 1 1 1
1 1 1 1
1 1 1 1
1 1 1 1
1 1 1 1
1 1 1 1
0.999636 1 1 0.999636
0.999596 1 1 0.999596
0.999577 1 1 0.999577
0.999539 1 1 0.999539
0.999561 1 1 0.999561
0.99967 1 1 0.99967
0.999556 1 1 0.999556
0.999528 1 1 0.999528
0.999555 1 1 0.999555
0.999532 1 1 0.999532
0.999594 1 1 0.999594
0.999592 1 1 0.999592
0.99952 1 1 0.99952
0.999523 1 1 0.999523
0.999553 1 1 0.999553
0.999525 1 1 0.999525
0.9996 1 1 0.9996
0.999612 1 1 0.999612
0.999564 1 1 0.999564
0.999587 1 1 0.999587
0.999519 1 1 0.999519
0.999548 1 1 0.999548
0.999912 1 1 0.999912
0.999793 1 1 0.999793
0.999707 1 1 0.999707
0.999632 1 1 0.999632
0.99959 1 1 0.99959
0.999643 1 1 0.999643
0.999618 1 1 0.999618
0.999673 1 1 0.999673
0.999796 1 1 0.999796
0.999718 1 1 0.999718
0.99996 1 1 0.99996
0.999784 1 1 0.999784
0.99952 1 1 0.99952
0.999528 1 1 0.999528
0.999495 1 1 0.999495
0.99954 1 1 0.99954
0.9998 1 1 0.9998
0.999732 1 1 0.999732
0.999638 1 1 0.999638
0.999625 1 1 0.999625
0.999617 1 1 0.999617
0.999599 1 1 0.999599
0.999677 1 1 0.999677
0.999683 1 1 0.999683
0.999738 1 1 0.999738
0.999698 1 1 0.999698
0.999707 1 1 0.999707
0.999964 1 1 0.999964
0.999801 1 1 0.999801
0.999497 1 1 0.999497
0.999485 1 1 0.999485
0.999561 1 1 0.999561
0.999654 1 1 0.999654
0.999746 1 1 0.999746
0.999715 1 1 0.999715
0.999681 1 1 0.999681
0.999571 1 1 0.999571
0.999579 1 1 0.999579
0.999964 1 1 0.999964
0.999841 1 1 0.999841
0.999719 1 1 0.999719
0.999713 1 1 0.999713
0.999653 1 1 0.999653
0.999675 1 1 0.999675
1 1 1 1
0.999959 1 1 0.999959
0.999605 1 1 0.999605
0.999812 1 1 0.999812
0.999804 1 1 0.999804
0.999726 1 1 0.999726
0.999679 1 1 0.999679
0.999605 1 1 0.999605
0.999722 1 1 0.999722
0.999652 1 1 0.999652
0.999691 1 1 0.999691
0.999969 1 1 0.999969
0.999823 1 1 0.999823
0.999732 1 1 0.999732
0.99973 1 1 0.99973
0.999691 1 1 0.999691
0.999595 1 1 0.999595
0.999647 1 1 0.999647
0.999631 1 1 0.999631
0.99965 1 1 0.99965
0.999597 1 1 0.999597
0.999837 1 1 0.999837
0.999723 1 1 0.999723
0.999678 1 1 0.999678
0.999676 1 1 0.999676
0.999663 1 1 0.999663
0.999666 1 1 0.999666
0.999595 1 1 0.999595
0.999614 1 1 0.999614
0.999604 1 1 0.999604
0.999518 1 1 0.999518
0.999979 1 1 0.999979
0.999844 1 1 0.999844
0.999745 1 1 0.999745
0.999853 1 1 0.999853
0.999878 1 1 0.999878
0.999773 1 1 0.999773
0.99971 1 1 0.99971
0.999769 1 1 0.999769
0.999886 1 1 0.999886
0.999992 1 1 0.999992
0.999991 1 1 0.999991
1 1 1 1
0.999989 1 1 0.999989
1 1 1 1
1 1 1 1
1 1 1 1
1 1 1 1
1 1 1 1
1 1 1 1
1 1 1 1
1 1 1 1
1 1 1 1
1 1 1 1
1 1 1 1
0.999594 1 1 0.999594
0.999556 1 1 0.999556
0.999593 1 1 0.999593
0.99953 1 1 0.99953
0.999526 1 1 0.999526
0.999556 1 1 0.999556
0.999519 1 1 0.999519
0.999524 1 1 0.999524
0.999549 1 1 0.999549
0.999518 1 1 0.999518
0.9996 1 1 0.9996
0.999622 1 1 0.999622
0.99952 1 1 0.99952
0.999524 1 1 0.999524
0.999552 1 1 0.999552
0.999664 1 1 0.999664
0.999521 1 1 0.999521
0.99953 1 1 0.99953
0.999492 1 1 0.999492
0.999541 1 1 0.999541
0.9998 1 1 0.9998
0.999738 1 1 0.999738
0.999637 1 1 0.999637
0.999622 1 1 0.999622
0.999631 1 1 0.999631
0.999677 1 1 0.999677
0.999595 1 1 0.999595
0.999695 1 1 0.999695
0.999738 1 1 0.999738
0.999696 1 1 0.999696
0.999706 1 1 0.999706
0.999952 1 1 0.999952
0.999805 1 1 0.999805
0.999495 1 1 0.999495
0.99949 1 1 0.99949
0.999566 1 1 0.999566
0.999746 1 1 0.999746
0.999689 1 1 0.999689
0.999569 1 1 0.999569
0.999648 1 1 0.999648
0.999595 1 1 0.999595
0.999712 1 1 0.999712
0.999964 1 1 0.999964
0.999713 1 1 0.999713
0.99968 1 1 0.99968
0.999655 1 1 0.999655
0.999722 1 1 0.999722
0.999832 1 1 0.999832
0.999488 1 1 0.999488
0.999481 1 1 0.999481
0.999605 1 1 0.999605
0.999708 1 1 0.999708
0.999713 1 1 0.999713
0.999635 1 1 0.999635
0.999607 1 1 0.999607
0.999519 1 1 0.999519
0.999973 1 1 0.999973
0.999864 1 1 0.999864
0.999747 1 1 0.999747
0.999635 1 1 0.999635
0.999682 1 1 0.999682
0.999634 1 1 0.999634
0.999971 1 1 0.999971
0.999823 1 1 0.999823
0.999594 1 1 0.999594
0.999729 1 1 0.999729
0.999736 1 1 0.999736
0.999687 1 1 0.999687
0.999645 1 1 0.999645
0.999633 1 1 0.999633
0.999646 1 1 0.999646
0.999589 1 1 0.999589
0.999837 1 1 0.999837
0.999726 1 1 0.999726
0.999685 1 1 0.999685
0.99968 1 1 0.99968
0.999667 1 1 0.999667
0.99967 1 1 0.99967
0.999599 1 1 0.999599
0.999635 1 1 0.999635
0.999598 1 1 0.999598
0.99951 1 1 0.99951
0.999732 1 1 0.999732
0.999654 1 1 0.999654
0.999631 1 1 0.999631
0.999635 1 1 0.999635
0.99967 1 1 0.99967
0.999672 1 1 0.999672
0.999513 1 1 0.999513
0.999944 1 1.00046 0.999487
0.99985 1 1 0.99985
0.999751 1 1 0.999751
0.99969 1 1 0.99969
0.999878 1 1 0.999878
0.999761 1 1 0.999761
0.999886 1 1 0.999886
0.999702 1 1 0.999702
0.999774 1 1 0.999774
0.999654 1 1 0.999654
0.999698 1 1 0.999698
0.999776 1 1 0.999776
0.99989 1 1 0.99989
0.999993 1 1 0.999993
0.999992 1 1 0.999992
1 1 1 1
0.999991 1 1 0.999991
1 1 1 1
1 1 1 1
1 1 1 1
1 1 1 1
1 1 1 1
1 1 1 1
1 1 1 1
1 1 1 1
1 1 1 1
1 1 1 1
1 1 1 1
0.9996 1 1 0.9996
0.999545 1 1 0.999545
0.999633 1 1 0.999633
0.999512 1 1 0.999512
0.999525 1 1 0.999525
0.999518 1 1 0.999518
0.999519 1 1 0.999519
0.999523 1 1 0.999523
0.999558 1 1 0.999558
0.99966 1 1 0.99966
0.999522 1 1 0.999522
0.999541 1 1 0.999541
0.999611 1 1 0.999611
0.999493 1 1 0.999493
0.999495 1 1 0.999495
0.999571 1 1 0.999571
0.999745 1 1 0.999745
0.999697 1 1 0.999697
0.999568 1 1 0.999568
0.999643 1 1 0.999643
0.999709 1 1 0.999709
0.999611 1 1 0.999611
0.999712 1 1 0.999712
0.999685 1 1 0.999685
0.999657 1 1 0.999657
0.999964 1 1 0.999964
0.999726 1 1 0.999726
0.999823 1 1 0.999823
0.999494 1 1 0.999494
0.999479 1 1 0.999479
0.999596 1 1 0.999596
0.999712 1 1 0.999712
0.999618 1 1 0.999618
0.999524 1 1 0.999524
0.999714 1 1 0.999714
0.999634 1 1 0.999634
0.999982 1 1 0.999982
0.999864 1 1 0.999864
0.999681 1 1 0.999681
0.999636 1 1 0.999636
0.99964 1 1 0.99964
0.99974 1 1 0.99974
0.999509 1 1 0.999509
0.999498 1 1 0.999498
0.999606 1 0.999905 0.999701
0.999724 1 1 0.999724
0.999664 1 1 0.999664
1.00029 1 1.00079 0.9995
0.99955 1 1 0.99955
0.999997 1 1 0.999997
0.999912 1 1 0.999912
0.999868 1 1 0.999868
0.999752 1 1 0.999752
0.999657 1 1 0.999657
0.999588 1 1 0.999588
0.999658 1 1 0.999658
0.999605 1 1 0.999605
0.999837 1 1 0.999837
0.99973 1 1 0.99973
0.999674 1 1 0.999674
0.999685 1 1 0.999685
0.999692 1 1 0.999692
0.999671 1 1 0.999671
0.999602 1 1 0.999602
0.999657 1 1 0.999657
0.999592 1 1 0.999592
0.999502 1 1 0.999502
0.99973 1 1 0.99973
0.999661 1 1 0.999661
0.999638 1 1 0.999638
0.999639 1 1 0.999639
0.999671 1 1 0.999671
0.999667 1 1 0.999667
0.999524 1 1 0.999524
0.999768 1 1.00028 0.999484
0.999675 1 1 0.999675
0.999607 1 1 0.999607
0.999616 1 1 0.999616
0.999577 1 1 0.999577
0.999572 1.00006 0.999824 0.999691
0.999495 1 1 0.999495
1.00025 1 1.00081 0.999437
0.999757 1 1 0.999757
0.99969 1 1 0.99969
0.999641 1 1 0.999641
0.999886 1 1 0.999886
0.999778 1 1 0.999778
0.999693 1 1 0.999693
0.99989 1 1 0.99989
0.999775 1 1 0.999775
0.999647 1 1 0.999647
0.999708 1 1 0.999708
0.999613 1 1 0.999613
0.999641 1 1 0.999641
0.999714 1 1 0.999714
0.999788 1 1 0.999788
0.999891 1 1 0.999891
0.999992 1 1 0.999992
0.999993 1 1 0.999993
1 1 1 1
0.999993 1 1 0.999993
1 1 1 1
1 1 1 1
1 1 1 1
1 1 1 1
1 1 1 1
0.999999 1 1 0.999999
1 1 1 1
1 1 1 1
1 1 1 1
1 1 1 1
1 1 1 1
1 1 1 1
0.999656 1 1 0.999656
0.999563 1 1 0.999563
0.999523 1 1 0.999523
0.999517 1 1 0.999517
0.999527 1 1 0.999527
0.999535 1 1 0.999535
0.999624 1 1 0.999624
0.999542 1 1 0.999542
0.999558 1 1 0.999558
0.999636 1 1 0.999636
0.999499 1 1 0.999499
0.999477 1 1 0.999477
0.999587 1 1 0.999587
0.99971 1 1 0.99971
0.999628 1 1 0.999628
0.999529 1 1 0.999529
0.99972 1 1 0.99972
0.999632 1 1 0.999632
0.999681 1 1 0.999681
0.999638 1 1 0.999638
0.999645 1 1 0.999645
0.99999 1 1 0.99999
0.999864 1 1 0.999864
0.999733 1 1 0.999733
0.999507 1 1 0.999507
0.999995 1 1 0.999995
0.999905 1 1 0.999905
0.9995 1 1 0.9995
0.999683 1 1 0.999683
0.999669 1 1 0.999669
0.999572 1 1.00003 0.999539
0.999804 1 1.0003 0.999504
0.999721 1 1 0.999721
0.999885 1 1 0.999885
0.999751 1 1 0.999751
0.999659 1 1 0.999659
0.999617 1 1 0.999617
0.999578 1 1 0.999578
0.999658 1 1 0.999658
0.999504 1 1 0.999504
0.999581 1 1 0.999581
0.9994 1 0.999601 0.999799
0.999584 1 1 0.999584
0.999628 1 1 0.999628
1.00103 1 1.00157 0.999462
0.99991 1 1 0.99991
0.999899 1 1 0.999899
0.999826 1 1 0.999826
0.999757 1 1 0.999757
0.999679 1 1 0.999679
0.999585 1 1 0.999585
0.999535 1 1 0.999535
0.999617 1 1 0.999617
0.999728 1 1 0.999728
0.999668 1 1 0.999668
0.999672 1 1 0.999672
0.999663 1 1 0.999663
0.999644 1 1 0.999644
0.999644 1 1 0.999644
0.999534 1 1 0.999534
0.999625 1 1.00014 0.99948
0.999674 1 1 0.999674
0.999624 1 1 0.999624
0.999615 1 1 0.999615
0.999628 1 1.00006 0.999566
0.999626 1.00005 0.999896 0.999685
0.999497 1 1 0.999497
1.00015 1 1.00072 0.999434
0.999622 1 1 0.999622
1.00166 1.00257 0.999451 0.999638
0.999581 1 1 0.999581
1.00002 1 1.00054 0.999483
0.999196 1.00005 0.999642 0.999502
1.00072 1 1.00132 0.999397
0.998411 1.00616 0.992861 0.999436
0.999691 1 1 0.999691
0.999641 1 1 0.999641
0.999607 1 1 0.999607
0.99989 1 1 0.99989
0.999775 1 1 0.999775
0.999717 1 1 0.999717
0.99964 1 1 0.99964
0.999891 1 1 0.999891
0.999782 1 1 0.999782
0.999611 1 1 0.999611
0.999714 1 1 0.999714
0.999649 1 1 0.999649
0.999591 1 1 0.999591
0.99966 1 1 0.99966
0.999719 1 1 0.999719
0.999773 1 1 0.999773
0.999874 1 1 0.999874
0.999799 1 1 0.999799
0.999873 1 1 0.999873
0.999992 1 1 0.999992
0.999992 1 1 0.999992
1 1 1 1
0.999992 1 1 0.999992
1 1 1 1
1 1 1 1
1 1 1 1
1 1 1 1
1 1 1 1
1 1 1 1
0.999999 1 1 0.999999
1 1 1 1
1 1 1 1
1 1 1 1
1 1 1 1
1 1 1 1
1 1 1 1
0.999637 1 1 0.999637
0.999529 1 1 0.999529
0.999533 1 1 0.999533
0.999542 1 1 0.999542
0.999564 1 1 0.999564
0.999642 1 1 0.999642
0.999575 1 1 0.999575
0.998644 1.00363 0.995308 0.999719
1.00014 1.0007 0.999705 0.999733
0.999932 1 1 0.999932
0.999505 1 1 0.999505
0.999502 1 1 0.999502
0.999666 1 1 0.999666
0.999674 1 1 0.999674
0.999613 1 1.00009 0.999527
0.999509 1 1 0.999509
0.999718 1 1 0.999718
0.99966 1 1 0.99966
0.999628 1 1 0.999628
0.999568 1 1 0.999568
0.999994 1 1 0.999994
0.99966 1 1 0.99966
0.999902 1 1 0.999902
0.999751 1 1 0.999751
0.999899 1 1 0.999899
0.999496 1 1 0.999496
0.999918 1 1 0.999918
0.999899 1 1 0.999899
0.999812 1 1 0.999812
0.999584 1 1 0.999584
0.999245 1 0.999469 0.999775
0.999631 1 1 0.999631
1.00094 1 1.00149 0.999457
0.999658 1 1.00007 0.999588
0.999766 1 1 0.999766
0.999675 1 1 0.999675
0.999613 1 1 0.999613
0.999579 1 1.00003 0.999544
0.999591 1 1 0.999591
0.99953 1 1.00004 0.999485
0.997121 1.00003 0.997374 0.999716
0.999376 1 0.999716 0.999659
1.00048 1 1.001 0.999476
1.00066 1 1.00109 0.999569
0.999813 1 1 0.999813
0.999781 1 1 0.999781
0.99974 1 1 0.99974
0.999681 1 1 0.999681
0.999618 1 1 0.999618
0.999541 1 1 0.999541
1.00112 1 1.0016 0.999518
0.999674 1 1 0.999674
0.999615 1 1 0.999615
0.999641 1 1 0.999641
0.999583 1 0.999904 0.999679
0.999499 1 1 0.999499
0.999641 1 1.00009 0.999555
0.999989 1 1.00056 0.999432
0.999626 1 1 0.999626
1.00178 1.00273 0.999401 0.999646
0.999582 1 1 0.999582
0.999938 1 1.00046 0.999482
0.999329 1.00023 0.999583 0.999519
1.00135 1 1.00196 0.999395
1.00125 1.00863 0.993213 0.999469
0.999591 1 1 0.999591
1.0007 1.00274 0.998487 0.999478
0.999548 1 1 0.999548
1.00281 1 1.00338 0.99943
1.00048 1 1.00109 0.999391
0.961757 0.963823 1.00004 0.997816
0.997017 1.00115 0.996532 0.999335
0.985391 1.0091 0.977042 0.999452
0.944393 0.955713 0.988638 0.999512
0.956345 0.981498 0.974615 0.999751
0.999642 1 1 0.999642
0.999608 1 1 0.999608
0.999578 1 1 0.999578
0.999891 1 1 0.999891
0.999776 1 1 0.999776
0.999714 1 1 0.999714
0.999657 1 1 0.999657
0.999609 1 1 0.999609
0.99971 1 1 0.99971
0.999881 1 1 0.999881
0.99978 1 1 0.99978
0.999596 1 1 0.999596
0.999657 1 1 0.999657
0.999666 1 1 0.999666
0.999603 1 1 0.999603
0.999693 1 1 0.999693
0.999772 1 1 0.999772
0.999873 1 1 0.999873
0.999791 1 1 0.999791
0.999718 1 1 0.999718
0.999775 1 1 0.999775
0.999786 1 1 0.999786
0.999884 1 1 0.999884
0.999873 1 1 0.999873
0.999991 1 1 0.999991
0.999991 1 1 0.999991
1 1 1 1
0.999992 1 1 0.999992
1 1 1 1
1 1 1 1
1 1 1 1
1 1 1 1
1 1 1 1
1 1 1 1
1 1 1 1
1 1 1 1
0.999998 1 1 0.999998
1 1 1 1
1 1 1 1
1 1 1 1
1 1 1 1
1 1 1 1
0.99957 1 1 0.99957
0.999543 1 1 0.999543
0.999649 1 1 0.999649
0.998676 1.00335 0.995622 0.999719
0.999571 1 1 0.999571
1.00003 1.00047 0.999863 0.999699
0.999543 1 1.00004 0.999505
0.980958 0.984914 0.99692 0.999061
1.00019 1.00067 0.999724 0.999797
0.999937 1 1 0.999937
0.999932 1 1 0.999932
0.999839 1 1 0.999839
0.99985 1 1 0.99985
0.999488 1 1 0.999488
0.999586 1 1 0.999586
0.999232 1 0.999481 0.999751
0.999635 1 1 0.999635
1.00059 1 1.00114 0.999452
0.999597 1 1.00001 0.999592
0.99961 1 1 0.99961
0.999606 1 1.00005 0.999554
0.999598 1 1 0.999598
0.999899 1 1 0.999899
0.999671 1 1 0.999671
0.999776 1 1 0.999776
0.999925 1 1 0.999925
0.999799 1 1 0.999799
0.999533 1 1.00003 0.999498
0.999827 1 1 0.999827
0.999789 1 1 0.999789
0.999741 1 1 0.999741
0.998157 1.00013 0.998305 0.999718
0.999201 1 0.999541 0.99966
1.00061 1 1.00104 0.999568
1.0005 1 1.00102 0.999477
0.999685 1 1 0.999685
0.999621 1 1 0.999621
1.0005 1 1.00099 0.999518
0.999563 1 1.00003 0.999537
0.999807 1.0003 0.999954 0.999556
0.997941 1.00055 0.997704 0.999686
0.999888 1 1.00044 0.999444
1.00065 1 1.00114 0.999507
0.999715 1 1 0.999715
0.999699 1 1 0.999699
0.999584 1 1 0.999584
1.00153 1 1.00207 0.999463
0.959624 0.963719 0.998002 0.997744
0.99963 1 1 0.99963
0.999582 1 1 0.999582
1.002 1.00285 0.999497 0.999654
0.999855 1.00043 0.999889 0.999536
1.00205 1 1.00266 0.999392
0.999926 1 1.00045 0.999481
1.00425 1.01095 0.993867 0.999502
0.999594 1 1 0.999594
1.00097 1.00333 0.99817 0.999474
0.999549 1 1 0.999549
1.00245 1 1.00302 0.999433
1.0001 1 1.00069 0.999402
0.961951 0.964303 0.999554 0.998006
0.992064 0.997859 0.995314 0.998872
0.98946 1.01084 0.979372 0.999466
0.949331 0.958436 0.991225 0.999269
0.953134 0.977865 0.974949 0.999753
0.999584 1 1 0.999584
0.957052 0.961493 0.996388 0.99899
0.966815 0.981242 0.985484 0.99981
0.98846 1.00083 0.988186 0.999444
1.0014 1 1.00187 0.999532
1.00825 1 1.00881 0.999438
1.00178 1.01017 0.992274 0.999422
0.973287 0.971632 1.00404 0.99767
0.996243 1.00525 0.992227 0.998805
0.947816 0.961828 0.985982 0.999442
0.990124 1.00667 0.983728 0.999837
0.999609 1 1 0.999609
0.999578 1 1 0.999578
0.999553 1 1 0.999553
0.999889 1 1 0.999889
0.999787 1 1 0.999787
0.9997 1 1 0.9997
0.999654 1 1 0.999654
0.999601 1 1 0.999601
0.999873 1 1 0.999873
0.999664 1 1 0.999664
0.999703 1 1 0.999703
0.99978 1 1 0.99978
0.999594 1 1 0.999594
0.999633 1 1 0.999633
0.999753 1 1.0002 0.999556
0.999699 1 1 0.999699
0.999788 1 1 0.999788
0.999791 1 1 0.999791
0.999708 1 1 0.999708
0.999709 1 1 0.999709
0.999696 1 1 0.999696
0.999657 1 1 0.999657
0.999664 1 1 0.999664
0.999759 1 1 0.999759
0.999775 1 1 0.999775
0.999877 1 1 0.999877
0.999773 1 1 0.999773
0.999877 1 1 0.999877
0.99999 1 1 0.99999
0.999873 1 1 0.999873
0.999991 1 1 0.999991
1 1 1 1
0.999991 1 1 0.999991
1 1 1 1
1 1 1 1
1 1 1 1
1 1 1 1
1 1 1 1
0.999934 1 1 0.999934
1 1 1 1
1 1 1 1
1 1 1 1
1 1 1 1
1 1 1 1
1 1 1 1
1 1 1 1
1 1 1 1
1 1 1 1
0.998807 1.00344 0.995661 0.999719
0.999566 1 1 0.999566
0.999907 1.00024 1 0.999665
0.981306 0.98446 0.99745 0.999345
1.00015 1.00047 0.999883 0.999797
0.999542 1.00002 1.00003 0.999488
1.00131 1.00018 1.00159 0.999531
0.987314 0.986526 1.00163 0.999173
0.964555 0.967083 1.00011 0.997273
0.941648 0.95583 0.986222 0.998925
0.952517 0.974381 0.977789 0.999767
0.999835 1 1 0.999835
0.999937 1 1 0.999937
0.999932 1 1 0.999932
0.999835 1 1 0.999835
0.999773 1 1 0.999773
0.999789 1 1 0.999789
0.999839 1 1 0.999839
0.999845 1 1 0.999845
0.999537 1 1.00003 0.999511
0.999069 1.00022 0.999126 0.999719
0.998978 1 0.999317 0.999661
1.00062 1 1.00105 0.999567
1.00083 1 1.00135 0.999478
0.999965 1 1.00045 0.999519
0.999601 1 1.00007 0.999533
0.999624 1 1 0.999624
0.999797 1 1 0.999797
0.999688 1 1 0.999688
0.99984 1 1 0.99984
0.999741 1 1 0.999741
0.99938 1.00037 0.999465 0.999544
0.999719 1 1 0.999719
0.999702 1 1 0.999702
0.997379 1.00041 0.997283 0.999684
0.99971 1 1.00025 0.999461
1.00111 1 1.00162 0.99949
0.999583 1 1 0.999583
1.00155 1 1.00208 0.999466
0.991025 1.00534 0.986212 0.99954
1.00225 1.00046 1.00231 0.999476
1.0001 1 1.00068 0.999426
1.00453 1 1.0051 0.999432
0.99966 1 1 0.99966
0.999615 1 1 0.999615
1.00004 1 1.00054 0.999497
0.956922 0.964691 0.992589 0.999353
0.963367 0.965575 0.99988 0.997834
0.999597 1 1 0.999597
0.999551 1 1 0.999551
1.00096 1.00405 0.997448 0.999471
0.999686 1 1.00027 0.999414
1.00201 1 1.00258 0.999436
0.962195 0.964993 0.999863 0.997237
0.992787 0.998094 0.995251 0.999429
0.993828 1.013 0.98158 0.999479
0.945007 0.957409 0.988048 0.998985
0.949475 0.974127 0.974931 0.999756
0.999583 1 1 0.999583
0.953627 0.96329 0.990551 0.999411
0.96839 0.979634 0.988696 0.999824
0.990302 1.00089 0.989979 0.999438
1.00055 1 1.00102 0.999535
1.0075 1 1.00806 0.99945
0.996743 1.0076 0.989813 0.999402
0.974265 0.973153 1.00371 0.997437
0.99173 1.00066 0.991761 0.999306
0.947918 0.962187 0.986217 0.998938
0.984318 1.00479 0.979797 0.999828
0.999557 1 1 0.999557
0.986261 0.988248 0.998109 0.99988
1.01326 1.01515 0.998224 0.999909
1.00712 1 1.00765 0.999476
1.00612 1 1.00651 0.999607
1.00435 1.00361 1.00107 0.99967
0.991315 0.998821 0.992823 0.99966
0.977874 0.975021 1.00538 0.997556
0.962872 0.980502 0.983088 0.998913
1.00402 1.01651 0.987842 0.999867
0.999579 1 1 0.999579
0.999549 1 1 0.999549
0.999957 1 1.00042 0.999536
0.999873 1 1 0.999873
0.999787 1 1 0.999787
0.999714 1 1 0.999714
0.999663 1 1 0.999663
0.999586 1 1 0.999586
0.999788 1 1 0.999788
0.99964 1 1 0.99964
0.999699 1 1 0.999699
0.999795 1 1.00024 0.99955
1.00007 1 1.00055 0.999519
0.999696 1 1.00009 0.99961
0.999704 1 1 0.999704
0.99979 1 1 0.99979
0.999697 1 1 0.999697
0.999709 1 1 0.999709
0.999696 1 1 0.999696
0.999656 1 1 0.999656
0.999677 1 1 0.999677
0.999648 1 1 0.999648
0.999625 1 1 0.999625
0.999627 1 1 0.999627
0.999659 1 1 0.999659
0.999667 1 1 0.999667
0.999665 1 1 0.999665
0.999744 1 1 0.999744
0.999759 1 1 0.999759
0.999865 1 1 0.999865
0.999775 1 1 0.999775
0.999877 1 1 0.999877
0.999987 1 1 0.999987
0.99987 1 1 0.99987
0.999989 1 1 0.999989
1 1 1 1
0.99999 1 1 0.99999
1 1 1 1
1 1 1 1
1 1 1 1
1 1 1 1
1 1 1 1
0.99994 1 1 0.99994
1 1 1 1
0.999934 1 1 0.999934
1 1 1 1
1 1 1 1
1 1 1 1
1 1 1 1
1 1 1 1
1 1 1 1
1 1 1 1
1 1 1 1
0.95091 0.960286 0.990759 0.999472
0.971859 0.982793 0.989009 0.999864
0.983025 0.98512 0.998288 0.999585
1.00005 1.00027 0.999984 0.999798
0.99953 1.00003 1.00003 0.999471
0.986673 0.985026 1.00195 0.999719
1.00055 1.00021 1.0008 0.999542
0.968505 0.96931 1.00136 0.997816
0.947072 0.957281 0.98984 0.999491
0.950739 0.974538 0.975803 0.999771
1.00006 0.995702 1.00465 0.999724
0.973471 0.972805 1.00292 0.997771
0.945799 0.960839 0.984883 0.999456
0.98105 1.0021 0.979189 0.999804
0.99975 1 1 0.99975
0.999841 1 1 0.999841
0.999936 1 1 0.999936
0.999831 1 1 0.999831
0.999779 1 1 0.999779
0.999764 1 1 0.999764
0.999792 1 1 0.999792
0.999807 1 1 0.999807
0.999832 1 1 0.999832
0.999839 1 1 0.999839
0.99889 1.00033 0.999025 0.999533
0.997083 1.00034 0.997063 0.999681
0.99951 1 1.00003 0.999478
1.00139 1 1.00191 0.999474
1.00144 1 1.00198 0.99947
0.999581 1 1 0.999581
0.999704 1 1 0.999704
0.999723 1 1 0.999723
0.993448 1.00429 0.989686 0.999515
0.999656 1 1 0.999656
0.999606 1 1 0.999606
1.00044 1.00031 1.00066 0.999471
1.00044 1 1.00101 0.999435
1.00358 1 1.00416 0.999422
1.00061 1 1.00112 0.999489
0.987198 1.0126 0.975513 0.999381
1.00821 1 1.00878 0.999431
1.00418 1 1.00476 0.99942
0.999653 1 1 0.999653
0.999596 1 1 0.999596
0.999528 1 1 0.999528
0.987021 0.990108 0.997062 0.99982
0.957613 0.96386 0.994587 0.998927
0.96139 0.965399 0.998115 0.997728
0.999582 1 1 0.999582
0.999715 1 1.00018 0.999537
0.992377 1.00089 0.992056 0.999432
1.00691 1 1.00745 0.999461
0.950347 0.961157 0.989817 0.998926
0.972023 0.97207 1.00173 0.998226
0.993405 1.00177 0.992786 0.998851
0.992493 1.00518 0.987982 0.999389
0.949215 0.961945 0.987263 0.999497
0.971312 0.982062 0.989252 0.999799
0.979619 1.00002 0.979784 0.999807
0.999555 1 1 0.999555
0.982896 0.987138 0.99585 0.999852
1.01347 1.01557 0.998018 0.999908
1.00614 1 1.00666 0.999479
1.0064 1 1.0068 0.999608
1.00772 1.00315 1.00525 0.999312
0.990324 0.998887 0.992444 0.998976
0.976872 0.976377 1.00301 0.997502
0.969632 0.982461 0.987395 0.999541
0.99991 1.01406 0.986205 0.999843
0.999686 1 1.00004 0.999642
1.01423 1.0145 0.999791 0.999941
1.01441 1.01686 0.997636 0.999948
1.00774 1 1.00798 0.999768
0.996844 0.994062 1.00293 0.999868
0.985144 0.982546 1.00501 0.997642
0.982252 0.997379 0.985288 0.999538
1.0016 1.01685 0.985171 0.999832
0.999545 1 1 0.999545
0.999901 1 1.00036 0.999546
1.00086 1 1.0013 0.999561
0.999787 1 1 0.999787
0.999699 1 1 0.999699
0.999646 1 1 0.999646
0.999826 1 1.00028 0.999544
0.999704 1 1 0.999704
0.999642 1 1.00003 0.999611
1.00045 1 1.00093 0.999518
1.0004 1 1.00086 0.999543
0.999745 1 1.00021 0.999533
0.999637 1 1 0.999637
0.999709 1 1 0.999709
0.999695 1 1 0.999695
0.999654 1 1 0.999654
0.99965 1 1 0.99965
0.999678 1 1 0.999678
0.999628 1 1 0.999628
0.999613 1 1 0.999613
0.999601 1 1 0.999601
0.999601 1 1 0.999601
0.999627 1 1 0.999627
0.999633 1 1 0.999633
0.999634 1 1 0.999634
0.999708 1 1 0.999708
0.999678 1 1 0.999678
0.999673 1 1 0.999673
0.999728 1 1 0.999728
0.999666 1 1 0.999666
0.999744 1 1 0.999744
0.99985 1 1 0.99985
0.999759 1 1 0.999759
0.999865 1 1 0.999865
0.999984 1 1 0.999984
0.999877 1 1 0.999877
0.999987 1 1 0.999987
1 1 1 1
0.999988 1 1 0.999988
1 1 1 1
1 1 1 1
1 1 1 1
1 1 1 1
1 1 1 1
0.99991 1 1 0.99991
1 1 1 1
0.999927 1 1 0.999927
1 1 1 1
1 1 1 1
0.999934 1 1 0.999934
1 1 1 1
1 1 1 1
1 1 1 1
1 1 1 1
1 1 1 1
1 1 1 1
0.986707 0.98881 0.997983 0.99989
0.953784 0.961715 0.992552 0.999195
1.01106 1.0154 0.995813 0.999919
0.96845 0.979249 0.989118 0.999853
0.983368 0.983685 1.00054 0.999139
0.99992 1.00032 1.00004 0.999554
0.968418 0.969125 1.00089 0.998383
0.94452 0.957408 0.987576 0.998949
0.949435 0.975031 0.973968 0.999775
0.997108 0.997225 1.00037 0.999517
0.97296 0.970836 1.00452 0.997678
0.948255 0.96402 0.984696 0.998934
0.979771 1.00218 0.977823 0.999811
0.99664 1.00424 0.99275 0.999684
0.974767 0.972313 1.00498 0.997559
0.968844 0.984914 0.984157 0.999519
1.00037 1.01688 0.983909 0.999857
0.999702 1 1 0.999702
0.999758 1 1 0.999758
0.999847 1 1 0.999847
0.999786 1 1 0.999786
0.999719 1 1 0.999719
0.99977 1 1 0.99977
0.999794 1 1 0.999794
0.999797 1 1 0.999797
0.999814 1 1 0.999814
0.999824 1 1 0.999824
0.996216 1.00356 0.993186 0.999491
0.998486 1.00011 0.998908 0.999465
1.00083 1 1.00139 0.999443
1.0029 1 1.00349 0.999412
1.00124 1 1.00176 0.99948
0.999597 1 1 0.999597
0.999652 1 1 0.999652
0.999654 1 1 0.999654
0.989081 1.01024 0.97966 0.999384
0.999601 1 1 0.999601
0.999615 1 1.00009 0.999524
1.00771 1 1.0083 0.999422
1.00404 1 1.00462 0.99942
0.989647 1.01062 0.979837 0.9994
1.01742 1 1.01794 0.999488
1.00025 1 1.00078 0.999473
0.999609 1 1 0.999609
0.999534 1 1 0.999534
1.01355 1.01384 0.999768 0.999952
0.987587 0.989837 0.997868 0.999859
0.957755 0.964607 0.993456 0.999436
0.999553 1 1 0.999553
1.00652 1 1.00691 0.99961
1.00491 1 1.00543 0.999482
0.987149 0.989094 0.998149 0.999885
0.976759 0.97435 1.00502 0.997469
0.989764 0.998098 0.992056 0.999591
1.009 1.002 1.00806 0.998933
0.96354 0.979437 0.984834 0.998919
1.01392 1.01622 0.997827 0.999907
1.00124 1.01385 0.987723 0.999841
0.999695 1 1.00004 0.999652
1.01542 1.01555 0.999921 0.999944
1.01558 1.01835 0.997332 0.999948
1.00808 0.999985 1.00843 0.999669
0.997042 0.995701 1.00169 0.999654
0.987303 0.984607 1.00522 0.997535
1.00376 1.01785 0.9863 0.999856
0.979856 0.993272 0.987204 0.999279
0.999804 1 1.00008 0.999729
1.00786 1.00909 0.9988 0.999986
1.01363 1.01566 0.998036 0.999962
1.00239 1.0157 0.987035 0.999859
1.00706 0.996107 1.0111 0.999902
0.982585 0.982014 1.00276 0.997824
0.97576 0.993735 0.982471 0.999432
0.999823 1 1.00027 0.999555
1.00063 1 1.00109 0.999539
1.00317 1 1.00355 0.999619
0.999704 1 1 0.999704
0.999612 1 1 0.999612
1.00089 1 1.00138 0.999516
0.99964 1 1 0.99964
0.999857 1 1.00033 0.999532
1.00079 1 1.00126 0.999528
0.999918 1 1.00035 0.999564
0.999565 1 1 0.999565
0.999652 1 1 0.999652
0.999678 1 1 0.999678
0.999631 1 1 0.999631
0.999602 1 1 0.999602
0.999613 1 1 0.999613
0.999586 1 1 0.999586
0.99962 1 1 0.99962
0.999785 1 1.00024 0.999541
0.999628 1 1 0.999628
0.999632 1 1 0.999632
0.999569 1 1 0.999569
0.999649 1 1 0.999649
0.99971 1 1 0.99971
0.999635 1 1 0.999635
0.999744 1 1 0.999744
0.999704 1 1 0.999704
0.999698 1 1 0.999698
0.999679 1 1 0.999679
0.999734 1 1 0.999734
0.999836 1 1 0.999836
0.999745 1 1 0.999745
0.99985 1 1 0.99985
0.999979 1 1 0.999979
0.999864 1 1 0.999864
0.999983 1 1 0.999983
1 1 1 1
0.999986 1 1 0.999986
1 1 1 1
1 1 1 1
1 1 1 1
1 1 1 1
1 1 1 1
0.999873 1 1 0.999873
0.999982 1 1 0.999982
0.999909 1 1 0.999909
1 1 1 1
0.999993 1 1 0.999993
0.999914 1 1 0.999914
1 1 1 1
1 1 1 1
1 1 1 1
1 1 1 1
1 1 1 1
1 1 1 1
1.01263 1.01298 0.999713 0.999948
0.982277 0.987169 0.99522 0.999824
0.955791 0.961773 0.994801 0.998974
0.999764 1 1 0.999764
1.01649 1.01839 0.998181 0.999958
1.01283 1.01622 0.996746 0.999918
0.966076 0.979487 0.986504 0.999801
0.994286 0.998298 0.99669 0.999288
0.975546 0.971501 1.00645 0.997726
0.952136 0.966247 0.985897 0.999491
0.978947 0.999821 0.979326 0.999791
0.99553 1.00777 0.988747 0.999093
0.976147 0.973699 1.00491 0.997614
0.967185 0.98445 0.983202 0.999248
0.998524 1.01626 0.982706 0.999838
0.979421 1.00018 0.980236 0.99899
0.979433 0.977825 1.0046 0.997061
0.978793 0.993602 0.986118 0.998963
1.00103 1.01868 0.982855 0.999816
0.999651 1 1 0.999651
0.999696 1 1 0.999696
0.999767 1 1 0.999767
0.999706 1 1 0.999706
0.999728 1 1 0.999728
0.999776 1 1 0.999776
0.9998 1 1 0.9998
0.999822 1 1 0.999822
0.990751 1.00772 0.983762 0.999386
1.00715 1 1.00774 0.999412
0.999656 1 1 0.999656
1.0038 1 1.00438 0.99942
0.999687 1 1.00017 0.99952
0.999606 1 1 0.999606
0.999609 1 1 0.999609
0.99034 1.00979 0.981331 0.999401
0.999536 1 1 0.999536
1.00107 1 1.0016 0.99947
1.01754 1 1.01807 0.99948
0.999604 1 1 0.999604
1.00368 1.00289 1.00118 0.999613
1.01318 1 1.01363 0.999556
0.999525 1 1 0.999525
0.999557 1 1 0.999557
1.00626 1.00658 0.999693 0.999989
1.01254 1.01284 0.999749 0.999953
0.98791 0.98944 0.998555 0.999898
0.999662 1 1 0.999662
1.0087 0.999979 1.00915 0.999572
1.01658 1.01664 0.999995 0.999947
0.983766 0.978999 1.00733 0.997563
1.00076 0.999191 1.00249 0.999088
0.976521 0.992345 0.985012 0.999028
1.01644 1.01949 0.997055 0.999949
1.00676 1.01922 0.987892 0.99988
0.999925 1 1.00021 0.999713
1.00759 1.00886 0.998748 0.999986
1.01249 1.01438 0.99817 0.999968
1.00607 0.996013 1.01016 0.999935
1.00017 1.01499 0.985556 0.999838
0.980231 0.984676 0.997483 0.997998
0.974515 0.99246 0.982972 0.998929
1.00667 0.998542 1.00835 0.999783
1.00173 1.0023 0.999435 0.999997
1.0177 1.01875 0.999008 0.999955
0.98349 1.00193 0.981796 0.9998
0.978715 0.991916 0.987706 0.998973
1.00186 0.992867 1.0089 1.00015
0.97608 0.979633 0.998559 0.997812
1.00041 1 1.00089 0.999517
1.00228 1 1.00268 0.999607
1.01221 1 1.01262 0.99959
0.999642 1 1 0.999642
0.999897 1 1.00037 0.999531
1.00105 1 1.00154 0.999513
0.999566 1 1 0.999566
0.999994 1 1.00043 0.999561
1.00292 1 1.00337 0.999547
0.999602 1 1 0.999602
0.999613 1 1 0.999613
0.999759 1 1.00018 0.999581
1.00134 1 1.00183 0.999514
0.999639 1 1 0.999639
0.999688 1 1.00014 0.999552
0.999903 1 1.00041 0.999489
0.999561 1 1 0.999561
0.999631 1 1 0.999631
0.999561 1 1 0.999561
0.999683 1 1 0.999683
0.999707 1 1 0.999707
0.999657 1 1 0.999657
0.999754 1 1 0.999754
0.999709 1 1 0.999709
0.999636 1 1 0.999636
0.999831 1 1 0.999831
0.999741 1 1 0.999741
0.9997 1 1 0.9997
0.999739 1 1 0.999739
0.999837 1 1 0.999837
0.999973 1 1 0.999973
0.99985 1 1 0.99985
0.999978 1 1 0.999978
1 1 1 1
0.999982 1 1 0.999982
1 1 1 1
1 1 1 1
1 1 1 1
1 1 1 1
1 1 1 1
0.999854 1 1 0.999854
0.999972 1 1 0.999972
0.99988 1 1 0.99988
1 1 1 1
0.999981 1 1 0.999981
0.999908 1 1 0.999908
1 1 1 1
1 1 1 1
0.999986 1 1 0.999986
1 1 1 1
1 1 1 1
1 1 1 1
1.00806 1.00848 0.999604 0.999986
1.01251 1.01305 0.999521 0.999949
0.984434 0.988052 0.996516 0.999822
0.999767 1 1 0.999767
0.999745 1 1 0.999745
0.999705 1 1 0.999705
1.01234 1.01496 0.99745 0.999963
1.01756 1.01946 0.99818 0.999958
1.01505 1.01706 0.998106 0.999918
0.999475 1.01157 0.988401 0.999642
0.97579 0.972367 1.00595 0.997589
0.96425 0.98184 0.983126 0.99894
0.999999 1.01744 0.983003 0.99985
0.977509 0.998095 0.979825 0.99954
0.983134 0.979469 1.00609 0.997667
0.980592 0.996852 0.984208 0.999471
1.00251 1.01934 0.983641 0.999846
0.975515 0.993182 0.982522 0.999684
0.97939 0.979909 1.00171 0.997764
0.978998 0.9971 0.982477 0.999358
0.999113 1.01532 0.984171 0.999867
0.999636 1 1 0.999636
0.999651 1 1 0.999651
0.999691 1 1 0.999691
0.999705 1 1 0.999705
0.999738 1 1 0.999738
0.999803 1 1 0.999803
0.991219 1.00883 0.983135 0.999401
1.0174 1 1.01794 0.999473
0.99961 1 1 0.99961
1.00178 1 1.00231 0.999466
0.999539 1 1 0.999539
0.999603 1 1 0.999603
0.999553 1 1 0.999553
1.00101 1.0039 0.997517 0.999604
0.999533 1 1 0.999533
1.01369 1 1.01412 0.999575
0.999564 1 1 0.999564
1.01998 0.998786 1.02147 0.999757
1.0001 1 1.00044 0.999661
0.999522 1 1 0.999522
0.999753 0.999839 0.999914 1
1.00479 1.00515 0.999655 0.999992
1.0115 1.01184 0.999715 0.999955
1.00006 1 1.00037 0.999698
1.00281 0.995452 1.00741 0.999986
1.00728 1.00858 0.998722 0.999987
0.98599 0.988061 0.999089 0.998815
0.98028 0.997854 0.982902 0.999477
1.01174 1.01321 0.998574 0.999975
1.00183 1.0162 0.986011 0.999851
1.0056 0.999291 1.00652 0.999795
1.0011 1.00141 0.999699 0.999998
1.01877 1.01986 0.998983 0.999955
1.00453 0.992583 1.01242 0.999617
0.98256 1.00211 0.980676 0.999807
0.980306 0.995327 0.985415 0.999485
0.975835 0.979908 0.997963 0.997876
1.02315 1 1.02327 0.999885
1.00815 1.00842 0.999751 0.999985
1.0127 1.01583 0.996999 0.999914
0.953119 0.973877 0.978917 0.999763
0.970477 0.983515 0.987217 0.99952
0.98855 0.984617 1.00622 0.997791
0.982279 0.991208 0.991567 0.99942
1.00127 1 1.00167 0.999596
1.01336 1 1.01377 0.999595
1.01954 1 1.01998 0.999568
0.999567 1 1 0.999567
1.00011 1 1.00055 0.999558
1.00235 1 1.00281 0.999549
1.01013 1 1.01067 0.999465
0.999894 1 1.00032 0.999575
1.00162 1 1.00212 0.999501
1.00434 1 1.00493 0.999419
0.999563 1 1 0.999563
1.00029 1 1.0008 0.999487
1.00012 1 1.00067 0.999453
0.99952 1 1 0.99952
0.999643 1 1 0.999643
0.999552 1 1 0.999552
0.999553 1 1 0.999553
0.999721 1 1 0.999721
0.999692 1 1 0.999692
0.999747 1 1 0.999747
0.999713 1 1 0.999713
0.999666 1 1 0.999666
0.99983 1 1 0.99983
0.999755 1 1 0.999755
0.999707 1 1 0.999707
0.999965 1 1 0.999965
0.999831 1 1 0.999831
0.999738 1 1 0.999738
0.999837 1 1 0.999837
0.999972 1 1 0.999972
1 1 1 1
0.999976 1 1 0.999976
1 1 1 1
1 1 1 1
1 1 1 1
1 1 1 1
1 1 1 1
0.999852 1 1 0.999852
0.999982 1 1 0.999982
0.999861 1 1 0.999861
1 1 1 1
0.999981 1 1 0.999981
0.999888 1 1 0.999888
1 1 1 1
1 1 1 1
0.999981 1 1 0.999981
1 1 1 1
1 1 1 1
1 1 1 1
1.00177 1.00219 0.999589 0.999997
1.00792 1.00839 0.999549 0.999986
1.01228 1.01312 0.999217 0.999949
0.999739 1 1 0.999739
0.999703 1 1 0.999703
0.999771 1 1 0.999771
0.999744 1 1 0.999744
0.999697 1 1 0.999697
0.999691 1 1 0.999691
0.999655 1 1 0.999655
1.01321 1.01546 0.997838 0.999949
1.01161 1.01396 0.997721 0.99997
1.01839 1.02055 0.997933 0.999958
1.0053 1.02023 0.985488 0.999876
0.981515 1.00324 0.979345 0.998977
0.98442 0.979389 1.00693 0.998222
0.975899 0.993794 0.983072 0.998903
0.979836 0.993229 0.98716 0.999348
0.983742 0.983655 1.00238 0.997715
0.977822 0.995672 0.98317 0.998884
0.996979 1.01439 0.983002 0.999829
0.984852 0.987808 0.997198 0.999809
0.975638 0.98413 0.99369 0.997666
0.98405 1.00093 0.983657 0.999469
0.98816 1.00534 0.983072 0.99984
0.999615 1 1 0.999615
0.999634 1 1 0.999634
0.999651 1 1 0.999651
0.999704 1 1 0.999704
0.997334 1.00489 0.992879 0.999596
1.01456 1 1.01497 0.999594
0.999602 1 1 0.999602
0.999549 1 1 0.999549
0.999541 1 1 0.999541
0.999568 1 1 0.999568
0.999517 1 1 0.999517
1.0108 0.996831 1.01424 0.999775
1.00013 1 1.00044 0.99969
0.999519 1 1 0.999519
1.02322 0.9931 1.03044 0.999899
1.00346 1 1.00395 0.99951
1.00629 1.00644 0.999862 0.999989
0.999347 0.999354 0.999991 1
1.0034 1.00372 0.99969 0.999994
1.00474 1 1.00493 0.999807
1.0047 0.991886 1.01281 1.00011
1.00044 1.00055 0.999892 0.999999
0.976065 0.979371 0.998837 0.997784
0.975512 0.992222 0.984223 0.998919
1.01966 1.02097 0.998763 0.999955
0.9824 0.999601 0.982998 0.999791
1.02545 0.999509 1.02608 0.999868
1.00797 1.00831 0.999679 0.999985
1.01452 1.01665 0.99799 0.999914
0.986805 0.993633 0.993053 1.00008
0.951357 0.97394 0.97704 0.999768
0.967718 0.982215 0.985987 0.999242
0.990458 0.983992 1.00862 0.997972
1.01021 1 1.01038 0.999837
1.01309 1.0131 1.00005 0.999945
0.973377 0.982919 0.99043 0.999861
0.944911 0.959531 0.985305 0.99945
0.982286 0.97777 1.00702 0.997619
0.981771 0.996167 0.98635 0.999189
1.01472 1 1.01513 0.999599
1.02022 1 1.02066 0.999566
1.02001 1 1.02054 0.999489
1.00185 1 1.0023 0.999552
1.01059 1 1.01112 0.999476
1.0078 1 1.00843 0.999381
1.00209 1 1.0026 0.999489
1.00435 1 1.00495 0.999407
1.00282 1 1.00345 0.999376
1.00075 1 1.00127 0.999485
1.00028 1 1.00084 0.999443
1.00001 1 1.00056 0.99945
0.999524 1 1 0.999524
0.999592 1 1 0.999592
0.999512 1 1 0.999512
0.999699 1 1 0.999699
0.99965 1 1 0.99965
0.999543 1 1 0.999543
0.999743 1 1 0.999743
0.999717 1 1 0.999717
0.999701 1 1 0.999701
0.999822 1 1 0.999822
0.999751 1 1 0.999751
0.99972 1 1 0.99972
0.999957 1 1 0.999957
0.999831 1 1 0.999831
0.999755 1 1 0.999755
1 1 1 1
0.999965 1 1 0.999965
0.999832 1 1 0.999832
0.99997 1 1 0.99997
1 1 1 1
1 1 1 1
1 1 1 1
1 1 1 1
1 1 1 1
0.999742 1 1 0.999742
0.999837 1 1 0.999837
0.999976 1 1 0.999976
0.999852 1 1 0.999852
1 1 1 1
0.999984 1 1 0.999984
0.999867 1 1 0.999867
1 1 1 1
1 1 1 1
0.999991 1 1 0.999991
1 1 1 1
1 1 1 1
1 1 1 1
1.00795 1.00846 0.999502 0.999986
1.00119 1.00133 0.999859 0.999998
1.00781 1.00829 0.999536 0.999986
0.999742 1 1 0.999742
0.999698 1 1 0.999698
0.999695 1 1 0.999695
0.99969 1 1 0.99969
0.999676 1 1 0.999676
0.999743 1 1 0.999743
0.999689 1 1 0.999689
0.999691 1 1 0.999691
0.999655 1 1 0.999655
0.999653 1 1 0.999653
1.01232 1.01318 0.999239 0.999909
1.01419 1.01672 0.997558 0.99995
1.01045 1.01268 0.997824 0.999976
0.998039 1.01421 0.984231 0.999827
0.981332 0.999362 0.982524 0.999424
0.983387 0.992677 0.991566 0.999069
0.978581 0.982561 0.998148 0.997798
0.988907 0.987294 1.00242 0.999213
0.975752 0.981576 0.996317 0.997741
0.981158 0.996956 0.984932 0.99921
0.983934 1.00359 0.980577 0.999833
1.00872 0.985372 1.02444 0.999278
0.98162 0.984005 0.99976 0.997816
0.961191 0.980731 0.981112 0.998945
0.957694 0.981319 0.976148 0.999771
0.999657 1 1 0.999657
0.999617 1 1 0.999617
0.999633 1 1 0.999633
1.00274 0.995152 1.00784 0.999793
1.00012 1 1.00041 0.999718
0.999573 1 1 0.999573
0.999512 1 1 0.999512
0.999558 1 1.00003 0.999524
1.00394 1 1.00444 0.999505
1.02341 0.994838 1.02882 0.999899
1.00388 1 1.00435 0.999523
1.01276 0.999006 1.01406 0.999715
1.01278 1.01283 1 0.999948
1.00487 1.00501 0.999869 0.999991
0.99892 0.998889 1.00003 1
1.02741 0.999007 1.02858 0.999852
0.988165 0.992597 0.996148 0.999385
1.00784 1.00819 0.999666 0.999986
0.982532 0.981797 1.00357 0.99719
0.966164 0.980447 0.986485 0.998933
1.01649 1.01747 0.999125 0.999913
0.950269 0.974638 0.975219 0.999772
1.01033 1 1.01049 0.999842
1.01305 1.01319 0.99992 0.999945
0.969382 0.979132 0.990189 0.999851
0.977928 0.993731 0.984569 0.999521
0.947867 0.96318 0.985151 0.998935
0.985036 0.979362 1.00854 0.997276
0.992373 1.00028 0.992383 0.999708
0.987513 0.98929 0.998318 0.999886
0.941696 0.955979 0.986123 0.998922
0.975869 0.973721 1.00467 0.997547
0.986882 0.999638 0.987721 0.999512
1.02046 1 1.02091 0.999563
1.02139 1 1.02191 0.999488
1.01161 1 1.01221 0.999407
1.01085 1 1.01137 0.999487
1.00738 1 1.008 0.999386
1.00179 1 1.00242 0.999375
1.00413 1 1.00474 0.999394
1.00214 1 1.00277 0.999379
0.999474 1 1 0.999474
1.00035 1 1.00092 0.999432
0.999782 1 1.00033 0.999456
0.999544 1 1 0.999544
0.999585 1 1 0.999585
0.999566 1 1 0.999566
0.999528 1 1 0.999528
0.999656 1 1 0.999656
0.999581 1 1 0.999581
0.999505 1 1 0.999505
0.999745 1 1 0.999745
0.999706 1 1 0.999706
0.999657 1 1 0.999657
0.999809 1 1 0.999809
0.999743 1 1 0.999743
0.999714 1 1 0.999714
0.999947 1 1 0.999947
0.999822 1 1 0.999822
0.999755 1 1 0.999755
1 1 1 1
0.999957 1 1 0.999957
0.999831 1 1 0.999831
1 1 1 1
1 1 1 1
0.999965 1 1 0.999965
1 1 1 1
1 1 1 1
1 1 1 1
0.999731 1 1 0.999731
0.999823 1 1 0.999823
0.999738 1 1 0.999738
0.999969 1 1 0.999969
0.999837 1 1 0.999837
1 1 1 1
0.999977 1 1 0.999977
0.999852 1 1 0.999852
1 1 1 1
1 1 1 1
0.999986 1 1 0.999986
1 1 1 1
1 1 1 1
1 1 1 1
1.01295 1.013 1 0.999946
1.00782 1.00836 0.999475 0.999986
1.00057 1.00052 1.00005 0.999999
0.999705 1 1 0.999705
0.999745 1 1 0.999745
0.999693 1 1 0.999693
0.999696 1 1 0.999696
0.999699 1 1 0.999699
0.999676 1 1 0.999676
0.999668 1 1 0.999668
0.999661 1 1 0.999661
0.999691 1 1 0.999691
0.999655 1 1 0.999655
0.999653 1 1 0.999653
0.999643 1 1 0.999643
0.970024 0.981966 0.988029 0.999807
1.0123 1.01329 0.999115 0.999908
1.01558 1.01832 0.997357 0.99995
0.980927 1.00004 0.981087 0.999802
0.979343 0.996794 0.983523 0.998952
0.974525 0.983045 0.993645 0.997673
0.990943 0.98375 1.00745 0.999863
1.00931 0.984946 1.02485 0.999899
0.954215 0.977291 0.976606 0.999777
0.983179 0.984902 1.00081 0.997445
0.963519 0.980133 0.983522 0.999519
1.00232 0.993584 1.00894 0.99986
0.981844 0.978918 1.00517 0.997834
0.943964 0.95879 0.985027 0.999501
1.00013 1 1.00041 0.999726
0.999658 1 1 0.999658
0.99962 1 1 0.99962
1.02368 0.99676 1.02711 0.9999
1.00456 1 1.00506 0.999501
0.99958 1 1.00005 0.99953
1.00417 1 1.00465 0.999525
1.0118 0.999584 1.01251 0.999718
1.0091 1 1.00939 0.999713
0.986458 0.989297 0.997315 0.999815
1.01195 1.012 0.999991 0.999953
1.00352 1.00359 0.999938 0.999994
1.01032 1 1.01047 0.999848
0.977584 0.995361 0.982384 0.999752
1.01291 1.01328 0.999692 0.999945
0.989282 0.980903 1.01036 0.9982
0.951277 0.965476 0.985798 0.999487
0.966293 0.979195 0.987024 0.999798
0.990355 1.00102 0.98963 0.99971
0.982765 0.987548 0.995336 0.99982
0.947103 0.957046 0.990117 0.999489
0.986641 0.99983 0.987834 0.998961
0.978366 0.975933 1.00491 0.997592
0.988106 1.00817 0.980593 0.999494
0.95171 0.961055 0.990796 0.999476
0.973579 0.973214 1.00264 0.997741
0.98867 1.00462 0.985172 0.998936
1.02331 1 1.02383 0.999487
1.01024 1 1.01084 0.999411
1.0025 1 1.00305 0.999446
1.00719 1 1.0078 0.99939
1.00175 1 1.00238 0.999378
0.999563 1 1 0.999563
1.00163 1 1.00225 0.999382
0.999581 1 1.0001 0.999483
0.999652 1 1 0.999652
0.999579 1 1.00012 0.999462
0.999548 1 1 0.999548
0.999666 1 1 0.999666
0.999671 1 1 0.999671
0.999596 1 1 0.999596
0.999593 1 1 0.999593
0.999622 1 1 0.999622
0.999574 1 1 0.999574
0.999532 1 1 0.999532
0.999726 1 1 0.999726
0.999655 1 1 0.999655
0.999569 1 1 0.999569
0.999802 1 1 0.999802
0.999745 1 1 0.999745
0.999714 1 1 0.999714
0.999933 1 1 0.999933
0.99981 1 1 0.99981
0.999743 1 1 0.999743
1 1 1 1
0.999947 1 1 0.999947
0.999822 1 1 0.999822
1 1 1 1
1 1 1 1
0.999958 1 1 0.999958
1 1 1 1
1 1 1 1
1 1 1 1
0.999742 1 1 0.999742
0.999733 1 1 0.999733
0.999812 1 1 0.999812
0.99996 1 1 0.99996
0.999823 1 1 0.999823
0.999735 1 1 0.999735
1 1 1 1
0.99997 1 1 0.99997
0.999837 1 1 0.999837
1 1 1 1
1 1 1 1
0.999979 1 1 0.999979
1 1 1 1
1 1 1 1
1 1 1 1
0.985382 0.987496 0.997974 0.999884
1.01407 1.01413 1 0.999946
1.00766 1.0082 0.999475 0.999987
0.999702 1 1 0.999702
0.999717 1 1 0.999717
0.999684 1 1 0.999684
0.999702 1 1 0.999702
0.999704 1 1 0.999704
0.999677 1 1 0.999677
0.999663 1 1 0.999663
0.99967 1 1 0.99967
0.999646 1 1 0.999646
0.999653 1 1 0.999653
0.999653 1 1 0.999653
0.999644 1 1 0.999644
0.9472 0.957364 0.989865 0.999514
0.969713 0.980427 0.989242 0.999829
1.0125 1.01351 0.9991 0.999907
0.950955 0.973861 0.976691 0.999783
0.959392 0.978117 0.981879 0.998958
0.988593 0.988859 1.00139 0.998342
1.01478 0.985171 1.03082 0.999257
1.00244 0.993301 1.00997 0.999237
0.945404 0.960662 0.985102 0.999
0.98566 0.982662 1.00498 0.998077
0.998156 0.993148 1.00582 0.999223
0.978274 0.976401 1.00413 0.9978
1.00782 1 1.00819 0.999632
0.999992 1 1.00027 0.999726
0.999659 1 1 0.999659
1.01062 1 1.0109 0.999722
1.00447 1 1.00494 0.999527
1.00888 1 1.00918 0.999709
1.00167 1.00059 1.00146 0.999622
0.955583 0.965283 0.990569 0.999377
0.987126 0.989142 0.998108 0.999854
1.01102 1.01112 0.999943 0.999958
0.987673 1.00122 0.986754 0.999713
0.986032 0.998506 0.987945 0.999558
0.984989 0.988551 0.996579 0.999818
0.977704 0.97453 1.00569 0.997584
0.944289 0.957047 0.987715 0.998942
0.990196 1.00739 0.983407 0.999517
0.95448 0.962543 0.99243 0.999187
0.974465 0.972148 1.00473 0.99766
0.988212 1.00346 0.985298 0.999499
0.995721 1.01242 0.984118 0.999379
0.96479 0.967187 1.00026 0.997265
0.993196 1.00177 0.991783 0.999653
1.00949 1 1.01008 0.999414
1.00224 1 1.0028 0.999438
0.999155 1.00031 0.999258 0.999582
1.00164 1 1.00226 0.999381
0.99947 1 0.999906 0.999564
0.999199 1 0.999403 0.999796
0.999626 1 1.00014 0.999491
0.999654 1 1 0.999654
0.99978 1 1 0.99978
0.999552 1 1 0.999552
0.999666 1 1 0.999666
0.999736 1 1 0.999736
0.999712 1 1 0.999712
0.99968 1 1 0.99968
0.99966 1 1 0.99966
0.999628 1 1 0.999628
0.999598 1 1 0.999598
0.999602 1 1 0.999602
0.999682 1 1 0.999682
0.999631 1 1 0.999631
0.999582 1 1 0.999582
0.99979 1 1 0.99979
0.999725 1 1 0.999725
0.999654 1 1 0.999654
0.999918 1 1 0.999918
0.999803 1 1 0.999803
0.999744 1 1 0.999744
1 1 1 1
0.999933 1 1 0.999933
0.99981 1 1 0.99981
1 1 1 1
1 1 1 1
0.999947 1 1 0.999947
1 1 1 1
1 1 1 1
1 1 1 1
0.999745 1 1 0.999745
0.999736 1 1 0.999736
0.999803 1 1 0.999803
0.999735 1 1 0.999735
0.999811 1 1 0.999811
0.999947 1 1 0.999947
1 1 1 1
0.999961 1 1 0.999961
0.999823 1 1 0.999823
1 1 1 1
1 1 1 1
0.999972 1 1 0.999972
1 1 1 1
1 1 1 1
1 1 1 1
0.957653 0.962977 0.995445 0.999021
0.983444 0.986884 0.996661 0.999853
1.01523 1.01529 1 0.999945
0.999698 1 1 0.999698
0.999683 1 1 0.999683
0.99972 1 1 0.99972
0.999722 1 1 0.999722
0.99969 1 1 0.99969
0.999665 1 1 0.999665
0.999672 1 1 0.999672
0.999648 1 1 0.999648
0.999677 1 1 0.999677
0.999638 1 1 0.999638
0.999856 1 1.00026 0.999599
0.999648 1 1 0.999648
0.999645 1 1 0.999645
0.975044 0.97684 1.00086 0.997301
0.951081 0.959958 0.991479 0.999267
0.970715 0.98145 0.989258 0.999802
0.946296 0.961269 0.984881 0.999536
0.981999 0.978717 1.00619 0.997185
1.00542 0.994093 1.01152 0.999872
0.999175 0.994461 1.0052 0.999545
0.979147 0.977528 1.00379 0.99787
0.99264 0.999119 0.994196 0.999315
1.0063 1.00125 1.0057 0.999355
1.00628 1 1.00666 0.999624
0.999725 1 1 0.999725
1.00775 1 1.00804 0.999707
1.00069 1.00083 1.00017 0.99969
0.960555 0.965271 0.997321 0.997787
0.95707 0.964595 0.993224 0.998968
0.987822 0.989006 0.998909 0.999893
0.991671 1.00691 0.985323 0.99954
0.992559 1.00814 0.98559 0.998937
0.95702 0.962577 0.995258 0.998964
0.975822 0.971796 1.00644 0.997718
0.992479 1.01103 0.982264 0.999375
0.968205 0.968883 1.00149 0.997809
0.992009 1.0042 0.988777 0.999074
0.987612 1.00997 0.978478 0.999376
0.998086 0.993102 1.0053 0.999724
1.00128 1 1.00185 0.99943
0.998391 1.00034 0.998477 0.999576
0.997196 1.0008 0.996675 0.999719
0.999302 1 0.999738 0.999564
0.998938 1 0.999144 0.999794
0.998925 1 0.99908 0.999845
0.999655 1 1 0.999655
0.999767 1 0.999994 0.999774
0.999766 1 0.999987 0.999779
0.999665 1 1 0.999665
0.999731 1 1 0.999731
0.999725 1 1 0.999725
0.999722 1 1 0.999722
0.999686 1 1 0.999686
0.999689 1 1 0.999689
0.999658 1 1 0.999658
0.999651 1 1 0.999651
0.999662 1 1 0.999662
0.999626 1 1 0.999626
0.999599 1 1 0.999599
0.999763 1 1 0.999763
0.999688 1 1 0.999688
0.999639 1 1 0.999639
0.999903 1 1 0.999903
0.999789 1 1 0.999789
0.999724 1 1 0.999724
1 1 1 1
0.999918 1 1 0.999918
0.999803 1 1 0.999803
1 1 1 1
1 1 1 1
0.999932 1 1 0.999932
1 1 1 1
1 1 1 1
1 1 1 1
0.999737 1 1 0.999737
0.999746 1 1 0.999746
0.99979 1 1 0.99979
0.999729 1 1 0.999729
0.999798 1 1 0.999798
0.999933 1 1 0.999933
0.999811 1 1 0.999811
0.999948 1 1 0.999948
1 1 1 1
1 1 1 1
1 1 1 1
0.999961 1 1 0.999961
1 1 1 1
1 1 1 1
1 1 1 1
0.96889 0.970669 1.00031 0.99786
0.956131 0.965112 0.991247 0.999443
0.985922 0.988168 0.997847 0.99988
0.999682 1 1 0.999682
0.999723 1 1 0.999723
0.999692 1 1 0.999692
0.999723 1 1 0.999723
0.999713 1 1 0.999713
0.999704 1 1 0.999704
0.99965 1 1 0.99965
0.999673 1 1 0.999673
0.999639 1 1 0.999639
0.999667 1 1 0.999667
0.999615 1 1 0.999615
0.999514 1 1.00011 0.999399
0.999657 1 1.00006 0.999599
0.999643 1 1 0.999643
0.991067 0.994079 0.997342 0.999627
0.972264 0.973864 1.00057 0.997793
0.947538 0.958934 0.989135 0.998969
0.976704 0.97529 1.00371 0.997748
0.997295 0.993959 1.00348 0.999872
0.993171 0.99706 0.996321 0.999778
0.996896 1.00419 0.993324 0.999411
1.0033 1.00053 1.00337 0.999396
1.00524 1 1.00563 0.999615
0.99851 1.00082 0.997932 0.999755
0.98796 0.986386 1.00245 0.999151
0.96517 0.966874 1.00035 0.997887
0.956204 0.965 0.99142 0.999461
0.990684 1.00946 0.982017 0.999372
0.996951 1.00773 0.989693 0.999604
0.968567 0.96849 1.00171 0.998371
0.987539 1.00773 0.980567 0.999382
0.993708 0.994019 1.00018 0.999509
0.985392 1.00368 0.982238 0.999536
1.00203 1.0001 1.00249 0.999454
0.99725 1.00022 0.997457 0.99957
0.996608 1.0006 0.99629 0.99972
0.997337 1.0003 0.997308 0.999728
0.998831 1 0.999038 0.999792
0.999054 1 0.999214 0.99984
0.99953 1 0.999799 0.999731
0.999767 1 1 0.999767
0.999773 1 1 0.999773
0.999687 1 1 0.999687
0.999727 1 1 0.999727
0.999727 1 1 0.999727
0.999668 1 1 0.999668
0.999732 1 1 0.999732
0.999691 1 1 0.999691
0.999658 1 1 0.999658
0.999657 1 1 0.999657
0.99965 1 1 0.99965
0.99967 1 1 0.99967
0.999728 1 1 0.999728
0.999667 1 1 0.999667
0.999624 1 1 0.999624
0.999881 1 1 0.999881
0.999763 1 1 0.999763
0.999693 1 1 0.999693
1 1 1 1
0.999903 1 1 0.999903
0.999789 1 1 0.999789
1 1 1 1
1 1 1 1
0.999918 1 1 0.999918
1 1 1 1
1 1 1 1
1 1 1 1
0.999731 1 1 0.999731
0.999742 1 1 0.999742
0.999785 1 1 0.999785
0.999746 1 1 0.999746
0.999789 1 1 0.999789
0.999919 1 1 0.999919
0.999793 1 1 0.999793
0.999933 1 1 0.999933
1 1 1 1
0.999948 1 1 0.999948
1 1 1 1
1 1 1 1
1 1 1 1
1 1 1 1
1 1 1 1
0.984442 0.986272 0.998582 0.999562
0.964452 0.967849 0.998668 0.997819
0.953333 0.963549 0.990423 0.998965
0.999689 1 1 0.999689
0.999694 1 1 0.999694
0.999723 1 1 0.999723
0.999703 1 1 0.999703
0.999711 1 1 0.999711
0.999727 1 1 0.999727
0.999668 1 1 0.999668
0.99964 1 1 0.99964
0.999674 1 1 0.999674
0.999635 1 1 0.999635
0.999505 1 1 0.999505
0.999424 1.00018 1 0.999243
0.999534 1 1.00013 0.999405
0.9996 1 1 0.9996
0.996539 1.00081 0.996299 0.999437
0.991719 0.995444 0.996885 0.999371
0.97387 0.974818 1.00072 0.998311
0.996234 0.998571 0.998425 0.999234
1.0005 1.00446 0.99673 0.999327
1.00175 1 1.00231 0.999438
0.99973 1 1.00002 0.99971
0.988913 0.985341 1.00397 0.999652
0.962573 0.966694 0.997922 0.997811
0.986898 1.00542 0.982179 0.999388
0.989999 0.994537 0.996162 0.999272
0.988943 1.00302 0.986442 0.999515
1.00094 1.00006 1.00136 0.999519
0.999625 1.00064 0.999492 0.999491
0.999448 1 1 0.999448
0.996191 1.00052 0.995951 0.999721
0.998192 1.00032 0.998138 0.999731
0.999615 1 1 0.999615
0.999219 1 0.999384 0.999835
0.999686 1 0.999957 0.999729
0.999613 1 1 0.999613
0.999768 1 1 0.999768
0.999696 1 1 0.999696
0.999608 1 1 0.999608
0.999729 1 1 0.999729
0.999669 1 1 0.999669
0.999633 1 1 0.999633
0.999697 1 1 0.999697
0.99966 1 1 0.99966
0.999657 1 1 0.999657
0.999648 1 1 0.999648
0.999665 1 1 0.999665
0.999715 1 1 0.999715
0.999855 1 1 0.999855
0.999734 1 1 0.999734
0.999673 1 1 0.999673
0.999998 1 1 0.999998
0.999881 1 1 0.999881
0.999763 1 1 0.999763
1 1 1 1
1 1 1 1
0.999902 1 1 0.999902
1 1 1 1
1 1 1 1
1 1 1 1
0.999709 1 1 0.999709
0.999731 1 1 0.999731
0.99978 1 1 0.99978
0.999747 1 1 0.999747
0.999788 1 1 0.999788
0.999906 1 1 0.999906
0.999789 1 1 0.999789
0.999919 1 1 0.999919
1 1 1 1
0.999933 1 1 0.999933
1 1 1 1
1 1 1 1
1 1 1 1
1 1 1 1
1 1 1 1
0.998025 1.00093 0.997413 0.999686
0.984694 0.987573 0.998008 0.999076
0.965713 0.968098 0.999659 0.997877
0.999702 1 1 0.999702
0.999631 1 1 0.999631
0.999693 1 1 0.999693
0.999703 1 1 0.999703
0.999709 1 1 0.999709
0.999721 1 1 0.999721
0.999556 1 1 0.999556
0.999681 1 1 0.999681
0.999656 1 1 0.999656
0.99951 1 1 0.99951
0.99933 1 1 0.99933
0.999721 1.00063 0.99967 0.999426
0.999567 1.00031 1 0.999254
0.999411 1 1 0.999411
0.998463 1.00253 0.996483 0.999455
0.990458 0.994916 0.996435 0.999081
1.00257 1.0046 0.998738 0.999244
0.999709 1 1 0.999709
1.00088 1 1.00116 0.999722
0.987164 0.98512 1.00298 0.999097
0.992936 1.0027 0.990765 0.999494
0.999872 1.00002 1.00027 0.999586
0.999539 1.00085 0.999187 0.999501
0.999479 1 1 0.999479
0.999505 1 1 0.999505
0.999631 1 1 0.999631
0.999042 1.00036 0.998947 0.999733
0.99962 1 1 0.999621
0.999525 1 1 0.999525
0.999726 1 1 0.999726
0.999616 1 1 0.999616
0.999547 1 1 0.999547
0.999706 1 1 0.999706
0.999608 1 1 0.999608
0.999579 1 1 0.999579
0.999669 1 1 0.999669
0.999633 1 1 0.999633
0.999632 1 1 0.999632
0.999662 1 1 0.999662
0.999657 1 1 0.999657
0.999699 1 1 0.999699
0.999661 1 1 0.999661
0.999713 1 1 0.999713
0.999832 1 1 0.999832
0.999992 1 1 0.999992
0.999855 1 1 0.999855
0.99974 1 1 0.99974
1 1 1 1
0.999996 1 1 0.999996
0.99988 1 1 0.99988
1 1 1 1
0.999999 1 1 0.999999
1 1 1 1
0.999662 1 1 0.999662
0.999704 1 1 0.999704
0.999762 1 1 0.999762
0.999732 1 1 0.999732
0.99978 1 1 0.99978
0.999892 1 1 0.999892
0.999791 1 1 0.999791
0.999906 1 1 0.999906
1 1 1 1
0.999919 1 1 0.999919
1 1 1 1
1 1 1 1
1 1 1 1
1 1 1 1
1 1 1 1
0.999322 1 0.99965 0.999671
0.997377 1.00029 0.997389 0.999695
0.98413 0.986214 0.998319 0.999567
0.999599 1 1 0.999599
0.999727 1 1 0.999727
0.999544 1 1 0.999544
0.999627 1 1 0.999627
0.999697 1 1 0.999697
0.999409 1 1 0.999409
0.999716 1 1 0.999716
0.999555 1 1 0.999555
0.999407 1 1 0.999407
0.999514 1 1 0.999514
0.999314 1 1 0.999314
0.999574 1.00037 0.999786 0.99942
0.999449 1.00018 1 0.999265
0.999961 1.00362 0.996876 0.999473
0.999727 1 1 0.999727
0.999704 1 1 0.999704
1.00198 1 1.00224 0.999735
0.999417 1.00099 0.998911 0.999512
0.999509 1 1 0.999509
0.999499 1 1 0.999499
0.999636 1 1 0.999636
0.999596 1 1 0.999596
0.999626 1 1 0.999626
0.999531 1 1 0.999531
0.999518 1 1 0.999518
0.999619 1 1 0.999619
0.999544 1 1 0.999544
0.99953 1 1 0.99953
0.999608 1 1 0.999608
0.999578 1 1 0.999578
0.999588 1 1 0.999588
0.999633 1 1 0.999633
0.999631 1 1 0.999631
0.999671 1 1 0.999671
0.999658 1 1 0.999658
0.9997 1 1 0.9997
0.99981 1 1 0.99981
0.999711 1 1 0.999711
0.999832 1 1 0.999832
0.999984 1 1 0.999984
1 1 1 1
0.999989 1 1 0.999989
0.999855 1 1 0.999855
1 1 1 1
0.999995 1 1 0.999995
1 1 1 1
0.999561 1 1 0.999561
0.999619 1 1 0.999619
0.999656 1 1 0.999656
0.999739 1 1 0.999739
0.999698 1 1 0.999698
0.999763 1 1 0.999763
0.999879 1 1 0.999879
0.99978 1 1 0.99978
0.999892 1 1 0.999892
0.999999 1 1 0.999999
0.999906 1 1 0.999906
1 1 1 1
1 1 1 1
1 1 1 1
1 1 1 1
1 1 1 1
0.99961 1 1 0.99961
0.999825 1.00038 0.999776 0.999668
0.997437 1.00038 0.997358 0.999704
0.999466 1 1 0.999466
0.999623 1 1 0.999623
0.999752 1 1 0.999752
0.999555 1 1 0.999555
0.999623 1 1 0.999623
0.999386 1 1 0.999386
0.999397 1 1 0.999397
0.999554 1 1 0.999554
0.999402 1 1 0.999402
0.999299 1 1 0.999299
1.00006 1.00076 0.999882 0.999414
0.999683 1 1 0.999683
0.999721 1 1 0.999721
0.999699 1 1 0.999699
0.999493 1 1 0.999493
0.999641 1 1 0.999641
0.999596 1 1 0.999596
0.999582 1 1 0.999582
0.999536 1 1 0.999536
0.999514 1 1 0.999514
0.999531 1 1 0.999531
0.999542 1 1 0.999542
0.999529 1 1 0.999529
0.999548 1 1 0.999548
0.999577 1 1 0.999577
0.999587 1 1 0.999587
0.999633 1 1 0.999633
0.999631 1 1 0.999631
0.999671 1 1 0.999671
0.999781 1 1 0.999781
0.9997 1 1 0.9997
0.999809 1 1 0.999809
0.999976 1 1 0.999976
0.999832 1 1 0.999832
0.999981 1 1 0.999981
1 1 1 1
1 1 1 1
0.999987 1 1 0.999987
1 1 1 1
0.999485 1 1 0.999485
0.999611 1 1 0.999611
0.999596 1 1 0.999596
0.999701 1 1 0.999701
0.999619 1 1 0.999619
0.99965 1 1 0.99965
0.99974 1 1 0.99974
0.999862 1 1 0.999862
0.999764 1 1 0.999764
0.99988 1 1 0.99988
0.999996 1 1 0.999996
0.999893 1 1 0.999893
1 1 1 1
1 1 1 1
1 1 1 1
1 1 1 1
1 1 1 1
0.999543 1 1 0.999543
0.999609 1 1 0.999609
0.999956 1.00037 0.999921 0.999664
0.99942 1 1 0.99942
0.999466 1 1 0.999466
0.999647 1 1 0.999647
0.999565 1 1 0.999565
0.999387 1 1 0.999387
0.999386 1 1 0.999386
0.999396 1 1 0.999396
0.999629 1 1 0.999629
0.999665 1 1 0.999665
0.999715 1 1 0.999715
0.999575 1 1 0.999575
0.999596 1 1 0.999596
0.99958 1 1 0.99958
0.999565 1 1 0.999565
0.99951 1 1 0.99951
0.999532 1 1 0.999532
0.999541 1 1 0.999541
0.999528 1 1 0.999528
0.999548 1 1 0.999548
0.9996 1 1 0.9996
0.999586 1 1 0.999586
0.999633 1 1 0.999633
0.999747 1 1 0.999747
0.999671 1 1 0.999671
0.999781 1 1 0.999781
0.999969 1 1 0.999969
0.999809 1 1 0.999809
0.999974 1 1 0.999974
1 1 1 1
0.999979 1 1 0.999979
1 1 1 1
1 1 1 1
0.999442 1 1 0.999442
0.999534 1 1 0.999534
0.999499 1 1 0.999499
0.999674 1 1 0.999674
0.999609 1 1 0.999609
0.99963 1 1 0.99963
0.999826 1 1 0.999826
0.999701 1 1 0.999701
0.999618 1 1 0.999618
0.99974 1 1 0.99974
0.999862 1 1 0.999862
0.999989 1 1 0.999989
0.99988 1 1 0.99988
0.999997 1 1 0.999997
1 1 1 1
1 1 1 1
1 1 1 1
1 1 1 1
0.99952 1 1 0.99952
0.999529 1 1 0.999529
0.999609 1 1 0.999609
0.999412 1 1 0.999412
0.999467 1 1 0.999467
0.999388 1 1 0.999388
0.999575 1 1 0.999575
0.999632 1 1 0.999632
0.999647 1 1 0.999647
0.999572 1 1 0.999572
0.999556 1 1 0.999556
0.999578 1 1 0.999578
0.999565 1 1 0.999565
0.999564 1 1 0.999564
0.999532 1 1 0.999532
0.999542 1 1 0.999542
0.999586 1 1 0.999586
0.999548 1 1 0.999548
0.9996 1 1 0.9996
0.99972 1 1 0.99972
0.999633 1 1 0.999633
0.999747 1 1 0.999747
0.999961 1 1 0.999961
0.99978 1 1 0.99978
0.999966 1 1 0.999966
1 1 1 1
0.999972 1 1 0.999972
1 1 1 1
1 1 1 1
0.999517 1 1 0.999517
0.999478 1 1 0.999478
0.999437 1 1 0.999437
0.999612 1 1 0.999612
0.999541 1 1 0.999541
0.999512 1 1 0.999512
0.999783 1 1 0.999783
0.999661 1 1 0.999661
0.999607 1 1 0.999607
0.999977 1 1 0.999977
0.999827 1 1 0.999827
0.999701 1 1 0.999701
0.999862 1 1 0.999862
0.999992 1 1 0.999992
1 1 1 1
0.999999 1 1 0.999999
1 1 1 1
1 1 1 1
0.999516 1 1 0.999516
0.999516 1 1 0.999516
0.999516 1 1 0.999516
0.999405 1 1 0.999405
0.999539 1 1 0.999539
0.999579 1 1 0.999579
0.999634 1 1 0.999634
0.999569 1 1 0.999569
0.999557 1 1 0.999557
0.99957 1 1 0.99957
0.999566 1 1 0.999566
0.999565 1 1 0.999565
0.99959 1 1 0.99959
0.999543 1 1 0.999543
0.999587 1 1 0.999587
0.999706 1 1 0.999706
0.9996 1 1 0.9996
0.99972 1 1 0.99972
0.999955 1 1 0.999955
0.999746 1 1 0.999746
0.999959 1 1 0.999959
1 1 1 1
0.999964 1 1 0.999964
1 1 1 1
1 1 1 1
0.999527 1 1 0.999527
0.999518 1 1 0.999518
0.999517 1 1 0.999517
0.999548 1 1 0.999548
0.999489 1 1 0.999489
0.999433 1 1 0.999433
0.999719 1 1 0.999719
0.999611 1 1 0.999611
0.999548 1 1 0.999548
0.999962 1 1 0.999962
0.999771 1 1 0.999771
0.999648 1 1 0.999648
1 1 1 1
0.999981 1 1 0.999981
0.999827 1 1 0.999827
0.999994 1 1 0.999994
1 1 1 1
1 1 1 1
0.999527 1 1 0.999527
0.999525 1 1 0.999525
0.999511 1 1 0.999511
0.999545 1 1 0.999545
0.999538 1 1 0.999538
0.999584 1 1 0.999584
0.999559 1 1 0.999559
0.999571 1 1 0.999571
0.999611 1 1 0.999611
0.999567 1 1 0.999567
0.999599 1 1 0.999599
0.999688 1 1 0.999688
0.999588 1 1 0.999588
0.999706 1 1 0.999706
0.99995 1 1 0.99995
0.999719 1 1 0.999719
0.999954 1 1 0.999954
1 1 1 1
0.999957 1 1 0.999957
1 1 1 1
1 1 1 1
0.999532 1 1 0.999532
0.999545 1 1 0.999545
0.999527 1 1 0.999527
0.999565 1 1 0.999565
0.999522 1 1 0.999522
0.999517 1 1 0.999517
0.999679 1 1 0.999679
0.999562 1 1 0.999562
0.999499 1 1 0.999499
0.99995 1 1 0.99995
0.999714 1 1 0.999714
0.999611 1 1 0.999611
1 1 1 1
0.999966 1 1 0.999966
0.99976 1 1 0.99976
1 1 1 1
0.999985 1 1 0.999985
1 1 1 1
0.999541 1 1 0.999541
0.999528 1 1 0.999528
0.999534 1 1 0.999534
0.999587 1 1 0.999587
0.999545 1 1 0.999545
0.999536 1 1 0.999536
0.999571 1 1 0.999571
0.999611 1 1 0.999611
0.999686 1 1 0.999686
0.999608 1 1 0.999608
0.999696 1 1 0.999696
0.999944 1 1 0.999944
0.999707 1 1 0.999707
0.999949 1 1 0.999949
1 1 1 1
0.999953 1 1 0.999953
1 1 1 1
1 1 1 1
0.999553 1 1 0.999553
0.999528 1 1 0.999528
0.99958 1 1 0.99958
0.999546 1 1 0.999546
0.999527 1 1 0.999527
0.999686 1 1 0.999686
0.999564 1 1 0.999564
0.999525 1 1 0.999525
0.999943 1 1 0.999943
0.999685 1 1 0.999685
0.999575 1 1 0.999575
1 1 1 1
0.999953 1 1 0.999953
0.999708 1 1 0.999708
1 1 1 1
0.999971 1 1 0.999971
1 1 1 1
0.999587 1 1 0.999587
0.999543 1 1 0.999543
0.999528 1 1 0.999528
0.999672 1 1 0.999672
0.999587 1 1 0.999587
0.999546 1 1 0.999546
0.999612 1 1 0.999612
0.999688 1 1 0.999688
0.999936 1 1 0.999936
0.999703 1 1 0.999703
0.999942 1 1 0.999942
1 1 1 1
0.999948 1 1 0.999948
1 1 1 1
1 1 1 1
0.999584 1 1 0.999584
0.999549 1 1 0.999549
0.999524 1 1 0.999524
0.99969 1 1 0.99969
0.99958 1 1 0.99958
0.999547 1 1 0.999547
0.999941 1 1 0.999941
0.999685 1 1 0.999685
0.999562 1 1 0.999562
1 1 1 1
0.999945 1 1 0.999945
0.999691 1 1 0.999691
1 1 1 1
0.999956 1 1 0.999956
1 1 1 1
0.999685 1 1 0.999685
0.999579 1 1 0.999579
0.999544 1 1 0.999544
0.999929 1 1 0.999929
0.999673 1 1 0.999673
0.999588 1 1 0.999588
0.999689 1 1 0.999689
0.999935 1 1 0.999935
1 1 1 1
0.999941 1 1 0.999941
1 1 1 1
1 1 1 1
0.99969 1 1 0.99969
0.999581 1 1 0.999581
0.999546 1 1 0.999546
0.999941 1 1 0.999941
0.999689 1 1 0.999689
0.99958 1 1 0.99958
1 1 1 1
0.999941 1 1 0.999941
0.999684 1 1 0.999684
1 1 1 1
0.999947 1 1 0.999947
1 1 1 1
0.999928 1 1 0.999928
0.999678 1 1 0.999678
0.999571 1 1 0.999571
1 1 1 1
0.999929 1 1 0.999929
0.999675 1 1 0.999675
0.999934 1 1 0.999934
1 1 1 1
1 1 1 1
0.999935 1 1 0.999935
0.99969 1 1 0.99969
0.999579 1 1 0.999579
1 1 1 1
0.99994 1 1 0.99994
0.999689 1 1 0.999689
1 1 1 1
0.999941 1 1 0.999941
1 1 1 1
0.999995 1 1 0.999995
0.99993 1 1 0.99993
0.999671 1 1 0.999671
1 1 1 1
0.999928 1 1 0.999928
1 1 1 1
0.999998 1 1 0.999998
0.999936 1 1 0.999936
0.99969 1 1 0.99969
0.999999 1 1 0.999999
0.99994 1 1 0.99994
1 1 1 1
1 1 1 1
0.99993 1 1 0.99993
1 1 1 1
0.999998 1 1 0.999998
0.999936 1 1 0.999936
1 1 1 1
1 1 1 1
1 1 1 1

VECTORS lamdaE float
0.998979 0.999741 0.997103
0.999174 0.99875 0.998897
0.99893 0.999797 0.997144
0.999022 1.00009 0.996813
0.998906 1.00002 0.997008
0.999102 0.999286 0.997279
0.999511 1.00044 0.995253
0.999205 0.998654 0.998924
0.998772 1.00003 0.99876
0.998983 0.999152 0.998889
0.999342 0.998317 0.997721
0.999521 1.00007 0.995358
0.999316 0.999953 0.996519
0.998967 1.00006 0.996914
0.99888 0.999855 0.997189
0.998961 1.00015 0.996862
0.999069 0.999297 0.997324
0.998851 1.0001 0.997046
0.999543 1.00042 0.995252
0.999257 0.999985 0.998497
0.999128 0.999995 0.996756
0.998916 1.00013 0.996917
1.00001 1.00018 0.994631
0.999626 1.00043 0.995068
0.999266 0.998714 0.997521
0.999417 1.00032 0.995521
1.0005 1.00107 0.992805
0.999239 0.998548 0.998952
0.998812 1.00006 0.997886
0.999025 0.999257 0.998106
0.999333 0.99821 0.999007
0.999482 1.00012 0.995358
0.998899 1.00033 0.996925
0.998918 0.99993 0.997176
0.999716 1.00046 0.99537
0.999425 0.997802 0.999133
0.99953 1.00024 0.995839
0.999523 0.999765 0.995645
1.00001 1.00144 0.993065
0.999582 0.997376 0.999183
0.999296 0.999999 0.998467
0.999028 1.00005 0.997753
0.999426 0.999989 0.998363
0.999072 0.99996 0.996817
1.00045 0.999963 0.993574
0.998877 1.00018 0.998711
1.00017 1.00007 0.994981
0.998898 1.00022 0.99691
0.998793 1.00018 0.997088
0.999033 0.999299 0.997373
0.999574 1.0004 0.99525
0.999244 0.999965 0.997558
0.999071 1.00002 0.996805
0.999243 0.998678 0.997565
0.998861 1.0002 0.996963
1.00004 1.00017 0.994628
0.999443 1.00031 0.995523
0.999665 1.0004 0.995067
1.00054 1.00108 0.992756
0.999339 0.999997 0.998426
0.999188 0.999956 0.996698
1.00039 0.999963 0.994613
1.00018 1.00001 0.994508
0.999792 1.00035 0.99486
1.00164 1.00021 0.991547
1.00083 1.00071 0.992323
0.999453 0.998139 0.99776
0.999379 1 0.995903
1.00013 1.00135 0.993184
1.00111 1.00106 0.991328
0.998839 0.999898 0.998732
0.999369 0.99811 0.99905
0.999069 0.999048 0.99887
0.99944 1.00017 0.995359
0.998894 1.00017 0.998662
0.998889 0.999691 0.99877
0.999637 1.00056 0.994567
0.999445 0.997846 0.998516
0.99948 1.00037 0.995111
0.999507 0.999713 0.996012
1.00001 1.00145 0.993052
0.999515 0.997596 0.999143
0.999741 0.998597 0.996394
0.999867 1.0004 0.994331
0.999578 1.00053 0.994783
1.00083 1.0008 0.992111
0.999568 0.999281 0.996606
1.00017 1.00126 0.992941
0.999922 1.00149 0.993198
1.0004 1.00168 0.992038
0.999643 0.997146 0.999225
0.999588 0.997345 0.999196
0.999022 1.00008 0.998629
0.999235 1.00001 0.998511
0.999394 0.999994 0.998388
0.999132 0.999995 0.997664
1.00043 0.999964 0.994098
0.998911 1.00014 0.997797
1.00012 1.00004 0.994574
0.999436 0.999991 0.998354
1.00059 0.999928 0.993297
1.0003 1 0.994806
1.0022 0.999805 0.990402
1.00001 1.00021 0.995095
1.00178 1.0001 0.990944
0.999301 0.999931 0.996551
0.999013 1.00004 0.996852
0.999217 0.998625 0.997612
0.9988 1.0003 0.997008
1.00007 1.00014 0.994625
0.999706 1.00035 0.995065
0.999471 1.0003 0.995524
1.00059 1.0011 0.992707
0.99938 0.999996 0.998395
0.999137 0.999944 0.996755
1.00042 0.999936 0.993886
1.00021 1 0.994494
0.999409 0.998095 0.998403
0.999422 0.999976 0.996025
0.99983 1.00032 0.994862
1.00164 1.0002 0.991449
1.00019 1.00138 0.993125
1.00086 1.00073 0.992383
1.00111 1.00106 0.991335
1.00054 0.999974 0.993348
1.00026 0.999927 0.994442
1.00219 0.99975 0.990728
1.00187 0.999916 0.99116
1.00124 1.00044 0.991846
1.00243 1.00005 0.990009
0.999505 0.997735 0.999117
1.00145 1.00066 0.991046
0.999529 0.999553 0.995828
0.999879 1.00143 0.99325
1.00075 1.00156 0.99161
1.00149 1.00093 0.990729
0.999708 0.998802 0.996209
1.00006 1.00049 0.993909
0.998856 1.0001 0.998677
0.998909 0.999524 0.998805
0.999591 1.00063 0.994574
0.999464 0.99779 0.999123
0.999487 0.999712 0.995709
0.999413 1.00047 0.995098
1 1.00145 0.993038
0.999525 0.997572 0.999156
0.999747 0.998559 0.996407
0.999833 1.00037 0.994784
0.999519 1.00052 0.995216
1.00082 1.00079 0.992123
0.999583 0.999247 0.996046
1.00017 1.00126 0.992941
0.999904 1.00152 0.993189
1.0004 1.00167 0.992013
0.99966 0.998918 0.996226
0.999808 0.998289 0.996579
1.00005 1.00047 0.99394
1.00122 1.0005 0.991635
1.00043 1.00109 0.992607
1.00145 1.00085 0.990874
0.999968 1.00117 0.993427
1.00064 1.00134 0.991914
1.00021 1.00208 0.992103
1.00052 1.00194 0.991626
0.999707 0.996914 0.999265
0.999651 0.997111 0.999237
0.999596 0.997313 0.999209
0.999767 0.998493 0.99642
0.999566 0.997509 0.999163
0.998926 1.00013 0.998651
0.999123 1.00003 0.998586
1.00011 1.00002 0.994143
1.0004 0.999952 0.993648
0.999357 0.999998 0.998418
0.999441 0.999994 0.998348
1.00058 0.999936 0.993307
1.00026 0.999985 0.994401
1.0022 0.999811 0.990403
0.999961 1.0002 0.994259
1.00177 1.00011 0.990949
1.00065 0.999939 0.993166
1.00244 0.999706 0.990024
1.00198 0.999929 0.990714
1.00302 0.999588 0.98907
1.00154 1.00028 0.99124
1.00255 0.999884 0.989692
0.999415 0.999993 0.998365
0.999084 0.999924 0.996814
1.00043 0.999922 0.99319
1.00023 0.999992 0.994481
0.999351 0.998042 0.999065
0.999462 0.999971 0.996147
0.99987 1.00027 0.994864
1.00164 1.00019 0.99135
1.00089 1.00076 0.992444
1.00025 1.00141 0.993067
1.0011 1.00106 0.991342
1.00056 0.999964 0.993337
1.00029 0.999918 0.994425
1.00217 0.999747 0.990538
1.00188 0.999956 0.991222
0.999485 0.997765 0.999101
0.999526 0.999558 0.996125
0.999938 1.00144 0.993364
1.00123 1.00045 0.991857
1.00242 1 0.989897
1.0007 1.00156 0.991595
1.00149 1.00067 0.991085
1.00148 1.00093 0.990742
0.999692 0.998855 0.996201
1.00006 1.00048 0.99391
1.00242 0.999683 0.99009
1.002 0.999794 0.991026
1.003 0.99957 0.989361
1.00271 0.999633 0.98951
1.00186 1.00035 0.990646
1.00286 0.999662 0.989475
0.999615 0.999153 0.996017
1.00189 1.00039 0.990472
0.999887 1.00132 0.993377
1.0003 1.00178 0.99201
1.00111 1.00169 0.990987
1.00175 1.00067 0.990573
1.00004 1.00086 0.993598
1.00007 1.00005 0.994334
1.00022 1.00159 0.992528
0.999783 1.00043 0.994382
0.999534 0.997546 0.999168
0.999753 0.998524 0.996419
0.999445 1.00065 0.994845
1.00082 1.00078 0.992135
0.999579 0.99921 0.996031
0.999883 1.00153 0.993182
1.00016 1.00125 0.99294
1.00041 1.00166 0.991988
0.99967 0.998874 0.996233
0.999808 0.998265 0.996591
1.00005 1.00048 0.993941
1.00121 1.0005 0.991645
1.00042 1.00107 0.992618
1.00144 1.00086 0.990877
0.999939 1.00122 0.993425
1.00064 1.00134 0.991956
1.00021 1.00208 0.992098
1.00051 1.00194 0.991583
0.999863 0.998015 0.996751
1.00004 1.00078 0.99366
1.00005 1.00011 0.994291
1.0002 1.00152 0.992643
1.00191 1.00047 0.990364
1.00097 1.00118 0.991507
1.0018 1.0008 0.990247
1.00017 1.00196 0.992313
1.00084 1.00144 0.991506
1.00024 1.00265 0.991463
1.00063 1.00194 0.991255
1.00013 0.999112 0.995159
0.99995 0.9976 0.996993
0.99977 0.996704 0.999299
0.999715 0.996883 0.999276
0.999659 0.997077 0.99925
0.999812 0.998195 0.996642
0.999613 0.997278 0.999213
0.99976 0.998534 0.996405
0.999558 0.997533 0.999149
0.99996 1.00019 0.994266
1.00025 0.999956 0.993946
1.00176 1.00012 0.990953
1.00219 0.999817 0.990404
1.00057 0.999944 0.993317
0.99944 0.999999 0.99835
1.00065 0.999945 0.993162
1.00244 0.999705 0.990027
1.00197 0.999942 0.990714
1.00302 0.999594 0.98907
1.00153 1.00029 0.991249
1.00256 0.999882 0.989691
1.00253 0.999652 0.9899
1.00328 0.999494 0.988651
1.0028 0.999684 0.989417
1.00337 0.999282 0.988713
1.00226 1.00016 0.989992
1.00297 0.999502 0.989261
1.00057 0.999956 0.993325
1.00032 0.99992 0.994408
1.00215 0.999734 0.990348
1.0019 0.999995 0.991284
0.999466 0.997795 0.999085
0.999531 0.999564 0.996412
0.999996 1.00143 0.993478
1.00122 1.00047 0.991869
1.0024 0.999955 0.989784
1.00153 1.00067 0.991124
1.00064 1.00157 0.99158
1.00148 1.00092 0.990754
0.999678 0.998908 0.996194
1.00007 1.00046 0.993911
1.0024 0.999675 0.990029
1.00201 0.999802 0.991023
1.00301 0.999544 0.989302
1.00271 0.999689 0.989629
0.999609 0.999198 0.996015
0.999914 1.0013 0.993382
1.0003 1.00176 0.992087
1.0019 1.00037 0.990637
1.00285 0.999593 0.989451
1.00106 1.0017 0.990901
1.0019 1.00039 0.990472
1.00171 1.00066 0.990564
1.00005 1.00081 0.993605
1.00023 1.00156 0.992524
1.00007 1.00006 0.994327
1.00322 0.99952 0.988973
1.00286 0.999553 0.989524
1.0034 0.999364 0.988683
1.00318 0.999282 0.989088
1.00226 0.99996 0.990065
1.00309 0.999087 0.989525
0.999957 1.00114 0.993458
1.0021 1.00004 0.990391
1.00021 1.00171 0.992422
1.00048 1.00215 0.991322
1.00129 1.00176 0.990428
1.00188 1.00039 0.990749
1.00009 0.999646 0.994693
1.00025 1.00158 0.992495
1.0002 1.00137 0.992701
1.00022 1.00212 0.99208
1.00121 1.0005 0.991656
0.999807 0.998241 0.996604
0.999681 0.998828 0.996241
1.00005 1.00049 0.993942
1.00041 1.00106 0.99263
1.00144 1.00086 0.990879
0.99991 1.00127 0.993423
1.0002 1.00208 0.992093
1.00065 1.00135 0.991998
1.0005 1.00194 0.991539
0.999859 0.998001 0.99676
1.00002 1.00081 0.993657
1.00006 1.0001 0.994297
1.0002 1.00154 0.992634
1.0019 1.00048 0.99036
1.00095 1.00118 0.991518
1.0018 1.0008 0.99025
1.00015 1.00197 0.992317
1.00085 1.00145 0.991551
1.00025 1.00266 0.991442
1.0006 1.00193 0.99138
0.99991 0.997787 0.996891
1.00007 0.99976 0.994611
1.00022 1.00167 0.992493
1.00019 1.00126 0.992917
1.00019 1.0022 0.991989
1.00229 1.00031 0.989776
1.00122 1.00122 0.990959
1.00194 1.00076 0.990022
1.00016 1.00269 0.991621
1.00095 1.00152 0.991216
1.00034 1.00292 0.990721
1.00012 0.999271 0.995025
1.00015 1.0002 0.994053
1.00014 0.998983 0.995272
1.00013 0.999124 0.995158
0.999974 0.99741 0.997529
0.999942 0.997582 0.997226
0.99986 0.996543 0.998436
0.999778 0.996676 0.999308
0.999723 0.996852 0.999286
0.99986 0.997934 0.996817
0.999666 0.997038 0.999261
0.999814 0.998219 0.996627
0.99961 0.99731 0.999197
0.999753 0.998575 0.996391
0.999549 0.997559 0.999136
1.00152 1.0003 0.991257
1.00197 0.999951 0.990715
1.00256 0.999887 0.989691
1.00302 0.9996 0.98907
1.00244 0.999703 0.990029
1.00065 0.99995 0.99316
1.00253 0.999649 0.989896
1.00328 0.999495 0.988656
1.00279 0.999693 0.989419
1.00339 0.999269 0.988675
1.00226 1.00016 0.989987
1.00297 0.999513 0.98926
1.00338 0.999445 0.988511
1.00359 0.999252 0.988273
1.00322 0.999287 0.988984
1.00359 0.998987 0.988648
1.00265 0.999881 0.989504
1.00319 0.998883 0.98946
1.00238 0.99967 0.989968
1.00202 0.999801 0.99102
1.00301 0.999522 0.989243
1.00272 0.999746 0.989749
0.999603 0.999241 0.996013
0.999939 1.00128 0.993386
1.00031 1.00175 0.992164
1.00194 1.0004 0.990627
1.00283 0.999524 0.989428
1.0019 1.00038 0.990473
1.00101 1.00172 0.990815
1.00168 1.00065 0.990555
1.00006 1.00077 0.993612
1.00024 1.00153 0.99252
1.00006 1.00006 0.99432
1.00323 0.999505 0.988858
1.00287 0.999529 0.989524
1.0034 0.999334 0.988633
1.00319 0.999307 0.989108
0.999982 1.00109 0.993465
1.00024 1.0017 0.992412
1.00046 1.00216 0.991413
1.00228 1.00003 0.9901
1.00308 0.998977 0.989577
1.00123 1.00183 0.99035
1.00211 1.00003 0.990395
1.00185 1.00031 0.99078
1.00025 1.00157 0.992507
1.00023 1.00212 0.992029
1.00008 0.999661 0.994686
1.00021 1.00131 0.992759
1.00357 0.999332 0.98828
1.00334 0.99926 0.98889
1.00359 0.999191 0.988407
1.00342 0.998862 0.989014
1.00252 0.99946 0.990103
1.00333 0.998404 0.989743
1.00021 1.00163 0.992513
1.00219 0.999429 0.990809
1.00024 1.0021 0.991857
1.00064 1.0026 0.990697
1.0014 1.00186 0.989989
1.002 1.00023 0.990722
1.0001 0.999415 0.994902
1.00021 1.0009 0.99313
1.00027 1.00194 0.992103
1.00017 1.00217 0.992086
1.00026 1.00223 0.991898
0.999856 0.997986 0.996769
1.00191 1.00048 0.990356
1.00006 1.00009 0.994303
1.00001 1.00086 0.993654
1.00019 1.00155 0.992624
1.00093 1.00119 0.991528
1.0018 1.00079 0.990253
1.00013 1.00199 0.992321
1.00027 1.00267 0.991421
1.00087 1.00147 0.991595
1.00058 1.0019 0.991504
0.999906 0.997775 0.996897
1.00008 0.999749 0.994618
1.00021 1.00167 0.992489
1.00019 1.00128 0.992914
1.00019 1.00221 0.991965
1.00229 1.00031 0.989769
1.00122 1.00122 0.990963
1.00194 1.00076 0.989999
1.00014 1.00269 0.991633
1.00096 1.00153 0.991245
1.00041 1.0029 0.990782
1.00009 0.999485 0.994851
1.00019 1.0009 0.993271
1.00023 1.00231 0.991847
1.00016 1.00209 0.992178
1.00016 1.00262 0.991655
1.00247 1.00009 0.989613
1.00135 1.00121 0.990693
1.00183 1.00055 0.990283
1.00012 1.00336 0.990963
1.00086 1.00258 0.990344
1.00011 0.999276 0.995027
1.00018 1.00037 0.993733
1.00016 1.00022 0.993981
1.00014 1.00106 0.993356
1.00014 1.00015 0.994126
1.00015 0.998878 0.995357
1.00014 0.998993 0.99527
1.00001 0.997242 0.997608
1.00012 0.999137 0.995158
0.999979 0.9974 0.99754
0.999918 0.996361 0.998497
0.999936 0.997568 0.997457
0.999844 0.996511 0.998887
0.999786 0.996651 0.999317
0.999902 0.997732 0.996937
0.999863 0.997946 0.996808
0.999727 0.996817 0.999297
0.999662 0.997074 0.999247
0.999816 0.998241 0.996612
0.999605 0.997344 0.999182
1.00227 1.00016 0.989983
1.00279 0.999695 0.989421
1.00297 0.999522 0.989259
1.00341 0.999257 0.988636
1.00328 0.999495 0.98866
1.00254 0.999647 0.989892
1.00338 0.999443 0.988511
1.00361 0.999274 0.988204
1.00322 0.999295 0.988988
1.0036 0.998949 0.988649
1.00266 0.999888 0.989492
1.00321 0.99885 0.989457
1.00372 0.99928 0.987993
1.00376 0.999124 0.988119
1.00346 0.998724 0.989005
1.00369 0.998841 0.988631
1.00288 0.999361 0.989515
1.00345 0.998376 0.989596
1.00324 0.999487 0.988743
1.00288 0.999508 0.989524
1.0034 0.999305 0.988583
1.0032 0.999329 0.989128
1.00001 1.00104 0.993472
1.00027 1.00169 0.992401
1.00043 1.00217 0.991504
1.0023 1.00009 0.990135
1.00308 0.998866 0.98963
1.00212 1.00002 0.9904
1.00117 1.00189 0.990273
1.00182 1.00023 0.990811
1.00026 1.00156 0.992519
1.00024 1.00212 0.991978
1.00008 0.999677 0.994679
1.00022 1.00126 0.992817
1.00357 0.999333 0.98828
1.00334 0.999253 0.988906
1.00357 0.999178 0.988433
1.00342 0.998858 0.989024
1.00023 1.00162 0.992514
1.00024 1.00207 0.991928
1.00063 1.00264 0.990692
1.00254 0.999547 0.990063
1.00321 0.998321 0.989965
1.00139 1.00194 0.989946
1.00218 0.999445 0.990826
1.00195 1.00001 0.990835
1.00028 1.00194 0.992106
1.00026 1.00221 0.991891
1.00016 1.0022 0.992071
1.0001 0.999416 0.994817
1.00022 1.00085 0.993184
1.00377 0.999197 0.988032
1.00367 0.998986 0.988419
1.00362 0.998368 0.989121
1.00283 0.998535 0.9904
1.00025 1.00193 0.992154
1.00244 0.998818 0.991173
1.00016 1.00251 0.991446
1.00083 1.00315 0.989803
1.00167 1.00182 0.989575
1.00011 0.999262 0.994885
1.00021 1.00055 0.99364
1.00016 1.00177 0.992509
1.00029 1.00199 0.992025
1.00017 1.00266 0.991645
1.00031 1.00218 0.991769
0.999902 0.997764 0.996904
1.00008 0.999738 0.994624
1.0023 1.00031 0.989762
1.00018 1.00129 0.99291
1.0002 1.00168 0.992485
1.00018 1.00223 0.991941
1.00121 1.00122 0.990967
1.00193 1.00076 0.989976
1.00012 1.00269 0.991644
1.00047 1.00287 0.990843
1.00096 1.00154 0.991273
1.00009 0.99948 0.994855
1.00019 1.0009 0.993272
1.00021 1.0023 0.991883
1.00016 1.0021 0.99217
1.00015 1.00266 0.991612
1.00246 1.00013 0.989601
1.00138 1.0012 0.990673
1.00188 1.00047 0.990323
1.0001 1.00336 0.990918
1.00085 1.0027 0.990234
1.00018 1.00059 0.993595
1.00018 1.00178 0.992368
1.00017 1.00291 0.991398
1.00014 1.00264 0.991599
1.00021 1.00281 0.991341
1.00274 0.998714 0.990433
1.00144 1.00178 0.990102
1.00196 0.99989 0.990275
1.00036 1.00372 0.990437
1.00074 1.00317 0.989372
1.00011 0.999281 0.99503
1.00018 1.00037 0.993782
1.00018 1.0012 0.99294
1.00016 1.00023 0.993909
1.00014 1.00016 0.994125
1.00015 1.00104 0.993254
1.00013 1.00169 0.992711
1.00013 1.00098 0.993251
1.00014 1.00009 0.994196
1.00016 0.998823 0.995398
1.00015 0.998878 0.995358
1.00005 0.997106 0.997664
1.00013 0.999004 0.995269
1.00002 0.997236 0.997618
0.999962 0.996209 0.998551
0.999984 0.997389 0.997552
0.999911 0.996337 0.998494
0.999825 0.996472 0.999342
0.999943 0.997562 0.997028
0.999907 0.99774 0.996931
0.999788 0.996629 0.999323
0.999867 0.997959 0.996798
0.99972 0.996847 0.999287
0.999657 0.997107 0.999232
1.00266 0.999895 0.98948
1.00322 0.999306 0.988993
1.00323 0.998817 0.989453
1.0036 0.998915 0.98865
1.00364 0.999293 0.988136
1.00339 0.999442 0.988512
1.00374 0.999293 0.987964
1.00374 0.999142 0.988145
1.00349 0.998743 0.988956
1.00369 0.998786 0.988624
1.00288 0.999403 0.989514
1.00339 0.99824 0.98974
1.00391 0.999189 0.987749
1.00377 0.998951 0.988279
1.00366 0.998398 0.989014
1.00323 0.99834 0.98997
1.00357 0.999334 0.988281
1.00334 0.999244 0.988922
1.00355 0.999163 0.98846
1.00343 0.998858 0.989033
1.00025 1.0016 0.992515
1.00025 1.00204 0.991999
1.00061 1.00269 0.990688
1.00256 0.999633 0.990024
1.0031 0.998242 0.990187
1.00217 0.999461 0.990843
1.00137 1.00201 0.989903
1.00191 0.999804 0.990948
1.00029 1.00193 0.992109
1.00027 1.00218 0.991883
1.00016 1.00222 0.992056
1.0001 0.999419 0.994733
1.00023 1.0008 0.993238
1.00373 0.999176 0.988093
1.00366 0.999015 0.988438
1.00358 0.998395 0.989208
1.00027 1.00193 0.992145
1.00023 1.00248 0.991533
1.00079 1.00322 0.989789
1.00287 0.9986 0.990313
1.00163 1.00167 0.989764
1.00236 0.998806 0.991136
1.00011 0.999238 0.994904
1.00029 1.00201 0.992019
1.0003 1.00214 0.991826
1.00017 1.00269 0.991613
1.00016 1.00176 0.992543
1.00021 1.00054 0.993572
1.00382 0.99912 0.988077
1.00388 0.998718 0.988283
1.00352 0.998074 0.989483
1.00322 0.997324 0.990969
1.00025 1.00213 0.991952
1.00218 1.00032 0.990012
1.00028 1.00328 0.990584
1.001 1.00364 0.989104
1.00012 0.99911 0.995028
1.00019 1.00032 0.993924
1.00018 1.00145 0.992866
1.00014 1.00257 0.991746
1.00032 1.00211 0.991857
1.00026 1.00254 0.991509
1.0001 0.999473 0.99486
1.00019 1.0009 0.993273
1.00245 1.00018 0.989589
1.00016 1.0021 0.992163
1.0002 1.00229 0.99192
1.00013 1.00269 0.991569
1.0014 1.00119 0.990652
1.00194 1.00039 0.990362
1.00008 1.00336 0.990873
1.00085 1.00283 0.990124
1.00019 1.00058 0.993598
1.00018 1.00179 0.992389
1.00016 1.00289 0.991459
1.00014 1.00267 0.991618
1.00017 1.00284 0.991376
1.00283 0.998733 0.990396
1.00149 1.00166 0.990129
1.00194 0.999933 0.990548
1.00029 1.00373 0.99038
1.00084 1.00341 0.989227
1.00019 1.00141 0.992718
1.00016 1.0025 0.991689
1.00017 1.00336 0.990935
1.00014 1.00305 0.991078
1.00378 0.997561 0.990005
1.00287 0.99784 0.99082
1.00152 1.00231 0.989258
1.00033 1.00439 0.989244
1.00017 1.00037 0.993832
1.00017 1.00122 0.992981
1.00016 1.00187 0.992406
1.00014 1.00016 0.994124
1.00016 1.00103 0.993151
1.00014 1.00009 0.994196
1.00014 1.0017 0.992629
1.00013 1.00098 0.99329
1.00013 1.0022 0.992171
1.00012 1.0016 0.992666
1.00011 1.00095 0.993321
1.00015 1.00002 0.994247
1.00016 0.99881 0.995407
1.00016 0.998815 0.9954
1.00007 0.997039 0.997676
1.00015 0.998877 0.995359
1.00005 0.997112 0.997668
1 0.996097 0.998581
1.00002 0.99723 0.997629
0.999958 0.996183 0.998548
0.999904 0.996313 0.99849
0.999984 0.997392 0.99712
0.999947 0.997569 0.997024
0.999844 0.996457 0.999345
0.999912 0.997747 0.996926
0.999781 0.996652 0.999316
0.999714 0.996877 0.999276
1.00288 0.999445 0.989513
1.00352 0.998762 0.988907
1.00333 0.998104 0.989884
1.00368 0.998726 0.988617
1.00373 0.999157 0.98817
1.00375 0.999307 0.987935
1.00387 0.999193 0.98784
1.00376 0.998958 0.98828
1.00364 0.998396 0.989044
1.00325 0.998254 0.98994
1.00385 0.99911 0.987978
1.00382 0.998536 0.988647
1.00366 0.998053 0.989341
1.00371 0.999155 0.988154
1.00365 0.999042 0.988457
1.00355 0.99842 0.989295
1.00029 1.00192 0.992137
1.00031 1.00244 0.99162
1.00075 1.0033 0.989774
1.0029 0.998664 0.990225
1.00228 0.998787 0.991099
1.0016 1.00152 0.989953
1.0003 1.00202 0.992013
1.00028 1.0021 0.991883
1.00017 1.00271 0.991581
1.00011 0.999214 0.994924
1.00017 1.00175 0.992577
1.00021 1.00053 0.993504
1.00381 0.999117 0.988041
1.00388 0.998711 0.988277
1.00358 0.998119 0.989375
1.00027 1.00214 0.991933
1.00025 1.00321 0.990748
1.00101 1.00364 0.989112
1.00316 0.997416 0.991019
1.0022 1.0002 0.990005
1.00012 0.999095 0.995116
1.00019 1.00031 0.993928
1.00028 1.00211 0.99185
1.00027 1.0025 0.991556
1.00014 1.00254 0.991764
1.00018 1.00147 0.992804
1.00385 0.998958 0.98811
1.00398 0.998417 0.988371
1.00375 0.996736 0.990406
1.0032 0.997702 0.991011
1.00013 1.00262 0.991604
1.00136 1.00345 0.988497
1.00048 1.0039 0.989954
1.00014 0.998946 0.995316
1.00014 0.99993 0.994343
1.00017 1.0002 0.993928
1.00016 1.00124 0.993043
1.00012 1.0022 0.992112
1.00011 1.00314 0.991199
1.00035 1.00188 0.991853
1.00022 1.00307 0.991504
1.00019 1.00058 0.993601
1.00018 1.0018 0.992409
1.00291 0.99875 0.990359
1.00013 1.0027 0.991638
1.00014 1.00286 0.99152
1.00012 1.00288 0.99141
1.00154 1.00154 0.990157
1.00192 0.999975 0.990821
1.00023 1.00374 0.990322
1.00093 1.00364 0.989081
1.00019 1.00145 0.992676
1.00016 1.00249 0.991728
1.00016 1.00333 0.990992
1.00017 1.00307 0.991128
1.00377 0.997489 0.989905
1.0028 0.9981 0.9908
1.00159 1.00221 0.989398
1.00042 1.00436 0.989168
1.00016 1.00213 0.992145
1.00395 0.997743 0.989094
1.00015 1.00313 0.991247
1.00022 1.00377 0.990399
1.00409 0.996295 0.99038
1.00244 1.00045 0.989208
1.00089 1.00439 0.988717
1.00017 1.00124 0.993023
1.00016 1.00187 0.992406
1.00014 1.00242 0.9919
1.00014 1.00009 0.994197
1.00012 1.00098 0.993329
1.00015 1.00171 0.992546
1.00015 1.00001 0.99425
1.00011 1.00096 0.993311
1.00014 1.00221 0.992107
1.00011 1.00161 0.992744
1.00017 1.00249 0.99179
1.00013 1.00211 0.992158
1.00011 1.00154 0.992856
1.00011 1.00084 0.993515
1.00017 0.999964 0.994273
1.00015 0.998812 0.995411
1.00016 0.998805 0.995408
1.00009 0.997027 0.997661
1.00016 0.998809 0.995401
1.00007 0.997057 0.997674
1.00003 0.996043 0.998577
1.00005 0.997119 0.997673
0.999998 0.996068 0.99858
0.999953 0.996158 0.998544
1.00015 0.9988 0.995437
1.00002 0.99723 0.997208
0.999986 0.997403 0.997116
0.999895 0.996296 0.999369
0.999951 0.997576 0.997021
0.999837 0.996481 0.999339
0.999773 0.996676 0.999308
1.00326 0.998171 0.98991
1.00363 0.998391 0.989075
1.00375 0.998965 0.988281
1.00382 0.999199 0.987932
1.00384 0.999113 0.98798
1.00383 0.998538 0.98861
1.00363 0.99804 0.989398
1.0038 0.998842 0.988337
1.00389 0.99829 0.988799
1.00386 0.997965 0.988578
1.00381 0.999115 0.988006
1.00389 0.998716 0.988271
1.00364 0.998164 0.989266
1.00029 1.00214 0.991914
1.00022 1.00313 0.990912
1.00104 1.00358 0.98912
1.00309 0.997509 0.99107
1.00222 1.00008 0.989998
1.00025 1.00211 0.991843
1.00028 1.00246 0.991602
1.00014 1.00252 0.991781
1.00012 0.999079 0.995204
1.00019 1.00031 0.993932
1.00017 1.0015 0.992743
1.00384 0.998916 0.988183
1.00014 0.998942 0.995314
1.00014 0.999928 0.994294
1.00402 0.998401 0.988359
1.00369 0.996918 0.990238
1.00011 1.00257 0.99169
1.00048 1.00404 0.989748
1.00135 1.00331 0.988561
1.00309 0.997663 0.990997
1.00016 1.0002 0.994066
1.00016 1.00124 0.993043
1.0004 1.00194 0.991792
1.00016 1.0027 0.991718
1.00008 1.00323 0.99111
1.00014 1.00218 0.992119
1.00385 0.99831 0.988719
1.00407 0.998082 0.988651
1.00413 0.995308 0.991314
1.00228 1.00067 0.989361
1.00021 1.00283 0.991384
1.00079 1.00475 0.988569
1.00013 0.999833 0.994357
1.00014 1.00007 0.994194
1.00009 1.00085 0.993683
1.00013 1.00113 0.9931
1.00012 1.00198 0.992434
1.00004 1.00282 0.99154
0.999988 1.00395 0.990755
1.0001 1.00254 0.991784
1.00019 1.00149 0.992633
1.00016 1.00249 0.991766
1.00375 0.997431 0.989805
1.00273 0.998367 0.990779
1.00021 1.00309 0.991177
1.00014 1.00331 0.991049
1.00166 1.00214 0.989538
1.00052 1.00435 0.989092
1.00015 1.00214 0.992142
1.00393 0.997739 0.989052
1.00012 1.00308 0.991263
1.00023 1.00373 0.990305
1.00396 0.996328 0.990279
1.00256 1.00042 0.989257
1.00083 1.00446 0.988742
1.00012 1.00285 0.991533
1.00469 0.996439 0.989327
1.00035 1.00328 0.99085
1.00049 1.00438 0.989603
1.00387 0.997122 0.989464
1.00129 1.00335 0.988492
1.00221 1.00053 0.990315
1.00016 1.00188 0.992405
1.00013 1.00243 0.991898
1.00021 1.00267 0.991563
1.00015 0.999995 0.994253
1.00011 1.00096 0.993302
1.0001 1.00162 0.992822
1.00015 1.00222 0.992043
1.00017 0.999954 0.994273
1.00011 1.00084 0.993459
1.00017 1.00248 0.991769
1.00011 1.00154 0.99285
1.00012 1.00211 0.992223
1.00021 1.00242 0.991754
1.00007 1.00193 0.992529
1.00012 1.0014 0.992991
1.00013 1.00074 0.993468
1.00018 0.999934 0.994176
1.00013 1.00062 0.993775
1.00017 0.999885 0.994233
1.00015 0.99881 0.995416
1.00015 0.998811 0.995411
1.00011 0.997046 0.997237
1.00016 0.998801 0.995409
1.00009 0.997045 0.997452
1.00002 0.995986 0.999393
1.00007 0.997074 0.997673
1.00003 0.99601 0.998579
0.999996 0.996039 0.998579
1.00016 0.998688 0.995537
1.00015 0.998797 0.995435
1.00006 0.997094 0.997282
1.00002 0.997238 0.997412
0.999939 0.996157 0.999388
0.999989 0.997413 0.997112
0.999888 0.996319 0.999362
0.99983 0.996503 0.999332
1.00359 0.998023 0.989455
1.00383 0.998546 0.988573
1.00383 0.999119 0.987982
1.00381 0.998827 0.988328
1.00381 0.998297 0.988853
1.004 0.998079 0.988522
1.0038 0.998303 0.988877
1.00328 0.998377 0.989758
1.00449 0.997333 0.988355
1.00013 0.99977 0.994527
1.00383 0.998868 0.988255
1.00405 0.998385 0.988347
1.00363 0.997125 0.990071
1.00009 1.00254 0.991776
1.00048 1.00425 0.989543
1.00134 1.00312 0.988625
1.00298 0.997653 0.990983
1.00046 1.00201 0.99173
1.00011 1.00234 0.991932
1.00005 1.00331 0.991021
1.00014 0.99894 0.995312
1.00015 1.00215 0.992126
1.00016 1.00021 0.994205
1.00015 1.00123 0.993044
1.00013 0.999925 0.994245
1.00386 0.998311 0.988741
1.00013 0.999825 0.994414
1.00014 1.00008 0.99419
1.00009 1.00083 0.993574
1.00414 0.997825 0.988698
1.00394 0.995688 0.991096
1.00025 1.00261 0.991441
1.00061 1.00485 0.988465
1.00226 1.00062 0.989414
1.00013 1.00112 0.993177
1.00012 1.00199 0.992396
1.0001 1.00263 0.99166
0.999983 1.00384 0.990842
1.00006 1.00281 0.991604
1.00399 0.997976 0.988721
1.00456 0.996728 0.9892
1.00383 0.997521 0.989753
1.00125 1.00351 0.988695
1.00012 1.00362 0.990707
1.00007 1.00072 0.993581
1.0001 1.00099 0.993312
1.00008 1.00151 0.992989
1.00008 1.00186 0.992574
1.00009 1.00248 0.991964
0.999952 1.00343 0.991231
0.999842 1.00425 0.990576
1.00014 1.00215 0.992138
1.0001 1.00304 0.991279
1.00394 0.997706 0.989009
1.00384 0.996354 0.990178
1.00268 1.00037 0.989306
1.00024 1.00371 0.990211
1.00077 1.0045 0.988766
1.00011 1.00281 0.991596
1.00463 0.996214 0.989292
1.00027 1.00326 0.99089
1.00033 1.00445 0.989609
1.00394 0.996928 0.989699
1.0013 1.0035 0.988469
1.00227 1.00033 0.989897
1.00021 1.00301 0.991205
1.00488 0.995071 0.990315
1.00021 1.00362 0.990705
1.00016 1.00488 0.989325
1.00193 1.00126 0.988652
0.998902 0.996578 0.970607
0.998266 1.00189 0.983004
1.0019 1.00001 0.991509
0.995835 0.997165 0.973448
0.996218 0.994676 0.975447
1.00012 1.00244 0.991896
1.00018 1.00267 0.991594
1.00028 1.00253 0.991534
1.00017 0.999946 0.994273
1.00011 1.00085 0.993404
1.00011 1.00153 0.992844
1.00011 1.00212 0.992287
1.00017 1.00248 0.991748
1.00013 1.00141 0.992929
1.00018 0.999937 0.994224
1.00013 1.00075 0.993518
1.00019 1.00243 0.991781
1.00009 1.00191 0.992511
1.00008 1.0018 0.992615
1.00015 1.00218 0.992136
1.00017 1.00129 0.992875
1.00016 1.00066 0.993524
1.00017 0.999902 0.994198
1.00016 1.00058 0.993703
1.00015 1.00117 0.993188
1.00012 1.00072 0.993611
1.00013 1.00063 0.993691
1.00017 0.99989 0.994332
1.00017 0.999889 0.994229
1.00016 0.998805 0.995417
1.00015 0.998807 0.995416
1.0001 0.99707 0.997235
1.00015 0.998809 0.995411
1.00011 0.997046 0.997237
1.00002 0.995978 0.999392
1.0001 0.997065 0.997244
1.00003 0.995985 0.99898
1.00003 0.995977 0.998581
1.00016 0.99861 0.995602
1.00016 0.998682 0.995536
1.00008 0.996986 0.997346
1.00016 0.998793 0.995434
1.00005 0.997089 0.997485
0.999975 0.996043 0.999406
1.00003 0.997256 0.997193
0.999932 0.996197 0.99938
0.999882 0.996345 0.999354
1.00372 0.998303 0.988908
1.00382 0.998812 0.98832
1.0041 0.998213 0.988466
1.00316 0.998014 0.989941
1.00384 0.998258 0.988788
1.00436 0.997608 0.988369
1.0044 0.99822 0.987681
0.998983 0.99825 0.983273
1.00386 0.99731 0.989917
1.00013 0.999753 0.994552
1.00014 0.999767 0.994526
1.00006 1.00063 0.993814
1.00006 1.00059 0.993856
1.00388 0.998307 0.988764
1.0042 0.997632 0.988745
1.00376 0.99602 0.990877
1.00029 1.00235 0.991498
1.00044 1.00501 0.988362
1.00225 1.00062 0.989468
1.00009 1.00273 0.991536
0.999979 1.00372 0.990929
1.00007 1.00281 0.99167
1.00014 1.00008 0.994186
1.00012 1.00199 0.992359
1.00013 1.00111 0.993253
1.00014 0.999816 0.994471
1.00008 1.00082 0.993465
1.00395 0.997985 0.988818
1.00007 1.00072 0.993692
1.0001 1.00097 0.993373
1.00008 1.00146 0.992965
1.00448 0.996529 0.989252
1.00365 0.997509 0.989742
1.00018 1.00348 0.990711
1.00122 1.00381 0.988547
1.00008 1.00186 0.992606
1.00008 1.00245 0.991973
0.999856 1.00424 0.990575
0.999978 1.00357 0.99112
1.0046 0.99675 0.988688
1.00485 0.996462 0.98864
1.00233 1.00241 0.987969
1.00008 1.00435 0.990112
1.00007 1.00164 0.992747
1.00005 1.00172 0.992722
1.00006 1.00262 0.991848
0.999981 1.00428 0.990356
0.998251 0.996838 0.967394
1.00009 1.00277 0.991659
1.00019 1.00323 0.990929
1.00456 0.99594 0.989256
1.00397 0.996547 0.989935
1.00129 1.00367 0.988446
1.00016 1.00451 0.989615
1.00222 1.00024 0.989479
1.00017 1.00303 0.991252
1.00483 0.995095 0.990193
1.00013 1.00363 0.990714
1.00015 1.00489 0.989361
1.00207 1.0012 0.988687
0.998739 0.996537 0.969651
0.997799 1.00165 0.980133
1.00192 0.999662 0.991825
0.995764 0.99779 0.972646
0.996284 0.994507 0.974254
1.00011 1.00303 0.991388
0.996802 0.995175 0.971679
0.997133 0.99585 0.976784
1.00362 0.996965 0.99055
1.00004 1.00363 0.990732
1.00006 1.00495 0.989863
1.0017 0.999572 0.993054
0.997601 0.999304 0.968814
0.997281 1.00271 0.97881
0.995045 0.999573 0.973241
1.0004 0.994868 0.977222
1.00015 1.00267 0.991626
1.00026 1.00255 0.991544
1.00036 1.00236 0.991625
1.00017 0.999937 0.994272
1.00014 1.00074 0.993569
1.00013 1.00141 0.992867
1.0001 1.00189 0.992493
1.00016 1.00243 0.991808
1.00018 0.999911 0.994194
1.00008 1.00175 0.992653
1.00017 1.00131 0.99295
1.00016 1.00065 0.993575
1.00016 1.0022 0.99207
1.00017 1.00178 0.992416
1.00014 1.00243 0.991943
1.00018 1.00111 0.993113
1.00017 1.0006 0.99366
1.00016 1.00058 0.993706
1.00015 1.00117 0.993107
1.00017 1.00107 0.993171
1.00014 1.0013 0.993
1.00021 1.0015 0.992709
1.00002 1.0021 0.992413
1.00012 1.00088 0.993445
1.00011 1.00072 0.993608
1.00015 0.999943 0.99431
1.00013 1.00064 0.993606
1.00017 0.999893 0.994288
1.00015 0.998826 0.995401
1.00018 0.999895 0.994225
1.00016 0.998803 0.995418
1.00007 0.997089 0.997658
1.00015 0.998806 0.995417
1.00009 0.997062 0.997445
1.00005 0.995986 0.998559
1.00011 0.997048 0.997237
1.00002 0.995977 0.999391
1.00005 0.995984 0.998566
1.00013 0.999781 0.994525
1.00016 0.998591 0.995623
1.00017 0.998608 0.995601
1.0001 0.996914 0.997391
1.00016 0.998676 0.995535
1.00008 0.996979 0.997348
1 0.995954 0.99942
1.00004 0.997103 0.997676
0.999983 0.996083 0.998987
0.999959 0.996224 0.998545
1.0029 0.997707 0.990125
1.00392 0.998232 0.988697
1.00425 0.997842 0.988384
0.998642 0.998314 0.985411
1.00381 0.997668 0.990062
1.00436 0.998084 0.987663
1.00453 0.998051 0.989402
0.999392 0.997739 0.985138
0.99794 0.998164 0.965984
0.996357 0.997018 0.970366
0.996404 0.994437 0.97522
1.00005 1.00059 0.993757
1.00013 0.999757 0.994551
1.00014 0.999766 0.994526
1.00006 1.00063 0.993776
1.00003 1.00126 0.993265
1.00006 1.00112 0.993351
1.00007 1.00071 0.993744
1.00006 1.0006 0.993806
1.00392 0.998014 0.988916
1.00446 0.996222 0.989305
1.00348 0.997492 0.989731
1.00023 1.00336 0.990714
1.0012 1.004 0.988398
0.999871 1.00422 0.990575
1 1.0037 0.991009
1.00007 1.00241 0.991982
1.0001 1.00094 0.993435
1.00007 1.00187 0.992639
1.00008 1.00074 0.993803
1.00009 1.00141 0.992942
1.00456 0.997047 0.988523
1.00006 1.00163 0.992799
1.00005 1.00174 0.992714
1.00475 0.996444 0.988603
1.00197 1.00201 0.988255
1.00016 1.00438 0.989961
1.00008 1.00263 0.991786
1 1.00422 0.990377
1.00492 0.997845 0.98797
1.00335 1.00041 0.988056
1.00011 1.00453 0.989177
1.00004 1.00437 0.990165
1.00003 1.00207 0.992353
1.0001 1.00244 0.991948
1.00011 1.00345 0.991007
0.997476 0.994727 0.971302
0.998779 0.997409 0.970512
1.00014 1.00305 0.991299
1.00006 1.00363 0.990723
1.0048 0.995203 0.99007
1.00227 1.00111 0.988723
1.00014 1.00488 0.989396
0.998848 0.996705 0.966068
0.998066 1.00169 0.982305
1.00196 0.999369 0.992146
0.995706 0.997181 0.971884
0.996207 0.994338 0.97306
1.00014 1.00294 0.991384
0.997197 0.994661 0.972211
0.996892 0.995989 0.976472
1.00374 0.997195 0.990431
0.999965 1.00391 0.990761
0.999923 1.00489 0.989846
1.0018 0.9994 0.993013
0.997296 0.999646 0.966813
0.997159 1.0042 0.981525
0.995069 0.999683 0.971434
0.999566 0.995178 0.977082
1.00041 1.00247 0.991325
0.997386 0.997113 0.978971
1.00501 0.995961 0.980613
1.00111 0.999862 0.99207
0.999714 1.00412 0.991693
1.00102 1.0042 0.994573
0.997988 1.00267 0.986018
0.995271 1.00228 0.967106
0.994937 0.999551 0.972083
1.00494 0.997409 0.975024
1.00024 1.00257 0.991554
1.00035 1.00238 0.991558
1.00006 1.00255 0.991668
1.00018 0.999918 0.99419
1.00016 1.00064 0.993625
1.00017 1.00133 0.993025
1.00007 1.00171 0.992691
1.00016 1.00221 0.992003
1.00017 1.0006 0.993661
1.00015 1.00179 0.99248
1.00018 1.00111 0.993109
1.00012 1.00246 0.991925
1.00016 1.00253 0.991913
1.0002 1.00174 0.992467
1.00017 1.00106 0.993178
1.00015 1.00058 0.993708
1.00016 1.00118 0.993026
1.00017 1.00106 0.993175
1.00013 1.00131 0.992997
1.00023 1.00146 0.992682
1.00009 1.00159 0.992786
1.00023 1.00141 0.992743
1.00025 1.00164 0.992383
1.00009 1.00259 0.991778
0.999834 1.00335 0.991435
0.999972 1.0025 0.992036
1.00002 1.00211 0.992413
1.00009 1.00122 0.993155
1.00011 1.0009 0.99344
1.00014 1.00004 0.994231
1.00011 1.00073 0.993605
1.00015 0.999943 0.994308
1.00014 0.998899 0.995363
1.00016 0.999895 0.994244
1.00016 0.998825 0.995402
1.00005 0.997128 0.99766
1.00016 0.998801 0.995419
1.00008 0.997083 0.997451
1.00003 0.995986 0.998565
1.0001 0.997053 0.997237
1.00002 0.995985 0.999391
1.00002 0.995976 0.999391
1.00014 0.999856 0.994596
1.00016 0.998634 0.995588
1.00013 0.999788 0.994524
1.0001 0.996896 0.997405
1.00016 0.99859 0.995623
1.00017 0.998604 0.995601
1.0001 0.996917 0.99739
1.00002 0.995898 0.999429
1.00007 0.99698 0.99774
1.00001 0.995967 0.999017
1 0.996092 0.998585
0.997202 0.995159 0.972815
0.997033 0.995367 0.978024
0.998909 0.99816 0.986848
1.00379 0.998126 0.990201
1.00433 0.997965 0.987645
0.999419 0.997739 0.988832
1.00458 0.998166 0.989281
0.99873 0.997062 0.969541
0.99574 0.9972 0.972713
0.996339 0.994345 0.974141
1.00097 0.997158 0.991539
0.997085 1.00015 0.969821
0.995319 0.999506 0.972383
0.999 0.997213 0.975455
1.00004 1.0014 0.993047
1.00006 1.00059 0.993801
1.00013 0.999755 0.99455
1.00005 1.00064 0.993738
1.00002 1.00122 0.993324
1.00005 1.00142 0.993099
1.00006 1.00109 0.993357
1.00009 1.00099 0.993396
1.00007 1.00072 0.993679
1.00006 1.00062 0.993755
1.0045 0.997335 0.988359
1.00459 0.996417 0.988561
1.00157 1.00167 0.988543
1.00023 1.00444 0.98981
1.00002 1.00416 0.990398
1.00011 1.00264 0.991723
1.00005 1.00174 0.992707
1.00004 1.00162 0.992851
1.00496 0.997387 0.987801
1.00004 1.0021 0.992322
1.00011 1.00245 0.99185
1.0031 1.0006 0.987685
1.00003 1.00445 0.98973
1.00011 1.00432 0.9901
1.00015 1.00337 0.990973
1.00308 1.00271 0.987195
1.0006 1.00352 0.990223
1.00006 1.00402 0.990396
1.00004 1.00221 0.992254
1.00015 1.00251 0.991732
1.00028 1.00296 0.991098
0.998773 0.996717 0.978062
0.997233 0.995352 0.970526
0.998362 0.996892 0.967388
1.00017 1.00285 0.99138
0.999906 1.00417 0.99079
1.00386 0.997448 0.990313
0.999762 1.00485 0.989826
0.997647 0.994957 0.97081
0.997032 0.99913 0.970781
0.99715 1.00397 0.978661
1.00177 0.999247 0.993032
0.995072 0.999829 0.973251
0.996934 0.996025 0.976231
0.998688 0.994987 0.977161
1.00033 1.00266 0.991319
0.997452 0.997153 0.978446
1.00458 0.9962 0.980889
1.00119 1.00013 0.992212
0.999458 1.00389 0.991726
1.00166 1.00367 0.992
0.99793 1.00312 0.981899
0.995534 1.00356 0.967847
0.99572 0.999226 0.974487
1.00249 0.997763 0.976007
0.999688 1.00283 0.992733
1.00713 0.997152 0.980552
1.0139 0.996735 0.973079
0.998384 1.00447 0.993244
0.998363 1.0021 0.99238
0.995335 1.00264 0.96772
0.99716 0.999352 0.975088
1.00254 1.00049 0.974362
1.00033 1.00238 0.991492
1.00018 1.00249 0.99178
1.00014 1.00189 0.992296
1.00017 1.00059 0.993662
1.00017 1.00111 0.993104
1.00013 1.0018 0.992544
1.0001 1.00249 0.991907
1.00018 1.00106 0.993179
1.0002 1.00174 0.992471
1.00011 1.00246 0.991935
1.00005 1.0023 0.992433
1.00028 1.00196 0.992067
1.00022 1.00142 0.992732
1.00017 1.00106 0.993178
1.00012 1.00132 0.992994
1.00025 1.00141 0.992655
1.00023 1.00142 0.99274
1.00008 1.00162 0.992782
1.00027 1.00161 0.992415
1.00021 1.00201 0.992126
1.00033 1.00166 0.992273
1.00012 1.0027 0.991586
1.00011 1.00258 0.991811
0.99982 1.00332 0.99148
1.0001 1.00349 0.99092
1.00003 1.00267 0.991929
0.999792 1.00323 0.991657
0.999986 1.00248 0.992112
1.00009 1.00164 0.99266
1.00002 1.00213 0.992414
1.0001 1.00123 0.993149
1.00014 1.00023 0.994034
1.00011 1.00092 0.993434
1.00014 1.00005 0.994226
1.00011 0.999017 0.995297
1.00015 0.999943 0.994306
1.00014 0.998892 0.995364
1.00002 0.997207 0.997646
1.00016 0.998822 0.995403
1.00006 0.997129 0.997451
1 0.996046 0.998568
1.00009 0.997072 0.997243
1.00002 0.995999 0.998978
1.00002 0.995988 0.999392
1.00014 1.00004 0.994286
1.00015 0.998717 0.995518
1.00013 0.999865 0.994471
1.00009 0.996936 0.99738
1.00016 0.998632 0.995589
1.00012 0.999798 0.994524
1.00002 0.995886 0.99943
1.0001 0.996894 0.997405
1.00016 0.998588 0.995623
1.0001 0.996921 0.997389
1.00001 0.995905 0.999427
0.999999 0.995961 0.999417
0.997921 0.996839 0.979175
0.996962 0.995083 0.971463
1.00555 0.995409 0.979744
0.997007 0.995483 0.97747
0.999593 0.998053 0.984353
1.00463 0.998269 0.98912
0.998204 0.996742 0.973161
0.996152 0.998281 0.970742
0.996213 0.994307 0.973065
1.00074 0.997664 0.98937
0.997446 0.999158 0.967118
0.995257 0.999502 0.970454
0.999182 0.996703 0.975413
0.999042 0.999078 0.989388
0.996154 1.00147 0.966865
0.995146 1.00034 0.972982
1.00326 1.00015 0.973606
1.00007 1.00188 0.992595
1.00004 1.00139 0.993114
1.00006 1.00059 0.993846
1 1.00117 0.993384
1.00008 1.00169 0.992676
1.00005 1.00137 0.993153
1.00006 1.00106 0.993363
1.00013 1.00107 0.993312
1.00009 1.00098 0.99346
1.00007 1.00074 0.993614
1.00499 0.996907 0.987633
1.00285 1.00081 0.987318
0.999966 1.0043 0.990282
1.00019 1.00426 0.990035
1.00019 1.0033 0.990939
1.00013 1.00247 0.991753
1.00004 1.00214 0.992291
1.00005 1.00221 0.992264
1.00323 1.00178 0.987415
1.00013 1.00255 0.991786
1.00028 1.00301 0.991098
1.0006 1.00356 0.98992
1.00017 1.00393 0.990399
1.00107 1.00313 0.989258
1.00006 1.00328 0.991433
1.0003 1.00293 0.99094
1.00018 1.00233 0.991878
1.00034 1.0028 0.991084
1.00902 0.997274 0.979207
0.998685 0.99704 0.978482
0.99726 0.99519 0.972439
1.00025 1.00288 0.991312
0.999203 1.00371 0.99176
1.0013 1.0002 0.992338
0.997318 0.997314 0.979033
0.995532 1.00217 0.966556
0.997837 1.0035 0.984058
1.00248 1.00326 0.989315
0.995302 0.999339 0.971976
1.00404 0.996427 0.981164
1.00186 0.997767 0.976329
0.999643 1.0025 0.992848
1.00696 0.997086 0.981235
1.01364 0.99687 0.973423
0.998464 1.00424 0.993209
0.99852 1.00196 0.990839
0.995436 1.00319 0.96639
1.00469 0.99951 0.973637
0.996076 0.999137 0.97399
0.998947 1.00252 0.994047
1.02232 0.992685 0.96829
1.01788 0.996361 0.968873
1.00338 0.999516 0.974316
0.996009 1.00317 0.996098
0.995477 0.999564 0.971726
0.994603 0.99981 0.976226
1.0003 1.00239 0.99189
1.0003 1.00206 0.991906
1.0002 1.00089 0.993511
1.00017 1.00106 0.99318
1.00019 1.00174 0.992476
1.00009 1.00233 0.991958
1.00023 1.00142 0.992743
1.00029 1.00192 0.992055
1.00011 1.0022 0.992245
0.999781 1.00179 0.993094
1.00038 1.00167 0.992164
1.00024 1.00142 0.992738
1.00007 1.00165 0.992779
1.00028 1.00157 0.992446
1.00033 1.00164 0.992276
1.00022 1.00195 0.992168
1.00008 1.00245 0.991942
1.00008 1.0027 0.991671
0.999966 1.00398 0.990688
1.00013 1.00258 0.991843
0.999919 1.00333 0.991443
1.00004 1.00385 0.990395
1.00012 1.00335 0.990952
1.00002 1.00283 0.991726
1.00005 1.00349 0.990947
1.0001 1.00198 0.992405
1.00003 1.0027 0.991881
0.999748 1.00312 0.991878
1 1.00247 0.992188
1.00009 1.00161 0.992743
1.00014 1.00056 0.993715
1.0001 1.00124 0.993144
1.00014 1.00026 0.994027
1.00008 0.999175 0.995191
1.00013 1.00006 0.994222
1.00011 0.999007 0.995296
0.999966 0.997339 0.997599
1.00014 0.998885 0.995364
1.00002 0.997219 0.997431
0.999959 0.996138 0.998558
1.00007 0.997122 0.997243
0.999991 0.996054 0.99898
0.999997 0.99602 0.999393
1.00015 1.00022 0.99392
1.00013 0.998877 0.995234
1.00014 1.00005 0.994283
1.00008 0.997023 0.99732
1.00015 0.998728 0.995435
1.00012 0.999875 0.994347
1.00001 0.995919 0.999422
1.0001 0.996927 0.997382
1.00016 0.99863 0.995589
1.00002 0.995885 0.999431
1.0001 0.996894 0.997405
1.00001 0.995912 0.999425
1.00966 0.996533 0.977539
0.998106 0.996494 0.978222
0.997116 0.995283 0.970949
1.00019 1.00111 0.993087
1.01446 0.995037 0.974303
1.00504 0.996159 0.979995
0.997215 0.995582 0.976888
1.00067 0.997977 0.987063
0.997417 0.99991 0.969856
0.995331 0.999466 0.972317
0.999576 0.995553 0.974901
0.998561 0.999546 0.98428
0.995635 1.00186 0.968799
0.99582 1.00036 0.972369
1.00252 0.999279 0.974545
0.997648 1.00234 0.981104
0.995344 1.00172 0.965125
0.995686 1.00022 0.971894
1.00269 1.00109 0.973501
1.00016 1.00204 0.992185
1.00007 1.0019 0.992556
1.00004 1.00138 0.993181
1.00014 1.00167 0.992613
1.00008 1.00167 0.99276
1.00005 1.00132 0.993208
1.00013 1.00107 0.993332
1.0001 1.00097 0.993525
1.00335 1.00091 0.987634
1.00061 1.00364 0.989616
1.00005 1.00219 0.992274
1.00028 1.00389 0.990401
1.0003 1.00303 0.991097
1.00011 1.00258 0.991841
1.00017 1.00236 0.99189
1.00145 1.00353 0.989429
1.00031 1.00277 0.991193
1.00032 1.00312 0.990885
1.00008 1.00297 0.991241
1.00027 1.00216 0.991972
1.00015 1.00038 0.994182
0.9995 1.00334 0.992338
1.00037 1.00229 0.99141
1.0003 1.00245 0.991621
1.02294 0.993354 0.967686
1.00996 0.996951 0.977994
0.998583 0.997353 0.978908
0.999578 1.00218 0.992967
0.998527 1.00399 0.993176
1.00678 0.996993 0.981917
0.99543 1.00138 0.968239
0.99857 1.00244 0.985017
0.996098 0.9993 0.97236
1.01342 0.996972 0.973767
1.00692 0.998617 0.972912
0.999056 1.00276 0.993692
1.02242 0.992725 0.968274
1.01886 0.99664 0.967972
0.996193 1.00456 0.997753
1.00254 0.998732 0.975057
0.995083 0.999698 0.970453
0.995891 0.999548 0.972641
0.998432 1.00189 0.996459
1.02852 0.990086 0.962716
1.01466 0.994882 0.973968
0.999162 0.996825 0.975597
0.995931 0.999206 0.972304
0.996043 1.00034 1.0008
0.995037 1.00014 0.967736
1.00044 1.00231 0.991516
1.00022 1.00091 0.993364
0.998904 1.00138 0.994851
1.00024 1.00143 0.992755
1.00029 1.00189 0.992042
1.00014 1.00219 0.992057
1.00036 1.0017 0.992153
0.999881 1.00158 0.993093
0.999728 1.00303 0.991902
1.00032 1.00162 0.992279
1.00024 1.0019 0.99221
1.00017 1.00248 0.991855
0.999759 1.00413 0.99091
1.00004 1.0027 0.991754
0.999871 1.00384 0.990839
1.00002 1.00473 0.989798
1.00054 1.00352 0.990016
1.00002 1.00333 0.991406
1.00011 1.00398 0.990243
1.00025 1.00291 0.991345
0.999931 1.00303 0.991548
1.00013 1.00323 0.99106
1.00008 1.00219 0.992255
1.00005 1.00282 0.991712
0.999993 1.00351 0.990974
1.00014 1.00093 0.993365
1.00011 1.00195 0.992387
1.00003 1.00273 0.991832
1.00009 1.00158 0.992826
1.00014 1.00057 0.993709
1.00005 0.99942 0.995016
1.00013 1.00027 0.994019
1.00008 0.999175 0.995186
0.999928 0.997512 0.99711
1.00012 0.999001 0.995295
0.999982 0.997352 0.997173
0.999875 0.996263 0.99938
1.00003 0.997215 0.997223
0.99995 0.996141 0.998976
0.999967 0.996081 0.999392
1.00019 1.00031 0.993762
1.00012 0.999083 0.995031
1.00016 1.00023 0.993989
1.00006 0.99716 0.997231
1.00013 0.998895 0.995211
1.00014 1.00005 0.994279
0.999995 0.995988 0.999407
1.00008 0.997014 0.997324
1.00014 0.998739 0.995352
1.00001 0.99591 0.999425
1.0001 0.99692 0.997384
1.00002 0.995885 0.999431
1.02216 0.992927 0.968413
1.00959 0.996448 0.977804
0.998103 0.996203 0.978399
1.00018 1.00112 0.993107
1.00023 1.00116 0.992916
1.00016 1.00168 0.992649
1.01751 0.997019 0.968517
1.01363 0.996372 0.974618
1.00451 0.996878 0.980247
0.998103 0.999917 0.98775
0.996026 1.00185 0.966732
0.995143 1.00052 0.970843
1.00304 0.998184 0.974759
0.997061 1.00222 0.985038
0.995353 1.00144 0.96782
0.994879 1.00048 0.97531
1.00469 1.0004 0.972787
0.997268 1.00053 0.985465
0.994994 1.00096 0.970114
0.994618 0.999937 0.976273
1.00426 0.998842 0.974328
1.00022 1.00206 0.992093
1.00015 1.00207 0.992178
1.00006 1.00194 0.992518
1.00014 1.00168 0.992607
1.00009 1.00164 0.992845
1.00014 1.00107 0.993352
1.00186 1.00379 0.9896
1.00008 1.00269 0.99105
1.00017 1.0024 0.991903
1.00035 1.00322 0.990831
1.00029 1.00279 0.991302
1.00027 1.0021 0.991951
1.00029 1.00243 0.991616
1.00026 1.00105 0.99411
1.00039 1.00229 0.991539
0.999163 1.00311 0.993399
1.00026 1.00201 0.992019
0.9982 1.00036 0.997676
0.998851 1.00039 0.996564
1.00026 1.00229 0.991653
1.02948 0.990766 0.961096
1.02425 0.992871 0.966039
1.01093 0.996618 0.976782
0.999164 1.00299 0.993337
0.996359 1.00213 0.99811
1.02253 0.992742 0.968259
0.994973 1.00074 0.979092
0.996997 0.999791 0.97527
1.01984 0.996767 0.96707
1.00311 0.997696 0.975255
0.99844 1.00173 0.996247
1.0289 0.989948 0.962144
1.01377 0.996491 0.974272
0.995762 1.00151 0.993537
0.999419 0.996504 0.975417
0.995005 0.99983 0.975419
0.994956 1.00018 0.971419
0.997588 1.00349 0.999099
1.02223 0.993467 0.967826
1.00558 0.995847 0.979241
0.996517 0.994556 0.975329
0.995154 0.999248 0.973693
0.995077 1.00011 0.970758
0.995795 1.00053 0.990768
1.0002 1.00094 0.993218
0.999036 1.00111 0.994858
0.998619 1.00389 0.993298
1.00034 1.00171 0.992142
0.999975 1.00136 0.99309
0.999601 1.00314 0.992038
0.999757 1.00389 0.990986
1.00025 1.00251 0.991768
0.999948 1.00407 0.990762
1.00004 1.00491 0.98957
0.999778 1.0037 0.990991
1.00005 1.00466 0.989799
1.00067 1.00468 0.988909
1.00089 1.00376 0.989199
1.00034 1.0028 0.990935
1.00052 1.00363 0.989913
1.00018 1.0041 0.990092
1.00021 1.00261 0.991686
1.00019 1.00277 0.991486
0.999988 1.00255 0.991959
0.999965 1.00299 0.991612
1.00014 1.00312 0.991169
1.00013 1.00126 0.993046
1.00009 1.00216 0.992264
1.00007 1.0028 0.991698
1.00001 0.999735 0.99476
1.00014 1.00092 0.993367
1.00011 1.00193 0.99237
1.00014 1.00058 0.993703
1.00005 0.999425 0.99501
0.999867 0.997728 0.997009
1.00009 0.999175 0.99518
0.999932 0.997521 0.997106
0.999831 0.996422 0.999364
0.999987 0.997354 0.997174
0.999895 0.99628 0.998955
0.999926 0.996176 0.999385
1.00021 1.00042 0.99371
1.00013 0.999239 0.995023
1.00018 1.00032 0.993812
1.00002 0.997341 0.997116
1.00013 0.999098 0.995095
1.00017 1.00023 0.994057
0.999967 0.996098 0.999384
1.00006 0.997149 0.997236
1.00013 0.998914 0.995187
0.999998 0.995977 0.999412
1.00008 0.997005 0.997327
1.00002 0.995901 0.999428
1.02829 0.990471 0.962438
1.0223 0.992873 0.968394
1.00952 0.996412 0.97807
1.00024 1.00126 0.992779
1.00022 1.0018 0.992381
1.00018 1.00114 0.993127
1.00022 1.00118 0.992899
1.00017 1.00168 0.992583
1.00019 1.00169 0.992518
1.00017 1.00199 0.99225
1.01348 0.997846 0.972603
1.01848 0.997359 0.967663
1.01278 0.997647 0.974933
1.00687 0.999319 0.972073
0.996341 1.00219 0.98164
0.995395 1.00169 0.970457
0.994709 1.00075 0.972667
0.996865 1.00006 0.983511
0.995012 1.00007 0.967846
0.995934 0.999873 0.972635
1.00221 0.999056 0.975284
0.996114 0.997909 0.990576
0.994915 1.00004 0.967774
0.997283 1.00064 0.974217
1.0001 0.995676 0.976704
1.00028 1.00203 0.992064
1.00022 1.00203 0.992086
1.00014 1.0021 0.992172
1.00014 1.00169 0.992601
1.00038 1.00238 0.994034
0.998775 1.00294 0.994463
1.00028 1.00202 0.991929
1.00028 1.0024 0.99161
1.0004 1.00233 0.991666
1.00026 1.00204 0.991986
1.00027 1.00231 0.991586
0.997673 1.00137 0.997732
0.998985 1.00021 0.996875
1.0002 1.00237 0.991806
0.996148 0.998826 1.00168
0.999502 1.0028 0.993673
1.02297 0.994471 0.966648
1.02976 0.990638 0.960724
1.02557 0.992371 0.964391
0.998533 1.00151 0.996056
0.995888 1.00036 1.00065
1.02929 0.98989 0.961571
0.994877 1.00032 0.968031
0.994824 1.00023 0.972897
1.01288 0.997935 0.974575
0.999855 0.995292 0.975115
0.997542 1.00315 0.99907
1.02235 0.993371 0.967798
1.00504 0.99656 0.979527
0.995954 1.00069 0.996388
0.996474 0.994315 0.974118
0.995838 0.999699 0.972978
0.995128 1.00003 0.970148
0.997287 1.00488 0.996818
1.00976 0.997481 0.976535
0.996999 0.995616 0.978031
0.995184 0.999392 0.972985
0.995473 1.00079 0.969937
0.995723 1.00045 0.985844
0.999285 1.00077 0.994867
0.998582 1.00409 0.993259
1.00057 1.00164 0.992413
0.999468 1.00326 0.992174
0.999514 1.00402 0.99108
1.00017 1.00405 0.99031
1.00014 1.00398 0.990614
1.00013 1.00489 0.989484
1.00077 1.00443 0.988464
1.00009 1.00461 0.9898
1.00069 1.00469 0.988772
1.00104 1.00442 0.988179
1.00131 1.00323 0.988816
1.00084 1.0031 0.990104
1.0009 1.00385 0.989061
1.00027 1.00238 0.99149
1.00035 1.0028 0.99101
1.00051 1.00375 0.989809
1.00016 1.00252 0.991804
1.00018 1.00264 0.991669
1.00012 1.00263 0.991627
1.0001 1.00161 0.992713
1.00001 1.00249 0.992011
1 1.00295 0.991676
1 1.00006 0.994445
1.00013 1.00124 0.993051
1.00011 1.00213 0.992273
0.999819 0.997967 0.996883
1.00001 0.999743 0.994755
1.00014 1.0009 0.993369
1.00004 0.99943 0.995003
0.999872 0.99774 0.997003
0.999764 0.996609 0.999342
0.999936 0.997529 0.997102
0.999823 0.996447 0.999358
0.999874 0.996309 0.99937
1.00025 1.00137 0.992719
1.00024 1.00054 0.993535
1.00012 0.999378 0.994898
1.00021 1.00042 0.993711
0.999987 0.997522 0.997002
1.00013 0.999247 0.995024
1.00018 1.00033 0.993863
0.99993 0.996246 0.999356
1.00002 0.997329 0.997122
1.00013 0.999111 0.995159
0.999971 0.996081 0.999391
1.00005 0.997139 0.997241
1 0.995963 0.999417
1.02205 0.993949 0.967462
1.0287 0.990473 0.961858
1.02244 0.99277 0.968375
1.00023 1.00128 0.992804
1.00023 1.0018 0.992337
1.0002 1.00203 0.992113
1.0002 1.00174 0.992369
1.0002 1.00212 0.992106
1.00022 1.00119 0.992882
1.00018 1.00167 0.992518
1.00018 1.00169 0.992521
1.00019 1.00197 0.992229
1.00015 1.00209 0.992219
1.00513 0.996718 0.979801
1.01324 0.998045 0.972899
1.01942 0.997953 0.96681
1.00131 0.998912 0.975593
0.996948 0.999971 0.975131
0.996377 0.999531 0.981917
0.995014 0.999984 0.969813
0.99594 0.997333 0.985385
0.994974 1.00003 0.970085
0.995905 1.00029 0.97335
0.999285 0.995943 0.976647
0.994962 0.996544 0.989444
0.995065 0.999646 0.970805
0.995191 1.00035 0.971695
0.996301 0.994687 0.975064
1.00002 1.00185 0.992633
1.00023 1.0021 0.992042
1.00022 1.00201 0.992078
0.997185 1.00182 0.997782
0.999124 0.999927 0.997197
1.00027 1.00206 0.991952
1.00027 1.00236 0.991521
1.00016 1.00233 0.991868
0.999312 1.00282 0.993423
0.996442 0.998269 1.00171
0.999061 1.00347 0.992678
0.99798 1.00228 0.996485
1.00877 0.998575 0.978142
1.02422 0.993805 0.965136
1.03002 0.990598 0.960351
0.997453 1.00287 0.999018
0.996081 1.00028 0.988709
1.02249 0.993249 0.967769
0.995376 0.999682 0.965629
0.9952 0.99963 0.971887
1.0045 0.997359 0.979813
0.996384 0.994239 0.972908
0.997512 1.00488 0.996988
1.0097 0.997328 0.976789
0.996973 0.995609 0.977499
0.996013 1.00066 0.988492
0.995207 0.999246 0.971022
0.995522 1.00043 0.966921
0.998932 1.00285 0.994138
0.997948 0.99729 0.978895
0.996452 0.996999 0.970371
0.996239 1.0005 0.967846
0.996384 1.00165 0.986968
0.998554 1.00426 0.99322
1.00032 1.00181 0.992399
1.00214 0.999043 0.991718
0.999284 1.00418 0.991175
1.00001 1.00392 0.990383
1.00101 1.00344 0.989057
1.00023 1.00488 0.989399
1.00081 1.0045 0.988443
1.00162 1.00321 0.988251
1.00071 1.00468 0.988634
1.00105 1.0043 0.988215
1.00173 1.00263 0.988645
1.00187 1.0016 0.989287
1.00107 1.00284 0.989578
1.00132 1.00313 0.988859
1.00062 1.00259 0.990886
1.00077 1.00317 0.989957
1.00092 1.00392 0.988923
1.00026 1.00219 0.991865
1.00027 1.00235 0.991577
1.00036 1.0028 0.991085
1.00011 1.0019 0.992427
1.00014 1.0025 0.991826
1.00016 1.00267 0.991652
0.999986 1.00045 0.994085
1.00011 1.00161 0.992715
1.00003 1.00243 0.992062
0.999756 0.998226 0.997186
0.999998 1.00007 0.99444
1.00014 1.00123 0.993057
0.99971 0.996854 0.998356
0.999813 0.997998 0.99709
1.00001 0.999751 0.99475
0.999877 0.997751 0.996996
0.999755 0.996644 0.999333
0.999814 0.996474 0.999352
1.00022 1.00165 0.992456
1.00026 1.00072 0.99333
1.00025 1.0014 0.992678
1.0001 0.999518 0.994792
1.00024 1.00055 0.993535
0.999948 0.997682 0.996915
1.00012 0.999384 0.994899
1.00022 1.00042 0.993711
0.999886 0.996403 0.99933
0.999984 0.997512 0.997007
1.00013 0.999257 0.995025
0.999934 0.996223 0.999365
1.00002 0.997317 0.997128
0.999974 0.996063 0.999398
1.0075 0.998433 0.979607
1.02215 0.99401 0.967434
1.02912 0.990602 0.961279
1.00016 1.00217 0.992094
1.00023 1.0013 0.992828
1.00024 1.0018 0.992293
1.0002 1.00176 0.992417
1.0002 1.00202 0.992154
1.00021 1.00208 0.992091
1.0002 1.0023 0.991905
1.00015 1.00216 0.992049
1.00017 1.0017 0.992525
1.00021 1.00194 0.992207
1.00015 1.00209 0.992211
1.00019 1.00242 0.992111
0.997316 0.99578 0.976276
1.00454 0.997053 0.980079
1.01305 0.998177 0.973195
0.998599 0.995851 0.976366
0.995869 1.00029 0.972032
0.994942 1.00004 0.967795
0.995633 0.996597 0.99001
0.994975 0.996352 0.994483
0.996378 0.994563 0.973842
0.994938 1.00003 0.967061
0.995477 1.00004 0.973317
0.996026 0.99827 0.992534
0.995443 0.999288 0.972235
0.995276 0.999393 0.972615
0.999494 1.0018 0.993623
1.00013 1.00178 0.992642
1.00019 1.00218 0.992021
0.996714 0.997607 1.00174
0.999253 1.00276 0.993165
1.0001 1.0023 0.991929
0.99931 1.00345 0.992596
0.997629 1.00245 0.996591
0.998829 1.00146 0.994724
0.998561 0.997307 0.977229
1.00995 0.998266 0.976968
1.02546 0.993115 0.963623
0.997718 1.00492 0.997204
0.996027 1.00078 0.990218
1.00963 0.99731 0.977045
0.995519 0.999786 0.97155
0.995113 0.999408 0.97269
0.997192 0.995577 0.976791
0.998845 1.00295 0.994379
0.998117 0.996938 0.977881
0.995799 0.997226 0.972765
0.996167 1.00175 0.983058
0.995934 1.00055 0.969525
1.00079 1.00049 0.992961
0.997257 0.995271 0.972728
0.997521 0.999829 0.968979
0.997251 1.00146 0.981384
1.00008 1.00205 0.992385
1.00179 0.998982 0.992053
1.00214 0.999337 0.990643
0.999817 1.00374 0.990458
1.00108 1.00332 0.989018
1.00266 1.00081 0.988668
1.00084 1.00452 0.988423
1.00158 1.00313 0.988294
1.00252 1.00041 0.989386
1.00106 1.00419 0.988252
1.00175 1.00241 0.98869
1.00243 0.999855 0.989991
1.00226 0.999801 0.990371
1.00162 1.00175 0.989647
1.00186 1.00149 0.989418
1.00083 1.00238 0.990324
1.0011 1.00281 0.989657
1.00132 1.00302 0.988903
1.00039 1.00219 0.991616
1.00054 1.0026 0.990878
1.00071 1.00325 0.98981
1.00018 1.0019 0.992313
1.00028 1.00219 0.991858
1.00027 1.00232 0.991664
0.999942 1.00095 0.9937
1.00012 1.00189 0.992439
1.00012 1.00249 0.991848
0.999709 0.998505 0.996529
0.999986 1.00046 0.994079
1.00012 1.00162 0.992717
0.999606 0.997092 0.999271
0.999762 0.998268 0.996676
0.999995 1.00008 0.994435
0.999691 0.996853 0.999304
0.999818 0.998015 0.996844
0.999747 0.996679 0.999324
1.00017 1.00186 0.992405
1.00022 1.00165 0.992466
1.00022 1.00103 0.993096
1.00008 0.999688 0.994664
1.00025 1.00073 0.993331
1.00024 1.00143 0.992638
0.999909 0.997823 0.996848
1.00011 0.999512 0.994796
1.00024 1.00055 0.993536
0.999836 0.996552 0.999309
0.999945 0.997674 0.996919
1.00012 0.999387 0.994901
0.999891 0.996381 0.999337
0.999981 0.997501 0.997012
0.999939 0.996199 0.999373
0.997889 0.99737 0.978323
1.0073 0.998446 0.979877
1.02224 0.994044 0.967405
1.00016 1.0022 0.99206
1.00013 1.00228 0.992114
1.00018 1.00233 0.991907
1.0002 1.00177 0.992465
1.00021 1.00201 0.992195
1.00021 1.00204 0.992076
1.00016 1.00217 0.99205
1.00019 1.00229 0.991902
1.00006 1.0028 0.991697
1.00008 1.00226 0.992045
1.00015 1.00209 0.992202
1.00013 1.00232 0.992123
0.995708 0.997682 0.972619
0.997121 0.996011 0.97612
1.00392 0.997271 0.980355
0.996508 0.994428 0.972618
0.994943 1.00018 0.971452
0.995229 1.0001 0.973466
0.99508 0.99633 0.989193
0.995801 0.998247 0.987986
0.995385 0.998726 0.970846
0.995277 0.999638 0.9713
0.997709 0.99616 0.987786
0.99613 1.00029 0.968623
1.00025 1.00258 0.992156
0.999679 1.00157 0.993563
1.00022 1.00171 0.992652
0.997027 1.0027 0.99672
0.999548 1.00343 0.992514
0.999517 1.00164 0.994425
1.00178 0.999193 0.992419
0.997503 0.994693 0.971355
0.998435 0.997659 0.977817
1.01113 0.997875 0.975795
0.999022 1.00293 0.994586
0.995927 1.0018 0.986142
0.998121 0.996555 0.978051
0.996085 1.00074 0.967544
0.996216 0.998163 0.970812
1.00101 1.00049 0.992778
0.99713 0.995182 0.97119
0.997979 0.998689 0.966797
0.996686 1.00143 0.985265
1.00091 1.00311 0.989951
0.998111 0.998362 0.965452
0.99902 0.998348 0.98799
1.00141 0.998645 0.992385
1.00178 1.00027 0.990513
1.00349 0.998751 0.988392
1.00115 1.00324 0.988977
1.00266 1.00067 0.988574
1.00393 0.997194 0.989972
1.00153 1.00311 0.988337
1.0025 1.00019 0.989415
1.00331 0.997113 0.99102
1.00176 1.00221 0.988736
1.00243 0.999738 0.990009
1.00278 0.997941 0.991121
1.00248 0.998832 0.991048
1.00225 0.999681 0.990509
1.00201 1.00033 0.990334
1.00145 1.00164 0.99013
1.00163 1.00179 0.989657
1.00185 1.00138 0.98955
1.00067 1.00208 0.991001
1.00087 1.00239 0.990433
1.00112 1.00278 0.989737
1.00027 1.00185 0.992169
1.00041 1.0022 0.9916
1.00047 1.00261 0.990871
0.999928 1.00125 0.993409
1.0002 1.00188 0.99232
1.0003 1.00219 0.99185
0.999639 0.998842 0.996309
0.999958 1.0009 0.993703
1.00014 1.00187 0.992452
0.999566 0.9973 0.999234
0.999705 0.998538 0.996516
0.999989 1.00046 0.994073
0.999622 0.997108 0.998773
0.999767 0.99828 0.996675
0.99968 0.996913 0.999286
1.00016 1.002 0.992295
1.00018 1.00188 0.992356
1.00017 1.00134 0.992879
1.00022 1.00166 0.992476
1.00022 1.00103 0.993093
1.00003 0.999988 0.994454
0.999866 0.997971 0.996784
1.00008 0.999679 0.99467
1.00024 1.00074 0.993332
0.99978 0.996699 0.999293
0.999905 0.997818 0.996852
1.00011 0.999509 0.994799
0.999842 0.996537 0.999315
0.999941 0.997668 0.996922
0.999896 0.99636 0.999345
0.996481 0.996452 0.971362
0.997671 0.997522 0.977752
1.00712 0.998463 0.980147
1.00017 1.00222 0.992025
1.00016 1.00239 0.991864
1.0001 1.00227 0.992152
1.00011 1.00235 0.992104
1.00008 1.00255 0.991895
1.00017 1.00217 0.992051
1.00019 1.00229 0.991898
1.00003 1.00273 0.991732
0.999903 1.00263 0.991792
1.00002 1.00268 0.991709
1.00083 1.00287 0.99056
0.999981 1.00258 0.992054
1.00009 1.00225 0.992135
0.997647 0.99946 0.966049
0.995683 0.998507 0.97195
0.997071 0.996255 0.975713
0.995576 0.998565 0.972476
0.995226 1.00017 0.967058
0.995694 0.998203 0.993239
0.997883 0.996286 0.99043
0.996231 0.99866 0.971535
1.00083 0.996132 0.986525
1.00238 1.00119 0.98895
0.999853 1.0025 0.992093
0.999829 1.00132 0.993501
1.00003 1.00179 0.994119
1.00233 0.998812 0.991943
0.99817 0.997137 0.967208
0.997295 0.99528 0.970745
0.998319 0.998119 0.978406
1.00131 1.00041 0.992598
0.99615 1.00185 0.981737
0.99731 0.995212 0.970662
0.997751 0.998788 0.969534
1.00152 1.00287 0.990029
0.998954 0.997079 0.968995
0.998579 0.999298 0.983598
1.00266 1.004 0.986799
1.00079 0.99663 0.991456
1.00142 1.00106 0.990384
1.00326 0.999196 0.9883
1.00502 0.99654 0.987995
1.00262 1.00053 0.988483
1.00367 0.997288 0.989955
1.00424 0.995277 0.990996
1.00249 0.999941 0.989445
1.00327 0.997093 0.990964
1.00344 0.996289 0.991496
1.00243 0.999624 0.990026
1.00277 0.998023 0.99107
1.00284 0.997815 0.991204
1.00242 0.998685 0.991192
1.00235 0.999375 0.990771
1.00224 0.999574 0.990647
1.00202 1.00035 0.990306
1.00188 1.00063 0.990312
1.00115 1.00158 0.990603
1.00144 1.00168 0.990109
1.00163 1.00184 0.989668
1.00047 1.0018 0.991828
1.00066 1.00209 0.991075
1.00089 1.00238 0.990542
0.999928 1.0014 0.993217
1.0003 1.00184 0.992158
1.00043 1.0022 0.991585
0.999581 0.999207 0.99603
0.99995 1.0012 0.993418
1.00022 1.00185 0.992328
0.999507 0.997536 0.999192
0.999631 0.99889 0.996296
0.99997 1.00086 0.993705
0.99956 0.997331 0.999223
0.999702 0.998574 0.996502
0.999615 0.99714 0.999249
1.00014 1.00218 0.992157
1.00014 1.00199 0.9923
1.00015 1.0016 0.992624
1.00018 1.00189 0.992308
1.00017 1.00139 0.992826
1 1.00037 0.994127
1.00021 1.00104 0.99309
1.00004 0.999971 0.994458
0.999803 0.998199 0.996677
0.999715 0.996858 0.999278
0.999861 0.997967 0.996789
1.00009 0.999667 0.994675
0.999788 0.996687 0.999298
0.9999 0.997813 0.996855
0.999848 0.99652 0.999321
0.998433 0.998746 0.969117
0.996585 0.995829 0.97265
0.997258 0.997704 0.978128
1.00014 1.00247 0.991821
1.00006 1.00225 0.992189
1.00009 1.00255 0.991918
1.00009 1.00234 0.992099
1.00009 1.00262 0.991865
0.99996 1.00251 0.992014
1.00001 1.00263 0.991768
0.999979 1.00277 0.991681
0.999932 1.00291 0.991666
1.00015 1.00233 0.991519
1.00113 1.0025 0.990837
1.00216 1.00198 0.988554
1.00064 1.00271 0.990685
0.99987 1.0029 0.992063
1.00046 0.997554 0.985403
0.997075 1.00003 0.968125
0.995888 0.997741 0.970627
0.996386 0.99996 0.968584
0.998075 0.996405 0.992905
1.00081 0.996146 0.990427
1.00429 0.99645 0.990522
1.00241 1.00063 0.989525
0.999677 1.00247 0.992026
1.00337 0.998609 0.991458
0.998913 0.999769 0.984488
0.998684 0.997745 0.970152
0.997294 0.995194 0.972647
1.00207 1.00289 0.99011
0.998245 0.999996 0.98617
0.998484 0.996745 0.972645
1.00294 1.00305 0.987097
1.00043 0.997728 0.989226
1.00473 0.999008 0.987643
1.00432 0.998108 0.989333
1.00314 1.00026 0.988205
1.00494 0.996569 0.988006
1.00467 0.996541 0.988879
1.00344 0.997338 0.989935
1.0041 0.995556 0.990957
1.004 0.996428 0.990329
1.00322 0.997103 0.990908
1.00337 0.996493 0.99143
1.00342 0.997365 0.990562
1.00277 0.998109 0.99102
1.00276 0.997903 0.991239
1.00264 0.998836 0.990562
1.00236 0.998543 0.991335
1.00232 0.999263 0.99084
1.00223 0.99994 0.990434
1.00202 1.00037 0.990277
1.00187 1.00067 0.990288
1.00166 1.00086 0.990572
1.00079 1.00148 0.991343
1.00113 1.00161 0.990677
1.00143 1.00173 0.990088
1.00001 1.00151 0.992962
1.00049 1.00181 0.991821
1.00065 1.00211 0.99115
0.999514 0.999651 0.99572
0.999957 1.00139 0.993221
1.00033 1.00184 0.992148
0.999459 0.997789 0.999128
0.999578 0.999257 0.996024
0.999973 1.00116 0.993427
0.999504 0.99757 0.999173
0.999626 0.998935 0.996284
0.999554 0.997361 0.999211
1.00015 1.00237 0.991955
1.00015 1.00216 0.992186
1.00012 1.00185 0.992482
1.00013 1.00199 0.992305
1.00014 1.00164 0.992602
0.999988 1.00075 0.993775
1.00016 1.00143 0.992774
1 1.00037 0.994128
0.999735 0.998499 0.996506
1.00005 0.999955 0.994462
0.999804 0.998178 0.996687
0.999646 0.997065 0.999251
0.999726 0.996844 0.999283
0.999857 0.997961 0.996794
0.999795 0.996675 0.999303
0.999637 0.99947 0.98453
0.998199 0.9979 0.967282
0.997007 0.996033 0.970709
1.00042 1.0024 0.991423
1.00009 1.00256 0.99194
1.00008 1.00233 0.992094
0.999995 1.00258 0.992005
1.00005 1.00266 0.991841
1.00002 1.00209 0.99225
1.00006 1.00297 0.99157
0.999901 1.00317 0.991624
1.00028 1.00235 0.991634
1.00084 1.00243 0.991028
1.00193 1.0015 0.989338
1.0041 0.999084 0.987244
1.00216 1.00172 0.98849
1.00053 1.00247 0.99081
1.0044 0.995539 0.991101
1.00025 0.998079 0.983663
0.997053 0.999971 0.970749
1.0007 0.996185 0.986226
1.00432 0.996242 0.990591
1.00206 0.999952 0.990115
1.00298 0.999882 0.990079
0.998904 0.999262 0.987647
0.998264 0.997346 0.967405
1.00325 1.00188 0.98739
1.00031 0.998537 0.986838
1.0048 0.998204 0.987543
1.00425 0.998142 0.989776
1.00481 0.996661 0.988265
1.004 0.99842 0.987888
1.00478 0.99651 0.988019
1.00469 0.996373 0.988925
1.00406 0.997815 0.988832
1.00397 0.995806 0.99092
1.00399 0.996466 0.990331
1.00378 0.997958 0.98932
1.00329 0.996697 0.991365
1.00329 0.997448 0.990715
1.00314 0.998624 0.989751
1.00267 0.997984 0.991275
1.00263 0.998845 0.990565
1.00251 0.999549 0.99011
1.00229 0.999151 0.990909
1.00221 0.999861 0.990459
1.00199 1.00032 0.990407
1.00187 1.0007 0.990264
1.00163 1.00087 0.990522
1.00127 1.00103 0.991098
1.00026 1.00137 0.99263
1.00078 1.0015 0.991417
1.0011 1.00164 0.990751
0.999457 1.00014 0.995351
1.00003 1.0015 0.992964
1.0005 1.0018 0.991814
0.99938 0.99809 0.999051
0.999534 0.999654 0.995715
0.999982 1.00136 0.993225
0.999446 0.997826 0.999106
0.999574 0.9993 0.996016
0.9995 0.997602 0.999154
1.00031 1.00232 0.991566
1.00015 1.00234 0.991964
1.00017 1.00197 0.992326
1.00016 1.00215 0.992214
1.00011 1.00185 0.992505
0.999947 1.00113 0.993494
1.00013 1.00168 0.99258
0.999976 1.00079 0.993771
0.999653 0.998859 0.996299
1 1.00038 0.99413
0.999739 0.998464 0.99652
0.999579 0.997298 0.999211
0.999805 0.998157 0.996697
0.999658 0.997034 0.99926
0.999735 0.996832 0.999288
1.00355 0.99702 0.991059
0.999623 0.999428 0.981245
0.998177 0.998791 0.969217
1.00047 1.00182 0.991677
1.00122 1.00173 0.990559
1.00026 1.00243 0.991499
1.00004 1.0026 0.991995
1.00003 1.00271 0.991816
1.00017 1.00207 0.992143
1.00183 1.00111 0.989923
1.00037 1.00237 0.99175
1.00043 1.00236 0.991218
1.00189 1.00145 0.989463
1.00359 0.999651 0.98756
1.00487 0.996441 0.988283
1.00412 0.999083 0.987262
1.00224 1.00152 0.988426
1.00447 0.995557 0.991322
1.0002 0.998585 0.981103
1.0045 0.996189 0.990648
1.00349 0.998101 0.99024
1.00284 0.999353 0.990386
0.999188 0.999089 0.982977
1.00486 0.997412 0.987443
1.00426 0.998198 0.990177
1.00474 0.996731 0.988312
1.00411 0.99822 0.988089
1.004 0.998057 0.988631
1.00366 0.997941 0.989291
1.00471 0.996094 0.988971
1.00415 0.997592 0.988871
1.00386 0.99845 0.988562
1.00397 0.996553 0.990333
1.00373 0.997894 0.989437
1.00357 0.998609 0.988934
1.00316 0.997527 0.990867
1.00316 0.99863 0.989738
1.003 0.999281 0.989417
1.00262 0.998854 0.990568
1.00252 0.999544 0.990109
1.0023 1.00004 0.990055
1.00219 0.999781 0.990484
1.00196 1.00029 0.990413
1.00158 1.00063 0.990861
1.00159 1.00088 0.990473
1.00123 1.00102 0.991079
1.0006 1.00103 0.992315
0.99949 1.00042 0.995001
1.00027 1.00137 0.992631
1.00078 1.00151 0.991491
0.99925 0.998508 0.99896
0.999507 1.00009 0.995342
1.00005 1.00149 0.992966
0.999354 0.998157 0.999025
0.999553 0.999662 0.99571
0.999434 0.99787 0.999083
1.00067 1.00212 0.990867
1.00031 1.00229 0.991495
1.00036 1.00191 0.992015
1.00014 1.00231 0.991973
1.00014 1.00197 0.992331
0.999916 1.00142 0.993282
1.0001 1.00185 0.992527
0.999923 1.00118 0.993488
0.999572 0.999261 0.996055
0.999963 1.00082 0.993767
0.999663 0.998813 0.996311
0.99951 0.99755 0.999161
0.999744 0.998428 0.996534
0.999589 0.997263 0.999224
0.999669 0.99701 0.999269
1.00425 0.996143 0.989712
1.00358 0.997162 0.99083
0.999852 0.999237 0.983595
1.00191 1.00095 0.990248
1.00031 1.00178 0.992061
1.00191 1.00089 0.98954
1.00124 1.00174 0.990504
1.0001 1.00248 0.991575
1.00341 0.999861 0.988102
1.00033 1.00204 0.992037
1.00191 1.00101 0.989844
1.00442 0.997917 0.987852
1.00186 1.00137 0.989589
1.00372 0.999681 0.987443
1.00477 0.996583 0.988284
1.00401 0.999151 0.987281
1.00452 0.995431 0.991529
1.00349 0.99768 0.990152
1.00339 0.997928 0.990178
1.0027 0.998786 0.990696
1.00466 0.996815 0.98836
1.00422 0.998083 0.988288
1.00407 0.997989 0.988588
1.00375 0.998009 0.98923
1.0037 0.998342 0.989039
1.00423 0.997441 0.988909
1.00388 0.998426 0.988587
1.00373 0.998687 0.988568
1.00367 0.99784 0.989554
1.00359 0.998618 0.988906
1.00344 0.999052 0.988796
1.00318 0.998636 0.989725
1.00301 0.999279 0.989402
1.00274 0.999744 0.989476
1.00252 0.999538 0.990108
1.0023 1.00003 0.990052
1.00191 1.00036 0.990467
1.00194 1.00027 0.990419
1.00157 1.00063 0.990867
1.00093 1.0007 0.992013
1.00118 1.00102 0.991061
1.0006 1.00104 0.992314
0.999543 1.00049 0.995506
0.999157 0.99917 0.997259
0.999541 1.00033 0.995368
1.00027 1.00138 0.992633
0.999225 0.998612 0.998926
0.999554 1.00005 0.995333
0.999333 0.998222 0.998997
1.00238 1.00001 0.989745
1.00117 1.00169 0.990329
1.00076 1.0021 0.990783
1.00061 1.00176 0.991651
1.00032 1.00227 0.991424
1.00033 1.0019 0.99203
0.999949 1.00155 0.993109
1.00012 1.00197 0.992336
0.99989 1.00145 0.993279
0.999514 0.999678 0.99576
0.999897 1.00124 0.993483
0.999576 0.999217 0.996063
0.999429 0.997835 0.999095
0.999671 0.998767 0.996323
0.999521 0.997514 0.999177
0.999601 0.997228 0.999237
1.004 0.997519 0.989166
1.00417 0.996401 0.98993
1.00362 0.997426 0.990604
1.00316 0.999735 0.988648
1.00165 1.00098 0.990563
1.00014 1.00172 0.992442
1.00207 1.00084 0.989663
1.00126 1.00176 0.990449
1.00429 0.99863 0.987514
1.00341 0.999916 0.987953
1.00198 1.00095 0.989763
1.00445 0.998022 0.987817
1.0039 0.999688 0.987327
1.00463 0.99666 0.988285
1.00355 0.998206 0.98939
1.00351 0.997686 0.990018
1.00327 0.99772 0.990117
1.00416 0.99791 0.988547
1.00384 0.998045 0.989168
1.0037 0.998355 0.989055
1.00358 0.998891 0.988711
1.0039 0.99839 0.988612
1.00374 0.998694 0.988561
1.00357 0.998998 0.988588
1.00362 0.998633 0.988879
1.00344 0.999053 0.988786
1.00314 0.999436 0.989006
1.00303 0.999277 0.989388
1.00275 0.999741 0.989466
1.00231 1.00009 0.98996
1.00231 1.00002 0.99005
1.00192 1.00036 0.990465
1.00123 1.00048 0.991639
1.00157 1.00062 0.990872
1.00092 1.00071 0.992008
0.999651 1.00048 0.995336
1.00059 1.00106 0.992314
0.999617 1.00046 0.995462
0.999017 0.999727 0.99705
0.999113 0.999159 0.998039
0.999602 1.00026 0.995721
0.999203 0.998705 0.998891
1.00322 0.999438 0.988815
1.00186 1.0008 0.990228
1.00224 0.999863 0.990195
1.00093 1.00162 0.991145
1.00129 1.00169 0.990312
1.00087 1.00208 0.990698
1.00058 1.0018 0.991659
1.00008 1.00154 0.992859
1.0003 1.00189 0.992046
0.999933 1.00154 0.993107
0.999486 1.00007 0.995436
0.999865 1.00147 0.993277
0.999502 0.999657 0.995766
0.999315 0.998205 0.999011
0.99958 0.999172 0.99607
0.999446 0.997793 0.999116
0.999533 0.997476 0.999192
1.00408 0.99816 0.988403
1.00404 0.997483 0.989155
1.00414 0.996647 0.990146
1.00403 0.99874 0.987833
1.00315 0.999763 0.988657
1.00142 1.00099 0.990879
1.00223 1.00077 0.989787
1.00433 0.998638 0.987523
1.00345 0.999957 0.987804
1.00444 0.998153 0.987782
1.00368 0.998633 0.988754
1.0036 0.998243 0.989244
1.00352 0.99772 0.989883
1.00357 0.999183 0.988436
1.00369 0.998377 0.989071
1.00358 0.998896 0.988707
1.00348 0.999186 0.988614
1.00376 0.9987 0.988553
1.00357 0.999006 0.988593
1.00329 0.999349 0.98881
1.00345 0.999055 0.988775
1.00314 0.999442 0.989003
1.00266 0.999804 0.989575
1.00276 0.999738 0.989456
1.00231 1.00009 0.989955
1.00155 1.00029 0.991209
1.00192 1.00035 0.990463
1.00124 1.00048 0.991626
0.999787 1.00037 0.995217
1.00092 1.00072 0.992003
0.999724 1.00046 0.995299
0.998939 1.00002 0.996952
0.999691 1.00043 0.995418
0.998974 0.99977 0.997091
0.999041 0.999124 0.998853
1.00373 0.999279 0.988134
1.0028 0.99983 0.989333
1.00313 0.999526 0.988969
1.00148 1.00107 0.990789
1.00184 1.00073 0.990228
1.00211 0.999757 0.990641
1.00037 1.00144 0.992385
1.00093 1.00162 0.99114
1.00139 1.00169 0.990295
1.00054 1.00183 0.991667
1.00006 1.00155 0.992859
0.999494 1.00041 0.995091
0.999917 1.00153 0.993105
0.999448 1.0001 0.995439
0.999161 0.998688 0.99892
0.99949 0.999632 0.99577
0.999341 0.998134 0.999038
0.999461 0.997748 0.999137
1.00411 0.998291 0.988236
1.00416 0.998142 0.988272
1.00412 0.997424 0.989143
1.00409 0.998663 0.987848
1.00315 0.999808 0.988666
1.00432 0.998642 0.987532
1.00375 0.998918 0.988329
1.00367 0.998673 0.988723
1.00367 0.998278 0.989098
1.00356 0.999145 0.988486
1.00349 0.999443 0.988376
1.00358 0.998898 0.988702
1.00348 0.999197 0.988618
1.00327 0.999458 0.98873
1.00356 0.999013 0.988597
1.00328 0.999353 0.988816
1.00282 0.999698 0.989371
1.00314 0.999445 0.988999
1.00266 0.999807 0.989571
1.00181 1.00007 0.990909
1.00232 1.00009 0.98995
1.00156 1.00028 0.991196
0.999979 1.00019 0.995096
1.00125 1.00047 0.991613
0.999857 1.00036 0.995178
0.998928 1.00014 0.99689
0.999801 1.00042 0.995261
0.998892 1.00008 0.996989
0.99893 0.999814 0.997136
1.00391 0.99856 0.988305
1.00332 0.999497 0.988591
1.00374 0.999221 0.988086
1.00218 1.0003 0.990114
1.00276 0.999879 0.989411
1.00303 0.999595 0.989127
1.00082 1.00102 0.991858
1.00146 1.00103 0.990663
1.00183 1.00064 0.990227
0.999569 1.00064 0.994709
1.00037 1.00142 0.992392
1.00093 1.00162 0.991136
1.00004 1.00155 0.99286
0.999427 1.0005 0.9951
0.999002 0.999252 0.998823
0.999408 1.00015 0.995442
0.999191 0.998592 0.998949
0.999371 0.998068 0.999065
1.00396 0.998517 0.988341
1.00412 0.998319 0.988214
1.00425 0.998131 0.988142
1.00417 0.998575 0.987862
1.00375 0.999137 0.988148
1.00376 0.998915 0.988352
1.00366 0.998714 0.988692
1.00356 0.999108 0.988536
1.0035 0.999406 0.988356
1.00335 0.999582 0.988521
1.00348 0.999209 0.988622
1.00327 0.999468 0.988771
1.00287 0.999697 0.989179
1.00327 0.999358 0.988821
1.00281 0.999697 0.989372
1.00195 0.999942 0.990758
1.00265 0.999813 0.989567
1.00182 1.00006 0.990903
1.00013 1.00001 0.9941
1.00157 1.00027 0.991182
1.00002 1.0002 0.994614
0.998985 1.00013 0.99863
0.999931 1.00034 0.995138
0.998879 1.0002 0.99693
0.998841 1.00015 0.99703
1.00385 0.998536 0.988541
1.00343 0.999157 0.988596
1.00389 0.998612 0.988346
1.0027 0.999753 0.98933
1.00329 0.9995 0.988663
1.00374 0.99918 0.988038
1.00133 1.00044 0.991179
1.00218 1.00029 0.990105
1.00272 0.999945 0.989489
0.999746 1.00062 0.994351
1.00083 1.00099 0.991746
1.00144 1.00099 0.990536
0.998915 0.999774 0.998719
0.999493 1.00072 0.994726
1.00036 1.0014 0.992399
0.999356 1.00058 0.995108
0.999025 0.999135 0.998857
0.999228 0.998486 0.998978
1.00384 0.998736 0.988348
1.00397 0.9985 0.988337
1.00413 0.998349 0.988192
1.00368 0.999383 0.988074
1.00376 0.999149 0.988104
1.00378 0.998911 0.988375
1.00351 0.999368 0.988336
1.00335 0.999567 0.988522
1.00304 0.999678 0.989052
1.00326 0.999479 0.988812
1.00287 0.999721 0.9893
1.00207 0.999892 0.990365
1.00281 0.999694 0.989374
1.00196 0.999933 0.990758
1.00022 0.999953 0.993996
1.00183 1.00005 0.990896
1.00013 1.00003 0.994095
0.999043 1.00007 0.998615
1.00005 1.00021 0.994158
0.998971 1.00017 0.997765
0.998826 1.00029 0.996969
1.00373 0.998754 0.988647
1.00349 0.998975 0.988769
1.00383 0.99851 0.988565
1.00291 0.999548 0.989292
1.00346 0.999132 0.988622
1.00388 0.998654 0.988387
1.0018 1.00001 0.990721
1.00272 0.999818 0.989476
1.00328 0.999494 0.988735
0.999957 1.0004 0.994122
1.00139 1.00042 0.991124
1.00219 1.00029 0.990096
0.998928 1.0001 0.998637
0.999685 1.00068 0.994367
1.00084 1.00096 0.991634
0.998909 0.999657 0.998756
0.99942 1.0008 0.994742
0.999046 0.99901 0.998887
1.00368 0.999103 0.988354
1.00383 0.998753 0.988355
1.00397 0.998486 0.988333
1.00333 0.999511 0.988641
1.00365 0.999403 0.988111
1.00376 0.999163 0.98806
1.00335 0.999554 0.988522
1.00304 0.999675 0.989055
1.0023 0.999812 0.990003
1.00286 0.999746 0.98942
1.00205 0.999905 0.990485
1.00032 0.999979 0.993772
1.00196 0.99992 0.990758
1.00022 0.999954 0.993993
0.999112 1.00002 0.998593
1.00013 1.00004 0.99409
0.999065 1.00007 0.998609
0.998999 1.00021 0.996846
1.00351 0.999052 0.98878
1.00371 0.998685 0.988679
1.00304 0.999401 0.989196
1.0035 0.998973 0.988759
1.0038 0.998482 0.988589
1.00205 0.999851 0.990656
1.00294 0.999529 0.989282
1.00347 0.999111 0.988648
1.00015 1.00011 0.994003
1.00182 1.00005 0.990793
1.00274 0.999883 0.989622
0.999007 1.0002 0.998597
0.999927 1.00042 0.994136
1.00144 1.0004 0.991068
0.9989 1.00002 0.998663
0.999629 1.00073 0.994385
0.998901 0.999537 0.998793
1.00328 0.999401 0.98888
1.00365 0.999127 0.988383
1.00383 0.998769 0.988363
1.00249 0.999696 0.989733
1.00333 0.99954 0.988639
1.00362 0.999422 0.988148
1.00304 0.999672 0.989058
1.00226 0.999818 0.990055
1.00047 0.999989 0.993457
1.00204 0.999913 0.990604
1.00033 0.99998 0.993763
0.999185 1 0.998544
1.00022 0.999959 0.993991
0.999137 1.00002 0.99858
0.999094 1.00007 0.998602
1.00313 0.999398 0.98906
1.00352 0.998988 0.988764
1.00369 0.998618 0.988711
1.00219 0.999748 0.990476
1.00305 0.9994 0.989188
1.00351 0.998971 0.98875
1.00029 0.999937 0.993886
1.00205 0.999858 0.990655
1.00297 0.999511 0.989271
0.999101 1.00013 0.998573
1.00013 1.00012 0.994014
1.00183 1.00009 0.990864
0.998965 1.00015 0.998607
0.999896 1.00043 0.99415
0.998863 0.999939 0.998692
1.00246 0.999692 0.990008
1.00329 0.999401 0.988756
1.00363 0.999147 0.988412
1.00059 0.999963 0.993247
1.00248 0.9997 0.989754
1.00332 0.999569 0.988636
1.00223 0.999823 0.990107
1.00048 0.999989 0.993448
0.999297 1 0.998457
1.00034 0.999982 0.993755
0.999223 1 0.998515
0.999163 1.00001 0.998564
1.00233 0.999714 0.990244
1.00315 0.999367 0.989013
1.00352 0.998925 0.988749
1.00044 0.999902 0.994639
1.00219 0.999759 0.99047
1.00307 0.9994 0.98918
0.999201 1.00003 0.998537
1.00029 0.999927 0.993893
1.00205 0.999866 0.990653
0.999068 1.00013 0.998581
1.00011 1.00013 0.994026
0.99893 1.00012 0.998619
1.00063 0.999956 0.993202
1.00246 0.999672 0.989919
1.0033 0.999397 0.988632
0.999396 0.999997 0.998386
1.0006 0.99996 0.993241
1.00246 0.999705 0.989775
1.00049 0.999992 0.993437
0.999335 1 0.998428
0.999263 0.999999 0.998484
1.00059 0.999929 0.994374
1.00233 0.99971 0.990244
1.00316 0.999336 0.988967
0.999169 0.999993 0.998583
1.0004 0.999889 0.993723
1.0022 0.999767 0.990465
0.999166 1.00004 0.998551
1.00029 0.999918 0.993901
0.999025 1.00013 0.998587
0.999415 0.999993 0.99628
1.00063 0.999954 0.993748
1.00246 0.999657 0.989831
0.999409 0.999996 0.998373
1.00061 0.999956 0.99324
0.99937 1 0.998401
0.999245 0.99995 0.996517
1.00054 0.99994 0.993942
1.00233 0.999706 0.990244
0.99921 0.999975 0.997569
1.00041 0.999889 0.993708
0.999138 1.00005 0.998563
0.99942 0.999992 0.998364
1.0006 0.999948 0.993255
0.999423 0.999993 0.998363
0.999308 0.999985 0.997444
1.00051 0.999941 0.993455
0.999231 0.999999 0.99852
0.999394 0.999989 0.998388
0.999319 0.999989 0.998453

TENSORS stress float
0.00118044 2.82651e-05 4.16141e-05
2.82651e-05 0.000248555 -6.14419e-06
4.16141e-05 -6.14419e-06 0.000230058
0.00293765 -6.79503e-05 3.75446e-05
-6.79503e-05 0.00113305 3.33947e-06
3.75446e-05 3.33947e-06 0.00113253
0.00117848 3.81051e-05 1.81619e-05
3.81051e-05 0.00025227 -2.06063e-06
1.81619e-05 -2.06063e-06 0.000232351
0.00140168 6.73534e-06 5.63526e-05
6.73534e-06 0.000360072 -4.84941e-06
5.63526e-05 -4.84941e-06 0.000338918
0.00123463 1.73184e-05 4.74706e-05
1.73184e-05 0.000283386 -5.92207e-06
4.74706e-05 -5.92207e-06 0.000263293
0.00114129 3.53699e-05 3.50371e-05
3.53699e-05 0.000215749 -6.39526e-06
3.50371e-05 -6.39526e-06 0.000200772
0.00111635 6.11288e-06 7.94579e-06
6.11288e-06 0.000176971 -2.80278e-06
7.94579e-06 -2.80278e-06 0.000137381
0.0029307 -6.96407e-05 6.89137e-07
-6.96407e-05 0.00112637 -1.72039e-07
6.89137e-07 -1.72039e-07 0.00112643
0.00340685 -0.000108995 9.14289e-06
-0.000108995 0.0014179 1.34867e-06
9.14289e-06 1.34867e-06 0.0014039
0.0029435 -8.51861e-05 1.26735e-05
-8.51861e-05 0.00115477 1.31685e-06
1.26735e-05 1.31685e-06 0.00114913
0.00109272 -3.50613e-05 2.9552e-05
-3.50613e-05 0.000164611 3.9964e-06
2.9552e-05 3.9964e-06 0.000159661
0.000768745 -6.64221e-06 6.18567e-06
-6.64221e-06 -7.91458e-06 3.4934e-06
6.18567e-06 3.4934e-06 -4.17902e-05
0.00165313 -7.77602e-06 6.92205e-05
-7.77602e-06 0.000467193 5.76084e-07
6.92205e-05 5.76084e-07 0.000445769
0.00134125 -2.44661e-05 9.69833e-06
-2.44661e-05 0.000332949 1.20622e-06
9.69833e-06 1.20622e-06 0.000310023
0.00118008 5.20079e-05 -6.90154e-06
5.20079e-05 0.000258238 1.96784e-06
-6.90154e-06 1.96784e-06 0.000236459
0.00137685 3.0595e-05 2.61442e-05
3.0595e-05 0.000353973 -1.4723e-06
2.61442e-05 -1.4723e-06 0.000330333
0.0011251 4.12699e-05 1.47738e-05
4.12699e-05 0.000210361 -2.24903e-06
1.47738e-05 -2.24903e-06 0.000194774
0.00123514 3.44344e-05 2.10362e-05
3.44344e-05 0.000289649 -1.83195e-06
2.10362e-05 -1.83195e-06 0.000267329
0.00118195 4.38714e-06 -7.05348e-06
4.38714e-06 0.000207813 4.02527e-07
-7.05348e-06 4.02527e-07 0.000169007
0.00442739 3.51274e-05 6.91346e-05
3.51274e-05 0.00189964 -6.16331e-07
6.91346e-05 -6.16331e-07 0.00189253
0.00149523 7.41158e-06 6.00291e-05
7.41158e-06 0.000399302 -3.76061e-06
6.00291e-05 -3.76061e-06 0.000378553
0.00129858 9.6416e-06 5.20234e-05
9.6416e-06 0.000315747 -5.59958e-06
5.20234e-05 -5.59958e-06 0.000294825
0.00134546 4.49947e-06 9.76652e-06
4.49947e-06 0.000253914 -3.15189e-06
9.76652e-06 -3.15189e-06 0.000210082
0.00118188 3.46334e-06 8.21204e-06
3.46334e-06 0.000202329 -3.09088e-06
8.21204e-06 -3.09088e-06 0.000160817
0.00114956 3.75109e-05 3.14543e-05
3.75109e-05 0.00020282 -6.45058e-06
3.14543e-05 -6.45058e-06 0.000193293
0.00105059 1.31794e-05 7.20653e-06
1.31794e-05 0.000148927 -2.65773e-06
7.20653e-06 -2.65773e-06 0.000112854
0.00143927 -5.10827e-05 2.68313e-06
-5.10827e-05 0.000268081 -9.8053e-07
2.68313e-06 -9.8053e-07 0.000204132
0.00291895 -7.07905e-05 -3.39909e-05
-7.07905e-05 0.00111688 -3.37321e-06
-3.39909e-05 -3.37321e-06 0.00111763
0.00229771 -6.1801e-05 -1.89416e-05
-6.1801e-05 0.00084132 -5.2429e-07
-1.89416e-05 -5.2429e-07 0.000824072
0.00207787 -6.05768e-05 -1.45843e-05
-6.05768e-05 0.000705262 -7.59581e-07
-1.45843e-05 -7.59581e-07 0.00069488
0.00278291 -6.43957e-05 4.58958e-07
-6.43957e-05 0.00103693 -9.66249e-08
4.58958e-07 -9.66249e-08 0.00104073
0.000716563 -1.29269e-05 -3.69354e-08
-1.29269e-05 -3.05476e-05 -6.83897e-08
-3.69354e-08 -6.83897e-08 -6.51683e-05
0.00154885 -7.01126e-06 5.09309e-05
-7.01126e-06 0.000447161 3.29898e-06
5.09309e-05 3.29898e-06 0.00042531
0.00138814 -2.24659e-05 4.25659e-05
-2.24659e-05 0.000361055 3.58827e-06
4.25659e-05 3.58827e-06 0.000342564
0.00194163 2.44666e-05 2.64966e-05
2.44666e-05 0.000586247 3.26214e-06
2.64966e-05 3.26214e-06 0.000549243
0.00264687 -6.56952e-05 1.16779e-05
-6.56952e-05 0.000956657 1.47739e-06
1.16779e-05 1.47739e-06 0.000963216
0.00173959 -5.24386e-06 2.00578e-05
-5.24386e-06 0.000493673 2.7785e-06
2.00578e-05 2.7785e-06 0.000462166
0.000741027 -2.65604e-05 6.72055e-06
-2.65604e-05 -2.30966e-05 5.45681e-06
6.72055e-06 5.45681e-06 -5.35034e-05
0.000904455 3.11271e-05 3.1208e-06
3.11271e-05 3.51666e-05 1.02842e-06
3.1208e-06 1.02842e-06 -2.91143e-05
0.00256511 -4.84103e-05 2.86993e-05
-4.84103e-05 0.000898639 3.81e-06
2.86993e-05 3.81e-06 0.00091025
0.00452179 -3.41016e-05 1.87303e-06
-3.41016e-05 0.00194565 -2.5214e-07
1.87303e-06 -2.5214e-07 0.00193842
0.00274131 -3.54352e-05 -2.62248e-05
-3.54352e-05 0.00104945 -2.91539e-07
-2.62248e-05 -2.91539e-07 0.00103388
0.00474737 -2.404e-05 7.66347e-05
-2.404e-05 0.00205236 1.12141e-07
7.66347e-05 1.12141e-07 0.00204517
0.00136931 -1.83447e-05 1.03656e-05
-1.83447e-05 0.000338318 7.81981e-07
1.03656e-05 7.81981e-07 0.000315539
0.000786386 -9.06437e-06 1.24587e-05
-9.06437e-06 -7.39758e-05 1.82496e-06
1.24587e-05 1.82496e-06 -0.000121927
0.0038872 -9.75048e-05 1.03213e-05
-9.75048e-05 0.00165526 9.84648e-07
1.03213e-05 9.84648e-07 0.00164165
0.00216457 -8.49924e-06 3.49331e-05
-8.49924e-06 0.000659806 2.7274e-06
3.49331e-05 2.7274e-06 0.000623816
0.00136981 3.85423e-05 -7.89492e-06
3.85423e-05 0.000355155 1.92485e-06
-7.89492e-06 1.92485e-06 0.00033028
0.00125259 5.5376e-05 -5.81132e-06
5.5376e-05 0.000305324 2.1414e-06
-5.81132e-06 2.1414e-06 0.0002803
0.00109424 4.89174e-05 -7.23712e-06
4.89174e-05 0.000197624 1.7787e-06
-7.23712e-06 1.7787e-06 0.000181225
0.00124284 2.92718e-07 -2.27831e-05
2.92718e-07 0.000236078 3.6074e-06
-2.27831e-05 3.6074e-06 0.000198261
0.00298059 3.60707e-05 -2.76693e-05
3.60707e-05 0.00115564 -9.1012e-07
-2.76693e-05 -9.1012e-07 0.00113971
0.00143072 2.31699e-05 2.62487e-05
2.31699e-05 0.00037112 -1.17977e-06
2.62487e-05 -1.17977e-06 0.000348758
0.00109529 4.16624e-05 1.25296e-05
4.16624e-05 0.000176544 -2.32631e-06
1.25296e-05 -2.32631e-06 0.000166902
0.0013013 3.20415e-05 2.39259e-05
3.20415e-05 0.000323546 -1.64086e-06
2.39259e-05 -1.64086e-06 0.000300068
0.00140771 -7.15597e-06 -9.60237e-06
-7.15597e-06 0.000282071 9.96933e-08
-9.60237e-06 9.96933e-08 0.000240034
0.00111156 1.30253e-05 -5.51003e-06
1.30253e-05 0.000178031 4.55751e-07
-5.51003e-06 4.55751e-07 0.000142508
0.00125246 -1.06896e-06 -8.59128e-06
-1.06896e-06 0.000234779 3.38431e-07
-8.59128e-06 3.38431e-07 0.000194404
0.00152797 -5.47209e-05 -1.59661e-06
-5.47209e-05 0.00031041 5.78072e-07
-1.59661e-06 5.78072e-07 0.00024582
0.00458973 3.82775e-05 6.94499e-05
3.82775e-05 0.0019775 4.87442e-08
6.94499e-05 4.87442e-08 0.00196988
0.0015339 1.12328e-05 6.28369e-05
1.12328e-05 0.000414533 -2.77612e-06
6.28369e-05 -2.77612e-06 0.0003937
0.00214176 2.54206e-05 1.0721e-05
2.54206e-05 0.000629253 -1.111e-06
1.0721e-05 -1.111e-06 0.000589156
0.0014128 1.21891e-06 1.22055e-05
1.21891e-06 0.000272264 -2.38766e-06
1.22055e-05 -2.38766e-06 0.000229513
0.00125317 3.67319e-06 8.55556e-06
3.67319e-06 0.000225657 -3.38936e-06
8.55556e-06 -3.38936e-06 0.000182624
0.00178831 -5.15205e-05 4.17723e-06
-5.15205e-05 0.000349456 -1.75961e-06
4.17723e-06 -1.75961e-06 0.000279767
0.00120317 -4.80583e-05 3.66604e-06
-4.80583e-05 0.00011798 -1.7081e-06
3.66604e-06 -1.7081e-06 5.15694e-05
0.00122044 3.73066e-05 3.02925e-05
3.73066e-05 0.000220023 -6.31353e-06
3.02925e-05 -6.31353e-06 0.000216299
0.00102754 3.82562e-05 5.10493e-06
3.82562e-05 0.000138638 -2.69139e-06
5.10493e-06 -2.69139e-06 0.000107295
0.00130381 -3.99406e-05 2.23129e-06
-3.99406e-05 0.00022888 -8.442e-07
2.23129e-06 -8.442e-07 0.000166968
0.00112409 -6.50586e-05 2.00407e-06
-6.50586e-05 5.6788e-05 -6.9711e-07
2.00407e-06 -6.9711e-07 -2.29867e-05
0.00337661 -8.24214e-05 -4.16719e-05
-8.24214e-05 0.00139448 -2.72768e-06
-4.16719e-05 -2.72768e-06 0.00138457
0.00280972 -6.5229e-05 -3.2e-05
-6.5229e-05 0.00104713 -3.45064e-06
-3.2e-05 -3.45064e-06 0.0010518
0.00302086 -7.54498e-05 -3.63618e-05
-7.54498e-05 0.00118658 -3.15225e-06
-3.63618e-05 -3.15225e-06 0.00118324
0.000674027 -1.39886e-05 -4.97241e-06
-1.39886e-05 -4.92742e-05 -4.03573e-06
-4.97241e-06 -4.03573e-06 -8.38042e-05
0.00384547 -7.25964e-05 1.09022e-08
-7.25964e-05 0.00163237 -1.47212e-07
1.09022e-08 -1.47212e-07 0.00162135
0.00327922 -7.70777e-05 1.32923e-06
-7.70777e-05 0.00133851 -1.47868e-07
1.32923e-06 -1.47868e-07 0.0013306
0.000674558 3.24523e-05 -1.00184e-07
3.24523e-05 -6.00286e-05 -1.6237e-07
-1.00184e-07 -1.6237e-07 -0.000104236
0.00187101 -4.93354e-05 -1.2049e-05
-4.93354e-05 0.000554713 -9.55368e-07
-1.2049e-05 -9.55368e-07 0.000557617
0.000713118 5.73002e-06 -1.1458e-07
5.73002e-06 -3.08858e-05 -6.7759e-08
-1.1458e-07 -6.7759e-08 -6.87121e-05
0.00115261 -3.70802e-05 6.6633e-06
-3.70802e-05 0.000190231 5.10101e-07
6.6633e-06 5.10101e-07 0.000162886
0.000878553 2.82616e-05 1.37915e-07
2.82616e-05 2.1942e-05 -2.36704e-07
1.37915e-07 -2.36704e-07 -4.22598e-05
0.0026274 -5.35305e-05 3.02373e-05
-5.35305e-05 0.000937734 3.69062e-06
3.02373e-05 3.69062e-06 0.000947299
0.000782389 -3.5164e-05 3.58972e-06
-3.5164e-05 -2.72136e-05 3.93252e-06
3.58972e-06 3.93252e-06 -4.40758e-05
0.000782022 3.89523e-05 1.10995e-05
3.89523e-05 -2.36143e-05 4.97303e-06
1.10995e-05 4.97303e-06 -6.88705e-05
0.000770427 2.29187e-05 9.07784e-06
2.29187e-05 -6.86562e-06 5.23597e-06
9.07784e-06 5.23597e-06 -4.89445e-05
0.00101855 5.03039e-05 4.06243e-06
5.03039e-05 2.40483e-05 1.65891e-06
4.06243e-06 1.65891e-06 -4.51317e-05
0.00157092 -5.17208e-05 1.41626e-05
-5.17208e-05 0.00039924 3.49267e-06
1.41626e-05 3.49267e-06 0.000378605
0.000943281 4.34834e-05 3.11521e-06
4.34834e-05 4.11761e-05 1.17062e-06
3.11521e-06 1.17062e-06 -2.31248e-05
0.000896509 1.81999e-05 2.85219e-06
1.81999e-05 3.83366e-05 1.71212e-06
2.85219e-06 1.71212e-06 -2.49291e-05
0.000925235 5.91748e-05 1.69691e-06
5.91748e-05 1.72423e-05 -8.08046e-08
1.69691e-06 -8.08046e-08 -5.96095e-05
0.00247212 -4.33473e-05 2.65035e-05
-4.33473e-05 0.000844124 3.90275e-06
2.65035e-05 3.90275e-06 0.000857831
0.00255902 -4.84992e-05 4.24042e-07
-4.84992e-05 0.000894762 -8.91953e-08
4.24042e-07 -8.91953e-08 0.000906613
0.00405609 -4.29578e-05 -5.80302e-05
-4.29578e-05 0.00172679 -1.66976e-06
-5.80302e-05 -1.66976e-06 0.00171876
0.00441353 -3.21412e-05 -6.63403e-05
-3.21412e-05 0.00189419 -6.02041e-07
-6.63403e-05 -6.02041e-07 0.00188694
0.00469401 -1.34046e-05 3.28879e-06
-1.34046e-05 0.00202726 -3.43562e-07
3.28879e-06 -3.43562e-07 0.00202004
0.00284462 -2.87265e-05 -2.75181e-05
-2.87265e-05 0.00109397 -2.46525e-07
-2.75181e-05 -2.46525e-07 0.0010786
0.00151245 5.14489e-07 1.5392e-05
5.14489e-07 0.000301387 4.05627e-08
1.5392e-05 4.05627e-08 0.000258388
0.00258197 -5.1389e-05 -2.59266e-05
-5.1389e-05 0.000979197 -2.61045e-07
-2.59266e-05 -2.61045e-07 0.000961824
0.00138726 1.11865e-05 1.28489e-05
1.11865e-05 0.000263706 9.24651e-08
1.28489e-05 9.24651e-08 0.000223741
0.004767 4.47265e-05 7.08714e-05
4.47265e-05 0.00206217 8.64964e-07
7.08714e-05 8.64964e-07 0.00205425
0.000774595 -9.83562e-07 1.06256e-05
-9.83562e-07 -9.28981e-05 3.47095e-07
1.06256e-05 3.47095e-07 -0.00014277
0.0022026 -2.72927e-05 3.7259e-05
-2.72927e-05 0.000668838 1.93704e-06
3.7259e-05 1.93704e-06 0.000631526
0.00122113 7.21654e-06 6.23421e-06
7.21654e-06 4.51918e-06 1.37357e-06
6.23421e-06 1.37357e-06 -7.23355e-05
0.00206138 2.64555e-05 3.15142e-05
2.64555e-05 0.000621399 2.78181e-06
3.15142e-05 2.78181e-06 0.000584822
0.00116834 3.14315e-05 5.85976e-06
3.14315e-05 1.62023e-05 1.50466e-06
5.85976e-06 1.50466e-06 -5.79385e-05
0.00162145 1.60877e-05 -6.72543e-05
1.60877e-05 0.000451998 5.45011e-07
-6.72543e-05 5.45011e-07 0.000430628
0.00136791 2.46494e-05 -1.02596e-05
2.46494e-05 0.000342897 1.46948e-06
-1.02596e-05 1.46948e-06 0.000319601
0.00101108 4.58718e-05 -7.1207e-06
4.58718e-05 0.00013514 1.63475e-06
-7.1207e-06 1.63475e-06 0.000125398
0.00132542 5.91319e-05 -4.53421e-06
5.91319e-05 0.000343629 2.23561e-06
-4.53421e-06 2.23561e-06 0.000316896
0.00145315 -1.0396e-05 -3.07117e-05
-1.0396e-05 0.000302468 3.35985e-06
-3.07117e-05 3.35985e-06 0.000261629
0.00130098 -7.42892e-06 -2.55073e-05
-7.42892e-06 0.000255517 3.65388e-06
-2.55073e-05 3.65388e-06 0.000216556
0.00118694 1.15283e-05 -1.92656e-05
1.15283e-05 0.000214313 3.53628e-06
-1.92656e-05 3.53628e-06 0.000179444
0.00162558 -5.8229e-05 -6.00926e-06
-5.8229e-05 0.000357146 2.22469e-06
-6.00926e-06 2.22469e-06 0.000291918
0.00466468 4.91033e-05 -2.97918e-06
4.91033e-05 0.00201375 -3.53934e-07
-2.97918e-06 -3.53934e-07 0.00200584
0.00144971 2.0613e-05 2.69279e-05
2.0613e-05 0.000375109 -7.96114e-07
2.69279e-05 -7.96114e-07 0.000353173
0.00113235 1.24002e-05 -1.68343e-05
1.24002e-05 0.000106737 2.36936e-07
-1.68343e-05 2.36936e-07 6.15151e-05
0.0014589 -5.19804e-06 -9.62726e-06
-5.19804e-06 0.000293314 7.60681e-08
-9.62726e-06 7.60681e-08 0.000251698
0.00196291 5.04629e-05 2.2132e-05
5.04629e-05 0.000606583 -1.85504e-06
2.2132e-05 -1.85504e-06 0.000607263
0.00130031 3.15042e-05 -4.35495e-06
3.15042e-05 0.000275005 4.37629e-07
-4.35495e-06 4.37629e-07 0.000245582
0.0013266 -3.06937e-06 -9.7532e-06
-3.06937e-06 0.000259528 1.9226e-07
-9.7532e-06 1.9226e-07 0.000217862
0.0016301 -4.79795e-05 -2.78411e-06
-4.79795e-05 0.000267579 5.63196e-07
-2.78411e-06 5.63196e-07 0.000196941
0.00143861 -4.59927e-05 -1.30142e-06
-4.59927e-05 0.000294111 6.49142e-07
-1.30142e-06 6.49142e-07 0.000231332
0.00140867 -5.29098e-05 -6.99334e-07
-5.29098e-05 0.000221823 1.28518e-07
-6.99334e-07 1.28518e-07 0.000155917
0.00112208 -6.46038e-05 -1.3226e-08
-6.46038e-05 5.59605e-05 -3.62458e-08
-1.3226e-08 -3.62458e-08 -2.36877e-05
0.000759028 3.66678e-06 1.04765e-05
3.66678e-06 -9.58947e-05 -1.64629e-06
1.04765e-05 -1.64629e-06 -0.000145604
0.00143418 6.38759e-06 1.27941e-05
6.38759e-06 0.000275504 -1.79735e-06
1.27941e-05 -1.79735e-06 0.000233284
0.00157814 6.62585e-06 5.56125e-06
6.62585e-06 0.000189722 -1.09679e-06
5.56125e-06 -1.09679e-06 0.000116309
0.00148113 -3.49672e-05 5.44017e-06
-3.49672e-05 0.000169166 -1.42475e-06
5.44017e-06 -1.42475e-06 9.79724e-05
0.00135091 -5.03357e-05 4.36447e-06
-5.03357e-05 0.000158878 -2.14702e-06
4.36447e-06 -2.14702e-06 8.9812e-05
0.00171593 -6.09241e-05 1.72672e-06
-6.09241e-05 0.000244028 -6.42468e-07
1.72672e-06 -6.42468e-07 0.00015959
0.00276515 5.9536e-05 3.11092e-05
5.9536e-05 0.00101045 -3.44657e-06
3.11092e-05 -3.44657e-06 0.00101849
0.00113803 -6.16588e-05 1.86835e-06
-6.16588e-05 3.34751e-05 -6.21768e-07
1.86835e-06 -6.21768e-07 -4.60447e-05
0.000715339 4.73493e-05 3.26636e-06
4.73493e-05 -3.62853e-05 -3.73605e-06
3.26636e-06 -3.73605e-06 -6.51429e-05
0.000754203 -2.43733e-05 2.31383e-06
-2.43733e-05 -3.32077e-05 -1.16299e-06
2.31383e-06 -1.16299e-06 -9.50013e-05
0.00118949 -6.96772e-05 1.96991e-06
-6.96772e-05 0.000123571 -1.0869e-06
1.96991e-06 -1.0869e-06 4.29664e-05
0.00122324 -7.34906e-05 1.13656e-06
-7.34906e-05 7.42451e-05 -1.61088e-07
1.13656e-06 -1.61088e-07 -1.12564e-05
0.000710304 3.69762e-05 4.02937e-06
3.69762e-05 -5.94908e-05 -3.90629e-06
4.02937e-06 -3.90629e-06 -7.93989e-05
0.000891266 9.93816e-06 1.92267e-06
9.93816e-06 1.61037e-05 -2.43829e-06
1.92267e-06 -2.43829e-06 -3.29283e-05
0.00364379 -8.18055e-05 -4.54921e-05
-8.18055e-05 0.00153215 -2.61615e-06
-4.54921e-05 -2.61615e-06 0.00152074
0.00314564 -8.08106e-05 -3.77215e-05
-8.08106e-05 0.00126722 -2.87723e-06
-3.77215e-05 -2.87723e-06 0.00126005
0.00064439 2.74853e-05 -7.01616e-06
2.74853e-05 -7.2034e-05 -4.14276e-06
-7.01616e-06 -4.14276e-06 -0.000116412
0.00273052 -5.9386e-05 -3.09533e-05
-5.9386e-05 0.000996418 -3.52042e-06
-3.09533e-05 -3.52042e-06 0.00100411
0.000646239 -4.55142e-05 -3.13215e-06
-4.55142e-05 -6.73319e-05 -4.2462e-06
-3.13215e-06 -4.2462e-06 -9.81084e-05
0.000648365 4.52218e-06 -6.27331e-06
4.52218e-06 -5.83407e-05 -3.66529e-06
-6.27331e-06 -3.66529e-06 -9.68356e-05
0.000850468 2.87252e-05 -2.89622e-06
2.87252e-05 7.03103e-06 -1.36022e-06
-2.89622e-06 -1.36022e-06 -5.68353e-05
0.00264234 -5.36934e-05 3.69507e-07
-5.36934e-05 0.000944448 -1.02058e-07
3.69507e-07 -1.02058e-07 0.00095421
0.000763683 -3.35461e-05 1.57112e-07
-3.35461e-05 -3.77465e-05 1.25741e-08
1.57112e-07 1.25741e-08 -5.41699e-05
0.00130303 3.34445e-05 1.09593e-05
3.34445e-05 0.000247127 2.50149e-08
1.09593e-05 2.50149e-08 0.000206104
0.00120755 1.27918e-05 8.57125e-06
1.27918e-05 0.000222818 2.49531e-07
8.57125e-06 2.49531e-07 0.000184496
0.000999574 5.03892e-05 2.08569e-07
5.03892e-05 1.47545e-05 -1.87723e-09
2.08569e-07 -1.87723e-09 -5.42886e-05
0.000749899 -4.4071e-05 -7.89859e-09
-4.4071e-05 -2.55489e-05 2.64273e-08
-7.89859e-09 2.64273e-08 -5.02718e-05
0.000907045 4.17217e-05 -3.58109e-08
4.17217e-05 2.2872e-05 1.31671e-07
-3.58109e-08 1.31671e-07 -4.1246e-05
0.000865396 1.57414e-05 6.22044e-08
1.57414e-05 2.34031e-05 -2.21725e-07
6.22044e-08 -2.21725e-07 -3.97707e-05
0.000887751 5.8028e-05 -5.44873e-08
5.8028e-05 -2.57509e-06 -1.53681e-07
-5.44873e-08 -1.53681e-07 -7.9588e-05
0.000762315 -4.01326e-05 3.56545e-06
-4.01326e-05 -2.81706e-05 3.9195e-06
3.56545e-06 3.9195e-06 -4.89129e-05
0.000804894 -3.01089e-05 3.45848e-06
-3.01089e-05 -2.39536e-05 3.85112e-06
3.45848e-06 3.85112e-06 -3.69387e-05
0.000857512 -1.1024e-06 2.73475e-06
-1.1024e-06 1.2164e-07 2.15283e-06
2.73475e-06 2.15283e-06 -4.88904e-05
0.00106356 4.62106e-05 4.66603e-06
4.62106e-05 1.29335e-05 1.73275e-06
4.66603e-06 1.73275e-06 -5.83389e-05
0.000983856 4.97948e-05 3.48536e-06
4.97948e-05 4.00792e-05 1.53209e-06
3.48536e-06 1.53209e-06 -2.64574e-05
0.00118535 6.66304e-05 2.3097e-06
6.66304e-05 5.89051e-05 9.26104e-07
2.3097e-06 9.26104e-07 -2.39082e-05
0.000892866 1.16352e-05 2.76256e-06
1.16352e-05 3.03801e-05 1.95408e-06
2.76256e-06 1.95408e-06 -2.84104e-05
0.00094691 6.20065e-05 1.36259e-06
6.20065e-05 7.20408e-06 2.39514e-07
1.36259e-06 2.39514e-07 -6.89592e-05
0.00104668 5.83955e-05 1.77596e-06
5.83955e-05 9.65103e-05 3.65754e-07
1.77596e-06 3.65754e-07 1.82071e-05
0.00106908 7.21838e-05 -4.56169e-08
7.21838e-05 8.30121e-05 -7.10663e-07
-4.56169e-08 -7.10663e-07 -5.92067e-07
0.00238142 -3.856e-05 2.40164e-05
-3.856e-05 0.000790643 3.93222e-06
2.40164e-05 3.93222e-06 0.000806419
0.00246217 -4.35055e-05 4.70954e-07
-4.35055e-05 0.000838172 -7.50426e-08
4.70954e-07 -7.50426e-08 0.000852142
0.00255263 -4.86389e-05 -2.71518e-05
-4.86389e-05 0.000890669 -3.73182e-06
-2.71518e-05 -3.73182e-06 0.000902764
0.000746025 3.1761e-05 3.61492e-06
3.1761e-05 -4.89128e-05 -3.80567e-06
3.61492e-06 -3.80567e-06 -6.46889e-05
0.00268609 5.41051e-05 2.93802e-05
5.41051e-05 0.00096316 -3.57907e-06
2.93802e-05 -3.57907e-06 0.00097335
0.0038707 -5.58951e-05 -5.28199e-05
-5.58951e-05 0.00164017 -2.16081e-06
-5.28199e-05 -2.16081e-06 0.00163095
0.00422372 -3.63747e-05 -6.22915e-05
-3.63747e-05 0.0018048 -1.13814e-06
-6.22915e-05 -1.13814e-06 0.00179741
0.00068567 2.18049e-05 -9.19931e-06
2.18049e-05 -9.68857e-05 -2.81862e-06
-9.19931e-06 -2.81862e-06 -0.000140457
0.000729778 1.3993e-05 -1.01071e-05
1.3993e-05 -9.91005e-05 -1.52394e-06
-1.01071e-05 -1.52394e-06 -0.000146223
0.00463176 -1.5132e-05 -6.93801e-05
-1.5132e-05 0.00199751 -7.41225e-08
-6.93801e-05 -7.41225e-08 0.00199033
0.00477664 1.82746e-05 -1.02431e-06
1.82746e-05 0.00206646 3.69696e-07
-1.02431e-06 3.69696e-07 0.00205911
0.000763433 7.17618e-07 6.10286e-08
7.17618e-07 -9.75409e-05 -2.37136e-07
6.10286e-08 -2.37136e-07 -0.000147364
0.00145329 -2.49502e-06 1.41162e-05
-2.49502e-06 0.00028588 1.35536e-07
1.41162e-05 1.35536e-07 0.000245123
0.00121834 1.0564e-05 1.04197e-07
1.0564e-05 3.53422e-06 2.54121e-08
1.04197e-07 2.54121e-08 -7.3349e-05
0.000666596 2.92992e-05 -5.62137e-08
2.92992e-05 -9.27644e-05 -6.7248e-08
-5.62137e-08 -6.7248e-08 -0.000136723
0.00116914 3.25129e-05 9.84368e-08
3.25129e-05 1.74832e-05 -1.5592e-07
9.84368e-08 -1.5592e-07 -5.67755e-05
0.000758246 -2.66092e-06 1.07606e-05
-2.66092e-06 -0.000105493 -8.31504e-07
1.07606e-05 -8.31504e-07 -0.000156596
0.00126273 2.95598e-06 6.37785e-06
2.95598e-06 4.66669e-06 6.97443e-07
6.37785e-06 6.97443e-07 -7.51977e-05
0.00119739 1.946e-05 6.09363e-06
1.946e-05 1.21745e-05 1.36089e-06
6.09363e-06 1.36089e-06 -6.26766e-05
0.00144129 8.20338e-06 2.91385e-06
8.20338e-06 4.72058e-05 9.78387e-07
2.91385e-06 9.78387e-07 -4.16758e-05
0.00111999 3.95014e-05 5.28646e-06
3.95014e-05 1.37909e-05 1.78378e-06
5.28646e-06 1.78378e-06 -5.92057e-05
0.00137212 3.60734e-05 2.67803e-06
3.60734e-05 5.42863e-05 4.21284e-07
2.67803e-06 4.21284e-07 -3.11766e-05
0.00472164 4.21287e-05 -7.77385e-05
4.21287e-05 0.0020404 -5.51498e-07
-7.77385e-05 -5.51498e-07 0.00203282
0.00134791 1.82714e-05 -1.05948e-05
1.82714e-05 0.000326053 1.00661e-06
-1.05948e-05 1.00661e-06 0.000303501
0.000102977 2.62016e-06 -1.16257e-05
2.62016e-06 -0.000424491 2.37503e-06
-1.16257e-05 2.37503e-06 -0.000476185
0.00150612 -4.91698e-06 -3.26742e-05
-4.91698e-06 0.000315438 2.59793e-06
-3.26742e-05 2.59793e-06 0.000274572
0.00267924 7.08988e-05 -1.19615e-05
7.08988e-05 0.000981002 1.37269e-06
-1.19615e-05 1.37269e-06 0.000985062
0.00159488 3.27804e-05 -1.68538e-05
3.27804e-05 0.000422609 3.55583e-06
-1.68538e-05 3.55583e-06 0.000395148
0.00137238 -1.16758e-05 -2.81325e-05
-1.16758e-05 0.000278474 3.66932e-06
-2.81325e-05 3.66932e-06 0.000238594
0.00147507 -4.49467e-05 -9.22466e-06
-4.49467e-05 0.0001874 2.82373e-06
-9.22466e-06 2.82373e-06 0.000115787
0.00163181 -5.78559e-05 -5.53866e-06
-5.78559e-05 0.000334731 1.9713e-06
-5.53866e-06 1.9713e-06 0.000269283
0.00156878 -5.16e-05 -5.37066e-06
-5.16e-05 0.000357128 2.23707e-06
-5.37066e-06 2.23707e-06 0.00029347
0.00112158 -6.42447e-05 -1.66463e-06
-6.42447e-05 5.58784e-05 5.27693e-07
-1.66463e-06 5.27693e-07 -2.36499e-05
0.000769281 4.98334e-06 -1.59777e-07
4.98334e-06 -9.18313e-05 -2.30101e-07
-1.59777e-07 -2.30101e-07 -0.000141589
0.00147879 3.85116e-06 -1.02006e-05
3.85116e-06 0.000296084 5.38669e-08
-1.02006e-05 5.38669e-08 0.000254737
0.00124183 5.17501e-06 -1.79307e-06
5.17501e-06 1.77913e-05 8.874e-08
-1.79307e-06 8.874e-08 -5.75739e-05
0.0016752 -3.66911e-05 -1.53881e-06
-3.66911e-05 0.00026805 1.40381e-07
-1.53881e-06 1.40381e-07 0.000197466
0.00272534 5.91083e-05 -3.47701e-07
5.91083e-05 0.000991761 -1.06482e-07
-3.47701e-07 -1.06482e-07 0.000999528
0.00114831 4.80468e-05 1.11309e-06
4.80468e-05 0.00018637 8.33816e-08
1.11309e-06 8.33816e-08 0.000160012
0.00110817 -2.43423e-05 1.17578e-07
-2.43423e-05 0.000145001 -4.85373e-08
1.17578e-07 -4.85373e-08 8.38123e-05
0.00135198 -4.99047e-05 -1.16734e-06
-4.99047e-05 0.000160135 1.28081e-07
-1.16734e-06 1.28081e-07 9.11879e-05
0.00143808 -5.62149e-05 -1.16843e-06
-5.62149e-05 0.000101612 4.70526e-07
-1.16843e-06 4.70526e-07 1.61525e-05
0.00101486 -6.42078e-05 -2.4673e-07
-6.42078e-05 3.75447e-05 -1.45295e-07
-2.4673e-07 -1.45295e-07 -4.31083e-05
0.00133796 -6.5227e-05 9.66206e-08
-6.5227e-05 0.00013282 1.00403e-07
9.66206e-08 1.00403e-07 5.37743e-05
0.00121366 -7.29294e-05 1.17963e-07
-7.29294e-05 6.98902e-05 1.97599e-08
1.17963e-07 1.97599e-08 -1.54366e-05
0.000731382 3.89961e-05 -1.42145e-07
3.89961e-05 -4.69421e-05 -1.06872e-09
-1.42145e-07 -1.06872e-09 -6.74004e-05
0.00087201 8.26089e-06 -3.14647e-07
8.26089e-06 5.95541e-06 9.31568e-09
-3.14647e-07 9.31568e-09 -4.30252e-05
0.00124853 2.97367e-06 6.05501e-06
2.97367e-06 -4.30578e-07 -1.24984e-06
6.05501e-06 -1.24984e-06 -7.94366e-05
0.00151409 -9.4656e-06 5.48516e-06
-9.4656e-06 0.000172778 -1.13939e-06
5.48516e-06 -1.13939e-06 0.000101894
0.00179639 2.05557e-06 2.11684e-06
2.05557e-06 0.000231339 -3.70142e-07
2.11684e-06 -3.70142e-07 0.000145854
0.00120731 -3.81983e-05 3.4764e-06
-3.81983e-05 -4.5109e-05 -8.12977e-07
3.4764e-06 -8.12977e-07 -0.0001314
0.00134219 -6.27907e-05 1.62789e-06
-6.27907e-05 0.000102228 -9.3882e-07
1.62789e-06 -9.3882e-07 2.1191e-05
0.00168044 -6.06554e-05 4.90887e-07
-6.06554e-05 0.000184866 -2.27379e-07
4.90887e-07 -2.27379e-07 9.74139e-05
0.000663274 4.23528e-05 3.66061e-06
4.23528e-05 -7.3032e-05 -3.8613e-06
3.66061e-06 -3.8613e-06 -9.73146e-05
0.00127467 -6.9446e-05 6.67674e-07
-6.9446e-05 6.32999e-05 -2.84729e-07
6.67674e-07 -2.84729e-07 -2.06487e-05
0.000799388 -7.5898e-06 2.26336e-06
-7.5898e-06 -1.0085e-05 -1.13218e-06
2.26336e-06 -1.13218e-06 -7.05806e-05
0.000727561 -5.30622e-05 1.6491e-06
-5.30622e-05 -7.66496e-05 -1.27113e-06
1.6491e-06 -1.27113e-06 -0.000154379
0.00157691 -8.94078e-05 7.50148e-07
-8.94078e-05 0.000293594 -4.67229e-07
7.50148e-07 -4.67229e-07 0.000204958
0.00141103 -8.08353e-05 1.16472e-07
-8.08353e-05 0.000145293 8.4908e-07
1.16472e-07 8.4908e-07 5.96608e-05
0.000896017 -3.3092e-06 2.75825e-06
-3.3092e-06 2.398e-05 -2.07728e-06
2.75825e-06 -2.07728e-06 -3.08775e-05
0.000881179 1.83623e-05 1.28497e-06
1.83623e-05 7.66136e-06 -2.18605e-06
1.28497e-06 -2.18605e-06 -3.4825e-05
0.000952486 -2.69992e-05 1.07956e-06
-2.69992e-05 4.4361e-05 -9.2158e-07
1.07956e-06 -9.2158e-07 -2.61982e-05
0.000652021 3.49991e-05 -8.07241e-06
3.49991e-05 -8.41857e-05 -3.97431e-06
-8.07241e-06 -3.97431e-06 -0.000129012
0.00265061 -5.38652e-05 -2.93838e-05
-5.38652e-05 0.000947787 -3.63861e-06
-2.93838e-05 -3.63861e-06 0.000957752
0.000748617 -3.20065e-05 -3.86217e-06
-3.20065e-05 -4.63661e-05 -3.87917e-06
-3.86217e-06 -3.87917e-06 -6.23777e-05
0.000632932 1.51494e-05 -6.30858e-06
1.51494e-05 -6.70541e-05 -3.85713e-06
-6.30858e-06 -3.85713e-06 -0.000108968
0.000984834 5.0645e-05 -3.92264e-06
5.0645e-05 7.70665e-06 -1.81445e-06
-3.92264e-06 -1.81445e-06 -6.12286e-05
0.000658554 -4.17505e-05 -3.76864e-06
-4.17505e-05 -7.23427e-05 -4.06606e-06
-3.76864e-06 -4.06606e-06 -9.68707e-05
0.000817766 1.02963e-05 -2.33669e-06
1.02963e-05 4.66018e-07 -1.94593e-06
-2.33669e-06 -1.94593e-06 -6.27925e-05
0.000877568 3.96617e-05 -2.96367e-06
3.96617e-05 7.95385e-06 -8.68742e-07
-2.96367e-06 -8.68742e-07 -5.59808e-05
0.00084827 5.68367e-05 -1.95924e-06
5.68367e-05 -2.3454e-05 -2.20735e-07
-1.95924e-06 -2.20735e-07 -0.000100618
0.000736714 -3.87787e-05 1.14309e-07
-3.87787e-05 -4.24325e-05 4.57412e-09
1.14309e-07 4.57412e-09 -6.27532e-05
0.000786162 -2.89687e-05 1.16332e-07
-2.89687e-05 -3.38028e-05 4.3455e-08
1.16332e-07 4.3455e-08 -4.6491e-05
0.000869744 -8.38413e-06 1.28262e-07
-8.38413e-06 6.12341e-06 2.64985e-08
1.28262e-07 2.64985e-08 -4.25357e-05
0.00106621 4.69555e-05 2.55314e-07
4.69555e-05 1.46808e-05 -1.79238e-08
2.55314e-07 -1.79238e-08 -5.65507e-05
0.000943307 4.83583e-05 1.20386e-07
4.83583e-05 1.99255e-05 1.02642e-07
1.20386e-07 1.02642e-07 -4.63576e-05
0.00117564 6.6797e-05 1.50407e-07
6.6797e-05 5.4537e-05 4.76689e-08
1.50407e-07 4.76689e-08 -2.83328e-05
0.000872456 9.34738e-06 -2.46097e-07
9.34738e-06 2.24492e-05 9.82442e-09
-2.46097e-07 9.82442e-09 -3.65964e-05
0.0010393 6.50864e-05 -5.84882e-08
6.50864e-05 5.45917e-05 -8.0946e-08
-5.84882e-08 -8.0946e-08 -2.13211e-05
0.00102019 5.76857e-05 1.5378e-07
5.76857e-05 8.32681e-05 -2.2739e-07
1.5378e-07 -2.2739e-07 4.97051e-06
0.000974027 6.95267e-05 -5.69468e-07
6.95267e-05 3.48362e-05 2.36735e-07
-5.69468e-07 2.36735e-07 -4.9171e-05
0.000820858 -2.60455e-05 3.13228e-06
-2.60455e-05 -2.26961e-05 3.67609e-06
3.13228e-06 3.67609e-06 -3.22425e-05
0.000868855 3.58823e-06 2.91605e-06
3.58823e-06 9.27271e-06 1.81911e-06
2.91605e-06 1.81911e-06 -4.43627e-05
0.000857166 -1.17553e-05 1.99056e-06
-1.17553e-05 -3.30638e-06 2.36763e-06
1.99056e-06 2.36763e-06 -4.64779e-05
0.000978921 1.92188e-05 1.33528e-06
1.92188e-05 5.82273e-05 7.6188e-07
1.33528e-06 7.6188e-07 -1.03237e-05
0.00125029 5.80309e-05 2.90148e-06
5.80309e-05 5.13733e-05 8.45436e-07
2.90148e-06 8.45436e-07 -3.29223e-05
0.00112643 6.89774e-05 1.83469e-06
6.89774e-05 7.12789e-05 1.02494e-06
1.83469e-06 1.02494e-06 -8.00218e-06
0.00126402 7.31871e-05 1.19504e-06
7.31871e-05 6.80146e-05 8.83523e-07
1.19504e-06 8.83523e-07 -2.12159e-05
0.00105502 4.28359e-05 1.63262e-06
4.28359e-05 0.000103041 8.54652e-07
1.63262e-06 8.54652e-07 2.80349e-05
0.00113846 7.43038e-05 3.36215e-07
7.43038e-05 8.8476e-05 3.74234e-08
3.36215e-07 3.74234e-08 6.76726e-06
0.00105286 7.12322e-05 9.33538e-07
7.12322e-05 0.00010072 -5.29835e-07
9.33538e-07 -5.29835e-07 1.13432e-05
0.000870219 6.77719e-05 4.67601e-07
6.77719e-05 -3.00458e-05 -5.92187e-07
4.67601e-07 -5.92187e-07 -0.000117427
0.000894254 -9.19518e-06 9.01826e-07
-9.19518e-06 2.54168e-06 1.82553e-06
9.01826e-07 1.82553e-06 -2.64445e-05
0.00082928 -1.97673e-05 2.22356e-06
-1.97673e-05 -2.91178e-05 3.44402e-06
2.22356e-06 3.44402e-06 -3.36458e-05
0.00231227 -3.40491e-05 2.14638e-05
-3.40491e-05 0.000748436 3.95031e-06
2.14638e-05 3.95031e-06 0.000766072
0.0023773 -3.87699e-05 5.83574e-07
-3.87699e-05 0.000787652 -6.69948e-08
5.83574e-07 -6.69948e-08 0.000803654
0.00245424 -4.36316e-05 -2.48037e-05
-4.36316e-05 0.000833241 -3.786e-06
-2.48037e-05 -3.786e-06 0.000847473
0.000770034 2.82877e-05 3.15393e-06
2.82877e-05 -4.29602e-05 -3.52765e-06
3.15393e-06 -3.52765e-06 -5.47858e-05
0.00256117 4.90093e-05 2.65585e-05
4.90093e-05 0.000893433 -3.62685e-06
2.65585e-05 -3.62685e-06 0.000905758
0.000762072 3.35895e-05 -2.61887e-07
3.35895e-05 -3.9601e-05 1.0272e-08
-2.61887e-07 1.0272e-08 -5.58643e-05
0.0026749 5.38287e-05 -3.57672e-07
5.38287e-05 0.000958251 -9.64494e-08
-3.57672e-07 -9.64494e-08 0.000968243
0.000659064 3.20322e-05 -8.68906e-06
3.20322e-05 -9.63641e-05 -3.47961e-06
-8.68906e-06 -3.47961e-06 -0.00014046
0.000715756 2.11037e-05 -9.67233e-06
2.11037e-05 -9.34459e-05 -2.11947e-06
-9.67233e-06 -2.11947e-06 -0.000138181
0.0011553 3.22568e-05 -5.75142e-06
3.22568e-05 1.15077e-05 -1.73609e-06
-5.75142e-06 -1.73609e-06 -6.28417e-05
0.00121372 1.19275e-05 -6.06351e-06
1.19275e-05 1.67853e-06 -1.2505e-06
-6.06351e-06 -1.2505e-06 -7.52287e-05
0.000746274 4.78625e-06 -1.06512e-05
4.78625e-06 -0.000105011 -8.68467e-07
-1.06512e-05 -8.68467e-07 -0.000154854
0.00478328 1.69991e-05 -7.38918e-05
1.69991e-05 0.00207093 5.48217e-07
-7.38918e-05 5.48217e-07 0.00206288
0.000770126 6.45999e-08 3.67369e-08
6.45999e-08 -9.96181e-05 -3.7467e-07
3.67369e-08 -3.7467e-07 -0.000150756
0.00126032 6.49571e-06 2.32815e-08
6.49571e-06 3.54197e-06 -2.41238e-07
2.32815e-08 -2.41238e-07 -7.62638e-05
0.0011875 1.90047e-05 -1.56566e-09
1.90047e-05 8.02218e-06 -3.055e-08
-1.56566e-09 -3.055e-08 -6.69276e-05
0.00146392 7.52196e-06 8.79909e-08
7.52196e-06 5.84879e-05 6.45764e-08
8.79909e-08 6.45764e-08 -3.03936e-05
0.0011237 4.0754e-05 2.17028e-07
4.0754e-05 1.66626e-05 -4.3114e-08
2.17028e-07 -4.3114e-08 -5.64271e-05
0.00138395 3.82337e-05 3.64695e-08
3.82337e-05 6.0119e-05 -6.73778e-08
3.64695e-08 -6.73778e-08 -2.54387e-05
0.00127408 1.12392e-06 6.31997e-06
1.12392e-06 2.64026e-06 -6.9087e-07
6.31997e-06 -6.9087e-07 -7.79974e-05
0.0014937 8.6157e-06 3.04734e-06
8.6157e-06 5.12094e-05 7.8292e-07
3.04734e-06 7.8292e-07 -4.13185e-05
0.0014199 2.22642e-05 2.87496e-06
2.22642e-05 5.60846e-05 6.38733e-07
2.87496e-06 6.38733e-07 -3.02754e-05
0.00156463 2.90755e-06 1.20586e-06
2.90755e-06 7.69695e-05 6.53342e-07
1.20586e-06 6.53342e-07 -1.3529e-05
0.00131374 4.89383e-05 2.4542e-06
4.89383e-05 5.17746e-05 4.53329e-07
2.4542e-06 4.53329e-07 -3.32697e-05
0.00147415 4.00395e-05 9.36827e-07
4.00395e-05 6.67526e-05 6.67063e-08
9.36827e-07 6.67063e-08 -2.07167e-05
0.000779823 9.00534e-06 -1.04453e-05
9.00534e-06 -8.73755e-05 1.14268e-06
-1.04453e-05 1.14268e-06 -0.000137367
0.00154063 7.99577e-06 -3.40704e-05
7.99577e-06 0.000325989 1.78194e-06
-3.40704e-05 1.78194e-06 0.000285185
0.000887907 5.05719e-06 -6.68823e-06
5.05719e-06 -0.000163107 1.34842e-06
-6.68823e-06 1.34842e-06 -0.000240459
0.00186781 -3.77749e-05 -8.98522e-06
-3.77749e-05 0.000366123 1.98227e-06
-8.98522e-06 1.98227e-06 0.000296204
0.00268822 5.86942e-05 -3.10724e-05
5.86942e-05 0.000974357 3.5093e-06
-3.10724e-05 3.5093e-06 0.000981855
0.00159358 4.04194e-05 -1.56047e-05
4.04194e-05 0.000414755 2.91393e-06
-1.56047e-05 2.91393e-06 0.000391283
0.00144936 -3.17642e-05 -3.87067e-06
-3.17642e-05 0.000316016 1.52483e-06
-3.87067e-06 1.52483e-06 0.000255878
0.00136889 -4.99701e-05 -6.59277e-06
-4.99701e-05 0.000169615 2.3879e-06
-6.59277e-06 2.3879e-06 0.000100717
0.0011604 -5.14931e-05 -3.635e-06
-5.14931e-05 -4.06924e-05 1.43866e-06
-3.635e-06 1.43866e-06 -0.000127176
0.00153244 -6.87707e-05 -2.13411e-06
-6.87707e-05 0.000229429 8.5079e-07
-2.13411e-06 8.5079e-07 0.000150859
0.000828433 -5.82737e-05 -1.66536e-06
-5.82737e-05 -5.42585e-05 7.94469e-07
-1.66536e-06 7.94469e-07 -0.00013494
0.00120217 -7.23028e-05 -5.90301e-07
-7.23028e-05 6.45889e-05 1.34534e-07
-5.90301e-07 1.34534e-07 -2.05591e-05
0.000755752 4.05252e-05 -3.34838e-06
4.05252e-05 -3.28613e-05 3.82714e-06
-3.34838e-06 3.82714e-06 -5.38129e-05
0.000853446 6.89895e-06 -2.50402e-06
6.89895e-06 -3.84119e-06 2.03279e-06
-2.50402e-06 2.03279e-06 -5.27774e-05
0.00109466 6.49905e-06 -2.07316e-07
6.49905e-06 -7.82161e-05 -3.23812e-08
-2.07316e-07 -3.23812e-08 -0.000158026
0.00154278 -1.23187e-05 -1.66233e-06
-1.23187e-05 0.000187025 2.07453e-07
-1.66233e-06 2.07453e-07 0.000116044
0.00169446 4.27104e-06 -1.28303e-06
4.27104e-06 0.000178048 2.63371e-07
-1.28303e-06 2.63371e-07 9.2014e-05
0.0014795 -4.11902e-05 6.13382e-07
-4.11902e-05 9.49789e-05 -3.75006e-07
6.13382e-07 -3.75006e-07 9.84193e-06
0.000709409 4.37016e-05 -3.32974e-08
4.37016e-05 -4.86008e-05 1.85611e-08
-3.32974e-08 1.85611e-08 -7.325e-05
0.000858801 -1.42925e-05 1.08844e-07
-1.42925e-05 1.81403e-05 -9.52271e-08
1.08844e-07 -9.52271e-08 -4.20849e-05
0.000824038 -5.60683e-05 5.76227e-07
-5.60683e-05 -2.69114e-05 -3.82555e-07
5.76227e-07 -3.82555e-07 -0.000103892
0.00148882 -6.50997e-05 -5.48975e-07
-6.50997e-05 0.00017444 1.00191e-07
-5.48975e-07 1.00191e-07 9.33127e-05
0.00150831 -5.6674e-05 -3.64496e-07
-5.6674e-05 9.6591e-05 5.2997e-07
-3.64496e-07 5.2997e-07 9.27828e-06
0.00131635 -8.13997e-05 -7.48668e-07
-8.13997e-05 0.000163356 2.1013e-07
-7.48668e-07 2.1013e-07 7.39325e-05
0.00128078 -6.92806e-05 7.88943e-08
-6.92806e-05 6.59479e-05 2.10256e-07
7.88943e-08 2.10256e-07 -1.79139e-05
0.00127441 -7.68653e-05 3.76891e-07
-7.68653e-05 7.75214e-05 4.32706e-07
3.76891e-07 4.32706e-07 -8.07245e-06
0.000879722 -3.4521e-06 -9.02693e-08
-3.4521e-06 1.42584e-05 -6.8611e-08
-9.02693e-08 -6.8611e-08 -4.02637e-05
0.000927334 -2.20227e-05 -1.99172e-07
-2.20227e-05 2.98817e-05 -2.11375e-07
-1.99172e-07 -2.11375e-07 -4.0081e-05
0.000868044 1.68471e-05 -1.28663e-07
1.68471e-05 1.01839e-06 1.37576e-07
-1.28663e-07 1.37576e-07 -4.15346e-05
0.00181074 1.16204e-05 2.17535e-06
1.16204e-05 0.000220066 -5.46132e-07
2.17535e-06 -5.46132e-07 0.000131073
0.00158693 -1.54595e-05 2.94573e-06
-1.54595e-05 0.000135486 -3.53994e-07
2.94573e-06 -3.53994e-07 5.11768e-05
0.00173444 6.74711e-06 1.41059e-06
6.74711e-06 0.000162852 1.46809e-08
1.41059e-06 1.46809e-08 7.15741e-05
0.00152431 -3.54702e-05 1.35535e-06
-3.54702e-05 7.36841e-05 -6.62375e-07
1.35535e-06 -6.62375e-07 -1.42166e-05
0.00115279 -6.30461e-05 8.1833e-07
-6.30461e-05 -3.35037e-05 -9.70835e-07
8.1833e-07 -9.70835e-07 -0.000118259
0.00163435 -5.57142e-05 -9.8317e-07
-5.57142e-05 0.000134524 3.4634e-07
-9.8317e-07 3.4634e-07 5.16475e-05
0.000859141 -7.44857e-06 2.7719e-06
-7.44857e-06 1.40968e-05 -1.51529e-06
2.7719e-06 -1.51529e-06 -4.44154e-05
0.00129629 -7.2211e-05 -4.42615e-07
-7.2211e-05 5.15818e-05 -8.18055e-08
-4.42615e-07 -8.18055e-08 -3.10681e-05
0.000965764 -5.55704e-05 1.11361e-06
-5.55704e-05 5.32427e-05 -6.38007e-09
1.11361e-06 -6.38007e-09 -1.98909e-05
0.000812471 -6.63689e-05 1.29357e-06
-6.63689e-05 -4.49026e-05 -1.71346e-06
1.29357e-06 -1.71346e-06 -0.000132987
0.00142877 -8.89172e-05 1.45399e-06
-8.89172e-05 0.000199491 2.38005e-07
1.45399e-06 2.38005e-07 0.000104695
0.00168341 -8.91439e-05 -1.10569e-06
-8.91439e-05 0.000268786 1.9169e-06
-1.10569e-06 1.9169e-06 0.000186681
0.000881141 2.11675e-05 1.13295e-06
2.11675e-05 3.38376e-06 -1.88076e-06
1.13295e-06 -1.88076e-06 -3.34287e-05
0.000973611 -3.80461e-05 1.51465e-06
-3.80461e-05 5.31336e-05 -2.09504e-07
1.51465e-06 -2.09504e-07 -1.75664e-05
0.000825278 -1.3488e-05 1.22864e-06
-1.3488e-05 -2.17698e-05 -1.71677e-06
1.22864e-06 -1.71677e-06 -8.91675e-05
0.0011002 -6.58433e-05 2.59398e-07
-6.58433e-05 0.000124791 6.59103e-07
2.59398e-07 6.59103e-07 4.48982e-05
0.00106738 4.78651e-05 -4.82828e-06
4.78651e-05 1.58555e-05 -1.92881e-06
-4.82828e-06 -1.92881e-06 -5.53689e-05
0.00076719 -2.79911e-05 -3.42545e-06
-2.79911e-05 -4.37626e-05 -3.73857e-06
-3.42545e-06 -3.73857e-06 -5.61637e-05
0.000714023 -3.70265e-05 -4.10708e-06
-3.70265e-05 -5.54104e-05 -3.96099e-06
-4.10708e-06 -3.96099e-06 -7.52579e-05
0.000879767 -1.46081e-05 -1.99145e-06
-1.46081e-05 1.14422e-05 -2.42343e-06
-1.99145e-06 -2.42343e-06 -3.71687e-05
0.000908831 4.7114e-05 -3.01506e-06
4.7114e-05 2.84631e-06 -1.37314e-06
-3.01506e-06 -1.37314e-06 -6.32009e-05
0.00115967 6.67583e-05 -2.27074e-06
6.67583e-05 4.71083e-05 -9.10791e-07
-2.27074e-06 -9.10791e-07 -3.58131e-05
0.000857155 6.46407e-06 -2.74058e-06
6.46407e-06 1.71324e-05 -1.89578e-06
-2.74058e-06 -1.89578e-06 -4.21871e-05
0.000997587 5.69423e-05 -1.7142e-06
5.69423e-05 7.20701e-05 -9.34098e-07
-1.7142e-06 -9.34098e-07 -6.2391e-06
0.00113797 6.83413e-05 -1.46247e-06
6.83413e-05 0.000104979 -3.28641e-07
-1.46247e-06 -3.28641e-07 2.93254e-05
0.000876359 6.67791e-05 -1.84466e-06
6.67791e-05 -1.45982e-05 4.03758e-07
-1.84466e-06 4.03758e-07 -9.90096e-05
0.000801135 -2.54048e-05 1.25888e-07
-2.54048e-05 -3.26776e-05 3.80689e-08
1.25888e-07 3.80689e-08 -4.20498e-05
0.000877752 3.78204e-06 -1.30985e-09
3.78204e-06 1.55051e-05 -3.70999e-08
-1.30985e-09 -3.70999e-08 -3.85773e-05
0.000866977 -1.58539e-05 2.87514e-08
-1.58539e-05 1.43694e-06 1.02314e-07
2.87514e-08 1.02314e-07 -4.16138e-05
0.000972386 1.71803e-05 1.82555e-07
1.71803e-05 5.51621e-05 -1.93928e-07
1.82555e-07 -1.93928e-07 -1.34015e-05
0.00125238 5.85474e-05 5.44639e-07
5.85474e-05 5.25878e-05 2.86258e-07
5.44639e-07 2.86258e-07 -3.1842e-05
0.00109851 6.85891e-05 6.36089e-08
6.85891e-05 5.83733e-05 3.37667e-08
6.36089e-08 3.37667e-08 -2.08819e-05
0.00125895 7.31267e-05 2.44518e-08
7.31267e-05 6.55412e-05 2.2352e-07
2.44518e-08 2.2352e-07 -2.36521e-05
0.00101111 4.43006e-05 4.71244e-08
4.43006e-05 8.18596e-05 1.16214e-07
4.71244e-08 1.16214e-07 7.06718e-06
0.00125971 7.80167e-05 -3.68734e-07
7.80167e-05 0.000150405 -5.70949e-07
-3.68734e-07 -5.70949e-07 6.89484e-05
0.0010693 7.21298e-05 2.02051e-07
7.21298e-05 0.000108452 -4.72068e-07
2.02051e-07 -4.72068e-07 1.8745e-05
0.000943404 7.00352e-05 -1.39368e-06
7.00352e-05 9.95638e-06 4.21583e-08
-1.39368e-06 4.21583e-08 -7.61366e-05
0.000832459 -2.28227e-05 2.67026e-06
-2.28227e-05 -2.2539e-05 3.54362e-06
2.67026e-06 3.54362e-06 -2.92746e-05
0.000864446 -1.6551e-05 1.49307e-06
-1.6551e-05 -3.29112e-06 2.29259e-06
1.49307e-06 2.29259e-06 -4.14165e-05
0.0010251 2.84245e-05 1.5404e-06
2.84245e-05 8.17974e-05 5.33827e-07
1.5404e-06 5.33827e-07 1.08202e-05
0.000959227 7.98923e-06 9.58915e-07
7.98923e-06 4.68011e-05 1.28601e-06
9.58915e-07 1.28601e-06 -1.71773e-05
0.000988926 5.11737e-05 1.00589e-06
5.11737e-05 6.86749e-05 -5.9955e-08
1.00589e-06 -5.9955e-08 -1.13265e-05
0.00133159 6.08968e-05 1.70402e-06
6.08968e-05 5.76381e-05 5.70746e-07
1.70402e-06 5.70746e-07 -3.16302e-05
0.00116933 7.58653e-05 7.44519e-07
7.58653e-05 7.04902e-05 1.05388e-06
7.44519e-07 1.05388e-06 -1.50995e-05
0.00132835 7.79749e-05 5.39109e-08
7.79749e-05 8.53564e-05 7.34962e-07
5.39109e-08 7.34962e-07 -6.20396e-06
0.00108756 6.88986e-05 1.87127e-06
6.88986e-05 0.000125469 1.57602e-06
1.87127e-06 1.57602e-06 3.77561e-05
0.00116654 7.86829e-05 1.5237e-06
7.86829e-05 9.17787e-05 1.40107e-07
1.5237e-06 1.40107e-07 6.37164e-06
0.000677437 6.24454e-05 1.43255e-06
6.24454e-05 -0.000101079 -8.69876e-07
1.43255e-06 -8.69876e-07 -0.000199511
0.000886104 -1.24944e-05 1.01992e-06
-1.24944e-05 8.26625e-07 1.97005e-06
1.01992e-06 1.97005e-06 -3.04168e-05
0.000939779 9.4554e-06 3.28162e-07
9.4554e-06 3.35079e-05 1.03419e-06
3.28162e-07 1.03419e-06 -1.3401e-05
0.00090396 -5.14634e-06 7.43777e-07
-5.14634e-06 5.58912e-06 1.77355e-06
7.43777e-07 1.77355e-06 -2.15423e-05
0.000897314 -7.16588e-06 1.21415e-07
-7.16588e-06 4.59049e-06 7.68698e-09
1.21415e-07 7.68698e-09 -2.44753e-05
0.00140422 -2.13195e-05 2.25881e-06
-2.13195e-05 0.000264491 2.06177e-06
2.25881e-06 2.06177e-06 0.000264982
0.00111747 -2.17845e-05 7.38949e-07
-2.17845e-05 0.000120412 -6.37248e-09
7.38949e-07 -6.37248e-09 0.000117525
0.00109571 -2.0611e-05 1.78219e-05
-2.0611e-05 0.000111119 6.58065e-06
1.78219e-05 6.58065e-06 0.00012443
0.002309 -3.4233e-05 7.01845e-07
-3.4233e-05 0.000745916 -6.05337e-08
7.01845e-07 -6.05337e-08 0.000763753
0.00237168 -3.89267e-05 -2.23538e-05
-3.89267e-05 0.000783894 -3.82216e-06
-2.23538e-05 -3.82216e-06 0.000800131
0.000788181 2.57815e-05 2.6694e-06
2.57815e-05 -3.98373e-05 -3.33877e-06
2.6694e-06 -3.33877e-06 -4.83675e-05
0.00243503 4.40914e-05 2.38256e-05
4.40914e-05 0.000822529 -3.63735e-06
2.38256e-05 -3.63735e-06 0.000837051
0.000788201 2.92118e-05 -1.24073e-07
2.92118e-05 -3.34931e-05 6.25797e-08
-1.24073e-07 6.25797e-08 -4.56155e-05
0.00257329 4.86957e-05 -4.7823e-07
4.86957e-05 0.000900168 -8.90448e-08
-4.7823e-07 -8.90448e-08 0.000912255
0.000780882 3.54802e-05 -3.33013e-06
3.54802e-05 -2.89134e-05 3.87662e-06
-3.33013e-06 3.87662e-06 -4.56759e-05
0.00266696 5.37589e-05 -3.02551e-05
5.37589e-05 0.000955012 3.63068e-06
-3.02551e-05 3.63068e-06 0.000964774
0.00113025 4.20505e-05 -5.44592e-06
4.20505e-05 2.09162e-05 -1.93093e-06
-5.44592e-06 -1.93093e-06 -5.22615e-05
0.0011844 2.15855e-05 -5.89542e-06
2.15855e-05 7.0465e-06 -1.295e-06
-5.89542e-06 -1.295e-06 -6.80017e-05
0.00138818 3.63045e-05 -2.67095e-06
3.63045e-05 6.23755e-05 -5.66622e-07
-2.67095e-06 -5.66622e-07 -2.31872e-05
0.00148722 7.14415e-06 -2.97144e-06
7.14415e-06 7.0067e-05 -8.27142e-07
-2.97144e-06 -8.27142e-07 -1.88094e-05
0.00125444 8.99146e-06 -6.34349e-06
8.99146e-06 7.50681e-07 -1.16653e-06
-6.34349e-06 -1.16653e-06 -7.9038e-05
0.000781614 1.62031e-06 -1.08071e-05
1.62031e-06 -9.39059e-05 7.93451e-08
-1.08071e-05 7.93451e-08 -0.000145082
0.00127128 2.94767e-06 -1.71146e-08
2.94767e-06 1.01569e-06 -4.14627e-07
-1.71146e-08 -4.14627e-07 -7.9695e-05
0.00150664 1.01509e-05 1.66579e-08
1.01509e-05 5.77491e-05 -1.42687e-07
1.66579e-08 -1.42687e-07 -3.47361e-05
0.00142495 1.88276e-05 9.71619e-08
1.88276e-05 5.89131e-05 3.91499e-08
9.71619e-08 3.91499e-08 -2.73853e-05
0.00156005 2.1467e-06 -3.71053e-08
2.1467e-06 7.24915e-05 1.24389e-07
-3.71053e-08 1.24389e-07 -1.83191e-05
0.00132321 4.92495e-05 -4.086e-08
4.92495e-05 5.63656e-05 -2.70779e-08
-4.086e-08 -2.70779e-08 -2.87536e-05
0.00148818 3.96343e-05 -9.67496e-09
3.96343e-05 7.40157e-05 6.36716e-08
-9.67496e-09 6.36716e-08 -1.34952e-05
0.00151715 7.72995e-06 3.38821e-06
7.72995e-06 5.46287e-05 -7.60609e-07
3.38821e-06 -7.60609e-07 -3.89414e-05
0.00154544 5.72005e-06 1.03917e-06
5.72005e-06 4.87273e-05 1.28825e-06
1.03917e-06 1.28825e-06 -4.6173e-05
0.00150847 2.16804e-05 1.20637e-06
2.16804e-05 6.13216e-05 2.6188e-07
1.20637e-06 2.6188e-07 -2.69642e-05
0.00171652 -4.00229e-06 9.58259e-07
-4.00229e-06 0.000132768 3.11273e-07
9.58259e-07 3.11273e-07 4.36923e-05
0.00141298 4.88046e-05 6.87392e-07
4.88046e-05 6.52399e-05 -2.18807e-07
6.87392e-07 -2.18807e-07 -2.28183e-05
0.00153134 3.03144e-05 -1.62314e-06
3.03144e-05 7.00333e-05 3.18941e-07
-1.62314e-06 3.18941e-07 -1.08025e-05
0.000945895 7.95268e-06 -6.11411e-06
7.95268e-06 -0.000153364 1.02712e-06
-6.11411e-06 1.02712e-06 -0.000234002
0.00156263 -1.71649e-05 -8.93695e-06
-1.71649e-05 0.000196445 1.43819e-06
-8.93695e-06 1.43819e-06 0.000125476
0.00159419 1.03031e-05 -4.46894e-06
1.03031e-05 0.000125763 9.30571e-07
-4.46894e-06 9.30571e-07 3.9163e-05
0.00175321 -4.42805e-05 -2.96257e-06
-4.42805e-05 0.000235863 2.64504e-07
-2.96257e-06 2.64504e-07 0.000151869
0.000753272 4.51202e-05 -3.23441e-06
4.51202e-05 -2.53287e-05 3.64907e-06
-3.23441e-06 3.64907e-06 -5.03376e-05
0.000909457 -1.63328e-05 -2.63998e-06
-1.63328e-05 4.25131e-05 1.26621e-06
-2.63998e-06 1.26621e-06 -1.78024e-05
0.00093665 -5.97066e-05 -7.68486e-07
-5.97066e-05 3.06625e-05 3.94166e-07
-7.68486e-07 3.94166e-07 -4.55897e-05
0.0016407 -6.74766e-05 -2.9381e-06
-6.74766e-05 0.000249329 1.23184e-06
-2.9381e-06 1.23184e-06 0.0001681
0.00133589 -5.26702e-05 -1.3313e-06
-5.26702e-05 8.13671e-06 1.07407e-06
-1.3313e-06 1.07407e-06 -7.90308e-05
0.00128415 -6.90585e-05 -5.42595e-07
-6.90585e-05 6.72636e-05 7.20234e-07
-5.42595e-07 7.20234e-07 -1.65128e-05
0.00105678 -7.345e-05 -1.40462e-06
-7.345e-05 3.36009e-05 9.16294e-07
-1.40462e-06 9.16294e-07 -5.66124e-05
0.0011286 -7.26285e-05 6.50294e-07
-7.26285e-05 5.23157e-06 -4.48821e-07
6.50294e-07 -4.48821e-07 -8.03135e-05
0.000866241 -3.97127e-06 -2.90415e-06
-3.97127e-06 6.01894e-06 1.66018e-06
-2.90415e-06 1.66018e-06 -4.81656e-05
0.000902717 -1.89008e-05 -1.50285e-06
-1.89008e-05 1.59944e-05 4.65146e-07
-1.50285e-06 4.65146e-07 -5.3616e-05
0.000854472 1.5735e-05 -1.6239e-06
1.5735e-05 -5.84507e-06 2.20278e-06
-1.6239e-06 2.20278e-06 -4.84792e-05
0.00166727 1.20619e-05 -1.32821e-06
1.20619e-05 0.00014487 4.01488e-07
-1.32821e-06 4.01488e-07 5.46086e-05
0.00158295 -2.07465e-05 -5.61476e-07
-2.07465e-05 0.000132362 5.83067e-08
-5.61476e-07 5.83067e-08 4.81972e-05
0.0016093 9.20259e-06 -5.62511e-07
9.20259e-06 9.8448e-05 3.27506e-07
-5.62511e-07 3.27506e-07 6.67081e-06
0.0016192 -3.41186e-05 6.5753e-08
-3.41186e-05 0.000121745 -3.81137e-07
6.5753e-08 -3.81137e-07 3.40752e-05
0.000872774 -9.50878e-06 1.46936e-07
-9.50878e-06 1.88357e-05 -1.29719e-07
1.46936e-07 -1.29719e-07 -3.93029e-05
0.00102256 -5.78266e-05 -2.3628e-08
-5.78266e-05 8.01209e-05 1.59479e-07
-2.3628e-08 1.59479e-07 6.87097e-06
0.000900545 -6.85779e-05 3.99957e-07
-6.85779e-05 1.97571e-06 -5.50867e-07
3.99957e-07 -5.50867e-07 -8.52535e-05
0.00135735 -6.67455e-05 1.2907e-08
-6.67455e-05 7.07489e-05 -3.58074e-07
1.2907e-08 -3.58074e-07 -1.39486e-05
0.00152729 -5.39814e-05 3.7464e-07
-5.39814e-05 7.90957e-05 9.94186e-07
3.7464e-07 9.94186e-07 -2.58105e-06
0.00122036 -8.29243e-05 3.44959e-08
-8.29243e-05 9.77362e-05 1.12321e-07
3.44959e-08 1.12321e-07 1.79443e-06
0.00130842 -7.16103e-05 1.61211e-08
-7.16103e-05 5.71394e-05 3.5605e-07
1.61211e-08 3.5605e-07 -2.53167e-05
0.00151152 -8.43082e-05 6.33618e-07
-8.43082e-05 0.00018244 4.45272e-07
6.33618e-07 4.45272e-07 0.000101216
0.000999089 -3.81019e-05 -3.59188e-08
-3.81019e-05 6.59245e-05 -1.4171e-07
-3.59188e-08 -1.4171e-07 -4.74539e-06
0.00105161 -6.37047e-05 -3.17167e-07
-6.37047e-05 9.88075e-05 2.94765e-07
-3.17167e-07 2.94765e-07 1.85078e-05
0.000869671 2.06097e-05 -9.48173e-08
2.06097e-05 -1.97066e-06 9.16654e-08
-9.48173e-08 9.16654e-08 -3.89299e-05
0.000849689 -5.43687e-06 1.12776e-07
-5.43687e-06 -1.11364e-05 -5.48828e-07
1.12776e-07 -5.48828e-07 -7.69759e-05
0.00162046 1.11697e-05 1.8765e-06
1.11697e-05 8.96221e-05 -5.88845e-07
1.8765e-06 -5.88845e-07 -5.71689e-06
0.00168604 -1.31006e-05 1.66108e-06
-1.31006e-05 0.000142367 2.09157e-07
1.66108e-06 2.09157e-07 5.35703e-05
0.00165367 1.16881e-05 9.39573e-07
1.16881e-05 0.000103342 2.5485e-07
9.39573e-07 2.5485e-07 1.00596e-05
0.00154678 -2.84033e-05 -1.78104e-07
-2.84033e-05 5.95792e-05 -1.31855e-06
-1.78104e-07 -1.31855e-06 -2.59925e-05
0.00129666 -6.58669e-05 -9.96003e-07
-6.58669e-05 1.17532e-05 -2.42695e-07
-9.96003e-07 -2.42695e-07 -6.92043e-05
0.00170266 -5.32288e-05 1.02713e-06
-5.32288e-05 0.000140693 -2.3094e-07
1.02713e-06 -2.3094e-07 6.50285e-05
0.00097384 -5.22616e-05 1.34777e-06
-5.22616e-05 5.70138e-05 1.65661e-07
1.34777e-06 1.65661e-07 -1.44278e-05
0.00129776 -7.22185e-05 -1.89687e-06
-7.22185e-05 3.70022e-05 6.6026e-07
-1.89687e-06 6.6026e-07 -3.7333e-05
0.000792982 -6.23163e-05 2.76496e-07
-6.23163e-05 -3.4925e-05 -6.36466e-07
2.76496e-07 -6.36466e-07 -0.000117277
0.00109292 -7.92375e-05 1.46946e-06
-7.92375e-05 8.63872e-05 -1.55681e-06
1.46946e-06 -1.55681e-06 -1.1161e-05
0.0012848 -8.88015e-05 1.63838e-06
-8.88015e-05 0.000113781 1.76226e-06
1.63838e-06 1.76226e-06 1.37814e-05
0.00177828 -9.16443e-05 9.034e-08
-9.16443e-05 0.000303026 1.20545e-06
9.034e-08 1.20545e-06 0.000221736
0.000878638 1.6937e-05 1.26032e-06
1.6937e-05 -4.87912e-07 -1.74054e-06
1.26032e-06 -1.74054e-06 -3.38628e-05
0.000782787 -3.24433e-06 7.38625e-07
-3.24433e-06 -4.67689e-05 -1.74394e-06
7.38625e-07 -1.74394e-06 -0.000107386
0.00101332 -6.55759e-05 6.18648e-07
-6.55759e-05 7.55627e-05 7.99156e-07
6.18648e-07 7.99156e-07 -3.20739e-06
0.00101297 -5.38173e-05 9.94802e-07
-5.38173e-05 8.2436e-05 -1.12055e-07
9.94802e-07 -1.12055e-07 3.15695e-06
0.00109886 -6.96067e-05 1.72493e-07
-6.96067e-05 0.000121812 1.40466e-06
1.72493e-07 1.40466e-06 3.89593e-05
0.000782207 -2.48224e-05 -2.92079e-06
-2.48224e-05 -4.22627e-05 -3.62454e-06
-2.92079e-06 -3.62454e-06 -5.14641e-05
0.00126244 5.92451e-05 -1.96665e-06
5.92451e-05 5.77548e-05 -3.2068e-07
-1.96665e-06 -3.2068e-07 -2.68172e-05
0.000872964 -1.89587e-05 -1.52983e-06
-1.89587e-05 4.32216e-06 -2.36556e-06
-1.52983e-06 -2.36556e-06 -3.86703e-05
0.000893998 1.37627e-06 -2.61493e-06
1.37627e-06 2.5114e-05 -2.11688e-06
-2.61493e-06 -2.11688e-06 -2.9058e-05
0.000961941 1.65948e-05 -1.03125e-06
1.65948e-05 5.02347e-05 -1.08144e-06
-1.03125e-06 -1.08144e-06 -1.84551e-05
0.00106325 6.80124e-05 -1.85142e-06
6.80124e-05 4.18612e-05 -1.0223e-06
-1.85142e-06 -1.0223e-06 -3.7364e-05
0.00125411 7.306e-05 -1.06953e-06
7.306e-05 6.32021e-05 -4.22856e-07
-1.06953e-06 -4.22856e-07 -2.59574e-05
0.00097257 5.02842e-05 -1.48476e-06
5.02842e-05 6.41221e-05 -5.18377e-07
-1.48476e-06 -5.18377e-07 -1.08751e-05
0.00109392 7.33034e-05 -1.5371e-06
7.33034e-05 0.000120281 -9.0536e-07
-1.5371e-06 -9.0536e-07 3.02242e-05
0.0013796 8.16857e-05 -1.44025e-06
8.16857e-05 0.000211617 -8.99606e-07
-1.44025e-06 -8.99606e-07 0.000130419
0.00102378 7.24823e-05 -2.94538e-06
7.24823e-05 5.3385e-05 1.18365e-06
-2.94538e-06 1.18365e-06 -3.14091e-05
0.000812803 -2.23754e-05 1.15749e-07
-2.23754e-05 -3.24614e-05 3.34381e-08
1.15749e-07 3.34381e-08 -3.9071e-05
0.000870552 -1.73329e-05 1.94162e-08
-1.73329e-05 -4.65981e-07 6.81231e-08
1.94162e-08 6.81231e-08 -3.84572e-05
0.000994579 3.05834e-05 1.06234e-07
3.05834e-05 6.70914e-05 -6.58518e-08
1.06234e-07 -6.58518e-08 -3.9982e-06
0.000954679 7.11727e-06 1.52996e-07
7.11727e-06 4.4852e-05 -2.52045e-08
1.52996e-07 -2.52045e-08 -1.91391e-05
0.000960426 4.89206e-05 1.69079e-07
4.89206e-05 5.40419e-05 -2.34731e-07
1.69079e-07 -2.34731e-07 -2.60163e-05
0.00134141 6.15697e-05 6.77056e-07
6.15697e-05 6.2268e-05 5.31871e-07
6.77056e-07 5.31871e-07 -2.71247e-05
0.00116672 7.62149e-05 1.03386e-07
7.62149e-05 6.9661e-05 2.66145e-08
1.03386e-07 2.66145e-08 -1.59741e-05
0.00129278 7.81017e-05 7.7358e-07
7.81017e-05 6.72996e-05 4.41124e-07
7.7358e-07 4.41124e-07 -2.46216e-05
0.00104553 6.79177e-05 5.61312e-07
6.79177e-05 0.000105665 5.85839e-07
5.61312e-07 5.85839e-07 1.80098e-05
0.0012509 8.07588e-05 1.87176e-07
8.07588e-05 0.000134906 -4.99309e-07
1.87176e-07 -4.99309e-07 4.97149e-05
0.000929196 7.09637e-05 -9.9733e-07
7.09637e-05 2.3406e-05 -5.55077e-07
-9.9733e-07 -5.55077e-07 -7.44825e-05
0.000875235 -1.52081e-05 1.19277e-06
-1.52081e-05 -1.33456e-06 2.14888e-06
1.19277e-06 2.14888e-06 -3.55368e-05
0.00094098 4.40338e-07 6.57624e-07
4.40338e-07 3.41601e-05 1.39205e-06
6.57624e-07 1.39205e-06 -2.37698e-05
0.00105347 6.42991e-05 7.06008e-07
6.42991e-05 0.000100884 -9.39334e-08
7.06008e-07 -9.39334e-08 1.78782e-05
0.00101358 3.3953e-05 6.69549e-07
3.3953e-05 8.07725e-05 4.77576e-07
6.69549e-07 4.77576e-07 4.66098e-06
0.00103725 5.48489e-05 1.79175e-07
5.48489e-05 9.77401e-05 -7.37826e-07
1.79175e-07 -7.37826e-07 1.1804e-05
0.00135564 6.09815e-05 -1.39435e-06
6.09815e-05 5.00269e-05 -6.33107e-07
-1.39435e-06 -6.33107e-07 -3.94083e-05
0.00119831 8.21925e-05 1.21883e-06
8.21925e-05 7.01878e-05 8.63451e-07
1.21883e-06 8.63451e-07 -1.85746e-05
0.00109861 8.07117e-05 -9.19364e-07
8.07117e-05 -2.97067e-05 -6.66764e-07
-9.19364e-07 -6.66764e-07 -0.000118039
0.00100425 7.12571e-05 8.39683e-07
7.12571e-05 8.82361e-05 1.903e-06
8.39683e-07 1.903e-06 -1.0387e-05
0.00119763 8.4425e-05 2.93939e-06
8.4425e-05 0.000121029 -2.24655e-07
2.93939e-06 -2.24655e-07 2.00416e-05
0.000888837 -1.12178e-05 8.93201e-08
-1.12178e-05 2.53727e-06 1.4132e-08
8.93201e-08 1.4132e-08 -2.8707e-05
0.000780855 -5.89882e-06 5.12818e-07
-5.89882e-06 -5.04005e-05 1.68962e-06
5.12818e-07 1.68962e-06 -0.000100713
0.000869319 3.23219e-07 -4.31399e-07
3.23219e-07 -3.5792e-06 1.83557e-08
-4.31399e-07 1.83557e-08 -5.10008e-05
0.00115308 1.39369e-05 4.94848e-07
1.39369e-05 0.000147878 2.98021e-07
4.94848e-07 2.98021e-07 8.91885e-05
0.000919635 5.90879e-06 9.5805e-07
5.90879e-06 2.42674e-05 1.02333e-06
9.5805e-07 1.02333e-06 -2.18075e-05
0.000917028 -1.62339e-07 6.05254e-07
-1.62339e-07 1.03834e-05 1.72995e-06
6.05254e-07 1.72995e-06 -1.53226e-05
0.000907025 -5.67819e-06 1.18388e-07
-5.67819e-06 7.54393e-06 1.58018e-08
1.18388e-07 1.58018e-08 -1.96782e-05
0.00139223 -1.75776e-05 1.71957e-06
-1.75776e-05 0.00025367 2.00533e-06
1.71957e-06 2.00533e-06 0.000256061
0.000903066 -5.70714e-06 -1.00882e-06
-5.70714e-06 8.00205e-06 -1.83501e-06
-1.00882e-06 -1.83501e-06 -2.11533e-05
0.00141986 -2.00778e-05 -3.0799e-06
-2.00778e-05 0.000272186 -1.21741e-06
-3.0799e-06 -1.21741e-06 0.000272917
0.00109444 -1.78082e-05 1.51386e-05
-1.78082e-05 0.000104354 6.40421e-06
1.51386e-05 6.40421e-06 0.000119471
0.00141178 -2.22397e-05 -8.06663e-06
-2.22397e-05 0.000273092 -3.27169e-06
-8.06663e-06 -3.27169e-06 0.000271975
0.0016562 -2.53715e-05 1.32663e-05
-2.53715e-05 0.000401902 2.25314e-06
1.32663e-05 2.25314e-06 0.000418305
0.0023092 -3.43849e-05 -1.98556e-05
-3.43849e-05 0.000745209 -3.84638e-06
-1.98556e-05 -3.84638e-06 0.000763232
0.000797409 2.35261e-05 2.2647e-06
2.35261e-05 -4.04057e-05 -3.23225e-06
2.2647e-06 -3.23225e-06 -4.64988e-05
0.000804252 2.6143e-05 -1.46391e-07
2.6143e-05 -3.17307e-05 4.13692e-08
-1.46391e-07 4.13692e-08 -4.04157e-05
0.00234918 3.9587e-05 2.11835e-05
3.9587e-05 0.000771778 -3.66126e-06
2.11835e-05 -3.66126e-06 0.000788259
0.0024542 4.3912e-05 -5.23224e-07
4.3912e-05 0.00083297 -7.1362e-08
-5.23224e-07 -7.1362e-08 0.000847213
0.000804829 3.03538e-05 -3.15476e-06
3.03538e-05 -2.48148e-05 3.71403e-06
-3.15476e-06 3.71403e-06 -3.72448e-05
0.00258559 4.85326e-05 -2.85812e-05
4.85326e-05 0.000907062 3.7544e-06
-2.85812e-05 3.7544e-06 0.000918884
0.00133438 4.97184e-05 -2.60088e-06
4.97184e-05 6.18168e-05 -5.33145e-07
-2.60088e-06 -5.33145e-07 -2.33891e-05
0.00143396 1.91024e-05 -2.82498e-06
1.91024e-05 6.35742e-05 -5.44643e-07
-2.82498e-06 -5.44643e-07 -2.27538e-05
0.00150189 4.03668e-05 -8.70215e-07
4.03668e-05 8.10845e-05 5.01423e-08
-8.70215e-07 5.01423e-08 -6.49242e-06
0.00155019 1.30325e-06 -1.17474e-06
1.30325e-06 6.54881e-05 -5.00476e-07
-1.17474e-06 -5.00476e-07 -2.56467e-05
0.00152351 1.35384e-05 -3.00574e-06
1.35384e-05 6.62197e-05 -1.04154e-06
-3.00574e-06 -1.04154e-06 -2.62554e-05
0.00127939 7.59995e-06 -6.30127e-06
7.59995e-06 4.65707e-06 -1.72297e-07
-6.30127e-06 -1.72297e-07 -7.60586e-05
0.00152912 1.21845e-05 5.82227e-08
1.21845e-05 6.05127e-05 -5.88904e-07
5.82227e-08 -5.88904e-07 -3.31122e-05
0.00154843 -2.20787e-06 1.41576e-07
-2.20787e-06 4.83889e-05 3.55234e-07
1.41576e-07 3.55234e-07 -4.73167e-05
0.00153207 2.08088e-05 4.4781e-08
2.08088e-05 7.32744e-05 1.39122e-09
4.4781e-08 1.39122e-09 -1.4926e-05
0.00168678 -4.81685e-06 2.45446e-08
-4.81685e-06 0.000116459 -2.8401e-07
2.45446e-08 -2.8401e-07 2.75831e-05
0.00141967 4.98475e-05 -4.55106e-08
4.98475e-05 6.83947e-05 -1.56247e-08
-4.55106e-08 -1.56247e-08 -1.98823e-05
0.00153839 3.05077e-05 -1.3576e-07
3.05077e-05 7.15125e-05 8.02112e-07
-1.3576e-07 8.02112e-07 -9.10417e-06
0.00158609 1.72555e-06 2.00613e-06
1.72555e-06 5.87099e-05 -4.45269e-07
2.00613e-06 -4.45269e-07 -3.92407e-05
0.00166631 5.18733e-06 5.15089e-07
5.18733e-06 9.48791e-05 6.02669e-07
5.15089e-07 6.02669e-07 -7.69436e-07
0.00146155 1.23017e-05 2.6185e-08
1.23017e-05 1.00253e-05 1.32731e-06
2.6185e-08 1.32731e-06 -7.41398e-05
0.00179445 -1.03486e-05 6.15831e-07
-1.03486e-05 0.000162144 7.51753e-08
6.15831e-07 7.51753e-08 7.38628e-05
0.00137604 4.43115e-05 -1.23694e-06
4.43115e-05 1.99316e-05 -1.12653e-06
-1.23694e-06 -1.12653e-06 -6.43626e-05
0.00179946 2.3957e-05 -2.14236e-07
2.3957e-05 0.000178257 -1.19445e-07
-2.14236e-07 -1.19445e-07 0.000102943
0.00151158 1.17171e-05 -4.31944e-06
1.17171e-05 6.35753e-05 1.27625e-06
-4.31944e-06 1.27625e-06 -2.79467e-05
0.00157445 -2.27085e-05 -4.08615e-06
-2.27085e-05 0.000127228 4.42177e-07
-4.08615e-06 4.42177e-07 4.31829e-05
0.00149558 9.54228e-06 -2.27809e-06
9.54228e-06 3.96522e-05 4.36725e-07
-2.27809e-06 4.36725e-07 -5.26261e-05
0.00170712 -3.3273e-05 -1.72531e-06
-3.3273e-05 0.000166298 -5.95222e-08
-1.72531e-06 -5.95222e-08 7.88684e-05
0.000887561 -1.16354e-05 -2.79046e-06
-1.16354e-05 2.42111e-05 1.29668e-06
-2.79046e-06 1.29668e-06 -3.35713e-05
0.0010755 -5.99968e-05 -1.37513e-06
-5.99968e-05 0.000105195 3.9989e-07
-1.37513e-06 3.9989e-07 3.18139e-05
0.000978229 -7.03397e-05 -4.11565e-07
-7.03397e-05 4.389e-05 4.97118e-07
-4.11565e-07 4.97118e-07 -4.24785e-05
0.00156589 -7.04665e-05 -8.07517e-07
-7.04665e-05 0.000176982 4.16641e-07
-8.07517e-07 4.16641e-07 9.23421e-05
0.00141851 -5.22404e-05 3.3743e-07
-5.22404e-05 2.28151e-05 9.41512e-07
3.3743e-07 9.41512e-07 -5.7656e-05
0.00132103 -7.10734e-05 8.6559e-07
-7.10734e-05 6.29792e-05 7.02243e-07
8.6559e-07 7.02243e-07 -1.92922e-05
0.00101643 -7.70613e-05 -1.13928e-06
-7.70613e-05 -1.90123e-06 3.94423e-07
-1.13928e-06 3.94423e-07 -9.89859e-05
0.00134051 -7.94756e-05 1.67043e-06
-7.94756e-05 9.63506e-05 -2.35456e-06
1.67043e-06 -2.35456e-06 1.60282e-05
0.00102017 -3.61478e-05 -1.49813e-06
-3.61478e-05 7.60776e-05 2.46292e-08
-1.49813e-06 2.46292e-08 5.67439e-06
0.00100838 -6.01054e-05 -1.24938e-06
-6.01054e-05 7.50451e-05 -3.20767e-07
-1.24938e-06 -3.20767e-07 -5.4202e-06
0.000857385 2.03546e-05 -1.25666e-06
2.03546e-05 -7.66032e-06 2.02937e-06
-1.25666e-06 2.02937e-06 -4.48113e-05
0.000879412 -1.27735e-06 -4.88489e-07
-1.27735e-06 3.08258e-06 6.47984e-07
-4.88489e-07 6.47984e-07 -6.17848e-05
0.00162025 1.1679e-05 -1.24434e-07
1.1679e-05 8.95785e-05 1.88535e-07
-1.24434e-07 1.88535e-07 -5.76467e-06
0.00170401 -1.06523e-05 -3.86078e-07
-1.06523e-05 0.000151428 1.02238e-07
-3.86078e-07 1.02238e-07 6.29138e-05
0.00162027 1.14407e-05 -7.60798e-07
1.14407e-05 8.75907e-05 4.20851e-07
-7.60798e-07 4.20851e-07 -5.40077e-06
0.00157258 -2.91058e-05 -1.88907e-07
-2.91058e-05 7.23946e-05 -3.87468e-07
-1.88907e-07 -3.87468e-07 -1.30354e-05
0.00101349 -4.9538e-05 -1.13588e-08
-4.9538e-05 7.55885e-05 -2.71364e-10
-1.13588e-08 -2.71364e-10 4.38385e-06
0.000855276 -6.36079e-05 3.66477e-07
-6.36079e-05 -3.24369e-06 -2.41553e-07
3.66477e-07 -2.41553e-07 -8.46654e-05
0.00109986 -7.91809e-05 6.34116e-08
-7.91809e-05 9.12021e-05 -1.90727e-07
6.34116e-08 -1.90727e-07 -6.57392e-06
0.0014206 -6.77196e-05 -6.72609e-07
-6.77196e-05 7.47931e-05 -2.75764e-07
-6.72609e-07 -2.75764e-07 -7.02933e-06
0.00154428 -5.22079e-05 2.2216e-07
-5.22079e-05 6.9075e-05 9.08188e-07
2.2216e-07 9.08188e-07 -3.98036e-06
0.00128726 -8.8219e-05 -1.13634e-07
-8.8219e-05 0.000116767 5.65757e-07
-1.13634e-07 5.65757e-07 1.58914e-05
0.00131963 -7.19495e-05 -1.60488e-09
-7.19495e-05 4.8996e-05 6.85376e-07
-1.60488e-09 6.85376e-07 -2.52307e-05
0.00147358 -8.38346e-05 7.88924e-07
-8.38346e-05 0.000149211 -1.80093e-06
7.88924e-07 -1.80093e-06 7.06005e-05
0.0010465 -6.66062e-05 8.96146e-08
-6.66062e-05 9.17363e-05 -1.91442e-08
8.96146e-08 -1.91442e-08 1.2992e-05
0.00107563 -6.86716e-05 1.28572e-08
-6.86716e-05 0.000108973 1.31836e-07
1.28572e-08 1.31836e-07 2.62266e-05
0.00102062 -4.80311e-05 -3.09153e-07
-4.80311e-05 8.59645e-05 1.09657e-07
-3.09153e-07 1.09657e-07 6.88242e-06
0.000749647 2.18045e-05 -2.36527e-07
2.18045e-05 -6.64953e-05 2.50342e-08
-2.36527e-07 2.50342e-08 -0.000100981
0.000827043 6.87787e-06 1.37543e-07
6.87787e-06 -2.64793e-05 -4.279e-07
1.37543e-07 -4.279e-07 -8.55035e-05
0.00167232 1.68016e-05 1.08395e-06
1.68016e-05 9.75683e-05 -3.05695e-07
1.08395e-06 -3.05695e-07 4.10716e-07
0.00162378 5.00838e-06 1.71242e-06
5.00838e-06 7.8545e-05 1.0737e-07
1.71242e-06 1.0737e-07 -1.33779e-05
0.00160764 -3.27901e-05 1.41304e-06
-3.27901e-05 6.70537e-05 -2.16446e-06
1.41304e-06 -2.16446e-06 -1.38563e-05
0.00134373 -6.0112e-05 1.79487e-07
-6.0112e-05 -1.3747e-06 -1.31107e-06
1.79487e-07 -1.31107e-06 -7.23899e-05
0.000997858 -6.63424e-05 2.37988e-07
-6.63424e-05 6.9592e-05 7.3413e-07
2.37988e-07 7.3413e-07 -8.7726e-06
0.00173773 -8.28687e-05 -4.176e-07
-8.28687e-05 0.000230629 1.11546e-06
-4.176e-07 1.11546e-06 0.000164138
0.000565509 -5.67722e-05 1.0035e-07
-5.67722e-05 -0.000145033 -1.63791e-06
1.0035e-07 -1.63791e-06 -0.000233943
0.00116688 -8.63196e-05 2.66031e-06
-8.63196e-05 0.000109364 -1.59533e-06
2.66031e-06 -1.59533e-06 -7.39124e-07
0.00144534 -9.48056e-05 2.06126e-06
-9.48056e-05 0.000170044 2.04209e-06
2.06126e-06 2.04209e-06 6.62004e-05
0.000663759 1.61481e-05 1.01618e-06
1.61481e-05 -0.000113215 -2.26571e-06
1.01618e-06 -2.26571e-06 -0.00014606
0.00102525 -9.29896e-07 1.0759e-06
-9.29896e-07 7.61364e-05 -1.00823e-06
1.0759e-06 -1.00823e-06 2.24896e-05
0.00102003 -3.03255e-05 4.26703e-07
-3.03255e-05 8.16782e-05 -5.0564e-07
4.26703e-07 -5.0564e-07 1.05015e-05
0.00103977 -6.76376e-05 4.18225e-08
-6.76376e-05 8.72985e-05 1.25847e-06
4.18225e-08 1.25847e-06 7.12993e-06
0.00111623 -6.28048e-05 6.35362e-07
-6.28048e-05 0.000137147 1.10524e-06
6.35362e-07 1.10524e-06 5.0113e-05
0.00100253 -6.6719e-05 1.02074e-07
-6.6719e-05 6.67812e-05 1.09829e-06
1.02074e-07 1.09829e-06 -1.70674e-05
0.00079432 -2.1969e-05 -2.44468e-06
-2.1969e-05 -4.17774e-05 -3.53013e-06
-2.44468e-06 -3.53013e-06 -4.82646e-05
0.000879209 -1.78876e-05 -1.41196e-06
-1.78876e-05 3.7411e-06 -2.19865e-06
-1.41196e-06 -2.19865e-06 -3.41789e-05
0.00135287 6.23411e-05 -6.04266e-07
6.23411e-05 6.76477e-05 4.40176e-07
-6.04266e-07 4.40176e-07 -2.18666e-05
0.00095503 4.16947e-06 -7.04812e-07
4.16947e-06 4.5158e-05 -1.40776e-06
-7.04812e-07 -1.40776e-06 -1.87035e-05
0.000955231 2.85002e-05 -1.34953e-06
2.85002e-05 4.72081e-05 -4.83638e-07
-1.34953e-06 -4.83638e-07 -2.35561e-05
0.000933639 4.86975e-05 -5.72475e-07
4.86975e-05 4.05676e-05 -1.97998e-07
-5.72475e-07 -1.97998e-07 -3.9736e-05
0.0011624 7.6483e-05 -9.2662e-07
7.6483e-05 6.80186e-05 -1.10351e-06
-9.2662e-07 -1.10351e-06 -1.76591e-05
0.0012545 7.80926e-05 5.83191e-08
7.80926e-05 4.79073e-05 -1.20901e-07
5.83191e-08 -1.20901e-07 -4.43624e-05
0.000994377 6.65816e-05 -4.76835e-07
6.65816e-05 8.10615e-05 -2.71193e-07
-4.76835e-07 -2.71193e-07 -6.48075e-06
0.00116846 7.9009e-05 -1.73073e-06
7.9009e-05 0.000141658 6.19325e-08
-1.73073e-06 6.19325e-08 4.4342e-05
0.00133018 8.26983e-05 -2.18894e-06
8.26983e-05 0.000175656 -7.15762e-07
-2.18894e-06 -7.15762e-07 9.067e-05
0.000880156 -1.50168e-05 9.25765e-08
-1.50168e-05 1.15237e-06 3.53044e-08
9.25765e-08 3.53044e-08 -3.29941e-05
0.000944869 -7.75876e-07 9.98663e-09
-7.75876e-07 3.61325e-05 5.83919e-08
9.98663e-09 5.83919e-08 -2.17709e-05
0.00104381 6.41563e-05 -2.56294e-07
6.41563e-05 9.71931e-05 -1.98073e-07
-2.56294e-07 -1.98073e-07 1.45926e-05
0.00100571 3.57622e-05 9.10552e-08
3.57622e-05 7.69647e-05 -5.40038e-08
9.10552e-08 -5.40038e-08 6.71424e-07
0.000977224 5.52085e-05 -1.95219e-07
5.52085e-05 6.84121e-05 -2.17403e-07
-1.95219e-07 -2.17403e-07 -1.83033e-05
0.00137129 6.3101e-05 -5.19388e-07
6.3101e-05 5.91323e-05 3.37416e-08
-5.19388e-07 3.37416e-08 -3.08625e-05
0.00121396 8.23823e-05 6.59889e-07
8.23823e-05 7.67964e-05 -4.88053e-08
6.59889e-07 -4.88053e-08 -1.20916e-05
0.00121143 8.23533e-05 3.25623e-07
8.23533e-05 2.31793e-05 5.31406e-07
3.25623e-07 5.31406e-07 -6.41561e-05
0.000872504 6.69196e-05 4.35202e-07
6.69196e-05 2.21485e-05 9.25259e-07
4.35202e-07 9.25259e-07 -7.68655e-05
0.00120415 8.47121e-05 -1.45955e-07
8.47121e-05 0.000125213 -4.16785e-07
-1.45955e-07 -4.16785e-07 2.23809e-05
0.000931183 -6.90309e-07 6.25275e-07
-6.90309e-07 2.77713e-05 1.32404e-06
6.25275e-07 1.32404e-06 -2.51227e-05
0.000901914 2.21512e-05 6.97209e-07
2.21512e-05 1.85538e-05 1.22768e-06
6.97209e-07 1.22768e-06 -5.33986e-05
0.00113172 7.36972e-05 1.00184e-07
7.36972e-05 0.000148532 -1.75149e-07
1.00184e-07 -1.75149e-07 5.67007e-05
0.000936364 4.91957e-05 3.26698e-07
4.91957e-05 4.64807e-05 -5.80279e-08
3.26698e-07 -5.80279e-08 -3.98561e-05
0.000999422 5.93517e-05 -2.2049e-08
5.93517e-05 7.57138e-05 -7.57277e-07
-2.2049e-08 -7.57277e-07 -1.49024e-05
0.00141164 6.29069e-05 -1.24377e-06
6.29069e-05 3.85467e-05 -6.35839e-07
-1.24377e-06 -6.35839e-07 -3.33104e-05
0.0014681 9.69116e-05 1.4439e-06
9.69116e-05 0.000201266 -5.68293e-07
1.4439e-06 -5.68293e-07 0.000102336
0.000561375 7.05747e-05 8.98833e-07
7.05747e-05 -0.000324089 -1.05853e-06
8.98833e-07 -1.05853e-06 -0.000408685
0.00148553 8.98438e-05 2.9536e-06
8.98438e-05 0.00031744 2.92106e-06
2.9536e-06 2.92106e-06 0.000210994
0.000281714 5.96375e-05 7.42762e-07
5.96375e-05 -0.00033846 5.59544e-08
7.42762e-07 5.59544e-08 -0.000453048
0.000891066 -9.01966e-06 -1.19998e-06
-9.01966e-06 3.97174e-06 -1.88624e-06
-1.19998e-06 -1.88624e-06 -2.72626e-05
0.000852115 -1.04498e-06 2.90804e-07
-1.04498e-06 -1.31898e-05 5.89207e-07
2.90804e-07 5.89207e-07 -6.3271e-05
0.000868335 4.97308e-06 4.44087e-07
4.97308e-06 -1.95576e-06 1.20379e-06
4.44087e-07 1.20379e-06 -6.48592e-05
0.000801579 -9.35203e-06 -4.8976e-07
-9.35203e-06 -3.92985e-05 -9.97007e-07
-4.8976e-07 -9.97007e-07 -8.72054e-05
0.000934288 8.18984e-06 1.77267e-07
8.18984e-06 3.14399e-05 -2.02459e-08
1.77267e-07 -2.02459e-08 -1.4401e-05
0.00100898 -1.61094e-06 2.43367e-08
-1.61094e-06 7.17544e-05 -4.76686e-07
2.43367e-08 -4.76686e-07 1.29171e-05
0.00110822 1.31983e-05 2.71619e-07
1.31983e-05 0.000127186 2.3671e-07
2.71619e-07 2.3671e-07 5.9184e-05
0.000858558 -1.50741e-05 5.14456e-08
-1.50741e-05 -3.80324e-06 1.00889e-06
5.14456e-08 1.00889e-06 -6.27778e-05
0.00093325 -1.9892e-05 3.44962e-08
-1.9892e-05 2.99365e-05 9.34202e-07
3.44962e-08 9.34202e-07 -1.44423e-05
0.000918453 4.63554e-06 6.59746e-07
4.63554e-06 1.00966e-05 1.64107e-06
6.59746e-07 1.64107e-06 -1.4925e-05
0.000912258 -4.83305e-06 -1.33242e-07
-4.83305e-06 8.15835e-06 3.14736e-08
-1.33242e-07 3.14736e-08 -1.75787e-05
0.00138108 -1.33497e-05 1.29589e-06
-1.33497e-05 0.000243863 1.93329e-06
1.29589e-06 1.93329e-06 0.000247736
0.000909324 -5.9369e-06 -5.18183e-07
-5.9369e-06 9.09809e-06 -1.81491e-06
-5.18183e-07 -1.81491e-06 -1.81962e-05
0.00140631 -1.6518e-05 -2.50849e-06
-1.6518e-05 0.000260765 -1.18893e-06
-2.50849e-06 -1.18893e-06 0.000263325
0.00108416 -1.48934e-05 1.21813e-05
-1.48934e-05 9.42749e-05 6.25341e-06
1.21813e-05 6.25341e-06 0.000110919
0.00143484 -1.91754e-05 -7.1136e-06
-1.91754e-05 0.000279544 -4.46487e-06
-7.1136e-06 -4.46487e-06 0.000280472
0.00103583 -1.88894e-05 4.9722e-06
-1.88894e-05 7.42615e-05 2.43209e-06
4.9722e-06 2.43209e-06 8.93243e-05
0.00220268 -3.31482e-05 -5.82601e-06
-3.31482e-05 0.000685479 -1.62266e-06
-5.82601e-06 -1.62266e-06 0.000704726
0.000806616 2.11523e-05 1.83375e-06
2.11523e-05 -4.05977e-05 -3.20736e-06
1.83375e-06 -3.20736e-06 -4.46833e-05
0.000813599 2.36858e-05 -1.10206e-07
2.36858e-05 -3.23428e-05 2.95399e-08
-1.10206e-07 2.95399e-08 -3.85169e-05
0.00229252 3.50718e-05 1.87472e-05
3.50718e-05 0.000736316 -3.70614e-06
1.87472e-05 -3.70614e-06 0.000754469
0.000819977 2.65531e-05 -2.94836e-06
2.65531e-05 -2.38026e-05 3.42439e-06
-2.94836e-06 3.42439e-06 -3.26415e-05
0.00235592 3.93362e-05 -6.91926e-07
3.93362e-05 0.000776004 -6.37635e-08
-6.91926e-07 -6.37635e-08 0.000792277
0.00246714 4.35701e-05 -2.60004e-05
4.35701e-05 0.00084023 3.80106e-06
-2.60004e-05 3.80106e-06 0.000854228
0.00142614 5.08238e-05 -1.26228e-06
5.08238e-05 7.14473e-05 6.21396e-08
-1.26228e-06 6.21396e-08 -1.70471e-05
0.00156104 1.90239e-05 -8.27104e-07
1.90239e-05 8.79101e-05 -2.01124e-07
-8.27104e-07 -2.01124e-07 -1.82073e-07
0.0015484 3.07333e-05 1.60502e-06
3.07333e-05 7.44197e-05 6.14115e-07
1.60502e-06 6.14115e-07 -5.97305e-06
0.00165737 -5.73473e-06 -6.94984e-07
-5.73473e-06 0.00010045 -7.41398e-07
-6.94984e-07 -7.41398e-07 1.17551e-05
0.0015641 -6.86368e-06 -1.11614e-06
-6.86368e-06 5.41657e-05 -7.02076e-07
-1.11614e-06 -7.02076e-07 -4.23387e-05
0.00154001 1.56636e-05 -3.0966e-06
1.56636e-05 6.58706e-05 -3.79099e-07
-3.0966e-06 -3.79099e-07 -2.77833e-05
0.00161479 5.44214e-06 1.98866e-07
5.44214e-06 7.20737e-05 -3.9464e-07
1.98866e-07 -3.9464e-07 -2.62128e-05
0.00166362 1.04287e-06 1.18535e-07
1.04287e-06 9.54762e-05 -3.63603e-07
1.18535e-07 -3.63603e-07 3.43333e-08
0.00150779 1.07167e-05 -6.99404e-08
1.07167e-05 3.14089e-05 2.61654e-07
-6.99404e-08 2.61654e-07 -5.33013e-05
0.00168831 -1.02815e-05 -7.4963e-08
-1.02815e-05 0.000107768 -5.58235e-07
-7.4963e-08 -5.58235e-07 1.95889e-05
0.00143485 4.57715e-05 -3.38926e-07
4.57715e-05 5.0507e-05 -8.39177e-08
-3.38926e-07 -8.39177e-08 -3.40524e-05
0.00162528 2.37165e-05 1.50635e-06
2.37165e-05 9.29243e-05 -5.22532e-07
1.50635e-06 -5.22532e-07 1.98437e-05
0.00167202 1.29118e-05 7.08931e-07
1.29118e-05 8.58992e-05 1.74904e-07
7.08931e-07 1.74904e-07 -1.39866e-05
0.00167348 -5.88943e-06 4.28756e-07
-5.88943e-06 9.61366e-05 5.35371e-07
4.28756e-07 5.35371e-07 3.33193e-06
0.00162187 3.03561e-06 3.96393e-07
3.03561e-06 7.02976e-05 1.05979e-06
3.96393e-07 1.05979e-06 -1.11826e-05
0.00165435 4.06452e-05 -1.01219e-06
4.06452e-05 0.000119476 -7.10452e-07
-1.01219e-06 -7.10452e-07 4.75747e-05
0.00161622 1.21288e-05 -1.68231e-06
1.21288e-05 8.7686e-05 9.84297e-07
-1.68231e-06 9.84297e-07 -7.66588e-06
0.00172717 -9.96007e-06 -2.8018e-06
-9.96007e-06 0.000162931 2.03136e-07
-2.8018e-06 2.03136e-07 7.46997e-05
0.00155579 1.10005e-05 -2.40745e-06
1.10005e-05 5.66552e-05 4.53866e-07
-2.40745e-06 4.53866e-07 -3.60758e-05
0.00160683 -2.93431e-05 -7.95034e-07
-2.93431e-05 8.94161e-05 3.11992e-07
-7.95034e-07 3.11992e-07 4.12337e-06
0.00105225 -4.85489e-05 -1.35736e-06
-4.85489e-05 9.40524e-05 -1.04357e-07
-1.35736e-06 -1.04357e-07 2.28965e-05
0.00093482 -6.55704e-05 1.9613e-07
-6.55704e-05 3.68324e-05 -5.80002e-08
1.9613e-07 -5.80002e-08 -4.36813e-05
0.001108 -7.91455e-05 -9.20449e-07
-7.91455e-05 9.67654e-05 1.63605e-06
-9.20449e-07 1.63605e-06 -1.25573e-06
0.00154463 -6.9535e-05 -7.13542e-08
-6.9535e-05 0.000137827 2.35498e-07
-7.13542e-08 2.35498e-07 5.51479e-05
0.00140106 -5.14295e-05 6.15733e-08
-5.14295e-05 4.873e-06 2.25529e-06
6.15733e-08 2.25529e-06 -6.55847e-05
0.00133027 -7.14862e-05 1.85104e-06
-7.14862e-05 5.55538e-05 7.28098e-07
1.85104e-06 7.28098e-07 -1.85669e-05
0.00128716 -8.75636e-05 -1.51572e-06
-8.75636e-05 0.000118394 -3.5017e-07
-1.51572e-06 -3.5017e-07 1.66568e-05
0.00119787 -7.6679e-05 -9.36735e-07
-7.6679e-05 1.02963e-05 -5.78473e-06
-9.36735e-07 -5.78473e-06 -6.57524e-05
0.00107986 -6.77402e-05 -5.86823e-07
-6.77402e-05 0.000108049 -7.19432e-07
-5.86823e-07 -7.19432e-07 2.93136e-05
0.00105177 -6.77086e-05 -8.66903e-07
-6.77086e-05 9.5785e-05 -1.33204e-06
-8.66903e-07 -1.33204e-06 1.31515e-05
0.00102685 -4.11777e-05 -6.28649e-07
-4.11777e-05 8.88323e-05 5.36153e-07
-6.28649e-07 5.36153e-07 9.99875e-06
0.000623722 2.24996e-05 -8.94931e-07
2.24996e-05 -0.000131188 1.83977e-06
-8.94931e-07 1.83977e-06 -0.00016663
0.000874895 1.36778e-05 -1.50982e-07
1.36778e-05 -3.76661e-06 6.83891e-07
-1.50982e-07 6.83891e-07 -6.16128e-05
0.00161576 1.57405e-05 -2.20566e-07
1.57405e-05 7.15235e-05 2.24051e-07
-2.20566e-07 2.24051e-07 -2.49623e-05
0.00167112 4.01439e-06 -2.14937e-07
4.01439e-06 0.000103767 2.67672e-08
-2.14937e-07 2.67672e-08 1.19344e-05
0.00167399 -3.34875e-05 -1.10204e-06
-3.34875e-05 0.000104228 1.61671e-07
-1.10204e-06 1.61671e-07 2.40324e-05
0.00105229 -6.77571e-05 3.29522e-08
-6.77571e-05 9.55802e-05 1.34197e-07
3.29522e-08 1.34197e-07 1.71776e-05
0.000863845 -6.64425e-05 7.30149e-07
-6.64425e-05 2.61957e-06 -6.11007e-07
7.30149e-07 -6.11007e-07 -8.54294e-05
0.00113986 -8.50132e-05 -1.48279e-07
-8.50132e-05 9.88075e-05 -3.20439e-07
-1.48279e-07 -3.20439e-07 -1.17894e-05
0.00142468 -6.08838e-05 4.37978e-07
-6.08838e-05 3.75571e-05 -5.00329e-07
4.37978e-07 -5.00329e-07 -3.47005e-05
0.00139188 -9.11483e-05 -2.05356e-07
-9.11483e-05 0.000144973 -3.34782e-07
-2.05356e-07 -3.34782e-07 4.41747e-05
0.0014133 -7.86232e-05 -6.37953e-07
-7.86232e-05 7.14719e-05 -8.04958e-07
-6.37953e-07 -8.04958e-07 4.4742e-06
0.000654692 1.99381e-05 1.20989e-08
1.99381e-05 -0.000117956 -5.91462e-07
1.20989e-08 -5.91462e-07 -0.000150525
0.00105928 -6.82684e-05 2.82353e-08
-6.82684e-05 9.71565e-05 9.05021e-08
2.82353e-08 9.05021e-08 1.68374e-05
0.000995301 -6.62397e-05 -7.14314e-07
-6.62397e-05 6.3499e-05 -2.65165e-08
-7.14314e-07 -2.65165e-08 -1.95091e-05
0.00110624 -6.31936e-05 -3.94277e-07
-6.31936e-05 0.000132806 6.29442e-07
-3.94277e-07 6.29442e-07 4.50881e-05
0.0010757 -3.36826e-05 -2.40769e-08
-3.36826e-05 0.000110378 1.07663e-08
-2.40769e-08 1.07663e-08 3.91173e-05
0.000922426 3.75747e-06 -2.27385e-08
3.75747e-06 2.18766e-05 1.61426e-07
-2.27385e-08 1.61426e-07 -3.17779e-05
0.00177263 1.91007e-05 1.30996e-06
1.91007e-05 0.000143833 -1.40027e-07
1.30996e-06 -1.40027e-07 4.76652e-05
0.00167316 4.04312e-06 1.44475e-06
4.04312e-06 8.26165e-05 -1.7175e-07
1.44475e-06 -1.7175e-07 -8.91136e-06
0.00143248 -3.97555e-05 2.06688e-06
-3.97555e-05 -2.02169e-05 -3.09088e-06
2.06688e-06 -3.09088e-06 -9.57348e-05
0.00163923 -7.24927e-05 5.35204e-07
-7.24927e-05 9.9538e-05 -1.10337e-06
5.35204e-07 -1.10337e-06 4.26016e-05
0.00102133 -6.85394e-05 -9.40316e-08
-6.85394e-05 8.12445e-05 6.27383e-07
-9.40316e-08 6.27383e-07 -5.68958e-07
0.00148104 -9.14673e-05 2.79127e-06
-9.14673e-05 0.000129403 3.12755e-06
2.79127e-06 3.12755e-06 4.02402e-05
0.000823233 -6.91473e-05 -4.08938e-07
-6.91473e-05 -2.01681e-05 -2.41329e-06
-4.08938e-07 -2.41329e-06 -0.000122611
0.00139557 -9.62574e-05 1.72388e-06
-9.62574e-05 0.000212373 7.10651e-08
1.72388e-06 7.10651e-08 9.21923e-05
0.000665379 1.57029e-05 7.76796e-07
1.57029e-05 -0.000114336 -2.29839e-06
7.76796e-07 -2.29839e-06 -0.000144797
0.00104609 -3.88773e-07 9.30831e-07
-3.88773e-07 8.61594e-05 -9.05814e-07
9.30831e-07 -9.05814e-07 3.7025e-05
0.00112945 -2.79723e-05 1.32949e-07
-2.79723e-05 0.000135114 3.59811e-07
1.32949e-07 3.59811e-07 6.88762e-05
0.00103062 -4.49338e-05 5.28187e-07
-4.49338e-05 9.34482e-05 -8.2226e-07
5.28187e-07 -8.2226e-07 8.7203e-06
0.0010504 -6.87706e-05 4.29974e-08
-6.87706e-05 9.00612e-05 9.88454e-07
4.29974e-08 9.88454e-07 7.36331e-06
0.0010216 -6.80951e-05 3.34274e-07
-6.80951e-05 8.14038e-05 1.82889e-06
3.34274e-07 1.82889e-06 -7.31916e-06
0.000882441 -1.44976e-05 -1.29352e-06
-1.44976e-05 2.22123e-06 -2.03357e-06
-1.29352e-06 -2.03357e-06 -3.18343e-05
0.000947627 -1.55038e-06 -6.33918e-07
-1.55038e-06 3.75877e-05 -1.43005e-06
-6.33918e-07 -1.43005e-06 -2.03083e-05
0.00139093 6.53564e-05 1.86611e-08
6.53564e-05 7.02083e-05 6.71031e-07
1.86611e-08 6.71031e-07 -2.03564e-05
0.000999064 3.46281e-05 -6.33032e-07
3.46281e-05 7.33765e-05 -6.6318e-07
-6.33032e-07 -6.6318e-07 -2.8352e-06
0.00103508 6.41091e-05 -5.57003e-07
6.41091e-05 9.41559e-05 -9.38788e-08
-5.57003e-07 -9.38788e-08 1.19286e-05
0.000923353 5.40535e-05 -7.4205e-07
5.40535e-05 4.19051e-05 1.43809e-08
-7.4205e-07 1.43809e-08 -4.53533e-05
0.00123054 8.26158e-05 -1.10086e-06
8.26158e-05 8.38505e-05 -1.1643e-06
-1.10086e-06 -1.1643e-06 -5.16588e-06
0.00131655 8.38258e-05 3.66011e-07
8.38258e-05 7.18851e-05 8.06457e-07
3.66011e-07 8.06457e-07 -1.44005e-05
0.000745236 6.27821e-05 -4.18328e-07
6.27821e-05 -4.15423e-05 -1.79761e-07
-4.18328e-07 -1.79761e-07 -0.000140983
0.00123003 8.57028e-05 -1.90711e-06
8.57028e-05 0.000139154 -1.82104e-07
-1.90711e-06 -1.82104e-07 3.44227e-05
0.000937731 -2.00141e-06 -1.35746e-08
-2.00141e-06 3.0905e-05 6.83456e-08
-1.35746e-08 6.83456e-08 -2.19761e-05
0.00094448 2.65756e-05 2.987e-07
2.65756e-05 4.11243e-05 4.49125e-07
2.987e-07 4.49125e-07 -3.09808e-05
0.00112409 7.33489e-05 -1.3344e-07
7.33489e-05 0.000146226 -6.3026e-07
-1.3344e-07 -6.3026e-07 5.51231e-05
0.000984884 4.67403e-05 -1.6021e-07
4.67403e-05 7.15643e-05 -5.21196e-08
-1.6021e-07 -5.21196e-08 -1.42358e-05
0.000980334 5.88287e-05 -9.34684e-07
5.88287e-05 6.93198e-05 -4.74641e-07
-9.34684e-07 -4.74641e-07 -2.11245e-05
0.00164404 6.54807e-05 -1.1349e-06
6.54807e-05 0.000150196 -3.8405e-07
-1.1349e-06 -3.8405e-07 7.80871e-05
0.00147749 9.68971e-05 9.80102e-07
9.68971e-05 0.00020151 4.27594e-08
9.80102e-07 4.27594e-08 0.000103582
0.000929612 7.92846e-05 -5.7573e-07
7.92846e-05 -0.000132131 8.51368e-07
-5.7573e-07 8.51368e-07 -0.000214205
0.00123021 8.14859e-05 1.11436e-06
8.14859e-05 0.000191169 1.18258e-06
1.11436e-06 1.18258e-06 8.41878e-05
0.0007447 7.48196e-05 -1.32907e-06
7.48196e-05 -0.000107521 -4.66645e-07
-1.32907e-06 -4.66645e-07 -0.000225155
0.000909299 1.69164e-05 7.21613e-07
1.69164e-05 1.91806e-05 1.28108e-06
7.21613e-07 1.28108e-06 -4.72913e-05
0.000901596 4.56477e-05 5.34648e-07
4.56477e-05 2.54441e-05 2.48148e-07
5.34648e-07 2.48148e-07 -5.90471e-05
0.00112585 7.43068e-05 5.36305e-07
7.43068e-05 0.000146947 2.84891e-07
5.36305e-07 2.84891e-07 4.79013e-05
0.000764695 5.38321e-05 7.27139e-07
5.38321e-05 -3.88531e-05 -1.25683e-09
7.27139e-07 -1.25683e-09 -0.000133514
0.00227399 5.11142e-05 -7.76913e-08
5.11142e-05 0.000376379 7.36494e-07
-7.76913e-08 7.36494e-07 0.00031038
0.00111644 7.67257e-05 2.42253e-06
7.67257e-05 -0.000134937 -1.14422e-06
2.42253e-06 -1.14422e-06 -0.000198404
0.00128381 9.73704e-05 1.93526e-06
9.73704e-05 0.000100045 -1.52867e-06
1.93526e-06 -1.52867e-06 -1.1271e-05
0.000663514 6.70821e-05 1.05462e-06
6.70821e-05 -9.89343e-05 1.90237e-06
1.05462e-06 1.90237e-06 -0.000225559
0.000926581 8.03266e-06 -2.18122e-07
8.03266e-06 2.62467e-05 -6.47335e-07
-2.18122e-07 -6.47335e-07 -2.40036e-05
0.000948705 1.40549e-05 1.02252e-07
1.40549e-05 4.01992e-05 4.36041e-07
1.02252e-07 4.36041e-07 -2.27341e-05
0.00102764 1.95503e-05 3.5088e-07
1.95503e-05 8.37325e-05 6.46846e-07
3.5088e-07 6.46846e-07 1.16963e-05
0.000941366 5.59293e-06 -5.6169e-07
5.59293e-06 3.45134e-05 -9.90947e-07
-5.6169e-07 -9.90947e-07 -1.0981e-05
0.000865311 -5.50319e-06 -7.68836e-08
-5.50319e-06 -3.0309e-06 -1.25807e-06
-7.68836e-08 -1.25807e-06 -6.27908e-05
0.000936386 -6.69102e-06 3.53274e-07
-6.69102e-06 3.12878e-05 1.36859e-08
3.53274e-07 1.36859e-08 -1.2948e-05
0.0010327 2.02176e-05 -7.02771e-08
2.02176e-05 8.89055e-05 -3.97825e-07
-7.02771e-08 -3.97825e-07 1.90517e-05
0.000897351 -3.10019e-06 1.77154e-07
-3.10019e-06 1.73479e-05 3.83548e-07
1.77154e-07 3.83548e-07 -4.18367e-05
0.00107827 1.97304e-05 3.31057e-07
1.97304e-05 0.000113418 3.08873e-07
3.31057e-07 3.08873e-07 3.72004e-05
0.000866035 -1.53753e-05 -1.62698e-07
-1.53753e-05 3.60383e-06 9.47899e-07
-1.62698e-07 9.47899e-07 -6.48589e-05
0.000849811 2.56763e-05 3.4708e-07
2.56763e-05 -5.0572e-06 1.03252e-06
3.4708e-07 1.03252e-06 -6.44429e-05
0.000952709 -1.62539e-05 -3.08049e-07
-1.62539e-05 3.80601e-05 9.07231e-07
-3.08049e-07 9.07231e-07 -5.19821e-06
0.000906225 7.04932e-06 5.15112e-07
7.04932e-06 3.95751e-06 1.58361e-06
5.15112e-07 1.58361e-06 -2.09305e-05
0.000909457 -2.96315e-06 -2.5579e-07
-2.96315e-06 5.46262e-06 2.95688e-08
-2.5579e-07 2.95688e-08 -1.95217e-05
0.00137573 -8.79445e-06 1.02386e-06
-8.79445e-06 0.000238446 1.85019e-06
1.02386e-06 1.85019e-06 0.000242968
0.000905032 -1.03765e-05 -1.09276e-07
-1.03765e-05 4.61656e-06 -1.7191e-06
-1.09276e-07 -1.7191e-06 -2.11315e-05
0.00139822 -1.24615e-05 -1.95765e-06
-1.24615e-05 0.000252798 -1.17181e-06
-1.95765e-06 -1.17181e-06 0.000256684
0.00107636 -1.16533e-05 9.28442e-06
-1.16533e-05 8.62813e-05 6.1369e-06
9.28442e-06 6.1369e-06 0.000103989
0.00142151 -1.58123e-05 -5.278e-06
-1.58123e-05 0.000268445 -4.34462e-06
-5.278e-06 -4.34462e-06 0.000271128
0.00102949 -1.56996e-05 3.6316e-06
-1.56996e-05 6.60053e-05 2.38926e-06
3.6316e-06 2.38926e-06 8.2675e-05
0.000976204 -1.92884e-05 -2.37872e-06
-1.92884e-05 4.36517e-05 -1.61381e-06
-2.37872e-06 -1.61381e-06 5.87538e-05
0.000815976 1.84353e-05 1.43935e-06
1.84353e-05 -4.0681e-05 -3.18367e-06
1.43935e-06 -3.18367e-06 -4.27566e-05
0.000822578 2.1228e-05 -1.31738e-07
2.1228e-05 -3.26352e-05 1.83816e-08
-1.31738e-07 1.83816e-08 -3.67782e-05
0.00224125 3.03837e-05 1.61759e-05
3.03837e-05 0.00070406 -3.74382e-06
1.61759e-05 -3.74382e-06 0.000723743
0.000831153 2.38722e-05 -2.52138e-06
2.38722e-05 -2.36103e-05 3.25685e-06
-2.52138e-06 3.25685e-06 -2.98654e-05
0.00229351 3.49376e-05 -7.67717e-07
3.49376e-05 0.000737564 -5.75796e-08
-7.67717e-07 -5.75796e-08 0.000755554
0.00236456 3.90409e-05 -2.31697e-05
3.90409e-05 0.000781179 3.77019e-06
-2.31697e-05 3.77019e-06 0.000797246
0.00149073 4.72958e-05 1.017e-06
4.72958e-05 7.96487e-05 1.09924e-06
1.017e-06 1.09924e-06 -5.18216e-06
0.00155532 9.03797e-06 -3.06694e-07
9.03797e-06 5.3382e-05 -3.64659e-07
-3.06694e-07 -3.64659e-07 -3.18647e-05
0.00145336 2.34543e-05 2.49081e-06
2.34543e-05 8.66916e-06 -1.66087e-06
2.49081e-06 -1.66087e-06 -6.21738e-05
0.00157287 -1.0073e-05 -7.01794e-07
-1.0073e-05 4.85922e-05 -9.96164e-07
-7.01794e-07 -9.96164e-07 -3.94549e-05
0.00167047 -1.78465e-06 -2.6678e-07
-1.78465e-06 0.000100655 -1.37439e-06
-2.6678e-07 -1.37439e-06 5.38908e-06
0.00163097 4.39064e-06 -1.41218e-06
4.39064e-06 7.93872e-05 -3.75316e-07
-1.41218e-06 -3.75316e-07 -1.92358e-05
0.00168896 1.49225e-05 1.16062e-08
1.49225e-05 9.81033e-05 -2.84486e-08
1.16062e-08 -2.84486e-08 -8.61899e-07
0.00164135 -1.0014e-05 3.58127e-08
-1.0014e-05 8.09104e-05 -3.50643e-07
3.58127e-08 -3.50643e-07 -1.19622e-05
0.00161798 3.45116e-06 6.54441e-07
3.45116e-06 6.95922e-05 -8.87699e-08
6.54441e-07 -8.87699e-08 -1.15696e-05
0.0015244 3.70614e-05 -5.00352e-08
3.70614e-05 5.12675e-05 -5.71657e-07
-5.00352e-08 -5.71657e-07 -2.03579e-05
0.00170192 8.62634e-06 1.93935e-07
8.62634e-06 0.000105774 6.29584e-07
1.93935e-07 6.29584e-07 8.75224e-06
0.00179493 -1.67013e-05 6.4805e-07
-1.67013e-05 0.000147144 5.76256e-07
6.4805e-07 5.76256e-07 6.10473e-05
0.00162779 1.97527e-05 5.01798e-07
1.97527e-05 6.63235e-05 1.79609e-06
5.01798e-07 1.79609e-06 -9.40859e-06
0.00158562 1.49373e-05 -1.73526e-06
1.49373e-05 5.83119e-05 7.79645e-07
-1.73526e-06 7.79645e-07 -3.74655e-05
0.00170937 3.02263e-06 -1.70054e-06
3.02263e-06 0.000124548 5.06893e-07
-1.70054e-06 5.06893e-07 3.28016e-05
0.00173165 -3.42327e-05 -1.38032e-06
-3.42327e-05 0.000137081 1.59795e-06
-1.38032e-06 1.59795e-06 5.76087e-05
0.00109943 -6.88156e-05 -4.53692e-07
-6.88156e-05 0.000117894 -2.90424e-07
-4.53692e-07 -2.90424e-07 3.9488e-05
0.00116974 -7.63944e-05 8.07663e-08
-7.63944e-05 0.000153867 3.49687e-07
8.07663e-08 3.49687e-07 6.66802e-05
0.0011045 -8.34143e-05 -1.53133e-06
-8.34143e-05 8.44119e-05 2.23839e-06
-1.53133e-06 2.23839e-06 -2.66974e-05
0.00149513 -6.15255e-05 -2.53142e-07
-6.15255e-05 7.1391e-05 8.58085e-07
-2.53142e-07 8.58085e-07 -2.10673e-06
0.0011001 -7.4434e-05 -1.89243e-06
-7.4434e-05 -8.26203e-05 -1.37924e-06
-1.89243e-06 -1.37924e-06 -0.000150082
0.00134476 -8.79311e-05 -2.61361e-06
-8.79311e-05 0.000123133 -3.03374e-06
-2.61361e-06 -3.03374e-06 2.53646e-05
0.00107754 -6.88536e-05 -2.82923e-07
-6.88536e-05 0.000106321 -9.04249e-07
-2.82923e-07 -9.04249e-07 2.58634e-05
0.000974993 -6.52673e-05 -1.78527e-06
-6.52673e-05 5.39609e-05 -1.26056e-06
-1.78527e-06 -1.26056e-06 -2.82098e-05
0.00109095 -6.09431e-05 -4.70548e-07
-6.09431e-05 0.00012505 -9.54572e-08
-4.70548e-07 -9.54572e-08 3.70758e-05
0.000641314 2.16816e-05 -8.16766e-07
2.16816e-05 -0.000124756 1.04967e-06
-8.16766e-07 1.04967e-06 -0.000157089
0.0011198 -3.17192e-05 -3.76571e-07
-3.17192e-05 0.000132206 6.38357e-07
-3.76571e-07 6.38357e-07 6.1553e-05
0.000808654 1.12022e-05 6.62184e-08
1.12022e-05 -3.75619e-05 1.34333e-06
6.62184e-08 1.34333e-06 -9.1423e-05
0.0016882 1.86938e-05 1.94754e-08
1.86938e-05 0.000101286 -2.1724e-07
1.94754e-08 -2.1724e-07 4.70035e-06
0.00167397 2.22765e-06 6.13149e-07
2.22765e-06 8.21958e-05 -4.80654e-08
6.13149e-07 -4.80654e-08 -9.35853e-06
0.00151031 -4.01592e-05 -1.0131e-07
-4.01592e-05 1.55904e-05 -3.95962e-07
-1.0131e-07 -3.95962e-07 -6.12651e-05
0.0010666 -7.00467e-05 3.31469e-08
-7.00467e-05 0.000102706 4.07593e-07
3.31469e-08 4.07593e-07 2.06634e-05
0.000867775 -7.0255e-05 -8.30038e-08
-7.0255e-05 4.74168e-06 1.48437e-07
-8.30038e-08 1.48437e-07 -9.56775e-05
0.00146803 -9.81975e-05 -1.45227e-06
-9.81975e-05 0.00024823 1.52197e-06
-1.45227e-06 1.52197e-06 0.000128211
0.00165796 -7.45765e-05 -4.48057e-07
-7.45765e-05 0.000114569 6.76145e-07
-4.48057e-07 6.76145e-07 5.73016e-05
0.00134992 -8.80728e-05 5.48041e-07
-8.80728e-05 6.00985e-05 -8.21178e-07
5.48041e-07 -8.21178e-07 -2.83305e-05
0.00077758 1.59049e-05 1.15429e-07
1.59049e-05 -5.67452e-05 -5.72688e-07
1.15429e-07 -5.72688e-07 -8.62437e-05
0.00102935 1.09787e-05 -3.15748e-07
1.09787e-05 7.77052e-05 9.98642e-08
-3.15748e-07 9.98642e-08 2.87793e-05
0.000944956 -6.53045e-05 -6.78028e-07
-6.53045e-05 3.82585e-05 1.84489e-07
-6.78028e-07 1.84489e-07 -4.44301e-05
0.00105086 -6.88749e-05 5.98912e-07
-6.88749e-05 9.56111e-05 2.27718e-07
5.98912e-07 2.27718e-07 7.55338e-06
0.00101042 -4.06502e-05 -1.00538e-07
-4.06502e-05 8.26166e-05 -2.56117e-07
-1.00538e-07 -2.56117e-07 -1.4398e-06
0.00106409 -2.95832e-05 -5.66222e-07
-2.95832e-05 0.000102089 9.5017e-07
-5.66222e-07 9.5017e-07 3.4989e-05
0.00168705 2.35685e-05 7.61238e-08
2.35685e-05 9.49997e-05 5.50689e-07
7.61238e-08 5.50689e-07 1.21708e-07
0.00168517 -6.50611e-06 1.41234e-06
-6.50611e-06 7.5213e-05 7.99641e-09
1.41234e-06 7.99641e-09 -1.32981e-05
0.0016033 -5.47958e-05 1.65968e-06
-5.47958e-05 2.73996e-05 -4.05409e-06
1.65968e-06 -4.05409e-06 -2.8461e-05
0.00227103 -0.00010114 1.71214e-06
-0.00010114 0.000415994 -1.49357e-07
1.71214e-06 -1.49357e-07 0.000355516
0.000865374 -6.50455e-05 -7.9101e-07
-6.50455e-05 1.18489e-05 3.6967e-07
-7.9101e-07 3.6967e-07 -7.63999e-05
0.00135352 -9.81629e-05 1.44332e-06
-9.81629e-05 0.000159802 3.14204e-06
1.44332e-06 3.14204e-06 2.8603e-05
0.00143743 -9.27206e-05 8.42847e-07
-9.27206e-05 0.000279794 -3.19816e-06
8.42847e-07 -3.19816e-06 0.000166889
0.000901011 1.27475e-05 6.1859e-07
1.27475e-05 4.02638e-06 -1.68525e-06
6.1859e-07 -1.68525e-06 -2.25643e-05
0.000929641 -3.05446e-05 8.34248e-07
-3.05446e-05 2.94654e-05 -9.81512e-07
8.34248e-07 -9.81512e-07 -1.41868e-05
0.000787374 1.27441e-05 2.19976e-07
1.27441e-05 -4.51913e-05 -1.60676e-06
2.19976e-07 -1.60676e-06 -9.3813e-05
0.00102774 -2.52496e-05 5.06705e-07
-2.52496e-05 8.32679e-05 -2.08089e-07
5.06705e-07 -2.08089e-07 1.98815e-05
0.000972383 -1.68595e-05 -4.50002e-08
-1.68595e-05 5.97699e-05 -5.78103e-07
-4.50002e-08 -5.78103e-07 -1.71946e-05
0.000992935 -6.83302e-05 1.91068e-06
-6.83302e-05 8.15252e-05 1.26061e-06
1.91068e-06 1.26061e-06 -1.40215e-05
0.000817354 -6.21652e-05 -3.93651e-07
-6.21652e-05 -3.55547e-05 1.27317e-06
-3.93651e-07 1.27317e-06 -0.000116968
0.00167251 -9.25907e-05 -1.16975e-08
-9.25907e-05 0.00042127 1.8676e-06
-1.16975e-08 1.8676e-06 0.000328457
0.000946375 -3.76392e-06 -4.5098e-07
-3.76392e-06 3.51081e-05 -1.33228e-06
-4.5098e-07 -1.33228e-06 -1.77516e-05
0.000986143 3.10145e-05 -3.83038e-07
3.10145e-05 6.31625e-05 -3.98018e-07
-3.83038e-07 -3.98018e-07 -9.06301e-06
0.00186947 6.79602e-05 3.84098e-07
6.79602e-05 0.000258371 4.70474e-07
3.84098e-07 4.70474e-07 0.000186022
0.00103817 4.79516e-05 -6.54785e-07
4.79516e-05 9.9513e-05 -1.90666e-07
-6.54785e-07 -1.90666e-07 1.38148e-05
0.00112072 7.3165e-05 -7.40108e-07
7.3165e-05 0.000145866 -1.33919e-06
-7.40108e-07 -1.33919e-06 5.55054e-05
0.000941354 5.8321e-05 -1.26233e-06
5.8321e-05 5.30999e-05 8.00244e-09
-1.26233e-06 8.00244e-09 -3.72058e-05
0.00148147 9.66856e-05 -5.75455e-07
9.66856e-05 0.000198864 1.5345e-07
-5.75455e-07 1.5345e-07 0.000101979
0.00133083 8.88616e-05 1.41148e-07
8.88616e-05 7.58065e-05 3.41046e-06
1.41148e-07 3.41046e-06 -3.73935e-06
0.000963115 7.26449e-05 -3.49449e-08
7.26449e-05 5.90964e-05 -6.46359e-08
-3.49449e-08 -6.46359e-08 -4.83982e-05
0.00115542 8.82846e-05 -3.8718e-06
8.82846e-05 9.70489e-05 -8.05497e-07
-3.8718e-06 -8.05497e-07 -2.3498e-05
0.00089415 2.15e-05 3.01749e-07
2.15e-05 1.24533e-05 4.60598e-07
3.01749e-07 4.60598e-07 -5.51172e-05
0.000948481 5.08112e-05 -2.7081e-07
5.08112e-05 5.0341e-05 -5.92315e-07
-2.7081e-07 -5.92315e-07 -3.4161e-05
0.00111143 7.37602e-05 -3.02118e-07
7.37602e-05 0.00014085 -8.53822e-07
-3.02118e-07 -8.53822e-07 4.25415e-05
0.000971112 5.99182e-05 -1.46149e-07
5.99182e-05 6.48117e-05 -2.60395e-07
-1.46149e-07 -2.60395e-07 -2.9537e-05
0.00198438 4.59111e-05 -7.41941e-07
4.59111e-05 0.000229443 -1.15355e-07
-7.41941e-07 -1.15355e-07 0.000162964
0.00126006 7.86283e-05 8.69683e-07
7.86283e-05 -5.29577e-05 -4.38963e-07
8.69683e-07 -4.38963e-07 -0.000118472
0.00156364 0.000105019 -1.08093e-06
0.000105019 0.000236171 -5.21927e-08
-1.08093e-06 -5.21927e-08 0.000126908
0.000803647 7.33266e-05 5.80251e-07
7.33266e-05 -3.62604e-05 5.92976e-07
5.80251e-07 5.92976e-07 -0.000162033
0.00103007 3.29349e-05 2.79998e-07
3.29349e-05 8.73112e-05 2.07829e-07
2.79998e-07 2.07829e-07 1.06259e-05
0.0016653 1.48189e-05 1.06104e-06
1.48189e-05 5.82113e-05 2.61575e-06
1.06104e-06 2.61575e-06 -1.76543e-05
0.00114744 6.79557e-05 4.91484e-07
6.79557e-05 0.000157861 8.95929e-07
4.91484e-07 8.95929e-07 6.37036e-05
0.00109669 7.4103e-05 5.99406e-07
7.4103e-05 0.000128069 9.72373e-07
5.99406e-07 9.72373e-07 2.13433e-05
0.00213312 7.88122e-05 3.35773e-06
7.88122e-05 0.000246689 4.27823e-07
3.35773e-06 4.27823e-07 0.000193356
0.00133162 0.000100669 4.77479e-06
0.000100669 2.63896e-05 -1.95487e-06
4.77479e-06 -1.95487e-06 -7.40083e-05
0.00164464 0.000105803 1.10314e-06
0.000105803 0.000356207 1.91378e-06
1.10314e-06 1.91378e-06 0.000220902
0.00102568 1.88442e-05 -7.4593e-07
1.88442e-05 8.00419e-05 -3.73763e-07
-7.4593e-07 -3.73763e-07 1.74743e-05
0.00102919 1.90875e-05 3.33086e-09
1.90875e-05 8.47338e-05 -1.5394e-08
3.33086e-09 -1.5394e-08 1.27168e-05
0.00104158 2.6072e-05 4.17756e-07
2.6072e-05 9.49882e-05 4.43934e-07
4.17756e-07 4.43934e-07 1.46865e-05
0.000939928 3.63272e-06 3.68614e-08
3.63272e-06 3.36381e-05 -8.98681e-07
3.68614e-08 -8.98681e-07 -1.09428e-05
0.000943713 5.78191e-06 1.20055e-07
5.78191e-06 4.19583e-05 -2.24473e-07
1.20055e-07 -2.24473e-07 -1.71911e-05
0.000950921 1.80333e-05 -3.53058e-07
1.80333e-05 4.64487e-05 -1.19796e-06
-3.53058e-07 -1.19796e-06 -2.45818e-05
0.000940613 -2.09646e-05 7.25262e-08
-2.09646e-05 3.26495e-05 2.46238e-08
7.25262e-08 2.46238e-08 -1.11422e-05
0.000847377 -2.76076e-06 -2.99469e-07
-2.76076e-06 -7.59036e-06 4.17221e-07
-2.99469e-07 4.17221e-07 -6.62241e-05
0.0010334 1.49984e-05 9.39307e-08
1.49984e-05 8.96436e-05 -4.38253e-07
9.39307e-08 -4.38253e-07 1.26012e-05
0.000982955 8.75061e-06 8.11709e-08
8.75061e-06 6.55732e-05 4.5187e-07
8.11709e-08 4.5187e-07 -3.07615e-06
0.00107839 3.27966e-05 1.84956e-07
3.27966e-05 0.00011244 -9.31587e-08
1.84956e-07 -9.31587e-08 3.01709e-05
0.000929953 -4.88952e-06 6.83426e-08
-4.88952e-06 3.64085e-05 6.71598e-07
6.83426e-08 6.71598e-07 -3.94991e-05
0.00102929 1.44763e-05 3.00368e-08
1.44763e-05 8.82131e-05 6.20715e-08
3.00368e-08 6.20715e-08 2.19297e-05
0.000951382 1.3497e-05 5.09122e-07
1.3497e-05 4.76714e-05 6.58386e-07
5.09122e-07 6.58386e-07 -9.68104e-06
0.000956275 -6.55195e-06 -2.26435e-07
-6.55195e-06 3.80929e-05 8.22743e-07
-2.26435e-07 8.22743e-07 -4.44255e-06
0.000897614 1.00363e-05 3.139e-07
1.00363e-05 8.42393e-08 1.54974e-06
3.139e-07 1.54974e-06 -2.48485e-05
0.000902324 -5.94005e-07 -1.99513e-07
-5.94005e-07 1.85791e-06 2.135e-08
-1.99513e-07 2.135e-08 -2.29855e-05
0.00137775 -4.35777e-06 6.9262e-07
-4.35777e-06 0.000238165 1.80245e-06
6.9262e-07 1.80245e-06 0.000242727
0.000902157 -1.03673e-05 -2.58587e-08
-1.03673e-05 1.68438e-06 -1.60236e-06
-2.58587e-08 -1.60236e-06 -2.32604e-05
0.0013982 -8.06392e-06 -1.40608e-06
-8.06392e-06 0.00025032 -1.174e-06
-1.40608e-06 -1.174e-06 0.000254713
0.00107702 -8.14159e-06 6.67349e-06
-8.14159e-06 8.3873e-05 6.13678e-06
6.67349e-06 6.13678e-06 0.000101977
0.00141663 -1.18891e-05 -3.77209e-06
-1.18891e-05 0.000262375 -4.21e-06
-3.77209e-06 -4.21e-06 0.000266243
0.0010297 -1.21645e-05 2.45365e-06
-1.21645e-05 6.18632e-05 2.35408e-06
2.45365e-06 2.35408e-06 7.97036e-05
0.000974294 -1.58127e-05 -1.76673e-06
-1.58127e-05 3.74465e-05 -1.55184e-06
-1.76673e-06 -1.55184e-06 5.42266e-05
0.000901987 9.79171e-06 3.85328e-07
9.79171e-06 2.11151e-06 -1.65358e-06
3.85328e-07 -1.65358e-06 -2.24453e-05
0.000826649 1.52535e-05 1.11073e-06
1.52535e-05 -3.99166e-05 -3.11778e-06
1.11073e-06 -3.11778e-06 -4.00754e-05
0.000832777 1.85695e-05 -1.12781e-07
1.85695e-05 -3.21251e-05 2.61981e-08
-1.12781e-07 2.61981e-08 -3.42944e-05
0.00219145 2.54576e-05 1.36161e-05
2.54576e-05 0.000673069 -3.76194e-06
1.36161e-05 -3.76194e-06 0.000694211
0.000838883 2.13214e-05 -2.13067e-06
2.13214e-05 -2.44593e-05 3.17445e-06
-2.13067e-06 3.17445e-06 -2.86678e-05
0.00224691 3.03758e-05 -9.08329e-07
3.03758e-05 0.000707703 -5.14445e-08
-9.08329e-07 -5.14445e-08 0.000727204
0.002295 3.47077e-05 -2.03944e-05
3.47077e-05 0.000739077 3.77842e-06
-2.03944e-05 3.77842e-06 0.000756912
0.00139892 3.35089e-05 7.01392e-07
3.35089e-05 -1.46324e-05 -3.81051e-07
7.01392e-07 -3.81051e-07 -8.59991e-05
0.00160746 3.83096e-06 -1.1585e-07
3.83096e-06 6.55476e-05 -1.12486e-06
-1.1585e-07 -1.12486e-06 -1.52824e-05
0.00162385 -1.02337e-05 -3.61968e-07
-1.02337e-05 7.26944e-05 -1.27676e-06
-3.61968e-07 -1.27676e-06 -2.01554e-05
0.00168359 1.70291e-05 -6.68777e-07
1.70291e-05 9.93973e-05 -4.27904e-07
-6.68777e-07 -4.27904e-07 1.38218e-06
0.00168872 9.21756e-06 4.39077e-08
9.21756e-06 9.95034e-05 2.82262e-07
4.39077e-08 2.82262e-07 2.59039e-06
0.00174654 -1.56353e-05 -7.46901e-08
-1.56353e-05 0.000122566 -2.0261e-07
-7.46901e-08 -2.0261e-07 3.6019e-05
0.00158943 1.99821e-05 -1.31641e-07
1.99821e-05 4.95273e-05 4.16626e-07
-1.31641e-07 4.16626e-07 -2.54911e-05
0.0017019 1.67897e-06 7.25907e-07
1.67897e-06 0.000106218 6.18962e-07
7.25907e-07 6.18962e-07 1.46115e-05
0.0018501 -7.89736e-06 8.24792e-07
-7.89736e-06 0.000166264 1.06537e-06
8.24792e-07 1.06537e-06 8.363e-05
0.00117169 -7.87564e-06 1.58357e-06
-7.87564e-06 -0.000193309 1.29224e-06
1.58357e-06 1.29224e-06 -0.000276169
0.00162731 1.8554e-05 -6.13422e-07
1.8554e-05 7.02073e-05 1.56479e-07
-6.13422e-07 1.56479e-07 -2.67713e-05
0.00170524 3.114e-07 -1.31697e-06
3.114e-07 9.712e-05 3.87469e-07
-1.31697e-06 3.87469e-07 5.49968e-06
0.00160507 -4.07963e-05 -2.00791e-06
-4.07963e-05 5.94535e-05 1.002e-06
-2.00791e-06 1.002e-06 -1.87207e-05
0.00110661 -7.13766e-05 -2.42367e-07
-7.13766e-05 0.00012166 3.33419e-07
-2.42367e-07 3.33419e-07 3.93854e-05
0.000903638 -7.11227e-05 2.94239e-07
-7.11227e-05 2.48941e-05 2.27374e-06
2.94239e-07 2.27374e-06 -7.34416e-05
0.00144986 -9.71248e-05 -2.12519e-06
-9.71248e-05 0.000236854 3.36658e-06
-2.12519e-06 3.36658e-06 0.000117393
0.00165282 -7.62819e-05 2.57326e-06
-7.62819e-05 0.000118291 2.08402e-06
2.57326e-06 2.08402e-06 6.06865e-05
0.00122699 -8.47757e-05 -3.43308e-06
-8.47757e-05 -5.12269e-06 -3.14764e-06
-3.43308e-06 -3.14764e-06 -9.28369e-05
0.000833672 -6.16663e-05 -1.01446e-06
-6.16663e-05 -1.66348e-05 -5.01251e-07
-1.01446e-06 -5.01251e-07 -9.92806e-05
0.00108271 -6.97574e-05 1.90629e-07
-6.97574e-05 0.000111115 -1.94455e-06
1.90629e-07 -1.94455e-06 2.37158e-05
0.00100211 -2.4229e-05 -1.8482e-08
-2.4229e-05 7.627e-05 -9.5991e-08
-1.8482e-08 -9.5991e-08 -6.09507e-06
0.000889705 1.57094e-05 -7.57822e-07
1.57094e-05 6.76101e-07 1.15032e-06
-7.57822e-07 1.15032e-06 -2.78343e-05
0.00101728 2.57597e-05 -3.39613e-07
2.57597e-05 7.18531e-05 1.06494e-06
-3.39613e-07 1.06494e-06 2.29517e-05
0.00100945 -2.3455e-05 -8.97028e-07
-2.3455e-05 7.40563e-05 1.61744e-06
-8.97028e-07 1.61744e-06 6.34979e-06
0.00170375 2.37061e-05 2.31844e-07
2.37061e-05 0.000104104 2.9821e-07
2.31844e-07 2.9821e-07 1.02315e-05
0.000901082 1.22393e-05 -1.62498e-08
1.22393e-05 3.77505e-06 1.17568e-08
-1.62498e-08 1.17568e-08 -2.27972e-05
0.000839875 -2.31485e-06 -4.83558e-07
-2.31485e-06 -1.76741e-05 3.83407e-08
-4.83558e-07 3.83407e-08 -6.09972e-05
0.001767 -7.13877e-06 5.85296e-08
-7.13877e-06 0.000113212 -3.61442e-07
5.85296e-08 -3.61442e-07 2.47915e-05
0.00141625 -5.46498e-05 -7.04223e-07
-5.46498e-05 -5.932e-05 -4.0928e-07
-7.04223e-07 -4.0928e-07 -0.000119364
0.000864062 -6.47062e-05 3.8144e-08
-6.47062e-05 1.22673e-05 1.0222e-06
3.8144e-08 1.0222e-06 -7.48376e-05
0.00135303 -9.03626e-05 -6.3589e-07
-9.03626e-05 0.000236974 4.11154e-07
-6.3589e-07 4.11154e-07 0.000120994
0.00123214 -9.25235e-05 8.83151e-07
-9.25235e-05 9.41992e-05 1.43597e-06
8.83151e-07 1.43597e-06 -3.14389e-05
0.00184085 -9.48387e-05 2.76209e-07
-9.48387e-05 0.000207339 -8.43708e-07
2.76209e-07 -8.43708e-07 0.000146975
0.000978783 -2.22858e-06 7.66255e-07
-2.22858e-06 5.40304e-05 -4.83213e-07
7.66255e-07 -4.83213e-07 6.66626e-06
0.00100728 -1.28573e-05 -4.95922e-07
-1.28573e-05 7.38107e-05 4.77702e-07
-4.95922e-07 4.77702e-07 9.90102e-06
0.000981285 -6.74135e-05 3.60289e-07
-6.74135e-05 4.51652e-05 4.92114e-07
3.60289e-07 4.92114e-07 -3.73241e-05
0.00125677 -7.85382e-05 -5.02051e-07
-7.85382e-05 0.000210171 -5.83072e-07
-5.02051e-07 -5.83072e-07 0.000121798
0.000912016 -5.17826e-05 2.09815e-07
-5.17826e-05 4.05928e-05 3.27055e-07
2.09815e-07 3.27055e-07 -5.51293e-05
0.000993873 -1.44699e-05 1.75761e-07
-1.44699e-05 6.98984e-05 -2.74964e-07
1.75761e-07 -2.74964e-07 -7.06725e-06
0.00162221 2.51012e-05 2.31911e-07
2.51012e-05 5.58537e-05 5.52856e-08
2.31911e-07 5.52856e-08 -2.88129e-05
0.00193618 -1.91456e-05 1.90179e-06
-1.91456e-05 0.000187521 6.06155e-07
1.90179e-06 6.06155e-07 0.000104926
0.0021023 -9.02207e-05 -1.25853e-06
-9.02207e-05 0.000220254 -4.51266e-06
-1.25853e-06 -4.51266e-06 0.000184925
0.00141593 -0.000103766 2.91776e-06
-0.000103766 8.11022e-05 2.64894e-06
2.91776e-06 2.64894e-06 -1.83791e-05
0.00111454 -7.26355e-05 -1.18597e-06
-7.26355e-05 0.0001326 -5.78782e-07
-1.18597e-06 -5.78782e-07 4.09053e-05
0.00166241 -0.000112323 3.08935e-07
-0.000112323 0.000378188 -2.33917e-06
3.08935e-07 -2.33917e-06 0.000233548
0.000756497 2.27424e-05 -6.28241e-07
2.27424e-05 -6.07224e-05 -1.31133e-06
-6.28241e-07 -1.31133e-06 -0.000102622
0.000918775 -1.31394e-05 7.99678e-07
-1.31394e-05 2.28382e-05 -1.10447e-06
7.99678e-07 -1.10447e-06 -2.18448e-05
0.00115301 -2.53364e-05 3.00609e-07
-2.53364e-05 0.000154619 -4.77061e-07
3.00609e-07 -4.77061e-07 9.83507e-05
0.000850769 1.63109e-05 -5.93419e-07
1.63109e-05 -2.61494e-06 -9.59702e-07
-5.93419e-07 -9.59702e-07 -6.69916e-05
0.00112235 -1.76683e-05 -5.45687e-08
-1.76683e-05 0.00013615 -2.58085e-07
-5.45687e-08 -2.58085e-07 6.341e-05
0.000815531 -2.28203e-05 6.76971e-09
-2.28203e-05 -1.04336e-05 1.51911e-07
6.76971e-09 1.51911e-07 -9.79273e-05
0.00118316 -5.64312e-05 3.13815e-06
-5.64312e-05 0.000189116 1.55266e-07
3.13815e-06 1.55266e-07 8.5778e-05
0.000939136 -7.27287e-05 -1.68711e-06
-7.27287e-05 4.87968e-05 1.41313e-06
-1.68711e-06 1.41313e-06 -3.83722e-05
0.000878141 2.68713e-05 -2.85529e-07
2.68713e-05 5.41025e-06 -4.23867e-07
-2.85529e-07 -4.23867e-07 -6.33078e-05
0.000992872 5.49436e-05 -1.32962e-06
5.49436e-05 7.39759e-05 -1.18674e-06
-1.32962e-06 -1.18674e-06 -1.04805e-05
0.00168669 4.05339e-05 -1.2191e-06
4.05339e-05 7.92937e-05 -1.59706e-06
-1.2191e-06 -1.59706e-06 1.22433e-05
0.00140411 8.04076e-05 -8.33158e-07
8.04076e-05 2.95711e-05 1.56405e-06
-8.33158e-07 1.56405e-06 -3.80327e-05
0.00118887 6.5392e-05 -1.20549e-06
6.5392e-05 0.000173911 -2.36551e-07
-1.20549e-06 -2.36551e-07 7.99786e-05
0.00110916 7.35544e-05 -1.31533e-06
7.35544e-05 0.000140835 -1.9008e-06
-1.31533e-06 -1.9008e-06 4.3244e-05
0.00188149 0.000113861 -2.03779e-06
0.000113861 0.000391915 7.49786e-07
-2.03779e-06 7.49786e-07 0.000284554
0.000976977 8.0565e-05 -9.53146e-07
8.0565e-05 4.34545e-05 -1.28396e-06
-9.53146e-07 -1.28396e-06 -8.18997e-05
0.00100914 3.87646e-05 -1.84585e-07
3.87646e-05 7.8323e-05 -4.59702e-07
-1.84585e-07 -4.59702e-07 9.42289e-07
0.00159653 1.31505e-05 6.02496e-07
1.31505e-05 2.18358e-05 4.69345e-07
6.02496e-07 4.69345e-07 -5.44117e-05
0.00104465 6.40949e-05 2.94392e-07
6.40949e-05 0.000106323 5.85378e-07
2.94392e-07 5.85378e-07 1.26679e-05
0.000940548 6.85019e-05 1.88073e-07
6.85019e-05 4.74654e-05 -2.33024e-07
1.88073e-07 -2.33024e-07 -6.05309e-05
0.00162955 6.95317e-05 8.46097e-07
6.95317e-05 3.92743e-06 -3.25068e-07
8.46097e-07 -3.25068e-07 -5.12973e-05
0.00170716 0.000112221 1.11707e-06
0.000112221 0.000206143 -4.12959e-07
1.11707e-06 -4.12959e-07 0.000106493
0.00159572 0.000104742 8.28327e-08
0.000104742 0.000335686 5.00274e-07
8.28327e-08 5.00274e-07 0.000201008
0.00106644 4.62047e-05 1.58842e-07
4.62047e-05 0.000113851 5.50885e-07
1.58842e-07 5.50885e-07 2.59716e-05
0.00215332 4.84999e-05 2.02828e-06
4.84999e-05 0.000214512 1.88517e-06
2.02828e-06 1.88517e-06 0.000153621
0.00141921 7.79068e-05 -3.31696e-07
7.79068e-05 0.000281094 -7.13466e-10
-3.31696e-07 -7.13466e-10 0.00018187
0.0016798 9.91922e-05 -1.36391e-06
9.91922e-05 0.000408292 1.64245e-06
-1.36391e-06 1.64245e-06 0.000285482
0.00151948 0.000113335 7.47335e-06
0.000113335 -5.59125e-05 -1.25684e-06
7.47335e-06 -1.25684e-06 -0.00012681
0.00101455 9.32438e-05 2.49269e-07
9.32438e-05 -1.0093e-05 2.26343e-06
2.49269e-07 2.26343e-06 -0.000146216
0.00128603 3.55322e-05 1.41804e-05
3.55322e-05 -4.65525e-05 -1.75596e-06
1.41804e-05 -1.75596e-06 -7.48185e-05
0.00103281 1.95521e-05 -3.78676e-07
1.95521e-05 8.67726e-05 -6.43584e-07
-3.78676e-07 -6.43584e-07 1.47337e-05
0.00102634 2.6827e-05 -2.60748e-08
2.6827e-05 8.79915e-05 -9.34945e-08
-2.60748e-08 -9.34945e-08 7.54427e-06
0.00111671 3.93178e-05 1.40423e-07
3.93178e-05 0.000130459 -6.24004e-08
1.40423e-07 -6.24004e-08 4.46375e-05
0.000929994 -1.75582e-05 3.82868e-07
-1.75582e-05 2.74506e-05 -8.27366e-07
3.82868e-07 -8.27366e-07 -1.6518e-05
0.000845305 -2.41401e-05 -4.22651e-08
-2.41401e-05 -8.76395e-06 -2.15107e-07
-4.22651e-08 -2.15107e-07 -6.74088e-05
0.0011004 3.27244e-05 -5.87275e-07
3.27244e-05 0.000128137 -1.18075e-07
-5.87275e-07 -1.18075e-07 5.91503e-05
0.000987341 1.18698e-05 -1.83291e-07
1.18698e-05 6.54285e-05 -1.05728e-06
-1.83291e-07 -1.05728e-06 -1.24875e-05
0.00094043 -1.74788e-05 -2.52464e-07
-1.74788e-05 3.16179e-05 2.89773e-08
-2.52464e-07 2.89773e-08 -1.20134e-05
0.000891762 -6.51031e-08 1.89714e-07
-6.51031e-08 1.50055e-05 6.0275e-08
1.89714e-07 6.0275e-08 -4.18674e-05
0.00102429 2.80279e-05 -1.28075e-07
2.80279e-05 8.46126e-05 -6.16771e-07
-1.28075e-07 -6.16771e-07 2.38902e-06
0.00102765 4.57429e-07 -2.42623e-07
4.57429e-07 8.71621e-05 -1.85464e-07
-2.42623e-07 -1.85464e-07 2.07851e-05
0.00100944 -1.175e-06 2.0995e-07
-1.175e-06 7.81335e-05 -1.62861e-08
2.0995e-07 -1.62861e-08 2.77794e-06
0.0010365 2.25009e-05 -2.15345e-07
2.25009e-05 8.69724e-05 4.38281e-07
-2.15345e-07 4.38281e-07 4.81511e-06
0.00104096 1.81482e-05 1.23703e-07
1.81482e-05 9.81169e-05 -9.5878e-08
1.23703e-07 -9.5878e-08 2.61316e-05
0.00107735 1.65018e-05 1.31582e-07
1.65018e-05 0.000110471 -1.9851e-07
1.31582e-07 -1.9851e-07 4.63791e-05
0.00081455 6.42539e-06 -4.5973e-07
6.42539e-06 -2.5533e-05 6.12415e-07
-4.5973e-07 6.12415e-07 -8.26902e-05
0.000798307 9.34792e-06 3.28991e-07
9.34792e-06 -4.35777e-05 1.18488e-06
3.28991e-07 1.18488e-06 -8.73842e-05
0.00110403 -4.2247e-07 2.43738e-07
-4.2247e-07 0.000125148 4.113e-08
2.43738e-07 4.113e-08 6.98045e-05
0.000793348 4.73049e-07 -4.42745e-07
4.73049e-07 -4.60982e-05 1.00513e-06
-4.42745e-07 1.00513e-06 -8.90807e-05
0.000899956 1.17799e-05 2.12275e-07
1.17799e-05 1.40073e-06 1.54847e-06
2.12275e-07 1.54847e-06 -2.35084e-05
0.000896286 1.60259e-06 -2.72453e-07
1.60259e-06 -6.49767e-07 9.69405e-09
-2.72453e-07 9.69405e-09 -2.55425e-05
0.0008484 3.6181e-07 1.65732e-07
3.6181e-07 -3.70624e-05 2.94087e-06
1.65732e-07 2.94087e-06 -3.54079e-05
0.000899101 -8.46837e-06 2.20491e-07
-8.46837e-06 1.26393e-07 -1.56508e-06
2.20491e-07 -1.56508e-06 -2.46784e-05
0.00112555 -3.55669e-06 -8.41685e-07
-3.55669e-06 0.000107309 -1.20414e-06
-8.41685e-07 -1.20414e-06 0.00011037
0.00213895 -5.5757e-06 3.92514e-06
-5.5757e-06 0.000633705 3.85127e-06
3.92514e-06 3.85127e-06 0.000657577
0.00141903 -7.62938e-06 -2.32828e-06
-7.62938e-06 0.000261346 -4.14368e-06
-2.32828e-06 -4.14368e-06 0.000265597
0.00103566 -8.37883e-06 1.30723e-06
-8.37883e-06 6.1929e-05 2.35291e-06
1.30723e-06 2.35291e-06 8.02592e-05
0.000981352 -1.20518e-05 -1.25265e-06
-1.20518e-05 3.66045e-05 -1.49454e-06
-1.25265e-06 -1.49454e-06 5.46381e-05
0.000910358 6.55029e-06 3.11234e-07
6.55029e-06 4.62915e-06 -1.61207e-06
3.11234e-07 -1.61207e-06 -1.8324e-05
0.00090499 9.37155e-06 -3.40796e-08
9.37155e-06 3.35678e-06 6.06505e-09
-3.40796e-08 6.06505e-09 -2.1183e-05
0.000835715 1.17874e-05 6.9786e-07
1.17874e-05 -3.92092e-05 -3.07115e-06
6.9786e-07 -3.07115e-06 -3.77445e-05
0.00111816 1.67415e-05 -4.50147e-07
1.67415e-05 0.000111343 3.11285e-08
-4.50147e-07 3.11285e-08 0.00011246
0.00215032 2.03807e-05 1.10796e-05
2.03807e-05 0.000647242 -3.79271e-06
1.10796e-05 -3.79271e-06 0.00066964
0.000849567 1.87073e-05 -1.67444e-06
1.87073e-05 -2.35618e-05 3.15893e-06
-1.67444e-06 3.15893e-06 -2.58246e-05
0.00219555 2.55662e-05 -9.83361e-07
2.55662e-05 0.000675879 -4.33971e-08
-9.83361e-07 -4.33971e-08 0.000696832
0.00224848 3.02846e-05 -1.77572e-05
3.02846e-05 0.000709217 3.79972e-06
-1.77572e-05 3.79972e-06 0.000728565
0.00152766 2.02201e-05 -8.89226e-07
2.02201e-05 2.11898e-05 -7.24318e-07
-8.89226e-07 -7.24318e-07 -5.3113e-05
0.00170842 -1.39615e-05 -3.57016e-07
-1.39615e-05 0.00010319 -8.63416e-07
-3.57016e-07 -8.63416e-07 1.61816e-05
0.00166228 5.66514e-06 -5.47079e-07
5.66514e-06 8.70348e-05 -2.29249e-07
-5.47079e-07 -2.29249e-07 -9.87922e-06
0.00169401 3.76736e-06 4.50294e-08
3.76736e-06 0.000101364 3.35698e-10
4.50294e-08 3.35698e-10 9.77935e-06
0.00169848 -7.72539e-06 -1.78449e-07
-7.72539e-06 9.57466e-05 2.55914e-07
-1.78449e-07 2.55914e-07 1.34087e-05
0.00150162 -1.23451e-05 5.85061e-07
-1.23451e-05 -2.49615e-05 -2.84493e-07
5.85061e-07 -2.84493e-07 -0.000108582
0.0016474 6.69142e-06 1.44502e-06
6.69142e-06 7.52738e-05 -1.42139e-07
1.44502e-06 -1.42139e-07 -7.1542e-06
0.00232698 -4.02243e-05 -1.46163e-06
-4.02243e-05 0.000329179 -5.7026e-06
-1.46163e-06 -5.7026e-06 0.000295286
0.00167036 -4.8482e-06 2.73457e-06
-4.8482e-06 2.71556e-06 1.74341e-06
2.73457e-06 1.74341e-06 -7.46272e-05
0.000939964 3.55431e-06 3.0714e-07
3.55431e-06 3.17084e-05 -8.12352e-07
3.0714e-07 -8.12352e-07 -7.38666e-06
0.00169549 2.3634e-05 -6.57452e-07
2.3634e-05 0.000100778 -3.10108e-07
-6.57452e-07 -3.10108e-07 7.9267e-06
0.00183706 -7.90459e-06 -1.89666e-06
-7.90459e-06 0.000145519 2.20262e-07
-1.89666e-06 2.20262e-07 5.7179e-05
0.0012852 -5.48571e-05 7.39855e-08
-5.48571e-05 -0.000118917 2.65255e-06
7.39855e-08 2.65255e-06 -0.000182491
0.00089212 -6.52907e-05 6.95563e-07
-6.52907e-05 2.77162e-05 7.39728e-07
6.95563e-07 7.39728e-07 -5.83478e-05
0.00135292 -9.07194e-05 -5.99396e-07
-9.07194e-05 0.000238421 3.70067e-06
-5.99396e-07 3.70067e-06 0.000118838
0.00099006 -8.35673e-05 -3.97903e-07
-8.35673e-05 -3.11003e-05 6.51566e-08
-3.97903e-07 6.51566e-08 -0.000152531
0.00146112 -8.92436e-05 -1.97308e-06
-8.92436e-05 2.38296e-05 -2.75528e-06
-1.97308e-06 -2.75528e-06 -3.66208e-05
0.00113979 -7.24285e-05 1.43159e-06
-7.24285e-05 0.000123274 -1.53032e-06
1.43159e-06 -1.53032e-06 3.97253e-05
0.000872484 -6.56009e-05 -3.57451e-06
-6.56009e-05 1.51637e-05 -4.61305e-06
-3.57451e-06 -4.61305e-06 -6.88964e-05
0.000823761 -4.8516e-05 1.32458e-07
-4.8516e-05 -2.35945e-06 3.96868e-07
1.32458e-07 3.96868e-07 -9.9311e-05
0.000903718 1.18795e-05 -7.39081e-07
1.18795e-05 4.91855e-06 1.72766e-06
-7.39081e-07 1.72766e-06 -2.16561e-05
0.00101333 -1.88805e-05 5.51317e-08
-1.88805e-05 7.93417e-05 -1.56791e-07
5.51317e-08 -1.56791e-07 2.10359e-06
0.00117519 -2.3757e-05 -3.92486e-07
-2.3757e-05 0.000156302 6.01903e-07
-3.92486e-07 6.01903e-07 0.000109862
0.000990778 3.80374e-07 -1.58305e-07
3.80374e-07 6.61267e-05 1.2896e-06
-1.58305e-07 1.2896e-06 1.79952e-06
0.000750146 9.73088e-06 1.494e-07
9.73088e-06 -6.5446e-05 9.55842e-07
1.494e-07 9.55842e-07 -0.00010805
0.00169924 2.40669e-05 -2.31354e-07
2.40669e-05 9.39385e-05 2.12487e-07
-2.31354e-07 2.12487e-07 9.57077e-06
0.000853135 6.19088e-06 2.75037e-07
6.19088e-06 -1.15571e-05 -4.59259e-07
2.75037e-07 -4.59259e-07 -5.28799e-05
0.0009257 -1.33269e-05 -3.28211e-07
-1.33269e-05 2.70456e-05 2.23715e-08
-3.28211e-07 2.23715e-08 -1.81439e-05
0.000974334 -9.72591e-06 -6.99927e-07
-9.72591e-06 6.24875e-05 4.73543e-07
-6.99927e-07 4.73543e-07 5.15489e-06
0.00184554 -1.88107e-05 1.12112e-06
-1.88107e-05 0.000132621 5.20554e-07
1.12112e-06 5.20554e-07 5.22569e-05
0.00174219 -8.67416e-05 -1.85988e-06
-8.67416e-05 5.66265e-05 -1.05493e-06
-1.85988e-06 -1.05493e-06 1.76288e-05
0.000982163 -6.88605e-05 -5.20557e-07
-6.88605e-05 6.01315e-05 6.38539e-07
-5.20557e-07 6.38539e-07 -2.96702e-05
0.00109488 -9.20016e-05 6.05939e-07
-9.20016e-05 0.000104894 -7.1527e-07
6.05939e-07 -7.1527e-07 -4.17926e-05
0.00136688 -0.000104288 1.43131e-07
-0.000104288 5.73104e-05 9.65478e-07
1.43131e-07 9.65478e-07 -4.14744e-05
0.000944043 9.54206e-06 -1.68473e-07
9.54206e-06 4.47683e-05 4.5859e-08
-1.68473e-07 4.5859e-08 -1.82737e-05
0.00106902 -2.41914e-05 -7.4825e-08
-2.41914e-05 0.000110614 -2.11637e-08
-7.4825e-08 -2.11637e-08 3.62874e-05
0.000883517 -7.04817e-05 -2.33872e-06
-7.04817e-05 2.10257e-05 3.80571e-07
-2.33872e-06 3.80571e-07 -6.7727e-05
0.00113264 -4.7822e-05 2.49642e-07
-4.7822e-05 0.00016269 -2.90687e-07
2.49642e-07 -2.90687e-07 6.11904e-05
0.000940765 -3.21482e-05 5.57649e-08
-3.21482e-05 5.32871e-05 6.58549e-07
5.57649e-08 6.58549e-07 -3.38483e-05
0.00167102 1.90369e-05 5.63361e-07
1.90369e-05 5.81821e-05 -1.87904e-07
5.63361e-07 -1.87904e-07 -2.45443e-05
0.00247462 -5.59138e-05 2.69437e-06
-5.59138e-05 0.000368209 -2.5681e-06
2.69437e-06 -2.5681e-06 0.000320765
0.00211945 -0.000125461 5.95052e-06
-0.000125461 0.000267822 -1.67818e-06
5.95052e-06 -1.67818e-06 0.000197233
0.00144773 -0.000112698 -1.16064e-06
-0.000112698 0.000212585 -6.67603e-07
-1.16064e-06 -6.67603e-07 7.98464e-05
0.00104294 -8.09448e-05 3.13172e-07
-8.09448e-05 0.000114033 -1.86484e-06
3.13172e-07 -1.86484e-06 -8.00366e-07
0.000762155 1.29336e-05 1.01476e-07
1.29336e-05 -4.66467e-05 -9.49565e-07
1.01476e-07 -9.49565e-07 -0.00010275
0.000875105 1.88827e-05 2.92749e-07
1.88827e-05 1.21247e-05 -1.05395e-06
2.92749e-07 -1.05395e-06 -4.96337e-05
0.00111284 8.6019e-06 3.37338e-07
8.6019e-06 0.000136819 1.29972e-07
3.37338e-07 1.29972e-07 6.94758e-05
0.00101965 -3.60453e-05 6.85176e-07
-3.60453e-05 9.0082e-05 -6.05597e-07
6.85176e-07 -6.05597e-07 1.66345e-05
0.00105983 -1.79501e-05 5.84554e-08
-1.79501e-05 0.000108619 4.19224e-07
5.84554e-08 4.19224e-07 2.8429e-05
0.000999475 -3.08712e-05 -3.58682e-07
-3.08712e-05 9.30855e-05 -1.15056e-06
-3.58682e-07 -1.15056e-06 -1.095e-06
0.000934551 -5.63809e-05 4.82798e-06
-5.63809e-05 8.44461e-05 7.56385e-07
4.82798e-06 7.56385e-07 -3.58472e-05
0.000986384 4.35469e-05 -6.80505e-07
4.35469e-05 6.83022e-05 -1.20911e-06
-6.80505e-07 -1.20911e-06 -9.69521e-06
0.000937292 5.96946e-05 -2.9318e-08
5.96946e-05 5.24934e-05 4.96728e-08
-2.9318e-08 4.96728e-08 -4.06085e-05
0.00155672 1.08415e-05 -5.96426e-07
1.08415e-05 -1.81091e-06 -1.5328e-06
-5.96426e-07 -1.5328e-06 -7.82165e-05
0.001142 6.07945e-05 -5.69753e-07
6.07945e-05 -0.000231439 -1.50529e-06
-5.69753e-07 -1.50529e-06 -0.000287967
0.00209455 0.000124194 -2.83632e-06
0.000124194 0.000390594 1.88093e-07
-2.83632e-06 1.88093e-07 0.000291768
0.000805231 6.37517e-05 -1.89017e-07
6.37517e-05 -2.23983e-05 -1.00204e-06
-1.89017e-07 -1.00204e-06 -0.00013145
0.00149025 0.000101953 -6.33211e-07
0.000101953 0.000286399 -3.95473e-07
-6.33211e-07 -3.95473e-07 0.000152923
0.00107368 4.44306e-05 7.09687e-08
4.44306e-05 0.000117832 8.99524e-08
7.09687e-08 8.99524e-08 3.106e-05
0.00163419 4.3828e-05 -1.62889e-06
4.3828e-05 -5.16815e-05 4.78279e-08
-1.62889e-06 4.78279e-08 -0.000110625
0.00119978 7.21634e-05 -4.66604e-07
7.21634e-05 0.000174995 -1.92121e-07
-4.66604e-07 -1.92121e-07 7.62047e-05
0.00129109 8.46515e-05 -3.87972e-07
8.46515e-05 0.000222845 4.58918e-07
-3.87972e-07 4.58918e-07 0.000100214
0.00174108 0.000113671 1.93568e-06
0.000113671 4.85509e-05 -1.24474e-06
1.93568e-06 -1.24474e-06 -1.81047e-05
0.00125549 0.000101571 -1.10672e-06
0.000101571 0.000116159 1.41084e-06
-1.10672e-06 1.41084e-06 -2.64513e-05
0.00185414 1.8541e-05 -9.85901e-07
1.8541e-05 0.000131823 -2.59308e-06
-9.85901e-07 -2.59308e-06 0.000104318
0.00110801 5.44777e-05 -6.09914e-07
5.44777e-05 0.000129529 -5.78137e-07
-6.09914e-07 -5.78137e-07 3.6833e-05
0.00206958 0.000110927 7.39163e-06
0.000110927 0.000124998 -3.65865e-06
7.39163e-06 -3.65865e-06 8.87081e-05
0.00128743 8.14837e-05 -1.57002e-06
8.14837e-05 0.000225565 -4.76402e-07
-1.57002e-06 -4.76402e-07 0.000121974
0.00102185 8.25361e-05 -1.34157e-06
8.25361e-05 0.000110863 1.37184e-06
-1.34157e-06 1.37184e-06 -3.84816e-05
0.000408935 0.000108544 -5.51829e-08
0.000108544 -0.000408446 -2.2338e-07
-5.51829e-08 -2.2338e-07 -0.000534496
0.00614869 -0.000119481 -2.33611e-05
-0.000119481 0.00209075 -1.9965e-06
-2.33611e-05 -1.9965e-06 0.00155712
0.00245592 -9.46684e-05 5.83647e-05
-9.46684e-05 0.000127555 7.76207e-06
5.83647e-05 7.76207e-06 -0.000145083
0.0011207 0.000125079 1.15259e-05
0.000125079 -0.000228552 5.93018e-06
1.15259e-05 5.93018e-06 -0.000147679
-0.00267362 -0.000183324 -3.62791e-05
-0.000183324 -0.00137732 -2.29964e-05
-3.62791e-05 -2.29964e-05 -0.00129483
0.00145212 -0.000265041 -1.39986e-05
-0.000265041 -0.000136768 -2.71438e-06
-1.39986e-05 -2.71438e-06 0.000493022
0.00101471 2.70757e-05 -3.8402e-07
2.70757e-05 8.26659e-05 -6.85573e-07
-3.8402e-07 -6.85573e-07 2.11148e-06
0.00108658 3.73555e-05 9.56777e-08
3.73555e-05 0.000116805 -1.09898e-07
9.56777e-08 -1.09898e-07 3.13755e-05
0.0010962 4.32877e-05 5.49202e-08
4.32877e-05 0.000114142 1.65427e-07
5.49202e-08 1.65427e-07 2.8066e-05
0.000926667 -3.01415e-05 2.84993e-07
-3.01415e-05 2.62393e-05 -8.18703e-07
2.84993e-07 -8.18703e-07 -1.84993e-05
0.000827184 1.09851e-05 7.79346e-08
1.09851e-05 -1.8281e-05 -6.39161e-07
7.79346e-08 -6.39161e-07 -7.58169e-05
0.00102342 -1.55613e-05 7.05924e-08
-1.55613e-05 8.41202e-05 -4.30667e-07
7.05924e-08 -4.30667e-07 1.81141e-05
0.00108461 5.6271e-06 -1.06633e-07
5.6271e-06 0.000117755 -4.10532e-07
-1.06633e-07 -4.10532e-07 4.29966e-05
0.000987455 2.22958e-05 -1.9074e-07
2.22958e-05 6.52088e-05 -1.20983e-06
-1.9074e-07 -1.20983e-06 -1.6943e-05
0.00100263 2.21554e-05 -3.35503e-07
2.21554e-05 7.26145e-05 -4.10295e-07
-3.35503e-07 -4.10295e-07 7.29076e-06
0.000867861 5.77308e-06 1.43708e-07
5.77308e-06 -6.43584e-06 4.05035e-07
1.43708e-07 4.05035e-07 -5.05516e-05
0.000903029 1.49383e-06 -1.64186e-07
1.49383e-06 2.03374e-05 4.46748e-08
-1.64186e-07 4.46748e-08 -3.66932e-05
0.00101722 2.32722e-05 -3.42234e-08
2.32722e-05 7.88391e-05 1.3621e-07
-3.42234e-08 1.3621e-07 -3.00245e-06
0.00102151 1.61708e-05 7.20864e-08
1.61708e-05 8.67562e-05 -1.314e-07
7.20864e-08 -1.314e-07 1.48306e-05
0.00097404 3.33626e-05 9.89254e-08
3.33626e-05 6.33624e-05 -3.23795e-07
9.89254e-08 -3.23795e-07 -7.42093e-06
0.00107246 4.18037e-05 2.11845e-07
4.18037e-05 0.000110431 5.07704e-07
2.11845e-07 5.07704e-07 3.18038e-05
0.000868496 1.37194e-05 4.12165e-08
1.37194e-05 -1.22831e-06 6.98968e-07
4.12165e-08 6.98968e-07 -6.59215e-05
0.000854236 2.30552e-06 3.57648e-07
2.30552e-06 -7.2716e-06 5.87075e-08
3.57648e-07 5.87075e-08 -6.38138e-05
0.000769662 -2.95815e-05 -1.21396e-06
-2.95815e-05 -5.67832e-05 1.15641e-06
-1.21396e-06 1.15641e-06 -0.000101168
0.000995875 8.33608e-06 -1.21329e-07
8.33608e-06 6.62132e-05 3.11614e-07
-1.21329e-07 3.11614e-07 1.14059e-05
0.00110286 4.7243e-05 1.63167e-07
4.7243e-05 0.00012344 2.01744e-07
1.63167e-07 2.01744e-07 6.01553e-05
0.000950891 3.71294e-07 -3.25615e-07
3.71294e-07 4.56647e-05 5.45506e-07
-3.25615e-07 5.45506e-07 -1.03456e-05
0.000980802 1.06046e-05 3.30862e-07
1.06046e-05 5.95774e-05 -3.89912e-07
3.30862e-07 -3.89912e-07 4.94217e-06
0.000938318 -1.81398e-05 -9.21884e-07
-1.81398e-05 2.92901e-05 6.60669e-07
-9.21884e-07 6.60669e-07 -1.30967e-05
0.000794473 4.04566e-06 1.24059e-07
4.04566e-06 -4.40594e-05 3.61573e-07
1.24059e-07 3.61573e-07 -8.80802e-05
0.000901103 1.12264e-05 -9.15817e-08
1.12264e-05 1.7437e-06 1.55436e-06
-9.15817e-08 1.55436e-06 -2.30889e-05
0.000894808 3.17263e-06 -1.91061e-07
3.17263e-06 -1.3284e-06 2.36497e-09
-1.91061e-07 2.36497e-09 -2.61521e-05
0.00086569 3.82809e-06 -3.45137e-07
3.82809e-06 -2.74469e-05 4.12835e-06
-3.45137e-07 4.12835e-06 -2.6007e-05
0.00089395 -7.10088e-06 3.69388e-07
-7.10088e-06 -1.90624e-06 -1.54339e-06
3.69388e-07 -1.54339e-06 -2.67495e-05
0.000850364 3.28852e-07 1.01633e-07
3.28852e-07 -3.6064e-05 5.01142e-09
1.01633e-07 5.01142e-09 -3.44133e-05
0.00214182 -9.48265e-07 3.05109e-08
-9.48265e-07 0.000634626 3.86828e-06
3.05109e-08 3.86828e-06 0.000658548
0.000868224 -3.09747e-06 -4.73037e-07
-3.09747e-06 -2.61243e-05 -4.1523e-06
-4.73037e-07 -4.1523e-06 -2.45822e-05
0.00158524 -4.84478e-06 -1.71794e-07
-4.84478e-06 0.000345872 1.73916e-08
-1.71794e-07 1.73916e-08 0.000367034
0.000993908 -8.01789e-06 -7.79603e-07
-8.01789e-06 3.97948e-05 -1.46609e-06
-7.79603e-07 -1.46609e-06 5.83906e-05
0.000913618 3.25162e-06 1.03673e-07
3.25162e-06 4.97943e-06 -1.6526e-06
1.03673e-07 -1.6526e-06 -1.68873e-05
0.000908176 6.04822e-06 2.29799e-08
6.04822e-06 3.23259e-06 -8.03344e-10
2.29799e-08 -8.03344e-10 -1.96738e-05
0.000844071 8.04052e-06 4.68142e-07
8.04052e-06 -3.78118e-05 -3.02579e-06
4.68142e-07 -3.02579e-06 -3.50232e-05
0.000906933 8.9818e-06 -5.45728e-07
8.9818e-06 4.04333e-06 1.66225e-06
-5.45728e-07 1.66225e-06 -2.04732e-05
0.00111002 1.28269e-05 -1.87745e-07
1.28269e-05 0.000103018 -5.92843e-07
-1.87745e-07 -5.92843e-07 0.000105844
0.00211573 1.52944e-05 8.26109e-06
1.52944e-05 0.000625648 -3.80221e-06
8.26109e-06 -3.80221e-06 0.000649086
0.000848563 1.55573e-05 -1.28409e-06
1.55573e-05 -2.85447e-05 3.13302e-06
-1.28409e-06 3.13302e-06 -2.89807e-05
0.0021756 1.99694e-05 -4.41797e-06
1.99694e-05 0.000661287 1.09716e-06
-4.41797e-06 1.09716e-06 0.00068341
0.00220442 2.56345e-05 -1.5049e-05
2.56345e-05 0.000681144 3.83573e-06
-1.5049e-05 3.83573e-06 0.000701892
0.0015112 -6.73539e-06 -4.75936e-07
-6.73539e-06 7.8472e-06 -2.25007e-07
-4.75936e-07 -2.25007e-07 -7.42174e-05
0.00167781 5.2094e-06 -7.30997e-07
5.2094e-06 9.24453e-05 -6.66033e-07
-7.30997e-07 -6.66033e-07 8.63414e-07
0.00172379 -1.51897e-05 -2.04987e-07
-1.51897e-05 9.17218e-05 -1.36868e-06
-2.04987e-07 -1.36868e-06 7.07577e-06
0.00162561 -3.21734e-05 -1.34393e-06
-3.21734e-05 -8.5053e-06 -3.84514e-07
-1.34393e-06 -3.84514e-07 -4.51831e-05
0.00161488 5.02488e-06 -8.01498e-07
5.02488e-06 5.31117e-05 -6.66215e-08
-8.01498e-07 -6.66215e-08 -2.99821e-05
0.00165541 1.13948e-06 7.6248e-07
1.13948e-06 1.29158e-05 2.82623e-07
7.6248e-07 2.82623e-07 -6.73962e-05
0.0021153 2.43561e-05 2.26545e-06
2.43561e-05 0.000234527 1.69809e-06
2.26545e-06 1.69809e-06 0.000139033
0.00218449 -0.000105672 0.000140284
-0.000105672 0.00027848 3.06052e-05
0.000140284 3.06052e-05 4.14045e-05
0.00115211 -2.72838e-05 -8.24204e-06
-2.72838e-05 -0.000170783 1.08064e-06
-8.24204e-06 1.08064e-06 -0.000232868
0.000937539 7.67799e-06 -4.92729e-07
7.67799e-06 3.13929e-05 -8.7712e-07
-4.92729e-07 -8.7712e-07 -7.81338e-06
0.000939939 -1.46311e-05 4.41546e-07
-1.46311e-05 3.26384e-05 -1.97473e-08
4.41546e-07 -1.97473e-08 -7.22055e-06
0.000943457 -1.15202e-05 -1.30082e-07
-1.15202e-05 4.4417e-05 -2.5758e-07
-1.30082e-07 -2.5758e-07 -7.08058e-06
0.000951016 -2.00243e-05 -4.37601e-07
-2.00243e-05 5.25698e-05 -8.9849e-08
-4.37601e-07 -8.9849e-08 -1.07721e-06
0.00177489 2.2895e-05 2.6683e-07
2.2895e-05 0.000131022 -6.08898e-07
2.6683e-07 -6.08898e-07 4.6993e-05
0.00181468 -1.89495e-05 6.0784e-07
-1.89495e-05 0.000109689 1.02878e-06
6.0784e-07 1.02878e-06 3.11058e-05
0.00132503 -8.3261e-05 -4.47891e-06
-8.3261e-05 -0.000135507 1.22086e-06
-4.47891e-06 1.22086e-06 -0.000179346
0.000803379 -6.37642e-05 4.68941e-07
-6.37642e-05 -3.65386e-05 2.30795e-06
4.68941e-07 2.30795e-06 -0.000124266
0.000654806 -7.55786e-05 1.53806e-06
-7.55786e-05 -0.000106643 1.32589e-06
1.53806e-06 1.32589e-06 -0.000253027
0.00141037 -0.000107535 -1.98148e-06
-0.000107535 7.9694e-05 -1.20976e-06
-1.98148e-06 -1.20976e-06 -1.75044e-05
0.000833502 -6.84128e-05 -4.49088e-06
-6.84128e-05 -3.95711e-06 3.48943e-07
-4.49088e-06 3.48943e-07 -9.43331e-05
0.00107423 -3.80539e-05 -8.47964e-07
-3.80539e-05 0.000131923 -4.30927e-07
-8.47964e-07 -4.30927e-07 3.24918e-05
0.00107063 -4.22845e-05 -4.86904e-07
-4.22845e-05 0.000119454 1.17334e-06
-4.86904e-07 1.17334e-06 3.26338e-05
0.000930071 -3.18233e-07 -8.15198e-07
-3.18233e-07 2.93113e-05 1.12467e-06
-8.15198e-07 1.12467e-06 -1.59996e-05
0.00101589 -3.29118e-05 -9.69143e-08
-3.29118e-05 8.5057e-05 3.78895e-07
-9.69143e-08 3.78895e-07 9.24432e-06
0.00102853 1.15143e-05 -6.27081e-07
1.15143e-05 8.73956e-05 8.54464e-07
-6.27081e-07 8.54464e-07 2.59153e-05
0.00094837 -4.85594e-06 -6.01796e-08
-4.85594e-06 3.73205e-05 3.92525e-07
-6.01796e-08 3.92525e-07 -3.68299e-06
0.000782462 1.58307e-05 6.68559e-08
1.58307e-05 -3.5474e-05 1.30541e-06
6.68559e-08 1.30541e-06 -9.42707e-05
0.00168271 1.76253e-05 -7.36548e-07
1.76253e-05 6.88087e-05 1.00746e-06
-7.36548e-07 1.00746e-06 -1.27587e-05
0.000940344 1.09998e-05 2.68048e-07
1.09998e-05 4.40744e-05 -4.94372e-07
2.68048e-07 -4.94372e-07 -1.02854e-05
0.000911216 6.09413e-06 4.54385e-07
6.09413e-06 3.04526e-05 2.99806e-09
4.54385e-07 2.99806e-09 -3.0193e-05
0.000995915 2.79247e-05 -2.50646e-07
2.79247e-05 7.60115e-05 9.02532e-07
-2.50646e-07 9.02532e-07 9.14365e-06
0.0020019 -5.40388e-05 -3.34833e-06
-5.40388e-05 0.000138342 4.61541e-07
-3.34833e-06 4.61541e-07 8.64839e-05
0.00151356 -0.000110427 -7.11106e-07
-0.000110427 -2.26314e-05 -1.12235e-06
-7.11106e-07 -1.12235e-06 -9.16314e-05
0.00101497 -8.05771e-05 1.08126e-07
-8.05771e-05 9.13378e-05 -2.574e-07
1.08126e-07 -2.574e-07 -2.10704e-05
0.00159432 -0.000117217 4.49122e-08
-0.000117217 0.000291527 -6.51843e-07
4.49122e-08 -6.51843e-07 0.000154794
0.00105757 -1.85029e-05 -2.97376e-07
-1.85029e-05 0.000108084 8.99851e-08
-2.97376e-07 8.99851e-08 3.60542e-05
0.00100504 -2.31112e-05 -3.53443e-08
-2.31112e-05 8.17821e-05 7.27989e-07
-3.53443e-08 7.27989e-07 1.26524e-06
0.000962336 -5.71273e-05 2.18355e-06
-5.71273e-05 9.263e-05 -5.58411e-07
2.18355e-06 -5.58411e-07 -2.26929e-05
0.0011174 -4.28389e-05 1.05898e-07
-4.28389e-05 0.000153538 -5.86832e-07
1.05898e-07 -5.86832e-07 5.65717e-05
0.00145463 1.0093e-05 2.14904e-06
1.0093e-05 -0.000111406 3.24915e-07
2.14904e-06 3.24915e-07 -0.000184079
0.00257015 -0.000124363 1.1332e-05
-0.000124363 0.00034133 -4.945e-06
1.1332e-05 -4.945e-06 0.000283944
0.00202828 -0.000132904 2.93158e-06
-0.000132904 0.000393775 -3.12293e-06
2.93158e-06 -3.12293e-06 0.000265501
0.00113488 -9.61637e-05 -6.36138e-07
-9.61637e-05 0.000159828 -6.11863e-07
-6.36138e-07 -6.11863e-07 3.35371e-05
0.000908951 1.77955e-05 -6.53194e-07
1.77955e-05 3.4014e-05 -4.11341e-07
-6.53194e-07 -4.11341e-07 -3.69225e-05
0.000939399 -3.94726e-05 9.75394e-07
-3.94726e-05 5.22066e-05 -1.15812e-06
9.75394e-07 -1.15812e-06 -2.00434e-05
0.00100444 -4.48016e-05 5.25302e-07
-4.48016e-05 8.49199e-05 -6.95674e-07
5.25302e-07 -6.95674e-07 8.35758e-07
0.00107643 -2.16891e-05 -8.49777e-07
-2.16891e-05 0.000146492 1.24444e-07
-8.49777e-07 1.24444e-07 2.29092e-05
0.000252597 -1.30459e-05 -1.12329e-05
-1.30459e-05 -0.00064045 -1.00073e-06
-1.12329e-05 -1.00073e-06 -0.00114817
0.00107384 4.44239e-05 -1.95169e-07
4.44239e-05 0.00011868 -5.27476e-07
-1.95169e-07 -5.27476e-07 3.2808e-05
0.000961632 6.6366e-05 7.07664e-07
6.6366e-05 5.93893e-05 2.61273e-07
7.07664e-07 2.61273e-07 -3.89523e-05
0.00108165 3.89155e-05 -1.49132e-06
3.89155e-05 -0.000337861 -9.82062e-07
-1.49132e-06 -9.82062e-07 -0.000395642
0.00160314 0.000105604 -4.17814e-06
0.000105604 -2.43596e-05 9.02857e-07
-4.17814e-06 9.02857e-07 -8.86139e-05
0.00145205 0.000108711 -2.75212e-06
0.000108711 0.000222423 4.08523e-08
-2.75212e-06 4.08523e-08 7.25914e-05
0.000882712 6.93869e-05 1.15182e-06
6.93869e-05 2.76432e-05 2.62462e-07
1.15182e-06 2.62462e-07 -9.52528e-05
0.00236313 1.23891e-05 -1.06687e-05
1.23891e-05 0.000289745 8.20328e-07
-1.06687e-05 8.20328e-07 0.000261256
0.00108702 5.56894e-05 9.12863e-08
5.56894e-05 0.000122242 -2.53783e-07
9.12863e-08 -2.53783e-07 2.9689e-05
0.00180922 0.000106548 -1.4257e-06
0.000106548 -7.31704e-06 -6.51924e-07
-1.4257e-06 -6.51924e-07 -4.47714e-05
0.00108929 7.42166e-05 6.73113e-07
7.42166e-05 0.000129871 -4.43062e-08
6.73113e-07 -4.43062e-08 2.64958e-05
0.00105481 8.44604e-05 -1.60711e-07
8.44604e-05 0.000128292 -2.27707e-07
-1.60711e-07 -2.27707e-07 -1.92758e-05
0.00080569 0.000117378 -3.03819e-06
0.000117378 -0.000227276 6.44527e-08
-3.03819e-06 6.44527e-08 -0.000347889
0.00178151 -0.00014026 -1.59037e-05
-0.00014026 9.8041e-05 -5.24445e-06
-1.59037e-05 -5.24445e-06 -0.000413029
0.00279661 -0.000120932 6.41645e-06
-0.000120932 0.000177489 -8.03496e-06
6.41645e-06 -8.03496e-06 -0.000164654
0.00100282 0.000118549 2.92821e-06
0.000118549 -0.00028894 5.05899e-08
2.92821e-06 5.05899e-08 -0.000207307
-0.000484801 -0.000202071 -2.03061e-06
-0.000202071 -0.000383881 -2.70285e-06
-2.03061e-06 -2.70285e-06 -0.000430704
0.000411353 -0.000283307 2.9961e-06
-0.000283307 -0.000665498 9.13961e-07
2.9961e-06 9.13961e-07 -3.00335e-05
0.00111342 6.01143e-05 4.2508e-07
6.01143e-05 0.000140409 -3.90154e-07
4.2508e-07 -3.90154e-07 4.85438e-05
-0.000262435 3.34341e-05 -9.49991e-05
3.34341e-05 -0.00031476 -1.48176e-05
-9.49991e-05 -1.48176e-05 -0.000525699
0.00186092 -0.000156728 -1.29264e-05
-0.000156728 0.000608137 -1.10441e-05
-1.29264e-05 -1.10441e-05 0.00091774
0.00122411 0.000128678 2.58517e-06
0.000128678 -0.000219699 1.46142e-06
2.58517e-06 1.46142e-06 -0.000211738
0.000836781 3.26084e-05 -3.72899e-07
3.26084e-05 1.24039e-05 -4.44923e-07
-3.72899e-07 -4.44923e-07 -0.000101251
0.00160416 7.73753e-05 -4.49307e-06
7.73753e-05 0.000441775 1.99155e-06
-4.49307e-06 1.99155e-06 0.000255519
0.00139655 0.000145956 2.4713e-06
0.000145956 9.70894e-05 9.82904e-06
2.4713e-06 9.82904e-06 6.61335e-05
0.00578324 -0.000255905 -6.57597e-05
-0.000255905 0.00176333 -1.92548e-05
-6.57597e-05 -1.92548e-05 0.000956758
0.00192297 -3.32641e-05 2.35454e-05
-3.32641e-05 -0.000351699 2.35653e-05
2.35454e-05 2.35653e-05 -0.000747099
-0.000161594 -0.000283125 -5.33776e-05
-0.000283125 -0.000199524 -2.47838e-05
-5.33776e-05 -2.47838e-05 -8.15892e-05
-0.000179132 -0.000133338 -1.01066e-05
-0.000133338 -0.00124516 1.58975e-07
-1.01066e-05 1.58975e-07 -0.00090779
0.00103542 3.32537e-05 -2.6888e-07
3.32537e-05 9.26331e-05 -5.94434e-07
-2.6888e-07 -5.94434e-07 7.7494e-06
0.00108016 4.44408e-05 -4.32947e-07
4.44408e-05 0.00010759 1.20244e-07
-4.32947e-07 1.20244e-07 2.143e-05
0.00122089 6.39592e-05 -5.97635e-07
6.39592e-05 0.000173308 -3.36284e-07
-5.97635e-07 -3.36284e-07 8.71741e-05
0.000932118 2.90434e-06 2.70287e-08
2.90434e-06 2.82421e-05 -4.19963e-07
2.70287e-08 -4.19963e-07 -1.63306e-05
0.000984021 -1.27352e-05 1.39729e-07
-1.27352e-05 6.18322e-05 -5.65335e-07
1.39729e-07 -5.65335e-07 5.27455e-06
0.000937908 6.05381e-06 -7.41609e-08
6.05381e-06 3.74402e-05 -8.40732e-07
-7.41609e-08 -8.40732e-07 -2.77047e-05
0.00100761 1.52271e-05 1.87434e-07
1.52271e-05 7.82004e-05 -4.22743e-07
1.87434e-07 -4.22743e-07 6.25173e-06
0.000996297 2.0453e-05 -4.09405e-08
2.0453e-05 6.97727e-05 -3.96408e-07
-4.09405e-08 -3.96408e-07 -1.17475e-05
0.000789139 -5.75999e-06 2.82303e-07
-5.75999e-06 -4.72179e-05 3.72763e-07
2.82303e-07 3.72763e-07 -9.15602e-05
0.000961378 2.48598e-05 -1.62903e-07
2.48598e-05 5.64664e-05 -4.47896e-07
-1.62903e-07 -4.47896e-07 -1.35526e-05
0.00100893 -5.26928e-06 -1.93031e-07
-5.26928e-06 7.20992e-05 4.04207e-07
-1.93031e-07 4.04207e-07 7.41266e-06
0.000925073 1.42847e-05 2.6894e-07
1.42847e-05 2.97815e-05 -2.08826e-07
2.6894e-07 -2.08826e-07 -2.67557e-05
0.0010168 3.9526e-05 -1.98922e-08
3.9526e-05 8.09615e-05 1.30972e-07
-1.98922e-08 1.30972e-07 1.83645e-06
0.000956589 2.14246e-05 9.80893e-08
2.14246e-05 4.53674e-05 3.69073e-07
9.80893e-08 3.69073e-07 -2.70406e-05
0.00113733 5.0363e-05 -2.15228e-07
5.0363e-05 0.000145889 1.58252e-07
-2.15228e-07 1.58252e-07 6.16891e-05
0.00100203 -4.25479e-05 -3.7622e-07
-4.25479e-05 6.73209e-05 1.85161e-07
-3.7622e-07 1.85161e-07 4.33194e-06
0.00101163 -2.81712e-05 -3.88526e-07
-2.81712e-05 7.26427e-05 -6.87117e-08
-3.88526e-07 -6.87117e-08 1.76324e-05
0.00100834 -2.74145e-07 -2.11962e-07
-2.74145e-07 7.14729e-05 -3.71886e-09
-2.11962e-07 -3.71886e-09 1.73443e-05
0.00100368 3.10874e-05 -2.29774e-07
3.10874e-05 7.00771e-05 -3.8499e-07
-2.29774e-07 -3.8499e-07 7.17031e-06
0.000993562 2.21207e-05 1.39626e-07
2.21207e-05 6.56552e-05 5.26659e-07
1.39626e-07 5.26659e-07 2.20554e-06
0.000984 1.99695e-05 5.8852e-08
1.99695e-05 6.05867e-05 6.53655e-07
5.8852e-08 6.53655e-07 -3.27245e-06
0.00107024 2.90227e-05 -5.26197e-08
2.90227e-05 0.000100499 -1.44012e-07
-5.26197e-08 -1.44012e-07 3.21951e-05
0.000949131 -9.52402e-06 2.6581e-07
-9.52402e-06 5.47841e-05 1.23707e-06
2.6581e-07 1.23707e-06 -1.85231e-05
0.000947977 6.02405e-06 -1.10821e-07
6.02405e-06 4.20479e-05 6.58814e-07
-1.10821e-07 6.58814e-07 -1.45806e-05
0.000942427 -1.49764e-07 3.98643e-08
-1.49764e-07 4.0704e-05 -4.30974e-08
3.98643e-08 -4.30974e-08 -1.48017e-05
0.000931984 -7.8568e-07 -7.44271e-07
-7.8568e-07 2.7478e-05 6.88953e-07
-7.44271e-07 6.88953e-07 -1.53336e-05
0.000860163 1.5515e-05 7.96598e-08
1.5515e-05 -4.59147e-06 -7.15971e-07
7.96598e-08 -7.15971e-07 -5.86528e-05
0.000869543 -6.00948e-06 1.55676e-07
-6.00948e-06 -5.94458e-06 4.26235e-09
1.55676e-07 4.26235e-09 -4.87597e-05
0.000903025 1.00981e-05 -3.46965e-07
1.00981e-05 2.9847e-06 1.59035e-06
-3.46965e-07 1.59035e-06 -2.20967e-05
0.000804787 4.20425e-06 2.73502e-07
4.20425e-06 -3.88072e-05 -3.46392e-07
2.73502e-07 -3.46392e-07 -8.29591e-05
0.000899299 3.91239e-06 -1.78802e-07
3.91239e-06 7.24658e-07 -1.06485e-08
-1.78802e-07 -1.06485e-08 -2.40486e-05
0.00141624 8.11827e-06 -2.52045e-06
8.11827e-06 0.000260077 4.07713e-06
-2.52045e-06 4.07713e-06 0.00026411
0.000891146 -5.38617e-06 5.84493e-07
-5.38617e-06 -3.21604e-06 -1.5361e-06
5.84493e-07 -1.5361e-06 -2.79972e-05
0.0011342 4.1886e-06 -9.83535e-07
4.1886e-06 0.000112096 5.97479e-07
-9.83535e-07 5.97479e-07 0.000114975
0.0010487 2.36687e-06 -2.14324e-06
2.36687e-06 6.64237e-05 3.7521e-06
-2.14324e-06 3.7521e-06 8.48402e-05
0.000853295 2.91708e-07 2.38059e-08
2.91708e-07 -3.45513e-05 -2.91975e-06
2.38059e-08 -2.91975e-06 -3.29116e-05
0.00214035 -6.58566e-07 1.42603e-06
-6.58566e-07 0.000633862 4.24473e-10
1.42603e-06 4.24473e-10 0.00065779
0.00104402 -3.30218e-06 -1.18154e-06
-3.30218e-06 6.43704e-05 -3.75437e-06
-1.18154e-06 -3.75437e-06 8.28442e-05
0.000931553 2.89599e-05 1.91038e-07
2.89599e-05 2.99233e-05 -3.28281e-07
1.91038e-07 -3.28281e-07 -1.05638e-05
0.000914887 2.23094e-07 4.5345e-08
2.23094e-07 5.48115e-06 -1.65572e-06
4.5345e-08 -1.65572e-06 -1.60721e-05
0.000912427 2.72998e-06 -5.29242e-08
2.72998e-06 4.26505e-06 -4.83796e-09
-5.29242e-08 -4.83796e-09 -1.75845e-05
0.000852546 4.08498e-06 1.71892e-07
4.08498e-06 -3.53548e-05 -3.01677e-06
1.71892e-07 -3.01677e-06 -3.16641e-05
0.000906573 5.5785e-06 -3.35893e-07
5.5785e-06 2.14164e-06 1.60294e-06
-3.35893e-07 1.60294e-06 -2.07222e-05
0.000846649 8.13335e-06 6.30302e-08
8.13335e-06 -3.67899e-05 -6.06706e-07
6.30302e-08 -6.06706e-07 -3.39247e-05
0.00208283 1.01279e-05 5.47053e-06
1.01279e-05 0.000605945 -3.81768e-06
5.47053e-06 -3.81768e-06 0.000630209
0.00137685 1.46603e-05 -1.27287e-06
1.46603e-05 0.000241964 1.89105e-06
-1.27287e-06 1.89105e-06 0.000245919
0.00159346 1.343e-05 2.70763e-07
1.343e-05 0.000355094 1.18178e-06
2.70763e-07 1.18178e-06 0.00037549
0.00108624 1.5332e-05 -1.16854e-05
1.5332e-05 9.56755e-05 6.24418e-06
-1.16854e-05 6.24418e-06 0.000112142
0.000574257 -1.62331e-05 -8.49112e-08
-1.62331e-05 -0.000516191 8.5462e-07
-8.49112e-08 8.5462e-07 -0.000549019
0.00168861 2.24811e-06 -1.20789e-06
2.24811e-06 8.34503e-05 -1.32929e-07
-1.20789e-06 -1.32929e-07 -3.28785e-07
0.00159784 5.99486e-06 -4.58288e-06
5.99486e-06 1.10086e-06 -3.5261e-06
-4.58288e-06 -3.5261e-06 -8.18707e-05
0.000998679 -7.21552e-05 3.36657e-05
-7.21552e-05 -0.000109605 5.80213e-06
3.36657e-05 5.80213e-06 -0.000313922
0.00149296 -2.83434e-05 -3.27907e-06
-2.83434e-05 2.41793e-05 -3.31396e-07
-3.27907e-06 -3.31396e-07 -4.1208e-05
0.0018074 2.58251e-05 -2.23072e-06
2.58251e-05 7.70323e-05 -1.9606e-06
-2.23072e-06 -1.9606e-06 -1.8215e-05
0.00144758 4.43888e-05 -2.50303e-06
4.43888e-05 3.83009e-05 9.70225e-07
-2.50303e-06 9.70225e-07 -3.6765e-05
0.00119337 -5.00881e-05 0.000109075
-5.00881e-05 -4.75473e-05 5.71901e-06
0.000109075 5.71901e-06 -0.000305875
0.00541399 0.000103789 -2.32419e-05
0.000103789 0.00159921 -2.54024e-06
-2.32419e-05 -2.54024e-06 0.000907645
0.00329615 0.000318028 -3.66992e-05
0.000318028 0.00135921 1.54298e-05
-3.66992e-05 1.54298e-05 0.00142665
0.0012863 0.000258072 -1.16897e-05
0.000258072 4.12905e-05 5.4263e-06
-1.16897e-05 5.4263e-06 0.000603212
0.000766166 -1.7852e-05 9.93721e-07
-1.7852e-05 -4.36567e-05 -8.2683e-07
9.93721e-07 -8.2683e-07 -9.69276e-05
0.000942048 -8.86698e-06 4.57132e-08
-8.86698e-06 3.40219e-05 -7.83478e-09
4.57132e-08 -7.83478e-09 -5.4088e-06
0.00094424 -3.23692e-05 -7.38456e-07
-3.23692e-05 3.59549e-05 8.63669e-07
-7.38456e-07 8.63669e-07 -4.77667e-06
0.000886601 1.88803e-06 -2.74365e-07
1.88803e-06 1.64311e-05 1.43998e-08
-2.74365e-07 1.43998e-08 -3.61146e-05
0.00100056 3.81666e-05 9.68717e-08
3.81666e-05 8.20836e-05 5.25131e-07
9.68717e-08 5.25131e-07 1.89828e-05
0.00100088 4.43709e-05 1.81399e-07
4.43709e-05 7.84803e-05 4.2149e-07
1.81399e-07 4.2149e-07 1.79366e-05
0.000987182 -5.57902e-06 5.5196e-07
-5.57902e-06 7.07536e-05 -1.16429e-06
5.5196e-07 -1.16429e-06 1.56232e-05
0.000891445 -3.12491e-05 -4.31186e-07
-3.12491e-05 2.05438e-05 4.70633e-07
-4.31186e-07 4.70633e-07 -3.26399e-05
0.00173765 1.66487e-05 -1.64965e-06
1.66487e-05 0.000101369 4.13631e-07
-1.64965e-06 4.13631e-07 2.08763e-05
0.0015503 -5.20611e-05 -2.70671e-06
-5.20611e-05 -8.68217e-05 1.45918e-06
-2.70671e-06 1.45918e-06 -0.000142272
0.000905879 -9.54624e-05 -8.3928e-06
-9.54624e-05 -0.000314894 1.11068e-06
-8.3928e-06 1.11068e-06 -0.000381644
0.0010105 -8.07134e-05 4.49753e-07
-8.07134e-05 8.19802e-05 1.21599e-06
4.49753e-07 1.21599e-06 -2.87744e-05
0.00159188 -0.000117793 4.70588e-09
-0.000117793 0.000295718 1.61775e-06
4.70588e-09 1.61775e-06 0.000152927
0.000982322 -5.79602e-05 -2.90541e-07
-5.79602e-05 9.74176e-05 -4.45689e-07
-2.90541e-07 -4.45689e-07 -1.35442e-05
0.00122531 -5.49331e-05 2.17364e-07
-5.49331e-05 0.000208968 -4.93402e-08
2.17364e-07 -4.93402e-08 0.000109105
0.000940158 -2.77679e-05 -3.69949e-07
-2.77679e-05 4.96358e-05 6.83801e-07
-3.69949e-07 6.83801e-07 -3.11117e-05
0.00095149 -2.51527e-06 9.13141e-08
-2.51527e-06 5.09225e-05 8.78103e-07
9.13141e-08 8.78103e-07 -8.66409e-06
0.00110751 -8.96023e-06 -5.47305e-07
-8.96023e-06 0.000132223 5.96821e-07
-5.47305e-07 5.96821e-07 6.15752e-05
0.0011367 3.59095e-06 2.24208e-08
3.59095e-06 0.000143545 1.20061e-07
2.24208e-08 1.20061e-07 9.11427e-05
0.000900601 4.6764e-05 8.49119e-07
4.6764e-05 2.60142e-05 1.75227e-06
8.49119e-07 1.75227e-06 -4.04494e-05
0.00173979 1.7052e-05 2.19687e-06
1.7052e-05 2.39008e-05 -2.70778e-06
2.19687e-06 -2.70778e-06 -4.81702e-05
0.000932702 1.87876e-05 -3.0994e-07
1.87876e-05 4.67518e-05 3.36961e-07
-3.0994e-07 3.36961e-07 -2.32676e-05
0.000952659 -3.24981e-05 -9.6253e-08
-3.24981e-05 5.77516e-05 -4.0709e-07
-9.6253e-08 -4.0709e-07 -1.3829e-05
0.00219466 -0.000118688 -4.05188e-06
-0.000118688 0.00015993 -8.81721e-07
-4.05188e-06 -8.81721e-07 0.000107083
0.000826089 -0.000100966 1.1509e-06
-0.000100966 -0.000190449 2.08187e-06
1.1509e-06 2.08187e-06 -0.000312953
0.00120743 -0.000100222 1.07886e-06
-0.000100222 0.000193579 -7.30347e-07
1.07886e-06 -7.30347e-07 6.18396e-05
0.00101957 -4.08953e-05 9.88131e-08
-4.08953e-05 9.07444e-05 -1.41569e-07
9.88131e-08 -1.41569e-07 5.69015e-06
0.00109182 -3.04399e-05 -2.73993e-08
-3.04399e-05 0.00015328 2.86543e-07
-2.73993e-08 2.86543e-07 2.95497e-05
0.002698 -5.80905e-05 -4.72959e-06
-5.80905e-05 0.00043627 8.98936e-06
-4.72959e-06 8.98936e-06 0.000402858
0.00284735 -0.000192521 9.72686e-06
-0.000192521 0.000650921 -4.39657e-06
9.72686e-06 -4.39657e-06 0.000523039
0.000329453 -8.97606e-05 -1.88398e-06
-8.97606e-05 -0.000272075 -1.99969e-06
-1.88398e-06 -1.99969e-06 -0.000406873
0.00120168 -6.99721e-05 -4.37333e-07
-6.99721e-05 0.000219766 6.82174e-07
-4.37333e-07 6.82174e-07 6.43766e-05
0.000845793 -4.30697e-05 4.41451e-07
-4.30697e-05 4.77926e-06 -2.1702e-07
4.41451e-07 -2.1702e-07 -7.17061e-05
0.00101507 -3.69842e-05 1.24274e-06
-3.69842e-05 8.67462e-05 -8.64413e-07
1.24274e-06 -8.64413e-07 4.50412e-06
0.00118843 -1.98319e-05 -3.24327e-07
-1.98319e-05 0.000179513 -2.41363e-07
-3.24327e-07 -2.41363e-07 7.90672e-05
-0.00112013 -2.06101e-05 -7.38947e-05
-2.06101e-05 -0.000680632 1.58996e-07
-7.38947e-05 1.58996e-07 -0.000683596
0.00599144 -2.01273e-05 -2.33307e-05
-2.01273e-05 0.00203252 -2.3584e-06
-2.33307e-05 -2.3584e-06 0.00151259
0.00108711 5.76509e-05 4.82917e-07
5.76509e-05 0.000125241 3.44826e-08
4.82917e-07 3.44826e-08 3.28171e-05
0.000878819 6.64013e-05 1.26718e-06
6.64013e-05 2.77721e-05 -1.01033e-06
1.26718e-06 -1.01033e-06 -7.53111e-05
0.0017131 0.000106183 -1.01626e-05
0.000106183 -6.2797e-05 3.09585e-06
-1.01626e-05 3.09585e-06 -9.73743e-05
0.00137326 0.000132124 -3.42455e-06
0.000132124 3.22502e-05 -5.92187e-07
-3.42455e-06 -5.92187e-07 -8.19075e-05
0.00106288 8.53235e-05 1.38917e-06
8.53235e-05 0.000132951 -1.84541e-06
1.38917e-06 -1.84541e-06 -1.23085e-05
0.00502843 -4.00235e-05 2.74961e-05
-4.00235e-05 0.00145412 -7.25474e-06
2.74961e-05 -7.25474e-06 0.000803573
0.00244501 -0.000139106 -5.84321e-05
-0.000139106 6.81797e-05 -1.73129e-05
-5.84321e-05 -1.73129e-05 -0.000173527
0.00102909 0.000104125 -7.71256e-06
0.000104125 -0.000278276 -9.29456e-06
-7.71256e-06 -9.29456e-06 -0.000201524
0.00243257 -0.000274643 3.05006e-05
-0.000274643 0.0010988 1.72718e-05
3.05006e-05 1.72718e-05 0.00109471
-0.000778069 -0.000304978 1.5419e-05
-0.000304978 -0.00129024 6.70239e-06
1.5419e-05 6.70239e-06 -0.00063674
0.0010504 6.35844e-05 6.46204e-08
6.35844e-05 0.00010656 -2.66067e-07
6.46204e-08 -2.66067e-07 1.45522e-05
-0.00135379 -7.93565e-05 -9.74639e-06
-7.93565e-05 -0.000766585 -1.01991e-06
-9.74639e-06 -1.01991e-06 -0.000706059
0.000729003 -0.000146223 -3.84339e-06
-0.000146223 6.45051e-05 -1.69237e-07
-3.84339e-06 -1.69237e-07 0.000271448
0.00178736 0.000136468 3.65789e-07
0.000136468 5.93836e-05 4.18301e-07
3.65789e-07 4.18301e-07 5.61837e-05
0.0010674 4.97415e-05 -3.0509e-07
4.97415e-05 0.000135525 -1.10472e-06
-3.0509e-07 -1.10472e-06 2.54562e-05
0.00115387 7.9758e-05 5.05276e-07
7.9758e-05 0.000217283 1.73944e-07
5.05276e-07 1.73944e-07 3.08744e-05
0.000938153 0.000102794 6.84389e-07
0.000102794 -0.000136272 6.4706e-07
6.84389e-07 6.4706e-07 -0.000144078
0.0046995 -0.000167594 5.95605e-06
-0.000167594 0.00116207 5.11292e-06
5.95605e-06 5.11292e-06 0.000289004
0.0024665 7.6983e-06 -1.53275e-05
7.6983e-06 8.4921e-05 -1.34938e-05
-1.53275e-05 -1.34938e-05 -9.10988e-05
0.00317424 -0.000387517 6.28392e-06
-0.000387517 0.00107478 -1.01024e-06
6.28392e-06 -1.01024e-06 0.00108612
0.000141597 -0.000165659 6.81255e-07
-0.000165659 -0.00116701 7.33181e-06
6.81255e-07 7.33181e-06 -0.000707803
0.00108058 2.62807e-05 -2.11869e-06
2.62807e-05 9.55912e-05 -1.15224e-06
-2.11869e-06 -1.15224e-06 7.69447e-06
-6.67422e-05 -3.39388e-05 -1.10081e-05
-3.39388e-05 -0.000265832 -2.64618e-06
-1.10081e-05 -2.64618e-06 -0.000313921
0.00117854 -1.12794e-05 -4.49256e-06
-1.12794e-05 7.78101e-05 -1.20964e-05
-4.49256e-06 -1.20964e-05 3.56589e-05
-9.66813e-05 0.000119543 6.04937e-07
0.000119543 -0.000504324 -4.2527e-06
6.04937e-07 -4.2527e-06 -0.000659185
0.00194152 6.24118e-05 -7.5166e-06
6.24118e-05 0.000640558 3.72878e-07
-7.5166e-06 3.72878e-07 0.000499091
0.0049875 -5.10719e-05 -1.54025e-05
-5.10719e-05 0.0022591 -1.06981e-06
-1.54025e-05 -1.06981e-06 0.0022126
0.000929368 0.000183991 -5.56751e-05
0.000183991 -0.00031077 1.0154e-05
-5.56751e-05 1.0154e-05 -0.000551687
0.00117221 -0.000255476 9.93903e-06
-0.000255476 -0.000297188 1.04218e-05
9.93903e-06 1.04218e-05 -0.00130848
0.00452067 -0.000404835 -4.37359e-05
-0.000404835 0.00111135 -1.65685e-05
-4.37359e-05 -1.65685e-05 0.00121558
0.000642964 -5.4859e-05 9.59029e-07
-5.4859e-05 -0.000604574 -4.68708e-06
9.59029e-07 -4.68708e-06 -0.000471979
0.00107324 5.01455e-05 2.29684e-07
5.01455e-05 0.000106505 7.60015e-07
2.29684e-07 7.60015e-07 1.96965e-05
0.0011024 5.88401e-05 9.65033e-07
5.88401e-05 0.000113035 5.5773e-07
9.65033e-07 5.5773e-07 2.63831e-05
0.000648819 5.39044e-05 1.5397e-06
5.39044e-05 -9.31731e-05 -3.38975e-07
1.5397e-06 -3.38975e-07 -0.000184625
0.000805783 1.2924e-05 1.98171e-07
1.2924e-05 -3.8443e-05 -4.11773e-07
1.98171e-07 -4.11773e-07 -8.3171e-05
0.00099784 2.32525e-05 -3.94316e-08
2.32525e-05 6.80143e-05 -4.7939e-07
-3.94316e-08 -4.7939e-07 1.13646e-05
0.00115836 -2.63862e-05 2.84591e-07
-2.63862e-05 0.000149854 -1.49566e-08
2.84591e-07 -1.49566e-08 8.51912e-05
0.000936664 1.907e-05 -3.03718e-07
1.907e-05 4.39471e-05 -5.83144e-07
-3.03718e-07 -5.83144e-07 -2.54641e-05
0.000957341 3.73553e-05 -1.64092e-07
3.73553e-05 4.96849e-05 -2.56971e-08
-1.64092e-07 -2.56971e-08 -2.99547e-05
0.000993671 6.98801e-06 3.78304e-07
6.98801e-06 6.48889e-05 -3.59092e-07
3.78304e-07 -3.59092e-07 9.17312e-06
0.000997721 1.78144e-05 -1.28826e-07
1.78144e-05 6.87119e-05 -1.72487e-07
-1.28826e-07 -1.72487e-07 -3.27166e-06
0.000976622 -2.40347e-05 9.33979e-08
-2.40347e-05 5.4905e-05 -6.14642e-08
9.33979e-08 -6.14642e-08 -8.20646e-06
0.00107885 4.16845e-05 9.82956e-09
4.16845e-05 0.000117919 4.51634e-07
9.82956e-09 4.51634e-07 3.32269e-05
0.0013215 -7.75068e-06 -1.35522e-07
-7.75068e-06 0.000238306 -3.54829e-07
-1.35522e-07 -3.54829e-07 0.000151402
0.0010528 8.25469e-06 -4.70683e-07
8.25469e-06 9.43732e-05 6.69459e-07
-4.70683e-07 6.69459e-07 2.03576e-05
0.000996691 6.9076e-06 1.51236e-07
6.9076e-06 6.72343e-05 2.23899e-07
1.51236e-07 2.23899e-07 3.6482e-06
0.00100609 -1.5499e-05 1.42214e-07
-1.5499e-05 7.17137e-05 -3.54116e-07
1.42214e-07 -3.54116e-07 1.679e-05
0.000901471 8.0319e-06 -1.8641e-07
8.0319e-06 1.52708e-05 -9.96904e-07
-1.8641e-07 -9.96904e-07 -4.71756e-05
0.000987376 5.61994e-06 3.00743e-07
5.61994e-06 6.2256e-05 3.09528e-08
3.00743e-07 3.09528e-08 -9.25171e-07
0.000971273 1.80873e-05 4.65958e-08
1.80873e-05 5.44716e-05 3.55051e-08
4.65958e-08 3.55051e-08 -9.37857e-06
0.00103238 1.74339e-05 -3.87704e-07
1.74339e-05 7.84155e-05 -7.34673e-07
-3.87704e-07 -7.34673e-07 1.05891e-05
0.000944755 6.84111e-06 6.0555e-08
6.84111e-06 4.44425e-05 1.1421e-06
6.0555e-08 1.1421e-06 -2.24181e-05
0.00104863 2.30485e-05 2.44789e-07
2.30485e-05 8.92654e-05 7.02741e-08
2.44789e-07 7.02741e-08 2.03298e-05
0.000928432 1.30111e-06 5.43589e-09
1.30111e-06 2.29117e-05 3.41485e-07
5.43589e-09 3.41485e-07 -4.83714e-05
0.000978264 -2.33454e-05 6.201e-07
-2.33454e-05 6.73449e-05 -1.77805e-07
6.201e-07 -1.77805e-07 -1.55946e-05
0.00080776 -4.72481e-05 2.06229e-07
-4.72481e-05 7.59329e-06 1.477e-08
2.06229e-07 1.477e-08 -8.45086e-05
0.000848577 -2.20555e-05 -5.61171e-07
-2.20555e-05 1.01641e-05 -2.18592e-07
-5.61171e-07 -2.18592e-07 -6.92925e-05
0.000973109 -9.84101e-06 5.47994e-08
-9.84101e-06 6.73414e-05 3.1964e-07
5.47994e-08 3.1964e-07 -6.06746e-06
0.000960918 -4.81267e-06 -9.54163e-08
-4.81267e-06 5.15824e-05 1.28763e-06
-9.54163e-08 1.28763e-06 -9.40262e-06
0.000959964 1.9291e-07 -7.99052e-08
1.9291e-07 4.88129e-05 -7.73217e-08
-7.99052e-08 -7.73217e-08 -8.10415e-06
0.000934756 1.32365e-05 -2.98832e-07
1.32365e-05 2.95683e-05 8.03016e-07
-2.98832e-07 8.03016e-07 -1.43077e-05
0.000947021 7.53565e-06 3.24761e-07
7.53565e-06 4.1813e-05 -4.54719e-07
3.24761e-07 -4.54719e-07 -1.28374e-05
0.000932884 4.68595e-06 5.31337e-08
4.68595e-06 2.75289e-05 1.50276e-08
5.31337e-08 1.50276e-08 -1.51232e-05
0.000902815 1.21129e-05 -6.39747e-07
1.21129e-05 4.89441e-06 1.5695e-06
-6.39747e-07 1.5695e-06 -2.10677e-05
0.000794367 1.45911e-05 1.56513e-07
1.45911e-05 -4.51539e-05 -6.92471e-07
1.56513e-07 -6.92471e-07 -8.78742e-05
0.000904586 5.35326e-06 -8.40935e-08
5.35326e-06 3.69468e-06 -1.21541e-08
-8.40935e-08 -1.21541e-08 -2.13671e-05
0.00141213 1.22399e-05 -3.93391e-06
1.22399e-05 0.000260127 4.07707e-06
-3.93391e-06 4.07707e-06 0.000263833
0.000897578 -2.2892e-06 6.46896e-07
-2.2892e-06 -2.73789e-07 -1.5252e-06
6.46896e-07 -1.5252e-06 -2.4996e-05
0.00113116 8.09573e-06 -1.54284e-06
8.09573e-06 0.000111873 5.84594e-07
-1.54284e-06 5.84594e-07 0.00011461
0.00100062 7.48738e-06 -7.41627e-07
7.48738e-06 4.28523e-05 1.46204e-06
-7.41627e-07 1.46204e-06 6.12709e-05
0.000850198 3.8659e-06 3.64129e-07
3.8659e-06 -3.57944e-05 -2.91308e-06
3.64129e-07 -2.91308e-06 -3.42055e-05
0.00214059 4.45097e-06 1.36457e-06
4.45097e-06 0.000634313 1.0186e-08
1.36457e-06 1.0186e-08 0.000658177
0.00213815 -3.66271e-07 1.07076e-06
-3.66271e-07 0.000632706 -3.85104e-06
1.07076e-06 -3.85104e-06 0.000656642
0.00117369 1.93737e-05 -6.95595e-07
1.93737e-05 0.000153509 -6.02297e-07
-6.95595e-07 -6.02297e-07 0.000113853
0.000913691 -2.23657e-06 -1.44343e-07
-2.23657e-06 5.58017e-06 -1.5937e-06
-1.44343e-07 -1.5937e-06 -1.65378e-05
0.000934661 4.09416e-06 5.63282e-07
4.09416e-06 3.1105e-05 4.73197e-07
5.63282e-07 4.73197e-07 -8.97813e-06
0.000858996 6.07431e-08 -2.51359e-08
6.07431e-08 -3.25353e-05 -3.01772e-06
-2.51359e-08 -3.01772e-06 -2.85937e-05
0.000913885 -2.34577e-07 1.53147e-08
-2.34577e-07 4.95109e-06 -4.53546e-09
1.53147e-08 -4.53546e-09 -1.66e-05
0.000908863 2.2315e-06 -2.81086e-07
2.2315e-06 2.30585e-06 1.6327e-06
-2.81086e-07 1.6327e-06 -1.95157e-05
0.000856125 4.20804e-06 -1.18283e-07
4.20804e-06 -3.35049e-05 4.43165e-09
-1.18283e-07 4.43165e-09 -2.98459e-05
0.00206042 5.03025e-06 2.36108e-06
5.03025e-06 0.000592742 -3.83061e-06
2.36108e-06 -3.83061e-06 0.000617521
0.00136784 1.00232e-05 -8.35134e-07
1.00232e-05 0.000234144 1.85038e-06
-8.35134e-07 1.85038e-06 0.000239548
0.00155437 9.22084e-06 1.59867e-06
9.22084e-06 0.000331535 2.31098e-08
1.59867e-06 2.31098e-08 0.00035306
0.00108249 1.14807e-05 -9.54609e-06
1.14807e-05 8.92289e-05 6.18952e-06
-9.54609e-06 6.18952e-06 0.00010702
-0.00285007 7.64599e-05 -5.05867e-05
7.64599e-05 -0.00168506 1.12156e-05
-5.05867e-05 1.12156e-05 -0.00162232
-0.00136627 0.000113248 -7.81466e-06
0.000113248 -0.00121708 8.03804e-06
-7.81466e-06 8.03804e-06 -0.00100948
0.00122363 -7.05127e-05 -6.38007e-05
-7.05127e-05 8.24757e-06 -9.94923e-06
-6.38007e-05 -9.94923e-06 -0.000191996
0.00206324 -3.09168e-05 -9.38775e-07
-3.09168e-05 0.000333848 -8.51419e-07
-9.38775e-07 -8.51419e-07 0.000265045
0.00153172 2.93556e-05 -1.26985e-05
2.93556e-05 -6.38526e-05 -2.44816e-07
-1.26985e-05 -2.44816e-07 -0.000158835
0.00101241 -2.48213e-05 2.30908e-05
-2.48213e-05 3.91875e-05 -1.77525e-06
2.30908e-05 -1.77525e-06 -0.000127779
0.0018463 5.19702e-05 1.75806e-06
5.19702e-05 0.0002295 1.50702e-06
1.75806e-06 1.50702e-06 0.000150512
0.00482679 0.00018855 -2.94371e-05
0.00018855 0.0013175 -1.41808e-06
-2.94371e-05 -1.41808e-06 0.000696685
-0.00261839 0.000157129 -3.75849e-07
0.000157129 -0.00120745 -3.52439e-06
-3.75849e-07 -3.52439e-06 -0.00117151
0.000342797 0.000276883 4.02273e-06
0.000276883 -0.000594278 -5.47728e-06
4.02273e-06 -5.47728e-06 2.36332e-05
0.00105285 3.67822e-05 3.27991e-05
3.67822e-05 0.000131005 -1.26558e-05
3.27991e-05 -1.26558e-05 -9.28976e-05
0.00601227 0.000320496 -1.04536e-05
0.000320496 0.00183146 5.37965e-06
-1.04536e-05 5.37965e-06 0.00110377
-5.17223e-05 0.0002743 -5.27546e-05
0.0002743 -0.000185044 3.22616e-05
-5.27546e-05 3.22616e-05 -1.89655e-05
0.00230653 0.00016615 -1.60612e-05
0.00016615 0.00012357 1.19414e-05
-1.60612e-05 1.19414e-05 0.000573326
0.000894606 2.82269e-05 -4.37213e-07
2.82269e-05 2.86876e-05 -4.88352e-07
-4.37213e-07 -4.88352e-07 -3.80066e-05
0.000850626 1.28212e-07 6.93772e-08
1.28212e-07 -1.10048e-06 -4.23242e-07
6.93772e-08 -4.23242e-07 -5.3701e-05
0.000938352 -2.88745e-05 -7.00257e-07
-2.88745e-05 3.28102e-05 8.82899e-07
-7.00257e-07 8.82899e-07 -7.09285e-06
0.000821788 1.23444e-05 2.06247e-08
1.23444e-05 -1.60226e-05 4.46932e-07
2.06247e-08 4.46932e-07 -6.93614e-05
0.000979149 4.11231e-05 5.91546e-07
4.11231e-05 7.23047e-05 8.92064e-07
5.91546e-07 8.92064e-07 9.90248e-06
0.0010175 3.14952e-05 -3.71261e-07
3.14952e-05 9.1943e-05 -2.37014e-07
-3.71261e-07 -2.37014e-07 2.56594e-05
0.000959927 2.74521e-05 9.08628e-07
2.74521e-05 5.92944e-05 1.00368e-06
9.08628e-07 1.00368e-06 -2.2856e-06
0.000942448 1.77473e-06 6.4236e-07
1.77473e-06 4.71726e-05 -1.51591e-07
6.4236e-07 -1.51591e-07 -1.2811e-05
0.000912847 -1.37488e-05 2.4024e-07
-1.37488e-05 3.22158e-05 -5.25678e-07
2.4024e-07 -5.25678e-07 -2.3488e-05
0.000822587 -2.64801e-05 -4.10688e-07
-2.64801e-05 -1.46675e-05 8.99713e-07
-4.10688e-07 8.99713e-07 -6.83236e-05
0.0020293 2.50909e-05 -2.85836e-06
2.50909e-05 0.000161114 1.85057e-06
-2.85836e-06 1.85057e-06 8.91273e-05
0.00161706 -0.000111143 -1.29141e-05
-0.000111143 -0.000120215 1.85463e-06
-1.29141e-05 1.85463e-06 -0.000168269
-0.000394574 -6.80175e-05 5.65942e-07
-6.80175e-05 -0.000781238 4.41677e-06
5.65942e-07 4.41677e-06 -0.000897451
0.00128805 -0.000104307 5.02587e-07
-0.000104307 0.000231605 9.11556e-07
5.02587e-07 9.11556e-07 9.57418e-05
0.00110762 -3.91991e-05 8.6058e-07
-3.91991e-05 0.000159302 -1.30755e-07
8.6058e-07 -1.30755e-07 3.64309e-05
0.00103379 -3.7876e-05 -2.61025e-07
-3.7876e-05 9.53024e-05 1.53965e-07
-2.61025e-07 1.53965e-07 9.78455e-06
0.000947213 -3.14011e-05 -6.1994e-07
-3.14011e-05 5.41441e-05 3.86008e-07
-6.1994e-07 3.86008e-07 -1.69035e-05
0.000951889 1.97768e-05 -1.9128e-07
1.97768e-05 5.72792e-05 6.26549e-07
-1.9128e-07 6.26549e-07 -1.18324e-05
0.00201644 -4.75633e-05 -4.83966e-06
-4.75633e-05 7.99718e-05 1.17533e-06
-4.83966e-06 1.17533e-06 4.14886e-05
0.000868741 -2.02316e-05 -1.63621e-07
-2.02316e-05 1.61295e-05 1.41627e-08
-1.63621e-07 1.41627e-08 -6.08188e-05
0.000950425 -3.93012e-05 4.89478e-07
-3.93012e-05 5.2572e-05 -5.03246e-07
4.89478e-07 -5.03246e-07 -3.1008e-05
0.00197514 -0.000163498 2.5894e-06
-0.000163498 0.000221696 1.31742e-07
2.5894e-06 1.31742e-07 0.000101508
0.000627779 -9.57372e-05 5.93962e-07
-9.57372e-05 -0.000107717 2.73078e-06
5.93962e-07 2.73078e-06 -0.000237102
0.00116816 -6.70536e-05 8.87101e-07
-6.70536e-05 0.000194674 -1.47969e-07
8.87101e-07 -1.47969e-07 4.6398e-05
0.00116188 -2.57227e-05 -2.55797e-07
-2.57227e-05 0.000165707 -3.49448e-07
-2.55797e-07 -3.49448e-07 6.08125e-05
0.00279988 -0.000135023 4.4808e-06
-0.000135023 0.000548755 -4.46889e-07
4.4808e-06 -4.46889e-07 0.000550352
0.00217184 -0.000170759 -1.23627e-06
-0.000170759 0.00060454 -3.59644e-06
-1.23627e-06 -3.59644e-06 0.000441966
0.000918386 6.76159e-07 -1.52429e-06
6.76159e-07 8.26908e-05 1.76363e-07
-1.52429e-06 1.76363e-07 -6.21171e-05
0.000935238 3.4817e-05 2.70997e-07
3.4817e-05 5.14236e-05 5.49545e-07
2.70997e-07 5.49545e-07 -2.71589e-05
0.000960817 -5.78118e-05 8.46872e-07
-5.78118e-05 5.65674e-05 -2.30246e-07
8.46872e-07 -2.30246e-07 -2.93696e-05
0.00110185 -1.21707e-05 3.81763e-07
-1.21707e-05 0.000115144 4.64759e-07
3.81763e-07 4.64759e-07 2.3657e-05
0.00122766 -8.30737e-06 -1.2184e-05
-8.30737e-06 0.000448068 -9.95249e-09
-1.2184e-05 -9.95249e-09 0.000427106
0.00128529 -1.14961e-05 8.85879e-06
-1.14961e-05 0.000392774 -1.06722e-06
8.85879e-06 -1.06722e-06 0.000247141
0.000355325 9.76742e-05 -3.83483e-05
9.76742e-05 -0.000696974 5.08653e-06
-3.83483e-05 5.08653e-06 -0.00121136
0.000999989 6.38047e-05 1.60936e-07
6.38047e-05 7.81159e-05 2.43246e-08
1.60936e-07 2.43246e-08 -1.35591e-05
0.00131931 6.80587e-05 2.00924e-06
6.80587e-05 0.000267451 -5.82811e-09
2.00924e-06 -5.82811e-09 0.000161331
0.00236624 0.000142609 -2.62061e-06
0.000142609 0.000351969 -6.40483e-08
-2.62061e-06 -6.40483e-08 0.00033378
0.000640286 8.03416e-05 2.14411e-06
8.03416e-05 -3.52912e-05 -3.74159e-06
2.14411e-06 -3.74159e-06 -0.000224002
0.00365535 -0.00020645 4.6164e-05
-0.00020645 0.00149036 7.44458e-06
4.6164e-05 7.44458e-06 0.00149308
0.000565474 -0.000221448 2.88224e-05
-0.000221448 -0.000608679 2.9795e-05
2.88224e-05 2.9795e-05 -0.00121969
0.0037 2.11453e-05 -6.85584e-05
2.11453e-05 0.000412804 -5.31702e-05
-6.85584e-05 -5.31702e-05 0.000114135
0.000214008 8.64786e-05 3.87468e-06
8.64786e-05 -0.000492859 4.46911e-07
3.87468e-06 4.46911e-07 -0.000469513
-0.00174081 -0.000242262 5.52574e-05
-0.000242262 -0.00107917 2.80396e-05
5.52574e-05 2.80396e-05 -0.00100827
0.00205997 -0.000145403 1.58378e-05
-0.000145403 0.000750599 1.06316e-05
1.58378e-05 1.06316e-05 0.000936434
0.00185277 -0.000203961 1.50655e-05
-0.000203961 -0.000138532 9.70611e-06
1.50655e-05 9.70611e-06 0.000360021
0.00111903 3.9679e-05 -1.01041e-07
3.9679e-05 0.000122408 1.30336e-07
-1.01041e-07 1.30336e-07 3.29354e-05
0.000540245 -5.10622e-05 -5.82548e-06
-5.10622e-05 5.19182e-05 -3.48235e-07
-5.82548e-06 -3.48235e-07 7.01907e-05
0.00112404 -6.61621e-06 -3.0145e-06
-6.61621e-06 3.70188e-05 -4.99781e-06
-3.0145e-06 -4.99781e-06 -3.17804e-06
0.000825824 0.000116601 -1.69311e-06
0.000116601 -4.74171e-05 1.83344e-07
-1.69311e-06 1.83344e-07 -0.000205665
0.000851715 3.65052e-05 -2.89558e-07
3.65052e-05 0.000112287 -1.24494e-08
-2.89558e-07 -1.24494e-08 -3.56931e-05
0.00252112 7.26874e-06 1.91028e-05
7.26874e-06 0.000970516 -1.47865e-06
1.91028e-05 -1.47865e-06 0.000876702
0.00426672 0.000282999 -3.0894e-05
0.000282999 0.00104034 -1.77079e-05
-3.0894e-05 -1.77079e-05 0.000622536
0.00665708 -0.000283055 7.91832e-07
-0.000283055 0.00196781 4.88772e-06
7.91832e-07 4.88772e-06 0.00110171
3.07355e-05 -0.000264338 7.33285e-06
-0.000264338 -0.000760261 1.47212e-05
7.33285e-06 1.47212e-05 -0.000719005
0.00203013 -7.69355e-05 -1.57514e-07
-7.69355e-05 0.000161963 7.42573e-07
-1.57514e-07 7.42573e-07 0.000377997
0.00150653 7.76856e-05 -1.03119e-06
7.76856e-05 0.000373037 -3.38828e-06
-1.03119e-06 -3.38828e-06 0.000293911
0.00179896 1.02194e-05 4.21697e-06
1.02194e-05 0.00058298 2.08399e-06
4.21697e-06 2.08399e-06 0.000515413
0.00109493 1.37921e-05 4.08002e-06
1.37921e-05 9.95299e-05 -3.46574e-06
4.08002e-06 -3.46574e-06 1.31533e-05
0.000509862 -4.63498e-05 -1.03248e-05
-4.63498e-05 4.85245e-05 1.83178e-06
-1.03248e-05 1.83178e-06 -9.44002e-05
0.00122715 0.000147056 -2.33772e-05
0.000147056 0.000409748 4.33868e-05
-2.33772e-05 4.33868e-05 0.00012565
0.00683971 -0.000164467 -1.02595e-05
-0.000164467 0.00168504 -1.90492e-05
-1.02595e-05 -1.90492e-05 0.000662847
-0.000259374 -0.00014714 -3.87219e-05
-0.00014714 -0.00136443 -4.51115e-05
-3.87219e-05 -4.51115e-05 -0.0012228
0.00243844 2.04483e-05 4.28361e-07
2.04483e-05 0.00042995 5.66094e-06
4.28361e-07 5.66094e-06 0.00061748
0.000960015 5.47832e-05 1.80182e-07
5.47832e-05 4.11314e-05 -1.55688e-07
1.80182e-07 -1.55688e-07 -4.61612e-05
0.00108203 6.57217e-05 4.48071e-07
6.57217e-05 0.00011912 -8.19234e-08
4.48071e-07 -8.19234e-08 2.98163e-05
0.000861455 4.67172e-05 -9.83259e-07
4.67172e-05 9.06674e-06 -1.92971e-06
-9.83259e-07 -1.92971e-06 -7.82636e-05
0.000991984 4.32155e-05 -4.11901e-07
4.32155e-05 6.38564e-05 -6.43784e-07
-4.11901e-07 -6.43784e-07 8.25318e-06
0.000960169 -1.33902e-05 4.15978e-07
-1.33902e-05 4.71338e-05 -2.98195e-07
4.15978e-07 -2.98195e-07 -1.63417e-05
0.0010345 1.4697e-05 -2.6185e-07
1.4697e-05 8.97422e-05 -2.18873e-07
-2.6185e-07 -2.18873e-07 1.82694e-05
0.00103239 2.98208e-05 3.16505e-07
2.98208e-05 9.53424e-05 2.71734e-08
3.16505e-07 2.71734e-08 1.06435e-05
0.00100664 1.71746e-05 2.66134e-07
1.71746e-05 7.11083e-05 -4.84871e-09
2.66134e-07 -4.84871e-09 8.24152e-06
0.00104691 8.72086e-06 -1.4046e-07
8.72086e-06 9.04808e-05 3.91391e-07
-1.4046e-07 3.91391e-07 1.74736e-05
0.0010911 1.5597e-06 2.4178e-07
1.5597e-06 0.000127127 -2.91956e-07
2.4178e-07 -2.91956e-07 3.73433e-05
0.00137076 -1.58539e-05 -6.50802e-07
-1.58539e-05 0.000272154 -3.80888e-07
-6.50802e-07 -3.80888e-07 0.000189306
0.00106103 -3.66355e-05 2.97602e-07
-3.66355e-05 8.99036e-05 2.97047e-07
2.97602e-07 2.97047e-07 1.04446e-05
0.00102726 3.26553e-05 6.79673e-07
3.26553e-05 7.95405e-05 4.96857e-07
6.79673e-07 4.96857e-07 9.6105e-06
0.000992512 -3.57316e-06 5.29412e-07
-3.57316e-06 6.36385e-05 -4.34883e-07
5.29412e-07 -4.34883e-07 1.2725e-06
0.000958212 1.79403e-05 1.31908e-07
1.79403e-05 4.82776e-05 -6.01846e-07
1.31908e-07 -6.01846e-07 -1.56571e-05
0.00100077 1.18062e-05 -6.48031e-07
1.18062e-05 5.90672e-05 -1.31481e-06
-6.48031e-07 -1.31481e-06 -8.15942e-06
0.00106797 2.22501e-05 -2.5716e-07
2.22501e-05 9.7787e-05 -4.05552e-07
-2.5716e-07 -4.05552e-07 2.95175e-05
0.000960261 1.02159e-05 1.04904e-07
1.02159e-05 5.36487e-05 3.60374e-07
1.04904e-07 3.60374e-07 -1.36974e-05
0.000975367 1.16022e-05 -4.29096e-09
1.16022e-05 4.54594e-05 -1.54959e-07
-4.29096e-09 -1.54959e-07 -2.52323e-05
0.000974407 -8.14276e-06 3.95469e-07
-8.14276e-06 5.15976e-05 7.60869e-07
3.95469e-07 7.60869e-07 -2.43164e-05
0.00103391 -2.50538e-06 3.07696e-07
-2.50538e-06 6.99041e-05 2.11556e-07
3.07696e-07 2.11556e-07 -2.38389e-06
0.000948941 -4.79673e-05 3.30557e-07
-4.79673e-05 5.26198e-05 2.90988e-08
3.30557e-07 2.90988e-08 -3.49153e-05
0.00106144 -2.80513e-05 -2.08791e-07
-2.80513e-05 0.00010906 -2.93005e-08
-2.08791e-07 -2.93005e-08 2.61891e-05
0.000794267 -4.47201e-05 -6.18423e-08
-4.47201e-05 7.26519e-07 1.39836e-06
-6.18423e-08 1.39836e-06 -9.07139e-05
0.00107229 -7.03301e-05 -1.13169e-06
-7.03301e-05 0.000124054 1.92067e-06
-1.13169e-06 1.92067e-06 2.4589e-05
0.00111449 -4.69378e-05 4.13975e-07
-4.69378e-05 0.000146386 -1.0029e-06
4.13975e-07 -1.0029e-06 6.37748e-05
0.000836025 -5.00248e-05 2.36239e-07
-5.00248e-05 2.52406e-05 -1.37774e-06
2.36239e-07 -1.37774e-06 -6.42482e-05
0.000976937 -2.45353e-05 9.72902e-09
-2.45353e-05 7.49335e-05 -6.12736e-07
9.72902e-09 -6.12736e-07 -3.60362e-06
0.000847372 -1.07557e-05 -1.52826e-07
-1.07557e-05 -4.14213e-06 9.45389e-07
-1.52826e-07 9.45389e-07 -7.21759e-05
0.000992792 -1.03959e-05 -2.16086e-07
-1.03959e-05 7.7719e-05 -2.80077e-07
-2.16086e-07 -2.80077e-07 4.22224e-06
0.000966097 -6.18173e-06 1.24381e-08
-6.18173e-06 5.44024e-05 4.30833e-07
1.24381e-08 4.30833e-07 -6.75767e-06
0.000925947 1.2841e-05 -2.26784e-07
1.2841e-05 2.62695e-05 1.02399e-06
-2.26784e-07 1.02399e-06 -2.05935e-05
0.000954747 -1.1794e-05 1.73205e-07
-1.1794e-05 4.77769e-05 -7.6129e-07
1.73205e-07 -7.6129e-07 -1.00184e-05
0.000923715 4.53111e-06 -2.34157e-07
4.53111e-06 2.45194e-05 -2.99788e-08
-2.34157e-07 -2.99788e-08 -1.95769e-05
0.00089667 1.40695e-05 -7.85963e-07
1.40695e-05 4.90107e-06 1.58651e-06
-7.85963e-07 1.58651e-06 -2.24677e-05
0.000933217 4.8632e-06 7.01854e-07
4.8632e-06 2.7689e-05 -7.85155e-07
7.01854e-07 -7.85155e-07 -1.50667e-05
0.00090337 7.44455e-06 -1.58067e-07
7.44455e-06 4.80882e-06 -5.55052e-09
-1.58067e-07 -5.55052e-09 -2.10691e-05
0.0014085 1.6284e-05 -5.37694e-06
1.6284e-05 0.000261705 4.09755e-06
-5.37694e-06 4.09755e-06 0.000264665
0.000903571 -2.44664e-07 9.23062e-07
-2.44664e-07 3.05998e-06 -1.54211e-06
9.23062e-07 -1.54211e-06 -2.19594e-05
0.00112653 1.19804e-05 -2.05242e-06
1.19804e-05 0.0001119 5.68051e-07
-2.05242e-06 5.68051e-07 0.000114239
0.000995434 1.15857e-05 -1.23846e-06
1.15857e-05 4.32604e-05 1.46996e-06
-1.23846e-06 1.46996e-06 6.11693e-05
0.000847088 7.51239e-06 6.39054e-07
7.51239e-06 -3.61107e-05 -2.93664e-06
6.39054e-07 -2.93664e-06 -3.46657e-05
0.00157027 9.00707e-06 3.13981e-06
9.00707e-06 0.00033903 -1.15452e-06
3.13981e-06 -1.15452e-06 0.000360069
0.00213675 4.93759e-06 4.02944e-06
4.93759e-06 0.000632586 -3.81373e-06
4.02944e-06 -3.81373e-06 0.000656441
0.000998608 -1.03405e-05 3.68602e-07
-1.03405e-05 6.40656e-05 -7.5211e-07
3.68602e-07 -7.5211e-07 2.04275e-05
0.000913666 -4.65178e-06 -2.45668e-07
-4.65178e-06 6.83005e-06 -1.50943e-06
-2.45668e-07 -1.50943e-06 -1.64326e-05
0.000978171 5.05911e-08 3.47795e-07
5.05911e-08 5.33323e-05 9.80974e-08
3.47795e-07 9.80974e-08 1.25486e-05
0.000862771 -3.82358e-06 -3.4376e-07
-3.82358e-06 -2.97971e-05 -3.01182e-06
-3.4376e-07 -3.01182e-06 -2.63341e-05
0.00091291 -2.71662e-06 -5.58821e-08
-2.71662e-06 5.12757e-06 -8.76916e-09
-5.58821e-08 -8.76916e-09 -1.69811e-05
0.000942933 -1.15431e-05 -5.7101e-07
-1.15431e-05 3.42234e-05 1.20345e-06
-5.7101e-07 1.20345e-06 -4.99643e-06
0.00205613 -3.50139e-08 -7.80797e-07
-3.50139e-08 0.000590123 -3.85843e-06
-7.80797e-07 -3.85843e-06 0.000615018
0.0008573 2.11351e-07 -7.40323e-08
2.11351e-07 -3.3445e-05 -4.69319e-09
-7.40323e-08 -4.69319e-09 -2.94896e-05
0.00091137 -7.14595e-07 -8.27613e-08
-7.14595e-07 3.62187e-06 1.64751e-06
-8.27613e-08 1.64751e-06 -1.79164e-05
0.000859726 4.32998e-06 -3.58905e-07
4.32998e-06 -3.1634e-05 3.00079e-06
-3.58905e-07 3.00079e-06 -2.80093e-05
0.0020632 5.24463e-06 -1.46018e-06
5.24463e-06 0.000594353 -9.44986e-09
-1.46018e-06 -9.44986e-09 0.000619071
0.00208485 1.00941e-05 -7.17689e-06
1.00941e-05 0.00060715 3.80682e-06
-7.17689e-06 3.80682e-06 0.000631381
-0.00108673 2.19351e-05 -5.58812e-06
2.19351e-05 -0.000875532 -6.76545e-07
-5.58812e-06 -6.76545e-07 -0.000915544
-0.000847211 0.000136134 2.27596e-05
0.000136134 -0.000534084 -1.07937e-06
2.27596e-05 -1.07937e-06 -0.000584427
0.000953857 1.58548e-05 -8.1504e-06
1.58548e-05 -0.000132037 7.4515e-06
-8.1504e-06 7.4515e-06 -0.000132992
-0.00121381 0.000126987 5.56519e-06
0.000126987 -0.00101762 -9.38805e-07
5.56519e-06 -9.38805e-07 -0.000807443
0.00209057 2.94247e-05 -7.53318e-05
2.94247e-05 0.000440759 -5.47444e-06
-7.53318e-05 -5.47444e-06 0.000195197
0.00182724 5.16286e-05 1.029e-05
5.16286e-05 0.000223763 -2.16329e-06
1.029e-05 -2.16329e-06 0.000141799
0.00108139 -1.29642e-05 -2.77253e-05
-1.29642e-05 -0.000326491 1.73185e-06
-2.77253e-05 1.73185e-06 -0.000799892
0.00434303 0.000243325 9.34165e-05
0.000243325 0.00201432 -2.90461e-05
9.34165e-05 -2.90461e-05 0.00203456
-0.000619424 0.000295591 1.46783e-05
0.000295591 -0.00124673 -7.76611e-06
1.46783e-05 -7.76611e-06 -0.000572889
0.00135451 6.65032e-05 -2.03579e-06
6.65032e-05 9.68997e-05 3.95164e-06
-2.03579e-06 3.95164e-06 -9.81418e-05
0.00257925 0.00021074 6.43231e-06
0.00021074 0.000324186 -8.7979e-06
6.43231e-06 -8.7979e-06 -0.000587162
0.0030073 0.000390369 1.29609e-06
0.000390369 0.000865064 -1.07643e-06
1.29609e-06 -1.07643e-06 0.000950161
0.00172968 0.00015894 -3.12187e-06
0.00015894 -0.000235749 1.08043e-06
-3.12187e-06 1.08043e-06 0.000231897
0.00191339 6.24843e-05 -5.03824e-06
6.24843e-05 0.000332279 -6.6739e-09
-5.03824e-06 -6.6739e-09 8.75761e-05
0.00345632 0.000271075 3.22283e-05
0.000271075 0.000764954 -2.00721e-05
3.22283e-05 -2.00721e-05 -0.000235811
-0.00245812 0.000242622 -6.00878e-05
0.000242622 -0.00216195 4.2195e-05
-6.00878e-05 4.2195e-05 -0.00202719
0.000841089 6.77581e-05 -1.12334e-06
6.77581e-05 -0.000578474 5.60349e-06
-1.12334e-06 5.60349e-06 -0.000387885
0.00103713 -3.40982e-06 8.18453e-07
-3.40982e-06 0.000102837 -3.11906e-07
8.18453e-07 -3.11906e-07 2.80811e-05
0.000975996 2.86989e-05 -9.01811e-07
2.86989e-05 6.99031e-05 -3.13865e-07
-9.01811e-07 -3.13865e-07 4.4714e-06
0.000935975 7.35047e-06 4.18151e-07
7.35047e-06 4.16797e-05 2.16738e-08
4.18151e-07 2.16738e-08 -1.00703e-05
0.000950693 4.36691e-05 1.2881e-06
4.36691e-05 5.89448e-05 1.19807e-06
1.2881e-06 1.19807e-06 -2.73903e-06
0.000916048 9.53102e-06 -2.18047e-07
9.53102e-06 3.80979e-05 2.09893e-08
-2.18047e-07 2.09893e-08 -3.41422e-05
0.00104249 3.1289e-05 1.97443e-07
3.1289e-05 0.000104864 5.09868e-07
1.97443e-07 5.09868e-07 3.90458e-05
0.000931695 3.43388e-06 -3.24951e-07
3.43388e-06 4.34617e-05 1.52163e-06
-3.24951e-07 1.52163e-06 -1.71028e-05
0.0010643 4.12496e-05 -8.42264e-07
4.12496e-05 0.000109589 -3.15242e-07
-8.42264e-07 -3.15242e-07 4.67136e-05
0.00103946 1.96655e-05 -1.77845e-07
1.96655e-05 9.81067e-05 4.3895e-07
-1.77845e-07 4.3895e-07 3.7881e-05
0.000847161 -1.87014e-05 -7.50117e-07
-1.87014e-05 -8.42818e-07 7.3277e-08
-7.50117e-07 7.3277e-08 -5.79531e-05
0.00125775 -4.35416e-05 -4.35317e-06
-4.35416e-05 -0.00031526 -8.49391e-07
-4.35317e-06 -8.49391e-07 -0.000356974
0.00115889 -0.000134372 -5.22025e-06
-0.000134372 -0.000177435 5.00734e-06
-5.22025e-06 5.00734e-06 -0.000290614
0.000898255 -0.000101918 5.43266e-06
-0.000101918 4.06598e-05 3.56874e-06
5.43266e-06 3.56874e-06 -8.41976e-05
0.00114771 -6.46323e-05 1.28661e-06
-6.46323e-05 0.000177488 2.96436e-07
1.28661e-06 2.96436e-07 3.41573e-05
0.00112226 -2.2271e-05 -1.64641e-07
-2.2271e-05 0.000146642 -3.33877e-07
-1.64641e-07 -3.33877e-07 3.6618e-05
0.000885392 -4.50077e-05 -3.16943e-07
-4.50077e-05 1.97411e-05 1.38068e-07
-3.16943e-07 1.38068e-07 -6.61527e-05
0.00089535 2.5455e-05 3.99837e-08
2.5455e-05 2.92073e-05 -6.41879e-08
3.99837e-08 -6.41879e-08 -4.81006e-05
0.000981797 -8.34608e-06 2.33495e-07
-8.34608e-06 7.46473e-05 6.25863e-07
2.33495e-07 6.25863e-07 -3.97052e-06
0.00186598 -0.000135649 1.73713e-06
-0.000135649 7.92345e-05 1.07349e-07
1.73713e-06 1.07349e-07 8.73683e-05
0.0010423 -5.05207e-06 -1.85957e-07
-5.05207e-06 9.91138e-05 -2.63907e-07
-1.85957e-07 -2.63907e-07 1.41855e-05
0.00119626 -2.08289e-05 -2.43956e-07
-2.08289e-05 0.000165084 -6.24413e-08
-2.43956e-07 -6.24413e-08 7.16659e-05
0.00168471 -0.000151725 -6.18355e-07
-0.000151725 0.000379668 -2.1653e-06
-6.18355e-07 -2.1653e-06 0.000204772
0.00113862 -1.40188e-05 -4.62668e-07
-1.40188e-05 0.000183431 -7.2778e-09
-4.62668e-07 -7.2778e-09 4.15277e-05
-0.000285921 -0.000125777 -6.41417e-06
-0.000125777 -0.000831838 -9.16423e-06
-6.41417e-06 -9.16423e-06 -0.000805337
0.00178469 -5.3481e-05 -2.40501e-06
-5.3481e-05 0.000540847 3.94045e-06
-2.40501e-06 3.94045e-06 0.000327362
0.000828781 3.2327e-05 -1.04864e-06
3.2327e-05 -1.78609e-05 2.36564e-06
-1.04864e-06 2.36564e-06 -0.00011823
0.000993944 2.57551e-05 6.54357e-08
2.57551e-05 6.84287e-05 -2.18524e-07
6.54357e-08 -2.18524e-07 -1.33062e-05
0.0010326 2.32397e-05 -2.69438e-07
2.32397e-05 7.66421e-05 5.30464e-07
-2.69438e-07 5.30464e-07 -1.56819e-05
0.00169093 -5.40973e-06 8.716e-06
-5.40973e-06 0.000546406 6.73401e-07
8.716e-06 6.73401e-07 0.000473972
9.01252e-05 -1.05527e-05 5.72112e-06
-1.05527e-05 -0.000186604 -5.4645e-07
5.72112e-06 -5.4645e-07 -0.000229458
-0.00330864 -2.75742e-05 6.67099e-05
-2.75742e-05 -0.00194952 3.84387e-07
6.67099e-05 3.84387e-07 -0.00197312
0.00121046 5.36923e-05 1.44583e-06
5.36923e-05 0.000176755 1.39656e-06
1.44583e-06 1.39656e-06 8.54874e-05
-0.000173273 1.52799e-05 1.85978e-06
1.52799e-05 -0.000383734 -1.40183e-06
1.85978e-06 -1.40183e-06 -0.00053705
0.00152678 0.000112989 1.64405e-06
0.000112989 0.000291319 -5.54171e-06
1.64405e-06 -5.54171e-06 0.00013154
-0.00119053 -2.56336e-05 6.46185e-06
-2.56336e-05 -0.000950006 1.92991e-06
6.46185e-06 1.92991e-06 -0.000998545
0.00225705 -0.000304262 2.48172e-05
-0.000304262 0.000114517 2.14569e-05
2.48172e-05 2.14569e-05 -0.000903789
0.0031499 0.000227118 5.80029e-05
0.000227118 0.000656044 -3.68183e-05
5.80029e-05 -3.68183e-05 0.000390546
0.000893237 4.4335e-06 2.62582e-05
4.4335e-06 6.65541e-05 1.19603e-05
2.62582e-05 1.19603e-05 -6.76771e-05
0.00436691 -0.000397017 4.35005e-05
-0.000397017 0.00120043 4.98611e-05
4.35005e-05 4.98611e-05 0.00120944
0.000951698 -2.11686e-06 9.9692e-07
-2.11686e-06 -8.12986e-05 1.73553e-06
9.9692e-07 1.73553e-06 -0.000119303
0.00133421 -6.25966e-05 2.79829e-06
-6.25966e-05 -0.000188043 3.35722e-06
2.79829e-06 3.35722e-06 -9.13918e-06
0.00103736 6.63747e-05 1.41349e-06
6.63747e-05 0.000136226 -7.19294e-07
1.41349e-06 -7.19294e-07 5.98714e-05
0.00124296 1.24357e-05 -1.48915e-06
1.24357e-05 0.000264118 2.39852e-07
-1.48915e-06 2.39852e-07 0.000198852
0.001081 1.34674e-05 -3.28011e-06
1.34674e-05 8.40279e-05 -4.82141e-06
-3.28011e-06 -4.82141e-06 -2.065e-07
-6.40144e-05 -9.6083e-06 9.40213e-06
-9.6083e-06 -0.000227001 -3.55262e-07
9.40213e-06 -3.55262e-07 -0.000381308
0.00273018 0.000224305 -3.28511e-05
0.000224305 0.000807373 -2.00678e-05
-3.28511e-05 -2.00678e-05 0.000572887
0.00559337 1.72263e-05 2.34753e-05
1.72263e-05 0.00106445 4.45985e-06
2.34753e-05 4.45985e-06 1.71989e-05
0.00153048 6.21817e-06 2.05358e-06
6.21817e-06 -6.97055e-05 -2.35952e-06
2.05358e-06 -2.35952e-06 7.12433e-05
0.00160158 -0.000226593 -2.82562e-06
-0.000226593 -0.000446443 2.45728e-05
-2.82562e-06 2.45728e-05 -0.00038209
0.000821603 3.21171e-05 -2.69613e-06
3.21171e-05 7.37262e-05 -6.83539e-06
-2.69613e-06 -6.83539e-06 1.03763e-05
0.000949323 1.35661e-05 1.16083e-05
1.35661e-05 4.79806e-05 9.03155e-06
1.16083e-05 9.03155e-06 -5.90467e-05
0.00134522 -3.67637e-06 -9.39175e-06
-3.67637e-06 0.000232993 -1.26729e-06
-9.39175e-06 -1.26729e-06 0.000121471
0.000944129 5.14747e-05 7.44843e-07
5.14747e-05 -0.000433612 -4.08461e-06
7.44843e-07 -4.08461e-06 -0.000299746
-0.00179477 4.91992e-05 -7.01107e-07
4.91992e-05 -0.000949246 -6.14551e-07
-7.01107e-07 -6.14551e-07 -0.00114286
0.00708062 -2.88302e-05 2.48807e-05
-2.88302e-05 0.00168076 1.23658e-05
2.48807e-05 1.23658e-05 0.000944374
0.000265338 2.42666e-07 3.06464e-06
2.42666e-07 -0.00108785 -6.53669e-05
3.06464e-06 -6.53669e-05 -0.000772765
0.00148387 7.85517e-05 1.58572e-06
7.85517e-05 0.000314571 2.38958e-06
1.58572e-06 2.38958e-06 0.000227569
0.00100618 5.40064e-05 -1.05216e-06
5.40064e-05 7.07673e-05 1.00887e-06
-1.05216e-06 1.00887e-06 -1.97352e-05
0.00141105 4.94644e-05 -1.17275e-06
4.94644e-05 0.000280216 -3.37546e-06
-1.17275e-06 -3.37546e-06 0.000195095
0.000991744 4.52487e-05 -1.13367e-07
4.52487e-05 6.34752e-05 -2.57808e-07
-1.13367e-07 -2.57808e-07 9.31341e-07
0.00103786 1.95151e-05 -1.04865e-07
1.95151e-05 8.52376e-05 -3.36589e-07
-1.04865e-07 -3.36589e-07 1.3166e-05
0.000876448 -6.80331e-06 7.67199e-08
-6.80331e-06 2.20466e-05 1.01463e-06
7.67199e-08 1.01463e-06 -7.11141e-05
0.00107371 3.32347e-05 -1.13957e-08
3.32347e-05 0.000101474 -1.05475e-07
-1.13957e-08 -1.05475e-07 3.26215e-05
0.00099796 -4.08304e-05 -1.17046e-07
-4.08304e-05 5.89169e-05 4.22734e-09
-1.17046e-07 4.22734e-09 -2.20909e-05
0.00112623 -3.72241e-05 1.88962e-06
-3.72241e-05 0.000145283 8.8906e-07
1.88962e-06 8.8906e-07 5.74534e-05
0.000825327 -1.28528e-05 6.84016e-08
-1.28528e-05 7.108e-06 -3.51413e-07
6.84016e-08 -3.51413e-07 -6.41498e-05
0.00104446 -2.37158e-05 -1.6255e-07
-2.37158e-05 7.18282e-05 1.44938e-07
-1.6255e-07 1.44938e-07 -2.67834e-06
0.00108723 2.27883e-05 -8.14992e-07
2.27883e-05 0.000106191 -7.40911e-07
-8.14992e-07 -7.40911e-07 3.86546e-05
0.000977612 1.37567e-05 -4.06366e-08
1.37567e-05 6.36623e-05 -3.00875e-07
-4.06366e-08 -3.00875e-07 -4.1389e-06
0.00101807 1.54945e-05 -2.86493e-07
1.54945e-05 6.61265e-05 -6.21681e-07
-2.86493e-07 -6.21681e-07 -4.11446e-06
0.00101036 -7.43221e-06 1.27388e-07
-7.43221e-06 5.79974e-05 2.83662e-08
1.27388e-07 2.83662e-08 -1.43258e-05
0.000995088 -6.93107e-06 2.01696e-07
-6.93107e-06 6.10539e-05 4.51141e-07
2.01696e-07 4.51141e-07 -1.42959e-05
0.00100224 -5.16534e-05 2.23526e-07
-5.16534e-05 8.04062e-05 9.86537e-07
2.23526e-07 9.86537e-07 -2.70283e-06
0.000934264 -4.53588e-05 1.07919e-08
-4.53588e-05 4.82489e-05 -7.69218e-07
1.07919e-08 -7.69218e-07 -3.79861e-05
0.00106709 -6.6272e-05 5.50148e-07
-6.6272e-05 0.000134241 1.01552e-06
5.50148e-07 1.01552e-06 2.76467e-05
0.0011522 -3.32107e-05 -1.58083e-07
-3.32107e-05 0.000154833 -5.37326e-07
-1.58083e-07 -5.37326e-07 7.19659e-05
0.00105342 -5.41758e-05 -1.42952e-07
-5.41758e-05 0.000126296 9.31671e-07
-1.42952e-07 9.31671e-07 3.4141e-05
0.00066928 -5.926e-05 -4.79162e-07
-5.926e-05 -7.78191e-05 1.83666e-06
-4.79162e-07 1.83666e-06 -0.000184847
0.000976251 -6.8385e-05 -2.14649e-06
-6.8385e-05 7.28735e-05 7.74287e-08
-2.14649e-06 7.74287e-08 -2.55275e-05
0.00103864 -6.37949e-05 -9.89911e-07
-6.37949e-05 0.000111354 3.67911e-07
-9.89911e-07 3.67911e-07 2.41294e-05
0.000961512 -6.61059e-05 -1.68082e-07
-6.61059e-05 7.13781e-05 -7.20881e-08
-1.68082e-07 -7.20881e-08 -2.77547e-05
0.000993024 -2.94107e-05 -3.03273e-07
-2.94107e-05 7.39119e-05 8.20717e-07
-3.03273e-07 8.20717e-07 9.42818e-07
0.00108478 -4.82368e-05 -3.68339e-07
-4.82368e-05 0.000131436 -4.13221e-07
-3.68339e-07 -4.13221e-07 4.79865e-05
0.000852713 -5.18572e-05 -9.12739e-08
-5.18572e-05 3.6955e-05 -1.63121e-06
-9.12739e-08 -1.63121e-06 -4.98455e-05
0.00110775 -2.72952e-05 -2.97442e-08
-2.72952e-05 0.000141024 -9.26939e-07
-2.97442e-08 -9.26939e-07 6.33795e-05
0.000921055 -1.16794e-05 4.59246e-08
-1.16794e-05 3.36396e-05 -2.63074e-08
4.59246e-08 -2.63074e-08 -3.33717e-05
0.000940452 8.79094e-06 -2.48207e-07
8.79094e-06 3.5703e-05 1.2729e-06
-2.48207e-07 1.2729e-06 -1.59985e-05
0.000977333 -8.71208e-06 1.50396e-07
-8.71208e-06 6.06892e-05 -4.49982e-07
1.50396e-07 -4.49982e-07 -8.79715e-07
0.000929388 9.38776e-06 -1.44019e-07
9.38776e-06 2.85241e-05 -1.12488e-07
-1.44019e-07 -1.12488e-07 -1.85092e-05
0.000885851 1.72267e-05 -9.41602e-07
1.72267e-05 3.00666e-06 1.64501e-06
-9.41602e-07 1.64501e-06 -2.64187e-05
0.000920094 4.54473e-07 4.7878e-07
4.54473e-07 2.29346e-05 -9.31368e-07
4.7878e-07 -9.31368e-07 -2.12146e-05
0.000894638 1.30896e-05 -7.49343e-08
1.30896e-05 3.44257e-06 -5.59747e-09
-7.49343e-08 -5.59747e-09 -2.38722e-05
0.00137826 2.01293e-05 -6.06514e-06
2.01293e-05 0.00025141 2.97266e-06
-6.06514e-06 2.97266e-06 0.000252985
0.000902846 3.54146e-06 9.43109e-07
3.54146e-06 4.16724e-06 -1.54323e-06
9.43109e-07 -1.54323e-06 -2.16257e-05
0.00112416 1.57807e-05 -2.5605e-06
1.57807e-05 0.000114365 5.40163e-07
-2.5605e-06 5.40163e-07 0.000115826
0.000985558 1.55132e-05 -1.74223e-06
1.55132e-05 4.24527e-05 1.47701e-06
-1.74223e-06 1.47701e-06 5.94981e-05
0.00084681 1.12028e-05 9.60689e-07
1.12028e-05 -3.37597e-05 -2.96662e-06
9.60689e-07 -2.96662e-06 -3.27497e-05
0.00156655 1.3641e-05 4.19775e-06
1.3641e-05 0.000339936 -1.11842e-06
4.19775e-06 -1.11842e-06 0.000360522
0.00213064 1.01755e-05 6.79817e-06
1.01755e-05 0.000631209 -3.76288e-06
6.79817e-06 -3.76288e-06 0.000654815
0.000773485 -4.70478e-07 -3.68619e-07
-4.70478e-07 -5.00387e-05 -1.33838e-06
-3.68619e-07 -1.33838e-06 -9.94706e-05
0.000669674 -7.81181e-06 -2.81971e-07
-7.81181e-06 -0.000115722 -2.05927e-06
-2.81971e-07 -2.05927e-06 -0.000142615
0.00101005 -3.15034e-06 -4.85147e-08
-3.15034e-06 7.05171e-05 3.34454e-08
-4.85147e-08 3.34454e-08 2.63529e-05
0.000863283 -7.56268e-06 -5.74171e-07
-7.56268e-06 -2.76639e-05 -3.01918e-06
-5.74171e-07 -3.01918e-06 -2.53095e-05
0.000789349 -5.19015e-06 3.66728e-08
-5.19015e-06 -5.66093e-05 -6.07069e-09
3.66728e-08 -6.07069e-09 -8.07259e-05
0.000781905 -2.17011e-05 -1.05676e-07
-2.17011e-05 -4.68373e-05 7.98765e-07
-1.05676e-07 7.98765e-07 -8.89914e-05
0.00207082 -5.02707e-06 -4.08607e-06
-5.02707e-06 0.000598503 -3.87414e-06
-4.08607e-06 -3.87414e-06 0.000623098
0.000856278 -3.69703e-06 -1.43496e-07
-3.69703e-06 -3.32671e-05 -1.57056e-08
-1.43496e-07 -1.57056e-08 -2.97342e-05
0.00091216 -3.24884e-06 -4.62216e-08
-3.24884e-06 4.69911e-06 1.61336e-06
-4.62216e-08 1.61336e-06 -1.74004e-05
0.00205497 1.73145e-07 -1.4606e-06
1.73145e-07 0.000589514 2.47396e-10
-1.4606e-06 2.47396e-10 0.00061442
0.000857354 3.59046e-07 -6.44336e-08
3.59046e-07 -3.34402e-05 3.0113e-06
-6.44336e-08 3.0113e-06 -2.94805e-05
0.00206503 5.45556e-06 -3.74998e-06
5.45556e-06 0.000595465 3.83839e-06
-3.74998e-06 3.83839e-06 0.000620124
0.00125308 -1.49758e-05 2.14632e-06
-1.49758e-05 0.000233841 8.58143e-07
2.14632e-06 8.58143e-07 0.000152163
0.00120671 4.83898e-05 1.59023e-06
4.83898e-05 0.000440783 -7.04378e-07
1.59023e-06 -7.04378e-07 0.000478664
0.00070455 8.80315e-06 0.00010156
8.80315e-06 4.78929e-05 -1.70019e-05
0.00010156 -1.70019e-05 -0.000109812
0.00097229 1.85058e-05 -3.2337e-07
1.85058e-05 5.5944e-05 -5.10451e-07
-3.2337e-07 -5.10451e-07 -8.45084e-06
0.00101254 -8.94971e-07 1.25511e-05
-8.94971e-07 3.98654e-05 2.73467e-06
1.25511e-05 2.73467e-06 -4.053e-05
0.001087 9.58344e-06 -7.07826e-06
9.58344e-06 -2.07026e-05 3.57542e-06
-7.07826e-06 3.57542e-06 -4.45154e-05
0.0013769 0.000151831 1.67855e-05
0.000151831 0.000405698 -1.03529e-05
1.67855e-05 -1.03529e-05 0.000698541
0.00221335 8.4791e-05 -3.95532e-05
8.4791e-05 0.000277864 1.42055e-05
-3.95532e-05 1.42055e-05 6.51912e-05
0.00690746 0.000353944 1.62558e-05
0.000353944 0.002416 -1.10323e-05
1.62558e-05 -1.10323e-05 0.0015258
-0.00160678 0.000271028 5.50267e-05
0.000271028 -0.00123181 -3.09426e-05
5.50267e-05 -3.09426e-05 -0.00109136
0.00235625 0.000161245 8.3564e-06
0.000161245 0.000191949 -1.07821e-05
8.3564e-06 -1.07821e-05 0.000621979
0.001773 6.9067e-05 -2.79644e-05
6.9067e-05 -0.000145812 6.94766e-06
-2.79644e-05 6.94766e-06 -0.000444342
0.00525258 0.000253612 2.71049e-05
0.000253612 0.00153021 -1.64493e-05
2.71049e-05 -1.64493e-05 0.000602457
0.00177256 0.000302746 -5.72431e-06
0.000302746 -0.000376954 1.1192e-05
-5.72431e-06 1.1192e-05 -0.000239763
0.00219493 7.69175e-05 -6.75616e-07
7.69175e-05 0.000155603 1.66691e-06
-6.75616e-07 1.66691e-06 0.000398426
0.00378785 -9.81537e-05 1.91742e-05
-9.81537e-05 0.000752792 -3.01551e-05
1.91742e-05 -3.01551e-05 0.000430398
0.00789069 0.000276745 2.64919e-05
0.000276745 0.00233304 -2.47934e-06
2.64919e-05 -2.47934e-06 0.00122225
0.00158368 0.000267286 6.98777e-06
0.000267286 -0.000657687 5.81134e-05
6.98777e-06 5.81134e-05 -0.000645571
0.00255232 3.74225e-05 -1.27571e-07
3.74225e-05 0.000413554 -7.67739e-07
-1.27571e-07 -7.67739e-07 0.000638722
0.000946536 -8.39451e-06 2.03542e-07
-8.39451e-06 4.77657e-05 -4.13794e-07
2.03542e-07 -4.13794e-07 -3.07656e-05
0.00100584 -1.77495e-05 3.37716e-07
-1.77495e-05 8.70951e-05 -2.77311e-08
3.37716e-07 -2.77311e-08 1.17186e-05
0.00105961 3.47412e-05 -5.91914e-07
3.47412e-05 0.000113667 3.60577e-07
-5.91914e-07 3.60577e-07 4.84181e-05
0.000964304 3.70368e-06 -2.99148e-07
3.70368e-06 5.46484e-05 -7.57341e-07
-2.99148e-07 -7.57341e-07 -1.57525e-05
0.00100912 3.20712e-05 -3.82343e-07
3.20712e-05 8.54659e-05 3.53442e-07
-3.82343e-07 3.53442e-07 1.44187e-05
0.00106205 1.53084e-05 3.48943e-07
1.53084e-05 0.000113926 1.26845e-06
3.48943e-07 1.26845e-06 4.92582e-05
0.00111325 4.12031e-05 -3.94075e-07
4.12031e-05 0.000134331 1.04541e-07
-3.94075e-07 1.04541e-07 7.16233e-05
0.00113451 4.21977e-05 7.11927e-07
4.21977e-05 0.000147664 1.15274e-06
7.11927e-07 1.15274e-06 8.74578e-05
0.000947476 -0.000133214 4.07603e-06
-0.000133214 -0.000384693 -4.83909e-06
4.07603e-06 -4.83909e-06 -0.000368401
0.0012693 -0.000134231 -3.72601e-09
-0.000134231 0.000189672 2.16421e-06
-3.72601e-09 2.16421e-06 3.21061e-06
0.000977724 -6.86877e-05 -1.48924e-06
-6.86877e-05 7.45269e-05 6.09467e-07
-1.48924e-06 6.09467e-07 -5.50837e-06
0.00141167 -2.76761e-05 5.28784e-07
-2.76761e-05 0.000310768 -4.01119e-07
5.28784e-07 -4.01119e-07 0.000172723
0.00125713 -3.27511e-05 -1.02374e-06
-3.27511e-05 0.000195984 3.82746e-08
-1.02374e-06 3.82746e-08 0.000101632
0.00111257 7.70005e-07 -5.19758e-07
7.70005e-07 0.000135092 -5.46877e-07
-5.19758e-07 -5.46877e-07 5.18482e-05
0.00104058 2.26482e-05 7.66347e-08
2.26482e-05 9.3924e-05 1.75695e-07
7.66347e-08 1.75695e-07 1.13828e-05
0.00149301 -0.000175538 -2.62715e-06
-0.000175538 5.02355e-05 -5.61335e-07
-2.62715e-06 -5.61335e-07 6.08138e-05
0.00104483 1.06766e-05 4.86599e-09
1.06766e-05 8.75458e-05 -6.96393e-07
4.86599e-09 -6.96393e-07 -4.61468e-06
0.00110207 2.77613e-06 -5.30417e-07
2.77613e-06 0.000125899 1.43919e-07
-5.30417e-07 1.43919e-07 1.90275e-05
0.00108499 -4.06874e-05 -4.52253e-07
-4.06874e-05 0.00020807 3.29525e-07
-4.52253e-07 3.29525e-07 -2.36766e-05
0.00116491 2.1502e-05 7.56601e-08
2.1502e-05 0.000146396 1.26078e-07
7.56601e-08 1.26078e-07 6.73497e-05
-0.000297467 -0.000148789 -2.06252e-05
-0.000148789 -0.000502896 -7.68825e-06
-2.06252e-05 -7.68825e-06 -0.000607464
0.00138992 5.15886e-05 -5.47617e-06
5.15886e-05 0.000403936 8.14005e-06
-5.47617e-06 8.14005e-06 0.00021761
0.000825553 1.64691e-05 -7.56352e-07
1.64691e-05 -3.53056e-05 1.60042e-06
-7.56352e-07 1.60042e-06 -0.00012089
0.00113037 6.18756e-05 -3.71661e-07
6.18756e-05 0.000133257 2.01441e-07
-3.71661e-07 2.01441e-07 4.65394e-05
0.00140189 -2.07918e-06 1.89784e-05
-2.07918e-06 0.00034762 1.51133e-07
1.89784e-05 1.51133e-07 0.000232281
0.0015242 -5.7162e-06 9.98346e-07
-5.7162e-06 0.000434011 3.79798e-07
9.98346e-07 3.79798e-07 0.000355523
-0.00107834 -8.91412e-06 1.10182e-05
-8.91412e-06 -0.00084364 8.46169e-07
1.10182e-05 8.46169e-07 -0.000905234
0.000514465 5.0483e-05 3.13155e-06
5.0483e-05 -0.000127364 6.73821e-07
3.13155e-06 6.73821e-07 -0.000200182
-0.000748859 1.53183e-05 -6.01816e-06
1.53183e-05 -0.00054394 1.70651e-06
-6.01816e-06 1.70651e-06 -0.000713221
0.000663107 1.42356e-05 -6.5909e-06
1.42356e-05 -7.15348e-05 -2.00563e-06
-6.5909e-06 -2.00563e-06 -0.000133748
0.00436782 -0.00035301 4.92721e-05
-0.00035301 0.000888363 1.55466e-05
4.92721e-05 1.55466e-05 -0.000212258
0.00432555 0.000278582 -2.38183e-05
0.000278582 0.00120571 -7.22661e-05
-2.38183e-05 -7.22661e-05 0.000720798
0.00262508 -0.00029019 1.25004e-05
-0.00029019 -0.000269389 0.000100009
1.25004e-05 0.000100009 -0.000137897
0.00109135 1.32842e-05 -1.56582e-05
1.32842e-05 8.81857e-05 -5.75535e-06
-1.56582e-05 -5.75535e-06 5.4685e-06
0.000751298 1.37648e-06 -9.02532e-07
1.37648e-06 -0.000504254 -7.77673e-07
-9.02532e-07 -7.77673e-07 -0.000411061
0.000989779 4.63322e-05 -1.4871e-06
4.63322e-05 0.000154008 -5.73878e-07
-1.4871e-06 -5.73878e-07 8.42442e-05
0.00101915 1.21282e-05 1.94107e-06
1.21282e-05 9.8893e-05 3.0948e-06
1.94107e-06 3.0948e-06 -8.78202e-06
0.00121316 -5.11969e-06 -6.60613e-06
-5.11969e-06 0.000188805 2.0899e-06
-6.60613e-06 2.0899e-06 6.99191e-05
-0.000241448 6.39565e-05 7.36615e-06
6.39565e-05 -0.000104906 -2.8592e-06
7.36615e-06 -2.8592e-06 -0.000235155
0.00213938 6.34185e-05 4.25339e-07
6.34185e-05 0.000195639 -2.2614e-06
4.25339e-07 -2.2614e-06 0.000387962
0.00535658 0.00010684 2.6245e-05
0.00010684 0.000526776 -2.86228e-06
2.6245e-05 -2.86228e-06 7.1809e-05
0.00325876 4.86605e-05 -3.3145e-05
4.86605e-05 0.000182127 -4.99427e-06
-3.3145e-05 -4.99427e-06 0.000392959
0.000807848 6.80165e-05 9.67079e-07
6.80165e-05 0.000202466 -8.92534e-06
9.67079e-07 -8.92534e-06 0.000108106
0.00140549 -4.2494e-06 1.35674e-06
-4.2494e-06 0.000261113 5.52504e-06
1.35674e-06 5.52504e-06 0.000130139
0.000926294 -1.27808e-05 -1.16823e-05
-1.27808e-05 -1.85371e-05 -2.27711e-06
-1.16823e-05 -2.27711e-06 -0.000106873
0.00227306 0.000164741 1.38693e-05
0.000164741 0.000167982 -9.42395e-06
1.38693e-05 -9.42395e-06 0.00055899
0.00154793 0.000298823 -6.55481e-06
0.000298823 -0.000637209 -5.90688e-05
-6.55481e-06 -5.90688e-05 -0.000631902
0.00164248 0.000164523 1.17214e-05
0.000164523 0.000608405 -2.47328e-06
1.17214e-05 -2.47328e-06 0.000667287
0.00346404 -0.000162317 5.69074e-05
-0.000162317 0.000100513 1.46398e-05
5.69074e-05 1.46398e-05 -0.000521519
0.00121339 6.24209e-05 -9.1405e-07
6.24209e-05 0.000166172 4.16427e-06
-9.1405e-07 4.16427e-06 7.21843e-05
0.00126885 3.08483e-05 -2.68368e-07
3.08483e-05 0.000203771 1.44408e-06
-2.68368e-07 1.44408e-06 0.000123995
0.000190954 -2.2876e-05 1.3802e-06
-2.2876e-05 -0.000145766 -6.80236e-06
1.3802e-06 -6.80236e-06 -0.000313142
0.00113672 2.06735e-05 -4.78284e-07
2.06735e-05 0.000131453 -5.08146e-07
-4.78284e-07 -5.08146e-07 6.37353e-05
0.000947528 -4.32773e-05 -1.54947e-07
-4.32773e-05 3.37714e-05 3.85811e-07
-1.54947e-07 3.85811e-07 -4.80126e-05
0.000951372 -3.46841e-05 1.92962e-07
-3.46841e-05 5.53333e-05 2.15037e-06
1.92962e-07 2.15037e-06 -3.68242e-05
0.00102223 -3.48092e-05 1.11067e-09
-3.48092e-05 6.28883e-05 5.15188e-08
1.11067e-09 5.15188e-08 -1.25873e-05
0.000814176 -2.41353e-05 -8.27135e-07
-2.41353e-05 -7.53904e-06 1.64654e-06
-8.27135e-07 1.64654e-06 -7.81825e-05
0.000760763 -4.35481e-05 1.4293e-06
-4.35481e-05 1.52818e-05 -1.82669e-07
1.4293e-06 -1.82669e-07 -0.00010431
0.000978849 -1.22823e-05 -6.06503e-08
-1.22823e-05 4.24864e-05 -2.53867e-07
-6.06503e-08 -2.53867e-07 -3.00574e-05
0.00102172 5.15779e-06 -1.18934e-07
5.15779e-06 7.26822e-05 2.04201e-08
-1.18934e-07 2.04201e-08 -1.63148e-06
0.00115207 -5.17467e-05 -2.83972e-08
-5.17467e-05 0.00015185 3.16637e-07
-2.83972e-08 3.16637e-07 6.66269e-05
0.000995981 -6.50527e-05 4.1415e-07
-6.50527e-05 0.000125834 1.14406e-06
4.1415e-07 1.14406e-06 6.68808e-06
0.000932391 -4.27703e-05 -7.36951e-07
-4.27703e-05 5.03107e-05 -8.89013e-07
-7.36951e-07 -8.89013e-07 -3.4636e-05
0.00079996 -5.54695e-05 6.32274e-07
-5.54695e-05 2.48545e-06 -1.06087e-07
6.32274e-07 -1.06087e-07 -0.000100547
0.00106421 -7.54593e-05 1.04933e-06
-7.54593e-05 0.000130924 4.71338e-07
1.04933e-06 4.71338e-07 9.24984e-06
0.0011557 -8.12585e-05 -2.46926e-06
-8.12585e-05 0.000129057 1.91436e-06
-2.46926e-06 1.91436e-06 1.93588e-05
0.00130118 -6.32871e-05 -1.08333e-07
-6.32871e-05 0.000246067 -3.98529e-07
-1.08333e-07 -3.98529e-07 0.000153234
0.000844891 -6.55529e-05 -4.50334e-07
-6.55529e-05 7.455e-06 7.76785e-08
-4.50334e-07 7.76785e-08 -0.000101855
0.00129152 -8.04221e-05 -1.91154e-08
-8.04221e-05 0.0002239 -4.59751e-07
-1.91154e-08 -4.59751e-07 0.000131337
0.000788582 -5.71373e-05 -1.19666e-06
-5.71373e-05 -9.06587e-06 -9.79925e-08
-1.19666e-06 -9.79925e-08 -9.90526e-05
0.000982157 -6.82987e-05 3.35121e-07
-6.82987e-05 7.51333e-05 1.86775e-08
3.35121e-07 1.86775e-08 -2.15536e-05
0.00101285 -3.74657e-05 -8.99465e-07
-3.74657e-05 8.80017e-05 4.61807e-07
-8.99465e-07 4.61807e-07 1.2086e-05
0.00107314 -6.30988e-05 -1.0125e-06
-6.30988e-05 0.000126654 6.92904e-07
-1.0125e-06 6.92904e-07 3.95606e-05
0.000850729 -6.19116e-05 -8.26985e-08
-6.19116e-05 1.88547e-05 -8.46532e-07
-8.26985e-08 -8.46532e-07 -7.99635e-05
0.000967159 2.92305e-06 -6.40254e-07
2.92305e-06 5.23225e-05 1.32419e-06
-6.40254e-07 1.32419e-06 -5.03929e-06
0.000949165 -2.77454e-05 3.05604e-07
-2.77454e-05 5.06397e-05 1.30502e-07
3.05604e-07 1.30502e-07 -2.23409e-05
0.00105701 -4.94035e-05 1.35759e-06
-4.94035e-05 0.00011738 -8.87756e-07
1.35759e-06 -8.87756e-07 3.3109e-05
0.000991244 -1.25599e-05 2.19365e-07
-1.25599e-05 6.96642e-05 -9.37853e-07
2.19365e-07 -9.37853e-07 3.68041e-06
0.000936994 8.55418e-06 1.04558e-07
8.55418e-06 3.40037e-05 -8.60006e-08
1.04558e-07 -8.60006e-08 -1.77341e-05
0.000883533 2.0091e-05 -1.01137e-06
2.0091e-05 6.53633e-06 1.81673e-06
-1.01137e-06 1.81673e-06 -2.60806e-05
0.000926672 5.63746e-06 2.2429e-07
5.63746e-06 2.76195e-05 -1.13659e-06
2.2429e-07 -1.13659e-06 -1.95557e-05
0.000886157 1.8306e-05 2.51088e-08
1.8306e-05 3.0291e-06 -2.70791e-08
2.51088e-08 -2.70791e-08 -2.64902e-05
0.000805828 2.08781e-05 -1.79409e-06
2.08781e-05 -4.01079e-05 3.14424e-06
-1.79409e-06 3.14424e-06 -4.32387e-05
0.000895919 1.15217e-05 8.233e-07
1.15217e-05 3.68074e-06 -1.61349e-06
8.233e-07 -1.61349e-06 -2.3574e-05
0.000827926 1.80275e-05 1.36031e-07
1.80275e-05 -3.45569e-05 2.56471e-09
1.36031e-07 2.56471e-09 -3.59363e-05
0.00210257 2.73532e-05 -4.48869e-06
2.73532e-05 0.000628161 1.51011e-06
-4.48869e-06 1.51011e-06 0.000649421
0.000846782 1.47928e-05 1.26178e-06
1.47928e-05 -3.00525e-05 -3.00414e-06
1.26178e-06 -3.00414e-06 -2.99576e-05
0.00156542 1.8126e-05 5.18292e-06
1.8126e-05 0.000343327 -1.0884e-06
5.18292e-06 -1.0884e-06 0.000363154
0.0021276 1.52507e-05 9.53176e-06
1.52507e-05 0.000632571 -3.71191e-06
9.53176e-06 -3.71191e-06 0.000655682
0.000784052 -1.2338e-05 -6.13001e-08
-1.2338e-05 -4.8433e-05 -1.35948e-06
-6.13001e-08 -1.35948e-06 -9.90228e-05
0.000642493 -1.00368e-05 -4.66587e-07
-1.00368e-05 -0.000127003 -2.16901e-06
-4.66587e-07 -2.16901e-06 -0.000157059
0.000906469 -1.76583e-06 -1.69118e-07
-1.76583e-06 1.77232e-05 -5.1318e-07
-1.69118e-07 -5.1318e-07 -3.10087e-05
0.000862076 -1.13659e-05 -7.62756e-07
-1.13659e-05 -2.51666e-05 -3.08939e-06
-7.62756e-07 -3.08939e-06 -2.451e-05
0.000660483 -7.99093e-06 -5.1737e-08
-7.99093e-06 -0.000120266 -5.91795e-07
-5.1737e-08 -5.91795e-07 -0.000147496
0.00102154 2.48804e-07 4.49532e-09
2.48804e-07 7.71852e-05 8.31147e-07
4.49532e-09 8.31147e-07 3.23394e-05
0.00209742 -1.00821e-05 -7.06019e-06
-1.00821e-05 0.000614141 -3.88918e-06
-7.06019e-06 -3.88918e-06 0.000638093
0.000853418 -7.46366e-06 -1.07493e-07
-7.46366e-06 -3.2775e-05 -1.77701e-08
-1.07493e-07 -1.77701e-08 -3.03338e-05
0.000662457 -5.60559e-06 9.62371e-08
-5.60559e-06 -0.000121265 1.48435e-06
9.62371e-08 1.48435e-06 -0.000146243
0.00206705 -4.85427e-06 -1.54767e-06
-4.85427e-06 0.000596372 9.4721e-09
-1.54767e-06 9.4721e-09 0.000621046
0.000850801 -3.574e-06 1.26316e-07
-3.574e-06 -3.61957e-05 3.01564e-06
1.26316e-07 3.01564e-06 -3.25998e-05
0.00205613 3.87716e-07 -6.07152e-07
3.87716e-07 0.000590104 3.84455e-06
-6.07152e-07 3.84455e-06 0.000615006
0.00121138 -1.43744e-05 1.86307e-05
-1.43744e-05 0.000208326 -3.07226e-06
1.86307e-05 -3.07226e-06 9.67171e-05
0.00125532 -1.54753e-05 -6.43201e-06
-1.54753e-05 0.000238822 7.55055e-07
-6.43201e-06 7.55055e-07 0.000159854
0.00108782 2.69269e-05 1.44291e-05
2.69269e-05 0.000394221 5.93964e-07
1.44291e-05 5.93964e-07 0.000392169
0.0010047 2.43267e-05 6.0735e-08
2.43267e-05 7.21077e-05 7.29245e-08
6.0735e-08 7.29245e-08 8.50965e-06
0.000921352 7.93981e-06 -1.47911e-07
7.93981e-06 2.32459e-05 -4.2241e-07
-1.47911e-07 -4.2241e-07 -4.08289e-05
0.00109097 3.29147e-05 -2.98276e-07
3.29147e-05 0.000119543 1.56457e-07
-2.98276e-07 1.56457e-07 4.85869e-05
0.00116131 1.16042e-05 7.81868e-06
1.16042e-05 0.000121376 6.49653e-07
7.81868e-06 6.49653e-07 1.18702e-05
0.00111678 -5.18475e-06 -1.2277e-06
-5.18475e-06 0.000133677 4.21177e-07
-1.2277e-06 4.21177e-07 4.9159e-05
0.00118618 2.93827e-06 -6.26909e-06
2.93827e-06 7.39708e-05 -3.74589e-06
-6.26909e-06 -3.74589e-06 2.26575e-05
0.000979047 5.73042e-05 -3.74849e-05
5.73042e-05 -0.000503925 1.18984e-05
-3.74849e-05 1.18984e-05 -0.000639065
0.002396 0.000223787 9.82077e-06
0.000223787 0.000413243 -1.2194e-05
9.82077e-06 -1.2194e-05 -0.000633872
0.00421387 0.000398151 4.48861e-05
0.000398151 0.000988869 -2.79041e-05
4.48861e-05 -2.79041e-05 0.00107351
0.000942985 5.63072e-05 1.30117e-06
5.63072e-05 -0.000593657 -6.78373e-06
1.30117e-06 -6.78373e-06 -0.000368659
0.00139658 -6.18426e-05 -7.95763e-06
-6.18426e-05 -0.000212585 8.15715e-06
-7.95763e-06 8.15715e-06 -0.000257551
0.00493043 0.000110313 3.27121e-05
0.000110313 0.00103642 -3.97026e-05
3.27121e-05 -3.97026e-05 -2.44983e-05
0.000981407 0.000134796 -5.00135e-06
0.000134796 -0.000755492 1.20334e-05
-5.00135e-06 1.20334e-05 -0.000554313
0.00164937 2.46312e-05 4.28179e-07
2.46312e-05 -7.22455e-05 5.62802e-06
4.28179e-07 5.62802e-06 0.00010679
0.00358197 -0.000284699 1.27791e-05
-0.000284699 0.000615578 -5.74285e-05
1.27791e-05 -5.74285e-05 0.000517453
0.00844892 0.000157836 3.02853e-05
0.000157836 0.0024517 -2.84504e-05
3.02853e-05 -2.84504e-05 0.00168166
0.000403602 4.25905e-06 4.81168e-06
4.25905e-06 -0.00108816 6.05759e-05
4.81168e-06 6.05759e-05 -0.000798052
0.000521652 -3.20952e-05 -6.84407e-07
-3.20952e-05 -0.000735361 5.30376e-06
-6.84407e-07 5.30376e-06 -0.000528266
0.00104015 3.05677e-06 -6.81686e-08
3.05677e-06 8.78639e-05 1.44286e-07
-6.81686e-08 1.44286e-07 9.95464e-06
0.000956012 -6.34593e-06 -1.10821e-07
-6.34593e-06 5.41108e-05 -1.98346e-07
-1.10821e-07 -1.98346e-07 -2.50578e-05
0.00100484 -2.6641e-05 -2.68622e-07
-2.6641e-05 8.60304e-05 4.17227e-07
-2.68622e-07 4.17227e-07 1.05252e-05
0.000971906 1.65063e-05 -4.11586e-07
1.65063e-05 5.87453e-05 -5.73239e-07
-4.11586e-07 -5.73239e-07 -1.19667e-05
0.00109642 5.95771e-05 1.15174e-06
5.95771e-05 0.000130268 7.06865e-07
1.15174e-06 7.06865e-07 6.02304e-05
0.00116105 4.12348e-05 1.54769e-07
4.12348e-05 0.000158483 6.06531e-07
1.54769e-07 6.06531e-07 9.59372e-05
0.00314495 -0.00022011 4.27632e-06
-0.00022011 0.000865822 -4.75735e-08
4.27632e-06 -4.75735e-08 0.000862141
0.000387207 -2.02631e-05 2.07392e-06
-2.02631e-05 -0.000125769 2.10248e-06
2.07392e-06 2.10248e-06 -0.000373467
0.00111471 3.26517e-05 4.95355e-07
3.26517e-05 0.000133125 2.5215e-07
4.95355e-07 2.5215e-07 4.99472e-05
0.00126527 -3.13216e-05 8.51108e-07
-3.13216e-05 0.000212568 -1.28767e-06
8.51108e-07 -1.28767e-06 9.94987e-05
0.00113078 5.92216e-07 2.01266e-07
5.92216e-07 0.000133959 -8.29617e-07
2.01266e-07 -8.29617e-07 4.33907e-05
0.00106113 1.01044e-05 5.02234e-07
1.01044e-05 9.18316e-05 2.68575e-08
5.02234e-07 2.68575e-08 1.34204e-05
0.00108 3.55832e-05 2.88416e-07
3.55832e-05 0.000105774 -2.40725e-07
2.88416e-07 -2.40725e-07 2.02238e-05
0.000779811 -0.000149335 -3.89369e-06
-0.000149335 -1.6973e-05 2.69466e-06
-3.89369e-06 2.69466e-06 -8.72454e-05
0.00115784 -7.45894e-06 6.56819e-07
-7.45894e-06 0.000129937 -1.07487e-06
6.56819e-07 -1.07487e-06 4.54493e-05
0.00109332 4.51247e-05 -1.54169e-06
4.51247e-05 0.000301888 -1.0595e-06
-1.54169e-06 -1.0595e-06 0.000125495
0.00095102 -8.95843e-07 5.63768e-07
-8.95843e-07 3.71068e-05 -6.9747e-07
5.63768e-07 -6.9747e-07 -4.06543e-05
-0.000542268 -3.77766e-05 3.37655e-07
-3.77766e-05 -0.000307007 -9.01733e-06
3.37655e-07 -9.01733e-06 -0.000528862
9.63914e-05 6.91196e-06 -3.59403e-06
6.91196e-06 -0.0002596 1.64791e-05
-3.59403e-06 1.64791e-05 -0.000299408
0.00104602 -1.07167e-05 2.65554e-08
-1.07167e-05 7.68297e-05 5.61157e-07
2.65554e-08 5.61157e-07 -6.64938e-06
0.00140104 -1.73019e-06 7.61677e-08
-1.73019e-06 0.000261936 4.65468e-07
7.61677e-08 4.65468e-07 0.000119252
0.00114817 -2.55767e-06 7.04382e-06
-2.55767e-06 0.000176225 6.89959e-07
7.04382e-06 6.89959e-07 5.36791e-05
0.00136856 -5.62495e-06 -8.34319e-06
-5.62495e-06 0.000329132 1.33237e-06
-8.34319e-06 1.33237e-06 0.000244225
0.0011206 6.40606e-05 3.75156e-06
6.40606e-05 0.000215258 3.98516e-06
3.75156e-06 3.98516e-06 0.000138662
0.000361056 9.43042e-05 1.00884e-05
9.43042e-05 6.36126e-05 -1.54307e-05
1.00884e-05 -1.54307e-05 -5.22237e-05
0.00107562 1.06716e-05 -1.52087e-05
1.06716e-05 0.000141644 -2.31863e-06
-1.52087e-05 -2.31863e-06 3.37056e-05
0.00349184 8.61709e-06 -1.78465e-05
8.61709e-06 0.000232889 -7.70982e-06
-1.78465e-05 -7.70982e-06 -0.000177221
-0.00070321 2.8992e-05 -4.85671e-06
2.8992e-05 -0.00164608 7.18789e-05
-4.85671e-06 7.18789e-05 -0.00140371
0.000998926 -6.22862e-06 -5.82328e-06
-6.22862e-06 9.10743e-05 -3.90769e-06
-5.82328e-06 -3.90769e-06 -3.62803e-05
0.000957408 4.25394e-05 -9.3379e-07
4.25394e-05 -0.000510326 4.82744e-06
-9.3379e-07 4.82744e-06 -0.000340199
0.000590267 4.11974e-05 -3.38076e-06
4.11974e-05 7.54116e-05 -1.25355e-06
-3.38076e-06 -1.25355e-06 -1.52826e-05
0.00123647 -4.5186e-06 -1.8643e-06
-4.5186e-06 0.000154083 2.54895e-06
-1.8643e-06 2.54895e-06 1.96779e-05
0.00113229 -1.72938e-05 1.11899e-06
-1.72938e-05 0.000142963 -5.26066e-08
1.11899e-06 -5.26066e-08 5.08758e-05
0.00130446 0.000201563 3.86712e-05
0.000201563 0.000112061 1.69881e-06
3.86712e-05 1.69881e-06 4.71517e-05
0.00180241 0.000155303 2.38758e-06
0.000155303 -0.00012272 -2.41757e-06
2.38758e-06 -2.41757e-06 0.000275298
0.000795482 0.000159177 4.7894e-06
0.000159177 -0.00081361 -1.28662e-05
4.7894e-06 -1.28662e-05 -0.000622238
0.00699417 2.93376e-05 6.16913e-06
2.93376e-05 0.00179512 -1.75742e-05
6.16913e-06 -1.75742e-05 0.00129532
-0.000237966 1.16772e-05 -2.73099e-05
1.16772e-05 4.76112e-05 -1.30063e-05
-2.73099e-05 -1.30063e-05 -0.000105389
0.0012337 -1.99755e-05 -1.80526e-05
-1.99755e-05 0.0002241 3.19885e-06
-1.80526e-05 3.19885e-06 0.000107522
0.000916843 1.01453e-05 6.67705e-06
1.01453e-05 -0.000142072 -7.28082e-06
6.67705e-06 -7.28082e-06 -0.000165588
0.00144933 0.000269871 1.11082e-05
0.000269871 0.000181376 -3.00316e-06
1.11082e-05 -3.00316e-06 0.000710244
-0.00312661 0.00027197 5.18005e-05
0.00027197 -0.00232758 -3.65678e-05
5.18005e-05 -3.65678e-05 -0.00227935
0.00809562 0.000225891 9.52361e-06
0.000225891 0.00226222 -2.72554e-05
9.52361e-06 -2.72554e-05 0.00127019
0.00112709 -3.1086e-05 -2.73394e-05
-3.1086e-05 2.66533e-05 9.82358e-05
-2.73394e-05 9.82358e-05 -0.00016865
0.00101173 1.22624e-05 2.65541e-06
1.22624e-05 7.36884e-05 6.2893e-06
2.65541e-06 6.2893e-06 -1.09099e-06
0.00024835 -2.17846e-05 9.77937e-07
-2.17846e-05 -0.000118208 -1.00318e-06
9.77937e-07 -1.00318e-06 -0.000296421
0.000361002 -4.74124e-05 3.28647e-06
-4.74124e-05 4.74807e-05 -4.89073e-06
3.28647e-06 -4.89073e-06 -0.000198378
0.000977556 -4.17443e-05 1.96346e-07
-4.17443e-05 4.1904e-05 -5.54359e-07
1.96346e-07 -5.54359e-07 -3.43204e-05
0.000766917 -3.10813e-05 -1.24045e-07
-3.10813e-05 -3.9947e-05 3.75085e-06
-1.24045e-07 3.75085e-06 -0.000110202
0.000735546 -2.34741e-05 -9.43774e-08
-2.34741e-05 5.32766e-06 3.87954e-07
-9.43774e-08 3.87954e-07 -0.000105442
0.000844375 -8.016e-05 1.42715e-06
-8.016e-05 0.000109219 -1.36698e-06
1.42715e-06 -1.36698e-06 -8.55896e-05
0.00131973 -5.5573e-05 -5.17627e-07
-5.5573e-05 0.000231762 -1.3914e-07
-5.17627e-07 -1.3914e-07 0.00014486
0.00126327 -7.88554e-05 2.60793e-07
-7.88554e-05 0.000246649 1.97443e-07
2.60793e-07 1.97443e-07 0.000124846
0.00103887 -7.96899e-05 2.29509e-06
-7.96899e-05 0.000148694 1.35985e-06
2.29509e-06 1.35985e-06 -1.52006e-05
0.000531079 -4.54223e-05 -1.77422e-07
-4.54223e-05 -0.000130386 -1.39322e-06
-1.77422e-07 -1.39322e-06 -0.000229688
0.00106421 -7.5108e-05 -4.06571e-07
-7.5108e-05 0.000129857 1.27672e-08
-4.06571e-07 1.27672e-08 5.65919e-06
0.00168322 -0.000107083 -8.52109e-07
-0.000107083 0.000393742 1.65124e-06
-8.52109e-07 1.65124e-06 0.000260036
0.00137674 -9.54065e-05 -2.55102e-06
-9.54065e-05 0.000213702 2.76076e-06
-2.55102e-06 2.76076e-06 9.36403e-05
0.000803233 -6.72819e-05 -6.99347e-07
-6.72819e-05 -3.66074e-05 1.63784e-06
-6.99347e-07 1.63784e-06 -0.000132637
0.0011122 -8.03494e-05 -8.07391e-07
-8.03494e-05 0.000108536 6.21095e-07
-8.07391e-07 6.21095e-07 -2.88677e-06
0.00102161 -7.19298e-05 -4.09482e-07
-7.19298e-05 9.30673e-05 -5.85431e-07
-4.09482e-07 -5.85431e-07 -1.85098e-05
0.00121626 -7.55843e-05 4.73511e-07
-7.55843e-05 0.000187697 -1.00054e-06
4.73511e-07 -1.00054e-06 0.000100583
0.00110169 -7.35034e-05 1.41139e-06
-7.35034e-05 0.000130546 -5.94681e-07
1.41139e-06 -5.94681e-07 4.03351e-05
0.000856234 -4.31629e-05 -5.5971e-07
-4.31629e-05 1.72256e-05 7.09267e-07
-5.5971e-07 7.09267e-07 -6.43002e-05
0.000926654 -6.06009e-05 2.76088e-07
-6.06009e-05 5.9101e-05 -1.13347e-07
2.76088e-07 -1.13347e-07 -3.00205e-05
0.00100096 -6.86347e-05 3.08554e-06
-6.86347e-05 8.37788e-05 -1.2488e-06
3.08554e-06 -1.2488e-06 -1.12138e-05
0.000953577 5.08234e-06 -9.83374e-07
5.08234e-06 4.9226e-05 1.20359e-06
-9.83374e-07 1.20359e-06 -1.35518e-05
0.00103207 -4.04359e-05 -1.76191e-07
-4.04359e-05 9.71745e-05 -1.50426e-08
-1.76191e-07 -1.50426e-08 2.11323e-05
0.00110101 -6.34729e-05 3.50381e-07
-6.34729e-05 0.000138964 -7.26092e-08
3.50381e-07 -7.26092e-08 5.18779e-05
0.000875662 1.96451e-05 -1.26206e-06
1.96451e-05 7.11782e-06 2.0314e-06
-1.26206e-06 2.0314e-06 -2.96951e-05
0.000949818 2.14017e-06 1.41835e-07
2.14017e-06 4.30976e-05 -5.94669e-10
1.41835e-07 -5.94669e-10 -1.39664e-05
0.000911222 -2.70428e-05 9.92279e-07
-2.70428e-05 3.04211e-05 -5.71711e-07
9.92279e-07 -5.71711e-07 -4.26362e-05
0.000935963 7.80961e-06 5.55396e-07
7.80961e-06 3.35528e-05 -1.30137e-06
5.55396e-07 -1.30137e-06 -1.82055e-05
0.000878223 2.21346e-05 1.45131e-07
2.21346e-05 4.01976e-06 -4.3614e-08
1.45131e-07 -4.3614e-08 -2.87832e-05
0.00079106 2.37867e-05 -2.1577e-06
2.37867e-05 -4.08621e-05 3.22717e-06
-2.1577e-06 3.22717e-06 -4.64143e-05
0.000886125 1.95198e-05 7.45551e-07
1.95198e-05 2.83205e-06 -1.80614e-06
7.45551e-07 -1.80614e-06 -2.67657e-05
0.000824411 2.1158e-05 9.64116e-08
2.1158e-05 -3.0786e-05 -1.99113e-08
9.64116e-08 -1.99113e-08 -3.39972e-05
0.00217787 2.9558e-05 -1.58233e-05
2.9558e-05 0.00067207 3.59836e-06
-1.58233e-05 3.59836e-06 0.000692166
0.000846765 1.82e-05 1.63208e-06
1.82e-05 -2.52403e-05 -3.06118e-06
1.63208e-06 -3.06118e-06 -2.66177e-05
0.00157155 2.2603e-05 6.15791e-06
2.2603e-05 0.000352097 -1.04737e-06
6.15791e-06 -1.04737e-06 0.000370634
0.00213251 2.01784e-05 1.21403e-05
2.01784e-05 0.000639162 -3.68641e-06
1.21403e-05 -3.68641e-06 0.000661465
0.000929094 1.72268e-05 -6.66468e-07
1.72268e-05 2.62423e-05 -9.42201e-07
-6.66468e-07 -9.42201e-07 -2.60434e-05
0.000879019 -1.2389e-05 -7.1471e-07
-1.2389e-05 -4.17495e-06 -1.70625e-06
-7.1471e-07 -1.70625e-06 -3.51624e-05
0.000848386 9.69814e-06 -5.99134e-07
9.69814e-06 -1.30134e-05 -5.29449e-07
-5.99134e-07 -5.29449e-07 -6.41683e-05
0.000855726 -1.50011e-05 -9.49916e-07
-1.50011e-05 -2.40359e-05 -3.20616e-06
-9.49916e-07 -3.20616e-06 -2.56107e-05
0.000771153 -1.02521e-05 -2.01908e-07
-1.02521e-05 -6.09188e-05 -5.99078e-07
-2.01908e-07 -5.99078e-07 -9.04226e-05
0.00104231 -2.81076e-06 1.24983e-07
-2.81076e-06 8.69935e-05 3.62222e-07
1.24983e-07 3.62222e-07 3.89592e-05
0.00214219 -1.52036e-05 -9.83e-06
-1.52036e-05 0.000640295 -3.91617e-06
-9.83e-06 -3.91617e-06 0.00066323
0.000847376 -1.12208e-05 -1.01465e-07
-1.12208e-05 -3.26544e-05 -2.12766e-08
-1.01465e-07 -2.12766e-08 -3.1893e-05
0.000653756 -8.12219e-06 7.09041e-08
-8.12219e-06 -0.000123567 9.55368e-07
7.09041e-08 9.55368e-07 -0.000151137
0.00209632 -9.90519e-06 -1.38414e-06
-9.90519e-06 0.000613277 2.14211e-08
-1.38414e-06 2.14211e-08 0.000637331
0.000842305 -7.36176e-06 4.29721e-07
-7.36176e-06 -3.85186e-05 3.02163e-06
4.29721e-07 3.02163e-06 -3.59891e-05
0.00206444 -4.67497e-06 2.53739e-06
-4.67497e-06 0.000594816 3.83849e-06
2.53739e-06 3.83849e-06 0.000619564
0.00124582 1.68088e-06 -9.07607e-07
1.68088e-06 0.000166293 -5.38601e-06
-9.07607e-07 -5.38601e-06 3.15684e-05
0.00126575 -1.34763e-05 3.46994e-06
-1.34763e-05 0.000245384 -4.22165e-07
3.46994e-06 -4.22165e-07 0.000134695
0.00129284 -1.63141e-05 -1.42453e-05
-1.63141e-05 0.000264737 6.58778e-06
-1.42453e-05 6.58778e-06 0.000189696
0.00091287 -6.08382e-06 -5.10699e-08
-6.08382e-06 1.63221e-05 -6.12408e-07
-5.10699e-08 -6.12408e-07 -4.8155e-05
0.00107955 1.36407e-05 -1.36945e-07
1.36407e-05 0.000105756 -3.77643e-07
-1.36945e-07 -3.77643e-07 3.4281e-05
0.00103775 2.68835e-05 1.1562e-06
2.68835e-05 8.86133e-05 5.41658e-07
1.1562e-06 5.41658e-07 2.58701e-05
0.000907463 2.88363e-06 7.36038e-09
2.88363e-06 1.55917e-05 2.68675e-08
7.36038e-09 2.68675e-08 -4.80705e-05
0.00102397 1.765e-05 1.53403e-07
1.765e-05 8.26637e-05 3.43052e-07
1.53403e-07 3.43052e-07 1.20025e-05
0.00101301 1.98344e-05 -4.63262e-07
1.98344e-05 7.46715e-05 -1.71028e-07
-4.63262e-07 -1.71028e-07 3.82976e-06
0.00100594 6.22111e-05 -1.30493e-07
6.22111e-05 7.78499e-05 3.83676e-07
-1.30493e-07 3.83676e-07 -3.14515e-07
0.00105896 2.61588e-05 -9.82983e-06
2.61588e-05 9.35058e-05 4.19173e-06
-9.82983e-06 4.19173e-06 1.59195e-06
0.00108544 1.04427e-05 4.37046e-06
1.04427e-05 0.000114061 -4.23564e-06
4.37046e-06 -4.23564e-06 -5.97561e-06
0.0011713 -9.65278e-06 -1.42317e-05
-9.65278e-06 0.00019295 4.15268e-06
-1.42317e-05 4.15268e-06 0.000105926
0.000693453 1.5907e-05 6.45943e-06
1.5907e-05 -0.000595931 1.78334e-06
6.45943e-06 1.78334e-06 -0.000472773
0.000858366 -5.18914e-05 -5.96893e-05
-5.18914e-05 -0.000885331 5.75591e-05
-5.96893e-05 5.75591e-05 -0.00098179
0.00215036 8.5884e-05 5.22745e-05
8.5884e-05 3.9076e-05 -5.33431e-05
5.22745e-05 -5.33431e-05 -0.000931223
0.00515807 0.000268084 2.38891e-05
0.000268084 0.00106965 -2.52697e-05
2.38891e-05 -2.52697e-05 0.00120523
0.00203031 -0.000244367 -2.2367e-05
-0.000244367 -0.000178974 1.61475e-05
-2.2367e-05 1.61475e-05 -0.000424862
0.00292429 -6.79821e-05 2.56545e-05
-6.79821e-05 -0.00018591 -4.73355e-05
2.56545e-05 -4.73355e-05 -0.00105251
0.00347958 -1.19739e-05 -1.15183e-05
-1.19739e-05 0.000200249 3.72509e-06
-1.15183e-05 3.72509e-06 0.000361086
0.00225599 -4.96496e-05 2.6143e-06
-4.96496e-05 0.000219362 -7.62535e-07
2.6143e-06 -7.62535e-07 0.000499681
0.00247459 -0.000186236 2.47574e-05
-0.000186236 0.000469065 -2.09365e-05
2.47574e-05 -2.09365e-05 0.000357432
0.00338137 -0.000308253 -1.07815e-05
-0.000308253 -0.000589665 -0.000103131
-1.07815e-05 -0.000103131 -0.000853492
0.000424129 -0.000123719 3.34993e-05
-0.000123719 -0.00109567 4.17091e-05
3.34993e-05 4.17091e-05 -0.000961755
-0.000245505 -0.00010952 4.37875e-06
-0.00010952 -0.00128589 5.12933e-06
4.37875e-06 5.12933e-06 -0.000924502
0.00112522 -9.94528e-06 -2.49204e-07
-9.94528e-06 0.000123389 4.16569e-07
-2.49204e-07 4.16569e-07 4.71894e-05
0.000977306 6.25632e-06 7.85152e-08
6.25632e-06 5.64585e-05 -1.4244e-07
7.85152e-08 -1.4244e-07 -2.19265e-05
0.000943125 -1.03834e-06 -1.09079e-07
-1.03834e-06 4.93414e-05 -2.80243e-07
-1.09079e-07 -2.80243e-07 -3.05712e-05
0.000987026 2.21584e-05 4.54683e-08
2.21584e-05 6.6522e-05 -5.27717e-07
4.54683e-08 -5.27717e-07 -4.41223e-06
0.00285077 -0.000170857 1.33744e-05
-0.000170857 0.000978417 4.70668e-06
1.33744e-05 4.70668e-06 0.000936042
0.000705582 3.13143e-05 3.63634e-06
3.13143e-05 0.000167504 -2.67338e-06
3.63634e-06 -2.67338e-06 -4.01032e-06
0.000939312 2.28479e-06 4.7862e-08
2.28479e-06 2.78739e-05 -1.55745e-07
4.7862e-08 -1.55745e-07 -5.01024e-05
0.00100358 2.631e-05 3.49164e-07
2.631e-05 6.69527e-05 -3.23253e-07
3.49164e-07 -3.23253e-07 -1.86096e-05
0.00152057 -2.05226e-06 3.18923e-07
-2.05226e-06 0.000313388 -2.39666e-06
3.18923e-07 -2.39666e-06 0.000228885
0.000959817 1.44524e-05 -5.04856e-07
1.44524e-05 4.12985e-05 4.16022e-09
-5.04856e-07 4.16022e-09 -3.69796e-05
0.000975164 -2.77448e-06 -1.25098e-06
-2.77448e-06 4.25421e-05 6.38798e-07
-1.25098e-06 6.38798e-07 -4.28276e-05
0.000401718 -5.81389e-05 6.64639e-06
-5.81389e-05 0.000165543 -2.87778e-06
6.64639e-06 -2.87778e-06 -1.62466e-05
0.000813242 1.08757e-06 3.69348e-06
1.08757e-06 9.35652e-05 6.45021e-06
3.69348e-06 6.45021e-06 5.83382e-05
0.00111243 -2.63898e-06 3.0674e-07
-2.63898e-06 0.000121827 -1.62879e-06
3.0674e-07 -1.62879e-06 3.7765e-05
-0.00044628 2.29955e-05 2.94912e-06
2.29955e-05 0.000105212 -6.76345e-06
2.94912e-06 -6.76345e-06 -0.000306214
0.00163715 -3.84704e-05 8.18753e-06
-3.84704e-05 0.00050143 6.28525e-06
8.18753e-06 6.28525e-06 0.000403783
0.00147629 -1.29797e-06 -1.9033e-05
-1.29797e-06 0.000399168 -1.67234e-07
-1.9033e-05 -1.67234e-07 0.000274384
0.00126324 -2.53262e-06 2.76336e-07
-2.53262e-06 0.000173778 4.52102e-07
2.76336e-07 4.52102e-07 2.9098e-05
0.000884875 -2.92983e-06 -7.12811e-06
-2.92983e-06 -1.26853e-06 -5.44667e-08
-7.12811e-06 -5.44667e-08 -0.000131071
0.000620334 2.04171e-05 -9.44994e-07
2.04171e-05 6.08589e-05 5.8975e-06
-9.44994e-07 5.8975e-06 -2.50363e-05
0.0014204 0.000119321 -5.49666e-05
0.000119321 0.000481188 4.73794e-06
-5.49666e-05 4.73794e-06 0.000547706
0.00110515 -4.81782e-06 -4.94282e-07
-4.81782e-06 7.06432e-05 5.40632e-07
-4.94282e-07 5.40632e-07 -6.73006e-05
0.00350332 0.000206035 3.14082e-05
0.000206035 0.000129566 -8.06743e-05
3.14082e-05 -8.06743e-05 -0.000513902
0.00529914 0.000297856 -2.48137e-05
0.000297856 0.00117071 2.54823e-05
-2.48137e-05 2.54823e-05 0.00129207
0.00122766 -2.20625e-05 1.33825e-05
-2.20625e-05 0.000230274 -4.95309e-06
1.33825e-05 -4.95309e-06 0.000135572
0.00254253 0.00015489 -7.89435e-06
0.00015489 0.000405007 7.36351e-06
-7.89435e-06 7.36351e-06 0.000739281
-0.000264568 -1.33338e-05 2.25281e-05
-1.33338e-05 -1.24572e-05 -7.66279e-07
2.25281e-05 -7.66279e-07 -0.000157592
0.00124822 -1.84899e-05 -3.57806e-06
-1.84899e-05 0.000236262 2.37347e-07
-3.57806e-06 2.37347e-07 0.000120609
0.0010224 4.07593e-06 6.1658e-06
4.07593e-06 -4.68193e-05 -3.35107e-06
6.1658e-06 -3.35107e-06 -9.27044e-05
0.00200925 -4.98903e-05 -5.64119e-06
-4.98903e-05 0.000560909 1.92202e-05
-5.64119e-06 1.92202e-05 0.000530619
0.000368454 0.000286439 -3.38553e-06
0.000286439 -0.000535423 3.97615e-06
-3.38553e-06 3.97615e-06 5.21537e-05
0.00163296 0.000343893 3.83893e-06
0.000343893 -0.000299789 -9.06389e-06
3.83893e-06 -9.06389e-06 -0.000237647
0.00306056 2.22898e-05 2.55605e-05
2.22898e-05 0.000253854 -1.1472e-05
2.55605e-05 -1.1472e-05 -0.000894654
-0.000104651 -5.17962e-05 5.14715e-06
-5.17962e-05 7.40461e-06 -1.28589e-05
5.14715e-06 -1.28589e-05 -0.000151187
0.00127057 -1.7343e-05 -4.10396e-06
-1.7343e-05 0.00024982 -3.72455e-07
-4.10396e-06 -3.72455e-07 0.000156738
-0.00131853 0.000113966 8.28349e-06
0.000113966 -0.00115098 -8.38025e-06
8.28349e-06 -8.38025e-06 -0.000980016
-0.000170776 0.000302756 4.9324e-05
0.000302756 -0.000155794 -2.21004e-05
4.9324e-05 -2.21004e-05 -2.81164e-06
0.00761819 0.000469315 2.98028e-05
0.000469315 0.00234242 -5.12292e-05
2.98028e-05 -5.12292e-05 0.00134279
0.0018457 -0.000185416 -6.18496e-05
-0.000185416 -3.09795e-05 0.000103369
-6.18496e-05 0.000103369 -0.000562542
0.000551977 -2.72232e-05 -1.86035e-06
-2.72232e-05 1.86613e-05 3.20167e-06
-1.86035e-06 3.20167e-06 -0.000165098
0.000531467 -2.83497e-05 5.16615e-07
-2.83497e-05 0.000132388 -1.08277e-06
5.16615e-07 -1.08277e-06 -0.000111147
0.00136649 -0.000128242 5.34631e-06
-0.000128242 0.000366499 -1.61315e-06
5.34631e-06 -1.61315e-06 0.000149326
0.000682957 -1.15239e-05 -1.94621e-06
-1.15239e-05 -1.60639e-05 -2.17043e-07
-1.94621e-06 -2.17043e-07 -0.000119533
0.000417773 -5.47732e-05 -8.69785e-08
-5.47732e-05 -7.99259e-05 1.2649e-07
-8.69785e-08 1.2649e-07 -0.000282546
0.00124705 -0.000101707 2.58752e-06
-0.000101707 0.000253314 2.2727e-06
2.58752e-06 2.2727e-06 7.46315e-05
0.00150006 -9.10787e-05 -1.37386e-06
-9.10787e-05 0.000352695 -1.24255e-07
-1.37386e-06 -1.24255e-07 0.000227017
0.00119765 -8.42105e-05 2.77781e-07
-8.42105e-05 0.000218553 5.05732e-07
2.77781e-07 5.05732e-07 5.56404e-05
0.00099412 -9.50491e-05 5.9403e-07
-9.50491e-05 4.35914e-05 3.4221e-07
5.9403e-07 3.4221e-07 -0.000118282
0.00110833 -7.62999e-05 -8.1902e-07
-7.62999e-05 0.000151277 -4.59584e-07
-8.1902e-07 -4.59584e-07 2.39632e-05
0.00155433 -0.000103684 6.86503e-08
-0.000103684 0.000326551 4.23187e-07
6.86503e-08 4.23187e-07 0.000190334
0.00137005 -0.000102364 -3.33408e-07
-0.000102364 0.000198838 1.5692e-07
-3.33408e-07 1.5692e-07 5.97597e-05
0.00132407 -9.36985e-05 -2.01198e-06
-9.36985e-05 0.000147352 -9.60318e-08
-2.01198e-06 -9.60318e-08 2.69368e-05
0.00155082 -9.6289e-05 -2.64264e-06
-9.6289e-05 0.000306792 3.06788e-06
-2.64264e-06 3.06788e-06 0.000200082
0.00135584 -9.54531e-05 -4.86978e-07
-9.54531e-05 0.000201598 5.49131e-07
-4.86978e-07 5.49131e-07 7.96437e-05
0.000763503 -6.32901e-05 1.56046e-07
-6.32901e-05 -5.22161e-05 -4.81587e-07
1.56046e-07 -4.81587e-07 -0.000139907
0.00093802 -7.14318e-05 1.08385e-06
-7.14318e-05 3.19792e-05 -3.54989e-07
1.08385e-06 -3.54989e-07 -6.33487e-05
0.00109017 -8.01951e-05 8.6173e-07
-8.01951e-05 9.88749e-05 -1.08995e-06
8.6173e-07 -1.08995e-06 -1.43323e-05
0.0010879 -6.52664e-05 -2.24983e-07
-6.52664e-05 0.000125165 1.48607e-10
-2.24983e-07 1.48607e-10 4.06892e-05
0.00115345 -7.31768e-05 -1.0302e-07
-7.31768e-05 0.000157444 -2.64312e-07
-1.0302e-07 -2.64312e-07 7.00739e-05
0.00089682 -6.60949e-05 2.37021e-06
-6.60949e-05 2.97436e-05 1.02535e-08
2.37021e-06 1.02535e-08 -5.80939e-05
0.000898502 3.77368e-06 -4.9037e-07
3.77368e-06 2.62538e-05 1.07129e-06
-4.9037e-07 1.07129e-06 -4.26757e-05
0.000913176 -4.26485e-05 -4.17028e-08
-4.26485e-05 4.43494e-05 2.94429e-07
-4.17028e-08 2.94429e-07 -3.63224e-05
0.00106703 -6.29772e-05 9.14253e-07
-6.29772e-05 0.000128181 -4.36979e-07
9.14253e-07 -4.36979e-07 4.00338e-05
0.000854075 2.48375e-05 -1.6971e-06
2.48375e-05 -3.48316e-07 2.15955e-06
-1.6971e-06 2.15955e-06 -4.22693e-05
0.000946603 8.88812e-07 -1.7053e-07
8.88812e-07 4.56329e-05 -7.62651e-10
-1.7053e-07 -7.62651e-10 -1.72639e-05
0.00104727 -4.0853e-05 4.80376e-07
-4.0853e-05 0.000103839 -4.39725e-07
4.80376e-07 -4.39725e-07 2.7962e-05
0.00081119 2.65938e-05 -3.61647e-06
2.65938e-05 -2.45157e-05 4.60147e-06
-3.61647e-06 4.60147e-06 -3.28115e-05
0.000866915 2.38521e-05 2.78503e-07
2.38521e-05 3.28708e-06 -5.76409e-08
2.78503e-07 -5.76409e-08 -3.38532e-05
0.000931334 1.81796e-06 9.58454e-07
1.81796e-06 3.33238e-05 -1.17789e-06
9.58454e-07 -1.17789e-06 -2.34797e-05
0.000871722 2.41882e-05 8.76471e-07
2.41882e-05 8.50049e-07 -1.99229e-06
8.76471e-07 -1.99229e-06 -3.21141e-05
0.000813875 2.42282e-05 9.26321e-08
2.42282e-05 -2.94165e-05 -4.5033e-08
9.26321e-08 -4.5033e-08 -3.50927e-05
0.00221856 3.4255e-05 -1.80233e-05
3.4255e-05 0.000699854 3.57001e-06
-1.80233e-05 3.57001e-06 0.000718306
0.000843782 2.1457e-05 1.98479e-06
2.1457e-05 -2.10709e-05 -3.14556e-06
1.98479e-06 -3.14556e-06 -2.43633e-05
0.00218061 2.96334e-05 7.66143e-07
2.96334e-05 0.000674359 4.76017e-08
7.66143e-07 4.76017e-08 0.000694262
0.00215213 2.49775e-05 1.46748e-05
2.49775e-05 0.000654432 -3.6722e-06
1.46748e-05 -3.6722e-06 0.00067558
0.00100058 1.90819e-05 -3.72835e-07
1.90819e-05 6.35837e-05 -6.97539e-07
-3.72835e-07 -6.97539e-07 -3.31186e-06
0.000939142 1.47992e-05 -6.94219e-07
1.47992e-05 3.05378e-05 -1.1697e-06
-6.94219e-07 -1.1697e-06 -2.467e-05
0.000872175 -1.89128e-05 -7.35059e-07
-1.89128e-05 -5.51959e-06 -1.82574e-06
-7.35059e-07 -1.82574e-06 -3.87042e-05
0.000937292 9.60199e-06 -2.02604e-08
9.60199e-06 2.94863e-05 -4.53433e-08
-2.02604e-08 -4.53433e-08 -2.22711e-05
0.000842593 -1.80338e-05 -1.42686e-06
-1.80338e-05 -2.61411e-05 -3.29255e-06
-1.42686e-06 -3.29255e-06 -2.99397e-05
0.000886645 -1.38487e-05 -5.8236e-08
-1.38487e-05 1.8116e-08 5.43113e-09
-5.8236e-08 5.43113e-09 -3.10481e-05
0.000912523 1.48351e-05 1.50346e-07
1.48351e-05 1.93395e-05 4.43447e-07
1.50346e-07 4.43447e-07 -3.04565e-05
0.00220604 -2.03113e-05 -1.25336e-05
-2.03113e-05 0.000677301 -3.96251e-06
-1.25336e-05 -3.96251e-06 0.000698878
0.000837222 -1.48247e-05 -9.7858e-08
-1.48247e-05 -3.34585e-05 -3.06551e-08
-9.7858e-08 -3.06551e-08 -3.49122e-05
0.000897952 -1.06098e-05 1.65535e-07
-1.06098e-05 4.13088e-06 1.08753e-06
1.65535e-07 1.08753e-06 -2.4808e-05
0.00213827 -1.50445e-05 -1.24747e-06
-1.50445e-05 0.000637854 3.38549e-08
-1.24747e-06 3.38549e-08 0.000660945
0.000832021 -1.10697e-05 6.1672e-07
-1.10697e-05 -4.04679e-05 3.08142e-06
6.1672e-07 3.08142e-06 -3.9601e-05
0.00209142 -9.70366e-06 5.8002e-06
-9.70366e-06 0.000610413 3.84404e-06
5.8002e-06 3.84404e-06 0.000634592
0.00094033 1.59309e-05 -1.19167e-05
1.59309e-05 5.43235e-05 -1.10751e-05
-1.19167e-05 -1.10751e-05 -6.39366e-05
0.0011754 1.35218e-06 2.2543e-06
1.35218e-06 0.000121883 -3.07537e-06
2.2543e-06 -3.07537e-06 -1.65843e-05
0.00129922 -1.24922e-05 -1.11078e-05
-1.24922e-05 0.000269791 3.67641e-06
-1.11078e-05 3.67641e-06 0.000159843
0.000949224 1.10585e-05 -1.20412e-07
1.10585e-05 3.75516e-05 6.51433e-09
-1.20412e-07 6.51433e-09 -2.80827e-05
0.00103469 1.17273e-05 -5.11394e-09
1.17273e-05 8.20009e-05 2.41863e-07
-5.11394e-09 2.41863e-07 1.0109e-05
0.000955519 1.63856e-05 -4.5328e-07
1.63856e-05 4.51304e-05 -1.20498e-06
-4.5328e-07 -1.20498e-06 -3.02994e-05
0.000912509 6.77909e-06 -1.00062e-07
6.77909e-06 2.09558e-05 -7.92806e-07
-1.00062e-07 -7.92806e-07 -5.04682e-05
0.00109549 3.72518e-05 -3.68415e-07
3.72518e-05 0.000119234 -3.21935e-07
-3.68415e-07 -3.21935e-07 4.14775e-05
0.000888398 3.45043e-06 3.23449e-08
3.45043e-06 6.15273e-06 4.94445e-07
3.23449e-08 4.94445e-07 -5.7684e-05
0.000956477 3.53345e-06 2.30488e-07
3.53345e-06 4.54303e-05 4.52248e-07
2.30488e-07 4.52248e-07 -2.49068e-05
0.000993761 3.0908e-05 -1.5575e-07
3.0908e-05 6.69767e-05 -2.74228e-08
-1.5575e-07 -2.74228e-08 -4.75186e-06
0.001016 2.63526e-05 4.29788e-07
2.63526e-05 7.76413e-05 4.31392e-07
4.29788e-07 4.31392e-07 1.70559e-06
0.00106169 2.60969e-05 -2.56435e-07
2.60969e-05 0.000104657 -9.65802e-08
-2.56435e-07 -9.65802e-08 2.8045e-05
0.0012089 -3.77203e-06 1.19607e-06
-3.77203e-06 0.000144807 1.20696e-05
1.19607e-06 1.20696e-05 7.86823e-05
0.00107754 2.60326e-05 7.61672e-07
2.60326e-05 0.000101971 5.93765e-06
7.61672e-07 5.93765e-06 1.23807e-05
0.00112633 9.69711e-06 2.05468e-06
9.69711e-06 0.000186407 7.87987e-07
2.05468e-06 7.87987e-07 5.77091e-05
0.00122164 -4.12274e-05 2.01062e-06
-4.12274e-05 -0.000370715 -4.68657e-06
2.01062e-06 -4.68657e-06 -0.000107078
-0.00077389 2.87334e-05 -1.50121e-06
2.87334e-05 -0.00173195 -6.76635e-05
-1.50121e-06 -6.76635e-05 -0.00151016
0.00141819 -0.000265267 -7.28513e-05
-0.000265267 -0.000555323 8.62029e-05
-7.28513e-05 8.62029e-05 -0.000919188
0.0073936 0.000168676 -1.86167e-05
0.000168676 0.00162658 -4.48905e-05
-1.86167e-05 -4.48905e-05 0.00112625
0.00161528 -0.000226416 -3.45317e-05
-0.000226416 -0.000147761 3.47532e-05
-3.45317e-05 3.47532e-05 -0.000549496
0.00776229 -0.000120655 3.59401e-05
-0.000120655 0.00184319 9.12214e-07
3.59401e-05 9.12214e-07 0.00138488
0.00152503 -0.0002024 9.54294e-06
-0.0002024 -0.000553376 -2.06686e-05
9.54294e-06 -2.06686e-05 -0.000466016
0.000103172 -0.00012783 -1.34225e-06
-0.00012783 -0.00114203 -7.27401e-06
-1.34225e-06 -7.27401e-06 -0.000705427
0.00168273 -5.86936e-05 -4.09778e-05
-5.86936e-05 0.000192435 -5.56996e-05
-4.09778e-05 -5.56996e-05 -0.000280608
0.00731965 -0.000336495 -1.91544e-05
-0.000336495 0.00163636 4.73979e-05
-1.91544e-05 4.73979e-05 0.0010646
0.00611135 -0.000413254 2.21099e-05
-0.000413254 0.00180351 2.49753e-05
2.21099e-05 2.49753e-05 0.00199309
0.00138723 -0.000221699 4.67174e-06
-0.000221699 -0.000108507 3.21129e-06
4.67174e-06 3.21129e-06 0.000475202
0.000917058 2.1887e-05 -4.88668e-07
2.1887e-05 3.84933e-05 7.49621e-07
-4.88668e-07 7.49621e-07 -3.34481e-05
0.00107497 -6.44965e-06 -1.1401e-07
-6.44965e-06 0.000101939 1.47381e-07
-1.1401e-07 1.47381e-07 2.47341e-05
0.000951567 6.06891e-06 2.69635e-07
6.06891e-06 4.29893e-05 -2.48289e-07
2.69635e-07 -2.48289e-07 -3.5491e-05
0.000905652 -5.76554e-05 2.1173e-05
-5.76554e-05 0.000393825 -2.30501e-06
2.1173e-05 -2.30501e-06 0.000259908
0.0014247 -1.46786e-05 -1.6306e-06
-1.46786e-05 0.000391639 -3.29856e-06
-1.6306e-06 -3.29856e-06 0.000360676
0.000971492 6.21874e-06 -1.8065e-07
6.21874e-06 4.58733e-05 6.88263e-07
-1.8065e-07 6.88263e-07 -3.22467e-05
0.00095304 -2.47144e-05 -8.32481e-07
-2.47144e-05 3.04857e-05 8.94557e-07
-8.32481e-07 8.94557e-07 -5.4923e-05
0.00100485 -9.97418e-06 -2.31627e-07
-9.97418e-06 7.01677e-05 4.59271e-08
-2.31627e-07 4.59271e-08 -1.28573e-05
0.000768455 -4.14911e-05 6.4914e-07
-4.14911e-05 8.0666e-05 3.46767e-06
6.4914e-07 3.46767e-06 -2.45211e-05
-0.000188923 1.85803e-05 5.6397e-06
1.85803e-05 0.000129868 -1.27075e-05
5.6397e-06 -1.27075e-05 -0.000258239
0.000267914 4.29415e-06 -6.72467e-07
4.29415e-06 -0.00016056 3.34507e-06
-6.72467e-07 3.34507e-06 -0.000284102
0.00159059 7.88682e-05 1.54447e-05
7.88682e-05 0.000653915 1.29792e-06
1.54447e-05 1.29792e-06 0.000446472
0.0016593 -3.96044e-06 -9.42172e-06
-3.96044e-06 0.000543792 -5.75795e-07
-9.42172e-06 -5.75795e-07 0.000458929
0.00112925 -1.29256e-06 -6.85497e-06
-1.29256e-06 0.000169322 -4.32928e-07
-6.85497e-06 -4.32928e-07 3.80635e-05
0.00115812 -3.18258e-06 4.68839e-07
-3.18258e-06 0.000106874 -2.92807e-07
4.68839e-07 -2.92807e-07 -4.00275e-05
-0.00102923 -1.84402e-05 -1.41666e-05
-1.84402e-05 -0.000370411 1.51686e-05
-1.41666e-05 1.51686e-05 -0.000520487
0.000751367 1.80057e-05 2.88042e-05
1.80057e-05 -0.00017893 -5.13559e-05
2.88042e-05 -5.13559e-05 -0.000555487
0.00125602 -1.69329e-05 1.04158e-05
-1.69329e-05 0.000244576 -3.24089e-06
1.04158e-05 -3.24089e-06 0.000129676
0.0085952 0.000226616 4.26686e-05
0.000226616 0.00230803 2.56419e-06
4.26686e-05 2.56419e-06 0.00124394
0.00431908 0.000455143 -3.66422e-05
0.000455143 0.00117232 2.28876e-05
-3.66422e-05 2.28876e-05 0.00114595
0.00117987 -2.35322e-06 5.83845e-06
-2.35322e-06 8.30882e-05 2.67198e-06
5.83845e-06 2.67198e-06 1.44531e-05
-0.00064671 0.000302718 -1.22024e-05
0.000302718 -0.00122391 6.58846e-06
-1.22024e-05 6.58846e-06 -0.000579815
-0.000112914 -2.65554e-05 2.00819e-06
-2.65554e-05 5.49109e-05 -2.32541e-07
2.00819e-06 -2.32541e-07 -0.000117441
0.00123513 -1.83689e-05 5.98888e-06
-1.83689e-05 0.000230428 -6.71141e-07
5.98888e-06 -6.71141e-07 0.000139819
-0.0012245 0.000130056 -5.12022e-06
0.000130056 -0.000991958 7.8963e-07
-5.12022e-06 7.8963e-07 -0.000807389
0.00209212 -0.000143387 1.38785e-05
-0.000143387 0.000411187 2.94033e-05
1.38785e-05 2.94033e-05 -9.2177e-06
0.00303435 0.000429016 -3.32027e-07
0.000429016 0.000907063 3.3558e-07
-3.32027e-07 3.3558e-07 0.000981001
0.00564468 0.000166237 2.5853e-05
0.000166237 0.00138751 -1.33976e-05
2.5853e-05 -1.33976e-05 0.000106549
0.00155094 -8.33105e-05 9.59337e-06
-8.33105e-05 0.000292967 6.39175e-06
9.59337e-06 6.39175e-06 0.000355931
-0.00103003 2.13916e-05 4.03687e-06
2.13916e-05 -0.000841627 3.72653e-07
4.03687e-06 3.72653e-07 -0.000891722
0.00336595 0.000320813 3.98617e-05
0.000320813 0.0013609 -1.40462e-05
3.98617e-05 -1.40462e-05 0.00143177
0.00393108 0.00036968 -2.95877e-05
0.00036968 0.00077279 2.75916e-05
-2.95877e-05 2.75916e-05 -0.000186174
0.00211167 -0.00015181 -2.38654e-06
-0.00015181 0.000282118 3.86889e-05
-2.38654e-06 3.86889e-05 -5.15643e-05
0.000759837 -8.88059e-06 -2.88077e-06
-8.88059e-06 0.000240446 5.22475e-06
-2.88077e-06 5.22475e-06 1.44846e-06
0.0008679 -0.000116627 1.47357e-06
-0.000116627 0.000149648 -3.15111e-06
1.47357e-06 -3.15111e-06 -9.36684e-05
0.00240418 -0.000187005 1.49648e-06
-0.000187005 0.000607461 -1.31728e-06
1.49648e-06 -1.31728e-06 0.000445405
8.84186e-05 -3.05148e-05 -1.02096e-06
-3.05148e-05 -0.000224112 1.20574e-06
-1.02096e-06 1.20574e-06 -0.00043086
0.000745163 -8.48933e-05 1.31799e-06
-8.48933e-05 9.77683e-06 -5.2906e-07
1.31799e-06 -5.2906e-07 -0.000170201
0.00117147 -0.000115691 2.54063e-06
-0.000115691 8.49678e-05 2.18347e-06
2.54063e-06 2.18347e-06 -5.76067e-05
0.00135143 -8.80594e-05 -1.85713e-06
-8.80594e-05 0.000284276 6.88019e-07
-1.85713e-06 6.88019e-07 0.000124334
0.00118723 -9.95245e-05 -1.02602e-06
-9.95245e-05 0.000133318 -3.53648e-07
-1.02602e-06 -3.53648e-07 -2.2621e-05
0.00148762 -0.000114087 -1.22521e-06
-0.000114087 0.000188903 3.02276e-08
-1.22521e-06 3.02276e-08 6.10897e-05
0.00138617 -9.87266e-05 -3.0303e-07
-9.87266e-05 0.000239031 -7.42492e-07
-3.0303e-07 -7.42492e-07 0.000100998
0.00127845 -9.78383e-05 3.43427e-07
-9.78383e-05 0.000149288 -7.86263e-07
3.43427e-07 -7.86263e-07 1.32838e-05
0.00148038 -9.83089e-05 -2.00552e-06
-9.83089e-05 0.000183908 -2.19695e-06
-2.00552e-06 -2.19695e-06 6.5831e-05
0.00132688 -8.78665e-05 -1.74751e-06
-8.78665e-05 9.08612e-05 -1.65759e-06
-1.74751e-06 -1.65759e-06 -1.39188e-05
0.00111303 -8.36593e-05 -1.60066e-06
-8.36593e-05 5.97472e-05 8.10193e-07
-1.60066e-06 8.10193e-07 -5.04396e-05
0.00125517 -9.08753e-05 4.06966e-07
-9.08753e-05 0.000111166 -9.01528e-07
4.06966e-07 -9.01528e-07 -8.14093e-06
0.0012683 -8.30137e-05 -1.17935e-06
-8.30137e-05 0.000178751 1.86531e-06
-1.17935e-06 1.86531e-06 8.3349e-05
0.00125758 -8.73746e-05 -2.77479e-07
-8.73746e-05 0.000161189 6.16131e-07
-2.77479e-07 6.16131e-07 5.26692e-05
0.00132412 -9.50337e-05 1.13997e-06
-9.50337e-05 0.000183887 -1.46803e-06
1.13997e-06 -1.46803e-06 6.00976e-05
0.000992192 -6.70082e-05 -4.48593e-07
-6.70082e-05 6.6843e-05 -7.66581e-07
-4.48593e-07 -7.66581e-07 -1.57116e-05
0.000846072 -6.5648e-05 -1.91454e-07
-6.5648e-05 -9.89565e-06 -8.2024e-07
-1.91454e-07 -8.2024e-07 -9.65732e-05
0.00108388 -7.59693e-05 2.70491e-06
-7.59693e-05 0.000106051 -1.9966e-06
2.70491e-06 -1.9966e-06 1.1405e-05
0.000942062 -2.51367e-05 -5.68808e-07
-2.51367e-05 4.97451e-05 8.61904e-07
-5.68808e-07 8.61904e-07 -2.3803e-05
0.00103527 -6.25557e-05 1.39873e-07
-6.25557e-05 9.94257e-05 3.74754e-07
1.39873e-07 3.74754e-07 1.5388e-05
0.00109011 -7.07715e-05 6.51315e-07
-7.07715e-05 0.000126854 8.26118e-07
6.51315e-07 8.26118e-07 3.92369e-05
0.000853502 3.99592e-05 -1.52256e-06
3.99592e-05 4.71296e-06 2.20106e-06
-1.52256e-06 2.20106e-06 -4.38847e-05
0.00094727 -6.76458e-07 -4.38588e-08
-6.76458e-07 5.10104e-05 7.79723e-09
-4.38588e-08 7.79723e-09 -1.83077e-05
0.000969031 -4.45784e-05 2.37884e-07
-4.45784e-05 7.14538e-05 -1.36443e-07
2.37884e-07 -1.36443e-07 -8.64629e-06
0.00143722 3.40251e-05 -1.1279e-05
3.40251e-05 0.000306425 3.19574e-06
-1.1279e-05 3.19574e-06 0.000298231
0.000854926 2.38809e-05 9.88687e-08
2.38809e-05 1.09536e-07 -7.44233e-08
9.88687e-08 -7.44233e-08 -4.1755e-05
0.00094498 -2.55904e-06 8.09582e-07
-2.55904e-06 4.46315e-05 -1.13654e-06
8.09582e-07 -1.13654e-06 -1.82966e-05
0.000984965 2.44924e-05 -1.69108e-05
2.44924e-05 6.84401e-05 3.66593e-06
-1.69108e-05 3.66593e-06 7.8622e-05
0.00113894 2.95561e-05 -4.30146e-06
2.95561e-05 0.000145576 4.48007e-07
-4.30146e-06 4.48007e-07 0.000138505
0.000858591 2.8219e-05 1.08415e-06
2.8219e-05 -4.67586e-07 -2.07727e-06
1.08415e-06 -2.07727e-06 -3.78496e-05
0.000836742 2.47064e-05 2.31164e-06
2.47064e-05 -1.79553e-05 -3.27147e-06
2.31164e-06 -3.27147e-06 -2.37553e-05
0.00223064 3.43109e-05 6.27246e-07
3.43109e-05 0.000707019 5.07469e-08
6.27246e-07 5.07469e-08 0.000725196
0.00218406 2.96509e-05 1.70678e-05
2.96509e-05 0.000677038 -3.65551e-06
1.70678e-05 -3.65551e-06 0.000696746
0.000946257 1.2578e-05 -5.05882e-07
1.2578e-05 3.77947e-05 -1.19872e-06
-5.05882e-07 -1.19872e-06 -3.22827e-05
0.000949144 -2.4956e-06 -4.62121e-07
-2.4956e-06 3.45805e-05 -1.40651e-06
-4.62121e-07 -1.40651e-06 -2.31025e-05
0.000987773 1.0011e-05 -9.55306e-08
1.0011e-05 5.62219e-05 -1.08189e-08
-9.55306e-08 -1.08189e-08 -1.0677e-05
0.000865106 -2.60355e-05 -7.14246e-07
-2.60355e-05 -6.12185e-06 -2.03288e-06
-7.14246e-07 -2.03288e-06 -4.14881e-05
0.000946611 3.75888e-06 3.63853e-07
3.75888e-06 3.38425e-05 -8.2567e-08
3.63853e-07 -8.2567e-08 -2.08737e-05
0.00083013 -2.06783e-05 -1.84523e-06
-2.06783e-05 -2.78749e-05 -3.36803e-06
-1.84523e-06 -3.36803e-06 -3.35657e-05
0.000880482 -1.51226e-05 -2.24731e-07
-1.51226e-05 -1.16802e-06 1.98729e-09
-2.24731e-07 1.98729e-09 -3.43066e-05
0.000948131 1.9897e-05 7.94256e-07
1.9897e-05 3.68803e-05 1.08529e-06
7.94256e-07 1.08529e-06 -1.61702e-05
0.00226594 -2.51875e-05 -1.53979e-05
-2.51875e-05 0.000712849 -3.94097e-06
-1.53979e-05 -3.94097e-06 0.000733025
0.000825744 -1.78537e-05 -1.93756e-07
-1.78537e-05 -3.46955e-05 -7.53728e-09
-1.93756e-07 -7.53728e-09 -3.83982e-05
0.000897111 -1.33157e-05 5.30796e-07
-1.33157e-05 5.61998e-06 1.70627e-06
5.30796e-07 1.70627e-06 -2.54793e-05
0.00219743 -2.02134e-05 -1.09546e-06
-2.02134e-05 0.000672339 4.2872e-08
-1.09546e-06 4.2872e-08 0.000694122
0.00081952 -1.46552e-05 8.1053e-07
-1.46552e-05 -4.24562e-05 3.20108e-06
8.1053e-07 3.20108e-06 -4.37941e-05
0.00213271 -1.4845e-05 8.6445e-06
-1.4845e-05 0.000634556 3.84272e-06
8.6445e-06 3.84272e-06 0.000657811
0.000727515 1.12758e-05 -6.1578e-06
1.12758e-05 -5.23083e-08 -3.11525e-06
-6.1578e-06 -3.11525e-06 -7.77865e-05
0.0010085 1.48651e-05 -2.04186e-06
1.48651e-05 0.000104426 -3.84207e-06
-2.04186e-06 -3.84207e-06 -1.44563e-05
0.0011908 9.85976e-07 7.8305e-07
9.85976e-07 0.000131128 -9.09318e-07
7.8305e-07 -9.09318e-07 -1.10822e-05
0.00102144 4.54686e-05 -7.75233e-07
4.54686e-05 8.64426e-05 -8.31179e-08
-7.75233e-07 -8.31179e-08 7.83256e-06
0.00100034 1.04199e-05 2.19642e-07
1.04199e-05 6.43421e-05 5.82578e-07
2.19642e-07 5.82578e-07 -1.18248e-06
0.00100211 1.15433e-05 1.70256e-07
1.15433e-05 6.4482e-05 7.62525e-07
1.70256e-07 7.62525e-07 -7.93648e-06
0.0010069 6.20504e-06 8.65725e-08
6.20504e-06 6.94078e-05 -2.05971e-07
8.65725e-08 -2.05971e-07 -1.53425e-06
0.00100665 2.78953e-05 -6.62027e-08
2.78953e-05 7.23072e-05 -2.23684e-07
-6.62027e-08 -2.23684e-07 -3.42014e-06
0.00102741 3.51059e-05 3.72803e-08
3.51059e-05 8.3565e-05 4.2457e-07
3.72803e-08 4.2457e-07 5.96652e-06
0.00102969 4.30018e-05 -7.70284e-07
4.30018e-05 8.744e-05 -1.09745e-06
-7.70284e-07 -1.09745e-06 6.54975e-06
0.000907032 2.82359e-05 -1.77568e-07
2.82359e-05 2.54194e-05 -5.25175e-07
-1.77568e-07 -5.25175e-07 -5.25838e-05
0.000979831 4.24322e-05 4.76967e-07
4.24322e-05 6.13822e-05 2.08742e-07
4.76967e-07 2.08742e-07 -1.09121e-05
0.000986764 -7.06256e-06 3.39207e-07
-7.06256e-06 5.88059e-05 2.98966e-07
3.39207e-07 2.98966e-07 -1.5375e-05
0.00103393 2.44968e-05 -1.08335e-07
2.44968e-05 9.04549e-05 1.69766e-08
-1.08335e-07 1.69766e-08 1.39428e-05
0.00148649 2.93457e-05 1.68305e-06
2.93457e-05 0.000321332 -1.46844e-07
1.68305e-06 -1.46844e-07 0.000242482
0.00170081 -0.000126289 1.21155e-05
-0.000126289 0.000562929 1.13495e-05
1.21155e-05 1.13495e-05 0.000788064
0.00106108 9.73486e-07 2.73832e-06
9.73486e-07 4.95799e-05 5.26351e-06
2.73832e-06 5.26351e-06 -1.5382e-05
0.00110801 2.529e-05 1.55205e-05
2.529e-05 0.000114172 7.258e-06
1.55205e-05 7.258e-06 2.55456e-05
0.00190405 -0.000159118 -6.96238e-06
-0.000159118 -5.99122e-05 -1.326e-05
-6.96238e-06 -1.326e-05 0.00038823
0.00301076 -0.000275301 -2.97952e-06
-0.000275301 -0.000254178 -8.72689e-05
-2.97952e-06 -8.72689e-05 -0.000136635
0.00333773 4.17228e-05 -4.44277e-05
4.17228e-05 -0.000546693 0.000103843
-4.44277e-05 0.000103843 -0.00080385
0.00132149 -0.000217952 -5.79457e-05
-0.000217952 2.96854e-06 7.73238e-05
-5.79457e-05 7.73238e-05 -0.000312813
0.00249929 -6.9247e-05 -1.94599e-05
-6.9247e-05 0.000790116 7.12809e-06
-1.94599e-05 7.12809e-06 0.000483868
0.00034879 -0.000234921 -5.23834e-06
-0.000234921 -0.000616631 -3.32739e-06
-5.23834e-06 -3.32739e-06 -3.91373e-05
0.00537627 -0.000102671 1.74953e-05
-0.000102671 0.000732055 5.24043e-05
1.74953e-05 5.24043e-05 -6.13657e-05
-0.000710818 -0.000238042 -4.97459e-06
-0.000238042 -0.00111676 -9.52644e-06
-4.97459e-06 -9.52644e-06 -0.000950548
0.00285389 0.000152326 -5.96668e-05
0.000152326 0.000714577 -4.90422e-05
-5.96668e-05 -4.90422e-05 0.000462795
0.007686 -0.000298215 1.22266e-06
-0.000298215 0.00232319 3.54803e-05
1.22266e-06 3.54803e-05 0.00146744
-2.72758e-05 -0.000240915 2.67928e-05
-0.000240915 -7.06987e-05 1.59205e-05
2.67928e-05 1.59205e-05 0.000103267
0.000752104 7.81847e-05 -2.8515e-06
7.81847e-05 -1.7126e-05 -1.25677e-06
-2.8515e-06 -1.25677e-06 -8.61196e-05
0.00114149 2.42347e-05 2.08287e-06
2.42347e-05 0.00014575 2.3407e-07
2.08287e-06 2.3407e-07 7.48414e-05
0.00102006 8.15105e-06 -3.76308e-07
8.15105e-06 7.89395e-05 -3.65038e-07
-3.76308e-07 -3.65038e-07 2.66897e-07
-0.000182157 1.54815e-05 -1.12772e-05
1.54815e-05 3.79096e-05 -2.0407e-05
-1.12772e-05 -2.0407e-05 -0.000334941
0.000160935 -2.92698e-05 -1.39698e-06
-2.92698e-05 -0.000216795 -1.14343e-06
-1.39698e-06 -1.14343e-06 -0.000330734
0.000848198 5.27065e-06 1.96349e-06
5.27065e-06 -3.9047e-06 2.42809e-06
1.96349e-06 2.42809e-06 -8.6644e-05
0.000938628 3.63446e-05 4.03069e-07
3.63446e-05 0.000151156 2.81825e-07
4.03069e-07 2.81825e-07 2.89876e-05
0.000836458 4.30162e-05 1.55774e-07
4.30162e-05 0.000274215 -5.67625e-06
1.55774e-07 -5.67625e-06 9.57809e-05
-0.00100384 5.74436e-05 3.7981e-06
5.74436e-05 -0.000727012 1.44815e-05
3.7981e-06 1.44815e-05 -0.000881999
0.00236037 -1.83546e-05 5.8162e-06
-1.83546e-05 0.00112528 -6.78299e-07
5.8162e-06 -6.78299e-07 0.0010936
0.000913302 -2.5564e-06 -1.23026e-07
-2.5564e-06 9.85126e-05 -1.11207e-06
-1.23026e-07 -1.11207e-06 8.67515e-06
0.000757947 -1.20734e-06 7.70712e-06
-1.20734e-06 -7.57993e-05 6.98137e-08
7.70712e-06 6.98137e-08 -0.000213574
0.000710022 -4.20584e-05 -1.51657e-06
-4.20584e-05 0.00046862 1.17058e-05
-1.51657e-06 1.17058e-05 0.000284423
0.00158264 -0.000132092 4.76519e-06
-0.000132092 0.000185235 -4.67335e-05
4.76519e-06 -4.67335e-05 -0.000103931
0.00127825 -1.93411e-05 1.54061e-05
-1.93411e-05 0.000260859 -6.81979e-06
1.54061e-05 -6.81979e-06 0.000173385
0.00192859 0.000179939 -1.94868e-05
0.000179939 -7.92158e-05 2.83192e-05
-1.94868e-05 2.83192e-05 -0.00123545
-0.00200281 0.000293597 -5.29783e-05
0.000293597 -0.00137204 2.27586e-05
-5.29783e-05 2.27586e-05 -0.00122581
0.00121887 0.000159161 -1.49742e-05
0.000159161 0.000325345 9.10719e-06
-1.49742e-05 9.10719e-06 0.000612718
0.00163068 -0.000105854 5.89927e-06
-0.000105854 0.000336564 2.93419e-06
5.89927e-06 2.93419e-06 0.000403265
0.001206 4.55589e-05 -2.08643e-06
4.55589e-05 0.000434868 6.32575e-07
-2.08643e-06 6.32575e-07 0.000470616
-0.0025084 0.000159611 -4.07926e-07
0.000159611 -0.0011489 2.65492e-06
-4.07926e-07 2.65492e-06 -0.00112455
0.00337131 -0.000205209 -1.17049e-05
-0.000205209 0.000606308 1.96635e-05
-1.17049e-05 1.96635e-05 0.000124158
0.0057781 0.000311742 -1.1004e-05
0.000311742 0.00159481 2.88659e-06
-1.1004e-05 2.88659e-06 0.000685005
0.000480279 -0.000131986 9.83491e-07
-0.000131986 -0.000416651 7.25676e-06
9.83491e-07 7.25676e-06 -0.000342355
-0.0027802 7.24757e-05 4.88798e-05
7.24757e-05 -0.00168719 -1.63694e-05
4.88798e-05 -1.63694e-05 -0.00163068
0.00605017 0.000293493 4.76353e-06
0.000293493 0.00178125 8.47851e-07
4.76353e-06 8.47851e-07 0.00104486
0.00370247 -1.44526e-05 -1.0933e-05
-1.44526e-05 0.000459788 2.94437e-05
-1.0933e-05 2.94437e-05 0.000167125
0.000513477 -0.000105885 -2.78921e-06
-0.000105885 7.06969e-06 -2.03023e-06
-2.78921e-06 -2.03023e-06 -0.000266151
0.00131889 -0.000150378 3.61759e-07
-0.000150378 0.00010952 5.58898e-07
3.61759e-07 5.58898e-07 -4.23682e-05
0.00155313 -0.000162918 7.46961e-07
-0.000162918 9.4843e-05 3.40002e-06
7.46961e-07 3.40002e-06 -9.08623e-06
9.84641e-05 -6.35371e-05 -1.2165e-06
-6.35371e-05 -0.000301815 -9.02645e-07
-1.2165e-06 -9.02645e-07 -0.000486666
0.00114776 -0.000113634 -3.74784e-07
-0.000113634 6.69906e-05 -2.59735e-07
-3.74784e-07 -2.59735e-07 -7.57234e-05
0.00180583 -0.000129074 -5.70501e-06
-0.000129074 0.000225996 -1.31362e-07
-5.70501e-06 -1.31362e-07 0.000117861
0.00130465 -0.000102097 -1.15539e-06
-0.000102097 0.000185961 -1.90204e-06
-1.15539e-06 -1.90204e-06 3.46013e-05
0.0013126 -0.00010796 4.97429e-07
-0.00010796 0.000104228 -6.84225e-07
4.97429e-07 -6.84225e-07 -2.33937e-05
0.00178136 -0.000105163 -2.9501e-06
-0.000105163 0.000244417 -3.23584e-06
-2.9501e-06 -3.23584e-06 0.000148842
0.0011716 -9.28835e-05 8.86529e-08
-9.28835e-05 9.28805e-05 -1.2455e-06
8.86529e-08 -1.2455e-06 -4.03357e-05
0.00128694 -9.14702e-05 -3.74259e-07
-9.14702e-05 8.22609e-05 -8.65912e-07
-3.74259e-07 -8.65912e-07 -3.39748e-05
0.00150924 -8.68055e-05 -1.80068e-06
-8.68055e-05 0.000119447 -3.42668e-06
-1.80068e-06 -3.42668e-06 3.40895e-05
0.00144398 -8.14645e-05 -1.65062e-06
-8.14645e-05 0.000105674 -2.35182e-06
-1.65062e-06 -2.35182e-06 2.44201e-05
0.00128879 -8.62291e-05 -2.12791e-06
-8.62291e-05 9.67652e-05 -7.69225e-07
-2.12791e-06 -7.69225e-07 -5.47422e-06
0.00131674 -8.54644e-05 7.11769e-07
-8.54644e-05 8.64862e-05 1.38616e-08
7.11769e-07 1.38616e-08 -1.61238e-05
0.000783218 -6.96959e-05 -1.47333e-06
-6.96959e-05 -9.01142e-05 1.37432e-06
-1.47333e-06 1.37432e-06 -0.000189692
0.0012672 -8.77161e-05 8.17731e-07
-8.77161e-05 0.000136688 -8.29675e-07
8.17731e-07 -8.29675e-07 2.75305e-05
0.00115975 -8.71929e-05 1.78232e-06
-8.71929e-05 6.19529e-05 -1.21031e-06
1.78232e-06 -1.21031e-06 -5.62116e-05
0.00103683 -7.19617e-05 -4.12255e-07
-7.19617e-05 7.85865e-05 6.48953e-07
-4.12255e-07 6.48953e-07 -6.79944e-06
0.00103132 -7.52395e-05 3.24698e-07
-7.52395e-05 6.31981e-05 -1.64982e-07
3.24698e-07 -1.64982e-07 -3.21994e-05
0.000960578 -7.83203e-05 1.15425e-06
-7.83203e-05 1.37444e-05 -1.6986e-06
1.15425e-06 -1.6986e-06 -9.65821e-05
0.000987304 -5.06465e-05 -1.40705e-06
-5.06465e-05 6.74484e-05 1.38196e-07
-1.40705e-06 1.38196e-07 -7.13434e-06
0.00104845 -6.84382e-05 -2.09038e-07
-6.84382e-05 9.3804e-05 -3.13951e-07
-2.09038e-07 -3.13951e-07 1.12128e-05
0.000936996 -6.83021e-05 1.66366e-07
-6.83021e-05 3.67167e-05 -1.01802e-06
1.66366e-07 -1.01802e-06 -4.89822e-05
0.000894241 1.08397e-05 -1.76764e-06
1.08397e-05 3.08126e-05 2.20218e-06
-1.76764e-06 2.20218e-06 -2.33992e-05
0.000979009 -2.64519e-05 4.74781e-07
-2.64519e-05 6.77359e-05 2.78481e-07
4.74781e-07 2.78481e-07 -5.71344e-06
0.00098246 -5.96387e-05 8.27947e-07
-5.96387e-05 7.34697e-05 6.45513e-07
8.27947e-07 6.45513e-07 -1.00994e-05
0.000747733 3.23488e-05 -3.76901e-06
3.23488e-05 -4.35437e-05 3.55757e-06
-3.76901e-06 3.55757e-06 -5.86364e-05
0.000854646 1.66983e-05 -1.98989e-07
1.66983e-05 3.52082e-06 -1.00316e-07
-1.98989e-07 -1.00316e-07 -4.40696e-05
0.000984832 -6.08974e-06 6.3174e-07
-6.08974e-06 7.01437e-05 -1.11935e-06
6.3174e-07 -1.11935e-06 4.31852e-07
0.00235083 4.81838e-05 -8.53488e-06
4.81838e-05 0.00078414 1.49818e-06
-8.53488e-06 1.49818e-06 0.000797674
0.000777381 2.9581e-05 1.77899e-07
2.9581e-05 -3.4732e-05 1.86956e-08
1.77899e-07 1.86956e-08 -4.68533e-05
0.000854141 2.26325e-05 1.85511e-06
2.26325e-05 1.13824e-07 -2.10263e-06
1.85511e-06 -2.10263e-06 -4.19748e-05
0.00230154 3.87911e-05 6.04973e-07
3.87911e-05 0.000750261 4.64175e-08
6.04973e-07 4.64175e-08 0.000766598
0.000823971 2.76948e-05 2.84436e-06
2.76948e-05 -1.75036e-05 -3.42247e-06
2.84436e-06 -3.42247e-06 -2.64439e-05
0.002243 3.42763e-05 1.95639e-05
3.42763e-05 0.000714333 -3.67808e-06
1.95639e-05 -3.67808e-06 0.000732243
0.00104507 4.36449e-05 -6.0177e-07
4.36449e-05 9.64554e-05 -2.08398e-07
-6.0177e-07 -2.08398e-07 2.27905e-05
0.000962114 1.45783e-05 -2.0959e-08
1.45783e-05 4.62646e-05 -2.70776e-07
-2.0959e-08 -2.70776e-07 -2.38903e-05
0.000944886 -2.95064e-06 -7.18832e-07
-2.95064e-06 3.77829e-05 -1.55546e-06
-7.18832e-07 -1.55546e-06 -2.43544e-05
0.000858376 -2.64318e-05 -1.20077e-06
-2.64318e-05 -6.76447e-06 -2.27607e-06
-1.20077e-06 -2.27607e-06 -4.44013e-05
0.000939779 -4.41769e-06 2.20287e-07
-4.41769e-06 3.05645e-05 -1.92318e-08
2.20287e-07 -1.92318e-08 -2.72104e-05
0.000957865 1.69427e-05 5.11804e-07
1.69427e-05 4.21606e-05 8.6413e-07
5.11804e-07 8.6413e-07 -2.59421e-05
0.000821853 -2.31663e-05 -2.45384e-06
-2.31663e-05 -2.76867e-05 -3.44823e-06
-2.45384e-06 -3.44823e-06 -3.49938e-05
0.000870954 -2.03407e-05 -2.01706e-07
-2.03407e-05 -3.67099e-06 -7.48048e-09
-2.01706e-07 -7.48048e-09 -3.87324e-05
0.000944221 -3.33145e-06 6.82099e-07
-3.33145e-06 3.23821e-05 1.17438e-06
6.82099e-07 1.17438e-06 -2.20314e-05
0.00230613 -2.98386e-05 -1.79883e-05
-2.98386e-05 0.000738666 -3.9034e-06
-1.79883e-05 -3.9034e-06 0.000757526
0.000814462 -2.04437e-05 -1.29912e-07
-2.04437e-05 -3.57688e-05 -8.87073e-09
-1.29912e-07 -8.87073e-09 -4.13909e-05
0.000888046 -1.40859e-05 8.60313e-07
-1.40859e-05 2.61866e-06 1.75355e-06
8.60313e-07 1.75355e-06 -3.04183e-05
0.00226052 -2.51784e-05 -1.10896e-06
-2.51784e-05 0.000709501 5.3619e-08
-1.10896e-06 5.3619e-08 0.000729846
0.000808233 -1.76698e-05 1.08315e-06
-1.76698e-05 -4.35747e-05 3.32911e-06
1.08315e-06 3.32911e-06 -4.71807e-05
0.00218871 -2.00444e-05 1.12564e-05
-2.00444e-05 0.000667321 3.85712e-06
1.12564e-05 3.85712e-06 0.000689315
-1.91964e-05 -3.89554e-05 6.69199e-06
-3.89554e-05 -0.000222942 1.33716e-06
6.69199e-06 1.33716e-06 -0.000271934
0.000688332 1.24687e-05 1.44902e-06
1.24687e-05 -3.01907e-05 -6.76393e-07
1.44902e-06 -6.76393e-07 -0.00010679
0.00105544 1.38044e-05 1.55796e-05
1.38044e-05 0.000141407 2.74791e-06
1.55796e-05 2.74791e-06 2.23936e-05
0.00100951 3.94767e-05 -1.46544e-07
3.94767e-05 7.94371e-05 3.60075e-07
-1.46544e-07 3.60075e-07 9.83628e-07
0.00112562 6.72853e-05 -5.4992e-07
6.72853e-05 0.000145543 6.47665e-07
-5.4992e-07 6.47665e-07 6.47874e-05
0.00103939 5.07125e-05 -6.32441e-07
5.07125e-05 9.52201e-05 1.2594e-08
-6.32441e-07 1.2594e-08 1.36221e-05
0.00108654 2.50965e-06 -2.93942e-08
2.50965e-06 0.000110245 1.40405e-08
-2.93942e-08 1.40405e-08 3.9986e-05
0.00105277 2.60546e-05 3.64494e-07
2.60546e-05 9.5204e-05 6.3207e-07
3.64494e-07 6.3207e-07 2.04271e-05
0.000950046 1.62794e-05 -5.32781e-08
1.62794e-05 4.09735e-05 1.17763e-06
-5.32781e-08 1.17763e-06 -3.4956e-05
0.000941841 2.63351e-05 -2.84768e-07
2.63351e-05 4.28593e-05 3.09769e-08
-2.84768e-07 3.09769e-08 -3.52648e-05
0.00100779 3.40047e-05 1.45751e-07
3.40047e-05 7.53624e-05 3.04541e-08
1.45751e-07 3.04541e-08 -4.81575e-06
0.00106263 4.6451e-05 -5.30047e-07
4.6451e-05 0.000117419 -9.94593e-07
-5.30047e-07 -9.94593e-07 3.10258e-05
0.000835567 4.02982e-05 4.78998e-09
4.02982e-05 -4.27899e-06 -1.50995e-06
4.78998e-09 -1.50995e-06 -8.50689e-05
0.00100969 4.02561e-05 9.30114e-08
4.02561e-05 8.03685e-05 -4.5146e-08
9.30114e-08 -4.5146e-08 2.38758e-06
0.00118484 3.4274e-05 3.5246e-07
3.4274e-05 0.000171531 7.35075e-08
3.5246e-07 7.35075e-08 9.2461e-05
-0.00308867 -0.000151154 3.14599e-05
-0.000151154 -0.00157065 2.85046e-05
3.14599e-05 2.85046e-05 -0.00154113
0.000778419 -0.000123859 2.74328e-06
-0.000123859 8.68148e-05 5.81572e-07
2.74328e-06 5.81572e-07 0.000271316
0.000804584 6.19268e-06 2.62762e-06
6.19268e-06 -0.000114938 -1.44759e-06
2.62762e-06 -1.44759e-06 -0.000179995
-0.000627848 -0.000245676 -4.55692e-06
-0.000245676 -0.00111446 -6.43123e-06
-4.55692e-06 -6.43123e-06 -0.000530294
0.00415204 -0.000364908 -1.83912e-05
-0.000364908 0.00110933 -5.2883e-05
-1.83912e-05 -5.2883e-05 0.0012458
0.00465143 -8.75041e-05 4.15521e-05
-8.75041e-05 0.000565664 2.77727e-05
4.15521e-05 2.77727e-05 -5.62511e-05
0.00126646 -7.01454e-05 -4.1835e-05
-7.01454e-05 0.000105736 7.44091e-05
-4.1835e-05 7.44091e-05 -0.000487397
0.00221428 0.000120878 -4.2671e-05
0.000120878 0.000247351 -2.50256e-05
-4.2671e-05 -2.50256e-05 -0.00017078
0.00275509 -0.000341209 -2.70922e-06
-0.000341209 0.00085993 1.51343e-06
-2.70922e-06 1.51343e-06 0.000947049
0.00309459 -0.000103471 3.02573e-05
-0.000103471 0.000111215 4.19506e-05
3.02573e-05 4.19506e-05 -0.000756597
0.00165709 0.000168846 -7.85901e-05
0.000168846 -2.39896e-05 -8.79634e-05
-7.85901e-05 -8.79634e-05 -0.000508743
0.00339016 5.79523e-06 -5.3797e-05
5.79523e-06 0.000574487 -1.16058e-05
-5.3797e-05 -1.16058e-05 -0.000312106
0.00232419 0.000176657 9.18668e-06
0.000176657 0.000708225 -6.51556e-06
9.18668e-06 -6.51556e-06 0.000575538
0.000899278 8.07063e-05 -5.59128e-07
8.07063e-05 4.50096e-05 -3.88338e-07
-5.59128e-07 -3.88338e-07 -2.20285e-05
0.00131202 3.58085e-05 1.18045e-06
3.58085e-05 0.000228593 -9.74988e-07
1.18045e-06 -9.74988e-07 0.000157001
-0.000538067 -9.84229e-06 -1.49646e-05
-9.84229e-06 -0.000388397 -1.03457e-05
-1.49646e-05 -1.03457e-05 -0.00054447
0.0016341 6.35571e-05 8.97678e-07
6.35571e-05 0.000471108 -2.89564e-06
8.97678e-07 -2.89564e-06 0.000351235
0.000945571 0.000122397 7.04773e-06
0.000122397 0.00015457 7.82153e-07
7.04773e-06 7.82153e-07 2.67175e-05
3.71197e-05 0.000127113 2.40883e-05
0.000127113 -0.000473572 2.05484e-05
2.40883e-05 2.05484e-05 -0.000579626
-0.00108203 -2.61181e-05 5.42002e-05
-2.61181e-05 -0.000771025 -9.52425e-06
5.42002e-05 -9.52425e-06 -0.000691492
0.000588685 -9.84462e-06 -4.52664e-06
-9.84462e-06 0.000114462 8.0882e-07
-4.52664e-06 8.0882e-07 6.14369e-05
0.000122036 -1.25303e-06 1.11817e-05
-1.25303e-06 -0.000375371 -1.51896e-06
1.11817e-05 -1.51896e-06 -0.000469924
0.00182054 -0.000112604 -3.50818e-05
-0.000112604 0.000497563 -5.38275e-07
-3.50818e-05 -5.38275e-07 0.000500025
0.00193609 -0.000173026 -4.04934e-05
-0.000173026 1.02302e-06 -6.19531e-06
-4.04934e-05 -6.19531e-06 -0.000236451
0.00104128 2.84507e-05 -1.23597e-05
2.84507e-05 0.000351524 4.55957e-07
-1.23597e-05 4.55957e-07 0.000349589
0.0022955 0.000286271 1.34431e-05
0.000286271 0.000140141 -3.35022e-05
1.34431e-05 -3.35022e-05 -0.000862091
0.00430573 0.000259658 -9.55302e-05
0.000259658 0.00198553 2.32489e-05
-9.55302e-05 2.32489e-05 0.00200335
0.00164042 -0.000169473 1.395e-05
-0.000169473 0.000114599 -1.48849e-06
1.395e-05 -1.48849e-06 0.000176067
-0.000714782 0.0001213 -2.78096e-05
0.0001213 -0.000534889 1.37361e-06
-2.78096e-05 1.37361e-06 -0.000587228
0.00299791 0.000193927 -5.4896e-06
0.000193927 0.00041685 9.14035e-06
-5.4896e-06 9.14035e-06 -0.000507883
0.00202201 -5.27053e-06 -8.42799e-06
-5.27053e-06 -0.000153881 4.74314e-06
-8.42799e-06 4.74314e-06 -0.000220856
-0.000530672 -8.82917e-05 -1.04106e-08
-8.82917e-05 -0.000913036 2.17073e-06
-1.04106e-08 2.17073e-06 -0.000882816
0.00528968 9.361e-05 1.80223e-05
9.361e-05 0.00153382 3.54195e-06
1.80223e-05 3.54195e-06 0.000819595
0.00131774 8.14396e-05 -3.90427e-07
8.14396e-05 -0.000161145 -4.63601e-06
-3.90427e-07 -4.63601e-06 -0.000386524
-0.000300918 -0.000102434 1.7175e-06
-0.000102434 -0.000643678 -5.11959e-06
1.7175e-06 -5.11959e-06 -0.000791478
0.0016357 -0.000160379 -1.78301e-07
-0.000160379 0.000176554 -4.52212e-07
-1.78301e-07 -4.52212e-07 6.40393e-05
0.00159822 -0.000148808 -1.44621e-05
-0.000148808 -2.70064e-05 8.76363e-06
-1.44621e-05 8.76363e-06 -0.000120069
0.00120309 -0.000113732 -3.28961e-06
-0.000113732 8.70837e-05 -2.08874e-06
-3.28961e-06 -2.08874e-06 -5.49715e-05
0.00146201 -0.000120922 -3.25124e-06
-0.000120922 5.21625e-05 3.72745e-07
-3.25124e-06 3.72745e-07 -5.48352e-05
0.00230559 -0.000116297 -9.12812e-06
-0.000116297 0.000343624 1.9958e-06
-9.12812e-06 1.9958e-06 0.000281714
0.00120118 -0.00010364 1.78544e-06
-0.00010364 5.22892e-05 -1.15168e-06
1.78544e-06 -1.15168e-06 -7.48485e-05
0.00145125 -9.64591e-05 -7.27183e-07
-9.64591e-05 7.62208e-05 -7.46813e-07
-7.27183e-07 -7.46813e-07 -1.75053e-05
0.00175757 -8.73037e-05 -2.0457e-06
-8.73037e-05 0.000139262 -1.60123e-06
-2.0457e-06 -1.60123e-06 8.42784e-05
0.00109884 -8.509e-05 1.77415e-06
-8.509e-05 -1.64442e-05 2.00548e-07
1.77415e-06 2.00548e-07 -0.000130872
0.00135631 -8.28074e-05 1.0332e-07
-8.28074e-05 4.06742e-05 7.60794e-08
1.0332e-07 7.60794e-08 -4.37126e-05
0.00140772 -7.58459e-05 -7.99683e-07
-7.58459e-05 2.40455e-05 -1.48432e-06
-7.99683e-07 -1.48432e-06 -3.63474e-05
0.00167238 -7.63019e-05 -5.37628e-07
-7.63019e-05 0.000197817 -1.21245e-06
-5.37628e-07 -1.21245e-06 0.000130553
0.00142983 -7.93686e-05 -7.65984e-07
-7.93686e-05 9.87643e-05 1.4127e-06
-7.65984e-07 1.4127e-06 1.98033e-05
0.00136845 -7.96624e-05 -9.5703e-07
-7.96624e-05 9.59031e-05 -2.92388e-06
-9.5703e-07 -2.92388e-06 1.06636e-05
0.00128907 -8.26455e-05 -1.94486e-06
-8.26455e-05 0.000113916 1.68803e-07
-1.94486e-06 1.68803e-07 1.73993e-05
0.00138466 -8.81134e-05 7.70406e-07
-8.81134e-05 0.000146113 -3.85237e-07
7.70406e-07 -3.85237e-07 4.37533e-05
0.0012929 -8.29029e-05 2.40799e-06
-8.29029e-05 7.49842e-05 1.77309e-06
2.40799e-06 1.77309e-06 -2.53964e-05
0.000840028 -6.80383e-05 -1.67519e-06
-6.80383e-05 -4.73228e-05 1.78013e-06
-1.67519e-06 1.78013e-06 -0.000138056
0.00105315 -7.72943e-05 1.02199e-07
-7.72943e-05 4.58776e-05 -6.57123e-08
1.02199e-07 -6.57123e-08 -5.26315e-05
0.00141513 -9.1557e-05 2.73197e-06
-9.1557e-05 0.000210426 -2.26529e-06
2.73197e-06 -2.26529e-06 0.000102326
0.000977495 -5.72113e-05 -1.11606e-06
-5.72113e-05 5.546e-05 3.62471e-07
-1.11606e-06 3.62471e-07 -2.09004e-05
0.00107669 -7.27128e-05 7.7375e-08
-7.27128e-05 9.7456e-05 -1.82177e-07
7.7375e-08 -1.82177e-07 1.19532e-05
0.000821982 -6.84091e-05 6.93772e-07
-6.84091e-05 -3.89254e-05 -2.08688e-06
6.93772e-07 -2.08688e-06 -0.000134335
0.00087187 -6.23797e-06 -2.56905e-06
-6.23797e-06 2.30231e-05 1.92182e-06
-2.56905e-06 1.92182e-06 -3.62049e-05
0.00102136 -5.24193e-05 -5.61253e-08
-5.24193e-05 8.33784e-05 7.74774e-09
-5.61253e-08 7.74774e-09 8.88206e-06
0.0010988 -6.96191e-05 6.56173e-07
-6.96191e-05 0.000117858 -1.88748e-07
6.56173e-07 -1.88748e-07 3.5244e-05
0.000707109 3.7333e-05 -3.68806e-06
3.7333e-05 -5.55992e-05 3.76467e-06
-3.68806e-06 3.76467e-06 -7.50778e-05
0.000873982 7.77499e-06 -2.08002e-08
7.77499e-06 1.97558e-05 2.24071e-08
-2.08002e-08 2.24071e-08 -3.48164e-05
0.00101989 -2.81674e-05 1.40904e-06
-2.81674e-05 8.77378e-05 -2.84937e-07
1.40904e-06 -2.84937e-07 1.43487e-05
0.00248018 4.87275e-05 -2.51637e-05
4.87275e-05 0.000855697 3.49126e-06
-2.51637e-05 3.49126e-06 0.00086796
0.000766377 3.36733e-05 -1.81904e-08
3.36733e-05 -3.33201e-05 -3.40496e-08
-1.81904e-08 -3.40496e-08 -4.87986e-05
0.000857495 5.56406e-06 2.48829e-06
5.56406e-06 4.52647e-06 -2.17553e-06
2.48829e-06 -2.17553e-06 -4.30331e-05
0.00169964 3.82921e-05 9.55696e-06
3.82921e-05 0.000446506 -9.45761e-07
9.55696e-06 -9.45761e-07 0.000457097
0.000807002 3.06147e-05 3.46677e-06
3.06147e-05 -1.97172e-05 -3.54211e-06
3.46677e-06 -3.54211e-06 -3.19524e-05
0.00233 3.8974e-05 2.21759e-05
3.8974e-05 0.000766266 -3.69292e-06
2.21759e-05 -3.69292e-06 0.000782099
0.00102946 4.95715e-05 -2.51854e-07
4.95715e-05 9.07059e-05 6.07059e-07
-2.51854e-07 6.07059e-07 1.52229e-05
0.00101069 3.12989e-05 7.83576e-08
3.12989e-05 7.67915e-05 4.47033e-07
7.83576e-08 4.47033e-07 3.71416e-06
0.000951113 -7.16667e-06 -9.40759e-07
-7.16667e-06 4.63181e-05 -1.17253e-06
-9.40759e-07 -1.17253e-06 -1.96302e-05
0.000988672 2.5319e-05 4.70045e-07
2.5319e-05 6.0985e-05 7.21579e-07
4.70045e-07 7.21579e-07 -9.85492e-06
0.000950939 -1.40654e-05 -3.95925e-09
-1.40654e-05 3.98129e-05 1.72641e-08
-3.95925e-09 1.72641e-08 -2.1609e-05
0.000849792 -2.11866e-05 -1.71345e-06
-2.11866e-05 -6.01426e-06 -2.41464e-06
-1.71345e-06 -2.41464e-06 -4.71849e-05
0.000812173 -2.61815e-05 -2.88606e-06
-2.61815e-05 -2.77053e-05 -3.57612e-06
-2.88606e-06 -3.57612e-06 -3.67084e-05
0.000865892 -2.32133e-05 -2.07602e-07
-2.32133e-05 -3.44479e-06 -3.23897e-08
-2.07602e-07 -3.23897e-08 -4.0785e-05
0.000944469 -1.89162e-05 1.78183e-07
-1.89162e-05 3.24854e-05 1.47738e-06
1.78183e-07 1.47738e-06 -2.4568e-05
0.00232804 -3.42939e-05 -2.02614e-05
-3.42939e-05 0.000755579 -3.81176e-06
-2.02614e-05 -3.81176e-06 0.000773163
0.000806446 -2.28929e-05 -1.80913e-07
-2.28929e-05 -3.52883e-05 1.33897e-08
-1.80913e-07 1.33897e-08 -4.25446e-05
0.000880499 -1.34043e-05 1.44992e-06
-1.34043e-05 7.2567e-07 1.92517e-06
1.44992e-06 1.92517e-06 -3.40596e-05
0.00231029 -2.99273e-05 -8.89153e-07
-2.99273e-05 0.000740238 5.80256e-08
-8.89153e-07 5.80256e-08 0.000759198
0.000799366 -2.0241e-05 1.5999e-06
-2.0241e-05 -4.33175e-05 3.39285e-06
1.5999e-06 3.39285e-06 -4.88815e-05
0.00225561 -2.51656e-05 1.38067e-05
-2.51656e-05 0.00070641 3.87676e-06
1.38067e-05 3.87676e-06 0.000726922
0.000191102 5.80188e-05 9.83656e-05
5.80188e-05 -0.000171334 1.39597e-05
9.83656e-05 1.39597e-05 -0.00036777
0.00121732 -5.12387e-05 4.25873e-06
-5.12387e-05 0.000469868 8.3854e-07
4.25873e-06 8.3854e-07 0.00045427
0.000665885 1.37084e-05 8.7437e-06
1.37084e-05 -5.03522e-05 1.40333e-06
8.7437e-06 1.40333e-06 -0.000125942
0.000991093 3.62626e-05 8.41667e-07
3.62626e-05 6.96176e-05 5.26128e-07
8.41667e-07 5.26128e-07 -9.0198e-06
0.000994526 4.04923e-05 4.38405e-07
4.04923e-05 7.31377e-05 1.91405e-07
4.38405e-07 1.91405e-07 -8.38732e-06
0.00104083 6.46086e-05 -7.44278e-08
6.46086e-05 0.000104796 -3.70092e-08
-7.44278e-08 -3.70092e-08 2.45324e-05
0.0011234 7.21559e-05 1.69286e-09
7.21559e-05 0.000147274 6.52428e-07
1.69286e-09 6.52428e-07 6.54357e-05
0.00105658 6.02061e-05 -1.39579e-06
6.02061e-05 0.000114219 3.497e-07
-1.39579e-06 3.497e-07 3.01841e-05
0.000986814 3.00482e-05 2.89629e-07
3.00482e-05 6.54744e-05 9.20537e-07
2.89629e-07 9.20537e-07 -1.28213e-05
0.000981068 3.80858e-05 8.0443e-07
3.80858e-05 6.26092e-05 8.25237e-07
8.0443e-07 8.25237e-07 -1.79433e-05
0.000921198 5.18491e-05 -4.16023e-07
5.18491e-05 4.76212e-05 -4.20961e-07
-4.16023e-07 -4.20961e-07 -3.86163e-05
0.000462941 5.09141e-05 -1.07544e-06
5.09141e-05 -0.000176798 1.03857e-06
-1.07544e-06 1.03857e-06 -0.00026289
0.000820765 6.14963e-05 -1.11411e-06
6.14963e-05 -8.74255e-06 -1.0544e-06
-1.11411e-06 -1.0544e-06 -9.66331e-05
0.00184711 0.000121703 1.6942e-06
0.000121703 0.000447252 -3.72256e-06
1.6942e-06 -3.72256e-06 0.000342971
0.00102112 4.71174e-05 -1.57592e-06
4.71174e-05 0.000100238 -1.18581e-07
-1.57592e-06 -1.18581e-07 1.74636e-05
0.000991584 2.97013e-05 4.19333e-07
2.97013e-05 7.40156e-05 3.44855e-07
4.19333e-07 3.44855e-07 -4.42871e-06
0.0080081 -0.000122004 -1.31308e-05
-0.000122004 0.00230078 -1.01793e-05
-1.31308e-05 -1.01793e-05 0.00154721
-0.000358906 -0.000181079 7.34272e-07
-0.000181079 -0.000374982 5.2582e-06
7.34272e-07 5.2582e-06 -0.000438496
0.00200914 -0.000131724 -1.47685e-05
-0.000131724 0.000751625 -9.12818e-06
-1.47685e-05 -9.12818e-06 0.000929881
-0.00228052 -0.000205864 -2.84021e-05
-0.000205864 -0.00144918 -2.61957e-05
-2.84021e-05 -2.61957e-05 -0.00126841
0.00822588 -0.000279473 6.42559e-05
-0.000279473 0.00242058 4.05044e-05
6.42559e-05 4.05044e-05 0.00127852
0.00181316 0.000105106 2.8143e-05
0.000105106 0.000301699 1.44022e-05
2.8143e-05 1.44022e-05 5.18794e-05
0.00175923 0.000163826 -3.21916e-05
0.000163826 7.83681e-05 -2.44096e-05
-3.21916e-05 -2.44096e-05 -0.000292173
0.00551897 -0.000202776 3.16812e-05
-0.000202776 0.0013845 1.716e-05
3.16812e-05 1.716e-05 0.000626875
0.00160172 8.6464e-05 -3.56179e-05
8.6464e-05 -0.000103715 -4.69104e-05
-3.56179e-05 -4.69104e-05 -0.000432002
0.00222598 0.000206482 1.8146e-05
0.000206482 0.000448044 9.13549e-06
1.8146e-05 9.13549e-06 0.000296598
0.000890426 0.000117134 3.78761e-08
0.000117134 5.46193e-05 -4.73714e-06
3.78761e-08 -4.73714e-06 -9.1374e-05
0.000904063 6.03596e-05 1.40516e-08
6.03596e-05 3.64422e-05 1.81377e-06
1.40516e-08 1.81377e-06 -2.59365e-05
0.00192635 0.00016064 -2.67402e-05
0.00016064 0.000609797 -1.92721e-05
-2.67402e-05 -1.92721e-05 0.000491788
5.72541e-05 0.000143408 -5.05538e-06
0.000143408 -0.00051763 1.19447e-05
-5.05538e-06 1.19447e-05 -0.000616063
0.000250419 1.2973e-05 -1.00825e-06
1.2973e-05 -0.000766619 -7.35404e-06
-1.00825e-06 -7.35404e-06 -0.00124685
0.00148173 5.31805e-06 -2.05816e-06
5.31805e-06 0.000390483 2.82414e-06
-2.05816e-06 2.82414e-06 0.000303733
-0.00112061 -4.05779e-06 -7.60949e-06
-4.05779e-06 -0.000859532 -1.72142e-07
-7.60949e-06 -1.72142e-07 -0.000934547
0.00303864 -0.000206732 -4.2352e-05
-0.000206732 0.000753274 2.46656e-07
-4.2352e-05 2.46656e-07 0.000820524
0.00174462 -2.03735e-05 2.84469e-05
-2.03735e-05 -0.000603777 -2.53558e-05
2.84469e-05 -2.53558e-05 -0.000811076
0.000584902 -5.91287e-07 -0.000108852
-5.91287e-07 -4.70203e-05 2.49727e-05
-0.000108852 2.49727e-05 -0.000229425
0.00617023 0.000332728 -2.36464e-05
0.000332728 0.00199455 9.90135e-06
-2.36464e-05 9.90135e-06 0.00110136
0.00100519 -0.00012612 2.41451e-06
-0.00012612 -0.000189397 -1.11246e-06
2.41451e-06 -1.11246e-06 -0.000150313
0.00476566 0.000184564 2.75687e-05
0.000184564 0.00128977 3.81244e-06
2.75687e-05 3.81244e-06 0.000650542
0.00257908 8.71686e-05 3.2864e-05
8.71686e-05 0.000114505 -5.82488e-06
3.2864e-05 -5.82488e-06 -0.000181286
0.00223059 -6.15746e-05 -8.71468e-06
-6.15746e-05 0.000378036 -2.19503e-06
-8.71468e-06 -2.19503e-06 0.000332543
0.000857589 5.58622e-05 -3.60232e-05
5.58622e-05 4.36045e-05 6.11143e-06
-3.60232e-05 6.11143e-06 -0.000209876
0.00148533 -0.000150565 5.95497e-06
-0.000150565 0.000133986 -5.82359e-06
5.95497e-06 -5.82359e-06 2.28088e-05
0.00147971 -0.000142288 -4.09955e-06
-0.000142288 -7.22033e-05 9.7222e-07
-4.09955e-06 9.7222e-07 -0.000160261
0.00228658 -0.000106298 -1.30927e-05
-0.000106298 0.000174966 2.27103e-06
-1.30927e-05 2.27103e-06 0.000120676
0.00098934 -0.000109893 2.45864e-06
-0.000109893 -0.000182223 -2.78869e-06
2.45864e-06 -2.78869e-06 -0.000287339
0.00158052 -0.000102547 1.75793e-06
-0.000102547 1.94108e-06 8.99445e-07
1.75793e-06 8.99445e-07 -5.79814e-05
0.00190408 -7.6368e-05 -3.04984e-06
-7.6368e-05 0.000106921 3.84128e-06
-3.04984e-06 3.84128e-06 7.37052e-05
0.00109279 -8.7679e-05 2.19873e-06
-8.7679e-05 -0.000107178 1.6455e-06
2.19873e-06 1.6455e-06 -0.000198773
0.00150658 -8.37909e-05 8.94094e-08
-8.37909e-05 1.5911e-05 1.64513e-06
8.94094e-08 1.64513e-06 -3.94336e-05
0.00161313 -7.05153e-05 9.93683e-07
-7.05153e-05 5.30302e-05 1.97093e-06
9.93683e-07 1.97093e-06 9.55702e-06
0.00122213 -7.93057e-05 2.91632e-06
-7.93057e-05 -2.8941e-05 3.13217e-06
2.91632e-06 3.13217e-06 -0.00011237
0.00143593 -7.70337e-05 1.27327e-07
-7.70337e-05 3.97383e-05 1.19501e-06
1.27327e-07 1.19501e-06 -2.1759e-05
0.0015116 -6.89428e-05 2.79831e-07
-6.89428e-05 7.44988e-05 -1.57352e-07
2.79831e-07 -1.57352e-07 1.63277e-05
0.00147066 -7.31051e-05 -1.41947e-06
-7.31051e-05 9.86162e-05 1.21225e-06
-1.41947e-06 1.21225e-06 3.36418e-05
0.00164038 -7.52462e-05 1.17651e-06
-7.52462e-05 0.000200257 -2.04627e-06
1.17651e-06 -2.04627e-06 0.000126528
0.00143709 -7.77916e-05 1.8686e-06
-7.77916e-05 0.000102869 4.21808e-06
1.8686e-06 4.21808e-06 2.61222e-05
0.00138244 -7.92631e-05 1.23893e-07
-7.92631e-05 0.000102617 -5.4158e-07
1.23893e-07 -5.4158e-07 1.69693e-05
0.00135944 -7.708e-05 -9.18595e-07
-7.708e-05 0.00010775 -1.19051e-06
-9.18595e-07 -1.19051e-06 2.03977e-05
0.000948893 -6.99046e-05 -2.0731e-06
-6.99046e-05 -3.39132e-05 1.07324e-06
-2.0731e-06 1.07324e-06 -0.000125058
0.00128387 -8.19221e-05 5.42949e-08
-8.19221e-05 0.000112518 -1.20045e-07
5.42949e-08 -1.20045e-07 1.55629e-05
0.00148361 -9.01049e-05 2.51505e-06
-9.01049e-05 0.000197184 -2.33229e-07
2.51505e-06 -2.33229e-07 9.46723e-05
0.00101398 -6.40029e-05 -1.53358e-06
-6.40029e-05 5.81152e-05 9.8314e-07
-1.53358e-06 9.8314e-07 -2.17768e-05
0.000919613 -7.00845e-05 -4.55792e-07
-7.00845e-05 -5.18234e-06 5.17931e-07
-4.55792e-07 5.17931e-07 -9.52283e-05
0.0012914 -8.38093e-05 1.74279e-06
-8.38093e-05 0.000166347 -1.54689e-06
1.74279e-06 -1.54689e-06 6.89392e-05
0.000812445 -1.14587e-05 -2.34687e-06
-1.14587e-05 -6.62428e-06 1.49074e-06
-2.34687e-06 1.49074e-06 -6.86259e-05
0.00103396 -5.95116e-05 4.94762e-09
-5.95116e-05 8.23636e-05 -1.33659e-07
4.94762e-09 -1.33659e-07 5.85113e-06
0.00112174 -7.36672e-05 8.019e-07
-7.36672e-05 0.000118958 -1.06038e-06
8.019e-07 -1.06038e-06 3.33188e-05
0.000661894 4.18239e-05 -3.32674e-06
4.18239e-05 -7.08642e-05 3.95627e-06
-3.32674e-06 3.95627e-06 -9.53751e-05
0.000880627 -8.52304e-06 -1.80334e-08
-8.52304e-06 2.5459e-05 1.51175e-07
-1.80334e-08 1.51175e-07 -3.34177e-05
0.00105521 -5.38027e-05 1.37381e-06
-5.38027e-05 9.92689e-05 -1.71364e-07
1.37381e-06 -1.71364e-07 2.48731e-05
0.00258749 5.44508e-05 -2.66789e-05
5.44508e-05 0.000917439 3.40031e-06
-2.66789e-05 3.40031e-06 0.000927479
0.000737988 3.90601e-05 -1.61741e-08
3.90601e-05 -3.86834e-05 -6.83538e-08
-1.61741e-08 -6.83538e-08 -5.86735e-05
0.000858544 -7.2054e-06 2.52765e-06
-7.2054e-06 9.76472e-06 -1.89833e-06
2.52765e-06 -1.89833e-06 -4.40621e-05
0.00249092 4.8916e-05 2.67233e-07
4.8916e-05 0.000861917 7.47099e-08
2.67233e-07 7.47099e-08 0.000873913
0.000789591 3.5166e-05 3.39953e-06
3.5166e-05 -2.07258e-05 -3.68969e-06
3.39953e-06 -3.68969e-06 -3.66199e-05
0.00241504 4.38393e-05 2.44013e-05
4.38393e-05 0.000816927 -3.62378e-06
2.44013e-05 -3.62378e-06 0.000830718
0.00105597 6.18532e-05 -3.71993e-07
6.18532e-05 0.000107859 3.68733e-07
-3.71993e-07 3.68733e-07 2.87133e-05
0.000992806 5.13258e-05 2.85064e-07
5.13258e-05 7.3168e-05 1.38435e-07
2.85064e-07 1.38435e-07 -2.54503e-06
0.000895379 -4.12175e-06 -1.29768e-06
-4.12175e-06 2.04169e-05 -5.57118e-07
-1.29768e-06 -5.57118e-07 -4.92325e-05
0.000969954 2.32391e-05 8.21148e-07
2.32391e-05 5.47417e-05 9.55126e-07
8.21148e-07 9.55126e-07 -1.83816e-05
0.000930422 -1.00707e-05 -8.01582e-08
-1.00707e-05 3.55082e-05 1.8309e-07
-8.01582e-08 1.8309e-07 -3.07752e-05
0.000849557 -1.64075e-05 -2.07352e-06
-1.64075e-05 -1.83624e-06 -2.18306e-06
-2.07352e-06 -2.18306e-06 -4.82001e-05
0.000941555 -1.55431e-05 5.88054e-07
-1.55431e-05 3.50319e-05 1.56768e-06
5.88054e-07 1.56768e-06 -2.63209e-05
0.000861826 -2.1057e-05 -6.88794e-08
-2.1057e-05 -6.53183e-07 -8.62315e-08
-6.88794e-08 -8.62315e-08 -4.16638e-05
0.000802767 -3.02961e-05 -3.22421e-06
-3.02961e-05 -2.53566e-05 -3.71099e-06
-3.22421e-06 -3.71099e-06 -3.70094e-05
0.00234509 -3.87281e-05 -2.21156e-05
-3.87281e-05 0.000770755 -3.71817e-06
-2.21156e-05 -3.71817e-06 0.000786943
0.000800041 -2.56567e-05 -6.41724e-08
-2.56567e-05 -3.36313e-05 7.78701e-10
-6.41724e-08 7.78701e-10 -4.25574e-05
0.000870094 -2.05036e-05 1.40047e-06
-2.05036e-05 -1.79282e-06 2.1632e-06
1.40047e-06 2.1632e-06 -3.88882e-05
0.00234245 -3.44336e-05 -7.84639e-07
-3.44336e-05 0.000762306 6.91593e-08
-7.84639e-07 6.91593e-08 0.000779953
0.000791585 -2.26155e-05 2.06238e-06
-2.26155e-05 -4.26558e-05 3.48397e-06
2.06238e-06 3.48397e-06 -4.98567e-05
0.00231194 -2.99566e-05 1.66483e-05
-2.99566e-05 0.000740521 3.86683e-06
1.66483e-05 3.86683e-06 0.000759598
0.00621298 -9.80423e-06 3.2509e-05
-9.80423e-06 0.00184066 7.6197e-07
3.2509e-05 7.6197e-07 0.00125356
-0.00117307 -4.30749e-05 1.03544e-05
-4.30749e-05 -0.00067061 1.2827e-06
1.03544e-05 1.2827e-06 -0.000639691
-5.59039e-05 -3.21063e-05 -4.84532e-06
-3.21063e-05 -0.000289025 -3.02811e-07
-4.84532e-06 -3.02811e-07 -0.00034062
0.000978661 3.0901e-05 1.03461e-06
3.0901e-05 6.58551e-05 3.86276e-07
1.03461e-06 3.86276e-07 -1.57115e-05
0.000957484 6.22065e-05 4.69889e-07
6.22065e-05 6.47171e-05 -2.59633e-07
4.69889e-07 -2.59633e-07 -1.50455e-05
0.0011024 6.32106e-05 2.21533e-07
6.32106e-05 0.000137675 -5.70554e-08
2.21533e-07 -5.70554e-08 5.36349e-05
0.00106638 7.04461e-05 -4.37076e-07
7.04461e-05 0.000118928 -1.8395e-07
-4.37076e-07 -1.8395e-07 3.71112e-05
0.00113276 7.44293e-05 3.06097e-06
7.44293e-05 0.000153946 1.22225e-06
3.06097e-06 1.22225e-06 6.80929e-05
0.000793286 6.18095e-05 -1.38047e-06
6.18095e-05 -1.10506e-05 1.16117e-06
-1.38047e-06 1.16117e-06 -9.45757e-05
0.000760135 5.01972e-05 7.34905e-07
5.01972e-05 -3.31002e-05 2.97874e-07
7.34905e-07 2.97874e-07 -0.000118829
0.000754272 6.08652e-05 5.65338e-07
6.08652e-05 -3.18812e-05 -9.60749e-08
5.65338e-07 -9.60749e-08 -0.00012014
0.000828572 5.7653e-05 7.38361e-07
5.7653e-05 3.62741e-06 8.62026e-08
7.38361e-07 8.62026e-08 -8.56682e-05
0.000411975 6.10275e-05 4.50476e-07
6.10275e-05 -0.000228313 6.64376e-07
4.50476e-07 6.64376e-07 -0.000316554
0.00264649 0.000142482 5.14384e-07
0.000142482 0.000827604 -2.16612e-07
5.14384e-07 -2.16612e-07 0.000729618
0.00186586 0.000138484 1.34555e-06
0.000138484 0.000317047 -2.55329e-06
1.34555e-06 -2.55329e-06 0.000196668
0.0012441 0.000103567 9.43444e-07
0.000103567 0.000155436 -1.51665e-07
9.43444e-07 -1.51665e-07 5.41263e-05
0.00117609 4.7543e-05 -1.721e-06
4.7543e-05 0.000188562 7.49539e-07
-1.721e-06 7.49539e-07 0.000104322
0.00139131 -6.16493e-05 -1.62977e-05
-6.16493e-05 -0.000242548 -1.71825e-05
-1.62977e-05 -1.71825e-05 -0.000401807
0.00392852 -0.000112509 -3.68568e-06
-0.000112509 0.00071733 -1.0678e-06
-3.68568e-06 -1.0678e-06 6.71642e-05
0.00292038 -0.000246938 -3.62203e-05
-0.000246938 0.00127716 -1.96496e-05
-3.62203e-05 -1.96496e-05 0.00125136
0.0049152 -0.000113277 0.000122877
-0.000113277 0.00114493 3.72562e-05
0.000122877 3.72562e-05 0.000278494
0.00301587 0.000191435 3.17125e-05
0.000191435 0.000756733 4.71014e-05
3.17125e-05 4.71014e-05 0.000553563
0.00135101 5.05039e-05 -2.35161e-05
5.05039e-05 -4.40677e-05 -8.70231e-06
-2.35161e-05 -8.70231e-06 -0.000205483
0.00126546 9.74508e-05 1.99818e-05
9.74508e-05 -0.000158297 1.34372e-05
1.99818e-05 1.34372e-05 -0.0001994
0.00188469 0.000200647 -2.77515e-07
0.000200647 0.000281808 6.01622e-06
-2.77515e-07 6.01622e-06 0.000150067
0.000237912 8.67803e-05 -2.17168e-06
8.67803e-05 -0.000255642 4.12992e-06
-2.17168e-06 4.12992e-06 -0.000398891
0.00196584 0.000219432 -6.18561e-05
0.000219432 0.000288611 -5.49526e-05
-6.18561e-05 -5.49526e-05 0.000231543
0.00236632 -1.91755e-05 -0.000117244
-1.91755e-05 0.000582171 -4.34978e-06
-0.000117244 -4.34978e-06 0.000278779
0.00590287 4.2667e-05 9.62019e-06
4.2667e-05 0.00194326 -2.22324e-06
9.62019e-06 -2.22324e-06 0.00140292
-0.00315587 -3.50955e-05 -5.03831e-05
-3.50955e-05 -0.00196951 7.78029e-06
-5.03831e-05 7.78029e-06 -0.00191005
0.00271869 -0.000169962 1.62577e-06
-0.000169962 0.000633029 2.07735e-06
1.62577e-06 2.07735e-06 0.000667726
0.00209687 7.62785e-05 4.22332e-05
7.62785e-05 -4.42985e-05 -3.85658e-06
4.22332e-05 -3.85658e-06 -0.000242881
0.00128194 -1.64091e-05 3.00294e-05
-1.64091e-05 -0.000196151 1.37889e-06
3.00294e-05 1.37889e-06 -0.000711563
0.00169167 -8.95027e-05 -1.23607e-07
-8.95027e-05 7.99299e-05 2.81632e-06
-1.23607e-07 2.81632e-06 6.97354e-05
0.00133116 9.54598e-05 2.03217e-06
9.54598e-05 0.00011998 -5.16812e-06
2.03217e-06 -5.16812e-06 -9.29298e-05
0.00304118 -1.62149e-05 1.71048e-06
-1.62149e-05 0.000651644 -1.44663e-05
1.71048e-06 -1.44663e-05 0.000609904
0.00106404 5.86192e-05 8.97712e-06
5.86192e-05 -0.000157033 -1.84788e-06
8.97712e-06 -1.84788e-06 -0.000236675
0.00260931 -0.000164566 5.3189e-06
-0.000164566 0.00050098 -3.6546e-06
5.3189e-06 -3.6546e-06 0.000412494
0.00214581 -0.000105053 2.30981e-06
-0.000105053 0.000107946 -8.12002e-07
2.30981e-06 -8.12002e-07 5.68262e-05
0.00208328 -2.91948e-05 -1.63898e-06
-2.91948e-05 0.000154568 1.02098e-06
-1.63898e-06 1.02098e-06 0.000108177
0.000896772 -9.05147e-05 9.87778e-06
-9.05147e-05 -0.000323076 -1.10851e-06
9.87778e-06 -1.10851e-06 -0.000381649
0.00182867 -7.59612e-05 3.3134e-06
-7.59612e-05 8.38214e-05 3.82974e-07
3.3134e-06 3.82974e-07 4.79427e-05
0.00182057 -4.43638e-05 -9.03219e-08
-4.43638e-05 0.000111185 2.86184e-06
-9.03219e-08 2.86184e-06 5.88309e-05
0.00129988 -8.09133e-05 4.77479e-06
-8.09133e-05 -8.47178e-05 2.93738e-06
4.77479e-06 2.93738e-06 -0.000140779
0.00158122 -7.06921e-05 1.1264e-06
-7.06921e-05 4.58903e-05 1.00579e-06
1.1264e-06 1.00579e-06 8.26763e-08
0.00169305 -5.76004e-05 1.34738e-08
-5.76004e-05 0.000112781 1.192e-06
1.34738e-08 1.192e-06 5.26778e-05
0.00147571 -7.82529e-05 1.67123e-06
-7.82529e-05 6.12419e-05 3.13578e-06
1.67123e-06 3.13578e-06 -1.40768e-06
0.00143808 -6.9887e-05 -5.69977e-08
-6.9887e-05 4.46807e-05 -1.79327e-08
-5.69977e-08 -1.79327e-08 -1.40026e-05
0.00143552 -6.62433e-05 1.85853e-06
-6.62433e-05 6.57709e-05 -5.08052e-08
1.85853e-06 -5.08052e-08 -6.02545e-06
0.0012827 -7.01009e-05 -1.88443e-07
-7.01009e-05 6.2526e-06 3.33874e-06
-1.88443e-07 3.33874e-06 -5.64657e-05
0.0014888 -7.17992e-05 -9.66811e-07
-7.17992e-05 0.000123764 -7.12993e-07
-9.66811e-07 -7.12993e-07 5.14586e-05
0.00159742 -7.34589e-05 2.25373e-07
-7.34589e-05 0.000195876 -1.07982e-06
2.25373e-07 -1.07982e-06 0.000115075
0.00139472 -7.88368e-05 1.18496e-06
-7.88368e-05 0.000108341 1.67728e-06
1.18496e-06 1.67728e-06 2.23057e-05
0.00136061 -7.65164e-05 1.81182e-07
-7.65164e-05 0.000108915 -3.53084e-07
1.81182e-07 -3.53084e-07 2.11304e-05
0.00140115 -7.53888e-05 -1.16184e-06
-7.53888e-05 0.000151605 -2.71264e-07
-1.16184e-06 -2.71264e-07 6.55347e-05
0.000806966 -5.92718e-05 -2.59352e-06
-5.92718e-05 -7.71885e-05 1.36766e-06
-2.59352e-06 1.36766e-06 -0.000159707
0.00103847 -7.18651e-05 -3.61166e-07
-7.18651e-05 1.42002e-05 3.67607e-07
-3.61166e-07 3.67607e-07 -7.64002e-05
0.00127926 -8.12187e-05 1.71955e-06
-8.12187e-05 0.000111449 -7.05042e-07
1.71955e-06 -7.05042e-07 1.40489e-05
0.000842397 -2.91215e-05 -2.51498e-06
-2.91215e-05 2.51367e-06 1.51281e-06
-2.51498e-06 1.51281e-06 -6.2311e-05
0.00105068 -6.47284e-05 7.42159e-08
-6.47284e-05 7.56706e-05 7.4696e-10
7.42159e-08 7.4696e-10 -4.2465e-06
0.00101918 -7.27675e-05 5.82979e-07
-7.27675e-05 4.67091e-05 -6.36147e-07
5.82979e-07 -6.36147e-07 -4.26624e-05
0.000656916 4.52951e-05 -3.24925e-06
4.52951e-05 -6.44506e-05 3.82966e-06
-3.24925e-06 3.82966e-06 -9.46815e-05
0.000877967 -1.62979e-05 -5.11779e-08
-1.62979e-05 2.49775e-05 6.26524e-08
-5.11779e-08 6.26524e-08 -3.70265e-05
0.00108818 -6.15909e-05 1.4931e-06
-6.15909e-05 0.000108223 -7.746e-07
1.4931e-06 -7.746e-07 3.15608e-05
0.00272468 6.04854e-05 -2.86531e-05
6.04854e-05 0.000993764 3.34439e-06
-2.86531e-05 3.34439e-06 0.00100132
0.000715825 4.33479e-05 1.71653e-07
4.33479e-05 -4.2578e-05 -1.05644e-08
1.71653e-07 -1.05644e-08 -6.75256e-05
0.000888738 -1.06658e-05 2.7225e-06
-1.06658e-05 2.75993e-05 -1.57158e-06
2.7225e-06 -1.57158e-06 -3.09347e-05
0.00260215 5.45146e-05 2.58697e-07
5.45146e-05 0.000925453 8.35487e-08
2.58697e-07 8.35487e-08 0.00093518
0.000770777 4.03831e-05 3.00595e-06
4.03831e-05 -2.10557e-05 -3.83431e-06
3.00595e-06 -3.83431e-06 -4.14969e-05
0.0025018 4.89692e-05 2.62723e-05
4.89692e-05 0.000868168 -3.54452e-06
2.62723e-05 -3.54452e-06 0.000879918
0.00108068 6.78742e-05 -6.13352e-07
6.78742e-05 0.000120453 -4.30263e-07
-6.13352e-07 -4.30263e-07 3.77304e-05
0.00109867 6.35978e-05 1.65161e-07
6.35978e-05 0.000129306 1.09128e-07
1.65161e-07 1.09128e-07 5.04627e-05
0.000967922 2.68095e-05 -1.3606e-06
2.68095e-05 6.11453e-05 -2.3135e-07
-1.3606e-06 -2.3135e-07 -1.13192e-05
0.000962456 5.4986e-05 6.9392e-07
5.4986e-05 5.90789e-05 -2.24849e-08
6.9392e-07 -2.24849e-08 -1.70218e-05
0.000898917 2.11979e-06 -3.73844e-07
2.11979e-06 2.30756e-05 -2.24798e-08
-3.73844e-07 -2.24798e-08 -4.7092e-05
0.00084863 -3.61105e-06 -2.5622e-06
-3.61105e-06 2.13936e-06 -1.65498e-06
-2.5622e-06 -1.65498e-06 -5.02905e-05
0.000913143 -1.6167e-05 7.0904e-07
-1.6167e-05 2.67559e-05 1.28873e-06
7.0904e-07 1.28873e-06 -4.01998e-05
0.000856774 -1.77656e-05 -2.03632e-08
-1.77656e-05 2.03126e-06 -8.49225e-08
-2.03632e-08 -8.49225e-08 -4.43858e-05
0.000787276 -3.55812e-05 -3.32947e-06
-3.55812e-05 -2.50008e-05 -3.74757e-06
-3.32947e-06 -3.74757e-06 -4.04007e-05
0.00087399 -2.14221e-05 1.57598e-06
-2.14221e-05 4.83289e-06 2.41016e-06
1.57598e-06 2.41016e-06 -3.60374e-05
0.000785904 -2.92637e-05 -5.23361e-08
-2.92637e-05 -3.4296e-05 -2.8643e-08
-5.23361e-08 -2.8643e-08 -4.5687e-05
0.00240079 -4.3478e-05 -2.40582e-05
-4.3478e-05 0.000806503 -3.63381e-06
-2.40582e-05 -3.63381e-06 0.00082085
0.00236546 -3.89176e-05 -4.89322e-07
-3.89176e-05 0.000780283 6.90447e-08
-4.89322e-07 6.90447e-08 0.000796553
0.000787353 -2.51498e-05 2.71337e-06
-2.51498e-05 -3.99272e-05 3.53743e-06
2.71337e-06 3.53743e-06 -4.87637e-05
0.00235301 -3.45996e-05 1.90944e-05
-3.45996e-05 0.00076713 3.8024e-06
1.90944e-05 3.8024e-06 0.000784839
0.00102562 -3.79063e-05 -5.46555e-05
-3.79063e-05 -0.000177796 -5.82589e-06
-5.46555e-05 -5.82589e-06 -0.000361773
0.00152653 -6.86242e-05 -7.83353e-06
-6.86242e-05 -0.000249964 -4.90923e-06
-7.83353e-06 -4.90923e-06 -0.000797791
0.00322711 -0.000203736 -4.02954e-05
-0.000203736 0.0012587 -5.03689e-06
-4.02954e-05 -5.03689e-06 0.00124379
0.00117574 7.92036e-05 3.61495e-06
7.92036e-05 0.000146713 1.15258e-06
3.61495e-06 1.15258e-06 5.76572e-05
0.00113736 6.36995e-05 9.68023e-07
6.36995e-05 0.000155818 -4.94461e-07
9.68023e-07 -4.94461e-07 7.20122e-05
0.0010025 6.84182e-05 1.28853e-07
6.84182e-05 8.71467e-05 -4.8219e-07
1.28853e-07 -4.8219e-07 5.38181e-06
0.000980876 6.8422e-05 3.9831e-08
6.8422e-05 8.33085e-05 1.92649e-07
3.9831e-08 1.92649e-07 -9.15144e-07
0.00105124 7.20491e-05 -1.03477e-07
7.20491e-05 0.000115187 -4.29088e-07
-1.03477e-07 -4.29088e-07 2.88647e-05
0.000723541 6.54882e-05 -1.00175e-06
6.54882e-05 -5.75945e-05 1.35434e-06
-1.00175e-06 1.35434e-06 -0.000136853
0.00112052 7.38249e-05 1.73955e-06
7.38249e-05 0.000151748 -1.53462e-06
1.73955e-06 -1.53462e-06 6.09351e-05
0.00105911 5.93541e-05 2.00104e-07
5.93541e-05 0.000125131 5.97551e-07
2.00104e-07 5.97551e-07 3.42076e-05
0.00099594 8.04003e-05 -7.95784e-08
8.04003e-05 6.03025e-05 -1.54455e-07
-7.95784e-08 -1.54455e-07 -2.73303e-05
0.00196868 0.000121542 3.45489e-07
0.000121542 0.000504393 1.42719e-06
3.45489e-07 1.42719e-06 0.000409003
0.00153079 0.000116092 7.99773e-07
0.000116092 0.000175996 -1.22821e-06
7.99773e-07 -1.22821e-06 6.88667e-05
0.00190562 0.000115101 -1.13464e-06
0.000115101 0.000141116 1.80405e-06
-1.13464e-06 1.80405e-06 2.76251e-05
0.00136914 0.000122952 2.25894e-06
0.000122952 6.6922e-05 6.54777e-07
2.25894e-06 6.54777e-07 -5.2788e-05
0.000735094 8.61517e-05 -1.0537e-06
8.61517e-05 -9.67003e-05 3.64717e-06
-1.0537e-06 3.64717e-06 -0.000194875
0.00106887 -2.74533e-06 -9.39621e-06
-2.74533e-06 -0.000255843 3.13704e-06
-9.39621e-06 3.13704e-06 -0.000272207
0.00272431 -5.31504e-05 -2.97676e-06
-5.31504e-05 0.00019486 1.11289e-06
-2.97676e-06 1.11289e-06 -9.81106e-06
0.00110186 -0.000133871 -5.96954e-06
-0.000133871 -0.000492906 -3.38886e-06
-5.96954e-06 -3.38886e-06 -0.00104964
0.00269704 0.000131106 2.96647e-05
0.000131106 0.000227538 2.27055e-05
2.96647e-05 2.27055e-05 -4.38407e-05
0.00136658 9.69853e-05 8.18815e-07
9.69853e-05 -0.000119879 1.54712e-06
8.18815e-07 1.54712e-06 -0.000163746
0.000201356 0.000146373 -1.24625e-05
0.000146373 -0.000486372 -7.14523e-06
-1.24625e-05 -7.14523e-06 -0.000621033
0.00249669 -3.05553e-05 1.044e-05
-3.05553e-05 0.000617459 -5.268e-06
1.044e-05 -5.268e-06 0.00053781
0.00083699 -8.4281e-06 -2.29172e-05
-8.4281e-06 1.12126e-05 1.8402e-06
-2.29172e-05 1.8402e-06 -0.000229927
0.000947051 0.000139509 4.89126e-05
0.000139509 -0.000521919 -1.40983e-06
4.89126e-05 -1.40983e-06 -0.00102573
0.000965096 -9.70645e-05 -8.17837e-07
-9.70645e-05 -0.000315711 1.28201e-05
-8.17837e-07 1.28201e-05 -0.000292673
0.0025412 0.000123543 4.3262e-05
0.000123543 0.000502952 -1.26077e-05
4.3262e-05 -1.26077e-05 0.00026534
0.00199231 -1.13103e-05 6.02867e-06
-1.13103e-05 9.85211e-05 -1.88214e-06
6.02867e-06 -1.88214e-06 6.06027e-05
0.0016416 7.03835e-05 1.00901e-06
7.03835e-05 0.000142935 -3.94921e-06
1.00901e-06 -3.94921e-06 6.5641e-05
0.00140388 4.22912e-05 -3.09573e-06
4.22912e-05 -0.000167289 -1.81386e-06
-3.09573e-06 -1.81386e-06 -0.000242468
0.00132476 4.39948e-05 -3.62226e-06
4.39948e-05 -0.000127979 -4.25075e-06
-3.62226e-06 -4.25075e-06 -0.000223935
0.00162885 -9.61703e-05 1.15139e-05
-9.61703e-05 -0.00014323 -1.79383e-06
1.15139e-05 -1.79383e-06 -0.00018784
0.00194159 -2.92283e-05 3.64427e-06
-2.92283e-05 8.56662e-05 5.45395e-07
3.64427e-06 5.45395e-07 3.44221e-05
0.00178903 2.36513e-06 -5.12659e-07
2.36513e-06 0.000109986 -4.4132e-07
-5.12659e-07 -4.4132e-07 3.12766e-05
0.00172697 -7.58822e-05 3.59842e-06
-7.58822e-05 4.73628e-05 -2.55204e-07
3.59842e-06 -2.55204e-07 8.31562e-06
0.00182857 -4.58727e-05 2.48775e-07
-4.58727e-05 0.000118113 -5.26634e-07
2.48775e-07 -5.26634e-07 6.4021e-05
0.00183921 -2.89801e-05 -3.60687e-07
-2.89801e-05 0.000163251 1.20282e-06
-3.60687e-07 1.20282e-06 8.79928e-05
0.00154818 -7.0724e-05 5.2082e-07
-7.0724e-05 3.81696e-05 5.57552e-07
5.2082e-07 5.57552e-07 -9.87558e-06
0.00163357 -5.92404e-05 -8.56665e-07
-5.92404e-05 9.46229e-05 -1.22659e-06
-8.56665e-07 -1.22659e-06 3.51935e-05
0.0014632 -5.38939e-05 4.94275e-07
-5.38939e-05 3.57192e-05 1.69376e-06
4.94275e-07 1.69376e-06 -4.18584e-05
0.0013529 -7.06241e-05 -9.09075e-07
-7.06241e-05 8.94183e-06 -4.31653e-07
-9.09075e-07 -4.31653e-07 -5.02034e-05
0.00141035 -6.55379e-05 2.19284e-07
-6.55379e-05 5.41307e-05 -7.14219e-07
2.19284e-07 -7.14219e-07 -1.76863e-05
0.00140166 -6.57703e-05 4.71829e-07
-6.57703e-05 6.85617e-05 -3.319e-08
4.71829e-07 -3.319e-08 -1.26553e-05
0.00133401 -6.83566e-05 -1.8096e-06
-6.83566e-05 4.56663e-05 1.73482e-06
-1.8096e-06 1.73482e-06 -2.52139e-05
0.00145568 -6.96736e-05 -2.70719e-07
-6.96736e-05 0.00012384 -4.623e-07
-2.70719e-07 -4.623e-07 4.38435e-05
0.00136549 -6.68153e-05 -9.43515e-07
-6.68153e-05 0.000101879 -3.75156e-07
-9.43515e-07 -3.75156e-07 1.83911e-05
0.00136162 -7.59526e-05 1.25245e-06
-7.59526e-05 0.000109956 4.55742e-07
1.25245e-06 4.55742e-07 2.17453e-05
0.00123693 -7.12e-05 2.73244e-07
-7.12e-05 6.98866e-05 -1.89094e-07
2.73244e-07 -1.89094e-07 -1.67605e-05
0.00123643 -6.64389e-05 -2.29063e-06
-6.64389e-05 0.000101729 6.86465e-07
-2.29063e-06 6.86465e-07 2.01977e-05
0.000909628 -4.13403e-05 -3.00739e-06
-4.13403e-05 1.66135e-05 1.54342e-06
-3.00739e-06 1.54342e-06 -5.08559e-05
0.00091111 -6.18844e-05 -6.16897e-07
-6.18844e-05 -2.27385e-05 4.35149e-07
-6.16897e-07 4.35149e-07 -0.000104613
0.0011098 -7.32097e-05 1.14155e-06
-7.32097e-05 5.33746e-05 -4.4096e-07
1.14155e-06 -4.4096e-07 -3.66633e-05
0.000669107 1.58278e-05 -4.62096e-06
1.58278e-05 -5.33165e-05 3.79276e-06
-4.62096e-06 3.79276e-06 -8.77253e-05
0.000893952 -2.98921e-05 1.24576e-07
-2.98921e-05 2.83234e-05 4.81998e-08
1.24576e-07 4.81998e-08 -3.697e-05
0.00108811 -6.55932e-05 1.79252e-06
-6.55932e-05 9.34915e-05 -1.03028e-06
1.79252e-06 -1.03028e-06 1.35485e-05
0.00281473 6.57417e-05 -3.08216e-05
6.57417e-05 0.00104867 3.27525e-06
-3.08216e-05 3.27525e-06 0.00105338
0.000715771 3.07783e-05 1.13414e-07
3.07783e-05 -3.78225e-05 -8.07926e-08
1.13414e-07 -8.07926e-08 -6.68429e-05
0.00092502 -1.8454e-05 2.68653e-06
-1.8454e-05 4.75588e-05 -1.63926e-06
2.68653e-06 -1.63926e-06 -1.46003e-05
0.00270483 5.97746e-05 4.58685e-07
5.97746e-05 0.000984844 1.07053e-07
4.58685e-07 1.07053e-07 0.000992099
0.000758321 3.89748e-05 3.79732e-06
3.89748e-05 -2.095e-05 -3.69937e-06
3.79732e-06 -3.69937e-06 -4.57497e-05
0.00260776 5.42455e-05 2.83255e-05
5.42455e-05 0.0009289 -3.54874e-06
2.83255e-05 -3.54874e-06 0.000938357
0.000914581 6.79285e-05 -5.3793e-07
6.79285e-05 2.13844e-05 -5.06472e-07
-5.3793e-07 -5.06472e-07 -6.51917e-05
0.0010261 6.57882e-05 -2.41377e-08
6.57882e-05 9.28321e-05 -3.35326e-07
-2.41377e-08 -3.35326e-07 1.04388e-05
0.00106988 5.33439e-05 -1.11812e-06
5.33439e-05 0.000110651 -1.59917e-07
-1.11812e-06 -1.59917e-07 3.55338e-05
0.00114043 6.54321e-05 4.04208e-07
6.54321e-05 0.000150232 -4.74036e-07
4.04208e-07 -4.74036e-07 7.16832e-05
0.000973235 2.99478e-05 -4.56657e-07
2.99478e-05 6.42709e-05 -1.71124e-07
-4.56657e-07 -1.71124e-07 -7.77087e-06
0.00086712 5.09064e-06 -2.47884e-06
5.09064e-06 1.79056e-05 -1.35144e-06
-2.47884e-06 -1.35144e-06 -3.9917e-05
0.000898928 1.00611e-05 6.42694e-07
1.00611e-05 2.32964e-05 2.01323e-07
6.42694e-07 2.01323e-07 -4.68568e-05
0.000859445 -1.3004e-05 -4.81007e-08
-1.3004e-05 8.63861e-06 3.8496e-08
-4.81007e-08 3.8496e-08 -4.38134e-05
0.00076277 -4.12534e-05 -3.14309e-06
-4.12534e-05 -2.76967e-05 -3.65774e-06
-3.14309e-06 -3.65774e-06 -4.76149e-05
0.000863655 -1.98354e-05 1.92984e-06
-1.98354e-05 5.84337e-06 2.39778e-06
1.92984e-06 2.39778e-06 -4.06296e-05
0.000767232 -3.40133e-05 -5.87948e-08
-3.40133e-05 -3.60205e-05 -2.73162e-08
-5.87948e-08 -2.73162e-08 -5.09851e-05
0.00248097 -4.85939e-05 -2.59433e-05
-4.85939e-05 0.000854942 -3.51456e-06
-2.59433e-05 -3.51456e-06 0.000867151
0.000774877 -2.84219e-05 3.19508e-06
-2.84219e-05 -4.03193e-05 3.62787e-06
3.19508e-06 3.62787e-06 -5.14594e-05
0.00240411 -4.3574e-05 -3.82229e-07
-4.3574e-05 0.000807096 6.72754e-08
-3.82229e-07 6.72754e-08 0.000821676
0.00238262 -3.9022e-05 2.14289e-05
-3.9022e-05 0.000788325 3.71699e-06
2.14289e-05 3.71699e-06 0.000804671
0.000774062 -4.42624e-05 -4.30988e-06
-4.42624e-05 -0.000322817 6.11925e-07
-4.30988e-06 6.11925e-07 -0.000356994
0.00263076 -1.76605e-05 -3.87538e-06
-1.76605e-05 0.000378801 7.69152e-06
-3.87538e-06 7.69152e-06 0.000107747
0.00508809 4.44213e-05 -6.97242e-05
4.44213e-05 0.00151077 -9.88454e-06
-6.97242e-05 -9.88454e-06 0.000956753
0.000853364 6.79047e-05 1.80281e-06
6.79047e-05 -2.86838e-05 1.14822e-06
1.80281e-06 1.14822e-06 -0.000111506
0.00135688 8.88883e-05 2.64909e-06
8.88883e-05 0.000167632 -8.37054e-07
2.64909e-06 -8.37054e-07 7.38348e-05
0.000853338 6.96172e-05 2.39976e-07
6.96172e-05 -6.51442e-06 -4.12067e-07
2.39976e-07 -4.12067e-07 -9.49076e-05
0.00113746 7.39731e-05 4.17676e-07
7.39731e-05 0.000160949 -1.5135e-06
4.17676e-07 -1.5135e-06 7.62584e-05
0.00100011 7.07437e-05 -2.74715e-07
7.07437e-05 9.14132e-05 -6.82426e-07
-2.74715e-07 -6.82426e-07 4.55548e-06
0.000999824 7.56983e-05 1.24715e-06
7.56983e-05 7.20674e-05 8.36266e-07
1.24715e-06 8.36266e-07 -8.49466e-06
0.00146292 0.000104775 -2.25756e-06
0.000104775 0.000154432 -2.7299e-06
-2.25756e-06 -2.7299e-06 5.62925e-05
0.0014623 9.5745e-05 1.77807e-06
9.5745e-05 0.000292517 -3.38329e-07
1.77807e-06 -3.38329e-07 0.000205482
0.000909006 8.87922e-05 -1.70312e-06
8.87922e-05 -3.08357e-06 3.78559e-06
-1.70312e-06 3.78559e-06 -9.57966e-05
0.00147428 0.00011428 -1.14868e-06
0.00011428 0.000152581 -2.68418e-07
-1.14868e-06 -2.68418e-07 4.67317e-05
0.00132014 9.68031e-05 -2.60776e-06
9.68031e-05 -8.61999e-05 -1.05804e-06
-2.60776e-06 -1.05804e-06 -0.000199125
0.00193576 2.88306e-05 -1.06386e-06
2.88306e-05 6.59123e-05 4.01259e-06
-1.06386e-06 4.01259e-06 -9.30101e-06
0.00200322 0.000116924 1.77912e-06
0.000116924 0.000187111 1.47731e-06
1.77912e-06 1.47731e-06 7.42349e-05
0.00118655 0.000115404 -1.52866e-06
0.000115404 -3.05114e-05 2.79095e-06
-1.52866e-06 2.79095e-06 -0.000148847
0.00142988 -6.24643e-06 4.12073e-07
-6.24643e-06 -7.56009e-05 -1.70878e-07
4.12073e-07 -1.70878e-07 -9.28919e-05
0.00352785 -8.79378e-05 4.74648e-05
-8.79378e-05 0.000477015 2.53387e-05
4.74648e-05 2.53387e-05 0.000206029
0.00204418 0.000104831 -2.45052e-06
0.000104831 0.000205517 -4.90342e-06
-2.45052e-06 -4.90342e-06 0.000157419
0.00210104 6.31883e-06 -2.12656e-06
6.31883e-06 0.000340718 -3.90872e-06
-2.12656e-06 -3.90872e-06 0.000274568
0.0015347 -2.44753e-05 4.11468e-07
-2.44753e-05 0.000152284 1.43883e-07
4.11468e-07 1.43883e-07 6.94359e-05
0.000828671 5.53926e-05 5.49438e-05
5.53926e-05 -0.000207954 8.18005e-07
5.49438e-05 8.18005e-07 -0.000509473
0.000870307 -2.26681e-05 3.61235e-06
-2.26681e-05 -0.000484821 3.87494e-06
3.61235e-06 3.87494e-06 -0.00051709
0.00210111 7.9041e-05 -1.32001e-05
7.9041e-05 0.00039099 2.51483e-06
-1.32001e-05 2.51483e-06 0.000317825
0.00155023 4.45368e-05 -1.88724e-06
4.45368e-05 -0.000101131 4.44222e-06
-1.88724e-06 4.44222e-06 -0.00017262
0.00169103 5.04428e-05 7.6932e-07
5.04428e-05 4.67901e-05 6.04234e-07
7.6932e-07 6.04234e-07 -4.5301e-05
0.00174282 3.71744e-05 -3.35017e-06
3.71744e-05 9.14318e-05 4.27004e-07
-3.35017e-06 4.27004e-07 7.27809e-06
0.00146826 3.46901e-05 -1.30846e-06
3.46901e-05 -1.75235e-05 -2.09079e-06
-1.30846e-06 -2.09079e-06 -9.37811e-05
0.00165656 -2.82809e-05 7.13342e-06
-2.82809e-05 -5.82104e-05 -4.09191e-07
7.13342e-06 -4.09191e-07 -0.000113282
0.00179469 2.16737e-06 -1.27151e-06
2.16737e-06 0.000102758 -1.51041e-07
-1.27151e-06 -1.51041e-07 2.61062e-05
0.00166804 1.33917e-05 -1.22224e-07
1.33917e-05 7.55363e-05 -1.36351e-06
-1.22224e-07 -1.36351e-06 -1.11883e-05
0.00190578 -4.74439e-05 -1.78398e-06
-4.74439e-05 0.000159874 -1.89159e-06
-1.78398e-06 -1.89159e-06 0.000104614
0.00174928 -2.8956e-05 -1.81628e-07
-2.8956e-05 0.000121495 -6.46774e-07
-1.81628e-07 -6.46774e-07 4.76829e-05
0.00152546 -2.19172e-05 -2.98782e-07
-2.19172e-05 3.1786e-05 1.07978e-06
-2.98782e-07 1.07978e-06 -5.26926e-05
0.00156845 -6.06848e-05 -3.41954e-06
-6.06848e-05 7.34482e-05 -2.64069e-06
-3.41954e-06 -2.64069e-06 1.47333e-05
0.00150474 -5.35415e-05 3.39985e-07
-5.35415e-05 5.56133e-05 -4.66261e-08
3.39985e-07 -4.66261e-08 -2.20334e-05
0.0014667 -5.51305e-05 -6.27635e-08
-5.51305e-05 5.87706e-05 1.05073e-06
-6.27635e-08 1.05073e-06 -2.67896e-05
0.00138725 -6.48473e-05 -1.25199e-06
-6.48473e-05 4.34842e-05 -1.39158e-06
-1.25199e-06 -1.39158e-06 -2.83495e-05
0.00140426 -6.50402e-05 6.93525e-08
-6.50402e-05 6.95015e-05 -4.95462e-07
6.93525e-08 -4.95462e-07 -1.16221e-05
0.00135983 -6.38795e-05 -7.65924e-07
-6.38795e-05 7.13747e-05 1.401e-07
-7.65924e-07 1.401e-07 -1.35307e-05
0.00131216 -6.5911e-05 -3.30448e-07
-6.5911e-05 5.09086e-05 6.77927e-07
-3.30448e-07 6.77927e-07 -2.82847e-05
0.00124984 -6.42082e-05 -1.96622e-07
-6.42082e-05 4.42959e-05 -2.00411e-07
-1.96622e-07 -2.00411e-07 -3.89877e-05
0.00121385 -6.05809e-05 -2.32411e-06
-6.05809e-05 6.20837e-05 4.04393e-07
-2.32411e-06 4.04393e-07 -1.86432e-05
0.00107389 -6.70621e-05 1.66431e-06
-6.70621e-05 -1.12427e-05 -2.06471e-07
1.66431e-06 -2.06471e-07 -9.84738e-05
0.00106272 -6.1653e-05 1.23883e-07
-6.1653e-05 1.55555e-05 5.488e-08
1.23883e-07 5.488e-08 -6.60658e-05
0.000968891 -4.54796e-05 -3.4991e-06
-4.54796e-05 1.80148e-05 1.44095e-06
-3.4991e-06 1.44095e-06 -5.03387e-05
0.000663286 -3.26142e-06 -5.82314e-06
-3.26142e-06 -5.71804e-05 3.82787e-06
-5.82314e-06 3.82787e-06 -9.60701e-05
0.000932197 -4.31819e-05 7.95239e-08
-4.31819e-05 2.82481e-05 6.45762e-08
7.95239e-08 6.45762e-08 -3.93989e-05
0.00102715 -6.49119e-05 1.2603e-06
-6.49119e-05 3.75049e-05 -5.02216e-07
1.2603e-06 -5.02216e-07 -4.37354e-05
0.0029021 7.13723e-05 -3.19861e-05
7.13723e-05 0.00110705 3.18721e-06
-3.19861e-05 3.18721e-06 0.00110798
0.000728914 1.48515e-05 -8.31401e-08
1.48515e-05 -2.64058e-05 -6.86783e-08
-8.31401e-08 -6.86783e-08 -6.09362e-05
0.000947809 -3.31548e-05 3.02433e-06
-3.31548e-05 5.47996e-05 -1.60953e-06
3.02433e-06 -1.60953e-06 -1.07337e-05
0.00279615 6.52417e-05 4.11523e-07
6.52417e-05 0.00104159 1.05893e-07
4.11523e-07 1.05893e-07 0.00104575
0.000776592 2.88538e-05 4.96219e-06
2.88538e-05 -7.88419e-06 -3.59496e-06
4.96219e-06 -3.59496e-06 -3.71357e-05
0.00270071 5.94683e-05 3.01936e-05
5.94683e-05 0.000983926 -3.48077e-06
3.01936e-05 -3.48077e-06 0.000990801
0.000700907 6.62927e-05 -2.19668e-07
6.62927e-05 -0.000120607 -4.55274e-07
-2.19668e-07 -4.55274e-07 -0.000213133
0.000784422 6.39169e-05 -1.39714e-08
6.39169e-05 -4.58875e-05 -1.00665e-07
-1.39714e-08 -1.00665e-07 -0.000132963
0.00111029 6.26075e-05 -1.42092e-06
6.26075e-05 0.000116084 -2.24064e-07
-1.42092e-06 -2.24064e-07 3.76331e-05
0.000970872 6.36656e-05 1.75436e-07
6.36656e-05 6.4843e-05 -4.24509e-07
1.75436e-07 -4.24509e-07 -1.72099e-05
0.00100395 5.04023e-05 -9.00237e-08
5.04023e-05 7.82581e-05 -9.99869e-08
-9.00237e-08 -9.99869e-08 3.38257e-06
0.000906013 1.15383e-05 -2.59557e-06
1.15383e-05 4.26255e-05 -1.15978e-06
-2.59557e-06 -1.15978e-06 -1.93306e-05
0.000984066 3.24791e-05 7.33683e-07
3.24791e-05 7.02421e-05 -2.53833e-07
7.33683e-07 -2.53833e-07 -1.41814e-06
0.000866003 -8.93277e-07 1.02843e-07
-8.93277e-07 1.95324e-05 6.18673e-08
1.02843e-07 6.18673e-08 -3.85704e-05
0.000750243 -4.62147e-05 -2.95996e-06
-4.62147e-05 -2.41795e-05 -3.57223e-06
-2.95996e-06 -3.57223e-06 -4.91575e-05
0.000868717 -1.94697e-05 2.16006e-06
-1.94697e-05 1.45987e-05 2.05276e-06
2.16006e-06 2.05276e-06 -3.80063e-05
0.000740169 -3.98938e-05 -3.19323e-08
-3.98938e-05 -4.04242e-05 -2.66693e-08
-3.19323e-08 -2.66693e-08 -5.98705e-05
0.00257297 -5.40753e-05 -2.77321e-05
-5.40753e-05 0.000909694 -3.39435e-06
-2.77321e-05 -3.39435e-06 0.000919537
0.000748547 -3.2541e-05 3.61812e-06
-3.2541e-05 -4.63849e-05 3.66251e-06
3.61812e-06 3.66251e-06 -6.09216e-05
0.00248149 -4.86593e-05 -3.3684e-07
-4.86593e-05 0.000854118 7.32455e-08
-3.3684e-07 7.32455e-08 0.00086661
0.00241818 -4.37102e-05 2.31227e-05
-4.37102e-05 0.000813261 3.59458e-06
2.31227e-05 3.59458e-06 0.000828027
0.00170419 -3.24519e-05 3.22513e-06
-3.24519e-05 2.32846e-06 1.2698e-06
3.22513e-06 1.2698e-06 -5.33727e-05
0.000996362 -5.1254e-05 9.36629e-07
-5.1254e-05 -0.000220616 8.39751e-07
9.36629e-07 8.39751e-07 -0.000259166
0.00122825 -5.57443e-05 4.74458e-05
-5.57443e-05 -0.000148361 1.72995e-05
4.74458e-05 1.72995e-05 -0.000344878
0.00186738 0.000101709 8.39767e-07
0.000101709 0.000364343 -1.94432e-06
8.39767e-07 -1.94432e-06 0.000272334
0.000864341 6.97801e-05 -8.74255e-07
6.97801e-05 -1.04372e-05 4.45476e-07
-8.74255e-07 4.45476e-07 -8.95836e-05
0.000739079 7.41982e-05 -2.89533e-06
7.41982e-05 -0.000216133 3.86104e-07
-2.89533e-06 3.86104e-07 -0.000315014
0.00133949 8.85044e-05 2.37718e-07
8.85044e-05 0.000157887 1.04137e-07
2.37718e-07 1.04137e-07 6.34692e-05
0.000534743 5.99709e-05 -1.7207e-06
5.99709e-05 -0.000157055 4.90789e-07
-1.7207e-06 4.90789e-07 -0.000244873
0.00176115 9.66316e-05 -2.89456e-06
9.66316e-05 0.00016596 -3.59989e-06
-2.89456e-06 -3.59989e-06 5.91436e-05
0.00126864 8.54787e-05 -1.66454e-07
8.54787e-05 0.0001979 -6.5321e-07
-1.66454e-07 -6.5321e-07 0.000116131
0.00144035 0.000102581 -7.94324e-08
0.000102581 0.000137048 3.47501e-07
-7.94324e-08 3.47501e-07 3.89614e-05
0.0015917 3.96171e-05 8.16103e-07
3.96171e-05 -2.13032e-05 2.92651e-06
8.16103e-07 2.92651e-06 -0.000114235
0.00146048 0.00011381 1.4626e-06
0.00011381 0.000148793 2.58947e-06
1.4626e-06 2.58947e-06 4.43125e-05
0.00155003 0.000102947 -1.11276e-06
0.000102947 2.15781e-05 -8.54333e-07
-1.11276e-06 -8.54333e-07 -9.26114e-05
0.00187645 3.13359e-05 6.05185e-09
3.13359e-05 4.66467e-05 6.91591e-07
6.05185e-09 6.91591e-07 -3.09222e-05
0.00175664 0.000109011 1.56034e-06
0.000109011 7.4807e-05 7.37899e-07
1.56034e-06 7.37899e-07 -3.81849e-05
0.00150974 -9.66952e-07 -4.10935e-06
-9.66952e-07 -3.48134e-05 -6.95747e-06
-4.10935e-06 -6.95747e-06 -5.14144e-05
0.00165279 -2.74213e-07 -5.64708e-07
-2.74213e-07 9.66615e-05 -2.0635e-06
-5.64708e-07 -2.0635e-06 3.19267e-05
0.00166819 4.5599e-06 4.05042e-07
4.5599e-06 0.000115357 1.35649e-07
4.05042e-07 1.35649e-07 4.91885e-05
0.000536087 -1.52385e-05 -1.06887e-06
-1.52385e-05 -0.000330305 3.12484e-06
-1.06887e-06 3.12484e-06 -0.000416839
0.00175588 4.81405e-05 6.32915e-07
4.81405e-05 -6.99045e-06 6.57671e-07
6.32915e-07 6.57671e-07 -7.52851e-05
0.00211575 5.71659e-05 1.27246e-05
5.71659e-05 0.000253531 3.93068e-06
1.27246e-05 3.93068e-06 0.00016509
0.00182901 3.89416e-05 -3.21213e-06
3.89416e-05 0.00012637 2.05731e-07
-3.21213e-06 2.05731e-07 4.21664e-05
0.00163922 3.49398e-05 8.45756e-07
3.49398e-05 6.89952e-05 1.90554e-06
8.45756e-07 1.90554e-06 -7.85165e-06
0.00168629 3.23007e-05 -1.35759e-06
3.23007e-05 0.00010036 -1.65424e-06
-1.35759e-06 -1.65424e-06 1.92805e-05
0.00186458 1.4467e-06 -2.15162e-06
1.4467e-06 0.000130035 -8.35091e-07
-2.15162e-06 -8.35091e-07 5.49392e-05
0.00172237 1.30755e-05 -5.52533e-08
1.30755e-05 0.000101326 -1.9745e-07
-5.52533e-08 -1.9745e-07 1.51043e-05
0.00160251 1.73216e-05 -1.10634e-06
1.73216e-05 5.7902e-05 -1.19377e-06
-1.10634e-06 -1.19377e-06 -3.05677e-05
0.00167026 -2.92165e-05 -1.02193e-06
-2.92165e-05 8.55431e-05 -1.75946e-06
-1.02193e-06 -1.75946e-06 1.30969e-05
0.00157964 -2.23261e-05 1.83056e-07
-2.23261e-05 5.75315e-05 6.11228e-07
1.83056e-07 6.11228e-07 -2.72135e-05
0.0015539 -2.29638e-05 -9.26767e-07
-2.29638e-05 6.39072e-05 2.79362e-07
-9.26767e-07 2.79362e-07 -2.50401e-05
0.00154391 -5.31041e-05 -1.24264e-07
-5.31041e-05 7.43843e-05 -1.70234e-06
-1.24264e-07 -1.70234e-06 -3.33129e-06
0.00148817 -5.42178e-05 2.25042e-07
-5.42178e-05 6.84405e-05 1.19186e-07
2.25042e-07 1.19186e-07 -1.71562e-05
0.0014309 -5.57437e-05 -1.13746e-06
-5.57437e-05 6.7976e-05 6.93354e-07
-1.13746e-06 6.93354e-07 -2.00997e-05
0.00140756 -6.43813e-05 -3.442e-07
-6.43813e-05 7.07961e-05 -9.41594e-07
-3.442e-07 -9.41594e-07 -1.02381e-05
0.00136255 -6.34305e-05 1.78784e-08
-6.34305e-05 7.21837e-05 -2.86164e-07
1.78784e-08 -2.86164e-07 -1.26508e-05
0.00125939 -5.79397e-05 -2.22403e-06
-5.79397e-05 5.55667e-05 5.16997e-07
-2.22403e-06 5.16997e-07 -2.69476e-05
0.00113318 -6.15396e-05 7.71302e-07
-6.15396e-05 -1.38183e-05 4.20843e-08
7.71302e-07 4.20843e-08 -9.68871e-05
0.00120279 -5.98336e-05 -4.50811e-09
-5.98336e-05 5.65791e-05 -5.42583e-08
-4.50811e-09 -5.42583e-08 -2.40118e-05
0.00102411 -4.49864e-05 -3.99431e-06
-4.49864e-05 1.79416e-05 1.44499e-06
-3.99431e-06 1.44499e-06 -5.09445e-05
0.000882155 -5.66214e-05 2.02351e-06
-5.66214e-05 -7.39852e-05 -4.87192e-07
2.02351e-06 -4.87192e-07 -0.000155686
0.000974657 -4.60441e-05 1.09928e-07
-4.60441e-05 2.15519e-05 2.55599e-08
1.09928e-07 2.55599e-08 -4.6937e-05
0.00165807 5.39792e-06 -7.17717e-06
5.39792e-06 0.000453209 2.25751e-06
-7.17717e-06 2.25751e-06 0.000416251
0.00110977 3.63264e-05 -3.29528e-05
3.63264e-05 0.000194226 6.25347e-06
-3.29528e-05 6.25347e-06 0.000179631
0.00122323 4.54349e-06 -1.32673e-06
4.54349e-06 0.000227185 -2.18575e-08
-1.32673e-06 -2.18575e-08 0.000191035
0.000962692 -4.49605e-05 3.28737e-06
-4.49605e-05 4.38357e-05 -1.4095e-06
3.28737e-06 -1.4095e-06 -2.40002e-05
0.00293144 7.08671e-05 5.68022e-07
7.08671e-05 0.00112483 1.41172e-07
5.68022e-07 1.41172e-07 0.00112499
0.000794111 8.19461e-06 5.85571e-06
8.19461e-06 2.40493e-06 -3.58644e-06
5.85571e-06 -3.58644e-06 -3.15096e-05
0.00278651 6.42651e-05 3.24036e-05
6.42651e-05 0.00103877 -3.41118e-06
3.24036e-05 -3.41118e-06 0.00104244
0.00117871 7.86005e-05 -1.0494e-06
7.86005e-05 -3.56441e-05 4.17216e-07
-1.0494e-06 4.17216e-07 -0.000125901
0.000807527 7.20733e-05 1.01299e-06
7.20733e-05 -0.000110273 6.7994e-07
1.01299e-06 6.7994e-07 -0.000205857
0.00083511 7.08961e-05 -1.53115e-07
7.08961e-05 -5.88574e-05 -9.09112e-08
-1.53115e-07 -9.09112e-08 -0.000152265
0.00112791 6.84126e-05 -1.50256e-06
6.84126e-05 0.00010357 -4.62246e-07
-1.50256e-06 -4.62246e-07 2.20823e-05
0.000645906 5.96267e-05 7.57733e-08
5.96267e-05 -0.000117416 3.26101e-07
7.57733e-08 3.26101e-07 -0.000204962
0.00103348 5.89966e-05 -1.95953e-07
5.89966e-05 7.85688e-05 -5.21898e-08
-1.95953e-07 -5.21898e-08 5.12626e-07
0.000937696 2.46799e-05 -2.81268e-06
2.46799e-05 5.67459e-05 -8.95907e-07
-2.81268e-06 -8.95907e-07 -7.4025e-06
0.000943629 4.76294e-05 1.0995e-06
4.76294e-05 4.86734e-05 6.84454e-08
1.0995e-06 6.84454e-08 -2.59733e-05
0.000858508 7.83038e-06 1.03426e-07
7.83038e-06 2.0368e-05 1.36637e-07
1.03426e-07 1.36637e-07 -4.17156e-05
0.000758511 -3.51869e-05 -4.36806e-06
-3.51869e-05 -1.38663e-05 -3.33662e-06
-4.36806e-06 -3.33662e-06 -4.3094e-05
0.000866028 -8.72383e-06 2.18793e-06
-8.72383e-06 2.16347e-05 1.5018e-06
2.18793e-06 1.5018e-06 -3.66459e-05
0.00070828 -4.47895e-05 -1.88068e-08
-4.47895e-05 -4.63513e-05 -5.45255e-08
-1.88068e-08 -5.45255e-08 -7.09205e-05
0.00265136 -5.95354e-05 -2.93711e-05
-5.95354e-05 0.00095873 -3.32756e-06
-2.93711e-05 -3.32756e-06 0.000965866
0.000714636 -3.80899e-05 3.76876e-06
-3.80899e-05 -5.46779e-05 3.65004e-06
3.76876e-06 3.65004e-06 -7.3607e-05
0.00257523 -5.41911e-05 -3.04088e-07
-5.41911e-05 0.000909742 8.28257e-08
-3.04088e-07 8.28257e-08 0.000919891
0.00248358 -4.87172e-05 2.48697e-05
-4.87172e-05 0.000854024 3.47441e-06
2.48697e-05 3.47441e-06 0.000866806
0.00160151 -1.9582e-05 2.03904e-06
-1.9582e-05 1.818e-05 2.68145e-06
2.03904e-06 2.68145e-06 -5.57296e-05
0.00179382 -3.12317e-05 2.75971e-07
-3.12317e-05 7.42848e-05 -1.28114e-06
2.75971e-07 -1.28114e-06 1.83284e-05
0.00162387 -6.60079e-05 3.49091e-06
-6.60079e-05 7.38299e-05 -1.45199e-06
3.49091e-06 -1.45199e-06 2.91527e-05
0.00155985 8.66181e-05 -5.04196e-06
8.66181e-05 8.93451e-05 -2.34551e-06
-5.04196e-06 -2.34551e-06 -1.02143e-05
0.00157175 9.36232e-05 -1.1376e-07
9.36232e-05 0.000235411 4.44923e-07
-1.1376e-07 4.44923e-07 0.000146328
0.000804558 6.99803e-05 -4.99547e-06
6.99803e-05 -2.75851e-05 8.8196e-08
-4.99547e-06 8.8196e-08 -0.00010297
0.0013616 8.96277e-05 1.23828e-06
8.96277e-05 8.94392e-05 1.1623e-06
1.23828e-06 1.1623e-06 -7.70496e-06
0.0013528 8.89092e-05 -1.96758e-06
8.89092e-05 0.000163586 4.5307e-07
-1.96758e-06 4.5307e-07 6.84823e-05
0.00177597 4.05473e-05 5.93957e-07
4.05473e-05 9.16421e-05 1.8874e-06
5.93957e-07 1.8874e-06 -9.66913e-06
0.001653 9.58004e-05 -2.07401e-06
9.58004e-05 0.000109704 -1.65327e-06
-2.07401e-06 -1.65327e-06 6.46583e-07
0.00143648 0.00010131 1.95475e-06
0.00010131 0.000129829 4.33833e-06
1.95475e-06 4.33833e-06 3.15523e-05
0.00177562 4.01543e-05 -3.13591e-07
4.01543e-05 7.08169e-05 4.85649e-07
-3.13591e-07 4.85649e-07 -2.30384e-05
0.00189984 0.000111646 2.4487e-06
0.000111646 0.000185651 3.38933e-07
2.4487e-06 3.38933e-07 7.04767e-05
0.00162945 3.21212e-05 -1.21635e-06
3.21212e-05 -7.18451e-05 -2.69621e-06
-1.21635e-06 -2.69621e-06 -0.000150832
0.00154536 3.94339e-07 -2.85807e-07
3.94339e-07 4.00179e-05 -3.38711e-08
-2.85807e-07 -3.38711e-08 -3.61122e-05
0.00164021 1.37021e-07 -4.01799e-07
1.37021e-07 8.3124e-05 -7.69688e-07
-4.01799e-07 -7.69688e-07 1.68402e-05
0.00115287 1.50327e-06 3.6054e-06
1.50327e-06 -0.000151921 5.37317e-06
3.6054e-06 5.37317e-06 -0.000217868
0.00195072 4.12752e-05 1.68975e-06
4.12752e-05 0.000178222 6.43039e-07
1.68975e-06 6.43039e-07 9.40721e-05
0.00176535 3.50167e-05 6.52645e-06
3.50167e-05 0.000132077 6.1416e-06
6.52645e-06 6.1416e-06 5.4811e-05
0.00172143 3.25559e-05 -9.33103e-07
3.25559e-05 0.000118801 -4.00951e-07
-9.33103e-07 -4.00951e-07 3.78306e-05
0.00162355 2.79129e-05 2.70886e-07
2.79129e-05 8.60189e-05 -9.44876e-07
2.70886e-07 -9.44876e-07 -2.01774e-06
0.00176958 1.25862e-05 8.20406e-07
1.25862e-05 0.000123032 -1.02468e-07
8.20406e-07 -1.02468e-07 3.74027e-05
0.00163874 1.55458e-05 -5.37265e-07
1.55458e-05 7.52547e-05 -2.50982e-08
-5.37265e-07 -2.50982e-08 -1.32753e-05
0.00159519 9.07561e-06 -1.85557e-06
9.07561e-06 7.18021e-05 -1.17795e-06
-1.85557e-06 -1.17795e-06 -1.82366e-05
0.00163151 -2.29006e-05 5.63736e-07
-2.29006e-05 8.23949e-05 3.19394e-07
5.63736e-07 3.19394e-07 -2.66176e-06
0.00156674 -2.33314e-05 7.98563e-08
-2.33314e-05 6.97495e-05 4.37423e-07
7.98563e-08 4.37423e-07 -1.9287e-05
0.00151188 -3.08862e-05 -1.77685e-06
-3.08862e-05 7.21217e-05 1.61407e-08
-1.77685e-06 1.61407e-08 -1.73447e-05
0.001511 -5.3243e-05 7.45115e-07
-5.3243e-05 7.8776e-05 -7.95722e-07
7.45115e-07 -7.95722e-07 -6.85129e-06
0.00143977 -5.53001e-05 1.24678e-07
-5.53001e-05 7.16589e-05 1.75464e-07
1.24678e-07 1.75464e-07 -1.64414e-05
0.00133065 -5.20738e-05 -2.52822e-06
-5.20738e-05 5.6697e-05 7.85817e-07
-2.52822e-06 7.85817e-07 -2.85431e-05
0.00136475 -6.30165e-05 8.35704e-07
-6.30165e-05 7.27555e-05 -6.98374e-07
8.35704e-07 -6.98374e-07 -1.20129e-05
0.00126401 -5.75724e-05 1.36301e-08
-5.75724e-05 5.73769e-05 -1.45006e-07
1.36301e-08 -1.45006e-07 -2.50699e-05
0.00107275 -4.37907e-05 -4.49419e-06
-4.37907e-05 1.65923e-05 1.65884e-06
-4.49419e-06 1.65884e-06 -5.42427e-05
0.00119054 -5.90716e-05 2.02562e-06
-5.90716e-05 5.05002e-05 -4.25861e-07
2.02562e-06 -4.25861e-07 -2.9957e-05
0.0010201 -4.48775e-05 1.56383e-07
-4.48775e-05 1.60897e-05 -5.94132e-08
1.56383e-07 -5.94132e-08 -5.28822e-05
0.00172191 1.02081e-07 -7.31225e-06
1.02081e-07 0.000478468 2.40503e-06
-7.31225e-06 2.40503e-06 0.000439702
0.000984472 -4.68732e-05 3.58165e-06
-4.68732e-05 2.71405e-05 -1.27468e-06
3.58165e-06 -1.27468e-06 -4.15027e-05
0.00177405 -3.59976e-07 8.29859e-06
-3.59976e-07 0.000506918 -9.23673e-07
8.29859e-06 -9.23673e-07 0.000470239
0.00119976 2.9503e-05 -4.11215e-05
2.9503e-05 0.000255244 6.10091e-06
-4.11215e-05 6.10091e-06 0.000236317
0.00210184 5.39712e-05 -2.74486e-05
5.39712e-05 0.000709478 1.56875e-06
-2.74486e-05 1.56875e-06 0.000700279
0.00181208 5.18851e-06 2.02214e-05
5.18851e-06 0.000525362 -2.90753e-06
2.02214e-05 -2.90753e-06 0.000492773
0.00295082 6.87895e-05 3.62219e-05
6.87895e-05 0.00113716 -3.30589e-06
3.62219e-05 -3.30589e-06 0.00113677
0.00153567 7.88864e-05 -3.21921e-06
7.88864e-05 7.25564e-05 -1.79057e-06
-3.21921e-06 -1.79057e-06 -2.25144e-05
0.00143696 8.52631e-05 2.15242e-06
8.52631e-05 0.000150406 3.98955e-07
2.15242e-06 3.98955e-07 5.99482e-05
0.00118299 7.91359e-05 1.221e-06
7.91359e-05 -2.20837e-05 7.50892e-07
1.221e-06 7.50892e-07 -0.000106889
0.0011404 7.32777e-05 -1.58529e-06
7.32777e-05 8.27572e-05 -7.80447e-07
-1.58529e-06 -7.80447e-07 -3.2095e-06
0.00113368 8.25175e-05 -4.51847e-07
8.25175e-05 4.77427e-05 2.30847e-07
-4.51847e-07 2.30847e-07 -4.81346e-05
0.000998352 7.66486e-05 2.39359e-07
7.66486e-05 1.68812e-05 4.84506e-07
2.39359e-07 4.84506e-07 -7.74178e-05
0.00108365 6.68516e-05 -9.71049e-08
6.68516e-05 8.40572e-05 -1.27313e-07
-9.71049e-08 -1.27313e-07 2.43801e-06
0.000968898 3.90527e-05 -2.74566e-06
3.90527e-05 6.15795e-05 -9.6047e-07
-2.74566e-06 -9.6047e-07 -4.85052e-06
0.000956596 5.5418e-05 9.22762e-07
5.5418e-05 4.10132e-05 6.2657e-08
9.22762e-07 6.2657e-08 -3.6652e-05
0.000876946 2.04322e-05 -1.2014e-07
2.04322e-05 2.65178e-05 8.71692e-08
-1.2014e-07 8.71692e-08 -3.75137e-05
0.000774671 -2.64485e-05 -5.13471e-06
-2.64485e-05 -6.44606e-07 -3.12795e-06
-5.13471e-06 -3.12795e-06 -3.50851e-05
0.000816291 4.19958e-06 2.18271e-06
4.19958e-06 6.85966e-07 1.19403e-06
2.18271e-06 1.19403e-06 -6.15305e-05
0.000698733 -4.82384e-05 -4.27649e-08
-4.82384e-05 -4.19493e-05 -5.12756e-08
-4.27649e-08 -5.12756e-08 -7.21363e-05
0.00272822 -6.48337e-05 -3.13397e-05
-6.48337e-05 0.00101029 -3.23667e-06
-3.13397e-05 -3.23667e-06 0.00101406
0.000665156 -4.33465e-05 3.43927e-06
-4.33465e-05 -6.91115e-05 3.6765e-06
3.43927e-06 3.6765e-06 -9.32636e-05
0.00266992 -5.99739e-05 -3.1808e-07
-5.99739e-05 0.00096667 9.51039e-08
-3.1808e-07 9.51039e-08 0.000974167
0.00257809 -5.42311e-05 2.66432e-05
-5.42311e-05 0.000909995 3.34351e-06
2.66432e-05 3.34351e-06 0.000920471
0.00167939 -1.36083e-05 1.40153e-07
-1.36083e-05 5.9522e-05 2.43478e-06
1.40153e-07 2.43478e-06 -2.67034e-05
0.00165374 -1.88857e-05 5.11217e-07
-1.88857e-05 4.13354e-05 7.72334e-09
5.11217e-07 7.72334e-09 -3.23614e-05
0.00200547 -3.11581e-05 -4.13096e-06
-3.11581e-05 0.000207439 -3.57245e-06
-4.13096e-06 -3.57245e-06 0.000150822
0.00156611 4.33122e-05 -6.99101e-07
4.33122e-05 1.06741e-05 1.09263e-06
-6.99101e-07 1.09263e-06 -8.79975e-05
0.00160526 8.80826e-05 4.03649e-07
8.80826e-05 0.000113495 -7.3599e-07
4.03649e-07 -7.3599e-07 1.37419e-05
0.00134317 8.72191e-05 -1.7037e-06
8.72191e-05 0.000138555 1.59832e-06
-1.7037e-06 1.59832e-06 5.24895e-05
0.00190406 0.000103094 2.01917e-06
0.000103094 0.000354826 4.85637e-07
2.01917e-06 4.85637e-07 0.000259566
0.00190978 4.32845e-05 -5.75691e-07
4.32845e-05 0.000156989 -2.36107e-07
-5.75691e-07 -2.36107e-07 5.58617e-05
0.00161508 9.6044e-05 2.11366e-06
9.6044e-05 8.70992e-05 7.53763e-07
2.11366e-06 7.53763e-07 -2.40022e-05
0.0018749 4.05549e-05 -1.47485e-07
4.05549e-05 0.000123632 -1.70758e-06
-1.47485e-07 -1.70758e-06 2.85576e-05
0.00163425 7.68766e-08 1.58779e-06
7.68766e-08 7.95478e-05 4.42667e-07
1.58779e-06 4.42667e-07 -5.87368e-06
0.00154039 1.48741e-06 2.51653e-08
1.48741e-06 3.35531e-05 -4.08613e-07
2.51653e-08 -4.08613e-07 -4.43477e-05
0.0016081 1.83406e-06 4.58419e-08
1.83406e-06 6.17383e-05 1.19609e-06
4.58419e-08 1.19609e-06 -6.31577e-06
0.00161407 2.85158e-05 4.46795e-07
2.85158e-05 8.62019e-05 -1.43226e-07
4.46795e-07 -1.43226e-07 -6.59415e-06
0.00175102 3.2747e-05 8.54544e-07
3.2747e-05 0.000134983 1.51663e-06
8.54544e-07 1.51663e-06 5.40521e-05
0.00163295 2.83428e-05 1.68255e-07
2.83428e-05 9.05205e-05 2.49666e-07
1.68255e-07 2.49666e-07 2.38423e-06
0.00161396 2.37935e-05 1.05986e-07
2.37935e-05 9.17991e-05 -7.85483e-07
1.05986e-07 -7.85483e-07 8.27121e-07
0.00169342 1.39712e-05 6.00986e-07
1.39712e-05 0.000101563 1.11347e-06
6.00986e-07 1.11347e-06 1.29933e-05
0.00159718 9.07249e-06 -6.67468e-07
9.07249e-06 7.33824e-05 -2.98484e-08
-6.67468e-07 -2.98484e-08 -1.6666e-05
0.00155603 2.28129e-06 -2.59869e-06
2.28129e-06 8.03131e-05 -6.21804e-07
-2.59869e-06 -6.21804e-07 -9.77294e-06
0.00158003 -2.30478e-05 1.67061e-06
-2.30478e-05 7.58003e-05 5.75603e-07
1.67061e-06 5.75603e-07 -1.33199e-05
0.00150638 -2.93819e-05 4.94394e-08
-2.93819e-05 6.95365e-05 2.22601e-07
4.94394e-08 2.22601e-07 -2.00113e-05
0.00140447 -3.64899e-05 -3.04297e-06
-3.64899e-05 6.2019e-05 2.79496e-07
-3.04297e-06 2.79496e-07 -2.41888e-05
0.00145084 -5.48327e-05 1.65279e-06
-5.48327e-05 7.64095e-05 -3.53336e-07
1.65279e-06 -3.53336e-07 -1.17096e-05
0.00133478 -5.16819e-05 7.32797e-08
-5.16819e-05 5.83229e-05 1.59372e-07
7.32797e-08 1.59372e-07 -2.69109e-05
0.00113094 -4.03112e-05 -5.19473e-06
-4.03112e-05 1.88271e-05 1.83769e-06
-5.19473e-06 1.83769e-06 -5.46069e-05
0.00126832 -5.71452e-05 2.25388e-06
-5.71452e-05 5.90508e-05 -7.78816e-07
2.25388e-06 -7.78816e-07 -2.33275e-05
0.00107514 -4.3303e-05 2.41947e-07
-4.3303e-05 1.69288e-05 -9.71244e-08
2.41947e-07 -9.71244e-08 -5.39465e-05
0.00179158 -6.53991e-07 -7.17081e-06
-6.53991e-07 0.000503432 2.49704e-06
-7.17081e-06 2.49704e-06 0.000464119
0.00102059 -4.48164e-05 3.92812e-06
-4.48164e-05 1.65744e-05 -1.38504e-06
3.92812e-06 -1.38504e-06 -5.24973e-05
0.00185389 -7.40948e-06 9.7979e-06
-7.40948e-06 0.000540254 -8.29683e-07
9.7979e-06 -8.29683e-07 0.000502054
0.00124893 2.04375e-05 -4.64484e-05
2.04375e-05 0.000288013 5.71456e-06
-4.64484e-05 5.71456e-06 0.000267292
0.00188832 -7.56488e-06 2.53241e-05
-7.56488e-06 0.000559471 -4.43055e-06
2.53241e-05 -4.43055e-06 0.000523295
0.00119491 3.88326e-05 -1.75651e-05
3.88326e-05 0.000256903 2.07485e-06
-1.75651e-05 2.07485e-06 0.000236715
0.00302367 8.59939e-05 1.275e-05
8.59939e-05 0.00119101 -1.32883e-06
1.275e-05 -1.32883e-06 0.00118535
0.00185308 5.51769e-05 -1.36488e-06
5.51769e-05 0.000190488 -4.72032e-07
-1.36488e-06 -4.72032e-07 9.16123e-05
0.00155521 7.74133e-05 -9.61155e-07
7.74133e-05 0.000124888 -1.72003e-06
-9.61155e-07 -1.72003e-06 3.27943e-05
0.00161582 8.20787e-05 -1.8895e-06
8.20787e-05 0.000122287 1.25833e-06
-1.8895e-06 1.25833e-06 2.80846e-05
0.00149238 8.12461e-05 -1.11727e-06
8.12461e-05 0.000214568 3.00433e-08
-1.11727e-06 3.00433e-08 0.00012866
0.00129251 8.28728e-05 4.52045e-07
8.28728e-05 7.65535e-05 -1.04848e-06
4.52045e-07 -1.04848e-06 -1.36117e-05
0.00129346 8.19709e-05 3.15248e-06
8.19709e-05 4.46012e-05 1.05881e-06
3.15248e-06 1.05881e-06 -3.49862e-05
0.00100366 5.16437e-05 -3.14494e-06
5.16437e-05 5.56975e-05 -1.45071e-06
-3.14494e-06 -1.45071e-06 -1.51658e-05
0.00113223 7.32311e-05 -8.81642e-08
7.32311e-05 7.86756e-05 -9.11537e-08
-8.81642e-08 -9.11537e-08 -7.38296e-06
0.00143249 9.19609e-05 1.67839e-06
9.19609e-05 0.00019301 8.17638e-07
1.67839e-06 8.17638e-07 9.67808e-05
0.0010222 6.46674e-05 1.14171e-06
6.46674e-05 5.59468e-05 1.16899e-07
1.14171e-06 1.16899e-07 -2.57583e-05
0.000915017 3.71006e-05 -8.94309e-08
3.71006e-05 3.51338e-05 -1.0292e-07
-8.94309e-08 -1.0292e-07 -3.11209e-05
0.000794629 3.24746e-06 -6.00867e-06
3.24746e-06 9.78964e-06 -3.27502e-06
-6.00867e-06 -3.27502e-06 -2.8539e-05
0.000801781 1.63796e-05 2.10883e-06
1.63796e-05 -1.12072e-05 8.24018e-07
2.10883e-06 8.24018e-07 -7.50453e-05
0.000712756 -2.20771e-05 -7.01392e-08
-2.20771e-05 -3.00662e-05 -4.79599e-08
-7.01392e-08 -4.79599e-08 -6.40576e-05
0.00284069 -6.99262e-05 -3.43473e-05
-6.99262e-05 0.00108419 -3.05551e-06
-3.43473e-05 -3.05551e-06 0.00108388
0.000630722 -4.65899e-05 3.09778e-06
-4.65899e-05 -7.59873e-05 3.65036e-06
3.09778e-06 3.65036e-06 -0.000105932
0.00274166 -6.55272e-05 -4.37448e-07
-6.55272e-05 0.00101459 1.09757e-07
-4.37448e-07 1.09757e-07 0.00101891
0.00268291 -6.02309e-05 2.82431e-05
-6.02309e-05 0.000971757 3.21338e-06
2.82431e-05 3.21338e-06 0.000979645
0.00172185 -1.59447e-06 -3.91756e-07
-1.59447e-06 8.19826e-05 6.76797e-07
-3.91756e-07 6.76797e-07 -6.66782e-06
0.00172092 -1.25678e-05 -1.56818e-07
-1.25678e-05 7.29657e-05 7.33839e-07
-1.56818e-07 7.33839e-07 -1.44748e-05
0.00177922 -1.91329e-05 -1.27993e-06
-1.91329e-05 9.86995e-05 -2.64686e-06
-1.27993e-06 -2.64686e-06 2.54451e-05
0.00167294 4.47236e-05 9.20096e-07
4.47236e-05 5.89e-05 -1.29182e-08
9.20096e-07 -1.29182e-08 -3.8985e-05
0.00168609 9.0544e-05 1.64193e-06
9.0544e-05 0.000155628 2.61562e-07
1.64193e-06 2.61562e-07 5.55607e-05
0.00190223 4.43644e-05 3.91885e-07
4.43644e-05 0.000153766 -1.60787e-06
3.91885e-07 -1.60787e-06 5.26963e-05
0.00163664 2.59479e-06 8.37965e-08
2.59479e-06 7.82922e-05 5.45546e-07
8.37965e-08 5.45546e-07 -1.35857e-05
0.00161232 3.48513e-06 5.21211e-07
3.48513e-06 6.99857e-05 -3.68429e-07
5.21211e-07 -3.68429e-07 -1.60027e-05
0.00157873 2.5968e-06 -3.25933e-07
2.5968e-06 4.79397e-05 -1.97725e-07
-3.25933e-07 -1.97725e-07 -3.16709e-05
0.00161064 1.99438e-05 -7.28119e-07
1.99438e-05 8.45238e-05 -2.68936e-07
-7.28119e-07 -2.68936e-07 -7.35418e-06
0.00166404 1.74589e-05 7.27409e-07
1.74589e-05 0.000120454 8.21895e-08
7.27409e-07 8.21895e-08 2.54856e-05
0.00163812 2.88197e-05 2.21105e-07
2.88197e-05 9.29033e-05 8.20246e-07
2.21105e-07 8.20246e-07 4.6726e-06
0.00163899 2.39105e-05 4.16736e-07
2.39105e-05 0.000104789 6.57942e-08
4.16736e-07 6.57942e-08 1.38169e-05
0.00154494 1.82997e-05 -3.09359e-07
1.82997e-05 7.68673e-05 -4.66589e-07
-3.09359e-07 -4.66589e-07 -1.4678e-05
0.00159927 8.41441e-06 9.00725e-07
8.41441e-06 7.50126e-05 1.08982e-06
9.00725e-07 1.08982e-06 -1.50474e-05
0.00153715 1.25702e-06 -7.56541e-07
1.25702e-06 7.15463e-05 1.32489e-07
-7.56541e-07 1.32489e-07 -1.85759e-05
0.00144442 -6.84419e-06 -3.84779e-06
-6.84419e-06 6.70995e-05 -1.29151e-08
-3.84779e-06 -1.29151e-08 -1.97183e-05
0.00150352 -2.94138e-05 1.88396e-06
-2.94138e-05 6.81401e-05 4.2734e-07
1.88396e-06 4.2734e-07 -2.14859e-05
0.0013976 -3.56218e-05 9.81205e-08
-3.56218e-05 5.8578e-05 1.47859e-07
9.81205e-08 1.47859e-07 -2.7661e-05
0.0011667 -2.90718e-05 -5.8174e-06
-2.90718e-05 1.29687e-05 1.37361e-06
-5.8174e-06 1.37361e-06 -6.1335e-05
0.00133907 -5.12336e-05 2.81493e-06
-5.12336e-05 6.00311e-05 -4.59981e-07
2.81493e-06 -4.59981e-07 -2.51965e-05
0.00113236 -3.93559e-05 2.56015e-07
-3.93559e-05 1.82991e-05 1.14807e-07
2.56015e-07 1.14807e-07 -5.51095e-05
0.00192477 4.53766e-06 -7.41527e-06
4.53766e-06 0.000555517 2.32542e-06
-7.41527e-06 2.32542e-06 0.00051625
0.00107666 -4.28668e-05 4.5423e-06
-4.28668e-05 1.6958e-05 -1.70669e-06
4.5423e-06 -1.70669e-06 -5.39771e-05
0.0019379 -1.02316e-05 1.11094e-05
-1.02316e-05 0.000572744 -7.49702e-07
1.11094e-05 -7.49702e-07 0.000534075
0.00130491 1.35535e-05 -5.04914e-05
1.35535e-05 0.00031811 5.17964e-06
-5.04914e-05 5.17964e-06 0.000296709
0.00197964 -1.68467e-05 2.80781e-05
-1.68467e-05 0.000598373 -4.3791e-06
2.80781e-05 -4.3791e-06 0.000560957
0.00124984 3.60512e-05 -2.01128e-05
3.60512e-05 0.000293718 1.83588e-06
-2.01128e-05 1.83588e-06 0.00027099
0.00119333 5.15259e-05 7.4527e-06
5.15259e-05 0.000260622 -1.89674e-06
7.4527e-06 -1.89674e-06 0.000238791
0.00159889 1.24766e-05 -8.10029e-07
1.24766e-05 3.81437e-05 9.9386e-07
-8.10029e-07 9.9386e-07 -5.18828e-05
0.00158391 5.6714e-05 -2.00113e-06
5.6714e-05 9.11618e-05 -1.75699e-07
-2.00113e-06 -1.75699e-07 -4.71415e-06
0.00172648 5.35174e-05 -1.33592e-06
5.35174e-05 0.000123951 -9.99832e-07
-1.33592e-06 -9.99832e-07 2.47319e-05
0.00148274 7.41969e-05 -2.37432e-06
7.41969e-05 0.000145884 -6.27977e-07
-2.37432e-06 -6.27977e-07 5.88574e-05
0.00164341 7.96452e-05 8.47674e-07
7.96452e-05 0.000173644 6.64717e-07
8.47674e-07 6.64717e-07 8.20599e-05
0.00163372 8.38141e-05 3.81778e-06
8.38141e-05 0.000141219 2.33169e-06
3.81778e-06 2.33169e-06 4.79976e-05
0.000966076 5.4974e-05 -3.91127e-06
5.4974e-05 -2.43317e-06 -1.36645e-06
-3.91127e-06 -1.36645e-06 -7.59661e-05
0.00118107 7.42887e-05 1.14139e-06
7.42887e-05 5.56609e-05 6.89178e-07
1.14139e-06 6.89178e-07 -3.13587e-05
0.00112696 8.00259e-05 1.32337e-06
8.00259e-05 -8.63158e-06 9.09966e-07
1.32337e-06 9.09966e-07 -9.83532e-05
0.000803072 2.39809e-05 -7.15249e-06
2.39809e-05 1.0707e-05 -3.89419e-06
-7.15249e-06 -3.89419e-06 -3.26714e-05
0.00095927 4.91521e-05 -2.1837e-07
4.91521e-05 3.3209e-05 -1.69264e-07
-2.1837e-07 -1.69264e-07 -3.7319e-05
0.00113399 7.35394e-05 1.6644e-06
7.35394e-05 7.95749e-05 6.77598e-07
1.6644e-06 6.77598e-07 -6.60208e-06
0.00086092 3.44925e-05 2.44846e-06
3.44925e-05 8.58723e-06 7.19754e-07
2.44846e-06 7.19754e-07 -5.7485e-05
0.000728168 -3.06057e-07 -3.16607e-08
-3.06057e-07 -1.84839e-05 -3.69938e-08
-3.16607e-08 -3.69938e-08 -5.7242e-05
0.00304908 -6.95806e-05 -4.15833e-05
-6.95806e-05 0.00120805 -2.94291e-06
-4.15833e-05 -2.94291e-06 0.00120382
0.000664516 -3.43731e-05 3.34359e-06
-3.43731e-05 -5.01216e-05 3.48209e-06
3.34359e-06 3.48209e-06 -8.51008e-05
0.002833 -7.12524e-05 -6.1582e-07
-7.12524e-05 0.00107709 1.34893e-07
-6.1582e-07 1.34893e-07 0.00107739
0.00277471 -6.62422e-05 2.98555e-05
-6.62422e-05 0.00102872 3.10982e-06
2.98555e-05 3.10982e-06 0.00103357
0.00172253 -9.36395e-06 -5.6829e-07
-9.36395e-06 9.9251e-05 -5.71554e-07
-5.6829e-07 -5.71554e-07 1.00508e-05
0.00176752 -2.09952e-06 -2.48781e-07
-2.09952e-06 0.00010427 2.52844e-07
-2.48781e-07 2.52844e-07 1.51946e-05
0.00179082 -1.13876e-05 -1.03755e-06
-1.13876e-05 0.000100471 -1.60597e-06
-1.03755e-06 -1.60597e-06 1.18217e-05
0.00178431 4.56322e-05 5.89966e-07
4.56322e-05 0.000108741 -1.11763e-06
5.89966e-07 -1.11763e-06 1.17452e-05
0.00169518 -2.2348e-06 -2.98196e-08
-2.2348e-06 0.000110437 -6.16646e-07
-2.98196e-08 -6.16646e-07 1.53193e-05
0.00170495 2.44954e-06 -2.54827e-07
2.44954e-06 0.000112288 -2.16661e-07
-2.54827e-07 -2.16661e-07 2.07794e-05
0.00158358 6.65982e-06 -8.17269e-07
6.65982e-06 5.7158e-05 -2.32044e-08
-8.17269e-07 -2.32044e-08 -2.94141e-05
0.00162216 1.48476e-05 -1.78674e-06
1.48476e-05 9.02958e-05 -7.00893e-07
-1.78674e-06 -7.00893e-07 -7.72412e-07
0.00162102 2.22904e-05 1.06305e-09
2.22904e-05 9.7117e-05 -4.19988e-07
1.06305e-09 -4.19988e-07 2.03516e-06
0.00164204 1.87082e-05 -8.19669e-07
1.87082e-05 0.00012244 5.83209e-07
-8.19669e-07 5.83209e-07 2.81556e-05
0.00166904 2.40718e-05 9.25483e-07
2.40718e-05 0.000120305 8.30942e-07
9.25483e-07 8.30942e-07 2.93266e-05
0.00160597 1.92315e-05 5.11977e-07
1.92315e-05 0.000108831 -1.46511e-08
5.11977e-07 -1.46511e-08 1.76961e-05
0.00132376 1.50465e-05 -2.68738e-06
1.50465e-05 8.82955e-08 -2.38379e-08
-2.68738e-06 -2.38379e-08 -8.85974e-05
0.00151075 1.76403e-06 9.35594e-07
1.76403e-06 5.92111e-05 8.89811e-07
9.35594e-07 8.89811e-07 -3.09559e-05
0.00142443 -4.707e-06 -4.26709e-07
-4.707e-06 5.72703e-05 1.30642e-07
-4.26709e-07 1.30642e-07 -2.94902e-05
0.00117718 -8.73924e-06 -5.97237e-06
-8.73924e-06 4.97363e-06 7.97845e-07
-5.97237e-06 7.97845e-07 -6.95129e-05
0.00138953 -3.25473e-05 3.08635e-06
-3.25473e-05 5.46042e-05 4.9932e-08
3.08635e-06 4.9932e-08 -3.16164e-05
0.00117213 -2.99181e-05 1.20926e-07
-2.99181e-05 1.48494e-05 2.1798e-07
1.20926e-07 2.1798e-07 -5.94484e-05
0.000684008 -1.60721e-05 -9.07976e-06
-1.60721e-05 -9.9809e-05 2.89577e-06
-9.07976e-06 2.89577e-06 -0.000143469
0.00113303 -3.85691e-05 5.35855e-06
-3.85691e-05 1.74282e-05 -1.55842e-06
5.35855e-06 -1.55842e-06 -5.5968e-05
0.00136789 -2.36549e-05 1.2713e-05
-2.36549e-05 0.000263392 -4.17004e-07
1.2713e-05 -4.17004e-07 0.000222715
0.00401815 6.84324e-05 -5.45691e-05
6.84324e-05 0.00171259 2.08105e-06
-5.45691e-05 2.08105e-06 0.00170242
0.00207545 -2.15829e-05 3.07714e-05
-2.15829e-05 0.000636917 -4.19086e-06
3.07714e-05 -4.19086e-06 0.00059918
0.00130916 3.43283e-05 -2.25834e-05
3.43283e-05 0.000326027 1.57045e-06
-2.25834e-05 1.57045e-06 0.000302184
0.00126376 5.48391e-05 6.67906e-06
5.48391e-05 0.000306789 -1.99971e-06
6.67906e-06 -1.99971e-06 0.000281628
0.00169476 -1.56237e-07 1.35179e-07
-1.56237e-07 9.45209e-05 -1.38234e-08
1.35179e-07 -1.38234e-08 7.29252e-06
0.00142462 2.21386e-05 -1.11811e-06
2.21386e-05 -3.7882e-06 8.5617e-07
-1.11811e-06 8.5617e-07 -9.54532e-05
0.00167505 1.23554e-05 7.61382e-09
1.23554e-05 7.96059e-05 -9.79926e-09
7.61382e-09 -9.79926e-09 -1.02609e-05
0.00112107 5.31528e-05 -3.03901e-06
5.31528e-05 -8.93827e-05 -8.5074e-07
-3.03901e-06 -8.5074e-07 -0.00017976
0.00159231 5.67024e-05 3.51415e-08
5.67024e-05 9.84856e-05 -1.03491e-07
3.51415e-08 -1.03491e-07 3.36213e-06
0.00160322 5.18957e-05 1.73225e-07
5.18957e-05 5.9777e-05 -1.21526e-06
1.73225e-07 -1.21526e-06 -3.98938e-05
0.000673697 4.57748e-05 -5.97758e-06
4.57748e-05 -0.000199062 -1.99114e-06
-5.97758e-06 -1.99114e-06 -0.000275357
0.00147997 7.50554e-05 6.8016e-07
7.50554e-05 0.000143931 -2.81051e-09
6.8016e-07 -2.81051e-09 5.6778e-05
0.00171169 8.16338e-05 2.69166e-06
8.16338e-05 0.000213541 1.50827e-06
2.69166e-06 1.50827e-06 0.000122317
0.00078005 4.05404e-05 -8.7067e-06
4.05404e-05 -1.41913e-05 -4.11159e-06
-8.7067e-06 -4.11159e-06 -6.07778e-05
0.000793092 5.03656e-05 -1.65332e-07
5.03656e-05 -9.26684e-05 9.24723e-08
-1.65332e-07 9.24723e-08 -0.000167119
0.00087002 6.73489e-05 3.1357e-06
6.73489e-05 -0.00010317 1.47902e-06
3.1357e-06 1.47902e-06 -0.000191295
0.00340587 -6.23827e-05 -4.97172e-05
-6.23827e-05 0.00140173 -3.23419e-06
-4.97172e-05 -3.23419e-06 0.00139414
0.000713623 1.96597e-05 -9.68612e-08
1.96597e-05 -2.90009e-05 -2.69429e-08
-9.68612e-08 -2.69429e-08 -7.25625e-05
0.000926683 4.6942e-05 2.81983e-06
4.6942e-05 1.67225e-05 1.26393e-06
2.81983e-06 1.26393e-06 -5.35013e-05
0.00065673 -2.8367e-06 5.18598e-06
-2.8367e-06 -4.9293e-05 3.40215e-06
5.18598e-06 3.40215e-06 -8.83704e-05
0.0029965 -7.73451e-05 -1.17323e-06
-7.73451e-05 0.00117876 1.79856e-07
-1.17323e-06 1.79856e-07 0.00117457
0.00283242 -7.17292e-05 3.13412e-05
-7.17292e-05 0.00107301 3.00575e-06
3.13412e-05 3.00575e-06 0.00107409
0.00167477 -1.10607e-05 -9.558e-07
-1.10607e-05 8.79534e-05 -5.21614e-07
-9.558e-07 -5.21614e-07 -2.64003e-06
0.00171473 -9.36137e-06 -4.19384e-07
-9.36137e-06 9.44659e-05 -1.60807e-07
-4.19384e-07 -1.60807e-07 5.39103e-06
0.00179967 -2.49921e-06 -1.02203e-07
-2.49921e-06 0.000120092 -1.09153e-06
-1.02203e-07 -1.09153e-06 3.05645e-05
0.00173401 1.15738e-05 -8.19485e-07
1.15738e-05 0.000138896 -2.31562e-08
-8.19485e-07 -2.31562e-08 4.15158e-05
0.00166526 1.64036e-06 -4.54429e-07
1.64036e-06 9.46888e-05 -3.95376e-07
-4.54429e-07 -3.95376e-07 -1.02933e-06
0.00176947 -4.56423e-07 -1.49441e-06
-4.56423e-07 0.000144216 3.21694e-08
-1.49441e-06 3.21694e-08 5.31819e-05
0.00156417 2.56658e-05 -3.95123e-07
2.56658e-05 6.68659e-05 -9.93908e-07
-3.95123e-07 -9.93908e-07 -2.82549e-05
0.00162828 2.08604e-05 4.28784e-07
2.08604e-05 0.000115074 2.00649e-08
4.28784e-07 2.00649e-08 2.08297e-05
0.00163098 1.5216e-05 -2.09221e-06
1.5216e-05 0.000143729 7.41785e-07
-2.09221e-06 7.41785e-07 5.43314e-05
0.00167142 2.01979e-05 1.83901e-06
2.01979e-05 0.000142938 5.0558e-07
1.83901e-06 5.0558e-07 5.22179e-05
0.00151943 1.77141e-05 9.28547e-09
1.77141e-05 0.000101473 6.14685e-08
9.28547e-09 6.14685e-08 1.40622e-05
0.000899019 9.58313e-06 -6.83848e-06
9.58313e-06 -0.000149285 1.019e-06
-6.83848e-06 1.019e-06 -0.000227458
0.00140054 -5.01823e-06 2.57782e-06
-5.01823e-06 4.5528e-05 2.993e-07
2.57782e-06 2.993e-07 -4.12431e-05
0.00118014 -6.65616e-06 -4.47851e-08
-6.65616e-06 5.8695e-06 -5.80515e-09
-4.47851e-08 -5.80515e-09 -6.8499e-05
0.000707416 -6.05906e-06 -9.24566e-06
-6.05906e-06 -9.6073e-05 2.06819e-06
-9.24566e-06 2.06819e-06 -0.000139929
0.00117136 -2.90069e-05 6.03552e-06
-2.90069e-05 1.36525e-05 -1.00439e-06
6.03552e-06 -1.00439e-06 -6.05896e-05
0.000693966 -1.34485e-05 -5.88318e-08
-1.34485e-05 -9.46031e-05 1.56097e-07
-5.88318e-08 1.56097e-07 -0.000138355
0.00407937 6.10746e-05 -5.69916e-05
6.10746e-05 0.00173796 1.43569e-06
-5.69916e-05 1.43569e-06 0.00172895
0.000786794 -2.97396e-05 1.13688e-05
-2.97396e-05 -3.78507e-05 -4.3616e-06
1.13688e-05 -4.3616e-06 -8.26371e-05
0.00275985 6.44978e-05 2.02029e-05
6.44978e-05 0.00106653 8.6355e-07
2.02029e-05 8.6355e-07 0.00104816
0.00132954 5.83708e-05 5.65768e-06
5.83708e-05 0.000343288 -1.99802e-06
5.65768e-06 -1.99802e-06 0.000316455
0.00180178 -9.3502e-06 -2.37982e-07
-9.3502e-06 0.000162579 -4.89793e-08
-2.37982e-07 -4.89793e-08 7.51108e-05
0.00156043 5.75476e-06 -6.54894e-07
5.75476e-06 6.09169e-05 1.43201e-07
-6.54894e-07 1.43201e-07 -2.70228e-05
0.00162479 -6.39596e-07 1.75539e-07
-6.39596e-07 6.02976e-05 1.98217e-07
1.75539e-07 1.98217e-07 -2.66099e-05
0.0013901 3.07761e-05 -2.53629e-06
3.07761e-05 2.90809e-05 4.39307e-08
-2.53629e-06 4.39307e-08 -5.83602e-05
0.00149071 2.21707e-05 3.93401e-07
2.21707e-05 2.82602e-05 -1.43174e-07
3.93401e-07 -1.43174e-07 -6.2821e-05
0.00173966 1.2145e-05 7.47382e-07
1.2145e-05 0.000114951 -7.86126e-07
7.47382e-07 -7.86126e-07 2.52982e-05
0.000784612 4.00099e-05 -6.59422e-06
4.00099e-05 -0.000184174 -1.95905e-06
-6.59422e-06 -1.95905e-06 -0.000261506
0.00149479 6.03688e-05 -1.00736e-06
6.03688e-05 0.000101765 -3.00594e-07
-1.00736e-06 -3.00594e-07 1.27053e-05
0.00165594 5.75258e-05 2.46957e-06
5.75258e-05 0.000132259 -4.18734e-07
2.46957e-06 -4.18734e-07 3.80014e-05
0.000742481 4.48747e-05 -9.79534e-06
4.48747e-05 -5.13894e-05 -3.94744e-06
-9.79534e-06 -3.94744e-06 -9.83901e-05
0.000738016 4.75412e-05 -1.56919e-06
4.75412e-05 -0.000170662 -6.09715e-07
-1.56919e-06 -6.09715e-07 -0.000247423
0.00148208 7.60375e-05 3.54668e-06
7.60375e-05 0.000144454 8.25664e-07
3.54668e-06 8.25664e-07 5.71601e-05
0.00380679 -6.44635e-05 -5.43702e-05
-6.44635e-05 0.00160953 -3.20733e-06
-5.43702e-05 -3.20733e-06 0.00159918
0.000704818 3.5521e-05 -7.9866e-08
3.5521e-05 -4.80479e-05 1.62816e-07
-7.9866e-08 1.62816e-07 -9.47055e-05
0.000619281 4.57212e-05 3.7849e-06
4.57212e-05 -0.00018327 1.78125e-06
3.7849e-06 1.78125e-06 -0.000258642
0.00326638 -7.65877e-05 -2.24813e-06
-7.65877e-05 0.00133056 1.52277e-07
-2.24813e-06 1.52277e-07 0.0013228
0.000631249 1.5692e-05 5.89229e-06
1.5692e-05 -6.55018e-05 3.81396e-06
5.89229e-06 3.81396e-06 -0.00010922
0.00291823 -7.74464e-05 3.27689e-05
-7.74464e-05 0.00113583 2.88095e-06
3.27689e-05 2.88095e-06 0.00113245
0.0017127 1.98065e-06 -6.94929e-07
1.98065e-06 0.000125973 -6.12226e-07
-6.94929e-07 -6.12226e-07 3.31176e-05
0.0016937 -1.00769e-05 1.87842e-07
-1.00769e-05 9.8382e-05 4.53295e-07
1.87842e-07 4.53295e-07 7.7909e-06
0.00170422 -9.24621e-06 -1.67319e-07
-9.24621e-06 8.84901e-05 -6.26344e-08
-1.67319e-07 -6.26344e-08 -4.79087e-07
0.00167818 2.06188e-07 -2.69425e-06
2.06188e-07 0.000141523 4.6659e-08
-2.69425e-06 4.6659e-08 4.91317e-05
0.00171565 1.12632e-05 4.65695e-07
1.12632e-05 0.000132546 -2.90749e-08
4.65695e-07 -2.90749e-08 3.53695e-05
0.00163781 7.89628e-06 4.60894e-07
7.89628e-06 8.0383e-05 -3.4059e-07
4.60894e-07 -3.4059e-07 -1.60626e-05
0.00162112 2.17551e-05 1.20259e-06
2.17551e-05 0.000110985 -6.1605e-07
1.20259e-06 -6.1605e-07 1.68088e-05
0.00162756 1.55392e-05 7.00745e-07
1.55392e-05 0.000141913 -7.27063e-08
7.00745e-07 -7.27063e-08 5.26139e-05
0.000941513 8.04659e-06 -6.67489e-06
8.04659e-06 -0.0001471 1.22384e-06
-6.67489e-06 1.22384e-06 -0.000228244
0.00172463 2.03937e-05 3.15786e-06
2.03937e-05 0.000207596 -3.22367e-08
3.15786e-06 -3.22367e-08 0.000121465
0.00104273 1.17907e-05 -1.25235e-06
1.17907e-05 -7.38425e-05 2.87307e-07
-1.25235e-06 2.87307e-07 -0.000150762
0.000724287 7.00391e-07 -9.65417e-06
7.00391e-07 -9.52989e-05 1.64719e-06
-9.65417e-06 1.64719e-06 -0.000141538
0.00118601 -6.57513e-06 5.85282e-06
-6.57513e-06 8.06709e-06 -9.04746e-07
5.85282e-06 -9.04746e-07 -6.62053e-05
0.000710236 1.44615e-06 2.23766e-07
1.44615e-06 -9.43744e-05 -1.20953e-08
2.23766e-07 -1.20953e-08 -0.000138508
0.00418536 5.96679e-05 -6.04536e-05
5.96679e-05 0.00178698 8.05831e-07
-6.04536e-05 8.05831e-07 0.0017785
0.000698666 -8.98703e-06 8.986e-06
-8.98703e-06 -9.22001e-05 -2.59005e-06
8.986e-06 -2.59005e-06 -0.000135812
0.0041367 6.63216e-05 -5.1236e-07
6.63216e-05 0.00176664 1.6682e-07
-5.1236e-07 1.6682e-07 0.0017573
0.00155568 1.07752e-05 5.32592e-05
1.07752e-05 0.000441965 -2.54035e-06
5.32592e-05 -2.54035e-06 0.000420435
0.00176335 -3.65712e-06 -5.61955e-07
-3.65712e-06 0.000164888 -3.41533e-07
-5.61955e-07 -3.41533e-07 7.69199e-05
0.001686 -9.67233e-06 4.84609e-07
-9.67233e-06 0.000104344 3.44398e-07
4.84609e-07 3.44398e-07 1.74582e-05
0.0014324 6.0885e-06 -2.26998e-06
6.0885e-06 3.83758e-05 -3.59876e-07
-2.26998e-06 -3.59876e-07 -4.80358e-05
0.00158457 5.24366e-06 3.12474e-07
5.24366e-06 7.21482e-05 -1.33836e-07
3.12474e-07 -1.33836e-07 -1.5827e-05
0.00155237 -1.11314e-06 1.39856e-06
-1.11314e-06 2.47973e-05 5.81913e-09
1.39856e-06 5.81913e-09 -6.17801e-05
0.00119132 2.73884e-05 -5.93107e-06
2.73884e-05 3.23284e-06 -1.30422e-06
-5.93107e-06 -1.30422e-06 -7.22331e-05
0.00143289 3.1301e-05 -4.24202e-08
3.1301e-05 4.84889e-05 1.43646e-07
-4.24202e-08 1.43646e-07 -3.88964e-05
0.00153971 2.20211e-05 1.20719e-06
2.20211e-05 5.2207e-05 -5.3018e-07
1.20719e-06 -5.3018e-07 -3.83434e-05
0.000726226 3.81679e-05 -1.03792e-05
3.81679e-05 -7.80124e-05 -3.5221e-06
-1.03792e-05 -3.5221e-06 -0.000123611
0.000988534 4.40857e-05 -1.89428e-06
4.40857e-05 -7.99071e-05 -4.71431e-07
-1.89428e-06 -4.71431e-07 -0.000156667
0.0018582 6.73132e-05 2.53357e-06
6.73132e-05 0.000287823 1.99635e-07
2.53357e-06 1.99635e-07 0.000200091
0.00412668 -7.06744e-05 -5.69399e-05
-7.06744e-05 0.00176917 -2.90068e-06
-5.69399e-05 -2.90068e-06 0.00175758
0.000701703 4.18107e-05 1.66827e-07
4.18107e-05 -7.02572e-05 1.54869e-07
1.66827e-07 1.54869e-07 -0.000117176
0.000785958 4.90963e-05 3.62385e-06
4.90963e-05 -0.000150262 1.08548e-06
3.62385e-06 1.08548e-06 -0.000227502
0.00363743 -7.2368e-05 -2.11075e-06
-7.2368e-05 0.00152455 2.41076e-07
-2.11075e-06 2.41076e-07 0.00151432
0.00063392 3.08006e-05 7.17019e-06
3.08006e-05 -8.02829e-05 4.28716e-06
7.17019e-06 4.28716e-06 -0.000126934
0.00312157 -8.43762e-05 3.52814e-05
-8.43762e-05 0.00125633 2.76821e-06
3.52814e-05 2.76821e-06 0.00124857
0.00168621 6.88733e-06 -1.94486e-06
6.88733e-06 0.000149736 -8.00178e-07
-1.94486e-06 -8.00178e-07 6.0485e-05
0.00171963 -3.88363e-07 2.96797e-07
-3.88363e-07 0.000131692 2.6638e-07
2.96797e-07 2.6638e-07 3.90643e-05
0.00171468 -9.57081e-06 1.50185e-06
-9.57081e-06 0.000109805 1.33933e-06
1.50185e-06 1.33933e-06 1.92183e-05
0.000966959 -1.15266e-05 -7.30846e-06
-1.15266e-05 -0.000151068 3.49735e-07
-7.30846e-06 3.49735e-07 -0.000234297
0.0016966 7.03881e-06 7.32494e-07
7.03881e-06 0.000151827 1.21107e-07
7.32494e-07 1.21107e-07 5.92318e-05
0.00169328 1.12544e-05 1.71945e-06
1.12544e-05 0.000124159 -3.81957e-07
1.71945e-06 -3.81957e-07 2.71998e-05
0.00162566 1.55455e-05 3.34648e-06
1.55455e-05 0.000140883 -4.93706e-07
3.34648e-06 -4.93706e-07 5.16778e-05
0.000928108 7.67448e-06 -9.36598e-07
7.67448e-06 -0.000151319 2.79068e-07
-9.36598e-07 2.79068e-07 -0.000231989
0.000735335 7.35443e-06 -1.01076e-05
7.35443e-06 -0.000102525 1.10794e-06
-1.01076e-05 1.10794e-06 -0.000151405
0.00117805 1.48001e-05 4.59755e-06
1.48001e-05 -2.67867e-06 -6.82926e-07
4.59755e-06 -6.82926e-07 -7.83435e-05
0.000735143 1.01633e-05 2.96928e-07
1.01633e-05 -9.0273e-05 -8.41036e-09
2.96928e-07 -8.41036e-09 -0.00013666
0.00430823 5.81119e-05 -6.37164e-05
5.81119e-05 0.00184482 2.03767e-07
-6.37164e-05 2.03767e-07 0.00183657
0.000713941 1.01055e-05 9.0958e-06
1.01055e-05 -9.24129e-05 -1.94826e-06
9.0958e-06 -1.94826e-06 -0.000136614
0.00423528 6.25679e-05 4.29484e-07
6.25679e-05 0.00181131 1.82642e-07
4.29484e-07 1.82642e-07 0.00180278
0.00421601 6.86961e-05 6.09542e-05
6.86961e-05 0.00180556 -1.05988e-06
6.09542e-05 -1.05988e-06 0.00179624
0.00150985 -1.18863e-06 -2.42941e-06
-1.18863e-06 7.08445e-05 -8.60372e-07
-2.42941e-06 -8.60372e-07 -1.66906e-05
0.00165959 -4.82269e-06 3.095e-07
-4.82269e-06 0.00011057 9.15237e-08
3.095e-07 9.15237e-08 2.26995e-05
0.00157242 -9.87442e-06 6.84182e-07
-9.87442e-06 4.72447e-05 7.50013e-07
6.84182e-07 7.50013e-07 -3.90628e-05
0.00120634 4.24243e-06 -5.85827e-06
4.24243e-06 -2.17387e-06 -1.36805e-06
-5.85827e-06 -1.36805e-06 -7.79421e-05
0.00146077 6.00723e-06 1.40433e-07
6.00723e-06 5.17973e-05 -7.77138e-08
1.40433e-07 -7.77138e-08 -3.4656e-05
0.00160847 4.71713e-06 8.14069e-07
4.71713e-06 8.32166e-05 -4.09012e-07
8.14069e-07 -4.09012e-07 -4.78777e-06
0.000725007 2.25092e-05 -1.02739e-05
2.25092e-05 -9.17882e-05 -3.03006e-06
-1.02739e-05 -3.03006e-06 -0.000136843
0.00120151 2.76611e-05 -9.7805e-08
2.76611e-05 8.51738e-06 1.64033e-07
-9.7805e-08 1.64033e-07 -6.70565e-05
0.00148033 3.18603e-05 2.82367e-06
3.18603e-05 7.01766e-05 2.97887e-07
2.82367e-06 2.97887e-07 -1.71548e-05
0.00428004 -5.36535e-05 -6.28924e-05
-5.36535e-05 0.00183729 -2.24774e-06
-6.28924e-05 -2.24774e-06 0.00182812
0.000704741 3.64371e-05 3.44784e-08
3.64371e-05 -8.72906e-05 1.28955e-07
3.44784e-08 1.28955e-07 -0.000133076
0.00120299 4.85567e-05 4.19987e-06
4.85567e-05 2.97563e-05 1.17728e-06
4.19987e-06 1.17728e-06 -4.64783e-05
0.00395235 -6.12765e-05 5.0031e-07
-6.12765e-05 0.00168087 1.63462e-07
5.0031e-07 1.63462e-07 0.00167055
0.000653727 3.84532e-05 8.66294e-06
3.84532e-05 -9.26161e-05 4.06274e-06
8.66294e-06 4.06274e-06 -0.000139518
0.0034527 -8.29906e-05 4.24879e-05
-8.29906e-05 0.00143258 2.8501e-06
4.24879e-05 2.8501e-06 0.00142213
0.00127516 -1.91042e-07 -6.21338e-06
-1.91042e-07 9.78554e-06 -7.01137e-07
-6.21338e-06 -7.01137e-07 -7.01863e-05
0.00154572 1.74862e-06 8.27047e-07
1.74862e-06 7.63423e-05 -1.33523e-07
8.27047e-07 -1.33523e-07 -1.4335e-05
0.00172338 -3.90966e-06 1.49932e-06
-3.90966e-06 0.000135744 1.38339e-06
1.49932e-06 1.38339e-06 4.33425e-05
0.000749896 1.10023e-05 -1.06753e-05
1.10023e-05 -0.000106095 8.00869e-08
-1.06753e-05 8.00869e-08 -0.000156075
0.000958567 -4.08932e-06 -1.16015e-06
-4.08932e-06 -0.000154264 3.37239e-07
-1.16015e-06 3.37239e-07 -0.000237239
0.00171563 1.35316e-05 4.05635e-06
1.35316e-05 0.000162454 -3.87955e-07
4.05635e-06 -3.87955e-07 6.96493e-05
0.000914377 7.7121e-06 4.46983e-06
7.7121e-06 -0.00015578 -4.42449e-07
4.46983e-06 -4.42449e-07 -0.000235962
0.00074931 1.01502e-05 2.33641e-07
1.01502e-05 -9.59692e-05 2.10711e-07
2.33641e-07 2.10711e-07 -0.000145034
0.00451338 5.78067e-05 -6.67602e-05
5.78067e-05 0.00194248 -3.81581e-07
-6.67602e-05 -3.81581e-07 0.00193409
0.000745662 1.79758e-05 9.54213e-06
1.79758e-05 -8.51434e-05 -1.50862e-06
9.54213e-06 -1.50862e-06 -0.000131833
0.00437756 6.02094e-05 8.55804e-07
6.02094e-05 0.00187811 2.22931e-07
8.55804e-07 2.22931e-07 0.0018698
0.00427999 6.55826e-05 6.53361e-05
6.55826e-05 0.00183289 -4.27776e-07
6.53361e-05 -4.27776e-07 0.00182434
0.00124476 -2.74691e-06 -6.13281e-06
-2.74691e-06 5.41607e-06 -1.4472e-06
-6.13281e-06 -1.4472e-06 -7.22419e-05
0.00144314 -2.64713e-06 -4.66173e-08
-2.64713e-06 3.50026e-05 -1.21284e-07
-4.66173e-08 -1.21284e-07 -5.29143e-05
0.00155565 -6.05228e-06 8.69341e-07
-6.05228e-06 5.6242e-05 4.61299e-07
8.69341e-07 4.61299e-07 -3.15419e-05
0.00224488 -1.66854e-06 -3.74684e-05
-1.66854e-06 0.000677814 -1.80737e-06
-3.74684e-05 -1.80737e-06 0.000640255
0.001222 4.49902e-06 1.32389e-07
4.49902e-06 5.78116e-06 5.87144e-08
1.32389e-07 5.87144e-08 -7.01613e-05
0.00149372 5.75998e-06 2.64142e-06
5.75998e-06 6.74718e-05 2.58618e-07
2.64142e-06 2.58618e-07 -1.90237e-05
0.00439229 -4.29138e-05 -6.86024e-05
-4.29138e-05 0.00188547 -1.57223e-06
-6.86024e-05 -1.57223e-06 0.00187785
0.00071926 2.31911e-05 -7.16481e-08
2.31911e-05 -9.46472e-05 9.58375e-08
-7.16481e-08 9.58375e-08 -0.000139708
0.00121429 2.76474e-05 6.10567e-06
2.76474e-05 1.51042e-05 1.5914e-06
6.10567e-06 1.5914e-06 -6.06053e-05
0.00418791 -5.05319e-05 1.99402e-06
-5.05319e-05 0.00179248 1.66222e-07
1.99402e-06 1.66222e-07 0.00178322
0.000677193 3.46488e-05 9.46841e-06
3.46488e-05 -9.96642e-05 3.62877e-06
9.46841e-06 3.62877e-06 -0.000145565
0.00381993 -7.05422e-05 5.02227e-05
-7.05422e-05 0.0016159 2.8213e-06
5.02227e-05 2.8213e-06 0.00160523
0.000788411 5.3207e-06 -1.3372e-05
5.3207e-06 -8.88327e-05 -1.41793e-06
-1.3372e-05 -1.41793e-06 -0.000139598
0.00111405 -3.01283e-06 1.96289e-07
-3.01283e-06 -7.32792e-05 2.88982e-07
1.96289e-07 2.88982e-07 -0.000154153
0.00139781 -3.30382e-06 3.54882e-06
-3.30382e-06 -9.24017e-07 7.73086e-07
3.54882e-06 7.73086e-07 -9.29677e-05
0.00469826 -2.83497e-05 -6.70961e-05
-2.83497e-05 0.00203374 -1.09199e-06
-6.70961e-05 -1.09199e-06 0.0020233
0.000764142 7.72916e-06 7.74289e-08
7.72916e-06 -9.89366e-05 2.59173e-07
7.74289e-08 2.59173e-07 -0.000149338
0.000950441 2.9468e-06 4.81961e-06
2.9468e-06 -0.000157302 7.89986e-08
4.81961e-06 7.89986e-08 -0.000240036
0.000764294 1.7216e-05 1.01983e-05
1.7216e-05 -8.85827e-05 -6.18435e-07
1.01983e-05 -6.18435e-07 -0.000138051
0.00458539 6.8446e-05 2.82033e-06
6.8446e-05 0.00197786 3.41072e-07
2.82033e-06 3.41072e-07 0.00196896
0.00444708 6.47338e-05 7.10923e-05
6.47338e-05 0.00191151 1.54372e-07
7.10923e-05 1.54372e-07 0.00190307
0.00233205 -1.88162e-05 -4.17796e-05
-1.88162e-05 0.000711143 -1.8036e-06
-4.17796e-05 -1.8036e-06 0.000671116
0.00124905 -1.29217e-06 -3.81811e-08
-1.29217e-06 7.31507e-06 1.02376e-08
-3.81811e-08 1.02376e-08 -7.03049e-05
0.00137607 -3.93415e-06 2.40423e-06
-3.93415e-06 -1.08609e-06 6.56321e-07
2.40423e-06 6.56321e-07 -8.93726e-05
0.00430555 -4.82023e-05 -1.92036e-05
-4.82023e-05 0.00184229 -5.79287e-07
-1.92036e-05 -5.79287e-07 0.00183254
0.000750915 6.49915e-06 -1.35725e-07
6.49915e-06 -8.82638e-05 6.8376e-08
-1.35725e-07 6.8376e-08 -0.000134292
0.00124001 5.85288e-06 6.04235e-06
5.85288e-06 1.46858e-05 1.41804e-06
6.04235e-06 1.41804e-06 -6.13694e-05
0.00431852 -3.94788e-05 3.58096e-07
-3.94788e-05 0.0018501 2.3266e-07
3.58096e-07 2.3266e-07 0.0018424
0.000710301 2.47728e-05 1.02465e-05
2.47728e-05 -9.90135e-05 3.20397e-06
1.02465e-05 3.20397e-06 -0.000144056
0.00406531 -4.31952e-05 5.89015e-05
-4.31952e-05 0.0017316 2.44015e-06
5.89015e-05 2.44015e-06 0.00172299
0.00165902 -9.52989e-06 -7.02781e-05
-9.52989e-06 0.000463115 -2.2299e-07
-7.02781e-05 -2.2299e-07 0.000439435
0.00158395 8.24802e-07 -1.63569e-05
8.24802e-07 0.000321222 4.50148e-07
-1.63569e-05 4.50148e-07 0.000275829
0.000965479 -2.20308e-06 6.14394e-06
-2.20308e-06 -0.000150013 1.19615e-06
6.14394e-06 1.19615e-06 -0.000231775
0.00471538 -1.31287e-05 3.07624e-06
-1.31287e-05 0.00204078 -5.81201e-07
3.07624e-06 -5.81201e-07 0.00203114
0.0007682 6.0855e-06 1.08702e-05
6.0855e-06 -9.70807e-05 4.34862e-07
1.08702e-05 4.34862e-07 -0.000147593
0.00465081 5.88816e-05 7.41919e-05
5.88816e-05 0.00200846 8.04154e-07
7.41919e-05 8.04154e-07 0.0020001
0.00143669 -1.73557e-05 -1.03806e-05
-1.73557e-05 0.000359576 -8.85156e-07
-1.03806e-05 -8.85156e-07 0.000334487
0.0015725 -7.94947e-07 -1.55184e-05
-7.94947e-07 0.000323247 1.88625e-07
-1.55184e-05 1.88625e-07 0.000279309
0.00125229 -2.2409e-06 5.85242e-06
-2.2409e-06 8.77961e-06 1.43544e-06
5.85242e-06 1.43544e-06 -6.88544e-05
0.00291346 -2.85808e-05 2.86558e-05
-2.85808e-05 0.00112276 1.51763e-07
2.86558e-05 1.51763e-07 0.00110696
0.000748897 1.26918e-05 1.06501e-05
1.26918e-05 -8.99061e-05 2.76237e-06
1.06501e-05 2.76237e-06 -0.000135986
0.00426509 -3.3672e-05 6.45557e-05
-3.3672e-05 0.00182434 1.96832e-06
6.45557e-05 1.96832e-06 0.00181677
0.00473415 -6.4527e-05 -2.67523e-06
-6.4527e-05 0.00204807 3.58783e-07
-2.67523e-06 3.58783e-07 0.0020391
0.000771703 5.85808e-06 1.0969e-05
5.85808e-06 -9.53508e-05 1.57819e-06
1.0969e-05 1.57819e-06 -0.000145375
0.00474149 2.2944e-05 7.27694e-05
2.2944e-05 0.00205225 -7.38711e-07
7.27694e-05 -7.38711e-07 0.00204303
0.00303896 -3.1913e-05 2.95791e-05
-3.1913e-05 0.00118052 -2.52885e-08
2.95791e-05 -2.52885e-08 0.00116374
0.0007774 5.48112e-06 1.07009e-05
5.48112e-06 -8.41898e-05 2.29128e-06
1.07009e-05 2.29128e-06 -0.000132648
0.00440373 -3.46254e-05 6.74522e-05
-3.46254e-05 0.00188838 1.38575e-06
6.74522e-05 1.38575e-06 0.00188111
0.00468468 -9.12449e-05 6.80708e-05
-9.12449e-05 0.00202717 -5.77195e-08
6.80708e-05 -5.77195e-08 0.00201601
0.00455876 -3.922e-05 6.94203e-05
-3.922e-05 0.00196208 6.96749e-07
6.94203e-05 6.96749e-07 0.00195454
