# vtk DataFile Version 2.0
Wound Healing Simulation
ASCII
DATASET UNSTRUCTURED_GRID
POINTS 3012 float
69.9759 18.75 4
67.2507 60.3285 4
69.976 18.75 2
73.0099 25.446 4
71.1327 20.9142 4
68.6801 16.6661 4
67.8242 19.9263 3.97947
67.2507 60.3286 2
71.1327 54.0858 4
68.6801 58.3339 4
65.6939 62.2254 4
65.3108 59.0005 3.97847
74.6784 42.3946 4
73.7221 47.2057 4
69.9759 18.75 0
73.0099 25.446 2
68.6801 16.6661 2
71.1327 20.9142 2
67.8248 19.9298 2
74.6792 32.6053 4
73.7222 27.7943 4
72.1454 23.1494 4
70.6131 26.2211 3.97909
68.8845 21.958 3.97991
67.2507 14.6715 4
66.6357 17.9725 3.97861
65.793 21.0276 3.96867
67.2507 60.3285 0
71.1327 54.0858 2
68.6801 58.3339 2
65.694 62.2255 2
65.3122 58.9961 2
72.1454 51.8506 4
69.9759 56.25 4
68.8351 53.113 3.9791
64.0165 64.0165 4
66.6094 57.1333 3.97905
63.8839 60.7647 3.9788
63.4964 57.7671 3.96928
60.3285 67.2507 4
74.6792 42.3947 2
73.7222 47.2057 2
74.9194 39.9526 4
74.2788 44.8158 4
72.1675 42.0856 3.97908
73.0099 49.554 4
71.2483 46.598 3.97848
73.0099 25.446 0
71.1327 20.9142 0
68.6801 16.6661 0
67.8242 19.9263 0.0205304
74.6792 32.6053 2
73.7222 27.7943 2
67.2508 14.6715 2
72.1455 23.1494 2
70.613 26.2216 2
66.6366 17.977 2
68.8847 21.9603 2
65.7923 21.0286 2
74.9197 35.0474 4
74.2794 30.1841 4
72.1841 32.9436 3.97937
71.2773 28.4316 3.97876
69.8144 24.0596 3.97968
68.3434 26.9527 3.96803
66.7587 22.9349 3.96832
65.694 12.7746 4
65.3219 16.1048 3.97786
64.7094 19.1986 3.96902
63.8645 22.045 3.96564
71.1327 54.0858 0
65.6939 62.2254 0
68.6801 58.3339 0
65.3108 59.0005 0.021528
72.1455 51.8506 2
69.9759 56.25 2
68.8353 53.1109 2
64.0165 64.0165 2
66.6103 57.1291 2
63.8858 60.7607 2
63.4956 57.7668 2
62.2254 65.694 4
58.8935 65.4136 3.98852
69.7677 50.9889 3.97883
67.7824 55.1671 3.9792
66.6455 52.2077 3.96775
62.3342 62.4263 3.98165
64.6568 56.0287 3.96906
62.1984 59.3964 3.96874
61.8143 56.6722 3.9653
58.3339 68.6801 4
60.3285 67.2508 2
73.7221 47.2057 0
74.6784 42.3946 0
74.9197 39.9526 2
74.2794 44.8159 2
72.1669 42.0855 2
73.0099 49.554 2
71.2481 46.5977 2
75 37.5 4
72.4048 39.8023 3.97979
71.7817 44.3529 3.97905
69.8013 41.7898 3.96858
70.574 48.8135 3.97848
68.9088 46.0143 3.96799
74.6792 32.6053 0
73.7222 27.7943 0
67.2507 14.6715 0
72.1454 23.1494 0
70.6131 26.2211 0.0209129
68.8845 21.958 0.0200869
66.6357 17.9725 0.0213914
65.793 21.0276 0.0313342
74.9197 35.0474 2
74.2794 30.1841 2
72.1835 32.944 2
71.277 28.4321 2
65.694 12.7745 2
65.3235 16.1097 2
69.8144 24.0608 2
68.3432 26.9534 2
64.7086 19.1995 2
66.7582 22.9358 2
63.8645 22.0455 2
72.4126 35.2244 3.97984
71.8031 30.6765 3.97933
69.8373 33.2692 3.96874
68.9629 29.0393 3.96814
67.6077 24.9134 3.96812
66.1617 27.6428 3.96699
64.0165 10.9835 4
64.7284 23.8394 3.96612
63.888 14.3293 3.97887
63.5084 17.4536 3.96957
62.8888 20.3312 3.9649
62.0218 22.9689 3.96711
60.6824 11.0997 3.98304
57.6103 11.4547 3.9746
72.1454 51.8506 0
69.9759 56.25 0
68.8351 53.113 0.020899
64.0165 64.0165 0
63.8839 60.7647 0.021201
66.6094 57.1333 0.0209492
63.4964 57.7671 0.0307174
62.2255 65.694 2
58.8951 65.4125 2
69.7676 50.9878 2
67.7829 55.1638 2
66.6449 52.2069 2
62.3364 62.4228 2
64.6558 56.0281 2
62.1975 59.3971 2
61.8137 56.672 2
60.667 63.9756 3.98443
57.0246 66.7346 3.98996
57.556 63.6868 3.97719
67.5036 50.1755 3.96752
65.6979 54.1714 3.96824
64.5045 51.3754 3.96552
60.7694 60.9285 3.97156
62.8078 55.06 3.96488
60.6485 58.1456 3.96475
60.3083 55.7684 3.96427
56.25 69.9759 4
58.3339 68.6801 2
60.3285 67.2507 0
58.9201 9.65738 3.98593
62.2254 9.30607 4
73.0099 49.554 0
74.2788 44.8158 0
71.2483 46.598 0.0215238
72.1675 42.0856 0.0209161
74.9194 39.9526 0
75 37.5 2
72.4047 39.8024 2
71.7816 44.3525 2
69.8007 41.7895 2
70.5738 48.8131 2
68.9087 46.0137 2
72.4882 37.5122 3.97943
70.0387 39.6577 3.96876
69.4273 43.9073 3.96843
67.5662 41.4945 3.96886
68.2622 48.1062 3.96763
66.6686 45.4326 3.9678
74.9197 35.0474 0
74.2794 30.1841 0
72.1841 32.9436 0.0206336
71.2773 28.4316 0.021244
65.694 12.7746 0
65.3219 16.1048 0.0221402
69.8144 24.0596 0.0203172
68.3434 26.9527 0.0319676
66.7587 22.9349 0.0316807
64.7094 19.1986 0.0309752
63.8645 22.045 0.0343584
72.4125 35.2245 2
71.8031 30.6771 2
69.8367 33.2697 2
68.9628 29.0399 2
64.0165 10.9835 2
63.8902 14.3338 2
63.5075 17.4543 2
67.6073 24.9142 2
66.1619 27.6433 2
62.8892 20.3316 2
64.7281 23.8399 2
62.0211 22.9693 2
60.6852 11.1033 2
57.6122 11.4541 2
70.0554 35.3927 3.96885
69.4642 31.1505 3.96843
67.6279 33.5949 3.96848
66.7387 29.63 3.96735
65.4915 25.7083 3.96652
64.0443 28.2774 3.97082
62.3399 12.6572 3.98107
62.7742 24.6621 3.96851
62.1942 15.7958 3.96979
61.8023 18.6975 3.96467
61.1559 21.3687 3.96526
60.2997 23.7691 3.96979
59.2432 12.793 3.97279
55.8726 10.2403 3.9773
56.4011 13.1398 3.97192
69.7677 50.9889 0.0211677
62.2254 65.694 0
58.8935 65.4136 0.0114844
67.7824 55.1671 0.0208049
66.6455 52.2077 0.0322524
62.3342 62.4263 0.0183498
62.1984 59.3964 0.0312626
64.6568 56.0287 0.0309435
61.8143 56.6722 0.0347041
60.6691 63.9737 2
57.0258 66.7339 2
57.5564 63.6877 2
67.5032 50.1747 2
65.6971 54.1706 2
64.5045 51.375 2
60.7686 60.9297 2
62.808 55.0599 2
60.6482 58.1459 2
60.3087 55.7683 2
55.0706 67.9315 3.99131
59.216 62.3564 3.97278
55.8033 64.9058 3.98114
56.3223 62.0722 3.97396
65.2908 49.3982 3.96614
63.683 53.2835 3.9651
62.3474 50.6262 3.96741
59.3251 59.541 3.96585
61.0354 54.2892 3.96583
59.2676 56.9909 3.96319
59.2038 55.1584 3.96603
48.101 68.5769 3.98673
50.9483 69.9312 3.99149
54.0858 71.1327 4
56.25 69.976 2
58.3339 68.6801 0
57.0575 8.33689 3.98707
60.3285 7.74928 4
58.9229 9.65951 2
62.2255 9.30602 2
70.574 48.8135 0.0215192
71.7817 44.3529 0.020949
68.9088 46.0143 0.0320075
69.8013 41.7898 0.0314162
72.4048 39.8023 0.0202064
75 37.5 0
72.4876 37.5123 2
70.0386 39.6576 2
69.4272 43.9069 2
67.566 41.4943 2
68.262 48.1055 2
66.6679 45.4322 2
70.1268 37.5221 3.96885
67.8076 39.5113 3.96903
67.1856 43.4647 3.96821
65.4477 41.2003 3.97407
66.0254 47.4089 3.9671
64.5314 44.8289 3.97153
72.4126 35.2244 0.0201626
71.8031 30.6765 0.0206725
69.8373 33.2692 0.0312608
68.9629 29.0393 0.0318612
64.0165 10.9835 0
63.888 14.3293 0.0211272
63.5084 17.4536 0.0304279
67.6077 24.9134 0.0318843
66.1617 27.6428 0.0330135
64.7284 23.8394 0.033875
62.8888 20.3312 0.0350958
62.0218 22.9689 0.0328942
60.6824 11.0997 0.0169594
57.6103 11.4547 0.025402
70.0554 35.3929 2
69.4641 31.1509 2
67.6279 33.5951 2
66.7386 29.6304 2
62.3423 12.6616 2
62.1933 15.7959 2
61.8017 18.6977 2
65.4915 25.7088 2
64.0428 28.2779 2
61.1549 21.3691 2
62.7734 24.6626 2
60.2994 23.77 2
59.2449 12.7914 2
56.4022 13.1374 2
55.8741 10.24 2
67.8473 35.5498 3.96895
67.2348 31.6281 3.96803
65.6 33.9367 3.97369
64.5595 30.2107 3.97176
63.4456 26.4379 3.96966
62.0879 28.8119 3.97518
60.7716 14.2358 3.97164
60.9047 25.3779 3.97207
60.601 17.1457 3.96576
60.1726 19.845 3.96293
59.5423 22.3027 3.96644
58.8082 24.3752 3.97263
54.0362 9.14148 3.97956
57.904 14.3556 3.97108
54.7831 12.0282 3.97375
55.3041 14.6817 3.96957
67.5036 50.1755 0.0324832
57.0246 66.7346 0.0100409
60.667 63.9756 0.0155668
57.556 63.6868 0.022807
65.6979 54.1714 0.0317639
64.5045 51.3754 0.034483
60.7694 60.9285 0.0284403
60.6485 58.1456 0.0352492
62.8078 55.06 0.0351165
60.3083 55.7684 0.0357274
55.0715 67.9313 2
59.2165 62.3582 2
55.8035 64.9065 2
56.3217 62.0747 2
65.2908 49.3978 2
63.6832 53.2832 2
62.347 50.6258 2
59.3242 59.5421 2
61.0362 54.2892 2
59.2693 56.9909 2
59.2057 55.1583 2
53.0426 68.9993 3.99136
53.9657 66.0108 3.98373
57.8745 60.8526 3.97177
54.6812 63.1995 3.97663
55.2032 60.5906 3.97191
63.0852 48.6357 3.96883
61.67 52.5513 3.96662
60.1143 49.9778 3.96945
58.0013 58.241 3.96602
59.2523 53.916 3.96732
58.0627 55.78 3.96121
50.1077 67.8553 3.9863
47.462 66.5765 3.98279
46.0548 69.1558 3.98702
48.1011 68.5775 2
48.8023 70.7225 3.99161
50.9489 69.9311 2
51.8506 72.1454 4
54.0858 71.1327 2
56.25 69.9759 0
55.1022 7.14132 3.98935
58.3339 6.31992 4
57.0597 8.33835 2
60.3286 7.74926 2
58.9201 9.65738 0.0140718
62.2254 9.30607 0
68.2622 48.1062 0.0323726
69.4273 43.9073 0.0315698
66.6686 45.4326 0.0322014
67.5662 41.4945 0.0311422
70.0387 39.6577 0.0312431
72.4882 37.5122 0.0205663
70.1263 37.5221 2
67.807 39.5111 2
67.1863 43.4644 2
65.4459 41.2 2
66.0256 47.4085 2
64.5296 44.8284 2
67.9075 37.5227 3.96902
65.6862 39.3656 3.97473
65.0632 43.0107 3.973
63.5749 40.9125 3.97723
63.8448 46.6934 3.97004
62.6156 44.1865 3.97567
70.0554 35.3927 0.0311515
69.4642 31.1505 0.0315661
67.6279 33.5949 0.0315228
66.7387 29.63 0.0326483
62.3399 12.6572 0.0189284
62.1942 15.7958 0.0302148
61.8023 18.6975 0.0353321
65.4915 25.7083 0.0334816
64.0443 28.2774 0.0291802
62.7742 24.6621 0.0314908
61.1559 21.3687 0.0347402
60.2997 23.7691 0.0302116
59.2432 12.793 0.027208
56.4011 13.1398 0.028084
55.8726 10.2403 0.0227014
67.8466 35.55 2
67.2354 31.6283 2
65.5978 33.937 2
64.5576 30.2111 2
60.7714 14.2369 2
60.6003 17.1458 2
60.1738 19.8448 2
63.4445 26.4384 2
62.0855 28.8128 2
59.5439 22.3033 2
60.9042 25.3787 2
58.8073 24.3765 2
57.9045 14.3536 2
55.3051 14.6809 2
54.0375 9.13993 2
54.7843 12.0252 2
65.7789 35.6719 3.97441
65.078 32.1689 3.97241
64.1305 34.2638 3.97736
62.4091 30.6659 3.97621
61.4932 27.1103 3.97324
60.6351 29.1849 3.97709
59.3019 15.6898 3.96688
59.1333 25.8516 3.97552
59.0985 18.3829 3.96265
58.644 20.8988 3.96326
58.1192 23.1511 3.96739
57.7753 24.7295 3.97416
52.1113 8.15711 3.98262
53.0554 11.0289 3.97484
56.6645 15.7742 3.96955
53.8031 13.7113 3.97269
54.3602 16.0386 3.9698
55.0706 67.9315 0.00868509
65.2908 49.3982 0.0338608
55.8033 64.9058 0.0188571
59.216 62.3564 0.0272229
56.3223 62.0722 0.0260445
63.683 53.2835 0.0349008
62.3474 50.6262 0.0325877
59.3251 59.541 0.0341507
59.2676 56.9909 0.0368061
61.0354 54.2892 0.0341743
59.2038 55.1584 0.0339689
53.0433 68.9993 2
53.9659 66.0115 2
57.8735 60.8544 2
54.6807 63.2003 2
55.2028 60.5925 2
63.0843 48.6352 2
61.6706 52.5512 2
60.1144 49.9771 2
58.0005 58.2419 2
59.2548 53.9159 2
58.0605 55.7788 2
52.069 66.9981 3.98585
52.952 64.2123 3.98026
56.6361 59.4665 3.96959
53.6752 61.6066 3.97583
54.2452 59.2925 3.97319
60.7991 47.8386 3.97064
59.5814 52.0662 3.968
57.8152 49.5626 3.97142
56.7437 56.9594 3.96604
57.0175 54.0801 3.96557
50.1077 67.8556 2
49.336 65.9173 3.98282
47.4621 66.577 2
46.8912 64.729 3.98125
45.557 67.0932 3.98278
43.9722 69.5878 3.98739
46.0548 69.1564 2
46.6088 71.3669 3.99171
48.101 68.5769 0.0132653
48.8029 70.7226 2
49.554 73.0099 4
50.9483 69.9312 0.00851153
51.8506 72.1455 2
54.0858 71.1327 0
53.0642 6.07228 3.99109
55.1041 7.14157 2
56.25 5.02411 4
58.3339 6.3199 2
57.0575 8.33689 0.0129296
60.3285 7.74928 0
66.0254 47.4089 0.0329037
67.1856 43.4647 0.031785
64.5314 44.8289 0.0284701
65.4477 41.2003 0.0259294
67.8076 39.5113 0.0309735
70.1268 37.5221 0.0311533
67.9073 37.5227 2
65.6844 39.3655 2
65.0608 43.0103 2
63.5721 40.9118 2
63.8433 46.6928 2
62.6132 44.1856 2
65.7922 37.5021 3.9746
63.7247 39.2585 3.97698
63.1393 42.5262 3.97685
62.1978 40.6763 3.97689
61.7714 45.8828 3.97308
61.2017 43.644 3.9771
67.8473 35.5498 0.0310498
67.2348 31.6281 0.0319744
65.6 33.9367 0.0263134
64.5595 30.2107 0.0282362
60.7716 14.2358 0.0283622
60.601 17.1457 0.0342446
60.1726 19.845 0.0370733
63.4456 26.4379 0.0303425
62.0879 28.8119 0.0248194
60.9047 25.3779 0.027929
59.5423 22.3027 0.0335618
58.8082 24.3752 0.0273738
57.904 14.3556 0.0289169
55.3041 14.6817 0.0304292
54.0362 9.14148 0.0204444
54.7831 12.0282 0.0262512
65.7772 35.6721 2
65.0759 32.1693 2
64.1282 34.2643 2
62.4074 30.6667 2
59.3006 15.6906 2
59.0998 18.3826 2
58.649 20.899 2
61.4917 27.1112 2
60.6339 29.1858 2
58.1166 23.1529 2
59.1326 25.8528 2
57.7754 24.7313 2
56.6648 15.7724 2
54.3613 16.04 2
53.8032 13.7042 2
52.1122 8.156 2
53.0567 11.0273 2
63.9278 35.6406 3.97688
62.7364 33.0698 3.9766
60.366 30.6577 3.9765
59.3462 27.9643 3.97632
57.9222 17.0126 3.96487
57.5178 25.7955 3.97648
57.6554 19.5175 3.96041
57.2231 21.9022 3.96337
56.9737 24.0206 3.96821
50.1119 7.28738 3.98602
51.2311 10.1332 3.97779
52.1665 12.8163 3.97605
55.5162 17.0104 3.96734
52.9668 15.3045 3.97039
53.7361 17.0262 3.97646
53.0426 68.9993 0.00863886
53.9657 66.0108 0.0162748
63.0852 48.6357 0.031166
54.6812 63.1995 0.0233662
57.8745 60.8526 0.0282339
55.2032 60.5906 0.0280906
61.67 52.5513 0.0333812
60.1143 49.9778 0.030546
58.0013 58.241 0.0339822
58.0627 55.78 0.0387919
59.2523 53.916 0.0326843
52.0692 66.9988 2
52.9518 64.2132 2
56.6357 59.4678 2
53.6743 61.6065 2
54.2448 59.2946 2
60.7981 47.8378 2
59.5818 52.0656 2
57.8128 49.5613 2
56.7421 56.9635 2
57.0153 54.0788 2
51.1672 65.1238 3.98242
52.0427 62.5296 3.97752
55.4587 58.224 3.972
52.8225 60.1067 3.97696
53.6177 58.4427 3.97734
58.0279 46.7895 3.9747
57.3993 51.7366 3.96796
55.9925 49.4896 3.97088
55.4146 55.7551 3.9632
55.2245 53.3338 3.9626
50.1077 67.8553 0.0136998
49.336 65.9174 2
48.6169 64.1166 3.98168
47.462 66.5765 0.0172111
45.5571 67.0938 2
46.8913 64.7295 2
46.3804 63.0439 3.98234
45.1315 65.1891 3.98063
43.6303 67.4639 3.98326
41.8598 69.8748 3.98701
43.9721 69.5883 2
44.376 71.8617 3.99173
46.0548 69.1558 0.0129825
46.6092 71.3671 2
47.2057 73.7222 4
48.8023 70.7225 0.00839031
49.554 73.0099 2
51.8506 72.1454 0
50.9545 5.13274 3.99182
53.0654 6.07239 2
54.0858 3.86728 4
55.1022 7.14132 0.0106493
56.25 5.02406 2
58.3339 6.31992 0
63.8448 46.6934 0.0299579
65.0632 43.0107 0.0270049
62.6156 44.1865 0.024333
63.5749 40.9125 0.0227729
65.6862 39.3656 0.025269
67.9075 37.5227 0.0309783
65.7903 37.5021 2
63.722 39.2582 2
63.137 42.5254 2
62.1959 40.6757 2
61.7694 45.8818 2
61.1998 43.6431 2
63.7866 37.4573 3.97688
61.914 39.3416 3.97699
60.9487 41.9246 3.9769
59.9893 44.7231 3.9767
65.7789 35.6719 0.0255932
65.078 32.1689 0.0275926
64.1305 34.2638 0.0226376
62.4091 30.6659 0.0237894
59.3019 15.6898 0.0331151
59.0985 18.3829 0.0373504
58.644 20.8988 0.0367384
61.4932 27.1103 0.0267587
60.6351 29.1849 0.0229065
59.1333 25.8516 0.0244762
58.1192 23.1511 0.0326091
57.7753 24.7295 0.0258402
56.6645 15.7742 0.0304505
54.3602 16.0386 0.0301952
53.8031 13.7113 0.0273148
52.1113 8.15711 0.0173846
53.0554 11.0289 0.0251575
63.9252 35.6408 2
62.7347 33.0706 2
60.3646 30.6585 2
57.9204 17.0134 2
57.6608 19.5163 2
57.2251 21.9033 2
59.3449 27.9655 2
56.9751 24.0227 2
57.5164 25.7977 2
50.1126 7.28572 2
55.5172 17.0102 2
53.7364 17.025 2
52.9673 15.3017 2
52.1679 12.8172 2
51.2323 10.1316 2
61.9518 35.3749 3.97691
59.9994 32.7855 3.9768
58.3258 30.1383 3.9769
57.0173 27.4597 3.977
56.6054 18.1932 3.96472
56.0506 25.1879 3.9742
56.264 20.5783 3.96091
55.9175 22.9473 3.96221
48.0565 6.5288 3.98847
49.3242 9.33722 3.9808
50.4296 12.0086 3.97564
51.368 14.5263 3.97073
54.3827 17.9656 3.96628
52.3413 17.0922 3.96448
52.069 66.9981 0.0141488
52.952 64.2123 0.0197386
60.7991 47.8386 0.0293586
53.6752 61.6066 0.0241737
56.6361 59.4665 0.030415
54.2452 59.2925 0.0268114
59.5814 52.0662 0.0320048
57.8152 49.5626 0.0285824
56.7437 56.9594 0.0339592
57.0175 54.0801 0.0344287
51.1671 65.1246 2
52.0421 62.5306 2
55.4583 58.2256 2
52.822 60.1101 2
53.6173 58.444 2
58.0266 46.7884 2
57.3982 51.7355 2
55.9893 49.4883 2
55.4139 55.7556 2
55.2272 53.3341 2
50.3447 63.3746 3.98146
51.2364 60.919 3.97646
54.1847 57.2398 3.9729
52.2916 58.6009 3.97501
56.3208 44.1056 3.97723
55.1831 47.822 3.97416
54.8657 51.3288 3.96552
53.9134 54.5001 3.96445
49.336 65.9173 0.0171804
48.6168 64.1166 2
47.9597 62.4665 3.9815
45.557 67.0932 0.0172193
46.8912 64.729 0.0187486
43.6304 67.4644 2
46.3804 63.0444 2
45.1316 65.1896 2
45.985 61.5751 3.98528
44.766 63.442 3.97952
43.356 65.4985 3.98054
41.6626 67.682 3.98293
39.702 70.0211 3.98701
41.8597 69.8754 2
42.1103 72.2064 3.99191
43.9722 69.5878 0.0126082
44.3764 71.8618 2
44.8159 74.2794 4
46.6088 71.3669 0.0082867
47.2057 73.7222 2
49.554 73.0099 0
48.7853 4.32329 3.99253
50.9553 5.13225 2
51.8506 2.85458 4
53.0642 6.07228 0.0089132
54.0858 3.86728 2
56.25 5.02411 0
61.7714 45.8828 0.0269183
63.1393 42.5262 0.0231493
61.2017 43.644 0.0229046
62.1978 40.6763 0.0231062
63.7247 39.2585 0.0230155
65.7922 37.5021 0.0254015
63.7837 37.4573 2
61.9126 39.3415 2
60.9476 41.9241 2
59.9889 44.7222 2
61.7481 37.4423 3.97705
59.9287 39.8229 3.97697
58.6435 42.8644 3.97668
63.9278 35.6406 0.0231239
62.7364 33.0698 0.0233965
60.366 30.6577 0.0234969
57.9222 17.0126 0.035133
57.6554 19.5175 0.0395915
57.2231 21.9022 0.0366309
59.3462 27.9643 0.0236821
57.5178 25.7955 0.023525
56.9737 24.0206 0.0317854
55.5162 17.0104 0.0326551
53.7361 17.0262 0.0235448
52.9668 15.3045 0.0296134
50.1119 7.28738 0.0139794
52.1665 12.8163 0.0239495
51.2311 10.1332 0.0222063
61.9505 35.3751 2
59.9982 32.7857 2
58.3252 30.1385 2
56.6043 18.1944 2
56.2677 20.576 2
55.9207 22.9497 2
57.0168 27.4616 2
56.0494 25.1904 2
48.0568 6.52707 2
49.3251 9.33501 2
54.3839 17.9656 2
52.3409 17.0903 2
51.3678 14.5213 2
50.4313 12.006 2
59.5707 35.139 3.97687
57.6237 32.3247 3.97618
56.2177 29.4239 3.97735
55.1302 26.7056 3.97701
55.2905 19.2368 3.96028
54.7004 24.1561 3.96417
54.8696 21.6355 3.95975
45.9628 5.88312 3.989
43.3743 7.47497 3.98561
47.3555 8.62715 3.98399
48.5983 11.3038 3.97731
49.7054 13.7615 3.9752
50.6162 16.1704 3.97455
53.0843 18.7187 3.9633
51.2733 18.1231 3.97693
51.1672 65.1238 0.017581
52.0427 62.5296 0.0224771
58.0279 46.7895 0.0253042
52.8225 60.1067 0.0230382
55.4587 58.224 0.0280021
53.6177 58.4427 0.0226585
57.3993 51.7366 0.0320355
55.9925 49.4896 0.0291207
55.4146 55.7551 0.0368037
55.2245 53.3338 0.0374046
50.3444 63.3748 2
51.2355 60.9191 2
54.1849 57.2415 2
52.2909 58.6018 2
56.3207 44.1046 2
55.1822 47.8209 2
54.8679 51.3287 2
53.9141 54.5018 2
49.5882 61.7371 3.9796
55.1313 41.6617 3.97527
50.5505 59.3059 3.97245
52.14 56.4592 3.96973
53.7632 45.4721 3.97457
53.0474 49.2522 3.96934
52.5167 52.7989 3.96128
48.6169 64.1166 0.0183203
47.9594 62.466 2
47.3241 60.9993 3.98601
43.6303 67.4639 0.0167401
45.1315 65.1891 0.0193728
46.3804 63.0439 0.017662
41.6629 67.6821 2
43.356 65.4994 2
45.9849 61.5757 2
44.7661 63.4426 2
45.7601 60.6198 3.9844
44.4816 61.8202 3.98056
43.1458 63.7139 3.97846
41.5457 65.6355 3.97945
39.6322 67.7606 3.98268
37.526 70.0457 3.98603
39.7018 70.0216 2
39.8173 72.403 3.9917
41.8598 69.8748 0.0129893
42.1107 72.2067 2
42.3947 74.6792 4
44.376 71.8617 0.00826519
44.8159 74.2794 2
47.2057 73.7222 0
43.8519 5.36029 3.98875
46.5713 3.64757 3.99269
48.7857 4.32261 2
49.554 1.99015 4
50.9545 5.13274 0.00818262
51.8506 2.85453 2
54.0858 3.86728 0
59.9893 44.7231 0.0232984
60.9487 41.9246 0.0231032
61.914 39.3416 0.0230101
63.7866 37.4573 0.0231236
61.7469 37.4422 2
59.9287 39.8228 2
58.6434 42.8635 2
59.4284 37.5658 3.97736
57.5917 40.62 3.97713
54.5443 39.6771 3.97529
61.9518 35.3749 0.0230935
59.9994 32.7855 0.023202
58.3258 30.1383 0.0230962
56.6054 18.1932 0.0352804
56.264 20.5783 0.0390885
55.9175 22.9473 0.0377857
57.0173 27.4597 0.0229977
56.0506 25.1879 0.0257969
54.3827 17.9656 0.0337218
52.3413 17.0922 0.0355242
51.368 14.5263 0.0292702
48.0565 6.5288 0.011533
49.3242 9.33722 0.0191979
50.4296 12.0086 0.0243577
59.5708 35.1388 2
45.9627 5.88263 2
43.3742 7.47419 2
57.624 32.3256 2
56.2168 29.4246 2
55.2891 19.2377 2
54.878 21.6369 2
54.6991 24.1581 2
55.1275 26.7077 2
47.356 8.62381 2
48.5996 11.301 2
53.0852 18.7152 2
51.2746 18.1244 2
50.6172 16.1709 2
49.7059 13.7602 2
56.9776 34.7867 3.97726
55.3247 31.5864 3.97651
54.1372 28.517 3.97739
53.4998 25.6207 3.97627
53.8932 20.2004 3.95791
53.4142 22.811 3.95444
41.3995 7.0809 3.98568
45.3607 7.99559 3.9867
42.8664 9.41847 3.98191
46.6666 10.6593 3.9813
47.739 13.1153 3.97702
48.9175 15.4257 3.9722
49.978 17.735 3.9718
51.6001 19.4013 3.9718
50.3447 63.3746 0.0185362
51.2364 60.919 0.0235417
56.3208 44.1056 0.0227678
55.1831 47.822 0.0258364
52.2916 58.6009 0.0249896
54.1847 57.2398 0.0270956
54.8657 51.3288 0.034481
53.9134 54.5001 0.0355474
49.5874 61.737 2
55.1267 41.6591 2
50.5499 59.3066 2
52.1401 56.461 2
53.7641 45.4713 2
53.055 49.2522 2
52.5176 52.7987 2
48.8382 60.1922 3.9771
51.9529 42.5399 3.98237
49.7566 57.6006 3.96763
50.4961 54.3933 3.96323
51.4299 47.1794 3.97551
50.9956 50.8826 3.95516
47.6224 43.6723 3.98399
47.9597 62.4665 0.0184993
47.3238 60.9988 2
46.6085 59.787 3.98782
41.6626 67.682 0.0170666
43.356 65.4985 0.019456
44.766 63.442 0.0204773
45.985 61.5751 0.0147249
39.6326 67.7613 2
41.5455 65.635 2
45.7599 60.6203 2
43.1458 63.7147 2
44.4815 61.8208 2
44.6167 60.2782 3.98723
42.9486 62.0662 3.97485
41.5997 63.8066 3.97874
39.6472 65.6016 3.97818
37.5632 67.7414 3.98119
31.6978 65.1192 3.97886
33.3926 67.4796 3.98108
35.3339 69.9558 3.98625
37.5258 70.0468 2
37.5094 72.4576 3.992
39.702 70.0211 0.0129937
39.8175 72.4033 2
39.9526 74.9197 4
42.1103 72.2064 0.00809297
42.3947 74.6792 2
44.8159 74.2794 0
41.7364 4.9694 3.98899
43.8521 5.35941 2
44.3265 3.11082 3.99299
46.5715 3.6473 2
47.2057 1.27793 4
48.7853 4.32329 0.00747438
49.554 1.99013 2
51.8506 2.85458 0
58.6435 42.8644 0.0233218
59.9287 39.8229 0.0230265
61.7481 37.4423 0.0229478
59.4288 37.5664 2
57.5912 40.6204 2
54.5406 39.6806 2
56.3574 37.8833 3.97712
48.982 41.249 3.9826
52.5455 39.3068 3.984
39.4431 6.80482 3.98576
59.5707 35.139 0.0231279
57.6237 32.3247 0.023821
56.2177 29.4239 0.022647
55.2905 19.2368 0.0397242
54.8696 21.6355 0.0402471
54.7004 24.1561 0.035834
55.1302 26.7056 0.0229944
53.0843 18.7187 0.0366963
51.2733 18.1231 0.0230745
50.6162 16.1704 0.025455
45.9628 5.88312 0.0110045
49.7054 13.7615 0.024796
47.3555 8.62715 0.0160052
48.5983 11.3038 0.0226925
43.3743 7.47497 0.0143915
56.9769 34.7862 2
41.3995 7.07962 2
45.3602 7.99537 2
42.8661 9.41813 2
55.3276 31.5846 2
54.1375 28.5176 2
53.896 20.2033 2
53.4126 22.8093 2
53.4978 25.622 2
46.6673 10.6535 2
47.7403 13.1106 2
51.6029 19.403 2
49.9779 17.7328 2
48.9171 15.4271 2
54.3574 33.9835 3.97565
53.0614 30.6066 3.97718
52.2299 27.3414 3.9754
51.9376 24.2301 3.97772
52.2908 21.1428 3.97132
41.0136 9.05295 3.98147
44.7262 9.99545 3.98482
42.4676 10.9045 3.98935
46.0006 12.7379 3.9766
47.6688 14.6013 3.97179
48.085 17.008 3.97075
49.7856 19.7592 3.9708
49.5882 61.7371 0.0203974
50.5505 59.3059 0.0275523
55.1313 41.6617 0.02473
53.7632 45.4721 0.0254311
53.0474 49.2522 0.0306578
52.14 56.4592 0.0302731
52.5167 52.7989 0.0387185
48.8375 60.1907 2
51.9694 42.5462 2
49.7551 57.6015 2
50.4962 54.3954 2
51.4343 47.1792 2
50.9975 50.8815 2
47.6338 43.6973 2
47.9654 58.7244 3.97849
49.5842 45.1863 3.97795
48.5371 55.8932 3.97076
48.9866 52.5536 3.97658
49.3897 48.9713 3.97336
45.3803 39.8256 3.87513
45.8548 42.5419 3.90498
46.0488 45.6965 3.98179
43.1914 41.0672 3.74301
41.7513 41.9384 3.56845
47.3241 60.9993 0.0139927
46.6077 59.7865 2
45.4526 58.7842 3.98691
39.6322 67.7606 0.0173212
41.5457 65.6355 0.0205503
43.1458 63.7139 0.021543
44.4816 61.8202 0.019443
45.7601 60.6198 0.015601
41.5996 63.8064 2
37.5635 67.7424 2
39.6471 65.6024 2
44.6168 60.2788 2
42.9486 62.0669 2
41.7518 62.478 3.97756
42.4761 59.9585 3.97895
39.8939 63.538 3.97613
37.6421 65.4984 3.97836
35.4636 67.651 3.98128
33.5757 65.332 3.97804
31.9601 63.2859 3.97821
29.8844 64.7107 3.98048
31.6976 65.12 2
31.3775 67.1895 3.98153
33.3927 67.4805 2
33.1572 69.7498 3.98629
35.3337 69.9567 2
35.1954 72.3719 3.99182
37.526 70.0457 0.013972
37.5094 72.4582 2
37.5 75 4
39.8173 72.403 0.00830232
39.9526 74.9197 2
42.3947 74.6792 0
39.6242 4.71713 3.98941
41.7367 4.96849 2
42.0629 2.71823 3.99326
43.8519 5.36029 0.011246
44.3267 3.11021 2
44.8158 0.721173 4
46.5713 3.64757 0.00731019
47.2057 1.27779 2
49.554 1.99015 0
57.5917 40.62 0.0228677
59.4284 37.5658 0.0226394
54.5443 39.6771 0.0247108
49.0074 41.2655 2
56.3579 37.8821 2
52.5448 39.2833 2
53.3945 36.6286 3.97759
46.9063 40.3498 3.90979
49.9242 38.5182 3.98867
37.5171 6.67593 3.98572
39.4431 6.80318 2
39.2112 8.69572 3.98329
35.943 8.49539 3.98415
56.9776 34.7867 0.0227357
55.3247 31.5864 0.0234949
54.1372 28.517 0.0226063
53.8932 20.2004 0.0420889
53.4142 22.811 0.0455551
53.4998 25.6207 0.0237309
51.6001 19.4013 0.0282012
49.978 17.735 0.0282026
48.9175 15.4257 0.0278025
45.3607 7.99559 0.0133021
47.739 13.1153 0.0229835
46.6666 10.6593 0.018698
41.3995 7.0809 0.0143248
42.8664 9.41847 0.0180906
54.3534 33.9843 2
41.0138 9.05174 2
44.7247 9.99577 2
42.4672 10.9053 2
53.0577 30.6064 2
52.2386 27.3415 2
52.2963 21.1442 2
51.9379 24.2354 2
46.0013 12.7286 2
47.6687 14.5958 2
49.789 19.7619 2
48.0835 17.0053 2
51.8861 32.8908 3.98151
50.8607 29.3006 3.97658
50.5005 25.8567 3.9726
49.8452 22.3535 3.9844
40.5687 11.6137 3.98086
43.8559 11.914 3.97976
45.7876 15.4382 3.98416
47.4795 19.3683 3.97812
45.799 37.4822 3.86936
48.8382 60.1922 0.0228972
49.7566 57.6006 0.032366
51.9529 42.5399 0.0176307
51.4299 47.1794 0.024488
50.9956 50.8826 0.0448388
50.4961 54.3933 0.0367692
47.6224 43.6723 0.0160082
47.9641 58.7267 2
49.5975 45.1973 2
48.5344 55.8955 2
48.9863 52.5587 2
49.3944 48.9687 2
45.4378 39.8429 2
45.8815 42.5792 2
46.0563 45.7054 2
43.2201 41.0986 2
41.7763 41.9588 2
46.8041 57.3272 3.9779
43.9387 39.3631 3.7442
42.1026 40.8209 3.61058
47.6931 47.202 3.98004
47.0781 54.2075 3.96837
47.3966 50.7041 3.97379
44.4829 47.3074 3.9772
44.5028 41.8868 3.85439
44.5313 44.4335 3.91919
42.1303 42.5431 3.76447
40.7032 42.2473 3.59448
46.6085 59.787 0.0121781
45.4525 58.7839 2
43.8581 57.6907 3.97997
37.5632 67.7414 0.018812
39.6472 65.6016 0.0218223
41.5997 63.8066 0.0212605
42.9486 62.0662 0.0251497
44.6167 60.2782 0.0127734
35.4639 67.6519 2
41.7517 62.4781 2
39.8936 63.5385 2
37.6421 65.4993 2
42.4764 59.9589 2
40.6224 61.6271 3.97853
40.4378 58.1674 3.97983
37.8374 63.197 3.97639
35.573 65.4211 3.97866
33.5757 65.3328 2
31.9598 63.2869 2
33.6293 63.3247 3.97659
30.3797 62.8455 3.97989
32.1249 61.9888 3.98305
26.8732 61.4853 3.97716
28.0637 64.1391 3.97942
29.884 64.7115 2
29.4072 66.7534 3.98226
31.6978 65.1192 0.021139
31.3776 67.1903 2
31.015 69.4147 3.98607
33.3926 67.4796 0.0189155
33.1571 69.7505 2
32.8928 72.1465 3.9918
35.3339 69.9558 0.0137506
35.195 72.3724 2
35.0474 74.9194 4
37.5094 72.4576 0.00800164
37.5 75 2
39.9526 74.9197 0
35.6217 6.72685 3.98543
37.5238 4.61654 3.98955
39.6243 4.71575 2
39.7894 2.47485 3.99321
41.7364 4.9694 0.0110078
42.0629 2.71769 2
42.3946 0.32156 4
44.3265 3.11082 0.00700698
44.8159 0.72056 2
47.2057 1.27793 0
48.982 41.249 0.0174044
56.3574 37.8833 0.022875
52.5455 39.3068 0.0159994
46.9306 40.3454 2
49.9293 38.5093 2
53.3991 36.6409 2
50.7166 35.5744 3.97548
47.5769 37.7614 3.92649
45.3888 35.1557 3.87267
43.2013 33.9126 3.74013
41.7593 33.0473 3.56627
37.4586 8.53727 3.98439
37.517 6.67459 2
39.4431 6.80482 0.0142375
39.2116 8.69383 2
38.9766 10.1308 3.98322
35.8993 9.77743 3.98076
34.1524 8.8266 3.98256
35.9428 8.49367 2
54.3574 33.9835 0.0243495
53.0614 30.6066 0.0228223
52.2299 27.3414 0.0246005
52.2908 21.1428 0.0286796
51.9376 24.2301 0.0222813
49.7856 19.7592 0.0292013
48.085 17.008 0.0292491
47.6688 14.6013 0.0282119
44.7262 9.99545 0.015181
46.0006 12.7379 0.0234014
41.0136 9.05295 0.0185323
42.4676 10.9045 0.010651
51.8921 32.8893 2
40.5698 11.6138 2
43.8541 11.9165 2
50.8809 29.2996 2
50.5036 25.8581 2
49.8478 22.352 2
45.7851 15.4186 2
47.482 19.3795 2
49.442 31.5054 3.98735
48.9111 27.6251 3.97615
49.1963 24.5258 3.97651
47.1324 22.1179 3.985
38.3022 12.7428 3.97744
42.0975 14.3081 3.97978
44.7843 18.5387 3.97653
44.3165 37.489 3.75154
45.8772 37.4865 2
47.9654 58.7244 0.0215147
48.5371 55.8932 0.0292374
49.5842 45.1863 0.0220482
49.3897 48.9713 0.0266432
48.9866 52.5536 0.0234186
45.3803 39.8256 0.124865
45.8548 42.5419 0.0950228
46.0488 45.6965 0.0182111
43.1914 41.0672 0.256987
41.7513 41.9384 0.431547
46.802 57.329 2
43.9798 39.3836 2
42.1 40.8337 2
47.6987 47.2057 2
47.0753 54.2116 2
47.4004 50.7093 2
44.4994 47.2866 2
44.5318 41.9123 2
44.5632 44.4538 2
42.1791 42.5802 2
40.7234 42.2513 2
45.3482 55.9115 3.99025
42.4355 39.2535 3.62147
40.5852 40.7032 3.72254
45.8342 48.8553 3.99406
45.4036 52.4882 3.98273
43.2037 48.3048 3.99675
43.1229 45.9571 3.9032
43.2723 43.6607 3.84825
40.8262 43.6303 3.74182
39.2272 42.5212 3.60962
45.4526 58.7842 0.0130942
43.857 57.6925 2
42.0855 56.2872 3.98323
35.4636 67.651 0.0187191
37.6421 65.4984 0.0216402
39.8939 63.538 0.0238679
41.7518 62.478 0.0224446
42.4761 59.9585 0.0210528
35.5731 65.422 2
40.6223 61.6276 2
37.837 63.1977 2
40.4379 58.1688 2
38.9139 56.4652 3.99115
38.2505 60.31 3.9794
35.6072 63.1913 3.97605
33.5757 65.332 0.0219558
31.9601 63.2859 0.0217934
33.6291 63.3256 2
30.3794 62.8463 2
32.1254 61.9899 2
28.6838 62.1901 3.9787
33.3464 61.4982 3.97758
31.0708 61.2062 3.97896
27.5785 59.5774 3.98098
23.806 59.0664 3.98042
25.0398 60.8598 3.97767
26.8735 61.4857 2
26.2314 63.4691 3.97844
28.0635 64.1389 2
27.4642 66.1778 3.98217
29.8844 64.7107 0.0195196
29.4072 66.7538 2
28.9075 68.9405 3.98569
31.3775 67.1895 0.0184718
31.0147 69.4154 2
30.6154 71.7775 3.99133
33.1572 69.7498 0.0137108
32.8922 72.1468 2
32.6054 74.6784 4
35.1954 72.3719 0.00818077
35.0474 74.9197 2
37.5 75 0
33.7246 6.9825 3.98452
35.4358 4.6867 3.98945
35.6216 6.72578 2
37.5151 2.38731 3.99326
37.5239 4.61557 2
39.6242 4.71713 0.0105881
39.7893 2.47411 2
39.9526 0.0806499 4
42.0629 2.71823 0.00674081
42.3947 0.320817 2
44.8158 0.721173 0
43.9484 35.6138 3.74354
42.1096 34.1593 3.60467
46.9063 40.3498 0.0902124
49.9242 38.5182 0.0113294
53.3945 36.6286 0.0224057
47.5745 37.7483 2
50.728 35.5696 2
45.4389 35.131 2
43.2373 33.8791 2
41.7839 33.0268 2
47.752 34.3073 3.95479
44.5141 33.076 3.84684
42.1434 32.4432 3.75653
40.7113 32.7454 3.59184
37.3111 10.6348 3.98097
37.4587 8.53543 2
37.5171 6.67593 0.0142837
39.2112 8.69572 0.0167075
38.978 10.1293 2
34.7554 10.3859 3.98138
35.9 9.77415 2
32.3794 9.37415 3.97973
34.1512 8.82389 2
35.943 8.49539 0.0158496
51.8861 32.8908 0.0184903
50.8607 29.3006 0.023423
50.5005 25.8567 0.027403
49.8452 22.3535 0.0156015
47.4795 19.3683 0.0218765
45.7876 15.4382 0.0158374
43.8559 11.914 0.0202432
40.5687 11.6137 0.0191388
49.4572 31.4986 2
38.3022 12.7411 2
42.0985 14.3135 2
48.9201 27.6268 2
49.1992 24.5236 2
47.1273 22.1125 2
44.7858 18.568 2
47.2953 29.6176 3.98439
46.8839 25.2665 3.97713
44.2541 21.4841 3.97884
36.584 12.9442 3.97541
38.683 14.8289 3.97562
41.7438 17.8923 3.97782
42.5657 37.4794 3.64737
44.3576 37.4876 2
45.799 37.4822 0.130636
46.8041 57.3272 0.0221038
47.0781 54.2075 0.0316262
47.6931 47.202 0.0199633
47.3966 50.7041 0.0262119
43.9387 39.3631 0.255804
44.5028 41.8868 0.145612
44.5313 44.4335 0.0808104
44.4829 47.3074 0.022802
42.1303 42.5431 0.235528
42.1026 40.8209 0.389423
40.7032 42.2473 0.405519
45.3459 55.9119 2
42.4281 39.2555 2
40.5925 40.6857 2
45.8377 48.8643 2
45.4021 52.4944 2
43.2108 48.3208 2
43.174 45.9928 2
43.3132 43.6888 2
40.8605 43.6786 2
39.2247 42.5256 2
43.677 54.3965 3.99956
40.6889 39.118 3.73554
39.1023 40.7716 3.70533
43.517 50.3735 4.00488
41.8203 47.4944 3.93941
41.7226 45.0584 3.86365
39.3356 44.2944 3.73415
37.5057 42.6183 3.63894
43.8581 57.6907 0.020032
42.0849 56.2879 2
40.3967 54.8628 3.98219
35.573 65.4211 0.0213378
37.8374 63.197 0.0236083
40.6224 61.6271 0.0214719
40.4378 58.1674 0.0201699
35.6069 63.1916 2
38.2505 60.3107 2
38.9141 56.4624 2
37.9897 55.1734 3.99249
36.9327 57.6077 3.98705
35.3645 60.8965 3.97719
33.6293 63.3247 0.0234097
30.3797 62.8455 0.020109
32.1249 61.9888 0.0169529
33.3471 61.4992 2
28.684 62.1897 2
31.0716 61.2075 2
29.4102 60.2735 3.97669
32.3621 59.7238 3.98725
28.042 58.3595 3.9953
27.5802 59.5782 2
25.3949 58.5811 3.97734
22.7782 58.2196 3.96802
23.408 60.3346 3.97934
23.8073 59.0673 2
25.0404 60.8602 2
24.435 62.7616 3.97899
26.8732 61.4853 0.0228366
26.2313 63.4699 2
25.5487 65.4867 3.98068
28.0637 64.1391 0.0205813
27.4641 66.178 2
26.8371 68.329 3.9857
29.4072 66.7534 0.0177375
28.9073 68.9406 2
28.3705 71.2628 3.99104
31.015 69.4147 0.0139294
30.6146 71.7777 2
30.1842 74.2788 4
32.8928 72.1465 0.00820428
32.6053 74.6792 2
35.0474 74.9194 0
31.7892 7.42256 3.98313
33.3484 4.92634 3.98876
33.7242 6.98062 2
35.2454 2.4633 3.99318
35.4357 4.68608 2
35.6217 6.72685 0.0145692
37.5 0 4
37.5147 2.38682 2
37.5238 4.61654 0.0104524
39.7894 2.47485 0.00678566
39.9526 0.0802889 2
42.3946 0.32156 0
42.4225 35.7092 3.61776
43.9958 35.5885 2
40.5957 34.2849 3.72183
42.1032 34.1462 2
47.5769 37.7614 0.0735123
50.7166 35.5744 0.0245206
45.3888 35.1557 0.127329
43.2013 33.9126 0.259866
41.7593 33.0473 0.433726
47.7676 34.3155 2
44.544 33.0564 2
42.1968 32.4038 2
40.7318 32.7408 2
45.7991 31.6753 3.92379
43.2831 31.329 3.8475
40.8357 31.3628 3.74287
39.2329 32.4835 3.60746
35.6944 11.7829 3.97939
37.3132 10.632 2
37.4586 8.53727 0.0156071
38.9766 10.1308 0.0167823
33.1005 11.225 3.97606
34.7545 10.3811 2
35.8993 9.77743 0.0192413
30.4845 10.024 3.97952
32.3782 9.37296 2
34.1524 8.8266 0.0174397
49.442 31.5054 0.0126527
48.9111 27.6251 0.0238537
49.1963 24.5258 0.0234875
47.1324 22.1179 0.0149988
44.7843 18.5387 0.0234651
42.0975 14.3081 0.0202239
38.3022 12.7428 0.0225631
36.5818 12.9343 2
47.3123 29.5887 2
38.6807 14.8154 2
41.7397 17.8822 2
46.8896 25.264 2
44.2494 21.4709 2
45.2032 27.7509 4.00566
43.6707 24.1912 4.01355
41.3167 20.8692 3.9812
35.774 14.7799 3.97756
38.6811 17.631 3.97862
40.7394 37.4719 3.74842
42.5666 37.4823 2
44.3165 37.489 0.248459
45.3482 55.9115 0.00975045
45.4036 52.4882 0.0172695
45.8342 48.8553 0.00594258
42.4355 39.2535 0.378531
43.2723 43.6607 0.151746
43.1229 45.9571 0.096801
43.2037 48.3048 0.00324506
40.8262 43.6303 0.258184
40.5852 40.7032 0.277459
39.2272 42.5212 0.390376
43.6735 54.3959 2
40.6799 39.114 2
39.103 40.7565 2
43.5165 50.391 2
41.8103 47.5203 2
41.7479 45.0951 2
37.5024 42.6267 2
39.3494 44.3427 2
41.8313 52.9147 3.99512
39.116 39.1337 3.72526
37.5072 40.8224 3.72432
35.7857 42.5294 3.61046
40.8477 49.5527 3.99577
39.7781 45.8665 3.84033
37.5039 44.531 3.7439
42.0855 56.2872 0.0167726
40.3916 54.876 2
38.7194 53.7299 3.9962
35.6072 63.1913 0.0239528
38.2505 60.31 0.0205997
38.9139 56.4652 0.00885313
35.3648 60.8958 2
36.9336 57.6077 2
37.9882 55.1668 2
36.3215 55.2462 3.99697
34.4907 58.5022 3.98783
33.3464 61.4982 0.0224177
28.6838 62.1901 0.0212974
31.0708 61.2062 0.0210411
32.363 59.726 2
29.4115 60.2732 2
30.318 57.7997 3.98545
28.0437 58.3598 2
26.983 56.8145 3.97457
27.5785 59.5774 0.0190188
25.3968 58.582 2
23.8793 56.7808 3.96138
21.3645 57.3698 3.96483
22.0051 59.6033 3.97607
22.7792 58.2216 2
22.74 62.0124 3.97702
23.4086 60.3352 2
23.806 59.0664 0.0195774
25.0398 60.8598 0.0223312
24.4352 62.7622 2
23.683 64.7043 3.98017
26.2314 63.4691 0.0215559
25.5486 65.4878 2
24.8095 67.5902 3.98514
27.4642 66.1778 0.0178255
26.837 68.3297 2
26.1656 70.6036 3.99109
28.9075 68.9405 0.0143076
28.3697 71.2627 2
27.7943 73.7221 4
30.6154 71.7775 0.00867333
30.1841 74.2794 2
32.6054 74.6784 0
29.8119 7.99729 3.98198
31.2538 5.3333 3.98779
31.7886 7.42118 2
32.9812 2.70159 3.99286
33.3479 4.92508 2
33.7246 6.9825 0.0154806
35.0474 0.080333 4
35.2449 2.46304 2
35.4358 4.6867 0.0105538
37.5 0 2
37.5151 2.38731 0.00674287
39.9526 0.0806499 0
40.7 35.8421 3.73327
42.4175 35.7122 2
43.9484 35.6138 0.25646
28.5448 10.699 3.97851
39.0998 34.232 3.7047
40.594 34.3012 2
42.1096 34.1593 0.395329
47.752 34.3073 0.0452084
44.5141 33.076 0.153164
42.1434 32.4432 0.243468
40.7113 32.7454 0.408162
45.8295 31.6525 2
43.3219 31.2965 2
40.8734 31.311 2
39.2354 32.4801 2
44.097 29.8709 3.91902
41.722 29.9288 3.86477
39.3443 30.704 3.7335
37.5149 32.3962 3.63893
34.0958 12.9469 3.9751
35.693 11.7747 2
37.3111 10.6348 0.0190278
31.1888 11.9946 3.97778
33.1 11.2236 2
34.7554 10.3859 0.0186236
30.4827 10.0211 2
32.3794 9.37415 0.020274
47.2953 29.6176 0.0156064
46.8839 25.2665 0.0228673
36.584 12.9442 0.024586
44.2541 21.4841 0.0211599
41.7438 17.8923 0.0221824
38.683 14.8289 0.0243776
35.775 14.7868 2
45.2085 27.7465 2
38.6775 17.6335 2
41.312 20.8657 2
43.6711 24.182 2
33.6117 15.8961 3.97742
42.8426 26.6031 3.99104
40.8413 23.4466 4.00101
38.4094 20.4065 3.98848
35.8514 17.533 3.97986
39.1234 37.4881 3.74684
40.7293 37.4735 2
42.5657 37.4794 0.352627
43.677 54.3965 0.000440316
43.517 50.3735 -0.00488322
40.6889 39.118 0.264462
41.7226 45.0584 0.136348
41.8203 47.4944 0.0605872
39.3356 44.2944 0.265848
39.1023 40.7716 0.294669
37.5057 42.6183 0.361059
41.826 52.9139 2
39.1087 39.1197 2
37.5063 40.8035 2
40.8452 49.5705 2
35.7828 42.5333 2
39.7986 45.9133 2
37.495 44.5717 2
39.7698 51.7602 4.00157
37.5055 39.1421 3.75482
35.9159 40.7847 3.70584
34.3076 42.2629 3.59389
35.6752 44.3066 3.72972
38.6658 48.511 3.95345
37.5162 46.1541 3.86117
40.3967 54.8628 0.0178121
38.7176 53.7191 2
36.7476 53.0546 3.99771
35.3645 60.8965 0.0228146
36.9327 57.6077 0.0129522
37.9897 55.1734 0.00750878
34.4913 58.5013 2
36.321 55.2483 2
33.248 55.4364 3.99246
32.3621 59.7238 0.0127482
29.4102 60.2735 0.0233054
30.3199 57.7989 2
28.7497 55.2992 3.98137
28.042 58.3595 0.0046979
26.9844 56.815 2
25.379 55.1178 3.96452
21.8678 55.3178 3.96332
25.3949 58.5811 0.022663
23.8798 56.7837 2
20.2493 57.0009 3.96577
20.6612 58.7522 3.96846
21.3648 57.3717 2
21.1727 61.1561 3.9756
22.0058 59.6042 2
22.7782 58.2196 0.0319799
21.8969 63.8313 3.97886
22.7404 62.0129 2
23.408 60.3346 0.0206568
24.435 62.7616 0.021005
23.683 64.7049 2
22.838 66.7333 3.984
25.5487 65.4867 0.0193227
24.8093 67.5911 2
24.0098 69.8049 3.99112
26.8371 68.329 0.0142965
26.1647 70.6037 2
25.446 73.0099 4
28.3705 71.2628 0.00895787
27.7943 73.7222 2
30.1842 74.2788 0
27.8217 8.65672 3.98183
29.156 5.87961 3.98648
29.8109 7.99497 2
30.7266 3.09856 3.99258
31.2533 5.33211 2
31.7892 7.42256 0.0168669
32.6053 0.320823 4
32.9807 2.70102 2
33.3484 4.92634 0.0112405
35.0474 0.0802903 2
35.2454 2.4633 0.00682165
37.5 0 0
39.1127 35.8549 3.72768
40.6851 35.8463 2
42.4225 35.7092 0.382242
28.5434 10.6977 2
26.6231 11.3951 3.97853
29.2279 12.6497 3.9793
37.5067 34.194 3.72277
39.1036 34.2493 2
40.5957 34.2849 0.278168
45.7991 31.6753 0.0762105
43.2831 31.329 0.152499
40.8357 31.3628 0.257131
39.2329 32.4835 0.392538
44.1114 29.8557 2
41.7449 29.8962 2
39.3537 30.6556 2
37.5164 32.3871 2
42.1648 28.5489 3.88819
39.7755 29.1232 3.86087
37.5148 30.479 3.74208
35.795 32.4862 3.60967
31.9195 14.4941 3.97809
34.0958 12.9482 2
35.6944 11.7829 0.0206072
31.1877 11.9906 2
33.1005 11.225 0.0239388
30.4845 10.024 0.0204831
45.2032 27.7509 -0.00566427
43.6707 24.1912 -0.0135478
35.774 14.7799 0.0224363
41.3167 20.8692 0.0187987
38.6811 17.631 0.0213819
33.6097 15.8909 2
35.8477 17.5374 2
42.8485 26.6007 2
38.4041 20.4103 2
40.832 23.4315 2
33.5547 17.4089 3.97879
40.2813 25.8247 3.96806
38.0635 23.1377 4.00092
35.5835 20.1193 3.98715
37.5048 37.4971 3.77271
39.1162 37.4853 2
40.7394 37.4719 0.251584
41.8313 52.9147 0.00487802
40.8477 49.5527 0.00422665
39.116 39.1337 0.274736
39.7781 45.8665 0.159666
37.5039 44.531 0.256103
37.5072 40.8224 0.275676
35.7857 42.5294 0.389545
39.7678 51.7658 2
37.5064 39.1319 2
35.915 40.7706 2
38.677 48.5578 2
34.2877 42.2676 2
35.6551 44.3558 2
37.5146 46.2003 2
37.665 50.8074 3.99954
35.9016 39.1507 3.72717
34.4325 40.7265 3.7239
33.2556 41.9565 3.56971
34.1742 43.6353 3.74114
35.2023 45.8701 3.85462
36.9239 48.126 3.9211
38.7194 53.7299 0.00379832
36.7503 53.0575 2
34.4139 52.3745 3.9989
34.4907 58.5022 0.0121723
36.3215 55.2462 0.00302859
33.2493 55.44 2
30.5839 53.3172 3.99353
30.318 57.7997 0.0145495
28.7506 55.2999 2
26.9837 53.4104 3.9698
26.983 56.8145 0.0254318
25.3795 55.1219 2
23.6877 53.4438 3.95891
20.6073 53.1755 3.96069
19.9798 55.8005 3.96353
21.8655 55.3198 2
23.8793 56.7808 0.0386222
19.4583 57.8621 3.97076
20.2487 57.0023 2
19.7147 60.1791 3.97343
20.6614 58.7529 2
21.3645 57.3698 0.0351703
20.2102 62.8514 3.97638
21.1734 61.1583 2
22.0051 59.6033 0.0239292
20.9392 65.762 3.98258
21.8969 63.8321 2
22.74 62.0124 0.0229838
23.683 64.7043 0.019835
22.8377 66.7337 2
21.9123 68.872 3.99067
24.8095 67.5902 0.0148617
24.0087 69.8048 2
23.1494 72.1454 4
26.1656 70.6036 0.00891417
25.446 73.0099 2
27.7943 73.7221 0
25.8607 9.38563 3.9808
27.0707 6.5436 3.98541
27.8205 8.65562 2
28.489 3.64452 3.99195
29.1553 5.87811 2
29.8119 7.99729 0.0180182
30.1841 0.720592 4
30.7258 3.09812 2
31.2538 5.3333 0.0122134
32.6053 0.320817 2
32.9812 2.70159 0.00713713
35.0474 0.080333 0
37.5053 35.8584 3.75347
39.1003 35.8624 2
40.7 35.8421 0.266728
24.7784 12.0819 3.97786
23.7554 14.373 3.97524
28.5448 10.699 0.021494
26.6219 11.3947 2
29.2269 12.6485 2
27.2943 13.3829 3.97837
29.7856 14.2111 3.97937
35.9128 34.2334 3.70427
37.5105 34.2126 2
39.0998 34.232 0.295305
37.5149 32.3962 0.361075
44.097 29.8709 0.0809829
41.722 29.9288 0.135232
39.3443 30.704 0.266497
42.1909 28.5099 2
39.79 29.078 2
37.5179 30.4351 2
35.7947 32.4814 2
39.9465 27.7629 3.8971
37.494 28.8477 3.85983
35.684 30.7186 3.73718
34.3197 32.7535 3.5934
30.933 16.8539 3.98014
31.9179 14.4876 2
34.0958 12.9469 0.0249025
31.1888 11.9946 0.0222159
42.8426 26.6031 0.00896137
40.8413 23.4466 -0.00101231
33.6117 15.8961 0.0225764
35.8514 17.533 0.0201425
38.4094 20.4065 0.0115167
33.5505 17.4175 2
35.5829 20.1239 2
40.3189 25.8164 2
38.0498 23.1235 2
32.8733 19.8127 3.99304
37.7246 25.4445 3.98206
35.1982 22.8346 3.9974
35.8857 37.5009 3.74833
37.5039 37.4975 2
39.1234 37.4881 0.253157
39.7698 51.7602 -0.0015658
38.6658 48.511 0.0465491
37.5055 39.1421 0.24518
37.5162 46.1541 0.138834
35.6752 44.3066 0.270277
35.9159 40.7847 0.294155
34.3076 42.2629 0.406114
37.6539 50.8313 2
35.9125 39.1379 2
34.4251 40.7105 2
36.9002 48.175 2
33.2294 41.9757 2
34.1453 43.6836 2
35.1844 45.91 2
35.5245 49.983 3.98848
34.3271 39.1523 3.73476
32.9036 40.8426 3.60833
32.8738 42.5611 3.75923
33.2973 45.0651 3.85956
34.3764 47.2446 3.89517
36.7476 53.0546 0.00228848
34.4094 52.381 2
32.1148 51.1321 4.01629
33.248 55.4364 0.00754284
30.5846 53.3205 2
28.5566 51.5429 3.98893
28.7497 55.2992 0.0186316
26.9839 53.414 2
25.2358 51.694 3.955
25.379 55.1178 0.0354811
23.6863 53.4476 2
22.1503 51.7467 3.95281
19.4098 51.5764 3.96143
19.0147 54.2686 3.96278
20.606 53.1751 2
18.4777 56.6956 3.96635
19.9779 55.8022 2
21.8678 55.3178 0.0366767
18.3813 59.0843 3.96818
19.4578 57.8634 2
20.2493 57.0009 0.0342305
18.6237 61.7488 3.97351
19.7154 60.1806 2
20.6612 58.7522 0.0315376
19.1283 64.6707 3.98077
20.2103 62.8522 2
21.1727 61.1561 0.0244047
19.8865 67.8087 3.99056
20.9388 65.7625 2
21.8969 63.8313 0.0211413
22.838 66.7333 0.0159978
21.9112 68.8715 2
20.9142 71.1327 4
24.0098 69.8049 0.00888032
23.1494 72.1455 2
25.446 73.0099 0
23.0982 12.7983 3.97667
23.9734 10.1746 3.97937
25.0243 7.31437 3.98429
25.8596 9.38501 2
26.2808 4.32858 3.99138
27.0698 6.5428 2
27.8217 8.65672 0.0181735
27.7943 1.27781 4
28.4878 3.64418 2
29.156 5.87961 0.0135225
30.1841 0.720551 2
30.7266 3.09856 0.00741756
32.6053 0.320823 0
35.8909 35.8553 3.72293
37.5079 35.8702 2
39.1127 35.8549 0.272324
24.7769 12.0796 2
23.7556 14.3745 2
22.4855 15.0518 3.97948
25.3609 13.921 3.97519
24.0353 15.6362 3.98116
26.6231 11.3951 0.0214664
29.2279 12.6497 0.0206959
27.2945 13.3828 2
29.7834 14.2096 2
28.365 15.9849 3.97951
34.4354 34.2969 3.72191
35.9102 34.2482 2
37.5067 34.194 0.277235
35.795 32.4862 0.390334
37.5148 30.479 0.257918
42.1648 28.5489 0.111812
39.7755 29.1232 0.139132
39.9641 27.7287 2
37.4961 28.8012 2
35.6679 30.6649 2
34.2974 32.7526 2
37.5812 27.4845 3.90521
35.2189 29.1409 3.86
34.1829 31.3786 3.74132
33.2703 33.0606 3.56829
30.2205 19.3849 3.98097
30.9301 16.8478 2
31.9195 14.4941 0.0219097
40.2813 25.8247 0.0319427
38.0635 23.1377 -0.000917668
33.5547 17.4089 0.021212
35.5835 20.1193 0.012854
32.8691 19.8205 2
35.1893 22.8204 2
37.7594 25.4287 2
32.3379 22.5251 3.9962
35.0377 25.3872 3.99978
34.2732 37.5123 3.74981
35.8925 37.5028 2
37.5048 37.4971 0.227286
37.665 50.8074 0.000461849
36.9239 48.126 0.0788992
35.9016 39.1507 0.272831
35.2023 45.8701 0.145377
34.1742 43.6353 0.258863
34.4325 40.7265 0.276096
33.2556 41.9565 0.430294
35.5113 49.9907 2
34.3395 39.1471 2
32.9061 40.8533 2
34.3738 47.2845 2
32.8335 42.5979 2
33.2771 45.1015 2
33.3488 49.0125 3.97904
32.5813 39.2859 3.62015
31.8076 41.086 3.74283
31.7257 43.6721 3.84975
32.4809 46.2004 3.89549
34.4139 52.3745 0.00109676
32.1158 51.1428 2
30.0524 49.7012 4.0019
30.5839 53.3172 0.00647002
28.5553 51.54 2
26.7136 49.9178 3.96784
26.9837 53.4104 0.0302032
25.2339 51.6935 2
23.5718 50.1131 3.9629
23.6877 53.4438 0.0410947
22.1487 51.7451 2
20.7123 50.2439 3.96469
18.2192 50.2708 3.96812
17.9993 52.7426 3.96391
19.4077 51.5758 2
17.5029 55.307 3.96245
19.0102 54.2689 2
20.6073 53.1755 0.0393097
17.1522 57.8493 3.96554
18.4768 56.6965 2
19.9798 55.8005 0.0364739
17.1428 60.5251 3.97008
18.3812 59.0858 2
19.4583 57.8621 0.0292369
17.4093 63.4619 3.97593
18.624 61.7493 2
19.7147 60.1791 0.0265746
17.943 66.6171 3.98907
19.1278 64.671 2
20.2102 62.8514 0.023616
18.75 69.9759 4
19.8852 67.8079 2
20.9392 65.762 0.0174238
21.9123 68.872 0.00933195
20.9142 71.1327 2
23.1494 72.1454 0
21.5905 13.6219 3.9769
22.1915 11.0355 3.97782
23.0978 12.7992 2
23.042 8.18097 3.9831
23.972 10.1729 2
24.1184 5.1434 3.99078
25.0233 7.31365 2
25.8607 9.38563 0.0191971
25.446 1.99014 4
26.2793 4.3287 2
27.0707 6.5436 0.0145946
27.7943 1.27778 2
28.489 3.64452 0.0080466
30.1841 0.720592 0
34.3276 35.8703 3.73496
35.8992 35.869 2
37.5053 35.8584 0.246532
21.3157 15.851 3.98293
24.7784 12.0819 0.0221379
23.7554 14.373 0.0247612
25.3608 13.9168 2
22.486 15.0516 2
24.036 15.6389 2
23.2787 16.2657 3.97502
25.3914 16.1074 3.98033
27.2943 13.3829 0.0216291
29.7856 14.2111 0.0206335
28.3626 15.9894 2
27.4535 18.8353 3.97912
32.9083 34.1775 3.6107
34.4291 34.3142 2
35.9128 34.2334 0.295728
34.3197 32.7535 0.406598
35.684 30.7186 0.262816
37.494 28.8477 0.140171
39.9465 27.7629 0.102895
37.5706 27.4501 2
33.2447 33.0431 2
35.2136 29.0885 2
34.1459 31.3258 2
35.1147 27.5912 3.90545
33.2898 29.9465 3.85952
32.8892 32.4501 3.74477
29.6333 21.9877 3.99648
30.218 19.3915 2
30.933 16.8539 0.0198627
37.7246 25.4445 0.0179361
35.1982 22.8346 0.00259592
32.8733 19.8127 0.00695625
32.3365 22.5188 2
35.067 25.3752 2
31.8557 25.7637 4.00547
32.4324 37.5124 3.64948
34.2895 37.5099 2
35.8857 37.5009 0.251668
35.5245 49.983 0.0115225
34.3764 47.2446 0.104827
34.3271 39.1523 0.265242
33.2973 45.0651 0.140435
32.8738 42.5611 0.240767
32.9036 40.8426 0.391671
33.3353 49.0128 2
32.5948 39.286 2
31.7708 41.1152 2
32.4475 46.2373 2
31.6887 43.7014 2
31.3815 47.8556 3.98157
31.0645 39.3862 3.74413
30.4968 41.9258 3.85048
30.7619 44.8159 3.9153
32.1148 51.1321 -0.0162931
30.0525 49.719 2
28.1557 48.0989 3.95942
28.5566 51.5429 0.0110692
26.7119 49.9175 2
24.942 48.3773 3.97083
25.2358 51.694 0.0450015
23.5706 50.1117 2
21.9701 48.7021 3.97087
22.1503 51.7467 0.0471904
20.7096 50.2428 2
19.3029 49.0238 3.97215
17.1076 49.2784 3.97373
16.9528 51.3584 3.96721
18.2218 50.2694 2
16.4908 53.8334 3.96468
17.9972 52.7423 2
19.4098 51.5764 0.0385724
16.0023 56.4531 3.96378
17.4992 55.3079 2
19.0147 54.2686 0.0372224
15.7592 59.1903 3.96685
17.1526 57.8499 2
18.4777 56.6956 0.0336525
15.7914 62.1233 3.97232
17.143 60.5276 2
18.3813 59.0843 0.0318208
16.0899 65.2992 3.98803
17.4086 63.4629 2
18.6237 61.7488 0.0264913
16.6661 68.6801 4
17.9414 66.6159 2
19.1283 64.6707 0.0192331
18.75 69.9759 2
19.8865 67.8087 0.00944212
20.9142 71.1327 0
20.2247 14.6169 3.97516
21.5903 13.6219 2
20.5315 12.0081 3.97642
21.1447 9.15163 3.98189
22.1906 11.0358 2
23.0982 12.7983 0.0233332
22.0174 6.08253 3.99022
23.0407 8.17983 2
23.9734 10.1746 0.0206271
23.1494 2.85457 4
24.1166 5.1437 2
25.0243 7.31437 0.0157133
25.446 1.99012 2
26.2808 4.32858 0.00862028
27.7943 1.27781 0
32.5701 35.7404 3.62009
34.3387 35.8741 2
35.8909 35.8553 0.27707
21.3163 15.8498 2
20.32 16.9827 3.97928
22.1108 16.6549 3.97059
25.3609 13.921 0.0248089
22.4855 15.0518 0.0205169
24.0353 15.6362 0.0188352
25.3913 16.1032 2
23.2794 16.2656 2
24.2207 18.4997 3.97205
27.0744 21.5133 3.99444
28.365 15.9849 0.0204867
27.452 18.8353 2
31.8261 33.9443 3.73815
32.9144 34.1646 2
34.4354 34.2969 0.278093
33.2703 33.0606 0.431709
34.1829 31.3786 0.258683
35.2189 29.1409 0.139997
37.5812 27.4845 0.094786
35.122 27.5471 2
32.8194 32.4135 2
33.2726 29.9199 2
32.7267 28.2827 3.91584
31.7278 31.3509 3.84821
28.9675 24.475 3.98513
29.6281 21.9949 2
30.2205 19.3849 0.0190315
35.0377 25.3872 0.000221646
32.3379 22.5251 0.00379878
31.8516 25.7421 2
29.8923 27.4098 3.97748
30.6807 37.5131 3.75025
32.4437 37.5111 2
34.2732 37.5123 0.250187
33.3488 49.0125 0.0209554
32.4809 46.2004 0.104512
32.5813 39.2859 0.379851
31.7257 43.6721 0.150254
31.8076 41.086 0.257166
31.3758 47.864 2
31.0121 39.4113 2
30.4666 41.943 2
30.7319 44.8451 2
29.543 46.4708 3.99952
29.6125 39.852 3.87593
29.1957 43.0567 3.91735
30.0524 49.7012 -0.00190349
28.1516 48.0938 2
26.316 46.5544 3.9781
26.7136 49.9178 0.0321559
24.9407 48.3762 2
23.1874 46.9744 3.97532
23.5718 50.1131 0.0371027
21.9677 48.7011 2
20.2835 47.5408 3.97722
20.7123 50.2439 0.0353067
19.3045 49.0222 2
17.9181 48.1189 3.97715
16.3444 48.635 3.97634
17.1089 49.2774 2
16.0317 50.1242 3.97109
15.5037 52.3777 3.96686
16.9541 51.3576 2
18.2192 50.2708 0.0318762
14.9249 54.9517 3.96381
16.4917 53.8331 2
17.9993 52.7426 0.0360891
14.4713 57.7229 3.96612
16.0022 56.4535 2
17.5029 55.307 0.0375486
14.2708 60.6793 3.9708
15.76 59.191 2
17.1522 57.8493 0.0344648
14.3352 63.8571 3.98335
15.7911 62.1256 2
17.1428 60.5251 0.0299245
14.6715 67.2507 4
16.0878 65.2977 2
17.4093 63.4619 0.0240669
16.6661 68.6801 2
17.943 66.6171 0.0109306
18.75 69.9759 0
18.9415 15.8029 3.97681
20.225 14.6155 2
18.9829 13.1231 3.97574
21.5905 13.6219 0.0231014
20.5309 12.0086 2
19.3442 10.2414 3.9805
19.992 7.14728 3.98947
21.1437 9.15175 2
22.1915 11.0355 0.0221815
20.9142 3.86727 4
22.0153 6.08307 2
23.042 8.18097 0.0169007
23.1494 2.85451 2
24.1184 5.1434 0.00921655
25.446 1.99014 0
31.0829 35.6382 3.74224
32.5823 35.7382 2
34.3276 35.8703 0.265042
21.3157 15.851 0.0170683
22.1114 16.6545 2
20.3204 16.9803 2
19.2776 18.4335 3.96608
21.7993 17.8827 3.98202
25.3914 16.1074 0.0196713
23.2787 16.2657 0.0249805
24.2182 18.5036 2
22.3333 19.9386 3.96654
24.6572 21.4038 3.98824
26.5764 23.7797 3.97616
27.0738 21.5051 2
27.4535 18.8353 0.0208823
30.5365 33.1088 3.86336
31.7926 33.9018 2
32.9083 34.1775 0.389295
32.8892 32.4501 0.255235
33.2898 29.9465 0.140479
35.1147 27.5912 0.0945548
32.6871 28.2541 2
31.6818 31.3154 2
30.4497 29.6844 3.9392
28.1435 26.6225 3.99149
28.9585 24.4866 2
29.6333 21.9877 0.00352469
31.8557 25.7637 -0.00546734
29.8837 27.3886 2
29.1932 37.5161 3.87015
30.6433 37.5137 2
32.4324 37.5124 0.350525
31.3815 47.8556 0.0184281
30.7619 44.8159 0.084702
31.0645 39.3862 0.255869
30.4968 41.9258 0.149519
29.5431 46.4738 2
29.5663 39.8699 2
29.1651 43.0901 2
27.7628 44.7803 3.97049
27.382 40.5881 3.94495
28.1557 48.0989 0.0405817
26.3119 46.5579 2
24.4637 45.0947 3.97653
24.942 48.3773 0.0291689
23.1859 46.9741 2
21.2786 45.8092 3.97807
21.9701 48.7021 0.0291262
20.2819 47.5394 2
18.6168 46.6693 3.97733
19.3029 49.0238 0.0278483
17.9185 48.1178 2
16.5622 47.662 3.97697
16.3457 48.6341 2
15.3757 48.9729 3.97483
17.1076 49.2784 0.0262721
16.0336 50.1233 2
14.6237 50.9488 3.96934
13.9015 53.409 3.9655
15.5047 52.3772 2
16.9528 51.3584 0.0327921
13.2695 56.1547 3.96463
14.9247 54.9517 2
16.4908 53.8334 0.0353159
12.8548 59.1149 3.96919
14.4726 57.723 2
16.0023 56.4531 0.0362177
12.6812 62.299 3.98037
14.2714 60.6799 2
15.7592 59.1903 0.0331467
12.7746 65.6939 4
14.3332 63.8543 2
15.7914 62.1233 0.0276833
14.6714 67.2507 2
16.0899 65.2992 0.0119653
16.6661 68.6801 0
17.686 17.1806 3.96859
18.9418 15.8017 2
17.5163 14.3887 3.97465
20.2247 14.6169 0.0248392
18.9825 13.1231 2
17.6404 11.4619 3.97802
20.5315 12.0081 0.0235809
19.3433 10.2415 2
18.0521 8.34054 3.98857
18.75 5.0241 4
19.9897 7.14867 2
21.1447 9.15163 0.0181109
20.9142 3.86727 2
22.0174 6.08253 0.00977685
23.1494 2.85457 0
29.632 35.1853 3.87559
31.03 35.6163 2
32.5701 35.7404 0.379911
22.1108 16.6549 0.0294144
20.32 16.9827 0.0207201
21.7991 17.8808 2
19.2769 18.4312 2
18.0537 19.9778 3.95841
20.9251 19.4138 3.96807
24.2207 18.4997 0.0279518
22.3307 19.9394 2
24.6564 21.4031 2
22.4546 21.7737 3.98049
24.8452 23.2196 3.97474
25.7354 26.0116 3.97839
26.5763 23.7751 2
27.0744 21.5133 0.00556496
28.9151 32.4528 3.92068
30.4883 33.0836 2
31.8261 33.9443 0.261851
31.7278 31.3509 0.151793
32.7267 28.2827 0.0841634
30.4351 29.6844 2
27.414 29.209 4.0085
28.1321 26.6312 2
28.9675 24.475 0.0148703
29.8923 27.4098 0.0225202
27.4936 37.3661 3.92368
29.1304 37.5072 2
30.6807 37.5131 0.249753
29.543 46.4708 0.000475991
29.1957 43.0567 0.0826532
29.6125 39.852 0.124073
27.7505 44.8103 2
27.3601 40.5889 2
25.8023 43.0852 3.98856
24.6391 39.4511 3.97356
26.316 46.5544 0.0218976
24.4533 45.0958 2
22.3522 43.8548 3.97755
23.1874 46.9744 0.0246801
21.275 45.8089 2
19.3399 44.9036 3.97723
20.2835 47.5408 0.0227776
18.6166 46.6684 2
16.8964 46.1569 3.97709
17.9181 48.1189 0.0228483
16.5634 47.6612 2
15.1282 47.628 3.97611
16.3444 48.635 0.0236551
15.3775 48.9721 2
13.9283 49.5123 3.9717
16.0317 50.1242 0.028907
14.6246 50.9483 2
12.9749 51.8502 3.96707
12.1674 54.515 3.96508
13.9015 53.4088 2
15.5037 52.3777 0.0331442
11.5406 57.4506 3.96897
13.2701 56.1548 2
14.9249 54.9517 0.0361872
11.1359 60.625 3.97855
12.8559 59.1146 2
14.4713 57.7229 0.0338825
10.9835 64.0165 4
12.6792 62.2956 2
14.2708 60.6793 0.0291988
12.7745 65.694 2
14.3352 63.8571 0.0166512
14.6715 67.2507 0
16.4324 18.6755 3.96241
17.6856 17.1793 2
16.1108 15.8009 3.97034
18.9415 15.8029 0.0231877
17.5159 14.3882 2
16.0227 12.8169 3.97555
18.9829 13.1231 0.0242562
17.6397 11.4627 2
16.2031 9.66389 3.98751
19.3442 10.2414 0.0194974
18.0498 8.34242 2
16.6661 6.31991 4
18.75 5.02404 2
19.992 7.14728 0.010529
20.9142 3.86727 0
28.0279 34.8214 3.91304
29.5814 35.1594 2
31.0829 35.6382 0.257758
16.7687 21.4137 3.96541
21.7993 17.8827 0.0179769
19.2776 18.4335 0.0339196
20.9236 19.412 2
18.0525 19.9771 2
19.8323 21.6209 3.96841
22.3333 19.9386 0.0334618
24.6572 21.4038 0.011761
22.4527 21.7744 2
24.8434 23.2196 2
23.0695 24.6653 3.97382
24.9569 28.5973 3.97895
25.7293 26.0117 2
26.5764 23.7797 0.0238395
26.7654 31.7973 3.9791
28.8872 32.4324 2
30.5365 33.1088 0.136639
30.4497 29.6844 0.0607987
27.4311 29.1906 2
28.1435 26.6225 0.00851054
25.3235 36.8567 3.97708
27.482 37.358 2
29.1932 37.5161 0.129849
27.7628 44.7803 0.0295132
27.382 40.5881 0.0550505
25.7831 43.1007 2
24.6205 39.452 2
23.5313 41.8119 3.98091
22.3558 38.5204 3.97792
24.4637 45.0947 0.0234704
22.352 43.8549 2
20.1838 42.8411 3.97644
21.2786 45.8092 0.0219299
19.3404 44.9034 2
17.2809 44.3275 3.97654
18.6168 46.6693 0.022666
16.8981 46.1562 2
15.0771 46.0483 3.97635
16.5622 47.662 0.02303
15.1297 47.6273 2
13.4517 47.9763 3.97353
15.3757 48.9729 0.025168
13.9295 49.5117 2
12.2011 50.2304 3.9685
14.6237 50.9488 0.0306559
12.9753 51.8498 2
11.1666 52.8261 3.96568
10.3311 55.7061 3.9687
12.1677 54.5149 2
13.9015 53.409 0.0344954
9.70245 58.8475 3.97776
11.5413 57.4503 2
13.2695 56.1547 0.0353685
9.30605 62.2254 4
11.1342 60.6211 2
12.8548 59.1149 0.0308117
10.9835 64.0165 2
12.6812 62.299 0.0196287
12.7746 65.6939 0
15.1979 20.2126 3.96269
16.4334 18.6755 2
14.7625 17.3241 3.96576
17.686 17.1806 0.0314081
16.1105 15.7993 2
14.487 14.3036 3.97249
17.5163 14.3887 0.0253452
16.022 12.8172 2
14.4461 11.1158 3.98626
17.6404 11.4619 0.0219812
16.201 9.66647 2
14.6715 7.74927 4
18.0521 8.34054 0.0114257
16.6661 6.31988 2
18.75 5.0241 0
25.9881 34.3178 3.985
28.0059 34.8294 2
29.632 35.1853 0.124415
17.9893 22.3683 3.97129
15.6528 22.9581 3.96838
16.7682 21.4138 2
20.9251 19.4138 0.0319281
18.0537 19.9778 0.0415875
19.831 21.6203 2
19.9072 24.4471 3.97059
22.4546 21.7737 0.0195104
24.8452 23.2196 0.0252551
23.0663 24.6654 2
22.3215 27.9069 3.97312
24.3231 31.2769 3.9765
24.9663 28.5976 2
25.7354 26.0116 0.0216093
26.7478 31.7659 2
28.9151 32.4528 0.0793214
27.414 29.209 -0.00850092
23.0771 36.2868 3.98252
25.3092 36.8613 2
27.4936 37.3661 0.0763246
25.8023 43.0852 0.0114415
24.6391 39.4511 0.0264399
23.518 41.8114 2
22.3466 38.5174 2
21.2378 40.6299 3.97529
20.6193 37.8025 3.97706
22.3522 43.8548 0.0224521
20.1824 42.8426 2
17.7465 42.0589 3.97619
19.3399 44.9036 0.0227725
17.282 44.3277 2
15.1168 44.1587 3.97634
16.8964 46.1569 0.0229147
15.0783 46.0477 2
13.1464 46.265 3.97467
15.1282 47.628 0.0238895
13.4531 47.9757 2
11.584 48.5286 3.96972
13.9283 49.5123 0.0282962
12.202 50.2299 2
10.2954 51.0711 3.96611
12.9749 51.8502 0.0329347
11.167 52.8259 2
9.23996 53.8864 3.96856
8.38583 56.981 3.97862
10.3318 55.7054 2
12.1674 54.515 0.0349185
7.74927 60.3285 4
9.7012 58.8435 2
11.5406 57.4506 0.0310297
9.306 62.2255 2
11.1359 60.625 0.0214453
10.9835 64.0165 0
14.0274 21.7788 3.96521
15.197 20.2123 2
13.4642 18.9177 3.96478
16.4324 18.6755 0.0375895
14.7638 17.324 2
13.034 15.8999 3.97004
16.1108 15.8009 0.0296633
14.4863 14.3014 2
12.7841 12.6898 3.98307
16.0227 12.8169 0.0244494
14.4437 11.1185 2
12.7746 9.30605 4
16.2031 9.66389 0.0124889
14.6715 7.74924 2
16.6661 6.31991 0
23.6651 33.8541 3.98338
25.9641 34.309 2
28.0279 34.8214 0.0869591
17.8426 24.0975 3.97007
17.9925 22.369 2
14.4914 24.4925 3.97013
15.6539 22.9585 2
16.7687 21.4137 0.0345931
19.3759 27.2768 3.97243
19.8323 21.6209 0.0315925
19.9028 24.4471 2
21.672 30.7507 3.97545
23.0695 24.6653 0.0261816
22.3265 27.9091 2
24.3011 31.2773 2
24.9569 28.5973 0.0210489
26.7654 31.7973 0.0208986
20.7419 35.9554 3.97653
23.0777 36.2864 2
25.3235 36.8567 0.0229244
23.5313 41.8119 0.0190862
22.3558 38.5204 0.0220781
21.2442 40.6307 2
20.618 37.8009 2
18.493 39.0005 3.97709
20.1838 42.8411 0.0235645
17.7466 42.0588 2
15.1025 41.8862 3.97665
17.2809 44.3275 0.0234598
15.118 44.1582 2
12.9075 44.3647 3.97568
15.0771 46.0483 0.0236532
13.148 46.2644 2
11.0969 46.7141 3.97091
13.4517 47.9763 0.0264655
11.5852 48.5281 2
9.56225 49.2318 3.96644
12.2011 50.2304 0.0314991
10.2958 51.0708 2
8.27274 52.0005 3.96836
11.1666 52.8261 0.0343232
9.24061 53.8855 2
7.19484 55.032 3.97937
6.31991 58.3339 4
8.38493 56.9772 2
10.3311 55.7061 0.0312993
7.74924 60.3285 2
9.70245 58.8475 0.0222386
9.30605 62.2254 0
13.3742 25.3965 3.97351
12.9247 23.3088 3.96748
14.0264 21.7786 2
12.2559 20.564 3.96513
15.1979 20.2126 0.0373085
13.4655 18.9174 2
11.6647 17.5764 3.97013
14.7625 17.3241 0.0342362
13.0351 15.8992 2
11.2222 14.3762 3.97865
14.487 14.3036 0.0275089
12.7814 12.6935 2
10.9835 10.9835 4
14.4461 11.1158 0.0137424
12.7745 9.306 2
14.6715 7.74927 0
21.1065 33.4594 3.9756
23.6657 33.8471 2
25.9881 34.3178 0.0150025
16.1661 26.4556 3.97263
17.8435 24.0979 2
17.9893 22.3683 0.0287085
14.4916 24.4931 2
15.6528 22.9581 0.0316224
18.7658 30.2462 3.97505
19.3734 27.2772 2
19.9072 24.4471 0.0294107
21.6799 30.7511 2
22.3215 27.9069 0.0268781
24.3231 31.2769 0.0234988
18.1044 35.987 3.97778
20.7437 35.9559 2
23.0771 36.2868 0.0174791
21.2378 40.6299 0.0247088
20.6193 37.8025 0.0229412
18.4911 39.0001 2
14.6069 39.1682 3.97726
17.7465 42.0589 0.0238146
15.1031 41.8859 2
12.6039 42.256 3.97683
15.1168 44.1587 0.0236581
12.9088 44.3642 2
10.6848 44.7857 3.97204
13.1464 46.265 0.0253295
11.0984 46.7137 2
8.94735 47.3116 3.9668
11.584 48.5286 0.0302834
9.56241 49.2314 2
7.43958 50.0343 3.968
10.2954 51.0711 0.0338901
8.2732 51.9997 2
6.13547 53.0073 3.97978
9.23996 53.8864 0.0314385
7.19432 55.0289 2
5.0241 56.25 4
6.31988 58.3339 2
8.38583 56.981 0.0213833
7.74927 60.3285 0
13.6422 26.8505 3.97334
12.035 24.8126 3.96967
13.3736 25.3968 2
11.175 22.2478 3.9657
12.9254 23.3091 2
14.0274 21.7788 0.0347945
12.2568 20.564 2
10.396 19.3272 3.96917
13.4642 18.9177 0.0352232
11.6662 17.5766 2
9.763 16.1598 3.97782
13.034 15.8999 0.0299632
11.2202 14.3809 2
9.30607 12.7746 4
12.7841 12.6898 0.0169331
10.9835 10.9835 2
12.7746 9.30605 0
18.2753 33.1671 3.9769
21.1075 33.4613 2
23.6651 33.8541 0.0166243
15.7899 29.6886 3.97567
16.1665 26.4564 2
17.8426 24.0975 0.0299338
14.4914 24.4925 0.0298743
18.7651 30.247 2
19.3759 27.2768 0.0275694
21.672 30.7507 0.0245525
15.2274 36.0357 3.97748
18.1042 35.987 2
20.7419 35.9554 0.0234734
12.8343 37.83 3.97747
18.493 39.0005 0.0229132
14.6073 39.168 2
12.1099 40.1294 3.97726
15.1025 41.8862 0.0233461
12.6054 42.2554 2
10.2909 42.7653 3.97218
12.9075 44.3647 0.0243245
10.6861 44.7854 2
8.42711 45.3145 3.96721
11.0969 46.7141 0.0290928
8.94705 47.3114 2
6.73069 47.9997 3.96777
9.56225 49.2318 0.03356
7.43988 50.0336 2
5.21227 50.9108 3.97947
8.27274 52.0005 0.0316442
6.13523 53.0053 2
3.86727 54.0858 4
7.19484 55.032 0.020633
5.02404 56.25 2
6.31991 58.3339 0
13.1228 29.0667 3.97284
11.4798 26.5113 3.97016
13.642 26.851 2
10.2363 23.9789 3.96661
12.0365 24.813 2
13.3742 25.3965 0.0264868
9.24855 21.1429 3.96864
11.1753 22.248 2
12.9247 23.3088 0.0325205
12.2559 20.564 0.0348665
10.3975 19.3277 2
8.41861 18.0305 3.97811
11.6647 17.5764 0.0298731
9.76151 16.1648 2
7.74928 14.6715 4
11.2222 14.3762 0.0213513
9.30602 12.7745 2
10.9835 10.9835 0
14.7814 32.9026 3.97725
18.274 33.1667 2
21.1065 33.4594 0.0243967
15.7916 29.6894 2
16.1661 26.4556 0.0273651
18.7658 30.2462 0.0249502
13.1264 36.221 3.97723
15.227 36.0355 2
18.1044 35.987 0.0222174
12.8362 37.8296 2
11.4504 38.3086 3.9772
14.6069 39.1682 0.0227443
12.1124 40.1289 2
9.87206 40.7468 3.97291
12.6039 42.256 0.023167
10.2932 42.7649 2
7.97615 43.2649 3.96782
10.6848 44.7857 0.0279633
8.42767 45.3142 2
6.13665 45.9049 3.96774
8.94735 47.3116 0.0332043
6.73096 47.999 2
4.42373 48.7514 3.97887
7.43958 50.0343 0.0319995
5.21221 50.9096 2
2.85457 51.8506 4
6.13547 53.0073 0.0202195
3.86727 54.0858 2
5.0241 56.25 0
12.263 31.2832 3.97398
10.9009 28.4367 3.97045
13.1242 29.0673 2
9.45443 25.808 3.96706
11.4809 26.5117 2
13.6422 26.8505 0.0266604
8.23534 23.0258 3.96848
10.2367 23.9792 2
12.035 24.8126 0.0303343
7.20076 19.9799 3.97887
9.24973 21.1435 2
11.175 22.2478 0.0343022
10.396 19.3272 0.0308318
8.41782 18.0351 2
6.31992 16.6661 4
9.763 16.1598 0.022177
7.74926 14.6714 2
9.30607 12.7746 0
12.2935 34.3148 3.97693
14.7825 32.9034 2
18.2753 33.1671 0.0231023
15.7899 29.6886 0.0243309
10.994 36.616 3.97694
13.1276 36.2209 2
15.2274 36.0357 0.0225167
12.8343 37.83 0.0225301
11.4534 38.3085 2
9.4564 38.8209 3.97375
12.1099 40.1294 0.0227442
9.8737 40.7465 2
7.58511 41.2083 3.96842
10.2909 42.7653 0.0278245
7.97554 43.2647 2
5.6482 43.768 3.96803
8.42711 45.3145 0.0327899
6.13685 45.9044 2
3.76924 46.537 3.97856
6.73069 47.9997 0.0322282
4.42388 48.7508 2
1.99014 49.554 4
5.21227 50.9108 0.0205338
2.85451 51.8506 2
3.86727 54.0858 0
11.0837 32.9368 3.97647
10.2126 30.3998 3.97122
12.2648 31.2838 2
8.76569 27.7407 3.96731
10.9022 28.4371 2
13.1228 29.0667 0.0271644
7.36067 24.9839 3.9682
9.45443 25.8082 2
11.4798 26.5113 0.0298444
6.11772 22.0028 3.97967
8.23607 23.0264 2
10.2363 23.9789 0.03339
5.02411 18.75 4
7.20042 19.9833 2
9.24855 21.1429 0.0313609
8.41861 18.0305 0.0218916
6.3199 16.6661 2
7.74928 14.6715 0
10.5914 35.0095 3.97648
12.2957 34.3154 2
14.7814 32.9026 0.0227512
9.11878 36.9868 3.97384
10.997 36.6163 2
13.1264 36.221 0.0227688
11.4504 38.3086 0.022797
9.45794 38.8207 2
7.26192 39.181 3.96879
9.87206 40.7468 0.0270944
7.58542 41.208 2
5.26316 41.6138 3.96811
7.97615 43.2649 0.0321826
5.64836 43.7675 2
3.24684 44.2818 3.97882
6.13665 45.9049 0.0322582
3.76948 46.5366 2
1.27781 47.2057 4
4.42373 48.7514 0.0211283
1.99012 49.554 2
2.85457 51.8506 0
10.2291 33.8936 3.97677
9.49452 32.1675 3.97195
11.086 32.9373 2
8.11032 29.7026 3.96782
10.2142 30.4002 2
12.263 31.2832 0.02602
6.60398 27.0094 3.96817
8.76538 27.741 2
10.9009 28.4367 0.0295507
5.1731 24.0952 3.97959
7.36106 24.9845 2
9.45443 25.808 0.0329366
3.86728 20.9142 4
6.11762 22.0048 2
8.23534 23.0258 0.0315244
5.02406 18.75 2
7.20076 19.9799 0.0211292
6.31992 16.6661 0
8.93919 35.285 3.9738
10.594 35.0098 2
12.2935 34.3148 0.0230694
7.04068 37.2065 3.96862
9.12039 36.9867 2
10.994 36.616 0.0230558
9.4564 38.8209 0.0262512
7.26263 39.1809 2
4.99068 39.4673 3.96833
7.58511 41.2083 0.0315771
5.26369 41.6135 2
2.8572 42.002 3.97894
5.6482 43.768 0.0319713
3.24695 44.2814 2
0.720592 44.8159 4
3.76924 46.537 0.0214418
1.27778 47.2057 2
1.99014 49.554 0
8.98149 33.7067 3.97311
10.2315 33.894 2
7.54441 31.6145 3.96809
9.49633 32.1678 2
11.0837 32.9368 0.0235275
5.9488 29.0703 3.9683
8.10986 29.7028 2
10.2126 30.3998 0.0287755
4.36067 26.2475 3.97922
6.60419 27.0099 2
8.76569 27.7407 0.032685
2.85458 23.1494 4
5.17314 24.0961 2
7.36067 24.9839 0.0317984
3.86728 20.9142 2
6.11772 22.0028 0.0203321
5.02411 18.75 0
6.98867 35.3082 3.9686
8.94076 35.2851 2
10.5914 35.0095 0.0235188
4.84078 37.3399 3.96869
7.04152 37.2065 2
9.11878 36.9868 0.0261635
7.26192 39.181 0.0312071
4.99121 39.4672 2
2.60521 39.7137 3.97898
5.26316 41.6138 0.0318908
2.85761 42.0019 2
0.320823 42.3947 4
3.24684 44.2818 0.0211826
0.720551 44.8159 2
1.27781 47.2057 0
7.15357 33.4645 3.96833
8.98303 33.7069 2
10.2291 33.8936 0.0232294
5.41938 31.134 3.96855
7.5444 31.6146 2
9.49452 32.1675 0.0280541
3.68224 28.4435 3.97894
5.94901 29.0707 2
8.11032 29.7026 0.0321828
1.99015 25.446 4
4.3608 26.2479 2
6.60398 27.0094 0.0318319
2.85453 23.1494 2
5.1731 24.0952 0.020414
3.86728 20.9142 0
4.85516 35.2518 3.96866
6.98866 35.3082 2
8.93919 35.285 0.0262006
2.49664 37.4283 3.97972
4.84084 37.34 2
7.04068 37.2065 0.0313772
4.99068 39.4673 0.0316698
2.60572 39.714 2
0.080333 39.9526 4
2.8572 42.002 0.0210576
0.320817 42.3947 2
0.720592 44.8159 0
5.0486 33.1905 3.96865
7.15371 33.4647 2
8.98149 33.7067 0.0268866
3.14642 30.6662 3.97902
5.41958 31.1345 2
7.54441 31.6145 0.0319099
1.27793 27.7943 4
3.6825 28.4437 2
5.9488 29.0703 0.0317
1.99013 25.446 2
4.36067 26.2475 0.0207812
2.85458 23.1494 0
2.54876 35.1589 3.97944
4.85578 35.2521 2
6.98867 35.3082 0.0313991
0 37.5 4
2.4967 37.4287 2
4.84078 37.3399 0.0313087
2.60521 39.7137 0.0210209
0.0802903 39.9526 2
0.320823 42.3947 0
2.76641 32.9057 3.97957
5.04879 33.1909 2
7.15357 33.4645 0.0316676
0.721173 30.1842 4
3.14671 30.6666 2
5.41938 31.134 0.031447
1.27779 27.7943 2
3.68224 28.4435 0.021063
1.99015 25.446 0
0.0806499 35.0474 4
2.54935 35.1594 2
4.85516 35.2518 0.0313429
0 37.5 2
2.49664 37.4283 0.0202793
0.080333 39.9526 0
0.32156 32.6054 4
2.76654 32.9063 2
5.0486 33.1905 0.0313455
0.72056 30.1841 2
3.14642 30.6662 0.0209783
1.27793 27.7943 0
0.0802889 35.0474 2
2.54876 35.1589 0.0205618
0 37.5 0
0.320817 32.6053 2
2.76641 32.9057 0.0204333
0.721173 30.1842 0
0.0806499 35.0474 0
0.32156 32.6054 0
CELLS 1910 17190
8 18 6 25 56 2 0 5 16
8 57 23 6 18 17 4 0 2
8 78 36 9 29 31 11 1 7
8 31 11 1 7 79 37 10 30
8 110 57 18 50 48 17 2 14
8 50 18 56 111 14 2 16 49
8 116 62 22 55 52 20 3 15
8 56 25 67 118 16 5 24 53
8 119 63 23 57 54 21 4 17
8 55 22 63 119 15 3 21 54
8 58 26 68 121 18 6 25 56
8 122 65 26 58 57 23 6 18
8 73 31 7 27 142 79 30 71
8 143 78 29 72 73 31 7 27
8 83 147 76 34 32 74 28 8
8 84 148 78 36 33 75 29 9
8 76 34 8 28 148 84 33 75
8 37 79 150 86 10 30 77 35
8 151 87 36 78 80 38 11 31
8 80 38 11 31 152 88 37 79
8 175 100 42 94 96 44 12 40
8 44 96 176 101 12 40 95 43
8 101 176 98 46 43 95 41 13
8 46 98 178 103 13 41 97 45
8 178 103 45 97 147 83 32 74
8 189 116 55 109 106 52 15 47
8 111 56 118 191 49 16 53 107
8 192 119 57 110 108 54 17 48
8 109 55 119 192 47 15 54 108
8 194 122 58 112 110 57 18 50
8 112 58 121 195 50 18 56 111
8 115 61 19 51 197 124 59 113
8 115 61 125 198 51 19 60 114
8 198 125 62 116 114 60 20 52
8 200 127 64 120 116 62 22 55
8 118 67 132 202 53 24 66 117
8 121 68 133 203 56 25 67 118
8 120 64 128 204 55 22 63 119
8 204 128 65 122 119 63 23 57
8 206 134 68 121 123 69 26 58
8 123 69 26 58 207 131 65 122
8 226 147 74 138 140 76 28 70
8 229 148 75 139 143 78 29 72
8 140 76 28 70 229 148 75 139
8 142 79 30 71 231 150 77 141
8 144 80 31 73 232 152 79 142
8 233 151 78 143 144 80 31 73
8 150 86 35 77 235 154 81 145
8 235 154 81 145 146 82 39 91
8 146 82 39 91 236 155 90 165
8 238 157 83 147 149 85 34 76
8 239 158 84 148 151 87 36 78
8 149 85 34 76 239 158 84 148
8 152 88 37 79 241 160 86 150
8 242 161 87 151 153 89 38 80
8 153 89 38 80 243 162 88 152
8 171 98 41 92 265 178 97 169
8 265 178 97 169 226 147 74 138
8 172 96 40 93 266 176 95 170
8 266 176 95 170 171 98 41 92
8 269 175 94 173 172 96 40 93
8 271 180 99 174 175 100 42 94
8 197 124 59 113 271 180 99 174
8 272 181 100 175 177 102 44 96
8 273 182 101 176 179 104 46 98
8 177 102 44 96 273 182 101 176
8 179 104 46 98 275 184 103 178
8 275 184 103 178 238 157 83 147
8 188 115 51 105 283 197 113 186
8 188 115 198 284 105 51 114 187
8 284 198 116 189 187 114 52 106
8 286 200 120 193 189 116 55 109
8 191 118 202 288 107 53 117 190
8 195 121 203 289 111 56 118 191
8 193 120 204 290 109 55 119 192
8 290 204 122 194 192 119 57 110
8 196 123 58 112 292 207 122 194
8 293 206 121 195 196 123 58 112
8 199 126 61 115 297 211 124 197
8 298 212 127 200 198 125 62 116
8 199 126 212 298 115 61 125 198
8 205 129 64 120 300 214 127 200
8 301 217 130 201 202 132 66 117
8 209 136 168 264 301 217 130 201
8 302 219 132 202 203 133 67 118
8 303 220 133 203 206 134 68 121
8 205 129 215 304 120 64 128 204
8 304 215 131 207 204 128 65 122
8 306 221 134 206 208 135 69 123
8 208 135 69 123 307 218 131 207
8 210 137 167 263 309 223 136 209
8 328 238 147 226 230 149 76 140
8 228 146 91 166 329 236 165 260
8 231 150 77 141 330 235 145 227
8 330 235 145 227 228 146 91 166
8 332 239 148 229 233 151 78 143
8 230 149 76 140 332 239 148 229
8 232 152 79 142 334 241 150 231
8 234 153 80 144 335 243 152 232
8 336 242 151 233 234 153 80 144
8 236 155 90 165 338 245 164 259
8 241 160 86 150 339 246 154 235
8 339 246 154 235 237 156 82 146
8 237 156 82 146 340 247 155 236
8 342 249 157 238 240 159 85 149
8 343 250 158 239 242 161 87 151
8 240 159 85 149 343 250 158 239
8 243 162 88 152 345 252 160 241
8 244 163 253 346 153 89 161 242
8 244 163 89 153 347 254 162 243
8 311 224 261 371 210 137 167 263
8 263 167 262 372 209 136 168 264
8 267 179 98 171 375 275 178 265
8 375 275 178 265 328 238 147 226
8 376 273 176 266 267 179 98 171
8 268 177 96 172 376 273 176 266
8 379 272 175 269 268 177 96 172
8 380 271 174 270 269 175 94 173
8 283 197 113 186 380 271 174 270
8 381 277 180 271 272 181 100 175
8 297 211 124 197 381 277 180 271
8 382 278 181 272 274 183 102 177
8 274 183 102 177 383 279 182 273
8 383 279 182 273 276 185 104 179
8 385 281 184 275 342 249 157 238
8 276 185 104 179 385 281 184 275
8 285 199 115 188 393 297 197 283
8 394 298 200 286 284 198 116 189
8 285 199 298 394 188 115 198 284
8 291 205 120 193 396 300 200 286
8 397 301 201 287 288 202 117 190
8 295 209 264 374 397 301 201 287
8 398 302 202 288 289 203 118 191
8 399 303 203 289 293 206 121 195
8 291 205 304 400 193 120 204 290
8 400 304 207 292 290 204 122 194
8 294 208 123 196 402 307 207 292
8 403 306 206 293 294 208 123 196
8 296 210 263 373 405 309 209 295
8 408 312 213 299 297 211 126 199
8 299 213 313 409 199 126 212 298
8 409 313 214 300 298 212 127 200
8 305 216 129 205 411 315 214 300
8 412 318 217 301 302 219 132 202
8 309 223 136 209 412 318 217 301
8 413 320 219 302 303 220 133 203
8 306 221 321 414 206 134 220 303
8 307 218 131 207 415 316 215 304
8 305 216 316 415 205 129 215 304
8 417 322 221 306 308 222 135 208
8 308 222 135 208 418 319 218 307
8 310 225 137 210 420 325 223 309
8 423 326 224 311 310 225 137 210
8 329 236 165 260 441 338 259 368
8 442 342 238 328 333 240 149 230
8 331 237 146 228 443 340 236 329
8 334 241 150 231 444 339 235 330
8 444 339 235 330 331 237 146 228
8 446 343 239 332 336 242 151 233
8 333 240 149 230 446 343 239 332
8 335 243 152 232 448 345 241 334
8 337 244 153 234 449 347 243 335
8 337 244 346 450 234 153 242 336
8 338 245 164 259 452 349 258 367
8 340 247 155 236 453 350 245 338
8 345 252 160 241 454 351 246 339
8 454 351 246 339 341 248 156 237
8 341 248 156 237 455 352 247 340
8 240 159 251 344 342 249 354 457
8 242 161 253 346 343 250 355 458
8 343 250 355 458 240 159 251 344
8 347 254 162 243 460 357 252 345
8 348 255 358 461 244 163 253 346
8 348 255 163 244 462 359 254 347
8 473 360 257 365 363 256 364 482
8 452 349 258 367 365 257 366 485
8 422 324 369 488 311 224 261 371
8 371 261 370 490 263 167 262 372
8 407 311 371 491 296 210 263 373
8 373 263 372 492 295 209 264 374
8 493 385 275 375 442 342 238 328
8 377 276 179 267 493 385 275 375
8 378 274 177 268 494 383 273 376
8 494 383 273 376 377 276 179 267
8 497 382 272 379 378 274 177 268
8 498 381 271 380 379 272 175 269
8 393 297 197 283 498 381 271 380
8 499 387 277 381 382 278 181 272
8 408 312 211 297 499 387 277 381
8 500 388 278 382 384 280 183 274
8 501 389 279 383 386 282 185 276
8 384 280 183 274 501 389 279 383
8 386 282 185 276 503 391 281 385
8 503 391 281 385 457 354 249 342
8 511 408 299 395 393 297 199 285
8 395 299 409 512 285 199 298 394
8 512 409 300 396 394 298 200 286
8 401 305 205 291 514 411 300 396
8 515 412 301 397 398 302 202 288
8 405 309 209 295 515 412 301 397
8 516 413 302 398 399 303 203 289
8 403 306 414 517 293 206 303 399
8 402 307 207 292 518 415 304 400
8 401 305 415 518 291 205 304 400
8 404 308 208 294 520 418 307 402
8 521 417 306 403 404 308 208 294
8 406 310 210 296 523 420 309 405
8 526 423 311 407 406 310 210 296
8 410 314 213 299 527 424 312 408
8 528 425 315 411 409 313 214 300
8 410 314 425 528 299 213 313 409
8 416 317 216 305 530 427 315 411
8 531 430 318 412 413 320 219 302
8 420 325 223 309 531 430 318 412
8 532 432 320 413 414 321 220 303
8 417 322 433 533 306 221 321 414
8 418 319 218 307 534 428 316 415
8 416 317 428 534 305 216 316 415
8 419 323 434 536 308 222 322 417
8 419 323 222 308 537 431 319 418
8 421 327 225 310 539 438 325 420
8 421 327 439 541 310 225 326 423
8 543 437 324 422 423 326 224 311
8 441 338 259 368 559 452 367 486
8 443 340 236 329 560 453 338 441
8 333 240 344 447 442 342 457 561
8 445 341 237 331 562 455 340 443
8 448 345 241 334 563 454 339 444
8 563 454 339 444 445 341 237 331
8 336 242 346 450 446 343 458 565
8 446 343 458 565 333 240 344 447
8 449 347 243 335 567 460 345 448
8 451 348 244 337 568 462 347 449
8 451 348 461 569 337 244 346 450
8 570 463 349 452 473 360 257 365
8 453 350 245 338 570 463 349 452
8 455 352 247 340 571 464 350 453
8 460 357 252 345 572 465 351 454
8 572 465 351 454 456 353 248 341
8 456 353 248 341 573 466 352 455
8 344 251 356 459 457 354 468 575
8 458 355 469 576 344 251 356 459
8 346 253 358 461 458 355 469 576
8 462 359 254 347 578 471 357 460
8 348 255 359 462 461 358 472 579
8 591 474 360 473 475 361 256 363
8 475 361 256 363 594 477 362 479
8 363 256 364 482 479 362 480 603
8 590 473 365 484 481 363 482 605
8 482 364 257 365 606 483 366 485
8 559 452 367 486 484 365 485 607
8 542 436 487 609 422 324 369 488
8 525 422 488 611 407 311 371 491
8 488 369 489 612 371 261 370 490
8 491 371 490 613 373 263 372 492
8 495 386 276 377 614 503 385 493
8 614 503 385 493 561 457 342 442
8 615 501 383 494 495 386 276 377
8 496 384 274 378 615 501 383 494
8 618 500 382 497 496 384 274 378
8 619 499 381 498 497 382 272 379
8 511 408 297 393 619 499 381 498
8 620 505 387 499 500 388 278 382
8 527 424 312 408 620 505 387 499
8 502 390 506 621 384 280 388 500
8 622 507 389 501 504 392 282 386
8 502 390 280 384 622 507 389 501
8 504 392 282 386 624 509 391 503
8 624 509 391 503 575 468 354 457
8 513 410 299 395 630 527 408 511
8 631 528 411 514 512 409 300 396
8 513 410 528 631 395 299 409 512
8 519 416 305 401 633 530 411 514
8 634 531 412 515 516 413 302 398
8 523 420 309 405 634 531 412 515
8 635 532 413 516 517 414 303 399
8 521 417 533 636 403 306 414 517
8 520 418 307 402 637 534 415 518
8 519 416 534 637 401 305 415 518
8 522 419 308 404 639 537 418 520
8 522 419 536 640 404 308 417 521
8 524 421 310 406 642 539 420 523
8 524 421 541 644 406 310 423 526
8 646 543 422 525 526 423 311 407
8 529 426 314 410 647 544 424 527
8 528 425 545 648 411 315 427 530
8 529 426 545 648 410 314 425 528
8 535 429 317 416 649 546 427 530
8 650 548 430 531 532 432 320 413
8 539 438 325 420 650 548 430 531
8 533 433 550 651 414 321 432 532
8 536 434 551 652 417 322 433 533
8 537 431 319 418 653 547 428 534
8 535 429 547 653 416 317 428 534
8 538 435 552 654 419 323 434 536
8 538 435 323 419 655 549 431 537
8 540 440 327 421 657 556 438 539
8 540 440 557 659 421 327 439 541
8 541 439 555 660 423 326 437 543
8 661 554 436 542 543 437 324 422
8 676 570 452 559 590 473 365 484
8 560 453 338 441 676 570 452 559
8 562 455 340 443 677 571 453 560
8 447 344 459 566 561 457 575 678
8 564 456 341 445 679 573 455 562
8 567 460 345 448 680 572 454 563
8 680 572 454 563 564 456 341 445
8 565 458 576 682 447 344 459 566
8 450 346 461 569 565 458 576 682
8 568 462 347 449 684 578 460 567
8 451 348 462 568 569 461 579 685
8 686 580 463 570 591 474 360 473
8 571 464 350 453 686 580 463 570
8 573 466 352 455 687 581 464 571
8 572 465 582 688 460 357 471 578
8 574 467 582 688 456 353 465 572
8 574 467 353 456 689 583 466 573
8 459 356 470 577 575 468 585 691
8 576 469 586 692 459 356 470 577
8 461 358 472 579 576 469 586 692
8 462 359 471 578 579 472 588 694
8 704 591 473 590 593 475 363 481
8 595 476 592 705 475 361 474 591
8 593 475 363 481 707 594 479 602
8 594 477 362 479 709 598 478 600
8 595 476 361 475 711 597 477 594
8 479 362 480 603 600 478 601 720
8 481 363 482 605 602 479 603 722
8 603 480 364 482 723 604 483 606
8 605 482 365 484 724 606 485 607
8 656 553 608 726 542 436 487 609
8 645 542 609 728 525 422 488 611
8 609 487 610 729 488 369 489 612
8 611 488 612 730 491 371 490 613
8 616 504 386 495 731 624 503 614
8 731 624 503 614 678 575 457 561
8 732 622 501 615 616 504 386 495
8 617 502 384 496 732 622 501 615
8 617 502 621 735 496 384 500 618
8 736 620 499 619 618 500 382 497
8 630 527 408 511 736 620 499 619
8 621 506 626 737 500 388 505 620
8 647 544 424 527 737 626 505 620
8 623 508 627 738 502 390 506 621
8 623 508 390 502 739 628 507 622
8 625 510 628 739 504 392 507 622
8 740 629 509 624 691 585 468 575
8 625 510 392 504 740 629 509 624
8 632 529 410 513 744 647 527 630
8 631 528 648 745 514 411 530 633
8 632 529 648 745 513 410 528 631
8 638 535 416 519 746 649 530 633
8 747 650 531 634 635 532 413 516
8 642 539 420 523 747 650 531 634
8 636 533 651 748 517 414 532 635
8 640 536 652 749 521 417 533 636
8 639 537 418 520 750 653 534 637
8 638 535 653 750 519 416 534 637
8 641 538 419 522 751 655 537 639
8 641 538 654 752 522 419 536 640
8 643 540 421 524 753 657 539 642
8 643 540 659 755 524 421 541 644
8 644 541 660 757 526 423 543 646
8 758 661 542 645 646 543 422 525
8 529 426 544 647 648 545 662 759
8 530 427 545 648 649 546 663 760
8 535 429 546 649 653 547 664 761
8 762 666 548 650 651 550 432 532
8 657 556 438 539 762 666 548 650
8 652 551 668 763 533 433 550 651
8 654 552 669 764 536 434 551 652
8 655 549 431 537 765 665 547 653
8 538 435 549 655 654 552 667 766
8 661 554 671 768 542 436 553 656
8 658 558 440 540 769 674 556 657
8 658 558 675 770 540 440 557 659
8 659 557 673 771 541 439 555 660
8 660 555 672 772 543 437 554 661
8 788 686 570 676 704 591 473 590
8 677 571 453 560 788 686 570 676
8 679 573 455 562 789 687 571 677
8 566 459 577 683 678 575 691 790
8 681 574 456 564 791 689 573 679
8 680 572 688 792 567 460 578 684
8 681 574 688 792 564 456 572 680
8 682 576 692 794 566 459 577 683
8 569 461 579 685 682 576 692 794
8 568 462 578 684 685 579 694 796
8 687 581 464 571 798 696 580 686
8 798 696 580 686 705 592 474 591
8 689 583 466 573 799 697 581 687
8 688 582 698 800 578 471 588 694
8 690 584 698 800 574 467 582 688
8 690 584 467 574 801 699 583 689
8 693 587 701 803 577 470 585 691
8 693 587 470 577 804 702 586 692
8 695 589 702 804 579 472 586 692
8 695 589 472 579 805 703 588 694
8 708 595 705 813 593 475 591 704
8 710 596 706 814 595 476 592 705
8 707 594 479 602 816 709 600 719
8 708 595 475 593 817 711 594 707
8 709 598 478 600 819 715 599 717
8 711 597 477 594 820 714 598 709
8 710 596 476 595 822 713 597 711
8 600 478 601 720 717 599 718 832
8 602 479 603 722 719 600 720 834
8 720 601 480 603 835 721 604 723
8 722 603 482 605 836 723 606 724
8 767 670 725 839 656 553 608 726
8 756 656 726 841 645 542 609 728
8 726 608 727 842 609 487 610 729
8 728 609 729 843 611 488 612 730
8 844 740 624 731 790 691 575 678
8 733 625 504 616 844 740 624 731
8 734 623 502 617 845 739 622 732
8 733 625 739 845 616 504 622 732
8 734 623 738 846 617 502 621 735
8 735 621 737 847 618 500 620 736
8 744 647 527 630 847 737 620 736
8 621 506 627 738 737 626 741 848
8 647 544 626 737 759 662 741 848
8 623 508 628 739 738 627 742 849
8 740 629 585 691 850 743 700 802
8 625 510 629 740 739 628 743 850
8 632 529 647 744 745 648 759 854
8 633 530 648 745 746 649 760 855
8 638 535 649 746 750 653 761 856
8 857 762 650 747 748 651 532 635
8 753 657 539 642 857 762 650 747
8 749 652 763 858 636 533 651 748
8 752 654 764 859 640 536 652 749
8 751 655 537 639 860 765 653 750
8 641 538 655 751 752 654 766 861
8 754 658 540 643 862 769 657 753
8 754 658 770 863 643 540 659 755
8 755 659 771 864 644 541 660 757
8 758 661 768 866 645 542 656 756
8 757 660 772 867 646 543 661 758
8 759 662 773 868 648 545 663 760
8 649 546 663 760 761 664 774 871
8 765 665 547 653 872 775 664 761
8 873 777 666 762 763 668 550 651
8 769 674 556 657 873 777 666 762
8 764 669 779 874 652 551 668 763
8 654 552 667 766 764 669 778 875
8 655 549 665 765 766 667 776 876
8 768 671 782 877 656 553 670 767
8 772 672 783 878 661 554 671 768
8 658 558 674 769 770 675 786 879
8 659 557 675 770 771 673 785 881
8 882 784 672 772 771 673 555 660
8 789 687 571 677 897 798 686 788
8 897 798 686 788 813 705 591 704
8 791 689 573 679 898 799 687 789
8 795 693 803 900 683 577 691 790
8 793 690 574 681 901 801 689 791
8 792 688 800 902 684 578 694 796
8 793 690 800 902 681 574 688 792
8 795 693 577 683 903 804 692 794
8 797 695 804 903 685 579 692 794
8 797 695 579 685 904 805 694 796
8 905 806 697 799 798 696 581 687
8 814 706 806 905 705 592 696 798
8 689 583 697 799 801 699 808 907
8 800 698 809 908 694 588 703 805
8 690 584 699 801 800 698 809 908
8 803 701 810 909 691 585 700 802
8 693 587 702 804 803 701 811 910
8 695 589 703 805 804 702 812 911
8 818 710 814 919 708 595 705 813
8 821 712 815 920 710 596 706 814
8 816 709 600 719 922 819 717 831
8 817 711 594 707 923 820 709 816
8 818 710 595 708 924 822 711 817
8 819 715 599 717 926 827 716 829
8 820 714 598 709 927 826 715 819
8 929 825 713 822 820 714 597 711
8 821 712 596 710 930 824 713 822
8 717 599 718 832 829 716 830 942
8 719 600 720 834 831 717 832 944
8 832 718 601 720 945 833 721 835
8 834 720 603 722 946 835 723 836
8 869 780 838 950 767 670 725 839
8 865 767 839 952 756 656 726 841
8 839 725 840 953 726 608 727 842
8 841 726 842 954 728 609 729 843
8 844 740 691 790 955 850 802 899
8 733 625 740 844 845 739 850 955
8 734 623 739 845 846 738 849 956
8 735 621 738 846 847 737 848 957
8 744 647 737 847 854 759 848 957
8 738 627 742 849 848 741 851 958
8 848 741 851 958 759 662 773 868
8 850 743 700 802 959 852 807 906
8 849 742 628 739 959 852 743 850
8 854 759 868 965 745 648 760 855
8 746 649 760 855 856 761 871 966
8 860 765 653 750 967 872 761 856
8 968 873 762 857 858 763 651 748
8 862 769 657 753 968 873 762 857
8 859 764 874 969 749 652 763 858
8 752 654 766 861 859 764 875 970
8 751 655 765 860 861 766 876 971
8 754 658 769 862 863 770 879 972
8 755 659 770 863 864 771 881 974
8 976 882 772 867 864 771 660 757
8 866 768 877 977 756 656 767 865
8 867 772 878 978 758 661 768 866
8 760 663 773 868 871 774 883 980
8 870 781 837 948 982 890 780 869
8 982 890 780 869 877 782 670 767
8 761 664 774 871 872 775 884 984
8 876 776 665 765 985 885 775 872
8 873 777 668 763 986 887 779 874
8 769 674 777 873 879 786 887 986
8 764 669 778 875 874 779 888 987
8 766 667 776 876 875 778 886 988
8 878 783 892 989 768 671 782 877
8 878 783 672 772 990 893 784 882
8 880 787 675 770 991 896 786 879
8 880 787 895 992 770 675 785 881
8 881 785 894 993 771 673 784 882
8 1006 905 799 898 897 798 687 789
8 919 814 905 1006 813 705 798 897
8 791 689 799 898 901 801 907 1007
8 900 803 909 1009 790 691 802 899
8 795 693 804 903 900 803 910 1010
8 902 800 908 1011 796 694 805 904
8 793 690 801 901 902 800 908 1011
8 797 695 805 904 903 804 911 1012
8 799 697 806 905 907 808 912 1013
8 920 815 912 1013 814 706 806 905
8 802 700 810 909 906 807 913 1014
8 801 699 808 907 908 809 914 1015
8 805 703 809 908 911 812 915 1016
8 803 701 811 910 909 810 916 1017
8 911 812 917 1018 804 702 811 910
8 925 821 920 1030 818 710 814 919
8 928 823 921 1031 821 712 815 920
8 922 819 717 831 1033 926 829 941
8 923 820 709 816 1034 927 819 922
8 1035 929 822 924 923 820 711 817
8 925 821 710 818 1036 930 822 924
8 1038 933 825 929 927 826 714 820
8 926 827 716 829 1039 935 828 939
8 927 826 715 819 1040 934 827 926
8 928 823 712 821 1041 931 824 930
8 1042 932 824 930 929 825 713 822
8 829 716 830 942 939 828 940 1058
8 831 717 832 944 941 829 942 1060
8 942 830 718 832 1061 943 833 945
8 944 832 720 834 1062 945 835 946
8 981 889 947 1064 870 781 837 948
8 948 837 949 1067 869 780 838 950
8 975 869 950 1069 865 767 839 952
8 950 838 951 1070 839 725 840 953
8 952 839 953 1071 841 726 842 954
8 955 850 802 899 1072 959 906 1008
8 956 849 739 845 1072 959 850 955
8 846 738 849 956 957 848 958 1073
8 957 848 958 1073 854 759 868 965
8 849 742 852 959 958 851 961 1076
8 960 853 961 1076 906 807 852 959
8 958 851 961 1076 868 773 883 980
8 960 853 807 906 1077 963 913 1014
8 855 760 868 965 966 871 980 1085
8 856 761 871 966 967 872 984 1086
8 971 876 765 860 1087 985 872 967
8 968 873 763 858 1088 986 874 969
8 862 769 873 968 972 879 986 1088
8 859 764 875 970 969 874 987 1089
8 861 766 876 971 970 875 988 1090
8 973 880 770 863 1091 991 879 972
8 973 880 992 1092 863 770 881 974
8 974 881 993 1093 864 771 882 976
8 979 870 948 1066 1094 982 869 975
8 1094 982 869 975 977 877 767 865
8 978 878 772 867 1095 990 882 976
8 978 878 989 1096 866 768 877 977
8 871 774 883 980 984 884 994 1099
8 983 891 999 1100 870 781 889 981
8 1101 1000 890 982 989 892 782 877
8 983 891 781 870 1101 1000 890 982
8 872 775 884 984 985 885 995 1103
8 876 776 885 985 988 886 996 1104
8 986 887 779 874 1105 998 888 987
8 879 786 887 986 991 896 998 1105
8 875 778 886 988 987 888 997 1106
8 990 893 1002 1107 878 783 892 989
8 1108 1003 893 990 993 894 784 882
8 880 787 896 991 992 895 1005 1109
8 993 894 785 881 1110 1004 895 992
8 898 799 905 1006 1007 907 1013 1120
8 1030 920 1013 1120 919 814 905 1006
8 901 801 907 1007 1011 908 1015 1121
8 899 802 909 1009 1008 906 1014 1122
8 900 803 910 1010 1009 909 1017 1123
8 1012 911 1018 1124 903 804 910 1010
8 904 805 908 1011 1012 911 1016 1125
8 1013 912 1020 1127 907 808 914 1015
8 1031 921 1020 1127 920 815 912 1013
8 1019 918 962 1075 1128 1021 913 1014
8 1128 1021 913 1014 1017 916 810 909
8 1015 914 1022 1129 908 809 915 1016
8 1016 915 1023 1130 911 812 917 1018
8 1018 917 1024 1131 910 811 916 1017
8 1037 928 1031 1148 925 821 920 1030
8 928 823 931 1041 1031 921 1032 1149
8 1033 926 829 941 1151 1039 939 1057
8 1034 927 819 922 1152 1040 926 1033
8 1153 1038 929 1035 1034 927 820 923
8 1154 1042 930 1036 1035 929 822 924
8 1037 928 821 925 1155 1041 930 1036
8 1039 935 828 939 1156 1047 938 1055
8 1157 1043 932 1042 1038 933 825 929
8 1038 933 826 927 1158 1045 934 1040
8 1040 934 827 926 1159 1046 935 1039
8 930 824 932 1042 1041 931 1044 1160
8 1051 936 1048 1165 1175 1052 937 1053
8 1156 1047 938 1055 1053 937 1054 1178
8 939 828 940 1058 1055 938 1056 1181
8 941 829 942 1060 1057 939 1058 1183
8 942 830 943 1061 1058 940 1059 1184
8 1060 942 832 944 1185 1061 945 1062
8 1082 964 1063 1188 981 889 947 1064
8 1097 981 1064 1190 979 870 948 1066
8 1064 947 1065 1191 948 837 949 1067
8 1066 948 1067 1193 975 869 950 1069
8 1067 949 1068 1194 950 838 951 1070
8 1069 950 1070 1195 952 839 953 1071
8 956 849 959 1072 1073 958 1076 1197
8 1074 960 1076 1197 1008 906 959 1072
8 1073 958 1076 1197 965 868 980 1085
8 1074 960 906 1008 1198 1077 1014 1122
8 1133 1026 1079 1199 1019 918 962 1075
8 1077 963 913 1014 1200 1080 962 1075
8 960 853 963 1077 1076 961 1078 1201
8 980 883 961 1076 1099 994 1078 1201
8 1210 1083 964 1082 1100 999 889 981
8 966 871 980 1085 1086 984 1099 1215
8 967 872 984 1086 1087 985 1103 1216
8 971 876 985 1087 1090 988 1104 1217
8 1088 986 874 969 1218 1105 987 1089
8 972 879 986 1088 1091 991 1105 1218
8 970 875 988 1090 1089 987 1106 1219
8 973 880 991 1091 1092 992 1109 1220
8 1093 993 881 974 1221 1110 992 1092
8 1222 1108 990 1095 1093 993 882 976
8 1223 1101 982 1094 1096 989 877 977
8 1098 983 870 979 1223 1101 982 1094
8 1095 990 1107 1224 978 878 989 1096
8 1098 983 1100 1225 979 870 981 1097
8 984 884 994 1099 1103 995 1111 1227
8 1102 1001 1115 1228 983 891 999 1100
8 1101 1000 892 989 1229 1116 1002 1107
8 1102 1001 891 983 1229 1116 1000 1101
8 985 885 995 1103 1104 996 1112 1230
8 988 886 996 1104 1106 997 1113 1231
8 1105 998 888 987 1232 1114 997 1106
8 991 896 998 1105 1109 1005 1114 1232
8 1108 1003 1117 1233 990 893 1002 1107
8 1108 1003 894 993 1233 1117 1004 1110
8 992 895 1005 1109 1110 1004 1118 1234
8 1120 1013 1127 1244 1007 907 1015 1121
8 1148 1031 1127 1244 1030 920 1013 1120
8 1121 1015 1129 1245 1011 908 1016 1125
8 1126 1019 1075 1196 1246 1128 1014 1122
8 1246 1128 1014 1122 1123 1017 909 1009
8 1124 1018 1131 1247 1010 910 1017 1123
8 1125 1016 1130 1248 1012 911 1018 1124
8 1127 1020 1137 1254 1015 914 1022 1129
8 1031 921 1032 1149 1127 1020 1137 1254
8 1134 1027 918 1019 1257 1140 1021 1128
8 1257 1140 1021 1128 1131 1024 916 1017
8 1129 1022 1141 1258 1016 915 1023 1130
8 1130 1023 1142 1259 1018 917 1024 1131
8 1261 1144 1025 1132 1133 1026 1079 1199
8 1255 1138 1025 1132 1135 1028 1144 1261
8 1133 1026 918 1019 1262 1145 1027 1134
8 1136 1029 1139 1256 1263 1146 1028 1135
8 1037 928 1041 1155 1148 1031 1149 1275
8 1041 931 1044 1160 1149 1032 1150 1276
8 1151 1039 939 1057 1278 1156 1055 1180
8 1152 1040 926 1033 1279 1159 1039 1151
8 1153 1038 927 1034 1280 1158 1040 1152
8 1281 1157 1042 1154 1153 1038 929 1035
8 1036 930 1042 1154 1155 1041 1160 1282
8 1283 1164 1046 1159 1156 1047 935 1039
8 1165 1048 1164 1283 1053 937 1047 1156
8 1157 1043 933 1038 1284 1161 1045 1158
8 1157 1043 1161 1284 1042 932 1044 1160
8 1040 934 1046 1159 1158 1045 1163 1285
8 1166 1049 1167 1292 1051 936 1048 1165
8 1166 1049 936 1051 1293 1168 1050 1172
8 1051 936 1052 1175 1172 1050 1173 1306
8 1174 1051 1165 1290 1308 1175 1053 1177
8 1053 937 1054 1178 1175 1052 1176 1309
8 1278 1156 1055 1180 1177 1053 1178 1311
8 1055 938 1056 1181 1178 1054 1179 1312
8 1057 939 1058 1183 1180 1055 1181 1314
8 1058 940 1059 1184 1181 1056 1182 1315
8 1060 942 1061 1185 1183 1058 1184 1316
8 1208 1081 1187 1321 1082 964 1063 1188
8 1209 1082 1188 1322 1097 981 1064 1190
8 1188 1063 1189 1323 1064 947 1065 1191
8 1190 1064 1191 1325 1066 948 1067 1193
8 1191 1065 1192 1326 1067 949 1068 1194
8 1067 1193 1069 950 1194 1327 1195 1070
8 1250 1133 1199 1330 1126 1019 1075 1196
8 1198 1077 1014 1122 1331 1200 1075 1196
8 1074 960 1077 1198 1197 1076 1201 1332
8 1085 980 1076 1197 1215 1099 1201 1332
8 1199 1079 1203 1333 1075 962 1080 1200
8 1132 1025 1119 1243 1199 1079 1203 1333
8 1201 1078 963 1077 1334 1202 1080 1200
8 1099 994 1078 1201 1227 1111 1202 1334
8 1343 1207 1081 1208 1210 1083 964 1082
8 1214 1084 1186 1319 1343 1207 1081 1208
8 1345 1210 1082 1209 1225 1100 981 1097
8 1346 1211 1083 1210 1228 1115 999 1100
8 1086 984 1099 1215 1216 1103 1227 1352
8 1087 985 1103 1216 1217 1104 1230 1353
8 1090 988 1104 1217 1219 1106 1231 1354
8 1218 1105 987 1089 1355 1232 1106 1219
8 1091 991 1105 1218 1220 1109 1232 1355
8 1092 992 1109 1220 1221 1110 1234 1356
8 1222 1108 1233 1357 1095 990 1107 1224
8 1222 1108 993 1093 1357 1233 1110 1221
8 1223 1101 989 1096 1358 1229 1107 1224
8 1226 1102 983 1098 1358 1229 1101 1223
8 1226 1102 1228 1359 1098 983 1100 1225
8 1103 995 1111 1227 1230 1112 1235 1360
8 1107 1002 1117 1233 1229 1116 1240 1362
8 1102 1001 1116 1229 1228 1115 1240 1362
8 1104 996 1112 1230 1231 1113 1236 1363
8 1364 1237 1114 1232 1231 1113 997 1106
8 1109 1005 1114 1232 1234 1118 1238 1365
8 1110 1004 1118 1234 1233 1117 1241 1366
8 1242 1374 1255 1138 1119 1243 1132 1025
8 1244 1127 1254 1376 1121 1015 1129 1245
8 1148 1031 1149 1275 1244 1127 1254 1376
8 1245 1129 1258 1377 1125 1016 1130 1248
8 1251 1134 1019 1126 1378 1257 1128 1246
8 1378 1257 1128 1246 1247 1131 1017 1123
8 1248 1130 1259 1379 1124 1018 1131 1247
8 1261 1381 1250 1133 1132 1249 1330 1199
8 1255 1380 1252 1135 1132 1249 1381 1261
8 1250 1133 1019 1126 1382 1262 1134 1251
8 1253 1136 1256 1385 1384 1263 1135 1252
8 1254 1137 1265 1387 1129 1022 1141 1258
8 1149 1032 1150 1276 1254 1137 1265 1387
8 1028 1135 1255 1138 1139 1256 1388 1266
8 1136 1029 1147 1264 1256 1139 1267 1389
8 1390 1268 1140 1257 1259 1142 1024 1131
8 1260 1143 1027 1134 1390 1268 1140 1257
8 1258 1141 1269 1391 1130 1023 1142 1259
8 1262 1145 1027 1134 1393 1271 1143 1260
8 1261 1144 1026 1133 1394 1272 1145 1262
8 1135 1028 1144 1261 1263 1146 1272 1394
8 1136 1029 1146 1263 1264 1147 1273 1395
8 1155 1041 1160 1282 1275 1149 1276 1405
8 1276 1150 1044 1160 1406 1277 1162 1286
8 1408 1283 1159 1279 1278 1156 1039 1151
8 1290 1165 1283 1408 1177 1053 1156 1278
8 1152 1040 1159 1279 1280 1158 1285 1409
8 1281 1157 1038 1153 1410 1284 1158 1280
8 1281 1157 1284 1410 1154 1042 1160 1282
8 1159 1046 1164 1283 1285 1163 1289 1412
8 1292 1167 1289 1412 1165 1048 1164 1283
8 1158 1045 1163 1285 1284 1161 1288 1413
8 1284 1161 1288 1413 1160 1044 1162 1286
8 1291 1166 1292 1418 1174 1051 1165 1290
8 1291 1166 1051 1174 1419 1293 1172 1305
8 1294 1169 1296 1421 1166 1049 1167 1292
8 1293 1168 1050 1172 1422 1295 1171 1303
8 1294 1169 1049 1166 1423 1297 1168 1293
8 1422 1295 1171 1303 1301 1170 1302 1435
8 1172 1050 1173 1306 1303 1171 1304 1438
8 1174 1051 1175 1308 1305 1172 1306 1440
8 1175 1052 1176 1309 1306 1173 1307 1441
8 1177 1053 1178 1311 1308 1175 1309 1443
8 1178 1054 1179 1312 1309 1176 1310 1444
8 1180 1055 1181 1314 1311 1178 1312 1446
8 1056 1181 1312 1179 1182 1315 1447 1313
8 1183 1058 1184 1316 1314 1181 1315 1448
8 1319 1186 1084 1214 1451 1317 1213 1350
8 1319 1186 1318 1453 1208 1081 1187 1321
8 1321 1187 1320 1456 1188 1063 1189 1323
8 1344 1208 1321 1457 1209 1082 1188 1322
8 1322 1188 1323 1458 1190 1064 1191 1325
8 1323 1189 1324 1459 1191 1065 1192 1326
8 1191 1325 1193 1067 1326 1460 1327 1194
8 1242 1374 1243 1119 1328 1462 1335 1204
8 1330 1199 1333 1465 1196 1075 1200 1331
8 1132 1249 1330 1199 1243 1375 1465 1333
8 1332 1201 1077 1198 1466 1334 1200 1331
8 1215 1099 1201 1332 1352 1227 1334 1466
8 1119 1243 1333 1203 1204 1335 1470 1338
8 1333 1203 1338 1470 1200 1080 1202 1334
8 1227 1111 1202 1334 1360 1235 1338 1470
8 1328 1462 1335 1204 1205 1336 1471 1339
8 1337 1206 1340 1472 1464 1329 1205 1336
8 1346 1211 1342 1479 1210 1083 1207 1343
8 1346 1211 1115 1228 1479 1342 1239 1361
8 1348 1212 1084 1214 1479 1342 1207 1343
8 1480 1343 1208 1344 1345 1210 1082 1209
8 1351 1214 1319 1454 1480 1343 1208 1344
8 1481 1346 1210 1345 1359 1228 1100 1225
8 1348 1212 1347 1483 1214 1084 1213 1350
8 1216 1103 1227 1352 1353 1230 1360 1488
8 1217 1104 1230 1353 1354 1231 1363 1489
8 1490 1364 1232 1355 1354 1231 1106 1219
8 1220 1109 1232 1355 1356 1234 1365 1491
8 1221 1110 1234 1356 1357 1233 1366 1492
8 1224 1107 1233 1357 1358 1229 1362 1493
8 1226 1102 1229 1358 1359 1228 1362 1493
8 1230 1112 1235 1360 1363 1236 1367 1496
8 1361 1239 1115 1228 1497 1371 1240 1362
8 1366 1241 1372 1498 1233 1117 1240 1362
8 1364 1237 1113 1231 1499 1368 1236 1363
8 1364 1237 1368 1499 1232 1114 1238 1365
8 1234 1118 1238 1365 1366 1241 1369 1500
8 1507 1373 1242 1374 1388 1266 1138 1255
8 1508 1374 1243 1375 1380 1255 1132 1249
8 1376 1254 1387 1509 1245 1129 1258 1377
8 1275 1149 1276 1405 1376 1254 1387 1509
8 1377 1258 1391 1510 1248 1130 1259 1379
8 1511 1390 1257 1378 1379 1259 1131 1247
8 1383 1260 1134 1251 1511 1390 1257 1378
8 1252 1135 1256 1385 1380 1255 1388 1512
8 1261 1381 1513 1394 1133 1250 1382 1262
8 1135 1252 1384 1263 1261 1381 1513 1394
8 1382 1262 1134 1251 1514 1393 1260 1383
8 1253 1136 1263 1384 1386 1264 1395 1516
8 1253 1136 1264 1386 1385 1256 1389 1517
8 1387 1265 1397 1519 1258 1141 1269 1391
8 1276 1150 1277 1406 1387 1265 1397 1519
8 1256 1139 1267 1389 1388 1266 1398 1520
8 1264 1147 1274 1396 1389 1267 1399 1521
8 1392 1270 1143 1260 1522 1400 1268 1390
8 1390 1268 1142 1259 1522 1400 1269 1391
8 1392 1270 1401 1523 1260 1143 1271 1393
8 1272 1394 1524 1402 1145 1262 1393 1271
8 1395 1273 1146 1263 1524 1402 1272 1394
8 1273 1395 1264 1147 1403 1526 1396 1274
8 1405 1276 1160 1282 1534 1406 1286 1411
8 1414 1287 1407 1535 1286 1162 1277 1406
8 1279 1159 1283 1408 1409 1285 1412 1537
8 1418 1292 1412 1537 1290 1165 1283 1408
8 1280 1158 1285 1409 1410 1284 1413 1538
8 1410 1284 1413 1538 1282 1160 1286 1411
8 1285 1163 1289 1412 1413 1288 1417 1540
8 1421 1296 1417 1540 1292 1167 1289 1412
8 1414 1287 1162 1286 1541 1416 1288 1413
8 1420 1294 1421 1545 1291 1166 1292 1418
8 1419 1293 1172 1305 1546 1422 1303 1437
8 1420 1294 1166 1291 1547 1423 1293 1419
8 1294 1169 1297 1423 1421 1296 1425 1548
8 1423 1297 1168 1293 1549 1424 1295 1422
8 1301 1170 1298 1427 1422 1295 1424 1549
8 1432 1300 1428 1554 1301 1170 1298 1427
8 1431 1299 1428 1554 1560 1430 1300 1432
8 1563 1433 1300 1432 1435 1302 1170 1301
8 1546 1422 1303 1437 1434 1301 1435 1565
8 1303 1171 1304 1438 1435 1302 1436 1566
8 1305 1172 1306 1440 1437 1303 1438 1568
8 1306 1173 1307 1441 1438 1304 1439 1569
8 1308 1175 1309 1443 1440 1306 1441 1571
8 1309 1176 1310 1444 1441 1307 1442 1572
8 1311 1178 1312 1446 1443 1309 1444 1574
8 1179 1312 1444 1310 1313 1447 1575 1445
8 1314 1181 1315 1448 1446 1312 1447 1576
8 1350 1213 1349 1486 1451 1317 1449 1579
8 1451 1317 1450 1581 1319 1186 1318 1453
8 1454 1319 1214 1351 1582 1451 1350 1487
8 1453 1318 1452 1584 1321 1187 1320 1456
8 1454 1319 1453 1585 1344 1208 1321 1457
8 1456 1320 1455 1586 1323 1189 1324 1459
8 1457 1321 1456 1587 1322 1188 1323 1458
8 1458 1323 1459 1588 1325 1191 1326 1460
8 1205 1336 1464 1329 1328 1462 1590 1461
8 1507 1373 1461 1590 1374 1242 1328 1462
8 1508 1374 1462 1591 1375 1243 1335 1467
8 1337 1206 1329 1464 1473 1341 1463 1594
8 1375 1243 1335 1467 1465 1333 1470 1596
8 1465 1333 1470 1596 1331 1200 1334 1466
8 1352 1227 1334 1466 1488 1360 1470 1596
8 1591 1462 1336 1468 1467 1335 1471 1597
8 1469 1337 1472 1598 1595 1464 1336 1468
8 1471 1339 1474 1600 1335 1204 1338 1470
8 1600 1474 1367 1496 1470 1338 1235 1360
8 1336 1205 1340 1472 1471 1339 1475 1601
8 1337 1206 1341 1473 1472 1340 1476 1602
8 1495 1370 1478 1609 1361 1239 1342 1479
8 1348 1212 1342 1479 1483 1347 1478 1609
8 1481 1346 1479 1610 1345 1210 1343 1480
8 1481 1346 1228 1359 1610 1479 1361 1494
8 1484 1348 1214 1351 1610 1479 1343 1480
8 1483 1347 1482 1612 1350 1213 1349 1486
8 1484 1348 1483 1613 1351 1214 1350 1487
8 1353 1230 1360 1488 1489 1363 1496 1616
8 1490 1364 1231 1354 1617 1499 1363 1489
8 1490 1364 1499 1617 1355 1232 1365 1491
8 1356 1234 1365 1491 1492 1366 1500 1619
8 1492 1366 1498 1620 1357 1233 1362 1493
8 1494 1361 1228 1359 1621 1497 1362 1493
8 1495 1370 1239 1361 1622 1504 1371 1497
8 1363 1236 1367 1496 1499 1368 1501 1623
8 1497 1371 1240 1362 1624 1505 1372 1498
8 1625 1503 1372 1498 1500 1369 1241 1366
8 1365 1238 1368 1499 1500 1369 1502 1626
8 1520 1398 1506 1633 1388 1266 1373 1507
8 1634 1507 1374 1508 1512 1388 1255 1380
8 1509 1387 1519 1635 1377 1258 1391 1510
8 1405 1276 1406 1534 1509 1387 1519 1635
8 1515 1392 1260 1383 1636 1522 1390 1511
8 1511 1390 1259 1379 1636 1522 1391 1510
8 1385 1256 1389 1517 1512 1388 1520 1637
8 1513 1394 1262 1382 1638 1524 1393 1514
8 1395 1516 1638 1524 1263 1384 1513 1394
8 1515 1392 1523 1639 1383 1260 1393 1514
8 1516 1395 1526 1640 1386 1264 1396 1518
8 1386 1264 1396 1518 1517 1389 1521 1641
8 1519 1397 1527 1643 1391 1269 1400 1522
8 1535 1407 1527 1643 1406 1277 1397 1519
8 1389 1267 1399 1521 1520 1398 1528 1644
8 1645 1529 1399 1521 1525 1404 1274 1396
8 1392 1270 1400 1522 1523 1401 1531 1646
8 1524 1402 1271 1393 1648 1532 1401 1523
8 1403 1526 1648 1532 1273 1395 1524 1402
8 1525 1404 1274 1396 1649 1533 1403 1526
8 1539 1414 1535 1657 1411 1286 1406 1534
8 1542 1415 1536 1658 1414 1287 1407 1535
8 1409 1285 1412 1537 1538 1413 1540 1660
8 1545 1421 1540 1660 1418 1292 1412 1537
8 1539 1414 1286 1411 1661 1541 1413 1538
8 1540 1417 1544 1663 1413 1288 1416 1541
8 1421 1296 1425 1548 1540 1417 1544 1663
8 1542 1415 1287 1414 1664 1543 1416 1541
8 1420 1294 1423 1547 1545 1421 1548 1666
8 1547 1423 1293 1419 1667 1549 1422 1546
8 1434 1301 1427 1553 1546 1422 1549 1667
8 1423 1297 1424 1549 1548 1425 1550 1668
8 1551 1426 1550 1668 1427 1298 1424 1549
8 1551 1426 1298 1427 1671 1552 1428 1554
8 1562 1432 1554 1674 1434 1301 1427 1553
8 1431 1299 1429 1558 1554 1428 1555 1675
8 1431 1299 1430 1560 1558 1429 1557 1680
8 1560 1430 1300 1432 1683 1559 1433 1563
8 1561 1431 1554 1674 1684 1560 1432 1562
8 1685 1563 1432 1562 1565 1435 1301 1434
8 1435 1302 1436 1566 1563 1433 1564 1686
8 1437 1303 1438 1568 1565 1435 1566 1688
8 1438 1304 1439 1569 1566 1436 1567 1689
8 1440 1306 1441 1571 1568 1438 1569 1691
8 1441 1307 1442 1572 1569 1439 1570 1692
8 1443 1309 1444 1574 1571 1441 1572 1694
8 1310 1444 1572 1442 1445 1575 1695 1573
8 1446 1312 1447 1576 1574 1444 1575 1696
8 1486 1349 1485 1614 1579 1449 1577 1699
8 1451 1317 1449 1579 1581 1450 1578 1701
8 1487 1350 1486 1615 1582 1451 1579 1702
8 1581 1450 1580 1704 1453 1318 1452 1584
8 1582 1451 1581 1705 1454 1319 1453 1585
8 1584 1452 1583 1706 1456 1320 1455 1586
8 1585 1453 1584 1707 1457 1321 1456 1587
8 1587 1456 1586 1708 1458 1323 1459 1588
8 1633 1506 1589 1710 1507 1373 1461 1590
8 1464 1329 1461 1590 1594 1463 1589 1710
8 1468 1336 1462 1591 1595 1464 1590 1711
8 1634 1507 1590 1711 1508 1374 1462 1591
8 1473 1341 1463 1594 1603 1477 1593 1716
8 1469 1337 1464 1595 1599 1473 1594 1717
8 1471 1597 1467 1335 1600 1718 1596 1470
8 1718 1600 1496 1616 1596 1470 1360 1488
8 1336 1468 1597 1471 1472 1598 1719 1601
8 1469 1337 1473 1599 1598 1472 1602 1720
8 1722 1604 1501 1623 1600 1474 1367 1496
8 1475 1601 1471 1339 1604 1722 1600 1474
8 1602 1476 1605 1723 1472 1340 1475 1601
8 1476 1602 1724 1606 1341 1473 1603 1477
8 1483 1347 1478 1609 1612 1482 1608 1731
8 1495 1370 1504 1622 1609 1478 1608 1731
8 1618 1495 1609 1732 1494 1361 1479 1610
8 1484 1348 1479 1610 1613 1483 1609 1732
8 1486 1349 1482 1612 1614 1485 1611 1733
8 1613 1483 1612 1734 1487 1350 1486 1615
8 1489 1363 1496 1616 1617 1499 1623 1736
8 1491 1365 1499 1617 1619 1500 1626 1737
8 1618 1495 1361 1494 1738 1622 1497 1621
8 1739 1625 1498 1620 1619 1500 1366 1492
8 1621 1497 1362 1493 1740 1624 1498 1620
8 1742 1631 1504 1622 1624 1505 1371 1497
8 1743 1628 1502 1626 1623 1501 1368 1499
8 1744 1630 1505 1624 1625 1503 1372 1498
8 1745 1629 1503 1625 1626 1502 1369 1500
8 1520 1398 1528 1644 1633 1506 1632 1751
8 1637 1520 1633 1752 1512 1388 1507 1634
8 1635 1519 1643 1753 1510 1391 1522 1636
8 1657 1535 1643 1753 1534 1406 1519 1635
8 1515 1392 1522 1636 1639 1523 1646 1754
8 1517 1389 1521 1641 1637 1520 1644 1755
8 1524 1638 1756 1648 1393 1514 1639 1523
8 1640 1526 1395 1516 1756 1648 1524 1638
8 1642 1525 1396 1518 1757 1649 1526 1640
8 1758 1645 1521 1641 1642 1525 1396 1518
8 1646 1531 1400 1522 1760 1650 1527 1643
8 1535 1407 1536 1658 1643 1527 1650 1760
8 1521 1399 1529 1645 1644 1528 1651 1761
8 1647 1530 1652 1762 1525 1404 1529 1645
8 1401 1523 1648 1532 1531 1646 1763 1655
8 1525 1404 1533 1649 1647 1530 1654 1765
8 1533 1649 1766 1656 1403 1526 1648 1532
8 1662 1542 1658 1774 1539 1414 1535 1657
8 1542 1415 1543 1664 1658 1536 1659 1775
8 1660 1540 1663 1777 1538 1413 1541 1661
8 1545 1421 1548 1666 1660 1540 1663 1777
8 1662 1542 1414 1539 1778 1664 1541 1661
8 1664 1543 1416 1541 1779 1665 1544 1663
8 1548 1425 1550 1668 1663 1544 1665 1779
8 1547 1423 1549 1667 1666 1548 1668 1781
8 1670 1551 1668 1781 1553 1427 1549 1667
8 1551 1426 1552 1671 1668 1550 1669 1782
8 1670 1551 1427 1553 1784 1671 1554 1674
8 1675 1555 1672 1785 1554 1428 1552 1671
8 1678 1556 1673 1789 1558 1429 1555 1675
8 1561 1431 1558 1681 1674 1554 1675 1790
8 1794 1677 1556 1678 1680 1557 1429 1558
8 1560 1430 1559 1683 1680 1557 1679 1797
8 1561 1431 1560 1684 1681 1558 1680 1798
8 1563 1433 1564 1686 1683 1559 1682 1800
8 1684 1560 1432 1562 1801 1683 1563 1685
8 1565 1435 1566 1688 1685 1563 1686 1802
8 1566 1436 1567 1689 1686 1564 1687 1803
8 1568 1438 1569 1691 1688 1566 1689 1805
8 1569 1439 1570 1692 1689 1567 1690 1806
8 1571 1441 1572 1694 1691 1569 1692 1808
8 1442 1572 1692 1570 1573 1695 1809 1693
8 1574 1444 1575 1696 1694 1572 1695 1810
8 1614 1485 1592 1712 1699 1577 1697 1813
8 1579 1449 1577 1699 1701 1578 1698 1815
8 1615 1486 1614 1735 1702 1579 1699 1816
8 1701 1578 1700 1818 1581 1450 1580 1704
8 1582 1451 1579 1702 1705 1581 1701 1819
8 1704 1580 1703 1820 1584 1452 1583 1706
8 1705 1581 1704 1821 1585 1453 1584 1707
8 1707 1584 1706 1822 1587 1456 1586 1708
8 1710 1589 1506 1633 1824 1709 1632 1751
8 1594 1463 1589 1710 1716 1593 1709 1824
8 1752 1633 1710 1825 1634 1507 1590 1711
8 1595 1464 1590 1711 1717 1594 1710 1825
8 1830 1714 1592 1712 1733 1611 1485 1614
8 1603 1477 1593 1716 1725 1607 1715 1834
8 1599 1473 1594 1717 1721 1603 1716 1835
8 1837 1722 1623 1736 1718 1600 1496 1616
8 1719 1601 1722 1837 1597 1471 1600 1718
8 1602 1720 1598 1472 1723 1838 1719 1601
8 1720 1602 1473 1599 1839 1724 1603 1721
8 1723 1605 1726 1840 1601 1475 1604 1722
8 1840 1726 1628 1743 1722 1604 1501 1623
8 1724 1606 1727 1841 1602 1476 1605 1723
8 1725 1607 1728 1842 1603 1477 1606 1724
8 1612 1482 1608 1731 1733 1611 1730 1849
8 1741 1627 1730 1849 1622 1504 1608 1731
8 1613 1483 1609 1732 1734 1612 1731 1850
8 1618 1495 1622 1738 1732 1609 1731 1850
8 1615 1486 1612 1734 1735 1614 1733 1851
8 1852 1743 1626 1737 1736 1623 1499 1617
8 1853 1745 1625 1739 1737 1626 1500 1619
8 1855 1742 1622 1738 1740 1624 1497 1621
8 1856 1744 1624 1740 1739 1625 1498 1620
8 1741 1627 1504 1622 1857 1746 1631 1742
8 1742 1631 1505 1624 1858 1749 1630 1744
8 1859 1747 1629 1745 1743 1628 1502 1626
8 1860 1748 1630 1744 1745 1629 1503 1625
8 1644 1528 1651 1761 1751 1632 1750 1865
8 1637 1520 1644 1755 1752 1633 1751 1866
8 1754 1646 1522 1636 1867 1760 1643 1753
8 1657 1535 1658 1774 1753 1643 1760 1867
8 1639 1523 1646 1754 1756 1648 1763 1868
8 1641 1521 1645 1758 1755 1644 1761 1869
8 1757 1649 1526 1640 1870 1766 1648 1756
8 1642 1525 1649 1757 1759 1647 1765 1871
8 1759 1647 1762 1872 1642 1525 1645 1758
8 1760 1650 1767 1874 1646 1531 1655 1763
8 1658 1536 1659 1775 1760 1650 1767 1874
8 1762 1652 1768 1875 1645 1529 1651 1761
8 1764 1653 1769 1876 1647 1530 1652 1762
8 1656 1766 1877 1773 1532 1648 1763 1655
8 1771 1879 1765 1654 1653 1764 1647 1530
8 1533 1649 1765 1654 1656 1766 1880 1772
8 1662 1542 1664 1778 1774 1658 1775 1887
8 1664 1543 1665 1779 1775 1659 1776 1888
8 1778 1664 1541 1661 1890 1779 1663 1777
8 1666 1548 1668 1781 1777 1663 1779 1890
8 1782 1669 1780 1891 1668 1550 1665 1779
8 1670 1551 1671 1784 1781 1668 1782 1893
8 1671 1552 1672 1785 1782 1669 1783 1894
8 1790 1675 1785 1896 1674 1554 1671 1784
8 1675 1555 1673 1789 1785 1672 1786 1897
8 1792 1676 1788 1903 1678 1556 1673 1789
8 1795 1678 1789 1904 1681 1558 1675 1790
8 1792 1676 1556 1678 1906 1791 1677 1794
8 1680 1557 1679 1797 1794 1677 1793 1909
8 1910 1794 1678 1795 1798 1680 1558 1681
8 1683 1559 1682 1800 1797 1679 1796 1912
8 1684 1560 1683 1801 1798 1680 1797 1913
8 1686 1564 1687 1803 1800 1682 1799 1915
8 1685 1563 1686 1802 1801 1683 1800 1916
8 1688 1566 1689 1805 1802 1686 1803 1917
8 1689 1567 1690 1806 1803 1687 1804 1918
8 1691 1569 1692 1808 1805 1689 1806 1920
8 1692 1570 1693 1809 1806 1690 1807 1921
8 1694 1572 1695 1810 1808 1692 1809 1922
8 1829 1713 1811 1926 1712 1592 1697 1813
8 1813 1697 1812 1928 1699 1577 1698 1815
8 1735 1614 1712 1828 1816 1699 1813 1929
8 1815 1698 1814 1931 1701 1578 1700 1818
8 1702 1579 1699 1816 1819 1701 1815 1932
8 1818 1700 1817 1933 1704 1580 1703 1820
8 1819 1701 1818 1934 1705 1581 1704 1821
8 1821 1704 1820 1935 1707 1584 1706 1822
8 1824 1709 1632 1751 1937 1823 1750 1865
8 1716 1593 1709 1824 1834 1715 1823 1937
8 1825 1710 1633 1752 1938 1824 1751 1866
8 1717 1594 1710 1825 1835 1716 1824 1938
8 1945 1830 1712 1828 1851 1733 1614 1735
8 1830 1714 1831 1946 1712 1592 1713 1829
8 1947 1832 1714 1830 1849 1730 1611 1733
8 1843 1729 1607 1725 1950 1833 1715 1834
8 1721 1603 1716 1835 1836 1725 1834 1951
8 1836 1725 1842 1953 1721 1603 1724 1839
8 1723 1838 1719 1601 1840 1954 1837 1722
8 1954 1840 1743 1852 1837 1722 1623 1736
8 1724 1839 1720 1602 1841 1955 1838 1723
8 1841 1727 1844 1956 1723 1605 1726 1840
8 1956 1844 1747 1859 1840 1726 1628 1743
8 1728 1842 1724 1606 1845 1957 1841 1727
8 1725 1607 1729 1843 1842 1728 1846 1958
8 1741 1627 1746 1857 1849 1730 1848 1965
8 1734 1612 1731 1850 1851 1733 1849 1966
8 1854 1741 1849 1966 1738 1622 1731 1850
8 1967 1859 1745 1853 1852 1743 1626 1737
8 1968 1860 1744 1856 1853 1745 1625 1739
8 1854 1741 1622 1738 1969 1857 1742 1855
8 1855 1742 1624 1740 1970 1858 1744 1856
8 1857 1746 1631 1742 1971 1861 1749 1858
8 1858 1749 1630 1744 1972 1863 1748 1860
8 1859 1747 1862 1973 1745 1629 1748 1860
8 1875 1768 1864 1977 1761 1651 1750 1865
8 1755 1644 1761 1869 1866 1751 1865 1978
8 1867 1760 1874 1979 1754 1646 1763 1868
8 1774 1658 1775 1887 1867 1760 1874 1979
8 1870 1766 1648 1756 1980 1877 1763 1868
8 1872 1762 1875 1981 1758 1645 1761 1869
8 1757 1649 1766 1870 1871 1765 1880 1982
8 1983 1879 1764 1873 1871 1765 1647 1759
8 1873 1764 1876 1984 1759 1647 1762 1872
8 1877 1773 1655 1763 1986 1881 1767 1874
8 1775 1659 1776 1888 1874 1767 1881 1986
8 1876 1769 1882 1987 1762 1652 1768 1875
8 1878 1770 1883 1988 1764 1653 1769 1876
8 1880 1772 1656 1766 1989 1886 1773 1877
8 1878 1770 1653 1764 1990 1884 1771 1879
8 1765 1654 1772 1880 1879 1771 1885 1991
8 1778 1664 1779 1890 1887 1775 1888 1997
8 1998 1889 1776 1888 1891 1780 1665 1779
8 1893 1782 1891 2000 1781 1668 1779 1890
8 1894 1783 1892 2001 1782 1669 1780 1891
8 1784 1671 1785 1896 1893 1782 1894 2003
8 1897 1786 1895 2004 1785 1672 1783 1894
8 1790 1675 1789 1904 1896 1785 1897 2006
8 1901 1787 1898 2007 1789 1673 1786 1897
8 1903 1788 1900 2013 1789 1673 1787 1901
8 1792 1676 1791 1906 1903 1788 1902 2016
8 1907 1792 1903 2017 1795 1678 1789 1904
8 1906 1791 1677 1794 2019 1905 1793 1909
8 1907 1792 1678 1795 2020 1906 1794 1910
8 1797 1679 1796 1912 1909 1793 1908 2022
8 1798 1680 1797 1913 1910 1794 1909 2023
8 1800 1682 1799 1915 1912 1796 1911 2025
8 1801 1683 1800 1916 1913 1797 1912 2026
8 1803 1687 1804 1918 1915 1799 1914 2028
8 1802 1686 1803 1917 1916 1800 1915 2029
8 1805 1689 1806 1920 1917 1803 1918 2030
8 1806 1690 1807 1921 1918 1804 1919 2031
8 1808 1692 1809 1922 1920 1806 1921 2032
8 1939 1826 1924 2037 1829 1713 1811 1926
8 1926 1811 1925 2039 1813 1697 1812 1928
8 1944 1829 1926 2040 1828 1712 1813 1929
8 1928 1812 1927 2042 1815 1698 1814 1931
8 1929 1813 1928 2043 1816 1699 1815 1932
8 1931 1814 1930 2044 1818 1700 1817 1933
8 1932 1815 1931 2045 1819 1701 1818 1934
8 1934 1818 1933 2046 1821 1704 1820 1935
8 2048 1936 1823 1937 1977 1864 1750 1865
8 1950 1833 1715 1834 2048 1936 1823 1937
8 1938 1824 1751 1866 2049 1937 1865 1978
8 1835 1716 1824 1938 1951 1834 1937 2049
8 1939 1826 1713 1829 2053 1942 1831 1946
8 1940 1827 1923 2035 2053 1942 1826 1939
8 1945 1830 1946 2058 1828 1712 1829 1944
8 2059 1947 1830 1945 1966 1849 1733 1851
8 1947 1832 1730 1849 2060 1948 1848 1965
8 1947 1832 1948 2060 1830 1714 1831 1946
8 1959 1847 1729 1843 2063 1949 1833 1950
8 1952 1843 1725 1836 2064 1950 1834 1951
8 1836 1725 1843 1952 1953 1842 1958 2066
8 1953 1842 1957 2067 1839 1724 1841 1955
8 1841 1955 1838 1723 1956 2068 1954 1840
8 2068 1956 1859 1967 1954 1840 1743 1852
8 1956 1844 1960 2069 1859 1747 1862 1973
8 1845 1957 1841 1727 1960 2069 1956 1844
8 1728 1842 1957 1845 1846 1958 2071 1961
8 1962 2072 1959 1847 1846 1958 1843 1729
8 1971 1861 1964 2077 1857 1746 1848 1965
8 1854 1741 1857 1969 1966 1849 1965 2078
8 1967 1859 1973 2079 1853 1745 1860 1968
8 1970 1858 1744 1856 2080 1972 1860 1968
8 1969 1857 1742 1855 2081 1971 1858 1970
8 1971 1861 1749 1858 2082 1974 1863 1972
8 1973 1862 1975 2083 1860 1748 1863 1972
8 1987 1882 1976 2086 1875 1768 1864 1977
8 1981 1875 1977 2087 1869 1761 1865 1978
8 1980 1877 1763 1868 2088 1986 1874 1979
8 1887 1775 1888 1997 1979 1874 1986 2088
8 1880 1982 2089 1989 1766 1870 1980 1877
8 1984 1876 1987 2090 1872 1762 1875 1981
8 1765 1871 1983 1879 1880 1982 2091 1991
8 1985 1878 1764 1873 2092 1990 1879 1983
8 1985 1878 1988 2093 1873 1764 1876 1984
8 2094 1992 1881 1986 1998 1889 1776 1888
8 1986 1881 1992 2094 1877 1773 1886 1989
8 1988 1883 1993 2095 1876 1769 1882 1987
8 1878 1770 1884 1990 1988 1883 1994 2096
8 1991 1885 1772 1880 2097 1996 1886 1989
8 1879 1771 1885 1991 1990 1884 1995 2098
8 2103 1998 1888 1997 2000 1891 1779 1890
8 2104 1999 1889 1998 2001 1892 1780 1891
8 2003 1894 2001 2106 1893 1782 1891 2000
8 2004 1895 2002 2107 1894 1783 1892 2001
8 2006 1897 2004 2109 1896 1785 1894 2003
8 2007 1898 2005 2110 1897 1786 1895 2004
8 2014 1901 2007 2112 1904 1789 1897 2006
8 2011 1899 2008 2113 1901 1787 1898 2007
8 2119 2010 1899 2011 2013 1900 1787 1901
8 2016 1902 2012 2122 1903 1788 1900 2013
8 2017 1903 2013 2123 1904 1789 1901 2014
8 1906 1791 1905 2019 2016 1902 2015 2125
8 1907 1792 1906 2020 2017 1903 2016 2126
8 1909 1793 1908 2022 2019 1905 2018 2128
8 2020 1906 1794 1910 2129 2019 1909 2023
8 1912 1796 1911 2025 2022 1908 2021 2131
8 1913 1797 1912 2026 2023 1909 2022 2132
8 1915 1799 1914 2028 2025 1911 2024 2134
8 1916 1800 1915 2029 2026 1912 2025 2135
8 1918 1804 1919 2031 2028 1914 2027 2136
8 1917 1803 1918 2030 2029 1915 2028 2137
8 1920 1806 1921 2032 2030 1918 2031 2138
8 1940 1827 1941 2054 2035 1923 2033 2140
8 2035 1923 2034 2143 1939 1826 1924 2037
8 2037 1924 2036 2146 1926 1811 1925 2039
8 2051 1939 2037 2147 1944 1829 1926 2040
8 2039 1925 2038 2149 1928 1812 1927 2042
8 2040 1926 2039 2150 1929 1813 1928 2043
8 2042 1927 2041 2151 1931 1814 1930 2044
8 2043 1928 2042 2152 1932 1815 1931 2045
8 2045 1931 2044 2153 1934 1818 1933 2046
8 2155 2047 1936 2048 2086 1976 1864 1977
8 2063 1949 1833 1950 2155 2047 1936 2048
8 2156 2048 1937 2049 2087 1977 1865 1978
8 2064 1950 1834 1951 2156 2048 1937 2049
8 2051 1939 1829 1944 2160 2053 1946 2058
8 2052 1940 2035 2144 2160 2053 1939 2051
8 2053 1942 1831 1946 2163 2057 1948 2060
8 2055 1943 1827 1940 2163 2057 1942 2053
8 2055 1943 2056 2164 1940 1827 1941 2054
8 2059 1947 1849 1966 2167 2060 1965 2078
8 2059 1947 2060 2167 1945 1830 1946 2058
8 2077 1964 2061 2168 1965 1848 1948 2060
8 2070 1963 1847 1959 2170 2062 1949 2063
8 2065 1959 1843 1952 2171 2063 1950 2064
8 2173 2072 1958 2066 2065 1959 1843 1952
8 1953 1842 1958 2066 2067 1957 2071 2174
8 2068 1956 2069 2175 1967 1859 1973 2079
8 2067 1957 2069 2175 1955 1841 1956 2068
8 1845 1957 2069 1960 1961 2071 2176 2073
8 2069 1960 2073 2176 1973 1862 1975 2083
8 2070 1963 2075 2177 1959 1847 1962 2072
8 1846 1958 2071 1961 1962 2072 2178 2074
8 2077 1964 1861 1971 2182 2076 1974 2082
8 2081 1971 2077 2183 1969 1857 1965 2078
8 2079 1973 2083 2184 1968 1860 1972 2080
8 2081 1971 1858 1970 2185 2082 1972 2080
8 2083 1975 2084 2186 1972 1863 1974 2082
8 2086 1976 1882 1987 2189 2085 1993 2095
8 2090 1987 2086 2190 1981 1875 1977 2087
8 2191 2094 1986 2088 2103 1998 1888 1997
8 2088 1986 2094 2191 1980 1877 1989 2089
8 1991 2091 2192 2097 1880 1982 2089 1989
8 2093 1988 2095 2193 1984 1876 1987 2090
8 1879 1983 2092 1990 1991 2091 2194 2098
8 1985 1878 1990 2092 2093 1988 2096 2195
8 2097 1996 1886 1989 2196 2099 1992 2094
8 2196 2099 1992 2094 2104 1999 1889 1998
8 1994 2096 1988 1883 2100 2197 2095 1993
8 2096 1994 1884 1990 2198 2101 1995 2098
8 1995 2098 2199 2102 1885 1991 2097 1996
8 2203 2104 1998 2103 2106 2001 1891 2000
8 2107 2002 2105 2204 2001 1892 1999 2104
8 2109 2004 2107 2206 2003 1894 2001 2106
8 2110 2005 2108 2207 2004 1895 2002 2107
8 2112 2007 2110 2209 2006 1897 2004 2109
8 2113 2008 2111 2210 2007 1898 2005 2110
8 2120 2011 2113 2212 2014 1901 2007 2112
8 2117 2009 2114 2213 2011 1899 2008 2113
8 2219 2116 2009 2117 2119 2010 1899 2011
8 2222 2118 2010 2119 2122 2012 1900 2013
8 2223 2119 2011 2120 2123 2013 1901 2014
8 2016 1902 2015 2125 2122 2012 2121 2225
8 2126 2016 2122 2226 2017 1903 2013 2123
8 2019 1905 2018 2128 2125 2015 2124 2228
8 2020 1906 2019 2129 2126 2016 2125 2229
8 2022 1908 2021 2131 2128 2018 2127 2231
8 2023 1909 2022 2132 2129 2019 2128 2232
8 2025 1911 2024 2134 2131 2021 2130 2234
8 2026 1912 2025 2135 2132 2022 2131 2235
8 1914 2028 2134 2024 2027 2136 2236 2133
8 2029 1915 2028 2137 2135 2025 2134 2237
8 2030 1918 2031 2138 2137 2028 2136 2238
8 2157 2050 2139 2240 2054 1941 2033 2140
8 2052 1940 2054 2161 2144 2035 2140 2242
8 2140 2033 2141 2243 2035 1923 2034 2143
8 2143 2034 2142 2246 2037 1924 2036 2146
8 2144 2035 2143 2247 2051 1939 2037 2147
8 2146 2036 2145 2249 2039 1925 2038 2149
8 2147 2037 2146 2250 2040 1926 2039 2150
8 2149 2038 2148 2251 2042 1927 2041 2151
8 2150 2039 2149 2252 2043 1928 2042 2152
8 2152 2042 2151 2253 2045 1931 2044 2153
8 2255 2154 2047 2155 2189 2085 1976 2086
8 2170 2062 1949 2063 2255 2154 2047 2155
8 2256 2155 2048 2156 2190 2086 1977 2087
8 2171 2063 1950 2064 2256 2155 2048 2156
8 2258 2159 2050 2157 2164 2056 1941 2054
8 2160 2053 1946 2058 2262 2163 2060 2167
8 2162 2055 1940 2052 2262 2163 2053 2160
8 2162 2055 2164 2263 2052 1940 2054 2161
8 2163 2057 1948 2060 2264 2165 2061 2168
8 2055 1943 2057 2163 2164 2056 2165 2264
8 2182 2076 2166 2268 2077 1964 2061 2168
8 2183 2077 2168 2269 2078 1965 2060 2167
8 2070 1963 2062 2170 2177 2075 2169 2271
8 2172 2070 1959 2065 2272 2170 2063 2171
8 2172 2070 2177 2273 2065 1959 2072 2173
8 2066 1958 2072 2173 2174 2071 2178 2274
8 2067 1957 2071 2174 2175 2069 2176 2275
8 2175 2069 2176 2275 2079 1973 2083 2184
8 2071 1961 2074 2178 2176 2073 2179 2276
8 2176 2073 2179 2276 2083 1975 2084 2186
8 2072 1962 2075 2177 2178 2074 2180 2277
8 2182 2076 1974 2082 2280 2181 2084 2186
8 2183 2077 1971 2081 2281 2182 2082 2185
8 2184 2083 2186 2282 2080 1972 2082 2185
8 2189 2085 1993 2095 2285 2188 2100 2197
8 2190 2086 1987 2090 2286 2189 2095 2193
8 2192 2097 1989 2089 2287 2196 2094 2191
8 2287 2196 2094 2191 2203 2104 1998 2103
8 2194 2098 1991 2091 2288 2199 2097 2192
8 2195 2096 2197 2289 2093 1988 2095 2193
8 2096 2195 2290 2198 1990 2092 2194 2098
8 2097 1996 2099 2196 2199 2102 2200 2291
8 2196 2099 1999 2104 2291 2200 2105 2204
8 2100 2197 2292 2201 1994 2096 2198 2101
8 1995 2098 2198 2101 2102 2199 2293 2202
8 2206 2107 2204 2296 2106 2001 2104 2203
8 2207 2108 2205 2297 2107 2002 2105 2204
8 2209 2110 2207 2299 2109 2004 2107 2206
8 2210 2111 2208 2300 2110 2005 2108 2207
8 2212 2113 2210 2302 2112 2007 2110 2209
8 2213 2114 2211 2303 2113 2008 2111 2210
8 2220 2117 2213 2305 2120 2011 2113 2212
8 2216 2115 2214 2306 2117 2009 2114 2213
8 2216 2115 2009 2117 2311 2217 2116 2219
8 2219 2116 2010 2119 2314 2218 2118 2222
8 2315 2219 2117 2220 2223 2119 2011 2120
8 2122 2012 2121 2225 2222 2118 2221 2317
8 2318 2222 2119 2223 2226 2122 2013 2123
8 2125 2015 2124 2228 2225 2121 2224 2320
8 2126 2016 2125 2229 2226 2122 2225 2321
8 2128 2018 2127 2231 2228 2124 2227 2323
8 2129 2019 2128 2232 2229 2125 2228 2324
8 2131 2021 2130 2234 2231 2127 2230 2326
8 2132 2022 2131 2235 2232 2128 2231 2327
8 2134 2024 2133 2236 2234 2130 2233 2328
8 2135 2025 2134 2237 2235 2131 2234 2329
8 2137 2028 2136 2238 2237 2134 2236 2330
8 2157 2050 2158 2259 2240 2139 2239 2332
8 2257 2157 2240 2334 2161 2054 2140 2242
8 2240 2139 2241 2335 2140 2033 2141 2243
8 2242 2140 2243 2337 2144 2035 2143 2247
8 2243 2141 2244 2338 2143 2034 2142 2246
8 2246 2142 2245 2341 2146 2036 2145 2249
8 2247 2143 2246 2342 2147 2037 2146 2250
8 2249 2145 2248 2343 2149 2038 2148 2251
8 2250 2146 2249 2344 2150 2039 2149 2252
8 2252 2149 2251 2345 2152 2042 2151 2253
8 2169 2271 2347 2254 2062 2170 2255 2154
8 2189 2085 2188 2285 2255 2154 2254 2347
8 2348 2255 2155 2256 2286 2189 2086 2190
8 2272 2170 2063 2171 2348 2255 2155 2256
8 2349 2258 2157 2257 2263 2164 2054 2161
8 2258 2159 2261 2351 2157 2050 2158 2259
8 2258 2159 2056 2164 2351 2261 2165 2264
8 2262 2163 2060 2167 2355 2264 2168 2269
8 2162 2055 2163 2262 2263 2164 2264 2355
8 2357 2266 2165 2264 2268 2166 2061 2168
8 2268 2166 2076 2182 2361 2267 2181 2280
8 2281 2182 2268 2362 2183 2077 2168 2269
8 2271 2169 2270 2364 2177 2075 2180 2277
8 2172 2070 2170 2272 2273 2177 2271 2365
8 2072 2173 2274 2178 2177 2273 2366 2277
8 2071 2174 2275 2176 2178 2274 2367 2276
8 2275 2176 2276 2367 2184 2083 2186 2282
8 2283 2187 2084 2186 2368 2278 2179 2276
8 2178 2074 2180 2277 2276 2179 2278 2368
8 2283 2187 2279 2370 2186 2084 2181 2280
8 2281 2182 2082 2185 2371 2280 2186 2282
8 2188 2285 2374 2284 2100 2197 2292 2201
8 2286 2189 2095 2193 2375 2285 2197 2289
8 2192 2097 2196 2287 2288 2199 2291 2376
8 2287 2196 2104 2203 2376 2291 2204 2296
8 2194 2098 2199 2288 2290 2198 2293 2377
8 2289 2197 2096 2195 2378 2292 2198 2290
8 2291 2200 2105 2204 2379 2294 2205 2297
8 2199 2102 2200 2291 2293 2202 2294 2379
8 2198 2101 2202 2293 2292 2201 2295 2380
8 2299 2207 2297 2383 2206 2107 2204 2296
8 2300 2208 2298 2384 2207 2108 2205 2297
8 2302 2210 2300 2386 2209 2110 2207 2299
8 2303 2211 2301 2387 2210 2111 2208 2300
8 2305 2213 2303 2389 2212 2113 2210 2302
8 2306 2214 2304 2390 2213 2114 2211 2303
8 2310 2216 2306 2392 2220 2117 2213 2305
8 2308 2215 2307 2393 2216 2115 2214 2306
8 2308 2215 2115 2216 2396 2309 2217 2311
8 2310 2216 2117 2220 2398 2311 2219 2315
8 2311 2217 2116 2219 2399 2312 2218 2314
8 2314 2218 2118 2222 2402 2313 2221 2317
8 2315 2219 2119 2223 2403 2314 2222 2318
8 2225 2121 2224 2320 2317 2221 2316 2405
8 2226 2122 2225 2321 2318 2222 2317 2406
8 2228 2124 2227 2323 2320 2224 2319 2408
8 2229 2125 2228 2324 2321 2225 2320 2409
8 2231 2127 2230 2326 2323 2227 2322 2411
8 2232 2128 2231 2327 2324 2228 2323 2412
8 2234 2130 2233 2328 2326 2230 2325 2413
8 2235 2131 2234 2329 2327 2231 2326 2414
8 2237 2134 2236 2330 2329 2234 2328 2415
8 2259 2158 2260 2352 2332 2239 2331 2417
8 2257 2157 2259 2350 2334 2240 2332 2419
8 2240 2139 2239 2332 2335 2241 2333 2420
8 2334 2240 2335 2422 2242 2140 2243 2337
8 2335 2241 2336 2423 2243 2141 2244 2338
8 2337 2243 2338 2425 2247 2143 2246 2342
8 2338 2244 2339 2426 2246 2142 2245 2341
8 2341 2245 2340 2428 2249 2145 2248 2343
8 2342 2246 2341 2429 2250 2146 2249 2344
8 2344 2249 2343 2430 2252 2149 2251 2345
8 2188 2285 2347 2254 2284 2374 2432 2346
8 2347 2254 2346 2432 2271 2169 2270 2364
8 2365 2271 2170 2272 2433 2347 2255 2348
8 2286 2189 2285 2375 2348 2255 2347 2433
8 2349 2258 2351 2435 2257 2157 2259 2350
8 2349 2258 2164 2263 2435 2351 2264 2355
8 2259 2158 2261 2351 2352 2260 2354 2437
8 2356 2265 2354 2437 2264 2165 2261 2351
8 2441 2357 2264 2355 2362 2268 2168 2269
8 2356 2265 2165 2264 2442 2358 2266 2357
8 2443 2359 2266 2357 2361 2267 2166 2268
8 2370 2279 2360 2446 2280 2181 2267 2361
8 2362 2268 2182 2281 2447 2361 2280 2371
8 2180 2277 2368 2278 2270 2364 2449 2363
8 2271 2365 2273 2177 2364 2450 2366 2277
8 2372 2283 2186 2282 2451 2368 2276 2367
8 2178 2274 2367 2276 2277 2366 2451 2368
8 2283 2187 2278 2368 2370 2279 2369 2452
8 2372 2283 2370 2453 2282 2186 2280 2371
8 2284 2374 2455 2373 2201 2292 2380 2295
8 2375 2285 2197 2289 2456 2374 2292 2378
8 2376 2291 2204 2296 2457 2379 2297 2383
8 2288 2199 2291 2376 2377 2293 2379 2457
8 2198 2290 2378 2292 2293 2377 2458 2380
8 2293 2202 2294 2379 2380 2295 2381 2459
8 2384 2298 2381 2459 2297 2205 2294 2379
8 2386 2300 2384 2463 2299 2207 2297 2383
8 2387 2301 2385 2464 2300 2208 2298 2384
8 2389 2303 2387 2466 2302 2210 2300 2386
8 2390 2304 2388 2467 2303 2211 2301 2387
8 2392 2306 2390 2469 2305 2213 2303 2389
8 2393 2307 2391 2470 2306 2214 2304 2390
8 2395 2308 2393 2472 2310 2216 2306 2392
8 2308 2215 2309 2396 2393 2307 2394 2473
8 2395 2308 2216 2310 2475 2396 2311 2398
8 2396 2309 2217 2311 2476 2397 2312 2399
8 2398 2311 2219 2315 2478 2399 2314 2403
8 2399 2312 2218 2314 2479 2400 2313 2402
8 2317 2221 2316 2405 2402 2313 2401 2482
8 2403 2314 2222 2318 2483 2402 2317 2406
8 2320 2224 2319 2408 2405 2316 2404 2485
8 2321 2225 2320 2409 2406 2317 2405 2486
8 2323 2227 2322 2411 2408 2319 2407 2488
8 2324 2228 2323 2412 2409 2320 2408 2489
8 2326 2230 2325 2413 2411 2322 2410 2490
8 2327 2231 2326 2414 2412 2323 2411 2491
8 2329 2234 2328 2415 2414 2326 2413 2492
8 2417 2331 2260 2352 2494 2416 2353 2438
8 2350 2259 2352 2436 2419 2332 2417 2496
8 2332 2239 2331 2417 2420 2333 2418 2497
8 2334 2240 2332 2419 2422 2335 2420 2499
8 2420 2333 2421 2500 2335 2241 2336 2423
8 2422 2335 2423 2502 2337 2243 2338 2425
8 2423 2336 2424 2503 2338 2244 2339 2426
8 2425 2338 2426 2505 2342 2246 2341 2429
8 2426 2339 2427 2506 2341 2245 2340 2428
8 2429 2341 2428 2507 2344 2249 2343 2430
8 2432 2346 2284 2374 2509 2431 2373 2455
8 2432 2346 2431 2509 2364 2270 2363 2449
8 2375 2285 2374 2456 2433 2347 2432 2510
8 2347 2433 2365 2271 2432 2510 2450 2364
8 2350 2259 2351 2435 2436 2352 2437 2514
8 2440 2356 2437 2514 2355 2264 2351 2435
8 2352 2260 2354 2437 2438 2353 2439 2516
8 2356 2265 2358 2442 2437 2354 2439 2516
8 2440 2356 2264 2355 2518 2442 2357 2441
8 2519 2443 2357 2441 2447 2361 2268 2362
8 2443 2359 2444 2520 2357 2266 2358 2442
8 2443 2359 2267 2361 2520 2444 2360 2446
8 2446 2360 2279 2370 2523 2445 2369 2452
8 2453 2370 2446 2524 2371 2280 2361 2447
8 2449 2363 2448 2525 2368 2278 2369 2452
8 2366 2277 2364 2450 2451 2368 2449 2526
8 2372 2283 2368 2451 2453 2370 2452 2527
8 2455 2373 2295 2380 2529 2454 2382 2460
8 2456 2374 2292 2378 2530 2455 2380 2458
8 2377 2293 2379 2457 2458 2380 2459 2531
8 2463 2384 2459 2531 2383 2297 2379 2457
8 2533 2461 2382 2460 2459 2381 2295 2380
8 2464 2385 2461 2533 2384 2298 2381 2459
8 2466 2387 2464 2537 2386 2300 2384 2463
8 2467 2388 2465 2538 2387 2301 2385 2464
8 2469 2390 2467 2540 2389 2303 2387 2466
8 2470 2391 2468 2541 2390 2304 2388 2467
8 2472 2393 2470 2543 2392 2306 2390 2469
8 2393 2307 2394 2473 2470 2391 2471 2544
8 2395 2308 2396 2475 2472 2393 2473 2546
8 2396 2309 2397 2476 2473 2394 2474 2547
8 2475 2396 2311 2398 2549 2476 2399 2478
8 2476 2397 2312 2399 2550 2477 2400 2479
8 2478 2399 2314 2403 2552 2479 2402 2483
8 2479 2400 2313 2402 2553 2480 2401 2482
8 2405 2316 2404 2485 2482 2401 2481 2556
8 2406 2317 2405 2486 2483 2402 2482 2557
8 2408 2319 2407 2488 2485 2404 2484 2559
8 2409 2320 2408 2489 2486 2405 2485 2560
8 2411 2322 2410 2490 2488 2407 2487 2561
8 2412 2323 2411 2491 2489 2408 2488 2562
8 2414 2326 2413 2492 2491 2411 2490 2563
8 2513 2434 2493 2565 2438 2353 2416 2494
8 2496 2417 2352 2436 2567 2494 2438 2515
8 2494 2416 2495 2568 2417 2331 2418 2497
8 2419 2332 2417 2496 2499 2420 2497 2570
8 2497 2418 2498 2571 2420 2333 2421 2500
8 2499 2420 2500 2573 2422 2335 2423 2502
8 2500 2421 2501 2574 2423 2336 2424 2503
8 2502 2423 2503 2576 2425 2338 2426 2505
8 2503 2424 2504 2577 2426 2339 2427 2506
8 2505 2426 2506 2578 2429 2341 2428 2507
8 2509 2431 2373 2455 2580 2508 2454 2529
8 2509 2431 2508 2580 2449 2363 2448 2525
8 2432 2510 2581 2509 2374 2456 2530 2455
8 2432 2510 2450 2364 2509 2581 2526 2449
8 2583 2511 2434 2513 2516 2439 2353 2438
8 2436 2352 2437 2514 2515 2438 2516 2588
8 2440 2356 2442 2518 2514 2437 2516 2588
8 2442 2358 2444 2520 2516 2439 2517 2589
8 2519 2443 2520 2591 2441 2357 2442 2518
8 2519 2443 2361 2447 2591 2520 2446 2524
8 2446 2360 2445 2523 2520 2444 2521 2592
8 2525 2448 2522 2593 2452 2369 2445 2523
8 2524 2446 2370 2453 2594 2523 2452 2527
8 2526 2449 2525 2595 2451 2368 2452 2527
8 2534 2462 2528 2597 2460 2382 2454 2529
8 2530 2455 2380 2458 2598 2529 2460 2532
8 2599 2533 2460 2532 2531 2459 2380 2458
8 2537 2464 2533 2599 2463 2384 2459 2531
8 2534 2462 2382 2460 2601 2535 2461 2533
8 2538 2465 2535 2601 2464 2385 2461 2533
8 2540 2467 2538 2604 2466 2387 2464 2537
8 2541 2468 2539 2605 2467 2388 2465 2538
8 2543 2470 2541 2607 2469 2390 2467 2540
8 2470 2391 2471 2544 2541 2468 2542 2608
8 2472 2393 2473 2546 2543 2470 2544 2610
8 2473 2394 2474 2547 2544 2471 2545 2611
8 2475 2396 2476 2549 2546 2473 2547 2613
8 2476 2397 2477 2550 2547 2474 2548 2614
8 2549 2476 2399 2478 2616 2550 2479 2552
8 2479 2400 2480 2553 2550 2477 2551 2617
8 2552 2479 2402 2483 2619 2553 2482 2557
8 2482 2401 2481 2556 2553 2480 2554 2620
8 2485 2404 2484 2559 2556 2481 2555 2623
8 2486 2405 2485 2560 2557 2482 2556 2624
8 2488 2407 2487 2561 2559 2484 2558 2625
8 2489 2408 2488 2562 2560 2485 2559 2626
8 2491 2411 2490 2563 2562 2488 2561 2627
8 2513 2434 2512 2585 2565 2493 2564 2630
8 2586 2513 2565 2632 2515 2438 2494 2567
8 2565 2493 2566 2633 2494 2416 2495 2568
8 2567 2494 2568 2635 2496 2417 2497 2570
8 2568 2495 2569 2636 2497 2418 2498 2571
8 2570 2497 2571 2638 2499 2420 2500 2573
8 2571 2498 2572 2639 2500 2421 2501 2574
8 2573 2500 2574 2641 2502 2423 2503 2576
8 2574 2501 2575 2642 2503 2424 2504 2577
8 2576 2503 2577 2643 2505 2426 2506 2578
8 2597 2528 2579 2645 2529 2454 2508 2580
8 2580 2508 2579 2645 2525 2448 2522 2593
8 2581 2509 2455 2530 2646 2580 2529 2598
8 2581 2509 2580 2646 2526 2449 2525 2595
8 2583 2511 2582 2648 2513 2434 2512 2585
8 2583 2511 2439 2516 2648 2582 2517 2589
8 2649 2583 2513 2586 2588 2516 2438 2515
8 2589 2517 2444 2520 2653 2587 2521 2592
8 2518 2442 2520 2591 2588 2516 2589 2654
8 2593 2522 2590 2655 2523 2445 2521 2592
8 2524 2446 2523 2594 2591 2520 2592 2656
8 2595 2525 2593 2657 2527 2452 2523 2594
8 2602 2536 2596 2659 2534 2462 2528 2597
8 2600 2534 2597 2660 2532 2460 2529 2598
8 2600 2534 2460 2532 2661 2601 2533 2599
8 2604 2538 2601 2661 2537 2464 2533 2599
8 2602 2536 2462 2534 2663 2603 2535 2601
8 2601 2535 2465 2538 2663 2603 2539 2605
8 2607 2541 2605 2665 2540 2467 2538 2604
8 2608 2542 2606 2666 2541 2468 2539 2605
8 2543 2470 2544 2610 2607 2541 2608 2668
8 2544 2471 2545 2611 2608 2542 2609 2669
8 2546 2473 2547 2613 2610 2544 2611 2671
8 2547 2474 2548 2614 2611 2545 2612 2672
8 2549 2476 2550 2616 2613 2547 2614 2674
8 2550 2477 2551 2617 2614 2548 2615 2675
8 2552 2479 2553 2619 2616 2550 2617 2677
8 2553 2480 2554 2620 2617 2551 2618 2678
8 2557 2482 2556 2624 2619 2553 2620 2680
8 2556 2481 2555 2623 2620 2554 2621 2681
8 2559 2484 2558 2625 2623 2555 2622 2683
8 2560 2485 2559 2626 2624 2556 2623 2684
8 2562 2488 2561 2627 2626 2559 2625 2685
8 2690 2629 2564 2630 2650 2584 2512 2585
8 2586 2513 2585 2651 2632 2565 2630 2691
8 2630 2564 2631 2692 2565 2493 2566 2633
8 2632 2565 2633 2694 2567 2494 2568 2635
8 2633 2566 2634 2695 2568 2495 2569 2636
8 2635 2568 2636 2697 2570 2497 2571 2638
8 2636 2569 2637 2698 2571 2498 2572 2639
8 2638 2571 2639 2700 2573 2500 2574 2641
8 2639 2572 2640 2701 2574 2501 2575 2642
8 2641 2574 2642 2702 2576 2503 2577 2643
8 2597 2528 2596 2659 2645 2579 2644 2704
8 2645 2579 2644 2704 2593 2522 2590 2655
8 2660 2597 2645 2705 2598 2529 2580 2646
8 2646 2580 2645 2705 2595 2525 2593 2657
8 2650 2584 2512 2585 2707 2647 2582 2648
8 2648 2582 2517 2589 2707 2647 2587 2653
8 2649 2583 2648 2708 2586 2513 2585 2651
8 2649 2583 2516 2588 2708 2648 2589 2654
8 2655 2590 2652 2710 2592 2521 2587 2653
8 2654 2589 2520 2591 2711 2653 2592 2656
8 2657 2593 2655 2712 2594 2523 2592 2656
8 2602 2536 2603 2663 2659 2596 2658 2714
8 2662 2602 2659 2715 2600 2534 2597 2660
8 2662 2602 2534 2600 2717 2663 2601 2661
8 2661 2601 2538 2604 2717 2663 2605 2665
8 2666 2606 2664 2718 2605 2539 2603 2663
8 2668 2608 2666 2720 2607 2541 2605 2665
8 2608 2542 2609 2669 2666 2606 2667 2721
8 2610 2544 2611 2671 2668 2608 2669 2723
8 2611 2545 2612 2672 2669 2609 2670 2724
8 2613 2547 2614 2674 2671 2611 2672 2726
8 2614 2548 2615 2675 2672 2612 2673 2727
8 2616 2550 2617 2677 2674 2614 2675 2729
8 2617 2551 2618 2678 2675 2615 2676 2730
8 2619 2553 2620 2680 2677 2617 2678 2732
8 2620 2554 2621 2681 2678 2618 2679 2733
8 2624 2556 2623 2684 2680 2620 2681 2735
8 2681 2621 2555 2623 2736 2682 2622 2683
8 2626 2559 2625 2685 2684 2623 2683 2737
8 2688 2628 2584 2650 2740 2686 2647 2707
8 2688 2628 2687 2742 2650 2584 2629 2690
8 2690 2629 2689 2745 2630 2564 2631 2692
8 2746 2690 2630 2691 2709 2650 2585 2651
8 2691 2630 2692 2747 2632 2565 2633 2694
8 2692 2631 2693 2748 2633 2566 2634 2695
8 2694 2633 2695 2750 2635 2568 2636 2697
8 2695 2634 2696 2751 2636 2569 2637 2698
8 2697 2636 2698 2753 2638 2571 2639 2700
8 2698 2637 2699 2754 2639 2572 2640 2701
8 2700 2639 2701 2755 2641 2574 2642 2702
8 2659 2596 2658 2714 2704 2644 2703 2757
8 2704 2644 2703 2757 2655 2590 2652 2710
8 2660 2597 2659 2715 2705 2645 2704 2758
8 2705 2645 2704 2758 2657 2593 2655 2712
8 2759 2706 2647 2707 2710 2652 2587 2653
8 2709 2650 2585 2651 2760 2707 2648 2708
8 2708 2648 2589 2654 2760 2707 2653 2711
8 2712 2655 2710 2761 2656 2592 2653 2711
8 2763 2713 2658 2714 2718 2664 2603 2663
8 2662 2602 2663 2717 2715 2659 2714 2764
8 2720 2666 2718 2767 2665 2605 2663 2717
8 2768 2719 2664 2718 2721 2667 2606 2666
8 2668 2608 2669 2723 2720 2666 2721 2770
8 2669 2609 2670 2724 2721 2667 2722 2771
8 2671 2611 2672 2726 2723 2669 2724 2773
8 2672 2612 2673 2727 2724 2670 2725 2774
8 2674 2614 2675 2729 2726 2672 2727 2776
8 2675 2615 2676 2730 2727 2673 2728 2777
8 2677 2617 2678 2732 2729 2675 2730 2779
8 2678 2618 2679 2733 2730 2676 2731 2780
8 2680 2620 2681 2735 2732 2678 2733 2782
8 2733 2679 2621 2681 2783 2734 2682 2736
8 2735 2681 2623 2684 2784 2736 2683 2737
8 2740 2686 2647 2707 2787 2738 2706 2759
8 2688 2628 2686 2740 2742 2687 2739 2789
8 2743 2688 2650 2709 2790 2740 2707 2760
8 2742 2687 2741 2792 2690 2629 2689 2745
8 2743 2688 2742 2793 2709 2650 2690 2746
8 2745 2689 2744 2795 2692 2631 2693 2748
8 2746 2690 2745 2796 2691 2630 2692 2747
8 2747 2692 2748 2797 2694 2633 2695 2750
8 2748 2693 2749 2798 2695 2634 2696 2751
8 2750 2695 2751 2800 2697 2636 2698 2753
8 2751 2696 2752 2801 2698 2637 2699 2754
8 2753 2698 2754 2802 2700 2639 2701 2755
8 2763 2713 2756 2804 2714 2658 2703 2757
8 2759 2706 2652 2710 2804 2756 2703 2757
8 2715 2659 2714 2764 2758 2704 2757 2805
8 2758 2704 2757 2805 2712 2655 2710 2761
8 2806 2759 2707 2760 2761 2710 2653 2711
8 2765 2716 2762 2808 2718 2664 2713 2763
8 2809 2763 2714 2764 2767 2718 2663 2717
8 2765 2716 2664 2718 2811 2766 2719 2768
8 2813 2768 2718 2767 2770 2721 2666 2720
8 2814 2769 2719 2768 2771 2722 2667 2721
8 2723 2669 2724 2773 2770 2721 2771 2816
8 2724 2670 2725 2774 2771 2722 2772 2817
8 2726 2672 2727 2776 2773 2724 2774 2819
8 2727 2673 2728 2777 2774 2725 2775 2820
8 2729 2675 2730 2779 2776 2727 2777 2822
8 2730 2676 2731 2780 2777 2728 2778 2823
8 2732 2678 2733 2782 2779 2730 2780 2825
8 2780 2731 2679 2733 2826 2781 2734 2783
8 2782 2733 2681 2735 2827 2783 2736 2784
8 2830 2785 2738 2787 2804 2756 2706 2759
8 2789 2739 2686 2740 2832 2786 2738 2787
8 2790 2740 2707 2760 2833 2787 2759 2806
8 2742 2687 2739 2789 2792 2741 2788 2835
8 2743 2688 2740 2790 2793 2742 2789 2836
8 2792 2741 2791 2838 2745 2689 2744 2795
8 2793 2742 2792 2839 2746 2690 2745 2796
8 2795 2744 2794 2841 2748 2693 2749 2798
8 2796 2745 2795 2842 2747 2692 2748 2797
8 2797 2748 2798 2843 2750 2695 2751 2800
8 2798 2749 2799 2844 2751 2696 2752 2801
8 2800 2751 2801 2845 2753 2698 2754 2802
8 2808 2762 2803 2847 2763 2713 2756 2804
8 2809 2763 2804 2848 2764 2714 2757 2805
8 2806 2759 2710 2761 2848 2804 2757 2805
8 2765 2716 2766 2811 2808 2762 2807 2850
8 2810 2765 2808 2851 2767 2718 2763 2809
8 2810 2765 2718 2767 2852 2811 2768 2813
8 2811 2766 2719 2768 2853 2812 2769 2814
8 2855 2814 2768 2813 2816 2771 2721 2770
8 2856 2815 2769 2814 2817 2772 2722 2771
8 2773 2724 2774 2819 2816 2771 2817 2858
8 2774 2725 2775 2820 2817 2772 2818 2859
8 2776 2727 2777 2822 2819 2774 2820 2861
8 2777 2728 2778 2823 2820 2775 2821 2862
8 2779 2730 2780 2825 2822 2777 2823 2864
8 2823 2778 2731 2780 2865 2824 2781 2826
8 2825 2780 2733 2782 2866 2826 2783 2827
8 2869 2828 2785 2830 2847 2803 2756 2804
8 2871 2829 2786 2832 2830 2785 2738 2787
8 2872 2830 2787 2833 2848 2804 2759 2806
8 2789 2739 2786 2832 2835 2788 2831 2874
8 2836 2789 2740 2790 2875 2832 2787 2833
8 2792 2741 2788 2835 2838 2791 2834 2877
8 2793 2742 2789 2836 2839 2792 2835 2878
8 2838 2791 2837 2880 2795 2744 2794 2841
8 2839 2792 2838 2881 2796 2745 2795 2842
8 2841 2794 2840 2882 2798 2749 2799 2844
8 2842 2795 2841 2883 2797 2748 2798 2843
8 2843 2798 2844 2884 2800 2751 2801 2845
8 2886 2846 2803 2847 2850 2807 2762 2808
8 2851 2808 2847 2887 2809 2763 2804 2848
8 2850 2807 2766 2811 2889 2849 2812 2853
8 2810 2765 2811 2852 2851 2808 2850 2890
8 2852 2811 2768 2813 2891 2853 2814 2855
8 2853 2812 2769 2814 2892 2854 2815 2856
8 2894 2856 2814 2855 2858 2817 2771 2816
8 2817 2772 2818 2859 2856 2815 2857 2895
8 2819 2774 2820 2861 2858 2817 2859 2897
8 2820 2775 2821 2862 2859 2818 2860 2898
8 2822 2777 2823 2864 2861 2820 2862 2900
8 2823 2778 2824 2865 2862 2821 2863 2901
8 2864 2823 2780 2825 2902 2865 2826 2866
8 2904 2867 2828 2869 2886 2846 2803 2847
8 2869 2828 2868 2906 2830 2785 2829 2871
8 2907 2869 2830 2872 2887 2847 2804 2848
8 2871 2829 2870 2909 2832 2786 2831 2874
8 2910 2871 2832 2875 2872 2830 2787 2833
8 2835 2788 2831 2874 2877 2834 2873 2912
8 2836 2789 2832 2875 2878 2835 2874 2913
8 2877 2834 2876 2915 2838 2791 2837 2880
8 2839 2792 2835 2878 2881 2838 2877 2916
8 2880 2837 2879 2917 2841 2794 2840 2882
8 2881 2838 2880 2918 2842 2795 2841 2883
8 2883 2841 2882 2919 2843 2798 2844 2884
8 2921 2885 2846 2886 2889 2849 2807 2850
8 2922 2886 2847 2887 2890 2850 2808 2851
8 2889 2849 2812 2853 2924 2888 2854 2892
8 2890 2850 2811 2852 2925 2889 2853 2891
8 2891 2853 2814 2855 2926 2892 2856 2894
8 2892 2854 2815 2856 2927 2893 2857 2895
8 2858 2817 2859 2897 2894 2856 2895 2929
8 2859 2818 2860 2898 2895 2857 2896 2930
8 2861 2820 2862 2900 2897 2859 2898 2932
8 2862 2821 2863 2901 2898 2860 2899 2933
8 2864 2823 2865 2902 2900 2862 2901 2934
8 2904 2867 2846 2886 2936 2903 2885 2921
8 2904 2867 2903 2936 2869 2828 2868 2906
8 2937 2904 2869 2907 2922 2886 2847 2887
8 2906 2868 2905 2939 2871 2829 2870 2909
8 2907 2869 2906 2940 2872 2830 2871 2910
8 2909 2870 2908 2942 2874 2831 2873 2912
8 2910 2871 2909 2943 2875 2832 2874 2913
8 2912 2873 2911 2945 2877 2834 2876 2915
8 2878 2835 2874 2913 2916 2877 2912 2946
8 2915 2876 2914 2947 2880 2837 2879 2917
8 2916 2877 2915 2948 2881 2838 2880 2918
8 2918 2880 2917 2949 2883 2841 2882 2919
8 2921 2885 2849 2889 2951 2920 2888 2924
8 2952 2921 2886 2922 2925 2889 2850 2890
8 2924 2888 2854 2892 2954 2923 2893 2927
8 2925 2889 2853 2891 2955 2924 2892 2926
8 2926 2892 2856 2894 2956 2927 2895 2929
8 2895 2857 2896 2930 2927 2893 2928 2957
8 2897 2859 2898 2932 2929 2895 2930 2959
8 2898 2860 2899 2933 2930 2896 2931 2960
8 2900 2862 2901 2934 2932 2898 2933 2961
8 2936 2903 2885 2921 2963 2935 2920 2951
8 2936 2903 2935 2963 2906 2868 2905 2939
8 2937 2904 2886 2922 2964 2936 2921 2952
8 2937 2904 2936 2964 2907 2869 2906 2940
8 2939 2905 2938 2966 2909 2870 2908 2942
8 2940 2906 2939 2967 2910 2871 2909 2943
8 2942 2908 2941 2969 2912 2873 2911 2945
8 2943 2909 2942 2970 2913 2874 2912 2946
8 2945 2911 2944 2971 2915 2876 2914 2947
8 2946 2912 2945 2972 2916 2877 2915 2948
8 2948 2915 2947 2973 2918 2880 2917 2949
8 2951 2920 2888 2924 2975 2950 2923 2954
8 2952 2921 2889 2925 2976 2951 2924 2955
8 2927 2893 2928 2957 2954 2923 2953 2978
8 2955 2924 2892 2926 2979 2954 2927 2956
8 2929 2895 2930 2959 2956 2927 2957 2980
8 2930 2896 2931 2960 2957 2928 2958 2981
8 2932 2898 2933 2961 2959 2930 2960 2982
8 2951 2920 2950 2975 2963 2935 2962 2984
8 2963 2935 2962 2984 2939 2905 2938 2966
8 2964 2936 2921 2952 2985 2963 2951 2976
8 2964 2936 2963 2985 2940 2906 2939 2967
8 2966 2938 2965 2987 2942 2908 2941 2969
8 2967 2939 2966 2988 2943 2909 2942 2970
8 2969 2941 2968 2989 2945 2911 2944 2971
8 2970 2942 2969 2990 2946 2912 2945 2972
8 2972 2945 2971 2991 2948 2915 2947 2973
8 2954 2923 2953 2978 2975 2950 2974 2993
8 2976 2951 2924 2955 2994 2975 2954 2979
8 2957 2928 2958 2981 2978 2953 2977 2995
8 2956 2927 2957 2980 2979 2954 2978 2996
8 2959 2930 2960 2982 2980 2957 2981 2997
8 2984 2962 2983 2999 2966 2938 2965 2987
8 2975 2950 2974 2993 2984 2962 2983 2999
8 2976 2951 2975 2994 2985 2963 2984 3000
8 2985 2963 2984 3000 2967 2939 2966 2988
8 2987 2965 2986 3001 2969 2941 2968 2989
8 2988 2966 2987 3002 2970 2942 2969 2990
8 2990 2969 2989 3003 2972 2945 2971 2991
8 2978 2953 2977 2995 2993 2974 2992 3004
8 2979 2954 2978 2996 2994 2975 2993 3005
8 2980 2957 2981 2997 2996 2978 2995 3006
8 2974 2993 2999 2983 2992 3004 3007 2998
8 2983 2999 2987 2965 2998 3007 3001 2986
8 3000 2984 2999 3008 2988 2966 2987 3002
8 2994 2975 2993 3005 3000 2984 2999 3008
8 3002 2987 3001 3009 2990 2969 2989 3003
8 2996 2978 2995 3006 3005 2993 3004 3010
8 3005 2993 3004 3010 3008 2999 3007 3011
8 3008 2999 3007 3011 3002 2987 3001 3009

CELL_TYPES 1910
12
12
12
12
12
12
12
12
12
12
12
12
12
12
12
12
12
12
12
12
12
12
12
12
12
12
12
12
12
12
12
12
12
12
12
12
12
12
12
12
12
12
12
12
12
12
12
12
12
12
12
12
12
12
12
12
12
12
12
12
12
12
12
12
12
12
12
12
12
12
12
12
12
12
12
12
12
12
12
12
12
12
12
12
12
12
12
12
12
12
12
12
12
12
12
12
12
12
12
12
12
12
12
12
12
12
12
12
12
12
12
12
12
12
12
12
12
12
12
12
12
12
12
12
12
12
12
12
12
12
12
12
12
12
12
12
12
12
12
12
12
12
12
12
12
12
12
12
12
12
12
12
12
12
12
12
12
12
12
12
12
12
12
12
12
12
12
12
12
12
12
12
12
12
12
12
12
12
12
12
12
12
12
12
12
12
12
12
12
12
12
12
12
12
12
12
12
12
12
12
12
12
12
12
12
12
12
12
12
12
12
12
12
12
12
12
12
12
12
12
12
12
12
12
12
12
12
12
12
12
12
12
12
12
12
12
12
12
12
12
12
12
12
12
12
12
12
12
12
12
12
12
12
12
12
12
12
12
12
12
12
12
12
12
12
12
12
12
12
12
12
12
12
12
12
12
12
12
12
12
12
12
12
12
12
12
12
12
12
12
12
12
12
12
12
12
12
12
12
12
12
12
12
12
12
12
12
12
12
12
12
12
12
12
12
12
12
12
12
12
12
12
12
12
12
12
12
12
12
12
12
12
12
12
12
12
12
12
12
12
12
12
12
12
12
12
12
12
12
12
12
12
12
12
12
12
12
12
12
12
12
12
12
12
12
12
12
12
12
12
12
12
12
12
12
12
12
12
12
12
12
12
12
12
12
12
12
12
12
12
12
12
12
12
12
12
12
12
12
12
12
12
12
12
12
12
12
12
12
12
12
12
12
12
12
12
12
12
12
12
12
12
12
12
12
12
12
12
12
12
12
12
12
12
12
12
12
12
12
12
12
12
12
12
12
12
12
12
12
12
12
12
12
12
12
12
12
12
12
12
12
12
12
12
12
12
12
12
12
12
12
12
12
12
12
12
12
12
12
12
12
12
12
12
12
12
12
12
12
12
12
12
12
12
12
12
12
12
12
12
12
12
12
12
12
12
12
12
12
12
12
12
12
12
12
12
12
12
12
12
12
12
12
12
12
12
12
12
12
12
12
12
12
12
12
12
12
12
12
12
12
12
12
12
12
12
12
12
12
12
12
12
12
12
12
12
12
12
12
12
12
12
12
12
12
12
12
12
12
12
12
12
12
12
12
12
12
12
12
12
12
12
12
12
12
12
12
12
12
12
12
12
12
12
12
12
12
12
12
12
12
12
12
12
12
12
12
12
12
12
12
12
12
12
12
12
12
12
12
12
12
12
12
12
12
12
12
12
12
12
12
12
12
12
12
12
12
12
12
12
12
12
12
12
12
12
12
12
12
12
12
12
12
12
12
12
12
12
12
12
12
12
12
12
12
12
12
12
12
12
12
12
12
12
12
12
12
12
12
12
12
12
12
12
12
12
12
12
12
12
12
12
12
12
12
12
12
12
12
12
12
12
12
12
12
12
12
12
12
12
12
12
12
12
12
12
12
12
12
12
12
12
12
12
12
12
12
12
12
12
12
12
12
12
12
12
12
12
12
12
12
12
12
12
12
12
12
12
12
12
12
12
12
12
12
12
12
12
12
12
12
12
12
12
12
12
12
12
12
12
12
12
12
12
12
12
12
12
12
12
12
12
12
12
12
12
12
12
12
12
12
12
12
12
12
12
12
12
12
12
12
12
12
12
12
12
12
12
12
12
12
12
12
12
12
12
12
12
12
12
12
12
12
12
12
12
12
12
12
12
12
12
12
12
12
12
12
12
12
12
12
12
12
12
12
12
12
12
12
12
12
12
12
12
12
12
12
12
12
12
12
12
12
12
12
12
12
12
12
12
12
12
12
12
12
12
12
12
12
12
12
12
12
12
12
12
12
12
12
12
12
12
12
12
12
12
12
12
12
12
12
12
12
12
12
12
12
12
12
12
12
12
12
12
12
12
12
12
12
12
12
12
12
12
12
12
12
12
12
12
12
12
12
12
12
12
12
12
12
12
12
12
12
12
12
12
12
12
12
12
12
12
12
12
12
12
12
12
12
12
12
12
12
12
12
12
12
12
12
12
12
12
12
12
12
12
12
12
12
12
12
12
12
12
12
12
12
12
12
12
12
12
12
12
12
12
12
12
12
12
12
12
12
12
12
12
12
12
12
12
12
12
12
12
12
12
12
12
12
12
12
12
12
12
12
12
12
12
12
12
12
12
12
12
12
12
12
12
12
12
12
12
12
12
12
12
12
12
12
12
12
12
12
12
12
12
12
12
12
12
12
12
12
12
12
12
12
12
12
12
12
12
12
12
12
12
12
12
12
12
12
12
12
12
12
12
12
12
12
12
12
12
12
12
12
12
12
12
12
12
12
12
12
12
12
12
12
12
12
12
12
12
12
12
12
12
12
12
12
12
12
12
12
12
12
12
12
12
12
12
12
12
12
12
12
12
12
12
12
12
12
12
12
12
12
12
12
12
12
12
12
12
12
12
12
12
12
12
12
12
12
12
12
12
12
12
12
12
12
12
12
12
12
12
12
12
12
12
12
12
12
12
12
12
12
12
12
12
12
12
12
12
12
12
12
12
12
12
12
12
12
12
12
12
12
12
12
12
12
12
12
12
12
12
12
12
12
12
12
12
12
12
12
12
12
12
12
12
12
12
12
12
12
12
12
12
12
12
12
12
12
12
12
12
12
12
12
12
12
12
12
12
12
12
12
12
12
12
12
12
12
12
12
12
12
12
12
12
12
12
12
12
12
12
12
12
12
12
12
12
12
12
12
12
12
12
12
12
12
12
12
12
12
12
12
12
12
12
12
12
12
12
12
12
12
12
12
12
12
12
12
12
12
12
12
12
12
12
12
12
12
12
12
12
12
12
12
12
12
12
12
12
12
12
12
12
12
12
12
12
12
12
12
12
12
12
12
12
12
12
12
12
12
12
12
12
12
12
12
12
12
12
12
12
12
12
12
12
12
12
12
12
12
12
12
12
12
12
12
12
12
12
12
12
12
12
12
12
12
12
12
12
12
12
12
12
12
12
12
12
12
12
12
12
12
12
12
12
12
12
12
12
12
12
12
12
12
12
12
12
12
12
12
12
12
12
12
12
12
12
12
12
12
12
12
12
12
12
12
12
12
12
12
12
12
12
12
12
12
12
12
12
12
12
12
12
12
12
12
12
12
12
12
12
12
12
12
12
12
12
12
12
12
12
12
12
12
12
12
12
12
12
12
12
12
12
12
12
12
12
12
12
12
12
12
12
12
12
12
12
12
12
12
12
12
12
12
12
12
12
12
12
12
12
12
12
12
12
12
12
12
12
12
12
12
12
12
12
12
12
12
12
12
12
12
12
12
12
12
12
12
12
12
12
12
12
12
12
12
12
12
12
12
12
12
12
12
12
12
12
12
12
12
12
12
12
12
12
12
12
12
12
12
12
12
12
12
12
12
12
12
12
12
12
12
12
12
12
12
12
12
12
12
12
12
12
12
12
12
12
12
12
12
12
12
12
12
12
12
12
12
12
12
12
12
12
12
12
12
12
12
12
12
12
12
12
12
12
12
12
12
12
12
12
12
12
12
12
12
12
12
12
12
12
12
12
12
12
12
12
12
12
12
12
12
12
12
12
12
12
12
12
12
12
12
12
12
12
12
12
12
12
12
12
12
12
12
12
12
12
12
12
12
12
12
12
12
12
12
12
12
12
12
12
12
12
12
12
12
12
12
12
12
12
12
12
12
12
12
12
12
12
12
12
12
12
12
12
12
12
12
12
12
12
12
12
12
12
12
12
12
12
12
12
12
12
12
12
12
12
12
12
12
12
12
12
12
12
12
12
12
12
12
12
12
12
12
12
12
12
12
12
12
12
12
12
12
12
12
12
12
12
12
12
12
12
12
12
12
12
12
12
12
12
12
12
12
12
12
12
12
12
12
12
12
12
12
12
12
12
12
12
12
12
12
12
12
12
12
12
12
12
12
12
12
12
12
12
12
12
12
12
12
12
12
12
12
12
12
12
12
12
12
12
12
12
12
12
12
12
12
12
12
12
12
12
12
12
12
12
12
12
12
12
12
12
12
12
12
12
12
12
12
12
12
12
12
12
12
12
12
12
12
12
12
12
12
12
12
12
12
12
12
12
12
12
12
12
12
12
12
12
12
12
12
12
12
12
12
12
12
12
12
12
12
12
12
12
12
12

POINT_DATA 3012
SCALARS Jp_lamdaP float 4
LOOKUP_TABLE default
0.999814 1 1 0.999814
1 1 1 1
0.999819 1 1 0.999819
0.999766 1 1 0.999766
0.999813 1 1 0.999813
0.999805 1 1 0.999805
0.999205 1 1 0.999205
1 1 1 1
1 1 1 1
1 1 1 1
0.999886 1 1 0.999886
0.999353 1 1 0.999353
0.999735 1 1 0.999735
0.99976 1 1 0.99976
0.999819 1 1 0.999819
0.999785 1 1 0.999785
0.999809 1 1 0.999809
0.999824 1 1 0.999824
0.999208 1 1 0.999208
1 1 1 1
0.999746 1 1 0.999746
0.999794 1 1 0.999794
0.999074 1 1 0.999074
0.999176 1 1 0.999176
0.999821 1 1 0.999821
0.999233 1 1 0.999233
1.00115 1.0029 1 0.998251
1 1 1 1
0.999896 1 1 0.999896
0.999909 1 1 0.999909
1 1 1 1
0.999362 1 1 0.999362
0.999785 1 1 0.999785
0.999809 1 1 0.999809
0.999306 1 1 0.999306
1 1 1 1
0.999393 1 1 0.999393
0.999453 1 1 0.999453
0.998595 1.00032 1 0.998274
1 1 1 1
1 1 1 1
0.999878 1 1 0.999878
1 1 1 1
0.999755 1 1 0.999755
0.999002 1 1 0.999002
1 1 1 1
0.999208 1 1 0.999208
0.9998 1 1 0.9998
0.999831 1 1 0.999831
0.999811 1 1 0.999811
0.999213 1 1 0.999213
0.999862 1 1 0.999862
0.999763 1 1 0.999763
0.999832 1 1 0.999832
0.99981 1 1 0.99981
0.999074 1 1 0.999074
0.999237 1 1 0.999237
0.999178 1 1 0.999178
1.00149 1.00326 1 0.998236
1 1 1 1
0.999736 1 1 0.999736
0.999195 1 1 0.999195
0.999038 1 1 0.999038
0.999127 1 1 0.999127
1.00382 1.00588 1 0.997956
1.00227 1.0042 1 0.998086
0.999881 1 1 0.999881
0.999346 1 1 0.999346
0.999672 1.00132 1 0.998353
1.01131 1.01389 1 0.997453
1 1 1 1
1 1 1 1
1 1 1 1
0.999369 1 1 0.999369
1 1 1 1
1 1 1 1
0.999203 1 1 0.999203
0.999968 1 1 0.999968
0.999309 1 1 0.999309
0.999522 1 1 0.999522
0.99843 1.00016 1 0.998271
1 1 1 1
0.999918 1 1 0.999917
0.999138 1 1 0.999138
0.999239 1 1 0.999239
1.00383 1.006 1 0.997848
0.999697 1 1 0.999697
0.999822 1.00165 1 0.998172
0.998412 1 1 0.998412
0.999659 1.00199 1 0.99767
1 1 1 1
1 1 1 1
1 1 1 1
1 1 1 1
1 1 1 1
0.999874 1 1 0.999874
0.999093 1 1 0.999093
0.999883 1 1 0.999883
0.999152 1 1 0.999152
1 1 1 1
0.998995 1 1 0.998995
0.999185 1 1 0.999185
1.00327 1.00571 1 0.997576
0.999245 1 1 0.999245
1.00524 1.00761 1 0.997651
0.999754 1 1 0.999754
0.999779 1 1 0.999779
0.999841 1 1 0.999841
0.999823 1 1 0.999823
0.999075 1 1 0.999075
0.999183 1 1 0.999183
0.999243 1 1 0.999243
1.00183 1.00362 1 0.998221
1 1 1 1
0.999754 1 1 0.999754
0.99902 1 1 0.99902
0.999036 1 1 0.999036
0.99994 1 1 0.99994
0.999406 1 1 0.999406
0.999129 1 1 0.999129
1.0038 1.0059 1 0.997915
1.00011 1.00178 1 0.998335
1.00251 1.0044 1 0.998115
1.01128 1.01386 1 0.997458
0.999018 1 1 0.999018
0.999019 1 1 0.999019
1.0029 1.00516 1 0.99776
1.00385 1.00602 1 0.99784
1.00363 1.00567 1 0.99797
1.01883 1.02162 1 0.997278
1 1 1 1
1.01375 1.0164 1 0.997392
0.999575 1 1 0.999575
0.998586 1.00021 1 0.998372
1.00862 1.01113 1 0.997514
1.02168 1.02452 1 0.997229
0.999817 1 1.00002 0.999794
1.0009 1 1.00191 0.998992
1 1 1 1
1 1 1 1
0.999209 1 1 0.999209
1 1 1 1
0.999511 1 1 0.999511
0.999315 1 1 0.999315
0.998298 1.00003 1 0.998267
1 1 1 1
0.999935 1 1 0.999935
0.999209 1 1 0.999209
0.999305 1 1 0.999305
1.00329 1.00545 1 0.99785
0.999697 1 1 0.999697
0.999347 1.00117 1 0.998176
0.99841 1 1 0.99841
0.999481 1.00183 1 0.997653
0.999819 1 1 0.999819
0.999975 1 1 0.999975
0.999958 1 1.00075 0.999209
1.00508 1.00735 1 0.997738
1.0019 1.0039 1 0.998012
1.01499 1.01779 1 0.997252
0.99865 1 1 0.99865
1.00483 1.00728 1 0.997568
0.999557 1.00123 1.00057 0.99776
1.00535 1.00789 1 0.99748
1 1 1 1
1 1 1 1
1 1 1 1
0.999873 1 1 0.999873
1 1 1 1
1 1 1 1
1 1 1 1
0.999093 1 1 0.999093
0.99903 1 1 0.99903
1 1 1 1
1 1 1 1
0.998996 1 1 0.998996
0.999127 1 1 0.999127
1.00362 1.00606 1 0.997576
0.99912 1 1 0.99912
1.00533 1.0077 1 0.997651
0.998989 1 1 0.998989
1.00243 1.00491 1 0.99753
1.00437 1.00676 1 0.997623
1.022 1.02497 1 0.997102
1.00545 1.00778 1 0.99768
1.02301 1.02593 1 0.997156
1 1 1 1
0.999771 1 1 0.999771
0.99883 1 1 0.99883
0.999035 1 1 0.999035
1 1 1 1
0.999468 1 1 0.999468
0.999132 1 1 0.999132
1.00377 1.00591 1 0.997873
1.00276 1.00462 1 0.998145
1.00051 1.0022 1 0.998316
1.01123 1.01381 1 0.997463
0.999015 1 1 0.999015
0.999016 1 1 0.999016
1.00275 1.00511 1 0.997658
1.00387 1.00602 1 0.997869
1 1 1 1
0.999582 1 1 0.999582
0.998937 1.00051 1 0.998431
1.00357 1.00561 1 0.997968
1.0187 1.02151 1 0.997243
1.00821 1.01073 1 0.997503
1.01395 1.01657 1 0.997425
1.02125 1.02408 1 0.997236
1.00001 1 1.00023 0.999784
1.00088 1 1.00189 0.998994
1.002 1.00446 1 0.997552
1.00344 1.00564 1 0.997805
1.02014 1.02301 1 0.997196
1.01914 1.02203 1 0.997177
1.01627 1.01895 1 0.997369
1.02993 1.03283 1 0.997198
0.999827 1 1.00013 0.999694
1.0235 1.02633 1 0.997238
0.998648 1 1.00011 0.998543
1.00282 1.0052 1 0.997633
1.01936 1.02217 1 0.99725
1.02389 1.02668 1 0.997283
1.00073 1 1.00191 0.998822
0.999588 1 1.00038 0.999208
1.00156 1 1.00316 0.998408
0.99916 1 1 0.99916
1 1 1 1
0.999953 1 1 0.999953
0.999268 1 1 0.999268
1.00275 1.0049 1 0.997852
0.999705 1 1 0.999705
0.99845 1 1.00004 0.998409
0.998833 1.00065 1 0.998179
0.99928 1.00165 1 0.997636
0.999841 1 1 0.99984
0.999982 1 1 0.999982
1.00014 1 1.00093 0.999211
1.00476 1.00704 1 0.997738
1.00123 1.00322 1 0.998016
1.01502 1.01782 1 0.997249
0.998723 1 1.00007 0.998653
1.00481 1.00725 1 0.997578
0.999253 1.00103 1.00047 0.997755
1.00578 1.00834 1 0.997466
0.999996 1 1 0.999996
0.999349 1 1.00044 0.998915
1.00003 1 1.00054 0.999492
1.00044 1 1.00182 0.998619
1.01884 1.02173 1 0.997177
1.01036 1.01298 1 0.997413
1.02384 1.02683 1 0.997086
0.998898 1.00037 1.00049 0.998038
1.01221 1.01485 1 0.997395
1.00674 1.00774 1.00158 0.997431
1.01575 1.01846 1 0.997335
0.999818 1 1 0.999818
1 1 1 1
1 1 1 1
1 1 1 1
1 1 1 1
0.999932 1 1 0.999932
1 1 1 1
0.999911 1 1.00005 0.999861
1 1 1 1
0.99912 1 1 0.99912
0.999065 1 1 0.999065
1.0055 1.00787 1 0.99765
1.00395 1.00639 1 0.997576
0.998998 1 1 0.998998
1 1 1 1
0.998988 1 1 0.998988
1.00264 1.00512 1 0.99753
1.00468 1.00707 1 0.997623
1.02169 1.02466 1 0.997101
1.00544 1.00778 1 0.997678
1.02296 1.02588 1 0.997154
1.00192 1.00441 1 0.997524
1.02078 1.02379 1 0.997061
1.02299 1.02592 1 0.997137
1.03587 1.03878 1 0.99719
1.02206 1.02497 1 0.99716
1.03387 1.0368 1 0.997178
0.999012 1 1 0.999012
0.999014 1 1 0.999014
1.00261 1.00507 1 0.997556
1.00391 1.00602 1 0.997897
1 1 1 1
0.999588 1 1 0.999588
0.999289 1.0008 1 0.998489
1.00351 1.00555 1 0.997966
1.01857 1.02143 1 0.997209
1.01412 1.01671 1 0.997458
1.00784 1.01037 1 0.997492
1.02093 1.02375 1 0.997243
0.999967 1 1.00019 0.999774
1.00078 1 1.00178 0.998996
1.00196 1.00444 1 0.997527
1.0034 1.00561 1 0.997802
1.02028 1.02314 1 0.997198
1.01928 1.02213 1 0.997209
0.999741 1 1.00006 0.999684
0.998605 1.00002 1.00005 0.99854
1.00352 1.00587 1 0.997668
1.01653 1.01922 1 0.997363
1.03009 1.03297 1 0.997217
1.01871 1.02155 1 0.997218
1.02341 1.02624 1 0.997242
1.02429 1.02708 1 0.997283
1.00012 1 1.0013 0.998824
1.00153 1 1.00313 0.99841
1.00003 1 1.00083 0.999205
1.01981 1.02273 1 0.997146
1.02046 1.0233 1 0.997223
1.03447 1.03741 1 0.997167
1.03132 1.03425 1 0.997172
1.02582 1.02865 1 0.997246
1.03028 1.03295 1 0.997408
0.99894 1 1.00024 0.998701
1.02587 1.0286 1 0.997345
0.998936 1.00099 1 0.997952
1.01048 1.0133 1 0.997219
1.02123 1.02419 1 0.997109
1.02167 1.02426 1 0.997463
0.9994 1 1 0.9994
0.998717 1 1.00036 0.998361
1.00276 1 1.00425 0.998514
0.999988 1 1.00177 0.998221
1.00447 1.00675 1 0.997738
0.99999 1 1 0.99999
0.99986 1 1 0.99986
0.999952 1 1.00074 0.999213
1.00055 1.00254 1 0.998021
1.01502 1.01783 1 0.997246
0.998827 1 1.00017 0.998657
0.998806 1.00073 1.00033 0.99775
1.00486 1.00729 1 0.997587
1.00595 1.00852 1 0.997451
0.999997 1 1 0.999997
0.999505 1 1.00059 0.998915
0.99974 1 1.00024 0.9995
1.00076 1 1.00215 0.998614
1.01871 1.0216 1 0.997173
1.01006 1.01268 1 0.997413
1.02371 1.02671 1 0.997084
0.998648 1.00015 1.00045 0.998044
1.0124 1.01503 1 0.997407
1.00632 1.00718 1.00173 0.99742
1.01595 1.0186 1 0.997404
1 1 1 1
0.999671 1 1 0.999671
0.999003 1 1.00064 0.99836
1.00041 1 1.00152 0.998889
1.00001 1 1.00168 0.99833
1.02744 1.03045 1 0.99708
1.01823 1.02107 1 0.99722
1.02205 1.02499 1 0.997131
1.00306 1.00341 1.00199 0.997664
1.01456 1.01727 1 0.997339
1.01016 1.01218 1.00086 0.997147
0.999797 1 1 0.999797
0.999384 1 1 0.999384
0.999833 1 1 0.999833
0.99982 1 1 0.99982
1 1 1 1
1 1 1 1
1 1 1 1
1 1 1 1
1 1 1 1
0.999974 1 1 0.999974
1 1 1 1
0.999919 1 1 0.999919
1 1 1 1
1.00012 1 1.00027 0.999848
1 1 1 1
1.00539 1.00773 1 0.997677
1.00493 1.00732 1 0.997623
1.02271 1.02563 1 0.997152
1.02136 1.02434 1 0.997099
1.00291 1.00539 1 0.99753
0.998987 1 1 0.998987
1.00207 1.00456 1 0.997524
1.02066 1.02367 1 0.997061
1.02256 1.0255 1 0.997136
1.03571 1.03878 0.999837 0.997206
1.02158 1.02449 1 0.997157
1.03353 1.03646 1 0.997176
1.02019 1.02321 1 0.997052
1.03501 1.03829 0.999648 0.997197
1.03551 1.03843 1 0.997192
1.03663 1.04031 0.999064 0.997394
1.03023 1.03319 1 0.997134
1.03426 1.037 0.999913 0.997449
1.00195 1.00446 1 0.997501
1.00337 1.00558 1 0.997799
1.02044 1.0233 1 0.997201
1.0194 1.02222 1 0.997241
0.999728 1 1.00005 0.999673
0.998598 1.00006 1 0.998537
1.00426 1.00657 1 0.997704
1.01682 1.01951 1 0.997357
1.03029 1.03314 1 0.997235
1.02332 1.02614 1 0.997246
1.01797 1.02084 1 0.997186
1.02466 1.02746 1 0.997282
0.9997 1 1.00087 0.998827
1.00157 1 1.00317 0.998412
1.00036 1 1.00116 0.999202
1.01993 1.02288 1 0.997112
1.02062 1.02347 1 0.997221
1.03408 1.03699 1 0.997191
1.03147 1.0344 1 0.99717
0.998968 1 1.00027 0.998699
1.00012 1.00218 1 0.997945
1.00942 1.01215 1.00003 0.99727
1.02599 1.02883 1 0.997237
1.03017 1.0328 1 0.997449
1.02143 1.02442 1 0.997076
1.02577 1.0285 1 0.997348
1.02162 1.02418 1 0.997492
0.998951 1 1.00059 0.998362
1.00001 1 1.00181 0.998202
0.99945 1 1.00006 0.999395
1.00248 1 1.00394 0.998543
1.03458 1.03754 1 0.997151
1.03372 1.03663 1 0.997194
1.03396 1.03776 0.99902 0.997311
1.03192 1.03522 0.99936 0.997451
1.02751 1.03017 1 0.997422
1.02896 1.03162 0.999806 0.997617
0.998243 1.00002 1 0.998218
1.02234 1.02476 1 0.997635
1.00184 1.0043 1 0.99755
1.01306 1.01594 1.00018 0.996985
1.02253 1.02555 1 0.997055
1.02125 1.02378 1 0.997531
0.999538 1 1 0.999538
1.00023 1 1.00151 0.998723
0.998159 1 1 0.998159
1.00221 1 1.00393 0.998284
0.999116 1 1.00094 0.998176
0.999999 1 1 0.999999
1.01852 1.02141 1 0.997169
0.999508 1 1 0.999508
0.999899 1 1.00098 0.998916
1.00121 1 1.00261 0.998608
1.00978 1.0124 1 0.997413
1.02365 1.02664 1 0.997082
0.998557 1 1.00051 0.99805
1.00642 1.00709 1.00193 0.997409
1.01266 1.01528 1 0.997419
1.01638 1.01895 1 0.997472
1 1 1 1
0.999678 1 1 0.999678
0.998985 1 1.00062 0.998362
1.0006 1 1.00172 0.998889
1.00038 1 1.00208 0.998309
1.02761 1.03062 1 0.997074
1.01852 1.02136 1 0.997218
1.02194 1.02489 1 0.997121
1.00218 1.00238 1.00213 0.99767
1.01721 1.01992 1 0.997345
1.00962 1.01152 1.00096 0.997166
0.999756 1 1 0.999756
0.999341 1 1.0002 0.999136
0.998916 1.00039 1.00048 0.998045
1.00172 1 1.00318 0.998539
0.999724 1 1.00152 0.998212
1.02631 1.0292 1 0.997193
1.01764 1.02049 1 0.997209
1.02012 1.02287 1 0.99731
1.00205 1.00082 1.00379 0.997453
1.00836 1.01134 1 0.997045
0.9998 1 1 0.9998
0.999317 1 1 0.999317
0.999362 1 1 0.999362
0.999138 1 1 0.999138
0.999394 1 1 0.999394
0.999839 1 1 0.999839
0.999834 1 1 0.999834
1 1 1 1
0.999822 1 1 0.999822
1 1 1 1
1 1 1 1
1 1 1 1
1 1 1 1
1 1 1 1
0.999995 1 1 0.999995
0.999962 1 1 0.999962
1 1 1 1
1 1 1 1
0.999906 1 1 0.999906
1 1 1 1
1.02118 1.0241 1 0.997154
1.02234 1.02528 1 0.997135
1.03333 1.03626 1 0.997174
1.0356 1.03886 0.999644 0.997222
1.02043 1.02343 1 0.997062
1.00215 1.00463 1 0.997523
1.01998 1.02299 1 0.997053
1.03504 1.03827 0.99969 0.99719
1.03543 1.03834 1 0.997192
1.03612 1.0401 0.998741 0.997425
1.03081 1.03378 1 0.997128
1.03391 1.03689 0.999656 0.99747
1.03436 1.03756 0.999754 0.997164
1.03524 1.03985 0.9982 0.997362
1.03549 1.03894 0.999188 0.997481
1.03387 1.0397 0.996832 0.997553
1.03086 1.03361 1 0.997343
1.03332 1.03685 0.998928 0.997664
1.01994 1.02293 1 0.997077
1.02076 1.02361 1 0.997219
1.0336 1.03649 1 0.997214
1.03158 1.03451 1 0.997168
0.998931 1 1.00023 0.998698
1.0012 1.00327 1 0.997939
1.00842 1.01095 1.00018 0.99732
1.02617 1.02903 1 0.997228
1.02998 1.03257 1 0.997491
1.0257 1.02842 1 0.997352
1.02165 1.02468 1 0.997042
1.02133 1.02387 1 0.99752
0.999141 1 1.00078 0.998364
1.00001 1 1.00183 0.998182
0.999579 1 1.00019 0.99939
1.00198 1 1.00341 0.998573
1.03447 1.03743 1 0.997151
1.03323 1.03616 1 0.997175
1.0338 1.03752 0.999075 0.997341
1.03225 1.03527 0.999652 0.997433
0.998364 1.00015 1 0.998211
1.00185 1.00424 1.00003 0.997596
1.01335 1.01603 1.00039 0.996976
1.02708 1.02977 1 0.997385
1.02843 1.03107 0.999774 0.997673
1.02123 1.02426 1 0.997041
1.02295 1.02538 1 0.997637
1.02222 1.0247 1 0.997579
0.998178 1.00002 1 0.998156
0.998759 1.00003 1.00055 0.998182
1.00288 1 1.00461 0.998278
0.999503 1 1 0.999503
1.00022 1 1.00147 0.998752
1.03409 1.03904 0.997883 0.997349
1.03379 1.03778 0.998761 0.997392
1.02974 1.03448 0.997754 0.997659
1.02513 1.02806 0.999458 0.997688
0.998679 1.00072 1 0.99796
1.02633 1.02858 1 0.997806
1.00163 1.00405 1.00029 0.997303
1.01192 1.01469 1.00051 0.996757
1.01962 1.02266 1 0.99703
0.999603 1 1 0.999603
0.999261 1 1.00027 0.998989
1.00113 1 1.00264 0.998491
0.998137 1.00003 1 0.998109
1.00266 1 1.00459 0.998086
0.998103 1 1 0.998103
1 1 1 1
0.999686 1 1 0.999686
1.0278 1.03082 1 0.997069
1.00084 1 1.00196 0.998889
0.998806 1 1.00044 0.998364
1.00092 1 1.00264 0.998288
1.01867 1.02151 1 0.997217
1.02167 1.02463 1 0.99711
1.00115 1.00119 1.00229 0.997675
1.00847 1.01054 1.00077 0.997185
1.01972 1.02242 1 0.997352
0.999761 1 1 0.999761
0.999269 1 1.00013 0.99914
0.998665 1.0002 1.00041 0.998047
1.00233 1 1.0038 0.998535
0.999763 1 1.00156 0.998209
1.02629 1.02919 1 0.997187
1.018 1.02086 1 0.997199
1.01986 1.02259 1 0.997336
1.00192 1.00127 1.00324 0.997417
1.00715 1.01011 1.00006 0.997016
0.999287 1 1 0.999287
1.00093 1 1.0022 0.998733
1.00067 1.00078 1.002 0.997904
1.00198 1 1.0037 0.998279
0.999099 1 1.001 0.998106
1.02655 1.02899 1 0.997624
1.01569 1.01863 1 0.997117
1.01654 1.01924 1 0.997358
1.0038 1.00222 1.00433 0.997252
1.00139 1.00458 1 0.996826
0.999803 1 1 0.999803
0.999334 1 1 0.999334
0.999054 1 1 0.999054
0.99934 1 1 0.99934
0.999394 1 1 0.999394
0.999107 1 1 0.999107
0.998966 1 1 0.998966
0.99907 1 1 0.99907
0.999398 1 1 0.999398
0.999835 1 1 0.999835
0.999839 1 1 0.999839
1 1 1 1
0.999836 1 1 0.999836
1 1 1 1
1 1 1 1
1 1 1 1
1 1 1 1
1 1 1 1
1 1 1 1
0.99999 1 1 0.99999
1 1 1 1
0.999951 1 1 0.999951
1 1 1 1
1 1 1 1
1.03135 1.03432 1 0.997122
1.03513 1.03804 1 0.997191
1.03355 1.03679 0.999387 0.997491
1.03557 1.03984 0.998442 0.997456
1.03511 1.0383 0.999747 0.997184
1.01987 1.02289 1 0.997053
1.03478 1.03788 0.999869 0.997145
1.03548 1.03988 0.998408 0.997354
1.03561 1.03885 0.999415 0.997462
1.03318 1.03932 0.996524 0.997567
1.0302 1.03295 1 0.997343
1.03226 1.03605 0.998639 0.997706
1.03494 1.03926 0.998507 0.997334
1.03426 1.04091 0.99606 0.997546
1.03376 1.03997 0.996359 0.997666
1.03049 1.03405 0.998809 0.99775
1.03446 1.03741 1 0.997152
1.03277 1.03571 1 0.997155
1.03369 1.03732 0.999135 0.99737
1.03265 1.03541 0.999924 0.997416
0.998571 1.00036 1 0.998205
1.00168 1.00405 1 0.997642
1.01361 1.0161 1.00058 0.996967
1.02657 1.0293 1 0.997348
1.02792 1.03054 0.999725 0.997728
1.02377 1.02619 1 0.997639
1.02018 1.02322 1 0.997028
1.02348 1.02592 1 0.997627
0.998332 1.00018 1 0.998154
0.998347 1.00005 1.00011 0.998187
1.00429 1 1.00603 0.998271
0.999468 1 1 0.999468
1.00025 1 1.00147 0.99878
1.03461 1.03926 0.998167 0.997352
1.03384 1.0379 0.998691 0.997391
1.02964 1.03395 0.998173 0.997648
0.999375 1.00142 1 0.997953
1.00256 1.00497 1.00026 0.997348
1.01155 1.01408 1.00076 0.996746
1.02576 1.02869 0.999472 0.997676
1.01991 1.02286 1 0.997113
1.02423 1.02663 0.999886 0.997781
0.99962 1 1 0.99962
0.998574 1.00047 1 0.9981
0.998199 1 1 0.998199
1.00288 1 1.00482 0.99807
1.00122 1 1.00272 0.998505
0.999233 1 1.00027 0.99896
1.03301 1.04001 0.995821 0.997436
1.03183 1.04001 0.994546 0.997575
1.02452 1.03195 0.995045 0.997746
1.02846 1.03303 0.997687 0.997889
0.999784 1.00199 1 0.997794
1.01992 1.02253 1 0.997446
1.00284 1.00433 1.00165 0.996873
1.00657 1.00895 1.00104 0.996604
0.999746 1 1 0.999746
0.999175 1 1 0.999175
0.999382 1 1.0007 0.99868
1.00298 1 1.00481 0.998177
0.998398 1.0004 1.00001 0.997986
1.00236 1 1.00444 0.997933
0.999766 1 1 0.999766
0.999144 1 1 0.999144
1.02646 1.02936 1 0.99718
1.00255 1 1.00403 0.998531
0.998318 1 1.00027 0.998049
0.999687 1 1.00148 0.998206
1.01865 1.02152 1 0.997189
1.01985 1.02255 1 0.997362
1.00202 1.00191 1.00273 0.997381
1.00603 1.0088 1.00027 0.996987
0.99929 1 1 0.99929
1.00073 1 1.00199 0.998738
1.00032 1.00042 1.00198 0.997918
1.00209 1 1.00381 0.998285
0.998659 1 1.00048 0.998184
1.02699 1.02951 0.999888 0.997662
1.01503 1.01796 1 0.997125
1.0179 1.02052 1 0.997432
1.00321 1.00142 1.00458 0.997215
1.00196 1.00518 1.00003 0.996774
0.998972 1 1 0.998972
1.0018 1 1.00341 0.99839
1.00232 1.00079 1.00378 0.997755
0.999532 1 1.00155 0.997982
1.02882 1.03921 0.992087 0.997893
1.02091 1.02336 0.999872 0.99773
1.00883 1.01196 1 0.996904
1.00353 1.00244 1.00426 0.996847
0.999352 1 1 0.999352
0.999067 1 1 0.999067
0.998936 1 1 0.998936
0.999393 1 1 0.999393
0.999076 1 1 0.999076
0.999397 1 1 0.999397
0.998952 1 1 0.998952
0.999084 1 1 0.999084
0.998878 1 1 0.998878
0.9989 1 1 0.9989
0.999046 1 1 0.999046
0.999383 1 1 0.999383
0.999825 1 1 0.999825
0.999834 1 1 0.999834
1 1 1 1
0.999839 1 1 0.999839
1 1 1 1
1 1 1 1
1 1 1 1
1 1 1 1
1 1 1 1
1 1 1 1
1 1 1 1
1 1 1 1
0.999986 1 1 0.999986
1 1 1 1
1 1 1 1
1.02944 1.03219 1 0.997342
1.03582 1.03884 0.999649 0.997443
1.03123 1.03525 0.998361 0.997749
1.03252 1.03895 0.996218 0.997581
1.03571 1.03991 0.998607 0.997346
1.03518 1.03816 1 0.997125
1.03465 1.03919 0.998293 0.997334
1.03374 1.04029 0.996163 0.997537
1.03312 1.03939 0.99629 0.997665
1.03222 1.03562 0.99896 0.997756
1.0339 1.04054 0.99612 0.997488
1.03448 1.04451 0.992669 0.99771
1.035 1.04252 0.994981 0.9978
1.03509 1.03945 0.998447 0.997354
1.03387 1.038 0.998633 0.99739
1.02956 1.03337 0.998672 0.997637
1.00008 1.00214 1 0.997946
1.00352 1.00597 1.00018 0.997392
1.01084 1.01329 1.00085 0.996735
1.02636 1.02928 0.999492 0.997665
1.02202 1.0245 0.999817 0.997755
1.0201 1.02297 1 0.997197
0.998995 1.00091 1 0.99809
0.998295 1 1 0.998295
1.00289 1 1.00485 0.998054
0.999638 1 1 0.999638
1.00072 1 1.0022 0.99852
0.999154 1 1.00022 0.998932
1.03373 1.0403 0.996225 0.997443
1.03185 1.04015 0.994426 0.997583
1.02488 1.03165 0.995688 0.997739
0.99995 1.00217 1 0.997782
1.00233 1.00398 1.0014 0.996958
1.00611 1.00858 1.0009 0.996654
1.02849 1.03277 0.997956 0.997897
1.02009 1.02281 0.999909 0.997432
0.99979 1 1 0.99979
0.999175 1 1 0.999175
0.998269 1.00024 1 0.998026
1.0038 1.00004 1.00574 0.998027
1.00302 1 1.00482 0.998204
0.999306 1 1.00065 0.998657
1.03282 1.04261 0.992962 0.99763
1.02433 1.0376 0.989473 0.997709
1.02349 1.03243 0.993389 0.997937
1.02069 1.02579 0.997111 0.997918
1.00076 1.00238 1.00088 0.997497
1.00561 1.00744 1.0014 0.996785
1.00291 1.00361 1.00264 0.996673
0.999893 1 1 0.999893
0.999499 1 1 0.999499
0.999286 1 1 0.999286
0.998801 1 1 0.9988
1.00017 1 1.00179 0.998389
1.00436 1 1.0063 0.998072
0.998061 1 1 0.998061
1.0205 1 1.02235 0.998197
0.999292 1 1 0.999292
1.00074 1 1.002 0.998742
1.02735 1.02994 0.999779 0.9977
1.00253 1 1.00424 0.99829
1.00014 1.00005 1.00215 0.997931
0.998297 1 1.00004 0.998261
1.01405 1.01697 1 0.997133
1.01907 1.02162 1 0.997505
1.00276 1.00077 1.00482 0.997178
1.00268 1.00598 1 0.996721
0.998977 1 1.00003 0.99895
1.00189 1 1.00349 0.998404
1.00254 1.00061 1.00415 0.997782
0.999381 1 1.00137 0.998014
1.03023 1.04012 0.992565 0.997909
1.02074 1.02316 0.999949 0.997689
1.00989 1.01299 1 0.996944
1.00398 1.00341 1.00377 0.996801
0.999289 1 1.00053 0.998755
1.02766 1.04271 0.987632 0.997911
1.00113 1 1.00301 0.998123
1.00149 1.00131 1.00268 0.997504
1.02829 1.03274 0.997683 0.997997
1.01008 1.01308 1 0.997039
1.00494 1.00507 1.00323 0.996646
0.99908 1 1 0.99908
0.998931 1 1 0.998931
0.99886 1 1 0.99886
0.999396 1 1 0.999396
0.999097 1 1 0.999097
0.998938 1 1 0.998938
0.999381 1 1 0.999381
0.99905 1 1 0.99905
0.998867 1 1 0.998867
0.998922 1 1 0.998922
0.99883 1 1 0.99883
0.998819 1 1 0.998819
0.998863 1 1 0.998863
0.999023 1 1 0.999023
0.999348 1 1 0.999348
0.99981 1 1 0.99981
0.999823 1 1 0.999823
1 1 1 1
0.999833 1 1 0.999833
1 1 1 1
1 1 1 1
1 1 1 1
1 1 1 1
1 1 1 1
0.999921 1 1 0.999921
1 1 1 1
1 1 1 1
1 1 1 1
0.999999 1 1 0.999999
1 1 1 1
1 1 1 1
1.034 1.03723 0.999118 0.997763
1.03243 1.03875 0.996241 0.997665
1.03322 1.03966 0.996269 0.997528
1.03434 1.03912 0.998064 0.997335
1.03343 1.04046 0.995731 0.997507
1.03462 1.04428 0.99303 0.997699
1.0343 1.04212 0.994677 0.997811
1.0343 1.04467 0.99237 0.997686
1.03921 1.05028 0.991619 0.997819
1.02437 1.04173 0.985264 0.998048
1.03447 1.04062 0.99663 0.99745
1.03184 1.04036 0.994207 0.997592
1.02508 1.03135 0.996177 0.997731
1.00013 1.00231 1.00006 0.997772
1.00176 1.00346 1.00126 0.997043
1.006 1.00854 1.00078 0.996704
1.02871 1.03269 0.99824 0.997904
1.02008 1.02294 0.999791 0.997417
0.998067 1 1 0.998067
1.00536 1.00018 1.00707 0.998121
1.00377 1 1.00555 0.998231
0.999834 1 1 0.999834
0.999175 1 1 0.999175
0.999502 1 1.00087 0.998633
1.03284 1.04295 0.992646 0.997642
0.999888 1 1 0.999888
0.999475 1 1 0.999475
1.0239 1.03677 0.989854 0.99771
1.02349 1.03277 0.99309 0.997905
0.999948 1.00146 1.00091 0.997586
1.00328 1.00334 1.0033 0.996653
1.00617 1.00857 1.00084 0.996784
1.01958 1.02482 0.996986 0.997899
0.999352 1 1 0.999352
0.998815 1 1.00002 0.998796
0.998285 1.00012 1.00019 0.99798
1.01583 1 1.01754 0.998321
1.00364 1 1.00558 0.998073
1.00068 1 1.00228 0.998405
1.03824 1.04932 0.991642 0.997778
1.01129 1.03509 0.979113 0.997849
1.0189 1.02958 0.991505 0.998107
1.00458 1.01056 0.996462 0.997617
1.00126 1.00092 1.00274 0.997602
1.00384 1.00183 1.00547 0.996554
0.99948 1 1 0.99948
0.999447 1 1 0.999447
0.999201 1 1 0.999201
0.998863 1 1 0.998863
0.998974 1 1.00039 0.998583
1.00026 1 1.00213 0.998134
1.02847 1 1.03048 0.998055
1.00118 1 1.00284 0.998346
0.999018 1 1.00009 0.998928
1.00165 1 1.00324 0.998419
1.03122 1.04048 0.993167 0.997924
1.02067 1.02308 1 0.997648
0.999179 1 1.00113 0.998046
1.00259 1.00038 1.00441 0.997809
1.01125 1.01428 1.00004 0.996984
1.00424 1.00414 1.00335 0.996754
0.999364 1 1.00062 0.998745
1.02903 1.04478 0.986952 0.997947
1.00105 1 1.00291 0.998141
1.00109 1.00095 1.00269 0.997463
1.02693 1.03205 0.997066 0.99797
1.01025 1.01319 1 0.997099
1.00501 1.00487 1.00348 0.99666
1.00045 1 1.002 0.998454
1.01818 1.03321 0.987105 0.998327
1.00088 1.00114 1.00185 0.997896
1.00272 1.00179 1.00379 0.997153
1.01352 1.01948 0.996532 0.997617
1.00233 1.00332 1.00221 0.996811
0.999217 1.00651 0.994487 0.998253
0.998926 1 1 0.998926
0.998982 1 1.00013 0.998856
0.998845 1 1.0001 0.998743
0.999379 1 1 0.999379
0.999053 1 1 0.999053
0.998943 1 1 0.998943
0.998857 1 1 0.998857
0.999347 1 1 0.999347
0.999012 1 1 0.999012
0.998808 1 1 0.998808
0.998863 1 1 0.998863
0.998827 1 1 0.998827
0.998785 1 1 0.998785
0.998885 1 1.00016 0.998722
0.998848 1 1 0.998848
0.998939 1 1 0.998939
0.999264 1 1 0.999264
0.99908 1 1 0.99908
0.999254 1 1 0.999254
0.999801 1 1 0.999801
0.999809 1 1 0.999809
1 1 1 1
0.999821 1 1 0.999821
1 1 1 1
1 1 1 1
1 1 1 1
1 1 1 1
1 1 1 1
0.999939 1 1 0.999939
0.999918 1 1 0.999918
1 1 1 1
1 1 1 1
1 1 1 1
1 1 1 1
1 1 1 1
1 1 1 1
1.03371 1.04191 0.994303 0.997821
1.03472 1.04407 0.993337 0.997689
1.03298 1.04038 0.995344 0.997526
1.0342 1.0445 0.992441 0.997684
1.03746 1.04846 0.991672 0.997816
1.02515 1.04131 0.98645 0.998005
1.03869 1.05219 0.98927 0.997882
0.98856 1.01596 0.975777 0.997186
1.00846 1.03043 0.98004 0.998608
0.999569 1 1 0.999569
1.03283 1.04322 0.992369 0.997654
1.02388 1.03603 0.99054 0.99771
1.02365 1.03315 0.992913 0.997873
0.999413 1.00092 1.00082 0.997676
1.0035 1.00286 1.00402 0.996633
1.00674 1.00953 1.00045 0.996783
1.01829 1.02365 0.996875 0.99788
0.998006 1.00011 1 0.997901
1.01104 1 1.01261 0.998448
1.00265 1 1.00458 0.998074
0.999884 1 1 0.999884
1.00094 1 1.00252 0.998422
0.999417 1 1 0.999417
0.998791 1 1 0.998791
0.999451 1 1 0.999451
1.03644 1.04965 0.989601 0.997786
0.999513 1 1 0.999513
0.999445 1 1 0.999445
0.999161 1 1 0.999161
1.01336 1.03467 0.981512 0.99785
1.01903 1.02987 0.99139 0.998062
1.00032 1.00084 1.00187 0.997624
1.00389 1.00172 1.00556 0.996622
1.0037 1.00891 0.997221 0.997609
0.998901 1 1 0.998901
0.999055 1 1.00051 0.99855
1.00512 1 1.00687 0.998265
1.02308 1 1.02503 0.998093
1.00006 1 1.0019 0.998164
1.02625 1.04216 0.986842 0.997871
1.00828 1.03562 0.975571 0.997973
1.01151 1.01886 0.99497 0.997806
0.99868 1.00398 0.997312 0.997405
1.00316 1 1.0053 0.997877
0.999116 1 1 0.999116
0.999018 1 1 0.999018
0.998899 1 1 0.998899
0.998887 1 1.00024 0.998647
0.999909 1 1.00153 0.998381
1.01992 1 1.02186 0.9981
1.02045 1 1.02245 0.99805
0.999381 1 1.00065 0.998734
1.00093 1 1.00277 0.998159
1.02989 1.04732 0.985343 0.997982
1.02559 1.03152 0.996294 0.997943
1.01004 1.01292 1 0.997159
1.00077 1.00068 1.00268 0.997423
1.00482 1.00455 1.0036 0.996675
1.00035 1 1.00186 0.998494
1.01592 1.03294 0.985147 0.998346
0.999964 1.0007 1.00135 0.997919
1.00236 1.00113 1.00408 0.997161
1.01431 1.01996 0.996753 0.997709
1.00225 1.00275 1.00271 0.996797
0.99836 1.00637 0.994416 0.997612
1.00015 1 1.00183 0.998315
1.0069 1.01948 0.989322 0.99832
1.00028 1.00044 1.00194 0.997907
1.00429 1.00068 1.00639 0.997228
0.997169 1.0058 0.994014 0.997388
0.946916 0.982692 0.979879 0.98338
0.959604 0.982688 0.98464 0.991743
0.984537 0.995268 0.990924 0.998279
0.823116 0.883401 0.955601 0.975049
0.769178 0.873127 0.908765 0.969389
0.998953 1 1.0001 0.998853
0.999098 1 1.00033 0.998767
0.99876 1 1 0.99876
0.999346 1 1 0.999346
0.999001 1 1 0.999001
0.998863 1 1 0.998863
0.998835 1 1 0.998835
0.998785 1 1 0.998785
0.999009 1 1.00018 0.998825
0.999291 1 1 0.999291
0.998955 1 1 0.998955
0.998779 1 1 0.998779
0.999099 1 1.00037 0.998734
0.99948 1 1.00074 0.998741
0.999734 1 1.00099 0.998741
0.998882 1 1.00012 0.998759
0.998911 1 1 0.998911
0.999246 1 1 0.999246
0.998981 1 1 0.998981
0.998909 1 1 0.998909
0.999068 1 1 0.999068
0.999047 1 1 0.999047
0.999333 1 1 0.999333
0.999251 1 1 0.999251
0.999796 1 1 0.999796
0.999801 1 1 0.999801
1 1 1 1
0.999808 1 1 0.999808
1 1 1 1
1 1 1 1
1 1 1 1
1 1 1 1
1 1 1 1
0.99995 1 1 0.99995
0.999936 1 1 0.999936
1 1 1 1
0.999916 1 1 0.999916
1 1 1 1
1 1 1 1
1 1 1 1
1 1 1 1
1 1 1 1
1.03556 1.04651 0.991704 0.997813
1.03415 1.04435 0.992528 0.997682
1.02627 1.04097 0.987895 0.997962
0.992678 1.01581 0.979934 0.99724
1.03628 1.04993 0.989095 0.99788
1.01589 1.03297 0.984933 0.998508
1.0314 1.0396 0.994142 0.997962
0.95164 0.983739 0.976245 0.990909
1.00095 1.01935 0.98416 0.997755
0.999575 1 1 0.999575
0.999567 1 1 0.999567
0.999213 1 1 0.999213
0.999248 1 1 0.999248
1.0347 1.04987 0.987724 0.997794
1.01456 1.03374 0.983559 0.997852
1.01894 1.02997 0.991258 0.998015
0.999195 1.00065 1.00091 0.997645
1.00378 1.00174 1.00536 0.99669
1.00293 1.00771 0.997649 0.997601
1.00924 1 1.01108 0.998184
1.0178 1 1.01971 0.998131
0.999755 1 1.00156 0.998195
0.999444 1 1 0.999444
0.998972 1 1.00046 0.998516
0.99894 1 1 0.99894
0.999546 1 1 0.999546
0.999121 1 1 0.999121
1.02399 1.04171 0.985071 0.997886
0.999161 1 1 0.999161
0.999058 1 1 0.999058
0.998957 1 1 0.998957
1.0113 1.0378 0.976445 0.997973
1.01016 1.01811 0.994377 0.997804
1.00278 1.00003 1.00489 0.997862
0.999562 1.00438 0.997761 0.99744
0.999037 1 1.0004 0.998633
0.999465 1 1.00113 0.998337
1.02251 1 1.02451 0.998042
1.02084 1 1.02282 0.998066
1.00561 1.03446 0.974063 0.997995
1.00216 1.02679 0.978027 0.997932
1.00418 1.00797 0.998728 0.997505
0.994077 1.00034 0.995609 0.998126
0.998787 1 1 0.998787
0.999307 1 1.00057 0.998734
1.00666 1 1.00821 0.998467
1.03525 1 1.03739 0.997943
0.924383 0.971981 0.968371 0.982094
1.00062 1 1.00209 0.998534
0.999267 1.00023 1.00109 0.997942
1.01441 1.0325 0.984086 0.998364
1.01534 1.02066 0.996987 0.997801
1.00256 1.0025 1.0033 0.996783
1.0021 1.00047 1.00447 0.997168
0.998321 1.00622 0.995177 0.996957
1.0002 1 1.00185 0.998353
1.00768 1.02 0.989594 0.998309
0.999774 1.00042 1.00144 0.997919
1.00396 1.00064 1.00611 0.997226
0.999376 1.0068 0.995203 0.99741
0.945721 0.986299 0.97622 0.982215
0.955032 0.980295 0.984407 0.989661
0.984471 0.993336 0.992764 0.998299
0.823859 0.881643 0.958177 0.975247
0.753518 0.861901 0.90427 0.966803
0.999488 1 1.00095 0.998541
0.849445 0.90463 0.961847 0.976244
0.812191 0.877562 0.953293 0.970854
0.986637 1.00713 0.981418 0.998196
1.00525 1.00058 1.00657 0.998108
1.01178 1.0038 1.01039 0.997587
0.975974 0.989181 0.988178 0.998452
0.941644 0.971321 0.987068 0.982148
0.9384 0.958815 0.989883 0.988711
0.800543 0.882693 0.929306 0.975926
0.829082 0.918168 0.930013 0.970926
0.999535 1 1.00075 0.99879
0.999301 1 1.00056 0.998746
1.00006 1 1.00108 0.998975
0.999317 1 1 0.999317
0.99897 1 1 0.99897
0.999177 1 1.00037 0.998803
0.999265 1 1.00052 0.998746
0.998773 1 1 0.998773
0.999247 1 1 0.999247
0.999468 1 1.00073 0.998735
0.999115 1 1.00034 0.998777
0.998938 1 1 0.998938
0.999564 1 1.00082 0.998745
1.00021 1 1.00149 0.998725
1.00081 1 1.00203 0.998785
0.998743 1 1 0.998743
0.998943 1 1 0.998943
0.998978 1 1 0.998978
0.9989 1 1 0.9989
0.998811 1 1 0.998811
0.9989 1 1 0.9989
0.998948 1 1.0001 0.998852
0.998887 1 1.00015 0.998739
0.999044 1 1 0.999044
0.999067 1 1 0.999067
0.999354 1 1 0.999354
0.999014 1 1 0.999014
0.99931 1 1 0.99931
0.999792 1 1 0.999792
0.999249 1 1 0.999249
0.999797 1 1 0.999797
1 1 1 1
0.9998 1 1 0.9998
1 1 1 1
1 1 1 1
1 1 1 1
1 1 1 1
1 1 1 1
0.999546 1 1 0.999546
0.99995 1 1 0.99995
0.999948 1 1 0.999948
1 1 1 1
0.999932 1 1 0.999932
1 1 1 1
1 1 1 1
1 1 1 1
1 1 1 1
1 1 1 1
0.99545 1.01579 0.982629 0.997298
1.03447 1.04766 0.989512 0.997878
1.0211 1.03556 0.987607 0.998407
0.94616 0.978065 0.975302 0.991878
1.00103 1.01907 0.984394 0.997868
1.03293 1.04272 0.99268 0.99792
1.01532 1.02504 0.992822 0.997684
0.959295 0.979911 0.986107 0.992754
0.947491 0.980743 0.984114 0.98169
0.80707 0.877386 0.94322 0.975231
0.748047 0.843438 0.915453 0.968812
0.999202 1 1 0.999202
0.999574 1 1 0.999574
0.999566 1 1 0.999566
0.9992 1 1 0.9992
0.998979 1 1 0.998979
0.999012 1 1 0.999012
0.999181 1 1 0.999181
0.999222 1 1 0.999222
1.02163 1.0417 0.982799 0.9979
1.01527 1.04101 0.977247 0.997973
1.00913 1.01741 0.994044 0.997803
1.00289 1.00012 1.00493 0.997848
1.00051 1.00445 0.998602 0.997475
1.02435 1 1.02636 0.998035
1.0223 1 1.02432 0.998033
0.999255 1 1.00096 0.998294
0.999098 1 1 0.999098
0.998953 1 1.00033 0.99862
0.999207 1 1 0.999207
0.999015 1 1 0.999015
1.00633 1.03489 0.974366 0.997987
0.998814 1 1 0.998814
0.998971 1 1.00021 0.998759
1.00257 1.02622 0.979 0.99791
1.00191 1.00752 0.996809 0.997619
0.996232 1.0007 0.997484 0.998042
1.00949 1 1.01112 0.99839
1.03168 1 1.03379 0.997957
1.00088 1.02667 0.976849 0.99798
0.9859 1.00803 0.980039 0.997969
0.989938 1.00077 0.991172 0.997989
1.00124 1.00025 1.0028 0.998201
0.999082 1 1.00052 0.998563
1.00326 1 1.00475 0.998512
1.03006 1 1.03193 0.998191
0.838703 0.910924 0.942385 0.977007
0.939589 0.976862 0.97732 0.984165
0.999787 1 1.0014 0.998391
0.999379 1.00038 1.00107 0.997932
1.00881 1.02081 0.989926 0.998299
1.00149 1.00776 0.996344 0.997431
1.00353 1.0006 1.00571 0.997226
0.941652 0.977773 0.980806 0.981904
0.959728 0.986105 0.982785 0.9903
0.985462 0.992098 0.99499 0.998312
0.820257 0.883084 0.95148 0.976221
0.740518 0.850786 0.902742 0.964166
0.999475 1 1.00094 0.998541
0.843955 0.908404 0.951237 0.97668
0.805066 0.870873 0.953386 0.969633
0.988468 1.00796 0.982441 0.998191
1.00493 1.00062 1.00619 0.998132
1.01007 1.00216 1.01019 0.997734
0.967835 0.983255 0.985734 0.998563
0.947063 0.98008 0.985443 0.980586
0.940168 0.963306 0.985123 0.99072
0.804132 0.877553 0.940335 0.974476
0.8262 0.920422 0.925247 0.970154
1.00101 1 1.00218 0.998836
0.840878 0.887863 0.973814 0.972548
0.911564 0.949816 0.981121 0.978194
0.989568 0.999651 0.991163 0.99874
1.01308 1.00228 1.01208 0.998715
0.979441 0.973278 1.00772 0.998625
0.923794 0.946607 0.984001 0.991768
0.926824 0.951347 0.993993 0.980111
0.817013 0.887838 0.943819 0.975004
0.858058 0.94461 0.932981 0.973624
0.999798 1 1.00107 0.998733
0.999687 1 1.00074 0.998949
1.00355 1 1.00439 0.999159
0.999248 1 1 0.999248
0.998964 1 1 0.998964
0.999344 1 1.00055 0.998794
0.999504 1 1.00078 0.998729
0.999388 1 1.00064 0.998749
0.998941 1 1 0.998941
0.999606 1 1.00088 0.998725
0.998745 1 1 0.998745
1.00206 1 1.00324 0.998819
1.01546 0.999926 1.01641 0.999138
0.99964 1 1.00094 0.998705
0.998713 1 1 0.998713
0.998975 1 1 0.998975
0.99889 1 1 0.99889
0.998808 1 1 0.998808
0.998895 1 1 0.998895
0.998973 1 1.0001 0.998877
0.999021 1 1.00018 0.998841
0.99893 1 1.00014 0.998787
0.998867 1 1 0.998867
0.998736 1 1.0001 0.998638
0.99912 1 1.00093 0.998193
0.99894 1 1.00032 0.998616
0.998877 1 1.00014 0.998736
0.999002 1 1.00002 0.998978
0.999053 1 1.00001 0.999042
0.999349 1 1 0.999349
0.999067 1 1 0.999067
0.999355 1 1 0.999355
0.999792 1 1 0.999792
0.999288 1 1 0.999288
0.999793 1 1 0.999793
1 1 1 1
0.999797 1 1 0.999797
1 1 1 1
1 1 1 1
1 1 1 1
1 1 1 1
1 1 1 1
0.999564 1 1 0.999564
0.999937 1 1 0.999937
0.999547 1 1 0.999547
1 1 1 1
0.99995 1 1 0.99995
0.999945 1 1 0.999945
1 1 1 1
1 1 1 1
1 1 1 1
1 1 1 1
1 1 1 1
0.840066 0.898687 0.958144 0.975605
0.813809 0.878612 0.95364 0.971273
0.948752 0.981955 0.973613 0.992372
1.00299 1.01871 0.986551 0.997984
1.03568 1.04573 0.992497 0.997879
0.947521 0.969022 0.983627 0.994088
1.01459 1.02448 0.992569 0.997762
0.953328 0.987772 0.98183 0.98299
0.81891 0.883097 0.951067 0.975027
0.741185 0.845326 0.907498 0.966177
0.976383 0.997282 0.983351 0.99562
0.944821 0.974022 0.987152 0.982645
0.794324 0.878602 0.926904 0.975373
0.816918 0.908917 0.927047 0.96951
0.998912 1 1.00004 0.998875
0.999226 1 1 0.999226
0.999573 1 1 0.999573
0.999188 1 1 0.999188
0.999017 1 1 0.999017
0.999223 1 1.00034 0.998885
0.999007 1 1 0.999007
0.998997 1 1 0.998997
0.999151 1 1 0.999151
0.999195 1 1 0.999195
1.00743 1.03478 0.97554 0.997979
1.00144 1.02438 0.979672 0.99789
0.999711 1.00736 0.99466 0.997734
0.997995 1.00097 0.999064 0.997959
1.02712 1 1.02921 0.997971
1.01285 1 1.01456 0.998314
0.998784 1 1 0.998784
0.998842 1 1 0.998842
1.00043 1.02695 0.976118 0.998005
0.99968 1 1.00114 0.998544
1.00332 1 1.00485 0.998479
0.985709 1.00653 0.981388 0.997888
0.988791 1.00043 0.990249 0.998099
1.00222 1.00082 1.0033 0.998105
1.02679 1 1.02868 0.998163
0.995388 1.00434 0.992769 0.998303
0.98317 1 0.984446 0.998704
1.01359 1.00043 1.01489 0.998288
1.00272 1 1.00421 0.998519
1.00201 1 1.00364 0.998378
1.01716 1 1.01891 0.998283
0.85378 0.897885 0.973925 0.976337
0.848331 0.910019 0.954329 0.976825
0.930261 0.975601 0.970866 0.982139
0.999367 1 1.00083 0.99854
1.00466 1.0006 1.00592 0.998157
0.990971 1.00862 0.98429 0.998186
1.00864 1.00059 1.01019 0.997879
0.836124 0.902725 0.948248 0.976772
0.946879 0.977868 0.98563 0.982428
0.931625 0.960618 0.980805 0.988797
0.963426 0.978484 0.985917 0.998675
0.804413 0.877818 0.940909 0.973928
0.807271 0.875696 0.950657 0.969711
0.81419 0.911664 0.920027 0.970712
1.00172 1 1.00288 0.99884
0.841914 0.891289 0.970108 0.973709
0.918583 0.955371 0.983049 0.978074
0.991486 0.999988 0.992663 0.998827
1.01284 1.00088 1.01329 0.998689
0.97661 0.972173 1.00587 0.998697
0.923517 0.949236 0.982925 0.989806
0.929473 0.955543 0.991008 0.981542
0.832424 0.903682 0.944944 0.974817
0.845737 0.933595 0.92991 0.974172
1.00428 0.999757 1.00507 0.99945
0.919464 0.955861 0.979605 0.981948
0.897296 0.94365 0.96823 0.982079
0.99982 0.985996 1.01431 0.999715
0.94352 0.948095 1.0005 0.99468
0.934412 0.949373 1.00362 0.980693
0.869681 0.92318 0.966761 0.97444
0.867929 0.959939 0.928947 0.973307
0.999488 1 1.00057 0.998923
1.00248 1 1.00332 0.999161
1.01643 1 1.01707 0.999371
0.99894 1 1 0.99894
0.998746 1 1 0.998746
0.998956 1 1.00023 0.998725
1.00291 1 1.00407 0.998854
0.998711 1 1 0.998711
0.999957 1 1.00126 0.998699
1.01768 1 1.0185 0.999196
1.02822 0.997309 1.03157 0.999446
1.01611 1 1.01705 0.999075
0.998681 1 1 0.998681
0.998804 1 1 0.998804
0.99889 1 1 0.99889
0.998902 1 1 0.998902
0.998836 1 1.00004 0.9988
0.998959 1 1.00012 0.99884
0.999076 1 1.0002 0.998876
0.998921 1 1.00014 0.99878
1.00112 1 1.00208 0.999046
0.99869 1 1 0.99869
0.99879 1 1.00012 0.998667
0.999042 1 1.00069 0.998348
0.999215 1 1.00153 0.997692
0.999749 1 1.00123 0.998524
0.999091 1 1.00079 0.9983
0.998911 1 1.00026 0.998647
0.999161 1 1.00032 0.998843
0.998891 1 1.00016 0.998733
0.998982 1 1.00001 0.998977
0.999301 1 1 0.999301
0.99904 1 1 0.99904
0.999347 1 1 0.999347
0.999788 1 1 0.999788
0.999356 1 1 0.999356
0.999792 1 1 0.999792
1 1 1 1
0.999794 1 1 0.999794
1 1 1 1
1 1 1 1
1 1 1 1
1 1 1 1
1 1 1 1
0.999408 1 1 0.999408
0.999917 1 1 0.999917
0.999507 1 1 0.999507
1 1 1 1
0.999941 1 1 0.999941
0.999547 1 1 0.999547
1 1 1 1
1 1 1 1
0.999951 1 1 0.999951
1 1 1 1
1 1 1 1
1 1 1 1
0.8413 0.890036 0.969918 0.97456
0.844687 0.905982 0.955448 0.975819
0.916983 0.956216 0.980663 0.977879
0.805585 0.872086 0.952002 0.970318
0.945471 0.97436 0.97814 0.992037
1.01199 1.02394 0.99047 0.997844
0.959378 0.987731 0.986893 0.984194
0.822569 0.886722 0.950956 0.975494
0.738901 0.850458 0.90173 0.963512
0.973598 0.994158 0.984361 0.994878
0.942438 0.974244 0.986819 0.980274
0.807351 0.886634 0.934825 0.974064
0.818003 0.912097 0.926166 0.968333
0.954978 0.982012 0.978775 0.993558
0.938505 0.956268 1.00168 0.979782
0.832929 0.908399 0.941462 0.973933
0.852487 0.944544 0.928837 0.971686
0.999519 1 1.00084 0.998685
0.99891 1 1 0.99891
0.99925 1 1 0.99925
0.999055 1 1 0.999055
0.998695 1 1.00003 0.998663
0.998929 1 1.00002 0.998913
0.999002 1 1 0.999002
0.998962 1 1 0.998962
0.999027 1 1 0.999027
0.999121 1 1 0.999121
1.00148 1.02819 0.975944 0.99803
0.987491 1.00597 0.983788 0.997809
0.987735 1.00025 0.989264 0.998208
1.0042 1.00156 1.00463 0.99801
1.02278 1 1.0247 0.998135
1.00279 1 1.00435 0.998446
1.00005 1 1.00153 0.998524
1.00182 1 1.00332 0.998503
0.991702 1.00514 0.988296 0.998313
1.00144 1 1.00307 0.998382
1.01659 1 1.01835 0.998276
0.982359 1.00032 0.983389 0.998632
1.0132 1.00108 1.01387 0.998259
0.964623 0.989174 0.976362 0.99879
0.999839 0.99692 1.00368 0.999249
1.02646 1 1.028 0.998506
1.00077 1 1.00238 0.998392
1.00846 1 1.01019 0.998291
0.923281 0.954481 0.98313 0.98391
0.857936 0.897736 0.978907 0.976258
0.839093 0.904853 0.949673 0.976468
1.00235 1 1.00351 0.998844
1.01256 0.999538 1.01439 0.998661
0.991132 0.999835 0.992377 0.99891
0.849836 0.896629 0.972582 0.974532
0.938709 0.954853 1.00328 0.979881
0.924173 0.948344 0.983228 0.991136
0.966144 0.967647 0.999704 0.998742
0.832987 0.903152 0.945858 0.975106
0.924189 0.959273 0.985134 0.977965
0.847552 0.93526 0.930156 0.974268
1.00352 0.999307 1.0048 0.999423
0.916039 0.953849 0.977041 0.982928
0.899119 0.94528 0.968516 0.982087
1.00169 0.988743 1.01353 0.999566
0.95076 0.95375 1.00257 0.994312
0.919931 0.945257 0.99399 0.979092
0.870773 0.961422 0.92971 0.974189
0.873238 0.925392 0.968197 0.974637
1.00419 0.991067 1.01354 0.999711
0.897597 0.939521 0.966587 0.988402
0.910862 0.958709 0.966555 0.982968
0.853714 0.944969 0.929663 0.971783
0.983966 0.971019 1.01477 0.998588
0.955244 0.961336 1.01236 0.98153
0.890205 0.932261 0.979234 0.975138
1.00209 1 1.00293 0.999163
1.01603 1 1.01675 0.999297
1.0181 0.994277 1.0244 0.999566
0.998709 1 1 0.998709
1.00023 1 1.00154 0.998693
1.02153 1 1.0223 0.999254
0.998691 1 1 0.998691
1.01514 1 1.01607 0.999085
1.03054 0.997466 1.03376 0.999421
1.01633 0.996553 1.02037 0.999489
1.01072 1 1.01166 0.999074
0.998814 1 1 0.998814
0.998889 1 1.00005 0.99884
0.999263 1 1.00038 0.998885
1.00046 1 1.00144 0.999025
0.998916 1 1.00013 0.998787
1.00028 1 1.00132 0.998964
0.99886 1 1 0.99886
1.00078 1 1.00269 0.998097
0.998857 1 1.00016 0.998696
0.998881 1.00002 1.00057 0.9983
0.998519 1 1.00101 0.997509
0.999732 1.00086 1.00129 0.997589
1.00048 1 1.00219 0.99829
0.999098 1 1.00138 0.997719
1.00028 1 1.00158 0.9987
0.99997 1 1.00148 0.998495
0.999051 1 1.00065 0.998407
0.998868 1 1.00019 0.998678
0.999108 1 1.00023 0.998875
0.999221 1 1 0.999221
0.998975 1 1 0.998975
0.9993 1 1 0.9993
0.999766 1 1 0.999766
0.999346 1 1 0.999346
0.999786 1 1 0.999786
1 1 1 1
0.999792 1 1 0.999792
1 1 1 1
1 1 1 1
1 1 1 1
1 1 1 1
1 1 1 1
0.999232 1 1 0.999232
0.999789 1 1 0.999789
0.999407 1 1 0.999407
1 1 1 1
0.99988 1 1 0.99988
0.99945 1 1 0.99945
1 1 1 1
1 1 1 1
0.999944 1 1 0.999944
1 1 1 1
1 1 1 1
1 1 1 1
0.91206 0.952626 0.974247 0.982724
0.832212 0.888266 0.961031 0.974884
0.843756 0.902324 0.958449 0.975631
0.998855 1 1 0.998855
0.900297 0.940727 0.973234 0.983343
0.916433 0.9562 0.980178 0.977793
0.802824 0.875091 0.94509 0.97072
0.978112 0.99585 0.988159 0.993958
0.942884 0.971739 0.987808 0.982282
0.813764 0.898599 0.930255 0.973489
0.812222 0.903967 0.927658 0.968576
0.955386 0.981336 0.982242 0.991158
0.925975 0.951256 0.991781 0.981491
0.843522 0.912102 0.949471 0.974027
0.850453 0.939803 0.93135 0.971629
0.930775 0.956541 0.983796 0.989091
0.932362 0.944537 1.00785 0.979421
0.881256 0.933463 0.968759 0.974516
0.868185 0.958622 0.930516 0.973287
0.999519 1 1.00103 0.998494
0.999967 1 1.00131 0.998655
0.998945 1 1 0.998945
0.998668 1 1 0.998668
0.998877 1 1.00017 0.998708
0.99894 1 1 0.99894
0.99897 1 1 0.99897
0.999058 1 1 0.999058
0.985644 1.00534 0.982061 0.998321
0.980396 1.00015 0.981659 0.998562
1.00108 1 1.00259 0.998488
1.01329 1.00176 1.01331 0.998228
1.0178 1 1.01957 0.998268
1.00134 1 1.00296 0.998386
1.00106 1 1.00266 0.9984
0.969957 0.991132 0.979774 0.998838
1.00987 1 1.01157 0.998323
1.02196 1.00027 1.0232 0.998515
0.994752 0.997086 0.998369 0.999289
1.00018 1 1.00174 0.998445
0.960748 0.980051 0.981283 0.999002
1.00641 0.993474 1.01358 0.999454
1.03964 0.999933 1.04117 0.998599
1.00215 1 1.0037 0.998453
0.910217 0.942683 0.975616 0.989693
0.92275 0.953921 0.983029 0.984023
0.863284 0.897709 0.985117 0.976181
1.00211 0.998776 1.00394 0.999398
1.0053 0.991862 1.01414 0.999422
0.913722 0.952805 0.974677 0.983896
0.942355 0.948338 1.01268 0.981252
0.944457 0.952329 1.00003 0.991699
0.877132 0.929139 0.969541 0.973685
0.900212 0.946267 0.968676 0.982093
0.874624 0.963816 0.930663 0.975067
1.00609 0.994089 1.01241 0.999669
0.898686 0.94015 0.96712 0.988396
0.908756 0.956689 0.96498 0.98437
0.993177 0.977744 1.01607 0.999723
0.850993 0.940212 0.931486 0.971681
0.94041 0.950373 1.0092 0.980496
0.90028 0.944403 0.978186 0.974538
1.00642 0.989319 1.01752 0.999771
0.913821 0.955103 0.966814 0.989619
0.900277 0.940886 0.972961 0.983431
0.815988 0.909241 0.925557 0.96962
0.880789 0.934514 0.967508 0.974162
0.966774 0.964234 1.00533 0.997313
0.957984 0.955246 1.02528 0.978144
1.01333 1 1.01412 0.999225
1.01775 0.993796 1.02458 0.999536
1.00446 0.982707 1.02257 0.999582
0.998702 1 1 0.998702
1.01391 1 1.01482 0.999096
1.0312 0.998346 1.03353 0.999396
1.00714 1 1.00808 0.999059
1.01634 0.997289 1.01963 0.999488
1.00937 0.996154 1.01404 0.999244
0.999641 1 1.00064 0.999003
0.9989 1 1.00011 0.998793
1.0014 1 1.00247 0.998939
1.00642 1 1.00804 0.998393
0.999028 1 1 0.999028
1.00029 1 1.00207 0.998221
1.0016 1.00009 1.00413 0.997392
1.00152 1.00266 1.00188 0.996996
0.998726 1.00007 1.0004 0.99825
0.998858 1.00038 1.00109 0.997388
1.00026 1.00206 1.00053 0.997679
1.00074 1.00012 1.00261 0.998009
0.999802 1.0009 1.00125 0.997651
1.00235 1 1.00382 0.998537
1.00062 1 1.00235 0.99828
0.999022 1 1.00128 0.997746
0.999091 1 1.00001 0.999083
1.00035 1 1.00165 0.998699
1.0003 1 1.00183 0.998466
0.99906 1 1.00015 0.998908
0.999219 1 1 0.999219
0.999721 1 1 0.999721
0.9993 1 1 0.9993
0.999763 1 1 0.999763
1 1 1 1
0.999784 1 1 0.999784
1 1 1 1
1 1 1 1
1 1 1 1
1 1 1 1
1 1 1 1
0.999158 1 1 0.999158
0.999698 1 1 0.999698
0.999265 1 1 0.999265
1 1 1 1
0.999781 1 1 0.999781
0.999405 1 1 0.999405
1 1 1 1
1 1 1 1
0.999844 1 1 0.999844
1 1 1 1
1 1 1 1
1 1 1 1
0.900928 0.940823 0.968678 0.98856
0.914598 0.952653 0.976946 0.982709
0.832294 0.889335 0.95985 0.975007
0.998876 1 1 0.998876
0.998818 1 1 0.998818
0.998716 1 1 0.998716
0.908248 0.958406 0.964176 0.982876
0.897878 0.940299 0.971043 0.983361
0.917681 0.956304 0.981491 0.977707
0.960972 0.984147 0.983439 0.992894
0.922942 0.950709 0.990868 0.97974
0.8331 0.898215 0.951236 0.975053
0.862066 0.947243 0.937149 0.971114
0.934885 0.958435 0.984069 0.99122
0.930237 0.94461 1.00469 0.980183
0.865955 0.915277 0.969724 0.975651
0.869744 0.96052 0.929528 0.974142
0.923371 0.94799 0.984179 0.989689
0.946338 0.953571 1.01185 0.980793
0.891284 0.930614 0.981957 0.975335
0.859409 0.944652 0.934503 0.973526
0.998486 1 1 0.998486
0.99989 1 1.00141 0.998482
1 1 1.00138 0.998626
0.998662 1 1 0.998662
0.998753 1 1 0.998753
0.998979 1 1 0.998979
0.976991 0.99361 0.984382 0.998874
0.990179 0.997296 0.993537 0.999322
1.00125 1 1.00285 0.998408
1.01639 1.0005 1.01738 0.998524
1.01077 1 1.01243 0.998356
1.00008 1 1.00167 0.998418
1.00164 1 1.00317 0.998473
0.970594 0.98208 0.989233 0.999061
1.03402 0.999996 1.03536 0.998714
1.00691 0.989147 1.0185 0.999468
1.00003 1 1.00143 0.998599
0.983641 0.970386 1.01454 0.999132
1.00469 0.986444 1.01899 0.999515
1.02796 1 1.02915 0.998836
0.927599 0.958965 0.975937 0.991141
0.910052 0.942832 0.974889 0.990094
0.922589 0.953279 0.98341 0.984132
1.00941 0.997447 1.01237 0.999628
0.986221 0.978061 1.00932 0.999033
0.899966 0.940868 0.967764 0.988389
0.938123 0.942216 1.01164 0.984201
0.89761 0.941556 0.977969 0.974802
0.907813 0.954986 0.964323 0.985773
0.863084 0.947606 0.937803 0.971212
1.00352 0.987881 1.01605 0.999788
0.914753 0.955297 0.967156 0.990078
0.899106 0.941163 0.97139 0.98345
0.965806 0.96136 1.01039 0.994295
0.816679 0.911692 0.924924 0.968495
0.86317 0.917065 0.965101 0.975267
0.965806 0.958956 1.027 0.980661
1.00021 0.969865 1.03186 0.99944
0.901719 0.941372 0.968872 0.988652
0.920037 0.958594 0.981317 0.978051
0.74661 0.841254 0.91578 0.969114
0.832292 0.908161 0.940975 0.973946
0.944855 0.951913 1.01249 0.98034
0.945346 0.956954 0.99542 0.992416
1.01905 0.993569 1.02616 0.999504
1.00801 0.987724 1.02096 0.999586
1.01589 0.993624 1.02289 0.999529
1.00369 1 1.00465 0.999044
1.01695 0.99762 1.0199 0.999487
1.01131 0.995618 1.01645 0.999323
1.01232 1 1.01352 0.998813
1.00266 1 1.00375 0.998914
1.00658 1 1.00832 0.998275
1.01479 1.00005 1.01743 0.997354
0.999791 1 1.00145 0.998348
1.00309 1.00066 1.00509 0.997355
1.00481 1.00224 1.00596 0.996623
1.00325 1.00479 1.00191 0.996571
1.00022 1.00183 1.00108 0.99732
1.00138 1.00255 1.00189 0.996952
0.999138 1.00063 1.00124 0.997268
0.999537 1.00055 1.0011 0.997891
0.999949 1.0017 1.00048 0.997771
1.00185 1 1.00363 0.998232
1.00096 1.00019 1.00273 0.998054
0.999851 1.00097 1.00117 0.997714
1.00092 1 1.00207 0.998851
1.00173 1 1.0032 0.998539
1.00065 1 1.00238 0.99827
0.999642 1 1 0.999642
0.99918 1 1.0001 0.999081
1.00028 1 1.00158 0.998698
0.999217 1 1 0.999217
0.999716 1 1 0.999716
0.999999 1 1 0.999999
0.99976 1 1 0.99976
1 1 1 1
1 1 1 1
1 1 1 1
1 1 1 1
1 1 1 1
0.999142 1 1 0.999142
0.999697 1 1 0.999697
0.999179 1 1 0.999179
1 1 1 1
0.999733 1 1 0.999733
0.999298 1 1 0.999298
1 1 1 1
1 1 1 1
0.999772 1 1 0.999772
1 1 1 1
1 1 1 1
1 1 1 1
0.913506 0.954626 0.967027 0.989554
0.901403 0.94137 0.968628 0.988557
0.915112 0.95254 0.977611 0.982709
0.998778 1 1 0.998778
0.998649 1 1 0.998649
0.998897 1 1 0.998897
0.998814 1 1 0.998814
0.998698 1 1 0.998698
0.998699 1 1 0.998699
0.998604 1 1 0.998604
0.895027 0.943734 0.965837 0.981936
0.90816 0.956101 0.965019 0.984289
0.894986 0.939554 0.968663 0.983381
0.871831 0.962764 0.928769 0.975
0.923713 0.948968 0.983881 0.989334
0.931721 0.944042 1.00599 0.981075
0.871817 0.919871 0.971925 0.975137
0.916991 0.947374 0.97878 0.988914
0.93859 0.945686 1.01355 0.979224
0.90248 0.945651 0.978755 0.975063
0.845637 0.933606 0.929872 0.974086
0.925984 0.949542 0.984039 0.991008
0.94819 0.953346 1.01612 0.978816
0.873109 0.926207 0.967162 0.974679
0.8278 0.917748 0.929279 0.970636
1.00209 1 1.00348 0.998613
0.998682 1 1.00019 0.998489
1.0005 1 1.00203 0.99847
0.998657 1 1 0.998657
0.977173 0.982256 0.995689 0.999132
1.00668 0.98576 1.02176 0.99948
0.998943 1 1.00055 0.998392
1.00138 1 1.00289 0.998492
1.02817 1 1.02938 0.998828
0.999602 1 1.00101 0.998591
1.02826 0.999183 1.03032 0.998822
0.980814 0.969154 1.01374 0.998315
1.00708 0.98387 1.02397 0.999629
1.01235 0.997632 1.01582 0.998946
0.979944 0.962341 1.0202 0.998129
1.02324 0.989497 1.03483 0.999296
0.910828 0.942697 0.976209 0.98974
0.924058 0.957561 0.973108 0.99168
0.909439 0.942906 0.973762 0.990495
0.999015 0.984981 1.01445 0.999805
0.970242 0.96439 1.00858 0.997511
0.914547 0.954899 0.96689 0.99054
0.962091 0.960072 1.02405 0.978564
0.866194 0.918627 0.967386 0.974711
0.896594 0.941359 0.968454 0.98347
0.811761 0.903312 0.927649 0.968738
1.0046 0.97347 1.03244 0.99955
0.901396 0.941894 0.967988 0.988651
0.918122 0.957537 0.980442 0.977964
0.947679 0.956497 0.996069 0.994691
0.741238 0.844171 0.908487 0.966515
0.83943 0.909393 0.947805 0.9739
0.942191 0.946564 1.0161 0.979605
1.00049 0.977341 1.02517 0.99856
0.913158 0.953467 0.974363 0.982923
0.814627 0.878678 0.954209 0.971596
0.796806 0.879368 0.928697 0.975681
0.928164 0.939486 1.00733 0.980755
0.922873 0.946274 0.985215 0.989906
1.01056 0.991522 1.01961 0.99959
1.01628 0.991783 1.02519 0.999522
1.00294 0.994519 1.00913 0.999351
1.01325 0.995141 1.0188 0.999402
1.01122 0.997269 1.01512 0.998892
1.00433 1.0008 1.00559 0.997951
1.00701 1 1.00886 0.998157
1.01395 1.00014 1.01656 0.997299
1.009 1.0002 1.0122 0.996642
1.00476 1.00141 1.00604 0.997318
1.00518 1.00202 1.00664 0.996543
1.00284 1.00209 1.00445 0.996311
1.00752 1.01093 1 0.996633
1.00614 1.00861 1.00077 0.996785
1.00379 1.00511 1.00218 0.996517
0.999862 1.00217 1.00013 0.997571
0.999749 1.00163 1.00074 0.997379
1.00128 1.00248 1.0019 0.996908
0.999024 1 1.00112 0.997911
0.999753 1.00079 1.00108 0.99788
0.999541 1.00125 1.00043 0.997863
1.00208 1 1.00354 0.998545
1.00172 1 1.00344 0.998281
1.00118 1.00024 1.00284 0.998099
0.999471 1 1 0.999471
1.00063 1 1.00178 0.998853
1.00131 1 1.00277 0.99854
0.999995 1 1 0.999995
0.999635 1 1 0.999635
0.999325 1 1.00025 0.999079
0.999712 1 1 0.999712
0.999998 1 1 0.999998
1 1 1 1
0.999999 1 1 0.999999
1 1 1 1
1 1 1 1
0.998767 1 1 0.998767
0.999069 1 1 0.999069
0.999628 1 1 0.999628
0.99914 1 1 0.99914
0.999998 1 1 0.999998
0.999701 1 1 0.999701
0.999201 1 1 0.999201
1 1 1 1
1 1 1 1
0.999767 1 1 0.999767
1 1 1 1
1 1 1 1
1 1 1 1
0.896655 0.939464 0.96569 0.988344
0.913764 0.954727 0.966742 0.99002
0.902229 0.942153 0.968714 0.988552
0.998789 1 1 0.998789
0.998728 1 1.00009 0.998637
0.998654 1 1.00005 0.998601
0.998641 1 1 0.998641
1.00031 1 1.00176 0.998556
0.99881 1 1 0.99881
0.99868 1 1 0.99868
0.9987 1 1 0.9987
0.998607 1 1 0.998607
1.0013 1 1.00265 0.998652
0.910979 0.949232 0.981344 0.977946
0.898141 0.945241 0.967628 0.98196
0.909068 0.954756 0.965961 0.985699
0.845572 0.934888 0.928419 0.974197
0.898769 0.940157 0.980458 0.975031
0.909313 0.943338 0.975794 0.987843
0.946863 0.953737 1.0125 0.980536
0.926293 0.952445 0.983686 0.988671
0.959388 0.962411 1.01671 0.980471
0.87617 0.926695 0.969534 0.975187
0.826469 0.920683 0.925631 0.969793
0.944291 0.955493 0.997892 0.990365
0.948118 0.953352 1.01379 0.980987
0.816977 0.888927 0.942888 0.974728
0.772723 0.874962 0.911716 0.968669
1.00373 1 1.00465 0.999079
1.00321 1 1.00461 0.998611
0.999414 1 1.00092 0.998492
0.981359 0.970395 1.01386 0.997478
1.01018 0.981335 1.02966 0.999748
0.999818 1 1.00124 0.998582
1.02944 0.998514 1.0322 0.998809
1.01352 0.998857 1.01575 0.998954
1.02542 0.992537 1.03387 0.999285
0.979339 0.962719 1.01915 0.998148
1.01809 0.997307 1.02151 0.999345
0.986768 0.973637 1.01546 0.998057
0.92425 0.955613 0.983153 0.983754
0.910775 0.942886 0.975569 0.990134
0.920667 0.95619 0.970401 0.992219
1.01005 0.978409 1.0327 0.999649
0.947895 0.958759 0.997402 0.991245
0.902632 0.942439 0.968761 0.988647
0.946018 0.954693 1.01292 0.978277
0.83012 0.895387 0.950934 0.974945
0.917915 0.956504 0.981363 0.977881
0.740119 0.850432 0.902896 0.963882
0.999773 0.976142 1.02554 0.9987
0.915482 0.953515 0.976808 0.982908
0.806893 0.873009 0.952218 0.970646
0.925909 0.950184 0.98321 0.991093
0.808973 0.88697 0.936078 0.974345
0.915633 0.937925 0.996869 0.9793
0.971503 0.97239 1.00152 0.997567
0.841797 0.890969 0.969155 0.97488
0.808653 0.877653 0.944445 0.975579
0.937075 0.956627 0.999699 0.979856
0.912642 0.943417 0.975542 0.991632
1.01605 0.990315 1.02649 0.999515
1.00549 0.993246 1.01301 0.999324
1.00026 1.0008 1.00086 0.998606
1.00998 0.994253 1.01687 0.99897
1.00402 1.00093 1.00504 0.998045
0.999795 1.00199 1.00044 0.997376
1.01277 1.00018 1.01539 0.997243
1.00739 1.00041 1.01036 0.996656
0.999598 1.00149 1.00135 0.996766
1.00515 1.00174 1.00696 0.996462
1.00303 1.00301 1.00369 0.996336
1.00805 1.01128 1 0.996807
1.02095 1.02399 1 0.997035
1.01331 1.01666 1.00002 0.996683
1.00703 1.01041 1 0.996654
1.00485 1.00781 1 0.997062
1.00432 1.00653 1.00107 0.996738
1.00439 1.00551 1.00244 0.996463
0.998862 1.00114 1 0.997725
0.999222 1.00156 1.00002 0.997641
0.999214 1.00146 1.00032 0.997439
0.999918 1 1.00167 0.998247
0.999389 1.00015 1.0013 0.997942
0.999983 1.00102 1.0011 0.99787
1.00061 1 1.00145 0.999162
1.00183 1 1.00329 0.998547
1.00155 1 1.00322 0.99833
0.999982 1 1 0.999982
0.999671 1 1.00021 0.999463
1.00031 1 1.00145 0.998855
1 1 1 1
0.999992 1 1 0.999992
0.999628 1 1 0.999628
0.999997 1 1 0.999997
1 1 1 1
1 1 1 1
0.998998 1 1.00032 0.998682
0.998987 1 1 0.998987
0.99877 1 1.00002 0.998753
0.999567 1 1 0.999567
0.999068 1 1 0.999068
0.99999 1 1 0.99999
0.999631 1 1 0.999631
0.999138 1 1 0.999138
1 1 1 1
0.999999 1 1 0.999999
0.999704 1 1 0.999704
1 1 1 1
1 1 1 1
1 1 1 1
0.916601 0.956293 0.974014 0.984065
0.897866 0.940121 0.96632 0.988341
0.913673 0.95418 0.966743 0.990489
0.998614 1 1 0.998614
0.998801 1 1 0.998801
0.998625 1 1 0.998625
0.998653 1 1 0.998653
0.998619 1 1 0.998619
0.999685 1 1.00111 0.998576
1.00284 1 1.00442 0.998424
1.00313 1 1.00459 0.998541
0.998701 1 1 0.998701
0.998609 1 1 0.998609
1.00129 1 1.00265 0.998642
1.004 1 1.00517 0.998829
0.813422 0.878923 0.953665 0.970441
0.91823 0.955449 0.982839 0.977827
0.899941 0.945463 0.96932 0.981979
0.81721 0.913806 0.921611 0.970359
0.882217 0.933753 0.969474 0.974558
0.949821 0.95431 1.01678 0.978873
0.930457 0.950981 0.988886 0.989415
0.942219 0.951904 0.997602 0.992205
0.756999 0.863854 0.906993 0.966164
0.942633 0.948541 1.01495 0.979136
0.830555 0.903141 0.943746 0.974445
0.935921 0.952759 0.989515 0.992736
0.935121 0.946406 1.00644 0.981754
0.800429 0.8836 0.929356 0.974732
1.00059 1 1.00102 0.999567
1.0037 1 1.00462 0.999083
1.00403 1 1.00543 0.998608
0.975297 0.959032 1.01881 0.998181
1.02814 0.996507 1.03249 0.999273
1.01424 0.999618 1.01569 0.998962
1.01826 0.998625 1.02034 0.999344
0.986191 0.974827 1.01357 0.998109
0.997775 0.990252 1.00895 0.998662
0.856635 0.898929 0.978098 0.97429
0.922009 0.954534 0.980545 0.98509
0.909785 0.942859 0.974149 0.990528
0.999889 0.974486 1.02729 0.998815
0.919339 0.948037 0.977661 0.991888
0.915348 0.953456 0.976729 0.982905
0.923786 0.936552 1.00562 0.98086
0.817329 0.900197 0.932355 0.973819
0.803555 0.875482 0.945204 0.971054
0.973438 0.972405 1.00344 0.997631
0.832581 0.888891 0.960477 0.975193
0.821226 0.883841 0.95258 0.97541
0.916282 0.944894 0.980337 0.989169
0.92638 0.954346 0.98899 0.981502
0.964201 0.983238 0.981855 0.998761
0.838884 0.898129 0.957121 0.975881
0.946081 0.976198 0.986484 0.982426
0.928796 0.957862 0.980482 0.988958
1.00874 0.992519 1.01705 0.999298
0.992042 0.99952 0.9938 0.998711
0.991666 1.0027 0.990974 0.998008
1.00422 1.00109 1.005 0.998139
1.0022 1.00241 1.00243 0.997364
1.00026 1.00336 0.999428 0.997489
1.00613 1.00065 1.00883 0.99667
0.99956 1.00113 1.00165 0.996779
1.01433 1.01696 1 0.997417
1.00347 1.00395 1.00318 0.996361
1.0074 1.01062 1 0.996816
1.02052 1.02308 1 0.997497
1.0257 1.02826 1 0.997504
1.02343 1.02655 1 0.996962
1.0203 1.0233 1 0.997068
1.01332 1.01648 1 0.996894
1.01232 1.01565 1 0.996728
1.0063 1.00965 1 0.996675
1.00369 1.00626 1 0.997438
1.00475 1.00754 1.00014 0.997089
1.00259 1.00443 1.00148 0.99669
0.998142 1.00014 1 0.998003
0.999947 1.00223 1 0.997719
0.998549 1.00084 1 0.99771
1.0005 1 1.00169 0.998818
0.999784 1 1.00154 0.998248
0.999817 1.0004 1.00145 0.997973
0.999936 1 1 0.999936
1.00054 1 1.00138 0.999158
1.00139 1 1.00284 0.998548
1 1 1 1
0.999974 1 1 0.999974
0.999857 1 1.0004 0.999456
1 1 1 1
0.999989 1 1 0.999989
1 1 1 1
0.998846 1 1.00021 0.998636
0.999073 1 1.00039 0.998679
0.999148 1 1.00026 0.998884
0.999508 1 1 0.999508
0.998986 1 1 0.998986
0.998739 1 1 0.998738
0.999978 1 1 0.999978
0.99957 1 1 0.99957
0.999067 1 1 0.999067
1 1 1 1
0.999993 1 1 0.999993
0.999634 1 1 0.999634
1 1 1 1
1 1 1 1
1 1 1 1
0.839817 0.887216 0.97311 0.972732
0.914744 0.954355 0.974013 0.984068
0.899531 0.941163 0.967042 0.988339
0.999082 1 1.00049 0.998596
0.999444 1 1.00094 0.998502
1.00158 1 1.00309 0.998495
0.998847 1 1.00018 0.998664
0.998637 1 1 0.998637
0.999825 1 1.00123 0.998596
1.00299 1 1.00446 0.998532
1.00256 1 1.00413 0.998435
1.0038 1 1.00547 0.99834
0.997123 1 0.998107 0.999014
1.00084 1 1.00221 0.998632
1.00282 1 1.00403 0.998801
0.817368 0.88029 0.952894 0.974423
0.805087 0.870868 0.953851 0.969192
0.924218 0.960004 0.984656 0.977725
0.742118 0.851136 0.904835 0.963618
0.831383 0.901462 0.946147 0.974754
0.939377 0.94903 1.00856 0.981425
0.946261 0.953398 1.00251 0.990032
0.933023 0.951539 0.98957 0.990876
0.803368 0.876746 0.940975 0.973784
0.923305 0.94056 1.00095 0.980719
0.92664 0.954418 0.979071 0.991651
0.922954 0.955245 0.985651 0.980262
1.00673 1 1.00771 0.999024
1.0003 1 1.00079 0.999503
1.0034 1 1.00432 0.999088
0.98564 0.975685 1.01207 0.998153
1.01809 0.99965 1.01912 0.999344
0.998142 0.991002 1.00865 0.99857
0.989351 0.994908 0.996645 0.997762
0.839763 0.9126 0.941802 0.977049
0.859522 0.89865 0.980827 0.975155
0.921155 0.954056 0.978814 0.986413
0.974202 0.976187 1.00022 0.997743
0.91568 0.944677 0.979243 0.989851
0.832708 0.890057 0.959255 0.975306
0.921773 0.950454 0.989722 0.979895
0.826979 0.890265 0.951898 0.975853
0.967528 0.983093 0.986039 0.998102
0.845012 0.906354 0.95516 0.976088
0.945023 0.977188 0.986511 0.980307
0.936307 0.960805 0.98333 0.991023
0.973689 0.99195 0.98295 0.998617
0.949977 0.982864 0.984612 0.981645
0.952638 0.982036 0.977396 0.992498
0.983664 0.997933 0.986876 0.99881
0.989935 1.00349 0.988487 0.997984
0.983232 1.00705 0.978428 0.997879
1.00369 1.00278 1.00356 0.997353
0.999596 1.00347 0.998648 0.997485
1.01787 1.02416 0.995857 0.997995
0.999351 1.00071 1.00186 0.996791
1.01416 1.01701 0.999793 0.997404
1.02471 1.02799 0.99883 0.997977
1.00662 1.00982 1 0.996825
1.02 1.02256 0.999993 0.997495
1.02647 1.0287 0.999926 0.997913
1.02356 1.02583 1 0.997792
1.02645 1.02896 1 0.997558
1.02573 1.02842 1 0.997377
1.02312 1.02616 1 0.997036
1.02391 1.02702 1 0.99697
1.01979 1.02276 1 0.997101
1.01116 1.01404 1 0.997165
1.01437 1.01749 1 0.996929
1.01139 1.01466 1 0.996774
0.99927 1.00151 1 0.997764
1.00392 1.0065 1 0.997431
1.00479 1.00752 1.00017 0.997115
0.998679 1 1.00011 0.998573
0.998372 1.00037 1 0.998001
1.00097 1.00326 1 0.997713
0.999811 1 1 0.999811
1.00006 1 1.00124 0.998818
0.999829 1 1.00158 0.998249
1 1 1 1
0.999946 1 1.00003 0.999915
1.00046 1 1.0013 0.999154
1 1 1 1
0.999966 1 1 0.999966
1 1 1 1
0.99857 1 1 0.99857
0.998951 1 1.00032 0.998634
0.999121 1 1.00035 0.998776
0.999028 1 1.00035 0.998676
0.999158 1 1.00028 0.998883
0.999465 1 1.00004 0.999421
0.999966 1 1 0.999966
0.99951 1 1 0.99951
0.998986 1 1 0.998986
1 1 1 1
0.999981 1 1 0.999981
0.999573 1 1 0.999573
1 1 1 1
0.999996 1 1 0.999996
1 1 1 1
0.846525 0.902248 0.961147 0.976167
0.842613 0.891516 0.971749 0.972624
0.913102 0.952846 0.973806 0.984066
0.99938 1 1.0008 0.998579
1.00209 1 1.00367 0.998425
0.998965 1 1.00041 0.998553
0.998114 1 1.00003 0.998085
1.00165 1 1.00325 0.998408
1.00289 1 1.00438 0.998524
1.00174 1 1.0033 0.998446
1.00388 1 1.00551 0.998382
0.99819 1 1 0.99819
0.993869 1.00065 0.99444 0.998778
0.997702 1.00035 0.999459 0.997891
0.998948 1 0.999881 0.999067
1.00211 1 1.00334 0.998773
0.939245 0.97414 0.982912 0.98094
0.819816 0.878216 0.957608 0.974826
0.806304 0.874177 0.951602 0.969268
0.80112 0.877918 0.937758 0.97309
0.931658 0.946551 1.00491 0.979459
0.935695 0.948441 0.993652 0.992864
0.928231 0.953167 0.980733 0.99297
0.930884 0.95692 0.990364 0.982257
0.954135 0.981021 0.980431 0.992007
0.999294 1.00132 0.999756 0.998221
1.00565 1 1.00666 0.999002
0.999893 1 1.00045 0.999439
0.999378 0.992893 1.00804 0.998502
0.99464 0.998901 0.997989 0.997742
0.926947 0.972091 0.970933 0.982106
0.84979 0.911609 0.954177 0.976953
0.863178 0.898136 0.984672 0.976037
0.972341 0.984617 0.990094 0.997412
0.933259 0.957988 0.984931 0.989091
0.845887 0.903694 0.959176 0.975872
0.943299 0.972486 0.987648 0.982118
0.977773 0.991804 0.987176 0.99866
0.954609 0.988233 0.982879 0.982802
0.952216 0.980857 0.980153 0.990458
0.994652 1.00436 0.992257 0.998059
0.972677 0.995091 0.982579 0.994806
0.989379 1.00465 0.986807 0.99797
0.984505 1.00648 0.980299 0.997829
1.00513 1.02955 0.978162 0.998068
0.999173 1.00358 0.998123 0.99748
1.0178 1.02401 0.995943 0.997978
1.02599 1.03625 0.991863 0.998218
1.01402 1.01713 0.999547 0.99739
1.02432 1.02814 0.998325 0.997959
1.02253 1.02758 0.996951 0.998134
1.01963 1.02222 0.999968 0.997494
1.02676 1.0291 0.999831 0.997895
1.02554 1.02777 0.999863 0.997961
1.02416 1.02637 1 0.99784
1.02317 1.02562 1 0.997616
1.02716 1.02962 1 0.997613
1.02568 1.02839 1 0.99737
1.02605 1.02889 1 0.997239
1.01876 1.02169 1 0.997133
1.02299 1.02604 1 0.997026
1.02434 1.02744 1 0.996978
1.00373 1.00619 1 0.997554
1.01034 1.01319 1 0.997184
1.01539 1.01848 1 0.996963
0.998399 1.00001 1 0.998385
1.00043 1.00267 1 0.99776
1.00394 1.00653 1 0.997424
0.999702 1 1.00006 0.999637
0.998668 1 1.00009 0.998574
0.998637 1.00064 1 0.997999
1 1 1 1
0.999933 1 1.00015 0.999788
0.999682 1 1.00086 0.998819
1 1 1 1
1.00012 1 1.00023 0.999894
1 1 1 1
1.00005 1.00195 1 0.998106
0.998566 1 1 0.998566
0.999015 1 1.00039 0.998629
0.999209 1 1.00058 0.998632
0.999185 1 1.00043 0.998754
0.99934 1 1.00007 0.999271
0.999164 1 1.00028 0.998883
0.999438 1 1.00001 0.999423
0.999951 1 1 0.999951
1 1 1 1
0.999969 1 1 0.999969
0.999513 1 1 0.999513
1 1 1 1
0.999985 1 1 0.999985
1 1 1 1
0.949072 0.983826 0.981021 0.983337
0.84115 0.906104 0.950478 0.976683
0.852446 0.897458 0.977029 0.972176
1.00272 1 1.00437 0.998355
0.998605 1 1 0.998605
1.00121 1 1.00281 0.998408
0.998737 1.00055 1.00007 0.998112
1.00426 1.00659 1.00002 0.997656
0.998217 1 1 0.998217
1.00416 1 1.00574 0.998424
0.998055 1 1 0.998055
0.996041 1.00043 0.996864 0.998747
0.998245 1.00058 0.999619 0.998045
0.995901 1.00303 0.994815 0.998069
0.99737 1.00129 0.998573 0.997509
0.996849 1.00082 0.998003 0.998026
1.00065 1 1.00153 0.999121
0.952994 0.983247 0.976894 0.992158
0.942095 0.975488 0.983888 0.981583
0.815661 0.879249 0.950748 0.975736
0.942649 0.96314 0.998799 0.979901
0.929028 0.951967 0.98193 0.993864
0.958419 0.981272 0.982097 0.994515
0.99234 1.00377 0.990596 0.998001
0.997315 1.00067 0.998395 0.99825
1.0046 1 1.00563 0.99898
0.995474 1.00112 0.996649 0.997703
0.957313 0.978417 0.986079 0.992243
0.940067 0.976819 0.977892 0.984134
0.83952 0.905791 0.949087 0.976556
0.980079 0.991626 0.989644 0.998698
0.955975 0.983512 0.979912 0.991928
0.959573 0.98794 0.987127 0.983954
0.987858 1.00336 0.98645 0.998078
0.969672 0.992251 0.983015 0.99413
0.992472 1.02421 0.971068 0.997886
1.00501 1.01583 0.991981 0.997346
0.985358 1.0059 0.981766 0.997775
1.00412 1.02864 0.978051 0.998061
1.00922 1.04018 0.972072 0.998111
1.01803 1.02431 0.995898 0.997962
1.02579 1.03612 0.991813 0.998202
1.01821 1.02965 0.990787 0.998082
1.02396 1.02824 0.99789 0.99794
1.02181 1.02695 0.996878 0.998118
1.02577 1.03064 0.997331 0.997931
1.027 1.02944 0.999754 0.997877
1.02443 1.02675 0.999784 0.997955
1.02396 1.02637 0.999958 0.997687
1.02474 1.02691 1 0.997888
1.02335 1.02575 1 0.997656
1.02563 1.02835 1 0.997363
1.02571 1.02842 1 0.997362
1.02598 1.02883 1 0.99723
1.02237 1.02519 1 0.997244
1.009 1.01162 1 0.997409
1.01856 1.02147 1 0.99715
1.02281 1.02587 1 0.997016
0.99866 1.00046 1 0.998206
1.00453 1.00699 1 0.997555
1.00971 1.01254 1 0.997203
0.999469 1 1 0.999469
0.998473 1.00009 1 0.998384
1.00154 1.00379 1 0.997756
1 1 1 1
0.999628 1 1.00001 0.999622
0.998615 1 1.00004 0.998574
1 1 1 1
0.999839 1 1.00008 0.999764
1 1 1 1
1.00302 1.00531 1 0.997724
0.999317 1.0012 1 0.99812
0.9988 1.00031 1.00017 0.998321
0.998563 1 1 0.998563
0.998949 1 1.00035 0.998603
0.999144 1 1.00008 0.999064
0.999281 1 1.00055 0.998733
0.99932 1 1.00005 0.999273
0.999925 1 1 0.999925
0.999426 1 1 0.999426
0.999955 1 1 0.999955
1 1 1 1
1 1 1 1
0.999973 1 1 0.999973
1 1 1 1
0.953151 0.982282 0.977553 0.992626
0.943845 0.983601 0.977432 0.981738
0.834351 0.900571 0.948555 0.976715
1.01203 1.01466 1.00007 0.997344
1.00068 1 1.00228 0.998407
0.999402 1.00123 1.00003 0.99814
0.99818 1 1 0.99818
1.00392 1.00614 1.00015 0.997644
1.00085 1.0028 1 0.998047
0.997921 1 1 0.997921
0.998075 1.00023 0.999123 0.998717
0.998109 1.00078 0.99925 0.998079
0.993598 1.0021 0.993477 0.998022
1.00126 1.00416 0.999719 0.9974
1.00226 1.00615 0.998634 0.997494
0.99824 1.00195 0.998828 0.997463
0.996056 1.00134 0.996559 0.998162
0.992686 1.00616 0.988078 0.998511
0.951037 0.983502 0.975619 0.991155
0.945184 0.977156 0.984426 0.982582
0.951172 0.976904 0.980761 0.99276
0.995811 1.00579 0.991614 0.998453
0.998023 1.0002 0.999547 0.998275
0.993756 1.00668 0.989799 0.997333
0.95016 0.969285 0.986608 0.993574
0.929666 0.975112 0.97066 0.982213
0.981693 1.00173 0.981872 0.998094
0.974573 0.993754 0.987351 0.993262
0.994402 1.02525 0.971914 0.99794
1.00401 1.01477 0.991859 0.997513
1.00244 1.03395 0.971539 0.997924
1.02984 1.03635 0.995897 0.997814
1.00276 1.02714 0.978164 0.998054
1.0119 1.04147 0.973451 0.998106
1.01076 1.03645 0.977226 0.997942
1.02504 1.03547 0.991731 0.998186
1.01803 1.02948 0.990785 0.998079
1.02429 1.0335 0.99326 0.99782
1.02103 1.02629 0.996767 0.998101
1.02528 1.03007 0.997397 0.997944
1.0272 1.03003 0.999627 0.997625
1.02333 1.02573 0.99971 0.99795
1.02436 1.02675 0.999984 0.997686
1.02743 1.03011 1 0.997399
1.02347 1.02584 1 0.997696
1.02572 1.0284 1 0.997392
1.02425 1.02709 1 0.997241
1.02588 1.02874 1 0.99722
1.02215 1.025 1 0.997223
1.01249 1.01512 1 0.997401
1.00012 1.00204 1 0.998082
1.00877 1.01137 1 0.997434
1.01832 1.02121 1 0.997166
0.99933 1 1 0.99933
0.999092 1.00089 1 0.998205
1.00531 1.00778 1 0.997556
1 1 1 1
0.999456 1 1 0.999456
0.998556 1.00017 1 0.998383
1 1 1 1
0.999606 1 1 0.999606
1 1 1 1
1.00647 1.00909 1 0.997403
1.00278 1.00506 1 0.997729
1.00072 1.00273 1 0.998003
0.998499 1.00036 1.00001 0.998134
0.998633 1.00012 1.00019 0.998326
0.999203 1 1.00038 0.998823
0.998876 1 1.0003 0.998576
0.99932 1 1.00026 0.999063
0.999876 1 1.00001 0.999869
0.999275 1 1 0.999275
0.999933 1 1 0.999933
1 1 1 1
0.99996 1 1 0.99996
1 1 1 1
1 1 1 1
0.993053 1.01057 0.984207 0.998439
0.947468 0.979806 0.976078 0.990694
0.941123 0.975075 0.98121 0.983664
1.009 1.0114 1.00001 0.997612
1.01831 1.02113 1 0.997237
1.01015 1.01266 1.00013 0.997392
0.998143 1 1 0.998143
1.0035 1.00549 1.00039 0.997631
1.00179 1.0038 1 0.997996
1.01073 1.01333 1 0.997427
0.997944 1.00095 0.998882 0.998114
0.99119 1.00105 0.992163 0.997974
1.00203 1.00532 0.999262 0.997467
1.01334 1.01681 0.999411 0.997167
1.00993 1.0198 0.992513 0.997793
1.00309 1.00694 0.998713 0.997465
0.999065 1.00262 0.999031 0.997416
0.996838 1.00836 0.989902 0.998662
0.95499 0.984638 0.979672 0.990015
0.996221 1.00682 0.990549 0.998918
1.01623 1.0277 0.990412 0.99841
0.992861 1.00539 0.990082 0.997429
0.951465 0.976092 0.982914 0.991714
0.997016 1.02665 0.973088 0.997992
1.00227 1.01405 0.990673 0.997689
1.00222 1.03432 0.970904 0.998006
1.03105 1.03821 0.995264 0.997822
1.02648 1.04302 0.986302 0.997816
1.04583 1.05413 0.994175 0.997934
1.01495 1.04357 0.974422 0.9981
1.01331 1.03638 0.979757 0.997945
1.02737 1.04062 0.989525 0.997724
1.01816 1.02948 0.990914 0.998075
1.02442 1.03295 0.99391 0.997818
1.03024 1.03521 0.997601 0.997588
1.02478 1.02947 0.997474 0.997957
1.02753 1.03029 0.999703 0.997622
1.03017 1.0329 1 0.997364
1.02473 1.0271 1 0.997686
1.02724 1.02992 1 0.9974
1.02696 1.02983 1 0.997212
1.02584 1.0285 1 0.997421
1.02398 1.02681 1 0.997249
1.01439 1.01708 1 0.997354
1.02197 1.02484 1 0.997202
1.01231 1.01496 1 0.997392
1.00168 1.00368 1 0.998009
0.999257 1 1 0.999257
1.0006 1.00252 1 0.998081
1.00859 1.01116 1 0.997458
1 1 1 1
0.999319 1 1 0.999319
0.99953 1.00133 1 0.998205
1 1 1 1
0.999443 1 1 0.999443
1 1 1 1
1.0127 1.01554 1 0.997211
1.00704 1.00968 1 0.997379
1.00408 1.0064 1 0.9977
1.00244 1.00472 1 0.997734
0.999952 1.00195 1 0.998008
0.998837 1.00005 1.00022 0.998567
0.99851 1 1.00018 0.998331
0.999278 1 1.00045 0.998825
0.999904 1 1.00015 0.999749
0.999202 1 1.00014 0.999064
0.999883 1 1 0.999883
1 1 1 1
0.999941 1 1 0.999941
1 1 1 1
1 1 1 1
1.00837 1.0267 0.983857 0.998268
0.990696 1.00952 0.983355 0.997964
0.945976 0.98101 0.972581 0.991473
1.01892 1.02163 1 0.997343
1.00978 1.01202 1 0.997783
1.03106 1.03396 1 0.9972
1.01892 1.02176 1 0.997223
1.00849 1.01089 1.00018 0.997442
1.02644 1.02939 1 0.997132
1.00281 1.00488 1 0.997946
1.00936 1.01202 1 0.997367
1.03053 1.03762 0.9958 0.997352
1.00263 1.00639 0.998725 0.997535
1.01457 1.01801 0.99949 0.99713
1.00986 1.01986 0.99236 0.997814
1.00316 1.00681 0.998942 0.997435
1.00099 1.01027 0.991986 0.99881
1.03573 1.04845 0.989853 0.998
1.01621 1.0277 0.990386 0.998418
0.993296 1.00409 0.991709 0.997519
1.00217 1.03406 0.971011 0.998088
1.03116 1.03922 0.994406 0.997832
1.02432 1.04288 0.984333 0.997834
1.04605 1.05528 0.993308 0.997933
1.03986 1.05143 0.991138 0.997831
1.01546 1.03598 0.982208 0.997947
1.02736 1.04012 0.989972 0.997733
1.03202 1.04076 0.993984 0.997604
1.02443 1.0324 0.994451 0.997815
1.02985 1.0346 0.997833 0.997569
1.03244 1.03538 0.999836 0.997325
1.02797 1.03064 0.999791 0.99762
1.03014 1.03286 1 0.997363
1.03033 1.03326 1 0.997163
1.02704 1.02972 1 0.9974
1.0269 1.02976 1 0.997215
1.01674 1.01951 1 0.997275
1.02372 1.02653 1 0.997258
1.01454 1.01723 1 0.997357
1.0025 1.00458 1 0.997933
1.01211 1.01476 1 0.997382
1.0019 1.0039 1 0.998007
0.999355 1 1 0.999355
0.999787 1 1 0.999787
0.999303 1 1 0.999303
1.00105 1.00297 1 0.99808
1 1 1 1
0.999308 1 1 0.999308
1 1 1 1
1.03788 1.04073 1 0.997255
1.02346 1.02632 1 0.997213
1.01379 1.01664 1 0.997201
1.0076 1.0101 1 0.997522
1.00775 1.01042 1 0.997356
1.0032 1.00551 1 0.997703
0.998893 1.00055 1 0.998339
0.999163 1.00115 1 0.998014
0.998959 1.00001 1.00038 0.99857
0.999611 1 1.00005 0.999565
0.999672 1 1.00085 0.998827
0.999835 1 1.00007 0.999769
1 1 1 1
0.999897 1 1 0.999897
1 1 1 1
1 1 1 1
1.03346 1.04679 0.989492 0.997753
1.01219 1.03051 0.983853 0.998346
0.988495 1.00962 0.98154 0.997492
1.03016 1.03309 1 0.997166
1.0183 1.02095 1 0.997406
1.01029 1.01237 1 0.99795
1.03021 1.03309 1 0.997218
1.0195 1.02236 1 0.997209
1.03794 1.04315 0.997672 0.997329
1.02347 1.02645 1 0.997092
1.00809 1.01082 1 0.997308
1.02993 1.03698 0.995843 0.997346
1.01712 1.02046 0.99964 0.997093
1.0121 1.02267 0.991805 0.99784
1.04047 1.05175 0.991333 0.997925
1.0376 1.04966 0.990469 0.998019
1.01648 1.02777 0.990572 0.998426
1.02319 1.04367 0.982488 0.99785
1.04711 1.05714 0.992559 0.997932
1.04004 1.05237 0.990422 0.997842
1.03505 1.04336 0.994338 0.997679
1.02728 1.03951 0.990476 0.997742
1.03179 1.0402 0.994306 0.997594
1.03488 1.0384 0.99926 0.997344
1.02943 1.03394 0.998085 0.99755
1.03325 1.0362 0.999834 0.997325
1.03328 1.03627 1 0.99712
1.03006 1.03279 1 0.997361
1.03039 1.03332 1 0.997164
1.01907 1.02195 1 0.997189
1.02684 1.0297 1 0.997218
1.01702 1.0198 1 0.997277
1.00321 1.00539 1 0.997833
1.01469 1.01737 1 0.99736
1.0027 1.00478 1 0.997931
0.999358 1 1 0.999358
1.00212 1.00412 1 0.998005
0.999351 1 1 0.999351
0.9998 1 1 0.9998
0.999897 1 1 0.999897
0.999353 1 1 0.999353
1 1 1 1
1.03487 1.03781 1 0.997174
1.02921 1.03205 1 0.99725
1.03736 1.0401 1 0.997363
1.01318 1.01581 1 0.997407
1.02512 1.02799 1 0.997203
1.01494 1.0178 1 0.997191
1.00723 1.00974 1 0.997519
1.00071 1.00255 1 0.998158
1.00223 1.00454 1 0.997705
0.998692 1.00035 1 0.998341
0.999388 1 1 0.999388
0.999093 1 1.00052 0.998574
0.999662 1 1.00008 0.999584
1 1 1 1
0.999788 1 1 0.999788
1 1 1 1
1 1 1 1
1.03787 1.0474 0.99325 0.997638
1.03286 1.04607 0.989599 0.997749
1.01443 1.03258 0.983984 0.998417
1.03768 1.04098 0.999588 0.997243
1.02866 1.03158 1 0.997168
1.01781 1.02039 1 0.997469
1.02921 1.03206 1 0.997237
1.03706 1.04231 0.997648 0.997307
1.02042 1.02343 1 0.997052
1.02726 1.03416 0.99598 0.99734
1.03691 1.04583 0.993715 0.997741
1.03972 1.05066 0.991684 0.997886
1.03934 1.05071 0.991126 0.998038
1.03465 1.04121 0.996119 0.997568
1.03992 1.05305 0.989661 0.997852
1.03484 1.04333 0.994182 0.997666
1.03617 1.04038 0.99851 0.997439
1.03161 1.0397 0.994621 0.997583
1.03544 1.03902 0.999207 0.997347
1.0345 1.0375 1 0.997102
1.03406 1.03701 0.999832 0.997325
1.03291 1.03589 1 0.997121
1.02089 1.02384 1 0.997122
1.0304 1.03333 1 0.997165
1.01931 1.02218 1 0.997191
1.00378 1.00606 1 0.997733
1.01729 1.02006 1 0.997279
1.00338 1.00556 1 0.997832
0.999335 1 1 0.999335
1.00291 1.00499 1 0.99793
0.99935 1 1 0.99935
0.999804 1 1 0.999804
0.999349 1 1 0.999349
0.999804 1 1 0.999804
1 1 1 1
1.03535 1.03839 1 0.997075
1.03024 1.03321 1 0.997129
1.03593 1.03885 1 0.997185
1.01741 1.02006 1 0.997401
1.02974 1.03257 1 0.997264
1.03695 1.03958 1 0.997471
1.00298 1.00498 1 0.998004
1.01323 1.01587 1 0.997401
1.02688 1.02977 1 0.997193
1.00681 1.00932 1 0.997516
0.999994 1.00184 1 0.99816
0.999276 1 1 0.999276
0.998478 1.00014 1 0.998342
0.999402 1 1 0.999402
1 1 1 1
0.999682 1 1.00008 0.999603
1 1 1 1
1 1 1 1
1.03774 1.04307 0.997396 0.997492
1.03786 1.0478 0.992869 0.997623
1.03324 1.04646 0.9896 0.997745
1.03706 1.04027 0.999658 0.997256
1.02707 1.02999 1 0.99717
1.03637 1.04167 0.997619 0.997284
1.03553 1.04224 0.99598 0.997572
1.03737 1.04589 0.994105 0.997734
1.03905 1.0497 0.99199 0.997848
1.03519 1.04165 0.9962 0.997589
1.03732 1.04114 0.998952 0.997379
1.03464 1.04331 0.994025 0.997653
1.03619 1.04032 0.998633 0.997399
1.03483 1.03796 0.999821 0.997168
1.0359 1.03954 0.999154 0.997349
1.03437 1.03737 1 0.997106
1.02208 1.02508 1 0.997073
1.03268 1.03566 1 0.997123
1.0213 1.02425 1 0.997123
1.00421 1.00657 1 0.997657
1.01965 1.02252 1 0.997192
1.00393 1.00621 1 0.997732
0.999284 1 1 0.999284
1.00357 1.00575 1 0.997831
0.999322 1 1 0.999322
0.999788 1 1 0.999788
0.999344 1 1 0.999344
0.999814 1 1 0.999814
0.999805 1 1 0.999805
1.03759 1.04043 0.999984 0.997292
1.03268 1.03578 1 0.997007
1.03613 1.03915 1 0.997096
1.01997 1.02277 1 0.997269
1.02971 1.03268 1 0.997127
1.03693 1.03984 1 0.997197
1.00403 1.00615 1 0.997892
1.0175 1.02019 1 0.997357
1.03013 1.03294 1 0.997277
0.999227 1 1 0.999227
1.00235 1.00436 1 0.998007
1.01336 1.01601 1 0.997395
0.99928 1.00112 1 0.998161
0.999286 1 1 0.999286
1 1 1 1
0.999415 1 1 0.999415
1 1 1 1
1 1 1 1
1.03519 1.03998 0.997922 0.997467
1.03688 1.04255 0.997074 0.997487
1.03772 1.04804 0.992526 0.997607
1.03641 1.03954 0.99972 0.997268
1.03629 1.03969 0.999385 0.99734
1.03615 1.04273 0.996101 0.997582
1.03782 1.0459 0.994538 0.997726
1.03571 1.0421 0.996251 0.997609
1.03668 1.04073 0.998716 0.99739
1.03539 1.03833 0.999995 0.997176
1.03628 1.04036 0.998714 0.997359
1.03491 1.03798 0.9999 0.997137
1.02263 1.02564 1 0.997068
1.03424 1.03724 1 0.997109
1.02239 1.02539 1 0.997075
1.00426 1.00668 1 0.997593
1.02151 1.02445 1 0.997124
1.00423 1.00658 1 0.997657
0.999117 1 1 0.999117
1.00403 1.00631 1 0.997732
0.99922 1 1 0.99922
1 1 1 1
0.99931 1 1 0.99931
0.999803 1 1 0.999803
0.99982 1 1 0.99982
1.03584 1.0388 0.999781 0.99737
1.03366 1.03667 1 0.997095
1.03715 1.03998 0.999987 0.997287
1.0221 1.02508 1 0.997094
1.03243 1.03551 1 0.997028
1.03699 1.03999 1 0.997118
1.00469 1.007 1 0.997703
1.02012 1.02292 1 0.997268
1.02924 1.03221 1 0.997126
0.999211 1 1 0.999211
1.00383 1.006 1 0.997848
1.01759 1.02034 1 0.997313
1 1 1 1
0.999238 1 1 0.999238
1.0017 1.0037 1 0.99801
0.999297 1 1 0.999297
1 1 1 1
1 1 1 1
1.03501 1.03826 0.999515 0.997354
1.03578 1.04055 0.997932 0.997474
1.03598 1.04201 0.99673 0.997482
1.03466 1.03765 1 0.997118
1.0356 1.03914 0.999233 0.997351
1.03672 1.04316 0.996228 0.997592
1.03608 1.04033 0.99851 0.997401
1.03521 1.03831 0.999836 0.997177
1.02155 1.02449 1 0.99713
1.0349 1.0379 1 0.997107
1.02256 1.02554 1 0.997091
1.00404 1.00658 1 0.997469
1.02279 1.02578 1 0.997077
1.00425 1.00667 1 0.997593
0.999067 1 1 0.999067
1.00431 1.00667 1 0.997657
0.999114 1 1 0.999114
1 1 1 1
0.999145 1 1 0.999145
0.999887 1 1 0.999887
0.999815 1 1 0.999815
1.03353 1.0366 0.999706 0.997325
1.03349 1.03645 1 0.99715
1.0359 1.03878 0.999847 0.997376
1.02268 1.02565 1 0.997096
1.03427 1.03729 1 0.997084
1.03673 1.03956 0.999994 0.997282
1.00507 1.00749 1 0.9976
1.02202 1.02496 1 0.997134
1.03214 1.0352 1 0.997049
0.999185 1 1 0.999185
1.00466 1.00698 1 0.997689
1.02027 1.02306 1 0.997268
1 1 1 1
0.99922 1 1 0.99922
1.00365 1.00586 1 0.997804
1 1 1 1
0.999249 1 1 0.999249
1 1 1 1
1.03515 1.03809 1 0.997167
1.03431 1.03759 0.999494 0.997341
1.03641 1.04118 0.997935 0.997481
1.02077 1.02372 1 0.997121
1.03473 1.03773 0.999972 0.997138
1.03498 1.03866 0.999098 0.997363
1.03502 1.03829 0.999678 0.997178
1.0216 1.02454 1 0.997129
1.00341 1.00599 1 0.997439
1.02252 1.02548 1 0.997114
1.00398 1.0065 1 0.997504
0.999006 1 1 0.999006
1.00418 1.0066 1 0.997594
0.999064 1 1 0.999064
1 1 1 1
0.999111 1 1 0.999111
1 1 1 1
0.999795 1 1 0.999795
1.03425 1.03719 1 0.997173
1.03321 1.0362 0.999766 0.997345
1.02226 1.02522 1 0.997114
1.03384 1.03679 1 0.997148
1.03598 1.0388 0.999909 0.997381
1.00466 1.00705 1 0.997626
1.02238 1.02536 1 0.997093
1.03484 1.03788 1 0.997072
0.999136 1 1 0.999136
1.00521 1.0076 1 0.997629
1.02192 1.02481 1 0.997174
1 1 1 1
0.999191 1 1 0.999191
1.00462 1.00696 1 0.997675
1 1 1 1
0.999229 1 1 0.999229
1 1 1 1
1.02105 1.02397 1 0.997156
1.03499 1.03794 1 0.997156
1.03357 1.03688 0.999483 0.997328
1.00257 1.00514 1 0.997445
1.02081 1.02376 1 0.997121
1.03475 1.03779 0.999913 0.997159
1.02166 1.0246 1 0.997129
1.00342 1.00599 1 0.99744
0.998964 1 1 0.998964
1.00395 1.00643 1 0.997538
0.999003 1 1 0.999003
1 1 1 1
0.999061 1 1 0.999061
1 1 1 1
1 1 1 1
1.02194 1.0249 1 0.997117
1.03404 1.03695 1 0.997198
1.03283 1.03574 0.999825 0.997365
1.004 1.0064 1 0.997608
1.02208 1.02505 1 0.997111
1.03415 1.03711 1 0.997147
0.999086 1 1 0.999086
1.00487 1.00726 1 0.997625
1.02212 1.0251 1 0.997089
1 1 1 1
0.99914 1 1 0.99914
1.00536 1.00772 1 0.997659
1 1 1 1
0.999197 1 1 0.999197
1 1 1 1
1.0023 1.00478 1 0.997534
1.02094 1.02389 1 0.99712
1.03484 1.0378 1 0.997145
0.998967 1 1 0.998967
1.00262 1.00519 1 0.997443
1.02086 1.0238 1 0.997121
1.00342 1.006 1 0.997442
0.998963 1 1 0.998963
1 1 1 1
0.999 1 1 0.999
1 1 1 1
1 1 1 1
1.00302 1.00546 1 0.997577
1.02158 1.02453 1 0.997122
1.03388 1.03676 1 0.997222
0.999193 1 1 0.999193
1.00421 1.00662 1 0.997606
1.02191 1.02487 1 0.997108
1 1 1 1
0.999087 1 1 0.999087
1.00506 1.00745 1 0.997622
1 1 1 1
0.999144 1 1 0.999144
1 1 1 1
0.998965 1 1 0.998965
1.00246 1.00497 1 0.997503
1.02084 1.02383 1 0.997084
1 1 1 1
0.998966 1 1 0.998966
1.00266 1.00523 1 0.997441
0.998962 1 1 0.998962
1 1 1 1
1 1 1 1
0.999146 1 1 0.999146
1.00333 1.00577 1 0.997577
1.02117 1.02412 1 0.997126
1 1 1 1
0.999049 1 1 0.999049
1.00444 1.00685 1 0.997605
1 1 1 1
0.999088 1 1 0.999088
1 1 1 1
0.999719 1 1 0.999719
0.999058 1 1 0.999058
1.00261 1.00515 1 0.997472
1 1 1 1
0.998967 1 1 0.998967
1 1 1 1
0.999735 1 1 0.999735
0.999084 1 1 0.999084
1.00366 1.0061 1 0.997577
0.99987 1 1 0.99987
0.999048 1 1 0.999048
1 1 1 1
1 1 1 1
0.998989 1 1 0.998989
1 1 1 1
0.999865 1 1 0.999865
0.999017 1 1 0.999017
1 1 1 1
1 1 1 1
1 1 1 1

VECTORS lamdaE float
1.00061 1.00014 0.994564
1.00034 1.00056 0.997374
1.00024 1.00035 0.994792
1.00084 0.99997 0.994396
1.00071 0.999956 0.99462
1.00055 1.00034 0.994424
1.00191 1.00048 0.991671
1.00036 1.00047 0.997379
1.00028 1.0002 0.997733
0.999823 1.00084 0.997762
1.00035 1.00048 0.994563
1.00169 1.00128 0.990563
1.00059 0.999996 0.994616
1.00032 0.999994 0.994827
0.999908 1.00057 0.994992
1.00057 0.999949 0.994667
1.00015 1.00068 0.994625
1.0004 1.00002 0.99486
1.0021 1.0003 0.991572
1.0006 1.00001 0.997353
1.00083 1.00002 0.994337
1.0008 0.99991 0.994541
1.0022 1.00004 0.991633
1.00207 1.00012 0.99175
1.00057 1.00039 0.994307
1.00168 1.00101 0.991503
1.00462 1.00033 0.987229
1.00036 1.00042 0.997402
1.00045 1.00009 0.996151
1.0001 1.00061 0.996155
1.00034 1.00032 0.997466
1.00159 1.00142 0.990567
1.00074 0.999833 0.994492
1.00046 1.00032 0.994588
1.00236 1.00012 0.992009
0.999768 1.00008 0.998066
1.00203 1.00083 0.991943
1.0014 1.0017 0.990627
1.00387 1.00155 0.986524
0.999871 0.998764 0.998481
1.00061 1 0.997336
1.00051 1.00001 0.996071
1.00055 0.999987 0.997369
1.00022 1.00003 0.99495
1.00225 0.999989 0.990918
1.00044 0.999963 0.997648
1.00249 1.00007 0.991877
1.0003 0.999886 0.994938
1.00012 1.00007 0.995087
0.999754 1.00105 0.994808
1.00227 1.00011 0.991486
1.00044 1.00003 0.996125
1.00055 1.00003 0.994612
1.00013 1.00082 0.994488
1.00052 0.999891 0.994797
1.00231 1 0.991514
1.00192 1.00076 0.991409
1.00222 1.00002 0.991648
1.00459 1.00036 0.987232
1.00053 1 0.997378
1.00074 1.00004 0.994454
1.00204 1.00001 0.992501
1.00218 1.00006 0.991627
1.00216 1 0.991719
1.00463 1.00005 0.987372
1.00465 1.00004 0.987227
1.00039 1.00016 0.994628
1.00124 1.00184 0.991387
1.00446 1.00068 0.98713
1.00523 1.00024 0.985504
1.00066 1.00011 0.997372
1.00025 1.00016 0.997614
1.00038 1.00045 0.997377
1.00151 1.00152 0.990566
1.00078 0.999966 0.997317
1.00054 1.00031 0.997392
1.00224 1.00007 0.990737
0.999954 1.00001 0.996612
1.00181 1.00089 0.990678
1.00129 1.00184 0.991412
1.00394 1.00144 0.986528
1.0001 0.999347 0.998059
0.999831 1.00116 0.994019
1.00244 0.999959 0.990573
1.00218 1.00031 0.990717
1.00468 1.0002 0.986492
1.00085 1.00203 0.992733
1.00428 1.00081 0.986556
1.003 1.00296 0.986648
1.00494 1.00121 0.985016
0.999728 0.998193 0.998817
0.999742 0.998651 0.998624
1.00075 0.999988 0.997281
1.00064 0.999997 0.99733
1.00058 0.999991 0.997367
1.00044 1 0.996145
1.00228 0.999977 0.991575
1.00059 0.99997 0.99605
1.00242 1.00008 0.99125
1.00056 0.999993 0.997379
1.00213 0.999915 0.991141
1.00241 1.00006 0.992029
1.00463 0.999608 0.987239
1.00248 0.999995 0.991904
1.00473 0.999828 0.986854
1.00056 1.00001 0.994659
1.00025 1.00003 0.994891
0.999699 1.00128 0.99467
1.00026 0.999847 0.99505
1.00243 1 0.991395
1.00236 0.999932 0.991553
1.00215 1.00046 0.991324
1.00456 1.00039 0.987234
1.00057 0.999995 0.997378
1.00045 1.00004 0.994728
1.00218 0.999979 0.991396
1.00229 1.00005 0.991497
1.0002 1.00054 0.996039
1.00155 1.00162 0.991521
1.00228 0.99995 0.991611
1.00465 1.00001 0.987351
1.00442 1.00073 0.987136
1.00464 1.00014 0.987254
1.00522 1.00023 0.98553
1.00211 0.999954 0.991156
1.00208 1.00003 0.991789
1.00454 0.999567 0.987891
1.00463 0.999859 0.987442
1.00464 0.999951 0.987314
1.00524 0.999449 0.986539
0.999968 1.00014 0.997859
1.00524 0.999917 0.985821
1.00076 1.00258 0.990703
1.00401 1.00124 0.986589
1.00519 1.00067 0.98519
1.0052 0.999495 0.986256
0.999972 1.00251 0.992203
1.00055 1.00488 0.988822
1.00076 0.999994 0.997336
1.0005 1.00031 0.997387
1.00225 1.00006 0.990731
1.00008 0.999727 0.997956
1.00098 1.00218 0.990784
1.00179 1.0009 0.990691
1.00402 1.00132 0.986532
0.999959 0.999269 0.998218
0.999802 1.00102 0.994066
1.00245 0.999995 0.991264
1.00218 1.00035 0.991363
1.00468 1.00021 0.986479
1.00055 1.00218 0.991616
1.00432 1.00077 0.986559
1.00305 1.00289 0.986633
1.005 1.0011 0.984993
1.00013 1.00192 0.992729
0.999835 1.00012 0.994993
1.0006 1.00427 0.989742
1.00474 1.00007 0.986547
1.00454 1.00042 0.986507
1.00524 1.00001 0.985739
1.00193 1.00427 0.987231
1.00509 1.00071 0.985213
1.00454 1.00199 0.984969
1.00515 1.00113 0.984733
0.999721 0.997792 0.998991
0.999687 0.998096 0.99889
0.99967 0.998489 0.998743
0.999895 1.00173 0.993109
0.999787 0.999696 0.998166
1.0008 0.99997 0.997293
1.00067 0.999997 0.9973
1.00231 1.0001 0.990649
1.00218 0.999978 0.990987
1.00056 0.999992 0.997363
1.00054 0.999992 0.997377
1.00212 0.999925 0.991136
1.00233 1.00005 0.991404
1.00462 0.999608 0.987238
1.00237 1.00003 0.99059
1.00471 0.999829 0.98685
1.00209 0.999924 0.991188
1.00458 0.999546 0.987368
1.00468 0.999699 0.987062
1.00523 0.998401 0.98751
1.00475 0.999957 0.98667
1.00527 0.998924 0.986903
1.00054 0.999993 0.997374
1.00016 1.00007 0.995003
1.0022 0.999975 0.990407
1.00241 1.00004 0.991365
0.999664 1.00096 0.997783
1.00194 1.00126 0.991656
1.00241 0.999922 0.991505
1.00467 0.999947 0.987329
1.00463 1.00022 0.98728
1.00438 1.0008 0.987142
1.00522 1.00023 0.985556
1.0021 0.999943 0.991158
1.00221 1.00003 0.991655
1.00457 0.999552 0.987576
1.00465 0.999928 0.987425
1.00006 1.0002 0.997756
1.00101 1.00228 0.991419
1.00389 1.00153 0.986825
1.00465 0.999993 0.987283
1.00524 0.999256 0.98667
1.00518 1.00065 0.985211
1.00524 0.999963 0.985897
1.0052 0.999498 0.986282
1.00006 1.00241 0.992188
1.00069 1.00477 0.988831
1.00454 0.999587 0.987388
1.00458 0.999737 0.987686
1.00524 0.998708 0.987314
1.00525 0.998825 0.987033
1.00524 0.999496 0.986431
1.00522 0.997885 0.987985
1.00036 1.00269 0.991332
1.0052 0.998785 0.986982
1.00295 1.00285 0.986761
1.00514 1.00095 0.984861
1.00519 1.00043 0.98549
1.00518 0.998209 0.987677
1.00105 1.00489 0.988045
1.0004 1.00435 0.989721
1.00159 1.00475 0.987538
1.00235 0.999981 0.990651
0.999799 0.999151 0.998386
0.999779 1.00092 0.994112
1.00204 1.00038 0.990761
1.00468 1.00021 0.986465
1.00045 1.00229 0.991557
1.00306 1.00281 0.986616
1.00435 1.00073 0.986564
1.00506 1.00098 0.98497
1.00006 1.0019 0.992752
0.99984 1 0.995036
1.00038 1.00434 0.989733
1.00473 1.00008 0.98653
1.00455 1.00041 0.986498
1.00525 1.00002 0.985719
1.00196 1.00421 0.987239
1.00515 1.00073 0.98516
1.00458 1.00192 0.984969
1.00517 1.00101 0.984755
0.999927 0.999367 0.995549
1.00119 1.00456 0.988294
1.00031 1.00312 0.991154
1.00104 1.00475 0.988485
1.00526 0.999638 0.986124
1.00521 1.00038 0.98539
1.0052 0.999107 0.986663
1.00341 1.00334 0.985611
1.00521 1.00024 0.985646
1.00495 1.0016 0.984642
1.0052 1.00074 0.984954
1.00026 1.00077 0.993584
1.00018 0.998545 0.995905
0.999779 0.997517 0.999064
0.999707 0.997746 0.99902
0.999659 0.998016 0.998948
0.999943 1.00089 0.993913
0.999726 0.999126 0.998419
0.999947 1.00176 0.993087
0.999899 0.999768 0.998049
1.00236 1.00006 0.990588
1.00226 1.00004 0.990808
1.0047 0.999831 0.986846
1.00461 0.99961 0.987238
1.00213 0.999937 0.991135
1.00058 0.999987 0.997373
1.0021 0.999923 0.99119
1.00457 0.999554 0.987369
1.00467 0.999706 0.987059
1.00523 0.998411 0.987501
1.00474 0.999967 0.986656
1.00527 0.998925 0.986888
1.00454 0.999555 0.987416
1.00521 0.998281 0.987676
1.00526 0.998627 0.987226
1.00525 0.996298 0.989613
1.00527 0.999261 0.986532
1.00522 0.997311 0.988573
1.00211 0.999935 0.991163
1.00234 1.00001 0.991521
1.00459 0.999522 0.987263
1.00467 0.999987 0.987409
1.00015 1.0003 0.997652
1.0013 1.00207 0.991979
1.00388 1.00175 0.98706
1.00466 1.00002 0.987252
1.00524 0.999061 0.986802
1.00523 1.00001 0.985972
1.00515 1.00062 0.985234
1.0052 0.999497 0.986309
1.00013 1.0024 0.992174
1.00082 1.00468 0.988838
1.00455 0.999496 0.987411
1.0046 0.999719 0.987666
1.00523 0.998547 0.987509
1.00525 0.99903 0.986873
1.00044 1.00263 0.991317
1.00302 1.00282 0.986768
1.0051 1.00102 0.984875
1.00524 0.999616 0.986328
1.00521 0.997637 0.988257
1.00519 1.00034 0.985575
1.0052 0.998785 0.986998
1.00518 0.998144 0.987667
1.00113 1.0048 0.988041
1.00141 1.00467 0.987547
1.00047 1.00427 0.989727
1.00521 0.998536 0.98752
1.00525 0.998667 0.987366
1.00524 0.996679 0.989219
1.00521 0.997277 0.988596
1.00522 0.997941 0.987765
1.00518 0.996055 0.989751
1.00199 1.00402 0.987324
1.00517 0.997166 0.988504
1.00474 1.00172 0.984998
1.0052 1.00128 0.984445
1.00517 0.999537 0.986314
1.00513 0.997203 0.988654
1.0002 1.00374 0.990738
1.00225 1.00417 0.986797
1.00077 1.00508 0.988202
1.00268 1.00371 0.986936
1.00473 1.00009 0.986513
0.999847 0.999873 0.995078
0.999944 1.00189 0.992778
1.0002 1.00461 0.989726
1.00456 1.0004 0.986488
1.00525 1.00003 0.985699
1.00194 1.00414 0.98725
1.00465 1.0019 0.984971
1.0052 1.00076 0.985105
1.00518 1.0009 0.984776
0.999944 0.99926 0.995583
1.00105 1.00474 0.988308
1.00021 1.00326 0.991173
1.00088 1.00485 0.988475
1.00526 0.999647 0.986107
1.00523 1.00038 0.985368
1.0052 0.999106 0.986653
1.00346 1.00328 0.985627
1.00521 1.00031 0.985555
1.00501 1.00143 0.98465
1.0052 1.0007 0.985069
1.0001 0.998785 0.995812
1.00031 1.00201 0.992293
1.00209 1.00423 0.987099
1.00047 1.00469 0.989666
1.00175 1.00397 0.988128
1.00522 0.99851 0.987269
1.0052 0.999664 0.98607
1.00516 0.99811 0.98757
1.0042 1.00196 0.98543
1.00516 0.999722 0.986147
1.0046 1.00164 0.984692
1.0003 1.00085 0.993433
1.00032 1.00218 0.992136
1.00018 1.00081 0.99371
1.00025 1.00079 0.99358
1.00019 0.998374 0.996583
1.00017 0.998525 0.996221
0.999944 0.997303 0.997855
0.999785 0.997475 0.999067
0.999699 0.997685 0.999042
0.999833 1.00023 0.994744
0.999731 0.998623 0.998658
0.999955 1.00094 0.993889
0.999797 0.999251 0.998336
1.00002 1.00168 0.993066
0.999996 0.999872 0.997934
1.00473 0.999974 0.986641
1.00465 0.99971 0.987057
1.00527 0.998943 0.986873
1.00523 0.99842 0.987492
1.00456 0.999562 0.98737
1.00209 0.999919 0.991188
1.00454 0.999555 0.987417
1.00521 0.998284 0.987674
1.00526 0.998645 0.987212
1.00523 0.996194 0.989727
1.00527 0.999268 0.986518
1.00523 0.99732 0.988554
1.0052 0.998271 0.987696
1.00524 0.995921 0.990062
1.00524 0.996717 0.989184
1.00519 0.995132 0.990732
1.00522 0.99793 0.987909
1.0052 0.995661 0.989985
1.00455 0.999408 0.987434
1.00462 0.999714 0.987646
1.00523 0.998398 0.987703
1.00525 0.999237 0.986713
1.00055 1.00256 0.991305
1.00292 1.00292 0.986776
1.00507 1.00111 0.984888
1.00525 0.999735 0.986225
1.00521 0.997386 0.988529
1.0052 0.998785 0.987014
1.0052 1.00026 0.985658
1.00517 0.99808 0.987657
1.00125 1.00471 0.988034
1.00136 1.00463 0.987556
1.00054 1.00418 0.989735
1.00521 0.998448 0.987576
1.00525 0.998661 0.987358
1.00524 0.99641 0.989508
1.0052 0.997416 0.988465
1.00194 1.00415 0.987314
1.00467 1.00176 0.985004
1.00518 1.00133 0.984415
1.00522 0.998197 0.987525
1.00519 0.995842 0.989928
1.00517 0.999502 0.986253
1.00517 0.997191 0.988509
1.00515 0.997067 0.988763
1.00243 1.00399 0.986782
1.00256 1.00378 0.986858
1.00027 1.0036 0.990743
1.00066 1.00508 0.98832
1.00524 0.996125 0.989822
1.00521 0.99699 0.988932
1.00519 0.995322 0.990565
1.00518 0.995338 0.99039
1.00518 0.996355 0.989302
1.0052 0.995267 0.990406
1.00383 1.00268 0.985698
1.00515 0.995759 0.989729
1.00515 1.002 0.983996
1.00514 1.00108 0.98466
1.00517 0.998929 0.986662
1.00516 0.997048 0.988799
1.00016 1.00271 0.991768
1.00036 1.00503 0.989013
1.00348 1.00274 0.986049
1.00111 1.00507 0.987894
1.00309 1.00334 0.986735
0.999956 0.999173 0.995616
1.00526 0.999656 0.986089
1.00012 1.00338 0.991191
1.00092 1.00482 0.988319
1.00074 1.00489 0.988464
1.00524 1.00039 0.985345
1.00519 0.999105 0.986642
1.00366 1.00297 0.985639
1.00513 1.00126 0.984658
1.0052 1.00037 0.985466
1.00521 1.00066 0.985185
1.0001 0.99876 0.995831
1.00025 1.00207 0.992319
1.00213 1.00417 0.987097
1.00025 1.00472 0.989659
1.00153 1.00394 0.988129
1.00521 0.998504 0.987259
1.0052 0.999655 0.986059
1.00516 0.99808 0.987546
1.00439 1.00184 0.985452
1.00516 0.999768 0.986002
1.00484 1.00165 0.984692
1.00034 1.00122 0.993072
1.0003 1.00365 0.990896
1.00315 1.00247 0.986894
1.0006 1.00504 0.989222
1.00214 1.0026 0.988752
1.00517 0.997372 0.988338
1.00515 0.998834 0.986802
1.00518 0.997273 0.987997
1.00393 1.00141 0.985897
1.00491 1.00055 0.985305
1.00031 1.00084 0.993431
1.00032 1.00213 0.99208
1.00021 1.00229 0.992095
1.00039 1.00269 0.99166
1.00022 1.00231 0.992168
1.00009 1.00086 0.993784
1.00017 1.0008 0.993712
1.00018 0.998332 0.996633
1.00025 1.00081 0.993576
1.00019 0.998401 0.996589
1.00003 0.997092 0.997891
1.00016 0.998526 0.996532
0.999899 0.997278 0.99847
0.999795 0.997418 0.999071
0.999859 0.999416 0.995525
0.999854 1.00028 0.994714
0.999689 0.998108 0.998901
0.999774 0.9987 0.998568
0.999967 1.001 0.993863
0.999882 0.999313 0.998238
1.00526 0.999274 0.986504
1.00526 0.998646 0.987199
1.00524 0.997322 0.988536
1.00522 0.996104 0.98984
1.0052 0.998289 0.987672
1.00454 0.999556 0.987418
1.0052 0.998275 0.987699
1.00524 0.995897 0.990078
1.00523 0.996713 0.989181
1.0052 0.995052 0.990807
1.00523 0.99792 0.987889
1.0052 0.99563 0.990059
1.00524 0.995902 0.990092
1.00523 0.995068 0.990815
1.00519 0.995137 0.990641
1.00519 0.994931 0.990922
1.00519 0.996543 0.989196
1.00519 0.995061 0.990507
1.0052 0.998357 0.987631
1.00525 0.998666 0.98735
1.00524 0.996139 0.989796
1.0052 0.997551 0.988334
1.00192 1.00425 0.987306
1.00464 1.00177 0.985012
1.00516 1.00132 0.984385
1.00522 0.998455 0.987286
1.0052 0.995629 0.990105
1.00516 0.997215 0.988515
1.00518 0.999478 0.986192
1.00516 0.996928 0.988874
1.00242 1.00394 0.986767
1.00224 1.00382 0.98678
1.00035 1.00349 0.990748
1.00054 1.00507 0.98844
1.00524 0.996133 0.989814
1.00521 0.997097 0.988818
1.00519 0.995143 0.990759
1.00519 0.99535 0.990369
1.00355 1.00308 0.985674
1.00502 1.00199 0.983987
1.00514 1.00102 0.984639
1.00517 0.99657 0.989098
1.00519 0.995151 0.990492
1.00515 0.998977 0.986634
1.00516 0.995781 0.989723
1.00515 0.996776 0.988951
1.00365 1.00264 0.986051
1.003 1.0032 0.986786
1.00111 1.00506 0.987885
1.00016 1.00269 0.991717
1.00025 1.00494 0.989132
1.00521 0.994944 0.990959
1.00516 0.995177 0.990741
1.00521 0.994941 0.990616
1.00517 0.995217 0.990327
1.00457 1.00229 0.984815
1.00517 0.99554 0.990049
1.00511 1.00231 0.983595
1.0051 1.00081 0.984833
1.00513 0.998793 0.986749
0.99999 1.0017 0.99282
1.00011 1.00459 0.990092
1.00071 1.00505 0.98872
1.00425 1.00229 0.985652
1.00139 1.00505 0.987159
1.00334 1.00279 0.986108
1.0001 0.998737 0.995851
1.00019 1.00211 0.992345
1.00521 0.998498 0.987248
1.00001 1.00475 0.98965
1.00198 1.00436 0.987097
1.00133 1.00389 0.988129
1.0052 0.999647 0.986048
1.00516 0.998051 0.987521
1.00449 1.00172 0.985475
1.00506 1.00171 0.984691
1.00517 0.999807 0.985858
1.00031 1.00119 0.993085
1.00012 1.00376 0.990899
1.0033 1.00248 0.986732
1.00038 1.00503 0.989202
1.00202 1.00238 0.988887
1.00518 0.997356 0.988324
1.00515 0.998846 0.986779
1.00517 0.997316 0.988024
1.00428 1.00132 0.98577
1.00496 1.00068 0.985293
1.00031 1.00259 0.991791
0.999744 1.00466 0.99029
1.0038 1.00062 0.987381
1.0006 1.00428 0.98947
1.00286 1.00081 0.98896
1.00517 0.996039 0.989355
1.00516 0.998799 0.98671
1.00517 0.997295 0.98786
1.0043 1.00104 0.985906
1.00492 1.00048 0.985416
1.00032 1.00082 0.99343
1.00032 1.00214 0.992102
1.00012 1.0027 0.991801
1.00013 1.00237 0.992056
1.00016 1.00239 0.992158
1.0002 1.00284 0.991647
1.00015 1.00276 0.991887
1.00009 1.0032 0.991312
1.00011 1.00246 0.992208
1.00004 1.001 0.993749
1.00009 1.00086 0.993784
1.00014 0.99836 0.996666
1.00016 1.00079 0.993713
1.00019 0.998355 0.996638
1.00008 0.996973 0.997918
1.0002 0.998413 0.996599
1.00002 0.99707 0.997897
0.999849 0.997244 0.9991
0.999912 0.998808 0.996064
0.999843 0.999523 0.995481
0.999689 0.997723 0.999056
0.999874 1.00034 0.994686
0.999732 0.998235 0.998824
0.999823 0.998802 0.998491
1.00523 0.99791 0.987869
1.00523 0.996713 0.989177
1.00519 0.995598 0.990133
1.00521 0.994955 0.990883
1.00524 0.99587 0.990093
1.0052 0.998277 0.987701
1.00524 0.995956 0.990024
1.00523 0.995072 0.990822
1.00519 0.995105 0.990701
1.00519 0.99493 0.990896
1.00519 0.996543 0.989198
1.00518 0.99501 0.990569
1.00523 0.994952 0.990972
1.00519 0.994951 0.990936
1.00521 0.994928 0.990758
1.0052 0.99533 0.99021
1.00525 0.996142 0.989806
1.00521 0.997195 0.988705
1.00519 0.994959 0.990951
1.00519 0.995365 0.990349
1.0034 1.00334 0.985649
1.00498 1.00198 0.983977
1.00515 1.001 0.984619
1.00517 0.996785 0.988894
1.00518 0.995038 0.990578
1.00517 0.995802 0.989716
1.00514 0.999014 0.986604
1.00516 0.996495 0.989101
1.00369 1.00258 0.986053
1.00301 1.00279 0.986836
1.00105 1.00506 0.987876
1.00018 1.00261 0.99167
1.00024 1.00483 0.989252
1.00521 0.99494 0.990957
1.00516 0.995257 0.990642
1.00521 0.994942 0.990625
1.00437 1.00252 0.984809
1.0049 1.00233 0.98362
1.00508 1.00077 0.984826
1.00517 0.995279 0.990283
1.00515 0.998518 0.987081
1.00515 0.995578 0.989919
1.00003 1.00152 0.992982
1.00424 1.00206 0.98558
1.00296 1.00241 0.98709
1.00159 1.00507 0.987162
1.00071 1.00506 0.988845
1.00011 1.00454 0.990013
1.00517 0.994935 0.99098
1.0052 0.994929 0.990723
1.00519 0.994911 0.990611
1.00514 0.995012 0.990563
1.00505 1.00236 0.984246
1.00511 0.996687 0.988768
1.00486 1.00245 0.983485
1.005 1.00119 0.98457
1.00009 1.00046 0.993964
0.999992 1.00339 0.991461
1.00034 1.00499 0.989465
1.00125 1.00504 0.987729
1.00425 1.00272 0.98458
1.00297 1.00412 0.985678
1.00028 1.00117 0.993098
0.999969 1.00385 0.990903
1.00518 0.997339 0.98831
1.00013 1.00505 0.989183
1.00348 1.00249 0.986569
1.00165 1.00233 0.989026
1.00514 0.998858 0.986756
1.00517 0.997367 0.98805
1.00458 1.00129 0.985642
1.00502 1.00079 0.985281
1.00024 1.00265 0.991801
0.999885 1.00471 0.990169
1.00417 1.00056 0.98728
1.00035 1.00453 0.989509
1.00272 1.00056 0.989318
1.00518 0.996016 0.989504
1.00516 0.998733 0.986836
1.00517 0.997428 0.987838
1.00437 1.00118 0.985831
1.00497 1.00058 0.985204
0.999812 1.00331 0.99144
0.999781 1.00504 0.989606
1.00408 0.999805 0.987572
1.00173 1.00205 0.988924
1.00523 0.995052 0.990093
1.00515 0.996548 0.989177
1.00501 0.999565 0.985976
1.00469 1.00046 0.985513
1.00035 1.00211 0.992124
1.00017 1.0027 0.9918
0.999813 1.00304 0.99229
1.0001 1.0025 0.992149
1.00002 1.00298 0.991633
1.00008 1.0025 0.9922
1.00003 1.00274 0.992019
1.00013 1.00322 0.991324
0.999997 1.00203 0.992851
1.00004 1.00347 0.991274
1.00008 1.00355 0.991015
1.00009 1.00256 0.992134
0.999991 1.00118 0.993605
1.00002 1.00099 0.993747
1.00009 0.998424 0.996691
1.00008 1.00085 0.993784
1.00015 0.998391 0.996669
1.00008 0.996942 0.997934
1.00019 0.99838 0.996645
1.00007 0.99695 0.997923
1 0.997055 0.997898
1.00001 0.998329 0.996387
0.999917 0.998868 0.99602
0.999733 0.99738 0.999148
0.999827 0.999631 0.995437
0.999711 0.997783 0.999016
0.999784 0.998309 0.998718
1.00519 0.996543 0.9892
1.0052 0.995077 0.99076
1.00518 0.994959 0.990632
1.00518 0.994929 0.990869
1.00523 0.995077 0.990828
1.00524 0.995998 0.989956
1.00523 0.995009 0.990896
1.0052 0.994949 0.99094
1.0052 0.994929 0.990754
1.0052 0.995265 0.99029
1.00519 0.99496 0.990981
1.00523 0.994934 0.990797
1.00525 0.994918 0.990566
1.00521 0.994937 0.990954
1.00516 0.995337 0.990542
1.0052 0.994945 0.990633
1.0042 1.00275 0.984804
1.00483 1.00235 0.983639
1.00509 1.00069 0.98482
1.00516 0.995341 0.99024
1.00512 0.995566 0.989789
1.00515 0.998231 0.987414
1.00422 1.00193 0.985503
1.00252 1.00217 0.988065
1.00189 1.00508 0.987167
1.00007 1.00137 0.993146
1.00052 1.00506 0.988968
1.00007 1.00454 0.989932
1.00518 0.994933 0.990983
1.00519 0.994922 0.990718
1.00518 0.994911 0.990622
1.00465 1.0026 0.98427
1.00488 1.00244 0.983387
1.005 1.00096 0.984898
1.00514 0.994971 0.990516
1.0051 0.99667 0.988697
1.00009 1.00039 0.994144
0.999997 1.00339 0.991457
1.00396 1.00239 0.984962
1.0027 1.00414 0.986415
1.00115 1.00503 0.987996
1.00028 1.00502 0.989417
1.00521 0.994928 0.990847
1.00522 0.994899 0.990506
1.00516 0.994894 0.990625
1.00509 0.994969 0.990341
1.00482 1.00318 0.982834
1.0049 0.999869 0.985967
1.0048 1.00307 0.98322
1.00023 0.999867 0.994563
1.00028 1.00101 0.993402
1.00001 1.0019 0.992766
1.00003 1.00444 0.990316
1.0005 1.00503 0.988737
1.00095 1.0047 0.987643
1.00375 1.00259 0.985189
1.00294 1.00394 0.987095
1.00015 1.00276 0.99181
1.00001 1.00478 0.990048
1.00518 0.995986 0.989654
1.00041 1.00456 0.989544
1.00455 1.00052 0.987181
1.00254 1.00037 0.98967
1.00516 0.998649 0.986965
1.00517 0.997535 0.987819
1.00451 1.00129 0.985758
1.00496 1.00065 0.984992
0.999894 1.00341 0.991317
0.999934 1.00504 0.989641
1.00433 0.999839 0.987653
1.00199 1.00222 0.989015
1.00523 0.995048 0.990173
1.00515 0.996521 0.98902
1.00503 0.9995 0.98603
1.00484 1.00054 0.985372
0.99974 1.00392 0.991003
1.00526 0.994885 0.990327
1.00138 1.00438 0.988688
1.00406 1.00025 0.987421
1.00519 0.99544 0.990192
1.00508 0.998307 0.986171
1.0048 1.00143 0.984858
1.00019 1.00273 0.991799
0.99977 1.00298 0.992232
0.999399 1.00272 0.993388
1.00008 1.00247 0.992192
1.00015 1.00324 0.991335
0.999679 1.00296 0.992149
1.00007 1.00257 0.992122
1.00001 1.00359 0.99104
0.999651 1.00223 0.993012
1.00016 1.00334 0.991264
0.999935 1.0012 0.994162
0.999812 1.00282 0.992323
1.00015 1.0043 0.990283
1.00029 1.00356 0.990739
1.00008 1.00284 0.991862
0.999944 1.00146 0.993407
0.999961 1.00125 0.993593
1.00002 0.998577 0.99668
1.00001 1.00103 0.993744
1.00009 0.998475 0.996687
1.00005 0.996951 0.997963
1.00015 0.998423 0.996673
1.00009 0.996917 0.997936
1.00007 0.996929 0.997924
1.00019 0.999958 0.994564
1.00009 0.998052 0.996542
1.00002 0.998372 0.996364
0.999819 0.997062 0.999202
0.999918 0.99894 0.995976
0.999745 0.997453 0.999125
0.999741 0.997873 0.998979
1.0052 0.995201 0.99037
1.00519 0.99493 0.99075
1.0052 0.994946 0.990945
1.00523 0.995078 0.990819
1.00519 0.99496 0.990971
1.00523 0.994936 0.990808
1.00524 0.994918 0.990531
1.00522 0.994947 0.990859
1.00528 0.99493 0.990613
1.00529 0.994921 0.991066
1.00518 0.99493 0.990986
1.00519 0.994914 0.990713
1.00518 0.994909 0.990632
1.00411 1.0028 0.984298
1.00504 1.00249 0.9833
1.00492 1.00078 0.985226
1.00515 0.994942 0.990469
1.0051 0.996727 0.988627
1.00383 1.00237 0.985352
1.00249 1.00421 0.987152
1.0009 1.00502 0.988263
1.00009 1.00027 0.994323
1.0001 1.00332 0.991455
1.00028 1.00503 0.989365
1.00521 0.99493 0.990834
1.00019 0.999903 0.994558
1.00022 1.00107 0.993312
1.00522 0.994903 0.990521
1.00514 0.994891 0.990633
1.00484 1.00322 0.98294
1.00478 1.00286 0.98333
1.00489 0.999727 0.985891
1.00509 0.995121 0.990268
1.00005 1.00186 0.992952
1.00009 1.0044 0.990283
1.004 1.00313 0.984782
1.00216 1.00381 0.987791
1.0011 1.00474 0.987909
1.0005 1.00503 0.988838
1.00526 0.994928 0.990596
1.00522 0.994816 0.990539
1.00511 0.994888 0.990321
1.00475 0.995487 0.990133
1.00433 1.00374 0.983256
1.00428 1.00332 0.983945
1.00009 1.00144 0.993052
1.00026 1.00096 0.993451
1.00056 1.00129 0.992802
1.00029 1.00281 0.991399
1.00014 1.0049 0.989731
1.00163 1.00431 0.988046
1.00017 1.00514 0.988288
1.00307 1.00098 0.987354
0.999988 1.00346 0.991196
1.00017 1.00503 0.989677
1.00523 0.995048 0.990253
1.00515 0.996528 0.988864
1.00226 1.0024 0.989108
1.00455 0.999841 0.987733
1.00503 0.99946 0.986082
1.00505 1.00065 0.98523
0.999922 1.00389 0.99094
1.00527 0.994884 0.9905
1.00116 1.00439 0.988713
1.00423 1.00031 0.987118
1.00519 0.995409 0.990207
1.00507 0.998452 0.98644
1.00476 1.00134 0.984903
1.00008 1.00461 0.99033
1.0046 0.994903 0.991445
1.00276 1.00275 0.987936
1.00437 1.00135 0.98587
1.00488 0.996832 0.989299
1.00361 1.00169 0.985615
0.998523 0.997901 0.988715
0.999669 1.00301 0.992174
0.999145 1.00289 0.993363
0.999659 1.00241 0.993589
1.00002 1.00262 0.992109
0.999983 1.00365 0.991066
1.00037 1.00312 0.991257
0.999445 1.00226 0.993174
1.00006 1.00285 0.991862
1.00023 1.00366 0.99073
0.999855 1.00127 0.993983
1.00012 1.00433 0.990298
0.999985 1.00273 0.992137
0.999605 1.00183 0.993949
1.00036 1.00463 0.989688
1.00017 1.00437 0.990259
1.00042 1.00381 0.990292
1.0001 1.0031 0.991392
1.00024 1.00384 0.990786
1.0001 1.0032 0.991238
0.999948 1.00151 0.993334
0.999959 1.00145 0.993396
0.999968 0.998705 0.996081
0.999973 1.00124 0.993579
1.00002 0.998635 0.996369
1.00002 0.997033 0.999127
1.00009 0.99852 0.996683
1.00007 0.996917 0.997966
1.00009 0.996893 0.997935
1.00012 0.999966 0.994621
1.00021 0.999882 0.994578
1.0001 0.997964 0.996646
1.00007 0.998068 0.996801
0.999893 0.996888 0.999234
1.00001 0.998408 0.996341
0.999813 0.997155 0.999189
0.999759 0.997502 0.999102
1.00524 0.994916 0.990497
1.00522 0.994936 0.990819
1.00519 0.994961 0.990961
1.00522 0.994948 0.990859
1.00527 0.994927 0.990618
1.00528 0.994923 0.990693
1.0053 0.994925 0.990638
1.00121 0.994871 0.984893
1.00445 0.994878 0.992995
1.00001 1.00141 0.993364
1.00521 0.994932 0.990822
1.00522 0.994905 0.990536
1.00513 0.994886 0.990642
1.00445 1.00316 0.983037
1.00492 1.00276 0.983438
1.00495 0.999661 0.98582
1.00509 0.995274 0.990192
1.00457 1.00308 0.984375
1.00131 1.00368 0.988484
1.00124 1.00479 0.988178
1.00014 0.999993 0.994554
1.00054 1.00503 0.988938
1.00002 1.00182 0.993131
1.00021 1.00434 0.99025
1.00022 1.00103 0.993222
1.00526 0.994913 0.990594
1.0001 1.00139 0.99316
1.00018 1.00108 0.993452
1.00049 1.00128 0.992834
1.00522 0.994838 0.990508
1.00512 0.994887 0.990346
1.00419 1.00389 0.983323
1.0044 1.00249 0.984564
1.0047 0.996026 0.99002
1.00004 1.00299 0.991549
1.0003 1.00481 0.989593
1.00298 1.0022 0.987137
1.00079 1.00493 0.988273
1.00142 1.00414 0.988192
1.00523 0.994908 0.990768
1.00513 0.994782 0.990774
1.00506 0.995301 0.98992
1.0045 0.997956 0.989288
1.00225 1.00369 0.987187
0.999975 1.00248 0.99218
1.00059 1.00133 0.992345
0.999964 1.00218 0.992321
1.00002 1.00435 0.991151
1.00021 1.00474 0.989704
1.00031 1.00457 0.988919
1.00133 1.00248 0.988965
1.00018 1.00381 0.990875
1.0008 1.00441 0.988736
1.00528 0.99487 0.990664
1.0052 0.995355 0.990219
1.00507 0.998626 0.98671
1.00434 1.00035 0.986815
1.00473 1.00118 0.984952
1.00027 1.00451 0.990388
1.00456 0.994963 0.991599
1.00271 1.00261 0.987755
1.00431 1.00132 0.985829
1.00498 0.996171 0.989571
1.00379 1.00187 0.985646
0.998541 0.997912 0.986583
1.00047 1.00427 0.99005
1.00255 0.999043 0.991075
1.00295 1.00177 0.987648
1.0026 1.00157 0.987441
1.00334 0.997748 0.99005
1.00003 0.994917 0.95032
0.996862 0.994868 0.969191
0.996144 1.00125 0.988586
0.999823 0.995303 0.883672
0.994703 0.994787 0.85372
0.998925 1.00307 0.993342
0.999064 1.00282 0.993822
0.999303 1.00298 0.993595
1.00004 1.00286 0.991862
1.0003 1.00353 0.99072
1.00011 1.00434 0.990313
1.00017 1.00262 0.991948
0.999743 1.00135 0.993804
1.00023 1.00427 0.9902
1.0001 1.00309 0.991472
1.00039 1.00381 0.990338
0.999738 1.00153 0.993706
1.00023 1.00455 0.989936
1.00024 1.00469 0.989987
0.99961 1.00454 0.990716
1.00014 1.00468 0.989971
1.0004 1.00391 0.990162
1.00017 1.00308 0.991287
1.0003 1.00407 0.990304
1.00014 1.00414 0.99061
1.00002 1.00386 0.990915
1.00018 1.00391 0.990697
1.00015 1.00302 0.991575
1.00013 1.00319 0.991235
0.999993 1.00145 0.993334
0.999965 1.0015 0.993335
0.999957 0.998785 0.99606
0.999945 1.00149 0.993386
0.999964 0.99873 0.996075
0.999995 0.997024 0.99914
1.00002 0.9987 0.996058
1.00002 0.997025 0.998537
1.00008 0.996883 0.997967
1.00004 0.999988 0.994736
1.00014 0.999957 0.994624
1.0001 0.997873 0.996737
1.00023 0.999816 0.994592
1.0001 0.99791 0.996905
0.999939 0.996719 0.999265
1.00007 0.998123 0.99652
0.999882 0.996953 0.99922
0.999812 0.997208 0.999176
1.00527 0.994925 0.990623
1.00522 0.994949 0.99086
1.00528 0.994931 0.990327
1.00086 0.994889 0.985018
1.00529 0.994921 0.99064
1.00429 0.995233 0.992602
1.00505 0.996281 0.991233
0.996458 0.994897 0.968436
1.00043 0.996799 0.987187
1.00005 1.00136 0.993375
1.00008 1.00136 0.993347
0.999913 1.00253 0.992393
0.999915 1.00225 0.992674
1.00525 0.994908 0.990591
1.00523 0.994864 0.990478
1.00513 0.994888 0.99037
1.00479 1.00371 0.983386
1.00431 1.00117 0.985176
1.00462 0.996544 0.989902
1.00255 1.00353 0.986929
1.0016 1.00472 0.988257
1.00124 1.00386 0.988337
1.00008 1.00128 0.993453
1.00029 1.00483 0.989452
1.00006 1.00309 0.9917
1.00011 1.00139 0.993268
1.00035 1.0013 0.992857
1.00524 0.99489 0.990774
1.00006 1.00249 0.992222
1.00062 1.00133 0.992521
0.999536 1.00207 0.993199
1.00513 0.994798 0.990671
1.00497 0.995346 0.989935
1.00297 1.00273 0.987119
1.00416 0.997521 0.989752
1.00015 1.00397 0.990899
1.00034 1.00485 0.989165
1.0015 1.00344 0.988821
1.00123 1.00427 0.98867
1.00446 0.994816 0.991735
1.00501 0.995362 0.990762
1.00495 0.996054 0.989682
1.00229 0.999074 0.99182
0.999585 1.00353 0.991852
1.0003 1.00243 0.991668
0.998938 1.00448 0.991937
0.99933 1.00504 0.990167
1 0.994898 0.940348
1.00038 1.00437 0.990445
1.00259 1.00259 0.987574
1.00447 0.994898 0.991765
1.00505 0.995639 0.989838
1.00389 1.002 0.985663
1.00422 1.0014 0.985782
0.99867 0.99747 0.984371
1.00037 1.00421 0.990314
1.0026 0.99813 0.991097
1.00286 1.002 0.987671
1.00323 1.0012 0.987434
1.00366 0.997813 0.98989
1.0009 0.99491 0.939228
0.996863 0.994865 0.964939
0.996282 1.00197 0.988549
0.999762 0.994814 0.88769
0.994709 0.994792 0.842818
1.0002 1.00401 0.990876
0.999794 0.994879 0.894681
0.994701 0.994808 0.851033
1.00119 1.00009 0.991434
1.00154 1.00168 0.989915
1.00161 1.00031 0.991021
0.995832 1.00208 0.989651
1.00039 0.995639 0.946388
0.994903 0.9951 0.962454
0.997311 0.9973 0.896837
0.994751 0.994806 0.844737
0.998611 1.00313 0.994054
0.999098 1.00291 0.993473
0.999265 1.0037 0.992934
1.00013 1.00304 0.99155
1.00037 1.00385 0.990384
0.999973 1.00451 0.990143
1.00008 1.0045 0.990184
0.999913 1.00121 0.993463
1.00016 1.0031 0.991289
1.00006 1.00483 0.989999
1.00013 1.00469 0.989954
1.00048 1.00379 0.990247
0.999557 1.00456 0.990887
0.999743 1.00508 0.990447
0.998724 1.00493 0.991584
1.00033 1.00433 0.989993
1.00038 1.00389 0.990365
1.00034 1.00403 0.990293
1.00006 1.00413 0.990692
1.00038 1.0043 0.989936
0.999887 1.00426 0.990775
0.99956 1.00422 0.990913
0.999777 1.00488 0.990209
0.999901 1.0042 0.990758
1.00009 1.00379 0.990915
1.00009 1.00293 0.991739
1.00013 1.00395 0.990608
1.00015 1.00301 0.991503
1.00005 1.00147 0.993255
1.00018 1.00317 0.991231
0.999976 1.00148 0.99334
1.00003 0.998721 0.996613
0.999947 1.00153 0.993336
0.999971 0.998744 0.996356
1 0.997038 0.997961
0.999959 0.998747 0.996069
0.999993 0.997039 0.999142
1.00004 0.997032 0.997946
1.00011 1.0014 0.993215
0.999981 1.00002 0.994787
1.00004 0.999975 0.994738
1.00009 0.997853 0.996774
1.00015 0.999924 0.994628
1.00011 0.99783 0.99674
0.999977 0.996626 0.999282
1.00009 0.9979 0.997141
0.999956 0.996815 0.998743
0.999926 0.99702 0.998173
1.00049 0.995085 0.985155
1.00528 0.994924 0.990644
1.00402 0.996058 0.992201
0.996662 0.994902 0.96944
1.00041 0.99647 0.987528
1.00505 0.995789 0.991122
1.003 0.997298 0.987825
0.996555 0.996494 0.972445
1.00002 0.994899 0.947681
0.999574 0.996453 0.900192
0.994653 0.994756 0.852072
0.999852 1.00236 0.992556
1.00007 1.00135 0.99337
1.00016 1.00128 0.993331
0.999945 1.00251 0.99239
0.999658 1.00344 0.991943
1.00031 1.00226 0.991942
1.00003 1.00276 0.992197
0.999975 1.00226 0.992541
1.00525 0.994863 0.990776
1.00513 0.994814 0.99057
1.00489 0.995249 0.989951
1.0031 1.00242 0.98706
1.00388 0.997358 0.990223
1.00172 1.00433 0.988667
1.00202 1.00408 0.988421
1.00065 1.00501 0.98863
1.00041 1.00139 0.9927
1.00011 1.00401 0.990645
1.00014 1.00251 0.992268
0.9993 1.00197 0.994071
1.00445 0.994807 0.991921
0.999617 1.00351 0.991926
1.00023 1.00264 0.991948
1.00487 0.995146 0.990729
1.0048 0.995624 0.989852
1.00216 0.99905 0.991406
0.999582 1.0049 0.991034
1.0002 1.00452 0.990287
1.00321 0.994849 0.991996
1.0043 0.997049 0.990761
1.00471 0.995203 0.991018
1.00115 0.999287 0.992863
0.999865 1.00459 0.990441
0.999438 1.00416 0.991501
0.999405 1.00522 0.991122
0.99982 0.994853 0.896463
1.00037 0.99492 0.951477
1.00034 1.00416 0.990578
1.00285 1.00208 0.9877
1.00252 0.997501 0.991125
1.00405 0.997973 0.989736
1.00394 1.00082 0.987443
1.00001 0.994919 0.948905
0.997035 0.994877 0.964201
0.996364 1.00257 0.988473
0.999562 0.995585 0.900369
0.994718 0.994796 0.83145
1.00023 1.00371 0.990817
0.999831 0.994889 0.89415
0.99468 0.994794 0.845011
1.00125 1.00005 0.991483
1.00172 1.00153 0.989982
1.00174 1.00024 0.991474
0.99599 1.0023 0.990304
1.00157 0.99605 0.939432
0.994905 0.994837 0.966003
0.9981 0.998498 0.896186
0.994761 0.994791 0.843484
0.999577 1.00371 0.992666
0.994689 0.994834 0.84669
0.994763 0.994816 0.860416
0.998717 1.00145 0.994778
0.999662 1.00223 0.993967
0.995323 1.0022 0.989493
0.994881 0.996765 0.96591
0.997366 0.99763 0.936065
0.994726 0.999627 0.901263
0.994827 0.994807 0.846332
0.999039 1.00272 0.993357
0.999476 1.00344 0.992698
0.998317 1.00418 0.993068
1.00016 1.00312 0.99129
1.00052 1.0037 0.990332
1.00014 1.00467 0.989936
0.999941 1.00493 0.99001
0.999371 1.00472 0.99106
1.00036 1.00391 0.990363
0.999753 1.00502 0.990324
1.00036 1.00428 0.990006
0.998451 1.005 0.991886
0.996643 1.00508 0.994547
0.999668 1.00455 0.991006
1.0005 1.00433 0.989801
1.00037 1.00399 0.990282
1.00006 1.00405 0.990773
1.00035 1.00441 0.989896
0.999957 1.00421 0.990728
0.999472 1.00411 0.991347
0.999678 1.00479 0.990453
0.999714 1.00452 0.990544
0.999148 1.00445 0.991543
1.00043 1.00241 0.991712
1.00075 1.00339 0.989432
0.999595 1.00483 0.990355
0.999898 1.00479 0.99022
0.999793 1.00465 0.990467
0.999916 1.00424 0.990751
1 1.0031 0.991639
1.00009 1.00384 0.990914
1.0001 1.00293 0.991746
1.00011 1.00138 0.993179
1.00016 1.00301 0.991431
1.00004 1.00144 0.993269
1.0001 0.998724 0.996499
0.999977 1.00147 0.993345
1.00003 0.998702 0.996292
1.00004 0.996969 0.99793
0.999978 0.998721 0.996063
0.999996 0.99704 0.99914
0.999993 0.997035 0.999144
1.00014 1.00169 0.993161
0.999967 1.00015 0.994696
1.00008 1.00146 0.993224
1.00009 0.997852 0.996774
0.99998 1.00003 0.994789
1.00005 0.999983 0.99474
1.0001 0.99784 0.99677
1 0.996567 0.999285
1.0001 0.997802 0.997218
0.999994 0.996631 0.998789
0.999975 0.996826 0.998252
0.999826 0.994908 0.885007
0.994642 0.994776 0.847147
0.997937 0.994889 0.969261
1.00046 0.995427 0.987892
1.00509 0.995067 0.991012
0.996173 0.995793 0.973159
1.00333 0.996201 0.988236
1.00117 0.99516 0.945804
0.999819 0.995225 0.887231
0.994693 0.994767 0.841396
0.998563 0.994848 0.977212
1.00001 0.996094 0.946969
0.997769 0.997909 0.894814
0.994759 0.994778 0.846284
1.00009 1.00325 0.991519
0.99988 1.00224 0.992662
1.00011 1.00131 0.993365
0.999931 1.0025 0.992388
0.999681 1.00325 0.992094
1.00003 1.00355 0.991238
1.00024 1.00271 0.991789
1.00031 1.00322 0.99101
1.00006 1.00269 0.992089
0.999984 1.00236 0.992409
1.00447 0.994802 0.992099
1.00479 0.994932 0.990708
1.00451 0.995339 0.990018
1.00193 0.999179 0.990993
1.00081 1.00441 0.99041
0.999711 1.00512 0.990133
1.00032 1.00244 0.992238
0.999621 1.00355 0.991996
1.00303 0.995167 0.992316
0.99988 1.00464 0.990301
0.999275 1.00428 0.991426
1.00438 0.996259 0.990742
1.00461 0.995301 0.990685
1.00107 0.999262 0.993019
0.999477 1.00521 0.991015
1.00055 0.995887 0.992575
1.00264 0.996707 0.993733
1.00013 1.00146 0.993244
0.999119 1.00475 0.990232
0.999485 1.00496 0.990281
0.999249 1.00508 0.991125
0.994739 0.995233 0.865816
0.999821 0.994878 0.90068
0.999987 0.994915 0.940658
1.00004 1.00367 0.99075
1.00186 1.00142 0.990041
1.00135 1.00004 0.99153
1.00186 1.00002 0.991922
0.999836 0.994856 0.903078
0.999937 0.995509 0.938381
0.994881 0.994843 0.962673
0.996001 1.00241 0.990939
0.997309 0.997436 0.884139
0.994658 0.994801 0.848431
0.994741 0.994793 0.852248
0.999359 1.00335 0.992528
0.994693 0.994866 0.854657
0.994789 0.994821 0.859998
0.998481 1.00137 0.994985
0.999363 1.00191 0.993948
0.995327 0.999459 0.992185
0.994894 0.9966 0.964717
0.997411 0.99944 0.946585
0.996256 0.999853 0.88777
0.994815 0.994799 0.855104
0.997394 1.00339 0.995904
0.994803 0.994912 0.868697
0.994806 0.994783 0.85995
0.995369 1.00211 0.999843
0.994833 0.998966 0.972361
0.994894 0.999949 0.947266
0.994988 0.99853 0.882212
0.994872 0.994836 0.855553
0.999674 1.00305 0.992452
0.998609 1.00409 0.993394
0.996978 1.00493 0.995274
1.00031 1.00398 0.990362
1.00044 1.00417 0.990018
0.999826 1.00489 0.9902
0.998164 1.00505 0.992196
1.0004 1.00439 0.989815
0.999644 1.00455 0.990956
0.996786 1.00512 0.994988
0.995197 1.00524 0.997267
0.997067 1.00497 0.994884
1.00018 1.00414 0.990515
1.00034 1.0045 0.989856
0.999996 1.00417 0.99068
0.999325 1.00413 0.991773
0.999725 1.00453 0.990599
0.999732 1.00478 0.990484
0.999188 1.00453 0.991598
0.999734 1.00413 0.991408
0.997839 1.00476 0.993408
1.00186 0.998665 0.992559
1.00042 1.00222 0.991883
1.00085 1.00266 0.990312
1.00293 1.00323 0.986531
1.00026 1.00444 0.990459
1.00041 1.00358 0.990058
0.999837 1.00472 0.990313
0.999721 1.00466 0.990321
1.00001 1.00468 0.990231
0.999917 1.00452 0.990476
1.00003 1.00349 0.991249
1.00006 1.00414 0.990745
1.0001 1.00304 0.99163
1.00017 1.00138 0.993097
1.00017 1.00284 0.991752
1.00015 1.00138 0.993186
1.00015 0.998743 0.996389
1.00006 1.00142 0.993282
1.0001 0.998725 0.99616
1.00006 0.997053 0.997825
1.00004 0.99869 0.995992
1.00002 0.996995 0.998536
0.999999 0.997018 0.999136
1.00018 1.00219 0.99235
1.00004 1.00028 0.994485
1.0001 1.00171 0.992984
1.00008 0.997914 0.996715
0.999977 1.00013 0.994698
1.00005 1.00152 0.99323
1.00003 0.996541 0.999284
1.00008 0.997855 0.996774
0.999983 1.00003 0.99479
1.0001 0.997825 0.996765
1 0.996588 0.999285
0.999977 0.996617 0.999282
0.994673 0.994804 0.851842
0.999839 0.995083 0.893654
0.994785 0.994821 0.858453
0.994667 0.994778 0.845163
0.99592 0.99557 0.970685
1.00351 0.995602 0.988681
1.00007 0.995278 0.943487
0.999822 0.995836 0.900587
0.994745 0.994792 0.830409
0.998305 0.995423 0.976514
1.00157 0.996209 0.934936
0.998029 0.998648 0.895082
0.994779 0.994789 0.84057
0.995425 0.995329 0.97051
0.99742 0.998218 0.936112
0.9951 0.999529 0.882125
0.99482 0.994816 0.842306
1.00015 1.00413 0.990856
1.00003 1.00309 0.991645
0.999879 1.00223 0.992766
0.999701 1.00309 0.992246
1.00046 1.00399 0.989991
0.999966 1.00349 0.991389
1.00003 1.00307 0.991638
1.00062 1.00296 0.990954
1.00037 1.00325 0.991086
1.00009 1.00257 0.991981
1.00292 0.994829 0.992628
1.00445 0.995398 0.99074
1.00459 0.995475 0.990352
1.00107 0.99884 0.993189
0.999972 1.00498 0.990906
0.999387 1.00445 0.991355
0.999836 1.00479 0.990162
0.999929 1.00497 0.989968
1.00027 0.995851 0.992884
0.99984 1.00493 0.990167
0.999549 1.00508 0.991085
1.00276 0.996163 0.993905
1.00075 1.00041 0.993094
0.997933 0.996796 0.993598
0.998022 0.999234 0.999396
0.998325 1.00356 0.993509
0.999979 1.00465 0.990249
0.999234 1.00492 0.991374
0.994857 0.995248 0.873555
0.994737 0.995077 0.862846
0.999809 0.994863 0.887993
0.999238 1.00296 0.992403
0.999137 1.00152 0.993912
0.998496 1.0011 0.995205
0.99467 0.994823 0.854396
0.997418 0.997891 0.937044
0.994868 0.996634 0.96511
0.995629 0.997336 0.995102
0.994793 0.999351 0.902207
0.994797 0.994825 0.85978
0.994831 0.99481 0.855464
0.997485 1.00315 0.996329
0.994811 0.99485 0.871443
0.994799 0.994781 0.860188
0.995483 1.0021 0.998795
0.994874 0.99861 0.974039
0.995667 0.999525 0.93663
0.994862 0.994834 0.853983
0.994892 0.999782 0.889921
0.995479 1.00501 0.998543
0.994774 0.99482 0.875073
0.994841 0.994798 0.863869
0.994815 0.994815 0.843008
0.994992 0.999784 0.991677
0.994943 0.999223 0.950755
0.995108 0.999059 0.893526
0.999052 1.00411 0.993717
0.997521 1.0051 0.994414
0.995115 1.00517 0.998413
1.00035 1.0044 0.989828
0.99954 1.00458 0.990902
0.99679 1.00503 0.995415
0.999997 1.00432 0.990468
0.997211 1.00488 0.994891
0.995383 1.00527 0.9972
0.995148 1.00527 0.998048
0.997326 1.00474 0.994467
0.999684 1.0046 0.990659
0.999798 1.00477 0.990516
0.999253 1.00465 0.991661
0.998133 1.00481 0.993273
0.999618 1.00407 0.991311
0.999346 1.00257 0.99339
1.00065 0.999242 0.99415
1.00169 1.00118 0.989658
1.0004 1.00203 0.992057
1.00144 1.00268 0.989928
1.00366 1.00233 0.98615
1.00434 1.00185 0.985273
1.00094 1.00434 0.989053
1.00252 1.00314 0.986739
1.00011 1.00489 0.989885
1.00006 1.00447 0.990488
1.00003 1.00377 0.990683
1.00007 1.00462 0.990271
0.999763 1.00462 0.990382
1.00012 1.00372 0.990871
1 1.00441 0.990486
1.00011 1.0034 0.99126
1.00017 1.00164 0.992844
1.00015 1.00303 0.99162
1.00019 1.00138 0.993086
1.00015 0.998743 0.996365
1.00016 1.00135 0.993192
1.00015 0.998731 0.996061
1.00006 0.997135 0.997765
1.00012 0.998695 0.995855
1.00004 0.997051 0.998471
1.00002 0.99702 0.999112
1.00038 1.00232 0.991706
1.00009 1.0006 0.993825
1.00021 1.00216 0.992348
1.00011 0.998 0.996579
1.00003 1.00029 0.99434
1.0001 1.0017 0.99281
1.00003 0.996593 0.999266
1.00009 0.997898 0.996721
0.99998 1.0001 0.994701
1.00002 0.996561 0.999284
1.00007 0.99786 0.996773
1 0.996579 0.999285
0.994845 0.994828 0.866424
0.994688 0.99488 0.860609
0.999834 0.994888 0.893792
1.00076 1.00295 0.99063
0.99481 0.994799 0.866757
0.994777 0.994799 0.858325
0.99469 0.994779 0.853147
0.998572 0.995782 0.975422
0.999707 0.996445 0.94566
0.997627 0.997772 0.882244
0.99475 0.994797 0.845219
0.996634 0.995005 0.967205
0.997427 0.999075 0.945726
0.996078 0.999864 0.886072
0.99481 0.994813 0.846499
0.994887 0.995102 0.962731
0.995023 0.999486 0.945289
0.994873 0.999979 0.891635
0.994875 0.994836 0.855259
1.00007 1.00466 0.990125
1.00009 1.00414 0.990646
1.00011 1.00294 0.99177
1.00056 1.00356 0.990309
1.00035 1.00406 0.990218
1 1.00347 0.991538
1.00066 1.00299 0.990956
1.00037 1.00328 0.991158
0.999607 0.996815 0.993081
1.00296 0.995667 0.994025
1.00011 1.00505 0.989702
1.00122 0.999976 0.992939
0.999818 1.0051 0.991043
0.999997 1.00502 0.990054
0.999827 1.00468 0.990196
0.997058 0.996747 0.994296
0.999404 1.00463 0.991581
0.998917 1.00336 0.993605
0.997869 0.999115 0.999542
0.999934 1.0047 0.990578
0.995929 0.99982 0.991017
0.995174 1.00355 0.999737
0.997117 1.0049 0.994311
0.999375 1.00428 0.991978
0.994764 0.994785 0.880652
0.99486 0.995089 0.872641
0.994731 0.995002 0.85985
0.997488 1.00313 0.996777
0.99532 1.0017 0.99774
0.994826 0.994841 0.874069
0.994889 0.999949 0.94727
0.994866 0.998298 0.9714
0.994834 0.999864 0.889251
0.994798 0.994778 0.860347
0.994851 0.994835 0.852426
0.995718 1.00487 0.998223
0.994775 0.99482 0.874894
0.994835 0.994793 0.866906
0.994862 1.00055 0.995148
0.994802 0.994815 0.847015
0.994921 0.998259 0.944439
0.995039 0.999393 0.897139
0.994928 1.00403 0.998299
0.99479 0.994834 0.879097
0.99479 0.994794 0.867402
0.994759 0.994773 0.84686
0.995302 0.999987 0.891359
0.994907 1.00012 0.979598
0.995066 0.99929 0.937201
0.998204 1.00512 0.993563
0.995501 1.00518 0.997997
0.99493 1.00512 0.99905
0.999833 1.0044 0.99042
0.997298 1.00498 0.994903
0.99576 1.00529 0.997147
0.997498 1.00467 0.994403
0.995267 1.00486 0.998062
0.997667 1.0024 0.997258
0.998406 1.00479 0.993132
0.999422 1.00408 0.991217
0.999374 1.00272 0.993645
0.998962 1.00319 0.992251
0.99944 0.99977 0.995703
1.00163 1.00083 0.990423
1.00386 1.00258 0.985207
1.00488 1.00176 0.98439
1.002 1.00268 0.989533
1.00389 1.00246 0.985433
1.00515 1.00091 0.985396
1.00281 1.00285 0.986884
1.00421 1.00195 0.985454
1.00018 1.00508 0.989218
1.00101 1.00431 0.988972
1.00209 1.00305 0.986949
1.00011 1.00419 0.990325
0.999917 1.00492 0.990003
0.999892 1.00447 0.990517
0.999821 1.0046 0.990443
1.00018 1.00365 0.990882
1.00023 1.00197 0.992403
1.00019 1.00333 0.99127
1.00018 1.00164 0.992835
1.00012 0.99888 0.99567
1.00022 1.00141 0.993076
1.00017 0.998741 0.995722
0.999959 0.99716 0.999058
1.00016 0.99873 0.995746
1.00004 0.997132 0.998414
1.00002 0.997077 0.999072
1.00039 1.00249 0.991473
1.00022 1.00092 0.9933
1.00033 1.00237 0.991825
1.00015 0.998149 0.996373
1.00013 1.0006 0.99376
1.00021 1.00218 0.992344
1.00005 0.996633 0.999235
1.00012 0.99798 0.996591
1.00004 1.00029 0.994195
1.00004 0.996565 0.999272
1.00009 0.997881 0.996727
1.00002 0.99658 0.999285
0.994773 0.994829 0.87778
0.994838 0.994973 0.866417
0.99468 0.995083 0.860721
1.00067 1.00299 0.990753
1.00059 1.0032 0.990521
1.00074 1.00309 0.990668
0.994853 0.994794 0.863284
0.994812 0.994792 0.866924
0.994771 0.99479 0.858206
0.996684 0.994871 0.969115
0.997856 0.998111 0.934794
0.99491 0.999945 0.901022
0.994829 0.994826 0.842039
0.994908 0.995539 0.966229
0.995603 0.999944 0.941667
0.994822 0.999547 0.890087
0.994869 0.994832 0.853558
0.994974 0.995866 0.962273
0.994873 0.999048 0.947099
0.995221 0.99945 0.893124
0.994846 0.994812 0.846406
1.00029 1.00386 0.990371
1.00023 1.00449 0.989949
1.00029 1.00399 0.990436
1.00064 1.00347 0.990271
1.00016 1.00414 0.990449
1.00067 1.00304 0.990958
0.996392 0.996894 0.994992
0.997476 0.999 0.999741
0.999965 1.00444 0.990143
0.999441 1.00258 0.993696
0.999392 1.00459 0.991786
0.999752 1.00471 0.990511
0.999027 1.00441 0.992118
0.99557 0.999849 0.991086
0.997161 1.00504 0.994961
0.99562 1.00305 0.998949
0.99914 1.0042 0.992403
0.995431 1.00111 0.988378
0.995755 1.0037 0.996834
0.997191 1.0049 0.995313
0.994782 0.994797 0.882947
0.99476 0.994792 0.881097
0.994863 0.994854 0.871724
0.995814 1.00465 0.997872
0.994815 1.00072 0.991701
0.99478 0.994822 0.874724
0.994845 0.999168 0.945169
0.995083 0.999051 0.884391
0.994831 0.994791 0.869927
0.994824 0.994833 0.842784
0.995005 1.00385 0.998823
0.99479 0.994836 0.880336
0.994798 0.994797 0.867571
0.994911 0.999748 0.976627
0.994783 0.994826 0.841345
0.994984 0.999971 0.88923
0.99493 0.999122 0.948761
0.995065 1.00499 0.993289
0.994775 0.994838 0.878007
0.994783 0.994832 0.859363
0.994661 0.994755 0.853119
0.995503 0.998681 0.881954
0.995344 0.999911 0.945564
0.994922 1.00058 0.970587
0.995919 1.00521 0.997579
0.995213 1.00448 0.999007
0.99712 1.00239 0.998133
0.997663 1.00464 0.994342
0.995501 1.00449 0.998055
0.996501 1.00379 0.997317
0.999385 0.997659 0.999003
0.999428 1.00287 0.993895
1.00081 1.00232 0.99178
1.00238 1.00346 0.987426
1.00151 1.00058 0.991233
1.00379 1.00254 0.985525
1.00427 1.00395 0.983242
1.00483 1.00186 0.984092
1.00497 1.00153 0.984559
1.00486 1.00186 0.984233
1.00426 1.00253 0.984717
1.00473 1.00099 0.986417
1.00508 1.0009 0.985248
1.00136 1.00405 0.98777
1.00283 1.00291 0.987094
1.00411 1.00207 0.985631
1.00012 1.0048 0.989405
1.00042 1.00506 0.989174
1.00104 1.0043 0.988889
1.00027 1.00257 0.991815
1.00027 1.0041 0.990325
0.999744 1.00494 0.990121
1.00026 1.00354 0.990893
1.00027 1.00195 0.992398
1.00007 0.999123 0.995525
1.00022 1.00162 0.992826
1.00013 0.998887 0.995657
0.999933 0.997278 0.99904
1.00017 0.99875 0.995716
1 0.997181 0.998406
1.00001 0.997145 0.99905
1.0004 1.0029 0.99128
1.00032 1.00114 0.993114
1.00044 1.00245 0.991543
1.00019 0.998338 0.996103
1.00022 1.00092 0.993385
1.00034 1.00238 0.991945
1.00005 0.996729 0.999189
1.00015 0.99812 0.996391
1.00015 1.00059 0.993695
1.00005 0.996633 0.999245
1.00012 0.997962 0.996604
1.00004 0.996574 0.999279
0.994794 0.994832 0.87871
0.994778 0.994834 0.877601
0.994829 0.994974 0.866518
1.00041 1.00405 0.989914
1.00094 1.00399 0.989547
1.00057 1.00305 0.990879
1.00051 1.00338 0.990463
1.00051 1.00321 0.990701
1.00037 1.00357 0.990566
1.0004 1.00323 0.990882
0.994816 0.994785 0.859444
0.994845 0.994794 0.866391
0.99481 0.994791 0.867103
0.994857 0.994828 0.851918
0.994922 0.995758 0.963127
0.994899 0.999949 0.937888
0.994877 0.998807 0.900152
0.994929 0.996594 0.961261
0.99488 0.999599 0.936695
0.994961 0.999154 0.897305
0.994825 0.994803 0.855243
0.99604 0.99634 0.964766
0.994911 0.999758 0.9374
0.995054 0.999073 0.882709
0.994792 0.994798 0.844596
0.999218 1.00486 0.991416
1.00015 1.0041 0.99044
1.00029 1.00461 0.989772
1.0007 1.00348 0.990236
0.995239 1.00004 0.99138
0.995737 1.00346 0.998088
0.999651 1.00499 0.990446
0.998987 1.0043 0.992258
0.997343 1.00507 0.995594
0.99916 1.00402 0.992347
0.997089 1.00491 0.995298
0.995888 1.00189 0.985345
0.994895 1.00475 0.997465
0.996954 1.00443 0.995783
0.994747 1.00113 0.985949
0.996208 1.00377 0.998285
0.994766 0.994794 0.880789
0.994788 0.994798 0.885762
0.994751 0.994797 0.881536
0.994923 1.0037 0.999286
0.994938 0.998591 0.980345
0.994783 0.99483 0.881621
0.99559 0.998673 0.937944
0.994981 0.999217 0.899533
0.994804 0.994788 0.867737
0.994772 0.994833 0.84592
0.994913 1.00417 0.994032
0.994782 0.994827 0.877843
0.994776 0.994809 0.85925
0.994921 1.00063 0.971049
0.994699 0.994769 0.842585
0.996119 0.999919 0.885494
0.994957 0.999812 0.936049
0.995486 1.00458 0.987933
0.994826 0.994831 0.866987
0.994655 0.994795 0.848322
0.998165 0.996717 0.895592
0.994869 0.999925 0.945116
0.994989 1 0.963929
0.995291 1.00402 0.999233
0.996218 1.00319 0.998238
0.996916 0.999486 1.00054
0.995405 1.00503 0.997367
0.997886 0.998891 0.999163
1.00199 0.998407 0.993846
1.00267 1.00133 0.99131
1.00286 1.00316 0.987202
1.00328 1.00421 0.984281
1.00359 1.00254 0.985846
1.00448 1.00386 0.983026
1.00424 1.00458 0.982661
1.00497 1.00107 0.984777
1.00502 1.00117 0.984689
1.00481 1.00205 0.984043
1.00492 1.00113 0.98529
1.00495 1.00138 0.984686
1.00479 1.00206 0.984077
1.00358 1.00257 0.986261
1.00444 1.00094 0.986296
1.00499 1.00088 0.985102
1.00079 1.00504 0.988227
1.00139 1.00424 0.987985
1.00286 1.00293 0.987309
1.00021 1.0035 0.99084
1.00035 1.00478 0.989426
1.00063 1.00506 0.989129
1 0.999417 0.995329
1.00031 1.00249 0.991805
1.0004 1.00405 0.990326
1.00029 1.00195 0.992393
1.00006 0.999149 0.995506
0.999868 0.997469 0.999014
1.00014 0.99889 0.995645
0.999928 0.997307 0.999034
0.999977 0.997188 0.999047
1.00025 1.00469 0.989714
1.00055 1.00327 0.990711
1.00036 1.00155 0.992651
1.00043 1.00284 0.99127
1.0002 0.998603 0.995812
1.00031 1.00117 0.993111
1.0004 1.00251 0.991613
1.00005 0.99687 0.999124
1.00018 0.998335 0.996121
1.00021 1.00094 0.993467
1.00005 0.996712 0.999203
1.00015 0.998102 0.996408
1.00005 0.996603 0.999255
0.994767 0.994818 0.874635
0.994786 0.994829 0.879993
0.994788 0.994832 0.877403
1.00046 1.00415 0.989938
1.00068 1.00391 0.989656
1.00019 1.00301 0.990676
1.00017 1.00441 0.989811
1.00089 1.00395 0.990113
1.00055 1.00348 0.990403
1.00042 1.00333 0.990734
1.00045 1.00352 0.990577
1.00044 1.00331 0.990933
0.999831 1.00435 0.990909
0.994795 0.994812 0.860262
0.994807 0.994783 0.859745
0.994845 0.994791 0.869457
0.994834 0.994809 0.85558
0.995201 0.999446 0.884302
0.994961 0.997294 0.9597
0.994889 0.999524 0.946921
0.995245 0.996531 0.961577
0.994911 0.998109 0.94791
0.994845 0.999835 0.891183
0.994797 0.994776 0.84317
0.994814 0.996202 0.966244
0.994873 0.999975 0.94763
0.994873 0.999767 0.900087
0.994707 0.99478 0.851888
0.998392 1.00389 0.993466
0.999239 1.00475 0.991411
1.00013 1.00409 0.990511
0.99593 1.00209 0.982082
0.994845 1.00479 0.998127
0.999103 1.00389 0.99229
0.996574 1.00501 0.995294
0.997071 1.00407 0.995754
0.995744 1.00338 0.998455
0.995083 1.00039 0.985456
0.995871 1.002 0.999037
0.995872 0.999638 0.989226
0.994814 0.99501 0.872859
0.994761 0.9948 0.881212
0.994798 0.994803 0.888582
0.994919 1.00305 0.994402
0.994936 1.00038 0.967983
0.994789 0.994833 0.877648
0.995364 0.999957 0.94504
0.994746 0.999933 0.900157
0.994771 0.994798 0.859174
0.994726 0.994851 0.831726
0.995526 1.00443 0.988579
0.994815 0.994849 0.86696
0.994659 0.994786 0.846423
0.994905 0.999974 0.964883
0.99804 0.998279 0.895753
0.995616 0.999909 0.940271
0.994898 1.00449 0.986081
0.994669 0.994814 0.852654
0.999771 0.995909 0.901144
0.997393 0.997921 0.936141
0.994834 0.99737 0.966931
0.995573 1.00399 0.998323
0.996595 0.999782 1.00052
0.999005 1.00261 0.995581
0.9964 1.00013 0.999285
1.00086 0.99898 0.994321
1.00334 0.99982 0.989
1.00335 1.00276 0.986972
1.00325 1.0042 0.984219
1.00416 1.00196 0.98477
1.00473 1.00386 0.982812
1.00424 1.00418 0.982771
1.00474 1.00104 0.985215
1.00517 0.998722 0.986601
1.00512 1.00028 0.985181
1.00494 1.00095 0.984871
1.00504 1.00145 0.984615
1.00503 1.0012 0.984649
1.00479 1.00219 0.983993
1.00477 1.00155 0.985281
1.00464 1.00114 0.985429
1.00496 1.00124 0.984813
1.00231 1.0039 0.986891
1.00334 1.00255 0.98643
1.00417 1.00092 0.986172
1.00023 1.00461 0.989377
1.00093 1.00499 0.988235
1.00147 1.00443 0.988197
0.999944 1.00008 0.995492
1.00034 1.00342 0.990825
1.00058 1.00476 0.989448
0.999819 0.997738 0.997555
0.999995 0.999547 0.995566
1.00035 1.00241 0.991795
1.00006 0.999177 0.995487
0.999865 0.997496 0.999002
0.999923 0.997314 0.999027
1.00017 1.00482 0.989869
1.00044 1.00408 0.990111
1.00019 1.00469 0.989692
1.0004 1.002 0.99214
1.0004 1.00348 0.990709
1.00018 0.99893 0.99553
1.00036 1.00152 0.992658
1.00053 1.00273 0.991258
1.00004 0.997075 0.999056
1.0002 0.998584 0.995827
1.0003 1.00119 0.993107
1.00005 0.996861 0.999144
1.00017 0.99832 0.996139
1.00005 0.996698 0.999218
0.994792 0.994832 0.874979
0.994776 0.994823 0.874457
0.994773 0.994831 0.881309
1.00046 1.00274 0.990928
1.00031 1.00439 0.989961
1.00058 1.00387 0.989767
1.00044 1.00447 0.989706
1.00065 1.00286 0.990704
1.00057 1.00372 0.990626
1.0015 1.00303 0.989321
0.99938 1.00484 0.990499
1.00047 1.00348 0.990589
1.00019 1.0033 0.990982
0.99971 1.00427 0.990879
0.998896 1.00511 0.99207
0.994684 0.99482 0.850656
0.994815 0.994813 0.859851
0.994805 0.994779 0.859979
0.994777 0.994777 0.851918
0.994841 0.999846 0.890827
0.995166 0.999245 0.937422
0.994923 0.996689 0.961001
0.995001 0.99628 0.967111
0.994722 0.99479 0.841511
0.994884 0.998857 0.941521
0.996267 0.999938 0.886673
0.99489 0.99618 0.969291
0.994888 0.99993 0.948066
0.998558 0.998198 0.891629
0.999133 1.00101 0.995666
0.998492 1.004 0.993438
0.999161 1.00464 0.991404
0.995176 1.00057 0.985449
0.995316 1.0031 0.998617
0.997241 1.00371 0.995737
0.996939 1.00188 0.998972
0.995317 0.999234 0.989343
0.996983 0.998586 0.99254
0.99473 0.995022 0.860439
0.994821 0.994895 0.875477
0.994748 0.994797 0.88162
0.99534 1.00433 0.988917
0.994854 0.999997 0.964889
0.994804 0.994855 0.867058
0.994832 0.999931 0.93699
0.998057 0.99663 0.883159
0.994672 0.994777 0.854257
0.994908 1.00429 0.986144
0.994678 0.994826 0.861333
0.999785 0.994946 0.888212
0.994867 0.996753 0.962915
0.997411 0.998745 0.94584
0.994938 1.00343 0.99103
0.999808 0.994863 0.885484
0.999998 0.995708 0.947659
0.994883 0.994864 0.962279
0.996201 0.999887 1.00058
0.998594 1.00173 0.995409
1.00199 1.00267 0.989873
0.999804 0.999614 0.994796
1.00283 1.00047 0.988874
1.00442 0.999102 0.987733
1.00318 1.00422 0.984156
1.00404 1.00211 0.984769
1.00494 0.997385 0.987747
1.00424 1.00371 0.982881
1.00464 1.00081 0.985258
1.00519 0.996891 0.988312
1.00514 0.996887 0.98866
1.00518 0.998929 0.986445
1.00517 0.998593 0.986752
1.00514 1.00037 0.98515
1.00512 1.00029 0.98529
1.00493 1.00084 0.984964
1.00513 1.00127 0.98471
1.00496 1.00135 0.984708
1.00503 1.00121 0.984608
1.00402 1.00204 0.9858
1.00459 1.00162 0.985254
1.00437 1.00113 0.985568
1.00104 1.00482 0.98802
1.00245 1.00387 0.986868
1.00299 1.00252 0.986601
0.999812 1.00117 0.993795
1.00058 1.00446 0.989379
1.00111 1.00501 0.98824
0.999695 0.998154 0.998849
0.999943 1.00018 0.994662
1.00048 1.00329 0.990812
0.999816 0.997713 0.998959
0.99997 0.99964 0.995201
0.999865 0.997544 0.99899
1.00098 1.00371 0.989579
1.0002 1.00473 0.989774
1.00044 1.00462 0.989604
1.0003 1.00272 0.991592
1.00038 1.00408 0.990099
1.00027 1.00459 0.989669
1.00015 0.999272 0.995236
1.00036 1.00205 0.99215
1.00028 1.00363 0.990706
1 0.997294 0.998987
1.00019 0.998879 0.995545
1.00037 1.00151 0.992665
1.00004 0.997037 0.999077
1.0002 0.998568 0.995843
1.00005 0.996828 0.999164
0.994698 0.994836 0.848179
0.994803 0.994832 0.875018
0.994789 0.994827 0.874286
1.00034 1.00295 0.990877
1.00246 1.00261 0.989446
1.00068 1.0033 0.990447
1.00048 1.00451 0.9896
1.00113 1.00265 0.990728
1.00001 1.00328 0.991134
0.999746 1.00475 0.990332
1.00106 1.00338 0.989529
1.00076 1.00443 0.989273
0.999647 1.00035 0.994676
1.00003 1.0042 0.990848
0.999039 1.00507 0.991726
0.999811 0.996739 0.881864
0.994668 0.995005 0.844721
0.994801 0.994814 0.859665
0.994738 0.995299 0.830736
0.996106 0.999068 0.90058
0.994848 0.999792 0.938201
0.99539 0.995497 0.964565
0.994848 0.996099 0.967894
0.998016 0.998879 0.893869
0.995658 0.999693 0.937508
0.994872 0.997501 0.96958
0.997861 0.998179 0.935971
1.00171 0.997178 0.995674
0.999052 1.00128 0.995614
0.998542 1.00415 0.993415
0.994879 0.998964 0.989467
0.997679 1.00177 0.998877
0.997462 0.998715 0.992243
0.998329 0.997246 0.990625
0.999835 0.994872 0.895995
0.994724 0.994954 0.859488
0.994839 0.994812 0.877992
0.99489 1.00431 0.986414
0.994892 0.996314 0.961028
0.994675 0.994828 0.86136
0.998264 0.99723 0.93543
0.999799 0.995203 0.901713
0.995072 1.00236 0.98826
0.999838 0.994893 0.894209
1.00131 0.995837 0.935925
0.994883 0.994955 0.965478
0.997777 0.998118 0.989839
1.00002 0.994896 0.948552
0.995798 0.995093 0.968573
0.998179 1.00085 0.995168
1.00171 1.00082 0.9899
1.0048 0.998037 0.989103
1.00228 1.00101 0.988758
1.00411 0.999147 0.987747
1.005 0.996165 0.98943
1.00402 1.00223 0.98477
1.00489 0.9978 0.987667
1.00516 0.995355 0.989776
1.00457 1.00058 0.9853
1.00519 0.996916 0.988268
1.00517 0.995444 0.989979
1.00514 0.99599 0.989839
1.00515 0.996725 0.988874
1.00516 0.997495 0.988232
1.0052 0.999337 0.98627
1.00518 0.998999 0.986516
1.00517 0.998465 0.986904
1.00519 1.00076 0.985005
1.00515 1.0004 0.98511
1.00512 1.00027 0.985399
1.00485 1.00123 0.985264
1.00506 1.00129 0.984721
1.00483 1.00129 0.984804
1.00227 1.00378 0.987135
1.00399 1.0022 0.985791
1.00449 1.00168 0.985228
1.00001 1.0022 0.992397
1.00118 1.00473 0.988024
1.00265 1.00369 0.986846
0.999747 0.998516 0.998667
0.999869 1.00124 0.993751
1.00085 1.00441 0.98938
0.999754 0.998153 0.99806
0.999947 1.00025 0.994661
0.999829 0.997807 0.998901
1.00175 1.00246 0.989516
1.00055 1.00396 0.989789
1.00032 1.00499 0.989251
1.00028 1.00476 0.98968
1.00029 1.00475 0.989587
1.00026 1.00347 0.990935
1.00007 0.999781 0.994889
1.00029 1.0027 0.991599
1.00027 1.00421 0.990087
0.999959 0.99753 0.998907
1.00014 0.999263 0.995251
1.00032 1.00208 0.99216
1 0.997255 0.999008
1.00019 0.998848 0.995559
1.00004 0.997018 0.999097
0.999818 0.994869 0.894201
0.994692 0.994838 0.852209
0.994816 0.994831 0.875019
1.00023 1.00336 0.990825
1.0007 1.00409 0.989532
1.00185 1.00275 0.989814
1.0038 1.0035 0.985056
1.00059 1.00392 0.989914
0.999919 1.0048 0.99017
1.00079 1.00377 0.989739
1.00039 1.00443 0.989572
1.00174 1.00226 0.988473
1.00142 0.999789 0.993025
1.00401 0.995586 0.991822
1.00016 0.999769 0.994633
0.999658 1.00413 0.991382
0.99849 0.996576 0.946629
0.999796 0.9963 0.887029
0.994681 0.994813 0.847833
0.998467 0.999098 0.880845
0.995047 0.99996 0.945415
0.994803 0.99581 0.968729
0.994885 0.997334 0.971187
0.997388 0.998928 0.947443
0.995857 0.996481 0.970994
1.00146 0.995943 0.99609
1.00096 0.9979 0.995711
0.998956 1.00167 0.995562
0.998139 0.998245 0.992048
0.998771 0.997445 0.990846
0.999972 0.995029 0.940485
0.999832 0.994896 0.900456
0.994709 0.99486 0.858643
0.994913 1.00132 0.985392
0.994914 0.994884 0.962547
0.999829 0.994946 0.894453
1.00006 0.995794 0.946149
0.996954 0.998511 0.990316
1.00084 0.994992 0.946191
0.996574 0.994885 0.96577
1.0013 0.996093 0.98923
0.998841 0.994918 0.975179
1.00152 0.999077 0.990028
1.00458 0.997128 0.989048
1.00502 0.995728 0.990602
1.0037 0.999281 0.987759
1.00477 0.996285 0.989333
1.00516 0.994937 0.990314
1.00477 0.998266 0.987587
1.00516 0.995439 0.989714
1.00516 0.99495 0.990447
1.0052 0.996934 0.988224
1.00517 0.995479 0.989934
1.00516 0.995145 0.990447
1.00514 0.995791 0.989937
1.00514 0.996366 0.989471
1.00516 0.996563 0.989088
1.00516 0.997506 0.988213
1.0052 0.998311 0.987361
1.00522 1.00001 0.985736
1.0052 0.999393 0.98625
1.00517 0.999068 0.986588
1.00517 1.00079 0.985102
1.00518 1.0008 0.984927
1.00517 1.00043 0.985067
1.00338 1.0023 0.986649
1.00476 1.00133 0.985269
1.00498 1.00133 0.984731
1.00061 1.00238 0.991215
1.00223 1.0038 0.987138
1.00385 1.00245 0.985781
0.999875 0.999253 0.998306
1.00012 1.00214 0.992378
1.00141 1.00458 0.988027
0.999821 0.9987 0.998554
0.999958 1.0012 0.993706
0.999826 0.998191 0.998745
1.00363 1.00243 0.985665
1.00184 1.00229 0.989434
1.00065 1.00451 0.988866
1.00016 1.00397 0.990001
1.00029 1.00492 0.989217
1.00037 1.00411 0.990114
1.00018 1.00479 0.98957
1.00021 1.00348 0.990933
1.00003 1.00031 0.994452
0.999894 0.997886 0.998806
1.00006 0.999726 0.994905
1.00028 1.00268 0.991607
0.999959 0.997514 0.998934
1.00012 0.999239 0.995265
1.00001 0.997212 0.99903
1 0.994915 0.95052
0.999845 0.994875 0.893387
0.994669 0.994836 0.847925
1.00071 1.00473 0.988618
1.00134 1.00263 0.990188
1.00111 1.00376 0.989567
1.00355 1.00359 0.985513
1.00448 1.00275 0.983877
1.00192 1.00329 0.987345
1.00006 1.00438 0.989865
1.00261 1.00203 0.98761
1.00127 0.999575 0.993148
1.00312 0.998888 0.989594
1.00455 0.995475 0.99165
1.00386 0.995831 0.991939
1.00361 0.995644 0.992154
0.999971 0.999999 0.99459
0.996028 0.995455 0.969887
0.999876 0.996419 0.943143
0.998282 0.996514 0.899906
0.997342 0.999088 0.935919
0.994891 0.997583 0.971622
0.995559 0.996785 0.976198
0.999583 0.997118 0.992093
1.00192 0.995602 0.995843
1.00042 0.998645 0.995752
0.99969 0.998342 0.99108
0.996646 0.996962 0.970881
1.00004 0.994968 0.951489
0.999825 0.994887 0.887662
0.996262 0.999045 0.990632
0.99673 0.994858 0.967416
1.00006 0.995451 0.943704
1.00063 0.995891 0.989366
0.998406 0.99549 0.974623
1.00346 0.995314 0.990495
1.00281 0.997921 0.986248
1.00425 0.996074 0.988958
1.00481 0.995488 0.99064
1.00515 0.994857 0.990721
1.00466 0.996391 0.989236
1.00516 0.994939 0.99028
1.00517 0.994935 0.990509
1.00516 0.99548 0.989651
1.00516 0.994953 0.990414
1.00519 0.994958 0.990529
1.00517 0.995506 0.989888
1.00514 0.995171 0.990399
1.00516 0.995446 0.990153
1.00514 0.9956 0.990034
1.00515 0.996223 0.989587
1.00517 0.997532 0.988323
1.00516 0.997519 0.988194
1.0052 0.998374 0.987334
1.00521 0.999367 0.986472
1.00523 1.00039 0.985335
1.00523 1.00009 0.985634
1.00519 0.999449 0.98623
1.00418 1.00103 0.986526
1.00511 1.00083 0.985119
1.00517 1.00083 0.98485
1.00113 1.00214 0.990563
1.00331 1.00241 0.986651
1.00464 1.00143 0.985275
1.00017 0.999836 0.997844
1.00072 1.00228 0.9912
1.00218 1.00383 0.987142
1.00002 0.999381 0.998122
1.00017 1.0022 0.992363
0.999931 0.998805 0.99841
1.00453 1.00224 0.984326
1.00409 1.00234 0.985759
1.00248 1.00346 0.986724
1.00181 1.00227 0.989351
1.00082 1.00433 0.988687
1.00083 1.0045 0.989089
1.00022 1.00488 0.989182
1.00033 1.00413 0.990106
0.999981 1.00091 0.993931
1.00017 1.00352 0.990932
0.999996 1.00027 0.994478
0.99983 0.998273 0.99868
0.999895 0.997817 0.998842
1.00006 0.999691 0.994922
0.999955 0.997461 0.998959
0.996925 0.99485 0.971243
0.999999 0.995326 0.939658
0.999827 0.994877 0.902565
1.00517 1.00069 0.984699
1.00164 1.0037 0.989224
1.00328 1.00374 0.985972
1.00246 1.00304 0.987317
1.0045 1.00302 0.983826
1.00399 1.00049 0.986962
1.00343 1.00205 0.986748
1.00102 0.999406 0.993276
1.00353 0.9989 0.989376
1.00453 0.995552 0.991018
1.0048 0.99578 0.989827
1.00408 0.995519 0.992189
1.00377 0.995502 0.991948
1.00318 0.99582 0.992482
0.999732 0.996803 0.991158
0.995854 0.995192 0.968202
0.999269 0.995825 0.940098
0.995124 0.996764 0.974817
0.99958 0.996503 0.99429
1.00186 0.994969 0.995573
1.00077 0.997391 0.98503
0.996544 0.995887 0.971975
0.999966 0.9949 0.940448
0.999767 0.996082 0.989563
0.998534 0.995706 0.973678
1.00283 0.995441 0.990867
1.00292 0.997331 0.986875
1.00431 0.994811 0.991131
1.00467 0.997421 0.990597
1.00463 0.995248 0.990671
1.00516 0.99485 0.990615
1.00524 0.994839 0.99044
1.00515 0.99494 0.990246
1.00516 0.994928 0.990503
1.00521 0.994911 0.990504
1.00516 0.99497 0.990381
1.00518 0.994951 0.990523
1.0052 0.995124 0.990462
1.00513 0.995196 0.99035
1.00517 0.995434 0.990137
1.00518 0.996537 0.989198
1.00515 0.996081 0.989704
1.00517 0.997375 0.988506
1.00521 0.99879 0.987079
1.0052 0.998437 0.987308
1.00521 0.999353 0.986478
1.00523 1.00015 0.985637
1.00446 1.00047 0.986574
1.00521 1.00047 0.985288
1.00524 1.00017 0.985533
1.00167 1.00142 0.990396
1.00412 1.00112 0.986517
1.00507 1.00087 0.985135
1.00036 1.00019 0.997541
1.00133 1.00187 0.990557
1.00325 1.00247 0.986652
1.00028 0.999914 0.997716
1.00089 1.0021 0.991186
1.00016 0.999542 0.997946
1.00516 1.00141 0.984233
1.00485 1.00216 0.984284
1.00429 1.00217 0.98534
1.00457 1.00228 0.985855
1.0027 1.00354 0.986633
1.00151 1.00449 0.987881
1.00104 1.00419 0.988507
1.00061 1.00461 0.989096
1.00003 1.00164 0.993179
1.00024 1.00417 0.9901
0.999965 1.00085 0.993961
0.999788 0.998738 0.99853
0.999969 1.00023 0.994503
0.999829 0.998205 0.998727
0.999897 0.997772 0.998875
1.00107 0.994864 0.988977
0.996724 0.994872 0.968038
0.99997 0.994921 0.950707
1.00512 0.999304 0.986432
1.00519 0.998858 0.986771
1.00515 1.00053 0.984915
1.00297 1.00267 0.987284
1.00455 1.00325 0.98377
1.00412 1.0003 0.987158
1.00506 0.996857 0.988382
1.00401 0.998823 0.989162
1.00453 0.995798 0.99038
1.00478 0.996176 0.989991
1.0051 0.995197 0.990259
1.00413 0.995565 0.991619
1.00374 0.995691 0.992147
1.00396 0.995157 0.991958
1.00017 0.996558 0.99129
0.995647 0.995014 0.966609
0.999827 0.996289 0.996576
1.00438 0.995374 0.991451
1.00073 0.997323 0.985226
0.996426 0.995529 0.969801
1.00257 0.994852 0.991216
1.00298 0.99711 0.987534
1.00435 0.994934 0.99162
1.00469 0.996683 0.990633
1.00527 0.994918 0.990539
1.00534 0.994955 0.990733
1.00517 0.99485 0.990512
1.00525 0.994865 0.990418
1.00524 0.994893 0.990447
1.00515 0.994923 0.990496
1.00521 0.994909 0.99052
1.00519 0.994959 0.990598
1.00518 0.994945 0.990517
1.00519 0.995106 0.990444
1.00519 0.995879 0.989833
1.00517 0.995432 0.990121
1.00518 0.996561 0.989191
1.00523 0.998184 0.987612
1.00517 0.997213 0.988689
1.00521 0.998725 0.987146
1.00524 0.999902 0.985868
1.00521 0.999343 0.986483
1.00523 1.00011 0.985686
1.00458 1.00023 0.986629
1.00193 1.00075 0.990556
1.00445 1.00051 0.986571
1.00519 1.00055 0.98524
1.00044 1.00039 0.997373
1.00171 1.00135 0.990396
1.00403 1.00127 0.98651
1.0004 1.00026 0.997462
1.00144 1.00173 0.990553
1.00035 1.00001 0.997603
1.00526 0.99998 0.985573
1.00517 1.00136 0.984371
1.00507 1.00104 0.984998
1.00515 1.00207 0.984243
1.0043 1.00203 0.985363
1.00259 1.00338 0.986994
1.00282 1.00358 0.986544
1.00125 1.0048 0.987892
1.00034 1.00228 0.991966
1.00043 1.00485 0.989103
0.999972 1.00155 0.993207
0.999833 0.999251 0.998268
0.999948 1.00078 0.993991
0.999768 0.998616 0.998588
0.999824 0.998126 0.998769
1.00423 0.994858 0.992265
1.00106 0.994881 0.987077
0.996595 0.994877 0.967049
1.00514 0.998072 0.987787
1.00512 0.998891 0.986707
1.00524 0.997491 0.988049
1.0052 0.998844 0.986759
1.00514 1.00035 0.98513
1.00518 0.995923 0.989215
1.00426 1.00013 0.987351
1.00505 0.997149 0.988335
1.00525 0.994898 0.990275
1.00475 0.99644 0.990157
1.00506 0.99525 0.990125
1.00411 0.995628 0.991782
1.00319 0.995825 0.992102
1.0005 0.996191 0.991314
1.00532 0.994924 0.990515
1.00431 0.996176 0.991561
1.0008 0.996922 0.985423
1.00435 0.995096 0.992096
1.00468 0.99599 0.990673
1.00526 0.994905 0.990583
1.00535 0.994951 0.990681
1.00528 0.99494 0.990676
1.00525 0.99489 0.990399
1.00524 0.994904 0.99046
1.00518 0.994905 0.990712
1.00521 0.994905 0.990536
1.0052 0.994939 0.990586
1.0052 0.995376 0.990344
1.00519 0.995074 0.990427
1.00519 0.995904 0.989819
1.00524 0.997582 0.988221
1.00518 0.996583 0.989184
1.00523 0.998194 0.987626
1.00526 0.999633 0.986143
1.00521 0.99866 0.987214
1.00525 0.999897 0.985889
1.00463 1.00015 0.986648
1.00523 1.00006 0.985735
1.00458 1.00024 0.986631
1.002 1.00038 0.992256
1.00068 1.00013 0.994415
1.00198 1.00072 0.991283
1.00443 1.00056 0.986567
1.00047 1.00044 0.997344
1.00184 1.00116 0.990393
1.00044 1.00035 0.997389
1.00525 0.997296 0.988362
1.00524 0.998908 0.98678
1.00525 0.999983 0.985726
1.00512 1.00058 0.985293
1.0052 1.0013 0.984508
1.0051 1.00102 0.984967
1.00369 1.00164 0.98674
1.00439 1.00188 0.985387
1.00263 1.00324 0.986997
1.0009 1.00246 0.990796
1.00104 1.00492 0.987901
1.00019 1.00245 0.99199
0.999994 0.999998 0.997817
0.999921 1.00154 0.993234
0.999754 0.999158 0.998377
0.999764 0.99853 0.998641
1.00531 0.99486 0.990489
1.00454 0.994854 0.992086
1.00123 0.994892 0.985226
1.00519 0.996454 0.988944
1.00513 0.997995 0.987626
1.00513 0.998499 0.986983
1.00523 0.997636 0.988029
1.0052 0.99882 0.986747
1.00523 0.995211 0.990279
1.00516 0.995945 0.989177
1.00503 0.997473 0.988286
1.00525 0.994895 0.990283
1.00506 0.995305 0.989991
1.00412 0.995723 0.991958
1.00526 0.994931 0.990764
1.00532 0.994924 0.990695
1.00423 0.996937 0.991677
1.00525 0.994896 0.990618
1.00536 0.99495 0.990631
1.00528 0.994934 0.99063
1.00517 0.994958 0.990912
1.00524 0.994918 0.990473
1.00518 0.994912 0.990687
1.00522 0.995049 0.990731
1.0052 0.994925 0.990573
1.0052 0.995389 0.990336
1.00525 0.997095 0.988702
1.0052 0.99593 0.989804
1.00524 0.997596 0.988231
1.00528 0.999362 0.986427
1.00523 0.998205 0.987641
1.00526 0.999626 0.986164
1.00466 1.00013 0.986635
1.00525 0.999891 0.985911
1.00464 1.00013 0.986655
1.00212 1.0001 0.992364
1.00459 1.00024 0.986631
1.00218 1.00028 0.992162
1.0007 0.999996 0.994559
1.00045 1.00039 0.995924
1.00216 1.00066 0.991869
1.00046 1.00051 0.997329
1.00521 0.9965 0.989266
1.00525 0.998495 0.987136
1.00525 0.997098 0.988564
1.00525 0.999984 0.98573
1.00525 0.998987 0.986741
1.00525 0.999999 0.985879
1.00518 1.00057 0.985248
1.00425 1.00073 0.986693
1.00515 1.00102 0.984936
1.0038 1.00144 0.986739
1.00145 1.00185 0.990351
1.00263 1.00313 0.987001
1.00074 1.00262 0.990798
1.00014 1.00069 0.997442
1 1.00253 0.992011
0.999858 0.999856 0.998002
0.999713 0.999007 0.998468
1.00523 0.994872 0.990646
1.0053 0.994862 0.990469
1.00478 0.994858 0.991882
1.0052 0.995607 0.99003
1.00518 0.99655 0.988919
1.00512 0.997922 0.987471
1.00521 0.997787 0.98801
1.00522 0.995203 0.990239
1.00513 0.995985 0.989137
1.00523 0.994893 0.990291
1.00519 0.994936 0.990932
1.00526 0.994927 0.990758
1.00532 0.994926 0.990873
1.00515 0.994956 0.991044
1.00529 0.994925 0.990584
1.00518 0.994952 0.990913
1.00523 0.994937 0.990886
1.00519 0.994918 0.990662
1.0052 0.995052 0.990729
1.00526 0.996806 0.989016
1.00519 0.995405 0.990329
1.00525 0.99711 0.988709
1.00528 0.999084 0.98673
1.00523 0.99761 0.98824
1.00528 0.999352 0.986445
1.00468 1.00008 0.986648
1.00526 0.999618 0.986185
1.00467 1.00011 0.986649
1.00218 1.00005 0.992312
1.00466 1.00012 0.986662
1.00226 1.00004 0.992245
1.00076 0.99989 0.994598
1.00234 1.00018 0.992077
1.00036 1.00016 0.99478
0.999973 1.00069 0.997716
1.00523 0.996408 0.989245
1.00525 0.997811 0.987934
1.00522 0.996575 0.989099
1.00529 0.999637 0.986173
1.00525 0.998249 0.987349
1.00524 0.996909 0.988766
1.00458 1.00015 0.986693
1.00526 0.999981 0.985696
1.00525 0.999058 0.986701
1.00523 1.00056 0.985202
1.00429 1.00064 0.986692
1.00174 1.00123 0.990451
1.00389 1.00122 0.986741
1.00133 1.00203 0.990354
1.00018 1.001 0.997319
1.00063 1.00278 0.990807
1.00006 1.00052 0.997571
0.999738 0.99968 0.998166
1.00518 0.995075 0.99073
1.00523 0.994876 0.990632
1.0053 0.994863 0.99045
1.00519 0.995469 0.990166
1.00517 0.996634 0.988894
1.00522 0.995177 0.990198
1.00517 0.994937 0.991009
1.00519 0.994941 0.990941
1.00525 0.994922 0.990752
1.00514 0.994958 0.991052
1.00523 0.995114 0.990752
1.00518 0.994946 0.990914
1.00522 0.995062 0.990772
1.00528 0.996351 0.989502
1.00518 0.995052 0.990726
1.00527 0.996785 0.989015
1.00527 0.998813 0.987041
1.00525 0.997114 0.988716
1.00528 0.99907 0.986738
1.00468 0.99999 0.98674
1.00528 0.999342 0.986464
1.00468 1.00008 0.986661
1.00221 1.00012 0.992175
1.00468 1.00009 0.986663
1.00231 1.00001 0.992175
1.00082 0.999896 0.994503
1.00239 0.999987 0.992136
1.00046 0.99994 0.99484
1.00004 1.00035 0.994984
1.00524 0.995776 0.989973
1.00526 0.997543 0.988174
1.00524 0.996192 0.989398
1.00529 0.999103 0.986743
1.00524 0.997917 0.987811
1.00524 0.996647 0.988932
1.00471 0.999877 0.986772
1.00529 0.999466 0.986246
1.00526 0.998001 0.987562
1.00195 1.00058 0.9907
1.00459 1.00013 0.986691
1.00526 0.99998 0.985662
1.00433 1.00056 0.986692
1.00169 1.00131 0.99046
1.00023 1.001 0.997336
1.00122 1.00221 0.990357
1.00017 1.00089 0.997351
0.999933 1.0004 0.997725
1.00517 0.994951 0.990927
1.00519 0.995081 0.990676
1.00523 0.994881 0.990618
1.00519 0.995346 0.990302
1.00519 0.995202 0.990712
1.00515 0.994946 0.991015
1.00519 0.994945 0.99095
1.00514 0.994961 0.99106
1.00523 0.995157 0.990749
1.00527 0.996415 0.989447
1.00521 0.995196 0.990657
1.00529 0.996618 0.989214
1.00524 0.998352 0.987604
1.00529 0.996775 0.989015
1.00527 0.998809 0.987043
1.00465 0.999874 0.986901
1.00529 0.999067 0.986744
1.00469 0.999984 0.986748
1.00226 1.00018 0.990653
1.00469 1.00007 0.986674
1.00233 1.00009 0.991333
1.00071 0.999953 0.997338
1.00245 0.999975 0.992038
1.00055 0.999883 0.994756
1.00019 0.99998 0.995064
1.0052 0.995475 0.990459
1.00524 0.997152 0.988674
1.00524 0.995825 0.989939
1.00526 0.99877 0.987017
1.00525 0.99755 0.988151
1.00525 0.995973 0.98955
1.00474 0.999658 0.986817
1.00529 0.999097 0.986751
1.00523 0.998023 0.987689
1.00214 1.00005 0.9909
1.0047 0.999816 0.986745
1.00529 0.999289 0.98632
1.00035 1.0007 0.997402
1.00196 1.00057 0.990706
1.0046 1.0001 0.986688
1.00163 1.00135 0.990473
1.00023 1.00091 0.997324
1.00013 1.00082 0.9974
1.00519 0.995088 0.990801
1.00517 0.994954 0.990916
1.00519 0.995088 0.990622
1.00525 0.996641 0.989281
1.0052 0.995133 0.990803
1.00514 0.994957 0.991022
1.00523 0.995197 0.990746
1.00527 0.99645 0.98945
1.00521 0.998354 0.987773
1.0053 0.996878 0.988926
1.00524 0.998574 0.987408
1.00462 0.999594 0.98715
1.00527 0.998793 0.987045
1.00466 0.99987 0.986907
1.00224 1.00013 0.990739
1.00469 0.99998 0.986757
1.00226 1.00017 0.990657
1.00069 0.999998 0.997312
1.00236 1.00008 0.990601
1.0006 0.99995 0.996034
1.00029 0.99985 0.995007
1.00521 0.995565 0.99035
1.00523 0.997053 0.988858
1.00521 0.995363 0.990521
1.00524 0.998861 0.986967
1.00524 0.997229 0.988598
1.00524 0.995876 0.989906
1.00472 0.999593 0.986936
1.00526 0.998948 0.986892
1.00524 0.997559 0.988127
1.00225 0.999833 0.990928
1.00472 0.999649 0.986827
1.0053 0.999093 0.986759
1.00053 1.0003 0.997429
1.00216 1.00003 0.990903
1.00469 0.999753 0.986716
1.00036 1.00067 0.997373
1.00196 1.00056 0.990711
1.00021 1.00088 0.997328
1.00525 0.996526 0.989388
1.00519 0.995218 0.990713
1.00517 0.994954 0.990905
1.00524 0.998262 0.98781
1.00525 0.996529 0.989369
1.00521 0.995049 0.990896
1.00526 0.996485 0.989453
1.00521 0.998354 0.987771
1.00458 0.999488 0.987325
1.00523 0.998797 0.987212
1.00463 0.999678 0.987101
1.00222 1.00004 0.990859
1.00466 0.999863 0.986913
1.00222 1.00014 0.990745
1.00065 1.00002 0.997296
1.00226 1.00016 0.990659
1.00068 1.00001 0.9973
1.00068 0.99991 0.994504
1.00527 0.996972 0.988847
1.0052 0.995322 0.990526
1.00525 0.998718 0.987134
1.00524 0.997066 0.988843
1.00522 0.995252 0.990583
1.00468 0.99971 0.98703
1.00524 0.99887 0.986962
1.00525 0.997304 0.988521
1.0023 0.999846 0.990858
1.0047 0.999665 0.98693
1.00526 0.999129 0.986767
1.00068 1.00004 0.997388
1.00227 0.999828 0.990929
1.00471 0.999634 0.986837
1.00051 1.00033 0.997421
1.00217 1.00002 0.990905
1.00036 1.00065 0.997348
1.00526 0.998278 0.98773
1.00525 0.996622 0.989292
1.00518 0.995347 0.990625
1.00457 0.999437 0.987395
1.00524 0.99826 0.987812
1.00525 0.996428 0.989456
1.00521 0.998358 0.987769
1.0046 0.999474 0.987303
1.00216 1 0.991
1.00463 0.999761 0.987051
1.0022 1.00005 0.990864
1.00064 1.00002 0.997307
1.00222 1.00014 0.990752
1.00064 1.00003 0.997304
1.00068 1.00002 0.997295
1.00528 0.998566 0.987264
1.00527 0.996697 0.989123
1.0052 0.995081 0.990702
1.00465 0.999678 0.987136
1.00525 0.998725 0.987126
1.00524 0.997079 0.988827
1.00228 0.999946 0.990826
1.00466 0.99972 0.987024
1.00524 0.99888 0.986957
1.00073 0.999947 0.997326
1.0023 0.999862 0.990857
1.00469 0.999731 0.986924
1.00065 1.00008 0.997406
1.00228 0.999841 0.990929
1.00052 1.00032 0.997404
1.00458 0.999602 0.987311
1.00526 0.998183 0.987775
1.00525 0.996716 0.989196
1.00213 0.999934 0.991138
1.00457 0.999419 0.987387
1.00524 0.99826 0.987815
1.00461 0.999456 0.987282
1.00217 0.999979 0.991006
1.00062 1.00002 0.997309
1.00218 1.00006 0.990868
1.00063 1.00002 0.997302
1.00061 1.00005 0.997308
1.00461 0.999632 0.98724
1.00527 0.998405 0.987435
1.00527 0.996427 0.989399
1.00233 0.999996 0.992164
1.00463 0.999681 0.987138
1.00525 0.998734 0.987117
1.0007 0.999959 0.997294
1.00228 0.999966 0.990826
1.00465 0.999732 0.987019
1.00072 0.999976 0.997351
1.00231 0.999885 0.990856
1.00064 1.00009 0.997419
1.0022 0.999932 0.991054
1.00458 0.999513 0.987341
1.00526 0.998088 0.98782
1.00056 0.99999 0.997351
1.00212 0.999933 0.991134
1.00458 0.999404 0.987381
1.00216 0.999959 0.991009
1.0006 1.00001 0.997322
1.00062 1.00004 0.997304
1.00234 0.999966 0.992215
1.00461 0.999633 0.987239
1.00527 0.998238 0.987607
1.00026 0.999997 0.997725
1.00223 1 0.9909
1.00461 0.999682 0.987141
1.00071 0.99997 0.997311
1.00228 0.999987 0.990825
1.00071 0.999996 0.997372
1.00056 0.999967 0.994704
1.00223 0.999932 0.991706
1.00457 0.999424 0.987369
1.00059 0.999992 0.997355
1.00212 0.999935 0.991137
1.00062 1 0.99733
1.00015 0.999994 0.995095
1.00226 0.999957 0.991623
1.00459 0.999637 0.987239
1.00044 0.99999 0.996161
1.00222 1 0.990914
1.00071 0.99998 0.99733
1.00058 0.99998 0.99735
1.00212 0.999925 0.991141
1.00055 0.999992 0.997353
1.00038 0.999977 0.996227
1.00217 0.999952 0.991054
1.00066 0.999984 0.997315
1.0006 0.999979 0.997359
1.0006 0.999981 0.997339

TENSORS stress float
0.00187526 -0.000116353 0.000207987
-0.000116353 0.000801313 -3.1386e-05
0.000207987 -3.1386e-05 0.000778448
0.00589047 -4.33752e-05 0.000217881
-4.33752e-05 0.00325667 2.29234e-05
0.000217881 2.29234e-05 0.00324765
0.00161784 -4.83669e-05 9.23815e-05
-4.83669e-05 0.000648403 -1.25328e-05
9.23815e-05 -1.25328e-05 0.000616042
0.00197129 -6.78666e-05 0.000206063
-6.78666e-05 0.000834355 -1.89511e-05
0.000206063 -1.89511e-05 0.000817444
0.00194014 -0.000103759 0.000204146
-0.000103759 0.000831119 -2.79387e-05
0.000204146 -2.79387e-05 0.000810686
0.00182075 -0.000114895 0.000213556
-0.000114895 0.000768927 -3.1832e-05
0.000213556 -3.1832e-05 0.000747304
0.00160071 -9.75541e-05 3.65688e-05
-9.75541e-05 0.000555333 -1.10499e-05
3.65688e-05 -1.10499e-05 0.000462446
0.00583088 -5.11474e-05 -6.91581e-06
-5.11474e-05 0.00321024 -2.64214e-07
-6.91581e-06 -2.64214e-07 0.00320636
0.00577013 0.000126873 0.000105803
0.000126873 0.00315012 8.03417e-06
0.000105803 8.03417e-06 0.00313244
0.00561976 -0.000137898 4.1227e-05
-0.000137898 0.00307899 2.53195e-06
4.1227e-05 2.53195e-06 0.00305289
0.00175014 0.00013657 0.000214641
0.00013657 0.000716957 2.27366e-05
0.000214641 2.27366e-05 0.000711211
0.000601048 0.000220692 2.53518e-05
0.000220692 -3.15602e-05 1.65268e-05
2.53518e-05 1.65268e-05 -0.000137587
0.00168975 -3.41788e-05 0.000211232
-3.41788e-05 0.000659775 3.11096e-06
0.000211232 3.11096e-06 0.00065541
0.00133216 -5.1342e-06 4.6174e-05
-5.1342e-06 0.00046566 1.29548e-06
4.6174e-05 1.29548e-06 0.000425622
0.00141306 -4.46177e-05 -4.01355e-05
-4.46177e-05 0.000528714 7.0536e-06
-4.01355e-05 7.0536e-06 0.000487195
0.00165341 -7.06216e-05 7.00458e-05
-7.06216e-05 0.000656489 -4.07776e-06
7.00458e-05 -4.07776e-06 0.000626785
0.00161425 -3.26306e-05 9.9563e-05
-3.26306e-05 0.000654024 -1.25686e-05
9.9563e-05 -1.25686e-05 0.000617998
0.00163636 -6.13841e-05 8.22673e-05
-6.13841e-05 0.000649465 -1.02454e-05
8.22673e-05 -1.02454e-05 0.000620858
0.00165923 -0.000136274 -3.44501e-05
-0.000136274 0.000584807 4.13065e-06
-3.44501e-05 4.13065e-06 0.000500512
0.00569851 -0.000120611 0.000262742
-0.000120611 0.0031153 -9.11781e-06
0.000262742 -9.11781e-06 0.00312469
0.00193377 -4.82854e-05 0.000207133
-4.82854e-05 0.000809764 -1.4088e-05
0.000207133 -1.4088e-05 0.000794374
0.00197901 -8.73985e-05 0.000204462
-8.73985e-05 0.00084516 -2.36874e-05
0.000204462 -2.36874e-05 0.000827003
0.00160591 -0.000116614 5.79333e-05
-0.000116614 0.000536625 -8.76654e-06
5.79333e-05 -8.76654e-06 0.000453466
0.00160931 -0.000109253 4.59303e-05
-0.000109253 0.000545236 -1.02807e-05
4.59303e-05 -1.02807e-05 0.000459728
0.00177157 -9.00399e-05 0.000211076
-9.00399e-05 0.000730401 -2.82995e-05
0.000211076 -2.82995e-05 0.000712366
0.0015606 -8.6272e-05 2.89478e-05
-8.6272e-05 0.000551324 -1.19e-05
2.89478e-05 -1.19e-05 0.000449124
0.00203099 -0.000248281 1.5387e-05
-0.000248281 0.000657974 -6.69275e-06
1.5387e-05 -6.69275e-06 0.0004949
0.00578246 -6.58902e-05 -0.000214869
-6.58902e-05 0.00317216 -1.42259e-05
-0.000214869 -1.42259e-05 0.00317273
0.0037193 0.000104245 -0.000119992
0.000104245 0.00191117 -1.14849e-05
-0.000119992 -1.14849e-05 0.00189177
0.00360753 1.96134e-06 -0.000114933
1.96134e-06 0.00186154 -7.85014e-06
-0.000114933 -7.85014e-06 0.0018393
0.00566234 -0.000119112 -2.48467e-06
-0.000119112 0.00312238 4.54671e-07
-2.48467e-06 4.54671e-07 0.00311111
0.000551625 0.000204503 -1.74722e-06
0.000204503 -5.876e-05 -9.60989e-07
-1.74722e-06 -9.60989e-07 -0.00016396
0.00166865 5.8594e-05 0.000210445
5.8594e-05 0.00065511 1.74758e-05
0.000210445 1.74758e-05 0.00064043
0.00180177 0.000138754 0.000213544
0.000138754 0.000763392 2.66325e-05
0.000213544 2.66325e-05 0.00074079
0.0026848 0.000187493 0.00012977
0.000187493 0.00119051 1.74469e-05
0.00012977 1.74469e-05 0.00111938
0.00474941 -0.000343037 -1.61759e-05
-0.000343037 0.00263643 7.99143e-06
-1.61759e-05 7.99143e-06 0.00256945
0.00277774 0.000246126 0.000131328
0.000246126 0.00127882 2.07993e-05
0.000131328 2.07993e-05 0.00119858
0.000560269 0.000179699 2.76643e-05
0.000179699 -5.08752e-05 2.11782e-05
2.76643e-05 2.11782e-05 -0.000152852
0.000846258 0.000194053 1.13206e-05
0.000194053 1.82957e-05 5.67489e-06
1.13206e-05 5.67489e-06 -0.000159491
0.00368738 -0.00010431 0.00013186
-0.00010431 0.00193003 7.22048e-06
0.00013186 7.22048e-06 0.00193366
0.00570243 7.39068e-05 3.62054e-06
7.39068e-05 0.00310758 -1.53969e-06
3.62054e-06 -1.53969e-06 0.00312248
0.00362742 7.25778e-05 -9.98407e-05
7.25778e-05 0.00185037 -3.94319e-06
-9.98407e-05 -3.94319e-06 0.00183745
0.0055819 6.01949e-05 0.000256647
6.01949e-05 0.00303755 3.35793e-06
0.000256647 3.35793e-06 0.00305258
0.00131787 7.92604e-05 4.91972e-05
7.92604e-05 0.000456444 2.9434e-06
4.91972e-05 2.9434e-06 0.000421123
0.000619368 1.00449e-05 1.60335e-05
1.00449e-05 -8.85165e-05 1.78826e-06
1.60335e-05 1.78826e-06 -0.000165504
0.00566262 0.000205242 0.000138973
0.000205242 0.00310935 1.26186e-05
0.000138973 1.26186e-05 0.00308591
0.00273199 6.4772e-05 0.000125081
6.4772e-05 0.00118553 7.59072e-06
0.000125081 7.59072e-06 0.0011317
0.00127856 -7.62282e-05 -6.01272e-05
-7.62282e-05 0.000445629 7.39575e-06
-6.01272e-05 7.39575e-06 0.000401997
0.00132423 -8.19823e-05 -5.24826e-05
-8.19823e-05 0.000476327 8.38906e-06
-5.24826e-05 8.38906e-06 0.000433137
0.00147481 3.48952e-06 -2.83573e-05
3.48952e-06 0.000570595 6.63573e-06
-2.83573e-05 6.63573e-06 0.000526657
0.00169269 -0.000143004 -0.000112691
-0.000143004 0.000598054 1.90928e-05
-0.000112691 1.90928e-05 0.000522035
0.00357074 5.49114e-07 -0.000104215
5.49114e-07 0.00182371 -1.97567e-06
-0.000104215 -1.97567e-06 0.00180909
0.00163879 -5.38854e-05 7.61212e-05
-5.38854e-05 0.000642552 -3.39697e-06
7.61212e-05 -3.39697e-06 0.000615692
0.00157507 -9.37032e-06 0.000103331
-9.37032e-06 0.000632841 -1.06685e-05
0.000103331 -1.06685e-05 0.000595535
0.00165033 -6.74149e-05 7.47711e-05
-6.74149e-05 0.000653786 -6.97009e-06
7.47711e-05 -6.97009e-06 0.000625679
0.0016672 -9.63776e-05 -2.77101e-05
-9.63776e-05 0.000565259 1.48405e-06
-2.77101e-05 1.48405e-06 0.000490791
0.00163555 -0.000131487 -3.98075e-05
-0.000131487 0.000583896 4.37094e-06
-3.98075e-05 4.37094e-06 0.000493927
0.00166583 -0.000130481 -2.94757e-05
-0.000130481 0.000577877 2.94342e-06
-2.94757e-05 2.94342e-06 0.000498309
0.0020188 -0.0002472 -7.99837e-06
-0.0002472 0.000647516 2.16855e-06
-7.99837e-06 2.16855e-06 0.000484578
0.00555894 2.89017e-05 0.000251604
2.89017e-05 0.00302253 -6.00302e-07
0.000251604 -6.00302e-07 0.00303861
0.00189224 -2.73665e-05 0.000205431
-2.73665e-05 0.000787679 -9.66152e-06
0.000205431 -9.66152e-06 0.00077459
0.00242466 8.36528e-06 4.18681e-05
8.36528e-06 0.00101995 -9.02868e-07
4.18681e-05 -9.02868e-07 0.00095701
0.00160079 -9.46566e-05 5.12806e-05
-9.46566e-05 0.000525236 -5.83857e-06
5.12806e-05 -5.83857e-06 0.0004476
0.00160747 -0.000114794 5.33835e-05
-0.000114794 0.000538543 -9.76116e-06
5.33835e-05 -9.76116e-06 0.0004552
0.00189176 -0.000156393 1.16197e-05
-0.000156393 0.000512437 -2.96171e-06
1.16197e-05 -2.96171e-06 0.000374769
0.0017258 -0.000207593 1.63823e-05
-0.000207593 0.000442812 -5.65227e-06
1.63823e-05 -5.65227e-06 0.000289238
0.00146087 -4.78671e-05 0.000182089
-4.78671e-05 0.000542884 -2.1076e-05
0.000182089 -2.1076e-05 0.000528438
0.00149152 -4.89783e-05 2.04362e-05
-4.89783e-05 0.00052904 -1.17955e-05
2.04362e-05 -1.17955e-05 0.00042591
0.00198069 -0.000264187 1.46801e-05
-0.000264187 0.000662162 -7.47689e-06
1.46801e-05 -7.47689e-06 0.000489552
0.00136346 -0.000279597 6.7345e-06
-0.000279597 0.000105005 -1.79816e-06
6.7345e-06 -1.79816e-06 -9.92177e-05
0.0060532 0.000189398 -0.000270974
0.000189398 0.00332271 -2.55679e-05
-0.000270974 -2.55679e-05 0.00332622
0.00542294 -0.000143195 -0.000178514
-0.000143195 0.00297891 -1.15081e-05
-0.000178514 -1.15081e-05 0.00296812
0.0058595 1.10159e-05 -0.000232888
1.10159e-05 0.00320728 -1.74915e-05
-0.000232888 -1.74915e-05 0.00321417
0.000501506 0.000195518 -2.44678e-05
0.000195518 -8.3194e-05 -1.70232e-05
-2.44678e-05 -1.70232e-05 -0.000190424
0.00605697 0.000192241 -2.76633e-06
0.000192241 0.00332292 -2.04965e-06
-2.76633e-06 -2.04965e-06 0.00332758
0.00606318 0.00012671 -8.95085e-06
0.00012671 0.00332723 -1.87596e-06
-8.95085e-06 -1.87596e-06 0.00333198
0.000473703 0.000125015 -1.62013e-08
0.000125015 -0.000148423 -2.60506e-07
-1.62013e-08 -2.60506e-07 -0.000243941
0.00302664 -0.000127021 -7.62823e-05
-0.000127021 0.00153983 -3.02438e-06
-7.62823e-05 -3.02438e-06 0.00150812
0.000475153 0.000191415 -2.57748e-07
0.000191415 -0.000108837 -4.1617e-07
-2.57748e-07 -4.1617e-07 -0.00021557
0.00162225 0.000172096 4.38106e-05
0.000172096 0.000596649 1.8768e-06
4.38106e-05 1.8768e-06 0.000511774
0.000853145 0.000193068 3.27694e-07
0.000193068 1.99979e-05 6.60413e-09
3.27694e-07 6.60413e-09 -0.000156957
0.00449218 -0.000115961 0.00016276
-0.000115961 0.00241775 1.12851e-05
0.00016276 1.12851e-05 0.0024158
0.00072318 -2.42683e-06 7.54163e-06
-2.42683e-06 0.000111927 1.01086e-05
7.54163e-06 1.01086e-05 6.25947e-05
0.000581845 9.50986e-05 1.65377e-05
9.50986e-05 -0.000104165 9.2208e-06
1.65377e-05 9.2208e-06 -0.000194614
0.000626879 0.000151548 2.14911e-05
0.000151548 -4.27301e-05 1.6121e-05
2.14911e-05 1.6121e-05 -0.000144289
0.00100665 0.000173537 1.4245e-05
0.000173537 -7.94911e-06 5.43322e-06
1.4245e-05 5.43322e-06 -0.000169331
0.00270854 0.000112188 0.000105763
0.000112188 0.00127534 1.40115e-05
0.000105763 1.40115e-05 0.00121237
0.000891849 0.000192321 1.28879e-05
0.000192321 2.53337e-06 6.56922e-06
1.28879e-05 6.56922e-06 -0.000168998
0.000856802 0.000202698 1.0582e-05
0.000202698 8.80428e-05 5.03212e-06
1.0582e-05 5.03212e-06 -9.88946e-05
0.00108988 0.000258701 4.80105e-06
0.000258701 9.81324e-05 1.86407e-06
4.80105e-06 1.86407e-06 -0.000119346
0.00298693 -0.0001213 7.6635e-05
-0.0001213 0.00150386 2.84043e-06
7.6635e-05 2.84043e-06 0.00150397
0.00340976 -0.000144085 1.37671e-05
-0.000144085 0.00176908 -1.85015e-07
1.37671e-05 -1.85015e-07 0.00176266
0.00595543 3.75662e-05 -0.000263155
3.75662e-05 0.00325097 -1.17178e-05
-0.000263155 -1.17178e-05 0.00326462
0.00576885 6.41934e-05 -0.000263522
6.41934e-05 0.00314468 -7.20619e-06
-0.000263522 -7.20619e-06 0.00316049
0.00566613 8.452e-05 -9.2811e-08
8.452e-05 0.00309399 -3.09611e-06
-9.2811e-08 -3.09611e-06 0.00310527
0.00355638 2.06377e-05 -0.000112774
2.06377e-05 0.00180622 -5.06244e-06
-0.000112774 -5.06244e-06 0.00179733
0.00163829 3.5206e-05 5.37306e-05
3.5206e-05 0.000529099 1.19935e-06
5.37306e-05 1.19935e-06 0.000465905
0.00373696 0.000123605 -0.00010195
0.000123605 0.00192107 -5.41408e-06
-0.00010195 -5.41408e-06 0.00190242
0.00168264 8.32027e-05 5.36515e-05
8.32027e-05 0.00055483 2.29164e-06
5.36515e-05 2.29164e-06 0.000484945
0.00562857 0.000134416 0.000259707
0.000134416 0.00308128 6.55099e-06
0.000259707 6.55099e-06 0.00308673
0.00053893 1.0719e-05 1.87428e-05
1.0719e-05 -0.000132691 6.54148e-07
1.87428e-05 6.54148e-07 -0.000207485
0.00273967 3.07921e-05 0.000124414
3.07921e-05 0.0011905 5.11657e-06
0.000124414 5.11657e-06 0.00114052
0.00102832 4.27452e-05 1.23932e-05
4.27452e-05 -2.45397e-05 1.15067e-06
1.23932e-05 1.15067e-06 -0.000150817
0.00265953 0.000107499 0.000128307
0.000107499 0.00114865 9.85219e-06
0.000128307 9.85219e-06 0.00109001
0.00107685 0.000101231 1.22966e-05
0.000101231 -4.70984e-06 2.37176e-06
1.22966e-05 2.37176e-06 -0.000143091
0.0017073 4.29536e-05 -0.000209925
4.29536e-05 0.000671092 2.03947e-06
-0.000209925 2.03947e-06 0.000667405
0.00130737 -4.85043e-06 -4.70729e-05
-4.85043e-06 0.000454408 1.96191e-06
-4.70729e-05 1.96191e-06 0.000414873
0.00147223 4.27608e-05 -1.99324e-05
4.27608e-05 0.000576387 6.78778e-06
-1.99324e-05 6.78778e-06 0.000528746
0.00128055 -8.59341e-05 -6.07941e-05
-8.59341e-05 0.000449348 8.71073e-06
-6.07941e-05 8.71073e-06 0.000405775
0.0017863 -7.62412e-05 -0.000110183
-7.62412e-05 0.000628572 9.71667e-06
-0.000110183 9.71667e-06 0.000563068
0.0017442 -0.000121344 -0.000110508
-0.000121344 0.000616993 1.62437e-05
-0.000110508 1.62437e-05 0.000546249
0.00165339 -0.000152262 -0.000114468
-0.000152262 0.000585585 2.01571e-05
-0.000114468 2.01571e-05 0.000504814
0.0020031 -0.000245835 -2.93805e-05
-0.000245835 0.000635349 1.0171e-05
-2.93805e-05 1.0171e-05 0.000472721
0.00565294 -9.06737e-05 2.09148e-06
-9.06737e-05 0.00308772 -1.62005e-06
2.09148e-06 -1.62005e-06 0.00309802
0.00156407 4.04276e-05 8.40354e-05
4.04276e-05 0.000595058 -3.49813e-06
8.40354e-05 -3.49813e-06 0.000573012
0.00113371 -4.36532e-06 -5.68497e-05
-4.36532e-06 0.000229324 1.2612e-06
-5.68497e-05 1.2612e-06 0.000164625
0.00166119 -5.96407e-05 -3.14143e-05
-5.96407e-05 0.000556444 2.0587e-06
-3.14143e-05 2.0587e-06 0.000485632
0.00359141 2.6853e-05 0.000193043
2.6853e-05 0.00186092 -6.71396e-06
0.000193043 -6.71396e-06 0.0018478
0.00214282 -0.000122479 -3.58424e-05
-0.000122479 0.000905257 1.66392e-06
-3.58424e-05 1.66392e-06 0.000814957
0.00167111 -0.000115723 -2.70984e-05
-0.000115723 0.000573221 1.99793e-06
-2.70984e-05 1.99793e-06 0.000496727
0.00185664 -0.000152362 -9.31136e-06
-0.000152362 0.000487798 1.67109e-06
-9.31136e-06 1.67109e-06 0.000350578
0.00198489 -0.000266421 -6.79593e-06
-0.000266421 0.000661844 1.97958e-06
-6.79593e-06 1.97958e-06 0.000488384
0.00187533 -0.000214139 -5.54823e-06
-0.000214139 0.000533194 1.41969e-06
-5.54823e-06 1.41969e-06 0.000379773
0.00138599 -0.000280616 4.1996e-07
-0.000280616 0.000119298 -1.34522e-07
4.1996e-07 -1.34522e-07 -8.45009e-05
0.000579919 1.23177e-05 1.93691e-05
1.23177e-05 -0.000110927 -1.01817e-06
1.93691e-05 -1.01817e-06 -0.000182468
0.00152727 1.00519e-05 4.21878e-05
1.00519e-05 0.000475555 -2.54376e-06
4.21878e-05 -2.54376e-06 0.000405562
0.0016875 -4.12742e-05 1.23374e-05
-4.12742e-05 0.000376887 -8.67964e-07
1.23374e-05 -8.67964e-07 0.000260831
0.00169788 -0.00011944 1.23261e-05
-0.00011944 0.000384842 -2.13124e-06
1.23261e-05 -2.13124e-06 0.000253764
0.00170772 -0.000178407 1.4627e-05
-0.000178407 0.00040801 -4.14164e-06
1.4627e-05 -4.14164e-06 0.000263202
0.00175541 -0.00020371 1.01599e-06
-0.00020371 0.000236107 -4.4316e-07
1.01599e-06 -4.4316e-07 7.69099e-05
0.00503012 0.000185272 0.000145253
0.000185272 0.00276885 -1.09751e-05
0.000145253 -1.09751e-05 0.002746
0.00141081 -0.000259454 5.65764e-06
-0.000259454 9.45626e-05 -1.50919e-06
5.65764e-06 -1.50919e-06 -9.55189e-05
0.000372847 -0.000132819 2.00979e-05
-0.000132819 -0.000157388 -1.62084e-05
2.00979e-05 -1.62084e-05 -0.00024206
0.000857572 -0.000200342 1.13611e-05
-0.000200342 1.93918e-05 -6.97939e-06
1.13611e-05 -6.97939e-06 -0.000157756
0.00138026 -0.000304671 7.61469e-06
-0.000304671 0.000165555 -2.56585e-06
7.61469e-06 -2.56585e-06 -5.58791e-05
0.0016707 -0.000355499 2.99076e-06
-0.000355499 0.000169979 1.21652e-06
2.99076e-06 1.21652e-06 -4.18013e-05
0.00042469 -6.9963e-05 1.36431e-05
-6.9963e-05 -7.81816e-05 -1.38458e-05
1.36431e-05 -1.38458e-05 -0.000146565
0.000474498 -6.32831e-05 -4.39958e-07
-6.32831e-05 -3.15403e-05 -4.88756e-06
-4.39958e-07 -4.88756e-06 -0.000181626
0.00608213 0.000211023 -0.000282828
0.000211023 0.00334323 -2.56131e-05
-0.000282828 -2.56131e-05 0.00334522
0.00596076 0.000109623 -0.0002525
0.000109623 0.00326366 -2.2001e-05
-0.0002525 -2.2001e-05 0.00327173
0.000472601 0.000119922 -1.85184e-05
0.000119922 -0.000150911 -1.12211e-05
-1.85184e-05 -1.12211e-05 -0.000246385
0.00483633 -0.000195622 -0.000138979
-0.000195622 0.00265017 -1.00485e-05
-0.000138979 -1.00485e-05 0.00262826
0.000440279 0.000153603 -2.24374e-05
0.000153603 -0.000121175 -1.59456e-05
-2.24374e-05 -1.59456e-05 -0.000208799
0.000458847 0.000177114 -2.09017e-05
0.000177114 -0.000115919 -1.59473e-05
-2.09017e-05 -1.59473e-05 -0.000224084
0.000900012 0.00019591 -1.2224e-05
0.00019591 4.51507e-05 -5.80016e-06
-1.2224e-05 -5.80016e-06 -0.000131545
0.00426181 -0.000144408 1.22634e-05
-0.000144408 0.0022879 -9.27447e-07
1.22634e-05 -9.27447e-07 0.0022805
0.000506869 -1.41243e-05 6.23272e-07
-1.41243e-05 -1.44568e-05 7.42065e-07
6.23272e-07 7.42065e-07 -6.32918e-05
0.00166304 0.000127915 5.44559e-05
0.000127915 0.000553724 4.02372e-06
5.44559e-05 4.02372e-06 0.000474993
0.00162066 0.000181949 5.32928e-05
0.000181949 0.000563237 4.01048e-06
5.32928e-05 4.01048e-06 0.000473158
0.000984805 0.000172956 1.08007e-07
0.000172956 -1.59427e-05 -2.39731e-07
1.08007e-07 -2.39731e-07 -0.000177785
0.000555 0.000107947 -9.48677e-07
0.000107947 -3.02952e-05 -6.18286e-08
-9.48677e-07 -6.18286e-08 -0.000106318
0.000922013 0.000193678 6.83295e-07
0.000193678 2.31058e-05 1.05171e-07
6.83295e-07 1.05171e-07 -0.000148285
0.000841169 0.000194378 2.59399e-07
0.000194378 7.50556e-05 -9.1816e-07
2.59399e-07 -9.1816e-07 -0.000110022
0.0010701 0.000260679 -2.7855e-07
0.000260679 8.24233e-05 -1.52956e-07
-2.7855e-07 -1.52956e-07 -0.00013575
0.000718228 6.04487e-05 1.58734e-05
6.04487e-05 9.26946e-05 1.22289e-05
1.58734e-05 1.22289e-05 2.80549e-05
0.000612476 -4.16971e-05 2.66889e-06
-4.16971e-05 4.95923e-05 8.07637e-06
2.66889e-06 8.07637e-06 1.02973e-05
0.00102686 9.89873e-05 2.32076e-06
9.89873e-05 0.000314923 5.80663e-06
2.32076e-06 5.80663e-06 0.000171803
0.00104824 0.000152672 1.35103e-05
0.000152672 -6.80907e-06 4.2752e-06
1.35103e-05 4.2752e-06 -0.000160933
0.000957296 0.000188342 1.41327e-05
0.000188342 -1.06824e-06 6.2882e-06
1.41327e-05 6.2882e-06 -0.000168551
0.00149674 0.00027725 5.17121e-06
0.00027725 0.000136126 1.15352e-06
5.17121e-06 1.15352e-06 -6.13089e-05
0.000803404 0.000202128 8.38528e-06
0.000202128 0.000127276 5.85508e-06
8.38528e-06 5.85508e-06 -5.90182e-05
0.00118249 0.000284026 4.72234e-06
0.000284026 8.23185e-05 1.24216e-06
4.72234e-06 1.24216e-06 -0.000135008
0.00109436 0.000263033 5.64239e-06
0.000263033 0.000148809 1.4044e-06
5.64239e-06 1.4044e-06 -8.25386e-05
0.00137066 0.000329705 -2.93303e-06
0.000329705 0.000198293 -1.52182e-06
-2.93303e-06 -1.52182e-06 -4.39608e-05
0.00263892 -0.000125459 4.00853e-05
-0.000125459 0.00128902 2.98293e-06
4.00853e-05 2.98293e-06 0.00128751
0.00284978 -0.000141908 1.02746e-05
-0.000141908 0.00142478 -7.72421e-07
1.02746e-05 -7.72421e-07 0.0014188
0.00316575 -0.000164718 -5.71059e-05
-0.000164718 0.00162555 -2.71027e-06
-5.71059e-05 -2.71027e-06 0.001613
0.000381291 -3.86787e-05 9.29292e-06
-3.86787e-05 -9.56021e-05 -1.14607e-05
9.29292e-06 -1.14607e-05 -0.000154115
0.00438157 0.000164809 0.00012051
0.000164809 0.00237433 -8.94928e-06
0.00012051 -8.94928e-06 0.00235746
0.00606422 0.000188697 -0.000284897
0.000188697 0.00332964 -2.20229e-05
-0.000284897 -2.20229e-05 0.00333486
0.00580161 7.58007e-05 -0.000262372
7.58007e-05 0.00316212 -1.00009e-05
-0.000262372 -1.00009e-05 0.003177
0.000557235 9.2796e-05 -1.97566e-05
9.2796e-05 -0.000124674 -5.08224e-06
-1.97566e-05 -5.08224e-06 -0.000207192
0.000540692 4.17294e-05 -1.93562e-05
4.17294e-05 -0.000131008 -2.53612e-06
-1.93562e-05 -2.53612e-06 -0.000208779
0.00560812 -1.03099e-05 -0.000253014
-1.03099e-05 0.00304952 -1.82935e-06
-0.000253014 -1.82935e-06 0.00306635
0.00556525 1.49983e-05 -4.91779e-07
1.49983e-05 0.00302518 -6.42666e-07
-4.91779e-07 -6.42666e-07 0.00304177
0.000522201 8.81352e-07 -1.16716e-07
8.81352e-07 -0.000145396 1.10936e-08
-1.16716e-07 1.10936e-08 -0.000218392
0.00162554 3.45974e-05 5.38031e-05
3.45974e-05 0.000518265 2.09348e-06
5.38031e-05 2.09348e-06 0.000454186
0.00100287 4.64349e-05 -3.85789e-08
4.64349e-05 -4.13939e-05 -1.39133e-07
-3.85789e-08 -1.39133e-07 -0.000168221
0.000521427 7.81817e-05 -4.14312e-07
7.81817e-05 -0.000142822 -3.32595e-07
-4.14312e-07 -3.32595e-07 -0.000229885
0.00102443 0.000102236 -1.65585e-07
0.000102236 -3.54534e-05 -1.59547e-07
-1.65585e-07 -1.59547e-07 -0.000174572
0.000515887 -2.919e-05 1.92938e-05
-2.919e-05 -0.000150853 -7.98946e-07
1.92938e-05 -7.98946e-07 -0.000221356
0.000998577 1.81083e-05 1.22043e-05
1.81083e-05 -3.60703e-05 5.05137e-07
1.22043e-05 5.05137e-07 -0.000159741
0.00103451 7.16961e-05 1.21115e-05
7.16961e-05 -2.6497e-05 1.84136e-06
1.21115e-05 1.84136e-06 -0.00015787
0.00154294 7.24454e-05 3.31473e-07
7.24454e-05 5.30806e-05 -1.26253e-07
3.31473e-07 -1.26253e-07 -6.99288e-05
0.00107453 0.000127414 1.27513e-05
0.000127414 -2.61087e-06 3.19861e-06
1.27513e-05 3.19861e-06 -0.000148735
0.00161959 0.000165014 1.71868e-06
0.000165014 0.000102427 -2.40895e-08
1.71868e-06 -2.40895e-08 -4.3249e-05
0.00557414 -5.11188e-05 -0.000258404
-5.11188e-05 0.00303461 1.26666e-06
-0.000258404 1.26666e-06 0.00304884
0.00127044 -0.000142625 -4.89926e-05
-0.000142625 0.000440065 5.29706e-06
-4.89926e-05 5.29706e-06 0.000399552
-0.00027351 -2.95049e-06 -1.26678e-05
-2.95049e-06 -0.000618541 2.05166e-06
-1.26678e-05 2.05166e-06 -0.000704602
0.0017572 -5.29788e-05 -0.000109823
-5.29788e-05 0.00060885 6.91232e-06
-0.000109823 6.91232e-06 0.000545305
0.00537452 0.000346731 6.51835e-06
0.000346731 0.00301082 6.77773e-06
6.51835e-06 6.77773e-06 0.00294146
0.00277938 -0.000208494 -0.000116798
-0.000208494 0.00128126 2.05117e-05
-0.000116798 2.05117e-05 0.00119731
0.00177742 -9.89177e-05 -0.000110081
-9.89177e-05 0.000628147 1.29213e-05
-0.000110081 1.29213e-05 0.000560903
0.00179371 -0.000147056 -2.85282e-05
-0.000147056 0.000446168 5.46952e-06
-2.85282e-05 5.46952e-06 0.000309646
0.00200495 -0.000219349 -2.7924e-05
-0.000219349 0.000611254 8.50422e-06
-2.7924e-05 8.50422e-06 0.000458343
0.00201713 -0.000270273 -2.70287e-05
-0.000270273 0.000679705 1.08877e-05
-2.70287e-05 1.08877e-05 0.000505139
0.00141126 -0.000281786 -5.39979e-06
-0.000281786 0.000135482 1.46914e-06
-5.39979e-06 1.46914e-06 -6.79185e-05
0.000518411 6.59027e-06 -6.25475e-08
6.59027e-06 -0.000146023 1.51773e-07
-6.25475e-08 1.51773e-07 -0.00021852
0.00165346 -7.26897e-05 -3.05095e-05
-7.26897e-05 0.000553421 3.49764e-07
-3.05095e-05 3.49764e-07 0.000486001
0.00128016 -3.68371e-05 -8.24197e-06
-3.68371e-05 0.000131585 4.70831e-07
-8.24197e-06 4.70831e-07 1.1033e-05
0.00183541 -0.000120669 -6.45127e-06
-0.000120669 0.000467047 9.89464e-07
-6.45127e-06 9.89464e-07 0.000336673
0.00519675 0.000159602 -3.82318e-06
0.000159602 0.00285995 -5.38528e-07
-3.82318e-06 -5.38528e-07 0.00284308
0.00158748 -0.000122526 -6.00851e-07
-0.000122526 0.000590909 1.28379e-07
-6.00851e-07 1.28379e-07 0.000493753
0.00131064 -0.000228907 1.3919e-06
-0.000228907 0.000300668 -9.29385e-07
1.3919e-06 -9.29385e-07 0.000122133
0.00174599 -0.000179738 -6.65152e-06
-0.000179738 0.000431124 1.55984e-06
-6.65152e-06 1.55984e-06 0.000286012
0.0016842 -0.000202893 -1.92945e-06
-0.000202893 0.000190206 3.79401e-07
-1.92945e-06 3.79401e-07 3.29603e-05
0.00135875 -0.000303335 6.82367e-07
-0.000303335 0.000155838 -1.12721e-07
6.82367e-07 -1.12721e-07 -6.53196e-05
0.0015787 -0.000266592 4.52404e-07
-0.000266592 0.000196203 -1.57354e-07
4.52404e-07 -1.57354e-07 7.05769e-06
0.00170267 -0.000356114 6.50934e-07
-0.000356114 0.00019396 1.5657e-08
6.50934e-07 1.5657e-08 -1.72785e-05
0.000486986 -7.54344e-05 -8.32817e-07
-7.54344e-05 -4.32244e-05 3.67888e-07
-8.32817e-07 3.67888e-07 -0.000114478
0.000665966 -8.86714e-05 5.83399e-08
-8.86714e-05 8.15336e-05 -1.81513e-08
5.83399e-08 -1.81513e-08 -7.12853e-05
0.000981414 -1.77777e-05 1.21506e-05
-1.77777e-05 -4.00569e-05 -7.51822e-07
1.21506e-05 -7.51822e-07 -0.000163413
0.00173105 -7.59031e-05 1.14793e-05
-7.59031e-05 0.000402123 -1.38361e-06
1.14793e-05 -1.38361e-06 0.000280533
0.001701 -6.79744e-05 5.09079e-08
-6.79744e-05 0.000167954 2.51455e-07
5.09079e-08 2.51455e-07 4.3275e-05
0.00158913 -0.000163323 1.89854e-06
-0.000163323 0.000115153 1.36475e-07
1.89854e-06 1.36475e-07 -2.78527e-05
0.00170458 -0.000244731 2.61434e-06
-0.000244731 0.000235214 -3.6997e-07
2.61434e-06 -3.6997e-07 6.35894e-05
0.00185181 -0.000244234 -1.21684e-07
-0.000244234 0.000161197 5.81774e-07
-1.21684e-07 5.81774e-07 1.87963e-05
0.000411792 -0.000111452 1.81593e-05
-0.000111452 -0.000110197 -1.53254e-05
1.81593e-05 -1.53254e-05 -0.000187903
0.00172218 -0.000325731 1.16727e-06
-0.000325731 0.000161872 1.10123e-06
1.16727e-06 1.10123e-06 -2.39157e-05
0.00069825 -0.00018719 7.72828e-06
-0.00018719 -1.7329e-06 -7.5358e-06
7.72828e-06 -7.5358e-06 -0.000184825
0.00110239 -0.000289742 9.84149e-06
-0.000289742 7.02e-05 -3.9521e-06
9.84149e-06 -3.9521e-06 -0.000159431
0.00184879 -0.000403888 2.60115e-06
-0.000403888 0.000335162 7.29587e-07
2.60115e-06 7.29587e-07 9.0307e-05
0.00202233 -0.000390124 -2.19967e-06
-0.000390124 0.000329636 3.54828e-06
-2.19967e-06 3.54828e-06 0.000138069
0.000615087 -0.000148992 1.06859e-06
-0.000148992 6.23144e-05 -4.72328e-06
1.06859e-06 -4.72328e-06 -0.000120777
0.000599207 -5.3279e-05 -3.83736e-07
-5.3279e-05 4.05919e-05 -5.0723e-06
-3.83736e-07 -5.0723e-06 -8.27198e-05
0.00107427 -0.000204711 -2.07923e-06
-0.000204711 0.000351257 1.23086e-06
-2.07923e-06 1.23086e-06 0.000125784
0.000502398 9.92197e-05 -1.79199e-05
9.92197e-05 -0.000146955 -8.57513e-06
-1.79199e-05 -8.57513e-06 -0.000238176
0.00393459 -0.000175528 -9.77916e-05
-0.000175528 0.00209707 -4.7997e-06
-9.77916e-05 -4.7997e-06 0.00208177
0.000354674 -2.73312e-05 -2.0579e-06
-2.73312e-05 -0.000100231 -9.39819e-06
-2.0579e-06 -9.39819e-06 -0.000149998
0.000452859 0.000148754 -1.97061e-05
0.000148754 -0.000140624 -1.40396e-05
-1.97061e-05 -1.40396e-05 -0.00024257
0.000961169 0.000172511 -1.48372e-05
0.000172511 -2.51102e-05 -5.89196e-06
-1.48372e-05 -5.89196e-06 -0.000187423
0.000383 9.8788e-05 -1.92754e-05
9.8788e-05 -0.000134287 -1.42356e-05
-1.92754e-05 -1.42356e-05 -0.000206542
0.000700502 0.000179439 -9.2661e-06
0.000179439 -1.14492e-05 -6.70206e-06
-9.2661e-06 -6.70206e-06 -0.000194257
0.00092857 0.000193292 -1.2879e-05
0.000193292 3.00494e-05 -6.64551e-06
-1.2879e-05 -6.64551e-06 -0.000140976
0.00104488 0.000261919 -5.98894e-06
0.000261919 6.35187e-05 -1.97004e-06
-5.98894e-06 -1.97004e-06 -0.000155152
0.000536727 4.78473e-05 2.18996e-06
4.78473e-05 -1.39222e-05 6.00562e-07
2.18996e-06 6.00562e-07 -7.61782e-05
0.00050439 -5.62191e-05 2.33025e-07
-5.62191e-05 -1.01525e-05 2.61068e-07
2.33025e-07 2.61068e-07 -5.16983e-05
0.000570401 5.72192e-05 8.66596e-07
5.72192e-05 2.38586e-05 3.61385e-07
8.66596e-07 3.61385e-07 -0.000102555
0.00101676 0.00015269 -3.55202e-08
0.00015269 -2.21317e-05 -2.74077e-07
-3.55202e-08 -2.74077e-07 -0.000176997
0.000945388 0.000187206 3.51743e-07
0.000187206 -2.87045e-06 -1.93736e-07
3.51743e-07 -1.93736e-07 -0.000170392
0.00148965 0.000277089 6.74346e-08
0.000277089 0.000131113 -4.79292e-08
6.74346e-08 -4.79292e-08 -6.6732e-05
0.000811214 0.000189261 -4.77354e-07
0.000189261 0.00013 -1.36611e-07
-4.77354e-07 -1.36611e-07 -5.4837e-05
0.00128084 0.00028841 2.12829e-07
0.00028841 0.000140582 4.10923e-08
2.12829e-07 4.10923e-08 -7.72873e-05
0.00110441 0.000264938 6.06975e-08
0.000264938 0.000155475 -7.87943e-07
6.06975e-08 -7.87943e-07 -7.55958e-05
0.00131086 0.000336689 -9.11729e-07
0.000336689 0.000153415 1.29076e-07
-9.11729e-07 1.29076e-07 -9.1467e-05
0.000546865 -6.15689e-05 -1.36661e-06
-6.15689e-05 7.30409e-06 6.88076e-06
-1.36661e-06 6.88076e-06 -2.64565e-05
0.000850038 0.000146583 5.4632e-06
0.000146583 0.000187358 5.03274e-06
5.4632e-06 5.03274e-06 2.07046e-05
0.000651232 2.40866e-05 1.9629e-06
2.40866e-05 6.60754e-05 4.91572e-06
1.9629e-06 4.91572e-06 -3.15048e-05
0.00103289 0.000132757 1.1907e-06
0.000132757 0.000344315 2.41725e-07
1.1907e-06 2.41725e-07 0.000143081
0.00156405 0.00024651 3.62561e-06
0.00024651 0.000124257 7.29844e-09
3.62561e-06 7.29844e-09 -5.52823e-05
0.00138583 0.000293243 5.58063e-06
0.000293243 0.000133016 1.50171e-06
5.58063e-06 1.50171e-06 -7.87899e-05
0.00182335 0.000353906 1.13299e-06
0.000353906 0.000218827 -2.76368e-07
1.13299e-06 -2.76368e-07 1.76818e-05
0.00102036 0.000231445 4.83881e-06
0.000231445 0.000180581 2.30846e-06
4.83881e-06 2.30846e-06 -4.12787e-05
0.0018526 0.000416305 -2.30696e-06
0.000416305 0.000383985 -9.63335e-07
-2.30696e-06 -9.63335e-07 0.00013916
0.00135991 0.000332803 -7.30401e-07
0.000332803 0.000240468 -1.07922e-06
-7.30401e-07 -1.07922e-06 -2.70517e-05
0.0015158 0.000382757 -3.33426e-07
0.000382757 0.000170666 -5.02582e-07
-3.33426e-07 -5.02582e-07 -8.1733e-05
0.000592218 1.85234e-05 2.49986e-06
1.85234e-05 2.09855e-05 2.66765e-06
2.49986e-06 2.66765e-06 -3.44047e-05
0.000510412 -4.10767e-05 7.45471e-07
-4.10767e-05 -4.03272e-05 5.10485e-06
7.45471e-07 5.10485e-06 -6.21766e-05
0.00248804 -0.00011138 2.97764e-05
-0.00011138 0.00118916 3.35725e-06
2.97764e-05 3.35725e-06 0.00119131
0.00257865 -0.000127075 4.07271e-06
-0.000127075 0.00125299 -4.55606e-07
4.07271e-06 -4.55606e-07 0.00125086
0.00274732 -0.00014652 -3.70417e-05
-0.00014652 0.00136421 -2.92346e-06
-3.70417e-05 -2.92346e-06 0.00135657
0.000442824 -2.53543e-05 6.93135e-06
-2.53543e-05 -6.07942e-05 -9.79726e-06
6.93135e-06 -9.79726e-06 -0.000108888
0.00376411 0.000138654 0.000103392
0.000138654 0.00198954 -6.65741e-06
0.000103392 -6.65741e-06 0.00198087
0.000536655 -4.29811e-05 -7.60923e-07
-4.29811e-05 -5.91597e-06 4.82952e-07
-7.60923e-07 4.82952e-07 -6.51084e-05
0.00459848 0.000147756 -8.82556e-06
0.000147756 0.00249877 -1.25643e-06
-8.82556e-06 -1.25643e-06 0.00248594
0.000549597 0.000103058 -1.93379e-05
0.000103058 -0.000123878 -6.79978e-06
-1.93379e-05 -6.79978e-06 -0.000212586
0.000561141 3.36555e-05 -1.85056e-05
3.36555e-05 -0.000123701 -3.36217e-06
-1.85056e-05 -3.36217e-06 -0.000202015
0.00099305 0.0001032 -1.2106e-05
0.0001032 -5.48121e-05 -2.66071e-06
-1.2106e-05 -2.66071e-06 -0.000194534
0.000977777 4.85666e-05 -1.2288e-05
4.85666e-05 -5.79875e-05 -1.39873e-06
-1.2288e-05 -1.39873e-06 -0.000185213
0.000576978 -7.04929e-06 -1.9459e-05
-7.04929e-06 -0.000115992 -7.96527e-07
-1.9459e-05 -7.96527e-07 -0.000187028
0.00564987 -9.51306e-05 -0.0002655
-9.51306e-05 0.00308554 4.19e-06
-0.0002655 4.19e-06 0.00309705
0.000561959 -9.64884e-07 1.12792e-07
-9.64884e-07 -0.000123675 -5.42761e-07
1.12792e-07 -5.42761e-07 -0.000194296
0.000985932 2.30417e-05 -7.0718e-08
2.30417e-05 -4.43657e-05 -5.61313e-08
-7.0718e-08 -5.61313e-08 -0.000168306
0.00102182 7.35812e-05 -1.35068e-07
7.35812e-05 -3.58003e-05 -6.8863e-08
-1.35068e-07 -6.8863e-08 -0.000167693
0.00155048 7.14913e-05 -7.94404e-08
7.14913e-05 5.99547e-05 1.47303e-07
-7.94404e-08 1.47303e-07 -6.31651e-05
0.00103248 0.000128678 -1.98678e-07
0.000128678 -2.63929e-05 -2.30444e-07
-1.98678e-07 -2.30444e-07 -0.000173516
0.0015903 0.000164511 -9.56155e-08
0.000164511 8.51068e-05 3.58424e-08
-9.56155e-08 3.58424e-08 -6.1085e-05
0.000978311 -1.55978e-06 1.21395e-05
-1.55978e-06 -4.23512e-05 -2.50901e-07
1.21395e-05 -2.50901e-07 -0.000165349
0.00152852 3.64985e-05 6.69492e-07
3.64985e-05 5.25923e-05 7.98545e-08
6.69492e-07 7.98545e-08 -6.55276e-05
0.00157933 0.000117096 6.00951e-07
0.000117096 7.18213e-05 -2.8523e-07
6.00951e-07 -2.8523e-07 -6.0738e-05
0.00187217 0.000102484 -7.26827e-07
0.000102484 9.8055e-05 -5.74352e-07
-7.26827e-07 -5.74352e-07 9.08641e-06
0.00161055 0.000209289 2.68999e-06
0.000209289 0.000113161 8.89579e-08
2.68999e-06 8.89579e-08 -4.85886e-05
0.00187086 0.000207732 3.00931e-07
0.000207732 0.000128492 -1.44448e-06
3.00931e-07 -1.44448e-06 4.82187e-06
0.000543334 -2.937e-07 -1.86025e-05
-2.937e-07 -0.000128467 1.02635e-06
-1.86025e-05 1.02635e-06 -0.000202907
0.00173847 -2.99027e-05 -0.000108768
-2.99027e-05 0.000598164 4.5325e-06
-0.000108768 4.5325e-06 0.000538016
0.000842707 -3.12485e-05 -1.54592e-05
-3.12485e-05 -0.000131307 1.6961e-06
-1.54592e-05 1.6961e-06 -0.000256623
0.00195542 -0.000120755 -2.56982e-05
-0.000120755 0.000538236 3.92767e-06
-2.56982e-05 3.92767e-06 0.000408742
0.00543619 0.000148456 -0.000179593
0.000148456 0.00300478 1.55482e-05
-0.000179593 1.55482e-05 0.00298758
0.00282143 -0.000176729 -0.000117989
-0.000176729 0.00132581 1.63036e-05
-0.000117989 1.63036e-05 0.00125074
0.00196955 -0.000277522 -2.21633e-05
-0.000277522 0.000701817 9.37413e-06
-2.21633e-05 9.37413e-06 0.000518577
0.00176331 -0.000179635 -2.74194e-05
-0.000179635 0.000441242 6.88604e-06
-2.74194e-05 6.88604e-06 0.000296165
0.00161112 -0.000202046 -4.78799e-06
-0.000202046 0.000142837 6.65108e-07
-4.78799e-06 6.65108e-07 -1.24616e-05
0.0017474 -0.000273828 -5.87205e-06
-0.000273828 0.00029879 1.6398e-06
-5.87205e-06 1.6398e-06 0.000110557
0.00128706 -0.000298755 -6.7625e-06
-0.000298755 0.000115428 1.63018e-06
-6.7625e-06 1.63018e-06 -0.000105107
0.00173054 -0.000356796 -1.24121e-06
-0.000356796 0.000214321 -1.32206e-06
-1.24121e-06 -1.32206e-06 3.56944e-06
0.000633692 -8.74791e-05 -1.55695e-05
-8.74791e-05 4.34126e-05 1.40188e-05
-1.55695e-05 1.40188e-05 -3.00998e-05
0.000879053 -0.000116854 -8.06358e-07
-0.000116854 0.000210123 4.47646e-06
-8.06358e-07 4.47646e-06 5.33396e-05
0.000902576 -1.25695e-05 -9.04605e-08
-1.25695e-05 -8.8963e-05 -1.42873e-08
-9.04605e-08 -1.42873e-08 -0.000211928
0.00173839 -7.70762e-05 -6.85679e-06
-7.70762e-05 0.000405215 7.6755e-07
-6.85679e-06 7.6755e-07 0.000283716
0.00173895 -6.45469e-05 -1.28188e-06
-6.45469e-05 0.000188139 2.14638e-07
-1.28188e-06 2.14638e-07 6.71366e-05
0.0016398 -0.000163465 -1.14124e-06
-0.000163465 0.000148442 3.55665e-07
-1.14124e-06 3.55665e-07 3.05026e-06
0.000508627 -0.000122407 6.31077e-07
-0.000122407 -5.14534e-05 2.46905e-07
6.31077e-07 2.46905e-07 -0.000132908
0.0008332 -0.000200602 -7.23694e-07
-0.000200602 7.63383e-05 -3.64207e-07
-7.23694e-07 -3.64207e-07 -0.00010798
0.00111202 -0.000291641 2.2665e-06
-0.000291641 7.55727e-05 -8.9639e-07
2.2665e-06 -8.9639e-07 -0.00015454
0.00172731 -0.000244102 -3.0475e-06
-0.000244102 0.000248741 7.96575e-07
-3.0475e-06 7.96575e-07 7.56327e-05
0.001894 -0.000248293 1.30707e-06
-0.000248293 0.000180605 -3.26938e-07
1.30707e-06 -3.26938e-07 4.25263e-05
0.0018793 -0.000411468 -1.34725e-06
-0.000411468 0.000353808 -1.269e-08
-1.34725e-06 -1.269e-08 0.00010791
0.00174763 -0.00032688 5.2408e-07
-0.00032688 0.00017818 2.56479e-08
5.2408e-07 2.56479e-08 -7.43163e-06
0.0019299 -0.000386455 8.32595e-07
-0.000386455 0.000266791 6.51045e-07
8.32595e-07 6.51045e-07 7.53298e-05
0.000701298 -0.000156383 1.74989e-07
-0.000156383 0.000108352 -2.11108e-07
1.74989e-07 -2.11108e-07 -7.1303e-05
0.000500872 -0.000129864 -6.9627e-07
-0.000129864 -1.09778e-05 -3.32762e-07
-6.9627e-07 -3.32762e-07 -0.000218259
0.000683265 -6.73252e-05 1.51411e-07
-6.73252e-05 9.09856e-05 1.99495e-07
1.51411e-07 1.99495e-07 -3.64174e-05
0.00166643 -2.81716e-05 -2.03345e-07
-2.81716e-05 0.000146788 1.80911e-07
-2.03345e-07 1.80911e-07 2.72304e-05
0.0017836 -0.000111771 -5.72545e-07
-0.000111771 0.000216984 8.37538e-07
-5.72545e-07 8.37538e-07 8.89554e-05
0.00178356 -8.89194e-05 -3.54093e-07
-8.89194e-05 6.02579e-05 1.14785e-06
-3.54093e-07 1.14785e-06 -3.4127e-05
0.00181822 -0.000202431 -2.09023e-06
-0.000202431 0.000113112 1.30058e-06
-2.09023e-06 1.30058e-06 -8.98311e-06
0.00169106 -0.000292257 -5.25178e-07
-0.000292257 0.000100859 1.88842e-06
-5.25178e-07 1.88842e-06 -5.89963e-05
0.00194748 -0.000269869 5.69782e-07
-0.000269869 0.000163669 3.99859e-07
5.69782e-07 3.99859e-07 5.08254e-05
0.000707381 -0.000187507 4.32964e-06
-0.000187507 6.9716e-05 -6.46337e-06
4.32964e-06 -6.46337e-06 -0.000115106
0.00180376 -0.000353736 -2.16043e-06
-0.000353736 0.000144698 1.94807e-06
-2.16043e-06 1.94807e-06 -1.85541e-05
0.00121693 -0.000285851 6.43614e-06
-0.000285851 0.000224652 -4.53127e-06
6.43614e-06 -4.53127e-06 -5.90662e-06
0.00154711 -0.000423424 3.57606e-06
-0.000423424 0.000254807 3.33359e-08
3.57606e-06 3.33359e-08 -2.7626e-05
0.00197088 -0.000444675 1.47249e-06
-0.000444675 0.000348874 3.5696e-06
1.47249e-06 3.5696e-06 0.000106975
0.00207978 -0.0004093 -2.8806e-06
-0.0004093 0.000345063 3.25572e-06
-2.8806e-06 3.25572e-06 0.000168623
0.000653989 -4.5009e-05 -5.37032e-07
-4.5009e-05 8.53406e-05 -4.61244e-06
-5.37032e-07 -4.61244e-06 -2.30482e-05
0.000844233 -0.00020318 -4.34797e-07
-0.00020318 0.000150746 -1.65625e-07
-4.34797e-07 -1.65625e-07 -5.42908e-05
0.000426698 -0.000112372 -1.75823e-06
-0.000112372 -1.22753e-05 2.44188e-06
-1.75823e-06 2.44188e-06 -0.000221898
0.00149908 -0.000274802 -4.73235e-06
-0.000274802 0.000551993 2.38593e-06
-4.73235e-06 2.38593e-06 0.000320701
0.000982697 0.000152889 -1.41469e-05
0.000152889 -3.91825e-05 -4.77319e-06
-1.41469e-05 -4.77319e-06 -0.000194807
0.000394666 -6.14365e-05 2.39027e-06
-6.14365e-05 -7.3338e-05 -8.12268e-06
2.39027e-06 -8.12268e-06 -0.000115806
0.000265779 2.85114e-05 -9.04821e-06
2.85114e-05 -0.000171717 -1.21343e-05
-9.04821e-06 -1.21343e-05 -0.00023204
0.000485328 1.56851e-05 -5.88496e-07
1.56851e-05 -2.56153e-05 -5.29871e-06
-5.88496e-07 -5.29871e-06 -0.000146814
0.000938012 0.000186662 -1.43562e-05
0.000186662 -1.94187e-06 -6.79893e-06
-1.43562e-05 -6.79893e-06 -0.000169604
0.00148322 0.000276862 -5.0495e-06
0.000276862 0.000126591 -1.14504e-06
-5.0495e-06 -1.14504e-06 -7.16364e-05
0.000667123 0.000174369 -5.69962e-06
0.000174369 4.27869e-05 -4.60483e-06
-5.69962e-06 -4.60483e-06 -0.000140093
0.00125473 0.000279181 -6.98409e-06
0.000279181 0.000247714 -2.86877e-06
-6.98409e-06 -2.86877e-06 1.50623e-05
0.00136259 0.000291601 -4.68763e-06
0.000291601 0.00018872 -1.88646e-06
-4.68763e-06 -1.88646e-06 -2.95862e-05
0.00124111 0.000341571 -1.41093e-06
0.000341571 0.000105022 5.30084e-07
-1.41093e-06 5.30084e-07 -0.000142007
0.000480926 -6.17181e-05 -1.32228e-06
-6.17181e-05 -3.25111e-05 4.75864e-07
-1.32228e-06 4.75864e-07 -6.60613e-05
0.000769931 0.000139154 5.59366e-07
0.000139154 0.000151514 -6.61965e-07
5.59366e-07 -6.61965e-07 -1.89228e-05
0.000612847 2.85659e-06 3.43435e-07
2.85659e-06 4.64451e-05 4.63602e-07
3.43435e-07 4.63602e-07 -4.85234e-05
0.000759644 0.000111894 1.35548e-06
0.000111894 0.000176826 -5.36665e-07
1.35548e-06 -5.36665e-07 -1.90674e-05
0.0015548 0.000245809 -3.23062e-07
0.000245809 0.000119266 -5.78815e-07
-3.23062e-07 -5.78815e-07 -6.05681e-05
0.00138922 0.000293559 6.04894e-08
0.000293559 0.000136951 -1.01127e-07
6.04894e-08 -1.01127e-07 -7.53168e-05
0.0017993 0.000351901 2.94414e-07
0.000351901 0.000205367 2.01351e-07
2.94414e-07 2.01351e-07 4.3429e-06
0.00104434 0.000238636 2.08401e-06
0.000238636 0.000198867 -1.87686e-07
2.08401e-06 -1.87686e-07 -2.42711e-05
0.00178867 0.000404007 -9.03187e-07
0.000404007 0.000347856 -2.92141e-08
-9.03187e-07 -2.92141e-08 0.000104866
0.00127937 0.000326432 3.90806e-07
0.000326432 0.000189432 -1.28215e-06
3.90806e-07 -1.28215e-06 -7.77162e-05
0.00161524 0.00038732 -3.76417e-06
0.00038732 0.000230433 1.12661e-06
-3.76417e-06 1.12661e-06 -1.93443e-05
0.000505689 -5.21376e-05 -2.46482e-08
-5.21376e-05 -3.31186e-05 5.68992e-06
-2.46482e-08 5.68992e-06 -5.92654e-05
0.000649612 9.91498e-07 7.8975e-07
9.91498e-07 6.21058e-05 4.29677e-06
7.8975e-07 4.29677e-06 -1.45311e-05
0.000972321 0.000206434 6.38257e-07
0.000206434 0.00023449 1.22314e-06
6.38257e-07 1.22314e-06 3.08464e-05
0.00118643 8.98266e-05 -1.23466e-06
8.98266e-05 0.000448419 2.35435e-06
-1.23466e-06 2.35435e-06 0.000276998
0.00123474 0.000215061 -1.99195e-06
0.000215061 0.000432632 -1.48031e-06
-1.99195e-06 -1.48031e-06 0.000218504
0.00187446 0.000312389 6.55996e-07
0.000312389 0.000196372 -1.88775e-06
6.55996e-07 -1.88775e-06 2.23326e-05
0.00176354 0.000391049 3.35005e-07
0.000391049 0.000250714 -3.16417e-07
3.35005e-07 -3.16417e-07 2.3453e-05
0.00188732 0.000388727 -4.23235e-07
0.000388727 0.000224329 -3.45639e-07
-4.23235e-07 -3.45639e-07 3.10864e-05
0.00098592 0.00029083 3.00141e-06
0.00029083 9.97043e-05 3.24309e-06
3.00141e-06 3.24309e-06 -0.000157768
0.00205251 0.000475811 -3.49779e-07
0.000475811 0.000438549 -6.36061e-07
-3.49779e-07 -6.36061e-07 0.00018629
0.000839054 0.000320262 4.9682e-06
0.000320262 -0.000134019 -2.02218e-06
4.9682e-06 -2.02218e-06 -0.00040358
0.000595166 1.29144e-05 2.67407e-06
1.29144e-05 2.20388e-05 2.80153e-06
2.67407e-06 2.80153e-06 -3.56003e-05
0.000667839 5.79232e-05 6.58606e-08
5.79232e-05 9.7421e-05 1.34423e-06
6.58606e-08 1.34423e-06 1.50217e-06
0.000612655 2.89228e-05 2.38681e-06
2.89228e-05 3.85972e-05 2.6879e-06
2.38681e-06 2.6879e-06 -1.65684e-05
0.000576632 -7.49304e-06 -5.57273e-07
-7.49304e-06 1.30161e-05 -5.32293e-09
-5.57273e-07 -5.32293e-09 -4.29307e-05
0.00124474 -4.93598e-05 1.11055e-06
-4.93598e-05 0.000402743 2.91278e-06
1.11055e-06 2.91278e-06 0.000386956
0.000898507 -4.93046e-05 4.63483e-07
-4.93046e-05 0.000196003 -1.10652e-07
4.63483e-07 -1.10652e-07 0.000176096
0.000874308 -5.34334e-05 2.43192e-05
-5.34334e-05 0.000192455 7.87971e-06
2.43192e-05 7.87971e-06 0.000192709
0.00244849 -0.000108655 4.69172e-06
-0.000108655 0.00116398 -4.28954e-07
4.69172e-06 -4.28954e-07 0.00116671
0.00250114 -0.000122667 -3.44998e-05
-0.000122667 0.00120519 -3.09443e-06
-3.44998e-05 -3.09443e-06 0.0012041
0.000405031 -5.67197e-07 2.47979e-06
-5.67197e-07 -7.82504e-05 -7.63891e-06
2.47979e-06 -7.63891e-06 -0.000116966
0.0033947 0.000138655 7.23188e-05
0.000138655 0.0017561 -4.13411e-06
7.23188e-05 -4.13411e-06 0.00174883
0.000516043 -2.51747e-05 -7.4431e-07
-2.51747e-05 -1.74242e-05 1.67741e-07
-7.4431e-07 1.67741e-07 -6.64563e-05
0.00400558 0.000129178 -7.67868e-06
0.000129178 0.00213301 -7.52221e-07
-7.67868e-06 -7.52221e-07 0.00212641
0.000570796 -4.49786e-05 -9.6055e-06
-4.49786e-05 1.17909e-05 1.1838e-05
-9.6055e-06 1.1838e-05 -4.9468e-05
0.00482691 0.000130982 -0.00016085
0.000130982 0.00263066 1.23006e-05
-0.00016085 1.23006e-05 0.00262166
0.000994059 0.000129894 -1.29736e-05
0.000129894 -4.79873e-05 -3.61415e-06
-1.29736e-05 -3.61415e-06 -0.000196012
0.000991841 7.7148e-05 -1.20908e-05
7.7148e-05 -5.43869e-05 -1.9523e-06
-1.20908e-05 -1.9523e-06 -0.000187061
0.00158284 0.000160986 -2.65714e-06
0.000160986 8.18961e-05 -8.27e-09
-2.65714e-06 -8.27e-09 -6.42389e-05
0.00155708 7.06795e-05 -9.45196e-07
7.06795e-05 6.63833e-05 4.35023e-07
-9.45196e-07 4.35023e-07 -5.68569e-05
0.000979002 2.71369e-05 -1.22307e-05
2.71369e-05 -4.98611e-05 -6.59063e-07
-1.22307e-05 -6.59063e-07 -0.000174079
0.000525799 2.85161e-05 -1.92872e-05
2.85161e-05 -0.000146016 -2.96929e-07
-1.92872e-05 -2.96929e-07 -0.000215975
0.00097689 1.2953e-06 -1.09744e-08
1.2953e-06 -4.42419e-05 -1.0307e-07
-1.09744e-08 -1.0307e-07 -0.000167285
0.00152671 3.75573e-05 -6.74916e-08
3.75573e-05 5.28359e-05 1.18938e-07
-6.74916e-08 1.18938e-07 -6.54163e-05
0.00158346 0.000114507 -1.84036e-08
0.000114507 7.6706e-05 -2.95735e-08
-1.84036e-08 -2.95735e-08 -5.58308e-05
0.00186533 0.00010048 5.21598e-09
0.00010048 9.01394e-05 4.20617e-07
5.21598e-09 4.20617e-07 4.78873e-06
0.0015914 0.000207658 -3.10115e-07
0.000207658 0.000104791 -5.1398e-08
-3.10115e-07 -5.1398e-08 -5.7077e-05
0.00186813 0.000205699 -4.45063e-07
0.000205699 0.000129603 2.81558e-08
-4.45063e-07 2.81558e-08 6.0405e-06
0.00151977 2.72828e-06 9.14362e-07
2.72828e-06 5.17902e-05 7.70551e-08
9.14362e-07 7.70551e-08 -6.52416e-05
0.00190066 5.18588e-05 -1.86408e-06
5.18588e-05 0.000115853 1.3157e-07
-1.86408e-06 1.3157e-07 4.19325e-05
0.00189814 0.000158175 -1.62201e-07
0.000158175 0.000122468 -1.11959e-06
-1.62201e-07 -1.11959e-06 1.86331e-05
0.00180423 0.000100911 5.37309e-06
0.000100911 7.6418e-06 1.08997e-06
5.37309e-06 1.08997e-06 -5.16113e-05
0.00190005 0.000261425 3.29385e-07
0.000261425 0.000178257 -1.41732e-06
3.29385e-07 -1.41732e-06 3.10385e-05
0.00181654 0.000224414 9.82458e-07
0.000224414 3.30613e-05 -6.78862e-07
9.82458e-07 -6.78862e-07 -6.3656e-05
0.000825691 -8.82826e-06 -1.22019e-05
-8.82826e-06 -0.000136729 6.2239e-07
-1.22019e-05 6.2239e-07 -0.000259374
0.00176739 -7.93409e-05 -2.5079e-05
-7.93409e-05 0.000421382 2.858e-06
-2.5079e-05 2.858e-06 0.00029992
0.00180174 -5.91809e-05 -4.13364e-06
-5.91809e-05 0.000222691 -2.66485e-07
-4.13364e-06 -2.66485e-07 0.000105654
0.00169442 -0.000163561 -3.6375e-06
-0.000163561 0.00018428 7.86929e-07
-3.6375e-06 7.86929e-07 3.65229e-05
0.000656358 -0.000141573 -2.11486e-05
-0.000141573 3.69845e-05 1.61371e-05
-2.11486e-05 1.61371e-05 -4.8775e-05
0.000738908 -0.000196264 -9.71329e-06
-0.000196264 2.20648e-05 7.0742e-06
-9.71329e-06 7.0742e-06 -0.00016125
0.00116908 -0.000296836 -5.50079e-06
-0.000296836 0.000109714 2.50193e-06
-5.50079e-06 2.50193e-06 -0.000121378
0.00174824 -0.000243232 -7.26027e-06
-0.000243232 0.000261062 1.93958e-06
-7.26027e-06 1.93958e-06 8.6514e-05
0.00193206 -0.000252097 7.16288e-07
-0.000252097 0.000197099 -1.40773e-06
7.16288e-07 -1.40773e-06 6.33886e-05
0.00177327 -0.000328029 -5.62549e-07
-0.000328029 0.000194614 -9.35019e-07
-5.62549e-07 -9.35019e-07 9.18422e-06
0.00190221 -0.000417688 -3.62413e-06
-0.000417688 0.000368939 -1.74465e-06
-3.62413e-06 -1.74465e-06 0.000122346
0.00183939 -0.000381619 3.51395e-06
-0.000381619 0.000205484 -2.78591e-06
3.51395e-06 -2.78591e-06 1.45292e-05
0.000863172 -0.000155277 -3.15657e-06
-0.000155277 0.000194573 5.4529e-06
-3.15657e-06 5.4529e-06 2.02146e-05
0.000336591 -0.000106531 1.35169e-06
-0.000106531 -0.000109268 -1.70513e-06
1.35169e-06 -1.70513e-06 -0.000315277
0.000716709 -8.10947e-05 -3.4206e-07
-8.10947e-05 0.00011066 4.49596e-06
-3.4206e-07 4.49596e-06 -1.99551e-05
0.00161786 -2.53555e-05 -1.53959e-06
-2.53555e-05 0.000115755 1.62974e-07
-1.53959e-06 1.62974e-07 -3.06565e-06
0.00177603 -0.000119963 -2.93292e-06
-0.000119963 0.000210861 4.34648e-07
-2.93292e-06 4.34648e-07 8.16779e-05
0.00182898 -8.69894e-05 2.30819e-06
-8.69894e-05 8.72681e-05 1.75144e-07
2.30819e-06 1.75144e-07 -1.42554e-06
0.00180741 -0.000197698 -2.00856e-06
-0.000197698 0.000107073 5.90692e-07
-2.00856e-06 5.90692e-07 -1.66211e-05
0.000766845 -0.000196853 2.28042e-07
-0.000196853 0.000110585 -1.92848e-07
2.28042e-07 -1.92848e-07 -7.69631e-05
0.00112335 -0.000279986 -1.0575e-06
-0.000279986 0.000159525 1.82927e-08
-1.0575e-06 1.82927e-08 -7.03146e-05
0.00149161 -0.000412428 2.24181e-06
-0.000412428 0.000234006 -6.84687e-08
2.24181e-06 -6.84687e-08 -4.62582e-05
0.001701 -0.00029114 -1.2712e-06
-0.00029114 0.00011023 7.44596e-07
-1.2712e-06 7.44596e-07 -5.38217e-05
0.00193991 -0.000270825 1.74154e-06
-0.000270825 0.000154413 -4.52815e-07
1.74154e-06 -4.52815e-07 4.52866e-05
0.00187786 -0.000444891 -6.26953e-07
-0.000444891 0.000286632 3.72628e-07
-6.26953e-07 3.72628e-07 4.21759e-05
0.00182488 -0.000353712 1.01297e-07
-0.000353712 0.00015841 4.73363e-07
1.01297e-07 4.73363e-07 -4.69014e-06
0.00208426 -0.000403095 2.03324e-06
-0.000403095 0.000342473 -4.52676e-07
2.03324e-06 -4.52676e-07 0.000170496
0.00102338 -0.000225955 1.71166e-07
-0.000225955 0.000257667 9.00762e-07
1.71166e-07 9.00762e-07 4.55895e-05
0.0011705 -0.000252654 -4.34068e-07
-0.000252654 0.0003601 2.38147e-07
-4.34068e-07 2.38147e-07 0.000128055
0.000628239 -5.40966e-05 -3.1574e-07
-5.40966e-05 6.65727e-05 1.06096e-07
-3.1574e-07 1.06096e-07 -4.21948e-05
0.000309677 -5.85608e-05 2.49963e-08
-5.85608e-05 -9.86042e-05 -1.02777e-06
2.49963e-08 -1.02777e-06 -0.000291145
0.00183022 -4.61352e-05 -1.2889e-06
-4.61352e-05 8.3837e-05 6.29648e-07
-1.2889e-06 6.29648e-07 2.27482e-06
0.00181878 -0.000143279 4.02688e-07
-0.000143279 9.08999e-05 1.12668e-06
4.02688e-07 1.12668e-06 -1.50717e-05
0.00180529 -9.46777e-05 4.6096e-06
-9.46777e-05 3.40482e-05 -4.84968e-07
4.6096e-06 -4.84968e-07 -2.71698e-05
0.00188298 -0.000221982 -1.91128e-06
-0.000221982 7.78155e-05 2.24036e-07
-1.91128e-06 2.24036e-07 -6.5775e-06
0.00177148 -0.000313992 -3.2343e-06
-0.000313992 9.11021e-05 1.82428e-06
-3.2343e-06 1.82428e-06 -4.33944e-05
0.00193657 -0.000282069 3.96349e-06
-0.000282069 0.000134181 -1.56404e-06
3.96349e-06 -1.56404e-06 3.64497e-05
0.00116142 -0.000266329 2.04683e-06
-0.000266329 0.000265977 -4.66263e-06
2.04683e-06 -4.66263e-06 4.27526e-05
0.00170603 -0.000363475 -3.93598e-06
-0.000363475 7.08196e-05 1.64722e-06
-3.93598e-06 1.64722e-06 -6.95522e-05
0.00155512 -0.000398423 2.88681e-06
-0.000398423 0.000376785 -3.04417e-06
2.88681e-06 -3.04417e-06 9.11038e-05
0.00174798 -0.000493242 -1.79433e-06
-0.000493242 0.000315202 2.23908e-06
-1.79433e-06 2.23908e-06 1.21499e-05
0.00183442 -0.000452103 2.41525e-06
-0.000452103 0.00021457 4.5652e-06
2.41525e-06 4.5652e-06 -2.35047e-05
0.00219544 -0.000406084 2.46318e-07
-0.000406084 0.000394934 -2.00222e-07
2.46318e-07 -2.00222e-07 0.000224999
0.000521525 -5.01031e-05 -1.97585e-07
-5.01031e-05 4.51182e-06 -4.08056e-06
-1.97585e-07 -4.08056e-06 -8.8217e-05
0.000466195 -6.75958e-05 -3.96239e-06
-6.75958e-05 6.61163e-06 -4.37378e-07
-3.96239e-06 -4.37378e-07 -0.000163802
0.000887367 -0.000250886 -1.95986e-06
-0.000250886 0.000120989 5.67878e-08
-1.95986e-06 5.67878e-08 -0.000101649
0.00084496 -0.000175075 -2.47342e-06
-0.000175075 0.000236894 4.71754e-06
-2.47342e-06 4.71754e-06 1.10133e-05
0.0017558 -0.000333493 -8.45647e-06
-0.000333493 0.000694192 4.15226e-06
-8.45647e-06 4.15226e-06 0.000451389
0.000429352 -6.20557e-05 -3.36502e-07
-6.20557e-05 -6.39166e-05 -5.90173e-06
-3.36502e-07 -5.90173e-06 -9.69434e-05
0.00154347 0.000244815 -4.21777e-06
0.000244815 0.000113524 -1.07342e-06
-4.21777e-06 -1.07342e-06 -6.65598e-05
0.00057841 -1.93298e-05 2.74481e-07
-1.93298e-05 3.12337e-05 -4.91343e-06
2.74481e-07 -4.91343e-06 -6.31545e-05
0.000585439 0.000131864 -2.91074e-06
0.000131864 3.07449e-05 -4.32963e-06
-2.91074e-06 -4.32963e-06 -0.000130689
0.000446124 9.39423e-05 1.66837e-06
9.39423e-05 -1.50669e-05 1.73593e-07
1.66837e-06 1.73593e-07 -0.000206201
0.00139368 0.000294096 -5.39953e-06
0.000294096 0.000141255 -1.56707e-06
-5.39953e-06 -1.56707e-06 -7.15332e-05
0.00177489 0.000350016 7.28698e-08
0.000350016 0.000191235 8.2626e-07
7.28698e-08 8.2626e-07 -9.71599e-06
0.00111178 0.000254651 -2.86414e-06
0.000254651 0.000241192 -3.74006e-06
-2.86414e-06 -3.74006e-06 1.32774e-05
0.00138943 0.000341853 -1.63994e-06
0.000341853 0.000249006 -2.46457e-06
-1.63994e-06 -2.46457e-06 -2.23488e-05
0.00172116 0.000391696 -1.38067e-07
0.000391696 0.0003088 6.28058e-07
-1.38067e-07 6.28058e-07 6.76224e-05
0.00174311 0.000396846 -1.45661e-06
0.000396846 0.000307386 6.26182e-06
-1.45661e-06 6.26182e-06 5.88928e-05
0.000515195 -4.82612e-05 1.34062e-07
-4.82612e-05 -2.93218e-05 -4.00321e-09
1.34062e-07 -4.00321e-09 -5.43544e-05
0.000616176 -8.22089e-06 -6.62593e-07
-8.22089e-06 4.58436e-05 4.77769e-07
-6.62593e-07 4.77769e-07 -3.0924e-05
0.000977353 0.000213968 2.22273e-07
0.000213968 0.000240526 9.1289e-07
2.22273e-07 9.1289e-07 3.45509e-05
0.000678522 4.38457e-05 -7.82345e-07
4.38457e-05 0.000132482 -1.00462e-07
-7.82345e-07 -1.00462e-07 -2.63241e-05
0.000643976 0.000150025 6.93234e-07
0.000150025 6.2415e-05 -1.81732e-07
6.93234e-07 -1.81732e-07 -0.000135079
0.00184757 0.00031217 -6.49467e-07
0.00031217 0.000178269 -1.13842e-06
-6.49467e-07 -1.13842e-06 3.86348e-06
0.00172835 0.000389214 5.38756e-07
0.000389214 0.000227601 1.23237e-07
5.38756e-07 1.23237e-07 3.132e-07
0.00181668 0.000385291 1.69432e-06
0.000385291 0.000184518 2.46128e-07
1.69432e-06 2.46128e-07 -8.98087e-06
0.00131722 0.000321645 1.51051e-06
0.000321645 0.000308093 9.26724e-07
1.51051e-06 9.26724e-07 4.43354e-05
0.00190893 0.00046144 1.54481e-06
0.00046144 0.000335424 3.87231e-08
1.54481e-06 3.87231e-08 8.40316e-05
0.00148833 0.00037958 -2.07173e-06
0.00037958 0.000257941 -3.70318e-08
-2.07173e-06 -3.70318e-08 -2.0603e-05
0.000682487 6.42671e-06 1.64015e-06
6.42671e-06 7.62934e-05 3.2435e-06
1.64015e-06 3.2435e-06 1.26097e-05
0.000989012 9.01642e-05 9.72102e-07
9.01642e-05 0.000307664 2.4889e-06
9.72102e-07 2.4889e-06 0.000179816
0.00095778 0.000255414 -2.75411e-06
0.000255414 0.000164252 -1.62709e-06
-2.75411e-06 -1.62709e-06 -5.30312e-05
0.00144174 0.000119608 -8.92758e-07
0.000119608 0.000602708 5.5673e-07
-8.92758e-07 5.5673e-07 0.000405583
0.00118636 0.000179784 -7.47874e-06
0.000179784 0.000333193 -6.14287e-06
-7.47874e-06 -6.14287e-06 0.000154539
0.00185432 0.000323109 -3.16203e-06
0.000323109 0.000154642 -2.63872e-06
-3.16203e-06 -2.63872e-06 -1.58416e-06
0.00188296 0.000441443 3.1183e-07
0.000441443 0.000268886 2.98917e-07
3.1183e-07 2.98917e-07 4.08957e-05
0.00163775 0.000413368 3.58234e-06
0.000413368 4.70978e-05 -5.16242e-07
3.58234e-06 -5.16242e-07 -0.000144862
0.00032874 0.000256469 -8.43544e-07
0.000256469 -0.00027017 1.20819e-06
-8.43544e-07 1.20819e-06 -0.000542121
0.00136096 0.000413043 7.20818e-06
0.000413043 9.81721e-05 -1.53583e-06
7.20818e-06 -1.53583e-06 -0.000167193
0.000599795 5.90252e-06 -1.93331e-07
5.90252e-06 2.3357e-05 5.01649e-08
-1.93331e-07 5.01649e-08 -3.35344e-05
0.000523423 3.44182e-05 1.27787e-06
3.44182e-05 -1.90902e-06 1.84523e-06
1.27787e-06 1.84523e-06 -9.16398e-05
0.000511852 2.82814e-05 -6.14674e-07
2.82814e-05 -6.90736e-06 -1.63008e-07
-6.14674e-07 -1.63008e-07 -9.44371e-05
0.000936405 0.000111367 1.03601e-07
0.000111367 0.000263139 -8.98788e-07
1.03601e-07 -8.98788e-07 0.000151961
0.000668728 8.56186e-05 2.0451e-06
8.56186e-05 0.00010035 1.80619e-06
2.0451e-06 1.80619e-06 5.54788e-06
0.000581316 4.08101e-05 2.56315e-06
4.08101e-05 2.62385e-05 2.76266e-06
2.56315e-06 2.76266e-06 -3.00708e-05
0.000578107 -8.79852e-07 -6.12105e-07
-8.79852e-07 1.85063e-05 -2.37929e-08
-6.12105e-07 -2.37929e-08 -3.68019e-05
0.00124218 -3.56059e-05 9.9677e-07
-3.56059e-05 0.000398765 2.72364e-06
9.9677e-07 2.72364e-06 0.000385019
0.000589412 -2.97687e-06 -1.56834e-06
-2.97687e-06 1.82226e-05 -2.75654e-06
-1.56834e-06 -2.75654e-06 -3.60122e-05
0.00129882 -4.58107e-05 -5.92688e-06
-4.58107e-05 0.000435362 -1.44926e-06
-5.92688e-06 -1.44926e-06 0.000420192
0.000839993 -4.09733e-05 2.51705e-05
-4.09733e-05 0.000163305 7.94882e-06
2.51705e-05 7.94882e-06 0.000167082
0.00131893 -5.52936e-05 -1.01946e-05
-5.52936e-05 0.000452783 -4.15099e-06
-1.01946e-05 -4.15099e-06 0.000435271
0.00160534 -7.20911e-05 2.26121e-05
-7.20911e-05 0.000639671 1.82655e-06
2.26121e-05 1.82655e-06 0.000643128
0.00239652 -0.000105192 -3.04403e-05
-0.000105192 0.00113099 -3.65959e-06
-3.04403e-05 -3.65959e-06 0.00113447
0.000405126 7.24069e-05 -3.9558e-06
7.24069e-05 -6.72432e-05 -6.08617e-06
-3.9558e-06 -6.08617e-06 -0.000104992
0.000483116 5.48201e-06 4.1847e-07
5.48201e-06 -2.90351e-05 4.70447e-07
4.1847e-07 4.70447e-07 -7.06218e-05
0.00289206 0.000138718 2.82535e-05
0.000138718 0.00144705 -4.0248e-06
2.82535e-05 -4.0248e-06 0.00143996
0.0034818 0.00011296 -8.58571e-06
0.00011296 0.00180631 -6.13286e-07
-8.58571e-06 -6.13286e-07 0.00180509
0.000598469 -2.70782e-05 -7.62699e-06
-2.70782e-05 3.09802e-05 9.90981e-06
-7.62699e-06 9.90981e-06 -1.88469e-05
0.00416867 0.000107598 -0.000140006
0.000107598 0.0022254 1.00208e-05
-0.000140006 1.00208e-05 0.0022236
0.00157309 0.000206429 -3.41794e-06
0.000206429 9.61802e-05 -1.63212e-07
-3.41794e-06 -1.63212e-07 -6.58894e-05
0.00156885 0.000114694 -1.44278e-06
0.000114694 6.92564e-05 1.73271e-07
-1.44278e-06 1.73271e-07 -6.37746e-05
0.00185906 0.000204808 -1.05929e-06
0.000204808 0.000126118 1.52257e-06
-1.05929e-06 1.52257e-06 2.44141e-06
0.00187893 9.88862e-05 2.21512e-07
9.88862e-05 9.42587e-05 9.88383e-07
2.21512e-07 9.88383e-07 1.27534e-05
0.00152129 3.99826e-05 -8.60117e-07
3.99826e-05 5.19537e-05 1.79292e-07
-8.60117e-07 1.79292e-07 -6.64731e-05
0.000982138 5.93005e-06 -1.19877e-05
5.93005e-06 -4.18334e-05 -6.2e-08
-1.19877e-05 -6.2e-08 -0.000164841
0.00151832 6.30526e-06 6.59803e-08
6.30526e-06 5.34784e-05 6.62556e-08
6.59803e-08 6.62556e-08 -6.36093e-05
0.00187664 4.30782e-05 -1.62878e-06
4.30782e-05 0.00010142 -7.05412e-08
-1.62878e-06 -7.05412e-08 2.76716e-05
0.00187132 0.000155749 -4.0102e-07
0.000155749 0.000106362 1.38443e-07
-4.0102e-07 1.38443e-07 2.81114e-06
0.00184126 0.000100574 2.07659e-06
0.000100574 2.58438e-05 4.9373e-07
2.07659e-06 4.9373e-07 -2.84581e-05
0.00187038 0.000261933 -3.16182e-07
0.000261933 0.000155215 -1.42314e-07
-3.16182e-07 -1.42314e-07 7.35974e-06
0.00185042 0.000220793 -3.42925e-07
0.000220793 5.38809e-05 7.20888e-07
-3.42925e-07 7.20888e-07 -3.83849e-05
0.00186834 1.03024e-07 -1.19303e-06
1.03024e-07 0.000105375 1.9281e-07
-1.19303e-06 1.9281e-07 3.20184e-05
0.00184732 4.68454e-05 5.54107e-06
4.68454e-05 3.47602e-05 4.15749e-07
5.54107e-06 4.15749e-07 -1.09901e-05
0.00185663 0.000160812 1.73842e-06
0.000160812 3.81029e-05 4.13043e-07
1.73842e-06 4.13043e-07 -3.02766e-05
0.00192383 0.000102537 6.09269e-06
0.000102537 4.89482e-05 1.07227e-06
6.09269e-06 1.07227e-06 1.49799e-05
0.0018509 0.000259492 2.82405e-07
0.000259492 0.000103573 -1.9047e-06
2.82405e-07 -1.9047e-06 -1.72117e-05
0.00185812 0.000225886 4.02814e-06
0.000225886 1.94574e-05 1.20896e-06
4.02814e-06 1.20896e-06 -5.62982e-05
0.00155681 -2.26303e-05 -2.5015e-06
-2.26303e-05 7.79757e-05 -1.19479e-07
-2.5015e-06 -1.19479e-07 -4.01193e-05
0.00178736 -0.000125971 -5.33119e-06
-0.000125971 0.000216011 3.94621e-07
-5.33119e-06 3.94621e-07 8.59675e-05
0.00186753 -8.62928e-05 2.10218e-06
-8.62928e-05 0.000111046 -1.71804e-06
2.10218e-06 -1.71804e-06 2.78567e-05
0.00178779 -0.000193369 -8.85929e-07
-0.000193369 9.62922e-05 -1.25306e-07
-8.85929e-07 -1.25306e-07 -2.91004e-05
0.000837651 -0.000216594 -6.14966e-06
-0.000216594 0.000159033 7.24458e-06
-6.14966e-06 7.24458e-06 -3.24188e-05
0.0010886 -0.000279454 -7.11064e-06
-0.000279454 0.000129872 4.28885e-06
-7.11064e-06 4.28885e-06 -0.000100055
0.00134576 -0.000393172 6.65442e-07
-0.000393172 0.000159067 2.66866e-08
6.65442e-07 2.66866e-08 -0.000118251
0.00171606 -0.000290318 -1.00306e-06
-0.000290318 0.000122611 -3.57683e-08
-1.00306e-06 -3.57683e-08 -4.56789e-05
0.00193597 -0.000271432 1.70659e-06
-0.000271432 0.00014823 -1.28626e-06
1.70659e-06 -1.28626e-06 4.29116e-05
0.00184357 -0.000353597 2.49545e-06
-0.000353597 0.000170614 -9.65059e-07
2.49545e-06 -9.65059e-07 7.65734e-06
0.00180681 -0.000448349 -5.58776e-07
-0.000448349 0.000237022 -2.24646e-06
-5.58776e-07 -2.24646e-06 -1.07752e-05
0.00207041 -0.000396797 5.86841e-06
-0.000396797 0.000331189 -5.95018e-06
5.86841e-06 -5.95018e-06 0.000163467
0.000918816 -0.000218598 1.13478e-06
-0.000218598 0.000192404 1.43984e-06
1.13478e-06 1.43984e-06 -1.92353e-05
0.000325815 -0.000160499 2.27258e-06
-0.000160499 -0.000159063 3.72789e-07
2.27258e-06 3.72789e-07 -0.000374332
0.00068419 -6.09848e-05 -3.07342e-07
-6.09848e-05 9.68527e-05 4.01044e-06
-3.07342e-07 4.01044e-06 -1.28042e-05
0.000157938 -2.76655e-05 2.85403e-06
-2.76655e-05 -0.000198832 -3.70493e-06
2.85403e-06 -3.70493e-06 -0.00037755
0.00184247 -4.60567e-05 7.43808e-08
-4.60567e-05 9.22549e-05 2.67364e-07
7.43808e-08 2.67364e-07 1.06004e-05
0.00181178 -0.000143419 1.24545e-06
-0.000143419 9.0729e-05 -4.50757e-07
1.24545e-06 -4.50757e-07 -1.72625e-05
0.00181471 -9.39592e-05 2.26982e-06
-9.39592e-05 4.02235e-05 -6.22414e-07
2.26982e-06 -6.22414e-07 -1.78433e-05
0.00186668 -0.000219851 -2.03778e-06
-0.000219851 7.28299e-05 5.91049e-07
-2.03778e-06 5.91049e-07 -1.44409e-05
0.00102035 -0.000245439 -1.72936e-06
-0.000245439 0.000185325 -1.26809e-07
-1.72936e-06 -1.26809e-07 -3.39976e-05
0.00114878 -0.000352026 1.73838e-06
-0.000352026 0.000135522 -1.3121e-06
1.73838e-06 -1.3121e-06 -0.000139798
0.00166886 -0.000493045 -1.11003e-07
-0.000493045 0.000264371 5.38378e-07
-1.11003e-07 5.38378e-07 -4.21539e-05
0.00175261 -0.000310962 -1.59502e-06
-0.000310962 8.76543e-05 8.05349e-07
-1.59502e-06 8.05349e-07 -5.04681e-05
0.0018805 -0.000280639 1.60903e-06
-0.000280639 0.000102692 -8.72277e-07
1.60903e-06 -8.72277e-07 7.3603e-06
0.00180957 -0.00045398 -2.67371e-07
-0.00045398 0.000210379 5.50652e-07
-2.67371e-07 5.50652e-07 -2.9574e-05
0.00175871 -0.000367795 -7.53824e-07
-0.000367795 9.47381e-05 1.14694e-06
-7.53824e-07 1.14694e-06 -4.64636e-05
0.0020034 -0.000391353 3.69153e-06
-0.000391353 0.000271879 -5.71213e-06
3.69153e-06 -5.71213e-06 0.000108442
0.00117521 -0.000280165 3.59119e-07
-0.000280165 0.000289771 1.1017e-06
3.59119e-07 1.1017e-06 6.22128e-05
0.0013974 -0.000292978 5.60482e-06
-0.000292978 0.000465605 1.95679e-06
5.60482e-06 1.95679e-06 0.000235742
0.000828979 -0.000145442 -2.23409e-07
-0.000145442 0.000225268 -8.79839e-08
-2.23409e-07 -8.79839e-08 -2.99199e-06
0.000426244 -2.04815e-05 -1.74759e-06
-2.04815e-05 -5.35418e-05 5.88461e-07
-1.74759e-06 5.88461e-07 -0.000147143
0.000236542 -2.29318e-05 -3.38189e-07
-2.29318e-05 -0.000137452 -4.84257e-07
-3.38189e-07 -4.84257e-07 -0.000298907
0.00184834 -5.54013e-05 4.36209e-06
-5.54013e-05 3.70313e-05 -6.50083e-07
4.36209e-06 -6.50083e-07 -4.05759e-06
0.00189338 -0.000138542 4.527e-06
-0.000138542 7.26592e-05 -7.67894e-07
4.527e-06 -7.67894e-07 1.27198e-05
0.00194414 -0.000266181 2.59529e-06
-0.000266181 7.27086e-05 -1.63529e-06
2.59529e-06 -1.63529e-06 2.9212e-06
0.00177097 -0.000314793 5.51534e-07
-0.000314793 5.90372e-05 -1.30282e-06
5.51534e-07 -1.30282e-06 -4.67725e-05
0.0013638 -0.000321242 -9.77421e-07
-0.000321242 0.000343366 -4.48747e-06
-9.77421e-07 -4.48747e-06 9.25654e-05
0.00217838 -0.000443046 -4.99252e-07
-0.000443046 0.000275218 -1.22618e-06
-4.99252e-07 -1.22618e-06 0.000126785
0.0016162 -0.000469132 8.27909e-07
-0.000469132 0.000396896 -3.16941e-06
8.27909e-07 -3.16941e-06 7.23662e-05
0.0018197 -0.000548076 -6.35845e-08
-0.000548076 0.00031595 1.09022e-06
-6.35845e-08 1.09022e-06 -4.87126e-06
0.00179703 -0.000442543 8.64921e-07
-0.000442543 0.000184478 3.10577e-06
8.64921e-07 3.10577e-06 -4.7815e-05
0.000141131 4.12261e-06 -1.01108e-06
4.12261e-06 -0.000223887 -3.8736e-06
-1.01108e-06 -3.8736e-06 -0.000300412
0.000738959 -6.5219e-05 -1.10174e-06
-6.5219e-05 0.000179401 -9.24051e-08
-1.10174e-06 -9.24051e-08 3.20815e-05
0.000994933 -9.80029e-05 -2.63094e-06
-9.80029e-05 0.00032498 1.15782e-06
-2.63094e-06 1.15782e-06 0.000130679
0.00170932 -0.00035009 -9.75537e-06
-0.00035009 0.000582914 -7.46678e-07
-9.75537e-06 -7.46678e-07 0.000336621
0.00052939 -0.000150431 2.53896e-06
-0.000150431 2.4593e-05 6.34114e-06
2.53896e-06 6.34114e-06 -0.000213757
0.000798127 -0.000260682 -3.86519e-06
-0.000260682 7.04628e-05 1.41702e-07
-3.86519e-06 1.41702e-07 -0.000158486
0.000517054 -4.75007e-05 -1.04312e-06
-4.75007e-05 -2.91556e-05 -5.1406e-06
-1.04312e-06 -5.1406e-06 -5.37751e-05
0.000567318 -1.18436e-05 -1.1481e-06
-1.18436e-05 1.97038e-05 -3.8972e-06
-1.1481e-06 -3.8972e-06 -5.70139e-05
0.00182047 0.000311963 -1.90118e-06
0.000311963 0.000159918 -3.79785e-07
-1.90118e-06 -3.79785e-07 -1.48612e-05
0.000102762 -4.39222e-05 1.4676e-06
-4.39222e-05 -0.000216117 -2.13984e-06
1.4676e-06 -2.13984e-06 -0.000366725
0.000864225 0.000206373 -1.07212e-06
0.000206373 0.000178117 -2.54262e-07
-1.07212e-06 -2.54262e-07 -2.56331e-05
6.04866e-05 8.58139e-05 2.57071e-06
8.58139e-05 -0.000302382 9.82967e-07
2.57071e-06 9.82967e-07 -0.000484784
0.00169273 0.00038696 6.78582e-07
0.00038696 0.000205336 5.76526e-07
6.78582e-07 5.76526e-07 -2.18525e-05
0.00174617 0.000381422 9.85668e-07
0.000381422 0.000146116 3.12288e-07
9.85668e-07 3.12288e-07 -4.751e-05
0.00140444 0.000326641 1.19616e-06
0.000326641 0.000371317 -1.25207e-07
1.19616e-06 -1.25207e-07 0.000105672
0.00213876 0.00043673 -1.48248e-06
0.00043673 0.00064948 -1.25845e-07
-1.48248e-06 -1.25845e-07 0.000364527
0.00176123 0.000446823 -9.75315e-07
0.000446823 0.000230431 9.49176e-07
-9.75315e-07 9.49176e-07 -2.00911e-05
0.000592014 7.25861e-06 -4.36085e-07
7.25861e-06 2.2689e-05 4.40897e-07
-4.36085e-07 4.40897e-07 -4.0526e-05
0.00071025 1.89169e-05 -7.23877e-07
1.89169e-05 0.0001361 2.61779e-07
-7.23877e-07 2.61779e-07 1.66235e-05
0.00109967 0.0002708 -1.2484e-06
0.0002708 0.000250543 -4.94857e-07
-1.2484e-06 -4.94857e-07 2.83189e-05
0.00083882 6.85453e-05 3.99231e-07
6.85453e-05 0.000231467 4.00414e-07
3.99231e-07 4.00414e-07 4.57969e-05
0.000762364 0.000181651 2.87443e-06
0.000181651 9.68231e-05 1.35144e-06
2.87443e-06 1.35144e-06 -8.70965e-05
0.00182455 0.000324235 -2.17949e-06
0.000324235 0.00013868 -1.6591e-06
-2.17949e-06 -1.6591e-06 -1.85748e-05
0.00184993 0.000438088 1.67609e-06
0.000438088 0.000249028 5.18505e-07
1.67609e-06 5.18505e-07 2.13404e-05
0.00173825 0.0004143 4.98325e-07
0.0004143 0.000108055 -1.22852e-07
4.98325e-07 -1.22852e-07 -8.24466e-05
0.00095837 0.000331471 2.12884e-06
0.000331471 9.16113e-05 3.43152e-06
2.12884e-06 3.43152e-06 -0.00019113
0.00165378 0.000440596 -2.49068e-06
0.000440596 0.000284551 -1.63053e-06
-2.49068e-06 -1.63053e-06 1.23344e-05
0.000772956 4.41136e-05 1.3102e-07
4.41136e-05 0.000162886 2.16333e-06
1.3102e-07 2.16333e-06 5.96173e-05
0.000248702 -5.16497e-06 -1.64405e-06
-5.16497e-06 -0.000120687 1.5742e-06
-1.64405e-06 1.5742e-06 -0.000265778
0.000765835 0.000259407 -4.39527e-06
0.000259407 1.30214e-06 -2.52152e-06
-4.39527e-06 -2.52152e-06 -0.000219328
0.000702726 0.000154185 -6.60161e-06
0.000154185 0.000158784 -4.54734e-06
-6.60161e-06 -4.54734e-06 -4.42234e-05
0.000786278 0.000240058 -2.34173e-06
0.000240058 6.32285e-05 -3.21087e-06
-2.34173e-06 -3.21087e-06 -0.000122027
0.00173599 0.000348244 -4.58053e-07
0.000348244 2.04948e-05 -1.72154e-06
-4.58053e-07 -1.72154e-06 -0.00011599
0.0019927 0.000482183 3.65504e-06
0.000482183 0.000316383 -1.7443e-06
3.65504e-06 -1.7443e-06 7.42584e-05
0.00164586 0.000431436 2.74186e-06
0.000431436 4.23927e-05 3.92541e-07
2.74186e-06 3.92541e-07 -0.000154939
0.000940915 0.000338135 2.08673e-06
0.000338135 4.75671e-05 6.08605e-06
2.08673e-06 6.08605e-06 -0.000246982
0.00168118 0.000475676 -1.3384e-06
0.000475676 0.000309158 -7.83321e-07
-1.3384e-06 -7.83321e-07 2.59521e-05
0.000580989 -3.42909e-06 -1.77772e-06
-3.42909e-06 1.18696e-05 -2.88127e-06
-1.77772e-06 -2.88127e-06 -4.49295e-05
0.000579321 3.92643e-05 1.13971e-06
3.92643e-05 3.35783e-05 3.92347e-07
1.13971e-06 3.92347e-07 -5.67962e-05
0.000478182 2.35991e-05 -6.67236e-08
2.35991e-05 -3.13298e-05 9.06142e-07
-6.67236e-08 9.06142e-07 -0.000123296
0.0003773 -2.3508e-05 -7.31617e-07
-2.3508e-05 -8.58216e-05 -1.79703e-06
-7.31617e-07 -1.79703e-06 -0.000173505
0.000634528 4.62406e-05 -2.93226e-07
4.62406e-05 7.91818e-05 -4.35674e-09
-2.93226e-07 -4.35674e-09 -1.39546e-05
0.000667877 6.4546e-05 -5.94857e-07
6.4546e-05 8.93852e-05 -2.8191e-07
-5.94857e-07 -2.8191e-07 -9.73746e-06
0.000787187 9.89307e-05 -1.60622e-06
9.89307e-05 0.000170927 -2.8198e-06
-1.60622e-06 -2.8198e-06 6.48986e-05
0.00042647 -2.61975e-06 1.14776e-06
-2.61975e-06 -3.7393e-05 -7.92787e-08
1.14776e-06 -7.92787e-08 -0.000149419
0.000680291 7.4318e-05 1.00214e-06
7.4318e-05 0.00010335 2.07759e-06
1.00214e-06 2.07759e-06 1.4079e-05
0.000603588 4.8605e-05 2.95622e-06
4.8605e-05 4.43578e-05 2.77318e-06
2.95622e-06 2.77318e-06 -1.40328e-05
0.000580137 8.73933e-06 -1.66478e-06
8.73933e-06 2.47947e-05 -6.90943e-09
-1.66478e-06 -6.90943e-09 -3.1011e-05
0.00124459 -2.25124e-05 1.1728e-06
-2.25124e-05 0.000400721 2.63147e-06
1.1728e-06 2.63147e-06 0.00038795
0.000529657 -5.03951e-05 4.28939e-07
-5.03951e-05 -6.17229e-06 -2.76671e-06
4.28939e-07 -2.76671e-06 -6.39095e-05
0.00129601 -3.20604e-05 -5.16696e-06
-3.20604e-05 0.000431208 -1.50183e-06
-5.16696e-06 -1.50183e-06 0.000417892
0.00082282 -3.22544e-05 2.15253e-05
-3.22544e-05 0.000148328 8.29336e-06
2.15253e-05 8.29336e-06 0.000153851
0.00134176 -4.33671e-05 -9.21692e-06
-4.33671e-05 0.000461195 -5.82316e-06
-9.21692e-06 -5.82316e-06 0.000446304
0.000791083 -4.25097e-05 7.81947e-06
-4.25097e-05 0.000132867 3.10418e-06
7.81947e-06 3.10418e-06 0.00013582
0.00232445 -9.85483e-05 -3.97606e-06
-9.85483e-05 0.00107873 -2.15069e-06
-3.97606e-06 -2.15069e-06 0.00108359
0.000446799 4.98258e-05 -1.69107e-06
4.98258e-05 -5.98234e-05 -4.08143e-06
-1.69107e-06 -4.08143e-06 -8.39491e-05
0.000468926 3.64275e-05 -2.22135e-06
3.64275e-05 -3.75145e-05 -4.91946e-08
-2.22135e-06 -4.91946e-08 -7.06256e-05
0.00255514 0.000114519 2.20435e-05
0.000114519 0.00123518 -3.87979e-06
2.20435e-05 -3.87979e-06 0.00123478
0.000589211 -1.47571e-05 -5.66488e-06
-1.47571e-05 2.90532e-05 8.06323e-06
-5.66488e-06 8.06323e-06 -1.06127e-05
0.00307262 0.00012958 -2.78109e-05
0.00012958 0.00155472 -1.09423e-06
-2.78109e-05 -1.09423e-06 0.00155017
0.00364175 9.76187e-05 -0.000115827
9.76187e-05 0.0019005 7.54836e-06
-0.000115827 7.54836e-06 0.00190271
0.00183895 0.000262209 -2.13311e-06
0.000262209 0.000131511 8.8668e-07
-2.13311e-06 8.8668e-07 -1.69403e-05
0.00184837 0.000152231 2.94571e-07
0.000152231 9.39656e-05 1.59493e-06
2.94571e-07 1.59493e-06 -9.09928e-06
0.0018844 0.00021719 -2.23306e-07
0.00021719 7.43159e-05 1.8696e-06
-2.23306e-07 1.8696e-06 -1.33797e-05
0.00185483 9.97127e-05 -1.3538e-06
9.97127e-05 2.97587e-05 -3.76669e-07
-1.3538e-06 -3.76669e-07 -1.97333e-05
0.00185079 3.62332e-05 -1.4533e-06
3.62332e-05 8.57567e-05 2.99449e-07
-1.4533e-06 2.99449e-07 1.20055e-05
0.00152098 9.1479e-06 -6.26836e-07
9.1479e-06 5.65331e-05 8.05529e-08
-6.26836e-07 8.05529e-08 -6.05438e-05
0.00184384 8.95442e-07 -1.54875e-06
8.95442e-07 8.97941e-05 5.62558e-08
-1.54875e-06 5.62558e-08 1.40126e-05
0.00184703 4.48732e-05 1.94181e-06
4.48732e-05 3.80246e-05 8.83867e-08
1.94181e-06 8.83867e-08 -9.56394e-06
0.00190387 0.000161214 -6.60916e-07
0.000161214 6.88685e-05 -1.3432e-07
-6.60916e-07 -1.3432e-07 -5.39136e-07
0.00189918 0.000103391 1.08665e-06
0.000103391 3.1541e-05 1.11034e-07
1.08665e-06 1.11034e-07 2.22357e-07
0.00183793 0.000256773 -8.24991e-07
0.000256773 0.000103749 -3.11415e-07
-8.24991e-07 -3.11415e-07 -1.64989e-05
0.00188328 0.000230793 3.24013e-06
0.000230793 3.49289e-05 1.29711e-06
3.24013e-06 1.29711e-06 -3.74479e-05
0.00185415 -6.30615e-06 4.78017e-06
-6.30615e-06 5.13272e-05 1.10968e-07
4.78017e-06 1.10968e-07 6.06228e-06
0.00189044 4.73377e-05 5.13355e-06
4.73377e-05 2.12037e-05 2.17379e-07
5.13355e-06 2.17379e-07 -1.89708e-06
0.00195629 0.000163022 4.03507e-06
0.000163022 4.0941e-05 1.31315e-06
4.03507e-06 1.31315e-06 3.24295e-06
0.00197295 0.000295903 1.6903e-07
0.000295903 9.8896e-05 1.48292e-07
1.6903e-07 1.48292e-07 6.65964e-06
0.00186119 -4.60445e-05 2.52183e-07
-4.60445e-05 0.000103845 -8.06701e-08
2.52183e-07 -8.06701e-08 2.2121e-05
0.00179082 -0.000144519 1.93871e-06
-0.000144519 8.1889e-05 -1.30388e-06
1.93871e-06 -1.30388e-06 -2.82564e-05
0.0018168 -9.28517e-05 4.65621e-07
-9.28517e-05 4.16899e-05 -9.99751e-07
4.65621e-07 -9.99751e-07 -1.32515e-05
0.00185328 -0.000217351 -3.07821e-06
-0.000217351 6.82788e-05 1.06273e-06
-3.07821e-06 1.06273e-06 -2.16113e-05
0.000986348 -0.000240938 -4.12565e-06
-0.000240938 0.0001694 4.05473e-06
-4.12565e-06 4.05473e-06 -5.05864e-05
0.000989885 -0.000330351 -1.99616e-07
-0.000330351 4.29289e-05 1.5074e-06
-1.99616e-07 1.5074e-06 -0.000226207
0.00163495 -0.000497163 2.16918e-06
-0.000497163 0.000241256 -1.61101e-06
2.16918e-06 -1.61101e-06 -6.97155e-05
0.00173389 -0.00030818 -5.63314e-07
-0.00030818 8.46855e-05 -1.06994e-07
-5.63314e-07 -1.06994e-07 -5.71002e-05
0.00182125 -0.000279308 7.31607e-07
-0.000279308 6.91662e-05 4.75035e-07
7.31607e-07 4.75035e-07 -2.36895e-05
0.00181736 -0.000372776 2.57454e-06
-0.000372776 0.000120434 6.38735e-07
2.57454e-06 6.38735e-07 -2.16859e-05
0.00178485 -0.000453331 -2.62789e-06
-0.000453331 0.000204418 -2.32434e-06
-2.62789e-06 -2.32434e-06 -3.65105e-05
0.00183397 -0.000377492 2.15643e-06
-0.000377492 0.000159781 -1.01971e-05
2.15643e-06 -1.01971e-05 2.86874e-06
0.00120364 -0.000283591 3.12101e-06
-0.000283591 0.000302774 1.84929e-06
3.12101e-06 1.84929e-06 7.49898e-05
0.000922061 -0.00024273 6.83111e-06
-0.00024273 0.000154736 6.84102e-08
6.83111e-06 6.84102e-08 -5.61705e-05
0.000664125 -0.000121125 3.74575e-06
-0.000121125 0.000126444 -6.05703e-06
3.74575e-06 -6.05703e-06 -0.000105661
0.000302815 1.37447e-06 2.62783e-07
1.37447e-06 -0.000128224 3.66703e-06
2.62783e-07 3.66703e-06 -0.000223576
0.000219999 1.50446e-05 3.21405e-06
1.50446e-05 -0.000151806 -3.61683e-07
3.21405e-06 -3.61683e-07 -0.000308349
0.00185288 -6.22598e-05 -5.00144e-07
-6.22598e-05 3.99002e-05 -1.22484e-07
-5.00144e-07 -1.22484e-07 -4.2004e-06
0.00187088 -0.000138519 1.5265e-06
-0.000138519 5.75817e-05 -5.2969e-07
1.5265e-06 -5.2969e-07 -3.81797e-06
0.00190488 -0.00025916 -1.49831e-06
-0.00025916 6.16895e-05 2.54222e-07
-1.49831e-06 2.54222e-07 -1.10584e-05
0.00121331 -0.000307174 -1.87787e-06
-0.000307174 0.000253307 2.26177e-08
-1.87787e-06 2.26177e-08 3.62517e-06
0.00108348 -0.000404359 9.69744e-07
-0.000404359 7.56756e-05 -1.30376e-06
9.69744e-07 -1.30376e-06 -0.000232782
0.00170652 -0.000540081 -1.99816e-07
-0.000540081 0.000254188 -3.04997e-07
-1.99816e-07 -3.04997e-07 -6.87037e-05
0.00178436 -0.000314821 4.50058e-07
-0.000314821 6.31096e-05 -5.01813e-08
4.50058e-07 -5.01813e-08 -4.3755e-05
0.0019096 -0.000451878 8.96293e-07
-0.000451878 0.000247633 -2.80427e-06
8.96293e-07 -2.80427e-06 2.11313e-05
0.00195161 -0.000422384 -5.92209e-07
-0.000422384 0.000163957 -9.58799e-07
-5.92209e-07 -9.58799e-07 1.73789e-05
0.000237425 4.13561e-05 -8.61052e-07
4.13561e-05 -0.000172968 -8.1467e-07
-8.61052e-07 -8.1467e-07 -0.000244317
0.00123946 -0.000302488 -9.36771e-07
-0.000302488 0.000284245 1.73229e-07
-9.36771e-07 1.73229e-07 4.89933e-05
0.00067138 -0.000243584 1.96303e-06
-0.000243584 1.26528e-06 2.63862e-06
1.96303e-06 2.63862e-06 -0.000210299
0.00104988 -0.000201986 -4.0061e-07
-0.000201986 0.000343594 4.25425e-07
-4.0061e-07 4.25425e-07 9.2875e-05
0.00116288 -0.000102949 7.65587e-07
-0.000102949 0.000427327 -2.20166e-06
7.65587e-07 -2.20166e-06 0.000233463
0.000546972 -1.29223e-05 -7.0309e-07
-1.29223e-05 5.30218e-05 9.24667e-07
-7.0309e-07 9.24667e-07 -8.8694e-05
0.00189523 -7.36697e-05 4.76105e-06
-7.36697e-05 3.02756e-05 -5.95123e-07
4.76105e-06 -5.95123e-07 7.25816e-06
0.00197484 -0.000179011 2.51853e-06
-0.000179011 2.48674e-05 -6.03715e-07
2.51853e-06 -6.03715e-07 1.78879e-07
0.00194964 -0.000308999 2.49665e-06
-0.000308999 6.17842e-05 -1.90536e-06
2.49665e-06 -1.90536e-06 7.54098e-06
0.0020959 -0.000388505 1.97846e-06
-0.000388505 0.000157703 -3.12638e-06
1.97846e-06 -3.12638e-06 5.79555e-05
0.0020568 -0.000431388 -3.55927e-06
-0.000431388 0.000724732 -4.71458e-06
-3.55927e-06 -4.71458e-06 0.000436656
0.00189706 -0.000476116 3.64461e-06
-0.000476116 0.000169789 2.6059e-06
3.64461e-06 2.6059e-06 -2.23258e-05
0.00138125 -0.000504954 -4.35668e-06
-0.000504954 0.000218838 1.47771e-06
-4.35668e-06 1.47771e-06 -0.000140625
0.00193629 -0.000580643 -4.99941e-06
-0.000580643 0.000393666 1.37814e-06
-4.99941e-06 1.37814e-06 5.29884e-05
0.000240576 5.72141e-05 -2.87775e-06
5.72141e-05 -0.000174856 -1.80348e-06
-2.87775e-06 -1.80348e-06 -0.000232819
0.000670446 2.62841e-06 -1.51523e-06
2.62841e-06 0.000124544 -9.97232e-09
-1.51523e-06 -9.97232e-09 8.52326e-06
0.00102781 -0.000125937 -3.98658e-06
-0.000125937 0.000351744 3.38068e-06
-3.98658e-06 3.38068e-06 0.000183062
0.000932836 -3.67168e-05 -3.41379e-06
-3.67168e-05 0.000269916 4.71425e-06
-3.41379e-06 4.71425e-06 4.52696e-05
0.000989722 -0.000313654 -6.38969e-06
-0.000313654 0.000121063 -6.15831e-06
-6.38969e-06 -6.15831e-06 -0.000139915
0.00115488 -0.00028723 -1.01955e-05
-0.00028723 0.000339649 3.98337e-06
-1.01955e-05 3.98337e-06 6.18616e-05
0.000507038 5.66688e-08 -2.07665e-06
5.66688e-08 -2.83231e-05 -2.93503e-06
-2.07665e-06 -2.93503e-06 -9.05979e-05
0.000479045 -2.05132e-05 1.28023e-06
-2.05132e-05 -1.47858e-05 -1.92652e-06
1.28023e-06 -1.92652e-06 -0.000121705
0.00179807 0.000326072 -2.33087e-06
0.000326072 0.000123076 -8.0299e-07
-2.33087e-06 -8.0299e-07 -3.53504e-05
0.000209834 1.81967e-05 7.52403e-07
1.81967e-05 -0.000156439 -1.83208e-07
7.52403e-07 -1.83208e-07 -0.000327928
0.00132964 0.000294884 1.17971e-06
0.000294884 0.000389916 5.48489e-07
1.17971e-06 5.48489e-07 0.000161901
-5.54689e-05 8.52501e-05 5.06683e-06
8.52501e-05 -0.000409108 3.08095e-06
5.06683e-06 3.08095e-06 -0.000566671
0.00181775 0.000435257 6.67157e-07
0.000435257 0.00022749 2.84412e-07
6.67157e-07 2.84412e-07 -3.8201e-08
0.00185835 0.0004169 -2.82331e-06
0.0004169 0.000177917 7.84927e-07
-2.82331e-06 7.84927e-07 -1.14553e-05
0.00149463 0.000395972 -9.49162e-07
0.000395972 0.000401737 1.41029e-06
-9.49162e-07 1.41029e-06 0.000108607
0.00195054 0.000468115 -2.6762e-06
0.000468115 0.000475467 7.87626e-07
-2.6762e-06 7.87626e-07 0.000195396
0.000682167 1.992e-05 -1.03903e-06
1.992e-05 0.000103984 2.45621e-07
-1.03903e-06 2.45621e-07 5.79631e-06
0.000487493 3.68005e-05 9.91932e-07
3.68005e-05 2.33315e-05 7.0501e-07
9.91932e-07 7.0501e-07 -0.000126913
0.00143829 0.000327548 -7.3302e-07
0.000327548 0.000410761 -1.95126e-06
-7.3302e-07 -1.95126e-06 0.000175436
0.0005059 6.11772e-05 -1.40592e-06
6.11772e-05 5.61358e-06 -2.55842e-07
-1.40592e-06 -2.55842e-07 -0.000165312
0.000576399 0.000205946 -4.50119e-07
0.000205946 -7.39098e-05 -9.96779e-07
-4.50119e-07 -9.96779e-07 -0.000239443
0.00194299 0.000360886 -3.00395e-06
0.000360886 0.000137259 -1.22159e-06
-3.00395e-06 -1.22159e-06 2.73247e-06
0.00207226 0.000481676 2.19039e-06
0.000481676 0.000367415 -2.42973e-07
2.19039e-06 -2.42973e-07 0.000129043
0.00182848 0.000451414 1.85141e-06
0.000451414 0.000138853 2.68289e-06
1.85141e-06 2.68289e-06 -6.25615e-05
0.00124903 0.000374274 4.8814e-06
0.000374274 0.000240866 3.82018e-06
4.8814e-06 3.82018e-06 -6.21578e-05
0.0016554 0.000484055 -3.81781e-06
0.000484055 0.000290098 3.55658e-07
-3.81781e-06 3.55658e-07 -7.35244e-07
8.87565e-05 -1.08574e-05 -1.21968e-06
-1.08574e-05 -0.000243722 2.8523e-06
-1.21968e-06 2.8523e-06 -0.000347338
-9.51448e-05 9.04244e-05 9.04173e-07
9.04244e-05 -0.000286362 3.61183e-07
9.04173e-07 3.61183e-07 -0.000477715
0.000630818 0.00025447 9.95419e-07
0.00025447 -8.64011e-05 2.10852e-06
9.95419e-07 2.10852e-06 -0.000322808
-0.000340187 0.000112037 3.85609e-06
0.000112037 -0.000573755 -7.17505e-07
3.85609e-06 -7.17505e-07 -0.000746574
0.00195448 0.000364884 -8.50253e-08
0.000364884 -6.67854e-05 9.12208e-07
-8.50253e-08 9.12208e-07 -0.000111656
0.00253512 0.00046189 1.64639e-06
0.00046189 0.000484399 -4.7987e-07
1.64639e-06 -4.7987e-07 0.000321529
0.00187358 0.000521109 -3.36318e-06
0.000521109 0.00027405 -4.06495e-06
-3.36318e-06 -4.06495e-06 8.53807e-07
0.000946876 0.000394279 -8.09113e-07
0.000394279 -1.20715e-05 1.32223e-06
-8.09113e-07 1.32223e-06 -0.000328826
0.000636122 7.36029e-05 -9.95502e-07
7.36029e-05 7.25538e-05 -1.06934e-06
-9.95502e-07 -1.06934e-06 -2.10277e-05
0.000609168 5.26402e-05 -3.21953e-07
5.26402e-05 5.79509e-05 7.76584e-08
-3.21953e-07 7.76584e-08 -4.1824e-05
0.000957382 5.06659e-05 -3.44162e-06
5.06659e-05 0.000265164 -1.90169e-06
-3.44162e-06 -1.90169e-06 0.000175287
0.000623865 2.26936e-05 -1.46841e-06
2.26936e-05 5.83235e-05 -1.94525e-06
-1.46841e-06 -1.94525e-06 -2.43317e-05
0.000392007 1.28064e-05 -7.3784e-07
1.28064e-05 -7.5088e-05 -3.8686e-07
-7.3784e-07 -3.8686e-07 -0.000170818
0.000640213 3.69517e-05 -1.86656e-07
3.69517e-05 8.18427e-05 4.84164e-08
-1.86656e-07 4.84164e-08 -8.38068e-06
0.000648953 9.75414e-05 -1.02044e-06
9.75414e-05 0.000100002 8.3991e-08
-1.02044e-06 8.3991e-08 -9.21201e-06
0.000558408 3.25603e-05 9.75781e-07
3.25603e-05 4.58877e-05 2.56937e-07
9.75781e-07 2.56937e-07 -6.93876e-05
0.000756182 7.08731e-05 1.35279e-06
7.08731e-05 0.000137585 -1.74079e-06
1.35279e-06 -1.74079e-06 5.10529e-05
0.000674143 -3.8775e-06 3.65339e-06
-3.8775e-06 0.0001103 -2.85622e-06
3.65339e-06 -2.85622e-06 -4.54549e-06
0.000479703 5.78823e-05 7.8652e-07
5.78823e-05 -3.81113e-08 1.9172e-06
7.8652e-07 1.9172e-06 -0.000118912
0.000661666 8.61745e-05 1.73083e-06
8.61745e-05 9.87658e-05 2.52549e-06
1.73083e-06 2.52549e-06 4.82054e-06
0.000531759 5.7193e-05 2.58427e-06
5.7193e-05 7.55904e-06 2.59725e-06
2.58427e-06 2.59725e-06 -5.52395e-05
0.000540162 1.11061e-06 -1.47192e-06
1.11061e-06 7.76449e-06 -7.8745e-08
-1.47192e-06 -7.8745e-08 -5.13107e-05
0.00123582 -8.79183e-06 1.10327e-06
-8.79183e-06 0.000398102 2.48192e-06
1.10327e-06 2.48192e-06 0.000385552
0.000530666 -4.94195e-05 2.23034e-07
-4.94195e-05 -1.38824e-06 -2.67161e-06
2.23034e-07 -2.67161e-06 -5.91832e-05
0.00129926 -1.89638e-05 -4.4889e-06
-1.89638e-05 0.000434057 -1.58392e-06
-4.4889e-06 -1.58392e-06 0.00042148
0.000813744 -2.33593e-05 1.85662e-05
-2.33593e-05 0.000141361 8.55218e-06
1.85662e-05 8.55218e-06 0.000147775
0.00134352 -2.96191e-05 -7.98086e-06
-2.96191e-05 0.000460277 -5.79521e-06
-7.98086e-06 -5.79521e-06 0.00044705
0.000781951 -3.33386e-05 6.49299e-06
-3.33386e-05 0.000122462 3.20077e-06
6.49299e-06 3.20077e-06 0.000127459
0.000734632 -4.14242e-05 -9.24239e-07
-4.14242e-05 9.78749e-05 -2.3783e-06
-9.24239e-07 -2.3783e-06 0.000100784
0.000482106 3.83904e-05 -3.64466e-08
3.83904e-05 -5.23992e-05 -3.22881e-06
-3.64466e-08 -3.22881e-06 -6.88645e-05
0.00048134 6.05965e-05 -6.80722e-09
6.05965e-05 -3.49675e-05 1.70524e-07
-6.80722e-09 1.70524e-07 -6.20008e-05
0.00229686 9.38191e-05 1.7735e-05
9.38191e-05 0.00107005 -3.82778e-06
1.7735e-05 -3.82778e-06 0.00107522
0.000523341 3.12705e-05 -3.15391e-06
3.12705e-05 -3.65903e-06 6.58266e-06
-3.15391e-06 6.58266e-06 -3.77572e-05
0.00264049 0.000117991 -6.38603e-06
0.000117991 0.00128712 -5.72389e-07
-6.38603e-06 -5.72389e-07 0.00128585
0.00315419 8.78529e-05 -9.22608e-05
8.78529e-05 0.00159898 5.86241e-06
-9.22608e-05 5.86241e-06 0.00160424
0.00182251 0.000253682 -6.19693e-07
0.000253682 0.000103588 1.78999e-06
-6.19693e-07 1.78999e-06 -1.60693e-05
0.00195645 0.000161831 -3.51809e-06
0.000161831 0.000102422 -1.7852e-07
-3.51809e-06 -1.7852e-07 3.18831e-05
0.00191114 0.000235619 2.24754e-07
0.000235619 5.20581e-05 -1.28085e-07
2.24754e-07 -1.28085e-07 -1.70262e-05
0.00187594 0.000104596 -4.78336e-06
0.000104596 1.48462e-05 -1.10112e-06
-4.78336e-06 -1.10112e-06 -1.39089e-05
0.00185063 4.3677e-05 -2.45177e-06
4.3677e-05 4.36494e-05 -2.29085e-07
-2.45177e-06 -2.29085e-07 -5.75331e-06
0.00179967 -1.20032e-06 -1.14844e-06
-1.20032e-06 6.20124e-05 6.17894e-08
-1.14844e-06 6.17894e-08 -1.62688e-05
0.00182205 -3.72704e-06 -6.22335e-07
-3.72704e-06 3.0918e-05 -3.15047e-08
-6.22335e-07 -3.15047e-08 -1.3752e-05
0.00189946 4.88082e-05 1.05852e-06
4.88082e-05 3.32813e-05 1.69905e-07
1.05852e-06 1.69905e-07 9.03955e-06
0.00195195 0.000167132 6.53635e-07
0.000167132 4.01662e-05 7.93193e-08
6.53635e-07 7.93193e-08 2.30815e-06
0.00200918 0.000292777 4.52385e-07
0.000292777 0.000107393 2.03226e-07
4.52385e-07 2.03226e-07 1.644e-05
0.00188106 -9.81267e-06 3.73658e-06
-9.81267e-06 2.91551e-05 -3.82579e-08
3.73658e-06 -3.82579e-08 6.80455e-06
0.00200722 9.62783e-05 2.23227e-06
9.62783e-05 1.01851e-05 7.72439e-08
2.23227e-06 7.72439e-08 1.38287e-05
0.00212255 0.000252803 2.85391e-06
0.000252803 7.08196e-05 1.19461e-06
2.85391e-06 1.19461e-06 2.92747e-05
0.00185652 -6.9116e-05 -3.44758e-06
-6.9116e-05 4.24095e-05 5.87427e-07
-3.44758e-06 5.87427e-07 -4.67143e-06
0.00184814 -0.000138654 -1.64086e-06
-0.000138654 4.27004e-05 -3.4488e-07
-1.64086e-06 -3.4488e-07 -2.02818e-05
0.00186952 -0.00025234 -3.22337e-06
-0.00025234 5.42269e-05 1.47423e-06
-3.22337e-06 1.47423e-06 -2.21892e-05
0.00110085 -0.000296832 -1.15444e-06
-0.000296832 0.000186301 3.6517e-06
-1.15444e-06 3.6517e-06 -6.2926e-05
0.00094209 -0.000380204 4.253e-06
-0.000380204 -1.37595e-05 -1.5149e-08
4.253e-06 -1.5149e-08 -0.0003138
0.0016263 -0.000537862 1.42743e-06
-0.000537862 0.000210154 -4.28361e-07
1.42743e-06 -4.28361e-07 -0.000114729
0.00180226 -0.000314997 -1.02214e-06
-0.000314997 6.9905e-05 8.70211e-07
-1.02214e-06 8.70211e-07 -3.8059e-05
0.00164138 -0.000397941 -1.36299e-06
-0.000397941 3.29271e-06 -9.941e-07
-1.36299e-06 -9.941e-07 -0.000141279
0.00195971 -0.000457744 -1.89262e-06
-0.000457744 0.000275357 -7.41979e-06
-1.89262e-06 -7.41979e-06 5.47684e-05
0.000902188 -0.000269414 2.68028e-06
-0.000269414 7.06386e-05 5.27082e-06
2.68028e-06 5.27082e-06 -0.000157829
0.000576379 -0.000229009 -7.50637e-06
-0.000229009 -4.34809e-05 5.70538e-06
-7.50637e-06 5.70538e-06 -0.000239199
0.00183493 -0.000266848 2.17674e-06
-0.000266848 0.000832307 -2.12268e-06
2.17674e-06 -2.12268e-06 0.000559195
0.000348836 3.63011e-05 1.65386e-06
3.63011e-05 -0.000108024 5.85425e-07
1.65386e-06 5.85425e-07 -0.000177058
0.000874673 -0.000105618 3.56994e-06
-0.000105618 0.000246121 -1.16219e-06
3.56994e-06 -1.16219e-06 6.66672e-05
0.000338463 3.35512e-05 4.72106e-06
3.35512e-05 -8.08694e-05 1.12161e-06
4.72106e-06 1.12161e-06 -0.000217203
0.00189285 -7.37856e-05 -4.33121e-07
-7.37856e-05 3.04701e-05 1.41911e-07
-4.33121e-07 1.41911e-07 3.92491e-06
0.00195918 -0.000185437 1.90773e-07
-0.000185437 1.24062e-05 -1.4725e-07
1.90773e-07 -1.4725e-07 -1.21264e-05
0.0019445 -0.000306348 -4.04367e-07
-0.000306348 6.58969e-05 4.47009e-07
-4.04367e-07 4.47009e-07 6.90178e-06
0.00141661 -0.000367122 -1.95985e-06
-0.000367122 0.000345719 5.51003e-07
-1.95985e-06 5.51003e-07 6.88664e-05
0.00125071 -0.000487568 4.28329e-07
-0.000487568 0.000139639 -1.16758e-06
4.28329e-07 -1.16758e-06 -0.000213794
0.00203015 -0.000581193 -4.35651e-06
-0.000581193 0.00044799 8.33491e-07
-4.35651e-06 8.33491e-07 0.00011624
0.00198167 -0.000388987 6.67213e-07
-0.000388987 9.28744e-05 -2.61588e-07
6.67213e-07 -2.61588e-07 -1.07188e-05
0.00173911 -0.000464344 1.36705e-06
-0.000464344 7.32548e-05 -3.20087e-06
1.36705e-06 -3.20087e-06 -0.000117218
0.000417915 5.31561e-05 -6.74306e-07
5.31561e-05 -7.12957e-05 -1.02871e-06
-6.74306e-07 -1.02871e-06 -0.000124865
0.000673248 -1.11821e-05 -6.77021e-07
-1.11821e-05 0.00012343 3.50874e-07
-6.77021e-07 3.50874e-07 9.02827e-06
0.000293391 -0.000243585 -5.18673e-06
-0.000243585 -0.000294214 5.77167e-06
-5.18673e-06 5.77167e-06 -0.000535043
0.0015674 -0.000303412 2.43176e-06
-0.000303412 0.000606633 -1.60671e-06
2.43176e-06 -1.60671e-06 0.000325443
0.00106387 -8.84065e-05 -2.2207e-07
-8.84065e-05 0.000361909 -1.89455e-06
-2.2207e-07 -1.89455e-06 0.000134926
0.000843993 -9.83178e-05 -6.35943e-07
-9.83178e-05 0.000241487 9.78232e-07
-6.35943e-07 9.78232e-07 7.38199e-05
0.00194954 -9.35221e-05 1.06252e-06
-9.35221e-05 -2.33317e-06 1.64881e-07
1.06252e-06 1.64881e-07 -4.7248e-07
0.0020479 -0.000263649 5.10329e-08
-0.000263649 6.37206e-08 1.20839e-07
5.10329e-08 1.20839e-07 6.30938e-06
0.00201425 -0.00033964 2.11908e-06
-0.00033964 6.90806e-05 -2.01597e-06
2.11908e-06 -2.01597e-06 2.49352e-05
0.00199804 -0.000511306 5.52765e-06
-0.000511306 8.15202e-05 -2.69894e-06
5.52765e-06 -2.69894e-06 -5.16895e-05
0.00101118 -0.000386777 -3.16819e-06
-0.000386777 7.83612e-05 -5.55924e-06
-3.16819e-06 -5.55924e-06 -0.000247303
0.00197092 -0.000591259 -1.53984e-06
-0.000591259 0.000359654 1.2563e-05
-1.53984e-06 1.2563e-05 4.64237e-05
0.00202829 -0.00060869 -4.32623e-06
-0.00060869 0.000559148 -1.85606e-06
-4.32623e-06 -1.85606e-06 0.000160402
0.000599292 5.23059e-05 1.23528e-07
5.23059e-05 2.72795e-05 -1.15033e-06
1.23528e-07 -1.15033e-06 -1.70932e-05
0.000666084 -0.0001189 3.4185e-06
-0.0001189 0.000110501 -2.13059e-06
3.4185e-06 -2.13059e-06 2.21443e-05
0.000424569 6.53081e-05 -3.64634e-06
6.53081e-05 -3.70834e-05 4.04575e-07
-3.64634e-06 4.04575e-07 -0.000128664
0.000659688 -4.57186e-05 -2.88903e-06
-4.57186e-05 0.000133453 4.37277e-06
-2.88903e-06 4.37277e-06 -1.39374e-05
0.000483294 -4.71199e-05 2.46299e-07
-4.71199e-05 -7.30061e-06 6.12681e-07
2.46299e-07 6.12681e-07 -0.000178899
-0.000451208 -4.00907e-05 -8.55487e-07
-4.00907e-05 -0.000532696 7.56632e-07
-8.55487e-07 7.56632e-07 -0.000774898
0.000419773 -0.000285563 -1.13194e-05
-0.000285563 -0.000203294 -5.5595e-06
-1.13194e-05 -5.5595e-06 -0.000451383
0.00298097 -0.000450847 -1.54128e-05
-0.000450847 0.00152609 3.15792e-06
-1.54128e-05 3.15792e-06 0.00111066
0.000630305 3.67834e-07 -8.71449e-07
3.67834e-07 6.66114e-05 -1.09941e-06
-8.71449e-07 -1.09941e-06 -2.49884e-05
0.000736623 7.17754e-05 4.46661e-07
7.17754e-05 0.000177271 -8.89796e-07
4.46661e-07 -8.89796e-07 1.91103e-05
0.00213685 0.000372385 -1.71917e-06
0.000372385 0.000247397 -1.01044e-06
-1.71917e-06 -1.01044e-06 0.000115045
0.000762302 0.000103018 -1.2883e-06
0.000103018 0.000173749 3.21754e-06
-1.2883e-06 3.21754e-06 -1.02047e-05
0.00219481 0.000405671 1.28387e-06
0.000405671 0.000869978 -1.64576e-07
1.28387e-06 -1.64576e-07 0.000617392
0.000354784 0.000169561 1.47444e-07
0.000169561 -0.000214891 7.42542e-07
1.47444e-07 7.42542e-07 -0.000361578
0.00211778 0.000476801 -2.85112e-06
0.000476801 0.000401921 -2.69035e-07
-2.85112e-06 -2.69035e-07 0.000168328
0.00197178 0.000468476 -2.74756e-06
0.000468476 0.000213858 5.65575e-06
-2.74756e-06 5.65575e-06 9.0186e-06
0.00169827 0.000427951 -9.68919e-07
0.000427951 0.000511643 1.70715e-07
-9.68919e-07 1.70715e-07 0.000197366
0.00145276 0.00047658 -1.48951e-07
0.00047658 0.000167008 9.53796e-07
-1.48951e-07 9.53796e-07 -0.000128281
0.000255801 2.04763e-05 -1.56002e-07
2.04763e-05 -0.000137392 1.13168e-06
-1.56002e-07 1.13168e-06 -0.0002486
0.000333627 0.000127867 -7.71464e-07
0.000127867 -2.63434e-05 -2.41022e-06
-7.71464e-07 -2.41022e-06 -0.000223676
0.00146512 0.000344498 4.1498e-06
0.000344498 0.000412264 -1.26547e-06
4.1498e-06 -1.26547e-06 0.000159594
0.000727655 0.000197311 -2.84019e-06
0.000197311 6.58816e-05 -2.8045e-06
-2.84019e-06 -2.8045e-06 -0.000117745
0.00206577 0.000356845 1.00551e-06
0.000356845 -2.63541e-06 -8.25983e-07
1.00551e-06 -8.25983e-07 -4.7183e-05
0.00225999 0.000454135 3.18555e-06
0.000454135 0.000330963 5.50233e-07
3.18555e-06 5.50233e-07 0.000164069
0.00190047 0.000515649 -7.98082e-07
0.000515649 0.000283005 4.09861e-07
-7.98082e-07 4.09861e-07 1.35678e-05
0.00127572 0.000429534 2.09786e-07
0.000429534 0.000160354 5.77733e-07
2.09786e-07 5.77733e-07 -0.000157515
0.000196588 4.27733e-05 -1.49866e-06
4.27733e-05 -0.000178488 3.26165e-06
-1.49866e-06 3.26165e-06 -0.000292922
0.0020401 0.000293683 2.27023e-06
0.000293683 -8.00214e-05 3.04742e-06
2.27023e-06 3.04742e-06 -6.24289e-05
0.00174787 0.000322752 3.43126e-06
0.000322752 0.000786174 5.47391e-06
3.43126e-06 5.47391e-06 0.000540465
0.00121318 0.0003336 6.42219e-06
0.0003336 0.000235831 2.68315e-06
6.42219e-06 2.68315e-06 -1.30106e-05
0.00239983 0.000445881 -1.80481e-05
0.000445881 0.000287825 -5.98002e-06
-1.80481e-05 -5.98002e-06 0.00017577
0.0010155 0.000476717 -6.44228e-06
0.000476717 -0.000321509 -8.49498e-06
-6.44228e-06 -8.49498e-06 -0.00057339
0.00203552 0.00053271 -2.09131e-06
0.00053271 0.000536168 2.91492e-06
-2.09131e-06 2.91492e-06 0.000196492
0.000697594 6.89994e-05 -1.43622e-06
6.89994e-05 0.00011022 -7.1613e-07
-1.43622e-06 -7.1613e-07 1.09771e-05
0.000665798 6.4646e-05 -2.07108e-06
6.4646e-05 9.91266e-05 -5.98802e-07
-2.07108e-06 -5.98802e-07 4.88422e-06
0.00105389 5.73921e-05 -2.63868e-06
5.73921e-05 0.00033671 -1.37065e-07
-2.63868e-06 -1.37065e-07 0.00025602
0.000579841 -1.43845e-07 1.33101e-07
-1.43845e-07 4.84732e-05 -2.62819e-06
1.33101e-07 -2.62819e-06 -4.35076e-05
0.000664935 6.18931e-05 9.03643e-07
6.18931e-05 0.000112317 -7.17119e-08
9.03643e-07 -7.17119e-08 -4.85756e-06
0.000259611 4.17389e-05 -1.63204e-06
4.17389e-05 -0.000121107 2.72993e-06
-1.63204e-06 2.72993e-06 -0.000227167
0.000602647 8.98661e-06 -8.29621e-07
8.98661e-06 7.09381e-05 2.55968e-08
-8.29621e-07 2.55968e-08 -2.75252e-05
0.000397194 -1.61664e-05 -6.02869e-07
-1.61664e-05 -3.98164e-05 4.17933e-07
-6.02869e-07 4.17933e-07 -0.000162602
0.000403082 2.30951e-05 2.5791e-07
2.30951e-05 -6.56106e-05 5.74483e-07
2.5791e-07 5.74483e-07 -0.000145852
0.000751446 6.11591e-05 8.13992e-07
6.11591e-05 0.000169689 -6.57359e-07
8.13992e-07 -6.57359e-07 4.36918e-05
0.00130641 7.35694e-05 3.9222e-07
7.35694e-05 0.000453217 -1.69753e-06
3.9222e-07 -1.69753e-06 0.000387989
0.000672601 8.10913e-08 4.65789e-06
8.10913e-08 9.42591e-05 -3.5885e-06
4.65789e-06 -3.5885e-06 2.5865e-06
0.000691097 5.93501e-05 2.25432e-07
5.93501e-05 0.000140466 1.57694e-06
2.25432e-07 1.57694e-06 -1.00032e-06
0.000596695 3.93488e-05 2.50566e-06
3.93488e-05 8.17371e-05 2.22011e-06
2.50566e-06 2.22011e-06 -5.26987e-05
0.000632361 2.6334e-05 1.90266e-06
2.6334e-05 8.28446e-05 2.44949e-06
1.90266e-06 2.44949e-06 -1.51967e-05
0.000537639 -3.92719e-05 -2.23532e-08
-3.92719e-05 1.00104e-05 2.47815e-06
-2.23532e-08 2.47815e-06 -5.32153e-05
0.000553016 -3.73789e-06 -4.14151e-07
-3.73789e-06 1.70483e-05 -8.76415e-08
-4.14151e-07 -8.76415e-08 -4.31824e-05
0.00128451 4.61221e-06 1.508e-06
4.61221e-06 0.000431885 2.4215e-06
1.508e-06 2.4215e-06 0.000418273
0.000555267 -2.21214e-05 6.81066e-07
-2.21214e-05 1.38121e-05 -2.78375e-06
6.81066e-07 -2.78375e-06 -4.29982e-05
0.00130477 -4.87074e-06 -3.48935e-06
-4.87074e-06 0.000440469 -1.61612e-06
-3.48935e-06 -1.61612e-06 0.000427742
0.000795862 -1.51425e-05 1.40926e-05
-1.51425e-05 0.000131383 8.52881e-06
1.40926e-05 8.52881e-06 0.000138165
0.00135999 -1.61819e-05 -6.07935e-06
-1.61819e-05 0.000471191 -5.92825e-06
-6.07935e-06 -5.92825e-06 0.000458503
0.00079759 -2.47741e-05 4.43465e-06
-2.47741e-05 0.000129644 3.30172e-06
4.43465e-06 3.30172e-06 0.000135663
0.000756068 -3.26571e-05 -6.14066e-07
-3.26571e-05 0.000104974 -2.33904e-06
-6.14066e-07 -2.33904e-06 0.000110044
0.000643714 9.6043e-06 1.37584e-06
9.6043e-06 5.10013e-05 -1.5819e-06
1.37584e-06 -1.5819e-06 9.50553e-06
0.000508755 2.87534e-05 4.06047e-07
2.87534e-05 -4.51691e-05 -3.40255e-06
4.06047e-07 -3.40255e-06 -5.72898e-05
0.000514755 3.99423e-05 2.68314e-07
3.99423e-05 -3.16099e-05 1.67901e-07
2.68314e-07 1.67901e-07 -4.86679e-05
0.00212715 7.44733e-05 1.68432e-05
7.44733e-05 0.000957578 -3.93327e-06
1.68432e-05 -3.93327e-06 0.000967743
0.000523085 6.4102e-05 4.61975e-06
6.4102e-05 -8.05262e-06 5.53901e-06
4.61975e-06 5.53901e-06 -3.67743e-05
0.00240242 9.82271e-05 -5.05028e-06
9.82271e-05 0.00113483 -4.41242e-07
-5.05028e-06 -4.41242e-07 0.00113897
0.00279258 0.000124352 -1.92695e-05
0.000124352 0.00137982 4.79929e-06
-1.92695e-05 4.79929e-06 0.00137687
0.00204375 0.000290033 -2.8428e-07
0.000290033 0.000114635 4.02122e-07
-2.8428e-07 4.02122e-07 2.4837e-05
0.00194593 0.000170908 -3.58232e-06
0.000170908 3.91181e-05 -8.60397e-07
-3.58232e-06 -8.60397e-07 9.61282e-07
0.00190561 5.18768e-05 -4.5408e-06
5.18768e-05 4.38695e-05 -5.61858e-07
-4.5408e-06 -5.61858e-07 1.84871e-05
0.00180753 -1.18973e-06 -3.58747e-06
-1.18973e-06 2.15792e-05 -1.21585e-07
-3.58747e-06 -1.21585e-07 -2.23719e-05
0.00187305 -5.36186e-06 -8.85726e-07
-5.36186e-06 2.08482e-05 5.68257e-09
-8.85726e-07 5.68257e-09 2.12267e-06
0.00198658 9.01285e-05 1.99759e-08
9.01285e-05 4.79953e-06 6.12832e-08
1.99759e-08 6.12832e-08 5.90231e-06
0.00207044 0.000255614 -7.96637e-07
0.000255614 3.92753e-05 -8.48667e-08
-7.96637e-07 -8.48667e-08 -3.06003e-07
0.00196877 -5.67544e-06 9.3998e-07
-5.67544e-06 -6.9427e-06 -3.83879e-07
9.3998e-07 -3.83879e-07 3.8769e-06
0.00212569 0.000140467 3.31292e-06
0.000140467 8.81481e-07 -1.84668e-07
3.31292e-06 -1.84668e-07 8.88877e-06
0.00232411 9.43329e-05 -1.22315e-06
9.43329e-05 0.000171473 8.38122e-06
-1.22315e-06 8.38122e-06 0.000225857
0.00188815 -7.40127e-05 -4.95086e-06
-7.40127e-05 2.908e-05 2.92824e-07
-4.95086e-06 2.92824e-07 -9.99719e-07
0.00194644 -0.000192835 -3.27859e-06
-0.000192835 -1.76951e-07 8.41397e-07
-3.27859e-06 8.41397e-07 -2.38545e-05
0.00193397 -0.000303154 -3.21382e-06
-0.000303154 6.59857e-05 1.56044e-06
-3.21382e-06 1.56044e-06 3.55572e-06
0.000382304 -0.000261371 1.16108e-06
-0.000261371 -0.000266841 5.05175e-06
1.16108e-06 5.05175e-06 -0.000524364
0.00160247 -0.000518706 2.58611e-06
-0.000518706 0.000344419 -9.05983e-07
2.58611e-06 -9.05983e-07 -1.27761e-05
0.00201301 -0.000567 -2.05213e-06
-0.000567 0.000444918 -4.90344e-07
-2.05213e-06 -4.90344e-07 0.000124306
0.00186841 -0.000387954 7.99245e-08
-0.000387954 2.92843e-05 1.94316e-06
7.99245e-08 1.94316e-06 -7.78736e-05
0.00170271 -0.000458634 -6.05936e-06
-0.000458634 5.13589e-05 -5.22799e-06
-6.05936e-06 -5.22799e-06 -0.000137939
0.00051168 -0.000260629 -3.19854e-06
-0.000260629 -0.000159798 8.77722e-06
-3.19854e-06 8.77722e-06 -0.000397934
0.00216654 -0.000343989 1.60349e-05
-0.000343989 0.000992289 -3.36769e-06
1.60349e-05 -3.36769e-06 0.000701893
0.000774383 -3.8634e-05 1.33518e-06
-3.8634e-05 0.000178018 -8.22682e-07
1.33518e-06 -8.22682e-07 -3.23657e-05
0.00049099 1.6017e-05 7.14649e-07
1.6017e-05 -2.97673e-05 -4.72929e-08
7.14649e-07 -4.72929e-08 -7.92963e-05
0.000817601 3.69338e-05 3.49546e-06
3.69338e-05 0.000207016 2.80722e-07
3.49546e-06 2.80722e-07 9.17957e-05
0.000801228 -7.02163e-05 1.76494e-06
-7.02163e-05 0.000215159 1.07981e-06
1.76494e-06 1.07981e-06 4.57783e-05
0.00196774 -9.59933e-05 3.56611e-07
-9.59933e-05 4.80274e-07 3.96106e-08
3.56611e-07 3.96106e-08 4.52841e-06
0.000551755 1.83836e-05 1.11494e-06
1.83836e-05 -1.63846e-06 1.68389e-07
1.11494e-06 1.68389e-07 -4.5159e-05
0.000496934 -5.23287e-05 -1.81318e-06
-5.23287e-05 -1.406e-05 -8.10529e-08
-1.81318e-06 -8.10529e-08 -8.82015e-05
0.00203783 -0.000253719 -1.92832e-07
-0.000253719 9.86774e-06 1.76839e-07
-1.92832e-07 1.76839e-07 1.38333e-05
0.00196265 -0.000335134 -1.32358e-06
-0.000335134 3.72846e-05 1.40583e-07
-1.32358e-06 1.40583e-07 -3.38707e-06
0.00126752 -0.000413212 -2.78932e-06
-0.000413212 0.000229633 8.63065e-07
-2.78932e-06 8.63065e-07 -9.79337e-05
0.00181862 -0.000588218 6.26433e-07
-0.000588218 0.000444665 9.54518e-07
6.26433e-07 9.54518e-07 4.44186e-05
0.00163969 -0.000560805 3.83913e-06
-0.000560805 0.000161929 -2.08939e-06
3.83913e-06 -2.08939e-06 -0.000142342
0.00211975 -0.000515708 2.45889e-06
-0.000515708 0.000161091 -7.62923e-07
2.45889e-06 -7.62923e-07 2.60822e-05
0.000714427 -5.16132e-06 6.17629e-07
-5.16132e-06 0.000143977 -1.33094e-06
6.17629e-07 -1.33094e-06 5.03517e-05
0.000699062 -2.94797e-05 1.27565e-07
-2.94797e-05 0.00015846 1.46928e-06
1.27565e-07 1.46928e-06 8.3025e-06
0.0012614 -0.000347358 -1.60081e-06
-0.000347358 0.000290068 -8.07779e-07
-1.60081e-06 -8.07779e-07 2.58252e-05
0.00176522 -0.000327175 1.70312e-05
-0.000327175 0.000799895 -3.7375e-06
1.70312e-05 -3.7375e-06 0.000449937
0.00038496 -6.62651e-05 -3.34862e-06
-6.62651e-05 -4.82221e-05 -8.09128e-07
-3.34862e-06 -8.09128e-07 -0.000278548
0.00062373 -3.66155e-05 8.50659e-07
-3.66155e-05 9.10381e-05 -8.31649e-07
8.50659e-07 -8.31649e-07 -8.98786e-05
0.0019958 -0.000112217 2.23046e-06
-0.000112217 -7.04587e-05 -5.56389e-07
2.23046e-06 -5.56389e-07 -5.96134e-05
0.00198244 -0.000312234 -2.46918e-07
-0.000312234 -0.000116266 8.93687e-07
-2.46918e-07 8.93687e-07 -1.877e-05
0.00207541 -0.000456675 -4.76514e-06
-0.000456675 3.08381e-05 -1.02526e-06
-4.76514e-06 -1.02526e-06 -3.0285e-05
0.00156426 -0.000589261 2.04182e-06
-0.000589261 -3.96147e-05 -1.58415e-06
2.04182e-06 -1.58415e-06 -0.000214112
0.00117234 -0.000399057 -6.26785e-06
-0.000399057 0.000197035 -7.16578e-06
-6.26785e-06 -7.16578e-06 -0.000138617
0.00233082 -0.000689923 -9.9019e-06
-0.000689923 0.000691163 9.99884e-06
-9.9019e-06 9.99884e-06 0.000261498
0.000327682 5.1637e-05 -1.36029e-06
5.1637e-05 -0.000103742 -2.28696e-06
-1.36029e-06 -2.28696e-06 -0.00018509
0.000649093 -5.89134e-05 4.07175e-06
-5.89134e-05 7.59624e-05 -7.52783e-07
4.07175e-06 -7.52783e-07 2.9319e-06
0.000950205 -0.00010881 1.49608e-06
-0.00010881 0.000269501 3.0592e-06
1.49608e-06 3.0592e-06 0.000168299
0.000489076 2.11055e-05 -3.10519e-06
2.11055e-05 1.74732e-05 6.75243e-06
-3.10519e-06 6.75243e-06 -0.000114696
0.000801209 -7.19604e-05 -4.18884e-06
-7.19604e-05 0.000195469 6.14053e-06
-4.18884e-06 6.14053e-06 4.55066e-05
0.00131204 -5.14274e-05 2.35351e-06
-5.14274e-05 0.000446249 5.75069e-08
2.35351e-06 5.75069e-08 0.000256782
-0.000863496 -0.000126756 6.22958e-06
-0.000126756 -0.000544553 -7.46782e-07
6.22958e-06 -7.46782e-07 -0.00102344
-0.000276823 -0.000311438 -2.72409e-05
-0.000311438 -0.000617881 1.98138e-08
-2.72409e-05 1.98138e-08 -0.000869922
0.000377404 5.18659e-05 -3.13681e-07
5.18659e-05 -5.66633e-05 -6.08826e-07
-3.13681e-07 -6.08826e-07 -0.000177031
0.000982806 0.00017611 -6.92519e-06
0.00017611 0.000360074 -3.66141e-06
-6.92519e-06 -3.66141e-06 0.000158485
0.00216161 0.000348832 -4.5202e-06
0.000348832 5.69909e-05 -2.44087e-06
-4.5202e-06 -2.44087e-06 1.16264e-05
0.00202547 0.000448353 -1.51688e-06
0.000448353 0.000201059 1.01491e-06
-1.51688e-06 1.01491e-06 2.98339e-05
0.00181578 0.000261913 -7.57708e-06
0.000261913 0.000702469 -1.57741e-06
-7.57708e-06 -1.57741e-06 0.000517026
0.00217119 0.000418981 -5.34528e-06
0.000418981 0.000835227 -7.11563e-06
-5.34528e-06 -7.11563e-06 0.000570266
0.0019331 0.000511231 1.8137e-06
0.000511231 0.000294012 2.10022e-06
1.8137e-06 2.10022e-06 2.75742e-05
0.00179488 0.000481086 -7.99634e-08
0.000481086 0.000445285 -1.17512e-06
-7.99634e-08 -1.17512e-06 0.00012326
0.00050281 7.71213e-05 6.97057e-07
7.71213e-05 1.92687e-05 -9.81222e-07
6.97057e-07 -9.81222e-07 -0.000110359
0.00214557 0.00027839 -1.48848e-06
0.00027839 -1.89846e-05 -1.10147e-06
-1.48848e-06 -1.10147e-06 3.40638e-06
0.00124597 0.00024055 1.32048e-06
0.00024055 0.000470153 1.44719e-06
1.32048e-06 1.44719e-06 0.000245806
0.00129437 0.000343094 1.34355e-06
0.000343094 0.000290487 -3.77815e-07
1.34355e-06 -3.77815e-07 3.42496e-05
0.0023626 0.000444801 2.31108e-06
0.000444801 0.000271657 5.5982e-07
2.31108e-06 5.5982e-07 0.000162169
0.00160488 0.000517921 -1.50175e-06
0.000517921 1.05671e-05 -4.21571e-06
-1.50175e-06 -4.21571e-06 -0.000242863
0.00187729 0.000514719 -3.52148e-08
0.000514719 0.000454575 4.5824e-07
-3.52148e-08 4.5824e-07 0.000116684
0.00113367 0.000185749 -4.10048e-06
0.000185749 0.000421245 3.74973e-06
-4.10048e-06 3.74973e-06 0.000243527
0.00252068 0.000331642 -5.54649e-05
0.000331642 0.000258453 -1.52205e-05
-5.54649e-05 -1.52205e-05 0.000296677
0.00200851 0.000413553 -5.53779e-06
0.000413553 0.000837076 1.37333e-06
-5.53779e-06 1.37333e-06 0.000580345
0.00180232 0.000449605 -6.09903e-06
0.000449605 0.000499398 -2.33924e-06
-6.09903e-06 -2.33924e-06 0.000196618
0.00243676 0.000594614 -2.86121e-05
0.000594614 0.000361204 -1.4064e-05
-2.86121e-05 -1.4064e-05 0.000173594
0.000818695 0.000441392 -2.07969e-05
0.000441392 -0.000195077 -2.38536e-06
-2.07969e-05 -2.38536e-06 -0.000507438
0.00126871 0.000477845 3.22541e-05
0.000477845 -0.000454302 -2.59346e-05
3.22541e-05 -2.59346e-05 -0.000658798
0.000361724 7.74993e-05 1.37741e-06
7.74993e-05 -6.97599e-05 -4.40877e-07
1.37741e-06 -4.40877e-07 -0.000169278
0.000597306 6.52696e-05 -2.05566e-07
6.52696e-05 8.30007e-05 1.05073e-06
-2.05566e-07 1.05073e-06 -1.81782e-06
0.00155191 0.000104132 6.00259e-07
0.000104132 0.000624718 -7.77243e-07
6.00259e-07 -7.77243e-07 0.000539543
0.000537451 -6.4043e-05 4.92057e-07
-6.4043e-05 3.97909e-05 -3.20383e-06
4.92057e-07 -3.20383e-06 -6.27883e-05
0.000453446 -4.05822e-05 -1.4026e-06
-4.05822e-05 -1.03571e-05 -3.46216e-07
-1.4026e-06 -3.46216e-07 -0.000129153
0.000930778 0.000148542 -5.66995e-07
0.000148542 0.000279908 1.08311e-06
-5.66995e-07 1.08311e-06 0.000147031
0.000156301 6.19921e-06 -2.50616e-06
6.19921e-06 -0.00020104 6.45577e-06
-2.50616e-06 6.45577e-06 -0.000281451
0.00059311 -2.14669e-05 -3.24501e-07
-2.14669e-05 7.26317e-05 -2.58528e-08
-3.24501e-07 -2.58528e-08 -3.34148e-05
0.000583196 5.15165e-05 -1.02522e-07
5.15165e-05 5.71702e-05 -5.2519e-07
-1.02522e-07 -5.2519e-07 -6.53289e-05
0.000945944 6.2949e-05 -7.55184e-07
6.2949e-05 0.000240913 1.70944e-06
-7.55184e-07 1.70944e-06 0.000173881
0.000702208 3.88955e-05 1.22669e-06
3.88955e-05 0.000132207 2.75176e-07
1.22669e-06 2.75176e-07 1.00922e-06
0.00070849 2.42246e-05 -1.15396e-06
2.42246e-05 0.000112028 -8.11908e-07
-1.15396e-06 -8.11908e-07 1.63394e-05
0.00108002 6.83576e-05 1.53531e-06
6.83576e-05 0.000333104 -5.75081e-06
1.53531e-06 -5.75081e-06 0.000262657
0.000891292 7.08253e-05 -2.17049e-06
7.08253e-05 0.000229891 -2.097e-06
-2.17049e-06 -2.097e-06 9.11297e-05
0.000821809 9.33335e-05 7.56796e-07
9.33335e-05 0.000195736 1.09156e-06
7.56796e-07 1.09156e-06 6.80504e-05
0.000657222 4.96839e-05 6.6516e-07
4.96839e-05 0.000118248 1.71782e-06
6.6516e-07 1.71782e-06 -2.51923e-05
0.000408433 -2.3873e-05 -1.89745e-07
-2.3873e-05 -5.56107e-05 2.7848e-06
-1.89745e-07 2.7848e-06 -0.000158214
0.000958616 -3.56992e-05 5.22171e-07
-3.56992e-05 0.000328779 -9.47343e-07
5.22171e-07 -9.47343e-07 0.000178686
0.000326602 -2.4509e-05 -1.09244e-06
-2.4509e-05 -0.000101764 2.65496e-06
-1.09244e-06 2.65496e-06 -0.000208449
0.000515826 3.41634e-06 -1.64035e-06
3.41634e-06 3.47187e-07 2.604e-06
-1.64035e-06 2.604e-06 -6.60479e-05
0.000538491 2.81582e-05 1.87385e-06
2.81582e-05 1.24758e-05 -7.38225e-08
1.87385e-06 -7.38225e-08 -5.24666e-05
0.000476329 1.6539e-05 1.3071e-06
1.6539e-05 -5.39381e-05 3.97503e-06
1.3071e-06 3.97503e-06 -7.27035e-05
0.000535102 3.14998e-06 -2.56397e-06
3.14998e-06 9.01755e-06 -2.66149e-06
-2.56397e-06 -2.66149e-06 -5.34127e-05
0.000918884 9.05852e-06 -2.53432e-06
9.05852e-06 0.000211186 -1.656e-06
-2.53432e-06 -1.656e-06 0.00019511
0.00247779 -1.24e-05 1.02706e-05
-1.24e-05 0.00115334 5.2927e-06
1.02706e-05 5.2927e-06 0.00116762
0.00137177 -2.3739e-06 -4.58784e-06
-2.3739e-06 0.000481697 -5.81945e-06
-4.58784e-06 -5.81945e-06 0.00046862
0.000790775 -1.57091e-05 2.84999e-06
-1.57091e-05 0.000125741 3.30835e-06
2.84999e-06 3.30835e-06 0.000132484
0.00077794 -2.36138e-05 -4.17326e-08
-2.36138e-05 0.000115521 -2.33896e-06
-4.17326e-08 -2.33896e-06 0.000121728
0.00055998 1.66451e-05 -1.04443e-06
1.66451e-05 3.20568e-06 -1.4237e-06
-1.04443e-06 -1.4237e-06 -3.74763e-05
0.000591924 -5.41994e-06 1.09522e-06
-5.41994e-06 2.0445e-05 -1.87569e-07
1.09522e-06 -1.87569e-07 -2.17165e-05
0.000545088 2.21916e-05 3.42127e-07
2.21916e-05 -2.57602e-05 -3.35922e-06
3.42127e-07 -3.35922e-06 -3.58692e-05
0.000840828 3.58091e-05 -2.96188e-07
3.58091e-05 0.000158613 6.18437e-08
-2.96188e-07 6.18437e-08 0.000147752
0.00210729 5.98513e-05 1.31451e-05
5.98513e-05 0.000938379 -4.17765e-06
1.31451e-05 -4.17765e-06 0.000951519
0.000524463 4.48209e-05 1.76076e-06
4.48209e-05 -2.35212e-05 3.82452e-06
1.76076e-06 3.82452e-06 -4.1853e-05
0.00222866 7.91581e-05 -2.90087e-06
7.91581e-05 0.00102062 -2.13551e-07
-2.90087e-06 -2.13551e-07 0.00102958
0.00247477 0.000101731 -1.67409e-05
0.000101731 0.00117921 4.25185e-06
-1.67409e-05 4.25185e-06 0.00118248
0.00202613 0.000258928 -3.33654e-06
0.000258928 1.03988e-05 -1.73332e-06
-3.33654e-06 -1.73332e-06 -2.66737e-05
0.00196488 8.50847e-05 -1.04049e-06
8.50847e-05 -1.76842e-06 2.15612e-07
-1.04049e-06 2.15612e-07 -2.75563e-06
0.0018669 -2.27855e-06 -4.42749e-06
-2.27855e-06 1.3572e-05 -1.53255e-07
-4.42749e-06 -1.53255e-07 -1.49573e-06
0.00196122 -3.47052e-06 1.43076e-07
-3.47052e-06 -8.74008e-06 -2.10393e-07
1.43076e-07 -2.10393e-07 1.62367e-06
0.00210533 0.000142123 -1.24785e-07
0.000142123 4.2743e-06 2.62749e-07
-1.24785e-07 2.62749e-07 1.09902e-05
0.00202371 7.82005e-05 6.60496e-06
7.82005e-05 -2.30238e-05 -3.14619e-06
6.60496e-06 -3.14619e-06 2.50077e-05
0.00211426 1.09533e-07 -8.55655e-07
1.09533e-07 -3.44693e-05 -9.42774e-07
-8.55655e-07 -9.42774e-07 3.52553e-06
0.00355463 0.000445309 3.86533e-05
0.000445309 -0.000346764 6.67931e-06
3.86533e-05 6.67931e-06 3.89934e-05
0.00234978 5.27433e-05 -3.09001e-05
5.27433e-05 0.0003333 2.2359e-05
-3.09001e-05 2.2359e-05 0.000456154
0.000544825 9.08587e-05 -1.01725e-06
9.08587e-05 3.25988e-05 1.28851e-07
-1.01725e-06 1.28851e-07 -4.59248e-05
0.00198367 -9.75851e-05 -1.43336e-06
-9.75851e-05 3.08503e-06 -2.46416e-07
-1.43336e-06 -2.46416e-07 9.05867e-06
0.0020195 -0.000243895 1.69962e-07
-0.000243895 1.6268e-05 2.29461e-07
1.69962e-07 2.29461e-07 1.5547e-05
0.00192091 -0.000333577 -1.255e-06
-0.000333577 1.068e-05 2.01226e-06
-1.255e-06 2.01226e-06 -2.79814e-05
0.000244242 -0.00030957 -4.2436e-06
-0.00030957 -0.000368224 7.557e-06
-4.2436e-06 7.557e-06 -0.000673777
0.00221394 -0.000626853 3.62568e-06
-0.000626853 0.000670714 5.86713e-06
3.62568e-06 5.86713e-06 0.000263283
0.00161878 -0.000563439 -1.77272e-07
-0.000563439 0.000129875 -8.93594e-06
-1.77272e-07 -8.93594e-06 -0.000171799
0.00224509 -0.000520742 -3.13285e-06
-0.000520742 0.000244216 -1.32666e-06
-3.13285e-06 -1.32666e-06 0.000106924
0.00207206 -0.000402003 1.98559e-05
-0.000402003 0.000741123 -4.35261e-06
1.98559e-05 -4.35261e-06 0.000468802
0.000364482 -0.000188493 1.50786e-05
-0.000188493 -3.09811e-05 -3.23792e-06
1.50786e-05 -3.23792e-06 -0.000318429
0.00121635 -0.000101852 2.79989e-06
-0.000101852 0.000432421 -1.5054e-06
2.79989e-06 -1.5054e-06 0.000214769
0.000557129 6.0163e-06 -1.95852e-07
6.0163e-06 2.139e-06 1.37201e-06
-1.95852e-07 1.37201e-06 -4.05492e-05
0.000862391 -2.13893e-05 3.14694e-06
-2.13893e-05 0.000246163 -1.62277e-06
3.14694e-06 -1.62277e-06 5.69258e-05
0.000835459 -2.71491e-05 3.27172e-06
-2.71491e-05 0.000224424 -1.77144e-06
3.27172e-06 -1.77144e-06 0.000130105
0.000872222 -2.99482e-05 2.73478e-06
-2.99482e-05 0.000259729 -2.65305e-06
2.73478e-06 -2.65305e-06 0.000107095
0.000318043 -3.38719e-05 -2.88291e-06
-3.38719e-05 -0.000128976 1.05221e-06
-2.88291e-06 1.05221e-06 -0.000199919
0.00202631 -0.000127211 -2.50369e-07
-0.000127211 -7.7162e-05 2.1742e-07
-2.50369e-07 2.1742e-07 -4.93208e-05
0.000444789 3.56218e-05 -1.10944e-07
3.56218e-05 -2.59913e-05 -1.59015e-06
-1.10944e-07 -1.59015e-06 -0.000110702
0.000615551 -5.33645e-05 1.34045e-06
-5.33645e-05 6.95906e-05 6.07735e-07
1.34045e-06 6.07735e-07 -1.00787e-05
0.000802952 -8.01929e-05 8.68175e-07
-8.01929e-05 0.000177581 6.75339e-07
8.68175e-07 6.75339e-07 8.00316e-05
0.00201609 -0.000316881 1.43724e-06
-0.000316881 -7.80624e-05 -3.58535e-07
1.43724e-06 -3.58535e-07 -4.16787e-06
0.00210678 -0.00045966 3.49086e-07
-0.00045966 5.26889e-05 -6.83796e-07
3.49086e-07 -6.83796e-07 -8.61628e-06
0.00108564 -0.000378494 8.24664e-06
-0.000378494 0.000147688 -5.91627e-07
8.24664e-06 -5.91627e-07 -0.000176182
0.00229017 -0.000687583 8.0547e-06
-0.000687583 0.000669839 -2.60577e-07
8.0547e-06 -2.60577e-07 0.00025131
0.00204107 -0.000623162 -1.66684e-06
-0.000623162 0.000246389 1.64555e-06
-1.66684e-06 1.64555e-06 5.54176e-05
0.000335811 -2.24166e-05 -4.76137e-07
-2.24166e-05 -7.245e-05 -7.51144e-07
-4.76137e-07 -7.51144e-07 -0.000197294
0.000857873 -8.34692e-05 -1.88188e-06
-8.34692e-05 0.000240007 7.32574e-07
-1.88188e-06 7.32574e-07 7.67305e-05
0.000926525 -0.000426596 -7.06829e-06
-0.000426596 8.25041e-05 2.41386e-07
-7.06829e-06 2.41386e-07 -0.000222018
0.000468707 -0.000126279 1.7491e-07
-0.000126279 0.000121241 -2.67449e-06
1.7491e-07 -2.67449e-06 -0.000264604
0.000738993 -6.39413e-05 1.4624e-07
-6.39413e-05 0.000101643 9.91e-07
1.4624e-07 9.91e-07 -7.7714e-05
0.00241857 -0.000248556 -2.39533e-06
-0.000248556 0.000141505 -2.28255e-07
-2.39533e-06 -2.28255e-07 0.000172148
0.00183411 -0.000338558 -1.36825e-05
-0.000338558 -0.000201647 3.58393e-06
-1.36825e-05 3.58393e-06 -8.25414e-05
0.0022967 -0.000613924 -1.12049e-05
-0.000613924 0.000215238 -2.28283e-07
-1.12049e-05 -2.28283e-07 6.5898e-05
0.00307769 -0.000760678 -2.32019e-05
-0.000760678 0.000939479 2.81552e-08
-2.32019e-05 2.81552e-08 0.000679413
0.00119164 -0.000450143 -2.69263e-05
-0.000450143 0.000236275 -2.31858e-06
-2.69263e-05 -2.31858e-06 -0.000101142
0.000331023 -9.18272e-06 1.62467e-06
-9.18272e-06 -9.33004e-05 3.55985e-07
1.62467e-06 3.55985e-07 -0.000193021
0.000423078 2.31911e-05 6.6923e-07
2.31911e-05 -6.70409e-05 2.55724e-06
6.6923e-07 2.55724e-06 -0.000164269
9.15239e-05 -1.48018e-05 -3.09387e-07
-1.48018e-05 -0.000235036 -2.02218e-06
-3.09387e-07 -2.02218e-06 -0.000339558
0.00172866 -0.00020859 -6.89531e-06
-0.00020859 0.000785817 1.14509e-05
-6.89531e-06 1.14509e-05 0.000629137
0.000730339 -7.63687e-05 -4.0189e-06
-7.63687e-05 0.000134145 1.1728e-05
-4.0189e-06 1.1728e-05 -1.55563e-05
-0.000614915 -9.12962e-05 7.10625e-07
-9.12962e-05 -0.000368571 5.20966e-06
7.10625e-07 5.20966e-06 -0.000811919
-0.000377316 -0.000494891 -2.43643e-06
-0.000494891 -0.000366585 -5.03387e-06
-2.43643e-06 -5.03387e-06 -0.000869093
0.000942404 0.000128226 -1.69813e-07
0.000128226 0.000297221 -4.76809e-06
-1.69813e-07 -4.76809e-06 0.000149476
0.000426034 0.000121336 -3.32661e-06
0.000121336 -3.8922e-05 -1.98003e-06
-3.32661e-06 -1.98003e-06 -0.000233383
0.00223968 0.000258316 7.49772e-06
0.000258316 2.80858e-05 1.8535e-07
7.49772e-06 1.8535e-07 6.22521e-05
0.00230458 0.000442648 1.57604e-05
0.000442648 0.000243035 4.36138e-06
1.57604e-05 4.36138e-06 0.000138232
0.00224639 0.000562439 1.45428e-05
0.000562439 0.000374012 4.1719e-06
1.45428e-05 4.1719e-06 0.000118701
0.00118257 0.000333446 -6.11763e-07
0.000333446 0.00022853 -7.31742e-07
-6.11763e-07 -7.31742e-07 -3.12892e-05
0.00162535 0.000487601 1.90218e-06
0.000487601 0.000318534 2.06377e-06
1.90218e-06 2.06377e-06 -1.51319e-05
0.00156319 0.000176093 8.53352e-08
0.000176093 0.000650729 -6.06499e-08
8.53352e-08 -6.06499e-08 0.000487381
0.00246038 0.00029138 -1.90809e-06
0.00029138 0.000257749 1.00503e-06
-1.90809e-06 1.00503e-06 0.000304224
0.00140351 0.000325871 -1.79497e-06
0.000325871 0.000460454 1.79808e-06
-1.79497e-06 1.79808e-06 0.000224684
0.00152454 0.000423525 1.22867e-06
0.000423525 0.000370276 1.11705e-06
1.22867e-06 1.11705e-06 6.01457e-05
0.00213139 0.000566603 -1.23283e-06
0.000566603 0.000187904 -2.8253e-06
-1.23283e-06 -2.8253e-06 1.95404e-05
0.00163406 0.000523185 -4.17222e-06
0.000523185 0.000267439 5.13536e-06
-4.17222e-06 5.13536e-06 -6.15499e-05
0.00259305 0.000626517 5.75125e-05
0.000626517 -9.89491e-05 4.76971e-06
5.75125e-05 4.76971e-06 -0.000374587
0.00124041 0.000247849 -5.97855e-06
0.000247849 0.000481578 4.13664e-07
-5.97855e-06 4.13664e-07 0.000288339
0.00381571 0.000540344 -7.59408e-05
0.000540344 0.00115484 -3.01358e-05
-7.59408e-05 -3.01358e-05 0.0010887
0.00101853 0.000324186 -3.13897e-06
0.000324186 0.000125952 -1.31856e-06
-3.13897e-06 -1.31856e-06 -0.000110122
9.58489e-05 0.000305787 -1.7757e-06
0.000305787 -0.000450833 -8.93953e-06
-1.7757e-06 -8.93953e-06 -0.000749123
0.000583259 0.000526104 -2.65018e-05
0.000526104 -0.000477319 -6.56394e-06
-2.65018e-05 -6.56394e-06 -0.000668245
0.0121475 0.000417022 -0.000287622
0.000417022 0.00237068 -5.77351e-05
-0.000287622 -5.77351e-05 0.00152777
0.00588563 0.00108947 9.56584e-05
0.00108947 0.000403494 -5.67552e-05
9.56584e-05 -5.67552e-05 0.000451629
-0.000247715 0.000723121 5.54368e-06
0.000723121 -0.000963334 4.23452e-06
5.54368e-06 4.23452e-06 -0.00129667
-0.00349836 -0.00111901 0.000681323
-0.00111901 -0.00011408 0.0001285
0.000681323 0.0001285 -0.00218446
0.0125661 -0.00427106 -2.62366e-05
-0.00427106 0.00347085 3.61167e-05
-2.62366e-05 3.61167e-05 0.00393869
0.000268562 7.11524e-05 5.28843e-06
7.11524e-05 -9.72084e-05 1.05787e-06
5.28843e-06 1.05787e-06 -0.000185022
0.00097364 7.41148e-05 1.23058e-06
7.41148e-05 0.000308598 -1.52955e-06
1.23058e-06 -1.52955e-06 0.000225603
0.00146342 0.000168153 -1.37281e-06
0.000168153 0.000618691 -3.97841e-07
-1.37281e-06 -3.97841e-07 0.000509259
0.000567434 -6.21464e-05 -4.57744e-07
-6.21464e-05 6.60423e-05 -2.3258e-06
-4.57744e-07 -2.3258e-06 -4.51644e-05
0.000560648 6.01511e-05 -1.54012e-06
6.01511e-05 4.71083e-05 -2.18154e-06
-1.54012e-06 -2.18154e-06 -7.96883e-05
0.000710157 -1.88696e-05 -3.58361e-07
-1.88696e-05 0.000138515 -8.83103e-07
-3.58361e-07 -8.83103e-07 6.73534e-06
0.000740628 4.67557e-05 -3.77789e-06
4.67557e-05 0.000126563 5.08764e-06
-3.77789e-06 5.08764e-06 2.72152e-05
0.000505306 4.71193e-05 -3.26717e-07
4.71193e-05 -1.85567e-05 4.67682e-06
-3.26717e-07 4.67682e-06 -8.67737e-05
0.000751745 9.64394e-05 -2.19459e-06
9.64394e-05 0.000170722 -5.57597e-07
-2.19459e-06 -5.57597e-07 2.91014e-05
0.000488282 -9.15891e-06 1.81867e-07
-9.15891e-06 2.70054e-07 8.2907e-07
1.81867e-07 8.2907e-07 -0.000105834
0.000641088 2.21499e-05 1.1816e-07
2.21499e-05 0.000104902 1.20792e-07
1.1816e-07 1.20792e-07 -3.47702e-05
0.000627511 5.99521e-05 4.25349e-07
5.99521e-05 5.62099e-05 -8.10717e-07
4.25349e-07 -8.10717e-07 -1.51885e-05
0.000803345 7.29841e-05 -1.13715e-06
7.29841e-05 0.000179174 -5.68949e-08
-1.13715e-06 -5.68949e-08 4.47747e-05
0.00110183 0.00012047 -1.57152e-06
0.00012047 0.000371055 -9.89883e-07
-1.57152e-06 -9.89883e-07 0.000228092
0.00035087 7.09666e-05 1.21657e-06
7.09666e-05 -6.63844e-05 -3.42834e-06
1.21657e-06 -3.42834e-06 -0.000195521
0.000800318 9.12652e-05 2.49443e-06
9.12652e-05 0.000189198 9.43072e-07
2.49443e-06 9.43072e-07 5.41922e-05
0.000552989 -2.8171e-05 1.52714e-06
-2.8171e-05 3.74592e-05 2.41279e-07
1.52714e-06 2.41279e-07 -9.54467e-05
0.000390861 -6.00992e-05 -1.27593e-06
-6.00992e-05 -6.13464e-05 2.43177e-06
-1.27593e-06 2.43177e-06 -0.000170146
0.000736081 -8.80942e-06 -3.31379e-07
-8.80942e-06 0.000161049 1.79908e-07
-3.31379e-07 1.79908e-07 2.44972e-05
0.000916006 3.11564e-05 3.18591e-07
3.11564e-05 0.000274937 -4.49713e-06
3.18591e-07 -4.49713e-06 0.00013909
0.00062566 -3.55403e-05 -5.10103e-07
-3.55403e-05 0.000108393 2.01696e-07
-5.10103e-07 2.01696e-07 -2.30121e-05
0.000791842 -3.30284e-05 1.42126e-06
-3.30284e-05 0.000205288 -7.03302e-07
1.42126e-06 -7.03302e-07 6.97558e-05
0.000666851 -9.98281e-05 -2.3624e-06
-9.98281e-05 0.000110688 1.83998e-06
-2.3624e-06 1.83998e-06 3.0251e-06
0.000377663 -1.63094e-05 1.77399e-07
-1.63094e-05 -6.82859e-05 9.97704e-07
1.77399e-07 9.97704e-07 -0.000177299
0.000550048 -3.35309e-05 -1.90558e-06
-3.35309e-05 1.304e-05 2.87064e-06
-1.90558e-06 2.87064e-06 -4.96264e-05
0.000550977 -2.66817e-05 1.40471e-06
-2.66817e-05 1.93836e-05 4.5737e-08
1.40471e-06 4.5737e-08 -4.61267e-05
0.000530365 5.41721e-06 9.75711e-07
5.41721e-06 -2.03462e-05 5.87167e-06
9.75711e-07 5.87167e-06 -3.96408e-05
0.000558116 3.08839e-05 -1.36139e-06
3.08839e-05 2.04808e-05 -2.64436e-06
-1.36139e-06 -2.64436e-06 -4.19464e-05
0.000494116 1.18315e-05 4.10254e-07
1.18315e-05 -4.29745e-05 3.08125e-08
4.10254e-07 3.08125e-08 -6.18156e-05
0.00242901 -9.96776e-07 -4.94044e-07
-9.96776e-07 0.00112453 5.30978e-06
-4.94044e-07 5.30978e-06 0.00113887
0.000550725 1.34586e-05 -1.74443e-06
1.34586e-05 -1.18555e-05 -6.11185e-06
-1.74443e-06 -6.11185e-06 -3.06456e-05
0.00164413 -9.47308e-06 -1.67238e-07
-9.47308e-06 0.000645799 9.96372e-08
-1.67238e-07 9.96372e-08 0.000655912
0.000779039 -1.42531e-05 3.27614e-07
-1.42531e-05 0.000115948 -2.19712e-06
3.27614e-07 -2.19712e-06 0.000123001
0.000559486 -1.61686e-05 7.92383e-07
-1.61686e-05 5.2057e-06 -1.17071e-06
7.92383e-07 -1.17071e-06 -3.37742e-05
0.000596722 -2.84584e-05 3.67688e-07
-2.84584e-05 2.66826e-05 -5.50801e-08
3.67688e-07 -5.50801e-08 -1.53536e-05
0.000559764 1.37738e-05 6.16759e-07
1.37738e-05 -1.89634e-05 -3.03834e-06
6.16759e-07 -3.03834e-06 -2.71859e-05
0.000562132 -2.25885e-05 -1.47228e-06
-2.25885e-05 9.82946e-07 1.28695e-06
-1.47228e-06 1.28695e-06 -4.05859e-05
0.000825316 2.62921e-05 -4.79341e-08
2.62921e-05 0.000144937 -7.30682e-07
-4.79341e-08 -7.30682e-07 0.000136837
0.00202042 4.44967e-05 9.62282e-06
4.44967e-05 0.000880589 -4.29618e-06
9.62282e-06 -4.29618e-06 0.00089639
0.000530199 3.14626e-05 -3.38677e-07
3.14626e-05 -2.98453e-05 3.36299e-06
-3.38677e-07 3.36299e-06 -4.28525e-05
0.00215015 6.23171e-05 -6.85481e-06
6.23171e-05 0.000966824 1.11215e-06
-6.85481e-06 1.11215e-06 0.000979291
0.00228674 8.30381e-05 -1.2934e-05
8.30381e-05 0.00105708 4.19595e-06
-1.2934e-05 4.19595e-06 0.00106511
0.00207753 0.000144319 -2.499e-06
0.000144319 3.87613e-06 -9.32263e-07
-2.499e-06 -9.32263e-07 9.55872e-06
0.00195668 -2.52905e-06 -7.65616e-07
-2.52905e-06 -8.88026e-06 4.31999e-08
-7.65616e-07 4.31999e-08 8.77593e-07
0.00175612 6.13404e-05 6.25983e-06
6.13404e-05 -0.000202643 1.23577e-06
6.25983e-06 1.23577e-06 -0.000160147
0.00231159 0.000316663 5.21871e-05
0.000316663 -0.000796981 1.15021e-05
5.21871e-05 1.15021e-05 -0.000523812
0.00207651 -1.77841e-05 -1.92062e-06
-1.77841e-05 -4.21527e-05 -1.38955e-06
-1.92062e-06 -1.38955e-06 -3.43239e-06
0.00197102 5.9569e-05 2.84863e-06
5.9569e-05 0.000117114 -5.73787e-06
2.84863e-06 -5.73787e-06 0.000210246
0.00307982 -2.28291e-05 -2.94578e-05
-2.28291e-05 0.000834774 3.80611e-06
-2.94578e-05 3.80611e-06 0.000820751
0.00208701 -9.98609e-06 2.23398e-05
-9.98609e-06 -0.00170083 -3.16625e-05
2.23398e-05 -3.16625e-05 -0.00125245
0.00247549 0.000123781 5.93528e-05
0.000123781 -0.000345737 3.42474e-05
5.93528e-05 3.42474e-05 -6.86441e-05
0.000596594 7.5315e-05 1.80625e-07
7.5315e-05 6.66899e-05 -1.98925e-07
1.80625e-07 -1.98925e-07 -1.45514e-05
0.000614686 -7.8081e-06 5.00615e-07
-7.8081e-06 8.07938e-05 -1.82811e-07
5.00615e-07 -1.82811e-07 -3.42894e-06
0.000552752 -9.86938e-05 -1.73784e-06
-9.86938e-05 4.58259e-05 1.3666e-06
-1.73784e-06 1.3666e-06 -5.29874e-05
0.000544982 -4.39524e-05 -1.54554e-06
-4.39524e-05 6.22919e-05 1.21904e-06
-1.54554e-06 1.21904e-06 -4.55555e-05
0.00207178 -0.000141316 -4.36689e-06
-0.000141316 -7.21182e-05 -3.00979e-07
-4.36689e-06 -3.00979e-07 -2.89629e-05
0.00204342 -0.000316043 7.79889e-07
-0.000316043 -3.92568e-05 -7.76516e-07
7.79889e-07 -7.76516e-07 1.47387e-05
0.00212631 -0.000458398 -2.08076e-06
-0.000458398 6.96415e-05 1.62081e-06
-2.08076e-06 1.62081e-06 9.27934e-06
0.00255206 -0.000541815 1.4049e-05
-0.000541815 0.000975033 1.53232e-06
1.4049e-05 1.53232e-06 0.000633231
0.000961275 -0.000561446 1.14922e-05
-0.000561446 -6.14574e-05 -3.36689e-06
1.14922e-05 -3.36689e-06 -0.000456217
0.00239824 -0.000646301 7.0415e-06
-0.000646301 0.00046388 -3.34284e-06
7.0415e-06 -3.34284e-06 0.000260806
0.00145393 -0.000472596 -2.21856e-06
-0.000472596 0.000396519 3.46227e-06
-2.21856e-06 3.46227e-06 5.4564e-05
0.00229382 -0.000161089 2.59281e-06
-0.000161089 0.00107409 6.70191e-07
2.59281e-06 6.70191e-07 0.00078014
8.85421e-05 -5.54074e-05 8.24494e-07
-5.54074e-05 -0.000296415 -1.3364e-06
8.24494e-07 -1.3364e-06 -0.000460719
0.000668147 -4.73632e-05 4.07845e-09
-4.73632e-05 0.000103801 8.79559e-07
4.07845e-09 8.79559e-07 2.45081e-05
0.000663293 -0.000100777 1.88399e-06
-0.000100777 0.000135229 -5.64183e-06
1.88399e-06 -5.64183e-06 -3.68529e-05
0.000748651 -6.17986e-07 1.75475e-06
-6.17986e-07 0.000183593 -3.53181e-06
1.75475e-06 -3.53181e-06 5.50665e-05
0.000626498 4.48607e-06 1.23485e-07
4.48607e-06 9.15058e-05 -2.5283e-07
1.23485e-07 -2.5283e-07 3.16494e-06
0.000532858 -1.90214e-05 -5.19715e-06
-1.90214e-05 1.03062e-05 2.87649e-06
-5.19715e-06 2.87649e-06 -8.10057e-05
0.00237847 -0.000231384 1.5347e-06
-0.000231384 0.0001249 9.55545e-07
1.5347e-06 9.55545e-07 0.000171186
0.000602994 -1.91785e-05 8.59142e-07
-1.91785e-05 8.52736e-05 1.2532e-07
8.59142e-07 1.2532e-07 -2.50114e-05
0.000755637 -9.13294e-06 3.46529e-06
-9.13294e-06 0.000148303 -5.95038e-07
3.46529e-06 -5.95038e-07 4.22522e-05
0.000136336 1.00209e-05 6.2472e-07
1.00209e-05 -0.000206072 1.02907e-06
6.2472e-07 1.02907e-06 -0.0002908
0.00181123 -0.000342879 -3.60088e-07
-0.000342879 -0.000241209 -1.45797e-06
-3.60088e-07 -1.45797e-06 -0.000127801
0.00210358 -0.000592255 1.86157e-06
-0.000592255 0.000120837 -7.55978e-07
1.86157e-06 -7.55978e-07 -1.88936e-05
0.00170678 -0.000541435 -1.68972e-06
-0.000541435 0.00051512 5.29329e-07
-1.68972e-06 5.29329e-07 0.000165461
0.00216817 -0.00068767 -6.07415e-06
-0.00068767 0.000445794 1.73526e-06
-6.07415e-06 1.73526e-06 0.000192135
0.00115249 -9.02216e-05 -1.10328e-06
-9.02216e-05 0.000411892 1.04396e-06
-1.10328e-06 1.04396e-06 0.000269715
0.000445654 -6.60407e-05 1.58371e-06
-6.60407e-05 -4.22852e-05 9.07264e-07
1.58371e-06 9.07264e-07 -0.0001956
0.00130971 -0.000610098 4.38486e-06
-0.000610098 0.000583276 -1.31613e-06
4.38486e-06 -1.31613e-06 6.46528e-05
0.00117193 -0.000242484 -9.36959e-07
-0.000242484 0.000508931 -6.04322e-07
-9.36959e-07 -6.04322e-07 0.000143765
0.00257178 -0.000297378 -2.584e-05
-0.000297378 0.000133538 4.89414e-07
-2.584e-05 4.89414e-07 0.000299863
0.00243701 -0.000485411 -3.50955e-05
-0.000485411 0.000206207 8.59245e-06
-3.50955e-05 8.59245e-06 0.000236662
0.00263596 -0.000739061 -1.06968e-05
-0.000739061 0.000528467 -3.84294e-06
-1.06968e-05 -3.84294e-06 0.000289564
0.00188226 -0.000612184 -1.35062e-05
-0.000612184 0.000472473 1.19707e-06
-1.35062e-05 1.19707e-06 0.000231308
0.000438058 -3.00208e-05 -7.66674e-07
-3.00208e-05 5.28647e-06 -2.21021e-06
-7.66674e-07 -2.21021e-06 -0.000117403
0.000345592 -7.92884e-05 -2.00157e-06
-7.92884e-05 -6.82792e-05 -6.81117e-06
-2.00157e-06 -6.81117e-06 -0.000206134
0.000253962 -0.000136576 -4.90579e-06
-0.000136576 2.25774e-05 1.86699e-05
-4.90579e-06 1.86699e-05 -0.000202747
-0.000552353 -0.000333545 -6.34207e-06
-0.000333545 -0.000136967 -1.46415e-05
-6.34207e-06 -1.46415e-05 -0.0007835
0.00136644 -0.000479446 3.3199e-05
-0.000479446 -0.00382108 -1.41884e-06
3.3199e-05 -1.41884e-06 -0.00395599
0.00172137 0.000164512 2.84126e-07
0.000164512 0.000730727 -4.21071e-06
2.84126e-07 -4.21071e-06 0.00057518
0.000784741 0.000249459 1.09802e-06
0.000249459 8.99688e-05 1.92012e-06
1.09802e-06 1.92012e-06 -0.000133482
0.00211118 0.000257072 6.05224e-05
0.000257072 7.34021e-05 1.37695e-05
6.05224e-05 1.37695e-05 0.000128773
0.00194242 0.000545821 2.10246e-05
0.000545821 7.63577e-05 7.3258e-06
2.10246e-05 7.3258e-06 -7.516e-05
0.00207768 0.000569169 9.91351e-06
0.000569169 0.000532443 1.00335e-05
9.91351e-06 1.00335e-05 0.000189883
0.00130137 0.000403226 6.52087e-06
0.000403226 0.000265923 5.23306e-06
6.52087e-06 5.23306e-06 -5.14677e-05
0.00347692 0.000747716 9.00581e-05
0.000747716 4.36161e-05 3.79147e-05
9.00581e-05 3.79147e-05 -0.000350052
0.00127797 0.000222267 4.52502e-06
0.000222267 0.000501508 6.64045e-07
4.52502e-06 6.64045e-07 0.00031476
0.00252674 0.000462885 -7.32711e-06
0.000462885 0.00041318 -5.31244e-07
-7.32711e-06 -5.31244e-07 0.00038119
0.00111377 0.000334178 1.21918e-07
0.000334178 0.000207376 1.17195e-06
1.21918e-07 1.17195e-06 -3.29599e-05
0.00122047 0.000438481 1.60968e-06
0.000438481 0.000184821 -3.62237e-06
1.60968e-06 -3.62237e-06 -0.000134751
0.00142962 0.000590895 -6.67562e-06
0.000590895 -3.47269e-05 -6.755e-07
-6.67562e-06 -6.755e-07 -0.000239355
0.00310989 -0.000425945 -0.000148522
-0.000425945 -0.00330867 -4.43341e-05
-0.000148522 -4.43341e-05 -0.00434631
0.00665467 0.000968284 -4.30768e-05
0.000968284 0.000624386 -5.79496e-05
-4.30768e-05 -5.79496e-05 0.00042507
0.000979805 0.000706554 -8.14464e-06
0.000706554 -0.000232687 6.93887e-06
-8.14464e-06 6.93887e-06 -0.000611904
-0.00185062 -0.000914345 0.000276806
-0.000914345 0.00154143 0.000118066
0.000276806 0.000118066 -0.000559401
0.00434684 -0.00424866 -0.000228065
-0.00424866 0.0010124 -0.000228914
-0.000228065 -0.000228914 0.00157647
0.00148435 0.000260364 -1.05111e-05
0.000260364 0.000591355 -1.21268e-06
-1.05111e-05 -1.21268e-06 0.000413769
0.000626826 0.000501387 0.000358081
0.000501387 0.00265564 2.04457e-05
0.000358081 2.04457e-05 0.00122021
0.00120375 -0.00124902 -0.000149298
-0.00124902 0.00347117 -0.000203378
-0.000149298 -0.000203378 0.000415278
0.00276067 0.000735733 -3.87429e-05
0.000735733 0.000532932 -1.07651e-05
-3.87429e-05 -1.07651e-05 0.000500153
0.000672345 0.000204233 -1.80894e-05
0.000204233 -3.53547e-05 -5.88958e-06
-1.80894e-05 -5.88958e-06 -0.000246776
0.000586936 0.000471163 -2.99159e-05
0.000471163 -0.000135602 -2.01969e-05
-2.99159e-05 -2.01969e-05 -0.000430765
0.00031092 0.000724166 3.87046e-05
0.000724166 -0.000633299 8.15318e-05
3.87046e-05 8.15318e-05 -0.00084795
0.0132729 0.0013119 -1.20517e-06
0.0013119 0.00320305 -5.41046e-05
-1.20517e-06 -5.41046e-05 0.00169696
0.00236575 0.00131281 3.65461e-06
0.00131281 0.000134403 -1.02091e-05
3.65461e-06 -1.02091e-05 -0.000760675
0.00599091 -0.00373401 0.000562007
-0.00373401 0.000905419 0.000353715
0.000562007 0.000353715 0.000315438
0.00830995 -0.00184051 -4.74253e-05
-0.00184051 0.000640397 0.00035816
-4.74253e-05 0.00035816 0.000663779
0.000591694 5.99248e-05 4.1105e-06
5.99248e-05 0.000104441 -2.47525e-06
4.1105e-06 -2.47525e-06 2.12373e-05
0.000655003 0.000114071 6.1283e-06
0.000114071 0.000139244 5.90452e-07
6.1283e-06 5.90452e-07 3.4224e-05
0.00145473 0.000205095 4.86106e-07
0.000205095 0.000627881 -2.5283e-06
4.86106e-07 -2.5283e-06 0.000490854
0.000602003 7.61882e-06 8.7112e-07
7.61882e-06 8.89009e-05 -6.02741e-07
8.7112e-07 -6.02741e-07 -2.9492e-05
0.000726965 4.40807e-05 -5.11131e-07
4.40807e-05 0.000154849 -2.07055e-06
-5.11131e-07 -2.07055e-06 1.73492e-05
0.000369503 6.11113e-06 -1.87707e-06
6.11113e-06 -7.17971e-05 -4.22869e-07
-1.87707e-06 -4.22869e-07 -0.000199757
0.000714886 7.7449e-05 -4.54495e-06
7.7449e-05 0.000129615 9.0297e-07
-4.54495e-06 9.0297e-07 -6.7645e-07
0.000238474 5.23776e-05 -3.16839e-06
5.23776e-05 -0.000185154 2.22472e-07
-3.16839e-06 2.22472e-07 -0.000257232
0.000403356 -7.84249e-06 1.7978e-07
-7.84249e-06 -4.81791e-05 8.3578e-07
1.7978e-07 8.3578e-07 -0.0001602
0.00085468 6.22163e-05 9.82156e-07
6.22163e-05 0.0002247 6.46704e-07
9.82156e-07 6.46704e-07 8.56439e-05
0.000760748 3.97785e-05 7.7593e-07
3.97785e-05 0.000169889 5.49071e-07
7.7593e-07 5.49071e-07 3.17923e-05
0.000689755 1.90608e-05 9.48539e-07
1.90608e-05 0.000136266 -3.19503e-07
9.48539e-07 -3.19503e-07 -7.75175e-06
0.000493563 7.67801e-05 -3.69789e-07
7.67801e-05 2.14579e-05 -1.4615e-06
-3.69789e-07 -1.4615e-06 -0.000106065
0.00108448 8.51045e-05 -1.17369e-06
8.51045e-05 0.000374918 -2.68278e-06
-1.17369e-06 -2.68278e-06 0.000238369
-7.6226e-05 3.80358e-05 -3.12816e-06
3.80358e-05 -0.000267434 -4.82408e-06
-3.12816e-06 -4.82408e-06 -0.000399499
0.00077159 -8.96243e-05 -1.54886e-07
-8.96243e-05 0.00017529 -3.22897e-07
-1.54886e-07 -3.22897e-07 3.50715e-05
0.000754933 -6.26627e-05 -3.07194e-07
-6.26627e-05 0.000184957 -1.22752e-07
-3.07194e-07 -1.22752e-07 3.89315e-05
0.000762862 -2.97483e-05 -2.0824e-07
-2.97483e-05 0.000189351 -3.39527e-07
-2.0824e-07 -3.39527e-07 4.39985e-05
0.000832043 -5.91769e-06 -1.69089e-06
-5.91769e-06 0.00021389 -1.89245e-07
-1.69089e-06 -1.89245e-07 8.74475e-05
0.000747319 3.52333e-05 -3.28224e-06
3.52333e-05 0.000187789 -2.39225e-06
-3.28224e-06 -2.39225e-06 2.92248e-05
0.000707947 -3.13371e-06 1.69455e-06
-3.13371e-06 0.000144433 -2.62662e-06
1.69455e-06 -2.62662e-06 1.94304e-05
3.19787e-05 -2.67916e-05 -4.04032e-07
-2.67916e-05 -0.000269089 -3.21126e-06
-4.04032e-07 -3.21126e-06 -0.000379828
0.000566359 -1.94602e-05 7.647e-07
-1.94602e-05 3.39257e-05 -3.53193e-07
7.647e-07 -3.53193e-07 -8.51668e-05
0.000631632 -6.68852e-05 9.16628e-07
-6.68852e-05 8.50522e-05 1.06406e-06
9.16628e-07 1.06406e-06 -2.95711e-05
0.000704109 -6.34554e-05 -4.81438e-07
-6.34554e-05 0.00014822 -8.3896e-08
-4.81438e-07 -8.3896e-08 1.92721e-05
0.000622837 -6.60947e-05 -2.02163e-06
-6.60947e-05 6.9529e-05 1.58084e-06
-2.02163e-06 1.58084e-06 -2.53092e-05
0.000581431 -4.83499e-05 1.47094e-06
-4.83499e-05 5.51694e-05 -4.19376e-07
1.47094e-06 -4.19376e-07 -6.55282e-05
0.000555653 -9.023e-05 1.54703e-07
-9.023e-05 4.05097e-05 2.35872e-07
1.54703e-07 2.35872e-07 -6.63039e-05
0.000594977 -3.26662e-05 -2.21939e-06
-3.26662e-05 3.77948e-05 3.14369e-06
-2.21939e-06 3.14369e-06 -2.56364e-05
0.000451577 -4.87413e-06 1.23694e-06
-4.87413e-06 -1.20141e-05 -8.7505e-07
1.23694e-06 -8.7505e-07 -0.00012961
0.000550034 1.18936e-06 1.58743e-06
1.18936e-06 1.90304e-05 2.0201e-08
1.58743e-06 2.0201e-08 -4.68709e-05
0.00140864 -1.30576e-07 -4.17766e-06
-1.30576e-07 0.000508975 5.89186e-06
-4.17766e-06 5.89186e-06 0.000494017
0.000546415 4.64293e-05 -9.59746e-07
4.64293e-05 1.7134e-05 -2.69978e-06
-9.59746e-07 -2.69978e-06 -4.82117e-05
0.000924362 -2.3158e-06 -2.33873e-06
-2.3158e-06 0.000218433 7.81431e-07
-2.33873e-06 7.81431e-07 0.000201498
0.000806866 2.77755e-06 -4.11081e-06
2.77755e-06 0.000140176 4.99005e-06
-4.11081e-06 4.99005e-06 0.000146367
0.000497942 -1.19488e-06 1.02419e-06
-1.19488e-06 -4.03243e-05 -4.11787e-06
1.02419e-06 -4.11787e-06 -5.92651e-05
0.00245019 5.0419e-07 5.07044e-06
5.0419e-07 0.00113748 -9.70901e-09
5.07044e-06 -9.70901e-09 0.00115176
0.000861144 -1.90233e-06 -4.71231e-06
-1.90233e-06 0.000170972 -5.1696e-06
-4.71231e-06 -5.1696e-06 0.000177109
0.000548954 6.32966e-05 2.26924e-06
6.32966e-05 4.29637e-05 4.97233e-07
2.26924e-06 4.97233e-07 -4.4991e-05
0.000533863 3.66087e-05 -1.74991e-06
3.66087e-05 -3.54718e-06 -1.6827e-06
-1.74991e-06 -1.6827e-06 -4.48796e-05
0.000549718 -6.154e-06 1.1636e-06
-6.154e-06 3.48986e-06 2.04428e-08
1.1636e-06 2.04428e-08 -3.82175e-05
0.000555269 8.33247e-06 5.65998e-07
8.33247e-06 -2.17646e-05 -2.95738e-06
5.65998e-07 -2.95738e-06 -2.93157e-05
0.000588323 -4.27737e-05 -1.63127e-06
-4.27737e-05 2.42062e-05 1.38993e-06
-1.63127e-06 1.38993e-06 -1.98969e-05
0.000526846 1.3932e-05 3.43864e-08
1.3932e-05 -3.96094e-05 -7.57323e-07
3.43864e-08 -7.57323e-07 -4.75061e-05
0.00200381 3.02088e-05 6.52283e-06
3.02088e-05 0.000866831 -4.4465e-06
6.52283e-06 -4.4465e-06 0.000884293
0.00111977 3.32623e-05 -5.73222e-07
3.32623e-05 0.000325086 1.78965e-06
-5.73222e-07 1.78965e-06 0.000318263
0.00146792 3.84547e-05 -1.34401e-08
3.84547e-05 0.000544004 1.38815e-06
-1.34401e-08 1.38815e-06 0.000555652
0.000881956 4.18348e-05 -1.19086e-05
4.18348e-05 0.000192075 7.20677e-06
-1.19086e-05 7.20677e-06 0.000197726
0.0013773 0.00021482 8.34893e-05
0.00021482 -0.00115517 1.58348e-05
8.34893e-05 1.58348e-05 -0.000915633
0.00203567 -3.23729e-05 1.02865e-06
-3.23729e-05 -4.51819e-05 2.36539e-06
1.02865e-06 2.36539e-06 -1.14544e-05
0.00194754 7.15384e-05 3.74482e-05
7.15384e-05 0.000120516 -1.37474e-05
3.74482e-05 -1.37474e-05 0.000205063
0.00183803 0.000195343 -2.96249e-05
0.000195343 -0.00139346 -2.02241e-05
-2.96249e-05 -2.02241e-05 -0.000710269
0.00195165 7.92782e-05 2.47748e-05
7.92782e-05 -0.000491146 -9.23909e-07
2.47748e-05 -9.23909e-07 -0.000262087
0.00240122 -2.65087e-05 1.88118e-06
-2.65087e-05 0.000368688 -5.15464e-06
1.88118e-06 -5.15464e-06 0.000366191
0.00379253 -0.000148464 -5.54377e-05
-0.000148464 0.000913678 -5.22368e-06
-5.54377e-05 -5.22368e-06 0.000884905
0.00293034 -8.78793e-05 5.264e-05
-8.78793e-05 0.000226374 1.34839e-05
5.264e-05 1.34839e-05 0.000267867
0.0115601 -0.000619537 1.09662e-05
-0.000619537 0.00243487 4.13035e-05
1.09662e-05 4.13035e-05 0.000851093
0.0122649 0.00288293 0.000686099
0.00288293 0.00517135 -0.000289731
0.000686099 -0.000289731 0.00437791
0.00858183 0.00322551 -2.9394e-05
0.00322551 0.00625883 1.4699e-05
-2.9394e-05 1.4699e-05 0.00571203
0.000386425 -9.46733e-05 1.31482e-06
-9.46733e-05 -4.68532e-05 -9.52282e-08
1.31482e-06 -9.52282e-08 -0.000146678
0.000608676 -1.15885e-05 1.31859e-06
-1.15885e-05 7.59753e-05 -1.56567e-07
1.31859e-06 -1.56567e-07 -7.05127e-06
0.000677995 -8.45086e-05 -1.49932e-06
-8.45086e-05 0.00012606 1.02079e-06
-1.49932e-06 1.02079e-06 3.52363e-05
0.000599161 -4.68535e-05 -4.16838e-08
-4.68535e-05 7.51589e-05 3.65856e-07
-4.16838e-08 3.65856e-07 -2.53814e-05
0.000610412 5.93625e-05 -2.10375e-06
5.93625e-05 0.00010573 2.19882e-06
-2.10375e-06 2.19882e-06 -1.26168e-05
0.000510612 0.000117746 1.70403e-06
0.000117746 1.17947e-05 5.33702e-06
1.70403e-06 5.33702e-06 -9.96669e-05
0.000902755 -1.55984e-05 3.27452e-06
-1.55984e-05 0.000277212 1.47862e-06
3.27452e-06 1.47862e-06 0.000159863
0.00052898 -2.56775e-05 -1.34706e-06
-2.56775e-05 3.75645e-05 1.10162e-06
-1.34706e-06 1.10162e-06 -6.44647e-05
0.00233376 -0.000218967 5.34493e-06
-0.000218967 9.5428e-05 6.08443e-07
5.34493e-06 6.08443e-07 0.00016138
0.00182595 -0.000357743 1.15949e-05
-0.000357743 -0.000271007 -3.82249e-06
1.15949e-05 -3.82249e-06 -0.00016522
0.00173729 -0.00055843 7.16936e-06
-0.00055843 -6.99562e-05 1.78444e-06
7.16936e-06 1.78444e-06 -0.000200034
0.00155868 -0.000535727 2.12087e-05
-0.000535727 0.000420885 -2.3884e-07
2.12087e-05 -2.3884e-07 7.13214e-05
0.00182255 -0.000668102 5.57794e-06
-0.000668102 0.000259612 4.30919e-06
5.57794e-06 4.30919e-06 7.82548e-06
0.00298107 -0.000723068 1.43916e-05
-0.000723068 0.00152113 4.57987e-07
1.43916e-05 4.57987e-07 0.000981333
0.00273298 -0.000381646 3.06055e-06
-0.000381646 0.00129722 -3.30651e-06
3.06055e-06 -3.30651e-06 0.000980255
0.000683046 -0.000138917 7.73823e-06
-0.000138917 0.000114951 -1.02034e-05
7.73823e-06 -1.02034e-05 -6.30723e-05
0.000590036 -3.96484e-05 -2.88881e-07
-3.96484e-05 4.88588e-05 3.1181e-06
-2.88881e-07 3.1181e-06 -4.99541e-05
0.000753894 -6.92218e-05 4.62698e-06
-6.92218e-05 0.000151064 -1.39242e-05
4.62698e-06 -1.39242e-05 2.21945e-05
0.000923858 -2.62744e-05 2.10592e-06
-2.62744e-05 0.000282767 -3.01091e-07
2.10592e-06 -3.01091e-07 0.000167995
0.00065599 6.77167e-05 1.87392e-06
6.77167e-05 0.000111381 1.62712e-06
1.87392e-06 1.62712e-06 3.85494e-05
0.00209086 -0.000280173 -1.30973e-06
-0.000280173 -6.80462e-05 2.60341e-06
-1.30973e-06 2.60341e-06 8.36337e-05
0.000594989 -1.5257e-06 -1.77762e-06
-1.5257e-06 0.000100782 -5.61213e-07
-1.77762e-06 -5.61213e-07 -2.27361e-05
0.000913773 -0.00011861 -3.96816e-06
-0.00011861 0.000265174 3.76457e-06
-3.96816e-06 3.76457e-06 0.000137346
0.00169376 -0.000454146 3.45864e-06
-0.000454146 -0.000207236 -1.85272e-06
3.45864e-06 -1.85272e-06 -0.000164451
0.00164601 -0.000640777 5.20394e-07
-0.000640777 -6.80917e-06 -4.6402e-07
5.20394e-07 -4.6402e-07 -0.000202341
0.000927435 -0.00052168 -7.94729e-07
-0.00052168 -5.41215e-05 -1.7514e-06
-7.94729e-07 -1.7514e-06 -0.000294827
0.00128926 -0.00020862 4.07659e-07
-0.00020862 0.000591352 -9.10632e-06
4.07659e-07 -9.10632e-06 0.00034353
0.00125217 -0.000401043 -2.31665e-06
-0.000401043 0.000801426 2.17115e-06
-2.31665e-06 2.17115e-06 0.000230828
0.00306066 -0.000433163 -3.69819e-05
-0.000433163 0.000382917 7.24475e-06
-3.69819e-05 7.24475e-06 0.000465555
0.00321039 -0.000677917 -4.2421e-05
-0.000677917 0.000795677 1.02147e-05
-4.2421e-05 1.02147e-05 0.000726262
0.00209937 -0.000739751 -1.15796e-05
-0.000739751 0.000321354 4.19239e-07
-1.15796e-05 4.19239e-07 0.000120686
0.000150138 -0.000361737 -1.65303e-05
-0.000361737 -0.000284443 1.4565e-05
-1.65303e-05 1.4565e-05 -0.000485053
0.000659625 -0.000145026 1.95162e-06
-0.000145026 0.000145102 4.10326e-06
1.95162e-06 4.10326e-06 -1.19094e-05
0.000475513 -0.000128495 3.3662e-06
-0.000128495 7.88976e-05 2.02968e-06
3.3662e-06 2.02968e-06 -0.000101711
0.00135029 -0.000148092 -2.37799e-06
-0.000148092 0.000840668 -6.79038e-06
-2.37799e-06 -6.79038e-06 0.00038284
-0.00591632 -0.000176313 0.000336065
-0.000176313 -0.00439612 2.91295e-06
0.000336065 2.91295e-06 -0.00309538
0.0105864 -0.000187753 2.85604e-05
-0.000187753 0.00236926 2.06889e-06
2.85604e-05 2.06889e-06 0.00188613
0.00152478 0.000194503 7.20405e-06
0.000194503 0.000627388 -5.37695e-06
7.20405e-06 -5.37695e-06 0.000458218
0.00117233 0.000340382 2.1069e-08
0.000340382 0.000267699 1.0789e-06
2.1069e-08 1.0789e-06 2.33995e-05
0.00129551 0.000365529 5.49602e-05
0.000365529 -0.000272733 2.76484e-05
5.49602e-05 2.76484e-05 -0.000271974
0.00261304 0.000688199 1.99434e-05
0.000688199 0.000586823 7.21756e-06
1.99434e-05 7.21756e-06 0.00036394
0.00259327 0.000596308 1.43921e-05
0.000596308 0.000948316 3.18796e-06
1.43921e-05 3.18796e-06 0.00060666
0.0125285 0.000702047 6.58176e-05
0.000702047 0.00303541 2.47793e-05
6.58176e-05 2.47793e-05 0.00193467
0.00787786 0.0013502 -0.000182237
0.0013502 0.000569096 5.04348e-06
-0.000182237 5.04348e-06 0.000450895
0.00174808 0.000692033 1.63087e-06
0.000692033 0.000256307 -2.3826e-05
1.63087e-06 -2.3826e-05 -0.000191162
0.0114194 -0.00222009 -0.000212952
-0.00222009 0.00503484 -1.84138e-06
-0.000212952 -1.84138e-06 0.00379341
-0.00509492 -0.00433157 -0.00118246
-0.00433157 -0.00163927 -0.000871146
-0.00118246 -0.000871146 -0.00131572
0.000978369 0.00023913 -1.11993e-07
0.00023913 0.000312247 -1.45688e-07
-1.11993e-07 -1.45688e-07 0.000129325
-0.00257905 -0.00125035 0.000226843
-0.00125035 -0.00260771 3.88651e-05
0.000226843 3.88651e-05 -0.00328659
-0.00337899 -0.000887837 -0.00025224
-0.000887837 0.0026109 -0.000124852
-0.00025224 -0.000124852 -0.000776556
0.00299625 0.000677195 -1.47342e-05
0.000677195 0.000659222 -1.00365e-06
-1.47342e-05 -1.00365e-06 0.000637371
0.000999395 0.000295995 -5.02948e-06
0.000295995 0.000181308 2.6093e-06
-5.02948e-06 2.6093e-06 -6.08359e-05
0.00139178 0.00057976 6.12692e-06
0.00057976 0.000300154 2.26967e-06
6.12692e-06 2.26967e-06 -1.8709e-05
0.0013052 0.000655359 2.75686e-05
0.000655359 6.24589e-05 2.03189e-05
2.75686e-05 2.03189e-05 -2.76935e-05
0.0115384 0.0011065 -9.27812e-05
0.0011065 0.00160874 -4.77087e-05
-9.27812e-05 -4.77087e-05 -0.000330234
0.00563277 0.00191125 -6.98495e-05
0.00191125 0.00096199 -3.96685e-05
-6.98495e-05 -3.96685e-05 0.000424414
0.0137677 -0.0027549 0.000235777
-0.0027549 0.00579478 -3.61669e-05
0.000235777 -3.61669e-05 0.00488537
0.00849135 -0.0023712 0.000187387
-0.0023712 -0.000168469 0.000454608
0.000187387 0.000454608 2.37821e-06
0.00196383 0.000257285 -1.80705e-05
0.000257285 0.000894304 -1.0741e-05
-1.80705e-05 -1.0741e-05 0.000735964
-0.00838584 0.00062753 -0.000100268
0.00062753 0.00173519 -8.62134e-05
-0.000100268 -8.62134e-05 -0.00237258
0.0039111 0.000504063 -0.000239968
0.000504063 0.0024928 -0.000308884
-0.000239968 -0.000308884 -0.00121535
0.00198418 0.000570342 -2.25951e-05
0.000570342 0.000362134 8.07226e-06
-2.25951e-05 8.07226e-06 0.000367182
0.00194102 0.000522493 -6.0568e-05
0.000522493 0.00077903 -2.15769e-05
-6.0568e-05 -2.15769e-05 0.000515838
0.00211292 0.000537505 -6.19503e-05
0.000537505 0.00130379 -7.96627e-06
-6.19503e-05 -7.96627e-06 0.0007913
0.000466699 0.00119487 -6.17119e-05
0.00119487 -0.000246645 -2.42619e-05
-6.17119e-05 -2.42619e-05 -0.000444061
-0.000308341 0.00136708 0.000223741
0.00136708 -0.00113654 0.000130324
0.000223741 0.000130324 -0.00413405
0.0127494 -0.00328729 0.00018365
-0.00328729 0.00518525 0.000418163
0.00018365 0.000418163 0.00374039
0.00643073 -0.00115257 -8.0072e-05
-0.00115257 -0.00206679 -8.42216e-05
-8.0072e-05 -8.42216e-05 -0.000870257
4.16867e-05 0.000107839 2.42664e-06
0.000107839 -0.000207935 -3.17776e-06
2.42664e-06 -3.17776e-06 -0.000325196
0.00127347 0.000187985 7.7636e-06
0.000187985 0.000507112 3.62569e-06
7.7636e-06 3.62569e-06 0.000374287
-0.00012459 7.44261e-05 4.03808e-06
7.44261e-05 -0.000250234 -9.46924e-06
4.03808e-06 -9.46924e-06 -0.000392594
0.000405415 4.89324e-05 1.64254e-06
4.89324e-05 -4.692e-05 -6.78751e-07
1.64254e-06 -6.78751e-07 -0.000158707
0.000767293 5.44839e-05 -4.11043e-07
5.44839e-05 0.000189706 -1.35535e-06
-4.11043e-07 -1.35535e-06 4.17007e-05
0.000725585 -7.39142e-06 -9.9704e-07
-7.39142e-06 0.000150499 1.46095e-06
-9.9704e-07 1.46095e-06 1.03459e-05
0.000723066 2.22742e-05 4.0461e-06
2.22742e-05 0.000155118 -8.1162e-07
4.0461e-06 -8.1162e-07 1.31739e-05
0.000499529 6.66364e-05 -1.56662e-06
6.66364e-05 3.01138e-05 2.0172e-06
-1.56662e-06 2.0172e-06 -9.34528e-05
0.00074927 4.68919e-05 9.57491e-08
4.68919e-05 0.000182215 -8.59922e-07
9.57491e-08 -8.59922e-07 3.60274e-05
0.000837815 6.1025e-05 3.50723e-07
6.1025e-05 0.00022104 1.62343e-07
3.50723e-07 1.62343e-07 8.89919e-05
0.000783449 -5.01783e-05 -8.227e-07
-5.01783e-05 0.000183271 1.07003e-06
-8.227e-07 1.07003e-06 4.18517e-05
-0.000241427 2.87837e-05 7.29461e-07
2.87837e-05 -0.00034165 6.2247e-07
7.29461e-07 6.2247e-07 -0.000482193
-0.000976934 1.34033e-05 -4.7661e-07
1.34033e-05 -0.000557194 2.48121e-07
-4.7661e-07 2.48121e-07 -0.000809117
0.000919828 -6.49407e-06 -4.16343e-06
-6.49407e-06 0.000287533 -6.06838e-06
-4.16343e-06 -6.06838e-06 0.000154898
0.000899639 3.87236e-07 3.24491e-07
3.87236e-07 0.000277021 -2.63066e-07
3.24491e-07 -2.63066e-07 0.000113973
0.000774142 -5.93427e-05 -7.11986e-07
-5.93427e-05 0.000201858 -1.07237e-06
-7.11986e-07 -1.07237e-06 5.20293e-05
0.000825275 -5.59552e-05 6.00683e-07
-5.59552e-05 0.000202725 2.3002e-06
6.00683e-07 2.3002e-06 8.13937e-05
0.000772386 -4.74058e-05 7.76937e-07
-4.74058e-05 0.000191242 -7.86676e-07
7.76937e-07 -7.86676e-07 4.02731e-05
0.000741421 -1.70179e-05 -7.60117e-07
-1.70179e-05 0.000157066 -1.07358e-07
-7.60117e-07 -1.07358e-07 3.40377e-05
0.000275428 -5.66617e-05 6.75423e-07
-5.66617e-05 -0.000111487 1.75583e-06
6.75423e-07 1.75583e-06 -0.000222511
0.000503302 -9.4889e-06 1.04384e-06
-9.4889e-06 1.29504e-05 1.21593e-06
1.04384e-06 1.21593e-06 -0.000107383
0.000308302 -2.54238e-07 -3.63428e-06
-2.54238e-07 -7.55669e-05 -3.9708e-06
-3.63428e-06 -3.9708e-06 -0.000212551
0.000235084 -5.17999e-05 2.21591e-06
-5.17999e-05 -0.000123968 -1.96152e-06
2.21591e-06 -1.96152e-06 -0.000232088
0.000812106 -5.96156e-05 3.91301e-06
-5.96156e-05 0.000136295 -9.2249e-06
3.91301e-06 -9.2249e-06 3.914e-05
-0.00017511 -3.67792e-05 -3.13819e-07
-3.67792e-05 -0.000446935 1.68077e-06
-3.13819e-07 1.68077e-06 -0.000593703
0.000242126 -1.61411e-05 -2.35369e-06
-1.61411e-05 -0.000150014 -1.3289e-06
-2.35369e-06 -1.3289e-06 -0.000271783
0.000753599 -3.13512e-05 3.51448e-07
-3.13512e-05 0.000142591 7.43446e-08
3.51448e-07 7.43446e-08 2.12522e-05
0.00060375 -3.00378e-05 1.41373e-07
-3.00378e-05 6.15945e-05 8.66816e-07
1.41373e-07 8.66816e-07 -5.12896e-05
0.000709052 -5.18531e-05 2.33754e-08
-5.18531e-05 0.000147012 1.7717e-08
2.33754e-08 1.7717e-08 2.18287e-05
0.000518564 -7.79716e-06 -3.0554e-08
-7.79716e-06 1.30224e-05 1.59082e-06
-3.0554e-08 1.59082e-06 -8.52521e-05
0.000774383 -4.51428e-05 -6.9591e-07
-4.51428e-05 0.00018681 -4.10419e-07
-6.9591e-07 -4.10419e-07 6.0056e-05
0.0006429 -5.86785e-05 -6.72729e-07
-5.86785e-05 9.21002e-05 9.95019e-08
-6.72729e-07 9.95019e-08 -9.5134e-06
0.000509975 3.8355e-05 -6.52454e-07
3.8355e-05 -1.45572e-05 2.95463e-06
-6.52454e-07 2.95463e-06 -7.96286e-05
0.000465997 -7.90176e-05 1.83686e-06
-7.90176e-05 -1.9521e-05 -1.30836e-06
1.83686e-06 -1.30836e-06 -0.000123722
0.000565026 -1.60681e-05 -4.40598e-07
-1.60681e-05 1.8244e-05 4.21116e-08
-4.40598e-07 4.21116e-08 -4.39422e-05
0.00140645 1.20288e-05 -5.6699e-06
1.20288e-05 0.000504786 6.20107e-06
-5.6699e-06 6.20107e-06 0.000488847
0.000556483 -3.93506e-05 1.35123e-06
-3.93506e-05 1.9792e-05 -2.66238e-06
1.35123e-06 -2.66238e-06 -4.41279e-05
0.000920618 -1.13731e-06 -3.19936e-06
-1.13731e-06 0.000212658 7.05898e-07
-3.19936e-06 7.05898e-07 0.000195696
0.000759393 1.4272e-05 4.25036e-07
1.4272e-05 0.000106617 2.10946e-06
4.25036e-07 2.10946e-06 0.000112752
0.000498056 -6.89989e-06 1.19014e-06
-6.89989e-06 -4.17757e-05 -4.09995e-06
1.19014e-06 -4.09995e-06 -6.03834e-05
0.002456 1.39505e-05 5.23529e-06
1.39505e-05 0.00114108 6.17413e-08
5.23529e-06 6.17413e-08 0.00115525
0.0024461 1.98828e-06 -5.75011e-07
1.98828e-06 0.00113501 -5.20688e-06
-5.75011e-07 -5.20688e-06 0.00114929
0.000992753 7.33418e-05 -7.47199e-07
7.33418e-05 0.000307588 -1.34008e-07
-7.47199e-07 -1.34008e-07 0.000219907
0.00055923 4.5857e-05 -1.41689e-06
4.5857e-05 1.57775e-05 -2.01951e-06
-1.41689e-06 -2.01951e-06 -2.90114e-05
0.00060357 -1.17802e-05 4.71105e-07
-1.17802e-05 7.66241e-05 8.55034e-07
4.71105e-07 8.55034e-07 -1.11324e-05
0.000554241 4.12012e-06 5.69684e-07
4.12012e-06 -2.25266e-05 -3.20411e-06
5.69684e-07 -3.20411e-06 -2.99427e-05
0.000546773 -1.58473e-05 2.35995e-07
-1.58473e-05 4.80658e-06 -3.59681e-08
2.35995e-07 -3.59681e-08 -3.68752e-05
0.000582006 -4.30919e-05 -1.40488e-06
-4.30919e-05 2.452e-05 1.13933e-06
-1.40488e-06 1.13933e-06 -1.84488e-05
0.000539581 7.65377e-06 -3.06517e-07
7.65377e-06 -3.14318e-05 -2.2415e-08
-3.06517e-07 -2.2415e-08 -3.88994e-05
0.00198996 1.69201e-05 1.83294e-06
1.69201e-05 0.000855997 -4.59e-06
1.83294e-06 -4.59e-06 0.000874422
0.00111232 2.16548e-05 -6.81008e-07
2.16548e-05 0.000317798 1.76407e-06
-6.81008e-07 1.76407e-06 0.00031305
0.00136297 2.53674e-05 1.57404e-07
2.53674e-05 0.000475167 -1.09481e-08
1.57404e-07 -1.09481e-08 0.00048933
0.000839778 3.01523e-05 -1.15873e-05
3.01523e-05 0.000160789 6.98681e-06
-1.15873e-05 6.98681e-06 0.000169588
-0.00929554 0.000669912 0.000286562
0.000669912 -0.00385267 -1.78811e-06
0.000286562 -1.78811e-06 -0.00536506
-0.00238218 -8.60983e-05 0.000464492
-8.60983e-05 0.003438 -8.84659e-05
0.000464492 -8.84659e-05 0.000968234
0.00422611 0.000255043 -0.00022087
0.000255043 -0.000369393 -1.95996e-05
-0.00022087 -1.95996e-05 0.000468673
0.000601044 4.46142e-05 2.56164e-05
4.46142e-05 -0.00115785 -2.41342e-05
2.56164e-05 -2.41342e-05 -0.000979067
0.00148321 -4.05492e-05 1.62219e-05
-4.05492e-05 -0.000247097 5.51935e-06
1.62219e-05 5.51935e-06 -0.000248007
-0.000511826 4.88767e-05 -4.1338e-05
4.88767e-05 -0.000981388 -1.28158e-05
-4.1338e-05 -1.28158e-05 -0.000660253
0.00303689 -0.000189874 -2.05714e-06
-0.000189874 0.000353475 4.99516e-06
-2.05714e-06 4.99516e-06 0.000343264
0.0102166 5.47719e-05 9.60153e-05
5.47719e-05 0.00072222 -3.87059e-05
9.60153e-05 -3.87059e-05 -0.00032619
-0.00229417 0.00180991 -9.76314e-06
0.00180991 -0.000295929 -3.03884e-05
-9.76314e-06 -3.03884e-05 -0.00231982
0.00217344 0.00359818 -0.000242937
0.00359818 0.00255739 0.000129135
-0.000242937 0.000129135 0.00256755
0.00200617 -0.000379051 7.04226e-05
-0.000379051 -0.00105119 -1.84953e-05
7.04226e-05 -1.84953e-05 -0.000741794
0.0138419 -0.000931653 0.000145769
-0.000931653 0.00289884 -3.92169e-05
0.000145769 -3.92169e-05 0.00125469
0.00688122 0.00347847 0.000230728
0.00347847 0.00133029 -0.000379498
0.000230728 -0.000379498 0.000973355
0.0106551 0.0023804 -0.000276575
0.0023804 0.00218746 0.000186345
-0.000276575 0.000186345 0.00151468
0.000805814 0.000114713 -2.44851e-06
0.000114713 0.000228843 2.60184e-06
-2.44851e-06 2.60184e-06 8.84942e-05
0.000441354 2.31767e-05 -3.2398e-08
2.31767e-05 -2.10808e-05 -8.64734e-07
-3.2398e-08 -8.64734e-07 -0.000115699
0.000631951 -9.22696e-05 -5.64112e-07
-9.22696e-05 9.61997e-05 5.80933e-07
-5.64112e-07 5.80933e-07 8.40572e-06
0.000550767 -6.5441e-06 2.10414e-06
-6.5441e-06 5.36444e-05 -9.78089e-07
2.10414e-06 -9.78089e-07 -5.12461e-05
0.000603566 5.8498e-05 1.24913e-06
5.8498e-05 0.00010579 1.3954e-06
1.24913e-06 1.3954e-06 -1.35398e-05
0.000679572 4.0009e-05 6.29002e-07
4.0009e-05 0.000151468 4.99761e-06
6.29002e-07 4.99761e-06 1.11649e-05
0.000759107 9.34907e-05 1.31899e-06
9.34907e-05 0.000178729 2.15299e-06
1.31899e-06 2.15299e-06 5.61455e-05
0.000560168 3.31123e-05 4.36495e-06
3.31123e-05 4.36351e-05 1.00223e-06
4.36495e-06 1.00223e-06 -7.90221e-05
0.000718192 -3.07084e-05 1.87672e-06
-3.07084e-05 0.000165614 -9.70486e-07
1.87672e-06 -9.70486e-07 4.65665e-05
0.000510337 -8.61013e-06 7.60768e-08
-8.61013e-06 1.37092e-05 -1.16268e-06
7.60768e-08 -1.16268e-06 -8.24909e-05
0.00171963 -0.000259236 2.19195e-05
-0.000259236 -0.000194434 -2.10423e-06
2.19195e-05 -2.10423e-06 -6.82255e-05
0.00107818 -0.000419571 3.12666e-05
-0.000419571 -0.000537374 -6.7969e-06
3.12666e-05 -6.7969e-06 -0.000483056
0.000456811 -0.000521113 1.53702e-05
-0.000521113 -0.0006504 1.25332e-06
1.53702e-05 1.25332e-06 -0.000792621
-8.03985e-05 -0.000429831 8.22031e-06
-0.000429831 -0.000597175 7.2949e-07
8.22031e-06 7.2949e-07 -0.000830183
0.00295452 -0.000459363 6.74911e-06
-0.000459363 0.00169154 1.52422e-05
6.74911e-06 1.52422e-05 0.00119532
0.000688133 -0.000272586 6.99615e-06
-0.000272586 0.000233586 -4.09956e-06
6.99615e-06 -4.09956e-06 -5.49988e-05
0.00127971 -0.000145042 5.07715e-07
-0.000145042 0.000467708 -1.14675e-06
5.07715e-07 -1.14675e-06 0.000352931
0.000766327 -1.44015e-05 -2.32995e-06
-1.44015e-05 0.000202487 2.00914e-06
-2.32995e-06 2.00914e-06 8.00602e-05
0.00225838 -0.000371706 8.8231e-06
-0.000371706 2.91057e-05 -5.12467e-06
8.8231e-06 -5.12467e-06 0.000130673
0.000575301 -6.52709e-05 -1.45666e-07
-6.52709e-05 9.73902e-05 -8.40623e-08
-1.45666e-07 -8.40623e-08 -6.60835e-05
0.00012591 -0.000113963 1.13561e-06
-0.000113963 -0.000121891 -2.53808e-06
1.13561e-06 -2.53808e-06 -0.000303506
0.0019748 -0.000588644 9.56507e-06
-0.000588644 0.000130117 -1.69275e-06
9.56507e-06 -1.69275e-06 8.68295e-05
0.00167963 -0.000715017 4.88593e-07
-0.000715017 4.16411e-05 3.5989e-06
4.88593e-07 3.5989e-06 -0.000118707
0.000225546 -0.000416458 1.07155e-05
-0.000416458 -0.000237953 -6.96811e-06
1.07155e-05 -6.96811e-06 -0.000471739
0.00139091 -0.000211416 -9.01039e-07
-0.000211416 0.000845793 -7.93637e-06
-9.01039e-07 -7.93637e-06 0.000403385
0.002309 -0.000578169 -4.72308e-05
-0.000578169 0.000482725 9.96492e-06
-4.72308e-05 9.96492e-06 0.000176463
0.00167697 -0.000569673 -4.44636e-05
-0.000569673 0.000214789 1.02143e-05
-4.44636e-05 1.02143e-05 0.000134545
0.00090568 -0.000373133 -5.15255e-05
-0.000373133 0.000367862 3.49701e-05
-5.15255e-05 3.49701e-05 6.16143e-05
-0.00130382 -8.5042e-05 2.47974e-09
-8.5042e-05 -0.001007 4.90686e-06
2.47974e-09 4.90686e-06 -0.00117315
-7.65015e-06 -0.000106301 3.99734e-06
-0.000106301 -0.000205219 4.96053e-06
3.99734e-06 4.96053e-06 -0.000399274
0.000826832 -7.53141e-05 5.08724e-06
-7.53141e-05 0.000379331 3.4997e-06
5.08724e-06 3.4997e-06 8.88772e-05
-0.000801579 0.000571967 -0.000225891
0.000571967 0.0051655 1.10619e-05
-0.000225891 1.10619e-05 0.00233679
0.00135957 -0.000734871 9.69646e-06
-0.000734871 0.001571 2.51206e-05
9.69646e-06 2.51206e-05 0.00151553
0.00142453 0.000912183 -7.41247e-05
0.000912183 -0.00383229 -1.37509e-05
-7.41247e-05 -1.37509e-05 -0.00414531
0.00028825 0.00017671 6.07725e-06
0.00017671 -8.48234e-05 1.09827e-06
6.07725e-06 1.09827e-06 -0.000259184
0.00126716 0.00038421 8.8007e-06
0.00038421 0.000361622 1.4236e-05
8.8007e-06 1.4236e-05 8.96251e-05
0.0033758 0.000611152 4.24e-05
0.000611152 0.000882248 1.46495e-05
4.24e-05 1.46495e-05 0.000857066
0.00190043 0.000640325 1.93985e-05
0.000640325 0.000578592 1.68922e-05
1.93985e-05 1.68922e-05 0.000242671
0.00893695 -0.00141821 0.000104
-0.00141821 0.00303762 4.24628e-05
0.000104 4.24628e-05 0.00316617
0.00360132 0.00041145 -0.000229106
0.00041145 -0.0025998 -1.25497e-05
-0.000229106 -1.25497e-05 -0.00452868
0.00363523 0.00175445 -3.7981e-05
0.00175445 -0.000213038 -8.11602e-07
-3.7981e-05 -8.11602e-07 -0.000574901
0.00168548 0.000510631 3.41322e-05
0.000510631 0.000497969 -2.78359e-05
3.41322e-05 -2.78359e-05 0.000467527
-0.00222314 -0.00173935 -0.000217743
-0.00173935 -2.67129e-05 -0.000216541
-0.000217743 -0.000216541 -0.00127321
-0.000840419 -0.0014784 -0.000238478
-0.0014784 0.0026974 -7.47804e-05
-0.000238478 -7.47804e-05 -0.000718683
0.0138118 -0.00299413 0.000352202
-0.00299413 0.00265485 0.0002324
0.000352202 0.0002324 0.00295617
0.000645091 0.000173304 1.02248e-05
0.000173304 0.000139796 -2.94166e-06
1.02248e-05 -2.94166e-06 -2.14412e-05
-0.00307184 0.0002388 -0.00012421
0.0002388 0.00329263 -2.94073e-05
-0.00012421 -2.94073e-05 -0.000135581
0.00423818 0.00058286 -3.54443e-05
0.00058286 0.00233606 -0.000113171
-3.54443e-05 -0.000113171 -0.00160198
0.00140926 0.000538944 -3.38548e-06
0.000538944 0.000115259 4.9385e-06
-3.38548e-06 4.9385e-06 8.10376e-05
0.00049416 0.000372376 7.50687e-06
0.000372376 5.66069e-05 3.24443e-06
7.50687e-06 3.24443e-06 -0.000218987
-0.000195581 0.000483216 -3.30598e-06
0.000483216 -6.45498e-05 -4.58756e-05
-3.30598e-06 -4.58756e-05 -0.000439485
0.00424668 0.00188841 -4.93348e-06
0.00188841 0.00143313 8.44236e-06
-4.93348e-06 8.44236e-06 0.000986557
0.0146134 0.00173793 7.75158e-05
0.00173793 0.00461563 2.56004e-05
7.75158e-05 2.56004e-05 0.00250273
0.00551125 -0.00211051 4.96124e-05
-0.00211051 0.000695334 -5.86058e-05
4.96124e-05 -5.86058e-05 -0.00105138
0.0116218 -0.00166437 -3.0314e-06
-0.00166437 0.00153772 -5.06571e-05
-3.0314e-06 -5.06571e-05 0.00284655
0.000233282 0.000227926 -5.33846e-06
0.000227926 -5.20813e-05 -1.3082e-05
-5.33846e-06 -1.3082e-05 -0.000213068
0.00266464 0.000149672 -0.000187959
0.000149672 0.00134169 -3.24154e-05
-0.000187959 -3.24154e-05 -0.00137786
7.31263e-05 0.000230355 -3.92195e-05
0.000230355 -9.89552e-05 -0.000122222
-3.92195e-05 -0.000122222 -0.00160506
-0.000967973 0.000145289 -5.82168e-06
0.000145289 -0.000418581 -1.90091e-05
-5.82168e-06 -1.90091e-05 -0.000607708
0.000482512 0.000353911 -7.1504e-05
0.000353911 0.00101941 2.83144e-05
-7.1504e-05 2.83144e-05 0.000273998
0.0112936 0.00226631 4.84509e-05
0.00226631 0.00420969 -3.53747e-06
4.84509e-05 -3.53747e-06 0.000749172
-0.00604672 -0.00304184 -2.80311e-05
-0.00304184 -0.00264627 0.000179128
-2.80311e-05 0.000179128 -0.00563151
0.00943534 0.000561037 3.62513e-05
0.000561037 -0.00131311 -0.000237287
3.62513e-05 -0.000237287 0.00111964
0.000843431 0.000145675 4.64791e-08
0.000145675 0.000230658 9.98473e-06
4.64791e-08 9.98473e-06 0.000108188
0.0009709 0.000174827 -6.97647e-06
0.000174827 0.000401167 -1.54565e-06
-6.97647e-06 -1.54565e-06 0.000248956
0.000496142 0.000117168 -5.29386e-07
0.000117168 0.000287718 -7.15917e-06
-5.29386e-07 -7.15917e-06 5.19209e-05
0.000723861 8.05935e-05 -2.21982e-06
8.05935e-05 0.000154988 -1.73587e-06
-2.21982e-06 -1.73587e-06 1.7679e-05
0.00084657 -3.52295e-05 -6.76346e-07
-3.52295e-05 0.000228625 2.58937e-06
-6.76346e-07 2.58937e-06 8.05535e-05
0.000653164 5.13799e-05 2.00211e-06
5.13799e-05 0.000103874 2.40524e-06
2.00211e-06 2.40524e-06 -2.48218e-05
-0.000454497 2.01515e-05 1.51279e-06
2.01515e-05 -0.000444246 3.64241e-06
1.51279e-06 3.64241e-06 -0.000590928
0.000772259 -1.34661e-05 1.12848e-06
-1.34661e-05 0.000179541 1.69158e-07
1.12848e-06 1.69158e-07 3.229e-05
0.000775239 2.38638e-05 1.37653e-08
2.38638e-05 0.000205214 -1.51829e-06
1.37653e-08 -1.51829e-06 6.9068e-05
0.000100608 -9.05022e-06 4.3605e-07
-9.05022e-06 6.9561e-05 2.02804e-06
4.3605e-07 2.02804e-06 -0.000174905
-0.000876567 1.79378e-05 -9.53912e-07
1.79378e-05 -0.000252322 3.32355e-06
-9.53912e-07 3.32355e-06 -0.000629892
0.000490952 5.98771e-06 -2.41389e-06
5.98771e-06 0.000269972 -5.11681e-06
-2.41389e-06 -5.11681e-06 4.15857e-05
0.000883366 2.89767e-05 -9.67249e-07
2.89767e-05 0.000257191 -4.34699e-06
-9.67249e-07 -4.34699e-06 0.000114858
0.000845904 -0.000119215 7.25447e-07
-0.000119215 0.000222332 6.13409e-07
7.25447e-07 6.13409e-07 7.91567e-05
0.000715416 -1.95902e-05 -8.49076e-07
-1.95902e-05 0.000133286 -6.55726e-08
-8.49076e-07 -6.55726e-08 1.35321e-05
0.000551499 -6.99298e-05 -3.54486e-07
-6.99298e-05 6.23518e-05 5.04188e-06
-3.54486e-07 5.04188e-06 -4.49403e-05
0.000440643 -2.6533e-05 1.73432e-06
-2.6533e-05 -8.95989e-06 2.03907e-06
1.73432e-06 2.03907e-06 -0.00013711
0.000684282 -1.85564e-05 5.84286e-07
-1.85564e-05 0.000120521 -1.9823e-07
5.84286e-07 -1.9823e-07 -1.01043e-06
0.000542833 -4.33468e-05 -9.58968e-08
-4.33468e-05 5.60864e-05 -4.48588e-07
-9.58968e-08 -4.48588e-07 -5.09622e-05
0.00108364 -4.8368e-05 -2.92114e-06
-4.8368e-05 0.000346032 -5.12857e-06
-2.92114e-06 -5.12857e-06 0.000239885
5.58066e-05 -4.01002e-05 4.37903e-06
-4.01002e-05 -0.000144215 -5.98425e-06
4.37903e-06 -5.98425e-06 -0.000257764
0.000287134 -0.000119969 4.15908e-08
-0.000119969 -0.000244749 -2.05549e-07
4.15908e-08 -2.05549e-07 -0.000334822
0.000747477 -9.87334e-05 -4.39899e-06
-9.87334e-05 0.000108048 -4.53223e-07
-4.39899e-06 -4.53223e-07 3.56055e-06
0.000284006 -0.0001113 5.78572e-06
-0.0001113 -0.000169044 3.18421e-06
5.78572e-06 3.18421e-06 -0.000313454
0.00114144 -0.000277853 6.11741e-07
-0.000277853 0.000276054 9.18975e-06
6.11741e-07 9.18975e-06 3.21051e-05
0.00151913 -0.000157543 8.07947e-07
-0.000157543 0.000620278 -1.81148e-06
8.07947e-07 -1.81148e-06 0.000464702
0.000136693 -8.02664e-05 -4.02239e-06
-8.02664e-05 -0.000232161 -5.05645e-06
-4.02239e-06 -5.05645e-06 -0.000381961
0.000640222 -3.57939e-05 -3.91501e-08
-3.57939e-05 7.45238e-05 2.74893e-07
-3.91501e-08 2.74893e-07 -4.67175e-05
0.000233515 -2.46067e-05 -7.26174e-07
-2.46067e-05 -0.000153122 -2.69184e-07
-7.26174e-07 -2.69184e-07 -0.00027346
0.000901635 -5.27395e-05 -6.7774e-07
-5.27395e-05 0.000228492 1.14265e-06
-6.7774e-07 1.14265e-06 0.000104641
0.000735492 -6.72174e-05 -7.1503e-07
-6.72174e-05 0.000154132 7.23343e-07
-7.1503e-07 7.23343e-07 2.89287e-05
0.000599107 -3.7905e-05 -2.20726e-07
-3.7905e-05 4.99681e-05 1.67405e-06
-2.20726e-07 1.67405e-06 -4.72772e-05
0.000898251 -8.96155e-05 -5.94267e-07
-8.96155e-05 0.00027682 -1.36158e-06
-5.94267e-07 -1.36158e-06 0.000137202
0.000663004 -7.04909e-05 -5.94405e-07
-7.04909e-05 0.000101304 -8.07489e-08
-5.94405e-07 -8.07489e-08 -5.36396e-07
0.000544205 2.2671e-05 -2.04981e-06
2.2671e-05 3.44973e-06 2.47771e-06
-2.04981e-06 2.47771e-06 -6.21917e-05
0.000701092 -0.000101249 1.78962e-06
-0.000101249 0.000129919 -1.79786e-06
1.78962e-06 -1.79786e-06 2.4744e-05
0.000616859 -2.84971e-05 -2.27455e-07
-2.84971e-05 4.5543e-05 8.26814e-08
-2.27455e-07 8.26814e-08 -1.76641e-05
0.0014113 2.34169e-05 -8.81562e-06
2.34169e-05 0.000505801 6.33817e-06
-8.81562e-06 6.33817e-06 0.000488574
0.000583322 -4.63446e-05 2.1602e-06
-4.63446e-05 3.35769e-05 -2.73941e-06
2.1602e-06 -2.73941e-06 -3.14931e-05
0.000933666 9.00394e-06 -4.44821e-06
9.00394e-06 0.000217468 6.7886e-07
-4.44821e-06 6.7886e-07 0.00019933
0.000770316 2.32658e-05 3.12316e-07
2.32658e-05 0.000114 2.38968e-06
3.12316e-07 2.38968e-06 0.000118229
0.000508996 -3.55364e-06 6.80371e-07
-3.55364e-06 -3.87812e-05 -4.28504e-06
6.80371e-07 -4.28504e-06 -5.76932e-05
0.00159935 2.35349e-05 6.79086e-06
2.35349e-05 0.000619434 -1.48205e-06
6.79086e-06 -1.48205e-06 0.000629422
0.00242658 1.59736e-05 5.36352e-06
1.59736e-05 0.00112298 -5.16784e-06
5.36352e-06 -5.16784e-06 0.00113721
0.000648329 2.31856e-05 1.79716e-06
2.31856e-05 8.64474e-05 -9.55306e-07
1.79716e-06 -9.55306e-07 -4.33149e-06
0.000620738 4.28733e-05 -8.16068e-07
4.28733e-05 4.94361e-05 -1.7671e-06
-8.16068e-07 -1.7671e-06 2.57703e-06
0.000658081 -3.29127e-06 1.2435e-06
-3.29127e-06 0.000101606 4.68509e-07
1.2435e-06 4.68509e-07 1.518e-05
0.000539758 -7.60661e-07 8.23625e-07
-7.60661e-07 -3.01473e-05 -3.47399e-06
8.23625e-07 -3.47399e-06 -3.83932e-05
0.000553392 3.51042e-05 1.11138e-07
3.51042e-05 9.37174e-06 -4.85626e-08
1.11138e-07 -4.85626e-08 -3.37393e-05
0.000613731 -0.000100163 -3.51697e-06
-0.000100163 7.67596e-05 9.6666e-07
-3.51697e-06 9.6666e-07 -6.40014e-06
0.0020037 3.75307e-06 -3.05839e-06
3.75307e-06 0.0008628 -4.71214e-06
-3.05839e-06 -4.71214e-06 0.00088167
0.000534794 3.31836e-06 -1.96492e-07
3.31836e-06 -3.37326e-05 8.06103e-09
-1.96492e-07 8.06103e-09 -4.11704e-05
0.000558283 -1.91863e-05 -1.68138e-06
-1.91863e-05 9.72261e-06 1.52997e-06
-1.68138e-06 1.52997e-06 -3.07406e-05
0.00051974 7.07086e-06 -8.58061e-07
7.07086e-06 -4.36586e-05 3.05763e-06
-8.58061e-07 3.05763e-06 -5.10567e-05
0.002019 1.8456e-05 -4.39829e-06
1.8456e-05 0.000873845 -6.47636e-08
-4.39829e-06 -6.47636e-08 0.000892094
0.0019925 3.11456e-05 -8.32391e-06
3.11456e-05 0.000859922 4.32854e-06
-8.32391e-06 4.32854e-06 0.000877514
-0.00565737 -0.000798765 -8.59726e-05
-0.000798765 0.00287876 3.0792e-05
-8.59726e-05 3.0792e-05 -6.73583e-05
0.000456834 0.000717452 -0.000142545
0.000717452 -7.6642e-05 3.61892e-05
-0.000142545 3.61892e-05 -0.00101049
0.00304995 -0.000615637 -0.000395362
-0.000615637 0.00114608 0.000195132
-0.000395362 0.000195132 -0.00261184
-0.00297218 8.06373e-05 0.000594205
8.06373e-05 0.00347578 -0.000233287
0.000594205 -0.000233287 0.0009306
0.000649986 0.000353104 -1.27174e-05
0.000353104 -0.00128692 -9.5498e-06
-1.27174e-05 -9.5498e-06 -0.000978418
0.00258299 -0.000253174 0.000101729
-0.000253174 -6.41201e-06 -2.66703e-06
0.000101729 -2.66703e-06 9.95023e-06
0.000952739 -0.000385592 7.87479e-05
-0.000385592 -0.0029435 -7.38128e-05
7.87479e-05 -7.38128e-05 -0.0048058
0.013658 0.00174578 -0.000293949
0.00174578 0.00638435 9.77214e-06
-0.000293949 9.77214e-06 0.00502633
-0.00504685 0.00414742 -0.00110372
0.00414742 -0.00166114 0.000839403
-0.00110372 0.000839403 -0.00132725
0.00340499 -0.00026773 1.44089e-06
-0.00026773 -0.000248643 1.09621e-06
1.44089e-06 1.09621e-06 -9.7908e-05
0.00677163 -0.000956812 8.53252e-05
-0.000956812 -0.000352522 -7.59222e-05
8.53252e-05 -7.59222e-05 -0.00269889
0.0148182 0.0031301 -0.000156501
0.0031301 0.00432138 -9.48141e-05
-0.000156501 -9.48141e-05 0.00401466
0.00717781 0.00241917 -8.02281e-05
0.00241917 -9.53397e-05 0.000241063
-8.02281e-05 0.000241063 -0.000933361
0.00191879 -0.00095061 -8.1478e-05
-0.00095061 -0.00176719 2.49017e-05
-8.1478e-05 2.49017e-05 -0.00135264
0.00326993 -0.00164188 0.00024879
-0.00164188 -0.000152843 -0.000170338
0.00024879 -0.000170338 -0.00385361
-0.00180259 0.0019755 -4.36577e-05
0.0019755 -0.00277557 -0.000472268
-4.36577e-05 -0.000472268 -0.00398066
0.00595225 0.00109514 -0.000127768
0.00109514 -0.0029246 6.21841e-06
-0.000127768 6.21841e-06 -0.00161713
0.00127902 -5.45044e-05 1.84997e-06
-5.45044e-05 0.00054212 8.2807e-06
1.84997e-06 8.2807e-06 0.000365793
0.000601857 9.38508e-05 -1.7121e-06
9.38508e-05 9.25132e-05 -1.68739e-06
-1.7121e-06 -1.68739e-06 -3.49256e-05
0.0005784 7.90905e-05 2.98459e-07
7.90905e-05 5.60861e-05 -1.94308e-06
2.98459e-07 -1.94308e-06 -3.38893e-05
0.000633187 5.82077e-05 4.70061e-06
5.82077e-05 0.000125865 6.00278e-07
4.70061e-06 6.00278e-07 7.10964e-06
0.000594414 6.27093e-05 2.87598e-06
6.27093e-05 8.65018e-05 2.5446e-06
2.87598e-06 2.5446e-06 -7.29537e-05
0.000649385 5.40133e-05 -2.27675e-07
5.40133e-05 0.00012948 1.76779e-06
-2.27675e-07 1.76779e-06 -3.56192e-06
0.000544363 4.16342e-05 9.00017e-07
4.16342e-05 5.16177e-05 -1.23166e-06
9.00017e-07 -1.23166e-06 -6.86697e-05
0.00086714 0.000142896 2.31105e-06
0.000142896 0.000253593 3.07215e-06
2.31105e-06 3.07215e-06 0.000105395
0.000839965 9.51365e-05 -6.4693e-08
9.51365e-05 0.000240851 3.41558e-07
-6.4693e-08 3.41558e-07 9.91156e-05
0.000458886 -1.58329e-05 -4.08849e-06
-1.58329e-05 3.01303e-06 -3.33968e-06
-4.08849e-06 -3.33968e-06 -0.000114208
0.000736783 -0.000287737 5.3564e-05
-0.000287737 -0.000758172 -2.24004e-05
5.3564e-05 -2.24004e-05 -0.00063423
0.000658767 -0.000509812 3.65539e-05
-0.000509812 -0.000588847 -7.32794e-06
3.65539e-05 -7.32794e-06 -0.000613357
0.0015502 -0.000708866 1.27963e-05
-0.000708866 -5.392e-05 5.4524e-06
1.27963e-05 5.4524e-06 -0.000192352
1.48291e-05 -0.000450696 1.12479e-05
-0.000450696 -0.000349332 -1.12645e-05
1.12479e-05 -1.12645e-05 -0.000629422
0.00226232 -0.000264834 -3.7352e-06
-0.000264834 0.0012588 2.64292e-05
-3.7352e-06 2.64292e-05 0.000886475
0.000560073 -0.000108196 -2.11263e-06
-0.000108196 0.000143614 4.46697e-07
-2.11263e-06 4.46697e-07 -4.64726e-05
0.000472602 8.79649e-05 -1.48342e-06
8.79649e-05 4.12831e-05 -7.52585e-06
-1.48342e-06 -7.52585e-06 -0.000127054
0.000700253 -8.01997e-05 -8.6739e-07
-8.01997e-05 0.000196475 5.19731e-06
-8.6739e-07 5.19731e-06 2.65472e-06
0.00136751 -0.000468379 -8.37976e-08
-0.000468379 -0.000111972 -2.79926e-06
-8.37976e-08 -2.79926e-06 -0.000263219
0.000701334 -3.22134e-05 3.5233e-07
-3.22134e-05 0.00019648 2.79119e-06
3.5233e-07 2.79119e-06 6.0832e-06
0.00155361 -0.000175729 -1.19259e-07
-0.000175729 0.000805825 -1.3893e-06
-1.19259e-07 -1.3893e-06 0.000507758
0.00164518 -0.000576396 4.09297e-07
-0.000576396 0.000161264 3.15108e-06
4.09297e-07 3.15108e-06 9.62164e-05
0.000830561 -0.000432035 -1.51298e-05
-0.000432035 0.000277468 5.68547e-06
-1.51298e-05 5.68547e-06 -2.57363e-05
0.00189644 -0.000849876 8.44246e-06
-0.000849876 0.000131015 -2.18456e-05
8.44246e-06 -2.18456e-05 8.81168e-05
0.000935675 -0.00034287 -1.4316e-05
-0.00034287 0.000273635 1.34072e-05
-1.4316e-05 1.34072e-05 0.000158003
-0.000633958 -4.51179e-05 1.29936e-06
-4.51179e-05 -0.000323686 1.28488e-05
1.29936e-06 1.28488e-05 -0.000704479
0.00076645 1.26721e-05 -7.25232e-07
1.26721e-05 0.000203588 -3.94173e-06
-7.25232e-07 -3.94173e-06 3.43523e-05
0.000918787 4.28829e-05 5.09341e-06
4.28829e-05 0.000409503 1.3055e-06
5.09341e-06 1.3055e-06 0.000166239
0.00171702 -1.00664e-05 -2.37432e-05
-1.00664e-05 0.0015991 -1.11531e-05
-2.37432e-05 -1.11531e-05 -0.000992391
-0.00402913 0.000208459 -0.000191552
0.000208459 0.00437289 -8.34989e-06
-0.000191552 -8.34989e-06 0.0010202
-0.0112682 -0.00112119 -0.000412774
-0.00112119 -0.0057345 -1.27518e-05
-0.000412774 -1.27518e-05 -0.00550707
-0.000438994 0.000122367 7.15919e-06
0.000122367 -0.00047011 -9.7181e-07
7.15919e-06 -9.7181e-07 -0.000644398
-0.000829927 0.000260967 -5.15814e-07
0.000260967 -0.000614142 8.19315e-06
-5.15814e-07 8.19315e-06 -0.000903921
0.00133601 0.000566463 2.90992e-05
0.000566463 6.30086e-05 9.86064e-06
2.90992e-05 9.86064e-06 3.15419e-05
-0.00453441 0.000927729 -2.85862e-06
0.000927729 0.0030671 3.0855e-05
-2.85862e-06 3.0855e-05 -0.000147258
0.00230029 0.00147794 -0.000133346
0.00147794 -6.47835e-05 -0.000127348
-0.000133346 -0.000127348 -0.00382759
0.00274705 0.00140665 0.000259318
0.00140665 0.000666002 7.08011e-05
0.000259318 7.08011e-05 0.000398436
-0.000329266 0.000464933 6.74713e-06
0.000464933 -0.000286034 -3.76263e-05
6.74713e-06 -3.76263e-05 -0.00038211
0.0161012 -0.00220956 -5.936e-05
-0.00220956 0.00482135 -0.000188843
-5.936e-05 -0.000188843 0.00373959
0.00457242 0.000669528 0.000247473
0.000669528 0.00233988 9.21576e-05
0.000247473 9.21576e-05 -0.00185466
0.0116164 -0.00146447 7.96965e-05
-0.00146447 0.00175985 2.45789e-05
7.96965e-05 2.45789e-05 0.00311182
0.000724985 0.000270214 2.74071e-06
0.000270214 0.000296884 -2.66252e-06
2.74071e-06 -2.66252e-06 0.000124072
0.0037442 0.000220101 8.97986e-06
0.000220101 0.00202625 1.06193e-05
8.97986e-06 1.06193e-05 -4.16733e-05
0.000756722 0.000251205 3.0917e-05
0.000251205 -5.82661e-07 1.04569e-05
3.0917e-05 1.04569e-05 -0.00156406
-0.000584553 0.000282902 -2.44721e-06
0.000282902 -0.000297214 -1.94462e-06
-2.44721e-06 -1.94462e-06 -0.000535375
0.00145542 0.000749501 -9.12657e-05
0.000749501 0.0010979 -4.15077e-05
-9.12657e-05 -4.15077e-05 8.28025e-05
0.00229 0.0024055 0.000110786
0.0024055 0.000904786 7.17969e-05
0.000110786 7.17969e-05 -0.00272375
0.00727878 0.00019289 -1.3284e-05
0.00019289 -0.00305258 -0.000157315
-1.3284e-05 -0.000157315 -0.000293835
0.00320462 -0.00178726 -4.92594e-05
-0.00178726 0.00140627 -8.2124e-05
-4.92594e-05 -8.2124e-05 -0.00129822
0.00108156 0.000226167 -4.53777e-06
0.000226167 0.000720421 -1.5278e-05
-4.53777e-06 -1.5278e-05 0.000514827
-0.000813636 -1.0212e-06 2.44167e-06
-1.0212e-06 -0.00012393 -1.11582e-07
2.44167e-06 -1.11582e-07 -4.29332e-05
0.00327673 2.8571e-05 4.88423e-05
2.8571e-05 -4.17378e-05 -0.000118136
4.88423e-05 -0.000118136 -0.00106449
0.00599755 0.0011485 0.000134407
0.0011485 -0.00278566 -1.40849e-05
0.000134407 -1.40849e-05 -0.00159163
-0.00134466 0.000107037 8.64491e-06
0.000107037 -9.1076e-05 -2.46021e-05
8.64491e-06 -2.46021e-05 -0.000717972
0.0112933 0.00192924 0.000168352
0.00192924 0.00526158 5.36688e-05
0.000168352 5.36688e-05 0.0010504
-0.00696028 -0.000470334 8.44224e-05
-0.000470334 0.000258437 0.000278896
8.44224e-05 0.000278896 -0.0022157
0.00259686 0.000319593 2.03868e-05
0.000319593 0.00137778 1.63826e-05
2.03868e-05 1.63826e-05 0.00120147
0.000890859 0.000179652 -5.55091e-06
0.000179652 0.000509301 -2.62266e-06
-5.55091e-06 -2.62266e-06 0.000250427
-0.0001944 7.30319e-05 -3.36311e-08
7.30319e-05 0.000105962 5.93857e-07
-3.36311e-08 5.93857e-07 -0.000182733
0.00069353 0.000145178 1.80498e-07
0.000145178 0.000146773 3.55655e-07
1.80498e-07 3.55655e-07 -8.09909e-06
0.000491874 5.94236e-05 1.43042e-06
5.94236e-05 3.09398e-05 2.44545e-06
1.43042e-06 2.44545e-06 -0.000100983
0.000596958 8.77293e-06 8.38594e-06
8.77293e-06 0.000389806 3.20811e-06
8.38594e-06 3.20811e-06 0.000123032
0.000609905 4.0479e-05 -2.49324e-09
4.0479e-05 8.81174e-05 -6.02498e-07
-2.49324e-09 -6.02498e-07 -4.65037e-05
0.000733185 -1.29708e-05 -2.76405e-06
-1.29708e-05 0.000407508 -2.126e-06
-2.76405e-06 -2.126e-06 0.000182258
-0.000330316 3.91228e-05 3.20501e-06
3.91228e-05 5.51231e-05 3.43059e-06
3.20501e-06 3.43059e-06 -0.000321274
0.000264421 4.54295e-06 -7.53803e-06
4.54295e-06 0.000268524 -5.32188e-06
-7.53803e-06 -5.32188e-06 4.44417e-05
0.000233534 -3.32433e-05 -1.2465e-06
-3.32433e-05 7.67551e-05 -7.06083e-06
-1.2465e-06 -7.06083e-06 -0.000118158
0.000532591 -5.67695e-05 1.29645e-06
-5.67695e-05 3.36381e-05 5.39909e-06
1.29645e-06 5.39909e-06 -8.47852e-05
0.000880665 -2.15814e-05 -9.66931e-07
-2.15814e-05 0.000236184 -3.22785e-07
-9.66931e-07 -3.22785e-07 0.000113842
0.000988572 -4.51139e-05 -9.00356e-06
-4.51139e-05 0.000318856 6.83782e-06
-9.00356e-06 6.83782e-06 0.000212049
0.000696588 -5.63108e-05 3.84714e-06
-5.63108e-05 0.000215983 -5.07359e-07
3.84714e-06 -5.07359e-07 0.000108718
0.000548928 -4.1076e-05 -1.68475e-06
-4.1076e-05 3.22139e-05 -2.86616e-07
-1.68475e-06 -2.86616e-07 -7.47372e-05
0.000664013 -0.000111196 1.61833e-06
-0.000111196 0.00013637 -4.00343e-07
1.61833e-06 -4.00343e-07 2.56595e-05
0.000299476 -0.000108445 -4.45726e-06
-0.000108445 -0.00018402 -7.05489e-07
-4.45726e-06 -7.05489e-07 -0.000255747
-0.000664139 -0.000173168 8.62402e-06
-0.000173168 -0.00072006 4.97076e-06
8.62402e-06 4.97076e-06 -0.000916824
0.000708786 -0.000144865 1.66132e-06
-0.000144865 9.42382e-05 1.85723e-06
1.66132e-06 1.85723e-06 -1.70049e-05
0.00128795 -0.000218474 -9.73002e-07
-0.000218474 0.000418717 4.53035e-06
-9.73002e-07 4.53035e-06 0.000250494
0.00132892 -0.000340424 -5.37079e-06
-0.000340424 0.00035809 5.31344e-06
-5.37079e-06 5.31344e-06 9.68267e-05
0.00100023 -0.000290439 -2.62961e-06
-0.000290439 0.000111067 -9.12902e-07
-2.62961e-06 -9.12902e-07 -0.000142615
0.00107569 -0.000223029 -2.35153e-06
-0.000223029 0.000370375 6.27275e-06
-2.35153e-06 6.27275e-06 0.000159528
0.00023275 -0.000177036 4.43621e-06
-0.000177036 -0.000261973 -7.56568e-07
4.43621e-06 -7.56568e-07 -0.000482515
0.000935592 -0.000105071 1.38713e-06
-0.000105071 0.000274239 -1.16395e-06
1.38713e-06 -1.16395e-06 0.000123111
0.001094 -0.000145862 -2.74654e-06
-0.000145862 0.000383355 -4.66291e-07
-2.74654e-06 -4.66291e-07 0.000221611
0.000322994 -0.00011172 6.39012e-06
-0.00011172 -9.52488e-05 -1.29571e-05
6.39012e-06 -1.29571e-05 -0.00024439
0.0010302 -5.59947e-05 3.32648e-07
-5.59947e-05 0.000294386 4.28362e-07
3.32648e-07 4.28362e-07 0.000174031
0.000372449 -3.56954e-05 3.72089e-07
-3.56954e-05 -6.6021e-05 -1.24229e-07
3.72089e-07 -1.24229e-07 -0.000189166
0.000640009 -2.81492e-05 -2.14249e-07
-2.81492e-05 6.79427e-05 1.14617e-06
-2.14249e-07 1.14617e-06 -3.36531e-05
0.000805428 -9.49087e-05 -3.62353e-07
-9.49087e-05 0.000209091 -1.2603e-07
-3.62353e-07 -1.2603e-07 7.28224e-05
0.000671576 -5.48102e-05 2.73762e-08
-5.48102e-05 0.000103489 8.92409e-08
2.73762e-08 8.92409e-08 -2.19653e-06
0.000560884 2.33403e-05 2.79518e-07
2.33403e-05 1.86303e-05 2.81849e-06
2.79518e-07 2.81849e-06 -5.32167e-05
0.00074823 -8.89646e-05 2.01971e-07
-8.89646e-05 0.00016224 -1.99451e-06
2.01971e-07 -1.99451e-06 5.2868e-05
0.00056967 1.49164e-05 -1.32693e-06
1.49164e-05 2.09804e-05 -1.06727e-07
-1.32693e-06 -1.06727e-07 -4.66373e-05
0.00137374 3.8901e-05 -9.88367e-06
3.8901e-05 0.000485024 4.32024e-06
-9.88367e-06 4.32024e-06 0.00046662
0.000620322 -4.02212e-05 2.47772e-06
-4.02212e-05 4.97198e-05 -2.85765e-06
2.47772e-06 -2.85765e-06 -1.50183e-05
0.000927007 2.02567e-05 -5.50215e-06
2.02567e-05 0.000211619 6.37147e-07
-5.50215e-06 6.37147e-07 0.000192268
0.000809745 3.2661e-05 -4.07532e-07
3.2661e-05 0.000139442 2.5856e-06
-4.07532e-07 2.5856e-06 0.000141876
0.000507019 5.50378e-06 7.87178e-07
5.50378e-06 -4.36971e-05 -4.69917e-06
7.87178e-07 -4.69917e-06 -6.37446e-05
0.0016327 3.58572e-05 9.39548e-06
3.58572e-05 0.000640319 -1.33788e-06
9.39548e-06 -1.33788e-06 0.00064884
0.00243412 3.16245e-05 8.80535e-06
3.16245e-05 0.00112776 -5.26745e-06
8.80535e-06 -5.26745e-06 0.00114133
0.000392098 9.82997e-06 1.17242e-06
9.82997e-06 -5.7631e-05 -1.65336e-07
1.17242e-06 -1.65336e-07 -0.000169227
0.000270729 9.94768e-06 7.93008e-08
9.94768e-06 -0.000163777 -3.13627e-06
7.93008e-08 -3.13627e-06 -0.000219017
0.000696087 3.05886e-05 6.49502e-09
3.05886e-05 0.000122549 1.26889e-07
6.49502e-09 1.26889e-07 2.60874e-05
0.000536246 -4.0088e-06 6.97879e-07
-4.0088e-06 -3.25364e-05 -3.59531e-06
6.97879e-07 -3.59531e-06 -4.24295e-05
0.000400718 1.45434e-06 1.36248e-06
1.45434e-06 -8.64923e-05 -4.24171e-08
1.36248e-06 -4.24171e-08 -0.00013298
0.000392533 -8.91881e-05 -1.77726e-06
-8.91881e-05 -5.86742e-05 2.56331e-07
-1.77726e-06 2.56331e-07 -0.000147525
0.0020769 -9.84873e-06 -7.64197e-06
-9.84873e-06 0.00090721 -4.75235e-06
-7.64197e-06 -4.75235e-06 0.000925585
0.000534107 -1.01658e-06 -8.39276e-08
-1.01658e-06 -3.39379e-05 -4.75403e-08
-8.39276e-08 -4.75403e-08 -4.20508e-05
0.00052346 -1.97678e-05 -1.97432e-06
-1.97678e-05 -1.11929e-05 1.85624e-06
-1.97432e-06 1.85624e-06 -5.26072e-05
0.00202489 5.17676e-06 -4.16604e-06
5.17676e-06 0.000875958 1.69876e-08
-4.16604e-06 1.69876e-08 0.000894679
0.000518285 2.85348e-06 -7.75243e-07
2.85348e-06 -4.31546e-05 3.18062e-06
-7.75243e-07 3.18062e-06 -5.06308e-05
0.00200405 1.97986e-05 -1.41145e-06
1.97986e-05 0.000864801 4.52942e-06
-1.41145e-06 4.52942e-06 0.000883044
0.000294266 -0.000329208 -0.000146813
-0.000329208 -0.00026643 3.63692e-05
-0.000146813 3.63692e-05 -0.00219406
0.00124203 0.000251591 -4.95396e-05
0.000251591 0.00472353 -7.30213e-07
-4.95396e-05 -7.30213e-07 0.00254642
0.00105026 -0.000325666 -0.000423363
-0.000325666 0.00256644 4.99453e-05
-0.000423363 4.99453e-05 0.00130142
0.000737951 9.71161e-05 2.85153e-06
9.71161e-05 0.000150218 1.54523e-06
2.85153e-06 1.54523e-06 1.02176e-05
0.00369567 -0.000420041 -1.62234e-05
-0.000420041 0.00266566 0.000135188
-1.62234e-05 0.000135188 0.00109817
0.00377482 -0.000728254 -0.000167139
-0.000728254 0.00141456 1.15595e-05
-0.000167139 1.15595e-05 -0.00227577
0.00454572 0.00123668 0.000278032
0.00123668 0.00475381 -0.000205046
0.000278032 -0.000205046 0.00275184
0.00518998 -0.000426308 5.46549e-05
-0.000426308 0.000632876 -3.36889e-05
5.46549e-05 -3.36889e-05 0.000450617
0.0122748 -0.000997524 0.000167356
-0.000997524 0.00225358 -7.94874e-05
0.000167356 -7.94874e-05 0.000644777
0.00103424 0.00270343 -0.000271273
0.00270343 -0.00275264 0.000241399
-0.000271273 0.000241399 -0.00288313
0.00804082 0.00251277 3.15102e-05
0.00251277 0.00141148 9.14138e-05
3.15102e-05 9.14138e-05 0.000123464
0.00560039 -0.00117892 -0.000108965
-0.00117892 0.000220017 -4.32915e-06
-0.000108965 -4.32915e-06 0.000120375
0.0135798 -0.0016388 5.28121e-05
-0.0016388 0.00427261 -1.93929e-05
5.28121e-05 -1.93929e-05 0.00205491
0.00806784 0.00165803 0.000107579
0.00165803 0.00121427 -0.000186805
0.000107579 -0.000186805 -0.000166592
0.00783398 0.00102844 9.60768e-06
0.00102844 -0.0013529 1.6503e-05
9.60768e-06 1.6503e-05 -0.000474188
0.00264054 -0.00156162 -2.2596e-06
-0.00156162 -0.000220764 2.04488e-05
-2.2596e-06 2.04488e-05 -0.000738855
0.0114677 -0.00226799 0.000119298
-0.00226799 0.00512685 -6.87265e-05
0.000119298 -6.87265e-05 0.00118334
0.0051702 -4.38792e-05 0.00010272
-4.38792e-05 0.0015907 -0.000275295
0.00010272 -0.000275295 0.000350017
0.00915777 0.000568384 -7.28095e-05
0.000568384 -0.00118846 0.000154607
-7.28095e-05 0.000154607 0.0010128
0.000806408 -1.96597e-05 3.30897e-06
-1.96597e-05 0.000241531 3.25009e-06
3.30897e-06 3.25009e-06 6.78988e-05
0.000855952 -8.1284e-05 -4.92407e-07
-8.1284e-05 0.000289497 -2.13148e-09
-4.92407e-07 -2.13148e-09 0.00011032
0.000751281 0.00011866 -2.52733e-07
0.00011866 0.000187688 -3.912e-06
-2.52733e-07 -3.912e-06 5.66364e-05
0.000703357 6.96206e-05 1.42151e-06
6.96206e-05 0.000116943 4.37526e-06
1.42151e-06 4.37526e-06 -1.89609e-05
0.000743776 0.00011422 -2.87706e-07
0.00011422 0.00018681 7.46903e-07
-2.87706e-07 7.46903e-07 2.60968e-05
0.000918575 6.95732e-05 -3.66096e-06
6.95732e-05 0.000292368 -2.17183e-06
-3.66096e-06 -2.17183e-06 0.000159843
0.0010038 0.000138888 -1.08004e-06
0.000138888 0.000335783 -3.98255e-08
-1.08004e-06 -3.98255e-08 0.000186813
0.00100753 0.000148627 4.77146e-07
0.000148627 0.00035586 1.86337e-06
4.77146e-07 1.86337e-06 0.000205977
0.000513703 -0.00034949 6.91723e-05
-0.00034949 -0.00063413 -2.93094e-05
6.91723e-05 -2.93094e-05 -0.000609842
0.0018032 -0.000600075 9.17896e-06
-0.000600075 0.000194845 -1.06598e-05
9.17896e-06 -1.06598e-05 0.000153831
0.000888537 -0.00019169 -1.18335e-06
-0.00019169 0.000315737 -9.79603e-06
-1.18335e-06 -9.79603e-06 0.000111896
0.00126265 -0.000501501 2.20073e-05
-0.000501501 0.000497082 -1.83279e-05
2.20073e-05 -1.83279e-05 0.000192625
0.00225461 -0.000286958 -7.96876e-06
-0.000286958 0.00119686 1.38488e-06
-7.96876e-06 1.38488e-06 0.000899374
0.0010833 -9.34287e-05 -2.22039e-06
-9.34287e-05 0.000412628 -1.22259e-05
-2.22039e-06 -1.22259e-05 0.000222258
0.000344888 -2.81558e-05 1.1666e-06
-2.81558e-05 -4.60713e-05 4.05931e-06
1.1666e-06 4.05931e-06 -0.00021391
0.000179657 -0.000698746 -2.64271e-06
-0.000698746 -0.000784454 -1.26215e-06
-2.64271e-06 -1.26215e-06 -0.000761811
0.00122887 3.65018e-05 -1.6346e-07
3.65018e-05 0.000597058 5.02086e-07
-1.6346e-07 5.02086e-07 0.00034295
0.00088436 -0.000192053 -3.87773e-06
-0.000192053 0.000468724 2.73415e-06
-3.87773e-06 2.73415e-06 0.000134909
0.000428966 -0.000282127 1.87258e-05
-0.000282127 -2.85773e-05 2.51657e-06
1.87258e-05 2.51657e-06 -9.09911e-05
0.00122728 9.99192e-05 1.02133e-06
9.99192e-05 0.000447555 -1.68784e-06
1.02133e-06 -1.68784e-06 0.000307232
0.00136619 -0.000664984 3.92189e-06
-0.000664984 0.000130022 -3.59662e-05
3.92189e-06 -3.59662e-05 0.000159939
-3.24322e-07 -0.000230018 -8.82495e-06
-0.000230018 1.89938e-05 1.5736e-05
-8.82495e-06 1.5736e-05 -0.000148153
-0.000687765 5.59838e-05 7.70951e-06
5.59838e-05 -0.000150644 4.82812e-06
7.70951e-06 4.82812e-06 -0.000660989
0.00124654 0.000205078 2.81888e-06
0.000205078 0.000548796 -4.71261e-06
2.81888e-06 -4.71261e-06 0.000365183
-0.000238343 2.10655e-05 1.48885e-05
2.10655e-05 0.000810762 -4.01913e-06
1.48885e-05 -4.01913e-06 0.000193115
0.00105134 -3.90141e-05 0.000102193
-3.90141e-05 0.00119747 -1.96885e-05
0.000102193 -1.96885e-05 -0.00141387
-0.00742355 -0.00012974 -0.000180086
-0.00012974 0.00371126 1.25853e-05
-0.000180086 1.25853e-05 -0.000248622
0.00128748 0.000307426 1.50435e-05
0.000307426 0.000703416 4.43023e-06
1.50435e-05 4.43023e-06 0.000519583
-0.00161964 0.000362036 1.41457e-06
0.000362036 -0.000887592 1.02443e-05
1.41457e-06 1.02443e-05 -0.0012096
0.00476393 0.000237584 0.000144472
0.000237584 0.00261507 1.41803e-05
0.000144472 1.41803e-05 0.0011869
0.00817556 0.0016171 0.000208015
0.0016171 0.00350481 0.000109767
0.000208015 0.000109767 -0.000400935
0.00336422 0.00122938 -9.65451e-05
0.00122938 0.00182929 -8.52009e-05
-9.65451e-05 -8.52009e-05 0.000666701
0.00508243 -0.00129777 -7.13098e-05
-0.00129777 0.00233188 -0.00030142
-7.13098e-05 -0.00030142 0.000101911
0.00137671 0.000258516 7.37023e-05
0.000258516 9.3563e-05 0.000149351
7.37023e-05 0.000149351 -0.00145176
0.00528383 -9.7632e-05 -2.59921e-05
-9.7632e-05 -0.00485602 -0.000168838
-2.59921e-05 -0.000168838 -0.00166114
0.000813779 0.000253305 -6.72261e-07
0.000253305 0.000568025 -2.56288e-06
-6.72261e-07 -2.56288e-06 0.000342095
-0.000729843 -2.41961e-05 -3.61746e-07
-2.41961e-05 -0.000132171 -1.14489e-06
-3.61746e-07 -1.14489e-06 -0.000108194
0.00324082 6.32169e-05 5.9612e-05
6.32169e-05 7.47681e-05 2.07301e-05
5.9612e-05 2.07301e-05 -0.000445391
-0.00111427 0.000232462 -8.73752e-06
0.000232462 -0.000335498 -6.54245e-06
-8.73752e-06 -6.54245e-06 -0.000855977
0.00787068 0.00112806 -7.67757e-06
0.00112806 -0.00132917 -1.40354e-05
-7.67757e-06 -1.40354e-05 -0.00049591
0.00432821 0.00123881 0.000144809
0.00123881 0.00326694 8.49472e-05
0.000144809 8.49472e-05 -0.00123851
0.00449437 0.000585923 -0.000108432
0.000585923 0.00276928 5.10978e-06
-0.000108432 5.10978e-06 0.000810851
0.000271106 0.000251322 -1.20986e-05
0.000251322 0.000288277 -1.9602e-05
-1.20986e-05 -1.9602e-05 -4.52925e-05
0.0014555 8.66907e-05 1.34448e-05
8.66907e-05 -0.000330304 -2.02334e-05
1.34448e-05 -2.02334e-05 -7.02001e-05
0.0035372 -0.000388078 1.46338e-05
-0.000388078 0.00263659 -0.000137421
1.46338e-05 -0.000137421 0.00114059
0.0106954 0.00254683 0.00026034
0.00254683 0.00200086 -0.000185276
0.00026034 -0.000185276 0.00145317
0.00637587 -0.000110433 -9.88474e-05
-0.000110433 0.00209554 0.000279352
-9.88474e-05 0.000279352 0.000877663
0.000766178 0.000230044 -1.64266e-06
0.000230044 0.00031413 -9.01875e-05
-1.64266e-06 -9.01875e-05 3.83851e-05
0.00023821 0.00131172 0.000166462
0.00131172 0.00344335 3.35462e-05
0.000166462 3.35462e-05 -0.00321293
0.00149414 0.000270563 2.97738e-06
0.000270563 0.000815235 2.01682e-05
2.97738e-06 2.01682e-05 0.000558222
0.000367346 0.000133513 2.81703e-06
0.000133513 0.000414852 3.39269e-07
2.81703e-06 3.39269e-07 0.000126563
0.000578116 -1.03841e-05 -1.2242e-05
-1.03841e-05 0.000589821 -1.2169e-05
-1.2242e-05 -1.2169e-05 0.000385794
0.000268363 -3.13808e-05 6.25916e-07
-3.13808e-05 -0.000131535 4.40082e-06
6.25916e-07 4.40082e-06 -0.000252932
0.00112081 -1.2064e-06 2.8558e-06
-1.2064e-06 0.000625721 2.31006e-06
2.8558e-06 2.31006e-06 0.000408819
0.000670966 -5.57306e-07 2.33985e-06
-5.57306e-07 0.000587061 -3.42622e-06
2.33985e-06 -3.42622e-06 0.000242365
0.000477977 -4.79941e-05 5.68265e-07
-4.79941e-05 0.000180952 -2.9082e-07
5.68265e-07 -2.9082e-07 1.91358e-05
-1.5637e-05 -1.63178e-05 2.29779e-06
-1.63178e-05 0.000107031 1.57375e-06
2.29779e-06 1.57375e-06 -0.000126554
0.00138139 -0.000237766 4.21255e-06
-0.000237766 0.0007948 -1.22442e-05
4.21255e-06 -1.22442e-05 0.000569696
0.00116514 -7.54835e-05 -2.89244e-06
-7.54835e-05 0.000475596 6.11798e-06
-2.89244e-06 6.11798e-06 0.000374587
-8.60152e-05 -1.91697e-05 -8.95427e-08
-1.91697e-05 -0.000337964 2.71649e-06
-8.95427e-08 2.71649e-06 -0.00044525
0.00138472 -0.000183579 2.13093e-06
-0.000183579 0.000550911 2.42609e-06
2.13093e-06 2.42609e-06 0.000424293
-0.00118419 -0.000144885 8.95241e-06
-0.000144885 -0.00083889 3.09385e-06
8.95241e-06 3.09385e-06 -0.0010777
0.000195265 -9.07613e-05 -2.79935e-06
-9.07613e-05 -0.000194861 1.59312e-06
-2.79935e-06 1.59312e-06 -0.000247606
-0.000176362 -0.000196959 3.32794e-06
-0.000196959 -0.000446468 -1.75484e-06
3.32794e-06 -1.75484e-06 -0.000628044
0.00115236 -0.000365067 8.52267e-06
-0.000365067 0.000213432 -5.74778e-06
8.52267e-06 -5.74778e-06 -9.62009e-05
0.00150907 -0.00041902 -2.82958e-06
-0.00041902 0.000321224 6.65524e-07
-2.82958e-06 6.65524e-07 1.33176e-05
0.00217288 -0.000313734 -6.3179e-07
-0.000313734 0.000935977 5.84692e-07
-6.3179e-07 5.84692e-07 0.000745611
0.00109543 -0.000316153 8.86357e-07
-0.000316153 0.000195408 2.6519e-07
8.86357e-07 2.6519e-07 -7.11552e-05
0.00185275 -0.000390384 2.47339e-06
-0.000390384 0.000586982 -2.15582e-06
2.47339e-06 -2.15582e-06 0.000328252
0.000665096 -0.00021834 -1.73665e-06
-0.00021834 2.16465e-05 4.04521e-06
-1.73665e-06 4.04521e-06 -0.000213053
0.0010231 -0.000286067 -7.78662e-07
-0.000286067 0.00013486 -1.58898e-06
-7.78662e-07 -1.58898e-06 -0.000115402
0.000413119 -9.12485e-05 6.76448e-07
-9.12485e-05 -1.83361e-05 -1.8384e-06
6.76448e-07 -1.8384e-06 -0.000202559
0.00111321 -0.000246351 -4.78151e-06
-0.000246351 0.000398563 2.68422e-06
-4.78151e-06 2.68422e-06 0.000178653
-0.000707265 -7.36355e-05 -3.22149e-06
-7.36355e-05 -0.000816694 -4.20815e-06
-3.22149e-06 -4.20815e-06 -0.0010148
0.000504462 -1.50504e-05 1.07508e-06
-1.50504e-05 -7.80301e-06 1.51377e-06
1.07508e-06 1.51377e-06 -0.000122228
0.000658094 -8.57487e-05 2.34876e-07
-8.57487e-05 0.000119617 -2.00904e-07
2.34876e-07 -2.00904e-07 -3.20354e-05
0.00071975 -0.000139252 5.46262e-06
-0.000139252 0.00017656 -2.67767e-06
5.46262e-06 -2.67767e-06 6.90006e-06
0.00056893 -4.75245e-05 4.17149e-07
-4.75245e-05 5.51294e-05 -2.7656e-07
4.17149e-07 -2.7656e-07 -7.10658e-05
0.00068699 -4.08474e-05 -7.27608e-07
-4.08474e-05 0.000108916 -3.77141e-08
-7.27608e-07 -3.77141e-08 -2.48919e-06
0.000532433 2.59427e-05 3.71684e-07
2.59427e-05 -1.64438e-06 3.62598e-06
3.71684e-07 3.62598e-06 -7.82051e-05
0.000779637 -6.98634e-05 2.55573e-07
-6.98634e-05 0.000177748 -1.20742e-06
2.55573e-07 -1.20742e-06 6.41074e-05
0.000579275 1.91018e-05 -1.18556e-06
1.91018e-05 2.72938e-05 -1.84982e-07
-1.18556e-06 -1.84982e-07 -4.34855e-05
0.000505559 3.44288e-05 -9.12325e-07
3.44288e-05 -3.89152e-05 5.18062e-06
-9.12325e-07 5.18062e-06 -6.38856e-05
0.000675246 -3.38588e-05 2.22299e-06
-3.38588e-05 7.91473e-05 -2.82442e-06
2.22299e-06 -2.82442e-06 1.40215e-05
0.000516045 2.39505e-05 2.26489e-07
2.39505e-05 -3.85968e-05 2.01204e-09
2.26489e-07 2.01204e-09 -6.10299e-05
0.00241907 8.32299e-05 -3.48136e-06
8.32299e-05 0.0011264 2.21056e-06
-3.48136e-06 2.21056e-06 0.00113394
0.00050823 1.55241e-05 9.89504e-07
1.55241e-05 -4.40485e-05 -4.92502e-06
9.89504e-07 -4.92502e-06 -6.55856e-05
0.00166091 4.86299e-05 1.12464e-05
4.86299e-05 0.000659721 -1.12471e-06
1.12464e-05 -1.12471e-06 0.000666312
0.00248063 4.72929e-05 1.43977e-05
4.72929e-05 0.00115738 -5.24899e-06
1.43977e-05 -5.24899e-06 0.00116956
0.000343295 9.20572e-06 9.87116e-07
9.20572e-06 -0.000102917 -1.49072e-06
9.87116e-07 -1.49072e-06 -0.000208203
0.000289536 4.96354e-06 5.00503e-07
4.96354e-06 -0.000155439 -2.77113e-06
5.00503e-07 -2.77113e-06 -0.000218338
0.000533437 2.04609e-05 -4.74299e-07
2.04609e-05 2.74425e-05 -1.13891e-06
-4.74299e-07 -1.13891e-06 -8.12204e-05
0.000544299 -8.91935e-06 1.09645e-06
-8.91935e-06 -2.7303e-05 -3.90758e-06
1.09645e-06 -3.90758e-06 -3.98484e-05
0.000255177 8.12115e-06 -5.55119e-07
8.12115e-06 -0.000173669 -1.42939e-06
-5.55119e-07 -1.42939e-06 -0.000230046
0.000699465 3.91422e-05 -4.69601e-07
3.91422e-05 0.000134334 1.25515e-06
-4.69601e-07 1.25515e-06 3.17216e-05
0.00211665 -2.3145e-05 -1.27633e-05
-2.3145e-05 0.000931547 -4.66179e-06
-1.27633e-05 -4.66179e-06 0.000949225
0.000532404 -4.97695e-06 -3.20626e-07
-4.97695e-06 -3.51595e-05 -5.6831e-08
-3.20626e-07 -5.6831e-08 -4.48267e-05
0.000210498 7.61072e-06 8.5504e-07
7.61072e-06 -0.000199585 1.60748e-06
8.5504e-07 1.60748e-06 -0.000249154
0.00204679 -8.34013e-06 -3.81916e-06
-8.34013e-06 0.000888658 4.72264e-08
-3.81916e-06 4.72264e-08 0.000907296
0.000525691 -1.21158e-06 -8.25759e-07
-1.21158e-06 -3.92833e-05 3.40844e-06
-8.25759e-07 3.40844e-06 -4.72162e-05
0.00204708 6.69108e-06 3.42759e-06
6.69108e-06 0.000889731 4.67225e-06
3.42759e-06 4.67225e-06 0.000908245
0.000512795 -1.02761e-05 3.87003e-05
-1.02761e-05 0.000746687 7.35457e-06
3.87003e-05 7.35457e-06 0.000658656
0.000304524 -0.000210062 -1.33408e-05
-0.000210062 6.83912e-05 -1.49497e-05
-1.33408e-05 -1.49497e-05 -0.00221262
0.00080632 0.000170959 2.95445e-05
0.000170959 0.0045476 -2.37373e-05
2.95445e-05 -2.37373e-05 0.0025174
0.000749998 0.000104763 -7.67396e-08
0.000104763 0.000150011 3.35531e-07
-7.67396e-08 3.35531e-07 1.87069e-05
0.000524441 7.2156e-05 2.72161e-06
7.2156e-05 -2.23137e-06 2.92281e-07
2.72161e-06 2.92281e-07 -0.000124122
0.00097009 0.00014831 3.87117e-06
0.00014831 0.000282681 3.59051e-06
3.87117e-06 3.59051e-06 0.000143771
0.00354081 -7.17281e-05 -4.94807e-06
-7.17281e-05 -0.00021958 0.000199949
-4.94807e-06 0.000199949 -0.000980748
0.00366115 -0.000379186 3.73091e-05
-0.000379186 0.00255107 -6.97682e-06
3.73091e-05 -6.97682e-06 0.00126918
0.00426202 -0.00081818 8.17176e-05
-0.00081818 0.00172655 -0.000153358
8.17176e-05 -0.000153358 -0.00210903
0.0072709 -0.00147713 -7.892e-05
-0.00147713 0.000889347 -1.5362e-05
-7.892e-05 -1.5362e-05 0.00090303
0.00182117 -0.00150621 -0.000195786
-0.00150621 -0.000700176 9.88812e-05
-0.000195786 9.88812e-05 -0.00351059
0.0154747 0.00235196 0.000125866
0.00235196 0.00582423 6.9022e-05
0.000125866 6.9022e-05 0.00409525
0.00442259 0.000226329 0.000131139
0.000226329 -0.00312233 -0.000142829
0.000131139 -0.000142829 -0.00265716
0.00508284 -0.00182251 -2.79187e-05
-0.00182251 0.000886008 9.27031e-06
-2.79187e-05 9.27031e-06 0.000471486
0.00709523 -0.00192585 -5.48551e-05
-0.00192585 0.00305078 2.47354e-05
-5.48551e-05 2.47354e-05 -0.000746526
-0.00335976 0.00202588 -5.59363e-05
0.00202588 0.00111948 -0.000190958
-5.59363e-05 -0.000190958 -0.00177944
0.00721108 0.00018638 -3.13446e-05
0.00018638 -0.00307889 8.34375e-05
-3.13446e-05 8.34375e-05 -0.000320748
0.0010479 -0.00101731 -6.42155e-05
-0.00101731 0.000158608 1.8636e-06
-6.42155e-05 1.8636e-06 -0.00026713
0.0114444 -0.00200275 -0.000134459
-0.00200275 0.00523153 9.63216e-05
-0.000134459 9.63216e-05 0.00107342
-0.00695193 -7.60317e-05 3.61825e-05
-7.60317e-05 0.000564023 -0.000256625
3.61825e-05 -0.000256625 -0.00220462
0.00611629 -0.00116962 5.95184e-05
-0.00116962 -0.00200762 8.51141e-06
5.95184e-05 8.51141e-06 -0.000978664
0.000577548 7.22414e-05 2.30061e-06
7.22414e-05 5.745e-05 8.94509e-06
2.30061e-06 8.94509e-06 -8.49237e-05
0.000722397 -1.56072e-05 1.81335e-06
-1.56072e-05 0.000185199 -1.5066e-06
1.81335e-06 -1.5066e-06 6.71584e-06
0.000829981 -0.000102137 -4.98444e-07
-0.000102137 0.000251131 -5.32956e-06
-4.98444e-07 -5.32956e-06 7.60584e-05
0.000703199 8.82501e-05 -1.17472e-06
8.82501e-05 0.000118409 -8.7335e-08
-1.17472e-06 -8.7335e-08 -2.09822e-05
0.000747659 0.000122846 9.24306e-08
0.000122846 0.000191751 -2.23647e-06
9.24306e-08 -2.23647e-06 3.81894e-05
0.00112043 0.000151063 -3.15903e-06
0.000151063 0.000411965 -1.71209e-06
-3.15903e-06 -1.71209e-06 0.000258933
-0.000543075 -0.000638645 1.8853e-05
-0.000638645 -0.00119467 5.56161e-06
1.8853e-05 5.56161e-06 -0.00117522
-0.000633439 -0.000213129 2.03687e-05
-0.000213129 -0.000630303 -1.67487e-05
2.03687e-05 -1.67487e-05 -0.000649401
0.000263567 2.79871e-05 -2.99288e-06
2.79871e-05 -8.84707e-05 -4.87107e-06
-2.99288e-06 -4.87107e-06 -0.00026449
0.00135738 -0.000309061 4.35708e-05
-0.000309061 0.000675249 -2.7618e-05
4.35708e-05 -2.7618e-05 0.000367754
0.001436 -5.39415e-06 -5.03453e-06
-5.39415e-06 0.000715982 -6.88252e-06
-5.03453e-06 -6.88252e-06 0.000464186
0.000660764 8.22201e-05 8.87991e-07
8.22201e-05 0.000129498 2.33591e-06
8.87991e-07 2.33591e-06 -1.86622e-05
0.000762932 0.000138026 2.45727e-07
0.000138026 0.000258764 -2.49052e-06
2.45727e-07 -2.49052e-06 9.41195e-05
0.000329656 -0.000685291 9.00361e-07
-0.000685291 -0.000421371 -5.57597e-06
9.00361e-07 -5.57597e-06 -0.000516612
0.000501449 -4.42286e-06 -2.5335e-06
-4.42286e-06 0.000435379 1.26685e-06
-2.5335e-06 1.26685e-06 4.85333e-05
0.000529835 -0.000166251 3.77139e-06
-0.000166251 0.000339084 -3.64656e-06
3.77139e-06 -3.64656e-06 0.000127759
0.00115417 0.000136817 2.52514e-06
0.000136817 0.000457586 -5.26614e-06
2.52514e-06 -5.26614e-06 0.000323245
-0.00233652 -8.17038e-05 -7.20193e-05
-8.17038e-05 -0.000751119 -2.18313e-05
-7.20193e-05 -2.18313e-05 -0.00133772
1.42661e-05 -7.43957e-05 -2.14374e-06
-7.43957e-05 0.000173828 1.17305e-05
-2.14374e-06 1.17305e-05 -2.8397e-05
0.00078936 6.42168e-05 8.23104e-06
6.42168e-05 0.000547042 4.53438e-06
8.23104e-06 4.53438e-06 0.000239029
0.000448939 1.45924e-05 -1.86684e-06
1.45924e-05 -0.000421281 8.10162e-07
-1.86684e-06 8.10162e-07 -0.000873751
-0.000529082 2.43939e-05 -2.45188e-06
2.43939e-05 0.000525867 -1.48384e-05
-2.45188e-06 -1.48384e-05 2.85415e-05
0.000226085 -6.99533e-05 0.000223335
-6.99533e-05 0.000760684 -1.45174e-06
0.000223335 -1.45174e-06 -0.0019172
-1.49002e-05 0.000221305 1.4573e-06
0.000221305 8.95049e-05 1.87889e-05
1.4573e-06 1.87889e-05 -0.00015976
0.000883879 0.000533661 2.13765e-06
0.000533661 0.000251735 -8.61579e-06
2.13765e-06 -8.61579e-06 -0.000151695
-0.000679295 -3.47924e-05 8.00482e-06
-3.47924e-05 -0.00014898 -2.51699e-06
8.00482e-06 -2.51699e-06 -0.000191342
-0.00350491 0.000621207 4.70922e-05
0.000621207 0.000939817 0.000108033
4.70922e-05 0.000108033 -0.00346657
-0.00838887 0.000842761 -0.000131926
0.000842761 -0.00343533 -0.000327694
-0.000131926 -0.000327694 -0.00624115
0.00298085 8.55812e-05 5.29987e-05
8.55812e-05 0.000178773 8.45404e-05
5.29987e-05 8.45404e-05 4.07817e-05
0.0044025 0.000293297 -0.000136547
0.000293297 -0.00301595 0.000143539
-0.000136547 0.000143539 -0.0026303
0.000467231 0.000224094 3.98666e-06
0.000224094 0.000417938 -1.26889e-06
3.98666e-06 -1.26889e-06 0.000132262
0.00120666 2.04925e-05 1.95364e-05
2.04925e-05 -0.000448595 -2.89092e-05
1.95364e-05 -2.89092e-05 -0.00015812
0.00349719 -0.000291217 -3.87518e-05
-0.000291217 0.00251089 7.65431e-06
-3.87518e-05 7.65431e-06 0.00123151
0.000872327 0.000346813 -6.92017e-05
0.000346813 0.000836727 -5.74653e-06
-6.92017e-05 -5.74653e-06 -3.30743e-05
0.00702464 0.00251593 7.47954e-05
0.00251593 -0.000204424 -0.000235218
7.47954e-05 -0.000235218 -0.000895664
-0.00227363 0.00168772 5.27004e-05
0.00168772 0.000827308 0.000188732
5.27004e-05 0.000188732 -0.00172682
0.00714633 0.00023449 5.28118e-05
0.00023449 0.0062216 -2.54668e-05
5.28118e-05 -2.54668e-05 0.00020811
0.0013396 -4.14993e-05 4.7324e-05
-4.14993e-05 0.00139714 -2.3123e-05
4.7324e-05 -2.3123e-05 0.000760868
0.000538618 4.97536e-06 -3.58929e-05
4.97536e-06 0.000718828 1.99939e-06
-3.58929e-05 1.99939e-06 0.00063011
0.00287465 -0.000573461 0.000416111
-0.000573461 0.000998265 -0.00019073
0.000416111 -0.00019073 -0.00278784
0.00839283 0.00336443 4.58149e-06
0.00336443 0.00636375 -3.58757e-06
4.58149e-06 -3.58757e-06 0.00577305
-0.00154719 0.00197076 1.25222e-06
0.00197076 -0.0027415 0.000462794
1.25222e-06 0.000462794 -0.00386096
0.0127348 -0.00203232 0.000161697
-0.00203232 0.00542284 -0.000142544
0.000161697 -0.000142544 0.00110397
0.00308487 -0.000551672 -6.05984e-05
-0.000551672 0.00177333 5.84286e-05
-6.05984e-05 5.84286e-05 0.00122672
0.00109828 0.000193034 8.03087e-06
0.000193034 0.000825683 5.86314e-06
8.03087e-06 5.86314e-06 0.000533142
0.000117958 -1.42124e-05 -2.00809e-05
-1.42124e-05 0.000271421 1.83542e-07
-2.00809e-05 1.83542e-07 5.78216e-05
0.00157687 -0.000329547 2.26534e-05
-0.000329547 0.000997529 -9.45976e-06
2.26534e-05 -9.45976e-06 0.000651317
0.000770532 -8.09007e-05 9.93598e-07
-8.09007e-05 0.000323011 3.36009e-06
9.93598e-07 3.36009e-06 0.000188307
5.07605e-05 -4.22333e-05 -2.93057e-06
-4.22333e-05 0.00014085 3.8103e-06
-2.93057e-06 3.8103e-06 -9.97908e-05
0.000484725 -0.000213315 -1.94773e-06
-0.000213315 0.000348676 -5.81354e-07
-1.94773e-06 -5.81354e-07 0.000122331
0.00126657 -0.000395198 2.56081e-05
-0.000395198 0.000540985 -2.08007e-05
2.56081e-05 -2.08007e-05 0.000346982
0.00215768 -0.000258887 -4.51155e-06
-0.000258887 0.00099792 4.51852e-06
-4.51155e-06 4.51852e-06 0.000851049
0.00196229 -0.00045339 8.01142e-06
-0.00045339 0.000852645 -1.4585e-06
8.01142e-06 -1.4585e-06 0.000582314
0.00185273 -0.000470956 1.46655e-05
-0.000470956 0.000775765 2.01229e-07
1.46655e-05 2.01229e-07 0.000330709
0.000368842 -0.00020546 -3.65873e-06
-0.00020546 -0.000144527 -1.73353e-06
-3.65873e-06 -1.73353e-06 -0.000303036
0.00147261 -0.000395402 -3.14278e-06
-0.000395402 0.00036759 7.40768e-07
-3.14278e-06 7.40768e-07 5.46646e-05
0.00198336 -0.000529977 3.3077e-07
-0.000529977 0.000605904 1.32519e-06
3.3077e-07 1.32519e-06 0.00019845
0.00164606 -0.000531277 -3.34753e-06
-0.000531277 0.000305197 2.42431e-06
-3.34753e-06 2.42431e-06 -4.55737e-05
0.00145216 -0.000404403 -1.78057e-06
-0.000404403 0.000310923 1.59315e-06
-1.78057e-06 1.59315e-06 1.95472e-05
0.001403 -0.000412528 -2.77052e-06
-0.000412528 0.000254666 1.39588e-06
-2.77052e-06 1.39588e-06 -5.55092e-05
0.00116808 -0.000325015 -6.39875e-06
-0.000325015 0.000209324 1.71187e-06
-6.39875e-06 1.71187e-06 -6.80921e-05
0.00227949 -0.000412759 3.30346e-06
-0.000412759 0.000892667 -3.26775e-07
3.30346e-06 -3.26775e-07 0.000639955
0.00145228 -0.000351141 4.07643e-06
-0.000351141 0.000345442 -2.42092e-06
4.07643e-06 -2.42092e-06 9.35667e-05
-0.000108733 -8.70291e-05 6.11086e-08
-8.70291e-05 -0.000390078 2.42139e-07
6.11086e-08 2.42139e-07 -0.000592992
0.00106705 -0.000266423 2.59102e-06
-0.000266423 0.000276166 -1.5396e-06
2.59102e-06 -1.5396e-06 3.29852e-05
0.00115666 -0.000293461 5.42018e-06
-0.000293461 0.000225717 -4.31314e-06
5.42018e-06 -4.31314e-06 -2.32215e-05
0.000113686 -8.50972e-06 6.51738e-07
-8.50972e-06 -0.000223587 1.72439e-06
6.51738e-07 1.72439e-06 -0.000372976
0.000962632 -0.000140171 -5.07481e-07
-0.000140171 0.000315872 -3.70811e-08
-5.07481e-07 -3.70811e-08 0.000121636
0.00105833 -0.00025926 -1.95899e-06
-0.00025926 0.000371429 -1.83845e-06
-1.95899e-06 -1.83845e-06 0.000145006
0.000658798 2.59223e-06 -9.27641e-07
2.59223e-06 7.28602e-05 4.15842e-06
-9.27641e-07 4.15842e-06 -1.13666e-05
0.000776019 -5.69896e-05 -1.94862e-07
-5.69896e-05 0.000155293 -1.61456e-07
-1.94862e-07 -1.61456e-07 3.55582e-05
0.000420191 -6.59948e-05 3.7874e-09
-6.59948e-05 -1.30834e-05 6.92376e-07
3.7874e-09 6.92376e-07 -0.000164098
0.000728785 -6.02188e-05 1.79057e-07
-6.02188e-05 0.00013814 -1.44715e-06
1.79057e-07 -1.44715e-06 2.19367e-05
0.0006197 -1.53358e-05 -1.72389e-07
-1.53358e-05 4.49597e-05 -2.41391e-07
-1.72389e-07 -2.41391e-07 -2.91977e-05
0.000511206 4.04143e-05 -3.01128e-07
4.04143e-05 -2.89433e-05 6.02404e-06
-3.01128e-07 6.02404e-06 -5.74473e-05
0.000622036 -2.33503e-05 1.56468e-06
-2.33503e-05 4.72074e-05 -2.84453e-06
1.56468e-06 -2.84453e-06 -2.10589e-05
0.000527061 3.57108e-05 -4.42589e-07
3.57108e-05 -2.61478e-05 -7.55169e-08
-4.42589e-07 -7.55169e-08 -5.13289e-05
0.0024946 9.12384e-05 -2.80251e-05
9.12384e-05 0.00117907 4.20635e-06
-2.80251e-05 4.20635e-06 0.00118549
0.000528466 2.48608e-05 1.08392e-06
2.48608e-05 -3.11208e-05 -4.97518e-06
1.08392e-06 -4.97518e-06 -5.36967e-05
0.00163579 6.1586e-05 1.33655e-05
6.1586e-05 0.00064878 -9.11493e-07
1.33655e-05 -9.11493e-07 0.000653602
0.00251398 6.37915e-05 1.87424e-05
6.37915e-05 0.0011808 -4.93779e-06
1.87424e-05 -4.93779e-06 0.00119118
0.000695179 7.37303e-05 1.49293e-06
7.37303e-05 0.000118937 -6.74542e-07
1.49293e-06 -6.74542e-07 4.50173e-06
0.000576235 3.31725e-05 3.61864e-07
3.31725e-05 1.6581e-05 -2.4174e-06
3.61864e-07 -2.4174e-06 -4.96544e-05
0.000516035 4.31355e-05 -1.18167e-06
4.31355e-05 1.47508e-05 -1.21354e-06
-1.18167e-06 -1.21354e-06 -9.94695e-05
0.000529338 -1.11046e-05 7.1642e-07
-1.11046e-05 -3.57257e-05 -4.51717e-06
7.1642e-07 -4.51717e-06 -5.17221e-05
0.000400769 2.53669e-05 -1.77771e-06
2.53669e-05 -8.7244e-05 -1.42206e-06
-1.77771e-06 -1.42206e-06 -0.000149196
0.000731856 5.34482e-05 -7.3419e-07
5.34482e-05 0.000148029 -1.16911e-06
-7.3419e-07 -1.16911e-06 4.04314e-05
0.00220719 -3.76484e-05 -1.73762e-05
-3.76484e-05 0.000987724 -4.65489e-06
-1.73762e-05 -4.65489e-06 0.00100388
0.000527988 -9.67858e-06 -1.57457e-07
-9.67858e-06 -3.74936e-05 -8.89483e-08
-1.57457e-07 -8.89483e-08 -4.97647e-05
0.000197926 6.68168e-06 -1.2109e-06
6.68168e-06 -0.000208652 5.01599e-07
-1.2109e-06 5.01599e-07 -0.000265926
0.002132 -2.21323e-05 -4.53602e-06
-2.21323e-05 0.000940752 1.04184e-07
-4.53602e-06 1.04184e-07 0.000958489
0.000526828 -6.29659e-06 -1.14262e-06
-6.29659e-06 -3.87438e-05 3.43453e-06
-1.14262e-06 3.43453e-06 -4.82368e-05
0.00207485 -6.86139e-06 8.22535e-06
-6.86139e-06 0.000905637 4.72245e-06
8.22535e-06 4.72245e-06 0.000924197
0.00131317 -8.14564e-05 -1.96476e-05
-8.14564e-05 -0.000355263 2.44934e-05
-1.96476e-05 2.44934e-05 -0.000127695
0.000430434 -8.87192e-05 2.32582e-05
-8.87192e-05 0.00066185 -1.52363e-06
2.32582e-05 -1.52363e-06 0.00058534
0.000329071 -0.00019749 0.000128221
-0.00019749 0.000205331 -5.72164e-05
0.000128221 -5.72164e-05 -0.0021911
0.000463856 3.56009e-05 2.13297e-06
3.56009e-05 -5.0248e-05 4.49189e-07
2.13297e-06 4.49189e-07 -0.000168359
0.00121311 7.54431e-05 -2.36988e-07
7.54431e-05 0.000388118 2.6404e-06
-2.36988e-07 2.6404e-06 0.000252809
0.000772237 0.000114799 -1.03695e-06
0.000114799 0.000163032 -7.04383e-07
-1.03695e-06 -7.04383e-07 3.61925e-05
0.000536203 5.77197e-05 3.39527e-07
5.77197e-05 -4.03554e-06 4.9861e-07
3.39527e-07 4.9861e-07 -0.000119107
0.000631905 7.64738e-05 1.44104e-07
7.64738e-05 7.33821e-05 1.253e-07
1.44104e-07 1.253e-07 -5.53707e-05
0.000604379 6.74628e-05 2.04583e-06
6.74628e-05 4.64155e-05 -7.04659e-07
2.04583e-06 -7.04659e-07 -7.36218e-05
0.000638536 0.000159807 5.34119e-06
0.000159807 0.000111057 3.54661e-06
5.34119e-06 3.54661e-06 -3.6303e-05
0.000222569 0.000198084 7.83483e-05
0.000198084 -0.000284374 0.000197789
7.83483e-05 0.000197789 -0.00156662
0.00314948 -4.8422e-05 -1.86152e-05
-4.8422e-05 6.5349e-05 5.55324e-05
-1.86152e-05 5.55324e-05 -0.00050402
0.00345869 -0.000288373 6.26223e-05
-0.000288373 0.00238837 -8.06284e-05
6.26223e-05 -8.06284e-05 0.00140781
0.00526626 -0.000134533 -8.58255e-06
-0.000134533 -0.00500212 9.49549e-05
-8.58255e-06 9.49549e-05 -0.00161767
0.00314561 -0.00152764 -9.07221e-05
-0.00152764 0.000874558 6.6423e-05
-9.07221e-05 6.6423e-05 0.000277546
-0.00176852 -0.00198583 -6.10711e-05
-0.00198583 0.000155938 9.49205e-05
-6.10711e-05 9.49205e-05 -0.0043551
0.0107628 0.00254471 8.72508e-05
0.00254471 0.00546079 -9.0387e-05
8.72508e-05 -9.0387e-05 0.00281268
0.00311604 -0.00136745 -3.41421e-05
-0.00136745 0.000691765 1.05167e-05
-3.41421e-05 1.05167e-05 0.000486315
-0.00101788 -0.000559267 1.10146e-05
-0.000559267 0.00213571 3.69523e-05
1.10146e-05 3.69523e-05 -0.00308279
0.00525541 0.000286592 6.90882e-05
0.000286592 0.0026253 -1.35755e-05
6.90882e-05 -1.35755e-05 0.000614087
0.0113583 -0.00166369 -3.98095e-05
-0.00166369 0.00148368 -3.44575e-05
-3.98095e-05 -3.44575e-05 0.00280234
-0.000263499 -0.000229148 -0.000101286
-0.000229148 -0.000399642 8.52315e-05
-0.000101286 8.52315e-05 -0.000137543
0.00156441 0.00170356 -9.76637e-05
0.00170356 0.0029276 -8.22352e-05
-9.76637e-05 -8.22352e-05 -0.0024047
-0.0053424 -0.00288126 4.93026e-05
-0.00288126 -0.00265263 -0.000180686
4.93026e-05 -0.000180686 -0.00556291
0.00805622 -0.00181866 7.14662e-05
-0.00181866 0.000556274 -0.000361426
7.14662e-05 -0.000361426 0.000678341
0.000869052 2.85786e-05 7.7458e-06
2.85786e-05 0.000271762 2.35834e-06
7.7458e-06 2.35834e-06 0.000132193
0.000654837 9.94004e-05 -6.80188e-07
9.94004e-05 0.00011169 -1.17525e-06
-6.80188e-07 -1.17525e-06 -3.18877e-05
0.00077777 -1.82038e-05 -5.6167e-07
-1.82038e-05 0.000232615 -2.67933e-06
-5.6167e-07 -2.67933e-06 3.87091e-05
0.000830914 8.31919e-05 -2.404e-06
8.31919e-05 0.000213919 -5.55569e-06
-2.404e-06 -5.55569e-06 6.03385e-05
-6.08281e-05 -0.000520712 -5.39351e-06
-0.000520712 -0.000565239 3.68752e-05
-5.39351e-06 3.68752e-05 -0.000692584
0.00135936 -0.00017114 -6.61453e-06
-0.00017114 0.000917858 -1.69906e-05
-6.61453e-06 -1.69906e-05 0.000644782
0.000737674 5.9493e-05 -4.18092e-06
5.9493e-05 0.000154929 -5.86462e-06
-4.18092e-06 -5.86462e-06 2.58047e-05
0.000697427 0.000182604 -1.69177e-06
0.000182604 0.000230027 3.40046e-06
-1.69177e-06 3.40046e-06 6.08269e-05
0.00183981 3.50243e-05 3.66302e-06
3.50243e-05 0.00113745 -1.5267e-05
3.66302e-06 -1.5267e-05 0.000842488
0.000874855 7.82335e-05 4.49063e-06
7.82335e-05 0.000263237 3.13569e-06
4.49063e-06 3.13569e-06 0.00014729
0.000512071 0.000131212 -2.01538e-06
0.000131212 0.000414011 -2.31663e-07
-2.01538e-06 -2.31663e-07 8.22257e-05
0.00100354 -0.000215132 -3.31894e-06
-0.000215132 0.000928575 7.29922e-07
-3.31894e-06 7.29922e-07 0.00018802
-4.3255e-05 -3.75837e-05 2.73144e-05
-3.75837e-05 0.000243659 -1.28756e-06
2.73144e-05 -1.28756e-06 -9.25957e-06
0.000476971 0.000133753 2.75835e-06
0.000133753 0.000296476 -2.01802e-06
2.75835e-06 -2.01802e-06 8.01578e-05
0.000192201 -4.76672e-05 -4.07844e-05
-4.76672e-05 0.00123545 -4.51968e-05
-4.07844e-05 -4.51968e-05 -0.00011194
0.00245014 0.000204381 1.256e-05
0.000204381 0.00152825 2.10234e-05
1.256e-05 2.10234e-05 0.00119206
-0.000283412 3.17146e-05 -1.9856e-05
3.17146e-05 0.000852814 1.35654e-05
-1.9856e-05 1.35654e-05 0.000189706
0.00107402 -1.45123e-05 7.36726e-07
-1.45123e-05 -0.00015035 4.60736e-07
7.36726e-07 4.60736e-07 -0.000220866
-0.000750816 2.16128e-05 5.6045e-06
2.16128e-05 0.000233315 -2.76909e-05
5.6045e-06 -2.76909e-05 -0.000101
0.000163804 0.000144111 -3.69297e-06
0.000144111 0.000320377 7.16968e-06
-3.69297e-06 7.16968e-06 9.20409e-05
-0.00134545 0.000445959 8.11907e-05
0.000445959 -0.000767095 6.81942e-05
8.11907e-05 6.81942e-05 -0.00117296
0.00104411 -1.24323e-05 2.77037e-05
-1.24323e-05 -0.000526136 -5.54061e-06
2.77037e-05 -5.54061e-06 -0.000147051
0.00271919 -0.00150878 0.000130958
-0.00150878 0.00380445 -0.000140029
0.000130958 -0.000140029 -0.0026393
0.0117628 0.00240764 -0.000108677
0.00240764 0.00536985 8.31413e-05
-0.000108677 8.31413e-05 0.0030423
0.0035123 -0.000214086 -6.52713e-05
-0.000214086 0.00230743 8.53634e-05
-6.52713e-05 8.53634e-05 0.00138064
0.00771094 0.00253549 -1.96737e-05
0.00253549 0.00141809 -8.54634e-05
-1.96737e-05 -8.54634e-05 0.000122785
0.000217448 0.000128452 -4.4905e-05
0.000128452 0.000721694 1.14508e-05
-4.4905e-05 1.14508e-05 5.33806e-05
0.000592613 -3.24393e-05 -2.70218e-05
-3.24393e-05 0.000626373 1.47347e-06
-2.70218e-05 1.47347e-06 0.000626433
0.00366909 -0.000702368 0.000165841
-0.000702368 0.00136328 -1.38173e-05
0.000165841 -1.38173e-05 -0.00231498
-0.000649046 -0.00019444 1.75455e-05
-0.00019444 -0.000297898 2.69907e-05
1.75455e-05 2.69907e-05 -0.00054861
0.00188613 0.00370421 0.000253593
0.00370421 0.00265749 -0.000123277
0.000253593 -0.000123277 0.00259324
0.00784917 0.00162312 -0.000100512
0.00162312 0.00106896 0.000188021
-0.000100512 0.000188021 -0.000165009
-0.00305454 -0.00085855 8.40213e-05
-0.00085855 0.001394 -9.29736e-05
8.40213e-05 -9.29736e-05 -0.00438238
0.000267487 -0.000262678 3.5972e-05
-0.000262678 0.000519145 -1.42545e-05
3.5972e-05 -1.42545e-05 -9.60057e-05
0.000380834 -0.000310573 0.000138895
-0.000310573 -0.000315066 -3.15488e-05
0.000138895 -3.15488e-05 -0.00222525
-0.00229587 -1.28553e-05 -0.000449721
-1.28553e-05 0.00353262 9.68744e-05
-0.000449721 9.68744e-05 0.0010457
0.00711215 0.00349687 -0.00033242
0.00349687 0.0013689 0.000388219
-0.00033242 0.000388219 0.000915084
0.00793947 -0.00154157 -5.07606e-05
-0.00154157 0.00356735 1.58341e-05
-5.07606e-05 1.58341e-05 -4.82578e-06
0.00285813 -0.000822608 -5.55241e-05
-0.000822608 0.00146871 3.83483e-05
-5.55241e-05 3.83483e-05 0.0010106
-0.000236906 -1.6269e-06 1.88812e-05
-1.6269e-06 3.55708e-05 1.07662e-05
1.88812e-05 1.07662e-05 -0.000183356
0.000374221 -0.000244387 1.5315e-06
-0.000244387 0.000373505 2.9044e-07
1.5315e-06 2.9044e-07 3.35283e-05
0.00117543 -0.000462651 1.54401e-05
-0.000462651 0.000509103 -2.06421e-06
1.54401e-05 -2.06421e-06 0.000371533
-0.000467588 -0.000184518 -3.62354e-06
-0.000184518 -0.000129628 7.47879e-06
-3.62354e-06 7.47879e-06 -0.000354652
-0.000704129 -0.000226166 7.38319e-07
-0.000226166 -0.000459229 -2.10161e-06
7.38319e-07 -2.10161e-06 -0.000659057
0.00271154 -0.000595028 3.93025e-05
-0.000595028 0.00106767 -3.41471e-06
3.93025e-05 -3.41471e-06 0.000811774
0.00495244 -0.000768158 -1.21437e-05
-0.000768158 0.00245296 4.92201e-06
-1.21437e-05 4.92201e-06 0.00214693
0.00252525 -0.000545818 7.52064e-06
-0.000545818 0.00106821 2.2021e-07
7.52064e-06 2.2021e-07 0.000642487
0.00156251 -0.000529422 1.00508e-05
-0.000529422 0.000387182 -8.34518e-06
1.00508e-05 -8.34518e-06 -7.2894e-05
0.00149123 -0.000394194 -1.01682e-05
-0.000394194 0.000353026 1.73964e-06
-1.01682e-05 1.73964e-06 4.09814e-05
0.00216729 -0.000559232 1.60137e-06
-0.000559232 0.000679536 4.09429e-07
1.60137e-06 4.09429e-07 0.000263929
0.00220714 -0.000597775 3.36308e-06
-0.000597775 0.000657616 -7.49138e-06
3.36308e-06 -7.49138e-06 0.00023641
0.00199006 -0.000536477 -1.32181e-06
-0.000536477 0.000399545 -3.85593e-06
-1.32181e-06 -3.85593e-06 9.23445e-05
0.00184668 -0.000547606 -4.37303e-07
-0.000547606 0.000397968 1.98153e-06
-4.37303e-07 1.98153e-06 6.87663e-05
0.00181589 -0.000552324 -1.42515e-06
-0.000552324 0.000398936 4.6957e-09
-1.42515e-06 4.6957e-09 3.97451e-05
0.00161715 -0.000395818 6.09009e-06
-0.000395818 0.000423428 2.50984e-06
6.09009e-06 2.50984e-06 0.000159034
0.00133387 -0.000384822 5.55777e-07
-0.000384822 0.000240755 5.55749e-07
5.55777e-07 5.55749e-07 -3.94758e-05
0.00129864 -0.000404432 -3.08039e-08
-0.000404432 0.000192752 9.06321e-08
-3.08039e-08 9.06321e-08 -0.000119621
0.00134324 -0.000295239 3.84503e-06
-0.000295239 0.000387106 2.16119e-07
3.84503e-06 2.16119e-07 0.00014775
0.00129816 -0.000316117 -1.70095e-06
-0.000316117 0.000296095 -1.24312e-06
-1.70095e-06 -1.24312e-06 6.01352e-05
0.000972655 -0.000303352 1.01943e-05
-0.000303352 5.70175e-05 -6.46574e-06
1.01943e-05 -6.46574e-06 -0.000186102
0.000463022 -0.000126321 2.54319e-06
-0.000126321 4.27683e-06 5.59958e-07
2.54319e-06 5.59958e-07 -0.000203203
0.000531786 -0.000144471 -1.45511e-06
-0.000144471 1.50744e-05 1.77298e-06
-1.45511e-06 1.77298e-06 -0.000199944
0.00147941 -0.000315675 4.75861e-06
-0.000315675 0.000535696 -5.50937e-06
4.75861e-06 -5.50937e-06 0.000284226
0.000479016 1.7389e-06 5.51348e-07
1.7389e-06 -3.47893e-05 4.93131e-06
5.51348e-07 4.93131e-06 -0.000132471
0.000693676 -5.1201e-05 -6.7953e-07
-5.1201e-05 0.000133691 -3.47763e-08
-6.7953e-07 -3.47763e-08 -2.73316e-05
0.00140308 -0.000193496 8.9193e-07
-0.000193496 0.000586176 -8.19122e-07
8.9193e-07 -8.19122e-07 0.000381511
0.000492304 3.94481e-05 -2.12018e-06
3.94481e-05 -3.47235e-05 8.61822e-06
-2.12018e-06 8.61822e-06 -6.65394e-05
0.000633606 -1.8244e-06 -3.83712e-07
-1.8244e-06 5.45206e-05 -2.89059e-07
-3.83712e-07 -2.89059e-07 -2.92842e-05
0.00102691 -8.59805e-05 2.83998e-08
-8.59805e-05 0.000313511 -1.68806e-06
2.83998e-08 -1.68806e-06 0.000184337
0.000654728 -1.53545e-05 1.14981e-06
-1.53545e-05 6.54442e-05 -3.46421e-06
1.14981e-06 -3.46421e-06 -8.98293e-06
0.000519872 4.13541e-05 3.43465e-07
4.13541e-05 -2.32631e-05 1.64391e-08
3.43465e-07 1.64391e-08 -5.21515e-05
0.00257033 0.000110101 -2.93342e-05
0.000110101 0.00123337 3.90143e-06
-2.93342e-05 3.90143e-06 0.00123564
0.000546699 3.96035e-05 -2.35712e-07
3.96035e-05 -1.42802e-05 -5.51975e-06
-2.35712e-07 -5.51975e-06 -4.00409e-05
0.00251622 9.45784e-05 3.25882e-06
9.45784e-05 0.00119305 3.33271e-07
3.25882e-06 3.33271e-07 0.00119879
0.00248328 7.92631e-05 2.22983e-05
7.92631e-05 0.00116686 -4.4659e-06
2.22983e-05 -4.4659e-06 0.0011754
0.000695006 7.73255e-05 2.79452e-07
7.73255e-05 0.000138604 -7.46435e-07
2.79452e-07 -7.46435e-07 -1.01078e-05
0.000765985 9.56707e-05 2.12342e-06
9.56707e-05 0.000173483 -1.24165e-06
2.12342e-06 -1.24165e-06 4.01958e-05
0.000612511 2.54157e-05 6.83942e-07
2.54157e-05 3.85242e-05 -2.86501e-06
6.83942e-07 -2.86501e-06 -3.44805e-05
0.00067188 8.71867e-05 4.84062e-08
8.71867e-05 0.000102544 -1.23051e-07
4.84062e-08 -1.23051e-07 -1.11893e-05
0.000519169 -1.20914e-05 -3.93497e-07
-1.20914e-05 -3.89832e-05 -5.31941e-06
-3.93497e-07 -5.31941e-06 -5.91777e-05
0.000590502 3.52231e-05 1.35429e-07
3.52231e-05 2.57965e-05 -1.05295e-07
1.35429e-07 -1.05295e-07 -4.05134e-05
0.000602048 4.57172e-05 -2.74214e-06
4.57172e-05 5.53378e-05 -2.32949e-08
-2.74214e-06 -2.32949e-08 -4.98467e-05
0.00231852 -5.25395e-05 -2.27355e-05
-5.25395e-05 0.00105768 -4.64786e-06
-2.27355e-05 -4.64786e-06 0.00107167
0.000527481 -1.41286e-05 -4.61867e-07
-1.41286e-05 -3.62561e-05 -7.62845e-08
-4.61867e-07 -7.62845e-08 -5.22179e-05
0.000517408 3.93567e-05 -2.00054e-06
3.93567e-05 -1.58106e-05 6.76656e-07
-2.00054e-06 6.76656e-07 -7.67332e-05
0.00220162 -3.65058e-05 -4.34449e-06
-3.65058e-05 0.000984134 1.82238e-07
-4.34449e-06 1.82238e-07 0.0010005
0.000527205 -9.66194e-06 -1.22249e-06
-9.66194e-06 -3.82054e-05 3.66167e-06
-1.22249e-06 3.66167e-06 -5.02341e-05
0.00210801 -2.09287e-05 1.24346e-05
-2.09287e-05 0.000925835 4.65466e-06
1.24346e-05 4.65466e-06 0.000943794
-0.000569863 -3.84036e-05 -5.96096e-06
-3.84036e-05 -0.000115052 1.44412e-06
-5.96096e-06 1.44412e-06 3.29878e-05
0.00127818 -0.000110883 -1.77417e-05
-0.000110883 -0.000420228 2.77973e-05
-1.77417e-05 2.77973e-05 -0.000110511
0.00049077 -0.000117362 1.10604e-05
-0.000117362 0.000630223 -2.02658e-05
1.10604e-05 -2.02658e-05 0.000539285
0.000753009 7.69524e-05 -1.80133e-07
7.69524e-05 0.0001529 1.35782e-07
-1.80133e-07 1.35782e-07 1.53438e-05
0.000615518 6.32887e-05 1.99437e-06
6.32887e-05 3.16698e-05 -6.08764e-07
1.99437e-06 -6.08764e-07 -9.72373e-05
-0.000485561 2.48961e-05 -4.44562e-06
2.48961e-05 -0.000618146 -4.92635e-06
-4.44562e-06 -4.92635e-06 -0.000728016
0.000268555 2.28463e-05 1.85412e-06
2.28463e-05 -0.000153308 4.71612e-06
1.85412e-06 4.71612e-06 -0.000279122
0.00186749 0.000229496 -8.43937e-07
0.000229496 0.000831741 5.27508e-07
-8.43937e-07 5.27508e-07 0.000654664
0.000680332 3.63863e-05 -2.75819e-06
3.63863e-05 7.50121e-05 -2.44393e-07
-2.75819e-06 -2.44393e-07 -3.69924e-05
0.000631643 6.70609e-05 -3.22189e-06
6.70609e-05 6.41456e-05 -4.02641e-06
-3.22189e-06 -4.02641e-06 -5.66073e-05
0.000753644 7.09725e-05 -5.04219e-08
7.09725e-05 0.000138748 -2.31168e-07
-5.04219e-08 -2.31168e-07 1.5166e-05
0.000951345 0.000119442 2.10045e-08
0.000119442 0.000274206 -4.7233e-07
2.10045e-08 -4.7233e-07 0.000141308
0.000907582 9.16571e-05 3.74937e-06
9.16571e-05 0.000294248 -2.29924e-06
3.74937e-06 -2.29924e-06 0.000137431
0.00376628 0.000398848 0.00022854
0.000398848 0.0025608 0.000304292
0.00022854 0.000304292 -0.00123379
0.000797518 0.000203539 1.16383e-05
0.000203539 -6.23148e-05 7.54779e-05
1.16383e-05 7.54779e-05 -0.00155792
0.0028483 -5.03382e-05 -9.64055e-06
-5.03382e-05 0.000284467 -1.15902e-05
-9.64055e-06 -1.15902e-05 -6.70681e-05
0.0115212 -0.00144301 -0.000130029
-0.00144301 0.00157669 -0.00012432
-0.000130029 -0.00012432 0.00314932
-0.00825407 0.0012433 6.21414e-06
0.0012433 -0.00300618 0.000315841
6.21414e-06 0.000315841 -0.00606956
0.00442861 -0.00150029 -0.000107975
-0.00150029 0.00151831 2.25451e-05
-0.000107975 2.25451e-05 0.00135255
0.0109176 -0.00130959 -9.01246e-05
-0.00130959 0.0050522 -9.87486e-07
-9.01246e-05 -9.87486e-07 0.00116443
0.00166182 -0.00037072 -2.93578e-05
-0.00037072 0.00040051 7.75636e-05
-2.93578e-05 7.75636e-05 0.00028224
0.0109695 -0.00020042 -4.48702e-05
-0.00020042 0.0059733 -1.03163e-05
-4.48702e-05 -1.03163e-05 0.000903222
0.00319261 -0.00176432 7.00383e-05
-0.00176432 0.00140931 9.99959e-05
7.00383e-05 9.99959e-05 -0.00122898
0.00809778 -0.00229981 -0.000161361
-0.00229981 -0.000245284 -0.000431245
-0.000161361 -0.000431245 -0.000101731
0.00284573 0.000134931 -0.000112868
0.000134931 0.00131872 6.43383e-05
-0.000112868 6.43383e-05 0.000725869
0.0109287 0.00152296 -8.51638e-05
0.00152296 0.00519483 2.00296e-05
-8.51638e-05 2.00296e-05 0.00121433
0.0126147 -0.00321993 -0.000130844
-0.00321993 0.00491761 -0.000384425
-0.000130844 -0.000384425 0.00373172
0.011502 -0.00393471 8.94049e-05
-0.00393471 0.00327109 -1.51696e-05
8.94049e-05 -1.51696e-05 0.00354295
0.00019429 8.7289e-05 8.14915e-06
8.7289e-05 -4.85495e-05 4.83184e-07
8.14915e-06 4.83184e-07 -0.000207575
0.000731945 3.18608e-05 1.35296e-06
3.18608e-05 0.00021359 2.15935e-06
1.35296e-06 2.15935e-06 5.42607e-05
0.000704666 0.000112461 -4.25483e-06
0.000112461 0.000143218 -6.59244e-06
-4.25483e-06 -6.59244e-06 -2.50525e-06
0.0021344 -0.000271743 -3.42471e-05
-0.000271743 0.00123887 3.1736e-05
-3.42471e-05 3.1736e-05 0.000374499
0.000683258 -3.98758e-05 -3.2774e-05
-3.98758e-05 0.000681132 -2.35195e-05
-3.2774e-05 -2.35195e-05 0.000443276
0.000454634 5.33911e-06 -6.87327e-06
5.33911e-06 5.84508e-06 -5.67357e-07
-6.87327e-06 -5.67357e-07 -0.000104063
-0.000681744 7.02091e-05 -6.80589e-06
7.02091e-05 -0.000223196 -3.5632e-06
-6.80589e-06 -3.5632e-06 -0.000595837
0.000233084 0.000101324 8.68074e-07
0.000101324 0.000133 -1.42339e-06
8.68074e-07 -1.42339e-06 -8.74693e-05
0.000594529 0.00018644 4.60514e-06
0.00018644 0.000514779 2.08466e-06
4.60514e-06 2.08466e-06 0.000141512
-0.000991732 -7.2091e-05 0.000147195
-7.2091e-05 0.000652115 -3.03216e-05
0.000147195 -3.03216e-05 -0.00075082
-0.00195246 8.24746e-05 -1.40707e-05
8.24746e-05 -0.00100431 1.24615e-05
-1.40707e-05 1.24615e-05 -0.00127696
0.00263232 0.000455174 -8.7768e-05
0.000455174 0.00177093 -5.56154e-05
-8.7768e-05 -5.56154e-05 0.000803787
0.00184312 0.000105293 0.000106633
0.000105293 0.00143915 2.93076e-05
0.000106633 2.93076e-05 -0.00123542
-0.000559307 3.249e-05 3.49059e-06
3.249e-05 0.000573817 1.66886e-05
3.49059e-06 1.66886e-05 1.8902e-05
0.00170203 -9.41963e-05 -8.23288e-07
-9.41963e-05 0.00014029 6.07158e-07
-8.23288e-07 6.07158e-07 0.000417236
-0.00150057 0.000357073 0.000115872
0.000357073 -0.000254844 8.49159e-06
0.000115872 8.49159e-06 -0.00102933
0.0023731 0.00019349 -4.315e-05
0.00019349 0.00146173 3.36148e-05
-4.315e-05 3.36148e-05 0.000500761
0.000505554 -8.85503e-05 -1.28689e-05
-8.85503e-05 0.000614322 1.13136e-05
-1.28689e-05 1.13136e-05 0.000533495
0.0159766 -0.00232634 0.000144913
-0.00232634 0.00720923 -5.24863e-05
0.000144913 -5.24863e-05 0.00258114
0.013841 0.00246551 -6.79871e-05
0.00246551 0.00544129 -6.45268e-05
-6.79871e-05 -6.45268e-05 0.00364973
0.00433813 -0.000757452 -0.000100438
-0.000757452 0.00181848 0.0001496
-0.000100438 0.0001496 -0.00194422
-0.00504236 0.00424811 0.0011328
0.00424811 -0.00154445 -0.000849988
0.0011328 -0.000849988 -0.00126739
0.000695085 -0.000259801 1.7157e-05
-0.000259801 0.000819169 -5.20857e-06
1.7157e-05 -5.20857e-06 0.00012591
0.000401533 -0.000225316 1.14984e-05
-0.000225316 -5.87443e-06 1.49136e-05
1.14984e-05 1.49136e-05 -0.00223847
-0.00278179 0.000179335 -0.000597874
0.000179335 0.00348239 0.000233342
-0.000597874 0.000233342 0.000970887
0.000946714 -0.000465851 -1.65369e-05
-0.000465851 0.000499663 3.53896e-05
-1.65369e-05 3.53896e-05 0.000100141
0.0147556 0.00326059 0.000165553
0.00326059 0.00426612 8.45067e-05
0.000165553 8.45067e-05 0.00389502
0.00785459 -0.00227553 0.000113822
-0.00227553 0.0031413 -6.21232e-05
0.000113822 -6.21232e-05 -0.000123762
0.00222581 -0.000705854 -4.52736e-06
-0.000705854 0.00109411 2.64096e-05
-4.52736e-06 2.64096e-05 0.000808149
-0.00544422 -0.000778208 6.07534e-05
-0.000778208 0.0027953 -3.63677e-05
6.07534e-05 -3.63677e-05 -2.44032e-06
0.0123813 0.0029654 -0.000703836
0.0029654 0.00526017 0.000318015
-0.000703836 0.000318015 0.00446118
0.00287794 -0.00152106 -0.000262128
-0.00152106 -0.000525513 0.000157696
-0.000262128 0.000157696 -0.00401477
0.00241208 -0.00121904 0.000128311
-0.00121904 0.000539078 -6.77648e-05
0.000128311 -6.77648e-05 0.000848156
-0.000211578 -0.000231105 -5.64199e-05
-0.000231105 3.80878e-05 1.7954e-05
-5.64199e-05 1.7954e-05 -0.000282918
0.000692473 -0.000401598 -7.29363e-06
-0.000401598 0.000316773 1.10771e-05
-7.29363e-06 1.10771e-05 0.000106522
0.00324081 -0.000634247 2.47719e-05
-0.000634247 0.00143933 1.91039e-06
2.47719e-05 1.91039e-06 0.00121899
-0.00268567 -7.33684e-05 -7.63545e-07
-7.33684e-05 -0.00145585 1.08015e-05
-7.63545e-07 1.08015e-05 -0.00166266
0.000879304 -0.00039261 6.18177e-06
-0.00039261 0.000129472 1.11284e-06
6.18177e-06 1.11284e-06 -0.000120899
0.00213101 -0.000623424 7.51639e-06
-0.000623424 0.000493199 -1.7325e-06
7.51639e-06 -1.7325e-06 0.000216454
0.00305571 -0.000602768 -1.99948e-05
-0.000602768 0.00128564 7.14898e-06
-1.99948e-05 7.14898e-06 0.000881678
0.00135006 -0.000491578 -1.95755e-06
-0.000491578 0.000251652 -3.41077e-06
-1.95755e-06 -3.41077e-06 -0.000185471
0.00173509 -0.000621907 5.8654e-06
-0.000621907 0.000241736 -9.09748e-06
5.8654e-06 -9.09748e-06 -0.000109898
0.00259628 -0.000612398 -4.3759e-06
-0.000612398 0.000890396 1.32399e-06
-4.3759e-06 1.32399e-06 0.000466633
0.00179109 -0.000561146 2.33831e-07
-0.000561146 0.000404674 -4.50216e-06
2.33831e-07 -4.50216e-06 1.04679e-06
0.0022556 -0.000563353 2.3353e-06
-0.000563353 0.000490298 -7.77072e-06
2.3353e-06 -7.77072e-06 0.000192598
0.00167622 -0.00041271 -4.24331e-06
-0.00041271 8.4294e-05 -3.48077e-06
-4.24331e-06 -3.48077e-06 -0.000138091
0.00167008 -0.000521204 1.61994e-06
-0.000521204 0.000186517 -8.73852e-07
1.61994e-06 -8.73852e-07 -0.000113341
0.00185961 -0.000523529 2.14304e-06
-0.000523529 0.0003257 -2.77663e-06
2.14304e-06 -2.77663e-06 2.28415e-05
0.00180503 -0.000474546 8.93153e-07
-0.000474546 0.000438617 6.53905e-07
8.93153e-07 6.53905e-07 0.000140069
0.00185952 -0.000549187 -2.04665e-06
-0.000549187 0.000422189 1.7474e-07
-2.04665e-06 1.7474e-07 8.79494e-05
0.001944 -0.000570893 2.41592e-07
-0.000570893 0.000467692 -3.46666e-06
2.41592e-07 -3.46666e-06 0.000100626
0.00160371 -0.000346632 4.0981e-06
-0.000346632 0.000452281 -1.52914e-08
4.0981e-06 -1.52914e-08 0.000206024
0.00109305 -0.000339794 1.56766e-06
-0.000339794 0.000121802 9.09687e-08
1.56766e-06 9.09687e-08 -0.000128414
0.00129952 -0.000375045 2.73803e-06
-0.000375045 0.000217862 -6.88156e-07
2.73803e-06 -6.88156e-07 -5.2427e-05
0.000772022 -0.000234776 -5.93505e-07
-0.000234776 0.000115318 5.00106e-07
-5.93505e-07 5.00106e-07 -0.000106866
0.000924596 -0.000251177 -8.89117e-07
-0.000251177 0.000136985 -2.89473e-07
-8.89117e-07 -2.89473e-07 -9.24775e-05
0.000442026 -0.000231885 -3.35516e-06
-0.000231885 -0.000224368 -8.61494e-07
-3.35516e-06 -8.61494e-07 -0.000446315
6.41435e-05 -2.00825e-05 -8.36352e-07
-2.00825e-05 -0.000278423 5.27231e-06
-8.36352e-07 5.27231e-06 -0.000408293
0.000759989 -0.000142085 1.6577e-06
-0.000142085 0.0001869 2.21223e-07
1.6577e-06 2.21223e-07 -2.68896e-05
0.00131788 -0.000203421 -1.97362e-06
-0.000203421 0.000506765 5.15374e-07
-1.97362e-06 5.15374e-07 0.000278053
0.00153698 7.62143e-05 -2.2534e-05
7.62143e-05 0.000612646 5.83855e-06
-2.2534e-05 5.83855e-06 0.000575452
0.00068254 -3.2801e-05 5.82975e-07
-3.2801e-05 8.24944e-05 -5.49951e-07
5.82975e-07 -5.49951e-07 -1.73843e-05
0.00128018 -9.09051e-05 -2.29338e-06
-9.09051e-05 0.00049513 -2.20112e-06
-2.29338e-06 -2.20112e-06 0.000322431
0.000762609 4.99344e-05 -3.30851e-05
4.99344e-05 0.000135935 4.31851e-06
-3.30851e-05 4.31851e-06 0.000131572
0.000997214 5.52659e-05 -1.04306e-05
5.52659e-05 0.000275233 -3.45619e-07
-1.04306e-05 -3.45619e-07 0.000243523
0.000618795 -7.96096e-06 6.10914e-07
-7.96096e-06 4.19644e-05 -4.3859e-06
6.10914e-07 -4.3859e-06 -4.12094e-05
0.000527392 4.33092e-05 4.39068e-07
4.33092e-05 -1.80123e-05 -6.34755e-06
4.39068e-07 -6.34755e-06 -4.74383e-05
0.0025862 0.000111528 5.27831e-06
0.000111528 0.00124372 4.89077e-07
5.27831e-06 4.89077e-07 0.00124577
0.00250073 9.62886e-05 2.43677e-05
9.62886e-05 0.00118447 -4.26984e-06
2.43677e-05 -4.26984e-06 0.00118987
0.000937853 9.55871e-05 2.15828e-06
9.55871e-05 0.000268431 3.49707e-06
2.15828e-06 3.49707e-06 0.000128991
0.000836714 9.51821e-05 1.82248e-06
9.51821e-05 0.000220426 -2.32945e-06
1.82248e-06 -2.32945e-06 7.80059e-05
0.000553249 5.80527e-05 -7.48148e-07
5.80527e-05 2.77944e-05 9.29139e-07
-7.48148e-07 9.29139e-07 -0.000103732
0.000631647 1.51296e-05 6.27648e-07
1.51296e-05 4.98084e-05 -3.47842e-06
6.27648e-07 -3.47842e-06 -3.032e-05
0.000723511 7.61974e-05 5.75748e-07
7.61974e-05 0.000135919 5.78409e-09
5.75748e-07 5.78409e-09 1.37504e-05
0.000518524 -1.19425e-05 -1.0594e-06
-1.19425e-05 -3.48438e-05 -6.00266e-06
-1.0594e-06 -6.00266e-06 -5.95171e-05
0.000581558 2.71588e-05 -3.92117e-08
2.71588e-05 2.10245e-05 -1.92035e-07
-3.92117e-08 -1.92035e-07 -5.24773e-05
0.000712614 6.91596e-05 -1.4415e-06
6.91596e-05 0.000144738 1.37749e-06
-1.4415e-06 1.37749e-06 1.7487e-05
0.00247908 -6.86055e-05 -2.96979e-05
-6.86055e-05 0.00115925 -4.51975e-06
-2.96979e-05 -4.51975e-06 0.00117042
0.00050928 -1.46267e-05 -6.68203e-07
-1.46267e-05 -4.48307e-05 -6.98283e-08
-6.68203e-07 -6.98283e-08 -6.48599e-05
0.000583685 3.88537e-05 1.03469e-07
3.88537e-05 2.25347e-05 2.59267e-06
1.03469e-07 2.59267e-06 -4.38303e-05
0.00233031 -5.20936e-05 -4.88671e-06
-5.20936e-05 0.00106469 2.74397e-07
-4.88671e-06 2.74397e-07 0.00107877
0.000509287 -1.6053e-05 -1.74711e-06
-1.6053e-05 -4.69033e-05 4.34277e-06
-1.74711e-06 4.34277e-06 -6.27669e-05
0.00220461 -3.51652e-05 1.76211e-05
-3.51652e-05 0.00098572 4.55518e-06
1.76211e-05 4.55518e-06 0.00100226
0.00565812 0.000217713 0.000161783
0.000217713 0.00250991 2.55342e-05
0.000161783 2.55342e-05 0.00112226
-0.00051135 -4.88745e-05 -4.45045e-07
-4.88745e-05 -0.000130498 -1.7101e-06
-4.45045e-07 -1.7101e-06 -4.81937e-05
0.00114729 -6.15268e-05 -2.21729e-05
-6.15268e-05 -0.000444631 2.30755e-06
-2.21729e-05 2.30755e-06 -7.25755e-05
0.000173313 0.000100421 -6.71482e-06
0.000100421 -0.000209696 -1.85075e-06
-6.71482e-06 -1.85075e-06 -0.000334676
0.000776574 7.14374e-05 -2.5218e-06
7.14374e-05 0.000161458 -6.9614e-07
-2.5218e-06 -6.9614e-07 3.18391e-05
0.000462176 5.35446e-05 2.73652e-07
5.35446e-05 -6.40341e-05 -1.6643e-06
2.73652e-07 -1.6643e-06 -0.000186496
0.000883825 5.13093e-05 4.26682e-07
5.13093e-05 0.000204535 -4.14291e-07
4.26682e-07 -4.14291e-07 7.68036e-05
0.000519975 8.38078e-05 -1.15749e-06
8.38078e-05 -2.43524e-05 2.75987e-07
-1.15749e-06 2.75987e-07 -0.0001416
0.00146114 0.000185995 7.42931e-07
0.000185995 0.000583494 -2.00877e-06
7.42931e-07 -2.00877e-06 0.000428506
0.00092685 0.000144533 -1.5358e-06
0.000144533 0.000233557 -8.6417e-06
-1.5358e-06 -8.6417e-06 4.44783e-05
-0.000122121 3.46546e-05 1.61703e-06
3.46546e-05 -0.000301433 4.34722e-06
1.61703e-06 4.34722e-06 -0.000473657
0.000762572 0.000123265 -2.10881e-06
0.000123265 0.000160147 -5.73004e-08
-2.10881e-06 -5.73004e-08 2.57575e-05
0.00039934 3.53115e-05 -3.65571e-06
3.53115e-05 -8.79576e-05 -3.07279e-06
-3.65571e-06 -3.07279e-06 -0.000193527
0.000438426 5.9901e-05 4.69742e-08
5.9901e-05 6.7579e-06 9.06158e-07
4.69742e-08 9.06158e-07 -0.000142574
0.00134575 0.000196505 1.1632e-05
0.000196505 0.000622343 7.14624e-06
1.1632e-05 7.14624e-06 0.000431232
0.00108091 -0.00131013 0.000148141
-0.00131013 0.00332412 0.000223411
0.000148141 0.000223411 0.000124845
0.00429412 0.000516809 3.84706e-05
0.000516809 0.00237313 0.000114939
3.84706e-05 0.000114939 -0.00159955
0.00120583 0.000171192 -2.43841e-05
0.000171192 0.000217906 -5.56486e-05
-2.43841e-05 -5.56486e-05 -0.00147423
0.0134851 -0.00286138 -0.000371165
-0.00286138 0.00261185 -0.000245348
-0.000371165 -0.000245348 0.00274603
0.00615846 -0.00103166 0.000122064
-0.00103166 0.00208477 0.000321596
0.000122064 0.000321596 0.000126172
0.00170882 -0.00100215 -0.000122545
-0.00100215 0.00282475 8.79279e-05
-0.000122545 8.79279e-05 -0.00259876
0.00102599 -0.000442724 3.00408e-05
-0.000442724 0.000655198 3.94582e-05
3.00408e-05 3.94582e-05 6.87369e-05
0.00179663 -9.48063e-05 1.84681e-05
-9.48063e-05 0.000879848 4.97484e-05
1.84681e-05 4.97484e-05 0.000540461
0.00368588 -0.00404632 0.000206172
-0.00404632 0.000885854 0.000205991
0.000206172 0.000205991 0.00119205
0.00385178 0.00112731 -3.65503e-05
0.00112731 0.0037554 -4.29315e-05
-3.65503e-05 -4.29315e-05 -0.00131969
0.00443948 -0.00195578 -6.2656e-05
-0.00195578 0.000292685 6.76048e-05
-6.2656e-05 6.76048e-05 -0.00127882
0.000541166 0.000398267 -1.94581e-05
0.000398267 0.000384376 6.08993e-05
-1.94581e-05 6.08993e-05 0.000253907
0.00898335 0.00173248 -6.33608e-05
0.00173248 0.00387141 -1.90644e-05
-6.33608e-05 -1.90644e-05 0.000475347
0.00702287 -0.00334943 -0.000406092
-0.00334943 0.00116101 -0.000304574
-0.000406092 -0.000304574 0.000585437
0.000755064 0.00037846 6.92568e-06
0.00037846 0.000131243 -6.7939e-06
6.92568e-06 -6.7939e-06 -3.41434e-05
0.000604999 0.000103538 3.21777e-06
0.000103538 0.000187178 3.59016e-07
3.21777e-06 3.59016e-07 3.2956e-05
0.000348565 4.93145e-05 -5.49234e-06
4.93145e-05 -1.0001e-05 -3.11253e-06
-5.49234e-06 -3.11253e-06 -0.00017471
-0.000976823 -0.000177914 -0.000120815
-0.000177914 0.000818477 -3.90049e-05
-0.000120815 -3.90049e-05 -0.000544555
-0.00103189 0.000169789 1.4155e-06
0.000169789 -0.000430223 -1.75412e-05
1.4155e-06 -1.75412e-05 -0.00080673
0.00011611 8.85696e-05 -9.20841e-06
8.85696e-05 5.70672e-05 4.01732e-07
-9.20841e-06 4.01732e-07 -0.00017542
0.000672521 0.000388954 1.39603e-05
0.000388954 0.00035659 3.14469e-06
1.39603e-05 3.14469e-06 5.57563e-05
0.000306583 0.000301754 2.14508e-05
0.000301754 0.000552485 -3.19562e-05
2.14508e-05 -3.19562e-05 -0.000287591
0.000212671 0.000702433 3.94763e-05
0.000702433 -0.000300324 3.98133e-06
3.94763e-05 3.98133e-06 -0.000773699
-0.003028 0.000550775 0.00019785
0.000550775 0.0040162 7.93676e-06
0.00019785 7.93676e-06 5.14451e-05
0.00225971 -1.40134e-05 -4.06693e-06
-1.40134e-05 0.00159419 3.67981e-05
-4.06693e-06 3.67981e-05 -0.000421705
-0.000857961 -2.43809e-05 -3.75409e-06
-2.43809e-05 0.000229846 2.34646e-05
-3.75409e-06 2.34646e-05 -0.000132291
-8.46784e-05 -0.000168682 -5.88477e-05
-0.000168682 0.000524522 8.49048e-06
-5.88477e-05 8.49048e-06 -0.000178421
-0.000927738 -0.000155059 -6.94366e-05
-0.000155059 -0.000919728 2.89866e-05
-6.94366e-05 2.89866e-05 -0.00063134
0.000610828 -0.000169497 -0.000114107
-0.000169497 0.000122779 5.35724e-05
-0.000114107 5.35724e-05 -0.00216327
-0.00235185 -0.0019375 0.000110828
-0.0019375 0.000497727 -0.000110594
0.000110828 -0.000110594 -0.00407961
0.00166464 0.00277183 0.000318805
0.00277183 -0.0025945 -0.000258581
0.000318805 -0.000258581 -0.00285561
0.00430396 0.00129788 -0.000289715
0.00129788 0.00468435 0.000190275
-0.000289715 0.000190275 0.00270875
0.00134792 -0.000382983 -3.42218e-06
-0.000382983 0.000770987 -3.4674e-06
-3.42218e-06 -3.4674e-06 0.000521254
0.00135339 0.000256044 5.17658e-05
0.000256044 0.00461022 7.49829e-07
5.17658e-05 7.49829e-07 0.00253192
-0.00246188 0.00189624 1.86227e-05
0.00189624 -0.000302369 2.81576e-05
1.86227e-05 2.81576e-05 -0.00242499
0.00312863 -0.0014339 6.57515e-05
-0.0014339 0.00108145 -2.20007e-05
6.57515e-05 -2.20007e-05 0.000762961
0.0137532 -0.00152952 2.28963e-05
-0.00152952 0.00386321 -1.35587e-05
2.28963e-05 -1.35587e-05 0.00196614
0.00265065 -0.00090268 -2.28745e-05
-0.00090268 0.000814183 2.56424e-05
-2.28745e-05 2.56424e-05 0.000756339
-0.00904856 0.000684344 -0.000293032
0.000684344 -0.00381478 1.89024e-05
-0.000293032 1.89024e-05 -0.00521384
0.0140423 -0.000969278 -0.000147072
-0.000969278 0.00304061 4.44087e-05
-0.000147072 4.44087e-05 0.00145521
0.00314131 -0.00162888 4.02555e-05
-0.00162888 -0.000279208 -3.76416e-05
4.02555e-05 -3.76416e-05 -0.000515562
-0.000124159 -0.000284511 -1.53224e-05
-0.000284511 -4.51954e-05 1.5519e-05
-1.53224e-05 1.5519e-05 -0.000326172
0.00138496 -0.000509026 -2.03585e-06
-0.000509026 0.000334248 5.92738e-07
-2.03585e-06 5.92738e-07 0.000230029
0.00367287 -0.000643005 1.48565e-05
-0.000643005 0.00133159 -3.66781e-06
1.48565e-05 -3.66781e-06 0.00113403
-0.000690885 -0.000222328 -9.57644e-06
-0.000222328 -0.00066034 5.21023e-06
-9.57644e-06 5.21023e-06 -0.000915837
0.00137795 -0.000546251 -7.07349e-06
-0.000546251 0.000131125 -3.30384e-06
-7.07349e-06 -3.30384e-06 -0.000163184
0.00265948 -0.000721426 4.90808e-06
-0.000721426 0.000595198 -4.94804e-06
4.90808e-06 -4.94804e-06 0.000318042
0.00109582 -0.000451788 -1.78258e-05
-0.000451788 9.64982e-05 1.26362e-06
-1.78258e-05 1.26362e-06 -0.000320069
0.00161074 -0.000595651 -3.82718e-07
-0.000595651 0.000188022 -1.27063e-07
-3.82718e-07 -1.27063e-07 -0.00016631
0.00149663 -0.000509746 3.39158e-06
-0.000509746 -8.52043e-05 -6.1484e-06
3.39158e-06 -6.1484e-06 -0.000310206
0.00124598 -0.000512958 -7.20063e-06
-0.000512958 8.02356e-05 2.36464e-07
-7.20063e-06 2.36464e-07 -0.000306553
0.00169303 -0.000505413 -3.93088e-07
-0.000505413 0.000183054 9.00029e-07
-3.93088e-07 9.00029e-07 -0.000103645
0.00181173 -0.000409357 -9.58413e-07
-0.000409357 0.000101198 -5.47363e-06
-9.58413e-07 -5.47363e-06 -7.74888e-05
0.00168135 -0.000325051 -4.63861e-06
-0.000325051 5.19879e-05 -2.53754e-06
-4.63861e-06 -2.53754e-06 -9.95324e-05
0.00155689 -0.000405687 -4.30213e-06
-0.000405687 3.37021e-05 -2.23304e-06
-4.30213e-06 -2.23304e-06 -0.000193991
0.00166003 -0.000402796 1.30127e-06
-0.000402796 8.34652e-05 1.97969e-06
1.30127e-06 1.97969e-06 -0.000133297
0.00149126 -0.000448896 -2.60063e-06
-0.000448896 0.000131973 -1.75087e-06
-2.60063e-06 -1.75087e-06 -0.000145157
0.00179925 -0.000525383 1.83516e-06
-0.000525383 0.000273296 -4.66841e-07
1.83516e-06 -4.66841e-07 -2.38338e-05
0.00179942 -0.000516225 1.36888e-06
-0.000516225 0.000291922 4.15732e-07
1.36888e-06 4.15732e-07 -7.21819e-06
0.00150135 -0.000383154 -1.64687e-06
-0.000383154 0.000308187 1.66003e-06
-1.64687e-06 1.66003e-06 4.26227e-05
0.00158456 -0.000455654 8.9207e-07
-0.000455654 0.00030969 -3.48537e-07
8.9207e-07 -3.48537e-07 1.44652e-05
0.00182204 -0.000544954 -3.73885e-06
-0.000544954 0.000417096 -1.17919e-06
-3.73885e-06 -1.17919e-06 7.84101e-05
0.000945699 -0.000243757 -2.36273e-06
-0.000243757 0.000101208 1.92578e-06
-2.36273e-06 1.92578e-06 -0.000112183
0.00119938 -0.00030874 1.36392e-06
-0.00030874 0.000202293 -6.39616e-08
1.36392e-06 -6.39616e-08 -3.74836e-05
0.00054042 -0.000280179 -4.93925e-07
-0.000280179 -0.00019575 -2.62803e-06
-4.93925e-07 -2.62803e-06 -0.000431546
0.000489697 -0.000131601 -2.34225e-06
-0.000131601 -3.00985e-05 3.75166e-06
-2.34225e-06 3.75166e-06 -0.000202999
0.00106378 -0.000244055 -9.42903e-08
-0.000244055 0.000280903 3.145e-08
-9.42903e-08 3.145e-08 5.94141e-05
0.000233494 -0.000184043 -3.5697e-06
-0.000184043 -0.000276089 5.95488e-07
-3.5697e-06 5.95488e-07 -0.000491256
0.000356175 1.69339e-05 -2.8159e-06
1.69339e-05 -0.000103131 9.80889e-06
-2.8159e-06 9.80889e-06 -0.000155448
0.000724696 -8.69407e-05 -2.44762e-07
-8.69407e-05 0.000123822 -6.58732e-09
-2.44762e-07 -6.58732e-09 -2.02932e-05
0.00124505 -0.00016115 9.00767e-07
-0.00016115 0.000481503 -1.80772e-06
9.00767e-07 -1.80772e-06 0.000261324
0.00290107 0.000165251 -4.43608e-06
0.000165251 0.00145645 2.68532e-06
-4.43608e-06 2.68532e-06 0.00144243
0.000491857 3.16193e-05 -1.81614e-07
3.16193e-05 -2.91486e-05 -5.94053e-08
-1.81614e-07 -5.94053e-08 -7.016e-05
0.000835551 -5.92423e-05 2.75733e-06
-5.92423e-05 0.000174297 -5.48176e-06
2.75733e-06 -5.48176e-06 6.90324e-05
0.0027148 0.000126629 4.97247e-06
0.000126629 0.00132937 3.90098e-07
4.97247e-06 3.90098e-07 0.00132798
0.000556061 3.68936e-05 1.05463e-06
3.68936e-05 5.55173e-06 -7.24893e-06
1.05463e-06 -7.24893e-06 -2.8158e-05
0.00263704 0.000113169 3.25434e-05
0.000113169 0.00127526 -3.62305e-06
3.25434e-05 -3.62305e-06 0.00127705
0.000944782 0.000153761 3.17785e-06
0.000153761 0.000252277 4.38171e-06
3.17785e-06 4.38171e-06 9.84505e-05
0.000749746 9.27311e-05 3.517e-07
9.27311e-05 0.000158706 4.35374e-07
3.517e-07 4.35374e-07 1.55641e-05
0.000902487 7.80108e-05 1.00192e-06
7.80108e-05 0.000268923 -2.91633e-06
1.00192e-06 -2.91633e-06 0.0001109
0.00064381 1.69757e-05 4.60576e-08
1.69757e-05 6.45091e-05 -4.7617e-06
4.60576e-08 -4.7617e-06 -2.51482e-05
0.000683346 5.73853e-05 1.78951e-07
5.73853e-05 0.000116422 2.76509e-07
1.78951e-07 2.76509e-07 -1.69929e-05
0.000548977 7.76467e-05 -1.71456e-09
7.76467e-05 3.28072e-05 1.49192e-06
-1.71456e-09 1.49192e-06 -0.000105654
0.000529773 -8.46675e-06 -2.04439e-06
-8.46675e-06 -2.46354e-05 -6.84391e-06
-2.04439e-06 -6.84391e-06 -5.36873e-05
0.000607619 2.22237e-05 -2.71191e-08
2.22237e-05 3.96211e-05 -1.55838e-07
-2.71191e-08 -1.55838e-07 -4.19192e-05
0.000646262 7.03784e-05 -9.69244e-07
7.03784e-05 8.48917e-05 1.24647e-06
-9.69244e-07 1.24647e-06 -3.11346e-05
0.00261985 -8.39232e-05 -3.80654e-05
-8.39232e-05 0.00125018 -4.22778e-06
-3.80654e-05 -4.22778e-06 0.00125846
0.000488288 -1.71045e-05 1.17219e-06
-1.71045e-05 -5.31217e-05 -1.14907e-07
1.17219e-06 -1.14907e-07 -7.76968e-05
0.000588984 3.10192e-05 -3.89906e-07
3.10192e-05 2.63097e-05 2.93746e-06
-3.89906e-07 2.93746e-06 -4.76044e-05
0.00245451 -6.78723e-05 -5.2857e-06
-6.78723e-05 0.00114387 3.48187e-07
-5.2857e-06 3.48187e-07 0.00115524
0.00050052 -1.82575e-05 -1.37739e-06
-1.82575e-05 -4.98425e-05 5.13275e-06
-1.37739e-06 5.13275e-06 -6.98228e-05
0.00230626 -5.09001e-05 2.15093e-05
-5.09001e-05 0.00104983 4.49235e-06
2.15093e-05 4.49235e-06 0.0010642
-0.0076667 0.000526931 -3.51379e-05
0.000526931 0.00204342 6.15205e-05
-3.51379e-05 6.15205e-05 -0.00187531
0.0053831 0.000108436 -7.38668e-06
0.000108436 0.00263883 -1.59419e-06
-7.38668e-06 -1.59419e-06 0.00130238
-0.000416148 -6.16771e-05 -4.73826e-06
-6.16771e-05 -0.000152956 -4.97493e-06
-4.73826e-06 -4.97493e-06 -0.000147739
0.000124656 6.97973e-05 -1.9356e-06
6.97973e-05 -0.000243613 1.87089e-06
-1.9356e-06 1.87089e-06 -0.000365145
0.00300893 0.000450183 3.32751e-06
0.000450183 0.00148432 6.01415e-06
3.32751e-06 6.01415e-06 0.00125309
0.00086475 9.06242e-05 -4.02639e-06
9.06242e-05 0.000209984 3.84947e-08
-4.02639e-06 3.84947e-08 5.57593e-05
0.000909052 5.6599e-05 -2.66999e-06
5.6599e-05 0.000214484 -4.95787e-06
-2.66999e-06 -4.95787e-06 8.74114e-05
0.0014598 0.000159862 2.52222e-06
0.000159862 0.000530692 -1.18248e-06
2.52222e-06 -1.18248e-06 0.000404482
0.000123303 5.88093e-05 -4.54606e-06
5.88093e-05 -0.000231382 1.85455e-06
-4.54606e-06 1.85455e-06 -0.000352247
0.000438712 7.24407e-05 -1.15133e-06
7.24407e-05 2.65317e-05 2.10974e-06
-1.15133e-06 2.10974e-06 -0.000152185
0.000610109 0.000107876 -2.7568e-06
0.000107876 5.78745e-05 -3.54851e-06
-2.7568e-06 -3.54851e-06 -0.000123679
0.00113552 0.000213666 5.09296e-06
0.000213666 0.000419928 -7.27839e-06
5.09296e-06 -7.27839e-06 0.000176626
0.000533526 0.000294119 1.59761e-06
0.000294119 -5.18358e-05 1.70971e-06
1.59761e-06 1.70971e-06 -0.000165163
0.00108713 8.38543e-05 -4.11865e-06
8.38543e-05 0.00039792 1.25821e-06
-4.11865e-06 1.25821e-06 0.000238732
0.00112687 0.000169155 1.59938e-06
0.000169155 0.000496124 3.10152e-06
1.59938e-06 3.10152e-06 0.000307416
-0.00361512 -0.00127146 -0.000651287
-0.00127146 -0.000109283 -8.62376e-05
-0.000651287 -8.62376e-05 -0.00210632
-0.00343189 -0.000968004 0.000257538
-0.000968004 0.00263861 0.000125966
0.000257538 0.000125966 -0.0008611
0.004783 0.000599591 -0.000240464
0.000599591 0.00233499 -8.76007e-05
-0.000240464 -8.76007e-05 -0.00185767
-0.00532825 -0.00419434 0.000995877
-0.00419434 -0.0014687 0.000763733
0.000995877 0.000763733 -0.00135885
0.0173984 -0.00213899 -1.98517e-05
-0.00213899 0.00544791 0.00020307
-1.98517e-05 0.00020307 0.00451894
-0.00181398 0.00129486 -1.63083e-06
0.00129486 0.000886342 -0.000117356
-1.63083e-06 -0.000117356 -0.00376658
0.00113063 8.80516e-05 -0.000190569
8.80516e-05 0.000888062 2.66032e-06
-0.000190569 2.66032e-06 -0.000124021
0.00174829 0.000512177 2.44727e-05
0.000512177 0.000892782 3.24003e-05
2.44727e-05 3.24003e-05 0.000696199
0.0122861 -0.00250239 -0.000278875
-0.00250239 0.00549065 4.7279e-05
-0.000278875 4.7279e-05 0.00451406
-0.000753731 0.0015861 -3.71765e-05
0.0015861 0.000572161 -4.12143e-05
-3.71765e-05 -4.12143e-05 -0.00330457
0.00218646 0.00113386 -2.33227e-05
0.00113386 0.000487781 -5.99816e-05
-2.33227e-05 -5.99816e-05 0.000740469
0.00381954 0.00236592 -0.000228469
0.00236592 -0.000483304 -0.000133356
-0.000228469 -0.000133356 -0.00306037
0.00260134 0.000797437 1.82843e-05
0.000797437 0.000817343 -1.51155e-05
1.82843e-05 -1.51155e-05 0.000540144
0.000898694 0.000371519 -4.5603e-06
0.000371519 0.00022586 4.02882e-07
-4.5603e-06 4.02882e-07 6.7182e-05
0.000967888 0.000125527 -8.34561e-06
0.000125527 0.00039749 -5.76288e-07
-8.34561e-06 -5.76288e-07 0.000247573
-0.00140038 0.000214466 -4.77849e-05
0.000214466 -0.000423105 -5.57242e-05
-4.77849e-05 -5.57242e-05 -0.00116018
0.00229031 0.000602119 -3.07766e-05
0.000602119 0.00117097 -1.72911e-05
-3.07766e-05 -1.72911e-05 0.000856307
0.00142745 0.000825723 1.44178e-05
0.000825723 0.000256062 -5.22153e-06
1.44178e-05 -5.22153e-06 -0.000211057
0.00194405 0.00115524 0.00011
0.00115524 -0.000188779 3.25788e-05
0.00011 3.25788e-05 -0.000391846
-0.00538101 -0.000172513 -0.000354195
-0.000172513 -0.00443753 1.05046e-05
-0.000354195 1.05046e-05 -0.00314664
-0.00501863 0.000278563 0.0001946
0.000278563 0.00369738 5.66795e-06
0.0001946 5.66795e-06 -0.000279395
0.00269577 -7.85233e-05 -8.60091e-05
-7.85233e-05 0.00177552 3.2369e-05
-8.60091e-05 3.2369e-05 0.000337601
0.00180065 -0.00045363 -4.85731e-05
-0.00045363 0.000717066 -4.46774e-05
-4.85731e-05 -4.46774e-05 0.00048656
0.000967972 -0.00123933 1.65957e-06
-0.00123933 -0.00022551 2.39174e-05
1.65957e-06 2.39174e-05 -0.00034685
0.000977851 0.000242755 -1.28998e-05
0.000242755 0.00438186 2.66184e-05
-1.28998e-05 2.66184e-05 0.00241178
0.00281357 -0.00154561 0.000249726
-0.00154561 -0.000418118 -0.000142008
0.000249726 -0.000142008 -0.00299179
0.013469 0.00180871 0.000293381
0.00180871 0.00611946 -3.30845e-05
0.000293381 -3.30845e-05 0.00468165
0.00269114 -0.00108993 -2.80713e-05
-0.00108993 0.000750199 8.72617e-06
-2.80713e-05 8.72617e-06 0.000422872
0.000300228 0.000740937 0.00013821
0.000740937 -0.000268682 -3.56012e-05
0.00013821 -3.56012e-05 -0.00114343
0.00633743 -0.000885641 -8.92704e-05
-0.000885641 -0.000722252 7.63294e-05
-8.92704e-05 7.63294e-05 -0.00297511
0.00522886 -0.00177545 -3.3994e-05
-0.00177545 0.000709751 2.08664e-05
-3.3994e-05 2.08664e-05 0.00040558
0.00229636 -0.000816885 6.98334e-05
-0.000816885 0.000402351 -8.75963e-06
6.98334e-05 -8.75963e-06 0.000157646
0.0121701 -0.000556113 -6.67264e-06
-0.000556113 0.00282171 -1.68333e-05
-6.67264e-06 -1.68333e-05 0.00123026
0.00276286 -0.000969595 9.48033e-05
-0.000969595 -0.00160076 -6.10777e-05
9.48033e-05 -6.10777e-05 -0.00110585
-0.000545722 -0.000364923 -2.65779e-05
-0.000364923 -0.000797103 1.62976e-05
-2.65779e-05 1.62976e-05 -0.000791601
0.000156135 -0.000378025 -1.58057e-05
-0.000378025 -0.000609582 -1.12476e-07
-1.58057e-05 -1.12476e-07 -0.000686411
0.00390722 -0.000718278 3.88705e-05
-0.000718278 0.00108496 -2.03877e-05
3.88705e-05 -2.03877e-05 0.00100251
0.000355004 -0.000439035 -1.93732e-05
-0.000439035 -0.000377142 -6.1723e-06
-1.93732e-05 -6.1723e-06 -0.000675606
0.00179314 -0.000633012 1.22476e-07
-0.000633012 0.000153091 -1.05897e-06
1.22476e-07 -1.05897e-06 -0.000104332
0.00255427 -0.000602675 1.12644e-06
-0.000602675 0.000328044 -2.35694e-06
1.12644e-06 -2.35694e-06 0.000171
0.00173681 -0.00059399 -5.10041e-06
-0.00059399 0.000262564 5.91419e-06
-5.10041e-06 5.91419e-06 -9.6189e-05
0.0018743 -0.000540558 -1.26029e-06
-0.000540558 0.000117322 1.36636e-06
-1.26029e-06 1.36636e-06 -0.000113376
0.00194007 -0.000416909 2.13409e-06
-0.000416909 6.26818e-05 -1.68464e-07
2.13409e-06 -1.68464e-07 -6.76773e-05
0.00119152 -0.000452127 2.5912e-06
-0.000452127 -9.07683e-05 5.73295e-06
2.5912e-06 5.73295e-06 -0.000367095
0.00177753 -0.000400543 -6.33203e-07
-0.000400543 8.67917e-05 1.37683e-06
-6.33203e-07 1.37683e-06 -9.00263e-05
0.00184712 -0.000348431 -2.36884e-06
-0.000348431 8.15999e-05 -1.17838e-07
-2.36884e-06 -1.17838e-07 -4.1168e-05
0.00202968 -0.000331366 -3.3978e-06
-0.000331366 0.000261732 -1.10153e-07
-3.3978e-06 -1.10153e-07 0.000136746
0.00177382 -0.000329047 -2.56811e-06
-0.000329047 9.95335e-05 3.34227e-06
-2.56811e-06 3.34227e-06 -4.76438e-05
0.00182375 -0.000347535 -1.87151e-06
-0.000347535 0.000166834 -5.33039e-06
-1.87151e-06 -5.33039e-06 -8.50639e-07
0.00174585 -0.000413443 -4.70721e-06
-0.000413443 0.000180392 -2.17125e-06
-4.70721e-06 -2.17125e-06 -5.16379e-05
0.00173323 -0.000419407 1.40131e-06
-0.000419407 0.000139457 4.94274e-07
1.40131e-06 4.94274e-07 -8.94808e-05
0.00165066 -0.000393614 4.89185e-06
-0.000393614 8.50632e-05 6.57755e-06
4.89185e-06 6.57755e-06 -0.000126193
0.0016011 -0.000414327 -6.28708e-06
-0.000414327 0.000265062 2.56079e-07
-6.28708e-06 2.56079e-07 -7.3553e-07
0.00150003 -0.000453078 -7.11701e-07
-0.000453078 0.000128511 2.94464e-07
-7.11701e-07 2.94464e-07 -0.000150205
0.00190026 -0.000528138 3.11983e-06
-0.000528138 0.000342685 3.46515e-07
3.11983e-06 3.46515e-07 4.83393e-05
0.0011994 -0.000277478 -5.91655e-06
-0.000277478 0.000188109 2.55699e-06
-5.91655e-06 2.55699e-06 -3.32882e-05
0.00139333 -0.000372904 6.06364e-07
-0.000372904 0.000241538 5.49305e-07
6.06364e-07 5.49305e-07 -2.21129e-05
0.00133689 -0.000434514 1.57173e-06
-0.000434514 0.000162105 -3.94267e-07
1.57173e-06 -3.94267e-07 -0.000128804
0.000824916 -0.000187806 -6.21333e-06
-0.000187806 0.000116444 4.87666e-06
-6.21333e-06 4.87666e-06 -6.70255e-05
0.00108985 -0.000257674 8.79299e-07
-0.000257674 0.000191 2.59865e-07
8.79299e-07 2.59865e-07 -2.60853e-05
0.00101845 -0.000293292 3.0456e-07
-0.000293292 8.60278e-05 -1.02567e-06
3.0456e-07 -1.02567e-06 -0.000151625
0.000349245 -5.0495e-05 -1.05087e-05
-5.0495e-05 -0.000127682 1.29215e-05
-1.05087e-05 1.29215e-05 -0.000192297
0.000704096 -0.000136729 7.24238e-07
-0.000136729 0.000106924 7.76046e-07
7.24238e-07 7.76046e-07 -7.37959e-05
0.00129592 -0.000270199 2.38641e-07
-0.000270199 0.000412652 -6.90642e-07
2.38641e-07 -6.90642e-07 0.00018761
0.00328838 0.000166022 -5.9837e-05
0.000166022 0.00169554 2.92034e-06
-5.9837e-05 2.92034e-06 0.00168281
0.000544193 5.12212e-07 9.62399e-08
5.12212e-07 3.3483e-06 -7.90347e-07
9.62399e-08 -7.90347e-07 -4.86499e-05
0.00134692 -0.000124761 1.67163e-06
-0.000124761 0.000502725 -6.06016e-06
1.67163e-06 -6.06016e-06 0.000346882
0.00191953 0.000109394 3.04169e-05
0.000109394 0.000852464 8.29293e-07
3.04169e-05 8.29293e-07 0.00084212
0.000606975 2.52874e-05 3.71433e-06
2.52874e-05 3.78188e-05 -8.67541e-06
3.71433e-06 -8.67541e-06 -2.71289e-06
0.00280089 0.000124938 4.73089e-05
0.000124938 0.00138141 -3.15215e-06
4.73089e-05 -3.15215e-06 0.00138049
0.0010077 0.000176175 6.1519e-06
0.000176175 0.00024466 2.49574e-07
6.1519e-06 2.49574e-07 9.32657e-05
0.000524348 9.28636e-05 -2.99027e-07
9.28636e-05 -4.43749e-06 -3.46492e-07
-2.99027e-07 -3.46492e-07 -0.000140995
0.000681669 9.21523e-05 5.36303e-07
9.21523e-05 0.000109356 -1.34257e-06
5.36303e-07 -1.34257e-06 -3.6496e-05
0.000848909 0.000104715 -4.51678e-07
0.000104715 0.00021945 -7.08794e-07
-4.51678e-07 -7.08794e-07 7.26316e-05
0.000712745 6.11254e-05 5.31474e-08
6.11254e-05 0.000131572 3.49289e-07
5.31474e-08 3.49289e-07 -7.82353e-06
0.000705441 3.00612e-05 -4.05839e-07
3.00612e-05 0.000104199 -5.63934e-06
-4.05839e-07 -5.63934e-06 3.72175e-06
0.000557404 -8.30106e-06 -2.91912e-06
-8.30106e-06 -8.86608e-07 -8.0722e-06
-2.91912e-06 -8.0722e-06 -3.5879e-05
0.000608057 1.5633e-05 3.19347e-07
1.5633e-05 4.52863e-05 -9.17739e-08
3.19347e-07 -9.17739e-08 -4.53233e-05
0.000597663 3.29459e-05 -1.62102e-06
3.29459e-05 4.08778e-05 2.31623e-06
-1.62102e-06 2.31623e-06 -7.46034e-05
0.00273113 -9.7577e-05 -4.86143e-05
-9.7577e-05 0.00132444 -3.98e-06
-4.86143e-05 -3.98e-06 0.00133
0.000495641 -1.09266e-05 2.67476e-07
-1.09266e-05 -4.3178e-05 -1.36387e-07
2.67476e-07 -1.36387e-07 -7.2532e-05
0.000559434 2.36413e-05 -3.69911e-07
2.36413e-05 1.55474e-05 3.49029e-06
-3.69911e-07 3.49029e-06 -6.77828e-05
0.00259491 -8.39541e-05 -5.69514e-06
-8.39541e-05 0.00123465 4.0845e-07
-5.69514e-06 4.0845e-07 0.00124288
0.000481683 -2.32129e-05 2.67299e-10
-2.32129e-05 -5.62065e-05 5.86358e-06
2.67299e-10 5.86358e-06 -8.11024e-05
0.00245955 -6.73268e-05 2.69236e-05
-6.73268e-05 0.00114654 4.47386e-06
2.69236e-05 4.47386e-06 0.00115798
7.08149e-05 0.000306347 -0.000373321
0.000306347 0.00239184 9.81943e-07
-0.000373321 9.81943e-07 0.000939553
-0.00395736 8.81513e-05 2.9265e-05
8.81513e-05 0.00276964 9.57269e-06
2.9265e-05 9.57269e-06 -0.00119465
0.00508045 1.21116e-05 -0.000108742
1.21116e-05 0.00269919 -2.1546e-05
-0.000108742 -2.1546e-05 0.00143232
0.000363101 4.93317e-05 1.45505e-06
4.93317e-05 -0.000103729 -4.14195e-06
1.45505e-06 -4.14195e-06 -0.000222342
0.000756771 6.62998e-05 3.86996e-06
6.62998e-05 0.000143399 1.9803e-06
3.86996e-06 1.9803e-06 -2.32324e-05
0.00215928 0.00035584 -2.32619e-06
0.00035584 0.000988271 2.15021e-06
-2.32619e-06 2.15021e-06 0.000782137
0.0016158 0.000377026 6.10128e-06
0.000377026 0.000537148 -2.96619e-06
6.10128e-06 -2.96619e-06 0.000261798
0.00085418 0.000228608 -3.38627e-06
0.000228608 0.000265257 -3.02141e-07
-3.38627e-06 -3.02141e-07 4.89891e-05
0.00071789 0.000117439 -1.27872e-06
0.000117439 0.000195924 2.46197e-06
-1.27872e-06 2.46197e-06 8.85557e-06
0.000801373 0.000130861 6.73349e-06
0.000130861 0.000189509 4.22793e-06
6.73349e-06 4.22793e-06 1.00014e-05
0.000580167 0.000209667 -5.82548e-06
0.000209667 0.000113618 -3.63877e-06
-5.82548e-06 -3.63877e-06 -0.000127883
-0.000531946 0.00020379 4.22118e-06
0.00020379 -0.000674601 -1.07805e-06
4.22118e-06 -1.07805e-06 -0.000884856
0.00201713 0.000467665 5.71343e-06
0.000467665 0.000710536 -3.21122e-07
5.71343e-06 -3.21122e-07 0.0005669
0.00170886 0.00062329 1.26928e-05
0.00062329 0.000249918 -5.1856e-06
1.26928e-05 -5.1856e-06 3.89394e-05
0.000859025 0.000340412 -6.25494e-06
0.000340412 0.000150313 -8.93381e-07
-6.25494e-06 -8.93381e-07 9.19542e-06
0.000859351 0.000129673 -5.15713e-06
0.000129673 0.000274384 -1.15413e-06
-5.15713e-06 -1.15413e-06 0.000103612
0.0125286 0.00131207 -8.31983e-05
0.00131207 0.00252253 4.63863e-05
-8.31983e-05 4.63863e-05 0.00104792
-0.000158189 -0.00102825 -0.000293023
-0.00102825 0.00262613 -0.000104249
-0.000293023 -0.000104249 0.000573612
-0.0012914 -0.00157289 0.000237447
-0.00157289 0.00275029 5.05006e-05
0.000237447 5.05006e-05 -0.000815459
0.000915089 -0.00144498 8.93649e-05
-0.00144498 0.000795323 0.000229887
8.93649e-05 0.000229887 -0.000209605
0.0114287 0.0020693 -2.08945e-05
0.0020693 0.0047448 -1.08463e-05
-2.08945e-05 -1.08463e-05 0.00113211
-0.00147719 0.000230194 -2.58458e-05
0.000230194 -0.000522457 -3.67597e-05
-2.58458e-05 -3.67597e-05 -0.000729876
0.00167904 0.00100338 -2.85229e-05
0.00100338 0.000378978 -1.10923e-05
-2.85229e-05 -1.10923e-05 0.000585272
0.0129912 0.00187049 2.34647e-05
0.00187049 0.00383528 2.53626e-05
2.34647e-05 2.53626e-05 0.00170722
0.00633646 0.00207254 -3.64218e-05
0.00207254 0.000884394 -7.25335e-05
-3.64218e-05 -7.25335e-05 0.000587041
0.00152954 0.000774476 7.84521e-06
0.000774476 0.000106131 -3.6686e-06
7.84521e-06 -3.6686e-06 -8.24512e-05
0.00123083 0.000608624 5.85287e-06
0.000608624 0.000216492 -4.37622e-07
5.85287e-06 -4.37622e-07 -3.72298e-05
0.00112808 0.000354834 -1.94307e-05
0.000354834 0.000384714 9.67919e-06
-1.94307e-05 9.67919e-06 0.000236042
0.002608 0.000989739 -5.41575e-05
0.000989739 0.00076269 -1.62749e-05
-5.41575e-05 -1.62749e-05 0.000307614
0.00202691 0.00115473 1.37842e-05
0.00115473 -0.000285386 1.82243e-05
1.37842e-05 1.82243e-05 -0.00049179
0.00143591 -0.000400063 -6.50117e-05
-0.000400063 -0.00349384 3.43494e-05
-6.50117e-05 3.43494e-05 -0.00379818
0.00172859 -0.000801624 1.85323e-06
-0.000801624 0.00139385 -2.39244e-05
1.85323e-06 -2.39244e-05 0.00134344
-0.00739961 -4.59071e-05 0.000203461
-4.59071e-05 0.00347861 -1.23046e-05
0.000203461 -1.23046e-05 -0.000549547
0.00134764 -0.00109919 -2.09321e-05
-0.00109919 -4.31934e-05 5.02224e-07
-2.09321e-05 5.02224e-07 -0.000525292
0.00330626 -0.00163526 4.79126e-05
-0.00163526 0.000311471 5.06375e-06
4.79126e-05 5.06375e-06 -0.00031712
0.00136869 -0.000303898 0.000424603
-0.000303898 0.00268514 -6.79967e-05
0.000424603 -6.79967e-05 0.00141623
0.012714 -0.00107538 -0.000181803
-0.00107538 0.00256708 8.1487e-05
-0.000181803 8.1487e-05 0.00101744
0.00113953 -0.00077401 -3.00348e-05
-0.00077401 -0.000236194 -1.80605e-06
-3.00348e-05 -1.80605e-06 -0.000454009
0.00920339 2.40313e-05 -0.000110316
2.40313e-05 0.000334642 3.64705e-05
-0.000110316 3.64705e-05 -0.000772561
0.0054913 -0.0011006 9.00952e-05
-0.0011006 -8.19217e-05 1.02333e-05
9.00952e-05 1.02333e-05 -2.6881e-05
0.00431025 -0.000777108 6.98762e-05
-0.000777108 0.00127116 -1.37599e-05
6.98762e-05 -1.37599e-05 0.000909537
0.00270958 -0.000406923 -7.03081e-05
-0.000406923 -0.000745526 8.15841e-06
-7.03081e-05 8.15841e-06 -0.000470893
-0.00276185 -0.000157004 -1.47437e-05
-0.000157004 -0.00222189 5.86314e-06
-1.47437e-05 5.86314e-06 -0.00220843
0.00168627 -0.000560141 -3.37335e-06
-0.000560141 -9.58231e-05 -2.16977e-07
-3.37335e-06 -2.16977e-07 -0.000135851
0.00283776 -0.000516982 2.30587e-05
-0.000516982 0.000358816 -1.1166e-05
2.30587e-05 -1.1166e-05 0.000390336
0.000762622 -0.000535625 -4.1846e-06
-0.000535625 -0.000367809 6.86893e-06
-4.1846e-06 6.86893e-06 -0.00060643
0.00184992 -0.000539661 -1.97422e-06
-0.000539661 -2.35133e-05 1.39454e-06
-1.97422e-06 1.39454e-06 -0.000174188
0.0021396 -0.000434638 3.98336e-06
-0.000434638 2.32805e-05 7.40166e-07
3.98336e-06 7.40166e-07 -2.6237e-05
0.00213125 -0.000557602 -6.42223e-06
-0.000557602 0.000260234 8.22935e-06
-6.42223e-06 8.22935e-06 2.59729e-05
0.00194001 -0.000415748 3.00717e-07
-0.000415748 6.29278e-05 1.60243e-06
3.00717e-07 1.60243e-06 -6.42857e-05
0.00202672 -0.000388314 -6.38028e-08
-0.000388314 0.000119121 1.93831e-06
-6.38028e-08 1.93831e-06 2.92923e-05
0.00172289 -0.000391237 2.72093e-06
-0.000391237 5.99839e-05 6.03066e-06
2.72093e-06 6.03066e-06 -0.000114843
0.00182584 -0.000350702 -1.17601e-07
-0.000350702 6.71362e-05 1.65842e-06
-1.17601e-07 1.65842e-06 -5.66195e-05
0.00197657 -0.00036383 -1.29638e-06
-0.00036383 0.000163631 1.03201e-06
-1.29638e-06 1.03201e-06 4.82746e-05
0.00190338 -0.000327878 -4.15722e-06
-0.000327878 0.000178907 3.46912e-06
-4.15722e-06 3.46912e-06 5.65886e-05
0.00196031 -0.000334741 5.28542e-07
-0.000334741 0.000243248 -2.8293e-06
5.28542e-07 -2.8293e-06 0.000107414
0.00186451 -0.000333714 3.41699e-06
-0.000333714 0.000146383 8.10708e-06
3.41699e-06 8.10708e-06 3.32779e-06
0.00183087 -0.00034804 3.51744e-07
-0.00034804 0.000169429 -8.7962e-07
3.51744e-07 -8.7962e-07 1.43091e-06
0.00174118 -0.000353794 -1.86898e-06
-0.000353794 0.000137572 -3.59331e-06
-1.86898e-06 -3.59331e-06 -4.99207e-05
0.00171214 -0.000382575 -4.69307e-06
-0.000382575 0.000234477 -1.9065e-06
-4.69307e-06 -1.9065e-06 1.2466e-06
0.00179823 -0.0004188 7.73286e-08
-0.0004188 0.000213026 -1.56069e-07
7.73286e-08 -1.56069e-07 -2.07885e-05
0.00190728 -0.000432662 5.77169e-06
-0.000432662 0.000244928 3.07926e-06
5.77169e-06 3.07926e-06 1.48417e-05
0.00127773 -0.000297796 -7.78014e-06
-0.000297796 0.000161644 3.35283e-06
-7.78014e-06 3.35283e-06 -6.32654e-05
0.00149895 -0.000401141 -1.28629e-06
-0.000401141 0.000211662 2.2663e-07
-1.28629e-06 2.2663e-07 -5.23857e-05
0.00151562 -0.000456876 2.98296e-06
-0.000456876 0.000129756 1.36935e-06
2.98296e-06 1.36935e-06 -0.000150403
0.000818532 -0.000188628 -8.7843e-06
-0.000188628 3.87433e-05 6.34217e-06
-8.7843e-06 6.34217e-06 -0.00014079
0.00114608 -0.000276648 5.1395e-07
-0.000276648 0.000151031 -1.43178e-07
5.1395e-07 -1.43178e-07 -7.15422e-05
0.00124775 -0.000357744 3.35121e-06
-0.000357744 0.000154907 -7.75037e-07
3.35121e-06 -7.75037e-07 -0.000105804
0.000428982 -0.000127078 -1.99947e-05
-0.000127078 -0.00011203 1.45105e-05
-1.99947e-05 1.45105e-05 -0.000191421
0.000768462 -0.000192229 -3.03335e-07
-0.000192229 8.42834e-05 4.1085e-07
-3.03335e-07 4.1085e-07 -9.95765e-05
0.00110089 -0.000253579 3.74881e-06
-0.000253579 0.00019906 -1.10581e-06
3.74881e-06 -1.10581e-06 -1.70955e-05
0.00416094 0.000190906 -9.24321e-05
0.000190906 0.00223227 4.63525e-06
-9.24321e-05 4.63525e-06 0.00221293
0.000510094 -7.05883e-05 1.10932e-06
-7.05883e-05 -3.25728e-05 -4.78049e-07
1.10932e-06 -4.78049e-07 -0.000101495
0.00107308 -0.00017683 4.47369e-06
-0.00017683 0.000332103 -4.3128e-06
4.47369e-06 -4.3128e-06 0.00014343
0.00357921 0.000154055 1.17406e-05
0.000154055 0.00186842 2.52199e-07
1.17406e-05 2.52199e-07 0.00185959
0.000655176 -1.80684e-05 9.09007e-06
-1.80684e-05 6.47869e-05 -1.09043e-05
9.09007e-06 -1.09043e-05 1.11732e-05
0.00312711 0.000128753 7.57217e-05
0.000128753 0.00158435 -2.71276e-06
7.57217e-05 -2.71276e-06 0.001583
0.000336538 0.00021098 5.18497e-06
0.00021098 -0.000254709 -5.78333e-06
5.18497e-06 -5.78333e-06 -0.00047317
0.00086638 0.000187872 1.94666e-06
0.000187872 0.000167609 -7.44652e-07
1.94666e-06 -7.44652e-07 9.12845e-06
0.000255336 8.58394e-05 2.84866e-06
8.58394e-05 -0.00016275 -7.12889e-07
2.84866e-06 -7.12889e-07 -0.000315107
-0.000119088 3.42692e-05 -1.82069e-06
3.42692e-05 -0.000386426 -3.0163e-06
-1.82069e-06 -3.0163e-06 -0.000512538
0.000450509 4.31325e-05 -1.37781e-07
4.31325e-05 -3.61683e-05 9.82773e-07
-1.37781e-07 9.82773e-07 -0.000177392
0.000739064 4.95488e-05 -1.30091e-06
4.95488e-05 0.000117709 -5.84654e-06
-1.30091e-06 -5.84654e-06 5.33486e-06
0.000484865 3.20753e-05 -9.08458e-07
3.20753e-05 -1.84875e-05 2.77566e-06
-9.08458e-07 2.77566e-06 -0.000146609
0.000584787 1.9866e-05 2.25302e-07
1.9866e-05 3.45593e-05 -2.99697e-07
2.25302e-07 -2.99697e-07 -6.59454e-05
0.000598853 -9.28113e-06 -3.94594e-06
-9.28113e-06 2.8448e-05 -9.49725e-06
-3.94594e-06 -9.49725e-06 -1.31535e-05
0.00294211 -0.000112672 -6.17674e-05
-0.000112672 0.00146149 -3.72661e-06
-6.17674e-05 -3.72661e-06 0.00146355
0.000483286 -1.28991e-05 5.71552e-07
-1.28991e-05 -4.44818e-05 -1.3322e-07
5.71552e-07 -1.3322e-07 -7.94467e-05
0.000547772 1.70786e-05 4.62914e-08
1.70786e-05 1.05557e-05 4.74049e-06
4.62914e-08 4.74049e-06 -8.03924e-05
0.00275045 -0.00010019 -6.31198e-06
-0.00010019 0.0013362 5.02563e-07
-6.31198e-06 5.02563e-07 0.00134096
0.000434213 -3.20528e-05 -1.15222e-06
-3.20528e-05 -7.73127e-05 6.68233e-06
-1.15222e-06 6.68233e-06 -0.000107695
0.00257781 -8.36032e-05 3.32286e-05
-8.36032e-05 0.00122353 4.33244e-06
3.32286e-05 4.33244e-06 0.00123184
0.0125491 0.000541663 0.000288432
0.000541663 0.00245798 8.32829e-05
0.000288432 8.32829e-05 0.00163943
-0.0029084 -0.00141312 -0.000225097
-0.00141312 -0.00274894 -3.85929e-05
-0.000225097 -3.85929e-05 -0.0034432
-0.0069571 0.000734314 -9.82344e-05
0.000734314 0.00179341 -7.04889e-05
-9.82344e-05 -7.04889e-05 -0.00272003
0.000394479 2.99462e-05 1.38854e-05
2.99462e-05 -7.77683e-05 1.09993e-06
1.38854e-05 1.09993e-06 -0.000256123
0.00120392 0.00025282 -9.60821e-06
0.00025282 0.000418456 2.55e-06
-9.60821e-06 2.55e-06 0.000241608
0.00147202 0.000289266 -2.96565e-06
0.000289266 0.000609152 -1.8482e-06
-2.96565e-06 -1.8482e-06 0.000381159
0.00172748 0.000383504 -3.06634e-06
0.000383504 0.000624582 9.60793e-07
-3.06634e-06 9.60793e-07 0.000351771
0.0008909 0.000348152 1.25289e-05
0.000348152 -2.74707e-05 6.00491e-06
1.25289e-05 6.00491e-06 -0.000313135
-0.000180494 0.000215325 8.64394e-06
0.000215325 -0.000474639 -1.59385e-06
8.64394e-06 -1.59385e-06 -0.000699433
4.30239e-05 0.000173659 -5.96967e-06
0.000173659 -0.000180622 -2.88786e-06
-5.96967e-06 -2.88786e-06 -0.000419487
0.0002096 0.000289238 2.92239e-06
0.000289238 -0.000275276 1.09108e-06
2.92239e-06 1.09108e-06 -0.00051216
0.00151387 0.000433161 -7.29601e-07
0.000433161 0.000437488 1.37695e-06
-7.29601e-07 1.37695e-06 0.000280351
0.000391033 0.000382627 7.59075e-06
0.000382627 -0.000315354 2.7814e-06
7.59075e-06 2.7814e-06 -0.000522512
0.00284638 0.000684507 1.74777e-06
0.000684507 0.00084101 -1.05851e-06
1.74777e-06 -1.05851e-06 0.000654475
0.00185267 0.000666435 5.18854e-06
0.000666435 0.00025252 4.67967e-06
5.18854e-06 4.67967e-06 4.24649e-05
0.00111617 0.00056452 3.7981e-06
0.00056452 -7.19786e-05 -4.25682e-06
3.7981e-06 -4.25682e-06 -0.00025304
0.000590655 0.000324485 -4.45664e-06
0.000324485 2.03372e-05 -3.36279e-06
-4.45664e-06 -3.36279e-06 -0.000133972
0.00592224 0.000965399 -3.3121e-08
0.000965399 5.61269e-05 8.56795e-06
-3.3121e-08 8.56795e-06 0.000618285
0.0109095 0.00126406 0.000153572
0.00126406 0.00171535 7.43897e-05
0.000153572 7.43897e-05 -3.81185e-05
0.00795342 -0.00216006 0.000169254
-0.00216006 0.00405103 -4.89255e-05
0.000169254 -4.89255e-05 0.00272152
0.0041672 0.00224987 0.000393105
0.00224987 -0.000257953 0.000214333
0.000393105 0.000214333 -0.00411638
0.000417383 0.000718652 -6.12966e-05
0.000718652 -8.99086e-06 -8.16578e-06
-6.12966e-05 -8.16578e-06 0.000302921
0.00332914 0.00152628 -0.00010109
0.00152628 -0.000244208 -3.29714e-05
-0.00010109 -3.29714e-05 -0.000266349
0.00492114 0.00132072 5.51202e-05
0.00132072 0.00100915 1.67458e-05
5.51202e-05 1.67458e-05 0.000875176
0.00342221 0.000979834 1.31307e-05
0.000979834 0.000957441 3.04461e-06
1.31307e-05 3.04461e-06 0.000746287
0.000623492 0.000517507 -1.54735e-05
0.000517507 -5.07899e-05 1.27117e-05
-1.54735e-05 1.27117e-05 -0.000283061
0.00487428 0.00142086 -0.000144506
0.00142086 0.00103665 -1.34902e-05
-0.000144506 -1.34902e-05 0.000776426
0.00306472 -0.00028566 -2.90254e-05
-0.00028566 0.000366348 8.02202e-06
-2.90254e-05 8.02202e-06 0.000373604
0.0103318 -0.000354867 -1.54045e-05
-0.000354867 0.00219395 5.43902e-06
-1.54045e-05 5.43902e-06 0.00166954
-0.010683 -0.00117199 0.000426945
-0.00117199 -0.00567694 2.0422e-07
0.000426945 2.0422e-07 -0.00546101
0.000358443 -0.000706513 -5.19383e-05
-0.000706513 -0.000690452 5.97772e-06
-5.19383e-05 5.97772e-06 -0.000863293
0.00778629 -0.00144426 7.799e-05
-0.00144426 0.000803962 5.37178e-05
7.799e-05 5.37178e-05 0.00104073
0.00164802 -0.000306706 -8.85826e-05
-0.000306706 -0.00255256 5.71213e-05
-8.85826e-05 5.71213e-05 -0.00442174
0.00176547 -0.000554055 1.21985e-05
-0.000554055 -0.000185386 2.34123e-06
1.21985e-05 2.34123e-06 -0.000299361
0.00374034 -0.000286667 -1.52273e-05
-0.000286667 -0.000207897 3.04926e-06
-1.52273e-05 3.04926e-06 -3.47487e-05
0.00460818 -0.000533025 3.25016e-05
-0.000533025 0.00102857 -1.54301e-05
3.25016e-05 -1.54301e-05 0.00117211
0.00385007 -0.000165602 7.42104e-05
-0.000165602 0.000853219 3.3281e-06
7.42104e-05 3.3281e-06 0.000802168
-0.00110686 -0.000379988 -6.8088e-06
-0.000379988 -0.00161365 1.06714e-05
-6.8088e-06 1.06714e-05 -0.00157495
0.00186503 -0.000458962 -1.29375e-06
-0.000458962 -0.000168669 1.78713e-07
-1.29375e-06 1.78713e-07 -0.000107337
0.00193623 -0.000332242 1.69474e-05
-0.000332242 -0.000226411 -3.83471e-06
1.69474e-05 -3.83471e-06 -7.19513e-05
0.00151534 -0.000508748 -1.61605e-06
-0.000508748 -0.000192965 4.36222e-06
-1.61605e-06 4.36222e-06 -0.000341595
0.00209436 -0.000434976 1.62497e-06
-0.000434976 1.53293e-06 6.79256e-07
1.62497e-06 6.79256e-07 -4.9361e-05
0.00203589 -0.000366013 1.32749e-06
-0.000366013 3.70815e-05 9.71921e-07
1.32749e-06 9.71921e-07 1.73305e-05
0.00189462 -0.00041181 6.63742e-07
-0.00041181 3.62325e-05 3.66988e-06
6.63742e-07 3.66988e-06 -8.7762e-05
0.00194322 -0.000378257 4.14947e-07
-0.000378257 8.08624e-05 2.91053e-07
4.14947e-07 2.91053e-07 -7.177e-06
0.00195054 -0.000340771 -2.91689e-06
-0.000340771 8.48701e-05 1.43635e-06
-2.91689e-06 1.43635e-06 3.28859e-06
0.00179998 -0.000352189 4.19888e-06
-0.000352189 4.98199e-05 3.06571e-06
4.19888e-06 3.06571e-06 -7.48328e-05
0.00187878 -0.000357614 9.338e-09
-0.000357614 0.000118852 1.30841e-07
9.338e-09 1.30841e-07 3.59233e-06
0.00180432 -0.000329309 1.86324e-06
-0.000329309 0.000108637 -9.83088e-07
1.86324e-06 -9.83088e-07 -1.01915e-05
0.00178076 -0.000324481 -1.20394e-06
-0.000324481 9.87413e-05 5.47533e-06
-1.20394e-06 5.47533e-06 -2.09422e-05
0.00194009 -0.000329829 -2.22881e-06
-0.000329829 0.000225925 3.60865e-07
-2.22881e-06 3.60865e-07 9.39196e-05
0.0019136 -0.000332411 3.78505e-07
-0.000332411 0.00022912 -2.04866e-06
3.78505e-07 -2.04866e-06 6.98472e-05
0.00183742 -0.00034773 3.34429e-06
-0.00034773 0.000171678 3.77526e-06
3.34429e-06 3.77526e-06 3.60352e-06
0.00179528 -0.000358526 3.25319e-07
-0.000358526 0.000171299 -5.05958e-07
3.25319e-07 -5.05958e-07 -1.76887e-05
0.00180361 -0.000340938 -1.57637e-06
-0.000340938 0.00024046 -2.06031e-06
-1.57637e-06 -2.06031e-06 4.00875e-05
0.00130859 -0.000293928 -8.94049e-06
-0.000293928 0.000105724 1.48592e-06
-8.94049e-06 1.48592e-06 -0.000109596
0.00170669 -0.00038417 -9.56133e-07
-0.00038417 0.000233355 -5.20648e-07
-9.56133e-07 -5.20648e-07 -2.30576e-06
0.00184656 -0.000423951 4.08513e-06
-0.000423951 0.000243866 1.50505e-06
4.08513e-06 1.50505e-06 8.27607e-06
0.00089154 -0.00019714 -1.16115e-05
-0.00019714 2.3869e-05 6.32863e-06
-1.16115e-05 6.32863e-06 -0.000151727
0.00120906 -0.0002938 4.89228e-07
-0.0002938 0.000115996 4.20518e-07
4.89228e-07 4.20518e-07 -0.000108568
0.00137867 -0.000386953 2.54773e-06
-0.000386953 0.000145863 3.02084e-07
2.54773e-06 3.02084e-07 -0.000116329
0.000425328 -0.00014467 -2.0069e-05
-0.00014467 -0.000135603 1.57063e-05
-2.0069e-05 1.57063e-05 -0.000226626
0.000826386 -0.000191011 6.43968e-07
-0.000191011 4.64036e-05 3.02296e-07
6.43968e-07 3.02296e-07 -0.000134135
0.00102012 -0.000269261 6.33428e-06
-0.000269261 7.08698e-05 -2.63036e-06
6.33428e-06 -2.63036e-06 -0.000151748
0.00507767 0.000183391 -0.000144647
0.000183391 0.00278033 8.10302e-06
-0.000144647 8.10302e-06 0.00276188
0.000529065 -0.000131481 -1.57471e-06
-0.000131481 -5.12932e-05 -2.91588e-07
-1.57471e-06 -2.91588e-07 -0.000134964
0.000703856 -0.000197653 7.24789e-06
-0.000197653 4.69324e-05 -4.99417e-06
7.24789e-06 -4.99417e-06 -0.000136639
0.00443888 0.000155006 1.33166e-05
0.000155006 0.00239245 9.03693e-07
1.33166e-05 9.03693e-07 0.00238117
0.000706708 -8.47527e-05 1.66048e-05
-8.47527e-05 8.29409e-05 -1.2925e-05
1.66048e-05 -1.2925e-05 1.27707e-05
0.00379542 0.000110644 0.00012679
0.000110644 0.00199095 -6.82206e-06
0.00012679 -6.82206e-06 0.00199218
0.000654107 0.000276971 -3.89788e-06
0.000276971 -0.000146062 -3.38214e-06
-3.89788e-06 -3.38214e-06 -0.000397954
0.00148556 0.000320072 2.61537e-07
0.000320072 0.000446845 7.89479e-08
2.61537e-07 7.89479e-08 0.000209254
0.000337807 0.00015877 5.14086e-07
0.00015877 -0.000192605 -5.43512e-06
5.14086e-07 -5.43512e-06 -0.000383997
0.000627891 0.000187958 -4.75453e-06
0.000187958 3.74854e-05 -5.9823e-07
-4.75453e-06 -5.9823e-07 -0.00012761
0.00017452 8.81727e-05 1.06762e-06
8.81727e-05 -0.000217144 -8.31663e-07
1.06762e-06 -8.31663e-07 -0.000372676
0.000996202 0.000148391 -2.45528e-06
0.000148391 0.000286641 -5.96521e-06
-2.45528e-06 -5.96521e-06 0.000136441
0.000162225 1.95836e-05 -5.68812e-07
1.95836e-05 -0.000216523 7.49654e-07
-5.68812e-07 7.49654e-07 -0.000351953
0.000659051 4.54883e-05 -1.31737e-07
4.54883e-05 7.32115e-05 -2.08986e-07
-1.31737e-07 -2.08986e-07 -4.00475e-05
0.000595498 1.34397e-07 -5.70628e-06
1.34397e-07 2.88263e-05 -1.06828e-05
-5.70628e-06 -1.06828e-05 -1.96376e-05
0.000546978 1.33749e-05 7.163e-08
1.33749e-05 1.36806e-05 5.94369e-06
7.163e-08 5.94369e-06 -8.65203e-05
0.000495103 -5.79531e-06 3.08521e-07
-5.79531e-06 -3.23977e-05 -1.75295e-07
3.08521e-07 -1.75295e-07 -7.33998e-05
0.00316254 -0.000125043 -7.67751e-05
-0.000125043 0.00160449 -3.64825e-06
-7.67751e-05 -3.64825e-06 0.00160334
0.00289691 -0.000115836 -5.59582e-06
-0.000115836 0.00143393 5.31513e-07
-5.59582e-06 5.31513e-07 0.00143493
0.000441865 6.06544e-07 3.68008e-06
6.06544e-07 -6.99372e-05 7.96422e-06
3.68008e-06 7.96422e-06 -0.000103862
0.00270003 -9.97041e-05 4.07545e-05
-9.97041e-05 0.00130527 4.07059e-06
4.07545e-05 4.07059e-06 0.00130996
0.0039137 8.9281e-05 6.12647e-05
8.9281e-05 -0.000496694 1.90484e-05
6.12647e-05 1.90484e-05 0.000122823
0.00370636 -0.000687906 9.4364e-05
-0.000687906 -0.00280197 4.44714e-05
9.4364e-05 4.44714e-05 -0.00393924
0.0089418 -0.00149641 -0.000127468
-0.00149641 0.00328827 -6.85889e-05
-0.000127468 -6.85889e-05 0.00334192
0.00112764 0.000406461 8.2876e-06
0.000406461 -2.93447e-05 5.54083e-06
8.2876e-06 5.54083e-06 -0.000305401
0.00226972 0.00037106 -3.3177e-06
0.00037106 0.00106627 3.61072e-06
-3.3177e-06 3.61072e-06 0.000821993
0.0018959 0.000396956 -6.06104e-06
0.000396956 0.000745568 5.83435e-06
-6.06104e-06 5.83435e-06 0.000473973
0.000844053 0.000327267 2.525e-06
0.000327267 0.000121847 2.30791e-06
2.525e-06 2.30791e-06 -0.000126175
0.00125965 0.00038396 -1.83266e-06
0.00038396 0.000209905 2.91703e-07
-1.83266e-06 2.91703e-07 -8.6975e-05
0.00120266 0.000458641 1.39217e-05
0.000458641 0.000129345 9.56351e-06
1.39217e-05 9.56351e-06 -0.000134512
0.00119729 0.000397476 -1.59946e-05
0.000397476 0.000277122 -6.67172e-06
-1.59946e-05 -6.67172e-06 7.86205e-06
0.00081349 0.00038799 5.34206e-06
0.00038799 5.85182e-05 8.41424e-07
5.34206e-06 8.41424e-07 -0.000108017
0.00119258 0.000469124 1.67168e-06
0.000469124 0.00012816 -1.44698e-06
1.67168e-06 -1.44698e-06 -9.45032e-05
0.00192607 0.000599575 3.22441e-06
0.000599575 0.000318334 5.3406e-06
3.22441e-06 5.3406e-06 0.000164208
0.00165146 0.000611144 8.30928e-06
0.000611144 9.74098e-05 -4.66371e-07
8.30928e-06 -4.66371e-07 -0.000127019
0.00172212 0.000577211 1.31171e-05
0.000577211 0.000151882 5.97776e-06
1.31171e-05 5.97776e-06 -6.27371e-06
0.00114902 0.000603192 -3.78227e-06
0.000603192 -0.000123753 -3.40882e-06
-3.78227e-06 -3.40882e-06 -0.000319892
0.000584985 0.000505371 -6.82223e-06
0.000505371 -0.000348978 -1.57696e-06
-6.82223e-06 -1.57696e-06 -0.000500675
0.00160978 0.000520943 3.77991e-05
0.000520943 -0.000417649 3.46147e-05
3.77991e-05 3.46147e-05 -0.000314136
0.00558672 0.00102858 -6.94373e-05
0.00102858 -0.000456966 -1.84061e-05
-6.94373e-05 -1.84061e-05 0.000147766
0.00311973 0.000821846 0.000351966
0.000821846 -0.00261498 5.81304e-05
0.000351966 5.81304e-05 -0.00449998
0.000215647 0.00111854 -6.14939e-05
0.00111854 -0.00145997 -2.63033e-05
-6.14939e-05 -2.63033e-05 -0.00134488
0.00340233 0.00105939 -2.92517e-05
0.00105939 0.000547086 -5.42827e-06
-2.92517e-05 -5.42827e-06 0.000434448
0.00313425 0.000953304 -8.93121e-05
0.000953304 0.000779616 -2.64502e-05
-8.93121e-05 -2.64502e-05 0.000562833
0.00255119 -0.000228077 -3.14564e-05
-0.000228077 -7.55699e-05 -1.04081e-05
-3.14564e-05 -1.04081e-05 3.09992e-05
0.000545424 -0.000129417 3.17018e-05
-0.000129417 -0.000280061 8.13398e-06
3.17018e-05 8.13398e-06 -0.000223551
0.0014582 0.000816725 0.000124532
0.000816725 -0.00388768 -1.73209e-05
0.000124532 -1.73209e-05 -0.00414591
-0.000733801 -0.000357984 -2.70138e-05
-0.000357984 -0.00154181 3.48341e-05
-2.70138e-05 3.48341e-05 -0.00144948
0.00486495 -0.000273654 -7.67913e-05
-0.000273654 0.000425002 4.16903e-05
-7.67913e-05 4.16903e-05 0.000247577
0.00237638 -0.000393931 -2.2249e-05
-0.000393931 -0.000137764 7.98683e-06
-2.2249e-05 7.98683e-06 5.32301e-05
0.00352328 -0.000211993 2.2984e-06
-0.000211993 0.000608895 -4.24959e-06
2.2984e-06 -4.24959e-06 0.000570419
0.00177792 -0.00022519 3.91532e-05
-0.00022519 -0.000399336 -3.14582e-06
3.91532e-05 -3.14582e-06 -0.000173385
0.00333783 -6.4294e-05 3.00713e-05
-6.4294e-05 0.000986136 6.00938e-07
3.00713e-05 6.00938e-07 0.000947938
0.000922658 -0.000397538 -2.1232e-05
-0.000397538 -0.000668563 1.05257e-05
-2.1232e-05 1.05257e-05 -0.000580698
0.00188531 -0.000342769 -1.88645e-07
-0.000342769 -0.000275924 2.11896e-06
-1.88645e-07 2.11896e-06 -0.000131331
0.00211388 -0.000320262 2.60739e-06
-0.000320262 -9.48201e-05 -1.12707e-06
2.60739e-06 -1.12707e-06 1.53295e-05
0.00202126 -0.000429963 -2.2379e-06
-0.000429963 -3.01936e-05 1.76449e-06
-2.2379e-06 1.76449e-06 -8.13884e-05
0.00203167 -0.000367255 3.38125e-07
-0.000367255 3.7585e-05 -6.44407e-08
3.38125e-07 -6.44407e-08 1.58432e-05
0.00201372 -0.000311422 -1.85496e-06
-0.000311422 4.63965e-05 4.25269e-07
-1.85496e-06 4.25269e-07 9.64827e-06
0.00187091 -0.000368753 -3.86356e-07
-0.000368753 4.94943e-05 -4.37549e-09
-3.86356e-07 -4.37549e-09 -3.66823e-05
0.0019303 -0.000345949 -5.77869e-07
-0.000345949 7.9031e-05 1.07722e-07
-5.77869e-07 1.07722e-07 -4.98567e-06
0.00189602 -0.000305271 -9.08247e-07
-0.000305271 0.000114086 7.88774e-07
-9.08247e-07 7.88774e-07 1.28369e-05
0.00178028 -0.000351189 -1.49949e-07
-0.000351189 7.37973e-05 2.4927e-07
-1.49949e-07 2.4927e-07 -4.13823e-05
0.00178217 -0.00032905 9.47845e-07
-0.00032905 9.11705e-05 -6.96469e-07
9.47845e-07 -6.96469e-07 -2.8105e-05
0.00181485 -0.000313465 1.5572e-06
-0.000313465 0.000130045 -1.97905e-06
1.5572e-06 -1.97905e-06 -6.68879e-06
0.0019238 -0.00032501 -3.89536e-06
-0.00032501 0.000211471 4.5246e-06
-3.89536e-06 4.5246e-06 8.32886e-05
0.00196016 -0.000332556 -1.65945e-06
-0.000332556 0.000253037 4.56669e-07
-1.65945e-06 4.56669e-07 9.77086e-05
0.00183238 -0.000314136 -1.13525e-06
-0.000314136 0.000225956 -1.61884e-06
-1.13525e-06 -1.61884e-06 4.7044e-05
0.00185041 -0.000363699 2.493e-06
-0.000363699 0.00020545 2.29663e-06
2.493e-06 2.29663e-06 1.48533e-05
0.0017983 -0.000342891 7.92564e-07
-0.000342891 0.000237903 -5.81371e-07
7.92564e-07 -5.81371e-07 3.67331e-05
0.00143163 -0.000270105 -6.95135e-06
-0.000270105 0.000131152 1.34511e-06
-6.95135e-06 1.34511e-06 -6.65611e-05
0.000888957 -0.000188464 -1.29438e-05
-0.000188464 -1.73247e-05 6.48145e-06
-1.29438e-05 6.48145e-06 -0.000185761
0.00129725 -0.000291614 -1.33855e-06
-0.000291614 0.000103577 9.19246e-08
-1.33855e-06 9.19246e-08 -0.000112028
0.00170384 -0.000386277 2.87163e-06
-0.000386277 0.00023354 3.43866e-07
2.87163e-06 3.43866e-07 -4.67504e-06
0.000502511 -0.000194133 -2.24499e-05
-0.000194133 -9.22383e-05 1.63303e-05
-2.24499e-05 1.63303e-05 -0.000200304
0.00085778 -0.000196208 5.38094e-07
-0.000196208 3.52237e-06 1.07353e-07
5.38094e-07 1.07353e-07 -0.000172588
0.00120158 -0.000294995 7.24255e-06
-0.000294995 0.00010705 -1.8119e-06
7.24255e-06 -1.8119e-06 -0.000117973
0.0056395 0.000147632 -0.000182172
0.000147632 0.00310319 1.05505e-05
-0.000182172 1.05505e-05 0.00309131
0.000533479 -0.000188286 -1.20677e-06
-0.000188286 -6.69342e-05 3.05577e-07
-1.20677e-06 3.05577e-07 -0.000166015
0.000763951 -0.000190844 1.01857e-05
-0.000190844 1.20227e-05 -6.02749e-06
1.01857e-05 -6.02749e-06 -0.000169448
0.00528835 0.000147004 4.17139e-06
0.000147004 0.00289842 4.73124e-07
4.17139e-06 4.73124e-07 0.00288639
0.000668734 -0.000150059 2.08496e-05
-0.000150059 3.30611e-05 -1.55394e-05
2.08496e-05 -1.55394e-05 -5.64521e-05
0.00478382 0.000118159 0.000165296
0.000118159 0.0025912 -1.18198e-05
0.000165296 -1.18198e-05 0.00258641
0.00113622 0.000344724 -2.55826e-06
0.000344724 5.54616e-05 2.008e-06
-2.55826e-06 2.008e-06 -0.000207364
0.00129211 0.000339648 -2.82879e-06
0.000339648 0.000236718 -8.76236e-07
-2.82879e-06 -8.76236e-07 -2.71878e-05
0.00118736 0.000271636 -5.62398e-06
0.000271636 0.000216793 -2.47264e-06
-5.62398e-06 -2.47264e-06 -6.96055e-06
0.00275393 0.000439725 -2.01505e-06
0.000439725 0.00122256 4.00208e-06
-2.01505e-06 4.00208e-06 0.000963792
0.000870535 0.000208738 -1.87357e-06
0.000208738 0.000133739 -1.83291e-06
-1.87357e-06 -1.83291e-06 -6.86041e-05
0.00097429 0.000193414 -4.41369e-06
0.000193414 0.000256625 -5.13512e-06
-4.41369e-06 -5.13512e-06 7.76959e-05
0.000252252 9.46617e-05 -2.06124e-06
9.46617e-05 -0.000177005 -2.75116e-07
-2.06124e-06 -2.75116e-07 -0.000336495
0.00061324 8.28116e-05 -3.89439e-07
8.28116e-05 4.27474e-05 -3.82459e-07
-3.89439e-07 -3.82459e-07 -9.27007e-05
0.000710028 2.62214e-05 -9.38983e-06
2.62214e-05 9.23335e-05 -1.20181e-05
-9.38983e-06 -1.20181e-05 3.47346e-05
0.000489492 2.05645e-05 4.46723e-07
2.05645e-05 -2.76078e-05 6.62805e-06
4.46723e-07 6.62805e-06 -0.000138567
0.000505002 -4.22199e-06 3.1411e-07
-4.22199e-06 -2.38019e-05 -1.59376e-07
3.1411e-07 -1.59376e-07 -7.19391e-05
0.00351859 -0.000135298 -9.79675e-05
-0.000135298 0.00182936 -3.79975e-06
-9.79675e-05 -3.79975e-06 0.00182544
0.00039093 -3.11884e-06 4.09298e-06
-3.11884e-06 -9.38171e-05 9.23395e-06
4.09298e-06 9.23395e-06 -0.000134247
0.00312858 -0.000132388 -5.01427e-06
-0.000132388 0.00158454 5.12034e-07
-5.01427e-06 5.12034e-07 0.00158129
0.00288626 -0.000117191 5.0305e-05
-0.000117191 0.00142712 3.80827e-06
5.0305e-05 3.80827e-06 0.00142764
0.000477594 7.70386e-05 1.22844e-05
7.70386e-05 -0.00119185 1.29413e-05
1.22844e-05 1.29413e-05 -0.00094431
0.00515135 3.71817e-05 5.80149e-05
3.71817e-05 0.000167694 2.38279e-06
5.80149e-05 2.38279e-06 0.00067374
0.0118637 0.000739307 -6.74349e-05
0.000739307 0.00294093 -1.89035e-05
-6.74349e-05 -1.89035e-05 0.00207298
0.00178421 0.000527229 4.46052e-06
0.000527229 0.000314971 2.9221e-06
4.46052e-06 2.9221e-06 4.3164e-05
0.00187527 0.000514816 2.62529e-06
0.000514816 0.000271294 2.18124e-06
2.62529e-06 2.18124e-06 1.7825e-05
0.00119389 0.00041802 8.33905e-07
0.00041802 2.16851e-05 -2.92207e-06
8.33905e-07 -2.92207e-06 -0.000254164
0.00162384 0.000414862 -4.85204e-06
0.000414862 0.000571234 4.08012e-06
-4.85204e-06 4.08012e-06 0.000305542
0.00164999 0.00042041 -3.43241e-06
0.00042041 0.000461909 -2.68864e-06
-3.43241e-06 -2.68864e-06 0.000153322
0.00156813 0.000496123 7.50913e-06
0.000496123 0.000319821 1.8163e-06
7.50913e-06 1.8163e-06 5.35488e-05
0.00171205 0.000572988 2.52546e-07
0.000572988 0.000100536 -2.32739e-06
2.52546e-07 -2.32739e-06 -0.000137213
0.00203544 0.000558453 -1.25114e-05
0.000558453 0.000586038 -8.02327e-08
-1.25114e-05 -8.02327e-08 0.000347647
0.00133731 0.000543952 4.02034e-06
0.000543952 -2.40564e-05 1.52458e-05
4.02034e-06 1.52458e-05 -0.000151898
0.0023472 0.000671418 -2.21566e-06
0.000671418 0.000484109 1.38135e-06
-2.21566e-06 1.38135e-06 0.00025262
0.00218044 0.000588525 -7.77407e-06
0.000588525 0.000256434 -7.58377e-07
-7.77407e-06 -7.58377e-07 6.74716e-05
0.000794076 0.000301716 1.87378e-05
0.000301716 -0.000479447 1.07096e-05
1.87378e-05 1.07096e-05 -0.000501514
0.000942014 0.000511747 1.09428e-05
0.000511747 -0.000243158 -4.30948e-07
1.09428e-05 -4.30948e-07 -0.00039527
0.00119603 0.000601156 -1.96283e-05
0.000601156 -0.000105354 -6.53148e-06
-1.96283e-05 -6.53148e-06 -0.000299835
0.00238093 0.000558583 4.4039e-06
0.000558583 -1.7655e-05 8.46798e-06
4.4039e-06 8.46798e-06 2.34904e-05
0.00513149 0.000682116 6.32251e-06
0.000682116 -0.000617647 -2.22349e-05
6.32251e-06 -2.22349e-05 -0.000433694
0.00329399 0.000906222 -5.51999e-06
0.000906222 0.000793571 -3.37683e-05
-5.51999e-06 -3.37683e-05 0.000711418
0.00151468 -5.19022e-05 2.66486e-05
-5.19022e-05 -9.62592e-05 -7.27603e-07
2.66486e-05 -7.27603e-07 -6.47367e-05
0.00226357 -0.000160915 -3.45834e-05
-0.000160915 -0.000164078 7.99797e-07
-3.45834e-05 7.99797e-07 -8.60144e-05
0.00173859 0.000242457 1.81577e-05
0.000242457 -0.00059068 -1.24131e-05
1.81577e-05 -1.24131e-05 -0.000606818
9.72845e-05 -0.000270253 -3.73855e-05
-0.000270253 -0.001337 2.93732e-05
-3.73855e-05 2.93732e-05 -0.00112471
0.0036385 -0.000288822 -0.000102097
-0.000288822 0.000577028 -2.4363e-06
-0.000102097 -2.4363e-06 0.000597506
0.00206509 -0.00025388 5.59932e-06
-0.00025388 -0.000161154 -3.23648e-06
5.59932e-06 -3.23648e-06 3.87469e-05
0.00242887 -6.98118e-05 -8.88656e-06
-6.98118e-05 0.00040599 4.56161e-07
-8.88656e-06 4.56161e-07 0.000376002
0.00215977 -0.000205681 6.18156e-06
-0.000205681 -5.41429e-06 5.21936e-07
6.18156e-06 5.21936e-07 3.76835e-05
0.00208137 -1.95576e-05 7.34865e-06
-1.95576e-05 -5.18582e-06 1.41785e-06
7.34865e-06 1.41785e-06 -8.6616e-06
0.00187902 -0.000360314 -1.02728e-05
-0.000360314 -0.000310879 3.52981e-06
-1.02728e-05 3.52981e-06 -0.00017437
0.00213643 -0.000322634 -2.05039e-06
-0.000322634 -6.84331e-05 2.45177e-07
-2.05039e-06 2.45177e-07 2.00354e-05
0.00208729 -0.000237685 -1.0138e-06
-0.000237685 -1.11587e-05 -5.18637e-07
-1.0138e-06 -5.18637e-07 -3.20714e-07
0.00203271 -0.000369728 -2.68595e-06
-0.000369728 3.95822e-05 -5.80961e-07
-2.68595e-06 -5.80961e-07 1.48706e-05
0.00201049 -0.000308103 -5.26543e-08
-0.000308103 5.59284e-05 8.21845e-08
-5.26543e-08 8.21845e-08 1.402e-05
0.00196947 -0.000269533 -1.87125e-06
-0.000269533 7.29023e-05 6.80265e-07
-1.87125e-06 6.80265e-07 2.99826e-06
0.00191259 -0.000351383 -1.61064e-07
-0.000351383 7.46667e-05 -1.75719e-06
-1.61064e-07 -1.75719e-06 -1.18644e-05
0.00183977 -0.00030143 5.84225e-07
-0.00030143 7.80715e-05 -2.15323e-07
5.84225e-07 -2.15323e-07 -2.34661e-05
0.00183026 -0.000278333 4.93946e-07
-0.000278333 9.70639e-05 -6.20948e-07
4.93946e-07 -6.20948e-07 -1.77774e-05
0.00176876 -0.000329249 2.62673e-08
-0.000329249 7.90161e-05 -3.7422e-07
2.62673e-08 -3.7422e-07 -4.07135e-05
0.00184131 -0.000314363 7.56694e-08
-0.000314363 0.000146585 -4.20139e-07
7.56694e-08 -4.20139e-07 9.6625e-06
0.00176567 -0.000287442 -2.99907e-07
-0.000287442 0.000148971 -1.39333e-06
-2.99907e-07 -1.39333e-06 -1.24479e-05
0.00199982 -0.000332424 -2.05367e-06
-0.000332424 0.000272338 3.79443e-06
-2.05367e-06 3.79443e-06 0.00012099
0.00183561 -0.000314729 -6.06364e-07
-0.000314729 0.000228742 -1.3872e-07
-6.06364e-07 -1.3872e-07 5.08937e-05
0.00143207 -0.000245519 -5.96833e-06
-0.000245519 0.000101015 1.16127e-06
-5.96833e-06 1.16127e-06 -8.39429e-05
0.00179734 -0.000345021 3.59899e-06
-0.000345021 0.000237953 9.94293e-07
3.59899e-06 9.94293e-07 3.59727e-05
0.00144794 -0.000272269 -3.28708e-07
-0.000272269 0.00014166 -1.44354e-08
-3.28708e-07 -1.44354e-08 -5.57775e-05
0.000942477 -0.000176295 -1.39288e-05
-0.000176295 -1.4479e-05 6.22437e-06
-1.39288e-05 6.22437e-06 -0.000175653
0.000420621 -0.000176736 -2.02134e-05
-0.000176736 -0.000152071 1.51677e-05
-2.02134e-05 1.51677e-05 -0.000258765
0.000922647 -0.000191556 1.81808e-07
-0.000191556 2.59147e-07 7.44031e-08
1.81808e-07 7.44031e-08 -0.000168901
0.00129165 -0.000289691 5.72118e-06
-0.000289691 0.000104719 -1.34375e-06
5.72118e-06 -1.34375e-06 -0.000111236
0.00592322 7.39035e-05 -0.000211484
7.39035e-05 0.00325141 1.22278e-05
-0.000211484 1.22278e-05 0.00325103
0.000508371 -0.000190039 -1.5741e-06
-0.000190039 -9.60582e-05 9.31378e-07
-1.5741e-06 9.31378e-07 -0.000200209
0.000844907 -0.000196877 1.18846e-05
-0.000196877 -3.46899e-06 -6.07953e-06
1.18846e-05 -6.07953e-06 -0.000180318
0.00574757 0.000123264 -1.03107e-06
0.000123264 0.0031664 -1.42507e-07
-1.03107e-06 -1.42507e-07 0.00315583
0.000613438 -0.000191213 2.37168e-05
-0.000191213 -2.22652e-05 -1.62395e-05
2.37168e-05 -1.62395e-05 -0.000122823
0.00544912 0.000142952 0.000180361
0.000142952 0.00300015 -1.54864e-05
0.000180361 -1.54864e-05 0.00298475
0.00152394 0.000421527 -1.48756e-06
0.000421527 0.000180135 2.84944e-06
-1.48756e-06 2.84944e-06 -7.47874e-05
0.00129456 0.000365478 7.16997e-08
0.000365478 0.000148271 7.10498e-07
7.16997e-08 7.10498e-07 -0.000117747
0.0011606 0.000283151 -7.52437e-06
0.000283151 0.000107959 -1.66617e-06
-7.52437e-06 -1.66617e-06 -0.00011627
0.00183232 0.000392629 5.99663e-07
0.000392629 0.000561025 2.63047e-06
5.99663e-07 2.63047e-06 0.000287041
0.0010353 0.000253925 -1.88732e-06
0.000253925 0.000127004 3.57784e-07
-1.88732e-06 3.57784e-07 -9.19087e-05
0.000886675 0.00020754 -8.49801e-06
0.00020754 0.000137749 -4.3928e-06
-8.49801e-06 -4.3928e-06 -4.83395e-05
0.00109398 0.000230972 -1.9467e-06
0.000230972 0.00027161 5.77199e-07
-1.9467e-06 5.77199e-07 6.36905e-05
0.000794545 0.000162253 5.40904e-08
0.000162253 0.000155756 1.73807e-07
5.40904e-08 1.73807e-07 -2.02311e-05
0.000689623 9.00047e-05 -1.63579e-05
9.00047e-05 6.76297e-05 -1.45755e-05
-1.63579e-05 -1.45755e-05 -9.00344e-06
0.000533939 3.63612e-05 7.4257e-07
3.63612e-05 -8.65847e-06 5.36242e-06
7.4257e-07 5.36242e-06 -0.00013594
0.000466089 1.63289e-05 -6.14875e-07
1.63289e-05 -5.04872e-05 -5.35102e-07
-6.14875e-07 -5.35102e-07 -0.000107079
0.00399653 -0.000136953 -0.000127333
-0.000136953 0.00212449 -5.94718e-06
-0.000127333 -5.94718e-06 0.00211851
0.000398103 -3.79695e-06 4.79876e-06
-3.79695e-06 -8.69366e-05 1.03603e-05
4.79876e-06 1.03603e-05 -0.000134308
0.00337274 -0.000146458 -5.02019e-06
-0.000146458 0.00174267 4.95042e-07
-5.02019e-06 4.95042e-07 0.00173541
0.00306148 -0.000134711 6.02287e-05
-0.000134711 0.00154389 3.55525e-06
6.02287e-05 3.55525e-06 0.0015397
0.000649142 8.76489e-05 2.1421e-05
8.76489e-05 -0.000610391 1.09672e-05
2.1421e-05 1.09672e-05 -0.000507469
0.00221477 7.17873e-05 -9.62097e-06
7.17873e-05 -0.00048423 -2.34456e-06
-9.62097e-06 -2.34456e-06 -0.000213568
0.00401203 0.00010483 0.000159723
0.00010483 -0.000914666 4.18307e-05
0.000159723 4.18307e-05 3.68595e-05
0.0024253 0.000581682 -3.16622e-06
0.000581682 0.000514822 -3.64373e-07
-3.16622e-06 -3.64373e-07 0.000271146
0.00166529 0.000536032 -3.66931e-06
0.000536032 0.000229819 -3.99547e-06
-3.66931e-06 -3.99547e-06 -3.9179e-05
0.00200555 0.000439153 -7.25542e-07
0.000439153 0.000205607 3.36646e-06
-7.25542e-07 3.36646e-06 6.52731e-06
0.00186165 0.000506262 9.19834e-07
0.000506262 0.000261082 2.81926e-07
9.19834e-07 2.81926e-07 9.93519e-06
0.00125364 0.000429066 4.77586e-07
0.000429066 6.61753e-05 -8.4908e-06
4.77586e-07 -8.4908e-06 -0.000209341
0.00181804 0.000455895 -5.25437e-07
0.000455895 2.99914e-05 9.31222e-07
-5.25437e-07 9.31222e-07 -0.000148547
0.00201311 0.000543078 -6.28485e-06
0.000543078 0.000559351 -2.39528e-06
-6.28485e-06 -2.39528e-06 0.00028835
0.00199064 0.000587199 1.19585e-07
0.000587199 0.000277171 -1.78627e-07
1.19585e-07 -1.78627e-07 3.61664e-05
0.00187412 0.000341721 -7.09962e-06
0.000341721 -5.51851e-05 -5.88341e-07
-7.09962e-06 -5.88341e-07 -0.000135534
0.00283815 0.000715836 -1.32446e-06
0.000715836 0.000753281 3.73906e-06
-1.32446e-06 3.73906e-06 0.000519017
0.00207168 0.000584734 -1.51654e-06
0.000584734 0.000186866 -7.52729e-08
-1.51654e-06 -7.52729e-08 -4.68579e-06
0.000867003 0.000310068 5.49116e-06
0.000310068 -0.000401767 3.38733e-06
5.49116e-06 3.38733e-06 -0.000431827
-0.000513799 0.000398333 -1.14145e-05
0.000398333 -0.000992163 -2.05575e-06
-1.14145e-05 -2.05575e-06 -0.00112987
0.00255438 0.000584192 -7.16018e-05
0.000584192 5.5181e-05 -2.79391e-05
-7.16018e-05 -2.79391e-05 4.30539e-05
0.0019469 5.04973e-05 -3.85565e-07
5.04973e-05 -0.000108831 -4.26816e-07
-3.85565e-07 -4.26816e-07 -7.81815e-05
0.00226913 -4.81579e-05 2.3356e-06
-4.81579e-05 0.000386427 8.61973e-07
2.3356e-06 8.61973e-07 0.000414079
0.00177379 -0.000116569 -6.0664e-05
-0.000116569 -0.000307715 6.23075e-07
-6.0664e-05 6.23075e-07 -0.000354039
0.00233063 -0.000281668 -4.4391e-05
-0.000281668 6.00829e-05 3.69649e-06
-4.4391e-05 3.69649e-06 0.000228712
0.00151505 -8.65057e-05 -1.09417e-05
-8.65057e-05 -0.000174155 6.95773e-07
-1.09417e-05 6.95773e-07 -0.000194826
0.00209055 -0.000201089 -1.50471e-08
-0.000201089 -5.0653e-05 -1.00834e-06
-1.50471e-08 -1.00834e-06 6.7807e-06
0.00213195 -2.07529e-05 -1.40862e-06
-2.07529e-05 6.02156e-07 1.36507e-06
-1.40862e-06 1.36507e-06 3.85212e-06
0.00215618 -7.20346e-05 -1.08268e-06
-7.20346e-05 1.04743e-05 -2.98948e-07
-1.08268e-06 -2.98948e-07 2.88845e-05
0.00214691 -0.000321918 -4.47555e-06
-0.000321918 -4.45004e-05 7.44359e-07
-4.47555e-06 7.44359e-07 2.31372e-05
0.00206582 -0.000228808 4.12461e-07
-0.000228808 -1.05744e-05 -1.68494e-07
4.12461e-07 -1.68494e-07 -2.52354e-06
0.00200531 -0.000183824 -1.8255e-06
-0.000183824 1.53893e-05 1.45957e-07
-1.8255e-06 1.45957e-07 -4.49512e-06
0.00200616 -0.000304893 1.07342e-06
-0.000304893 6.40402e-05 -8.8251e-07
1.07342e-06 -8.8251e-07 1.77971e-05
0.00192251 -0.000264796 2.59268e-07
-0.000264796 5.19405e-05 7.57495e-08
2.59268e-07 7.57495e-08 -1.95437e-05
0.00188784 -0.000222197 -5.60732e-07
-0.000222197 8.98769e-05 -1.88048e-07
-5.60732e-07 -1.88048e-07 -7.27095e-07
0.00176769 -0.000297016 1.58858e-06
-0.000297016 3.16116e-05 -1.0283e-06
1.58858e-06 -1.0283e-06 -7.01986e-05
0.00186447 -0.000279426 1.59755e-07
-0.000279426 0.000116333 -1.57779e-07
1.59755e-07 -1.57779e-07 1.2667e-06
0.00181125 -0.000253421 3.00834e-07
-0.000253421 0.00013244 -1.23479e-06
3.00834e-07 -1.23479e-06 -8.39282e-06
0.00186626 -0.000315199 -7.21617e-07
-0.000315199 0.000162262 9.72451e-07
-7.21617e-07 9.72451e-07 2.51534e-05
0.00179722 -0.000288631 -3.21567e-07
-0.000288631 0.000168867 -5.17888e-08
-3.21567e-07 -5.17888e-08 7.59888e-06
0.00148079 -0.000223609 -4.20396e-06
-0.000223609 9.90188e-05 7.94117e-07
-4.20396e-06 7.94117e-07 -7.42971e-05
0.00183961 -0.000315267 5.5558e-07
-0.000315267 0.000231867 1.48116e-06
5.5558e-07 1.48116e-06 5.51115e-05
0.00145902 -0.000246996 -3.0199e-07
-0.000246996 0.000116424 7.78256e-08
-3.0199e-07 7.78256e-08 -6.823e-05
0.000956521 -0.000158261 -1.41897e-05
-0.000158261 -2.41045e-05 5.65871e-06
-1.41897e-05 5.65871e-06 -0.000178986
0.00146102 -0.000274266 6.02345e-06
-0.000274266 0.000150217 -1.00187e-06
6.02345e-06 -1.00187e-06 -4.69303e-05
0.000962498 -0.000176584 1.89128e-07
-0.000176584 -4.76182e-06 8.87224e-08
1.89128e-07 8.87224e-08 -0.000165702
0.00252586 -0.000137228 -3.65025e-05
-0.000137228 0.00110819 9.65695e-06
-3.65025e-05 9.65695e-06 0.00102271
0.00183948 -6.47561e-05 -0.000204678
-6.47561e-05 0.000764181 2.44223e-05
-0.000204678 2.44223e-05 0.000746364
0.0015508 -0.000168706 -8.12381e-06
-0.000168706 0.000526495 -3.96416e-07
-8.12381e-06 -3.96416e-07 0.000427549
0.000950359 -0.000194134 1.28826e-05
-0.000194134 1.45601e-05 -6.05368e-06
1.28826e-05 -6.05368e-06 -0.000155275
0.00599515 5.68751e-05 -6.74289e-06
5.68751e-05 0.00330157 -2.41964e-08
-6.74289e-06 -2.41964e-08 0.00329792
0.000547553 -0.000216086 2.46082e-05
-0.000216086 -7.42388e-05 -1.58035e-05
2.46082e-05 -1.58035e-05 -0.000180283
0.00585674 0.000102534 0.000205323
0.000102534 0.00323708 -1.82385e-05
0.000205323 -1.82385e-05 0.00322428
0.00198962 0.000340275 5.54551e-08
0.000340275 0.000167855 3.28968e-07
5.54551e-08 3.28968e-07 7.51722e-06
0.00180887 0.000418802 1.74467e-06
0.000418802 0.000224096 3.6648e-06
1.74467e-06 3.6648e-06 9.39426e-07
0.00177294 0.000445297 4.88118e-08
0.000445297 0.000318939 2.09702e-07
4.88118e-08 2.09702e-07 6.19853e-05
0.00122402 0.000303467 -7.03328e-06
0.000303467 8.74826e-05 -9.63845e-07
-7.03328e-06 -9.63845e-07 -0.000135153
0.00147946 0.000389964 4.6319e-06
0.000389964 0.000255729 4.01909e-07
4.6319e-06 4.01909e-07 -1.43963e-05
0.00115911 0.000278763 -4.80112e-07
0.000278763 0.000110889 2.80721e-07
-4.80112e-07 2.80721e-07 -0.000111891
0.000833077 0.000193143 -1.10376e-05
0.000193143 1.90412e-05 -5.60394e-06
-1.10376e-05 -5.60394e-06 -0.000156113
0.0010409 0.000251652 4.0581e-06
0.000251652 0.000131688 4.13968e-06
4.0581e-06 4.13968e-06 -8.51693e-05
0.000775197 0.000192441 1.71229e-07
0.000192441 6.84579e-05 9.3556e-07
1.71229e-07 9.3556e-07 -0.000116467
0.000658503 0.000179418 -2.34255e-05
0.000179418 2.96449e-05 -1.61208e-05
-2.34255e-05 -1.61208e-05 -6.72167e-05
0.000461688 0.00013131 1.39044e-06
0.00013131 -4.49095e-05 4.16261e-06
1.39044e-06 4.16261e-06 -0.000215502
0.000590932 8.03629e-05 -1.92136e-06
8.03629e-05 1.04517e-05 -5.83553e-07
-1.92136e-06 -5.83553e-07 -6.1377e-05
0.00483637 -0.000134749 -0.000167893
-0.000134749 0.00263776 -1.1265e-05
-0.000167893 -1.1265e-05 0.00262637
0.000359801 6.36887e-06 6.09814e-06
6.36887e-06 -0.000109419 1.16262e-05
6.09814e-06 1.16262e-05 -0.000166098
0.00382265 -0.000162939 -6.62191e-06
-0.000162939 0.00202556 5.14773e-07
-6.62191e-06 5.14773e-07 0.00201321
0.00331381 -0.000153138 7.27032e-05
-0.000153138 0.00170758 3.24836e-06
7.27032e-05 3.24836e-06 0.00169841
0.00205042 0.000176303 -1.74848e-06
0.000176303 -5.5938e-05 -2.07651e-07
-1.74848e-06 -2.07651e-07 -3.5467e-05
0.00195706 6.29712e-05 2.09017e-05
6.29712e-05 7.11045e-05 -2.21892e-06
2.09017e-05 -2.21892e-06 0.000162129
0.00456248 0.000101671 -0.000105432
0.000101671 0.000512428 -1.55796e-05
-0.000105432 -1.55796e-05 0.000835385
0.00186329 0.000392794 -3.98058e-06
0.000392794 7.10714e-05 1.12673e-06
-3.98058e-06 1.12673e-06 -9.41136e-05
0.00201404 0.000541682 -2.8659e-06
0.000541682 0.00029339 -1.33351e-07
-2.8659e-06 -1.33351e-07 5.45536e-05
0.00156258 0.000545697 -9.36408e-06
0.000545697 0.000155776 -7.76618e-06
-9.36408e-06 -7.76618e-06 -0.000110063
0.00210398 0.000432875 2.93383e-06
0.000432875 0.000280149 1.1619e-06
2.93383e-06 1.1619e-06 8.35686e-05
0.00182279 0.000496509 -1.46562e-06
0.000496509 0.00023674 -3.20674e-06
-1.46562e-06 -3.20674e-06 -1.20745e-05
0.00222759 0.000331331 -7.13988e-07
0.000331331 0.000155158 4.65794e-08
-7.13988e-07 4.65794e-08 6.26383e-05
0.00173918 0.000451397 -5.79427e-09
0.000451397 8.75417e-06 8.60919e-07
-5.79427e-09 8.60919e-07 -0.000170578
0.00232632 0.000606755 -5.48671e-06
0.000606755 0.000485175 -6.80211e-07
-5.48671e-06 -6.80211e-07 0.000239736
0.00190849 0.000342975 -9.07727e-07
0.000342975 -3.02178e-05 -5.3735e-07
-9.07727e-07 -5.3735e-07 -0.000110837
0.00207891 0.00058806 1.51958e-05
0.00058806 0.000172482 3.56708e-06
1.51958e-05 3.56708e-06 -2.25186e-05
0.00108439 0.000310636 -3.24895e-05
0.000310636 -0.000256665 -8.6495e-06
-3.24895e-05 -8.6495e-06 -0.000293578
0.0021172 5.89808e-05 -7.73269e-07
5.89808e-05 -1.20292e-06 3.63391e-07
-7.73269e-07 3.63391e-07 1.85223e-05
0.00206086 6.10729e-05 -1.79079e-06
6.10729e-05 -2.78612e-05 2.45922e-07
-1.79079e-06 2.45922e-07 -1.23924e-06
0.00296473 -4.0689e-05 -3.98041e-05
-4.0689e-05 0.00083982 3.09236e-06
-3.98041e-05 3.09236e-06 0.000860199
0.00201679 -0.000194554 -1.12185e-05
-0.000194554 -0.000102295 1.43024e-07
-1.12185e-05 1.43024e-07 -3.14741e-05
0.00219011 -1.88692e-05 -4.57649e-06
-1.88692e-05 7.05956e-06 -2.72608e-06
-4.57649e-06 -2.72608e-06 1.64442e-05
0.00212314 -7.66245e-05 -3.82813e-07
-7.66245e-05 -2.65979e-05 1.79559e-08
-3.82813e-07 1.79559e-08 -2.37805e-06
0.00192315 -5.8473e-05 -2.14112e-06
-5.8473e-05 -4.0275e-06 2.89283e-07
-2.14112e-06 2.89283e-07 -1.17237e-05
0.00204412 -0.000218847 1.14652e-06
-0.000218847 -8.14758e-06 1.12397e-07
1.14652e-06 1.12397e-07 -3.28206e-06
0.00197302 -0.00018622 7.17729e-10
-0.00018622 5.30715e-06 2.54608e-08
7.17729e-10 2.54608e-08 -1.8358e-05
0.00193558 -0.000153852 9.26592e-07
-0.000153852 8.62298e-05 -7.22613e-07
9.26592e-07 -7.22613e-07 1.96981e-05
0.00188284 -0.00026017 2.18915e-06
-0.00026017 3.62597e-05 -6.60635e-07
2.18915e-06 -6.60635e-07 -3.70239e-05
0.00188596 -0.000222746 -9.76493e-08
-0.000222746 8.18084e-05 -1.6864e-08
-9.76493e-08 -1.6864e-08 -9.10281e-06
0.00184015 -0.000208295 2.39727e-07
-0.000208295 0.000105804 -9.16138e-07
2.39727e-07 -9.16138e-07 -1.56343e-05
0.00189956 -0.000280445 5.50011e-07
-0.000280445 0.000136433 2.31683e-07
5.50011e-07 2.31683e-07 2.11678e-05
0.00183937 -0.000254568 -2.8225e-07
-0.000254568 0.000149239 -3.28535e-08
-2.8225e-07 -3.28535e-08 8.42603e-06
0.00153084 -0.000196488 -3.0245e-06
-0.000196488 9.74047e-05 4.19138e-07
-3.0245e-06 4.19138e-07 -6.38601e-05
0.00182958 -0.000289893 -4.61338e-08
-0.000289893 0.00018927 1.18549e-06
-4.61338e-08 1.18549e-06 2.81422e-05
0.00150485 -0.000224919 -2.49676e-07
-0.000224919 0.000111629 8.34883e-08
-2.49676e-07 8.34883e-08 -6.13593e-05
0.000973157 -0.000141208 -1.3735e-05
-0.000141208 -2.80267e-05 4.84224e-06
-1.3735e-05 4.84224e-06 -0.000178743
0.00148507 -0.00024844 5.0465e-06
-0.00024844 0.000131333 -9.42929e-07
5.0465e-06 -9.42929e-07 -5.30154e-05
0.000985757 -0.000158376 6.72001e-08
-0.000158376 -9.45126e-06 1.26276e-07
6.72001e-08 1.26276e-07 -0.000163794
0.00255878 -0.00014024 -4.44594e-05
-0.00014024 0.00111606 8.95834e-06
-4.44594e-05 8.95834e-06 0.00103804
0.000978871 -0.000177012 1.39447e-05
-0.000177012 2.85362e-06 -5.97251e-06
1.39447e-05 -5.97251e-06 -0.00015791
0.00267434 -0.00017969 4.0895e-05
-0.00017969 0.00119542 -5.66572e-06
4.0895e-05 -5.66572e-06 0.00111635
0.00188456 -0.000103668 -0.000207188
-0.000103668 0.000797889 2.88819e-05
-0.000207188 2.88819e-05 0.000778019
0.00383416 -5.16174e-05 -0.000202894
-5.16174e-05 0.0019904 1.59758e-05
-0.000202894 1.59758e-05 0.00198032
0.0027484 -0.000234172 0.000129975
-0.000234172 0.0012497 -1.91855e-05
0.000129975 -1.91855e-05 0.00117163
0.00604974 4.28962e-05 0.000220465
4.28962e-05 0.003344 -2.14412e-05
0.000220465 -2.14412e-05 0.00333594
0.00215514 0.000336479 -2.63343e-06
0.000336479 0.000256407 -9.07756e-07
-2.63343e-06 -9.07756e-07 0.000115872
0.00167508 0.000327015 2.67199e-06
0.000327015 8.78732e-05 1.23575e-06
2.67199e-06 1.23575e-06 -9.59047e-05
0.00199038 0.000335442 4.7713e-07
0.000335442 0.00016954 -1.52726e-06
4.7713e-07 -1.52726e-06 1.51851e-05
0.00143936 0.000310906 -5.76346e-06
0.000310906 0.000138413 -2.89758e-07
-5.76346e-06 -2.89758e-07 -7.25241e-05
0.0018927 0.000423416 5.09416e-07
0.000423416 0.000263261 4.47805e-07
5.09416e-07 4.47805e-07 3.93246e-05
0.00203842 0.000470689 1.73027e-06
0.000470689 0.000467597 -2.36865e-06
1.73027e-06 -2.36865e-06 0.000208304
0.0012867 0.000308049 -5.54714e-08
0.000308049 0.000125972 2.32077e-07
-5.54714e-08 2.32077e-07 -9.78126e-05
0.00091387 0.000200188 -1.27343e-05
0.000200188 1.0342e-05 -5.99862e-06
-1.27343e-05 -5.99862e-06 -0.000161785
0.00121988 0.000279247 8.53776e-06
0.000279247 0.000152256 3.12936e-06
8.53776e-06 3.12936e-06 -6.99181e-05
0.00079717 0.000187443 -1.99208e-07
0.000187443 -7.29173e-06 -7.74175e-08
-1.99208e-07 -7.74175e-08 -0.000180306
0.000535556 0.000215836 -2.51102e-05
0.000215836 -6.56291e-05 -1.66241e-05
-2.51102e-05 -1.66241e-05 -0.000171041
0.00058372 0.000176054 5.2799e-06
0.000176054 -4.67945e-05 4.78881e-06
5.2799e-06 4.78881e-06 -0.000230513
0.000505248 0.000147922 8.77197e-07
0.000147922 -6.40117e-05 3.50394e-07
8.77197e-07 3.50394e-07 -0.000154556
0.00566548 -0.000141989 -0.000190458
-0.000141989 0.00315493 -1.88053e-05
-0.000190458 -1.88053e-05 0.00312905
0.000249034 4.9306e-05 1.04511e-05
4.9306e-05 -0.000188223 1.37519e-05
1.04511e-05 1.37519e-05 -0.000256635
0.00455548 -0.000182993 -1.23612e-05
-0.000182993 0.00247966 9.41292e-07
-1.23612e-05 9.41292e-07 0.00245921
0.00363003 -0.000172644 8.60339e-05
-0.000172644 0.00191086 3.37501e-06
8.60339e-05 3.37501e-06 0.00189579
0.00210487 0.000194643 -1.55367e-06
0.000194643 9.19739e-06 1.42026e-07
-1.55367e-06 1.42026e-07 -6.38808e-06
0.00198669 0.000178431 1.03849e-06
0.000178431 -8.80855e-05 -1.02975e-07
1.03849e-06 -1.02975e-07 -6.86263e-05
0.0030456 4.49962e-05 -7.66723e-05
4.49962e-05 0.000640828 -1.00279e-05
-7.66723e-05 -1.00279e-05 0.000726643
0.00207228 0.000291462 -2.75891e-08
0.000291462 0.000132361 2.49058e-07
-2.75891e-08 2.49058e-07 2.28422e-05
0.00191228 0.000392546 -9.96959e-08
0.000392546 0.000121577 4.11987e-07
-9.96959e-08 4.11987e-07 -4.3998e-05
0.00160788 0.000501187 7.65608e-07
0.000501187 7.42851e-05 -1.66433e-06
7.65608e-07 -1.66433e-06 -0.000159513
0.00221139 0.000426849 -5.95051e-08
0.000426849 0.000360523 -2.43634e-06
-5.95051e-08 -2.43634e-06 0.000166485
0.00210852 0.000319316 -6.5852e-07
0.000319316 9.21563e-05 -3.66704e-09
-6.5852e-07 -3.66704e-09 9.06366e-07
0.00166911 0.000447582 -4.04564e-06
0.000447582 -7.20315e-06 3.64942e-07
-4.04564e-06 3.64942e-07 -0.000187499
0.00185795 0.000339931 9.45769e-06
0.000339931 -3.56845e-05 8.81791e-07
9.45769e-06 8.81791e-07 -0.000116793
0.00197798 5.34192e-05 -3.91805e-07
5.34192e-05 5.48022e-06 3.97538e-07
-3.91805e-07 3.97538e-07 4.65593e-06
0.00207981 5.7656e-05 -2.01602e-08
5.7656e-05 -1.1483e-05 -1.0357e-07
-2.01602e-08 -1.0357e-07 4.80889e-06
0.00215717 7.36819e-05 -8.35322e-06
7.36819e-05 4.51747e-05 -7.33779e-07
-8.35322e-06 -7.33779e-07 6.78059e-05
0.00186423 -9.03454e-06 -4.99446e-06
-9.03454e-06 1.24216e-05 3.89676e-07
-4.99446e-06 3.89676e-07 -8.72016e-06
0.00209213 -8.60824e-05 1.37089e-06
-8.60824e-05 -6.17744e-05 -4.75949e-07
1.37089e-06 -4.75949e-07 -3.17063e-05
0.00195242 -6.16095e-05 -6.50497e-07
-6.16095e-05 1.01358e-05 2.18291e-07
-6.50497e-07 2.18291e-07 3.0999e-06
0.00186803 -8.89462e-05 -3.5339e-06
-8.89462e-05 3.41245e-05 4.35484e-07
-3.5339e-06 4.35484e-07 -1.49104e-05
0.00194106 -0.000188556 2.42628e-06
-0.000188556 -5.26866e-06 -3.96207e-07
2.42628e-06 -3.96207e-07 -3.2643e-05
0.001884 -0.000151808 2.02143e-06
-0.000151808 5.03933e-05 -6.78645e-07
2.02143e-06 -6.78645e-07 -1.57966e-05
0.00186633 -0.000147375 2.67825e-06
-0.000147375 0.000100982 -1.28833e-06
2.67825e-06 -1.28833e-06 -4.091e-06
0.00189067 -0.000223012 1.22831e-06
-0.000223012 7.74803e-05 8.63241e-08
1.22831e-06 8.63241e-08 -1.36526e-05
0.00186938 -0.000207529 -1.30295e-07
-0.000207529 0.00012682 -2.42068e-07
-1.30295e-07 -2.42068e-07 5.72834e-06
0.00156696 -0.000159245 -2.16232e-06
-0.000159245 9.16009e-05 1.24065e-07
-2.16232e-06 1.24065e-07 -5.65533e-05
0.00186522 -0.000255461 -2.91732e-07
-0.000255461 0.000165096 1.01489e-06
-2.91732e-07 1.01489e-06 2.43394e-05
0.00154156 -0.000196321 -2.29753e-07
-0.000196321 0.000102477 6.93059e-08
-2.29753e-07 6.93059e-08 -5.8288e-05
0.000984666 -0.000121496 -1.30856e-05
-0.000121496 -3.41051e-05 3.85347e-06
-1.30856e-05 3.85347e-06 -0.000180416
0.00152801 -0.000226081 3.55237e-06
-0.000226081 0.00012383 -6.25868e-07
3.55237e-06 -6.25868e-07 -4.87994e-05
0.00100173 -0.000140372 -2.67063e-08
-0.000140372 -1.37172e-05 2.12367e-07
-2.67063e-08 2.12367e-07 -0.000163615
0.00256929 -0.000143423 -5.21984e-05
-0.000143423 0.00111779 8.75698e-06
-5.21984e-05 8.75698e-06 0.00104233
0.00101608 -0.000158595 1.40911e-05
-0.000158595 5.60768e-06 -5.44813e-06
1.40911e-05 -5.44813e-06 -0.000148161
0.00265238 -0.000167422 3.73707e-05
-0.000167422 0.00117187 -4.61296e-06
3.73707e-05 -4.61296e-06 0.00109893
0.00193388 -8.96573e-05 -0.000202986
-8.96573e-05 0.000821474 2.5606e-05
-0.000202986 2.5606e-05 0.000803262
0.0028046 -0.000192599 0.00012785
-0.000192599 0.00127007 -2.0758e-05
0.00012785 -2.0758e-05 0.00119763
0.00162719 -4.25486e-05 -8.90492e-05
-4.25486e-05 0.000646411 1.13295e-05
-8.90492e-05 1.13295e-05 0.000616269
0.00571353 0.000114286 5.12346e-05
0.000114286 0.00312692 -2.30792e-06
5.12346e-05 -2.30792e-06 0.00310412
0.00197109 0.000281184 3.16947e-07
0.000281184 0.000129677 5.21761e-08
3.16947e-07 5.21761e-08 2.41031e-06
0.00196238 0.000311069 -1.70231e-07
0.000311069 0.000215191 -6.83513e-07
-1.70231e-07 -6.83513e-07 5.45757e-05
0.00204831 0.000333045 -3.77212e-06
0.000333045 0.000186054 4.7492e-08
-3.77212e-06 4.7492e-08 4.29591e-05
0.0017 0.000287915 -2.8563e-06
0.000287915 0.000239006 -3.15905e-07
-2.8563e-06 -3.15905e-07 4.92291e-05
0.00169407 0.000333111 -6.18029e-08
0.000333111 8.71921e-05 -1.73711e-06
-6.18029e-08 -1.73711e-06 -9.39604e-05
0.00200111 0.000331258 -3.10126e-06
0.000331258 0.00017728 -4.21877e-06
-3.10126e-06 -4.21877e-06 2.88265e-05
0.000970896 0.00019763 -1.40394e-05
0.00019763 -4.6425e-06 -5.63181e-06
-1.40394e-05 -5.63181e-06 -0.000171432
0.00139572 0.000308573 3.47597e-07
0.000308573 0.000110613 3.06438e-07
3.47597e-07 3.06438e-07 -0.000100698
0.00196491 0.000426995 2.90077e-06
0.000426995 0.000294746 -2.38714e-06
2.90077e-06 -2.38714e-06 7.01989e-05
0.00130345 0.000308758 8.12441e-06
0.000308758 0.000137529 1.85601e-06
8.12441e-06 1.85601e-06 -8.68028e-05
0.000869568 0.000195146 -7.09708e-07
0.000195146 -1.31495e-05 1.56779e-08
-7.09708e-07 1.56779e-08 -0.000183853
0.000493668 0.000223119 -2.5196e-05
0.000223119 -9.47639e-05 -1.61474e-05
-2.5196e-05 -1.61474e-05 -0.000204698
0.000699814 0.000179057 1.04825e-05
0.000179057 -7.00494e-05 5.36248e-06
1.04825e-05 5.36248e-06 -0.000240611
0.000483147 0.000203892 2.12516e-06
0.000203892 -9.19665e-05 6.06837e-07
2.12516e-06 6.06837e-07 -0.000197321
0.00605528 -6.94193e-05 -0.000211049
-6.94193e-05 0.00337601 -2.33288e-05
-0.000211049 -2.33288e-05 0.00335495
0.000461507 0.000137345 2.09807e-05
0.000137345 -9.59613e-05 1.56598e-05
2.09807e-05 1.56598e-05 -0.000179186
0.0053983 -0.00015835 -4.10455e-06
-0.00015835 0.00298021 -1.45387e-07
-4.10455e-06 -1.45387e-07 0.0029614
0.00423437 -0.000203429 0.000103882
-0.000203429 0.00229122 4.95292e-06
0.000103882 4.95292e-06 0.00226616
0.00202262 0.000157174 -1.7914e-06
0.000157174 7.31027e-05 6.86069e-07
-1.7914e-06 6.86069e-07 2.37618e-05
0.00210986 0.000198053 3.29721e-07
0.000198053 4.41286e-06 4.41894e-07
3.29721e-07 4.41894e-07 -8.33224e-06
0.0019814 0.00018191 2.20449e-06
0.00018191 -9.72723e-05 2.7623e-07
2.20449e-06 2.7623e-07 -7.83712e-05
0.00204456 0.000285444 3.51717e-07
0.000285444 0.000121802 4.37843e-08
3.51717e-07 4.37843e-08 1.57402e-05
0.00194432 0.000390958 -4.93386e-07
0.000390958 0.000163162 -5.79877e-07
-4.93386e-07 -5.79877e-07 -2.60529e-06
0.00199894 0.000307356 8.24058e-07
0.000307356 3.27059e-05 -3.0747e-07
8.24058e-07 -3.0747e-07 -5.70522e-05
0.00191567 5.90208e-05 -3.0528e-06
5.90208e-05 2.63484e-05 1.58667e-07
-3.0528e-06 1.58667e-07 4.66247e-06
0.00197736 4.98371e-05 3.49568e-07
4.98371e-05 1.03852e-05 -7.14655e-08
3.49568e-07 -7.14655e-08 6.27193e-06
0.00204376 5.66214e-05 1.04382e-06
5.66214e-05 -2.24816e-05 -1.72006e-07
1.04382e-06 -1.72006e-07 -9.18294e-06
0.00187924 -1.1658e-05 -1.5396e-06
-1.1658e-05 1.8582e-05 9.27071e-08
-1.5396e-06 9.27071e-08 -2.93806e-06
0.00180339 -3.39231e-05 -4.75748e-06
-3.39231e-05 6.18598e-06 3.62315e-08
-4.75748e-06 3.62315e-08 -4.66942e-05
0.001982 -6.46078e-05 1.96311e-06
-6.46078e-05 2.44115e-05 -2.37853e-07
1.96311e-06 -2.37853e-07 1.80396e-05
0.00185131 -8.66584e-05 -1.96432e-06
-8.66584e-05 2.88617e-05 4.83571e-07
-1.96432e-06 4.83571e-07 -2.3655e-05
0.00186756 -8.92329e-05 -1.14712e-06
-8.92329e-05 9.58318e-05 -3.59643e-07
-1.14712e-06 -3.59643e-07 8.38649e-06
0.00182598 -0.000149882 3.82865e-06
-0.000149882 1.16819e-05 -6.74787e-07
3.82865e-06 -6.74787e-07 -5.42361e-05
0.00187004 -0.000148836 2.81049e-06
-0.000148836 0.00010423 -7.80283e-07
2.81049e-06 -7.80283e-07 -9.76078e-07
0.00159503 -0.00011368 -5.56887e-07
-0.00011368 8.70602e-05 -5.33732e-07
-5.56887e-07 -5.33732e-07 -4.86894e-05
0.00188506 -0.00020805 -6.40386e-07
-0.00020805 0.000138758 4.30524e-07
-6.40386e-07 4.30524e-07 1.77129e-05
0.00157222 -0.000159625 -1.35168e-07
-0.000159625 9.13923e-05 5.73435e-08
-1.35168e-07 5.73435e-08 -5.65434e-05
0.00099405 -9.68762e-05 -1.2577e-05
-9.68762e-05 -4.03729e-05 2.88173e-06
-1.2577e-05 2.88173e-06 -0.000180835
0.00155628 -0.000196448 2.35139e-06
-0.000196448 0.000109025 -2.79274e-07
2.35139e-06 -2.79274e-07 -5.12704e-05
0.00101231 -0.000120105 -1.76194e-07
-0.000120105 -1.98779e-05 2.34376e-07
-1.76194e-07 2.34376e-07 -0.000165379
0.00253939 -0.000152149 -5.55117e-05
-0.000152149 0.00109683 7.80863e-06
-5.55117e-05 7.80863e-06 0.00102185
0.00103043 -0.000139616 1.36166e-05
-0.000139616 4.45899e-07 -4.49314e-06
1.36166e-05 -4.49314e-06 -0.000148614
0.00263554 -0.000147979 3.59293e-05
-0.000147979 0.00115375 -3.49889e-06
3.59293e-05 -3.49889e-06 0.0010842
0.00196329 -7.59245e-05 -0.000202624
-7.59245e-05 0.000832414 2.18267e-05
-0.000202624 2.18267e-05 0.000815043
0.00274566 -0.000164163 0.000125772
-0.000164163 0.00122231 -1.7823e-05
0.000125772 -1.7823e-05 0.00115681
0.00163202 -5.1742e-05 -8.08067e-05
-5.1742e-05 0.000643163 9.44247e-06
-8.08067e-05 9.44247e-06 0.000615807
0.0014114 -3.83334e-05 4.30794e-05
-3.83334e-05 0.000522227 -6.55283e-06
4.30794e-05 -6.55283e-06 0.000481984
0.00195889 0.000173199 -1.6973e-06
0.000173199 9.84746e-05 1.41524e-06
-1.6973e-06 1.41524e-06 8.73196e-06
0.00192828 0.000259969 -1.30692e-06
0.000259969 0.000160534 2.99632e-07
-1.30692e-06 2.99632e-07 1.77174e-05
0.00193451 0.00028125 -6.26084e-07
0.00028125 9.58763e-05 -1.12179e-07
-6.26084e-07 -1.12179e-07 -2.84226e-05
0.00182207 0.000266324 -1.9414e-06
0.000266324 0.000263065 -1.24882e-07
-1.9414e-06 -1.24882e-07 9.18196e-05
0.00189447 0.000305871 -8.15005e-08
0.000305871 0.00018193 -1.49604e-07
-8.15005e-08 -1.49604e-07 1.99365e-05
0.00193429 0.000329529 9.05048e-07
0.000329529 0.000111592 3.74657e-07
9.05048e-07 3.74657e-07 -3.41256e-05
0.00103073 0.000182353 -1.45915e-05
0.000182353 2.70952e-06 -5.19531e-06
-1.45915e-05 -5.19531e-06 -0.000155792
0.00159266 0.000286734 3.03265e-06
0.000286734 0.000167448 4.48422e-07
3.03265e-06 4.48422e-07 -2.18235e-05
0.00171911 0.000339685 -1.37315e-07
0.000339685 9.05469e-05 -2.83009e-06
-1.37315e-07 -2.83009e-06 -8.80102e-05
0.000438468 0.000181911 -2.25971e-05
0.000181911 -0.000142073 -1.37933e-05
-2.25971e-05 -1.37933e-05 -0.000246493
0.000943217 0.000194169 -5.96793e-07
0.000194169 -1.71431e-05 1.1604e-07
-5.96793e-07 1.1604e-07 -0.000183198
0.00136017 0.00030713 7.26273e-06
0.00030713 8.70383e-05 1.1695e-06
7.26273e-06 1.1695e-06 -0.000124831
0.000854222 0.000192142 1.28739e-05
0.000192142 -1.92714e-05 6.55984e-06
1.28739e-05 6.55984e-06 -0.000188886
0.000482258 0.000205224 1.27712e-06
0.000205224 -9.83109e-05 7.13829e-07
1.27712e-06 7.13829e-07 -0.000209558
0.00620802 2.88466e-05 -0.000226253
2.88466e-05 0.00344745 -2.65367e-05
-0.000226253 -2.65367e-05 0.00343437
0.000474558 0.000188096 2.24942e-05
0.000188096 -9.48753e-05 1.61569e-05
2.24942e-05 1.61569e-05 -0.000199054
0.00593273 -9.30656e-05 5.83221e-06
-9.30656e-05 0.0032895 -8.21751e-07
5.83221e-06 -8.21751e-07 0.00327578
0.00513787 -0.000206307 0.000140274
-0.000206307 0.00283388 7.58477e-06
0.000140274 7.58477e-06 0.00280659
0.00190622 0.000109226 -5.1208e-06
0.000109226 4.77817e-05 -4.2645e-07
-5.1208e-06 -4.2645e-07 2.71837e-06
0.00196947 0.000158053 1.27913e-06
0.000158053 4.06902e-05 6.02153e-07
1.27913e-06 6.02153e-07 -6.57844e-06
0.00210325 0.000201555 4.33161e-07
0.000201555 -5.69253e-06 -3.21896e-07
4.33161e-07 -3.21896e-07 -1.59582e-05
0.00203686 0.00027989 3.46094e-06
0.00027989 0.000123441 2.43621e-07
3.46094e-06 2.43621e-07 2.0862e-05
0.00173382 8.03167e-06 -2.64957e-06
8.03167e-06 -1.57843e-05 -1.20295e-07
-2.64957e-06 -1.20295e-07 -7.38191e-05
0.0018983 5.01322e-05 1.94319e-07
5.01322e-05 1.47936e-05 1.47005e-07
1.94319e-07 1.47005e-07 -7.54797e-06
0.00197823 4.62717e-05 1.18705e-06
4.62717e-05 1.70313e-05 -2.12308e-07
1.18705e-06 -2.12308e-07 9.19955e-06
0.00189322 -1.25147e-05 2.41852e-06
-1.25147e-05 2.39476e-05 -5.99489e-07
2.41852e-06 -5.99489e-07 2.2319e-06
0.00186451 -2.82786e-05 -1.80531e-06
-2.82786e-05 4.58197e-05 2.22677e-07
-1.80531e-06 2.22677e-07 -4.87141e-06
0.00176748 -3.50029e-05 1.03203e-06
-3.50029e-05 4.03558e-05 -8.22871e-07
1.03203e-06 -8.22871e-07 -4.63022e-05
0.0018456 -8.47084e-05 4.54528e-07
-8.47084e-05 2.93859e-05 5.4537e-07
4.54528e-07 5.4537e-07 -2.62874e-05
0.00185361 -8.96826e-05 -7.09194e-07
-8.96826e-05 9.07261e-05 4.28163e-07
-7.09194e-07 4.28163e-07 -2.65544e-06
0.00167035 -6.80555e-05 -1.9179e-06
-6.80555e-05 0.000120863 -4.37403e-07
-1.9179e-06 -4.37403e-07 -1.45643e-07
0.00189041 -0.000149346 2.79706e-06
-0.000149346 0.000117184 -2.39317e-07
2.79706e-06 -2.39317e-07 1.21013e-05
0.00159586 -0.000111829 9.88704e-07
-0.000111829 8.46545e-05 -3.47451e-07
9.88704e-07 -3.47451e-07 -5.06307e-05
0.000996192 -6.87985e-05 -1.23491e-05
-6.87985e-05 -4.61688e-05 1.98882e-06
-1.23491e-05 1.98882e-06 -0.000180593
0.00158716 -0.000157994 1.96675e-06
-0.000157994 9.82102e-05 -6.29507e-08
1.96675e-06 -6.29507e-08 -4.91321e-05
0.00100647 -9.62627e-05 -8.98761e-08
-9.62627e-05 -3.3505e-05 2.21003e-07
-8.98761e-08 2.21003e-07 -0.00017355
0.000535983 -8.47174e-05 -1.99293e-05
-8.47174e-05 -0.000134364 5.22047e-06
-1.99293e-05 5.22047e-06 -0.000215961
0.00103857 -0.000118605 1.29747e-05
-0.000118605 -6.20065e-06 -3.44811e-06
1.29747e-05 -3.44811e-06 -0.000150856
0.00158255 -9.84689e-05 5.18378e-05
-9.84689e-05 0.000505905 -3.59466e-06
5.18378e-05 -3.59466e-06 0.000433197
0.00589334 -0.000133372 -0.000265308
-0.000133372 0.00322033 1.76713e-05
-0.000265308 1.76713e-05 0.00323044
0.00271953 -0.000133609 0.000124483
-0.000133609 0.0011956 -1.43245e-05
0.000124483 -1.43245e-05 0.00113431
0.00164488 -5.81017e-05 -7.30041e-05
-5.81017e-05 0.000648175 6.33067e-06
-7.30041e-05 6.33067e-06 0.000620676
0.00132941 -7.39106e-05 5.45018e-05
-7.39106e-05 0.000474855 -7.82342e-06
5.45018e-05 -7.82342e-06 0.000433608
0.00196833 0.000127192 -2.20174e-06
0.000127192 0.000125623 1.08218e-06
-2.20174e-06 1.08218e-06 5.3041e-05
0.00190625 0.000186785 1.64831e-07
0.000186785 0.000133169 1.45113e-06
1.64831e-07 1.45113e-06 1.54616e-05
0.00196408 0.000170101 6.36019e-07
0.000170101 0.000107653 2.88521e-07
6.36019e-07 2.88521e-07 1.74093e-05
0.00166416 0.000213248 -2.21782e-06
0.000213248 0.000132143 1.23087e-07
-2.21782e-06 1.23087e-07 -2.25396e-05
0.00187083 0.000255279 5.46064e-07
0.000255279 0.000127892 1.7193e-08
5.46064e-07 1.7193e-08 -1.44194e-05
0.00189535 0.000281703 9.61211e-07
0.000281703 5.98483e-05 3.51434e-07
9.61211e-07 3.51434e-07 -6.15919e-05
0.000870635 0.000152543 -1.591e-05
0.000152543 -0.000118115 -4.36951e-06
-1.591e-05 -4.36951e-06 -0.000269145
0.00182835 0.000266443 2.62331e-06
0.000266443 0.000266278 6.56458e-07
2.62331e-06 6.56458e-07 9.52718e-05
0.00182073 0.000300137 -2.83114e-07
0.000300137 0.000145383 -6.04445e-07
-2.83114e-07 -6.04445e-07 -1.7943e-05
0.00042885 0.000131752 -1.95489e-05
0.000131752 -0.000169859 -1.05017e-05
-1.95489e-05 -1.05017e-05 -0.000264234
0.000878577 0.000174702 3.86146e-07
0.000174702 -8.93025e-05 3.11299e-07
3.86146e-07 3.11299e-07 -0.000247894
0.00147487 0.000284804 8.55619e-06
0.000284804 8.93903e-05 9.01047e-07
8.55619e-06 9.01047e-07 -9.92437e-05
0.00619506 0.000112765 -0.000238385
0.000112765 0.00341763 -2.62318e-05
-0.000238385 -2.62318e-05 0.00341384
0.000447431 0.000171282 8.02508e-07
0.000171282 -0.000136853 7.25699e-07
8.02508e-07 7.25699e-07 -0.000242124
0.00090875 0.000190442 1.419e-05
0.000190442 -3.33826e-05 6.12775e-06
1.419e-05 6.12775e-06 -0.000198694
0.000413993 0.000188397 2.10137e-05
0.000188397 -0.000135608 1.5859e-05
2.10137e-05 1.5859e-05 -0.000247826
0.00608918 1.79999e-05 9.67739e-06
1.79999e-05 0.00336678 -7.59301e-08
9.67739e-06 -7.59301e-08 0.00336073
0.00577984 -0.000127274 0.000190844
-0.000127274 0.00319091 1.02484e-05
0.000190844 1.02484e-05 0.00317964
0.00183685 6.48996e-05 -5.7914e-06
6.48996e-05 4.59452e-05 -8.69152e-07
-5.7914e-06 -8.69152e-07 -1.35767e-05
0.00189865 0.000107788 2.39335e-07
0.000107788 3.85775e-05 3.93119e-07
2.39335e-07 3.93119e-07 -6.62944e-06
0.0019154 0.000158996 2.57103e-06
0.000158996 7.85631e-06 5.2964e-07
2.57103e-06 5.2964e-07 -3.71519e-05
0.00176879 4.01662e-06 1.58167e-06
4.01662e-06 5.28471e-05 -4.10756e-07
1.58167e-06 -4.10756e-07 -3.69818e-05
0.00180165 1.26062e-05 1.09148e-07
1.26062e-05 2.68265e-05 3.63363e-08
1.09148e-07 3.63363e-08 -2.80642e-05
0.00188606 3.99947e-05 2.67082e-06
3.99947e-05 6.57835e-06 -2.96821e-07
2.67082e-06 -2.96821e-07 -1.64233e-05
0.00192379 -2.34461e-05 6.02317e-07
-2.34461e-05 8.43274e-05 4.85687e-07
6.02317e-07 4.85687e-07 3.5608e-05
0.00181701 -3.32118e-05 4.80178e-07
-3.32118e-05 7.06135e-05 3.13963e-08
4.80178e-07 3.13963e-08 -1.45517e-05
0.00178336 -2.78568e-05 6.24393e-07
-2.78568e-05 0.000201934 -5.3888e-07
6.24393e-07 -5.3888e-07 8.65042e-05
0.00182809 -8.97042e-05 -1.86969e-06
-8.97042e-05 7.94553e-05 1.23273e-06
-1.86969e-06 1.23273e-06 -2.00102e-05
0.00169088 -6.87599e-05 1.94511e-07
-6.87599e-05 0.000136271 6.50227e-08
1.94511e-07 6.50227e-08 1.21048e-05
0.000866641 -3.63018e-05 -1.35373e-05
-3.63018e-05 -0.000130199 1.21343e-06
-1.35373e-05 1.21343e-06 -0.000258731
0.00158332 -0.000111888 2.58402e-06
-0.000111888 7.39517e-05 -2.41983e-07
2.58402e-06 -2.41983e-07 -6.12287e-05
0.00100276 -6.55687e-05 -8.06042e-08
-6.55687e-05 -4.28157e-05 9.41806e-08
-8.06042e-08 9.41806e-08 -0.000176657
0.000541032 -2.15895e-05 -1.86232e-05
-2.15895e-05 -0.000134571 3.21457e-06
-1.86232e-05 3.21457e-06 -0.000213248
0.00103648 -9.51574e-05 1.25177e-05
-9.51574e-05 -1.71663e-05 -2.45557e-06
1.25177e-05 -2.45557e-06 -0.000156621
0.000538847 -6.85268e-05 -1.75884e-07
-6.85268e-05 -0.000130727 4.08707e-07
-1.75884e-07 4.08707e-07 -0.000213537
0.00587769 -2.76279e-05 -0.000256251
-2.76279e-05 0.00320666 1.07209e-05
-0.000256251 1.07209e-05 0.00321984
0.000572363 -7.07791e-05 1.5589e-05
-7.07791e-05 -0.000109751 -7.12303e-06
1.5589e-05 -7.12303e-06 -0.000195713
0.00370908 -8.74298e-05 0.000116544
-8.74298e-05 0.0019001 -4.99904e-06
0.000116544 -4.99904e-06 0.00188424
0.00129331 -7.82956e-05 6.07539e-05
-7.82956e-05 0.000453862 -8.14443e-06
6.07539e-05 -8.14443e-06 0.000411295
0.0019329 0.000104633 -3.71888e-06
0.000104633 0.000123127 -1.43034e-07
-3.71888e-06 -1.43034e-07 5.1221e-05
0.00184832 0.000125283 2.13841e-06
0.000125283 0.000107351 2.33103e-06
2.13841e-06 2.33103e-06 2.95524e-06
0.00191949 0.00012128 2.59323e-07
0.00012128 9.43373e-05 4.62927e-08
2.59323e-07 4.62927e-08 2.30882e-05
0.00160053 0.000155667 -1.11441e-06
0.000155667 8.3329e-05 1.39443e-07
-1.11441e-06 1.39443e-07 -6.01262e-05
0.00191358 0.00018667 5.45787e-07
0.00018667 0.000133289 1.65431e-07
5.45787e-07 1.65431e-07 1.43233e-05
0.00196978 0.000166755 1.53196e-06
0.000166755 0.000116956 -9.84305e-07
1.53196e-06 -9.84305e-07 2.62341e-05
0.000892815 0.00012524 -1.47019e-05
0.00012524 -0.000117777 -3.27672e-06
-1.47019e-05 -3.27672e-06 -0.000260836
0.00171981 0.000213184 4.76035e-07
0.000213184 0.000170667 4.00826e-07
4.76035e-07 4.00826e-07 1.43655e-05
0.00181576 0.000250616 6.93705e-07
0.000250616 9.69347e-05 -4.89261e-07
6.93705e-07 -4.89261e-07 -4.48475e-05
0.000445885 9.34175e-05 -1.80631e-05
9.34175e-05 -0.000178195 -7.553e-06
-1.80631e-05 -7.553e-06 -0.000264771
0.000825526 0.000150082 -2.38518e-06
0.000150082 -0.000144127 -1.99599e-07
-2.38518e-06 -1.99599e-07 -0.000295023
0.001838 0.000266924 7.28798e-06
0.000266924 0.000271464 1.58109e-06
7.28798e-06 1.58109e-06 0.000100631
0.00610572 0.000183869 -0.000256337
0.000183869 0.00335406 -2.53175e-05
-0.000256337 -2.53175e-05 0.00335525
0.000449989 0.000127954 1.84862e-07
0.000127954 -0.000158359 4.04519e-07
1.84862e-07 4.04519e-07 -0.000253174
0.000734006 0.000167863 1.4217e-05
0.000167863 -0.00017706 5.16022e-06
1.4217e-05 5.16022e-06 -0.000335835
0.00611412 0.00012743 1.31274e-05
0.00012743 0.00337254 2.05849e-06
1.31274e-05 2.05849e-06 0.00336853
0.000443636 0.000159666 1.97437e-05
0.000159666 -0.000139251 1.36758e-05
1.97437e-05 1.36758e-05 -0.000245209
0.00599865 -1.46193e-05 0.000222511
-1.46193e-05 0.00330082 1.5554e-05
0.000222511 1.5554e-05 0.00330194
0.00185004 4.50776e-05 -1.12083e-07
4.50776e-05 9.0103e-05 -5.38925e-07
-1.12083e-07 -5.38925e-07 1.53885e-06
0.00185644 6.44265e-05 -1.67497e-06
6.44265e-05 6.75876e-05 2.16087e-07
-1.67497e-06 2.16087e-07 6.43483e-06
0.00188221 0.00010606 4.46664e-06
0.00010606 2.3651e-05 5.52564e-07
4.46664e-06 5.52564e-07 -2.16053e-05
0.00178499 -2.55081e-06 1.47302e-06
-2.55081e-06 0.000206426 -3.51663e-07
1.47302e-06 -3.51663e-07 9.25618e-05
0.00174666 4.3563e-06 -4.34572e-07
4.3563e-06 3.59952e-05 -6.89531e-08
-4.34572e-07 -6.89531e-08 -5.179e-05
0.00184725 1.86369e-05 4.81428e-06
1.86369e-05 5.52325e-05 6.70254e-07
4.81428e-06 6.70254e-07 3.30405e-06
0.00186549 -3.20388e-05 -3.95508e-07
-3.20388e-05 0.000100545 7.36451e-07
-3.95508e-07 7.36451e-07 1.68313e-05
0.00178176 -2.74119e-05 2.89856e-06
-2.74119e-05 0.000200337 -3.27406e-07
2.89856e-06 -3.27406e-07 8.49147e-05
0.000869854 -1.28464e-05 -1.30591e-05
-1.28464e-05 -0.000124195 4.87047e-07
-1.30591e-05 4.87047e-07 -0.000249197
0.00171244 -6.9714e-05 1.87607e-06
-6.9714e-05 0.000152061 2.50837e-07
1.87607e-06 2.50837e-07 2.47204e-05
0.000933839 -3.61449e-05 -1.70882e-06
-3.61449e-05 -8.83274e-05 1.37341e-07
-1.70882e-06 1.37341e-07 -0.00021718
0.000541259 -7.06189e-06 -1.88379e-05
-7.06189e-06 -0.000136444 2.08488e-06
-1.88379e-05 2.08488e-06 -0.000213144
0.00101213 -6.35121e-05 1.18837e-05
-6.35121e-05 -3.72248e-05 -1.78459e-06
1.18837e-05 -1.78459e-06 -0.000170605
0.000519272 -3.30886e-05 8.74902e-07
-3.30886e-05 -0.000148652 -1.39235e-07
8.74902e-07 -1.39235e-07 -0.000226218
0.00578093 -0.000124867 -0.000262968
-0.000124867 0.00315911 1.15686e-05
-0.000262968 1.15686e-05 0.00316826
0.000508623 -5.17083e-05 1.79604e-05
-5.17083e-05 -0.00014884 -3.98644e-06
1.79604e-05 -3.98644e-06 -0.000231368
0.00584427 -6.40012e-05 7.63722e-06
-6.40012e-05 0.00318796 -6.03301e-08
7.63722e-06 -6.03301e-08 0.0032012
0.00163788 -2.54538e-05 0.000207987
-2.54538e-05 0.000634911 -1.2234e-05
0.000207987 -1.2234e-05 0.00062308
0.00177415 8.56844e-05 1.74684e-06
8.56844e-05 5.41935e-05 5.37801e-07
1.74684e-06 5.37801e-07 -4.57936e-05
0.00185592 0.000106521 -3.64412e-06
0.000106521 7.33389e-05 -9.79464e-07
-3.64412e-06 -9.79464e-07 4.16498e-06
0.00159739 0.000102971 -2.21264e-07
0.000102971 7.97154e-05 3.7081e-07
-2.21264e-07 3.7081e-07 -5.21531e-05
0.00186281 0.000125044 7.59375e-07
0.000125044 0.000113093 1.49117e-07
7.59375e-07 1.49117e-07 8.53379e-06
0.00187893 0.000115721 2.46103e-06
0.000115721 6.76706e-05 -2.21159e-06
2.46103e-06 -2.21159e-06 -2.22076e-06
0.00106109 9.51958e-05 -1.2593e-05
9.51958e-05 -1.42598e-05 -2.33406e-06
-1.2593e-05 -2.33406e-06 -0.000149474
0.00160234 0.000155123 1.52979e-07
0.000155123 8.69998e-05 9.98141e-09
1.52979e-07 9.98141e-09 -5.65657e-05
0.00191786 0.000186411 8.12466e-07
0.000186411 0.000131766 -9.78794e-07
8.12466e-07 -9.78794e-07 1.155e-05
0.000480448 6.70417e-05 -1.76941e-05
6.70417e-05 -0.000168578 -5.44443e-06
-1.76941e-05 -5.44443e-06 -0.000250843
0.000938014 0.000127148 -2.45945e-06
0.000127148 -8.79666e-05 -1.37195e-07
-2.45945e-06 -1.37195e-07 -0.000231322
0.0017783 0.000213015 3.50844e-06
0.000213015 0.000211227 8.60293e-07
3.50844e-06 8.60293e-07 5.33424e-05
0.00601521 0.000218501 -0.00027394
0.000218501 0.00330443 -2.41228e-05
-0.00027394 -2.41228e-05 0.00330445
0.000480909 9.42437e-05 -5.66172e-08
9.42437e-05 -0.000158427 1.89084e-07
-5.66172e-08 1.89084e-07 -0.000245291
0.000782138 0.000147742 1.02131e-05
0.000147742 -0.000169394 3.74038e-06
1.02131e-05 3.74038e-06 -0.000320094
0.00607015 0.000205026 1.0979e-05
0.000205026 0.00334337 3.59776e-06
1.0979e-05 3.59776e-06 0.0033396
0.00047537 0.000122561 1.85962e-05
0.000122561 -0.000144851 1.05683e-05
1.85962e-05 1.05683e-05 -0.000239677
0.00606396 0.000123583 0.000246621
0.000123583 0.00333187 2.26819e-05
0.000246621 2.26819e-05 0.00333504
0.00175568 3.37372e-05 2.53439e-06
3.37372e-05 0.000184355 8.75597e-08
2.53439e-06 8.75597e-08 6.90261e-05
0.00182808 4.16245e-05 -1.82072e-06
4.16245e-05 8.11009e-05 1.07172e-07
-1.82072e-06 1.07172e-07 -9.04579e-06
0.00188021 6.35369e-05 1.56512e-06
6.35369e-05 9.21158e-05 3.17592e-07
1.56512e-06 3.17592e-07 2.9312e-05
0.000859446 -7.37594e-06 -1.35882e-05
-7.37594e-06 -0.000123451 -1.82959e-07
-1.35882e-05 -1.82959e-07 -0.000247187
0.00178076 3.13265e-06 3.37095e-06
3.13265e-06 0.000203688 -1.4197e-07
3.37095e-06 -1.4197e-07 8.98006e-05
0.00174031 4.39659e-06 -1.10493e-06
4.39659e-06 2.88977e-05 5.6759e-07
-1.10493e-06 5.6759e-07 -5.6587e-05
0.00178543 -2.72722e-05 4.99924e-06
-2.72722e-05 0.000201958 1.63346e-07
4.99924e-06 1.63346e-07 8.65461e-05
0.000863151 -1.32228e-05 -1.2438e-06
-1.32228e-05 -0.000129398 7.16662e-08
-1.2438e-06 7.16662e-08 -0.000254576
0.000543696 -3.07004e-05 -1.92746e-05
-3.07004e-05 -0.000135497 8.80422e-07
-1.92746e-05 8.80422e-07 -0.000209775
0.000982377 -3.51224e-05 1.069e-05
-3.51224e-05 -5.75557e-05 -1.19788e-06
1.069e-05 -1.19788e-06 -0.000186755
0.000521117 4.04107e-06 3.32592e-07
4.04107e-06 -0.000149144 5.52304e-08
3.32592e-07 5.52304e-08 -0.000225021
0.00576628 -9.99595e-05 -0.000267177
-9.99595e-05 0.00314862 8.36994e-06
-0.000267177 8.36994e-06 0.00316022
0.000529006 -3.85232e-05 1.88161e-05
-3.85232e-05 -0.000140808 -2.75035e-06
1.88161e-05 -2.75035e-06 -0.000219473
0.00579653 -1.91947e-05 -3.04617e-06
-1.91947e-05 0.00315854 2.01174e-06
-3.04617e-06 2.01174e-06 0.00317372
0.00583503 -8.04223e-05 0.00026238
-8.04223e-05 0.00318188 -1.0212e-05
0.00026238 -1.0212e-05 0.00319593
0.00156289 6.07856e-05 -6.93947e-08
6.07856e-05 6.11783e-05 2.18876e-07
-6.93947e-08 2.18876e-07 -6.40946e-05
0.001802 8.74257e-05 -2.24465e-06
8.74257e-05 6.72903e-05 -1.37464e-06
-2.24465e-06 -1.37464e-06 -2.7645e-05
0.00177279 0.000108515 -2.50546e-06
0.000108515 2.04065e-05 -9.93848e-07
-2.50546e-06 -9.93848e-07 -4.60802e-05
0.00106347 5.81953e-05 -1.23125e-05
5.81953e-05 -1.0738e-05 -1.76093e-06
-1.23125e-05 -1.76093e-06 -0.000139624
0.00158528 0.000102153 1.93744e-07
0.000102153 7.4037e-05 8.98569e-09
1.93744e-07 8.98569e-09 -5.81434e-05
0.0018728 0.000124642 -3.99936e-07
0.000124642 0.000116505 -1.77733e-06
-3.99936e-07 -1.77733e-06 1.17758e-05
0.000511749 4.33427e-05 -1.73355e-05
4.33427e-05 -0.000153442 -3.9422e-06
-1.73355e-05 -3.9422e-06 -0.000233007
0.00102823 9.65082e-05 2.91548e-07
9.65082e-05 -3.41422e-05 2.22652e-07
2.91548e-07 2.22652e-07 -0.000170082
0.0016041 0.000154607 1.81326e-06
0.000154607 9.02582e-05 -6.05984e-08
1.81326e-06 -6.05984e-08 -5.34375e-05
0.00590576 0.000197186 -0.000284692
0.000197186 0.00324028 -2.04992e-05
-0.000284692 -2.04992e-05 0.00324316
0.000511666 7.13644e-05 3.48253e-07
7.13644e-05 -0.000149808 1.45058e-07
3.48253e-07 1.45058e-07 -0.000232839
0.000981429 0.000128993 1.02654e-05
0.000128993 -5.94736e-05 3.08798e-06
1.02654e-05 3.08798e-06 -0.000203079
0.00602055 0.000232537 6.37869e-06
0.000232537 0.00331391 3.03756e-06
6.37869e-06 3.03756e-06 0.00331139
0.000519334 9.67225e-05 1.79557e-05
9.67225e-05 -0.000135726 8.08856e-06
1.79557e-05 8.08856e-06 -0.000223215
0.00606132 0.00023073 0.000265148
0.00023073 0.00334062 2.84723e-05
0.000265148 2.84723e-05 0.00333579
0.00100332 1.70931e-05 -1.28289e-05
1.70931e-05 -3.20865e-05 -6.99399e-07
-1.28289e-05 -6.99399e-07 -0.00015658
0.00168217 2.96364e-05 3.8018e-06
2.96364e-05 0.000139618 9.90672e-08
3.8018e-06 9.90672e-08 2.48749e-05
0.00180405 3.77929e-05 -4.39914e-06
3.77929e-05 7.05969e-05 2.90245e-08
-4.39914e-06 2.90245e-08 -2.11545e-05
0.00057627 3.08069e-05 -1.984e-05
3.08069e-05 -0.000123688 -6.02243e-07
-1.984e-05 -6.02243e-07 -0.00019075
0.000839709 -1.70844e-06 -1.47696e-06
-1.70844e-06 -0.000136308 6.8698e-08
-1.47696e-06 6.8698e-08 -0.000260162
0.00177777 9.65383e-06 5.27524e-06
9.65383e-06 0.000201695 9.43455e-08
5.27524e-06 9.43455e-08 8.77636e-05
0.000852572 -1.31762e-05 1.06598e-05
-1.31762e-05 -0.00013706 -4.0255e-07
1.06598e-05 -4.0255e-07 -0.0002624
0.000539301 -5.01762e-06 3.28129e-07
-5.01762e-06 -0.000137937 3.63664e-07
3.28129e-07 3.63664e-07 -0.000212453
0.00572185 3.1298e-05 -0.000271844
3.1298e-05 0.00311645 3.20296e-08
-0.000271844 3.20296e-08 0.00313292
0.000499843 1.5522e-05 1.83381e-05
1.5522e-05 -0.000163205 -1.22507e-06
1.83381e-05 -1.22507e-06 -0.000237933
0.00574184 -9.83758e-05 -7.79203e-06
-9.83758e-05 0.00313486 1.68739e-06
-7.79203e-06 1.68739e-06 0.00314609
0.00574681 -2.36098e-07 0.000252232
-2.36098e-07 0.00312889 -4.82037e-06
0.000252232 -4.82037e-06 0.00314394
0.00103298 3.18923e-05 -1.2643e-05
3.18923e-05 -2.11083e-05 -1.37613e-06
-1.2643e-05 -1.37613e-06 -0.000146584
0.00157628 5.91889e-05 -2.08884e-07
5.91889e-05 6.98898e-05 -6.56896e-08
-2.08884e-07 -6.56896e-08 -5.23716e-05
0.00184055 8.91402e-05 -4.57288e-06
8.91402e-05 8.66924e-05 -2.20601e-06
-4.57288e-06 -2.20601e-06 -3.17752e-06
0.00264461 5.53682e-05 -0.000128737
5.53682e-05 0.00113621 -4.31615e-06
-0.000128737 -4.31615e-06 0.00108673
0.00102026 5.98984e-05 2.9905e-07
5.98984e-05 -3.69222e-05 1.33866e-07
2.9905e-07 1.33866e-07 -0.000166353
0.00157443 0.000101281 1.54885e-06
0.000101281 6.91179e-05 -2.04807e-07
1.54885e-06 -2.04807e-07 -6.33828e-05
0.00581317 0.000149629 -0.000285853
0.000149629 0.00318039 -1.49928e-05
-0.000285853 -1.49928e-05 0.00318909
0.00054521 6.14625e-05 8.70003e-07
6.14625e-05 -0.000131129 3.70449e-07
8.70003e-07 3.70449e-07 -0.000212467
0.000998148 9.78807e-05 1.25006e-05
9.78807e-05 -5.22543e-05 2.72013e-06
1.25006e-05 2.72013e-06 -0.000188895
0.00596512 0.000210029 1.78549e-06
0.000210029 0.00327762 1.64376e-06
1.78549e-06 1.64376e-06 0.00327944
0.000553742 7.85649e-05 1.8234e-05
7.85649e-05 -0.000123356 6.31637e-06
1.8234e-05 6.31637e-06 -0.000207801
0.00602118 0.000262597 0.000276939
0.000262597 0.00332469 2.96693e-05
0.000276939 2.96693e-05 0.00331654
0.00062882 1.02463e-05 -1.62345e-05
1.02463e-05 -8.16641e-05 -1.85002e-06
-1.62345e-05 -1.85002e-06 -0.000157367
0.000916203 1.58568e-05 5.83296e-07
1.58568e-05 -8.71594e-05 2.43885e-07
5.83296e-07 2.43885e-07 -0.000211475
0.00160835 2.46785e-05 4.25431e-06
2.46785e-05 9.44969e-05 3.75225e-08
4.25431e-06 3.75225e-08 -1.96147e-05
0.00558853 -9.59599e-05 -0.00025578
-9.59599e-05 0.00305276 2.02433e-06
-0.00025578 2.02433e-06 0.00305911
0.000535573 8.3264e-06 -5.55635e-07
8.3264e-06 -0.000143713 4.87985e-08
-5.55635e-07 4.87985e-08 -0.000213363
0.000836036 3.05701e-06 1.05561e-05
3.05701e-06 -0.000139735 1.01174e-07
1.05561e-05 1.01174e-07 -0.000263653
0.000497768 2.07771e-05 1.85836e-05
2.07771e-05 -0.00016382 2.18717e-07
1.85836e-05 2.18717e-07 -0.000237543
0.00567279 -4.55453e-06 2.32861e-06
-4.55453e-06 0.00309179 -1.18301e-06
2.32861e-06 -1.18301e-06 0.00310452
0.0057471 -1.65538e-05 0.0002608
-1.65538e-05 0.00312763 -2.89665e-06
0.0002608 -2.89665e-06 0.00314409
0.00272069 1.09669e-05 -0.000124669
1.09669e-05 0.00117939 -2.60398e-06
-0.000124669 -2.60398e-06 0.00113181
0.0010195 3.49929e-05 6.79996e-08
3.49929e-05 -3.09934e-05 6.95298e-08
6.79996e-08 6.95298e-08 -0.000156879
0.00158186 5.77154e-05 1.44108e-06
5.77154e-05 7.4099e-05 -3.92916e-07
1.44108e-06 -3.92916e-07 -4.51397e-05
0.00538209 -4.77366e-05 -9.95428e-05
-4.77366e-05 0.00293077 5.16612e-07
-9.95428e-05 5.16612e-07 0.00291779
0.000560703 5.39146e-05 9.20453e-08
5.39146e-05 -0.000122913 2.2793e-07
9.20453e-08 2.2793e-07 -0.00020065
0.000994261 6.21906e-05 1.2151e-05
6.21906e-05 -5.33802e-05 2.04682e-06
1.2151e-05 2.04682e-06 -0.000183296
0.00587027 0.000122348 -1.06605e-05
0.000122348 0.00321012 -1.45876e-06
-1.06605e-05 -1.45876e-06 0.00322032
0.000575201 8.42246e-05 1.95865e-05
8.42246e-05 -0.000112383 5.34519e-06
1.95865e-05 5.34519e-06 -0.00019452
0.00599656 0.00023421 0.000287047
0.00023421 0.00330373 2.64619e-05
0.000287047 2.64619e-05 0.00330223
0.00169957 -5.18647e-05 -0.000210337
-5.18647e-05 0.000668709 9.21737e-07
-0.000210337 9.21737e-07 0.000663181
0.00163773 2.79013e-05 -5.25921e-05
2.79013e-05 0.000521954 1.98746e-07
-5.25921e-05 1.98746e-07 0.000465085
0.000825146 1.71824e-05 1.24557e-05
1.71824e-05 -0.000144183 9.44424e-07
1.24557e-05 9.44424e-07 -0.000268393
0.00565992 -4.28617e-05 7.42055e-06
-4.28617e-05 0.00308993 1.84545e-06
7.42055e-06 1.84545e-06 0.00310092
0.000552922 -1.25004e-05 1.91706e-05
-1.25004e-05 -0.000127428 8.06069e-07
1.91706e-05 8.06069e-07 -0.000200659
0.00571393 -7.05296e-05 0.000274665
-7.05296e-05 0.00311852 -3.03971e-06
0.000274665 -3.03971e-06 0.00313151
0.00128564 1.64839e-05 -4.7919e-05
1.64839e-05 0.000443031 -8.04518e-07
-4.7919e-05 -8.04518e-07 0.000407821
0.0016275 1.4875e-05 -5.30815e-05
1.4875e-05 0.000519006 -9.02011e-07
-5.30815e-05 -9.02011e-07 0.000458666
0.00099599 3.67103e-05 1.24022e-05
3.67103e-05 -4.67347e-05 1.5597e-06
1.24022e-05 1.5597e-06 -0.000173057
0.00355371 5.76427e-05 0.000101382
5.76427e-05 0.00180661 2.62766e-06
0.000101382 2.62766e-06 0.00179676
0.000568634 6.44264e-05 1.98615e-05
6.44264e-05 -0.000118073 4.13205e-06
1.98615e-05 4.13205e-06 -0.00019581
0.00593176 0.000110828 0.000274132
0.000110828 0.00324085 1.59012e-05
0.000274132 1.59012e-05 0.00325433
0.00561564 -2.05893e-05 -8.91331e-06
-2.05893e-05 0.00306585 -2.46064e-06
-8.91331e-06 -2.46064e-06 0.00307585
0.000552606 4.64791e-05 2.06436e-05
4.64791e-05 -0.000137498 2.19101e-06
2.06436e-05 2.19101e-06 -0.000204231
0.00557473 4.53179e-05 0.000262304
4.53179e-05 0.00303496 1.94626e-07
0.000262304 1.94626e-07 0.00304913
0.00347896 2.85974e-05 0.000114514
2.85974e-05 0.00176541 3.94599e-06
0.000114514 3.94599e-06 0.00175651
0.000582451 6.3791e-06 1.90812e-05
6.3791e-06 -0.000111041 2.70372e-06
1.90812e-05 2.70372e-06 -0.000184997
0.00578838 -1.48901e-05 0.000264181
-1.48901e-05 0.00315612 6.95315e-06
0.000264181 6.95315e-06 0.00316996
0.00565908 -0.000123455 0.000259223
-0.000123455 0.003097 -3.52473e-06
0.000259223 -3.52473e-06 0.00310235
0.00565246 -2.17716e-06 0.000259503
-2.17716e-06 0.00307272 3.82326e-06
0.000259503 3.82326e-06 0.00308974
