# vtk DataFile Version 2.0
Wound Healing Simulation
ASCII
DATASET UNSTRUCTURED_GRID
POINTS 3012 float
69.9759 18.75 4
67.2507 60.3285 4
69.976 18.75 2
73.0099 25.446 4
71.1327 20.9142 4
68.6801 16.6661 4
67.8185 19.9248 3.96717
67.2507 60.3286 2
71.1327 54.0858 4
68.6801 58.3339 4
65.6939 62.2254 4
65.3036 58.9999 3.96501
74.6784 42.3946 4
73.7221 47.2057 4
69.9759 18.75 0
73.0099 25.446 2
68.6801 16.6661 2
71.1327 20.9142 2
67.819 19.9296 2
74.6792 32.6053 4
73.7222 27.7943 4
72.1454 23.1494 4
70.6103 26.2226 3.97011
68.8798 21.9575 3.96809
67.2507 14.6715 4
66.6291 17.9709 3.96603
65.664 21.0763 3.96064
67.2507 60.3285 0
71.1327 54.0858 2
68.6801 58.3339 2
65.694 62.2255 2
65.3054 58.9926 2
72.1454 51.8506 4
69.9759 56.25 4
68.8301 53.1147 3.96812
64.0165 64.0165 4
66.6026 57.1347 3.96687
63.8766 60.7609 3.96194
63.3822 57.7145 3.95636
60.3285 67.2507 4
74.6792 42.3947 2
73.7222 47.2057 2
74.9194 39.9526 4
74.2788 44.8158 4
72.165 42.0855 3.97275
73.0099 49.554 4
71.2456 46.5977 3.97098
73.0099 25.446 0
71.1327 20.9142 0
68.6801 16.6661 0
67.8185 19.9248 0.032827
74.6792 32.6053 2
73.7222 27.7943 2
67.2508 14.6715 2
72.1455 23.1494 2
70.6095 26.224 2
66.6305 17.9766 2
68.8797 21.9609 2
65.6666 21.0777 2
74.9197 35.0474 4
74.2794 30.1841 4
72.1817 32.9454 3.97291
71.2749 28.4337 3.97099
69.8108 24.0602 3.9692
68.2496 26.982 3.96567
66.6414 22.977 3.96265
65.694 12.7746 4
65.3144 16.1041 3.96355
64.5659 19.2543 3.95722
63.5724 22.1676 3.96921
71.1327 54.0858 0
65.6939 62.2254 0
68.6801 58.3339 0
65.3036 58.9999 0.034985
72.1455 51.8506 2
69.9759 56.25 2
68.8302 53.1107 2
64.0165 64.0165 2
66.6042 57.1283 2
63.8788 60.753 2
63.3856 57.714 2
62.2254 65.694 4
58.8857 65.4078 3.96873
69.7638 50.9898 3.9692
67.7763 55.1692 3.96729
66.5143 52.1647 3.96313
62.3273 62.4215 3.96496
64.5204 55.9762 3.95905
62.1233 59.344 3.95193
61.5412 56.5338 3.96311
58.3339 68.6801 4
60.3285 67.2508 2
73.7221 47.2057 0
74.6784 42.3946 0
74.9197 39.9526 2
74.2794 44.8159 2
72.1639 42.0844 2
73.0099 49.554 2
71.2446 46.5959 2
75 37.5 4
72.4023 39.8026 3.97363
71.779 44.3525 3.97208
69.761 41.7837 3.96931
70.5709 48.8136 3.97022
68.8319 45.9954 3.96856
74.6792 32.6053 0
73.7222 27.7943 0
67.2507 14.6715 0
72.1454 23.1494 0
70.6103 26.2226 0.0298947
68.8798 21.9575 0.0319125
66.6291 17.9709 0.0339738
65.664 21.0763 0.0393555
74.9197 35.0474 2
74.2794 30.1841 2
72.1804 32.9456 2
71.2738 28.4346 2
65.694 12.7745 2
65.3155 16.1115 2
69.8103 24.0624 2
68.2512 26.983 2
64.562 19.2568 2
66.6439 22.9784 2
63.5722 22.1692 2
72.4102 35.2258 3.97377
71.8007 30.6787 3.97227
69.7973 33.2792 3.96901
68.8873 29.0614 3.96731
67.4991 24.9496 3.96394
65.8651 27.7298 3.97582
64.0165 10.9835 4
64.44 23.95 3.97291
63.8796 14.3312 3.96218
63.3782 17.5092 3.95372
62.6017 20.4649 3.9655
61.599 23.1636 3.97365
60.6759 11.1051 3.96709
57.5986 11.5162 3.95975
72.1454 51.8506 0
69.9759 56.25 0
68.8301 53.1147 0.0318786
64.0165 64.0165 0
63.8766 60.7609 0.0380623
66.6026 57.1347 0.033129
63.3822 57.7145 0.0436397
62.2255 65.694 2
58.8896 65.4012 2
69.7635 50.9869 2
67.777 55.1638 2
66.516 52.1632 2
62.3307 62.4129 2
64.5171 55.9738 2
62.1258 59.3426 2
61.5472 56.5341 2
60.6605 63.9705 3.96484
57.0176 66.7268 3.96983
57.5377 63.6203 3.96611
67.3815 50.1392 3.9651
65.567 54.1242 3.96141
64.1912 51.2612 3.97334
60.7396 60.8784 3.95119
62.509 54.9273 3.96808
60.367 57.9926 3.95832
59.898 55.5615 3.96965
56.25 69.9759 4
58.3339 68.6801 2
60.3285 67.2507 0
58.914 9.66461 3.96712
62.2254 9.30607 4
73.0099 49.554 0
74.2788 44.8158 0
71.2456 46.5977 0.0290198
72.165 42.0855 0.0272453
74.9194 39.9526 0
75 37.5 2
72.4015 39.8018 2
71.7784 44.351 2
69.7614 41.783 2
70.5704 48.8114 2
68.8338 45.9944 2
72.4858 37.513 3.97355
70.0082 39.656 3.96931
69.3733 43.8959 3.96923
67.2916 41.465 3.97657
68.1599 48.0785 3.96708
66.3717 45.3672 3.976
74.9197 35.0474 0
74.2794 30.1841 0
72.1817 32.9454 0.0270932
71.2749 28.4337 0.0290071
65.694 12.7746 0
65.3144 16.1041 0.0364501
69.8108 24.0602 0.0307962
68.2496 26.982 0.0343282
66.6414 22.977 0.0373524
64.5659 19.2543 0.0427827
63.5724 22.1676 0.0307907
72.4095 35.2254 2
71.7999 30.6795 2
69.7983 33.2797 2
68.8896 29.0622 2
64.0165 10.9835 2
63.8824 14.3392 2
63.3972 17.5053 2
67.5014 24.9508 2
65.8618 27.7318 2
62.6084 20.4649 2
64.4388 23.9519 2
61.5985 23.1663 2
60.6793 11.1119 2
57.5913 11.506 2
70.0212 35.3984 3.96904
69.4101 31.1656 3.96827
67.3563 33.6291 3.97635
66.4491 29.7003 3.976
65.1996 25.8076 3.97474
63.6092 28.3988 3.97503
62.3316 12.6612 3.96409
62.3405 24.8378 3.97387
62.1239 15.8432 3.95198
61.5136 18.844 3.9617
60.7424 21.576 3.97224
59.7728 24.0249 3.97378
59.2219 12.8414 3.95486
55.8621 10.3061 3.96902
56.3527 13.2362 3.95334
69.7638 50.9898 0.0307983
62.2254 65.694 0
58.8857 65.4078 0.0312686
67.7763 55.1692 0.03271
66.5143 52.1647 0.0368744
62.3273 62.4215 0.0350394
62.1233 59.344 0.0480719
64.5204 55.9762 0.0409479
61.5412 56.5338 0.0368932
60.6645 63.9616 2
57.0213 66.7214 2
57.543 63.6412 2
67.382 50.1376 2
65.5676 54.1224 2
64.1893 51.2596 2
60.7217 60.8847 2
62.5131 54.9274 2
60.3659 57.9909 2
59.8935 55.5585 2
55.064 67.9297 3.97911
59.2033 62.2873 3.96786
55.7773 64.8268 3.96553
56.2827 61.9773 3.97783
64.9707 49.2959 3.97489
63.3697 53.158 3.97102
61.8703 50.4454 3.97354
59.1476 59.4053 3.95594
60.5951 54.0838 3.9724
58.7907 56.7501 3.95993
58.6822 54.9011 3.97047
48.0945 68.5649 3.97664
50.9426 69.9287 3.98281
54.0858 71.1327 4
56.25 69.976 2
58.3339 68.6801 0
57.0531 8.34179 3.97248
60.3285 7.74928 4
58.917 9.67211 2
62.2255 9.30602 2
70.5709 48.8136 0.0297821
71.779 44.3525 0.0279236
68.8319 45.9954 0.0314364
69.761 41.7837 0.0306857
72.4023 39.8026 0.0263677
75 37.5 0
72.4845 37.5125 2
70.0091 39.6556 2
69.3728 43.8949 2
67.2879 41.4645 2
68.159 48.077 2
66.3676 45.3663 2
70.0967 37.524 3.96922
67.5383 39.4988 3.97653
66.9027 43.4182 3.97637
65.0588 41.1644 3.97607
65.7114 47.3235 3.97554
64.1129 44.7457 3.97555
72.4102 35.2258 0.0262252
71.8007 30.6787 0.0277261
69.7973 33.2792 0.0309927
68.8873 29.0614 0.0326932
64.0165 10.9835 0
63.8796 14.3312 0.0378156
63.3782 17.5092 0.0462813
67.4991 24.9496 0.036063
65.8651 27.7298 0.0241764
64.44 23.95 0.0270872
62.6017 20.4649 0.0344976
61.599 23.1636 0.0263479
60.6759 11.1051 0.032906
57.5986 11.5162 0.0402524
70.0223 35.3986 2
69.4114 31.1662 2
67.353 33.6297 2
66.4454 29.7015 2
62.3353 12.6687 2
62.1336 15.8438 2
61.5167 18.8454 2
65.1968 25.8097 2
63.6086 28.3992 2
60.7414 21.5795 2
62.3393 24.8389 2
59.7702 24.0264 2
59.2183 12.832 2
56.3465 13.2329 2
55.8627 10.3091 2
67.5798 35.5688 3.97655
66.9542 31.6812 3.97627
65.2165 33.981 3.97614
64.1338 30.308 3.97523
63.0068 26.59 3.97467
61.5372 28.9753 3.97485
60.7298 14.2882 3.95225
60.3521 25.6059 3.97396
60.3391 17.2972 3.9593
59.7395 20.0737 3.96807
59.0281 22.5782 3.97263
58.1801 24.6846 3.97365
54.0349 9.17195 3.9738
57.7965 14.4856 3.95385
54.7605 12.145 3.96804
55.1848 14.85 3.95386
67.3815 50.1392 0.034901
57.0176 66.7268 0.0301717
60.6605 63.9705 0.0351639
57.5377 63.6203 0.0338948
65.567 54.1242 0.038594
64.1912 51.2612 0.0266588
60.7396 60.8784 0.0488121
60.367 57.9926 0.0416834
62.509 54.9273 0.0319206
59.898 55.5615 0.0303483
55.0688 67.9223 2
59.1947 62.2968 2
55.7823 64.8201 2
56.2801 61.9844 2
64.9682 49.2941 2
63.3695 53.1568 2
61.8693 50.4446 2
59.1661 59.4094 2
60.5931 54.0813 2
58.7962 56.75 2
58.6904 54.9009 2
53.0359 68.9945 3.97924
53.9465 65.9629 3.96747
57.7732 60.7514 3.94893
54.6374 63.0643 3.96636
55.1195 60.4745 3.9732
62.6148 48.4824 3.9739
61.2084 52.3511 3.97284
59.4901 49.724 3.97265
57.6631 58.034 3.95685
58.7118 53.6501 3.97227
57.4521 55.4797 3.96284
50.0978 67.8408 3.97182
47.4453 66.5449 3.97308
46.0505 69.1452 3.97961
48.0993 68.5646 2
48.7971 70.7205 3.98611
50.9485 69.9254 2
51.8506 72.1454 4
54.0858 71.1327 2
56.25 69.9759 0
55.0988 7.14393 3.98462
58.3339 6.31992 4
57.0576 8.34688 2
60.3286 7.74926 2
58.914 9.66461 0.0328763
62.2254 9.30607 0
68.1599 48.0785 0.0329169
69.3733 43.8959 0.0307673
66.3717 45.3672 0.0239963
67.2916 41.465 0.0234296
70.0082 39.656 0.0306894
72.4858 37.513 0.0264482
70.0987 37.5239 2
67.5344 39.4986 2
66.9 43.417 2
65.0589 41.1641 2
65.7084 47.3217 2
64.1127 44.7455 2
67.6411 37.5263 3.97649
65.3011 39.3499 3.9763
64.6636 42.9488 3.97593
63.0815 40.8666 3.97641
63.3965 46.5782 3.97437
62.0764 44.0825 3.97574
70.0212 35.3984 0.0309613
69.4101 31.1656 0.0317332
67.3563 33.6291 0.023651
66.4491 29.7003 0.0239986
62.3316 12.6612 0.0359111
62.1239 15.8432 0.0480235
61.5136 18.844 0.0382953
65.1996 25.8076 0.0252554
63.6092 28.3988 0.0249739
62.3405 24.8378 0.0261328
60.7424 21.576 0.0277567
59.7728 24.0249 0.0262168
59.2219 12.8414 0.0451385
56.3527 13.2362 0.0466572
55.8621 10.3061 0.0309815
67.5763 35.569 2
66.9511 31.6822 2
65.2157 33.9813 2
64.1341 30.3081 2
60.7232 14.2878 2
60.3308 17.3013 2
59.7371 20.0775 2
63.006 26.5907 2
61.5375 28.9753 2
59.0265 22.5813 2
60.3516 25.6064 2
58.1756 24.6866 2
57.7924 14.4776 2
55.1732 14.8367 2
54.0389 9.16382 2
54.7501 12.1409 2
65.4002 35.6965 3.97621
64.673 32.2355 3.97558
63.6692 34.3128 3.97618
61.8605 30.7909 3.97532
60.9357 27.3016 3.97432
59.9835 29.3772 3.97538
59.1015 15.8375 3.95615
58.4729 26.1288 3.97454
58.657 18.6282 3.96264
58.1042 21.1953 3.96886
57.5199 23.4799 3.97243
57.0827 25.0688 3.97454
52.1028 8.19331 3.96552
53.0424 11.0985 3.95807
56.4517 15.9715 3.95504
53.7336 13.845 3.95274
54.1538 16.2463 3.95965
55.064 67.9297 0.0208934
64.9707 49.2959 0.0251113
55.7773 64.8268 0.0344747
59.2033 62.2873 0.032139
56.2827 61.9773 0.0221659
63.3697 53.158 0.0289765
61.8703 50.4454 0.0264588
59.1476 59.4053 0.0440581
58.7907 56.7501 0.040065
60.5951 54.0838 0.0276019
58.6822 54.9011 0.0295293
53.0422 68.9902 2
53.9506 65.9544 2
57.7775 60.7755 2
54.6299 63.0576 2
55.1171 60.4802 2
62.6143 48.4818 2
61.2074 52.3496 2
59.4899 49.7231 2
57.6602 58.034 2
58.7161 53.6483 2
57.4492 55.4758 2
52.0547 66.9661 3.97117
52.9195 64.1164 3.96768
56.4281 59.2938 3.95361
53.5872 61.4178 3.96618
54.0996 59.1169 3.96406
60.1809 47.639 3.97352
58.9966 51.8077 3.97246
57.0535 49.2457 3.97291
56.3162 56.7025 3.958
56.2788 53.7249 3.96693
50.1024 67.836 2
49.313 65.8617 3.97087
47.4514 66.535 2
46.865 64.6553 3.97797
45.5487 67.0669 3.97823
43.9702 69.5775 3.98165
46.0545 69.1461 2
46.6046 71.3649 3.98778
48.0945 68.5649 0.0233555
48.8027 70.7185 2
49.554 73.0099 4
50.9426 69.9287 0.0171941
51.8506 72.1455 2
54.0858 71.1327 0
53.0619 6.08066 3.98015
55.1029 7.14621 2
56.25 5.02411 4
58.3339 6.3199 2
57.0531 8.34179 0.0275151
60.3285 7.74928 0
65.7114 47.3235 0.0244596
66.9027 43.4182 0.0236319
64.1129 44.7457 0.0244511
65.0588 41.1644 0.0239292
67.5383 39.4988 0.0234661
70.0967 37.524 0.0307764
67.637 37.5263 2
65.3011 39.3499 2
64.6632 42.9485 2
63.0822 40.8667 2
63.3965 46.5775 2
62.0766 44.0828 2
65.4102 37.5071 3.97619
63.23 39.2401 3.97643
62.6277 42.4548 3.97615
61.6118 40.6262 3.97651
61.1885 45.7315 3.97494
60.5672 43.5291 3.97636
67.5798 35.5688 0.0234462
66.9542 31.6812 0.0237322
65.2165 33.981 0.0238583
64.1338 30.308 0.0247689
60.7298 14.2882 0.0477506
60.3391 17.2972 0.0407
59.7395 20.0737 0.0319314
63.0068 26.59 0.025333
61.5372 28.9753 0.0251497
60.3521 25.6059 0.026044
59.0281 22.5782 0.0273694
58.1801 24.6846 0.0263474
57.7965 14.4856 0.046154
55.1848 14.85 0.0461401
54.0349 9.17195 0.0262005
54.7605 12.145 0.0319618
65.3998 35.6965 2
64.6728 32.2359 2
63.6703 34.3126 2
61.8608 30.7906 2
59.119 15.8358 2
58.6597 18.6307 2
58.0978 21.1999 2
60.9359 27.3021 2
59.9843 29.3774 2
57.5152 23.4831 2
58.4706 26.1294 2
57.0774 25.0709 2
56.4334 15.9787 2
54.1486 16.246 2
53.7201 13.8344 2
52.1021 8.20106 2
53.0395 11.0917 2
63.4441 35.6733 3.97628
62.1881 33.1515 3.97596
59.6784 30.8248 3.97534
58.6318 28.2104 3.97473
57.5581 17.2458 3.95687
56.7569 26.1354 3.97443
57.0977 19.8316 3.96188
56.5938 22.259 3.96871
56.2818 24.3861 3.97316
50.103 7.32227 3.97174
51.1913 10.2297 3.96465
52.1114 12.9386 3.96448
55.1855 17.2743 3.95531
52.8269 15.5003 3.9633
53.4553 17.2842 3.95507
53.0359 68.9945 0.0207632
53.9465 65.9629 0.0325333
62.6148 48.4824 0.026104
54.6374 63.0643 0.0336412
57.7732 60.7514 0.0510662
55.1195 60.4745 0.0267982
61.2084 52.3511 0.0271571
59.4901 49.724 0.0273549
57.6631 58.034 0.043151
57.4521 55.4797 0.0371601
58.7118 53.6501 0.0277295
52.0591 66.9716 2
52.9149 64.1033 2
56.4275 59.298 2
53.5802 61.4112 2
54.1 59.1135 2
60.1809 47.6384 2
58.9978 51.8063 2
57.0537 49.2457 2
56.3117 56.7032 2
56.2789 53.7222 2
51.1386 65.0496 3.96314
51.9686 62.3664 3.9617
55.1637 58.006 3.95859
52.6551 59.8887 3.956
53.4096 58.2306 3.96184
57.182 46.5068 3.97428
56.6791 51.3852 3.97278
55.1591 49.0928 3.97491
54.9196 55.4585 3.95834
54.4481 52.9526 3.95905
50.0978 67.8408 0.0281772
49.3171 65.8614 2
48.58 64.0267 3.97534
47.4453 66.5449 0.0269244
45.55 67.0785 2
46.8697 64.6498 2
46.3432 62.95 3.98799
45.1103 65.151 3.98206
43.6253 67.4484 3.97975
41.8589 69.8668 3.98194
43.9724 69.58 2
44.3728 71.8592 3.98863
46.0505 69.1452 0.0203917
46.609 71.3639 2
47.2057 73.7222 4
48.7971 70.7205 0.0138916
49.554 73.0099 2
51.8506 72.1454 0
50.9537 5.13619 3.98508
53.064 6.07939 2
54.0858 3.86728 4
55.0988 7.14393 0.0153839
56.25 5.02406 2
58.3339 6.31992 0
63.3965 46.5782 0.0256332
64.6636 42.9488 0.0240725
62.0764 44.0825 0.0242631
63.0815 40.8666 0.0235946
65.3011 39.3499 0.023704
67.6411 37.5263 0.0235058
65.4097 37.5072 2
63.2313 39.2401 2
62.6286 42.4545 2
61.6122 40.6262 2
61.1887 45.731 2
60.5669 43.5291 2
63.2951 37.4636 3.97645
61.2995 39.3145 3.97678
60.2916 41.8354 3.9769
59.2562 44.5501 3.97538
65.4002 35.6965 0.0237942
64.673 32.2355 0.0244196
63.6692 34.3128 0.0238205
61.8605 30.7909 0.0246815
59.1015 15.8375 0.0438462
58.657 18.6282 0.0373596
58.1042 21.1953 0.0311377
60.9357 27.3016 0.0256769
59.9835 29.3772 0.0246155
58.4729 26.1288 0.0254594
57.5199 23.4799 0.0275741
57.0827 25.0688 0.0254614
56.4517 15.9715 0.044958
54.1538 16.2463 0.0403507
53.7336 13.845 0.0472551
52.1028 8.19331 0.034485
53.0424 11.0985 0.0419339
63.4454 35.6733 2
62.1894 33.1519 2
59.6786 30.8246 2
57.5617 17.2483 2
57.0924 19.8342 2
56.5899 22.2631 2
58.6319 28.2098 2
56.2854 24.3874 2
56.7556 26.1343 2
50.1106 7.29452 2
55.183 17.2712 2
53.4568 17.2743 2
52.8151 15.4935 2
52.12 12.943 2
51.1948 10.2304 2
61.34 35.4207 3.97655
59.2691 32.9052 3.97594
57.4927 30.3662 3.97485
56.1852 27.776 3.9746
56.1328 18.4929 3.95877
55.2391 25.5805 3.97323
55.623 20.9473 3.96165
55.2144 23.3511 3.96867
48.0566 6.53567 3.97845
49.2955 9.40088 3.97067
50.3676 12.171 3.9642
51.2552 14.6834 3.97854
53.994 18.2742 3.958
52.0751 17.342 3.95725
52.0547 66.9661 0.0288304
52.9195 64.1164 0.0323152
60.1809 47.639 0.0264824
53.5872 61.4178 0.0338172
56.4281 59.2938 0.0463926
54.0996 59.1169 0.0359405
58.9966 51.8077 0.0275434
57.0535 49.2457 0.0270915
56.3162 56.7025 0.0420029
56.2788 53.7249 0.0330655
51.1424 65.0557 2
51.9765 62.4061 2
55.1659 58.0042 2
52.6421 59.8826 2
53.417 58.232 2
57.1811 46.5059 2
56.679 51.3829 2
55.1588 49.0919 2
54.9163 55.4559 2
54.4447 52.9502 2
50.2961 63.2851 3.97094
51.1003 60.7216 3.96993
53.846 56.9867 3.96601
51.9746 58.3487 3.96344
55.3184 43.8716 3.97495
54.2241 47.4241 3.97463
53.9198 50.8895 3.96582
53.3259 54.1625 3.96211
49.313 65.8617 0.0291328
48.5788 64.0513 2
47.9028 62.3741 3.99048
45.5487 67.0669 0.0217725
46.865 64.6553 0.0220313
43.6273 67.4505 2
46.3408 62.9523 2
45.1177 65.1372 2
45.9329 61.4615 3.98983
44.7385 63.3675 3.97756
43.345 65.4731 3.98016
41.6601 67.6685 3.97822
39.7016 70.0138 3.98073
41.8601 69.8686 2
42.1085 72.2037 3.98978
43.9702 69.5775 0.0183535
44.3761 71.8592 2
44.8159 74.2794 4
46.6046 71.3649 0.0122202
47.2057 73.7222 2
49.554 73.0099 0
48.7845 4.3257 3.98559
50.9534 5.13619 2
51.8506 2.85458 4
53.0619 6.08066 0.0198483
54.0858 3.86728 2
56.25 5.02411 0
61.1885 45.7315 0.0250581
62.6277 42.4548 0.0238452
60.5672 43.5291 0.0236392
61.6118 40.6262 0.0234882
63.23 39.2401 0.0235659
65.4102 37.5071 0.0238105
63.296 37.4637 2
61.2999 39.3147 2
60.2914 41.8353 2
59.2566 44.5497 2
61.115 37.4523 3.97696
59.1719 39.7779 3.97649
57.8248 42.7309 3.97606
63.4441 35.6733 0.0237222
62.1881 33.1515 0.0240395
59.6784 30.8248 0.0246579
57.5581 17.2458 0.043133
57.0977 19.8316 0.0381173
56.5938 22.259 0.0312869
58.6318 28.2104 0.0252723
56.7569 26.1354 0.0255723
56.2818 24.3861 0.0268353
55.1855 17.2743 0.0446943
53.4553 17.2842 0.0449317
52.8269 15.5003 0.0366996
50.103 7.32227 0.0282634
52.1114 12.9386 0.0355205
51.1913 10.2297 0.0353464
61.3408 35.4209 2
59.2687 32.9057 2
57.4926 30.3669 2
56.1317 18.4933 2
55.6376 20.9431 2
55.2283 23.3529 2
56.1852 27.776 2
55.2416 25.5838 2
48.0514 6.54721 2
49.2979 9.40109 2
54.005 18.2726 2
52.0799 17.3339 2
51.2495 14.6823 2
50.3725 12.1662 2
58.7781 35.206 3.9763
56.7097 32.4994 3.975
55.2596 29.7166 3.9749
54.2308 27.1046 3.9736
54.776 19.5773 3.96086
53.9065 24.5776 3.97082
54.1707 22.0479 3.96597
45.961 5.89731 3.97877
43.3681 7.49801 3.97867
47.3348 8.66681 3.96972
48.5531 11.4135 3.96496
49.5995 13.9479 3.98025
50.4275 16.3702 3.9614
52.6797 19.0607 3.95481
50.9782 18.4538 3.95612
51.1386 65.0496 0.0368623
51.9686 62.3664 0.0383
57.182 46.5068 0.0257199
52.6551 59.8887 0.0439983
55.1637 58.006 0.0414113
53.4096 58.2306 0.0381619
56.6791 51.3852 0.0272244
55.1591 49.0928 0.025089
54.9196 55.4585 0.0416558
54.4481 52.9526 0.0409505
50.2903 63.2645 2
51.0977 60.7265 2
53.8417 56.9853 2
51.9649 58.3485 2
55.3209 43.8705 2
54.2246 47.4242 2
53.9159 50.8867 2
53.3142 54.1609 2
49.4916 61.6343 3.97634
53.9715 41.5212 3.97482
50.3243 59.0864 3.96957
51.6597 56.1512 3.96223
52.5891 45.0782 3.97247
51.9796 48.7622 3.96987
51.7567 52.3963 3.95793
48.58 64.0267 0.0246632
47.8943 62.3822 2
47.2433 60.8893 3.99175
43.6253 67.4484 0.0202525
45.1103 65.151 0.0179448
46.3432 62.95 0.0120068
41.663 67.6696 2
43.3561 65.4656 2
45.9328 61.4704 2
44.7391 63.3616 2
45.6743 60.5038 3.99776
44.4393 61.7295 3.98815
43.1278 63.6547 3.98177
41.5409 65.6075 3.97198
39.6315 67.7465 3.97588
37.5264 70.038 3.9811
39.7025 70.0134 2
39.8164 72.4012 3.98999
41.8589 69.8668 0.0180593
42.1104 72.2044 2
42.3947 74.6792 4
44.3728 71.8592 0.0113732
44.8159 74.2794 2
47.2057 73.7222 0
43.8496 5.37084 3.9778
46.569 3.65121 3.98701
48.7835 4.32907 2
49.554 1.99015 4
50.9537 5.13619 0.0149232
51.8506 2.85453 2
54.0858 3.86728 0
59.2562 44.5501 0.0246227
60.2916 41.8354 0.0230985
61.2995 39.3145 0.0232165
63.2951 37.4636 0.0235524
61.1152 37.4523 2
59.1706 39.7781 2
57.8224 42.7297 2
58.6214 37.5725 3.97696
56.6897 40.5222 3.97763
53.3345 39.5855 3.97674
61.34 35.4207 0.0234524
59.2691 32.9052 0.0240556
57.4927 30.3662 0.0251492
56.1328 18.4929 0.0412254
55.623 20.9473 0.0383542
55.2144 23.3511 0.0313319
56.1852 27.776 0.0253951
55.2391 25.5805 0.0267746
53.994 18.2742 0.0419993
52.0751 17.342 0.0427544
51.2552 14.6834 0.0214568
48.0566 6.53567 0.0215504
49.2955 9.40088 0.0293328
50.3676 12.171 0.0357959
58.7766 35.2055 2
45.9613 5.8951 2
43.3683 7.50076 2
56.7098 32.5001 2
55.2615 29.715 2
54.7652 19.5819 2
54.1958 22.0474 2
53.9051 24.5855 2
54.2308 27.1036 2
47.3374 8.65705 2
48.5555 11.4084 2
52.6851 19.0275 2
50.991 18.4509 2
50.4409 16.3775 2
49.5973 13.9465 2
55.9936 34.8933 3.97728
54.23 31.8536 3.9741
53.0947 28.886 3.97529
52.5992 26.0605 3.97242
53.357 20.5764 3.96652
52.6938 23.2577 3.9698
41.3952 7.09541 3.97635
45.3463 8.0139 3.98376
42.8548 9.45077 3.97319
46.6352 10.7407 3.97228
47.6604 13.2458 3.97607
48.7454 15.6011 3.9745
49.7053 18.022 3.95692
51.1935 19.7732 3.97664
50.2961 63.2851 0.0290584
51.1003 60.7216 0.0300669
55.3184 43.8716 0.0250475
54.2241 47.4241 0.0253659
51.9746 58.3487 0.0365634
53.846 56.9867 0.0339934
53.9198 50.8895 0.0341792
53.3259 54.1625 0.037892
49.4958 61.6332 2
53.9614 41.5133 2
50.3206 59.0942 2
51.6609 56.1545 2
52.5803 45.0724 2
51.9749 48.7593 2
51.7592 52.3961 2
48.6834 60.073 3.99535
50.493 42.2901 3.98201
49.4202 57.3733 3.95981
49.9017 54.0293 3.95987
50.2527 46.6438 3.97708
50.0917 50.4257 3.9548
46.2882 43.1959 3.95479
47.9028 62.3741 0.00951877
47.2456 60.8842 2
46.483 59.6735 3.99332
41.6601 67.6685 0.0217806
43.345 65.4731 0.0198378
44.7385 63.3675 0.0224438
45.9329 61.4615 0.0101693
39.6343 67.7462 2
41.548 65.6042 2
45.6789 60.511 2
43.1258 63.6563 2
44.4386 61.7273 2
44.5588 60.1597 3.99377
42.9151 61.9898 3.97979
41.5845 63.7729 3.98362
39.6433 65.5802 3.97503
37.5631 67.7289 3.97504
31.7053 65.088 3.97511
33.3954 67.4668 3.97846
35.3349 69.9501 3.98159
37.5263 70.0402 2
37.5096 72.4549 3.99055
39.7016 70.0138 0.0192675
39.8177 72.401 2
39.9526 74.9197 4
42.1085 72.2037 0.0102189
42.3947 74.6792 2
44.8159 74.2794 0
41.7345 4.97822 3.98258
43.8495 5.37182 2
44.3252 3.11372 3.98857
46.5703 3.65051 2
47.2057 1.27793 4
48.7845 4.3257 0.0144113
49.554 1.99013 2
51.8506 2.85458 0
57.8248 42.7309 0.0239435
59.1719 39.7779 0.0235096
61.115 37.4523 0.0230421
58.6221 37.5729 2
56.6896 40.5241 2
53.3279 39.5919 2
55.3105 37.8829 3.97708
47.4997 41.0401 3.96539
50.9892 39.2389 3.97953
39.438 6.81791 3.97612
58.7781 35.206 0.0236952
56.7097 32.4994 0.0249952
55.2596 29.7166 0.0251003
54.776 19.5773 0.0391426
54.1707 22.0479 0.0340277
53.9065 24.5776 0.029177
54.2308 27.1046 0.0263976
52.6797 19.0607 0.0451945
50.9782 18.4538 0.0438829
50.4275 16.3702 0.0385973
45.961 5.89731 0.0212324
49.5995 13.9479 0.0197527
47.3348 8.66681 0.030284
48.5531 11.4135 0.0350393
43.3681 7.49801 0.0213257
55.9904 34.8946 2
41.3959 7.09767 2
45.3471 8.01238 2
42.8531 9.45089 2
54.2245 31.8529 2
53.0892 28.8882 2
53.3563 20.5834 2
52.6787 23.2732 2
52.6029 26.0559 2
46.6356 10.7317 2
47.6623 13.2318 2
51.2107 19.7726 2
49.7092 17.991 2
48.7598 15.6212 2
53.1033 34.1715 3.97569
51.84 30.931 3.97486
51.2278 27.7776 3.97516
51.0811 24.6939 3.97271
51.7342 21.5652 3.97047
41.0044 9.07009 3.9766
44.7088 10.0515 3.97848
42.4442 10.9499 4.00113
45.9366 12.8254 3.97466
47.5441 14.7705 3.9775
47.848 17.1923 3.96875
49.4533 20.1679 3.98708
49.4916 61.6343 0.023663
50.3243 59.0864 0.0304261
53.9715 41.5212 0.0251809
52.5891 45.0782 0.0275317
51.9796 48.7622 0.0301338
51.6597 56.1512 0.0377687
51.7567 52.3963 0.0420708
48.6794 60.0765 2
50.5141 42.3175 2
49.4176 57.3685 2
49.9003 54.0306 2
50.2527 46.6429 2
50.0947 50.4252 2
46.2956 43.2253 2
47.7569 58.5203 3.99151
48.2785 44.7948 3.98384
48.1115 55.6136 3.9467
48.3008 52.1502 3.97086
48.3902 48.4693 3.97634
43.9134 39.634 3.7966
44.507 42.1559 3.84584
44.9135 45.0868 3.96478
41.8725 40.9352 3.53599
41.0279 41.3186 3.34232
47.2433 60.8893 0.00825024
46.4888 59.6733 2
45.3197 58.6345 3.99339
39.6315 67.7465 0.0241192
41.5409 65.6075 0.0280196
43.1278 63.6547 0.0182347
44.4393 61.7295 0.0118503
45.6743 60.5038 0.00224409
41.5881 63.7679 2
37.5654 67.7314 2
39.6482 65.5837 2
44.5556 60.1773 2
42.9144 61.9864 2
41.7261 62.421 3.98706
42.4329 59.8383 3.99066
39.8828 63.5129 3.98002
37.6409 65.4821 3.9768
35.4641 67.6394 3.97442
33.5797 65.3069 3.97237
31.9757 63.2432 3.99417
29.9011 64.6774 3.98278
31.6968 65.0965 2
31.3844 67.1802 3.97883
33.3969 67.4723 2
33.1592 69.7427 3.98171
35.3344 69.9513 2
35.1969 72.3705 3.99103
37.5264 70.038 0.0188988
37.5103 72.4558 2
37.5 75 4
39.8164 72.4012 0.010007
39.9526 74.9197 2
42.3947 74.6792 0
39.6231 4.72388 3.98456
41.7345 4.97909 2
42.0618 2.72076 3.98912
43.8496 5.37084 0.0222027
44.3253 3.11401 2
44.8158 0.721173 4
46.569 3.65121 0.0129886
47.2057 1.27779 2
49.554 1.99015 0
56.6897 40.5222 0.022369
58.6214 37.5725 0.0230443
53.3345 39.5855 0.023256
47.54 41.0606 2
55.3092 37.8808 2
51.0091 39.2187 2
51.9409 36.6348 3.97695
45.4089 40.1603 3.87318
48.2816 38.435 3.96063
37.5126 6.68838 3.98046
39.4394 6.81678 2
39.2071 8.72256 3.98735
35.9429 8.51988 3.97434
55.9936 34.8933 0.0227247
54.23 31.8536 0.0259006
53.0947 28.886 0.024711
53.357 20.5764 0.0334759
52.6938 23.2577 0.0301974
52.5992 26.0605 0.0275846
51.1935 19.7732 0.0233604
49.7053 18.022 0.0430816
48.7454 15.6011 0.0254966
45.3463 8.0139 0.016239
47.6604 13.2458 0.0239328
46.6352 10.7407 0.02772
41.3952 7.09541 0.0236471
42.8548 9.45077 0.0268075
53.1056 34.1771 2
41.0019 9.07339 2
44.7089 10.0448 2
42.4454 10.9484 2
51.8436 30.9283 2
51.2292 27.7798 2
51.72 21.5722 2
51.0667 24.7011 2
45.9354 12.8149 2
47.5399 14.7487 2
49.4827 20.1886 2
47.8512 17.1792 2
50.4475 33.1925 3.97425
49.6361 29.771 3.97681
49.5286 26.3179 3.97167
49.2558 22.7407 3.97481
40.556 11.637 3.99062
43.8053 11.9824 3.97097
45.6612 15.6238 4.00803
47.1857 19.7231 3.97754
44.086 37.5114 3.80925
48.6834 60.073 0.00464669
49.4202 57.3733 0.0401867
50.493 42.2901 0.0179899
50.2527 46.6438 0.0229231
50.0917 50.4257 0.0452005
49.9017 54.0293 0.0401252
46.2882 43.1959 0.0452051
47.7474 58.5251 2
48.2909 44.8026 2
48.1052 55.6141 2
48.2993 52.1549 2
48.395 48.4708 2
44.0289 39.657 2
44.5594 42.2132 2
44.9184 45.1129 2
41.9675 41.0032 2
41.0776 41.3326 2
46.5383 57.0973 3.99374
42.4141 39.4284 3.53897
41.3918 40.3325 3.32539
46.6057 46.6941 3.99811
46.5834 53.8624 3.95252
46.6106 50.2646 3.97275
43.626 46.6748 3.97342
43.2125 41.5835 3.8036
43.4906 43.8982 3.83481
41.3893 42.0312 3.54845
40.2389 41.5867 3.25633
46.483 59.6735 0.00667886
45.3144 58.6387 2
43.7368 57.4856 3.99628
37.5631 67.7289 0.0249564
39.6433 65.5802 0.0249687
41.5845 63.7729 0.0163807
42.9151 61.9898 0.0202068
44.5588 60.1597 0.0062284
35.4658 67.6404 2
41.7246 62.4167 2
39.8842 63.5177 2
37.6432 65.486 2
42.4308 59.8477 2
40.6004 61.5521 3.99
40.3998 58.0233 3.9936
37.8324 63.1654 3.97503
35.5741 65.398 3.97311
33.5741 65.2993 2
31.9737 63.2272 2
33.6386 63.2974 3.99118
30.4117 62.773 3.97915
32.1426 61.942 3.98397
26.9521 61.3351 3.98854
28.0956 64.0673 3.9874
29.8962 64.6726 2
29.4174 66.7323 3.97952
31.7053 65.088 0.0248923
31.3854 67.1835 2
31.0178 69.4088 3.98242
33.3954 67.4668 0.0215369
33.158 69.7459 2
32.8956 72.1444 3.9905
35.3349 69.9501 0.0184129
35.1964 72.3712 2
35.0474 74.9194 4
37.5096 72.4549 0.00945078
37.5 75 2
39.9526 74.9197 0
35.6184 6.74062 3.97715
37.5233 4.62373 3.9844
39.6228 4.72274 2
39.7886 2.47672 3.99086
41.7345 4.97822 0.0174196
42.0617 2.72101 2
42.3946 0.32156 4
44.3252 3.11372 0.011432
44.8159 0.72056 2
47.2057 1.27793 0
47.4997 41.0401 0.0346113
55.3105 37.8829 0.0229165
50.9892 39.2389 0.0204708
45.5004 40.1518 2
48.3515 38.4558 2
51.9297 36.634 2
49.1643 35.6775 3.97806
45.8939 37.6746 3.82091
43.9515 35.3607 3.79919
41.9253 34.034 3.53531
41.076 33.6374 3.34674
37.4583 8.55294 3.9771
37.514 6.68838 2
39.438 6.81791 0.0238845
39.2065 8.72649 2
38.9707 10.163 3.99421
35.8992 9.8048 3.98157
34.1534 8.85195 3.97572
35.9406 8.51834 2
53.1033 34.1715 0.024307
51.84 30.931 0.0251424
51.2278 27.7776 0.0248382
51.7342 21.5652 0.0295259
51.0811 24.6939 0.0272874
49.4533 20.1679 0.012922
47.848 17.1923 0.0312502
47.5441 14.7705 0.0225033
44.7088 10.0515 0.0215198
45.9366 12.8254 0.0253418
41.0044 9.07009 0.0233976
42.4442 10.9499 -0.00112886
50.4758 33.1752 2
40.5597 11.6509 2
43.8051 11.952 2
49.6433 29.7668 2
49.5267 26.336 2
49.2505 22.7319 2
45.6463 15.5656 2
47.2102 19.7781 2
48.0629 31.7479 3.98007
47.8441 28.1063 3.97677
48.4001 24.915 3.95987
46.6866 22.5632 3.98717
38.3023 12.7878 3.97997
42.0365 14.4409 3.99947
44.5487 18.7232 3.98496
42.5797 37.4939 3.5248
44.2206 37.5019 2
47.7569 58.5203 0.00849202
48.1115 55.6136 0.0532975
48.2785 44.7948 0.0161636
48.3902 48.4693 0.0236592
48.3008 52.1502 0.0291415
43.9134 39.634 0.203403
44.507 42.1559 0.15416
44.9135 45.0868 0.0352232
41.8725 40.9352 0.46401
41.0279 41.3186 0.657679
46.5333 57.1003 2
42.5002 39.4341 2
41.4308 40.3304 2
46.6111 46.6984 2
46.5739 53.8646 2
46.6087 50.2774 2
43.6674 46.6988 2
43.2837 41.6319 2
43.5614 43.9401 2
41.4544 42.1305 2
40.3457 41.6063 2
45.0283 55.6581 4.0046
41.6604 38.953 3.33601
40.0546 40.332 3.32464
44.981 48.3403 4.00622
44.7906 52.0721 3.99701
42.4813 47.6511 3.98494
42.317 45.3159 3.84737
42.3663 43.1757 3.75411
40.6087 42.8617 3.52125
39.0681 41.907 3.34716
45.3197 58.6345 0.00661492
43.7382 57.4979 2
41.9707 56.0197 3.9966
35.4641 67.6394 0.0255839
37.6409 65.4821 0.0232043
39.8828 63.5129 0.019977
41.7261 62.421 0.0129403
42.4329 59.8383 0.00933533
35.5758 65.4064 2
40.6008 61.5403 2
37.8345 63.1711 2
40.4 58.0371 2
38.8963 56.1764 3.99643
38.233 60.2305 3.99017
35.6092 63.1602 3.97535
33.5797 65.3069 0.0276284
31.9757 63.2432 0.00582948
33.637 63.3004 2
30.4078 62.761 2
32.1545 61.9288 2
28.7407 62.079 3.9891
33.3637 61.466 3.99165
31.1485 61.1224 3.99762
27.7186 59.4347 3.97636
23.9846 58.847 3.97108
25.144 60.6492 3.98482
26.945 61.345 2
26.2838 63.3746 3.97948
28.0957 64.0741 2
27.4821 66.1532 3.97557
29.9011 64.6774 0.0172161
29.4173 66.745 2
28.9134 68.9291 3.97967
31.3844 67.1802 0.0211672
31.0155 69.4105 2
30.6193 71.7765 3.99
33.1592 69.7427 0.0182853
32.8938 72.1456 2
32.6054 74.6784 4
35.1969 72.3705 0.00896637
35.0474 74.9197 2
37.5 75 0
33.7221 6.99919 3.97471
35.4359 4.69368 3.98432
35.6194 6.73992 2
37.5149 2.38932 3.99083
37.5223 4.62295 2
39.6231 4.72388 0.0154428
39.7881 2.47637 2
39.9526 0.0806499 4
42.0618 2.72076 0.0108765
42.3947 0.320817 2
44.8158 0.721173 0
42.4602 35.5474 3.5425
41.4332 34.6165 3.30957
45.4089 40.1603 0.126822
48.2816 38.435 0.0393664
51.9409 36.6348 0.0230483
45.9563 37.696 2
49.2207 35.6868 2
44.0651 35.334 2
42.0116 33.9573 2
41.097 33.6243 2
46.3138 34.6134 3.91407
43.2576 33.3829 3.79434
41.4209 32.9325 3.55023
40.2529 33.3766 3.25368
37.3097 10.6591 3.98133
37.4581 8.55209 2
37.5126 6.68838 0.0195441
39.2071 8.72256 0.012651
38.9739 10.1654 2
34.759 10.4189 3.97446
35.9055 9.80372 2
32.384 9.40513 3.97108
34.1516 8.85255 2
35.9429 8.51988 0.0256647
50.4475 33.1925 0.0257499
49.6361 29.771 0.0231914
49.5286 26.3179 0.02833
49.2558 22.7407 0.0251939
47.1857 19.7231 0.022458
45.6612 15.6238 -0.00803084
43.8053 11.9824 0.0290294
40.556 11.637 0.0093847
48.0821 31.7216 2
38.2986 12.7878 2
42.0425 14.4245 2
47.833 28.106 2
48.3993 24.9302 2
46.6786 22.5581 2
44.5786 18.794 2
46.1112 30.1564 3.97603
46.1046 25.6211 3.97794
43.9406 21.8424 3.98503
36.5981 13.007 3.98061
38.6635 14.9588 3.98335
41.6249 18.0913 3.99043
41.7586 37.4588 3.32904
42.6794 37.4942 2
44.086 37.5114 0.190755
46.5383 57.0973 0.00625845
46.5834 53.8624 0.0474782
46.6057 46.6941 0.00188967
46.6106 50.2646 0.0272504
42.4141 39.4284 0.461027
43.2125 41.5835 0.196403
43.4906 43.8982 0.165185
43.626 46.6748 0.0265788
41.3893 42.0312 0.451546
41.3918 40.3325 0.674613
40.2389 41.5867 0.743669
45.0233 55.6585 2
41.7036 38.9577 2
40.1593 40.3148 2
44.9786 48.3673 2
44.7788 52.0706 2
42.5294 47.6769 2
42.3824 45.4088 2
42.4302 43.2098 2
40.6771 42.9631 2
38.9999 41.963 2
43.3562 54.0426 4.00331
40.0362 38.9009 3.36376
38.9943 40.4376 3.34122
42.8397 49.7727 4.00541
41.2241 46.7833 3.90735
41.1225 44.3573 3.75661
39.373 43.5484 3.54378
37.5097 42.0835 3.42733
43.7368 57.4856 0.00371887
41.9628 56.0091 2
40.2853 54.5637 3.99757
35.5741 65.398 0.0268943
37.8324 63.1654 0.0249693
40.6004 61.5521 0.0100028
40.3998 58.0233 0.00639771
35.6103 63.167 2
38.2342 60.2132 2
38.8971 56.1642 2
37.9657 54.8583 3.99552
36.9277 57.4386 3.9929
35.3647 60.8314 3.98421
33.6386 63.2974 0.00881962
30.4117 62.773 0.0208513
32.1426 61.942 0.0160349
33.3806 61.4618 2
28.7309 62.0928 2
31.1424 61.1196 2
29.5336 60.2532 3.98784
32.4032 59.5909 3.99511
28.2141 58.1732 4.00821
27.7193 59.45 2
25.5826 58.3725 3.96798
23.0121 57.9831 3.9611
23.5264 60.128 3.96864
23.9842 58.8468 2
25.1396 60.6482 2
24.505 62.6365 3.96428
26.9521 61.3351 0.0114634
26.2833 63.3935 2
25.5767 65.4265 3.97402
28.0956 64.0673 0.0125972
27.477 66.1388 2
26.8467 68.3207 3.98121
29.4174 66.7323 0.0204841
28.9088 68.9324 2
28.3757 71.2605 3.98683
31.0178 69.4088 0.0175773
30.6163 71.7763 2
30.1842 74.2788 4
32.8956 72.1444 0.00949801
32.6053 74.6792 2
35.0474 74.9194 0
31.7881 7.44397 3.97244
33.3488 4.93462 3.98199
33.723 6.99788 2
35.2458 2.46541 3.99066
35.4339 4.69352 2
35.6184 6.74062 0.0228514
37.5 0 4
37.5136 2.38922 2
37.5233 4.62373 0.0156009
39.7886 2.47672 0.00913761
39.9526 0.0802889 2
42.3946 0.32156 0
41.672 35.9683 3.274
42.5658 35.5418 2
40.109 34.6155 3.35265
41.4687 34.6109 2
45.8939 37.6746 0.17909
49.1643 35.6775 0.0219376
43.9515 35.3607 0.200806
41.9253 34.034 0.464691
41.076 33.6374 0.653262
46.3681 34.604 2
43.321 33.3354 2
41.4758 32.8401 2
40.319 33.363 2
44.5479 32.126 3.8683
42.3886 31.7912 3.74316
40.6396 32.1001 3.52899
39.0557 33.0589 3.35055
35.7027 11.8271 3.9724
37.3174 10.6553 2
37.4583 8.55294 0.0229037
38.9707 10.163 0.00578704
33.1106 11.2754 3.96904
34.7643 10.4136 2
35.8992 9.8048 0.0184305
30.4953 10.0712 3.97004
32.3818 9.41009 2
34.1534 8.85195 0.024277
48.0629 31.7479 0.0199318
47.8441 28.1063 0.0232273
48.4001 24.915 0.0401278
46.6866 22.5632 0.0128312
44.5487 18.7232 0.0150402
42.0365 14.4409 0.000532955
38.3023 12.7878 0.020027
36.5929 13.0064 2
46.0847 30.1023 2
38.6657 14.9394 2
41.5909 18.0507 2
46.1019 25.6113 2
43.9368 21.8406 2
44.265 28.3472 3.98471
43.1163 24.5263 4.00482
41.0719 21.1537 3.99563
35.7944 14.845 3.98979
38.6157 17.8503 3.9925
40.0858 37.4061 3.39763
41.8154 37.4696 2
42.5797 37.4939 0.475198
45.0283 55.6581 -0.00459775
44.7906 52.0721 0.0029868
44.981 48.3403 -0.00622408
41.6604 38.953 0.66399
42.3663 43.1757 0.245891
42.317 45.3159 0.152626
42.4813 47.6511 0.015063
40.6087 42.8617 0.478753
40.0546 40.332 0.675365
39.0681 41.907 0.652845
43.3536 54.0338 2
40.1082 38.904 2
38.933 40.4381 2
42.8152 49.7938 2
41.2295 46.8112 2
41.1456 44.4158 2
37.4909 42.0995 2
39.3849 43.6526 2
41.5135 52.4999 4.00622
38.999 38.9552 3.32264
37.503 40.4667 3.43614
35.9232 41.9296 3.34844
40.5238 48.9593 3.98573
39.499 45.0771 3.73416
37.494 43.8751 3.59738
41.9707 56.0197 0.00340487
40.2797 54.564 2
38.6478 53.3146 3.99914
35.6092 63.1602 0.0246502
38.233 60.2305 0.00983081
38.8963 56.1764 0.00356961
35.3778 60.8205 2
36.9332 57.4502 2
37.952 54.8539 2
36.329 54.9901 3.99571
34.5065 58.3534 3.99549
33.3637 61.466 0.00835031
28.7407 62.079 0.0109039
31.1485 61.1224 0.00237841
32.4038 59.5757 2
29.5333 60.2628 2
30.444 57.4997 3.98248
28.2055 58.1541 2
27.2561 56.5948 3.96011
27.7186 59.4347 0.0236398
25.583 58.3702 2
24.2169 56.5163 3.95139
21.7378 57.0952 3.96031
22.1533 59.3996 3.96714
23.0061 57.9862 2
22.8261 61.8349 3.96885
23.5253 60.1292 2
23.9846 58.847 0.0289204
25.144 60.6492 0.015177
24.5033 62.6501 2
23.7203 64.6316 3.96208
26.2838 63.3746 0.0205166
25.5701 65.4162 2
24.8216 67.5828 3.96931
27.4821 66.1532 0.0244286
26.8407 68.3232 2
26.1715 70.6026 3.98639
28.9134 68.9291 0.0203254
28.3712 71.2607 2
27.7943 73.7221 4
30.6193 71.7765 0.0100022
30.1841 74.2794 2
32.6054 74.6784 0
29.8119 8.02586 3.96889
31.2542 5.34323 3.97994
31.7884 7.43933 2
32.9822 2.70392 3.98959
33.346 4.93417 2
33.7221 6.99919 0.025294
35.0474 0.080333 4
35.2438 2.46553 2
35.4359 4.69368 0.0156763
37.5 0 2
37.5149 2.38932 0.00917122
39.9526 0.0806499 0
40.219 35.9853 3.41861
41.7348 35.9638 2
42.4602 35.5474 0.457496
28.5601 10.7612 3.96892
38.9624 34.5492 3.31672
40.1195 34.6037 2
41.4332 34.6165 0.690428
46.3138 34.6134 0.0859319
43.2576 33.3829 0.205658
41.4209 32.9325 0.449767
40.2529 33.3766 0.746323
44.5691 32.0894 2
42.4622 31.7461 2
40.705 32.0006 2
39.0042 33.0051 2
43.1241 30.4612 3.84892
41.1411 30.5722 3.75909
39.3653 31.4117 3.54695
37.4913 32.9056 3.42378
34.116 13.0037 3.98309
35.7064 11.818 2
37.3097 10.6591 0.018673
31.2074 12.0646 3.9704
33.1147 11.2632 2
34.759 10.4189 0.0255389
30.4899 10.0674 2
32.384 9.40513 0.0289189
46.1112 30.1564 0.0239662
46.1046 25.6211 0.0220609
36.5981 13.007 0.0193871
43.9406 21.8424 0.0149661
41.6249 18.0913 0.00957313
38.6635 14.9588 0.0166475
35.7754 14.865 2
44.2578 28.3594 2
38.6146 17.8549 2
41.1033 21.1485 2
43.1055 24.5093 2
33.6606 15.9911 3.99295
42.2501 27.1123 3.96906
40.6698 23.9472 4.00401
38.3428 20.6932 3.99713
35.846 17.757 3.99298
38.9847 37.483 3.28262
40.1295 37.4143 2
41.7586 37.4588 0.67096
43.3562 54.0426 -0.00330613
42.8397 49.7727 -0.00541414
40.0362 38.9009 0.636236
41.1225 44.3573 0.243395
41.2241 46.7833 0.0926533
39.373 43.5484 0.456223
38.9943 40.4376 0.658779
37.5097 42.0835 0.572669
41.4984 52.491 2
38.9555 38.9556 2
37.4759 40.4778 2
40.512 48.9653 2
35.9805 41.9791 2
39.5345 45.1579 2
37.4869 43.9669 2
39.6346 51.2186 3.99817
37.4884 38.9536 3.39272
36.0708 40.4611 3.32672
34.7742 41.6143 3.24878
35.6241 43.5691 3.54225
38.5412 47.7762 3.91397
37.4687 45.3672 3.76568
40.2853 54.5637 0.00243156
38.6349 53.3271 2
36.7863 52.6503 4.00003
35.3647 60.8314 0.0157937
36.9277 57.4386 0.00710148
37.9657 54.8583 0.00448349
34.5057 58.36 2
36.3287 54.9901 2
33.4716 55.1652 4.00538
32.4032 59.5909 0.00488598
29.5336 60.2532 0.0121645
30.4456 57.4972 2
29.1197 55.112 3.98487
28.2141 58.1732 -0.00821459
27.2577 56.5889 2
25.8239 54.8307 3.95194
22.4201 54.9796 3.95871
25.5826 58.3725 0.032019
24.2124 56.5173 2
20.6266 56.7294 3.96151
20.8722 58.5368 3.95584
21.7354 57.0985 2
21.2713 60.9636 3.96321
22.1499 59.4065 2
23.0121 57.9831 0.0389043
21.9464 63.7127 3.96531
22.8223 61.84 2
23.5264 60.128 0.0313577
24.505 62.6365 0.0357231
23.7129 64.6309 2
22.8528 66.7054 3.96592
25.5767 65.4265 0.0259795
24.8159 67.577 2
24.0155 69.8044 3.98517
26.8467 68.3207 0.0187883
26.1649 70.6012 2
25.446 73.0099 4
28.3757 71.2605 0.0131686
27.7943 73.7222 2
30.1842 74.2788 0
27.8241 8.70721 3.97015
29.1564 5.89007 3.97772
29.8118 8.02512 2
30.7282 3.10136 3.98841
31.2512 5.34307 2
31.7881 7.44397 0.0275568
32.6053 0.320823 4
32.9794 2.70411 2
33.3488 4.93462 0.0180093
35.0474 0.0802903 2
35.2458 2.46541 0.0093417
37.5 0 0
38.8416 36.0298 3.29743
40.1909 35.9874 2
41.672 35.9683 0.725997
28.5576 10.7636 2
26.6453 11.4753 3.97016
29.2559 12.7117 3.97577
37.5025 34.5306 3.43518
38.9659 34.5547 2
40.109 34.6155 0.647351
44.5479 32.126 0.131703
42.3886 31.7912 0.256837
40.6396 32.1001 0.47101
39.0557 33.0589 0.649452
43.196 30.4054 2
41.1913 30.5076 2
39.3772 31.3062 2
37.5091 32.8853 2
41.5447 29.2136 3.84466
39.5266 29.899 3.75422
37.4926 31.0945 3.60124
35.9288 33.0741 3.35494
31.9664 14.5747 3.98439
34.1164 12.9953 2
35.7027 11.8271 0.0276005
31.2072 12.0542 2
33.1106 11.2754 0.0309583
30.4953 10.0712 0.0299573
44.265 28.3472 0.0152873
43.1163 24.5263 -0.00481552
35.7944 14.845 0.0102104
41.0719 21.1537 0.00437387
38.6157 17.8503 0.00749518
33.6386 15.9706 2
35.8441 17.6799 2
42.3032 27.0629 2
38.3127 20.7527 2
40.63 23.9718 2
33.5992 17.5812 3.98967
40.0844 26.4654 3.95532
37.987 23.7199 3.99632
35.5524 20.5748 3.9923
37.5328 37.4844 3.41735
38.9344 37.4895 2
40.0858 37.4061 0.602365
41.5135 52.4999 -0.00622387
40.5238 48.9593 0.0142679
38.999 38.9552 0.677364
39.499 45.0771 0.265843
37.494 43.8751 0.402621
37.503 40.4667 0.56386
35.9232 41.9296 0.651558
39.6193 51.2016 2
37.4638 38.9665 2
36.0493 40.431 2
38.5732 47.845 2
34.6899 41.6312 2
35.6052 43.6779 2
37.4892 45.4468 2
37.6929 50.1983 3.98824
36.1754 38.9951 3.30852
34.8952 40.3561 3.35749
33.9503 41.3549 3.34566
34.3971 42.8939 3.51993
35.4564 45.1609 3.76439
36.965 47.4101 3.86329
38.6478 53.3146 0.000857187
36.8184 52.5836 2
34.58 52.0218 3.99878
34.5065 58.3534 0.00450587
36.329 54.9901 0.00428843
33.4773 55.164 2
31.0125 53.1178 3.9945
30.444 57.4997 0.0175221
29.1269 55.1134 2
27.5277 53.0918 3.95135
27.2561 56.5948 0.0398881
25.8369 54.8267 2
24.3425 53.0571 3.95287
21.3778 52.7758 3.95864
20.5219 55.4822 3.95949
22.4236 54.9803 2
24.2169 56.5163 0.0486112
19.7608 57.6248 3.9603
20.6232 56.7324 2
19.818 60.0142 3.96373
20.8585 58.5441 2
21.7378 57.0952 0.0396924
20.2787 62.677 3.96867
21.2767 60.9759 2
22.1533 59.3996 0.032859
20.9616 65.6978 3.964
21.9433 63.7017 2
22.8261 61.8349 0.0311524
23.7203 64.6316 0.0379177
22.8482 66.6946 2
21.9195 68.8682 3.98
24.8216 67.5828 0.0306883
24.0089 69.7998 2
23.1494 72.1454 4
26.1715 70.6026 0.0136079
25.446 73.0099 2
27.7943 73.7221 0
25.8651 9.45486 3.96841
27.0716 6.55655 3.97342
27.8238 8.69443 2
28.491 3.64668 3.98765
29.1531 5.88958 2
29.8119 8.02586 0.0311125
30.1841 0.720592 4
30.7242 3.10181 2
31.2542 5.34323 0.0200557
32.6053 0.320817 2
32.9822 2.70392 0.0104107
35.0474 0.080333 0
37.5261 36.0111 3.3799
38.8119 35.9807 2
40.219 35.9853 0.581394
24.8131 12.1578 3.96395
23.8296 14.6046 3.98233
28.5601 10.7612 0.0310756
26.6427 11.4683 2
29.2501 12.7431 2
27.3238 13.5109 3.9757
29.8449 14.2651 4.00565
36.0078 34.5468 3.34969
37.5435 34.507 2
38.9624 34.5492 0.683281
37.4913 32.9056 0.576215
43.1241 30.4612 0.151085
41.1411 30.5722 0.240905
39.3653 31.4117 0.453052
41.5748 29.1307 2
39.5247 29.8059 2
37.493 31.0081 2
35.9852 33.0199 2
39.6816 28.5025 3.83345
37.4805 29.5656 3.74756
35.6244 31.435 3.54547
34.7382 33.3985 3.26165
31.0288 16.9417 3.99608
31.9558 14.5455 2
34.116 13.0037 0.0169146
31.2074 12.0646 0.0296017
42.2501 27.1123 0.0309354
40.6698 23.9472 -0.00401269
33.6606 15.9911 0.00705257
35.846 17.757 0.00702453
38.3428 20.6932 0.00286693
33.5536 17.6047 2
35.4916 20.6201 2
40.0941 26.4575 2
38.0443 23.7136 2
33.056 20.1697 3.99632
37.7711 26.1313 3.95411
35.4508 23.3346 4.00366
36.1105 37.4827 3.29238
37.4955 37.4808 2
38.9847 37.483 0.717375
39.6346 51.2186 0.00183399
38.5412 47.7762 0.0860349
37.4884 38.9536 0.60728
37.4687 45.3672 0.234319
35.6241 43.5691 0.457747
36.0708 40.4611 0.673285
34.7742 41.6143 0.751219
37.6182 50.2387 2
36.2374 38.9743 2
34.8647 40.3795 2
36.9317 47.4874 2
33.9066 41.3704 2
34.3271 42.9883 2
35.4238 45.2281 2
35.615 49.3714 3.98068
34.8386 38.9578 3.41828
33.5784 40.3786 3.31015
33.6059 42.0639 3.54793
33.9097 44.3954 3.74805
34.7856 46.5723 3.84373
36.7863 52.6503 -3.03769e-05
34.5662 52.0356 2
32.5573 50.7373 4.0055
33.4716 55.1652 -0.0053787
31.0187 53.1147 2
29.153 51.0816 3.98453
29.1197 55.112 0.0151258
27.5346 53.0815 2
25.9729 51.2558 3.95832
25.8239 54.8307 0.048065
24.3504 53.0585 2
22.9823 51.3137 3.95452
20.2958 51.1505 3.96596
19.7192 53.9066 3.96153
21.3746 52.7757 2
18.9612 56.4089 3.96131
20.5163 55.4848 2
22.4201 54.9796 0.0412882
18.5705 58.8946 3.95365
19.7651 57.6244 2
20.6266 56.7294 0.0384908
18.6852 61.6297 3.9767
19.8307 60.012 2
20.8722 58.5368 0.0441644
19.1599 64.5727 3.96579
20.2752 62.6839 2
21.2713 60.9636 0.0367914
19.894 67.806 3.97715
20.9504 65.7031 2
21.9464 63.7127 0.0346859
22.8528 66.7054 0.0340841
21.9126 68.8632 2
20.9142 71.1327 4
24.0155 69.8044 0.0148278
23.1494 72.1455 2
25.446 73.0099 0
23.135 12.9839 3.96823
23.989 10.2256 3.96662
25.0271 7.33541 3.96996
25.8674 9.44554 2
26.2832 4.33213 3.98551
27.0677 6.55914 2
27.8241 8.70721 0.0298458
27.7943 1.27781 4
28.4855 3.64864 2
29.1564 5.89007 0.022279
30.1841 0.720551 2
30.7282 3.10136 0.0115897
32.6053 0.320823 0
36.0389 36.0226 3.32552
37.5802 36.0264 2
38.8416 36.0298 0.702568
24.7957 12.2073 2
23.8263 14.625 2
22.6012 15.267 3.97322
25.4078 14.1192 3.97022
24.1719 15.8593 4.00183
26.6453 11.4753 0.0298441
29.2559 12.7117 0.024227
27.3316 13.4813 2
29.8307 14.2952 2
28.4826 16.0182 3.99106
34.9188 34.6454 3.33776
36.0776 34.5495 2
37.5025 34.5306 0.564815
35.9288 33.0741 0.645057
37.4926 31.0945 0.398763
41.5447 29.2136 0.155338
39.5266 29.899 0.245781
39.742 28.4385 2
37.4798 29.521 2
35.6095 31.334 2
34.6473 33.3779 2
37.5812 28.1844 3.83106
35.4858 29.9048 3.74638
34.3671 32.1197 3.52304
33.9324 33.6632 3.34757
30.4202 19.8174 3.98532
30.9838 16.9501 2
31.9664 14.5747 0.0156145
40.0844 26.4654 0.044683
37.987 23.7199 0.00367943
33.5992 17.5812 0.010329
35.5524 20.5748 0.00770179
33.0454 20.1938 2
35.3756 23.311 2
37.7355 26.1085 2
32.729 22.9643 4.00569
35.2765 25.9841 3.97084
34.8612 37.5188 3.4274
36.0992 37.5093 2
37.5328 37.4844 0.582654
37.6929 50.1983 0.0117643
36.965 47.4101 0.136705
36.1754 38.9951 0.691478
35.4564 45.1609 0.235609
34.3971 42.8939 0.480073
34.8952 40.3561 0.642506
33.9503 41.3549 0.654341
35.6251 49.3797 2
34.8118 38.9737 2
33.5404 40.3697 2
34.7391 46.6516 2
33.5393 42.16 2
33.8577 44.458 2
33.7644 48.4716 3.96746
33.3221 39.0107 3.27576
33.0885 40.9597 3.53497
32.6256 43.21 3.75163
33.1773 45.55 3.83715
34.58 52.0218 0.00122245
32.5738 50.7251 2
30.7818 49.2079 4.00383
31.0125 53.1178 0.00550255
29.1623 51.0708 2
27.5482 49.433 3.98034
27.5277 53.0918 0.048652
25.9836 51.2561 2
24.4751 49.6487 3.97166
24.3425 53.0571 0.0471261
22.9852 51.3108 2
21.7001 49.7788 3.96645
18.9736 49.8944 3.97367
18.7621 52.3669 3.96772
20.2936 51.1495 2
18.1193 54.987 3.96309
19.7124 53.9075 2
21.3778 52.7758 0.0413646
17.52 57.6137 3.96065
18.9587 56.4103 2
20.5219 55.4822 0.0405071
17.2507 60.3988 3.94954
18.5842 58.8937 2
19.7608 57.6248 0.0397021
17.4221 63.388 3.96618
18.6847 61.6181 2
19.818 60.0142 0.0362663
17.9532 66.6084 3.96762
19.1438 64.5719 2
20.2787 62.677 0.0313316
18.75 69.9759 4
19.8878 67.7987 2
20.9616 65.6978 0.0360033
21.9195 68.8682 0.0200047
20.9142 71.1327 2
23.1494 72.1454 0
21.6542 13.7937 3.96899
22.2129 11.1271 3.96296
23.1355 12.9746 2
23.0467 8.21373 3.9695
23.982 10.2599 2
24.1213 5.14551 3.98563
25.0215 7.33177 2
25.8651 9.45486 0.0315858
25.446 1.99014 4
26.2768 4.33418 2
27.0716 6.55655 0.0265849
27.7943 1.27778 2
28.491 3.64668 0.0123495
30.1841 0.720592 0
34.9357 36.0566 3.37365
36.0896 36.0201 2
37.5261 36.0111 0.620095
21.487 16.0727 3.9575
24.8131 12.1578 0.0360482
23.8296 14.6046 0.0176746
25.4065 14.0952 2
22.6044 15.2593 2
24.1768 15.882 2
23.4738 16.4888 3.96466
25.5209 16.3726 3.98785
27.3238 13.5109 0.0242964
29.8449 14.2651 -0.00565257
28.4668 16.0941 2
27.687 19.2116 3.98959
33.5683 34.6444 3.33067
34.8219 34.6604 2
36.0078 34.5468 0.650314
34.7382 33.3985 0.738348
35.6244 31.435 0.454529
37.4805 29.5656 0.252444
39.6816 28.5025 0.166546
37.5464 28.1491 2
33.8911 33.6506 2
35.4689 29.8272 2
34.3072 32.0199 2
35.3686 28.2846 3.85688
33.8734 30.6052 3.75845
33.5722 32.944 3.55106
30.0864 22.4635 4.01059
30.3853 19.8524 2
31.0288 16.9417 0.00392478
37.7711 26.1313 0.0458913
35.4508 23.3346 -0.0036566
33.056 20.1697 0.00367577
32.7498 22.9321 2
35.2824 25.9737 2
32.4556 26.3096 4.02231
33.2139 37.5096 3.31332
34.8429 37.5161 2
36.1105 37.4827 0.707621
35.615 49.3714 0.0193168
34.7856 46.5723 0.15627
34.8386 38.9578 0.581723
33.9097 44.3954 0.251952
33.6059 42.0639 0.452071
33.5784 40.3786 0.689851
33.7131 48.4762 2
33.2985 39.0159 2
32.9988 41.0401 2
33.1596 45.6231 2
32.5678 43.2334 2
32.1537 47.2288 3.9773
32.5494 39.4459 3.54657
31.7548 41.6167 3.79657
31.7612 44.2606 3.83416
32.5573 50.7373 -0.00550475
30.7954 49.2195 2
29.1067 47.6461 3.97967
29.153 51.0816 0.0154674
27.5557 49.431 2
25.973 47.8782 3.97663
25.9729 51.2558 0.0416836
24.481 49.6468 2
23.0299 48.2056 3.97324
22.9823 51.3137 0.0454804
21.7004 49.7762 2
20.17 48.6319 3.9748
17.8487 48.9613 3.97547
17.6195 51.0238 3.97304
18.9756 49.8943 2
17.1257 53.5159 3.969
18.7629 52.3654 2
20.2958 51.1505 0.0340446
16.4863 56.1936 3.96523
18.1158 54.9883 2
19.7192 53.9066 0.0384669
15.9307 59.04 3.95704
17.5251 57.6147 2
18.9612 56.4089 0.0386941
15.7998 62.0409 3.96683
17.2353 60.4088 2
18.5705 58.8946 0.0463483
16.0978 65.2968 3.96859
17.4223 63.4087 2
18.6852 61.6297 0.0232995
16.6661 68.6801 4
17.9447 66.6023 2
19.1599 64.5727 0.0342082
18.75 69.9759 2
19.894 67.806 0.0228525
20.9142 71.1327 0
20.3248 14.7973 3.95456
21.6553 13.7863 2
20.5692 12.1527 3.96924
21.154 9.1995 3.97146
22.2024 11.1476 2
23.135 12.9839 0.031773
22.023 6.08608 3.98502
23.0416 8.22107 2
23.989 10.2256 0.0333811
23.1494 2.85457 4
24.1149 5.15148 2
25.0271 7.33541 0.0300397
25.446 1.99012 2
26.2832 4.33213 0.0144904
27.7943 1.27781 0
33.3052 36.017 3.33192
34.8614 36.0593 2
36.0389 36.0226 0.674475
21.5004 16.0851 2
20.5947 17.2624 3.96153
22.3295 16.8851 3.96494
25.4078 14.1192 0.0297801
22.6012 15.267 0.0267814
24.1719 15.8593 -0.00182708
25.5294 16.3667 2
23.4781 16.4981 2
24.4914 18.8504 3.97748
27.5684 22.0207 3.99006
28.4826 16.0182 0.00893728
27.6679 19.2021 2
33.0647 34.0295 3.53612
33.5322 34.6486 2
34.9188 34.6454 0.662238
33.9324 33.6632 0.652428
34.3671 32.1197 0.476956
35.4858 29.9048 0.253618
37.5812 28.1844 0.168942
35.3504 28.2369 2
33.5221 32.8507 2
33.8241 30.5289 2
33.3505 28.9461 3.8664
32.6258 31.7962 3.74676
29.633 24.9715 4.01148
30.1039 22.4229 2
30.4202 19.8174 0.0146786
35.2765 25.9841 0.0291637
32.729 22.9643 -0.00568859
32.4386 26.2707 2
30.7724 27.9366 3.98875
32.4198 37.49 3.52364
33.1746 37.5109 2
34.8612 37.5188 0.572603
33.7644 48.4716 0.0325366
33.1773 45.55 0.162849
33.3221 39.0107 0.724243
32.6256 43.21 0.248365
33.0885 40.9597 0.465035
32.1123 47.2649 2
32.4572 39.4445 2
31.686 41.6653 2
31.6774 44.33 2
30.5735 45.8625 3.97061
31.0561 39.6379 3.80252
30.4629 42.6333 3.86219
30.7818 49.2079 -0.0038264
29.1148 47.6575 2
27.4608 46.0913 3.98594
27.5482 49.433 0.0196628
25.9792 47.8759 2
24.3669 46.4901 3.97581
24.4751 49.6487 0.0283415
23.0304 48.204 2
21.2849 47.1434 3.97471
21.7001 49.7788 0.0335467
20.1691 48.6317 2
18.7621 47.7816 3.97538
17.0881 48.3414 3.97488
17.8489 48.9621 2
16.6749 49.8368 3.97439
16.0692 52.0968 3.97315
17.6214 51.0223 2
18.9736 49.8944 0.0263255
15.4042 54.7068 3.97049
17.1281 53.5152 2
18.7621 52.3669 0.0322799
14.7331 57.5639 3.96224
16.4889 56.1938 2
18.1193 54.987 0.0369055
14.2932 60.6231 3.95244
15.9228 59.044 2
17.52 57.6137 0.0393471
14.341 63.8512 3.96434
15.8086 62.0493 2
17.2507 60.3988 0.0504627
14.6715 67.2507 4
16.0927 65.2837 2
17.4221 63.388 0.0338197
16.6661 68.6801 2
17.9532 66.6084 0.0323841
18.75 69.9759 0
19.1233 16.0286 3.95755
20.3403 14.7832 2
19.0314 13.295 3.96383
21.6542 13.7937 0.0310125
20.5546 12.1474 2
19.3623 10.3116 3.96945
19.9986 7.14856 3.9779
21.1469 9.1991 2
22.2129 11.1271 0.0370367
20.9142 3.86727 4
22.0125 6.08653 2
23.0467 8.21373 0.0305049
23.1494 2.85451 2
24.1213 5.14551 0.0143709
25.446 1.99014 0
32.5581 35.5406 3.5321
33.2666 36.0133 2
34.9357 36.0566 0.626348
21.487 16.0727 0.0424989
22.3462 16.9015 2
20.6097 17.2622 2
19.6779 18.7546 3.96605
22.0631 18.2454 3.97985
25.5209 16.3726 0.0121541
23.4738 16.4888 0.0353402
24.5149 18.8634 2
22.8344 20.3203 3.96729
25.192 21.8698 3.98531
27.3028 24.1975 3.97157
27.596 21.9398 2
27.687 19.2116 0.0104137
31.7256 33.3856 3.79502
32.987 33.9785 2
33.5683 34.6444 0.66933
33.5722 32.944 0.448938
33.8734 30.6052 0.241553
35.3686 28.2846 0.143123
33.3036 28.8854 2
32.5318 31.7246 2
31.4627 30.2765 3.88381
29.0738 27.1327 4.01399
29.6381 24.9441 2
30.0864 22.4635 -0.0105903
32.4556 26.3096 -0.0223126
30.7752 27.9426 2
30.9068 37.4807 3.8085
32.3029 37.4898 2
33.2139 37.5096 0.68668
32.1537 47.2288 0.0227027
31.7612 44.2606 0.16584
32.5494 39.4459 0.453427
31.7548 41.6167 0.20343
30.5893 45.8787 2
30.957 39.66 2
30.4345 42.6642 2
28.9835 44.2938 3.95462
28.8256 40.2902 3.90629
29.1067 47.6461 0.0203334
27.466 46.0967 2
25.7351 44.6462 3.97761
25.973 47.8782 0.02337
24.369 46.4908 2
22.4069 45.4713 3.97582
23.0299 48.2056 0.0267646
21.286 47.1436 2
19.5657 46.3536 3.9747
20.17 48.6319 0.0251977
18.7627 47.7825 2
17.3585 47.3786 3.9746
17.0898 48.3424 2
16.0471 48.7075 3.97436
17.8487 48.9613 0.0245313
16.6765 49.8364 2
15.1743 50.7038 3.97362
14.3466 53.1916 3.97308
16.0699 52.0963 2
17.6195 51.0238 0.0269573
13.5876 55.9949 3.96405
15.4052 54.7071 2
17.1257 53.5159 0.0309983
12.9401 59.0517 3.9517
14.733 57.5655 2
16.4863 56.1936 0.0347661
12.6871 62.2936 3.964
14.305 60.6289 2
15.9307 59.04 0.042958
12.7746 65.6939 4
14.3367 63.8417 2
15.7998 62.0409 0.0331735
14.6714 67.2507 2
16.0978 65.2968 0.0314131
16.6661 68.6801 0
18.0227 17.4403 3.95994
19.1503 16.0245 2
17.5896 14.5429 3.95383
20.3248 14.7973 0.0454402
19.0229 13.2427 2
17.6739 11.5795 3.9684
20.5692 12.1527 0.0307574
19.3523 10.3295 2
18.0587 8.34556 3.97097
18.75 5.0241 4
19.9879 7.16049 2
21.154 9.1995 0.0285431
20.9142 3.86727 2
22.023 6.08608 0.0149799
23.1494 2.85457 0
31.0533 35.362 3.79742
32.4571 35.5374 2
33.3052 36.017 0.668084
22.3295 16.8851 0.0350586
20.5947 17.2624 0.0384659
22.0973 18.2387 2
19.6847 18.7523 2
18.6294 20.3313 3.96845
21.4103 19.7916 3.97512
24.4914 18.8504 0.0225176
22.8473 20.3196 2
25.2121 21.829 2
23.1381 22.2132 3.97246
25.6271 23.5269 3.96474
26.7207 26.5078 3.98518
27.3041 24.2119 2
27.5684 22.0207 0.00993939
30.1735 32.8226 3.85704
31.6582 33.3402 2
33.0647 34.0295 0.463877
32.6258 31.7962 0.253235
33.3505 28.9461 0.133598
31.4381 30.2309 2
28.5856 29.7417 4.00095
29.0643 27.1646 2
29.633 24.9715 -0.0114776
30.7724 27.9366 0.011253
29.1869 37.4555 3.82449
30.7796 37.4969 2
32.4198 37.49 0.476355
30.5735 45.8625 0.0293885
30.4629 42.6333 0.137814
31.0561 39.6379 0.197477
28.9922 44.3472 2
28.7784 40.3266 2
27.1923 42.8431 3.98394
26.1962 39.3171 3.97659
27.4608 46.0913 0.0140642
25.7285 44.654 2
23.6977 43.5452 3.97443
24.3669 46.4901 0.0241858
22.4065 45.4707 2
20.4246 44.613 3.97439
21.2849 47.1434 0.0252867
19.5661 46.3538 2
17.7533 45.8951 3.97483
18.7621 47.7816 0.0246237
17.3589 47.379 2
15.8255 47.392 3.97456
17.0881 48.3414 0.0251184
16.0488 48.7079 2
14.4988 49.2911 3.97406
16.6749 49.8368 0.0256101
15.1752 50.7032 2
13.4166 51.6567 3.97343
12.4692 54.3751 3.96825
14.3477 53.1914 2
16.0692 52.0968 0.026853
11.662 57.39 3.95679
13.5819 55.997 2
15.4042 54.7068 0.0295118
11.1423 60.6197 3.96226
12.9396 59.0526 2
14.7331 57.5639 0.0377626
10.9835 64.0165 4
12.6847 62.2837 2
14.2932 60.6231 0.0475554
12.7745 65.694 2
14.341 63.8512 0.0356603
14.6715 67.2507 0
16.8852 18.9563 3.96349
18.0347 17.4381 2
16.3107 15.9777 3.95814
19.1233 16.0286 0.0424501
17.5993 14.5438 2
16.0374 12.8916 3.95799
19.0314 13.295 0.0361698
17.6483 11.5534 2
16.2099 9.67055 3.96627
19.3623 10.3116 0.0305521
18.0497 8.3568 2
16.6661 6.31991 4
18.75 5.02404 2
19.9986 7.14856 0.0221037
20.9142 3.86727 0
29.4604 35.009 3.87292
30.9252 35.3337 2
32.5581 35.5406 0.467901
17.3599 21.7505 3.97181
22.0631 18.2454 0.0201529
19.6779 18.7546 0.0339523
21.4205 19.789 2
18.6224 20.3261 2
20.5536 22.0477 3.9739
22.8344 20.3203 0.0327051
25.192 21.8698 0.0146932
23.1424 22.2117 2
25.615 23.5744 2
24.0373 25.1627 3.97241
26.166 29.1225 3.98329
26.7201 26.5312 2
27.3028 24.1975 0.0284303
28.0713 32.1572 3.9726
30.1234 32.7924 2
31.7256 33.3856 0.204977
31.4627 30.2765 0.116186
28.5873 29.6957 2
29.0738 27.1327 -0.0139941
26.9634 36.9092 3.95254
29.1161 37.4066 2
30.9068 37.4807 0.191503
28.9835 44.2938 0.0453847
28.8256 40.2902 0.0937063
27.169 42.8821 2
26.1404 39.3028 2
24.9869 41.5284 3.97401
23.8925 38.4932 3.97459
25.7351 44.6462 0.0223922
23.6964 43.5521 2
21.3653 42.5972 3.97448
22.4069 45.4713 0.0241771
20.4266 44.6134 2
18.1922 44.1034 3.9751
19.5657 46.3536 0.0252973
17.7539 45.8954 2
15.7998 45.839 3.97505
17.3585 47.3786 0.0253955
15.8257 47.3922 2
14.0308 47.7848 3.97436
16.0471 48.7075 0.0256421
14.4993 49.2911 2
12.6583 50.0572 3.97431
15.1743 50.7038 0.0263751
13.4171 51.6565 2
11.4618 52.7027 3.97201
10.467 55.6492 3.95947
12.4657 54.3761 2
14.3466 53.1916 0.0269163
9.70973 58.845 3.96287
11.6639 57.3899 2
13.5876 55.9949 0.0359523
9.30605 62.2254 4
11.1412 60.6126 2
12.9401 59.0517 0.048296
10.9835 64.0165 2
12.6871 62.2936 0.0359996
12.7746 65.6939 0
15.65 20.4725 3.96967
16.8946 18.955 2
15.0454 17.5065 3.96168
18.0227 17.4403 0.0400632
16.2789 15.9664 2
14.5046 14.3771 3.95381
17.5896 14.5429 0.0461716
16.0481 12.8872 2
14.4531 11.1223 3.96757
17.6739 11.5795 0.0316013
16.2046 9.68689 2
14.6715 7.74927 4
18.0587 8.34556 0.0290284
16.6661 6.31988 2
18.75 5.0241 0
27.4082 34.5334 3.97493
29.3968 35.0147 2
31.0533 35.362 0.202582
18.6867 22.7612 3.97412
16.2441 23.2677 3.97237
17.3618 21.748 2
21.4103 19.7916 0.024882
18.6294 20.3313 0.0315502
20.562 22.047 2
20.762 24.9167 3.97197
23.1381 22.2132 0.0275419
25.6271 23.5269 0.0352636
24.0405 25.1598 2
23.5428 28.4108 3.97014
25.6581 31.6075 3.98243
26.1778 29.0189 2
26.7207 26.5078 0.0148156
28.0389 32.138 2
30.1735 32.8226 0.142961
28.5856 29.7417 -0.000953628
24.626 36.3692 3.97816
26.8904 36.9112 2
29.1869 37.4555 0.175505
27.1923 42.8431 0.0160564
26.1962 39.3171 0.0234103
24.9527 41.5399 2
23.8851 38.5001 2
22.5854 40.4449 3.97542
21.8662 37.7842 3.97837
23.6977 43.5452 0.0255682
21.3662 42.5945 2
18.7079 41.9023 3.97565
20.4246 44.613 0.0256117
18.1925 44.1031 2
15.8565 43.9918 3.97518
17.7533 45.8951 0.0251668
15.7995 45.839 2
13.7273 46.1027 3.97479
15.8255 47.392 0.0254443
14.0303 47.7848 2
12.0442 48.3817 3.9746
14.4988 49.2911 0.0259361
12.6588 50.0568 2
10.601 50.9592 3.97383
13.4166 51.6567 0.0265726
11.4618 52.7025 2
9.36667 53.8379 3.96178
8.39209 56.981 3.96613
10.4701 55.6478 2
12.4692 54.3751 0.0317458
7.74927 60.3285 4
9.70874 58.8389 2
11.662 57.39 0.0432061
9.306 62.2255 2
11.1423 60.6197 0.0377383
10.9835 64.0165 0
14.4817 22.0169 3.97246
15.6542 20.4702 2
13.7576 19.0831 3.96511
16.8852 18.9563 0.0365086
15.0257 17.4974 2
13.0637 15.9514 3.95394
16.3107 15.9777 0.041861
14.528 14.3724 2
12.7899 12.696 3.96499
16.0374 12.8916 0.0420125
14.4479 11.1345 2
12.7746 9.30605 4
16.2099 9.67055 0.0337337
14.6715 7.74924 2
16.6661 6.31991 0
25.0789 34.0428 3.9795
27.3842 34.479 2
29.4604 35.009 0.127084
18.5848 24.4916 3.97184
18.6944 22.7626 2
15.0556 24.7315 3.97336
16.2436 23.2662 2
17.3599 21.7505 0.0281911
20.3088 27.6564 3.97261
20.5536 22.0477 0.0260968
20.7653 24.9183 2
22.912 31.0733 3.9738
24.0373 25.1627 0.0275945
23.5385 28.4179 2
25.6016 31.6902 2
26.166 29.1225 0.0167117
28.0713 32.1572 0.0273968
21.9487 36.0298 3.97742
24.6021 36.3836 2
26.9634 36.9092 0.0474629
24.9869 41.5284 0.0259878
23.8925 38.4932 0.0254135
22.5931 40.4456 2
21.8639 37.785 2
19.5266 38.944 3.97708
21.3653 42.5972 0.0255181
18.7086 41.9018 2
15.8537 41.7847 3.97585
18.1922 44.1034 0.0249039
15.8562 43.9914 2
13.4895 44.2386 3.97515
15.7998 45.839 0.0249533
13.7263 46.1028 2
11.5519 46.5923 3.97478
14.0308 47.7848 0.0256448
12.0445 48.3814 2
9.87978 49.1308 3.97535
12.6583 50.0572 0.0256907
10.6017 50.9586 2
8.39713 51.9581 3.96335
11.4618 52.7027 0.0279872
9.36498 53.8369 2
7.20062 55.0327 3.9673
6.31991 58.3339 4
8.39097 56.9756 2
10.467 55.6492 0.0405272
7.74924 60.3285 2
9.70973 58.845 0.0371288
9.30605 62.2254 0
13.8731 25.6044 3.97557
13.376 23.5105 3.97347
14.4829 22.0144 2
12.5672 20.7131 3.96917
15.65 20.4725 0.0303286
13.7466 19.0771 2
11.7732 17.6336 3.95336
15.0454 17.5065 0.0383158
13.0983 15.9559 2
11.2289 14.3827 3.96158
14.5046 14.3771 0.0461913
12.7883 12.7069 2
10.9835 10.9835 4
14.4531 11.1223 0.0324303
12.7745 9.306 2
14.6715 7.74927 0
22.3004 33.6539 3.97718
25.0798 33.9866 2
27.4082 34.5334 0.0250723
16.8666 26.7292 3.97371
18.5866 24.4927 2
18.6867 22.7612 0.0258811
15.0535 24.7325 2
16.2441 23.2677 0.0276311
19.7003 30.508 3.97488
20.3119 27.6558 2
20.762 24.9167 0.0280272
22.9267 31.0621 2
23.5428 28.4108 0.0298645
25.6581 31.6075 0.0175733
19.0912 36.0483 3.97718
21.947 36.0247 2
24.626 36.3692 0.0218352
22.5854 40.4449 0.0245779
21.8662 37.7842 0.0216328
19.526 38.9442 2
15.3309 39.1332 3.97685
18.7079 41.9023 0.0243483
15.8538 41.7842 2
13.1786 42.1752 3.97585
15.8565 43.9918 0.0248206
13.4888 44.2385 2
11.1307 44.6922 3.9753
13.7273 46.1027 0.0252142
11.5517 46.5921 2
9.26547 47.225 3.97571
12.0442 48.3817 0.0254012
9.88176 49.13 2
7.55601 49.9987 3.96527
10.601 50.9592 0.0261708
8.39514 51.9571 2
6.1403 53.008 3.96858
9.36667 53.8379 0.0382181
7.20025 55.028 2
5.0241 56.25 4
6.31988 58.3339 2
8.39209 56.981 0.0338714
7.74927 60.3285 0
14.1851 27.0447 3.97451
12.4629 24.98 3.97473
13.8725 25.6051 2
11.4801 22.3794 3.97263
13.3739 23.5104 2
14.4817 22.0169 0.0275428
12.5625 20.7097 2
10.5528 19.3906 3.95778
13.7576 19.0831 0.0348916
11.7819 17.6349 2
9.76965 16.1633 3.96315
13.0637 15.9514 0.0460635
11.2274 14.3898 2
9.30607 12.7746 4
12.7899 12.696 0.0350125
10.9835 10.9835 2
12.7746 9.30605 0
19.2263 33.303 3.97562
22.2929 33.6602 2
25.0789 34.0428 0.0205032
16.4991 29.8995 3.97495
16.8665 26.732 2
18.5848 24.4916 0.0281622
15.0556 24.7315 0.0266417
19.6972 30.5094 2
20.3088 27.6564 0.0273896
22.912 31.0733 0.0261956
15.9923 36.0752 3.9771
19.0897 36.0493 2
21.9487 36.0298 0.02258
13.4258 37.8302 3.97713
19.5266 38.944 0.0229158
15.3315 39.1328 2
12.6608 40.0902 3.97643
15.8537 41.7847 0.0241471
13.1779 42.1749 2
10.7212 42.7021 3.97556
13.4895 44.2386 0.0248502
11.1304 44.6922 2
8.73653 45.2469 3.97589
11.5519 46.5923 0.0252192
9.26819 47.2238 2
6.82877 47.9727 3.96717
9.87978 49.1308 0.0246496
7.55497 49.9977 2
5.21618 50.9109 3.96956
8.39713 51.9581 0.0366539
6.14045 53.0045 2
3.86727 54.0858 4
7.20062 55.0327 0.0326988
5.02404 56.25 2
6.31991 58.3339 0
13.6618 29.2177 3.97401
11.9081 26.6469 3.97446
14.1851 27.0457 2
10.5331 24.0929 3.97519
12.4647 24.9805 2
13.8731 25.6044 0.0244306
9.39262 21.1974 3.96183
11.4796 22.3777 2
13.376 23.5105 0.0265305
12.5672 20.7131 0.0308272
10.5582 19.3918 2
8.42468 18.0313 3.96602
11.7732 17.6336 0.0466394
9.76877 16.1698 2
7.74928 14.6715 4
11.2289 14.3827 0.0384175
9.30602 12.7745 2
10.9835 10.9835 0
15.4764 32.9994 3.97619
19.2268 33.3022 2
22.3004 33.6539 0.0228164
16.5007 29.8993 2
16.8666 26.7292 0.0262916
19.7003 30.508 0.0251189
13.7406 36.245 3.97678
15.993 36.0753 2
19.0912 36.0483 0.0228174
13.4257 37.8301 2
11.9584 38.3018 3.97646
15.3309 39.1332 0.0231479
12.6603 40.0902 2
10.2859 40.7121 3.97598
13.1786 42.1752 0.0241543
10.7212 42.7016 2
8.27633 43.2175 3.97605
11.1307 44.6922 0.0247024
8.73979 45.2466 2
6.21367 45.8863 3.96864
9.26547 47.225 0.0242938
6.82848 47.9717 2
4.42689 48.7511 3.97037
7.55601 49.9987 0.0347334
5.2166 50.9085 2
2.85457 51.8506 4
6.1403 53.008 0.0314199
3.86727 54.0858 2
5.0241 56.25 0
12.7762 31.381 3.97545
11.3136 28.5514 3.97474
13.6622 29.2178 2
9.74863 25.9061 3.9755
11.9088 26.6476 2
14.1851 27.0447 0.0254924
8.35488 23.069 3.96426
10.5341 24.0922 2
12.4629 24.98 0.0252699
7.20633 19.9793 3.96734
9.39421 21.1987 2
11.4801 22.3794 0.0273654
10.5528 19.3906 0.0422207
8.42402 18.0367 2
6.31992 16.6661 4
9.76965 16.1633 0.0368544
7.74926 14.6714 2
9.30607 12.7746 0
12.8333 34.3697 3.97663
15.4767 33 2
19.2263 33.303 0.0243771
16.4991 29.8995 0.0250523
11.4693 36.6356 3.97641
13.7409 36.2451 2
15.9923 36.0752 0.0229045
13.4258 37.8302 0.0228656
11.9578 38.3017 2
9.85101 38.8124 3.97623
12.6608 40.0902 0.0235651
10.2857 40.7119 2
7.87363 41.1813 3.97614
10.7212 42.7021 0.0244419
8.27846 43.2163 2
5.70499 43.7569 3.96945
8.73653 45.2469 0.0241052
6.21261 45.8855 2
3.77204 46.5364 3.97101
6.82877 47.9727 0.0328278
4.4276 48.7494 2
1.99014 49.554 4
5.21618 50.9109 0.0304446
2.85451 51.8506 2
3.86727 54.0858 0
11.5402 33.0061 3.97631
10.6049 30.4818 3.97515
12.7754 31.3818 2
9.05075 27.821 3.9757
11.3136 28.5517 2
13.6618 29.2177 0.0259907
7.46038 25.0177 3.96595
9.75014 25.9062 2
11.9081 26.6469 0.0255447
6.12205 22.002 3.96897
8.35377 23.0701 2
10.5331 24.0929 0.0248146
5.02411 18.75 4
7.20611 19.9835 2
9.39262 21.1974 0.0381683
8.42468 18.0313 0.0339769
6.3199 16.6661 2
7.74928 14.6715 0
11.0339 35.0456 3.97609
12.833 34.3698 2
15.4764 32.9994 0.0238088
9.49408 36.9979 3.97624
11.4686 36.6358 2
13.7406 36.245 0.0232248
11.9584 38.3018 0.0235449
9.85117 38.8124 2
7.53512 39.1718 3.97638
10.2859 40.7121 0.0240247
7.87714 41.1807 2
5.30775 41.6086 3.96965
8.27633 43.2175 0.023954
5.70529 43.7562 2
3.24954 44.2814 3.97198
6.21367 45.8863 0.0313595
3.77301 46.5351 2
1.27781 47.2057 4
4.42689 48.7511 0.0296282
1.99012 49.554 2
2.85457 51.8506 0
10.6414 33.9394 3.97565
9.85945 32.227 3.97571
11.5396 33.0063 2
8.38304 29.7673 3.97604
10.6049 30.4827 2
12.7762 31.381 0.0245476
6.68694 27.0357 3.96661
9.053 27.8219 2
11.3136 28.5514 0.0252631
5.17639 24.0955 3.96974
7.45881 25.0187 2
9.74863 25.9061 0.0244968
3.86728 20.9142 4
6.12238 22.005 2
8.35488 23.069 0.0357406
5.02406 18.75 2
7.20633 19.9793 0.0326591
6.31992 16.6661 0
9.2958 35.3126 3.97632
11.0332 35.0456 2
12.8333 34.3697 0.0233733
7.30184 37.2127 3.97643
9.49487 36.9981 2
11.4693 36.6356 0.0235893
9.85101 38.8124 0.0237699
7.53856 39.1715 2
5.02994 39.467 3.96942
7.87363 41.1813 0.023856
5.30735 41.6081 2
2.85979 42.002 3.97261
5.70499 43.7569 0.0305467
3.25026 44.2803 2
0.720592 44.8159 4
3.77204 46.5364 0.028989
1.27778 47.2057 2
1.99014 49.554 0
9.32701 33.7475 3.97624
10.6411 33.9395 2
7.8044 31.6613 3.97624
9.86079 32.2272 2
11.5402 33.0061 0.0236944
6.0165 29.0901 3.96677
8.3857 29.7684 2
10.6049 30.4818 0.0248522
4.36321 26.2491 3.97033
6.68584 27.0366 2
9.05075 27.821 0.0242993
2.85458 23.1494 4
5.177 24.0973 2
7.46038 25.0177 0.0340472
3.86728 20.9142 2
6.12205 22.002 0.0310318
5.02411 18.75 0
7.24153 35.3284 3.97653
9.29725 35.3127 2
11.0339 35.0456 0.0239103
4.8738 37.3437 3.969
7.30556 37.2126 2
9.49408 36.9979 0.0237596
7.53512 39.1718 0.0236234
5.02931 39.4667 2
2.60754 39.7142 3.97324
5.30775 41.6086 0.0303499
2.86079 42.0013 2
0.320823 42.3947 4
3.24954 44.2814 0.0280213
0.720551 44.8159 2
1.27781 47.2057 0
7.40286 33.4975 3.97662
9.32877 33.7478 2
10.6414 33.9394 0.024351
5.47037 31.1486 3.96724
7.80742 31.6621 2
9.85945 32.227 0.0242921
3.68436 28.4459 3.97117
6.01437 29.0907 2
8.38304 29.7673 0.0239645
1.99015 25.446 4
4.36395 26.2504 2
6.68694 27.0357 0.0333888
2.85453 23.1494 2
5.17639 24.0955 0.0302631
3.86728 20.9142 0
4.88891 35.259 3.9682
7.24435 35.3286 2
9.2958 35.3126 0.0236788
2.49898 37.4295 3.97391
4.87142 37.3437 2
7.30184 37.2127 0.0235748
5.02994 39.467 0.030583
2.60868 39.714 2
0.080333 39.9526 4
2.85979 42.002 0.0273899
0.320817 42.3947 2
0.720592 44.8159 0
5.09152 33.2013 3.96752
7.4051 33.4979 2
9.32701 33.7475 0.0237616
3.14846 30.6688 3.97217
5.46713 31.1491 2
7.8044 31.6613 0.0237626
1.27793 27.7943 4
3.68538 28.447 2
6.0165 29.0901 0.0332281
1.99013 25.446 2
4.36321 26.2491 0.0296749
2.85458 23.1494 0
2.55092 35.1608 3.9737
4.88687 35.2593 2
7.24153 35.3284 0.0234729
0 37.5 4
2.49985 37.4295 2
4.8738 37.3437 0.030997
2.60754 39.7142 0.026764
0.0802903 39.9526 2
0.320823 42.3947 0
2.7685 32.9081 3.97343
5.0895 33.2016 2
7.40286 33.4975 0.0233791
0.721173 30.1842 4
3.14979 30.6698 2
5.47037 31.1486 0.0327629
1.27779 27.7943 2
3.68436 28.4459 0.0288254
1.99015 25.446 0
0.0806499 35.0474 4
2.55234 35.161 2
4.88891 35.259 0.0318034
0 37.5 2
2.49898 37.4295 0.0260936
0.080333 39.9526 0
0.32156 32.6054 4
2.76944 32.9088 2
5.09152 33.2013 0.0324831
0.72056 30.1841 2
3.14846 30.6688 0.0278283
1.27793 27.7943 0
0.0802889 35.0474 2
2.55092 35.1608 0.0263039
0 37.5 0
0.320817 32.6053 2
2.7685 32.9081 0.0265702
0.721173 30.1842 0
0.0806499 35.0474 0
0.32156 32.6054 0
CELLS 1910 17190
8 18 6 25 56 2 0 5 16
8 57 23 6 18 17 4 0 2
8 78 36 9 29 31 11 1 7
8 31 11 1 7 79 37 10 30
8 110 57 18 50 48 17 2 14
8 50 18 56 111 14 2 16 49
8 116 62 22 55 52 20 3 15
8 56 25 67 118 16 5 24 53
8 119 63 23 57 54 21 4 17
8 55 22 63 119 15 3 21 54
8 58 26 68 121 18 6 25 56
8 122 65 26 58 57 23 6 18
8 73 31 7 27 142 79 30 71
8 143 78 29 72 73 31 7 27
8 83 147 76 34 32 74 28 8
8 84 148 78 36 33 75 29 9
8 76 34 8 28 148 84 33 75
8 37 79 150 86 10 30 77 35
8 151 87 36 78 80 38 11 31
8 80 38 11 31 152 88 37 79
8 175 100 42 94 96 44 12 40
8 44 96 176 101 12 40 95 43
8 101 176 98 46 43 95 41 13
8 46 98 178 103 13 41 97 45
8 178 103 45 97 147 83 32 74
8 189 116 55 109 106 52 15 47
8 111 56 118 191 49 16 53 107
8 192 119 57 110 108 54 17 48
8 109 55 119 192 47 15 54 108
8 194 122 58 112 110 57 18 50
8 112 58 121 195 50 18 56 111
8 115 61 19 51 197 124 59 113
8 115 61 125 198 51 19 60 114
8 198 125 62 116 114 60 20 52
8 200 127 64 120 116 62 22 55
8 118 67 132 202 53 24 66 117
8 121 68 133 203 56 25 67 118
8 120 64 128 204 55 22 63 119
8 204 128 65 122 119 63 23 57
8 206 134 68 121 123 69 26 58
8 123 69 26 58 207 131 65 122
8 226 147 74 138 140 76 28 70
8 229 148 75 139 143 78 29 72
8 140 76 28 70 229 148 75 139
8 142 79 30 71 231 150 77 141
8 144 80 31 73 232 152 79 142
8 233 151 78 143 144 80 31 73
8 150 86 35 77 235 154 81 145
8 235 154 81 145 146 82 39 91
8 146 82 39 91 236 155 90 165
8 238 157 83 147 149 85 34 76
8 239 158 84 148 151 87 36 78
8 149 85 34 76 239 158 84 148
8 152 88 37 79 241 160 86 150
8 242 161 87 151 153 89 38 80
8 153 89 38 80 243 162 88 152
8 171 98 41 92 265 178 97 169
8 265 178 97 169 226 147 74 138
8 172 96 40 93 266 176 95 170
8 266 176 95 170 171 98 41 92
8 269 175 94 173 172 96 40 93
8 271 180 99 174 175 100 42 94
8 197 124 59 113 271 180 99 174
8 272 181 100 175 177 102 44 96
8 273 182 101 176 179 104 46 98
8 177 102 44 96 273 182 101 176
8 179 104 46 98 275 184 103 178
8 275 184 103 178 238 157 83 147
8 188 115 51 105 283 197 113 186
8 188 115 198 284 105 51 114 187
8 284 198 116 189 187 114 52 106
8 286 200 120 193 189 116 55 109
8 191 118 202 288 107 53 117 190
8 195 121 203 289 111 56 118 191
8 193 120 204 290 109 55 119 192
8 290 204 122 194 192 119 57 110
8 196 123 58 112 292 207 122 194
8 293 206 121 195 196 123 58 112
8 199 126 61 115 297 211 124 197
8 298 212 127 200 198 125 62 116
8 199 126 212 298 115 61 125 198
8 205 129 64 120 300 214 127 200
8 301 217 130 201 202 132 66 117
8 209 136 168 264 301 217 130 201
8 302 219 132 202 203 133 67 118
8 303 220 133 203 206 134 68 121
8 205 129 215 304 120 64 128 204
8 304 215 131 207 204 128 65 122
8 306 221 134 206 208 135 69 123
8 208 135 69 123 307 218 131 207
8 210 137 167 263 309 223 136 209
8 328 238 147 226 230 149 76 140
8 228 146 91 166 329 236 165 260
8 231 150 77 141 330 235 145 227
8 330 235 145 227 228 146 91 166
8 332 239 148 229 233 151 78 143
8 230 149 76 140 332 239 148 229
8 232 152 79 142 334 241 150 231
8 234 153 80 144 335 243 152 232
8 336 242 151 233 234 153 80 144
8 236 155 90 165 338 245 164 259
8 241 160 86 150 339 246 154 235
8 339 246 154 235 237 156 82 146
8 237 156 82 146 340 247 155 236
8 342 249 157 238 240 159 85 149
8 343 250 158 239 242 161 87 151
8 240 159 85 149 343 250 158 239
8 243 162 88 152 345 252 160 241
8 244 163 253 346 153 89 161 242
8 244 163 89 153 347 254 162 243
8 311 224 261 371 210 137 167 263
8 263 167 262 372 209 136 168 264
8 267 179 98 171 375 275 178 265
8 375 275 178 265 328 238 147 226
8 376 273 176 266 267 179 98 171
8 268 177 96 172 376 273 176 266
8 379 272 175 269 268 177 96 172
8 380 271 174 270 269 175 94 173
8 283 197 113 186 380 271 174 270
8 381 277 180 271 272 181 100 175
8 297 211 124 197 381 277 180 271
8 382 278 181 272 274 183 102 177
8 274 183 102 177 383 279 182 273
8 383 279 182 273 276 185 104 179
8 385 281 184 275 342 249 157 238
8 276 185 104 179 385 281 184 275
8 285 199 115 188 393 297 197 283
8 394 298 200 286 284 198 116 189
8 285 199 298 394 188 115 198 284
8 291 205 120 193 396 300 200 286
8 397 301 201 287 288 202 117 190
8 295 209 264 374 397 301 201 287
8 398 302 202 288 289 203 118 191
8 399 303 203 289 293 206 121 195
8 291 205 304 400 193 120 204 290
8 400 304 207 292 290 204 122 194
8 294 208 123 196 402 307 207 292
8 403 306 206 293 294 208 123 196
8 296 210 263 373 405 309 209 295
8 408 312 213 299 297 211 126 199
8 299 213 313 409 199 126 212 298
8 409 313 214 300 298 212 127 200
8 305 216 129 205 411 315 214 300
8 412 318 217 301 302 219 132 202
8 309 223 136 209 412 318 217 301
8 413 320 219 302 303 220 133 203
8 306 221 321 414 206 134 220 303
8 307 218 131 207 415 316 215 304
8 305 216 316 415 205 129 215 304
8 417 322 221 306 308 222 135 208
8 308 222 135 208 418 319 218 307
8 310 225 137 210 420 325 223 309
8 423 326 224 311 310 225 137 210
8 329 236 165 260 441 338 259 368
8 442 342 238 328 333 240 149 230
8 331 237 146 228 443 340 236 329
8 334 241 150 231 444 339 235 330
8 444 339 235 330 331 237 146 228
8 446 343 239 332 336 242 151 233
8 333 240 149 230 446 343 239 332
8 335 243 152 232 448 345 241 334
8 337 244 153 234 449 347 243 335
8 337 244 346 450 234 153 242 336
8 338 245 164 259 452 349 258 367
8 340 247 155 236 453 350 245 338
8 345 252 160 241 454 351 246 339
8 454 351 246 339 341 248 156 237
8 341 248 156 237 455 352 247 340
8 240 159 251 344 342 249 354 457
8 242 161 253 346 343 250 355 458
8 343 250 355 458 240 159 251 344
8 347 254 162 243 460 357 252 345
8 348 255 358 461 244 163 253 346
8 348 255 163 244 462 359 254 347
8 473 360 257 365 363 256 364 482
8 452 349 258 367 365 257 366 485
8 422 324 369 488 311 224 261 371
8 371 261 370 490 263 167 262 372
8 407 311 371 491 296 210 263 373
8 373 263 372 492 295 209 264 374
8 493 385 275 375 442 342 238 328
8 377 276 179 267 493 385 275 375
8 378 274 177 268 494 383 273 376
8 494 383 273 376 377 276 179 267
8 497 382 272 379 378 274 177 268
8 498 381 271 380 379 272 175 269
8 393 297 197 283 498 381 271 380
8 499 387 277 381 382 278 181 272
8 408 312 211 297 499 387 277 381
8 500 388 278 382 384 280 183 274
8 501 389 279 383 386 282 185 276
8 384 280 183 274 501 389 279 383
8 386 282 185 276 503 391 281 385
8 503 391 281 385 457 354 249 342
8 511 408 299 395 393 297 199 285
8 395 299 409 512 285 199 298 394
8 512 409 300 396 394 298 200 286
8 401 305 205 291 514 411 300 396
8 515 412 301 397 398 302 202 288
8 405 309 209 295 515 412 301 397
8 516 413 302 398 399 303 203 289
8 403 306 414 517 293 206 303 399
8 402 307 207 292 518 415 304 400
8 401 305 415 518 291 205 304 400
8 404 308 208 294 520 418 307 402
8 521 417 306 403 404 308 208 294
8 406 310 210 296 523 420 309 405
8 526 423 311 407 406 310 210 296
8 410 314 213 299 527 424 312 408
8 528 425 315 411 409 313 214 300
8 410 314 425 528 299 213 313 409
8 416 317 216 305 530 427 315 411
8 531 430 318 412 413 320 219 302
8 420 325 223 309 531 430 318 412
8 532 432 320 413 414 321 220 303
8 417 322 433 533 306 221 321 414
8 418 319 218 307 534 428 316 415
8 416 317 428 534 305 216 316 415
8 419 323 434 536 308 222 322 417
8 419 323 222 308 537 431 319 418
8 421 327 225 310 539 438 325 420
8 421 327 439 541 310 225 326 423
8 543 437 324 422 423 326 224 311
8 441 338 259 368 559 452 367 486
8 443 340 236 329 560 453 338 441
8 333 240 344 447 442 342 457 561
8 445 341 237 331 562 455 340 443
8 448 345 241 334 563 454 339 444
8 563 454 339 444 445 341 237 331
8 336 242 346 450 446 343 458 565
8 446 343 458 565 333 240 344 447
8 449 347 243 335 567 460 345 448
8 451 348 244 337 568 462 347 449
8 451 348 461 569 337 244 346 450
8 570 463 349 452 473 360 257 365
8 453 350 245 338 570 463 349 452
8 455 352 247 340 571 464 350 453
8 460 357 252 345 572 465 351 454
8 572 465 351 454 456 353 248 341
8 456 353 248 341 573 466 352 455
8 344 251 356 459 457 354 468 575
8 458 355 469 576 344 251 356 459
8 346 253 358 461 458 355 469 576
8 462 359 254 347 578 471 357 460
8 348 255 359 462 461 358 472 579
8 591 474 360 473 475 361 256 363
8 475 361 256 363 594 477 362 479
8 363 256 364 482 479 362 480 603
8 590 473 365 484 481 363 482 605
8 482 364 257 365 606 483 366 485
8 559 452 367 486 484 365 485 607
8 542 436 487 609 422 324 369 488
8 525 422 488 611 407 311 371 491
8 488 369 489 612 371 261 370 490
8 491 371 490 613 373 263 372 492
8 495 386 276 377 614 503 385 493
8 614 503 385 493 561 457 342 442
8 615 501 383 494 495 386 276 377
8 496 384 274 378 615 501 383 494
8 618 500 382 497 496 384 274 378
8 619 499 381 498 497 382 272 379
8 511 408 297 393 619 499 381 498
8 620 505 387 499 500 388 278 382
8 527 424 312 408 620 505 387 499
8 502 390 506 621 384 280 388 500
8 622 507 389 501 504 392 282 386
8 502 390 280 384 622 507 389 501
8 504 392 282 386 624 509 391 503
8 624 509 391 503 575 468 354 457
8 513 410 299 395 630 527 408 511
8 631 528 411 514 512 409 300 396
8 513 410 528 631 395 299 409 512
8 519 416 305 401 633 530 411 514
8 634 531 412 515 516 413 302 398
8 523 420 309 405 634 531 412 515
8 635 532 413 516 517 414 303 399
8 521 417 533 636 403 306 414 517
8 520 418 307 402 637 534 415 518
8 519 416 534 637 401 305 415 518
8 522 419 308 404 639 537 418 520
8 522 419 536 640 404 308 417 521
8 524 421 310 406 642 539 420 523
8 524 421 541 644 406 310 423 526
8 646 543 422 525 526 423 311 407
8 529 426 314 410 647 544 424 527
8 528 425 545 648 411 315 427 530
8 529 426 545 648 410 314 425 528
8 535 429 317 416 649 546 427 530
8 650 548 430 531 532 432 320 413
8 539 438 325 420 650 548 430 531
8 533 433 550 651 414 321 432 532
8 536 434 551 652 417 322 433 533
8 537 431 319 418 653 547 428 534
8 535 429 547 653 416 317 428 534
8 538 435 552 654 419 323 434 536
8 538 435 323 419 655 549 431 537
8 540 440 327 421 657 556 438 539
8 540 440 557 659 421 327 439 541
8 541 439 555 660 423 326 437 543
8 661 554 436 542 543 437 324 422
8 676 570 452 559 590 473 365 484
8 560 453 338 441 676 570 452 559
8 562 455 340 443 677 571 453 560
8 447 344 459 566 561 457 575 678
8 564 456 341 445 679 573 455 562
8 567 460 345 448 680 572 454 563
8 680 572 454 563 564 456 341 445
8 565 458 576 682 447 344 459 566
8 450 346 461 569 565 458 576 682
8 568 462 347 449 684 578 460 567
8 451 348 462 568 569 461 579 685
8 686 580 463 570 591 474 360 473
8 571 464 350 453 686 580 463 570
8 573 466 352 455 687 581 464 571
8 572 465 582 688 460 357 471 578
8 574 467 582 688 456 353 465 572
8 574 467 353 456 689 583 466 573
8 459 356 470 577 575 468 585 691
8 576 469 586 692 459 356 470 577
8 461 358 472 579 576 469 586 692
8 462 359 471 578 579 472 588 694
8 704 591 473 590 593 475 363 481
8 595 476 592 705 475 361 474 591
8 593 475 363 481 707 594 479 602
8 594 477 362 479 709 598 478 600
8 595 476 361 475 711 597 477 594
8 479 362 480 603 600 478 601 720
8 481 363 482 605 602 479 603 722
8 603 480 364 482 723 604 483 606
8 605 482 365 484 724 606 485 607
8 656 553 608 726 542 436 487 609
8 645 542 609 728 525 422 488 611
8 609 487 610 729 488 369 489 612
8 611 488 612 730 491 371 490 613
8 616 504 386 495 731 624 503 614
8 731 624 503 614 678 575 457 561
8 732 622 501 615 616 504 386 495
8 617 502 384 496 732 622 501 615
8 617 502 621 735 496 384 500 618
8 736 620 499 619 618 500 382 497
8 630 527 408 511 736 620 499 619
8 621 506 626 737 500 388 505 620
8 647 544 424 527 737 626 505 620
8 623 508 627 738 502 390 506 621
8 623 508 390 502 739 628 507 622
8 625 510 628 739 504 392 507 622
8 740 629 509 624 691 585 468 575
8 625 510 392 504 740 629 509 624
8 632 529 410 513 744 647 527 630
8 631 528 648 745 514 411 530 633
8 632 529 648 745 513 410 528 631
8 638 535 416 519 746 649 530 633
8 747 650 531 634 635 532 413 516
8 642 539 420 523 747 650 531 634
8 636 533 651 748 517 414 532 635
8 640 536 652 749 521 417 533 636
8 639 537 418 520 750 653 534 637
8 638 535 653 750 519 416 534 637
8 641 538 419 522 751 655 537 639
8 641 538 654 752 522 419 536 640
8 643 540 421 524 753 657 539 642
8 643 540 659 755 524 421 541 644
8 644 541 660 757 526 423 543 646
8 758 661 542 645 646 543 422 525
8 529 426 544 647 648 545 662 759
8 530 427 545 648 649 546 663 760
8 535 429 546 649 653 547 664 761
8 762 666 548 650 651 550 432 532
8 657 556 438 539 762 666 548 650
8 652 551 668 763 533 433 550 651
8 654 552 669 764 536 434 551 652
8 655 549 431 537 765 665 547 653
8 538 435 549 655 654 552 667 766
8 661 554 671 768 542 436 553 656
8 658 558 440 540 769 674 556 657
8 658 558 675 770 540 440 557 659
8 659 557 673 771 541 439 555 660
8 660 555 672 772 543 437 554 661
8 788 686 570 676 704 591 473 590
8 677 571 453 560 788 686 570 676
8 679 573 455 562 789 687 571 677
8 566 459 577 683 678 575 691 790
8 681 574 456 564 791 689 573 679
8 680 572 688 792 567 460 578 684
8 681 574 688 792 564 456 572 680
8 682 576 692 794 566 459 577 683
8 569 461 579 685 682 576 692 794
8 568 462 578 684 685 579 694 796
8 687 581 464 571 798 696 580 686
8 798 696 580 686 705 592 474 591
8 689 583 466 573 799 697 581 687
8 688 582 698 800 578 471 588 694
8 690 584 698 800 574 467 582 688
8 690 584 467 574 801 699 583 689
8 693 587 701 803 577 470 585 691
8 693 587 470 577 804 702 586 692
8 695 589 702 804 579 472 586 692
8 695 589 472 579 805 703 588 694
8 708 595 705 813 593 475 591 704
8 710 596 706 814 595 476 592 705
8 707 594 479 602 816 709 600 719
8 708 595 475 593 817 711 594 707
8 709 598 478 600 819 715 599 717
8 711 597 477 594 820 714 598 709
8 710 596 476 595 822 713 597 711
8 600 478 601 720 717 599 718 832
8 602 479 603 722 719 600 720 834
8 720 601 480 603 835 721 604 723
8 722 603 482 605 836 723 606 724
8 767 670 725 839 656 553 608 726
8 756 656 726 841 645 542 609 728
8 726 608 727 842 609 487 610 729
8 728 609 729 843 611 488 612 730
8 844 740 624 731 790 691 575 678
8 733 625 504 616 844 740 624 731
8 734 623 502 617 845 739 622 732
8 733 625 739 845 616 504 622 732
8 734 623 738 846 617 502 621 735
8 735 621 737 847 618 500 620 736
8 744 647 527 630 847 737 620 736
8 621 506 627 738 737 626 741 848
8 647 544 626 737 759 662 741 848
8 623 508 628 739 738 627 742 849
8 740 629 585 691 850 743 700 802
8 625 510 629 740 739 628 743 850
8 632 529 647 744 745 648 759 854
8 633 530 648 745 746 649 760 855
8 638 535 649 746 750 653 761 856
8 857 762 650 747 748 651 532 635
8 753 657 539 642 857 762 650 747
8 749 652 763 858 636 533 651 748
8 752 654 764 859 640 536 652 749
8 751 655 537 639 860 765 653 750
8 641 538 655 751 752 654 766 861
8 754 658 540 643 862 769 657 753
8 754 658 770 863 643 540 659 755
8 755 659 771 864 644 541 660 757
8 758 661 768 866 645 542 656 756
8 757 660 772 867 646 543 661 758
8 759 662 773 868 648 545 663 760
8 649 546 663 760 761 664 774 871
8 765 665 547 653 872 775 664 761
8 873 777 666 762 763 668 550 651
8 769 674 556 657 873 777 666 762
8 764 669 779 874 652 551 668 763
8 654 552 667 766 764 669 778 875
8 655 549 665 765 766 667 776 876
8 768 671 782 877 656 553 670 767
8 772 672 783 878 661 554 671 768
8 658 558 674 769 770 675 786 879
8 659 557 675 770 771 673 785 881
8 882 784 672 772 771 673 555 660
8 789 687 571 677 897 798 686 788
8 897 798 686 788 813 705 591 704
8 791 689 573 679 898 799 687 789
8 795 693 803 900 683 577 691 790
8 793 690 574 681 901 801 689 791
8 792 688 800 902 684 578 694 796
8 793 690 800 902 681 574 688 792
8 795 693 577 683 903 804 692 794
8 797 695 804 903 685 579 692 794
8 797 695 579 685 904 805 694 796
8 905 806 697 799 798 696 581 687
8 814 706 806 905 705 592 696 798
8 689 583 697 799 801 699 808 907
8 800 698 809 908 694 588 703 805
8 690 584 699 801 800 698 809 908
8 803 701 810 909 691 585 700 802
8 693 587 702 804 803 701 811 910
8 695 589 703 805 804 702 812 911
8 818 710 814 919 708 595 705 813
8 821 712 815 920 710 596 706 814
8 816 709 600 719 922 819 717 831
8 817 711 594 707 923 820 709 816
8 818 710 595 708 924 822 711 817
8 819 715 599 717 926 827 716 829
8 820 714 598 709 927 826 715 819
8 929 825 713 822 820 714 597 711
8 821 712 596 710 930 824 713 822
8 717 599 718 832 829 716 830 942
8 719 600 720 834 831 717 832 944
8 832 718 601 720 945 833 721 835
8 834 720 603 722 946 835 723 836
8 869 780 838 950 767 670 725 839
8 865 767 839 952 756 656 726 841
8 839 725 840 953 726 608 727 842
8 841 726 842 954 728 609 729 843
8 844 740 691 790 955 850 802 899
8 733 625 740 844 845 739 850 955
8 734 623 739 845 846 738 849 956
8 735 621 738 846 847 737 848 957
8 744 647 737 847 854 759 848 957
8 738 627 742 849 848 741 851 958
8 848 741 851 958 759 662 773 868
8 850 743 700 802 959 852 807 906
8 849 742 628 739 959 852 743 850
8 854 759 868 965 745 648 760 855
8 746 649 760 855 856 761 871 966
8 860 765 653 750 967 872 761 856
8 968 873 762 857 858 763 651 748
8 862 769 657 753 968 873 762 857
8 859 764 874 969 749 652 763 858
8 752 654 766 861 859 764 875 970
8 751 655 765 860 861 766 876 971
8 754 658 769 862 863 770 879 972
8 755 659 770 863 864 771 881 974
8 976 882 772 867 864 771 660 757
8 866 768 877 977 756 656 767 865
8 867 772 878 978 758 661 768 866
8 760 663 773 868 871 774 883 980
8 870 781 837 948 982 890 780 869
8 982 890 780 869 877 782 670 767
8 761 664 774 871 872 775 884 984
8 876 776 665 765 985 885 775 872
8 873 777 668 763 986 887 779 874
8 769 674 777 873 879 786 887 986
8 764 669 778 875 874 779 888 987
8 766 667 776 876 875 778 886 988
8 878 783 892 989 768 671 782 877
8 878 783 672 772 990 893 784 882
8 880 787 675 770 991 896 786 879
8 880 787 895 992 770 675 785 881
8 881 785 894 993 771 673 784 882
8 1006 905 799 898 897 798 687 789
8 919 814 905 1006 813 705 798 897
8 791 689 799 898 901 801 907 1007
8 900 803 909 1009 790 691 802 899
8 795 693 804 903 900 803 910 1010
8 902 800 908 1011 796 694 805 904
8 793 690 801 901 902 800 908 1011
8 797 695 805 904 903 804 911 1012
8 799 697 806 905 907 808 912 1013
8 920 815 912 1013 814 706 806 905
8 802 700 810 909 906 807 913 1014
8 801 699 808 907 908 809 914 1015
8 805 703 809 908 911 812 915 1016
8 803 701 811 910 909 810 916 1017
8 911 812 917 1018 804 702 811 910
8 925 821 920 1030 818 710 814 919
8 928 823 921 1031 821 712 815 920
8 922 819 717 831 1033 926 829 941
8 923 820 709 816 1034 927 819 922
8 1035 929 822 924 923 820 711 817
8 925 821 710 818 1036 930 822 924
8 1038 933 825 929 927 826 714 820
8 926 827 716 829 1039 935 828 939
8 927 826 715 819 1040 934 827 926
8 928 823 712 821 1041 931 824 930
8 1042 932 824 930 929 825 713 822
8 829 716 830 942 939 828 940 1058
8 831 717 832 944 941 829 942 1060
8 942 830 718 832 1061 943 833 945
8 944 832 720 834 1062 945 835 946
8 981 889 947 1064 870 781 837 948
8 948 837 949 1067 869 780 838 950
8 975 869 950 1069 865 767 839 952
8 950 838 951 1070 839 725 840 953
8 952 839 953 1071 841 726 842 954
8 955 850 802 899 1072 959 906 1008
8 956 849 739 845 1072 959 850 955
8 846 738 849 956 957 848 958 1073
8 957 848 958 1073 854 759 868 965
8 849 742 852 959 958 851 961 1076
8 960 853 961 1076 906 807 852 959
8 958 851 961 1076 868 773 883 980
8 960 853 807 906 1077 963 913 1014
8 855 760 868 965 966 871 980 1085
8 856 761 871 966 967 872 984 1086
8 971 876 765 860 1087 985 872 967
8 968 873 763 858 1088 986 874 969
8 862 769 873 968 972 879 986 1088
8 859 764 875 970 969 874 987 1089
8 861 766 876 971 970 875 988 1090
8 973 880 770 863 1091 991 879 972
8 973 880 992 1092 863 770 881 974
8 974 881 993 1093 864 771 882 976
8 979 870 948 1066 1094 982 869 975
8 1094 982 869 975 977 877 767 865
8 978 878 772 867 1095 990 882 976
8 978 878 989 1096 866 768 877 977
8 871 774 883 980 984 884 994 1099
8 983 891 999 1100 870 781 889 981
8 1101 1000 890 982 989 892 782 877
8 983 891 781 870 1101 1000 890 982
8 872 775 884 984 985 885 995 1103
8 876 776 885 985 988 886 996 1104
8 986 887 779 874 1105 998 888 987
8 879 786 887 986 991 896 998 1105
8 875 778 886 988 987 888 997 1106
8 990 893 1002 1107 878 783 892 989
8 1108 1003 893 990 993 894 784 882
8 880 787 896 991 992 895 1005 1109
8 993 894 785 881 1110 1004 895 992
8 898 799 905 1006 1007 907 1013 1120
8 1030 920 1013 1120 919 814 905 1006
8 901 801 907 1007 1011 908 1015 1121
8 899 802 909 1009 1008 906 1014 1122
8 900 803 910 1010 1009 909 1017 1123
8 1012 911 1018 1124 903 804 910 1010
8 904 805 908 1011 1012 911 1016 1125
8 1013 912 1020 1127 907 808 914 1015
8 1031 921 1020 1127 920 815 912 1013
8 1019 918 962 1075 1128 1021 913 1014
8 1128 1021 913 1014 1017 916 810 909
8 1015 914 1022 1129 908 809 915 1016
8 1016 915 1023 1130 911 812 917 1018
8 1018 917 1024 1131 910 811 916 1017
8 1037 928 1031 1148 925 821 920 1030
8 928 823 931 1041 1031 921 1032 1149
8 1033 926 829 941 1151 1039 939 1057
8 1034 927 819 922 1152 1040 926 1033
8 1153 1038 929 1035 1034 927 820 923
8 1154 1042 930 1036 1035 929 822 924
8 1037 928 821 925 1155 1041 930 1036
8 1039 935 828 939 1156 1047 938 1055
8 1157 1043 932 1042 1038 933 825 929
8 1038 933 826 927 1158 1045 934 1040
8 1040 934 827 926 1159 1046 935 1039
8 930 824 932 1042 1041 931 1044 1160
8 1051 936 1048 1165 1175 1052 937 1053
8 1156 1047 938 1055 1053 937 1054 1178
8 939 828 940 1058 1055 938 1056 1181
8 941 829 942 1060 1057 939 1058 1183
8 942 830 943 1061 1058 940 1059 1184
8 1060 942 832 944 1185 1061 945 1062
8 1082 964 1063 1188 981 889 947 1064
8 1097 981 1064 1190 979 870 948 1066
8 1064 947 1065 1191 948 837 949 1067
8 1066 948 1067 1193 975 869 950 1069
8 1067 949 1068 1194 950 838 951 1070
8 1069 950 1070 1195 952 839 953 1071
8 956 849 959 1072 1073 958 1076 1197
8 1074 960 1076 1197 1008 906 959 1072
8 1073 958 1076 1197 965 868 980 1085
8 1074 960 906 1008 1198 1077 1014 1122
8 1133 1026 1079 1199 1019 918 962 1075
8 1077 963 913 1014 1200 1080 962 1075
8 960 853 963 1077 1076 961 1078 1201
8 980 883 961 1076 1099 994 1078 1201
8 1210 1083 964 1082 1100 999 889 981
8 966 871 980 1085 1086 984 1099 1215
8 967 872 984 1086 1087 985 1103 1216
8 971 876 985 1087 1090 988 1104 1217
8 1088 986 874 969 1218 1105 987 1089
8 972 879 986 1088 1091 991 1105 1218
8 970 875 988 1090 1089 987 1106 1219
8 973 880 991 1091 1092 992 1109 1220
8 1093 993 881 974 1221 1110 992 1092
8 1222 1108 990 1095 1093 993 882 976
8 1223 1101 982 1094 1096 989 877 977
8 1098 983 870 979 1223 1101 982 1094
8 1095 990 1107 1224 978 878 989 1096
8 1098 983 1100 1225 979 870 981 1097
8 984 884 994 1099 1103 995 1111 1227
8 1102 1001 1115 1228 983 891 999 1100
8 1101 1000 892 989 1229 1116 1002 1107
8 1102 1001 891 983 1229 1116 1000 1101
8 985 885 995 1103 1104 996 1112 1230
8 988 886 996 1104 1106 997 1113 1231
8 1105 998 888 987 1232 1114 997 1106
8 991 896 998 1105 1109 1005 1114 1232
8 1108 1003 1117 1233 990 893 1002 1107
8 1108 1003 894 993 1233 1117 1004 1110
8 992 895 1005 1109 1110 1004 1118 1234
8 1120 1013 1127 1244 1007 907 1015 1121
8 1148 1031 1127 1244 1030 920 1013 1120
8 1121 1015 1129 1245 1011 908 1016 1125
8 1126 1019 1075 1196 1246 1128 1014 1122
8 1246 1128 1014 1122 1123 1017 909 1009
8 1124 1018 1131 1247 1010 910 1017 1123
8 1125 1016 1130 1248 1012 911 1018 1124
8 1127 1020 1137 1254 1015 914 1022 1129
8 1031 921 1032 1149 1127 1020 1137 1254
8 1134 1027 918 1019 1257 1140 1021 1128
8 1257 1140 1021 1128 1131 1024 916 1017
8 1129 1022 1141 1258 1016 915 1023 1130
8 1130 1023 1142 1259 1018 917 1024 1131
8 1261 1144 1025 1132 1133 1026 1079 1199
8 1255 1138 1025 1132 1135 1028 1144 1261
8 1133 1026 918 1019 1262 1145 1027 1134
8 1136 1029 1139 1256 1263 1146 1028 1135
8 1037 928 1041 1155 1148 1031 1149 1275
8 1041 931 1044 1160 1149 1032 1150 1276
8 1151 1039 939 1057 1278 1156 1055 1180
8 1152 1040 926 1033 1279 1159 1039 1151
8 1153 1038 927 1034 1280 1158 1040 1152
8 1281 1157 1042 1154 1153 1038 929 1035
8 1036 930 1042 1154 1155 1041 1160 1282
8 1283 1164 1046 1159 1156 1047 935 1039
8 1165 1048 1164 1283 1053 937 1047 1156
8 1157 1043 933 1038 1284 1161 1045 1158
8 1157 1043 1161 1284 1042 932 1044 1160
8 1040 934 1046 1159 1158 1045 1163 1285
8 1166 1049 1167 1292 1051 936 1048 1165
8 1166 1049 936 1051 1293 1168 1050 1172
8 1051 936 1052 1175 1172 1050 1173 1306
8 1174 1051 1165 1290 1308 1175 1053 1177
8 1053 937 1054 1178 1175 1052 1176 1309
8 1278 1156 1055 1180 1177 1053 1178 1311
8 1055 938 1056 1181 1178 1054 1179 1312
8 1057 939 1058 1183 1180 1055 1181 1314
8 1058 940 1059 1184 1181 1056 1182 1315
8 1060 942 1061 1185 1183 1058 1184 1316
8 1208 1081 1187 1321 1082 964 1063 1188
8 1209 1082 1188 1322 1097 981 1064 1190
8 1188 1063 1189 1323 1064 947 1065 1191
8 1190 1064 1191 1325 1066 948 1067 1193
8 1191 1065 1192 1326 1067 949 1068 1194
8 1067 1193 1069 950 1194 1327 1195 1070
8 1250 1133 1199 1330 1126 1019 1075 1196
8 1198 1077 1014 1122 1331 1200 1075 1196
8 1074 960 1077 1198 1197 1076 1201 1332
8 1085 980 1076 1197 1215 1099 1201 1332
8 1199 1079 1203 1333 1075 962 1080 1200
8 1132 1025 1119 1243 1199 1079 1203 1333
8 1201 1078 963 1077 1334 1202 1080 1200
8 1099 994 1078 1201 1227 1111 1202 1334
8 1343 1207 1081 1208 1210 1083 964 1082
8 1214 1084 1186 1319 1343 1207 1081 1208
8 1345 1210 1082 1209 1225 1100 981 1097
8 1346 1211 1083 1210 1228 1115 999 1100
8 1086 984 1099 1215 1216 1103 1227 1352
8 1087 985 1103 1216 1217 1104 1230 1353
8 1090 988 1104 1217 1219 1106 1231 1354
8 1218 1105 987 1089 1355 1232 1106 1219
8 1091 991 1105 1218 1220 1109 1232 1355
8 1092 992 1109 1220 1221 1110 1234 1356
8 1222 1108 1233 1357 1095 990 1107 1224
8 1222 1108 993 1093 1357 1233 1110 1221
8 1223 1101 989 1096 1358 1229 1107 1224
8 1226 1102 983 1098 1358 1229 1101 1223
8 1226 1102 1228 1359 1098 983 1100 1225
8 1103 995 1111 1227 1230 1112 1235 1360
8 1107 1002 1117 1233 1229 1116 1240 1362
8 1102 1001 1116 1229 1228 1115 1240 1362
8 1104 996 1112 1230 1231 1113 1236 1363
8 1364 1237 1114 1232 1231 1113 997 1106
8 1109 1005 1114 1232 1234 1118 1238 1365
8 1110 1004 1118 1234 1233 1117 1241 1366
8 1242 1374 1255 1138 1119 1243 1132 1025
8 1244 1127 1254 1376 1121 1015 1129 1245
8 1148 1031 1149 1275 1244 1127 1254 1376
8 1245 1129 1258 1377 1125 1016 1130 1248
8 1251 1134 1019 1126 1378 1257 1128 1246
8 1378 1257 1128 1246 1247 1131 1017 1123
8 1248 1130 1259 1379 1124 1018 1131 1247
8 1261 1381 1250 1133 1132 1249 1330 1199
8 1255 1380 1252 1135 1132 1249 1381 1261
8 1250 1133 1019 1126 1382 1262 1134 1251
8 1253 1136 1256 1385 1384 1263 1135 1252
8 1254 1137 1265 1387 1129 1022 1141 1258
8 1149 1032 1150 1276 1254 1137 1265 1387
8 1028 1135 1255 1138 1139 1256 1388 1266
8 1136 1029 1147 1264 1256 1139 1267 1389
8 1390 1268 1140 1257 1259 1142 1024 1131
8 1260 1143 1027 1134 1390 1268 1140 1257
8 1258 1141 1269 1391 1130 1023 1142 1259
8 1262 1145 1027 1134 1393 1271 1143 1260
8 1261 1144 1026 1133 1394 1272 1145 1262
8 1135 1028 1144 1261 1263 1146 1272 1394
8 1136 1029 1146 1263 1264 1147 1273 1395
8 1155 1041 1160 1282 1275 1149 1276 1405
8 1276 1150 1044 1160 1406 1277 1162 1286
8 1408 1283 1159 1279 1278 1156 1039 1151
8 1290 1165 1283 1408 1177 1053 1156 1278
8 1152 1040 1159 1279 1280 1158 1285 1409
8 1281 1157 1038 1153 1410 1284 1158 1280
8 1281 1157 1284 1410 1154 1042 1160 1282
8 1159 1046 1164 1283 1285 1163 1289 1412
8 1292 1167 1289 1412 1165 1048 1164 1283
8 1158 1045 1163 1285 1284 1161 1288 1413
8 1284 1161 1288 1413 1160 1044 1162 1286
8 1291 1166 1292 1418 1174 1051 1165 1290
8 1291 1166 1051 1174 1419 1293 1172 1305
8 1294 1169 1296 1421 1166 1049 1167 1292
8 1293 1168 1050 1172 1422 1295 1171 1303
8 1294 1169 1049 1166 1423 1297 1168 1293
8 1422 1295 1171 1303 1301 1170 1302 1435
8 1172 1050 1173 1306 1303 1171 1304 1438
8 1174 1051 1175 1308 1305 1172 1306 1440
8 1175 1052 1176 1309 1306 1173 1307 1441
8 1177 1053 1178 1311 1308 1175 1309 1443
8 1178 1054 1179 1312 1309 1176 1310 1444
8 1180 1055 1181 1314 1311 1178 1312 1446
8 1056 1181 1312 1179 1182 1315 1447 1313
8 1183 1058 1184 1316 1314 1181 1315 1448
8 1319 1186 1084 1214 1451 1317 1213 1350
8 1319 1186 1318 1453 1208 1081 1187 1321
8 1321 1187 1320 1456 1188 1063 1189 1323
8 1344 1208 1321 1457 1209 1082 1188 1322
8 1322 1188 1323 1458 1190 1064 1191 1325
8 1323 1189 1324 1459 1191 1065 1192 1326
8 1191 1325 1193 1067 1326 1460 1327 1194
8 1242 1374 1243 1119 1328 1462 1335 1204
8 1330 1199 1333 1465 1196 1075 1200 1331
8 1132 1249 1330 1199 1243 1375 1465 1333
8 1332 1201 1077 1198 1466 1334 1200 1331
8 1215 1099 1201 1332 1352 1227 1334 1466
8 1119 1243 1333 1203 1204 1335 1470 1338
8 1333 1203 1338 1470 1200 1080 1202 1334
8 1227 1111 1202 1334 1360 1235 1338 1470
8 1328 1462 1335 1204 1205 1336 1471 1339
8 1337 1206 1340 1472 1464 1329 1205 1336
8 1346 1211 1342 1479 1210 1083 1207 1343
8 1346 1211 1115 1228 1479 1342 1239 1361
8 1348 1212 1084 1214 1479 1342 1207 1343
8 1480 1343 1208 1344 1345 1210 1082 1209
8 1351 1214 1319 1454 1480 1343 1208 1344
8 1481 1346 1210 1345 1359 1228 1100 1225
8 1348 1212 1347 1483 1214 1084 1213 1350
8 1216 1103 1227 1352 1353 1230 1360 1488
8 1217 1104 1230 1353 1354 1231 1363 1489
8 1490 1364 1232 1355 1354 1231 1106 1219
8 1220 1109 1232 1355 1356 1234 1365 1491
8 1221 1110 1234 1356 1357 1233 1366 1492
8 1224 1107 1233 1357 1358 1229 1362 1493
8 1226 1102 1229 1358 1359 1228 1362 1493
8 1230 1112 1235 1360 1363 1236 1367 1496
8 1361 1239 1115 1228 1497 1371 1240 1362
8 1366 1241 1372 1498 1233 1117 1240 1362
8 1364 1237 1113 1231 1499 1368 1236 1363
8 1364 1237 1368 1499 1232 1114 1238 1365
8 1234 1118 1238 1365 1366 1241 1369 1500
8 1507 1373 1242 1374 1388 1266 1138 1255
8 1508 1374 1243 1375 1380 1255 1132 1249
8 1376 1254 1387 1509 1245 1129 1258 1377
8 1275 1149 1276 1405 1376 1254 1387 1509
8 1377 1258 1391 1510 1248 1130 1259 1379
8 1511 1390 1257 1378 1379 1259 1131 1247
8 1383 1260 1134 1251 1511 1390 1257 1378
8 1252 1135 1256 1385 1380 1255 1388 1512
8 1261 1381 1513 1394 1133 1250 1382 1262
8 1135 1252 1384 1263 1261 1381 1513 1394
8 1382 1262 1134 1251 1514 1393 1260 1383
8 1253 1136 1263 1384 1386 1264 1395 1516
8 1253 1136 1264 1386 1385 1256 1389 1517
8 1387 1265 1397 1519 1258 1141 1269 1391
8 1276 1150 1277 1406 1387 1265 1397 1519
8 1256 1139 1267 1389 1388 1266 1398 1520
8 1264 1147 1274 1396 1389 1267 1399 1521
8 1392 1270 1143 1260 1522 1400 1268 1390
8 1390 1268 1142 1259 1522 1400 1269 1391
8 1392 1270 1401 1523 1260 1143 1271 1393
8 1272 1394 1524 1402 1145 1262 1393 1271
8 1395 1273 1146 1263 1524 1402 1272 1394
8 1273 1395 1264 1147 1403 1526 1396 1274
8 1405 1276 1160 1282 1534 1406 1286 1411
8 1414 1287 1407 1535 1286 1162 1277 1406
8 1279 1159 1283 1408 1409 1285 1412 1537
8 1418 1292 1412 1537 1290 1165 1283 1408
8 1280 1158 1285 1409 1410 1284 1413 1538
8 1410 1284 1413 1538 1282 1160 1286 1411
8 1285 1163 1289 1412 1413 1288 1417 1540
8 1421 1296 1417 1540 1292 1167 1289 1412
8 1414 1287 1162 1286 1541 1416 1288 1413
8 1420 1294 1421 1545 1291 1166 1292 1418
8 1419 1293 1172 1305 1546 1422 1303 1437
8 1420 1294 1166 1291 1547 1423 1293 1419
8 1294 1169 1297 1423 1421 1296 1425 1548
8 1423 1297 1168 1293 1549 1424 1295 1422
8 1301 1170 1298 1427 1422 1295 1424 1549
8 1432 1300 1428 1554 1301 1170 1298 1427
8 1431 1299 1428 1554 1560 1430 1300 1432
8 1563 1433 1300 1432 1435 1302 1170 1301
8 1546 1422 1303 1437 1434 1301 1435 1565
8 1303 1171 1304 1438 1435 1302 1436 1566
8 1305 1172 1306 1440 1437 1303 1438 1568
8 1306 1173 1307 1441 1438 1304 1439 1569
8 1308 1175 1309 1443 1440 1306 1441 1571
8 1309 1176 1310 1444 1441 1307 1442 1572
8 1311 1178 1312 1446 1443 1309 1444 1574
8 1179 1312 1444 1310 1313 1447 1575 1445
8 1314 1181 1315 1448 1446 1312 1447 1576
8 1350 1213 1349 1486 1451 1317 1449 1579
8 1451 1317 1450 1581 1319 1186 1318 1453
8 1454 1319 1214 1351 1582 1451 1350 1487
8 1453 1318 1452 1584 1321 1187 1320 1456
8 1454 1319 1453 1585 1344 1208 1321 1457
8 1456 1320 1455 1586 1323 1189 1324 1459
8 1457 1321 1456 1587 1322 1188 1323 1458
8 1458 1323 1459 1588 1325 1191 1326 1460
8 1205 1336 1464 1329 1328 1462 1590 1461
8 1507 1373 1461 1590 1374 1242 1328 1462
8 1508 1374 1462 1591 1375 1243 1335 1467
8 1337 1206 1329 1464 1473 1341 1463 1594
8 1375 1243 1335 1467 1465 1333 1470 1596
8 1465 1333 1470 1596 1331 1200 1334 1466
8 1352 1227 1334 1466 1488 1360 1470 1596
8 1591 1462 1336 1468 1467 1335 1471 1597
8 1469 1337 1472 1598 1595 1464 1336 1468
8 1471 1339 1474 1600 1335 1204 1338 1470
8 1600 1474 1367 1496 1470 1338 1235 1360
8 1336 1205 1340 1472 1471 1339 1475 1601
8 1337 1206 1341 1473 1472 1340 1476 1602
8 1495 1370 1478 1609 1361 1239 1342 1479
8 1348 1212 1342 1479 1483 1347 1478 1609
8 1481 1346 1479 1610 1345 1210 1343 1480
8 1481 1346 1228 1359 1610 1479 1361 1494
8 1484 1348 1214 1351 1610 1479 1343 1480
8 1483 1347 1482 1612 1350 1213 1349 1486
8 1484 1348 1483 1613 1351 1214 1350 1487
8 1353 1230 1360 1488 1489 1363 1496 1616
8 1490 1364 1231 1354 1617 1499 1363 1489
8 1490 1364 1499 1617 1355 1232 1365 1491
8 1356 1234 1365 1491 1492 1366 1500 1619
8 1492 1366 1498 1620 1357 1233 1362 1493
8 1494 1361 1228 1359 1621 1497 1362 1493
8 1495 1370 1239 1361 1622 1504 1371 1497
8 1363 1236 1367 1496 1499 1368 1501 1623
8 1497 1371 1240 1362 1624 1505 1372 1498
8 1625 1503 1372 1498 1500 1369 1241 1366
8 1365 1238 1368 1499 1500 1369 1502 1626
8 1520 1398 1506 1633 1388 1266 1373 1507
8 1634 1507 1374 1508 1512 1388 1255 1380
8 1509 1387 1519 1635 1377 1258 1391 1510
8 1405 1276 1406 1534 1509 1387 1519 1635
8 1515 1392 1260 1383 1636 1522 1390 1511
8 1511 1390 1259 1379 1636 1522 1391 1510
8 1385 1256 1389 1517 1512 1388 1520 1637
8 1513 1394 1262 1382 1638 1524 1393 1514
8 1395 1516 1638 1524 1263 1384 1513 1394
8 1515 1392 1523 1639 1383 1260 1393 1514
8 1516 1395 1526 1640 1386 1264 1396 1518
8 1386 1264 1396 1518 1517 1389 1521 1641
8 1519 1397 1527 1643 1391 1269 1400 1522
8 1535 1407 1527 1643 1406 1277 1397 1519
8 1389 1267 1399 1521 1520 1398 1528 1644
8 1645 1529 1399 1521 1525 1404 1274 1396
8 1392 1270 1400 1522 1523 1401 1531 1646
8 1524 1402 1271 1393 1648 1532 1401 1523
8 1403 1526 1648 1532 1273 1395 1524 1402
8 1525 1404 1274 1396 1649 1533 1403 1526
8 1539 1414 1535 1657 1411 1286 1406 1534
8 1542 1415 1536 1658 1414 1287 1407 1535
8 1409 1285 1412 1537 1538 1413 1540 1660
8 1545 1421 1540 1660 1418 1292 1412 1537
8 1539 1414 1286 1411 1661 1541 1413 1538
8 1540 1417 1544 1663 1413 1288 1416 1541
8 1421 1296 1425 1548 1540 1417 1544 1663
8 1542 1415 1287 1414 1664 1543 1416 1541
8 1420 1294 1423 1547 1545 1421 1548 1666
8 1547 1423 1293 1419 1667 1549 1422 1546
8 1434 1301 1427 1553 1546 1422 1549 1667
8 1423 1297 1424 1549 1548 1425 1550 1668
8 1551 1426 1550 1668 1427 1298 1424 1549
8 1551 1426 1298 1427 1671 1552 1428 1554
8 1562 1432 1554 1674 1434 1301 1427 1553
8 1431 1299 1429 1558 1554 1428 1555 1675
8 1431 1299 1430 1560 1558 1429 1557 1680
8 1560 1430 1300 1432 1683 1559 1433 1563
8 1561 1431 1554 1674 1684 1560 1432 1562
8 1685 1563 1432 1562 1565 1435 1301 1434
8 1435 1302 1436 1566 1563 1433 1564 1686
8 1437 1303 1438 1568 1565 1435 1566 1688
8 1438 1304 1439 1569 1566 1436 1567 1689
8 1440 1306 1441 1571 1568 1438 1569 1691
8 1441 1307 1442 1572 1569 1439 1570 1692
8 1443 1309 1444 1574 1571 1441 1572 1694
8 1310 1444 1572 1442 1445 1575 1695 1573
8 1446 1312 1447 1576 1574 1444 1575 1696
8 1486 1349 1485 1614 1579 1449 1577 1699
8 1451 1317 1449 1579 1581 1450 1578 1701
8 1487 1350 1486 1615 1582 1451 1579 1702
8 1581 1450 1580 1704 1453 1318 1452 1584
8 1582 1451 1581 1705 1454 1319 1453 1585
8 1584 1452 1583 1706 1456 1320 1455 1586
8 1585 1453 1584 1707 1457 1321 1456 1587
8 1587 1456 1586 1708 1458 1323 1459 1588
8 1633 1506 1589 1710 1507 1373 1461 1590
8 1464 1329 1461 1590 1594 1463 1589 1710
8 1468 1336 1462 1591 1595 1464 1590 1711
8 1634 1507 1590 1711 1508 1374 1462 1591
8 1473 1341 1463 1594 1603 1477 1593 1716
8 1469 1337 1464 1595 1599 1473 1594 1717
8 1471 1597 1467 1335 1600 1718 1596 1470
8 1718 1600 1496 1616 1596 1470 1360 1488
8 1336 1468 1597 1471 1472 1598 1719 1601
8 1469 1337 1473 1599 1598 1472 1602 1720
8 1722 1604 1501 1623 1600 1474 1367 1496
8 1475 1601 1471 1339 1604 1722 1600 1474
8 1602 1476 1605 1723 1472 1340 1475 1601
8 1476 1602 1724 1606 1341 1473 1603 1477
8 1483 1347 1478 1609 1612 1482 1608 1731
8 1495 1370 1504 1622 1609 1478 1608 1731
8 1618 1495 1609 1732 1494 1361 1479 1610
8 1484 1348 1479 1610 1613 1483 1609 1732
8 1486 1349 1482 1612 1614 1485 1611 1733
8 1613 1483 1612 1734 1487 1350 1486 1615
8 1489 1363 1496 1616 1617 1499 1623 1736
8 1491 1365 1499 1617 1619 1500 1626 1737
8 1618 1495 1361 1494 1738 1622 1497 1621
8 1739 1625 1498 1620 1619 1500 1366 1492
8 1621 1497 1362 1493 1740 1624 1498 1620
8 1742 1631 1504 1622 1624 1505 1371 1497
8 1743 1628 1502 1626 1623 1501 1368 1499
8 1744 1630 1505 1624 1625 1503 1372 1498
8 1745 1629 1503 1625 1626 1502 1369 1500
8 1520 1398 1528 1644 1633 1506 1632 1751
8 1637 1520 1633 1752 1512 1388 1507 1634
8 1635 1519 1643 1753 1510 1391 1522 1636
8 1657 1535 1643 1753 1534 1406 1519 1635
8 1515 1392 1522 1636 1639 1523 1646 1754
8 1517 1389 1521 1641 1637 1520 1644 1755
8 1524 1638 1756 1648 1393 1514 1639 1523
8 1640 1526 1395 1516 1756 1648 1524 1638
8 1642 1525 1396 1518 1757 1649 1526 1640
8 1758 1645 1521 1641 1642 1525 1396 1518
8 1646 1531 1400 1522 1760 1650 1527 1643
8 1535 1407 1536 1658 1643 1527 1650 1760
8 1521 1399 1529 1645 1644 1528 1651 1761
8 1647 1530 1652 1762 1525 1404 1529 1645
8 1401 1523 1648 1532 1531 1646 1763 1655
8 1525 1404 1533 1649 1647 1530 1654 1765
8 1533 1649 1766 1656 1403 1526 1648 1532
8 1662 1542 1658 1774 1539 1414 1535 1657
8 1542 1415 1543 1664 1658 1536 1659 1775
8 1660 1540 1663 1777 1538 1413 1541 1661
8 1545 1421 1548 1666 1660 1540 1663 1777
8 1662 1542 1414 1539 1778 1664 1541 1661
8 1664 1543 1416 1541 1779 1665 1544 1663
8 1548 1425 1550 1668 1663 1544 1665 1779
8 1547 1423 1549 1667 1666 1548 1668 1781
8 1670 1551 1668 1781 1553 1427 1549 1667
8 1551 1426 1552 1671 1668 1550 1669 1782
8 1670 1551 1427 1553 1784 1671 1554 1674
8 1675 1555 1672 1785 1554 1428 1552 1671
8 1678 1556 1673 1789 1558 1429 1555 1675
8 1561 1431 1558 1681 1674 1554 1675 1790
8 1794 1677 1556 1678 1680 1557 1429 1558
8 1560 1430 1559 1683 1680 1557 1679 1797
8 1561 1431 1560 1684 1681 1558 1680 1798
8 1563 1433 1564 1686 1683 1559 1682 1800
8 1684 1560 1432 1562 1801 1683 1563 1685
8 1565 1435 1566 1688 1685 1563 1686 1802
8 1566 1436 1567 1689 1686 1564 1687 1803
8 1568 1438 1569 1691 1688 1566 1689 1805
8 1569 1439 1570 1692 1689 1567 1690 1806
8 1571 1441 1572 1694 1691 1569 1692 1808
8 1442 1572 1692 1570 1573 1695 1809 1693
8 1574 1444 1575 1696 1694 1572 1695 1810
8 1614 1485 1592 1712 1699 1577 1697 1813
8 1579 1449 1577 1699 1701 1578 1698 1815
8 1615 1486 1614 1735 1702 1579 1699 1816
8 1701 1578 1700 1818 1581 1450 1580 1704
8 1582 1451 1579 1702 1705 1581 1701 1819
8 1704 1580 1703 1820 1584 1452 1583 1706
8 1705 1581 1704 1821 1585 1453 1584 1707
8 1707 1584 1706 1822 1587 1456 1586 1708
8 1710 1589 1506 1633 1824 1709 1632 1751
8 1594 1463 1589 1710 1716 1593 1709 1824
8 1752 1633 1710 1825 1634 1507 1590 1711
8 1595 1464 1590 1711 1717 1594 1710 1825
8 1830 1714 1592 1712 1733 1611 1485 1614
8 1603 1477 1593 1716 1725 1607 1715 1834
8 1599 1473 1594 1717 1721 1603 1716 1835
8 1837 1722 1623 1736 1718 1600 1496 1616
8 1719 1601 1722 1837 1597 1471 1600 1718
8 1602 1720 1598 1472 1723 1838 1719 1601
8 1720 1602 1473 1599 1839 1724 1603 1721
8 1723 1605 1726 1840 1601 1475 1604 1722
8 1840 1726 1628 1743 1722 1604 1501 1623
8 1724 1606 1727 1841 1602 1476 1605 1723
8 1725 1607 1728 1842 1603 1477 1606 1724
8 1612 1482 1608 1731 1733 1611 1730 1849
8 1741 1627 1730 1849 1622 1504 1608 1731
8 1613 1483 1609 1732 1734 1612 1731 1850
8 1618 1495 1622 1738 1732 1609 1731 1850
8 1615 1486 1612 1734 1735 1614 1733 1851
8 1852 1743 1626 1737 1736 1623 1499 1617
8 1853 1745 1625 1739 1737 1626 1500 1619
8 1855 1742 1622 1738 1740 1624 1497 1621
8 1856 1744 1624 1740 1739 1625 1498 1620
8 1741 1627 1504 1622 1857 1746 1631 1742
8 1742 1631 1505 1624 1858 1749 1630 1744
8 1859 1747 1629 1745 1743 1628 1502 1626
8 1860 1748 1630 1744 1745 1629 1503 1625
8 1644 1528 1651 1761 1751 1632 1750 1865
8 1637 1520 1644 1755 1752 1633 1751 1866
8 1754 1646 1522 1636 1867 1760 1643 1753
8 1657 1535 1658 1774 1753 1643 1760 1867
8 1639 1523 1646 1754 1756 1648 1763 1868
8 1641 1521 1645 1758 1755 1644 1761 1869
8 1757 1649 1526 1640 1870 1766 1648 1756
8 1642 1525 1649 1757 1759 1647 1765 1871
8 1759 1647 1762 1872 1642 1525 1645 1758
8 1760 1650 1767 1874 1646 1531 1655 1763
8 1658 1536 1659 1775 1760 1650 1767 1874
8 1762 1652 1768 1875 1645 1529 1651 1761
8 1764 1653 1769 1876 1647 1530 1652 1762
8 1656 1766 1877 1773 1532 1648 1763 1655
8 1771 1879 1765 1654 1653 1764 1647 1530
8 1533 1649 1765 1654 1656 1766 1880 1772
8 1662 1542 1664 1778 1774 1658 1775 1887
8 1664 1543 1665 1779 1775 1659 1776 1888
8 1778 1664 1541 1661 1890 1779 1663 1777
8 1666 1548 1668 1781 1777 1663 1779 1890
8 1782 1669 1780 1891 1668 1550 1665 1779
8 1670 1551 1671 1784 1781 1668 1782 1893
8 1671 1552 1672 1785 1782 1669 1783 1894
8 1790 1675 1785 1896 1674 1554 1671 1784
8 1675 1555 1673 1789 1785 1672 1786 1897
8 1792 1676 1788 1903 1678 1556 1673 1789
8 1795 1678 1789 1904 1681 1558 1675 1790
8 1792 1676 1556 1678 1906 1791 1677 1794
8 1680 1557 1679 1797 1794 1677 1793 1909
8 1910 1794 1678 1795 1798 1680 1558 1681
8 1683 1559 1682 1800 1797 1679 1796 1912
8 1684 1560 1683 1801 1798 1680 1797 1913
8 1686 1564 1687 1803 1800 1682 1799 1915
8 1685 1563 1686 1802 1801 1683 1800 1916
8 1688 1566 1689 1805 1802 1686 1803 1917
8 1689 1567 1690 1806 1803 1687 1804 1918
8 1691 1569 1692 1808 1805 1689 1806 1920
8 1692 1570 1693 1809 1806 1690 1807 1921
8 1694 1572 1695 1810 1808 1692 1809 1922
8 1829 1713 1811 1926 1712 1592 1697 1813
8 1813 1697 1812 1928 1699 1577 1698 1815
8 1735 1614 1712 1828 1816 1699 1813 1929
8 1815 1698 1814 1931 1701 1578 1700 1818
8 1702 1579 1699 1816 1819 1701 1815 1932
8 1818 1700 1817 1933 1704 1580 1703 1820
8 1819 1701 1818 1934 1705 1581 1704 1821
8 1821 1704 1820 1935 1707 1584 1706 1822
8 1824 1709 1632 1751 1937 1823 1750 1865
8 1716 1593 1709 1824 1834 1715 1823 1937
8 1825 1710 1633 1752 1938 1824 1751 1866
8 1717 1594 1710 1825 1835 1716 1824 1938
8 1945 1830 1712 1828 1851 1733 1614 1735
8 1830 1714 1831 1946 1712 1592 1713 1829
8 1947 1832 1714 1830 1849 1730 1611 1733
8 1843 1729 1607 1725 1950 1833 1715 1834
8 1721 1603 1716 1835 1836 1725 1834 1951
8 1836 1725 1842 1953 1721 1603 1724 1839
8 1723 1838 1719 1601 1840 1954 1837 1722
8 1954 1840 1743 1852 1837 1722 1623 1736
8 1724 1839 1720 1602 1841 1955 1838 1723
8 1841 1727 1844 1956 1723 1605 1726 1840
8 1956 1844 1747 1859 1840 1726 1628 1743
8 1728 1842 1724 1606 1845 1957 1841 1727
8 1725 1607 1729 1843 1842 1728 1846 1958
8 1741 1627 1746 1857 1849 1730 1848 1965
8 1734 1612 1731 1850 1851 1733 1849 1966
8 1854 1741 1849 1966 1738 1622 1731 1850
8 1967 1859 1745 1853 1852 1743 1626 1737
8 1968 1860 1744 1856 1853 1745 1625 1739
8 1854 1741 1622 1738 1969 1857 1742 1855
8 1855 1742 1624 1740 1970 1858 1744 1856
8 1857 1746 1631 1742 1971 1861 1749 1858
8 1858 1749 1630 1744 1972 1863 1748 1860
8 1859 1747 1862 1973 1745 1629 1748 1860
8 1875 1768 1864 1977 1761 1651 1750 1865
8 1755 1644 1761 1869 1866 1751 1865 1978
8 1867 1760 1874 1979 1754 1646 1763 1868
8 1774 1658 1775 1887 1867 1760 1874 1979
8 1870 1766 1648 1756 1980 1877 1763 1868
8 1872 1762 1875 1981 1758 1645 1761 1869
8 1757 1649 1766 1870 1871 1765 1880 1982
8 1983 1879 1764 1873 1871 1765 1647 1759
8 1873 1764 1876 1984 1759 1647 1762 1872
8 1877 1773 1655 1763 1986 1881 1767 1874
8 1775 1659 1776 1888 1874 1767 1881 1986
8 1876 1769 1882 1987 1762 1652 1768 1875
8 1878 1770 1883 1988 1764 1653 1769 1876
8 1880 1772 1656 1766 1989 1886 1773 1877
8 1878 1770 1653 1764 1990 1884 1771 1879
8 1765 1654 1772 1880 1879 1771 1885 1991
8 1778 1664 1779 1890 1887 1775 1888 1997
8 1998 1889 1776 1888 1891 1780 1665 1779
8 1893 1782 1891 2000 1781 1668 1779 1890
8 1894 1783 1892 2001 1782 1669 1780 1891
8 1784 1671 1785 1896 1893 1782 1894 2003
8 1897 1786 1895 2004 1785 1672 1783 1894
8 1790 1675 1789 1904 1896 1785 1897 2006
8 1901 1787 1898 2007 1789 1673 1786 1897
8 1903 1788 1900 2013 1789 1673 1787 1901
8 1792 1676 1791 1906 1903 1788 1902 2016
8 1907 1792 1903 2017 1795 1678 1789 1904
8 1906 1791 1677 1794 2019 1905 1793 1909
8 1907 1792 1678 1795 2020 1906 1794 1910
8 1797 1679 1796 1912 1909 1793 1908 2022
8 1798 1680 1797 1913 1910 1794 1909 2023
8 1800 1682 1799 1915 1912 1796 1911 2025
8 1801 1683 1800 1916 1913 1797 1912 2026
8 1803 1687 1804 1918 1915 1799 1914 2028
8 1802 1686 1803 1917 1916 1800 1915 2029
8 1805 1689 1806 1920 1917 1803 1918 2030
8 1806 1690 1807 1921 1918 1804 1919 2031
8 1808 1692 1809 1922 1920 1806 1921 2032
8 1939 1826 1924 2037 1829 1713 1811 1926
8 1926 1811 1925 2039 1813 1697 1812 1928
8 1944 1829 1926 2040 1828 1712 1813 1929
8 1928 1812 1927 2042 1815 1698 1814 1931
8 1929 1813 1928 2043 1816 1699 1815 1932
8 1931 1814 1930 2044 1818 1700 1817 1933
8 1932 1815 1931 2045 1819 1701 1818 1934
8 1934 1818 1933 2046 1821 1704 1820 1935
8 2048 1936 1823 1937 1977 1864 1750 1865
8 1950 1833 1715 1834 2048 1936 1823 1937
8 1938 1824 1751 1866 2049 1937 1865 1978
8 1835 1716 1824 1938 1951 1834 1937 2049
8 1939 1826 1713 1829 2053 1942 1831 1946
8 1940 1827 1923 2035 2053 1942 1826 1939
8 1945 1830 1946 2058 1828 1712 1829 1944
8 2059 1947 1830 1945 1966 1849 1733 1851
8 1947 1832 1730 1849 2060 1948 1848 1965
8 1947 1832 1948 2060 1830 1714 1831 1946
8 1959 1847 1729 1843 2063 1949 1833 1950
8 1952 1843 1725 1836 2064 1950 1834 1951
8 1836 1725 1843 1952 1953 1842 1958 2066
8 1953 1842 1957 2067 1839 1724 1841 1955
8 1841 1955 1838 1723 1956 2068 1954 1840
8 2068 1956 1859 1967 1954 1840 1743 1852
8 1956 1844 1960 2069 1859 1747 1862 1973
8 1845 1957 1841 1727 1960 2069 1956 1844
8 1728 1842 1957 1845 1846 1958 2071 1961
8 1962 2072 1959 1847 1846 1958 1843 1729
8 1971 1861 1964 2077 1857 1746 1848 1965
8 1854 1741 1857 1969 1966 1849 1965 2078
8 1967 1859 1973 2079 1853 1745 1860 1968
8 1970 1858 1744 1856 2080 1972 1860 1968
8 1969 1857 1742 1855 2081 1971 1858 1970
8 1971 1861 1749 1858 2082 1974 1863 1972
8 1973 1862 1975 2083 1860 1748 1863 1972
8 1987 1882 1976 2086 1875 1768 1864 1977
8 1981 1875 1977 2087 1869 1761 1865 1978
8 1980 1877 1763 1868 2088 1986 1874 1979
8 1887 1775 1888 1997 1979 1874 1986 2088
8 1880 1982 2089 1989 1766 1870 1980 1877
8 1984 1876 1987 2090 1872 1762 1875 1981
8 1765 1871 1983 1879 1880 1982 2091 1991
8 1985 1878 1764 1873 2092 1990 1879 1983
8 1985 1878 1988 2093 1873 1764 1876 1984
8 2094 1992 1881 1986 1998 1889 1776 1888
8 1986 1881 1992 2094 1877 1773 1886 1989
8 1988 1883 1993 2095 1876 1769 1882 1987
8 1878 1770 1884 1990 1988 1883 1994 2096
8 1991 1885 1772 1880 2097 1996 1886 1989
8 1879 1771 1885 1991 1990 1884 1995 2098
8 2103 1998 1888 1997 2000 1891 1779 1890
8 2104 1999 1889 1998 2001 1892 1780 1891
8 2003 1894 2001 2106 1893 1782 1891 2000
8 2004 1895 2002 2107 1894 1783 1892 2001
8 2006 1897 2004 2109 1896 1785 1894 2003
8 2007 1898 2005 2110 1897 1786 1895 2004
8 2014 1901 2007 2112 1904 1789 1897 2006
8 2011 1899 2008 2113 1901 1787 1898 2007
8 2119 2010 1899 2011 2013 1900 1787 1901
8 2016 1902 2012 2122 1903 1788 1900 2013
8 2017 1903 2013 2123 1904 1789 1901 2014
8 1906 1791 1905 2019 2016 1902 2015 2125
8 1907 1792 1906 2020 2017 1903 2016 2126
8 1909 1793 1908 2022 2019 1905 2018 2128
8 2020 1906 1794 1910 2129 2019 1909 2023
8 1912 1796 1911 2025 2022 1908 2021 2131
8 1913 1797 1912 2026 2023 1909 2022 2132
8 1915 1799 1914 2028 2025 1911 2024 2134
8 1916 1800 1915 2029 2026 1912 2025 2135
8 1918 1804 1919 2031 2028 1914 2027 2136
8 1917 1803 1918 2030 2029 1915 2028 2137
8 1920 1806 1921 2032 2030 1918 2031 2138
8 1940 1827 1941 2054 2035 1923 2033 2140
8 2035 1923 2034 2143 1939 1826 1924 2037
8 2037 1924 2036 2146 1926 1811 1925 2039
8 2051 1939 2037 2147 1944 1829 1926 2040
8 2039 1925 2038 2149 1928 1812 1927 2042
8 2040 1926 2039 2150 1929 1813 1928 2043
8 2042 1927 2041 2151 1931 1814 1930 2044
8 2043 1928 2042 2152 1932 1815 1931 2045
8 2045 1931 2044 2153 1934 1818 1933 2046
8 2155 2047 1936 2048 2086 1976 1864 1977
8 2063 1949 1833 1950 2155 2047 1936 2048
8 2156 2048 1937 2049 2087 1977 1865 1978
8 2064 1950 1834 1951 2156 2048 1937 2049
8 2051 1939 1829 1944 2160 2053 1946 2058
8 2052 1940 2035 2144 2160 2053 1939 2051
8 2053 1942 1831 1946 2163 2057 1948 2060
8 2055 1943 1827 1940 2163 2057 1942 2053
8 2055 1943 2056 2164 1940 1827 1941 2054
8 2059 1947 1849 1966 2167 2060 1965 2078
8 2059 1947 2060 2167 1945 1830 1946 2058
8 2077 1964 2061 2168 1965 1848 1948 2060
8 2070 1963 1847 1959 2170 2062 1949 2063
8 2065 1959 1843 1952 2171 2063 1950 2064
8 2173 2072 1958 2066 2065 1959 1843 1952
8 1953 1842 1958 2066 2067 1957 2071 2174
8 2068 1956 2069 2175 1967 1859 1973 2079
8 2067 1957 2069 2175 1955 1841 1956 2068
8 1845 1957 2069 1960 1961 2071 2176 2073
8 2069 1960 2073 2176 1973 1862 1975 2083
8 2070 1963 2075 2177 1959 1847 1962 2072
8 1846 1958 2071 1961 1962 2072 2178 2074
8 2077 1964 1861 1971 2182 2076 1974 2082
8 2081 1971 2077 2183 1969 1857 1965 2078
8 2079 1973 2083 2184 1968 1860 1972 2080
8 2081 1971 1858 1970 2185 2082 1972 2080
8 2083 1975 2084 2186 1972 1863 1974 2082
8 2086 1976 1882 1987 2189 2085 1993 2095
8 2090 1987 2086 2190 1981 1875 1977 2087
8 2191 2094 1986 2088 2103 1998 1888 1997
8 2088 1986 2094 2191 1980 1877 1989 2089
8 1991 2091 2192 2097 1880 1982 2089 1989
8 2093 1988 2095 2193 1984 1876 1987 2090
8 1879 1983 2092 1990 1991 2091 2194 2098
8 1985 1878 1990 2092 2093 1988 2096 2195
8 2097 1996 1886 1989 2196 2099 1992 2094
8 2196 2099 1992 2094 2104 1999 1889 1998
8 1994 2096 1988 1883 2100 2197 2095 1993
8 2096 1994 1884 1990 2198 2101 1995 2098
8 1995 2098 2199 2102 1885 1991 2097 1996
8 2203 2104 1998 2103 2106 2001 1891 2000
8 2107 2002 2105 2204 2001 1892 1999 2104
8 2109 2004 2107 2206 2003 1894 2001 2106
8 2110 2005 2108 2207 2004 1895 2002 2107
8 2112 2007 2110 2209 2006 1897 2004 2109
8 2113 2008 2111 2210 2007 1898 2005 2110
8 2120 2011 2113 2212 2014 1901 2007 2112
8 2117 2009 2114 2213 2011 1899 2008 2113
8 2219 2116 2009 2117 2119 2010 1899 2011
8 2222 2118 2010 2119 2122 2012 1900 2013
8 2223 2119 2011 2120 2123 2013 1901 2014
8 2016 1902 2015 2125 2122 2012 2121 2225
8 2126 2016 2122 2226 2017 1903 2013 2123
8 2019 1905 2018 2128 2125 2015 2124 2228
8 2020 1906 2019 2129 2126 2016 2125 2229
8 2022 1908 2021 2131 2128 2018 2127 2231
8 2023 1909 2022 2132 2129 2019 2128 2232
8 2025 1911 2024 2134 2131 2021 2130 2234
8 2026 1912 2025 2135 2132 2022 2131 2235
8 1914 2028 2134 2024 2027 2136 2236 2133
8 2029 1915 2028 2137 2135 2025 2134 2237
8 2030 1918 2031 2138 2137 2028 2136 2238
8 2157 2050 2139 2240 2054 1941 2033 2140
8 2052 1940 2054 2161 2144 2035 2140 2242
8 2140 2033 2141 2243 2035 1923 2034 2143
8 2143 2034 2142 2246 2037 1924 2036 2146
8 2144 2035 2143 2247 2051 1939 2037 2147
8 2146 2036 2145 2249 2039 1925 2038 2149
8 2147 2037 2146 2250 2040 1926 2039 2150
8 2149 2038 2148 2251 2042 1927 2041 2151
8 2150 2039 2149 2252 2043 1928 2042 2152
8 2152 2042 2151 2253 2045 1931 2044 2153
8 2255 2154 2047 2155 2189 2085 1976 2086
8 2170 2062 1949 2063 2255 2154 2047 2155
8 2256 2155 2048 2156 2190 2086 1977 2087
8 2171 2063 1950 2064 2256 2155 2048 2156
8 2258 2159 2050 2157 2164 2056 1941 2054
8 2160 2053 1946 2058 2262 2163 2060 2167
8 2162 2055 1940 2052 2262 2163 2053 2160
8 2162 2055 2164 2263 2052 1940 2054 2161
8 2163 2057 1948 2060 2264 2165 2061 2168
8 2055 1943 2057 2163 2164 2056 2165 2264
8 2182 2076 2166 2268 2077 1964 2061 2168
8 2183 2077 2168 2269 2078 1965 2060 2167
8 2070 1963 2062 2170 2177 2075 2169 2271
8 2172 2070 1959 2065 2272 2170 2063 2171
8 2172 2070 2177 2273 2065 1959 2072 2173
8 2066 1958 2072 2173 2174 2071 2178 2274
8 2067 1957 2071 2174 2175 2069 2176 2275
8 2175 2069 2176 2275 2079 1973 2083 2184
8 2071 1961 2074 2178 2176 2073 2179 2276
8 2176 2073 2179 2276 2083 1975 2084 2186
8 2072 1962 2075 2177 2178 2074 2180 2277
8 2182 2076 1974 2082 2280 2181 2084 2186
8 2183 2077 1971 2081 2281 2182 2082 2185
8 2184 2083 2186 2282 2080 1972 2082 2185
8 2189 2085 1993 2095 2285 2188 2100 2197
8 2190 2086 1987 2090 2286 2189 2095 2193
8 2192 2097 1989 2089 2287 2196 2094 2191
8 2287 2196 2094 2191 2203 2104 1998 2103
8 2194 2098 1991 2091 2288 2199 2097 2192
8 2195 2096 2197 2289 2093 1988 2095 2193
8 2096 2195 2290 2198 1990 2092 2194 2098
8 2097 1996 2099 2196 2199 2102 2200 2291
8 2196 2099 1999 2104 2291 2200 2105 2204
8 2100 2197 2292 2201 1994 2096 2198 2101
8 1995 2098 2198 2101 2102 2199 2293 2202
8 2206 2107 2204 2296 2106 2001 2104 2203
8 2207 2108 2205 2297 2107 2002 2105 2204
8 2209 2110 2207 2299 2109 2004 2107 2206
8 2210 2111 2208 2300 2110 2005 2108 2207
8 2212 2113 2210 2302 2112 2007 2110 2209
8 2213 2114 2211 2303 2113 2008 2111 2210
8 2220 2117 2213 2305 2120 2011 2113 2212
8 2216 2115 2214 2306 2117 2009 2114 2213
8 2216 2115 2009 2117 2311 2217 2116 2219
8 2219 2116 2010 2119 2314 2218 2118 2222
8 2315 2219 2117 2220 2223 2119 2011 2120
8 2122 2012 2121 2225 2222 2118 2221 2317
8 2318 2222 2119 2223 2226 2122 2013 2123
8 2125 2015 2124 2228 2225 2121 2224 2320
8 2126 2016 2125 2229 2226 2122 2225 2321
8 2128 2018 2127 2231 2228 2124 2227 2323
8 2129 2019 2128 2232 2229 2125 2228 2324
8 2131 2021 2130 2234 2231 2127 2230 2326
8 2132 2022 2131 2235 2232 2128 2231 2327
8 2134 2024 2133 2236 2234 2130 2233 2328
8 2135 2025 2134 2237 2235 2131 2234 2329
8 2137 2028 2136 2238 2237 2134 2236 2330
8 2157 2050 2158 2259 2240 2139 2239 2332
8 2257 2157 2240 2334 2161 2054 2140 2242
8 2240 2139 2241 2335 2140 2033 2141 2243
8 2242 2140 2243 2337 2144 2035 2143 2247
8 2243 2141 2244 2338 2143 2034 2142 2246
8 2246 2142 2245 2341 2146 2036 2145 2249
8 2247 2143 2246 2342 2147 2037 2146 2250
8 2249 2145 2248 2343 2149 2038 2148 2251
8 2250 2146 2249 2344 2150 2039 2149 2252
8 2252 2149 2251 2345 2152 2042 2151 2253
8 2169 2271 2347 2254 2062 2170 2255 2154
8 2189 2085 2188 2285 2255 2154 2254 2347
8 2348 2255 2155 2256 2286 2189 2086 2190
8 2272 2170 2063 2171 2348 2255 2155 2256
8 2349 2258 2157 2257 2263 2164 2054 2161
8 2258 2159 2261 2351 2157 2050 2158 2259
8 2258 2159 2056 2164 2351 2261 2165 2264
8 2262 2163 2060 2167 2355 2264 2168 2269
8 2162 2055 2163 2262 2263 2164 2264 2355
8 2357 2266 2165 2264 2268 2166 2061 2168
8 2268 2166 2076 2182 2361 2267 2181 2280
8 2281 2182 2268 2362 2183 2077 2168 2269
8 2271 2169 2270 2364 2177 2075 2180 2277
8 2172 2070 2170 2272 2273 2177 2271 2365
8 2072 2173 2274 2178 2177 2273 2366 2277
8 2071 2174 2275 2176 2178 2274 2367 2276
8 2275 2176 2276 2367 2184 2083 2186 2282
8 2283 2187 2084 2186 2368 2278 2179 2276
8 2178 2074 2180 2277 2276 2179 2278 2368
8 2283 2187 2279 2370 2186 2084 2181 2280
8 2281 2182 2082 2185 2371 2280 2186 2282
8 2188 2285 2374 2284 2100 2197 2292 2201
8 2286 2189 2095 2193 2375 2285 2197 2289
8 2192 2097 2196 2287 2288 2199 2291 2376
8 2287 2196 2104 2203 2376 2291 2204 2296
8 2194 2098 2199 2288 2290 2198 2293 2377
8 2289 2197 2096 2195 2378 2292 2198 2290
8 2291 2200 2105 2204 2379 2294 2205 2297
8 2199 2102 2200 2291 2293 2202 2294 2379
8 2198 2101 2202 2293 2292 2201 2295 2380
8 2299 2207 2297 2383 2206 2107 2204 2296
8 2300 2208 2298 2384 2207 2108 2205 2297
8 2302 2210 2300 2386 2209 2110 2207 2299
8 2303 2211 2301 2387 2210 2111 2208 2300
8 2305 2213 2303 2389 2212 2113 2210 2302
8 2306 2214 2304 2390 2213 2114 2211 2303
8 2310 2216 2306 2392 2220 2117 2213 2305
8 2308 2215 2307 2393 2216 2115 2214 2306
8 2308 2215 2115 2216 2396 2309 2217 2311
8 2310 2216 2117 2220 2398 2311 2219 2315
8 2311 2217 2116 2219 2399 2312 2218 2314
8 2314 2218 2118 2222 2402 2313 2221 2317
8 2315 2219 2119 2223 2403 2314 2222 2318
8 2225 2121 2224 2320 2317 2221 2316 2405
8 2226 2122 2225 2321 2318 2222 2317 2406
8 2228 2124 2227 2323 2320 2224 2319 2408
8 2229 2125 2228 2324 2321 2225 2320 2409
8 2231 2127 2230 2326 2323 2227 2322 2411
8 2232 2128 2231 2327 2324 2228 2323 2412
8 2234 2130 2233 2328 2326 2230 2325 2413
8 2235 2131 2234 2329 2327 2231 2326 2414
8 2237 2134 2236 2330 2329 2234 2328 2415
8 2259 2158 2260 2352 2332 2239 2331 2417
8 2257 2157 2259 2350 2334 2240 2332 2419
8 2240 2139 2239 2332 2335 2241 2333 2420
8 2334 2240 2335 2422 2242 2140 2243 2337
8 2335 2241 2336 2423 2243 2141 2244 2338
8 2337 2243 2338 2425 2247 2143 2246 2342
8 2338 2244 2339 2426 2246 2142 2245 2341
8 2341 2245 2340 2428 2249 2145 2248 2343
8 2342 2246 2341 2429 2250 2146 2249 2344
8 2344 2249 2343 2430 2252 2149 2251 2345
8 2188 2285 2347 2254 2284 2374 2432 2346
8 2347 2254 2346 2432 2271 2169 2270 2364
8 2365 2271 2170 2272 2433 2347 2255 2348
8 2286 2189 2285 2375 2348 2255 2347 2433
8 2349 2258 2351 2435 2257 2157 2259 2350
8 2349 2258 2164 2263 2435 2351 2264 2355
8 2259 2158 2261 2351 2352 2260 2354 2437
8 2356 2265 2354 2437 2264 2165 2261 2351
8 2441 2357 2264 2355 2362 2268 2168 2269
8 2356 2265 2165 2264 2442 2358 2266 2357
8 2443 2359 2266 2357 2361 2267 2166 2268
8 2370 2279 2360 2446 2280 2181 2267 2361
8 2362 2268 2182 2281 2447 2361 2280 2371
8 2180 2277 2368 2278 2270 2364 2449 2363
8 2271 2365 2273 2177 2364 2450 2366 2277
8 2372 2283 2186 2282 2451 2368 2276 2367
8 2178 2274 2367 2276 2277 2366 2451 2368
8 2283 2187 2278 2368 2370 2279 2369 2452
8 2372 2283 2370 2453 2282 2186 2280 2371
8 2284 2374 2455 2373 2201 2292 2380 2295
8 2375 2285 2197 2289 2456 2374 2292 2378
8 2376 2291 2204 2296 2457 2379 2297 2383
8 2288 2199 2291 2376 2377 2293 2379 2457
8 2198 2290 2378 2292 2293 2377 2458 2380
8 2293 2202 2294 2379 2380 2295 2381 2459
8 2384 2298 2381 2459 2297 2205 2294 2379
8 2386 2300 2384 2463 2299 2207 2297 2383
8 2387 2301 2385 2464 2300 2208 2298 2384
8 2389 2303 2387 2466 2302 2210 2300 2386
8 2390 2304 2388 2467 2303 2211 2301 2387
8 2392 2306 2390 2469 2305 2213 2303 2389
8 2393 2307 2391 2470 2306 2214 2304 2390
8 2395 2308 2393 2472 2310 2216 2306 2392
8 2308 2215 2309 2396 2393 2307 2394 2473
8 2395 2308 2216 2310 2475 2396 2311 2398
8 2396 2309 2217 2311 2476 2397 2312 2399
8 2398 2311 2219 2315 2478 2399 2314 2403
8 2399 2312 2218 2314 2479 2400 2313 2402
8 2317 2221 2316 2405 2402 2313 2401 2482
8 2403 2314 2222 2318 2483 2402 2317 2406
8 2320 2224 2319 2408 2405 2316 2404 2485
8 2321 2225 2320 2409 2406 2317 2405 2486
8 2323 2227 2322 2411 2408 2319 2407 2488
8 2324 2228 2323 2412 2409 2320 2408 2489
8 2326 2230 2325 2413 2411 2322 2410 2490
8 2327 2231 2326 2414 2412 2323 2411 2491
8 2329 2234 2328 2415 2414 2326 2413 2492
8 2417 2331 2260 2352 2494 2416 2353 2438
8 2350 2259 2352 2436 2419 2332 2417 2496
8 2332 2239 2331 2417 2420 2333 2418 2497
8 2334 2240 2332 2419 2422 2335 2420 2499
8 2420 2333 2421 2500 2335 2241 2336 2423
8 2422 2335 2423 2502 2337 2243 2338 2425
8 2423 2336 2424 2503 2338 2244 2339 2426
8 2425 2338 2426 2505 2342 2246 2341 2429
8 2426 2339 2427 2506 2341 2245 2340 2428
8 2429 2341 2428 2507 2344 2249 2343 2430
8 2432 2346 2284 2374 2509 2431 2373 2455
8 2432 2346 2431 2509 2364 2270 2363 2449
8 2375 2285 2374 2456 2433 2347 2432 2510
8 2347 2433 2365 2271 2432 2510 2450 2364
8 2350 2259 2351 2435 2436 2352 2437 2514
8 2440 2356 2437 2514 2355 2264 2351 2435
8 2352 2260 2354 2437 2438 2353 2439 2516
8 2356 2265 2358 2442 2437 2354 2439 2516
8 2440 2356 2264 2355 2518 2442 2357 2441
8 2519 2443 2357 2441 2447 2361 2268 2362
8 2443 2359 2444 2520 2357 2266 2358 2442
8 2443 2359 2267 2361 2520 2444 2360 2446
8 2446 2360 2279 2370 2523 2445 2369 2452
8 2453 2370 2446 2524 2371 2280 2361 2447
8 2449 2363 2448 2525 2368 2278 2369 2452
8 2366 2277 2364 2450 2451 2368 2449 2526
8 2372 2283 2368 2451 2453 2370 2452 2527
8 2455 2373 2295 2380 2529 2454 2382 2460
8 2456 2374 2292 2378 2530 2455 2380 2458
8 2377 2293 2379 2457 2458 2380 2459 2531
8 2463 2384 2459 2531 2383 2297 2379 2457
8 2533 2461 2382 2460 2459 2381 2295 2380
8 2464 2385 2461 2533 2384 2298 2381 2459
8 2466 2387 2464 2537 2386 2300 2384 2463
8 2467 2388 2465 2538 2387 2301 2385 2464
8 2469 2390 2467 2540 2389 2303 2387 2466
8 2470 2391 2468 2541 2390 2304 2388 2467
8 2472 2393 2470 2543 2392 2306 2390 2469
8 2393 2307 2394 2473 2470 2391 2471 2544
8 2395 2308 2396 2475 2472 2393 2473 2546
8 2396 2309 2397 2476 2473 2394 2474 2547
8 2475 2396 2311 2398 2549 2476 2399 2478
8 2476 2397 2312 2399 2550 2477 2400 2479
8 2478 2399 2314 2403 2552 2479 2402 2483
8 2479 2400 2313 2402 2553 2480 2401 2482
8 2405 2316 2404 2485 2482 2401 2481 2556
8 2406 2317 2405 2486 2483 2402 2482 2557
8 2408 2319 2407 2488 2485 2404 2484 2559
8 2409 2320 2408 2489 2486 2405 2485 2560
8 2411 2322 2410 2490 2488 2407 2487 2561
8 2412 2323 2411 2491 2489 2408 2488 2562
8 2414 2326 2413 2492 2491 2411 2490 2563
8 2513 2434 2493 2565 2438 2353 2416 2494
8 2496 2417 2352 2436 2567 2494 2438 2515
8 2494 2416 2495 2568 2417 2331 2418 2497
8 2419 2332 2417 2496 2499 2420 2497 2570
8 2497 2418 2498 2571 2420 2333 2421 2500
8 2499 2420 2500 2573 2422 2335 2423 2502
8 2500 2421 2501 2574 2423 2336 2424 2503
8 2502 2423 2503 2576 2425 2338 2426 2505
8 2503 2424 2504 2577 2426 2339 2427 2506
8 2505 2426 2506 2578 2429 2341 2428 2507
8 2509 2431 2373 2455 2580 2508 2454 2529
8 2509 2431 2508 2580 2449 2363 2448 2525
8 2432 2510 2581 2509 2374 2456 2530 2455
8 2432 2510 2450 2364 2509 2581 2526 2449
8 2583 2511 2434 2513 2516 2439 2353 2438
8 2436 2352 2437 2514 2515 2438 2516 2588
8 2440 2356 2442 2518 2514 2437 2516 2588
8 2442 2358 2444 2520 2516 2439 2517 2589
8 2519 2443 2520 2591 2441 2357 2442 2518
8 2519 2443 2361 2447 2591 2520 2446 2524
8 2446 2360 2445 2523 2520 2444 2521 2592
8 2525 2448 2522 2593 2452 2369 2445 2523
8 2524 2446 2370 2453 2594 2523 2452 2527
8 2526 2449 2525 2595 2451 2368 2452 2527
8 2534 2462 2528 2597 2460 2382 2454 2529
8 2530 2455 2380 2458 2598 2529 2460 2532
8 2599 2533 2460 2532 2531 2459 2380 2458
8 2537 2464 2533 2599 2463 2384 2459 2531
8 2534 2462 2382 2460 2601 2535 2461 2533
8 2538 2465 2535 2601 2464 2385 2461 2533
8 2540 2467 2538 2604 2466 2387 2464 2537
8 2541 2468 2539 2605 2467 2388 2465 2538
8 2543 2470 2541 2607 2469 2390 2467 2540
8 2470 2391 2471 2544 2541 2468 2542 2608
8 2472 2393 2473 2546 2543 2470 2544 2610
8 2473 2394 2474 2547 2544 2471 2545 2611
8 2475 2396 2476 2549 2546 2473 2547 2613
8 2476 2397 2477 2550 2547 2474 2548 2614
8 2549 2476 2399 2478 2616 2550 2479 2552
8 2479 2400 2480 2553 2550 2477 2551 2617
8 2552 2479 2402 2483 2619 2553 2482 2557
8 2482 2401 2481 2556 2553 2480 2554 2620
8 2485 2404 2484 2559 2556 2481 2555 2623
8 2486 2405 2485 2560 2557 2482 2556 2624
8 2488 2407 2487 2561 2559 2484 2558 2625
8 2489 2408 2488 2562 2560 2485 2559 2626
8 2491 2411 2490 2563 2562 2488 2561 2627
8 2513 2434 2512 2585 2565 2493 2564 2630
8 2586 2513 2565 2632 2515 2438 2494 2567
8 2565 2493 2566 2633 2494 2416 2495 2568
8 2567 2494 2568 2635 2496 2417 2497 2570
8 2568 2495 2569 2636 2497 2418 2498 2571
8 2570 2497 2571 2638 2499 2420 2500 2573
8 2571 2498 2572 2639 2500 2421 2501 2574
8 2573 2500 2574 2641 2502 2423 2503 2576
8 2574 2501 2575 2642 2503 2424 2504 2577
8 2576 2503 2577 2643 2505 2426 2506 2578
8 2597 2528 2579 2645 2529 2454 2508 2580
8 2580 2508 2579 2645 2525 2448 2522 2593
8 2581 2509 2455 2530 2646 2580 2529 2598
8 2581 2509 2580 2646 2526 2449 2525 2595
8 2583 2511 2582 2648 2513 2434 2512 2585
8 2583 2511 2439 2516 2648 2582 2517 2589
8 2649 2583 2513 2586 2588 2516 2438 2515
8 2589 2517 2444 2520 2653 2587 2521 2592
8 2518 2442 2520 2591 2588 2516 2589 2654
8 2593 2522 2590 2655 2523 2445 2521 2592
8 2524 2446 2523 2594 2591 2520 2592 2656
8 2595 2525 2593 2657 2527 2452 2523 2594
8 2602 2536 2596 2659 2534 2462 2528 2597
8 2600 2534 2597 2660 2532 2460 2529 2598
8 2600 2534 2460 2532 2661 2601 2533 2599
8 2604 2538 2601 2661 2537 2464 2533 2599
8 2602 2536 2462 2534 2663 2603 2535 2601
8 2601 2535 2465 2538 2663 2603 2539 2605
8 2607 2541 2605 2665 2540 2467 2538 2604
8 2608 2542 2606 2666 2541 2468 2539 2605
8 2543 2470 2544 2610 2607 2541 2608 2668
8 2544 2471 2545 2611 2608 2542 2609 2669
8 2546 2473 2547 2613 2610 2544 2611 2671
8 2547 2474 2548 2614 2611 2545 2612 2672
8 2549 2476 2550 2616 2613 2547 2614 2674
8 2550 2477 2551 2617 2614 2548 2615 2675
8 2552 2479 2553 2619 2616 2550 2617 2677
8 2553 2480 2554 2620 2617 2551 2618 2678
8 2557 2482 2556 2624 2619 2553 2620 2680
8 2556 2481 2555 2623 2620 2554 2621 2681
8 2559 2484 2558 2625 2623 2555 2622 2683
8 2560 2485 2559 2626 2624 2556 2623 2684
8 2562 2488 2561 2627 2626 2559 2625 2685
8 2690 2629 2564 2630 2650 2584 2512 2585
8 2586 2513 2585 2651 2632 2565 2630 2691
8 2630 2564 2631 2692 2565 2493 2566 2633
8 2632 2565 2633 2694 2567 2494 2568 2635
8 2633 2566 2634 2695 2568 2495 2569 2636
8 2635 2568 2636 2697 2570 2497 2571 2638
8 2636 2569 2637 2698 2571 2498 2572 2639
8 2638 2571 2639 2700 2573 2500 2574 2641
8 2639 2572 2640 2701 2574 2501 2575 2642
8 2641 2574 2642 2702 2576 2503 2577 2643
8 2597 2528 2596 2659 2645 2579 2644 2704
8 2645 2579 2644 2704 2593 2522 2590 2655
8 2660 2597 2645 2705 2598 2529 2580 2646
8 2646 2580 2645 2705 2595 2525 2593 2657
8 2650 2584 2512 2585 2707 2647 2582 2648
8 2648 2582 2517 2589 2707 2647 2587 2653
8 2649 2583 2648 2708 2586 2513 2585 2651
8 2649 2583 2516 2588 2708 2648 2589 2654
8 2655 2590 2652 2710 2592 2521 2587 2653
8 2654 2589 2520 2591 2711 2653 2592 2656
8 2657 2593 2655 2712 2594 2523 2592 2656
8 2602 2536 2603 2663 2659 2596 2658 2714
8 2662 2602 2659 2715 2600 2534 2597 2660
8 2662 2602 2534 2600 2717 2663 2601 2661
8 2661 2601 2538 2604 2717 2663 2605 2665
8 2666 2606 2664 2718 2605 2539 2603 2663
8 2668 2608 2666 2720 2607 2541 2605 2665
8 2608 2542 2609 2669 2666 2606 2667 2721
8 2610 2544 2611 2671 2668 2608 2669 2723
8 2611 2545 2612 2672 2669 2609 2670 2724
8 2613 2547 2614 2674 2671 2611 2672 2726
8 2614 2548 2615 2675 2672 2612 2673 2727
8 2616 2550 2617 2677 2674 2614 2675 2729
8 2617 2551 2618 2678 2675 2615 2676 2730
8 2619 2553 2620 2680 2677 2617 2678 2732
8 2620 2554 2621 2681 2678 2618 2679 2733
8 2624 2556 2623 2684 2680 2620 2681 2735
8 2681 2621 2555 2623 2736 2682 2622 2683
8 2626 2559 2625 2685 2684 2623 2683 2737
8 2688 2628 2584 2650 2740 2686 2647 2707
8 2688 2628 2687 2742 2650 2584 2629 2690
8 2690 2629 2689 2745 2630 2564 2631 2692
8 2746 2690 2630 2691 2709 2650 2585 2651
8 2691 2630 2692 2747 2632 2565 2633 2694
8 2692 2631 2693 2748 2633 2566 2634 2695
8 2694 2633 2695 2750 2635 2568 2636 2697
8 2695 2634 2696 2751 2636 2569 2637 2698
8 2697 2636 2698 2753 2638 2571 2639 2700
8 2698 2637 2699 2754 2639 2572 2640 2701
8 2700 2639 2701 2755 2641 2574 2642 2702
8 2659 2596 2658 2714 2704 2644 2703 2757
8 2704 2644 2703 2757 2655 2590 2652 2710
8 2660 2597 2659 2715 2705 2645 2704 2758
8 2705 2645 2704 2758 2657 2593 2655 2712
8 2759 2706 2647 2707 2710 2652 2587 2653
8 2709 2650 2585 2651 2760 2707 2648 2708
8 2708 2648 2589 2654 2760 2707 2653 2711
8 2712 2655 2710 2761 2656 2592 2653 2711
8 2763 2713 2658 2714 2718 2664 2603 2663
8 2662 2602 2663 2717 2715 2659 2714 2764
8 2720 2666 2718 2767 2665 2605 2663 2717
8 2768 2719 2664 2718 2721 2667 2606 2666
8 2668 2608 2669 2723 2720 2666 2721 2770
8 2669 2609 2670 2724 2721 2667 2722 2771
8 2671 2611 2672 2726 2723 2669 2724 2773
8 2672 2612 2673 2727 2724 2670 2725 2774
8 2674 2614 2675 2729 2726 2672 2727 2776
8 2675 2615 2676 2730 2727 2673 2728 2777
8 2677 2617 2678 2732 2729 2675 2730 2779
8 2678 2618 2679 2733 2730 2676 2731 2780
8 2680 2620 2681 2735 2732 2678 2733 2782
8 2733 2679 2621 2681 2783 2734 2682 2736
8 2735 2681 2623 2684 2784 2736 2683 2737
8 2740 2686 2647 2707 2787 2738 2706 2759
8 2688 2628 2686 2740 2742 2687 2739 2789
8 2743 2688 2650 2709 2790 2740 2707 2760
8 2742 2687 2741 2792 2690 2629 2689 2745
8 2743 2688 2742 2793 2709 2650 2690 2746
8 2745 2689 2744 2795 2692 2631 2693 2748
8 2746 2690 2745 2796 2691 2630 2692 2747
8 2747 2692 2748 2797 2694 2633 2695 2750
8 2748 2693 2749 2798 2695 2634 2696 2751
8 2750 2695 2751 2800 2697 2636 2698 2753
8 2751 2696 2752 2801 2698 2637 2699 2754
8 2753 2698 2754 2802 2700 2639 2701 2755
8 2763 2713 2756 2804 2714 2658 2703 2757
8 2759 2706 2652 2710 2804 2756 2703 2757
8 2715 2659 2714 2764 2758 2704 2757 2805
8 2758 2704 2757 2805 2712 2655 2710 2761
8 2806 2759 2707 2760 2761 2710 2653 2711
8 2765 2716 2762 2808 2718 2664 2713 2763
8 2809 2763 2714 2764 2767 2718 2663 2717
8 2765 2716 2664 2718 2811 2766 2719 2768
8 2813 2768 2718 2767 2770 2721 2666 2720
8 2814 2769 2719 2768 2771 2722 2667 2721
8 2723 2669 2724 2773 2770 2721 2771 2816
8 2724 2670 2725 2774 2771 2722 2772 2817
8 2726 2672 2727 2776 2773 2724 2774 2819
8 2727 2673 2728 2777 2774 2725 2775 2820
8 2729 2675 2730 2779 2776 2727 2777 2822
8 2730 2676 2731 2780 2777 2728 2778 2823
8 2732 2678 2733 2782 2779 2730 2780 2825
8 2780 2731 2679 2733 2826 2781 2734 2783
8 2782 2733 2681 2735 2827 2783 2736 2784
8 2830 2785 2738 2787 2804 2756 2706 2759
8 2789 2739 2686 2740 2832 2786 2738 2787
8 2790 2740 2707 2760 2833 2787 2759 2806
8 2742 2687 2739 2789 2792 2741 2788 2835
8 2743 2688 2740 2790 2793 2742 2789 2836
8 2792 2741 2791 2838 2745 2689 2744 2795
8 2793 2742 2792 2839 2746 2690 2745 2796
8 2795 2744 2794 2841 2748 2693 2749 2798
8 2796 2745 2795 2842 2747 2692 2748 2797
8 2797 2748 2798 2843 2750 2695 2751 2800
8 2798 2749 2799 2844 2751 2696 2752 2801
8 2800 2751 2801 2845 2753 2698 2754 2802
8 2808 2762 2803 2847 2763 2713 2756 2804
8 2809 2763 2804 2848 2764 2714 2757 2805
8 2806 2759 2710 2761 2848 2804 2757 2805
8 2765 2716 2766 2811 2808 2762 2807 2850
8 2810 2765 2808 2851 2767 2718 2763 2809
8 2810 2765 2718 2767 2852 2811 2768 2813
8 2811 2766 2719 2768 2853 2812 2769 2814
8 2855 2814 2768 2813 2816 2771 2721 2770
8 2856 2815 2769 2814 2817 2772 2722 2771
8 2773 2724 2774 2819 2816 2771 2817 2858
8 2774 2725 2775 2820 2817 2772 2818 2859
8 2776 2727 2777 2822 2819 2774 2820 2861
8 2777 2728 2778 2823 2820 2775 2821 2862
8 2779 2730 2780 2825 2822 2777 2823 2864
8 2823 2778 2731 2780 2865 2824 2781 2826
8 2825 2780 2733 2782 2866 2826 2783 2827
8 2869 2828 2785 2830 2847 2803 2756 2804
8 2871 2829 2786 2832 2830 2785 2738 2787
8 2872 2830 2787 2833 2848 2804 2759 2806
8 2789 2739 2786 2832 2835 2788 2831 2874
8 2836 2789 2740 2790 2875 2832 2787 2833
8 2792 2741 2788 2835 2838 2791 2834 2877
8 2793 2742 2789 2836 2839 2792 2835 2878
8 2838 2791 2837 2880 2795 2744 2794 2841
8 2839 2792 2838 2881 2796 2745 2795 2842
8 2841 2794 2840 2882 2798 2749 2799 2844
8 2842 2795 2841 2883 2797 2748 2798 2843
8 2843 2798 2844 2884 2800 2751 2801 2845
8 2886 2846 2803 2847 2850 2807 2762 2808
8 2851 2808 2847 2887 2809 2763 2804 2848
8 2850 2807 2766 2811 2889 2849 2812 2853
8 2810 2765 2811 2852 2851 2808 2850 2890
8 2852 2811 2768 2813 2891 2853 2814 2855
8 2853 2812 2769 2814 2892 2854 2815 2856
8 2894 2856 2814 2855 2858 2817 2771 2816
8 2817 2772 2818 2859 2856 2815 2857 2895
8 2819 2774 2820 2861 2858 2817 2859 2897
8 2820 2775 2821 2862 2859 2818 2860 2898
8 2822 2777 2823 2864 2861 2820 2862 2900
8 2823 2778 2824 2865 2862 2821 2863 2901
8 2864 2823 2780 2825 2902 2865 2826 2866
8 2904 2867 2828 2869 2886 2846 2803 2847
8 2869 2828 2868 2906 2830 2785 2829 2871
8 2907 2869 2830 2872 2887 2847 2804 2848
8 2871 2829 2870 2909 2832 2786 2831 2874
8 2910 2871 2832 2875 2872 2830 2787 2833
8 2835 2788 2831 2874 2877 2834 2873 2912
8 2836 2789 2832 2875 2878 2835 2874 2913
8 2877 2834 2876 2915 2838 2791 2837 2880
8 2839 2792 2835 2878 2881 2838 2877 2916
8 2880 2837 2879 2917 2841 2794 2840 2882
8 2881 2838 2880 2918 2842 2795 2841 2883
8 2883 2841 2882 2919 2843 2798 2844 2884
8 2921 2885 2846 2886 2889 2849 2807 2850
8 2922 2886 2847 2887 2890 2850 2808 2851
8 2889 2849 2812 2853 2924 2888 2854 2892
8 2890 2850 2811 2852 2925 2889 2853 2891
8 2891 2853 2814 2855 2926 2892 2856 2894
8 2892 2854 2815 2856 2927 2893 2857 2895
8 2858 2817 2859 2897 2894 2856 2895 2929
8 2859 2818 2860 2898 2895 2857 2896 2930
8 2861 2820 2862 2900 2897 2859 2898 2932
8 2862 2821 2863 2901 2898 2860 2899 2933
8 2864 2823 2865 2902 2900 2862 2901 2934
8 2904 2867 2846 2886 2936 2903 2885 2921
8 2904 2867 2903 2936 2869 2828 2868 2906
8 2937 2904 2869 2907 2922 2886 2847 2887
8 2906 2868 2905 2939 2871 2829 2870 2909
8 2907 2869 2906 2940 2872 2830 2871 2910
8 2909 2870 2908 2942 2874 2831 2873 2912
8 2910 2871 2909 2943 2875 2832 2874 2913
8 2912 2873 2911 2945 2877 2834 2876 2915
8 2878 2835 2874 2913 2916 2877 2912 2946
8 2915 2876 2914 2947 2880 2837 2879 2917
8 2916 2877 2915 2948 2881 2838 2880 2918
8 2918 2880 2917 2949 2883 2841 2882 2919
8 2921 2885 2849 2889 2951 2920 2888 2924
8 2952 2921 2886 2922 2925 2889 2850 2890
8 2924 2888 2854 2892 2954 2923 2893 2927
8 2925 2889 2853 2891 2955 2924 2892 2926
8 2926 2892 2856 2894 2956 2927 2895 2929
8 2895 2857 2896 2930 2927 2893 2928 2957
8 2897 2859 2898 2932 2929 2895 2930 2959
8 2898 2860 2899 2933 2930 2896 2931 2960
8 2900 2862 2901 2934 2932 2898 2933 2961
8 2936 2903 2885 2921 2963 2935 2920 2951
8 2936 2903 2935 2963 2906 2868 2905 2939
8 2937 2904 2886 2922 2964 2936 2921 2952
8 2937 2904 2936 2964 2907 2869 2906 2940
8 2939 2905 2938 2966 2909 2870 2908 2942
8 2940 2906 2939 2967 2910 2871 2909 2943
8 2942 2908 2941 2969 2912 2873 2911 2945
8 2943 2909 2942 2970 2913 2874 2912 2946
8 2945 2911 2944 2971 2915 2876 2914 2947
8 2946 2912 2945 2972 2916 2877 2915 2948
8 2948 2915 2947 2973 2918 2880 2917 2949
8 2951 2920 2888 2924 2975 2950 2923 2954
8 2952 2921 2889 2925 2976 2951 2924 2955
8 2927 2893 2928 2957 2954 2923 2953 2978
8 2955 2924 2892 2926 2979 2954 2927 2956
8 2929 2895 2930 2959 2956 2927 2957 2980
8 2930 2896 2931 2960 2957 2928 2958 2981
8 2932 2898 2933 2961 2959 2930 2960 2982
8 2951 2920 2950 2975 2963 2935 2962 2984
8 2963 2935 2962 2984 2939 2905 2938 2966
8 2964 2936 2921 2952 2985 2963 2951 2976
8 2964 2936 2963 2985 2940 2906 2939 2967
8 2966 2938 2965 2987 2942 2908 2941 2969
8 2967 2939 2966 2988 2943 2909 2942 2970
8 2969 2941 2968 2989 2945 2911 2944 2971
8 2970 2942 2969 2990 2946 2912 2945 2972
8 2972 2945 2971 2991 2948 2915 2947 2973
8 2954 2923 2953 2978 2975 2950 2974 2993
8 2976 2951 2924 2955 2994 2975 2954 2979
8 2957 2928 2958 2981 2978 2953 2977 2995
8 2956 2927 2957 2980 2979 2954 2978 2996
8 2959 2930 2960 2982 2980 2957 2981 2997
8 2984 2962 2983 2999 2966 2938 2965 2987
8 2975 2950 2974 2993 2984 2962 2983 2999
8 2976 2951 2975 2994 2985 2963 2984 3000
8 2985 2963 2984 3000 2967 2939 2966 2988
8 2987 2965 2986 3001 2969 2941 2968 2989
8 2988 2966 2987 3002 2970 2942 2969 2990
8 2990 2969 2989 3003 2972 2945 2971 2991
8 2978 2953 2977 2995 2993 2974 2992 3004
8 2979 2954 2978 2996 2994 2975 2993 3005
8 2980 2957 2981 2997 2996 2978 2995 3006
8 2974 2993 2999 2983 2992 3004 3007 2998
8 2983 2999 2987 2965 2998 3007 3001 2986
8 3000 2984 2999 3008 2988 2966 2987 3002
8 2994 2975 2993 3005 3000 2984 2999 3008
8 3002 2987 3001 3009 2990 2969 2989 3003
8 2996 2978 2995 3006 3005 2993 3004 3010
8 3005 2993 3004 3010 3008 2999 3007 3011
8 3008 2999 3007 3011 3002 2987 3001 3009

CELL_TYPES 1910
12
12
12
12
12
12
12
12
12
12
12
12
12
12
12
12
12
12
12
12
12
12
12
12
12
12
12
12
12
12
12
12
12
12
12
12
12
12
12
12
12
12
12
12
12
12
12
12
12
12
12
12
12
12
12
12
12
12
12
12
12
12
12
12
12
12
12
12
12
12
12
12
12
12
12
12
12
12
12
12
12
12
12
12
12
12
12
12
12
12
12
12
12
12
12
12
12
12
12
12
12
12
12
12
12
12
12
12
12
12
12
12
12
12
12
12
12
12
12
12
12
12
12
12
12
12
12
12
12
12
12
12
12
12
12
12
12
12
12
12
12
12
12
12
12
12
12
12
12
12
12
12
12
12
12
12
12
12
12
12
12
12
12
12
12
12
12
12
12
12
12
12
12
12
12
12
12
12
12
12
12
12
12
12
12
12
12
12
12
12
12
12
12
12
12
12
12
12
12
12
12
12
12
12
12
12
12
12
12
12
12
12
12
12
12
12
12
12
12
12
12
12
12
12
12
12
12
12
12
12
12
12
12
12
12
12
12
12
12
12
12
12
12
12
12
12
12
12
12
12
12
12
12
12
12
12
12
12
12
12
12
12
12
12
12
12
12
12
12
12
12
12
12
12
12
12
12
12
12
12
12
12
12
12
12
12
12
12
12
12
12
12
12
12
12
12
12
12
12
12
12
12
12
12
12
12
12
12
12
12
12
12
12
12
12
12
12
12
12
12
12
12
12
12
12
12
12
12
12
12
12
12
12
12
12
12
12
12
12
12
12
12
12
12
12
12
12
12
12
12
12
12
12
12
12
12
12
12
12
12
12
12
12
12
12
12
12
12
12
12
12
12
12
12
12
12
12
12
12
12
12
12
12
12
12
12
12
12
12
12
12
12
12
12
12
12
12
12
12
12
12
12
12
12
12
12
12
12
12
12
12
12
12
12
12
12
12
12
12
12
12
12
12
12
12
12
12
12
12
12
12
12
12
12
12
12
12
12
12
12
12
12
12
12
12
12
12
12
12
12
12
12
12
12
12
12
12
12
12
12
12
12
12
12
12
12
12
12
12
12
12
12
12
12
12
12
12
12
12
12
12
12
12
12
12
12
12
12
12
12
12
12
12
12
12
12
12
12
12
12
12
12
12
12
12
12
12
12
12
12
12
12
12
12
12
12
12
12
12
12
12
12
12
12
12
12
12
12
12
12
12
12
12
12
12
12
12
12
12
12
12
12
12
12
12
12
12
12
12
12
12
12
12
12
12
12
12
12
12
12
12
12
12
12
12
12
12
12
12
12
12
12
12
12
12
12
12
12
12
12
12
12
12
12
12
12
12
12
12
12
12
12
12
12
12
12
12
12
12
12
12
12
12
12
12
12
12
12
12
12
12
12
12
12
12
12
12
12
12
12
12
12
12
12
12
12
12
12
12
12
12
12
12
12
12
12
12
12
12
12
12
12
12
12
12
12
12
12
12
12
12
12
12
12
12
12
12
12
12
12
12
12
12
12
12
12
12
12
12
12
12
12
12
12
12
12
12
12
12
12
12
12
12
12
12
12
12
12
12
12
12
12
12
12
12
12
12
12
12
12
12
12
12
12
12
12
12
12
12
12
12
12
12
12
12
12
12
12
12
12
12
12
12
12
12
12
12
12
12
12
12
12
12
12
12
12
12
12
12
12
12
12
12
12
12
12
12
12
12
12
12
12
12
12
12
12
12
12
12
12
12
12
12
12
12
12
12
12
12
12
12
12
12
12
12
12
12
12
12
12
12
12
12
12
12
12
12
12
12
12
12
12
12
12
12
12
12
12
12
12
12
12
12
12
12
12
12
12
12
12
12
12
12
12
12
12
12
12
12
12
12
12
12
12
12
12
12
12
12
12
12
12
12
12
12
12
12
12
12
12
12
12
12
12
12
12
12
12
12
12
12
12
12
12
12
12
12
12
12
12
12
12
12
12
12
12
12
12
12
12
12
12
12
12
12
12
12
12
12
12
12
12
12
12
12
12
12
12
12
12
12
12
12
12
12
12
12
12
12
12
12
12
12
12
12
12
12
12
12
12
12
12
12
12
12
12
12
12
12
12
12
12
12
12
12
12
12
12
12
12
12
12
12
12
12
12
12
12
12
12
12
12
12
12
12
12
12
12
12
12
12
12
12
12
12
12
12
12
12
12
12
12
12
12
12
12
12
12
12
12
12
12
12
12
12
12
12
12
12
12
12
12
12
12
12
12
12
12
12
12
12
12
12
12
12
12
12
12
12
12
12
12
12
12
12
12
12
12
12
12
12
12
12
12
12
12
12
12
12
12
12
12
12
12
12
12
12
12
12
12
12
12
12
12
12
12
12
12
12
12
12
12
12
12
12
12
12
12
12
12
12
12
12
12
12
12
12
12
12
12
12
12
12
12
12
12
12
12
12
12
12
12
12
12
12
12
12
12
12
12
12
12
12
12
12
12
12
12
12
12
12
12
12
12
12
12
12
12
12
12
12
12
12
12
12
12
12
12
12
12
12
12
12
12
12
12
12
12
12
12
12
12
12
12
12
12
12
12
12
12
12
12
12
12
12
12
12
12
12
12
12
12
12
12
12
12
12
12
12
12
12
12
12
12
12
12
12
12
12
12
12
12
12
12
12
12
12
12
12
12
12
12
12
12
12
12
12
12
12
12
12
12
12
12
12
12
12
12
12
12
12
12
12
12
12
12
12
12
12
12
12
12
12
12
12
12
12
12
12
12
12
12
12
12
12
12
12
12
12
12
12
12
12
12
12
12
12
12
12
12
12
12
12
12
12
12
12
12
12
12
12
12
12
12
12
12
12
12
12
12
12
12
12
12
12
12
12
12
12
12
12
12
12
12
12
12
12
12
12
12
12
12
12
12
12
12
12
12
12
12
12
12
12
12
12
12
12
12
12
12
12
12
12
12
12
12
12
12
12
12
12
12
12
12
12
12
12
12
12
12
12
12
12
12
12
12
12
12
12
12
12
12
12
12
12
12
12
12
12
12
12
12
12
12
12
12
12
12
12
12
12
12
12
12
12
12
12
12
12
12
12
12
12
12
12
12
12
12
12
12
12
12
12
12
12
12
12
12
12
12
12
12
12
12
12
12
12
12
12
12
12
12
12
12
12
12
12
12
12
12
12
12
12
12
12
12
12
12
12
12
12
12
12
12
12
12
12
12
12
12
12
12
12
12
12
12
12
12
12
12
12
12
12
12
12
12
12
12
12
12
12
12
12
12
12
12
12
12
12
12
12
12
12
12
12
12
12
12
12
12
12
12
12
12
12
12
12
12
12
12
12
12
12
12
12
12
12
12
12
12
12
12
12
12
12
12
12
12
12
12
12
12
12
12
12
12
12
12
12
12
12
12
12
12
12
12
12
12
12
12
12
12
12
12
12
12
12
12
12
12
12
12
12
12
12
12
12
12
12
12
12
12
12
12
12
12
12
12
12
12
12
12
12
12
12
12
12
12
12
12
12
12
12
12
12
12
12
12
12
12
12
12
12
12
12
12
12
12
12
12
12
12
12
12
12
12
12
12
12
12
12
12
12
12
12
12
12
12
12
12
12
12
12
12
12
12
12
12
12
12
12
12
12
12
12
12
12
12
12
12
12
12
12
12
12
12
12
12
12
12
12
12
12
12
12
12
12
12
12
12
12
12
12
12
12
12
12
12
12
12
12
12
12
12
12
12
12
12
12
12
12
12
12
12
12
12
12
12
12
12
12
12
12
12
12
12
12
12
12
12
12
12
12
12
12
12
12
12
12
12
12
12
12
12
12
12
12
12
12
12
12
12
12
12
12
12
12
12
12
12
12
12
12
12
12
12
12
12
12
12
12
12
12
12
12
12
12
12
12
12
12
12
12
12
12
12
12
12
12
12
12
12
12
12
12
12
12
12
12
12
12
12
12
12
12
12
12
12
12
12
12
12
12
12
12
12
12
12
12
12
12
12
12
12
12
12
12
12
12
12
12
12
12
12
12
12
12
12
12
12
12
12
12
12
12
12
12
12
12
12
12
12
12
12
12
12
12
12
12
12
12
12
12
12
12
12
12
12
12
12
12
12
12
12
12
12
12
12
12
12
12
12
12
12
12
12
12
12
12
12
12
12
12
12
12
12
12
12
12
12
12
12
12
12
12
12
12
12
12
12
12
12
12
12
12
12
12
12
12
12
12
12
12
12
12
12
12
12
12
12
12
12
12
12
12
12
12
12
12
12
12
12
12
12
12
12
12
12
12
12
12
12
12
12
12
12
12
12
12
12
12
12
12
12
12
12
12
12
12
12
12
12
12
12
12
12
12
12
12
12

POINT_DATA 3012
SCALARS Jp_lamdaP float 4
LOOKUP_TABLE default
0.999208 1 1 0.999208
1 1 1 1
0.999234 1 1 0.999234
0.999168 1 1 0.999168
0.999214 1 1 0.999214
0.99917 1 1 0.99917
1.02504 1.02722 1 0.997875
0.999998 1 1 0.999998
1 1 1 1
1 1 1 1
0.999211 1 1 0.999211
1.02173 1.02406 1 0.997722
0.999269 1 1 0.999269
0.999229 1 1 0.999229
0.999248 1 1 0.999248
0.999215 1 1 0.999215
0.999188 1 1 0.999188
0.999251 1 1 0.999251
1.02486 1.02705 1 0.997865
1 1 1 1
0.999169 1 1 0.999169
0.999193 1 1 0.999193
1.01685 1.01904 1 0.997846
1.02216 1.02432 1 0.997893
0.999145 1 1 0.999145
1.02747 1.02971 1 0.997822
1.06521 1.06953 1 0.99596
0.999993 1 1 0.999993
0.999618 1 1 0.999618
0.999625 1 1 0.999625
0.999993 1 1 0.999993
1.02014 1.02224 1.00022 0.997728
0.999231 1 1 0.999231
0.99925 1 1 0.99925
1.02383 1.02574 1 0.998141
1 1 1 1
1.02564 1.02753 1 0.998166
1.0154 1.0163 1.0014 0.997719
1.0553 1.05955 1.00029 0.9957
1 1 1 1
1 1 1 1
0.99962 1 1 0.99962
1 1 1 1
0.999263 1 1 0.999263
1.00448 1.00674 1 0.997751
1 1 1 1
1.01169 1.01361 1 0.998101
0.999256 1 1 0.999256
0.999279 1 1 0.999279
0.999196 1 1 0.999196
1.02477 1.02697 1 0.997862
0.999602 1 1 0.999602
0.999211 1 1 0.999211
0.999161 1 1 0.999161
0.999238 1 1 0.999238
1.01664 1.01885 1 0.99783
1.02704 1.02929 1 0.997815
1.02194 1.02411 1 0.997883
1.06617 1.07049 1 0.995963
1 1 1 1
0.999204 1 1 0.999204
1.00562 1.0074 1 0.998235
1.01294 1.01511 1 0.997854
1.01998 1.02215 1 0.997872
1.06732 1.07165 1 0.995957
1.06539 1.06969 1 0.995985
0.999139 1 1 0.999139
1.01825 1.02002 1.00046 0.997811
1.06485 1.06921 1 0.995915
1.08597 1.09109 1 0.995306
1 1 1 1
0.999999 1 1 0.999999
0.999999 1 1 0.999999
1.01823 1.0203 1.00024 0.997732
1 1 1 1
1 1 1 1
1.02388 1.02621 1 0.997732
0.999664 1 1 0.999664
1.02473 1.02701 1 0.997774
1.01338 1.01388 1.00151 0.998001
1.0587 1.06325 1.00003 0.995693
1 1 1 1
1.0066 1.00034 1.00734 0.998925
1.02073 1.02312 1 0.997659
1.02477 1.02709 1 0.997736
1.07215 1.07688 1 0.995613
1.00946 1.00819 1.00281 0.998458
1.06488 1.06945 1 0.995727
1.05091 1.05155 1.00362 0.995791
1.08809 1.09347 1 0.995084
1 1 1 1
1 1 1 1
1 1 1 1
1 1 1 1
1 1 1 1
0.999634 1 1 0.999634
1.00547 1.00751 1 0.99798
0.999612 1 1 0.999612
1.01311 1.01524 1 0.997904
1 1 1 1
1.00312 1.00531 1 0.997819
1.00768 1.00956 1 0.998138
1.06316 1.06767 1 0.995767
1.0169 1.01882 1 0.998119
1.07085 1.07546 1 0.99571
0.999294 1 1 0.999294
0.99925 1 1 0.99925
0.99917 1 1 0.99917
0.999276 1 1 0.999276
1.01642 1.01865 1 0.997816
1.02173 1.0239 1 0.997876
1.02619 1.02844 1 0.997813
1.06752 1.07185 1 0.995965
1 1 1 1
0.999243 1 1 0.999243
1.00512 1.00725 1 0.997886
1.0127 1.0149 1 0.997835
0.999576 1 1 0.999576
1.01919 1.02071 1.00057 0.997938
1.01972 1.02191 1 0.99786
1.06766 1.07198 1 0.995972
1.06512 1.06948 1 0.995917
1.06622 1.07052 1 0.995981
1.08552 1.09067 0.999962 0.995316
1.00417 1.00635 1 0.997841
1.00853 1.01065 1 0.9979
1.06003 1.06476 0.999424 0.996135
1.06431 1.06897 0.999615 0.996027
1.06657 1.07086 1 0.995993
1.09522 1.10281 0.997446 0.995659
1 1 1 1
1.09022 1.09571 0.999545 0.995448
1.00986 1.00935 1.00274 0.997777
1.05779 1.0624 1 0.995659
1.08151 1.08678 1 0.995156
1.08457 1.09363 0.996106 0.995587
1.00486 1.00137 1.00511 0.99839
1.01456 1.00464 1.01305 0.996872
1 1 1 1
1 1 1 1
1.02427 1.02659 1 0.997735
1 1 1 1
1.01057 1.01058 1.00218 0.997827
1.02462 1.0269 1 0.997779
1.06246 1.06707 1 0.995685
1 1 1 1
1.00763 1.00039 1.00829 0.998947
1.02193 1.02409 1 0.997892
1.02541 1.02752 1 0.997954
1.07106 1.07579 1 0.995608
1.00781 1.0057 1.00393 0.998177
1.06516 1.06974 1 0.995724
1.05076 1.0517 1.00334 0.995785
1.08762 1.09296 1 0.995115
1.00679 1.00228 1.00595 0.998552
1.00929 1.0001 1.00997 0.999226
1.0221 1.00989 1.01475 0.997381
1.074 1.07874 1 0.995604
1.07118 1.07584 1 0.995672
1.09361 1.09979 0.998984 0.995398
1.03663 1.03489 1.00547 0.996228
1.08432 1.08938 1 0.995356
1.07943 1.08341 1.00134 0.994994
1.09942 1.10472 1 0.995202
1 1 1 1
1 1 1 1
1 1 1 1
1.00553 1.00045 1.00639 0.998695
1 1 1 1
1 1 1 1
1 1 1 1
1.01433 1.01665 1 0.997716
1.00601 1.00823 1 0.997799
1 1 1 1
1 1 1 1
1.00341 1.0056 1 0.99782
1.00858 1.01066 1 0.997946
1.06234 1.06685 1 0.995769
1.01777 1.02013 1 0.997688
1.0687 1.07331 1 0.995708
1.00314 1.00532 1 0.997829
1.06053 1.06506 1 0.995755
1.06645 1.07099 1 0.99576
1.0956 1.1051 0.995481 0.995901
1.0736 1.0783 1 0.995644
1.09502 1.10401 0.996026 0.99581
1 1 1 1
0.999283 1 1 0.999283
1.00457 1.0071 1 0.997489
1.01248 1.01469 1 0.997817
1 1 1 1
1.01998 1.02195 1 0.99807
1.01947 1.02166 1 0.99785
1.06797 1.07228 0.999995 0.995987
1.06708 1.07139 1 0.995976
1.06432 1.06868 1 0.995921
1.08434 1.08948 0.999958 0.995325
1.00382 1.00599 1 0.997839
1.0084 1.01054 1 0.997882
1.06036 1.06538 0.999303 0.995979
1.0653 1.06979 0.999802 0.996001
1 1 1 1
1.01253 1.01294 1.00163 0.997973
1.05508 1.05891 1.00058 0.9958
1.06706 1.07137 1 0.995983
1.0935 1.10186 0.996693 0.995709
1.08119 1.08645 1 0.995163
1.09035 1.0959 0.999474 0.995459
1.08409 1.09315 0.996098 0.995593
1.00559 1.00237 1.00485 0.998373
1.01654 1.0073 1.01235 0.996864
1.0592 1.06371 1 0.995765
1.06217 1.0671 0.999283 0.996096
1.09594 1.10437 0.996524 0.995834
1.09413 1.10348 0.995704 0.995805
1.09223 1.10027 0.997069 0.995612
1.08249 1.09666 0.991024 0.996025
1.00702 1.00479 1.00417 0.998066
1.0831 1.09627 0.992124 0.995826
1.05066 1.05272 1.00223 0.995818
1.08258 1.08801 1 0.995015
1.08769 1.09346 0.999443 0.99528
1.0766 1.09418 0.987917 0.995968
1.02285 1.01494 1.01145 0.996392
1.01571 1.0012 1.01706 0.997476
1.02636 1.01638 1.01391 0.995961
1.0227 1.02505 1 0.997701
1 1 1 1
1.00739 1.00019 1.00824 0.998969
1.02554 1.02783 1 0.997775
1.07018 1.07491 1 0.995604
1.00714 1.00428 1.00468 0.998178
1.05223 1.05421 1.00236 0.995779
1.06455 1.06912 1 0.995721
1.08807 1.09337 1 0.995146
1.00658 1.00175 1.00624 0.998582
1.00859 1.0001 1.00926 0.999244
1.0181 1.00617 1.01452 0.997385
1.07214 1.07688 1 0.995598
1.06974 1.07439 1 0.99567
1.09451 1.10058 0.999083 0.995393
1.03494 1.03358 1.00511 0.996227
1.0851 1.09017 1 0.995345
1.08292 1.0875 1.00081 0.994977
1.09893 1.1042 0.999988 0.99524
1.00857 1 1.00912 0.99946
1.02526 1.0193 1.00906 0.996813
1.02157 1.00296 1.02076 0.997847
1.01855 1.01434 1.0074 0.996775
1.09337 1.10069 0.997818 0.99552
1.09059 1.09604 0.999674 0.995351
1.08799 1.1013 0.992259 0.99562
1.05947 1.05594 1.00813 0.99524
1.08585 1.09225 0.99851 0.99562
1.08551 1.08934 1.00158 0.994914
1.11108 1.11628 1 0.995347
1.00361 1 1.00462 0.998994
1.00092 1 1.00119 0.999732
1 1 1 1
1 1 1 1
1 1 1 1
1.00569 1 1.00661 0.999094
1 1 1 1
1.0055 1.00049 1.00635 0.998669
1 1 1 1
1.01929 1.02165 1 0.997689
1.00963 1.01189 1 0.997762
1.06702 1.07162 1 0.995707
1.0616 1.06611 1 0.99577
1.00375 1.00594 1 0.997822
1 1 1 1
1.00308 1.00526 1 0.997829
1.06034 1.06486 1 0.995756
1.06536 1.06989 1 0.99576
1.09576 1.10523 0.995518 0.995899
1.07173 1.07642 1 0.995639
1.09615 1.10506 0.996106 0.995808
1.05907 1.06358 1 0.995754
1.09584 1.1053 0.995542 0.995883
1.09586 1.10483 0.995979 0.995882
1.07934 1.09509 0.989302 0.99627
1.09432 1.10285 0.996566 0.995678
1.08305 1.09828 0.989963 0.996129
1.00353 1.0057 1 0.997838
1.00826 1.01042 1 0.997863
1.0607 1.06603 0.999171 0.995825
1.06633 1.07064 1 0.995974
0.999996 1 1 0.999996
1.01522 1.01568 1.00137 0.998175
1.05353 1.05695 1.00083 0.995939
1.06754 1.07186 1 0.995972
1.09186 1.10098 0.995938 0.995758
1.09045 1.0961 0.99937 0.995471
1.08269 1.08795 1 0.99517
1.08404 1.09311 0.996086 0.9956
1.00599 1.00327 1.00437 0.998357
1.01966 1.01009 1.01266 0.996856
1.05938 1.06418 0.999695 0.995793
1.06275 1.06756 0.999407 0.99609
1.09524 1.1041 0.9961 0.995863
1.09415 1.10273 0.99645 0.995754
1.00774 1.00599 1.00369 0.998051
1.04862 1.05035 1.00254 0.995821
1.08532 1.09076 1 0.99501
1.09252 1.09981 0.997779 0.995585
1.08227 1.09734 0.990147 0.996078
1.08734 1.09309 0.999436 0.995303
1.08292 1.09619 0.992029 0.995826
1.07608 1.0941 0.987529 0.995949
1.02608 1.01844 1.01115 0.99639
1.02576 1.01339 1.01631 0.995964
1.01734 1.00174 1.01813 0.997484
1.0962 1.10448 0.996654 0.995827
1.09539 1.10466 0.99575 0.995839
1.07864 1.09286 0.99076 0.996202
1.08096 1.09662 0.989565 0.996119
1.08192 1.0978 0.989497 0.995994
1.07812 1.10087 0.98291 0.996364
1.03679 1.03318 1.00744 0.996077
1.07286 1.09628 0.982406 0.996162
1.08029 1.08565 1 0.995066
1.08766 1.09326 0.999981 0.994895
1.07942 1.08964 0.995131 0.995471
1.06809 1.09334 0.9806 0.996235
1.02009 1.00331 1.01887 0.997889
1.04223 1.03145 1.01494 0.995575
1.01915 1.00296 1.01973 0.996487
1.02933 1.02253 1.01121 0.995489
1.0703 1.07504 1 0.995591
1.0088 1.00026 1.00928 0.999261
1.00642 1.00095 1.00686 0.998612
1.01812 1.00348 1.01725 0.997387
1.06863 1.07328 1 0.995668
1.09532 1.10129 0.999186 0.995388
1.03112 1.02925 1.00561 0.996225
1.08299 1.08795 1.00048 0.99496
1.08611 1.0912 1 0.995334
1.09637 1.10157 0.999996 0.995277
1.00708 1 1.0076 0.999476
1.02248 1.01515 1.01042 0.996831
1.02129 1.00245 1.021 0.99784
1.01717 1.0118 1.00856 0.996781
1.09495 1.10218 0.997912 0.995514
1.09125 1.09663 0.99974 0.995349
1.08715 1.10053 0.992185 0.99562
1.05907 1.05524 1.00845 0.99523
1.08468 1.09106 0.998571 0.99558
1.08085 1.08451 1.00173 0.994899
1.11153 1.11659 0.999997 0.995469
1.00334 1 1.00373 0.999617
1.01861 1 1.02044 0.998214
1.03332 1.02856 1.00869 0.99597
1.02317 1.00832 1.01764 0.997143
1.01748 1.01431 1.00655 0.996598
1.08526 1.10166 0.989295 0.995772
1.08673 1.09664 0.995361 0.99558
1.07893 1.09855 0.986277 0.995802
1.04254 1.04319 1.00447 0.994928
1.08893 1.09877 0.995301 0.995717
1.06397 1.0685 1.00086 0.994901
1.00634 1 1.00757 0.998777
1.01021 1 1.01199 0.998236
1.00034 1 1.00116 0.999181
1.00241 1 1.00342 0.998997
0.999846 1 1 0.999846
1.00033 1 1.00057 0.999753
0.999974 1 1 0.999974
1 1 1 1
1 1 1 1
1.00333 1 1.00388 0.999451
1 1 1 1
1.00619 1.00001 1.00712 0.999064
1 1 1 1
1.00509 1.00067 1.00577 0.998644
1 1 1 1
1.06952 1.07421 1 0.995633
1.06394 1.06847 1 0.99576
1.09693 1.10572 0.996222 0.995805
1.09584 1.10526 0.995559 0.995898
1.06007 1.06458 1 0.995757
1.0029 1.00508 1 0.997828
1.0593 1.06381 1 0.995754
1.09575 1.10522 0.995536 0.995883
1.09594 1.10499 0.995918 0.995881
1.07869 1.0952 0.988598 0.996286
1.09535 1.1039 0.996565 0.995674
1.08291 1.09796 0.990124 0.996128
1.0957 1.10493 0.995766 0.995871
1.07825 1.09455 0.988767 0.996296
1.0812 1.09624 0.990011 0.996228
1.0831 1.10406 0.98448 0.996478
1.08224 1.09957 0.988229 0.995967
1.08244 1.10619 0.982034 0.996436
1.05941 1.06453 0.999366 0.995821
1.06336 1.06803 0.999543 0.996084
1.09457 1.10384 0.995695 0.995891
1.09409 1.10192 0.997175 0.995704
1.00923 1.00782 1.00337 0.998038
1.04794 1.04919 1.003 0.995825
1.08783 1.0933 1 0.995005
1.09274 1.09927 0.99849 0.995558
1.08194 1.09794 0.989259 0.99613
1.08261 1.09597 0.991949 0.995826
1.08666 1.09243 0.999392 0.995326
1.07549 1.09389 0.987199 0.99593
1.03004 1.02254 1.01098 0.996388
1.02382 1.01089 1.01689 0.995967
1.0177 1.00254 1.01768 0.997492
1.0955 1.10412 0.996328 0.995853
1.09469 1.10414 0.99558 0.995838
1.07829 1.09338 0.98992 0.996245
1.08175 1.09687 0.990081 0.996095
1.04055 1.03697 1.0074 0.996083
1.08029 1.08562 1.00002 0.995072
1.08797 1.09355 1.00001 0.994888
1.08271 1.09773 0.990333 0.995942
1.07761 1.10108 0.982209 0.996408
1.07997 1.0901 0.995252 0.995433
1.07317 1.09656 0.982447 0.996162
1.06817 1.09388 0.980149 0.996274
1.03993 1.03175 1.0124 0.995581
1.02673 1.02028 1.01094 0.995431
1.01706 1.003 1.01616 0.997894
1.0166 1.00278 1.01729 0.996561
1.07861 1.09328 0.990299 0.996251
1.08108 1.09635 0.989872 0.99616
1.0788 1.09897 0.985197 0.996395
1.07554 1.10267 0.978869 0.996446
1.07531 1.0984 0.982597 0.996318
1.07975 1.10804 0.97783 0.996563
1.06029 1.06316 1.00204 0.995266
1.06578 1.09712 0.974838 0.996512
1.07407 1.07965 1 0.994833
1.08039 1.08675 0.999317 0.994831
1.07584 1.09118 0.990383 0.995521
1.06947 1.09653 0.978951 0.996302
1.01509 1.00472 1.0123 0.998046
1.02613 1.00926 1.01994 0.996837
1.03278 1.03394 1.0037 0.995195
1.02108 1.00949 1.01544 0.996101
1.02724 1.0185 1.01337 0.995269
1.00588 1 1.00639 0.999491
1.09659 1.10374 0.998007 0.995509
1.01915 1.00248 1.01884 0.997832
1.0185 1.01083 1.01078 0.996851
1.01324 1.00834 1.0081 0.996786
1.09185 1.09717 0.999803 0.995346
1.08622 1.09967 0.992108 0.99562
1.06113 1.05968 1.00618 0.99522
1.07971 1.08317 1.00193 0.994884
1.08397 1.09032 0.998631 0.995541
1.11281 1.11777 0.999967 0.99559
1.00277 1 1.00314 0.999629
1.01992 1.00022 1.02151 0.998221
1.03199 1.02695 1.00896 0.995984
1.02263 1.00701 1.01844 0.997128
1.01837 1.01461 1.00728 0.996451
1.08441 1.10084 0.989257 0.995769
1.08621 1.09618 0.995307 0.995582
1.07773 1.09755 0.986096 0.995792
1.04329 1.04485 1.0036 0.994925
1.09467 1.10437 0.995511 0.995684
1.06499 1.06935 1.00096 0.994969
1.01025 1 1.01173 0.998531
1.02323 1.00327 1.02255 0.997407
1.01559 1.01578 1.00423 0.9956
1.02995 1.01647 1.01661 0.996715
1.03013 1.02764 1.00628 0.996174
1.08047 1.10571 0.981098 0.995994
1.07924 1.09298 0.991667 0.995733
1.06531 1.09247 0.979043 0.996014
1.01104 1.01232 1.00379 0.994959
1.05881 1.06461 0.999484 0.995057
1.00632 1 1.00755 0.998781
1.01033 1.00007 1.01225 0.998036
1.0108 1 1.0126 0.998221
1.00863 1 1.01056 0.99809
1.00536 1 1.00697 0.998407
0.999668 1 1.00037 0.999295
1.00063 1 1.00145 0.999186
0.999909 1 1 0.999909
1.00235 1 1.00335 0.999
0.999866 1 1 0.999863
0.999998 1 1 0.999998
1.0001 1 1.00032 0.999774
0.999987 1 1 0.999987
1 1 1 1
1.00352 1 1.00388 0.999638
1.00507 1 1.00563 0.999438
1 1 1 1
1 1 1 1
1.00734 1 1.00832 0.999033
1 1 1 1
1.09655 1.10513 0.99655 0.99567
1.09633 1.10548 0.995827 0.995879
1.08289 1.09778 0.990273 0.996128
1.07813 1.09538 0.987904 0.996301
1.09567 1.10515 0.995528 0.995883
1.05974 1.06426 1 0.995754
1.09554 1.10476 0.995766 0.995871
1.07839 1.09445 0.988998 0.996291
1.08134 1.0964 0.989998 0.996228
1.08194 1.10377 0.983664 0.996505
1.08195 1.09937 0.988141 0.995963
1.08237 1.10644 0.981721 0.996459
1.07833 1.09395 0.989421 0.996268
1.08172 1.10378 0.983497 0.996465
1.08267 1.10437 0.983767 0.996529
1.0839 1.11173 0.978272 0.996621
1.08195 1.10693 0.981108 0.996252
1.08624 1.11445 0.977956 0.99665
1.09488 1.1038 0.996026 0.995879
1.09397 1.10361 0.995411 0.995837
1.07787 1.09387 0.989042 0.996288
1.08257 1.09715 0.990609 0.996072
1.0413 1.03771 1.0074 0.996089
1.07706 1.08231 1.00007 0.995078
1.08769 1.09309 1.00018 0.994881
1.08359 1.09774 0.991187 0.995889
1.0772 1.1013 0.981598 0.996452
1.07362 1.09697 0.982484 0.996161
1.08038 1.09051 0.995292 0.995395
1.06821 1.09447 0.979615 0.996313
1.03869 1.03045 1.01247 0.995587
1.02737 1.0172 1.0147 0.995372
1.01566 1.00286 1.0149 0.997899
1.01356 1.0026 1.01435 0.996633
1.07878 1.09343 0.990316 0.99625
1.081 1.09624 0.989915 0.996145
1.07816 1.0987 0.984833 0.996423
1.07674 1.1028 0.979864 0.996429
1.05994 1.05974 1.00494 0.995267
1.07449 1.08002 1.00003 0.99485
1.07981 1.08567 0.999786 0.994818
1.07644 1.09883 0.983288 0.996271
1.0771 1.1065 0.976736 0.996618
1.07339 1.08928 0.989857 0.995508
1.06691 1.09825 0.974867 0.996511
1.0679 1.09538 0.978456 0.996377
1.03254 1.03173 1.00561 0.995204
1.02456 1.01561 1.01362 0.995255
1.023 1.00806 1.01879 0.996104
1.01556 1.00328 1.01424 0.998034
1.02498 1.00476 1.02333 0.996865
1.08032 1.10239 0.983482 0.996442
1.0807 1.10555 0.981013 0.99644
1.07558 1.11253 0.970087 0.996605
1.07206 1.1033 0.974993 0.996607
1.05 1.05524 1.00002 0.995015
1.06554 1.10074 0.971261 0.996671
1.05337 1.05875 1.00029 0.994636
1.06524 1.07457 0.996573 0.994726
1.06778 1.09045 0.983602 0.995532
1.01023 1 1.01182 0.99843
1.02286 1.00106 1.02465 0.997204
1.02441 1.01301 1.01474 0.99657
1.0224 1.01958 1.00768 0.995124
1.02675 1.012 1.01904 0.995617
1.02366 1.01361 1.01483 0.995156
1.00151 1 1.00187 0.99964
1.02064 1 1.02245 0.998229
1.08346 1.09992 0.989222 0.995766
1.02582 1.00486 1.02381 0.997113
1.03212 1.02383 1.01215 0.995999
1.0198 1.01555 1.0079 0.996305
1.08539 1.0954 0.995257 0.995583
1.07672 1.09673 0.985916 0.995781
1.04233 1.04431 1.0032 0.994923
1.0646 1.06908 1.00077 0.995036
1.10074 1.11031 0.995713 0.995651
1.01136 1 1.01284 0.998537
1.02525 1.00177 1.0261 0.997411
1.02297 1.02127 1.00621 0.995487
1.03132 1.0149 1.01952 0.996726
1.03013 1.02834 1.00561 0.996144
1.07922 1.10431 0.981218 0.99599
1.08306 1.09676 0.991759 0.995718
1.06836 1.0965 0.978208 0.996035
1.01325 1.01509 1.00324 0.994953
1.05573 1.06155 0.999504 0.995011
1.01758 1.00202 1.0178 0.997771
1.03094 1.00405 1.02986 0.997004
1.00894 1.01055 1.00296 0.99546
1.03994 1.02736 1.016 0.996309
1.05548 1.05855 1.00111 0.995996
1.06642 1.10516 0.96837 0.996468
1.08616 1.10161 0.990427 0.995506
1.07743 1.10232 0.981417 0.99593
1.01727 1.01794 1.00433 0.995035
1.02517 1.03057 1 0.99476
1.0051 1 1.00632 0.998785
1.01012 1.00028 1.01183 0.998033
1.00199 1 1.00389 0.998109
1.0081 1 1.00992 0.998204
1.00465 1 1.00625 0.998402
1.00971 0.999961 1.01167 0.998101
1.00395 1 1.00572 0.998246
1.01 1 1.01197 0.99805
1.00144 1 1.00293 0.998515
0.999305 1 1 0.999305
0.999314 1 1.00002 0.999294
0.999948 1 1 0.999948
0.999943 1 1.00075 0.99919
0.999921 1 1 0.999921
1 1 1 1
0.99988 1 1 0.99988
0.999994 1 1 0.999994
1 1 1 1
1.00043 1 1.00065 0.999782
1.00249 1 1.00287 0.999621
1 1 1 1
1.00552 1 1.0061 0.999425
1 1 1 1
1 1 1 1
1.08168 1.0992 0.988055 0.995959
1.08131 1.09637 0.989997 0.996229
1.08228 1.1067 0.981388 0.996482
1.08071 1.10343 0.982825 0.996532
1.07855 1.09436 0.989223 0.996286
1.09527 1.10449 0.995768 0.995872
1.07864 1.09386 0.989795 0.996252
1.0823 1.10376 0.98404 0.996458
1.08244 1.10383 0.984049 0.996516
1.08126 1.11037 0.977082 0.99663
1.08256 1.10727 0.981359 0.996255
1.08316 1.11291 0.976506 0.996685
1.08222 1.10341 0.984308 0.996438
1.08531 1.11475 0.976891 0.996627
1.082 1.11348 0.974943 0.996703
1.07789 1.11594 0.96913 0.99667
1.07895 1.09359 0.990334 0.99625
1.08097 1.09617 0.989965 0.99613
1.07759 1.09848 0.984476 0.996451
1.07798 1.10298 0.98085 0.996412
1.06223 1.06108 1.00584 0.995269
1.07665 1.08221 1 0.994867
1.07908 1.08442 1.00027 0.994805
1.07742 1.0992 0.983902 0.996224
1.07445 1.10499 0.975613 0.996672
1.06778 1.09908 0.974925 0.996511
1.07106 1.08749 0.989351 0.995495
1.06721 1.09485 0.97823 0.996453
1.02836 1.02713 1.00602 0.995212
1.01939 1.01302 1.0111 0.995241
1.02532 1.00758 1.02159 0.996107
1.01328 1.00245 1.0128 0.998026
1.02471 1.00122 1.02665 0.996895
1.08022 1.10217 0.98359 0.996442
1.08139 1.1061 0.981154 0.996437
1.07685 1.11202 0.971677 0.996599
1.04979 1.05484 1.00021 0.995015
1.05383 1.05921 1.00026 0.994663
1.06493 1.07303 0.997725 0.994717
1.07242 1.10298 0.975621 0.996595
1.06789 1.09115 0.98294 0.995667
1.06343 1.09865 0.971205 0.996639
1.00932 1 1.01082 0.998511
1.01899 1.01674 1.00712 0.995123
1.02528 1.01392 1.01605 0.995225
1.03092 1.01357 1.02162 0.995594
1.02644 1.01309 1.01663 0.996593
1.02494 1.00441 1.02335 0.99715
1.08406 1.11269 0.977678 0.996506
1.0809 1.11967 0.968694 0.996574
1.0691 1.11214 0.964519 0.996663
1.06033 1.10383 0.963697 0.996784
1.02863 1.03357 1.00031 0.994907
1.05571 1.08625 0.975571 0.996219
1.03607 1.04021 1.00165 0.99438
1.04509 1.05916 0.992046 0.99462
1.00233 1 1.00332 0.999014
1.01874 1 1.02102 0.997758
1.02149 1.00712 1.01743 0.996894
1.0303 1.00965 1.02441 0.996135
1.0116 1.00623 1.0102 0.995189
1.03012 1.01089 1.02417 0.994972
1.01336 1 1.01484 0.998542
1.02094 1 1.02359 0.997415
1.07797 1.1029 0.981335 0.995985
1.02915 1.0132 1.01906 0.996735
1.02953 1.02666 1.00746 0.995373
1.02827 1.02692 1.00522 0.996113
1.08708 1.10073 0.99186 0.995703
1.07108 1.10028 0.977316 0.996055
1.01619 1.01857 1.00273 0.994947
1.05243 1.05809 0.999683 0.994965
1.01395 1.00027 1.01593 0.997781
1.02911 1.00366 1.0285 0.996947
1.01037 1.01121 1.00374 0.995445
1.04123 1.03071 1.01398 0.99628
1.06093 1.06459 1.00056 0.996013
1.06961 1.10787 0.968837 0.996515
1.08567 1.10107 0.990403 0.99557
1.07754 1.10147 0.982174 0.996033
1.02047 1.02093 1.00458 0.994994
1.02364 1.02913 1.00003 0.994642
1.01098 1 1.01335 0.997656
1.02812 1.0042 1.02713 0.996771
1.03181 1.03248 1.00378 0.99558
1.05189 1.05247 1.00354 0.995931
1.07076 1.13458 0.946826 0.996747
1.05975 1.10122 0.965726 0.9965
1.06311 1.07184 0.996875 0.994961
1.0326 1.03377 1.00426 0.99463
1.00856 1 1.01055 0.99803
1.00371 0.999712 1.00593 0.998076
1.00147 0.998304 1.00473 0.998447
1.00685 1 1.00847 0.998398
1.01246 0.999823 1.01455 0.998113
1.00178 1 1.00328 0.998505
1.00345 0.999243 1.00592 0.998293
1.01158 1 1.01354 0.998064
1.00036 1 1.00175 0.998608
1.01044 1 1.01246 0.998005
1.00737 1 1.00939 0.997997
1.00027 1 1.00182 0.99846
0.999255 1 1 0.999255
0.999301 1 1 0.999301
0.999967 1 1 0.999967
0.999294 1 1 0.999294
0.999954 1 1 0.999954
1 1 1 1
0.999933 1 1 0.999933
1 1 1 1
0.99999 1 1 0.99999
0.999884 1 1 0.999884
1.00247 1 1.00271 0.999756
1 1 1 1
1.00391 1 1.00431 0.999605
1 1 1 1
1 1 1 1
1.08307 1.10751 0.981605 0.996257
1.0823 1.10337 0.984345 0.996502
1.08019 1.11143 0.975091 0.99672
1.07871 1.10907 0.975904 0.996638
1.08288 1.10374 0.984602 0.996451
1.07896 1.0938 0.990162 0.996236
1.08187 1.10328 0.984098 0.996439
1.08425 1.1136 0.976954 0.996616
1.08178 1.11345 0.974783 0.996694
1.07696 1.11496 0.969126 0.996685
1.08682 1.11537 0.977752 0.996573
1.0814 1.12044 0.968277 0.996769
1.08331 1.12662 0.964677 0.996774
1.08013 1.10193 0.983716 0.996443
1.08206 1.10661 0.981312 0.996434
1.07801 1.11147 0.973206 0.996593
1.04989 1.05445 1.00067 0.995014
1.05288 1.05831 1.00018 0.994689
1.06496 1.07199 0.998726 0.994707
1.07291 1.10284 0.976199 0.996583
1.0608 1.09658 0.970666 0.996606
1.06797 1.0919 0.982207 0.995801
1.01683 1.01418 1.00753 0.995121
1.02592 1.01449 1.01604 0.995296
1.03554 1.01552 1.02425 0.995573
1.01137 1 1.0128 0.998593
1.02528 1.01169 1.01687 0.996614
1.02734 1.00681 1.02336 0.997094
1.08561 1.11363 0.978246 0.996517
1.07962 1.1195 0.967692 0.996575
1.06958 1.11176 0.965289 0.996656
1.02735 1.03218 1.00043 0.994898
1.03429 1.0386 1.0014 0.994453
1.04933 1.06325 0.992116 0.994745
1.0611 1.10443 0.963862 0.996784
1.0537 1.08471 0.975125 0.996194
1.00342 1 1.00432 0.999112
1.01772 1 1.02002 0.997749
1.00998 1.00617 1.00862 0.995203
1.03347 1.01085 1.02733 0.995176
1.02894 1.01102 1.02169 0.996116
1.02283 1.01024 1.01564 0.996866
1.08183 1.12218 0.967258 0.99668
1.07156 1.12746 0.953638 0.996629
1.06052 1.11143 0.957228 0.99683
1.04221 1.08535 0.963376 0.996758
1.0083 1.01213 1.00133 0.994885
1.03519 1.06152 0.979842 0.995257
1.02497 1.02904 1.00172 0.994334
0.999607 1 1.0002 0.99941
0.99954 1 1.00074 0.998805
1.01113 1 1.01284 0.998311
1.01424 1 1.01709 0.997205
1.01612 1 1.01957 0.99662
1.04019 1.01546 1.02893 0.995554
1.01052 1.00298 1.01199 0.995584
1.05792 1.00546 1.05656 0.995846
1.01604 1 1.01829 0.997791
1.03569 1.00527 1.03348 0.996891
1.07325 1.11092 0.969416 0.996562
1.04677 1.03785 1.01239 0.996251
1.01146 1.0115 1.00455 0.995431
1.06597 1.06973 1.00046 0.996032
1.08523 1.10058 0.990375 0.995634
1.07789 1.10083 0.982961 0.996136
1.02306 1.02332 1.00482 0.994954
1.02175 1.02737 1 0.994525
1.0135 1.00056 1.01541 0.99757
1.02763 1.00542 1.02547 0.996704
1.04015 1.04046 1.00415 0.995566
1.04895 1.05039 1.0027 0.995948
1.07154 1.13581 0.946476 0.996766
1.06812 1.10648 0.968774 0.996444
1.05799 1.06714 0.996379 0.995028
1.03399 1.03571 1.00377 0.994582
1.00739 0.998636 1.01107 0.997719
1.0818 1.14817 0.945219 0.996806
1.01666 1.00595 1.01428 0.996423
1.04143 1.0409 1.00515 0.99538
1.04393 1.11334 0.94056 0.996915
1.04514 1.05926 0.991532 0.995096
1.02253 1.02506 1.00323 0.99432
1.00706 1 1.00903 0.998043
0.999477 0.997122 1.00393 0.998438
1.00176 0.996145 1.00693 0.998723
1.00152 1 1.00303 0.998495
1.0113 1 1.01324 0.998077
1.00396 0.997779 1.00787 0.998341
1.00025 1 1.0018 0.998454
1.0068 1 1.0088 0.998013
1.00166 0.998928 1.00408 0.998663
1.00859 1 1.01061 0.997999
0.996545 0.995502 1.00223 0.998815
1.00448 0.999929 1.00615 0.99841
1.00877 1 1.01096 0.997836
1.00017 1 1.0024 0.997776
0.999193 1 1.00087 0.998327
0.999207 1 1 0.999207
0.999256 1 1.00001 0.999249
0.999976 1 1 0.999976
0.999312 1 1.00002 0.999296
0.99997 1 1 0.99997
1 1 1 1
0.99996 1 1 0.99996
1 1 1 1
1 1 1 1
0.999633 1 1.00015 0.999486
0.999932 1 1 0.999932
0.999873 1 1 0.999873
1 1 1 1
1.0019 1 1.00217 0.99973
1 1 1 1
1 1 1 1
1.07587 1.11384 0.969115 0.9967
1.08155 1.11335 0.974664 0.996686
1.08307 1.11233 0.977005 0.996606
1.08152 1.10314 0.983902 0.99644
1.08622 1.11532 0.977233 0.996592
1.08083 1.11997 0.968192 0.996759
1.07972 1.12297 0.964601 0.996774
1.0831 1.12344 0.967238 0.996749
1.09063 1.13904 0.960524 0.99685
1.10772 1.17239 0.947588 0.997103
1.08702 1.11445 0.978786 0.996527
1.0784 1.11935 0.966729 0.996576
1.07024 1.11144 0.966166 0.996649
1.02794 1.03272 1.00048 0.994889
1.03372 1.03809 1.00126 0.99453
1.05373 1.06748 0.992216 0.994867
1.06185 1.10454 0.964453 0.996783
1.05129 1.08246 0.974936 0.996168
1.01202 1.00712 1.0097 0.995218
1.03976 1.01122 1.033 0.995371
1.02789 1.0102 1.0215 0.996097
1.00173 1 1.00252 0.999211
1.01608 1 1.01838 0.99774
1.02503 1.0136 1.01448 0.996838
1.08098 1.12211 0.966547 0.996688
0.999802 1 1.0004 0.999402
1.00014 1 1.00139 0.998751
1.07269 1.12676 0.955231 0.996631
1.06018 1.11048 0.957766 0.996802
1.0094 1.01258 1.00192 0.994955
1.02678 1.03066 1.00187 0.994379
1.03106 1.05708 0.980057 0.99524
1.04052 1.08446 0.962635 0.996724
1.00976 1 1.01137 0.998414
1.01475 1 1.01761 0.997186
1.0111 1.0026 1.0131 0.995441
1.05096 1.0066 1.04846 0.995812
1.03685 1.01174 1.0294 0.995544
1.01632 1.00241 1.01725 0.996686
1.08818 1.14793 0.951013 0.99678
1.05612 1.12485 0.941985 0.996725
1.0407 1.0982 0.950516 0.996976
1.02139 1.05773 0.969124 0.99641
1.0108 1.00683 1.0086 0.995389
1.01989 1.03183 0.993723 0.99467
0.999937 1 1.00127 0.99867
1.00368 1 1.00492 0.998768
1.00244 1.00021 1.00384 0.998403
1.00806 1 1.01052 0.997563
1.0158 1 1.01887 0.996979
1.01072 1.00057 1.0138 0.996396
1.08501 1.00721 1.08179 0.995793
0.99444 1.00049 0.996954 0.996988
1.00929 1 1.01183 0.997486
1.02378 1.00362 1.02353 0.996635
1.07111 1.13518 0.946604 0.996785
1.07591 1.11112 0.971819 0.996389
1.04629 1.04787 1.00254 0.995965
1.05066 1.05072 1.00441 0.99555
1.0532 1.0627 0.995946 0.995095
1.03626 1.03848 1.00335 0.994535
1.00946 0.998848 1.01294 0.997712
1.08235 1.15157 0.942818 0.996893
1.01761 1.00295 1.01815 0.996522
1.03613 1.03577 1.00507 0.995299
1.04487 1.11443 0.940505 0.996898
1.03928 1.05539 0.989484 0.99521
1.02392 1.02618 1.00348 0.994328
1.02085 0.997718 1.02565 0.997603
0.997707 1.08504 0.922082 0.997207
1.00983 0.99976 1.01391 0.996217
1.01622 1.01349 1.00809 0.994648
0.998258 1.04969 0.954396 0.996444
1.00526 1.0084 1.00221 0.994683
0.916074 0.998442 0.922248 0.994856
0.996021 0.994275 1.00333 0.998429
0.999221 0.992833 1.00772 0.998728
1.00329 0.994038 1.01065 0.998668
1.00021 1 1.00177 0.998448
1.00801 1 1.01 0.998031
1.00695 1 1.00898 0.997993
1.00339 0.998532 1.00615 0.998721
0.999188 1 1.00086 0.998328
1.0011 1 1.0033 0.997812
0.993664 0.992949 1.00194 0.998781
1.01074 1 1.01294 0.997831
1.00588 0.999906 1.00763 0.99836
1.00132 0.990389 1.01228 0.99877
1.01188 1 1.01417 0.997738
1.00714 1 1.00937 0.997794
0.998507 1 1.00083 0.997678
0.998572 1 1.00044 0.998129
1.00656 1 1.00868 0.997903
1.00038 1 1.00227 0.998118
0.999192 1 1 0.999192
0.999202 1 1 0.999202
0.999983 1 1 0.999983
0.999243 1 1 0.999243
0.999978 1 1 0.999978
1 1 1 1
0.999972 1 1 0.999972
1 1 1 1
1 1 1 1
0.999603 1 1 0.999603
0.999644 1 1.00015 0.999493
0.999965 1 1 0.999965
0.999925 1 1 0.999925
1 1 1 1
1.00108 1 1.00122 0.999862
1 1 1 1
1 1 1 1
1.0765 1.11992 0.964345 0.996774
1.0803 1.11965 0.967999 0.99675
1.08578 1.11545 0.976711 0.996611
1.08255 1.12295 0.967164 0.996748
1.08846 1.13748 0.959939 0.996839
1.11043 1.17301 0.949491 0.997014
1.10241 1.16049 0.952893 0.996916
0.910417 1.01633 0.902762 0.992274
1.04544 1.11475 0.940027 0.997656
0.999931 1 1.00103 0.998905
1.08022 1.12215 0.965819 0.996696
1.07369 1.12574 0.956987 0.996634
1.05944 1.10937 0.958086 0.996774
1.00603 1.01023 1.00082 0.99502
1.02846 1.03221 1.00196 0.99442
1.02725 1.05277 0.980453 0.995221
1.03938 1.08422 0.961828 0.996689
1.00636 1.00242 1.00867 0.995309
1.04368 1.00746 1.04033 0.995792
1.03432 1.00769 1.03103 0.995533
1.00127 1 1.00187 0.999394
1.01627 1.00386 1.01567 0.996748
1.0096 1 1.0111 0.998513
1.01536 1 1.01824 0.997167
1.00079 1 1.0021 0.998698
1.0876 1.14769 0.950695 0.996787
0.999445 1 1.00071 0.998735
1.00448 1 1.00571 0.998771
1.00223 1.00051 1.00336 0.998367
1.05862 1.12488 0.944192 0.996724
1.03739 1.09511 0.950211 0.996922
1.00565 1.00471 1.00553 0.995428
1.01934 1.03129 0.993556 0.994823
1.02222 1.05806 0.969628 0.996392
1.00821 1 1.01061 0.997631
1.01458 1 1.01769 0.996953
1.00629 1.00041 1.00919 0.996717
1.0739 1.00494 1.07318 0.99575
1.01131 1.00427 1.01058 0.996465
1.06106 1.14121 0.932701 0.996856
1.01821 1.10575 0.923702 0.996896
1.02534 1.06928 0.962188 0.99659
1.00819 1.0338 0.979003 0.996148
1.00161 1.00146 1.0037 0.996465
0.998935 1 1.00057 0.998368
1.00646 1.00038 1.0081 0.998002
1.0027 0.998559 1.00591 0.998242
1.01546 1 1.01804 0.997461
1.01376 1 1.01666 0.99715
1.05148 0.999776 1.05515 0.996749
1.03264 1.00335 1.03209 0.997197
1.01167 1.00046 1.01353 0.997703
1.01913 1.0007 1.02187 0.996624
1.0821 1.15618 0.938757 0.996977
1.04672 1.11672 0.940247 0.996878
1.03372 1.05192 0.987309 0.995325
1.0288 1.02877 1.00484 0.995218
1.02456 1.0267 1.0036 0.994338
1.02135 0.998112 1.02558 0.997757
1.00015 1.0876 0.922105 0.997274
1.00637 1.00046 1.00972 0.996213
1.01381 1.01043 1.00876 0.994636
0.997888 1.04649 0.956811 0.996602
1.00685 1.00947 1.00273 0.994685
0.910222 0.995416 0.920591 0.993289
1.02242 0.993876 1.03121 0.997584
0.959786 1.03003 0.934431 0.997187
1.00488 1.0014 1.00775 0.995761
1.00491 1.00282 1.00681 0.995313
0.986901 1.00783 0.982781 0.996395
0.847997 0.966214 0.916226 0.957897
0.802055 0.933829 0.878504 0.977671
0.91111 0.969707 0.943777 0.995544
0.555798 0.740116 0.835639 0.898667
0.477697 0.659283 0.838821 0.863796
0.99791 0.989703 1.00957 0.998733
1.00507 0.990713 1.0158 0.998721
1.00649 0.990976 1.01697 0.998703
0.998576 1 1.00025 0.998329
1.00137 1 1.00353 0.997848
1.01088 1 1.01308 0.997825
1.00581 1 1.00751 0.99831
0.989351 0.990592 1 0.998747
1.00816 1 1.01038 0.997805
0.998209 1 1.00004 0.99817
0.998961 1 1.00128 0.997689
1.00059 0.99255 1.00942 0.998693
1.01221 1 1.0144 0.997841
1.01753 1 1.01967 0.997903
1.01848 0.997879 1.02242 0.998259
1.00883 1 1.01105 0.997804
0.999485 1 1.00195 0.99754
0.99925 1 1.00117 0.998088
1.00246 1 1.00471 0.99776
1.00723 0.999398 1.00982 0.998036
1.00941 1 1.01133 0.998101
1.00655 1 1.00868 0.997885
1.0014 1 1.00312 0.998289
1.00119 1 1.00308 0.998112
0.999196 1 1 0.999196
0.999194 1 1 0.999194
0.999991 1 1 0.999991
0.999197 1 1 0.999197
0.999986 1 1 0.999986
1 1 1 1
0.99998 1 1 0.99998
1 1 1 1
1 1 1 1
0.999718 1 1 0.999718
0.999724 1 1.00012 0.999602
0.999987 1 1 0.999987
0.999743 1 1.00024 0.999499
0.999958 1 1 0.999958
1 1 1 1
0.999918 1 1 0.999918
1 1 1 1
1 1 1 1
1.08596 1.1356 0.959333 0.996827
1.08173 1.12217 0.96711 0.996746
1.11623 1.17543 0.952563 0.996928
0.915314 1.01402 0.909625 0.992339
1.10114 1.1612 0.951218 0.996912
1.05445 1.11806 0.945436 0.997534
1.06892 1.13546 0.944211 0.997022
0.857977 0.958919 0.915545 0.977269
0.959633 1.03384 0.934906 0.992846
0.999217 1 1.00024 0.998979
0.999609 1 1.00071 0.998898
1.00042 1 1.00195 0.998479
0.998885 1 1.00038 0.998504
1.08698 1.14775 0.950095 0.996794
1.06064 1.1252 0.945718 0.996723
1.03435 1.09225 0.949966 0.996869
1.0053 1.00471 1.00514 0.995468
1.01881 1.03072 0.993425 0.994982
1.02191 1.05748 0.969876 0.996376
1.01779 1 1.02143 0.996436
1.06159 1.00446 1.06143 0.995706
1.01282 1.00781 1.00846 0.996538
1.00426 1 1.00549 0.998776
1.01397 1.00061 1.01647 0.996932
1.00775 1 1.01007 0.997699
0.9988 1 1 0.9988
1.00185 1.00041 1.00311 0.998333
1.06256 1.14405 0.931689 0.996869
0.999654 0.999999 1.0013 0.998353
1.00471 1.0006 1.00601 0.998109
1.00297 0.997401 1.00698 0.998619
1.0273 1.1101 0.928309 0.996883
1.02463 1.06856 0.962174 0.996588
1.00203 1.00534 1.00025 0.996465
1.00985 1.03447 0.979914 0.996219
1.01468 1 1.0174 0.997321
1.01396 1.00003 1.01702 0.996964
1.03936 1.00421 1.03792 0.997182
1.05279 1.0034 1.0528 0.996602
1.01292 1.087 0.934718 0.996932
0.98835 1.06773 0.928517 0.996918
1.00998 1.02896 0.985306 0.996185
0.97309 1.00435 0.971401 0.997397
1.0081 0.999192 1.01048 0.998454
1.00907 1 1.01154 0.997551
1.01991 0.998626 1.02324 0.998121
1.08216 1.0015 1.08352 0.997249
0.849613 0.9665 0.925532 0.949791
1.02223 0.998053 1.02637 0.99791
1.00376 1.00091 1.00666 0.996207
1.00357 1.08952 0.923563 0.997351
0.997111 1.04303 0.959087 0.996757
1.00849 1.01055 1.0033 0.994682
1.0122 1.00794 1.00966 0.99462
0.906199 0.99379 0.919549 0.99164
1.01781 0.994218 1.02614 0.997651
0.958938 1.03001 0.93365 0.997157
1.00518 1.00151 1.00793 0.995771
1.00726 1.0058 1.00614 0.995341
0.988392 1.00889 0.983247 0.996376
0.833601 0.964461 0.909646 0.95017
0.806357 0.935721 0.885041 0.973683
0.915015 0.969247 0.948189 0.995633
0.554777 0.738961 0.832464 0.901843
0.476433 0.668589 0.831019 0.857496
1.00796 0.994576 1.01583 0.997658
0.608658 0.772152 0.869637 0.906426
0.518411 0.696662 0.86212 0.863147
0.967587 1.00558 0.964553 0.997578
1.01568 1.00228 1.01666 0.996776
1.01721 1.00659 1.01361 0.996985
0.914228 0.956051 0.959753 0.996355
0.767374 0.928053 0.865545 0.95531
0.775006 0.905036 0.882401 0.97045
0.524833 0.710609 0.81185 0.909734
0.516223 0.745355 0.81237 0.852551
1.0064 0.987442 1.02045 0.998773
1.0084 0.989771 1.02018 0.998676
1.01588 0.993024 1.02421 0.998837
0.998217 1 1.00001 0.998211
0.999722 1 1.00203 0.997699
1.00949 1 1.0117 0.997817
1.0136 1 1.01569 0.997943
1.00066 0.994291 1.0078 0.998615
0.999062 1 1.00098 0.998086
1.01747 1 1.01961 0.9979
1.00968 1 1.01195 0.997762
0.999382 1 1.00179 0.997592
1.01725 0.997075 1.02195 0.998321
1.01813 1 1.01997 0.998193
1.03202 0.995479 1.03827 0.998495
1.00899 1 1.01145 0.99757
0.999471 1 1.00185 0.997627
1.0014 1 1.00365 0.997752
1.00662 0.999019 1.00951 0.998119
1.00136 0.999955 1.00357 0.99785
1.00333 0.998159 1.00698 0.998212
1.01176 0.995849 1.01762 0.99839
1.01463 0.999702 1.01695 0.998014
1.01382 1 1.01568 0.998164
1.01126 1 1.01318 0.998103
1.0067 1 1.00839 0.998328
1.00844 1 1.01059 0.997867
1.00181 1 1.00358 0.998246
0.999165 1 1 0.999165
1.00193 1 1.00383 0.998105
0.999201 1 1 0.999201
0.999986 1 1 0.999986
0.999195 1 1 0.999195
0.99999 1 1 0.99999
1 1 1 1
0.999989 1 1 0.999989
1 1 1 1
1 1 1 1
0.999566 1 1.00068 0.998888
0.999755 1 1 0.999755
0.999713 1 1 0.999713
0.999998 1 1 0.999998
0.999745 1 1.00014 0.999602
0.999981 1 1 0.999981
1 1 1 1
0.99995 1 1 0.99995
1 1 1 1
1 1 1 1
0.91675 1.01166 0.91312 0.992403
1.09981 1.1609 0.950323 0.996908
1.05861 1.12027 0.947416 0.997409
0.847246 0.961034 0.900886 0.978591
0.951839 1.03295 0.927869 0.993114
1.07135 1.13822 0.944095 0.996986
0.959908 1.05233 0.916938 0.994809
0.869083 0.973968 0.910384 0.980148
0.849197 0.970794 0.915749 0.955223
0.572069 0.749821 0.836343 0.912234
0.452874 0.641012 0.818902 0.862739
1.00049 1 1.00196 0.998538
0.999536 1 1.00056 0.998978
0.999742 1 1.00085 0.99889
1.00046 1 1.00196 0.998506
1.00062 1 1.00218 0.99844
0.99906 1 1.00091 0.998148
1.0007 1 1.00247 0.998236
0.999444 1 1.00099 0.99846
1.06547 1.14638 0.932329 0.996881
1.03696 1.11462 0.933249 0.996869
1.02422 1.06849 0.961848 0.996585
1.00031 1.00722 0.996663 0.996465
1.0115 1.03531 0.980648 0.996288
1.04883 1.00469 1.0469 0.997163
1.05381 1.00676 1.05046 0.996457
1.01141 1.00036 1.01432 0.996771
1.00301 1.00077 1.00403 0.998213
1.01545 1 1.01833 0.997177
1.0007 1 1.00237 0.99834
1.00388 0.997357 1.00755 0.999002
1.00576 1.0865 0.928456 0.997016
1.00733 0.998931 1.01003 0.998396
1.01055 0.999856 1.0129 0.997823
0.988447 1.06626 0.929912 0.996889
1.01014 1.03172 0.982673 0.996346
0.975134 1.00356 0.97434 0.997262
1.02889 0.998177 1.03313 0.997715
1.07145 1.00361 1.07048 0.997303
0.947081 1.03725 0.916182 0.996601
0.99375 1.02232 0.975079 0.996897
0.974074 1.00266 0.974464 0.996945
0.973375 0.994766 0.980607 0.997847
1.01362 0.999834 1.01605 0.997772
1.01907 0.995208 1.02604 0.997982
1.06545 0.998716 1.0693 0.997673
0.646581 0.790003 0.900279 0.909111
0.852299 0.969675 0.916411 0.959125
1.01336 0.995733 1.02003 0.997719
1.00517 1.00132 1.0081 0.995785
0.959399 1.02997 0.934173 0.997125
0.990022 1.01023 0.983579 0.996362
1.01009 1.00902 1.00571 0.995379
0.839801 0.969341 0.906955 0.955243
0.814443 0.94993 0.879972 0.974317
0.917482 0.967158 0.952681 0.995756
0.56981 0.735878 0.848633 0.91244
0.475134 0.679415 0.821844 0.850926
1.00775 0.996395 1.01376 0.997673
0.629255 0.786044 0.882252 0.907375
0.484517 0.660872 0.854413 0.858072
0.968232 1.00671 0.964153 0.997537
1.016 1.003 1.01624 0.996768
1.01494 1.00433 1.01347 0.99713
0.909196 0.949865 0.960321 0.996734
0.764769 0.931779 0.863776 0.950202
0.775474 0.903344 0.881866 0.973445
0.548736 0.727376 0.830791 0.908056
0.52854 0.764269 0.812788 0.850853
1.0087 0.994643 1.01575 0.998408
0.513086 0.699815 0.852661 0.859866
0.548153 0.770634 0.824409 0.862803
0.984351 0.989201 0.996531 0.998561
1.02156 1.00234 1.02069 0.99851
0.921856 0.935422 0.989916 0.995536
0.8015 0.895319 0.917193 0.976034
0.697912 0.871652 0.846381 0.946001
0.590646 0.734416 0.884047 0.909724
0.612884 0.846738 0.841968 0.859675
1.01194 0.992518 1.02095 0.99865
1.01304 0.994546 1.01983 0.998787
1.01363 0.990735 1.02405 0.999074
0.998525 1 1.00044 0.998083
0.99925 1 1.00161 0.997644
1.01128 1 1.01359 0.99772
1.01758 1 1.01972 0.997896
1.01571 0.996274 1.02116 0.998385
0.999161 1 1.00155 0.997617
1.01824 1 1.02016 0.998116
1.00823 1 1.01068 0.997571
1.02867 0.993152 1.03725 0.998559
1.04664 0.990682 1.05744 0.999094
1.02343 0.999636 1.0257 0.998153
1.00446 1 1.00694 0.997539
1.00011 1 1.00237 0.997744
1.00589 0.999855 1.00785 0.998201
1.00137 0.999837 1.0037 0.997838
1.0032 0.999717 1.00531 0.998187
1.0046 0.991934 1.01427 0.998518
1.00492 0.999378 1.00737 0.998191
1.01768 0.996911 1.02265 0.998232
0.999002 0.985986 1.01466 0.998564
1.02653 1.00044 1.02831 0.997832
1.00977 1.01195 1.00093 0.996917
1.02197 0.999058 1.02529 0.997706
1.01506 0.999386 1.0177 0.99802
1.01861 1 1.02082 0.997835
1.01374 0.999929 1.01567 0.998173
1.01042 1 1.01219 0.998248
1.01012 1 1.01204 0.998105
1.00387 1 1.00553 0.998344
0.999527 1 1.00043 0.999097
1.00096 1 1.00276 0.998202
0.999171 1 1 0.999171
0.999963 1 1 0.999963
0.999205 1 1 0.999205
0.999981 1 1 0.999981
1 1 1 1
0.99999 1 1 0.99999
1 1 1 1
1 1 1 1
0.999503 1 1.00066 0.998848
0.999762 1 1.00006 0.999698
0.999373 1 1.00048 0.998891
0.999999 1 1 0.999999
0.999754 1 1 0.999754
0.999708 1 1 0.999708
0.999995 1 1 0.999995
1 1 1 1
0.999975 1 1 0.999975
1 1 1 1
1 1 1 1
0.607243 0.770249 0.877422 0.89851
0.499395 0.689143 0.846106 0.856466
0.848084 0.95885 0.903079 0.979404
0.947551 1.03179 0.924437 0.993422
1.07505 1.14286 0.943544 0.996951
0.867608 0.961597 0.919622 0.981117
0.965138 1.0478 0.925598 0.995155
0.851577 0.97556 0.914029 0.955015
0.547624 0.737814 0.822942 0.901916
0.465075 0.66265 0.819395 0.856536
0.87882 0.989376 0.900339 0.98658
0.790939 0.94017 0.879613 0.956411
0.529786 0.716543 0.813009 0.909417
0.537634 0.759475 0.826914 0.856077
1.00162 1 1.00354 0.998084
0.999612 1 1.00104 0.998568
0.999631 1 1.00065 0.998979
0.999999 1 1.00147 0.998534
1.00046 1 1.00186 0.998599
1.00064 1 1.00289 0.997755
0.999424 1 1.00126 0.998163
1.00338 1 1.00569 0.997703
1.00007 1 1.00189 0.998179
1.00027 1 1.00185 0.998416
0.996855 1.08601 0.920583 0.997095
0.988151 1.06446 0.931234 0.996863
1.0108 1.03439 0.980619 0.996507
0.977947 1.00331 0.977529 0.997126
1.06069 1.00586 1.05731 0.997358
1.03993 0.998388 1.04441 0.997316
1.01037 0.999372 1.01294 0.998094
1.0064 0.998436 1.00966 0.998336
0.945863 1.03741 0.914686 0.996797
1.01659 0.999752 1.01918 0.997704
1.01907 0.994986 1.02629 0.997968
0.981717 1.01752 0.967875 0.99684
0.972115 1.00206 0.973065 0.996974
0.978082 0.996723 0.983406 0.997855
1.05753 0.997427 1.06279 0.997624
0.920412 1.00054 0.923031 0.996622
0.970906 0.996794 0.975952 0.99803
1.02378 0.984282 1.04204 0.998167
1.01126 1 1.01371 0.997588
1.02705 0.996792 1.03274 0.997691
1.02984 0.993876 1.03843 0.997838
0.532987 0.711206 0.856342 0.875133
0.635563 0.78386 0.889838 0.911191
0.851982 0.971402 0.923192 0.950034
1.00672 0.994775 1.01435 0.997683
1.01562 1.00292 1.01597 0.996751
0.970462 1.00796 0.965221 0.997492
1.01287 1.00261 1.013 0.997268
0.639175 0.778161 0.899062 0.91361
0.777566 0.939335 0.871425 0.94992
0.765178 0.901281 0.874702 0.970604
0.908783 0.946154 0.963328 0.997066
0.540172 0.733522 0.81893 0.899233
0.468072 0.642533 0.845606 0.861488
0.542932 0.771235 0.818618 0.859957
1.00792 0.993851 1.01584 0.998336
0.517711 0.700784 0.853381 0.865686
0.571179 0.794962 0.8332 0.862336
0.978776 0.986022 0.993964 0.99868
1.01994 1.00083 1.02068 0.998444
0.918684 0.932435 0.988618 0.996596
0.788467 0.901603 0.89925 0.972496
0.722123 0.873307 0.867287 0.953415
0.586561 0.740337 0.88055 0.899765
0.605309 0.836361 0.835764 0.865963
1.00674 0.990873 1.01659 0.999431
0.590052 0.791192 0.854266 0.873003
0.596852 0.815654 0.844153 0.866842
0.965038 0.939272 1.02772 0.999715
0.846116 0.890882 0.966176 0.983
0.739643 0.840054 0.926214 0.950613
0.691288 0.841542 0.91641 0.896383
0.665422 0.896175 0.851343 0.872167
1.0089 0.994123 1.01615 0.998736
1.01527 0.989613 1.02689 0.999059
1.02263 0.975608 1.04887 0.999354
0.999727 1 1.00212 0.997608
1.00687 1 1.00932 0.997573
1.01771 1 1.01971 0.998038
1.02623 0.991405 1.03655 0.998624
1.005 1 1.00748 0.997538
1.02238 0.999102 1.02521 0.99814
1.0523 0.990548 1.06322 0.999173
1.04042 0.974349 1.0684 0.999446
1.0475 0.992445 1.05646 0.999068
1.01665 0.999172 1.01951 0.998025
1.00114 1 1.00332 0.997826
1.00181 1.00012 1.00353 0.998163
0.996854 0.986151 1.01223 0.998643
1.017 0.996961 1.02188 0.998258
1.00334 0.999824 1.00535 0.998175
0.999572 0.984659 1.01657 0.998598
1.02561 0.998879 1.02859 0.998223
1.02068 0.979213 1.04343 0.998962
1.01209 1.0035 1.01048 0.998099
1.02047 1.00116 1.02146 0.997878
1.00575 1.00229 1.00626 0.997212
1.01486 1.01766 1.00153 0.995726
1.01266 1.00661 1.0088 0.997231
1.00761 1.00935 1.00099 0.997291
1.01999 0.999705 1.02264 0.997698
1.02934 0.999475 1.03246 0.997497
1.01498 0.99915 1.01785 0.998027
1.01852 1.00006 1.02066 0.997841
1.01286 1 1.01495 0.997943
1.01382 1 1.01567 0.998181
1.01096 1 1.01273 0.998249
1.00257 1 1.00362 0.998958
1.00413 1 1.00578 0.99836
1.00014 1 1.00104 0.999099
0.999916 1 1 0.999916
0.999306 1 1.00013 0.999176
0.99995 1 1 0.99995
1 1 1 1
0.999977 1 1 0.999977
1 1 1 1
1 1 1 1
1.00047 1 1.00204 0.998428
0.999724 1 1.00013 0.999591
0.999871 1 1.00113 0.998743
0.999994 1 1 0.999994
0.999705 1 1 0.999705
0.999481 1 1.00059 0.998894
1 1 1 1
0.999999 1 1 0.999999
0.999754 1 1 0.999754
0.999993 1 1 0.999993
1 1 1 1
1 1 1 1
0.496869 0.684702 0.842609 0.861221
0.621241 0.778001 0.881864 0.905478
0.578165 0.8051 0.832441 0.862677
0.49856 0.693726 0.84019 0.855365
0.866788 0.962008 0.920964 0.978343
0.969677 1.04301 0.933868 0.995522
0.840949 0.980621 0.898672 0.954261
0.562679 0.7314 0.843676 0.911864
0.479115 0.68992 0.816697 0.850316
0.888068 0.983443 0.916527 0.985262
0.757197 0.923854 0.8659 0.946538
0.550636 0.727644 0.833713 0.907673
0.522564 0.747774 0.821276 0.850903
0.833325 0.947983 0.896652 0.980369
0.690726 0.842692 0.86782 0.944511
0.613638 0.780139 0.878747 0.89511
0.600742 0.831359 0.841825 0.858375
1.00613 1 1.00856 0.997586
1.00182 1 1.00369 0.998145
0.999473 1 1.00088 0.998598
1.00045 1 1.0017 0.998759
1.00079 1 1.00351 0.997291
1.00056 1 1.00273 0.997831
0.999495 1 1.00132 0.998178
1.0028 1 1.00515 0.997655
1.00199 1 1.00425 0.997742
0.999675 1 1.00156 0.998122
0.945452 1.03792 0.913667 0.996983
0.971389 1.01308 0.961934 0.996789
0.968854 1.00129 0.970516 0.997002
0.981811 0.998423 0.985466 0.997865
1.04321 0.994377 1.05166 0.99757
1.02015 0.99635 1.02598 0.997958
1.01814 1 1.02055 0.997637
1.01118 1 1.01367 0.997541
0.923227 0.999699 0.926489 0.99678
1.02383 0.997789 1.02852 0.99765
1.02985 0.994519 1.03779 0.997816
0.96982 0.998312 0.973383 0.998024
1.01571 0.988639 1.02931 0.998123
0.929157 0.964697 0.96624 0.996811
0.950165 0.947928 1.00315 0.999214
1.04996 0.971423 1.0826 0.998377
1.01465 0.99836 1.01853 0.997827
1.03268 0.992726 1.04233 0.998004
0.604912 0.8082 0.851046 0.879469
0.523756 0.712643 0.842322 0.872528
0.624371 0.774591 0.893979 0.90166
1.0085 0.995079 1.01525 0.99827
1.01848 0.99921 1.02094 0.998375
0.971431 0.983154 0.989253 0.99881
0.510041 0.694866 0.848665 0.864904
0.692783 0.85146 0.860935 0.945066
0.793154 0.899447 0.904929 0.974468
0.908569 0.92615 0.983247 0.997733
0.595528 0.752292 0.870252 0.909643
0.591262 0.814636 0.841676 0.862326
0.599689 0.829129 0.834379 0.866844
1.00562 0.99156 1.01481 0.999376
0.596916 0.796666 0.856397 0.874907
0.590883 0.807049 0.844126 0.86735
0.969076 0.946221 1.02471 0.999459
0.856518 0.903066 0.964863 0.982995
0.716099 0.842678 0.901708 0.942422
0.654571 0.886828 0.84782 0.87059
0.708309 0.840102 0.935518 0.901237
0.986083 0.944093 1.04478 0.999711
0.593787 0.791216 0.85697 0.875729
0.646645 0.864923 0.854513 0.874922
0.59775 0.829862 0.839013 0.858509
0.910303 0.901284 1.01462 0.995452
0.821505 0.878116 0.98164 0.95303
0.77523 0.920347 0.927437 0.908228
1.01811 0.989659 1.02973 0.999043
1.02541 0.981627 1.04536 0.99927
1.04081 0.970273 1.07316 0.999566
1.0059 1 1.00838 0.997538
1.02087 0.998627 1.02419 0.998127
1.05689 0.98902 1.06943 0.999251
1.0199 0.999059 1.02287 0.998039
1.04775 0.992378 1.05677 0.999079
1.0481 0.976438 1.07401 0.999421
1.03475 0.964068 1.07386 0.999489
1.02949 0.987004 1.04403 0.999058
1.01498 0.996963 1.01982 0.998287
1.00355 1.00018 1.00522 0.998159
1.00212 0.986035 1.01771 0.998633
1.02199 0.983969 1.03975 0.998933
1.03243 0.999008 1.03528 0.998235
1.01745 1.00014 1.01853 0.99879
1.01458 0.999827 1.01622 0.998559
1.00447 1.00287 1.00494 0.996668
1.01702 1.00315 1.01592 0.997937
1.00734 1.00482 1.00543 0.997092
1.00549 1.00777 1.00248 0.995263
1.03282 1.03662 1.00129 0.995051
1.01392 1.01454 1.0027 0.996698
1.01035 1.01322 1.00138 0.99579
1.0195 1.00109 1.02137 0.997089
1.01242 1.00652 1.00862 0.997262
1.00479 1.00622 1.00092 0.997661
1.0177 1.00021 1.01985 0.99769
1.0287 0.999678 1.03162 0.997495
1.01934 1 1.0218 0.997595
1.0203 0.999908 1.0226 0.997847
1.0133 1.0005 1.01489 0.997938
1.00809 1 1.00942 0.998678
1.00841 1 1.01018 0.998247
1.00312 1 1.00417 0.99895
0.999867 1 1 0.999867
1.00012 1 1.00102 0.9991
0.999905 1 1 0.999905
0.999999 1 1 0.999999
0.999937 1 1 0.999937
1 1 1 1
1 1 1 1
1.00362 1 1.00563 0.99801
0.999891 1 1.00065 0.999244
1.00091 1 1.00249 0.998427
0.999982 1 1 0.999982
0.999547 1 1.00004 0.99951
0.999721 1 1.00108 0.998639
1 1 1 1
0.999996 1 1 0.999996
0.999712 1 1 0.999712
1 1 1 1
0.999999 1 1 0.999999
1 1 1 1
0.616707 0.826032 0.855335 0.872862
0.512952 0.690942 0.854033 0.869282
0.608439 0.772541 0.871065 0.904159
1.0049 1 1.00736 0.997558
0.585214 0.800143 0.839714 0.870994
0.578182 0.801326 0.836567 0.862492
0.518283 0.716681 0.837939 0.863036
0.892286 0.989962 0.916056 0.983928
0.767197 0.918338 0.874418 0.955401
0.53657 0.729003 0.819181 0.898498
0.508987 0.723115 0.821419 0.856908
0.828252 0.944708 0.897976 0.976337
0.719739 0.862531 0.875791 0.952796
0.602285 0.759095 0.884589 0.896941
0.604536 0.834853 0.841939 0.860066
0.772095 0.89285 0.89052 0.971066
0.725667 0.831135 0.920923 0.948074
0.714138 0.8439 0.937484 0.902667
0.662366 0.889043 0.854208 0.872191
1.00478 1 1.00717 0.997622
1.00638 1 1.00881 0.997583
1.00147 1 1.00327 0.998207
1.00124 1 1.00372 0.997525
1.00244 1 1.00509 0.997368
1.0006 1 1.0027 0.997906
1.00387 1 1.00623 0.997654
1.00128 1 1.00351 0.99778
0.927726 1.00124 0.92946 0.9969
0.970442 1.00104 0.971346 0.998028
1.01015 1 1.01269 0.997492
1.00811 0.99267 1.01751 0.998079
1.03216 0.994026 1.04066 0.997793
1.02553 0.999832 1.02816 0.997605
1.01854 0.999429 1.02137 0.997795
0.930646 0.964553 0.96776 0.99699
1.03199 0.994729 1.03953 0.998003
1.0384 0.979035 1.06231 0.998422
0.956589 0.952688 1.00484 0.999253
1.0246 0.997679 1.02897 0.998065
0.916519 0.923566 0.996348 0.996007
0.979622 0.943852 1.03844 0.999476
1.07217 0.983314 1.09196 0.998536
1.06555 0.994389 1.07348 0.998211
0.586712 0.780906 0.853583 0.880198
0.602125 0.80588 0.851016 0.877968
0.513793 0.712016 0.829599 0.869821
1.0036 0.991462 1.01292 0.999322
0.97364 0.95144 1.02415 0.999202
0.606843 0.805451 0.859384 0.876698
0.733551 0.820088 0.93946 0.952121
0.845955 0.900595 0.960342 0.978119
0.694753 0.830163 0.931176 0.898744
0.587893 0.802377 0.844352 0.867753
0.649959 0.8837 0.846403 0.868969
0.997568 0.958117 1.04152 0.999669
0.594924 0.793545 0.855982 0.87584
0.653136 0.866534 0.859737 0.876703
0.92764 0.912893 1.01774 0.998444
0.601805 0.832594 0.840387 0.860088
0.789746 0.857063 0.971794 0.948201
0.769647 0.905239 0.936692 0.907677
0.988485 0.944583 1.04695 0.99955
0.645741 0.845185 0.864943 0.883323
0.590065 0.800859 0.844921 0.872023
0.533149 0.754114 0.825991 0.855925
0.706315 0.836869 0.935766 0.901931
0.912631 0.913897 1.00999 0.988737
0.840076 0.892458 0.999871 0.941427
1.02737 0.988653 1.04001 0.999188
1.03488 0.962128 1.07611 0.999534
1.0129 0.937933 1.08038 0.999581
1.02301 0.998423 1.02662 0.998052
1.04944 0.990982 1.05995 0.999091
1.05729 0.979224 1.08037 0.999396
1.02744 0.987838 1.04109 0.999045
1.0282 0.963523 1.06767 0.999488
0.984062 0.960026 1.02582 0.999234
1.02456 0.987833 1.03832 0.998903
1.03741 0.99597 1.04343 0.998251
1.02374 0.998343 1.02672 0.998758
1.00233 0.998845 1.00564 0.997858
1.01563 0.996406 1.02029 0.999019
0.998679 1.00279 0.998939 0.996957
1.00879 1.00441 1.00993 0.994493
1.0118 1.01463 1.0029 0.994325
1.00842 1.0079 1.00358 0.996955
1.00561 1.00851 1.00213 0.995001
1.02928 1.03384 1.00053 0.995066
1.02846 1.03011 1.00261 0.995798
1.02976 1.03346 1.00125 0.995168
1.01445 1.00693 1.01063 0.996877
1.01797 1.01763 1.0037 0.996651
1.00574 1.00863 1.00128 0.995859
1.02709 1 1.0298 0.99737
1.0199 1.00137 1.02144 0.997119
1.01277 1.00651 1.00895 0.997291
1.02802 1.00012 1.03047 0.997494
1.01832 1.00041 1.02036 0.997596
1.01465 1 1.01634 0.998338
1.01356 1.00082 1.01483 0.997933
1.0081 1 1.00944 0.998671
1.00023 1 1.00045 0.999778
1.00454 1 1.0056 0.998946
0.999856 1 1 0.999856
1 1 1 1
0.999892 1 1 0.999892
1 1 1 1
1 1 1 1
1.00573 1 1.00783 0.997912
1.0023 1 1.00337 0.998942
1.00392 1 1.00585 0.998088
0.999959 1 1 0.999959
0.999696 1 1.00049 0.999211
1.00123 1 1.00281 0.998425
1 1 1 1
0.999986 1 1 0.999986
0.99943 1 1 0.99943
1 1 1 1
0.999997 1 1 0.999997
1 1 1 1
0.594498 0.791083 0.853669 0.880316
0.613119 0.821893 0.854545 0.87296
0.514916 0.689668 0.859025 0.869142
1.00455 1 1.00696 0.997609
1.0119 1 1.01444 0.997495
1.00193 1 1.0042 0.997735
0.654096 0.8711 0.858995 0.874145
0.587169 0.805767 0.83616 0.871494
0.57401 0.800848 0.831131 0.862382
0.829134 0.947172 0.89441 0.978721
0.69401 0.86199 0.852229 0.944729
0.619467 0.74987 0.908517 0.909284
0.605874 0.843014 0.839311 0.856297
0.780217 0.895857 0.893525 0.974698
0.737538 0.841015 0.925909 0.947135
0.713148 0.844239 0.934445 0.903983
0.654449 0.884141 0.850348 0.870477
0.804213 0.888918 0.931048 0.971711
0.783807 0.855217 0.964844 0.949895
0.779769 0.917417 0.935392 0.908668
0.617035 0.847996 0.845707 0.86039
1.00247 0.998905 1.00565 0.997939
1.00411 1 1.00654 0.997584
1.00644 1 1.00889 0.99758
1.00131 1 1.00382 0.9975
1.00304 1 1.00561 0.997446
1.00337 1 1.00573 0.997653
0.924736 0.95687 0.969117 0.997215
0.960437 0.953054 1.00849 0.999266
1.01746 0.999871 1.01987 0.997766
1.03071 0.987613 1.04525 0.998466
1.02853 0.995566 1.03518 0.998
1.02593 0.997533 1.03044 0.998083
1.04902 0.987001 1.0647 0.998248
0.914758 0.919769 0.998413 0.996133
1.06364 0.976638 1.09052 0.998678
0.979583 0.930746 1.05334 0.999177
1.04237 0.985627 1.05924 0.998418
0.928997 0.912806 1.02237 0.995464
1.005 0.945007 1.06467 0.998885
1.02989 0.953472 1.08145 0.998792
0.667222 0.863217 0.875712 0.88265
0.593533 0.785997 0.857662 0.880455
0.598483 0.803555 0.849763 0.876473
1.00946 0.972149 1.03876 0.999627
0.915359 0.91195 1.00773 0.99604
0.594167 0.792937 0.855437 0.875955
0.785963 0.841827 0.979768 0.952918
0.759498 0.90992 0.926953 0.900463
0.656012 0.869941 0.858411 0.87847
0.603587 0.840528 0.838409 0.856508
0.98111 0.937164 1.04722 0.999684
0.640579 0.836539 0.866292 0.883939
0.59401 0.81254 0.8378 0.872587
0.909081 0.910057 1.01599 0.983201
0.517363 0.740148 0.821427 0.850957
0.714381 0.842629 0.939167 0.902715
0.825872 0.886982 0.978573 0.951491
1.00087 0.933372 1.07528 0.997235
0.59904 0.79254 0.857646 0.881305
0.587062 0.808907 0.840571 0.863398
0.455935 0.640127 0.825068 0.86327
0.600347 0.766814 0.8754 0.894347
0.794627 0.854102 0.979793 0.949554
0.869072 0.889945 0.997945 0.978557
1.0297 0.958375 1.07496 0.999501
1.02654 0.954891 1.07551 0.999562
0.993537 0.946492 1.05034 0.999395
1.02411 0.989579 1.03589 0.999032
1.02209 0.963913 1.0609 0.999487
0.98668 0.95751 1.03117 0.999318
1.0176 0.99196 1.02716 0.998722
1.03026 0.997322 1.03435 0.998721
0.998698 1.00122 0.99999 0.997493
1.03522 1.00159 1.03857 0.995197
0.992246 1.00165 0.993335 0.997257
1.01048 1.00389 1.01205 0.994589
1.00923 1.00546 1.01017 0.993651
1.02405 1.02822 1.00191 0.994051
1.02099 1.02529 1.00108 0.99473
1.0121 1.01458 1.00331 0.994261
1.00522 1.00883 1.00169 0.994742
1.0212 1.02482 1.0011 0.995371
1.03336 1.03789 1.00048 0.995165
1.01981 1.01828 1.00534 0.996193
1.02947 1.03079 1.00283 0.995892
1.02762 1.03128 1.00117 0.995285
1.02741 1.00355 1.02667 0.997182
1.01742 1.00918 1.01135 0.996856
1.02053 1.01986 1.00407 0.996601
1.02589 1.00094 1.02694 0.99804
1.0264 1.00041 1.02868 0.997369
1.02143 1.00202 1.02228 0.99715
1.01983 1.00148 1.02078 0.997598
1.01456 1.00039 1.01586 0.998335
1.0021 1 1.00248 0.999624
1.00772 1 1.00907 0.998662
1.00066 1 1.0009 0.999762
1 1 1 1
0.999846 1 1 0.999846
0.999999 1 1 0.999999
1 1 1 1
1.00526 1 1.00746 0.997817
1.00422 1 1.00538 0.998842
1.0062 1 1.00827 0.997938
0.999916 1 1 0.999916
1.00156 1 1.00256 0.999002
1.00372 1 1.00556 0.998168
1 1 1 1
0.999966 1 1 0.999966
0.999449 1 1.00027 0.999178
1 1 1 1
0.99999 1 1 0.99999
1 1 1 1
0.643223 0.842987 0.864937 0.882178
0.603707 0.794252 0.863311 0.880443
0.614333 0.823003 0.854985 0.873059
1.03177 1 1.03452 0.997342
1.0115 1.00312 1.01079 0.997593
1.00464 1 1.00699 0.997663
1.01113 1 1.01369 0.997467
1.00171 1 1.00394 0.997785
1.0076 1 1.0099 0.997719
0.99649 0.998375 1 0.998112
0.60539 0.826388 0.844584 0.867377
0.656013 0.8688 0.862035 0.875927
0.59802 0.808219 0.848559 0.871976
0.651193 0.883353 0.848587 0.868719
0.783547 0.903641 0.8926 0.971433
0.750282 0.842842 0.941178 0.945816
0.719183 0.86047 0.919111 0.90936
0.794251 0.894738 0.914822 0.970343
0.789732 0.851222 0.985522 0.941393
0.770111 0.903133 0.938838 0.908261
0.610385 0.841772 0.836754 0.866586
0.842031 0.889322 0.971772 0.974327
0.817745 0.871721 0.996638 0.941247
0.695775 0.844417 0.918464 0.897118
0.523816 0.75528 0.813006 0.853056
1.06401 0.994858 1.07126 0.998375
1.00602 0.999178 1.00889 0.997977
1.0054 1 1.00787 0.997546
1.00342 1 1.00596 0.997476
0.920508 0.922119 1.00199 0.996266
0.978747 0.921733 1.06305 0.998875
1.02858 0.997533 1.03309 0.998101
1.04213 0.989662 1.05483 0.998285
1.04539 0.959386 1.09093 0.998821
1.04394 0.991163 1.05491 0.99842
1.03906 0.955179 1.08915 0.998779
0.930484 0.914174 1.02478 0.993233
1.00876 0.938201 1.07621 0.999064
1.01748 0.963279 1.05742 0.998906
0.92786 0.907384 1.03127 0.991564
0.978145 0.922867 1.06077 0.999176
0.596006 0.783532 0.863029 0.881391
0.660802 0.853693 0.873541 0.886108
0.604096 0.791533 0.866581 0.880699
0.9685 0.922224 1.05038 0.999805
0.918729 0.914415 1.0155 0.989381
0.633643 0.82713 0.866047 0.884565
0.845202 0.898695 0.997675 0.942668
0.714785 0.854381 0.921054 0.90832
0.602286 0.812303 0.849261 0.873058
0.504194 0.713902 0.824276 0.856814
0.997803 0.933887 1.07102 0.997592
0.605101 0.797912 0.860332 0.881469
0.583588 0.799767 0.845299 0.863242
0.87381 0.890761 0.999205 0.98175
0.468592 0.6634 0.824062 0.857155
0.591476 0.745843 0.885232 0.895845
0.795165 0.859628 0.981416 0.942527
0.98418 0.936726 1.05661 0.994366
0.627206 0.83751 0.857483 0.873363
0.497745 0.681603 0.851916 0.857193
0.530035 0.715835 0.813775 0.909886
0.732355 0.818911 0.941413 0.949958
0.818609 0.865338 0.972267 0.972983
1.0322 0.959477 1.07624 0.99959
1.00028 0.945819 1.0582 0.999415
0.987541 0.96108 1.02842 0.999133
0.989887 0.954677 1.0375 0.999402
1.01816 0.978108 1.04215 0.998853
1.02675 1.0008 1.02851 0.997502
0.995084 1.00357 0.994393 0.997132
1.0345 1.00186 1.0378 0.994969
1.01984 1.0039 1.02197 0.994037
1.01179 1.00368 1.01346 0.994686
1.0109 1.00571 1.01168 0.993555
1.00962 1.01161 1.00448 0.993578
1.06692 1.07463 0.998289 0.994523
1.04265 1.04766 1.00077 0.994455
1.02392 1.02787 1.00218 0.993995
1.02382 1.02878 1.00013 0.995053
1.01869 1.02326 1.00074 0.994796
1.01243 1.01448 1.0038 0.994197
1.03044 1.03245 1.00274 0.995323
1.0217 1.02536 1.00108 0.995349
1.03728 1.04177 1.00043 0.995266
1.02101 1.01095 1.0133 0.996694
1.01788 1.01462 1.00689 0.996347
1.03074 1.03125 1.00353 0.995987
1.02456 1.0043 1.02247 0.99775
1.02469 1.00504 1.02243 0.997187
1.01912 1.01152 1.01072 0.996835
1.00651 1 1.00706 0.999452
1.02346 1.00101 1.02443 0.998044
1.0229 1 1.0256 0.997367
1.01233 1.0001 1.01392 0.998332
1.00328 1 1.00367 0.99961
1 1 1 1
1.00099 1 1.00124 0.999748
1 1 1 1
1 1 1 1
1.02401 1.00193 1.02475 0.997356
1.01909 1.00109 1.02048 0.997549
1.00512 1 1.00655 0.998574
1.00783 1.00001 1.01003 0.997811
1.0003 1 1.00044 0.999855
1.00396 1 1.00512 0.998843
1.00837 1 1.01043 0.997964
1 1 1 1
0.999929 1 1 0.999929
1.00121 1 1.00215 0.999061
1 1 1 1
0.999974 1 1 0.999974
1 1 1 1
0.603083 0.797653 0.862728 0.876374
0.635026 0.835645 0.860769 0.882843
0.603229 0.797828 0.858644 0.880562
1.03336 1.0003 1.03583 0.997314
1.01476 1.00168 1.01546 0.997642
1.00038 1.00157 1.00155 0.997268
1.03161 0.999544 1.03454 0.997618
1.0108 1.00612 1.00693 0.997745
1.01385 1 1.01646 0.997437
1.00077 0.999525 1.00342 0.997831
1.01024 0.999609 1.01294 0.997727
0.997688 0.999177 1.00032 0.998189
1.03389 0.998686 1.03711 0.998204
0.559256 0.78436 0.825877 0.863335
0.600728 0.815957 0.848207 0.867978
0.651307 0.866745 0.856119 0.877729
0.604969 0.838338 0.831864 0.867484
0.765044 0.908627 0.934544 0.90095
0.788614 0.887024 0.918117 0.968347
0.784766 0.844645 0.97905 0.948989
0.833114 0.893997 0.961361 0.969353
0.821184 0.886182 0.976198 0.949247
0.712285 0.840734 0.938594 0.902646
0.534659 0.77149 0.814083 0.851291
0.861693 0.892998 0.992419 0.972315
0.797673 0.844712 0.993864 0.950144
0.600949 0.740704 0.891724 0.909834
0.483781 0.666752 0.83999 0.863794
1.04939 0.997173 1.05349 0.998928
1.06393 0.994416 1.07164 0.998382
1.01034 1 1.01235 0.998017
0.92804 0.912983 1.02589 0.99084
1.01316 0.936293 1.08299 0.99917
1.04346 0.99398 1.05144 0.998422
1.04867 0.951151 1.10389 0.998767
1.02441 0.969988 1.05726 0.998912
0.980261 0.929661 1.05525 0.999222
0.921625 0.902075 1.03026 0.991667
0.999311 0.972175 1.02857 0.999362
0.940292 0.926262 1.02178 0.993506
0.617573 0.818859 0.857558 0.879458
0.609571 0.795414 0.869303 0.881576
0.652438 0.845051 0.867804 0.889681
1.0016 0.946367 1.06066 0.997837
0.868461 0.893868 0.995471 0.975997
0.615895 0.808206 0.86438 0.881617
0.798729 0.857809 0.983922 0.946342
0.603632 0.73522 0.904369 0.90784
0.576355 0.801341 0.83319 0.863235
0.481626 0.690437 0.81969 0.851014
0.98018 0.933895 1.05505 0.994803
0.622213 0.83046 0.857903 0.873337
0.497966 0.688216 0.845206 0.856076
0.832503 0.881214 0.968869 0.975078
0.549544 0.726444 0.833107 0.90803
0.722542 0.831992 0.9192 0.944786
0.91724 0.913856 1.0115 0.992288
0.498407 0.684203 0.845336 0.861727
0.574684 0.751661 0.837494 0.912904
0.692639 0.84797 0.864832 0.944483
0.787622 0.877936 0.919264 0.975922
1.0082 0.949429 1.0625 0.99944
0.987589 0.949022 1.04158 0.999101
0.997414 0.986141 1.01308 0.998373
1.01804 0.96244 1.05885 0.998979
1.0185 0.998937 1.02203 0.997605
0.988067 1.00483 0.986936 0.996331
1.03452 1.00194 1.03798 0.994734
1.01916 1.00545 1.01972 0.994027
1.00386 1.00983 0.999384 0.994699
1.0123 1.00593 1.01296 0.993458
1.00795 1.01068 1.0037 0.993622
1.04739 1.06335 0.990124 0.994811
1.08262 1.10491 0.98428 0.995472
1.08318 1.08978 0.999304 0.99463
1.06692 1.07543 0.997514 0.994559
1.0578 1.06337 1 0.994764
1.04112 1.04587 1.00107 0.994391
1.02384 1.02758 1.00244 0.993939
1.04949 1.05432 1.00035 0.995068
1.02166 1.02665 1.00002 0.995116
1.01588 1.0208 1.00032 0.994862
1.03393 1.02768 1.01029 0.995829
1.02543 1.02637 1.00367 0.995432
1.02322 1.0269 1.0011 0.995327
1.02919 1.00773 1.02401 0.997343
1.0262 1.01238 1.01703 0.996685
1.01766 1.0129 1.00822 0.9965
1.01019 1.00016 1.01074 0.999296
1.02867 1.00619 1.02464 0.997755
1.02464 1.00668 1.0207 0.997192
0.999829 1 1 0.999829
1.00868 1 1.00925 0.999434
1.02426 1.00179 1.02442 0.998049
1.00518 1 1.00558 0.999595
1 1 1 1
1 1 1 1
1.01344 1.00506 1.01122 0.997142
1.02326 1.00173 1.02425 0.997307
1.02571 1.00111 1.0273 0.99734
1.01042 1 1.01212 0.998323
1.01559 1.00069 1.01738 0.997546
1.00146 1 1.00167 0.999786
1.00674 1 1.00817 0.998578
1.00951 1 1.01173 0.997805
1 1 1 1
0.999902 1 1.00003 0.999871
1.00259 1 1.00375 0.998844
1 1 1 1
0.999941 1 1 0.999941
1 1 1 1
0.606041 0.803596 0.858362 0.878606
0.606719 0.802703 0.862323 0.876522
0.634774 0.824472 0.871494 0.883444
1.01861 1.00543 1.01631 0.996852
1.02909 1 1.03188 0.99729
1.01293 1 1.01527 0.997694
1.02833 1 1.03088 0.997519
1.00622 1.00575 1.0032 0.997277
1.00357 1.00201 1.00356 0.997999
1.01922 1.00415 1.01829 0.996775
1.0265 0.989688 1.03921 0.99806
1.0115 0.999626 1.01417 0.997737
0.99705 1 0.99878 0.998267
1.03516 0.996234 1.04095 0.998191
1.05497 0.999288 1.05734 0.998463
0.519708 0.699666 0.860688 0.863023
0.57922 0.804841 0.834042 0.86287
0.599511 0.810413 0.851828 0.868438
0.548822 0.777921 0.820102 0.860256
0.699294 0.833111 0.931959 0.900659
0.819719 0.874784 0.995363 0.941418
0.842317 0.897233 0.967515 0.970314
0.857466 0.888615 0.989736 0.974954
0.482538 0.675673 0.832786 0.857553
0.789618 0.852228 0.981794 0.943715
0.598219 0.747697 0.88929 0.899687
0.85742 0.896395 0.978065 0.977971
0.745882 0.835651 0.936987 0.952601
0.531275 0.714235 0.818368 0.908929
0.984144 1.00125 0.983343 0.999569
1.05131 0.997478 1.05509 0.998934
1.06281 0.993212 1.07181 0.998386
0.924656 0.904943 1.03029 0.991749
0.987138 0.941563 1.04917 0.999271
1.03336 0.980833 1.05469 0.998919
0.995867 0.970174 1.02712 0.999378
0.938171 0.92804 1.01743 0.9936
0.955965 0.963798 0.995739 0.996117
0.523249 0.704278 0.853618 0.870364
0.614592 0.814802 0.855984 0.881189
0.616436 0.806935 0.86647 0.881649
0.97748 0.929044 1.0574 0.99502
0.826915 0.877011 0.966037 0.976027
0.616139 0.81974 0.860474 0.873504
0.741172 0.832029 0.94317 0.944476
0.537237 0.729558 0.819088 0.899032
0.520467 0.713263 0.844936 0.863614
0.91814 0.907996 1.01902 0.9923
0.515266 0.69065 0.857805 0.869732
0.550422 0.738728 0.825571 0.90252
0.787291 0.88747 0.913841 0.970758
0.722478 0.869982 0.871614 0.952775
0.912769 0.938266 0.976337 0.996403
0.60829 0.768448 0.880749 0.898761
0.794886 0.942859 0.881495 0.956398
0.771465 0.900771 0.882736 0.970221
0.989971 0.940815 1.05322 0.999076
0.984687 0.98515 1.0011 0.998431
0.979911 1.00023 0.982408 0.997228
1.00957 0.997559 1.01437 0.99771
0.98976 1.00468 0.988828 0.996278
0.984315 1.01141 0.976994 0.99613
1.01889 1.00736 1.01753 0.994019
1.00347 1.00985 0.998988 0.994689
1.03201 1.06114 0.976528 0.995922
1.00677 1.00997 1.00319 0.993665
1.04635 1.06256 0.989871 0.994813
1.07384 1.10543 0.975171 0.996149
1.06878 1.09796 0.977022 0.996315
1.08711 1.1044 0.988911 0.995384
1.08492 1.10673 0.984708 0.995523
1.0926 1.09916 0.999151 0.994874
1.08106 1.08779 0.999093 0.994719
1.06645 1.0757 0.996784 0.994595
1.0798 1.08525 1 0.994975
1.05745 1.06286 1.00014 0.994776
1.03925 1.04363 1.00148 0.994326
1.05839 1.06042 1.00284 0.995251
1.04737 1.0521 1.00045 0.995061
1.01976 1.0247 1 0.995178
1.02509 1.01432 1.0139 0.996766
1.03641 1.03013 1.01032 0.995819
1.01747 1.01715 1.0048 0.995542
1.00922 1.00073 1.00958 0.998902
1.0274 1.01093 1.01901 0.99733
1.02793 1.01325 1.01787 0.996673
1 1 1 1
1.00995 1.00039 1.01044 0.999127
1.02994 1.00785 1.02421 0.997758
1 1 1 1
1.00995 1 1.01058 0.999378
1 1 1 1
1.0207 1.01325 1.01067 0.996713
1.01303 1.00551 1.01043 0.997078
1.02249 1.00478 1.02053 0.99715
1.01831 1 1.02025 0.998103
1.02557 1.00146 1.02684 0.997304
1.03155 1 1.03432 0.997324
1.00455 1 1.00487 0.99968
1.01062 1 1.01232 0.998329
1.01173 1.00002 1.01421 0.997541
1 1 1 1
1.00156 1 1.00176 0.999798
1.00858 1 1.01001 0.998583
1 1 1 1
0.999886 1 1 0.999886
1 1 1 1
0.509449 0.69502 0.85156 0.860772
0.610594 0.811346 0.856439 0.878718
0.610355 0.808442 0.86115 0.876708
1.02446 1.00426 1.02334 0.996837
1.03687 1.01727 1.02293 0.996419
1.03869 1.00382 1.03803 0.996825
1.03053 0.999852 1.03335 0.997418
1.01115 1.01008 1.00378 0.997288
1.00022 0.999015 1.00296 0.998246
1.02637 0.996223 1.03239 0.997933
1.02182 1.00456 1.02023 0.997004
1.02241 0.998462 1.02674 0.997316
0.972056 0.999507 0.973566 0.998941
1.03624 0.997913 1.04031 0.998176
1.04988 0.998348 1.05327 0.998431
0.560282 0.743483 0.839312 0.897867
0.487437 0.665083 0.854107 0.858085
0.595795 0.820286 0.841777 0.862849
0.481273 0.685924 0.824453 0.851039
0.605014 0.755735 0.880184 0.909541
0.778736 0.848202 0.97152 0.945017
0.852333 0.880773 0.996144 0.971456
0.844337 0.889827 0.973828 0.974379
0.556444 0.731928 0.837936 0.907282
0.727666 0.835464 0.921697 0.944965
0.81735 0.89889 0.93044 0.977266
0.697019 0.881268 0.836111 0.945959
0.986781 1 0.987648 0.999122
0.984553 1.00085 0.984203 0.999502
1.05186 0.997098 1.05604 0.998939
0.925285 0.920263 1.01181 0.993723
0.989351 0.964164 1.02674 0.999395
0.959028 0.967544 0.995104 0.996074
0.938814 0.981789 0.961472 0.994546
0.649523 0.789495 0.90546 0.908606
0.51737 0.706304 0.842512 0.869428
0.619217 0.815946 0.859674 0.882771
0.922255 0.91747 1.01272 0.99259
0.791248 0.887539 0.917881 0.971268
0.517273 0.690745 0.86131 0.869447
0.696149 0.868801 0.847668 0.945269
0.563925 0.730161 0.846376 0.912514
0.908242 0.941609 0.969973 0.994422
0.624171 0.779381 0.884047 0.905896
0.759641 0.926588 0.865771 0.946932
0.77687 0.898485 0.888191 0.973489
0.90538 0.965993 0.941162 0.995847
0.84974 0.969773 0.917091 0.95544
0.829131 0.947051 0.894804 0.978413
0.969631 0.982213 0.988707 0.998466
0.974469 1.00024 0.976988 0.997181
0.96361 1.00912 0.957849 0.996922
0.991626 1.00427 0.991153 0.996227
0.984433 1.01076 0.97775 0.996114
1.00388 1.06186 0.948461 0.996771
1.00275 1.00983 0.9983 0.994681
1.02823 1.05865 0.975274 0.995887
1.04776 1.10319 0.95283 0.996772
1.04559 1.06207 0.989618 0.994815
1.07275 1.10552 0.974124 0.996135
1.06005 1.09913 0.967542 0.996799
1.07148 1.09984 0.977453 0.996687
1.06828 1.09818 0.976296 0.996391
1.07349 1.09639 0.982888 0.996163
1.09022 1.10326 0.992682 0.995462
1.08875 1.10471 0.990084 0.995424
1.08771 1.10908 0.985086 0.995575
1.09819 1.10418 0.999509 0.995062
1.09373 1.1004 0.999031 0.994899
1.07936 1.08625 0.998839 0.994808
1.08189 1.08722 1 0.995097
1.08257 1.08804 1 0.994974
1.05735 1.06271 1.00017 0.994789
1.02996 1.02935 1.00445 0.996157
1.05946 1.06199 1.00237 0.995266
1.04559 1.05016 1.0006 0.995055
1.00777 1.0009 1.00839 0.998484
1.02898 1.01826 1.01381 0.996755
1.042 1.03496 1.01104 0.995811
1 1 1 1
1.00922 1.00053 1.00982 0.99888
1.02958 1.01438 1.01772 0.997318
0.999867 1 1 0.999867
1.0107 1.00039 1.01118 0.999137
1 1 1 1
1.03232 1.02282 1.01306 0.996284
1.0177 1.00744 1.0135 0.99672
1.01561 1.0084 1.01024 0.996943
1.01334 1.00711 1.00919 0.997014
1.02084 1.00333 1.02035 0.997158
1.02435 1 1.02654 0.997861
1.00707 1 1.00757 0.999503
1.01728 1 1.01922 0.998099
1.0242 1.00042 1.02655 0.997303
1 1 1 1
1.00314 1 1.00344 0.999697
1.01073 1 1.01241 0.998336
1 1 1 1
1.00045 1 1.00063 0.999816
1 1 1 1
0.608894 0.772615 0.869998 0.905858
0.512315 0.698243 0.849519 0.863688
0.61197 0.81473 0.85465 0.878877
1.0268 1.00243 1.02757 0.996822
1.04526 1.0022 1.0466 0.99653
1.03118 1.01563 1.01896 0.996425
1.02417 1.02629 1.00242 0.995531
1.03573 1.00678 1.03173 0.997124
1.02204 0.999899 1.02439 0.997813
1.02289 1.0042 1.02144 0.997232
1.02241 1.0007 1.0243 0.997447
0.997845 1.0103 0.990709 0.996933
0.964693 1.00271 0.963648 0.998374
0.969604 1.00137 0.970651 0.997552
0.979352 1.00126 0.979132 0.998967
1.04368 0.996728 1.04879 0.998402
0.771458 0.931628 0.86898 0.952928
0.558677 0.742543 0.834918 0.901147
0.471489 0.647218 0.845777 0.86132
0.546326 0.73771 0.824098 0.898643
0.732109 0.835629 0.92352 0.948672
0.85419 0.890595 0.980712 0.977986
0.813391 0.892913 0.929708 0.979813
0.725869 0.871925 0.872078 0.954604
0.827441 0.9475 0.892453 0.978526
0.979549 1.0002 0.98106 0.998262
0.990503 0.999407 0.99199 0.999094
0.985078 1.00037 0.985265 0.999436
0.964425 0.973722 0.994308 0.996123
0.949207 0.985561 0.967386 0.995583
0.848573 0.962731 0.928065 0.949743
0.637177 0.784363 0.891929 0.910778
0.509763 0.705453 0.831964 0.868552
0.911053 0.951324 0.965113 0.992285
0.779057 0.908973 0.883069 0.970564
0.611943 0.774434 0.873521 0.904593
0.770344 0.923959 0.872622 0.955446
0.915358 0.968548 0.94891 0.995967
0.851481 0.975122 0.914436 0.95491
0.825843 0.944092 0.897311 0.974856
0.906615 0.997265 0.913444 0.995246
0.877535 0.983315 0.905962 0.985058
0.972617 1.00199 0.973446 0.997165
0.956599 1.00911 0.950929 0.996883
0.962649 1.04758 0.921517 0.997191
0.984394 1.01002 0.978444 0.996096
1.00832 1.06411 0.950679 0.996731
1.0365 1.1059 0.939975 0.9971
1.02444 1.05595 0.974196 0.995853
1.04839 1.10243 0.954092 0.996742
1.05168 1.10336 0.956025 0.997007
1.07125 1.1051 0.97314 0.996121
1.05977 1.09843 0.967926 0.996776
1.0662 1.10481 0.968084 0.996864
1.06892 1.09833 0.9764 0.996743
1.07363 1.10024 0.97925 0.996495
1.06751 1.09806 0.975621 0.996468
1.07235 1.09623 0.98199 0.996156
1.07659 1.09382 0.988284 0.995917
1.09379 1.10249 0.996698 0.995389
1.09189 1.10387 0.993672 0.995449
1.09028 1.10491 0.991255 0.995464
1.09217 1.09758 1 0.995075
1.1009 1.10683 0.99959 0.995047
1.09455 1.1013 0.998939 0.994924
1.04662 1.04843 1.00254 0.995742
1.08046 1.08577 1 0.995107
1.08566 1.09114 1 0.994972
1.00668 1.00358 1.00508 0.998014
1.03123 1.0305 1.00457 0.996167
1.06071 1.06297 1.0026 0.995281
1 1 1 1
1.00741 1.00151 1.00745 0.998451
1.03056 1.02202 1.01165 0.996746
1 1 1 1
1.0081 1.00048 1.00877 0.998858
1 1 1 1
1.03847 1.04229 1.00086 0.995471
1.03018 1.02551 1.00831 0.996282
1.02523 1.01223 1.01649 0.996416
1.0149 1.00173 1.01647 0.996728
1.01835 1.00555 1.01591 0.996876
1.02446 1.00675 1.02017 0.997467
1.02203 1.00197 1.02292 0.997165
1.02603 1.0006 1.02762 0.997849
1.01264 1.00062 1.01279 0.99923
1 1 1 1
1.00677 1 1.00725 0.999517
1.01864 1 1.02058 0.998096
1 1 1 1
1.00353 1 1.00383 0.999707
1 1 1 1
0.845188 0.96776 0.911929 0.957689
0.628683 0.785013 0.883151 0.906818
0.504896 0.6966 0.84291 0.85988
1.05651 1.00153 1.05888 0.996232
1.02446 1.0145 1.01344 0.996431
1.03209 1.00863 1.02643 0.996909
1.0232 1.02541 1.00224 0.995615
1.04916 1.05394 1.00008 0.995386
1.00681 1.01809 0.992314 0.996585
1.02559 1.00429 1.0237 0.997571
0.998947 1.01158 0.990809 0.996674
0.972174 1.00295 0.970922 0.998349
1.00371 1.01097 0.995915 0.996895
0.973713 1.00458 0.971794 0.997406
0.98399 1.00186 0.98509 0.997027
0.968444 1.00176 0.969003 0.997665
0.986785 1.001 0.986794 0.998995
0.833446 0.957889 0.889266 0.978433
0.77136 0.937752 0.864622 0.951355
0.575066 0.740424 0.852212 0.911359
0.69464 0.861115 0.853577 0.945053
0.826603 0.895135 0.941229 0.9811
0.836009 0.935981 0.907731 0.983982
0.936309 1.00287 0.937675 0.995689
0.975629 0.999776 0.977663 0.998143
0.994382 0.998692 0.996614 0.999067
0.958567 0.988934 0.972599 0.996602
0.867569 0.972136 0.911471 0.979116
0.851495 0.967608 0.91765 0.958972
0.62672 0.775626 0.89667 0.901132
0.912946 0.963543 0.95117 0.996129
0.823027 0.942252 0.894212 0.976802
0.841746 0.978355 0.901794 0.954063
0.908509 0.995582 0.916718 0.995444
0.883918 0.981489 0.91536 0.983863
0.933201 1.02655 0.912683 0.996037
0.935429 1.02883 0.914659 0.994046
0.949092 1.00913 0.94349 0.996838
0.959374 1.04428 0.921274 0.997201
1.00525 1.09853 0.917771 0.997075
1.01298 1.06691 0.952601 0.996691
1.03609 1.10564 0.939846 0.997074
1.06058 1.11452 0.954506 0.996958
1.04907 1.10195 0.95516 0.99671
1.05288 1.10327 0.957211 0.996988
1.07291 1.11408 0.966118 0.99682
1.05959 1.098 0.968163 0.996754
1.06512 1.10282 0.968855 0.996859
1.07487 1.10613 0.975056 0.996598
1.06644 1.09701 0.975253 0.996799
1.07309 1.10005 0.97888 0.99654
1.07747 1.09766 0.985379 0.996174
1.07132 1.09613 0.981137 0.996148
1.0766 1.09428 0.987885 0.995907
1.08652 1.09771 0.994087 0.99569
1.09052 1.09637 0.999422 0.995238
1.09533 1.10335 0.997383 0.995343
1.09349 1.10439 0.99467 0.995437
1.06155 1.06624 1 0.995604
1.09056 1.09595 1 0.995083
1.10368 1.10955 0.99967 0.995031
1.01109 1.01071 1.00268 0.997707
1.04554 1.04689 1.00298 0.995745
1.0776 1.0828 1.00008 0.995117
1 1 1 1
1.00778 1.00551 1.00429 0.997983
1.03191 1.03082 1.00491 0.996177
1 1 1 1
1.00757 1.00206 1.00709 0.998419
1 1 1 1
1.0675 1.07262 1 0.995226
1.03778 1.04198 1.00049 0.995482
1.04803 1.04632 1.00593 0.995724
1.02879 1.02795 1.00456 0.996279
1.03115 1.02042 1.01424 0.996329
1.03006 1.0201 1.01286 0.996944
1.02055 1.00198 1.02179 0.99681
1.02111 1.00436 1.01925 0.997475
1.00983 1.00078 1.01014 0.998901
1.02252 1.00062 1.0241 0.997841
1.00931 1 1.01008 0.999242
1 1 1 1
1 1 1 1
1.00494 1 1.00541 0.999533
1 1 1 1
0.862263 0.957677 0.918557 0.9802
0.837807 0.962973 0.916872 0.948902
0.63892 0.776107 0.90159 0.913095
1.07976 1.08706 0.997838 0.99544
1.02786 1.01078 1.02027 0.996699
1.02353 1.02581 1.00208 0.995699
1.00999 1.02134 0.992265 0.996593
1.05134 1.05595 1.00027 0.995373
1.03742 1.04292 0.998209 0.996507
1.0008 1.0121 0.992396 0.996417
0.978446 1.00221 0.977925 0.998323
1.00154 1.01244 0.992297 0.996911
0.965338 1.00368 0.96447 0.997227
1.02198 1.02897 0.997028 0.996172
0.954749 1.00924 0.948687 0.997177
0.984352 1.0024 0.984901 0.997051
0.96878 1.00215 0.968855 0.997776
0.921233 1.00422 0.920672 0.996405
0.818806 0.948401 0.884162 0.976467
0.779081 0.946236 0.866628 0.950058
0.831447 0.929331 0.911656 0.981371
0.937603 1.00222 0.938242 0.997107
0.972227 0.999948 0.974215 0.998012
0.945164 1.01888 0.935217 0.991909
0.871303 0.961079 0.924892 0.980211
0.849131 0.967685 0.923708 0.949961
0.916487 0.995282 0.924875 0.995629
0.889976 0.984202 0.920269 0.982605
0.934583 1.02826 0.912273 0.996303
0.944296 1.02892 0.922818 0.994512
0.991751 1.06558 0.933732 0.996769
1.05218 1.13379 0.931059 0.996738
0.955953 1.04028 0.92151 0.99721
1.0124 1.10025 0.922869 0.997055
1.06064 1.13048 0.941217 0.996812
1.03597 1.10509 0.940235 0.997048
1.05756 1.11227 0.953715 0.996956
1.07583 1.12433 0.960021 0.996706
1.0541 1.103 0.958565 0.996969
1.07036 1.11211 0.965512 0.996833
1.07866 1.11064 0.974562 0.996554
1.0641 1.10077 0.969735 0.996855
1.07552 1.10667 0.975171 0.996595
1.07836 1.10179 0.982377 0.996302
1.07252 1.0998 0.978538 0.996586
1.07697 1.09781 0.984741 0.996219
1.08437 1.09867 0.991042 0.995897
1.07659 1.09477 0.987445 0.995898
1.0861 1.09772 0.993691 0.995695
1.09151 1.09677 0.999796 0.995413
1.06701 1.07169 1 0.99563
1.09089 1.09645 0.999714 0.995214
1.09707 1.10437 0.998088 0.995296
1.01953 1.02156 1.0004 0.997624
1.05992 1.06454 1.00005 0.995604
1.08952 1.0949 1 0.99509
0.999998 1 1 0.999998
1.01368 1.01445 1.00155 0.997689
1.04538 1.04699 1.00272 0.995747
0.999999 1 1 0.999999
1.00908 1.00807 1.00306 0.997953
1 1 1 1
1.08579 1.09151 0.99957 0.995188
1.06429 1.0694 1 0.995219
1.07799 1.08301 1 0.995362
1.03598 1.04039 1.00026 0.995493
1.05264 1.0511 1.0058 0.995684
1.04301 1.03756 1.00881 0.996467
1.03551 1.02723 1.01186 0.996242
1.0247 1.01319 1.01445 0.99695
1.0075 1.00169 1.00723 0.998588
1.02167 1.00163 1.02259 0.997473
1.01142 1.00129 1.0112 0.99892
1.00001 1 1.00001 1
1.00858 1 1.00933 0.999254
1 1 1 1
1 1 1 1
0.923573 1.00887 0.919368 0.995738
0.852219 0.958667 0.910843 0.975979
0.839215 0.96645 0.906405 0.958013
1.07336 1.08341 0.994636 0.996067
1.07836 1.09809 0.986208 0.995764
1.07864 1.08674 0.996998 0.995543
1.01229 1.02399 0.99195 0.996599
1.05323 1.05766 1.00045 0.99536
1.03999 1.04634 0.997429 0.996499
1.05666 1.08462 0.978049 0.996082
1.00065 1.01431 0.989573 0.996928
0.959639 1.00327 0.959338 0.997049
1.02619 1.03333 0.996734 0.996342
1.01991 1.07073 0.956221 0.996149
0.971145 1.03308 0.942641 0.997247
0.968173 1.01277 0.958756 0.997093
0.989249 1.00275 0.989433 0.997072
0.916658 1.00415 0.915803 0.996797
0.830267 0.952508 0.894385 0.974596
0.937404 1.0008 0.937987 0.998578
1.03302 1.09496 0.946138 0.997145
0.940362 1.01853 0.930627 0.992081
0.870622 0.963307 0.924361 0.977739
0.935893 1.03045 0.911385 0.996546
0.950861 1.02908 0.928629 0.995009
0.98466 1.06566 0.926779 0.996995
1.04836 1.13107 0.929859 0.996785
1.06519 1.1481 0.930771 0.996793
1.1089 1.17759 0.944513 0.996984
1.01941 1.10323 0.926765 0.997036
1.06536 1.13386 0.942589 0.996814
1.07869 1.13541 0.953238 0.99665
1.05407 1.11008 0.952448 0.996953
1.07595 1.12401 0.960399 0.996709
1.07618 1.11554 0.968073 0.996535
1.06771 1.11014 0.964826 0.996846
1.07965 1.11155 0.974669 0.996551
1.0807 1.10492 0.981689 0.996321
1.07617 1.10722 0.975279 0.996592
1.07896 1.10233 0.982435 0.996299
1.08305 1.09891 0.989534 0.995988
1.07645 1.09795 0.984103 0.996263
1.08435 1.09895 0.990766 0.995904
1.09446 1.10042 0.999052 0.995531
1.08561 1.09765 0.993303 0.995701
1.09056 1.09628 0.999349 0.995428
1.06642 1.07104 1 0.99568
1.02419 1.02658 1 0.997669
1.06653 1.07121 1 0.995634
1.09139 1.09667 1 0.995189
0.999994 1 1 0.999994
1.02072 1.02266 1.00048 0.997618
1.05807 1.06217 1.00054 0.995605
0.999994 1 1 0.999994
1.01599 1.01701 1.00133 0.997672
0.999995 1 1 0.999995
1.08454 1.09595 0.994112 0.995449
1.08377 1.08979 0.999252 0.995218
1.08519 1.09036 1 0.995252
1.06102 1.06613 1 0.995211
1.07715 1.08218 1 0.995356
1.04324 1.04422 1.00299 0.996079
1.05995 1.05857 1.00569 0.995645
1.0388 1.03255 1.00962 0.996466
1.00735 1.00421 1.00492 0.998211
1.02104 1.00937 1.01465 0.996961
1.00803 1.00154 1.00788 0.998612
1 1 1 1
1.00937 1.00027 1.01017 0.998938
1 1 1 1
1 1 1 1
0.978073 1.06169 0.923528 0.997527
0.92529 1.00727 0.92396 0.994215
0.856357 0.964385 0.908739 0.977159
1.07032 1.09721 0.979408 0.996006
1.07112 1.08172 0.99389 0.996291
1.08325 1.1075 0.982065 0.995965
1.07821 1.09885 0.985419 0.995741
1.07693 1.0859 0.996078 0.995645
1.07527 1.12039 0.963656 0.995926
1.04295 1.05002 0.996761 0.996489
1.05351 1.08042 0.978988 0.996021
1.04836 1.11783 0.941358 0.996274
1.02442 1.03771 0.99065 0.996511
1.01979 1.07275 0.954425 0.996033
0.962731 1.03979 0.928399 0.997299
0.976771 1.01529 0.964956 0.997004
0.912579 1.00412 0.911456 0.997118
1.09479 1.16279 0.94432 0.997035
1.03791 1.10114 0.945243 0.997177
0.942247 1.0177 0.933076 0.992268
0.977629 1.06478 0.920717 0.997216
1.04534 1.12827 0.929442 0.996832
1.05636 1.14237 0.927673 0.996809
1.11888 1.18606 0.946207 0.996991
1.09404 1.15295 0.951888 0.996869
1.06991 1.13661 0.944322 0.996816
1.07906 1.13412 0.954644 0.99666
1.07665 1.11986 0.964687 0.996602
1.0762 1.12366 0.960928 0.996711
1.07691 1.11557 0.968717 0.996515
1.07976 1.10646 0.979469 0.996327
1.08069 1.11249 0.974783 0.996547
1.08094 1.10514 0.981723 0.996317
1.08261 1.09895 0.989038 0.996054
1.07957 1.10289 0.982494 0.996296
1.08408 1.09989 0.989604 0.995987
1.09741 1.10429 0.998125 0.995636
1.08431 1.09924 0.990462 0.995912
1.09321 1.09931 0.998915 0.995537
1.06753 1.07214 1 0.995702
1.0894 1.09559 0.998909 0.995443
1.06736 1.07198 1 0.995683
1.02465 1.02654 1 0.99816
0.999161 1 1 0.999161
1.0243 1.02649 1 0.997871
1.06553 1.0702 1 0.995636
0.999997 1 1 0.999997
1.02196 1.0244 1 0.997612
0.999997 1 1 0.999997
1.09009 1.109 0.986799 0.996101
1.08403 1.10092 0.988836 0.995772
1.08404 1.09642 0.99319 0.995486
1.08245 1.08793 0.999634 0.995323
1.08248 1.08877 0.998974 0.995248
1.08374 1.08892 1 0.99524
1.04723 1.05076 1.00084 0.995807
1.07743 1.08247 1 0.99535
1.04679 1.04827 1.00252 0.996074
1.0117 1.01232 1.00156 0.997823
1.03297 1.02578 1.01057 0.996466
1.00763 1.00372 1.00567 0.998233
0.999997 1 1 0.999997
1.00992 1.00212 1.00916 0.998637
1 1 1 1
1 1 1 1
1.08129 1.14929 0.94389 0.99676
0.993463 1.07442 0.926984 0.997483
0.923073 1.00679 0.923572 0.992715
1.07783 1.10958 0.97528 0.996003
1.06705 1.09349 0.979695 0.996046
1.06908 1.08024 0.993129 0.996513
1.08233 1.10495 0.983482 0.995982
1.07812 1.09951 0.984756 0.995719
1.08175 1.13534 0.956382 0.996255
1.06713 1.11352 0.962303 0.995881
1.05048 1.07627 0.979997 0.99596
1.04117 1.11045 0.941111 0.996278
1.02567 1.07644 0.956745 0.995916
0.956432 1.05012 0.913192 0.99736
1.08945 1.1403 0.958301 0.996979
1.09578 1.16334 0.944694 0.997074
1.04251 1.10843 0.943157 0.99721
1.04758 1.13747 0.923908 0.996822
1.12817 1.1948 0.947074 0.996999
1.09652 1.15583 0.951667 0.996871
1.08516 1.1212 0.971021 0.996744
1.07938 1.13273 0.956082 0.99667
1.07756 1.11971 0.96565 0.996583
1.08098 1.1076 0.979504 0.99639
1.07764 1.11561 0.969362 0.996495
1.08033 1.10698 0.979521 0.996326
1.08181 1.09913 0.988098 0.996095
1.08121 1.10538 0.981756 0.996313
1.08326 1.09957 0.989072 0.996052
1.09768 1.10605 0.99671 0.995708
1.08509 1.10083 0.989673 0.995985
1.09572 1.10268 0.998038 0.995639
1.06928 1.07391 1 0.995689
1.09197 1.09821 0.998777 0.995542
1.06883 1.07344 1 0.995706
1.02328 1.02513 1 0.998199
1.06873 1.07337 1 0.995686
1.02424 1.02614 1 0.998153
0.999203 1 1 0.999203
0.999604 1 1 0.999604
1.02469 1.02664 1 0.998095
0.999999 1 1 0.999999
1.08007 1.1046 0.981607 0.996117
1.08621 1.10048 0.991083 0.995909
1.08851 1.10727 0.986777 0.996235
1.08802 1.09403 0.999023 0.99548
1.0856 1.10207 0.989235 0.995771
1.08368 1.09702 0.992283 0.995524
1.08246 1.08772 0.999853 0.995313
1.06128 1.06584 1 0.99572
1.08133 1.08652 1 0.995228
1.05162 1.05556 1.00046 0.995807
1.02124 1.02329 1.00033 0.997666
1.04772 1.04991 1.00186 0.996071
1.00935 1.00885 1.00265 0.997849
0.999996 1 1 0.999996
1.0075 1.00271 1.00653 0.998257
1 1 1 1
1 1 1 1
1.08262 1.13295 0.958811 0.99663
1.0707 1.13726 0.944533 0.996765
1.00725 1.08383 0.93174 0.997436
1.07997 1.11607 0.971351 0.996193
1.07444 1.10699 0.974496 0.995996
1.06349 1.08961 0.979862 0.996088
1.08127 1.10229 0.98487 0.995998
1.08299 1.13491 0.957866 0.996227
1.05874 1.10614 0.961152 0.995835
1.03077 1.09859 0.94177 0.996281
1.08896 1.12455 0.971447 0.99681
1.08814 1.13797 0.959149 0.996935
1.09643 1.16284 0.945625 0.997111
1.08358 1.11201 0.977709 0.996655
1.09897 1.15857 0.951537 0.996873
1.08477 1.12096 0.970895 0.996728
1.08355 1.10846 0.980946 0.996514
1.07843 1.11955 0.9666 0.996563
1.08142 1.10806 0.979492 0.996393
1.08145 1.09868 0.988139 0.996134
1.08084 1.10744 0.979575 0.996325
1.08197 1.09933 0.988075 0.996094
1.09762 1.10699 0.99575 0.995762
1.08393 1.10021 0.989109 0.996049
1.09675 1.10504 0.996772 0.99571
1.06918 1.07383 1 0.995671
1.09401 1.10105 0.997954 0.995643
1.07113 1.07577 1 0.995693
1.02183 1.02368 1 0.998189
1.0702 1.07481 1 0.99571
1.02284 1.0247 1 0.998182
0.999209 1 1 0.999209
1.02367 1.02557 1 0.99815
0.999226 1 1 0.999226
1 1 1 1
1.07983 1.10336 0.982571 0.996034
1.08018 1.09734 0.988371 0.995942
1.08263 1.10608 0.982616 0.996117
1.09303 1.09989 0.998166 0.995595
1.08502 1.1015 0.98903 0.995963
1.08721 1.10578 0.986796 0.996368
1.0727 1.0773 1 0.995724
1.08996 1.09573 0.999258 0.99547
1.08754 1.10367 0.989569 0.99577
1.08226 1.08737 1 0.995303
1.06231 1.06688 1 0.995717
1.02732 1.0297 1 0.997688
1.05749 1.0619 1.00004 0.995806
1.01805 1.0199 1.00051 0.99768
0.999999 1 1 0.999999
1.00838 1.00693 1.00358 0.997871
0.999995 1 1 0.999995
1 1 1 1
1.08258 1.11644 0.973042 0.996528
1.0836 1.13516 0.957832 0.996603
1.06261 1.129 0.94425 0.996771
1.07937 1.11509 0.971645 0.996211
1.07099 1.10443 0.973625 0.995988
1.0851 1.13562 0.959152 0.996198
1.08648 1.1136 0.978923 0.996653
1.08928 1.12442 0.971854 0.996805
1.08699 1.13586 0.959961 0.99689
1.08406 1.11206 0.978077 0.996678
1.08205 1.1036 0.983926 0.996485
1.08437 1.1207 0.970771 0.996713
1.084 1.10821 0.98161 0.996478
1.07991 1.09737 0.98781 0.996231
1.08186 1.10852 0.979482 0.996396
1.08131 1.09855 0.988127 0.996136
1.0974 1.10754 0.99503 0.995793
1.08223 1.09961 0.988047 0.996094
1.09702 1.10651 0.995642 0.995762
1.06715 1.07179 1 0.995678
1.09581 1.10403 0.996824 0.995712
1.07114 1.0758 1 0.995675
1.01865 1.02053 1 0.998156
1.07298 1.07762 1 0.995698
1.02087 1.02275 1 0.998166
0.999189 1 1 0.999189
1.02236 1.02423 1 0.998171
0.999246 1 1 0.999246
0.999242 1 1 0.999242
1.08109 1.10484 0.982117 0.996319
1.08221 1.09684 0.990713 0.995909
1.07915 1.10449 0.980926 0.996058
1.09387 1.10343 0.99563 0.995689
1.08111 1.09688 0.989655 0.995926
1.08513 1.10751 0.983606 0.996117
1.07254 1.07714 1 0.99573
1.09334 1.10106 0.997348 0.995628
1.08359 1.10229 0.986958 0.996018
1.02575 1.02807 1 0.997746
1.07005 1.07465 1 0.99572
1.09149 1.09693 0.999572 0.99546
1.06338 1.06796 1 0.995715
1.02624 1.02861 1 0.997694
1 1 1 1
1.01417 1.01571 1.00078 0.997695
0.999997 1 1 0.999997
1 1 1 1
1.08242 1.10769 0.980575 0.996542
1.08245 1.11644 0.972955 0.996513
1.08396 1.13665 0.95692 0.996576
1.07908 1.11424 0.972109 0.996229
1.0824 1.1005 0.98706 0.996444
1.08662 1.11398 0.9787 0.996665
1.08972 1.12431 0.972343 0.996801
1.08456 1.1121 0.97846 0.9967
1.08197 1.10395 0.983536 0.996495
1.08042 1.09585 0.989659 0.996224
1.08448 1.10798 0.982292 0.996442
1.08104 1.09758 0.988708 0.996182
1.09586 1.10676 0.994257 0.99587
1.08119 1.09843 0.988116 0.996139
1.09675 1.10681 0.995098 0.995794
1.06465 1.06926 1 0.995687
1.09625 1.10582 0.995559 0.995763
1.06875 1.07339 1 0.995679
1.01384 1.01615 1 0.997727
1.07302 1.07767 1 0.995679
1.01711 1.0192 1 0.997943
1 1 1 1
1.01994 1.02183 1 0.998145
0.999232 1 1 0.999232
0.999273 1 1 0.999273
1.08155 1.10101 0.985837 0.996432
1.07964 1.09552 0.989403 0.99606
1.08182 1.10427 0.983296 0.996314
1.09446 1.10257 0.996906 0.995718
1.08112 1.09615 0.990342 0.99591
1.07849 1.10563 0.979288 0.996082
1.07054 1.07531 0.99983 0.995729
1.09445 1.1033 0.996273 0.99569
1.08213 1.09645 0.990992 0.99591
1.02128 1.02354 1 0.997791
1.07025 1.07486 0.999968 0.995734
1.09356 1.10219 0.996494 0.99566
1 1 1 1
1.02692 1.02923 1 0.997753
1.06756 1.07216 1 0.995717
1.0252 1.02756 1 0.997701
0.999999 1 1 0.999999
0.999994 1 1 0.999994
1.08138 1.09823 0.988178 0.996442
1.08369 1.10843 0.981066 0.996547
1.08219 1.11633 0.972823 0.996499
1.08027 1.09354 0.991664 0.996171
1.08134 1.10014 0.986407 0.996453
1.08675 1.11436 0.978477 0.996676
1.08185 1.10429 0.983111 0.996506
1.08036 1.09595 0.989507 0.996225
1.09622 1.10542 0.995818 0.995842
1.08208 1.0977 0.989598 0.996133
1.09644 1.1065 0.995074 0.995814
1.06189 1.06718 0.999308 0.99574
1.09623 1.10623 0.99515 0.995796
1.06591 1.07052 1 0.995687
1.0097 1.01199 1 0.997739
1.07055 1.0752 1 0.99568
1.01257 1.01488 1 0.997727
1 1 1 1
1.0156 1.01795 1 0.997694
0.999587 1 1 0.999587
0.99927 1 1 0.99927
1.07773 1.09441 0.988308 0.996406
1.07928 1.09252 0.99169 0.99616
1.08088 1.10017 0.985975 0.996441
1.09347 1.10146 0.997007 0.995727
1.08016 1.09567 0.989752 0.996049
1.08248 1.10363 0.984468 0.996309
1.06774 1.07278 0.999605 0.995692
1.09487 1.10256 0.997335 0.995678
1.07995 1.09541 0.989932 0.99591
1.01711 1.01937 1 0.997784
1.06946 1.07429 0.999779 0.995723
1.09498 1.10316 0.996887 0.99569
1 1 1 1
1.02273 1.02498 1 0.997798
1.0682 1.07282 0.999956 0.995738
1 1 1 1
1.02807 1.03037 1 0.997759
0.999997 1 1 0.999997
1.08053 1.09296 0.992393 0.996203
1.0804 1.0974 0.988036 0.99643
1.08496 1.10916 0.98156 0.996552
1.09631 1.10514 0.99616 0.995835
1.07977 1.09359 0.991133 0.996189
1.0803 1.0998 0.985757 0.996462
1.08031 1.09605 0.989372 0.996226
1.09551 1.10494 0.995601 0.995842
1.05933 1.06449 0.999396 0.995753
1.097 1.10624 0.995869 0.995757
1.06292 1.06788 0.999645 0.995711
1.0066 1.00888 1 0.997739
1.06692 1.07154 1 0.995688
1.00865 1.01094 1 0.997737
1 1 1 1
1.01122 1.01352 1 0.997725
1 1 1 1
0.99925 1 1 0.99925
1.07918 1.09144 0.992562 0.996178
1.07623 1.09396 0.987326 0.996417
1.09344 1.10159 0.996785 0.995797
1.07988 1.09302 0.991782 0.996159
1.0802 1.09933 0.986097 0.99645
1.06571 1.07037 1 0.99565
1.09413 1.10214 0.996995 0.995724
1.08079 1.09595 0.990094 0.996039
1.01352 1.01581 1 0.997745
1.06721 1.07205 0.999816 0.995666
1.09542 1.1026 0.997831 0.995639
1 1 1 1
1.01832 1.02058 1 0.997788
1.06841 1.0733 0.999725 0.995717
1 1 1 1
1.0241 1.02636 1 0.997804
1 1 1 1
1.09524 1.10346 0.996692 0.995846
1.08059 1.09286 0.992549 0.996195
1.07938 1.09653 0.987904 0.996418
1.05816 1.06329 0.999406 0.995764
1.09563 1.10455 0.99608 0.995835
1.07923 1.09362 0.990605 0.996206
1.0948 1.10446 0.99539 0.995842
1.05992 1.06519 0.999306 0.995749
1.00494 1.0072 1 0.997755
1.06406 1.06868 1 0.995683
1.00609 1.00837 1 0.997738
1 1 1 1
1.00769 1.00997 1 0.997737
1 1 1 1
1 1 1 1
1.0945 1.10223 0.997141 0.995838
1.07888 1.09162 0.992075 0.996223
1.07484 1.09362 0.986354 0.996428
1.06277 1.06738 1 0.995685
1.09382 1.10198 0.99679 0.995794
1.08048 1.09352 0.991888 0.996159
1.01002 1.01232 1 0.997727
1.0645 1.06915 1 0.995648
1.09474 1.10277 0.996987 0.995721
1 1 1 1
1.01453 1.01682 1 0.997748
1.06653 1.0712 1 0.995641
1 1 1 1
1.01951 1.02177 1 0.997793
1 1 1 1
1.05914 1.0637 1 0.995714
1.0946 1.10321 0.996304 0.995868
1.08069 1.09281 0.992696 0.996187
1.00391 1.00612 1 0.9978
1.05866 1.06385 0.999357 0.995762
1.09495 1.10396 0.995988 0.995834
1.06048 1.06585 0.999212 0.995746
1.0046 1.00686 1 0.997755
1 1 1 1
1.00556 1.00784 1 0.997736
1 1 1 1
1 1 1 1
1.06027 1.06483 1 0.995712
1.09411 1.10213 0.996846 0.995868
1.07848 1.09171 0.991581 0.996269
1.00754 1.00939 1 0.998171
1.06181 1.06641 1 0.995685
1.09406 1.10221 0.996794 0.99579
1 1 1 1
1.01101 1.01331 1 0.997729
1.06327 1.06792 1 0.995647
1 1 1 1
1.0156 1.01789 1 0.997751
1 1 1 1
1.00375 1.00599 1 0.997767
1.05829 1.06315 0.999681 0.995741
1.09394 1.10294 0.995933 0.99589
1 1 1 1
1.0038 1.00602 1 0.997798
1.0592 1.06445 0.999309 0.99576
1.00429 1.00655 1 0.997754
1 1 1 1
1 1 1 1
1.00549 1.00734 1 0.998162
1.05978 1.06434 1 0.995713
1.09388 1.10218 0.99656 0.995898
1 1 1 1
1.00795 1.01022 1 0.997751
1.06109 1.06569 1 0.995685
1 1 1 1
1.01202 1.01432 1 0.99773
1 1 1 1
0.99929 1 1 0.99929
1.00434 1.00636 1 0.997994
1.05748 1.06267 0.999345 0.995767
1 1 1 1
1.00365 1.00587 1 0.997798
1 1 1 1
0.99929 1 1 0.99929
1.00585 1.00789 1 0.997977
1.05913 1.06368 1 0.995715
0.999633 1 1 0.999633
1.00869 1.01096 1 0.997756
1 1 1 1
1 1 1 1
1.0045 1.0067 1 0.997816
1 1 1 1
0.999648 1 1 0.999648
1.00628 1.0085 1 0.997799
1 1 1 1
1 1 1 1
1 1 1 1

VECTORS lamdaE float
1.00352 0.99994 0.991437
1.00331 1.00061 0.99551
1.00286 1.00014 0.991939
1.00272 1.00021 0.99215
1.0033 1.00003 0.991625
1.00373 0.99987 0.991249
1.00377 1.00112 0.988958
1.00344 1.00067 0.995415
1.00233 1.0001 0.996488
1.00231 1.00065 0.996386
1.00297 1.00144 0.990704
1.00396 1.00232 0.985917
1.00206 0.999918 0.993125
1.00163 1.00017 0.993389
1.00225 1.00036 0.992412
1.00224 1.00023 0.992631
1.003 1.00021 0.991706
1.00274 1.00011 0.992121
1.00408 1.00104 0.988649
1.00212 1 0.996283
1.00251 1.0002 0.992386
1.00299 1.00014 0.991903
1.0035 1.00019 0.990336
1.00378 1.00071 0.989417
1.00412 0.999922 0.990766
1.0038 1.00169 0.988277
1.0053 1.00144 0.985309
1.0036 1.00073 0.995326
1.00268 1 0.994244
1.00284 1.00036 0.993988
1.00336 1.00131 0.995268
1.004 1.00229 0.98587
1.00265 0.999963 0.992247
1.00306 0.999932 0.991764
1.0042 1.0007 0.989253
1.00139 1.00285 0.996219
1.00429 1.00155 0.988462
1.00417 1.00279 0.985025
1.00549 1.0028 0.983083
1.00182 1.00173 0.995992
1.0021 0.99998 0.996288
1.00196 1.0001 0.994776
1.00202 0.999943 0.996359
1.00147 1.00011 0.993617
1.00353 0.999731 0.989503
1.00188 1.00008 0.996682
1.00386 1.00017 0.990336
1.0018 1.00019 0.993111
1.00221 1.00017 0.992599
1.00234 1.00052 0.992146
1.00436 1.00094 0.988357
1.00188 1.00001 0.994913
1.00204 1.00025 0.992873
1.0033 1.00048 0.991202
1.0025 1.00015 0.992383
1.00375 1.00015 0.990045
1.00416 1.00151 0.987982
1.00404 1.00065 0.989119
1.0053 1.00134 0.985496
1.00201 0.999974 0.996343
1.00237 1.00008 0.992671
1.00324 0.999783 0.991393
1.00336 0.999989 0.990759
1.00367 1.0004 0.989871
1.00539 0.998932 0.987926
1.00531 0.999686 0.987083
1.00387 1.00042 0.990664
1.00397 1.00259 0.987253
1.00533 1.00269 0.983943
1.00537 0.996854 0.989029
1.0032 0.999915 0.995721
1.0032 1.00139 0.995399
1.00344 1.00022 0.995559
1.00401 1.00226 0.985811
1.00274 0.99998 0.995892
1.00324 0.999973 0.995692
1.00401 1.00076 0.987528
1.00189 1.00236 0.993622
1.00402 1.00155 0.986665
1.00419 1.00293 0.986136
1.00546 1.00278 0.98305
1.00224 1.00204 0.99567
1.00283 1.00366 0.986728
1.00398 1.00048 0.988022
1.00425 1.00091 0.987065
1.00539 0.999502 0.986742
1.0038 1.00359 0.98714
1.00532 1.00152 0.98459
1.00552 1.00437 0.98149
1.00558 0.99928 0.986015
1.00123 1.00162 0.99648
1.00152 1.00188 0.996188
1.00239 1.00006 0.996058
1.00215 0.999983 0.996252
1.00206 0.999949 0.996349
1.00186 1 0.994937
1.00356 0.999738 0.990235
1.00218 1.00008 0.994609
1.00371 1.00018 0.98961
1.00202 0.999946 0.996378
1.00336 0.999577 0.989822
1.00378 0.999976 0.990637
1.0053 0.997338 0.989389
1.00386 1.00029 0.990104
1.0053 0.997682 0.988965
1.00207 0.999888 0.993141
1.00156 1.00029 0.993363
1.00239 1.0011 0.991626
1.00202 1.00013 0.992858
1.00398 1.00015 0.989755
1.00429 1.00061 0.98883
1.00449 1.00144 0.987691
1.0053 1.00123 0.98568
1.00205 0.99995 0.996361
1.00193 1.00007 0.993154
1.00349 0.999588 0.990353
1.00359 0.999952 0.990474
1.00333 1.00114 0.993022
1.00428 1.00245 0.987234
1.00391 1.00037 0.989579
1.00538 0.998529 0.988324
1.00534 1.0026 0.984151
1.00531 1.00001 0.986788
1.00538 0.996912 0.988991
1.00336 0.99959 0.989832
1.0033 0.999712 0.991124
1.00531 0.997349 0.989725
1.00534 0.997968 0.989011
1.0054 0.998782 0.987951
1.0053 0.995688 0.990888
1.0026 1.00164 0.995707
1.00532 0.995882 0.990183
1.00394 1.00314 0.984922
1.00538 1.00367 0.982099
1.00538 0.998157 0.987709
1.00538 0.994861 0.990888
1.00308 1.00365 0.985986
1.00461 1.00437 0.983782
1.0029 0.999952 0.995827
1.00336 0.999974 0.995664
1.00396 1.00083 0.987529
1.0025 1.00181 0.995593
1.00384 1.0032 0.985106
1.00402 1.00152 0.986637
1.00547 1.00263 0.983023
1.00215 1.00187 0.995781
1.00287 1.00377 0.986676
1.00401 1.00054 0.988814
1.00427 1.00103 0.987936
1.00537 0.999493 0.986732
1.00338 1.00368 0.985336
1.00536 1.00156 0.984553
1.00552 1.00415 0.981437
1.00561 0.999012 0.986327
1.00322 1.00373 0.985836
1.00244 1.00342 0.987885
1.00296 1.00287 0.985855
1.0054 0.998709 0.987622
1.00534 1.00043 0.985764
1.00529 0.995524 0.990606
1.00483 1.00508 0.981962
1.0055 0.997278 0.988487
1.00565 1.00167 0.98427
1.00568 0.996928 0.987879
1.0007 1.00089 0.997187
1.00097 1.00149 0.996742
1.00132 1.00191 0.996345
1.00259 1.00393 0.986904
1.00194 1.002 0.995941
1.00262 1 0.995946
1.00224 1.00002 0.996152
1.00348 1.00024 0.988951
1.00338 0.999744 0.989612
1.00204 0.99995 0.996333
1.002 0.999938 0.996375
1.00335 0.999585 0.989819
1.00363 0.999938 0.989937
1.00529 0.997351 0.989398
1.00367 1.00039 0.988537
1.0053 0.997703 0.988971
1.00334 0.999527 0.989895
1.0053 0.997302 0.989435
1.00529 0.997442 0.989263
1.00531 0.994953 0.991919
1.00535 0.998101 0.988401
1.00532 0.994951 0.991704
1.00202 0.999946 0.996368
1.00141 1.00018 0.993635
1.00352 0.999466 0.989512
1.00384 0.999934 0.990189
1.0022 1.00203 0.995982
1.00463 1.00223 0.987229
1.00415 1.00037 0.989289
1.00538 0.998127 0.98872
1.00531 1.00031 0.986494
1.00534 1.00243 0.984374
1.00539 0.996949 0.988952
1.00335 0.99958 0.98983
1.0035 0.999722 0.990853
1.0053 0.99724 0.989732
1.00534 0.99821 0.988775
1.00282 1.00158 0.99557
1.00396 1.00321 0.986131
1.00539 1.00375 0.982432
1.0054 0.998816 0.987957
1.00531 0.995317 0.991177
1.0054 0.998074 0.987791
1.0053 0.996235 0.989841
1.00539 0.994876 0.990835
1.00306 1.00369 0.985933
1.00388 1.00485 0.983715
1.0053 0.997381 0.98936
1.00532 0.997675 0.989468
1.00533 0.99531 0.991363
1.00532 0.994921 0.991594
1.00534 0.995948 0.990208
1.0052 0.994949 0.991536
1.00357 1.00344 0.985322
1.00531 0.994848 0.991099
1.00545 1.00446 0.981238
1.00545 0.999249 0.986272
1.00537 0.995795 0.989985
1.00539 0.994764 0.99084
1.00499 1.00532 0.981723
1.00253 1.0049 0.986336
1.00522 1.00494 0.981628
1.0038 1.00062 0.988044
1.00186 1.00194 0.995958
1.00268 1.00386 0.986628
1.00402 1.0011 0.987096
1.00536 0.999479 0.986725
1.00348 1.00363 0.98539
1.0055 1.00408 0.981383
1.00538 1.00159 0.984509
1.0056 0.998739 0.986642
1.00301 1.00384 0.985978
1.00216 1.00355 0.987873
1.00321 1.00399 0.985955
1.00538 0.998711 0.987628
1.00535 1.00044 0.985734
1.00533 0.995464 0.990631
1.00506 1.00443 0.981883
1.00547 0.997311 0.9885
1.00563 1.00145 0.984237
1.00564 0.996714 0.988062
1.00173 1.00293 0.989655
1.00311 1.00489 0.984499
1.0032 1.00401 0.98583
1.00235 1.00258 0.986819
1.0053 0.995073 0.991206
1.00537 0.9963 0.989616
1.00533 0.994874 0.990997
1.00549 1.00413 0.982409
1.00548 0.995224 0.990219
1.00556 1.00005 0.985818
1.00562 0.996194 0.988761
1.00095 1.00447 0.989469
1.00067 1.00215 0.991804
1.00046 0.999807 0.997715
1.00051 1.00053 0.997417
1.00064 1.00124 0.997046
1.00111 1.00385 0.989137
1.00115 1.00203 0.996364
1.00257 1.00388 0.986798
1.00213 1.00196 0.995872
1.00362 1.00044 0.988538
1.00346 0.999922 0.989308
1.0053 0.997717 0.988984
1.00529 0.997364 0.989408
1.00336 0.999598 0.989824
1.00206 0.999926 0.99637
1.00335 0.999527 0.9899
1.0053 0.997314 0.989442
1.00529 0.997458 0.989274
1.00532 0.994953 0.991918
1.00534 0.998112 0.988414
1.00532 0.994952 0.99171
1.0053 0.997336 0.989419
1.00532 0.994955 0.991952
1.00531 0.994955 0.991838
1.00525 0.994928 0.991769
1.00532 0.99493 0.991517
1.00524 0.994935 0.991565
1.00336 0.99958 0.989836
1.00374 0.999652 0.990583
1.0053 0.997111 0.989743
1.00533 0.998419 0.98854
1.003 1.00152 0.995432
1.00425 1.00315 0.987046
1.00542 1.00373 0.98275
1.00539 0.998835 0.987964
1.00532 0.994937 0.991468
1.00529 0.99661 0.9895
1.00542 0.998017 0.987874
1.00539 0.994866 0.990782
1.00305 1.00374 0.985882
1.00322 1.00477 0.983655
1.0053 0.997191 0.989599
1.00531 0.997582 0.989487
1.00534 0.995332 0.991333
1.00532 0.995195 0.99135
1.00351 1.00349 0.985308
1.00545 1.00439 0.981291
1.00545 0.999649 0.985933
1.00531 0.995977 0.990304
1.0052 0.994943 0.991455
1.00537 0.995522 0.990202
1.00533 0.994848 0.99106
1.00538 0.994767 0.990814
1.0048 1.0051 0.98177
1.00474 1.00526 0.982061
1.00232 1.00472 0.986437
1.00533 0.99532 0.991434
1.00533 0.995424 0.99116
1.00524 0.994928 0.991859
1.00523 0.994932 0.991498
1.00521 0.994905 0.991195
1.00535 0.994903 0.991104
1.00537 1.00509 0.980974
1.00536 0.994854 0.990826
1.00556 1.00133 0.984183
1.00545 0.99662 0.988777
1.0054 0.994927 0.990674
1.00542 0.994759 0.99065
1.00189 1.00347 0.987356
1.0053 1.00473 0.981525
1.00339 1.005 0.98391
1.00512 1.00473 0.982032
1.00536 0.998713 0.987636
1.0018 1.00382 0.987861
1.00307 1.00387 0.986092
1.00304 1.00488 0.986037
1.00535 1.00044 0.985707
1.00537 0.995405 0.990657
1.00544 1.00371 0.981782
1.00564 1.00129 0.984202
1.00545 0.997332 0.988513
1.00562 0.996497 0.988243
1.00138 1.0031 0.989682
1.00393 1.00421 0.984605
1.00297 1.00416 0.985684
1.00322 1.00247 0.98693
1.00531 0.995042 0.991236
1.00539 0.996218 0.989642
1.00531 0.994872 0.991018
1.0055 1.00396 0.982242
1.00548 0.995392 0.990103
1.00556 0.999974 0.985788
1.00567 0.996253 0.98895
1.00119 1.00239 0.99094
1.00285 1.0052 0.986187
1.00349 1.00509 0.983285
1.00284 1.00266 0.987382
1.00305 1.00251 0.987749
1.00525 0.994917 0.991179
1.00543 0.994848 0.990663
1.0054 0.994853 0.990625
1.00528 1.00324 0.983383
1.00551 0.99517 0.99013
1.00533 0.999263 0.986567
1.00146 1.00497 0.987967
1.00055 1.0051 0.98918
1.00037 1.00392 0.990806
1.0005 1.00464 0.989485
1.00035 1.00129 0.994169
1.00055 1.00204 0.992518
1.00054 0.999126 0.995638
1.00038 0.999881 0.997804
1.00047 1.00043 0.997578
1.00043 1.00287 0.991242
1.00019 1.00105 0.997431
1.00149 1.00347 0.989049
1.00144 1.00199 0.996175
1.00265 1.00368 0.986685
1.00233 1.00185 0.995776
1.00533 0.998136 0.988424
1.00529 0.997475 0.989281
1.00531 0.994953 0.991717
1.00533 0.994952 0.991917
1.00529 0.997329 0.989447
1.00334 0.999514 0.989901
1.0053 0.997341 0.989419
1.00533 0.994955 0.99195
1.00531 0.994955 0.991842
1.00525 0.994926 0.991769
1.00531 0.994928 0.991535
1.00524 0.994935 0.991562
1.00533 0.994955 0.991953
1.00523 0.994931 0.991829
1.00525 0.994925 0.991713
1.00533 0.994902 0.991641
1.00523 0.994937 0.991342
1.0053 0.994916 0.991339
1.0053 0.997022 0.989833
1.00531 0.997515 0.989506
1.00534 0.995357 0.991303
1.00533 0.995488 0.991105
1.00345 1.00356 0.985307
1.00546 1.00452 0.98134
1.00543 0.99998 0.985598
1.00528 0.996006 0.990399
1.0052 0.994938 0.991375
1.00535 0.994849 0.991022
1.00537 0.995273 0.99042
1.00537 0.994772 0.990788
1.00452 1.00524 0.98182
1.00411 1.00537 0.982495
1.00209 1.00476 0.986532
1.00533 0.995146 0.991683
1.00533 0.995402 0.991166
1.00524 0.994925 0.991809
1.00523 0.994934 0.991566
1.00522 1.00509 0.981056
1.00554 1.00146 0.984252
1.00546 0.996823 0.988368
1.00523 0.994913 0.991255
1.00535 0.994896 0.991069
1.00539 0.994862 0.990684
1.00536 0.994854 0.990826
1.00542 0.994774 0.990637
1.00521 1.00486 0.981607
1.00509 1.00475 0.982193
1.00223 1.0039 0.987428
1.00357 1.00457 0.984142
1.00524 0.994933 0.991832
1.00525 0.994921 0.991704
1.00533 0.994912 0.991642
1.00535 0.994888 0.991207
1.00533 0.994892 0.990864
1.00538 0.994858 0.990915
1.0055 1.00311 0.982658
1.00539 0.994815 0.990633
1.00552 0.998977 0.986142
1.00548 0.995824 0.989289
1.00546 0.994762 0.990635
1.00541 0.994784 0.990575
1.00293 1.00324 0.986607
1.00242 1.00526 0.984498
1.00508 1.00437 0.982422
1.00498 1.00518 0.983538
1.005 1.00406 0.983235
1.00108 1.00311 0.989718
1.00532 0.99501 0.991266
1.0034 1.00422 0.985528
1.00389 1.00395 0.984753
1.00409 1.00227 0.987041
1.00541 0.996137 0.989667
1.00528 0.994869 0.99104
1.00549 1.00371 0.982087
1.00555 0.999865 0.985761
1.00548 0.995562 0.989985
1.00572 0.99633 0.989143
1.00095 1.00253 0.990964
1.00225 1.00522 0.986082
1.00426 1.00456 0.983287
1.00305 1.00298 0.987297
1.00364 1.00192 0.986906
1.00524 0.994919 0.991181
1.00541 0.994846 0.990699
1.00539 0.994851 0.990632
1.0052 1.00336 0.983426
1.00554 0.995192 0.990037
1.00527 0.999543 0.986965
1.00202 1.00509 0.986952
1.00321 1.00516 0.985706
1.0038 1.00483 0.984208
1.00363 1.00263 0.986393
1.00465 1.00319 0.985363
1.00536 0.994864 0.990854
1.00543 0.994827 0.990457
1.0054 0.994758 0.990486
1.00511 1.00205 0.98422
1.00527 0.998078 0.987797
1.00127 1.00502 0.988
1.00121 1.00511 0.987464
0.999721 1.0051 0.989307
0.999966 1.00511 0.991144
1.00022 1.0049 0.990561
0.99995 1.00355 0.991608
1.00003 1.00413 0.990832
1.00016 1.00066 0.994935
1.00026 1.0048 0.989498
1.00031 1.00118 0.994307
1.00035 0.998196 0.996531
1.0005 1.00208 0.993215
1.00031 0.99929 0.996892
1.00024 0.999818 0.997893
1.00034 1.0027 0.99181
1.00065 1.00244 0.991298
1.00004 1.00035 0.997941
1.00073 1.00122 0.996963
1.00188 1.00314 0.988978
1.00164 1.00224 0.996043
1.00531 0.994925 0.991553
1.00532 0.994954 0.991845
1.00524 0.994935 0.991559
1.00524 0.994924 0.99177
1.00533 0.994955 0.991948
1.0053 0.997342 0.989421
1.00533 0.994955 0.991951
1.00523 0.994931 0.991836
1.00525 0.994924 0.991712
1.00533 0.994898 0.991635
1.00523 0.994938 0.991337
1.00531 0.994912 0.991356
1.00523 0.994933 0.991852
1.00532 0.994911 0.991744
1.00532 0.994895 0.991564
1.00533 0.994889 0.991656
1.00532 0.994908 0.991127
1.0053 0.994892 0.991329
1.00533 0.994951 0.991934
1.00533 0.995379 0.991172
1.00524 0.994923 0.991758
1.00523 0.994936 0.991634
1.0051 1.00506 0.981128
1.00552 1.0017 0.984317
1.00548 0.997015 0.987961
1.00525 0.994921 0.991316
1.00535 0.99489 0.991034
1.00536 0.994854 0.990826
1.00538 0.994781 0.990695
1.00543 0.994785 0.990622
1.00513 1.00497 0.981684
1.00515 1.00458 0.982348
1.00256 1.00439 0.987496
1.00381 1.00418 0.984345
1.00523 0.994932 0.991834
1.00525 0.994919 0.991718
1.00533 0.994912 0.991621
1.00535 0.99489 0.991201
1.00549 1.00333 0.982736
1.00559 0.99898 0.985969
1.00547 0.995799 0.989294
1.00534 0.994898 0.990901
1.00538 0.994851 0.990912
1.00547 0.99473 0.99064
1.00539 0.994815 0.990628
1.0054 0.994785 0.990606
1.00519 1.00443 0.982387
1.00483 1.00432 0.98332
1.00416 1.00466 0.98363
1.00251 1.00388 0.986713
1.00298 1.00525 0.98445
1.00532 0.994901 0.991713
1.00535 0.994893 0.9915
1.00537 0.994847 0.990995
1.00539 0.994836 0.990716
1.00543 1.00239 0.983788
1.0054 0.994735 0.990395
1.00554 0.998063 0.986249
1.00549 0.995462 0.989456
1.00546 0.994743 0.990488
1.00117 1.0051 0.987528
1.00392 1.00522 0.985055
1.00183 1.00524 0.986148
1.00497 1.00447 0.98334
1.00485 1.00325 0.985377
1.00491 1.00359 0.983608
1.00071 1.00271 0.990986
1.00231 1.00521 0.985982
1.00523 0.994921 0.991183
1.00256 1.00288 0.987223
1.00519 1.00463 0.983282
1.00414 1.00166 0.986064
1.0054 0.994844 0.990735
1.00538 0.994849 0.990639
1.00529 1.00356 0.983466
1.00528 0.999818 0.98736
1.00558 0.995208 0.989944
1.00202 1.00511 0.986943
1.00269 1.00521 0.985705
1.00425 1.00473 0.983526
1.00377 1.0022 0.986511
1.00461 1.00213 0.985235
1.00537 0.994865 0.990845
1.00544 0.99483 0.990435
1.00542 0.994751 0.990504
1.00509 1.00225 0.984513
1.00527 0.998273 0.987588
1.00287 1.00516 0.985638
1.00105 1.00527 0.986117
1.00478 1.00322 0.984393
1.00277 1.00265 0.985111
1.00538 1.00093 0.985512
1.00539 0.994793 0.990605
1.00548 0.995458 0.989519
1.00543 0.994737 0.990003
1.0051 1.00122 0.985742
1.0051 0.999227 0.986999
1.0012 1.00501 0.988036
1.00173 1.00508 0.987229
0.999132 1.0046 0.990919
0.999421 1.00507 0.989404
0.999651 1.00503 0.990536
0.998892 1.00464 0.991599
0.998395 1.00411 0.993663
0.99863 1.00513 0.991948
0.999531 1.00484 0.991164
1.00003 1.00318 0.991754
0.999853 1.00355 0.991591
1.00002 1.00034 0.995363
0.999667 1.00421 0.990854
1.00014 1.00058 0.995004
1.00021 0.997953 0.996946
1.00029 1.00098 0.994447
1.00025 0.998408 0.996471
1 0.999385 0.998176
1.00013 1.0022 0.99252
1.00058 1.0022 0.991842
0.99979 0.999866 0.998178
1.00113 1.00202 0.991341
1.00017 1.00026 0.997824
1.00109 1.00144 0.996566
1.00524 0.99494 0.991332
1.00525 0.994923 0.991711
1.00531 0.994908 0.991373
1.00533 0.994895 0.991628
1.00523 0.994931 0.991843
1.00533 0.994955 0.991949
1.00523 0.994935 0.991859
1.00532 0.994912 0.991738
1.00532 0.994898 0.99157
1.00532 0.994886 0.991636
1.00533 0.994908 0.991122
1.0053 0.994885 0.991344
1.00531 0.994905 0.99176
1.00534 0.994884 0.991721
1.00531 0.994863 0.991611
1.00536 0.994872 0.990957
1.00523 0.994932 0.991835
1.00525 0.994918 0.991733
1.00533 0.994911 0.9916
1.00535 0.994891 0.991194
1.00552 1.0035 0.982819
1.00566 0.998977 0.985792
1.00546 0.995775 0.989297
1.00535 0.994905 0.990939
1.00538 0.994844 0.990909
1.00539 0.994816 0.990624
1.00548 0.994701 0.990645
1.00539 0.994786 0.990639
1.0052 1.00466 0.982351
1.00448 1.0046 0.983405
1.00397 1.00425 0.983733
1.00213 1.00444 0.986844
1.00354 1.00526 0.984438
1.00532 0.994902 0.991698
1.00535 0.994894 0.991496
1.00538 0.994848 0.991
1.00545 1.0024 0.983798
1.00552 0.998252 0.986207
1.0055 0.995324 0.989492
1.00538 0.99484 0.990737
1.00544 0.994725 0.99054
1.00541 0.994741 0.990413
1.001 1.00497 0.987797
1.00464 1.0043 0.983359
1.0051 1.00382 0.98319
1.00442 1.003 0.985204
1.00266 1.00473 0.985769
1.00315 1.00522 0.985112
1.00534 0.994878 0.991655
1.00538 0.99485 0.991312
1.00541 0.994803 0.990775
1.00541 0.994778 0.990472
1.00527 1.00177 0.984433
1.00541 0.994717 0.990241
1.00547 0.997906 0.987145
1.00545 0.995037 0.9896
1.00038 1.00413 0.989276
1.00221 1.00513 0.986923
1.00328 1.00509 0.986149
1.00097 1.00214 0.990866
1.00487 1.00417 0.983655
1.00484 1.00336 0.983899
1.00157 1.0052 0.986935
1.00244 1.00512 0.985692
1.00538 0.994865 0.990837
1.00397 1.00137 0.98663
1.0048 1.00456 0.982851
1.00429 1.00256 0.985097
1.00545 0.994833 0.990413
1.00544 0.994743 0.990521
1.00504 1.00238 0.984805
1.00521 0.998517 0.987379
1.00275 1.0051 0.9857
1.00281 1.00519 0.985774
1.00453 1.00333 0.984224
1.00423 1.00343 0.984628
1.00537 1.00195 0.985356
1.00539 0.994794 0.99062
1.00547 0.995253 0.989814
1.00541 0.994745 0.990298
1.00516 1.00106 0.985598
1.00509 0.999812 0.986494
0.999916 1.00493 0.988486
1.00041 1.00505 0.987845
1.00506 1.00102 0.98587
1.00497 1.00252 0.985379
1.00544 0.994794 0.990617
1.00538 0.994663 0.990453
1.00524 0.997471 0.988083
1.00517 1.00037 0.985804
1.00258 1.00507 0.987008
0.9995 1.00496 0.990568
0.996801 1.00498 0.994514
0.999153 1.0051 0.990521
0.997129 1.00506 0.992044
0.999591 1.0047 0.991078
0.997746 1.00477 0.994029
0.998765 1.00511 0.99198
0.998421 1.00233 0.996156
0.997894 1.00509 0.993298
0.998516 1.00511 0.991623
1.00004 1.00463 0.99059
1.00001 1.00341 0.991549
0.999914 1.00334 0.991714
0.999889 1.00013 0.99569
0.999646 1.00378 0.991576
0.999996 1.00032 0.995406
1.00006 0.997963 0.997185
1.00008 1.00054 0.995068
1.00017 0.998066 0.996913
1.0001 0.998622 0.996399
1.00032 1.00111 0.993356
1.00017 1.00214 0.992442
0.999923 0.998935 0.998401
1.00043 1.00184 0.991877
0.999967 1.00005 0.998079
1.00049 1.00009 0.997585
1.00534 0.994907 0.991116
1.00532 0.994902 0.991576
1.0053 0.994878 0.991358
1.00532 0.994882 0.991617
1.00532 0.994914 0.991733
1.00523 0.994937 0.991865
1.00531 0.994904 0.991761
1.00533 0.994885 0.991712
1.00532 0.994864 0.991555
1.00534 0.99487 0.991017
1.00534 0.994876 0.991742
1.00536 0.994845 0.991639
1.00535 0.994832 0.991311
1.00533 0.994904 0.991684
1.00535 0.994896 0.991493
1.00538 0.994851 0.991005
1.00546 1.0024 0.983811
1.00553 0.998448 0.986172
1.00551 0.995147 0.989527
1.00538 0.994844 0.990758
1.00543 0.99475 0.990431
1.00542 0.994707 0.990597
1.00463 1.00412 0.983382
1.00491 1.00407 0.982776
1.00343 1.00318 0.985031
1.00106 1.00488 0.988066
1.00394 1.00437 0.98536
1.00213 1.00518 0.985147
1.00534 0.994881 0.991676
1.00538 0.99485 0.991285
1.0054 0.994813 0.990795
1.0053 1.00178 0.984409
1.00544 0.997723 0.98708
1.00546 0.994902 0.989745
1.00541 0.994766 0.99044
1.00543 0.994722 0.990239
1.00025 1.00459 0.989528
1.00179 1.00513 0.986893
1.00474 1.00363 0.983466
1.00445 1.00309 0.984023
1.00203 1.00273 0.989455
1.00223 1.00518 0.986626
1.00539 0.994835 0.991549
1.00543 0.994834 0.990931
1.0054 0.994732 0.990541
1.00541 0.994724 0.99017
1.00469 1.00118 0.985982
1.00537 0.994714 0.990317
1.00472 0.997539 0.988402
1.00008 1.00441 0.99034
1.00073 1.00322 0.990677
0.999861 1.00513 0.988642
1.00172 1.00514 0.987533
1.00141 1.00459 0.990025
1.00309 1.00262 0.986447
1.00444 1.00369 0.984747
1.0034 1.00526 0.985567
1.00271 1.00517 0.985767
1.0031 1.00529 0.985429
1.0054 0.994797 0.990636
1.00526 1.00232 0.984155
1.00462 1.00343 0.984059
1.00535 1.00229 0.985212
1.00546 0.995035 0.990111
1.00539 0.994755 0.990592
1.00519 1.00086 0.985455
1.00505 1.00033 0.985988
1.00093 1.00397 0.988098
1.00114 1.0048 0.987203
1.00503 1.00113 0.985581
1.00491 1.00239 0.985272
1.00542 0.9948 0.990628
1.0054 0.994681 0.990456
1.00523 0.997387 0.988119
1.00512 1.00052 0.985835
0.998979 1.00366 0.991947
1.00549 0.994718 0.991091
1.00259 1.00341 0.988731
1.00465 1.00152 0.985598
1.00538 0.994703 0.990755
1.00523 0.996411 0.988294
1.00508 1.00083 0.986001
1.00022 1.00478 0.99023
0.997475 1.00469 0.994623
0.996326 1.00287 0.996994
0.999268 1.00466 0.990987
0.99865 1.00508 0.992004
0.996577 1.00506 0.994404
0.999875 1.00457 0.990561
0.998662 1.00509 0.991766
0.996505 1.00351 0.99645
0.998228 1.00484 0.993084
0.996631 1.00328 0.997696
0.996175 1.00505 0.995856
0.99888 1.00463 0.992712
1.00027 1.00493 0.989713
1.00023 1.00474 0.989923
0.999975 1.00341 0.991548
0.999904 1.00353 0.991524
0.999784 1.00015 0.99585
0.999787 1.00353 0.991677
0.999923 1.00012 0.995704
0.999942 0.997962 0.997437
0.999992 1.00021 0.995457
1.00008 0.997962 0.997161
1.00013 0.998175 0.996872
1.00042 1.00374 0.99054
0.999985 1.00098 0.993816
1.00017 1.00123 0.993317
1.00004 0.998774 0.998522
1.00021 1.00197 0.992368
0.999893 0.999403 0.998329
1.00016 0.999873 0.998024
1.00533 0.994867 0.991078
1.00533 0.994866 0.991498
1.00532 0.994885 0.991704
1.00532 0.994903 0.991761
1.00534 0.994873 0.991753
1.00536 0.994846 0.991618
1.00535 0.99483 0.991251
1.00538 0.994835 0.991599
1.00538 0.994774 0.991656
1.00566 0.994622 0.991557
1.00534 0.994884 0.991696
1.00538 0.994847 0.991258
1.00539 0.994819 0.990815
1.00517 1.00181 0.984388
1.0054 0.997679 0.987021
1.00549 0.994846 0.989882
1.00542 0.994753 0.990408
1.00546 0.994725 0.990235
1.00499 1.00344 0.983272
1.00393 1.00264 0.984101
1.0025 1.00404 0.988053
1.00048 1.00465 0.989782
1.00156 1.00514 0.986857
1.00124 1.0052 0.987109
1.00539 0.994831 0.991542
1.00073 1.00362 0.990298
1.00015 1.00411 0.990581
1.00543 0.99482 0.99093
1.00541 0.994747 0.99057
1.00478 1.00133 0.985708
1.00526 0.997114 0.988631
1.00534 0.994734 0.990294
1.0054 0.994717 0.990099
1.0005 1.00513 0.988742
1.00148 1.00513 0.987473
1.00414 1.00423 0.984221
1.00356 1.00505 0.984533
1.00355 1.00334 0.986129
1.00072 1.00303 0.990975
1.00547 0.994745 0.991459
1.00541 0.995084 0.990565
1.00539 0.994664 0.990535
1.00529 0.994721 0.989936
1.00355 1.00104 0.987248
1.0052 0.995821 0.990102
1.00034 1.00443 0.990084
0.999622 1.00392 0.990504
1.00005 1.00499 0.990748
1.00049 1.00512 0.988868
1.00131 1.00342 0.990133
1.00206 1.00083 0.990143
1.00234 1.00534 0.985709
1.0022 1.00236 0.98986
1.00123 1.00486 0.987724
1.00357 1.00519 0.986557
1.00541 0.994806 0.990638
1.00542 0.9947 0.99046
1.00485 1.00303 0.985167
1.00477 1.00134 0.985279
1.00522 0.997313 0.988157
1.00507 1.00068 0.985867
0.998996 1.00443 0.991887
1.00551 0.99471 0.991211
1.00188 1.00404 0.989217
1.00448 1.00148 0.9855
1.0054 0.994688 0.990813
1.00521 0.996509 0.988535
1.00503 1.00059 0.985898
0.997976 1.00451 0.994275
1.00498 0.994666 0.990269
1.00176 1.00303 0.988439
1.0043 1.00308 0.98413
1.00483 0.994819 0.991839
1.00445 0.999931 0.98707
0.99817 0.994703 0.98084
0.997203 1.00511 0.994707
0.996909 1.00286 0.997035
0.996061 1.00315 0.997907
0.999857 1.00445 0.990529
0.998294 1.00508 0.991922
0.999089 1.00457 0.992879
0.995389 1.00379 0.996762
1.00019 1.00461 0.98996
0.999747 1.00501 0.990265
0.996327 1.00237 0.998381
0.998135 1.00492 0.992654
0.996602 1.00482 0.995435
0.994884 1.0052 0.997927
0.997967 1.00512 0.993411
0.998652 1.00467 0.992542
1.00008 1.00476 0.990304
0.999912 1.00486 0.989838
0.999648 1.00432 0.991692
0.999964 1.00431 0.990434
0.999888 1.00329 0.9917
0.999934 1.00346 0.991536
0.999674 1.00009 0.995276
0.999922 1.00341 0.991504
0.999779 1.00012 0.99548
0.999962 0.997895 0.998944
0.99992 1.0001 0.995727
0.99996 0.997899 0.997419
1.00011 0.997963 0.997127
1.00003 1.00334 0.991428
1.00065 1.00344 0.990608
1.00015 1.00028 0.99436
1.00014 1.00086 0.994285
0.999979 0.998308 0.998676
1.00002 1.00162 0.993277
0.999969 0.998593 0.998509
0.999938 0.999785 0.998188
1.00535 0.99483 0.991191
1.00535 0.994847 0.991597
1.00534 0.99487 0.991764
1.00538 0.994834 0.991602
1.00539 0.994778 0.991586
1.00568 0.994642 0.991533
1.00553 0.994737 0.991613
1.00003 0.994661 0.97951
1.00549 0.994597 0.989581
1.00022 1.00419 0.990307
1.00539 0.994828 0.991536
1.00543 0.994813 0.990929
1.00542 0.994763 0.990599
1.00495 1.00142 0.985423
1.0053 0.996227 0.988843
1.0053 0.994738 0.990256
1.00539 0.994707 0.990027
1.00432 1.00435 0.983767
1.00423 1.00478 0.983587
1.00325 1.00276 0.9858
1.00102 1.00318 0.990261
1.00037 1.00255 0.9919
1.00126 1.00511 0.988814
1.00109 1.00512 0.987408
1.00012 1.00446 0.990481
1.00546 0.994764 0.991467
1.00055 1.00422 0.989965
1.00041 1.00411 0.990483
0.999463 1.00467 0.991229
1.0054 0.994889 0.990591
1.00538 0.994662 0.990496
1.00369 1.00203 0.987283
1.00491 0.995585 0.990147
1.0053 0.99471 0.989958
1.00043 1.00505 0.988914
1.00144 1.00328 0.990425
1.00302 1.00279 0.98904
1.00282 1.005 0.985336
1.00287 0.999922 0.990675
1.00546 0.9947 0.99096
1.00534 0.994771 0.990714
1.00524 0.994651 0.990588
1.00459 0.997396 0.989719
1.00367 1.00031 0.988705
0.999478 1.0033 0.992932
0.999551 1.00517 0.989866
0.998352 1.00371 0.993328
1.00055 1.00267 0.992642
1.00108 0.998958 0.994287
1.00051 1.00133 0.991771
1.00134 1.00132 0.99245
1.00115 1.00362 0.991786
1.00026 1.00431 0.989702
1.00553 0.994694 0.991325
1.00541 0.994676 0.990857
1.0052 0.996607 0.988779
1.00431 1.0016 0.985403
1.00497 1.00035 0.9858
0.998081 1.00497 0.995169
1.00446 0.994658 0.990348
1.00228 1.00292 0.988155
1.0046 1.00282 0.984101
1.00462 0.994793 0.991938
1.00457 0.99984 0.987107
0.998085 0.994653 0.978996
0.99746 1.00507 0.994282
1.00289 0.994548 0.99074
1.00256 1.00422 0.985819
1.00412 1.00165 0.986109
1.00352 0.996793 0.993502
0.999572 0.994906 0.93305
0.994813 0.994656 0.955509
0.997286 0.994566 0.983303
0.994806 0.998692 0.840378
0.994803 1.0006 0.8021
0.997844 1.00312 0.997085
0.996466 1.00306 0.997935
0.995147 1.00524 0.998448
1.00025 1.00461 0.990005
0.999493 1.00506 0.990819
0.998067 1.00502 0.992584
0.996846 1.00474 0.995008
0.995776 1.00197 0.99904
0.998523 1.00451 0.99295
1.0002 1.00478 0.989786
1.00004 1.00494 0.990117
0.995218 1.00497 0.997786
0.997532 1.00497 0.993935
0.99751 1.0048 0.994512
0.995758 1.00524 0.99659
0.998092 1.00499 0.993335
0.999516 1.00502 0.990391
1.00017 1.00469 0.989687
0.998936 1.00459 0.991492
0.997138 1.00465 0.994801
0.997973 1.00488 0.992885
0.999248 1.00447 0.992131
0.999836 1.00406 0.991124
0.999791 1.00433 0.990334
0.999943 1.00311 0.991915
0.999965 1.00327 0.991726
0.999645 0.99999 0.995424
0.99985 1.00363 0.99152
0.999659 1.00011 0.995285
0.999932 0.997854 0.998986
0.999767 1.00014 0.995119
0.999903 0.997896 0.998231
1.00004 0.997844 0.997396
0.999903 1.00279 0.992291
1.00017 1.00317 0.991467
1.00005 0.999899 0.994935
1.00082 1.00311 0.990674
1.00011 1.00036 0.994791
1.00002 0.998007 0.998797
1.00033 1.0005 0.993749
1.00002 0.998532 0.998606
0.999928 0.998916 0.998499
1.0054 0.994781 0.991517
1.00537 0.994833 0.991604
1.00571 0.994664 0.991532
0.998946 0.994676 0.979134
1.00555 0.994725 0.991605
1.00551 0.994632 0.989646
1.00551 0.994605 0.991252
0.994834 0.994762 0.959285
1.00503 0.994651 0.974487
1.0003 1.00401 0.990518
1.00042 1.00406 0.99033
0.99862 1.00356 0.993416
1.00085 1.00435 0.989527
1.00546 0.994783 0.991474
1.00538 0.994795 0.990621
1.00538 0.994663 0.990457
1.00384 1.00197 0.987326
1.00511 0.995725 0.990228
1.00531 0.994712 0.99
1.00261 1.00303 0.988146
1.00383 1.00506 0.984958
1.00283 0.998343 0.991253
1.00052 1.00481 0.990476
1.00054 1.00257 0.990773
1.00039 1.00517 0.988959
1.00071 1.004 0.989837
0.998802 1.00494 0.991813
1.00549 0.994724 0.99095
0.999193 1.00371 0.992336
0.999768 1.00503 0.99002
0.996471 1.00492 0.995324
1.00534 0.994787 0.990698
1.00523 0.994648 0.990567
1.00401 0.998869 0.988905
1.0044 0.997387 0.989816
1.00095 1.00221 0.991925
0.999769 0.999922 0.993713
1.00099 1.00173 0.992416
1.00226 1.00136 0.99073
1.00366 0.996509 0.989623
1.00514 0.994519 0.99122
1.00388 0.998842 0.989802
1.00437 0.998754 0.989769
0.996116 1.00445 0.996527
1.00065 1.00249 0.991157
0.99754 0.998681 1.00073
0.997956 1.00504 0.992862
0.999252 0.997437 0.915079
0.998204 1.00475 0.996094
1.00216 1.00329 0.987861
1.00375 0.99468 0.990469
1.0044 0.994766 0.992024
1.00458 0.999693 0.987119
1.0048 1.00257 0.98407
0.997845 0.994615 0.976676
0.998105 1.0043 0.994525
1.00254 0.994571 0.990743
1.00283 1.00422 0.985829
1.00428 1.00158 0.986307
1.0033 0.997045 0.993441
0.998017 0.995005 0.918441
0.994948 0.99469 0.951955
0.996894 0.994602 0.983708
0.996043 0.998093 0.848659
0.994858 1.00108 0.800935
0.998023 1.00447 0.993696
0.997384 0.995825 0.852946
0.994891 0.999929 0.800728
1.00137 0.994706 0.994554
1.00182 1.00334 0.988968
1.00169 1.00024 0.99296
0.995336 0.995108 0.986782
0.997403 0.994639 0.92849
0.995102 0.994681 0.945331
0.994742 0.999719 0.850339
0.994837 0.996477 0.77862
0.99695 1.0028 0.997972
0.994967 1.00528 0.99831
0.995102 1.00508 0.999637
1.00049 1.00444 0.989724
0.999885 1.00505 0.989923
0.99772 1.00473 0.993366
0.997141 1.00499 0.99445
0.995531 1.00454 0.997644
1.00023 1.00479 0.989644
0.997343 1.00464 0.994815
0.998061 1.00498 0.992847
0.99992 1.00492 0.990275
0.995566 1.00522 0.99693
0.995979 1.00522 0.996237
0.994932 1.00508 0.997917
0.998479 1.00511 0.991998
1.00022 1.00486 0.989786
0.999751 1.00418 0.991397
0.99714 1.00435 0.995149
0.997414 1.00379 0.994916
0.997533 1.00462 0.994694
0.995624 1.00487 0.997478
0.998275 1.00246 0.994698
0.996791 1.00515 0.993534
0.998213 1.00493 0.992877
0.998968 1.00459 0.991061
0.998906 1.00445 0.992572
0.999824 1.00433 0.991082
1.00004 1.00312 0.991846
1.00003 1.00446 0.990229
0.999953 1.00305 0.991955
0.999861 0.999877 0.996014
0.999745 1.00356 0.991753
0.999736 0.999926 0.995723
0.999917 0.997753 0.997712
0.99966 1.00008 0.995283
0.99992 0.997882 0.998998
0.999897 0.997967 0.997512
1.00055 1.00434 0.990021
0.999786 1.00271 0.992494
0.999972 1.00269 0.992277
0.999976 0.99953 0.995394
1.00027 1.00314 0.991507
1.00008 0.999889 0.994906
1.00001 0.997734 0.998918
1.00008 1.00055 0.995134
0.999982 0.998099 0.997912
0.999979 0.998394 0.996762
0.998151 0.994676 0.97874
1.00555 0.99472 0.991598
1.00552 0.994588 0.989698
0.99585 0.994799 0.958986
1.00482 0.994621 0.974351
1.00552 0.99458 0.991378
1.00447 0.994506 0.983775
0.999785 0.994715 0.955467
0.997424 0.995392 0.931086
0.995927 0.997008 0.865798
0.994925 1.00167 0.801924
0.999398 1.00413 0.991448
1.00021 1.0041 0.990608
1.00068 1.00394 0.990357
0.998701 1.00369 0.99331
0.997458 1.00449 0.994693
1.00009 1.00475 0.990471
1.00019 1.00507 0.989208
1.00049 1.00444 0.989754
1.00551 0.994746 0.990936
1.00535 0.994698 0.990682
1.00522 0.994645 0.990544
1.0043 0.998795 0.989093
1.00432 0.997356 0.9899
1.00091 1.00151 0.992368
1.00411 1.00096 0.989716
1.00129 1.00079 0.993124
1.00017 1.00457 0.990118
1.00142 1.00202 0.991134
0.99882 1.00456 0.991753
0.995036 1.00515 0.997009
1.0042 0.99549 0.990079
0.996209 1.00473 0.996228
1.00004 1.00241 0.992695
1.00486 0.99455 0.991196
1.00391 0.999109 0.989615
1.0038 0.998945 0.989792
0.998432 0.999821 0.99786
0.999288 1.00363 0.9932
1.0022 0.996113 0.988111
1.00261 0.999314 0.990962
1.00376 1.00103 0.989527
1.00182 0.99917 0.993249
0.997894 1.00484 0.994172
0.996068 1.00225 0.997889
0.997502 1.00293 0.996386
0.999757 0.999936 0.84462
1.00043 0.994894 0.931841
0.999122 1.00277 0.99477
1.00332 1.00402 0.985852
1.00215 0.994597 0.990742
1.00312 0.997099 0.993405
1.00428 1.0014 0.986537
0.99996 0.994836 0.930021
0.995266 0.994695 0.9514
0.996534 0.994643 0.984394
0.994784 0.99904 0.86583
0.99486 1.00039 0.799392
0.99861 1.00411 0.993774
0.998998 0.99757 0.850284
0.994835 0.999024 0.795321
1.0008 0.994779 0.994386
1.00161 1.0035 0.989003
1.0017 1.00018 0.994076
0.995935 0.996124 0.98799
0.994897 0.994642 0.921539
0.995307 0.994672 0.947363
0.9948 0.999196 0.856762
0.994861 0.996962 0.775568
0.996838 1.00518 0.996862
0.994808 0.995486 0.788937
0.994745 0.99473 0.765196
0.997103 0.999949 0.996847
0.999042 1.00271 0.997465
0.994902 0.99766 0.986143
0.995214 0.994747 0.953474
0.994894 0.994537 0.908214
0.994829 0.997386 0.861045
0.9949 0.994904 0.796046
0.995201 1.00528 0.99819
0.995017 1.00485 0.999772
0.994797 1.00525 0.999612
1.00031 1.00476 0.989596
1.00022 1.00503 0.990158
0.998226 1.005 0.992356
0.997199 1.00403 0.995116
0.99547 1.0052 0.997281
1.0003 1.005 0.989701
0.996267 1.0051 0.995768
0.998697 1.00512 0.992027
0.995009 1.00508 0.998006
0.99485 1.00519 0.998411
0.996162 1.00511 0.995751
0.999934 1.005 0.99161
1.00031 1.00373 0.991301
0.997083 1.00395 0.995492
0.997984 1.00328 0.994954
0.997689 1.00397 0.994644
0.995844 1.00493 0.996336
0.998541 1.00259 0.995087
0.995459 1.00458 0.996476
0.997089 1.00327 0.997574
0.999397 1.00438 0.991717
1.00516 1.00204 0.986583
0.997493 1.00444 0.991786
0.998253 1.00278 0.994736
0.998541 1.00523 0.991081
0.99783 1.00522 0.993638
0.999468 1.00468 0.990302
0.998948 1.00514 0.992866
0.999446 1.00457 0.99115
0.999521 1.00382 0.991503
0.999867 1.00461 0.991033
0.999922 1.00313 0.991875
0.999965 0.999934 0.995758
1.00008 1.00282 0.991991
0.999846 0.999863 0.995648
1.00005 0.997516 0.997607
0.999709 0.999968 0.995405
0.999967 0.997686 0.999032
0.999918 0.997817 0.999014
1.00072 1.00475 0.989613
0.999861 1.00299 0.992162
1.00052 1.00425 0.990011
0.99998 0.999407 0.995547
1.00001 1.00246 0.99248
1.00016 1.00243 0.992264
1.00001 0.999533 0.995382
0.999998 0.997495 0.999015
1.00008 0.999961 0.995637
1.00003 0.997793 0.99809
1.00002 0.998099 0.997148
0.999338 0.999869 0.834768
0.994842 0.997881 0.783351
0.995178 0.994831 0.959946
1.00469 0.994593 0.974512
1.00554 0.994593 0.991486
1.00289 0.994723 0.952422
1.00338 0.994563 0.98461
0.999301 0.995128 0.926992
0.994773 0.997646 0.845206
0.994898 1.0014 0.801281
0.999148 0.994652 0.966153
0.994824 0.994657 0.931989
0.994747 0.999748 0.851463
0.995264 0.997985 0.792469
0.999988 1.00433 0.992113
1.00009 1.004 0.990965
1.00013 1.00406 0.990709
0.998726 1.00341 0.993218
0.996894 1.00387 0.995695
1.00051 1.005 0.989513
0.999277 1.00495 0.991056
1.0012 1.00512 0.987837
1.00043 1.00504 0.98923
0.999531 1.00508 0.989992
1.00462 0.994732 0.990501
1.00471 0.994581 0.991166
1.00372 0.999266 0.989421
1.00298 0.999087 0.989818
0.999928 1.00311 0.993489
0.999242 1.00097 0.995076
0.998952 1.00265 0.994466
0.996321 1.00474 0.995922
1.00204 0.995498 0.988844
0.997615 1.00491 0.993828
0.996044 1.00264 0.99864
1.00245 0.998936 0.991191
1.00372 1.00203 0.987662
1.00101 0.99966 0.993755
0.997754 1.00337 0.995881
0.999118 0.994533 0.986551
1.00123 1.00159 0.992693
0.996979 1.00395 0.996184
0.998724 1.005 0.992915
0.996121 1.00503 0.995731
0.994918 1.00517 0.998445
0.994825 0.994738 0.795257
0.99961 0.99588 0.856155
0.999782 0.997427 0.915507
0.998656 1.00397 0.993827
1.00174 1.00383 0.988981
1.00018 0.994884 0.994195
1.00148 0.999854 0.995206
0.998801 1.00028 0.864525
0.994924 0.994656 0.916176
0.99493 0.994612 0.94552
0.996424 0.997278 0.988954
0.994835 0.999228 0.840129
0.994776 0.997659 0.801025
0.995227 0.997385 0.789955
0.996942 1.00501 0.996532
0.994833 0.996573 0.792898
0.994765 0.994756 0.765206
0.997771 0.998364 0.997526
0.9987 1.00274 0.997298
0.994985 0.996616 0.987789
0.995458 0.994745 0.948842
0.995407 0.994552 0.921864
0.99482 0.997098 0.840441
0.995327 0.994891 0.803916
0.995695 1.00509 1.00089
0.994715 0.994749 0.772043
0.994814 0.994839 0.774668
0.994809 1.00188 1.00093
0.994882 0.996648 0.96237
0.994797 0.994735 0.921124
0.995245 0.994889 0.848565
0.995317 0.994904 0.827714
0.994893 1.0047 0.999884
0.994778 1.00522 0.999847
0.994747 1.00529 1.00027
1.00012 1.00504 0.98962
0.99899 1.00512 0.992055
0.996595 1.00499 0.995298
0.995039 1.00509 0.998096
0.999113 1.005 0.99156
0.996338 1.0051 0.995636
0.994828 1.0052 0.998434
0.994732 1.0053 0.998948
0.99554 1.0051 0.99795
0.997502 1.00509 0.9944
0.998549 1.00285 0.994983
0.997434 1.00356 0.994618
0.996335 1.00511 0.995273
0.995874 1.00421 0.996616
0.998711 1.00183 0.994984
0.996247 1.0034 0.9976
0.999508 1.00305 0.995086
0.995391 1.00513 0.998342
1.00196 1.00069 0.991899
0.999397 1.00381 0.992591
1.00192 1.00322 0.987878
1.00506 1.00226 0.984847
1.00473 1.00155 0.987178
1.00456 1.0015 0.986745
0.999216 1.00409 0.991709
0.999049 1.00522 0.988809
0.998317 1.00308 0.994778
0.999312 1.00516 0.99116
1.00145 1.00482 0.988153
0.998517 1.00515 0.993734
0.999748 1.00481 0.990352
0.999973 1.00415 0.990363
1.00038 1.00446 0.991237
1.00011 1.0035 0.99151
1.00027 1.00028 0.995075
0.999961 1.00309 0.991911
0.999971 1.00004 0.995239
1.00017 0.997647 0.997365
0.999856 0.999795 0.995335
1.00005 0.99756 0.998324
0.999985 0.997656 0.999025
1.00058 1.00507 0.988558
1.00001 1.00342 0.99158
1.00037 1.00482 0.989439
0.999977 0.999592 0.995356
0.999824 1.00302 0.992188
1.00022 1.0043 0.989995
1 0.997473 0.999026
0.999965 0.999426 0.995547
0.99995 1.00257 0.992472
1.00004 0.999504 0.995372
1 0.997561 0.998989
1.00002 0.997805 0.998863
0.994784 0.994923 0.77904
0.998633 0.997533 0.849338
0.99483 0.994771 0.771314
0.994872 0.997971 0.785664
0.999555 0.995349 0.954253
1.00209 0.994607 0.985505
0.998561 0.994732 0.921805
0.994763 0.998108 0.863718
0.994888 0.999691 0.800968
0.998544 0.994714 0.964701
0.996023 0.99461 0.915039
0.994769 0.999222 0.858001
0.994867 0.997473 0.785683
0.994892 0.994712 0.958239
0.994808 0.99461 0.905138
0.994875 0.997138 0.835187
0.994868 0.9949 0.803926
1.00004 1.00483 0.990609
0.99875 1.00437 0.99222
1.00007 1.00408 0.990481
0.99616 1.00351 0.996631
1.00087 1.0051 0.988382
1.00026 1.00488 0.989717
0.998724 1.00487 0.991634
1.00188 1.00514 0.987308
1.00143 1.0051 0.987888
1.00058 1.00476 0.989246
1.00255 0.994625 0.989464
1.00211 0.998725 0.991434
1.00375 1.00335 0.985815
1.00048 0.999792 0.994271
0.998372 1.00526 0.995358
0.996662 1.00134 0.999406
0.99836 1.00484 0.993433
0.998921 1.00414 0.992907
0.999485 0.995691 0.987254
0.997086 1.00516 0.995341
0.996156 1.00354 0.998456
1.00074 1.00114 0.99256
0.997194 1.00379 0.996298
0.996972 0.997289 0.985664
0.997025 1.00293 0.99747
0.994739 1.00546 0.998452
0.996213 1.00501 0.996413
0.994881 1.00522 0.997978
0.994723 0.994738 0.775818
0.99484 0.994691 0.789824
0.999685 1.00172 0.834816
0.996987 1.00474 0.996264
0.998831 1.00304 0.99716
0.998727 0.997377 0.998156
0.99484 0.995483 0.786728
0.994816 0.994558 0.905298
0.994951 0.99473 0.95041
0.995176 0.995331 0.989857
0.994793 0.997169 0.856973
0.994819 0.994783 0.765886
0.996366 0.99488 0.806035
0.996046 1.00515 1.00068
0.99473 0.99478 0.771345
0.994799 0.994837 0.775755
0.994976 1.00241 0.999412
0.99487 0.995616 0.964033
0.995626 0.994753 0.905367
0.995829 0.994898 0.821979
0.995624 0.995084 0.858105
0.994765 1.00512 1.00217
0.994757 0.994827 0.759835
0.994866 0.994841 0.796344
0.994864 0.994885 0.803252
0.994779 1.00052 0.987049
0.994828 0.995595 0.92858
0.997009 0.994881 0.87426
0.994777 1.00517 1.00008
0.994921 1.00514 1.00007
0.99475 1.00517 0.999557
0.998377 1.00508 0.991526
0.996621 1.00508 0.995522
0.994761 1.00522 0.998471
0.996833 1.00509 0.99457
0.995362 1.00455 0.998078
0.994746 1.00529 0.998773
0.994813 1.0051 0.999607
0.995211 1.00509 0.998198
0.996117 1.00369 0.996794
0.998933 1.00101 0.99487
0.995422 1.00332 0.997524
0.995193 1.00484 0.998232
0.998077 1.00224 0.995302
1.00039 1.00113 0.995023
0.99957 1.00151 0.99514
1.00347 1.00187 0.987186
0.999065 1.00311 0.993447
1.00237 1.00292 0.987934
1.0049 1.00339 0.984035
1.00506 1.00219 0.984778
1.00498 1.00159 0.985594
1.00478 1.00225 0.984894
1.00347 1.00412 0.986484
1.00331 1.00266 0.987222
1.00395 1.0013 0.986904
1.00102 1.00368 0.99162
1.00054 1.00523 0.988131
1.00285 1.00523 0.985555
0.999843 1.0052 0.991241
1.00139 1.00523 0.988082
1.00112 1.00488 0.987714
1.00058 1.00507 0.990385
1.00038 1.00386 0.990307
1.00047 1.00059 0.994574
1.00032 1.00305 0.99151
1.00027 1.00033 0.994549
1.00039 0.99795 0.996716
0.999936 1.00017 0.994883
1.00015 0.997613 0.998204
1.00009 0.997525 0.99898
1.00156 1.00512 0.987171
1.00023 1.00378 0.990353
1.00089 1.00508 0.988558
1.00003 0.999947 0.994916
0.999999 1.00346 0.991336
1.00045 1.00493 0.989267
1.00001 0.997595 0.998972
0.999988 0.999558 0.99537
0.999962 1.00274 0.992212
0.999995 0.997476 0.999029
0.999958 0.999425 0.995546
1.00001 0.997567 0.998964
0.994776 0.994797 0.771626
0.994809 0.996296 0.792979
0.999561 0.99624 0.849402
1.00143 1.00515 0.987349
0.994775 0.994801 0.77486
0.994803 0.994793 0.771396
0.994895 0.999934 0.797854
0.997562 0.994647 0.964785
0.99482 0.994654 0.930263
0.994724 0.998659 0.841249
0.99485 0.997105 0.797083
0.995098 0.994702 0.954867
0.995107 0.994621 0.921872
0.994912 0.997179 0.842086
0.994974 0.995062 0.803605
0.994962 0.994693 0.948198
0.99482 0.994793 0.917671
0.99648 0.994898 0.860143
0.995029 0.994903 0.827952
0.998044 1.00443 0.993136
0.999228 1.00499 0.99111
0.998608 1.00397 0.992331
1.0018 1.00306 0.989191
1.00113 1.00512 0.988432
1.00013 1.00497 0.989921
1.00204 1.00514 0.987319
1.00157 1.00507 0.987942
0.999064 0.996931 0.987862
0.999918 1.00061 0.992364
0.997528 1.00488 0.992904
0.997128 1.00386 0.996312
0.996516 1.00338 0.998432
0.996643 1.00521 0.99503
0.996023 1.00468 0.99594
0.99667 0.998736 0.985667
0.995423 1.00518 0.998032
0.994924 1.00545 0.998467
0.996395 1.00286 0.997631
0.994958 1.00526 0.996578
0.99576 1.00304 0.983054
0.994702 1.00376 0.999339
0.994731 1.00536 0.999329
0.995018 1.00481 0.9979
0.994723 0.994796 0.757107
0.994714 0.994733 0.772209
0.994849 0.994631 0.784079
0.996015 1.00526 1.00045
0.995041 1.00159 0.997864
0.994741 0.994808 0.770659
0.994761 0.994797 0.921555
0.994861 0.995203 0.959765
0.99571 0.994901 0.857909
0.994778 0.994836 0.77664
0.994894 0.994888 0.815985
0.994828 1.00522 1.00195
0.99476 0.994824 0.76043
0.994878 0.994849 0.79353
0.994738 1.00117 0.990567
0.994885 0.994977 0.802758
0.994832 0.99674 0.922903
0.996449 0.995133 0.874944
0.994746 1.0045 0.996843
0.994832 0.994831 0.777822
0.994788 0.994811 0.777166
0.99487 0.997757 0.790423
0.996689 0.994892 0.860184
0.994799 1.00171 0.968623
0.994945 0.99489 0.916076
0.99517 1.00514 0.999907
0.994934 1.00531 0.999583
0.994713 1.00523 0.998443
0.996235 1.0051 0.994714
0.995321 1.00396 0.998209
0.994763 1.00528 0.998682
0.995309 1.00455 0.998103
0.994778 1.00515 0.999481
0.997114 1.00315 0.999569
0.995093 1.00486 0.998142
0.996679 1.00145 0.995585
0.999107 1.00123 0.995834
1.00125 1.00017 0.9915
0.99666 1.00246 0.997878
1.00268 1.00151 0.988185
1.00463 1.00482 0.982074
1.00461 1.00276 0.984621
1.00302 1.00262 0.987866
1.00497 1.00353 0.983267
1.00516 1.0018 0.984881
1.00508 1.00299 0.984263
1.00478 1.00228 0.984719
1.0045 1.0038 0.985913
1.0038 1.00235 0.985605
1.0044 1.00218 0.984964
1.00264 1.00523 0.985299
1.00243 1.00452 0.986408
1.0019 1.00358 0.987251
1.0015 1.00519 0.987463
1.00304 1.00502 0.985493
1.00231 1.00521 0.985506
1.00108 1.00518 0.988002
1.00149 1.0048 0.987705
1.00045 1.00161 0.992585
1.00132 1.00369 0.990299
1.00063 1.00047 0.993526
1.00015 0.998113 0.998551
1.00033 1.0003 0.994175
1.00029 0.997897 0.997772
1.0002 0.997743 0.998816
1.00136 1.00516 0.987003
1.00076 1.00413 0.989184
1.0014 1.00512 0.987406
1.00013 1.00033 0.994413
1.0003 1.00385 0.990235
1.00113 1.00509 0.988552
1.00004 0.997807 0.998862
1.00005 0.999895 0.994944
0.999903 1.00353 0.991094
1.00001 0.99756 0.99899
0.999988 0.999553 0.995388
0.999988 0.997482 0.999032
0.994726 0.994797 0.764749
0.994762 0.994779 0.772003
0.994816 0.997101 0.791682
1.00166 1.00513 0.987569
1.00044 1.00515 0.987798
1.00228 1.00306 0.990137
0.994879 0.994852 0.795081
0.994802 0.9948 0.775972
0.994785 0.994784 0.771623
0.995698 0.994696 0.955982
0.994856 0.994598 0.906898
0.994884 0.997395 0.859066
0.994893 0.994888 0.798614
0.995077 0.99474 0.951249
0.995247 0.994784 0.913447
0.996008 0.994914 0.861433
0.995641 0.9949 0.822127
0.994929 0.995146 0.950937
0.994768 0.99743 0.923507
0.996871 0.994893 0.874348
0.994898 0.994908 0.798936
0.997706 1.00329 0.994891
0.998288 1.00472 0.993209
0.999152 1.00507 0.991609
1.00129 1.00398 0.98904
1.00097 1.00512 0.988486
1.00195 1.00512 0.987325
0.996276 0.99953 0.986021
0.996339 1.0031 0.997809
0.996937 1.00389 0.995473
0.995344 1.00534 0.998521
0.996253 1.00512 0.998034
0.995123 1.00532 0.996843
0.995125 1.00528 0.997817
0.995436 1.00208 0.983114
0.994699 1.0053 0.999379
0.994678 1.00482 0.997641
0.995355 1.00531 0.997885
0.99475 1.00277 0.981892
0.994749 1.00514 0.994642
0.995214 1.00444 0.99871
0.99485 0.99485 0.762425
0.994724 0.9948 0.757246
0.994702 0.994729 0.768529
0.994878 1.00527 1.00168
0.994731 1.00217 0.985829
0.994754 0.994822 0.761017
0.994811 0.996921 0.92468
0.996526 0.994884 0.862372
0.994888 0.994843 0.790784
0.994875 0.994876 0.79783
0.994726 1.00471 0.997351
0.994806 0.994835 0.776159
0.994812 0.994792 0.778455
0.994832 1.00237 0.964389
0.99485 0.997495 0.783515
0.995794 0.994996 0.860889
0.994859 0.997355 0.929552
0.99477 1.00518 0.987668
0.994747 0.994803 0.768926
0.994813 0.994768 0.772624
0.994933 1.00167 0.8005
0.994819 0.997541 0.832746
0.994798 0.994885 0.926862
0.994827 1.00166 0.957914
0.995092 1.00531 0.999485
0.994763 1.00504 0.99831
0.995093 1.00524 0.998185
0.995291 1.00406 0.997993
0.994765 1.00529 0.999173
0.996061 1.00312 0.999956
0.998499 1.00302 0.998236
0.998039 1.00104 0.996605
1.00305 0.999845 0.990617
1.00169 1.00489 0.986084
1.0021 1.00152 0.989736
1.00434 1.00457 0.982616
1.00423 1.00374 0.983561
1.00523 0.999531 0.986178
1.00517 1.00138 0.985093
1.00482 1.00266 0.984408
1.005 1.00373 0.982506
1.00518 1.00269 0.984267
1.00521 1.00148 0.984996
1.00533 1.00274 0.98415
1.00483 1.0033 0.984199
1.00458 1.00217 0.984658
1.00256 1.00349 0.987255
1.00348 1.00275 0.985745
1.00338 1.00336 0.985586
1.00281 1.00527 0.984813
1.00284 1.00523 0.985292
1.0011 1.0046 0.986343
1.00265 1.00521 0.98546
1.00287 1.0052 0.985507
1.00083 1.00266 0.990938
1.00244 1.00466 0.987657
1.00068 1.00142 0.992478
1.00029 0.998532 0.998405
1.00087 1.00019 0.993481
1.00038 0.998126 0.997549
1.00032 0.997849 0.998614
1.00257 1.00514 0.986496
1.00128 1.00471 0.988397
1.00188 1.00515 0.986973
1.00021 1.00076 0.993826
1.00074 1.0042 0.98934
1.00145 1.00512 0.98765
1.00007 0.997954 0.998751
1.00014 1.00024 0.994427
1.0005 1.00386 0.990119
1.00003 0.997754 0.998896
1.00006 0.999831 0.994968
1 0.997537 0.999009
0.994839 0.99484 0.774615
0.994742 0.994814 0.765359
0.994772 0.994756 0.771882
1.00107 1.00526 0.986873
1.00333 1.00212 0.990985
1.00112 1.00505 0.987799
1.00101 1.00508 0.987683
1.00073 1.00174 0.991082
1.00149 1.00249 0.991326
0.99891 1.00077 0.995404
0.994829 0.994839 0.777633
0.994873 0.994852 0.792018
0.994831 0.994816 0.776884
0.994888 0.994895 0.815964
0.995141 0.994729 0.948016
0.99484 0.994818 0.909725
0.996211 0.995459 0.870768
0.995533 0.994845 0.949041
0.994814 0.996704 0.909636
0.996246 0.994896 0.873501
0.995232 0.994894 0.806448
0.994838 0.996401 0.953209
0.995367 0.99842 0.911267
0.995332 0.994902 0.849194
0.994854 0.997106 0.782109
0.995154 1.00541 0.997052
0.996853 1.00384 0.995656
0.997935 1.00464 0.993293
1.0005 1.00494 0.988879
0.99545 1.00184 0.983057
0.994646 1.00524 0.996103
0.99529 1.00537 0.99715
0.995476 1.00528 0.997989
0.99472 1.00529 0.999616
0.995413 1.00531 0.997895
0.995329 1.0044 0.999207
0.994763 1.00239 0.978885
0.994702 1.00521 0.994517
0.995719 1.00373 0.999542
0.996082 1.00057 0.973684
0.995176 1.00482 0.99686
0.994724 0.994816 0.761453
0.994828 0.994855 0.770379
0.994728 0.994819 0.757391
0.994645 1.00528 0.997863
0.994828 1.00177 0.969488
0.994784 0.994836 0.774424
0.994939 0.994883 0.91691
0.995725 0.99522 0.870662
0.994806 0.994807 0.779447
0.994821 0.997403 0.794904
0.994735 1.00502 0.989031
0.99473 0.994815 0.769679
0.994802 0.994813 0.772729
0.994824 1.00185 0.958711
0.994926 1.00104 0.799838
0.994814 0.997348 0.839846
0.994834 0.994939 0.913
0.995337 1.00385 0.982235
0.994804 0.994822 0.774085
0.994855 0.997435 0.783239
0.99476 0.999766 0.85018
0.99482 0.995054 0.920771
0.994835 0.998779 0.953734
0.994731 1.00508 0.999245
0.994963 1.00525 0.998244
0.995001 1.00531 0.997819
0.994831 1.00291 1.00035
0.996813 1.00294 0.998749
1.00049 1.00211 0.994224
1.00475 0.999501 0.98975
1.00286 1.00516 0.985423
1.00431 1.00109 0.98666
1.00413 1.00449 0.983156
1.00439 1.00344 0.983677
1.00511 1.00076 0.985612
1.00546 0.996604 0.988426
1.00541 0.9988 0.986968
1.00524 0.999695 0.986197
1.00519 1.0016 0.985459
1.00518 1.00109 0.98515
1.00506 1.00261 0.984193
1.00532 1.004 0.982972
1.00522 1.00275 0.984412
1.00528 1.00138 0.985115
1.00432 1.00207 0.986848
1.00446 1.00345 0.984511
1.00394 1.00376 0.984137
1.00383 1.00412 0.985242
1.0029 1.00317 0.987198
1.00327 1.00248 0.985575
1.00154 1.00264 0.989578
1.00323 1.00527 0.984947
1.00323 1.00523 0.985288
1.00302 1.00518 0.985506
1.00091 1.00245 0.990955
1.0003 0.999418 0.99804
1.00074 1.00138 0.992399
1.00032 0.998647 0.998301
1.00039 0.997936 0.998494
1.00346 1.00482 0.986792
1.00358 1.00516 0.985719
1.00175 1.00508 0.987393
1.0024 1.00489 0.986501
1.0001 1.00162 0.993175
1.00121 1.00484 0.988382
1.00194 1.00518 0.986938
1.00009 0.998366 0.9986
1.00016 1.00085 0.993847
1.00081 1.00444 0.989488
1.00005 0.997989 0.998781
1.00014 1.00026 0.99445
1.00002 0.997692 0.998932
0.994773 0.994839 0.762343
0.994819 0.994831 0.77306
0.994741 0.994818 0.766041
1.00202 1.00516 0.98637
1 1.00244 0.991721
1.00328 1.003 0.987429
0.998414 1.00498 0.991087
1.00249 0.99814 0.992992
1.00116 1.00509 0.98753
0.999859 1.00257 0.992213
1.00088 1.00268 0.991326
0.998843 0.99935 0.997941
0.99928 1.00146 0.996206
0.99478 0.994755 0.770053
0.994816 0.99484 0.778801
0.99486 0.994842 0.78919
0.995926 0.994878 0.808881
0.996432 0.994897 0.862284
0.995227 0.994847 0.947243
0.994739 0.99729 0.922603
0.994863 0.997457 0.947294
0.994873 0.99802 0.923417
0.995426 0.994903 0.858588
0.994872 0.997369 0.779082
0.994931 1.00026 0.948538
0.994959 0.995573 0.922719
0.994864 0.997386 0.862359
0.994829 1.00166 0.804521
0.99831 1.00066 0.998214
0.995386 1.00512 0.997349
0.997102 1.00373 0.996444
0.994793 1.0018 0.97518
0.99473 1.00522 0.993436
0.99533 1.00534 0.997798
0.994879 1.00425 0.999443
0.995621 1.00406 0.999533
0.994933 1.00428 0.997513
0.99486 1.00212 0.97454
0.99497 1.00234 1.00313
0.994784 1.00152 0.981277
0.99475 0.994749 0.779807
0.994738 0.994829 0.761203
0.99481 0.994849 0.778918
0.994757 1.00463 0.989049
0.994841 0.999283 0.955863
0.994734 0.994816 0.770386
0.994815 0.994895 0.924037
0.994803 0.997592 0.856362
0.994833 0.99481 0.773063
0.994922 0.999559 0.799604
0.99503 1.00397 0.983223
0.994814 0.9948 0.773928
0.994882 0.99832 0.785458
0.994849 0.998086 0.955473
0.994774 0.999342 0.857154
0.995253 0.994821 0.909735
0.994821 1.00258 0.981026
0.994793 0.995478 0.778823
0.995334 0.997335 0.865883
0.994803 0.994586 0.904563
0.994937 0.995169 0.953778
0.994826 1.00531 0.998343
0.994904 1.00531 0.997645
0.997672 0.999997 0.997459
0.9953 1.0029 0.999244
0.999426 1.00218 0.995065
1.00403 0.996355 0.993453
1.00398 1.00518 0.98474
1.00411 1.00107 0.986577
1.00506 0.996443 0.98959
1.00449 1.0033 0.983798
1.00507 1.00045 0.985624
1.00534 0.997032 0.988433
1.00547 0.99476 0.990469
1.00554 0.995964 0.988636
1.00546 0.996539 0.988455
1.00552 0.998436 0.987363
1.00542 0.99885 0.986896
1.00524 0.999809 0.986217
1.00534 1.0017 0.984856
1.00516 1.00121 0.985308
1.00517 1.00075 0.985211
1.00525 1.00479 0.983368
1.00458 1.00385 0.983439
1.00514 1.00242 0.984561
1.00284 1.00467 0.986021
1.0032 1.00283 0.98677
1.00293 1.00353 0.984887
1.00254 1.00368 0.989247
1.00309 1.00427 0.985416
1.00279 1.00296 0.987128
1.00062 1.0006 0.994056
1.0019 1.00294 0.989921
1.00313 1.00526 0.985094
1.00121 1.0023 0.990936
1.00045 0.999611 0.997878
1.00039 0.99891 0.998184
1.00256 1.00403 0.986068
1.00318 1.00509 0.985803
1.00135 1.00494 0.987222
1.00173 1.00516 0.987212
1.00247 1.00512 0.98578
1.00001 1.00205 0.992892
1.00155 1.00517 0.987406
1.00234 1.00516 0.986493
1.00009 0.998655 0.998462
1.00008 1.00149 0.993234
1.00094 1.00489 0.988368
1.00005 0.998246 0.998649
1.00014 1.00071 0.993866
1.00003 0.997944 0.998813
0.994749 0.994816 0.777264
0.994777 0.994831 0.763029
0.994792 0.994846 0.771105
1.00315 1.00537 0.983991
1.00178 1.0052 0.985956
0.998887 1.00265 0.992677
1.00031 1.00501 0.990325
1.00399 1.0016 0.987157
1.00149 0.99769 0.995558
1.00397 1.00115 0.988273
0.995332 1.00529 0.994664
0.99981 1.00297 0.991189
0.997678 0.996938 1.00021
0.997227 1.00275 0.996288
0.997438 1.00332 0.996051
0.994903 0.999931 0.802288
0.99479 0.994775 0.769951
0.9948 0.994844 0.779653
0.995324 0.997399 0.793165
0.99549 0.994888 0.857772
0.995341 0.998424 0.911591
0.995178 0.996094 0.94799
0.995473 0.999099 0.950002
0.994895 1.00119 0.80355
0.994826 0.997113 0.914002
0.994855 0.997347 0.841957
0.99484 0.99694 0.957199
0.994779 0.994792 0.923536
0.994745 0.999256 0.851842
0.99876 0.997846 1.00229
0.997767 1.00092 0.998203
0.995159 1.00534 0.997625
0.994745 1.00251 0.975201
0.994706 1.00349 0.998136
0.995499 1.0037 0.999619
0.995444 1.00076 1.00346
0.995004 1.00041 0.981574
0.995548 0.996331 0.995211
0.994809 0.994694 0.792071
0.994742 0.994773 0.778113
0.994767 0.994819 0.760543
0.994768 1.00458 0.983125
0.99484 0.999808 0.955222
0.994803 0.994794 0.773995
0.994837 0.994797 0.908131
0.994727 0.998326 0.840206
0.994916 0.999951 0.797582
0.994826 1.00426 0.98076
0.994824 0.996995 0.79315
0.994774 0.997472 0.844957
0.995297 0.994912 0.947384
0.995156 0.994606 0.92113
0.99628 0.997709 0.986415
0.998907 0.999879 0.834403
0.994823 0.994655 0.932166
0.994969 0.994683 0.945168
0.994836 1.00532 0.997534
0.997712 1.00082 0.996947
1.00099 0.995596 0.995179
0.998293 1.00265 0.995915
1.00307 0.997026 0.993204
1.00496 0.994601 0.992454
1.00399 1.00082 0.9865
1.00506 0.996168 0.98946
1.00526 0.994891 0.990552
1.00498 0.999985 0.985636
1.00534 0.996856 0.988336
1.00544 0.994697 0.990348
1.00536 0.994756 0.991028
1.00546 0.99477 0.99057
1.00547 0.99476 0.990472
1.00555 0.995691 0.98898
1.00555 0.995918 0.988807
1.00547 0.996483 0.988487
1.00553 0.997993 0.987377
1.00552 0.998265 0.987212
1.00542 0.998923 0.986821
1.00544 1.00276 0.982867
1.00536 1.00174 0.984784
1.00527 1.00088 0.985155
1.00376 1.00391 0.984719
1.00419 1.00447 0.983451
1.00427 1.00394 0.983904
1.00285 1.00369 0.986426
1.00338 1.00378 0.985901
1.0021 1.00316 0.986683
1.00023 1.00281 0.996696
1.00253 1.00373 0.987054
1.00354 1.0036 0.98554
1.00067 1.00029 0.997426
1.00198 1.00298 0.989111
1.00058 0.999694 0.997711
1.00439 1.00526 0.983425
1.00389 1.00296 0.986064
1.00222 1.00458 0.986027
1.00214 1.00516 0.987344
1.00285 1.00488 0.985786
1.00148 1.00425 0.987631
1.00049 1.00217 0.992198
1.00173 1.00517 0.987187
1.00288 1.00444 0.985845
1.00013 0.999151 0.99842
0.999944 1.00207 0.992874
1.00151 1.00521 0.98742
1.00005 0.998765 0.998503
1.00005 1.00161 0.993279
1.00003 0.998219 0.998693
0.994801 0.995721 0.786532
0.994756 0.994808 0.777305
0.994777 0.994825 0.763839
1.0031 1.00481 0.984382
1.00484 1.00299 0.986086
1.00139 1.00416 0.986936
1.00037 1.00518 0.989523
1.00471 1.0009 0.986899
0.996591 0.9993 0.997843
0.998066 1.00298 0.994338
1.00184 1.00203 0.989636
1.00087 1.00153 0.991919
0.998751 1.00252 0.994777
0.997362 1.00299 0.996401
0.99858 1.00301 0.996087
0.994821 0.999631 0.841026
0.994849 0.999453 0.797268
0.994819 0.994795 0.770542
0.994892 1.0002 0.802166
0.99482 0.997311 0.858569
0.994834 0.996076 0.912427
0.994989 1.00072 0.947908
0.995211 0.997322 0.952429
0.994815 0.9992 0.857722
0.995114 0.994777 0.908586
0.994912 0.994826 0.958794
0.994934 0.99454 0.908523
0.998188 0.997275 1.00498
0.998683 0.998073 1.00195
0.997391 1.00114 0.998158
0.995449 1.00085 0.981837
0.996196 0.999719 1.00376
0.995575 0.996656 0.99461
0.9954 0.994685 0.991986
0.999147 0.999941 0.844166
0.994837 0.994665 0.787999
0.994737 0.994802 0.77632
0.994852 1.00384 0.981325
0.99509 0.995048 0.948511
0.994836 0.997188 0.791439
0.99486 0.994586 0.907264
0.994765 0.998211 0.863498
0.996116 0.99788 0.982675
0.998629 0.997312 0.849593
0.995756 0.994606 0.915384
0.995231 0.994722 0.947316
0.997598 0.995673 0.981945
0.997411 0.99484 0.931561
0.994893 0.99471 0.95653
0.997444 1.00197 0.996471
1.00056 0.995966 0.995139
1.00344 0.995281 0.993021
1.00219 0.997308 0.992961
1.00453 0.994622 0.992342
1.00519 0.994565 0.991326
1.00508 0.996119 0.989332
1.00524 0.995009 0.990424
1.00544 0.994583 0.990428
1.00529 0.996669 0.988237
1.00546 0.994689 0.990302
1.00538 0.994722 0.990675
1.00542 0.994822 0.99069
1.00537 0.994751 0.990987
1.00539 0.994784 0.99097
1.00538 0.994812 0.990898
1.00545 0.994785 0.990699
1.00546 0.99476 0.990475
1.00551 0.995661 0.989341
1.00555 0.995652 0.989043
1.00556 0.995865 0.988977
1.00559 0.999979 0.985273
1.00554 0.998094 0.987384
1.00551 0.998119 0.987066
1.00537 1.00339 0.982018
1.00542 1.00311 0.983054
1.0054 1.0018 0.984711
1.0029 1.00419 0.986012
1.0038 1.00428 0.984595
1.00343 1.00458 0.983551
1.00155 1.00198 0.996277
1.00295 1.00388 0.986452
1.00298 1.00381 0.985801
1.00083 1.00212 0.99462
1.0028 1.00339 0.987328
1.00096 1.00097 0.997022
1.00492 1.00395 0.982585
1.00409 1.0053 0.98336
1.00362 1.00309 0.984972
1.00425 1.00266 0.986057
1.00333 1.00413 0.986135
1.00226 1.00521 0.986951
1.00162 1.00263 0.990259
1.00176 1.00516 0.987217
1.00201 1.0051 0.985779
1.00033 0.998866 0.998054
1.00043 1.00215 0.992163
1.00182 1.00519 0.987165
1.00005 0.998754 0.998418
1.00008 1.00174 0.992897
0.999994 0.998623 0.998546
0.997364 0.996018 0.85204
0.994828 0.996549 0.791639
0.994752 0.994808 0.777499
1.00353 1.00505 0.984768
1.00211 1.00515 0.986876
1.00453 1.00231 0.9854
1.00521 0.99893 0.987663
1.0031 0.999945 0.990459
1.001 1.00319 0.994012
1.00255 1.00058 0.990998
1.00149 1.00192 0.992166
1.00484 0.997276 0.9903
1.00179 1.00051 0.99273
1.00286 0.999114 0.992269
1.00019 1.00096 0.994996
0.999045 1.00283 0.996256
0.997385 0.994643 0.92673
0.99605 0.998673 0.848627
0.994797 0.998068 0.802387
0.994846 0.999707 0.841723
0.99478 0.994796 0.91922
0.995332 0.997832 0.956809
0.995145 0.994848 0.961316
0.995048 0.994582 0.924358
0.995522 0.994765 0.956441
0.997595 0.995024 1.0044
0.997655 0.997418 1.0051
0.998535 0.998266 1.00167
0.995347 0.996795 0.994301
0.996395 0.994896 0.993315
0.999338 0.997422 0.915201
0.99954 0.996842 0.854644
0.994858 0.994634 0.783616
0.99631 0.99736 0.978358
0.995046 0.994707 0.945495
0.999192 0.99643 0.849421
0.994818 0.994642 0.930436
0.997944 0.994839 0.982047
0.999159 0.995043 0.927295
0.995144 0.994706 0.952966
0.999505 0.994571 0.982362
0.998307 0.994691 0.965468
1.00026 0.996359 0.995025
1.00242 0.995152 0.993145
1.00489 0.994651 0.991652
1.00405 0.994658 0.992226
1.00507 0.99458 0.991256
1.00538 0.994655 0.990567
1.00521 0.995131 0.990294
1.00543 0.994608 0.99038
1.00542 0.994766 0.990363
1.00548 0.994688 0.990256
1.00538 0.994735 0.990689
1.0054 0.994794 0.990529
1.00543 0.994816 0.990645
1.00544 0.994849 0.990663
1.00537 0.994745 0.990945
1.0054 0.994774 0.990976
1.0054 0.994814 0.990918
1.00543 0.994949 0.990747
1.00539 0.994815 0.990882
1.00545 0.994799 0.990829
1.00552 0.998363 0.987023
1.00551 0.995758 0.989323
1.00555 0.995604 0.989104
1.00551 1.00375 0.981631
1.0056 1.00029 0.985306
1.00555 0.998169 0.987391
1.00342 1.00367 0.985354
1.00515 1.00398 0.98213
1.00539 1.0033 0.983245
1.00172 1.00189 0.995963
1.00297 1.00396 0.985896
1.00371 1.00456 0.984497
1.00153 1.0017 0.99615
1.00297 1.00369 0.98649
1.00138 1.00135 0.99637
1.00533 1.002 0.985349
1.00518 1.00446 0.982703
1.00388 1.00493 0.982345
1.0042 1.00456 0.983284
1.00333 1.00422 0.984508
1.00239 1.00445 0.985299
1.00337 1.00323 0.986219
1.00189 1.00491 0.98685
1.00231 1.00355 0.987947
1.00057 1.00065 0.997247
1.00101 1.00309 0.990223
1.00141 1.00515 0.987095
1.00017 0.999499 0.998207
0.999823 1.00273 0.992063
1.00004 0.998977 0.998431
0.99981 0.994837 0.932752
0.99938 0.998708 0.848516
0.994835 0.995661 0.786174
1.00162 1.00497 0.986812
1.00508 1.00203 0.984732
1.00367 1.00031 0.98962
1.00506 0.999292 0.987319
1.00536 0.996725 0.988884
1.00492 0.996112 0.990519
1.00211 1.00088 0.992354
1.00487 0.997698 0.98951
1.00206 1.00105 0.992357
1.00442 0.998749 0.989434
1.0023 1.0009 0.990346
1.0033 0.9983 0.993622
1.00251 1.00006 0.992555
1.00066 1.00015 0.995193
0.994946 0.99468 0.956769
0.995807 0.99463 0.921404
0.994802 0.999668 0.86546
0.994857 0.994549 0.907091
0.99486 0.995224 0.962639
0.995526 0.994755 0.963687
0.998563 0.994627 0.988963
0.998869 0.994775 1.00287
0.997321 0.997402 1.00523
0.997277 0.99474 0.994616
0.9994 0.994707 0.955359
1.00054 0.994843 0.931873
0.999083 1.00244 0.833164
0.99799 0.994695 0.982512
0.995465 0.994705 0.953799
0.997953 0.994727 0.922175
0.999668 0.994614 0.983095
0.997576 0.994722 0.964021
1.00129 0.995789 0.986931
1.00418 0.994564 0.982982
1.00127 0.994663 0.993303
1.0042 0.994641 0.991795
1.00532 0.994794 0.990642
1.00493 0.994578 0.991185
1.00539 0.994637 0.990559
1.00544 0.994733 0.990448
1.00543 0.994627 0.990331
1.00543 0.994756 0.990378
1.0054 0.994812 0.990572
1.00538 0.994744 0.990703
1.00541 0.9948 0.990535
1.00541 0.994862 0.990685
1.00543 0.994811 0.990601
1.00544 0.994848 0.990651
1.00538 0.994869 0.990876
1.0054 0.994768 0.990981
1.00539 0.994806 0.990927
1.00538 0.994924 0.990863
1.00542 0.996819 0.988868
1.00543 0.995091 0.990526
1.0054 0.994814 0.990866
1.00546 1.00226 0.983231
1.00553 0.998546 0.987015
1.0055 0.995861 0.989307
1.00379 1.00329 0.984985
1.00547 1.00386 0.981693
1.00561 1.00067 0.985339
1.00241 1.00207 0.995556
1.00331 1.00381 0.985237
1.00493 1.00464 0.982222
1.00196 1.0022 0.995767
1.00309 1.00388 0.985765
1.00163 1.00204 0.995984
1.0055 0.998578 0.986885
1.00518 1.00192 0.985063
1.00543 1.00336 0.983417
1.00491 1.00419 0.982807
1.00487 1.0048 0.982222
1.00363 1.00515 0.983023
1.00436 1.00543 0.984066
1.00364 1.00412 0.985474
1.00249 1.0041 0.986515
1.00246 1.00464 0.986807
1.00203 1.0038 0.987968
1.00083 1.00199 0.996449
1.00036 1.00012 0.997565
1.00081 1.00315 0.990215
1.00003 0.999014 0.998309
0.994873 0.994773 0.961219
0.99784 0.995206 0.916063
0.99913 1.00173 0.863672
1.00548 0.995165 0.989883
1.004 1.00076 0.988808
1.00507 0.999325 0.986979
1.00513 0.996455 0.990358
1.00539 0.996747 0.988974
1.00537 0.99568 0.989965
1.00476 0.998116 0.988764
1.00148 1.00125 0.992044
1.00449 0.998118 0.989455
1.00252 1.00137 0.989023
1.00341 0.999037 0.990189
1.00378 0.994463 0.99434
1.00219 0.997801 0.994151
1.00192 1.00046 0.99285
0.997394 0.994661 0.987266
0.995127 0.994682 0.954547
0.994908 0.994648 0.916553
0.99494 0.994727 0.963981
0.998585 0.994628 0.990904
0.999532 0.995057 1.0013
1.00465 0.994613 0.974018
1.00119 0.994734 0.952584
0.999664 0.99743 0.915874
0.999545 0.994665 0.98375
0.995994 0.994681 0.963942
1.00127 0.995259 0.987711
1.00263 0.994575 0.983657
1.00308 0.995875 0.989906
1.00554 0.994492 0.990385
1.00369 0.994652 0.991934
1.00532 0.994762 0.990607
1.00545 0.994959 0.990553
1.00539 0.994625 0.990551
1.00545 0.994748 0.990459
1.00541 0.994814 0.990737
1.00543 0.994749 0.990394
1.0054 0.994811 0.990551
1.00538 0.994863 0.990879
1.00541 0.994806 0.990541
1.00541 0.994864 0.990681
1.00538 0.994901 0.990881
1.00544 0.994846 0.990639
1.00538 0.994866 0.99084
1.00525 0.99488 0.991196
1.00539 0.994799 0.990935
1.0054 0.994879 0.990898
1.00538 0.995908 0.990133
1.00536 1.00132 0.984755
1.00545 0.997092 0.988617
1.00542 0.995225 0.990304
1.00403 1.00247 0.985456
1.00545 1.00247 0.983245
1.00553 0.998707 0.987007
1.00307 1.00164 0.995372
1.00375 1.00333 0.98504
1.00548 1.00407 0.981754
1.00252 1.00208 0.995475
1.00323 1.00388 0.985145
1.00207 1.00232 0.995622
1.0055 0.99627 0.988911
1.00547 0.998678 0.986904
1.00556 1.00083 0.985219
1.00491 1.00226 0.984787
1.00542 1.00335 0.98343
1.00497 1.00474 0.981671
1.00534 1.00495 0.982105
1.00425 1.00495 0.983015
1.00272 1.00419 0.985959
1.00318 1.00485 0.985504
1.00255 1.00424 0.986613
1.00107 1.00315 0.996094
1.00172 1.00412 0.987984
1.00058 1.00196 0.996744
1.00014 1.00031 0.997847
0.997929 0.994721 0.985168
0.996258 0.994792 0.955038
0.999989 0.994837 0.93226
1.00545 0.994803 0.990164
1.00545 0.994723 0.990401
1.00548 0.995151 0.989948
1.00526 0.996913 0.990169
1.00542 0.996685 0.989072
1.00537 0.995745 0.989974
1.00542 0.994988 0.990142
1.00467 0.997658 0.989458
1.00357 1.0022 0.987689
1.00384 0.998295 0.990225
1.00527 0.994563 0.991323
1.00374 0.994643 0.992883
1.0027 0.994433 0.994313
1.00191 0.997459 0.9947
0.998633 0.994635 0.987072
0.995476 0.994731 0.953695
0.99957 0.994612 0.99294
1.00531 0.99456 0.988955
1.0044 0.994605 0.973838
0.999151 0.994797 0.95421
1.0018 0.994718 0.988362
1.00108 0.994584 0.984365
1.00372 0.995341 0.990166
1.00547 0.994493 0.990668
1.00556 0.994716 0.990928
1.00563 0.994545 0.991382
1.00532 0.994728 0.990576
1.00545 0.99487 0.990582
1.00545 0.994812 0.991059
1.00545 0.994759 0.99047
1.00541 0.994812 0.990739
1.00537 0.994848 0.991074
1.00541 0.994809 0.990531
1.00538 0.994863 0.99088
1.00537 0.994905 0.991046
1.00541 0.994866 0.990678
1.00537 0.994901 0.990885
1.00523 0.994929 0.991288
1.00538 0.994863 0.990803
1.00529 0.994881 0.991135
1.00536 0.995349 0.990803
1.00542 0.994842 0.990933
1.00535 0.996007 0.990065
1.00531 1.00036 0.985872
1.00403 1.00175 0.986338
1.00533 1.00131 0.984783
1.00548 0.99738 0.988367
1.00357 1.00097 0.995272
1.00401 1.00252 0.985522
1.00547 1.00255 0.983264
1.00317 1.00162 0.995298
1.00368 1.00345 0.98509
1.0027 1.00222 0.995388
1.00543 0.995032 0.990289
1.00548 0.996204 0.989052
1.00547 0.998902 0.986997
1.0054 0.998769 0.986925
1.00553 1.00067 0.985154
1.00544 1.00426 0.98165
1.00545 1.00311 0.983441
1.00498 1.00486 0.98158
1.00289 1.00421 0.985397
1.00517 1.00373 0.98309
1.00273 1.0041 0.986068
1.00153 1.00277 0.995893
1.00258 1.00419 0.986714
1.00099 1.00261 0.996189
1.00035 1.00151 0.997041
1.00372 0.994775 0.9919
0.997567 0.994733 0.982439
0.99565 0.994777 0.957289
1.00546 0.99471 0.990239
1.00545 0.994805 0.99018
1.00536 0.994829 0.99076
1.00545 0.994733 0.990391
1.00548 0.99515 0.990002
1.00543 0.994671 0.990549
1.00537 0.995704 0.98998
1.00539 0.994855 0.990167
1.0053 0.994729 0.990973
1.00411 0.997578 0.990262
1.0053 0.994569 0.990889
1.00279 0.9949 0.993061
1.00131 0.994417 0.994312
0.99937 0.994596 0.986771
1.00554 0.994647 0.991649
1.00534 0.994556 0.989
1.00401 0.994591 0.973772
1.00419 0.994812 0.990372
1.0055 0.994523 0.990931
1.00554 0.994715 0.990798
1.00567 0.994566 0.99159
1.00551 0.994747 0.991554
1.00544 0.994784 0.990612
1.00545 0.994811 0.991054
1.00538 0.994841 0.99136
1.00542 0.994811 0.99074
1.00536 0.99485 0.991072
1.00535 0.994894 0.991262
1.00538 0.994863 0.990882
1.00536 0.994905 0.99105
1.00525 0.994947 0.991379
1.00536 0.994902 0.990889
1.00523 0.994929 0.99128
1.00532 0.995009 0.99134
1.00532 0.994882 0.991073
1.00531 0.995439 0.99078
1.00536 0.999485 0.98678
1.00532 0.9961 0.989998
1.00532 1.00035 0.985892
1.00385 1.00137 0.989141
1.00391 1.00001 0.991162
1.00408 1.00171 0.98741
1.0053 1.00129 0.984805
1.00349 1.00089 0.995312
1.004 1.00255 0.985573
1.00326 1.00155 0.995247
1.00532 0.994918 0.991051
1.00537 0.994823 0.990875
1.00544 0.995028 0.990401
1.00543 0.997177 0.988663
1.00548 0.996121 0.989192
1.0055 0.998671 0.986972
1.00545 1.00334 0.982441
1.00555 1.00064 0.985088
1.00548 1.00423 0.981585
1.00346 1.00386 0.984927
1.00526 1.00504 0.981481
1.00306 1.00412 0.98542
1.00227 1.00267 0.995493
1.00277 1.00412 0.986191
1.00146 1.00278 0.995994
1.00079 1.00276 0.996355
1.00542 0.99476 0.991511
1.00299 0.994809 0.991416
0.997667 0.994754 0.979529
1.00536 0.994811 0.99077
1.00545 0.99472 0.990202
1.00545 0.994804 0.990203
1.00534 0.994825 0.990817
1.00545 0.994746 0.990381
1.00538 0.9948 0.991127
1.0054 0.994658 0.990502
1.00535 0.994722 0.990188
1.00529 0.994718 0.991026
1.00532 0.99456 0.990451
1.00207 0.994648 0.993157
1.00549 0.994758 0.991532
1.00554 0.994639 0.991648
1.00539 0.994517 0.989047
1.00551 0.994712 0.990666
1.00569 0.994581 0.991795
1.00552 0.994737 0.991527
1.00538 0.994844 0.991623
1.00545 0.994806 0.991048
1.00538 0.994843 0.991319
1.00535 0.994889 0.991476
1.00536 0.994853 0.99107
1.00535 0.994894 0.991263
1.00527 0.994924 0.991518
1.00535 0.994905 0.991054
1.00524 0.994946 0.991384
1.00532 0.994932 0.991612
1.00524 0.994929 0.991273
1.00531 0.995046 0.991311
1.00539 0.998717 0.987643
1.00527 0.995527 0.990757
1.00538 0.999479 0.986782
1.00381 1.00091 0.989589
1.00532 1.00032 0.985915
1.00414 1.00117 0.988971
1.00358 0.999793 0.991524
1.00336 1.00033 0.993492
1.00436 1.00165 0.988242
1.00339 1.0008 0.995382
1.00531 0.994895 0.991079
1.00525 0.994902 0.991327
1.00533 0.99492 0.991085
1.00528 0.995952 0.990129
1.00535 0.994814 0.990936
1.00545 0.995027 0.990513
1.00542 0.996923 0.98871
1.00532 1.00183 0.984081
1.00547 0.998476 0.986951
1.00543 1.00344 0.982413
1.00378 1.00302 0.985397
1.00548 1.0041 0.981521
1.00348 1.00378 0.984921
1.00289 1.0021 0.995259
1.00315 1.004 0.985454
1.00202 1.00248 0.99567
1.00132 1.00261 0.996033
1.00542 0.994795 0.991341
1.00536 0.994765 0.991559
1.00163 0.995376 0.990986
1.00533 0.994855 0.99113
1.00536 0.994807 0.990727
1.00545 0.994729 0.99017
1.00532 0.994827 0.990872
1.00539 0.994803 0.991056
1.00538 0.994643 0.990455
1.00529 0.994698 0.991075
1.00541 0.994828 0.99161
1.00549 0.994762 0.991523
1.00553 0.994635 0.991646
1.00534 0.994866 0.991697
1.00555 0.994728 0.991501
1.00539 0.994844 0.991613
1.00535 0.994891 0.991629
1.00538 0.994843 0.991278
1.00535 0.994889 0.991481
1.00526 0.994917 0.99166
1.00536 0.994895 0.991264
1.00526 0.994924 0.991524
1.00534 0.994947 0.991731
1.00524 0.994945 0.991388
1.00532 0.994934 0.99159
1.00535 0.9981 0.98845
1.00531 0.995083 0.991281
1.0054 0.998721 0.987637
1.00369 1.00062 0.99002
1.0054 0.999468 0.986786
1.00407 1.00077 0.989413
1.00332 0.999841 0.991791
1.00442 1.00097 0.988807
1.00295 0.999987 0.991998
1.0024 1.0007 0.996294
1.00531 0.994903 0.991166
1.00518 0.994922 0.991433
1.00533 0.994906 0.991092
1.00525 0.996063 0.9903
1.00523 0.994898 0.991278
1.00535 0.99492 0.991123
1.00535 1.00025 0.98585
1.00532 0.995793 0.990171
1.00531 0.994804 0.990999
1.00538 0.996687 0.988757
1.00533 1.00195 0.984057
1.00386 1.00201 0.98642
1.00546 1.00356 0.982379
1.00379 1.00298 0.985358
1.00302 1.0014 0.995401
1.00354 1.00378 0.984907
1.00278 1.00216 0.995333
1.00194 1.00238 0.995859
1.00535 0.994855 0.991468
1.00542 0.99479 0.99129
1.00533 0.994778 0.991606
1.00532 0.994859 0.991146
1.00535 0.994805 0.990685
1.00541 0.99481 0.990986
1.00534 0.994871 0.991703
1.00541 0.994836 0.991625
1.00547 0.994767 0.991513
1.00534 0.994868 0.991726
1.00534 0.994906 0.99171
1.00539 0.994843 0.991602
1.00535 0.994894 0.991637
1.00526 0.99492 0.991747
1.00536 0.994889 0.991485
1.00526 0.994917 0.991665
1.00534 0.99495 0.991812
1.00526 0.994924 0.99153
1.00534 0.994947 0.991718
1.00532 0.997625 0.989057
1.00533 0.994936 0.991566
1.00536 0.998091 0.988439
1.0035 1.00042 0.990459
1.00541 0.998725 0.987632
1.00392 1.00052 0.989846
1.00302 0.999957 0.992049
1.00431 1.00064 0.989247
1.00278 0.999915 0.992264
1.00234 1.00021 0.992453
1.00533 0.994893 0.991426
1.0052 0.994936 0.991454
1.00532 0.994897 0.991149
1.00529 0.995603 0.990706
1.00518 0.99493 0.991433
1.00534 0.994915 0.991104
1.0054 0.999283 0.986971
1.00528 0.995586 0.990642
1.0052 0.994894 0.99123
1.00388 1.00124 0.987217
1.00533 1.00032 0.985829
1.00537 0.995607 0.990213
1.00536 1.00207 0.984032
1.00386 1.00202 0.986343
1.00298 1.0008 0.995611
1.00379 1.00294 0.985314
1.00312 1.00144 0.995331
1.00259 1.00209 0.99544
1.00532 0.994891 0.991659
1.00535 0.994853 0.991425
1.00542 0.994785 0.991238
1.00531 0.994861 0.991161
1.00532 0.994911 0.99171
1.00534 0.994871 0.99171
1.00541 0.994842 0.99164
1.00534 0.99487 0.991755
1.00533 0.994904 0.991721
1.00525 0.994931 0.991894
1.00535 0.994897 0.991646
1.00526 0.994923 0.99179
1.00534 0.994947 0.991794
1.00526 0.994917 0.991671
1.00534 0.99495 0.991808
1.0053 0.997317 0.989421
1.00534 0.994946 0.991707
1.00532 0.997613 0.989045
1.00349 1.00024 0.98896
1.00537 0.998091 0.988427
1.00372 1.00036 0.989389
1.00249 1.00003 0.996022
1.00414 1.00043 0.989673
1.00254 0.999978 0.992509
1.00227 0.999966 0.992717
1.00533 0.994912 0.99158
1.00521 0.994924 0.991568
1.00533 0.994895 0.991452
1.00529 0.994959 0.991523
1.0052 0.994932 0.99148
1.00533 0.994891 0.991132
1.00536 0.997926 0.988471
1.00529 0.995627 0.990688
1.00517 0.994938 0.991433
1.00383 1.00078 0.987793
1.00537 0.99884 0.987398
1.00532 0.995098 0.990983
1.00286 1.00041 0.995767
1.00387 1.00125 0.98717
1.00531 1.00037 0.98581
1.00385 1.00202 0.986272
1.0031 1.00083 0.995542
1.00319 1.00153 0.995288
1.00533 0.994918 0.991628
1.00533 0.994892 0.991649
1.00534 0.99485 0.991382
1.00522 0.994941 0.99195
1.00532 0.994909 0.991702
1.00535 0.994871 0.991717
1.00533 0.994902 0.991731
1.00525 0.99493 0.991896
1.00534 0.995227 0.991418
1.00526 0.994927 0.991834
1.00534 0.995112 0.991619
1.0053 0.996869 0.989984
1.00534 0.99495 0.991804
1.0053 0.997296 0.989411
1.00345 0.999935 0.989317
1.00533 0.997596 0.989035
1.00352 1.00019 0.988976
1.00236 1.00006 0.996076
1.00378 1.00031 0.988521
1.00229 1.00006 0.994475
1.00206 0.999972 0.992965
1.00534 0.994925 0.991623
1.00521 0.994935 0.991698
1.00533 0.994911 0.991583
1.00528 0.994953 0.991713
1.00521 0.994925 0.991585
1.00533 0.994897 0.991478
1.00532 0.997712 0.988859
1.00528 0.995241 0.991263
1.0052 0.994929 0.991507
1.00371 1.00057 0.988225
1.00536 0.997857 0.988538
1.00528 0.99565 0.990671
1.0027 1.00021 0.99588
1.00382 1.00082 0.987764
1.00534 0.998403 0.987829
1.00299 1.00041 0.995712
1.00387 1.00126 0.987116
1.00321 1.00086 0.99547
1.00521 0.994941 0.99191
1.00533 0.994918 0.991634
1.00533 0.994892 0.991638
1.00533 0.995279 0.991398
1.00523 0.994938 0.99194
1.00532 0.994906 0.991694
1.00525 0.994929 0.991898
1.00534 0.995281 0.99141
1.0053 0.99682 0.98997
1.00534 0.99529 0.991442
1.0053 0.997032 0.989771
1.0034 0.999709 0.989614
1.00531 0.997279 0.9894
1.00344 0.999943 0.989323
1.00225 1.00001 0.996159
1.00353 1.00016 0.988989
1.00231 1.00007 0.996103
1.0024 1.00005 0.992525
1.00521 0.994933 0.991871
1.00533 0.994924 0.991548
1.00529 0.994948 0.991801
1.00521 0.994936 0.991702
1.00533 0.99491 0.991586
1.00533 0.998141 0.98843
1.00528 0.994953 0.991714
1.00521 0.994927 0.991602
1.00361 1.00045 0.988556
1.00532 0.997965 0.98858
1.00528 0.995528 0.991002
1.00252 1.00018 0.995939
1.00369 1.00064 0.988209
1.00535 0.99779 0.988608
1.00281 1.00021 0.995839
1.0038 1.00087 0.98773
1.00312 1.00039 0.995663
1.00532 0.99534 0.99132
1.00522 0.99494 0.991931
1.00532 0.994918 0.99164
1.00531 0.996963 0.989824
1.00533 0.995328 0.991386
1.00523 0.994934 0.991931
1.00534 0.995338 0.991402
1.0053 0.996887 0.989975
1.00335 0.999577 0.989843
1.0053 0.997182 0.98956
1.00341 0.9997 0.989613
1.00216 0.999978 0.996249
1.00345 0.999948 0.989333
1.0022 1.00004 0.9962
1.00228 1.00007 0.996138
1.0053 0.994949 0.99189
1.00521 0.994933 0.991804
1.00533 0.994922 0.991473
1.00533 0.998013 0.988596
1.00529 0.994948 0.991801
1.00521 0.994937 0.991705
1.00351 1.00027 0.988905
1.00532 0.998168 0.988443
1.00529 0.994953 0.991714
1.00234 1.0002 0.995997
1.00358 1.0005 0.988553
1.00532 0.998213 0.988299
1.00259 1.00017 0.99592
1.00366 1.00071 0.988191
1.00296 1.00017 0.99579
1.00532 0.99765 0.989028
1.00532 0.995155 0.991595
1.00522 0.994939 0.991952
1.00331 0.999562 0.989952
1.00531 0.997001 0.989847
1.00533 0.99538 0.991375
1.0053 0.996949 0.98998
1.00337 0.999556 0.989835
1.00208 0.999952 0.99631
1.00342 0.999691 0.989612
1.00213 0.999979 0.996267
1.00214 1.00006 0.99623
1.00532 0.997887 0.9888
1.0053 0.994949 0.991848
1.00522 0.994933 0.991737
1.00358 1.0001 0.990695
1.00532 0.998045 0.988609
1.0053 0.994948 0.991801
1.00221 1.00019 0.996087
1.00348 1.00033 0.988907
1.00531 0.998199 0.988456
1.00241 1.00019 0.995977
1.00355 1.00055 0.98855
1.00268 1.00014 0.995898
1.00348 0.999578 0.989751
1.00531 0.997444 0.989325
1.00532 0.99495 0.991871
1.00199 0.999954 0.996377
1.00332 0.999528 0.989936
1.00531 0.99704 0.989871
1.00338 0.99953 0.989827
1.00205 0.999942 0.996335
1.00209 0.99999 0.996292
1.00367 0.999839 0.99091
1.00532 0.997896 0.988809
1.00531 0.994949 0.991806
1.00149 1.0002 0.996907
1.0034 1.00009 0.989268
1.00531 0.998073 0.988624
1.00224 1.0002 0.996061
1.00345 1.00039 0.988908
1.00247 1.00016 0.995957
1.00202 0.999785 0.993324
1.00348 0.999629 0.990462
1.00531 0.997253 0.989619
1.00201 0.999949 0.996378
1.00334 0.999505 0.989926
1.00205 0.999937 0.996351
1.00128 1.00004 0.993911
1.00354 0.99976 0.990247
1.00531 0.997909 0.988816
1.00175 1.00014 0.994943
1.00338 1.00008 0.989298
1.00228 1.00019 0.996035
1.00202 0.999957 0.996361
1.00331 0.999623 0.989861
1.002 0.999933 0.996371
1.00174 0.999922 0.995131
1.00339 0.999724 0.989649
1.00213 1.00016 0.99614
1.00199 0.999999 0.996352
1.00203 1.00004 0.996262

TENSORS stress float
0.003131 -0.000219652 0.000357801
-0.000219652 0.0017484 -7.04629e-05
0.000357801 -7.04629e-05 0.00171648
0.00950186 0.000267682 0.000462396
0.000267682 0.00596792 6.58287e-05
0.000462396 6.58287e-05 0.00599214
0.00267418 -0.000145705 0.000137397
-0.000145705 0.00143925 -2.60863e-05
0.000137397 -2.60863e-05 0.00138802
0.00271391 -0.000120274 0.00031754
-0.000120274 0.00147016 -3.77417e-05
0.00031754 -3.77417e-05 0.00145617
0.0030255 -0.000189936 0.000344152
-0.000189936 0.00167687 -6.01121e-05
0.000344152 -6.01121e-05 0.00165034
0.0032491 -0.000233708 0.000376548
-0.000233708 0.00181891 -7.62799e-05
0.000376548 -7.62799e-05 0.00178784
0.00250014 -0.000311129 6.87135e-05
-0.000311129 0.00109354 -1.79613e-05
6.87135e-05 -1.79613e-05 0.000899145
0.00975587 0.000274349 -7.25968e-06
0.000274349 0.00612612 -4.47911e-06
-7.25968e-06 -4.47911e-06 0.00615678
0.00789582 0.000324593 0.000216269
0.000324593 0.00495893 2.74401e-05
0.000216269 2.74401e-05 0.0049172
0.00859694 0.000177453 0.000167048
0.000177453 0.00535391 1.5163e-05
0.000167048 1.5163e-05 0.00532734
0.00302653 0.000296712 0.000418551
0.000296712 0.00170656 7.49834e-05
0.000418551 7.49834e-05 0.00167414
0.000280147 0.000393794 2.55989e-05
0.000393794 -0.000300542 2.87071e-05
2.55989e-05 2.87071e-05 -0.000565468
0.00218303 -2.08597e-05 0.000300297
-2.08597e-05 0.00111348 6.75988e-06
0.000300297 6.75988e-06 0.00112453
0.00193552 1.6671e-05 8.89802e-05
1.6671e-05 0.000980557 4.50935e-06
8.89802e-05 4.50935e-06 0.00092438
0.00228347 -0.000138839 -9.29134e-05
-0.000138839 0.0011993 1.87089e-05
-9.29134e-05 1.87089e-05 0.00111718
0.00233659 -0.000114669 0.000101148
-0.000114669 0.0012418 -7.30011e-06
0.000101148 -7.30011e-06 0.00120011
0.00277341 -0.000140178 0.000149996
-0.000140178 0.0014959 -2.97747e-05
0.000149996 -2.97747e-05 0.00144309
0.00259039 -0.000142989 0.000122168
-0.000142989 0.0013915 -1.89486e-05
0.000122168 -1.89486e-05 0.00134265
0.00262532 -0.000344922 -5.63442e-05
-0.000344922 0.00117548 1.08549e-05
-5.63442e-05 1.08549e-05 0.000994027
0.006972 -0.000186782 0.000402682
-0.000186782 0.00435058 -2.37086e-05
0.000402682 -2.37086e-05 0.00438583
0.00255544 -9.27005e-05 0.00030749
-9.27005e-05 0.00136683 -2.8744e-05
0.00030749 -2.8744e-05 0.00135788
0.00288648 -0.000154047 0.000330167
-0.000154047 0.00158385 -4.84167e-05
0.000330167 -4.84167e-05 0.00156423
0.00225029 -0.000217535 8.03105e-05
-0.000217535 0.000974056 -1.317e-05
8.03105e-05 -1.317e-05 0.000846008
0.00246554 -0.000291199 7.56956e-05
-0.000291199 0.00108566 -1.72856e-05
7.56956e-05 -1.72856e-05 0.000915391
0.00354331 -0.00022729 0.000403768
-0.00022729 0.00198771 -7.74766e-05
0.000403768 -7.74766e-05 0.00196164
0.00252983 -0.000336182 6.71688e-05
-0.000336182 0.00109798 -1.92796e-05
6.71688e-05 -1.92796e-05 0.000871768
0.00241323 -0.000609491 1.17848e-05
-0.000609491 0.000630861 -5.85917e-06
1.17848e-05 -5.85917e-06 0.000273977
0.0100916 0.000278806 -0.00051755
0.000278806 0.00633107 -6.24918e-05
-0.00051755 -6.24918e-05 0.0063692
0.00533675 0.000239317 -0.000185145
0.000239317 0.00323214 -2.48179e-05
-0.000185145 -2.48179e-05 0.00320286
0.00588725 0.000207831 -0.000203116
0.000207831 0.00357457 -2.85153e-05
-0.000203116 -2.85153e-05 0.00354841
0.0103211 0.00022661 -7.13538e-06
0.00022661 0.00649377 -3.7875e-06
-7.13538e-06 -3.7875e-06 0.00652733
0.00024741 0.000374008 -7.7278e-07
0.000374008 -0.000320564 -1.49589e-06
-7.7278e-07 -1.49589e-06 -0.000583197
0.00233908 9.26764e-05 0.000316012
9.26764e-05 0.0012133 3.49696e-05
0.000316012 3.49696e-05 0.0012035
0.002544 0.000189498 0.000345295
0.000189498 0.0013657 5.77465e-05
0.000345295 5.77465e-05 0.0013395
0.00319784 0.000332638 0.000194406
0.000332638 0.00157131 3.23003e-05
0.000194406 3.23003e-05 0.00143317
0.00950157 -9.98538e-05 0.00010279
-9.98538e-05 0.00598224 5.85765e-06
0.00010279 5.85765e-06 0.00594524
0.00354985 0.000462417 0.000219147
0.000462417 0.00184555 4.59512e-05
0.000219147 4.59512e-05 0.00165605
0.00012736 0.000349803 2.08129e-05
0.000349803 -0.000375537 3.96785e-05
2.08129e-05 3.96785e-05 -0.000649668
0.00194424 0.000726531 1.40384e-05
0.000726531 0.0003761 5.42773e-06
1.40384e-05 5.42773e-06 -9.67858e-05
0.00836071 -5.69466e-06 0.000352347
-5.69466e-06 0.00532248 4.98115e-05
0.000352347 4.98115e-05 0.00532999
0.00689719 0.000100654 2.38734e-06
0.000100654 0.00428339 -2.41188e-06
2.38734e-06 -2.41188e-06 0.00432912
0.00459023 0.00011883 -0.000151915
0.00011883 0.00274606 -8.33914e-06
-0.000151915 -8.33914e-06 0.00273755
0.00677809 5.9147e-05 0.000391175
5.9147e-05 0.00420549 5.96646e-06
0.000391175 5.96646e-06 0.00425312
0.00179647 9.37601e-05 9.0135e-05
9.37601e-05 0.000894476 7.8163e-06
9.0135e-05 7.8163e-06 0.000841378
0.000333928 2.42122e-05 1.15787e-05
2.42122e-05 -0.000255116 3.09703e-06
1.15787e-05 3.09703e-06 -0.000357035
0.00709888 0.000266737 0.000226117
0.000266737 0.00445967 2.48232e-05
0.000226117 2.48232e-05 0.0044312
0.00299564 0.000129182 0.000171935
0.000129182 0.00147471 1.39619e-05
0.000171935 1.39619e-05 0.0014047
0.00195065 -0.000114707 -0.000104414
-0.000114707 0.00100863 1.51389e-05
-0.000104414 1.51389e-05 0.000938877
0.00214245 -0.000153428 -0.00010359
-0.000153428 0.00112543 2.03515e-05
-0.00010359 2.03515e-05 0.00104243
0.00236589 -0.000106115 -8.0888e-05
-0.000106115 0.00123013 1.64076e-05
-8.0888e-05 1.64076e-05 0.00115107
0.00270684 -0.000343269 -0.000187027
-0.000343269 0.00121388 3.89864e-05
-0.000187027 3.89864e-05 0.00105166
0.00447546 -5.82184e-05 -0.000152775
-5.82184e-05 0.00267493 3.37056e-08
-0.000152775 3.37056e-08 0.00266916
0.0022474 -9.2102e-05 0.000103528
-9.2102e-05 0.00118125 -5.75593e-06
0.000103528 -5.75593e-06 0.00114598
0.0031317 -0.000128238 0.000162621
-0.000128238 0.00171592 -3.17946e-05
0.000162621 -3.17946e-05 0.0016619
0.0024609 -0.000128547 0.000109401
-0.000128547 0.00131551 -1.20568e-05
0.000109401 -1.20568e-05 0.00127036
0.00234259 -0.0001981 -4.46234e-05
-0.0001981 0.00101762 4.57095e-06
-4.46234e-05 4.57095e-06 0.000906598
0.00266887 -0.000386879 -6.45512e-05
-0.000386879 0.00119238 1.2609e-05
-6.45512e-05 1.2609e-05 0.000978665
0.0025494 -0.000302523 -5.06842e-05
-0.000302523 0.00113472 8.15556e-06
-5.06842e-05 8.15556e-06 0.000978946
0.00253446 -0.000618296 -9.82406e-06
-0.000618296 0.000710427 2.77199e-06
-9.82406e-06 2.77199e-06 0.000355666
0.00677675 -3.40043e-05 0.000388874
-3.40043e-05 0.00420087 -7.52013e-06
0.000388874 -7.52013e-06 0.00424972
0.00246751 -6.54278e-05 0.000301111
-6.54278e-05 0.00130983 -2.08276e-05
0.000301111 -2.08276e-05 0.00130722
0.00244202 -4.83064e-05 6.16854e-05
-4.83064e-05 0.00116078 -1.59876e-06
6.16854e-05 -1.59876e-06 0.00108203
0.0021844 -0.000166952 7.19951e-05
-0.000166952 0.000947442 -9.05591e-06
7.19951e-05 -9.05591e-06 0.000840036
0.00233498 -0.000255397 7.9478e-05
-0.000255397 0.00100931 -1.55481e-05
7.9478e-05 -1.55481e-05 0.00086096
0.00229722 -0.000387745 2.26575e-06
-0.000387745 0.000448879 -1.48027e-06
2.26575e-06 -1.48027e-06 0.000240456
0.00234549 -0.000545945 6.74606e-06
-0.000545945 0.000536499 -3.1724e-06
6.74606e-06 -3.1724e-06 0.00024586
0.00355192 -0.000204455 0.000407042
-0.000204455 0.00199803 -7.32311e-05
0.000407042 -7.32311e-05 0.00197426
0.00282349 -0.00031926 5.57239e-05
-0.00031926 0.00132701 -1.8359e-05
5.57239e-05 -1.8359e-05 0.00108297
0.00250528 -0.000708001 1.01472e-05
-0.000708001 0.000724048 -5.65464e-06
1.01472e-05 -5.65464e-06 0.000289485
0.00237198 -0.000800267 -2.98854e-06
-0.000800267 0.000325899 2.29732e-06
-2.98854e-06 2.29732e-06 -4.58444e-05
0.00850125 0.000382937 -0.000481124
0.000382937 0.00534562 -6.65685e-05
-0.000481124 -6.65685e-05 0.00536058
0.0102476 0.000190842 -0.000485315
0.000190842 0.00645028 -5.50873e-05
-0.000485315 -5.50873e-05 0.00648603
0.00931493 0.000322113 -0.000497624
0.000322113 0.00583847 -6.52443e-05
-0.000497624 -6.52443e-05 0.00587064
0.000136935 0.000359021 -2.19076e-05
0.000359021 -0.000384808 -2.94338e-05
-2.19076e-05 -2.94338e-05 -0.000648178
0.00780391 0.000302355 -2.90342e-06
0.000302355 0.00488519 -3.20206e-06
-2.90342e-06 -3.20206e-06 0.00490818
0.00864971 0.000366137 -7.14677e-06
0.000366137 0.00542862 -4.66981e-06
-7.14677e-06 -4.66981e-06 0.00544476
0.00038923 0.000235077 -3.29811e-07
0.000235077 -0.000304615 -4.17891e-07
-3.29811e-07 -4.17891e-07 -0.000493492
0.00612428 5.51756e-05 -0.000212142
5.51756e-05 0.00376639 -2.03437e-05
-0.000212142 -2.03437e-05 0.00373337
0.000355022 0.000334581 3.78613e-07
0.000334581 -0.000284235 -3.12334e-07
3.78613e-07 -3.12334e-07 -0.000524794
0.00197469 0.000402902 0.000107844
0.000402902 0.000858906 1.02331e-05
0.000107844 1.02331e-05 0.000624839
0.00178819 0.000740543 -1.23165e-06
0.000740543 0.000249176 9.2642e-08
-1.23165e-06 9.2642e-08 -0.000234401
0.00936123 3.36455e-05 0.00040435
3.36455e-05 0.00595245 5.59433e-05
0.00040435 5.59433e-05 0.00596537
0.000632134 0.000306208 3.61058e-05
0.000306208 -2.88649e-05 2.03461e-05
3.61058e-05 2.03461e-05 -0.000187459
0.00052908 0.000188518 1.49115e-05
0.000188518 -0.00020915 1.26903e-05
1.49115e-05 1.26903e-05 -0.000371577
0.000530137 0.000277894 1.83254e-05
0.000277894 -0.000204208 2.32669e-05
1.83254e-05 2.32669e-05 -0.000414551
0.00189357 0.000534691 1.01834e-05
0.000534691 0.000158232 4.53311e-06
1.01834e-05 4.53311e-06 -0.000141188
0.00345054 0.000433948 0.00023847
0.000433948 0.00186599 4.7417e-05
0.00023847 4.7417e-05 0.00168063
0.00177945 0.000667219 1.64426e-05
0.000667219 0.00019453 6.4598e-06
1.64426e-05 6.4598e-06 -0.000220782
0.00179234 0.000734325 2.39384e-05
0.000734325 0.000400018 2.88863e-06
2.39384e-05 2.88863e-06 -0.00015297
0.00220593 0.000954787 -7.98937e-06
0.000954787 0.000299924 -6.62288e-06
-7.98937e-06 -6.62288e-06 -0.000233356
0.00756417 -0.000148864 0.000246719
-0.000148864 0.00483088 3.33525e-05
0.000246719 3.33525e-05 0.0048109
0.00818837 -0.000106668 1.04224e-05
-0.000106668 0.00522002 5.81151e-06
1.04224e-05 5.81151e-06 0.00521161
0.00735912 0.00010613 -0.00041215
0.00010613 0.00457214 -2.59659e-05
-0.00041215 -2.59659e-05 0.00461504
0.00698038 9.39832e-05 -0.000402411
9.39832e-05 0.00433344 -1.60375e-05
-0.000402411 -1.60375e-05 0.00438052
0.00685465 8.46713e-05 -5.07361e-07
8.46713e-05 0.00425961 -4.85797e-06
-5.07361e-07 -4.85797e-06 0.00430546
0.00444991 6.31247e-05 -0.000161894
6.31247e-05 0.00265023 -1.02683e-05
-0.000161894 -1.02683e-05 0.00264877
0.00145646 5.35154e-05 7.72685e-05
5.35154e-05 0.000489262 2.79346e-06
7.72685e-05 2.79346e-06 0.000411327
0.00481706 0.000183429 -0.000156796
0.000183429 0.00290217 -1.12072e-05
-0.000156796 -1.12072e-05 0.00288334
0.001613 0.000138824 7.85231e-05
0.000138824 0.000552499 5.01261e-06
7.85231e-05 5.01261e-06 0.000451756
0.00680186 9.66275e-05 0.000393819
9.66275e-05 0.00423104 6.87105e-06
0.000393819 6.87105e-06 0.00427322
0.000161854 1.14902e-05 1.35497e-05
1.14902e-05 -0.000357494 1.83144e-06
1.35497e-05 1.83144e-06 -0.000454357
0.00289973 7.57711e-05 0.000169855
7.57711e-05 0.00143211 9.8181e-06
0.000169855 9.8181e-06 0.00137484
0.00163113 0.000122353 7.37109e-06
0.000122353 -6.73576e-05 1.56525e-06
7.37109e-06 1.56525e-06 -0.000186946
0.00289594 0.00019276 0.000176423
0.00019276 0.00138698 1.78756e-05
0.000176423 1.78756e-05 0.00129767
0.00168253 0.000259377 5.44818e-06
0.000259377 -5.68158e-05 1.93248e-06
5.44818e-06 1.93248e-06 -0.00021398
0.00218945 2.42426e-05 -0.000299518
2.42426e-05 0.0011125 6.53905e-06
-0.000299518 6.53905e-06 0.00112677
0.0019028 -4.49482e-05 -9.05866e-05
-4.49482e-05 0.000965318 6.18476e-06
-9.05866e-05 6.18476e-06 0.000906734
0.00262068 -8.72879e-05 -7.96955e-05
-8.72879e-05 0.00138734 1.63189e-05
-7.96955e-05 1.63189e-05 0.00130501
0.00200225 -0.000134187 -0.00010795
-0.000134187 0.00103983 1.85203e-05
-0.00010795 1.85203e-05 0.000964133
0.00245355 -0.000177058 -0.000163185
-0.000177058 0.00107473 1.77941e-05
-0.000163185 1.77941e-05 0.000980632
0.00265985 -0.000286487 -0.000177889
-0.000286487 0.00118897 3.16208e-05
-0.000177889 3.16208e-05 0.00105324
0.00289623 -0.000421289 -0.000196657
-0.000421289 0.00134871 4.34186e-05
-0.000196657 4.34186e-05 0.001146
0.00265209 -0.000629284 -2.83209e-05
-0.000629284 0.000785652 9.63156e-06
-2.83209e-05 9.63156e-06 0.000432139
0.00685556 -0.000132356 2.64719e-06
-0.000132356 0.00427006 -2.25395e-06
2.64719e-06 -2.25395e-06 0.00430936
0.00215013 -5.21398e-06 0.000109798
-5.21398e-06 0.00110242 -6.81282e-06
0.000109798 -6.81282e-06 0.00108096
0.00124323 -3.4943e-05 -7.99099e-05
-3.4943e-05 0.000344286 3.84606e-06
-7.99099e-05 3.84606e-06 0.000269616
0.00226533 -0.00013475 -4.59912e-05
-0.00013475 0.000985903 4.97502e-06
-4.59912e-05 4.97502e-06 0.000894466
0.00677391 -0.000212428 0.000394292
-0.000212428 0.00414164 -4.71587e-05
0.000394292 -4.71587e-05 0.00414439
0.00320032 -0.000396631 -6.32588e-05
-0.000396631 0.00159537 8.911e-06
-6.32588e-05 8.911e-06 0.00137081
0.00243439 -0.00025111 -4.62869e-05
-0.00025111 0.00106388 5.90396e-06
-4.62869e-05 5.90396e-06 0.000931592
0.00229478 -0.00038901 -8.29798e-06
-0.00038901 0.000437667 1.25525e-06
-8.29798e-06 1.25525e-06 0.000237083
0.00273051 -0.000739522 -7.18557e-06
-0.000739522 0.000885473 2.01709e-06
-7.18557e-06 2.01709e-06 0.000444874
0.00236966 -0.000546141 -1.17148e-05
-0.000546141 0.000555469 3.76803e-06
-1.17148e-05 3.76803e-06 0.000259622
0.00241335 -0.000804266 1.07039e-06
-0.000804266 0.000357798 -1.27947e-08
1.07039e-06 -1.27947e-08 -1.53573e-05
0.000196472 -5.34487e-06 1.45185e-05
-5.34487e-06 -0.000345737 1.51061e-07
1.45185e-05 1.51061e-07 -0.000439957
0.00214212 -5.537e-05 6.43519e-05
-5.537e-05 0.000929548 -3.586e-06
6.43519e-05 -3.586e-06 0.000845562
0.00213753 -0.000139605 2.27588e-06
-0.000139605 0.000310693 -8.89969e-10
2.27588e-06 -8.89969e-10 0.000205137
0.00225054 -0.000306991 7.13776e-07
-0.000306991 0.00040439 -4.37254e-07
7.13776e-07 -4.37254e-07 0.000245825
0.00234119 -0.000473698 3.63447e-06
-0.000473698 0.000496613 -1.93413e-06
3.63447e-06 -1.93413e-06 0.000256847
0.00247611 -0.000513881 3.87873e-06
-0.000513881 0.000231797 -2.2962e-06
3.87873e-06 -2.2962e-06 6.18802e-05
0.00967895 -0.00013397 0.00042319
-0.00013397 0.00609577 -4.93658e-05
0.00042319 -4.93658e-05 0.00612081
0.00236046 -0.000724335 9.88354e-07
-0.000724335 0.000248162 5.68221e-07
9.88354e-07 5.68221e-07 -5.24548e-05
5.05318e-05 -0.000300519 1.79338e-05
-0.000300519 -0.000450937 -3.27474e-05
1.79338e-05 -3.27474e-05 -0.000694195
0.00162522 -0.000781128 -8.70237e-06
-0.000781128 0.000163498 -1.97325e-06
-8.70237e-06 -1.97325e-06 -0.000370233
0.00249246 -0.000892013 -7.88491e-06
-0.000892013 0.000491348 3.99109e-06
-7.88491e-06 3.99109e-06 3.73511e-05
0.00254119 -0.000891161 9.10588e-07
-0.000891161 0.000338296 -2.87504e-06
9.10588e-07 -2.87504e-06 7.165e-06
0.000242192 -0.000270142 2.22654e-05
-0.000270142 -0.000263744 -2.81114e-05
2.22654e-05 -2.81114e-05 -0.000472606
0.00202583 -0.000364812 6.57737e-06
-0.000364812 0.000927439 2.37666e-06
6.57737e-06 2.37666e-06 0.000543154
0.00803389 0.000333132 -0.000464197
0.000333132 0.00503965 -5.70861e-05
-0.000464197 -5.70861e-05 0.00506043
0.00888744 0.000371869 -0.000487169
0.000371869 0.00558185 -6.83328e-05
-0.000487169 -6.83328e-05 0.00560243
0.000363609 0.000237059 -1.67524e-05
0.000237059 -0.000321813 -1.61959e-05
-1.67524e-05 -1.61959e-05 -0.00051322
0.0095112 9.36952e-05 -0.000418186
9.36952e-05 0.00600105 -4.64104e-05
-0.000418186 -4.64104e-05 0.0060279
0.000100557 0.000327461 -2.43946e-05
0.000327461 -0.000388926 -3.36762e-05
-2.43946e-05 -3.36762e-05 -0.000640736
0.000277806 0.000326651 -1.87609e-05
0.000326651 -0.000334143 -2.55038e-05
-1.87609e-05 -2.55038e-05 -0.000576762
0.00156442 0.000745867 -1.64364e-05
0.000745867 7.70807e-05 -5.40204e-06
-1.64364e-05 -5.40204e-06 -0.000416397
0.00904305 4.29181e-05 -1.6331e-05
4.29181e-05 0.0057361 -3.55129e-07
-1.6331e-05 -3.55129e-07 0.00575233
0.000801266 0.000267865 1.8262e-06
0.000267865 7.74755e-05 7.52685e-07
1.8262e-06 7.52685e-07 -7.79679e-05
0.00183094 0.000241911 8.50418e-05
0.000241911 0.000657408 8.98683e-06
8.50418e-05 8.98683e-06 0.000515044
0.00197828 0.000346194 9.42854e-05
0.000346194 0.000769202 1.21172e-05
9.42854e-05 1.21172e-05 0.000578335
0.00182165 0.000529604 -3.9904e-07
0.000529604 0.000115511 -3.65221e-07
-3.9904e-07 -3.65221e-07 -0.00018444
5.06026e-05 0.000302998 2.95732e-06
0.000302998 -0.000398086 -1.21822e-06
2.95732e-06 -1.21822e-06 -0.00063467
0.00186913 0.000674215 2.44095e-07
0.000674215 0.000254539 3.25561e-08
2.44095e-07 3.25561e-08 -0.000163245
0.00139278 0.000704948 -2.57353e-07
0.000704948 0.000115647 -1.88741e-06
-2.57353e-07 -1.88741e-06 -0.000430009
0.00237054 0.000976192 4.50083e-07
0.000976192 0.00040933 9.09849e-07
4.50083e-07 9.09849e-07 -0.000123774
0.000403407 0.000279789 1.98798e-05
0.000279789 -0.000158537 3.02828e-05
1.98798e-05 3.02828e-05 -0.000369722
0.000966996 0.000216074 2.56572e-05
0.000216074 0.000234852 2.15995e-05
2.56572e-05 2.15995e-05 8.84314e-05
-0.00134251 0.000484113 1.30391e-05
0.000484113 -0.0011071 -1.68931e-05
1.30391e-05 -1.68931e-05 -0.00153368
0.00186671 0.000452589 9.09217e-06
0.000452589 9.63207e-05 3.34333e-06
9.09217e-06 3.34333e-06 -0.000149632
0.00185655 0.000598757 1.43647e-05
0.000598757 0.000171539 6.2086e-06
1.43647e-05 6.2086e-06 -0.000181152
0.0024009 0.000734667 2.30948e-06
0.000734667 0.000250366 5.47255e-07
2.30948e-06 5.47255e-07 -4.3598e-05
0.00142865 0.000616924 2.64576e-05
0.000616924 0.000349249 -2.33906e-06
2.64576e-05 -2.33906e-06 -0.000176915
0.00269222 0.000967584 -5.80453e-06
0.000967584 0.000596027 -3.67255e-06
-5.80453e-06 -3.67255e-06 0.00012889
0.00289591 0.00124867 -1.06591e-05
0.00124867 0.000929758 -8.99747e-06
-1.06591e-05 -8.99747e-06 0.000185275
0.00215552 0.000951899 -7.68172e-06
0.000951899 0.00012045 -3.64078e-06
-7.68172e-06 -3.64078e-06 -0.000364333
0.0063423 -0.000148747 0.000183651
-0.000148747 0.00401147 2.1802e-05
0.000183651 2.1802e-05 0.00399319
0.00718979 -0.000167049 4.90154e-06
-0.000167049 0.00457203 3.44443e-06
4.90154e-06 3.44443e-06 0.00454922
0.00802653 -0.000145654 -0.000245764
-0.000145654 0.00509696 -2.08982e-05
-0.000245764 -2.08982e-05 0.00508466
0.000723978 -0.000312767 2.9686e-05
-0.000312767 7.9018e-05 -2.78096e-05
2.9686e-05 -2.78096e-05 -0.000104921
0.00901567 -6.92981e-05 0.000377867
-6.92981e-05 0.00570808 -4.68734e-05
0.000377867 -4.68734e-05 0.00572423
0.00764729 0.000264281 -0.000444104
0.000264281 0.00478011 -4.49201e-05
-0.000444104 -4.49201e-05 0.00480998
0.00708577 0.000129523 -0.000404361
0.000129523 0.00440093 -2.24825e-05
-0.000404361 -2.24825e-05 0.00444422
0.000253112 0.000137475 -1.45299e-05
0.000137475 -0.00035621 -7.72892e-06
-1.45299e-05 -7.72892e-06 -0.000483511
0.000160282 5.46215e-05 -1.37051e-05
5.46215e-05 -0.000373152 -3.93343e-06
-1.37051e-05 -3.93343e-06 -0.0004769
0.00680236 5.84473e-06 -0.000389121
5.84473e-06 0.00421672 -5.08213e-06
-0.000389121 -5.08213e-06 0.00426563
0.00674609 -8.72884e-06 1.20078e-07
-8.72884e-06 0.00418053 -1.48004e-06
1.20078e-07 -1.48004e-06 0.00422995
0.000143921 5.89319e-06 -4.39618e-08
5.89319e-06 -0.000373454 2.57554e-07
-4.39618e-08 2.57554e-07 -0.000469023
0.00150961 7.29655e-05 7.80608e-05
7.29655e-05 0.000503688 4.27699e-06
7.80608e-05 4.27699e-06 0.000418894
0.00163217 0.000124793 1.30321e-07
0.000124793 -5.18023e-05 -5.48181e-08
1.30321e-07 -5.48181e-08 -0.000172308
0.000356347 0.000149993 -8.88735e-07
0.000149993 -0.000305596 -3.05135e-07
-8.88735e-07 -3.05135e-07 -0.000449208
0.0017045 0.000260421 -1.71936e-07
0.000260421 -1.55291e-05 1.85152e-08
-1.71936e-07 1.85152e-08 -0.000173906
0.000142086 -3.2171e-05 1.43764e-05
-3.2171e-05 -0.00037591 -7.77482e-08
1.43764e-05 -7.77482e-08 -0.000468465
0.0015949 5.73564e-05 6.23655e-06
5.73564e-05 -7.87046e-05 1.06628e-06
6.23655e-06 1.06628e-06 -0.000190334
0.00164416 0.000192308 6.36447e-06
0.000192308 -6.70447e-05 1.99219e-06
6.36447e-06 1.99219e-06 -0.000201731
0.00244391 0.000189947 4.62151e-06
0.000189947 0.000112242 9.63083e-07
4.62151e-06 9.63083e-07 7.2657e-05
0.00177374 0.000353697 7.60671e-06
0.000353697 9.64177e-06 2.46582e-06
7.60671e-06 2.46582e-06 -0.000186102
0.00245453 0.000393849 5.31656e-06
0.000393849 0.000157263 1.44119e-06
5.31656e-06 1.44119e-06 5.97671e-05
0.00677562 -9.61976e-05 -0.000392399
-9.61976e-05 0.00421157 7.72642e-06
-0.000392399 7.72642e-06 0.00425451
0.00179982 -0.000170126 -9.00067e-05
-0.000170126 0.000924228 1.28579e-05
-9.00067e-05 1.28579e-05 0.000855403
-4.58838e-05 -2.07656e-05 -8.88833e-06
-2.07656e-05 -0.000513475 1.16189e-06
-8.88833e-06 1.16189e-06 -0.000617835
0.00237855 -0.000125882 -0.000158142
-0.000125882 0.00104981 1.28236e-05
-0.000158142 1.28236e-05 0.000972829
0.00983166 4.64394e-05 -0.00012238
4.64394e-05 0.0061391 6.69876e-06
-0.00012238 6.69876e-06 0.00610824
0.00357077 -0.000465723 -0.000208731
-0.000465723 0.00186418 4.85124e-05
-0.000208731 4.85124e-05 0.00165198
0.00256756 -0.000232413 -0.000169568
-0.000232413 0.00113515 2.40757e-05
-0.000169568 2.40757e-05 0.00102111
0.00229105 -0.000389675 -2.12864e-05
-0.000389675 0.000425665 4.17159e-06
-2.12864e-05 4.17159e-06 0.000233186
0.00237179 -0.000544727 -2.57973e-05
-0.000544727 0.000557598 9.13462e-06
-2.57973e-05 9.13462e-06 0.000257023
0.00282094 -0.000750937 -3.2342e-05
-0.000750937 0.00095702 1.14177e-05
-3.2342e-05 1.14177e-05 0.00051687
0.00243144 -0.000804181 2.40921e-06
-0.000804181 0.000378777 -1.56623e-06
2.40921e-06 -1.56623e-06 5.23719e-06
0.000153179 -7.04975e-06 6.9054e-08
-7.04975e-06 -0.000370979 4.50341e-07
6.9054e-08 4.50341e-07 -0.000465748
0.00222142 -0.000124306 -4.46885e-05
-0.000124306 0.00098977 1.45024e-06
-4.46885e-05 1.45024e-06 0.000909047
0.00200482 -0.000137856 -1.26554e-05
-0.000137856 0.000214579 7.242e-07
-1.26554e-05 7.242e-07 0.000109416
0.00223405 -0.000302905 -1.2277e-05
-0.000302905 0.000388963 2.10761e-06
-1.2277e-05 2.10761e-06 0.00022547
0.00990482 -0.000136387 5.16414e-06
-0.000136387 0.00623793 -1.64188e-06
5.16414e-06 -1.64188e-06 0.00626436
0.00190477 -0.000334338 1.52402e-05
-0.000334338 0.000794818 9.70778e-07
1.52402e-05 9.70778e-07 0.000544293
0.00219698 -0.000774336 7.42536e-06
-0.000774336 0.000557 -3.20311e-06
7.42536e-06 -3.20311e-06 4.79654e-05
0.00239796 -0.000480305 -1.15658e-05
-0.000480305 0.000535188 3.16886e-06
-1.15658e-05 3.16886e-06 0.00029385
0.00242359 -0.000514781 2.9285e-06
-0.000514781 0.000184879 -1.0031e-06
2.9285e-06 -1.0031e-06 2.79828e-05
0.0025149 -0.000890777 2.26522e-06
-0.000890777 0.00051103 -5.32365e-07
2.26522e-06 -5.32365e-07 5.93764e-05
0.00231424 -0.000713676 4.12487e-07
-0.000713676 0.000218621 4.68219e-07
4.12487e-07 4.68219e-07 -8.42292e-05
0.00250634 -0.000886081 -5.40179e-07
-0.000886081 0.000317562 8.47858e-07
-5.40179e-07 8.47858e-07 -1.28006e-05
0.000172481 -0.00029474 1.92034e-06
-0.00029474 -0.000312741 -2.14787e-07
1.92034e-06 -2.14787e-07 -0.000524541
0.000883173 -0.000390284 -2.10951e-06
-0.000390284 0.000239611 4.106e-07
-2.10951e-06 4.106e-07 -0.000186477
0.00157803 -6.48759e-05 5.57884e-06
-6.48759e-05 -7.05384e-05 -1.9069e-07
5.57884e-06 -1.9069e-07 -0.000183877
0.00234026 -0.000222069 1.01629e-06
-0.000222069 0.000451554 -2.69366e-07
1.01629e-06 -2.69366e-07 0.000328292
0.00224207 -0.000198297 4.60284e-06
-0.000198297 -2.91387e-05 -9.07132e-07
4.60284e-06 -9.07132e-07 -9.08079e-05
0.00232508 -0.000414943 2.07508e-06
-0.000414943 6.05117e-05 -1.06962e-06
2.07508e-06 -1.06962e-06 -4.12539e-05
0.00230689 -0.000633743 1.0685e-06
-0.000633743 0.000141132 -1.6032e-06
1.0685e-06 -1.6032e-06 -8.85884e-05
0.00249848 -0.000529148 4.87812e-06
-0.000529148 0.000184113 -1.72608e-06
4.87812e-06 -1.72608e-06 8.53187e-05
0.000169781 -0.000278535 1.70545e-05
-0.000278535 -0.000340629 -3.2494e-05
1.70545e-05 -3.2494e-05 -0.00057332
0.00253342 -0.000789174 2.345e-06
-0.000789174 0.000254613 -2.34644e-06
2.345e-06 -2.34644e-06 2.2504e-05
0.00149995 -0.00070927 -1.01256e-06
-0.00070927 0.000131414 -5.17626e-06
-1.01256e-06 -5.17626e-06 -0.000402028
0.0023791 -0.00100389 2.46818e-06
-0.00100389 0.000452734 1.36699e-06
2.46818e-06 1.36699e-06 -0.000106944
0.00268082 -0.00096462 -6.85686e-07
-0.00096462 0.000521198 -2.61233e-06
-6.85686e-07 -2.61233e-06 9.03348e-05
0.00253018 -0.000916446 3.18436e-06
-0.000916446 0.000233422 -1.55954e-06
3.18436e-06 -1.55954e-06 -2.3895e-05
0.00156085 -0.000455852 1.46008e-05
-0.000455852 0.000592164 4.4207e-06
1.46008e-05 4.4207e-06 0.000103909
0.00133508 -0.000325173 6.68038e-06
-0.000325173 0.000628437 -2.22197e-06
6.68038e-06 -2.22197e-06 0.000255548
0.00157643 -0.000609342 7.07749e-06
-0.000609342 0.000642677 4.02756e-06
7.07749e-06 4.02756e-06 3.25146e-05
0.000388556 0.000199672 -1.59103e-05
0.000199672 -0.000305032 -1.21415e-05
-1.59103e-05 -1.21415e-05 -0.000474052
0.00872797 -2.23075e-06 -0.000353223
-2.23075e-06 0.0055292 -3.51188e-05
-0.000353223 -3.51188e-05 0.00554576
0.000362463 0.000200369 -1.99375e-05
0.000200369 -0.000178408 -2.22016e-05
-1.99375e-05 -2.22016e-05 -0.000338922
0.000330556 0.00028137 -1.79019e-05
0.00028137 -0.000329141 -2.1454e-05
-1.79019e-05 -2.1454e-05 -0.000545273
0.00175368 0.000525483 -1.15307e-05
0.000525483 7.42303e-05 -4.83735e-06
-1.15307e-05 -4.83735e-06 -0.000226448
0.000286373 0.00028765 -2.03458e-05
0.00028765 -0.000256405 -3.07408e-05
-2.03458e-05 -3.07408e-05 -0.000486197
0.0011671 0.000701566 -2.04842e-05
0.000701566 -7.48887e-05 -3.96161e-06
-2.04842e-05 -3.96161e-06 -0.000614557
0.00188385 0.000671421 -1.88759e-05
0.000671421 0.000270255 -6.75067e-06
-1.88759e-05 -6.75067e-06 -0.000147522
0.00246009 0.00099248 3.08407e-07
0.00099248 0.00046002 4.6518e-06
3.08407e-07 4.6518e-06 -7.23656e-05
0.00028723 0.000289446 -8.19637e-06
0.000289446 -0.000237835 9.44869e-08
-8.19637e-06 9.44869e-08 -0.000438713
0.000427768 0.000178255 -2.17385e-06
0.000178255 -9.52427e-05 1.96402e-06
-2.17385e-06 1.96402e-06 -0.000242339
0.00108118 0.000499492 1.96627e-06
0.000499492 0.000367529 8.57282e-07
1.96627e-06 8.57282e-07 1.42292e-05
0.00182403 0.000448036 -5.12289e-07
0.000448036 8.12623e-05 -2.80297e-07
-5.12289e-07 -2.80297e-07 -0.000164851
0.00182673 0.000593232 -3.16319e-07
0.000593232 0.000162002 -2.05943e-07
-3.16319e-07 -2.05943e-07 -0.000190353
0.00245322 0.00074198 -6.65956e-07
0.00074198 0.000281233 -2.1699e-07
-6.65956e-07 -2.1699e-07 -1.44805e-05
0.000901027 0.00054423 6.25107e-06
0.00054423 -2.49585e-05 -2.38421e-06
6.25107e-06 -2.38421e-06 -0.000519923
0.00265987 0.000957145 -2.17034e-06
0.000957145 0.000574278 -1.0918e-06
-2.17034e-06 -1.0918e-06 0.000111125
0.00255539 0.00120952 -2.85091e-06
0.00120952 0.000672741 -1.69325e-06
-2.85091e-06 -1.69325e-06 -5.69137e-05
0.0020932 0.000939192 -2.76652e-07
0.000939192 6.13302e-05 5.02814e-06
-2.76652e-07 5.02814e-06 -0.000413327
0.00104536 0.00014631 1.79798e-05
0.00014631 0.00036107 2.13132e-05
1.79798e-05 2.13132e-05 0.000233775
0.000283662 0.000664231 9.32845e-06
0.000664231 -0.000172147 -1.21237e-05
9.32845e-06 -1.21237e-05 -0.000619518
0.000754958 0.00030207 -3.41481e-06
0.00030207 0.000234219 -8.60687e-07
-3.41481e-06 -8.60687e-07 -0.000133633
-0.00168853 0.000261984 -8.53808e-06
0.000261984 -0.00136012 -5.687e-06
-8.53808e-06 -5.687e-06 -0.00176895
0.00243343 0.000633501 3.08812e-06
0.000633501 0.000218926 1.47823e-06
3.08812e-06 1.47823e-06 -6.21283e-07
0.00248097 0.000839246 -9.69726e-07
0.000839246 0.000373783 -1.1715e-06
-9.69726e-07 -1.1715e-06 -2.25434e-06
0.00258988 0.000803375 2.54467e-06
0.000803375 0.000268129 1.43854e-06
2.54467e-06 1.43854e-06 2.28672e-05
0.00280089 0.00118684 -1.10692e-05
0.00118684 0.00114489 -1.77158e-05
-1.10692e-05 -1.77158e-05 0.000323769
0.00270723 0.00102188 -4.03429e-06
0.00102188 0.000501164 1.07946e-06
-4.03429e-06 1.07946e-06 6.24042e-05
0.00289368 0.00132986 -8.55691e-06
0.00132986 0.000810564 -1.23993e-05
-8.55691e-06 -1.23993e-05 4.4935e-05
0.00238268 0.000944953 -2.67142e-06
0.000944953 0.000140141 1.47612e-06
-2.67142e-06 1.47612e-06 -0.000305415
0.00119524 0.000189814 -4.10666e-06
0.000189814 0.000583748 9.69007e-06
-4.10666e-06 9.69007e-06 0.00039997
0.000524214 9.26455e-05 9.90747e-06
9.26455e-05 7.14555e-05 1.55864e-05
9.90747e-06 1.55864e-05 -1.07282e-05
0.00500497 -0.000156618 9.92707e-05
-0.000156618 0.00310874 1.5104e-05
9.92707e-05 1.5104e-05 0.00308968
0.00573249 -0.000195615 2.22801e-05
-0.000195615 0.00361017 -9.21768e-07
2.22801e-05 -9.21768e-07 0.00358005
0.00651582 -0.000239079 -0.000132912
-0.000239079 0.00414527 -1.80327e-05
-0.000132912 -1.80327e-05 0.00410269
0.000324926 -0.000295748 3.37658e-05
-0.000295748 -0.000122485 -1.97116e-05
3.37658e-05 -1.97116e-05 -0.000266942
0.00786175 1.22883e-05 0.000278503
1.22883e-05 0.00498094 -3.68838e-05
0.000278503 -3.68838e-05 0.00498261
0.000505513 -0.000322529 4.08677e-06
-0.000322529 -7.61292e-05 4.89037e-07
4.08677e-06 4.89037e-07 -0.000260877
0.00930391 -9.03574e-05 7.34963e-06
-9.03574e-05 0.0058883 -1.34601e-06
7.34963e-06 -1.34601e-06 0.005905
0.0003439 0.000172954 -1.58749e-05
0.000172954 -0.000317928 -9.75971e-06
-1.58749e-05 -9.75971e-06 -0.000466103
0.00019137 6.17287e-05 -1.25847e-05
6.17287e-05 -0.000377078 -4.78065e-06
-1.25847e-05 -4.78065e-06 -0.00048836
0.0017359 0.000261359 -5.45086e-06
0.000261359 2.66452e-05 -1.52208e-06
-5.45086e-06 -1.52208e-06 -0.000132772
0.0016398 0.000126912 -6.89041e-06
0.000126912 -3.25647e-05 -1.46747e-06
-6.89041e-06 -1.46747e-06 -0.000153842
0.000186433 9.9531e-07 -1.40531e-05
9.9531e-07 -0.000349182 -1.7751e-06
-1.40531e-05 -1.7751e-06 -0.000443661
0.00684006 -0.000103382 -0.000400225
-0.000103382 0.00425669 7.44838e-06
-0.000400225 7.44838e-06 0.00429983
0.00017646 -4.33811e-06 -5.04947e-08
-4.33811e-06 -0.000353102 -6.72687e-07
-5.04947e-08 -6.72687e-07 -0.000445422
0.00160501 6.23718e-05 3.33096e-08
6.23718e-05 -6.46167e-05 2.97484e-08
3.33096e-08 2.97484e-08 -0.000176771
0.00166892 0.000191629 6.10465e-08
0.000191629 -3.34939e-05 8.12924e-08
6.10465e-08 8.12924e-08 -0.000168707
0.0024624 0.000187937 -1.45548e-07
0.000187937 0.000124472 1.29943e-07
-1.45548e-07 1.29943e-07 8.50094e-05
0.00177261 0.000350944 -4.70188e-07
0.000350944 2.71274e-05 -1.01304e-07
-4.70188e-07 -1.01304e-07 -0.000168956
0.0024511 0.000393386 -1.20905e-07
0.000393386 0.000148845 1.50838e-07
-1.20905e-07 1.50838e-07 5.1048e-05
0.00158738 -4.63679e-06 5.19179e-06
-4.63679e-06 -6.88913e-05 3.79262e-07
5.19179e-06 3.79262e-07 -0.00017918
0.00246043 9.24158e-05 5.28337e-06
9.24158e-05 0.000116058 4.78472e-07
5.28337e-06 4.78472e-07 8.77211e-05
0.00243152 0.000288106 4.42501e-06
0.000288106 0.000122751 1.26698e-06
4.42501e-06 1.26698e-06 5.74952e-05
0.00224048 0.000189249 3.52323e-06
0.000189249 -4.41059e-05 6.27098e-07
3.52323e-06 6.27098e-07 -2.17375e-05
0.00244251 0.000508879 4.82091e-06
0.000508879 0.000174602 1.89095e-06
4.82091e-06 1.89095e-06 2.68375e-05
0.00228683 0.000369428 3.81032e-06
0.000369428 -1.37931e-05 7.15095e-07
3.81032e-06 7.15095e-07 -4.50706e-05
0.000186052 -1.13778e-05 -1.35142e-05
-1.13778e-05 -0.00034419 4.87818e-08
-1.35142e-05 4.87818e-08 -0.000440718
0.00228325 -8.07529e-05 -0.000155931
-8.07529e-05 0.00101223 9.04008e-06
-0.000155931 9.04008e-06 0.00094884
0.00184534 -0.000135812 -1.7226e-05
-0.000135812 9.99734e-05 1.52082e-06
-1.7226e-05 1.52082e-06 -5.03614e-06
0.00218053 -0.000298563 -1.92883e-05
-0.000298563 0.000344691 3.18931e-06
-1.92883e-05 3.18931e-06 0.000176077
0.0100499 -0.000164402 -0.000461361
-0.000164402 0.00632277 5.94436e-05
-0.000461361 5.94436e-05 0.00635011
0.0037839 -0.00045507 -0.000234891
-0.00045507 0.00204502 4.65487e-05
-0.000234891 4.65487e-05 0.00183478
0.00262999 -0.000784199 -1.04261e-05
-0.000784199 0.000889468 7.80673e-06
-1.04261e-05 7.80673e-06 0.000390098
0.00243753 -0.000486105 -2.58251e-05
-0.000486105 0.000560923 7.44842e-06
-2.58251e-05 7.44842e-06 0.000318165
0.0023617 -0.000515042 -3.97019e-07
-0.000515042 0.00013032 4.96815e-07
-3.97019e-07 4.96815e-07 -1.33843e-05
0.00228932 -0.000704637 8.8652e-08
-0.000704637 0.000204725 6.77776e-07
8.8652e-08 6.77776e-07 -0.000100494
0.00259623 -0.000902001 7.09291e-06
-0.000902001 0.000559726 -2.77042e-06
7.09291e-06 -2.77042e-06 0.000106136
0.00242645 -0.000878009 6.58635e-07
-0.000878009 0.000261622 3.30633e-06
6.58635e-07 3.30633e-06 -6.72054e-05
0.000162989 -0.000309709 -2.25742e-05
-0.000309709 -0.000316422 2.99977e-05
-2.25742e-05 2.99977e-05 -0.000533246
-0.000877057 -0.000355578 -5.21418e-06
-0.000355578 -0.000813565 -4.34729e-06
-5.21418e-06 -4.34729e-06 -0.00129398
0.0016706 -6.28569e-05 9.10102e-07
-6.28569e-05 -1.0622e-05 -7.61655e-08
9.10102e-07 -7.61655e-08 -0.000116058
0.00222371 -0.000220539 -1.15813e-05
-0.000220539 0.000364641 1.31097e-06
-1.15813e-05 1.31097e-06 0.000240572
0.00224643 -0.000194423 2.16675e-06
-0.000194423 -2.92943e-05 -3.1562e-07
2.16675e-06 -3.1562e-07 -8.58675e-05
0.00233449 -0.000412459 -1.1217e-06
-0.000412459 8.80874e-05 1.91932e-07
-1.1217e-06 1.91932e-07 -2.62055e-05
7.08056e-05 -0.000299791 -2.64714e-06
-0.000299791 -0.000392249 -5.68739e-07
-2.64714e-06 -5.68739e-07 -0.000632178
0.00148798 -0.000709772 -7.96576e-07
-0.000709772 0.000164561 -2.83911e-07
-7.96576e-07 -2.83911e-07 -0.000375706
0.00246627 -0.00102234 2.58764e-07
-0.00102234 0.000502511 1.50422e-06
2.58764e-07 1.50422e-06 -7.06784e-05
0.00237736 -0.000631702 1.64329e-06
-0.000631702 0.000205797 -8.07039e-07
1.64329e-06 -8.07039e-07 -2.86349e-05
0.00242248 -0.000526798 -1.13988e-07
-0.000526798 0.000109052 8.08397e-08
-1.13988e-07 8.08397e-08 1.94076e-05
0.00262209 -0.000957623 2.36038e-06
-0.000957623 0.00047696 -1.65516e-06
2.36038e-06 -1.65516e-06 5.28563e-05
0.00252602 -0.000787748 -6.62479e-07
-0.000787748 0.000249475 1.95169e-07
-6.62479e-07 1.95169e-07 1.82138e-05
0.00250165 -0.000926566 2.27028e-07
-0.000926566 0.000207194 1.2946e-07
2.27028e-07 1.2946e-07 -5.13289e-05
0.00083029 -0.000442716 -3.23017e-06
-0.000442716 0.000127633 1.53959e-07
-3.23017e-06 1.53959e-07 -0.000380944
0.00151868 -0.000562591 5.13881e-07
-0.000562591 0.00062557 -8.38991e-07
5.13881e-07 -8.38991e-07 3.12034e-05
0.000736573 -0.000285209 -7.50622e-08
-0.000285209 0.000303527 8.7083e-08
-7.50622e-08 8.7083e-08 -9.80198e-05
0.00225492 -9.82349e-05 4.98132e-06
-9.82349e-05 -2.2054e-05 -3.8996e-07
4.98132e-06 -3.8996e-07 -7.15015e-05
0.00226687 -0.000294761 2.43294e-06
-0.000294761 -9.87682e-06 -1.0904e-06
2.43294e-06 -1.0904e-06 -8.5766e-05
0.00232444 -0.000178298 6.35356e-06
-0.000178298 4.77185e-05 -6.25959e-07
6.35356e-06 -6.25959e-07 5.76149e-05
0.00231538 -0.000412609 2.5741e-06
-0.000412609 1.11482e-05 -6.06677e-07
2.5741e-06 -6.06677e-07 -2.97969e-05
0.00236498 -0.000668799 2.43243e-06
-0.000668799 7.93768e-05 -9.13532e-07
2.43243e-06 -9.13532e-07 -6.80716e-05
0.00257988 -0.000572675 4.17192e-07
-0.000572675 8.97294e-05 2.27117e-07
4.17192e-07 2.27117e-07 5.55561e-05
0.00137454 -0.000571822 1.29614e-05
-0.000571822 0.000301215 -3.07946e-06
1.29614e-05 -3.07946e-06 -0.000235361
0.00257869 -0.000830979 1.79762e-06
-0.000830979 0.000170881 -1.27666e-06
1.79762e-06 -1.27666e-06 1.51546e-05
0.00240207 -0.00115719 1.14742e-06
-0.00115719 0.000578384 -1.32192e-06
1.14742e-06 -1.32192e-06 -0.000124698
0.00279503 -0.00110058 1.15965e-05
-0.00110058 0.000626583 -1.18578e-06
1.15965e-05 -1.18578e-06 7.91748e-05
0.00272625 -0.00098758 8.00191e-06
-0.00098758 0.0004923 -3.731e-06
8.00191e-06 -3.731e-06 0.000112939
0.00263126 -0.00097262 5.89646e-06
-0.00097262 0.000212464 -1.631e-06
5.89646e-06 -1.631e-06 1.58209e-06
-0.000969995 -0.000161232 4.61801e-06
-0.000161232 -0.000801925 -1.5725e-06
4.61801e-06 -1.5725e-06 -0.00117674
0.00164798 -0.000825081 4.67632e-06
-0.000825081 0.000547787 1.17686e-05
4.67632e-06 1.17686e-05 -0.00018228
6.86804e-05 -0.000309948 2.71238e-05
-0.000309948 -2.22303e-05 2.87223e-06
2.71238e-05 2.87223e-06 -0.000588287
0.00184581 -0.000889874 2.10402e-05
-0.000889874 0.000872485 1.68595e-05
2.10402e-05 1.68595e-05 0.000100703
0.00177285 0.000443056 -1.01362e-05
0.000443056 6.01677e-05 -3.41857e-06
-1.01362e-05 -3.41857e-06 -0.000186015
-4.79173e-05 0.000176744 -1.96896e-05
0.000176744 -0.000387357 -2.2729e-05
-1.96896e-05 -2.2729e-05 -0.000541388
0.000626535 0.000267901 -2.68454e-05
0.000267901 -3.67971e-05 -2.60717e-05
-2.68454e-05 -2.60717e-05 -0.000220789
0.00207459 0.000385411 5.06949e-07
0.000385411 0.00101413 1.93357e-05
5.06949e-07 1.93357e-05 0.000675049
0.00178572 0.000588562 -1.58116e-05
0.000588562 0.000141656 -6.1029e-06
-1.58116e-05 -6.1029e-06 -0.000210852
0.00250655 0.000749366 -2.47383e-06
0.000749366 0.000313314 -6.24008e-07
-2.47383e-06 -6.24008e-07 1.57695e-05
0.000621196 0.000467681 -2.31739e-05
0.000467681 -0.000236177 -5.04107e-06
-2.31739e-05 -5.04107e-06 -0.000697745
0.00232935 0.00116669 2.95484e-06
0.00116669 0.000518951 2.73034e-06
2.95484e-06 2.73034e-06 -0.000192517
0.00263945 0.000950319 6.33121e-06
0.000950319 0.00055869 4.53689e-06
6.33121e-06 4.53689e-06 9.82971e-05
0.00203787 0.000924831 7.1033e-06
0.000924831 1.87959e-05 1.23385e-05
7.1033e-06 1.23385e-05 -0.000445002
0.000482837 0.000120029 -1.76141e-06
0.000120029 1.34159e-05 1.89604e-07
-1.76141e-06 1.89604e-07 -0.000117047
0.00138607 0.000486592 -7.99216e-06
0.000486592 0.000501602 4.40404e-06
-7.99216e-06 4.40404e-06 9.08299e-05
0.00020502 0.000326661 2.17222e-06
0.000326661 -0.000121357 -1.77549e-06
2.17222e-06 -1.77549e-06 -0.000491706
0.000425791 0.000389778 -3.77471e-06
0.000389778 -3.71208e-05 1.04147e-05
-3.77471e-06 1.04147e-05 -0.000456992
0.00246009 0.000639958 -6.87099e-07
0.000639958 0.000228076 -3.06803e-07
-6.87099e-07 -3.06803e-07 6.72738e-06
0.00245907 0.000839902 -1.08592e-06
0.000839902 0.000354639 -2.77096e-07
-1.08592e-06 -2.77096e-07 -2.18441e-05
0.00255768 0.000797641 3.41928e-07
0.000797641 0.000250631 1.55779e-08
3.41928e-07 1.55779e-08 8.18112e-06
0.0023348 0.00115407 -4.27608e-07
0.00115407 0.000832888 -1.45462e-06
-4.27608e-07 -1.45462e-06 4.63833e-06
0.00272024 0.00102441 1.07645e-06
0.00102441 0.000525538 4.76178e-07
1.07645e-06 4.76178e-07 8.17911e-05
0.00277043 0.00130059 -1.89591e-06
0.00130059 0.000754724 -3.80824e-06
-1.89591e-06 -3.80824e-06 -4.94972e-07
0.00274649 0.000944934 -9.21e-06
0.000944934 0.000420223 2.66277e-06
-9.21e-06 2.66277e-06 -1.28249e-05
0.000815965 0.000100763 1.16056e-05
0.000100763 0.00023758 1.88377e-05
1.16056e-05 1.88377e-05 0.000141664
0.0020487 0.00027317 1.71507e-06
0.00027317 0.00112377 1.50572e-05
1.71507e-06 1.50572e-05 0.000789298
5.68164e-05 0.00072397 -4.42638e-06
0.00072397 -0.000299742 -2.63413e-05
-4.42638e-06 -2.63413e-05 -0.000953456
0.000341813 0.000528773 1.61356e-05
0.000528773 -4.9747e-05 2.79241e-06
1.61356e-05 2.79241e-06 -0.000440024
0.00133682 0.000373337 1.22942e-06
0.000373337 0.000345407 1.02253e-05
1.22942e-06 1.02253e-05 -6.99411e-05
0.00250963 0.000664948 2.03417e-06
0.000664948 0.000146453 9.57264e-07
2.03417e-06 9.57264e-07 9.84e-07
0.00256884 0.00092856 4.04587e-07
0.00092856 0.000330316 2.01762e-06
4.04587e-07 2.01762e-06 -1.90259e-05
0.00263088 0.000871283 -1.09612e-06
0.000871283 0.000221655 1.4777e-06
-1.09612e-06 1.4777e-06 6.21489e-07
0.00271603 0.00152668 4.23211e-06
0.00152668 0.0011052 -1.0073e-05
4.23211e-06 -1.0073e-05 0.000102988
0.00297007 0.00106349 -6.16097e-06
0.00106349 0.00057309 1.21308e-06
-6.16097e-06 1.21308e-06 0.000154979
0.00227001 0.00134422 6.89992e-06
0.00134422 0.000321122 -3.50618e-06
6.89992e-06 -3.50618e-06 -0.000439869
0.000951334 0.00019634 -4.90117e-09
0.00019634 0.000417906 9.905e-06
-4.90117e-09 9.905e-06 0.000194569
0.000791447 0.000248191 -1.03794e-05
0.000248191 0.000480122 5.60867e-06
-1.03794e-05 5.60867e-06 0.000150653
0.000976924 0.000153369 -1.63621e-06
0.000153369 0.000443283 4.53206e-06
-1.63621e-06 4.53206e-06 0.000299509
0.000423739 8.28117e-05 -3.53089e-06
8.28117e-05 7.43812e-05 -3.53966e-07
-3.53089e-06 -3.53966e-07 -9.72363e-05
0.00192827 2.72119e-05 1.74932e-06
2.72119e-05 0.00102143 9.98672e-06
1.74932e-06 9.98672e-06 0.000963742
0.00110516 5.9261e-05 -2.1239e-06
5.9261e-05 0.000463213 9.17496e-08
-2.1239e-06 9.17496e-08 0.000388385
0.0012456 1.39678e-05 0.000111323
1.39678e-05 0.000557902 2.08816e-05
0.000111323 2.08816e-05 0.000546137
0.00505149 -0.000153066 1.31217e-05
-0.000153066 0.00314211 -1.56215e-06
1.31217e-05 -1.56215e-06 0.00312287
0.00570288 -0.00023388 -0.000100052
-0.00023388 0.00361185 -1.71075e-05
-0.000100052 -1.71075e-05 0.00356934
0.000259849 -0.00018548 3.37575e-05
-0.00018548 -0.000106606 -1.28297e-05
3.37575e-05 -1.28297e-05 -0.000214891
0.00579414 0.000143951 0.000149699
0.000143951 0.00366195 -2.11723e-05
0.000149699 -2.11723e-05 0.00363708
0.000526629 -0.000265747 1.53269e-06
-0.000265747 1.73257e-05 2.65123e-06
1.53269e-06 2.65123e-06 -0.000141708
0.00816693 -1.45289e-05 2.32327e-06
-1.45289e-05 0.00519647 1.80341e-06
2.32327e-06 1.80341e-06 0.0051974
0.00025375 -0.000333242 -3.08888e-05
-0.000333242 -0.000249634 2.59361e-05
-3.08888e-05 2.59361e-05 -0.000434712
0.00946455 -9.16514e-05 -0.000411417
-9.16514e-05 0.00598735 5.56382e-05
-0.000411417 5.56382e-05 0.00600569
0.00177773 0.000347604 -8.01964e-06
0.000347604 5.2507e-05 -2.32618e-06
-8.01964e-06 -2.32618e-06 -0.000143689
0.00167833 0.000191561 -6.09071e-06
0.000191561 -6.81757e-06 -1.44384e-06
-6.09071e-06 -1.44384e-06 -0.000142855
0.00245858 0.000390956 -5.54654e-06
0.000390956 0.000148247 -1.1871e-06
-5.54654e-06 -1.1871e-06 5.05626e-05
0.00247827 0.000186112 -4.7804e-06
0.000186112 0.000135714 -6.61449e-07
-4.7804e-06 -6.61449e-07 9.62917e-05
0.00161709 6.76328e-05 -6.11434e-06
6.76328e-05 -4.85501e-05 -8.7029e-07
-6.11434e-06 -8.7029e-07 -0.000161205
0.000145822 2.55068e-05 -1.42079e-05
2.55068e-05 -0.000375108 -1.63468e-06
-1.42079e-05 -1.63468e-06 -0.000465509
0.00159388 1.30746e-06 -2.9034e-08
1.30746e-06 -6.41397e-05 -3.5758e-08
-2.9034e-08 -3.5758e-08 -0.000174422
0.00246635 9.0382e-05 -1.36386e-07
9.0382e-05 0.000120857 1.0221e-07
-1.36386e-07 1.0221e-07 9.28136e-05
0.00245545 0.000287214 -2.29917e-08
0.000287214 0.000135547 1.37308e-07
-2.29917e-08 1.37308e-07 7.16315e-05
0.00224218 0.000184724 -3.05588e-07
0.000184724 -5.18051e-05 -6.41651e-08
-3.05588e-07 -6.41651e-08 -2.17851e-05
0.00245611 0.000512722 -3.35109e-07
0.000512722 0.000177242 6.46352e-08
-3.35109e-07 6.46352e-08 2.89594e-05
0.00229038 0.000371428 -1.00218e-07
0.000371428 -7.28927e-06 2.03158e-07
-1.00218e-07 2.03158e-07 -4.0606e-05
0.00246176 -4.93741e-06 5.02972e-06
-4.93741e-06 0.000119062 8.76726e-08
5.02972e-06 8.76726e-08 9.22705e-05
0.00220669 8.69639e-05 2.23346e-06
8.69639e-05 -7.48586e-05 2.37414e-07
2.23346e-06 2.37414e-07 -3.38232e-05
0.00225027 0.000267387 4.01514e-06
0.000267387 -2.92703e-05 8.1227e-07
4.01514e-06 8.1227e-07 -2.99164e-05
0.0023729 0.000188114 6.4164e-07
0.000188114 -8.33739e-05 1.50777e-07
6.4164e-07 1.50777e-07 -1.19829e-05
0.00241251 0.000520775 2.90638e-06
0.000520775 5.43881e-05 7.64464e-07
2.90638e-06 7.64464e-07 -1.67499e-05
0.00244757 0.000410131 -6.93027e-08
0.000410131 -6.8068e-05 -5.83598e-07
-6.93027e-08 -5.83598e-07 -3.08596e-05
0.00178433 -6.10487e-05 -7.99146e-06
-6.10487e-05 6.78381e-05 3.37277e-07
-7.99146e-06 3.37277e-07 -2.94471e-05
0.00213514 -0.000219081 -2.22777e-05
-0.000219081 0.000297812 2.7071e-06
-2.22777e-05 2.7071e-06 0.000172917
0.00226482 -0.000189409 1.06147e-06
-0.000189409 -2.11311e-05 1.31263e-08
1.06147e-06 1.31263e-08 -7.24564e-05
0.00236247 -0.000409758 -2.24074e-06
-0.000409758 0.000130809 1.49508e-06
-2.24074e-06 1.49508e-06 4.35004e-06
4.65354e-05 -0.000329476 -2.24145e-05
-0.000329476 -0.000400642 3.26079e-05
-2.24145e-05 3.26079e-05 -0.000647536
0.00178344 -0.000727129 -1.9797e-06
-0.000727129 0.000364756 4.42509e-06
-1.9797e-06 4.42509e-06 -0.000177836
0.00241537 -0.001026 3.11907e-06
-0.001026 0.000455115 1.47502e-07
3.11907e-06 1.47502e-07 -0.000127583
0.00244713 -0.000629144 7.41508e-08
-0.000629144 0.000270269 3.26026e-07
7.41508e-08 3.26026e-07 3.12882e-05
0.00234689 -0.000524619 -2.47651e-06
-0.000524619 3.47614e-05 8.02046e-07
-2.47651e-06 8.02046e-07 -4.57739e-05
0.00253085 -0.000787414 -2.37267e-06
-0.000787414 0.000253913 2.2454e-06
-2.37267e-06 2.2454e-06 2.30546e-05
0.00260217 -0.000951395 1.46647e-06
-0.000951395 0.000462198 2.18392e-07
1.46647e-06 2.18392e-07 4.55208e-05
0.00247043 -0.000935635 -3.21873e-06
-0.000935635 0.000181076 3.01765e-06
-3.21873e-06 3.01765e-06 -7.85967e-05
0.000428848 -0.000444814 -1.22669e-05
-0.000444814 -0.000139072 -6.45431e-06
-1.22669e-05 -6.45431e-06 -0.000660434
0.000723189 -0.000480336 -1.80599e-05
-0.000480336 0.000178439 -1.09677e-05
-1.80599e-05 -1.09677e-05 -0.000407305
0.00038144 -0.000299736 -1.74979e-07
-0.000299736 0.000109031 3.61858e-06
-1.74979e-07 3.61858e-06 -0.000312099
0.0023686 -9.54614e-05 3.864e-06
-9.54614e-05 6.19459e-05 -9.39658e-08
3.864e-06 -9.39658e-08 2.10941e-05
0.00222694 -0.000298703 2.0469e-06
-0.000298703 -3.33949e-05 -5.56684e-07
2.0469e-06 -5.56684e-07 -0.000108638
0.00228937 -0.000172505 -3.88895e-07
-0.000172505 3.92362e-06 1.15429e-07
-3.88895e-07 1.15429e-07 2.30923e-05
0.00236837 -0.000406215 -4.73129e-08
-0.000406215 5.5239e-05 -2.17931e-08
-4.73129e-08 -2.17931e-08 1.16207e-05
0.00116538 -0.000585424 -1.91423e-06
-0.000585424 0.000153673 -1.01865e-06
-1.91423e-06 -1.01865e-06 -0.000396917
0.00262656 -0.00120128 2.23955e-06
-0.00120128 0.000729503 -4.09184e-07
2.23955e-06 -4.09184e-07 1.07093e-05
0.00252994 -0.00107695 1.69158e-06
-0.00107695 0.000446271 1.8867e-06
1.69158e-06 1.8867e-06 -0.000104713
0.00245431 -0.000671243 -2.21097e-07
-0.000671243 0.000157809 2.13251e-07
-2.21097e-07 2.13251e-07 1.30783e-06
0.00255161 -0.000576189 1.06502e-07
-0.000576189 5.72173e-05 5.1685e-08
1.06502e-07 5.1685e-08 2.90427e-05
0.00266183 -0.00098106 -5.82281e-07
-0.00098106 0.000445001 -8.24685e-08
-5.82281e-07 -8.24685e-08 6.55776e-05
0.00258649 -0.000831973 -7.48573e-07
-0.000831973 0.000174284 1.55067e-07
-7.48573e-07 1.55067e-07 1.81348e-05
0.00260359 -0.000975076 1.45169e-06
-0.000975076 0.000185513 -2.0592e-07
1.45169e-06 -2.0592e-07 -1.9865e-05
0.00174501 -0.000868254 -1.80278e-06
-0.000868254 0.000653044 -1.34787e-06
-1.80278e-06 -1.34787e-06 -8.75302e-05
0.00200671 -0.000920017 -1.0611e-06
-0.000920017 0.000980227 1.47149e-06
-1.0611e-06 1.47149e-06 0.000206101
0.000563583 -0.000191862 1.37428e-06
-0.000191862 0.000172896 -1.07439e-06
1.37428e-06 -1.07439e-06 -0.000170925
0.000183165 -0.000278349 1.9509e-06
-0.000278349 -4.87989e-05 -5.24591e-06
1.9509e-06 -5.24591e-06 -0.000537694
0.00221971 -9.88739e-05 4.84204e-06
-9.88739e-05 -4.07451e-05 -3.12723e-07
4.84204e-06 -3.12723e-07 -1.63085e-05
0.00232802 -0.000285736 3.68544e-06
-0.000285736 1.6071e-05 -9.94424e-07
3.68544e-06 -9.94424e-07 1.11155e-05
0.00236355 -0.000184376 1.09204e-06
-0.000184376 -4.40499e-05 -3.5427e-07
1.09204e-06 -3.5427e-07 1.97712e-05
0.00250801 -0.000456817 -1.67052e-06
-0.000456817 -3.27285e-05 7.8804e-07
-1.67052e-06 7.8804e-07 1.78963e-05
0.00247824 -0.000700719 -9.99339e-07
-0.000700719 5.41405e-05 4.70855e-07
-9.99339e-07 4.70855e-07 -3.70316e-05
0.00261607 -0.000620742 9.22719e-07
-0.000620742 -1.16247e-05 8.72406e-08
9.22719e-07 8.72406e-08 -9.99174e-06
0.00194117 -0.0011683 -5.07195e-06
-0.0011683 0.000519735 4.47289e-06
-5.07195e-06 4.47289e-06 -0.000275798
0.00270933 -0.000902443 1.81759e-06
-0.000902443 0.00014706 3.54129e-07
1.81759e-06 3.54129e-07 3.63712e-05
0.00251974 -0.00126005 7.57528e-06
-0.00126005 0.000618585 1.93652e-06
7.57528e-06 1.93652e-06 -0.000105861
0.00284482 -0.00111829 1.61087e-05
-0.00111829 0.000622861 -3.71103e-06
1.61087e-05 -3.71103e-06 9.01905e-05
0.00276804 -0.00102376 5.08633e-06
-0.00102376 0.000441784 -1.89937e-06
5.08633e-06 -1.89937e-06 9.49824e-05
0.00268071 -0.00104245 2.89628e-06
-0.00104245 0.000175421 -1.95433e-06
2.89628e-06 -1.95433e-06 -4.23378e-05
6.23352e-05 -0.000303054 1.10132e-05
-0.000303054 -0.000239667 -7.72155e-06
1.10132e-05 -7.72155e-06 -0.000552065
-0.00110357 -3.71634e-05 -2.56512e-06
-3.71634e-05 -0.000827086 1.37268e-06
-2.56512e-06 1.37268e-06 -0.0013585
0.00197129 -0.00122009 2.20534e-05
-0.00122009 0.000823661 2.97594e-06
2.20534e-05 2.97594e-06 -6.4193e-05
0.00383968 -0.000916021 1.50713e-05
-0.000916021 0.00233041 1.66313e-05
1.50713e-05 1.66313e-05 0.00165381
0.00241546 -0.00117429 1.3424e-06
-0.00117429 0.00125317 1.05858e-05
1.3424e-06 1.05858e-05 0.000335414
-0.000160089 9.85097e-05 -1.02043e-05
9.85097e-05 -0.000392756 -2.08706e-05
-1.02043e-05 -2.08706e-05 -0.000521056
0.0024879 0.000646539 -4.12213e-06
0.000646539 0.000237731 -1.88392e-06
-4.12213e-06 -1.88392e-06 1.45666e-05
0.00108886 0.000186104 2.79395e-06
0.000186104 0.000413586 -4.43024e-06
2.79395e-06 -4.43024e-06 5.97001e-05
0.00112587 0.000522005 -1.86283e-05
0.000522005 0.000288942 2.16616e-05
-1.86283e-05 2.16616e-05 -7.5559e-05
0.00245176 0.0003916 7.73636e-07
0.0003916 0.0011932 1.70798e-05
7.73636e-07 1.70798e-05 0.000816934
0.00243899 0.000840658 1.02278e-06
0.000840658 0.000337197 1.17399e-06
1.02278e-06 1.17399e-06 -3.97674e-05
0.00251949 0.000791019 -2.27733e-06
0.000791019 0.000229268 -1.76522e-06
-2.27733e-06 -1.76522e-06 -1.00279e-05
0.00173806 0.00114884 1.10329e-05
0.00114884 0.000447609 2.00665e-05
1.10329e-05 2.00665e-05 -0.000398843
0.00262594 0.00128926 -1.19208e-06
0.00128926 0.000661146 4.46303e-06
-1.19208e-06 4.46303e-06 -9.34446e-05
0.00274533 0.00102412 3.86198e-06
0.00102412 0.000555907 1.19565e-06
3.86198e-06 1.19565e-06 0.000108933
0.00317256 0.000958086 1.25144e-05
0.000958086 0.000740265 1.23094e-05
1.25144e-05 1.23094e-05 0.000314548
0.000492826 0.000112281 -4.61165e-06
0.000112281 3.46867e-05 5.47556e-07
-4.61165e-06 5.47556e-07 -6.00755e-05
0.000459119 0.000232206 -1.94868e-06
0.000232206 0.000146761 -1.36545e-06
-1.94868e-06 -1.36545e-06 -0.000230146
0.0011279 0.000747459 9.55023e-06
0.000747459 0.00035759 -4.77608e-06
9.55023e-06 -4.77608e-06 -0.000289393
0.0011668 0.00030032 -4.25586e-06
0.00030032 0.000469847 -4.18382e-06
-4.25586e-06 -4.18382e-06 0.000102293
0.000698124 0.000475644 -3.06394e-06
0.000475644 -4.9022e-05 5.63591e-06
-3.06394e-06 5.63591e-06 -0.000519999
0.00249612 0.000662238 -4.56866e-07
0.000662238 0.00014183 -3.88238e-07
-4.56866e-07 -3.88238e-07 -2.6418e-06
0.00257917 0.000926882 4.81707e-07
0.000926882 0.000340663 2.27279e-07
4.81707e-07 2.27279e-07 -6.77461e-06
0.00260749 0.000872232 1.11472e-06
0.000872232 0.000212128 4.99697e-07
1.11472e-06 4.99697e-07 -8.70783e-06
0.00271083 0.00150914 2.292e-06
0.00150914 0.00112638 3.21785e-07
2.292e-06 3.21785e-07 0.000140716
0.00295499 0.00106154 3.30519e-06
0.00106154 0.000530615 2.36237e-07
3.30519e-06 2.36237e-07 0.000111285
0.00296587 0.00142597 -6.86043e-06
0.00142597 0.000826794 1.23719e-06
-6.86043e-06 1.23719e-06 4.89056e-05
0.000979025 0.000238148 -2.39075e-07
0.000238148 0.000430837 8.33851e-06
-2.39075e-07 8.33851e-06 0.000160176
0.00225099 0.000648793 1.13234e-05
0.000648793 0.00136007 9.48014e-06
1.13234e-05 9.48014e-06 0.000870666
0.00181686 0.00111477 -3.99828e-06
0.00111477 0.000860066 -6.31839e-06
-3.99828e-06 -6.31839e-06 3.2425e-05
0.00116409 0.000381959 1.1145e-05
0.000381959 0.000173621 -9.65691e-06
1.1145e-05 -9.65691e-06 -0.000170275
0.00336434 0.000995461 -1.87276e-06
0.000995461 0.00144162 4.57096e-06
-1.87276e-06 4.57096e-06 0.00081534
0.00260292 0.000718439 -2.16704e-06
0.000718439 7.32666e-05 -9.23197e-07
-2.16704e-06 -9.23197e-07 -1.35272e-05
0.00270248 0.00100704 -2.59097e-06
0.00100704 0.000363697 2.62514e-06
-2.59097e-06 2.62514e-06 1.34231e-05
0.00269549 0.00100063 -5.95857e-07
0.00100063 0.00020798 1.14442e-06
-5.95857e-07 1.14442e-06 -1.91491e-06
0.00200322 0.00152392 1.05612e-05
0.00152392 0.00074717 -2.39499e-06
1.05612e-05 -2.39499e-06 -0.000255007
0.0027285 0.00135636 1.52515e-05
0.00135636 0.000521157 8.88719e-10
1.52515e-05 8.88719e-10 -0.000162243
0.000614943 0.000165823 3.91819e-07
0.000165823 0.000201065 -4.69717e-07
3.91819e-07 -4.69717e-07 -2.24159e-05
-0.000133822 0.000269858 -9.80269e-06
0.000269858 -0.000187673 -4.99144e-06
-9.80269e-06 -4.99144e-06 -0.000535069
-0.00095733 0.000111786 1.14553e-06
0.000111786 -0.000651732 -2.5457e-06
1.14553e-06 -2.5457e-06 -0.000984558
0.00228982 0.000399617 -1.79485e-05
0.000399617 0.00154664 6.41596e-07
-1.79485e-05 6.41596e-07 0.00117644
0.0017438 0.000323308 -7.75559e-06
0.000323308 0.00108613 -3.08614e-06
-7.75559e-06 -3.08614e-06 0.000811423
0.000637948 0.000130774 -5.38026e-08
0.000130774 0.000226521 1.06797e-06
-5.38026e-08 1.06797e-06 9.91878e-05
0.000560206 7.97237e-05 -2.19049e-06
7.97237e-05 0.000169393 -3.65434e-07
-2.19049e-06 -3.65434e-07 2.96577e-05
0.00169634 3.78769e-05 1.61609e-06
3.78769e-05 0.000871451 7.22642e-06
1.61609e-06 7.22642e-06 0.000823741
0.000163346 8.20164e-05 7.73248e-06
8.20164e-05 -0.000102038 -8.06655e-06
7.73248e-06 -8.06655e-06 -0.000266546
0.00186981 2.96803e-05 -2.17059e-05
2.96803e-05 0.000980901 -2.76561e-06
-2.17059e-05 -2.76561e-06 0.000930426
0.000753106 2.54356e-06 7.41598e-05
2.54356e-06 0.00022928 1.59201e-05
7.41598e-05 1.59201e-05 0.000224447
0.00202648 6.26736e-05 -4.41395e-05
6.26736e-05 0.00108372 -1.35193e-05
-4.41395e-05 -1.35193e-05 0.00102032
0.00274891 -7.14494e-05 9.62054e-05
-7.14494e-05 0.00158867 2.22213e-06
9.62054e-05 2.22213e-06 0.0015717
0.00478075 -0.000165881 -8.40322e-05
-0.000165881 0.00297056 -1.31688e-05
-8.40322e-05 -1.31688e-05 0.0029467
0.000616237 -3.50902e-06 5.39223e-06
-3.50902e-06 0.000141678 -9.10135e-06
5.39223e-06 -9.10135e-06 4.45001e-05
0.000226468 -0.000151235 4.42916e-07
-0.000151235 -0.000127283 3.96163e-07
4.42916e-07 3.96163e-07 -0.000248472
0.00516241 0.000216898 5.85112e-05
0.000216898 0.00325989 -1.6671e-05
5.85112e-05 -1.6671e-05 0.00321171
0.00655736 7.49749e-05 -1.4775e-06
7.49749e-05 0.00417041 3.86161e-06
-1.4775e-06 3.86161e-06 0.0041556
0.000863345 -0.000265418 -2.74173e-05
-0.000265418 0.000232262 2.30638e-05
-2.74173e-05 2.30638e-05 5.99494e-05
0.00880901 -2.4699e-05 -0.000356658
-2.4699e-05 0.00561286 5.37761e-05
-0.000356658 5.37761e-05 0.00561517
0.00247326 0.000517099 -4.8245e-06
0.000517099 0.000181057 -1.71869e-06
-4.8245e-06 -1.71869e-06 3.22381e-05
0.00246882 0.000287798 -4.86815e-06
0.000287798 0.000141065 -9.71239e-07
-4.86815e-06 -9.71239e-07 7.81377e-05
0.00229082 0.000373763 -3.58924e-06
0.000373763 -3.45675e-06 -1.44073e-07
-3.58924e-06 -1.44073e-07 -3.87616e-05
0.00224521 0.000179901 -3.04376e-06
0.000179901 -5.92165e-05 -4.05178e-07
-3.04376e-06 -4.05178e-07 -2.16083e-05
0.00247315 8.89349e-05 -5.29409e-06
8.89349e-05 0.000126287 -2.57333e-07
-5.29409e-06 -2.57333e-07 9.85167e-05
0.00160135 6.91509e-06 -5.19346e-06
6.91509e-06 -6.11462e-05 -4.03217e-07
-5.19346e-06 -4.03217e-07 -0.00017145
0.00245879 -5.36616e-06 -9.11214e-09
-5.36616e-06 0.000118189 6.38077e-08
-9.11214e-09 6.38077e-08 9.13501e-05
0.00221084 7.90064e-05 -4.14771e-07
7.90064e-05 -6.9156e-05 -5.38395e-08
-4.14771e-07 -5.38395e-08 -2.98393e-05
0.00224751 0.000266764 -8.97416e-08
0.000266764 -3.33403e-05 6.34158e-08
-8.97416e-08 6.34158e-08 -3.3701e-05
0.00236972 0.000190185 1.98127e-07
0.000190185 -9.24914e-05 5.43228e-08
1.98127e-07 5.43228e-08 -1.34016e-05
0.00242226 0.00052079 9.32923e-08
0.00052079 6.1698e-05 -1.52166e-07
9.32923e-08 -1.52166e-07 -8.54553e-06
0.00245499 0.000401023 2.37656e-07
0.000401023 -6.918e-05 3.90885e-07
2.37656e-07 3.90885e-07 -2.57915e-05
0.00220594 -1.1602e-05 3.12149e-06
-1.1602e-05 -6.51323e-05 -9.34634e-08
3.12149e-06 -9.34634e-08 -2.74824e-05
0.00239583 7.9903e-05 8.99882e-08
7.9903e-05 -7.27159e-05 -2.02793e-07
8.99882e-08 -2.02793e-07 1.9972e-05
0.0023947 0.000271222 -1.04573e-06
0.000271222 -7.84064e-05 -4.10236e-07
-1.04573e-06 -4.10236e-07 -1.67564e-05
0.00251062 0.000199998 -1.96072e-07
0.000199998 -0.000106517 -1.29754e-07
-1.96072e-07 -1.29754e-07 2.30239e-05
0.00253952 0.000546463 -3.54866e-07
0.000546463 -4.59151e-06 -5.19959e-07
-3.54866e-07 -5.19959e-07 -1.04511e-05
0.00251901 0.000392453 7.01439e-07
0.000392453 -0.000140486 4.89376e-09
7.01439e-07 4.89376e-09 -5.46442e-05
0.00245775 -9.25102e-05 -1.70047e-06
-9.25102e-05 0.000126158 5.29622e-08
-1.70047e-06 5.29622e-08 9.36434e-05
0.0022026 -0.000302435 1.76481e-06
-0.000302435 -4.8157e-05 1.10611e-07
1.76481e-06 1.10611e-07 -0.000122682
0.0022493 -0.000166553 -2.99074e-06
-0.000166553 -4.27021e-05 2.41389e-07
-2.99074e-06 2.41389e-07 -1.3984e-05
0.00242142 -0.000400365 -5.16408e-06
-0.000400365 9.98689e-05 1.47971e-06
-5.16408e-06 1.47971e-06 5.33342e-05
0.000977087 -0.000583099 -1.32914e-05
-0.000583099 3.15201e-05 2.00282e-06
-1.32914e-05 2.00282e-06 -0.000524821
0.00295991 -0.00124161 -9.31875e-07
-0.00124161 0.000978244 5.93627e-07
-9.31875e-07 5.93627e-07 0.000247372
0.00226558 -0.00105046 -2.32409e-06
-0.00105046 0.000271141 2.16505e-06
-2.32409e-06 2.16505e-06 -0.000282896
0.00254445 -0.00067388 -4.89116e-06
-0.00067388 0.000236364 2.2738e-06
-4.89116e-06 2.2738e-06 7.06359e-05
0.0025197 -0.000579058 7.91578e-07
-0.000579058 2.27326e-05 -7.81611e-07
7.91578e-07 -7.81611e-07 -1.65493e-08
0.00259369 -0.000833084 -1.91593e-06
-0.000833084 0.000176318 1.32135e-06
-1.91593e-06 1.32135e-06 1.97928e-05
0.00259039 -0.000978307 -7.07439e-06
-0.000978307 0.000390125 3.96178e-06
-7.07439e-06 3.96178e-06 9.24507e-06
0.00260586 -0.000987035 -3.41519e-06
-0.000987035 0.000174733 1.88579e-07
-3.41519e-06 1.88579e-07 -2.84656e-05
0.00182379 -0.000890219 -4.6734e-06
-0.000890219 0.000701548 -1.20541e-05
-4.6734e-06 -1.20541e-05 -4.35644e-05
0.00209921 -0.000908373 -2.73173e-05
-0.000908373 0.00100994 -1.19621e-05
-2.73173e-05 -1.19621e-05 0.000238983
0.00219266 -0.000201301 -1.17863e-06
-0.000201301 0.00123006 5.37478e-06
-1.17863e-06 5.37478e-06 0.000896249
0.000534355 -0.000232664 -1.06502e-05
-0.000232664 8.63249e-05 -4.30557e-06
-1.06502e-05 -4.30557e-06 -0.000334285
0.0022204 -9.83185e-05 -1.04525e-07
-9.83185e-05 -4.11716e-05 2.78871e-08
-1.04525e-07 2.78871e-08 -1.68608e-05
0.00235974 -0.000288291 1.14029e-06
-0.000288291 3.99868e-05 -2.51666e-07
1.14029e-06 -2.51666e-07 3.40582e-05
0.00234537 -0.000181816 1.9252e-08
-0.000181816 -6.11002e-05 -6.04643e-08
1.9252e-08 -6.04643e-08 6.82142e-06
0.00247393 -0.000456044 -3.56427e-07
-0.000456044 -4.74601e-05 3.50657e-07
-3.56427e-07 3.50657e-07 -6.12748e-06
0.00233917 -0.00115325 -1.6491e-06
-0.00115325 0.000764265 -4.46584e-08
-1.6491e-06 -4.46584e-08 -1.50453e-05
0.00243945 -0.00125898 2.50347e-06
-0.00125898 0.000545321 4.52804e-07
2.50347e-06 4.52804e-07 -0.000181779
0.00284335 -0.00112995 -5.10837e-07
-0.00112995 0.000622653 6.46522e-07
-5.10837e-07 6.46522e-07 7.90705e-05
0.00253178 -0.000703218 -9.43576e-07
-0.000703218 9.93146e-05 2.54132e-07
-9.43576e-07 2.54132e-07 9.40302e-08
0.0026052 -0.000618938 6.3352e-07
-0.000618938 -1.80284e-05 -6.56942e-07
6.3352e-07 -6.56942e-07 -5.22473e-06
0.0027845 -0.00103962 -1.95649e-06
-0.00103962 0.000458516 8.38715e-07
-1.95649e-06 8.38715e-07 0.000107105
0.00271277 -0.000906011 -1.13998e-06
-0.000906011 0.000142001 6.21372e-07
-1.13998e-06 6.21372e-07 2.9979e-05
0.00269418 -0.0010342 7.79234e-06
-0.0010342 0.000183689 -2.89637e-06
7.79234e-06 -2.89637e-06 -2.44041e-05
0.00225728 -0.00128333 -8.9581e-07
-0.00128333 0.00101751 -2.4991e-07
-8.9581e-07 -2.4991e-07 8.63348e-05
0.00251468 -0.00117554 -4.20338e-06
-0.00117554 0.00131079 -6.38214e-07
-4.20338e-06 -6.38214e-07 0.000403211
0.00124425 -0.000697442 -7.16465e-06
-0.000697442 0.000692365 3.61814e-06
-7.16465e-06 3.61814e-06 2.37882e-05
0.000119007 -0.000219839 -4.75455e-06
-0.000219839 -0.000144574 2.97342e-06
-4.75455e-06 2.97342e-06 -0.000475614
0.000161672 -6.60064e-05 -3.89777e-06
-6.60064e-05 -2.88613e-05 -6.70885e-07
-3.89777e-06 -6.70885e-07 -0.00053531
0.00237577 -0.000114097 -8.92235e-07
-0.000114097 -7.85791e-05 -3.69304e-08
-8.92235e-07 -3.69304e-08 1.13214e-05
0.0024324 -0.000277406 -1.57744e-06
-0.000277406 -9.14801e-05 -2.14252e-07
-1.57744e-06 -2.14252e-07 -5.89616e-06
0.00263933 -0.000554182 -2.06889e-07
-0.000554182 -0.000111859 6.52264e-08
-2.06889e-07 6.52264e-08 -6.03155e-06
0.00263288 -0.000756832 9.66764e-07
-0.000756832 1.68446e-05 7.74168e-07
9.66764e-07 7.74168e-07 -1.64429e-05
0.0026718 -0.00147216 7.17204e-06
-0.00147216 0.00101193 -4.06339e-06
7.17204e-06 -4.06339e-06 9.08049e-05
0.00284086 -0.00103685 5.19121e-07
-0.00103685 0.000111284 -4.33126e-07
5.19121e-07 -4.33126e-07 -1.98063e-05
0.00195862 -0.00124981 7.9969e-06
-0.00124981 0.000266655 3.95806e-06
7.9969e-06 3.95806e-06 -0.000466592
0.00299293 -0.00120121 3.15167e-06
-0.00120121 0.000691929 -8.39949e-07
3.15167e-06 -8.39949e-07 0.000154322
0.00269672 -0.00107125 -8.3498e-06
-0.00107125 0.000309365 -2.33004e-06
-8.3498e-06 -2.33004e-06 6.07442e-06
-0.000158597 -0.000187825 -2.20873e-06
-0.000187825 -0.000246803 7.42833e-06
-2.20873e-06 7.42833e-06 -0.000545434
0.00314369 -0.000512375 -2.55054e-06
-0.000512375 0.00195665 8.08387e-07
-2.55054e-06 8.08387e-07 0.00144653
-9.11129e-05 -0.000372075 -1.27152e-05
-0.000372075 -0.000148261 1.17157e-05
-1.27152e-05 1.17157e-05 -0.00066262
0.00327022 -0.0015423 -6.42977e-06
-0.0015423 0.00167137 5.41681e-06
-6.42977e-06 5.41681e-06 0.000642699
0.0039235 -0.00100375 -2.05675e-07
-0.00100375 0.0022161 1.03684e-05
-2.05675e-07 1.03684e-05 0.00152347
0.00239346 -0.00122521 -1.68986e-05
-0.00122521 0.00117988 1.8442e-05
-1.68986e-05 1.8442e-05 0.000237694
0.000242381 0.000115274 -1.52391e-05
0.000115274 -0.000126152 -1.79097e-05
-1.52391e-05 -1.79097e-05 -0.000215635
0.000421479 0.000315282 -4.00682e-06
0.000315282 0.000115245 -1.57232e-05
-4.00682e-06 -1.57232e-05 -0.00026295
0.00248222 0.000659445 -3.87955e-06
0.000659445 0.000137643 -2.09291e-06
-3.87955e-06 -2.09291e-06 -5.84852e-06
-0.000330399 -2.4628e-05 -9.86447e-06
-2.4628e-05 -0.000411364 -4.12399e-06
-9.86447e-06 -4.12399e-06 -0.000834029
0.00343306 0.000883067 1.73773e-05
0.000883067 0.00179784 1.24655e-05
1.73773e-05 1.24655e-05 0.00113111
0.000381996 0.000543953 -1.09972e-05
0.000543953 -0.000253356 -1.15302e-06
-1.09972e-05 -1.15302e-06 -0.000784808
0.00258197 0.000923578 -8.84218e-07
0.000923578 0.000348305 -2.35917e-06
-8.84218e-07 -2.35917e-06 3.23919e-06
0.00258114 0.000873536 1.56204e-06
0.000873536 0.000199509 -1.08575e-06
1.56204e-06 -1.08575e-06 -2.12284e-05
0.00325697 0.00156915 1.48794e-06
0.00156915 0.00150912 7.17524e-06
1.48794e-06 7.17524e-06 0.000511095
0.00382454 0.0015254 -7.82965e-06
0.0015254 0.00142222 4.49325e-06
-7.82965e-06 4.49325e-06 0.000625022
0.00292837 0.00106294 2.84051e-06
0.00106294 0.000475367 -1.37998e-06
2.84051e-06 -1.37998e-06 5.31978e-05
0.000985607 0.000229133 1.28786e-07
0.000229133 0.000450981 -2.77797e-07
1.28786e-07 -2.77797e-07 0.000167862
0.00102067 0.000421917 -5.27972e-06
0.000421917 0.000573304 -3.93366e-08
-5.27972e-06 -3.93366e-08 9.31494e-05
0.00186766 0.00114993 1.0764e-06
0.00114993 0.000862739 -5.97681e-07
1.0764e-06 -5.97681e-07 -5.09778e-06
0.00105222 0.00033515 -1.94093e-06
0.00033515 0.000105974 -6.48885e-07
-1.94093e-06 -6.48885e-07 -0.000251444
0.00160115 0.000827793 -1.59376e-06
0.000827793 0.000216301 -4.5985e-06
-1.59376e-06 -4.5985e-06 -0.000363591
0.00260583 0.000717505 -1.96269e-06
0.000717505 8.8498e-05 -1.15599e-06
-1.96269e-06 -1.15599e-06 -2.73713e-07
0.00272039 0.00101337 2.49565e-06
0.00101337 0.000351839 4.38847e-07
2.49565e-06 4.38847e-07 -4.31539e-07
0.00278237 0.00100693 1.07044e-06
0.00100693 0.000228896 1.17769e-06
1.07044e-06 1.17769e-06 2.69329e-05
0.0026139 0.00164044 3.05878e-06
0.00164044 0.00110286 2.60703e-06
3.05878e-06 2.60703e-06 7.04712e-05
0.00272515 0.00138471 -1.80411e-06
0.00138471 0.000569874 -4.14141e-06
-1.80411e-06 -4.14141e-06 -0.000138653
0.00123264 0.000624341 6.13584e-06
0.000624341 0.000661222 1.72048e-06
6.13584e-06 1.72048e-06 0.000248208
-0.00194299 0.000501328 4.4338e-06
0.000501328 -0.00136219 -1.23291e-05
4.4338e-06 -1.23291e-05 -0.00188524
0.00249869 0.00136213 -9.18734e-06
0.00136213 0.00121404 -3.09262e-06
-9.18734e-06 -3.09262e-06 0.000309472
-0.00232046 0.000660659 2.04559e-05
0.000660659 -0.00207606 -1.02028e-06
2.04559e-05 -1.02028e-06 -0.00268821
0.00260123 0.00124896 2.13584e-07
0.00124896 0.000751033 -7.56578e-07
2.13584e-07 -7.56578e-07 3.57212e-05
0.00276561 0.00084522 -1.42156e-06
0.00084522 1.19397e-05 2.49717e-07
-1.42156e-06 2.49717e-07 7.79166e-07
0.00283503 0.00108915 8.45275e-06
0.00108915 0.000347184 -1.18894e-06
8.45275e-06 -1.18894e-06 -4.50152e-05
0.00248341 0.000951682 7.03136e-06
0.000951682 -5.34744e-05 2.02291e-06
7.03136e-06 2.02291e-06 -0.000262632
0.00310173 0.00173404 2.46192e-05
0.00173404 0.0012767 9.14291e-06
2.46192e-05 9.14291e-06 0.000255141
0.0028707 0.00162848 1.35029e-05
0.00162848 0.000786473 4.05808e-06
1.35029e-05 4.05808e-06 -6.44287e-05
0.000478451 0.000126513 8.68554e-06
0.000126513 0.000105353 -9.74469e-06
8.68554e-06 -9.74469e-06 -0.000107574
0.000678691 0.000314339 -2.56528e-06
0.000314339 0.000322811 6.76823e-07
-2.56528e-06 6.76823e-07 -1.21318e-05
-0.000658418 0.00013162 -5.97055e-06
0.00013162 -0.000552842 -3.34514e-05
-5.97055e-06 -3.34514e-05 -0.000772877
-0.0015384 -4.49735e-05 1.35025e-05
-4.49735e-05 -0.00109328 -2.67689e-06
1.35025e-05 -2.67689e-06 -0.00136338
0.000592872 0.000149458 -3.00355e-06
0.000149458 0.000296871 3.95218e-07
-3.00355e-06 3.95218e-07 5.99396e-05
-0.000211448 0.000115864 6.80933e-06
0.000115864 -0.000155952 8.23692e-07
6.80933e-06 8.23692e-07 -0.000444795
0.000816191 0.000279372 -9.73767e-07
0.000279372 0.000548569 -4.47081e-06
-9.73767e-07 -4.47081e-06 0.000274694
0.000424303 -7.16573e-06 -1.57519e-05
-7.16573e-06 0.000256833 9.55077e-06
-1.57519e-05 9.55077e-06 -2.14247e-05
0.000965767 0.000169048 -4.64782e-06
0.000169048 0.000500113 -4.20849e-06
-4.64782e-06 -4.20849e-06 0.000315009
0.000493601 0.000111498 1.03286e-06
0.000111498 0.000120445 2.64075e-06
1.03286e-06 2.64075e-06 1.83359e-06
0.00039979 5.58924e-05 -3.14775e-06
5.58924e-05 5.50983e-05 3.07867e-07
-3.14775e-06 3.07867e-07 -6.0508e-05
0.00153394 9.5752e-06 1.50327e-06
9.5752e-06 0.000762685 5.20323e-06
1.50327e-06 5.20323e-06 0.00072339
-0.000117472 -7.41097e-05 1.02062e-05
-7.41097e-05 -0.000275782 -2.60529e-06
1.02062e-05 -2.60529e-06 -0.000407848
0.00161038 2.47547e-05 -1.84823e-05
2.47547e-05 0.000810748 -2.90975e-06
-1.84823e-05 -2.90975e-06 0.000769637
0.000691819 1.3851e-06 5.86374e-05
1.3851e-06 0.000189833 1.38382e-05
5.86374e-05 1.38382e-05 0.000187279
0.00172065 3.38417e-05 -2.89522e-05
3.38417e-05 0.00087837 -1.33266e-05
-2.89522e-05 -1.33266e-05 0.000833691
0.000769553 -2.41234e-05 3.26162e-05
-2.41234e-05 0.000243223 5.46816e-06
3.26162e-05 5.46816e-06 0.000228564
0.00404196 -0.000189767 2.33399e-05
-0.000189767 0.00246698 -8.38106e-06
2.33399e-05 -8.38106e-06 0.00243688
0.000370387 0.000114617 -2.47119e-06
0.000114617 4.05774e-05 -9.97745e-06
-2.47119e-06 -9.97745e-06 -6.55545e-05
0.000459516 -7.7827e-05 -7.81863e-06
-7.7827e-05 4.38544e-05 -5.12067e-07
-7.81863e-06 -5.12067e-07 -6.15936e-05
0.00424189 0.000272667 -4.56468e-05
0.000272667 0.00265565 -1.78855e-05
-4.56468e-05 -1.78855e-05 0.00260011
0.000783332 -0.000199383 -1.95786e-05
-0.000199383 0.000234031 1.50557e-05
-1.95786e-05 1.50557e-05 0.000103317
0.00512761 0.000180473 -3.42857e-05
0.000180473 0.00324334 -1.03046e-06
-3.42857e-05 -1.03046e-06 0.00320491
0.0070921 9.04688e-05 -0.000275073
9.04688e-05 0.00457413 5.86558e-05
-0.000275073 5.86558e-05 0.00453765
0.00243244 0.000520888 -3.66242e-06
0.000520888 6.92479e-05 -1.19339e-06
-3.66242e-06 -1.19339e-06 -1.64165e-07
0.00224678 0.000265846 -3.83229e-06
0.000265846 -3.49222e-05 -5.79158e-07
-3.83229e-06 -5.79158e-07 -3.50382e-05
0.00246328 0.000392232 9.8818e-07
0.000392232 -7.00159e-05 9.09608e-07
9.8818e-07 9.09608e-07 -2.03528e-05
0.00236758 0.000192746 1.60274e-06
0.000192746 -0.000100652 3.07591e-07
1.60274e-06 3.07591e-07 -1.37223e-05
0.00221232 7.18266e-05 -3.25653e-06
7.18266e-05 -6.53856e-05 -3.7288e-08
-3.25653e-06 -3.7288e-08 -2.77298e-05
0.00245599 -6.15938e-06 -4.90556e-06
-6.15938e-06 0.000118094 9.93924e-08
-4.90556e-06 9.93924e-08 9.12576e-05
0.00220929 -1.29432e-05 2.09032e-07
-1.29432e-05 -5.76795e-05 -2.42122e-08
2.09032e-07 -2.42122e-08 -2.36889e-05
0.00237995 8.25906e-05 4.01426e-07
8.25906e-05 -7.87266e-05 3.56667e-08
4.01426e-07 3.56667e-08 8.82064e-06
0.00240946 0.000271252 -7.64829e-07
0.000271252 -6.16507e-05 -8.92415e-08
-7.64829e-07 -8.92415e-08 -2.92778e-06
0.00247422 0.000203476 5.60677e-07
0.000203476 -0.000135889 1.51109e-07
5.60677e-07 1.51109e-07 5.68984e-06
0.00255307 0.000550603 -2.57098e-07
0.000550603 5.65476e-06 5.58793e-08
-2.57098e-07 5.58793e-08 -3.99109e-06
0.00255034 0.000396508 1.71088e-06
0.000396508 -0.000119984 7.6238e-07
1.71088e-06 7.6238e-07 -2.17257e-05
0.00235836 -1.56634e-05 -1.26382e-06
-1.56634e-05 -8.93776e-05 -4.68235e-08
-1.26382e-06 -4.68235e-08 -1.26971e-06
0.00251828 0.000100449 -6.82764e-07
0.000100449 -0.000137079 -4.62767e-07
-6.82764e-07 -4.62767e-07 1.87483e-05
0.00255789 0.000286614 2.21143e-07
0.000286614 -0.000121548 -1.26765e-07
2.21143e-07 -1.26765e-07 2.59906e-05
0.00267059 0.00055767 3.07776e-07
0.00055767 -0.000128424 3.26623e-07
3.07776e-07 3.26623e-07 -1.72024e-05
0.00221954 -9.79032e-05 -4.83953e-06
-9.79032e-05 -4.28559e-05 4.59525e-07
-4.83953e-06 4.59525e-07 -1.8666e-05
0.00238267 -0.000291079 -4.03315e-06
-0.000291079 5.84526e-05 1.00836e-06
-4.03315e-06 1.00836e-06 5.15175e-05
0.00232418 -0.00018024 1.00983e-06
-0.00018024 -8.02957e-05 -5.07957e-07
1.00983e-06 -5.07957e-07 -8.38728e-06
0.00244507 -0.000455742 -1.05449e-06
-0.000455742 -5.96789e-05 -3.82476e-07
-1.05449e-06 -3.82476e-07 -2.7749e-05
0.00278013 -0.0011832 5.56758e-06
-0.0011832 0.00106145 -6.42664e-06
5.56758e-06 -6.42664e-06 0.0002763
0.00234757 -0.00126607 5.54532e-06
-0.00126607 0.000454709 5.78046e-07
5.54532e-06 5.78046e-07 -0.000278614
0.00282662 -0.00114415 -1.4179e-05
-0.00114415 0.000614338 2.95731e-06
-1.4179e-05 2.95731e-06 5.74592e-05
0.00258719 -0.000705816 -2.34197e-06
-0.000705816 0.000145768 1.08246e-06
-2.34197e-06 1.08246e-06 3.9151e-05
0.00259554 -0.000617804 2.39684e-06
-0.000617804 -2.37328e-05 -8.83889e-07
2.39684e-06 -8.83889e-07 2.5761e-07
0.00271545 -0.000908098 -4.58004e-06
-0.000908098 0.000138967 8.81375e-07
-4.58004e-06 8.81375e-07 2.57724e-05
0.00276293 -0.00104678 -5.48574e-06
-0.00104678 0.000452665 2.97979e-06
-5.48574e-06 2.97979e-06 9.98375e-05
0.00267764 -0.00102231 -1.11779e-06
-0.00102231 0.000170913 -1.02026e-06
-1.11779e-06 -1.02026e-06 -2.7759e-05
0.00256738 -0.00131944 -2.65292e-05
-0.00131944 0.00123494 -2.34995e-06
-2.65292e-05 -2.34995e-06 0.000293556
0.00215912 -0.00111114 1.22541e-05
-0.00111114 0.00108904 -1.53983e-05
1.22541e-05 -1.53983e-05 0.00022309
0.000252012 -0.000436483 -1.51331e-05
-0.000436483 2.76346e-05 -5.51969e-06
-1.51331e-05 -5.51969e-06 -0.000593226
0.000207024 -0.000139116 -4.83135e-06
-0.000139116 -5.80715e-05 1.05668e-06
-4.83135e-06 1.05668e-06 -0.000382663
0.00150761 -9.3118e-05 -1.54478e-06
-9.3118e-05 0.000795664 -3.37049e-06
-1.54478e-06 -3.37049e-06 0.000320633
0.00236955 -0.000122477 1.34734e-07
-0.000122477 -8.02904e-05 -7.89647e-08
1.34734e-07 -7.89647e-08 7.48351e-06
0.0024363 -0.000278557 1.68267e-06
-0.000278557 -9.04175e-05 -6.50068e-08
1.68267e-06 -6.50068e-08 -7.29209e-06
0.00261205 -0.000548369 -1.08829e-06
-0.000548369 -0.000111346 1.67454e-07
-1.08829e-06 1.67454e-07 -1.92174e-05
0.00280578 -0.00146732 -1.52703e-06
-0.00146732 0.00109139 -6.21466e-07
-1.52703e-06 -6.21466e-07 0.00017793
0.00202546 -0.00125335 5.46821e-06
-0.00125335 0.000303468 -7.85027e-07
5.46821e-06 -7.85027e-07 -0.000429454
0.00291951 -0.00120636 -1.83742e-06
-0.00120636 0.000648422 -4.87318e-07
-1.83742e-06 -4.87318e-07 9.53559e-05
0.0026337 -0.000745752 2.63099e-07
-0.000745752 2.62544e-05 -4.28163e-07
2.63099e-07 -4.28163e-07 -8.85779e-06
0.00273376 -0.00109528 5.43946e-06
-0.00109528 0.000315275 -2.8438e-06
5.43946e-06 -2.8438e-06 1.01736e-05
0.00283737 -0.0010294 -5.26806e-07
-0.0010294 0.000133306 -6.24066e-07
-5.26806e-07 -6.24066e-07 3.72448e-06
-0.000344533 -2.83094e-05 -3.86482e-06
-2.83094e-05 -0.000414494 -5.67617e-07
-3.86482e-06 -5.67617e-07 -0.000667873
0.00220655 -0.00134736 -1.13434e-06
-0.00134736 0.00101348 -1.69867e-06
-1.13434e-06 -1.69867e-06 5.31488e-05
0.00270127 -0.00132089 -3.78244e-06
-0.00132089 0.00136388 5.79406e-06
-3.78244e-06 5.79406e-06 0.00036698
0.00216479 -0.000814107 4.88412e-06
-0.000814107 0.00118216 2.75424e-06
4.88412e-06 2.75424e-06 0.000470499
0.000644543 -0.000414116 -1.22749e-06
-0.000414116 0.000268844 1.00066e-06
-1.22749e-06 1.00066e-06 -0.000244395
0.00142312 -0.00025915 -2.74168e-06
-0.00025915 0.000790792 1.64044e-06
-2.74168e-06 1.64044e-06 0.00030076
0.00246653 -0.000156427 -1.90657e-06
-0.000156427 -0.000152971 1.65633e-07
-1.90657e-06 1.65633e-07 -1.15437e-05
0.002615 -0.000367063 1.11131e-06
-0.000367063 -0.000199653 -1.20094e-07
1.11131e-06 -1.20094e-07 -1.33068e-05
0.00275343 -0.000694478 2.38376e-07
-0.000694478 -8.74091e-05 6.40111e-07
2.38376e-07 6.40111e-07 1.57336e-05
0.00278778 -0.000894782 1.26431e-07
-0.000894782 -9.10274e-06 1.06441e-06
1.26431e-07 1.06441e-06 5.95823e-06
0.00265397 -0.00150668 2.20249e-06
-0.00150668 0.00103033 6.16297e-06
2.20249e-06 6.16297e-06 0.000103498
0.00286708 -0.00118461 4.6245e-07
-0.00118461 0.000239068 -5.2815e-06
4.6245e-07 -5.2815e-06 -2.12927e-05
0.00304749 -0.00154292 -4.13126e-05
-0.00154292 0.00095297 1.17394e-05
-4.13126e-05 1.17394e-05 0.000107171
0.00275249 -0.00127551 -3.00423e-05
-0.00127551 0.000535598 5.79662e-07
-3.00423e-05 5.79662e-07 -1.41849e-06
-0.000894162 -8.33556e-06 -1.7589e-06
-8.33556e-06 -0.000811471 7.41737e-07
-1.7589e-06 7.41737e-07 -0.000974632
0.00150487 -0.000217456 -3.99289e-06
-0.000217456 0.000957419 6.91801e-06
-3.99289e-06 6.91801e-06 0.000505498
0.00311858 -0.000612643 -1.72848e-05
-0.000612643 0.0019132 1.02492e-05
-1.72848e-05 1.02492e-05 0.00142499
0.000259798 -0.00044165 -2.9914e-06
-0.00044165 2.43675e-05 -8.70258e-06
-2.9914e-06 -8.70258e-06 -0.000438773
0.00344226 -0.00152931 -2.12686e-05
-0.00152931 0.00174921 2.67277e-05
-2.12686e-05 2.67277e-05 0.000727806
0.00232054 -0.00118936 -2.73612e-05
-0.00118936 0.00119414 2.25751e-05
-2.73612e-05 2.25751e-05 0.000195338
8.72601e-06 0.000151144 2.1471e-06
0.000151144 -0.000143402 -7.54407e-06
2.1471e-06 -7.54407e-06 -0.000458294
0.000254091 0.000232264 -6.49589e-06
0.000232264 1.30996e-05 -7.6502e-06
-6.49589e-06 -7.6502e-06 -0.000395178
0.00261063 0.000716688 -1.3789e-06
0.000716688 0.000104876 -1.15453e-06
-1.3789e-06 -1.15453e-06 1.41017e-05
0.000484059 0.000301429 -1.04783e-05
0.000301429 -0.000266764 1.38158e-05
-1.04783e-05 1.38158e-05 -0.000608837
0.00206241 0.00118867 1.04072e-05
0.00118867 0.000967982 4.37924e-06
1.04072e-05 4.37924e-06 7.05045e-05
0.00114725 0.000731496 -1.02445e-05
0.000731496 -1.91114e-05 -5.47119e-06
-1.02445e-05 -5.47119e-06 -0.000563641
0.00274063 0.00101953 3.41405e-06
0.00101953 0.000340207 -2.92758e-06
3.41405e-06 -2.92758e-06 -1.39898e-05
0.00286898 0.00101206 -3.82827e-06
0.00101206 0.000251259 -1.94013e-06
-3.82827e-06 -1.94013e-06 5.81536e-05
0.00302798 0.00172683 -6.98294e-06
0.00172683 0.00133019 1.14751e-06
-6.98294e-06 1.14751e-06 0.000277563
0.0026112 0.00138899 -1.11877e-05
0.00138899 0.000569233 -1.15148e-06
-1.11877e-05 -1.15148e-06 -0.000158101
0.000881466 0.000361812 5.06666e-07
0.000361812 0.000447077 -4.29795e-07
5.06666e-07 -4.29795e-07 5.0507e-05
0.00165302 0.000521304 -3.49408e-06
0.000521304 0.0008965 -1.10222e-05
-3.49408e-06 -1.10222e-05 0.000408864
0.00174944 0.00122017 -2.7114e-06
0.00122017 0.000761267 -2.06316e-06
-2.7114e-06 -2.06316e-06 -0.000105159
0.00183188 0.000665642 2.86783e-06
0.000665642 0.00037904 2.56718e-06
2.86783e-06 2.56718e-06 -8.2348e-05
0.00375344 0.00128734 -7.02832e-06
0.00128734 0.00156417 1.17406e-08
-7.02832e-06 1.17406e-08 0.000850713
0.00280971 0.000856872 -2.38506e-06
0.000856872 2.46359e-05 -4.76095e-07
-2.38506e-06 -4.76095e-07 5.80573e-06
0.00287891 0.00104082 2.90554e-06
0.00104082 0.000388016 -1.16262e-06
2.90554e-06 -1.16262e-06 2.67587e-05
0.00281534 0.000973348 5.19051e-07
0.000973348 0.00018926 2.42363e-06
5.19051e-07 2.42363e-06 -3.04073e-05
0.00287355 0.00172512 8.51039e-06
0.00172512 0.00112647 2.66757e-06
8.51039e-06 2.66757e-06 9.74852e-05
0.00295202 0.00173379 -5.47453e-06
0.00173379 0.000841518 2.23763e-06
-5.47453e-06 2.23763e-06 -7.17975e-05
-0.00187146 0.000166177 -1.17128e-05
0.000166177 -0.00132036 -1.69778e-06
-1.17128e-05 -1.69778e-06 -0.00163775
-0.00147953 0.000572186 4.58975e-06
0.000572186 -0.00069181 -1.31794e-05
4.58975e-06 -1.31794e-05 -0.00142404
0.00250654 0.00138875 8.45571e-06
0.00138875 0.00103564 2.02612e-06
8.45571e-06 2.02612e-06 0.000166522
0.00374007 0.00103538 7.94038e-06
0.00103538 0.00149107 -5.441e-06
7.94038e-06 -5.441e-06 0.000935051
0.00294968 0.000766414 5.45728e-06
0.000766414 -0.000243894 4.21377e-06
5.45728e-06 4.21377e-06 -8.14902e-06
0.00287051 0.00106571 8.35096e-06
0.00106571 3.89045e-05 3.12739e-06
8.35096e-06 3.12739e-06 -3.97831e-05
0.00317687 0.00140114 1.17062e-05
0.00140114 0.00061334 -2.95507e-06
1.17062e-05 -2.95507e-06 -1.68541e-05
0.00277123 0.00181704 1.79039e-05
0.00181704 0.000827794 4.82647e-06
1.79039e-05 4.82647e-06 -0.000216035
0.00225172 0.000367474 1.18416e-05
0.000367474 0.00141119 3.40829e-06
1.18416e-05 3.40829e-06 0.00103265
0.000170264 0.000272489 -4.84407e-06
0.000272489 5.12264e-05 3.7145e-06
-4.84407e-06 3.7145e-06 -0.000218391
-0.000512803 9.83198e-05 5.1646e-06
9.83198e-05 -0.000345985 -1.40178e-05
5.1646e-06 -1.40178e-05 -0.000522397
-0.000459356 1.46491e-05 7.13872e-06
1.46491e-05 -0.000416125 2.85227e-06
7.13872e-06 2.85227e-06 -0.000640371
-0.00312148 -1.03065e-05 4.84932e-06
-1.03065e-05 -0.0019548 -3.76079e-06
4.84932e-06 -3.76079e-06 -0.00227382
0.000758162 0.000108006 -1.34325e-06
0.000108006 0.000365333 -5.34555e-07
-1.34325e-06 -5.34555e-07 0.000175861
0.000753307 0.000289669 1.31808e-05
0.000289669 0.000564213 3.84258e-06
1.31808e-05 3.84258e-06 0.000286501
0.000733353 0.000120058 1.61109e-06
0.000120058 0.00049981 3.76822e-06
1.61109e-06 3.76822e-06 0.000183413
0.0019534 0.00027943 -9.19984e-06
0.00027943 0.00110968 -1.50505e-05
-9.19984e-06 -1.50505e-05 0.000962349
0.000586983 8.64632e-05 -7.42732e-06
8.64632e-05 0.000423414 -3.05468e-06
-7.42732e-06 -3.05468e-06 0.00012129
-0.000325123 7.33148e-05 -8.64523e-06
7.33148e-05 -0.000282646 6.15533e-06
-8.64523e-06 6.15533e-06 -0.000521535
0.000971742 0.000188679 -5.98236e-08
0.000188679 0.000497812 2.41379e-06
-5.98236e-08 2.41379e-06 0.000306317
0.000490176 0.000118577 3.01556e-06
0.000118577 0.000126601 4.76688e-06
3.01556e-06 4.76688e-06 1.33769e-07
0.000414521 2.85067e-05 -2.06123e-06
2.85067e-05 6.37167e-05 -5.63271e-07
-2.06123e-06 -5.63271e-07 -5.06352e-05
0.00139156 3.97492e-05 9.57903e-07
3.97492e-05 0.000675071 3.72453e-06
9.57903e-07 3.72453e-06 0.000637513
0.000257319 -4.868e-05 3.80161e-06
-4.868e-05 -4.51822e-05 -1.12393e-06
3.80161e-06 -1.12393e-06 -0.000153362
0.00149044 2.05869e-05 -1.7321e-05
2.05869e-05 0.000739598 -2.3482e-06
-1.7321e-05 -2.3482e-06 0.000700364
0.000715655 6.18442e-06 5.37989e-05
6.18442e-06 0.000210055 1.26526e-05
5.37989e-05 1.26526e-05 0.000208376
0.0014999 -3.4159e-05 -1.7192e-05
-3.4159e-05 0.000741321 -1.0805e-05
-1.7192e-05 -1.0805e-05 0.000701521
0.000730564 -1.53655e-05 2.69839e-05
-1.53655e-05 0.0002145 5.06498e-06
2.69839e-05 5.06498e-06 0.000206204
0.000667327 -3.45884e-05 7.4886e-06
-3.45884e-05 0.000178769 -6.45913e-06
7.4886e-06 -6.45913e-06 0.000159333
0.000446963 6.35753e-06 5.1886e-06
6.35753e-06 2.35716e-05 -1.05637e-05
5.1886e-06 -1.05637e-05 -3.05351e-05
0.000294385 6.1599e-06 -1.705e-06
6.1599e-06 -5.33511e-05 4.73992e-07
-1.705e-06 4.73992e-07 -0.000142054
0.00352242 0.000192186 -2.20624e-05
0.000192186 0.00213216 -1.30198e-05
-2.20624e-05 -1.30198e-05 0.00210262
-0.000348093 -9.74499e-05 -2.25562e-05
-9.74499e-05 -0.000484364 9.83887e-06
-2.25562e-05 9.83887e-06 -0.000594865
0.00478825 0.000168891 -3.09222e-05
0.000168891 0.00298017 -1.66878e-06
-3.09222e-05 -1.66878e-06 0.00294892
0.00526293 5.77203e-05 -0.000199781
5.77203e-05 0.00332031 3.8488e-05
-0.000199781 3.8488e-05 0.00331208
0.00256379 0.000554143 7.50991e-07
0.000554143 1.46949e-05 7.87638e-07
7.50991e-07 7.87638e-07 1.48644e-06
0.00242415 0.000271227 3.73402e-07
0.000271227 -4.54866e-05 2.26186e-09
3.73402e-07 2.26186e-09 1.0217e-05
0.0025813 0.000399679 8.84503e-07
0.000399679 -0.000100131 1.83866e-06
8.84503e-07 1.83866e-06 1.05569e-05
0.00243559 0.000206812 1.7177e-06
0.000206812 -0.000167303 2.49302e-07
1.7177e-06 2.49302e-07 -1.37094e-05
0.00236509 8.51418e-05 1.11319e-06
8.51418e-05 -8.37177e-05 1.56042e-07
1.11319e-06 1.56042e-07 -1.48209e-06
0.00221608 -1.50231e-05 -4.94317e-06
-1.50231e-05 -4.81743e-05 1.54702e-07
-4.94317e-06 1.54702e-07 -1.77727e-05
0.00236162 -1.52467e-05 5.01242e-07
-1.52467e-05 -8.69698e-05 -2.14152e-08
5.01242e-07 -2.14152e-08 2.73967e-06
0.00248512 0.000106387 4.03248e-07
0.000106387 -0.00015156 1.77673e-07
4.03248e-07 1.77673e-07 3.38047e-06
0.00254621 0.000290801 6.90442e-07
0.000290801 -0.000135805 -4.25314e-08
6.90442e-07 -4.25314e-08 1.1631e-05
0.00268338 0.000539052 3.66169e-07
0.000539052 -0.000114992 2.47446e-07
3.66169e-07 2.47446e-07 2.762e-06
0.00248464 -1.41562e-05 -1.92122e-06
-1.41562e-05 -0.000157201 -2.31511e-07
-1.92122e-06 -2.31511e-07 -5.45866e-06
0.00264478 0.000182225 1.17786e-07
0.000182225 -0.000179964 -8.19492e-07
1.17786e-07 -8.19492e-07 4.94236e-05
0.00277505 0.000384997 2.95036e-06
0.000384997 -0.000189722 -1.26825e-07
2.95036e-06 -1.26825e-07 2.42359e-05
0.00236488 -0.000130559 1.51059e-06
-0.000130559 -8.06091e-05 -1.76281e-07
1.51059e-06 -1.76281e-07 4.89325e-06
0.00243948 -0.0002788 3.90057e-08
-0.0002788 -8.94819e-05 -2.83776e-07
3.90057e-08 -2.83776e-07 -8.83019e-06
0.0025829 -0.000541836 -3.97466e-07
-0.000541836 -0.000112136 -1.31887e-07
-3.97466e-07 -1.31887e-07 -3.29229e-05
0.00286936 -0.00146119 -9.39816e-06
-0.00146119 0.00111885 1.90274e-06
-9.39816e-06 1.90274e-06 0.000208244
0.00217493 -0.00125218 4.4241e-07
-0.00125218 0.000399984 -2.06925e-06
4.4241e-07 -2.06925e-06 -0.000327055
0.00279674 -0.00119402 -1.63231e-06
-0.00119402 0.000576256 1.59865e-06
-1.63231e-06 1.59865e-06 1.64355e-05
0.00263217 -0.00073499 -8.02428e-07
-0.00073499 3.19172e-05 -7.71094e-08
-8.02428e-07 -7.71094e-08 -4.54212e-06
0.0028415 -0.00102066 -2.49557e-06
-0.00102066 0.000157221 5.00317e-07
-2.49557e-06 5.00317e-07 3.36947e-05
0.00279052 -0.00112141 5.83913e-06
-0.00112141 0.000333872 -3.07069e-06
5.83913e-06 -3.07069e-06 2.66847e-05
0.00194578 -0.00129402 -7.78935e-06
-0.00129402 0.000861005 -8.43641e-06
-7.78935e-06 -8.43641e-06 -8.65808e-05
0.00199438 -0.00125909 1.4674e-05
-0.00125909 0.000949756 -2.07996e-05
1.4674e-05 -2.07996e-05 -6.71184e-05
-0.000330902 -0.000812938 -8.76611e-06
-0.000812938 -0.000200287 -1.28366e-05
-8.76611e-06 -1.28366e-05 -0.00103517
3.84716e-06 1.23975e-06 5.56909e-06
1.23975e-06 -0.000147449 -1.07095e-05
5.56909e-06 -1.07095e-05 -0.000426114
0.0026931 -0.000522854 1.11954e-05
-0.000522854 0.0014902 -6.37956e-06
1.11954e-05 -6.37956e-06 0.00100952
-0.000963243 -7.66689e-05 9.45535e-06
-7.66689e-05 -0.000794076 1.02891e-06
9.45535e-06 1.02891e-06 -0.0012655
0.0024888 -0.000146803 -2.80369e-07
-0.000146803 -0.0001376 1.33163e-07
-2.80369e-07 1.33163e-07 -6.51944e-07
0.00261007 -0.000383527 6.39221e-08
-0.000383527 -0.000209866 -4.26583e-07
6.39221e-08 -4.26583e-07 -1.87377e-05
0.00273615 -0.000677159 -2.32283e-07
-0.000677159 -9.00074e-05 -4.42558e-08
-2.32283e-07 -4.42558e-08 1.20194e-05
0.00275365 -0.00151913 -1.23023e-06
-0.00151913 0.00107695 8.6821e-07
-1.23023e-06 8.6821e-07 0.000146905
0.00254216 -0.00146077 9.70191e-06
-0.00146077 0.000657239 -3.28852e-06
9.70191e-06 -3.28852e-06 -0.000160759
0.00277332 -0.00126271 -5.28558e-07
-0.00126271 0.000526816 -1.58053e-06
-5.28558e-07 -1.58053e-06 1.39409e-06
0.00278784 -0.000909112 6.74011e-07
-0.000909112 -1.52892e-05 -3.79199e-07
6.74011e-07 -3.79199e-07 -8.11663e-06
0.00288824 -0.0011764 2.28846e-06
-0.0011764 0.000262286 -1.75243e-06
2.28846e-06 -1.75243e-06 8.32621e-06
-0.000150744 2.20675e-05 3.72644e-07
2.20675e-05 -0.000301634 -7.12888e-06
3.72644e-07 -7.12888e-06 -0.000472859
0.000485865 -0.000184143 -1.45053e-06
-0.000184143 0.000266117 1.48423e-07
-1.45053e-06 1.48423e-07 -0.000154771
0.00206085 -0.00132506 -8.77873e-06
-0.00132506 0.000911161 9.46713e-08
-8.77873e-06 9.46713e-08 -4.99919e-05
0.00102547 -0.000939401 4.81375e-06
-0.000939401 0.000422332 1.98835e-06
4.81375e-06 1.98835e-06 -0.000522697
0.00173495 -0.000475289 -2.21024e-06
-0.000475289 0.000895532 -5.19802e-06
-2.21024e-06 -5.19802e-06 0.000425077
0.00140822 -0.000502937 1.80352e-06
-0.000502937 0.000832683 -3.77863e-06
1.80352e-06 -3.77863e-06 0.000336161
0.00258719 -0.000199939 1.68793e-06
-0.000199939 -0.000245636 5.13734e-07
1.68793e-06 5.13734e-07 -7.5974e-06
0.00286246 -0.000562647 3.29851e-06
-0.000562647 -0.000222209 -1.26542e-07
3.29851e-06 -1.26542e-07 3.90385e-05
0.00276824 -0.000843108 1.64824e-06
-0.000843108 -0.000161763 9.35457e-07
1.64824e-06 9.35457e-07 -4.64032e-05
0.00303498 -0.00117663 4.61068e-06
-0.00117663 0.000173018 1.33927e-06
4.61068e-06 1.33927e-06 4.77489e-05
0.00258577 -0.00156243 9.84674e-07
-0.00156243 0.00103095 -2.33933e-06
9.84674e-07 -2.33933e-06 9.53411e-05
0.00320398 -0.00151611 2.56349e-06
-0.00151611 0.000615942 -1.37748e-05
2.56349e-06 -1.37748e-05 0.000111236
0.00219354 -0.00151409 -5.39044e-05
-0.00151409 0.000478169 4.22717e-06
-5.39044e-05 4.22717e-06 -0.000362598
0.00036247 2.63917e-05 1.82511e-06
2.63917e-05 6.07591e-06 -5.46383e-06
1.82511e-06 -5.46383e-06 -0.000108949
0.000563383 -0.000193043 6.67179e-06
-0.000193043 0.000230184 -5.54403e-06
6.67179e-06 -5.54403e-06 3.55221e-05
-0.00152536 -1.24858e-06 -9.2075e-06
-1.24858e-06 -0.00105663 4.15217e-06
-9.2075e-06 4.15217e-06 -0.00137909
0.00128784 -0.000395975 -1.43776e-05
-0.000395975 0.000879151 1.60927e-05
-1.43776e-05 1.60927e-05 0.000405903
0.00350543 -0.000267063 -1.36931e-05
-0.000267063 0.00210382 2.49264e-06
-1.36931e-05 2.49264e-06 0.00175621
-0.000295701 -0.000365447 -8.22245e-06
-0.000365447 -0.00019734 1.31011e-06
-8.22245e-06 1.31011e-06 -0.000943771
0.00315805 -0.00158959 -5.48876e-05
-0.00158959 0.00143542 4.92548e-05
-5.48876e-05 4.92548e-05 0.000418746
0.00362508 -0.00134568 -6.35387e-05
-0.00134568 0.00209101 4.12252e-05
-6.35387e-05 4.12252e-05 0.000893497
0.000981008 0.000178627 7.84982e-06
0.000178627 0.000500886 -1.81256e-06
7.84982e-06 -1.81256e-06 0.000119328
0.00201069 0.000643908 9.46183e-06
0.000643908 0.00116311 3.24626e-05
9.46183e-06 3.24626e-05 0.000599975
0.00285599 0.000870743 -1.64888e-06
0.000870743 3.58274e-05 -1.69473e-06
-1.64888e-06 -1.69473e-06 7.96705e-06
0.00221794 0.000530126 -1.20858e-05
0.000530126 0.000451315 -1.0243e-05
-1.20858e-05 -1.0243e-05 4.48028e-05
0.00190635 0.00121459 8.63362e-06
0.00121459 0.00086953 -4.4504e-06
8.63362e-06 -4.4504e-06 3.25718e-06
0.00402185 0.00126967 1.19579e-05
0.00126967 0.00175993 6.95253e-06
1.19579e-05 6.95253e-06 0.00105654
0.0029046 0.000990485 -4.37682e-06
0.000990485 0.000416377 -3.7701e-06
-4.37682e-06 -3.7701e-06 8.70126e-05
0.00315528 0.000996419 -2.77982e-06
0.000996419 0.000436698 5.23601e-06
-2.77982e-06 5.23601e-06 0.000205673
0.00256642 0.00170476 -1.05806e-05
0.00170476 0.000926358 -5.05508e-06
-1.05806e-05 -5.05508e-06 -0.000104876
0.00286494 0.00182332 -2.50543e-05
0.00182332 0.000795684 -4.73014e-06
-2.50543e-05 -4.73014e-06 -0.000175577
-0.00145322 0.000279155 -2.0341e-06
0.000279155 -0.00101884 -5.71795e-07
-2.0341e-06 -5.71795e-07 -0.00139597
-0.00099826 0.000559352 3.68389e-06
0.000559352 -0.00041147 2.82758e-07
3.68389e-06 2.82758e-07 -0.00113485
0.00227303 0.00138964 4.14794e-07
0.00138964 0.000820357 -7.83945e-07
4.14794e-07 -7.83945e-07 -6.1277e-05
0.00320152 0.000968521 -1.03691e-05
0.000968521 0.00125854 -1.26698e-06
-1.03691e-05 -1.26698e-06 0.000696597
0.00287294 0.000726346 -2.05316e-07
0.000726346 -0.000331839 4.97327e-08
-2.05316e-07 4.97327e-08 -6.57924e-05
0.00300877 0.00106229 3.00597e-06
0.00106229 0.000129747 -1.27582e-06
3.00597e-06 -1.27582e-06 2.0601e-05
0.00297384 0.00135487 -4.66348e-06
0.00135487 0.000546133 -9.14893e-07
-4.66348e-06 -9.14893e-07 -6.56562e-05
0.00292177 0.00179607 2.3772e-06
0.00179607 0.000917727 1.40126e-06
2.3772e-06 1.40126e-06 -0.00010226
-0.00107536 4.84652e-05 -5.97093e-06
4.84652e-05 -0.000742324 -4.07782e-06
-5.97093e-06 -4.07782e-06 -0.00100364
0.00285927 0.000510618 8.02337e-06
0.000510618 -0.000396328 2.86239e-06
8.02337e-06 2.86239e-06 -5.10777e-05
0.00305351 0.000975875 -3.02866e-06
0.000975875 0.00202325 6.85432e-06
-3.02866e-06 6.85432e-06 0.00127677
0.00232289 0.0011869 1.15798e-05
0.0011869 0.000804593 -3.96996e-07
1.15798e-05 -3.96996e-07 2.99089e-05
0.00303004 0.00106259 -1.95887e-05
0.00106259 -9.54036e-05 -1.06416e-05
-1.95887e-05 -1.06416e-05 4.20626e-05
0.00237952 0.0013192 6.26804e-06
0.0013192 4.79205e-05 -1.06988e-05
6.26804e-06 -1.06988e-05 -0.000483277
0.0039153 0.00196298 1.09222e-05
0.00196298 0.00144004 7.06701e-06
1.09222e-05 7.06701e-06 0.000388171
0.00106507 0.000295567 4.49692e-06
0.000295567 0.000664492 1.18683e-05
4.49692e-06 1.18683e-05 0.00034515
0.000805945 0.000236452 -5.35563e-06
0.000236452 0.000515675 1.13076e-07
-5.35563e-06 1.13076e-07 0.000309643
-0.00127292 6.7009e-05 -3.75194e-06
6.7009e-05 -0.000810768 -2.19586e-06
-3.75194e-06 -2.19586e-06 -0.000974027
-0.00016669 9.05885e-06 4.1399e-06
9.05885e-06 -0.000266042 2.16637e-06
4.1399e-06 2.16637e-06 -0.000434413
0.000475568 0.000157182 9.45261e-06
0.000157182 0.000306781 -1.48341e-05
9.45261e-06 -1.48341e-05 9.77124e-06
-0.00101541 0.000168371 -1.07546e-05
0.000168371 -0.000544508 1.39233e-05
-1.07546e-05 1.39233e-05 -0.000801517
0.000459429 5.87976e-05 -1.61252e-06
5.87976e-05 0.000150407 -1.00023e-06
-1.61252e-06 -1.00023e-06 -3.11005e-05
0.000171355 3.75188e-05 8.7344e-07
3.75188e-05 6.69681e-05 -1.04612e-06
8.7344e-07 -1.04612e-06 -0.000188295
-0.000450937 0.000108145 2.21961e-07
0.000108145 -0.000345143 2.08062e-06
2.21961e-07 2.08062e-06 -0.000482797
0.000685773 0.000196411 3.44578e-06
0.000196411 0.000495083 -3.91069e-06
3.44578e-06 -3.91069e-06 0.000184877
0.00118238 0.00022491 -5.69231e-06
0.00022491 0.000704799 -1.35582e-05
-5.69231e-06 -1.35582e-05 0.000581775
0.00023406 0.000120866 -2.20316e-07
0.000120866 9.82446e-05 -1.63226e-05
-2.20316e-07 -1.63226e-05 -6.40476e-05
0.00136327 7.64323e-05 -7.10321e-06
7.64323e-05 0.000891482 5.36461e-06
-7.10321e-06 5.36461e-06 0.000598016
0.000656342 6.42492e-05 -7.42156e-06
6.42492e-05 0.000343676 7.91789e-07
-7.42156e-06 7.91789e-07 8.72943e-05
0.000605471 4.72327e-05 4.70471e-07
4.72327e-05 0.000225989 3.27405e-06
4.70471e-07 3.27405e-06 4.68037e-05
0.000416851 -9.89454e-05 -3.03351e-06
-9.89454e-05 6.44497e-05 4.02194e-06
-3.03351e-06 4.02194e-06 -5.44787e-05
0.000404799 1.82628e-05 1.05092e-06
1.82628e-05 4.84889e-05 -5.61724e-07
1.05092e-06 -5.61724e-07 -6.38253e-05
0.00141831 4.42889e-05 4.8628e-06
4.42889e-05 0.000695864 4.92125e-06
4.8628e-06 4.92125e-06 0.000659448
0.000374336 1.79353e-05 2.44449e-06
1.79353e-05 1.54717e-05 -2.65893e-06
2.44449e-06 -2.65893e-06 -8.45606e-05
0.0014648 2.4686e-05 -1.59494e-05
2.4686e-05 0.000727471 -2.3752e-06
-1.59494e-05 -2.3752e-06 0.000689099
0.000819014 1.1035e-05 4.80253e-05
1.1035e-05 0.000281771 1.16328e-05
4.80253e-05 1.16328e-05 0.000280925
0.00139061 -2.03434e-05 -1.60028e-05
-2.03434e-05 0.000669853 -9.29117e-06
-1.60028e-05 -9.29117e-06 0.000635077
0.000754513 -6.70848e-06 2.2955e-05
-6.70848e-06 0.000230942 4.98408e-06
2.2955e-05 4.98408e-06 0.000225464
0.000776071 -2.71979e-05 5.68946e-06
-2.71979e-05 0.000242919 -4.84489e-06
5.68946e-06 -4.84489e-06 0.000231463
0.00043532 -4.62923e-05 7.57496e-07
-4.62923e-05 3.78822e-05 -6.28187e-06
7.57496e-07 -6.28187e-06 -6.94505e-05
0.000150886 4.20757e-05 -5.98379e-07
4.20757e-05 -0.000152415 -9.68902e-06
-5.98379e-07 -9.68902e-06 -0.000208958
0.00021419 3.11909e-05 2.50822e-06
3.11909e-05 -0.000113083 1.45023e-06
2.50822e-06 1.45023e-06 -0.000177231
0.00374421 0.000139717 1.19433e-05
0.000139717 0.00225808 -8.66406e-06
1.19433e-05 -8.66406e-06 0.00224287
3.39058e-05 -2.40565e-05 -6.05415e-06
-2.40565e-05 -0.000234924 9.77519e-06
-6.05415e-06 9.77519e-06 -0.000319711
0.00402929 0.000225426 -1.24927e-05
0.000225426 0.00248564 -1.79914e-06
-1.24927e-05 -1.79914e-06 0.00244737
0.00486968 0.000144783 -9.57056e-05
0.000144783 0.00303522 1.47393e-05
-9.57056e-05 1.47393e-05 0.00301214
0.002699 0.000522254 -8.83636e-08
0.000522254 -9.80042e-05 5.96098e-07
-8.83636e-08 5.96098e-07 2.54364e-05
0.00253561 0.000296123 -6.61625e-07
0.000296123 -0.000148101 3.68833e-07
-6.61625e-07 3.68833e-07 -1.53031e-06
0.00244858 0.000112668 1.49991e-06
0.000112668 -0.000167382 4.15862e-07
1.49991e-06 4.15862e-07 -1.3179e-05
0.00236288 -1.48482e-05 3.67246e-07
-1.48482e-05 -8.58988e-05 -5.8684e-08
3.67246e-07 -5.8684e-08 5.30179e-06
0.00249044 -1.02253e-05 -3.40284e-07
-1.02253e-05 -0.000156364 -8.68963e-08
-3.40284e-07 -8.68963e-08 6.18849e-07
0.00259276 0.000182083 7.84464e-07
0.000182083 -0.000216063 3.25675e-07
7.84464e-07 3.25675e-07 1.58469e-05
0.00270452 0.000403191 -4.449e-07
0.000403191 -0.000214205 -1.67914e-08
-4.449e-07 -1.67914e-08 -2.97996e-06
0.00255457 -8.7635e-06 1.04292e-06
-8.7635e-06 -0.000286861 -3.44755e-07
1.04292e-06 -3.44755e-07 -3.16347e-05
0.00287899 0.000234953 3.88981e-06
0.000234953 -0.000233561 -1.9938e-06
3.88981e-06 -1.9938e-06 6.82747e-05
0.00277812 0.000261465 -3.49473e-07
0.000261465 -0.000516118 9.41371e-06
-3.49473e-07 9.41371e-06 -0.000122045
0.00251193 -0.00013792 1.46879e-06
-0.00013792 -0.00012085 -8.87319e-08
1.46879e-06 -8.87319e-08 1.17623e-05
0.00260809 -0.000401388 -1.82732e-06
-0.000401388 -0.000217646 4.439e-07
-1.82732e-06 4.439e-07 -2.25312e-05
0.00271244 -0.000660884 -1.70457e-07
-0.000660884 -9.60135e-05 3.42459e-07
-1.70457e-07 3.42459e-07 3.84282e-06
0.0024743 -0.00147954 -1.0712e-05
-0.00147954 0.000885754 -2.68291e-06
-1.0712e-05 -2.68291e-06 -3.30294e-05
0.00218426 -0.00141876 2.16166e-05
-0.00141876 0.0004425 -5.33533e-06
2.16166e-05 -5.33533e-06 -0.000365053
0.00289848 -0.00127265 1.92818e-05
-0.00127265 0.000580994 -9.36699e-07
1.92818e-05 -9.36699e-07 5.78119e-05
0.00277903 -0.000920816 9.64531e-07
-0.000920816 -2.11099e-05 -2.0354e-06
9.64531e-07 -2.0354e-06 -2.4466e-05
0.00290973 -0.00116318 3.60831e-06
-0.00116318 0.0002915 3.03037e-06
3.60831e-06 3.03037e-06 4.42679e-05
0.0022342 -0.00134958 1.27476e-05
-0.00134958 0.00100622 -2.81057e-05
1.27476e-05 -2.81057e-05 3.72175e-05
-0.000893179 -0.000576231 3.34615e-05
-0.000576231 -0.000726432 -2.25752e-05
3.34615e-05 -2.25752e-05 -0.00163116
0.00278888 -0.000604978 1.09911e-05
-0.000604978 0.00150575 -1.23948e-08
1.09911e-05 -1.23948e-08 0.00104723
0.000806714 -9.15239e-05 -3.28668e-06
-9.15239e-05 0.00033941 9.49466e-06
-3.28668e-06 9.49466e-06 0.000173889
-9.209e-05 -2.96466e-05 1.01684e-05
-2.96466e-05 -0.00015996 -1.02672e-05
1.01684e-05 -1.02672e-05 -0.000538302
-0.000183539 -0.000328593 8.69505e-06
-0.000328593 -0.000227479 -1.19205e-05
8.69505e-06 -1.19205e-05 -0.000705641
0.00260364 -0.000201352 2.41921e-07
-0.000201352 -0.000240351 -2.52354e-07
2.41921e-07 -2.52354e-07 2.45368e-06
0.000594417 -7.13305e-05 2.50675e-06
-7.13305e-05 0.000154723 5.0631e-07
2.50675e-06 5.0631e-07 3.09048e-05
0.000444131 -0.000127543 -4.16527e-06
-0.000127543 0.000122338 -5.16846e-07
-4.16527e-06 -5.16846e-07 -4.80765e-05
0.00279886 -0.000554896 1.03659e-08
-0.000554896 -0.000250938 1.00523e-07
1.03659e-08 1.00523e-07 1.39555e-06
0.00280265 -0.000833416 -1.65465e-06
-0.000833416 -0.000120365 5.09895e-07
-1.65465e-06 5.09895e-07 -8.46808e-06
0.00270719 -0.00159593 -2.33044e-06
-0.00159593 0.00109292 2.32392e-06
-2.33044e-06 2.32392e-06 0.000135077
0.00350328 -0.00176231 1.074e-05
-0.00176231 0.00118581 -3.56761e-06
1.074e-05 -3.56761e-06 0.000276963
0.00307998 -0.00148305 3.97926e-06
-0.00148305 0.000567971 -9.7095e-07
3.97926e-06 -9.7095e-07 7.52788e-05
0.00292267 -0.00116843 2.29413e-06
-0.00116843 0.000103603 -1.20972e-06
2.29413e-06 -1.20972e-06 -1.08323e-05
8.32034e-05 -7.5465e-05 -4.03882e-06
-7.5465e-05 -1.32612e-06 -1.41827e-06
-4.03882e-06 -1.41827e-06 -0.000323899
0.000635323 -0.000292018 1.05511e-06
-0.000292018 0.000424887 8.25556e-07
1.05511e-06 8.25556e-07 -2.81391e-05
0.0023999 -0.00137999 1.8934e-05
-0.00137999 0.00106307 5.59174e-06
1.8934e-05 5.59174e-06 9.45725e-05
0.00223817 -0.00112822 1.90034e-05
-0.00112822 0.00127199 -1.87124e-05
1.90034e-05 -1.87124e-05 0.00015605
0.00135429 -0.000459723 -5.00308e-06
-0.000459723 0.000794897 -1.90081e-06
-5.00308e-06 -1.90081e-06 0.000124301
0.000969863 -0.000390953 1.16622e-05
-0.000390953 0.000504303 -3.65535e-06
1.16622e-05 -3.65535e-06 0.000157614
0.002691 -0.000264817 3.60847e-06
-0.000264817 -0.00050025 -2.11002e-06
3.60847e-06 -2.11002e-06 -0.000100146
0.00308287 -0.000754975 -3.73027e-07
-0.000754975 -0.000139146 3.57719e-06
-3.73027e-07 3.57719e-06 0.000142208
0.00322713 -0.00123582 2.22107e-06
-0.00123582 6.45953e-05 -1.38009e-06
2.22107e-06 -1.38009e-06 5.93135e-05
0.00290493 -0.00140228 8.87951e-06
-0.00140228 0.000260941 -1.84022e-06
8.87951e-06 -1.84022e-06 -5.5952e-05
0.00084743 -0.00137402 1.56734e-05
-0.00137402 6.05449e-05 -7.82382e-06
1.56734e-05 -7.82382e-06 -0.00086821
0.00387386 -0.00203495 -1.55373e-06
-0.00203495 0.00120983 -1.91893e-05
-1.55373e-06 -1.91893e-05 0.00029211
0.000590977 9.21063e-05 -5.60023e-06
9.21063e-05 0.000218873 -4.82789e-06
-5.60023e-06 -4.82789e-06 4.38161e-05
-0.00119493 -9.73239e-05 3.93714e-06
-9.73239e-05 -0.000914296 1.35215e-06
3.93714e-06 1.35215e-06 -0.0011232
0.00176712 -0.000288907 -1.61165e-05
-0.000288907 0.00106869 1.71848e-05
-1.61165e-05 1.71848e-05 0.000821162
0.000267632 -0.000142444 -9.83996e-06
-0.000142444 0.000139398 2.00809e-05
-9.83996e-06 2.00809e-05 -0.000204058
0.00164212 -0.000500872 -2.29337e-05
-0.000500872 0.00103579 3.42695e-05
-2.29337e-05 3.42695e-05 0.000624427
-0.000318127 -0.000152033 -1.78628e-05
-0.000152033 -0.000417617 -1.1726e-05
-1.78628e-05 -1.1726e-05 -0.000690102
0.000630808 -0.000856894 -3.01188e-05
-0.000856894 0.000909766 3.03794e-05
-3.01188e-05 3.03794e-05 -0.000402493
0.00194854 -0.00170186 -0.000123286
-0.00170186 0.000560021 2.81386e-05
-0.000123286 2.81386e-05 -0.00024927
-8.56269e-05 0.000587822 9.81e-07
0.000587822 -3.20043e-05 3.58458e-06
9.81e-07 3.58458e-06 -0.000450287
0.00465593 0.000891946 -7.29625e-06
0.000891946 0.00295352 5.89897e-06
-7.29625e-06 5.89897e-06 0.002382
0.00280289 0.000684376 -6.27492e-06
0.000684376 -0.00039808 -4.59569e-06
-6.27492e-06 -4.59569e-06 -0.000108768
0.00313856 0.00105692 -6.16881e-06
0.00105692 0.000218429 -2.12373e-06
-6.16881e-06 -2.12373e-06 7.94261e-05
0.00368207 0.000919787 -8.65049e-06
0.000919787 0.00168304 -1.94594e-06
-8.65049e-06 -1.94594e-06 0.00114921
0.00152324 0.001318 -6.41515e-06
0.001318 0.000287143 -1.15885e-05
-6.41515e-06 -1.15885e-05 -0.000586414
0.00282379 0.00131189 -7.42087e-06
0.00131189 0.000510834 9.17751e-07
-7.42087e-06 9.17751e-07 -8.34909e-05
0.00311081 0.0017709 -2.2196e-05
0.0017709 0.00102791 -5.82972e-06
-2.2196e-05 -5.82972e-06 3.35028e-05
8.49574e-07 0.000415703 1.35952e-06
0.000415703 9.48955e-05 -1.93847e-07
1.35952e-06 -1.93847e-07 -0.000301317
0.00285096 0.000506469 -5.15076e-06
0.000506469 -0.000399418 -5.23255e-06
-5.15076e-06 -5.23255e-06 -3.80529e-05
0.0028128 0.000869551 2.65997e-06
0.000869551 0.00191206 5.73213e-06
2.65997e-06 5.73213e-06 0.00123941
0.00161248 0.00106367 3.5993e-06
0.00106367 0.000418783 2.4581e-06
3.5993e-06 2.4581e-06 -0.000321461
0.00307516 0.00101639 -1.22831e-07
0.00101639 -2.07502e-05 -3.21282e-07
-1.22831e-07 -3.21282e-07 0.000122449
0.00273155 0.00138927 -4.38483e-06
0.00138927 0.000275076 -7.0441e-06
-4.38483e-06 -7.0441e-06 -0.000260559
0.00333499 0.00181455 -7.29484e-07
0.00181455 0.00113357 -2.85614e-07
-7.29484e-07 -2.85614e-07 0.000132574
0.00106343 0.000557073 -5.75783e-06
0.000557073 0.000894287 -7.83566e-06
-5.75783e-06 -7.83566e-06 0.000339294
0.0050186 0.00114146 -0.000152315
0.00114146 0.000592276 -5.91244e-05
-0.000152315 -5.91244e-05 0.00121404
5.16289e-05 0.000719646 -8.59839e-06
0.000719646 3.5652e-05 2.09422e-05
-8.59839e-06 2.09422e-05 -0.00066734
0.00189443 0.00124397 8.84572e-06
0.00124397 0.000652639 -8.61015e-06
8.84572e-06 -8.61015e-06 -0.000239338
0.00396681 0.00149305 -5.83393e-05
0.00149305 0.000804119 -2.37061e-05
-5.83393e-05 -2.37061e-05 0.000582822
0.00275199 0.00174159 -3.40285e-05
0.00174159 0.000762983 -1.09295e-05
-3.40285e-05 -1.09295e-05 -0.00016972
0.000998312 0.00254098 -9.5931e-06
0.00254098 -0.00431037 -5.49169e-05
-9.5931e-06 -5.49169e-05 -0.00164274
0.000831799 0.000305126 9.1552e-06
0.000305126 0.000609857 2.19511e-05
9.1552e-06 2.19511e-05 0.000386594
0.000143484 0.000217487 -4.78168e-06
0.000217487 0.000161439 -1.80317e-06
-4.78168e-06 -1.80317e-06 -3.85014e-05
-0.000430975 0.000158736 -3.48123e-06
0.000158736 -0.000207057 -4.72818e-07
-3.48123e-06 -4.72818e-07 -0.000423298
0.000207639 -5.21119e-05 4.22193e-06
-5.21119e-05 -2.04044e-05 -1.86841e-06
4.22193e-06 -1.86841e-06 -0.000198923
-0.000466231 5.04643e-05 6.88254e-06
5.04643e-05 -0.000352401 -8.43175e-06
6.88254e-06 -8.43175e-06 -0.000599701
0.00199057 0.000374364 -2.30873e-06
0.000374364 0.00134828 -7.70632e-06
-2.30873e-06 -7.70632e-06 0.00102251
-0.00224964 -1.70596e-05 -1.43516e-05
-1.70596e-05 -0.00143146 1.33377e-05
-1.43516e-05 1.33377e-05 -0.00157789
0.00038553 5.51647e-06 5.09404e-07
5.51647e-06 8.71464e-05 -5.70921e-07
5.09404e-07 -5.70921e-07 -9.45453e-05
0.000406765 0.00011266 8.52965e-07
0.00011266 0.000133063 -2.10856e-07
8.52965e-07 -2.10856e-07 -7.81524e-05
0.000110172 0.000167629 3.67893e-06
0.000167629 3.46915e-05 2.8408e-06
3.67893e-06 2.8408e-06 -6.63009e-05
4.91852e-07 8.76803e-05 1.41346e-06
8.76803e-05 -1.41462e-05 2.8116e-07
1.41346e-06 2.8116e-07 -0.000287531
0.000286383 0.000116742 2.32125e-06
0.000116742 0.000148957 3.11682e-06
2.32125e-06 3.11682e-06 -3.65023e-05
-4.25484e-05 0.000120309 7.66933e-06
0.000120309 0.000123051 -2.33079e-05
7.66933e-06 -2.33079e-05 -9.32198e-05
0.00096909 0.000143909 -3.29736e-06
0.000143909 0.000641173 -6.47063e-07
-3.29736e-06 -6.47063e-07 0.00035665
0.000683485 0.000128244 -4.6937e-06
0.000128244 0.00037519 8.86229e-07
-4.6937e-06 8.86229e-07 0.000140929
0.000846098 0.000166773 -8.42968e-06
0.000166773 0.000441085 -7.09941e-06
-8.42968e-06 -7.09941e-06 0.000221516
-4.23762e-05 5.78191e-06 -2.93867e-06
5.78191e-06 -0.0002279 -1.27863e-06
-2.93867e-06 -1.27863e-06 -0.000386209
0.00120327 -0.00025151 9.83746e-06
-0.00025151 0.000792079 -1.33501e-05
9.83746e-06 -1.33501e-05 0.000482705
0.000122318 -5.97597e-05 -3.39007e-06
-5.97597e-05 -9.36947e-05 1.89347e-06
-3.39007e-06 1.89347e-06 -0.000272341
0.000264634 5.14217e-06 -2.93949e-06
5.14217e-06 -3.15056e-05 3.16091e-06
-2.93949e-06 3.16091e-06 -0.000150846
0.00038632 5.50638e-05 2.30073e-06
5.50638e-05 5.06474e-05 -8.86794e-08
2.30073e-06 -8.86794e-08 -7.17384e-05
0.000274013 2.05435e-05 -4.18351e-06
2.05435e-05 -5.82321e-05 6.35987e-06
-4.18351e-06 6.35987e-06 -0.00010243
0.000236142 -3.11152e-06 -4.54865e-07
-3.11152e-06 -5.09121e-05 -4.94342e-06
-4.54865e-07 -4.94342e-06 -0.000171328
0.000839127 1.96773e-05 -6.31139e-06
1.96773e-05 0.00031529 -1.75547e-06
-6.31139e-06 -1.75547e-06 0.000274875
0.00289924 1.5224e-05 4.28582e-05
1.5224e-05 0.00167036 7.88132e-06
4.28582e-05 7.88132e-06 0.00168024
0.00145416 8.43718e-05 -2.73525e-05
8.43718e-05 0.000728181 -1.01339e-05
-2.73525e-05 -1.01339e-05 0.000687291
0.000755843 9.39758e-07 2.11611e-05
9.39758e-07 0.000235304 4.70739e-06
2.11611e-05 4.70739e-06 0.000232226
0.000781145 -1.70767e-05 4.54674e-06
-1.70767e-05 0.000243592 -3.56144e-06
4.54674e-06 -3.56144e-06 0.000236402
0.000251189 3.0385e-06 -3.87317e-06
3.0385e-06 -5.4212e-05 -7.95118e-06
-3.87317e-06 -7.95118e-06 -0.000161622
0.00060124 -7.83835e-05 5.74366e-07
-7.83835e-05 0.000166333 -4.14436e-07
5.74366e-07 -4.14436e-07 4.56907e-05
0.000304881 2.18789e-05 -5.69359e-07
2.18789e-05 -6.49873e-05 -7.6554e-06
-5.69359e-07 -7.6554e-06 -0.000108064
0.00100499 3.82905e-05 -7.28286e-08
3.82905e-05 0.000407078 -4.42753e-08
-7.28286e-08 -4.42753e-08 0.000357226
0.00314547 0.000109639 -2.48845e-06
0.000109639 0.00184877 -8.30854e-06
-2.48845e-06 -8.30854e-06 0.00184179
0.000381618 1.15182e-05 -3.28728e-06
1.15182e-05 -2.48392e-07 1.03776e-05
-3.28728e-06 1.03776e-05 -6.73777e-05
0.00328857 0.000144858 -7.92129e-07
0.000144858 0.00195634 -1.19802e-07
-7.92129e-07 -1.19802e-07 0.00194022
0.00450715 0.000135596 -3.85295e-05
0.000135596 0.00277127 9.76369e-06
-3.85295e-05 9.76369e-06 0.0027501
0.00263753 0.000419185 -3.46548e-06
0.000419185 -0.000242435 -6.81412e-07
-3.46548e-06 -6.81412e-07 -3.11235e-05
0.00253504 0.000181787 -1.13136e-07
0.000181787 -0.000258783 8.07628e-07
-1.13136e-07 8.07628e-07 -2.279e-05
0.00249983 -6.15093e-06 8.5715e-07
-6.15093e-06 -0.00015465 2.03741e-08
8.5715e-07 2.03741e-08 7.61755e-06
0.00253484 1.37389e-06 -1.40799e-07
1.37389e-06 -0.000299275 -2.30739e-07
-1.40799e-07 -2.30739e-07 -4.24811e-05
0.00283084 0.000246847 1.07305e-06
0.000246847 -0.000261743 5.38982e-07
1.07305e-06 5.38982e-07 4.20339e-05
0.0029198 0.000223158 6.48442e-06
0.000223158 -0.000420941 -5.83664e-06
6.48442e-06 -5.83664e-06 -4.1455e-05
0.00302222 8.58347e-05 4.27718e-06
8.58347e-05 -0.000315479 1.28628e-06
4.27718e-06 1.28628e-06 6.61695e-05
0.0069371 0.00292139 -2.68004e-05
0.00292139 -0.00226795 2.56368e-05
-2.68004e-05 2.56368e-05 0.000740056
0.00312574 0.000296104 -9.87382e-05
0.000296104 -0.000604397 4.93411e-06
-9.87382e-05 4.93411e-06 0.000153176
0.000289111 0.00012182 -3.66469e-06
0.00012182 1.98885e-05 -2.97916e-06
-3.66469e-06 -2.97916e-06 -0.00014712
0.00261292 -0.000200753 -1.62742e-06
-0.000200753 -0.000241952 -4.20935e-07
-1.62742e-06 -4.20935e-07 6.36911e-06
0.00273919 -0.00054378 -3.54248e-06
-0.00054378 -0.000274487 -1.22356e-07
-3.54248e-06 -1.22356e-07 -3.21784e-05
0.0028467 -0.00082026 6.71777e-07
-0.00082026 -7.20631e-05 -7.09262e-07
6.71777e-07 -7.09262e-07 3.85917e-05
0.00292092 -0.00163407 -1.25692e-05
-0.00163407 0.00123223 -2.3751e-06
-1.25692e-05 -2.3751e-06 0.000256936
0.00264289 -0.00161458 2.72664e-05
-0.00161458 0.000687259 3.52348e-06
2.72664e-05 3.52348e-06 -0.000170716
0.00292244 -0.00144837 -7.50117e-07
-0.00144837 0.000498859 1.34875e-05
-7.50117e-07 1.34875e-05 1.68576e-05
0.00279943 -0.00116407 1.82237e-07
-0.00116407 2.28232e-05 -4.82762e-06
1.82237e-07 -4.82762e-06 -8.15511e-05
0.00248351 -0.0013451 7.92165e-05
-0.0013451 0.00107817 -7.13479e-05
7.92165e-05 -7.13479e-05 0.000164949
0.00230443 -0.0011664 8.38758e-05
-0.0011664 0.00127099 -6.73261e-05
8.38758e-05 -6.73261e-05 0.000177725
-0.000770463 -0.000238658 2.54674e-05
-0.000238658 -0.000549731 9.08588e-06
2.54674e-05 9.08588e-06 -0.0012264
0.000546869 -3.09161e-05 -3.09794e-07
-3.09161e-05 0.000113952 6.94612e-06
-3.09794e-07 6.94612e-06 -1.53376e-05
0.000801321 -0.000441317 -1.85987e-06
-0.000441317 0.000421307 -5.8049e-06
-1.85987e-06 -5.8049e-06 5.82509e-05
0.00187881 -0.000190015 1.16087e-05
-0.000190015 0.00124337 -7.64353e-06
1.16087e-05 -7.64353e-06 0.000874452
-0.000375175 -0.000177928 7.63528e-06
-0.000177928 -0.000291296 -1.3822e-05
7.63528e-06 -1.3822e-05 -0.000700166
0.000727065 -0.000138413 -8.33846e-06
-0.000138413 0.000335349 4.32564e-06
-8.33846e-06 4.32564e-06 0.000147048
0.00277664 -0.000282021 -4.30941e-07
-0.000282021 -0.000431958 -8.38522e-07
-4.30941e-07 -8.38522e-07 -4.15269e-05
0.000592323 7.52809e-05 1.19708e-06
7.52809e-05 0.000235144 -1.92673e-06
1.19708e-06 -1.92673e-06 4.89118e-05
0.000834867 -0.00021553 2.26605e-06
-0.00021553 0.000510128 3.24145e-06
2.26605e-06 3.24145e-06 0.000233356
0.000666932 -0.00016882 9.47482e-06
-0.00016882 0.000316915 1.08335e-06
9.47482e-06 1.08335e-06 0.000105704
0.00288927 -0.000744698 3.02707e-06
-0.000744698 -0.000283637 -5.06403e-07
3.02707e-06 -5.06403e-07 -1.78881e-06
0.00315987 -0.00120411 -8.33581e-07
-0.00120411 5.3231e-05 5.24583e-07
-8.33581e-07 5.24583e-07 6.10623e-05
0.00273785 -0.00159883 -7.04553e-06
-0.00159883 0.0010872 2.34594e-06
-7.04553e-06 2.34594e-06 0.00016586
0.00258692 -0.00183653 1.15336e-05
-0.00183653 0.000504276 -9.92754e-07
1.15336e-05 -9.92754e-07 -0.000349317
0.00298324 -0.00143363 3.15907e-07
-0.00143363 0.000302897 9.07968e-07
3.15907e-07 9.07968e-07 -3.33372e-05
9.88661e-05 -0.000133716 -4.152e-07
-0.000133716 2.02814e-05 5.06422e-07
-4.152e-07 5.06422e-07 -0.000316786
0.00214887 -0.00047256 1.25129e-05
-0.00047256 0.00139095 -1.47288e-06
1.25129e-05 -1.47288e-06 0.000961435
0.00377067 -0.0020314 -7.92632e-06
-0.0020314 0.00162835 1.53316e-05
-7.92632e-06 1.53316e-05 0.000586517
0.00118487 -0.000548315 -5.86793e-06
-0.000548315 0.000812976 5.91904e-06
-5.86793e-06 5.91904e-06 -0.000213337
0.00112385 -0.000294651 8.20536e-06
-0.000294651 0.000495748 1.21412e-05
8.20536e-06 1.21412e-05 0.000173845
0.00302723 -0.000539619 -2.77661e-05
-0.000539619 -0.000459339 5.68545e-06
-2.77661e-05 5.68545e-06 3.31699e-05
0.00283658 -0.000890594 -2.37185e-05
-0.000890594 -0.000358441 1.15188e-05
-2.37185e-05 1.15188e-05 6.51522e-05
0.00323288 -0.00149207 -1.74879e-06
-0.00149207 0.00029459 -8.7949e-06
-1.74879e-06 -8.7949e-06 3.43897e-05
0.00377384 -0.00181564 1.45116e-05
-0.00181564 0.00106787 -1.24724e-05
1.45116e-05 -1.24724e-05 0.000379471
0.00276756 -0.001895 2.17384e-05
-0.001895 0.000883745 -1.90849e-06
2.17384e-05 -1.90849e-06 -0.000104737
0.0011164 -8.23791e-06 -1.13604e-05
-8.23791e-06 0.000620008 9.62166e-07
-1.13604e-05 9.62166e-07 0.000445581
-0.000358957 -0.00011106 -1.19075e-05
-0.00011106 -0.000371377 2.5307e-05
-1.19075e-05 2.5307e-05 -0.000612302
-0.000307301 -0.000122293 -7.0809e-06
-0.000122293 -0.000263133 1.36613e-05
-7.0809e-06 1.36613e-05 -0.000445277
0.00239289 -0.000561492 -6.89104e-05
-0.000561492 0.00150864 6.18607e-05
-6.89104e-05 6.18607e-05 0.00112229
0.000583586 -0.000265554 1.59664e-05
-0.000265554 0.000268727 2.77718e-05
1.59664e-05 2.77718e-05 -1.9209e-05
-0.00151412 7.44782e-06 -9.52654e-06
7.44782e-06 -0.000515664 7.31894e-06
-9.52654e-06 7.31894e-06 -0.00132666
0.00210923 -0.00204714 -4.64781e-05
-0.00204714 0.00121651 -2.72942e-05
-4.64781e-05 -2.72942e-05 -4.05277e-05
0.00393042 0.000839554 7.9538e-06
0.000839554 0.00259899 2.83579e-06
7.9538e-06 2.83579e-06 0.00209029
-0.000300336 0.000426044 -7.58788e-06
0.000426044 3.20363e-05 -4.13233e-07
-7.58788e-06 -4.13233e-07 -0.000545976
0.00281539 0.000495059 8.76816e-06
0.000495059 -0.000443048 5.86683e-06
8.76816e-06 5.86683e-06 -4.55226e-05
0.00313059 0.000972558 1.78641e-05
0.000972558 4.55092e-05 1.20294e-05
1.78641e-05 1.20294e-05 0.000202002
0.00307774 0.00145724 4.55016e-06
0.00145724 0.000497039 2.94606e-06
4.55016e-06 2.94606e-06 -4.09317e-05
0.00114377 0.000977625 -1.09229e-05
0.000977625 0.000188525 -1.68619e-06
-1.09229e-05 -1.68619e-06 -0.000527572
0.00272937 0.00167099 -4.25586e-06
0.00167099 0.000815217 3.51316e-06
-4.25586e-06 3.51316e-06 -0.000137206
0.00316211 0.000743467 -3.83519e-07
0.000743467 0.00220075 -2.33784e-06
-3.83519e-07 -2.33784e-06 0.00165004
0.00340984 0.000914896 2.71081e-05
0.000914896 -0.0003875 7.01244e-06
2.71081e-05 7.01244e-06 0.000399944
0.000827585 0.000774734 -7.22453e-06
0.000774734 0.00045478 1.05245e-05
-7.22453e-06 1.05245e-05 -0.000215947
0.00234868 0.00134747 5.6499e-06
0.00134747 0.000940194 -3.25068e-06
5.6499e-06 -3.25068e-06 6.316e-06
0.00323571 0.00135255 -5.29051e-06
0.00135255 0.000474009 -3.50465e-06
-5.29051e-06 -3.50465e-06 0.000299094
0.00305848 0.00179685 -1.35862e-06
0.00179685 0.000928338 7.00944e-06
-1.35862e-06 7.00944e-06 -2.45688e-05
0.00247512 0.00303563 3.11245e-05
0.00303563 -0.00381967 -8.86863e-06
3.11245e-05 -8.86863e-06 -0.0012377
0.000266068 0.000509077 5.36603e-06
0.000509077 0.000533873 1.79093e-06
5.36603e-06 1.79093e-06 -0.000157628
0.00443215 0.00188927 -0.000140327
0.00188927 0.000282406 -5.17464e-05
-0.000140327 -5.17464e-05 0.000565247
0.000675773 0.000927944 -2.37916e-05
0.000927944 0.000147625 1.69804e-05
-2.37916e-05 1.69804e-05 -0.000616864
0.00221823 0.0015768 -1.08079e-05
0.0015768 0.000747481 -2.7882e-05
-1.08079e-05 -2.7882e-05 -0.000239326
0.00495078 0.0021851 -7.52219e-05
0.0021851 0.00166508 -4.26942e-05
-7.52219e-05 -4.26942e-05 0.000893188
0.015381 0.0013624 -0.00101298
0.0013624 -0.00303677 -0.000111445
-0.00101298 -0.000111445 0.000686506
0.00274633 0.00482832 -0.000331016
0.00482832 -0.0065125 -0.000247134
-0.000331016 -0.000247134 4.35406e-05
0.00155965 0.00367909 4.46482e-05
0.00367909 -0.00189062 -6.78169e-06
4.46482e-05 -6.78169e-06 -0.00117261
0.0102623 -0.0103192 0.00437696
-0.0103192 0.00905841 -0.000817012
0.00437696 -0.000817012 -0.00353289
0.0414596 -0.0243477 -0.000332989
-0.0243477 0.0327361 -5.39332e-05
-0.000332989 -5.39332e-05 0.0108195
0.00283635 0.000426014 1.57754e-05
0.000426014 0.00193166 7.92197e-06
1.57754e-05 7.92197e-06 0.00167984
0.000510992 0.000204051 -6.58365e-07
0.000204051 0.000454047 6.54879e-07
-6.58365e-07 6.54879e-07 0.000195909
0.000649763 0.000353542 5.62803e-06
0.000353542 0.000646807 -1.15447e-05
5.62803e-06 -1.15447e-05 0.000275478
0.000563368 -5.96333e-05 3.49293e-06
-5.96333e-05 0.000222065 -7.91945e-07
3.49293e-06 -7.91945e-07 3.14884e-05
0.000673855 8.58292e-05 7.78113e-06
8.58292e-05 0.000338257 -2.79534e-06
7.78113e-06 -2.79534e-06 0.000121547
-0.000126235 5.1695e-06 2.01716e-06
5.1695e-06 -9.86587e-05 -3.03118e-06
2.01716e-06 -3.03118e-06 -0.000370006
0.000104617 0.000105751 4.8513e-06
0.000105751 2.43506e-05 1.11058e-05
4.8513e-06 1.11058e-05 -0.000157745
-0.000872969 0.000121628 3.35882e-06
0.000121628 -0.000573425 1.88482e-05
3.35882e-06 1.88482e-05 -0.00064196
0.000705705 0.000158693 -3.45538e-06
0.000158693 0.000449682 2.08656e-06
-3.45538e-06 2.08656e-06 0.000180507
0.000388775 -1.47784e-05 1.35848e-07
-1.47784e-05 7.51599e-05 1.77468e-07
1.35848e-07 1.77468e-07 -9.83885e-05
0.000754411 8.72232e-05 -4.85932e-07
8.72232e-05 0.000380335 7.95104e-07
-4.85932e-07 7.95104e-07 0.000159299
0.00024667 0.000159427 -1.85157e-06
0.000159427 0.00025029 -9.42219e-07
-1.85157e-06 -9.42219e-07 6.14576e-05
0.000465309 8.42566e-05 1.27044e-06
8.42566e-05 0.000308308 2.05997e-07
1.27044e-06 2.05997e-07 4.07652e-05
0.000967128 0.000163466 -9.03066e-07
0.000163466 0.000690034 5.53609e-06
-9.03066e-07 5.53609e-06 0.000370554
0.000141356 9.79813e-05 9.03337e-07
9.79813e-05 0.000260544 -1.16409e-05
9.03337e-07 -1.16409e-05 -6.81046e-05
0.000969676 0.000139089 -1.80149e-08
0.000139089 0.000626827 -3.62052e-06
-1.80149e-08 -3.62052e-06 0.000366924
8.66091e-05 8.88633e-06 -3.29562e-06
8.88633e-06 -9.36479e-05 -8.24866e-06
-3.29562e-06 -8.24866e-06 -0.000284502
6.60451e-05 -6.12068e-05 -1.77441e-06
-6.12068e-05 -0.000146133 -2.00458e-06
-1.77441e-06 -2.00458e-06 -0.000321603
-0.000276198 -6.51697e-05 2.86784e-06
-6.51697e-05 -0.000311171 -9.54745e-06
2.86784e-06 -9.54745e-06 -0.000504293
0.000381959 -5.16408e-05 1.15272e-05
-5.16408e-05 0.000230003 1.53742e-05
1.15272e-05 1.53742e-05 1.59571e-05
-0.000140279 -7.10058e-05 6.77728e-06
-7.10058e-05 -7.53937e-05 -8.23961e-06
6.77728e-06 -8.23961e-06 -0.000357085
0.00115786 -0.000279474 1.9595e-06
-0.000279474 0.000714656 1.76103e-06
1.9595e-06 1.76103e-06 0.000449486
0.000437039 -0.000147095 -3.0614e-06
-0.000147095 0.000160082 -6.07476e-06
-3.0614e-06 -6.07476e-06 -4.01637e-05
-0.000379069 -5.85014e-05 -1.56726e-06
-5.85014e-05 -0.000423543 2.38162e-06
-1.56726e-06 2.38162e-06 -0.000603995
0.000453175 -9.0784e-05 -1.61812e-06
-9.0784e-05 7.9314e-05 2.04967e-06
-1.61812e-06 2.04967e-06 -3.03625e-05
0.000446388 -5.94862e-05 2.79218e-06
-5.94862e-05 8.87035e-05 6.24273e-08
2.79218e-06 6.24273e-08 -3.18451e-05
0.000267856 1.88155e-06 6.13695e-06
1.88155e-06 -5.83862e-05 8.38467e-06
6.13695e-06 8.38467e-06 -0.000103113
0.000418549 8.27714e-05 -1.45395e-06
8.27714e-05 6.14236e-05 -4.647e-06
-1.45395e-06 -4.647e-06 -5.34108e-05
0.000284184 3.64807e-05 4.18391e-07
3.64807e-05 -5.25056e-05 2.46608e-07
4.18391e-07 2.46608e-07 -9.58123e-05
0.00283248 2.25991e-05 3.12554e-05
2.25991e-05 0.0016267 7.43555e-06
3.12554e-05 7.43555e-06 0.00163549
0.000308763 9.24463e-05 -7.68134e-06
9.24463e-05 -2.87982e-05 -1.04707e-05
-7.68134e-06 -1.04707e-05 -8.00637e-05
0.00176742 4.80324e-06 -1.8528e-05
4.80324e-06 0.000912215 -2.94941e-07
-1.8528e-05 -2.94941e-07 0.000914594
0.000835843 -7.73401e-06 2.97906e-06
-7.73401e-06 0.000279863 -2.60885e-06
2.97906e-06 -2.60885e-06 0.00027598
0.000413686 2.34314e-05 2.8638e-08
2.34314e-05 3.10012e-05 -4.10271e-06
2.8638e-08 -4.10271e-06 -4.97148e-05
0.000384171 -5.86933e-05 9.31149e-07
-5.86933e-05 3.10707e-05 1.20228e-07
9.31149e-07 1.20228e-07 -7.69315e-05
0.000362128 -4.37221e-06 2.10777e-06
-4.37221e-06 -2.95966e-05 -6.86855e-06
2.10777e-06 -6.86855e-06 -6.42341e-05
0.000596805 -9.94889e-05 -8.30652e-07
-9.94889e-05 0.000165597 2.98739e-06
-8.30652e-07 2.98739e-06 4.15281e-05
0.000944594 3.96263e-05 1.18351e-06
3.96263e-05 0.000366526 -1.04419e-06
1.18351e-06 -1.04419e-06 0.00032326
0.00297363 7.83525e-05 2.40348e-06
7.83525e-05 0.00172403 -7.51771e-06
2.40348e-06 -7.51771e-06 0.00172421
0.000133723 2.64585e-05 -2.30381e-06
2.64585e-05 -0.000179912 9.17801e-06
-2.30381e-06 9.17801e-06 -0.00023256
0.00344447 0.000117684 -1.05837e-05
0.000117684 0.00205412 1.44097e-06
-1.05837e-05 1.44097e-06 0.0020449
0.0036505 0.000174802 3.47959e-05
0.000174802 0.00221196 1.46622e-05
3.47959e-05 1.46622e-05 0.00218937
0.00277483 0.000262203 -4.02697e-06
0.000262203 -0.000294493 -8.38443e-07
-4.02697e-06 -8.38443e-07 1.1417e-05
0.00252474 9.02386e-06 -6.11183e-07
9.02386e-06 -0.000301531 -1.14042e-07
-6.11183e-07 -1.14042e-07 -4.40104e-05
0.00310542 0.00018289 -9.29705e-07
0.00018289 -0.000284319 4.39688e-06
-9.29705e-07 4.39688e-06 6.21503e-05
0.00286828 0.0022228 0.000187376
0.0022228 -0.00441243 8.43405e-05
0.000187376 8.43405e-05 -0.00121674
0.00298689 4.34181e-05 -6.13379e-07
4.34181e-05 -0.000350035 -6.43464e-07
-6.13379e-07 -6.43464e-07 4.37856e-05
0.00314969 0.000235727 3.17117e-06
0.000235727 -0.000551628 -5.23275e-06
3.17117e-06 -5.23275e-06 0.000112094
0.00347604 -0.000152327 -6.15287e-05
-0.000152327 -5.88834e-05 7.96133e-07
-6.15287e-05 7.96133e-07 0.000431231
0.00412156 0.0020024 -0.000308456
0.0020024 -0.00413103 -9.87688e-06
-0.000308456 -9.87688e-06 0.00028205
0.0053596 0.000876755 0.000119594
0.000876755 -0.00193338 5.11199e-05
0.000119594 5.11199e-05 0.000135612
0.000500366 0.000120673 -1.58516e-07
0.000120673 0.000178351 -3.76223e-06
-1.58516e-07 -3.76223e-06 5.80025e-06
0.000578777 -4.84574e-05 4.51542e-07
-4.84574e-05 0.000231524 -1.56924e-07
4.51542e-07 -1.56924e-07 5.00199e-05
0.000277046 -0.000112487 4.15702e-06
-0.000112487 5.64429e-05 2.37102e-06
4.15702e-06 2.37102e-06 -9.69484e-05
0.000812014 -0.000145311 -5.39072e-07
-0.000145311 0.000408485 5.92606e-06
-5.39072e-07 5.92606e-06 0.000191149
0.00287817 -0.000303011 -5.73413e-06
-0.000303011 -0.000354678 2.79492e-06
-5.73413e-06 2.79492e-06 2.72915e-05
0.00279175 -0.000737311 -2.0332e-06
-0.000737311 -0.000350853 -1.53244e-06
-2.0332e-06 -1.53244e-06 -7.49776e-05
0.00309903 -0.00117601 -3.21466e-06
-0.00117601 4.17507e-05 -1.18096e-07
-3.21466e-06 -1.18096e-07 6.1762e-05
0.00316437 -0.00165643 4.90191e-06
-0.00165643 0.00136738 5.86473e-06
4.90191e-06 5.86473e-06 0.000423558
0.00340547 -0.00202179 -1.65807e-05
-0.00202179 0.000951869 2.24279e-05
-1.65807e-05 2.24279e-05 5.15341e-05
0.00310115 -0.00146218 -6.56158e-07
-0.00146218 0.000375005 -1.46194e-06
-6.56158e-07 -1.46194e-06 2.19323e-05
0.0017461 -0.00171527 6.5043e-05
-0.00171527 0.000555206 -2.65076e-05
6.5043e-05 -2.65076e-05 -0.00050844
0.00344965 -0.00067964 4.58276e-05
-0.00067964 0.00191767 -3.47614e-05
4.58276e-05 -3.47614e-05 0.00113358
-0.000385615 -0.000358185 1.86722e-05
-0.000358185 -0.000443628 8.20178e-06
1.86722e-05 8.20178e-06 -0.000814142
0.00213465 -0.000149871 1.17857e-05
-0.000149871 0.00134501 -1.37316e-06
1.17857e-05 -1.37316e-06 0.00108129
-0.000555756 -0.000149166 -1.99618e-05
-0.000149166 -0.000298955 -2.11762e-05
-1.99618e-05 -2.11762e-05 -0.000733464
0.000265279 -0.000119884 4.08252e-06
-0.000119884 0.000102595 -1.77827e-05
4.08252e-06 -1.77827e-05 -0.000214902
0.000456572 -4.97833e-05 2.70193e-08
-4.97833e-05 0.00013728 5.31673e-06
2.70193e-08 5.31673e-06 -4.61093e-05
0.000404173 -0.000134918 -5.37759e-06
-0.000134918 0.000146713 -4.26005e-07
-5.37759e-06 -4.26005e-07 -5.48215e-05
0.00295499 -0.000539042 5.12526e-06
-0.000539042 -0.000505441 -4.15995e-07
5.12526e-06 -4.15995e-07 -4.68656e-06
0.000214271 -5.71428e-05 -1.07319e-06
-5.71428e-05 2.99575e-06 5.62947e-06
-1.07319e-06 5.62947e-06 -0.000159983
0.000164498 -0.000170053 4.87906e-06
-0.000170053 -7.50358e-06 -5.39826e-06
4.87906e-06 -5.39826e-06 -0.000264838
-4.67397e-05 -9.64519e-05 1.56964e-05
-9.64519e-05 -2.90099e-05 -7.27311e-06
1.56964e-05 -7.27311e-06 -0.000198091
0.00283965 -0.00094439 2.19966e-06
-0.00094439 -0.000357629 -1.17419e-06
2.19966e-06 -1.17419e-06 8.16063e-07
0.00317649 -0.00147461 1.81703e-06
-0.00147461 0.000260226 -1.8358e-06
1.81703e-06 -1.8358e-06 9.56436e-06
0.0020318 -0.00180801 -9.24199e-06
-0.00180801 0.000475298 -7.20808e-07
-9.24199e-06 -7.20808e-07 -0.000470573
0.00336003 -0.00182019 -3.67554e-06
-0.00182019 0.000809183 2.22457e-06
-3.67554e-06 2.22457e-06 0.000119365
0.00166625 -0.000355742 3.00495e-05
-0.000355742 0.00102679 -1.35523e-05
3.00495e-05 -1.35523e-05 0.000654818
-0.00202164 -9.0556e-05 1.06212e-05
-9.0556e-05 -0.00128407 6.89413e-06
1.06212e-05 6.89413e-06 -0.00165044
0.00152504 -0.0019911 -1.18585e-06
-0.0019911 0.000949404 3.75021e-06
-1.18585e-06 3.75021e-06 -0.000308695
0.00183446 -0.000763652 -2.46694e-05
-0.000763652 0.00113783 4.00545e-06
-2.46694e-05 4.00545e-06 0.000372522
0.00343954 -0.000777661 -9.40507e-05
-0.000777661 -0.000166203 3.41979e-05
-9.40507e-05 3.41979e-05 0.000307935
0.00342466 -0.001384 -4.29228e-05
-0.001384 0.00011619 2.33548e-05
-4.29228e-05 2.33548e-05 0.000294242
0.003347 -0.00167163 1.96201e-05
-0.00167163 0.000863268 -2.5437e-05
1.96201e-05 -2.5437e-05 0.000203129
0.00404017 -0.00226804 -9.15469e-06
-0.00226804 0.00139458 -3.84743e-06
-9.15469e-06 -3.84743e-06 0.000515206
0.000121294 -0.000202891 3.3285e-06
-0.000202891 0.000170832 -1.1949e-05
3.3285e-06 -1.1949e-05 -7.39475e-05
0.000382726 -0.000373061 -1.5636e-05
-0.000373061 0.000146242 4.71923e-05
-1.5636e-05 4.71923e-05 -0.000205043
0.000609071 -0.00039486 -3.20795e-05
-0.00039486 0.000653076 6.96179e-05
-3.20795e-05 6.96179e-05 0.000244019
-0.00114672 -0.00145746 1.59558e-05
-0.00145746 0.000263395 -5.07306e-05
1.59558e-05 -5.07306e-05 -0.00123685
0.00836464 -0.000336233 -3.26306e-05
-0.000336233 -0.00809407 4.37282e-05
-3.26306e-05 4.37282e-05 -0.0088639
0.00446764 0.000740037 1.57204e-05
0.000740037 0.0029469 3.13206e-06
1.57204e-05 3.13206e-06 0.00242139
0.000610169 0.00071686 -6.00768e-06
0.00071686 0.000321708 -8.99563e-06
-6.00768e-06 -8.99563e-06 -0.000322821
0.00147013 0.000719386 8.3945e-05
0.000719386 -0.00160888 4.06699e-05
8.3945e-05 4.06699e-05 -0.000657017
0.00245669 0.00121155 3.31061e-05
0.00121155 0.000113789 1.17484e-05
3.31061e-05 1.17484e-05 -1.26271e-05
0.00293948 0.00177632 1.54006e-05
0.00177632 0.000863006 1.934e-05
1.54006e-05 1.934e-05 -8.8649e-05
0.00255203 0.00141105 9.00924e-06
0.00141105 0.00106989 1.12016e-05
9.00924e-06 1.12016e-05 0.000102286
0.00303598 0.00338153 0.000160008
0.00338153 -0.0037842 8.12036e-05
0.000160008 8.12036e-05 -0.00135575
0.00111501 0.000576077 4.41362e-06
0.000576077 0.000950742 -7.65617e-06
4.41362e-06 -7.65617e-06 0.000342373
0.00323145 0.00169092 -5.63452e-06
0.00169092 -0.000428959 5.59641e-06
-5.63452e-06 5.59641e-06 5.56226e-05
0.00139542 0.0010508 -1.54452e-05
0.0010508 0.000597718 1.08148e-05
-1.54452e-05 1.08148e-05 -0.000212501
0.00285662 0.0017027 1.4436e-06
0.0017027 0.00109946 -8.43725e-06
1.4436e-06 -8.43725e-06 8.53649e-05
0.00445304 0.00202194 -9.79564e-06
0.00202194 0.00146783 -9.78908e-07
-9.79564e-06 -9.78908e-07 0.000725149
0.00418075 0.00108758 -0.000288589
0.00108758 -0.0117813 -0.000189824
-0.000288589 -0.000189824 -0.00919719
0.00653838 0.00531375 -0.00024528
0.00531375 -0.00424351 -0.000137282
-0.00024528 -0.000137282 0.00109178
0.000557136 0.00331414 -1.61362e-05
0.00331414 -0.00226627 -1.81933e-05
-1.61362e-05 -1.81933e-05 -0.00153992
0.0187318 -0.00713662 0.00117084
-0.00713662 0.0118028 9.98258e-05
0.00117084 9.98258e-05 0.00255813
0.0466338 -0.0283395 -0.000277695
-0.0283395 0.034699 -0.000547287
-0.000277695 -0.000547287 0.0104278
6.84964e-05 0.00054244 -3.93575e-06
0.00054244 8.88839e-05 -2.77104e-06
-3.93575e-06 -2.77104e-06 -0.000455355
0.00417386 -0.00544349 0.00333711
-0.00544349 0.00662675 -0.000370787
0.00333711 -0.000370787 0.00086916
0.0212919 -0.017113 0.000250589
-0.017113 0.0236176 -0.000313894
0.000250589 -0.000313894 0.00170449
0.00604929 0.00320103 -0.000105787
0.00320103 0.00141501 -3.69436e-05
-0.000105787 -3.69436e-05 0.000837066
0.00192931 0.00119918 -4.40889e-05
0.00119918 0.000790828 -3.59203e-06
-4.40889e-05 -3.59203e-06 -3.20929e-05
0.00249971 0.00173377 -6.35616e-05
0.00173377 0.000836112 -5.86884e-05
-6.35616e-05 -5.86884e-05 -5.92042e-05
-0.00183385 0.00289895 0.000173164
0.00289895 -0.00242971 0.000139434
0.000173164 0.000139434 -0.00223588
0.0156243 0.00821115 0.000400165
0.00821115 -0.00620332 -1.84211e-05
0.000400165 -1.84211e-05 0.000370657
0.0073684 0.0082426 -0.000276365
0.0082426 -0.00201179 -0.000278127
-0.000276365 -0.000278127 0.000741967
0.0322387 -0.01214 0.00120008
-0.01214 0.0194112 -0.000166817
0.00120008 -0.000166817 0.0040656
0.0290937 -0.00162336 -0.00142336
-0.00162336 0.0158659 0.000912265
-0.00142336 0.000912265 0.00717031
0.00145221 0.000247832 9.8608e-06
0.000247832 0.00109617 4.54793e-06
9.8608e-06 4.54793e-06 0.000806612
0.000125219 0.000256039 3.54834e-06
0.000256039 0.000331677 1.36264e-06
3.54834e-06 1.36264e-06 -2.89892e-05
0.00114945 0.000574932 2.97548e-06
0.000574932 0.000950026 -1.22607e-05
2.97548e-06 -1.22607e-05 0.000435809
0.000454542 6.12703e-06 4.53554e-06
6.12703e-06 0.000138435 1.78325e-06
4.53554e-06 1.78325e-06 -5.20035e-05
0.000294214 0.000132218 8.14175e-06
0.000132218 4.30926e-05 4.20363e-06
8.14175e-06 4.20363e-06 -0.00015813
-0.000195141 1.63771e-05 2.74239e-06
1.63771e-05 -0.000169733 5.73219e-06
2.74239e-06 5.73219e-06 -0.000402434
0.000308327 0.000110904 -6.10402e-06
0.000110904 0.000239092 3.04922e-06
-6.10402e-06 3.04922e-06 -4.09931e-05
0.000211473 0.00016144 -5.88144e-06
0.00016144 0.000189443 1.37609e-05
-5.88144e-06 1.37609e-05 1.7568e-05
0.000275198 1.17387e-05 -2.00723e-07
1.17387e-05 7.75585e-06 1.07146e-06
-2.00723e-07 1.07146e-06 -0.000178161
0.000779191 0.000116125 3.48092e-06
0.000116125 0.000549 3.8606e-06
3.48092e-06 3.8606e-06 0.000247211
0.000183033 8.34456e-05 -1.54365e-07
8.34456e-05 9.31281e-05 -3.51507e-06
-1.54365e-07 -3.51507e-06 -0.000163662
0.000666542 0.000101812 2.49925e-07
0.000101812 0.000341668 4.26513e-07
2.49925e-07 4.26513e-07 0.000108508
0.000156681 9.65989e-05 -2.41601e-06
9.65989e-05 0.000270835 -2.13409e-06
-2.41601e-06 -2.13409e-06 -4.68669e-05
0.000418248 7.20249e-05 4.40662e-07
7.20249e-05 0.000370717 9.38721e-07
4.40662e-07 9.38721e-07 8.22329e-05
-0.000476795 3.87677e-05 8.89022e-07
3.87677e-05 6.84776e-05 -6.78961e-06
8.89022e-07 -6.78961e-06 -0.000410937
8.87709e-05 -0.000101302 -4.70113e-06
-0.000101302 3.90902e-05 -1.16897e-06
-4.70113e-06 -1.16897e-06 -0.000242224
0.000557844 -8.22556e-05 -6.35781e-06
-8.22556e-05 0.000250392 -1.15312e-05
-6.35781e-06 -1.15312e-05 1.91549e-05
0.00081341 -2.80425e-05 1.05728e-06
-2.80425e-05 0.000452172 -7.18474e-06
1.05728e-06 -7.18474e-06 0.00021925
0.000465759 -0.000121816 -1.89465e-06
-0.000121816 0.000279887 2.67379e-06
-1.89465e-06 2.67379e-06 7.38087e-05
-8.6598e-06 -2.09677e-05 -5.64198e-06
-2.09677e-05 -8.88507e-05 5.04567e-07
-5.64198e-06 5.04567e-07 -0.000243411
0.00108831 -0.000185587 1.85333e-05
-0.000185587 0.000672634 1.0282e-05
1.85333e-05 1.0282e-05 0.000457495
0.000966785 -5.65854e-05 -2.09011e-06
-5.65854e-05 0.000744841 1.15016e-05
-2.09011e-06 1.15016e-05 0.000497194
-0.00046445 -1.40528e-06 3.58528e-06
-1.40528e-06 -0.000227157 -1.77765e-05
3.58528e-06 -1.77765e-05 -0.000580527
-0.00157803 5.76308e-05 2.61682e-06
5.76308e-05 -0.000975238 -1.19143e-05
2.61682e-06 -1.19143e-05 -0.00127097
0.000470187 -0.000220765 -3.36843e-07
-0.000220765 0.000348572 2.8452e-07
-3.36843e-07 2.8452e-07 3.26951e-05
-0.00084982 2.44355e-05 2.10933e-06
2.44355e-05 -0.000671759 -4.53737e-06
2.10933e-06 -4.53737e-06 -0.000890358
0.00101527 -0.000322844 -3.9512e-06
-0.000322844 0.000582946 9.16263e-07
-3.9512e-06 9.16263e-07 0.000344504
0.000750349 -0.000173598 1.34541e-06
-0.000173598 0.000373528 3.2747e-07
1.34541e-06 3.2747e-07 0.000166946
0.000595167 -9.63403e-05 -1.89402e-07
-9.63403e-05 0.000175222 6.05215e-07
-1.89402e-07 6.05215e-07 6.20484e-05
0.00019011 2.82298e-05 1.07737e-06
2.82298e-05 -6.02522e-06 1.06235e-06
1.07737e-06 1.06235e-06 -0.000220776
0.00042753 -3.84917e-06 3.46941e-06
-3.84917e-06 7.68579e-05 1.11633e-07
3.46941e-06 1.11633e-07 -4.13666e-05
0.00141762 -4.4781e-05 -2.22672e-05
-4.4781e-05 0.000695745 8.47202e-06
-2.22672e-05 8.47202e-06 0.000662429
0.000420453 0.000110398 -2.54782e-06
0.000110398 7.75675e-05 -2.44144e-06
-2.54782e-06 -2.44144e-06 -4.28317e-05
0.00079899 -3.89308e-05 -8.54517e-06
-3.89308e-05 0.000296439 9.28939e-07
-8.54517e-06 9.28939e-07 0.00025385
0.000881625 -1.26221e-05 -2.68235e-05
-1.26221e-05 0.000322156 5.86469e-06
-2.68235e-05 5.86469e-06 0.000322437
0.000242371 -6.71029e-05 7.68905e-06
-6.71029e-05 -7.93489e-05 -7.02273e-06
7.68905e-06 -7.02273e-06 -0.000122901
0.00286807 -4.72528e-06 2.032e-05
-4.72528e-06 0.00164943 -2.53666e-07
2.032e-05 -2.53666e-07 0.0016574
0.000852994 3.94982e-06 -1.04883e-05
3.94982e-06 0.000305384 -6.41447e-06
-1.04883e-05 -6.41447e-06 0.000301748
0.000802082 0.000121092 3.56721e-06
0.000121092 0.000401838 -1.65855e-06
3.56721e-06 -1.65855e-06 0.000203492
0.000310074 8.24932e-05 -2.6271e-06
8.24932e-05 -5.55197e-06 -5.28853e-06
-2.6271e-06 -5.28853e-06 -0.00010102
0.000387345 1.83404e-06 3.74144e-06
1.83404e-06 3.83389e-05 1.93547e-07
3.74144e-06 1.93547e-07 -5.86489e-05
0.000312042 1.89077e-05 8.70166e-07
1.89077e-05 -6.05467e-05 -5.785e-06
8.70166e-07 -5.785e-06 -9.03275e-05
0.000608557 -0.000121024 -2.79731e-06
-0.000121024 0.000202847 6.37439e-06
-2.79731e-06 6.37439e-06 7.98887e-05
0.000371351 2.08621e-06 2.37741e-06
2.08621e-06 -2.22153e-05 -1.13093e-06
2.37741e-06 -1.13093e-06 -5.84483e-05
0.00273514 5.69315e-05 -4.87398e-06
5.69315e-05 0.00155966 -6.99091e-06
-4.87398e-06 -6.99091e-06 0.00156483
0.00162955 5.3508e-05 3.12363e-06
5.3508e-05 0.000830138 5.56158e-06
3.12363e-06 5.56158e-06 0.000785071
0.00176626 5.67451e-05 -3.13004e-06
5.67451e-05 0.000918807 2.5295e-06
-3.13004e-06 2.5295e-06 0.000913173
0.00054361 4.11991e-05 3.42594e-06
4.11991e-05 0.0001063 1.54528e-05
3.42594e-06 1.54528e-05 9.00278e-05
-0.000368358 0.00173882 0.000221805
0.00173882 -0.00626708 4.36541e-05
0.000221805 4.36541e-05 -0.00269773
0.00291023 3.74035e-06 -6.11048e-06
3.74035e-06 -0.000401919 -3.95151e-08
-6.11048e-06 -3.95151e-08 1.12659e-08
0.00298166 0.000174925 8.26643e-05
0.000174925 -0.000666206 1.66507e-06
8.26643e-05 1.66507e-06 -4.01474e-05
0.0059494 0.00249887 -0.000109185
0.00249887 -0.00457546 -5.31367e-05
-0.000109185 -5.31367e-05 0.00104127
0.00428173 0.000483546 0.000182514
0.000483546 -0.00319626 -1.28589e-05
0.000182514 -1.28589e-05 -0.000571808
0.00341808 -0.000172862 3.68592e-06
-0.000172862 -8.94435e-05 3.18971e-06
3.68592e-06 3.18971e-06 0.000372387
0.00760754 -0.00141354 -0.000115409
-0.00141354 0.000191821 -2.86115e-05
-0.000115409 -2.86115e-05 0.00209702
0.0051087 -0.000635353 -0.000280312
-0.000635353 -0.00534197 -0.000106567
-0.000280312 -0.000106567 -7.79208e-06
0.0167275 -0.00184791 -1.7778e-05
-0.00184791 -0.00359998 -0.000186958
-1.7778e-05 -0.000186958 -0.000936665
0.0273363 0.0136948 0.00274246
0.0136948 0.0151821 0.000408563
0.00274246 0.000408563 0.00195262
0.058208 0.0230968 8.89474e-05
0.0230968 0.0390947 0.000428198
8.89474e-05 0.000428198 0.0147932
-9.47406e-06 -0.000142973 8.37223e-06
-0.000142973 -0.000111505 4.91085e-06
8.37223e-06 4.91085e-06 -0.000303516
0.000560478 -2.35988e-05 1.24542e-06
-2.35988e-05 0.000224056 -8.90432e-08
1.24542e-06 -8.90432e-08 4.96112e-05
0.00100395 -0.000169793 3.55952e-07
-0.000169793 0.000546187 3.39758e-06
3.55952e-07 3.39758e-06 0.000340618
0.0004967 -0.000118072 9.31367e-06
-0.000118072 0.000176927 -5.22034e-07
9.31367e-06 -5.22034e-07 3.38484e-05
0.00080323 0.000155558 -3.18567e-06
0.000155558 0.000463519 -5.0311e-06
-3.18567e-06 -5.0311e-06 0.000294162
0.00106184 0.000224171 4.5934e-07
0.000224171 0.000595297 8.12478e-06
4.5934e-07 8.12478e-06 0.000379506
-2.25116e-05 3.76038e-05 3.76143e-06
3.76038e-05 -0.000179254 1.71777e-07
3.76143e-06 1.71777e-07 -0.000380404
0.000508777 -5.05106e-05 -1.56914e-06
-5.05106e-05 0.000184586 7.46734e-07
-1.56914e-06 7.46734e-07 -1.59614e-05
0.00288513 -0.000539364 2.21826e-05
-0.000539364 -0.000535284 -5.70151e-06
2.21826e-05 -5.70151e-06 -4.47887e-05
0.00274944 -0.00100202 2.12862e-05
-0.00100202 -0.000442946 -9.03924e-06
2.12862e-05 -9.03924e-06 -0.000140245
0.00310885 -0.00145714 -4.56667e-06
-0.00145714 0.000215522 9.85138e-06
-4.56667e-06 9.85138e-06 -2.29502e-05
0.00302574 -0.00191844 3.15365e-06
-0.00191844 0.00098384 1.34868e-05
3.15365e-06 1.34868e-05 7.36663e-05
0.00321767 -0.0018624 -3.25261e-05
-0.0018624 0.000707348 1.57058e-05
-3.25261e-05 1.57058e-05 -6.0729e-06
0.000773306 -0.00187165 4.8205e-05
-0.00187165 0.000537135 2.20646e-05
4.8205e-05 2.20646e-05 -0.000773413
0.00487847 -0.0012092 3.90461e-05
-0.0012092 0.00255647 -1.29245e-05
3.90461e-05 -1.29245e-05 0.0018825
0.00217503 -0.000590833 5.26457e-05
-0.000590833 0.00143279 -6.06102e-05
5.26457e-05 -6.06102e-05 0.000937577
0.000566494 -7.51654e-05 3.36166e-06
-7.51654e-05 0.000234835 -6.84375e-06
3.36166e-06 -6.84375e-06 -5.2894e-06
0.00138799 -0.000227781 2.92004e-05
-0.000227781 0.000763346 -4.85377e-05
2.92004e-05 -4.85377e-05 0.000427645
-0.000196335 -0.000152683 1.37685e-06
-0.000152683 -0.000286356 4.58205e-06
1.37685e-06 4.58205e-06 -0.000445128
-0.000614781 -7.53881e-07 -2.98057e-05
-7.53881e-07 -0.000362577 -1.76334e-05
-2.98057e-05 -1.76334e-05 -0.000504578
0.00305254 -0.000742184 -3.84946e-06
-0.000742184 -0.000432285 6.31775e-06
-3.84946e-06 6.31775e-06 0.000153299
0.00031877 -8.0584e-05 -6.63589e-06
-8.0584e-05 0.00025441 6.07534e-06
-6.63589e-06 6.07534e-06 3.43288e-05
0.000935535 -0.000329012 -4.49088e-06
-0.000329012 0.000514613 -2.76058e-07
-4.49088e-06 -2.76058e-07 0.000213258
0.00251728 -0.0013064 1.27022e-05
-0.0013064 -0.000441624 -6.54119e-06
1.27022e-05 -6.54119e-06 -0.000175486
0.00340221 -0.00168933 1.12765e-06
-0.00168933 0.00084572 2.99287e-06
1.12765e-06 2.99287e-06 0.000213167
0.00268017 -0.00200462 1.6081e-06
-0.00200462 0.000652536 -1.28942e-05
1.6081e-06 -1.28942e-05 -0.000151443
0.000459981 -0.000512519 -1.66004e-05
-0.000512519 0.000460117 -2.26137e-05
-1.66004e-05 -2.26137e-05 -9.21953e-05
0.000999279 -0.00107479 6.68207e-06
-0.00107479 0.00126517 -4.63532e-06
6.68207e-06 -4.63532e-06 3.05283e-05
0.00576121 -0.00189746 -5.44101e-05
-0.00189746 0.000356383 5.27329e-05
-5.44101e-05 5.27329e-05 0.0012949
0.00271703 -0.00175666 -3.59057e-05
-0.00175666 0.000337727 2.33124e-05
-3.59057e-05 2.33124e-05 -0.000183879
0.00472316 -0.00236547 5.2341e-06
-0.00236547 0.00163534 -4.80129e-06
5.2341e-06 -4.80129e-06 0.000766022
0.00166984 -0.00168772 -5.85449e-05
-0.00168772 0.000628342 7.07236e-06
-5.85449e-05 7.07236e-06 4.11842e-05
0.00131379 -0.000326109 1.73225e-05
-0.000326109 0.00101653 -2.7744e-06
1.73225e-05 -2.7744e-06 0.000608162
-0.00170564 5.98885e-05 3.03367e-05
5.98885e-05 -0.00081866 3.28291e-05
3.03367e-05 3.28291e-05 -0.00120759
-0.000128472 -0.000471997 -3.47652e-05
-0.000471997 0.000563331 -1.67676e-05
-3.47652e-05 -1.67676e-05 -0.000399554
-0.0058805 -0.00116402 0.00227989
-0.00116402 0.0057781 9.15965e-05
0.00227989 9.15965e-05 -0.00672178
0.0167756 -0.000378389 -0.000154403
-0.000378389 -0.00361212 6.22292e-05
-0.000154403 6.22292e-05 -0.000200919
0.00184052 0.000632376 8.31667e-06
0.000632376 0.00123572 -1.77686e-05
8.31667e-06 -1.77686e-05 0.000719243
0.0024385 0.00122488 -8.95387e-06
0.00122488 0.00124495 4.63316e-06
-8.95387e-06 4.63316e-06 0.000377129
0.00191079 0.00143042 0.000154161
0.00143042 -0.00119312 6.14594e-05
0.000154161 6.14594e-05 -0.000507217
0.00386877 0.00185493 4.34416e-05
0.00185493 0.00121421 2.41285e-05
4.34416e-05 2.41285e-05 0.00050002
0.00292623 0.00173195 2.0368e-05
0.00173195 0.00111925 1.3742e-05
2.0368e-05 1.3742e-05 0.000103072
0.0206832 0.00156512 2.06422e-05
0.00156512 -0.00186922 -0.000278435
2.06422e-05 -0.000278435 0.00196484
0.00727419 0.00619388 -0.000331324
0.00619388 -0.006115 4.49575e-05
-0.000331324 4.49575e-05 0.000153315
-0.000173044 0.0031082 -5.88767e-05
0.0031082 -0.00236999 -4.4234e-05
-5.88767e-05 -4.4234e-05 -0.00178136
0.0215822 -0.0114863 -0.001774
-0.0114863 0.0150993 0.000787737
-0.001774 0.000787737 0.00207997
0.0463604 -0.0339026 -0.00147455
-0.0339026 0.0354269 -0.00182999
-0.00147455 -0.00182999 0.00972055
0.000948183 0.000703404 1.13428e-05
0.000703404 0.000675473 -9.46752e-06
1.13428e-05 -9.46752e-06 7.75394e-05
0.00615351 -0.0114081 0.00188227
-0.0114081 0.00491301 -0.000163996
0.00188227 -0.000163996 -0.00771595
0.0123916 -0.0134317 -0.00159285
-0.0134317 0.0229815 0.000307859
-0.00159285 0.000307859 0.00496522
0.00427596 0.00272111 1.98554e-06
0.00272111 0.000456572 1.56267e-05
1.98554e-06 1.56267e-05 7.69721e-05
0.00136644 0.00116487 -1.54299e-05
0.00116487 0.000550051 1.30653e-05
-1.54299e-05 1.30653e-05 -0.000315733
0.00423876 0.00207197 -1.73311e-05
0.00207197 0.00172301 -4.89983e-06
-1.73311e-05 -4.89983e-06 0.000715982
0.00191932 0.00336035 0.000109093
0.00336035 -0.000132507 7.40771e-05
0.000109093 7.40771e-05 -0.000204851
0.0109732 0.0093835 -0.00041919
0.0093835 -0.00927325 -0.00014241
-0.00041919 -0.00014241 -0.00343598
0.00454111 0.00807566 -0.000147012
0.00807566 -0.00181755 -0.00014511
-0.000147012 -0.00014511 0.000515387
0.03873 -0.0123652 0.00120998
-0.0123652 0.0212663 -0.000572647
0.00120998 -0.000572647 0.00554257
0.0376885 -0.00787273 -0.000684687
-0.00787273 0.0170124 0.0012474
-0.000684687 0.0012474 0.0034054
0.00131932 0.00088005 -2.09431e-05
0.00088005 0.000825883 -1.50081e-05
-2.09431e-05 -1.50081e-05 0.000215281
0.00458796 -0.00213473 0.000611846
-0.00213473 0.0106478 -0.00034264
0.000611846 -0.00034264 -0.00120507
0.0134672 0.00733553 -0.00159701
0.00733553 0.00945144 -0.000651598
-0.00159701 -0.000651598 0.00350411
0.00238701 0.00205902 -5.74362e-05
0.00205902 5.3094e-05 -3.78443e-05
-5.74362e-05 -3.78443e-05 -0.000313481
0.00316002 0.00200669 -0.000104191
0.00200669 0.00149572 -4.37539e-05
-0.000104191 -4.37539e-05 0.000459686
0.000384422 0.00248144 -0.000149873
0.00248144 0.000773453 -8.57722e-05
-0.000149873 -8.57722e-05 -0.000327446
-0.000848016 0.00639657 0.000135827
0.00639657 0.000154581 -0.000108153
0.000135827 -0.000108153 -0.00037133
0.00550738 0.0135234 0.00163736
0.0135234 -0.00726022 0.000355281
0.00163736 0.000355281 -0.00393293
0.0382359 -0.0143421 -0.00209077
-0.0143421 0.0251621 0.00161634
-0.00209077 0.00161634 0.00756203
0.0103116 0.00133133 6.02999e-05
0.00133133 -0.00119524 -0.000317442
6.02999e-05 -0.000317442 -0.00501557
0.000505288 0.000343638 -6.50992e-06
0.000343638 0.000578208 1.38321e-05
-6.50992e-06 1.38321e-05 0.000176209
0.000856931 0.000531554 5.13064e-06
0.000531554 0.000756549 2.1064e-06
5.13064e-06 2.1064e-06 0.000284335
0.000261472 0.000464025 3.86689e-06
0.000464025 0.000489353 2.20296e-06
3.86689e-06 2.20296e-06 -3.14364e-05
0.000341507 0.000101427 5.99572e-06
0.000101427 6.10244e-05 4.12876e-06
5.99572e-06 4.12876e-06 -0.000130417
0.00131794 0.000192603 1.29871e-06
0.000192603 0.000806226 6.41689e-06
1.29871e-06 6.41689e-06 0.000545215
-0.000115496 5.73939e-05 1.02472e-06
5.73939e-05 -9.84443e-05 5.80391e-06
1.02472e-06 5.80391e-06 -0.00037134
-3.07685e-05 4.34478e-05 9.00697e-06
4.34478e-05 3.26758e-05 -2.86564e-06
9.00697e-06 -2.86564e-06 -0.000266628
0.000424994 0.000119286 -1.72729e-06
0.000119286 0.000429295 1.04983e-05
-1.72729e-06 1.04983e-05 0.000129606
0.00081041 8.29317e-05 -1.78528e-06
8.29317e-05 0.000433027 -1.60343e-06
-1.78528e-06 -1.60343e-06 0.000189878
0.000254621 5.77495e-05 1.4377e-06
5.77495e-05 0.000257457 -3.17809e-06
1.4377e-06 -3.17809e-06 -4.1471e-05
0.000653025 -6.86835e-06 8.12371e-08
-6.86835e-06 0.000423869 2.80861e-06
8.12371e-08 2.80861e-06 0.00013322
-0.000137259 8.0206e-05 -2.00187e-06
8.0206e-05 0.000280317 4.52949e-07
-2.00187e-06 4.52949e-07 -0.000177826
-0.000206081 3.44157e-05 2.96818e-06
3.44157e-05 0.0004067 1.68542e-06
2.96818e-06 1.68542e-06 -0.000209578
-2.28272e-05 -7.34468e-05 -1.73623e-07
-7.34468e-05 0.00017994 1.77035e-06
-1.73623e-07 1.77035e-06 -0.00020008
0.00267597 -0.000164108 -1.26804e-05
-0.000164108 0.00183314 -7.04889e-06
-1.26804e-05 -7.04889e-06 0.00146606
0.00129321 -0.000224111 -4.25702e-06
-0.000224111 0.000780985 -5.25943e-07
-4.25702e-06 -5.25943e-07 0.000531987
0.000257287 -5.56087e-05 -1.17018e-05
-5.56087e-05 0.000117185 -4.33197e-06
-1.17018e-05 -4.33197e-06 -6.15577e-05
0.000584276 -0.000188827 -6.09547e-08
-0.000188827 0.000316126 3.73439e-06
-6.09547e-08 3.73439e-06 0.000139568
0.000451816 -0.000212539 1.32211e-06
-0.000212539 0.000200881 -9.88385e-07
1.32211e-06 -9.88385e-07 1.92552e-05
-0.000176029 -1.46849e-05 -9.86765e-06
-1.46849e-05 4.61161e-05 6.5793e-06
-9.86765e-06 6.5793e-06 -0.000193359
0.00105171 -0.000180676 2.06105e-05
-0.000180676 0.00059351 -1.95932e-05
2.06105e-05 -1.95932e-05 0.000388097
-0.00132754 -3.24146e-05 -1.38202e-05
-3.24146e-05 -0.000662276 4.4427e-06
-1.38202e-05 4.4427e-06 -0.000993786
0.00189429 -0.000269768 1.02856e-05
-0.000269768 0.00130193 -1.07842e-06
1.02856e-05 -1.07842e-06 0.00107695
0.000750615 1.19691e-05 1.6607e-05
1.19691e-05 0.000465536 -1.76394e-05
1.6607e-05 -1.76394e-05 8.18638e-05
0.00469871 -0.0010013 5.4171e-06
-0.0010013 0.00261131 5.32632e-06
5.4171e-06 5.32632e-06 0.00206222
-0.00366105 -0.000335377 1.24925e-05
-0.000335377 -0.00216745 -6.62416e-07
1.24925e-05 -6.62416e-07 -0.00265903
3.14099e-05 -9.94908e-05 -2.62172e-06
-9.94908e-05 8.3075e-05 1.24219e-06
-2.62172e-06 1.24219e-06 -0.000263607
-0.000938462 -8.11418e-06 1.71098e-05
-8.11418e-06 -0.000575678 -2.52031e-05
1.71098e-05 -2.52031e-05 -0.000945052
0.0011188 -0.000238504 6.89601e-07
-0.000238504 0.000775358 -1.95654e-06
6.89601e-07 -1.95654e-06 0.000449503
-0.000675189 -3.1491e-05 1.34887e-05
-3.1491e-05 -0.000536737 7.94838e-06
1.34887e-05 7.94838e-06 -0.000804979
0.00246582 -0.000202127 -5.46247e-06
-0.000202127 0.00164276 5.1194e-06
-5.46247e-06 5.1194e-06 0.00132707
0.000344069 -0.000131173 -3.69269e-06
-0.000131173 0.000114834 1.8054e-08
-3.69269e-06 1.8054e-08 -9.70488e-05
-5.96441e-05 1.34213e-05 6.50476e-06
1.34213e-05 -0.000254035 -1.01363e-06
6.50476e-06 -1.01363e-06 -0.000367222
0.00118836 -0.000215052 -1.8372e-06
-0.000215052 0.000662077 9.12039e-06
-1.8372e-06 9.12039e-06 0.000456568
0.000376245 -7.12303e-05 -1.23273e-06
-7.12303e-05 2.20075e-05 -9.53793e-09
-1.23273e-06 -9.53793e-09 -8.34719e-05
0.00136536 4.86985e-05 -1.07054e-05
4.86985e-05 0.000655932 8.84597e-06
-1.07054e-05 8.84597e-06 0.000621606
0.000426189 -0.000104181 1.29279e-06
-0.000104181 6.41199e-05 -7.56334e-07
1.29279e-06 -7.56334e-07 -4.84956e-05
0.000851753 -3.73279e-05 -1.58093e-05
-3.73279e-05 0.000320227 1.1917e-06
-1.58093e-05 1.1917e-06 0.000282386
0.000693572 6.10726e-06 2.57185e-06
6.10726e-06 0.000182173 1.92812e-06
2.57185e-06 1.92812e-06 0.00018226
0.000364512 -6.7648e-05 6.39368e-06
-6.7648e-05 -2.01387e-06 -6.09537e-06
6.39368e-06 -6.09537e-06 -4.3164e-05
0.00273628 -4.91823e-06 6.39497e-06
-4.91823e-06 0.00155811 -3.14773e-09
6.39497e-06 -3.14773e-09 0.00156827
0.00279012 -1.49971e-05 2.53594e-05
-1.49971e-05 0.00159648 -6.15973e-06
2.53594e-05 -6.15973e-06 0.00160514
0.00123907 0.000104082 -5.25528e-08
0.000104082 0.00068392 -7.50813e-07
-5.25528e-08 -7.50813e-07 0.000480287
0.000403095 9.59754e-05 -5.29071e-07
9.59754e-05 6.55263e-05 -6.37865e-06
-5.29071e-07 -6.37865e-06 -4.17996e-05
0.000603703 2.39501e-05 1.30406e-07
2.39501e-05 0.000256964 9.53484e-07
1.30406e-07 9.53484e-07 6.71407e-05
0.000363042 1.57432e-05 7.74532e-07
1.57432e-05 -2.74089e-05 -5.92369e-06
7.74532e-07 -5.92369e-06 -5.55052e-05
0.000419743 -2.51675e-05 2.47827e-06
-2.51675e-05 5.89119e-05 -4.20226e-07
2.47827e-06 -4.20226e-07 -3.50168e-05
0.000409556 -9.64505e-05 -3.47229e-06
-9.64505e-05 5.49671e-05 5.74729e-06
-3.47229e-06 5.74729e-06 -4.62432e-05
0.000367527 -7.74119e-06 -1.01284e-08
-7.74119e-06 -2.63892e-05 1.17287e-07
-1.01284e-08 1.17287e-07 -5.55052e-05
0.00249851 3.40558e-05 -6.71915e-06
3.40558e-05 0.00139773 -6.56934e-06
-6.71915e-06 -6.56934e-06 0.00140699
0.00150938 2.49159e-05 -8.32029e-07
2.49159e-05 0.000736678 5.22666e-06
-8.32029e-07 5.22666e-06 0.000705534
0.00169131 4.18444e-05 -1.16723e-05
4.18444e-05 0.000859202 -2.18362e-07
-1.16723e-05 -2.18362e-07 0.000858824
0.000770069 3.79478e-05 -1.50327e-06
3.79478e-05 0.000249852 1.32096e-05
-1.50327e-06 1.32096e-05 0.000239677
0.00505318 0.00752854 0.0021136
0.00752854 0.00676905 0.00016211
0.0021136 0.00016211 -0.00557219
0.0155121 0.0103379 0.00352195
0.0103379 0.0198868 0.000368938
0.00352195 0.000368938 0.00351742
0.00114239 0.00238575 3.52804e-05
0.00238575 -0.00649856 -9.32759e-05
3.52804e-05 -9.32759e-05 -0.000400912
0.00359845 7.63843e-05 0.000178921
7.63843e-05 -0.00403888 4.17397e-05
0.000178921 4.17397e-05 -0.00104537
0.0034999 -0.000193699 4.88826e-05
-0.000193699 -4.14695e-05 -4.67406e-06
4.88826e-05 -4.67406e-06 0.000388346
0.00475752 0.00053809 2.5514e-05
0.00053809 -0.00372406 -3.89968e-05
2.5514e-05 -3.89968e-05 0.000600042
0.00527143 -0.00123315 3.98773e-05
-0.00123315 -0.000825648 -5.22631e-07
3.98773e-05 -5.22631e-07 0.000795533
0.0130729 -0.00172956 0.00049464
-0.00172956 -0.00645698 -0.000198975
0.00049464 -0.000198975 -0.00413574
0.0145553 0.00905176 -0.000179759
0.00905176 0.00812715 -0.000155999
-0.000179759 -0.000155999 -0.0017848
0.0529689 0.0285988 -0.000563212
0.0285988 0.037382 0.000262927
-0.000563212 0.000262927 0.0123092
0.00446386 -0.00309729 -0.000168327
-0.00309729 -0.0048936 6.12954e-06
-0.000168327 6.12954e-06 0.000274579
0.0135611 -0.00774894 0.000809882
-0.00774894 -0.00622246 -0.000182733
0.000809882 -0.000182733 -0.00225951
0.0337272 0.0126535 -0.000102725
0.0126535 0.019789 -0.000694273
-0.000102725 -0.000694273 0.00402835
0.0392278 0.00769755 -0.000584906
0.00769755 0.020189 0.000516479
-0.000584906 0.000516479 0.00862157
0.00260234 0.000213743 -7.01755e-06
0.000213743 0.00175541 6.30366e-06
-7.01755e-06 6.30366e-06 0.00142134
0.000698278 3.4573e-05 2.37232e-06
3.4573e-05 0.000316217 -1.17953e-06
2.37232e-06 -1.17953e-06 0.000129193
0.000456346 -0.000129261 2.0141e-06
-0.000129261 0.000158385 2.06519e-07
2.0141e-06 2.06519e-07 -1.60745e-05
-4.92284e-06 -5.34701e-05 7.00454e-06
-5.34701e-05 -0.000144988 -2.91435e-06
7.00454e-06 -2.91435e-06 -0.00028807
6.35134e-05 0.000104352 3.43688e-06
0.000104352 -3.31198e-05 9.44271e-07
3.43688e-06 9.44271e-07 -0.000166018
0.0010624 0.000275378 2.83318e-06
0.000275378 0.000610254 7.48688e-06
2.83318e-06 7.48688e-06 0.000341474
0.000378608 9.75429e-05 -3.38752e-06
9.75429e-05 0.00014332 -1.28267e-06
-3.38752e-06 -1.28267e-06 -5.56579e-05
0.000394136 0.000146309 8.40319e-06
0.000146309 0.000118613 5.36305e-06
8.40319e-06 5.36305e-06 -0.000152566
0.000496199 4.57895e-05 -2.07416e-07
4.57895e-05 0.000202514 -5.02163e-07
-2.07416e-07 -5.02163e-07 -2.73111e-05
-0.000371716 -3.3471e-05 -1.78091e-07
-3.3471e-05 -0.000431446 -3.90071e-06
-1.78091e-07 -3.90071e-06 -0.000593776
0.00266143 -0.000701539 8.52126e-05
-0.000701539 -0.000718311 -3.22185e-05
8.52126e-05 -3.22185e-05 -3.87658e-06
0.00191589 -0.00122909 2.405e-05
-0.00122909 -0.000754992 -1.62696e-05
2.405e-05 -1.62696e-05 -0.000446373
0.00264924 -0.00158076 -2.19512e-06
-0.00158076 0.000396545 1.5127e-05
-2.19512e-06 1.5127e-05 -0.000166874
0.000566009 -0.00160936 -8.41844e-06
-0.00160936 -0.000507816 1.61983e-05
-8.41844e-06 1.61983e-05 -0.00119653
0.00248816 -0.00103914 2.97403e-05
-0.00103914 0.00199926 8.23281e-05
2.97403e-05 8.23281e-05 0.000895133
0.000219319 -0.000910361 -3.41576e-05
-0.000910361 0.000385685 -3.50343e-05
-3.41576e-05 -3.50343e-05 -0.000420778
0.00122908 -0.000311694 2.19853e-05
-0.000311694 0.000729496 -3.27879e-05
2.19853e-05 -3.27879e-05 0.000473059
0.000156318 -1.80344e-05 -4.51877e-06
-1.80344e-05 9.93305e-05 -2.22247e-06
-4.51877e-06 -2.22247e-06 -9.23159e-05
0.00406476 -0.00164731 -4.59914e-06
-0.00164731 -0.00058728 -9.37733e-06
-4.59914e-06 -9.37733e-06 0.000497947
0.000230726 -6.96819e-05 8.29877e-07
-6.96819e-05 0.000314788 5.89967e-07
8.29877e-07 5.89967e-07 -8.65363e-05
-1.11833e-05 -0.000146322 -1.04779e-05
-0.000146322 0.000231253 3.96914e-06
-1.04779e-05 3.96914e-06 -0.000136775
0.00202162 -0.00157365 2.71792e-05
-0.00157365 -9.20365e-05 -1.96258e-06
2.71792e-05 -1.96258e-06 -0.000401711
0.00355267 -0.00210875 -4.13682e-06
-0.00210875 0.00105748 -8.04254e-06
-4.13682e-06 -8.04254e-06 0.000209712
0.000687981 -0.00151153 3.59302e-05
-0.00151153 0.000115774 -1.81063e-05
3.59302e-05 -1.81063e-05 -0.000478346
0.000597404 -0.000735869 3.12946e-05
-0.000735869 0.00104276 -4.56214e-05
3.12946e-05 -4.56214e-05 7.075e-05
0.00109458 -0.00244899 -1.90079e-05
-0.00244899 -0.00217758 5.79785e-05
-1.90079e-05 5.79785e-05 -0.0012082
0.00346017 -0.00195939 -5.50037e-05
-0.00195939 0.00126152 3.22645e-05
-5.50037e-05 3.22645e-05 0.000485161
-0.000341503 -0.000898864 -9.50609e-05
-0.000898864 0.000361554 1.87604e-05
-9.50609e-05 1.87604e-05 -0.000413723
0.00175889 0.000222561 6.40548e-06
0.000222561 0.00123478 3.36231e-06
6.40548e-06 3.36231e-06 0.000852414
-0.000617504 -3.763e-05 1.37053e-05
-3.763e-05 -6.90603e-05 1.49116e-05
1.37053e-05 1.49116e-05 -0.000566382
0.000330412 -0.000118476 1.8476e-05
-0.000118476 0.000585076 1.85011e-05
1.8476e-05 1.85011e-05 0.000101077
-0.00285753 0.00305816 -0.000933202
0.00305816 0.00922109 -9.43531e-05
-0.000933202 -9.43531e-05 9.5962e-06
0.00277475 -0.00254492 2.18871e-05
-0.00254492 0.00946143 -1.99603e-05
2.18871e-05 -1.99603e-05 0.00101859
0.0100801 3.1377e-05 -3.20358e-05
3.1377e-05 -0.007851 6.39796e-06
-3.20358e-05 6.39796e-06 -0.00812245
0.000830935 0.000671431 2.35282e-05
0.000671431 0.000641766 -1.75403e-05
2.35282e-05 -1.75403e-05 4.03423e-05
0.00200561 0.00133169 2.76808e-05
0.00133169 0.000984236 3.05459e-05
2.76808e-05 3.05459e-05 2.68609e-05
0.00236216 0.00212156 0.000106931
0.00212156 -0.000563711 6.02564e-05
0.000106931 6.02564e-05 -0.000707105
0.00473982 0.00223116 6.32737e-05
0.00223116 0.00200772 4.93271e-05
6.32737e-05 4.93271e-05 0.000927033
0.0199037 -0.0125077 0.00038323
-0.0125077 0.0172019 0.000196043
0.00038323 0.000196043 0.00213666
0.00312297 0.00773683 -0.00111488
0.00773683 -0.0148266 -0.000210759
-0.00111488 -0.000210759 -0.00978049
0.00624937 0.00855484 -8.98738e-05
0.00855484 -0.00200307 2.32577e-05
-8.98738e-05 2.32577e-05 0.000781315
0.00532909 0.00356461 0.000131892
0.00356461 0.00190668 4.81524e-05
0.000131892 4.81524e-05 0.00167615
0.0310042 -0.00942556 -0.000498459
-0.00942556 0.0159833 -0.000223249
-0.000498459 -0.000223249 0.00223573
0.011976 -0.0125203 -0.00232268
-0.0125203 0.0245319 0.000218081
-0.00232268 0.000218081 0.00804604
0.0491649 -0.0145572 0.00217935
-0.0145572 0.0218766 0.000437761
0.00217935 0.000437761 0.00536196
0.000860585 0.000834799 1.62292e-05
0.000834799 0.000606469 -5.80664e-06
1.62292e-05 -5.80664e-06 -2.9263e-05
0.00607529 -0.00525952 0.000185941
-0.00525952 0.0139814 2.43591e-05
0.000185941 2.43591e-05 0.000648314
0.0118097 0.00712114 -0.000330829
0.00712114 0.00596392 -0.000192988
-0.000330829 -0.000192988 -0.00129386
0.00367192 0.00250961 7.60477e-06
0.00250961 0.000862812 6.33295e-06
7.60477e-06 6.33295e-06 0.000233299
0.00175746 0.00168899 2.30141e-06
0.00168899 0.000845347 7.03203e-06
2.30141e-06 7.03203e-06 -0.000124122
-0.000175228 0.00246287 -0.000184553
0.00246287 0.00042695 -0.000124624
-0.000184553 -0.000124624 -0.000462971
0.00476773 0.00895898 0.000131518
0.00895898 0.00131052 5.89558e-05
0.000131518 5.89558e-05 0.000550831
0.0111476 0.0137121 -4.1761e-05
0.0137121 -0.00199056 -1.52443e-05
-4.1761e-05 -1.52443e-05 -0.00150688
0.0203586 -0.00847636 -1.88955e-05
-0.00847636 0.0177022 -0.000179586
-1.88955e-05 -0.000179586 0.00185843
0.0219447 -0.0026404 -0.000262198
-0.0026404 0.00528539 -2.23219e-05
-0.000262198 -2.23219e-05 0.0019096
0.00174563 0.00155548 -1.76756e-05
0.00155548 0.00112522 -9.30103e-06
-1.76756e-05 -9.30103e-06 0.000211094
0.00245488 0.00208132 -0.000864668
0.00208132 0.00483802 -0.000209377
-0.000864668 -0.000209377 -0.00204782
0.00648548 0.00124353 0.000103398
0.00124353 0.0024113 -0.000205311
0.000103398 -0.000205311 -0.00277473
-0.000935786 0.00106456 -2.22605e-06
0.00106456 0.000152823 -3.83597e-05
-2.22605e-06 -3.83597e-05 -0.000607207
-0.00307007 0.00290328 -3.2163e-05
0.00290328 0.00103481 6.86545e-05
-3.2163e-05 6.86545e-05 -0.000426208
0.00565883 0.0110652 0.000644931
0.0110652 0.00465925 8.08403e-05
0.000644931 8.08403e-05 -0.00153977
0.0177617 -0.00635995 0.000177971
-0.00635995 0.00727604 0.000191246
0.000177971 0.000191246 -0.00455084
0.0224763 -0.00154122 0.000169879
-0.00154122 0.00169836 -0.000330902
0.000169879 -0.000330902 0.000317538
0.000588421 0.000475285 1.0567e-05
0.000475285 0.000583825 2.44676e-05
1.0567e-05 2.44676e-05 0.000160416
0.000566149 0.000488325 -3.77006e-06
0.000488325 0.000688606 -4.50301e-06
-3.77006e-06 -4.50301e-06 0.000151212
0.000622046 0.000533571 1.53726e-05
0.000533571 0.000855344 2.19151e-06
1.53726e-05 2.19151e-06 0.00017915
0.000379328 9.82577e-05 1.61825e-06
9.82577e-05 9.88504e-05 9.22625e-06
1.61825e-06 9.22625e-06 -0.00011201
0.00136063 -5.58653e-06 -9.07392e-07
-5.58653e-06 0.000911641 7.95511e-06
-9.07392e-07 7.95511e-06 0.000607929
0.000189174 9.07145e-05 3.6639e-06
9.07145e-05 0.000206651 7.31054e-07
3.6639e-06 7.31054e-07 -0.000103352
4.52627e-05 0.000118913 1.47238e-06
0.000118913 0.000395944 2.67828e-06
1.47238e-06 2.67828e-06 -5.32251e-05
0.000749572 -5.32031e-05 6.2696e-06
-5.32031e-05 0.000463715 9.24659e-07
6.2696e-06 9.24659e-07 0.000179778
0.000219044 -3.14008e-05 4.80004e-07
-3.14008e-05 0.000307755 -4.58707e-06
4.80004e-07 -4.58707e-06 -5.09087e-05
-0.00018394 3.98984e-05 1.82453e-07
3.98984e-05 0.000475116 1.01996e-06
1.82453e-07 1.01996e-06 -0.000184834
-0.00082656 2.192e-05 7.49616e-06
2.192e-05 0.000280886 5.96767e-06
7.49616e-06 5.96767e-06 -0.000454276
0.00128157 -0.000140074 1.10385e-05
-0.000140074 0.00128848 -9.83488e-06
1.10385e-05 -9.83488e-06 0.000729136
0.0011159 -0.000116229 -2.8486e-05
-0.000116229 0.000950155 5.31826e-06
-2.8486e-05 5.31826e-06 0.000521895
0.001288 -0.000246591 5.59247e-06
-0.000246591 0.000792945 9.62835e-06
5.59247e-06 9.62835e-06 0.000590311
-0.00074588 -0.000344247 -7.01343e-06
-0.000344247 -0.000628623 -3.37008e-06
-7.01343e-06 -3.37008e-06 -0.000769068
-0.00040149 -1.42939e-05 1.24344e-05
-1.42939e-05 -4.85487e-05 -1.45045e-05
1.24344e-05 -1.45045e-05 -0.000286253
-0.000733167 -3.2175e-05 2.76426e-06
-3.2175e-05 -0.000282937 -1.82405e-06
2.76426e-06 -1.82405e-06 -0.000614147
0.00018796 -0.000242602 -1.15396e-06
-0.000242602 -2.92387e-05 2.62856e-06
-1.15396e-06 2.62856e-06 -0.000188584
0.000143407 -0.000223713 -1.10399e-05
-0.000223713 0.000199047 5.06178e-06
-1.10399e-05 5.06178e-06 6.86695e-06
0.00359517 -0.000342576 8.57753e-06
-0.000342576 0.00225014 -8.25317e-06
8.57753e-06 -8.25317e-06 0.00182833
0.0015688 -0.000171787 7.00531e-06
-0.000171787 0.00139237 6.28966e-06
7.00531e-06 6.28966e-06 0.000962986
0.00205368 -0.00079632 -1.05475e-05
-0.00079632 0.00122612 1.17898e-05
-1.05475e-05 1.17898e-05 0.000605609
0.0012929 -0.000187146 -1.51934e-05
-0.000187146 0.000727076 2.6519e-06
-1.51934e-05 2.6519e-06 0.000389865
0.000217286 -0.000498964 2.09212e-05
-0.000498964 -0.000114057 9.37362e-06
2.09212e-05 9.37362e-06 -0.000531911
0.00256785 -0.00123943 -7.61386e-06
-0.00123943 0.00123673 1.07231e-05
-7.61386e-06 1.07231e-05 0.000428483
0.00345171 -0.000571279 2.77728e-05
-0.000571279 0.00175834 -8.96455e-06
2.77728e-05 -8.96455e-06 0.00142451
0.00257109 -0.000752272 4.84097e-07
-0.000752272 0.00128425 -1.10042e-05
4.84097e-07 -1.10042e-05 0.000813254
-6.24057e-05 -0.000369583 9.10892e-08
-0.000369583 1.56971e-06 1.65038e-06
9.10892e-08 1.65038e-06 -0.000433641
-0.00313112 -0.000312399 2.06535e-05
-0.000312399 -0.00189662 -1.92138e-05
2.06535e-05 -1.92138e-05 -0.00243214
0.000702222 -0.000247386 -8.51104e-06
-0.000247386 0.000495665 1.08329e-05
-8.51104e-06 1.08329e-05 0.000166641
0.00102392 -0.000496661 1.11854e-05
-0.000496661 0.000619426 -4.62231e-06
1.11854e-05 -4.62231e-06 0.000248896
0.00102854 -0.000167437 1.97149e-05
-0.000167437 0.000560732 8.44593e-06
1.97149e-05 8.44593e-06 0.000216926
0.00278197 -0.000618139 -1.81174e-05
-0.000618139 0.00185876 1.76093e-05
-1.81174e-05 1.76093e-05 0.00149572
0.000200939 -0.000183937 -1.42097e-06
-0.000183937 0.00011621 -5.85581e-07
-1.42097e-06 -5.85581e-07 -0.000212074
-0.000210128 -4.90619e-05 9.02295e-06
-4.90619e-05 -0.000341206 4.59962e-06
9.02295e-06 4.59962e-06 -0.000499154
0.00242035 -0.000401875 -5.58605e-06
-0.000401875 0.00155178 7.99401e-06
-5.58605e-06 7.99401e-06 0.0012768
0.000829035 -0.00013595 5.68025e-07
-0.00013595 0.000339891 9.23853e-07
5.68025e-07 9.23853e-07 0.000208461
0.00156712 -1.33358e-05 -1.85614e-05
-1.33358e-05 0.000785965 1.00608e-05
-1.85614e-05 1.00608e-05 0.000742436
0.000444007 -0.000116433 -1.64062e-06
-0.000116433 8.97485e-05 4.17178e-07
-1.64062e-06 4.17178e-07 -3.09532e-05
0.000797432 -2.36489e-05 -1.86213e-05
-2.36489e-05 0.000277568 1.00059e-06
-1.86213e-05 1.00059e-06 0.000237428
0.000797213 1.54284e-05 4.44178e-06
1.54284e-05 0.000248207 3.20569e-06
4.44178e-06 3.20569e-06 0.00024517
0.000343665 -7.01653e-05 5.17993e-06
-7.01653e-05 -2.10083e-05 -5.94945e-06
5.17993e-06 -5.94945e-06 -6.20298e-05
0.00174625 7.70951e-06 2.22088e-05
7.70951e-06 0.000890432 -2.18529e-06
2.22088e-05 -2.18529e-06 0.000896434
0.00272057 -9.41292e-06 3.32872e-05
-9.41292e-06 0.00154693 -6.2183e-06
3.32872e-05 -6.2183e-06 0.00155766
-0.000107328 0.000122542 3.25618e-06
0.000122542 -0.000284085 -6.97599e-07
3.25618e-06 -6.97599e-07 -0.000462797
0.000522547 9.98546e-05 1.17768e-06
9.98546e-05 0.000143972 -6.49886e-06
1.17768e-06 -6.49886e-06 2.67434e-05
0.000303775 3.83758e-05 1.17034e-06
3.83758e-05 3.14307e-05 1.18103e-06
1.17034e-06 1.18103e-06 -0.000151354
0.000349206 1.80226e-05 3.04256e-06
1.80226e-05 -3.6146e-05 -6.49388e-06
3.04256e-06 -6.49388e-06 -6.62867e-05
0.000411622 8.05078e-05 6.52472e-07
8.05078e-05 6.01336e-05 3.23233e-08
6.52472e-07 3.23233e-08 -3.91648e-05
5.2669e-06 -9.03235e-05 -3.94401e-06
-9.03235e-05 -0.000187146 4.64995e-06
-3.94401e-06 4.64995e-06 -0.0003437
0.00249713 1.85771e-05 -1.4568e-05
1.85771e-05 0.00139562 -6.75644e-06
-1.4568e-05 -6.75644e-06 0.00140631
0.000358344 1.16919e-05 -8.17263e-07
1.16919e-05 -3.06352e-05 -7.67219e-08
-8.17263e-07 -7.67219e-08 -5.84298e-05
0.000465177 -9.18652e-06 -3.97252e-06
-9.18652e-06 7.18013e-05 4.81196e-06
-3.97252e-06 4.81196e-06 -1.1082e-05
0.000381234 -2.15078e-05 -4.16641e-06
-2.15078e-05 -1.78658e-05 6.12294e-06
-4.16641e-06 6.12294e-06 -4.76099e-05
0.0025688 3.63808e-05 -5.94415e-06
3.63808e-05 0.00144549 -1.57135e-07
-5.94415e-06 -1.57135e-07 0.00145397
0.00277899 5.28388e-05 -2.64105e-06
5.28388e-05 0.00158888 7.36618e-06
-2.64105e-06 7.36618e-06 0.00159357
0.00661652 6.63262e-05 -0.000546018
6.63262e-05 0.0152135 0.000109941
-0.000546018 0.000109941 0.005785
0.0105836 0.00879113 -0.000517441
0.00879113 0.00935891 0.000224159
-0.000517441 0.000224159 -0.00284369
0.0117986 -0.00404212 -0.000538654
-0.00404212 0.00381914 0.000363942
-0.000538654 0.000363942 -0.00249382
0.0207683 0.0115504 0.00176144
0.0115504 0.0200975 0.000127764
0.00176144 0.000127764 0.00310468
0.00688881 0.000934891 0.000147924
0.000934891 -0.00273359 5.09546e-05
0.000147924 5.09546e-05 0.00115441
0.00245411 -0.00113809 0.000141654
-0.00113809 -0.00222926 -8.48558e-06
0.000141654 -8.48558e-06 -0.000787085
0.00282982 -0.00166501 0.000713948
-0.00166501 -0.0152948 -4.67843e-05
0.000713948 -4.67843e-05 -0.00994627
0.0220146 0.0104838 -0.0029158
0.0104838 0.0180287 -0.000638222
-0.0029158 -0.000638222 0.00520253
0.0448359 0.0332091 -0.0017134
0.0332091 0.0332327 0.00191879
-0.0017134 0.00191879 0.00804145
0.00607648 -0.00210428 9.24013e-05
-0.00210428 -0.00347969 -1.90837e-05
9.24013e-05 -1.90837e-05 0.000284118
0.00834935 -0.00860915 0.000521028
-0.00860915 -0.0100464 -0.000270769
0.000521028 -0.000270769 -0.00539117
0.0358473 0.0122802 -0.000795916
0.0122802 0.0211514 -0.000555226
-0.000795916 -0.000555226 0.00475793
0.0304694 0.00682886 0.00070301
0.00682886 0.0164712 0.000669126
0.00070301 0.000669126 0.0051747
0.00341087 -0.00506938 -9.53049e-05
-0.00506938 -0.00515824 0.000168424
-9.53049e-05 0.000168424 -0.000679569
-0.00178676 -0.0125217 0.00155422
-0.0125217 -0.00605106 -0.000376255
0.00155422 -0.000376255 -0.00481943
0.0211836 0.00467458 -0.00108961
0.00467458 0.012897 -0.00161692
-0.00108961 -0.00161692 -0.000272553
0.0137038 -0.00200884 -0.000297532
-0.00200884 0.00380853 5.18069e-05
-0.000297532 5.18069e-05 -0.000492733
0.00137488 4.60123e-05 6.77265e-06
4.60123e-05 0.000872288 1.70969e-05
6.77265e-06 1.70969e-05 0.000542191
2.10454e-05 -1.39451e-05 -3.75823e-07
-1.39451e-05 -7.64686e-05 -5.97554e-07
-3.75823e-07 -5.97554e-07 -0.000278913
8.97979e-05 9.8035e-05 -3.8065e-06
9.8035e-05 -0.000131024 -1.85665e-06
-3.8065e-06 -1.85665e-06 -0.000290988
-0.000729962 -9.8815e-05 -1.32183e-05
-9.8815e-05 -0.000651206 -6.52806e-07
-1.32183e-05 -6.52806e-07 -0.000688659
0.000448178 0.000213062 7.08712e-06
0.000213062 0.00015691 2.48518e-05
7.08712e-06 2.48518e-05 -0.000108401
0.000604843 0.000163154 -1.90094e-06
0.000163154 0.000305099 -2.10358e-06
-1.90094e-06 -2.10358e-06 5.28348e-05
-0.000153964 -5.65169e-05 2.7166e-06
-5.65169e-05 -0.000226007 -6.26695e-06
2.7166e-06 -6.26695e-06 -0.000396739
0.00113499 0.000268745 1.34767e-05
0.000268745 0.00067877 6.50426e-06
1.34767e-05 6.50426e-06 0.000346942
0.000909552 0.000264155 -1.18867e-06
0.000264155 0.000508732 -3.39933e-06
-1.18867e-06 -3.39933e-06 0.000207446
0.000440652 8.8336e-05 -4.46879e-06
8.8336e-05 0.000167687 -3.4378e-06
-4.46879e-06 -3.4378e-06 -6.39579e-05
0.00360931 -0.00159711 0.000188477
-0.00159711 -0.000766715 -0.00011105
0.000188477 -0.00011105 0.000266014
0.00106218 -0.00141905 -1.36025e-05
-0.00141905 -0.000732894 -1.11635e-05
-1.36025e-05 -1.11635e-05 -0.000818716
0.0029509 -0.00195546 8.27439e-06
-0.00195546 0.000797397 2.82991e-05
8.27439e-06 2.82991e-05 -6.00595e-05
1.02791e-05 -0.00142128 2.06706e-05
-0.00142128 -0.000259808 3.92009e-06
2.06706e-05 3.92009e-06 -0.000858684
0.00454631 -0.000723271 -5.07291e-05
-0.000723271 0.00307434 0.000100373
-5.07291e-05 0.000100373 0.00246752
0.000661902 -0.000299775 -1.29992e-05
-0.000299775 0.000689478 -3.27973e-05
-1.29992e-05 -3.27973e-05 0.000272705
0.00135287 9.94168e-05 -9.52902e-06
9.94168e-05 0.00100177 -1.26068e-05
-9.52902e-06 -1.26068e-05 0.000583432
0.000995565 0.000109846 -9.42809e-06
0.000109846 0.000691438 -1.50493e-06
-9.42809e-06 -1.50493e-06 0.000335457
0.00383483 -0.0026905 -5.4483e-05
-0.0026905 -0.000572438 1.1083e-05
-5.4483e-05 1.1083e-05 0.000286918
0.00143538 -0.00021426 -3.75246e-06
-0.00021426 0.00117798 7.01219e-06
-3.75246e-06 7.01219e-06 0.000690934
0.000841684 -0.000329202 1.71574e-05
-0.000329202 0.000822144 -7.96686e-06
1.71574e-05 -7.96686e-06 0.000328364
0.00134415 -0.0016667 2.87049e-05
-0.0016667 5.15777e-05 -6.33179e-06
2.87049e-05 -6.33179e-06 -0.000556341
8.74357e-05 -0.000871559 -6.79679e-07
-0.000871559 0.000440349 5.4007e-06
-6.79679e-07 5.4007e-06 -0.000202626
0.000586266 -0.00336204 -3.46578e-05
-0.00336204 -0.000583092 1.78088e-05
-3.46578e-05 1.78088e-05 -0.00127568
0.000653654 -0.00127215 -9.12771e-06
-0.00127215 0.000740624 8.52229e-06
-9.12771e-06 8.52229e-06 5.12532e-05
-0.0011292 -0.000235347 -1.86706e-05
-0.000235347 0.000189834 -2.14438e-05
-1.86706e-05 -2.14438e-05 -0.000668066
0.000832258 0.000107759 2.34814e-05
0.000107759 0.000711943 -1.9245e-06
2.34814e-05 -1.9245e-06 0.000372065
-0.000386292 -0.000121345 1.11446e-05
-0.000121345 0.00016574 7.63892e-06
1.11446e-05 7.63892e-06 -0.000340822
0.0036545 0.000122708 -0.000239883
0.000122708 0.0021208 -9.94766e-05
-0.000239883 -9.94766e-05 -0.00270558
-0.00524697 0.00103621 -0.0014458
0.00103621 0.00775636 6.55218e-05
-0.0014458 6.55218e-05 0.000874833
-0.00427288 -0.00486055 -0.00263638
-0.00486055 0.00563263 0.000236251
-0.00263638 0.000236251 -0.00650363
9.52404e-05 0.00076379 2.77127e-05
0.00076379 0.000221137 -1.31217e-05
2.77127e-05 -1.31217e-05 -0.000450067
0.00230428 0.00168084 1.43082e-05
0.00168084 0.00121154 1.07454e-05
1.43082e-05 1.07454e-05 0.000248391
0.00677253 0.00336247 0.00010604
0.00336247 0.00251097 9.97281e-05
0.00010604 9.97281e-05 0.00149177
0.00313155 -0.00318045 0.000298539
-0.00318045 0.0143087 0.000101204
0.000298539 0.000101204 0.00317024
-0.00109649 0.013149 -0.0014916
0.013149 -0.00756106 -0.000268998
-0.0014916 -0.000268998 -0.00514363
0.00107227 0.00664698 0.000660913
0.00664698 -0.000837122 0.000408722
0.000660913 0.000408722 -0.000530081
-0.000224548 0.00235404 -1.05895e-05
0.00235404 0.000374649 -6.47879e-05
-1.05895e-05 -6.47879e-05 -8.87585e-05
0.036228 -0.00913069 0.000475249
-0.00913069 0.0194548 -0.000890505
0.000475249 -0.000890505 0.00581252
0.0114182 0.00750485 0.0017944
0.00750485 0.00425513 0.000482475
0.0017944 0.000482475 -0.00436136
0.0163153 -0.000516173 -8.39193e-05
-0.000516173 0.00502361 9.78592e-05
-8.39193e-05 9.78592e-05 0.00379319
0.00259239 0.00161681 7.58557e-06
0.00161681 0.00160853 1.29692e-06
7.58557e-06 1.29692e-06 0.000701393
0.00414372 0.00331503 -0.000245004
0.00331503 0.00596835 -7.44393e-05
-0.000245004 -7.44393e-05 -0.000894495
0.00574707 0.000859573 0.000233777
0.000859573 0.00343466 -2.70963e-05
0.000233777 -2.70963e-05 -0.00127115
0.000605445 0.00173828 -4.06154e-05
0.00173828 0.000808303 -1.4728e-05
-4.06154e-05 -1.4728e-05 -0.000238167
-0.00170505 0.0041722 -0.000205027
0.0041722 0.0007239 -0.000174101
-0.000205027 -0.000174101 -0.00132684
0.00356982 0.0129115 0.000823855
0.0129115 0.00349977 0.000311577
0.000823855 0.000311577 -0.00309665
0.0163343 -0.00124268 5.33913e-05
-0.00124268 -0.000546147 -0.000198849
5.33913e-05 -0.000198849 -0.00149502
0.0116586 -0.00505391 -7.6331e-05
-0.00505391 0.00837278 -0.000306922
-7.6331e-05 -0.000306922 -0.00220166
0.00196504 0.00134284 -9.87465e-07
0.00134284 0.00173966 -1.26778e-05
-9.87465e-07 -1.26778e-05 0.000744378
-0.00175677 0.00154199 0.000232203
0.00154199 0.00473269 0.000102238
0.000232203 0.000102238 -0.00164449
0.0104481 -0.00235764 0.000785607
-0.00235764 0.00128535 5.11089e-05
0.000785607 5.11089e-05 -0.00219116
0.0144708 -0.00235916 0.000359214
-0.00235916 0.00366625 -3.65076e-05
0.000359214 -3.65076e-05 -0.00022912
-0.00297747 0.00126633 7.5744e-05
0.00126633 0.00124313 -5.78703e-06
7.5744e-05 -5.78703e-06 -0.000641531
0.00570967 0.00539972 0.000624528
0.00539972 0.00738514 0.000370893
0.000624528 0.000370893 -0.00150441
0.0164191 -0.00150515 -0.000118165
-0.00150515 0.00448448 0.00042406
-0.000118165 0.00042406 -0.000654359
0.000863658 0.000523447 1.17775e-05
0.000523447 0.000884498 7.3589e-06
1.17775e-05 7.3589e-06 0.000318549
0.000365383 0.000545443 -9.1027e-06
0.000545443 0.000688887 -2.17031e-06
-9.1027e-06 -2.17031e-06 -2.03979e-05
-0.00059764 0.000224961 2.58866e-05
0.000224961 0.000477627 -4.84904e-06
2.58866e-05 -4.84904e-06 -0.000469726
-0.000843606 -2.56891e-05 7.84338e-06
-2.56891e-05 -0.00062041 8.25135e-06
7.84338e-06 8.25135e-06 -0.000858758
0.000720906 0.000114637 5.92663e-06
0.000114637 0.000618886 -3.29331e-06
5.92663e-06 -3.29331e-06 0.000270596
-0.000117119 3.05941e-05 -2.00681e-06
3.05941e-05 0.000583578 -7.66545e-07
-2.00681e-06 -7.66545e-07 -0.000111012
-0.000169127 -9.4642e-05 -1.12897e-06
-9.4642e-05 9.15146e-05 -1.96737e-07
-1.12897e-06 -1.96737e-07 -0.000309582
8.40395e-05 -7.5761e-05 -2.12568e-06
-7.5761e-05 0.00060563 -1.19258e-06
-2.12568e-06 -1.19258e-06 3.33533e-06
-0.000357469 1.47954e-05 4.11137e-06
1.47954e-05 0.000565499 4.73427e-07
4.11137e-06 4.73427e-07 -0.000149607
0.000407304 -0.000239146 -1.14315e-05
-0.000239146 0.000940031 2.00035e-05
-1.14315e-05 2.00035e-05 0.000312089
0.000890586 -0.000123811 4.88329e-07
-0.000123811 0.00102445 -6.56987e-06
4.88329e-07 -6.56987e-06 0.000543804
-0.000673561 -3.73676e-07 2.12594e-05
-3.73676e-07 -0.000273657 -7.48787e-06
2.12594e-05 -7.48787e-06 -0.000576431
-0.000620924 -0.000279264 -1.45078e-05
-0.000279264 -0.000605043 1.24584e-05
-1.45078e-05 1.24584e-05 -0.000737165
-0.00207665 -9.41756e-05 5.99079e-06
-9.41756e-05 -0.00115991 -8.1023e-06
5.99079e-06 -8.1023e-06 -0.00135526
0.000509929 -9.75405e-05 8.66804e-07
-9.75405e-05 0.000730968 1.89254e-06
8.66804e-07 1.89254e-06 0.00030217
-0.000857122 -7.54533e-05 -1.81758e-05
-7.54533e-05 -0.000304479 2.64068e-06
-1.81758e-05 2.64068e-06 -0.000861534
0.00318008 -0.000979245 -5.7479e-06
-0.000979245 0.00201072 1.08677e-05
-5.7479e-06 1.08677e-05 0.00133592
0.00177409 -0.000657304 1.55824e-05
-0.000657304 0.00107817 -2.07299e-07
1.55824e-05 -2.07299e-07 0.000615901
0.00133557 -0.00073007 1.23707e-05
-0.00073007 0.000473372 2.9121e-05
1.23707e-05 2.9121e-05 -8.60894e-06
0.000764211 -0.000303806 -1.12236e-05
-0.000303806 0.000350992 3.01115e-06
-1.12236e-05 3.01115e-06 5.65825e-05
0.000988398 -0.000574411 -5.89694e-06
-0.000574411 0.000377367 3.60045e-06
-5.89694e-06 3.60045e-06 -6.9444e-05
0.00312975 -0.00132592 -1.61654e-05
-0.00132592 0.00152816 1.44765e-05
-1.61654e-05 1.44765e-05 0.000677973
0.00255215 -0.00143394 5.68938e-06
-0.00143394 0.00107395 -7.04057e-06
5.68938e-06 -7.04057e-06 0.00016031
0.00205438 -0.000745288 1.49534e-05
-0.000745288 0.000892004 -4.48632e-06
1.49534e-05 -4.48632e-06 0.000391877
0.00180181 -0.00109205 -2.59985e-07
-0.00109205 0.000791166 -1.708e-07
-2.59985e-07 -1.708e-07 3.5542e-05
0.00274318 -0.00043989 1.07175e-05
-0.00043989 0.00158362 -1.60314e-05
1.07175e-05 -1.60314e-05 0.00114279
0.00161108 -0.000431828 -5.32547e-06
-0.000431828 0.000693613 3.46109e-06
-5.32547e-06 3.46109e-06 0.000331745
0.000875464 -0.000544532 4.33259e-06
-0.000544532 0.000239346 -2.12715e-05
4.33259e-06 -2.12715e-05 -0.00016375
0.00357995 -0.00042118 -6.09055e-06
-0.00042118 0.00221131 1.08944e-05
-6.09055e-06 1.08944e-05 0.0018151
-0.000390477 -0.000552887 3.77972e-06
-0.000552887 -0.000276806 -4.79631e-06
3.77972e-06 -4.79631e-06 -0.000760579
0.00113389 -0.000163869 2.01638e-05
-0.000163869 0.000621827 7.80918e-06
2.01638e-05 7.80918e-06 0.000194244
0.0026381 -0.00107973 -2.57809e-05
-0.00107973 0.00156004 2.45322e-05
-2.57809e-05 2.45322e-05 0.00120194
0.00142341 -0.000368522 -1.21129e-07
-0.000368522 0.000821475 -6.91161e-07
-1.21129e-07 -6.91161e-07 0.000467255
-0.000326302 -0.00016571 1.15496e-05
-0.00016571 -0.000419466 1.8787e-05
1.15496e-05 1.8787e-05 -0.000655272
0.00254516 -0.000279479 -1.15141e-05
-0.000279479 0.00165009 -7.15205e-06
-1.15141e-05 -7.15205e-06 0.00133281
0.000239632 -0.000120985 -2.63671e-06
-0.000120985 -5.05662e-05 -7.97231e-07
-2.63671e-06 -7.97231e-07 -0.000213451
0.00176179 -6.47152e-05 -3.08412e-05
-6.47152e-05 0.000906241 9.08936e-06
-3.08412e-05 9.08936e-06 0.000859584
0.000611936 -0.000131788 -2.88903e-06
-0.000131788 0.000195958 -7.85592e-07
-2.88903e-06 -7.85592e-07 6.16172e-05
0.000892611 -4.80209e-05 -1.75712e-05
-4.80209e-05 0.000332559 1.1058e-06
-1.75712e-05 1.1058e-06 0.000286039
0.000797258 2.44566e-05 5.06967e-06
2.44566e-05 0.000244565 3.89043e-06
5.06967e-06 3.89043e-06 0.000233804
0.000418383 -6.26158e-05 3.41154e-06
-6.26158e-05 2.2079e-05 -6.97698e-06
3.41154e-06 -6.97698e-06 -2.19363e-05
0.00188 2.0004e-05 2.5409e-05
2.0004e-05 0.000976597 -1.79457e-06
2.5409e-05 -1.79457e-06 0.000981318
0.00269998 2.62735e-06 3.62618e-05
2.62735e-06 0.00152806 -6.43875e-06
3.62618e-05 -6.43875e-06 0.00154001
0.000181669 5.03232e-05 3.60217e-06
5.03232e-05 -2.74078e-05 1.27744e-06
3.60217e-06 1.27744e-06 -0.000301178
-0.00020033 4.22102e-05 1.04634e-06
4.22102e-05 -0.000357478 -7.82716e-06
1.04634e-06 -7.82716e-06 -0.000486251
0.000598532 8.3126e-05 4.49554e-07
8.3126e-05 0.00024342 1.41463e-06
4.49554e-07 1.41463e-06 2.0466e-05
0.000346777 1.83262e-05 4.98899e-06
1.83262e-05 -3.63846e-05 -7.3588e-06
4.98899e-06 -7.3588e-06 -7.27921e-05
0.000225375 3.85174e-06 1.59172e-06
3.85174e-06 -7.40314e-05 2.24937e-07
1.59172e-06 2.24937e-07 -0.000181849
0.000394104 -0.00014798 -1.73342e-06
-0.00014798 0.000111508 4.01024e-06
-1.73342e-06 4.01024e-06 -8.81259e-05
0.00261402 4.44425e-06 -2.2863e-05
4.44425e-06 0.00147439 -7.21388e-06
-2.2863e-05 -7.21388e-06 0.00148475
0.000343802 1.30513e-05 2.21313e-06
1.30513e-05 -3.90278e-05 -1.3523e-07
2.21313e-06 -1.3523e-07 -6.96037e-05
0.000353975 -1.96323e-05 -7.04985e-06
-1.96323e-05 1.12237e-05 5.36854e-06
-7.04985e-06 5.36854e-06 -8.29522e-05
0.00248439 1.80397e-05 -7.7419e-06
1.80397e-05 0.0013875 -8.43694e-08
-7.7419e-06 -8.43694e-08 0.00139797
0.000337633 -1.31402e-05 -5.19162e-06
-1.31402e-05 -4.45835e-05 5.82e-06
-5.19162e-06 5.82e-06 -7.20336e-05
0.00255354 4.2932e-05 1.8259e-05
4.2932e-05 0.00143696 8.11323e-06
1.8259e-05 8.11323e-06 0.00144492
-0.00311091 -0.00318101 -0.000308955
-0.00318101 -5.63069e-05 0.000146311
-0.000308955 0.000146311 -0.0057891
0.00938899 0.0071526 -0.000619613
0.0071526 0.0182909 4.63709e-05
-0.000619613 4.63709e-05 0.00531225
0.0131203 0.00487483 -0.00277163
0.00487483 0.00977573 0.000173284
-0.00277163 0.000173284 0.00352496
0.000211511 9.29253e-05 8.42626e-06
9.29253e-05 3.59377e-05 1.65313e-06
8.42626e-06 1.65313e-06 -0.000276008
0.0108569 -0.00305312 -0.000323652
-0.00305312 0.00792268 0.000405047
-0.000323652 0.000405047 0.00297908
0.00747886 -0.00263579 -0.000185372
-0.00263579 0.0037218 2.53811e-05
-0.000185372 2.53811e-05 -0.00240286
0.0331469 0.0199671 -0.000120383
0.0199671 0.0240975 -0.000866662
-0.000120383 -0.000866662 0.00260483
0.00587068 -0.00336991 0.000234114
-0.00336991 -0.00429859 -7.13959e-05
0.000234114 -7.13959e-05 -0.000404775
0.0105972 -0.00707137 0.000459495
-0.00707137 -0.00692373 -0.000380726
0.000459495 -0.000380726 -0.00175996
0.0256789 0.00963011 -0.00122056
0.00963011 0.0156632 6.67809e-05
-0.00122056 6.67809e-05 0.000743663
0.024367 0.00652228 0.00100139
0.00652228 0.0177474 0.000543866
0.00100139 0.000543866 0.00927875
0.00715331 -0.0061244 -9.03957e-05
-0.0061244 -0.00291152 7.72142e-06
-9.03957e-05 7.72142e-06 0.0004862
0.0100599 -0.0123948 9.21347e-05
-0.0123948 -0.0011947 -0.000132391
9.21347e-05 -0.000132391 -0.00127578
0.0191596 0.00203886 1.78865e-05
0.00203886 0.0149467 -0.000692274
1.78865e-05 -0.000692274 0.00224262
0.0201883 0.00143889 -5.64078e-05
0.00143889 0.00641053 0.000110427
-5.64078e-05 0.000110427 0.000290925
0.00526579 -0.00852611 6.18975e-06
-0.00852611 0.000171009 4.1391e-05
6.18975e-06 4.1391e-05 0.00107818
0.0059625 -0.010495 0.000553366
-0.010495 0.0046049 -0.000304863
0.000553366 -0.000304863 -0.000560936
0.010084 0.00134942 -0.000275177
0.00134942 0.00916211 -0.000438486
-0.000275177 -0.000438486 0.0016165
0.0203888 -0.00124772 -0.000373417
-0.00124772 0.00274796 0.00035283
-0.000373417 0.00035283 0.000693871
-0.000252952 0.000367352 3.0087e-05
0.000367352 -0.000202644 3.16768e-05
3.0087e-05 3.16768e-05 -0.000458236
0.000407407 -0.000113918 -2.70432e-06
-0.000113918 0.00023525 -3.96199e-06
-2.70432e-06 -3.96199e-06 -5.6996e-05
-0.000724367 -7.30446e-05 2.73018e-06
-7.30446e-05 -0.000634819 -2.29502e-06
2.73018e-06 -2.29502e-06 -0.000777509
0.000813196 0.000228064 1.8763e-05
0.000228064 0.000377635 2.24338e-05
1.8763e-05 2.24338e-05 0.00011093
0.00109798 0.000296747 -6.42932e-06
0.000296747 0.000664462 -6.22913e-06
-6.42932e-06 -6.22913e-06 0.000334264
0.000734708 0.000130531 3.59379e-06
0.000130531 0.0004138 -4.60567e-06
3.59379e-06 -4.60567e-06 0.000149286
0.00151105 0.000286231 -1.87015e-06
0.000286231 0.000946112 4.52402e-07
-1.87015e-06 4.52402e-07 0.000595902
0.001263 0.000259476 -8.07572e-07
0.000259476 0.000773684 3.8901e-06
-8.07572e-07 3.8901e-06 0.00045334
0.00445606 -0.00268181 0.000208618
-0.00268181 -0.000272168 -0.00013582
0.000208618 -0.00013582 0.000689048
-0.00193589 -0.00119831 -1.01984e-05
-0.00119831 -0.00182151 -1.06205e-05
-1.01984e-05 -1.06205e-05 -0.00218859
-0.00121416 0.000101982 -1.53102e-05
0.000101982 -0.000823829 -9.47592e-06
-1.53102e-05 -9.47592e-06 -0.00106101
-8.79577e-05 -0.000755988 1.98521e-05
-0.000755988 0.000202137 -3.50686e-06
1.98521e-05 -3.50686e-06 -0.000316088
0.00144747 -0.000460078 -4.89002e-05
-0.000460078 0.00111107 -1.28534e-06
-4.89002e-05 -1.28534e-06 0.000606537
-7.10666e-05 2.2992e-06 -8.30102e-06
2.2992e-06 0.000211063 -1.93728e-05
-8.30102e-06 -1.93728e-05 -0.000283267
-0.000837321 0.000198081 3.26111e-06
0.000198081 -0.000392559 1.31117e-05
3.26111e-06 1.31117e-05 -0.000723072
0.00189895 -0.00353721 -3.73265e-05
-0.00353721 -0.000103846 -4.53404e-06
-3.73265e-05 -4.53404e-06 -0.000775572
0.000842693 -0.000221522 -5.1518e-06
-0.000221522 0.000903163 9.99387e-06
-5.1518e-06 9.99387e-06 0.000383255
-0.00061379 -0.000199209 1.85983e-06
-0.000199209 0.000289066 7.51258e-06
1.85983e-06 7.51258e-06 -0.000418278
-0.000972613 -0.00103516 8.5896e-06
-0.00103516 -0.000325183 2.66756e-06
8.5896e-06 2.66756e-06 -0.000829845
-0.00155934 -0.000108408 2.59938e-05
-0.000108408 -0.000735023 6.48495e-06
2.59938e-05 6.48495e-06 -0.00111642
0.00277202 -0.00350586 -0.000103789
-0.00350586 0.0025784 -2.82989e-06
-0.000103789 -2.82989e-06 0.000738047
-0.000973417 -0.00090625 3.26864e-05
-0.00090625 0.000115686 -2.95476e-05
3.26864e-05 -2.95476e-05 -0.000648632
0.000314513 -4.28954e-05 4.15481e-06
-4.28954e-05 0.000969881 -3.35418e-05
4.15481e-06 -3.35418e-05 0.000125024
-0.00106432 -0.000207399 4.2258e-05
-0.000207399 -1.30997e-05 1.44216e-05
4.2258e-05 1.44216e-05 -0.000801427
0.0027705 -0.000869781 0.000544666
-0.000869781 0.00869336 0.000113387
0.000544666 0.000113387 0.00183009
-0.000380509 -5.7419e-05 0.00015517
-5.7419e-05 0.000798598 1.34272e-05
0.00015517 1.34272e-05 -0.00384142
-0.0104232 -0.000968882 -0.00188862
-0.000968882 0.00510123 1.09925e-05
-0.00188862 1.09925e-05 0.000633589
0.00237401 0.00146392 3.45453e-05
0.00146392 0.0015136 1.76342e-06
3.45453e-05 1.76342e-06 0.000684736
-0.000451415 0.00200899 3.41757e-05
0.00200899 0.000302498 2.12464e-05
3.41757e-05 2.12464e-05 -0.000965325
0.0047588 0.00385136 0.00101
0.00385136 0.00579661 0.000226819
0.00101 0.000226819 -0.00134962
0.000692707 0.00695594 0.00021351
0.00695594 0.00345371 0.000318774
0.00021351 0.000318774 -0.000586653
2.29779e-05 0.00580406 -0.000384027
0.00580406 0.00199436 -0.000310815
-0.000384027 -0.000310815 -0.00129357
0.012684 -0.00113526 -0.000180766
-0.00113526 0.00925457 -0.000557559
-0.000180766 -0.000557559 0.00147292
0.0066104 2.53275e-05 -0.000101607
2.53275e-05 0.00461262 5.93049e-05
-0.000101607 5.93049e-05 0.000182331
0.0123191 -0.000277683 -5.14828e-05
-0.000277683 -0.00267809 -0.000342621
-5.14828e-05 -0.000342621 -0.00396266
0.00101589 0.00143261 8.39973e-06
0.00143261 0.00114803 2.94555e-07
8.39973e-06 2.94555e-07 4.35155e-05
-0.000369385 0.00112741 3.59658e-05
0.00112741 0.00496737 -2.09234e-05
3.59658e-05 -2.09234e-05 -0.00144408
0.00979043 -0.000789221 0.000418118
-0.000789221 0.0012495 8.38438e-06
0.000418118 8.38438e-06 -0.00288231
-0.00242894 0.00165072 -3.8343e-05
0.00165072 0.000687 -2.24639e-05
-3.8343e-05 -2.24639e-05 -0.00109535
0.0216065 0.00192222 3.74688e-05
0.00192222 0.00635831 -0.000139331
3.74688e-05 -0.000139331 9.98386e-05
0.00371273 0.00398837 0.000518499
0.00398837 0.00757316 0.000358981
0.000518499 0.000358981 -0.000971457
0.0165012 0.000837617 -0.000299199
0.000837617 0.0062039 -3.9637e-05
-0.000299199 -3.9637e-05 -0.000598961
-0.000168567 0.0010878 1.24472e-05
0.0010878 0.000924039 -8.64203e-06
1.24472e-05 -8.64203e-06 -0.00037469
0.00746002 -6.58345e-05 0.000362249
-6.58345e-05 0.00496425 0.00011756
0.000362249 0.00011756 0.000147328
0.00394262 -0.00555587 0.000515591
-0.00555587 0.00586002 -0.000246089
0.000515591 -0.000246089 0.00189768
0.0416914 0.00930417 0.000810065
0.00930417 0.0212656 -0.000520431
0.000810065 -0.000520431 0.00821951
0.0136116 -4.31533e-05 4.79066e-05
-4.31533e-05 0.0108745 0.000660088
4.79066e-05 0.000660088 0.00314475
-0.00221182 0.00133371 -0.000192521
0.00133371 0.00191698 -0.000145013
-0.000192521 -0.000145013 -0.000156575
0.00210411 -0.000606115 0.000183651
-0.000606115 0.00652572 -0.000110406
0.000183651 -0.000110406 -0.00444327
0.000578639 0.000656551 -1.65997e-06
0.000656551 0.000760562 8.33699e-06
-1.65997e-06 8.33699e-06 2.05604e-05
0.000415541 0.000360973 -9.31508e-07
0.000360973 0.00109018 5.06929e-06
-9.31508e-07 5.06929e-06 0.000205386
0.000996381 -0.000102528 -4.20107e-05
-0.000102528 0.00184885 1.7041e-05
-4.20107e-05 1.7041e-05 0.00101807
-0.00132154 9.49591e-05 1.92776e-05
9.49591e-05 -0.000684282 -3.07153e-06
1.92776e-05 -3.07153e-06 -0.00106039
-0.000793835 4.30364e-06 1.01474e-05
4.30364e-06 0.000120306 6.05683e-06
1.01474e-05 6.05683e-06 -0.00051536
-5.45809e-05 4.76094e-05 -1.77095e-05
4.76094e-05 0.000751367 -2.81889e-06
-1.77095e-05 -2.81889e-06 3.20832e-05
0.000158795 -3.42562e-05 -8.80498e-06
-3.42562e-05 0.000553582 2.29489e-06
-8.80498e-06 2.29489e-06 8.9196e-05
-4.15091e-05 -0.000190188 2.94892e-06
-0.000190188 0.000729605 2.80155e-06
2.94892e-06 2.80155e-06 7.22947e-05
0.00361595 -0.000842593 1.84058e-05
-0.000842593 0.00253249 -7.64943e-06
1.84058e-05 -7.64943e-06 0.00197472
0.000218994 -6.73817e-05 -1.66996e-06
-6.73817e-05 0.000510218 -8.17446e-06
-1.66996e-06 -8.17446e-06 9.22004e-05
-0.00506596 0.000119717 5.14323e-06
0.000119717 -0.00269411 2.92461e-06
5.14323e-06 2.92461e-06 -0.00336822
0.00117724 -0.000720603 1.04043e-06
-0.000720603 0.000929828 8.87127e-06
1.04043e-06 8.87127e-06 0.000169367
-0.00152442 -0.000349883 2.70208e-05
-0.000349883 -0.000933531 2.6252e-05
2.70208e-05 2.6252e-05 -0.00148126
-0.000298653 -0.000372751 -1.24671e-05
-0.000372751 -0.000150671 -3.69224e-05
-1.24671e-05 -3.69224e-05 -0.000481134
0.000247811 -0.000681389 -1.23774e-05
-0.000681389 -0.000146969 -3.85169e-06
-1.23774e-05 -3.85169e-06 -0.000621274
0.00233562 -0.00133034 -1.98976e-05
-0.00133034 0.00102187 8.41679e-06
-1.98976e-05 8.41679e-06 2.74333e-05
0.00267604 -0.00161257 -1.76019e-05
-0.00161257 0.00104571 2.80819e-06
-1.76019e-05 2.80819e-06 5.0888e-05
0.00210956 -0.000683662 -7.38057e-06
-0.000683662 0.00103787 -9.40259e-06
-7.38057e-06 -9.40259e-06 0.000590003
0.0024963 -0.00125305 2.1529e-07
-0.00125305 0.00111863 1.41779e-06
2.1529e-07 1.41779e-06 0.000275285
0.0024148 -0.00148775 1.12199e-05
-0.00148775 0.000896393 -8.82659e-06
1.12199e-05 -8.82659e-06 -1.55678e-05
0.00264978 -0.00114913 1.01149e-05
-0.00114913 0.00127654 -6.70832e-06
1.01149e-05 -6.70832e-06 0.000507726
0.00180546 -0.00132769 5.12687e-06
-0.00132769 0.000616947 -1.4431e-06
5.12687e-06 -1.4431e-06 -0.000266379
0.00412931 -0.000551484 1.17402e-06
-0.000551484 0.00226418 -9.49327e-06
1.17402e-06 -9.49327e-06 0.00189422
0.000248041 -0.000586191 2.48395e-07
-0.000586191 -0.000218459 4.23869e-08
2.48395e-07 4.23869e-08 -0.000722175
0.000765864 -0.000901183 -4.87472e-06
-0.000901183 0.000156695 -6.16589e-06
-4.87472e-06 -6.16589e-06 -0.00053068
0.000348703 -0.000283563 1.02216e-05
-0.000283563 0.000144295 9.87178e-07
1.02216e-05 9.87178e-07 -0.000361135
0.000632434 -0.000405246 -1.40729e-06
-0.000405246 0.000321978 -1.53204e-06
-1.40729e-06 -1.53204e-06 -0.000170405
-0.000485051 -0.000266425 -8.47757e-06
-0.000266425 -0.000545399 1.96399e-07
-8.47757e-06 1.96399e-07 -0.00092024
0.000986695 -0.00071464 -2.28731e-05
-0.00071464 0.000531525 2.88031e-05
-2.28731e-05 2.88031e-05 5.33424e-05
0.00128452 -0.000448346 1.45572e-06
-0.000448346 0.000688495 9.30105e-07
1.45572e-06 9.30105e-07 0.000259438
-0.000326991 -0.000167503 1.09333e-05
-0.000167503 -0.000384984 1.63768e-05
1.09333e-05 1.63768e-05 -0.000730992
0.000548779 -0.000577976 -1.71688e-05
-0.000577976 0.000269638 -9.24019e-06
-1.71688e-05 -9.24019e-06 -0.000115085
0.000374764 -0.00011588 -2.2348e-06
-0.00011588 4.91223e-05 -4.37537e-07
-2.2348e-06 -4.37537e-07 -0.000198672
0.000357476 7.39633e-06 2.92193e-06
7.39633e-06 -3.45075e-05 1.5009e-05
2.92193e-06 1.5009e-05 -0.000103733
0.00214626 -0.000271179 -8.80525e-06
-0.000271179 0.00120145 -6.57597e-06
-8.80525e-06 -6.57597e-06 0.00101944
0.000459555 -7.10887e-05 -2.51812e-06
-7.10887e-05 2.64468e-05 5.29492e-07
-2.51812e-06 5.29492e-07 -2.90437e-05
0.00308637 0.000104307 9.92243e-06
0.000104307 0.00179063 4.85156e-06
9.92243e-06 4.85156e-06 0.00178514
0.000465792 -7.78579e-05 1.74682e-06
-7.78579e-05 4.43777e-05 -7.65791e-06
1.74682e-06 -7.65791e-06 -8.56832e-06
0.00198918 3.15118e-05 3.32005e-05
3.15118e-05 0.00104966 -1.98859e-06
3.32005e-05 -1.98859e-06 0.00104944
0.00302417 1.50335e-05 4.93041e-05
1.50335e-05 0.00174376 -7.81725e-06
4.93041e-05 -7.81725e-06 0.0017543
-0.000445494 0.000116493 2.59636e-06
0.000116493 -0.000447841 8.8484e-06
2.59636e-06 8.8484e-06 -0.000731873
-0.0001787 7.08165e-05 3.09314e-06
7.08165e-05 -0.000331395 -9.03834e-06
3.09314e-06 -9.03834e-06 -0.00050455
0.000154285 0.000164502 -1.074e-06
0.000164502 -2.29282e-05 1.08355e-06
-1.074e-06 1.08355e-06 -0.000305967
0.000393584 3.26e-05 3.24899e-06
3.26e-05 -5.33451e-06 -8.75985e-06
3.24899e-06 -8.75985e-06 -4.83419e-05
-0.000103919 4.36499e-05 -1.01527e-06
4.36499e-05 -0.000292228 -2.96838e-06
-1.01527e-06 -2.96838e-06 -0.000423687
0.00113357 0.00013149 -1.77586e-06
0.00013149 0.00064943 4.30066e-06
-1.77586e-06 4.30066e-06 0.000388808
0.00282186 -1.06183e-05 -3.1644e-05
-1.06183e-05 0.00161428 -7.73342e-06
-3.1644e-05 -7.73342e-06 0.0016232
0.00035311 2.0411e-05 -2.21134e-07
2.0411e-05 -3.28376e-05 -2.62427e-07
-2.21134e-07 -2.62427e-07 -6.85017e-05
-0.000237355 3.13979e-05 -9.44178e-07
3.13979e-05 -0.000387897 5.90362e-06
-9.44178e-07 5.90362e-06 -0.000493993
0.00257435 2.52338e-06 -6.02761e-06
2.52338e-06 0.00144762 8.66713e-08
-6.02761e-06 8.66713e-08 0.00145793
0.000362493 2.73518e-05 -1.55757e-06
2.73518e-05 -2.6278e-05 6.26474e-06
-1.55757e-06 6.26474e-06 -5.68106e-05
0.0024816 1.81541e-05 1.20103e-05
1.81541e-05 0.00138611 6.78696e-06
1.20103e-05 6.78696e-06 0.00139632
0.000808547 -0.000765116 0.000448797
-0.000765116 0.00810698 0.000266493
0.000448797 0.000266493 0.00407852
-0.00363846 -0.00103139 -5.60611e-05
-0.00103139 -1.95083e-05 1.65095e-05
-5.60611e-05 1.65095e-05 -0.00565393
0.00552821 0.00717669 -0.00143101
0.00717669 0.0165881 -0.000446907
-0.00143101 -0.000446907 0.00395415
0.00100312 0.000273654 -6.67955e-07
0.000273654 0.000587615 1.67861e-06
-6.67955e-07 1.67861e-06 0.000257527
-0.00144108 0.000147071 1.03559e-05
0.000147071 -0.000953707 9.03987e-06
1.03559e-05 9.03987e-06 -0.00133021
0.00312421 0.000460237 3.69246e-05
0.000460237 0.0019872 -2.38283e-07
3.69246e-05 -2.38283e-07 0.00167624
0.0117996 -0.00158664 -0.000727916
-0.00158664 0.0009688 1.92287e-05
-0.000727916 1.92287e-05 -0.00368506
0.0121834 -0.00530655 0.000275062
-0.00530655 0.00672669 6.51347e-05
0.000275062 6.51347e-05 0.00302589
0.00495357 -0.006277 0.000433013
-0.006277 0.00236716 -0.00034027
0.000433013 -0.00034027 -0.00249816
0.00808067 -0.00656383 0.000106526
-0.00656383 -0.00295827 -0.000163462
0.000106526 -0.000163462 0.000774113
0.00276573 -0.0123724 -0.00151035
-0.0123724 -0.00656668 0.000246833
-0.00151035 0.000246833 -0.00403875
0.0346735 0.0101865 0.0012935
0.0101865 0.0224804 0.000398896
0.0012935 0.000398896 0.00603168
0.0113577 -0.0023916 0.000519203
-0.0023916 0.000664557 -0.000342578
0.000519203 -0.000342578 -0.00456747
0.00479088 -0.00783626 1.54347e-06
-0.00783626 -9.90637e-05 1.003e-05
1.54347e-06 1.003e-05 0.00115107
0.00338011 -0.0117842 -0.000434266
-0.0117842 0.0040116 2.74597e-05
-0.000434266 2.74597e-05 -0.00284118
0.0131282 0.00547557 -0.000305449
0.00547557 0.00984958 -0.000474869
-0.000305449 -0.000474869 0.000710647
0.0165528 -0.000782603 -0.00026812
-0.000782603 0.000871193 0.000198746
-0.00026812 0.000198746 -0.000933656
0.00163487 -0.00663127 -0.000280692
-0.00663127 0.00285405 0.000182125
-0.000280692 0.000182125 0.000506978
0.00949884 -0.00541981 -0.000341177
-0.00541981 0.00902738 0.000426333
-0.000341177 0.000426333 0.00167345
0.0160548 -0.000536893 0.000107922
-0.000536893 0.00574964 -0.000382451
0.000107922 -0.000382451 -0.000358218
0.0106439 0.00144351 -0.000256578
0.00144351 0.000163257 0.000315697
-0.000256578 0.000315697 -0.00460494
-0.000240354 0.000174078 2.30036e-05
0.000174078 -0.000153112 4.27056e-05
2.30036e-05 4.27056e-05 -0.000377264
0.000819252 0.000108135 -9.27854e-06
0.000108135 0.000515511 2.16915e-06
-9.27854e-06 2.16915e-06 0.000251918
0.00104563 -0.000383912 1.18207e-05
-0.000383912 0.000665929 -1.73974e-05
1.18207e-05 -1.73974e-05 0.000361546
0.000725514 0.000225951 2.97056e-06
0.000225951 0.000314157 6.26602e-06
2.97056e-06 6.26602e-06 6.00597e-05
0.000808616 0.000325525 -4.16832e-06
0.000325525 0.000474145 -1.59741e-05
-4.16832e-06 -1.59741e-05 0.000147076
0.00126876 0.000398622 -9.17671e-06
0.000398622 0.000819575 -5.28681e-06
-9.17671e-06 -5.28681e-06 0.000449812
0.00231486 -0.00319074 8.66622e-05
-0.00319074 0.000241954 -4.8518e-05
8.66622e-05 -4.8518e-05 -0.000196406
-0.000192553 -0.00102073 -1.61823e-06
-0.00102073 -0.000115885 -2.26457e-05
-1.61823e-06 -2.26457e-05 -0.000486352
-0.000498631 0.000187641 -2.11287e-05
0.000187641 -0.000224573 -2.8751e-05
-2.11287e-05 -2.8751e-05 -0.000556752
0.000398414 -0.000300763 3.45124e-05
-0.000300763 0.000679257 -4.67067e-08
3.45124e-05 -4.67067e-08 7.31822e-05
0.00276755 -0.000277907 -5.9339e-06
-0.000277907 0.00206753 -3.09426e-05
-5.9339e-06 -3.09426e-05 0.00154764
-0.000739307 -1.62344e-05 7.46995e-06
-1.62344e-05 -0.000216282 5.22174e-06
7.46995e-06 5.22174e-06 -0.000602625
-0.000286901 1.28271e-05 6.2193e-06
1.28271e-05 0.000512737 1.5588e-05
6.2193e-06 1.5588e-05 -0.000216746
0.000929926 -0.00303344 3.06586e-05
-0.00303344 0.00174293 -2.37472e-05
3.06586e-05 -2.37472e-05 0.000131803
-5.26414e-05 -5.18723e-05 -5.95538e-06
-5.18723e-05 0.000821265 1.42268e-06
-5.95538e-06 1.42268e-06 -7.91001e-05
0.000227 -0.000896796 -7.66115e-06
-0.000896796 0.00113248 7.6255e-06
-7.66115e-06 7.6255e-06 0.000118359
5.33911e-05 0.000221564 6.19446e-05
0.000221564 0.000604726 -2.79486e-05
6.19446e-05 -2.79486e-05 -0.000114768
-0.00298094 -0.000671149 -0.000273005
-0.000671149 0.000879009 1.73646e-05
-0.000273005 1.73646e-05 -0.00061496
-0.000874907 -0.000294357 -6.0722e-05
-0.000294357 0.00142235 -3.37729e-05
-6.0722e-05 -3.37729e-05 0.00021994
-0.00105716 1.20599e-05 6.89414e-05
1.20599e-05 0.00026771 -1.98726e-06
6.89414e-05 -1.98726e-06 -0.000525122
0.00236524 0.000904508 3.57969e-05
0.000904508 0.000324047 -5.02644e-05
3.57969e-05 -5.02644e-05 -0.00841495
-2.58366e-05 0.002134 0.000396445
0.002134 0.0080547 6.80642e-05
0.000396445 6.80642e-05 0.00227051
-0.00270127 0.000957564 0.000528686
0.000957564 0.00050807 3.31603e-05
0.000528686 3.31603e-05 -0.00325643
-8.16074e-05 0.00149093 1.68525e-05
0.00149093 0.000477858 2.7662e-05
1.68525e-05 2.7662e-05 -0.000734443
0.00182171 0.00247747 8.92568e-06
0.00247747 0.00233028 -6.26337e-05
8.92568e-06 -6.26337e-05 0.000475755
-3.42403e-05 0.00135502 -0.000596236
0.00135502 0.0055105 -0.000155016
-0.000596236 -0.000155016 -0.000915042
-0.00106465 0.00260696 0.000403734
0.00260696 0.00688431 0.000394104
0.000403734 0.000394104 -0.000601113
0.0130715 -0.000320441 -0.000191427
-0.000320441 0.00169158 -0.000516679
-0.000191427 -0.000516679 -0.005655
0.0106384 -6.15453e-05 3.69809e-05
-6.15453e-05 0.000424045 -7.2388e-05
3.69809e-05 -7.2388e-05 -0.00303002
0.0100794 -0.00244852 -0.000569874
-0.00244852 -0.000248348 0.000329049
-0.000569874 0.000329049 -0.00473837
0.000520999 0.00101182 -2.34094e-05
0.00101182 0.00132811 -5.51096e-06
-2.34094e-05 -5.51096e-06 0.000169397
0.00371757 0.00129069 0.000164036
0.00129069 0.00491419 8.65762e-05
0.000164036 8.65762e-05 0.000290993
0.0117866 -0.00397568 -0.000293228
-0.00397568 0.00610597 -6.18295e-05
-0.000293228 -6.18295e-05 0.0028923
-0.00073415 0.00168174 -0.00022653
0.00168174 0.00368082 -3.28898e-05
-0.00022653 -3.28898e-05 8.05003e-05
0.0316743 0.00859284 -0.00081175
0.00859284 0.0178542 -0.000682464
-0.00081175 -0.000682464 0.00573856
0.0174735 0.00440909 0.000226752
0.00440909 0.0115107 0.000559585
0.000226752 0.000559585 0.000665393
0.00851695 0.00425815 0.000152025
0.00425815 0.00931692 -1.21163e-05
0.000152025 -1.21163e-05 0.000936321
-1.49409e-05 4.17899e-05 9.33815e-05
4.17899e-05 0.00234072 -1.65566e-05
9.33815e-05 -1.65566e-05 0.000120517
0.00453288 0.000719993 -0.000594382
0.000719993 0.0109145 -4.02867e-06
-0.000594382 -4.02867e-06 0.0063741
0.00434854 -0.00249793 0.000659106
-0.00249793 0.00233193 -0.000279206
0.000659106 -0.000279206 -0.00440329
0.0563605 0.0241767 0.000139338
0.0241767 0.0397045 -0.000379275
0.000139338 -0.000379275 0.0144566
0.0228368 0.007286 0.00142663
0.007286 0.0141329 0.00172175
0.00142663 0.00172175 0.000144574
0.0121205 -0.00809602 0.00084224
-0.00809602 0.010513 -0.00061195
0.00084224 -0.00061195 0.000215043
-0.00018021 -0.00104575 -0.000104188
-0.00104575 0.00483758 8.00344e-05
-0.000104188 8.00344e-05 0.00221864
0.00117331 0.000423835 -1.61305e-05
0.000423835 0.00151647 -4.63854e-06
-1.61305e-05 -4.63854e-06 0.000714125
-0.000454962 -0.000102815 -1.58258e-05
-0.000102815 0.000810576 -8.04354e-06
-1.58258e-05 -8.04354e-06 -0.00016943
0.000907428 -0.00117609 7.47605e-05
-0.00117609 0.00141454 -1.14075e-05
7.47605e-05 -1.14075e-05 0.000117037
-0.000856102 3.05325e-05 2.80614e-06
3.05325e-05 -8.67448e-05 3.2819e-06
2.80614e-06 3.2819e-06 -0.000545706
-0.000470455 -0.000128157 1.53196e-05
-0.000128157 0.000482192 -2.15186e-05
1.53196e-05 -2.15186e-05 -0.000164067
0.00136868 -0.000591887 -7.73001e-06
-0.000591887 0.00128648 1.01017e-06
-7.73001e-06 1.01017e-06 0.000848985
0.00336181 -0.00158383 5.62565e-05
-0.00158383 0.00209966 -1.49623e-05
5.62565e-05 -1.49623e-05 0.00103751
-0.000758559 -0.000456221 4.76791e-06
-0.000456221 -0.000145519 -8.43845e-06
4.76791e-06 -8.43845e-06 -0.000971773
0.00217834 -0.00115497 2.29619e-05
-0.00115497 0.000957891 -6.79335e-06
2.29619e-05 -6.79335e-06 0.000294903
-0.000729899 -0.000859868 -1.08906e-05
-0.000859868 -0.000458432 3.85906e-06
-1.08906e-05 3.85906e-06 -0.00164781
0.00104512 -0.000805317 -2.0908e-05
-0.000805317 0.000368898 -1.04016e-05
-2.0908e-05 -1.04016e-05 -9.6989e-05
0.00186108 -0.00123774 1.44009e-06
-0.00123774 0.000750282 -4.08461e-06
1.44009e-06 -4.08461e-06 -0.000210774
0.00242829 -0.00164639 -2.97167e-05
-0.00164639 0.000829675 1.9339e-06
-2.97167e-05 1.9339e-06 -0.000283945
0.00323576 -0.001783 -1.55499e-05
-0.001783 0.0010346 -1.66858e-06
-1.55499e-05 -1.66858e-06 6.37138e-05
0.00277961 -0.00176713 -2.23976e-07
-0.00176713 0.00100147 -1.87873e-06
-2.23976e-07 -1.87873e-06 -2.6475e-05
0.00291714 -0.00162924 -2.1442e-06
-0.00162924 0.00116499 2.26623e-06
-2.1442e-06 2.26623e-06 0.00016802
0.00185851 -0.00117087 -5.42823e-06
-0.00117087 0.0007202 -4.55029e-06
-5.42823e-06 -4.55029e-06 -0.000112927
0.00262573 -0.00150192 1.20924e-06
-0.00150192 0.00112654 -8.56044e-06
1.20924e-06 -8.56044e-06 0.000191983
0.00226849 -0.00148994 1.0859e-05
-0.00148994 0.000787033 -2.81679e-06
1.0859e-05 -2.81679e-06 -0.000124825
0.0024278 -0.000755395 -1.19656e-05
-0.000755395 0.00107314 -1.42595e-06
-1.19656e-05 -1.42595e-06 0.000523401
0.00241213 -0.00110723 3.38983e-06
-0.00110723 0.00109258 -4.57321e-06
3.38983e-06 -4.57321e-06 0.000343003
0.000989619 -0.00121424 2.43597e-06
-0.00121424 0.000117232 4.58108e-06
2.43597e-06 4.58108e-06 -0.000733787
0.000663645 -0.000189179 3.03626e-06
-0.000189179 0.000214853 -3.92474e-06
3.03626e-06 -3.92474e-06 -0.0001995
-7.02238e-05 -0.000533925 2.19865e-06
-0.000533925 -0.000402583 -1.43108e-06
2.19865e-06 -1.43108e-06 -0.000803385
0.000682972 -0.000635312 -1.78577e-05
-0.000635312 4.90219e-05 9.53733e-06
-1.78577e-05 9.53733e-06 -0.000471681
1.68726e-05 -0.000288353 1.17893e-05
-0.000288353 -0.000129007 6.73226e-06
1.17893e-05 6.73226e-06 -0.000577633
0.000841955 -0.000419507 4.70297e-08
-0.000419507 0.00047366 1.26972e-06
4.70297e-08 1.26972e-06 -4.97386e-05
-0.00255401 -0.000568034 -1.09974e-05
-0.000568034 -0.00171069 1.38188e-05
-1.09974e-05 1.38188e-05 -0.00222078
0.000678804 -0.000649545 -1.25421e-05
-0.000649545 0.000293227 -7.04436e-06
-1.25421e-05 -7.04436e-06 -0.000155651
0.00101941 -0.000228128 1.56308e-06
-0.000228128 0.000463741 1.64631e-06
1.56308e-06 1.64631e-06 0.000133878
0.000357073 -3.55579e-05 3.99696e-06
-3.55579e-05 -2.20226e-05 2.40093e-05
3.99696e-06 2.40093e-05 -0.000133835
0.00233458 -0.000241058 -7.64099e-06
-0.000241058 0.00129956 -1.79908e-05
-7.64099e-06 -1.79908e-05 0.00106641
0.000428171 -4.0987e-05 -9.4423e-06
-4.0987e-05 1.96314e-05 -9.03889e-07
-9.4423e-06 -9.03889e-07 -6.14012e-05
0.00377425 0.000106141 -5.8508e-05
0.000106141 0.00226387 9.56601e-06
-5.8508e-05 9.56601e-06 0.00225868
0.000534501 -7.67502e-05 2.58214e-06
-7.67502e-05 6.75017e-05 -1.30346e-05
2.58214e-06 -1.30346e-05 1.16645e-05
0.00219037 5.93529e-05 3.92377e-05
5.93529e-05 0.00118682 -6.94966e-07
3.92377e-05 -6.94966e-07 0.0011808
0.00315815 3.68472e-05 5.39779e-05
3.68472e-05 0.0018304 -7.98243e-06
5.39779e-05 -7.98243e-06 0.00183868
0.00155181 0.000283211 -2.64924e-06
0.000283211 0.000920428 -7.34674e-06
-2.64924e-06 -7.34674e-06 0.00056811
0.000698257 0.000136168 5.54851e-06
0.000136168 0.000277134 -5.77765e-06
5.54851e-06 -5.77765e-06 6.17762e-05
0.000628017 0.000109877 -6.85791e-07
0.000109877 0.00032387 2.54452e-06
-6.85791e-07 2.54452e-06 -4.40927e-06
0.000351108 5.38494e-05 -1.04087e-06
5.38494e-05 -2.73772e-05 -1.21748e-05
-1.04087e-06 -1.21748e-05 -8.16107e-05
8.33072e-05 8.22127e-05 -3.20103e-06
8.22127e-05 -0.00015278 -3.92422e-06
-3.20103e-06 -3.92422e-06 -0.000322148
0.000609489 0.00010221 -1.43706e-06
0.00010221 0.000285565 -3.27501e-06
-1.43706e-06 -3.27501e-06 3.50589e-06
0.00294451 -2.87309e-05 -3.57743e-05
-2.87309e-05 0.00169738 -8.24003e-06
-3.57743e-05 -8.24003e-06 0.0017046
0.000306895 7.16643e-06 5.25822e-07
7.16643e-06 -6.17574e-05 -4.09009e-07
5.25822e-07 -4.09009e-07 -0.00010463
0.000176037 2.10074e-05 -4.22005e-06
2.10074e-05 -9.54546e-05 3.00661e-06
-4.22005e-06 3.00661e-06 -0.000237248
0.00276576 -1.30831e-05 -8.47717e-06
-1.30831e-05 0.00157688 2.00337e-07
-8.47717e-06 2.00337e-07 0.0015858
0.000324569 1.02834e-05 -6.56102e-06
1.02834e-05 -5.17279e-05 6.99202e-06
-6.56102e-06 6.99202e-06 -8.69779e-05
0.00255754 2.87269e-06 1.86839e-05
2.87269e-06 0.00143652 6.99745e-06
1.86839e-05 6.99745e-06 0.0014468
0.00606329 -6.35192e-05 -0.000518823
-6.35192e-05 0.00440296 -4.75316e-05
-0.000518823 -4.75316e-05 -0.000501459
-0.00232899 0.00045237 0.000398714
0.00045237 0.0081471 1.1067e-05
0.000398714 1.1067e-05 0.0027799
0.000425819 -0.000913485 -0.000166727
-0.000913485 0.00128276 -0.00030592
-0.000166727 -0.00030592 -0.00465822
-0.00114987 -3.58e-05 1.06964e-05
-3.58e-05 -0.000652595 -1.06537e-05
1.06964e-05 -1.06537e-05 -0.00122138
0.00580799 0.000755287 2.70998e-05
0.000755287 0.00355921 2.60992e-06
2.70998e-05 2.60992e-06 0.00314916
-2.51745e-05 0.000187015 -8.03518e-06
0.000187015 -7.6565e-05 -3.47611e-06
-8.03518e-06 -3.47611e-06 -0.000402497
-0.000347358 0.000127156 3.59738e-06
0.000127156 -0.000281579 -3.68256e-06
3.59738e-06 -3.68256e-06 -0.000654999
-0.000867575 7.94956e-05 -3.19892e-07
7.94956e-05 -0.000752027 -9.16078e-06
-3.19892e-07 -9.16078e-06 -0.000948681
0.00234619 0.000328307 2.24363e-05
0.000328307 0.00140049 -4.75907e-06
2.24363e-05 -4.75907e-06 0.00112355
-0.000352344 8.8724e-05 2.43431e-05
8.8724e-05 -0.000371305 -2.97456e-05
2.43431e-05 -2.97456e-05 -0.000488045
0.00843331 0.00228381 3.90017e-05
0.00228381 0.00158497 0.000186949
3.90017e-05 0.000186949 -0.00290941
0.0109061 -0.000504963 -0.000273155
-0.000504963 0.00163413 1.22395e-05
-0.000273155 1.22395e-05 -0.00351598
0.010202 -0.00191492 0.000764553
-0.00191492 0.00749894 -0.000113035
0.000764553 -0.000113035 0.00232159
0.0131552 0.000244262 -9.0742e-05
0.000244262 -0.00170792 0.000281171
-9.0742e-05 0.000281171 -0.00363592
0.007086 -0.00915085 -9.54184e-05
-0.00915085 0.000348714 1.84922e-05
-9.54184e-05 1.84922e-05 0.000952773
0.0001636 -0.00974719 -0.000662043
-0.00974719 0.00375034 0.000251798
-0.000662043 0.000251798 -0.00506006
0.0306186 0.00403835 0.000396562
0.00403835 0.012778 -0.000541875
0.000396562 -0.000541875 0.00308793
0.00572176 -0.00909592 -0.000177483
-0.00909592 0.00310997 0.000126928
-0.000177483 0.000126928 0.000845769
-0.00219408 -0.00274683 -0.000265556
-0.00274683 0.00632801 9.97081e-05
-0.000265556 9.97081e-05 -0.00366276
0.0160818 -0.000308808 0.000661896
-0.000308808 0.00652566 -3.96738e-05
0.000661896 -3.96738e-05 -0.00101412
0.0219576 -0.00203559 -4.30186e-07
-0.00203559 0.0048737 1.46625e-05
-4.30186e-07 1.46625e-05 0.00161585
-0.00566149 -0.00116795 -0.000303381
-0.00116795 0.000924893 0.000306995
-0.000303381 0.000306995 -0.000654879
0.00217551 -0.000272545 -0.000226605
-0.000272545 0.00739581 -0.000243802
-0.000226605 -0.000243802 -0.00215662
0.0188029 -0.00574056 -0.000238114
-0.00574056 0.00781566 -0.000219951
-0.000238114 -0.000219951 -0.00405554
0.0300302 -0.0012344 0.00131533
-0.0012344 0.0153842 -0.000878471
0.00131533 -0.000878471 0.00700798
-0.000709261 0.000164847 4.90614e-05
0.000164847 0.000261184 -2.40853e-05
4.90614e-05 -2.40853e-05 -0.000572021
-0.000325136 0.000152321 -1.48303e-06
0.000152321 -0.000176611 -7.85406e-06
-1.48303e-06 -7.85406e-06 -0.00041162
-2.70583e-05 -2.19559e-05 -1.79603e-07
-2.19559e-05 -1.24738e-05 -2.66303e-05
-1.79603e-07 -2.66303e-05 -0.000280419
5.4216e-05 0.000145146 -8.97214e-06
0.000145146 -9.14827e-05 -9.2374e-06
-8.97214e-06 -9.2374e-06 -0.000357734
0.000978141 -0.00316666 6.81096e-05
-0.00316666 0.00156622 1.9203e-05
6.81096e-05 1.9203e-05 -8.55875e-05
0.000839829 -0.00083983 -1.91306e-05
-0.00083983 0.00180704 1.11298e-05
-1.91306e-05 1.11298e-05 0.000616492
0.00021839 4.90028e-05 -4.53717e-05
4.90028e-05 0.000369612 -2.35408e-05
-4.53717e-05 -2.35408e-05 -1.15752e-05
0.000639579 -0.000135645 -2.61161e-05
-0.000135645 0.000868323 -4.58372e-05
-2.61161e-05 -4.58372e-05 0.000235552
0.000809915 2.54484e-05 1.34407e-06
2.54484e-05 0.00141256 3.14746e-05
1.34407e-06 3.14746e-05 0.000653227
0.000669787 0.000246133 -8.21674e-07
0.000246133 0.00088493 8.62344e-06
-8.21674e-07 8.62344e-06 0.00023586
-7.76869e-05 -6.55002e-05 -6.76467e-06
-6.55002e-05 0.000833344 -4.02867e-06
-6.76467e-06 -4.02867e-06 3.50794e-05
-0.000712773 -0.0016067 3.05815e-05
-0.0016067 0.00202303 -1.52448e-05
3.05815e-05 -1.52448e-05 -0.000280923
-0.000170997 -0.000194311 -2.42437e-05
-0.000194311 0.00170158 -2.30308e-05
-2.42437e-05 -2.30308e-05 0.000617829
0.000474904 0.00019762 3.93267e-05
0.00019762 0.000699724 -2.191e-05
3.93267e-05 -2.191e-05 0.000131231
-0.00208034 -0.000320676 -0.000261533
-0.000320676 0.00255223 -1.35579e-05
-0.000261533 -1.35579e-05 -0.000545489
0.00118533 0.00056941 9.13883e-05
0.00056941 0.00191705 5.48e-06
9.13883e-05 5.48e-06 0.00101022
-0.00584746 -0.000913411 5.8944e-05
-0.000913411 0.00764218 -0.000191895
5.8944e-05 -0.000191895 0.00261841
0.0037526 -0.000128269 7.11923e-05
-0.000128269 0.00337402 5.57241e-05
7.11923e-05 5.57241e-05 -0.0030312
-0.00533009 0.00396586 -0.000250387
0.00396586 0.00737206 -0.000114487
-0.000250387 -0.000114487 0.000990427
0.00131578 0.000900684 -1.46634e-05
0.000900684 0.00192126 -6.61577e-06
-1.46634e-05 -6.61577e-06 0.000919821
-0.00136957 0.00202026 0.000383338
0.00202026 0.00241396 0.0001257
0.000383338 0.0001257 0.000173937
0.0009052 -0.000408357 4.65546e-05
-0.000408357 0.0058511 9.53546e-06
4.65546e-05 9.53546e-06 0.0013269
0.00615653 -0.00140425 0.000564623
-0.00140425 0.00703238 -0.000262397
0.000564623 -0.000262397 -0.00420757
0.0328755 0.00367025 -0.000588369
0.00367025 0.0136783 0.000522453
-0.000588369 0.000522453 0.00260317
0.00572343 -0.00149615 -0.00076079
-0.00149615 0.00582072 -6.06999e-05
-0.00076079 -6.06999e-05 0.00143983
0.0249384 0.00782508 -0.00114234
0.00782508 0.0196476 -0.0005203
-0.00114234 -0.0005203 0.0100874
0.000776029 0.000319624 -8.17822e-05
0.000319624 0.002527 1.59449e-05
-8.17822e-05 1.59449e-05 0.000362317
-0.00245253 -0.002004 -0.000315616
-0.002004 0.007669 1.94975e-05
-0.000315616 1.94975e-05 0.0034748
0.00146056 -0.00324309 0.000178236
-0.00324309 0.00349103 -6.18121e-05
0.000178236 -6.18121e-05 -0.00334465
-0.00428665 0.000143643 9.68284e-05
0.000143643 0.00235892 6.11038e-05
9.68284e-05 6.11038e-05 0.000440476
0.0522802 0.0293072 0.00066997
0.0293072 0.0382104 -0.000201316
0.00066997 -0.000201316 0.0119106
0.0205138 0.00412871 -1.78948e-05
0.00412871 0.0162759 0.000680451
-1.78948e-05 0.000680451 0.0026249
0.000565164 -0.00252307 0.000557354
-0.00252307 0.00649593 -0.000328873
0.000557354 -0.000328873 -0.00440272
-0.00206645 -0.00132828 -2.93194e-05
-0.00132828 0.00172387 -5.82166e-05
-2.93194e-05 -5.82166e-05 -0.000669904
0.00203269 -0.00194441 0.000442711
-0.00194441 0.000713198 -0.000123016
0.000442711 -0.000123016 -0.00597101
0.0117661 0.0110863 -0.00364515
0.0110863 0.0212461 -0.000333617
-0.00364515 -0.000333617 0.00390959
0.0336904 0.0133957 6.79572e-05
0.0133957 0.0201006 0.000667984
6.79572e-05 0.000667984 0.00407071
0.00480077 -0.00849931 -0.000454779
-0.00849931 0.00512294 0.00024127
-0.000454779 0.00024127 -0.000314865
0.00254276 -0.00460175 3.35038e-05
-0.00460175 0.00594734 0.000113164
3.35038e-05 0.000113164 0.00211226
-0.000255015 -0.000213647 1.04131e-05
-0.000213647 0.000839661 -3.20044e-05
1.04131e-05 -3.20044e-05 -0.000252871
0.000701641 -0.000912806 -9.44553e-06
-0.000912806 0.00136478 3.04541e-06
-9.44553e-06 3.04541e-06 4.5053e-05
8.21447e-06 -0.00193277 2.80136e-05
-0.00193277 0.000650221 2.10097e-05
2.80136e-05 2.10097e-05 -0.000815656
-0.00163144 -0.00027876 4.38848e-07
-0.00027876 -0.000342752 -5.4102e-07
4.38848e-07 -5.4102e-07 -0.000674095
-0.00037332 -0.000901915 -1.80788e-05
-0.000901915 0.000189749 5.34894e-06
-1.80788e-05 5.34894e-06 -0.000655499
0.00287981 -0.00156869 3.66994e-05
-0.00156869 0.00137779 -9.67703e-06
3.66994e-05 -9.67703e-06 0.0003693
0.00554215 -0.00193702 -1.13459e-05
-0.00193702 0.00268915 -1.51935e-06
-1.13459e-05 -1.51935e-06 0.00188558
0.00240469 -0.00145973 9.95486e-06
-0.00145973 0.00115734 -3.60613e-06
9.95486e-06 -3.60613e-06 -7.72625e-05
0.00333377 -0.00202086 -4.68025e-06
-0.00202086 0.00122782 -1.79242e-05
-4.68025e-06 -1.79242e-05 -3.83622e-05
0.00191906 -0.00124936 -1.21867e-06
-0.00124936 0.000750515 -1.48534e-05
-1.21867e-06 -1.48534e-05 -0.000194246
0.00265074 -0.00168447 7.96961e-07
-0.00168447 0.000959623 -3.03203e-06
7.96961e-07 -3.03203e-06 -0.000170782
0.00415506 -0.0020393 -5.49714e-06
-0.0020393 0.00153372 -1.19416e-05
-5.49714e-06 -1.19416e-05 0.000429697
0.00283799 -0.00125507 -3.27742e-06
-0.00125507 0.00045388 -5.48475e-06
-3.27742e-06 -5.48475e-06 -0.000135454
0.00380025 -0.00177417 -7.22835e-06
-0.00177417 0.00130701 -3.39428e-06
-7.22835e-06 -3.39428e-06 0.000390958
0.00352666 -0.00184277 -3.6531e-06
-0.00184277 0.00118629 -1.05605e-06
-3.6531e-06 -1.05605e-06 0.000193389
0.00340597 -0.00182584 1.07466e-05
-0.00182584 0.00141343 -9.00627e-06
1.07466e-05 -9.00627e-06 0.00038769
0.00244255 -0.00166605 3.37952e-06
-0.00166605 0.000818419 -1.87557e-06
3.37952e-06 -1.87557e-06 -0.000162511
0.00329993 -0.00167592 1.33281e-05
-0.00167592 0.00136838 -1.97772e-06
1.33281e-05 -1.97772e-06 0.000358561
0.00282133 -0.00139636 -1.04337e-05
-0.00139636 0.00134027 2.01961e-06
-1.04337e-05 2.01961e-06 0.000421793
0.00301525 -0.00156406 1.97517e-06
-0.00156406 0.00137222 -2.10502e-06
1.97517e-06 -2.10502e-06 0.000419387
0.00247246 -0.00155293 -1.46288e-06
-0.00155293 0.000907305 5.11807e-06
-1.46288e-06 5.11807e-06 -2.63538e-05
0.00251789 -0.000297578 1.11248e-05
-0.000297578 0.0012101 1.69275e-06
1.11248e-05 1.69275e-06 0.000821871
0.00175911 -0.000624583 -9.79242e-06
-0.000624583 0.000708113 5.27091e-06
-9.79242e-06 5.27091e-06 0.00018207
0.000707758 -0.000950119 -7.21329e-06
-0.000950119 4.39571e-05 2.47802e-06
-7.21329e-06 2.47802e-06 -0.000697417
0.00162176 -0.000359057 1.05963e-05
-0.000359057 0.000703021 -9.7689e-06
1.05963e-05 -9.7689e-06 0.000334496
0.000946761 -0.000336065 -4.7418e-06
-0.000336065 0.000388924 1.48284e-06
-4.7418e-06 1.48284e-06 -3.4127e-05
-0.00121933 -0.000207277 5.09005e-06
-0.000207277 -0.00112742 8.5528e-06
5.09005e-06 8.5528e-06 -0.00154517
1.4416e-05 -0.000166689 -2.01519e-05
-0.000166689 -0.000300085 2.9513e-05
-2.01519e-05 2.9513e-05 -0.00043253
0.00125299 -0.000339122 3.02007e-06
-0.000339122 0.000601578 2.64318e-06
3.02007e-06 2.64318e-06 0.000211353
0.00182643 -0.000601444 -5.08572e-06
-0.000601444 0.00108108 -2.9435e-06
-5.08572e-06 -2.9435e-06 0.000580178
0.00137004 -0.000201241 -6.55715e-06
-0.000201241 0.000664932 -1.68631e-05
-6.55715e-06 -1.68631e-05 0.000360828
0.000283558 -9.1091e-05 -1.25932e-06
-9.1091e-05 -9.30828e-05 -1.09988e-06
-1.25932e-06 -1.09988e-06 -0.000198688
0.00455798 0.000126005 -8.01874e-05
0.000126005 0.0027956 9.88294e-06
-8.01874e-05 9.88294e-06 0.00278365
0.000423525 -9.10361e-05 7.07073e-06
-9.10361e-05 3.60757e-06 -1.87406e-05
7.07073e-06 -1.87406e-05 -7.38393e-05
0.00384781 0.000108024 1.34144e-05
0.000108024 0.00231398 1.3457e-06
1.34144e-05 1.3457e-06 0.00230827
0.00325114 5.99326e-05 6.12381e-05
5.99326e-05 0.00189498 -8.65647e-06
6.12381e-05 -8.65647e-06 0.00190128
0.00392269 0.00049654 1.65538e-05
0.00049654 0.00263087 -1.16385e-05
1.65538e-05 -1.16385e-05 0.00199258
0.00287269 0.000344328 1.16597e-05
0.000344328 0.00194176 -4.19386e-05
1.16597e-05 -4.19386e-05 0.00140158
0.000873074 0.00018079 4.20378e-06
0.00018079 0.000387976 -1.05871e-05
4.20378e-06 -1.05871e-05 0.000146964
0.000774397 0.000263161 2.31648e-06
0.000263161 0.000447042 1.59967e-06
2.31648e-06 1.59967e-06 6.69157e-05
0.000420829 -2.98931e-05 7.7476e-06
-2.98931e-05 2.60576e-05 -1.43791e-05
7.7476e-06 -1.43791e-05 -3.92766e-05
0.000708444 0.000157082 -6.40056e-07
0.000157082 0.000281903 -6.58383e-07
-6.40056e-07 -6.58383e-07 7.03895e-05
0.000771665 0.000163059 -5.62818e-06
0.000163059 0.000411563 -1.56348e-05
-5.62818e-06 -1.56348e-05 7.75275e-05
0.00336253 -4.51345e-05 -5.35526e-05
-4.51345e-05 0.00198319 -9.73678e-06
-5.35526e-05 -9.73678e-06 0.00198802
0.000408082 7.67555e-06 -3.52861e-06
7.67555e-06 1.13412e-05 -4.39783e-07
-3.52861e-06 -4.39783e-07 -4.14698e-05
0.000787386 0.000131891 -7.66575e-06
0.000131891 0.000328771 5.6452e-06
-7.66575e-06 5.6452e-06 0.000155637
0.00299682 -3.34549e-05 -7.99924e-06
-3.34549e-05 0.00173354 6.04281e-07
-7.99924e-06 6.04281e-07 0.00173974
0.00036306 -6.70178e-06 -7.76365e-06
-6.70178e-06 -2.72801e-05 8.53241e-06
-7.76365e-06 8.53241e-06 -6.81916e-05
0.00270842 -1.50214e-05 2.38903e-05
-1.50214e-05 0.00153805 7.216e-06
2.38903e-05 7.216e-06 0.0015469
0.000315485 0.00210043 -0.000184935
0.00210043 0.00645551 -0.000225641
-0.000184935 -0.000225641 -0.000322028
0.00906703 -0.00103434 -0.00010568
-0.00103434 0.00637419 -0.000127331
-0.00010568 -0.000127331 0.00148242
-0.000352923 -0.000791648 0.000272082
-0.000791648 0.00842152 -0.000120037
0.000272082 -0.000120037 0.0033891
0.000273702 0.000191416 -1.45188e-08
0.000191416 0.000370657 -1.14359e-05
-1.45188e-08 -1.14359e-05 -0.000312447
-0.000785024 0.000497514 -1.69051e-05
0.000497514 -0.000515447 -1.65828e-05
-1.69051e-05 -1.65828e-05 -0.000944433
0.00175634 0.000562405 5.20875e-06
0.000562405 0.00079936 -3.06868e-05
5.20875e-06 -3.06868e-05 0.000425773
-0.00181342 9.82199e-05 9.35447e-06
9.82199e-05 -0.000841212 1.70584e-05
9.35447e-06 1.70584e-05 -0.00155196
0.00115156 0.000686377 2.58995e-06
0.000686377 0.000496246 -2.00853e-05
2.58995e-06 -2.00853e-05 3.6853e-05
-0.000219845 0.000121153 -1.1259e-05
0.000121153 -0.000192728 -1.12119e-06
-1.1259e-05 -1.12119e-06 -0.000584493
-2.00953e-05 0.00015076 -2.36192e-05
0.00015076 -0.000155764 1.18234e-05
-2.36192e-05 1.18234e-05 -0.000355815
0.00116668 5.67281e-05 1.36835e-05
5.67281e-05 0.000652492 2.80649e-06
1.36835e-05 2.80649e-06 0.000367065
0.00118074 0.000241187 -1.32532e-05
0.000241187 0.000635489 -1.30096e-05
-1.32532e-05 -1.30096e-05 0.000525536
0.00238574 0.000269153 -2.81807e-06
0.000269153 0.00168613 -5.79011e-05
-2.81807e-06 -5.79011e-05 0.00120381
0.0152328 0.00768776 0.00151043
0.00768776 0.00868372 0.000699937
0.00151043 0.000699937 0.00295876
0.00744497 0.00189641 4.319e-05
0.00189641 0.00387031 5.11546e-05
4.319e-05 5.11546e-05 -0.00127279
0.0120157 -0.000677703 0.000376741
-0.000677703 0.00158053 6.31468e-06
0.000376741 6.31468e-06 -0.00228106
0.0185525 -4.10616e-05 -0.000156921
-4.10616e-05 0.00397041 -0.000110903
-0.000156921 -0.000110903 0.00366565
0.0123592 0.000256959 0.000184409
0.000256959 0.00220331 0.000455763
0.000184409 0.000455763 -0.00577874
0.00459196 -0.00883583 -0.000229488
-0.00883583 0.00318719 0.000143917
-0.000229488 0.000143917 0.000685533
0.00283761 -0.00218892 -0.000825017
-0.00218892 0.00794511 0.000201448
-0.000825017 0.000201448 0.000985587
-0.00184812 -0.00297306 -0.000188214
-0.00297306 0.00264073 0.000215956
-0.000188214 0.000215956 -4.29953e-05
0.0117899 -0.000841864 -0.000571881
-0.000841864 0.0101871 -6.19117e-05
-0.000571881 -6.19117e-05 0.000214963
0.0107644 -0.0049532 9.20768e-05
-0.0049532 0.00815091 0.000308632
9.20768e-05 0.000308632 -0.0017899
0.0381554 -0.00761507 0.000676252
-0.00761507 0.0167609 -0.00127185
0.000676252 -0.00127185 0.00346914
-0.000159695 0.000909061 -0.000374829
0.000909061 0.00456682 0.000106314
-0.000374829 0.000106314 0.0010766
0.0021722 0.00191034 -0.000501919
0.00191034 0.00755762 -0.000189672
-0.000501919 -0.000189672 -0.000250311
0.0377124 -0.013987 0.00216728
-0.013987 0.0247883 -0.00160352
0.00216728 -0.00160352 0.00715793
0.0427187 -0.0241537 0.000284901
-0.0241537 0.0326625 -1.20879e-06
0.000284901 -1.20879e-06 0.0107166
0.00129747 0.000895761 6.1164e-05
0.000895761 0.00127844 5.24118e-06
6.1164e-05 5.24118e-06 0.000308616
-0.00025467 0.000168978 2.25465e-05
0.000168978 0.000549853 1.60211e-06
2.25465e-05 1.60211e-06 -0.00029934
0.00126006 0.0001957 -4.72123e-05
0.0001957 0.000868272 -1.56526e-05
-4.72123e-05 -1.56526e-05 0.000604476
0.000391521 -0.0022131 0.000103556
-0.0022131 0.00245643 8.97053e-06
0.000103556 8.97053e-06 -0.000446458
-0.00201896 -0.000205292 0.000150536
-0.000205292 0.000837452 3.68795e-05
0.000150536 3.68795e-05 -0.000424146
0.000628647 0.00022098 -5.67757e-05
0.00022098 0.000831132 8.09744e-06
-5.67757e-05 8.09744e-06 0.000229881
-0.000909426 8.94284e-05 -7.8167e-05
8.94284e-05 0.000628549 4.34379e-07
-7.8167e-05 4.34379e-07 -0.000271882
0.000582999 0.000394535 -1.22474e-05
0.000394535 0.000851703 4.11665e-06
-1.22474e-05 4.11665e-06 0.000231343
0.00035158 0.000747889 1.10162e-05
0.000747889 0.0013012 -6.91573e-07
1.10162e-05 -6.91573e-07 0.000371906
-0.00325844 -2.8139e-05 0.000272334
-2.8139e-05 0.00214889 -0.000123282
0.000272334 -0.000123282 -0.000563363
0.00209287 0.00127057 5.5e-05
0.00127057 0.00137483 7.7968e-05
5.5e-05 7.7968e-05 0.000658671
0.000116307 0.00161153 -6.74003e-05
0.00161153 0.0022051 -0.000131327
-6.74003e-05 -0.000131327 -0.000464291
-0.000532914 -0.00212903 0.000411096
-0.00212903 0.000399787 0.000154353
0.000411096 0.000154353 -0.00392305
-0.00471402 0.00165406 -0.000375088
0.00165406 0.0077094 -4.23996e-05
-0.000375088 -4.23996e-05 0.00121557
0.00825637 -0.00117178 -0.000316591
-0.00117178 0.00707513 7.60949e-06
-0.000316591 7.60949e-06 0.00323568
-0.000771013 0.00121352 0.000121026
0.00121352 0.0013949 2.89026e-06
0.000121026 2.89026e-06 -0.000918473
-0.000878292 0.000637835 1.16606e-05
0.000637835 0.003776 0.000132439
1.16606e-05 0.000132439 0.000444872
-0.00243142 0.000117202 -0.000217046
0.000117202 0.0062892 -0.000149702
-0.000217046 -0.000149702 0.0014626
0.0134573 -0.00859154 0.000766001
-0.00859154 0.0116988 -0.000424092
0.000766001 -0.000424092 0.000279662
0.03492 0.0127087 -0.00138764
0.0127087 0.0233909 -0.000502079
-0.00138764 -0.000502079 0.00642348
0.00993149 -0.00444708 -0.000567367
-0.00444708 0.00477549 0.000369095
-0.000567367 0.000369095 -0.000762272
0.0450518 0.0340834 0.00144037
0.0340834 0.0340852 -0.00194838
0.00144037 -0.00194838 0.00802687
-0.00166339 -0.00109931 1.69868e-05
-0.00109931 0.001682 3.37996e-06
1.69868e-05 3.37996e-06 -0.000803105
0.00128013 -0.00148625 0.000198196
-0.00148625 0.0014895 -1.90905e-06
0.000198196 -1.90905e-06 -0.00492267
0.0187683 0.0119012 -0.00172585
0.0119012 0.0211874 -0.000160901
-0.00172585 -0.000160901 0.00340041
-0.000146305 -0.00314861 4.08613e-05
-0.00314861 0.00346587 5.18004e-05
4.08613e-05 5.18004e-05 0.000614541
0.0367444 0.0131857 0.000816582
0.0131857 0.0215957 0.000569096
0.000816582 0.000569096 0.00506754
0.00363106 -0.0122111 0.000730703
-0.0122111 0.00436561 -0.000262605
0.000730703 -0.000262605 -0.00252843
-0.00038437 -0.00337529 2.51568e-05
-0.00337529 0.00173478 4.83924e-05
2.51568e-05 4.83924e-05 -0.000818643
0.00636454 0.000951042 0.00016549
0.000951042 0.0158595 -0.000229595
0.00016549 -0.000229595 0.00618776
0.0265288 0.0140606 -0.00271634
0.0140606 0.0149958 -0.000345252
-0.00271634 -0.000345252 0.00136727
-0.00056547 -0.01235 -0.00155525
-0.01235 -0.00670205 0.000375154
-0.00155525 0.000375154 -0.00480846
0.00020034 -0.00531893 0.000287302
-0.00531893 0.000709774 -0.000249854
0.000287302 -0.000249854 0.000669304
0.000351224 -0.000699184 -9.36905e-05
-0.000699184 0.00114972 2.27084e-05
-9.36905e-05 2.27084e-05 -0.00018231
-6.52256e-05 -0.00152152 -3.22108e-05
-0.00152152 0.000737348 2.25482e-05
-3.22108e-05 2.25482e-05 -0.000611479
-0.00034076 -0.00155321 -1.22777e-05
-0.00155321 -0.000289961 -9.11325e-06
-1.22777e-05 -9.11325e-06 -0.00122927
-0.00354013 -0.000264579 2.98527e-05
-0.000264579 -0.00140499 -5.57047e-06
2.98527e-05 -5.57047e-06 -0.00204218
0.000940122 -0.00130848 1.10304e-05
-0.00130848 0.0003361 -8.80939e-06
1.10304e-05 -8.80939e-06 -0.000554508
0.00484786 -0.00227907 -5.37727e-06
-0.00227907 0.00174194 -1.49444e-06
-5.37727e-06 -1.49444e-06 0.000860354
0.00497462 -0.00194957 -2.8139e-05
-0.00194957 0.0024704 -4.60765e-06
-2.8139e-05 -4.60765e-06 0.00120029
0.0026224 -0.00182259 -1.85315e-06
-0.00182259 0.000848513 -5.9576e-07
-1.85315e-06 -5.9576e-07 -0.000341088
0.00377083 -0.00208915 -1.25122e-06
-0.00208915 0.00106175 -1.10873e-05
-1.25122e-06 -1.10873e-05 0.000118556
0.00290055 -0.00171509 1.66949e-05
-0.00171509 0.00111784 3.05774e-06
1.66949e-05 3.05774e-06 -3.25026e-05
0.00358431 -0.00192582 4.64219e-06
-0.00192582 0.00122183 -4.66354e-06
4.64219e-06 -4.66354e-06 0.000164287
0.00345802 -0.00144712 -2.31282e-06
-0.00144712 0.000748345 -7.1825e-06
-2.31282e-06 -7.1825e-06 0.0001702
0.00250539 -0.000837437 -3.62281e-06
-0.000837437 5.34609e-05 -1.91253e-06
-3.62281e-06 -1.91253e-06 -0.000131828
0.00253758 -0.00118232 -9.00323e-07
-0.00118232 0.000225333 -2.24095e-06
-9.00323e-07 -2.24095e-06 -0.000341038
0.00284027 -0.00125754 4.8102e-06
-0.00125754 0.000434211 -1.42649e-06
4.8102e-06 -1.42649e-06 -0.000148092
0.00374291 -0.00159437 -4.46706e-06
-0.00159437 0.00130983 -4.48123e-06
-4.46706e-06 -4.48123e-06 0.00049416
0.00377398 -0.00179059 -4.74347e-06
-0.00179059 0.00129383 -7.90532e-07
-4.74347e-06 -7.90532e-07 0.000362355
0.00375027 -0.00188953 6.34222e-06
-0.00188953 0.00129966 -3.31722e-06
6.34222e-06 -3.31722e-06 0.000289094
0.00289614 -0.00160305 -1.34933e-05
-0.00160305 0.00112174 -1.38952e-05
-1.34933e-05 -1.38952e-05 0.000174592
0.00260745 -0.00168612 2.3271e-06
-0.00168612 0.00093417 -1.25176e-06
2.3271e-06 -1.25176e-06 -4.45731e-05
0.00202771 -0.00154958 1.32216e-06
-0.00154958 0.000589158 2.52631e-06
1.32216e-06 2.52631e-06 -0.000338845
0.00404976 -0.000984072 1.89552e-05
-0.000984072 0.00217011 9.18717e-06
1.89552e-05 9.18717e-06 0.00149721
0.00136548 -0.00120677 5.35408e-06
-0.00120677 0.000469481 5.4001e-06
5.35408e-06 5.4001e-06 -0.000411695
0.00255626 -0.00149306 -2.94621e-06
-0.00149306 0.00107931 1.07409e-05
-2.94621e-06 1.07409e-05 0.000152542
0.00135185 -0.000470286 4.0137e-06
-0.000470286 0.000476736 -1.99546e-05
4.0137e-06 -1.99546e-05 0.000130237
0.000757063 -0.000483218 -2.30656e-06
-0.000483218 0.000194792 -6.60219e-06
-2.30656e-06 -6.60219e-06 -0.000278061
-0.00149053 -0.000398261 1.10586e-05
-0.000398261 -0.0011942 -5.68023e-06
1.10586e-05 -5.68023e-06 -0.0017172
0.0034453 -0.000177809 -0.000124715
-0.000177809 0.00192707 2.38353e-05
-0.000124715 2.38353e-05 0.00179251
0.000348224 -0.000410409 -1.93665e-06
-0.000410409 -5.22243e-05 6.24462e-07
-1.93665e-06 6.24462e-07 -0.000468608
0.000305383 -0.000554438 -2.48193e-06
-0.000554438 -3.03749e-05 -1.3748e-06
-2.48193e-06 -1.3748e-06 -0.000478827
0.00129205 -4.72373e-05 -0.000131865
-4.72373e-05 0.000586295 1.54597e-05
-0.000131865 1.54597e-05 0.000561716
0.00180166 -0.000159164 -3.61261e-05
-0.000159164 0.00087915 -2.65359e-07
-3.61261e-05 -2.65359e-07 0.000746647
0.00129757 -0.00038835 -6.20476e-06
-0.00038835 0.000596038 -3.16456e-06
-6.20476e-06 -3.16456e-06 0.000220775
0.000734308 -0.000122044 1.32465e-05
-0.000122044 0.00019378 -2.17325e-05
1.32465e-05 -2.17325e-05 8.23845e-05
0.00493159 0.000125049 1.18388e-05
0.000125049 0.0030452 3.42742e-07
1.18388e-05 3.42742e-07 0.00303437
0.00423153 8.87426e-05 8.99e-05
8.87426e-05 0.00256457 -1.11749e-05
8.99e-05 -1.11749e-05 0.00256297
-0.0003025 0.000374778 2.46404e-05
0.000374778 -0.000376827 9.89721e-06
2.46404e-05 9.89721e-06 -0.000832753
0.00209749 0.000623238 1.69836e-06
0.000623238 0.00140525 -2.97087e-05
1.69836e-06 -2.97087e-05 0.000839927
-0.000417394 0.000226404 6.3925e-06
0.000226404 -0.000191255 -1.33479e-06
6.3925e-06 -1.33479e-06 -0.000771631
0.000748933 0.000208519 -4.00552e-06
0.000208519 0.000313576 -1.66638e-05
-4.00552e-06 -1.66638e-05 3.15556e-05
0.000282812 0.000268286 8.54396e-06
0.000268286 0.000174683 -1.40862e-07
8.54396e-06 -1.40862e-07 -0.000302981
0.000437547 5.64439e-05 -1.20986e-05
5.64439e-05 5.8082e-05 -1.76424e-05
-1.20986e-05 -1.76424e-05 -2.67755e-05
0.000550978 0.000134247 -8.9212e-07
0.000134247 0.000195005 1.56851e-06
-8.9212e-07 1.56851e-06 -6.3008e-05
0.000994826 0.000251492 -3.9136e-06
0.000251492 0.000622812 4.15668e-06
-3.9136e-06 4.15668e-06 0.000227043
0.0035973 -6.79032e-05 -6.27098e-05
-6.79032e-05 0.00214651 -1.08504e-05
-6.27098e-05 -1.08504e-05 0.00214814
0.000272042 3.23209e-05 -3.23956e-06
3.23209e-05 -6.89521e-05 8.78007e-08
-3.23956e-06 8.78007e-08 -0.000133008
0.000151629 0.000141366 -4.42e-06
0.000141366 -9.88521e-05 7.97643e-06
-4.42e-06 7.97643e-06 -0.000294263
0.00318604 -5.5227e-05 -1.18653e-05
-5.5227e-05 0.00186511 7.33167e-07
-1.18653e-05 7.33167e-07 0.00186803
0.000179014 -1.57296e-05 -9.51867e-06
-1.57296e-05 -0.000141328 1.06955e-05
-9.51867e-06 1.06955e-05 -0.000191718
0.00294012 -3.40419e-05 3.18344e-05
-3.40419e-05 0.00169598 8.01832e-06
3.18344e-05 8.01832e-06 0.00170229
0.00549273 0.00246748 0.000841045
0.00246748 0.00618846 0.000171912
0.000841045 0.000171912 0.000682991
-3.70003e-05 0.0022026 -7.37315e-05
0.0022026 0.00542721 6.76863e-06
-7.37315e-05 6.76863e-06 -0.00126867
0.00077912 0.00309911 2.18127e-05
0.00309911 0.00640703 -4.512e-05
2.18127e-05 -4.512e-05 0.000423991
0.000206635 0.000609754 -3.81677e-05
0.000609754 4.40355e-05 -3.67938e-06
-3.81677e-05 -3.67938e-06 -0.000639981
-0.000818999 0.000115903 -2.44954e-05
0.000115903 -0.000450752 4.48019e-05
-2.44954e-05 4.48019e-05 -0.00106038
-0.00178712 0.000126354 -2.329e-05
0.000126354 -0.00117133 -3.95032e-06
-2.329e-05 -3.95032e-06 -0.00152241
0.00180479 0.000215886 1.39053e-05
0.000215886 0.00122352 2.66762e-06
1.39053e-05 2.66762e-06 0.000731351
0.00126546 0.000533432 6.81017e-07
0.000533432 0.000380599 -2.49403e-06
6.81017e-07 -2.49403e-06 2.2476e-05
0.00151739 0.000737254 -3.28205e-05
0.000737254 0.000760242 -1.31252e-05
-3.28205e-05 -1.31252e-05 0.000394129
0.0023699 0.000743037 4.97153e-06
0.000743037 0.00112824 -4.35812e-05
4.97153e-06 -4.35812e-05 0.000607883
-0.00392421 0.000157303 -4.2489e-05
0.000157303 -0.00186594 6.47619e-06
-4.2489e-05 6.47619e-06 -0.00251428
-0.00117169 3.1891e-05 -1.20453e-05
3.1891e-05 -0.000751045 -4.76735e-06
-1.20453e-05 -4.76735e-06 -0.00110001
-0.00177573 4.96759e-05 -6.62441e-06
4.96759e-05 -0.00137646 3.21667e-05
-6.62441e-06 3.21667e-05 -0.00137815
-0.000566427 7.3966e-05 -1.79873e-05
7.3966e-05 -4.10042e-05 3.68344e-06
-1.79873e-05 3.68344e-06 -0.000561299
-7.70041e-05 0.000542152 9.22138e-06
0.000542152 0.000434991 1.43071e-05
9.22138e-06 1.43071e-05 -0.000518638
0.0234191 -0.0174182 -0.000314807
-0.0174182 0.0234946 0.000319326
-0.000314807 0.000319326 0.00174331
0.0131928 0.00731099 0.000331942
0.00731099 0.00544659 0.000205337
0.000331942 0.000205337 -0.00133534
0.00730809 0.00126272 0.000434102
0.00126272 0.00554584 -2.97203e-05
0.000434102 -2.97203e-05 -0.000176443
0.0492266 -0.0143109 -0.00203543
-0.0143109 0.0215293 -0.000490452
-0.00203543 -0.000490452 0.00544364
0.0126637 -0.000232187 0.000431984
-0.000232187 0.00843592 0.000679027
0.000431984 0.000679027 0.00101744
0.00190838 0.000372491 -0.000320577
0.000372491 0.00732375 0.000171922
-0.000320577 0.000171922 -0.0021601
-0.00115666 -0.0033382 -5.12233e-05
-0.0033382 0.00329157 0.00016767
-5.12233e-05 0.00016767 -0.00029608
-0.00173231 -0.00130242 0.000220829
-0.00130242 0.00341776 0.000114508
0.000220829 0.000114508 0.000778109
0.0481046 -0.0282037 0.000161823
-0.0282037 0.0345549 0.000558619
0.000161823 0.000558619 0.0104205
0.00380405 0.00347121 -0.000244527
0.00347121 0.00791895 -0.000154565
-0.000244527 -0.000154565 -0.00181936
0.0197544 -0.00785018 -1.58262e-05
-0.00785018 0.0174474 0.00021396
-1.58262e-05 0.00021396 0.00125625
-0.000493485 0.0022944 1.4791e-05
0.0022944 0.00302575 -4.85686e-05
1.4791e-05 -4.85686e-05 0.000372784
0.00336204 0.00894364 -0.000386405
0.00894364 0.0040057 4.42728e-05
-0.000386405 4.42728e-05 -0.00115832
0.0328227 -0.0121359 -0.00100556
-0.0121359 0.0194819 6.90374e-05
-0.00100556 6.90374e-05 0.00374539
0.00254005 0.00147459 -6.10324e-06
0.00147459 0.00125795 5.76224e-05
-6.10324e-06 5.76224e-05 0.000715949
2.43056e-05 0.000621834 2.73877e-06
0.000621834 0.000543315 1.62248e-06
2.73877e-06 1.62248e-06 -0.000389284
-0.000251292 0.000105673 -8.44267e-05
0.000105673 0.000540796 2.29319e-05
-8.44267e-05 2.29319e-05 -0.00030475
-0.00233775 -0.000446127 -0.000222973
-0.000446127 0.00266535 -4.93069e-05
-0.000222973 -4.93069e-05 0.000186431
-0.000645772 0.000717474 -9.53594e-05
0.000717474 0.000487767 -1.20945e-05
-9.53594e-05 -1.20945e-05 -0.000364223
-0.000329126 0.000360601 -2.25169e-05
0.000360601 0.000338338 5.08857e-06
-2.25169e-05 5.08857e-06 -0.000337434
0.00114713 0.00112998 -2.98928e-06
0.00112998 0.000786411 1.49279e-06
-2.98928e-06 1.49279e-06 8.33954e-05
-0.000540022 0.00175689 -0.000146914
0.00175689 0.00175341 -0.000114521
-0.000146914 -0.000114521 -0.000712265
0.00320483 0.00388797 0.000121019
0.00388797 0.00184222 6.15588e-05
0.000121019 6.15588e-05 -0.000138539
-0.00678847 0.0027648 0.000876214
0.0027648 0.00655879 -5.39068e-05
0.000876214 -5.39068e-05 -0.00255119
0.00020061 -0.00193062 -0.000108059
-0.00193062 0.00210935 7.72622e-05
-0.000108059 7.72622e-05 -0.00154542
-0.00160395 0.000970719 -0.000125142
0.000970719 0.00651348 0.00016243
-0.000125142 0.00016243 8.63553e-05
-0.00239808 -0.00072066 -7.43812e-05
-0.00072066 0.00125763 1.14664e-07
-7.43812e-05 1.14664e-07 -0.00119472
-0.00101531 -0.00213738 5.03773e-05
-0.00213738 0.00254871 -1.61648e-05
5.03773e-05 -1.61648e-05 0.000961439
-0.00562577 -0.00349573 -0.000188537
-0.00349573 0.000229432 0.000158161
-0.000188537 0.000158161 -0.00564851
-0.000568765 -0.00973849 0.000671803
-0.00973849 0.00485627 -0.000378628
0.000671803 -0.000378628 -0.00475833
0.0261094 0.0105618 0.00104842
0.0105618 0.0158657 -0.000164406
0.00104842 -0.000164406 0.000709108
0.0328956 0.0198398 -0.000177425
0.0198398 0.0258087 0.00083847
-0.000177425 0.00083847 0.00288271
0.000175958 -0.00232006 -6.35184e-05
-0.00232006 0.00237096 2.19005e-05
-6.35184e-05 2.19005e-05 0.000159898
0.0109476 0.00687181 0.000740886
0.00687181 0.0194059 -2.24105e-05
0.000740886 -2.24105e-05 0.00557393
0.0142971 0.00936859 0.000165869
0.00936859 0.00874132 0.000159012
0.000165869 0.000159012 -0.0016295
0.0033083 -0.00820611 9.56165e-05
-0.00820611 0.00190389 -4.80057e-05
9.56165e-05 -4.80057e-05 0.00011488
0.0108245 -0.0124669 -1.50485e-06
-0.0124669 -0.00216092 2.08435e-05
-1.50485e-06 2.08435e-05 -0.00148686
0.00218132 -0.00386265 5.37845e-05
-0.00386265 0.00103756 -1.69202e-05
5.37845e-05 -1.69202e-05 2.16639e-05
0.00379874 0.00730266 -0.00238459
0.00730266 0.00702378 -0.000117181
-0.00238459 -0.000117181 -0.00560186
0.0142591 -0.00809807 -0.000756593
-0.00809807 -0.00552104 0.000171448
-0.000756593 0.000171448 -0.00186765
0.00535581 -0.00856892 0.000128714
-0.00856892 -0.00159029 -8.37463e-05
0.000128714 -8.37463e-05 0.000406126
0.000273503 -0.00113417 -1.71041e-05
-0.00113417 0.00100293 -1.25559e-05
-1.71041e-05 -1.25559e-05 -0.000258098
0.00222305 -0.00230867 5.89622e-05
-0.00230867 0.000929894 -2.83045e-05
5.89622e-05 -2.83045e-05 -0.000180871
0.0018727 -0.00192457 -2.25097e-05
-0.00192457 1.22202e-05 -1.37131e-05
-2.25097e-05 -1.37131e-05 -0.000639463
-0.000586914 -0.00113284 -1.40411e-06
-0.00113284 -0.000510271 -2.02061e-07
-1.40411e-06 -2.02061e-07 -0.00129156
0.00242286 -0.00196049 -7.3955e-06
-0.00196049 0.000441342 2.35313e-06
-7.3955e-06 2.35313e-06 -0.000312538
0.00475375 -0.00214079 -5.65056e-06
-0.00214079 0.00137478 -3.38847e-06
-5.65056e-06 -3.38847e-06 0.000689506
0.00191215 -0.0016438 1.59584e-05
-0.0016438 0.00045313 7.92464e-06
1.59584e-05 7.92464e-06 -0.000655212
0.00325177 -0.00200372 -1.01056e-06
-0.00200372 0.000773766 4.20364e-06
-1.01056e-06 4.20364e-06 -0.000142978
0.00318215 -0.00151523 -3.3153e-06
-0.00151523 0.000378699 -1.61336e-06
-3.3153e-06 -1.61336e-06 -2.15559e-05
0.00264958 -0.00175156 8.76073e-06
-0.00175156 0.000708276 3.65543e-06
8.76073e-06 3.65543e-06 -0.000289111
0.00305589 -0.00138163 -4.41042e-06
-0.00138163 0.000506227 4.30656e-06
-4.41042e-06 4.30656e-06 -4.82762e-05
0.00265124 -0.000920885 -5.28547e-09
-0.000920885 3.97309e-06 -1.76768e-06
-5.28547e-09 -1.76768e-06 -0.000112927
0.00269484 -0.000920669 -3.53597e-06
-0.000920669 0.0001811 -5.50162e-07
-3.53597e-06 -5.50162e-07 5.24031e-05
0.00249076 -0.000847419 -5.69758e-06
-0.000847419 0.00012839 -4.04891e-08
-5.69758e-06 -4.04891e-08 -0.000114649
0.00245803 -0.000828539 1.29586e-06
-0.000828539 9.98826e-06 2.63492e-06
1.29586e-06 2.63492e-06 -0.000174687
0.00235416 -0.00103269 -7.70162e-06
-0.00103269 0.000169631 -4.05028e-06
-7.70162e-06 -4.05028e-06 -0.000319827
0.00271709 -0.00118999 4.28356e-06
-0.00118999 0.000366354 6.34864e-07
4.28356e-06 6.34864e-07 -0.000194705
0.00287181 -0.00126132 4.93223e-06
-0.00126132 0.000435438 5.45643e-06
4.93223e-06 5.45643e-06 -0.000140299
0.00275903 -0.00136455 -9.80727e-06
-0.00136455 0.000696215 -7.32547e-06
-9.80727e-06 -7.32547e-06 -3.21094e-05
0.0033029 -0.00155068 2.58826e-06
-0.00155068 0.00102627 -1.18657e-06
2.58826e-06 -1.18657e-06 0.000216079
0.00376401 -0.00180794 -2.14746e-06
-0.00180794 0.00129328 1.9647e-07
-2.14746e-06 1.9647e-07 0.000346052
0.00169367 -0.00110766 2.31482e-06
-0.00110766 0.000306211 -1.55009e-05
2.31482e-06 -1.55009e-05 -0.000449574
0.00292435 -0.00159926 1.80012e-06
-0.00159926 0.00111733 -1.7859e-06
1.80012e-06 -1.7859e-06 0.000173772
0.00224928 -0.00161353 1.48423e-06
-0.00161353 0.000714451 5.48934e-06
1.48423e-06 5.48934e-06 -0.000237695
0.000845492 -0.000557474 -1.77877e-05
-0.000557474 6.9367e-05 -1.72426e-05
-1.77877e-05 -1.72426e-05 -0.000309898
0.00120143 -0.000906389 4.40946e-06
-0.000906389 0.000382717 3.39649e-06
4.40946e-06 3.39649e-06 -0.0002931
0.00129957 -0.00115706 1.36898e-05
-0.00115706 0.000453037 8.81484e-06
1.36898e-05 8.81484e-06 -0.000391652
0.000255976 -0.000266443 -2.82314e-05
-0.000266443 -0.000278526 2.47114e-05
-2.82314e-05 2.47114e-05 -0.000440054
0.00115117 -0.000518337 3.24183e-06
-0.000518337 0.000422868 6.48903e-07
3.24183e-06 6.48903e-07 1.62823e-05
-0.00157923 -0.000617189 -9.4465e-06
-0.000617189 -0.00116465 -9.93621e-06
-9.4465e-06 -9.93621e-06 -0.00171519
0.00739081 0.000382707 2.71084e-05
0.000382707 0.00475102 1.29589e-05
2.71084e-05 1.29589e-05 0.00466156
0.000398026 -0.000258624 4.82341e-07
-0.000258624 -0.000142348 -2.53062e-08
4.82341e-07 -2.53062e-08 -0.000301031
0.000649192 -0.000283024 -1.85747e-05
-0.000283024 0.00012224 1.11064e-05
-1.85747e-05 1.11064e-05 -0.000283953
0.0057415 0.000157165 2.97486e-05
0.000157165 0.00360166 1.513e-06
2.97486e-05 1.513e-06 0.003582
0.000945718 -0.000199296 1.84651e-05
-0.000199296 0.000281664 -2.16236e-05
1.84651e-05 -2.16236e-05 0.000139898
0.00508797 0.000130435 0.000114334
0.000130435 0.00315283 -1.52298e-05
0.000114334 -1.52298e-05 0.00314134
0.00235617 0.000696116 -8.41597e-06
0.000696116 0.00122101 3.32873e-05
-8.41597e-06 3.32873e-05 0.000655496
0.0013405 0.00047586 4.32819e-06
0.00047586 0.000597426 4.48917e-07
4.32819e-06 4.48917e-07 0.00014964
-0.000354353 0.000933416 4.1152e-06
0.000933416 -0.00036709 1.69954e-05
4.1152e-06 1.69954e-05 -0.000853247
0.00210841 0.000478111 -4.02153e-06
0.000478111 0.0011388 -1.57659e-05
-4.02153e-06 -1.57659e-05 0.000831809
0.000975672 0.000324148 -2.22792e-07
0.000324148 0.000669178 8.29022e-07
-2.22792e-07 8.29022e-07 0.000106299
-0.000606427 0.000291039 -4.0244e-06
0.000291039 -0.000248325 1.4081e-05
-4.0244e-06 1.4081e-05 -0.000867924
0.000716296 5.74408e-05 -5.23106e-06
5.74408e-05 0.00023155 -1.92337e-05
-5.23106e-06 -1.92337e-05 0.000121685
0.000721936 0.000222705 -4.10919e-07
0.000222705 0.000302117 2.14555e-06
-4.10919e-07 2.14555e-06 1.2821e-05
0.00032633 0.00019132 -1.09646e-05
0.00019132 0.000134787 3.95232e-05
-1.09646e-05 3.95232e-05 -0.00028129
0.00433243 -0.000103146 -7.82896e-05
-0.000103146 0.00265118 -1.2012e-05
-7.82896e-05 -1.2012e-05 0.00264771
0.00028829 -1.1469e-05 5.77398e-07
-1.1469e-05 -4.5868e-05 -2.83248e-07
5.77398e-07 -2.83248e-07 -0.000127431
0.000535483 0.000112984 -5.36613e-06
0.000112984 0.000204746 8.33279e-06
-5.36613e-06 8.33279e-06 -7.14892e-05
0.00371957 -8.1471e-05 -1.3437e-05
-8.1471e-05 0.0022332 1.37639e-06
-1.3437e-05 1.37639e-06 0.00223098
0.000437081 5.85871e-05 2.50603e-06
5.85871e-05 3.9296e-05 1.41778e-05
2.50603e-06 1.41778e-05 -2.36909e-05
0.00314705 -5.90705e-05 3.27335e-05
-5.90705e-05 0.00183961 8.80689e-06
3.27335e-05 8.80689e-06 0.00184155
0.0025154 -0.0032975 -0.000873078
-0.0032975 0.00938593 0.000241415
-0.000873078 0.000241415 -0.00187578
0.0064742 0.00242867 0.000172345
0.00242867 0.00514438 4.94825e-06
0.000172345 4.94825e-06 0.000211643
0.000760025 0.00285447 0.000528724
0.00285447 0.00520825 0.000207255
0.000528724 0.000207255 -0.00113603
-0.000178316 0.000443631 2.27354e-06
0.000443631 -0.000200705 2.56928e-06
2.27354e-06 2.56928e-06 -0.000894987
0.00470662 0.00158214 -7.98619e-06
0.00158214 0.00261366 2.76928e-05
-7.98619e-06 2.76928e-05 0.00170722
-0.00187302 0.000235369 -4.0159e-05
0.000235369 -0.000935662 -1.15072e-05
-4.0159e-05 -1.15072e-05 -0.00179513
0.000894198 0.000392736 -7.88859e-06
0.000392736 0.000733444 -6.60841e-06
-7.88859e-06 -6.60841e-06 0.000186115
0.00173949 0.000651695 1.12817e-06
0.000651695 0.000598278 7.92436e-07
1.12817e-06 7.92436e-07 0.000240482
-0.00503194 7.14021e-05 4.94183e-05
7.14021e-05 -0.003458 6.09613e-05
4.94183e-05 6.09613e-05 -0.00350509
-0.000946084 0.000484349 -9.33806e-07
0.000484349 -0.000315798 2.04344e-07
-9.33806e-07 2.04344e-07 -0.000876641
6.4395e-05 0.000464938 -1.4347e-05
0.000464938 -9.57806e-05 -9.72859e-07
-1.4347e-05 -9.72859e-07 -0.000648146
0.00064907 0.00134468 -6.64469e-05
0.00134468 0.000522815 -1.44133e-05
-6.64469e-05 -1.44133e-05 -0.000438593
-0.000645262 0.00107533 -7.44571e-05
0.00107533 -0.000566272 7.24584e-05
-7.44571e-05 7.24584e-05 -0.00115168
0.000206005 0.000308749 -8.57381e-06
0.000308749 0.000377287 3.8814e-05
-8.57381e-06 3.8814e-05 -0.000129965
0.00223319 0.00104053 3.47816e-05
0.00104053 0.00165152 1.26306e-06
3.47816e-05 1.26306e-06 0.000805688
0.0129642 -0.0107274 -0.00429093
-0.0107274 0.00988066 0.000830666
-0.00429093 0.000830666 -0.00377913
0.0150358 -0.0139228 0.00146031
-0.0139228 0.0228212 -0.000289852
0.00146031 -0.000289852 0.00462029
0.0120507 0.0072783 -0.00165521
0.0072783 0.00381721 -0.000449587
-0.00165521 -0.000449587 -0.00401565
0.047657 -0.0336323 0.00139063
-0.0336323 0.0352832 0.00181253
0.00139063 0.00181253 0.00944964
0.0347974 -0.00858074 -0.000485833
-0.00858074 0.0191812 0.000758254
-0.000485833 0.000758254 0.00572824
0.00252305 0.00356358 -0.00027714
0.00356358 0.00693206 -0.000333374
-0.00027714 -0.000333374 -0.00146434
0.00101733 -0.000973873 -0.000352507
-0.000973873 0.005831 9.10784e-05
-0.000352507 9.10784e-05 0.00217343
-0.000208203 0.00244977 -3.95708e-05
0.00244977 0.00330865 8.103e-06
-3.95708e-05 8.103e-06 0.000626456
0.0388707 -0.0122349 -0.00124118
-0.0122349 0.0212563 0.000585497
-0.00124118 0.000585497 0.00513374
-0.000705363 0.00980174 -0.000533538
0.00980174 0.00251006 -6.11766e-05
-0.000533538 -6.11766e-05 -0.00363841
0.000906268 0.00611386 -6.49816e-05
0.00611386 0.000980958 -0.000185938
-6.49816e-05 -0.000185938 0.00020359
0.00682013 0.0158789 -0.00147969
0.0158789 -0.00560121 -0.000251787
-0.00147969 -0.000251787 -0.00419109
0.00414078 0.00240004 2.33084e-05
0.00240004 0.00181013 4.1261e-05
2.33084e-05 4.1261e-05 0.000992429
0.00226901 0.00137064 -2.35167e-05
0.00137064 0.00108258 -7.46431e-06
-2.35167e-05 -7.46431e-06 0.000632387
-0.000676435 0.000440456 -6.18391e-05
0.000440456 5.54115e-05 -3.10971e-06
-6.18391e-05 -3.10971e-06 -0.000774032
0.00124205 0.00233731 -0.000143285
0.00233731 0.00269176 -9.20107e-05
-0.000143285 -9.20107e-05 0.000301006
0.00177835 0.00133915 -7.35101e-05
0.00133915 0.00116563 -8.20846e-05
-7.35101e-05 -8.20846e-05 0.000458816
0.00308971 0.00393004 2.42265e-06
0.00393004 0.00148871 -1.85786e-05
2.42265e-06 -1.85786e-05 -0.00032177
0.00157058 0.00460715 0.000260029
0.00460715 -0.000931244 0.000164002
0.000260029 0.000164002 -0.00169589
-0.00756217 -0.000632809 -0.00236568
-0.000632809 0.00589153 -6.13612e-05
-0.00236568 -6.13612e-05 -0.00747644
-0.00849136 0.00161763 0.0015054
0.00161763 0.00715353 -7.16153e-05
0.0015054 -7.16153e-05 1.26246e-06
-0.000645416 0.00130719 -0.000296937
0.00130719 0.00266861 5.93939e-05
-0.000296937 5.93939e-05 -0.000605246
0.000482673 -0.00268544 -0.000104958
-0.00268544 0.00196777 -7.43075e-05
-0.000104958 -7.43075e-05 -0.000338824
0.00272903 -0.00748826 0.000148093
-0.00748826 0.00193523 0.000101858
0.000148093 0.000101858 9.12235e-05
0.0070815 0.00688947 0.00163705
0.00688947 0.017873 0.000526074
0.00163705 0.000526074 0.00456713
0.00528773 -0.0130009 0.00160624
-0.0130009 -0.00691595 -0.00040291
0.00160624 -0.00040291 -0.00389301
0.0214325 0.0107669 0.0028538
0.0107669 0.0184246 0.000573308
0.0028538 0.000573308 0.00539369
0.00372399 -0.00510027 -1.80047e-05
-0.00510027 0.00154861 -1.3588e-05
-1.80047e-05 -1.3588e-05 -7.90194e-05
0.0109765 0.00918117 0.000570998
0.00918117 0.00989058 -0.000217333
0.000570998 -0.000217333 -0.00288899
0.00841457 -0.00871322 -0.0005255
-0.00871322 -0.0101272 0.000249223
-0.0005255 0.000249223 -0.00537444
0.00400273 -0.00740818 -0.000111697
-0.00740818 -0.00161693 0.000110344
-0.000111697 0.000110344 0.00058546
0.00349776 -0.0039863 7.15262e-05
-0.0039863 -0.000412644 -4.6095e-05
7.15262e-05 -4.6095e-05 -7.81754e-06
0.015644 -0.00197048 -9.16822e-05
-0.00197048 -0.00367789 0.000172274
-9.16822e-05 0.000172274 -0.000974429
0.00430888 -0.00520479 0.000137835
-0.00520479 -0.00545762 -0.000215996
0.000137835 -0.000215996 -0.000470931
0.00415025 -0.00285143 -0.000107447
-0.00285143 0.00192377 5.97435e-05
-0.000107447 5.97435e-05 0.000754648
0.00107942 -0.00180592 -1.10102e-05
-0.00180592 -0.000464282 1.92296e-06
-1.10102e-05 1.92296e-06 -0.000906403
0.00577157 -0.00211475 4.17481e-05
-0.00211475 0.00168489 -3.07005e-05
4.17481e-05 -3.07005e-05 0.00130453
-0.000372625 -0.0015534 -6.08465e-06
-0.0015534 -0.00102724 4.97823e-06
-6.08465e-06 4.97823e-06 -0.0016571
0.00318947 -0.00191586 1.147e-06
-0.00191586 0.000557491 -4.3746e-07
1.147e-06 -4.3746e-07 -2.60925e-05
0.00372434 -0.00151792 -3.47863e-06
-0.00151792 0.000506748 -2.46324e-06
-3.47863e-06 -2.46324e-06 0.000360816
0.00309417 -0.00197348 1.54603e-05
-0.00197348 0.000680909 1.27653e-05
1.54603e-05 1.27653e-05 -0.000223486
0.00317457 -0.00149523 -4.47687e-06
-0.00149523 0.000379387 2.00335e-06
-4.47687e-06 2.00335e-06 -3.88123e-06
0.00286456 -0.00100826 -1.2145e-06
-0.00100826 -5.50116e-05 -3.94032e-07
-1.2145e-06 -3.94032e-07 9.50877e-06
0.00250282 -0.00129301 5.80678e-06
-0.00129301 0.000182554 8.04966e-06
5.80678e-06 8.04966e-06 -0.000341746
0.00259308 -0.000910646 -8.58692e-08
-0.000910646 -4.16182e-05 3.09264e-06
-8.58692e-08 3.09264e-06 -0.000147007
0.00275002 -0.000967807 -2.00845e-06
-0.000967807 3.69253e-05 -1.10597e-07
-2.00845e-06 -1.10597e-07 -1.12633e-05
0.00272083 -0.000928343 -4.37872e-06
-0.000928343 0.000120244 -7.26868e-07
-4.37872e-06 -7.26868e-07 -6.16348e-06
0.00263831 -0.000920009 -3.69404e-06
-0.000920009 0.000130579 1.6454e-06
-3.69404e-06 1.6454e-06 1.13534e-05
0.00258188 -0.000883197 -8.20382e-07
-0.000883197 0.000193742 -1.43924e-06
-8.20382e-07 -1.43924e-06 1.65585e-05
0.00270717 -0.000888175 -6.53015e-06
-0.000888175 0.000364284 -9.26709e-07
-6.53015e-06 -9.26709e-07 6.90404e-05
0.00263085 -0.000844778 1.53163e-06
-0.000844778 0.000239595 1.41358e-06
1.53163e-06 1.41358e-06 -8.81295e-06
0.00240312 -0.000821372 5.22118e-06
-0.000821372 -4.41179e-05 6.36501e-06
5.22118e-06 6.36501e-06 -0.000228153
0.00238207 -0.00103465 -8.53792e-06
-0.00103465 0.000235741 -6.72075e-06
-8.53792e-06 -6.72075e-06 -0.000255716
0.00240797 -0.00105902 -6.70397e-07
-0.00105902 0.000193364 -3.35518e-08
-6.70397e-07 -3.35518e-08 -0.000305302
0.00288602 -0.00119955 9.95507e-06
-0.00119955 0.00049579 4.52236e-06
9.95507e-06 4.52236e-06 -6.05398e-05
0.00216602 -0.00123013 -1.96882e-06
-0.00123013 0.000317416 -1.07877e-05
-1.96882e-06 -1.07877e-05 -0.000388794
0.00296361 -0.00140759 -1.86262e-06
-0.00140759 0.000795224 7.23665e-07
-1.86262e-06 7.23665e-07 5.18543e-05
0.00289757 -0.00151486 5.96698e-06
-0.00151486 0.000761555 3.60129e-06
5.96698e-06 3.60129e-06 -4.59024e-05
0.000498439 -0.000503287 -1.8321e-05
-0.000503287 -0.000354672 4.0094e-06
-1.8321e-05 4.0094e-06 -0.000814892
0.00235994 -0.00119652 -2.47487e-06
-0.00119652 0.000750488 2.38026e-06
-2.47487e-06 2.38026e-06 -2.52231e-05
0.00304664 -0.00161384 1.408e-05
-0.00161384 0.00117018 1.01527e-05
1.408e-05 1.01527e-05 0.000222724
0.000640488 -0.000279639 -2.88317e-05
-0.000279639 -9.22502e-06 2.82859e-05
-2.88317e-05 2.82859e-05 -0.000217846
0.00132107 -0.000571888 -1.05569e-05
-0.000571888 0.000404376 -2.81348e-06
-1.05569e-05 -2.81348e-06 -1.58511e-05
-0.00029823 -0.000881008 -8.69323e-06
-0.000881008 -0.000550597 6.23033e-06
-8.69323e-06 6.23033e-06 -0.00125923
0.00854758 0.000177159 -0.000253541
0.000177159 0.005447 2.33696e-05
-0.000253541 2.33696e-05 0.00542738
0.000854491 -0.000277995 -2.88123e-06
-0.000277995 0.000118589 -6.44891e-07
-2.88123e-06 -6.44891e-07 -5.68981e-05
4.41452e-05 -0.000621024 1.23753e-05
-0.000621024 -0.000171638 1.31639e-05
1.23753e-05 1.31639e-05 -0.000661807
0.00476716 0.000130728 0.000119105
0.000130728 0.0029452 -5.68131e-06
0.000119105 -5.68131e-06 0.00289246
0.000968776 -0.000246145 2.40971e-05
-0.000246145 0.000231243 -2.3189e-05
2.40971e-05 -2.3189e-05 6.41049e-05
0.00682766 9.63902e-05 0.000219977
9.63902e-05 0.00430616 -2.13957e-05
0.000219977 -2.13957e-05 0.00430092
0.000950625 0.000811396 -3.82749e-05
0.000811396 0.000102593 1.42252e-05
-3.82749e-05 1.42252e-05 -0.000584826
0.0015882 0.000589891 -1.06504e-05
0.000589891 0.000730697 -1.30356e-06
-1.06504e-05 -1.30356e-06 0.000185979
-0.000485823 0.000271281 1.52227e-05
0.000271281 -0.000672699 5.42096e-05
1.52227e-05 5.42096e-05 -0.00105957
0.00182348 0.000501591 2.88065e-06
0.000501591 0.000815169 -1.9735e-05
2.88065e-06 -1.9735e-05 0.000409857
0.00173057 0.00040852 5.4246e-06
0.00040852 0.000962294 -2.22819e-06
5.4246e-06 -2.22819e-06 0.000509609
0.00193758 0.000459134 1.48114e-06
0.000459134 0.00107244 -7.45049e-07
1.48114e-06 -7.45049e-07 0.000682681
0.00119355 0.000202619 -2.33918e-05
0.000202619 0.000498068 -2.72195e-05
-2.33918e-05 -2.72195e-05 0.000358923
0.000910071 0.00031473 -3.91716e-07
0.00031473 0.000451242 1.21214e-06
-3.91716e-07 1.21214e-06 0.000103437
-0.000716561 0.000112759 -2.05476e-05
0.000112759 -0.000476145 3.49575e-05
-2.05476e-05 3.49575e-05 -0.00100659
0.0038233 -8.06117e-05 -0.000109169
-8.06117e-05 0.0023078 -1.73912e-05
-0.000109169 -1.73912e-05 0.00230979
0.000484976 0.000122923 4.8608e-07
0.000122923 8.28974e-05 -7.54302e-07
4.8608e-07 -7.54302e-07 -2.18021e-05
0.000920432 0.00026428 -1.69281e-06
0.00026428 0.000452782 1.50178e-05
-1.69281e-06 1.50178e-05 0.000150151
0.0035733 -8.92994e-05 -9.9156e-06
-8.92994e-05 0.00214048 7.59126e-07
-9.9156e-06 7.59126e-07 0.00213804
0.000142872 1.24095e-05 6.29038e-06
1.24095e-05 -0.000139588 1.57012e-05
6.29038e-06 1.57012e-05 -0.0002177
0.00344909 -8.55385e-05 4.18075e-05
-8.55385e-05 0.002052 1.02031e-05
4.18075e-05 1.02031e-05 0.00204834
0.00477161 -0.00602146 -0.00349504
-0.00602146 0.00720064 0.000361907
-0.00349504 0.000361907 0.000842907
0.00394327 -0.00543493 -0.000425473
-0.00543493 0.0118493 -9.13083e-05
-0.000425473 -9.13083e-05 -0.00074155
0.006511 0.00207267 -0.000833919
0.00207267 0.00433632 -0.000210121
-0.000833919 -0.000210121 -0.000337067
0.00180189 0.0004832 2.06588e-05
0.0004832 0.000954854 1.78064e-05
2.06588e-05 1.78064e-05 0.00035603
0.00139646 0.000477689 1.79982e-05
0.000477689 0.000954307 -4.69285e-06
1.79982e-05 -4.69285e-06 0.00017523
0.00188903 0.00117292 -2.37828e-06
0.00117292 0.000885421 -1.43071e-06
-2.37828e-06 -1.43071e-06 2.59766e-06
0.00279482 0.00158697 4.04396e-07
0.00158697 0.00117054 1.81591e-05
4.04396e-07 1.81591e-05 0.000250191
0.00179677 0.00138065 -6.68578e-05
0.00138065 0.00114252 1.0741e-05
-6.68578e-05 1.0741e-05 7.30037e-05
0.00611852 0.00100357 1.79044e-05
0.00100357 0.00383608 1.70618e-05
1.79044e-05 1.70618e-05 0.00340385
0.00158149 0.000707662 3.75682e-05
0.000707662 0.000987333 3.40108e-05
3.75682e-05 3.40108e-05 0.000341341
0.00303729 0.00138935 -5.53448e-06
0.00138935 0.00187892 -3.5472e-07
-5.53448e-06 -3.5472e-07 0.000971441
0.00297166 0.00184977 -4.24312e-05
0.00184977 0.00126468 -2.81273e-07
-4.24312e-05 -2.81273e-07 0.000344017
0.0024892 0.00171036 -3.82441e-05
0.00171036 0.000946299 5.57011e-05
-3.82441e-05 5.57011e-05 0.000306489
0.00241641 0.0023641 4.42279e-05
0.0023641 0.000276092 -2.88733e-05
4.42279e-05 -2.88733e-05 -0.000434187
0.00151589 0.00144049 1.80377e-05
0.00144049 0.000663881 1.04126e-05
1.80377e-05 1.04126e-05 -3.04069e-05
0.00365026 0.00130689 -1.63545e-05
0.00130689 0.00251262 1.42115e-07
-1.63545e-05 1.42115e-07 0.00150166
0.0185389 0.00894767 -0.000257082
0.00894767 -0.0030999 0.000111693
-0.000257082 0.000111693 0.00102323
0.0209462 -0.0077148 -0.00108202
-0.0077148 0.012252 -0.000128542
-0.00108202 -0.000128542 0.00205908
0.0146869 -0.0130882 0.00222651
-0.0130882 0.0244812 -0.000175101
0.00222651 -0.000175101 0.00776932
0.0317488 -0.00914076 0.000516478
-0.00914076 0.0162429 0.000177407
0.000516478 0.000177407 0.00210111
0.00670102 0.0107948 -0.000390123
0.0107948 0.00483279 -0.000189902
-0.000390123 -0.000189902 -0.000611762
0.00151112 0.00285766 8.86982e-05
0.00285766 0.00437329 7.13203e-05
8.86982e-05 7.13203e-05 0.00153959
0.00172873 0.00595445 -0.000223388
0.00595445 0.00146651 -0.000142388
-0.000223388 -0.000142388 0.000989428
0.00972211 0.0128883 0.000173813
0.0128883 -0.00150291 0.000166446
0.000173813 0.000166446 -0.00147449
0.008341 0.00918883 -0.000217961
0.00918883 -0.00115992 -0.000188592
-0.000217961 -0.000188592 0.000114374
0.00160864 0.00236918 2.76936e-06
0.00236918 -3.94707e-05 -4.16932e-05
2.76936e-06 -4.16932e-05 -0.000593904
0.00275615 0.00209583 1.86834e-05
0.00209583 0.00106674 6.81935e-06
1.86834e-05 6.81935e-06 0.000335849
0.00170533 0.00122156 1.86867e-05
0.00122156 0.000790594 -5.07123e-05
1.86867e-05 -5.07123e-05 0.000365896
0.00265407 0.00398778 -0.000100412
0.00398778 0.000987726 -7.47247e-05
-0.000100412 -7.47247e-05 -0.0007525
0.0058364 0.00510317 0.00012073
0.00510317 0.00113328 4.27656e-05
0.00012073 4.27656e-05 -0.000108693
0.00858616 -9.15032e-05 -1.13719e-05
-9.15032e-05 -0.00726072 -8.97179e-06
-1.13719e-05 -8.97179e-06 -0.00822565
0.00249803 -0.00301693 -5.16964e-05
-0.00301693 0.00974507 2.93742e-05
-5.16964e-05 2.93742e-05 0.000669235
-0.0109452 0.000205431 0.00239064
0.000205431 0.00834956 5.75215e-05
0.00239064 5.75215e-05 0.00304761
0.00452587 -0.00626792 -0.000262137
-0.00626792 0.00144544 0.000167141
-0.000262137 0.000167141 -0.000673855
0.00729182 -0.00910939 -7.97969e-05
-0.00910939 -0.00108482 0.000162413
-7.97969e-05 0.000162413 0.000676326
0.0127421 0.0051494 0.00318081
0.0051494 0.00961724 -0.000172381
0.00318081 -0.000172381 0.00301499
0.0115584 -0.00768106 -0.000508708
-0.00768106 -0.00716801 0.000379443
-0.000508708 0.000379443 -0.00176576
0.00373301 -0.00415351 -3.45818e-05
-0.00415351 -0.000466094 1.64657e-05
-3.45818e-05 1.64657e-05 -0.000254524
0.0134206 -0.00174325 -0.000495531
-0.00174325 -0.00609607 0.000184542
-0.000495531 0.000184542 -0.00379291
0.00766139 -0.00600829 0.000111604
-0.00600829 -0.00324417 -1.52146e-05
0.000111604 -1.52146e-05 0.000560163
0.00375386 -0.00309 7.43495e-05
-0.00309 -0.00172725 -9.04434e-05
7.43495e-05 -9.04434e-05 -0.000255034
0.00462755 -0.00248318 0.000196565
-0.00248318 -0.00492429 -6.72056e-05
0.000196565 -6.72056e-05 0.000272367
0.000581788 -0.00177483 5.32635e-06
-0.00177483 -0.000810756 2.68149e-05
5.32635e-06 2.68149e-05 -0.00113223
0.00261741 -0.00170462 -3.61239e-05
-0.00170462 -0.000246782 1.22572e-05
-3.61239e-05 1.22572e-05 -0.000182302
0.00482151 -0.00150043 5.26123e-05
-0.00150043 0.000878215 -3.16165e-05
5.26123e-05 -3.16165e-05 0.00108107
0.00146997 -0.00166459 -3.32833e-06
-0.00166459 -0.000340021 1.00069e-05
-3.32833e-06 1.00069e-05 -0.000812146
0.0032146 -0.0014909 -6.07108e-06
-0.0014909 0.000203889 2.40212e-06
-6.07108e-06 2.40212e-06 7.15477e-05
0.00319682 -0.00108053 2.38157e-06
-0.00108053 -2.63142e-05 -1.50444e-06
2.38157e-06 -1.50444e-06 0.000133284
0.00309909 -0.00146303 -1.25986e-05
-0.00146303 0.000348452 1.01669e-05
-1.25986e-05 1.01669e-05 -1.5611e-05
0.00280288 -0.00100289 -3.71016e-07
-0.00100289 -8.86982e-05 1.19858e-06
-3.71016e-07 1.19858e-06 -2.95098e-05
0.00290243 -0.000947622 -1.97898e-06
-0.000947622 -3.30841e-05 -4.77198e-07
-1.97898e-06 -4.77198e-07 3.55268e-05
0.00254248 -0.000898161 3.47131e-06
-0.000898161 -7.71742e-05 5.42557e-06
3.47131e-06 5.42557e-06 -0.000171193
0.00275159 -0.000958644 -2.10668e-07
-0.000958644 5.46836e-05 4.97226e-07
-2.10668e-07 4.97226e-07 4.95561e-06
0.00282698 -0.000914883 -2.3534e-06
-0.000914883 4.14951e-05 -6.2258e-07
-2.3534e-06 -6.2258e-07 9.08156e-06
0.00268261 -0.000927888 -5.09337e-06
-0.000927888 9.18547e-05 5.13296e-07
-5.09337e-06 5.13296e-07 -2.49183e-05
0.00265023 -0.000872215 -9.39058e-07
-0.000872215 0.000123682 -1.21682e-06
-9.39058e-07 -1.21682e-06 -6.51579e-06
0.00258411 -0.000919648 3.50058e-07
-0.000919648 8.48847e-05 3.91863e-06
3.50058e-07 3.91863e-06 -2.58215e-05
0.00259212 -0.000884276 8.563e-07
-0.000884276 0.000196485 -6.2241e-07
8.563e-07 -6.2241e-07 2.698e-05
0.00256639 -0.000864796 -2.23036e-06
-0.000864796 0.000261087 5.20185e-08
-2.23036e-06 5.20185e-08 3.00139e-05
0.00263044 -0.00091102 -1.21679e-06
-0.00091102 0.000385515 -3.97087e-06
-1.21679e-06 -3.97087e-06 3.14698e-05
0.00272807 -0.000882431 -2.79415e-07
-0.000882431 0.000377798 -3.5347e-07
-2.79415e-07 -3.5347e-07 7.61678e-05
0.00277232 -0.000841204 8.76585e-06
-0.000841204 0.000354357 2.21167e-06
8.76585e-06 2.21167e-06 0.000101039
0.00239717 -0.00106413 9.67949e-07
-0.00106413 0.000356935 -7.0851e-06
9.67949e-07 -7.0851e-06 -0.000205419
0.00246389 -0.00106125 -3.41936e-06
-0.00106125 0.000280424 -8.17861e-07
-3.41936e-06 -8.17861e-07 -0.00022462
0.00245346 -0.00108077 8.44241e-06
-0.00108077 0.000215291 3.5389e-06
8.44241e-06 3.5389e-06 -0.000290965
0.00121704 -0.000723742 -1.99456e-05
-0.000723742 -2.1467e-05 5.52341e-07
-1.99456e-05 5.52341e-07 -0.000563472
0.0026256 -0.00128298 -1.97196e-06
-0.00128298 0.000646828 -2.71174e-07
-1.97196e-06 -2.71174e-07 -7.54888e-05
0.00310572 -0.0014442 8.98677e-06
-0.0014442 0.000848881 7.6404e-06
8.98677e-06 7.6404e-06 9.24698e-05
0.000186078 -0.000302105 -1.73859e-05
-0.000302105 -0.000305803 3.11136e-05
-1.73859e-05 3.11136e-05 -0.000555391
0.000997194 -0.000562989 4.38144e-06
-0.000562989 -2.3452e-06 1.23104e-06
4.38144e-06 1.23104e-06 -0.000485018
0.00278189 -0.00123813 -2.16947e-06
-0.00123813 0.00102961 1.53e-05
-2.16947e-06 1.53e-05 0.000250691
0.00836126 -1.32218e-05 -0.000322892
-1.32218e-05 0.00527463 3.20562e-05
-0.000322892 3.20562e-05 0.00528699
0.000310741 -0.000313902 -9.54467e-06
-0.000313902 -0.000218686 5.36769e-07
-9.54467e-06 5.36769e-07 -0.000436471
0.00134997 -0.000660748 8.86953e-06
-0.000660748 0.000500368 8.3828e-06
8.86953e-06 8.3828e-06 1.62633e-05
0.00791311 9.45069e-05 1.00769e-05
9.45069e-05 0.0050137 -4.32727e-06
1.00769e-05 -4.32727e-06 0.00500743
0.000690647 -0.00032114 3.54476e-05
-0.00032114 1.57374e-05 -2.6344e-05
3.54476e-05 -2.6344e-05 -0.000167738
0.00735845 0.000146328 0.000224991
0.000146328 0.00466733 -2.93691e-05
0.000224991 -2.93691e-05 0.00464959
0.00394202 0.00157026 -1.59887e-05
0.00157026 0.0018995 1.4605e-05
-1.59887e-05 1.4605e-05 0.00099348
0.002465 0.00106941 -1.30677e-06
0.00106941 0.00115114 2.20385e-06
-1.30677e-06 2.20385e-06 0.000380469
-0.000853924 0.000539639 -1.58774e-05
0.000539639 -0.000861375 3.00103e-05
-1.58774e-05 3.00103e-05 -0.0014869
0.000594527 0.000423362 1.01268e-05
0.000423362 0.000109575 -1.26298e-05
1.01268e-05 -1.26298e-05 -0.000401464
-0.00022194 0.000494418 -4.68304e-07
0.000494418 -0.000436079 -1.24494e-05
-4.68304e-07 -1.24494e-05 -0.000868811
-0.00112479 0.000652284 2.04732e-06
0.000652284 -0.00103111 1.74074e-05
2.04732e-06 1.74074e-05 -0.00144994
0.000650821 0.000219351 -2.23808e-05
0.000219351 0.000248758 -2.04684e-05
-2.23808e-05 -2.04684e-05 -0.000215076
0.000478394 0.000535094 2.105e-06
0.000535094 0.000124414 -2.72396e-07
2.105e-06 -2.72396e-07 -0.00028591
0.000934579 0.000312607 -4.1467e-05
0.000312607 0.000232329 -2.87164e-05
-4.1467e-05 -2.87164e-05 7.02095e-05
0.0057677 -0.000138593 -0.000164854
-0.000138593 0.00364388 -3.04372e-05
-0.000164854 -3.04372e-05 0.00362678
0.000389888 0.000146492 4.16864e-06
0.000146492 1.79428e-07 -8.42609e-07
4.16864e-06 -8.42609e-07 -0.000147198
-0.000157248 0.000194693 -3.29997e-06
0.000194693 -0.000193367 1.97284e-05
-3.29997e-06 1.97284e-05 -0.000574481
0.00460015 -0.000145131 -1.8238e-05
-0.000145131 0.00284864 2.21025e-06
-1.8238e-05 2.21025e-06 0.00283332
-0.000207866 -5.02743e-05 -1.34396e-05
-5.02743e-05 -0.000334429 1.94225e-05
-1.34396e-05 1.94225e-05 -0.000457264
0.00390209 -0.000112335 5.63549e-05
-0.000112335 0.00236665 1.23666e-05
5.63549e-05 1.23666e-05 0.00235805
0.0158243 0.00141721 0.000965223
0.00141721 -0.00336068 0.000183749
0.000965223 0.000183749 0.000800342
0.00778082 -0.0116783 -0.00191387
-0.0116783 0.00624883 0.000186613
-0.00191387 0.000186613 -0.00708756
0.00140789 -0.00283887 -0.000368835
-0.00283887 0.0107588 -5.47055e-05
-0.000368835 -5.47055e-05 0.00032173
-0.000185152 0.000215962 1.46046e-05
0.000215962 -2.75094e-05 4.14974e-07
1.46046e-05 4.14974e-07 -0.000844162
0.00192611 0.00120277 3.63471e-05
0.00120277 0.000935306 -1.87632e-05
3.63471e-05 -1.87632e-05 2.07995e-05
0.00267934 0.00143131 -9.39888e-06
0.00143131 0.00148725 -1.2794e-05
-9.39888e-06 -1.2794e-05 0.000526371
0.00236276 0.00155255 -4.23826e-06
0.00155255 0.000919114 -8.75666e-07
-4.23826e-06 -8.75666e-07 -8.84481e-06
0.0023475 0.00141851 1.99399e-05
0.00141851 0.000618331 2.54212e-05
1.99399e-05 2.54212e-05 -0.000147111
0.00176964 0.00173041 -2.99879e-05
0.00173041 0.000482919 1.25966e-05
-2.99879e-05 1.25966e-05 -0.000381044
0.00329578 0.00133626 4.9092e-06
0.00133626 0.00190266 -1.30382e-05
4.9092e-06 -1.30382e-05 0.0010245
0.00251042 0.00181392 4.76116e-06
0.00181392 0.00095682 3.91211e-06
4.76116e-06 3.91211e-06 4.98918e-05
0.00348371 0.00173859 3.78131e-05
0.00173859 0.00170726 1.24958e-05
3.78131e-05 1.24958e-05 0.000858396
0.00336796 0.00175944 -7.56963e-07
0.00175944 0.00132509 1.07548e-05
-7.56963e-07 1.07548e-05 0.000472922
0.00100173 0.00164163 -5.51993e-06
0.00164163 -0.000186088 1.13955e-06
-5.51993e-06 1.13955e-06 -0.000812138
0.00552596 0.00265557 1.60192e-05
0.00265557 0.00195593 3.06624e-05
1.60192e-05 3.06624e-05 0.00101254
0.00307342 0.00236088 1.90601e-05
0.00236088 0.000723786 3.68425e-06
1.90601e-05 3.68425e-06 -4.82708e-07
0.0020731 0.0014073 -3.39136e-05
0.0014073 0.000925243 -0.000111582
-3.39136e-05 -0.000111582 0.000243027
0.00632892 0.00497925 5.4206e-05
0.00497925 -0.0054017 0.000118961
5.4206e-05 0.000118961 0.000465162
0.0124339 0.0104034 0.000741871
0.0104034 -0.00769843 0.000332653
0.000741871 0.000332653 -0.00320257
0.0238134 -0.0120478 0.00180551
-0.0120478 0.0158129 -0.000802089
0.00180551 -0.000802089 0.00187598
0.00189622 0.0159006 0.00183673
0.0159006 -0.00517497 0.00056473
0.00183673 0.00056473 -0.00502803
-0.000898631 0.00462673 1.17312e-05
0.00462673 0.000746079 5.09852e-05
1.17312e-05 5.09852e-05 0.000185832
0.00339541 0.00567726 -0.000169967
0.00567726 -0.00210349 -0.000147571
-0.000169967 -0.000147571 0.000114839
0.00785873 0.00456334 4.62681e-05
0.00456334 0.000775949 2.10009e-05
4.62681e-05 2.10009e-05 0.000683365
0.0060058 0.00334085 1.50915e-05
0.00334085 0.00198233 1.27229e-05
1.50915e-05 1.27229e-05 0.00111548
0.00174307 0.00188494 1.76751e-06
0.00188494 0.00052253 -3.99306e-05
1.76751e-06 -3.99306e-05 -0.000160078
0.00897011 0.00542065 -0.000141916
0.00542065 0.00248741 0.000103918
-0.000141916 0.000103918 0.00100445
0.00680492 -0.000968965 0.000307574
-0.000968965 -0.00488295 9.39634e-05
0.000307574 9.39634e-05 0.00043457
0.017826 -0.00030379 7.33717e-05
-0.00030379 -0.00296399 -6.73356e-05
7.33717e-05 -6.73356e-05 0.000267061
-0.005263 -0.00528826 0.00268231
-0.00528826 0.00582138 -0.000265007
0.00268231 -0.000265007 -0.00742304
0.00423162 -0.00412635 -0.000187739
-0.00412635 -0.00019728 0.000105386
-0.000187739 0.000105386 8.95839e-05
0.00734232 -0.00605311 -0.000216378
-0.00605311 -0.003684 0.000227074
-0.000216378 0.000227074 0.000650235
0.00245808 -0.00142033 -0.000611102
-0.00142033 -0.0148934 7.24142e-05
-0.000611102 7.24142e-05 -0.0100042
0.0044513 -0.00303101 6.20153e-05
-0.00303101 -0.00125307 -3.05331e-06
6.20153e-05 -3.05331e-06 0.000275333
0.00507272 -0.00245307 -0.000118874
-0.00245307 -0.00432106 3.56625e-05
-0.000118874 3.56625e-05 -0.00015441
0.00543173 -0.00197617 6.80587e-05
-0.00197617 -0.000367706 -7.40029e-05
6.80587e-05 -7.40029e-05 0.000932235
0.0101252 -0.00169309 0.000216842
-0.00169309 0.00140544 2.78809e-06
0.000216842 2.78809e-06 0.00341601
-0.00117563 -0.00129154 5.15747e-05
-0.00129154 -0.00269725 1.89811e-05
5.15747e-05 1.89811e-05 -0.00206114
0.00288712 -0.00131099 -1.84699e-05
-0.00131099 -0.000375824 2.70833e-06
-1.84699e-05 2.70833e-06 0.000111775
0.00308202 -0.000899132 3.38794e-05
-0.000899132 -0.000333463 -1.80719e-05
3.38794e-05 -1.80719e-05 0.000179022
0.00262742 -0.00145561 -8.97091e-07
-0.00145561 -0.000143265 3.8754e-06
-8.97091e-07 3.8754e-06 -0.000256856
0.00315514 -0.00107834 2.65686e-07
-0.00107834 -4.62342e-05 7.44099e-07
2.65686e-07 7.44099e-07 0.000118124
0.00301887 -0.00087939 -1.9746e-06
-0.00087939 -0.000138653 -6.20203e-07
-1.9746e-06 -6.20203e-07 -2.02319e-06
0.00274434 -0.000999835 7.67251e-07
-0.000999835 -0.000125631 3.37289e-06
7.67251e-07 3.37289e-06 -7.0683e-05
0.00287618 -0.000945964 -9.77494e-08
-0.000945964 -4.16319e-05 1.46744e-07
-9.77494e-08 1.46744e-07 1.88609e-05
0.00278701 -0.000785922 -2.29866e-06
-0.000785922 -8.04588e-05 -4.10631e-07
-2.29866e-06 -4.10631e-07 -3.03085e-05
0.00275428 -0.00095152 1.59657e-06
-0.00095152 6.80715e-05 1.53276e-06
1.59657e-06 1.53276e-06 1.79653e-05
0.00281592 -0.000916162 -2.05739e-07
-0.000916162 5.92907e-05 -3.05595e-07
-2.05739e-07 -3.05595e-07 1.8027e-05
0.00273584 -0.000787642 1.12576e-06
-0.000787642 8.56029e-05 -1.40122e-06
1.12576e-06 -1.40122e-06 3.47273e-05
0.00264365 -0.00092763 -1.74065e-06
-0.00092763 6.1206e-05 1.87011e-06
-1.74065e-06 1.87011e-06 -4.50604e-05
0.00262349 -0.000877175 -1.37053e-06
-0.000877175 9.65388e-05 4.08153e-07
-1.37053e-06 4.08153e-07 -2.95814e-05
0.00259006 -0.000808057 -1.22457e-06
-0.000808057 0.000190539 -2.33318e-07
-1.22457e-06 -2.33318e-07 2.25986e-05
0.00259622 -0.000883357 3.17565e-06
-0.000883357 0.000195767 1.11951e-06
3.17565e-06 1.11951e-06 3.42568e-05
0.0025509 -0.000857414 4.31761e-07
-0.000857414 0.000246594 -3.08901e-07
4.31761e-07 -3.08901e-07 2.22832e-05
0.00247874 -0.000849338 -1.02033e-06
-0.000849338 0.000246191 -5.32445e-07
-1.02033e-06 -5.32445e-07 -4.03519e-05
0.00234178 -0.000868437 3.68174e-06
-0.000868437 0.000288192 -8.27153e-06
3.68174e-06 -8.27153e-06 -0.000120046
0.00254192 -0.000904956 2.91518e-07
-0.000904956 0.000321063 -1.56274e-06
2.91518e-07 -1.56274e-06 -4.33982e-05
0.00274385 -0.000877503 5.72266e-06
-0.000877503 0.000388278 5.69668e-07
5.72266e-06 5.69668e-07 7.98167e-05
0.00151414 -0.00073792 -1.84947e-05
-0.00073792 2.32794e-05 6.88393e-07
-1.84947e-05 6.88393e-07 -0.000461493
0.00266097 -0.00107829 -7.20458e-07
-0.00107829 0.000555123 5.44482e-07
-7.20458e-07 5.44482e-07 -8.30636e-06
0.00255498 -0.00109021 2.12768e-06
-0.00109021 0.000330589 5.08958e-06
2.12768e-06 5.08958e-06 -0.000189009
1.02199e-05 -0.000315553 -1.97721e-05
-0.000315553 -0.000459311 3.10132e-05
-1.97721e-05 3.10132e-05 -0.000718461
0.00136665 -0.000722701 9.3612e-07
-0.000722701 9.99076e-05 1.71383e-06
9.3612e-07 1.71383e-06 -0.000441893
0.00317944 -0.00134025 -7.93046e-07
-0.00134025 0.00105165 1.02742e-05
-7.93046e-07 1.02742e-05 0.000312427
0.0096498 -0.000136257 -0.000411955
-0.000136257 0.00607993 4.5312e-05
-0.000411955 4.5312e-05 0.00610077
-1.38618e-05 -0.000307862 2.91103e-06
-0.000307862 -0.000427495 1.06485e-06
2.91103e-06 1.06485e-06 -0.000683178
0.00154688 -0.000614779 2.04051e-05
-0.000614779 0.00038458 4.00356e-06
2.04051e-05 4.00356e-06 -0.000119717
0.00909328 -3.56844e-05 -2.75537e-05
-3.56844e-05 0.00577318 -6.57963e-07
-2.75537e-05 -6.57963e-07 0.0057778
0.000280926 -0.000304986 1.85338e-05
-0.000304986 -0.000235515 -3.22272e-05
1.85338e-05 -3.22272e-05 -0.000460653
0.00839576 5.39796e-05 0.000324602
5.39796e-05 0.00536496 -4.87283e-05
0.000324602 -4.87283e-05 0.00535542
0.00247751 0.00128198 -1.38061e-05
0.00128198 0.000640569 1.6101e-05
-1.38061e-05 1.6101e-05 -8.21502e-05
0.00295743 0.00141732 3.62711e-06
0.00141732 0.00128482 6.33668e-07
3.62711e-06 6.33668e-07 0.000427083
0.00284876 0.00118655 7.18792e-06
0.00118655 0.00117666 1.81283e-05
7.18792e-06 1.81283e-05 0.000411852
0.00154237 0.00100056 3.80543e-05
0.00100056 0.000606829 -1.35793e-05
3.80543e-05 -1.35793e-05 -0.000170863
0.0013346 0.000691698 1.2089e-07
0.000691698 0.000360408 -2.96599e-06
1.2089e-07 -2.96599e-06 -0.000243232
-0.000290597 0.000469745 -5.24509e-06
0.000469745 -0.000463352 9.73287e-06
-5.24509e-06 9.73287e-06 -0.00100299
0.00341614 0.000467258 -1.88711e-06
0.000467258 0.00186773 -3.35582e-05
-1.88711e-06 -3.35582e-05 0.00141704
0.00164609 0.000423405 8.28326e-06
0.000423405 0.000737041 -4.32041e-06
8.28326e-06 -4.32041e-06 0.000361352
0.000224 0.00032691 -3.98626e-05
0.00032691 -0.000274594 -3.12756e-05
-3.98626e-05 -3.12756e-05 -0.000457211
0.00130347 0.000340257 -5.81057e-06
0.000340257 0.000652868 7.50281e-06
-5.81057e-06 7.50281e-06 0.000269833
0.000648379 0.000296333 -7.61993e-06
0.000296333 7.298e-05 -9.53941e-07
-7.61993e-06 -9.53941e-07 -8.43268e-05
0.00714726 -0.000171566 -0.000220836
-0.000171566 0.00459205 -4.33486e-05
-0.000220836 -4.33486e-05 0.00455355
0.00499564 -0.000171415 -3.07413e-05
-0.000171415 0.00313359 3.58805e-06
-3.07413e-05 3.58805e-06 0.0031063
9.39027e-06 0.000240052 3.43131e-05
0.000240052 -0.000255719 2.75371e-05
3.43131e-05 2.75371e-05 -0.000386388
0.00373836 -0.000124158 6.79002e-05
-0.000124158 0.00226647 1.3196e-05
6.79002e-05 1.3196e-05 0.00225463
0.00192865 0.00155217 0.000235944
0.00155217 -0.00508488 8.76227e-05
0.000235944 8.76227e-05 -0.000272486
0.00370219 0.00110869 0.000328198
0.00110869 -0.0113196 0.000213483
0.000328198 0.000213483 -0.00991946
0.0222951 -0.0129914 -0.000468301
-0.0129914 0.019007 -0.000209501
-0.000468301 -0.000209501 0.00283331
0.00235245 0.00114903 1.18433e-05
0.00114903 0.000333885 1.3123e-05
1.18433e-05 1.3123e-05 -0.000203479
0.00307674 0.00142008 3.51752e-05
0.00142008 0.00157098 -8.49747e-06
3.51752e-05 -8.49747e-06 0.000667682
0.00189638 0.00152629 1.22613e-05
0.00152629 0.000626227 -2.0057e-05
1.22613e-05 -2.0057e-05 -0.000310531
0.00267088 0.00184391 4.04304e-06
0.00184391 0.00101064 2.5893e-06
4.04304e-06 2.5893e-06 0.00010019
0.00260752 0.00146493 1.27225e-06
0.00146493 0.000779191 3.84032e-06
1.27225e-06 3.84032e-06 -4.53983e-06
0.00296588 0.00161449 3.31658e-06
0.00161449 0.000886695 1.486e-05
3.31658e-06 1.486e-05 0.000115832
0.00172072 0.00169805 2.27159e-05
0.00169805 0.000477482 6.75986e-07
2.27159e-05 6.75986e-07 -0.000405347
0.00174197 0.00142253 3.33065e-05
0.00142253 0.000777926 -5.55074e-05
3.33065e-05 -5.55074e-05 -1.88298e-05
0.00262842 0.00177304 7.7529e-07
0.00177304 0.000800606 -1.19099e-06
7.7529e-07 -1.19099e-06 -1.85517e-05
0.000406518 0.0016334 1.11558e-05
0.0016334 -0.000610486 -3.35631e-05
1.11558e-05 -3.35631e-05 -0.00113412
0.00278634 0.00159239 7.0879e-06
0.00159239 0.000719295 1.45091e-06
7.0879e-06 1.45091e-06 -5.30708e-05
0.00422894 0.00165523 8.1039e-05
0.00165523 0.00115255 0.000106898
8.1039e-05 0.000106898 0.000948616
0.00203021 0.00196563 -1.92902e-05
0.00196563 0.000179041 -2.19015e-05
-1.92902e-05 -2.19015e-05 -0.000476148
0.00225848 0.00208391 -2.53668e-05
0.00208391 0.000390353 -6.3188e-06
-2.53668e-05 -6.3188e-06 -0.000229564
0.00233346 0.00218121 1.25315e-05
0.00218121 -0.00309881 6.94249e-05
1.25315e-05 6.94249e-05 -0.000711099
0.006582 0.0053462 -0.000205148
0.0053462 -0.00518313 -0.000101309
-0.000205148 -0.000101309 0.000787534
0.00300322 0.00808313 0.00137965
0.00808313 -0.0147486 0.000427533
0.00137965 0.000427533 -0.00985318
0.0016872 0.00542439 -0.000267513
0.00542439 -0.00210798 -0.000158909
-0.000267513 -0.000158909 -0.00022576
0.00593029 0.00368673 -2.33644e-05
0.00368673 0.000239257 -1.52324e-05
-2.33644e-05 -1.52324e-05 0.000543698
0.00943233 0.0040393 -0.000255958
0.0040393 0.00350157 -9.19469e-05
-0.000255958 -9.19469e-05 0.00245162
0.00644095 0.00016827 -2.11372e-05
0.00016827 -0.00142592 -2.0225e-05
-2.11372e-05 -2.0225e-05 0.000613157
0.00314651 -0.000168903 6.63512e-05
-0.000168903 -0.00452609 2.82126e-05
6.63512e-05 2.82126e-05 -0.000371265
0.0113084 -0.000293006 0.00014181
-0.000293006 -0.00686346 -4.46658e-05
0.00014181 -4.46658e-05 -0.00726114
0.00433106 -0.00289313 -9.95672e-05
-0.00289313 -0.00115772 0.000152735
-9.95672e-05 0.000152735 0.00028026
0.00387115 -0.00246675 -0.000260084
-0.00246675 -0.00564148 0.000129099
-0.000260084 0.000129099 -0.0015676
0.00428202 -0.00179673 4.85442e-06
-0.00179673 -0.000911023 1.10317e-05
4.85442e-06 1.10317e-05 0.000442661
0.00523784 -0.00129321 -0.000101153
-0.00129321 -0.00111481 3.58154e-06
-0.000101153 3.58154e-06 0.000737488
0.00383857 -0.000804349 0.000130687
-0.000804349 -7.11761e-05 -3.67396e-05
0.000130687 -3.67396e-05 0.000522945
0.0034648 -0.000192739 8.12954e-05
-0.000192739 -0.000342355 -7.96226e-06
8.12954e-05 -7.96226e-06 0.000327378
0.00132116 -0.0011116 -1.78963e-05
-0.0011116 -0.00128546 2.22223e-05
-1.78963e-05 2.22223e-05 -0.000596122
0.00300583 -0.000926003 -6.35818e-06
-0.000926003 -0.00034231 1.88235e-06
-6.35818e-06 1.88235e-06 0.000102987
0.00302761 -0.000654362 4.28248e-06
-0.000654362 -0.000267069 -2.61916e-06
4.28248e-06 -2.61916e-06 7.55485e-05
0.00309931 -0.00107367 -1.36779e-06
-0.00107367 -6.75921e-05 1.82397e-06
-1.36779e-06 1.82397e-06 9.82229e-05
0.00301482 -0.000853473 -3.61716e-07
-0.000853473 -9.86172e-05 -2.86138e-07
-3.61716e-07 -2.86138e-07 4.48021e-05
0.00277542 -0.000633718 -2.1833e-06
-0.000633718 -0.000219417 1.64511e-07
-2.1833e-06 1.64511e-07 -4.11014e-05
0.00284596 -0.000942516 6.88749e-07
-0.000942516 -4.81146e-05 5.97149e-07
6.88749e-07 5.97149e-07 2.9311e-06
0.00276575 -0.00078774 -4.61603e-07
-0.00078774 -7.95246e-05 -5.30815e-09
-4.61603e-07 -5.30815e-09 -2.67685e-05
0.0026645 -0.000650417 5.08919e-07
-0.000650417 -1.48866e-05 -6.16077e-07
5.08919e-07 -6.16077e-07 3.48811e-06
0.00280358 -0.000916193 6.75125e-07
-0.000916193 7.80167e-05 1.13504e-06
6.75125e-07 1.13504e-06 2.72989e-05
0.00273366 -0.000787795 9.33929e-07
-0.000787795 8.12526e-05 -1.01695e-07
9.33929e-07 -1.01695e-07 2.94926e-05
0.00255956 -0.00069996 9.52284e-07
-0.00069996 9.46145e-05 -5.80074e-07
9.52284e-07 -5.80074e-07 6.40789e-06
0.00259768 -0.000882594 -1.04763e-06
-0.000882594 7.01479e-05 2.19663e-06
-1.04763e-06 2.19663e-06 -5.22852e-05
0.00254411 -0.000810608 -9.39612e-07
-0.000810608 0.000145894 3.53921e-07
-9.39612e-07 3.53921e-07 -1.55238e-05
0.00251545 -0.00077089 -1.9609e-06
-0.00077089 0.000212535 -1.33945e-07
-1.9609e-06 -1.33945e-07 3.98372e-06
0.00254137 -0.000850352 3.26716e-06
-0.000850352 0.000235659 -2.26256e-07
3.26716e-06 -2.26256e-07 1.83476e-05
0.0025126 -0.000852323 1.20044e-07
-0.000852323 0.000267319 6.63004e-07
1.20044e-07 6.63004e-07 -1.55566e-05
0.00250348 -0.000801535 -3.32382e-07
-0.000801535 0.00036724 -4.16904e-06
-3.32382e-07 -4.16904e-06 2.77179e-05
0.00189369 -0.000665088 -1.88282e-05
-0.000665088 0.000238423 3.80698e-06
-1.88282e-05 3.80698e-06 -0.000168483
0.00243784 -0.000879333 3.09576e-07
-0.000879333 0.000362577 -1.86966e-06
3.09576e-07 -1.86966e-06 -5.70153e-05
0.00245346 -0.000898187 -2.80705e-07
-0.000898187 0.000254697 3.46592e-06
-2.80705e-07 3.46592e-06 -0.000119919
5.36078e-05 -0.000363755 -1.87231e-05
-0.000363755 -0.000462298 2.74001e-05
-1.87231e-05 2.74001e-05 -0.00073477
0.0018105 -0.000751985 -1.53125e-06
-0.000751985 0.000224721 2.25951e-07
-1.53125e-06 2.25951e-07 -0.000257553
0.00284591 -0.00108654 -4.4032e-06
-0.00108654 0.00069489 9.01493e-06
-4.4032e-06 9.01493e-06 0.000131484
0.0102995 -0.000198162 -0.000471102
-0.000198162 0.00647404 5.3742e-05
-0.000471102 5.3742e-05 0.00650224
5.08174e-05 -0.000365694 -9.08481e-07
-0.000365694 -0.000411795 1.33632e-06
-9.08481e-07 1.33632e-06 -0.000690623
0.00181451 -0.000759904 2.39613e-05
-0.000759904 0.000402782 6.68895e-07
2.39613e-05 6.68895e-07 -0.000142616
0.00981756 -0.000162739 -7.87238e-06
-0.000162739 0.00619285 2.06604e-06
-7.87238e-06 2.06604e-06 0.00621426
-0.000253617 -0.000356431 2.35442e-05
-0.000356431 -0.000573872 -3.42858e-05
2.35442e-05 -3.42858e-05 -0.000838116
0.00932448 -6.7506e-05 0.000395145
-6.7506e-05 0.00592012 -5.67068e-05
0.000395145 -5.67068e-05 0.00592781
0.00229164 0.00108077 -4.80756e-06
0.00108077 0.000331863 1.26001e-05
-4.80756e-06 1.26001e-05 -0.000212461
0.00252782 0.00126037 -1.67666e-06
0.00126037 0.000713957 2.36388e-06
-1.67666e-06 2.36388e-06 1.72188e-06
0.00286217 0.00122923 2.99762e-05
0.00122923 0.000919945 2.27474e-05
2.99762e-05 2.27474e-05 0.000214928
0.00224562 0.00128795 6.67389e-06
0.00128795 0.000874891 -1.68611e-05
6.67389e-06 -1.68611e-05 5.58194e-05
0.00281567 0.00118356 7.74901e-06
0.00118356 0.00113036 3.21203e-06
7.74901e-06 3.21203e-06 0.000373443
0.000793427 0.00054246 -4.29009e-05
0.00054246 -9.50125e-05 2.25153e-06
-4.29009e-05 2.25153e-06 -0.000624692
0.00258144 0.000840691 5.54036e-06
0.000840691 0.00112904 -1.51872e-05
5.54036e-06 -1.51872e-05 0.000487584
0.000926551 0.000449561 7.25764e-07
0.000449561 0.000190564 -1.01057e-06
7.25764e-07 -1.01057e-06 -0.00025804
0.000184043 0.000314531 -3.87999e-05
0.000314531 -0.00031942 -3.37772e-05
-3.87999e-05 -3.37772e-05 -0.000513932
0.00170318 0.000560129 -1.62965e-06
0.000560129 0.000769536 -2.13369e-05
-1.62965e-06 -2.13369e-05 0.000380049
0.000684247 0.000335766 6.39091e-06
0.000335766 1.47409e-05 -1.53191e-06
6.39091e-06 -1.53191e-06 -0.000158755
0.0088838 -0.000258573 -0.000251825
-0.000258573 0.00577199 -4.99424e-05
-0.000251825 -4.99424e-05 0.00570528
0.000381132 0.00028154 3.71029e-05
0.00028154 -7.49449e-05 3.21252e-05
3.71029e-05 3.21252e-05 -0.000239211
0.00696973 -0.000241058 -2.38293e-05
-0.000241058 0.00449063 2.03465e-06
-2.38293e-05 2.03465e-06 0.004438
0.00518391 -0.000210965 8.2566e-05
-0.000210965 0.00327256 1.98664e-05
8.2566e-05 1.98664e-05 0.00323457
0.000519118 0.00119724 4.30271e-05
0.00119724 -0.0047222 7.37883e-05
4.30271e-05 7.37883e-05 -0.00153815
0.00633617 0.00166387 8.05894e-05
0.00166387 -0.00441428 3.48688e-05
8.05894e-05 3.48688e-05 0.000927207
0.0183553 0.00151521 1.66172e-05
0.00151521 -0.00290464 0.000222338
1.66172e-05 0.000222338 0.00148961
0.00268514 0.00128481 -2.18051e-06
0.00128481 0.000442455 4.42832e-06
-2.18051e-06 4.42832e-06 -9.92815e-05
0.00281248 0.00119163 2.70361e-06
0.00119163 0.000352918 3.31989e-06
2.70361e-06 3.31989e-06 -3.65789e-05
0.00247566 0.00117166 -9.87713e-07
0.00117166 0.000412898 -3.94269e-06
-9.87713e-07 -3.94269e-06 -0.000123894
0.00343573 0.00192548 3.79701e-05
0.00192548 0.00146238 -3.89669e-06
3.79701e-05 -3.89669e-06 0.000523318
0.00277419 0.00149357 -8.60931e-06
0.00149357 0.000880456 -1.53086e-05
-8.60931e-06 -1.53086e-05 8.56869e-05
0.00308946 0.00167342 8.78715e-06
0.00167342 0.000911949 2.61909e-06
8.78715e-06 2.61909e-06 0.000128371
0.0035705 0.00153741 -1.82699e-05
0.00153741 0.000669722 -3.27368e-06
-1.82699e-05 -3.27368e-06 0.000206417
0.00244843 0.0018481 1.86956e-05
0.0018481 0.000624478 -8.03564e-06
1.86956e-05 -8.03564e-06 -0.000203621
0.00258221 0.00202518 1.21036e-05
0.00202518 0.000614326 0.000109969
1.21036e-05 0.000109969 -7.09726e-05
0.00289781 0.00173687 8.09295e-06
0.00173687 0.000674868 -3.04948e-06
8.09295e-06 -3.04948e-06 -0.000130368
0.00368877 0.00147403 3.50488e-06
0.00147403 0.000545664 3.9349e-05
3.50488e-06 3.9349e-05 0.000345089
0.00312008 0.000826957 0.000105828
0.000826957 0.000333401 1.26464e-05
0.000105828 1.26464e-05 0.000686211
0.000719594 0.00120714 -1.8255e-05
0.00120714 -0.000784762 -4.09906e-05
-1.8255e-05 -4.09906e-05 -0.000766416
0.00115305 0.00177014 -4.08208e-05
0.00177014 -0.000192697 4.22066e-06
-4.08208e-05 4.22066e-06 -0.000827475
0.00529799 0.00243968 6.95588e-05
0.00243968 -0.00128537 2.11665e-05
6.95588e-05 2.11665e-05 0.000900657
0.00936664 0.00506233 -0.000119993
0.00506233 -0.00293478 -0.000104984
-0.000119993 -0.000104984 0.00182955
0.00710531 0.0033012 -0.000162711
0.0033012 0.00144325 -0.00013466
-0.000162711 -0.00013466 0.00177558
0.00391867 0.000109361 0.000139846
0.000109361 -8.31726e-05 1.32507e-05
0.000139846 1.32507e-05 0.000617187
0.00491109 -0.000144515 -0.000198165
-0.000144515 -0.00306308 1.22455e-05
-0.000198165 1.22455e-05 -0.000243216
0.00576139 0.000212707 -0.000130633
0.000212707 -0.00349217 -7.04046e-05
-0.000130633 -7.04046e-05 0.000539027
0.00441818 -0.00179802 -0.000188584
-0.00179802 -0.00071589 0.000126595
-0.000188584 0.000126595 0.000567584
0.000483284 -0.00106159 -0.000113639
-0.00106159 -0.00378553 3.17517e-05
-0.000113639 3.17517e-05 -0.00191221
0.0039379 -0.000794555 1.96879e-05
-0.000794555 -3.81186e-05 -1.26346e-05
1.96879e-05 -1.26346e-05 0.000638179
0.00293107 -0.000201916 -2.44197e-05
-0.000201916 -0.000607318 -2.34814e-06
-2.44197e-05 -2.34814e-06 5.65841e-05
0.00300395 -0.000450612 9.76269e-06
-0.000450612 -0.000501075 -7.95566e-06
9.76269e-06 -7.95566e-06 2.40868e-06
0.00265744 0.000171647 1.10519e-05
0.000171647 -0.000796641 -4.5404e-06
1.10519e-05 -4.5404e-06 -0.000319608
0.00297211 -0.00096254 -2.32934e-05
-0.00096254 -0.000343696 1.33902e-05
-2.32934e-05 1.33902e-05 4.28719e-05
0.00301188 -0.000682185 -3.46101e-06
-0.000682185 -0.000315218 7.93337e-07
-3.46101e-06 7.93337e-07 8.58605e-06
0.00286883 -0.000479803 -2.40021e-06
-0.000479803 -0.000283046 6.76311e-07
-2.40021e-06 6.76311e-07 1.81861e-05
0.00300951 -0.000827007 -1.00151e-06
-0.000827007 -6.63229e-05 2.58325e-07
-1.00151e-06 2.58325e-07 8.93992e-05
0.00277011 -0.000638117 3.32153e-07
-0.000638117 -0.000217431 -2.13624e-07
3.32153e-07 -2.13624e-07 -4.51293e-05
0.00267765 -0.000525876 3.74023e-07
-0.000525876 -0.000123752 2.91725e-07
3.74023e-07 2.91725e-07 1.12418e-05
0.00274564 -0.000790153 3.51193e-07
-0.000790153 -7.93957e-05 8.29534e-07
3.51193e-07 8.29534e-07 -2.33842e-05
0.00266427 -0.000648466 3.83877e-07
-0.000648466 -2.14797e-05 -2.00559e-07
3.83877e-07 -2.00559e-07 -2.74474e-06
0.00252071 -0.000575673 1.25447e-06
-0.000575673 1.73336e-05 -4.62985e-07
1.25447e-06 -4.62985e-07 -6.8895e-06
0.002732 -0.000788266 1.48571e-06
-0.000788266 7.69721e-05 1.0008e-06
1.48571e-06 1.0008e-06 2.42775e-05
0.00255184 -0.000699466 5.17827e-07
-0.000699466 8.54146e-05 -6.07606e-08
5.17827e-07 -6.07606e-08 -2.78963e-06
0.00245476 -0.000644975 -2.39986e-06
-0.000644975 0.000142417 6.71214e-07
-2.39986e-06 6.71214e-07 5.46868e-06
0.00250026 -0.000813591 3.04138e-07
-0.000813591 0.000102588 9.19368e-07
3.04138e-07 9.19368e-07 -5.24723e-05
0.00252917 -0.000779318 2.59657e-07
-0.000779318 0.000216118 -3.34367e-07
2.59657e-07 -3.34367e-07 6.5272e-06
0.00250178 -0.000742054 -8.56945e-07
-0.000742054 0.000301951 -1.82644e-06
-8.56945e-07 -1.82644e-06 1.78428e-05
0.00255583 -0.000856907 1.17707e-06
-0.000856907 0.000296229 9.72432e-07
1.17707e-06 9.72432e-07 1.63419e-05
0.00247869 -0.000802815 -4.15627e-07
-0.000802815 0.00035202 -1.01804e-07
-4.15627e-07 -1.01804e-07 1.37306e-05
0.00176914 -0.000565427 -1.27253e-05
-0.000565427 0.000131857 3.3364e-06
-1.27253e-05 3.3364e-06 -0.000204
0.000276254 -0.000329321 -1.7603e-05
-0.000329321 -0.00035024 2.21855e-05
-1.7603e-05 2.21855e-05 -0.000596062
0.00185879 -0.000660406 -1.60234e-07
-0.000660406 0.000216228 5.65811e-08
-1.60234e-07 5.65811e-08 -0.000188242
0.00255346 -0.000893201 -5.2144e-06
-0.000893201 0.000450737 6.02341e-06
-5.2144e-06 6.02341e-06 1.88542e-05
0.0103103 -0.000274979 -0.000501741
-0.000274979 0.00646701 5.86053e-05
-0.000501741 5.86053e-05 0.00649792
0.000221141 -0.000369592 -6.84017e-07
-0.000369592 -0.000366603 2.10676e-06
-6.84017e-07 2.10676e-06 -0.000632862
0.00200645 -0.000746238 1.84356e-05
-0.000746238 0.000357186 -1.97311e-06
1.84356e-05 -1.97311e-06 -0.00011772
0.010398 -0.000229905 -3.89327e-06
-0.000229905 0.00653934 3.02724e-06
-3.89327e-06 3.02724e-06 0.00656654
0.000137069 -0.000382946 2.09914e-05
-0.000382946 -0.000359637 -3.11795e-05
2.09914e-05 -3.11795e-05 -0.000642927
0.010318 -0.000211041 0.000473371
-0.000211041 0.00651381 -6.11914e-05
0.000473371 -6.11914e-05 0.00653653
0.00251844 0.00111273 3.45307e-06
0.00111273 0.000329828 9.33179e-06
3.45307e-06 9.33179e-06 -0.000122539
0.00236069 0.0010838 2.3635e-06
0.0010838 0.000389739 -8.78861e-07
2.3635e-06 -8.78861e-07 -0.000149431
0.00275904 0.00109214 1.73174e-05
0.00109214 0.000719851 1.85115e-05
1.73174e-05 1.85115e-05 0.000141055
0.00249649 0.00123091 1.42124e-05
0.00123091 0.00072974 -1.12744e-05
1.42124e-05 -1.12744e-05 2.97186e-05
0.0024701 0.00117123 1.38365e-06
0.00117123 0.000657116 5.50875e-07
1.38365e-06 5.50875e-07 -2.90259e-05
0.00157817 0.000697459 -5.45089e-05
0.000697459 0.000260246 -3.62972e-06
-5.45089e-05 -3.62972e-06 -0.000262737
0.00258282 0.00116249 -3.94644e-05
0.00116249 0.00088653 -2.32257e-05
-3.94644e-05 -2.32257e-05 0.000150167
0.000780529 0.000520665 -2.99978e-06
0.000520665 -5.7049e-05 1.03254e-06
-2.99978e-06 1.03254e-06 -0.000579205
-0.000174495 0.000319449 -3.28435e-05
0.000319449 -0.000524112 -3.47963e-05
-3.28435e-05 -3.47963e-05 -0.000756294
0.00149401 0.000290772 6.28705e-06
0.000290772 0.000475753 -9.9168e-06
6.28705e-06 -9.9168e-06 9.25382e-05
0.000208663 0.000298415 5.32312e-06
0.000298415 -0.000304241 3.71726e-07
5.32312e-06 3.71726e-07 -0.000497378
0.00913118 -7.54411e-05 -0.000332727
-7.54411e-05 0.00582055 -4.605e-05
-0.000332727 -4.605e-05 0.00580988
0.000800459 0.000339062 4.89593e-05
0.000339062 9.37878e-05 3.14697e-05
4.89593e-05 3.14697e-05 -6.73663e-05
0.00806849 -0.000179049 8.81124e-06
-0.000179049 0.00517798 -4.79372e-06
8.81124e-06 -4.79372e-06 0.00514096
0.00621154 -0.000280038 0.000117583
-0.000280038 0.00400208 3.11881e-05
0.000117583 3.11881e-05 0.00393566
0.00197148 0.000605472 7.26054e-05
0.000605472 -0.000865568 4.65454e-05
7.26054e-05 4.65454e-05 -0.000109074
0.00148437 0.00136865 5.83141e-05
0.00136865 -0.00452954 -1.20134e-05
5.83141e-05 -1.20134e-05 -0.00144115
0.00667945 0.00271652 0.00028214
0.00271652 -0.0044694 0.000151142
0.00028214 0.000151142 0.0013299
0.00300574 0.00123479 -7.42029e-06
0.00123479 0.000351066 -3.83012e-06
-7.42029e-06 -3.83012e-06 1.53481e-05
0.00278096 0.00131929 -1.03235e-05
0.00131929 0.000495347 -4.55166e-06
-1.03235e-05 -4.55166e-06 -5.18152e-05
0.00265893 0.000886247 4.89144e-06
0.000886247 0.000146347 -5.39966e-08
4.89144e-06 -5.39966e-08 -4.6171e-05
0.00278757 0.00117599 9.22661e-07
0.00117599 0.000333283 3.14551e-07
9.22661e-07 3.14551e-07 -4.21432e-05
0.00258104 0.00118748 -4.62925e-06
0.00118748 0.00048633 -1.34035e-05
-4.62925e-06 -1.34035e-05 -4.6904e-05
0.0031344 0.00106806 -7.32322e-06
0.00106806 0.000140266 -9.9226e-07
-7.32322e-06 -9.9226e-07 5.32363e-05
0.0030658 0.00171694 8.48926e-06
0.00171694 0.000847636 -5.00064e-06
8.48926e-06 -5.00064e-06 5.55976e-05
0.00333924 0.00145157 1.63548e-08
0.00145157 0.000569329 -1.82007e-06
1.63548e-08 -1.82007e-06 0.000133051
0.00247686 0.000675751 -5.80038e-06
0.000675751 -0.000484344 3.4116e-06
-5.80038e-06 3.4116e-06 -0.000176531
0.00255444 0.00182111 -2.3747e-06
0.00182111 0.000371149 2.10067e-05
-2.3747e-06 2.10067e-05 -0.000420806
0.00325885 0.00140917 2.35234e-06
0.00140917 0.000304704 -8.88608e-06
2.35234e-06 -8.88608e-06 0.000126872
0.00102318 0.000794468 -5.83067e-05
0.000794468 -0.00113593 -7.53397e-06
-5.83067e-05 -7.53397e-06 -0.000518674
-0.00373109 0.000693029 -7.17667e-06
0.000693029 -0.00323112 -2.49723e-05
-7.17667e-06 -2.49723e-05 -0.00298917
0.00680357 0.00259607 -0.000281873
0.00259607 -0.000369701 -0.00011362
-0.000281873 -0.00011362 0.00167598
0.00290878 0.000301101 9.70656e-06
0.000301101 -0.000426694 1.7732e-06
9.70656e-06 1.7732e-06 3.9109e-07
0.00382076 0.00012608 -8.09305e-07
0.00012608 -0.000261715 -8.7832e-06
-8.09305e-07 -8.7832e-06 0.000472704
0.00322408 -0.000512529 -0.000286583
-0.000512529 -0.00427167 -3.66596e-05
-0.000286583 -3.66596e-05 -0.00124493
0.00358197 -0.000746647 -0.000158511
-0.000746647 -0.00027673 4.34005e-05
-0.000158511 4.34005e-05 0.000495377
0.00266241 -0.000224982 -3.12371e-05
-0.000224982 -0.000666145 6.77018e-06
-3.12371e-05 6.77018e-06 -4.07598e-05
0.00289401 -0.000484903 8.35582e-06
-0.000484903 -0.000611607 -9.67654e-07
8.35582e-06 -9.67654e-07 -4.98583e-05
0.00304125 0.000184564 -1.69267e-06
0.000184564 -0.000482427 1.80252e-06
-1.69267e-06 1.80252e-06 -5.03048e-05
0.00288611 -8.96034e-05 -3.71617e-07
-8.96034e-05 -0.000385504 -2.11035e-06
-3.71617e-07 -2.11035e-06 1.22214e-05
0.00297225 -0.00070356 -1.71244e-06
-0.00070356 -0.000369974 2.01323e-06
-1.71244e-06 2.01323e-06 -6.53855e-05
0.00280563 -0.000459435 3.79872e-07
-0.000459435 -0.000312024 -3.21324e-07
3.79872e-07 -3.21324e-07 -1.63179e-05
0.00268577 -0.000340826 1.35008e-07
-0.000340826 -0.000191893 1.01586e-07
1.35008e-07 1.01586e-07 3.65158e-05
0.00276683 -0.000642403 1.57971e-06
-0.000642403 -0.000211843 2.72918e-07
1.57971e-06 2.72918e-07 -4.72884e-05
0.00266028 -0.000525223 3.40249e-07
-0.000525223 -0.000130658 9.96149e-08
3.40249e-07 9.96149e-08 -1.13898e-06
0.00250141 -0.000442285 1.17137e-06
-0.000442285 -5.17833e-05 -7.23664e-08
1.17137e-06 -7.23664e-08 -1.92068e-06
0.00266567 -0.000646404 1.01322e-07
-0.000646404 -2.71671e-05 1.45536e-07
1.01322e-07 1.45536e-07 -8.09634e-06
0.00251879 -0.000575725 2.62326e-07
-0.000575725 1.38338e-05 -7.23628e-08
2.62326e-07 -7.23628e-08 -1.06254e-05
0.00238749 -0.00051718 -2.59619e-06
-0.00051718 6.8973e-05 5.9711e-07
-2.59619e-06 5.9711e-07 -7.58923e-06
0.00254433 -0.000699032 1.11325e-07
-0.000699032 7.62445e-05 3.04566e-07
1.11325e-07 3.04566e-07 -1.19824e-05
0.00246363 -0.000648422 4.2766e-07
-0.000648422 0.000142162 -1.96706e-07
4.2766e-07 -1.96706e-07 3.47296e-06
0.00246565 -0.000633415 -1.91875e-06
-0.000633415 0.000226755 -5.47666e-07
-1.91875e-06 -5.47666e-07 1.08561e-05
0.00253979 -0.000787435 1.66198e-06
-0.000787435 0.000217116 -1.45974e-07
1.66198e-06 -1.45974e-07 6.86789e-06
0.00247511 -0.000735041 -5.80673e-07
-0.000735041 0.000292682 -5.17049e-08
-5.80673e-07 -5.17049e-08 1.07695e-05
0.00174772 -0.00050276 -9.06442e-06
-0.00050276 8.38317e-05 2.72784e-06
-9.06442e-06 2.72784e-06 -0.000203129
0.00244519 -0.000801768 -8.30887e-07
-0.000801768 0.000331812 2.95065e-06
-8.30887e-07 2.95065e-06 -4.44351e-06
0.00178977 -0.000567714 -9.06002e-08
-0.000567714 0.000139073 1.95255e-08
-9.06002e-08 1.95255e-08 -0.000196174
0.00328819 -0.000353861 -6.93104e-05
-0.000353861 0.00164393 1.78543e-05
-6.93104e-05 1.78543e-05 0.00145178
0.00375641 -0.00020772 -0.000406437
-0.00020772 0.00212844 6.89704e-05
-0.000406437 6.89704e-05 0.00211
0.0018642 -0.000364698 -2.50012e-05
-0.000364698 0.000702264 8.20245e-07
-2.50012e-05 8.20245e-07 0.000471511
0.00178719 -0.000650787 1.61824e-05
-0.000650787 0.000172361 -3.30967e-06
1.61824e-05 -3.30967e-06 -0.000228397
0.0100726 -0.000279361 -5.17252e-06
-0.000279361 0.00632336 3.99378e-06
-5.17252e-06 3.99378e-06 0.00635082
0.000302864 -0.000396943 2.48825e-05
-0.000396943 -0.000304922 -2.5714e-05
2.48825e-05 -2.5714e-05 -0.000577553
0.0104199 -0.000245031 0.000484713
-0.000245031 0.0065579 -6.37775e-05
0.000484713 -6.37775e-05 0.00658122
0.00249418 0.000683844 1.96343e-06
0.000683844 7.2589e-05 -1.46646e-06
1.96343e-06 -1.46646e-06 -5.42753e-05
0.00264338 0.000947198 6.92516e-06
0.000947198 0.000312844 4.76092e-06
6.92516e-06 4.76092e-06 1.85653e-05
0.00267694 0.00112398 4.89206e-07
0.00112398 0.000430449 -6.50899e-07
4.89206e-07 -6.50899e-07 -1.29906e-05
0.00272258 0.00100646 1.04348e-05
0.00100646 0.000626298 1.33753e-05
1.04348e-05 1.33753e-05 0.000142615
0.0024829 0.00109803 5.62394e-06
0.00109803 0.000476613 -1.39743e-05
5.62394e-06 -1.39743e-05 -6.16707e-05
0.0024989 0.00106044 1.8682e-06
0.00106044 0.000538684 7.94895e-07
1.8682e-06 7.94895e-07 -2.9745e-05
0.00175062 0.00074314 -4.01058e-05
0.00074314 0.000288261 -3.70576e-06
-4.01058e-05 -3.70576e-06 -0.00021321
0.00238187 0.00114953 -2.65845e-05
0.00114953 0.000605668 -2.08392e-05
-2.65845e-05 -2.08392e-05 -7.24988e-05
0.00153288 0.000699939 -1.17894e-06
0.000699939 0.000190805 -5.7309e-08
-1.17894e-06 -5.7309e-08 -0.000329304
-1.45981e-05 0.000373942 -3.04996e-05
0.000373942 -0.000436934 -3.20709e-05
-3.04996e-05 -3.20709e-05 -0.000706273
0.00154344 0.000495243 4.35997e-05
0.000495243 0.000447042 1.21629e-06
4.35997e-05 1.21629e-06 -4.55537e-05
0.000114953 0.000292386 2.90907e-06
0.000292386 -0.000350786 -1.26054e-08
2.90907e-06 -1.26054e-08 -0.000578295
0.0101441 9.75725e-05 -0.000433408
9.75725e-05 0.00641945 -5.61956e-05
-0.000433408 -5.61956e-05 0.00643177
0.000495777 0.000282157 2.98886e-05
0.000282157 -0.000123625 3.08435e-05
2.98886e-05 3.08435e-05 -0.000314242
0.00914507 -8.44064e-05 1.82156e-05
-8.44064e-05 0.00582137 -3.24335e-06
1.82156e-05 -3.24335e-06 0.00581291
0.0080712 -0.000214467 0.000211132
-0.000214467 0.00517328 3.0885e-05
0.000211132 3.0885e-05 0.00513667
0.00264457 0.000351688 3.5734e-06
0.000351688 -0.000533231 5.70144e-06
3.5734e-06 5.70144e-06 -0.000109469
0.00132261 0.000526185 -9.54658e-06
0.000526185 -0.00171788 -1.13128e-05
-9.54658e-06 -1.13128e-05 -0.000648874
0.00325666 0.00167011 -0.000240125
0.00167011 -0.00406188 -9.30967e-05
-0.000240125 -9.30967e-05 -0.000805186
0.00274598 0.000832071 -2.32092e-06
0.000832071 8.70596e-05 -3.0354e-06
-2.32092e-06 -3.0354e-06 -3.07212e-06
0.00287216 0.00120278 -5.05377e-06
0.00120278 0.000300642 -7.03786e-07
-5.05377e-06 -7.03786e-07 -2.47226e-05
0.00288105 0.00135728 -2.65614e-07
0.00135728 0.000547605 -3.91894e-06
-2.65614e-07 -3.91894e-06 -5.62913e-06
0.00262732 0.000871176 1.64855e-06
0.000871176 0.000152035 9.02606e-07
1.64855e-06 9.02606e-07 -4.51967e-05
0.00276589 0.00116265 -2.09363e-06
0.00116265 0.00031723 -5.38228e-06
-2.09363e-06 -5.38228e-06 -4.63946e-05
0.0029925 0.000669835 3.19465e-06
0.000669835 -9.36944e-05 1.10084e-06
3.19465e-06 1.10084e-06 9.76941e-05
0.00302877 0.00105603 -2.04666e-06
0.00105603 9.69441e-05 6.78052e-07
-2.04666e-06 6.78052e-07 2.67576e-05
0.00308631 0.00136669 8.2269e-06
0.00136669 0.000454389 1.40729e-06
8.2269e-06 1.40729e-06 4.44226e-05
0.00235826 0.000612776 3.70917e-07
0.000612776 -0.000475751 1.47065e-06
3.70917e-07 1.47065e-06 -0.000146076
0.00274902 0.00129552 8.60263e-06
0.00129552 1.27109e-05 -1.35097e-05
8.60263e-06 -1.35097e-05 -0.000127061
-0.00125847 0.000649349 -2.62569e-05
0.000649349 -0.00291433 -4.8255e-06
-2.62569e-05 -4.8255e-06 -0.00173967
0.00279544 0.000162315 3.05496e-06
0.000162315 -0.000310123 -1.25149e-07
3.05496e-06 -1.25149e-07 2.14801e-05
0.00288694 0.000282845 2.20699e-06
0.000282845 -0.000453115 -1.49255e-06
2.20699e-06 -1.49255e-06 -2.03204e-05
0.00370905 0.000127206 -0.000113403
0.000127206 -0.000403337 9.69542e-06
-0.000113403 9.69542e-06 0.000335304
0.00276279 -0.000531163 -3.11467e-05
-0.000531163 -0.000765666 1.12097e-05
-3.11467e-05 1.12097e-05 -0.000133722
0.0033557 0.000203727 -4.84995e-06
0.000203727 -0.000237808 4.44883e-06
-4.84995e-06 4.44883e-06 0.000163914
0.00289218 -8.76386e-05 -9.79137e-07
-8.76386e-05 -0.000391141 -9.65409e-07
-9.79137e-07 -9.65409e-07 1.40192e-06
0.00256317 -9.4923e-05 -2.95302e-07
-9.4923e-05 -0.000220798 2.56615e-07
-2.95302e-07 2.56615e-07 -7.00881e-06
0.00272998 -0.000437904 2.46796e-06
-0.000437904 -0.000350146 -1.50425e-06
2.46796e-06 -1.50425e-06 -5.87909e-05
0.00264824 -0.000352483 2.40876e-08
-0.000352483 -0.000209687 8.56541e-08
2.40876e-08 8.56541e-08 6.51095e-06
0.00245574 -0.000291395 1.83619e-06
-0.000291395 -0.000103509 -5.225e-07
1.83619e-06 -5.225e-07 -7.95005e-06
0.00264066 -0.000524417 -8.27353e-07
-0.000524417 -0.00013895 -4.60579e-08
-8.27353e-07 -4.60579e-08 -1.48147e-05
0.0025026 -0.000441127 3.18977e-08
-0.000441127 -5.40101e-05 6.25095e-08
3.18977e-08 6.25095e-08 -4.25745e-06
0.00234064 -0.000395422 -2.81369e-06
-0.000395422 8.02918e-07 3.91134e-07
-2.81369e-06 3.91134e-07 -2.03193e-05
0.00251701 -0.000575785 -5.90305e-07
-0.000575785 1.02139e-05 1.53811e-07
-5.90305e-07 1.53811e-07 -1.44776e-05
0.00238093 -0.000517517 1.84089e-07
-0.000517517 5.96785e-05 5.56775e-08
1.84089e-07 5.56775e-08 -1.71935e-05
0.00246594 -0.000509595 -3.44811e-06
-0.000509595 0.000187172 6.2938e-07
-3.44811e-06 6.2938e-07 4.02348e-05
0.00247392 -0.000651942 2.41543e-06
-0.000651942 0.00014318 -8.51143e-07
2.41543e-06 -8.51143e-07 2.71366e-06
0.00245827 -0.000628131 -3.06614e-07
-0.000628131 0.000232198 -3.50617e-07
-3.06614e-07 -3.50617e-07 1.79361e-05
0.00175096 -0.000424824 -8.1117e-06
-0.000424824 5.52186e-05 1.7465e-06
-8.1117e-06 1.7465e-06 -0.000182489
0.00244634 -0.000727914 5.48744e-07
-0.000727914 0.000281807 1.32264e-06
5.48744e-07 1.32264e-06 2.10899e-06
0.00179631 -0.000507939 -9.02867e-08
-0.000507939 0.000107926 2.68008e-07
-9.02867e-08 2.68008e-07 -0.000179111
0.00308262 -0.000312752 -7.30072e-05
-0.000312752 0.00150633 1.60415e-05
-7.30072e-05 1.60415e-05 0.00134028
0.00180337 -0.000571284 1.13349e-05
-0.000571284 0.000137958 -3.52672e-06
1.13349e-05 -3.52672e-06 -0.000197252
0.00339425 -0.000382106 6.5671e-05
-0.000382106 0.00171811 -1.21234e-05
6.5671e-05 -1.21234e-05 0.00154124
0.00318529 -0.000204391 -0.000360386
-0.000204391 0.00177341 6.56946e-05
-0.000360386 6.56946e-05 0.00174853
0.00632367 -0.000252591 -0.000342791
-0.000252591 0.00385708 4.91038e-05
-0.000342791 4.91038e-05 0.00385608
0.00357697 -0.000452044 0.000215193
-0.000452044 0.00184822 -4.1582e-05
0.000215193 -4.1582e-05 0.00165866
0.00980206 -0.000274999 0.000463298
-0.000274999 0.00615459 -6.36955e-05
0.000463298 -6.36955e-05 0.0061756
0.00256321 0.000666328 -1.5767e-06
0.000666328 8.12243e-05 -2.53461e-06
-1.5767e-06 -2.53461e-06 1.55968e-05
0.00260273 0.000746622 2.01444e-06
0.000746622 0.000301465 6.828e-07
2.01444e-06 6.828e-07 9.90149e-05
0.00252188 0.000670522 4.16976e-07
0.000670522 0.000105277 -2.66672e-07
4.16976e-07 -2.66672e-07 -1.52001e-05
0.00245427 0.000840908 4.3394e-06
0.000840908 0.000368224 8.31725e-06
4.3394e-06 8.31725e-06 4.79997e-06
0.00265532 0.000942547 3.00851e-07
0.000942547 0.000312619 -3.41417e-07
3.00851e-07 -3.41417e-07 1.99762e-05
0.00286353 0.0011393 -3.54504e-06
0.0011393 0.000548305 -8.56362e-06
-3.54504e-06 -8.56362e-06 0.000112373
0.00241563 0.000976284 8.46729e-07
0.000976284 0.000411721 5.5391e-08
8.46729e-07 5.5391e-08 -6.50008e-05
0.00173825 0.000702591 -2.44134e-05
0.000702591 0.000166265 -2.46706e-06
-2.44134e-05 -2.46706e-06 -0.000276303
0.00216458 0.00101523 -1.63669e-05
0.00101523 0.000314227 -1.74291e-05
-1.63669e-05 -1.74291e-05 -0.000239644
0.00180755 0.000786078 -2.1702e-06
0.000786078 0.000300491 7.06944e-07
-2.1702e-06 7.06944e-07 -0.000218239
0.000264654 0.000403639 -2.76836e-05
0.000403639 -0.000315106 -2.69535e-05
-2.76836e-05 -2.69535e-05 -0.00059312
0.00127167 0.000668405 5.26923e-05
0.000668405 -1.14069e-05 2.98246e-06
5.26923e-05 2.98246e-06 -0.0005164
-7.96568e-05 0.000328098 9.93786e-07
0.000328098 -0.000491029 1.82342e-06
9.93786e-07 1.82342e-06 -0.000745946
0.0104081 0.000203819 -0.000464141
0.000203819 0.00656064 -6.37903e-05
-0.000464141 -6.37903e-05 0.00657567
0.000208357 0.000257552 2.91e-05
0.000257552 -0.000313568 3.34323e-05
2.91e-05 3.34323e-05 -0.00052656
0.00953296 4.09544e-05 1.22952e-05
4.09544e-05 0.00602043 -1.13254e-06
1.22952e-05 -1.13254e-06 0.00603144
0.00862151 -8.59102e-05 0.000300519
-8.59102e-05 0.00546431 3.10811e-05
0.000300519 3.10811e-05 0.00546078
0.00284685 0.00042911 2.88236e-06
0.00042911 -0.000206468 5.89333e-07
2.88236e-06 5.89333e-07 5.34706e-05
0.00250701 0.000362393 2.01798e-06
0.000362393 -0.000532524 -2.91478e-06
2.01798e-06 -2.91478e-06 -0.000112644
-4.60709e-05 0.000486305 -6.15968e-05
0.000486305 -0.0029718 -1.17279e-05
-6.15968e-05 -1.17279e-05 -0.00163316
0.00265692 0.000585675 1.55393e-06
0.000585675 -7.32e-05 -4.86881e-07
1.55393e-06 -4.86881e-07 2.52968e-06
0.00267541 0.00083153 -9.28833e-07
0.00083153 4.7802e-05 9.80051e-07
-9.28833e-07 9.80051e-07 -3.35757e-05
0.00275398 0.00116921 7.01385e-06
0.00116921 0.000261109 1.06317e-06
7.01385e-06 1.06317e-06 -5.23739e-05
0.00260454 0.000856272 -4.10322e-06
0.000856272 0.000162939 1.21849e-07
-4.10322e-06 1.21849e-07 -3.89281e-05
0.00289673 0.000659754 -2.32803e-06
0.000659754 -0.000153025 4.33375e-09
-2.32803e-06 4.33375e-09 3.09118e-05
0.00293526 0.00104308 4.17888e-06
0.00104308 6.80671e-05 3.26658e-07
4.17888e-06 3.26658e-07 1.21946e-05
0.00226263 0.0006182 2.59421e-06
0.0006182 -0.00041831 -8.3136e-06
2.59421e-06 -8.3136e-06 -9.74002e-05
0.00261535 0.000127988 1.0707e-06
0.000127988 -0.000204899 1.48331e-07
1.0707e-06 1.48331e-07 1.79956e-06
0.002761 0.000165905 -3.27423e-07
0.000165905 -0.000310676 7.99796e-08
-3.27423e-07 7.99796e-08 1.09011e-05
0.00285016 0.000280397 -2.02377e-05
0.000280397 -0.000478068 1.68488e-06
-2.02377e-05 1.68488e-06 -4.67546e-05
0.00241154 -1.12289e-05 -2.44726e-07
-1.12289e-05 -0.000192199 1.96905e-07
-2.44726e-07 1.96905e-07 -3.67129e-05
0.00292699 -8.92013e-05 8.85163e-07
-8.92013e-05 -0.000373078 1.32022e-06
8.85163e-07 1.32022e-06 1.11095e-05
0.00257493 -9.97555e-05 3.07116e-08
-9.97555e-05 -0.000211575 1.59282e-07
3.07116e-08 1.59282e-07 8.24084e-07
0.00242779 -0.000152755 4.33288e-07
-0.000152755 -0.000117381 9.99735e-08
4.33288e-07 9.99735e-08 -7.80138e-06
0.00261019 -0.000363804 -5.08549e-10
-0.000363804 -0.000228064 -2.00153e-07
-5.08549e-10 -2.00153e-07 -2.38833e-05
0.00246115 -0.000287734 5.70289e-07
-0.000287734 -0.000102439 -4.6065e-07
5.70289e-07 -4.6065e-07 -6.02947e-06
0.00230104 -0.000272534 -2.2269e-06
-0.000272534 -4.0762e-05 3.98202e-07
-2.2269e-06 3.98202e-07 -2.60526e-05
0.00250573 -0.00043978 -8.05422e-07
-0.00043978 -5.49505e-05 1.23484e-07
-8.05422e-07 1.23484e-07 -5.28682e-06
0.00234288 -0.000394119 1.31156e-08
-0.000394119 4.13672e-07 -7.07532e-08
1.31156e-08 -7.07532e-08 -2.01421e-05
0.00246721 -0.000394705 -4.07972e-06
-0.000394705 0.000152523 7.08231e-07
-4.07972e-06 7.08231e-07 5.79122e-05
0.00237536 -0.000518019 2.85289e-06
-0.000518019 5.09982e-05 -5.82827e-07
2.85289e-06 -5.82827e-07 -2.6263e-05
0.0024471 -0.000506211 -6.79923e-08
-0.000506211 0.000180538 -1.40848e-07
-6.79923e-08 -1.40848e-07 3.35226e-05
0.00173813 -0.000339588 -6.80611e-06
-0.000339588 2.86993e-05 1.19201e-06
-6.80611e-06 1.19201e-06 -0.000163796
0.00245058 -0.000622758 1.69194e-06
-0.000622758 0.00023757 -3.08928e-07
1.69194e-06 -3.08928e-07 2.49688e-05
0.00179429 -0.000429503 -3.97889e-07
-0.000429503 7.13379e-05 2.02926e-07
-3.97889e-07 2.02926e-07 -0.000166321
0.00291628 -0.000274426 -7.61109e-05
-0.000274426 0.00140414 1.45179e-05
-7.61109e-05 1.45179e-05 0.00125968
0.00184538 -0.000513357 8.02466e-06
-0.000513357 0.000131846 -2.56562e-06
8.02466e-06 -2.56562e-06 -0.000155256
0.0031963 -0.000328066 5.91021e-05
-0.000328066 0.0015817 -9.29031e-06
5.91021e-05 -9.29031e-06 0.00143131
0.00304386 -0.000168728 -0.000342352
-0.000168728 0.00167881 5.46746e-05
-0.000342352 5.46746e-05 0.00165971
0.00348573 -0.000381317 0.000202532
-0.000381317 0.00177285 -3.98803e-05
0.000202532 -3.98803e-05 0.00161589
0.00272924 -0.000136156 -0.000133342
-0.000136156 0.00147052 2.3145e-05
-0.000133342 2.3145e-05 0.0014237
0.00872229 -0.000196357 0.000175677
-0.000196357 0.00544137 -1.6085e-05
0.000175677 -1.6085e-05 0.00541277
0.00251849 0.000564481 -6.47632e-07
0.000564481 3.75546e-05 -6.71792e-07
-6.47632e-07 -6.71792e-07 6.90752e-06
0.00250008 0.000628163 -2.99638e-06
0.000628163 0.00017999 -2.16172e-06
-2.99638e-06 -2.16172e-06 6.13233e-05
0.00260393 0.000662103 -2.23427e-06
0.000662103 0.000111729 4.99342e-08
-2.23427e-06 4.99342e-08 3.84731e-05
0.00240688 0.000708198 -1.21299e-07
0.000708198 0.000281241 2.03307e-06
-1.21299e-07 2.03307e-06 -2.79597e-07
0.00252653 0.000746108 -6.03564e-07
0.000746108 0.000217018 -1.56438e-06
-6.03564e-07 -1.56438e-06 3.44306e-05
0.00253847 0.000655457 -4.05111e-06
0.000655457 0.000130491 -2.02779e-07
-4.05111e-06 -2.02779e-07 1.69055e-05
0.0018085 0.00059958 -1.67633e-05
0.00059958 0.000116632 -2.717e-06
-1.67633e-05 -2.717e-06 -0.000235335
0.00239137 0.000841743 1.60461e-06
0.000841743 0.000312396 1.24105e-07
1.60461e-06 1.24105e-07 -5.28912e-05
0.00264943 0.000937483 -3.55992e-06
0.000937483 0.000297419 -2.88256e-06
-3.55992e-06 -2.88256e-06 7.18197e-06
0.00208575 0.000941618 -9.45647e-06
0.000941618 0.000183983 -1.43745e-05
-9.45647e-06 -1.43745e-05 -0.000283897
0.00187344 0.000718633 -3.88803e-07
0.000718633 0.000257188 1.13695e-07
-3.88803e-07 1.13695e-07 -0.000191549
0.000428683 0.000381454 -2.38051e-05
0.000381454 -0.000240353 -2.29184e-05
-2.38051e-05 -2.29184e-05 -0.000500372
0.00196279 0.000842096 4.31066e-05
0.000842096 0.000364242 6.56171e-06
4.31066e-05 6.56171e-06 -0.000174923
0.000141507 0.000379099 -1.86532e-07
0.000379099 -0.000383857 1.82254e-06
-1.86532e-07 1.82254e-06 -0.000657456
0.00988601 0.000274425 -0.00044995
0.000274425 0.00622325 -6.84597e-05
-0.00044995 -6.84597e-05 0.00623103
2.95793e-05 0.000302254 2.8655e-05
0.000302254 -0.000426104 3.19009e-05
2.8655e-05 3.19009e-05 -0.000676114
0.010352 0.000157983 8.4989e-06
0.000157983 0.00651782 2.32815e-06
8.4989e-06 2.32815e-06 0.00653862
0.00947812 7.27367e-06 0.000363557
7.27367e-06 0.00597914 3.39059e-05
0.000363557 3.39059e-05 0.00599297
0.00257095 0.000336975 3.60912e-07
0.000336975 -0.000150529 2.16585e-07
3.60912e-07 2.16585e-07 -3.42089e-06
0.00278646 0.000437881 -9.61756e-07
0.000437881 -0.00028218 8.10659e-07
-9.61756e-07 8.10659e-07 -8.36344e-06
0.00243022 0.000332366 -9.33623e-06
0.000332366 -0.000523473 -2.55241e-06
-9.33623e-06 -2.55241e-06 -9.49103e-05
0.00264096 0.000581033 -6.35684e-07
0.000581033 -7.71999e-05 5.1244e-07
-6.35684e-07 5.1244e-07 -1.32265e-06
0.00259698 0.000831545 4.7288e-07
0.000831545 3.2131e-06 1.22515e-06
4.7288e-07 1.22515e-06 -6.8659e-05
0.00280748 0.000646481 1.98512e-06
0.000646481 -0.000218123 -1.24092e-06
1.98512e-06 -1.24092e-06 -3.78428e-05
0.00250161 0.000115349 7.48932e-07
0.000115349 -0.000123875 3.31157e-08
7.48932e-07 3.31157e-08 1.0774e-05
0.00262344 0.000125863 -1.01885e-07
0.000125863 -0.000190747 -1.67884e-07
-1.01885e-07 -1.67884e-07 1.2388e-05
0.00270654 0.00016687 -2.46478e-06
0.00016687 -0.000329929 -4.64609e-08
-2.46478e-06 -4.64609e-08 -1.60066e-05
0.00245101 -6.30449e-06 -6.40164e-07
-6.30449e-06 -0.000158669 3.81035e-08
-6.40164e-07 3.81035e-08 -7.41053e-06
0.00237714 -3.34808e-05 -2.36119e-07
-3.34808e-05 -8.53479e-05 -1.85208e-08
-2.36119e-07 -1.85208e-08 5.71338e-06
0.0025883 -0.000104707 -7.74538e-07
-0.000104707 -0.000200999 4.7523e-07
-7.74538e-07 4.7523e-07 9.90484e-06
0.00242363 -0.000155291 -6.96245e-07
-0.000155291 -0.000110337 2.16088e-07
-6.96245e-07 2.16088e-07 -7.46032e-06
0.00224864 -0.000166462 -2.63037e-06
-0.000166462 -7.77364e-05 5.75034e-07
-2.63037e-06 5.75034e-07 -3.76443e-05
0.00246431 -0.000284292 -3.13829e-07
-0.000284292 -0.000102442 -4.00845e-07
-3.13829e-07 -4.00845e-07 -5.2163e-06
0.00229676 -0.000270697 8.71549e-07
-0.000270697 -4.14178e-05 -3.19646e-07
8.71549e-07 -3.19646e-07 -2.63214e-05
0.00249537 -0.000292465 -3.69248e-06
-0.000292465 0.000137679 9.31839e-07
-3.69248e-06 9.31839e-07 8.02455e-05
0.00233944 -0.000393174 2.94996e-06
-0.000393174 -3.73695e-06 -5.93853e-07
2.94996e-06 -5.93853e-07 -2.37421e-05
0.00245874 -0.00039392 4.54318e-08
-0.00039392 0.000148048 -1.07702e-07
4.54318e-08 -1.07702e-07 5.43607e-05
0.00171949 -0.000261736 -6.12561e-06
-0.000261736 1.01363e-05 9.8981e-07
-6.12561e-06 9.8981e-07 -0.000147557
0.00242936 -0.000502623 3.36913e-06
-0.000502623 0.000174415 -8.56422e-07
3.36913e-06 -8.56422e-07 2.74776e-05
0.00175266 -0.000342011 -3.43298e-07
-0.000342011 2.19147e-05 7.75384e-08
-3.43298e-07 7.75384e-08 -0.000170193
0.00274543 -0.000239476 -7.49311e-05
-0.000239476 0.00130804 1.2141e-05
-7.49311e-05 1.2141e-05 0.00118345
0.00183262 -0.000433981 7.33017e-06
-0.000433981 8.38987e-05 -1.88736e-06
7.33017e-06 -1.88736e-06 -0.000153643
0.00303058 -0.000270257 5.47933e-05
-0.000270257 0.00147566 -7.01359e-06
5.47933e-05 -7.01359e-06 0.00134875
0.00289505 -0.000134973 -0.000326531
-0.000134973 0.00158112 4.38053e-05
-0.000326531 4.38053e-05 0.00156657
0.00331754 -0.000316985 0.000191405
-0.000316985 0.0016516 -3.18992e-05
0.000191405 -3.18992e-05 0.00152096
0.0026033 -0.000122936 -0.000118876
-0.000122936 0.00139262 1.70777e-05
-0.000118876 1.70777e-05 0.00135022
0.00232077 -0.000125096 9.77733e-05
-0.000125096 0.00122023 -1.78063e-05
9.77733e-05 -1.78063e-05 0.00114294
0.00245985 0.000363583 7.93173e-07
0.000363583 -4.99298e-05 -2.86425e-07
7.93173e-07 -2.86425e-07 -2.60854e-06
0.00235058 0.000491556 -3.35137e-06
0.000491556 6.19166e-05 -1.11714e-06
-3.35137e-06 -1.11714e-06 -2.13806e-05
0.0025267 0.00056722 -8.95067e-07
0.00056722 1.88565e-05 -2.85311e-07
-8.95067e-07 -2.85311e-07 3.57872e-06
0.00237099 0.000615044 -1.00274e-06
0.000615044 0.000155039 -6.98254e-07
-1.00274e-06 -6.98254e-07 -4.41073e-05
0.00248956 0.000626049 -9.68062e-08
0.000626049 0.000186842 1.38249e-08
-9.68062e-08 1.38249e-08 5.62758e-05
0.00264576 0.000658925 1.1385e-06
0.000658925 0.000142879 2.3589e-06
1.1385e-06 2.3589e-06 6.16504e-05
0.00181598 0.00051332 -1.07943e-05
0.00051332 0.000111181 -2.72712e-06
-1.07943e-05 -2.72712e-06 -0.000176706
0.00236949 0.000719236 -1.29297e-06
0.000719236 0.000227956 -1.87524e-06
-1.29297e-06 -1.87524e-06 -4.22986e-05
0.00246487 0.000747762 -1.99191e-06
0.000747762 0.000143335 -1.05551e-06
-1.99191e-06 -1.05551e-06 -2.02952e-05
0.000432666 0.000302061 -2.05914e-05
0.000302061 -0.000251503 -1.76672e-05
-2.05914e-05 -1.76672e-05 -0.000470869
0.00179419 0.000589141 2.92265e-07
0.000589141 0.000128939 2.73385e-08
2.92265e-07 2.73385e-08 -0.000220528
0.00232643 0.000841691 -3.33527e-06
0.000841691 0.000257956 -9.3005e-06
-3.33527e-06 -9.3005e-06 -0.000109368
0.00203859 0.000739008 2.82866e-05
0.000739008 0.000369192 2.77759e-06
2.82866e-05 2.77759e-06 -8.71373e-05
0.000337045 0.000367279 7.57294e-07
0.000367279 -0.000298558 9.29609e-07
7.57294e-07 9.29609e-07 -0.000558513
0.00920342 0.000349744 -0.000438509
0.000349744 0.00578598 -7.09558e-05
-0.000438509 -7.09558e-05 0.00578719
2.47576e-06 0.000348811 2.40313e-05
0.000348811 -0.000465237 2.70808e-05
2.40313e-05 2.70808e-05 -0.000731282
0.0100797 0.000264293 9.45713e-06
0.000264293 0.00633511 3.19708e-06
9.45713e-06 3.19708e-06 0.00635418
0.00994917 0.000118191 0.000421094
0.000118191 0.00625059 4.34392e-05
0.000421094 4.34392e-05 0.00627243
0.00248077 0.000208851 1.0414e-06
0.000208851 -7.63415e-05 -3.09854e-07
1.0414e-06 -3.09854e-07 2.95415e-05
0.00253368 0.000342982 4.57121e-07
0.000342982 -0.000184762 5.10625e-07
4.57121e-07 5.10625e-07 -3.63076e-05
0.00273277 0.000450983 -7.82336e-07
0.000450983 -0.000345943 -1.25037e-06
-7.82336e-07 -1.25037e-06 -6.1051e-05
0.0026132 0.000573677 1.95517e-06
0.000573677 -9.0052e-05 -2.88852e-07
1.95517e-06 -2.88852e-07 -1.41302e-05
0.00232877 5.31751e-05 -4.5777e-07
5.31751e-05 -6.67299e-05 8.29593e-09
-4.5777e-07 8.29593e-09 -6.77608e-06
0.00249926 0.000101748 1.56977e-07
0.000101748 -0.000130618 -1.89075e-08
1.56977e-07 -1.89075e-08 8.02657e-06
0.00263009 0.000123299 1.16135e-08
0.000123299 -0.000177204 2.09218e-08
1.16135e-08 2.09218e-08 2.16406e-05
0.00248964 -9.8588e-07 -2.03575e-06
-9.8588e-07 -0.000125461 -1.20759e-07
-2.03575e-06 -1.20759e-07 2.14548e-05
0.0023878 -2.70635e-05 -7.65163e-07
-2.70635e-05 -8.34626e-05 -1.61778e-07
-7.65163e-07 -1.61778e-07 1.15623e-05
0.00230484 -5.85202e-05 -4.13897e-06
-5.85202e-05 -3.5979e-06 1.78955e-07
-4.13897e-06 1.78955e-07 3.01234e-05
0.00241916 -0.000157633 -7.51483e-07
-0.000157633 -0.000103593 2.5043e-07
-7.51483e-07 2.5043e-07 -7.58873e-06
0.00229598 -0.000167582 -1.51433e-06
-0.000167582 -3.33272e-05 2.57065e-07
-1.51433e-06 2.57065e-07 -2.39297e-06
0.00241429 -0.000194009 -3.2284e-06
-0.000194009 5.42203e-05 6.98923e-07
-3.2284e-06 6.98923e-07 2.5233e-05
0.00229929 -0.000268485 3.89493e-06
-0.000268485 -3.84589e-05 -9.71699e-07
3.89493e-06 -9.71699e-07 -2.29109e-05
0.0024864 -0.000290545 4.85088e-07
-0.000290545 0.000135683 -1.55909e-07
4.85088e-07 -1.55909e-07 7.79819e-05
0.0017004 -0.000193804 -6.76054e-06
-0.000193804 -7.10115e-06 1.04705e-06
-6.76054e-06 1.04705e-06 -0.00014098
0.00245639 -0.000392388 4.09585e-06
-0.000392388 0.000147827 -9.40021e-07
4.09585e-06 -9.40021e-07 5.51869e-05
0.00170144 -0.000261784 -1.56293e-07
-0.000261784 -1.89043e-05 8.51529e-09
-1.56293e-07 8.51529e-09 -0.000175955
0.000260702 -0.000128361 -1.50263e-05
-0.000128361 -0.00034781 6.77259e-06
-1.50263e-05 6.77259e-06 -0.000473723
0.00177434 -0.000344651 6.7748e-06
-0.000344651 2.15769e-05 -1.49938e-06
6.7748e-06 -1.49938e-06 -0.00017012
0.00162462 -0.000179862 8.02056e-05
-0.000179862 0.000547926 -7.35222e-06
8.02056e-05 -7.35222e-06 0.000431761
0.00747626 -0.000209902 -0.000421377
-0.000209902 0.00466162 3.76406e-05
-0.000421377 3.76406e-05 0.00469632
0.00316087 -0.000251381 0.000181691
-0.000251381 0.00155207 -2.42087e-05
0.000181691 -2.42087e-05 0.00144455
0.00247386 -0.000107964 -0.00010693
-0.000107964 0.0013157 1.09199e-05
-0.00010693 1.09199e-05 0.00127639
0.00215448 -0.000129963 0.000105514
-0.000129963 0.00112246 -1.82073e-05
0.000105514 -1.82073e-05 0.00104846
0.00241841 0.000247364 6.96945e-07
0.000247364 -1.87122e-05 -8.33753e-07
6.96945e-07 -8.33753e-07 2.64949e-05
0.00230559 0.000373363 -2.46908e-06
0.000373363 8.34051e-07 -8.78776e-07
-2.46908e-06 -8.78776e-07 -2.7057e-05
0.00247008 0.000353081 -2.51815e-07
0.000353081 -2.67471e-05 -1.84265e-08
-2.51815e-07 -1.84265e-08 1.22508e-05
0.00234169 0.000489074 -6.91618e-07
0.000489074 0.000111787 -3.9242e-07
-6.91618e-07 -3.9242e-07 -3.16936e-05
0.00237548 0.000495448 -3.24318e-08
0.000495448 8.28431e-05 -2.03878e-07
-3.24318e-08 -2.03878e-07 2.1888e-06
0.00253527 0.000570074 5.4362e-07
0.000570074 5.26166e-07 4.03166e-07
5.4362e-07 4.03166e-07 4.77374e-07
0.00181435 0.000448513 -5.59964e-06
0.000448513 8.42232e-05 -1.14869e-06
-5.59964e-06 -1.14869e-06 -0.000143983
0.00235853 0.000608834 -1.7928e-06
0.000608834 0.00015154 -9.20692e-07
-1.7928e-06 -9.20692e-07 -5.16311e-05
0.002473 0.000622477 2.94036e-06
0.000622477 0.000190561 1.35974e-06
2.94036e-06 1.35974e-06 4.82159e-05
0.000374407 0.00022451 -1.68141e-05
0.00022451 -0.000290505 -1.27148e-05
-1.68141e-05 -1.27148e-05 -0.000472907
0.00172512 0.000504031 4.78845e-07
0.000504031 5.69806e-05 2.33164e-07
4.78845e-07 2.33164e-07 -0.000221056
0.00230686 0.000727441 -3.1739e-06
0.000727441 0.000156019 -6.20308e-06
-3.1739e-06 -6.20308e-06 -0.000101644
0.00857338 0.000380568 -0.000427247
0.000380568 0.00538279 -6.63006e-05
-0.000427247 -6.63006e-05 0.00538274
0.000376892 0.000302568 3.43497e-07
0.000302568 -0.000295414 9.56578e-07
3.43497e-07 9.56578e-07 -0.00051859
0.00174987 0.000577067 1.90444e-05
0.000577067 0.000119116 2.22172e-06
1.90444e-05 2.22172e-06 -0.00022766
0.000224342 0.000351653 2.17396e-05
0.000351653 -0.000371761 2.30655e-05
2.17396e-05 2.30655e-05 -0.000631487
0.00941433 0.000352006 1.06717e-05
0.000352006 0.00591973 4.29766e-06
1.06717e-05 4.29766e-06 0.00592702
0.0102962 0.000236989 0.00048202
0.000236989 0.00645652 5.44673e-05
0.00048202 5.44673e-05 0.00648451
0.00232283 0.000134575 -1.19566e-06
0.000134575 -4.92098e-05 -4.50331e-08
-1.19566e-06 -4.50331e-08 -7.6833e-06
0.00246859 0.000202842 -1.30931e-07
0.000202842 -8.8091e-05 5.59483e-08
-1.30931e-07 5.59483e-08 1.44765e-05
0.00249924 0.000349363 1.64675e-07
0.000349363 -0.000216587 3.37168e-08
1.64675e-07 3.37168e-08 -6.66428e-05
0.0022957 3.12214e-05 -6.34916e-06
3.12214e-05 3.05656e-05 -2.76709e-07
-6.34916e-06 -2.76709e-07 4.6153e-05
0.00232638 6.23005e-05 8.26535e-07
6.23005e-05 -7.27055e-05 2.43934e-08
8.26535e-07 2.43934e-08 -7.01185e-06
0.00249873 8.74363e-05 -7.13616e-07
8.74363e-05 -0.00013617 -4.82625e-08
-7.13616e-07 -4.82625e-08 6.48068e-06
0.0023995 -2.07531e-05 -4.62062e-07
-2.07531e-05 -8.12493e-05 9.3565e-08
-4.62062e-07 9.3565e-08 1.80497e-05
0.00230953 -5.89392e-05 -1.41935e-07
-5.89392e-05 -2.05596e-06 7.93821e-10
-1.41935e-07 7.93821e-10 3.33195e-05
0.00213851 -8.79762e-05 -3.59489e-06
-8.79762e-05 -0.000132113 3.09891e-07
-3.59489e-06 3.09891e-07 -0.000171774
0.00234254 -0.00016897 3.66641e-06
-0.00016897 1.13924e-05 -4.06708e-07
3.66641e-06 -4.06708e-07 3.32307e-05
0.00237121 -0.000196376 2.75952e-07
-0.000196376 3.46841e-05 1.57909e-08
2.75952e-07 1.57909e-08 -7.07089e-06
0.00184112 -0.000129149 -7.06275e-06
-0.000129149 9.11223e-05 6.9086e-07
-7.06275e-06 6.9086e-07 -1.23975e-05
0.00247033 -0.000289552 4.39986e-06
-0.000289552 0.000129389 -1.25164e-06
4.39986e-06 -1.25164e-06 7.11989e-05
0.00167075 -0.000190601 9.21438e-08
-0.000190601 -4.5081e-05 -1.95225e-08
9.21438e-08 -1.95225e-08 -0.000177928
0.000204209 -5.43608e-05 -1.3231e-05
-5.43608e-05 -0.00037122 3.84471e-06
-1.3231e-05 3.84471e-06 -0.000481154
0.00168649 -0.000260436 6.13426e-06
-0.000260436 -4.91654e-05 -1.37334e-06
6.13426e-06 -1.37334e-06 -0.00020518
0.000270575 -0.000112443 -2.87753e-07
-0.000112443 -0.000334346 4.47026e-07
-2.87753e-07 4.47026e-07 -0.000458422
0.00733096 -0.000103329 -0.000407488
-0.000103329 0.00455575 2.47417e-05
-0.000407488 2.47417e-05 0.00459849
0.000438288 -0.000135761 1.23339e-05
-0.000135761 -0.000240363 -8.82087e-06
1.23339e-05 -8.82087e-06 -0.000379071
0.00484839 -0.000140727 0.000169569
-0.000140727 0.00291426 -1.14401e-05
0.000169569 -1.14401e-05 0.00289961
0.00202144 -0.000110733 0.000106837
-0.000110733 0.00104094 -1.614e-05
0.000106837 -1.614e-05 0.000972859
0.00240248 0.000206997 -3.68968e-06
0.000206997 4.47902e-05 -5.89857e-07
-3.68968e-06 -5.89857e-07 7.30591e-05
0.00224973 0.000264453 -5.46734e-06
0.000264453 -3.1498e-06 -8.76869e-07
-5.46734e-06 -8.76869e-07 -2.07544e-05
0.00240202 0.000236311 -7.38213e-07
0.000236311 -2.41602e-05 -2.96118e-07
-7.38213e-07 -2.96118e-07 2.22705e-05
0.00242494 0.00039709 -1.55716e-06
0.00039709 0.000155514 -7.8164e-07
-1.55716e-06 -7.8164e-07 4.71818e-05
0.00231451 0.000369146 -4.60514e-08
0.000369146 9.33633e-06 -1.97463e-07
-4.60514e-08 -1.97463e-07 -2.00969e-05
0.00248306 0.000342923 6.59029e-08
0.000342923 -1.19879e-06 2.92636e-07
6.59029e-08 2.92636e-07 2.9393e-05
0.00179873 0.000360983 -3.46041e-06
0.000360983 6.78834e-05 -1.17848e-06
-3.46041e-06 -1.17848e-06 -0.00011753
0.00233897 0.000489391 8.74401e-07
0.000489391 0.000119794 7.29157e-08
8.74401e-07 7.29157e-08 -3.39955e-05
0.00239843 0.000499283 3.73786e-06
0.000499283 0.000102443 1.20802e-06
3.73786e-06 1.20802e-06 2.48537e-05
0.000325897 0.000167564 -1.46678e-05
0.000167564 -0.000313777 -9.07891e-06
-1.46678e-05 -9.07891e-06 -0.000470173
0.00178506 0.000438492 2.14274e-06
0.000438492 7.09904e-05 1.29611e-06
2.14274e-06 1.29611e-06 -0.000152533
0.00234718 0.000603239 -2.49131e-06
0.000603239 0.000148397 -1.59664e-06
-2.49131e-06 -1.59664e-06 -5.88328e-05
0.00803818 0.000384378 -0.000427745
0.000384378 0.00505065 -6.0499e-05
-0.000427745 -6.0499e-05 0.00505167
0.000378467 0.000231714 4.76995e-07
0.000231714 -0.000294703 4.52904e-07
4.76995e-07 4.52904e-07 -0.000481325
0.0016517 0.000497141 1.14587e-05
0.000497141 1.38836e-05 1.47622e-06
1.14587e-05 1.47622e-06 -0.000255128
0.00876916 0.000409259 1.13845e-05
0.000409259 0.00552201 6.47196e-06
1.13845e-05 6.47196e-06 0.00551921
0.000335207 0.00030275 1.80907e-05
0.00030275 -0.000330807 1.86403e-05
1.80907e-05 1.86403e-05 -0.000557795
0.00961702 0.000339824 0.000484485
0.000339824 0.00603452 6.49181e-05
0.000484485 6.49181e-05 0.00605427
0.00228107 0.000107136 -6.3622e-06
0.000107136 2.70618e-05 -1.42679e-07
-6.3622e-06 -1.42679e-07 3.12246e-05
0.00231284 0.000142616 -6.93757e-07
0.000142616 -4.85443e-05 -3.01053e-07
-6.93757e-07 -3.01053e-07 -6.63132e-06
0.00245533 0.000197154 -5.57024e-07
0.000197154 -0.00010046 3.02892e-07
-5.57024e-07 3.02892e-07 -1.23654e-06
0.00213989 5.15245e-06 -2.66643e-06
5.15245e-06 -0.000125237 -5.65286e-08
-2.66643e-06 -5.65286e-08 -0.000165233
0.00229864 3.48838e-05 -1.14301e-07
3.48838e-05 2.60052e-05 1.55802e-08
-1.14301e-07 1.55802e-08 4.66804e-05
0.0023235 7.17926e-05 4.39932e-07
7.17926e-05 -7.90269e-05 3.12162e-07
4.39932e-07 3.12162e-07 -7.6054e-06
0.00231332 -5.94637e-05 3.72159e-06
-5.94637e-05 -9.80073e-07 -1.24707e-07
3.72159e-06 -1.24707e-07 3.59155e-05
0.00219555 -8.68035e-05 -1.67836e-06
-8.68035e-05 -8.44547e-05 1.49013e-07
-1.67836e-06 1.49013e-07 -0.000121755
0.00169795 -5.54466e-05 -5.24808e-06
-5.54466e-05 3.16584e-06 3.41912e-07
-5.24808e-06 3.41912e-07 -9.30077e-05
0.00234303 -0.000198909 2.95012e-06
-0.000198909 2.68277e-05 -1.01724e-06
2.95012e-06 -1.01724e-06 -2.74805e-05
0.00176516 -0.00013085 3.02173e-06
-0.00013085 2.76652e-05 -1.90817e-07
3.02173e-06 -1.90817e-07 -8.32589e-05
0.000165283 -2.6424e-05 -1.31726e-05
-2.6424e-05 -0.000379814 2.45976e-06
-1.31726e-05 2.45976e-06 -0.000481505
0.00163629 -0.000189191 7.0014e-06
-0.000189191 -8.31547e-05 -1.4205e-06
7.0014e-06 -1.4205e-06 -0.000215325
0.000196104 -6.14573e-05 4.23648e-07
-6.14573e-05 -0.000369575 -3.92408e-07
4.23648e-07 -3.92408e-07 -0.000478431
0.00709709 -0.000185793 -0.000404789
-0.000185793 0.00442273 2.63182e-05
-0.000404789 2.63182e-05 0.00445759
0.000259463 -9.64648e-05 1.29628e-05
-9.64648e-05 -0.000335126 -5.30491e-06
1.29628e-05 -5.30491e-06 -0.000456674
0.0072524 -0.000136574 6.01461e-06
-0.000136574 0.00451035 4.12393e-07
6.01461e-06 4.12393e-07 0.00455113
0.00228695 -6.28972e-05 0.000307976
-6.28972e-05 0.00118393 -2.54699e-05
0.000307976 -2.54699e-05 0.0011792
0.00229618 0.000189767 -8.01898e-06
0.000189767 5.46453e-05 -7.94916e-07
-8.01898e-06 -7.94916e-07 4.54112e-05
0.00231864 0.000208468 -7.11587e-07
0.000208468 -2.65396e-05 -7.64987e-08
-7.11587e-07 -7.64987e-08 1.13445e-05
0.00244624 0.000297274 -7.46628e-07
0.000297274 0.000143709 -3.24754e-07
-7.46628e-07 -3.24754e-07 6.79415e-05
0.00225812 0.000265231 5.61277e-07
0.000265231 -5.27009e-07 2.17211e-08
5.61277e-07 2.17211e-08 -1.89162e-05
0.00238572 0.000225077 -1.88379e-07
0.000225077 -2.98021e-05 -2.8197e-08
-1.88379e-07 -2.8197e-08 1.80108e-05
0.00166492 0.000270139 -2.60713e-06
0.000270139 -2.56719e-05 -1.17357e-06
-2.60713e-06 -1.17357e-06 -0.0001953
0.00243866 0.000398294 3.81391e-07
0.000398294 0.000159151 -1.168e-08
3.81391e-07 -1.168e-08 5.09247e-05
0.00232262 0.000364735 3.58677e-06
0.000364735 1.63633e-05 1.35638e-06
3.58677e-06 1.35638e-06 -1.44582e-05
0.000309382 0.000126346 -1.37442e-05
0.000126346 -0.000310934 -6.63678e-06
-1.37442e-05 -6.63678e-06 -0.000449196
0.00174089 0.000353484 3.12187e-06
0.000353484 4.06647e-05 1.10058e-06
3.12187e-06 1.10058e-06 -0.000151015
0.00234424 0.000490355 6.62996e-07
0.000490355 0.000133701 5.3853e-07
6.62996e-07 5.3853e-07 -3.11458e-05
0.00765227 0.00035459 -0.000431208
0.00035459 0.00481093 -5.3222e-05
-0.000431208 -5.3222e-05 0.00481701
0.00035619 0.000177176 3.93674e-07
0.000177176 -0.000297666 2.14289e-07
3.93674e-07 2.14289e-07 -0.000457989
0.00175731 0.000428211 8.7347e-06
0.000428211 5.87303e-05 2.89479e-06
8.7347e-06 2.89479e-06 -0.000159852
0.00821052 0.000415389 8.65193e-06
0.000415389 0.0051743 6.31448e-06
8.65193e-06 6.31448e-06 0.00516983
0.000379363 0.000237747 1.58754e-05
0.000237747 -0.000300526 1.33988e-05
1.58754e-05 1.33988e-05 -0.000491382
0.00896247 0.000430366 0.000473478
0.000430366 0.00564647 7.32952e-05
0.000473478 7.32952e-05 0.00564669
0.00209938 0.000103557 -9.44538e-07
0.000103557 -0.00013388 -3.45538e-07
-9.44538e-07 -3.45538e-07 -0.000185037
0.00230131 0.000107566 -1.80168e-06
0.000107566 4.62657e-05 -7.65872e-08
-1.80168e-06 -7.65872e-08 4.90496e-05
0.00230355 0.000150649 1.97791e-06
0.000150649 -4.70513e-05 1.45707e-07
1.97791e-06 1.45707e-07 -4.86464e-06
0.00169084 -2.80342e-06 -3.83782e-06
-2.80342e-06 9.52466e-06 1.52263e-07
-3.83782e-06 1.52263e-07 -8.64576e-05
0.0021777 5.64325e-06 -1.74649e-06
5.64325e-06 -8.91481e-05 4.24121e-08
-1.74649e-06 4.24121e-08 -0.000128391
0.00230101 3.81115e-05 4.83652e-06
3.81115e-05 2.12704e-05 3.09116e-07
4.83652e-06 3.09116e-07 4.69994e-05
0.0022545 -8.61327e-05 -4.81371e-07
-8.61327e-05 -3.50825e-05 1.00269e-08
-4.81371e-07 1.00269e-08 -7.01172e-05
0.0017991 -5.96469e-05 2.4389e-06
-5.96469e-05 6.89668e-05 -4.5704e-08
2.4389e-06 -4.5704e-08 -2.62012e-05
0.000183532 -3.4381e-05 -1.39112e-05
-3.4381e-05 -0.000358613 1.67569e-06
-1.39112e-05 1.67569e-06 -0.000454619
0.00167823 -0.000131571 9.97311e-06
-0.000131571 -4.63364e-05 -1.49986e-06
9.97311e-06 -1.49986e-06 -0.000164716
0.000173194 -1.52436e-05 6.08097e-08
-1.52436e-05 -0.000373948 6.25562e-08
6.08097e-08 6.25562e-08 -0.00047378
0.00698753 -0.000148139 -0.000403975
-0.000148139 0.0043475 2.01095e-05
-0.000403975 2.01095e-05 0.00438759
0.000228233 -6.59686e-05 1.36154e-05
-6.59686e-05 -0.00034033 -3.85477e-06
1.36154e-05 -3.85477e-06 -0.000449072
0.00709555 -8.87697e-05 -2.79317e-06
-8.87697e-05 0.00440621 4.03763e-06
-2.79317e-06 4.03763e-06 0.00445091
0.00722969 -0.00014958 0.000404927
-0.00014958 0.00449882 -2.44107e-05
0.000404927 -2.44107e-05 0.00453909
0.00241414 0.000197135 -8.93206e-08
0.000197135 0.000118287 -4.91009e-07
-8.93206e-08 -4.91009e-07 6.14487e-05
0.00224635 0.000191789 -3.11238e-07
0.000191789 6.19012e-06 8.20929e-08
-3.11238e-07 8.20929e-08 1.39124e-06
0.00223347 0.000210015 1.61232e-06
0.000210015 -9.939e-05 4.19399e-07
1.61232e-06 4.19399e-07 -5.19481e-05
0.00162239 0.00018938 -1.54758e-06
0.00018938 -5.2625e-05 -6.36867e-07
-1.54758e-06 -6.36867e-07 -0.000198399
0.00245967 0.000295615 2.96679e-07
0.000295615 0.000149928 -4.87747e-08
2.96679e-07 -4.87747e-08 7.47809e-05
0.0022679 0.000266251 4.99219e-06
0.000266251 3.21031e-06 6.63182e-07
4.99219e-06 6.63182e-07 -1.61372e-05
0.000262654 8.80333e-05 -1.25196e-05
8.80333e-05 -0.000326024 -4.79413e-06
-1.25196e-05 -4.79413e-06 -0.000449133
0.0017027 0.000270769 -6.87226e-08
0.000270769 1.87382e-05 2.19183e-07
-6.87226e-08 2.19183e-07 -0.000151744
0.00245655 0.00039953 1.60421e-06
0.00039953 0.000166165 6.42642e-07
1.60421e-06 6.42642e-07 5.80377e-05
0.00735476 0.000287625 -0.000431504
0.000287625 0.00461154 -4.28105e-05
-0.000431504 -4.28105e-05 0.00463128
0.000324435 0.000135899 3.18914e-07
0.000135899 -0.000303973 1.75641e-07
3.18914e-07 1.75641e-07 -0.000445593
0.00167203 0.000344876 6.31275e-06
0.000344876 5.97016e-06 2.7452e-06
6.31275e-06 2.7452e-06 -0.000191451
0.00777296 0.000375381 5.19828e-06
0.000375381 0.00489397 3.94721e-06
5.19828e-06 3.94721e-06 0.00489777
0.000385092 0.000188109 1.5081e-05
0.000188109 -0.000281097 1.00834e-05
1.5081e-05 1.00834e-05 -0.000445994
0.00842134 0.000461732 0.000468516
0.000461732 0.00532728 7.54021e-05
0.000468516 7.54021e-05 0.00531666
0.00152797 5.68692e-05 -4.30949e-06
5.68692e-05 -9.8865e-05 8.08148e-08
-4.30949e-06 8.08148e-08 -0.00021781
0.00223533 0.0001014 -3.20954e-06
0.0001014 -3.34826e-05 -2.20884e-07
-3.20954e-06 -2.20884e-07 -7.48679e-05
0.00232351 0.000108225 5.67392e-06
0.000108225 6.64223e-05 4.87084e-07
5.67392e-06 4.87084e-07 6.79108e-05
0.000213711 3.18197e-05 -1.46228e-05
3.18197e-05 -0.00033869 -4.0261e-07
-1.46228e-05 -4.0261e-07 -0.000427313
0.00177198 -1.32151e-06 2.70485e-06
-1.32151e-06 6.22755e-05 8.54547e-08
2.70485e-06 8.54547e-08 -3.28233e-05
0.00222086 8.05247e-06 -1.37603e-06
8.05247e-06 -4.93837e-05 1.25213e-08
-1.37603e-06 1.25213e-08 -8.77806e-05
0.00189195 -6.31484e-05 1.13477e-05
-6.31484e-05 0.000129291 -9.27401e-07
1.13477e-05 -9.27401e-07 3.51441e-05
0.000176178 -9.93664e-06 2.83406e-07
-9.93664e-06 -0.000361953 3.66531e-07
2.83406e-07 3.66531e-07 -0.000457729
0.0068634 -7.68873e-06 -0.000404522
-7.68873e-06 0.00425477 5.27742e-06
-0.000404522 5.27742e-06 0.00430472
0.000168633 -3.62074e-06 1.34791e-05
-3.62074e-06 -0.000376326 -1.51526e-06
1.34791e-05 -1.51526e-06 -0.000474231
0.00693582 -0.000144531 -6.95974e-06
-0.000144531 0.00431584 2.46244e-06
-6.95974e-06 2.46244e-06 0.00435537
0.00703149 -7.2796e-05 0.000390897
-7.2796e-05 0.00436385 -1.48689e-05
0.000390897 -1.48689e-05 0.00440902
0.00160285 0.000119353 -3.07741e-06
0.000119353 -4.61316e-05 -4.31486e-07
-3.07741e-06 -4.31486e-07 -0.00017559
0.00237655 0.000192574 -1.9391e-07
0.000192574 8.52875e-05 -2.14746e-07
-1.9391e-07 -2.14746e-07 3.20173e-05
0.00219626 0.000193725 3.90722e-06
0.000193725 -4.18615e-05 7.55795e-08
3.90722e-06 7.55795e-08 -4.21797e-05
0.0027035 9.94522e-05 -0.000173054
9.94522e-05 0.0013114 -8.41054e-06
-0.000173054 -8.41054e-06 0.00125114
0.00165959 0.000190845 -2.88085e-08
0.000190845 -1.17499e-05 6.83371e-08
-2.88085e-08 6.83371e-08 -0.000158427
0.00246916 0.000293483 1.53858e-06
0.000293483 0.000154371 3.14034e-07
1.53858e-06 3.14034e-07 7.99282e-05
0.00717065 0.000218045 -0.000427568
0.000218045 0.00448098 -3.18209e-05
-0.000427568 -3.18209e-05 0.00451358
0.000290881 0.000108236 4.04043e-07
0.000108236 -0.000309082 4.73432e-07
4.04043e-07 4.73432e-07 -0.000435726
0.00174124 0.000270842 2.41976e-06
0.000270842 6.38307e-05 1.371e-06
2.41976e-06 1.371e-06 -0.000107485
0.00746611 0.000305235 2.94382e-06
0.000305235 0.00468524 2.24866e-06
2.94382e-06 2.24866e-06 0.00470295
0.000350231 0.0001476 1.4455e-05
0.0001476 -0.000289315 7.74777e-06
1.4455e-05 7.74777e-06 -0.000434931
0.00788875 0.000409727 0.000452872
0.000409727 0.00498214 6.66228e-05
0.000452872 6.66228e-05 0.00498012
0.000333793 2.24425e-05 -1.17894e-05
2.24425e-05 -0.000249692 -1.45642e-06
-1.17894e-05 -1.45642e-06 -0.000347609
0.00165915 5.76423e-05 -9.91518e-07
5.76423e-05 -3.83477e-06 9.63252e-09
-9.91518e-07 9.63252e-09 -0.00011421
0.00234696 9.80808e-05 -1.12261e-06
9.80808e-05 4.77994e-05 1.44133e-07
-1.12261e-06 1.44133e-07 1.60279e-05
0.00674319 -9.71248e-05 -0.000388453
-9.71248e-05 0.00419162 6.96296e-06
-0.000388453 6.96296e-06 0.00423203
0.000174981 1.44008e-05 -5.92352e-07
1.44008e-05 -0.000360925 -3.28957e-07
-5.92352e-07 -3.28957e-07 -0.000451912
0.00185696 -1.44174e-06 1.02328e-05
-1.44174e-06 0.000116868 -4.78843e-07
1.02328e-05 -4.78843e-07 2.26665e-05
0.000155641 1.41518e-05 1.37872e-05
1.41518e-05 -0.000376135 -2.89253e-07
1.37872e-05 -2.89253e-07 -0.000470558
0.00681208 -3.84507e-05 1.3658e-06
-3.84507e-05 0.00422849 -2.19139e-06
1.3658e-06 -2.19139e-06 0.00427269
0.0069009 -7.56791e-05 0.00039246
-7.56791e-05 0.00427942 -1.10279e-05
0.00039246 -1.10279e-05 0.00432535
0.00283463 4.49494e-05 -0.000168336
4.49494e-05 0.00140338 -4.48444e-06
-0.000168336 -4.48444e-06 0.00135224
0.00161784 0.000122202 -2.37225e-07
0.000122202 -3.0167e-05 3.62543e-08
-2.37225e-07 3.62543e-08 -0.000160427
0.00233818 0.000188112 9.49538e-07
0.000188112 5.08263e-05 -1.83556e-07
9.49538e-07 -1.83556e-07 1.01544e-06
0.00672073 2.95016e-05 -0.000192476
2.95016e-05 0.00419098 -3.57746e-06
-0.000192476 -3.57746e-06 0.00418324
0.000241502 8.40969e-05 3.69798e-07
8.40969e-05 -0.0003287 2.0873e-07
3.69798e-07 2.0873e-07 -0.00044147
0.00170002 0.000193512 2.06972e-06
0.000193512 2.89548e-05 5.78313e-07
2.06972e-06 5.78313e-07 -0.000118771
0.0072192 0.000196431 -5.87376e-06
0.000196431 0.00450455 -1.53579e-06
-5.87376e-06 -1.53579e-06 0.00453874
0.000318282 0.000129034 1.54957e-05
0.000129034 -0.000293755 6.57539e-06
1.54957e-05 6.57539e-06 -0.000423289
0.00753606 0.000325386 0.000444473
0.000325386 0.00473468 5.36365e-05
0.000444473 5.36365e-05 0.0047511
0.00216638 -4.37897e-05 -0.00029762
-4.37897e-05 0.00110476 1.62723e-06
-0.00029762 1.62723e-06 0.00111656
0.00144991 4.48343e-05 -7.62633e-05
4.48343e-05 0.000485149 -6.33665e-07
-7.62633e-05 -6.33665e-07 0.000416056
0.00180539 6.10226e-05 6.35186e-06
6.10226e-05 0.000103912 -5.16453e-08
6.35186e-06 -5.16453e-08 2.21562e-06
0.00678886 -4.44911e-05 6.21697e-06
-4.44911e-05 0.00421579 3.84514e-06
6.21697e-06 3.84514e-06 0.00426205
0.000169644 -1.22477e-06 1.4472e-05
-1.22477e-06 -0.000358395 1.92542e-07
1.4472e-05 1.92542e-07 -0.000452762
0.0068172 -9.40065e-05 0.000404055
-9.40065e-05 0.00423746 -8.46314e-06
0.000404055 -8.46314e-06 0.00428138
0.00170623 3.72584e-05 -8.89063e-05
3.72584e-05 0.000838748 -2.80849e-06
-8.89063e-05 -2.80849e-06 0.000791003
0.00146246 4.48592e-05 -7.6612e-05
4.48592e-05 0.000487864 -2.78924e-06
-7.6612e-05 -2.78924e-06 0.000411668
0.0016356 0.000123192 3.34071e-06
0.000123192 -1.07801e-05 2.86106e-07
3.34071e-06 2.86106e-07 -0.000141711
0.00441884 0.000103202 0.000152899
0.000103202 0.00263757 6.65328e-06
0.000152899 6.65328e-06 0.00263365
0.000220044 9.51646e-05 1.52894e-05
9.51646e-05 -0.000346953 4.99553e-06
1.52894e-05 4.99553e-06 -0.000460466
0.00726225 0.000185173 0.000421195
0.000185173 0.00452344 3.40621e-05
0.000421195 3.40621e-05 0.00456134
0.00678203 4.59683e-07 -7.48844e-06
4.59683e-07 0.00421727 -4.29515e-06
-7.48844e-06 -4.29515e-06 0.00426083
0.000191853 5.93417e-05 1.65688e-05
5.93417e-05 -0.000356555 2.39308e-06
1.65688e-05 2.39308e-06 -0.000446859
0.00672699 3.5912e-05 0.000394644
3.5912e-05 0.00417144 1.20988e-06
0.000394644 1.20988e-06 0.00422033
0.00432892 6.26741e-05 0.000161735
6.26741e-05 0.00257743 8.21941e-06
0.000161735 8.21941e-06 0.00257882
0.0002203 3.26956e-05 1.47692e-05
3.26956e-05 -0.000340463 2.52435e-06
1.47692e-05 2.52435e-06 -0.000441423
0.00703564 5.7011e-05 0.000405558
5.7011e-05 0.00436743 1.79256e-05
0.000405558 1.79256e-05 0.00441259
0.00677885 -8.47377e-05 0.000393147
-8.47377e-05 0.0042153 -2.77855e-06
0.000393147 -2.77855e-06 0.00425656
0.00681866 5.32163e-05 0.000397275
5.32163e-05 0.0042249 1.19877e-05
0.000397275 1.19877e-05 0.0042734
