# vtk DataFile Version 2.0
Wound Healing Simulation
ASCII
DATASET UNSTRUCTURED_GRID
POINTS 3012 float
69.9759 18.75 4
67.2507 60.3285 4
69.976 18.75 2
73.0099 25.446 4
71.1327 20.9142 4
68.6801 16.6661 4
67.8207 19.9258 3.97197
67.2507 60.3286 2
71.1327 54.0858 4
68.6801 58.3339 4
65.6939 62.2254 4
65.3076 58.9988 3.97079
74.6784 42.3946 4
73.7221 47.2057 4
69.9759 18.75 0
73.0099 25.446 2
68.6801 16.6661 2
71.1327 20.9142 2
67.8212 19.9298 2
74.6792 32.6053 4
73.7222 27.7943 4
72.1454 23.1494 4
70.6109 26.2218 3.9722
68.8813 21.9575 3.97231
67.2507 14.6715 4
66.6318 17.9729 3.97079
65.7315 21.0484 3.96147
67.2507 60.3285 0
71.1327 54.0858 2
68.6801 58.3339 2
65.694 62.2255 2
65.309 58.9939 2
72.1454 51.8506 4
69.9759 56.25 4
68.8317 53.1144 3.97215
64.0165 64.0165 4
66.6056 57.133 3.97192
63.8801 60.7614 3.96748
63.4613 57.7519 3.95992
60.3285 67.2507 4
74.6792 42.3947 2
73.7222 47.2057 2
74.9194 39.9526 4
74.2788 44.8158 4
72.1657 42.086 3.97411
73.0099 49.554 4
71.2461 46.5985 3.97251
73.0099 25.446 0
71.1327 20.9142 0
68.6801 16.6661 0
67.8207 19.9258 0.0280253
74.6792 32.6053 2
73.7222 27.7943 2
67.2508 14.6715 2
72.1455 23.1494 2
70.6102 26.2229 2
66.6329 17.9775 2
68.8813 21.9605 2
65.7311 21.0495 2
74.9197 35.0474 4
74.2794 30.1841 4
72.1824 32.945 3.97425
71.2754 28.4328 3.97253
69.8118 24.0596 3.97238
68.3107 26.9643 3.96427
66.7025 22.9532 3.96252
65.694 12.7746 4
65.3186 16.1061 3.96973
64.6471 19.2206 3.95998
63.6983 22.11 3.96481
71.1327 54.0858 0
65.6939 62.2254 0
68.6801 58.3339 0
65.3076 58.9988 0.0292122
72.1455 51.8506 2
69.9759 56.25 2
68.8318 53.1112 2
64.0165 64.0165 2
66.6067 57.1281 2
63.881 60.7561 2
63.4516 57.7504 2
62.2254 65.694 4
58.89 65.4108 3.97758
69.7647 50.9902 3.97218
67.7787 55.1681 3.97225
66.5783 52.1897 3.96269
62.3311 62.423 3.97162
64.598 56.0103 3.96103
62.1875 59.3839 3.95815
61.6699 56.6097 3.96041
58.3339 68.6801 4
60.3285 67.2508 2
73.7221 47.2057 0
74.6784 42.3946 0
74.9197 39.9526 2
74.2794 44.8159 2
72.1646 42.0851 2
73.0099 49.554 2
71.2453 46.5971 2
75 37.5 4
72.4029 39.8029 3.97502
71.7796 44.3532 3.97358
69.7871 41.7875 3.9663
70.5714 48.8144 3.97216
68.8752 46.0064 3.96547
74.6792 32.6053 0
73.7222 27.7943 0
67.2507 14.6715 0
72.1454 23.1494 0
70.6109 26.2218 0.0277999
68.8813 21.9575 0.0276918
66.6318 17.9729 0.029208
65.7315 21.0484 0.0385329
74.9197 35.0474 2
74.2794 30.1841 2
72.1812 32.9451 2
71.2744 28.4336 2
65.694 12.7745 2
65.3194 16.1113 2
69.8114 24.0615 2
68.3145 26.9649 2
64.641 19.2223 2
66.7043 22.9543 2
63.6985 22.1105 2
72.4108 35.2256 3.97505
71.8013 30.678 3.97376
69.8266 33.2746 3.9658
68.9389 29.0484 3.96456
67.5615 24.9285 3.96345
66.0012 27.6886 3.97285
64.0165 10.9835 4
64.5586 23.9 3.96734
63.8834 14.3322 3.96614
63.464 17.4726 3.95756
62.7234 20.4007 3.96215
61.7722 23.0715 3.97103
60.6794 11.1033 3.97326
57.6034 11.4876 3.96344
72.1454 51.8506 0
69.9759 56.25 0
68.8317 53.1144 0.027849
64.0165 64.0165 0
63.8801 60.7614 0.032524
66.6056 57.133 0.0280796
63.4613 57.7519 0.0400762
62.2255 65.694 2
58.8928 65.4052 2
69.7645 50.9878 2
67.7794 55.1638 2
66.5796 52.1886 2
62.3328 62.4155 2
64.5926 56.0088 2
62.182 59.3839 2
61.6676 56.6102 2
60.6643 63.9724 3.97549
57.0208 66.7319 3.98076
57.5469 63.6557 3.96925
67.4432 50.1602 3.96385
65.6331 54.1526 3.96181
64.3134 51.3148 3.96804
60.7648 60.9091 3.9656
62.6405 54.9961 3.96364
60.5357 58.0879 3.9561
60.0814 55.6704 3.96625
56.25 69.9759 4
58.3339 68.6801 2
60.3285 67.2507 0
58.9169 9.66058 3.97581
62.2254 9.30607 4
73.0099 49.554 0
74.2788 44.8158 0
71.2461 46.5985 0.0274874
72.1657 42.086 0.0258889
74.9194 39.9526 0
75 37.5 2
72.4024 39.8023 2
71.7791 44.3519 2
69.7897 41.7871 2
70.571 48.8126 2
68.8799 46.0059 2
72.4865 37.5131 3.97484
70.0298 39.6575 3.96642
69.408 43.9028 3.96608
67.4232 41.4805 3.9763
68.2146 48.0946 3.96488
66.5083 45.3992 3.97519
74.9197 35.0474 0
74.2794 30.1841 0
72.1824 32.945 0.0257456
71.2754 28.4328 0.0274683
65.694 12.7746 0
65.3186 16.1061 0.0302674
69.8118 24.0596 0.0276207
68.3107 26.9643 0.0357324
66.7025 22.9532 0.0374825
64.6471 19.2206 0.0400211
63.6983 22.11 0.0351862
72.4103 35.2252 2
71.8007 30.6786 2
69.8291 33.2749 2
68.9437 29.0488 2
64.0165 10.9835 2
63.8848 14.3387 2
63.4614 17.4721 2
67.5644 24.9294 2
65.9992 27.6898 2
62.7271 20.4001 2
64.5576 23.9009 2
61.7705 23.0724 2
60.6822 11.1086 2
57.6029 11.4798 2
70.0476 35.3962 3.9662
69.4479 31.1576 3.96493
67.4954 33.6126 3.97569
66.5943 29.6659 3.97454
65.3216 25.7627 3.96992
63.7827 28.3551 3.97529
62.3357 12.6607 3.96997
62.5179 24.7583 3.97374
62.1797 15.8094 3.95782
61.6379 18.7709 3.95927
60.9136 21.4773 3.96724
59.9885 23.9063 3.97396
59.2363 12.8216 3.96219
55.8653 10.2766 3.97291
56.3885 13.1928 3.96432
69.7647 50.9902 0.0278234
62.2254 65.694 0
58.89 65.4108 0.0224169
67.7787 55.1681 0.0277533
66.5783 52.1897 0.0373142
62.3311 62.423 0.0283815
62.1875 59.3839 0.041853
64.598 56.0103 0.0389671
61.6699 56.6097 0.0395943
60.6675 63.9674 2
57.0243 66.7276 2
57.5494 63.6637 2
67.4452 50.1592 2
65.6316 54.1514 2
64.3113 51.3141 2
60.7601 60.9102 2
62.6406 54.9967 2
60.527 58.0877 2
60.081 55.671 2
55.0667 67.9298 3.98404
59.2119 62.3247 3.96643
55.793 64.8737 3.97124
56.3139 62.025 3.97959
65.0989 49.3441 3.97045
63.4968 53.2191 3.96571
62.0547 50.5291 3.97291
59.2671 59.4943 3.95586
60.7786 54.1889 3.96951
59.0394 56.8857 3.96062
58.9134 55.0361 3.97024
48.0982 68.5693 3.98024
50.9446 69.9306 3.98708
54.0858 71.1327 4
56.25 69.976 2
58.3339 68.6801 0
57.0538 8.34059 3.97548
60.3285 7.74928 4
58.9196 9.6663 2
62.2255 9.30602 2
70.5714 48.8144 0.0278383
71.7796 44.3532 0.0264248
68.8752 46.0064 0.0345324
69.7871 41.7875 0.0336966
72.4029 39.8029 0.0249763
75 37.5 0
72.4853 37.5126 2
70.0321 39.6573 2
69.4103 43.9023 2
67.4198 41.4798 2
68.2163 48.0937 2
66.5047 45.3981 2
70.1183 37.5238 3.96645
67.6712 39.5058 3.97619
67.0353 43.4413 3.97595
65.206 41.1801 3.97678
65.8474 47.3649 3.97342
64.2646 44.7755 3.97604
72.4108 35.2256 0.0249453
71.8013 30.678 0.026239
69.8266 33.2746 0.0342012
68.9389 29.0484 0.0354415
64.0165 10.9835 0
63.8834 14.3322 0.0338611
63.464 17.4726 0.0424418
67.5615 24.9285 0.0365532
66.0012 27.6886 0.0271533
64.5586 23.9 0.032657
62.7234 20.4007 0.0378502
61.7722 23.0715 0.0289667
60.6794 11.1033 0.0267433
57.6034 11.4876 0.0365627
70.0494 35.3964 2
69.4511 31.1579 2
67.4931 33.6132 2
66.5922 29.667 2
62.3382 12.6675 2
62.1768 15.8092 2
61.6447 18.7694 2
65.3199 25.7639 2
63.7809 28.3557 2
60.912 21.478 2
62.5164 24.7592 2
59.9878 23.9068 2
59.2353 12.8197 2
56.3884 13.1886 2
55.8661 10.282 2
67.7161 35.5597 3.97585
67.0995 31.6544 3.97536
65.3666 33.9633 3.97686
64.298 30.273 3.97564
63.1872 26.5266 3.97519
61.7528 28.912 3.97525
60.7637 14.2559 3.96221
60.5775 25.5124 3.97511
60.4924 17.2079 3.95594
59.9191 19.963 3.96247
59.2352 22.4467 3.97019
58.4452 24.5449 3.97421
54.0293 9.17249 3.96808
57.8787 14.4019 3.95538
54.7743 12.0867 3.9676
55.2716 14.756 3.95576
67.4432 50.1602 0.0361528
57.0208 66.7319 0.0192427
60.6643 63.9724 0.0245124
57.5469 63.6557 0.0307462
65.6331 54.1526 0.0381867
64.3134 51.3148 0.031957
60.7648 60.9091 0.0344006
60.5357 58.0879 0.0438997
62.6405 54.9961 0.0363633
60.0814 55.6704 0.0337487
55.0705 67.9262 2
59.2096 62.3286 2
55.7958 64.8709 2
56.3126 62.0273 2
65.0964 49.3431 2
63.4953 53.2188 2
62.0533 50.5288 2
59.2832 59.5033 2
60.7784 54.1893 2
59.0486 56.8889 2
58.9222 55.0385 2
53.0384 68.9974 3.98429
53.9591 65.9991 3.97144
57.8519 60.8117 3.9601
54.6621 63.1324 3.96386
55.182 60.5397 3.97719
62.7952 48.5471 3.97452
61.3938 52.4511 3.97131
59.7338 49.8414 3.97333
57.8446 58.1527 3.95725
58.9403 53.7886 3.97228
57.7433 55.6404 3.96324
50.1039 67.8471 3.97718
47.456 66.5638 3.9755
46.0527 69.1506 3.98263
48.1009 68.5696 2
48.7986 70.7216 3.98845
50.9479 69.9281 2
51.8506 72.1454 4
54.0858 71.1327 2
56.25 69.9759 0
55.0986 7.14388 3.98161
58.3339 6.31992 4
57.0575 8.34692 2
60.3286 7.74926 2
58.9169 9.66058 0.0241864
62.2254 9.30607 0
68.2146 48.0946 0.0351158
69.408 43.9028 0.0339193
66.5083 45.3992 0.0248068
67.4232 41.4805 0.0236963
70.0298 39.6575 0.0335845
72.4865 37.5131 0.025158
70.1206 37.5238 2
67.668 39.5054 2
67.0329 43.4405 2
65.2045 41.1796 2
65.8448 47.3637 2
64.2627 44.7749 2
67.7753 37.525 3.97599
65.4486 39.3568 3.97693
64.8107 42.9735 3.97657
63.2734 40.8866 3.97664
63.5628 46.6187 3.97501
62.269 44.1214 3.97589
70.0476 35.3962 0.0338017
69.4479 31.1576 0.0350698
67.4954 33.6126 0.0243144
66.5943 29.6659 0.0254613
62.3357 12.6607 0.030027
62.1797 15.8094 0.0421836
61.6379 18.7709 0.0407258
65.3216 25.7627 0.0300803
63.7827 28.3551 0.0247063
62.5179 24.7583 0.0262589
60.9136 21.4773 0.0327615
59.9885 23.9063 0.0260418
59.2363 12.8216 0.0378085
56.3885 13.1928 0.0356755
55.8653 10.2766 0.027091
67.7134 35.56 2
67.0978 31.6553 2
65.3645 33.964 2
64.2965 30.2737 2
60.7609 14.2558 2
60.4871 17.2091 2
59.9151 19.964 2
63.186 26.5275 2
61.7525 28.9121 2
59.2379 22.4465 2
60.577 25.5129 2
58.4431 24.5471 2
57.8825 14.4002 2
55.2671 14.7448 2
54.0327 9.1666 2
54.7686 12.0911 2
65.5486 35.6871 3.97689
64.8299 32.2097 3.97627
63.8516 34.2933 3.9765
62.0715 30.7416 3.9757
61.1595 27.2277 3.97501
60.2387 29.3006 3.97584
59.2369 15.7436 3.95517
58.7477 26.0177 3.97537
58.8805 18.4969 3.95904
58.3291 21.0516 3.96446
57.7697 23.324 3.97086
57.3845 24.9173 3.97576
52.1067 8.16643 3.96939
53.0391 11.0927 3.96463
56.6055 15.8523 3.95548
53.7899 13.7794 3.97319
54.283 16.1368 3.95551
55.0667 67.9298 0.015964
65.0989 49.3441 0.0295548
55.793 64.8737 0.028764
59.2119 62.3247 0.0335683
56.3139 62.025 0.0204093
63.4968 53.2191 0.0342927
62.0547 50.5291 0.0270927
59.2671 59.4943 0.0441392
59.0394 56.8857 0.0393799
60.7786 54.1889 0.0304883
58.9134 55.0361 0.0297604
53.0421 68.9951 2
53.9618 65.9965 2
57.8541 60.815 2
54.6601 63.1327 2
55.181 60.5401 2
62.794 48.5467 2
61.3933 52.4512 2
59.7346 49.8412 2
57.8524 58.157 2
58.9456 53.7898 2
57.7409 55.6394 2
52.0636 66.9855 3.97421
52.9365 64.1694 3.97034
56.566 59.4017 3.95521
53.6342 61.5132 3.96691
54.1955 59.2196 3.96384
60.4156 47.7156 3.97423
59.2361 51.933 3.97263
57.366 49.3873 3.97455
56.5302 56.8413 3.96149
56.6179 53.9119 3.9676
50.1065 67.8443 2
49.3269 65.8911 3.97516
47.4588 66.5571 2
46.8814 64.6921 3.9768
45.5544 67.082 3.97844
43.9708 69.5831 3.98374
46.0555 69.1504 2
46.6058 71.3663 3.9899
48.0982 68.5693 0.0197609
48.8019 70.7209 2
49.554 73.0099 4
50.9446 69.9306 0.0129209
51.8506 72.1455 2
54.0858 71.1327 0
53.0614 6.0745 3.98639
55.1029 7.14592 2
56.25 5.02411 4
58.3339 6.3199 2
57.0538 8.34059 0.0245218
60.3285 7.74928 0
65.8474 47.3649 0.0265798
67.0353 43.4413 0.0240453
64.2646 44.7755 0.0239608
65.206 41.1801 0.023216
67.6712 39.5058 0.02381
70.1183 37.5238 0.0335514
67.7728 37.525 2
65.447 39.3567 2
64.8087 42.9727 2
63.2734 40.8862 2
63.5613 46.618 2
62.2686 44.1214 2
65.5589 37.5056 3.97687
63.4243 39.2491 3.97652
62.8189 42.4865 3.97629
61.8417 40.6476 3.97658
61.4026 45.7881 3.97532
60.7934 43.5755 3.97608
67.7161 35.5597 0.024147
67.0995 31.6544 0.0246405
65.3666 33.9633 0.023136
64.298 30.273 0.0243586
60.7637 14.2559 0.0377945
60.4924 17.2079 0.0440623
59.9191 19.963 0.0375282
63.1872 26.5266 0.0248063
61.7528 28.912 0.0247509
60.5775 25.5124 0.0248904
59.2352 22.4467 0.0298052
58.4452 24.5449 0.0257856
57.8787 14.4019 0.0446233
55.2716 14.756 0.0442354
54.0293 9.17249 0.0319156
54.7743 12.0867 0.0324032
65.5468 35.6873 2
64.8282 32.2106 2
63.8518 34.2936 2
62.0714 30.7419 2
59.2543 15.7386 2
58.8792 18.4967 2
58.3272 21.0527 2
61.1589 27.2279 2
60.2398 29.3007 2
57.7676 23.3266 2
58.7456 26.0187 2
57.3838 24.9208 2
56.5765 15.8567 2
54.2845 16.1245 2
53.7759 13.7731 2
52.109 8.16932 2
53.0422 11.0856 2
63.6356 35.6599 3.97639
62.4027 33.1196 3.97611
59.9444 30.7585 3.97556
58.9152 28.1116 3.97529
57.7783 17.1104 3.95636
57.0722 25.9962 3.97545
57.3576 19.6708 3.95944
56.8533 22.087 3.96471
56.5817 24.2172 3.97289
50.1076 7.2959 3.97971
51.2181 10.1751 3.96865
52.1374 12.9061 3.96603
55.3878 17.1228 3.95641
52.9174 15.3817 3.95729
53.6233 17.1419 3.95563
53.0384 68.9974 0.0157141
53.9591 65.9991 0.0285624
62.7952 48.5471 0.0254791
54.6621 63.1324 0.0361367
57.8519 60.8117 0.0399028
55.182 60.5397 0.0228146
61.3938 52.4511 0.0286936
59.7338 49.8414 0.0266716
57.8446 58.1527 0.0427486
57.7433 55.6404 0.0367596
58.9403 53.7886 0.0277224
52.0663 66.9838 2
52.9363 64.1696 2
56.5641 59.4028 2
53.6327 61.5125 2
54.1909 59.2215 2
60.4156 47.7153 2
59.2387 51.9333 2
57.3672 49.3874 2
56.527 56.845 2
56.6163 53.911 2
51.155 65.0979 3.97136
52.0115 62.4595 3.96647
55.3367 58.13 3.96151
52.7469 60.0027 3.96586
53.5368 58.3504 3.96256
57.5081 46.6223 3.97513
56.9752 51.564 3.97218
55.4978 49.2868 3.97409
55.1548 55.6146 3.96267
54.7893 53.1482 3.96248
50.1039 67.8471 0.0228186
49.3281 65.8955 2
48.602 64.0815 3.97857
47.456 66.5638 0.0244957
45.556 67.0849 2
46.8821 64.6936 2
46.3639 62.9964 3.98239
45.1243 65.1703 3.97931
43.6292 67.4556 3.98015
41.8586 69.8702 3.9838
43.9725 69.5831 2
44.3735 71.8609 3.99033
46.0527 69.1506 0.0173701
46.6081 71.3658 2
47.2057 73.7222 4
48.7986 70.7216 0.0115495
49.554 73.0099 2
51.8506 72.1454 0
50.9527 5.13468 3.9887
53.0643 6.07601 2
54.0858 3.86728 4
55.0986 7.14388 0.0183904
56.25 5.02406 2
58.3339 6.31992 0
63.5628 46.6187 0.0249874
64.8107 42.9735 0.0234344
62.269 44.1214 0.024114
63.2734 40.8866 0.0233588
65.4486 39.3568 0.0230682
67.7753 37.525 0.0240138
65.5576 37.5057 2
63.4245 39.2492 2
62.8195 42.4859 2
61.8418 40.6472 2
61.4023 45.7878 2
60.7937 43.5754 2
63.4887 37.4613 3.97649
61.5431 39.3267 3.97681
60.5385 41.8721 3.97677
59.5183 44.6152 3.97559
65.5486 35.6871 0.0231107
64.8299 32.2097 0.0237314
63.8516 34.2933 0.0234964
62.0715 30.7416 0.0243025
59.2369 15.7436 0.0448269
58.8805 18.4969 0.0409604
58.3291 21.0516 0.0355359
61.1595 27.2277 0.0249916
60.2387 29.3006 0.0241566
58.7477 26.0177 0.024629
57.7697 23.324 0.029142
57.3845 24.9173 0.0242415
56.6055 15.8523 0.044517
54.283 16.1368 0.0444877
53.7899 13.7794 0.0268086
52.1067 8.16643 0.0306091
53.0391 11.0927 0.0353716
63.636 35.6599 2
62.4039 33.1203 2
59.9456 30.759 2
57.7857 17.1068 2
57.3664 19.6677 2
56.8529 22.0898 2
58.9161 28.1108 2
56.5914 24.2196 2
57.0722 25.9948 2
50.111 7.29266 2
55.3849 17.1253 2
53.6272 17.1327 2
52.9101 15.3862 2
52.1474 12.8998 2
51.2197 10.1719 2
61.5857 35.3999 3.97651
59.5561 32.8555 3.97592
57.8161 30.2724 3.97522
56.5249 27.6467 3.97565
56.4012 18.3267 3.95774
55.5855 25.4105 3.97472
55.9221 20.7586 3.95754
55.5087 23.1561 3.96567
48.0546 6.53539 3.98286
49.3152 9.36276 3.97328
50.4066 12.0803 3.96656
51.3173 14.6254 3.96666
54.2194 18.1072 3.96075
52.2497 17.2142 3.95494
52.0636 66.9855 0.0257897
52.9365 64.1694 0.0296609
60.4156 47.7156 0.0257657
53.6342 61.5132 0.0330883
56.566 59.4017 0.0447881
54.1955 59.2196 0.0361586
59.2361 51.933 0.0273735
57.366 49.3873 0.0254518
56.5302 56.8413 0.038509
56.6179 53.9119 0.032401
51.1558 65.0963 2
52.0105 62.4625 2
55.3321 58.1301 2
52.747 60.0053 2
53.5331 58.3533 2
57.5081 46.6213 2
56.9741 51.5632 2
55.4967 49.2861 2
55.1541 55.6155 2
54.7879 53.148 2
50.3227 63.3382 3.9732
51.177 60.829 3.97279
54.0326 57.1253 3.967
52.1505 58.4855 3.9678
55.6925 43.9669 3.97568
54.5991 47.5998 3.97547
54.3222 51.1121 3.96571
53.5974 54.3392 3.96454
49.3269 65.8911 0.0248416
48.6006 64.0878 2
47.9334 62.4297 3.98832
45.5544 67.082 0.0215647
46.8814 64.6921 0.0232044
43.63 67.4557 2
46.3637 63.0009 2
45.1265 65.1657 2
45.9584 61.5239 3.99419
44.7547 63.4014 3.97499
43.3537 65.4854 3.97802
41.6624 67.6738 3.97912
39.7011 70.017 3.9834
41.8599 69.871 2
42.1085 72.2049 3.9908
43.9708 69.5831 0.0162578
44.3754 71.8603 2
44.8159 74.2794 4
46.6058 71.3663 0.0100982
47.2057 73.7222 2
49.554 73.0099 0
48.7843 4.32464 3.98948
50.9548 5.13435 2
51.8506 2.85458 4
53.0614 6.0745 0.0136129
54.0858 3.86728 2
56.25 5.02411 0
61.4026 45.7881 0.0246776
62.8189 42.4865 0.0237069
60.7934 43.5755 0.0239182
61.8417 40.6476 0.0234178
63.4243 39.2491 0.0234779
65.5589 37.5056 0.0231341
63.4896 37.4614 2
61.5427 39.3268 2
60.5393 41.8717 2
59.5192 44.615 2
61.3644 37.4493 3.97667
59.4684 39.7972 3.9768
58.1185 42.784 3.97585
63.6356 35.6599 0.0236135
62.4027 33.1196 0.023893
59.9444 30.7585 0.0244375
57.7783 17.1104 0.0436371
57.3576 19.6708 0.0405558
56.8533 22.087 0.0352874
58.9152 28.1116 0.0247081
57.0722 25.9962 0.0245474
56.5817 24.2172 0.0271067
55.3878 17.1228 0.0435935
53.6233 17.1419 0.044366
52.9174 15.3817 0.0427128
50.1076 7.2959 0.0202933
52.1374 12.9061 0.0339706
51.2181 10.1751 0.031353
61.5859 35.4002 2
59.5553 32.8554 2
57.8181 30.2726 2
56.4011 18.3255 2
55.9479 20.7525 2
55.5174 23.1601 2
56.5272 27.6468 2
55.5906 25.414 2
48.0551 6.53647 2
49.3157 9.3608 2
54.2229 18.1097 2
52.2392 17.2147 2
51.3193 14.6193 2
50.4105 12.0808 2
59.0928 35.177 3.97657
57.0682 32.4236 3.97524
55.6342 29.5958 3.97536
54.6085 26.9424 3.97473
55.0591 19.3918 3.96316
54.2764 24.3776 3.97163
54.4975 21.8406 3.96181
45.9614 5.88945 3.98498
43.3731 7.48293 3.98162
47.3507 8.64092 3.97511
48.58 11.3549 3.96925
49.6649 13.8392 3.96752
50.532 16.2833 3.95326
52.9119 18.8888 3.96324
51.1637 18.2982 3.95787
51.155 65.0979 0.0286423
52.0115 62.4595 0.0335253
57.5081 46.6223 0.0248744
52.7469 60.0027 0.0341353
55.3367 58.13 0.0384893
53.5368 58.3504 0.0374395
56.9752 51.564 0.0278193
55.4978 49.2868 0.0259114
55.1548 55.6146 0.0373319
54.7893 53.1482 0.0375161
50.3204 63.3363 2
51.1763 60.831 2
54.0274 57.1264 2
52.1429 58.4871 2
55.6945 43.9683 2
54.5988 47.6 2
54.3176 51.1107 2
53.5919 54.3399 2
49.5461 61.6951 3.97444
54.3784 41.5837 3.97387
50.448 59.2065 3.96458
51.9011 56.3179 3.96546
53.0473 45.2371 3.97308
52.4135 49.007 3.96997
52.0763 52.6028 3.95949
48.602 64.0815 0.0214318
47.9331 62.4294 2
47.2858 60.9541 3.9908
43.6292 67.4556 0.0198467
45.1243 65.1703 0.0206924
46.3639 62.9964 0.0176141
41.6636 67.6739 2
43.3576 65.4863 2
45.9594 61.5288 2
44.7551 63.3989 2
45.7232 60.5688 3.99712
44.4629 61.7696 3.97944
43.1384 63.6837 3.97813
41.5453 65.6238 3.97351
39.6322 67.7526 3.97849
37.5257 70.0414 3.98334
39.702 70.0171 2
39.8162 72.4021 3.99116
41.8586 69.8702 0.016204
42.1099 72.2053 2
42.3947 74.6792 4
44.3735 71.8609 0.00966802
44.8159 74.2794 2
47.2057 73.7222 0
43.851 5.36405 3.9854
46.5705 3.64947 3.99028
48.785 4.32552 2
49.554 1.99015 4
50.9527 5.13468 0.0113018
51.8506 2.85453 2
54.0858 3.86728 0
59.5183 44.6152 0.0244124
60.5385 41.8721 0.0232343
61.5431 39.3267 0.023189
63.4887 37.4613 0.0235139
61.3644 37.4494 2
59.4673 39.7955 2
58.119 42.7839 2
58.9459 37.5679 3.97706
57.0283 40.5638 3.97748
53.7784 39.6175 3.97595
61.5857 35.3999 0.0234923
59.5561 32.8555 0.0240832
57.8161 30.2724 0.0247785
56.4012 18.3267 0.042262
55.9221 20.7586 0.0424632
55.5087 23.1561 0.0343256
56.5249 27.6467 0.0243498
55.5855 25.4105 0.0252806
54.2194 18.1072 0.0392503
52.2497 17.2142 0.0450581
51.3173 14.6254 0.0333357
48.0546 6.53539 0.0171414
49.3152 9.36276 0.0267201
50.4066 12.0803 0.0334428
59.0923 35.1778 2
45.9616 5.88883 2
43.3724 7.48272 2
57.067 32.4251 2
55.6356 29.5938 2
55.0473 19.3962 2
54.536 21.8377 2
54.2741 24.3834 2
54.6112 26.9428 2
47.3501 8.63927 2
48.583 11.3479 2
52.9068 18.8537 2
51.1582 18.297 2
50.543 16.2817 2
49.6621 13.8487 2
56.3781 34.8455 3.97715
54.6563 31.7401 3.97455
53.5235 28.7263 3.97621
52.9885 25.8628 3.97385
53.6427 20.3785 3.96421
53.0189 23.0337 3.96384
41.399 7.08391 3.9831
45.3577 8.00514 3.98545
42.8649 9.43096 3.97154
46.6556 10.6943 3.97573
47.7029 13.1705 3.96752
48.8462 15.5032 3.9716
49.8722 17.888 3.96855
51.4269 19.5932 3.98664
50.3227 63.3382 0.0267978
51.177 60.829 0.027209
55.6925 43.9669 0.0243164
54.5991 47.5998 0.0245268
52.1505 58.4855 0.0321977
54.0326 57.1253 0.0330043
54.3222 51.1121 0.0342897
53.5974 54.3392 0.0354634
49.5456 61.6908 2
54.3778 41.5811 2
50.4454 59.2142 2
51.9066 56.3219 2
53.041 45.2333 2
52.4099 49.0048 2
52.0795 52.603 2
48.7683 60.1446 3.99592
51.0424 42.4425 3.98348
49.5989 57.4934 3.96455
50.1762 54.2273 3.95937
50.7086 46.9079 3.97615
50.4695 50.6624 3.95283
46.7777 43.4092 3.96287
47.9334 62.4297 0.0116829
47.2887 60.9558 2
46.5583 59.7373 3.9934
41.6624 67.6738 0.0208828
43.3537 65.4854 0.021975
44.7547 63.4014 0.0250139
45.9584 61.5239 0.00580762
39.6335 67.7533 2
41.5478 65.6219 2
45.7227 60.574 2
43.1375 63.6818 2
44.4621 61.7711 2
44.5818 60.2216 3.99338
42.9338 62.026 3.9764
41.5935 63.7907 3.9784
39.6462 65.5919 3.9751
37.5633 67.7343 3.97704
31.6985 65.1083 3.97354
33.393 67.4724 3.97751
35.3341 69.9525 3.98362
37.5256 70.0434 2
37.5093 72.4561 3.99171
39.7011 70.017 0.0165994
39.8171 72.402 2
39.9526 74.9197 4
42.1085 72.2049 0.00920094
42.3947 74.6792 2
44.8159 74.2794 0
41.7359 4.97136 3.98783
43.851 5.36343 2
44.3263 3.11188 3.99174
46.5712 3.64951 2
47.2057 1.27793 4
48.7843 4.32464 0.0105192
49.554 1.99013 2
51.8506 2.85458 0
58.1185 42.784 0.0241497
59.4684 39.7972 0.023196
61.3644 37.4493 0.0233333
58.9435 37.5692 2
57.0322 40.5629 2
53.7817 39.6186 2
55.7341 37.8787 3.97738
48.0632 41.1534 3.9671
51.6069 39.2276 3.97965
39.4419 6.80895 3.98138
59.0928 35.177 0.0234328
57.0682 32.4236 0.024763
55.6342 29.5958 0.0246412
55.0591 19.3918 0.0368441
54.4975 21.8406 0.0381887
54.2764 24.3776 0.0283748
54.6085 26.9424 0.0252695
52.9119 18.8888 0.0367567
51.1637 18.2982 0.0421339
50.532 16.2833 0.0467449
45.9614 5.88945 0.0150213
49.6649 13.8392 0.0324771
47.3507 8.64092 0.0248937
48.58 11.3549 0.0307517
43.3731 7.48293 0.0183796
56.3802 34.8487 2
41.3991 7.08565 2
45.3565 8.00461 2
42.8627 9.4334 2
54.6587 31.7431 2
53.5213 28.726 2
53.6453 20.3859 2
53.0016 23.0366 2
52.9925 25.8622 2
46.6559 10.6871 2
47.7061 13.1683 2
51.4325 19.5921 2
49.8711 17.8858 2
48.8513 15.5342 2
53.5845 34.0705 3.97524
52.3106 30.8118 3.97482
51.651 27.5911 3.97499
51.4916 24.4818 3.97298
52.0226 21.3442 3.9842
41.0119 9.05554 3.97768
44.7254 10.0106 3.97953
42.4535 10.917 4.00433
45.9658 12.7677 3.96595
47.6185 14.697 3.96701
47.9939 17.1051 3.97122
49.6594 19.9978 3.98683
49.5461 61.6951 0.0255638
50.448 59.2065 0.0354166
54.3784 41.5837 0.026133
53.0473 45.2371 0.026921
52.4135 49.007 0.0300349
51.9011 56.3179 0.0345383
52.0763 52.6028 0.0405128
48.7665 60.1392 2
51.0593 42.4602 2
49.598 57.4925 2
50.1778 54.2293 2
50.7099 46.9073 2
50.4735 50.6621 2
46.7862 43.4543 2
47.8724 58.6353 3.99035
48.7793 44.9565 3.98151
48.3214 55.7657 3.9536
48.6002 52.3691 3.98138
48.7896 48.728 3.96961
44.4669 39.701 3.82389
45.0075 42.3381 3.87037
45.334 45.3606 3.98091
42.3492 40.9494 3.60011
41.3042 41.5634 3.39848
47.2858 60.9541 0.00919703
46.5536 59.7445 2
45.3952 58.7289 3.99509
39.6322 67.7526 0.0215055
41.5453 65.6238 0.0264931
43.1384 63.6837 0.021869
44.4629 61.7696 0.0205593
45.7232 60.5688 0.00287792
41.5956 63.7846 2
37.564 67.737 2
39.649 65.5925 2
44.5831 60.224 2
42.9324 62.0273 2
41.7408 62.4384 3.9795
42.4487 59.9195 3.98858
39.8894 63.5271 3.9778
37.6408 65.4885 3.97409
35.4636 67.6443 3.97659
33.5759 65.3202 3.974
31.9635 63.2634 3.98042
29.8883 64.6949 3.97934
31.6968 65.1082 2
31.3788 67.1825 3.97808
33.3923 67.4738 2
33.158 69.7458 3.98348
35.3333 69.9538 2
35.1964 72.3712 3.99189
37.5257 70.0414 0.0166586
37.5096 72.4567 2
37.5 75 4
39.8162 72.4021 0.0088427
39.9526 74.9197 2
42.3947 74.6792 0
39.6241 4.71898 3.9882
41.7359 4.97167 2
42.0629 2.71886 3.99237
43.851 5.36405 0.0145958
44.3266 3.11156 2
44.8158 0.721173 4
46.5705 3.64947 0.00971545
47.2057 1.27779 2
49.554 1.99015 0
57.0283 40.5638 0.0225168
58.9459 37.5679 0.0229379
53.7784 39.6175 0.0240537
48.0939 41.171 2
55.7289 37.8746 2
51.6123 39.2197 2
52.4992 36.622 3.97714
45.9926 40.2389 3.88484
48.9723 38.489 3.97336
37.5158 6.67799 3.98464
39.4427 6.80929 2
39.2093 8.70336 3.98007
35.9423 8.50059 3.98144
56.3781 34.8455 0.0228456
54.6563 31.7401 0.0254485
53.5235 28.7263 0.0237944
53.6427 20.3785 0.0357868
53.0189 23.0337 0.0361558
52.9885 25.8628 0.0261527
51.4269 19.5932 0.013358
49.8722 17.888 0.0314521
48.8462 15.5032 0.0284046
45.3577 8.00514 0.0145455
47.7029 13.1705 0.0324842
46.6556 10.6943 0.024274
41.399 7.08391 0.0169026
42.8649 9.43096 0.0284623
53.5808 34.0676 2
41.0113 9.05979 2
44.7223 10.0098 2
42.4545 10.9262 2
52.3085 30.8083 2
51.6595 27.5902 2
52.0257 21.349 2
51.4787 24.4851 2
45.9699 12.7634 2
47.6122 14.6745 2
49.6744 20.0143 2
47.9928 17.1074 2
51.0178 33.0429 3.9772
50.1359 29.5674 3.97661
49.9583 26.0878 3.97064
49.5797 22.5782 3.98067
40.5574 11.6138 3.9845
43.8238 11.9287 3.96297
45.7419 15.5796 3.98949
47.3714 19.6041 3.98004
44.8598 37.4897 3.83001
48.7683 60.1446 0.00407628
49.5989 57.4934 0.0354515
51.0424 42.4425 0.016518
50.7086 46.9079 0.0238498
50.4695 50.6625 0.0471698
50.1762 54.2273 0.040628
46.7777 43.4092 0.0371271
47.8672 58.6401 2
48.7934 44.9708 2
48.3183 55.7685 2
48.6004 52.3739 2
48.7943 48.7303 2
44.5928 39.7259 2
45.0408 42.3639 2
45.3426 45.3825 2
42.4153 41.0115 2
41.3475 41.5893 2
46.676 57.2368 3.98981
43.0031 39.3553 3.59127
41.6884 40.545 3.38125
47.0196 46.9634 3.98748
46.8105 54.053 3.96134
46.9383 50.5049 3.97561
43.9721 46.9903 3.98722
43.6698 41.706 3.82706
43.8618 44.1174 3.85701
41.559 42.2277 3.64985
40.4161 41.8427 3.33341
46.5583 59.7373 0.00659861
45.3909 58.7269 2
43.8025 57.5922 3.98689
37.5633 67.7343 0.0229579
39.6462 65.5919 0.0249049
41.5935 63.7907 0.0216012
42.9338 62.026 0.0236023
44.5818 60.2216 0.0066187
35.4634 67.6463 2
41.7386 62.4409 2
39.8896 63.5292 2
37.6427 65.4924 2
42.4497 59.9207 2
40.6113 61.5825 3.98429
40.4173 58.1015 3.99081
37.8349 63.1825 3.97314
35.5723 65.4113 3.97512
33.5752 65.319 2
31.9664 63.2631 2
33.6306 63.3122 3.98029
30.3868 62.821 3.98133
32.1361 61.9667 3.98924
26.8978 61.4143 3.98645
28.0731 64.119 3.98267
29.8877 64.6927 2
29.4094 66.7448 3.97776
31.6985 65.1083 0.0264592
31.3779 67.1834 2
31.016 69.4109 3.98309
33.393 67.4724 0.0224948
33.1567 69.7469 2
32.8946 72.1454 3.9911
35.3341 69.9525 0.0163809
35.1957 72.3718 2
35.0474 74.9194 4
37.5093 72.4561 0.00828755
37.5 75 2
39.9526 74.9197 0
35.6203 6.73013 3.98262
37.5241 4.61837 3.9889
39.6241 4.71879 2
39.7895 2.47531 3.99259
41.7359 4.97136 0.0121717
42.0629 2.71885 2
42.3946 0.32156 4
44.3263 3.11188 0.00826123
44.8159 0.72056 2
47.2057 1.27793 0
48.0632 41.1534 0.032897
55.7341 37.8787 0.0226173
51.6069 39.2276 0.0203546
46.0264 40.2411 2
48.986 38.4568 2
52.5184 36.6242 2
49.793 35.5533 3.9778
46.6139 37.7162 3.86591
44.4929 35.2409 3.82688
42.4001 33.9806 3.60143
41.3442 33.3656 3.39928
37.4575 8.5385 3.98386
37.5168 6.67823 2
39.4419 6.80895 0.018615
39.2103 8.70459 2
38.9709 10.1389 3.99076
35.898 9.78403 3.98125
34.1525 8.833 3.97904
35.9433 8.50031 2
53.5845 34.0705 0.0247625
52.3106 30.8118 0.0251761
51.651 27.5911 0.0250149
52.0226 21.3442 0.0157981
51.4916 24.4818 0.0270233
49.6594 19.9978 0.013168
47.9939 17.1051 0.028781
47.6185 14.697 0.0329886
44.7254 10.0106 0.0204679
45.9658 12.7677 0.0340473
41.0119 9.05554 0.0223159
42.4535 10.917 -0.00433104
51.0335 33.0282 2
40.5636 11.6253 2
43.826 11.9229 2
50.1499 29.5681 2
49.9625 26.1019 2
49.566 22.5455 2
45.725 15.5108 2
47.3809 19.6386 2
48.6117 31.6091 3.98184
48.2874 27.8626 3.9747
48.7776 24.7084 3.97645
46.9478 22.4002 3.99289
38.2977 12.7627 3.97811
42.0673 14.3939 3.98435
44.7017 18.6955 3.98701
43.3547 37.4744 3.60463
44.9678 37.477 2
47.8724 58.6353 0.00964539
48.3214 55.7657 0.0464037
48.7793 44.9565 0.0184926
48.7896 48.728 0.0303868
48.6002 52.3691 0.0186177
44.4669 39.701 0.176113
45.0075 42.3381 0.129626
45.334 45.3606 0.0190853
42.3492 40.9494 0.399888
41.3042 41.5634 0.601524
46.6732 57.2413 2
43.0933 39.3767 2
41.7079 40.557 2
47.0264 46.9656 2
46.8055 54.0567 2
46.9391 50.5163 2
44.0154 47.0003 2
43.7406 41.7592 2
43.9188 44.1521 2
41.617 42.3163 2
40.4695 41.8635 2
45.1948 55.7926 4.00125
42.0197 39.1013 3.39043
40.2906 40.4579 3.46106
45.3238 48.6066 4.00376
45.0541 52.2915 3.99221
42.7792 47.9674 3.98974
42.6375 45.6156 3.86356
42.7008 43.4399 3.8136
40.6459 43.1508 3.61151
39.1312 42.1179 3.41425
45.3952 58.7289 0.00491091
43.7962 57.6078 2
42.026 56.1414 3.99405
35.4636 67.6443 0.0234078
37.6408 65.4885 0.0259136
39.8894 63.5271 0.0222046
41.7408 62.4384 0.0205039
42.4487 59.9195 0.0114192
35.5734 65.4148 2
40.61 61.5802 2
37.8358 63.1825 2
40.4143 58.1073 2
38.9071 56.2869 3.99598
38.2415 60.2683 3.98501
35.6064 63.1782 3.97298
33.5759 65.3202 0.0259961
31.9635 63.2634 0.0195752
33.6332 63.3144 2
30.3891 62.8201 2
32.1396 61.9662 2
28.6971 62.1538 3.97813
33.3545 61.4754 3.9841
31.0909 61.1879 3.99244
27.6285 59.5113 3.97932
23.8739 58.9699 3.9841
25.076 60.7736 3.97975
26.8985 61.416 2
26.2465 63.4431 3.97442
28.0728 64.1139 2
27.4684 66.1607 3.97703
29.8883 64.6949 0.0206634
29.4079 66.7452 2
28.9092 68.9356 3.98221
31.3788 67.1825 0.0219203
31.0143 69.4112 2
30.6179 71.777 3.99043
33.158 69.7458 0.0165208
32.8933 72.1458 2
32.6054 74.6784 4
35.1964 72.3712 0.00810614
35.0474 74.9197 2
37.5 75 0
33.7234 6.98678 3.981
35.4362 4.68834 3.98823
35.6215 6.73012 2
37.5154 2.38796 3.99275
37.524 4.61789 2
39.6241 4.71898 0.0117997
39.7893 2.47511 2
39.9526 0.0806499 4
42.0629 2.71886 0.00763276
42.3947 0.320817 2
44.8158 0.721173 0
43.0329 35.5869 3.59895
41.7229 34.3761 3.36487
45.9926 40.2389 0.115164
48.9723 38.489 0.0266362
52.4992 36.622 0.0228628
46.6219 37.7082 2
49.8182 35.5907 2
44.6015 35.2269 2
42.4568 33.9175 2
41.3699 33.3401 2
46.8763 34.4417 3.93029
43.7265 33.2317 3.82008
41.6056 32.7051 3.65296
40.4396 33.0947 3.3326
37.3082 10.637 3.98123
37.4589 8.53964 2
37.5158 6.67799 0.0153596
39.2093 8.70336 0.0199296
38.9766 10.1422 2
34.7561 10.3956 3.97662
35.903 9.78196 2
32.3806 9.38257 3.97389
34.1525 8.83199 2
35.9423 8.50059 0.01856
51.0178 33.0429 0.0227973
50.1359 29.5674 0.0233891
49.9583 26.0878 0.0293623
49.5797 22.5782 0.0193275
47.3714 19.6041 0.0199605
45.7419 15.5796 0.0105065
43.8238 11.9287 0.037035
40.5574 11.6138 0.0154999
48.6316 31.5935 2
38.2998 12.7627 2
42.0757 14.3954 2
48.2863 27.861 2
48.7796 24.7148 2
46.9392 22.3895 2
44.7117 18.7571 2
46.5794 29.8793 3.97958
46.467 25.4148 3.97941
44.1388 21.6994 3.98375
36.5883 12.9784 3.97745
38.6653 14.8997 3.97829
41.6853 18.0206 3.98626
42.1898 37.4469 3.41724
43.4358 37.4756 2
44.8598 37.4897 0.169992
46.676 57.2368 0.0101937
46.8105 54.053 0.0386561
47.0196 46.9634 0.0125155
46.9383 50.5049 0.024393
43.0031 39.3553 0.408729
43.6698 41.706 0.172937
43.8618 44.1174 0.142987
43.9721 46.9903 0.0127811
41.559 42.2277 0.350149
41.6884 40.545 0.618749
40.4161 41.8427 0.666592
45.1915 55.7968 2
42.0386 39.1092 2
40.3641 40.4497 2
45.3236 48.6299 2
45.0488 52.2945 2
42.8268 47.9914 2
42.7093 45.6816 2
42.7451 43.4728 2
40.7106 43.2377 2
39.1078 42.1503 2
43.5138 54.2251 4.00646
40.3657 38.9544 3.49125
39.0293 40.5505 3.44231
43.1098 50.0716 4.0031
41.4596 47.0995 3.91483
41.3793 44.7013 3.81155
39.367 43.8045 3.59195
37.5108 42.2637 3.47654
43.8025 57.5922 0.0131139
42.0297 56.1296 2
40.3286 54.7043 3.99638
35.5723 65.4113 0.0248755
37.8349 63.1825 0.0268582
40.6113 61.5825 0.015707
40.4173 58.1015 0.00918562
35.6087 63.1743 2
38.2372 60.2646 2
38.9079 56.269 2
37.9802 54.9652 3.99531
36.9274 57.5066 3.99214
35.3656 60.8714 3.98573
33.6306 63.3122 0.0197115
30.3868 62.821 0.0186655
32.1361 61.9667 0.0107638
33.3582 61.4739 2
28.6972 62.1623 2
31.0942 61.1887 2
29.446 60.2414 3.98451
32.3727 59.649 3.99602
28.1145 58.3028 4.018
27.6305 59.5096 2
25.4647 58.4973 3.97824
22.8775 58.1209 3.97226
23.4517 60.2392 3.97435
23.8755 58.9708 2
25.0777 60.7745 2
24.4567 62.713 3.97403
26.8978 61.4143 0.0135525
26.2466 63.4431 2
25.5556 65.4688 3.97391
28.0731 64.119 0.017332
27.4671 66.1618 2
26.84 68.3229 3.98044
29.4094 66.7448 0.0222434
28.907 68.9352 2
28.3734 71.2623 3.98918
31.016 69.4109 0.0169147
30.6159 71.7766 2
30.1842 74.2788 4
32.8946 72.1454 0.0089002
32.6053 74.6792 2
35.0474 74.9194 0
31.788 7.42818 3.9784
33.3487 4.92827 3.98675
33.7243 6.98603 2
35.2459 2.46379 3.99273
35.4359 4.6884 2
35.6203 6.73013 0.0173772
37.5 0 4
37.5148 2.38774 2
37.5241 4.61837 0.0111032
39.7895 2.47531 0.00741385
39.9526 0.0802889 2
42.3946 0.32156 0
42.0167 35.7897 3.35201
43.1331 35.5644 2
40.3461 34.4526 3.46978
41.7327 34.3588 2
46.6139 37.7162 0.134088
49.793 35.5533 0.0221977
44.4929 35.2409 0.173119
42.4001 33.9806 0.398569
41.3442 33.3656 0.600725
46.9142 34.4473 2
43.7858 33.1744 2
41.6566 32.6206 2
40.4819 33.0743 2
45.0366 31.9035 3.88386
42.7499 31.4907 3.80441
40.6916 31.7827 3.61398
39.1363 32.8313 3.41193
35.6973 11.7964 3.97485
37.3164 10.6381 2
37.4575 8.5385 0.0161364
38.9709 10.1389 0.00923754
33.1037 11.2381 3.97297
34.7589 10.3908 2
35.898 9.78403 0.0187498
30.4876 10.0359 3.97506
32.3805 9.38266 2
34.1525 8.833 0.0209648
48.6117 31.6091 0.0181564
48.2874 27.8626 0.0252999
48.7776 24.7084 0.0235487
46.9478 22.4002 0.00711462
44.7017 18.6955 0.0129918
42.0673 14.3939 0.0156496
38.2977 12.7627 0.0218916
36.5855 12.9658 2
46.5687 29.8198 2
38.6695 14.877 2
41.6814 18.0177 2
46.4737 25.4021 2
44.1256 21.6874 2
44.6511 28.0292 3.99528
43.3971 24.3466 4.01714
41.2359 21.0453 3.9958
35.7736 14.8147 3.98828
38.6344 17.7586 3.98861
40.4208 37.4104 3.51814
42.2138 37.4528 2
43.3547 37.4744 0.395368
45.1948 55.7926 -0.00125262
45.0541 52.2915 0.00778663
45.3238 48.6066 -0.00375567
42.0197 39.1013 0.609571
42.7008 43.4399 0.186405
42.6375 45.6156 0.136444
42.7792 47.9674 0.0102625
40.6459 43.1508 0.388485
40.2906 40.4579 0.538945
39.1312 42.1179 0.585754
43.5094 54.2213 2
40.4047 38.9579 2
39.0146 40.554 2
43.0994 50.0944 2
41.4528 47.1272 2
41.4023 44.7413 2
37.5047 42.2894 2
39.386 43.8868 2
41.6648 52.6751 4.00153
39.0412 39.0153 3.43352
37.5079 40.5933 3.5032
35.8908 42.135 3.41004
40.6685 49.2146 3.99065
39.6157 45.3805 3.77668
37.5079 44.0989 3.63973
42.026 56.1414 0.00594798
40.328 54.7111 2
38.698 53.4439 3.99707
35.6064 63.1782 0.027015
38.2415 60.2683 0.0149889
38.9071 56.2869 0.00402482
35.3656 60.8546 2
36.9276 57.5131 2
37.9721 54.9588 2
36.3302 55.0681 3.99691
34.4983 58.4269 3.9949
33.3545 61.4754 0.015904
28.6971 62.1538 0.0218686
31.0909 61.1879 0.00756247
32.3716 59.6536 2
29.4482 60.2461 2
30.3739 57.7385 3.98967
28.1166 58.3005 2
27.1139 56.7349 3.96603
27.6285 59.5113 0.020679
25.467 58.4983 2
24.0419 56.6719 3.95995
21.542 57.2501 3.95798
22.0597 59.5167 3.97322
22.878 58.1229 2
22.7676 61.9341 3.97272
23.4536 60.2398 2
23.8739 58.9699 0.0158968
25.076 60.7736 0.0202516
24.4571 62.7135 2
23.6926 64.6795 3.9707
26.2465 63.4431 0.0255801
25.5549 65.4721 2
24.8126 67.5837 3.97701
27.4684 66.1607 0.0229674
26.8375 68.3243 2
26.1689 70.603 3.98857
28.9092 68.9356 0.0177923
28.371 71.2616 2
27.7943 73.7221 4
30.6179 71.777 0.0095668
30.1841 74.2794 2
32.6054 74.6784 0
29.8112 8.00631 3.97609
31.2539 5.33618 3.98523
31.7887 7.42729 2
32.982 2.70197 3.9921
33.348 4.92801 2
33.7234 6.98678 0.0189976
35.0474 0.080333 4
35.245 2.46394 2
35.4362 4.68834 0.0117733
37.5 0 2
37.5154 2.38796 0.00724613
39.9526 0.0806499 0
40.4695 35.9139 3.51534
42.0469 35.7889 2
43.0329 35.5869 0.401045
28.5497 10.7123 3.97567
39.0342 34.4089 3.43087
40.3599 34.4498 2
41.7229 34.3761 0.635128
46.8763 34.4417 0.0697115
43.7265 33.2317 0.179923
41.6056 32.7051 0.347036
40.4396 33.0947 0.667395
45.0681 31.8849 2
42.7976 31.4494 2
40.7509 31.6981 2
39.1247 32.7952 2
43.514 30.1779 3.86716
41.4076 30.2249 3.81299
39.3823 31.1353 3.59527
37.5248 32.7025 3.4744
34.1031 12.9611 3.97813
35.7007 11.7861 2
37.3082 10.637 0.0187749
31.1948 12.0102 3.976
33.1065 11.2364 2
34.7561 10.3956 0.0233803
30.4852 10.0315 2
32.3806 9.38257 0.0261101
46.5794 29.8793 0.0204181
46.467 25.4148 0.0205869
36.5883 12.9784 0.0225456
44.1388 21.6994 0.0162484
41.6853 18.0206 0.0137406
38.6653 14.8997 0.0217131
35.7705 14.8266 2
44.6502 28.0306 2
38.6401 17.744 2
41.2223 21.0218 2
43.3944 24.3236 2
33.63 15.9192 3.98987
42.5431 26.8257 3.97182
40.7508 23.6976 3.99582
38.3657 20.5641 3.9924
35.8342 17.6435 3.98381
39.0599 37.4794 3.42945
40.445 37.4185 2
42.1898 37.4469 0.582763
43.5138 54.2251 -0.00645962
43.1098 50.0716 -0.00310482
40.3657 38.9544 0.508751
41.3793 44.7013 0.188452
41.4596 47.0995 0.085174
39.367 43.8045 0.408054
39.0293 40.5505 0.55769
37.5108 42.2637 0.52346
41.654 52.6689 2
39.0219 39.0079 2
37.4996 40.5953 2
40.6486 49.2198 2
35.909 42.1644 2
39.6509 45.4526 2
37.5019 44.1805 2
39.6873 51.4287 3.99885
37.5122 39.0123 3.48864
36.0082 40.5714 3.44101
34.6046 41.8699 3.33373
35.649 43.8211 3.59123
38.6079 48.0458 3.92283
37.5095 45.6738 3.81032
40.3286 54.7043 0.00362014
38.6936 53.4606 2
36.7666 52.8096 3.99746
35.3656 60.8714 0.0142722
36.9274 57.5066 0.00786411
37.9802 54.9652 0.0046894
34.4964 58.4406 2
36.3349 55.0593 2
33.3146 55.266 3.99721
32.3727 59.649 0.00398339
29.446 60.2414 0.0154892
30.3763 57.732 2
28.9277 55.2397 3.99559
28.1145 58.3028 -0.0179973
27.1168 56.7322 2
25.6118 54.9983 3.95462
22.1577 55.1612 3.95896
25.4647 58.4973 0.0217569
24.043 56.6741 2
20.431 56.8792 3.962
20.745 58.6635 3.95939
21.5437 57.2518 2
21.2047 61.0711 3.9697
22.0602 59.517 2
22.8775 58.1209 0.027744
21.9117 63.7826 3.97156
22.7685 61.9353 2
23.4517 60.2392 0.0256522
24.4567 62.713 0.0259711
23.6921 64.6811 2
22.8407 66.7242 3.97406
25.5556 65.4688 0.0260934
24.8101 67.5813 2
24.0132 69.8045 3.98759
26.84 68.3229 0.0195582
26.1655 70.6025 2
25.446 73.0099 4
28.3734 71.2623 0.0108224
27.7943 73.7222 2
30.1842 74.2788 0
27.8217 8.66778 3.97635
29.1562 5.88399 3.98242
29.8109 8.00265 2
30.7276 3.09928 3.99146
31.2532 5.33506 2
31.788 7.42818 0.021605
32.6053 0.320823 4
32.9808 2.70205 2
33.3487 4.92827 0.0132536
35.0474 0.0802903 2
35.2459 2.46379 0.00727418
37.5 0 0
38.9767 35.9483 3.44391
40.4489 35.9097 2
42.0167 35.7897 0.647989
28.5466 10.7084 2
26.6325 11.4114 3.97474
29.2365 12.6627 3.97885
37.5311 34.3775 3.5036
39.0583 34.4204 2
40.3461 34.4526 0.530225
45.0366 31.9035 0.116141
42.7499 31.4907 0.195595
40.6916 31.7827 0.386023
39.1363 32.8313 0.588068
43.5422 30.1487 2
41.4462 30.1801 2
39.3968 31.0549 2
37.5325 32.6745 2
41.8211 28.8957 3.85387
39.6248 29.5478 3.79879
37.5206 30.8567 3.64075
35.9037 32.841 3.41722
31.9392 14.5078 3.98367
34.1062 12.9659 2
35.6973 11.7964 0.0251533
31.1956 12.0006 2
33.1037 11.2381 0.0270293
30.4876 10.0359 0.0249423
44.6511 28.0292 0.00472285
43.3971 24.3466 -0.0171373
35.7736 14.8147 0.0117177
41.2359 21.0453 0.00420002
38.6344 17.7586 0.0113917
33.6148 15.912 2
35.8392 17.584 2
42.6131 26.7953 2
38.3461 20.5975 2
40.7368 23.7015 2
33.5678 17.4619 3.99104
40.2007 26.1946 3.96529
38.0146 23.4591 3.99695
35.5251 20.3631 3.99568
37.5295 37.4725 3.5066
39.0292 37.4701 2
40.4208 37.4104 0.481857
41.6648 52.6751 -0.001526
40.6685 49.2146 0.00935311
39.0412 39.0153 0.566481
39.6157 45.3805 0.223317
37.5079 44.0989 0.360275
37.5079 40.5933 0.496798
35.8908 42.135 0.589957
39.6689 51.4218 2
37.5058 39.0136 2
35.9975 40.5528 2
38.6285 48.1117 2
34.5585 41.8902 2
35.6291 43.902 2
37.5014 45.735 2
37.6768 50.3869 3.98975
36.0466 39.0319 3.44745
34.7127 40.4941 3.47173
33.703 41.5968 3.40146
34.3788 43.1789 3.6062
35.3482 45.4384 3.80369
36.9258 47.6668 3.88059
38.698 53.4439 0.0029348
36.7774 52.7551 2
34.5107 52.1318 4.00123
34.4983 58.4269 0.0050961
36.3302 55.0681 0.00308965
33.3199 55.2738 2
30.7877 53.2136 3.99833
30.3739 57.7385 0.0103328
28.9303 55.239 2
27.2763 53.2575 3.95469
27.1139 56.7349 0.033974
25.6152 55.0012 2
24.0444 53.2568 3.95352
21.0449 52.9783 3.95895
20.2634 55.6518 3.9607
22.1571 55.1619 2
24.0419 56.6719 0.0400484
19.5887 57.7607 3.96105
20.4257 56.8826 2
19.7438 60.1113 3.96918
20.7366 58.6676 2
21.542 57.2501 0.0420152
20.2303 62.7793 3.97111
21.2085 61.0728 2
22.0597 59.5167 0.0267804
20.9439 65.7463 3.97187
21.9115 63.7862 2
22.7676 61.9341 0.0272784
23.6926 64.6795 0.029297
22.839 66.7225 2
21.916 68.8709 3.98591
24.8126 67.5837 0.0229916
24.0095 69.802 2
23.1494 72.1454 4
26.1689 70.603 0.0114255
25.446 73.0099 2
27.7943 73.7221 0
25.862 9.39836 3.97428
27.0712 6.54949 3.98057
27.8199 8.66428 2
28.4902 3.64524 3.99023
29.1548 5.88231 2
29.8112 8.00631 0.023905
30.1841 0.720592 4
30.7256 3.09909 2
31.2539 5.33618 0.0147689
32.6053 0.320817 2
32.982 2.70197 0.00789566
35.0474 0.080333 0
37.521 35.9388 3.4785
38.9558 35.9206 2
40.4695 35.9139 0.484655
24.793 12.0882 3.97114
23.7841 14.4653 3.97971
28.5497 10.7123 0.0243257
26.6274 11.4076 2
29.2369 12.6597 2
27.3032 13.416 3.97249
29.8095 14.2186 3.99166
36.0004 34.4078 3.44873
37.5459 34.3722 2
39.0342 34.4089 0.569131
37.5248 32.7025 0.525604
43.514 30.1779 0.132845
41.4076 30.2249 0.187013
39.3823 31.1353 0.404733
41.8529 28.8207 2
39.6557 29.4798 2
37.5234 30.7797 2
35.9235 32.8106 2
39.8097 28.1732 3.85356
37.4915 29.2701 3.79872
35.6678 31.1583 3.59372
34.6069 33.1141 3.33792
30.9725 16.8657 3.99668
31.9343 14.4937 2
34.1031 12.9611 0.0218719
31.1948 12.0102 0.0240047
42.5431 26.8257 0.0281761
40.7508 23.6976 0.00418308
33.63 15.9192 0.0101263
35.8342 17.6435 0.0161882
38.3657 20.5641 0.00759873
33.5464 17.4826 2
35.513 20.4011 2
40.2275 26.164 2
38.0268 23.4507 2
32.9621 19.9467 3.99778
37.7299 25.8477 3.96048
35.3484 23.1152 4.00991
36.0149 37.469 3.43474
37.5102 37.472 2
39.0599 37.4794 0.570549
39.6873 51.4287 0.00114693
38.6079 48.0458 0.077171
37.5122 39.0123 0.51136
37.5095 45.6738 0.189682
35.649 43.8211 0.408774
36.0082 40.5714 0.558991
34.6046 41.8699 0.666269
37.649 50.424 2
36.087 39.0181 2
34.6567 40.5051 2
36.9284 47.7314 2
33.6606 41.6247 2
34.3148 43.2577 2
35.3185 45.4977 2
35.5756 49.5928 3.98103
34.607 39.0164 3.51013
33.3221 40.5872 3.36884
33.4503 42.2585 3.65249
33.6741 44.7179 3.80221
34.6311 46.8375 3.85638
36.7666 52.8096 0.00253759
34.4912 52.1642 2
32.353 50.9504 4.00088
33.3146 55.266 0.00279459
30.7906 53.2093 2
28.9037 51.3243 3.98916
28.9277 55.2397 0.00440618
27.2797 53.258 2
25.6569 51.4847 3.95326
25.6118 54.9983 0.0453751
24.0478 53.2609 2
22.6325 51.5321 3.95584
19.9516 51.3571 3.9639
19.4137 54.0914 3.96136
21.0493 52.9768 2
18.711 56.5675 3.96187
20.2613 55.6541 2
22.1577 55.1612 0.0410413
18.4433 59.012 3.95781
19.5871 57.7631 2
20.431 56.8792 0.037997
18.6385 61.6888 3.97614
19.7467 60.1147 2
20.745 58.6635 0.0406146
19.1373 64.6382 3.97159
20.2313 62.7822 2
21.2047 61.0711 0.0302968
19.8902 67.8072 3.98342
20.942 65.746 2
21.9117 63.7826 0.0284438
22.8407 66.7242 0.0259351
21.9118 68.8685 2
20.9142 71.1327 4
24.0132 69.8045 0.012407
23.1494 72.1455 2
25.446 73.0099 0
23.1142 12.8734 3.97721
23.9757 10.1835 3.97439
25.0248 7.32094 3.97781
25.8594 9.39681 2
26.2822 4.32988 3.989
27.0686 6.54832 2
27.8217 8.66778 0.0236505
27.7943 1.27781 4
28.4871 3.6458 2
29.1562 5.88399 0.0175785
30.1841 0.720551 2
30.7276 3.09928 0.00854499
32.6053 0.320823 0
35.9973 35.9324 3.43782
37.557 35.9505 2
38.9767 35.9483 0.556092
24.7829 12.1215 2
23.783 14.4719 2
22.5274 15.1511 3.98162
25.3789 14.0101 3.97321
24.0898 15.7204 3.99858
26.6325 11.4114 0.0252649
29.2365 12.6627 0.0211469
27.3125 13.3967 2
29.8033 14.218 2
28.4137 15.9841 3.99245
34.735 34.4912 3.46226
36.0177 34.4063 2
37.5311 34.3775 0.496396
35.9037 32.841 0.582778
37.5206 30.8567 0.359246
41.8211 28.8957 0.146132
39.6248 29.5478 0.201212
39.8621 28.1165 2
37.496 29.2192 2
35.6502 31.0752 2
34.5584 33.0945 2
37.6297 27.8966 3.8547
35.4107 29.5699 3.79722
34.3705 31.8043 3.61234
33.7105 33.3905 3.4007
30.3042 19.5771 3.98022
30.9462 16.8647 2
31.9392 14.5078 0.0163324
40.2007 26.1946 0.0347119
38.0146 23.4591 0.00305085
33.5678 17.4619 0.00895597
35.5251 20.3631 0.00432216
32.9735 19.9708 2
35.3057 23.1003 2
37.7184 25.8302 2
32.5813 22.6969 4.00251
35.2171 25.7245 3.98413
34.5896 37.5049 3.53176
36.0102 37.4887 2
37.5295 37.4725 0.493402
37.6768 50.3869 0.0102502
36.9258 47.6668 0.119407
36.0466 39.0319 0.552553
35.3482 45.4384 0.196306
34.3788 43.1789 0.393802
34.7127 40.4941 0.528273
33.703 41.5968 0.598537
35.5534 49.6054 2
34.5862 39.023 2
33.3056 40.5968 2
34.5658 46.9118 2
33.3938 42.3463 2
33.6297 44.7659 2
33.5463 48.7257 3.97193
33.0069 39.1587 3.35755
32.6383 40.9818 3.60016
32.3039 43.4728 3.80972
32.898 45.842 3.85269
34.5107 52.1318 -0.00122521
32.3679 50.9461 2
30.4952 49.4648 4.00479
30.7877 53.2136 0.00166787
28.9115 51.3363 2
27.2161 49.6922 3.97495
27.2763 53.2575 0.0453149
25.6599 51.4825 2
24.1152 49.8818 3.96767
24.0444 53.2568 0.0464822
22.638 51.5294 2
21.3137 50.0074 3.96725
18.6914 50.0743 3.97266
18.4615 52.551 3.96607
19.9449 51.3574 2
17.8521 55.1525 3.9624
19.4122 54.0918 2
21.0449 52.9783 0.0410477
17.3107 57.7531 3.95873
18.7116 56.5684 2
20.2634 55.6518 0.039304
17.1587 60.4811 3.958
18.4424 59.0144 2
19.5887 57.7607 0.0389527
17.4197 63.4174 3.96826
18.6396 61.6917 2
19.7438 60.1113 0.0308198
17.9461 66.6145 3.98011
19.1353 64.6359 2
20.2303 62.7793 0.0288864
18.75 69.9759 4
19.8863 67.8027 2
20.9439 65.7463 0.0281304
21.916 68.8709 0.0140915
20.9142 71.1327 2
23.1494 72.1454 0
21.6157 13.7062 3.96871
22.1993 11.0674 3.96907
23.1139 12.8692 2
23.0418 8.1885 3.97488
23.9747 10.1947 2
24.1202 5.14443 3.98871
25.0211 7.32044 2
25.862 9.39836 0.0257241
25.446 1.99014 4
26.2781 4.33085 2
27.0712 6.54949 0.019427
27.7943 1.27778 2
28.4902 3.64524 0.009769
30.1841 0.720592 0
34.6677 35.9768 3.49426
36.0216 35.9437 2
37.521 35.9388 0.521503
21.3738 15.9512 3.96098
24.793 12.0882 0.0288608
23.7841 14.4653 0.0202942
25.3785 13.9855 2
22.5257 15.1388 2
24.0944 15.7291 2
23.3551 16.3598 3.96357
25.448 16.1992 3.9873
27.3032 13.416 0.0275095
29.8095 14.2186 0.00834039
28.4064 16.0048 2
27.5426 18.993 3.97986
33.3281 34.4062 3.3857
34.6621 34.4996 2
36.0004 34.4078 0.551269
34.6069 33.1141 0.662084
35.6678 31.1583 0.406281
37.4915 29.2701 0.201278
39.8097 28.1732 0.146443
37.5906 27.8621 2
33.6736 33.367 2
35.3956 29.5018 2
34.3173 31.7227 2
35.2899 27.9899 3.86964
33.6562 30.252 3.80551
33.4473 32.7216 3.65551
29.9032 22.1893 4.00893
30.3062 19.568 2
30.9725 16.8657 0.003317
37.7299 25.8477 0.0395158
35.3484 23.1152 -0.00991497
32.9621 19.9467 0.00222034
32.5662 22.6617 2
35.2332 25.7152 2
32.2078 26.0004 4.00963
32.8306 37.4971 3.41059
34.587 37.4963 2
36.0149 37.469 0.565262
35.5756 49.5928 0.0189708
34.6311 46.8375 0.143617
34.607 39.0164 0.489869
33.6741 44.7179 0.197792
33.4503 42.2585 0.347507
33.3221 40.5872 0.63116
33.5406 48.7143 2
33.0059 39.167 2
32.5817 41.0434 2
32.8873 45.9011 2
32.2599 43.5041 2
31.8671 47.5443 3.98738
32.0068 39.3793 3.60023
31.3169 41.7397 3.82217
31.4183 44.4902 3.85886
32.353 50.9504 -0.000878701
30.5008 49.4929 2
28.7416 47.8815 3.97491
28.9037 51.3243 0.0108412
27.2149 49.6948 2
25.5775 48.1301 3.97391
25.6569 51.4847 0.0467436
24.1188 49.8792 2
22.6327 48.4425 3.97157
22.6325 51.5321 0.0441561
21.3147 50.0051 2
19.842 48.8058 3.9752
17.5575 49.0989 3.97622
17.3748 51.1842 3.97183
18.6929 50.0729 2
16.8736 53.6747 3.96695
18.4583 52.5512 2
19.9516 51.3571 0.0360978
16.2727 56.3313 3.96153
17.85 55.1532 2
19.4137 54.0914 0.038636
15.8169 59.1376 3.95698
17.3073 57.7555 2
18.711 56.5675 0.03813
15.7933 62.0902 3.97078
17.1622 60.483 2
18.4433 59.012 0.0421898
16.0933 65.2937 3.97588
17.4174 63.4254 2
18.6385 61.6888 0.0238627
16.6661 68.6801 4
17.9427 66.6099 2
19.1373 64.6382 0.0284077
18.75 69.9759 2
19.8902 67.8072 0.0165826
20.9142 71.1327 0
20.2552 14.6988 3.97112
21.6166 13.7055 2
20.546 12.076 3.97218
21.1456 9.16273 3.97382
22.1944 11.0806 2
23.1142 12.8734 0.0227851
22.0197 6.0833 3.98714
23.039 8.19168 2
23.9757 10.1835 0.0256076
23.1494 2.85457 4
24.115 5.14656 2
25.0248 7.32094 0.0221863
25.446 1.99012 2
26.2822 4.32988 0.0109958
27.7943 1.27781 0
32.99 35.8468 3.39137
34.621 35.977 2
35.9973 35.9324 0.562176
21.3793 15.9427 2
20.4238 17.0852 3.96113
22.1924 16.7557 3.95689
25.3789 14.0101 0.0267933
22.5274 15.1511 0.0183819
24.0898 15.7204 0.00141879
25.4497 16.199 2
23.3614 16.3572 2
24.3256 18.6554 3.98255
27.348 21.787 3.99406
28.4137 15.9841 0.00755188
27.5351 19.0151 2
32.6627 33.9945 3.59781
33.3103 34.3967 2
34.735 34.4912 0.537735
33.7105 33.3905 0.599302
34.3705 31.8043 0.387664
35.4107 29.5699 0.202776
37.6297 27.8966 0.145301
35.2767 27.9418 2
33.3958 32.6399 2
33.6126 30.2021 2
33.128 28.6228 3.87829
32.3023 31.4982 3.80597
29.3625 24.6565 4.01562
29.8772 22.189 2
30.3042 19.5771 0.0197794
35.2171 25.7245 0.0158734
32.5813 22.6969 -0.00251116
32.1981 25.9668 2
30.45 27.679 3.98131
31.6699 37.4822 3.599
32.8238 37.4973 2
34.5896 37.5049 0.468236
33.5463 48.7257 0.0280737
32.898 45.842 0.147311
33.0069 39.1587 0.642445
32.3039 43.4728 0.190278
32.6383 40.9818 0.399838
31.8127 47.5736 2
31.9119 39.3926 2
31.2533 41.7961 2
31.3573 44.5406 2
30.1946 46.1611 3.9838
30.5414 39.7358 3.82992
30.0057 42.8201 3.87779
30.4952 49.4648 -0.00479035
28.7412 47.8875 2
27.0358 46.298 3.97887
27.2161 49.6922 0.0250537
25.5795 48.1274 2
23.9211 46.7038 3.97529
24.1152 49.8818 0.0323342
22.6325 48.4411 2
20.8994 47.3079 3.97589
21.3137 50.0074 0.0327497
19.8407 48.8045 2
18.436 47.9252 3.97641
16.7981 48.4656 3.97609
17.5569 49.0988 2
16.4234 49.9654 3.97504
15.8601 52.2327 3.97182
17.3766 51.1832 2
18.6914 50.0743 0.02734
15.2212 54.8281 3.96479
16.8741 53.6743 2
18.4615 52.551 0.0339324
14.6027 57.6547 3.95806
16.2724 56.332 2
17.8521 55.1525 0.0376038
14.2767 60.6572 3.96368
15.815 59.14 2
17.3107 57.7531 0.0412711
14.3382 63.8536 3.97407
15.7961 62.0918 2
17.1587 60.4811 0.0420032
14.6715 67.2507 4
16.0898 65.2894 2
17.4197 63.4174 0.0317365
16.6661 68.6801 2
17.9461 66.6145 0.0198867
18.75 69.9759 0
18.996 15.8856 3.95956
20.2591 14.6904 2
19.0014 13.1961 3.97048
21.6157 13.7062 0.0312926
20.5418 12.0768 2
19.349 10.2604 3.97136
19.9947 7.14838 3.98496
21.1421 9.16272 2
22.1993 11.0674 0.0309289
20.9142 3.86727 4
22.0139 6.0868 2
23.0418 8.1885 0.0251241
23.1494 2.85451 2
24.1202 5.14443 0.0112926
25.446 1.99014 0
32.0277 35.5985 3.59
32.9845 35.8392 2
34.6677 35.9768 0.505743
21.3738 15.9512 0.0390239
22.1989 16.7489 2
20.4316 17.084 2
19.4884 18.5762 3.95809
21.9062 18.0357 3.98519
25.448 16.1992 0.0127029
23.3551 16.3598 0.0364274
24.3193 18.6745 2
22.5883 20.1139 3.9724
24.9383 21.6372 3.9903
26.9962 23.9483 3.98464
27.3441 21.7 2
27.5426 18.993 0.0201374
31.3543 33.2427 3.82142
32.6038 33.9433 2
33.3281 34.4062 0.614302
33.4473 32.7216 0.344491
33.6562 30.252 0.194487
35.2899 27.9899 0.13036
33.0864 28.5824 2
32.2436 31.443 2
31.1052 29.99 3.89757
28.7345 26.8471 4.0073
29.3501 24.6684 2
29.9032 22.1893 -0.0089331
32.2078 26.0004 -0.00962784
30.4385 27.6561 2
30.1586 37.4702 3.82944
31.5788 37.4807 2
32.8306 37.4971 0.589415
31.8671 47.5443 0.0126209
31.4183 44.4902 0.141141
32.0068 39.3793 0.399766
31.3169 41.7397 0.177827
30.2005 46.1688 2
30.4415 39.7436 2
29.9749 42.8498 2
28.54 44.4978 3.96507
28.2867 40.4218 3.9221
28.7416 47.8815 0.025092
27.0364 46.2965 2
25.26 44.8155 3.98026
25.5775 48.1301 0.0260862
23.9203 46.7021 2
21.969 45.6166 3.97733
22.6327 48.4425 0.028428
20.8997 47.3069 2
19.2056 46.4865 3.97585
19.842 48.8058 0.0247977
18.4362 47.9248 2
17.0595 47.4959 3.97559
16.7994 48.4657 2
15.7861 48.8189 3.9754
17.5575 49.0989 0.0237757
16.425 49.9645 2
14.9647 50.8162 3.97442
14.1781 53.2978 3.96925
15.8612 52.2321 2
17.3748 51.1842 0.0281667
13.4616 56.0762 3.96097
15.221 54.8282 2
16.8736 53.6747 0.0330455
12.8722 59.0989 3.95681
14.6013 57.6562 2
16.2727 56.3313 0.0384716
12.6838 62.294 3.96876
14.2801 60.6586 2
15.8169 59.1376 0.0430177
12.7746 65.6939 4
14.3348 63.8472 2
15.7933 62.0902 0.0292151
14.6714 67.2507 2
16.0933 65.2937 0.0241161
16.6661 68.6801 0
17.8353 17.2865 3.95985
18.9975 15.8779 2
17.5412 14.4501 3.96822
20.2552 14.6988 0.028883
19.0001 13.1919 2
17.6515 11.5058 3.97165
20.546 12.076 0.0278192
19.3451 10.2718 2
18.0543 8.34161 3.98245
18.75 5.0241 4
19.9883 7.15365 2
21.1456 9.16273 0.0261843
20.9142 3.86727 2
22.0197 6.0833 0.0128579
23.1494 2.85457 0
30.5494 35.2614 3.82471
31.9324 35.5769 2
32.99 35.8468 0.608634
22.1924 16.7557 0.0431129
20.4238 17.0852 0.0388715
21.911 18.0327 2
19.4805 18.5721 2
18.3843 20.1446 3.96335
21.1566 19.5885 3.97302
24.3256 18.6554 0.0174497
22.5837 20.1121 2
24.9504 21.6058 2
22.8306 21.9777 3.97902
25.3078 23.3043 3.98315
26.3565 26.2279 3.98114
26.9994 23.9439 2
27.348 21.787 0.005944
29.7674 32.6098 3.8778
31.2715 33.1964 2
32.6627 33.9945 0.402187
32.3023 31.4982 0.194026
33.128 28.6228 0.12171
31.0843 29.9698 2
28.1651 29.4581 4.00969
28.7151 26.8607 2
29.3625 24.6565 -0.0156174
30.45 27.679 0.0186869
28.4941 37.3947 3.86363
30.0696 37.482 2
31.6699 37.4822 0.401004
30.1946 46.1611 0.0162044
30.0057 42.8201 0.122215
30.5414 39.7358 0.170075
28.5416 44.5545 2
28.2456 40.4303 2
26.6761 42.9596 3.97955
25.5959 39.4132 3.97725
27.0358 46.298 0.0211297
25.2509 44.8206 2
23.1992 43.6507 3.97528
23.9211 46.7038 0.0247129
21.9666 45.6176 2
20.0243 44.7289 3.97515
20.8994 47.3079 0.0241101
19.2054 46.4872 2
17.4378 46.001 3.97552
18.436 47.9252 0.0235916
17.06 47.496 2
15.5659 47.4866 3.97522
16.7981 48.4656 0.0239133
15.788 48.8185 2
14.2816 49.3849 3.97517
16.4234 49.9654 0.0249638
14.9658 50.8155 2
13.2455 51.7494 3.9723
12.3546 54.4429 3.96361
14.1789 53.2974 2
15.8601 52.2327 0.0281774
11.6006 57.4276 3.95908
13.4603 56.0768 2
15.2212 54.8281 0.0352057
11.14 60.6205 3.96764
12.8763 59.098 2
14.6027 57.6547 0.0419383
10.9835 64.0165 4
12.6821 62.2874 2
14.2767 60.6572 0.0363218
12.7745 65.694 2
14.3382 63.8536 0.0259336
14.6715 67.2507 0
16.6732 18.8007 3.96085
17.8309 17.2801 2
16.1673 15.8585 3.95607
18.996 15.8856 0.0404365
17.5428 14.4457 2
16.0316 12.86 3.96603
19.0014 13.1961 0.0295214
17.6459 11.5101 2
16.2061 9.66788 3.97684
19.349 10.2604 0.0286359
18.0491 8.34861 2
16.6661 6.31991 4
18.75 5.02404 2
19.9947 7.14838 0.0150442
20.9142 3.86727 0
28.9505 34.891 3.8867
30.4367 35.2222 2
32.0277 35.5985 0.409996
17.1278 21.5769 3.96976
21.9062 18.0357 0.0148075
19.4884 18.5762 0.0419119
21.1459 19.5833 2
18.3788 20.1415 2
20.2585 21.8286 3.97363
22.5883 20.1139 0.0275996
24.9383 21.6372 0.00969912
22.8318 21.9762 2
25.2874 23.3667 2
23.6655 24.886 3.97153
25.733 28.8253 3.9843
26.3444 26.2362 2
26.9962 23.9483 0.0153607
27.6349 31.9649 3.97877
29.7224 32.5871 2
31.3543 33.2427 0.178576
31.1052 29.99 0.102429
28.18 29.4191 2
28.7345 26.8471 -0.00729989
26.3061 36.8786 3.96306
28.4608 37.3906 2
30.1586 37.4702 0.170562
28.54 44.4978 0.0349257
28.2867 40.4218 0.0778998
26.6526 42.9884 2
25.5571 39.4104 2
24.4432 41.6553 3.97787
23.2893 38.5126 3.97585
25.26 44.8155 0.0197443
23.1984 43.6546 2
20.9231 42.693 3.97481
21.969 45.6166 0.0226685
20.0258 44.7295 2
17.8613 44.1924 3.97508
19.2056 46.4865 0.0241497
17.438 46.0017 2
15.5375 45.9221 3.97533
17.0595 47.4959 0.0244098
15.5665 47.4867 2
13.8164 47.8598 3.97512
15.7861 48.8189 0.0246008
14.283 49.3842 2
12.4823 50.1362 3.97436
14.9647 50.8162 0.0255841
13.2466 51.7488 2
11.346 52.7616 3.96604
10.4053 55.6821 3.96084
12.3545 54.4427 2
14.1781 53.2978 0.030749
9.70598 58.8456 3.9702
11.6051 57.4263 2
13.4616 56.0762 0.0390342
9.30605 62.2254 4
11.1386 60.6146 2
12.8722 59.0989 0.0431868
10.9835 64.0165 2
12.6838 62.294 0.0312421
12.7746 65.6939 0
15.4815 20.3394 3.9649
16.6847 18.7997 2
14.8877 17.3945 3.95778
17.8353 17.2865 0.0401522
16.1655 15.854 2
14.4933 14.3331 3.96703
17.5412 14.4501 0.0317834
16.0328 12.8548 2
14.4499 11.1207 3.97476
17.6515 11.5058 0.0283531
16.2016 9.67581 2
14.6715 7.74927 4
18.0543 8.34161 0.0175459
16.6661 6.31988 2
18.75 5.0241 0
26.9056 34.4114 3.97202
28.9254 34.8999 2
30.5494 35.2614 0.175287
18.4196 22.5623 3.97469
16.0309 23.1162 3.97256
17.127 21.5752 2
21.1566 19.5885 0.0269761
18.3843 20.1446 0.0366465
20.2557 21.8262 2
20.4159 24.6791 3.97215
22.8306 21.9777 0.02098
25.3078 23.3043 0.0168549
23.6575 24.881 2
23.0994 28.1772 3.97119
25.2025 31.4913 3.98312
25.7423 28.7862 2
26.3565 26.2279 0.0188627
27.6016 31.9328 2
29.7674 32.6098 0.122196
28.1651 29.4581 -0.00968708
24.0412 36.3347 3.97784
26.2746 36.8692 2
28.4941 37.3947 0.136371
26.6761 42.9596 0.0204478
25.5959 39.4132 0.0227479
24.4162 41.6593 2
23.2881 38.5103 2
22.0775 40.5322 3.97544
21.3812 37.7871 3.9779
23.1992 43.6507 0.0247223
20.9247 42.6923 2
18.3454 41.9654 3.97567
20.0243 44.7289 0.0248484
17.8616 44.1928 2
15.5863 44.0559 3.97528
17.4378 46.001 0.0244766
15.5372 45.9224 2
13.5171 46.1652 3.97515
15.5659 47.4866 0.0247817
13.8172 47.8596 2
11.8717 48.4408 3.97528
14.2816 49.3849 0.0248269
12.4838 50.1354 2
10.48 51.0117 3.9683
13.2455 51.7494 0.0276951
11.3467 52.7609 2
9.31099 53.8651 3.96206
8.39012 56.9808 3.97121
10.407 55.6808 2
12.3546 54.4429 0.0363921
7.74927 60.3285 4
9.70499 58.8407 2
11.6006 57.4276 0.0409195
9.306 62.2255 2
11.14 60.6205 0.0323554
10.9835 64.0165 0
14.3128 21.8954 3.96956
15.4819 20.3366 2
13.6322 18.993 3.96125
16.6732 18.8007 0.0391453
14.8872 17.3917 2
13.0452 15.9167 3.96173
16.1673 15.8585 0.0439303
14.4997 14.3304 2
12.7875 12.6944 3.97138
16.0316 12.86 0.0339746
14.4461 11.1287 2
12.7746 9.30605 4
16.2061 9.66788 0.023159
14.6715 7.74924 2
16.6661 6.31991 0
24.5782 33.9176 3.98165
26.8812 34.4014 2
28.9505 34.891 0.113302
18.3032 24.3014 3.97291
18.4268 22.5627 2
14.8468 24.6315 3.97403
16.0308 23.1145 2
17.1278 21.5769 0.0302419
19.9814 27.4944 3.97328
20.2585 21.8286 0.026371
20.4174 24.6782 2
22.4864 30.9283 3.97396
23.6655 24.886 0.0284732
23.0967 28.181 2
25.1568 31.5164 2
25.733 28.8253 0.0156957
27.6349 31.9649 0.021233
21.4805 35.9775 3.97749
24.0317 36.3341 2
26.3061 36.8786 0.0369419
24.4432 41.6553 0.0221338
23.2893 38.5126 0.0241513
22.0817 40.532 2
21.3849 37.7886 2
19.1224 38.9631 3.97708
20.9231 42.693 0.0251906
18.3453 41.9655 2
15.5679 41.8263 3.97587
17.8613 44.1924 0.0249209
15.5854 44.0561 2
13.2776 44.2862 3.97546
15.5375 45.9221 0.0246726
13.5171 46.1652 2
11.3858 46.6368 3.9753
13.8164 47.8598 0.0248827
11.8736 48.4399 2
9.75095 49.1783 3.97081
12.4823 50.1362 0.0256411
10.4813 51.0108 2
8.33725 51.9825 3.96306
11.346 52.7616 0.0339625
9.30984 53.864 2
7.19887 55.0333 3.9721
6.31991 58.3339 4
8.38891 56.9764 2
10.4053 55.6821 0.0391571
7.74924 60.3285 2
9.70598 58.8456 0.0298005
9.30605 62.2254 0
13.6943 25.5153 3.97596
13.2045 23.4141 3.97348
14.3139 21.8935 2
12.4498 20.6381 3.96415
15.4815 20.3394 0.035101
13.6283 18.9898 2
11.6983 17.5928 3.95921
14.8877 17.3945 0.0422197
13.054 15.9145 2
11.2263 14.3812 3.96576
14.4933 14.3331 0.0329685
12.7861 12.703 2
10.9835 10.9835 4
14.4499 11.1207 0.0252363
12.7745 9.306 2
14.6715 7.74927 0
21.8486 33.5614 3.97649
24.5802 33.8969 2
26.9056 34.4114 0.0279839
16.618 26.6188 3.97426
18.3072 24.3012 2
18.4196 22.5623 0.0253132
14.8437 24.6308 2
16.0309 23.1162 0.0274406
19.3823 30.3974 3.9747
19.9851 27.4941 2
20.4159 24.6791 0.0278517
22.5044 30.9259 2
23.0994 28.1772 0.0288086
25.2025 31.4913 0.0168768
18.7003 36.0162 3.9778
21.4808 35.9785 2
24.0412 36.3347 0.0221558
22.0775 40.5322 0.0245647
21.3812 37.7871 0.0221027
19.123 38.9621 2
15.0502 39.1451 3.97685
18.3454 41.9654 0.0243307
15.5672 41.826 2
12.9645 42.2066 3.97595
15.5863 44.0559 0.0247233
13.2771 44.2861 2
10.9695 44.7255 3.97583
13.5171 46.1652 0.0248473
11.3879 46.6362 2
9.12625 47.267 3.97346
11.8717 48.4408 0.0247221
9.75286 49.1772 2
7.49397 50.0198 3.96395
10.48 51.0117 0.0316959
8.33524 51.9814 2
6.13921 53.0089 3.97224
9.31099 53.8651 0.0379408
7.19825 55.0292 2
5.0241 56.25 4
6.31988 58.3339 2
8.39012 56.9808 0.0287903
7.74927 60.3285 0
13.9937 26.9661 3.97493
12.3117 24.9068 3.97524
13.6924 25.5143 2
11.3726 22.316 3.96727
13.2067 23.413 2
14.3128 21.8954 0.0304445
12.4472 20.6359 2
10.4724 19.3505 3.96082
13.6322 18.993 0.0387503
11.7149 17.5939 2
9.76667 16.1624 3.96961
13.0452 15.9167 0.038265
11.226 14.3871 2
9.30607 12.7746 4
12.7875 12.6944 0.0286156
10.9835 10.9835 2
12.7746 9.30605 0
18.8704 33.2273 3.97565
21.8459 33.5643 2
24.5782 33.9176 0.0183501
16.2479 29.8095 3.9752
16.6175 26.6186 2
18.3032 24.3014 0.0270917
14.8468 24.6315 0.0259732
19.3757 30.3971 2
19.9814 27.4944 0.0267197
22.4864 30.9283 0.026038
15.6961 36.0496 3.97725
18.6997 36.0168 2
21.4805 35.9775 0.0225058
13.1958 37.827 3.97699
19.1224 38.9631 0.0229227
15.0499 39.145 2
12.4527 40.1038 3.97645
15.5679 41.8263 0.0241265
12.9635 42.2062 2
10.5627 42.7252 3.97611
13.2776 44.2862 0.0245369
10.9711 44.725 2
8.59242 45.2796 3.97495
11.3858 46.6368 0.0246988
9.12839 47.2659 2
6.77185 47.9889 3.96453
9.75095 49.1783 0.0291888
7.49146 50.0189 2
5.2154 50.9121 3.97222
8.33725 51.9825 0.0369405
6.13904 53.0058 2
3.86727 54.0858 4
7.19887 55.0333 0.0278993
5.02404 56.25 2
6.31991 58.3339 0
13.4697 29.1536 3.9745
11.7578 26.5938 3.97469
13.9927 26.9662 2
10.4188 24.0364 3.97032
12.3141 24.9061 2
13.6943 25.5153 0.0240416
9.33008 21.1652 3.96255
11.372 22.315 2
13.2045 23.4141 0.0265224
12.4498 20.6381 0.0358522
10.4815 19.3513 2
8.42261 18.0308 3.9712
11.6983 17.5928 0.0407913
9.76558 16.1671 2
7.74928 14.6715 4
11.2263 14.3812 0.0342427
9.30602 12.7745 2
10.9835 10.9835 0
15.2209 32.948 3.97623
18.8713 33.2282 2
21.8486 33.5614 0.0235086
16.2467 29.8088 2
16.618 26.6188 0.0257365
19.3823 30.3974 0.0252981
13.5063 36.2277 3.97665
15.696 36.0496 2
18.7003 36.0162 0.0221951
13.1947 37.8269 2
11.7641 38.3011 3.97663
15.0502 39.1451 0.0231471
12.4517 40.1039 2
10.1308 40.7239 3.97655
12.9645 42.2066 0.0240459
10.5643 42.7247 2
8.13433 43.2399 3.97564
10.9695 44.7255 0.0241662
8.59558 45.2785 2
6.16898 45.897 3.96475
9.12625 47.267 0.0265404
6.76936 47.9881 2
4.4264 48.7521 3.97198
7.49397 50.0198 0.0360488
5.21559 50.9098 2
2.85457 51.8506 4
6.13921 53.0089 0.0277592
3.86727 54.0858 2
5.0241 56.25 0
12.5902 31.3349 3.97575
11.165 28.5032 3.975
13.4691 29.1532 2
9.6256 25.8561 3.97289
11.7588 26.594 2
13.9937 26.9661 0.025073
8.30028 23.0428 3.96407
10.421 24.0366 2
12.3117 24.9068 0.0247626
7.20479 19.9783 3.97235
9.33538 21.1664 2
11.3726 22.316 0.0327266
10.4724 19.3505 0.0391801
8.42182 18.0354 2
6.31992 16.6661 4
9.76667 16.1624 0.0303874
7.74926 14.6714 2
9.30607 12.7746 0
12.6277 34.3402 3.97665
15.2206 32.949 2
18.8704 33.2273 0.0243543
16.2479 29.8095 0.0248018
11.2895 36.6238 3.97657
13.5056 36.2277 2
15.6961 36.0496 0.022749
13.1958 37.827 0.0230099
11.7633 38.3008 2
9.70232 38.8124 3.97684
12.4527 40.1038 0.023545
10.1319 40.7234 2
7.73493 41.193 3.9758
10.5627 42.7252 0.0238935
8.13666 43.239 2
5.67151 43.7625 3.96516
8.59242 45.2796 0.0250544
6.16517 45.8964 2
3.77152 46.5372 3.97227
6.77185 47.9889 0.0354673
4.42697 48.7505 2
1.99014 49.554 4
5.2154 50.9121 0.0277761
2.85451 51.8506 2
3.86727 54.0858 0
11.3725 32.974 3.97647
10.4621 30.4456 3.97566
12.5891 31.3355 2
8.91982 27.7788 3.97401
11.1662 28.5036 2
13.4697 29.1536 0.0255038
7.40997 24.9963 3.96468
9.62836 25.8567 2
11.7578 26.5938 0.0253069
6.12135 22.0005 3.9729
8.30109 23.0438 2
10.4188 24.0364 0.0296781
5.02411 18.75 4
7.20425 19.9821 2
9.33008 21.1652 0.0374462
8.42261 18.0308 0.0288004
6.3199 16.6661 2
7.74928 14.6715 0
10.8651 35.0261 3.97639
12.6263 34.3401 2
15.2209 32.948 0.0237689
9.35085 36.9897 3.97682
11.2886 36.6238 2
13.5063 36.2277 0.0233543
11.7641 38.3011 0.0233692
9.70358 38.812 2
7.39999 39.1746 3.97573
10.1308 40.7239 0.0234537
7.73828 41.1923 2
5.28023 41.6105 3.96558
8.13433 43.2399 0.0243559
5.66878 43.762 2
3.24889 44.2817 3.97318
6.16898 45.897 0.0352477
3.77235 46.536 2
1.27781 47.2057 4
4.4264 48.7521 0.028021
1.99012 49.554 2
2.85457 51.8506 0
10.487 33.9166 3.97616
9.72316 32.1985 3.97625
11.3722 32.9744 2
8.25 29.7307 3.97444
10.4635 30.4464 2
12.5902 31.3349 0.0242537
6.63989 27.0184 3.9646
8.92301 27.7796 2
11.165 28.5032 0.0249951
5.17612 24.0933 3.97264
7.40807 24.997 2
9.6256 25.8561 0.0271119
3.86728 20.9142 4
6.12126 22.0033 2
8.30028 23.0428 0.0359296
5.02406 18.75 2
7.20479 19.9783 0.0276533
6.31992 16.6661 0
9.15824 35.2974 3.97672
10.8646 35.0261 2
12.6277 34.3402 0.0233491
7.16877 37.2073 3.97529
9.35224 36.9897 2
11.2895 36.6238 0.0234339
9.70232 38.8124 0.0231606
7.403 39.1741 2
5.00222 39.466 3.96598
7.73493 41.193 0.0241957
5.27817 41.6101 2
2.8591 42.0019 3.97371
5.67151 43.7625 0.0348401
3.24954 44.2809 2
0.720592 44.8159 4
3.77152 46.5372 0.0277298
1.27778 47.2057 2
1.99014 49.554 0
9.19424 33.7267 3.9767
10.4872 33.9169 2
7.67447 31.6341 3.97472
9.72549 32.1993 2
11.3725 32.974 0.0235301
5.97456 29.0769 3.96467
8.25274 29.7315 2
10.4621 30.4456 0.0243388
4.36309 26.2465 3.97247
6.63645 27.0189 2
8.91982 27.7788 0.0259939
2.85458 23.1494 4
5.17641 24.0952 2
7.40997 24.9963 0.035323
3.86728 20.9142 2
6.12135 22.0005 0.0271011
5.02411 18.75 0
7.11221 35.315 3.97493
9.16037 35.2976 2
10.8651 35.0261 0.0236107
4.84799 37.3404 3.96616
7.17143 37.2071 2
9.35085 36.9897 0.0231783
7.39999 39.1746 0.0242657
5.0003 39.4658 2
2.60696 39.7136 3.9741
5.28023 41.6105 0.034416
2.86004 42.0015 2
0.320823 42.3947 4
3.24889 44.2817 0.0268155
0.720551 44.8159 2
1.27781 47.2057 0
7.27599 33.4772 3.97484
9.19652 33.7272 2
10.487 33.9166 0.0238408
5.43425 31.1388 3.96522
7.67665 31.6348 2
9.72316 32.1985 0.023751
3.68419 28.4433 3.9728
5.97018 29.0773 2
8.25 29.7307 0.0255624
1.99015 25.446 4
4.36366 26.2479 2
6.63989 27.0184 0.0354028
2.85453 23.1494 2
5.17612 24.0933 0.0273576
3.86728 20.9142 0
4.86062 35.2537 3.96605
7.11397 35.3151 2
9.15824 35.2974 0.0232849
2.49839 37.4284 3.97497
4.8463 37.3404 2
7.16877 37.2073 0.0247145
5.00222 39.466 0.0340152
2.60805 39.7138 2
0.080333 39.9526 4
2.8591 42.0019 0.0262916
0.320817 42.3947 2
0.720592 44.8159 0
5.05576 33.1938 3.96574
7.27751 33.4776 2
9.19424 33.7267 0.0232989
3.14816 30.6665 3.97345
5.43006 31.1392 2
7.67447 31.6341 0.0252758
1.27793 27.7943 4
3.68507 28.4444 2
5.97456 29.0769 0.0353318
1.99013 25.446 2
4.36309 26.2465 0.0275318
2.85458 23.1494 0
2.55039 35.1593 3.97485
4.86041 35.254 2
7.11221 35.315 0.0250671
0 37.5 4
2.49898 37.4289 2
4.84799 37.3404 0.0338424
2.60696 39.7136 0.0258954
0.0802903 39.9526 2
0.320823 42.3947 0
2.76812 32.9062 3.97455
5.05422 33.1942 2
7.27599 33.4772 0.0251563
0.721173 30.1842 4
3.1492 30.6675 2
5.43425 31.1388 0.0347757
1.27779 27.7943 2
3.68419 28.4433 0.0272003
1.99015 25.446 0
0.0806499 35.0474 4
2.55153 35.1598 2
4.86062 35.2537 0.0339482
0 37.5 2
2.49839 37.4284 0.0250268
0.080333 39.9526 0
0.32156 32.6054 4
2.7688 32.907 2
5.05576 33.1938 0.0342647
0.72056 30.1841 2
3.14816 30.6665 0.0265547
1.27793 27.7943 0
0.0802889 35.0474 2
2.55039 35.1593 0.0251502
0 37.5 0
0.320817 32.6053 2
2.76812 32.9062 0.0254495
0.721173 30.1842 0
0.0806499 35.0474 0
0.32156 32.6054 0
CELLS 1910 17190
8 18 6 25 56 2 0 5 16
8 57 23 6 18 17 4 0 2
8 78 36 9 29 31 11 1 7
8 31 11 1 7 79 37 10 30
8 110 57 18 50 48 17 2 14
8 50 18 56 111 14 2 16 49
8 116 62 22 55 52 20 3 15
8 56 25 67 118 16 5 24 53
8 119 63 23 57 54 21 4 17
8 55 22 63 119 15 3 21 54
8 58 26 68 121 18 6 25 56
8 122 65 26 58 57 23 6 18
8 73 31 7 27 142 79 30 71
8 143 78 29 72 73 31 7 27
8 83 147 76 34 32 74 28 8
8 84 148 78 36 33 75 29 9
8 76 34 8 28 148 84 33 75
8 37 79 150 86 10 30 77 35
8 151 87 36 78 80 38 11 31
8 80 38 11 31 152 88 37 79
8 175 100 42 94 96 44 12 40
8 44 96 176 101 12 40 95 43
8 101 176 98 46 43 95 41 13
8 46 98 178 103 13 41 97 45
8 178 103 45 97 147 83 32 74
8 189 116 55 109 106 52 15 47
8 111 56 118 191 49 16 53 107
8 192 119 57 110 108 54 17 48
8 109 55 119 192 47 15 54 108
8 194 122 58 112 110 57 18 50
8 112 58 121 195 50 18 56 111
8 115 61 19 51 197 124 59 113
8 115 61 125 198 51 19 60 114
8 198 125 62 116 114 60 20 52
8 200 127 64 120 116 62 22 55
8 118 67 132 202 53 24 66 117
8 121 68 133 203 56 25 67 118
8 120 64 128 204 55 22 63 119
8 204 128 65 122 119 63 23 57
8 206 134 68 121 123 69 26 58
8 123 69 26 58 207 131 65 122
8 226 147 74 138 140 76 28 70
8 229 148 75 139 143 78 29 72
8 140 76 28 70 229 148 75 139
8 142 79 30 71 231 150 77 141
8 144 80 31 73 232 152 79 142
8 233 151 78 143 144 80 31 73
8 150 86 35 77 235 154 81 145
8 235 154 81 145 146 82 39 91
8 146 82 39 91 236 155 90 165
8 238 157 83 147 149 85 34 76
8 239 158 84 148 151 87 36 78
8 149 85 34 76 239 158 84 148
8 152 88 37 79 241 160 86 150
8 242 161 87 151 153 89 38 80
8 153 89 38 80 243 162 88 152
8 171 98 41 92 265 178 97 169
8 265 178 97 169 226 147 74 138
8 172 96 40 93 266 176 95 170
8 266 176 95 170 171 98 41 92
8 269 175 94 173 172 96 40 93
8 271 180 99 174 175 100 42 94
8 197 124 59 113 271 180 99 174
8 272 181 100 175 177 102 44 96
8 273 182 101 176 179 104 46 98
8 177 102 44 96 273 182 101 176
8 179 104 46 98 275 184 103 178
8 275 184 103 178 238 157 83 147
8 188 115 51 105 283 197 113 186
8 188 115 198 284 105 51 114 187
8 284 198 116 189 187 114 52 106
8 286 200 120 193 189 116 55 109
8 191 118 202 288 107 53 117 190
8 195 121 203 289 111 56 118 191
8 193 120 204 290 109 55 119 192
8 290 204 122 194 192 119 57 110
8 196 123 58 112 292 207 122 194
8 293 206 121 195 196 123 58 112
8 199 126 61 115 297 211 124 197
8 298 212 127 200 198 125 62 116
8 199 126 212 298 115 61 125 198
8 205 129 64 120 300 214 127 200
8 301 217 130 201 202 132 66 117
8 209 136 168 264 301 217 130 201
8 302 219 132 202 203 133 67 118
8 303 220 133 203 206 134 68 121
8 205 129 215 304 120 64 128 204
8 304 215 131 207 204 128 65 122
8 306 221 134 206 208 135 69 123
8 208 135 69 123 307 218 131 207
8 210 137 167 263 309 223 136 209
8 328 238 147 226 230 149 76 140
8 228 146 91 166 329 236 165 260
8 231 150 77 141 330 235 145 227
8 330 235 145 227 228 146 91 166
8 332 239 148 229 233 151 78 143
8 230 149 76 140 332 239 148 229
8 232 152 79 142 334 241 150 231
8 234 153 80 144 335 243 152 232
8 336 242 151 233 234 153 80 144
8 236 155 90 165 338 245 164 259
8 241 160 86 150 339 246 154 235
8 339 246 154 235 237 156 82 146
8 237 156 82 146 340 247 155 236
8 342 249 157 238 240 159 85 149
8 343 250 158 239 242 161 87 151
8 240 159 85 149 343 250 158 239
8 243 162 88 152 345 252 160 241
8 244 163 253 346 153 89 161 242
8 244 163 89 153 347 254 162 243
8 311 224 261 371 210 137 167 263
8 263 167 262 372 209 136 168 264
8 267 179 98 171 375 275 178 265
8 375 275 178 265 328 238 147 226
8 376 273 176 266 267 179 98 171
8 268 177 96 172 376 273 176 266
8 379 272 175 269 268 177 96 172
8 380 271 174 270 269 175 94 173
8 283 197 113 186 380 271 174 270
8 381 277 180 271 272 181 100 175
8 297 211 124 197 381 277 180 271
8 382 278 181 272 274 183 102 177
8 274 183 102 177 383 279 182 273
8 383 279 182 273 276 185 104 179
8 385 281 184 275 342 249 157 238
8 276 185 104 179 385 281 184 275
8 285 199 115 188 393 297 197 283
8 394 298 200 286 284 198 116 189
8 285 199 298 394 188 115 198 284
8 291 205 120 193 396 300 200 286
8 397 301 201 287 288 202 117 190
8 295 209 264 374 397 301 201 287
8 398 302 202 288 289 203 118 191
8 399 303 203 289 293 206 121 195
8 291 205 304 400 193 120 204 290
8 400 304 207 292 290 204 122 194
8 294 208 123 196 402 307 207 292
8 403 306 206 293 294 208 123 196
8 296 210 263 373 405 309 209 295
8 408 312 213 299 297 211 126 199
8 299 213 313 409 199 126 212 298
8 409 313 214 300 298 212 127 200
8 305 216 129 205 411 315 214 300
8 412 318 217 301 302 219 132 202
8 309 223 136 209 412 318 217 301
8 413 320 219 302 303 220 133 203
8 306 221 321 414 206 134 220 303
8 307 218 131 207 415 316 215 304
8 305 216 316 415 205 129 215 304
8 417 322 221 306 308 222 135 208
8 308 222 135 208 418 319 218 307
8 310 225 137 210 420 325 223 309
8 423 326 224 311 310 225 137 210
8 329 236 165 260 441 338 259 368
8 442 342 238 328 333 240 149 230
8 331 237 146 228 443 340 236 329
8 334 241 150 231 444 339 235 330
8 444 339 235 330 331 237 146 228
8 446 343 239 332 336 242 151 233
8 333 240 149 230 446 343 239 332
8 335 243 152 232 448 345 241 334
8 337 244 153 234 449 347 243 335
8 337 244 346 450 234 153 242 336
8 338 245 164 259 452 349 258 367
8 340 247 155 236 453 350 245 338
8 345 252 160 241 454 351 246 339
8 454 351 246 339 341 248 156 237
8 341 248 156 237 455 352 247 340
8 240 159 251 344 342 249 354 457
8 242 161 253 346 343 250 355 458
8 343 250 355 458 240 159 251 344
8 347 254 162 243 460 357 252 345
8 348 255 358 461 244 163 253 346
8 348 255 163 244 462 359 254 347
8 473 360 257 365 363 256 364 482
8 452 349 258 367 365 257 366 485
8 422 324 369 488 311 224 261 371
8 371 261 370 490 263 167 262 372
8 407 311 371 491 296 210 263 373
8 373 263 372 492 295 209 264 374
8 493 385 275 375 442 342 238 328
8 377 276 179 267 493 385 275 375
8 378 274 177 268 494 383 273 376
8 494 383 273 376 377 276 179 267
8 497 382 272 379 378 274 177 268
8 498 381 271 380 379 272 175 269
8 393 297 197 283 498 381 271 380
8 499 387 277 381 382 278 181 272
8 408 312 211 297 499 387 277 381
8 500 388 278 382 384 280 183 274
8 501 389 279 383 386 282 185 276
8 384 280 183 274 501 389 279 383
8 386 282 185 276 503 391 281 385
8 503 391 281 385 457 354 249 342
8 511 408 299 395 393 297 199 285
8 395 299 409 512 285 199 298 394
8 512 409 300 396 394 298 200 286
8 401 305 205 291 514 411 300 396
8 515 412 301 397 398 302 202 288
8 405 309 209 295 515 412 301 397
8 516 413 302 398 399 303 203 289
8 403 306 414 517 293 206 303 399
8 402 307 207 292 518 415 304 400
8 401 305 415 518 291 205 304 400
8 404 308 208 294 520 418 307 402
8 521 417 306 403 404 308 208 294
8 406 310 210 296 523 420 309 405
8 526 423 311 407 406 310 210 296
8 410 314 213 299 527 424 312 408
8 528 425 315 411 409 313 214 300
8 410 314 425 528 299 213 313 409
8 416 317 216 305 530 427 315 411
8 531 430 318 412 413 320 219 302
8 420 325 223 309 531 430 318 412
8 532 432 320 413 414 321 220 303
8 417 322 433 533 306 221 321 414
8 418 319 218 307 534 428 316 415
8 416 317 428 534 305 216 316 415
8 419 323 434 536 308 222 322 417
8 419 323 222 308 537 431 319 418
8 421 327 225 310 539 438 325 420
8 421 327 439 541 310 225 326 423
8 543 437 324 422 423 326 224 311
8 441 338 259 368 559 452 367 486
8 443 340 236 329 560 453 338 441
8 333 240 344 447 442 342 457 561
8 445 341 237 331 562 455 340 443
8 448 345 241 334 563 454 339 444
8 563 454 339 444 445 341 237 331
8 336 242 346 450 446 343 458 565
8 446 343 458 565 333 240 344 447
8 449 347 243 335 567 460 345 448
8 451 348 244 337 568 462 347 449
8 451 348 461 569 337 244 346 450
8 570 463 349 452 473 360 257 365
8 453 350 245 338 570 463 349 452
8 455 352 247 340 571 464 350 453
8 460 357 252 345 572 465 351 454
8 572 465 351 454 456 353 248 341
8 456 353 248 341 573 466 352 455
8 344 251 356 459 457 354 468 575
8 458 355 469 576 344 251 356 459
8 346 253 358 461 458 355 469 576
8 462 359 254 347 578 471 357 460
8 348 255 359 462 461 358 472 579
8 591 474 360 473 475 361 256 363
8 475 361 256 363 594 477 362 479
8 363 256 364 482 479 362 480 603
8 590 473 365 484 481 363 482 605
8 482 364 257 365 606 483 366 485
8 559 452 367 486 484 365 485 607
8 542 436 487 609 422 324 369 488
8 525 422 488 611 407 311 371 491
8 488 369 489 612 371 261 370 490
8 491 371 490 613 373 263 372 492
8 495 386 276 377 614 503 385 493
8 614 503 385 493 561 457 342 442
8 615 501 383 494 495 386 276 377
8 496 384 274 378 615 501 383 494
8 618 500 382 497 496 384 274 378
8 619 499 381 498 497 382 272 379
8 511 408 297 393 619 499 381 498
8 620 505 387 499 500 388 278 382
8 527 424 312 408 620 505 387 499
8 502 390 506 621 384 280 388 500
8 622 507 389 501 504 392 282 386
8 502 390 280 384 622 507 389 501
8 504 392 282 386 624 509 391 503
8 624 509 391 503 575 468 354 457
8 513 410 299 395 630 527 408 511
8 631 528 411 514 512 409 300 396
8 513 410 528 631 395 299 409 512
8 519 416 305 401 633 530 411 514
8 634 531 412 515 516 413 302 398
8 523 420 309 405 634 531 412 515
8 635 532 413 516 517 414 303 399
8 521 417 533 636 403 306 414 517
8 520 418 307 402 637 534 415 518
8 519 416 534 637 401 305 415 518
8 522 419 308 404 639 537 418 520
8 522 419 536 640 404 308 417 521
8 524 421 310 406 642 539 420 523
8 524 421 541 644 406 310 423 526
8 646 543 422 525 526 423 311 407
8 529 426 314 410 647 544 424 527
8 528 425 545 648 411 315 427 530
8 529 426 545 648 410 314 425 528
8 535 429 317 416 649 546 427 530
8 650 548 430 531 532 432 320 413
8 539 438 325 420 650 548 430 531
8 533 433 550 651 414 321 432 532
8 536 434 551 652 417 322 433 533
8 537 431 319 418 653 547 428 534
8 535 429 547 653 416 317 428 534
8 538 435 552 654 419 323 434 536
8 538 435 323 419 655 549 431 537
8 540 440 327 421 657 556 438 539
8 540 440 557 659 421 327 439 541
8 541 439 555 660 423 326 437 543
8 661 554 436 542 543 437 324 422
8 676 570 452 559 590 473 365 484
8 560 453 338 441 676 570 452 559
8 562 455 340 443 677 571 453 560
8 447 344 459 566 561 457 575 678
8 564 456 341 445 679 573 455 562
8 567 460 345 448 680 572 454 563
8 680 572 454 563 564 456 341 445
8 565 458 576 682 447 344 459 566
8 450 346 461 569 565 458 576 682
8 568 462 347 449 684 578 460 567
8 451 348 462 568 569 461 579 685
8 686 580 463 570 591 474 360 473
8 571 464 350 453 686 580 463 570
8 573 466 352 455 687 581 464 571
8 572 465 582 688 460 357 471 578
8 574 467 582 688 456 353 465 572
8 574 467 353 456 689 583 466 573
8 459 356 470 577 575 468 585 691
8 576 469 586 692 459 356 470 577
8 461 358 472 579 576 469 586 692
8 462 359 471 578 579 472 588 694
8 704 591 473 590 593 475 363 481
8 595 476 592 705 475 361 474 591
8 593 475 363 481 707 594 479 602
8 594 477 362 479 709 598 478 600
8 595 476 361 475 711 597 477 594
8 479 362 480 603 600 478 601 720
8 481 363 482 605 602 479 603 722
8 603 480 364 482 723 604 483 606
8 605 482 365 484 724 606 485 607
8 656 553 608 726 542 436 487 609
8 645 542 609 728 525 422 488 611
8 609 487 610 729 488 369 489 612
8 611 488 612 730 491 371 490 613
8 616 504 386 495 731 624 503 614
8 731 624 503 614 678 575 457 561
8 732 622 501 615 616 504 386 495
8 617 502 384 496 732 622 501 615
8 617 502 621 735 496 384 500 618
8 736 620 499 619 618 500 382 497
8 630 527 408 511 736 620 499 619
8 621 506 626 737 500 388 505 620
8 647 544 424 527 737 626 505 620
8 623 508 627 738 502 390 506 621
8 623 508 390 502 739 628 507 622
8 625 510 628 739 504 392 507 622
8 740 629 509 624 691 585 468 575
8 625 510 392 504 740 629 509 624
8 632 529 410 513 744 647 527 630
8 631 528 648 745 514 411 530 633
8 632 529 648 745 513 410 528 631
8 638 535 416 519 746 649 530 633
8 747 650 531 634 635 532 413 516
8 642 539 420 523 747 650 531 634
8 636 533 651 748 517 414 532 635
8 640 536 652 749 521 417 533 636
8 639 537 418 520 750 653 534 637
8 638 535 653 750 519 416 534 637
8 641 538 419 522 751 655 537 639
8 641 538 654 752 522 419 536 640
8 643 540 421 524 753 657 539 642
8 643 540 659 755 524 421 541 644
8 644 541 660 757 526 423 543 646
8 758 661 542 645 646 543 422 525
8 529 426 544 647 648 545 662 759
8 530 427 545 648 649 546 663 760
8 535 429 546 649 653 547 664 761
8 762 666 548 650 651 550 432 532
8 657 556 438 539 762 666 548 650
8 652 551 668 763 533 433 550 651
8 654 552 669 764 536 434 551 652
8 655 549 431 537 765 665 547 653
8 538 435 549 655 654 552 667 766
8 661 554 671 768 542 436 553 656
8 658 558 440 540 769 674 556 657
8 658 558 675 770 540 440 557 659
8 659 557 673 771 541 439 555 660
8 660 555 672 772 543 437 554 661
8 788 686 570 676 704 591 473 590
8 677 571 453 560 788 686 570 676
8 679 573 455 562 789 687 571 677
8 566 459 577 683 678 575 691 790
8 681 574 456 564 791 689 573 679
8 680 572 688 792 567 460 578 684
8 681 574 688 792 564 456 572 680
8 682 576 692 794 566 459 577 683
8 569 461 579 685 682 576 692 794
8 568 462 578 684 685 579 694 796
8 687 581 464 571 798 696 580 686
8 798 696 580 686 705 592 474 591
8 689 583 466 573 799 697 581 687
8 688 582 698 800 578 471 588 694
8 690 584 698 800 574 467 582 688
8 690 584 467 574 801 699 583 689
8 693 587 701 803 577 470 585 691
8 693 587 470 577 804 702 586 692
8 695 589 702 804 579 472 586 692
8 695 589 472 579 805 703 588 694
8 708 595 705 813 593 475 591 704
8 710 596 706 814 595 476 592 705
8 707 594 479 602 816 709 600 719
8 708 595 475 593 817 711 594 707
8 709 598 478 600 819 715 599 717
8 711 597 477 594 820 714 598 709
8 710 596 476 595 822 713 597 711
8 600 478 601 720 717 599 718 832
8 602 479 603 722 719 600 720 834
8 720 601 480 603 835 721 604 723
8 722 603 482 605 836 723 606 724
8 767 670 725 839 656 553 608 726
8 756 656 726 841 645 542 609 728
8 726 608 727 842 609 487 610 729
8 728 609 729 843 611 488 612 730
8 844 740 624 731 790 691 575 678
8 733 625 504 616 844 740 624 731
8 734 623 502 617 845 739 622 732
8 733 625 739 845 616 504 622 732
8 734 623 738 846 617 502 621 735
8 735 621 737 847 618 500 620 736
8 744 647 527 630 847 737 620 736
8 621 506 627 738 737 626 741 848
8 647 544 626 737 759 662 741 848
8 623 508 628 739 738 627 742 849
8 740 629 585 691 850 743 700 802
8 625 510 629 740 739 628 743 850
8 632 529 647 744 745 648 759 854
8 633 530 648 745 746 649 760 855
8 638 535 649 746 750 653 761 856
8 857 762 650 747 748 651 532 635
8 753 657 539 642 857 762 650 747
8 749 652 763 858 636 533 651 748
8 752 654 764 859 640 536 652 749
8 751 655 537 639 860 765 653 750
8 641 538 655 751 752 654 766 861
8 754 658 540 643 862 769 657 753
8 754 658 770 863 643 540 659 755
8 755 659 771 864 644 541 660 757
8 758 661 768 866 645 542 656 756
8 757 660 772 867 646 543 661 758
8 759 662 773 868 648 545 663 760
8 649 546 663 760 761 664 774 871
8 765 665 547 653 872 775 664 761
8 873 777 666 762 763 668 550 651
8 769 674 556 657 873 777 666 762
8 764 669 779 874 652 551 668 763
8 654 552 667 766 764 669 778 875
8 655 549 665 765 766 667 776 876
8 768 671 782 877 656 553 670 767
8 772 672 783 878 661 554 671 768
8 658 558 674 769 770 675 786 879
8 659 557 675 770 771 673 785 881
8 882 784 672 772 771 673 555 660
8 789 687 571 677 897 798 686 788
8 897 798 686 788 813 705 591 704
8 791 689 573 679 898 799 687 789
8 795 693 803 900 683 577 691 790
8 793 690 574 681 901 801 689 791
8 792 688 800 902 684 578 694 796
8 793 690 800 902 681 574 688 792
8 795 693 577 683 903 804 692 794
8 797 695 804 903 685 579 692 794
8 797 695 579 685 904 805 694 796
8 905 806 697 799 798 696 581 687
8 814 706 806 905 705 592 696 798
8 689 583 697 799 801 699 808 907
8 800 698 809 908 694 588 703 805
8 690 584 699 801 800 698 809 908
8 803 701 810 909 691 585 700 802
8 693 587 702 804 803 701 811 910
8 695 589 703 805 804 702 812 911
8 818 710 814 919 708 595 705 813
8 821 712 815 920 710 596 706 814
8 816 709 600 719 922 819 717 831
8 817 711 594 707 923 820 709 816
8 818 710 595 708 924 822 711 817
8 819 715 599 717 926 827 716 829
8 820 714 598 709 927 826 715 819
8 929 825 713 822 820 714 597 711
8 821 712 596 710 930 824 713 822
8 717 599 718 832 829 716 830 942
8 719 600 720 834 831 717 832 944
8 832 718 601 720 945 833 721 835
8 834 720 603 722 946 835 723 836
8 869 780 838 950 767 670 725 839
8 865 767 839 952 756 656 726 841
8 839 725 840 953 726 608 727 842
8 841 726 842 954 728 609 729 843
8 844 740 691 790 955 850 802 899
8 733 625 740 844 845 739 850 955
8 734 623 739 845 846 738 849 956
8 735 621 738 846 847 737 848 957
8 744 647 737 847 854 759 848 957
8 738 627 742 849 848 741 851 958
8 848 741 851 958 759 662 773 868
8 850 743 700 802 959 852 807 906
8 849 742 628 739 959 852 743 850
8 854 759 868 965 745 648 760 855
8 746 649 760 855 856 761 871 966
8 860 765 653 750 967 872 761 856
8 968 873 762 857 858 763 651 748
8 862 769 657 753 968 873 762 857
8 859 764 874 969 749 652 763 858
8 752 654 766 861 859 764 875 970
8 751 655 765 860 861 766 876 971
8 754 658 769 862 863 770 879 972
8 755 659 770 863 864 771 881 974
8 976 882 772 867 864 771 660 757
8 866 768 877 977 756 656 767 865
8 867 772 878 978 758 661 768 866
8 760 663 773 868 871 774 883 980
8 870 781 837 948 982 890 780 869
8 982 890 780 869 877 782 670 767
8 761 664 774 871 872 775 884 984
8 876 776 665 765 985 885 775 872
8 873 777 668 763 986 887 779 874
8 769 674 777 873 879 786 887 986
8 764 669 778 875 874 779 888 987
8 766 667 776 876 875 778 886 988
8 878 783 892 989 768 671 782 877
8 878 783 672 772 990 893 784 882
8 880 787 675 770 991 896 786 879
8 880 787 895 992 770 675 785 881
8 881 785 894 993 771 673 784 882
8 1006 905 799 898 897 798 687 789
8 919 814 905 1006 813 705 798 897
8 791 689 799 898 901 801 907 1007
8 900 803 909 1009 790 691 802 899
8 795 693 804 903 900 803 910 1010
8 902 800 908 1011 796 694 805 904
8 793 690 801 901 902 800 908 1011
8 797 695 805 904 903 804 911 1012
8 799 697 806 905 907 808 912 1013
8 920 815 912 1013 814 706 806 905
8 802 700 810 909 906 807 913 1014
8 801 699 808 907 908 809 914 1015
8 805 703 809 908 911 812 915 1016
8 803 701 811 910 909 810 916 1017
8 911 812 917 1018 804 702 811 910
8 925 821 920 1030 818 710 814 919
8 928 823 921 1031 821 712 815 920
8 922 819 717 831 1033 926 829 941
8 923 820 709 816 1034 927 819 922
8 1035 929 822 924 923 820 711 817
8 925 821 710 818 1036 930 822 924
8 1038 933 825 929 927 826 714 820
8 926 827 716 829 1039 935 828 939
8 927 826 715 819 1040 934 827 926
8 928 823 712 821 1041 931 824 930
8 1042 932 824 930 929 825 713 822
8 829 716 830 942 939 828 940 1058
8 831 717 832 944 941 829 942 1060
8 942 830 718 832 1061 943 833 945
8 944 832 720 834 1062 945 835 946
8 981 889 947 1064 870 781 837 948
8 948 837 949 1067 869 780 838 950
8 975 869 950 1069 865 767 839 952
8 950 838 951 1070 839 725 840 953
8 952 839 953 1071 841 726 842 954
8 955 850 802 899 1072 959 906 1008
8 956 849 739 845 1072 959 850 955
8 846 738 849 956 957 848 958 1073
8 957 848 958 1073 854 759 868 965
8 849 742 852 959 958 851 961 1076
8 960 853 961 1076 906 807 852 959
8 958 851 961 1076 868 773 883 980
8 960 853 807 906 1077 963 913 1014
8 855 760 868 965 966 871 980 1085
8 856 761 871 966 967 872 984 1086
8 971 876 765 860 1087 985 872 967
8 968 873 763 858 1088 986 874 969
8 862 769 873 968 972 879 986 1088
8 859 764 875 970 969 874 987 1089
8 861 766 876 971 970 875 988 1090
8 973 880 770 863 1091 991 879 972
8 973 880 992 1092 863 770 881 974
8 974 881 993 1093 864 771 882 976
8 979 870 948 1066 1094 982 869 975
8 1094 982 869 975 977 877 767 865
8 978 878 772 867 1095 990 882 976
8 978 878 989 1096 866 768 877 977
8 871 774 883 980 984 884 994 1099
8 983 891 999 1100 870 781 889 981
8 1101 1000 890 982 989 892 782 877
8 983 891 781 870 1101 1000 890 982
8 872 775 884 984 985 885 995 1103
8 876 776 885 985 988 886 996 1104
8 986 887 779 874 1105 998 888 987
8 879 786 887 986 991 896 998 1105
8 875 778 886 988 987 888 997 1106
8 990 893 1002 1107 878 783 892 989
8 1108 1003 893 990 993 894 784 882
8 880 787 896 991 992 895 1005 1109
8 993 894 785 881 1110 1004 895 992
8 898 799 905 1006 1007 907 1013 1120
8 1030 920 1013 1120 919 814 905 1006
8 901 801 907 1007 1011 908 1015 1121
8 899 802 909 1009 1008 906 1014 1122
8 900 803 910 1010 1009 909 1017 1123
8 1012 911 1018 1124 903 804 910 1010
8 904 805 908 1011 1012 911 1016 1125
8 1013 912 1020 1127 907 808 914 1015
8 1031 921 1020 1127 920 815 912 1013
8 1019 918 962 1075 1128 1021 913 1014
8 1128 1021 913 1014 1017 916 810 909
8 1015 914 1022 1129 908 809 915 1016
8 1016 915 1023 1130 911 812 917 1018
8 1018 917 1024 1131 910 811 916 1017
8 1037 928 1031 1148 925 821 920 1030
8 928 823 931 1041 1031 921 1032 1149
8 1033 926 829 941 1151 1039 939 1057
8 1034 927 819 922 1152 1040 926 1033
8 1153 1038 929 1035 1034 927 820 923
8 1154 1042 930 1036 1035 929 822 924
8 1037 928 821 925 1155 1041 930 1036
8 1039 935 828 939 1156 1047 938 1055
8 1157 1043 932 1042 1038 933 825 929
8 1038 933 826 927 1158 1045 934 1040
8 1040 934 827 926 1159 1046 935 1039
8 930 824 932 1042 1041 931 1044 1160
8 1051 936 1048 1165 1175 1052 937 1053
8 1156 1047 938 1055 1053 937 1054 1178
8 939 828 940 1058 1055 938 1056 1181
8 941 829 942 1060 1057 939 1058 1183
8 942 830 943 1061 1058 940 1059 1184
8 1060 942 832 944 1185 1061 945 1062
8 1082 964 1063 1188 981 889 947 1064
8 1097 981 1064 1190 979 870 948 1066
8 1064 947 1065 1191 948 837 949 1067
8 1066 948 1067 1193 975 869 950 1069
8 1067 949 1068 1194 950 838 951 1070
8 1069 950 1070 1195 952 839 953 1071
8 956 849 959 1072 1073 958 1076 1197
8 1074 960 1076 1197 1008 906 959 1072
8 1073 958 1076 1197 965 868 980 1085
8 1074 960 906 1008 1198 1077 1014 1122
8 1133 1026 1079 1199 1019 918 962 1075
8 1077 963 913 1014 1200 1080 962 1075
8 960 853 963 1077 1076 961 1078 1201
8 980 883 961 1076 1099 994 1078 1201
8 1210 1083 964 1082 1100 999 889 981
8 966 871 980 1085 1086 984 1099 1215
8 967 872 984 1086 1087 985 1103 1216
8 971 876 985 1087 1090 988 1104 1217
8 1088 986 874 969 1218 1105 987 1089
8 972 879 986 1088 1091 991 1105 1218
8 970 875 988 1090 1089 987 1106 1219
8 973 880 991 1091 1092 992 1109 1220
8 1093 993 881 974 1221 1110 992 1092
8 1222 1108 990 1095 1093 993 882 976
8 1223 1101 982 1094 1096 989 877 977
8 1098 983 870 979 1223 1101 982 1094
8 1095 990 1107 1224 978 878 989 1096
8 1098 983 1100 1225 979 870 981 1097
8 984 884 994 1099 1103 995 1111 1227
8 1102 1001 1115 1228 983 891 999 1100
8 1101 1000 892 989 1229 1116 1002 1107
8 1102 1001 891 983 1229 1116 1000 1101
8 985 885 995 1103 1104 996 1112 1230
8 988 886 996 1104 1106 997 1113 1231
8 1105 998 888 987 1232 1114 997 1106
8 991 896 998 1105 1109 1005 1114 1232
8 1108 1003 1117 1233 990 893 1002 1107
8 1108 1003 894 993 1233 1117 1004 1110
8 992 895 1005 1109 1110 1004 1118 1234
8 1120 1013 1127 1244 1007 907 1015 1121
8 1148 1031 1127 1244 1030 920 1013 1120
8 1121 1015 1129 1245 1011 908 1016 1125
8 1126 1019 1075 1196 1246 1128 1014 1122
8 1246 1128 1014 1122 1123 1017 909 1009
8 1124 1018 1131 1247 1010 910 1017 1123
8 1125 1016 1130 1248 1012 911 1018 1124
8 1127 1020 1137 1254 1015 914 1022 1129
8 1031 921 1032 1149 1127 1020 1137 1254
8 1134 1027 918 1019 1257 1140 1021 1128
8 1257 1140 1021 1128 1131 1024 916 1017
8 1129 1022 1141 1258 1016 915 1023 1130
8 1130 1023 1142 1259 1018 917 1024 1131
8 1261 1144 1025 1132 1133 1026 1079 1199
8 1255 1138 1025 1132 1135 1028 1144 1261
8 1133 1026 918 1019 1262 1145 1027 1134
8 1136 1029 1139 1256 1263 1146 1028 1135
8 1037 928 1041 1155 1148 1031 1149 1275
8 1041 931 1044 1160 1149 1032 1150 1276
8 1151 1039 939 1057 1278 1156 1055 1180
8 1152 1040 926 1033 1279 1159 1039 1151
8 1153 1038 927 1034 1280 1158 1040 1152
8 1281 1157 1042 1154 1153 1038 929 1035
8 1036 930 1042 1154 1155 1041 1160 1282
8 1283 1164 1046 1159 1156 1047 935 1039
8 1165 1048 1164 1283 1053 937 1047 1156
8 1157 1043 933 1038 1284 1161 1045 1158
8 1157 1043 1161 1284 1042 932 1044 1160
8 1040 934 1046 1159 1158 1045 1163 1285
8 1166 1049 1167 1292 1051 936 1048 1165
8 1166 1049 936 1051 1293 1168 1050 1172
8 1051 936 1052 1175 1172 1050 1173 1306
8 1174 1051 1165 1290 1308 1175 1053 1177
8 1053 937 1054 1178 1175 1052 1176 1309
8 1278 1156 1055 1180 1177 1053 1178 1311
8 1055 938 1056 1181 1178 1054 1179 1312
8 1057 939 1058 1183 1180 1055 1181 1314
8 1058 940 1059 1184 1181 1056 1182 1315
8 1060 942 1061 1185 1183 1058 1184 1316
8 1208 1081 1187 1321 1082 964 1063 1188
8 1209 1082 1188 1322 1097 981 1064 1190
8 1188 1063 1189 1323 1064 947 1065 1191
8 1190 1064 1191 1325 1066 948 1067 1193
8 1191 1065 1192 1326 1067 949 1068 1194
8 1067 1193 1069 950 1194 1327 1195 1070
8 1250 1133 1199 1330 1126 1019 1075 1196
8 1198 1077 1014 1122 1331 1200 1075 1196
8 1074 960 1077 1198 1197 1076 1201 1332
8 1085 980 1076 1197 1215 1099 1201 1332
8 1199 1079 1203 1333 1075 962 1080 1200
8 1132 1025 1119 1243 1199 1079 1203 1333
8 1201 1078 963 1077 1334 1202 1080 1200
8 1099 994 1078 1201 1227 1111 1202 1334
8 1343 1207 1081 1208 1210 1083 964 1082
8 1214 1084 1186 1319 1343 1207 1081 1208
8 1345 1210 1082 1209 1225 1100 981 1097
8 1346 1211 1083 1210 1228 1115 999 1100
8 1086 984 1099 1215 1216 1103 1227 1352
8 1087 985 1103 1216 1217 1104 1230 1353
8 1090 988 1104 1217 1219 1106 1231 1354
8 1218 1105 987 1089 1355 1232 1106 1219
8 1091 991 1105 1218 1220 1109 1232 1355
8 1092 992 1109 1220 1221 1110 1234 1356
8 1222 1108 1233 1357 1095 990 1107 1224
8 1222 1108 993 1093 1357 1233 1110 1221
8 1223 1101 989 1096 1358 1229 1107 1224
8 1226 1102 983 1098 1358 1229 1101 1223
8 1226 1102 1228 1359 1098 983 1100 1225
8 1103 995 1111 1227 1230 1112 1235 1360
8 1107 1002 1117 1233 1229 1116 1240 1362
8 1102 1001 1116 1229 1228 1115 1240 1362
8 1104 996 1112 1230 1231 1113 1236 1363
8 1364 1237 1114 1232 1231 1113 997 1106
8 1109 1005 1114 1232 1234 1118 1238 1365
8 1110 1004 1118 1234 1233 1117 1241 1366
8 1242 1374 1255 1138 1119 1243 1132 1025
8 1244 1127 1254 1376 1121 1015 1129 1245
8 1148 1031 1149 1275 1244 1127 1254 1376
8 1245 1129 1258 1377 1125 1016 1130 1248
8 1251 1134 1019 1126 1378 1257 1128 1246
8 1378 1257 1128 1246 1247 1131 1017 1123
8 1248 1130 1259 1379 1124 1018 1131 1247
8 1261 1381 1250 1133 1132 1249 1330 1199
8 1255 1380 1252 1135 1132 1249 1381 1261
8 1250 1133 1019 1126 1382 1262 1134 1251
8 1253 1136 1256 1385 1384 1263 1135 1252
8 1254 1137 1265 1387 1129 1022 1141 1258
8 1149 1032 1150 1276 1254 1137 1265 1387
8 1028 1135 1255 1138 1139 1256 1388 1266
8 1136 1029 1147 1264 1256 1139 1267 1389
8 1390 1268 1140 1257 1259 1142 1024 1131
8 1260 1143 1027 1134 1390 1268 1140 1257
8 1258 1141 1269 1391 1130 1023 1142 1259
8 1262 1145 1027 1134 1393 1271 1143 1260
8 1261 1144 1026 1133 1394 1272 1145 1262
8 1135 1028 1144 1261 1263 1146 1272 1394
8 1136 1029 1146 1263 1264 1147 1273 1395
8 1155 1041 1160 1282 1275 1149 1276 1405
8 1276 1150 1044 1160 1406 1277 1162 1286
8 1408 1283 1159 1279 1278 1156 1039 1151
8 1290 1165 1283 1408 1177 1053 1156 1278
8 1152 1040 1159 1279 1280 1158 1285 1409
8 1281 1157 1038 1153 1410 1284 1158 1280
8 1281 1157 1284 1410 1154 1042 1160 1282
8 1159 1046 1164 1283 1285 1163 1289 1412
8 1292 1167 1289 1412 1165 1048 1164 1283
8 1158 1045 1163 1285 1284 1161 1288 1413
8 1284 1161 1288 1413 1160 1044 1162 1286
8 1291 1166 1292 1418 1174 1051 1165 1290
8 1291 1166 1051 1174 1419 1293 1172 1305
8 1294 1169 1296 1421 1166 1049 1167 1292
8 1293 1168 1050 1172 1422 1295 1171 1303
8 1294 1169 1049 1166 1423 1297 1168 1293
8 1422 1295 1171 1303 1301 1170 1302 1435
8 1172 1050 1173 1306 1303 1171 1304 1438
8 1174 1051 1175 1308 1305 1172 1306 1440
8 1175 1052 1176 1309 1306 1173 1307 1441
8 1177 1053 1178 1311 1308 1175 1309 1443
8 1178 1054 1179 1312 1309 1176 1310 1444
8 1180 1055 1181 1314 1311 1178 1312 1446
8 1056 1181 1312 1179 1182 1315 1447 1313
8 1183 1058 1184 1316 1314 1181 1315 1448
8 1319 1186 1084 1214 1451 1317 1213 1350
8 1319 1186 1318 1453 1208 1081 1187 1321
8 1321 1187 1320 1456 1188 1063 1189 1323
8 1344 1208 1321 1457 1209 1082 1188 1322
8 1322 1188 1323 1458 1190 1064 1191 1325
8 1323 1189 1324 1459 1191 1065 1192 1326
8 1191 1325 1193 1067 1326 1460 1327 1194
8 1242 1374 1243 1119 1328 1462 1335 1204
8 1330 1199 1333 1465 1196 1075 1200 1331
8 1132 1249 1330 1199 1243 1375 1465 1333
8 1332 1201 1077 1198 1466 1334 1200 1331
8 1215 1099 1201 1332 1352 1227 1334 1466
8 1119 1243 1333 1203 1204 1335 1470 1338
8 1333 1203 1338 1470 1200 1080 1202 1334
8 1227 1111 1202 1334 1360 1235 1338 1470
8 1328 1462 1335 1204 1205 1336 1471 1339
8 1337 1206 1340 1472 1464 1329 1205 1336
8 1346 1211 1342 1479 1210 1083 1207 1343
8 1346 1211 1115 1228 1479 1342 1239 1361
8 1348 1212 1084 1214 1479 1342 1207 1343
8 1480 1343 1208 1344 1345 1210 1082 1209
8 1351 1214 1319 1454 1480 1343 1208 1344
8 1481 1346 1210 1345 1359 1228 1100 1225
8 1348 1212 1347 1483 1214 1084 1213 1350
8 1216 1103 1227 1352 1353 1230 1360 1488
8 1217 1104 1230 1353 1354 1231 1363 1489
8 1490 1364 1232 1355 1354 1231 1106 1219
8 1220 1109 1232 1355 1356 1234 1365 1491
8 1221 1110 1234 1356 1357 1233 1366 1492
8 1224 1107 1233 1357 1358 1229 1362 1493
8 1226 1102 1229 1358 1359 1228 1362 1493
8 1230 1112 1235 1360 1363 1236 1367 1496
8 1361 1239 1115 1228 1497 1371 1240 1362
8 1366 1241 1372 1498 1233 1117 1240 1362
8 1364 1237 1113 1231 1499 1368 1236 1363
8 1364 1237 1368 1499 1232 1114 1238 1365
8 1234 1118 1238 1365 1366 1241 1369 1500
8 1507 1373 1242 1374 1388 1266 1138 1255
8 1508 1374 1243 1375 1380 1255 1132 1249
8 1376 1254 1387 1509 1245 1129 1258 1377
8 1275 1149 1276 1405 1376 1254 1387 1509
8 1377 1258 1391 1510 1248 1130 1259 1379
8 1511 1390 1257 1378 1379 1259 1131 1247
8 1383 1260 1134 1251 1511 1390 1257 1378
8 1252 1135 1256 1385 1380 1255 1388 1512
8 1261 1381 1513 1394 1133 1250 1382 1262
8 1135 1252 1384 1263 1261 1381 1513 1394
8 1382 1262 1134 1251 1514 1393 1260 1383
8 1253 1136 1263 1384 1386 1264 1395 1516
8 1253 1136 1264 1386 1385 1256 1389 1517
8 1387 1265 1397 1519 1258 1141 1269 1391
8 1276 1150 1277 1406 1387 1265 1397 1519
8 1256 1139 1267 1389 1388 1266 1398 1520
8 1264 1147 1274 1396 1389 1267 1399 1521
8 1392 1270 1143 1260 1522 1400 1268 1390
8 1390 1268 1142 1259 1522 1400 1269 1391
8 1392 1270 1401 1523 1260 1143 1271 1393
8 1272 1394 1524 1402 1145 1262 1393 1271
8 1395 1273 1146 1263 1524 1402 1272 1394
8 1273 1395 1264 1147 1403 1526 1396 1274
8 1405 1276 1160 1282 1534 1406 1286 1411
8 1414 1287 1407 1535 1286 1162 1277 1406
8 1279 1159 1283 1408 1409 1285 1412 1537
8 1418 1292 1412 1537 1290 1165 1283 1408
8 1280 1158 1285 1409 1410 1284 1413 1538
8 1410 1284 1413 1538 1282 1160 1286 1411
8 1285 1163 1289 1412 1413 1288 1417 1540
8 1421 1296 1417 1540 1292 1167 1289 1412
8 1414 1287 1162 1286 1541 1416 1288 1413
8 1420 1294 1421 1545 1291 1166 1292 1418
8 1419 1293 1172 1305 1546 1422 1303 1437
8 1420 1294 1166 1291 1547 1423 1293 1419
8 1294 1169 1297 1423 1421 1296 1425 1548
8 1423 1297 1168 1293 1549 1424 1295 1422
8 1301 1170 1298 1427 1422 1295 1424 1549
8 1432 1300 1428 1554 1301 1170 1298 1427
8 1431 1299 1428 1554 1560 1430 1300 1432
8 1563 1433 1300 1432 1435 1302 1170 1301
8 1546 1422 1303 1437 1434 1301 1435 1565
8 1303 1171 1304 1438 1435 1302 1436 1566
8 1305 1172 1306 1440 1437 1303 1438 1568
8 1306 1173 1307 1441 1438 1304 1439 1569
8 1308 1175 1309 1443 1440 1306 1441 1571
8 1309 1176 1310 1444 1441 1307 1442 1572
8 1311 1178 1312 1446 1443 1309 1444 1574
8 1179 1312 1444 1310 1313 1447 1575 1445
8 1314 1181 1315 1448 1446 1312 1447 1576
8 1350 1213 1349 1486 1451 1317 1449 1579
8 1451 1317 1450 1581 1319 1186 1318 1453
8 1454 1319 1214 1351 1582 1451 1350 1487
8 1453 1318 1452 1584 1321 1187 1320 1456
8 1454 1319 1453 1585 1344 1208 1321 1457
8 1456 1320 1455 1586 1323 1189 1324 1459
8 1457 1321 1456 1587 1322 1188 1323 1458
8 1458 1323 1459 1588 1325 1191 1326 1460
8 1205 1336 1464 1329 1328 1462 1590 1461
8 1507 1373 1461 1590 1374 1242 1328 1462
8 1508 1374 1462 1591 1375 1243 1335 1467
8 1337 1206 1329 1464 1473 1341 1463 1594
8 1375 1243 1335 1467 1465 1333 1470 1596
8 1465 1333 1470 1596 1331 1200 1334 1466
8 1352 1227 1334 1466 1488 1360 1470 1596
8 1591 1462 1336 1468 1467 1335 1471 1597
8 1469 1337 1472 1598 1595 1464 1336 1468
8 1471 1339 1474 1600 1335 1204 1338 1470
8 1600 1474 1367 1496 1470 1338 1235 1360
8 1336 1205 1340 1472 1471 1339 1475 1601
8 1337 1206 1341 1473 1472 1340 1476 1602
8 1495 1370 1478 1609 1361 1239 1342 1479
8 1348 1212 1342 1479 1483 1347 1478 1609
8 1481 1346 1479 1610 1345 1210 1343 1480
8 1481 1346 1228 1359 1610 1479 1361 1494
8 1484 1348 1214 1351 1610 1479 1343 1480
8 1483 1347 1482 1612 1350 1213 1349 1486
8 1484 1348 1483 1613 1351 1214 1350 1487
8 1353 1230 1360 1488 1489 1363 1496 1616
8 1490 1364 1231 1354 1617 1499 1363 1489
8 1490 1364 1499 1617 1355 1232 1365 1491
8 1356 1234 1365 1491 1492 1366 1500 1619
8 1492 1366 1498 1620 1357 1233 1362 1493
8 1494 1361 1228 1359 1621 1497 1362 1493
8 1495 1370 1239 1361 1622 1504 1371 1497
8 1363 1236 1367 1496 1499 1368 1501 1623
8 1497 1371 1240 1362 1624 1505 1372 1498
8 1625 1503 1372 1498 1500 1369 1241 1366
8 1365 1238 1368 1499 1500 1369 1502 1626
8 1520 1398 1506 1633 1388 1266 1373 1507
8 1634 1507 1374 1508 1512 1388 1255 1380
8 1509 1387 1519 1635 1377 1258 1391 1510
8 1405 1276 1406 1534 1509 1387 1519 1635
8 1515 1392 1260 1383 1636 1522 1390 1511
8 1511 1390 1259 1379 1636 1522 1391 1510
8 1385 1256 1389 1517 1512 1388 1520 1637
8 1513 1394 1262 1382 1638 1524 1393 1514
8 1395 1516 1638 1524 1263 1384 1513 1394
8 1515 1392 1523 1639 1383 1260 1393 1514
8 1516 1395 1526 1640 1386 1264 1396 1518
8 1386 1264 1396 1518 1517 1389 1521 1641
8 1519 1397 1527 1643 1391 1269 1400 1522
8 1535 1407 1527 1643 1406 1277 1397 1519
8 1389 1267 1399 1521 1520 1398 1528 1644
8 1645 1529 1399 1521 1525 1404 1274 1396
8 1392 1270 1400 1522 1523 1401 1531 1646
8 1524 1402 1271 1393 1648 1532 1401 1523
8 1403 1526 1648 1532 1273 1395 1524 1402
8 1525 1404 1274 1396 1649 1533 1403 1526
8 1539 1414 1535 1657 1411 1286 1406 1534
8 1542 1415 1536 1658 1414 1287 1407 1535
8 1409 1285 1412 1537 1538 1413 1540 1660
8 1545 1421 1540 1660 1418 1292 1412 1537
8 1539 1414 1286 1411 1661 1541 1413 1538
8 1540 1417 1544 1663 1413 1288 1416 1541
8 1421 1296 1425 1548 1540 1417 1544 1663
8 1542 1415 1287 1414 1664 1543 1416 1541
8 1420 1294 1423 1547 1545 1421 1548 1666
8 1547 1423 1293 1419 1667 1549 1422 1546
8 1434 1301 1427 1553 1546 1422 1549 1667
8 1423 1297 1424 1549 1548 1425 1550 1668
8 1551 1426 1550 1668 1427 1298 1424 1549
8 1551 1426 1298 1427 1671 1552 1428 1554
8 1562 1432 1554 1674 1434 1301 1427 1553
8 1431 1299 1429 1558 1554 1428 1555 1675
8 1431 1299 1430 1560 1558 1429 1557 1680
8 1560 1430 1300 1432 1683 1559 1433 1563
8 1561 1431 1554 1674 1684 1560 1432 1562
8 1685 1563 1432 1562 1565 1435 1301 1434
8 1435 1302 1436 1566 1563 1433 1564 1686
8 1437 1303 1438 1568 1565 1435 1566 1688
8 1438 1304 1439 1569 1566 1436 1567 1689
8 1440 1306 1441 1571 1568 1438 1569 1691
8 1441 1307 1442 1572 1569 1439 1570 1692
8 1443 1309 1444 1574 1571 1441 1572 1694
8 1310 1444 1572 1442 1445 1575 1695 1573
8 1446 1312 1447 1576 1574 1444 1575 1696
8 1486 1349 1485 1614 1579 1449 1577 1699
8 1451 1317 1449 1579 1581 1450 1578 1701
8 1487 1350 1486 1615 1582 1451 1579 1702
8 1581 1450 1580 1704 1453 1318 1452 1584
8 1582 1451 1581 1705 1454 1319 1453 1585
8 1584 1452 1583 1706 1456 1320 1455 1586
8 1585 1453 1584 1707 1457 1321 1456 1587
8 1587 1456 1586 1708 1458 1323 1459 1588
8 1633 1506 1589 1710 1507 1373 1461 1590
8 1464 1329 1461 1590 1594 1463 1589 1710
8 1468 1336 1462 1591 1595 1464 1590 1711
8 1634 1507 1590 1711 1508 1374 1462 1591
8 1473 1341 1463 1594 1603 1477 1593 1716
8 1469 1337 1464 1595 1599 1473 1594 1717
8 1471 1597 1467 1335 1600 1718 1596 1470
8 1718 1600 1496 1616 1596 1470 1360 1488
8 1336 1468 1597 1471 1472 1598 1719 1601
8 1469 1337 1473 1599 1598 1472 1602 1720
8 1722 1604 1501 1623 1600 1474 1367 1496
8 1475 1601 1471 1339 1604 1722 1600 1474
8 1602 1476 1605 1723 1472 1340 1475 1601
8 1476 1602 1724 1606 1341 1473 1603 1477
8 1483 1347 1478 1609 1612 1482 1608 1731
8 1495 1370 1504 1622 1609 1478 1608 1731
8 1618 1495 1609 1732 1494 1361 1479 1610
8 1484 1348 1479 1610 1613 1483 1609 1732
8 1486 1349 1482 1612 1614 1485 1611 1733
8 1613 1483 1612 1734 1487 1350 1486 1615
8 1489 1363 1496 1616 1617 1499 1623 1736
8 1491 1365 1499 1617 1619 1500 1626 1737
8 1618 1495 1361 1494 1738 1622 1497 1621
8 1739 1625 1498 1620 1619 1500 1366 1492
8 1621 1497 1362 1493 1740 1624 1498 1620
8 1742 1631 1504 1622 1624 1505 1371 1497
8 1743 1628 1502 1626 1623 1501 1368 1499
8 1744 1630 1505 1624 1625 1503 1372 1498
8 1745 1629 1503 1625 1626 1502 1369 1500
8 1520 1398 1528 1644 1633 1506 1632 1751
8 1637 1520 1633 1752 1512 1388 1507 1634
8 1635 1519 1643 1753 1510 1391 1522 1636
8 1657 1535 1643 1753 1534 1406 1519 1635
8 1515 1392 1522 1636 1639 1523 1646 1754
8 1517 1389 1521 1641 1637 1520 1644 1755
8 1524 1638 1756 1648 1393 1514 1639 1523
8 1640 1526 1395 1516 1756 1648 1524 1638
8 1642 1525 1396 1518 1757 1649 1526 1640
8 1758 1645 1521 1641 1642 1525 1396 1518
8 1646 1531 1400 1522 1760 1650 1527 1643
8 1535 1407 1536 1658 1643 1527 1650 1760
8 1521 1399 1529 1645 1644 1528 1651 1761
8 1647 1530 1652 1762 1525 1404 1529 1645
8 1401 1523 1648 1532 1531 1646 1763 1655
8 1525 1404 1533 1649 1647 1530 1654 1765
8 1533 1649 1766 1656 1403 1526 1648 1532
8 1662 1542 1658 1774 1539 1414 1535 1657
8 1542 1415 1543 1664 1658 1536 1659 1775
8 1660 1540 1663 1777 1538 1413 1541 1661
8 1545 1421 1548 1666 1660 1540 1663 1777
8 1662 1542 1414 1539 1778 1664 1541 1661
8 1664 1543 1416 1541 1779 1665 1544 1663
8 1548 1425 1550 1668 1663 1544 1665 1779
8 1547 1423 1549 1667 1666 1548 1668 1781
8 1670 1551 1668 1781 1553 1427 1549 1667
8 1551 1426 1552 1671 1668 1550 1669 1782
8 1670 1551 1427 1553 1784 1671 1554 1674
8 1675 1555 1672 1785 1554 1428 1552 1671
8 1678 1556 1673 1789 1558 1429 1555 1675
8 1561 1431 1558 1681 1674 1554 1675 1790
8 1794 1677 1556 1678 1680 1557 1429 1558
8 1560 1430 1559 1683 1680 1557 1679 1797
8 1561 1431 1560 1684 1681 1558 1680 1798
8 1563 1433 1564 1686 1683 1559 1682 1800
8 1684 1560 1432 1562 1801 1683 1563 1685
8 1565 1435 1566 1688 1685 1563 1686 1802
8 1566 1436 1567 1689 1686 1564 1687 1803
8 1568 1438 1569 1691 1688 1566 1689 1805
8 1569 1439 1570 1692 1689 1567 1690 1806
8 1571 1441 1572 1694 1691 1569 1692 1808
8 1442 1572 1692 1570 1573 1695 1809 1693
8 1574 1444 1575 1696 1694 1572 1695 1810
8 1614 1485 1592 1712 1699 1577 1697 1813
8 1579 1449 1577 1699 1701 1578 1698 1815
8 1615 1486 1614 1735 1702 1579 1699 1816
8 1701 1578 1700 1818 1581 1450 1580 1704
8 1582 1451 1579 1702 1705 1581 1701 1819
8 1704 1580 1703 1820 1584 1452 1583 1706
8 1705 1581 1704 1821 1585 1453 1584 1707
8 1707 1584 1706 1822 1587 1456 1586 1708
8 1710 1589 1506 1633 1824 1709 1632 1751
8 1594 1463 1589 1710 1716 1593 1709 1824
8 1752 1633 1710 1825 1634 1507 1590 1711
8 1595 1464 1590 1711 1717 1594 1710 1825
8 1830 1714 1592 1712 1733 1611 1485 1614
8 1603 1477 1593 1716 1725 1607 1715 1834
8 1599 1473 1594 1717 1721 1603 1716 1835
8 1837 1722 1623 1736 1718 1600 1496 1616
8 1719 1601 1722 1837 1597 1471 1600 1718
8 1602 1720 1598 1472 1723 1838 1719 1601
8 1720 1602 1473 1599 1839 1724 1603 1721
8 1723 1605 1726 1840 1601 1475 1604 1722
8 1840 1726 1628 1743 1722 1604 1501 1623
8 1724 1606 1727 1841 1602 1476 1605 1723
8 1725 1607 1728 1842 1603 1477 1606 1724
8 1612 1482 1608 1731 1733 1611 1730 1849
8 1741 1627 1730 1849 1622 1504 1608 1731
8 1613 1483 1609 1732 1734 1612 1731 1850
8 1618 1495 1622 1738 1732 1609 1731 1850
8 1615 1486 1612 1734 1735 1614 1733 1851
8 1852 1743 1626 1737 1736 1623 1499 1617
8 1853 1745 1625 1739 1737 1626 1500 1619
8 1855 1742 1622 1738 1740 1624 1497 1621
8 1856 1744 1624 1740 1739 1625 1498 1620
8 1741 1627 1504 1622 1857 1746 1631 1742
8 1742 1631 1505 1624 1858 1749 1630 1744
8 1859 1747 1629 1745 1743 1628 1502 1626
8 1860 1748 1630 1744 1745 1629 1503 1625
8 1644 1528 1651 1761 1751 1632 1750 1865
8 1637 1520 1644 1755 1752 1633 1751 1866
8 1754 1646 1522 1636 1867 1760 1643 1753
8 1657 1535 1658 1774 1753 1643 1760 1867
8 1639 1523 1646 1754 1756 1648 1763 1868
8 1641 1521 1645 1758 1755 1644 1761 1869
8 1757 1649 1526 1640 1870 1766 1648 1756
8 1642 1525 1649 1757 1759 1647 1765 1871
8 1759 1647 1762 1872 1642 1525 1645 1758
8 1760 1650 1767 1874 1646 1531 1655 1763
8 1658 1536 1659 1775 1760 1650 1767 1874
8 1762 1652 1768 1875 1645 1529 1651 1761
8 1764 1653 1769 1876 1647 1530 1652 1762
8 1656 1766 1877 1773 1532 1648 1763 1655
8 1771 1879 1765 1654 1653 1764 1647 1530
8 1533 1649 1765 1654 1656 1766 1880 1772
8 1662 1542 1664 1778 1774 1658 1775 1887
8 1664 1543 1665 1779 1775 1659 1776 1888
8 1778 1664 1541 1661 1890 1779 1663 1777
8 1666 1548 1668 1781 1777 1663 1779 1890
8 1782 1669 1780 1891 1668 1550 1665 1779
8 1670 1551 1671 1784 1781 1668 1782 1893
8 1671 1552 1672 1785 1782 1669 1783 1894
8 1790 1675 1785 1896 1674 1554 1671 1784
8 1675 1555 1673 1789 1785 1672 1786 1897
8 1792 1676 1788 1903 1678 1556 1673 1789
8 1795 1678 1789 1904 1681 1558 1675 1790
8 1792 1676 1556 1678 1906 1791 1677 1794
8 1680 1557 1679 1797 1794 1677 1793 1909
8 1910 1794 1678 1795 1798 1680 1558 1681
8 1683 1559 1682 1800 1797 1679 1796 1912
8 1684 1560 1683 1801 1798 1680 1797 1913
8 1686 1564 1687 1803 1800 1682 1799 1915
8 1685 1563 1686 1802 1801 1683 1800 1916
8 1688 1566 1689 1805 1802 1686 1803 1917
8 1689 1567 1690 1806 1803 1687 1804 1918
8 1691 1569 1692 1808 1805 1689 1806 1920
8 1692 1570 1693 1809 1806 1690 1807 1921
8 1694 1572 1695 1810 1808 1692 1809 1922
8 1829 1713 1811 1926 1712 1592 1697 1813
8 1813 1697 1812 1928 1699 1577 1698 1815
8 1735 1614 1712 1828 1816 1699 1813 1929
8 1815 1698 1814 1931 1701 1578 1700 1818
8 1702 1579 1699 1816 1819 1701 1815 1932
8 1818 1700 1817 1933 1704 1580 1703 1820
8 1819 1701 1818 1934 1705 1581 1704 1821
8 1821 1704 1820 1935 1707 1584 1706 1822
8 1824 1709 1632 1751 1937 1823 1750 1865
8 1716 1593 1709 1824 1834 1715 1823 1937
8 1825 1710 1633 1752 1938 1824 1751 1866
8 1717 1594 1710 1825 1835 1716 1824 1938
8 1945 1830 1712 1828 1851 1733 1614 1735
8 1830 1714 1831 1946 1712 1592 1713 1829
8 1947 1832 1714 1830 1849 1730 1611 1733
8 1843 1729 1607 1725 1950 1833 1715 1834
8 1721 1603 1716 1835 1836 1725 1834 1951
8 1836 1725 1842 1953 1721 1603 1724 1839
8 1723 1838 1719 1601 1840 1954 1837 1722
8 1954 1840 1743 1852 1837 1722 1623 1736
8 1724 1839 1720 1602 1841 1955 1838 1723
8 1841 1727 1844 1956 1723 1605 1726 1840
8 1956 1844 1747 1859 1840 1726 1628 1743
8 1728 1842 1724 1606 1845 1957 1841 1727
8 1725 1607 1729 1843 1842 1728 1846 1958
8 1741 1627 1746 1857 1849 1730 1848 1965
8 1734 1612 1731 1850 1851 1733 1849 1966
8 1854 1741 1849 1966 1738 1622 1731 1850
8 1967 1859 1745 1853 1852 1743 1626 1737
8 1968 1860 1744 1856 1853 1745 1625 1739
8 1854 1741 1622 1738 1969 1857 1742 1855
8 1855 1742 1624 1740 1970 1858 1744 1856
8 1857 1746 1631 1742 1971 1861 1749 1858
8 1858 1749 1630 1744 1972 1863 1748 1860
8 1859 1747 1862 1973 1745 1629 1748 1860
8 1875 1768 1864 1977 1761 1651 1750 1865
8 1755 1644 1761 1869 1866 1751 1865 1978
8 1867 1760 1874 1979 1754 1646 1763 1868
8 1774 1658 1775 1887 1867 1760 1874 1979
8 1870 1766 1648 1756 1980 1877 1763 1868
8 1872 1762 1875 1981 1758 1645 1761 1869
8 1757 1649 1766 1870 1871 1765 1880 1982
8 1983 1879 1764 1873 1871 1765 1647 1759
8 1873 1764 1876 1984 1759 1647 1762 1872
8 1877 1773 1655 1763 1986 1881 1767 1874
8 1775 1659 1776 1888 1874 1767 1881 1986
8 1876 1769 1882 1987 1762 1652 1768 1875
8 1878 1770 1883 1988 1764 1653 1769 1876
8 1880 1772 1656 1766 1989 1886 1773 1877
8 1878 1770 1653 1764 1990 1884 1771 1879
8 1765 1654 1772 1880 1879 1771 1885 1991
8 1778 1664 1779 1890 1887 1775 1888 1997
8 1998 1889 1776 1888 1891 1780 1665 1779
8 1893 1782 1891 2000 1781 1668 1779 1890
8 1894 1783 1892 2001 1782 1669 1780 1891
8 1784 1671 1785 1896 1893 1782 1894 2003
8 1897 1786 1895 2004 1785 1672 1783 1894
8 1790 1675 1789 1904 1896 1785 1897 2006
8 1901 1787 1898 2007 1789 1673 1786 1897
8 1903 1788 1900 2013 1789 1673 1787 1901
8 1792 1676 1791 1906 1903 1788 1902 2016
8 1907 1792 1903 2017 1795 1678 1789 1904
8 1906 1791 1677 1794 2019 1905 1793 1909
8 1907 1792 1678 1795 2020 1906 1794 1910
8 1797 1679 1796 1912 1909 1793 1908 2022
8 1798 1680 1797 1913 1910 1794 1909 2023
8 1800 1682 1799 1915 1912 1796 1911 2025
8 1801 1683 1800 1916 1913 1797 1912 2026
8 1803 1687 1804 1918 1915 1799 1914 2028
8 1802 1686 1803 1917 1916 1800 1915 2029
8 1805 1689 1806 1920 1917 1803 1918 2030
8 1806 1690 1807 1921 1918 1804 1919 2031
8 1808 1692 1809 1922 1920 1806 1921 2032
8 1939 1826 1924 2037 1829 1713 1811 1926
8 1926 1811 1925 2039 1813 1697 1812 1928
8 1944 1829 1926 2040 1828 1712 1813 1929
8 1928 1812 1927 2042 1815 1698 1814 1931
8 1929 1813 1928 2043 1816 1699 1815 1932
8 1931 1814 1930 2044 1818 1700 1817 1933
8 1932 1815 1931 2045 1819 1701 1818 1934
8 1934 1818 1933 2046 1821 1704 1820 1935
8 2048 1936 1823 1937 1977 1864 1750 1865
8 1950 1833 1715 1834 2048 1936 1823 1937
8 1938 1824 1751 1866 2049 1937 1865 1978
8 1835 1716 1824 1938 1951 1834 1937 2049
8 1939 1826 1713 1829 2053 1942 1831 1946
8 1940 1827 1923 2035 2053 1942 1826 1939
8 1945 1830 1946 2058 1828 1712 1829 1944
8 2059 1947 1830 1945 1966 1849 1733 1851
8 1947 1832 1730 1849 2060 1948 1848 1965
8 1947 1832 1948 2060 1830 1714 1831 1946
8 1959 1847 1729 1843 2063 1949 1833 1950
8 1952 1843 1725 1836 2064 1950 1834 1951
8 1836 1725 1843 1952 1953 1842 1958 2066
8 1953 1842 1957 2067 1839 1724 1841 1955
8 1841 1955 1838 1723 1956 2068 1954 1840
8 2068 1956 1859 1967 1954 1840 1743 1852
8 1956 1844 1960 2069 1859 1747 1862 1973
8 1845 1957 1841 1727 1960 2069 1956 1844
8 1728 1842 1957 1845 1846 1958 2071 1961
8 1962 2072 1959 1847 1846 1958 1843 1729
8 1971 1861 1964 2077 1857 1746 1848 1965
8 1854 1741 1857 1969 1966 1849 1965 2078
8 1967 1859 1973 2079 1853 1745 1860 1968
8 1970 1858 1744 1856 2080 1972 1860 1968
8 1969 1857 1742 1855 2081 1971 1858 1970
8 1971 1861 1749 1858 2082 1974 1863 1972
8 1973 1862 1975 2083 1860 1748 1863 1972
8 1987 1882 1976 2086 1875 1768 1864 1977
8 1981 1875 1977 2087 1869 1761 1865 1978
8 1980 1877 1763 1868 2088 1986 1874 1979
8 1887 1775 1888 1997 1979 1874 1986 2088
8 1880 1982 2089 1989 1766 1870 1980 1877
8 1984 1876 1987 2090 1872 1762 1875 1981
8 1765 1871 1983 1879 1880 1982 2091 1991
8 1985 1878 1764 1873 2092 1990 1879 1983
8 1985 1878 1988 2093 1873 1764 1876 1984
8 2094 1992 1881 1986 1998 1889 1776 1888
8 1986 1881 1992 2094 1877 1773 1886 1989
8 1988 1883 1993 2095 1876 1769 1882 1987
8 1878 1770 1884 1990 1988 1883 1994 2096
8 1991 1885 1772 1880 2097 1996 1886 1989
8 1879 1771 1885 1991 1990 1884 1995 2098
8 2103 1998 1888 1997 2000 1891 1779 1890
8 2104 1999 1889 1998 2001 1892 1780 1891
8 2003 1894 2001 2106 1893 1782 1891 2000
8 2004 1895 2002 2107 1894 1783 1892 2001
8 2006 1897 2004 2109 1896 1785 1894 2003
8 2007 1898 2005 2110 1897 1786 1895 2004
8 2014 1901 2007 2112 1904 1789 1897 2006
8 2011 1899 2008 2113 1901 1787 1898 2007
8 2119 2010 1899 2011 2013 1900 1787 1901
8 2016 1902 2012 2122 1903 1788 1900 2013
8 2017 1903 2013 2123 1904 1789 1901 2014
8 1906 1791 1905 2019 2016 1902 2015 2125
8 1907 1792 1906 2020 2017 1903 2016 2126
8 1909 1793 1908 2022 2019 1905 2018 2128
8 2020 1906 1794 1910 2129 2019 1909 2023
8 1912 1796 1911 2025 2022 1908 2021 2131
8 1913 1797 1912 2026 2023 1909 2022 2132
8 1915 1799 1914 2028 2025 1911 2024 2134
8 1916 1800 1915 2029 2026 1912 2025 2135
8 1918 1804 1919 2031 2028 1914 2027 2136
8 1917 1803 1918 2030 2029 1915 2028 2137
8 1920 1806 1921 2032 2030 1918 2031 2138
8 1940 1827 1941 2054 2035 1923 2033 2140
8 2035 1923 2034 2143 1939 1826 1924 2037
8 2037 1924 2036 2146 1926 1811 1925 2039
8 2051 1939 2037 2147 1944 1829 1926 2040
8 2039 1925 2038 2149 1928 1812 1927 2042
8 2040 1926 2039 2150 1929 1813 1928 2043
8 2042 1927 2041 2151 1931 1814 1930 2044
8 2043 1928 2042 2152 1932 1815 1931 2045
8 2045 1931 2044 2153 1934 1818 1933 2046
8 2155 2047 1936 2048 2086 1976 1864 1977
8 2063 1949 1833 1950 2155 2047 1936 2048
8 2156 2048 1937 2049 2087 1977 1865 1978
8 2064 1950 1834 1951 2156 2048 1937 2049
8 2051 1939 1829 1944 2160 2053 1946 2058
8 2052 1940 2035 2144 2160 2053 1939 2051
8 2053 1942 1831 1946 2163 2057 1948 2060
8 2055 1943 1827 1940 2163 2057 1942 2053
8 2055 1943 2056 2164 1940 1827 1941 2054
8 2059 1947 1849 1966 2167 2060 1965 2078
8 2059 1947 2060 2167 1945 1830 1946 2058
8 2077 1964 2061 2168 1965 1848 1948 2060
8 2070 1963 1847 1959 2170 2062 1949 2063
8 2065 1959 1843 1952 2171 2063 1950 2064
8 2173 2072 1958 2066 2065 1959 1843 1952
8 1953 1842 1958 2066 2067 1957 2071 2174
8 2068 1956 2069 2175 1967 1859 1973 2079
8 2067 1957 2069 2175 1955 1841 1956 2068
8 1845 1957 2069 1960 1961 2071 2176 2073
8 2069 1960 2073 2176 1973 1862 1975 2083
8 2070 1963 2075 2177 1959 1847 1962 2072
8 1846 1958 2071 1961 1962 2072 2178 2074
8 2077 1964 1861 1971 2182 2076 1974 2082
8 2081 1971 2077 2183 1969 1857 1965 2078
8 2079 1973 2083 2184 1968 1860 1972 2080
8 2081 1971 1858 1970 2185 2082 1972 2080
8 2083 1975 2084 2186 1972 1863 1974 2082
8 2086 1976 1882 1987 2189 2085 1993 2095
8 2090 1987 2086 2190 1981 1875 1977 2087
8 2191 2094 1986 2088 2103 1998 1888 1997
8 2088 1986 2094 2191 1980 1877 1989 2089
8 1991 2091 2192 2097 1880 1982 2089 1989
8 2093 1988 2095 2193 1984 1876 1987 2090
8 1879 1983 2092 1990 1991 2091 2194 2098
8 1985 1878 1990 2092 2093 1988 2096 2195
8 2097 1996 1886 1989 2196 2099 1992 2094
8 2196 2099 1992 2094 2104 1999 1889 1998
8 1994 2096 1988 1883 2100 2197 2095 1993
8 2096 1994 1884 1990 2198 2101 1995 2098
8 1995 2098 2199 2102 1885 1991 2097 1996
8 2203 2104 1998 2103 2106 2001 1891 2000
8 2107 2002 2105 2204 2001 1892 1999 2104
8 2109 2004 2107 2206 2003 1894 2001 2106
8 2110 2005 2108 2207 2004 1895 2002 2107
8 2112 2007 2110 2209 2006 1897 2004 2109
8 2113 2008 2111 2210 2007 1898 2005 2110
8 2120 2011 2113 2212 2014 1901 2007 2112
8 2117 2009 2114 2213 2011 1899 2008 2113
8 2219 2116 2009 2117 2119 2010 1899 2011
8 2222 2118 2010 2119 2122 2012 1900 2013
8 2223 2119 2011 2120 2123 2013 1901 2014
8 2016 1902 2015 2125 2122 2012 2121 2225
8 2126 2016 2122 2226 2017 1903 2013 2123
8 2019 1905 2018 2128 2125 2015 2124 2228
8 2020 1906 2019 2129 2126 2016 2125 2229
8 2022 1908 2021 2131 2128 2018 2127 2231
8 2023 1909 2022 2132 2129 2019 2128 2232
8 2025 1911 2024 2134 2131 2021 2130 2234
8 2026 1912 2025 2135 2132 2022 2131 2235
8 1914 2028 2134 2024 2027 2136 2236 2133
8 2029 1915 2028 2137 2135 2025 2134 2237
8 2030 1918 2031 2138 2137 2028 2136 2238
8 2157 2050 2139 2240 2054 1941 2033 2140
8 2052 1940 2054 2161 2144 2035 2140 2242
8 2140 2033 2141 2243 2035 1923 2034 2143
8 2143 2034 2142 2246 2037 1924 2036 2146
8 2144 2035 2143 2247 2051 1939 2037 2147
8 2146 2036 2145 2249 2039 1925 2038 2149
8 2147 2037 2146 2250 2040 1926 2039 2150
8 2149 2038 2148 2251 2042 1927 2041 2151
8 2150 2039 2149 2252 2043 1928 2042 2152
8 2152 2042 2151 2253 2045 1931 2044 2153
8 2255 2154 2047 2155 2189 2085 1976 2086
8 2170 2062 1949 2063 2255 2154 2047 2155
8 2256 2155 2048 2156 2190 2086 1977 2087
8 2171 2063 1950 2064 2256 2155 2048 2156
8 2258 2159 2050 2157 2164 2056 1941 2054
8 2160 2053 1946 2058 2262 2163 2060 2167
8 2162 2055 1940 2052 2262 2163 2053 2160
8 2162 2055 2164 2263 2052 1940 2054 2161
8 2163 2057 1948 2060 2264 2165 2061 2168
8 2055 1943 2057 2163 2164 2056 2165 2264
8 2182 2076 2166 2268 2077 1964 2061 2168
8 2183 2077 2168 2269 2078 1965 2060 2167
8 2070 1963 2062 2170 2177 2075 2169 2271
8 2172 2070 1959 2065 2272 2170 2063 2171
8 2172 2070 2177 2273 2065 1959 2072 2173
8 2066 1958 2072 2173 2174 2071 2178 2274
8 2067 1957 2071 2174 2175 2069 2176 2275
8 2175 2069 2176 2275 2079 1973 2083 2184
8 2071 1961 2074 2178 2176 2073 2179 2276
8 2176 2073 2179 2276 2083 1975 2084 2186
8 2072 1962 2075 2177 2178 2074 2180 2277
8 2182 2076 1974 2082 2280 2181 2084 2186
8 2183 2077 1971 2081 2281 2182 2082 2185
8 2184 2083 2186 2282 2080 1972 2082 2185
8 2189 2085 1993 2095 2285 2188 2100 2197
8 2190 2086 1987 2090 2286 2189 2095 2193
8 2192 2097 1989 2089 2287 2196 2094 2191
8 2287 2196 2094 2191 2203 2104 1998 2103
8 2194 2098 1991 2091 2288 2199 2097 2192
8 2195 2096 2197 2289 2093 1988 2095 2193
8 2096 2195 2290 2198 1990 2092 2194 2098
8 2097 1996 2099 2196 2199 2102 2200 2291
8 2196 2099 1999 2104 2291 2200 2105 2204
8 2100 2197 2292 2201 1994 2096 2198 2101
8 1995 2098 2198 2101 2102 2199 2293 2202
8 2206 2107 2204 2296 2106 2001 2104 2203
8 2207 2108 2205 2297 2107 2002 2105 2204
8 2209 2110 2207 2299 2109 2004 2107 2206
8 2210 2111 2208 2300 2110 2005 2108 2207
8 2212 2113 2210 2302 2112 2007 2110 2209
8 2213 2114 2211 2303 2113 2008 2111 2210
8 2220 2117 2213 2305 2120 2011 2113 2212
8 2216 2115 2214 2306 2117 2009 2114 2213
8 2216 2115 2009 2117 2311 2217 2116 2219
8 2219 2116 2010 2119 2314 2218 2118 2222
8 2315 2219 2117 2220 2223 2119 2011 2120
8 2122 2012 2121 2225 2222 2118 2221 2317
8 2318 2222 2119 2223 2226 2122 2013 2123
8 2125 2015 2124 2228 2225 2121 2224 2320
8 2126 2016 2125 2229 2226 2122 2225 2321
8 2128 2018 2127 2231 2228 2124 2227 2323
8 2129 2019 2128 2232 2229 2125 2228 2324
8 2131 2021 2130 2234 2231 2127 2230 2326
8 2132 2022 2131 2235 2232 2128 2231 2327
8 2134 2024 2133 2236 2234 2130 2233 2328
8 2135 2025 2134 2237 2235 2131 2234 2329
8 2137 2028 2136 2238 2237 2134 2236 2330
8 2157 2050 2158 2259 2240 2139 2239 2332
8 2257 2157 2240 2334 2161 2054 2140 2242
8 2240 2139 2241 2335 2140 2033 2141 2243
8 2242 2140 2243 2337 2144 2035 2143 2247
8 2243 2141 2244 2338 2143 2034 2142 2246
8 2246 2142 2245 2341 2146 2036 2145 2249
8 2247 2143 2246 2342 2147 2037 2146 2250
8 2249 2145 2248 2343 2149 2038 2148 2251
8 2250 2146 2249 2344 2150 2039 2149 2252
8 2252 2149 2251 2345 2152 2042 2151 2253
8 2169 2271 2347 2254 2062 2170 2255 2154
8 2189 2085 2188 2285 2255 2154 2254 2347
8 2348 2255 2155 2256 2286 2189 2086 2190
8 2272 2170 2063 2171 2348 2255 2155 2256
8 2349 2258 2157 2257 2263 2164 2054 2161
8 2258 2159 2261 2351 2157 2050 2158 2259
8 2258 2159 2056 2164 2351 2261 2165 2264
8 2262 2163 2060 2167 2355 2264 2168 2269
8 2162 2055 2163 2262 2263 2164 2264 2355
8 2357 2266 2165 2264 2268 2166 2061 2168
8 2268 2166 2076 2182 2361 2267 2181 2280
8 2281 2182 2268 2362 2183 2077 2168 2269
8 2271 2169 2270 2364 2177 2075 2180 2277
8 2172 2070 2170 2272 2273 2177 2271 2365
8 2072 2173 2274 2178 2177 2273 2366 2277
8 2071 2174 2275 2176 2178 2274 2367 2276
8 2275 2176 2276 2367 2184 2083 2186 2282
8 2283 2187 2084 2186 2368 2278 2179 2276
8 2178 2074 2180 2277 2276 2179 2278 2368
8 2283 2187 2279 2370 2186 2084 2181 2280
8 2281 2182 2082 2185 2371 2280 2186 2282
8 2188 2285 2374 2284 2100 2197 2292 2201
8 2286 2189 2095 2193 2375 2285 2197 2289
8 2192 2097 2196 2287 2288 2199 2291 2376
8 2287 2196 2104 2203 2376 2291 2204 2296
8 2194 2098 2199 2288 2290 2198 2293 2377
8 2289 2197 2096 2195 2378 2292 2198 2290
8 2291 2200 2105 2204 2379 2294 2205 2297
8 2199 2102 2200 2291 2293 2202 2294 2379
8 2198 2101 2202 2293 2292 2201 2295 2380
8 2299 2207 2297 2383 2206 2107 2204 2296
8 2300 2208 2298 2384 2207 2108 2205 2297
8 2302 2210 2300 2386 2209 2110 2207 2299
8 2303 2211 2301 2387 2210 2111 2208 2300
8 2305 2213 2303 2389 2212 2113 2210 2302
8 2306 2214 2304 2390 2213 2114 2211 2303
8 2310 2216 2306 2392 2220 2117 2213 2305
8 2308 2215 2307 2393 2216 2115 2214 2306
8 2308 2215 2115 2216 2396 2309 2217 2311
8 2310 2216 2117 2220 2398 2311 2219 2315
8 2311 2217 2116 2219 2399 2312 2218 2314
8 2314 2218 2118 2222 2402 2313 2221 2317
8 2315 2219 2119 2223 2403 2314 2222 2318
8 2225 2121 2224 2320 2317 2221 2316 2405
8 2226 2122 2225 2321 2318 2222 2317 2406
8 2228 2124 2227 2323 2320 2224 2319 2408
8 2229 2125 2228 2324 2321 2225 2320 2409
8 2231 2127 2230 2326 2323 2227 2322 2411
8 2232 2128 2231 2327 2324 2228 2323 2412
8 2234 2130 2233 2328 2326 2230 2325 2413
8 2235 2131 2234 2329 2327 2231 2326 2414
8 2237 2134 2236 2330 2329 2234 2328 2415
8 2259 2158 2260 2352 2332 2239 2331 2417
8 2257 2157 2259 2350 2334 2240 2332 2419
8 2240 2139 2239 2332 2335 2241 2333 2420
8 2334 2240 2335 2422 2242 2140 2243 2337
8 2335 2241 2336 2423 2243 2141 2244 2338
8 2337 2243 2338 2425 2247 2143 2246 2342
8 2338 2244 2339 2426 2246 2142 2245 2341
8 2341 2245 2340 2428 2249 2145 2248 2343
8 2342 2246 2341 2429 2250 2146 2249 2344
8 2344 2249 2343 2430 2252 2149 2251 2345
8 2188 2285 2347 2254 2284 2374 2432 2346
8 2347 2254 2346 2432 2271 2169 2270 2364
8 2365 2271 2170 2272 2433 2347 2255 2348
8 2286 2189 2285 2375 2348 2255 2347 2433
8 2349 2258 2351 2435 2257 2157 2259 2350
8 2349 2258 2164 2263 2435 2351 2264 2355
8 2259 2158 2261 2351 2352 2260 2354 2437
8 2356 2265 2354 2437 2264 2165 2261 2351
8 2441 2357 2264 2355 2362 2268 2168 2269
8 2356 2265 2165 2264 2442 2358 2266 2357
8 2443 2359 2266 2357 2361 2267 2166 2268
8 2370 2279 2360 2446 2280 2181 2267 2361
8 2362 2268 2182 2281 2447 2361 2280 2371
8 2180 2277 2368 2278 2270 2364 2449 2363
8 2271 2365 2273 2177 2364 2450 2366 2277
8 2372 2283 2186 2282 2451 2368 2276 2367
8 2178 2274 2367 2276 2277 2366 2451 2368
8 2283 2187 2278 2368 2370 2279 2369 2452
8 2372 2283 2370 2453 2282 2186 2280 2371
8 2284 2374 2455 2373 2201 2292 2380 2295
8 2375 2285 2197 2289 2456 2374 2292 2378
8 2376 2291 2204 2296 2457 2379 2297 2383
8 2288 2199 2291 2376 2377 2293 2379 2457
8 2198 2290 2378 2292 2293 2377 2458 2380
8 2293 2202 2294 2379 2380 2295 2381 2459
8 2384 2298 2381 2459 2297 2205 2294 2379
8 2386 2300 2384 2463 2299 2207 2297 2383
8 2387 2301 2385 2464 2300 2208 2298 2384
8 2389 2303 2387 2466 2302 2210 2300 2386
8 2390 2304 2388 2467 2303 2211 2301 2387
8 2392 2306 2390 2469 2305 2213 2303 2389
8 2393 2307 2391 2470 2306 2214 2304 2390
8 2395 2308 2393 2472 2310 2216 2306 2392
8 2308 2215 2309 2396 2393 2307 2394 2473
8 2395 2308 2216 2310 2475 2396 2311 2398
8 2396 2309 2217 2311 2476 2397 2312 2399
8 2398 2311 2219 2315 2478 2399 2314 2403
8 2399 2312 2218 2314 2479 2400 2313 2402
8 2317 2221 2316 2405 2402 2313 2401 2482
8 2403 2314 2222 2318 2483 2402 2317 2406
8 2320 2224 2319 2408 2405 2316 2404 2485
8 2321 2225 2320 2409 2406 2317 2405 2486
8 2323 2227 2322 2411 2408 2319 2407 2488
8 2324 2228 2323 2412 2409 2320 2408 2489
8 2326 2230 2325 2413 2411 2322 2410 2490
8 2327 2231 2326 2414 2412 2323 2411 2491
8 2329 2234 2328 2415 2414 2326 2413 2492
8 2417 2331 2260 2352 2494 2416 2353 2438
8 2350 2259 2352 2436 2419 2332 2417 2496
8 2332 2239 2331 2417 2420 2333 2418 2497
8 2334 2240 2332 2419 2422 2335 2420 2499
8 2420 2333 2421 2500 2335 2241 2336 2423
8 2422 2335 2423 2502 2337 2243 2338 2425
8 2423 2336 2424 2503 2338 2244 2339 2426
8 2425 2338 2426 2505 2342 2246 2341 2429
8 2426 2339 2427 2506 2341 2245 2340 2428
8 2429 2341 2428 2507 2344 2249 2343 2430
8 2432 2346 2284 2374 2509 2431 2373 2455
8 2432 2346 2431 2509 2364 2270 2363 2449
8 2375 2285 2374 2456 2433 2347 2432 2510
8 2347 2433 2365 2271 2432 2510 2450 2364
8 2350 2259 2351 2435 2436 2352 2437 2514
8 2440 2356 2437 2514 2355 2264 2351 2435
8 2352 2260 2354 2437 2438 2353 2439 2516
8 2356 2265 2358 2442 2437 2354 2439 2516
8 2440 2356 2264 2355 2518 2442 2357 2441
8 2519 2443 2357 2441 2447 2361 2268 2362
8 2443 2359 2444 2520 2357 2266 2358 2442
8 2443 2359 2267 2361 2520 2444 2360 2446
8 2446 2360 2279 2370 2523 2445 2369 2452
8 2453 2370 2446 2524 2371 2280 2361 2447
8 2449 2363 2448 2525 2368 2278 2369 2452
8 2366 2277 2364 2450 2451 2368 2449 2526
8 2372 2283 2368 2451 2453 2370 2452 2527
8 2455 2373 2295 2380 2529 2454 2382 2460
8 2456 2374 2292 2378 2530 2455 2380 2458
8 2377 2293 2379 2457 2458 2380 2459 2531
8 2463 2384 2459 2531 2383 2297 2379 2457
8 2533 2461 2382 2460 2459 2381 2295 2380
8 2464 2385 2461 2533 2384 2298 2381 2459
8 2466 2387 2464 2537 2386 2300 2384 2463
8 2467 2388 2465 2538 2387 2301 2385 2464
8 2469 2390 2467 2540 2389 2303 2387 2466
8 2470 2391 2468 2541 2390 2304 2388 2467
8 2472 2393 2470 2543 2392 2306 2390 2469
8 2393 2307 2394 2473 2470 2391 2471 2544
8 2395 2308 2396 2475 2472 2393 2473 2546
8 2396 2309 2397 2476 2473 2394 2474 2547
8 2475 2396 2311 2398 2549 2476 2399 2478
8 2476 2397 2312 2399 2550 2477 2400 2479
8 2478 2399 2314 2403 2552 2479 2402 2483
8 2479 2400 2313 2402 2553 2480 2401 2482
8 2405 2316 2404 2485 2482 2401 2481 2556
8 2406 2317 2405 2486 2483 2402 2482 2557
8 2408 2319 2407 2488 2485 2404 2484 2559
8 2409 2320 2408 2489 2486 2405 2485 2560
8 2411 2322 2410 2490 2488 2407 2487 2561
8 2412 2323 2411 2491 2489 2408 2488 2562
8 2414 2326 2413 2492 2491 2411 2490 2563
8 2513 2434 2493 2565 2438 2353 2416 2494
8 2496 2417 2352 2436 2567 2494 2438 2515
8 2494 2416 2495 2568 2417 2331 2418 2497
8 2419 2332 2417 2496 2499 2420 2497 2570
8 2497 2418 2498 2571 2420 2333 2421 2500
8 2499 2420 2500 2573 2422 2335 2423 2502
8 2500 2421 2501 2574 2423 2336 2424 2503
8 2502 2423 2503 2576 2425 2338 2426 2505
8 2503 2424 2504 2577 2426 2339 2427 2506
8 2505 2426 2506 2578 2429 2341 2428 2507
8 2509 2431 2373 2455 2580 2508 2454 2529
8 2509 2431 2508 2580 2449 2363 2448 2525
8 2432 2510 2581 2509 2374 2456 2530 2455
8 2432 2510 2450 2364 2509 2581 2526 2449
8 2583 2511 2434 2513 2516 2439 2353 2438
8 2436 2352 2437 2514 2515 2438 2516 2588
8 2440 2356 2442 2518 2514 2437 2516 2588
8 2442 2358 2444 2520 2516 2439 2517 2589
8 2519 2443 2520 2591 2441 2357 2442 2518
8 2519 2443 2361 2447 2591 2520 2446 2524
8 2446 2360 2445 2523 2520 2444 2521 2592
8 2525 2448 2522 2593 2452 2369 2445 2523
8 2524 2446 2370 2453 2594 2523 2452 2527
8 2526 2449 2525 2595 2451 2368 2452 2527
8 2534 2462 2528 2597 2460 2382 2454 2529
8 2530 2455 2380 2458 2598 2529 2460 2532
8 2599 2533 2460 2532 2531 2459 2380 2458
8 2537 2464 2533 2599 2463 2384 2459 2531
8 2534 2462 2382 2460 2601 2535 2461 2533
8 2538 2465 2535 2601 2464 2385 2461 2533
8 2540 2467 2538 2604 2466 2387 2464 2537
8 2541 2468 2539 2605 2467 2388 2465 2538
8 2543 2470 2541 2607 2469 2390 2467 2540
8 2470 2391 2471 2544 2541 2468 2542 2608
8 2472 2393 2473 2546 2543 2470 2544 2610
8 2473 2394 2474 2547 2544 2471 2545 2611
8 2475 2396 2476 2549 2546 2473 2547 2613
8 2476 2397 2477 2550 2547 2474 2548 2614
8 2549 2476 2399 2478 2616 2550 2479 2552
8 2479 2400 2480 2553 2550 2477 2551 2617
8 2552 2479 2402 2483 2619 2553 2482 2557
8 2482 2401 2481 2556 2553 2480 2554 2620
8 2485 2404 2484 2559 2556 2481 2555 2623
8 2486 2405 2485 2560 2557 2482 2556 2624
8 2488 2407 2487 2561 2559 2484 2558 2625
8 2489 2408 2488 2562 2560 2485 2559 2626
8 2491 2411 2490 2563 2562 2488 2561 2627
8 2513 2434 2512 2585 2565 2493 2564 2630
8 2586 2513 2565 2632 2515 2438 2494 2567
8 2565 2493 2566 2633 2494 2416 2495 2568
8 2567 2494 2568 2635 2496 2417 2497 2570
8 2568 2495 2569 2636 2497 2418 2498 2571
8 2570 2497 2571 2638 2499 2420 2500 2573
8 2571 2498 2572 2639 2500 2421 2501 2574
8 2573 2500 2574 2641 2502 2423 2503 2576
8 2574 2501 2575 2642 2503 2424 2504 2577
8 2576 2503 2577 2643 2505 2426 2506 2578
8 2597 2528 2579 2645 2529 2454 2508 2580
8 2580 2508 2579 2645 2525 2448 2522 2593
8 2581 2509 2455 2530 2646 2580 2529 2598
8 2581 2509 2580 2646 2526 2449 2525 2595
8 2583 2511 2582 2648 2513 2434 2512 2585
8 2583 2511 2439 2516 2648 2582 2517 2589
8 2649 2583 2513 2586 2588 2516 2438 2515
8 2589 2517 2444 2520 2653 2587 2521 2592
8 2518 2442 2520 2591 2588 2516 2589 2654
8 2593 2522 2590 2655 2523 2445 2521 2592
8 2524 2446 2523 2594 2591 2520 2592 2656
8 2595 2525 2593 2657 2527 2452 2523 2594
8 2602 2536 2596 2659 2534 2462 2528 2597
8 2600 2534 2597 2660 2532 2460 2529 2598
8 2600 2534 2460 2532 2661 2601 2533 2599
8 2604 2538 2601 2661 2537 2464 2533 2599
8 2602 2536 2462 2534 2663 2603 2535 2601
8 2601 2535 2465 2538 2663 2603 2539 2605
8 2607 2541 2605 2665 2540 2467 2538 2604
8 2608 2542 2606 2666 2541 2468 2539 2605
8 2543 2470 2544 2610 2607 2541 2608 2668
8 2544 2471 2545 2611 2608 2542 2609 2669
8 2546 2473 2547 2613 2610 2544 2611 2671
8 2547 2474 2548 2614 2611 2545 2612 2672
8 2549 2476 2550 2616 2613 2547 2614 2674
8 2550 2477 2551 2617 2614 2548 2615 2675
8 2552 2479 2553 2619 2616 2550 2617 2677
8 2553 2480 2554 2620 2617 2551 2618 2678
8 2557 2482 2556 2624 2619 2553 2620 2680
8 2556 2481 2555 2623 2620 2554 2621 2681
8 2559 2484 2558 2625 2623 2555 2622 2683
8 2560 2485 2559 2626 2624 2556 2623 2684
8 2562 2488 2561 2627 2626 2559 2625 2685
8 2690 2629 2564 2630 2650 2584 2512 2585
8 2586 2513 2585 2651 2632 2565 2630 2691
8 2630 2564 2631 2692 2565 2493 2566 2633
8 2632 2565 2633 2694 2567 2494 2568 2635
8 2633 2566 2634 2695 2568 2495 2569 2636
8 2635 2568 2636 2697 2570 2497 2571 2638
8 2636 2569 2637 2698 2571 2498 2572 2639
8 2638 2571 2639 2700 2573 2500 2574 2641
8 2639 2572 2640 2701 2574 2501 2575 2642
8 2641 2574 2642 2702 2576 2503 2577 2643
8 2597 2528 2596 2659 2645 2579 2644 2704
8 2645 2579 2644 2704 2593 2522 2590 2655
8 2660 2597 2645 2705 2598 2529 2580 2646
8 2646 2580 2645 2705 2595 2525 2593 2657
8 2650 2584 2512 2585 2707 2647 2582 2648
8 2648 2582 2517 2589 2707 2647 2587 2653
8 2649 2583 2648 2708 2586 2513 2585 2651
8 2649 2583 2516 2588 2708 2648 2589 2654
8 2655 2590 2652 2710 2592 2521 2587 2653
8 2654 2589 2520 2591 2711 2653 2592 2656
8 2657 2593 2655 2712 2594 2523 2592 2656
8 2602 2536 2603 2663 2659 2596 2658 2714
8 2662 2602 2659 2715 2600 2534 2597 2660
8 2662 2602 2534 2600 2717 2663 2601 2661
8 2661 2601 2538 2604 2717 2663 2605 2665
8 2666 2606 2664 2718 2605 2539 2603 2663
8 2668 2608 2666 2720 2607 2541 2605 2665
8 2608 2542 2609 2669 2666 2606 2667 2721
8 2610 2544 2611 2671 2668 2608 2669 2723
8 2611 2545 2612 2672 2669 2609 2670 2724
8 2613 2547 2614 2674 2671 2611 2672 2726
8 2614 2548 2615 2675 2672 2612 2673 2727
8 2616 2550 2617 2677 2674 2614 2675 2729
8 2617 2551 2618 2678 2675 2615 2676 2730
8 2619 2553 2620 2680 2677 2617 2678 2732
8 2620 2554 2621 2681 2678 2618 2679 2733
8 2624 2556 2623 2684 2680 2620 2681 2735
8 2681 2621 2555 2623 2736 2682 2622 2683
8 2626 2559 2625 2685 2684 2623 2683 2737
8 2688 2628 2584 2650 2740 2686 2647 2707
8 2688 2628 2687 2742 2650 2584 2629 2690
8 2690 2629 2689 2745 2630 2564 2631 2692
8 2746 2690 2630 2691 2709 2650 2585 2651
8 2691 2630 2692 2747 2632 2565 2633 2694
8 2692 2631 2693 2748 2633 2566 2634 2695
8 2694 2633 2695 2750 2635 2568 2636 2697
8 2695 2634 2696 2751 2636 2569 2637 2698
8 2697 2636 2698 2753 2638 2571 2639 2700
8 2698 2637 2699 2754 2639 2572 2640 2701
8 2700 2639 2701 2755 2641 2574 2642 2702
8 2659 2596 2658 2714 2704 2644 2703 2757
8 2704 2644 2703 2757 2655 2590 2652 2710
8 2660 2597 2659 2715 2705 2645 2704 2758
8 2705 2645 2704 2758 2657 2593 2655 2712
8 2759 2706 2647 2707 2710 2652 2587 2653
8 2709 2650 2585 2651 2760 2707 2648 2708
8 2708 2648 2589 2654 2760 2707 2653 2711
8 2712 2655 2710 2761 2656 2592 2653 2711
8 2763 2713 2658 2714 2718 2664 2603 2663
8 2662 2602 2663 2717 2715 2659 2714 2764
8 2720 2666 2718 2767 2665 2605 2663 2717
8 2768 2719 2664 2718 2721 2667 2606 2666
8 2668 2608 2669 2723 2720 2666 2721 2770
8 2669 2609 2670 2724 2721 2667 2722 2771
8 2671 2611 2672 2726 2723 2669 2724 2773
8 2672 2612 2673 2727 2724 2670 2725 2774
8 2674 2614 2675 2729 2726 2672 2727 2776
8 2675 2615 2676 2730 2727 2673 2728 2777
8 2677 2617 2678 2732 2729 2675 2730 2779
8 2678 2618 2679 2733 2730 2676 2731 2780
8 2680 2620 2681 2735 2732 2678 2733 2782
8 2733 2679 2621 2681 2783 2734 2682 2736
8 2735 2681 2623 2684 2784 2736 2683 2737
8 2740 2686 2647 2707 2787 2738 2706 2759
8 2688 2628 2686 2740 2742 2687 2739 2789
8 2743 2688 2650 2709 2790 2740 2707 2760
8 2742 2687 2741 2792 2690 2629 2689 2745
8 2743 2688 2742 2793 2709 2650 2690 2746
8 2745 2689 2744 2795 2692 2631 2693 2748
8 2746 2690 2745 2796 2691 2630 2692 2747
8 2747 2692 2748 2797 2694 2633 2695 2750
8 2748 2693 2749 2798 2695 2634 2696 2751
8 2750 2695 2751 2800 2697 2636 2698 2753
8 2751 2696 2752 2801 2698 2637 2699 2754
8 2753 2698 2754 2802 2700 2639 2701 2755
8 2763 2713 2756 2804 2714 2658 2703 2757
8 2759 2706 2652 2710 2804 2756 2703 2757
8 2715 2659 2714 2764 2758 2704 2757 2805
8 2758 2704 2757 2805 2712 2655 2710 2761
8 2806 2759 2707 2760 2761 2710 2653 2711
8 2765 2716 2762 2808 2718 2664 2713 2763
8 2809 2763 2714 2764 2767 2718 2663 2717
8 2765 2716 2664 2718 2811 2766 2719 2768
8 2813 2768 2718 2767 2770 2721 2666 2720
8 2814 2769 2719 2768 2771 2722 2667 2721
8 2723 2669 2724 2773 2770 2721 2771 2816
8 2724 2670 2725 2774 2771 2722 2772 2817
8 2726 2672 2727 2776 2773 2724 2774 2819
8 2727 2673 2728 2777 2774 2725 2775 2820
8 2729 2675 2730 2779 2776 2727 2777 2822
8 2730 2676 2731 2780 2777 2728 2778 2823
8 2732 2678 2733 2782 2779 2730 2780 2825
8 2780 2731 2679 2733 2826 2781 2734 2783
8 2782 2733 2681 2735 2827 2783 2736 2784
8 2830 2785 2738 2787 2804 2756 2706 2759
8 2789 2739 2686 2740 2832 2786 2738 2787
8 2790 2740 2707 2760 2833 2787 2759 2806
8 2742 2687 2739 2789 2792 2741 2788 2835
8 2743 2688 2740 2790 2793 2742 2789 2836
8 2792 2741 2791 2838 2745 2689 2744 2795
8 2793 2742 2792 2839 2746 2690 2745 2796
8 2795 2744 2794 2841 2748 2693 2749 2798
8 2796 2745 2795 2842 2747 2692 2748 2797
8 2797 2748 2798 2843 2750 2695 2751 2800
8 2798 2749 2799 2844 2751 2696 2752 2801
8 2800 2751 2801 2845 2753 2698 2754 2802
8 2808 2762 2803 2847 2763 2713 2756 2804
8 2809 2763 2804 2848 2764 2714 2757 2805
8 2806 2759 2710 2761 2848 2804 2757 2805
8 2765 2716 2766 2811 2808 2762 2807 2850
8 2810 2765 2808 2851 2767 2718 2763 2809
8 2810 2765 2718 2767 2852 2811 2768 2813
8 2811 2766 2719 2768 2853 2812 2769 2814
8 2855 2814 2768 2813 2816 2771 2721 2770
8 2856 2815 2769 2814 2817 2772 2722 2771
8 2773 2724 2774 2819 2816 2771 2817 2858
8 2774 2725 2775 2820 2817 2772 2818 2859
8 2776 2727 2777 2822 2819 2774 2820 2861
8 2777 2728 2778 2823 2820 2775 2821 2862
8 2779 2730 2780 2825 2822 2777 2823 2864
8 2823 2778 2731 2780 2865 2824 2781 2826
8 2825 2780 2733 2782 2866 2826 2783 2827
8 2869 2828 2785 2830 2847 2803 2756 2804
8 2871 2829 2786 2832 2830 2785 2738 2787
8 2872 2830 2787 2833 2848 2804 2759 2806
8 2789 2739 2786 2832 2835 2788 2831 2874
8 2836 2789 2740 2790 2875 2832 2787 2833
8 2792 2741 2788 2835 2838 2791 2834 2877
8 2793 2742 2789 2836 2839 2792 2835 2878
8 2838 2791 2837 2880 2795 2744 2794 2841
8 2839 2792 2838 2881 2796 2745 2795 2842
8 2841 2794 2840 2882 2798 2749 2799 2844
8 2842 2795 2841 2883 2797 2748 2798 2843
8 2843 2798 2844 2884 2800 2751 2801 2845
8 2886 2846 2803 2847 2850 2807 2762 2808
8 2851 2808 2847 2887 2809 2763 2804 2848
8 2850 2807 2766 2811 2889 2849 2812 2853
8 2810 2765 2811 2852 2851 2808 2850 2890
8 2852 2811 2768 2813 2891 2853 2814 2855
8 2853 2812 2769 2814 2892 2854 2815 2856
8 2894 2856 2814 2855 2858 2817 2771 2816
8 2817 2772 2818 2859 2856 2815 2857 2895
8 2819 2774 2820 2861 2858 2817 2859 2897
8 2820 2775 2821 2862 2859 2818 2860 2898
8 2822 2777 2823 2864 2861 2820 2862 2900
8 2823 2778 2824 2865 2862 2821 2863 2901
8 2864 2823 2780 2825 2902 2865 2826 2866
8 2904 2867 2828 2869 2886 2846 2803 2847
8 2869 2828 2868 2906 2830 2785 2829 2871
8 2907 2869 2830 2872 2887 2847 2804 2848
8 2871 2829 2870 2909 2832 2786 2831 2874
8 2910 2871 2832 2875 2872 2830 2787 2833
8 2835 2788 2831 2874 2877 2834 2873 2912
8 2836 2789 2832 2875 2878 2835 2874 2913
8 2877 2834 2876 2915 2838 2791 2837 2880
8 2839 2792 2835 2878 2881 2838 2877 2916
8 2880 2837 2879 2917 2841 2794 2840 2882
8 2881 2838 2880 2918 2842 2795 2841 2883
8 2883 2841 2882 2919 2843 2798 2844 2884
8 2921 2885 2846 2886 2889 2849 2807 2850
8 2922 2886 2847 2887 2890 2850 2808 2851
8 2889 2849 2812 2853 2924 2888 2854 2892
8 2890 2850 2811 2852 2925 2889 2853 2891
8 2891 2853 2814 2855 2926 2892 2856 2894
8 2892 2854 2815 2856 2927 2893 2857 2895
8 2858 2817 2859 2897 2894 2856 2895 2929
8 2859 2818 2860 2898 2895 2857 2896 2930
8 2861 2820 2862 2900 2897 2859 2898 2932
8 2862 2821 2863 2901 2898 2860 2899 2933
8 2864 2823 2865 2902 2900 2862 2901 2934
8 2904 2867 2846 2886 2936 2903 2885 2921
8 2904 2867 2903 2936 2869 2828 2868 2906
8 2937 2904 2869 2907 2922 2886 2847 2887
8 2906 2868 2905 2939 2871 2829 2870 2909
8 2907 2869 2906 2940 2872 2830 2871 2910
8 2909 2870 2908 2942 2874 2831 2873 2912
8 2910 2871 2909 2943 2875 2832 2874 2913
8 2912 2873 2911 2945 2877 2834 2876 2915
8 2878 2835 2874 2913 2916 2877 2912 2946
8 2915 2876 2914 2947 2880 2837 2879 2917
8 2916 2877 2915 2948 2881 2838 2880 2918
8 2918 2880 2917 2949 2883 2841 2882 2919
8 2921 2885 2849 2889 2951 2920 2888 2924
8 2952 2921 2886 2922 2925 2889 2850 2890
8 2924 2888 2854 2892 2954 2923 2893 2927
8 2925 2889 2853 2891 2955 2924 2892 2926
8 2926 2892 2856 2894 2956 2927 2895 2929
8 2895 2857 2896 2930 2927 2893 2928 2957
8 2897 2859 2898 2932 2929 2895 2930 2959
8 2898 2860 2899 2933 2930 2896 2931 2960
8 2900 2862 2901 2934 2932 2898 2933 2961
8 2936 2903 2885 2921 2963 2935 2920 2951
8 2936 2903 2935 2963 2906 2868 2905 2939
8 2937 2904 2886 2922 2964 2936 2921 2952
8 2937 2904 2936 2964 2907 2869 2906 2940
8 2939 2905 2938 2966 2909 2870 2908 2942
8 2940 2906 2939 2967 2910 2871 2909 2943
8 2942 2908 2941 2969 2912 2873 2911 2945
8 2943 2909 2942 2970 2913 2874 2912 2946
8 2945 2911 2944 2971 2915 2876 2914 2947
8 2946 2912 2945 2972 2916 2877 2915 2948
8 2948 2915 2947 2973 2918 2880 2917 2949
8 2951 2920 2888 2924 2975 2950 2923 2954
8 2952 2921 2889 2925 2976 2951 2924 2955
8 2927 2893 2928 2957 2954 2923 2953 2978
8 2955 2924 2892 2926 2979 2954 2927 2956
8 2929 2895 2930 2959 2956 2927 2957 2980
8 2930 2896 2931 2960 2957 2928 2958 2981
8 2932 2898 2933 2961 2959 2930 2960 2982
8 2951 2920 2950 2975 2963 2935 2962 2984
8 2963 2935 2962 2984 2939 2905 2938 2966
8 2964 2936 2921 2952 2985 2963 2951 2976
8 2964 2936 2963 2985 2940 2906 2939 2967
8 2966 2938 2965 2987 2942 2908 2941 2969
8 2967 2939 2966 2988 2943 2909 2942 2970
8 2969 2941 2968 2989 2945 2911 2944 2971
8 2970 2942 2969 2990 2946 2912 2945 2972
8 2972 2945 2971 2991 2948 2915 2947 2973
8 2954 2923 2953 2978 2975 2950 2974 2993
8 2976 2951 2924 2955 2994 2975 2954 2979
8 2957 2928 2958 2981 2978 2953 2977 2995
8 2956 2927 2957 2980 2979 2954 2978 2996
8 2959 2930 2960 2982 2980 2957 2981 2997
8 2984 2962 2983 2999 2966 2938 2965 2987
8 2975 2950 2974 2993 2984 2962 2983 2999
8 2976 2951 2975 2994 2985 2963 2984 3000
8 2985 2963 2984 3000 2967 2939 2966 2988
8 2987 2965 2986 3001 2969 2941 2968 2989
8 2988 2966 2987 3002 2970 2942 2969 2990
8 2990 2969 2989 3003 2972 2945 2971 2991
8 2978 2953 2977 2995 2993 2974 2992 3004
8 2979 2954 2978 2996 2994 2975 2993 3005
8 2980 2957 2981 2997 2996 2978 2995 3006
8 2974 2993 2999 2983 2992 3004 3007 2998
8 2983 2999 2987 2965 2998 3007 3001 2986
8 3000 2984 2999 3008 2988 2966 2987 3002
8 2994 2975 2993 3005 3000 2984 2999 3008
8 3002 2987 3001 3009 2990 2969 2989 3003
8 2996 2978 2995 3006 3005 2993 3004 3010
8 3005 2993 3004 3010 3008 2999 3007 3011
8 3008 2999 3007 3011 3002 2987 3001 3009

CELL_TYPES 1910
12
12
12
12
12
12
12
12
12
12
12
12
12
12
12
12
12
12
12
12
12
12
12
12
12
12
12
12
12
12
12
12
12
12
12
12
12
12
12
12
12
12
12
12
12
12
12
12
12
12
12
12
12
12
12
12
12
12
12
12
12
12
12
12
12
12
12
12
12
12
12
12
12
12
12
12
12
12
12
12
12
12
12
12
12
12
12
12
12
12
12
12
12
12
12
12
12
12
12
12
12
12
12
12
12
12
12
12
12
12
12
12
12
12
12
12
12
12
12
12
12
12
12
12
12
12
12
12
12
12
12
12
12
12
12
12
12
12
12
12
12
12
12
12
12
12
12
12
12
12
12
12
12
12
12
12
12
12
12
12
12
12
12
12
12
12
12
12
12
12
12
12
12
12
12
12
12
12
12
12
12
12
12
12
12
12
12
12
12
12
12
12
12
12
12
12
12
12
12
12
12
12
12
12
12
12
12
12
12
12
12
12
12
12
12
12
12
12
12
12
12
12
12
12
12
12
12
12
12
12
12
12
12
12
12
12
12
12
12
12
12
12
12
12
12
12
12
12
12
12
12
12
12
12
12
12
12
12
12
12
12
12
12
12
12
12
12
12
12
12
12
12
12
12
12
12
12
12
12
12
12
12
12
12
12
12
12
12
12
12
12
12
12
12
12
12
12
12
12
12
12
12
12
12
12
12
12
12
12
12
12
12
12
12
12
12
12
12
12
12
12
12
12
12
12
12
12
12
12
12
12
12
12
12
12
12
12
12
12
12
12
12
12
12
12
12
12
12
12
12
12
12
12
12
12
12
12
12
12
12
12
12
12
12
12
12
12
12
12
12
12
12
12
12
12
12
12
12
12
12
12
12
12
12
12
12
12
12
12
12
12
12
12
12
12
12
12
12
12
12
12
12
12
12
12
12
12
12
12
12
12
12
12
12
12
12
12
12
12
12
12
12
12
12
12
12
12
12
12
12
12
12
12
12
12
12
12
12
12
12
12
12
12
12
12
12
12
12
12
12
12
12
12
12
12
12
12
12
12
12
12
12
12
12
12
12
12
12
12
12
12
12
12
12
12
12
12
12
12
12
12
12
12
12
12
12
12
12
12
12
12
12
12
12
12
12
12
12
12
12
12
12
12
12
12
12
12
12
12
12
12
12
12
12
12
12
12
12
12
12
12
12
12
12
12
12
12
12
12
12
12
12
12
12
12
12
12
12
12
12
12
12
12
12
12
12
12
12
12
12
12
12
12
12
12
12
12
12
12
12
12
12
12
12
12
12
12
12
12
12
12
12
12
12
12
12
12
12
12
12
12
12
12
12
12
12
12
12
12
12
12
12
12
12
12
12
12
12
12
12
12
12
12
12
12
12
12
12
12
12
12
12
12
12
12
12
12
12
12
12
12
12
12
12
12
12
12
12
12
12
12
12
12
12
12
12
12
12
12
12
12
12
12
12
12
12
12
12
12
12
12
12
12
12
12
12
12
12
12
12
12
12
12
12
12
12
12
12
12
12
12
12
12
12
12
12
12
12
12
12
12
12
12
12
12
12
12
12
12
12
12
12
12
12
12
12
12
12
12
12
12
12
12
12
12
12
12
12
12
12
12
12
12
12
12
12
12
12
12
12
12
12
12
12
12
12
12
12
12
12
12
12
12
12
12
12
12
12
12
12
12
12
12
12
12
12
12
12
12
12
12
12
12
12
12
12
12
12
12
12
12
12
12
12
12
12
12
12
12
12
12
12
12
12
12
12
12
12
12
12
12
12
12
12
12
12
12
12
12
12
12
12
12
12
12
12
12
12
12
12
12
12
12
12
12
12
12
12
12
12
12
12
12
12
12
12
12
12
12
12
12
12
12
12
12
12
12
12
12
12
12
12
12
12
12
12
12
12
12
12
12
12
12
12
12
12
12
12
12
12
12
12
12
12
12
12
12
12
12
12
12
12
12
12
12
12
12
12
12
12
12
12
12
12
12
12
12
12
12
12
12
12
12
12
12
12
12
12
12
12
12
12
12
12
12
12
12
12
12
12
12
12
12
12
12
12
12
12
12
12
12
12
12
12
12
12
12
12
12
12
12
12
12
12
12
12
12
12
12
12
12
12
12
12
12
12
12
12
12
12
12
12
12
12
12
12
12
12
12
12
12
12
12
12
12
12
12
12
12
12
12
12
12
12
12
12
12
12
12
12
12
12
12
12
12
12
12
12
12
12
12
12
12
12
12
12
12
12
12
12
12
12
12
12
12
12
12
12
12
12
12
12
12
12
12
12
12
12
12
12
12
12
12
12
12
12
12
12
12
12
12
12
12
12
12
12
12
12
12
12
12
12
12
12
12
12
12
12
12
12
12
12
12
12
12
12
12
12
12
12
12
12
12
12
12
12
12
12
12
12
12
12
12
12
12
12
12
12
12
12
12
12
12
12
12
12
12
12
12
12
12
12
12
12
12
12
12
12
12
12
12
12
12
12
12
12
12
12
12
12
12
12
12
12
12
12
12
12
12
12
12
12
12
12
12
12
12
12
12
12
12
12
12
12
12
12
12
12
12
12
12
12
12
12
12
12
12
12
12
12
12
12
12
12
12
12
12
12
12
12
12
12
12
12
12
12
12
12
12
12
12
12
12
12
12
12
12
12
12
12
12
12
12
12
12
12
12
12
12
12
12
12
12
12
12
12
12
12
12
12
12
12
12
12
12
12
12
12
12
12
12
12
12
12
12
12
12
12
12
12
12
12
12
12
12
12
12
12
12
12
12
12
12
12
12
12
12
12
12
12
12
12
12
12
12
12
12
12
12
12
12
12
12
12
12
12
12
12
12
12
12
12
12
12
12
12
12
12
12
12
12
12
12
12
12
12
12
12
12
12
12
12
12
12
12
12
12
12
12
12
12
12
12
12
12
12
12
12
12
12
12
12
12
12
12
12
12
12
12
12
12
12
12
12
12
12
12
12
12
12
12
12
12
12
12
12
12
12
12
12
12
12
12
12
12
12
12
12
12
12
12
12
12
12
12
12
12
12
12
12
12
12
12
12
12
12
12
12
12
12
12
12
12
12
12
12
12
12
12
12
12
12
12
12
12
12
12
12
12
12
12
12
12
12
12
12
12
12
12
12
12
12
12
12
12
12
12
12
12
12
12
12
12
12
12
12
12
12
12
12
12
12
12
12
12
12
12
12
12
12
12
12
12
12
12
12
12
12
12
12
12
12
12
12
12
12
12
12
12
12
12
12
12
12
12
12
12
12
12
12
12
12
12
12
12
12
12
12
12
12
12
12
12
12
12
12
12
12
12
12
12
12
12
12
12
12
12
12
12
12
12
12
12
12
12
12
12
12
12
12
12
12
12
12
12
12
12
12
12
12
12
12
12
12
12
12
12
12
12
12
12
12
12
12
12
12
12
12
12
12
12
12
12
12
12
12
12
12
12
12
12
12
12
12
12
12
12
12
12
12
12
12
12
12
12
12
12
12
12
12
12
12
12
12
12
12
12
12
12
12
12
12
12
12
12
12
12
12
12
12
12
12
12
12
12
12
12
12
12
12
12
12
12
12
12
12
12
12
12
12
12
12
12
12
12
12
12
12
12
12
12
12
12
12
12
12
12
12
12
12
12
12
12
12
12
12
12
12
12
12
12
12
12
12
12
12
12
12
12
12
12
12
12
12
12
12
12
12
12
12
12
12
12
12
12
12
12
12
12
12
12
12
12
12
12
12
12
12
12
12
12
12
12
12
12
12
12
12
12
12
12
12
12
12
12
12
12
12
12
12
12
12
12
12
12
12
12
12
12
12
12
12
12
12
12
12
12
12
12
12
12
12
12
12
12
12
12
12
12
12
12
12
12
12
12
12
12
12
12
12
12
12
12
12
12
12
12
12
12
12
12
12
12
12
12
12
12
12
12
12
12
12
12
12
12
12
12
12
12
12
12
12
12
12
12
12
12
12
12
12
12
12
12
12
12
12
12
12
12
12
12
12
12
12
12
12
12
12
12
12
12
12
12
12
12
12
12
12
12
12
12
12
12
12
12
12
12
12
12
12
12
12
12
12
12
12
12
12
12
12
12
12
12
12
12
12
12
12
12
12
12
12
12
12
12
12
12
12
12
12
12
12
12
12
12
12
12
12
12
12
12
12
12
12
12
12
12
12
12
12
12
12
12
12
12
12
12
12
12
12
12
12
12
12
12
12
12
12
12
12
12
12
12
12
12
12
12
12
12
12
12
12
12
12
12
12
12
12
12
12
12
12
12
12
12
12
12
12
12
12
12
12
12
12
12
12
12
12
12
12
12
12
12
12
12
12
12
12
12
12

POINT_DATA 3012
SCALARS Jp_lamdaP float 4
LOOKUP_TABLE default
0.999461 1 1 0.999461
1 1 1 1
0.999478 1 1 0.999478
0.999403 1 1 0.999403
0.999463 1 1 0.999463
0.999431 1 1 0.999431
1.01042 1.01207 1 0.998373
1 1 1 1
1 1 1 1
1 1 1 1
0.999512 1 1 0.999512
1.00635 1.00798 1 0.99838
0.999445 1 1 0.999445
0.999429 1 1 0.999429
0.999485 1 1 0.999485
0.99944 1 1 0.99944
0.999442 1 1 0.999442
0.99949 1 1 0.99949
1.01038 1.01203 1 0.99837
1 1 1 1
0.999391 1 1 0.999391
0.999437 1 1 0.999437
1.00433 1.00606 1 0.998277
1.00927 1.01093 1 0.998364
0.999418 1 1 0.999418
1.01004 1.0117 1 0.998359
1.03722 1.04059 1 0.99676
1 1 1 1
0.99973 1 1 0.99973
0.999742 1 1 0.999742
1 1 1 1
1.0047 1.00632 1 0.998389
0.999451 1 1 0.999451
0.999481 1 1 0.999481
1.01076 1.0122 1 0.998581
1 1 1 1
1.01016 1.01154 1 0.998644
1.00124 1.00279 1 0.99845
1.02463 1.02806 1 0.996672
1 1 1 1
1 1 1 1
0.999717 1 1 0.999717
1 1 1 1
0.999449 1 1 0.999449
0.999532 1.00133 1 0.998201
1 1 1 1
1.00324 1.00475 1 0.998494
0.999472 1 1 0.999472
0.999509 1 1 0.999509
0.999444 1 1 0.999444
1.01038 1.01203 1 0.998373
0.999702 1 1 0.999702
0.999424 1 1 0.999424
0.999432 1 1 0.999432
0.999471 1 1 0.999471
1.00407 1.00581 1 0.998268
1.01007 1.01173 1 0.998359
1.00908 1.01074 1 0.99836
1.03759 1.04098 1 0.996751
1 1 1 1
0.999409 1 1 0.999409
0.999604 1.00103 1 0.998579
1.00231 1.00405 1 0.998261
1.00717 1.00886 1 0.998322
1.03769 1.04124 1 0.996591
1.03816 1.04163 1 0.99667
0.999453 1 1 0.999453
1.00333 1.00492 1 0.998415
1.03582 1.03914 1 0.996803
1.05753 1.06187 1 0.995909
1 1 1 1
1 1 1 1
1 1 1 1
1.00343 1.00504 1 0.998398
1 1 1 1
1 1 1 1
1.0107 1.01242 1 0.998299
0.999808 1 1 0.999808
1.00903 1.01067 1 0.998382
1.00073 1.002 1.00009 0.998648
1.02645 1.02988 1 0.996668
1 1 1 1
1.0027 1 1.00325 0.999447
1.00865 1.01046 1 0.998212
1.01095 1.01265 1 0.998324
1.04419 1.04804 1 0.996327
0.999899 1.00017 1.00071 0.999015
1.03402 1.03756 1 0.996594
1.01896 1.02212 1.00007 0.996839
1.04569 1.04998 1 0.995908
1 1 1 1
1 1 1 1
1 1 1 1
1 1 1 1
1 1 1 1
0.999725 1 1 0.999725
1.00007 1.00169 1 0.998378
0.999715 1 1 0.999715
1.00407 1.00573 1 0.99835
1 1 1 1
0.99891 1.00067 1 0.998244
1.00113 1.00262 1 0.998509
1.03345 1.03729 1 0.996294
1.00634 1.00783 1 0.998524
1.04038 1.04427 1 0.996279
0.999471 1 1 0.999471
0.999454 1 1 0.999454
0.99944 1 1 0.99944
0.9995 1 1 0.9995
1.00382 1.00557 1 0.998262
1.0089 1.01056 1 0.998361
1.00994 1.01159 1 0.998362
1.03814 1.04153 1 0.996742
1 1 1 1
0.999439 1 1 0.999439
0.999248 1.00096 1 0.998286
1.00196 1.00372 1 0.99825
0.999731 1 1 0.999731
1.00458 1.00608 1 0.998515
1.00692 1.00862 1 0.998317
1.03767 1.04124 1 0.996574
1.03512 1.03845 1 0.996793
1.03888 1.04233 1 0.996684
1.05723 1.06156 1 0.995919
0.99893 1.00066 1 0.998268
1.00074 1.00246 1 0.998281
1.03006 1.03355 1 0.996616
1.03417 1.03773 1 0.996571
1.03963 1.04317 1 0.996609
1.07178 1.07603 1 0.996048
1 1 1 1
1.0617 1.06601 1 0.995958
0.99986 1.00085 1.00048 0.998534
1.02585 1.02925 1 0.996698
1.05393 1.05831 1 0.995858
1.06124 1.06552 1 0.995984
1.00215 1 1.00314 0.99902
1.00696 1.00008 1.00923 0.997669
1 1 1 1
1 1 1 1
1.01085 1.01257 1 0.998303
1 1 1 1
1.00003 1.00107 1.00042 0.998547
1.00817 1.00979 1 0.998389
1.02742 1.03085 1 0.996663
1 1 1 1
1.00293 1 1.00346 0.999472
1.00945 1.01109 1 0.998382
1.01093 1.01247 1 0.99848
1.04322 1.04707 1 0.996325
1.00026 1.00013 1.00126 0.99887
1.0341 1.03763 1 0.996594
1.01707 1.02019 1.00011 0.996835
1.04602 1.05032 1 0.995914
1.00175 1 1.00259 0.999163
1.00322 1 1.00356 0.999659
1.00743 1.00109 1.00828 0.998064
1.04524 1.04916 1 0.99626
1.04095 1.04465 1 0.996457
1.06587 1.0703 1 0.995858
1.0117 1.01333 1.00121 0.997182
1.05255 1.05679 1 0.995985
1.03365 1.03726 1.00057 0.995947
1.05268 1.05706 1 0.995857
1 1 1 1
1 1 1 1
1 1 1 1
1.00259 1 1.00337 0.999227
1 1 1 1
1 1 1 1
1 1 1 1
1.00469 1.0065 1 0.998211
1.00023 1.002 1 0.998241
1 1 1 1
1 1 1 1
0.999062 1.00082 1 0.998245
1.00154 1.00318 1 0.998367
1.03351 1.03736 1 0.996295
1.00678 1.00859 1 0.99821
1.03938 1.04327 1 0.996277
0.99869 1.00044 1 0.998249
1.03102 1.03487 1 0.996277
1.03654 1.04038 1 0.996302
1.07356 1.07873 0.999038 0.996166
1.0433 1.04722 1 0.996253
1.07565 1.08059 0.999334 0.996097
1 1 1 1
0.99947 1 1 0.99947
0.998818 1.00086 1 0.997959
1.00163 1.0034 1 0.99824
1 1 1 1
1.00613 1.00752 1 0.998619
1.00668 1.00837 1 0.998315
1.03762 1.0412 1 0.996557
1.03973 1.04317 1 0.996699
1.03422 1.03756 1 0.996782
1.05667 1.06099 1 0.995929
0.998811 1.00055 1 0.998266
1.00047 1.0022 1 0.99827
1.03047 1.03412 1 0.996468
1.03462 1.03818 1 0.996571
1 1 1 1
1.00113 1.00225 1.00023 0.998648
1.026 1.02928 1 0.996805
1.04005 1.0436 1 0.996601
1.07169 1.07619 0.999749 0.996068
1.05405 1.05843 1 0.995857
1.0617 1.06598 1 0.995987
1.06079 1.06506 1 0.995994
1.00183 1 1.00283 0.999007
1.00647 1.00056 1.00826 0.997668
1.0295 1.03332 1 0.996298
1.03109 1.0346 1 0.996603
1.07192 1.07685 0.999266 0.996161
1.07102 1.07674 0.998564 0.996114
1.06663 1.07124 0.999618 0.996074
1.06956 1.0774 0.996383 0.996324
1.00053 1 1.00176 0.998776
1.06341 1.0679 0.999628 0.996169
1.01568 1.01873 1.00011 0.996906
1.04879 1.05317 1 0.99584
1.06005 1.06452 1 0.995795
1.05967 1.06395 0.999656 0.99632
1.00484 1.00213 1.00537 0.997341
1.00739 1.00001 1.00935 0.998048
1.00661 1.00378 1.00593 0.996907
1.00992 1.01169 1 0.998248
1 1 1 1
1.00268 1 1.00318 0.999497
1.01059 1.01225 1 0.998361
1.04242 1.04627 1 0.996323
1.00039 1 1.00152 0.998865
1.01666 1.01985 1.00004 0.996832
1.03403 1.03757 1 0.996595
1.04749 1.05178 1 0.995919
1.00193 1 1.00275 0.999187
1.00247 1 1.0028 0.999678
1.00703 1.00034 1.00864 0.998063
1.0442 1.04812 1 0.996255
1.04004 1.04374 1 0.996458
1.06615 1.0706 1 0.995851
1.00897 1.01093 1.00088 0.997186
1.05322 1.05747 1 0.995981
1.03841 1.04215 1.00047 0.995936
1.05403 1.0584 1 0.995872
1.00176 1 1.00197 0.99979
1.00699 1.00481 1.00459 0.997588
1.00858 1 1.01008 0.998521
1.00961 1.00568 1.00653 0.997397
1.07076 1.07517 1 0.9959
1.05984 1.0642 1 0.995904
1.0669 1.07145 0.999782 0.99597
1.02255 1.02575 1.00059 0.996296
1.0541 1.05828 1 0.996056
1.04938 1.05224 1.00158 0.99571
1.06536 1.06976 1 0.995887
1.00041 1 1.00102 0.99939
0.999916 1 1 0.999916
1 1 1 1
1 1 1 1
1 1 1 1
1.00309 1 1.00366 0.999432
1 1 1 1
1.00277 1 1.00356 0.999208
1 1 1 1
1.00767 1.00948 1 0.998211
1.00206 1.00384 1 0.998229
1.03884 1.04272 1 0.996276
1.03368 1.03753 1 0.996296
0.999261 1.00102 1 0.998246
1 1 1 1
0.998751 1.0005 1 0.998249
1.03126 1.03511 1 0.996278
1.03638 1.04023 1 0.996301
1.07326 1.07837 0.999092 0.996164
1.04272 1.04664 1 0.996248
1.07577 1.08059 0.99944 0.996094
1.02962 1.03347 1 0.996279
1.07249 1.07751 0.999185 0.996146
1.07474 1.0799 0.999064 0.996153
1.06945 1.07948 0.994153 0.996534
1.07518 1.07979 0.999734 0.996
1.07121 1.08176 0.993813 0.99641
0.998778 1.00051 1 0.998265
1.0002 1.00194 1 0.998259
1.03093 1.03474 1 0.996322
1.03509 1.03865 1 0.996572
1 1 1 1
1.00217 1.00337 1.00004 0.998764
1.026 1.02918 1 0.99691
1.04046 1.04402 1 0.996593
1.07164 1.07641 0.999478 0.996088
1.06153 1.06577 1 0.996016
1.05471 1.0591 1 0.995857
1.06055 1.0648 1 0.996003
1.00166 1 1.00267 0.998994
1.00699 1.00137 1.00797 0.997667
1.0296 1.03342 1 0.996301
1.0317 1.03522 1 0.996596
1.07126 1.07654 0.998899 0.996191
1.07222 1.0774 0.999097 0.996091
1.00027 1.00014 1.00137 0.998765
1.01657 1.01953 1.00018 0.996906
1.04924 1.05361 1 0.995859
1.06663 1.07108 0.999796 0.996045
1.06864 1.07712 0.995727 0.996379
1.05936 1.06383 1 0.995796
1.0636 1.06815 0.999567 0.996172
1.05982 1.06414 0.999635 0.996307
1.00613 1.00361 1.00519 0.997339
1.00776 1.00435 1.00651 0.996903
1.00865 1.00013 1.0105 0.998049
1.07148 1.07636 0.99932 0.996146
1.0721 1.07775 0.998572 0.996185
1.06993 1.07882 0.99529 0.996459
1.06975 1.08025 0.993852 0.996406
1.0645 1.07116 0.997459 0.996319
1.06 1.0741 0.990155 0.996686
1.00558 1.00764 1.00084 0.997132
1.05903 1.06743 0.995605 0.996503
1.03697 1.04108 1 0.996053
1.05228 1.05699 1 0.995544
1.05567 1.06003 1 0.995887
1.05184 1.05859 0.997021 0.996596
1.0106 1 1.01227 0.998352
1.00828 1.0101 1.00154 0.996664
1.0094 1.00103 1.0112 0.997194
1.00979 1.00936 1.0039 0.996532
1.04323 1.04715 1 0.996251
1.002 1 1.0023 0.999696
1.00234 1 1.00313 0.999212
1.00836 1.00011 1.01021 0.998063
1.03927 1.04297 1 0.996459
1.06633 1.07078 1 0.995845
1.00472 1.00692 1.00063 0.99719
1.03998 1.04389 1.00033 0.995924
1.05401 1.05827 1 0.995976
1.05359 1.05794 1 0.995887
1.00108 1 1.00128 0.999804
1.00606 1.00313 1.00533 0.997595
1.00918 1.00009 1.01058 0.998526
1.00879 1.00435 1.00705 0.997394
1.07057 1.07498 1 0.995893
1.06017 1.06453 1 0.995901
1.06634 1.07085 0.999814 0.995967
1.02019 1.02341 1.00056 0.996299
1.05357 1.05776 1 0.996035
1.04606 1.04877 1.00173 0.995696
1.06471 1.069 1 0.995985
0.999868 1 1 0.999868
1.0062 1 1.00734 0.998868
1.01118 1.01218 1.00215 0.996882
1.0134 1.00284 1.01279 0.997772
1.00824 1.00815 1.00295 0.99716
1.06964 1.07561 0.998349 0.996096
1.06035 1.06464 1 0.99597
1.06011 1.06634 0.99799 0.996161
1.02285 1.025 1.00199 0.995909
1.0558 1.05991 1 0.996123
1.03881 1.04252 1.00086 0.995585
1.00047 1 1.00119 0.999281
1.00237 1 1.00369 0.998688
0.999484 1 1 0.999484
0.999751 1 1.00036 0.999392
0.999947 1 1 0.999947
0.999923 1 1 0.999923
1 1 1 1
1 1 1 1
1 1 1 1
1.00194 1 1.00229 0.999656
1 1 1 1
1.00311 1 1.0037 0.999414
1 1 1 1
1.00238 1 1.0032 0.999189
1 1 1 1
1.04188 1.04581 1 0.996243
1.03595 1.03979 1 0.9963
1.07553 1.08023 0.99955 0.996092
1.07284 1.07789 0.999148 0.996163
1.03146 1.03531 1 0.996279
0.998753 1.00051 1 0.998248
1.0298 1.03364 1 0.996279
1.07207 1.07706 0.999215 0.996147
1.07459 1.07968 0.999132 0.996151
1.06901 1.07967 0.993555 0.996551
1.07425 1.07879 0.999796 0.995995
1.07146 1.08195 0.993878 0.99641
1.07153 1.07651 0.99924 0.996135
1.06858 1.07899 0.993771 0.996558
1.07058 1.08105 0.993801 0.996496
1.06472 1.078 0.990883 0.99676
1.0694 1.07843 0.995338 0.99627
1.0645 1.08167 0.987343 0.996745
1.02961 1.03343 1 0.996305
1.03233 1.03586 1 0.99659
1.07061 1.07624 0.998542 0.99622
1.07336 1.07802 0.999607 0.996068
1.00005 1.00034 1.00096 0.998755
1.01829 1.02129 1.00016 0.996908
1.05065 1.055 1 0.995878
1.06663 1.07089 1 0.996016
1.06774 1.07683 0.995109 0.996434
1.0638 1.06841 0.999507 0.996175
1.05836 1.06282 1 0.995798
1.05988 1.06422 0.999628 0.996295
1.00762 1.00543 1.00485 0.997337
1.00711 1.00387 1.00635 0.9969
1.00889 1.00012 1.01074 0.998051
1.07115 1.07604 0.999304 0.996146
1.07152 1.07743 0.998317 0.996183
1.06944 1.07902 0.994598 0.996506
1.06977 1.07969 0.994408 0.996379
1.00929 1.01109 1.00109 0.997131
1.03624 1.04035 1 0.996054
1.05169 1.05634 1.00003 0.995567
1.0652 1.07134 0.997991 0.996269
1.05945 1.07435 0.98936 0.996733
1.05654 1.06095 1 0.995848
1.05932 1.06767 0.995656 0.996504
1.05286 1.05939 0.997193 0.996634
1.00903 1.01059 1.0018 0.996664
1.00824 1.00788 1.00389 0.996481
1.00902 1 1.01069 0.998353
1.00858 1.00068 1.01068 0.997238
1.06927 1.07863 0.994793 0.996509
1.07176 1.08167 0.994386 0.996433
1.05963 1.07358 0.990299 0.996677
1.05799 1.07604 0.986417 0.996764
1.05847 1.07137 0.991269 0.996657
1.05967 1.07769 0.986337 0.996902
1.01891 1.02259 1.00004 0.996355
1.05059 1.0645 0.990027 0.99687
1.03753 1.04204 1 0.995674
1.04792 1.05257 1.00018 0.995412
1.05421 1.05854 1 0.995913
1.05638 1.06335 0.996777 0.996661
1.00576 1 1.00713 0.998639
1.01286 1.00125 1.01419 0.997446
1.01348 1.01712 1.00015 0.996273
1.00878 1.00504 1.00686 0.996883
1.01101 1.0077 1.007 0.996312
1.00045 1 1.00063 0.999817
1.07034 1.07476 1 0.995886
1.00886 1.00021 1.01014 0.99853
1.00507 1.00156 1.00592 0.997603
1.00755 1.00294 1.00723 0.997392
1.06046 1.06483 1 0.995898
1.06579 1.07027 0.999847 0.995965
1.02138 1.02466 1.00051 0.996303
1.04575 1.04826 1.00193 0.995683
1.05319 1.05741 1 0.996014
1.06489 1.06907 1 0.996082
0.999877 1 1 0.999877
1.00632 1 1.00745 0.998879
1.00888 1.01051 1.00149 0.996891
1.0141 1.00262 1.01372 0.997765
1.00818 1.00779 1.00331 0.997092
1.06971 1.07559 0.998431 0.996091
1.05994 1.06423 1 0.995969
1.05964 1.06595 0.997919 0.99615
1.02386 1.02588 1.00213 0.995906
1.05941 1.06356 1 0.996102
1.03897 1.04253 1.00096 0.995625
1.00186 1 1.00274 0.999122
1.01113 1.0006 1.0124 0.998149
1.00463 1.00766 1.0005 0.996482
1.01653 1.00782 1.01126 0.997412
1.01285 1.0139 1.00203 0.996945
1.06439 1.07549 0.993324 0.996336
1.05563 1.05975 0.999997 0.99611
1.05368 1.0621 0.99567 0.996382
1.00591 1.00633 1.00379 0.995804
1.03557 1.04011 1 0.995635
1.00066 1 1.00137 0.999283
1.00071 1 1.00213 0.998583
1.00269 1 1.00403 0.998664
1.00214 1 1.00372 0.998428
1.00111 1 1.00234 0.998771
0.999541 1 1 0.999541
0.999621 1 1.00013 0.999487
0.999972 1 1 0.999972
0.999827 1 1.00043 0.999394
0.999955 1 1 0.999955
1 1 1 1
0.99993 1 1 0.99993
1 1 1 1
1 1 1 1
1.00031 1 1.00045 0.999853
1.00288 1 1.00324 0.999637
1 1 1 1
1 1 1 1
1.00371 1 1.00431 0.999397
1 1 1 1
1.0735 1.07797 0.999858 0.995991
1.07473 1.07975 0.999197 0.99615
1.0718 1.08223 0.993937 0.996409
1.06867 1.07997 0.99295 0.996568
1.07163 1.07659 0.999244 0.996147
1.03001 1.03386 1 0.996279
1.07123 1.07619 0.999255 0.996136
1.06869 1.07889 0.993974 0.996553
1.07086 1.08139 0.993751 0.996497
1.06392 1.07788 0.990235 0.996789
1.07039 1.07941 0.995355 0.996265
1.06468 1.0818 0.98737 0.996768
1.06896 1.07894 0.994199 0.996528
1.06253 1.07719 0.989619 0.996742
1.06549 1.08002 0.98969 0.996821
1.06558 1.08404 0.986023 0.996907
1.06405 1.07997 0.988641 0.996576
1.06761 1.08756 0.984646 0.996965
1.07082 1.07573 0.999288 0.996145
1.07092 1.07709 0.998083 0.996182
1.06887 1.07918 0.993875 0.996553
1.06977 1.07911 0.994977 0.996353
1.01167 1.01313 1.00144 0.997131
1.03308 1.03717 1 0.996055
1.05051 1.05497 1.00018 0.995589
1.06591 1.07157 0.998487 0.996219
1.05894 1.07459 0.988617 0.99678
1.05971 1.06803 0.995696 0.996504
1.0574 1.06185 1 0.995808
1.05373 1.06006 0.997346 0.996673
1.01123 1.01191 1.00267 0.996664
1.00812 1.00798 1.00372 0.996431
1.00835 1 1.01001 0.998353
1.00792 1.00041 1.01025 0.997281
1.06944 1.07881 0.994784 0.996509
1.07136 1.08126 0.994413 0.996416
1.05951 1.07362 0.990118 0.996707
1.05903 1.07615 0.987298 0.996747
1.01957 1.02266 1.00063 0.99635
1.03614 1.04057 1.00003 0.995705
1.04749 1.05193 1.00039 0.995399
1.05939 1.07153 0.992034 0.996607
1.05794 1.07662 0.985646 0.996958
1.05221 1.05654 1 0.995898
1.05175 1.06574 0.989964 0.99687
1.05589 1.06287 0.996686 0.996732
1.01226 1.01556 1.00047 0.996277
1.00863 1.00781 1.00454 0.996295
1.00792 1.00353 1.00751 0.996881
1.00629 1 1.00769 0.998614
1.01247 1.00055 1.01447 0.997485
1.0613 1.0761 0.989493 0.996723
1.06156 1.07826 0.987731 0.996737
1.05768 1.08172 0.980772 0.996942
1.05278 1.07273 0.984395 0.99696
1.02079 1.02488 1 0.996005
1.05503 1.07002 0.988918 0.99704
1.02282 1.0272 1.00029 0.995452
1.03989 1.04432 1.00051 0.995257
1.05053 1.05517 0.999684 0.995917
1.00174 1 1.00277 0.998979
1.01168 1 1.01383 0.997882
1.00767 1.00012 1.01042 0.997158
1.00962 1.01231 1.00121 0.996144
1.00934 1.00517 1.00775 0.996431
1.00988 1.00761 1.00613 0.996142
0.999887 1 1 0.999887
1.00631 1 1.00743 0.998889
1.06974 1.07554 0.998514 0.996087
1.01533 1.00222 1.01535 0.997758
1.00531 1.00749 1.00094 0.996901
1.0084 1.00774 1.00364 0.997024
1.05939 1.06368 1 0.995968
1.05935 1.06575 0.99785 0.996139
1.02321 1.02508 1.00229 0.995904
1.038 1.04172 1.00077 0.995665
1.06329 1.06748 1 0.99608
1.00128 1 1.00215 0.999127
1.01173 1.00025 1.01335 0.998152
1.00768 1.01077 1.0005 0.996441
1.0168 1.00695 1.0124 0.99741
1.01317 1.01447 1.0018 0.996927
1.06303 1.0741 0.993337 0.996331
1.05784 1.062 0.999983 0.996096
1.05607 1.06419 0.995953 0.996404
1.00824 1.00924 1.00324 0.995777
1.03357 1.03808 1.00006 0.995601
1.00438 1 1.00592 0.998462
1.01421 1.00058 1.01594 0.997722
1.00491 1.00651 1.00211 0.996304
1.02045 1.01472 1.00859 0.997081
1.02692 1.02918 1.00107 0.996737
1.05412 1.07374 0.984858 0.996825
1.05914 1.0637 0.999762 0.995957
1.06074 1.06843 0.996454 0.996344
1.01038 1.01032 1.00433 0.995744
1.01621 1.02092 1 0.995389
1.00007 1 1.00079 0.999286
1.00044 1 1.00185 0.998594
0.998979 1 1.00057 0.998412
1.00115 1 1.00252 0.99864
1.00044 1 1.00168 0.998768
1.00326 1 1.00485 0.998413
1.00031 1 1.00187 0.998436
1.00373 1 1.00539 0.998355
0.999308 1 1.00047 0.998834
0.999538 1 1 0.999538
0.999541 1 1 0.999541
0.999988 1 1 0.999988
0.99949 1 1 0.99949
0.999977 1 1 0.999977
1 1 1 1
0.999962 1 1 0.999962
1 1 1 1
1 1 1 1
0.999955 1 1 0.999955
1.00067 1 1.00084 0.999827
1 1 1 1
1.00324 1 1.00362 0.999619
1 1 1 1
1 1 1 1
1.07135 1.08038 0.99537 0.99626
1.07095 1.08152 0.993707 0.996498
1.06485 1.08192 0.98739 0.99679
1.06309 1.0777 0.989593 0.996817
1.06884 1.0788 0.994196 0.996548
1.07094 1.07589 0.999268 0.996137
1.0692 1.07894 0.994441 0.99651
1.06306 1.07718 0.990122 0.996735
1.06483 1.07931 0.989744 0.996807
1.06388 1.08319 0.98521 0.996917
1.064 1.07976 0.988787 0.996578
1.06477 1.08567 0.983695 0.997001
1.0637 1.07743 0.990505 0.996715
1.06531 1.0853 0.984625 0.996909
1.06634 1.08712 0.983846 0.996994
1.05937 1.08473 0.979544 0.997011
1.06964 1.07903 0.994776 0.996508
1.071 1.08089 0.994436 0.996399
1.0595 1.07374 0.989966 0.996737
1.06008 1.07634 0.988127 0.99673
1.02142 1.02447 1.00068 0.996344
1.03517 1.03961 1 0.995737
1.04708 1.05132 1.00058 0.995387
1.06013 1.07155 0.992761 0.996557
1.05616 1.07557 0.984892 0.997013
1.05271 1.06674 0.98994 0.99687
1.05067 1.05502 1 0.995883
1.05663 1.0632 0.997009 0.996802
1.00686 1.00965 1.00096 0.996282
1.00737 1.00786 1.00324 0.996278
1.00919 1.0031 1.00923 0.996877
1.00614 1 1.00756 0.998591
1.01198 1.00011 1.01438 0.997525
1.06122 1.07598 0.989524 0.996725
1.06225 1.07893 0.987767 0.996733
1.05824 1.08107 0.981893 0.996935
1.02057 1.02466 1 0.996004
1.02274 1.02712 1.00026 0.995486
1.03873 1.0429 1.00076 0.995246
1.05304 1.07259 0.98478 0.996947
1.05348 1.05837 0.999335 0.996043
1.05148 1.06669 0.988695 0.997007
1.00212 1 1.00308 0.999035
1.00841 1.00959 1.0027 0.996141
1.00966 1.00551 1.00791 0.996245
1.01336 1.0073 1.00962 0.996424
1.01071 1.00252 1.01103 0.997181
1.01221 1 1.01439 0.99785
1.06408 1.08337 0.985354 0.996794
1.06223 1.08837 0.97903 0.996886
1.05133 1.07991 0.976453 0.997015
1.04599 1.07381 0.976875 0.997152
1.01196 1.01591 1.00027 0.995845
1.04778 1.05691 0.994744 0.996596
1.01093 1.01423 1.00165 0.995104
1.02719 1.03115 1.00104 0.99512
0.999712 1 1.0003 0.99941
1.00688 1 1.00856 0.998343
1.01055 1.00074 1.01231 0.99752
1.01214 1.00334 1.01217 0.996639
1.007 1.00527 1.00566 0.996082
1.01566 1.0061 1.0136 0.995954
1.00107 1 1.00194 0.999132
1.01199 1 1.01386 0.998156
1.06174 1.07279 0.993348 0.996327
1.01652 1.00581 1.01328 0.997409
1.01075 1.0141 1.0003 0.996399
1.01243 1.01402 1.00152 0.996908
1.06012 1.06432 0.999972 0.996082
1.05819 1.06606 0.996178 0.996425
1.01112 1.01267 1.00273 0.995749
1.0314 1.03572 1.00027 0.995567
1.0045 1 1.00604 0.998467
1.01443 1.0003 1.01648 0.997692
1.00532 1.00703 1.00201 0.996308
1.0199 1.01499 1.00778 0.997085
1.02991 1.03274 1.00048 0.996784
1.0566 1.07606 0.984996 0.996872
1.05889 1.06339 0.999767 0.996
1.0619 1.069 0.996922 0.996426
1.01171 1.01144 1.00458 0.995709
1.01573 1.0205 1.00003 0.995298
1.00429 1 1.00612 0.998181
1.01339 1.00193 1.01413 0.997351
1.01699 1.01693 1.00378 0.996287
1.02502 1.02621 1.00223 0.996631
1.05562 1.0966 0.965418 0.997114
1.05588 1.07068 0.989272 0.996873
1.04262 1.04741 0.999885 0.99554
1.01972 1.02016 1.00426 0.995335
1.00077 1 1.00217 0.998605
0.99947 1 1.00106 0.99841
0.99932 1 1.00079 0.998536
1.00106 1 1.0023 0.998766
1.00509 1 1.0067 0.998398
0.999375 1 1.00055 0.99883
1.00005 1 1.00159 0.998464
1.0048 1 1.00645 0.998364
0.998814 1 1.00017 0.998647
1.00419 1 1.00595 0.998248
1.00238 1 1.00407 0.99832
0.998838 1 1.00003 0.998805
0.999493 1 1 0.999493
0.999535 1 1 0.999535
0.999994 1 1 0.999994
0.999541 1 1 0.999541
0.99999 1 1 0.99999
1 1 1 1
0.999982 1 1 0.999982
1 1 1 1
1 1 1 1
0.999987 1 1 0.999987
0.999936 1 1 0.999936
1 1 1 1
1.00138 1 1.00158 0.999801
1 1 1 1
1 1 1 1
1.06386 1.07946 0.988929 0.996581
1.06427 1.0787 0.9898 0.996792
1.062 1.08383 0.98277 0.997037
1.06221 1.08241 0.984364 0.996926
1.06359 1.07719 0.990608 0.996728
1.06943 1.07895 0.99467 0.996493
1.06335 1.07724 0.990356 0.996715
1.065 1.08485 0.984753 0.996899
1.06492 1.08621 0.983355 0.99699
1.05972 1.08493 0.979676 0.997023
1.06635 1.08527 0.985667 0.996855
1.06499 1.0916 0.978508 0.997056
1.06718 1.09637 0.976221 0.99709
1.06108 1.07582 0.989535 0.996726
1.06285 1.07949 0.987812 0.996729
1.0589 1.08041 0.983114 0.996928
1.02297 1.02707 1 0.996003
1.02217 1.02658 1.00018 0.99552
1.03743 1.04152 1.00085 0.995234
1.05339 1.0726 0.985118 0.996934
1.04721 1.06331 0.987849 0.996973
1.05557 1.06092 0.998775 0.996169
1.0081 1.00808 1.00391 0.996136
1.00468 1.00226 1.00609 0.996351
1.01453 1.00872 1.00938 0.996417
1.00223 1 1.00314 0.999092
1.01142 1.00395 1.01026 0.997203
1.01308 1 1.0153 0.997816
1.06482 1.0838 0.985643 0.996803
1.06135 1.08825 0.978328 0.99689
1.05176 1.07984 0.97692 0.997007
1.01053 1.01466 1.00009 0.995837
1.01043 1.01391 1.0014 0.995179
1.02782 1.03182 1.0009 0.995226
1.04674 1.07378 0.977594 0.997154
1.04291 1.05311 0.993723 0.996572
0.999722 1 1.00023 0.99949
1.00658 1 1.00825 0.998339
1.00371 1.00387 1.00374 0.996116
1.01789 1.00537 1.01638 0.996139
1.01228 1.0046 1.01099 0.996688
1.01005 1.00058 1.01202 0.997472
1.0635 1.09079 0.977941 0.996973
1.05218 1.09256 0.965965 0.996971
1.04731 1.08004 0.972423 0.997196
1.03395 1.05792 0.980142 0.997143
1.00214 1.00517 1.00133 0.995653
1.02778 1.03154 1.00072 0.995647
1.01047 1.01292 1.00264 0.994948
0.999717 1 1 0.999717
0.999123 1 1 0.999123
1.00136 1 1.0026 0.998771
1.00587 1 1.0081 0.99779
1.01014 1 1.01307 0.9971
1.02277 1.00489 1.02152 0.996349
1.00382 1.00192 1.00556 0.996359
1.0424 1.00312 1.04272 0.996594
1.0044 1 1.00594 0.998471
1.01506 1 1.01744 0.997663
1.05936 1.07854 0.985247 0.996919
1.02088 1.01698 1.00676 0.997089
1.00568 1.00716 1.00222 0.996312
1.03229 1.03553 1.00004 0.996832
1.05866 1.06311 0.999771 0.996043
1.06314 1.06963 0.99741 0.996508
1.01252 1.01205 1.00482 0.995674
1.01503 1.01991 1 0.995207
1.00495 1 1.00683 0.998129
1.01203 1.00096 1.01376 0.997333
1.02151 1.02107 1.00415 0.996298
1.02396 1.02558 1.00175 0.99667
1.05704 1.09908 0.964514 0.997133
1.05966 1.07358 0.990192 0.996817
1.03983 1.04466 0.999779 0.995599
1.0215 1.02248 1.00377 0.995286
1.00474 1 1.00672 0.99803
1.06709 1.10686 0.966828 0.997143
1.00776 1.00204 1.00879 0.99695
1.02179 1.02308 1.00268 0.996069
1.03775 1.08085 0.962761 0.997264
1.03464 1.0408 0.998388 0.995683
1.01461 1.01637 1.00323 0.995055
1.00045 1 1.00205 0.998408
0.998413 0.999267 1.00062 0.998528
0.999038 0.998635 1.00168 0.998723
0.999136 1 1.00031 0.998826
1.00499 1 1.00663 0.998373
0.999991 0.999937 1.00156 0.998491
0.998801 1 1 0.998801
1.00257 1 1.00425 0.998328
0.998991 0.999969 1.00034 0.998685
1.00325 1 1.005 0.998256
0.998815 1 1 0.998815
0.999998 1 1.00151 0.998487
1.00515 1 1.00707 0.998095
0.999074 1 1.00087 0.998201
0.998706 1 1 0.998706
0.999445 1 1 0.999445
0.999489 1 1 0.999489
0.999997 1 1 0.999997
0.999532 1 1 0.999532
0.999995 1 1 0.999995
1 1 1 1
0.999992 1 1 0.999992
1 1 1 1
1 1 1 1
0.999761 1 1 0.999761
0.999998 1 1 0.999998
0.999981 1 1 0.999981
1 1 1 1
0.999917 1 1 0.999917
1 1 1 1
1 1 1 1
1.06007 1.0851 0.979836 0.997034
1.06351 1.08531 0.982872 0.996986
1.06473 1.08441 0.984916 0.99689
1.06301 1.07703 0.990238 0.996716
1.06623 1.08552 0.985309 0.996874
1.06495 1.09126 0.978781 0.997047
1.06387 1.09316 0.976046 0.997095
1.0647 1.09198 0.977913 0.997039
1.07764 1.10919 0.974343 0.997137
1.08706 1.12067 0.97254 0.997398
1.06571 1.08434 0.985965 0.996812
1.06042 1.08814 0.977559 0.996893
1.0523 1.07973 0.977534 0.996999
1.0092 1.01337 1.00006 0.99583
1.01134 1.01488 1.00126 0.995259
1.03026 1.03429 1.00078 0.995332
1.04762 1.07347 0.978704 0.997155
1.03818 1.04893 0.993174 0.996548
1.00488 1.0037 1.00505 0.99615
1.02272 1.00566 1.02072 0.996318
1.01448 1.0055 1.01224 0.996736
0.999705 1 1.00014 0.999569
1.00645 1 1.00813 0.998336
1.00975 1.00029 1.01206 0.997425
1.06302 1.091 0.977302 0.996983
0.999711 1 1 0.999711
0.999077 1 1 0.999077
1.0538 1.0917 0.968207 0.996974
1.0455 1.07834 0.972298 0.997167
1.00323 1.0056 1.00192 0.995734
1.01021 1.01196 1.00332 0.994965
1.02645 1.03137 0.999593 0.995632
1.03307 1.0577 0.97954 0.997114
1.00164 1 1.00278 0.998864
1.00619 1 1.00843 0.997777
1.00416 1.00199 1.00595 0.99624
1.03635 1.00369 1.03598 0.996676
1.02026 1.00322 1.02069 0.996363
1.00986 1.00018 1.01259 0.997119
1.07392 1.11067 0.969746 0.997081
1.03535 1.09084 0.951894 0.997095
1.03155 1.06851 0.967978 0.997342
1.01768 1.03617 0.98529 0.996825
1.00525 1.0028 1.00649 0.995986
1.01103 1.01044 1.0055 0.995101
0.99902 1 1 0.99902
0.999425 1 1.00033 0.9991
0.99895 1.00021 1 0.998744
1.00136 1 1.0033 0.998075
1.01086 1 1.01341 0.997482
1.00907 1.00036 1.01196 0.996778
1.06457 1.00062 1.06767 0.996485
0.99345 1.00049 0.995625 0.997324
1.00546 1 1.0074 0.998077
1.01018 1 1.0129 0.997315
1.05777 1.10056 0.963866 0.997152
1.06297 1.07605 0.991057 0.996762
1.02357 1.02533 1.00158 0.996709
1.02721 1.02648 1.00441 0.996308
1.0374 1.0422 0.999739 0.995658
1.02409 1.02556 1.00335 0.995237
1.00473 0.999865 1.00687 0.998009
1.06957 1.11066 0.965696 0.997216
1.00835 1.00121 1.01014 0.997014
1.01872 1.02006 1.00269 0.996003
1.0386 1.08077 0.963641 0.997241
1.03224 1.03868 0.998008 0.99578
1.01588 1.01737 1.00348 0.995068
1.00989 0.998738 1.01341 0.997781
1.00797 1.06217 0.951241 0.99762
1.00508 1.00149 1.00689 0.996717
1.00648 1.00722 1.00379 0.99549
1.01662 1.0386 0.982016 0.996765
1.0032 1.00567 1.00221 0.99534
0.950767 1.00244 0.951903 0.996371
0.997315 0.998026 1.00077 0.998519
0.998906 0.997023 1.00317 0.998728
1.00162 0.999049 1.00392 0.998668
0.998826 1 1.00003 0.998797
1.00385 1 1.00552 0.998336
1.002 1 1.00374 0.998263
0.999056 1 1.00033 0.998726
0.998721 1 1.00002 0.998705
0.999299 1 1.00109 0.998206
0.998781 1 1 0.998781
1.00517 1 1.00709 0.998095
0.999705 1 1.00125 0.998453
1.00004 1 1.00127 0.99877
1.00063 1 1.00271 0.997931
1.00506 1 1.00702 0.998056
0.998414 1 1.00034 0.998071
0.998529 1 1 0.998529
1.00075 1 1.00248 0.998273
0.998911 1 1.00042 0.998496
0.999425 1 1 0.999425
0.999441 1 1 0.999441
0.999999 1 1 0.999999
0.999484 1 1 0.999484
0.999997 1 1 0.999997
1 1 1 1
0.999996 1 1 0.999996
1 1 1 1
1 1 1 1
0.999812 1 1 0.999812
0.999764 1 1 0.999764
1 1 1 1
0.999995 1 1 0.999995
1 1 1 1
0.999974 1 1 0.999974
1 1 1 1
1 1 1 1
1.06068 1.09014 0.975808 0.9971
1.06492 1.09104 0.978957 0.997038
1.06597 1.08567 0.984924 0.996893
1.06449 1.09188 0.977808 0.997037
1.07422 1.10578 0.974248 0.997131
1.08661 1.11989 0.972899 0.997311
1.08287 1.12081 0.968858 0.997204
0.952375 1.01605 0.942829 0.994164
1.03423 1.07353 0.965219 0.998102
0.999217 1 1 0.999217
1.06259 1.09127 0.976657 0.996992
1.05527 1.09108 0.970122 0.996976
1.04331 1.07678 0.971698 0.997137
1.0003 1.00369 1.00082 0.995812
1.00886 1.00989 1.00402 0.994981
1.02433 1.03013 0.998746 0.995618
1.03232 1.05781 0.978759 0.997084
0.998705 1.00199 1.0006 0.996128
1.02985 1.00411 1.02897 0.996767
1.01733 1.00173 1.01926 0.996378
0.999705 1 1 0.999705
1.01018 1.00017 1.0129 0.997137
1.00181 1 1.00285 0.998955
1.00648 1 1.00873 0.997765
0.999169 1 1.00014 0.999032
1.07155 1.11117 0.967158 0.997088
0.999079 1 1 0.999079
0.999781 1 1.00068 0.999103
0.998819 1.00057 0.999539 0.998706
1.03932 1.0914 0.955058 0.997093
1.03008 1.06716 0.967871 0.997292
1.00162 1.00217 1.00344 0.996022
1.01558 1.01504 1.00531 0.995249
1.01665 1.0344 0.985986 0.996806
1.0009 1 1.00277 0.998141
1.00994 1 1.01254 0.997432
1.00458 1.00031 1.00715 0.997134
1.05397 1.00126 1.05635 0.99649
1.00872 1.0007 1.01122 0.996832
1.04664 1.10161 0.95278 0.997192
1.01021 1.07592 0.9415 0.997259
1.02244 1.04712 0.979402 0.996969
0.997813 1.01687 0.984623 0.996581
1.00099 1 1.00411 0.996894
0.9986 1 1 0.9986
0.999788 1.00038 1.00096 0.998458
1.0019 1 1.0034 0.998497
1.01268 1 1.01485 0.997858
1.01205 1 1.01466 0.997431
1.04541 0.999932 1.04863 0.997005
1.02816 1.00181 1.02903 0.997356
1.00484 1 1.00687 0.997984
1.00811 1.00003 1.01103 0.997078
1.07131 1.11463 0.963753 0.997286
1.03999 1.08152 0.964283 0.997216
1.03005 1.0369 0.997504 0.995876
1.01426 1.01568 1.00268 0.995937
1.01654 1.0179 1.0036 0.995083
1.01061 0.999539 1.01324 0.997864
1.01016 1.06361 0.951964 0.997674
1.00202 1.00118 1.00413 0.996724
1.00487 1.00529 1.00411 0.995488
1.01405 1.03707 0.980847 0.996903
1.00407 1.00602 1.00273 0.995338
0.951191 1.00159 0.954324 0.995136
1.01011 0.997819 1.01461 0.997742
0.987837 1.02672 0.964433 0.997614
1.00094 1.00137 1.00312 0.996452
1.00427 1.00219 1.00617 0.995935
0.992027 1.00729 0.988139 0.99667
0.890015 0.972575 0.945154 0.968214
0.872923 0.957909 0.926691 0.983369
0.952359 0.978055 0.976918 0.996733
0.661299 0.802658 0.885714 0.930196
0.571839 0.74142 0.850177 0.907194
0.998917 0.995947 1.00425 0.998733
1.00237 0.997129 1.00655 0.998721
1.00397 0.999755 1.00552 0.998703
0.998705 1 1 0.998705
0.999211 1 1.001 0.998211
1.00435 1 1.00626 0.998095
0.999625 1 1.00121 0.998417
0.998747 1 1 0.998747
1.00564 1 1.00761 0.99804
0.998568 1 1 0.998568
0.998416 1 1.00033 0.998089
0.999574 1 1.00087 0.998703
1.00126 1 1.00326 0.998003
1.00679 1 1.00878 0.99803
1.006 0.999505 1.00821 0.998293
1.00548 1 1.00748 0.998007
0.998999 1 1.00104 0.997962
0.998527 1 1.00003 0.998497
0.999236 1 1.00114 0.998099
1.00057 1 1.00237 0.998203
1.00088 1 1.00252 0.998361
1.00053 1 1.0023 0.998237
0.998921 1 1.00029 0.998628
0.999067 1 1.00058 0.998493
0.999418 1 1 0.999418
0.999425 1 1 0.999425
1 1 1 1
0.999437 1 1 0.999437
0.999999 1 1 0.999999
1 1 1 1
0.999998 1 1 0.999998
1 1 1 1
1 1 1 1
0.999869 1 1 0.999869
0.999809 1 1 0.999809
1 1 1 1
0.999766 1 1 0.999766
1 1 1 1
1 1 1 1
0.999993 1 1 0.999993
1 1 1 1
1 1 1 1
1.07088 1.10244 0.974177 0.997125
1.0641 1.09155 0.977747 0.997036
1.08663 1.11916 0.973632 0.997226
0.954461 1.01578 0.945061 0.994254
1.08099 1.11899 0.968752 0.997201
1.04102 1.07607 0.969395 0.997971
1.05832 1.09379 0.970159 0.997334
0.906335 0.973753 0.947266 0.98258
0.980424 1.02137 0.964599 0.995138
0.999263 1 1 0.999263
0.99921 1 1 0.99921
0.998706 1 1 0.998706
0.998838 1 1 0.998838
1.06928 1.11111 0.965156 0.997095
1.04323 1.09136 0.958687 0.99709
1.02904 1.06581 0.96817 0.997242
1.00042 1.00131 1.00306 0.996058
1.01983 1.01991 1.00455 0.995399
1.01518 1.03218 0.986704 0.996787
1.01674 1 1.01986 0.996938
1.04456 1.0019 1.04624 0.996495
1.00854 1.00038 1.0113 0.996886
1.00029 1 1.00118 0.999106
1.00841 1.00036 1.01069 0.997383
1.00059 1 1.00239 0.998207
0.999138 1 1 0.999138
0.999086 1.00099 0.999428 0.998667
1.04527 1.102 0.951174 0.997207
0.998617 1 1 0.998617
0.99945 1.0006 1.0003 0.998548
1.00185 0.999571 1.00353 0.998748
1.01777 1.0796 0.945337 0.997246
1.02297 1.04697 0.98005 0.996968
0.99927 1.00085 1.00155 0.996879
1.00008 1.01577 0.987849 0.996656
1.01137 1 1.01365 0.997751
1.01199 1 1.01477 0.997264
1.03409 1.00246 1.03431 0.997335
1.04507 1.00152 1.04674 0.996889
0.998346 1.06144 0.943025 0.997383
0.997854 1.04927 0.953616 0.997258
1.01003 1.01983 0.99375 0.996618
0.974089 1.00139 0.974917 0.997762
1.00612 1 1.00766 0.998472
1.00607 1 1.00805 0.998039
1.02007 0.999516 1.02246 0.998142
1.06423 1.00093 1.06607 0.997343
0.874274 0.968716 0.936948 0.963244
1.01195 0.999917 1.01411 0.997947
1.00029 1.00091 1.00267 0.996729
1.0115 1.06489 0.952024 0.997734
1.01148 1.03515 0.980036 0.99704
1.00494 1.00634 1.0033 0.995332
1.00388 1.00385 1.00457 0.995484
0.951691 1.00214 0.955532 0.993857
1.00836 0.997707 1.0129 0.9978
0.986888 1.02726 0.963017 0.997589
1.00088 1.00148 1.00295 0.996465
1.00516 1.00337 1.00586 0.995949
0.995151 1.00841 0.990168 0.99665
0.881198 0.975702 0.937544 0.963306
0.868629 0.953384 0.929615 0.980084
0.955555 0.978444 0.97975 0.996791
0.655218 0.796739 0.882388 0.931986
0.561113 0.736694 0.844866 0.901519
1.00352 0.997987 1.00767 0.997889
0.689628 0.816371 0.903021 0.93547
0.606707 0.756224 0.884263 0.907292
0.985839 1.00558 0.982589 0.997743
1.00902 1.00154 1.01029 0.99721
1.01444 1.00591 1.01134 0.997169
0.942687 0.965709 0.978865 0.997237
0.848743 0.945375 0.929214 0.966176
0.833677 0.921935 0.924755 0.977846
0.641405 0.785176 0.871119 0.937752
0.622846 0.805134 0.857585 0.90206
1.00258 0.995093 1.00877 0.998773
1.00265 0.998043 1.00594 0.998676
1.01461 0.999579 1.01622 0.998837
0.998608 1 1 0.998608
0.998327 1 1.00022 0.998107
1.00603 1 1.00802 0.998025
1.00231 1 1.00424 0.998074
0.998636 1 1 0.998636
0.998544 1 1.00005 0.998497
1.00746 1 1.00948 0.998001
1.00566 1 1.00768 0.997997
0.998564 1 1.00055 0.998011
1.00717 0.999353 1.0095 0.998341
1.00806 1 1.00985 0.998224
1.0245 0.999254 1.02681 0.998495
1.00304 1 1.00518 0.997872
0.998911 1 1.00086 0.998052
0.998777 1 1.00069 0.998092
1.0008 1 1.00256 0.998241
1.00034 1 1.00235 0.997996
1.00006 1 1.00174 0.998315
1.00597 1 1.00758 0.998403
1.01026 1 1.01218 0.998104
1.00192 1 1.00358 0.998342
1.00054 1 1.00218 0.998364
1.00004 1 1.00139 0.998659
1.00031 1 1.00211 0.998201
0.998964 1 1.00037 0.998594
0.999394 1 1 0.999394
0.999202 1 1.00071 0.99849
0.999421 1 1 0.999421
0.999996 1 1 0.999996
0.999426 1 1 0.999426
0.999999 1 1 0.999999
1 1 1 1
1 1 1 1
1 1 1 1
1 1 1 1
0.999201 1 1 0.999201
0.999887 1 1 0.999887
0.999865 1 1 0.999865
1 1 1 1
0.999806 1 1 0.999806
1 1 1 1
1 1 1 1
0.999999 1 1 0.999999
1 1 1 1
1 1 1 1
0.957197 1.01533 0.948107 0.994347
1.0798 1.11782 0.968701 0.997199
1.05014 1.07925 0.975136 0.997836
0.894502 0.970466 0.936883 0.98382
0.979564 1.02121 0.963685 0.995367
1.05941 1.09703 0.968338 0.997289
0.989542 1.03593 0.959096 0.995963
0.911419 0.975191 0.948383 0.985473
0.887309 0.976335 0.940965 0.965835
0.665386 0.803043 0.883297 0.938055
0.529084 0.694218 0.841091 0.90612
0.998795 1 1 0.998795
0.99926 1 1 0.99926
0.999203 1 1 0.999203
0.99872 1 1 0.99872
0.998986 1 1.00044 0.998548
0.998479 1 1 0.998479
0.998705 1 1.00006 0.998644
0.99879 1 1 0.99879
1.04554 1.10357 0.950055 0.99722
1.02563 1.08403 0.948751 0.997234
1.02295 1.04714 0.979872 0.996968
0.998722 1.00189 0.999974 0.996867
1.00266 1.01519 0.990897 0.99673
1.0425 1.00288 1.04231 0.997312
1.04526 1.00329 1.04521 0.996774
1.01144 1.00023 1.01415 0.997097
0.99835 1.00077 0.99894 0.998637
1.01187 1 1.01426 0.997638
0.998637 1 1 0.998637
1.00072 0.99937 1.00235 0.999002
0.996513 1.06209 0.940673 0.997426
1.00523 0.999811 1.00698 0.998452
1.008 1 1.00984 0.998176
0.995516 1.04711 0.953366 0.997231
1.00792 1.02106 0.990324 0.99678
0.977641 1.00147 0.978537 0.997616
1.0311 1.00087 1.03247 0.997806
1.05795 1.00219 1.0584 0.99739
0.967427 1.03173 0.940264 0.997244
0.994298 1.01653 0.980829 0.997248
0.97401 1.00219 0.974464 0.997352
0.974822 0.99872 0.978049 0.997977
1.00851 1 1.01063 0.997908
1.02103 1 1.02302 0.998059
1.05445 0.999689 1.0572 0.997713
0.706598 0.825316 0.912456 0.938298
0.888796 0.976076 0.939354 0.969369
1.00613 0.998211 1.0101 0.997859
1.00059 1.00132 1.0028 0.996479
0.987276 1.02795 0.962778 0.997564
0.997933 1.00982 0.991571 0.996632
1.0064 1.00474 1.00571 0.995968
0.883324 0.973523 0.939167 0.966121
0.873157 0.963915 0.923672 0.9807
0.956334 0.97731 0.981625 0.996855
0.668031 0.798314 0.891534 0.93861
0.550748 0.732852 0.839079 0.895641
1.00356 0.998908 1.00678 0.997895
0.699584 0.826782 0.903581 0.936444
0.583712 0.735156 0.878712 0.903592
0.985189 1.00667 0.980889 0.997727
1.00908 1.00221 1.00967 0.997216
1.01221 1.00394 1.01095 0.997315
0.937585 0.96011 0.978996 0.997491
0.859478 0.958626 0.931457 0.962549
0.83064 0.917511 0.923332 0.980491
0.651621 0.786591 0.885475 0.935557
0.626173 0.815472 0.852392 0.900836
1.00608 0.999257 1.00832 0.998523
0.626898 0.768489 0.899759 0.906636
0.691366 0.845618 0.894401 0.914117
0.983719 0.990164 0.994855 0.998629
1.01573 1.00249 1.01468 0.998545
0.949473 0.952896 0.999674 0.996733
0.849269 0.910078 0.950138 0.982155
0.799238 0.899348 0.925445 0.96028
0.666572 0.782687 0.909152 0.936748
0.690672 0.876215 0.869591 0.906454
1.00267 0.997908 1.00614 0.99865
1.01193 0.999972 1.01318 0.998787
1.01184 0.998752 1.01404 0.999074
0.998498 1 1 0.998498
0.998213 1 1.00015 0.99806
1.00659 1 1.00863 0.997985
1.00859 1 1.01064 0.997971
1.0078 0.999125 1.01031 0.998389
0.998679 1 1.00063 0.998048
1.00698 1 1.00883 0.998169
1.00278 1 1.00491 0.997875
1.02213 0.99784 1.02582 0.99856
1.04164 0.995985 1.04678 0.999094
1.01451 1 1.01632 0.998225
1.00121 1 1.00338 0.997836
0.998481 1 1.0004 0.998086
1.00094 1 1.00267 0.998277
1.00088 1 1.0029 0.997985
1.00094 1 1.00264 0.998296
1.00387 1 1.00535 0.998524
1.00639 1 1.00815 0.998257
1.00987 1 1.01163 0.998252
1.00509 0.998305 1.00824 0.998569
0.999859 1 1.00165 0.998212
1.00039 1.00202 1.00093 0.997446
1.00787 1 1.00993 0.99796
1.00873 1 1.01065 0.998106
1.00957 1 1.01143 0.998161
1.00349 1 1.00516 0.998342
0.999969 1 1.00135 0.99862
1.00072 1 1.00236 0.998366
0.999748 1 1.00108 0.998666
0.999357 1 1 0.999357
0.998974 1 1.00042 0.998559
0.999397 1 1 0.999397
0.999983 1 1 0.999983
0.999423 1 1 0.999423
0.999993 1 1 0.999993
1 1 1 1
0.999999 1 1 0.999999
1 1 1 1
1 1 1 1
0.99919 1 1 0.99919
0.99985 1 1 0.99985
0.999204 1 1 0.999204
1 1 1 1
0.999887 1 1 0.999887
0.999861 1 1 0.999861
1 1 1 1
1 1 1 1
1 1 1 1
1 1 1 1
1 1 1 1
0.689397 0.817744 0.905603 0.930924
0.590574 0.748465 0.872526 0.904324
0.893843 0.969887 0.936156 0.984446
0.979498 1.02106 0.963524 0.995612
1.05679 1.09905 0.964206 0.997246
0.900265 0.958063 0.952267 0.986774
0.987911 1.03487 0.958278 0.99619
0.898222 0.98598 0.94268 0.966388
0.653608 0.801841 0.874537 0.932076
0.539068 0.713917 0.838564 0.90045
0.921496 0.99412 0.936061 0.990263
0.872592 0.960786 0.939383 0.966811
0.647509 0.790908 0.873671 0.937071
0.621286 0.805145 0.854918 0.902596
1.00083 1 1.00252 0.998324
0.998838 1 1 0.998838
0.999258 1 1 0.999258
0.998737 1 1 0.998734
0.998964 1 1.00031 0.998654
0.999363 1 1.00119 0.998175
0.998527 1 1.00007 0.998458
0.998531 1 1.00031 0.998221
0.998624 1 1.00003 0.998593
0.998742 1 1 0.998742
0.991852 1.06181 0.936486 0.997467
0.992622 1.04439 0.953093 0.997207
1.00726 1.02249 0.988124 0.996944
0.980435 1.00177 0.981181 0.997469
1.04856 1.00359 1.04749 0.997435
1.04274 1.00191 1.04339 0.997473
1.00893 1 1.01063 0.998314
1.00446 0.999485 1.00656 0.998432
0.967014 1.03245 0.939098 0.997366
1.01077 1 1.01295 0.997853
1.02059 1 1.02261 0.998019
0.986457 1.01341 0.976147 0.997186
0.972062 1.00196 0.972638 0.997457
0.975874 0.999885 0.978011 0.99793
1.04745 0.99964 1.0503 0.99765
0.957639 1.00272 0.957497 0.99744
0.963577 0.997214 0.967981 0.998231
1.01194 0.996288 1.01758 0.998168
1.01024 1 1.0125 0.997772
1.01874 0.99997 1.02105 0.997764
1.02964 1 1.03187 0.99784
0.655443 0.78241 0.911669 0.918891
0.706947 0.823584 0.914201 0.938939
0.878282 0.974633 0.935354 0.963423
1.00266 0.998235 1.00655 0.997897
1.00889 1.00243 1.00925 0.997216
0.986475 1.0079 0.980986 0.997711
1.01034 1.00243 1.01047 0.997455
0.703509 0.821905 0.910679 0.939901
0.857843 0.955946 0.931581 0.963283
0.828239 0.914386 0.926202 0.977959
0.937992 0.957227 0.98214 0.997725
0.649389 0.792796 0.880551 0.930228
0.577672 0.730208 0.873608 0.905562
0.629951 0.816212 0.85161 0.906282
1.00537 0.998737 1.00817 0.998486
0.629359 0.768211 0.899187 0.911103
0.706648 0.861091 0.89813 0.913723
0.982045 0.98765 0.995582 0.998737
1.01532 1.00152 1.0153 0.998494
0.946821 0.951258 0.997871 0.99746
0.838043 0.914948 0.935165 0.979448
0.832021 0.915422 0.941775 0.965085
0.674976 0.794516 0.912441 0.931068
0.684267 0.868675 0.865127 0.910518
1.00749 0.997237 1.01086 0.999431
0.731247 0.868036 0.913389 0.922297
0.708563 0.867729 0.889738 0.917766
0.976229 0.958632 1.01865 0.999715
0.884419 0.912568 0.981377 0.987546
0.829193 0.887615 0.969999 0.963075
0.755532 0.868474 0.937735 0.927717
0.734675 0.918063 0.877326 0.91214
1.00962 1 1.0109 0.998736
1.01387 0.998358 1.01649 0.999059
1.02735 0.98968 1.03874 0.999354
0.998879 1 1.00084 0.998044
1.00264 1 1.00477 0.997878
1.00524 1 1.00714 0.998114
1.02047 0.996833 1.02512 0.998624
1.00184 1 1.00401 0.997836
1.01373 0.999889 1.01565 0.998215
1.04635 0.996228 1.05118 0.999173
1.04267 0.98776 1.05617 0.999446
1.04523 0.998686 1.04758 0.999068
1.00879 1 1.01069 0.998122
1.00097 1 1.003 0.997973
1.00123 1 1.00296 0.998277
1.00163 1 1.00299 0.998643
1.00925 1 1.011 0.998275
1.0045 1 1.00626 0.998255
1.00746 0.998973 1.00991 0.9986
1.004 0.999291 1.00638 0.998347
1.0152 0.996997 1.01931 0.998962
0.996849 1.00131 0.997158 0.99838
1.00048 1.00067 1.00159 0.998214
0.998641 1.00024 1.00069 0.997712
1.00545 1.00755 1.00153 0.996392
1.00462 1.0014 1.00546 0.997768
0.999618 1.00112 1.00072 0.997783
1.00798 1 1.01005 0.997957
1.01539 1 1.01747 0.997958
1.00645 1 1.00835 0.998109
1.00864 1 1.0105 0.998161
1.0014 1 1.00294 0.998467
1.00367 1 1.00534 0.998342
1.00004 1 1.00143 0.998616
0.999831 1 1.00053 0.999302
0.999471 1 1.0008 0.998672
0.999471 1 1.00011 0.999357
0.999961 1 1 0.999961
0.9994 1 1 0.9994
0.999977 1 1 0.999977
1 1 1 1
0.99999 1 1 0.99999
1 1 1 1
1 1 1 1
0.998872 1 1 0.998872
0.999782 1 1 0.999782
0.999102 1 1 0.999102
1 1 1 1
0.999856 1 1 0.999856
0.999206 1 1 0.999206
1 1 1 1
1 1 1 1
0.999887 1 1 0.999887
1 1 1 1
1 1 1 1
1 1 1 1
0.614028 0.761107 0.886895 0.909641
0.69701 0.82441 0.904317 0.934921
0.700902 0.859955 0.892622 0.91309
0.587519 0.74795 0.870008 0.902871
0.898884 0.964751 0.946844 0.984034
0.988676 1.03424 0.959374 0.99643
0.898592 0.985304 0.943538 0.966569
0.67046 0.804088 0.888901 0.938029
0.550821 0.736865 0.835506 0.894692
0.925499 0.988809 0.946177 0.989215
0.856748 0.955505 0.933846 0.960164
0.660181 0.797352 0.885634 0.934887
0.61132 0.797933 0.852194 0.899007
0.885009 0.963693 0.931773 0.985595
0.804364 0.894189 0.937687 0.959325
0.702752 0.831577 0.910891 0.927754
0.684839 0.870547 0.870435 0.903774
1.00327 1 1.00535 0.997929
1.00007 1 1.00169 0.99838
0.99888 1 1 0.99888
0.99876 1 1 0.99876
0.99856 1 1.0008 0.997757
0.998627 1 1.00039 0.998235
0.998463 1 1.00003 0.998438
0.998199 1 1 0.998199
0.998426 1 1.00016 0.998262
0.998543 1 1 0.998543
0.967923 1.03368 0.938747 0.997484
0.98056 1.01071 0.972962 0.997128
0.968037 1.00129 0.969154 0.997562
0.977479 1.00126 0.978323 0.997884
1.03897 1 1.04148 0.997586
1.0198 1 1.02186 0.997981
1.01228 1 1.01452 0.997798
1.00977 1 1.01208 0.997714
0.957847 1.00301 0.957352 0.997515
1.01594 1 1.01825 0.997728
1.02965 1 1.0319 0.997817
0.963112 0.998461 0.966302 0.998235
1.0063 0.998501 1.0097 0.998124
0.943902 0.973559 0.971713 0.997762
0.963137 0.969563 0.994132 0.999235
1.04415 0.996329 1.0497 0.998377
1.00649 1 1.00868 0.997828
1.02869 0.999948 1.0308 0.998004
0.745285 0.880209 0.913104 0.927292
0.651338 0.780797 0.909271 0.917434
0.69897 0.82018 0.912886 0.93354
1.00494 0.998773 1.00773 0.998452
1.01536 1.00025 1.01669 0.998443
0.977559 0.985107 0.993481 0.998849
0.625085 0.765031 0.896414 0.911489
0.808917 0.899181 0.937289 0.959805
0.843176 0.91205 0.942356 0.981035
0.936087 0.945289 0.992037 0.998215
0.686616 0.808153 0.906577 0.937163
0.716092 0.86932 0.901661 0.913578
0.684904 0.867492 0.866689 0.910963
1.00602 0.997448 1.00922 0.999376
0.731434 0.869234 0.910475 0.92421
0.706682 0.865045 0.889892 0.918012
0.977921 0.962841 1.01616 0.999514
0.897787 0.925107 0.982815 0.987438
0.799961 0.883187 0.945676 0.957798
0.730241 0.914515 0.875603 0.911944
0.773005 0.87364 0.95093 0.930469
0.996804 0.966502 1.03165 0.999711
0.719933 0.858766 0.902638 0.92876
0.746531 0.902859 0.897182 0.92161
0.682493 0.868846 0.86893 0.904006
0.93862 0.929378 1.01328 0.996711
0.883561 0.917209 0.99859 0.964675
0.829371 0.929425 0.955161 0.934238
1.01645 0.997881 1.01958 0.999043
1.02879 0.99238 1.03744 0.99927
1.03525 0.981425 1.05531 0.999566
1.00223 1 1.0044 0.997837
1.01162 0.999707 1.01374 0.998205
1.05069 0.995503 1.05623 0.999251
1.00929 1 1.01118 0.998129
1.04507 0.998427 1.04768 0.999079
1.04834 0.988048 1.06164 0.999421
1.03805 0.983518 1.05599 0.999489
1.02904 0.997281 1.03282 0.999058
1.00831 1 1.01002 0.998301
1.00393 1 1.00569 0.998253
1.0102 0.999503 1.01209 0.998633
1.01471 0.997798 1.01804 0.998933
1.00421 0.999531 1.00633 0.998357
1.00352 0.999463 1.00524 0.998827
0.997211 0.999995 0.998509 0.998704
1.00456 1.00024 1.00715 0.997188
1.00087 1.00141 1.00123 0.998226
1.00001 1.00188 1.00054 0.997594
1.00162 1.00337 1.00224 0.996024
1.01802 1.02095 1.00129 0.995844
1.00616 1.00608 1.00276 0.997327
1.00307 1.00525 1.00138 0.996458
1.01266 1.00014 1.01486 0.997689
1.00595 1.00221 1.00596 0.997788
0.998874 1.00026 1.0005 0.998116
1.00829 1 1.01036 0.997954
1.01416 1 1.01621 0.997988
1.00742 1 1.00916 0.998275
1.00838 1 1.01024 0.998162
1.00158 1 1.00311 0.998466
1.00003 1 1.00085 0.999187
0.999932 1 1.00132 0.998613
0.999805 1 1.00051 0.999299
0.999942 1 1 0.999942
0.999642 1 1.00028 0.999358
0.999955 1 1 0.999955
1 1 1 1
0.99997 1 1 0.99997
1 1 1 1
1 1 1 1
0.99856 1 1 0.99856
0.999527 1 1 0.999527
0.99887 1 1 0.99887
1 1 1 1
0.999719 1 1 0.999719
0.999015 1 1 0.999015
1 1 1 1
1 1 1 1
0.999861 1 1 0.999861
1 1 1 1
1 1 1 1
1 1 1 1
0.73724 0.882736 0.905421 0.922418
0.621559 0.762413 0.89165 0.914319
0.686863 0.817851 0.899164 0.934022
0.998092 1 1 0.998092
0.711378 0.863468 0.89427 0.921266
0.700355 0.859601 0.89247 0.912909
0.600058 0.762841 0.866791 0.907497
0.935339 0.992909 0.953481 0.987979
0.851228 0.943804 0.933619 0.966038
0.662242 0.81212 0.877511 0.929275
0.600996 0.779002 0.855037 0.902294
0.882371 0.959355 0.936414 0.982209
0.826684 0.908231 0.943642 0.964575
0.692158 0.812534 0.917325 0.928624
0.684284 0.868754 0.870258 0.905089
0.825634 0.905391 0.932248 0.978183
0.805822 0.876696 0.956394 0.961066
0.784284 0.880712 0.956081 0.931418
0.734479 0.915214 0.879845 0.912117
1.00148 1 1.00371 0.997778
1.00424 1 1.00636 0.99789
0.99966 1 1.00123 0.998437
0.998257 1 1.00034 0.997922
0.998764 1 1.00093 0.997837
0.998457 1 1.00016 0.998296
0.998231 1 1.00003 0.9982
0.998391 1 1.00009 0.998303
0.958269 1.00368 0.957083 0.99757
0.963806 1.00106 0.964478 0.998247
1.0093 1 1.01168 0.997654
1.00006 1.00038 1.00161 0.998079
1.03059 1 1.03287 0.997794
1.01563 1 1.01798 0.997693
1.00865 1 1.01085 0.997822
0.944345 0.971337 0.974242 0.997915
1.02584 0.999985 1.0279 0.998009
1.03315 0.997897 1.03697 0.998422
0.964964 0.973921 0.991514 0.999283
1.00864 1 1.01059 0.998065
0.930258 0.945305 0.986732 0.997314
0.9959 0.971708 1.02543 0.999476
1.06376 0.996427 1.06914 0.998536
1.03959 0.99833 1.0432 0.998211
0.724227 0.857797 0.90515 0.93276
0.744881 0.880257 0.913172 0.926668
0.64843 0.778329 0.909568 0.915936
1.00341 0.997764 1.00634 0.999322
0.980764 0.966201 1.01577 0.999316
0.734839 0.873515 0.908425 0.926047
0.820768 0.874761 0.97312 0.964195
0.886194 0.923426 0.975767 0.983514
0.764291 0.865787 0.950692 0.928555
0.707237 0.865534 0.889907 0.918199
0.728884 0.913524 0.875116 0.911744
1.0038 0.976542 1.02825 0.999669
0.721375 0.860557 0.902566 0.928759
0.749249 0.901574 0.899548 0.923848
0.952922 0.939211 1.0156 0.999017
0.682198 0.867208 0.869021 0.905226
0.850701 0.89526 0.988601 0.961185
0.828302 0.925427 0.958516 0.933786
0.994728 0.963554 1.03268 0.999681
0.755656 0.891906 0.908262 0.932811
0.71064 0.860349 0.896049 0.921814
0.618839 0.803365 0.853288 0.902753
0.780223 0.878331 0.954373 0.930769
0.932422 0.933795 1.00638 0.992196
0.891309 0.917581 1.01587 0.95619
1.0288 0.99582 1.03396 0.999188
1.03326 0.978249 1.05672 0.999534
1.02006 0.961588 1.06125 0.999582
1.01105 1 1.01294 0.998136
1.04814 0.997693 1.05152 0.999091
1.05685 0.989115 1.06912 0.999396
1.02471 0.997661 1.02809 0.999045
1.03638 0.985862 1.05179 0.999488
1.0064 0.98442 1.02311 0.999235
1.01476 0.99866 1.01723 0.998903
1.00431 0.999515 1.00644 0.998369
1.00646 0.999522 1.00815 0.998803
1.01356 0.99789 1.01768 0.998059
0.997867 0.998838 1 0.999028
1.00059 1.00025 1.00293 0.997418
1.00671 1.00208 1.00923 0.995432
1.00579 1.00783 1.00282 0.99517
1.00141 1.00363 1.00031 0.997469
1.00183 1.00403 1.00201 0.995799
1.01991 1.02357 1.00053 0.9959
1.01511 1.01595 1.00261 0.99657
1.01632 1.01916 1.00125 0.995957
1.00961 1.00252 1.00962 0.997479
1.00896 1.00833 1.00335 0.997287
0.999952 1.00216 1.00128 0.996527
1.01371 1 1.01569 0.998051
1.01206 1.00025 1.01412 0.99772
1.00733 1.00302 1.0065 0.997807
1.0129 1 1.01492 0.998019
1.00723 1 1.00897 0.998276
1.00145 1 1.00246 0.998994
1.00206 1 1.0036 0.998466
1.00032 1 1.00114 0.999182
0.999922 1 1 0.999922
0.99987 1 1.00058 0.999295
0.999938 1 1 0.999938
1 1 1 1
0.99995 1 1 0.99995
1 1 1 1
1 1 1 1
0.998469 1 1 0.998469
0.99932 1 1 0.99932
0.998619 1 1 0.998619
0.999997 1 1 0.999997
0.999505 1 1 0.999505
0.998867 1 1 0.998867
1 1 1 1
1 1 1 1
0.999657 1 1 0.999657
1 1 1 1
1 1 1 1
1 1 1 1
0.72684 0.862592 0.904717 0.931367
0.738483 0.881191 0.908509 0.922446
0.622721 0.761109 0.894741 0.914428
0.998352 1 1.00022 0.998132
1.00139 1 1.00337 0.998027
0.998084 1 1 0.998084
0.749065 0.905571 0.897968 0.921163
0.709173 0.86399 0.890736 0.921498
0.698255 0.859544 0.889993 0.912765
0.889381 0.967497 0.933882 0.984342
0.793323 0.893532 0.925555 0.959264
0.696037 0.801817 0.926831 0.936604
0.689235 0.875549 0.87211 0.902642
0.830377 0.911907 0.927986 0.981258
0.823652 0.88705 0.966334 0.960878
0.771873 0.869591 0.952206 0.93218
0.730941 0.913993 0.877069 0.911813
0.846134 0.906272 0.95409 0.978568
0.856598 0.9004 0.988513 0.962407
0.82949 0.926155 0.958253 0.934646
0.694825 0.879025 0.871817 0.90667
0.999042 1 1.00105 0.99799
1.00167 1 1.00395 0.997733
1.00366 1 1.00582 0.997851
0.99811 1 1.0002 0.997906
0.998553 1 1.00064 0.997918
0.9982 1 1 0.9982
0.941092 0.964826 0.97728 0.998077
0.965414 0.974303 0.991563 0.999307
1.00913 1 1.01134 0.997817
1.0255 0.999549 1.02754 0.998466
1.02344 1 1.02547 0.998013
1.00956 0.999696 1.01181 0.998083
1.02917 0.994358 1.03682 0.998248
0.936109 0.944021 0.994187 0.997417
1.05836 0.993913 1.06626 0.998678
0.998901 0.964355 1.03656 0.999288
1.0175 0.992079 1.02725 0.998418
0.962347 0.945847 1.02054 0.996966
1.01258 0.96765 1.04728 0.999183
1.03273 0.970443 1.06547 0.998792
0.771899 0.901835 0.915647 0.934772
0.728603 0.860087 0.90781 0.933154
0.743785 0.880334 0.912356 0.926052
1.01108 0.986099 1.02571 0.999627
0.942041 0.937563 1.00754 0.99726
0.721829 0.860893 0.902781 0.928759
0.848098 0.8821 0.99585 0.965459
0.823063 0.927813 0.954421 0.929463
0.750755 0.901481 0.899279 0.926077
0.689273 0.874681 0.872744 0.902931
0.989656 0.959163 1.03205 0.999748
0.754511 0.888901 0.909116 0.933669
0.713369 0.866397 0.892966 0.922067
0.927884 0.929871 1.01027 0.987717
0.608961 0.794923 0.851793 0.899354
0.770002 0.868472 0.952162 0.931162
0.89047 0.918274 1.00671 0.963255
1.00752 0.951319 1.06102 0.998168
0.727815 0.860707 0.907597 0.931693
0.712356 0.867572 0.898628 0.913717
0.531589 0.693795 0.844845 0.906919
0.690532 0.82088 0.906991 0.927472
0.862412 0.899091 0.997417 0.961688
0.900668 0.919303 0.995492 0.984166
1.02862 0.976418 1.05399 0.999501
1.02872 0.973816 1.05682 0.999581
1.01013 0.974873 1.03672 0.999466
1.01813 0.998174 1.02098 0.999032
1.03305 0.988519 1.04559 0.999487
1.01011 0.980193 1.03122 0.999319
1.0077 0.994841 1.01418 0.998762
1.00984 0.999787 1.01129 0.998778
1.01091 0.999006 1.01417 0.997776
1.02392 1.00072 1.02739 0.9959
0.996566 0.999866 0.999046 0.997652
1.00787 1.00179 1.01062 0.9955
1.00719 1.00289 1.00977 0.994574
1.01004 1.01339 1.00191 0.994802
1.01183 1.01526 1.00108 0.995551
1.00581 1.00764 1.00308 0.995111
1.00178 1.00454 1.00168 0.995576
1.01603 1.01875 1.0011 0.996233
1.02143 1.02505 1.00048 0.995995
1.0086 1.00703 1.00464 0.996939
1.01726 1.01789 1.00274 0.996655
1.01606 1.01887 1.00117 0.996071
1.01379 1.00089 1.01519 0.997739
1.0107 1.00378 1.00945 0.997469
1.0119 1.01082 1.00383 0.997246
1.00696 1 1.00819 0.998773
1.01232 1 1.0143 0.998049
1.01176 1.00048 1.01356 0.99775
1.00679 1 1.00853 0.998278
1.00181 1 1.00283 0.998991
0.99987 1 1 0.99987
1.0002 1 1.00103 0.999177
0.999913 1 1 0.999913
1 1 1 1
0.999933 1 1 0.999933
1 1 1 1
1 1 1 1
0.998399 1 1 0.998399
0.999272 1 1 0.999272
0.998498 1 1 0.998498
0.999982 1 1 0.999982
0.999369 1 1 0.999369
0.998678 1 1 0.998678
1 1 1 1
0.999998 1 1 0.999998
0.999482 1 1 0.999482
1 1 1 1
1 1 1 1
1 1 1 1
0.75323 0.890192 0.907545 0.932344
0.73192 0.863805 0.90975 0.931378
0.740791 0.88002 0.912492 0.922517
1.01489 1 1.01703 0.997894
1.00534 1.00009 1.00741 0.997855
0.998174 1 1 0.998174
1.00166 1 1.00367 0.998006
0.998101 1 1 0.998101
1.00283 1 1.00479 0.99805
0.99788 0.999686 1 0.998194
0.713772 0.874386 0.889479 0.917743
0.752438 0.904173 0.901181 0.923436
0.712254 0.86213 0.896307 0.921734
0.729326 0.913768 0.875626 0.911521
0.832618 0.91569 0.929212 0.978549
0.826334 0.883624 0.973717 0.960406
0.779557 0.883839 0.942742 0.935583
0.830339 0.906731 0.936827 0.977503
0.857959 0.894134 1.00285 0.956813
0.826486 0.923345 0.957846 0.934492
0.686762 0.871595 0.865198 0.910702
0.880972 0.91898 0.977476 0.980731
0.873865 0.904346 1.01009 0.956646
0.759427 0.871685 0.938556 0.928253
0.62602 0.809816 0.857021 0.902007
1.03358 0.999141 1.03615 0.998375
1.00047 0.999861 1.00259 0.998021
1.00253 1 1.00486 0.997687
0.997891 1 1 0.997891
0.9457 0.946821 1.00127 0.997546
0.999791 0.960319 1.04205 0.999092
1.0093 0.999277 1.01195 0.998101
1.02149 0.993767 1.02966 0.998286
1.0461 0.986473 1.06169 0.998821
1.01914 0.99673 1.0241 0.99842
1.03843 0.970461 1.07135 0.998779
0.96141 0.944806 1.02246 0.995217
1.01223 0.959266 1.05591 0.999345
1.01199 0.976192 1.03781 0.998906
0.947692 0.922226 1.03349 0.994314
0.995626 0.944704 1.05468 0.999266
0.727767 0.857756 0.909277 0.933109
0.768496 0.898433 0.913141 0.936738
0.734304 0.862582 0.91189 0.933541
0.984139 0.952219 1.03372 0.999805
0.934053 0.933731 1.00773 0.992668
0.751789 0.885284 0.908688 0.934541
0.897702 0.925057 1.01391 0.957119
0.772617 0.87819 0.941265 0.934682
0.718863 0.868509 0.897439 0.922289
0.59993 0.775916 0.856664 0.902559
1.00758 0.952758 1.05921 0.99842
0.732143 0.866191 0.907192 0.931714
0.705214 0.860447 0.897148 0.913552
0.902643 0.91952 0.994637 0.986939
0.542212 0.715222 0.841101 0.901322
0.682467 0.803746 0.914993 0.927994
0.858454 0.896683 0.999998 0.957369
0.991723 0.954302 1.04332 0.996063
0.7413 0.887403 0.905297 0.922747
0.589337 0.744195 0.87485 0.905198
0.64796 0.79096 0.873507 0.937838
0.802719 0.862766 0.966671 0.962481
0.854526 0.89371 0.976186 0.979481
1.0372 0.979143 1.05972 0.99959
1.01294 0.971358 1.04336 0.999475
0.980046 0.971297 1.00978 0.999235
1.01427 0.975831 1.04001 0.999402
1.0055 0.984997 1.02197 0.998873
1.00727 1.0008 1.00887 0.997614
1.00749 1.00003 1.01 0.997495
1.02339 1.00088 1.02686 0.995735
1.0115 1.00173 1.01502 0.994806
1.00937 1.00186 1.01198 0.995568
1.00794 1.00279 1.01072 0.99448
1.00256 1.00374 1.00448 0.994368
1.03984 1.04496 1 0.995095
1.02209 1.02629 1.00077 0.995149
1.01027 1.0134 1.00218 0.994744
1.01339 1.01747 1.00013 0.995858
1.00989 1.01358 1.00074 0.995614
1.00585 1.00735 1.00347 0.995052
1.01463 1.01726 1.00112 0.996295
1.01546 1.01822 1.00108 0.996205
1.02227 1.02584 1.00043 0.99609
1.00789 1.00248 1.00811 0.997303
1.00937 1.00757 1.00476 0.997038
1.01835 1.01875 1.00288 0.996742
1.01114 1 1.01272 0.998446
1.01312 1.00123 1.01416 0.997746
1.01173 1.00527 1.00898 0.997459
1.00047 1 1.00069 0.999782
1.00668 1 1.00792 0.998768
1.0111 1 1.01308 0.998048
1.00233 1 1.00335 0.998987
0.999918 1 1.00006 0.999857
1 1 1 1
0.999905 1 1 0.999905
1 1 1 1
1 1 1 1
1.01201 1 1.01413 0.997904
1.00489 1 1.00671 0.99819
0.999088 1 1 0.999088
0.999106 1 1.00071 0.998394
0.999953 1 1 0.999953
0.999275 1 1 0.999275
0.998527 1 1 0.998527
1 1 1 1
0.999987 1 1 0.999987
0.999417 1 1 0.999417
1 1 1 1
1 1 1 1
1 1 1 1
0.72309 0.86082 0.904373 0.928822
0.74921 0.886237 0.905871 0.933227
0.732254 0.867313 0.906481 0.931381
1.01683 1 1.01897 0.997899
1.00767 1.00056 1.00924 0.997878
1.00079 1.00064 1.00243 0.997724
1.0169 1 1.01906 0.99788
1.00835 1.00149 1.009 0.997868
1.00367 1 1.00569 0.997985
0.998558 1 1.00044 0.998118
1.00283 0.999916 1.00487 0.998055
0.99831 1 1.00008 0.998231
1.02017 1 1.02193 0.998274
0.693809 0.849984 0.89313 0.913933
0.711801 0.86966 0.891551 0.918043
0.752456 0.903845 0.899329 0.925696
0.686274 0.871242 0.864514 0.911143
0.824074 0.925421 0.957598 0.929916
0.826241 0.901275 0.939398 0.975887
0.863306 0.896101 1.00165 0.961814
0.870875 0.920484 0.968461 0.976917
0.878434 0.916354 0.996408 0.962075
0.776137 0.87349 0.953787 0.931599
0.629147 0.819541 0.85232 0.900697
0.889148 0.911257 0.996009 0.979648
0.864821 0.891016 1.00807 0.96283
0.67531 0.788289 0.914765 0.936501
0.573395 0.742731 0.851494 0.906652
1.02933 0.999557 1.03088 0.998932
1.03365 0.998867 1.0365 0.998384
1.00332 1 1.00528 0.998054
0.960982 0.94401 1.02477 0.993373
1.01364 0.953674 1.06342 0.999498
1.02023 0.999133 1.02273 0.998422
1.047 0.96936 1.08143 0.998767
1.01584 0.980832 1.03682 0.998912
1.00207 0.953425 1.05179 0.999268
0.948144 0.926016 1.02978 0.994282
1.01063 0.985616 1.02605 0.999345
0.961642 0.947148 1.02004 0.995354
0.748704 0.882805 0.915088 0.926792
0.735769 0.863817 0.912453 0.933489
0.764018 0.894698 0.909673 0.938732
1.01001 0.962308 1.05102 0.99862
0.898013 0.918325 0.995723 0.982082
0.73943 0.872436 0.909652 0.931726
0.862079 0.899283 0.999489 0.959119
0.683471 0.790792 0.923623 0.935758
0.695332 0.855007 0.890294 0.913458
0.552101 0.736779 0.836678 0.895618
0.989226 0.953462 1.04129 0.996371
0.739933 0.88162 0.909561 0.922739
0.5883 0.746126 0.872426 0.90377
0.867806 0.907349 0.974749 0.981195
0.659829 0.797449 0.884511 0.93546
0.801921 0.87515 0.955292 0.959208
0.941183 0.939749 1.0073 0.99427
0.616182 0.762051 0.88828 0.91028
0.667281 0.80415 0.883918 0.938771
0.803283 0.895525 0.934931 0.959426
0.829358 0.89612 0.942348 0.982121
1.01414 0.969937 1.04611 0.999486
0.983659 0.966078 1.01901 0.999207
0.992304 0.987631 1.00634 0.998405
1.00322 0.973504 1.03158 0.998979
1.00448 0.999359 1.00744 0.99771
0.996547 1.00314 0.996899 0.99652
1.02294 1.00083 1.02664 0.995565
1.01026 1.00218 1.01333 0.994802
1.00047 1.00389 1.00137 0.995232
1.00811 1.00251 1.01125 0.994387
1.00254 1.00447 1.0037 0.994408
1.03551 1.04056 0.999793 0.995354
1.06668 1.0724 0.998792 0.995865
1.05185 1.05691 1.00002 0.995195
1.04015 1.04524 1 0.995128
1.02877 1.03348 1 0.995444
1.02096 1.0249 1.00107 0.99509
1.01126 1.0142 1.00244 0.994686
1.02186 1.02599 1 0.995974
1.01188 1.01599 1.00002 0.995929
1.00773 1.01178 1.00032 0.995678
1.00648 1.00766 1.00208 0.996755
1.01136 1.01374 1.00131 0.996352
1.01571 1.0185 1.0011 0.996176
1.01143 1.00024 1.01326 0.997957
1.01016 1.00397 1.00889 0.997302
1.00991 1.00795 1.00482 0.997137
1.0026 1 1.00294 0.999663
1.01086 1.00012 1.01232 0.998442
1.01278 1.00152 1.01353 0.997754
0.999955 1 1 0.999955
1.00123 1 1.00146 0.999769
1.00664 1 1.00788 0.998764
1.00014 1 1.00029 0.999844
1 1 1 1
1 1 1 1
1.00855 1.00186 1.00897 0.997729
1.01111 1 1.01315 0.997986
1.01383 1 1.01598 0.997878
1.00093 1 1.00204 0.998886
1.00402 1 1.00585 0.998185
0.999912 1 1 0.999912
0.999263 1 1.00017 0.999093
0.999172 1 1.00078 0.998389
1 1 1 1
0.999963 1 1 0.999963
0.999277 1 1 0.999277
1 1 1 1
0.999993 1 1 0.999993
1 1 1 1
0.731733 0.871436 0.906037 0.926768
0.727043 0.864422 0.905514 0.928837
0.750177 0.881211 0.911357 0.934104
1.00123 1.00318 1.00045 0.997615
1.01449 1 1.01662 0.997905
1.00479 1 1.0069 0.997905
1.01076 1 1.01294 0.99784
1.00161 1.00143 1.00243 0.997755
1.00429 1.00006 1.00617 0.99806
1.01448 1.00129 1.01596 0.997244
1.01832 0.998834 1.02146 0.998081
1.00315 0.999862 1.00524 0.998059
0.998267 1 1 0.998267
1.02169 0.999648 1.02383 0.998258
1.03837 1.00165 1.03823 0.998481
0.606599 0.75649 0.884197 0.906879
0.708069 0.864494 0.896559 0.913554
0.712305 0.868307 0.893346 0.918274
0.632149 0.820167 0.850675 0.906053
0.769087 0.868891 0.951553 0.930202
0.877029 0.907775 1.00981 0.956741
0.872714 0.916895 0.973576 0.977648
0.888349 0.912104 0.991967 0.981843
0.563236 0.738796 0.846102 0.901037
0.854349 0.893777 0.997503 0.958278
0.682607 0.799233 0.917708 0.930664
0.886728 0.918899 0.980908 0.983771
0.829579 0.884832 0.971977 0.964586
0.648676 0.789357 0.877542 0.936454
0.991557 1.00113 0.99091 0.999527
1.03062 1.00032 1.03139 0.998938
1.03303 0.999494 1.03522 0.998391
0.95091 0.93032 1.02797 0.994317
1.00964 0.963679 1.04846 0.999273
1.02111 0.988279 1.03434 0.998919
1.00833 0.983999 1.0254 0.999344
0.957645 0.946188 1.01678 0.995406
0.983544 0.979228 1.00741 0.997019
0.653439 0.780382 0.915319 0.914798
0.744706 0.880885 0.910172 0.928843
0.738772 0.86791 0.911522 0.933831
0.990204 0.953531 1.04204 0.996561
0.861291 0.905557 0.968471 0.982081
0.73698 0.875586 0.91209 0.922824
0.817631 0.873278 0.975801 0.959496
0.663658 0.814014 0.876625 0.930034
0.603711 0.763092 0.871029 0.908278
0.938868 0.932479 1.0126 0.99432
0.62386 0.763253 0.893432 0.914866
0.655903 0.8021 0.876639 0.932802
0.825544 0.899696 0.938123 0.978103
0.827873 0.9128 0.940184 0.964662
0.932818 0.950378 0.984122 0.99736
0.68842 0.81495 0.907052 0.931301
0.874857 0.963627 0.939079 0.966776
0.826742 0.91184 0.927281 0.977778
0.986854 0.961938 1.02674 0.999184
0.981692 0.987219 0.995905 0.99849
0.993492 1.00048 0.995631 0.997376
1.00177 0.99831 1.00568 0.997805
0.998337 1.00318 0.99869 0.996482
1.0008 1.00674 0.997706 0.996387
1.00967 1.00311 1.01181 0.994799
1.00031 1.00343 1.00167 0.995233
1.03368 1.04288 0.994837 0.99632
1.00262 1.00502 1.00319 0.994448
1.03398 1.03926 0.99955 0.995362
1.06496 1.07405 0.994997 0.996527
1.06279 1.0711 0.995587 0.996637
1.06836 1.07325 0.99966 0.995777
1.06796 1.07372 0.998717 0.995915
1.05576 1.06061 1 0.995427
1.04982 1.05481 1 0.99527
1.03919 1.04424 1 0.995161
1.04111 1.04559 1 0.995717
1.02963 1.03418 1.00014 0.995465
1.01967 1.02325 1.00148 0.99503
1.01934 1.02314 1 0.996287
1.01959 1.02372 1 0.995972
1.01009 1.01415 1 0.996
1.00545 1.00213 1.00586 0.997473
1.00897 1.0099 1.00234 0.996746
1.00806 1.00996 1.00172 0.99641
1.00374 1 1.00433 0.99941
1.01 1.00094 1.01112 0.997953
1.01192 1.00574 1.00887 0.9973
1 1 1 1
1.00314 1 1.00354 0.999605
1.00962 1.00003 1.01117 0.998438
1 1 1 1
1.00175 1 1.00201 0.999745
1 1 1 1
1.00348 1.00414 1.00185 0.997505
1.00696 1.00107 1.00821 0.997696
1.01154 1.00008 1.01367 0.997819
1.00596 1 1.00728 0.998685
1.01281 1 1.01486 0.997983
1.01837 1 1.02057 0.997851
0.99985 1 1 0.99985
1.00037 1 1.00148 0.998892
1.00476 1 1.0066 0.99818
1 1 1 1
0.999924 1 1 0.999924
0.999229 1 1.00013 0.999098
1 1 1 1
0.999971 1 1 0.999971
1 1 1 1
0.626313 0.768012 0.898541 0.907582
0.736023 0.876071 0.90646 0.926838
0.731213 0.868693 0.906205 0.928862
1.00493 1.00185 1.0055 0.997584
1.01154 1.00624 1.00812 0.997175
1.01562 1.00203 1.01617 0.997425
1.01023 1 1.01245 0.9978
1.00317 1.00338 1.00201 0.997785
1.00533 1 1.0071 0.998246
1.01806 0.999659 1.02045 0.998001
1.01534 1.00209 1.01586 0.997395
1.01866 1.00218 1.01901 0.997488
0.978433 1.00171 0.977775 0.998965
1.02081 0.999865 1.02274 0.998241
1.03311 1.00051 1.03419 0.998449
0.664457 0.802936 0.890504 0.929288
0.584398 0.735878 0.879234 0.903229
0.717381 0.872658 0.899984 0.913421
0.554325 0.735964 0.841344 0.89523
0.694824 0.810652 0.915027 0.936713
0.842296 0.886922 0.989454 0.959807
0.889009 0.912313 0.995497 0.978864
0.873374 0.910273 0.97802 0.981026
0.657577 0.789386 0.891372 0.934542
0.809674 0.877789 0.961068 0.959769
0.851223 0.913632 0.947855 0.982948
0.799637 0.907288 0.917939 0.96014
0.996907 1 0.99787 0.999035
0.991508 1.0006 0.991433 0.999475
1.03179 0.999698 1.03319 0.998944
0.948804 0.940555 1.01336 0.995473
1.00412 0.980692 1.02457 0.999344
0.985251 0.981717 1.00664 0.996975
0.96779 0.986978 0.984666 0.995828
0.709332 0.827404 0.913936 0.93803
0.648903 0.777586 0.912163 0.914869
0.747231 0.883194 0.908945 0.93081
0.941095 0.938775 1.00798 0.994534
0.828516 0.896822 0.944159 0.978474
0.62501 0.762838 0.895523 0.914909
0.793923 0.896924 0.922275 0.959758
0.671839 0.803977 0.890132 0.938788
0.934166 0.954359 0.98288 0.995891
0.699101 0.824706 0.906309 0.935328
0.858997 0.957361 0.934146 0.960508
0.827169 0.912222 0.924695 0.980607
0.943881 0.97671 0.969201 0.997098
0.890767 0.976828 0.944011 0.965982
0.882857 0.962894 0.931802 0.983984
0.971015 0.985701 0.986525 0.998556
0.987617 1.0004 0.989854 0.997343
0.984081 1.00911 0.977984 0.997147
0.999543 1.00294 1.00017 0.996446
1.00048 1.0065 0.99763 0.996377
1.0248 1.0486 0.980175 0.997076
0.999795 1.00271 1.00186 0.995234
1.03108 1.04163 0.99355 0.996295
1.04835 1.07352 0.979344 0.997144
1.03322 1.03874 0.999307 0.99537
1.06333 1.07341 0.994079 0.996516
1.05345 1.0718 0.985694 0.997146
1.05704 1.06994 0.990888 0.997029
1.06343 1.07227 0.995028 0.996714
1.06243 1.06797 0.998319 0.996487
1.06946 1.07393 1 0.995838
1.0686 1.07338 0.99974 0.995806
1.07002 1.07586 0.998602 0.995966
1.05898 1.06363 1 0.995628
1.05733 1.06216 1 0.995452
1.04806 1.05296 1 0.995344
1.04071 1.0449 1 0.995983
1.0414 1.04588 1 0.995715
1.03062 1.03511 1.00017 0.995486
1.00492 1.00733 1.00052 0.997084
1.01995 1.02375 1 0.996288
1.01782 1.02194 1 0.99597
1.00283 1 1.00374 0.999092
1.00705 1.00362 1.00597 0.997469
1.01143 1.01171 1.003 0.996738
1 1 1 1
1.00394 1 1.00455 0.999385
1.00982 1.00171 1.01016 0.99795
0.999965 1 1 0.999965
1.00407 1 1.00448 0.999593
1 1 1 1
1.0029 1.00561 1.00002 0.997281
1.00245 1.00204 1.00289 0.997518
1.00598 1.00045 1.00789 0.997652
1.00392 1 1.00628 0.997663
1.01149 1.00017 1.01352 0.997822
1.01007 1 1.01161 0.998472
1.00068 1 1.00093 0.999758
1.00475 1 1.00607 0.998685
1.01227 1 1.01432 0.99798
1 1 1 1
0.999867 1 1 0.999867
0.999797 1 1.0009 0.998897
1 1 1 1
0.999937 1 1 0.999937
1 1 1 1
0.689355 0.816815 0.902504 0.935125
0.628394 0.767687 0.900255 0.909248
0.737344 0.878185 0.905823 0.926916
1.00779 1.00074 1.00951 0.997553
1.01952 1.00138 1.02098 0.997195
1.0087 1.00541 1.00606 0.997234
1.00828 1.00975 1.00233 0.996218
1.01895 1.00323 1.01829 0.997427
1.016 1 1.01811 0.997927
1.0141 1.00183 1.01474 0.997545
1.01955 1.00195 1.02 0.997604
0.999623 1.00612 0.996308 0.997222
0.969784 1.0012 0.970116 0.998459
0.970748 1.00035 0.972674 0.99767
0.983283 1.00154 0.982762 0.998987
1.02884 1.001 1.02944 0.998418
0.853757 0.948219 0.933753 0.964259
0.655954 0.796368 0.884427 0.931318
0.577608 0.729884 0.874321 0.905124
0.657178 0.798612 0.885561 0.929242
0.81539 0.884883 0.958538 0.961325
0.880181 0.908587 0.984685 0.983804
0.849687 0.911448 0.946461 0.984973
0.836978 0.91866 0.943269 0.965881
0.870357 0.955291 0.925866 0.984042
0.991765 1.00132 0.992227 0.998218
0.997145 0.999955 0.998178 0.99901
0.991345 1.00029 0.991628 0.999424
0.988739 0.986038 1.00577 0.99699
0.975866 0.989633 0.989695 0.996356
0.876196 0.966425 0.94125 0.963226
0.710276 0.825936 0.915975 0.938851
0.642949 0.772502 0.909612 0.914999
0.937035 0.961258 0.980364 0.994325
0.834829 0.923781 0.924004 0.978035
0.69113 0.819646 0.902345 0.93446
0.85489 0.947172 0.934278 0.966062
0.952135 0.977962 0.976325 0.9972
0.900282 0.98615 0.944807 0.966257
0.880184 0.959606 0.934944 0.981059
0.952558 1.00224 0.953761 0.996511
0.918591 0.99038 0.937896 0.988931
0.98584 1.00218 0.986325 0.997339
0.979157 1.00899 0.973253 0.997101
0.988671 1.04218 0.951074 0.997455
0.999891 1.00616 0.997395 0.996366
1.02754 1.05015 0.981373 0.997043
1.04219 1.07937 0.968021 0.997451
1.02828 1.04024 0.992209 0.996271
1.04856 1.0736 0.979499 0.997117
1.04115 1.07203 0.973749 0.997378
1.06094 1.072 0.993155 0.996506
1.05312 1.07131 0.985856 0.997123
1.05243 1.07394 0.982704 0.997224
1.05544 1.06934 0.989888 0.997087
1.05717 1.06852 0.992518 0.996839
1.06371 1.07303 0.994505 0.996792
1.06252 1.06792 0.998452 0.996479
1.06332 1.06778 0.999573 0.996248
1.06673 1.07122 1 0.995806
1.06932 1.0738 1 0.995826
1.06876 1.07339 0.999851 0.995834
1.05563 1.06005 1 0.995828
1.06013 1.06479 1 0.995624
1.05909 1.0639 1 0.995478
1.01644 1.01973 1 0.996779
1.03924 1.04343 1 0.995986
1.0412 1.04568 1 0.995713
1.00053 1 1.0018 0.99873
1.00858 1.01072 1.00081 0.997086
1.02061 1.02441 1 0.996289
1 1 1 1
1.00229 1 1.00323 0.999066
1.00846 1.00545 1.00555 0.997466
1 1 1 1
1.0037 1 1.00434 0.99936
1 1 1 1
1.01782 1.02081 1.00073 0.996341
1.00459 1.00707 1.00028 0.997268
1.00247 1.00246 1.00266 0.99735
1.00242 1.00006 1.00483 0.997532
1.00543 1.00019 1.00764 0.997613
1.00989 1.00063 1.01109 0.998181
1.0139 1 1.01611 0.997824
1.01105 1 1.0126 0.998469
1.00364 1 1.00402 0.999625
1 1 1 1
1.00051 1 1.00074 0.999773
1.00477 1 1.00609 0.998685
1 1 1 1
0.999881 1 1 0.999881
1 1 1 1
0.891524 0.975187 0.944357 0.968074
0.699418 0.826536 0.903864 0.936207
0.626192 0.766892 0.900467 0.906788
1.02338 1.00076 1.02572 0.996964
1.00617 1.00506 1.00382 0.997294
1.01567 1.003 1.01536 0.997308
1.0085 1.01003 1.00217 0.996321
1.02873 1.03274 1.00016 0.995956
1.00226 1.00613 0.999228 0.996927
1.02226 1.00223 1.02232 0.997716
1.00081 1.00735 0.996471 0.997028
0.977481 1.00257 0.976492 0.998442
0.996231 1.00359 0.995382 0.997277
0.972604 1.00345 0.971567 0.997626
0.99289 1.00156 0.994157 0.997171
0.971129 1.00082 0.972502 0.997771
0.987641 1.00026 0.988363 0.99901
0.884291 0.967386 0.929034 0.983929
0.862931 0.958951 0.933789 0.963676
0.669492 0.796986 0.895867 0.937673
0.812555 0.907885 0.932768 0.959506
0.86248 0.913996 0.956991 0.986045
0.873084 0.945338 0.934482 0.988322
0.964835 1.00377 0.964396 0.996701
0.989097 1.00037 0.990589 0.998123
0.996821 0.999404 0.998428 0.998986
0.978253 0.99054 0.990699 0.996867
0.91004 0.973143 0.949825 0.984555
0.88882 0.972985 0.942468 0.969262
0.700399 0.821596 0.913328 0.933384
0.949964 0.973299 0.978655 0.997312
0.883467 0.964363 0.932124 0.982825
0.899551 0.985118 0.944951 0.966336
0.947788 0.999943 0.951057 0.99662
0.921771 0.987303 0.944976 0.987989
0.952684 1.02543 0.932004 0.996836
0.967547 1.02218 0.951015 0.995303
0.972683 1.00884 0.967016 0.997048
0.985663 1.0394 0.950717 0.997454
1.00784 1.07756 0.937717 0.997419
1.03114 1.05237 0.982758 0.997009
1.04133 1.07875 0.967809 0.997427
1.04745 1.07997 0.972493 0.997328
1.04927 1.07405 0.97978 0.99709
1.04234 1.07177 0.975113 0.997358
1.05722 1.08144 0.980371 0.997183
1.0531 1.07112 0.986036 0.9971
1.05095 1.07171 0.983367 0.997217
1.05686 1.07452 0.986579 0.996947
1.05408 1.06898 0.988891 0.997143
1.05673 1.06836 0.992207 0.996885
1.06208 1.06937 0.996668 0.996505
1.06267 1.06799 0.998546 0.99647
1.06388 1.06824 0.999674 0.996237
1.06611 1.07037 0.999956 0.996068
1.06019 1.06461 1 0.995843
1.06703 1.07154 1 0.995785
1.0691 1.07359 1 0.995813
1.03166 1.0352 1 0.996575
1.05441 1.05882 1 0.995835
1.06136 1.06603 1 0.995619
1.00019 1.00148 1.00027 0.998441
1.01789 1.02117 1.00001 0.996778
1.03789 1.04207 1 0.995989
1 1 1 1
1.00035 1.00033 1.00131 0.998709
1.01214 1.01399 1.00109 0.997088
1 1 1 1
1.00197 1 1.00293 0.999041
1 1 1 1
1.03461 1.03878 1 0.995985
1.01944 1.02269 1.00045 0.996373
1.01579 1.01823 1.00091 0.996701
1.00615 1.00838 1.00054 0.997255
1.00278 1.00305 1.00246 0.997284
1.00817 1.00468 1.00569 0.997794
1.00402 1 1.00646 0.997573
1.00984 1.0004 1.01128 0.998182
1.00459 1 1.00515 0.999446
1.01058 1 1.01214 0.998467
1.00248 1 1.00284 0.999636
1 1 1 1
1 1 1 1
1.00006 1 1.00028 0.999788
1 1 1 1
0.903056 0.967812 0.947259 0.985042
0.880268 0.971953 0.940974 0.962481
0.700957 0.819516 0.910325 0.939589
1.05112 1.05536 1.00007 0.995916
1.01193 1.00217 1.01258 0.997192
1.00944 1.01107 1.00197 0.996424
1.00289 1.00649 0.999478 0.99694
1.02712 1.03087 1.00042 0.995937
1.013 1.01653 0.999607 0.996916
1.0019 1.0073 0.997794 0.996834
0.982606 1.00277 0.981434 0.998424
0.994479 1.00428 0.992932 0.99729
0.965843 1.00246 0.965911 0.997476
1.01666 1.01945 1.00071 0.99656
0.987836 1.00751 0.983178 0.997252
0.991538 1.00217 0.992218 0.997151
0.973269 1.00134 0.974044 0.99787
0.956523 1.00587 0.953544 0.997266
0.875424 0.961174 0.927146 0.982354
0.859706 0.960539 0.929027 0.9634
0.872086 0.938582 0.942447 0.985894
0.967737 1.00435 0.965727 0.997745
0.989183 1.00011 0.99104 0.998016
0.969974 1.00883 0.966984 0.994315
0.899306 0.956824 0.953288 0.985941
0.876912 0.971944 0.936524 0.963377
0.94825 0.997885 0.953382 0.996725
0.929489 0.989509 0.951869 0.986842
0.956035 1.02729 0.933425 0.99701
0.973251 1.02282 0.955682 0.99566
0.990803 1.05267 0.943867 0.997207
1.05637 1.09483 0.967669 0.997103
0.981692 1.03591 0.95008 0.997452
1.01438 1.07917 0.942415 0.9974
1.03961 1.09532 0.951826 0.997179
1.03995 1.07764 0.967541 0.997403
1.04362 1.07768 0.970989 0.997325
1.05839 1.0901 0.973765 0.997064
1.04321 1.07129 0.976393 0.997338
1.05479 1.07956 0.979805 0.997197
1.06068 1.07998 0.985185 0.996896
1.04939 1.0694 0.984034 0.997211
1.05721 1.07485 0.986605 0.996945
1.06174 1.07386 0.992049 0.996634
1.0562 1.06811 0.991898 0.996932
1.06238 1.06971 0.996579 0.996552
1.06819 1.07261 0.999661 0.99622
1.06446 1.06871 0.999793 0.996227
1.06595 1.0702 0.999974 0.99606
1.06206 1.0664 1 0.995932
1.03946 1.04313 1 0.996486
1.06008 1.06451 1 0.995842
1.06735 1.07189 1 0.995765
1.0059 1.0076 1 0.99831
1.03034 1.03388 1 0.996574
1.05337 1.05777 1 0.995842
1 1 1 1
1.00182 1.00329 1.0001 0.998426
1.01926 1.02255 1 0.996778
1 1 1 1
1.00002 1.00063 1.0007 0.998689
1 1 1 1
1.05039 1.05483 1 0.995789
1.03531 1.03949 1 0.995978
1.03536 1.03924 1 0.99627
1.02106 1.02452 1.00022 0.996405
1.0183 1.02089 1.00079 0.996677
1.01309 1.01305 1.00263 0.997417
1.00259 1.00315 1.00223 0.997219
1.00685 1.00264 1.00642 0.997798
1.00251 1 1.00328 0.999224
1.01029 1 1.01213 0.998182
1.00401 1 1.00455 0.99946
1 1 1 1
1.0018 1 1.00215 0.999647
1 1 1 1
1 1 1 1
0.96308 1.01057 0.956087 0.996783
0.896195 0.966863 0.944026 0.981868
0.879816 0.968188 0.938351 0.968426
1.04468 1.04836 1.00001 0.996479
1.06128 1.06654 0.998913 0.996151
1.04944 1.05356 1.00008 0.996007
1.00366 1.00723 0.999509 0.996951
1.0251 1.02854 1.00073 0.995917
1.01585 1.02021 0.998819 0.996905
1.04048 1.05172 0.992807 0.996488
0.993892 1.00578 0.990853 0.997305
0.961395 1.00189 0.962155 0.997326
1.01844 1.02248 0.999356 0.996691
1.02577 1.05009 0.980314 0.996456
0.989939 1.0292 0.964356 0.997405
0.995661 1.01033 0.988259 0.997187
0.992946 1.0027 0.993124 0.997129
0.958304 1.00733 0.953613 0.997604
0.882039 0.965455 0.93155 0.980731
0.96795 1.00387 0.965351 0.998828
1.0364 1.07148 0.969524 0.997657
0.967302 1.00732 0.965613 0.99447
0.902354 0.965226 0.950544 0.983503
0.959017 1.0296 0.934088 0.997174
0.977807 1.02311 0.959519 0.996038
0.984885 1.05295 0.937803 0.997395
1.05331 1.09393 0.965638 0.997129
1.05228 1.10655 0.953696 0.997121
1.09601 1.1322 0.97068 0.997278
1.02106 1.08182 0.94632 0.997382
1.04595 1.09809 0.955218 0.997178
1.06024 1.09968 0.967058 0.996983
1.03983 1.07553 0.969411 0.997321
1.05832 1.08941 0.974321 0.997065
1.06009 1.08503 0.980081 0.996866
1.0524 1.07772 0.979239 0.997211
1.06156 1.08081 0.985243 0.996893
1.06318 1.07796 0.989607 0.996645
1.05758 1.0752 0.986627 0.996942
1.06243 1.07454 0.992075 0.996631
1.07071 1.07674 0.998098 0.996296
1.06265 1.07005 0.996471 0.996598
1.06778 1.07223 0.999618 0.996233
1.06632 1.07063 1 0.995975
1.06579 1.07001 1 0.996053
1.06185 1.06618 1 0.995941
1.04004 1.04374 1 0.996454
1.01118 1.01291 1 0.998294
1.03894 1.0426 1 0.996486
1.05993 1.06436 1 0.99584
1 1 1 1
1.00737 1.00909 1 0.998298
1.02877 1.03231 1 0.996574
1 1 1 1
1.00327 1.00486 1 0.99841
1 1 1 1
1.06067 1.06505 1 0.99589
1.04974 1.05416 1 0.995799
1.04973 1.05392 1 0.996022
1.03511 1.0393 1 0.99597
1.03609 1.03997 1 0.996272
1.01957 1.02211 1.00042 0.997087
1.02047 1.02317 1.00071 0.996654
1.01007 1.00986 1.00279 0.99742
1.0005 1.00008 1.00151 0.998917
1.00611 1.00103 1.00729 0.997803
1.00302 1 1.00378 0.999242
1 1 1 1
1.00344 1 1.00397 0.999473
1 1 1 1
1 1 1 1
0.99653 1.05206 0.949337 0.99777
0.960329 1.00932 0.955594 0.995676
0.898496 0.969108 0.943484 0.982674
1.05513 1.06324 0.995968 0.996392
1.04497 1.04858 0.999859 0.996697
1.0722 1.08077 0.995738 0.996308
1.06109 1.06713 0.998202 0.996131
1.04761 1.05167 1.00004 0.996098
1.06332 1.0845 0.984119 0.996295
1.0187 1.02399 0.997929 0.996895
1.03944 1.04996 0.993526 0.996425
1.04888 1.09039 0.96521 0.996606
1.01612 1.02522 0.994287 0.996823
1.02691 1.05093 0.9807 0.99637
0.98942 1.03368 0.959631 0.997447
1.00029 1.01133 0.991945 0.997119
0.960215 1.00837 0.954254 0.997899
1.08341 1.12316 0.96721 0.997312
1.04232 1.07366 0.973061 0.997683
0.966214 1.00596 0.965671 0.99463
0.97976 1.05276 0.932918 0.997582
1.05074 1.09325 0.963855 0.997157
1.04646 1.10378 0.950784 0.997144
1.10172 1.13694 0.97167 0.997273
1.07818 1.11468 0.970006 0.997159
1.05201 1.10036 0.958769 0.997179
1.06118 1.09874 0.968721 0.996993
1.06044 1.08921 0.976602 0.99691
1.05829 1.0887 0.974931 0.997066
1.06063 1.08518 0.980478 0.996846
1.06258 1.07963 0.987528 0.996638
1.06245 1.08165 0.98531 0.99689
1.06351 1.07829 0.989615 0.996641
1.0722 1.08103 0.995467 0.996348
1.0631 1.07519 0.992102 0.996628
1.07045 1.07649 0.998082 0.996296
1.07161 1.07591 1 0.996004
1.06741 1.07189 0.999568 0.996245
1.06589 1.07019 1 0.995982
1.04068 1.04443 1 0.996413
1.06157 1.06589 1 0.995949
1.04075 1.04445 1 0.996455
1.01226 1.01365 1 0.998623
0.99942 1 1 0.99942
1.01161 1.01319 1 0.998432
1.03841 1.04207 1 0.996487
1 1 1 1
1.00919 1.01092 1 0.998287
1 1 1 1
1.07489 1.08298 0.996094 0.996424
1.06659 1.07129 0.999482 0.996131
1.06112 1.06566 0.999822 0.995912
1.05397 1.05825 1 0.995957
1.04995 1.05437 1 0.995809
1.0494 1.0536 1 0.996014
1.02325 1.02654 1 0.9968
1.03727 1.04115 1 0.996274
1.01729 1.01967 1.00059 0.997087
1.00113 1.00245 1.00012 0.998569
1.00666 1.00642 1.00282 0.997422
1.00103 1.00014 1.00196 0.998936
1 1 1 1
1.00324 1 1.00398 0.999261
1 1 1 1
1 1 1 1
1.07037 1.11655 0.961478 0.997053
1.00549 1.06226 0.948659 0.997782
0.957516 1.00958 0.953585 0.994593
1.06568 1.08149 0.988994 0.996349
1.05076 1.05924 0.995545 0.996436
1.04524 1.04873 0.999752 0.996913
1.07079 1.07866 0.996367 0.996322
1.06103 1.06772 0.997615 0.996111
1.06896 1.1036 0.971932 0.996585
1.05858 1.08034 0.983544 0.996254
1.03879 1.04849 0.994369 0.996362
1.04461 1.08585 0.965297 0.996606
1.03251 1.05467 0.982639 0.996285
0.992269 1.04285 0.953883 0.9975
1.07463 1.10583 0.97445 0.997267
1.08482 1.12457 0.967216 0.997351
1.04729 1.07598 0.975572 0.99771
1.04118 1.10156 0.94788 0.997164
1.10758 1.14174 0.972734 0.997269
1.07934 1.11657 0.969403 0.997163
1.06732 1.0903 0.981839 0.997031
1.06203 1.09777 0.970353 0.997003
1.06106 1.08907 0.977318 0.996894
1.06353 1.08078 0.987307 0.996686
1.06122 1.08537 0.98086 0.996827
1.06319 1.08022 0.987556 0.996637
1.07204 1.0831 0.993388 0.996376
1.06388 1.07866 0.989624 0.996637
1.07179 1.08063 0.995457 0.996346
1.07477 1.07919 0.999872 0.996023
1.07017 1.07624 0.998061 0.996297
1.07172 1.07602 1 0.996009
1.04172 1.04554 1 0.996346
1.06544 1.06973 1 0.995989
1.04209 1.04584 1 0.996414
1.01112 1.01249 1 0.998643
1.04161 1.04532 1 0.996455
1.01196 1.01336 1 0.998617
0.999451 1 1 0.999451
0.999724 1 1 0.999724
1.01207 1.0135 1 0.998582
1 1 1 1
1.06618 1.0801 0.990636 0.99644
1.06961 1.07486 0.998878 0.996234
1.07281 1.08151 0.995385 0.996554
1.06268 1.06697 1 0.995985
1.06896 1.0735 0.999652 0.996122
1.06138 1.06619 0.999555 0.995935
1.05449 1.05878 1 0.995946
1.03408 1.0376 1 0.996608
1.04948 1.05369 1 0.996007
1.0257 1.02899 1 0.996801
1.00702 1.00867 1 0.998362
1.01553 1.01797 1.00052 0.997087
1.00085 1.00172 1.00054 0.998591
1 1 1 1
1.00146 1 1.00251 0.998957
1 1 1 1
1 1 1 1
1.06807 1.10155 0.97258 0.996939
1.0626 1.10782 0.962011 0.997054
1.01264 1.0692 0.949202 0.997787
1.06598 1.08967 0.981673 0.996517
1.06295 1.07895 0.988785 0.996345
1.04626 1.05513 0.995095 0.996482
1.06911 1.07643 0.996859 0.996335
1.06802 1.10189 0.972608 0.99656
1.05318 1.07541 0.983049 0.996212
1.03537 1.07557 0.9659 0.996605
1.0707 1.09258 0.982824 0.997096
1.07339 1.10415 0.974848 0.997224
1.08598 1.12555 0.967369 0.997389
1.06621 1.08377 0.986822 0.996936
1.08031 1.1184 0.968681 0.997167
1.067 1.09008 0.981754 0.997016
1.06541 1.0812 0.988558 0.996799
1.06171 1.08891 0.978078 0.996878
1.06373 1.08102 0.987282 0.996689
1.07178 1.08281 0.993385 0.996405
1.06374 1.08075 0.987585 0.996636
1.07178 1.08281 0.993416 0.996376
1.07577 1.08058 0.9995 0.996047
1.0713 1.08014 0.99545 0.996345
1.07553 1.07999 0.999845 0.996026
1.04075 1.04464 1 0.996284
1.0718 1.07609 1 0.996014
1.04294 1.04676 1 0.996349
1.00921 1.01061 1 0.998617
1.04353 1.04728 1 0.996416
1.01056 1.01195 1 0.998628
0.999453 1 1 0.999453
1.01159 1.01299 1 0.998613
0.999466 1 1 0.999466
1 1 1 1
1.06427 1.08006 0.988992 0.99635
1.07065 1.07897 0.996031 0.996245
1.06806 1.08147 0.991133 0.996438
1.07052 1.07476 1 0.996059
1.07038 1.07642 0.998097 0.996285
1.07095 1.08017 0.994762 0.996684
1.04436 1.04803 1 0.996493
1.06278 1.06708 1 0.995974
1.07141 1.07573 0.999876 0.996113
1.05494 1.05925 1 0.995935
1.03485 1.03837 1 0.996608
1.01248 1.01419 1 0.99831
1.02686 1.03015 1 0.996802
1.00489 1.00652 1 0.998379
1 1 1 1
1.00048 1.00094 1.00093 0.998611
1 1 1 1
1 1 1 1
1.0666 1.08892 0.98263 0.996825
1.0687 1.10276 0.972108 0.996916
1.05778 1.10266 0.962128 0.997055
1.06566 1.08928 0.981716 0.996534
1.06009 1.07627 0.988582 0.996341
1.06845 1.10169 0.9732 0.996535
1.06826 1.08522 0.987398 0.996934
1.07066 1.09244 0.982916 0.997091
1.0721 1.10244 0.975229 0.997182
1.0665 1.08379 0.987055 0.996957
1.06419 1.07779 0.990584 0.99676
1.06664 1.08986 0.981638 0.997001
1.06586 1.08115 0.989064 0.996761
1.07099 1.08161 0.993665 0.996498
1.06397 1.08128 0.987259 0.996691
1.0716 1.08264 0.993377 0.996408
1.07546 1.08056 0.999206 0.996066
1.07162 1.08262 0.993437 0.996375
1.07627 1.08116 0.999426 0.996049
1.03818 1.04208 1 0.996251
1.07642 1.08091 0.999817 0.996029
1.04135 1.04523 1 0.996287
1.00668 1.00813 1 0.998563
1.04421 1.04804 1 0.996352
1.00845 1.00987 1 0.998596
0.999427 1 1 0.999427
1.01 1.01139 1 0.998618
0.99948 1 1 0.99948
0.999474 1 1 0.999474
1.06593 1.08149 0.988965 0.996616
1.07176 1.08151 0.994762 0.996201
1.06395 1.08097 0.987832 0.996376
1.07462 1.0795 0.999387 0.996083
1.07067 1.07855 0.996447 0.99623
1.06983 1.08276 0.991597 0.996437
1.04588 1.04964 1 0.996422
1.07015 1.07468 0.999725 0.996061
1.0711 1.07801 0.997242 0.996337
1.01304 1.01474 1 0.998322
1.04327 1.04694 1 0.996493
1.06302 1.06733 1 0.995962
1.03582 1.03935 1 0.996608
1.0111 1.0128 1 0.998321
1 1 1 1
1.00325 1.00486 1 0.998396
1 1 1 1
1 1 1 1
1.06549 1.08209 0.987794 0.996824
1.06694 1.0891 0.982787 0.996814
1.06863 1.10321 0.97167 0.996894
1.06555 1.08903 0.981826 0.996551
1.06536 1.07672 0.992706 0.996718
1.06829 1.08538 0.987272 0.996946
1.0707 1.09234 0.983054 0.997086
1.06683 1.08382 0.987314 0.996978
1.06434 1.07825 0.990295 0.99677
1.07187 1.08114 0.994935 0.996479
1.06635 1.0811 0.989595 0.996723
1.07188 1.0818 0.994361 0.996445
1.07377 1.07948 0.998556 0.996144
1.07145 1.08249 0.993372 0.99641
1.07517 1.08035 0.999133 0.996068
1.03574 1.03966 1 0.99623
1.07652 1.08149 0.999354 0.99605
1.03837 1.04228 1 0.996253
1.004 1.00579 1 0.998225
1.04182 1.0457 1 0.99629
1.0058 1.00741 1 0.998406
1 1 1 1
1.00768 1.00912 1 0.998577
0.99946 1 1 0.99946
0.999499 1 1 0.999499
1.06534 1.07798 0.991534 0.996717
1.07159 1.08182 0.994177 0.996341
1.06632 1.08098 0.989799 0.996609
1.07453 1.07994 0.998958 0.996029
1.07127 1.08111 0.994672 0.996202
1.06369 1.08194 0.98668 0.996401
1.04311 1.04697 1 0.996315
1.07434 1.07922 0.999386 0.996084
1.07075 1.07815 0.996911 0.996215
1.01016 1.01184 1 0.998341
1.04436 1.04813 1 0.996397
1.06953 1.07429 0.999509 0.996062
1 1 1 1
1.01335 1.01505 1 0.998332
1.04208 1.04575 1 0.996492
1.0096 1.01129 1 0.998333
1 1 1 1
1 1 1 1
1.06412 1.07504 0.993098 0.996723
1.06609 1.08231 0.988145 0.996831
1.06713 1.08918 0.982896 0.996803
1.0728 1.08084 0.996131 0.996419
1.06463 1.07646 0.99226 0.996729
1.06831 1.08555 0.987124 0.996957
1.06444 1.0787 0.989965 0.99678
1.07173 1.08109 0.994846 0.99648
1.07303 1.07854 0.998724 0.99616
1.07267 1.08191 0.995046 0.996391
1.07393 1.07935 0.998869 0.99611
1.03365 1.03758 1 0.996218
1.07495 1.08021 0.999059 0.99607
1.03607 1.03999 1 0.996231
1.00227 1.00406 1 0.998209
1.0388 1.04271 1 0.996254
1.0035 1.00529 1 0.998223
1 1 1 1
1.00495 1.00674 1 0.998223
0.999704 1 1 0.999704
0.999489 1 1 0.999489
1.06229 1.07323 0.9931 0.996682
1.0728 1.08094 0.996033 0.996424
1.06494 1.07739 0.991694 0.996725
1.07424 1.07908 0.999489 0.996023
1.07233 1.08234 0.994401 0.996328
1.06663 1.08039 0.990636 0.996601
1.03873 1.04264 1 0.99625
1.07445 1.0794 0.999393 0.996017
1.07078 1.08073 0.994571 0.996203
1.00682 1.00851 1 0.998318
1.04236 1.04623 1 0.996304
1.07398 1.07893 0.999332 0.996085
1 1 1 1
1.01117 1.01285 1 0.99835
1.04312 1.04692 1 0.996373
1 1 1 1
1.0137 1.01539 1 0.998343
1 1 1 1
1.0731 1.08074 0.996457 0.996456
1.06357 1.07455 0.993052 0.996709
1.06665 1.08245 0.988534 0.996837
1.0725 1.07782 0.998905 0.996154
1.0723 1.08069 0.99578 0.996438
1.06391 1.0762 0.991812 0.996739
1.07161 1.08105 0.994768 0.996481
1.07256 1.07812 0.998672 0.996161
1.03126 1.03517 1 0.996226
1.07414 1.07926 0.999177 0.996075
1.03418 1.03811 1 0.996214
1.00082 1.00264 1 0.998186
1.03628 1.0402 1 0.996232
1.00179 1.00359 1 0.998207
1 1 1 1
1.0029 1.00469 1 0.998221
1 1 1 1
0.999461 1 1 0.999461
1.07334 1.08077 0.996682 0.99643
1.06153 1.07322 0.992378 0.996699
1.07372 1.07836 0.999612 0.996081
1.07317 1.08136 0.995991 0.996424
1.06457 1.07685 0.991834 0.996733
1.03568 1.03958 1 0.996251
1.07416 1.07889 0.999592 0.99602
1.07315 1.08292 0.994644 0.996315
1.00403 1.00578 1 0.998263
1.03859 1.0425 1 0.996252
1.07434 1.07883 0.999825 0.996005
1 1 1 1
1.00774 1.00943 1 0.998323
1.04166 1.04554 1 0.996294
1 1 1 1
1.01213 1.0138 1 0.998358
1 1 1 1
1.07261 1.07766 0.999142 0.996172
1.07313 1.08061 0.996615 0.996445
1.06302 1.07406 0.993008 0.996695
1.02944 1.03332 1 0.996246
1.07212 1.07747 0.998874 0.996155
1.07177 1.08051 0.995442 0.996458
1.0721 1.07771 0.998629 0.996161
1.03183 1.03574 1 0.996223
0.999697 1.00152 1 0.998183
1.0347 1.03864 1 0.99621
1.00046 1.00228 1 0.998184
1 1 1 1
1.00134 1.00314 1 0.998205
1 1 1 1
1 1 1 1
1.0739 1.07836 0.999746 0.996112
1.07283 1.08071 0.996211 0.99648
1.06082 1.07326 0.991659 0.996716
1.03314 1.03701 1 0.99627
1.0738 1.07838 0.999678 0.996078
1.07348 1.08172 0.995944 0.996423
1.00165 1.00343 1 0.998224
1.0352 1.0391 1 0.996248
1.074 1.07862 0.999696 0.996017
1 1 1 1
1.00476 1.0065 1 0.998266
1.03846 1.04236 1 0.996254
1 1 1 1
1.00863 1.01031 1 0.998329
1 1 1 1
1.02923 1.03309 1 0.996266
1.07222 1.07735 0.999069 0.996166
1.07318 1.08052 0.996765 0.996434
0.998872 1.00065 1 0.998219
1.02984 1.03373 1 0.996243
1.07174 1.07714 0.998832 0.996156
1.03243 1.03635 1 0.996219
0.999416 1.00123 1 0.998184
1 1 1 1
1.00012 1.00194 1 0.998182
1 1 1 1
1 1 1 1
1.03052 1.03436 1 0.99628
1.07319 1.07791 0.999476 0.996144
1.07228 1.08061 0.995742 0.99653
0.999959 1.00142 1 0.998537
1.03258 1.03645 1 0.996269
1.07382 1.07833 0.999745 0.996075
1 1 1 1
1.00231 1.00409 1 0.998225
1.03481 1.0387 1 0.996246
1 1 1 1
1.00547 1.00722 1 0.99827
1 1 1 1
0.998443 1.00024 1 0.998201
1.02943 1.03329 1 0.996264
1.07187 1.07708 0.999003 0.996161
1 1 1 1
0.9987 1.00048 1 0.998218
1.03025 1.03414 1 0.996239
0.999107 1.00092 1 0.998184
1 1 1 1
1 1 1 1
0.998905 1.00039 1 0.998516
1.03064 1.03449 1 0.996281
1.07259 1.07757 0.999204 0.996175
1 1 1 1
1.00028 1.00206 1 0.998222
1.03223 1.0361 1 0.996269
1 1 1 1
1.00293 1.00471 1 0.998226
1 1 1 1
0.999454 1 1 0.999454
0.998596 1.00022 1 0.998378
1.02951 1.03338 1 0.996262
1 1 1 1
0.998523 1.0003 1 0.998219
1 1 1 1
0.999462 1 1 0.999462
0.999037 1.00066 1 0.998378
1.03061 1.03445 1 0.996282
0.999723 1 1 0.999723
1.00081 1.00259 1 0.998225
1 1 1 1
1 1 1 1
0.998506 1.00026 1 0.998242
1 1 1 1
0.999731 1 1 0.999731
0.999238 1.001 1 0.998242
1 1 1 1
1 1 1 1
1 1 1 1

VECTORS lamdaE float
1.00241 0.999952 0.992619
1.00195 1.00077 0.996263
1.00186 1.00015 0.993021
1.00223 1.00014 0.992618
1.00241 0.99992 0.992653
1.00242 1.00015 0.992444
1.00334 1.00073 0.98971
1.00203 1.00082 0.99618
1.00165 1.00005 0.996945
1.00122 1.00085 0.996956
1.0017 1.00126 0.992016
1.0034 1.00146 0.987637
1.00167 0.999961 0.993396
1.00137 1.00007 0.99361
1.00136 1.00036 0.993395
1.00182 1.00013 0.99305
1.00178 1.00052 0.992817
1.00194 0.999975 0.993066
1.0036 1.00062 0.989494
1.00172 1.00002 0.996531
1.0021 1.00017 0.99272
1.00232 1.00002 0.992649
1.00333 1.00028 0.990238
1.0034 1.00043 0.989951
1.00235 1.00044 0.992203
1.00329 1.00124 0.98926
1.00531 1.00139 0.985268
1.00209 1.00084 0.996085
1.00192 0.999937 0.994928
1.00161 1.00053 0.994885
1.00202 1.00115 0.996036
1.00334 1.00157 0.987611
1.00213 0.999788 0.992892
1.00208 0.999953 0.992902
1.00373 1.00031 0.990143
1.00052 1.00217 0.996975
1.0036 1.00095 0.989815
1.00342 1.00217 0.986916
1.00525 1.00248 0.9837
1.00067 1.0006 0.997222
1.00171 0.999981 0.996538
1.00165 1.00003 0.99502
1.00162 0.99996 0.996604
1.00119 1.00006 0.993825
1.00337 0.999878 0.989487
1.00157 0.999976 0.996919
1.00371 1.00018 0.990362
1.00144 1.00008 0.993481
1.00149 1.00002 0.993466
1.00119 1.00089 0.993172
1.00384 1.0005 0.989293
1.0015 1.00004 0.995143
1.00169 1.0002 0.993152
1.00178 1.00089 0.992516
1.00191 1 0.993069
1.00353 1.00023 0.990008
1.00359 1.00107 0.98905
1.00362 1.00036 0.98973
1.00532 1.00136 0.985369
1.00162 0.999996 0.996585
1.00194 1.0001 0.992991
1.0031 0.99995 0.991307
1.00326 1.00021 0.990393
1.00337 1.00032 0.990123
1.00523 0.999911 0.98694
1.00532 1.00028 0.98631
1.00241 1.00077 0.991712
1.0032 1.0022 0.988412
1.00532 1.00217 0.984394
1.00531 0.999408 0.986536
1.0023 0.999928 0.996356
1.00188 1.00112 0.996207
1.00204 1.00047 0.996307
1.0033 1.00165 0.987588
1.0022 0.999882 0.996334
1.00221 1.00006 0.996374
1.00358 1.00028 0.988579
1.00082 1.00162 0.994827
1.00339 1.00089 0.988242
1.00329 1.00242 0.988071
1.00529 1.00237 0.983681
1.00102 1.00099 0.996801
1.00115 1.00283 0.99016
1.00369 1.00021 0.988572
1.00368 1.00033 0.988429
1.00534 1.00031 0.985811
1.00258 1.00317 0.989618
1.00535 1.00151 0.984516
1.00446 1.00357 0.983628
1.0054 1.00154 0.984178
1.0004 0.999931 0.997637
1.00049 1.00041 0.997387
1.00202 0.999983 0.996354
1.00177 0.999979 0.996508
1.00167 0.999966 0.996596
1.00151 0.999994 0.995171
1.0034 0.999877 0.990223
1.00181 0.999977 0.994934
1.00358 1.00019 0.989643
1.00163 0.999972 0.996617
1.00321 0.999739 0.989802
1.00361 1.00006 0.990641
1.00536 0.998528 0.987727
1.00368 1.0002 0.990308
1.00531 0.999017 0.987306
1.00168 0.999957 0.993403
1.00127 1.00023 0.993588
1.00118 1.00131 0.992817
1.0015 0.999968 0.993486
1.00373 1.00022 0.98978
1.00383 1.00032 0.989516
1.00385 1.00094 0.988848
1.00533 1.00132 0.985466
1.00167 0.999974 0.9966
1.00155 1.00009 0.993416
1.00332 0.99985 0.990132
1.00346 1.00018 0.990163
1.00209 1.00136 0.993808
1.00352 1.00197 0.988633
1.00358 1.00027 0.989897
1.00524 0.999634 0.987257
1.00532 1.00217 0.984522
1.00532 1.00054 0.986132
1.0053 0.999423 0.986556
1.00321 0.999777 0.989778
1.00317 0.999997 0.990688
1.00533 0.998305 0.98856
1.00525 0.999042 0.987888
1.00529 0.999714 0.987047
1.00533 0.996805 0.989472
1.0013 1.00148 0.99647
1.00533 0.998315 0.987559
1.00308 1.00315 0.986431
1.00532 1.00307 0.982787
1.00529 1.00056 0.985475
1.00528 0.996585 0.989173
1.00173 1.00351 0.988369
1.00326 1.00431 0.985494
1.00226 0.999887 0.996336
1.00222 1.00012 0.996361
1.00358 1.00028 0.988559
1.00116 1.00125 0.996692
1.00275 1.00271 0.987247
1.00344 1.0008 0.988231
1.00536 1.00228 0.983653
1.00085 1.00101 0.996974
1.00118 1.00295 0.990165
1.00371 1.00026 0.989378
1.00372 1.00041 0.9892
1.00533 1.00033 0.985775
1.002 1.00327 0.988086
1.00535 1.00152 0.984483
1.00477 1.00323 0.983597
1.00537 1.00134 0.984452
1.00158 1.00305 0.98919
1.00084 1.00247 0.991206
1.00253 1.00369 0.987008
1.00529 0.999808 0.986438
1.00536 1.00088 0.985175
1.00532 0.997911 0.988111
1.00359 1.00375 0.984799
1.00531 0.999746 0.986262
1.00535 1.00305 0.983038
1.00538 0.999276 0.986168
1.00024 0.999321 0.998053
1.00026 0.99985 0.997816
1.00035 1.00034 0.997559
1.00151 1.00319 0.989209
1.0008 1.00122 0.996886
1.00217 0.999926 0.996327
1.00187 0.999986 0.996419
1.00338 1.00024 0.988977
1.00324 0.999885 0.989582
1.00165 0.999962 0.996582
1.00161 0.999961 0.996616
1.00319 0.999753 0.989798
1.00348 1.00004 0.989927
1.00535 0.998536 0.987736
1.00351 1.00027 0.988767
1.00529 0.999031 0.987296
1.00317 0.999714 0.989865
1.00536 0.998439 0.987818
1.00535 0.998708 0.987555
1.00527 0.995226 0.991404
1.00526 0.999392 0.986956
1.00522 0.995638 0.990894
1.00162 0.999972 0.996606
1.00111 1.00017 0.993841
1.00335 0.999814 0.989125
1.00366 1.00015 0.989931
1.00118 1.00213 0.996467
1.00386 1.00146 0.988862
1.00378 1.00024 0.989673
1.00525 0.999346 0.987574
1.00532 1.00078 0.985951
1.00532 1.00211 0.984654
1.00529 0.99944 0.986576
1.00319 0.999769 0.989781
1.00335 1.00002 0.990461
1.00534 0.998228 0.98837
1.00526 0.999319 0.987541
1.00153 1.00149 0.996295
1.00314 1.0029 0.987562
1.00515 1.00337 0.983207
1.00529 0.99978 0.987
1.00531 0.996451 0.98986
1.00529 1.00045 0.985562
1.00533 0.998554 0.98744
1.00528 0.996645 0.989162
1.00183 1.00336 0.988362
1.00321 1.00421 0.985413
1.00534 0.998559 0.987724
1.00533 0.998647 0.988227
1.00531 0.995972 0.990453
1.00531 0.995816 0.990594
1.00534 0.99748 0.988512
1.00532 0.995109 0.990988
1.00239 1.00346 0.987256
1.00528 0.995545 0.990291
1.00501 1.00402 0.982783
1.00533 1.00167 0.984036
1.0053 0.998356 0.987525
1.00525 0.995443 0.990464
1.00374 1.00448 0.984188
1.00299 1.00384 0.986791
1.0044 1.00401 0.984086
1.00355 1.00028 0.988648
1.00059 1.00086 0.997135
1.00102 1.00299 0.990176
1.00355 1.0004 0.988459
1.00533 1.00035 0.98574
1.00203 1.00331 0.988034
1.00501 1.00298 0.98357
1.00534 1.00155 0.984448
1.00535 1.00111 0.984729
1.00143 1.00319 0.989212
1.00063 1.00258 0.991202
1.00245 1.00412 0.986999
1.0053 0.999831 0.986401
1.00534 1.00091 0.98514
1.00533 0.997888 0.988108
1.00388 1.00347 0.984761
1.00532 0.999869 0.986145
1.00539 1.00303 0.982948
1.00538 0.998878 0.98648
1.00053 1.00192 0.99212
1.00316 1.00406 0.985966
1.00194 1.00437 0.987429
1.00285 1.0016 0.987734
1.00534 0.996912 0.989186
1.00531 0.998932 0.987027
1.0053 0.99558 0.990191
1.00495 1.004 0.982647
1.00531 0.997123 0.988739
1.0053 1.00128 0.984811
1.00547 0.997494 0.987827
1.0003 1.00371 0.990882
1.00028 1.00098 0.993524
1.00022 0.998746 0.998284
1.00018 0.999203 0.998146
1.00015 0.999703 0.997972
1.00116 1.00311 0.98996
1.00066 1.00093 0.997093
1.00157 1.00316 0.989135
1.00099 1.00133 0.996739
1.00347 1.00031 0.988768
1.00333 1.00004 0.989279
1.00527 0.999045 0.987294
1.00533 0.998548 0.987746
1.0032 0.99977 0.989801
1.00166 0.999947 0.996613
1.00319 0.99971 0.98987
1.00535 0.998447 0.987826
1.00533 0.998726 0.987561
1.00529 0.995185 0.991405
1.00526 0.999408 0.986928
1.00527 0.995571 0.990893
1.00535 0.998454 0.987815
1.0053 0.995186 0.991427
1.00524 0.995358 0.991252
1.00511 0.99497 0.99177
1.00528 0.996122 0.990188
1.00523 0.99492 0.991448
1.0032 0.999768 0.989791
1.00356 0.99999 0.990234
1.00536 0.998128 0.988189
1.00528 0.999586 0.987192
1.00173 1.0016 0.996103
1.00349 1.00279 0.988427
1.00496 1.00344 0.983619
1.00529 0.999833 0.986951
1.00529 0.996094 0.990247
1.00533 0.998794 0.987324
1.0053 1.00036 0.985647
1.00528 0.996704 0.989151
1.00193 1.00327 0.988356
1.00306 1.00399 0.985336
1.00535 0.998254 0.988058
1.00533 0.998619 0.988224
1.00531 0.995967 0.990476
1.00529 0.996147 0.990214
1.00242 1.00346 0.98723
1.00468 1.00398 0.982809
1.00536 1.00189 0.983814
1.00534 0.99763 0.988431
1.00533 0.995016 0.991032
1.0053 0.998111 0.987803
1.00528 0.995592 0.990256
1.00526 0.995434 0.99034
1.00371 1.00455 0.984161
1.00401 1.00389 0.984063
1.00239 1.004 0.986831
1.00533 0.995857 0.990588
1.0053 0.99614 0.990262
1.00511 0.994965 0.991757
1.00527 0.994935 0.991308
1.0053 0.995032 0.990811
1.00529 0.994906 0.990984
1.00437 1.00403 0.983463
1.00526 0.994898 0.990829
1.00539 1.00344 0.982356
1.00535 0.999737 0.985778
1.00526 0.996818 0.989056
1.00528 0.995266 0.990484
1.00186 1.00513 0.986807
1.00511 1.00465 0.982218
1.00295 1.00248 0.986526
1.00514 1.00389 0.982699
1.0053 0.999851 0.986366
1.00053 1.00272 0.991197
1.0013 1.00345 0.989238
1.00198 1.00453 0.986981
1.00534 1.00092 0.985104
1.00533 0.997866 0.988105
1.00421 1.00301 0.984729
1.00538 1.003 0.982852
1.00532 1 0.986031
1.00537 0.9985 0.986792
1.00042 1.00204 0.992126
1.00302 1.00374 0.986103
1.00175 1.00456 0.987305
1.00325 1.00163 0.987793
1.00532 0.996898 0.989194
1.00532 0.998908 0.987017
1.0053 0.995554 0.990217
1.00515 1.00407 0.98254
1.00531 0.997388 0.988451
1.00529 1.00111 0.984799
1.00547 0.997316 0.98811
1.00044 1.00149 0.992783
1.00171 1.00503 0.987556
1.00348 1.00394 0.984935
1.00345 1.00266 0.987085
1.00329 1.00124 0.988461
1.0053 0.995049 0.990772
1.00531 0.996303 0.989378
1.00533 0.99495 0.990503
1.00516 1.00323 0.983073
1.00539 0.995916 0.989594
1.00524 0.999374 0.986412
1.00066 1.00423 0.989667
1.00021 1.00509 0.989698
1.00015 1.0029 0.991821
1.00016 1.00371 0.990885
1.0002 1.00016 0.995187
1.00025 1.00081 0.994059
1.00037 0.998061 0.996666
1.0002 0.998683 0.998347
1.00015 0.999111 0.998212
1.00034 1.00287 0.991318
1.00029 1.00062 0.99752
1.00117 1.00304 0.989935
1.00069 1.00102 0.997032
1.00157 1.00314 0.989066
1.00118 1.00134 0.996587
1.00526 0.999428 0.986899
1.00531 0.998741 0.987564
1.0053 0.995522 0.990893
1.0053 0.995143 0.991406
1.00535 0.998456 0.987833
1.00318 0.999697 0.989871
1.00535 0.998459 0.987817
1.00531 0.995156 0.991427
1.00527 0.995315 0.991255
1.0051 0.994969 0.991749
1.00529 0.996084 0.990193
1.00522 0.994919 0.991461
1.00532 0.995204 0.991375
1.0051 0.994959 0.991777
1.00515 0.994966 0.99167
1.00523 0.994949 0.991511
1.00529 0.99487 0.991142
1.00526 0.994937 0.991131
1.00535 0.99794 0.98839
1.00534 0.998611 0.988222
1.0053 0.995971 0.9905
1.00527 0.996487 0.989835
1.00246 1.00343 0.987206
1.00441 1.00434 0.982844
1.00539 1.00209 0.983596
1.00534 0.997777 0.98835
1.00533 0.994917 0.991076
1.00528 0.995637 0.990222
1.0053 0.997842 0.988079
1.00526 0.99541 0.990216
1.0036 1.00471 0.984136
1.0039 1.00402 0.984039
1.00215 1.00433 0.986866
1.00532 0.995562 0.990944
1.0053 0.99615 0.990265
1.00512 0.994963 0.991738
1.00527 0.994937 0.991307
1.00418 1.00432 0.983523
1.00538 1.00346 0.982437
1.00537 0.999928 0.985484
1.0053 0.99517 0.990676
1.0053 0.994911 0.990949
1.00525 0.996688 0.989058
1.00527 0.994891 0.990805
1.00528 0.995228 0.990507
1.00467 1.00469 0.982235
1.0051 1.00422 0.982491
1.00207 1.00484 0.986883
1.00331 1.00288 0.986614
1.00511 0.994964 0.991825
1.00516 0.994952 0.991485
1.00521 0.994955 0.991534
1.00527 0.994911 0.991051
1.00529 0.994866 0.990884
1.00532 0.994913 0.990789
1.0053 1.00456 0.981615
1.00532 0.994845 0.990657
1.00529 1.00186 0.983823
1.00534 0.998783 0.986602
1.00524 0.996187 0.98949
1.00531 0.995077 0.990487
1.00178 1.005 0.987109
1.00355 1.00369 0.985867
1.00516 1.00461 0.981613
1.00393 1.00138 0.986269
1.00507 1.00442 0.981941
1.00029 1.00212 0.992135
1.00531 0.996883 0.989202
1.00196 1.00465 0.987182
1.00289 1.0036 0.986248
1.00344 1.00155 0.98785
1.00533 0.998883 0.987007
1.0053 0.995527 0.990243
1.00527 1.00375 0.982436
1.00529 1.00099 0.984784
1.00531 0.997637 0.988163
1.00547 0.997151 0.988391
1.00038 1.00146 0.99282
1.00145 1.00506 0.987576
1.00383 1.00345 0.985044
1.00315 1.00271 0.986987
1.0037 1.0008 0.98755
1.0053 0.995043 0.990802
1.0053 0.99627 0.989405
1.00533 0.994965 0.990516
1.00515 1.0034 0.98302
1.00541 0.996052 0.989395
1.00524 0.99942 0.986696
1.00121 1.00474 0.988435
1.00292 1.00521 0.986411
1.00352 1.00379 0.984575
1.00392 1.00198 0.98698
1.00474 1.00204 0.98606
1.00533 0.994813 0.990804
1.00533 0.995229 0.990102
1.00529 0.994836 0.990511
1.00496 1.00136 0.984821
1.00523 0.997856 0.987696
1.00056 1.0044 0.989668
1.00044 1.00511 0.989067
0.999693 1.00504 0.989763
1.00048 1.00449 0.990428
1.00026 1.00454 0.990544
1.00003 1.00255 0.992354
0.999994 1.00312 0.991838
1.0001 0.999735 0.995715
1.00004 1.00392 0.990886
1.00019 1.0001 0.995275
1.00029 0.997584 0.997133
1.00024 1.00072 0.994579
1.00022 0.998186 0.99763
1.00017 0.998518 0.998414
0.999902 1.00174 0.993114
1.00056 1.00255 0.991372
1 0.999606 0.998148
1.00052 1.00054 0.997319
1.00128 1.00283 0.989913
1.00079 1.00109 0.996952
1.0053 0.996044 0.990199
1.0053 0.995256 0.991257
1.0052 0.994917 0.991474
1.0051 0.994968 0.991729
1.00531 0.995125 0.991427
1.00535 0.998462 0.98782
1.00532 0.995195 0.991373
1.00511 0.994963 0.99178
1.00514 0.994966 0.991672
1.00522 0.994946 0.991479
1.00529 0.994866 0.99117
1.00525 0.994935 0.991138
1.00511 0.994958 0.991792
1.00524 0.994953 0.99157
1.00523 0.994949 0.991344
1.00528 0.994927 0.991407
1.00529 0.99488 0.991004
1.0053 0.994936 0.991027
1.00531 0.995273 0.991301
1.00529 0.996161 0.990268
1.00512 0.99496 0.991718
1.00527 0.994938 0.991307
1.00392 1.00448 0.983583
1.00537 1.00348 0.982511
1.0054 1.00007 0.985194
1.00529 0.995314 0.990541
1.0053 0.994914 0.990914
1.00529 0.994891 0.99078
1.00524 0.996559 0.989059
1.00527 0.995179 0.990532
1.0044 1.00495 0.982252
1.00452 1.00498 0.982283
1.00207 1.00443 0.986956
1.00315 1.00235 0.98669
1.00512 0.994962 0.991823
1.00516 0.994951 0.99153
1.0052 0.994953 0.991507
1.00528 0.994913 0.991052
1.00521 1.00459 0.981681
1.0053 1.00202 0.983647
1.00532 0.998805 0.986575
1.00529 0.994863 0.990915
1.00532 0.994907 0.99079
1.00524 0.996128 0.989502
1.00531 0.994848 0.990647
1.00529 0.995021 0.990614
1.00509 1.00471 0.981698
1.005 1.00488 0.981852
1.00388 1.00232 0.986369
1.00144 1.00493 0.987375
1.00285 1.00373 0.985768
1.00523 0.994953 0.991498
1.00526 0.99493 0.991303
1.00533 0.994883 0.990798
1.00533 0.99489 0.990682
1.00522 1.00382 0.982299
1.00531 0.994812 0.990575
1.00522 1.001 0.984185
1.00529 0.998224 0.987161
1.0053 0.995538 0.989676
1.00025 1.00456 0.989669
1.00226 1.00509 0.986226
1.00388 1.00413 0.985878
1.00502 1.00452 0.982143
1.00445 1.00343 0.984333
1.00487 1.00472 0.982369
1.00032 1.00147 0.992855
1.00121 1.00512 0.987596
1.00531 0.995038 0.990832
1.00258 1.00284 0.986888
1.00453 1.00344 0.985155
1.00425 1.00036 0.986647
1.0053 0.996238 0.989431
1.00533 0.994985 0.990529
1.00514 1.00347 0.982982
1.00522 0.999482 0.986982
1.00543 0.996172 0.989194
1.0011 1.00484 0.988443
1.00212 1.00522 0.986434
1.0041 1.00407 0.983741
1.00385 1.00137 0.987125
1.00452 1.00166 0.985871
1.00533 0.994812 0.990816
1.00535 0.99528 0.990088
1.00532 0.994838 0.990443
1.00502 1.00129 0.98504
1.00522 0.997985 0.987587
1.00181 1.00514 0.987655
1.00132 1.00517 0.986961
1.00453 1.00271 0.984764
1.00275 1.00161 0.986364
1.00531 1.00118 0.985865
1.00534 0.994794 0.99066
1.00539 0.995754 0.989258
1.00539 0.995068 0.989798
1.00506 0.999961 0.986319
1.00512 0.998752 0.987141
1.00048 1.00446 0.98967
1.00071 1.00508 0.988935
0.99947 1.00384 0.991406
0.999535 1.00503 0.989814
0.999836 1.00466 0.990524
0.999596 1.00469 0.990663
0.999967 1.00285 0.992082
0.999466 1.00507 0.990581
0.999824 1.00431 0.991039
1.00003 1.00242 0.992463
1.00003 1.00248 0.992348
1.00004 0.999494 0.996002
0.99991 1.00304 0.99185
1.00013 0.999626 0.995771
1.00021 0.997357 0.997464
1.0002 0.999952 0.995366
1.00025 0.997657 0.997106
1.00005 0.998292 0.998618
0.999843 1.00064 0.994368
1.00002 1.00172 0.993057
0.999859 0.998809 0.998608
1.0008 1.00237 0.991424
1.00019 0.999873 0.99791
1.00062 1.00082 0.997174
1.00528 0.994862 0.991198
1.00513 0.994966 0.991675
1.00525 0.994933 0.991145
1.00522 0.994941 0.991447
1.00511 0.994967 0.991783
1.00532 0.995188 0.991371
1.00511 0.994959 0.99182
1.00524 0.994953 0.991569
1.00523 0.994951 0.991362
1.00528 0.994924 0.991385
1.0053 0.994881 0.991006
1.0053 0.99493 0.990999
1.00524 0.994954 0.991529
1.0053 0.994932 0.991436
1.00529 0.994916 0.991283
1.00535 0.99488 0.990738
1.00512 0.994961 0.991821
1.00516 0.99495 0.991575
1.0052 0.994951 0.99148
1.00528 0.994914 0.991053
1.00509 1.00452 0.981749
1.00531 1.00219 0.983471
1.0053 0.998864 0.986548
1.0053 0.99486 0.990946
1.00531 0.994902 0.990791
1.0053 0.994851 0.990637
1.00525 0.996094 0.989513
1.00528 0.994992 0.990741
1.00513 1.00478 0.981777
1.00484 1.00475 0.981766
1.00432 1.0028 0.986457
1.00128 1.00468 0.987661
1.00262 1.00438 0.985683
1.00523 0.994951 0.991493
1.00526 0.994931 0.991315
1.00533 0.994891 0.990816
1.00522 1.00395 0.982318
1.00522 1.00123 0.984106
1.00528 0.99811 0.98717
1.00532 0.994892 0.990698
1.0053 0.995509 0.989863
1.00532 0.994818 0.990587
1.00009 1.00413 0.989963
1.00495 1.0044 0.982202
1.0048 1.00477 0.982036
1.00454 1.00315 0.984147
1.00396 1.00328 0.98589
1.00209 1.00509 0.986272
1.00529 0.994929 0.991386
1.00533 0.994894 0.991068
1.00535 0.994883 0.990631
1.00531 0.994834 0.99055
1.00509 1.00334 0.983172
1.0053 0.994883 0.99041
1.0051 1.00098 0.98479
1.00527 0.997358 0.987574
0.999947 1.0029 0.991503
1.00103 1.00513 0.988493
1.00317 1.00478 0.986155
1.00295 1.00362 0.985703
1.00453 1.0035 0.984307
1.00489 1.00478 0.982168
1.00093 1.00497 0.98845
1.00148 1.00519 0.986457
1.00533 0.994811 0.990829
1.00383 1.00076 0.987263
1.00476 1.00443 0.982893
1.00389 1.00208 0.985679
1.00537 0.995328 0.990075
1.00536 0.994836 0.990376
1.00503 1.00128 0.985258
1.00522 0.998114 0.987479
1.00136 1.00512 0.987699
1.00195 1.0051 0.986602
1.00442 1.00293 0.984582
1.00347 1.00258 0.986287
1.00521 1.00147 0.98546
1.00535 0.994794 0.99065
1.0054 0.995612 0.989514
1.00538 0.995153 0.98995
1.00507 0.999853 0.986304
1.00506 0.999104 0.986868
0.999609 1.00493 0.988985
0.999718 1.00483 0.988118
1.00495 1.00058 0.986186
1.00431 1.00093 0.986544
1.00542 0.994775 0.99043
1.00538 0.99479 0.990356
1.00526 0.997612 0.987615
1.00518 0.999413 0.986284
1.00106 1.00501 0.988804
0.999595 1.00442 0.991086
0.998048 1.00417 0.994131
0.999513 1.00486 0.990511
0.998582 1.00503 0.990896
0.999869 1.00427 0.990988
0.999473 1.00338 0.992506
0.999519 1.0051 0.99064
0.999311 1.00054 0.995508
0.999385 1.00484 0.991055
0.999383 1.00501 0.990436
1.00002 1.0042 0.990829
0.999979 1.00251 0.992403
0.999986 1.00244 0.992445
0.999951 0.999418 0.996159
0.999981 1.00255 0.992346
1.00005 0.999444 0.996022
1.00012 0.997332 0.997588
1.00012 0.99955 0.995826
1.00018 0.997408 0.997443
1.00017 0.99776 0.997067
1.00003 0.999784 0.994986
0.999885 1.00079 0.994285
0.99983 0.998162 0.998816
1.00008 1.00182 0.993
0.999935 0.998907 0.998471
1.00043 0.999844 0.997637
1.00531 0.994882 0.991008
1.00523 0.994953 0.99138
1.00529 0.994924 0.990972
1.00527 0.994922 0.991363
1.00523 0.994954 0.991568
1.00512 0.99496 0.991848
1.00524 0.994953 0.991547
1.00529 0.994929 0.991429
1.00529 0.994921 0.991241
1.00533 0.99488 0.990768
1.00531 0.99493 0.991438
1.00529 0.994905 0.991387
1.00534 0.994891 0.99097
1.00522 0.99495 0.991487
1.00526 0.994932 0.991328
1.00533 0.994896 0.990834
1.00517 1.00399 0.982346
1.00521 1.00148 0.984026
1.00528 0.997972 0.987179
1.00532 0.994894 0.990714
1.00532 0.994825 0.9906
1.00529 0.995447 0.99005
1.00488 1.00429 0.982259
1.00501 1.00497 0.981721
1.00458 1.00438 0.983976
1.00023 1.00398 0.990256
1.00371 1.00301 0.985881
1.00184 1.00504 0.986302
1.0053 0.994935 0.991397
1.00533 0.994884 0.991029
1.00535 0.994883 0.990637
1.00507 1.00321 0.983132
1.00504 1.00089 0.984909
1.00531 0.997148 0.987894
1.00532 0.994832 0.990523
1.00529 0.994914 0.99037
0.999904 1.00312 0.991715
1.0009 1.00513 0.988462
1.00452 1.00286 0.984031
1.0046 1.00478 0.98258
1.00361 1.00388 0.985184
1.00277 1.00479 0.986157
1.00532 0.994891 0.991326
1.00538 0.994867 0.990684
1.00535 0.994852 0.990504
1.00528 0.99481 0.990326
1.00422 1.00197 0.985112
1.00527 0.995548 0.989588
1.00492 1.00001 0.986045
1.00011 1.00202 0.992763
1.00011 1.00309 0.991867
0.999603 1.00489 0.990158
1.00162 1.00511 0.9872
1.00249 1.00482 0.98648
1.00433 1.00432 0.984043
1.00345 1.00249 0.986435
1.00417 1.00261 0.987174
1.00101 1.00516 0.987748
1.00275 1.00507 0.986242
1.00536 0.994795 0.99064
1.00417 1.00257 0.986214
1.00437 1.00308 0.984403
1.00533 1.00173 0.985063
1.00541 0.995456 0.989771
1.00537 0.995234 0.990102
1.00508 0.999727 0.986288
1.00497 0.999431 0.986595
1.00049 1.00474 0.988621
1.00116 1.00499 0.987612
1.00497 1.00063 0.98593
1.00454 1.00142 0.986385
1.00542 0.994782 0.990433
1.00541 0.994799 0.990342
1.0052 0.997488 0.987755
1.00517 0.999605 0.986319
0.998381 1.00479 0.991637
1.00547 0.9948 0.990616
1.00249 1.00462 0.987762
1.0049 1.00002 0.986419
1.00537 0.994725 0.990714
1.00504 0.997018 0.987493
1.00505 1.00053 0.985892
0.999528 1.00459 0.990769
0.998265 1.0035 0.994206
0.996751 1.00332 0.996649
0.999774 1.0041 0.990937
0.99943 1.00512 0.990696
0.997922 1.00482 0.992951
1.00003 1.00404 0.990814
0.999485 1.005 0.990516
0.997925 1.00192 0.99596
0.999593 1.00479 0.990921
0.998573 1.00034 0.99787
0.997805 1.00366 0.994151
0.999416 1.00514 0.99073
1.00041 1.00486 0.98942
1.00029 1.00396 0.990492
0.999996 1.0025 0.992392
0.999942 1.00258 0.992384
0.999832 0.999487 0.996313
0.999918 1.00257 0.992428
0.99996 0.999444 0.996172
0.999991 0.997489 0.997705
1.00006 0.999383 0.996047
1.00012 0.997396 0.997581
1.0002 0.997463 0.997416
1.00009 1.0015 0.993297
0.999999 0.999339 0.995438
0.999984 0.999903 0.994953
0.999905 0.997892 0.998912
0.999928 1.00074 0.994203
0.999869 0.998383 0.998772
1.00008 0.999065 0.998315
1.00531 0.99488 0.990797
1.00529 0.994927 0.991199
1.00529 0.994924 0.991422
1.00524 0.994951 0.991565
1.00531 0.994932 0.991431
1.00529 0.994896 0.991386
1.00533 0.994893 0.990913
1.0053 0.994898 0.991387
1.00534 0.994865 0.991329
1.0056 0.994798 0.991192
1.0053 0.994939 0.991408
1.00534 0.994883 0.99099
1.00535 0.994889 0.990643
1.00514 1.00308 0.983096
1.0049 1.00094 0.985044
1.00533 0.996935 0.988203
1.00533 0.994826 0.990495
1.00529 0.99494 0.99033
1.00439 1.00325 0.983751
1.00437 1.00459 0.982956
1.00396 1.00309 0.984666
0.999986 1.00299 0.991931
1.00052 1.00514 0.988431
1.00264 1.00487 0.986163
1.00531 0.994895 0.991307
1.00015 1.0019 0.992734
1.00001 1.00312 0.991703
1.00538 0.994868 0.99069
1.00536 0.994853 0.99052
1.00451 1.00216 0.985098
1.00497 0.999653 0.986408
1.00525 0.995458 0.989537
1.00528 0.994818 0.990269
0.999991 1.00463 0.990346
1.00171 1.00511 0.987148
1.0033 1.00309 0.986105
1.00438 1.00219 0.985753
1.0039 1.00465 0.983693
1.00246 1.00393 0.986552
1.00539 0.994804 0.991159
1.00539 0.995022 0.99038
1.00534 0.994851 0.990463
1.00524 0.995122 0.989946
1.00338 1.00109 0.987867
1.005 0.997881 0.988552
1.00032 1.00264 0.991666
0.999689 1.00353 0.991638
1.00151 1.00249 0.990705
1.00086 1.00483 0.988565
1.00223 1.00504 0.986654
1.00203 1.00213 0.988095
1.00234 1.00307 0.986844
1.00157 0.99936 0.993082
1.00078 1.00491 0.988265
1.00279 1.00514 0.987096
1.0054 0.994788 0.990437
1.00544 0.994806 0.99033
1.00475 1.00191 0.986217
1.00497 1.00071 0.985668
1.00515 0.997369 0.987895
1.00515 0.999797 0.986358
0.999115 1.00453 0.991559
1.00547 0.994778 0.990828
1.00156 1.00437 0.988597
1.00482 1.00027 0.986235
1.00538 0.994728 0.990784
1.00512 0.99718 0.987682
1.00507 1.00023 0.985849
0.998341 1.00502 0.993616
1.00505 0.994691 0.990447
1.00193 1.00357 0.988596
1.0044 1.00188 0.984737
1.00513 0.995537 0.990404
1.00353 1.00075 0.986919
0.999068 0.994759 0.983165
0.99842 1.00315 0.994257
0.997296 1.0025 0.996641
0.996872 1.00201 0.997707
1.00002 1.00398 0.990796
0.999291 1.00505 0.9906
1.00019 1.0046 0.990789
0.997163 1.00212 0.996424
1.00024 1.00399 0.990498
1.00016 1.00485 0.989696
0.997903 0.999791 0.998476
0.999297 1.00515 0.990686
0.998367 1.00384 0.993627
0.996615 1.00311 0.997344
0.99947 1.00466 0.991251
0.999696 1.0051 0.990645
1.0007 1.00427 0.989625
1.00029 1.00408 0.990095
1.00029 1.00498 0.98998
1.00006 1.00437 0.990118
0.999928 1.00255 0.992402
0.999959 1.00254 0.992377
0.999708 0.999462 0.995818
0.999952 1.00251 0.992367
0.999811 0.999494 0.995994
0.99998 0.997498 0.999066
0.999966 0.999456 0.996188
1.00002 0.997456 0.997696
1.00013 0.997448 0.997568
0.99998 1.00105 0.993833
1.00013 1.00141 0.993328
1.00007 0.998812 0.995938
1.00001 0.999382 0.995761
0.999908 0.99758 0.999024
0.999921 1.00011 0.994919
0.99989 0.997907 0.998892
0.999919 0.998411 0.998708
1.00532 0.994893 0.990855
1.0053 0.994887 0.991386
1.00531 0.994934 0.991425
1.00531 0.994897 0.991389
1.00534 0.994857 0.991277
1.00562 0.994811 0.991073
1.00542 0.994828 0.991374
1.00091 0.994718 0.980183
1.0053 0.994859 0.990582
1.00014 1.00237 0.992304
1.0053 0.994895 0.991288
1.00539 0.994862 0.990697
1.00535 0.994855 0.990537
1.00465 1.00178 0.985069
1.005 0.999325 0.986758
1.00527 0.995385 0.989473
1.00529 0.994833 0.990211
1.00373 1.00281 0.985846
1.00461 1.00272 0.984403
1.0038 1.00483 0.983315
1.00013 1.00199 0.992707
1.003 1.00366 0.986603
1.00019 1.00447 0.990522
1.00162 1.00511 0.987102
0.999803 1.00321 0.991545
1.00539 0.994837 0.99115
1.0003 1.00249 0.99189
0.999867 1.00351 0.991694
1.00073 1.00295 0.991044
1.00539 0.994912 0.990389
1.00531 0.994843 0.990427
1.00275 1.00182 0.987966
1.00488 0.997464 0.988778
1.00526 0.995026 0.989927
1.00075 1.00492 0.988587
1.00239 1.0048 0.986826
1.00252 0.999533 0.991803
1.00296 1.00414 0.986455
1.00331 1.00213 0.987948
1.00544 0.994814 0.990867
1.00535 0.994874 0.99051
1.00527 0.994856 0.990176
1.0047 0.997859 0.990083
1.00185 0.999548 0.991611
1.00024 1.00227 0.991968
1.00164 1.00307 0.989084
1.00016 1.00304 0.991227
1.00153 1.00479 0.988529
1.00178 1.00277 0.98933
1.0009 1.00183 0.990528
1.00153 0.998605 0.994148
1.00054 1.00387 0.991419
1.00037 1.00429 0.989453
1.00547 0.994771 0.991032
1.0054 0.994728 0.990843
1.00519 0.997329 0.987872
1.00474 1.00052 0.986055
1.0051 0.999928 0.985816
0.998113 1.00481 0.994654
1.00465 0.994708 0.990637
1.00181 1.00355 0.988552
1.00467 1.00195 0.984603
1.00494 0.99547 0.990698
1.00394 1.00065 0.987
0.998893 0.994745 0.981481
0.997482 1.00486 0.994342
1.00373 0.994732 0.990591
1.00235 1.00316 0.986606
1.00317 1.00002 0.988295
1.00339 0.997376 0.991165
0.999972 0.994873 0.937592
0.994904 0.994728 0.959898
0.996229 0.99687 0.986773
0.996305 0.994762 0.846596
0.994699 0.995475 0.806131
0.9981 1.00196 0.996655
0.996871 1.00249 0.997808
0.995848 1.00368 0.997992
1.00027 1.00397 0.990507
1.00003 1.00484 0.989971
0.999413 1.00515 0.990639
0.998813 1.00407 0.993067
0.9975 0.999906 0.99907
0.999478 1.00508 0.990841
1.0004 1.00401 0.990157
1.00058 1.00454 0.989578
0.997192 1.00234 0.997094
0.998998 1.00485 0.991722
0.999542 1.00458 0.991937
0.997209 1.00451 0.994692
0.999395 1.00477 0.99138
1.00049 1.0046 0.989198
1.00022 1.00432 0.990034
0.999948 1.00474 0.990071
0.999701 1.00392 0.991819
0.999433 1.00503 0.991023
0.999989 1.00498 0.990115
1.00007 1.00438 0.990387
1.00009 1.00439 0.990107
0.999875 1.00271 0.992356
0.999915 1.0026 0.992411
0.999675 0.999476 0.995881
0.999912 1.00266 0.992359
0.999695 0.999499 0.995821
0.999937 0.997482 0.999104
0.999786 0.999518 0.995681
0.999935 0.997502 0.998433
1.00005 0.997434 0.997683
0.999895 1.0008 0.994207
1.00001 1.00103 0.993843
1.00009 0.998467 0.996301
1.00015 1.00132 0.993359
1.00006 0.998806 0.996251
0.999946 0.99717 0.999137
1.00004 0.999489 0.995321
0.99992 0.997735 0.998969
0.999895 0.998067 0.998875
1.00535 0.994851 0.991225
1.0053 0.994896 0.991391
1.00568 0.994827 0.990964
1.00004 0.994745 0.980207
1.00545 0.994822 0.991319
1.0053 0.994791 0.990605
1.00548 0.994682 0.991309
0.995625 0.994868 0.961525
1.00328 0.994816 0.978891
1.00027 1.0019 0.992626
1.0003 1.00223 0.992278
0.999773 1.00329 0.991837
0.999944 1.00286 0.992071
1.0054 0.994853 0.99114
1.00541 0.994872 0.990398
1.00528 0.99483 0.990392
1.00381 1.0019 0.988059
1.00504 0.996209 0.989039
1.00524 0.994899 0.989925
1.0026 0.998793 0.990444
1.00339 1.00446 0.986089
1.00317 1.0017 0.987838
0.999981 1.00342 0.991748
1.00219 1.00391 0.987022
1.0009 1.00496 0.988607
1.00031 1.00234 0.99211
1.00016 1.00318 0.99142
1.00547 0.994779 0.990849
1.00019 1.00286 0.991672
1.00156 1.00296 0.989411
0.997829 1.00324 0.994302
1.00536 0.994915 0.990472
1.00527 0.99486 0.990164
1.00324 0.997836 0.991717
1.00453 0.997316 0.989958
1.00178 1.00497 0.987993
1.00139 1.00274 0.988603
1.00124 0.998679 0.994202
1.002 1.00215 0.990087
1.00405 0.996452 0.990307
1.00523 0.994807 0.990735
1.00448 0.997286 0.989783
1.00344 0.996609 0.992999
0.997509 1.00482 0.993986
1.00235 1.00393 0.987226
0.999079 1.00264 0.994023
0.998279 1.00347 0.993993
0.999994 0.99536 0.92232
0.997467 1.00462 0.995743
1.00135 1.00363 0.988491
1.00415 0.994707 0.990864
1.00471 0.995437 0.990983
1.00422 1.00054 0.987051
1.00479 1.00215 0.984452
0.99877 0.994746 0.979555
0.997616 1.00456 0.994583
1.00332 0.994756 0.990469
1.00245 1.00381 0.986541
1.00368 0.999875 0.988476
1.00358 0.997907 0.990947
0.999548 0.994873 0.923201
0.995385 0.994774 0.956683
0.996285 0.996739 0.987253
0.996912 0.994751 0.851464
0.99476 0.995157 0.800828
0.997798 1.00439 0.993581
0.998606 0.99482 0.856277
0.994776 0.994887 0.797048
1.00088 0.996719 0.993347
1.00131 1.00133 0.991047
1.00122 1.0004 0.993036
0.994885 0.996348 0.990814
0.997424 0.994727 0.937076
0.994902 0.994797 0.952692
0.994722 0.995009 0.871525
0.994764 0.994834 0.78304
0.996639 1.0026 0.997906
0.995949 1.00376 0.997869
0.995427 1.00513 0.997624
1.00056 1.00385 0.990215
1.00047 1.00461 0.989529
0.998911 1.00511 0.99104
0.998702 1.00501 0.992191
0.997633 1.0015 0.996864
1.00036 1.00415 0.990023
0.999151 1.00483 0.991883
0.999259 1.0049 0.991069
1.00072 1.00458 0.98932
0.99727 1.00423 0.995019
0.99823 1.00422 0.993877
0.995691 1.00514 0.996271
0.999425 1.00502 0.990437
1.00056 1.00462 0.989511
1.00021 1.00468 0.990032
0.999368 1.00359 0.992287
0.999263 1.00453 0.991769
0.999706 1.00309 0.99234
0.998149 1.00286 0.994746
0.99792 1.00486 0.992754
0.998759 1.00506 0.991352
0.999415 1.00505 0.991012
0.99969 1.00481 0.990353
0.999747 1.005 0.990252
1.00016 1.00439 0.990303
0.999937 1.00284 0.992188
1.00016 1.00438 0.990096
0.999918 1.00263 0.992376
0.999873 0.999476 0.996305
0.999905 1.00261 0.992418
0.999738 0.999447 0.996136
0.999902 0.997434 0.997932
0.999678 0.999495 0.995821
0.999928 0.997498 0.999114
0.999928 0.997545 0.997797
1.00028 1.00218 0.992347
0.999877 1.00072 0.994342
0.999926 1.00081 0.994203
1.00003 0.998373 0.99646
1.00001 1.00108 0.993856
1.00009 0.998449 0.996297
0.999983 0.996965 0.999196
1.00006 0.9989 0.996477
0.999939 0.997351 0.998479
0.99992 0.997729 0.997601
0.999468 0.994754 0.980196
1.00546 0.994814 0.991266
1.00523 0.994793 0.990625
0.996349 0.994796 0.961696
1.00353 0.994773 0.979236
1.00547 0.994785 0.991338
1.00363 0.994711 0.985639
0.998683 0.994732 0.961992
0.999265 0.994859 0.937159
0.996706 0.994764 0.874349
0.994777 0.994944 0.805578
0.999503 1.00298 0.992404
1.00025 1.00195 0.992614
1.00042 1.00211 0.992244
0.999848 1.00298 0.992176
0.998364 1.00485 0.992977
1.0002 1.00319 0.991483
1.00012 1.00398 0.990928
1.00007 1.0028 0.991999
1.00547 0.994818 0.990825
1.00535 0.994885 0.990438
1.00527 0.994863 0.990152
1.00327 0.998012 0.991834
1.00425 0.997546 0.989815
1.00106 0.998548 0.994255
1.00353 1.00207 0.989641
1.00289 1.00301 0.987872
1.00134 1.00316 0.989712
1.0017 1.00513 0.987412
1.00012 1.0035 0.991382
0.996396 1.00365 0.997138
1.0042 0.995565 0.99065
0.997568 1.00476 0.993954
1.00141 1.00389 0.989242
1.005 0.994823 0.990702
1.00409 0.997699 0.989987
1.00297 0.996795 0.992915
1.00008 1.00257 0.992562
0.999431 1.00219 0.994093
1.00301 0.996163 0.989212
1.00308 0.998877 0.990938
1.00354 0.998361 0.991342
1.00112 0.997537 0.995111
0.998906 1.0048 0.992158
0.997857 1.00488 0.993145
0.997894 1.00363 0.994966
0.999826 0.995919 0.855956
1.0006 0.994881 0.937971
0.998291 1.00413 0.994834
1.00273 1.00422 0.986498
1.00295 0.994762 0.990332
1.00385 0.998446 0.990749
1.00411 0.999626 0.988701
0.999992 0.994846 0.935399
0.99584 0.994777 0.956202
0.996324 0.996951 0.987896
0.996066 0.99479 0.871242
0.994824 0.994871 0.795143
0.998211 1.00448 0.993558
0.999849 0.99488 0.853693
0.994725 0.994863 0.7907
1.00086 0.997202 0.993169
1.00134 1.00131 0.991083
1.00118 1.00022 0.993607
0.994941 0.997599 0.991724
0.99684 0.994711 0.930151
0.994907 0.99481 0.952926
0.994781 0.994903 0.871981
0.994797 0.995058 0.78076
0.996672 1.00499 0.995984
0.994762 0.994797 0.783877
0.994743 0.994753 0.782433
0.996686 1.00145 0.997456
0.999185 1.00163 0.997133
0.994855 0.99882 0.988034
0.994922 0.994822 0.956973
0.994875 0.994687 0.92488
0.994805 0.99486 0.87509
0.994878 0.994887 0.794432
0.996247 1.00383 0.997751
0.996065 1.00507 0.997293
0.995171 1.00449 0.998405
1.00049 1.00401 0.990011
1.00081 1.00464 0.989442
0.999383 1.00506 0.990757
0.998619 1.00509 0.99183
0.997139 1.00404 0.995346
1.00059 1.00467 0.989471
0.998314 1.00423 0.993454
0.999848 1.00497 0.990421
0.995688 1.00492 0.996495
0.995199 1.00523 0.997812
0.997746 1.00475 0.994022
1.00022 1.00484 0.990634
1.00059 1.00426 0.989994
0.999223 1.00323 0.992745
0.999326 1.00428 0.991748
0.999886 1.0029 0.992252
0.997816 1.00307 0.995039
0.99808 1.00452 0.992452
0.997118 1.00499 0.994112
0.997747 1.0022 0.996443
0.999806 1.00216 0.993291
1.00403 0.999626 0.990434
0.998231 1.00472 0.992067
0.998369 1.0047 0.992769
0.999029 1.00514 0.990152
0.999052 1.00507 0.99142
1 1.00504 0.989948
0.999379 1.00504 0.990998
0.999853 1.00475 0.990437
0.999843 1.00318 0.991787
1.00024 1.0044 0.990219
0.999921 1.00281 0.9922
1 0.999508 0.996045
0.999887 1.00266 0.992397
0.999857 0.999468 0.995937
1.00002 0.99736 0.997755
0.999731 0.999455 0.995842
0.999956 0.997393 0.999129
0.999924 0.99747 0.999126
1.0004 1.00266 0.991994
0.99992 1.00096 0.994099
1.00027 1.00215 0.992363
1.00003 0.99831 0.996519
0.999919 1.00067 0.994332
0.999956 1.00077 0.994196
1.00005 0.998355 0.996452
0.999998 0.996892 0.999222
1.00007 0.99849 0.996819
0.999991 0.997 0.998623
0.999961 0.997294 0.997944
0.999316 0.99528 0.840427
0.994769 0.994853 0.782586
0.996027 0.994805 0.9624
1.00327 0.994724 0.979757
1.00551 0.994801 0.991368
0.999709 0.99483 0.959637
1.00333 0.994694 0.9863
0.999858 0.994866 0.932612
0.996034 0.994736 0.852643
0.994799 0.994962 0.800594
0.99786 0.994783 0.970303
0.996438 0.99475 0.938395
0.994741 0.994713 0.873378
0.994808 0.995337 0.793854
0.999703 1.00389 0.992033
0.999767 1.00269 0.992474
1.00022 1.00201 0.992609
0.999892 1.00267 0.992527
0.998047 1.00414 0.993931
1.00031 1.00421 0.990224
0.999668 1.00382 0.991683
1.00073 1.00414 0.989491
1.00014 1.00393 0.990798
0.999651 1.0034 0.991924
1.00414 0.994826 0.990971
1.00487 0.994842 0.990666
1.0034 0.998092 0.990192
1.0023 0.996504 0.992829
0.999984 1.00216 0.99418
0.999904 1.00272 0.991142
1.00022 1.00358 0.99147
0.997572 1.00465 0.993872
1.00218 0.995591 0.989813
0.998809 1.00499 0.991978
0.997607 1.00482 0.993445
1.00288 0.998711 0.990839
1.00311 0.998596 0.991072
1.00076 0.997541 0.995616
0.998088 1.00352 0.995127
0.999551 0.995449 0.988495
1.00055 1.00005 0.994759
0.996974 1.0025 0.996982
0.998481 1.00438 0.99207
0.997032 1.0052 0.993494
0.996882 1.00466 0.995539
0.994732 0.994799 0.804013
0.999826 0.994885 0.862993
1.00011 0.995325 0.922598
0.998512 1.00469 0.993516
1.00161 1.00143 0.991071
1.0008 0.997408 0.992981
1.00106 0.999818 0.994182
0.999843 0.995351 0.868894
0.996468 0.994749 0.92342
0.994921 0.994776 0.952756
0.994994 0.998528 0.992425
0.994784 0.994722 0.855772
0.994678 0.994842 0.79727
0.994826 0.995247 0.796975
0.996864 1.00494 0.995679
0.994752 0.994811 0.792966
0.994767 0.994761 0.781814
0.996751 0.999917 0.998185
0.998757 1.00151 0.997054
0.99487 0.99748 0.989853
0.994957 0.994802 0.954738
0.994841 0.994705 0.936784
0.99477 0.994998 0.854903
0.995155 0.994892 0.804047
0.995931 1.00417 0.999915
0.99475 0.994796 0.790221
0.994816 0.994828 0.782918
0.994821 1.00227 1.00013
0.994906 0.996635 0.965023
0.994798 0.994816 0.933748
0.994904 0.994924 0.851668
0.995787 0.994898 0.821108
0.996648 1.00485 0.996949
0.995525 1.00468 0.998589
0.994999 1.00432 0.99931
1.0004 1.00474 0.989425
1.0001 1.0049 0.990405
0.998359 1.00421 0.993028
0.995731 1.00462 0.996717
0.999632 1.00491 0.990636
0.997519 1.00481 0.994029
0.995027 1.00527 0.997943
0.994788 1.0053 0.998658
0.995425 1.00512 0.997545
0.998176 1.00507 0.993494
0.99945 1.00437 0.991718
0.999924 1.00267 0.992168
0.997345 1.00335 0.995325
0.997293 1.0049 0.994188
0.998979 1.00416 0.992395
0.996995 1.00303 0.996484
0.99744 1.00412 0.994959
0.995377 1.00508 0.99786
1.00121 0.999149 0.994724
0.999318 1.00155 0.994234
1.00223 0.999843 0.991291
1.00483 0.999697 0.988031
1.00314 1.00139 0.989587
1.00302 0.999257 0.991262
0.999042 1.00441 0.991853
0.999321 1.00514 0.989565
0.998981 1.00451 0.992788
0.99979 1.00512 0.99021
1.00053 1.00507 0.988784
0.999539 1.00508 0.991481
0.999942 1.00507 0.989956
0.999918 1.00389 0.990986
0.999969 1.00472 0.990522
0.999955 1.00324 0.991796
1.00015 0.999672 0.995696
0.999989 1.0027 0.992215
0.999985 0.999569 0.995628
1.00011 0.997459 0.997561
0.999853 0.999456 0.995636
1.00001 0.99736 0.998441
0.999972 0.997367 0.999108
1.00035 1.00363 0.990674
1.00003 1.00126 0.993656
1.00025 1.00277 0.991781
1.00005 0.998383 0.996423
0.999926 1.00089 0.994116
1.00027 1.00206 0.99238
1.00002 0.996846 0.999232
1.00002 0.998321 0.996518
0.999917 1.00072 0.994324
1.00006 0.99834 0.996444
1 0.996902 0.999216
0.999981 0.996983 0.999189
0.994728 0.994785 0.781552
0.999267 0.994867 0.854139
0.99478 0.994773 0.782066
0.994791 0.994835 0.783854
0.998872 0.994859 0.959533
1.00282 0.994751 0.986964
0.999508 0.994791 0.927235
0.9965 0.994772 0.874003
0.994826 0.994859 0.79563
0.998176 0.994811 0.969105
0.996601 0.994717 0.923542
0.994747 0.994771 0.872394
0.994789 0.994997 0.786288
0.994919 0.994795 0.961355
0.994754 0.994701 0.923453
0.994801 0.995519 0.848285
0.994849 0.994884 0.798243
1.00048 1.00454 0.990611
0.999085 1.00396 0.992193
0.999874 1.0026 0.992539
0.997425 1.00358 0.994882
1.00095 1.00362 0.989607
1.00006 1.00438 0.990424
0.999054 1.00413 0.991884
1.00127 1.00361 0.989549
1.00086 1.00438 0.989446
1.00023 1.00374 0.990668
1.00203 0.994822 0.990367
1.00255 0.998516 0.990768
1.00311 0.998751 0.990803
1.00021 0.997433 0.996128
0.999102 1.0037 0.995269
0.997888 1.00477 0.993749
0.998753 1.0051 0.991811
0.999525 1.00391 0.991827
0.999347 0.996441 0.989186
0.998043 1.00514 0.993064
0.997934 1.00419 0.995563
1.00032 0.999852 0.994877
0.998116 1.00127 0.996914
0.99605 1.00086 0.988216
0.996715 1.00154 0.999578
0.994834 1.00509 0.997722
0.997025 1.00448 0.995067
0.996094 1.00523 0.995799
0.994769 0.994787 0.79689
0.994735 0.994766 0.799132
0.999828 0.995894 0.842999
0.9971 1.00496 0.995424
0.99868 1.00099 0.996985
0.996969 0.999223 0.998905
0.994727 0.994795 0.789882
0.994789 0.994702 0.923926
0.994926 0.994797 0.954728
0.994868 0.995864 0.992155
0.994774 0.995182 0.8746
0.994795 0.994769 0.78221
0.995566 0.994879 0.806042
0.996108 1.00363 1.00021
0.994764 0.994805 0.792104
0.9948 0.994827 0.784166
0.994853 1.00243 0.999032
0.994893 0.995734 0.966864
0.994872 0.994802 0.920935
0.995479 0.994897 0.815831
0.995226 0.997251 0.860784
0.994792 1.00499 1.00085
0.994781 0.994832 0.778662
0.994866 0.994845 0.798899
0.994849 0.994888 0.79781
0.994792 0.999516 0.988186
0.994844 0.995241 0.93768
0.997332 0.99489 0.87342
0.996057 1.00502 0.998784
0.995253 1.00476 0.999128
0.995287 1.00521 0.998966
0.999345 1.00489 0.990644
0.9975 1.00493 0.994038
0.994827 1.00532 0.998078
0.997622 1.00507 0.993558
0.995567 1.00504 0.997588
0.994799 1.00533 0.998557
0.994829 1.00517 0.998926
0.995513 1.00498 0.997789
0.997143 1.00481 0.994294
0.999702 1.00386 0.992333
0.996523 1.00369 0.996526
0.995381 1.00485 0.997774
0.997043 1.00432 0.994972
0.998443 1.00091 0.997033
0.998295 0.999102 0.998618
1.00198 1.00036 0.9901
0.998946 1.001 0.995089
1.00249 0.999843 0.990928
1.00452 1.0013 0.986376
1.00484 1.00215 0.984899
1.00478 0.99967 0.98795
1.00395 0.999894 0.987978
1.00211 1.00336 0.988437
1.00203 1.00183 0.989862
1.00185 0.998941 0.992059
0.999832 1.00411 0.991639
0.999941 1.00513 0.989363
1.00085 1.00515 0.987783
1.00041 1.00511 0.990273
1.00079 1.00507 0.988764
1.00042 1.00433 0.989762
1.00009 1.00506 0.989957
1.00011 1.00371 0.990965
1.00017 1.00006 0.99531
0.999998 1.0032 0.991802
1.00013 0.99973 0.995249
1.00025 0.997544 0.997281
0.999982 0.999603 0.995295
1.0001 0.997424 0.998308
1.00005 0.997356 0.999038
1.00072 1.00376 0.989735
1.00012 1.00176 0.992615
1.00044 1.00353 0.990684
1.0001 0.998568 0.99616
1.00007 1.00122 0.993461
1.00023 1.00277 0.991568
1.00004 0.996875 0.999205
1.00005 0.998357 0.996439
0.999992 1.00074 0.994132
1.00001 0.996876 0.99923
1.00002 0.998328 0.996518
1 0.996901 0.999211
0.994811 0.99481 0.78764
0.994737 0.994825 0.796628
0.999303 0.994838 0.852878
1.00094 1.00375 0.989793
0.994785 0.994801 0.787831
0.994778 0.994786 0.781973
0.994836 0.994838 0.798608
0.998313 0.994791 0.96876
0.996404 0.994741 0.938119
0.994687 0.994855 0.855269
0.994765 0.994855 0.797787
0.995653 0.994786 0.958915
0.994802 0.994709 0.936108
0.994755 0.995053 0.852043
0.994866 0.994889 0.800215
0.994895 0.994763 0.953363
0.994776 0.994811 0.932166
0.996261 0.996009 0.864204
0.995529 0.994902 0.821321
0.999021 1.00391 0.99241
0.999673 1.00451 0.990832
0.999237 1.00353 0.992361
1.00132 1.00229 0.990509
1.00096 1.00396 0.989621
0.999971 1.00465 0.990622
1.00139 1.00361 0.989483
1.00094 1.0044 0.989403
0.998428 0.997311 0.989698
0.999657 0.999668 0.994904
0.999307 1.00408 0.991564
0.999438 1.00004 0.996848
0.998525 1.00353 0.995586
0.998787 1.00514 0.992602
0.997452 1.00439 0.99434
0.99562 1.00036 0.988485
0.996986 1.00506 0.995605
0.996078 1.00348 0.997879
0.995906 1.00129 0.99966
0.996302 1.00514 0.99582
0.994819 1.00223 0.985583
0.995206 1.00327 0.998781
0.995744 1.0046 0.997848
0.996501 1.00555 0.996142
0.994753 0.994811 0.782335
0.994764 0.994791 0.793439
0.994734 0.994734 0.794031
0.995905 1.0036 1.0005
0.994824 1.00179 0.997891
0.99478 0.994817 0.793794
0.994752 0.994845 0.935389
0.994887 0.995678 0.963755
0.995421 0.995826 0.85926
0.994788 0.994827 0.785161
0.994891 0.994907 0.810458
0.994837 1.00495 1.00082
0.994781 0.994831 0.779031
0.994874 0.994856 0.797775
0.99483 1.00014 0.991933
0.994865 0.994894 0.799938
0.994833 0.996838 0.930295
0.996553 0.997412 0.875075
0.995243 1.00402 0.997178
0.994839 0.994843 0.791255
0.994797 0.994815 0.789818
0.994803 0.99523 0.793225
0.996348 0.996648 0.864053
0.994889 1.0012 0.97091
0.994953 0.996212 0.923049
0.995602 1.00506 0.998964
0.995195 1.0052 0.999027
0.994821 1.00527 0.998042
0.997023 1.00511 0.993616
0.995128 1.00476 0.997629
0.994799 1.00533 0.998498
0.995267 1.0046 0.997749
0.994842 1.00512 0.998891
0.997216 1.00228 0.999215
0.995261 1.00471 0.997678
0.996387 1.00468 0.995028
0.997754 1.00139 0.997652
0.998208 1.00051 0.994909
0.995496 0.99918 1.00216
1.00164 1.00008 0.991353
1.00432 1.00426 0.982837
1.00433 1.00314 0.984288
1.00281 0.999782 0.990479
1.00432 1.00153 0.985919
1.00508 1.00221 0.984176
1.00508 1.0018 0.985151
1.0044 1.00214 0.985059
1.00418 1.00045 0.987905
1.00405 1.00023 0.98782
1.00334 1.00004 0.987952
1.001 1.00504 0.987671
1.00155 1.00375 0.988521
1.00086 1.00232 0.990137
1.00065 1.00511 0.989163
1.00126 1.00513 0.987805
1.00068 1.00488 0.988573
1.00098 1.00509 0.988744
1.00058 1.00424 0.989747
1.0002 1.00054 0.993951
1.00039 1.00371 0.990954
1.00023 1.00006 0.99445
1.00011 0.997656 0.998788
1.00012 0.999836 0.994881
1.00019 0.997509 0.998111
1.00013 0.997414 0.998937
1.00071 1.00399 0.989598
1.00032 1.00251 0.99163
1.00066 1.00387 0.989929
1.00018 0.998879 0.995746
1.00022 1.00179 0.992495
1.00049 1.00353 0.990689
1.00006 0.996966 0.999143
1.00012 0.99851 0.996181
1.00006 1.0012 0.993267
1.00003 0.996865 0.999215
1.00005 0.998334 0.996456
1.00001 0.996879 0.999228
0.994775 0.99482 0.78816
0.994804 0.994805 0.788034
0.994731 0.994837 0.79569
1.00105 1.00359 0.989769
1.00025 1.00481 0.989128
1.00187 1.00161 0.99106
0.994871 0.994859 0.797729
0.994795 0.994801 0.788984
0.99479 0.994773 0.782053
0.9964 0.99478 0.959131
0.994837 0.994682 0.923773
0.994766 0.995394 0.873706
0.994866 0.994869 0.794414
0.994911 0.99481 0.954549
0.994792 0.994799 0.92784
0.99609 0.996754 0.862371
0.995361 0.994906 0.815922
0.994905 0.994881 0.953261
0.994845 0.994864 0.932691
0.99718 0.994892 0.873055
0.994868 0.994887 0.79614
0.998417 1.00298 0.993994
0.999447 1.00365 0.992241
0.999614 1.00458 0.991055
1.0013 1.00236 0.990433
1.00061 1.00443 0.989634
1.00147 1.00365 0.989417
0.99546 1.0002 0.989099
0.995588 1.00146 0.99984
0.998594 1.00341 0.99364
0.997764 1.00252 0.997891
0.997895 1.00479 0.995423
0.996243 1.00443 0.996039
0.995974 1.00541 0.995968
0.994805 1.00293 0.985545
0.995337 1.00522 0.998088
0.99475 1.00386 0.997887
0.995624 1.00496 0.997783
0.994818 1.00046 0.983968
0.994981 1.00515 0.994623
0.994784 1.00277 0.999121
0.994866 0.99485 0.782468
0.994762 0.99482 0.781426
0.994761 0.994792 0.790019
0.994883 1.00481 1.00075
0.994851 1.00034 0.987459
0.994779 0.994829 0.779413
0.994804 0.996373 0.930147
0.996124 0.994882 0.860445
0.994885 0.994854 0.796621
0.994867 0.994867 0.794257
0.995061 1.00372 0.997683
0.994823 0.994843 0.790466
0.994813 0.994804 0.791111
0.994921 1.0014 0.967976
0.994782 0.995067 0.785878
0.995951 0.997369 0.861819
0.994858 0.996565 0.937003
0.994997 1.00514 0.988329
0.994776 0.994824 0.789808
0.99478 0.994793 0.783196
0.994776 0.995091 0.805514
0.99481 0.995024 0.846624
0.994824 0.995734 0.933878
0.994836 1.00135 0.961814
0.995094 1.00518 0.999024
0.994904 1.00526 0.998007
0.994992 1.00518 0.997737
0.995644 1.00429 0.997713
0.994892 1.00527 0.998793
0.995892 1.00367 0.999186
0.998093 1.00101 0.998986
0.996918 1.00191 0.998243
1.0007 1.00019 0.99391
1.00186 1.00511 0.986765
1.00114 0.999695 0.993069
1.00432 1.00414 0.983613
1.00421 1.00356 0.983209
1.00504 1.00066 0.985321
1.00505 1.0017 0.984641
1.00436 1.003 0.984304
1.00429 1.00185 0.985471
1.005 1.00255 0.984138
1.00509 1.00206 0.984316
1.00512 1.00104 0.985777
1.00466 1.00197 0.985257
1.00376 1.00213 0.985228
1.00209 1.003 0.988275
1.00362 1.00113 0.987764
1.00332 1.00083 0.987668
1.00091 1.00519 0.987853
1.00147 1.00503 0.987659
1.0008 1.00405 0.988607
1.00167 1.00512 0.987831
1.00104 1.00478 0.988593
1.00016 1.00139 0.993164
1.00092 1.00405 0.989724
1.00025 1.00056 0.993915
1.0002 0.997917 0.998689
1.00031 0.999993 0.994435
1.00023 0.997692 0.997954
1.0002 0.997513 0.998832
1.00144 1.0037 0.989127
1.00057 1.0029 0.991118
1.00093 1.00378 0.989573
1.00024 0.9993 0.995216
1.00033 1.00251 0.991712
1.00058 1.00392 0.990129
1.00009 0.997097 0.999049
1.00019 0.998792 0.995773
1.0003 1.00179 0.992376
1.00006 0.996928 0.999163
1.00013 0.998458 0.996203
1.00003 0.996886 0.999226
0.994831 0.994846 0.789229
0.994777 0.994835 0.788571
0.994807 0.994803 0.788336
0.999904 1.00535 0.989088
1.00227 1.00201 0.9915
1.00085 1.00368 0.989753
1.00046 1.00469 0.989006
1.00074 1.00186 0.991581
1.00065 1.00275 0.991029
0.999063 1.00113 0.994572
0.994832 0.994834 0.78492
0.994872 0.994859 0.796578
0.994796 0.994829 0.790109
0.994891 0.994916 0.810436
0.995369 0.994809 0.953335
0.994812 0.99549 0.922144
0.995947 0.994936 0.875159
0.994924 0.995167 0.952428
0.994831 0.998066 0.918886
0.996457 0.99718 0.874233
0.995102 0.994902 0.805545
0.994916 0.995985 0.956557
0.994872 0.997993 0.920631
0.994906 0.99497 0.852069
0.994775 0.99501 0.784837
0.996061 1.0048 0.996331
0.998242 1.00331 0.994546
0.999155 1.0042 0.992069
1.0012 1.00284 0.990362
0.994805 1.00247 0.985373
0.994616 1.00408 0.997008
0.996261 1.00469 0.996263
0.996729 1.00531 0.995794
0.994842 1.00529 0.998515
0.995183 1.00515 0.997672
0.995908 1.00362 0.99926
0.995145 1.00132 0.980938
0.995312 1.00514 0.994711
0.996014 1.0028 0.999534
0.995558 1.00165 0.976826
0.99468 1.00304 0.999656
0.994754 0.994831 0.784676
0.994848 0.994849 0.787269
0.994773 0.994837 0.780499
0.994836 1.00381 0.998183
0.994884 1.00122 0.971784
0.994806 0.994845 0.789696
0.994897 0.997035 0.924271
0.995841 0.994918 0.875012
0.994805 0.994833 0.792192
0.99475 0.994911 0.79703
0.994931 1.00514 0.989396
0.994784 0.994834 0.790278
0.994767 0.9948 0.783164
0.994825 1.00089 0.961892
0.9948 0.99494 0.800666
0.994761 0.995161 0.850372
0.99486 0.996202 0.920675
0.994895 1.00406 0.983255
0.994828 0.994817 0.788067
0.994743 0.994857 0.783338
0.994721 0.99471 0.872464
0.994821 0.994882 0.932588
0.994814 0.999795 0.956993
0.994924 1.00526 0.998526
0.995071 1.00495 0.997778
0.995681 1.00378 0.99773
0.995086 1.00443 0.999154
0.996421 1.00311 0.999272
1.00041 1.00079 0.994913
1.00315 0.999896 0.992928
1.00273 1.00508 0.985832
1.00435 1.00225 0.98481
1.00404 1.00398 0.984386
1.00446 1.00351 0.983178
1.00479 1.00145 0.984983
1.00524 0.99805 0.987361
1.00512 1.00018 0.986025
1.005 1.00084 0.985364
1.00506 1.00179 0.984757
1.00504 1.00156 0.984636
1.00439 1.0029 0.984317
1.00509 1.00313 0.983375
1.005 1.00256 0.984184
1.00508 1.00199 0.984463
1.00385 1.00158 0.987688
1.00419 1.00169 0.986253
1.00438 1.00198 0.985363
1.00195 1.00419 0.987423
1.00231 1.00281 0.988269
1.00309 1.00201 0.987625
1.00034 1.00188 0.992351
1.00119 1.00515 0.987905
1.00185 1.00501 0.987646
1.0012 1.0047 0.988611
1.00019 1.0014 0.993146
1.00017 0.9983 0.998521
1.00023 1.00065 0.99388
1.0002 0.997912 0.998643
1.00023 0.997607 0.998737
1.00094 1.00503 0.989548
1.00151 1.00512 0.98851
1.00086 1.00338 0.990187
1.00114 1.00413 0.989123
1.00024 0.999786 0.994721
1.00053 1.00299 0.991117
1.00098 1.00391 0.989547
1.0001 0.997413 0.99892
1.00023 0.999277 0.995239
1.0004 1.00251 0.991792
1.00009 0.997095 0.999077
1.0002 0.99876 0.995805
1.00007 0.996904 0.999183
0.994788 0.994847 0.780688
0.994823 0.994836 0.788478
0.994781 0.994828 0.788973
1.00046 1.00534 0.988854
1.00042 1.00174 0.991963
1.00209 1.00088 0.988704
0.998597 1.00371 0.991375
1.00192 0.99945 0.992559
1.00086 1.00469 0.988876
1 1.00251 0.99211
1.00046 1.00363 0.99103
0.99937 1.00082 0.995377
0.999071 1.00339 0.994709
0.994761 0.994759 0.784172
0.994808 0.994837 0.786308
0.99487 0.994844 0.795437
0.995392 0.994874 0.807432
0.995992 0.994883 0.86018
0.994913 0.994982 0.951356
0.99482 0.995493 0.931685
0.994879 0.996462 0.952223
0.994899 0.9973 0.933153
0.995135 0.997446 0.861495
0.994797 0.995035 0.782683
0.994958 0.998211 0.954364
0.994798 0.995943 0.932928
0.994817 0.994907 0.876157
0.994726 0.995357 0.808501
0.998454 1.00018 0.996943
0.995761 1.00495 0.996647
0.998386 1.00275 0.995114
0.99475 1.00295 0.977478
0.994961 1.00512 0.994274
0.995043 1.00523 0.997503
0.994718 1.00448 0.999433
0.995409 1.00342 0.999372
0.994726 1.00165 1.00014
0.994797 1.00191 0.977382
0.995954 1.00155 1.00165
0.994913 1.00025 0.984534
0.994791 0.994811 0.797452
0.99478 0.994841 0.783654
0.994832 0.99484 0.792246
0.994956 1.00512 0.989722
0.994842 0.999973 0.959756
0.994802 0.994841 0.790754
0.994859 0.995746 0.932929
0.994767 0.995186 0.871224
0.994774 0.994775 0.783469
0.994835 0.994865 0.795851
0.995209 1.00468 0.984034
0.994815 0.994814 0.788228
0.994772 0.994847 0.78446
0.994866 0.998526 0.958105
0.994738 0.994814 0.871701
0.994828 0.995114 0.925308
0.994932 1.00257 0.981531
0.994722 0.994797 0.782085
0.996588 0.994762 0.874209
0.994786 0.994722 0.922881
0.994862 0.994854 0.957947
0.995414 1.00521 0.997869
0.995267 1.00432 0.997629
0.997585 1.00051 0.997871
0.99483 1.00497 0.99957
0.999296 1.00131 0.99566
1.00433 0.99581 0.992032
1.00368 1.00516 0.984871
1.00432 1.00208 0.984677
1.0049 0.998413 0.987467
1.00479 1.00352 0.983145
1.00474 1.00132 0.985039
1.00497 0.997912 0.988028
1.00532 0.995546 0.989625
1.00529 0.997607 0.987435
1.00525 0.997942 0.987397
1.00522 1.00013 0.986094
1.00511 1.00022 0.985965
1.00485 1.00095 0.985407
1.00523 1.00274 0.983596
1.00506 1.0017 0.984676
1.00503 1.00137 0.984632
1.00504 1.00282 0.98463
1.00459 1.00349 0.983807
1.00504 1.00263 0.984229
1.00227 1.00364 0.987323
1.0033 1.00175 0.987603
1.00344 1.00237 0.986725
1.00065 1.00277 0.992211
1.00179 1.00438 0.987518
1.00251 1.00275 0.988263
1.00024 0.999022 0.9958
1.00043 1.002 0.992753
1.0014 1.00512 0.987959
1.00028 1.00138 0.993121
1.0002 0.998466 0.998444
1.00022 0.998037 0.998595
1.00169 1.00272 0.9888
1.00186 1.00518 0.98784
0.999693 1.00518 0.989434
1.00088 1.00433 0.989255
1.00102 1.0048 0.988475
1.00013 1.00035 0.994291
1.0007 1.00362 0.990184
1.0009 1.00452 0.989113
1.00009 0.997711 0.998821
1.00024 0.999729 0.994751
1.00046 1.00301 0.991116
1.00009 0.99734 0.99896
1.00024 0.999186 0.995262
1.00008 0.997027 0.999106
0.99477 0.994818 0.796947
0.994793 0.994844 0.781133
0.994807 0.994854 0.787647
1.00321 1.00286 0.985833
1.00037 1.00507 0.98863
0.999976 1.00221 0.992542
1.00013 1.0048 0.990794
1.00331 1.00082 0.988713
1.00138 0.999314 0.994796
1.00396 1.00101 0.987596
0.996239 1.00471 0.994713
0.999496 1.00395 0.991029
0.999229 0.999337 0.996182
0.997529 1.00329 0.994692
0.99829 1.00234 0.995185
0.994788 0.994856 0.798435
0.994782 0.994769 0.78356
0.994798 0.99484 0.787401
0.994835 0.996146 0.798671
0.995299 0.995959 0.859954
0.994897 0.997807 0.920799
0.995795 0.995147 0.951829
0.995253 0.998144 0.954944
0.994759 0.995836 0.803056
0.994828 0.996645 0.924417
0.994758 0.995502 0.856122
0.994878 0.996434 0.960437
0.994782 0.994824 0.934764
0.994724 0.995228 0.874186
0.999828 0.995107 1.00144
0.998835 1.00053 0.996782
0.995312 1.00534 0.996943
0.994826 1.00192 0.977477
0.995966 1.00022 1.00055
0.995886 1.00274 0.999288
0.99661 0.999933 1.00202
0.994916 0.999341 0.984632
0.995742 0.998919 0.992568
0.994721 0.994791 0.798976
0.994782 0.994811 0.797701
0.994802 0.994839 0.782432
0.994947 1.00453 0.984174
0.994855 0.999807 0.957173
0.994796 0.994816 0.788666
0.994835 0.994945 0.920093
0.994676 0.994798 0.854705
0.994826 0.994855 0.798769
0.994885 1.0049 0.981183
0.994735 0.994834 0.796889
0.996163 0.994741 0.852287
0.994914 0.995219 0.953264
0.994823 0.994716 0.935754
0.995062 1.00033 0.989681
0.999397 0.995274 0.839961
0.996442 0.994754 0.938487
0.994922 0.994774 0.951612
0.994773 1.00534 0.997512
0.997181 1.00169 0.997567
1.00059 0.998557 0.993855
0.998444 1.00159 0.99641
1.00389 0.996344 0.991751
1.00496 0.995653 0.990631
1.00421 1.00188 0.984549
1.00485 0.998477 0.987362
1.00505 0.996095 0.989523
1.00469 1.00109 0.985103
1.00492 0.997837 0.987977
1.00534 0.99491 0.990213
1.00529 0.99487 0.990908
1.00532 0.995573 0.989606
1.00534 0.995504 0.98967
1.00537 0.997518 0.987476
1.00529 0.997573 0.987621
1.00527 0.997835 0.98743
1.00533 1.00084 0.984962
1.00521 1.00001 0.986008
1.00512 1.00028 0.985903
1.00535 1.00341 0.982683
1.00523 1.00275 0.983608
1.00505 1.00157 0.984593
1.0031 1.00297 0.986721
1.00427 1.00326 0.984584
1.00397 1.0037 0.984243
1.0011 1.00331 0.989734
1.00272 1.00323 0.987281
1.00283 1.00187 0.987507
0.99991 1.00026 0.997892
1.0008 1.00272 0.990833
1.00208 1.0044 0.987612
1.00024 0.998938 0.998192
1.00052 1.00205 0.992157
1.00024 0.998489 0.998357
1.0047 1.00129 0.986979
1.00258 1.00203 0.988372
1.00208 1.0043 0.987688
1.00124 1.00487 0.988531
1.00132 1.00521 0.987839
0.99998 1.00513 0.989318
1 1.00129 0.99368
1.00079 1.00445 0.989259
1.00101 1.00425 0.988434
1.00006 0.998009 0.998714
1.00012 1.00037 0.994305
1.00052 1.00394 0.990179
1.00007 0.997687 0.998847
1.00023 0.999731 0.994773
1.00008 0.997293 0.998999
0.994748 0.994792 0.78566
0.994784 0.994816 0.797273
0.9948 0.994839 0.78165
1.00341 1.00329 0.985732
1.0047 1.00418 0.985123
1.00203 1.00463 0.986847
0.999969 1.00499 0.990203
1.00448 1.00072 0.988743
0.998534 0.998688 0.996871
0.998006 1.0032 0.99443
1.00204 1.00193 0.989251
1.00112 1.00002 0.992819
0.998633 0.999572 0.996893
0.998032 1.00359 0.994643
0.999366 1.00266 0.994643
0.996544 0.994777 0.847399
0.994751 0.994852 0.792387
0.994799 0.994778 0.783893
0.994813 0.9949 0.797156
0.99477 0.995127 0.875863
0.994852 0.995265 0.920536
0.994809 0.997529 0.954093
0.994874 0.997093 0.957678
0.994816 0.994912 0.873037
0.994839 0.99493 0.922056
0.994899 0.997315 0.961619
0.995164 0.994652 0.92503
0.999013 0.995334 1.00493
0.99973 0.995008 1.00144
0.99854 1.00023 0.996774
0.994823 0.999169 0.984896
0.996313 0.999528 1.00239
0.995961 0.998996 0.9922
0.995426 0.996202 0.990194
0.999811 0.996755 0.854058
0.994726 0.994767 0.795544
0.994781 0.994819 0.797646
0.994852 1.00448 0.981713
0.994944 0.994857 0.951495
0.994731 0.994842 0.795751
0.994875 0.994691 0.923965
0.996547 0.994775 0.873668
0.995095 0.998368 0.986063
0.999329 0.99487 0.854166
0.9966 0.994717 0.923682
0.994916 0.994806 0.952671
0.995933 0.998153 0.986122
0.99931 0.994855 0.937362
0.994925 0.994808 0.959724
0.996496 1.00191 0.997282
0.999849 0.999259 0.993828
1.00321 0.99823 0.991521
1.00324 0.997027 0.991488
1.00488 0.9955 0.990542
1.00514 0.995057 0.990684
1.00484 0.99848 0.987259
1.00498 0.996302 0.989425
1.00533 0.99475 0.990309
1.00488 0.997798 0.987922
1.00534 0.994937 0.990163
1.00527 0.994806 0.99077
1.00533 0.994839 0.990826
1.00528 0.99486 0.990935
1.00529 0.994953 0.990923
1.00533 0.995979 0.989607
1.00532 0.995625 0.989765
1.00535 0.995452 0.989717
1.00541 0.998511 0.986875
1.00536 0.997574 0.987405
1.00529 0.997521 0.987806
1.00544 1.00241 0.983328
1.00535 1.00089 0.984972
1.00521 0.999926 0.985924
1.0044 1.00313 0.984673
1.00528 1.00329 0.982819
1.00521 1.00277 0.983622
1.00148 1.00355 0.988716
1.00301 1.00323 0.986617
1.0037 1.00329 0.984548
1.00028 1.0006 0.997433
1.00128 1.00308 0.989753
1.00278 1.00308 0.987227
1.00014 1.00019 0.996434
1.001 1.00254 0.990912
1.00029 0.999227 0.998009
1.00518 1.00328 0.983796
1.00375 1.00201 0.986791
1.00291 1.00212 0.987615
1.00306 1.00245 0.987949
1.00199 1.00437 0.987725
1.00127 1.00517 0.988054
1.00029 1.00168 0.992853
1.00093 1.00492 0.988512
1.00031 1.00522 0.987845
1.00007 0.998435 0.998507
1.00001 1.00103 0.993697
1.00081 1.00442 0.989264
1.00003 0.997997 0.99875
1.0001 1.00026 0.994342
1.00005 0.997615 0.998875
0.998741 0.994812 0.855478
0.994745 0.994789 0.791766
0.99479 0.994813 0.797742
1.00348 1.00346 0.985643
1.00288 1.00446 0.985432
1.00432 1.0041 0.984665
1.00473 1.00313 0.984375
1.00137 1.00195 0.991047
0.999483 1.00331 0.994182
1.00197 1.00181 0.990889
1.00126 1.00042 0.993011
1.00469 0.995058 0.991778
1.00204 0.997332 0.99517
1.00131 0.997943 0.995983
1.00029 0.998403 0.996492
0.999926 1.00154 0.994091
0.997435 0.994764 0.935134
0.997096 0.994768 0.851736
0.994702 0.994843 0.798622
0.994818 0.994875 0.857783
0.994779 0.994809 0.93311
0.99491 0.996556 0.959713
0.994903 0.99656 0.963417
0.994808 0.994699 0.937941
0.9958 0.994788 0.961211
0.997616 0.996282 1.0034
0.997806 0.996006 1.00502
0.999989 0.995505 1.00132
0.995943 0.998381 0.991979
0.996584 0.996299 0.991025
1.00011 0.995663 0.921776
0.999819 0.994897 0.861533
0.994728 0.994744 0.79219
0.995204 0.997963 0.982014
0.994917 0.994789 0.952167
0.999382 0.994836 0.85311
0.996437 0.994742 0.938117
0.995908 0.99765 0.986382
0.999791 0.994865 0.932592
0.995434 0.994807 0.957429
0.999714 0.995117 0.984947
0.997578 0.994817 0.969119
0.999391 0.999422 0.993799
1.00234 0.997285 0.991535
1.00504 0.99469 0.991419
1.00482 0.995428 0.990444
1.00511 0.994956 0.990627
1.00529 0.994706 0.990666
1.00486 0.996483 0.989326
1.00532 0.994758 0.990266
1.00532 0.994791 0.990508
1.00534 0.994968 0.990113
1.00527 0.994818 0.990764
1.00533 0.994854 0.990634
1.00532 0.994842 0.990816
1.00535 0.994852 0.990794
1.00528 0.994851 0.99096
1.00529 0.994943 0.990931
1.00525 0.995262 0.990628
1.00533 0.997061 0.988716
1.00533 0.995997 0.989609
1.00532 0.995681 0.989924
1.00539 1.00096 0.984653
1.00543 0.998636 0.986663
1.00535 0.99762 0.987334
1.00525 1.00311 0.983147
1.00544 1.0024 0.983405
1.00538 1.00094 0.984982
1.00222 1.00351 0.987525
1.00397 1.00338 0.984721
1.00498 1.00348 0.982955
1.00066 1.00127 0.996966
1.00158 1.00345 0.988687
1.00293 1.00336 0.986527
1.0005 1.00078 0.997253
1.00135 1.00292 0.989776
1.00042 1.00019 0.997537
1.00521 1.00384 0.983451
1.00514 1.00262 0.983893
1.00327 1.00379 0.985574
1.00297 1.00216 0.986586
1.00254 1.00284 0.987478
1.00179 1.00423 0.9873
1.00172 1.00376 0.987755
1.00113 1.00518 0.987981
1.00062 1.00243 0.991663
1.00008 0.998998 0.998212
1.00008 1.00192 0.992859
1.00057 1.00513 0.988495
1.00002 0.998397 0.998585
1.00002 1.00109 0.993681
1 0.997969 0.99878
0.999963 0.994843 0.937438
0.999843 0.994864 0.853003
0.994729 0.99477 0.785499
1.00306 1.00545 0.983994
1.00391 1.00384 0.9842
1.00274 1.00172 0.98958
1.0042 1.00322 0.984495
1.0052 0.999631 0.986198
1.00373 0.997443 0.990142
1.00121 1.0005 0.993174
1.00479 0.995205 0.991143
1.00187 0.99712 0.995268
1.00411 0.997082 0.990992
1.00209 0.998258 0.993741
1.0016 0.998845 0.994528
1.00102 0.998129 0.996052
1.0011 0.998137 0.996107
0.995071 0.994785 0.96005
0.997083 0.994734 0.930155
0.99628 0.994797 0.87083
0.994777 0.994671 0.924441
0.994909 0.996469 0.963914
0.995733 0.995514 0.966958
0.998949 0.994798 0.990673
0.999063 0.995779 1.00216
0.997268 0.996563 1.00512
0.99833 0.997863 0.991954
0.998492 0.994757 0.961023
1.0005 0.994888 0.937424
0.999815 0.996728 0.841376
0.995704 0.99749 0.986838
0.996036 0.994796 0.957404
0.999239 0.99482 0.927325
0.999114 0.996488 0.985522
0.997629 0.99482 0.968022
1.00249 0.996826 0.98753
1.00329 0.994687 0.984903
1.00139 0.997299 0.991539
1.00449 0.994727 0.991492
1.00522 0.994782 0.990824
1.00505 0.994869 0.990571
1.00529 0.994717 0.990615
1.00538 0.994844 0.990458
1.00533 0.994762 0.990222
1.00532 0.9948 0.990507
1.00536 0.994855 0.990536
1.00526 0.994827 0.990757
1.00533 0.99485 0.990656
1.00536 0.994864 0.990689
1.0053 0.994842 0.990806
1.00535 0.994843 0.990785
1.00529 0.994989 0.990908
1.00528 0.994937 0.990938
1.00525 0.995234 0.99065
1.00528 0.996361 0.989613
1.00533 0.999447 0.986395
1.00534 0.997292 0.98838
1.00534 0.996018 0.98961
1.00535 1.00242 0.983474
1.00541 1.00105 0.984674
1.00546 0.99877 0.986451
1.00307 1.0028 0.986948
1.00484 1.00344 0.983165
1.00543 1.00243 0.983485
1.00121 1.00157 0.996493
1.00229 1.00346 0.987417
1.00351 1.00373 0.984773
1.00088 1.00131 0.996791
1.00175 1.00331 0.988663
1.00069 1.00084 0.99708
1.00532 1.00126 0.984736
1.00509 1.00337 0.983384
1.00443 1.00401 0.983476
1.00505 1.00222 0.983994
1.00385 1.00339 0.985216
1.00309 1.00305 0.986203
1.00246 1.00427 0.987351
1.00217 1.00425 0.987297
1.00106 1.00299 0.990165
1.00096 1.00513 0.987924
1.00038 1.00259 0.991668
1.00015 0.999996 0.997737
1.00004 0.998925 0.998327
0.999905 1.00195 0.992877
0.999983 0.998335 0.998654
0.995612 0.994985 0.963561
0.999567 0.994887 0.921527
0.999847 0.995657 0.868186
1.00528 0.997328 0.988007
1.00439 1.00147 0.988146
1.00378 1.00328 0.984611
1.00426 0.997566 0.990256
1.0052 0.999747 0.986241
1.00518 0.996216 0.989686
1.00516 0.995721 0.990505
1.00141 0.997286 0.995379
1.00466 0.995906 0.990995
1.00171 0.998242 0.994014
1.00367 0.997933 0.990359
1.00318 0.994794 0.994536
1.0013 0.998384 0.99474
1.00078 0.99873 0.996124
0.998421 0.994702 0.989227
0.995551 0.994775 0.958551
0.996925 0.994733 0.923607
0.995415 0.995575 0.968393
0.998808 0.994819 0.993227
0.999469 0.995487 1.00088
1.00312 0.995407 0.977686
0.999252 0.994852 0.959101
1.00025 0.995314 0.921848
0.998168 0.997253 0.986073
0.997456 0.994801 0.967615
1.0017 0.995784 0.988177
1.00275 0.994707 0.985405
1.00349 0.996879 0.99014
1.00546 0.994687 0.990723
1.00399 0.994735 0.99157
1.00522 0.994789 0.990817
1.00539 0.994888 0.99045
1.00528 0.994727 0.990566
1.00537 0.994836 0.990466
1.00539 0.994865 0.990502
1.00532 0.994809 0.990507
1.00535 0.994859 0.990542
1.00533 0.994899 0.990729
1.00533 0.994848 0.990677
1.00536 0.994865 0.990686
1.00531 0.994871 0.990918
1.00534 0.994835 0.990777
1.00529 0.994931 0.990905
1.00528 0.995359 0.990688
1.00526 0.995205 0.990672
1.00528 0.996163 0.98978
1.00532 0.998777 0.98729
1.00533 1.00149 0.984471
1.00532 0.999712 0.986129
1.00535 0.997512 0.988045
1.0034 1.0015 0.987462
1.0053 1.0025 0.983493
1.00542 1.00113 0.984695
1.00186 1.00145 0.996079
1.00311 1.00254 0.986911
1.00461 1.00359 0.983175
1.00142 1.00164 0.996282
1.00242 1.00335 0.987302
1.00105 1.00147 0.996583
1.00535 0.99907 0.986388
1.00528 1.00129 0.984699
1.00542 1.00258 0.983278
1.00487 1.00304 0.983325
1.00487 1.00396 0.983072
1.00355 1.00353 0.985221
1.00471 1.00264 0.984858
1.0031 1.00334 0.986259
1.00145 1.00338 0.988955
1.00218 1.00432 0.987252
1.00097 1.00319 0.990194
1.00037 1.00108 0.99723
1.00019 1.00276 0.991676
1.00003 0.999778 0.997929
0.99997 0.998846 0.998425
0.99937 0.995101 0.9855
0.996517 0.994852 0.958724
1.00011 0.994841 0.937142
1.00541 0.995638 0.989519
1.00533 0.995411 0.989824
1.00531 0.997004 0.988246
1.0048 0.997564 0.990365
1.00518 0.999786 0.986292
1.00521 0.996077 0.989778
1.0054 0.994836 0.989946
1.00488 0.995383 0.991009
1.0016 0.998169 0.994314
1.00362 0.997985 0.991035
1.00519 0.994781 0.991066
1.00364 0.994709 0.99323
1.00264 0.994852 0.994341
1.00153 0.997574 0.994956
0.998968 0.994653 0.989139
0.996293 0.994796 0.95753
0.999034 0.994814 0.995926
1.00478 0.99562 0.989752
1.00327 0.995292 0.977812
0.998784 0.994883 0.959149
1.00154 0.994781 0.988725
1.00231 0.99472 0.985927
1.00369 0.995873 0.990519
1.00544 0.994682 0.990841
1.00546 0.994754 0.990899
1.00551 0.994821 0.991216
1.00523 0.994802 0.990807
1.00541 0.99487 0.990461
1.00539 0.994858 0.990772
1.00537 0.994825 0.990474
1.0054 0.994862 0.99053
1.00533 0.994883 0.990814
1.00534 0.994861 0.990548
1.00534 0.9949 0.990726
1.0053 0.994917 0.990954
1.00536 0.994866 0.990684
1.00531 0.994872 0.990912
1.00531 0.99497 0.99102
1.00528 0.994871 0.9909
1.00528 0.995339 0.990619
1.00534 0.997854 0.988175
1.00528 0.995969 0.989947
1.00532 0.998644 0.987433
1.00532 1.00089 0.985196
1.00353 1.00084 0.988055
1.00535 1.00147 0.984497
1.00532 0.999988 0.985863
1.00222 1.00089 0.996114
1.00341 1.00158 0.987503
1.00511 1.00272 0.983509
1.00196 1.00138 0.996064
1.00314 1.0025 0.986881
1.00162 1.00178 0.996125
1.00536 0.996763 0.988613
1.00533 0.998878 0.986671
1.00545 1.00113 0.984711
1.00525 1.00134 0.984655
1.00544 1.00268 0.983176
1.00425 1.0034 0.984182
1.00535 1.00388 0.982665
1.00379 1.0032 0.985231
1.00211 1.00364 0.987699
1.00347 1.0034 0.986336
1.00138 1.0035 0.988976
1.0007 1.00164 0.996812
1.00071 1.00336 0.990221
1.00019 1.00082 0.997411
0.999999 0.999559 0.9981
1.00377 0.995315 0.992114
0.999072 0.995291 0.983012
0.99638 0.994838 0.959541
1.00538 0.99502 0.990174
1.00538 0.995456 0.989679
1.00535 0.99488 0.990676
1.00534 0.99561 0.989775
1.00532 0.996743 0.988475
1.00544 0.994767 0.990379
1.00523 0.996061 0.989858
1.00536 0.995056 0.989937
1.00536 0.994708 0.990783
1.00366 0.997285 0.991702
1.0052 0.994774 0.990715
1.00306 0.994632 0.99348
1.00176 0.994902 0.99417
0.999398 0.994602 0.988781
1.00551 0.994784 0.991326
1.00499 0.995329 0.989735
1.00319 0.995231 0.978052
1.00374 0.994839 0.990882
1.00543 0.994687 0.990958
1.00543 0.994753 0.990868
1.00555 0.994826 0.991338
1.00539 0.994848 0.991309
1.00542 0.994856 0.990474
1.00538 0.994859 0.990771
1.00534 0.994886 0.991068
1.0054 0.994859 0.990559
1.00533 0.994885 0.990814
1.00528 0.994922 0.991098
1.00535 0.994902 0.990723
1.0053 0.994918 0.990954
1.00529 0.994898 0.991233
1.0053 0.994873 0.990907
1.00531 0.994977 0.99098
1.00533 0.996895 0.989237
1.00528 0.995319 0.99055
1.00534 0.997886 0.988176
1.00532 1.00036 0.985785
1.00531 0.998505 0.987576
1.00533 1.00086 0.985225
1.00345 1.00064 0.990236
1.00255 0.999945 0.992546
1.00352 1.00089 0.98899
1.00535 1.00144 0.984524
1.00214 1.00083 0.996178
1.00339 1.00145 0.987543
1.00197 1.00139 0.996081
1.00532 0.994896 0.990963
1.0053 0.995608 0.99012
1.00534 0.996735 0.988849
1.00529 0.999706 0.986229
1.00533 0.998635 0.986955
1.00541 1.00114 0.984643
1.00503 1.00261 0.98373
1.00544 1.00276 0.983076
1.00461 1.00297 0.984129
1.00296 1.00301 0.98672
1.00411 1.00288 0.985245
1.00197 1.00368 0.987717
1.00135 1.00204 0.996225
1.00137 1.00364 0.989008
1.00056 1.00153 0.996975
0.999982 1.0006 0.997616
1.00543 0.994816 0.991156
1.00359 0.995102 0.991579
0.999072 0.995231 0.980586
1.00533 0.994823 0.990712
1.00538 0.995075 0.990108
1.00535 0.995242 0.989856
1.00534 0.9949 0.990683
1.00534 0.995736 0.989725
1.00537 0.994825 0.990794
1.00541 0.994759 0.99034
1.00533 0.995206 0.989933
1.00531 0.994715 0.990827
1.0052 0.994821 0.990364
1.00277 0.99455 0.993702
1.00532 0.994858 0.9914
1.00548 0.994798 0.991332
1.00531 0.995026 0.989712
1.0054 0.994747 0.990827
1.00557 0.994823 0.991458
1.0054 0.994858 0.991282
1.00533 0.994902 0.991343
1.00538 0.994861 0.990771
1.00533 0.994888 0.991028
1.00527 0.994927 0.991268
1.00534 0.994887 0.990814
1.00528 0.994922 0.991097
1.00522 0.994929 0.99142
1.0053 0.994919 0.990954
1.0053 0.9949 0.991205
1.00533 0.996107 0.990186
1.00531 0.994985 0.990939
1.00535 0.996919 0.989228
1.0053 0.999936 0.98631
1.00534 0.997918 0.988178
1.00532 1.00034 0.985819
1.00348 1.00047 0.990368
1.00534 1.00083 0.985254
1.0037 1.0005 0.990079
1.00258 0.999653 0.992693
1.00221 1.00028 0.994513
1.00371 1.0009 0.989719
1.00212 1.00073 0.996232
1.0053 0.994871 0.990968
1.00527 0.995382 0.99056
1.00531 0.994906 0.990992
1.00527 0.998375 0.987662
1.0053 0.995553 0.990234
1.00532 0.996783 0.989085
1.0053 0.999655 0.9862
1.00534 1.00148 0.98446
1.00538 1.00116 0.984577
1.00516 1.00247 0.983729
1.00335 1.00186 0.987204
1.00482 1.00281 0.984084
1.00286 1.00313 0.986798
1.00183 1.00178 0.995986
1.00191 1.00364 0.987742
1.0011 1.00181 0.996472
1.00032 1.00143 0.997111
1.00534 0.99488 0.991068
1.00538 0.994821 0.991222
1.00307 0.995026 0.991066
1.0053 0.99487 0.990934
1.00534 0.994819 0.990662
1.00538 0.995115 0.990044
1.00534 0.994932 0.990688
1.00539 0.994835 0.990767
1.00537 0.994752 0.990301
1.00529 0.994726 0.990867
1.00533 0.994901 0.991385
1.00533 0.994861 0.991355
1.00546 0.994818 0.991336
1.00531 0.994922 0.99142
1.00542 0.994867 0.991256
1.00533 0.994903 0.991337
1.00527 0.994933 0.991393
1.00533 0.994888 0.990988
1.00527 0.994927 0.991272
1.00516 0.994961 0.991594
1.00528 0.994923 0.991096
1.00523 0.99493 0.991409
1.00533 0.995606 0.99082
1.00531 0.994901 0.991178
1.00531 0.996139 0.990181
1.00528 0.999597 0.986728
1.00536 0.996946 0.989219
1.0053 0.999919 0.986348
1.00344 1.00042 0.990434
1.00533 1.00032 0.985853
1.0037 1.00036 0.990187
1.00256 0.999685 0.992673
1.00393 1.00035 0.989929
1.00206 0.99981 0.993077
1.00148 1.00064 0.996885
1.00527 0.994913 0.991049
1.00532 0.994952 0.990933
1.0053 0.994879 0.990981
1.00529 0.997816 0.98827
1.00529 0.995197 0.990693
1.00531 0.994903 0.991024
1.00535 1.00053 0.985472
1.00527 0.998322 0.987655
1.0053 0.995491 0.990348
1.0053 0.999609 0.986171
1.00534 1.00151 0.984429
1.00332 1.00109 0.988112
1.00537 1.00228 0.983716
1.00327 1.00197 0.987198
1.0019 1.00118 0.996189
1.0027 1.0032 0.986851
1.00175 1.00175 0.99603
1.00093 1.00174 0.996697
1.00531 0.994906 0.991224
1.00536 0.994875 0.990997
1.00531 0.994822 0.991292
1.00529 0.994873 0.990949
1.00535 0.994816 0.990613
1.0054 0.994843 0.99074
1.0053 0.994928 0.991422
1.00532 0.994904 0.991398
1.00533 0.994865 0.991311
1.00531 0.994921 0.99143
1.00525 0.994946 0.991557
1.00533 0.994904 0.991332
1.00527 0.994936 0.991425
1.00514 0.994962 0.991651
1.00528 0.994927 0.991276
1.00517 0.99496 0.991592
1.00532 0.995331 0.991145
1.00525 0.99493 0.991399
1.00529 0.995649 0.99082
1.0053 0.999293 0.987027
1.0053 0.996167 0.990176
1.00528 0.999581 0.986756
1.00337 1.00042 0.990503
1.00529 0.999902 0.986387
1.00365 1.00034 0.990242
1.00245 0.999844 0.992649
1.0039 1.00026 0.990014
1.00209 0.999743 0.99308
1.00156 0.999996 0.993447
1.00525 0.994921 0.991261
1.00527 0.994939 0.991208
1.00527 0.994909 0.991029
1.00529 0.996662 0.98949
1.00533 0.995008 0.9909
1.0053 0.994887 0.990993
1.00529 0.999985 0.986208
1.00529 0.997383 0.988665
1.0053 0.995034 0.990826
1.00343 1.00047 0.988598
1.00533 1.00058 0.985436
1.00527 0.998273 0.987649
1.00535 1.00152 0.984399
1.00336 1.00105 0.988076
1.00195 1.0007 0.99635
1.00323 1.00217 0.987206
1.00197 1.00127 0.996101
1.00163 1.00168 0.996169
1.00527 0.994934 0.99142
1.00531 0.994903 0.991186
1.00538 0.99487 0.990926
1.00529 0.994877 0.990965
1.00524 0.994952 0.991568
1.00531 0.994927 0.991424
1.00532 0.994906 0.991411
1.00531 0.99492 0.991439
1.00525 0.994941 0.991558
1.00514 0.994956 0.991735
1.00527 0.994939 0.991457
1.00515 0.994964 0.991682
1.0053 0.995297 0.991258
1.00518 0.994959 0.991591
1.00529 0.995394 0.991141
1.00533 0.999014 0.987274
1.00525 0.995704 0.99082
1.00532 0.999272 0.98703
1.0034 1.00038 0.988827
1.00528 0.999567 0.986783
1.00358 1.00038 0.989428
1.00211 0.999944 0.996315
1.00385 1.00027 0.990049
1.00202 0.999848 0.993058
1.00165 0.999791 0.99347
1.00523 0.994943 0.991408
1.00523 0.994937 0.991389
1.00525 0.994925 0.991291
1.00525 0.995871 0.990588
1.00527 0.994939 0.991167
1.00526 0.994905 0.991008
1.00522 0.999089 0.98733
1.00529 0.996698 0.989486
1.00534 0.995048 0.990867
1.00349 1.00019 0.988811
1.00528 0.999712 0.986468
1.00529 0.996936 0.989058
1.00205 1.00023 0.996431
1.00346 1.00042 0.988568
1.00531 1.00063 0.985399
1.00339 1.001 0.988043
1.00198 1.00072 0.996304
1.00199 1.00132 0.995997
1.00524 0.994952 0.991484
1.00528 0.994934 0.991405
1.0053 0.994902 0.991149
1.00517 0.994953 0.991759
1.00524 0.994951 0.991545
1.00531 0.994926 0.991427
1.00525 0.994937 0.991558
1.00515 0.994955 0.99173
1.00532 0.995956 0.990572
1.00515 0.994966 0.991713
1.0053 0.995635 0.990896
1.00535 0.998181 0.988226
1.00527 0.995445 0.991137
1.00535 0.998992 0.987268
1.00334 1.00017 0.989118
1.00534 0.999254 0.987037
1.00343 1.00034 0.988832
1.00202 1.00001 0.996331
1.00364 1.00035 0.988529
1.00192 0.99999 0.994757
1.00161 0.999838 0.993467
1.00521 0.99495 0.991521
1.00519 0.994955 0.991572
1.00523 0.994942 0.991417
1.00525 0.995816 0.990705
1.00522 0.994941 0.991422
1.00525 0.994927 0.991321
1.00525 0.998813 0.987605
1.00527 0.996117 0.990222
1.00526 0.994938 0.991127
1.00351 1.00017 0.988822
1.00521 0.999029 0.987372
1.00528 0.996742 0.989483
1.00212 0.999958 0.996423
1.0035 1.00017 0.988793
1.00528 0.999431 0.98673
1.00209 1.00026 0.996405
1.0035 1.00037 0.988538
1.002 1.00078 0.996266
1.0052 0.994955 0.991622
1.00523 0.994952 0.991503
1.00528 0.994935 0.991391
1.00535 0.995988 0.9905
1.00517 0.994953 0.991722
1.00523 0.994949 0.991522
1.00515 0.994954 0.991725
1.00531 0.995935 0.990574
1.00532 0.998073 0.988369
1.00529 0.995969 0.990535
1.00535 0.998474 0.987844
1.00329 0.999986 0.98939
1.00537 0.998967 0.987261
1.00334 1.00018 0.989124
1.00188 1.00002 0.996387
1.00345 1.00032 0.988832
1.00196 1.00003 0.996345
1.00203 0.999992 0.992846
1.00519 0.994959 0.991586
1.00521 0.994947 0.991463
1.00528 0.995728 0.990807
1.00519 0.994956 0.991572
1.00523 0.994941 0.991427
1.00529 0.999239 0.987033
1.00527 0.995737 0.990704
1.0052 0.994945 0.991455
1.00348 1.00023 0.988834
1.00525 0.999099 0.987265
1.00528 0.996368 0.989857
1.00211 0.999909 0.996365
1.0035 1.00019 0.988819
1.00521 0.998971 0.987416
1.00214 0.999986 0.996431
1.00352 1.00017 0.988773
1.00215 1.00028 0.996374
1.00535 0.996073 0.99037
1.00521 0.994956 0.99164
1.00522 0.994952 0.991523
1.00529 0.998121 0.988358
1.00534 0.995983 0.990502
1.00518 0.994953 0.991685
1.0053 0.995915 0.990576
1.00534 0.998035 0.988352
1.00322 0.999877 0.989623
1.00536 0.998772 0.987462
1.00329 0.999989 0.989395
1.00179 1.00001 0.996462
1.00335 1.00019 0.989132
1.00183 1.00005 0.996422
1.00192 1.00005 0.99637
1.00531 0.995664 0.990874
1.00519 0.994958 0.99159
1.0052 0.994942 0.991404
1.00529 0.999073 0.98722
1.00529 0.995663 0.990811
1.00519 0.994958 0.991573
1.0034 1.00023 0.988985
1.00528 0.99927 0.987038
1.00529 0.995658 0.990702
1.00201 0.999966 0.996334
1.00346 1.00026 0.988837
1.00524 0.999381 0.986925
1.00213 0.999918 0.996388
1.00348 1.00023 0.988813
1.0022 0.999986 0.996429
1.00528 0.998755 0.987602
1.00534 0.995809 0.990702
1.00521 0.994957 0.991658
1.00317 0.999805 0.989803
1.00531 0.998075 0.988358
1.00533 0.995976 0.990504
1.00535 0.997992 0.988337
1.00324 0.999848 0.989627
1.00173 1 0.996506
1.00329 0.999992 0.989401
1.00177 1.00002 0.996473
1.00177 1.00007 0.996448
1.00529 0.998907 0.987438
1.00532 0.99563 0.990915
1.0052 0.994957 0.991594
1.00347 1.00011 0.990701
1.00528 0.999089 0.98723
1.00529 0.995599 0.990814
1.0019 1.00002 0.996363
1.00339 1.00026 0.988987
1.00526 0.9993 0.987044
1.00206 0.999958 0.996344
1.00344 1.00029 0.988839
1.00217 0.999914 0.996409
1.00329 0.999799 0.989683
1.00528 0.998483 0.987935
1.00533 0.995552 0.991034
1.00163 0.99998 0.996574
1.00317 0.999787 0.989795
1.00533 0.998033 0.98836
1.00325 0.999819 0.989626
1.00169 0.999992 0.996529
1.00173 1.00003 0.99649
1.0035 0.999953 0.990885
1.00527 0.998913 0.987448
1.00532 0.995596 0.990956
1.00124 1.00006 0.997069
1.0033 1.00014 0.989245
1.00527 0.999104 0.987244
1.00193 1.00001 0.996358
1.00336 1.00029 0.988988
1.0021 0.999946 0.996356
1.00162 0.999909 0.99354
1.00331 0.999821 0.990403
1.00527 0.9982 0.988264
1.00166 0.999978 0.996585
1.00319 0.999774 0.989795
1.00171 0.999982 0.996547
1.00105 1.00003 0.994048
1.00337 0.999924 0.990206
1.00526 0.998923 0.987456
1.00149 1.00004 0.99515
1.00327 1.00015 0.989269
1.00198 1 0.996355
1.00164 0.99997 0.996583
1.00315 0.999822 0.98979
1.00162 0.999972 0.996586
1.00139 0.999964 0.995312
1.00323 0.999923 0.989589
1.00183 1.00003 0.996405
1.00166 0.999983 0.996575
1.00171 0.999998 0.996496

TENSORS stress float
0.00260662 -0.000185915 0.000304587
-0.000185915 0.00135621 -5.64444e-05
0.000304587 -5.64444e-05 0.00132789
0.00799714 0.000158825 0.000372442
0.000158825 0.0048444 4.74032e-05
0.000372442 4.74032e-05 0.00485998
0.00221403 -0.000115953 0.000121274
-0.000115953 0.00109672 -2.15104e-05
0.000121274 -2.15104e-05 0.00105375
0.00244113 -0.000103492 0.000286318
-0.000103492 0.00123038 -3.1983e-05
0.000286318 -3.1983e-05 0.00121393
0.00259803 -0.000162205 0.000296357
-0.000162205 0.00134179 -4.92051e-05
0.000296357 -4.92051e-05 0.00131756
0.00267617 -0.000194616 0.000318462
-0.000194616 0.00140084 -5.93376e-05
0.000318462 -5.93376e-05 0.00137253
0.00212437 -0.000216049 6.10291e-05
-0.000216049 0.000887323 -1.5749e-05
6.10291e-05 -1.5749e-05 0.00074037
0.00813431 0.000151282 -1.04867e-05
0.000151282 0.00492277 -3.26118e-06
-1.04867e-05 -3.26118e-06 0.00494252
0.00721472 0.000274707 0.000183594
0.000274707 0.0043555 2.09788e-05
0.000183594 2.09788e-05 0.00432182
0.00747134 7.84391e-05 0.000123385
7.84391e-05 0.00448009 8.50826e-06
0.000123385 8.50826e-06 0.00445947
0.00197937 0.000260721 0.000339352
0.000260721 0.000971051 5.24435e-05
0.000339352 5.24435e-05 0.00094957
0.000247775 0.000289802 2.58996e-05
0.000289802 -0.000256606 2.28863e-05
2.58996e-05 2.28863e-05 -0.000441532
0.00198504 -2.99411e-05 0.000278097
-2.99411e-05 0.00093224 5.50726e-06
0.000278097 5.50726e-06 0.000937846
0.00174177 7.51417e-06 7.86585e-05
7.51417e-06 0.000801101 3.32239e-06
7.86585e-05 3.32239e-06 0.00074878
0.0019013 -0.000114225 -7.48509e-05
-0.000114225 0.000908886 1.41225e-05
-7.48509e-05 1.41225e-05 0.000842121
0.00209537 -0.00010133 9.1954e-05
-0.00010133 0.00102673 -6.22178e-06
9.1954e-05 -6.22178e-06 0.000987693
0.00227725 -0.000108197 0.000133507
-0.000108197 0.00114048 -2.4354e-05
0.000133507 -2.4354e-05 0.00109453
0.00219041 -0.000118155 0.000108492
-0.000118155 0.00108052 -1.60593e-05
0.000108492 -1.60593e-05 0.00103969
0.00224767 -0.000252705 -4.71117e-05
-0.000252705 0.000967929 8.05802e-06
-4.71117e-05 8.05802e-06 0.000830839
0.00670983 -0.000170844 0.000369398
-0.000170844 0.00403453 -1.89671e-05
0.000369398 -1.89671e-05 0.00406109
0.00232097 -7.82233e-05 0.000281166
-7.82233e-05 0.00115313 -2.39718e-05
0.000281166 -2.39718e-05 0.00114049
0.00252891 -0.000132269 0.000290138
-0.000132269 0.0012908 -4.05863e-05
0.000290138 -4.05863e-05 0.00127095
0.0020449 -0.000169828 7.63526e-05
-0.000169828 0.000869063 -1.26285e-05
7.63526e-05 -1.26285e-05 0.000755922
0.00212009 -0.000209185 6.85154e-05
-0.000209185 0.000885744 -1.54467e-05
6.85154e-05 -1.54467e-05 0.000752725
0.002586 -0.000177145 0.000325418
-0.000177145 0.00133694 -5.68264e-05
0.000325418 -5.68264e-05 0.00131203
0.00215722 -0.000223378 5.73921e-05
-0.000223378 0.000920305 -1.64354e-05
5.73921e-05 -1.64354e-05 0.000754648
0.00214792 -0.000447802 1.75336e-05
-0.000447802 0.00058992 -6.34106e-06
1.75336e-05 -6.34106e-06 0.000309273
0.00816666 0.000148907 -0.000399498
0.000148907 0.00493151 -4.01583e-05
-0.000399498 -4.01583e-05 0.00495876
0.00477689 0.00020066 -0.000166111
0.00020066 0.00276293 -2.06567e-05
-0.000166111 -2.06567e-05 0.00273787
0.0048804 0.000138318 -0.000174012
0.000138318 0.0028286 -2.11131e-05
-0.000174012 -2.11131e-05 0.0028065
0.0083857 8.93385e-05 -2.12073e-06
8.93385e-05 0.00508634 -1.81889e-06
-2.12073e-06 -1.81889e-06 0.0051067
0.000243653 0.000274664 -1.41794e-06
0.000274664 -0.000252443 -1.26779e-06
-1.41794e-06 -1.26779e-06 -0.000435469
0.00211314 8.04399e-05 0.000289102
8.04399e-05 0.00101381 2.97132e-05
0.000289102 2.97132e-05 0.00100405
0.00225507 0.000173601 0.000302223
0.000173601 0.00113566 4.67292e-05
0.000302223 4.67292e-05 0.00111217
0.00299953 0.00026267 0.000176502
0.00026267 0.00145177 2.77236e-05
0.000176502 2.77236e-05 0.00134717
0.00775048 -0.000218532 5.58095e-05
-0.000218532 0.00473202 3.79152e-06
5.58095e-05 3.79152e-06 0.0046871
0.00313434 0.000360929 0.000190785
0.000360929 0.00159146 3.6281e-05
0.000190785 3.6281e-05 0.00145811
0.000288569 0.000273351 2.58604e-05
0.000273351 -0.000217181 3.22653e-05
2.58604e-05 3.22653e-05 -0.000405286
0.0012976 0.000451958 2.87017e-05
0.000451958 0.000169446 6.4298e-06
2.87017e-05 6.4298e-06 -0.000164347
0.00606418 -0.000103318 0.00023197
-0.000103318 0.00369957 3.0159e-05
0.00023197 3.0159e-05 0.00369121
0.00664151 9.12151e-05 3.12284e-06
9.12151e-05 0.0039739 -2.17618e-06
3.12284e-06 -2.17618e-06 0.00400995
0.00437408 0.000104955 -0.000139694
0.000104955 0.002502 -6.84292e-06
-0.000139694 -6.84292e-06 0.00249198
0.00650625 5.7319e-05 0.000358176
5.7319e-05 0.00388883 5.20038e-06
0.000358176 5.20038e-06 0.00392613
0.00163561 9.28477e-05 8.05685e-05
9.28477e-05 0.000737054 6.3395e-06
8.05685e-05 6.3395e-06 0.000688965
0.000432772 1.52554e-05 1.27498e-05
1.52554e-05 -0.000182785 2.74986e-06
1.27498e-05 2.74986e-06 -0.000279733
0.00684334 0.000251354 0.000207223
0.000251354 0.00413867 2.1252e-05
0.000207223 2.1252e-05 0.00411227
0.00296566 9.7104e-05 0.00016226
9.7104e-05 0.00143361 1.21794e-05
0.00016226 1.21794e-05 0.00136854
0.0017329 -0.000102333 -9.40196e-05
-0.000102333 0.000813032 1.29879e-05
-9.40196e-05 1.29879e-05 0.000750771
0.00178501 -0.000134292 -8.73948e-05
-0.000134292 0.000846116 1.64679e-05
-8.73948e-05 1.64679e-05 0.000777057
0.00199186 -7.76219e-05 -6.30018e-05
-7.76219e-05 0.000957895 1.17478e-05
-6.30018e-05 1.17478e-05 0.000892398
0.00233097 -0.000254639 -0.000162588
-0.000254639 0.00101111 3.17876e-05
-0.000162588 3.17876e-05 0.000888604
0.00423292 -4.09854e-05 -0.00014266
-4.09854e-05 0.00241996 -9.34715e-07
-0.00014266 -9.34715e-07 0.00241046
0.00203908 -8.08504e-05 9.55195e-05
-8.08504e-05 0.000987272 -4.91071e-06
9.55195e-05 -4.91071e-06 0.000953113
0.00239334 -8.30667e-05 0.00013801
-8.30667e-05 0.00121148 -2.29393e-05
0.00013801 -2.29393e-05 0.00116369
0.00213966 -0.000109426 9.83097e-05
-0.000109426 0.00105097 -1.03485e-05
9.83097e-05 -1.03485e-05 0.00101141
0.00213088 -0.000147233 -3.8379e-05
-0.000147233 0.000910556 3.37667e-06
-3.8379e-05 3.37667e-06 0.00081231
0.00227052 -0.000270503 -5.44605e-05
-0.000270503 0.000992961 9.41809e-06
-5.44605e-05 9.41809e-06 0.000839105
0.00220885 -0.000223776 -4.18415e-05
-0.000223776 0.000941257 5.9622e-06
-4.18415e-05 5.9622e-06 0.000818883
0.00227557 -0.000457997 -1.03506e-05
-0.000457997 0.000671775 2.7475e-06
-1.03506e-05 2.7475e-06 0.000391448
0.00651383 -1.67143e-05 0.00035562
-1.67143e-05 0.00389071 -4.83005e-06
0.00035562 -4.83005e-06 0.00392926
0.00223904 -5.17613e-05 0.00027517
-5.17613e-05 0.0011033 -1.6814e-05
0.00027517 -1.6814e-05 0.00109586
0.00252708 -2.72068e-05 6.00656e-05
-2.72068e-05 0.00119162 -1.10914e-06
6.00656e-05 -1.10914e-06 0.00111585
0.0019935 -0.000135616 6.9141e-05
-0.000135616 0.00083992 -8.49096e-06
6.9141e-05 -8.49096e-06 0.000738446
0.00207629 -0.000189353 7.37686e-05
-0.000189353 0.000870124 -1.44542e-05
7.37686e-05 -1.44542e-05 0.000748199
0.00200527 -0.00027613 2.38765e-06
-0.00027613 0.000421466 -1.71338e-06
2.38765e-06 -1.71338e-06 0.000234678
0.00206006 -0.000396649 1.28969e-05
-0.000396649 0.000483587 -3.81101e-06
1.28969e-05 -3.81101e-06 0.000243651
0.00248875 -0.000141943 0.000319404
-0.000141943 0.00126601 -5.0653e-05
0.000319404 -5.0653e-05 0.00124
0.00214189 -0.000182183 4.95765e-05
-0.000182183 0.000947033 -1.45768e-05
4.95765e-05 -1.45768e-05 0.000774884
0.00210578 -0.000501759 2.17003e-05
-0.000501759 0.000598873 -6.4342e-06
2.17003e-05 -6.4342e-06 0.000274635
0.00206987 -0.0006001 2.49697e-06
-0.0006001 0.000284808 2.28305e-06
2.49697e-06 2.28305e-06 -3.65026e-05
0.00768307 0.000329365 -0.000412326
0.000329365 0.0046525 -5.23135e-05
-0.000412326 -5.23135e-05 0.00466215
0.0082585 5.03375e-05 -0.000357434
5.03375e-05 0.00500783 -3.29364e-05
-0.000357434 -3.29364e-05 0.00502854
0.00783754 0.000211097 -0.000388502
0.000211097 0.00472551 -4.37337e-05
-0.000388502 -4.37337e-05 0.0047486
0.000229218 0.000259362 -2.55934e-05
0.000259362 -0.000254955 -2.22842e-05
-2.55934e-05 -2.22842e-05 -0.000437823
0.00735916 0.000274469 -2.09688e-06
0.000274469 0.00443795 -2.72726e-06
-2.09688e-06 -2.72726e-06 0.00445512
0.00771719 0.000295846 -8.21588e-06
0.000295846 0.00466339 -3.85504e-06
-8.21588e-06 -3.85504e-06 0.00467575
0.000357184 0.000173567 2.97682e-07
0.000173567 -0.000264038 -3.22229e-07
2.97682e-07 -3.22229e-07 -0.00040894
0.00452107 -2.28248e-05 -0.000156209
-2.28248e-05 0.00264107 -1.04974e-05
-0.000156209 -1.04974e-05 0.00260972
0.000300324 0.000254303 1.68885e-06
0.000254303 -0.000244425 -4.06838e-07
1.68885e-06 -4.06838e-07 -0.000418248
0.00202376 0.000302406 7.87442e-05
0.000302406 0.000908484 4.8266e-06
7.87442e-05 4.8266e-06 0.000751849
0.00119135 0.000452795 1.14743e-06
0.000452795 8.72969e-05 3.69243e-07
1.14743e-06 3.69243e-07 -0.000249007
0.00686793 -6.75553e-05 0.000283878
-6.75553e-05 0.00419631 3.58238e-05
0.000283878 3.58238e-05 0.00419375
0.000498502 0.000162004 2.91888e-05
0.000162004 -3.23306e-05 1.65702e-05
2.91888e-05 1.65702e-05 -0.000136189
0.000448968 0.000135778 1.38421e-05
0.000135778 -0.000212838 1.21393e-05
1.38421e-05 1.21393e-05 -0.000345103
0.000452723 0.000206832 1.83062e-05
0.000206832 -0.000191463 2.05392e-05
1.83062e-05 2.05392e-05 -0.000348208
0.00151156 0.000377663 1.32448e-05
0.000377663 6.89071e-05 4.66207e-06
1.32448e-05 4.66207e-06 -0.00018052
0.0036553 0.00033117 0.000189776
0.00033117 0.00198519 3.28422e-05
0.000189776 3.28422e-05 0.00186787
0.00141024 0.00045306 2.56322e-05
0.00045306 0.000139483 7.16799e-06
2.56322e-05 7.16799e-06 -0.000172296
0.000737769 0.00039781 2.36708e-05
0.00039781 -8.14558e-05 5.74545e-06
2.36708e-05 5.74545e-06 -0.000416478
0.00182408 0.000685837 1.02093e-05
0.000685837 0.000310088 -5.20002e-06
1.02093e-05 -5.20002e-06 -0.000119204
0.00508597 -0.000148975 0.000159583
-0.000148975 0.00305864 1.74423e-05
0.000159583 1.74423e-05 0.00304554
0.00562144 -0.000157108 1.33943e-05
-0.000157108 0.00341082 2.86586e-06
1.33943e-05 2.86586e-06 0.00339457
0.00712332 8.2904e-05 -0.000378566
8.2904e-05 0.00426742 -2.13011e-05
-0.000378566 -2.13011e-05 0.00430165
0.00674296 8.31702e-05 -0.000369929
8.31702e-05 0.0040346 -1.31068e-05
-0.000369929 -1.31068e-05 0.00407201
0.00659775 8.39329e-05 -1.98243e-07
8.39329e-05 0.00395206 -4.50367e-06
-1.98243e-07 -4.50367e-06 0.00398691
0.00423218 4.62168e-05 -0.000150712
4.62168e-05 0.00240962 -8.74958e-06
-0.000150712 -8.74958e-06 0.00240568
0.0015572 4.44534e-05 7.15253e-05
4.44534e-05 0.000545018 2.27272e-06
7.15253e-05 2.27272e-06 0.000469393
0.00456315 0.00016806 -0.000143474
0.00016806 0.00263022 -9.22615e-06
-0.000143474 -9.22615e-06 0.00261118
0.00164536 0.000110668 7.27868e-05
0.000110668 0.000581256 4.06269e-06
7.27868e-05 4.06269e-06 0.000490153
0.00655658 0.000109431 0.000362145
0.000109431 0.00393321 7.41416e-06
0.000362145 7.41416e-06 0.00396387
0.000303425 1.03173e-05 1.63876e-05
1.03173e-05 -0.000258633 1.59437e-06
1.63876e-05 1.59437e-06 -0.00035127
0.00292151 5.37182e-05 0.0001605
5.37182e-05 0.00141622 8.39511e-06
0.0001605 8.39511e-06 0.00135968
0.00127538 8.97225e-05 4.37135e-06
8.97225e-05 -6.60391e-05 1.04797e-06
4.37135e-06 1.04797e-06 -0.00020019
0.00288484 0.000151728 0.000167799
0.000151728 0.00137372 1.58801e-05
0.000167799 1.58801e-05 0.00129748
0.0013935 0.000188069 2.50027e-06
0.000188069 -2.98895e-05 1.3532e-06
2.50027e-06 1.3532e-06 -0.000191216
0.00201271 3.66187e-05 -0.000278519
3.66187e-05 0.000945348 4.64013e-06
-0.000278519 4.64013e-06 0.000954132
0.00171482 -3.17697e-05 -8.04439e-05
-3.17697e-05 0.00079052 4.63058e-06
-8.04439e-05 4.63058e-06 0.000736383
0.00206886 -4.3663e-05 -5.67205e-05
-4.3663e-05 0.00100048 1.04416e-05
-5.67205e-05 1.04416e-05 0.000934169
0.0017263 -0.000119941 -9.50012e-05
-0.000119941 0.000810028 1.57161e-05
-9.50012e-05 1.57161e-05 0.000744964
0.00224358 -0.000124232 -0.000148449
-0.000124232 0.000969896 1.54162e-05
-0.000148449 1.54162e-05 0.000886604
0.00231894 -0.000209531 -0.000156125
-0.000209531 0.00099832 2.6468e-05
-0.000156125 2.6468e-05 0.000892116
0.002389 -0.000295546 -0.000171876
-0.000295546 0.00106938 3.47916e-05
-0.000171876 3.47916e-05 0.000926877
0.00240691 -0.000469788 -3.50411e-05
-0.000469788 0.000756211 1.09114e-05
-3.50411e-05 1.09114e-05 0.000475753
0.0066157 -0.000124109 2.5925e-06
-0.000124109 0.00397179 -2.14709e-06
2.5925e-06 -2.14709e-06 0.00400139
0.00192713 1.42279e-05 0.000102169
1.42279e-05 0.000904194 -5.80573e-06
0.000102169 -5.80573e-06 0.000881977
0.00120731 -2.02733e-05 -7.50749e-05
-2.02733e-05 0.000324385 2.9989e-06
-7.50749e-05 2.9989e-06 0.000248916
0.00207115 -9.96111e-05 -4.08085e-05
-9.96111e-05 0.000879963 3.8622e-06
-4.08085e-05 3.8622e-06 0.000791768
0.00565527 -0.000122913 0.000325638
-0.000122913 0.00332034 -3.15637e-05
0.000325638 -3.15637e-05 0.00331636
0.00281656 -0.000272089 -5.17971e-05
-0.000272089 0.00138096 6.10693e-06
-5.17971e-05 6.10693e-06 0.00122504
0.00216478 -0.000184871 -3.86031e-05
-0.000184871 0.000918888 4.36303e-06
-3.86031e-05 4.36303e-06 0.000810055
0.0020883 -0.000277816 -8.85216e-06
-0.000277816 0.00047332 2.02856e-06
-8.85216e-06 2.02856e-06 0.000292906
0.00231378 -0.000523191 -8.95549e-06
-0.000523191 0.000745838 2.68084e-06
-8.95549e-06 2.68084e-06 0.000418782
0.00216818 -0.000402884 -1.03153e-05
-0.000402884 0.000556895 2.96438e-06
-1.03153e-05 2.96438e-06 0.000313437
0.00209977 -0.00060241 9.71801e-07
-0.00060241 0.000307591 -1.3525e-07
9.71801e-07 -1.3525e-07 -1.38987e-05
0.000315696 4.62553e-06 1.72611e-05
4.62553e-06 -0.000254841 2.80245e-08
1.72611e-05 2.80245e-08 -0.00034435
0.00188667 -2.40465e-05 6.07815e-05
-2.40465e-05 0.000764491 -3.04325e-06
6.07815e-05 -3.04325e-06 0.0006806
0.00204661 -0.000100289 2.64989e-06
-0.000100289 0.000463414 2.5716e-07
2.64989e-06 2.5716e-07 0.000345782
0.00206785 -0.00022304 8.24977e-07
-0.00022304 0.000474943 -5.53749e-07
8.24977e-07 -5.53749e-07 0.000320471
0.00214622 -0.000341473 7.82797e-06
-0.000341473 0.000510071 -1.93689e-06
7.82797e-06 -1.93689e-06 0.000305631
0.00216976 -0.000393808 -2.62675e-07
-0.000393808 0.000176321 3.28112e-08
-2.62675e-07 3.28112e-08 2.05114e-06
0.00780261 3.99201e-06 0.000306591
3.99201e-06 0.00474072 -2.94156e-05
0.000306591 -2.94156e-05 0.00474984
0.0019778 -0.000544761 2.61132e-06
-0.000544761 0.000156439 1.64587e-06
2.61132e-06 1.64587e-06 -0.000117046
0.000297579 -0.000242782 2.16313e-05
-0.000242782 -0.000239233 -2.76271e-05
2.16313e-05 -2.76271e-05 -0.000412313
0.00111304 -0.000468876 2.13784e-05
-0.000468876 4.14933e-05 -6.22313e-06
2.13784e-05 -6.22313e-06 -0.000321131
0.00223839 -0.000669955 1.85034e-06
-0.000669955 0.000465115 3.12922e-06
1.85034e-06 3.12922e-06 8.62857e-05
0.0021561 -0.000667292 1.74159e-06
-0.000667292 0.000244056 3.98801e-06
1.74159e-06 3.98801e-06 -5.03067e-05
0.000348759 -0.000195542 2.25463e-05
-0.000195542 -0.000144515 -2.34412e-05
2.25463e-05 -2.34412e-05 -0.000292041
0.00119947 -0.000210455 -1.53088e-06
-0.000210455 0.000431402 -4.58119e-06
-1.53088e-06 -4.58119e-06 0.000143097
0.00750808 0.000302582 -0.000412784
0.000302582 0.00453934 -4.7159e-05
-0.000412784 -4.7159e-05 0.00455341
0.00781963 0.000292385 -0.000406307
0.000292385 0.00472768 -5.07523e-05
-0.000406307 -5.07523e-05 0.0047439
0.000326251 0.000173374 -1.73751e-05
0.000173374 -0.000284925 -1.49509e-05
-1.73751e-05 -1.49509e-05 -0.000431077
0.00744113 -3.92945e-05 -0.000290089
-3.92945e-05 0.00452388 -2.57205e-05
-0.000290089 -2.57205e-05 0.00453345
-2.02404e-05 0.000226749 -2.1121e-05
0.000226749 -0.000407177 -2.58119e-05
-2.1121e-05 -2.58119e-05 -0.000575402
0.000280678 0.000242892 -2.13914e-05
0.000242892 -0.000255991 -2.1497e-05
-2.13914e-05 -2.1497e-05 -0.000429889
0.00117394 0.000454923 -3.14276e-05
0.000454923 6.57962e-05 -7.27149e-06
-3.14276e-05 -7.27149e-06 -0.000271972
0.00675158 -7.03034e-05 -1.18365e-05
-7.03034e-05 0.00411496 1.58586e-06
-1.18365e-05 1.58586e-06 0.00411519
0.000731196 0.000137806 1.47969e-06
0.000137806 0.000117565 3.81778e-07
1.47969e-06 3.81778e-07 1.60262e-05
0.00173569 0.000184908 7.62339e-05
0.000184908 0.000622616 7.42678e-06
7.62339e-05 7.42678e-06 0.000508282
0.00175703 0.000262157 8.05643e-05
0.000262157 0.000662394 9.33968e-06
8.05643e-05 9.33968e-06 0.000522403
0.00146716 0.000374699 -1.51258e-07
0.000374699 4.71027e-05 -3.99596e-07
-1.51258e-07 -3.99596e-07 -0.000203312
0.000239897 0.000227602 -9.91784e-07
0.000227602 -0.000218977 -1.02686e-07
-9.91784e-07 -1.02686e-07 -0.000371746
0.00135941 0.000449365 7.18634e-07
0.000449365 0.00010595 4.59934e-08
7.18634e-07 4.59934e-08 -0.000206314
0.00090415 0.000395015 3.2988e-06
0.000395015 2.24265e-05 -1.73662e-06
3.2988e-06 -1.73662e-06 -0.000306583
0.00187478 0.000697758 -2.06521e-06
0.000697758 0.000337711 -8.65332e-08
-2.06521e-06 -8.65332e-08 -9.11185e-05
0.000490418 0.00019883 2.13909e-05
0.00019883 -5.08657e-05 2.17597e-05
2.13909e-05 2.17597e-05 -0.00018077
0.000700097 8.97094e-05 1.63771e-05
8.97094e-05 0.000131833 1.64824e-05
1.63771e-05 1.64824e-05 3.73938e-05
0.000611402 0.000342159 2.38621e-06
0.000342159 9.94432e-05 -5.25367e-08
2.38621e-06 -5.25367e-08 -0.000168487
0.00147953 0.000316746 8.97977e-06
0.000316746 1.65708e-05 3.16165e-06
8.97977e-06 3.16165e-06 -0.000198867
0.00148594 0.000423839 1.90812e-05
0.000423839 0.000106111 6.27155e-06
1.90812e-05 6.27155e-06 -0.000176321
0.00222029 0.000575149 4.63508e-06
0.000575149 0.000289385 -1.44661e-06
4.63508e-06 -1.44661e-06 1.54492e-05
0.000384876 0.000300868 1.03127e-05
0.000300868 -0.000188709 7.06914e-06
1.03127e-05 7.06914e-06 -0.000488672
0.00222821 0.000708354 4.25182e-06
0.000708354 0.000460121 -4.22429e-06
4.25182e-06 -4.22429e-06 7.96701e-05
0.00191497 0.000745966 5.94164e-06
0.000745966 0.000541981 -8.08225e-06
5.94164e-06 -8.08225e-06 4.00373e-05
0.00184228 0.000734133 -9.42549e-06
0.000734133 0.00021473 -9.23804e-06
-9.42549e-06 -9.23804e-06 -0.000196741
0.00444675 -0.000146382 0.000111513
-0.000146382 0.0026261 9.73017e-06
0.000111513 9.73017e-06 0.00261548
0.00491127 -0.000181611 1.72023e-05
-0.000181611 0.00294495 -4.99131e-07
1.72023e-05 -4.99131e-07 0.00292421
0.00544532 -0.000204628 -0.000137505
-0.000204628 0.00329813 -1.21689e-05
-0.000137505 -1.21689e-05 0.00327165
0.000503712 -0.00020354 2.5074e-05
-0.00020354 -3.00254e-05 -1.99946e-05
2.5074e-05 -1.99946e-05 -0.00015724
0.00682291 5.89686e-05 0.000254729
5.89686e-05 0.00414867 -2.71395e-05
0.000254729 -2.71395e-05 0.0041485
0.00732942 0.000245272 -0.000405091
0.000245272 0.00441729 -3.80325e-05
-0.000405091 -3.80325e-05 0.00443973
0.00685669 0.000112898 -0.000372364
0.000112898 0.00410435 -1.84341e-05
-0.000372364 -1.84341e-05 0.00413918
0.000295474 0.000112944 -1.61187e-05
0.000112944 -0.000292369 -7.35214e-06
-1.61187e-05 -7.35214e-06 -0.000405454
0.000264227 4.73296e-05 -1.62858e-05
4.73296e-05 -0.000288445 -3.67456e-06
-1.62858e-05 -3.67456e-06 -0.000386479
0.00654004 -2.13198e-06 -0.000356118
-2.13198e-06 0.00390634 -3.76679e-06
-0.000356118 -3.76679e-06 0.00394484
0.00648693 -3.83091e-06 1.35639e-07
-3.83091e-06 0.00387336 -1.33337e-06
1.35639e-07 -1.33337e-06 0.00391224
0.000273789 1.66941e-06 -2.21814e-07
1.66941e-06 -0.00028099 1.82791e-07
-2.21814e-07 1.82791e-07 -0.000371972
0.00157345 5.2163e-05 7.23523e-05
5.2163e-05 0.000544002 3.58262e-06
7.23523e-05 3.58262e-06 0.000464181
0.00126646 9.31406e-05 4.22717e-08
9.31406e-05 -6.9791e-05 -3.67672e-08
4.22717e-08 -3.67672e-08 -0.000204814
0.000355735 0.00011031 -8.40411e-07
0.00011031 -0.000262502 -3.8556e-07
-8.40411e-07 -3.8556e-07 -0.000385257
0.00134337 0.000188369 -1.99e-07
0.000188369 -5.23995e-05 -1.03087e-07
-1.99e-07 -1.03087e-07 -0.000215131
0.000262638 -3.39244e-05 1.71449e-05
-3.39244e-05 -0.000288316 -1.84415e-07
1.71449e-05 -1.84415e-07 -0.000376437
0.00122258 3.98912e-05 4.62953e-06
3.98912e-05 -8.30027e-05 6.95023e-07
4.62953e-06 6.95023e-07 -0.000210816
0.00132535 0.00014134 3.11478e-06
0.00014134 -5.24066e-05 1.28787e-06
3.11478e-06 1.28787e-06 -0.000198077
0.00215965 0.000146513 1.68163e-06
0.000146513 9.95533e-05 7.81582e-07
1.68163e-06 7.81582e-07 2.8605e-05
0.00142564 0.000248899 5.10149e-06
0.000248899 -1.95761e-05 2.16493e-06
5.10149e-06 2.16493e-06 -0.000204335
0.00216371 0.000318012 2.35677e-06
0.000318012 0.000111226 2.21708e-07
2.35677e-06 2.21708e-07 -8.16435e-06
0.00652347 -8.61016e-05 -0.000360413
-8.61016e-05 0.0039065 5.58247e-06
-0.000360413 5.58247e-06 0.00393991
0.00159962 -0.000168872 -8.01834e-05
-0.000168872 0.000739644 1.06325e-05
-8.01834e-05 1.06325e-05 0.000677597
-0.000229419 -1.08001e-05 -8.54384e-06
-1.08001e-05 -0.000600231 1.14628e-06
-8.54384e-06 1.14628e-06 -0.000705419
0.00217924 -8.95468e-05 -0.000145069
-8.95468e-05 0.00094177 1.08835e-05
-0.000145069 1.08835e-05 0.000866049
0.00853216 0.000168298 -7.79856e-05
0.000168298 0.00517387 3.72482e-06
-7.79856e-05 3.72482e-06 0.00513446
0.00312053 -0.000333087 -0.000174956
-0.000333087 0.00158448 3.5376e-05
-0.000174956 3.5376e-05 0.00143921
0.00228171 -0.00016497 -0.00015142
-0.00016497 0.000979622 2.06105e-05
-0.00015142 2.06105e-05 0.000886458
0.00215341 -0.000278457 -2.26041e-05
-0.000278457 0.000513325 4.49816e-06
-2.26041e-05 4.49816e-06 0.000339479
0.0022502 -0.000407536 -3.02272e-05
-0.000407536 0.000611593 9.52968e-06
-3.02272e-05 9.52968e-06 0.000364983
0.00243399 -0.000535513 -3.96033e-05
-0.000535513 0.000834445 1.18281e-05
-3.96033e-05 1.18281e-05 0.000506837
0.0021107 -0.000602057 -1.03389e-06
-0.000602057 0.000320232 -2.44254e-06
-1.03389e-06 -2.44254e-06 -8.01045e-07
0.000266626 6.7204e-07 4.39227e-08
6.7204e-07 -0.000284347 3.8513e-07
4.39227e-08 3.8513e-07 -0.000374707
0.0020129 -0.0001039 -3.9213e-05
-0.0001039 0.000856112 7.62476e-07
-3.9213e-05 7.62476e-07 0.000774
0.00171638 -9.6481e-05 -1.40983e-05
-9.6481e-05 0.00024411 9.13736e-07
-1.40983e-05 9.13736e-07 0.000123056
0.00200065 -0.000218566 -1.2703e-05
-0.000218566 0.000424386 2.09299e-06
-1.2703e-05 2.09299e-06 0.000265159
0.00809609 -4.41702e-06 5.05238e-06
-4.41702e-06 0.00492767 -2.30886e-07
5.05238e-06 -2.30886e-07 0.00493725
0.00170363 -0.000243614 9.98982e-06
-0.000243614 0.000687903 5.39602e-08
9.98982e-06 5.39602e-08 0.000509925
0.0017414 -0.000497012 1.08155e-07
-0.000497012 0.000454898 -1.58997e-06
1.08155e-07 -1.58997e-06 9.94653e-05
0.002181 -0.000347486 -1.04578e-05
-0.000347486 0.000530246 2.94533e-06
-1.04578e-05 2.94533e-06 0.000323803
0.0022062 -0.00040136 2.07047e-06
-0.00040136 0.000192156 -1.0407e-06
2.07047e-06 -1.0407e-06 2.54116e-05
0.00218608 -0.000666269 1.78063e-06
-0.000666269 0.000429399 -2.45452e-08
1.78063e-06 -2.45452e-08 5.24841e-05
0.00211257 -0.000548616 2.26434e-07
-0.000548616 0.000252963 -1.5923e-07
2.26434e-07 -1.5923e-07 -2.22908e-05
0.00220524 -0.000670812 7.1976e-07
-0.000670812 0.000281151 3.41974e-07
7.1976e-07 3.41974e-07 -1.43944e-05
0.000373852 -0.000218603 1.91369e-06
-0.000218603 -0.000139415 3.91827e-07
1.91369e-06 3.91827e-07 -0.00028418
0.000812172 -0.000255345 -1.00132e-06
-0.000255345 0.000195006 2.83264e-07
-1.00132e-06 2.83264e-07 -0.000102379
0.00121247 -4.78777e-05 5.57336e-06
-4.78777e-05 -7.41645e-05 -5.37933e-09
5.57336e-06 -5.37933e-09 -0.000203706
0.00210919 -0.000159466 4.05105e-07
-0.000159466 0.000505136 2.19222e-08
4.05105e-07 2.19222e-08 0.000372881
0.00199666 -0.000160566 1.16414e-06
-0.000160566 3.13854e-06 -5.81884e-07
1.16414e-06 -5.81884e-07 -8.79171e-05
0.00222613 -0.000330302 -9.13704e-07
-0.000330302 0.000174177 7.98438e-07
-9.13704e-07 7.98438e-07 5.51983e-05
0.00201968 -0.00047883 -1.68008e-06
-0.00047883 0.000121415 1.05126e-06
-1.68008e-06 1.05126e-06 -9.92246e-05
0.00232435 -0.000446341 4.76521e-06
-0.000446341 0.000177737 -1.19243e-06
4.76521e-06 -1.19243e-06 5.49564e-05
0.000283926 -0.000226953 2.01542e-05
-0.000226953 -0.000220418 -2.71847e-05
2.01542e-05 -2.71847e-05 -0.000384927
0.00218622 -0.000605195 7.60027e-07
-0.000605195 0.000209661 2.18818e-06
7.60027e-07 2.18818e-06 -2.53836e-05
0.00152373 -0.000426435 1.63079e-05
-0.000426435 0.000406466 -8.98685e-06
1.63079e-05 -8.98685e-06 6.48105e-05
0.00186577 -0.000740811 9.68099e-06
-0.000740811 0.000305673 3.64225e-06
9.68099e-06 3.64225e-06 -0.000155957
0.00245818 -0.000747165 9.93132e-07
-0.000747165 0.000505082 3.63344e-06
9.93132e-07 3.63344e-06 0.000137463
0.00239749 -0.000702732 -1.26203e-06
-0.000702732 0.000374363 3.9951e-06
-1.26203e-06 3.9951e-06 0.000102975
0.000806703 -0.000261048 3.66308e-06
-0.000261048 0.000167261 -1.63439e-06
3.66308e-06 -1.63439e-06 -0.00014665
0.00164553 -0.00028337 7.45718e-06
-0.00028337 0.000717837 -2.97822e-06
7.45718e-06 -2.97822e-06 0.000463752
0.00165088 -0.000395811 -1.18142e-06
-0.000395811 0.000735237 5.8759e-07
-1.18142e-06 5.8759e-07 0.000356623
0.000337225 0.000144999 -1.61737e-05
0.000144999 -0.000283161 -1.16032e-05
-1.61737e-05 -1.16032e-05 -0.000418815
0.00616885 -0.000106834 -0.000220988
-0.000106834 0.00374022 -1.84328e-05
-0.000220988 -1.84328e-05 0.00373798
0.000424281 0.000117874 -1.96903e-05
0.000117874 -7.29736e-05 -1.68397e-05
-1.96903e-05 -1.68397e-05 -0.000170088
0.00027922 0.000206227 -1.89584e-05
0.000206227 -0.000294503 -1.85755e-05
-1.89584e-05 -1.85755e-05 -0.000453217
0.00141979 0.000372173 -1.48448e-05
0.000372173 2.20778e-05 -5.27781e-06
-1.48448e-05 -5.27781e-06 -0.000229457
0.000290402 0.000223899 -2.253e-05
0.000223899 -0.000200474 -2.5806e-05
-2.253e-05 -2.5806e-05 -0.000349259
0.00105267 0.000403961 -2.20569e-05
0.000403961 0.000111231 -1.1217e-05
-2.20569e-05 -1.1217e-05 -0.000216082
0.00131062 0.000445364 -2.69123e-05
0.000445364 7.46404e-05 -7.49047e-06
-2.69123e-05 -7.49047e-06 -0.000237979
0.00193625 0.000716708 -1.17299e-05
0.000716708 0.000362597 5.30194e-06
-1.17299e-05 5.30194e-06 -6.83923e-05
0.00036778 0.000199427 -5.86038e-06
0.000199427 -0.000132543 1.68601e-06
-5.86038e-06 1.68601e-06 -0.000255584
0.000354108 6.46051e-05 4.36262e-07
6.46051e-05 -8.19768e-05 9.67464e-07
4.36262e-07 9.67464e-07 -0.000172927
0.00104806 0.000279385 7.24463e-07
0.000279385 0.000339785 5.22464e-07
7.24463e-07 5.22464e-07 0.000103115
0.00146406 0.000316005 -2.85454e-07
0.000316005 1.52362e-05 -2.85873e-07
-2.85454e-07 -2.85873e-07 -0.000201435
0.00143875 0.000418525 1.25006e-07
0.000418525 8.19678e-05 -3.09312e-07
1.25006e-07 -3.09312e-07 -0.000200502
0.00219415 0.000573133 -6.15691e-07
0.000573133 0.000269471 -2.72763e-07
-6.15691e-07 -2.72763e-07 -3.98669e-06
0.000606066 0.000298366 1.08236e-07
0.000298366 -4.99636e-05 1.04549e-06
1.08236e-07 1.04549e-06 -0.000339112
0.0022412 0.000704251 -1.14815e-06
0.000704251 0.000469178 -4.76044e-07
-1.14815e-06 -4.76044e-07 8.85877e-05
0.0019015 0.000757164 -1.17121e-06
0.000757164 0.000497901 -2.63152e-06
-1.17121e-06 -2.63152e-06 -1.00651e-05
0.00179021 0.000741396 -1.36956e-06
0.000741396 0.00015621 3.49464e-06
-1.36956e-06 3.49464e-06 -0.000252415
0.00046346 4.18864e-05 8.49422e-06
4.18864e-05 6.72477e-07 1.4903e-05
8.49422e-06 1.4903e-05 -7.7922e-05
0.00125539 0.000337817 5.72966e-06
0.000337817 0.000466475 8.50035e-07
5.72966e-06 8.50035e-07 0.000184779
0.000738581 0.000168717 3.04558e-06
0.000168717 0.000192228 1.82187e-06
3.04558e-06 1.82187e-06 -4.53277e-05
-0.000527665 0.000122813 -6.44107e-06
0.000122813 -0.000632353 3.8917e-06
-6.44107e-06 3.8917e-06 -0.000920989
0.00226068 0.0004994 2.81419e-06
0.0004994 0.000245261 -2.37859e-06
2.81419e-06 -2.37859e-06 2.73312e-05
0.00217526 0.00064183 4.53984e-06
0.00064183 0.000341297 -2.23029e-06
4.53984e-06 -2.23029e-06 1.06521e-05
0.00226389 0.000633671 1.16093e-06
0.000633671 0.00023623 -1.82239e-06
1.16093e-06 -1.82239e-06 -1.61095e-05
0.00141024 0.00060492 -6.06021e-06
0.00060492 0.000332391 -6.70104e-06
-6.06021e-06 -6.70104e-06 -0.000127866
0.00255535 0.000809212 -6.41676e-06
0.000809212 0.000578186 -4.84202e-06
-6.41676e-06 -4.84202e-06 0.000209657
0.00230769 0.000903896 -1.61843e-05
0.000903896 0.000645011 -1.66932e-05
-1.61843e-05 -1.66932e-05 9.62007e-05
0.00215716 0.00078012 -5.85562e-06
0.00078012 0.000268124 -5.24162e-06
-5.85562e-06 -5.24162e-06 -0.000114643
0.000749736 0.000102699 -5.87056e-07
0.000102699 0.000236555 7.08551e-06
-5.87056e-07 7.08551e-06 0.000114633
0.000543491 2.54068e-05 3.97671e-06
2.54068e-05 5.64794e-05 1.26117e-05
3.97671e-06 1.26117e-05 4.90009e-06
0.0038844 -0.000130923 7.97571e-05
-0.000130923 0.00224812 7.12515e-06
7.97571e-05 7.12515e-06 0.00224117
0.00426116 -0.000174211 1.45259e-05
-0.000174211 0.00251318 -1.50654e-06
1.45259e-05 -1.50654e-06 0.00249433
0.00466227 -0.000225568 -8.33693e-05
-0.000225568 0.00280015 -1.03798e-05
-8.33693e-05 -1.03798e-05 0.00276517
0.000618963 -0.000224505 3.27603e-05
-0.000224505 5.97505e-05 -1.93597e-05
3.27603e-05 -1.93597e-05 -5.35782e-05
0.00636307 9.63436e-05 0.000220567
9.63436e-05 0.003869 -2.50481e-05
0.000220567 -2.50481e-05 0.00386241
0.0005154 -0.000213395 3.22486e-06
-0.000213395 -3.13653e-05 7.95071e-07
3.22486e-06 7.95071e-07 -0.000160707
0.00723797 3.76844e-05 5.48459e-06
3.76844e-05 0.00440922 3.6926e-09
5.48459e-06 3.6926e-09 0.00441089
0.00032615 0.000134626 -1.65275e-05
0.000134626 -0.000281797 -9.52484e-06
-1.65275e-05 -9.52484e-06 -0.000407875
0.000279787 4.31222e-05 -1.48758e-05
4.31222e-05 -0.00029259 -4.50033e-06
-1.48758e-05 -4.50033e-06 -0.00039512
0.00131239 0.000188863 -3.17228e-06
0.000188863 -6.67935e-05 -1.50237e-06
-3.17228e-06 -1.50237e-06 -0.000230844
0.00126232 9.60193e-05 -4.47581e-06
9.60193e-05 -7.15111e-05 -9.96066e-07
-4.47581e-06 -9.96066e-07 -0.000207269
0.000318298 -5.916e-06 -1.68385e-05
-5.916e-06 -0.000255715 -1.54548e-06
-1.68385e-05 -1.54548e-06 -0.000345232
0.00658629 -0.000106194 -0.000367723
-0.000106194 0.00395099 6.79434e-06
-0.000367723 6.79434e-06 0.00398332
0.000311975 -3.92337e-06 -6.81315e-10
-3.92337e-06 -0.000257813 -6.80677e-07
-6.81315e-10 -6.80677e-07 -0.000345685
0.00122687 4.50867e-05 2.25987e-08
4.50867e-05 -7.99854e-05 4.12786e-08
2.25987e-08 4.12786e-08 -0.000208204
0.00131216 0.000141616 -7.37614e-08
0.000141616 -5.77797e-05 6.00552e-08
-7.37614e-08 6.00552e-08 -0.000204263
0.00213297 0.000144467 -9.3016e-08
0.000144467 8.25111e-05 2.18472e-07
-9.3016e-08 2.18472e-07 1.1415e-05
0.00141211 0.000249308 -3.71629e-07
0.000249308 -2.23128e-05 -9.65792e-08
-3.71629e-07 -9.65792e-08 -0.000208511
0.00215838 0.000317805 -4.97678e-07
0.000317805 0.000107328 2.13879e-07
-4.97678e-07 2.13879e-07 -1.26559e-05
0.00119331 -6.51897e-06 4.99265e-06
-6.51897e-06 -8.99932e-05 2.629e-07
4.99265e-06 2.629e-07 -0.000216934
0.0021598 6.76185e-05 2.00959e-06
6.76185e-05 0.000103083 6.85085e-07
2.00959e-06 6.85085e-07 3.92966e-05
0.002139 0.000230964 1.35031e-06
0.000230964 8.87155e-05 5.69653e-07
1.35031e-06 5.69653e-07 -3.89763e-07
0.00219432 0.000162105 5.8143e-06
0.000162105 4.45367e-05 1.30029e-06
5.8143e-06 1.30029e-06 2.56212e-05
0.00222482 0.000407616 3.34852e-06
0.000407616 0.000168239 -5.44166e-07
3.34852e-06 -5.44166e-07 5.28811e-06
0.00228778 0.00034127 5.44326e-06
0.00034127 9.19643e-05 9.27325e-07
5.44326e-06 9.27325e-07 3.26331e-05
0.000309522 -6.19997e-06 -1.63282e-05
-6.19997e-06 -0.000253244 1.61464e-07
-1.63282e-05 1.61464e-07 -0.000345831
0.00211925 -5.9481e-05 -0.000142947
-5.9481e-05 0.000912676 7.3135e-06
-0.000142947 7.3135e-06 0.000844704
0.00135991 -9.22221e-05 -1.50966e-05
-9.22221e-05 6.67628e-06 1.28659e-06
-1.50966e-05 1.28659e-06 -0.000118196
0.00192935 -0.000214747 -2.00504e-05
-0.000214747 0.000370299 3.6421e-06
-2.00504e-05 3.6421e-06 0.000206233
0.00846616 -3.20033e-05 -0.00036038
-3.20033e-05 0.00515789 4.05225e-05
-0.00036038 4.05225e-05 0.00516911
0.0035911 -0.000352136 -0.000202224
-0.000352136 0.00190796 3.46185e-05
-0.000202224 3.46185e-05 0.00176622
0.00193614 -0.000521811 -3.1487e-05
-0.000521811 0.000613335 9.34287e-06
-3.1487e-05 9.34287e-06 0.000257021
0.0021978 -0.000352358 -2.79647e-05
-0.000352358 0.000537887 7.3922e-06
-2.79647e-05 7.3922e-06 0.000329691
0.00224866 -0.000409337 -6.41563e-07
-0.000409337 0.000211262 -1.50556e-06
-6.41563e-07 -1.50556e-06 5.21899e-05
0.00224681 -0.000552422 -9.6407e-07
-0.000552422 0.000350665 -1.04936e-06
-9.6407e-07 -1.04936e-06 7.36236e-05
0.00219946 -0.000669106 -6.10404e-07
-0.000669106 0.000433129 -3.61254e-06
-6.10404e-07 -3.61254e-06 5.68538e-05
0.00226615 -0.000676213 -4.15865e-07
-0.000676213 0.000323859 -3.13761e-06
-4.15865e-07 -3.13761e-06 2.66492e-05
0.000493475 -0.000231465 -2.21404e-05
-0.000231465 -6.51495e-05 2.37239e-05
-2.21404e-05 2.37239e-05 -0.00021312
3.30653e-05 -0.000212409 -1.37773e-06
-0.000212409 -0.000277878 3.24541e-06
-1.37773e-06 3.24541e-06 -0.000586282
0.00127413 -4.41993e-05 6.87216e-07
-4.41993e-05 -3.55504e-05 -4.31354e-08
6.87216e-07 -4.31354e-08 -0.000158784
0.00207523 -0.000159678 -1.20262e-05
-0.000159678 0.00047787 1.50319e-06
-1.20262e-05 1.50319e-06 0.000345857
0.0020187 -0.000156911 2.36791e-06
-0.000156911 1.54611e-05 -3.45288e-07
2.36791e-06 -3.45288e-07 -7.0792e-05
0.00208775 -0.000325417 -1.898e-06
-0.000325417 8.39835e-05 6.31282e-07
-1.898e-06 6.31282e-07 -4.6755e-05
0.000325814 -0.000248883 -3.80073e-07
-0.000248883 -0.000186157 3.9096e-07
-3.80073e-07 3.9096e-07 -0.000354607
0.000732684 -0.000396204 -4.30469e-06
-0.000396204 -7.87425e-05 -2.88812e-07
-4.30469e-06 -2.88812e-07 -0.000426172
0.00193393 -0.000747092 3.17985e-07
-0.000747092 0.000348554 9.45764e-07
3.17985e-07 9.45764e-07 -0.000117775
0.00210075 -0.000480866 -1.65435e-06
-0.000480866 0.000182056 4.57831e-07
-1.65435e-06 4.57831e-07 -4.20429e-05
0.00230757 -0.000449624 1.13792e-06
-0.000449624 0.000156417 -7.3122e-07
1.13792e-06 -7.3122e-07 4.04397e-05
0.00252224 -0.0007543 6.98456e-07
-0.0007543 0.000545735 -1.30154e-06
6.98456e-07 -1.30154e-06 0.00018124
0.00219573 -0.000605872 2.91963e-07
-0.000605872 0.000213576 4.63287e-07
2.91963e-07 4.63287e-07 -2.18508e-05
0.00226025 -0.000697591 2.26366e-07
-0.000697591 0.000277302 9.17312e-07
2.26366e-07 9.17312e-07 4.09369e-06
0.000780935 -0.000269868 3.21194e-07
-0.000269868 0.000152039 -9.82404e-07
3.21194e-07 -9.82404e-07 -0.000166402
0.000499703 -0.0002612 2.73205e-07
-0.0002612 -3.4084e-05 -5.79109e-07
2.73205e-07 -5.79109e-07 -0.000384015
0.00050425 -0.000231908 5.40848e-06
-0.000231908 4.02244e-05 2.03039e-06
5.40848e-06 2.03039e-06 -0.000234594
0.0019834 -7.82197e-05 1.87631e-06
-7.82197e-05 -5.13256e-06 -2.6038e-07
1.87631e-06 -2.6038e-07 -8.51833e-05
0.00207039 -0.000238907 -1.31364e-06
-0.000238907 4.48911e-05 -3.47091e-07
-1.31364e-06 -3.47091e-07 -5.633e-05
0.00216729 -0.000159244 7.16185e-06
-0.000159244 3.9809e-05 -1.09405e-06
7.16185e-06 -1.09405e-06 9.82741e-06
0.00229078 -0.000365294 3.445e-06
-0.000365294 9.64352e-05 -5.67988e-07
3.445e-06 -5.67988e-07 2.96251e-05
0.0021415 -0.000539602 1.39895e-08
-0.000539602 0.000113419 8.42163e-07
1.39895e-08 8.42163e-07 -5.97427e-05
0.00230746 -0.000468829 1.82239e-06
-0.000468829 8.94255e-05 -3.74007e-07
1.82239e-06 -3.74007e-07 2.36034e-05
0.000756768 -0.000299997 9.54868e-06
-0.000299997 4.57028e-05 -6.48472e-06
9.54868e-06 -6.48472e-06 -0.000259128
0.00223893 -0.000648319 2.45998e-07
-0.000648319 0.000172733 6.04922e-07
2.45998e-07 6.04922e-07 -2.45418e-05
0.00179049 -0.00076366 2.24656e-06
-0.00076366 0.000425226 8.57363e-07
2.24656e-06 8.57363e-07 -9.60053e-05
0.00227797 -0.000874034 1.12699e-05
-0.000874034 0.000459563 5.06033e-06
1.12699e-05 5.06033e-06 -2.2798e-05
0.00257441 -0.000771062 2.7007e-06
-0.000771062 0.000557387 4.36562e-06
2.7007e-06 4.36562e-06 0.000213671
0.00247539 -0.000745008 -3.7225e-07
-0.000745008 0.000400111 7.15873e-07
-3.7225e-07 7.15873e-07 0.000143229
0.000700803 -0.000173607 -1.9247e-06
-0.000173607 0.000240159 -4.05568e-06
-1.9247e-06 -4.05568e-06 -5.57976e-05
0.00188963 -0.000485532 -6.55232e-06
-0.000485532 0.000745602 -2.09383e-06
-6.55232e-06 -2.09383e-06 0.000348685
-0.000818597 -9.5904e-05 7.30896e-06
-9.5904e-05 -0.000760503 1.31167e-06
7.30896e-06 1.31167e-06 -0.00108908
0.00152086 -0.000533244 1.07479e-05
-0.000533244 0.000601404 6.089e-06
1.07479e-05 6.089e-06 0.000137175
0.00144573 0.000315382 -1.09074e-05
0.000315382 1.14997e-05 -3.69631e-06
-1.09074e-05 -3.69631e-06 -0.000206415
0.000302562 4.65175e-05 -8.29561e-06
4.65175e-05 -0.000109137 -1.71345e-05
-8.29561e-06 -1.71345e-05 -0.000198635
0.000451541 0.000159512 -2.54539e-05
0.000159512 -6.94015e-05 -1.90846e-05
-2.54539e-05 -1.90846e-05 -0.000191659
0.00046443 0.000213713 -6.70183e-06
0.000213713 -1.90523e-05 3.53071e-06
-6.70183e-06 3.53071e-06 -0.000255883
0.00138034 0.000413268 -2.03344e-05
0.000413268 4.92396e-05 -6.72816e-06
-2.03344e-05 -6.72816e-06 -0.000233441
0.00216914 0.000570918 -4.59613e-06
0.000570918 0.000250984 1.43105e-06
-4.59613e-06 1.43105e-06 -2.19095e-05
0.000613075 0.000263554 -1.13852e-05
0.000263554 -4.81752e-05 -4.85604e-06
-1.13852e-05 -4.85604e-06 -0.0003165
0.00174525 0.00073732 -9.17221e-06
0.00073732 0.000380668 3.45285e-06
-9.17221e-06 3.45285e-06 -0.000121928
0.00227057 0.000701296 -3.90004e-06
0.000701296 0.00048871 3.84452e-06
-3.90004e-06 3.84452e-06 0.00010785
0.00171984 0.000740215 1.00234e-05
0.000740215 9.90408e-05 1.47199e-05
1.00234e-05 1.47199e-05 -0.000303616
0.000388404 2.49329e-05 -3.41134e-06
2.49329e-05 -4.25286e-05 5.72511e-07
-3.41134e-06 5.72511e-07 -0.00011896
0.000620808 0.000246905 -8.4969e-07
0.000246905 7.78467e-05 -7.42232e-07
-8.4969e-07 -7.42232e-07 -0.000199675
0.00037679 0.000155282 4.21466e-06
0.000155282 -3.63839e-05 -1.56682e-06
4.21466e-06 -1.56682e-06 -0.000275693
0.000550709 0.000224119 -4.09955e-06
0.000224119 5.17743e-05 5.30526e-06
-4.09955e-06 5.30526e-06 -0.000251999
0.00220881 0.000494497 -1.89268e-06
0.000494497 0.000212187 -1.44393e-06
-1.89268e-06 -1.44393e-06 -4.81804e-06
0.00215383 0.000640976 -7.35477e-07
0.000640976 0.000325379 -3.17883e-07
-7.35477e-07 -3.17883e-07 -5.44813e-06
0.00225262 0.000631034 8.6593e-08
0.000631034 0.000234564 1.23932e-08
8.6593e-08 1.23932e-08 -1.68561e-05
0.00177022 0.000636452 2.47933e-06
0.000636452 0.000580495 -2.8965e-07
2.47933e-06 -2.8965e-07 0.00011358
0.00247865 0.000794617 1.47787e-06
0.000794617 0.00054046 9.89505e-07
1.47787e-06 9.89505e-07 0.000171042
0.00204197 0.000860478 -1.04264e-06
0.000860478 0.000490653 -2.01706e-06
-1.04264e-06 -2.01706e-06 -4.59259e-05
0.00225237 0.000766726 -7.19179e-06
0.000766726 0.000343036 3.06127e-06
-7.19179e-06 3.06127e-06 -2.51578e-05
0.000586383 2.60228e-05 6.44232e-06
2.60228e-05 7.75342e-05 1.37842e-05
6.44232e-06 1.37842e-05 1.79186e-05
0.00123007 0.00011469 -9.36977e-07
0.00011469 0.000537469 1.17518e-05
-9.36977e-07 1.17518e-05 0.000318883
0.000637102 0.000405517 -9.22853e-06
0.000405517 2.60904e-05 -2.22305e-06
-9.22853e-06 -2.22305e-06 -0.000335511
0.00143192 0.000220371 7.8671e-06
0.000220371 0.000643752 -4.88074e-06
7.8671e-06 -4.88074e-06 0.000319609
0.00121696 0.000146835 -3.92268e-06
0.000146835 0.000344567 1.25964e-05
-3.92268e-06 1.25964e-05 8.68426e-05
0.0022212 0.00054264 6.4175e-07
0.00054264 0.000131411 -1.9299e-06
6.4175e-07 -1.9299e-06 -5.32917e-05
0.00228132 0.000724821 -1.302e-06
0.000724821 0.000324245 -3.19868e-06
-1.302e-06 -3.19868e-06 7.85879e-06
0.00223015 0.000687187 -3.30475e-06
0.000687187 0.000185906 -1.1159e-06
-3.30475e-06 -1.1159e-06 -6.12722e-05
0.00187372 0.000880338 -6.37289e-06
0.000880338 0.00062595 -1.16292e-05
-6.37289e-06 -1.16292e-05 1.90886e-05
0.00264523 0.000855716 -7.27497e-06
0.000855716 0.00056085 -4.49281e-06
-7.27497e-06 -4.49281e-06 0.00019672
0.00192865 0.000908794 3.19896e-06
0.000908794 0.000324444 -8.88955e-06
3.19896e-06 -8.88955e-06 -0.000193316
0.000587878 9.98318e-05 -1.11437e-06
9.98318e-05 0.000121685 8.97818e-06
-1.11437e-06 8.97818e-06 -1.64091e-05
0.000838871 0.000142661 -5.27491e-06
0.000142661 0.000388545 5.65173e-06
-5.27491e-06 5.65173e-06 0.000174964
0.000565532 7.70598e-05 -1.04358e-06
7.70598e-05 0.00011024 6.05978e-06
-1.04358e-06 6.05978e-06 1.11022e-05
0.000445396 3.25168e-05 -1.46001e-06
3.25168e-05 3.62796e-05 2.40584e-07
-1.46001e-06 2.40584e-07 -7.83042e-05
0.00155648 -7.00307e-06 2.19627e-06
-7.00307e-06 0.000716887 6.84656e-06
2.19627e-06 6.84656e-06 0.000679185
0.000981128 9.02322e-06 -2.9559e-07
9.02322e-06 0.000342901 -1.53734e-07
-2.9559e-07 -1.53734e-07 0.000294749
0.000945125 -2.76786e-05 6.36095e-05
-2.76786e-05 0.000315527 1.40688e-05
6.36095e-05 1.40688e-05 0.000308848
0.00384135 -0.000142966 1.30028e-05
-0.000142966 0.00222351 -1.23378e-06
1.30028e-05 -1.23378e-06 0.0022132
0.00416185 -0.000182912 -7.31946e-05
-0.000182912 0.00245115 -7.9171e-06
-7.31946e-05 -7.9171e-06 0.00242978
0.000251952 -0.000133172 1.93292e-05
-0.000133172 -0.000126256 -1.60301e-05
1.93292e-05 -1.60301e-05 -0.000221914
0.00566653 0.000161098 0.00015038
0.000161098 0.00344338 -1.90905e-05
0.00015038 -1.90905e-05 0.00342027
0.000518891 -0.000190211 2.23531e-06
-0.000190211 8.31141e-06 1.08473e-06
2.23531e-06 1.08473e-06 -0.000113994
0.00648057 8.84072e-05 6.37981e-07
8.84072e-05 0.00395134 1.01318e-06
6.37981e-07 1.01318e-06 0.00394243
0.000404696 -0.000217938 -2.57991e-05
-0.000217938 -0.00010356 2.16171e-05
-2.57991e-05 2.16171e-05 -0.000234467
0.00746245 3.03488e-05 -0.00030415
3.03488e-05 0.00455378 3.66349e-05
-0.00030415 3.66349e-05 0.00455602
0.00138973 0.000248785 -6.75e-06
0.000248785 -2.86582e-05 -2.40925e-06
-6.75e-06 -2.40925e-06 -0.0002161
0.00128045 0.000142709 -3.39776e-06
0.000142709 -7.2402e-05 -1.01272e-06
-3.39776e-06 -1.01272e-06 -0.00021997
0.00218172 0.000315094 -2.67138e-06
0.000315094 0.000123809 5.14874e-07
-2.67138e-06 5.14874e-07 4.0805e-06
0.00210525 0.00014243 -1.91422e-06
0.00014243 6.57576e-05 -3.33189e-07
-1.91422e-06 -3.33189e-07 -5.49285e-06
0.00123395 5.02543e-05 -4.64131e-06
5.02543e-05 -7.47772e-05 -6.17797e-07
-4.64131e-06 -6.17797e-07 -0.000203384
0.000278177 2.82714e-05 -1.71011e-05
2.82714e-05 -0.000282552 -1.37539e-06
-1.71011e-05 -1.37539e-06 -0.000368476
0.00119876 -1.92801e-06 -3.93573e-08
-1.92801e-06 -8.61804e-05 3.42534e-08
-3.93573e-08 3.42534e-08 -0.000213105
0.00212199 6.65976e-05 8.49308e-09
6.65976e-05 7.99523e-05 1.4994e-07
8.49308e-09 1.4994e-07 1.59636e-05
0.00215757 0.000230001 -1.25968e-07
0.000230001 9.98064e-05 1.82761e-07
-1.25968e-07 1.82761e-07 1.08254e-05
0.00216843 0.000156977 -3.88651e-07
0.000156977 1.74841e-05 2.51265e-08
-3.88651e-07 2.51265e-08 5.08236e-06
0.00219227 0.000403591 -9.86632e-07
0.000403591 0.000153392 7.43173e-08
-9.86632e-07 7.43173e-08 -9.114e-06
0.0022736 0.000341186 -1.58246e-08
0.000341186 8.12787e-05 2.0817e-07
-1.58246e-08 2.0817e-07 2.16424e-05
0.00213933 -7.53284e-06 1.63079e-06
-7.53284e-06 9.43252e-05 3.29789e-07
1.63079e-06 3.29789e-07 3.15833e-05
0.00209825 7.23688e-05 4.50722e-06
7.23688e-05 -2.47011e-05 5.67758e-07
4.50722e-06 5.67758e-07 -2.92656e-05
0.00224269 0.000240507 6.03492e-06
0.000240507 6.87508e-05 1.41431e-06
6.03492e-06 1.41431e-06 3.76909e-05
0.00219197 0.000142115 3.87721e-06
0.000142115 9.05726e-07 1.08354e-06
3.87721e-06 1.08354e-06 1.63205e-05
0.00227858 0.00045432 3.45432e-06
0.00045432 0.000110484 1.02595e-07
3.45432e-06 1.02595e-07 -3.05089e-06
0.0022855 0.000350098 1.83974e-06
0.000350098 -1.56185e-05 1.04352e-07
1.83974e-06 1.04352e-07 -1.53128e-05
0.00131832 -4.08643e-05 -6.90173e-06
-4.08643e-05 -7.80111e-06 1.96625e-07
-6.90173e-06 1.96625e-07 -0.000124793
0.0020631 -0.000159964 -2.37062e-05
-0.000159964 0.000465475 2.80005e-06
-2.37062e-05 2.80005e-06 0.000333714
0.0020593 -0.00015192 2.55976e-06
-0.00015192 3.8791e-05 -2.82158e-07
2.55976e-06 -2.82158e-07 -4.23376e-05
0.00194809 -0.000319751 1.02137e-06
-0.000319751 -6.32522e-06 6.21904e-07
1.02137e-06 6.21904e-07 -0.000148535
0.000343691 -0.000279635 -2.59609e-05
-0.000279635 -0.000169381 2.77633e-05
-2.59609e-05 2.77633e-05 -0.000340806
0.000701625 -0.000401307 -1.49923e-05
-0.000401307 -0.000104087 5.63403e-06
-1.49923e-05 5.63403e-06 -0.00045517
0.0019612 -0.000754896 -8.51525e-07
-0.000754896 0.000358047 -2.41221e-06
-8.51525e-07 -2.41221e-06 -0.000114599
0.00217534 -0.000482042 -1.78541e-06
-0.000482042 0.000238678 -6.36782e-07
-1.78541e-06 -6.36782e-07 1.11274e-05
0.00227413 -0.00045163 -1.46965e-06
-0.00045163 0.000123833 -8.60459e-08
-1.46965e-06 -8.60459e-08 1.4558e-05
0.00220486 -0.000606647 -1.01086e-06
-0.000606647 0.000217001 -1.03157e-06
-1.01086e-06 -1.03157e-06 -1.88684e-05
0.00253611 -0.000755738 -4.69696e-07
-0.000755738 0.00055628 -7.14579e-06
-4.69696e-07 -7.14579e-06 0.000196298
0.00208434 -0.00068749 1.95017e-06
-0.00068749 0.000156911 -1.68148e-06
1.95017e-06 -1.68148e-06 -0.000116792
0.000696272 -0.000301638 -7.79104e-06
-0.000301638 0.00010554 3.10712e-06
-7.79104e-06 3.10712e-06 -0.000223464
0.000381684 -0.000239034 -4.72314e-08
-0.000239034 -0.000109113 6.87402e-07
-4.72314e-08 6.87402e-07 -0.000446307
0.000493098 -0.000293312 1.43303e-06
-0.000293312 4.48639e-05 5.1201e-06
1.43303e-06 5.1201e-06 -0.000238858
0.00205082 -7.47359e-05 3.25574e-06
-7.47359e-05 4.06184e-05 -1.846e-07
3.25574e-06 -1.846e-07 -3.26832e-05
0.00206075 -0.000245506 9.81563e-07
-0.000245506 4.33549e-05 -3.13357e-07
9.81563e-07 -3.13357e-07 -5.7197e-05
0.00218364 -0.000155406 9.10479e-07
-0.000155406 3.82219e-05 -9.01777e-08
9.10479e-07 -9.01777e-08 1.60767e-05
0.00225592 -0.000355893 -1.06953e-06
-0.000355893 8.29666e-05 2.22764e-07
-1.06953e-06 2.22764e-07 1.25998e-05
0.000835568 -0.000333506 2.06528e-07
-0.000333506 9.28756e-05 3.42396e-07
2.06528e-07 3.42396e-07 -0.000228365
0.00190315 -0.000785929 4.47677e-08
-0.000785929 0.000502419 -1.48211e-06
4.47677e-08 -1.48211e-06 -2.50794e-05
0.00216344 -0.000859533 5.4983e-07
-0.000859533 0.00039349 1.6542e-06
5.4983e-07 1.6542e-06 -9.13994e-05
0.00211746 -0.000531706 -6.3825e-07
-0.000531706 0.000105201 5.79596e-07
-6.3825e-07 5.79596e-07 -7.42573e-05
0.00230593 -0.000472731 1.7285e-07
-0.000472731 7.53576e-05 4.93597e-08
1.7285e-07 4.93597e-08 1.60612e-05
0.0024076 -0.000761098 -7.57042e-07
-0.000761098 0.000436938 3.70153e-07
-7.57042e-07 3.70153e-07 9.41261e-05
0.00222452 -0.000646241 -6.74621e-07
-0.000646241 0.000160629 8.21619e-07
-6.74621e-07 8.21619e-07 -3.65686e-05
0.0023966 -0.000733035 1.13734e-06
-0.000733035 0.000346127 -5.88154e-07
1.13734e-06 -5.88154e-07 9.31022e-05
0.000901645 -0.000430112 -4.05692e-06
-0.000430112 0.000156799 -3.04964e-07
-4.05692e-06 -3.04964e-07 -0.000250839
0.00160126 -0.00052165 -1.90991e-06
-0.00052165 0.000659928 1.35449e-06
-1.90991e-06 1.35449e-06 0.00020215
0.000913422 -0.000224081 -3.42913e-06
-0.000224081 0.000344327 -2.66947e-06
-3.42913e-06 -2.66947e-06 6.88934e-05
0.00073345 -0.000193435 8.25418e-07
-0.000193435 0.000185306 1.1325e-06
8.25418e-07 1.1325e-06 -0.000123044
0.0021892 -8.62156e-05 6.22007e-06
-8.62156e-05 5.23463e-05 -5.83266e-07
6.22007e-06 -5.83266e-07 3.65942e-05
0.0020835 -0.000249772 4.21944e-06
-0.000249772 -5.64309e-05 -1.42493e-06
4.21944e-06 -1.42493e-06 -9.739e-05
0.00217402 -0.000147409 4.24535e-06
-0.000147409 2.08165e-05 -1.04055e-06
4.24535e-06 -1.04055e-06 4.04096e-05
0.00226424 -0.000375756 -7.49019e-07
-0.000375756 -3.75813e-06 -2.33243e-07
-7.49019e-07 -2.33243e-07 -3.01725e-06
0.00226816 -0.000573569 -9.34224e-07
-0.000573569 0.00010567 3.54702e-07
-9.34224e-07 3.54702e-07 -1.30886e-05
0.00234595 -0.000504396 8.79925e-07
-0.000504396 2.50159e-05 -3.40658e-07
8.79925e-07 -3.40658e-07 -1.33932e-05
0.00162479 -0.000670273 -5.82117e-06
-0.000670273 0.000516456 1.32602e-06
-5.82117e-06 1.32602e-06 1.20989e-05
0.00233901 -0.000706273 -1.53299e-06
-0.000706273 0.000164706 3.75188e-07
-1.53299e-06 3.75188e-07 3.24765e-06
0.00204172 -0.000949886 1.10785e-07
-0.000949886 0.000514686 7.70142e-06
1.10785e-07 7.70142e-06 -7.36362e-05
0.00244574 -0.00091477 7.95209e-06
-0.00091477 0.000525877 3.97632e-06
7.95209e-06 3.97632e-06 4.6067e-05
0.00241193 -0.000769356 -2.94019e-06
-0.000769356 0.000422358 3.76406e-06
-2.94019e-06 3.76406e-06 8.77284e-05
0.00234786 -0.000791889 -5.22243e-06
-0.000791889 0.000246468 -2.05031e-06
-5.22243e-06 -2.05031e-06 -1.98134e-05
0.00070532 -0.000224688 9.72941e-07
-0.000224688 0.000212779 -9.13722e-06
9.72941e-07 -9.13722e-06 -2.59231e-05
0.00136825 -0.000293895 -2.33779e-06
-0.000293895 0.000665273 6.97875e-06
-2.33779e-06 6.97875e-06 0.000281555
0.00143362 -0.000658565 2.25017e-05
-0.000658565 0.000454203 3.65856e-06
2.25017e-05 3.65856e-06 -6.45105e-05
-0.000197611 -0.000206072 1.67492e-05
-0.000206072 -0.000474357 -4.40078e-06
1.67492e-05 -4.40078e-06 -0.000793929
0.00130518 -0.000589818 -2.72164e-06
-0.000589818 0.000487668 1.57913e-05
-2.72164e-06 1.57913e-05 -6.26562e-05
0.000213894 1.39127e-05 -7.21313e-06
1.39127e-05 -0.000152084 -1.4567e-05
-7.21313e-06 -1.4567e-05 -0.000224138
0.00215713 0.000489348 -4.97906e-06
0.000489348 0.000179755 1.89287e-07
-4.97906e-06 1.89287e-07 -3.62429e-05
0.000791122 5.31503e-05 2.82108e-06
5.31503e-05 0.000239511 -6.25036e-06
2.82108e-06 -6.25036e-06 -7.98378e-06
0.000330935 0.000265429 -7.5562e-06
0.000265429 -0.000150736 4.67275e-06
-7.5562e-06 4.67275e-06 -0.000392856
0.000949002 0.000299751 -2.84176e-06
0.000299751 0.000322085 1.09333e-05
-2.84176e-06 1.09333e-05 2.07796e-06
0.00213143 0.000640004 -4.38571e-06
0.000640004 0.000309184 2.15763e-06
-4.38571e-06 2.15763e-06 -2.18272e-05
0.0022357 0.000627927 -2.29389e-07
0.000627927 0.000229136 1.91807e-06
-2.29389e-07 1.91807e-06 -2.12812e-05
0.00139465 0.000647779 6.1708e-06
0.000647779 0.000360455 3.17474e-06
6.1708e-06 3.17474e-06 -0.00012846
0.00193357 0.000850169 8.72695e-06
0.000850169 0.000421442 1.18744e-05
8.72695e-06 1.18744e-05 -0.000114708
0.00238819 0.000777571 4.79322e-06
0.000777571 0.000492263 6.95054e-06
4.79322e-06 6.95054e-06 0.000122813
0.0023941 0.000764923 1.39008e-05
0.000764923 0.000444248 1.80382e-05
1.39008e-05 1.80382e-05 8.61832e-05
0.000446724 3.13038e-05 -2.43406e-07
3.13038e-05 -8.88362e-06 -3.8817e-10
-2.43406e-07 -3.8817e-10 -6.78665e-05
0.000674495 9.81035e-05 -2.40506e-06
9.81035e-05 0.000190926 -9.15203e-08
-2.40506e-06 -9.15203e-08 -2.92051e-05
0.000876949 0.000443373 6.40047e-06
0.000443373 0.000201202 -2.02139e-07
6.40047e-06 -2.02139e-07 -0.000167164
0.000614253 0.000142949 1.60223e-06
0.000142949 0.000120782 -5.15404e-06
1.60223e-06 -5.15404e-06 -0.00019882
0.000261011 0.000125425 -6.95682e-07
0.000125425 -0.000266185 4.38008e-06
-6.95682e-07 4.38008e-06 -0.000537604
0.00228084 0.000547991 -1.56376e-06
0.000547991 0.000172552 -1.17556e-06
-1.56376e-06 -1.17556e-06 -1.35278e-05
0.00225817 0.000720735 2.28678e-07
0.000720735 0.000313877 -3.145e-08
2.28678e-07 -3.145e-08 -8.54861e-07
0.00226459 0.000691598 1.45132e-06
0.000691598 0.000212958 2.94963e-07
1.45132e-06 2.94963e-07 -3.51577e-05
0.00199097 0.000895809 1.15697e-06
0.000895809 0.000718709 -2.62185e-06
1.15697e-06 -2.62185e-06 0.000102306
0.00257445 0.000848288 3.54508e-06
0.000848288 0.00049413 2.71978e-07
3.54508e-06 2.71978e-07 0.000129043
0.00237091 0.000953819 -4.63143e-06
0.000953819 0.000626823 4.65027e-07
-4.63143e-06 4.65027e-07 0.000104014
0.000877365 0.000143394 1.41851e-06
0.000143394 0.000287685 9.80046e-06
1.41851e-06 9.80046e-06 0.000128051
0.00280117 0.00043098 -4.76999e-07
0.00043098 0.00161207 4.48244e-06
-4.76999e-07 4.48244e-06 0.00126102
0.000254261 0.000500151 -3.13023e-06
0.000500151 -0.000200976 -1.54714e-07
-3.13023e-06 -1.54714e-07 -0.000641523
0.00167094 0.000217731 7.10645e-06
0.000217731 0.00060042 -1.36161e-06
7.10645e-06 -1.36161e-06 0.000330882
0.00285449 0.000646948 -2.39642e-06
0.000646948 0.00128222 -2.90433e-06
-2.39642e-06 -2.90433e-06 0.000883612
0.00229922 0.000584352 -3.18302e-06
0.000584352 0.000100559 -1.457e-06
-3.18302e-06 -1.457e-06 -4.45292e-05
0.00223969 0.000781927 -5.08446e-06
0.000781927 0.000265594 -1.75818e-06
-5.08446e-06 -1.75818e-06 -5.73163e-05
0.00229821 0.000760303 2.21373e-07
0.000760303 0.000198015 -7.08217e-07
2.21373e-07 -7.08217e-07 -5.15503e-05
0.00144491 0.000919269 6.56159e-06
0.000919269 0.000427087 -9.24786e-06
6.56159e-06 -9.24786e-06 -0.000201542
0.00208537 0.000931503 1.21885e-05
0.000931503 0.000320017 -4.17801e-06
1.21885e-05 -4.17801e-06 -0.000148131
0.000611209 8.62902e-05 -5.34436e-07
8.62902e-05 0.000138363 3.2716e-07
-5.34436e-07 3.2716e-07 7.01302e-07
0.000511906 0.000212205 -8.91991e-07
0.000212205 0.000117992 -7.88861e-07
-8.91991e-07 -7.88861e-07 -7.15156e-05
-0.000342002 9.75e-05 5.07599e-07
9.75e-05 -0.000387575 -2.85859e-06
5.07599e-07 -2.85859e-06 -0.000582927
0.00166484 0.000281784 -5.44302e-06
0.000281784 0.000943124 -3.20182e-06
-5.44302e-06 -3.20182e-06 0.000700647
0.00136505 0.000223924 -2.49152e-06
0.000223924 0.000717418 3.31187e-06
-2.49152e-06 3.31187e-06 0.000523941
0.000547211 8.99214e-05 8.12317e-07
8.99214e-05 0.000106881 4.67265e-06
8.12317e-07 4.67265e-06 1.15262e-05
0.000561031 3.58533e-05 -1.25107e-06
3.58533e-05 0.000114274 -1.78105e-07
-1.25107e-06 -1.78105e-07 1.34822e-05
0.00144715 6.78171e-06 2.151e-06
6.78171e-06 0.000647464 5.34468e-06
2.151e-06 5.34468e-06 0.000616867
0.000479172 5.58628e-05 2.45096e-06
5.58628e-05 5.34293e-05 -7.24426e-06
2.45096e-06 -7.24426e-06 -5.63393e-05
0.00154354 -6.63619e-06 -1.35836e-05
-6.63619e-06 0.000709012 -2.05804e-06
-1.35836e-05 -2.05804e-06 0.000674701
0.000750849 -2.10224e-05 5.01019e-05
-2.10224e-05 0.000186634 1.15147e-05
5.01019e-05 1.15147e-05 0.000185636
0.00156107 8.35838e-06 -2.71104e-05
8.35838e-06 0.000722908 -9.3485e-06
-2.71104e-05 -9.3485e-06 0.000681283
0.00216758 -7.4918e-05 5.6843e-05
-7.4918e-05 0.00112053 1.31423e-06
5.6843e-05 1.31423e-06 0.00111392
0.00363063 -0.00014291 -5.84579e-05
-0.00014291 0.00208662 -7.15933e-06
-5.84579e-05 -7.15933e-06 0.00207578
0.000162283 2.6717e-05 1.14837e-07
2.6717e-05 -0.000164712 -1.09502e-05
1.14837e-07 -1.09502e-05 -0.00023086
0.000392524 -0.000122227 -3.14576e-06
-0.000122227 -3.93097e-05 5.14746e-07
-3.14576e-06 5.14746e-07 -0.00014138
0.00444131 0.000216197 3.34425e-05
0.000216197 0.0026509 -1.10316e-05
3.34425e-05 -1.10316e-05 0.00261321
0.00579483 0.000118918 -8.51463e-06
0.000118918 0.00352506 5.03264e-08
-8.51463e-06 5.03264e-08 0.00350945
0.000423548 -0.000189068 -2.42541e-05
-0.000189068 -5.56867e-05 1.98965e-05
-2.42541e-05 1.98965e-05 -0.000183418
0.00669436 8.85445e-05 -0.000246835
8.85445e-05 0.00409827 3.52521e-05
-0.000246835 3.52521e-05 0.00408554
0.00216156 0.000400265 -3.10982e-06
0.000400265 0.000138444 1.41494e-06
-3.10982e-06 1.41494e-06 -2.37873e-05
0.00214764 0.000231045 -1.86402e-06
0.000231045 9.08426e-05 -1.0223e-07
-1.86402e-06 -1.0223e-07 1.26109e-06
0.00225746 0.000341927 -5.17391e-06
0.000341927 6.91606e-05 -4.22546e-07
-5.17391e-06 -4.22546e-07 9.04891e-06
0.00214345 0.000151829 -5.117e-06
0.000151829 -9.87656e-06 -9.50757e-07
-5.117e-06 -9.50757e-07 -1.57234e-05
0.00208449 6.6508e-05 -2.20163e-06
6.6508e-05 5.72419e-05 -4.01875e-07
-2.20163e-06 -4.01875e-07 -6.96521e-06
0.00121462 2.97583e-06 -4.72872e-06
2.97583e-06 -7.61862e-05 -2.86773e-07
-4.72872e-06 -2.86773e-07 -0.000202996
0.00211802 -5.54158e-06 9.85937e-08
-5.54158e-06 8.2388e-05 1.05546e-07
9.85937e-08 1.05546e-07 1.94158e-05
0.00211081 6.45007e-05 -5.83056e-07
6.45007e-05 -1.32912e-05 -7.14804e-08
-5.83056e-07 -7.14804e-08 -1.9419e-05
0.00222648 0.000238561 -9.10555e-08
0.000238561 5.35182e-05 1.03739e-07
-9.10555e-08 1.03739e-07 2.34872e-05
0.0021548 0.000142888 -2.72253e-08
0.000142888 -3.21245e-05 5.09735e-08
-2.72253e-08 5.09735e-08 -1.05042e-05
0.0023176 0.000460215 2.15897e-07
0.000460215 0.00012988 6.46455e-08
2.15897e-07 6.46455e-08 1.52444e-05
0.00226484 0.000340189 1.07967e-07
0.000340189 -3.16323e-05 1.82178e-07
1.07967e-07 1.82178e-07 -2.85609e-05
0.00210273 -1.03977e-05 4.66445e-06
-1.03977e-05 -1.67519e-05 -4.22318e-08
4.66445e-06 -4.22318e-08 -2.31803e-05
0.00220729 6.01323e-05 3.46334e-06
6.01323e-05 1.12268e-05 9.88027e-09
3.46334e-06 9.88027e-09 4.63009e-05
0.00218094 0.00021409 7.78855e-07
0.00021409 -4.60883e-05 3.86209e-07
7.78855e-07 3.86209e-07 -3.26848e-05
0.002291 0.000150409 1.06195e-06
0.000150409 -3.70564e-05 7.59481e-07
1.06195e-06 7.59481e-07 2.31701e-05
0.00232641 0.000465866 5.92846e-07
0.000465866 4.11856e-05 -1.61028e-07
5.92846e-07 -1.61028e-07 -8.6488e-06
0.00240327 0.00033658 5.48139e-07
0.00033658 -3.1119e-05 3.178e-07
5.48139e-07 3.178e-07 -5.58431e-07
0.00213089 -7.15418e-05 7.47802e-07
-7.15418e-05 9.53402e-05 -1.44116e-07
7.47802e-07 -1.44116e-07 2.88053e-05
0.00206507 -0.000251132 3.18246e-06
-0.000251132 4.91469e-05 -3.6619e-07
3.18246e-06 -3.6619e-07 -5.05747e-05
0.00219464 -0.000152037 -3.52724e-06
-0.000152037 3.39669e-05 6.90795e-07
-3.52724e-06 6.90795e-07 1.97393e-05
0.00222798 -0.000347385 -5.01167e-06
-0.000347385 7.4985e-05 1.26746e-06
-5.01167e-06 1.26746e-06 7.78946e-07
0.000561868 -0.000340854 -7.76926e-06
-0.000340854 -6.77528e-05 7.43096e-06
-7.76926e-06 7.43096e-06 -0.000401895
0.00198083 -0.000793614 -4.04558e-06
-0.000793614 0.000574094 -2.23272e-06
-4.04558e-06 -2.23272e-06 4.60168e-05
0.00199337 -0.000837178 -1.04675e-06
-0.000837178 0.000296547 -3.84006e-06
-1.04675e-06 -3.84006e-06 -0.000189223
0.00209659 -0.000524402 -2.47911e-06
-0.000524402 9.86622e-05 7.63396e-08
-2.47911e-06 7.63396e-08 -8.69135e-05
0.00230113 -0.000476261 9.58685e-08
-0.000476261 5.97699e-05 -2.11516e-07
9.58685e-08 -2.11516e-07 6.62362e-06
0.0022238 -0.000645221 -2.12233e-07
-0.000645221 0.000156731 2.63578e-07
-2.12233e-07 2.63578e-07 -4.04456e-05
0.00226351 -0.000757919 5.87537e-07
-0.000757919 0.000329112 -5.3459e-06
5.87537e-07 -5.3459e-06 -1.52927e-05
0.00232784 -0.000728816 3.62285e-06
-0.000728816 0.0002966 -1.47733e-06
3.62285e-06 -1.47733e-06 4.48426e-05
0.000669594 -0.000421557 5.45708e-06
-0.000421557 1.20676e-05 -2.86379e-06
5.45708e-06 -2.86379e-06 -0.000406352
0.0010212 -0.000437641 -1.45691e-05
-0.000437641 0.000270231 -3.8895e-06
-1.45691e-05 -3.8895e-06 -0.000161537
0.000434642 -0.000228489 -8.15069e-06
-0.000228489 2.03008e-05 2.87902e-06
-8.15069e-06 2.87902e-06 -0.000242621
-0.000273879 -0.000210743 -4.18915e-06
-0.000210743 -0.000490706 -1.61275e-06
-4.18915e-06 -1.61275e-06 -0.000774354
0.00219482 -8.64329e-05 -1.39082e-07
-8.64329e-05 5.46206e-05 3.6863e-08
-1.39082e-07 3.6863e-08 3.88991e-05
0.00215274 -0.000254149 1.9871e-06
-0.000254149 -4.47136e-06 -4.9929e-07
1.9871e-06 -4.9929e-07 -4.6303e-05
0.0021252 -0.000145762 1.56918e-07
-0.000145762 -1.67308e-05 -1.5329e-07
1.56918e-07 -1.5329e-07 5.14029e-06
0.0022557 -0.000373994 -4.55971e-07
-0.000373994 -1.13388e-07 3.07155e-07
-4.55971e-07 3.07155e-07 -7.42301e-06
0.00158557 -0.000633821 -2.41999e-06
-0.000633821 0.000468823 1.05266e-07
-2.41999e-06 1.05266e-07 -1.60376e-05
0.00197162 -0.000942911 3.24091e-06
-0.000942911 0.000478154 -1.75471e-08
3.24091e-06 -1.75471e-08 -0.000111958
0.0024108 -0.000928718 -2.3736e-07
-0.000928718 0.000501298 7.26644e-07
-2.3736e-07 7.26644e-07 1.13328e-05
0.00229147 -0.000572546 -1.13914e-06
-0.000572546 0.000130506 1.66578e-07
-1.13914e-06 1.66578e-07 4.77363e-06
0.00233584 -0.000503503 8.59752e-07
-0.000503503 1.94461e-05 -3.90126e-07
8.59752e-07 -3.90126e-07 -1.19062e-05
0.00238599 -0.000772681 -1.32611e-06
-0.000772681 0.000413435 9.08208e-07
-1.32611e-06 9.08208e-07 7.6681e-05
0.0023141 -0.000709762 -1.05024e-06
-0.000709762 0.0001394 8.38586e-07
-1.05024e-06 8.38586e-07 -2.26724e-05
0.0023618 -0.000789551 6.2038e-06
-0.000789551 0.00025448 -4.57196e-06
6.2038e-06 -4.57196e-06 -6.40841e-06
0.00148956 -0.000680064 2.77468e-07
-0.000680064 0.000506536 -1.78688e-06
2.77468e-07 -1.78688e-06 -2.48301e-05
0.00169329 -0.000643095 -7.80246e-07
-0.000643095 0.000718234 1.51007e-06
-7.80246e-07 1.51007e-06 0.000177462
0.00116805 -0.000308549 -2.11921e-07
-0.000308549 0.000443608 -5.17026e-06
-2.11921e-07 -5.17026e-06 9.54138e-05
0.000185388 -0.000121951 -2.69741e-06
-0.000121951 -0.000105697 1.61619e-06
-2.69741e-06 1.61619e-06 -0.00034818
-0.000393976 -0.00020206 -1.57455e-06
-0.00020206 -0.000481965 9.93691e-07
-1.57455e-06 9.93691e-07 -0.000834939
0.0021173 -9.00274e-05 2.14309e-06
-9.00274e-05 -4.60894e-05 -3.37113e-07
2.14309e-06 -3.37113e-07 -1.22089e-05
0.00219519 -0.0002211 6.19162e-07
-0.0002211 -4.39803e-05 -1.08336e-06
6.19162e-07 -1.08336e-06 -1.40122e-05
0.00238 -0.000453279 -1.51862e-06
-0.000453279 -5.00116e-05 -9.56012e-07
-1.51862e-06 -9.56012e-07 -1.68811e-05
0.00235943 -0.000607297 -2.51744e-07
-0.000607297 5.39789e-05 6.95176e-07
-2.51744e-07 6.95176e-07 -6.31948e-06
0.00175847 -0.000876318 6.5971e-06
-0.000876318 0.00055995 3.80533e-06
6.5971e-06 3.80533e-06 -4.59506e-05
0.00255395 -0.000849052 -4.78652e-06
-0.000849052 0.000183226 -9.45491e-07
-4.78652e-06 -9.45491e-07 -1.37453e-05
0.0014939 -0.000972791 -1.2835e-05
-0.000972791 0.000186698 1.0119e-05
-1.2835e-05 1.0119e-05 -0.000424379
0.00265169 -0.000994861 -2.51584e-06
-0.000994861 0.000624601 3.81985e-06
-2.51584e-06 3.81985e-06 0.000122646
0.00203945 -0.000746601 -1.29103e-05
-0.000746601 0.000164871 -1.58014e-06
-1.29103e-05 -1.58014e-06 -0.000153485
0.00013708 -8.30779e-05 -5.51501e-08
-8.30779e-05 -0.000128733 -8.09032e-06
-5.51501e-08 -8.09032e-06 -0.000297057
0.000746736 -0.000357082 -3.94384e-06
-0.000357082 0.000348502 1.15011e-06
-3.94384e-06 1.15011e-06 -2.68917e-05
0.00291122 -0.000319209 -8.62836e-06
-0.000319209 0.00161517 5.93509e-06
-8.62836e-06 5.93509e-06 0.00125788
0.00196414 -0.000812145 -1.02826e-06
-0.000812145 0.000796425 8.65993e-06
-1.02826e-06 8.65993e-06 0.00021099
0.00157934 -0.000462294 9.28663e-06
-0.000462294 0.000660878 8.3934e-07
9.28663e-06 8.3934e-07 0.000231662
0.00210713 -0.000771635 -3.82798e-06
-0.000771635 0.000953961 1.66142e-05
-3.82798e-06 1.66142e-05 0.000361993
0.000378981 3.15826e-05 -5.6474e-06
3.15826e-05 -5.00494e-05 -1.37971e-05
-5.6474e-06 -1.37971e-05 -0.000109008
0.000206805 8.56866e-05 -1.19338e-06
8.56866e-05 -0.000100999 -1.07273e-05
-1.19338e-06 -1.07273e-05 -0.000320629
0.00234148 0.000553482 -4.1461e-06
0.000553482 0.000214636 -6.91976e-07
-4.1461e-06 -6.91976e-07 2.71112e-05
-0.000762867 8.22165e-06 -2.48019e-06
8.22165e-06 -0.000727047 -3.73189e-07
-2.48019e-06 -3.73189e-07 -0.00106027
0.00269239 0.000550315 1.41998e-05
0.000550315 0.00134623 -4.35224e-06
1.41998e-05 -4.35224e-06 0.000980923
-0.00029591 0.000158393 -9.26678e-06
0.000158393 -0.000631355 1.34646e-06
-9.26678e-06 1.34646e-06 -0.000931872
0.00223407 0.000716009 1.98792e-06
0.000716009 0.000304183 3.07452e-06
1.98792e-06 3.07452e-06 -8.66822e-06
0.00230796 0.000697186 3.25614e-06
0.000697186 0.000244474 1.02497e-06
3.25614e-06 1.02497e-06 -4.84081e-06
0.00195976 0.000886988 9.59609e-06
0.000886988 0.00071799 9.19378e-06
9.59609e-06 9.19378e-06 0.000100155
0.00277276 0.000986504 -2.15052e-06
0.000986504 0.000905211 9.0221e-06
-2.15052e-06 9.0221e-06 0.000383433
0.00249074 0.00084212 5.70161e-06
0.00084212 0.000415717 5.14534e-06
5.70161e-06 5.14534e-06 4.89859e-05
0.000764978 0.000136552 1.23604e-06
0.000136552 0.000217385 7.33125e-09
1.23604e-06 7.33125e-09 6.15329e-05
0.000893434 0.000229091 -2.16745e-06
0.000229091 0.000385871 7.49431e-07
-2.16745e-06 7.49431e-07 5.6034e-05
0.000894063 0.000593785 6.78697e-07
0.000593785 0.000188262 6.82351e-07
6.78697e-07 6.82351e-07 -0.00029193
0.000822049 0.000158554 5.26235e-08
0.000158554 6.74822e-05 -1.6555e-06
5.26235e-08 -1.6555e-06 -0.000202875
0.00152871 0.000435819 3.74722e-06
0.000435819 0.000374108 -5.11083e-06
3.74722e-06 -5.11083e-06 3.02541e-05
0.00230743 0.0005855 -2.22599e-06
0.0005855 0.000119304 -1.03186e-06
-2.22599e-06 -1.03186e-06 -2.72029e-05
0.00234527 0.000793951 2.54453e-06
0.000793951 0.000318028 5.73642e-07
2.54453e-06 5.73642e-07 -7.41907e-06
0.00231782 0.000765539 1.19142e-06
0.000765539 0.000191052 4.22585e-07
1.19142e-06 4.22585e-07 -6.17433e-05
0.00182579 0.000988011 2.25842e-06
0.000988011 0.000629007 1.17816e-06
2.25842e-06 1.17816e-06 -1.0878e-05
0.00208318 0.0009398 -2.12609e-06
0.0009398 0.000350545 -2.82483e-06
-2.12609e-06 -2.82483e-06 -0.000127287
0.00177515 0.000337742 2.32721e-06
0.000337742 0.000934222 3.15224e-06
2.32721e-06 3.15224e-06 0.000679065
-0.000204329 0.000178491 4.74158e-07
0.000178491 -0.000300573 -2.12205e-06
4.74158e-07 -2.12205e-06 -0.000650459
0.00172491 0.000788845 2.21503e-06
0.000788845 0.000704414 -7.28775e-06
2.21503e-06 -7.28775e-06 0.000155564
-0.00223077 0.000240555 4.46331e-06
0.000240555 -0.00195668 -1.84633e-06
4.46331e-06 -1.84633e-06 -0.00225204
0.00312373 0.000812862 3.71449e-06
0.000812862 0.00131035 -6.25462e-06
3.71449e-06 -6.25462e-06 0.000860093
0.00250611 0.000687658 -2.64786e-06
0.000687658 0.00011192 -3.73766e-07
-2.64786e-06 -3.73766e-07 1.77359e-05
0.00235104 0.000845403 8.87653e-06
0.000845403 0.000268059 -3.10775e-06
8.87653e-06 -3.10775e-06 -9.38534e-05
0.00232145 0.000777919 7.37583e-06
0.000777919 0.000115389 5.00368e-07
7.37583e-06 5.00368e-07 -0.00015396
0.0020411 0.00103862 1.61447e-05
0.00103862 0.000680976 2.86989e-07
1.61447e-05 2.86989e-07 5.30015e-05
0.00244324 0.00111249 7.86036e-06
0.00111249 0.000618218 -3.05082e-07
7.86036e-06 -3.05082e-07 5.89263e-05
0.000511001 7.46687e-05 2.72043e-06
7.46687e-05 6.91754e-05 -9.45649e-06
2.72043e-06 -9.45649e-06 -6.18909e-05
0.000910006 0.000168984 2.51789e-07
0.000168984 0.000371823 -1.27453e-06
2.51789e-07 -1.27453e-06 0.000181329
-0.000187553 0.000106667 -3.56596e-06
0.000106667 -0.000341021 -1.28691e-05
-3.56596e-06 -1.28691e-05 -0.000476892
-0.000640288 -1.19879e-05 5.35147e-06
-1.19879e-05 -0.000611292 -2.60718e-06
5.35147e-06 -2.60718e-06 -0.000776465
0.000536457 0.000106682 -1.52229e-06
0.000106682 0.000159514 2.72592e-07
-1.52229e-06 2.72592e-07 -7.3834e-06
0.000244383 0.000113079 2.64327e-06
0.000113079 -4.47141e-06 -4.92703e-07
2.64327e-06 -4.92703e-07 -0.000201606
0.000497264 0.000193825 -1.14674e-06
0.000193825 0.0001476 -1.12601e-05
-1.14674e-06 -1.12601e-05 -3.26697e-05
0.000380885 1.9079e-05 -6.368e-06
1.9079e-05 0.000101735 2.11969e-06
-6.368e-06 2.11969e-06 -0.000107067
0.000750211 0.000129799 -1.09725e-06
0.000129799 0.000273576 1.3613e-06
-1.09725e-06 1.3613e-06 0.000132077
0.000522086 9.22285e-05 2.07229e-06
9.22285e-05 9.09214e-05 4.33828e-06
2.07229e-06 4.33828e-06 -3.71212e-06
0.000441974 3.56383e-05 -2.86365e-06
3.56383e-05 3.21688e-05 1.11872e-07
-2.86365e-06 1.11872e-07 -5.90015e-05
0.00138085 7.00137e-06 2.4326e-06
7.00137e-06 0.00060427 4.82802e-06
2.4326e-06 4.82802e-06 0.000578191
0.000260294 -8.17764e-05 6.82782e-06
-8.17764e-05 -7.08459e-05 -5.14552e-06
6.82782e-06 -5.14552e-06 -0.000174487
0.00143202 2.35687e-06 -1.18387e-05
2.35687e-06 0.000635161 -1.88039e-06
-1.18387e-05 -1.88039e-06 0.000607723
0.000720755 -1.56549e-05 4.0578e-05
-1.56549e-05 0.000166018 1.06754e-05
4.0578e-05 1.06754e-05 0.000168382
0.00149379 -1.48794e-06 -1.92017e-05
-1.48794e-06 0.000674305 -9.84416e-06
-1.92017e-05 -9.84416e-06 0.000643041
0.000751519 -3.33929e-05 1.95977e-05
-3.33929e-05 0.000186517 4.24482e-06
1.95977e-05 4.24482e-06 0.000180594
0.00333215 -0.000144012 4.2874e-06
-0.000144012 0.00188504 -4.76116e-06
4.2874e-06 -4.76116e-06 0.00187294
0.000220233 7.76302e-05 -4.91122e-06
7.76302e-05 -0.000106977 -8.42198e-06
-4.91122e-06 -8.42198e-06 -0.000167642
0.000342474 -3.57627e-05 -4.28918e-06
-3.57627e-05 -5.14235e-05 6.91863e-07
-4.28918e-06 6.91863e-07 -0.000122902
0.00361733 0.000204714 -2.32941e-05
0.000204714 0.00210803 -1.12445e-05
-2.32941e-05 -1.12445e-05 0.0020797
0.000777741 -0.000154561 -1.88289e-05
-0.000154561 0.000202996 1.48479e-05
-1.88289e-05 1.48479e-05 9.63994e-05
0.00492353 0.000164796 -4.71676e-05
0.000164796 0.00296012 -8.21484e-08
-4.71676e-05 -8.21484e-08 0.00293531
0.00620315 0.000142214 -0.000199834
0.000142214 0.00381024 3.44697e-05
-0.000199834 3.44697e-05 0.00378327
0.00235476 0.00046586 -4.36434e-06
0.00046586 0.000148163 -3.98559e-07
-4.36434e-06 -3.98559e-07 3.25184e-05
0.00221313 0.00023578 -5.67006e-06
0.00023578 4.12084e-05 -1.07462e-06
-5.67006e-06 -1.07462e-06 1.23722e-05
0.00224673 0.000330414 -3.37167e-08
0.000330414 -4.58974e-05 1.46611e-07
-3.37167e-08 1.46611e-07 -4.0106e-05
0.00211741 0.000144049 -9.74802e-07
0.000144049 -6.49814e-05 -6.05596e-07
-9.74802e-07 -6.05596e-07 -3.72336e-05
0.00212202 5.76181e-05 -5.40669e-06
5.76181e-05 -2.54943e-06 -2.05035e-07
-5.40669e-06 -2.05035e-07 -1.04631e-05
0.00209212 -4.11627e-06 -1.60421e-06
-4.11627e-06 6.69902e-05 -8.35899e-08
-1.60421e-06 -8.35899e-08 3.81343e-06
0.00214413 -1.2056e-05 1.27577e-07
-1.2056e-05 1.55196e-05 -1.128e-08
1.27577e-07 -1.128e-08 6.76859e-06
0.00219284 6.29121e-05 7.42841e-07
6.29121e-05 6.86241e-06 -1.27187e-08
7.42841e-07 -1.27187e-08 3.70809e-05
0.00220749 0.00021528 -4.47338e-07
0.00021528 -2.15936e-05 -5.07809e-08
-4.47338e-07 -5.07809e-08 -9.02414e-06
0.00225423 0.000150352 6.18078e-07
0.000150352 -6.59249e-05 1.07676e-07
6.18078e-07 1.07676e-07 2.52767e-06
0.00233564 0.000465829 -4.13932e-07
0.000465829 5.1405e-05 5.78392e-08
-4.13932e-07 5.78392e-08 2.71472e-07
0.00237592 0.00033918 2.12004e-06
0.00033918 -4.7663e-05 6.55165e-07
2.12004e-06 6.55165e-07 -9.04252e-06
0.00212505 -1.60108e-05 1.40197e-06
-1.60108e-05 -3.80346e-05 -1.14496e-07
1.40197e-06 -1.14496e-07 -1.00872e-05
0.00227809 7.52154e-05 1.19568e-06
7.52154e-05 -6.39796e-05 -5.07023e-08
1.19568e-06 -5.07023e-08 1.74419e-05
0.00235926 0.000222458 -1.49744e-06
0.000222458 -5.01888e-05 5.1888e-07
-1.49744e-06 5.1888e-07 1.91197e-05
0.00249164 0.000490512 -1.84149e-06
0.000490512 -1.15601e-05 -1.06114e-07
-1.84149e-06 -1.06114e-07 1.88607e-05
0.00220318 -8.67425e-05 -6.41277e-06
-8.67425e-05 5.83954e-05 7.08424e-07
-6.41277e-06 7.08424e-07 4.26718e-05
0.00221456 -0.000259123 -3.44677e-06
-0.000259123 4.31286e-05 9.13249e-07
-3.44677e-06 9.13249e-07 3.12208e-07
0.00207959 -0.000144871 -2.3009e-06
-0.000144871 -5.21129e-05 7.45077e-07
-2.3009e-06 7.45077e-07 -2.8362e-05
0.00225147 -0.000372869 -2.68827e-06
-0.000372869 4.79099e-06 7.91067e-07
-2.68827e-06 7.91067e-07 -1.02657e-05
0.00131995 -0.000606333 7.64698e-06
-0.000606333 0.000291405 -2.53752e-06
7.64698e-06 -2.53752e-06 -0.000187148
0.0019426 -0.000939223 4.55886e-06
-0.000939223 0.000464347 -6.5065e-06
4.55886e-06 -6.5065e-06 -0.000127123
0.00240731 -0.000948031 -4.26056e-06
-0.000948031 0.000495861 -4.40304e-06
-4.26056e-06 -4.40304e-06 -6.18333e-06
0.00232057 -0.000571581 -2.72066e-06
-0.000571581 0.000159781 9.1e-07
-2.72066e-06 9.1e-07 2.74133e-05
0.00232753 -0.000503195 2.70596e-06
-0.000503195 1.47491e-05 -3.20526e-07
2.70596e-06 -3.20526e-07 -9.14933e-06
0.00229034 -0.000711277 -1.16529e-06
-0.000711277 0.000117005 1.01077e-06
-1.16529e-06 1.01077e-06 -4.54879e-05
0.00236355 -0.000767863 1.35343e-06
-0.000767863 0.000407674 -2.32719e-06
1.35343e-06 -2.32719e-06 7.21804e-05
0.00244453 -0.000789974 9.59908e-06
-0.000789974 0.000307069 -1.13852e-06
9.59908e-06 -1.13852e-06 4.79012e-05
0.00176103 -0.000708612 -2.49356e-05
-0.000708612 0.000723974 -3.76756e-06
-2.49356e-05 -3.76756e-06 0.000181561
0.00102853 -0.000573834 4.82944e-06
-0.000573834 0.000280375 -1.54161e-05
4.82944e-06 -1.54161e-05 -0.000237915
0.00302441 -0.000400052 -9.08874e-06
-0.000400052 0.00158474 -5.07436e-06
-9.08874e-06 -5.07436e-06 0.00124954
-0.000131424 -5.7279e-05 3.90846e-06
-5.7279e-05 -0.00030596 5.38994e-06
3.90846e-06 5.38994e-06 -0.000545043
-0.000138447 -0.000136712 6.80826e-06
-0.000136712 -0.000306133 -8.68299e-06
6.80826e-06 -8.68299e-06 -0.000655007
0.00210504 -9.74582e-05 8.08367e-08
-9.74582e-05 -5.34375e-05 -9.08363e-08
8.08367e-08 -9.08363e-08 -2.05199e-05
0.00222085 -0.000222807 1.74421e-06
-0.000222807 -3.02448e-05 -9.84066e-09
1.74421e-06 -9.84066e-09 -1.43412e-06
0.00237728 -0.000446869 -9.34385e-07
-0.000446869 -3.31736e-05 3.14137e-07
-9.34385e-07 3.14137e-07 -9.41184e-06
0.00200714 -0.000884005 -1.90604e-06
-0.000884005 0.00071435 -1.11762e-07
-1.90604e-06 -1.11762e-07 0.000113418
0.00165896 -0.000975577 6.58315e-06
-0.000975577 0.000289659 -1.29404e-06
6.58315e-06 -1.29404e-06 -0.000318573
0.00248485 -0.000996258 -1.64824e-06
-0.000996258 0.000522122 2.27805e-07
-1.64824e-06 2.27805e-07 1.31494e-05
0.00236352 -0.000600693 4.58557e-07
-0.000600693 6.22629e-05 -4.7394e-07
4.58557e-07 -4.7394e-07 4.69078e-07
0.00228765 -0.000794531 3.42549e-06
-0.000794531 0.00028653 -4.28999e-06
3.42549e-06 -4.28999e-06 -3.75722e-05
0.00254264 -0.00083386 -1.14596e-06
-0.00083386 0.000209019 -6.34637e-07
-1.14596e-06 -6.34637e-07 1.75049e-05
-0.000443898 4.58603e-06 -1.95688e-06
4.58603e-06 -0.000525283 -5.38451e-07
-1.95688e-06 -5.38451e-07 -0.000672608
0.00167789 -0.000760446 1.21686e-06
-0.000760446 0.000641722 -3.45003e-07
1.21686e-06 -3.45003e-07 6.1127e-05
0.00159495 -0.000716483 -4.45468e-06
-0.000716483 0.000657804 -8.88244e-07
-4.45468e-06 -8.88244e-07 4.47728e-05
0.00108459 -0.000391387 -2.33932e-06
-0.000391387 0.00033035 4.24773e-06
-2.33932e-06 4.24773e-06 -0.000108718
0.00186396 -0.000476171 1.16302e-06
-0.000476171 0.000968688 -4.33303e-08
1.16302e-06 -4.33303e-08 0.000580647
0.000438944 -0.00019551 -7.24709e-07
-0.00019551 0.000134809 9.07236e-07
-7.24709e-07 9.07236e-07 -0.000228242
0.00223101 -0.000123843 -1.38724e-08
-0.000123843 -7.59086e-05 -5.39113e-07
-1.38724e-08 -5.39113e-07 -6.91311e-06
0.00240686 -0.000298108 5.62142e-07
-0.000298108 -8.96498e-05 -1.14935e-06
5.62142e-07 -1.14935e-06 6.24456e-06
0.00247106 -0.000557981 -1.78991e-06
-0.000557981 -3.03519e-05 -8.19828e-08
-1.78991e-06 -8.19828e-08 7.78947e-06
0.00249023 -0.000728661 -2.56826e-06
-0.000728661 2.46977e-05 6.52687e-07
-2.56826e-06 6.52687e-07 -6.34748e-06
0.0023082 -0.001008 -7.04254e-06
-0.001008 0.000893555 5.9347e-06
-7.04254e-06 5.9347e-06 0.000252241
0.00252064 -0.000952739 -4.76599e-06
-0.000952739 0.000280927 -4.56898e-06
-4.76599e-06 -4.56898e-06 -2.88118e-05
0.00230504 -0.00115801 -6.00246e-05
-0.00115801 0.000674037 1.06632e-05
-6.00246e-05 1.06632e-05 -3.17939e-06
0.00217454 -0.00100648 -3.08821e-05
-0.00100648 0.000357657 3.63236e-06
-3.08821e-05 3.63236e-06 -0.000157039
-0.000364902 3.77245e-05 -4.22345e-06
3.77245e-05 -0.000482934 -5.21631e-06
-4.22345e-06 -5.21631e-06 -0.000587273
0.00112809 -5.73477e-05 -1.75435e-06
-5.73477e-05 0.000585975 4.80891e-07
-1.75435e-06 4.80891e-07 0.000302991
0.00241564 -0.000472503 -1.05186e-05
-0.000472503 0.00142201 2.04727e-06
-1.05186e-05 2.04727e-06 0.00101645
-0.000249146 -0.000289253 -5.82101e-06
-0.000289253 -0.00040179 -4.57331e-06
-5.82101e-06 -4.57331e-06 -0.000776524
0.00262372 -0.000911898 -5.45038e-06
-0.000911898 0.00120686 2.06759e-05
-5.45038e-06 2.06759e-05 0.000597124
0.00194944 -0.000746259 4.59904e-06
-0.000746259 0.000901637 1.61133e-05
4.59904e-06 1.61133e-05 0.000237179
0.000565567 0.000107918 1.36886e-06
0.000107918 9.40601e-05 -9.92017e-06
1.36886e-06 -9.92017e-06 -6.03863e-05
-0.000646654 0.000103078 3.38117e-07
0.000103078 -0.000615571 -2.63511e-06
3.38117e-07 -2.63511e-06 -0.000920667
0.00231384 0.000586805 -1.28731e-06
0.000586805 0.000136101 -5.58282e-07
-1.28731e-06 -5.58282e-07 -1.18752e-05
4.11523e-05 0.000108748 -4.60866e-06
0.000108748 -0.00041168 4.81903e-06
-4.60866e-06 4.81903e-06 -0.00068698
0.00181363 0.000721154 9.57944e-06
0.000721154 0.000763764 -2.30072e-06
9.57944e-06 -2.30072e-06 0.000235842
0.000317 0.000224549 -6.89778e-06
0.000224549 -0.000387731 -4.54195e-06
-6.89778e-06 -4.54195e-06 -0.000664058
0.00244655 0.000805609 5.25999e-06
0.000805609 0.000367127 1.76172e-06
5.25999e-06 1.76172e-06 3.92041e-05
0.0023252 0.000768724 -3.31851e-06
0.000768724 0.000177686 2.76389e-07
-3.31851e-06 2.76389e-07 -7.72998e-05
0.00217115 0.00105021 -3.85743e-06
0.00105021 0.00081145 6.79587e-06
-3.85743e-06 6.79587e-06 0.000161333
0.00211351 0.000950703 -7.42299e-06
0.000950703 0.000406983 2.799e-06
-7.42299e-06 2.799e-06 -8.21966e-05
0.00073528 0.000244034 -5.3461e-07
0.000244034 0.000262273 -4.12979e-07
-5.3461e-07 -4.12979e-07 1.86255e-05
0.000698509 0.000287639 2.10346e-06
0.000287639 0.000267252 -1.74711e-06
2.10346e-06 -1.74711e-06 -9.92106e-05
0.00145178 0.000739913 -2.78437e-06
0.000739913 0.000540064 -4.18167e-07
-2.78437e-06 -4.18167e-07 4.12489e-06
0.000828233 0.000331361 -3.6907e-06
0.000331361 -3.44211e-05 2.55477e-06
-3.6907e-06 2.55477e-06 -0.000322365
0.00271017 0.0007351 2.36541e-07
0.0007351 0.00103829 -3.73222e-07
2.36541e-07 -3.73222e-07 0.000608873
0.00253067 0.00069457 -2.42717e-06
0.00069457 0.000108556 -5.12943e-07
-2.42717e-06 -5.12943e-07 1.17177e-05
0.00250726 0.000836932 2.92997e-06
0.000836932 0.00037305 -7.3807e-07
2.92997e-06 -7.3807e-07 2.3435e-05
0.00261576 0.000806785 6.07827e-07
0.000806785 0.00030331 2.65659e-06
6.07827e-07 2.65659e-06 2.58076e-05
0.00195921 0.00104006 4.84032e-06
0.00104006 0.000623798 1.34294e-06
4.84032e-06 1.34294e-06 -9.67339e-06
0.0023825 0.0011536 -5.07711e-06
0.0011536 0.000585767 8.13718e-07
-5.07711e-06 8.13718e-07 -7.45135e-07
-0.00177744 2.08728e-05 -9.54777e-06
2.08728e-05 -0.0013159 2.04857e-06
-9.54777e-06 2.04857e-06 -0.00153142
-0.00294161 0.000247132 -1.16811e-06
0.000247132 -0.0018499 -4.71854e-06
-1.16811e-06 -4.71854e-06 -0.00228607
0.00199459 0.000859608 9.74441e-06
0.000859608 0.000756114 -4.5182e-06
9.74441e-06 -4.5182e-06 0.000205873
0.00123056 0.000457446 5.76441e-06
0.000457446 0.000111836 -4.60864e-06
5.76441e-06 -4.60864e-06 -0.000210518
0.00267991 0.000653639 5.1914e-07
0.000653639 -0.000135279 7.65308e-07
5.1914e-07 7.65308e-07 -2.82294e-05
0.00265445 0.000836156 7.32424e-06
0.000836156 0.000196612 8.36031e-07
7.32424e-06 8.36031e-07 5.95878e-06
0.002643 0.00103081 1.0503e-05
0.00103081 0.000460974 -3.92105e-06
1.0503e-05 -3.92105e-06 -1.60284e-05
0.0020784 0.00116574 6.70058e-06
0.00116574 0.000513278 -2.00199e-08
6.70058e-06 -2.00199e-08 -0.000155549
0.0014002 0.000225255 3.20354e-06
0.000225255 0.000723091 2.21278e-06
3.20354e-06 2.21278e-06 0.000500585
0.000460501 0.000209156 -4.43386e-06
0.000209156 0.000115204 2.82942e-07
-4.43386e-06 2.82942e-07 -5.42348e-05
0.000832464 0.000140893 -9.29627e-06
0.000140893 0.000367972 -6.66195e-06
-9.29627e-06 -6.66195e-06 0.000248944
7.41702e-05 4.54303e-05 2.50591e-06
4.54303e-05 -0.000162385 -3.49166e-06
2.50591e-06 -3.49166e-06 -0.00031025
-0.00132914 5.68464e-05 5.64338e-07
5.68464e-05 -0.000973747 1.22734e-06
5.64338e-07 1.22734e-06 -0.00117754
0.000726823 8.05415e-05 -1.01372e-06
8.05415e-05 0.000260131 -5.38981e-08
-1.01372e-06 -5.38981e-08 0.000116402
0.000691073 0.00022713 2.85425e-06
0.00022713 0.000314334 2.17339e-06
2.85425e-06 2.17339e-06 0.000123653
0.000614188 0.00010252 1.1036e-06
0.00010252 0.000278492 2.25107e-06
1.1036e-06 2.25107e-06 4.70883e-05
0.000582168 0.000150306 -1.15968e-06
0.000150306 0.000131421 -1.09913e-05
-1.15968e-06 -1.09913e-05 4.32591e-05
0.000529061 7.12443e-05 -1.69487e-06
7.12443e-05 0.000220666 -7.15975e-06
-1.69487e-06 -7.15975e-06 -8.79742e-06
-0.00012149 7.30006e-05 -1.76989e-06
7.30006e-05 -0.000243259 2.71655e-06
-1.76989e-06 2.71655e-06 -0.000432116
0.000737993 0.000140374 2.0165e-06
0.000140374 0.000264365 3.6151e-06
2.0165e-06 3.6151e-06 0.000119421
0.000447073 9.5264e-05 2.53731e-06
9.5264e-05 4.87312e-05 4.25041e-06
2.53731e-06 4.25041e-06 -5.01086e-05
0.000426713 2.13841e-05 -1.85844e-06
2.13841e-05 2.53436e-05 -4.25639e-07
-1.85844e-06 -4.25639e-07 -6.60889e-05
0.0012883 1.66287e-05 4.80926e-07
1.66287e-05 0.000549565 3.75765e-06
4.80926e-07 3.75765e-06 0.000523938
0.000427621 -4.72965e-05 2.60763e-06
-4.72965e-05 1.9667e-05 -4.24918e-06
2.60763e-06 -4.24918e-06 -6.84337e-05
0.00135457 2.89976e-06 -1.04871e-05
2.89976e-06 0.000588599 -1.87059e-06
-1.04871e-05 -1.87059e-06 0.00056327
0.000645529 -6.19923e-06 3.69816e-05
-6.19923e-06 0.000119694 1.06744e-05
3.69816e-05 1.06744e-05 0.000123175
0.00138247 -3.19193e-05 -1.22227e-05
-3.19193e-05 0.000605101 -8.77174e-06
-1.22227e-05 -8.77174e-06 0.000578369
0.000713168 -2.32157e-05 1.62209e-05
-2.32157e-05 0.00016002 3.93051e-06
1.62209e-05 3.93051e-06 0.00015927
0.000653938 -3.72802e-05 2.79873e-06
-3.72802e-05 0.000125287 -4.43485e-06
2.79873e-06 -4.43485e-06 0.000116897
0.000317964 4.11693e-05 -1.52383e-06
4.11693e-05 -7.65237e-05 -6.73074e-06
-1.52383e-06 -6.73074e-06 -0.000114581
0.000433735 5.17848e-05 -1.58043e-06
5.17848e-05 1.21959e-05 9.45769e-08
-1.58043e-06 9.45769e-08 -4.00066e-05
0.00291312 0.000154159 -1.55914e-05
0.000154159 0.00163346 -9.03782e-06
-1.55914e-05 -9.03782e-06 0.00161971
0.000549278 -4.37743e-05 -1.37063e-05
-4.37743e-05 8.129e-05 1.28058e-05
-1.37063e-05 1.28058e-05 4.77335e-06
0.0037425 0.000164906 -2.6405e-05
0.000164906 0.00217557 -2.05919e-06
-2.6405e-05 -2.05919e-06 0.00215521
0.00501324 7.22011e-05 -0.000183873
7.22011e-05 0.00300707 2.65163e-05
-0.000183873 2.65163e-05 0.00300381
0.00234507 0.00046551 -2.60503e-07
0.00046551 6.25595e-05 4.08765e-07
-2.60503e-07 4.08765e-07 1.02371e-05
0.00223151 0.000216523 -1.94372e-06
0.000216523 4.07588e-07 -9.69088e-07
-1.94372e-06 -9.69088e-07 1.21818e-05
0.00234746 0.000341054 1.93616e-06
0.000341054 -6.51083e-05 1.23874e-06
1.93616e-06 1.23874e-06 -1.84012e-05
0.00222249 0.000150487 4.78242e-07
0.000150487 -9.17194e-05 -5.37781e-07
4.78242e-07 -5.37781e-07 -1.47977e-05
0.00217479 6.56675e-05 -2.72653e-06
6.56675e-05 -2.3586e-07 -7.49486e-08
-2.72653e-06 -7.49486e-08 2.53395e-05
0.00218459 -1.49532e-05 -6.40671e-06
-1.49532e-05 4.68074e-05 1.73567e-07
-6.40671e-06 1.73567e-07 3.59123e-05
0.00213927 -1.52181e-05 6.86786e-07
-1.52181e-05 -2.71673e-05 2.29016e-08
6.86786e-07 2.29016e-08 2.11949e-06
0.00225291 7.94449e-05 5.1671e-07
7.94449e-05 -7.62187e-05 1.04177e-07
5.1671e-07 1.04177e-07 3.73617e-06
0.00234878 0.0002282 9.61451e-07
0.0002282 -5.86358e-05 1.78029e-07
9.61451e-07 1.78029e-07 1.33178e-05
0.00246572 0.000475255 4.8748e-07
0.000475255 -3.17822e-05 2.1806e-07
4.8748e-07 2.1806e-07 3.17995e-06
0.00223912 -1.65097e-05 -2.40071e-07
-1.65097e-05 -7.67913e-05 -2.58916e-07
-2.40071e-07 -2.58916e-07 -3.15791e-06
0.00239454 0.000129104 -1.01907e-06
0.000129104 -0.000106747 1.18061e-06
-1.01907e-06 1.18061e-06 2.76268e-05
0.00261197 0.000340516 -1.91631e-06
0.000340516 -5.45846e-05 8.64409e-08
-1.91631e-06 8.64409e-08 5.15879e-05
0.00208698 -0.000104756 -1.70105e-06
-0.000104756 -6.46615e-05 2.55134e-07
-1.70105e-06 2.55134e-07 -3.24809e-05
0.00224535 -0.000223751 -1.87507e-06
-0.000223751 -1.63635e-05 5.73332e-07
-1.87507e-06 5.73332e-07 1.13589e-05
0.00236758 -0.000439684 4.22473e-07
-0.000439684 -2.02216e-05 6.27128e-07
4.22473e-07 6.27128e-07 -6.38875e-06
0.00203028 -0.000877466 -7.21638e-06
-0.000877466 0.000703914 -4.66866e-06
-7.21638e-06 -4.66866e-06 0.000109311
0.00180596 -0.000969015 1.55302e-05
-0.000969015 0.000386091 -8.78528e-06
1.55302e-05 -8.78528e-06 -0.00021507
0.00232078 -0.000995851 4.03315e-06
-0.000995851 0.000424486 -2.53714e-06
4.03315e-06 -2.53714e-06 -8.92871e-05
0.00236935 -0.000595309 2.0048e-07
-0.000595309 6.99899e-05 -6.95722e-09
2.0048e-07 -6.95722e-09 6.78753e-06
0.00251471 -0.000817907 4.29766e-06
-0.000817907 0.000219421 5.63916e-07
4.29766e-06 5.63916e-07 3.87762e-05
0.00247736 -0.000838816 1.2334e-05
-0.000838816 0.00037284 -5.86557e-06
1.2334e-05 -5.86557e-06 4.51618e-05
0.00138777 -0.000712804 -3.72419e-06
-0.000712804 0.000476045 -8.14898e-06
-3.72419e-06 -8.14898e-06 -9.75721e-05
0.00202983 -0.000789516 2.3706e-06
-0.000789516 0.000919739 -2.5569e-05
2.3706e-06 -2.5569e-05 0.000300091
0.00267904 -0.000536884 -1.0096e-05
-0.000536884 0.00140773 1.49299e-05
-1.0096e-05 1.49299e-05 0.000908141
7.85287e-05 2.19581e-05 6.13255e-06
2.19581e-05 -0.000185955 3.90048e-06
6.13255e-06 3.90048e-06 -0.000333324
0.000893655 -0.000435395 8.67429e-06
-0.000435395 0.000312533 -1.21678e-05
8.67429e-06 -1.21678e-05 -5.46499e-05
-0.000190167 -8.81364e-05 8.53141e-06
-8.81364e-05 -0.000280972 -2.26146e-06
8.53141e-06 -2.26146e-06 -0.000635711
0.00225308 -0.000117916 -3.1375e-07
-0.000117916 -6.02448e-05 7.01798e-08
-3.1375e-07 7.01798e-08 6.51232e-06
0.00238371 -0.000309836 4.58446e-07
-0.000309836 -0.000112416 6.48805e-08
4.58446e-07 6.48805e-08 -1.25424e-05
0.00246523 -0.000547109 -5.28553e-07
-0.000547109 -2.99389e-05 5.51588e-08
-5.28553e-07 5.51588e-08 7.18555e-06
0.00203503 -0.00097492 -1.96781e-06
-0.00097492 0.00071777 1.04559e-06
-1.96781e-06 1.04559e-06 8.65775e-05
0.0021411 -0.0011238 1.01129e-05
-0.0011238 0.000588783 -1.77474e-06
1.01129e-05 -1.77474e-06 -7.36083e-05
0.00240557 -0.00101511 -1.47214e-06
-0.00101511 0.000490355 -2.53366e-06
-1.47214e-06 -2.53366e-06 -1.22848e-05
0.00250376 -0.000741467 6.06514e-07
-0.000741467 3.52938e-05 -2.29913e-07
6.06514e-07 -2.29913e-07 -8.01247e-06
0.00248161 -0.000927494 2.29418e-06
-0.000927494 0.000279225 -1.65918e-06
2.29418e-06 -1.65918e-06 -1.43409e-05
0.000168223 6.59942e-05 -2.5637e-06
6.59942e-05 -0.00013241 -2.62234e-06
-2.5637e-06 -2.62234e-06 -0.00023663
0.000798335 -9.07336e-05 -1.82487e-06
-9.07336e-05 0.000353687 1.04652e-06
-1.82487e-06 1.04652e-06 8.74467e-05
0.00127061 -0.000744217 -2.96007e-06
-0.000744217 0.00038178 5.07666e-07
-2.96007e-06 5.07666e-07 -0.000174748
0.00166919 -0.000668814 -7.37508e-06
-0.000668814 0.000759682 3.0796e-06
-7.37508e-06 3.0796e-06 0.000113026
0.00108167 -0.000242774 5.95851e-07
-0.000242774 0.000386554 -6.8354e-06
5.95851e-07 -6.8354e-06 1.33949e-05
0.00147629 -0.000402245 -2.94036e-06
-0.000402245 0.000813743 1.77736e-06
-2.94036e-06 1.77736e-06 0.000421359
0.00235812 -0.000152867 -1.52253e-07
-0.000152867 -0.000129226 -1.67997e-06
-1.52253e-07 -1.67997e-06 7.07702e-06
0.00258202 -0.000458466 -5.35455e-07
-0.000458466 -0.000154341 -1.87093e-06
-5.35455e-07 -1.87093e-06 1.76835e-05
0.00254051 -0.000692301 4.13234e-09
-0.000692301 -5.64988e-05 1.07884e-06
4.13234e-09 1.07884e-06 -2.10382e-05
0.00266388 -0.000939984 4.14485e-08
-0.000939984 0.000170123 -6.66931e-07
4.14485e-08 -6.66931e-07 1.5483e-05
0.00106921 -0.000871422 -9.58102e-06
-0.000871422 0.000176557 -1.8421e-06
-9.58102e-06 -1.8421e-06 -0.000413328
0.00265711 -0.00112587 8.6173e-07
-0.00112587 0.000551144 -8.69102e-07
8.6173e-07 -8.69102e-07 6.22809e-05
0.00246801 -0.00127385 -7.07178e-05
-0.00127385 0.000704232 6.31505e-06
-7.07178e-05 6.31505e-06 -3.12677e-06
0.00053349 4.98149e-05 -1.2401e-07
4.98149e-05 8.28181e-05 -2.95852e-06
-1.2401e-07 -2.95852e-06 4.47169e-06
0.000791825 -0.000167566 5.08957e-06
-0.000167566 0.00032919 -6.71642e-06
5.08957e-06 -6.71642e-06 0.000182927
-0.000180433 7.23757e-05 -6.64005e-06
7.23757e-05 -0.000299035 -2.42158e-06
-6.64005e-06 -2.42158e-06 -0.000472535
0.000694481 -0.00012984 -6.6119e-06
-0.00012984 0.00030189 4.71569e-06
-6.6119e-06 4.71569e-06 -1.64895e-05
0.00140398 -0.00020763 -9.05461e-06
-0.00020763 0.00067533 -1.09112e-05
-9.05461e-06 -1.09112e-05 0.000340999
0.00178603 -0.000383143 -9.00228e-06
-0.000383143 0.000966592 5.68311e-07
-9.00228e-06 5.68311e-07 0.000437537
0.00128739 -0.000821448 -1.56219e-05
-0.000821448 0.000375528 4.0046e-05
-1.56219e-05 4.0046e-05 -0.000188452
0.00438477 -0.0010555 -2.87912e-05
-0.0010555 0.00241822 2.0936e-05
-2.87912e-05 2.0936e-05 0.00160635
4.50368e-05 0.000116116 3.5034e-06
0.000116116 -0.000205868 -9.18922e-07
3.5034e-06 -9.18922e-07 -0.000423117
0.00209367 0.0004594 1.69393e-06
0.0004594 0.00112567 1.64201e-06
1.69393e-06 1.64201e-06 0.000747327
0.00255998 0.000703214 -7.30001e-07
0.000703214 0.000107341 -8.0242e-07
-7.30001e-07 -8.0242e-07 6.53158e-06
0.00242927 0.000283718 -1.1353e-06
0.000283718 0.000929363 1.32361e-06
-1.1353e-06 1.32361e-06 0.000650341
0.00126448 0.000703419 1.5495e-06
0.000703419 0.000427222 5.85786e-07
1.5495e-06 5.85786e-07 -0.00010109
0.00284605 0.000728786 -1.70504e-06
0.000728786 0.0011098 8.62961e-06
-1.70504e-06 8.62961e-06 0.000682077
0.00264497 0.000825094 -4.77999e-06
0.000825094 0.000466729 6.00084e-08
-4.77999e-06 6.00084e-08 0.000130724
0.00291426 0.000836651 -5.49717e-06
0.000836651 0.000493819 6.70718e-06
-5.49717e-06 6.70718e-06 0.000207651
0.00184787 0.00103887 -4.92797e-06
0.00103887 0.000546936 2.82229e-06
-4.92797e-06 2.82229e-06 -9.03008e-05
0.00221626 0.00118493 -1.52358e-05
0.00118493 0.000489879 -7.19666e-07
-1.52358e-05 -7.19666e-07 -0.000121138
-0.000523913 0.000110137 2.02104e-06
0.000110137 -0.000480462 1.75186e-06
2.02104e-06 1.75186e-06 -0.000746432
6.36991e-05 0.000420871 5.45459e-06
0.000420871 4.22791e-05 -2.60941e-06
5.45459e-06 -2.60941e-06 -0.000407341
0.00181048 0.000859636 3.13353e-08
0.000859636 0.000601826 -5.39795e-07
3.13353e-08 -5.39795e-07 4.14581e-05
0.00221739 0.000572368 -5.73323e-06
0.000572368 0.000790583 -5.66909e-08
-5.73323e-06 -5.66909e-08 0.000431545
0.00263721 0.000627322 1.30117e-07
0.000627322 -0.000197872 -9.95898e-07
1.30117e-07 -9.95898e-07 -6.69177e-05
0.00278674 0.000849554 3.17839e-06
0.000849554 0.000270087 -6.82809e-07
3.17839e-06 -6.82809e-07 6.50925e-05
0.00243471 0.000985725 -3.73885e-06
0.000985725 0.000379656 -1.55959e-07
-3.73885e-06 -1.55959e-07 -8.05232e-05
0.00238757 0.00118655 1.94149e-06
0.00118655 0.000681901 7.65552e-07
1.94149e-06 7.65552e-07 1.92583e-05
-0.0011346 3.64281e-06 -4.38969e-06
3.64281e-06 -0.000838762 -2.20419e-06
-4.38969e-06 -2.20419e-06 -0.00103912
0.0025859 0.00043628 -1.94853e-06
0.00043628 -0.000249094 -2.02032e-07
-1.94853e-06 -2.02032e-07 -8.89533e-05
0.00319356 0.000760808 -7.55017e-06
0.000760808 0.00197044 8.24035e-06
-7.55017e-06 8.24035e-06 0.00144225
0.00177011 0.000803644 1.29179e-06
0.000803644 0.000478673 -2.67731e-06
1.29179e-06 -2.67731e-06 -2.6519e-05
0.00274356 0.000826831 -1.61094e-05
0.000826831 1.34881e-05 -9.29569e-06
-1.61094e-05 -9.29569e-06 5.02612e-05
0.00140932 0.000904117 7.69144e-06
0.000904117 -0.000325026 -1.03316e-05
7.69144e-06 -1.03316e-05 -0.000744004
0.00317561 0.00131158 5.00309e-06
0.00131158 0.00108203 4.14438e-06
5.00309e-06 4.14438e-06 0.000388582
6.46623e-05 0.000141215 1.30212e-06
0.000141215 -0.000115865 4.96672e-06
1.30212e-06 4.96672e-06 -0.000298628
0.000459078 0.000150122 -1.79265e-06
0.000150122 0.00014249 -5.04295e-07
-1.79265e-06 -5.04295e-07 1.81186e-05
8.42831e-05 8.91139e-05 -4.18012e-06
8.91139e-05 -5.00574e-05 -5.44672e-06
-4.18012e-06 -5.44672e-06 -0.000144989
0.000186292 2.00709e-06 2.46792e-06
2.00709e-06 -9.83528e-05 -3.08599e-06
2.46792e-06 -3.08599e-06 -0.000232231
0.000517123 0.000122044 3.6726e-06
0.000122044 0.000211249 -4.38374e-06
3.6726e-06 -4.38374e-06 -1.50812e-05
-0.000245242 0.000196206 -5.87984e-06
0.000196206 -0.000228466 1.37503e-05
-5.87984e-06 1.37503e-05 -0.00041038
0.000498937 3.07468e-05 -1.67641e-06
3.07468e-05 0.000109844 -1.46117e-07
-1.67641e-06 -1.46117e-07 -3.4248e-05
0.000218639 8.93198e-06 -1.84852e-07
8.93198e-06 -2.88967e-06 -5.24388e-07
-1.84852e-07 -5.24388e-07 -0.000208046
-5.53192e-05 9.66583e-05 -7.09389e-06
9.66583e-05 -0.000229992 3.63542e-06
-7.09389e-06 3.63542e-06 -0.000306361
0.00074925 0.000170531 2.28481e-06
0.000170531 0.000378955 -2.43908e-06
2.28481e-06 -2.43908e-06 0.000136866
0.00193875 0.000220173 -1.6897e-06
0.000220173 0.00100074 -9.46813e-06
-1.6897e-06 -9.46813e-06 0.000935275
-0.000445947 3.13687e-05 1.33294e-05
3.13687e-05 -0.000452321 -1.32796e-05
1.33294e-05 -1.32796e-05 -0.00056187
0.000556196 0.000132162 -1.68854e-06
0.000132162 0.000264062 2.52128e-06
-1.68854e-06 2.52128e-06 1.40493e-05
0.000580184 6.05124e-05 -1.02089e-06
6.05124e-05 0.000202854 2.83858e-06
-1.02089e-06 2.83858e-06 -4.22207e-06
0.000541408 2.81758e-05 1.64481e-06
2.81758e-05 0.000118755 3.0936e-06
1.64481e-06 3.0936e-06 -2.39432e-05
0.000462215 -7.49657e-05 -1.73271e-06
-7.49657e-05 4.89151e-05 3.27519e-06
-1.73271e-06 3.27519e-06 -4.58168e-05
0.000449864 1.70397e-05 5.54019e-07
1.70397e-05 3.47892e-05 -4.61376e-07
5.54019e-07 -4.61376e-07 -5.447e-05
0.00133641 2.79966e-05 3.83791e-06
2.79966e-05 0.00058515 3.99464e-06
3.83791e-06 3.99464e-06 0.000560059
0.000441535 1.6087e-05 1.7664e-06
1.6087e-05 1.9044e-05 -3.98472e-06
1.7664e-06 -3.98472e-06 -6.20566e-05
0.00135975 2.02534e-05 -1.07363e-05
2.02534e-05 0.000598039 -2.04829e-06
-1.07363e-05 -2.04829e-06 0.00057193
0.000752814 -2.86617e-07 3.27715e-05
-2.86617e-07 0.000194435 9.86902e-06
3.27715e-05 9.86902e-06 0.000197207
0.00132557 -1.54412e-05 -1.08193e-05
-1.54412e-05 0.000568673 -8.29824e-06
-1.08193e-05 -8.29824e-06 0.000545056
0.000749753 -1.40889e-05 1.35956e-05
-1.40889e-05 0.000184334 3.95199e-06
1.35956e-05 3.95199e-06 0.00018519
0.000803374 -2.98395e-05 2.13271e-06
-2.98395e-05 0.000214671 -3.61181e-06
2.13271e-06 -3.61181e-06 0.00021221
0.00052051 -1.57469e-05 1.41517e-07
-1.57469e-05 6.04194e-05 -3.86234e-06
1.41517e-07 -3.86234e-06 -3.3614e-06
0.000259605 3.21357e-05 -9.12798e-07
3.21357e-05 -0.000119518 -6.12488e-06
-9.12798e-07 -6.12488e-06 -0.000149863
0.000341802 4.01778e-05 1.41627e-06
4.01778e-05 -5.79566e-05 5.4543e-07
1.41627e-06 5.4543e-07 -9.78512e-05
0.00283609 0.000123229 -2.10095e-06
0.000123229 0.00156901 -7.02542e-06
-2.10095e-06 -7.02542e-06 0.00156387
0.000348145 2.3966e-05 2.15457e-07
2.3966e-05 -5.63793e-05 9.84842e-06
2.15457e-07 9.84842e-06 -0.000103688
0.00326108 0.000169865 -1.03892e-05
0.000169865 0.00186354 -1.36696e-06
-1.03892e-05 -1.36696e-06 0.00184629
0.00407469 0.000113919 -7.90137e-05
0.000113919 0.002379 1.06379e-05
-7.90137e-05 1.06379e-05 0.00236965
0.00243715 0.000460521 1.99405e-06
0.000460521 -5.34959e-05 5.52992e-07
1.99405e-06 5.52992e-07 -1.43803e-05
0.00233833 0.000234881 6.85863e-07
0.000234881 -6.69123e-05 -4.05609e-07
6.85863e-07 -4.05609e-07 7.3851e-06
0.00222078 8.37506e-05 -2.63807e-07
8.37506e-05 -9.296e-05 -3.55569e-07
-2.63807e-07 -3.55569e-07 -1.46554e-05
0.00216195 -1.4206e-05 -2.71057e-06
-1.4206e-05 -9.94509e-06 5.55504e-08
-2.71057e-06 5.55504e-08 2.0338e-05
0.00223629 -1.20967e-05 -4.37725e-07
-1.20967e-05 -8.40724e-05 1.2715e-07
-4.37725e-07 1.2715e-07 -6.80385e-06
0.00235912 0.00012446 9.15067e-07
0.00012446 -0.000124578 3.84395e-07
9.15067e-07 3.84395e-07 8.24084e-06
0.00251353 0.000353204 -6.6993e-07
0.000353204 -9.99435e-05 -4.09379e-07
-6.6993e-07 -4.09379e-07 6.39173e-06
0.00232804 -1.47729e-05 1.71736e-06
-1.47729e-05 -0.000158392 -6.40739e-07
1.71736e-06 -6.40739e-07 -1.00786e-05
0.00267079 0.000166442 -1.37316e-06
0.000166442 -0.000113792 1.93203e-06
-1.37316e-06 1.93203e-06 5.76914e-05
0.00242468 0.000152494 -8.25283e-07
0.000152494 -0.000288438 4.91123e-06
-8.25283e-07 4.91123e-06 -0.000118463
0.00227121 -0.000112041 -3.8677e-07
-0.000112041 -4.80724e-05 4.30793e-07
-3.8677e-07 4.30793e-07 1.62746e-05
0.00237523 -0.000322272 -1.73868e-06
-0.000322272 -0.000125564 6.29261e-07
-1.73868e-06 6.29261e-07 -2.18297e-05
0.00246134 -0.000534886 2.14613e-06
-0.000534886 -2.5334e-05 3.58494e-07
2.14613e-06 3.58494e-07 9.46741e-06
0.0020243 -0.000977808 -2.68334e-07
-0.000977808 0.000700963 -2.84013e-06
-2.68334e-07 -2.84013e-06 6.9527e-05
0.00197124 -0.00109829 4.00091e-05
-0.00109829 0.000486305 -6.47071e-06
4.00091e-05 -6.47071e-06 -0.000166378
0.00255339 -0.00101816 1.8113e-05
-0.00101816 0.000563541 -3.84698e-06
1.8113e-05 -3.84698e-06 7.29327e-05
0.00248613 -0.000749343 3.98167e-06
-0.000749343 3.10011e-05 -9.80117e-07
3.98167e-06 -9.80117e-07 -2.57518e-05
0.00240253 -0.000894919 7.43593e-06
-0.000894919 0.000261834 7.39476e-07
7.43593e-06 7.39476e-07 -1.70384e-05
0.00103826 -0.000712293 -2.13686e-06
-0.000712293 0.000260229 -2.52445e-05
-2.13686e-06 -2.52445e-05 -0.000315148
0.0011892 -0.000568955 9.88184e-06
-0.000568955 0.000518203 -2.07589e-05
9.88184e-06 -2.07589e-05 -0.00012509
2.18814e-05 -0.000199611 4.38709e-06
-0.000199611 -0.00033541 4.52564e-06
4.38709e-06 4.52564e-06 -0.000705938
0.000479454 7.37689e-06 1.48827e-07
7.37689e-06 6.64665e-05 3.83998e-06
1.48827e-07 3.83998e-06 -3.38939e-05
-0.000132848 -1.24808e-05 6.43352e-06
-1.24808e-05 -0.000260019 -3.16496e-07
6.43352e-06 -3.16496e-07 -0.00050761
0.00130097 -0.000336251 1.29045e-06
-0.000336251 0.000697362 2.65658e-06
1.29045e-06 2.65658e-06 0.000309094
0.00235417 -0.000156292 2.64657e-07
-0.000156292 -0.000142596 -1.09702e-07
2.64657e-07 -1.09702e-07 -1.45186e-06
0.000428752 -6.47615e-06 1.74121e-06
-6.47615e-06 1.28534e-05 4.31641e-07
1.74121e-06 4.31641e-07 -6.52791e-05
0.000375863 -8.58431e-05 -3.98515e-06
-8.58431e-05 1.88275e-05 -1.19323e-06
-3.98515e-06 -1.19323e-06 -0.000102012
0.00254842 -0.000445861 -2.85808e-07
-0.000445861 -0.000148941 -6.70651e-08
-2.85808e-07 -6.70651e-08 6.15783e-06
0.00252371 -0.000676166 -1.81786e-06
-0.000676166 -4.85608e-05 1.8592e-07
-1.81786e-06 1.8592e-07 -7.9456e-06
0.00208391 -0.00103893 1.94112e-06
-0.00103893 0.000764567 2.82098e-06
1.94112e-06 2.82098e-06 0.000122352
0.00257799 -0.00129286 1.21947e-05
-0.00129286 0.000771403 -1.67629e-06
1.21947e-05 -1.67629e-06 5.99431e-05
0.00240592 -0.00108789 1.53571e-06
-0.00108789 0.000397402 -2.66001e-06
1.53571e-06 -2.66001e-06 -7.12781e-05
0.00258093 -0.000937223 2.29033e-06
-0.000937223 0.000118801 -1.46481e-06
2.29033e-06 -1.46481e-06 -3.05938e-05
0.000606578 -8.75464e-06 -1.99524e-06
-8.75464e-06 0.00022303 -1.20872e-06
-1.99524e-06 -1.20872e-06 3.42307e-05
0.000815682 -0.000139539 -1.10243e-07
-0.000139539 0.000387014 1.96409e-06
-1.10243e-07 1.96409e-06 6.1557e-05
0.00126963 -0.000779577 9.26361e-06
-0.000779577 0.000406174 1.18415e-05
9.26361e-06 1.18415e-05 -0.000151021
0.00213707 -0.000740236 3.12157e-05
-0.000740236 0.00112817 -1.73231e-05
3.12157e-05 -1.73231e-05 0.000367435
0.000620863 -0.000285543 -3.1211e-06
-0.000285543 0.000276574 1.5714e-06
-3.1211e-06 1.5714e-06 -0.000264125
0.000117938 -0.000270374 4.82642e-06
-0.000270374 -0.000136935 -4.48128e-06
4.82642e-06 -4.48128e-06 -0.000472452
0.00238448 -0.000177774 2.24248e-07
-0.000177774 -0.000359282 6.37891e-07
2.24248e-07 6.37891e-07 -0.000140152
0.0026619 -0.00059045 -2.11481e-06
-0.00059045 -0.000218213 6.61631e-07
-2.11481e-06 6.61631e-07 3.93214e-05
0.00297243 -0.000983461 -5.24728e-06
-0.000983461 0.000150725 1.71612e-06
-5.24728e-06 1.71612e-06 0.000109458
0.00280256 -0.00118318 4.37882e-06
-0.00118318 0.000370888 -2.97738e-06
4.37882e-06 -2.97738e-06 4.60738e-05
0.00132173 -0.00101389 -2.24385e-06
-0.00101389 0.000383061 -9.07149e-06
-2.24385e-06 -9.07149e-06 -0.000267476
0.00367191 -0.00155125 -1.03245e-05
-0.00155125 0.00123454 2.98614e-06
-1.03245e-05 2.98614e-06 0.000486859
0.000342491 6.45312e-05 -2.79963e-06
6.45312e-05 -1.48606e-05 -9.28821e-06
-2.79963e-06 -9.28821e-06 -0.000134818
0.000153077 -5.37812e-05 7.25159e-06
-5.37812e-05 -0.000124564 -3.60731e-06
7.25159e-06 -3.60731e-06 -0.000241124
0.00163897 -0.000235656 -7.6321e-06
-0.000235656 0.000810998 1.10982e-05
-7.6321e-06 1.10982e-05 0.000641014
0.000399827 2.42907e-05 -3.89456e-06
2.42907e-05 8.33654e-05 6.18886e-06
-3.89456e-06 6.18886e-06 -0.000156511
0.00128196 -0.000268278 -1.11906e-05
-0.000268278 0.000674339 1.13126e-05
-1.11906e-05 1.13126e-05 0.000309342
-0.00132229 -0.000146491 -1.89562e-06
-0.000146491 -0.00108537 -2.55653e-05
-1.89562e-06 -2.55653e-05 -0.00137147
-0.000672852 -0.000310002 -1.96206e-05
-0.000310002 -9.46767e-05 7.40881e-06
-1.96206e-05 7.40881e-06 -0.00108844
0.00103827 -0.00100668 -6.32513e-05
-0.00100668 0.000118145 3.26727e-05
-6.32513e-05 3.26727e-05 -0.000315876
-0.000139589 0.000277096 -7.18415e-09
0.000277096 -0.000164405 -1.72276e-06
-7.18415e-09 -1.72276e-06 -0.000493628
0.00350638 0.000610454 -1.54057e-05
0.000610454 0.00215797 -4.91985e-06
-1.54057e-05 -4.91985e-06 0.00173271
0.00257621 0.000597797 -3.09969e-06
0.000597797 -0.000264991 -2.45513e-07
-3.09969e-06 -2.45513e-07 -0.000111127
0.00290383 0.000860164 -6.19878e-06
0.000860164 0.000337658 -1.12694e-06
-6.19878e-06 -1.12694e-06 0.000119269
0.00318563 0.000641015 -8.36992e-06
0.000641015 0.00141532 2.58223e-06
-8.36992e-06 2.58223e-06 0.00104903
0.00159151 0.000856991 -1.17885e-05
0.000856991 0.000424316 9.72267e-08
-1.17885e-05 9.72267e-08 -0.000145672
0.00225703 0.000943168 -6.64458e-06
0.000943168 0.000316388 2.45349e-06
-6.64458e-06 2.45349e-06 -0.000128075
0.00270467 0.00120349 -1.06901e-05
0.00120349 0.000854439 -1.50874e-06
-1.06901e-05 -1.50874e-06 0.00019886
0.000117223 0.000218495 2.88223e-06
0.000218495 1.73693e-05 -4.32899e-08
2.88223e-06 -4.32899e-08 -0.000254658
0.00258696 0.000423673 -1.62006e-06
0.000423673 -0.000251492 -2.43409e-06
-1.62006e-06 -2.43409e-06 -7.56461e-05
0.00168919 0.000539369 3.47413e-06
0.000539369 0.00104466 8.19088e-06
3.47413e-06 8.19088e-06 0.000588952
0.00160842 0.000764589 4.07253e-06
0.000764589 0.000428254 1.72482e-06
4.07253e-06 1.72482e-06 -7.05227e-05
0.00288148 0.000801831 3.74665e-07
0.000801831 0.000140587 -2.83213e-07
3.74665e-07 -2.83213e-07 0.000168865
0.00207835 0.000994046 -2.55795e-06
0.000994046 6.55153e-05 -6.04703e-06
-2.55795e-06 -6.04703e-06 -0.000369643
0.00279101 0.00123257 -2.4265e-06
0.00123257 0.000876742 -7.65276e-07
-2.4265e-06 -7.65276e-07 0.000206846
0.00195616 0.000456203 -6.374e-06
0.000456203 0.00128167 -3.69625e-06
-6.374e-06 -3.69625e-06 0.00091727
0.00424645 0.000793414 -0.000110347
0.000793414 0.000638726 -3.9509e-05
-0.000110347 -3.9509e-05 0.000956801
0.0017593 0.000682593 -8.54525e-06
0.000682593 0.000967404 9.43279e-06
-8.54525e-06 9.43279e-06 0.000462906
0.00123765 0.000819939 -5.7547e-06
0.000819939 0.0001898 -1.01184e-05
-5.7547e-06 -1.01184e-05 -0.000381862
0.00345349 0.00114221 -4.39286e-05
0.00114221 0.00068545 -2.47336e-05
-4.39286e-05 -2.47336e-05 0.000404582
0.00109735 0.000998847 -3.0809e-05
0.000998847 -8.8361e-05 -3.01139e-06
-3.0809e-05 -3.01139e-06 -0.000671251
0.00149132 0.00158293 9.43157e-06
0.00158293 -0.0024245 -6.95519e-05
9.43157e-06 -6.95519e-05 -0.00121134
0.000365811 0.000191175 8.68961e-06
0.000191175 0.00012347 9.02988e-06
8.68961e-06 9.02988e-06 -1.75938e-05
0.00014193 0.000134456 1.95864e-06
0.000134456 1.70658e-05 1.94108e-07
1.95864e-06 1.94108e-07 -0.000101367
-9.37072e-05 9.05892e-05 2.31289e-06
9.05892e-05 -0.000151374 -6.67647e-06
2.31289e-06 -6.67647e-06 -0.000259125
0.00035208 -6.7422e-05 2.55357e-06
-6.7422e-05 1.837e-05 -4.18658e-06
2.55357e-06 -4.18658e-06 -0.000127654
-3.84651e-05 4.39556e-07 1.0089e-06
4.39556e-07 -0.000167164 -2.76739e-06
1.0089e-06 -2.76739e-06 -0.000371658
0.00167923 0.000301139 -2.2694e-07
0.000301139 0.000974264 -7.744e-07
-2.2694e-07 -7.744e-07 0.000722424
-0.000928959 5.68613e-05 -8.03825e-06
5.68613e-05 -0.000750964 2.21369e-05
-8.03825e-06 2.21369e-05 -0.000819263
0.000473621 -1.15783e-05 -3.00522e-07
-1.15783e-05 9.14243e-05 -3.01952e-07
-3.00522e-07 -3.01952e-07 -6.04039e-05
0.000402849 9.34004e-05 4.92732e-07
9.34004e-05 5.29221e-05 -3.24793e-07
4.92732e-07 -3.24793e-07 -0.000123128
0.000392757 0.000139504 5.47241e-06
0.000139504 4.233e-05 3.10098e-06
5.47241e-06 3.10098e-06 -5.55638e-06
0.000246763 9.41561e-05 1.20826e-06
9.41561e-05 3.22165e-05 3.8102e-07
1.20826e-06 3.8102e-07 -0.000193842
0.000416524 9.95658e-05 1.61315e-07
9.95658e-05 7.94503e-05 -1.86198e-06
1.61315e-07 -1.86198e-06 -4.1114e-05
0.000426634 0.000130756 9.82958e-07
0.000130756 0.000137507 -1.49416e-05
9.82958e-07 -1.49416e-05 5.05522e-05
0.000800942 0.00017476 -4.48398e-06
0.00017476 0.000329549 -5.67169e-06
-4.48398e-06 -5.67169e-06 0.000149028
0.00108122 0.000155349 -3.2401e-07
0.000155349 0.0005421 2.92997e-06
-3.2401e-07 2.92997e-06 0.000321342
0.000697752 0.000125301 -3.60538e-06
0.000125301 0.000253363 -1.21321e-06
-3.60538e-06 -1.21321e-06 5.99466e-05
0.000166403 -1.66741e-05 -1.79382e-06
-1.66741e-05 -0.000136165 8.4639e-07
-1.79382e-06 8.4639e-07 -0.00027652
0.00126785 -0.000136711 2.24657e-06
-0.000136711 0.000707303 -3.05304e-06
2.24657e-06 -3.05304e-06 0.000461469
7.43511e-05 -5.50158e-05 -4.82132e-07
-5.50158e-05 -0.00018309 3.61001e-06
-4.82132e-07 3.61001e-06 -0.000329128
0.0003854 5.40252e-06 -1.90695e-06
5.40252e-06 7.55554e-06 3.44962e-06
-1.90695e-06 3.44962e-06 -9.1338e-05
0.000413167 4.68739e-05 2.36551e-06
4.68739e-05 2.26985e-05 -8.77387e-08
2.36551e-06 -8.77387e-08 -7.48758e-05
0.000316292 2.06117e-05 -2.08893e-06
2.06117e-05 -6.87735e-05 5.20719e-06
-2.08893e-06 5.20719e-06 -9.90192e-05
0.000334793 -1.24559e-06 -1.00725e-06
-1.24559e-06 -2.72085e-05 -4.32313e-06
-1.00725e-06 -4.32313e-06 -0.000124391
0.000846342 1.78621e-05 -4.5497e-06
1.78621e-05 0.00027056 -1.52705e-06
-4.5497e-06 -1.52705e-06 0.000242994
0.00266838 5.02346e-06 2.98756e-05
5.02346e-06 0.0014371 6.19225e-06
2.98756e-05 6.19225e-06 0.00144911
0.00140739 5.42513e-05 -1.8029e-05
5.42513e-05 0.000632437 -8.32346e-06
-1.8029e-05 -8.32346e-06 0.000605008
0.000764738 -4.96553e-06 1.29264e-05
-4.96553e-06 0.000198133 3.88871e-06
1.29264e-05 3.88871e-06 0.000199663
0.000838835 -1.89175e-05 1.71864e-06
-1.89175e-05 0.000238684 -3.44564e-06
1.71864e-06 -3.44564e-06 0.000238408
0.000392162 9.98751e-06 -2.08352e-06
9.98751e-06 -1.05944e-05 -5.04972e-06
-2.08352e-06 -5.04972e-06 -7.35478e-05
0.000514354 -4.08044e-05 5.50533e-07
-4.08044e-05 6.66509e-05 -1.99497e-07
5.50533e-07 -1.99497e-07 -3.22618e-06
0.000387453 2.55253e-05 -4.05342e-07
2.55253e-05 -4.63698e-05 -4.93583e-06
-4.05342e-07 -4.93583e-06 -6.82649e-05
0.00080284 4.78987e-05 5.25542e-08
4.78987e-05 0.000234458 1.77417e-07
5.25542e-08 1.77417e-07 0.000204936
0.00255393 9.25274e-05 -2.40293e-07
9.25274e-05 0.00137616 -6.02384e-06
-2.40293e-07 -6.02384e-06 0.00137858
0.000454094 5.58286e-05 4.65973e-06
5.58286e-05 2.29847e-05 7.94687e-06
4.65973e-06 7.94687e-06 -2.14235e-05
0.00279547 0.000128156 -2.15872e-06
0.000128156 0.00154545 -1.70482e-07
-2.15872e-06 -1.70482e-07 0.00153909
0.00333092 0.000139559 -6.7027e-06
0.000139559 0.0018963 7.82003e-06
-6.7027e-06 7.82003e-06 0.00188486
0.00241854 0.000364809 1.25183e-06
0.000364809 -0.000145426 1.45643e-07
1.25183e-06 1.45643e-07 -3.82049e-05
0.00233964 0.000120987 6.29135e-07
0.000120987 -0.000132518 -1.48327e-06
6.29135e-07 -1.48327e-06 -6.23033e-07
0.00223803 -7.88623e-06 -6.60515e-07
-7.88623e-06 -8.7697e-05 8.23757e-08
-6.60515e-07 8.23757e-08 -6.65322e-06
0.00233 -5.67139e-06 -1.84629e-08
-5.67139e-06 -0.0001564 1.08166e-09
-1.84629e-08 1.08166e-09 -6.97664e-06
0.00261843 0.000177629 1.82701e-06
0.000177629 -0.000125239 -4.68027e-07
1.82701e-06 -4.68027e-07 4.27557e-05
0.00252602 0.000132968 3.09409e-06
0.000132968 -0.000241505 -1.30903e-06
3.09409e-06 -1.30903e-06 -7.51871e-05
0.00275884 2.92471e-05 -1.56176e-06
2.92471e-05 -0.000162777 4.34748e-06
-1.56176e-06 4.34748e-06 6.7603e-05
0.00569008 0.00164017 7.21647e-05
0.00164017 -0.0011617 1.66276e-05
7.21647e-05 1.66276e-05 0.000409091
0.00286935 0.000137647 -4.43266e-05
0.000137647 6.34444e-05 1.84029e-05
-4.43266e-05 1.84029e-05 0.000396067
0.000452663 0.000122036 -4.06539e-06
0.000122036 7.10795e-05 -4.71638e-06
-4.06539e-06 -4.71638e-06 -4.52038e-05
0.00235699 -0.000158568 -9.56334e-09
-0.000158568 -0.000151292 1.2622e-06
-9.56334e-09 1.2622e-06 -5.29315e-06
0.00249977 -0.000434557 5.58509e-07
-0.000434557 -0.000159126 2.22986e-06
5.58509e-07 2.22986e-06 -1.77223e-05
0.00251122 -0.000661576 2.5208e-06
-0.000661576 -4.30896e-05 -7.68597e-07
2.5208e-06 -7.68597e-07 6.34374e-06
0.00181608 -0.0010304 -5.96492e-06
-0.0010304 0.000604892 8.11594e-06
-5.96492e-06 8.11594e-06 -3.64101e-05
0.00268194 -0.00127995 4.15792e-05
-0.00127995 0.000848996 2.71517e-06
4.15792e-05 2.71517e-06 0.00015041
0.00227332 -0.00106253 -2.27621e-06
-0.00106253 0.000320173 -5.92048e-07
-2.27621e-06 -5.92048e-07 -0.000133405
0.00257009 -0.000943853 4.0704e-06
-0.000943853 0.000107242 -1.12791e-06
4.0704e-06 -1.12791e-06 -3.95705e-05
0.00169647 -0.000796521 3.30053e-05
-0.000796521 0.000569514 -5.42328e-05
3.30053e-05 -5.42328e-05 7.24006e-05
0.00143656 -0.000677157 2.23705e-05
-0.000677157 0.000669456 -5.34562e-05
2.23705e-05 -5.34562e-05 -3.83799e-05
0.000135732 -0.000217122 1.9335e-05
-0.000217122 -7.80133e-05 2.65892e-06
1.9335e-05 2.65892e-06 -0.000582957
0.00047039 6.88339e-06 2.9141e-06
6.88339e-06 4.44362e-05 4.24349e-06
2.9141e-06 4.24349e-06 -3.67318e-05
0.00117987 -0.000368226 -2.8001e-06
-0.000368226 0.000547716 1.46284e-05
-2.8001e-06 1.46284e-05 0.000183599
0.00107152 -6.33571e-05 6.06791e-06
-6.33571e-05 0.000550964 -9.70155e-08
6.06791e-06 -9.70155e-08 0.000345079
0.000528328 -0.000147667 4.44559e-06
-0.000147667 0.000182065 -4.20055e-06
4.44559e-06 -4.20055e-06 -0.000130142
-0.000189383 -2.6102e-05 -5.9536e-06
-2.6102e-05 -0.000359151 5.39395e-06
-5.9536e-06 5.39395e-06 -0.000469992
0.00251852 -0.000204512 -1.29393e-06
-0.000204512 -0.00028696 -1.40743e-06
-1.29393e-06 -1.40743e-06 -5.4077e-05
0.000389653 5.46043e-05 8.77395e-07
5.46043e-05 3.05949e-05 -2.66078e-06
8.77395e-07 -2.66078e-06 -9.54859e-05
0.000595743 -9.4416e-05 3.11449e-06
-9.4416e-05 0.000204495 1.94037e-06
3.11449e-06 1.94037e-06 5.68211e-05
0.000971541 -0.000126841 8.44361e-06
-0.000126841 0.000370525 3.69195e-08
8.44361e-06 3.69195e-08 0.000226691
0.00258859 -0.000602651 2.24768e-06
-0.000602651 -0.000264999 -6.98746e-07
2.24768e-06 -6.98746e-07 -3.22748e-05
0.00281998 -0.000958534 -4.84217e-07
-0.000958534 7.52854e-05 -5.63442e-07
-4.84217e-07 -5.63442e-07 4.4431e-05
0.000770567 -0.00084018 7.73671e-06
-0.00084018 3.31598e-05 -8.93519e-07
7.73671e-06 -8.93519e-07 -0.000511233
0.00294027 -0.0014404 1.63127e-05
-0.0014404 0.000833192 9.042e-07
1.63127e-05 9.042e-07 0.000119741
0.00270957 -0.00118227 2.25363e-08
-0.00118227 0.000327852 1.11062e-06
2.25363e-08 1.11062e-06 -8.18243e-06
0.000291482 -2.83226e-05 -7.21454e-07
-2.83226e-05 4.96377e-06 -1.3935e-06
-7.21454e-07 -1.3935e-06 -0.000222298
0.00158278 -0.000293739 3.54025e-06
-0.000293739 0.000876518 2.40039e-06
3.54025e-06 2.40039e-06 0.000497796
0.00210501 -0.00117098 -1.42474e-06
-0.00117098 0.00074888 5.00608e-06
-1.42474e-06 5.00608e-06 0.000146536
0.0019924 -0.000465806 -3.41693e-07
-0.000465806 0.00118036 8.90439e-06
-3.41693e-07 8.90439e-06 0.000451114
0.0015558 -0.000288979 8.29466e-06
-0.000288979 0.000766368 1.04828e-05
8.29466e-06 1.04828e-05 0.000430964
0.00290385 -0.00041545 -1.53656e-05
-0.00041545 -0.000132168 6.23245e-06
-1.53656e-05 6.23245e-06 0.000152017
0.00239296 -0.000694557 -1.95032e-05
-0.000694557 -0.000370124 7.19774e-06
-1.95032e-05 7.19774e-06 -4.90456e-05
0.00279778 -0.00115253 -1.44508e-05
-0.00115253 0.000220775 -3.22229e-06
-1.44508e-05 -3.22229e-06 -1.83008e-05
0.00484482 -0.00162949 -2.50876e-06
-0.00162949 0.00175716 3.54911e-06
-2.50876e-06 3.54911e-06 0.00118436
0.000323127 -0.000988882 -1.8411e-05
-0.000988882 -0.000334697 1.32051e-05
-1.8411e-05 1.32051e-05 -0.000891368
9.24096e-05 -2.7253e-05 -3.63812e-07
-2.7253e-05 -0.000170418 -2.15838e-06
-3.63812e-07 -2.15838e-06 -0.000297789
0.000456387 -4.32746e-06 -3.63846e-06
-4.32746e-06 -5.46302e-07 1.10384e-05
-3.63846e-06 1.10384e-05 -0.000162281
4.158e-05 -0.000176876 -1.08931e-05
-0.000176876 -0.000164385 -5.12032e-06
-1.08931e-05 -5.12032e-06 -0.000343477
0.00204223 -0.000358918 -4.60011e-05
-0.000358918 0.0011175 3.82551e-05
-4.60011e-05 3.82551e-05 0.000792358
0.000758877 -0.000192264 -3.39578e-06
-0.000192264 0.000308519 2.52728e-05
-3.39578e-06 2.52728e-05 -7.51155e-06
-0.00127804 -6.8682e-05 4.64646e-06
-6.8682e-05 -0.000492857 5.7525e-06
4.64646e-06 5.7525e-06 -0.00122685
0.00165573 -0.00126731 -8.61688e-06
-0.00126731 0.000804386 -8.08541e-06
-8.61688e-06 -8.08541e-06 2.16285e-06
0.00239137 0.000515393 5.16341e-06
0.000515393 0.00145864 -2.39198e-06
5.16341e-06 -2.39198e-06 0.00113262
-0.000206732 0.00027173 -3.19192e-06
0.00027173 -0.000106438 4.25496e-07
-3.19192e-06 4.25496e-07 -0.000478808
0.00259187 0.000405771 1.45166e-05
0.000405771 -0.000252395 4.44372e-06
1.45166e-05 4.44372e-06 -5.59202e-05
0.00302052 0.000779111 1.63888e-05
0.000779111 0.000258662 9.60757e-06
1.63888e-05 9.60757e-06 0.000284018
0.00268458 0.00107558 5.01725e-06
0.00107558 0.000420258 3.8016e-06
5.01725e-06 3.8016e-06 -2.78932e-05
0.00144847 0.000724283 -3.83974e-06
0.000724283 0.000390673 1.92255e-06
-3.83974e-06 1.92255e-06 -0.000101261
0.00241523 0.00115897 2.3112e-06
0.00115897 0.000677796 4.29328e-06
2.3112e-06 4.29328e-06 3.02764e-05
0.00257733 0.000476552 -6.36021e-07
0.000476552 0.00162583 1.78348e-06
-6.36021e-07 1.78348e-06 0.00130562
0.00312344 0.000626462 1.29267e-05
0.000626462 1.74021e-05 6.4057e-06
1.29267e-05 6.4057e-06 0.000410081
0.00135149 0.000568811 -7.08643e-06
0.000568811 0.000670379 4.28858e-06
-7.08643e-06 4.28858e-06 0.000234712
0.00187757 0.000924071 2.47127e-06
0.000924071 0.000600142 -2.27814e-06
2.47127e-06 -2.27814e-06 -1.33378e-05
0.0030072 0.00107647 -1.99205e-06
0.00107647 0.000474028 -3.85572e-06
-1.99205e-06 -3.85572e-06 0.000234888
0.00226368 0.00116896 -6.5754e-06
0.00116896 0.0005532 7.79626e-06
-6.5754e-06 7.79626e-06 -7.3326e-05
0.00314 0.00194865 5.97118e-05
0.00194865 -0.00187178 1.24632e-05
5.97118e-05 1.24632e-05 -0.000831128
0.000598567 0.000363452 1.18704e-06
0.000363452 0.000507916 -6.22183e-08
1.18704e-06 -6.22183e-08 0.000108419
0.00456232 0.00130908 -0.00012629
0.00130908 0.000869796 -5.50919e-05
-0.00012629 -5.50919e-05 0.000912509
-3.45493e-06 0.000513216 -2.17157e-05
0.000513216 -0.000386817 5.97816e-06
-2.17157e-05 5.97816e-06 -0.000828484
0.000478712 0.000830267 -6.16766e-06
0.000830267 -0.000253245 -2.11868e-05
-6.16766e-06 -2.11868e-05 -0.000816069
0.00190298 0.00126409 -4.92908e-05
0.00126409 8.44789e-05 -2.35925e-05
-4.92908e-05 -2.35925e-05 -0.000345182
0.0157855 0.000955648 -0.000819555
0.000955648 0.000772959 -0.00010316
-0.000819555 -0.00010316 0.00139
0.00254241 0.00288983 -0.000127905
0.00288983 -0.00445047 -0.00012259
-0.000127905 -0.00012259 -0.00103923
0.00101028 0.00229539 2.61025e-05
0.00229539 -0.00113965 -6.84424e-06
2.61025e-05 -6.84424e-06 -0.00120523
0.00458037 -0.00507125 0.00303603
-0.00507125 0.00301296 0.000188492
0.00303603 0.000188492 -0.00329932
0.0320725 -0.015265 -0.000109628
-0.015265 0.0184946 3.32528e-05
-0.000109628 3.32528e-05 0.00828205
0.00131722 0.000226807 6.75235e-06
0.000226807 0.000762354 1.06608e-05
6.75235e-06 1.06608e-05 0.000621502
0.000755161 0.000140193 -2.17436e-06
0.000140193 0.000426176 5.67043e-07
-2.17436e-06 5.67043e-07 0.00029054
8.97579e-06 0.000165847 1.25899e-05
0.000165847 -1.68992e-05 -1.92789e-06
1.25899e-05 -1.92789e-06 -0.000182293
0.000511057 -6.03871e-05 9.92197e-07
-6.03871e-05 0.00012688 -2.21783e-06
9.92197e-07 -2.21783e-06 -3.22559e-05
0.000486963 7.16323e-05 2.67667e-06
7.16323e-05 0.000121897 -3.51463e-06
2.67667e-06 -3.51463e-06 -5.67451e-05
0.000454601 -7.73441e-06 5.46267e-07
-7.73441e-06 0.000154653 -1.8182e-06
5.46267e-07 -1.8182e-06 -6.41044e-05
0.00102444 0.0001275 3.81112e-06
0.0001275 0.000447277 1.32145e-05
3.81112e-06 1.32145e-05 0.000319189
0.000461078 0.000129333 4.50199e-06
0.000129333 9.3484e-05 1.2793e-05
4.50199e-06 1.2793e-05 5.32381e-05
0.000787156 0.000173193 -1.9116e-06
0.000173193 0.00040287 4.12537e-07
-1.9116e-06 4.12537e-07 0.000155408
0.000390606 -1.83798e-05 3.44316e-07
-1.83798e-05 2.03135e-05 9.35769e-07
3.44316e-07 9.35769e-07 -0.000128886
0.000737891 6.77971e-05 -1.20291e-06
6.77971e-05 0.000285779 3.69938e-07
-1.20291e-06 3.69938e-07 9.12893e-05
0.000355195 0.00012491 -3.57437e-06
0.00012491 6.39006e-05 -4.45508e-06
-3.57437e-06 -4.45508e-06 -1.44263e-05
0.000626952 0.000136859 -4.50859e-07
0.000136859 0.000229679 5.99269e-07
-4.50859e-07 5.99269e-07 5.58311e-05
0.00183442 0.000248813 -1.46071e-06
0.000248813 0.00105189 -3.777e-07
-1.46071e-06 -3.777e-07 0.00081007
-4.23519e-05 7.91443e-05 7.2183e-07
7.91443e-05 -6.00279e-05 -9.90824e-06
7.2183e-07 -9.90824e-06 -0.000258651
0.000922934 0.000106558 2.0959e-06
0.000106558 0.00046251 -1.65666e-06
2.0959e-06 -1.65666e-06 0.000243019
0.000108663 2.44869e-05 -1.12273e-06
2.44869e-05 -0.000158142 -2.58674e-06
-1.12273e-06 -2.58674e-06 -0.00033461
0.000263243 -7.1385e-05 -1.20843e-07
-7.1385e-05 -5.94041e-05 5.0591e-07
-1.20843e-07 5.0591e-07 -0.000208842
0.000299718 -2.84154e-05 9.87592e-08
-2.84154e-05 -8.72971e-06 -4.21813e-06
9.87592e-08 -4.21813e-06 -0.000180699
0.00107784 -6.28511e-05 2.9048e-06
-6.28511e-05 0.000507868 -6.92979e-06
2.9048e-06 -6.92979e-06 0.000334566
0.000875185 -7.16878e-05 -1.28522e-06
-7.16878e-05 0.000437789 -2.84037e-07
-1.28522e-06 -2.84037e-07 0.000231046
0.000788376 -0.000107644 2.00931e-06
-0.000107644 0.00035017 -3.5156e-07
2.00931e-06 -3.5156e-07 0.000144339
0.00049131 -0.000130324 -1.32498e-06
-0.000130324 0.000110916 3.22133e-06
-1.32498e-06 3.22133e-06 -4.68455e-05
0.000139529 -3.09621e-05 -9.89325e-08
-3.09621e-05 -0.000131972 1.25803e-06
-9.89325e-08 1.25803e-06 -0.000284944
0.000439836 -7.23186e-05 -1.07207e-06
-7.23186e-05 3.27311e-05 4.23674e-06
-1.07207e-06 4.23674e-06 -5.98071e-05
0.000449383 -4.6802e-05 2.20061e-06
-4.6802e-05 4.70325e-05 1.38676e-07
2.20061e-06 1.38676e-07 -5.05312e-05
0.000344919 2.97756e-06 4.77239e-06
2.97756e-06 -4.57836e-05 7.21081e-06
4.77239e-06 7.21081e-06 -7.76715e-05
0.000458338 6.78119e-05 -1.66074e-06
6.78119e-05 4.29717e-05 -3.75565e-06
-1.66074e-06 -3.75565e-06 -4.87107e-05
0.000347113 2.98887e-05 5.73308e-07
2.98887e-05 -4.8516e-05 1.44701e-07
5.73308e-07 1.44701e-07 -7.88074e-05
0.00260076 1.26436e-05 1.59562e-05
1.26436e-05 0.0013947 5.80997e-06
1.59562e-05 5.80997e-06 0.00140593
0.000371451 6.61264e-05 -5.48185e-06
6.61264e-05 -3.04147e-05 -8.49884e-06
-5.48185e-06 -8.49884e-06 -6.52052e-05
0.00168135 -2.98974e-07 -9.82345e-06
-2.98974e-07 0.000795743 1.13972e-07
-9.82345e-06 1.13972e-07 0.000801917
0.000803945 -8.52442e-06 1.1956e-06
-8.52442e-06 0.000218264 -2.57557e-06
1.1956e-06 -2.57557e-06 0.000219414
0.000373541 2.33615e-05 -1.28543e-06
2.33615e-05 -3.43086e-05 -3.83088e-06
-1.28543e-06 -3.83088e-06 -8.41575e-05
0.000453101 -4.03642e-05 1.21557e-06
-4.03642e-05 2.9417e-05 7.86343e-08
1.21557e-06 7.86343e-08 -3.46462e-05
0.000459193 5.22451e-06 1.65934e-06
5.22451e-06 -6.33589e-06 -4.49838e-06
1.65934e-06 -4.49838e-06 -2.169e-05
0.000478661 -5.69943e-05 -7.12729e-07
-5.69943e-05 4.71279e-05 2.23391e-06
-7.12729e-07 2.23391e-06 -2.48712e-05
0.000793636 2.89705e-05 5.30605e-07
2.89705e-05 0.00021803 -8.41157e-07
5.30605e-07 -8.41157e-07 0.00019828
0.0022102 6.52024e-05 -1.87388e-07
6.52024e-05 0.001144 -5.45909e-06
-1.87388e-07 -5.45909e-06 0.00115331
0.000418533 3.10785e-05 2.84444e-07
3.10785e-05 -1.88862e-05 6.27188e-06
2.84444e-07 6.27188e-06 -5.0438e-05
0.00272434 0.000103995 -1.36111e-06
0.000103995 0.00149248 1.71497e-06
-1.36111e-06 1.71497e-06 0.00149214
0.00301374 0.000142848 2.57251e-05
0.000142848 0.00169326 1.03219e-05
2.57251e-05 1.03219e-05 0.00168385
0.00256401 0.000190755 1.03485e-07
0.000190755 -0.000137278 -2.92773e-06
1.03485e-07 -2.92773e-06 2.68705e-05
0.00230105 3.30125e-09 -1.4233e-06
3.30125e-09 -0.000174826 5.80991e-08
-1.4233e-06 5.80991e-08 -2.39266e-05
0.00272865 0.000105843 1.08747e-05
0.000105843 -0.000109092 9.30778e-07
1.08747e-05 9.30778e-07 4.38175e-05
0.00287132 0.00125942 0.000139527
0.00125942 -0.00258465 4.33066e-05
0.000139527 4.33066e-05 -0.000961619
0.00270179 -7.17874e-06 -4.1941e-06
-7.17874e-06 -0.000180993 -1.70013e-06
-4.1941e-06 -1.70013e-06 4.52886e-05
0.00280051 0.00011208 -3.16346e-06
0.00011208 2.86704e-05 -2.22005e-06
-3.16346e-06 -2.22005e-06 0.000312332
0.00277479 -5.85192e-05 -4.406e-05
-5.85192e-05 7.42941e-05 -1.01539e-05
-4.406e-05 -1.01539e-05 0.000277292
0.00331466 0.000943896 -0.000145067
0.000943896 -0.00279326 -2.4906e-05
-0.000145067 -2.4906e-05 -0.000720897
0.00281153 0.000371959 0.00015033
0.000371959 -0.00153573 8.50339e-05
0.00015033 8.50339e-05 -0.000607297
0.00050701 9.29197e-05 1.01855e-07
9.29197e-05 0.000107826 -3.67017e-06
1.01855e-07 -3.67017e-06 -7.01417e-06
0.00056678 -1.35796e-05 -6.92085e-07
-1.35796e-05 0.000154675 -2.77128e-07
-6.92085e-07 -2.77128e-07 2.87345e-05
0.000306916 -0.000110673 -6.25571e-06
-0.000110673 -1.86277e-05 -2.95742e-08
-6.25571e-06 -2.95742e-08 -0.00014795
0.000375282 -7.07843e-05 -3.42711e-06
-7.07843e-05 5.33094e-05 -5.68738e-08
-3.42711e-06 -5.68738e-08 -8.82292e-05
0.00263923 -0.000226519 -8.34178e-07
-0.000226519 -0.000217023 1.42355e-06
-8.34178e-07 1.42355e-06 2.4818e-05
0.00261663 -0.000612368 1.56401e-06
-0.000612368 -0.000223524 1.10479e-06
1.56401e-06 1.10479e-06 -2.96771e-05
0.00265409 -0.000933879 1.24469e-06
-0.000933879 -8.4649e-06 -1.42746e-06
1.24469e-06 -1.42746e-06 -3.11923e-05
0.00405139 -0.00127281 2.83767e-05
-0.00127281 0.00189627 2.66773e-06
2.83767e-05 2.66773e-06 0.00125468
0.00194589 -0.00135819 -4.3248e-06
-0.00135819 0.000226516 2.67384e-06
-4.3248e-06 2.67384e-06 -0.000460465
0.00250137 -0.00116864 2.03471e-06
-0.00116864 0.000220059 -3.43674e-06
2.03471e-06 -3.43674e-06 -0.000119807
-0.000637681 -0.00081111 4.84959e-06
-0.00081111 -0.000738843 -1.94177e-05
4.84959e-06 -1.94177e-05 -0.00141681
0.00315989 -0.000556932 2.064e-05
-0.000556932 0.00166004 -1.71041e-05
2.064e-05 -1.71041e-05 0.00110217
0.000475735 -0.000236105 4.22467e-06
-0.000236105 8.70544e-05 1.17231e-05
4.22467e-06 1.17231e-05 -0.000244451
0.000819131 -9.60047e-05 3.26801e-06
-9.60047e-05 0.000346669 2.33775e-06
3.26801e-06 2.33775e-06 0.000194426
6.92661e-05 -0.000116049 -8.79925e-06
-0.000116049 -5.69274e-05 -1.1099e-05
-8.79925e-06 -1.1099e-05 -0.000441378
0.000746859 -6.24207e-05 1.91794e-06
-6.24207e-05 0.000297939 -2.67451e-06
1.91794e-06 -2.67451e-06 6.89725e-05
0.000510808 -8.65497e-06 5.12122e-07
-8.65497e-06 0.000126372 5.7898e-06
5.12122e-07 5.7898e-06 -8.70011e-06
0.000541382 -7.47004e-05 -9.03932e-06
-7.47004e-05 8.49001e-05 1.1564e-05
-9.03932e-06 1.1564e-05 -4.20868e-05
0.00277267 -0.000391767 3.14443e-06
-0.000391767 -0.000215274 1.55542e-06
3.14443e-06 1.55542e-06 9.66226e-05
0.000390581 -4.6718e-05 -7.86304e-08
-4.6718e-05 4.26597e-05 3.6395e-06
-7.86304e-08 3.6395e-06 -0.000100252
0.000601769 -8.73881e-05 6.50446e-06
-8.73881e-05 0.0001069 -3.19564e-06
6.50446e-06 -3.19564e-06 -6.16042e-05
-0.000791953 -7.25341e-05 1.27618e-05
-7.25341e-05 -0.000635814 -2.16556e-06
1.27618e-05 -2.16556e-06 -0.00076384
0.00244094 -0.00072641 7.63401e-07
-0.00072641 -0.000348175 -7.77564e-07
7.63401e-07 -7.77564e-07 -7.01934e-05
0.00274611 -0.00114927 2.23444e-06
-0.00114927 0.000186116 -1.54547e-06
2.23444e-06 -1.54547e-06 -5.17764e-05
0.00196045 -0.0013018 -1.56854e-05
-0.0013018 0.000560135 2.02921e-06
-1.56854e-05 2.02921e-06 -7.22173e-05
0.00348969 -0.00150179 -5.28587e-06
-0.00150179 0.000977836 -2.64802e-07
-5.28587e-06 -2.64802e-07 0.000436459
0.00203364 -0.000260384 1.61678e-05
-0.000260384 0.0011586 -8.32972e-06
1.61678e-05 -8.32972e-06 0.000807637
-0.00124763 -6.61292e-05 9.88319e-06
-6.61292e-05 -0.000925182 5.11542e-06
9.88319e-06 5.11542e-06 -0.00127923
0.000906616 -0.00125124 -1.98906e-07
-0.00125124 0.000524489 -7.07648e-07
-1.98906e-07 -7.07648e-07 -0.000366545
0.00184635 -0.000535514 -1.16271e-05
-0.000535514 0.00102735 -2.86456e-06
-1.16271e-05 -2.86456e-06 0.000438583
0.0040168 -0.000596108 -6.4701e-05
-0.000596108 0.000562052 1.92351e-05
-6.4701e-05 1.92351e-05 0.000901432
0.00274503 -0.000958251 -4.28804e-05
-0.000958251 3.52503e-05 1.63896e-05
-4.28804e-05 1.63896e-05 0.000133463
0.00305677 -0.00131281 -8.41988e-06
-0.00131281 0.000685995 -1.80779e-05
-8.41988e-06 -1.80779e-05 0.000201967
0.00276004 -0.00148461 1.06468e-05
-0.00148461 0.000786328 3.26334e-05
1.06468e-05 3.26334e-05 0.000302061
0.000248629 -0.000201614 -5.79234e-06
-0.000201614 0.000138707 -1.62954e-05
-5.79234e-06 -1.62954e-05 -8.22197e-05
0.000826191 -0.000310654 -1.80426e-05
-0.000310654 0.000339104 -1.73276e-06
-1.80426e-05 -1.73276e-06 7.7671e-06
0.000718509 -0.000329965 -1.78042e-05
-0.000329965 0.000550774 8.21881e-05
-1.78042e-05 8.21881e-05 0.000136492
-0.000398989 -0.000977365 7.80263e-06
-0.000977365 0.000445746 -3.90755e-05
7.80263e-06 -3.90755e-05 -0.000686249
0.0058058 -0.000513784 5.6266e-05
-0.000513784 -0.0065673 1.8285e-05
5.6266e-05 1.8285e-05 -0.00698377
0.00224026 0.000369055 1.41077e-05
0.000369055 0.00143742 -5.96516e-06
1.41077e-05 -5.96516e-06 0.00111746
0.000149878 0.000392481 2.91804e-07
0.000392481 -7.32944e-05 -2.05227e-06
2.91804e-07 -2.05227e-06 -0.000461481
0.0018088 0.000487082 6.56281e-05
0.000487082 -0.000771217 2.61808e-05
6.56281e-05 2.61808e-05 -0.000284334
0.0024793 0.00100256 2.70133e-05
0.00100256 0.000219731 1.3256e-05
2.70133e-05 1.3256e-05 2.48143e-05
0.00302667 0.00127662 1.28544e-05
0.00127662 0.000977448 1.46695e-05
1.28544e-05 1.46695e-05 0.000321497
0.0022925 0.000996268 1.68206e-05
0.000996268 0.000868581 1.28169e-05
1.68206e-05 1.28169e-05 0.000221454
0.00478326 0.00236671 0.000102192
0.00236671 -0.00140232 4.61014e-05
0.000102192 4.61014e-05 -0.000572202
0.000818222 0.000337805 3.21446e-06
0.000337805 0.000598612 -5.79802e-06
3.21446e-06 -5.79802e-06 0.000242714
0.00305778 0.00112305 -5.32847e-06
0.00112305 2.03755e-05 4.30618e-06
-5.32847e-06 4.30618e-06 0.000181644
0.00103198 0.000657789 -8.4715e-06
0.000657789 0.000281067 7.88413e-06
-8.4715e-06 7.88413e-06 -0.000210852
0.00192761 0.00105892 2.0729e-06
0.00105892 0.000569 -9.50706e-06
2.0729e-06 -9.50706e-06 -4.80538e-05
0.00292737 0.00134033 -1.55771e-05
0.00134033 0.000668816 -8.5483e-07
-1.55771e-05 -8.5483e-07 0.00019759
0.00520285 -0.000155729 -0.000230445
-0.000155729 -0.00709138 -0.000166193
-0.000230445 -0.000166193 -0.00705928
0.00668196 0.00320412 -0.000201134
0.00320412 -0.00181844 -9.01283e-05
-0.000201134 -9.01283e-05 0.000838471
0.00146462 0.00224563 -1.27752e-05
0.00224563 -0.000846402 -1.34942e-06
-1.27752e-05 -1.34942e-06 -0.00100639
0.00837038 -0.00406113 0.000896156
-0.00406113 0.0056209 0.000269899
0.000896156 0.000269899 0.00093912
0.0273352 -0.0169911 -0.000593993
-0.0169911 0.0172507 -0.000564445
-0.000593993 -0.000564445 0.00662993
-0.000244761 0.000270698 -3.59336e-06
0.000270698 -0.000247842 -2.39929e-06
-3.59336e-06 -2.39929e-06 -0.000547599
0.00227486 -0.000341389 0.00163454
-0.000341389 0.00465295 5.94281e-05
0.00163454 5.94281e-05 0.00212659
0.00918216 -0.00774155 2.03072e-05
-0.00774155 0.0110122 -0.000208575
2.03072e-05 -0.000208575 0.000755554
0.00341315 0.00184506 -8.47672e-05
0.00184506 0.000490406 -3.02931e-05
-8.47672e-05 -3.02931e-05 0.000122361
0.000948094 0.000661047 -3.52651e-05
0.000661047 0.000149345 -7.56745e-06
-3.52651e-05 -7.56745e-06 -0.000297567
0.001691 0.00108969 -5.52739e-05
0.00108969 0.000441499 -4.16529e-05
-5.52739e-05 -4.16529e-05 -0.000110869
0.000108251 0.00213267 0.000156033
0.00213267 -0.00102695 0.000131371
0.000156033 0.000131371 -0.0013009
0.0156373 0.00466116 0.00020817
0.00466116 -0.000370284 -3.55923e-06
0.00020817 -3.55923e-06 0.00117835
0.00685783 0.00490927 -0.00012593
0.00490927 -0.000745692 -0.000123357
-0.00012593 -0.000123357 0.00117153
0.0238132 -0.00916195 0.00134579
-0.00916195 0.0103371 0.000339677
0.00134579 0.000339677 0.00198367
0.0188899 -0.00322834 -0.000425802
-0.00322834 0.00899079 0.000772389
-0.000425802 0.000772389 0.00435201
0.0005074 0.000123779 1.99006e-06
0.000123779 0.000315526 7.12734e-06
1.99006e-06 7.12734e-06 0.000165111
0.000214599 0.00019543 1.72646e-06
0.00019543 0.000149229 3.51136e-07
1.72646e-06 3.51136e-07 -3.14636e-05
6.81116e-05 0.000203471 7.35442e-06
0.000203471 0.000149873 -7.13043e-06
7.35442e-06 -7.13043e-06 -0.000153429
0.000602872 3.20318e-06 2.15547e-06
3.20318e-06 0.000187113 1.33181e-06
2.15547e-06 1.33181e-06 1.71672e-05
0.000534708 0.000104111 1.91498e-06
0.000104111 0.000136109 -4.98709e-07
1.91498e-06 -4.98709e-07 -4.40813e-05
-0.00019173 3.17246e-05 1.23263e-06
3.17246e-05 -0.000260973 1.8849e-06
1.23263e-06 1.8849e-06 -0.000470585
0.000839502 0.000142585 -3.92297e-06
0.000142585 0.000386096 4.89624e-06
-3.92297e-06 4.89624e-06 0.000206485
-0.000117441 9.56896e-05 -5.47751e-06
9.56896e-05 -0.000257281 6.14186e-06
-5.47751e-06 6.14186e-06 -0.000321884
0.000310774 -6.27743e-06 -4.10777e-07
-6.27743e-06 -2.22797e-05 6.90918e-07
-4.10777e-07 6.90918e-07 -0.000178562
0.00120396 0.000157389 2.71783e-06
0.000157389 0.000631635 1.55483e-06
2.71783e-06 1.55483e-06 0.000405183
0.000336723 6.54672e-05 -7.66768e-07
6.54672e-05 8.894e-05 -1.18534e-06
-7.66768e-07 -1.18534e-06 -0.00013398
0.000768291 6.30278e-05 1.52937e-06
6.30278e-05 0.000316835 1.91476e-07
1.52937e-06 1.91476e-07 0.000106699
0.000186519 9.2265e-05 -8.3468e-07
9.2265e-05 7.91178e-05 -3.81091e-06
-8.3468e-07 -3.81091e-06 -0.000124054
0.000971022 0.000116383 2.84114e-07
0.000116383 0.000503137 -4.76668e-06
2.84114e-07 -4.76668e-06 0.000304
-0.000736596 2.59323e-06 3.50376e-06
2.59323e-06 -0.000252673 -3.49388e-06
3.50376e-06 -3.49388e-06 -0.000616763
-5.78812e-06 -4.66062e-05 -4.46749e-08
-4.66062e-05 -0.000158044 3.02988e-07
-4.46749e-08 3.02988e-07 -0.000364753
0.000718612 -7.25041e-05 -4.13539e-06
-7.25041e-05 0.000286529 -2.35648e-06
-4.13539e-06 -2.35648e-06 8.07508e-05
0.000751448 -6.5091e-05 -3.89984e-07
-6.5091e-05 0.000313277 -2.26968e-06
-3.89984e-07 -2.26968e-06 0.000116715
0.000493386 -6.81493e-05 -4.44956e-06
-6.81493e-05 0.000124179 1.93605e-06
-4.44956e-06 1.93605e-06 -2.91506e-05
0.000804165 -5.56071e-07 -8.24805e-06
-5.56071e-07 0.000398844 -5.55883e-06
-8.24805e-06 -5.55883e-06 0.000196112
0.000660726 -0.00015385 6.13552e-06
-0.00015385 0.000193784 -9.51693e-06
6.13552e-06 -9.51693e-06 5.93033e-05
4.37848e-05 -4.73493e-05 -4.05161e-06
-4.73493e-05 -9.44158e-05 -4.01676e-06
-4.05161e-06 -4.01676e-06 -0.000255687
-0.000486912 -1.89767e-05 -1.31166e-07
-1.89767e-05 -0.000346763 -7.57909e-06
-1.31166e-07 -7.57909e-06 -0.000614244
-0.000170401 -5.70144e-05 5.30435e-07
-5.70144e-05 -0.000268731 1.36574e-06
5.30435e-07 1.36574e-06 -0.000438042
0.000847867 -0.000161622 -1.071e-06
-0.000161622 0.000404109 9.08549e-07
-1.071e-06 9.08549e-07 0.000207549
0.000195417 -7.39268e-05 2.95818e-07
-7.39268e-05 -8.77591e-05 2.06312e-06
2.95818e-07 2.06312e-06 -0.000236897
0.000479855 -0.000121798 2.85032e-06
-0.000121798 0.000110486 -8.45661e-07
2.85032e-06 -8.45661e-07 -6.16011e-05
0.000601914 -0.000142186 1.26274e-07
-0.000142186 0.000183457 3.7976e-07
1.26274e-07 3.7976e-07 2.13655e-05
0.000533837 -7.08911e-05 -9.9056e-07
-7.08911e-05 9.32298e-05 4.98341e-06
-9.9056e-07 4.98341e-06 -2.27366e-06
0.00027555 2.91009e-07 -8.62674e-08
2.91009e-07 -2.13432e-05 -9.36497e-07
-8.62674e-08 -9.36497e-07 -0.000190984
0.000451336 2.82595e-06 2.7902e-06
2.82595e-06 5.06528e-05 1.29255e-07
2.7902e-06 1.29255e-07 -4.87877e-05
0.00139577 -4.12005e-05 -1.52531e-05
-4.12005e-05 0.000625648 7.73776e-06
-1.52531e-05 7.73776e-06 0.00060006
0.000448317 8.90361e-05 -2.98324e-06
8.90361e-05 4.64809e-05 -3.5229e-06
-2.98324e-06 -3.5229e-06 -5.08814e-05
0.000807367 -2.80046e-05 -5.97081e-06
-2.80046e-05 0.000253627 7.42587e-07
-5.97081e-06 7.42587e-07 0.000223615
0.000816059 -6.99377e-07 -9.7435e-06
-6.99377e-07 0.000237228 4.97352e-06
-9.7435e-06 4.97352e-06 0.000240528
0.000300003 -4.29975e-05 5.60068e-06
-4.29975e-05 -7.84937e-05 -5.70814e-06
5.60068e-06 -5.70814e-06 -0.00010847
0.00261924 3.83694e-06 1.38549e-05
3.83694e-06 0.00140697 4.1647e-08
1.38549e-05 4.1647e-08 0.00141803
0.000840911 7.14778e-06 -1.50414e-05
7.14778e-06 0.000253558 -5.75545e-06
-1.50414e-05 -5.75545e-06 0.000255184
0.000552157 8.14771e-05 2.08441e-06
8.14771e-05 0.000150127 -1.95718e-06
2.08441e-06 -1.95718e-06 2.31837e-05
0.000391805 6.52579e-05 -2.8751e-06
6.52579e-05 -4.51972e-06 -4.19605e-06
-2.8751e-06 -4.19605e-06 -6.33669e-05
0.000440077 1.0942e-06 1.60853e-06
1.0942e-06 2.40268e-05 1.82958e-07
1.60853e-06 1.82958e-07 -3.59018e-05
0.000425077 8.95136e-06 1.18975e-06
8.95136e-06 -2.71785e-05 -4.15543e-06
1.18975e-06 -4.15543e-06 -4.06127e-05
0.000534485 -8.03514e-05 -1.81029e-06
-8.03514e-05 9.55451e-05 4.52606e-06
-1.81029e-06 4.52606e-06 2.32586e-05
0.000438898 8.56591e-06 5.083e-07
8.56591e-06 -1.97742e-05 -7.84535e-07
5.083e-07 -7.84535e-07 -3.51171e-05
0.0020833 4.43533e-05 -4.27293e-07
4.43533e-05 0.00105599 -5.26404e-06
-4.27293e-07 -5.26404e-06 0.00106922
0.00124253 4.51976e-05 1.97826e-06
4.51976e-05 0.000512289 3.25987e-06
1.97826e-06 3.25987e-06 0.000491904
0.00152943 5.43896e-05 -1.27754e-06
5.43896e-05 0.000702976 1.73324e-06
-1.27754e-06 1.73324e-06 0.00070692
0.000782565 5.7911e-05 8.5206e-06
5.7911e-05 0.000226304 1.20323e-05
8.5206e-06 1.20323e-05 0.00021926
0.000801956 0.000932641 0.00011167
0.000932641 -0.00357154 2.8677e-05
0.00011167 2.8677e-05 -0.00191343
0.00257903 -3.86359e-05 6.35582e-06
-3.86359e-05 -0.000252999 -1.604e-06
6.35582e-06 -1.604e-06 -2.69236e-05
0.00257084 8.52297e-05 5.26674e-05
8.52297e-05 -6.29682e-05 -1.51566e-05
5.26674e-05 -1.51566e-05 0.000140201
0.00474183 0.000889389 -0.000104193
0.000889389 -0.00271417 -4.98248e-05
-0.000104193 -4.98248e-05 0.000243686
0.00351614 0.000126223 0.000101949
0.000126223 -0.00107894 -7.16334e-06
0.000101949 -7.16334e-06 -7.65022e-05
0.00283991 -8.07346e-05 -7.59375e-06
-8.07346e-05 8.87255e-05 -7.97648e-07
-7.59375e-06 -7.97648e-07 0.000287276
0.00499592 -0.000718864 -7.70163e-05
-0.000718864 0.0001809 -4.63442e-05
-7.70163e-05 -4.63442e-05 0.000995506
0.00504869 -0.000920655 -1.52381e-06
-0.000920655 -0.00173099 -4.59185e-06
-1.52381e-06 -4.59185e-06 0.000527874
0.0205076 -0.00123379 0.00010365
-0.00123379 0.00186304 -9.86004e-05
0.00010365 -9.86004e-05 0.002053
0.0217398 0.0100387 0.00240581
0.0100387 0.00934346 -0.000354247
0.00240581 -0.000354247 0.00230749
0.0345307 0.012204 0.000198682
0.012204 0.0224511 0.000118318
0.000198682 0.000118318 0.0133582
2.51194e-05 -0.000113686 1.90236e-06
-0.000113686 -0.000170682 -2.60306e-06
1.90236e-06 -2.60306e-06 -0.000301924
0.00051141 -1.40331e-05 2.41495e-06
-1.40331e-05 0.000113643 4.80672e-08
2.41495e-06 4.80672e-08 -2.65479e-06
0.000608604 -0.000102701 -1.69942e-06
-0.000102701 0.000190294 6.68627e-06
-1.69942e-06 6.68627e-06 5.6638e-05
0.000526001 -6.01456e-05 2.52911e-06
-6.01456e-05 0.0001157 -1.59315e-07
2.52911e-06 -1.59315e-07 -7.94468e-06
0.000923844 0.000151734 -7.61307e-06
0.000151734 0.000467152 -5.615e-06
-7.61307e-06 -5.615e-06 0.00031001
0.000628162 0.000158541 -1.88799e-06
0.000158541 0.000206356 3.29576e-06
-1.88799e-06 3.29576e-06 5.44379e-05
0.000799905 3.07998e-05 2.36908e-06
3.07998e-05 0.000332219 -1.04554e-06
2.36908e-06 -1.04554e-06 0.000165442
0.000483745 -2.23937e-05 -1.54375e-06
-2.23937e-05 0.000107465 1.00898e-06
-1.54375e-06 1.00898e-06 -2.96444e-05
0.00269333 -0.000384593 1.52257e-05
-0.000384593 -0.000268254 -8.87516e-06
1.52257e-05 -8.87516e-06 6.29382e-05
0.00239657 -0.000762314 1.84083e-05
-0.000762314 -0.000407176 -6.21187e-06
1.84083e-05 -6.21187e-06 -0.000160897
0.00273971 -0.00114696 6.97109e-06
-0.00114696 0.000173394 3.85998e-06
6.97109e-06 3.85998e-06 -5.67485e-05
0.00256608 -0.0013833 1.26781e-05
-0.0013833 0.000827188 7.23226e-07
1.26781e-05 7.23226e-07 0.000213664
0.00279379 -0.00141146 -2.41771e-05
-0.00141146 0.000620029 8.32446e-07
-2.41771e-05 8.32446e-07 7.0149e-05
0.000180589 -0.00123923 2.04686e-05
-0.00123923 0.000175813 1.22383e-05
2.04686e-05 1.22383e-05 -0.000800579
0.00522191 -0.000971192 1.12441e-05
-0.000971192 0.00286091 5.02245e-06
1.12441e-05 5.02245e-06 0.0023148
0.00176918 -0.00045775 2.24019e-05
-0.00045775 0.00103484 -5.46514e-05
2.24019e-05 -5.46514e-05 0.000568816
0.000805769 -9.39e-05 -5.10492e-06
-9.39e-05 0.000230109 7.22277e-06
-5.10492e-06 7.22277e-06 7.8698e-05
0.00122697 -0.000132892 1.64134e-05
-0.000132892 0.000622101 -2.55798e-05
1.64134e-05 -2.55798e-05 0.000288659
0.000751103 -8.24727e-05 3.92727e-06
-8.24727e-05 0.000283552 7.51976e-06
3.92727e-06 7.51976e-06 0.000130776
0.000536259 1.68458e-05 7.20507e-06
1.68458e-05 0.00021955 4.13196e-06
7.20507e-06 4.13196e-06 0.000145931
0.00269434 -0.000519649 1.72477e-06
-0.000519649 -0.000245163 4.51847e-06
1.72477e-06 4.51847e-06 0.00019657
0.00025855 -9.67522e-05 -6.9102e-06
-9.67522e-05 0.000109081 1.74413e-06
-6.9102e-06 1.74413e-06 -8.84834e-05
0.00142183 -0.000284696 -5.20657e-06
-0.000284696 0.000726993 5.92404e-06
-5.20657e-06 5.92404e-06 0.000437871
0.00196714 -0.000897288 8.9157e-06
-0.000897288 -0.000419268 -5.35717e-06
8.9157e-06 -5.35717e-06 -0.000263932
0.00258257 -0.00122103 2.19539e-06
-0.00122103 0.000432865 5.82119e-06
2.19539e-06 5.82119e-06 1.33445e-05
0.00165142 -0.00132008 -2.30558e-06
-0.00132008 0.000122501 -1.65511e-05
-2.30558e-06 -1.65511e-05 -0.000315186
0.00118807 -0.000435028 -1.27753e-06
-0.000435028 0.000758569 -3.21987e-05
-1.27753e-06 -3.21987e-05 0.000231724
0.000970309 -0.000872824 1.71779e-05
-0.000872824 0.00109064 1.57809e-06
1.71779e-05 1.57809e-06 0.000112811
0.00643085 -0.00127515 -5.9853e-05
-0.00127515 0.00158363 3.69366e-05
-5.9853e-05 3.69366e-05 0.00194948
0.00320222 -0.00129725 -4.95115e-05
-0.00129725 0.000717489 1.68787e-05
-4.95115e-05 1.68787e-05 0.00038946
0.00295332 -0.00151665 -1.02971e-06
-0.00151665 0.000759286 1.65224e-05
-1.02971e-06 1.65224e-05 0.000280051
0.000420463 -0.000883298 -2.04722e-05
-0.000883298 -0.000217778 2.63463e-05
-2.04722e-05 2.63463e-05 -0.000402227
0.000871269 -0.000232744 1.36832e-06
-0.000232744 0.000569059 9.18549e-07
1.36832e-06 9.18549e-07 0.000247008
-0.000234283 -0.000182118 3.99295e-06
-0.000182118 -2.84904e-05 1.12294e-05
3.99295e-06 1.12294e-05 -0.000429612
0.000282553 -0.000351867 -1.59918e-05
-0.000351867 0.000670412 -1.3897e-05
-1.59918e-05 -1.3897e-05 -0.000134132
-0.00801868 -0.00071701 0.00107497
-0.00071701 -0.00242613 -4.47436e-05
0.00107497 -4.47436e-05 -0.00539234
0.0130372 -0.000581699 7.37276e-05
-0.000581699 -0.0010281 5.71398e-05
7.37276e-05 5.71398e-05 0.000378095
0.00224998 0.000422551 7.31073e-06
0.000422551 0.00137889 -9.17034e-06
7.31073e-06 -9.17034e-06 0.00107639
0.00221254 0.000821672 1.60894e-06
0.000821672 0.00103718 7.37311e-06
1.60894e-06 7.37311e-06 0.000489507
0.00157 0.000900457 0.000114714
0.000900457 -0.000788643 6.13275e-05
0.000114714 6.13275e-05 -0.000534733
0.00422544 0.00146316 3.60994e-05
0.00146316 0.00139498 1.94528e-05
3.60994e-05 1.94528e-05 0.000870745
0.0030617 0.00124263 2.58375e-05
0.00124263 0.0011983 5.64714e-06
2.58375e-05 5.64714e-06 0.000538809
0.0191408 0.000939198 0.00010793
0.000939198 0.00143125 -0.000166991
0.00010793 -0.000166991 0.00202387
0.00876272 0.00391624 -0.000313933
0.00391624 -0.00253744 -2.3449e-05
-0.000313933 -2.3449e-05 0.000792081
0.00248124 0.00230871 -9.84465e-06
0.00230871 -0.000200121 -4.02654e-05
-9.84465e-06 -4.02654e-05 -0.000505543
0.0179794 -0.0077623 -0.00108419
-0.0077623 0.00859722 0.000159982
-0.00108419 0.000159982 0.00218114
0.0206867 -0.0190681 -0.00328603
-0.0190681 0.0162468 -0.00183113
-0.00328603 -0.00183113 0.00517949
0.000674941 0.000408687 7.72998e-06
0.000408687 0.000385067 -4.63474e-06
7.72998e-06 -4.63474e-06 3.29699e-05
0.00158518 -0.00498973 0.000998102
-0.00498973 -0.000830802 8.18251e-05
0.000998102 8.18251e-05 -0.00582525
0.00250935 -0.00605296 -0.00100326
-0.00605296 0.0117255 -0.000121096
-0.00100326 -0.000121096 0.00233542
0.00395351 0.00178246 -2.17258e-05
0.00178246 0.000717651 3.97399e-06
-2.17258e-05 3.97399e-06 0.000409297
0.000916471 0.000712798 -1.25476e-05
0.000712798 0.000197487 8.37897e-06
-1.25476e-05 8.37897e-06 -0.000294707
0.00223204 0.00126228 1.81464e-06
0.00126228 0.000724505 4.78065e-07
1.81464e-06 4.78065e-07 0.000110203
0.00224174 0.00218523 8.63426e-05
0.00218523 0.000429509 5.82651e-05
8.63426e-05 5.82651e-05 0.000130748
0.0145331 0.00505724 -0.000217222
0.00505724 -0.00201013 -0.000133748
-0.000217222 -0.000133748 -0.00163642
0.00285066 0.00449511 -2.15826e-05
0.00449511 -0.00163841 -5.75288e-05
-2.15826e-05 -5.75288e-05 0.000348872
0.0264425 -0.00791681 0.000896445
-0.00791681 0.0122956 -0.000105884
0.000896445 -0.000105884 0.00402849
0.0262897 -0.0062858 -0.000154839
-0.0062858 0.00924028 0.000962528
-0.000154839 0.000962528 0.00251237
0.000458588 0.00040742 -7.7059e-06
0.00040742 0.000170565 -1.72698e-05
-7.7059e-06 -1.72698e-05 -0.000138509
-0.00621362 0.000875418 3.38648e-05
0.000875418 0.00636469 -0.00017024
3.38648e-05 -0.00017024 -0.00283887
0.00800374 0.00231936 -0.000743519
0.00231936 0.00634272 -0.000634092
-0.000743519 -0.000634092 0.000726857
0.002972 0.00139995 -5.48196e-05
0.00139995 0.000677029 -2.94232e-05
-5.48196e-05 -2.94232e-05 0.00050161
0.00292061 0.00132055 -9.46966e-05
0.00132055 0.00131168 -3.74273e-05
-9.46966e-05 -3.74273e-05 0.000704937
0.00239011 0.00171327 -0.00011633
0.00171327 0.00144474 -4.51643e-05
-0.00011633 -4.51643e-05 0.000540322
-0.00257092 0.00334333 6.18202e-05
0.00334333 -0.000815247 -2.91036e-05
6.18202e-05 -2.91036e-05 -0.000867489
0.00582743 0.00753502 0.000938721
0.00753502 -0.00233577 0.000104602
0.000938721 0.000104602 -0.00285152
0.0282566 -0.00994301 -0.000441382
-0.00994301 0.016191 0.0010528
-0.000441382 0.0010528 0.00676845
0.00960699 0.000744154 -0.000192731
0.000744154 -0.00162857 -0.000238642
-0.000192731 -0.000238642 -0.00200229
0.00084776 0.000278471 -4.80545e-06
0.000278471 0.000576439 1.26649e-06
-4.80545e-06 1.26649e-06 0.000362261
0.00113987 0.000339294 2.26231e-06
0.000339294 0.000758189 -3.21782e-08
2.26231e-06 -3.21782e-08 0.000458779
-0.000641852 0.000170944 -6.57212e-08
0.000170944 -0.000259721 1.90462e-06
-6.57212e-08 1.90462e-06 -0.000541396
0.000385137 7.0603e-05 2.61626e-06
7.0603e-05 2.66905e-05 1.801e-06
2.61626e-06 1.801e-06 -0.000132775
0.00123807 0.000113938 3.15431e-07
0.000113938 0.000644525 1.17684e-06
3.15431e-07 1.17684e-06 0.000419821
0.000420674 2.36078e-05 -1.09134e-06
2.36078e-05 0.000145983 2.56652e-06
-1.09134e-06 2.56652e-06 -8.76652e-05
0.000210088 9.88943e-05 8.03191e-06
9.88943e-05 3.60514e-05 7.24535e-06
8.03191e-06 7.24535e-06 -0.000206938
5.95467e-05 7.54414e-05 -4.87064e-06
7.54414e-05 3.39096e-06 5.51796e-06
-4.87064e-06 5.51796e-06 -0.000196342
0.000802739 4.33866e-05 -7.81916e-08
4.33866e-05 0.000346465 -8.83491e-07
-7.81916e-08 -8.83491e-07 0.000135804
0.000565599 7.19896e-05 -3.77301e-09
7.19896e-05 0.000242384 -2.79769e-07
-3.77301e-09 -2.79769e-07 4.70105e-05
0.000881286 -3.76953e-05 -8.03892e-07
-3.76953e-05 0.000435772 2.38767e-06
-8.03892e-07 2.38767e-06 0.0002039
-0.000760449 5.0664e-05 -9.36744e-07
5.0664e-05 -0.000255648 6.86726e-07
-9.36744e-07 6.86726e-07 -0.000618572
0.000166278 9.80792e-06 3.16694e-06
9.80792e-06 0.000464249 8.15298e-06
3.16694e-06 8.15298e-06 -2.78248e-05
0.00073937 -3.45909e-05 2.76488e-06
-3.45909e-05 0.000489193 -4.77426e-06
2.76488e-06 -4.77426e-06 0.000206875
0.0018475 -4.66901e-05 -4.04461e-06
-4.66901e-05 0.00111584 3.24234e-06
-4.04461e-06 3.24234e-06 0.000843996
0.000966275 -0.000116549 -7.47758e-07
-0.000116549 0.000456418 -9.73847e-07
-7.47758e-07 -9.73847e-07 0.000249096
0.000288479 -0.000108526 1.24722e-06
-0.000108526 -1.46135e-05 1.04452e-05
1.24722e-06 1.04452e-05 -0.000157069
0.000570422 -0.000125484 6.14707e-07
-0.000125484 0.000226138 3.35927e-07
6.14707e-07 3.35927e-07 3.39921e-05
0.000695197 -0.000147501 -1.64449e-06
-0.000147501 0.000211774 -2.11535e-06
-1.64449e-06 -2.11535e-06 6.88895e-05
-3.48643e-05 -7.15791e-05 -1.25168e-06
-7.15791e-05 -0.000135257 5.88524e-06
-1.25168e-06 5.88524e-06 -0.000283754
-0.00103318 -4.0761e-05 1.49679e-06
-4.0761e-05 -0.000744387 -1.06738e-05
1.49679e-06 -1.06738e-05 -0.000956761
-0.00025749 -7.25243e-05 -8.43541e-06
-7.25243e-05 -0.000155683 -1.46868e-08
-8.43541e-06 -1.46868e-08 -0.000402236
0.000434468 -0.000134883 2.50032e-06
-0.000134883 0.000173066 -9.47577e-06
2.50032e-06 -9.47577e-06 2.10377e-05
0.00105493 -0.000166714 2.84956e-05
-0.000166714 0.000400057 -1.72309e-05
2.84956e-05 -1.72309e-05 0.000271975
0.00391619 -0.000667794 -2.79756e-06
-0.000667794 0.00211643 2.03987e-06
-2.79756e-06 2.03987e-06 0.00179196
-0.000926203 -0.000143063 -2.30698e-06
-0.000143063 -0.000686559 -2.25623e-06
-2.30698e-06 -2.25623e-06 -0.000919542
0.000395064 -4.48483e-05 1.94113e-06
-4.48483e-05 0.000188031 5.71082e-07
1.94113e-06 5.71082e-07 -6.85388e-05
-0.00119411 1.25219e-05 6.44203e-06
1.25219e-05 -0.000857834 -1.90149e-06
6.44203e-06 -1.90149e-06 -0.00112152
0.000645444 -0.000211165 -2.08676e-06
-0.000211165 0.000274159 -8.601e-07
-2.08676e-06 -8.601e-07 7.10306e-05
0.000674856 -6.36436e-05 3.31903e-06
-6.36436e-05 0.000225775 -8.55614e-07
3.31903e-06 -8.55614e-07 5.88222e-05
0.000745701 -0.000188009 1.46473e-06
-0.000188009 0.000313764 -2.18924e-06
1.46473e-06 -2.18924e-06 0.000131216
0.000594554 -9.9126e-05 -7.02972e-07
-9.9126e-05 0.000188449 3.41795e-07
-7.02972e-07 3.41795e-07 2.51751e-05
0.000220494 3.60712e-05 2.42274e-06
3.60712e-05 -0.000105213 4.44144e-06
2.42274e-06 4.44144e-06 -0.000205482
0.000673539 -0.000143403 -2.54054e-07
-0.000143403 0.000221548 -1.605e-06
-2.54054e-07 -1.605e-06 6.10557e-05
0.00046772 -5.60867e-05 -6.73367e-07
-5.60867e-05 4.46243e-05 2.18019e-07
-6.73367e-07 2.18019e-07 -4.66181e-05
0.00137057 3.23838e-05 -8.96221e-06
3.23838e-05 0.000601909 8.21089e-06
-8.96221e-06 8.21089e-06 0.00057608
0.000449565 -8.10037e-05 7.63995e-07
-8.10037e-05 4.354e-05 -3.59522e-06
7.63995e-07 -3.59522e-06 -5.14015e-05
0.000829147 -2.98026e-05 -1.1617e-05
-2.98026e-05 0.00026017 9.57786e-07
-1.1617e-05 9.57786e-07 0.000230789
0.000740479 9.98362e-06 2.04978e-06
9.98362e-06 0.000177808 2.33293e-06
2.04978e-06 2.33293e-06 0.000179958
0.000396578 -4.16667e-05 4.14679e-06
-4.16667e-05 -1.99486e-05 -5.3408e-06
4.14679e-06 -5.3408e-06 -4.88555e-05
0.00255373 5.65651e-06 6.78432e-06
5.65651e-06 0.00136254 -1.16621e-08
6.78432e-06 -1.16621e-08 0.00137461
0.00258715 -4.4127e-06 1.092e-05
-4.4127e-06 0.00138562 -5.21572e-06
1.092e-05 -5.21572e-06 0.00139689
0.00101833 7.9551e-05 -1.26946e-06
7.9551e-05 0.000448431 -2.52135e-06
-1.26946e-06 -2.52135e-06 0.000315416
0.000490175 7.64215e-05 -1.9089e-06
7.64215e-05 6.54341e-05 -4.79428e-06
-1.9089e-06 -4.79428e-06 -1.49959e-06
0.000505859 -2.23599e-05 -8.67174e-07
-2.23599e-05 0.00011742 9.22425e-07
-8.67174e-07 9.22425e-07 -7.66506e-06
0.000398929 1.24242e-05 1.09441e-06
1.24242e-05 -4.40349e-05 -4.25717e-06
1.09441e-06 -4.25717e-06 -5.6757e-05
0.00040705 -1.00869e-05 2.12228e-06
-1.00869e-05 1.71248e-06 -2.65974e-07
2.12228e-06 -2.65974e-07 -5.57676e-05
0.00044688 -7.21762e-05 -2.88669e-06
-7.21762e-05 3.26603e-05 4.50385e-06
-2.88669e-06 4.50385e-06 -3.05116e-05
0.000420773 3.39619e-06 -6.47477e-07
3.39619e-06 -3.07568e-05 6.70637e-09
-6.47477e-07 6.70637e-09 -4.40545e-05
0.00204902 2.89781e-05 -5.73359e-06
2.89781e-05 0.00103114 -5.25684e-06
-5.73359e-06 -5.25684e-06 0.00104628
0.00117546 1.86114e-05 -1.25043e-06
1.86114e-05 0.000461008 3.13624e-06
-1.25043e-06 3.13624e-06 0.000448571
0.00135233 3.43066e-05 -4.20488e-06
3.43066e-05 0.000578625 1.74387e-08
-4.20488e-06 1.74387e-08 0.000588095
0.00075109 4.07606e-05 -8.92007e-07
4.07606e-05 0.000194669 9.21113e-06
-8.92007e-07 9.21113e-06 0.00019601
-0.0053316 0.00326138 0.00114544
0.00326138 -0.00106823 -0.000120135
0.00114544 -0.000120135 -0.00674694
0.00365677 0.00309501 0.00247208
0.00309501 0.0111095 -0.000331957
0.00247208 -0.000331957 0.00363984
0.00203436 0.00106485 -0.000135488
0.00106485 -0.00383055 -5.69301e-05
-0.000135488 -5.69301e-05 -0.000540727
0.00307456 -6.29815e-05 4.24334e-05
-6.29815e-05 -0.00136048 -3.8556e-05
4.24334e-05 -3.8556e-05 -0.000225186
0.00296463 -9.28787e-05 5.03754e-05
-9.28787e-05 0.000120996 1.24688e-05
5.03754e-05 1.24688e-05 0.000335329
-0.000133317 -0.000193423 -0.000136027
-0.000193423 -0.00272058 -4.08417e-05
-0.000136027 -4.08417e-05 -0.000426019
0.00451965 -0.000727545 5.693e-06
-0.000727545 -4.855e-05 2.25943e-06
5.693e-06 2.25943e-06 0.000649085
0.0128767 -0.000659287 0.000335866
-0.000659287 -0.0031288 -0.000135535
0.000335866 -0.000135535 -0.00286034
0.00760921 0.00669215 -1.52967e-05
0.00669215 0.00282798 -0.000101546
-1.52967e-05 -0.000101546 -0.00274975
0.0296273 0.0152578 -0.000879088
0.0152578 0.0197941 0.000319276
-0.000879088 0.000319276 0.00992568
0.00259614 -0.00163673 -1.97418e-05
-0.00163673 -0.0037406 -4.26029e-05
-1.97418e-05 -4.26029e-05 -0.000925035
0.0157901 -0.00465711 0.000363606
-0.00465711 -0.000753971 -7.86158e-05
0.000363606 -7.86158e-05 -0.000875754
0.025842 0.00888621 0.000575192
0.00888621 0.0105753 -0.000482743
0.000575192 -0.000482743 0.00191414
0.0309067 0.00629521 -0.000408131
0.00629521 0.0125617 0.000401758
-0.000408131 0.000401758 0.00660805
0.00129355 0.000195907 -7.71231e-06
0.000195907 0.000728877 -1.17563e-06
-7.71231e-06 -1.17563e-06 0.000503753
0.000333375 3.33027e-05 1.17731e-06
3.33027e-05 7.96302e-07 -6.39559e-07
1.17731e-06 -6.39559e-07 -0.000119255
0.000534914 -0.000112154 3.33677e-06
-0.000112154 0.000140906 3.95864e-06
3.33677e-06 3.95864e-06 1.74878e-05
0.000676162 -2.1938e-05 5.83989e-06
-2.1938e-05 0.000221459 2.43399e-06
5.83989e-06 2.43399e-06 9.45973e-05
0.000546424 7.29895e-05 4.24283e-06
7.29895e-05 0.00020643 1.49958e-07
4.24283e-06 1.49958e-07 8.11245e-05
0.000604605 8.77184e-05 -1.12646e-06
8.77184e-05 0.000213895 3.97394e-06
-1.12646e-06 3.97394e-06 1.72628e-05
0.000597858 8.36264e-05 -1.22363e-06
8.36264e-05 0.000209697 2.59095e-06
-1.22363e-06 2.59095e-06 5.41388e-05
0.000415557 0.000118204 3.5711e-06
0.000118204 3.53166e-05 2.8448e-06
3.5711e-06 2.8448e-06 -0.000133607
0.000563108 9.15506e-06 1.5455e-06
9.15506e-06 0.000177656 -1.26893e-06
1.5455e-06 -1.26893e-06 1.11709e-05
0.000304399 -3.25993e-05 2.35024e-06
-3.25993e-05 -2.03979e-05 7.88203e-07
2.35024e-06 7.88203e-07 -0.00014253
0.001082 -0.000420948 4.83392e-05
-0.000420948 -0.00129043 -1.88588e-05
4.83392e-05 -1.88588e-05 -0.000677919
0.00140377 -0.000838094 2.94588e-05
-0.000838094 -0.000714668 -1.15225e-05
2.94588e-05 -1.15225e-05 -0.000523106
0.00123484 -0.00102393 1.39982e-05
-0.00102393 -0.000317235 6.46099e-06
1.39982e-05 6.46099e-06 -0.000634196
-0.000792312 -0.000954092 -9.87579e-06
-0.000954092 -0.00122713 -1.18554e-05
-9.87579e-06 -1.18554e-05 -0.00157994
0.00263938 -0.000876568 -2.08343e-06
-0.000876568 0.00190518 4.72584e-05
-2.08343e-06 4.72584e-05 0.00106898
-0.00100961 -0.000724228 -7.39369e-06
-0.000724228 -0.000485766 -2.10761e-05
-7.39369e-06 -2.10761e-05 -0.0012332
0.00131267 -0.000315781 1.48721e-05
-0.000315781 0.000688174 -7.35454e-06
1.48721e-05 -7.35454e-06 0.000440229
-8.18468e-06 -3.82148e-05 4.56374e-06
-3.82148e-05 -8.76981e-05 6.58184e-06
4.56374e-06 6.58184e-06 -0.00026246
0.00296306 -0.000947697 1.35834e-05
-0.000947697 -0.000459809 -1.14286e-05
1.35834e-05 -1.14286e-05 0.000144063
0.00067069 -0.000144079 1.71029e-07
-0.000144079 0.000430129 1.98025e-06
1.71029e-07 1.98025e-06 0.000108056
-0.000470277 -0.000275738 -1.03431e-05
-0.000275738 -0.000167116 -7.22537e-07
-1.03431e-05 -7.22537e-07 -0.000568618
0.00203569 -0.00112205 2.09867e-05
-0.00112205 5.50883e-05 -1.6762e-06
2.09867e-05 -1.6762e-06 -0.000134122
0.00190706 -0.00134408 -1.17826e-06
-0.00134408 0.000145228 -5.09859e-06
-1.17826e-06 -5.09859e-06 -0.000221007
6.29048e-05 -0.000898961 1.70069e-05
-0.000898961 -0.000364262 -1.57746e-05
1.70069e-05 -1.57746e-05 -0.000640469
0.000998717 -0.000561823 2.54224e-05
-0.000561823 0.00106318 -2.72294e-05
2.54224e-05 -2.72294e-05 0.000309023
0.00186487 -0.0015375 -4.31478e-05
-0.0015375 -0.000642311 4.5328e-05
-4.31478e-05 4.5328e-05 -0.000598499
0.00235927 -0.0012508 -5.41476e-05
-0.0012508 0.000528561 2.70551e-05
-5.41476e-05 2.70551e-05 0.000341742
-0.000789675 -0.000587646 -4.97415e-05
-0.000587646 -0.000298203 3.13077e-05
-4.97415e-05 3.13077e-05 -0.000729736
-0.000864415 -6.84281e-05 -8.36302e-06
-6.84281e-05 -0.000588071 5.7183e-06
-8.36302e-06 5.7183e-06 -0.00086546
-0.00118384 9.26395e-06 -3.49305e-06
9.26395e-06 -0.000605319 1.81584e-05
-3.49305e-06 1.81584e-05 -0.000990597
0.000537241 -7.84922e-05 2.6674e-06
-7.84922e-05 0.000485535 1.14051e-06
2.6674e-06 1.14051e-06 8.79252e-05
-0.0027389 0.00155618 -0.000702271
0.00155618 0.00846771 1.96704e-05
-0.000702271 1.96704e-05 0.00134978
-0.00012335 -0.00241377 -1.95663e-05
-0.00241377 0.00436421 -5.1518e-05
-1.95663e-05 -5.1518e-05 0.00182943
0.00613104 0.00065014 -0.000153743
0.00065014 -0.0071295 -4.61041e-05
-0.000153743 -4.61041e-05 -0.0071726
0.00153307 0.000524332 1.95279e-05
0.000524332 0.000977837 -8.90498e-06
1.95279e-05 -8.90498e-06 0.000584738
0.00173363 0.000889751 2.15956e-05
0.000889751 0.000729371 3.00325e-05
2.15956e-05 3.00325e-05 0.000159828
0.00403323 0.00161957 9.77485e-05
0.00161957 0.000713483 4.52714e-05
9.77485e-05 4.52714e-05 0.000490076
0.00211301 0.00132356 3.10892e-05
0.00132356 0.000686919 3.12488e-05
3.10892e-05 3.12488e-05 3.33611e-05
0.016354 -0.00591796 0.000369811
-0.00591796 0.00857795 0.000113867
0.000369811 0.000113867 0.00313712
0.00331911 0.00359083 -0.000652673
0.00359083 -0.00807276 -0.000145448
-0.000652673 -0.000145448 -0.00791222
0.00643314 0.00477601 2.56985e-05
0.00477601 0.000388075 1.86114e-05
2.56985e-05 1.86114e-05 0.00172801
0.00370767 0.00210746 0.000103805
0.00210746 0.00150938 1.65772e-05
0.000103805 1.65772e-05 0.0011858
0.0171955 -0.00467691 -0.000774775
-0.00467691 0.00753623 -0.00022644
-0.000774775 -0.00022644 0.000267411
0.00386487 -0.00752493 -0.0015257
-0.00752493 0.0128246 -0.000247813
-0.0015257 -0.000247813 0.00359914
0.0377427 -0.00949213 0.00141419
-0.00949213 0.0132676 0.000507841
0.00141419 0.000507841 0.00536798
0.000404317 0.000430407 1.00763e-05
0.000430407 0.000205268 -6.36751e-06
1.00763e-05 -6.36751e-06 -0.000139509
-0.00156887 -0.000275794 -0.000164354
-0.000275794 0.00883859 -1.63148e-05
-0.000164354 -1.63148e-05 0.000531091
0.00839377 0.00288556 -0.000283708
0.00288556 0.00467686 -0.000209817
-0.000283708 -0.000209817 -0.00180833
0.00220691 0.00142894 1.39051e-05
0.00142894 0.000421339 4.78958e-06
1.39051e-05 4.78958e-06 0.000147514
0.00115856 0.0010458 1.42855e-05
0.0010458 0.000461575 8.79131e-06
1.42855e-05 8.79131e-06 -0.000118796
0.00121079 0.00172865 -0.000134092
0.00172865 0.000742883 -9.59622e-05
-0.000134092 -9.59622e-05 2.5039e-05
0.00324798 0.0051642 8.62623e-05
0.0051642 0.000545916 5.56904e-05
8.62623e-05 5.56904e-05 0.00078416
0.012589 0.00814382 -2.7653e-05
0.00814382 0.000111052 -7.06886e-06
-2.7653e-05 -7.06886e-06 -0.00158106
0.0122068 -0.00558951 0.000130434
-0.00558951 0.0098428 -0.000161363
0.000130434 -0.000161363 0.000454407
0.0190671 -0.00217222 -6.92207e-05
-0.00217222 0.00322151 -5.81708e-05
-6.92207e-05 -5.81708e-05 0.00292393
0.00169082 0.000934592 -2.19482e-05
0.000934592 0.000935748 -1.23399e-05
-2.19482e-05 -1.23399e-05 0.000436898
0.00149698 0.000594048 -0.000599591
0.000594048 0.0036575 -0.000166905
-0.000599591 -0.000166905 -0.00330195
0.00266101 0.00168227 -0.0001823
0.00168227 0.000674444 -0.00021444
-0.0001823 -0.00021444 -0.00201581
-0.000955446 0.000591268 -7.4381e-06
0.000591268 -0.00014894 -3.1649e-05
-7.4381e-06 -3.1649e-05 -0.000587087
-0.00219844 0.0013212 -0.0001682
0.0013212 0.00073407 1.29356e-05
-0.0001682 1.29356e-05 -0.000102942
0.00906891 0.0077509 0.000305395
0.0077509 0.00388702 1.80751e-05
0.000305395 1.80751e-05 -0.0014006
0.0077651 -0.006856 -1.94561e-05
-0.006856 0.00270101 0.000238748
-1.94561e-05 0.000238748 -0.00501675
0.0164538 -0.000637511 8.86614e-05
-0.000637511 -0.000675537 -0.000350126
8.86614e-05 -0.000350126 0.000564935
0.00183804 0.000405015 7.85031e-06
0.000405015 0.00114812 2.63201e-05
7.85031e-06 2.63201e-05 0.000863928
0.000864235 0.000328767 -6.93941e-06
0.000328767 0.000667654 -5.51152e-06
-6.93941e-06 -5.51152e-06 0.00034681
-0.000503698 0.000199596 5.25398e-06
0.000199596 2.85615e-05 -1.37671e-06
5.25398e-06 -1.37671e-06 -0.000430711
0.000411028 8.43208e-05 2.46947e-07
8.43208e-05 6.35195e-05 2.63021e-08
2.46947e-07 2.63021e-08 -0.000124103
0.00134029 -2.3307e-05 -3.59946e-06
-2.3307e-05 0.000750313 5.74213e-06
-3.59946e-06 5.74213e-06 0.000501688
4.10744e-05 7.99896e-05 2.53467e-06
7.99896e-05 -9.67287e-05 6.03773e-06
2.53467e-06 6.03773e-06 -0.000289547
-0.000791062 0.000105335 -7.69886e-07
0.000105335 -0.000267529 5.48997e-07
-7.69886e-07 5.48997e-07 -0.000634722
0.000594471 -4.8132e-05 2.4237e-06
-4.8132e-05 0.000247191 6.07384e-07
2.4237e-06 6.07384e-07 2.77736e-05
0.000299438 6.28552e-05 5.14774e-07
6.28552e-05 0.000205858 -2.16953e-06
5.14774e-07 -2.16953e-06 -6.84577e-05
-2.63169e-05 2.73978e-05 -1.03835e-06
2.73978e-05 0.000409237 1.23025e-06
-1.03835e-06 1.23025e-06 -0.000130719
-0.00042396 6.23427e-05 1.11768e-06
6.23427e-05 0.000295491 8.69429e-06
1.11768e-06 8.69429e-06 -0.000295827
0.0005259 -2.51233e-05 2.83308e-06
-2.51233e-05 0.000670997 -4.98355e-06
2.83308e-06 -4.98355e-06 0.000180626
0.00148331 -7.50106e-06 -5.0313e-06
-7.50106e-06 0.000961447 4.27305e-06
-5.0313e-06 4.27305e-06 0.000684336
0.000940824 -0.000190754 4.70976e-06
-0.000190754 0.000474053 4.07161e-06
4.70976e-06 4.07161e-06 0.000272058
0.000316633 -0.000105393 -1.84044e-06
-0.000105393 -3.425e-05 6.28263e-06
-1.84044e-06 6.28263e-06 -0.000176588
-0.000323488 -5.98443e-05 1.13424e-05
-5.98443e-05 -0.000326775 1.22052e-05
1.13424e-05 1.22052e-05 -0.00044515
0.000137342 -3.34468e-05 1.36828e-06
-3.34468e-05 8.18284e-05 1.24576e-06
1.36828e-06 1.24576e-06 -0.000153887
0.000538142 -4.8369e-05 9.92759e-07
-4.8369e-05 0.000203083 1.17953e-06
9.92759e-07 1.17953e-06 7.98469e-06
-4.94709e-05 -8.70254e-05 -4.45459e-06
-8.70254e-05 -9.25099e-05 2.95749e-07
-4.45459e-06 2.95749e-07 -0.000255839
0.00048255 -0.000117569 -3.72648e-06
-0.000117569 0.000201229 -7.77612e-06
-3.72648e-06 -7.77612e-06 4.35765e-05
0.000944478 -0.000116381 6.89341e-06
-0.000116381 0.000701456 -1.0587e-05
6.89341e-06 -1.0587e-05 0.000459072
0.00233743 -0.000433518 5.94487e-06
-0.000433518 0.00113746 5.5107e-06
5.94487e-06 5.5107e-06 0.000990855
0.000426498 -0.000159681 -2.53617e-05
-0.000159681 1.96678e-05 4.47604e-07
-2.53617e-05 4.47604e-07 -0.000106884
0.00104085 -0.000401118 8.24224e-06
-0.000401118 0.000317785 5.41677e-06
8.24224e-06 5.41677e-06 7.75643e-05
0.00283382 -0.000868175 -5.94102e-06
-0.000868175 0.0013836 1.80778e-05
-5.94102e-06 1.80778e-05 0.000889942
0.00275523 -0.000362384 1.30789e-05
-0.000362384 0.00139089 -7.48814e-06
1.30789e-05 -7.48814e-06 0.0011567
0.00199743 -0.000464095 5.6317e-07
-0.000464095 0.000935566 -7.08475e-06
5.6317e-07 -7.08475e-06 0.000678667
0.000280711 -0.000161613 -4.54361e-07
-0.000161613 5.16078e-05 -3.50098e-08
-4.54361e-07 -3.50098e-08 -0.000188891
-0.00135298 -9.94735e-05 2.03965e-06
-9.94735e-05 -0.00092384 -4.59831e-06
2.03965e-06 -4.59831e-06 -0.00125116
0.00162609 -5.81122e-05 3.06266e-06
-5.81122e-05 0.000944309 4.34373e-06
3.06266e-06 4.34373e-06 0.000697641
0.0007238 -0.000212553 2.62397e-06
-0.000212553 0.00033072 -1.57592e-06
2.62397e-06 -1.57592e-06 6.83679e-05
0.000299218 -8.13261e-05 4.30353e-06
-8.13261e-05 -4.49389e-05 -1.9145e-06
4.30353e-06 -1.9145e-06 -0.000225853
0.00190574 -0.000353892 -6.13052e-06
-0.000353892 0.00110116 -1.14399e-07
-6.13052e-06 -1.14399e-07 0.000867927
0.000587359 -0.000160003 -5.239e-07
-0.000160003 0.000184071 -2.47513e-07
-5.239e-07 -2.47513e-07 8.01403e-06
0.000282881 -1.87907e-05 2.16029e-06
-1.87907e-05 -7.15445e-05 5.37682e-06
2.16029e-06 5.37682e-06 -0.000180823
0.000942486 -0.00017432 -1.72079e-06
-0.00017432 0.000426646 -1.69317e-08
-1.72079e-06 -1.69317e-08 0.000254135
0.000597348 -8.20133e-05 -3.56474e-07
-8.20133e-05 0.000138813 -1.80896e-08
-3.56474e-07 -1.80896e-08 3.51283e-05
0.00145352 1.67107e-06 -1.48492e-05
1.67107e-06 0.000652453 9.00566e-06
-1.48492e-05 9.00566e-06 0.000622364
0.00048643 -8.22545e-05 5.40842e-07
-8.22545e-05 6.86465e-05 -4.62807e-06
5.40842e-07 -4.62807e-06 -3.08147e-05
0.000826457 -1.86117e-05 -1.37024e-05
-1.86117e-05 0.000250905 8.5823e-07
-1.37024e-05 8.5823e-07 0.000220787
0.000809952 1.88444e-05 2.42655e-06
1.88444e-05 0.000220656 3.20268e-06
2.42655e-06 3.20268e-06 0.000220232
0.000386015 -5.02057e-05 3.63959e-06
-5.02057e-05 -2.97464e-05 -5.88774e-06
3.63959e-06 -5.88774e-06 -6.12299e-05
0.00167758 1.51804e-05 1.61536e-05
1.51804e-05 0.000789867 -1.62895e-06
1.61536e-05 -1.62895e-06 0.000797393
0.00252074 2.43888e-06 2.1105e-05
2.43888e-06 0.00134038 -5.45682e-06
2.1105e-05 -5.45682e-06 0.00135282
0.000462594 8.42494e-05 5.25196e-07
8.42494e-05 5.83259e-05 -3.04582e-06
5.25196e-07 -3.04582e-06 -7.29831e-05
0.000543085 7.84943e-05 -1.15997e-06
7.84943e-05 9.67223e-05 -4.80422e-06
-1.15997e-06 -4.80422e-06 2.40944e-05
0.000536181 1.78422e-05 6.03304e-07
1.78422e-05 0.000126819 6.79099e-07
6.03304e-07 6.79099e-07 1.31476e-07
0.000413387 9.19429e-06 2.51126e-06
9.19429e-06 -3.48174e-05 -4.81463e-06
2.51126e-06 -4.81463e-06 -4.85692e-05
0.000435126 6.56991e-05 4.97841e-08
6.56991e-05 2.30381e-05 -2.12716e-07
4.97841e-08 -2.12716e-07 -3.93499e-05
0.000399601 -0.000120124 -2.95492e-06
-0.000120124 3.09589e-05 3.96712e-06
-2.95492e-06 3.96712e-06 -8.30298e-05
0.00203878 1.42543e-05 -1.06852e-05
1.42543e-05 0.00102258 -5.26529e-06
-1.06852e-05 -5.26529e-06 0.00103895
0.000405443 8.51344e-06 -3.66665e-07
8.51344e-06 -3.98217e-05 6.35027e-09
-3.66665e-07 6.35027e-09 -5.24457e-05
0.000472619 3.6297e-06 -8.24343e-07
3.6297e-06 3.37552e-05 3.95716e-06
-8.24343e-07 3.95716e-06 -1.75799e-05
0.000420297 4.07425e-07 -2.35679e-06
4.07425e-07 -3.19722e-05 4.35326e-06
-2.35679e-06 4.35326e-06 -4.52194e-05
0.00205945 2.99884e-05 -5.95669e-06
2.99884e-05 0.00103808 -1.66009e-07
-5.95669e-06 -1.66009e-07 0.00105303
0.00209245 4.59867e-05 3.72613e-07
4.59867e-05 0.00106244 5.38733e-06
3.72613e-07 5.38733e-06 0.00107535
-0.00188462 -0.0020444 -0.000378749
-0.0020444 0.00930866 7.51786e-05
-0.000378749 7.51786e-05 0.00379788
0.00571866 0.00354619 -0.000471669
0.00354619 0.00319606 0.000152376
-0.000471669 0.000152376 -0.00182257
0.00330245 -0.00137152 -0.000641633
-0.00137152 0.00153638 0.000321393
-0.000641633 0.000321393 -0.00373938
0.00666924 0.00390441 0.00164936
0.00390441 0.0108912 -0.000256575
0.00164936 -0.000256575 0.00287578
0.00528668 0.00107607 -1.67722e-05
0.00107607 -0.000734831 -1.64557e-05
-1.67722e-05 -1.64557e-05 0.0010213
0.00351379 -0.000786042 0.00011362
-0.000786042 -0.000584001 2.70427e-05
0.00011362 2.70427e-05 2.35787e-05
0.00257814 -0.000623198 0.00049243
-0.000623198 -0.00819597 -3.46211e-05
0.00049243 -3.46211e-05 -0.0078627
0.025424 0.00635969 -0.00190412
0.00635969 0.0125705 -3.58764e-05
-0.00190412 -3.58764e-05 0.00608153
0.0220801 0.0184988 -0.00328665
0.0184988 0.0156579 0.00190238
-0.00328665 0.00190238 0.00500762
0.00543239 -0.00129638 6.88357e-05
-0.00129638 -0.0017305 2.76294e-06
6.88357e-05 2.76294e-06 0.000272073
0.00794183 -0.00458856 0.00026359
-0.00458856 -0.0054403 -0.000219842
0.00026359 -0.000219842 -0.00587683
0.0273279 0.00868313 -0.000487177
0.00868313 0.0114764 -0.000200251
-0.000487177 -0.000200251 0.00281656
0.0224712 0.00579782 0.000279802
0.00579782 0.00918476 0.000529052
0.000279802 0.000529052 0.00334584
0.00221115 -0.00299605 -0.000110753
-0.00299605 -0.00445178 6.79234e-05
-0.000110753 6.79234e-05 -0.00154622
0.00499267 -0.00728725 0.000824163
-0.00728725 -0.00210438 -0.000293267
0.000824163 -0.000293267 -0.00409983
0.0162192 0.00413668 -0.000292654
0.00413668 0.00679183 -0.00116857
-0.000292654 -0.00116857 -0.00183286
0.010705 -0.00066141 -0.000429646
-0.00066141 5.9744e-05 4.97661e-05
-0.000429646 4.97661e-05 -0.000885914
0.00207834 -4.9014e-05 -2.13243e-06
-4.9014e-05 0.00125827 1.52573e-05
-2.13243e-06 1.52573e-05 0.000955266
0.000192635 6.14228e-05 -1.37849e-06
6.14228e-05 -3.03853e-05 -2.29361e-06
-1.37849e-06 -2.29361e-06 -0.000194429
0.000540668 0.00011926 4.32794e-06
0.00011926 0.000127512 2.14479e-06
4.32794e-06 2.14479e-06 1.05245e-05
-0.000338243 -6.79077e-05 2.90002e-06
-6.79077e-05 -0.000418345 1.43214e-06
2.90002e-06 1.43214e-06 -0.000476582
0.000374976 0.000163095 1.29235e-06
0.000163095 3.14659e-05 9.27697e-06
1.29235e-06 9.27697e-06 -0.00017027
0.000527624 8.74485e-05 -3.83649e-07
8.74485e-05 0.00016572 6.67586e-07
-3.83649e-07 6.67586e-07 -2.0253e-05
-7.52929e-05 6.46975e-06 2.73131e-06
6.46975e-06 -0.000234965 9.57733e-07
2.73131e-06 9.57733e-07 -0.000369413
0.000940306 0.000200422 6.10609e-06
0.000200422 0.000426041 1.02357e-05
6.10609e-06 1.02357e-05 0.000213887
0.000974687 0.00018748 2.06148e-08
0.00018748 0.000458474 -4.15946e-07
2.06148e-08 -4.15946e-07 0.000244692
0.000326457 1.57851e-05 -2.16066e-06
1.57851e-05 1.43089e-05 -1.85095e-06
-2.16066e-06 -1.85095e-06 -0.000148693
0.000930906 -0.000794693 0.000118448
-0.000794693 -0.00162653 -6.62936e-05
0.000118448 -6.62936e-05 -0.000935448
0.000493446 -0.000935645 1.0803e-05
-0.000935645 -0.000840269 -1.11526e-05
1.0803e-05 -1.11526e-05 -0.000889312
0.00189154 -0.00132181 1.21564e-05
-0.00132181 0.000128314 1.09754e-05
1.21564e-05 1.09754e-05 -0.000188321
-0.000901399 -0.000892606 8.20805e-06
-0.000892606 -0.000918908 -1.40979e-05
8.20805e-06 -1.40979e-05 -0.00124175
0.00422977 -0.000741674 -6.32876e-05
-0.000741674 0.00277649 6.97667e-05
-6.32876e-05 6.97667e-05 0.00223272
0.000602666 -0.00029216 -8.06766e-07
-0.00029216 0.000501427 -7.73568e-06
-8.06766e-07 -7.73568e-06 8.93987e-05
0.000457246 5.70744e-05 3.30804e-06
5.70744e-05 0.000271666 -1.18798e-05
3.30804e-06 -1.18798e-05 -4.03126e-05
0.000655303 4.8629e-06 -5.88585e-06
4.8629e-06 0.000359894 4.95042e-06
-5.88585e-06 4.95042e-06 5.4488e-05
0.00301679 -0.00155656 -2.83952e-05
-0.00155656 -5.17835e-05 2.06993e-06
-2.83952e-05 2.06993e-06 0.000143349
0.000591871 -3.85744e-05 1.2289e-06
-3.85744e-05 0.000431592 3.804e-06
1.2289e-06 3.804e-06 7.90093e-05
0.00250289 -0.000487785 9.98872e-06
-0.000487785 0.00165177 -5.59971e-06
9.98872e-06 -5.59971e-06 0.00124015
0.00170596 -0.00118734 2.29373e-05
-0.00118734 0.000155462 -4.83204e-06
2.29373e-05 -4.83204e-06 -3.63772e-05
0.00029893 -0.000717335 -2.87853e-05
-0.000717335 0.000233893 9.5809e-06
-2.87853e-05 9.5809e-06 -0.000153688
0.00278994 -0.00258599 5.92802e-05
-0.00258599 0.000426514 -2.74516e-05
5.92802e-05 -2.74516e-05 -0.000131273
0.00181888 -0.000881178 -2.63283e-05
-0.000881178 0.00097607 3.03819e-05
-2.63283e-05 3.03819e-05 0.00069019
-0.0016655 -0.000175026 6.77616e-06
-0.000175026 -0.000565223 4.16734e-06
6.77616e-06 4.16734e-06 -0.00114053
0.0001064 0.000108203 2.66666e-06
0.000108203 3.98819e-05 3.25357e-06
2.66666e-06 3.25357e-06 -0.000166535
-0.000167697 -0.000207126 -1.67663e-06
-0.000207126 7.01389e-05 2.48247e-05
-1.67663e-06 2.48247e-05 -0.000332033
0.00215587 0.000358856 -0.000139006
0.000358856 0.00251125 -4.79392e-05
-0.000139006 -4.79392e-05 -0.00279176
-0.00781551 0.000367825 -0.000729842
0.000367825 0.00768444 -1.16343e-05
-0.000729842 -1.16343e-05 0.00141312
-0.0130769 -0.00419618 -0.0013471
-0.00419618 -0.00323071 8.70271e-06
-0.0013471 8.70271e-06 -0.00694811
0.000594471 0.00049578 2.03189e-05
0.00049578 0.000403467 3.75e-07
2.03189e-05 3.75e-07 2.10708e-06
-6.38746e-05 0.000878098 3.631e-06
0.000878098 -0.000133199 1.01106e-05
3.631e-06 1.01106e-05 -0.000701094
0.00314404 0.00168896 6.24713e-05
0.00168896 0.000949169 5.58919e-05
6.24713e-05 5.58919e-05 0.000563538
-0.0027372 0.0021284 0.000187244
0.0021284 0.009929 7.82436e-05
0.000187244 7.82436e-05 0.00369349
0.00485618 0.0072917 -0.000732142
0.0072917 -0.00251786 -0.000230517
-0.000732142 -0.000230517 -0.00420751
0.000152131 0.00351409 0.000531038
0.00351409 -0.000643201 0.000227869
0.000531038 0.000227869 -0.000287401
0.000209952 0.00158037 -8.32854e-06
0.00158037 0.000185021 -4.24366e-05
-8.32854e-06 -4.24366e-05 -0.000141329
0.0325673 -0.00524358 9.07932e-05
-0.00524358 0.0133407 -0.000584231
9.07932e-05 -0.000584231 0.0056543
0.00906153 0.00363903 0.00109622
0.00363903 0.00426235 0.000356182
0.00109622 0.000356182 -0.00294161
0.0140344 -0.00110823 0.000150574
-0.00110823 0.00293419 7.13897e-05
0.000150574 7.13897e-05 0.00377987
0.00176496 0.000924923 1.30254e-05
0.000924923 0.00102391 -5.33509e-07
1.30254e-05 -5.33509e-07 0.000538572
0.00402083 0.00154388 -8.58969e-05
0.00154388 0.00470509 -9.20224e-06
-8.58969e-05 -9.20224e-06 -0.000920498
0.00275205 0.00128981 0.000143125
0.00128981 0.00107839 -1.83076e-05
0.000143125 -1.83076e-05 -0.0014056
1.08073e-05 0.000960899 -1.20416e-05
0.000960899 0.000262175 -6.89235e-06
-1.20416e-05 -6.89235e-06 -0.000307569
-0.000971013 0.00233499 -0.000149699
0.00233499 0.00037735 -9.46987e-05
-0.000149699 -9.46987e-05 -0.00104672
0.00253396 0.00800569 0.0004372
0.00800569 0.00161021 0.000143609
0.0004372 0.000143609 -0.00312781
0.013117 -0.000569427 1.70932e-05
-0.000569427 -0.00273197 -0.000230129
1.70932e-05 -0.000230129 -0.00112821
0.00983706 -0.00322658 -0.000146247
-0.00322658 0.00572956 -0.000244806
-0.000146247 -0.000244806 -0.00178023
0.00135087 0.000801255 -6.45553e-06
0.000801255 0.00116445 -1.28167e-05
-6.45553e-06 -1.28167e-05 0.000559408
-0.00419255 0.000921163 6.25452e-05
0.000921163 0.00144748 7.66296e-05
6.25452e-05 7.66296e-05 -0.000977518
0.0079687 -0.00113802 0.000312844
-0.00113802 0.00039259 -0.000107952
0.000312844 -0.000107952 -0.00167868
0.0105134 -0.000498042 0.000388317
-0.000498042 -3.703e-05 -1.61896e-05
0.000388317 -1.61896e-05 -0.000722326
-0.00300573 0.000468576 6.79804e-05
0.000468576 0.000387098 -1.39826e-05
6.79804e-05 -1.39826e-05 -0.000783031
0.0079766 0.00439161 0.000444448
0.00439161 0.00575796 0.000216541
0.000444448 0.000216541 -0.00144729
0.00768094 -0.000554666 -2.79572e-05
-0.000554666 0.00332489 0.00041249
-2.79572e-05 0.00041249 -0.00136677
0.00305209 0.000566267 2.345e-05
0.000566267 0.00200691 1.28835e-05
2.345e-05 1.28835e-05 0.00163794
0.000345479 0.000340109 -9.41182e-06
0.000340109 0.000532864 -2.22566e-06
-9.41182e-06 -2.22566e-06 2.55794e-05
0.000564779 0.000368962 1.40385e-06
0.000368962 0.000798706 -1.61883e-05
1.40385e-06 -1.61883e-05 9.87013e-05
-8.72061e-05 8.19572e-05 3.20091e-06
8.19572e-05 -0.000191405 -3.562e-06
3.20091e-06 -3.562e-06 -0.000402727
0.000433792 0.000119084 -1.35726e-06
0.000119084 0.000280283 -5.29931e-07
-1.35726e-06 -5.29931e-07 2.10286e-05
-0.000161496 3.22419e-05 -3.1139e-07
3.22419e-05 0.000397916 -5.61834e-06
-3.1139e-07 -5.61834e-06 -0.000183951
0.000267367 1.58059e-05 -4.64877e-07
1.58059e-05 0.000166568 -6.40513e-07
-4.64877e-07 -6.40513e-07 -8.49996e-05
0.000748938 -9.97516e-05 7.21519e-07
-9.97516e-05 0.000843194 -2.598e-06
7.21519e-07 -2.598e-06 0.000333128
-0.000118939 3.47676e-05 3.48622e-06
3.47676e-05 0.000507065 7.26279e-07
3.48622e-06 7.26279e-07 -9.58793e-05
9.49365e-05 -9.42274e-05 -5.26024e-06
-9.42274e-05 0.000568498 1.63949e-05
-5.26024e-06 1.63949e-05 5.31811e-05
0.0010133 -8.74518e-05 2.07983e-06
-8.74518e-05 0.000885266 -1.50225e-05
2.07983e-06 -1.50225e-05 0.000511639
-0.000188708 -3.08367e-05 7.06278e-06
-3.08367e-05 -0.000160492 5.28473e-06
7.06278e-06 5.28473e-06 -0.000365915
0.00176632 -8.73685e-05 6.81933e-07
-8.73685e-05 0.000937549 6.74931e-06
6.81933e-07 6.74931e-06 0.000754789
-0.0001284 -6.62173e-05 -6.59254e-06
-6.62173e-05 -0.000107014 8.93881e-06
-6.59254e-06 8.93881e-06 -0.000287306
0.000520465 -8.41255e-05 8.65168e-07
-8.41255e-05 0.000426215 8.25068e-07
8.65168e-07 8.25068e-07 0.000193993
-0.000200051 -5.2282e-05 -2.223e-06
-5.2282e-05 -0.000203818 -2.02019e-06
-2.223e-06 -2.02019e-06 -0.000363138
0.00115973 -0.000351959 -2.43729e-08
-0.000351959 0.000572302 3.70203e-06
-2.43729e-08 3.70203e-06 0.000392944
0.000577656 -0.000256053 -2.5699e-05
-0.000256053 0.000157253 8.68514e-08
-2.5699e-05 8.68514e-08 7.48819e-05
-0.000671434 -0.000348466 1.43467e-05
-0.000348466 -0.000540182 2.15823e-05
1.43467e-05 2.15823e-05 -0.000924585
-1.72327e-05 -0.000140436 2.36797e-06
-0.000140436 -0.000235778 1.73645e-06
2.36797e-06 1.73645e-06 -0.000359503
0.0011764 -0.000411748 -5.16096e-06
-0.000411748 0.000392557 9.05105e-06
-5.16096e-06 9.05105e-06 0.00014507
0.00235697 -0.000831241 -7.81338e-06
-0.000831241 0.00105117 1.12199e-05
-7.81338e-06 1.12199e-05 0.000529674
0.00211082 -0.000879356 -2.43974e-06
-0.000879356 0.000814849 -2.09147e-06
-2.43974e-06 -2.09147e-06 0.000243698
0.00205754 -0.000543796 6.47992e-06
-0.000543796 0.000917528 9.18422e-07
6.47992e-06 9.18422e-07 0.000576798
0.000774668 -0.000571357 1.09951e-05
-0.000571357 0.000105726 -3.53864e-06
1.09951e-05 -3.53864e-06 -0.000302495
0.0012516 -0.00025336 2.98447e-06
-0.00025336 0.000609781 -4.28103e-06
2.98447e-06 -4.28103e-06 0.000269783
0.00109776 -0.00026256 -7.86025e-06
-0.00026256 0.000406562 1.50458e-06
-7.86025e-06 1.50458e-06 0.000159753
-0.00025814 -0.000230248 1.86603e-05
-0.000230248 -0.000469396 -1.19694e-05
1.86603e-05 -1.19694e-05 -0.000651751
0.00146221 -0.000180407 -4.54246e-06
-0.000180407 0.000772309 4.72059e-06
-4.54246e-06 4.72059e-06 0.000523908
-0.000158145 -0.000165958 8.05786e-07
-0.000165958 -0.000194784 6.85631e-07
8.05786e-07 6.85631e-07 -0.000516034
-0.000270638 -4.29905e-05 2.88258e-06
-4.29905e-05 -0.000367304 -2.40614e-06
2.88258e-06 -2.40614e-06 -0.000622689
0.00232637 -0.000483299 -4.89416e-06
-0.000483299 0.00132898 1.53266e-06
-4.89416e-06 1.53266e-06 0.00105758
0.000889902 -0.000205621 -3.1192e-07
-0.000205621 0.00035535 -2.06727e-07
-3.1192e-07 -2.06727e-07 0.00015097
0.000309998 -2.91607e-05 5.58455e-06
-2.91607e-05 -4.91362e-05 8.0984e-06
5.58455e-06 8.0984e-06 -0.000187902
0.000928001 -0.000235646 -2.49931e-06
-0.000235646 0.000420545 2.12415e-07
-2.49931e-06 2.12415e-07 0.000229511
0.000425633 -1.45068e-05 -2.59108e-06
-1.45068e-05 3.70482e-05 -5.75449e-07
-2.59108e-06 -5.75449e-07 -8.62829e-05
0.00149666 -2.02871e-05 -2.32756e-05
-2.02871e-05 0.000680279 7.29018e-06
-2.32756e-05 7.29018e-06 0.000646638
0.000640569 -9.4051e-05 5.75981e-08
-9.4051e-05 0.000174397 -4.76421e-06
5.75981e-08 -4.76421e-06 6.47975e-05
0.000841724 -2.28321e-05 -1.26595e-05
-2.28321e-05 0.000255057 6.70137e-07
-1.26595e-05 6.70137e-07 0.000222271
0.000848203 2.94599e-05 1.96499e-06
2.94599e-05 0.00024171 3.69965e-06
1.96499e-06 3.69965e-06 0.000237748
0.000406778 -4.81941e-05 3.65405e-06
-4.81941e-05 -2.15607e-05 -6.99117e-06
3.65405e-06 -6.99117e-06 -5.59831e-05
0.00178723 2.72826e-05 1.95251e-05
2.72826e-05 0.000858539 -1.36852e-06
1.95251e-05 -1.36852e-06 0.000864437
0.00258906 1.51026e-05 2.64335e-05
1.51026e-05 0.0013817 -5.81432e-06
2.64335e-05 -5.81432e-06 0.00139402
0.000122559 3.79858e-05 5.51436e-07
3.79858e-05 -0.000148729 2.65315e-06
5.51436e-07 2.65315e-06 -0.00030931
-2.55634e-05 2.69757e-05 -2.57948e-08
2.69757e-05 -0.000281851 -6.4981e-06
-2.57948e-08 -6.4981e-06 -0.000363739
0.000527871 8.64357e-05 -4.06578e-07
8.64357e-05 0.000113517 6.59819e-07
-4.06578e-07 6.59819e-07 -2.77221e-05
0.000422209 1.50362e-05 1.74518e-06
1.50362e-05 -2.89751e-05 -5.2528e-06
1.74518e-06 -5.2528e-06 -4.62536e-05
0.000285684 7.83772e-06 1.70999e-06
7.83772e-06 -8.26072e-05 5.81416e-08
1.70999e-06 5.81416e-08 -0.000150532
0.000174744 -0.00010396 1.7605e-07
-0.00010396 -0.000111903 3.4719e-06
1.7605e-07 3.4719e-06 -0.000237869
0.0020915 -2.05537e-07 -1.48075e-05
-2.05537e-07 0.00105601 -5.42085e-06
-1.48075e-05 -5.42085e-06 0.00107238
0.000404457 8.19989e-06 3.76545e-07
8.19989e-06 -4.09421e-05 -8.03014e-08
3.76545e-07 -8.03014e-08 -5.4445e-05
0.000386075 -1.15626e-05 -3.76802e-06
-1.15626e-05 -1.67729e-05 4.3323e-06
-3.76802e-06 4.3323e-06 -7.47614e-05
0.00207247 1.54502e-05 -5.1363e-06
1.54502e-05 0.001045 -2.49963e-08
-5.1363e-06 -2.49963e-08 0.00106102
0.000404701 4.90187e-06 -2.13094e-06
4.90187e-06 -4.01636e-05 4.20622e-06
-2.13094e-06 4.20622e-06 -5.27839e-05
0.00205454 3.10979e-05 5.94348e-06
3.10979e-05 0.00103499 5.50347e-06
5.94348e-06 5.50347e-06 0.00104973
-0.000978647 -0.00177768 -0.000373613
-0.00177768 -0.000186177 0.000159792
-0.000373613 0.000159792 -0.00476581
0.00484905 0.00234982 -0.000284689
0.00234982 0.0116644 7.21035e-05
-0.000284689 7.21035e-05 0.00448469
0.00606972 0.00120086 -0.00166752
0.00120086 0.00558968 0.000352318
-0.00166752 0.000352318 0.00276026
0.000704707 0.000146602 1.00888e-05
0.000146602 0.000261966 9.7523e-06
1.00888e-05 9.7523e-06 6.76875e-05
0.00680536 -0.00155143 -0.000229812
-0.00155143 0.00452115 0.000350151
-0.000229812 0.000350151 0.0013678
0.00467762 -0.00172788 -0.000334896
-0.00172788 0.00244994 4.00316e-05
-0.000334896 4.00316e-05 -0.00291525
0.021285 0.00885387 0.000218651
0.00885387 0.0130429 -0.000571593
0.000218651 -0.000571593 0.00382748
0.00765455 -0.00197644 0.000172933
-0.00197644 -0.000770034 -1.98013e-05
0.000172933 -1.98013e-05 0.000745343
0.0149979 -0.00425914 0.00039861
-0.00425914 -0.000664713 -0.00027267
0.00039861 -0.00027267 0.000242559
0.018969 0.00671004 -0.00107119
0.00671004 0.00603607 0.000386361
-0.00107119 0.000386361 -0.00212377
0.0169928 0.0050352 0.000311935
0.0050352 0.0105786 0.000307193
0.000311935 0.000307193 0.00596017
0.00775904 -0.00378549 -9.48669e-05
-0.00378549 -0.00107716 -5.77146e-06
-9.48669e-05 -5.77146e-06 0.000701451
0.0122036 -0.00764536 2.03996e-06
-0.00764536 0.000449753 -5.40401e-05
2.03996e-06 -5.40401e-05 -0.00151927
0.0125472 0.00262273 0.000129277
0.00262273 0.00833417 -0.000486935
0.000129277 -0.000486935 0.000526406
0.0163093 0.00138611 -1.80473e-05
0.00138611 0.00235368 7.67402e-05
-1.80473e-05 7.67402e-05 0.000109619
0.00409008 -0.00426614 -2.6887e-05
-0.00426614 0.000614857 5.77124e-05
-2.6887e-05 5.77124e-05 0.00152625
0.0109814 -0.00744173 0.000323121
-0.00744173 0.00484949 -0.000203236
0.000323121 -0.000203236 0.000930788
0.00777976 0.000181633 -1.66161e-05
0.000181633 0.00643822 -0.000528203
-1.66161e-05 -0.000528203 0.0010681
0.0158981 -0.000503662 -0.000245442
-0.000503662 -2.54854e-05 0.000324592
-0.000245442 0.000324592 0.000657179
0.00027 0.000172415 1.06702e-05
0.000172415 6.15065e-05 1.51116e-05
1.06702e-05 1.51116e-05 -0.000153445
0.000417578 -9.41062e-05 3.72618e-07
-9.41062e-05 0.000174494 -8.34765e-07
3.72618e-07 -8.34765e-07 -8.46015e-05
0.000156723 4.65076e-05 6.74935e-06
4.65076e-05 -6.9726e-05 6.54021e-07
6.74935e-06 6.54021e-07 -0.000218796
0.000626458 0.000201431 6.27425e-06
0.000201431 0.000134766 2.14424e-05
6.27425e-06 2.14424e-05 -2.6923e-05
0.000922535 0.000265741 -8.02877e-07
0.000265741 0.000419486 -1.44728e-06
-8.02877e-07 -1.44728e-06 0.000191805
0.000993137 0.000151782 4.66741e-07
0.000151782 0.000487579 -1.72837e-06
4.66741e-07 -1.72837e-06 0.000291841
0.0011268 0.000221011 -2.05241e-06
0.000221011 0.000547675 -3.41812e-07
-2.05241e-06 -3.41812e-07 0.000330634
0.00112794 0.000256517 3.33644e-06
0.000256517 0.000575572 2.62164e-06
3.33644e-06 2.62164e-06 0.000347361
0.00166544 -0.00129069 0.000158197
-0.00129069 -0.000854254 -9.64287e-05
0.000158197 -9.64287e-05 -0.000375625
-0.000332406 -0.000953764 -1.92351e-05
-0.000953764 -0.0010143 -1.56391e-05
-1.92351e-05 -1.56391e-05 -0.00109559
-1.37343e-05 -9.96266e-05 3.74544e-06
-9.96266e-05 -8.01171e-05 -2.47258e-05
3.74544e-06 -2.47258e-05 -0.000363764
0.00180264 -0.000884321 3.80348e-05
-0.000884321 0.00105834 -2.38667e-05
3.80348e-05 -2.38667e-05 0.000662956
0.00316105 -0.000730283 -2.85348e-05
-0.000730283 0.00195722 1.3163e-05
-2.85348e-05 1.3163e-05 0.00155543
0.00173693 -0.000191759 1.49257e-05
-0.000191759 0.0011385 -2.74407e-05
1.49257e-05 -2.74407e-05 0.000758791
-3.90695e-05 9.47067e-05 2.16835e-06
9.47067e-05 -5.56279e-05 1.18598e-05
2.16835e-06 1.18598e-05 -0.000290092
0.0010259 -0.00219149 -1.89634e-05
-0.00219149 -0.000343041 -4.32397e-06
-1.89634e-05 -4.32397e-06 -0.000757729
0.00142453 -0.000150967 -3.39668e-06
-0.000150967 0.00105521 -1.26809e-06
-3.39668e-06 -1.26809e-06 0.000641049
-0.000545509 -0.000270774 -1.09e-05
-0.000270774 -2.38501e-05 9.6453e-06
-1.09e-05 9.6453e-06 -0.000547076
-0.000790859 -0.000640986 2.84586e-05
-0.000640986 -0.000590529 -3.61188e-06
2.84586e-05 -3.61188e-06 -0.000674539
0.000441472 9.84746e-05 8.52209e-06
9.84746e-05 0.000276875 9.60818e-07
8.52209e-06 9.60818e-07 7.51925e-05
0.000503274 -0.00219501 -9.69612e-05
-0.00219501 0.000619764 -2.32186e-05
-9.69612e-05 -2.32186e-05 -0.000258652
-0.000373122 -0.000641434 -3.10733e-05
-0.000641434 0.000104936 1.59127e-05
-3.10733e-05 1.59127e-05 -0.000395133
0.000322646 0.000175366 2.36161e-06
0.000175366 0.000592232 -5.75475e-06
2.36161e-06 -5.75475e-06 3.22594e-05
0.0015627 0.00025187 5.00795e-07
0.00025187 0.00135579 1.46829e-05
5.00795e-07 1.46829e-05 0.000795784
-0.000363971 4.70349e-05 0.00028511
4.70349e-05 0.00404496 7.24936e-05
0.00028511 7.24936e-05 0.00137996
-9.99351e-05 7.31485e-05 0.000224054
7.31485e-05 0.00136705 -3.37534e-05
0.000224054 -3.37534e-05 -0.00421319
-0.0145852 -0.00060039 -0.000630089
-0.00060039 0.0067389 2.67464e-05
-0.000630089 2.67464e-05 0.000959593
0.00148307 0.000841062 2.12368e-05
0.000841062 0.000931619 7.18087e-07
2.12368e-05 7.18087e-07 0.000485529
-0.000552448 0.00119866 2.02473e-05
0.00119866 -2.87503e-05 1.44154e-05
2.02473e-05 1.44154e-05 -0.000761225
0.00599238 0.00207711 0.000644821
0.00207711 0.0050059 0.000163641
0.000644821 0.000163641 0.000519619
0.00615865 0.00568809 0.000251346
0.00568809 0.00344927 0.000224373
0.000251346 0.000224373 -0.000535856
0.00206978 0.00374252 -0.000170652
0.00374252 0.00159176 -0.000174564
-0.000170652 -0.000174564 -0.00021624
0.00559887 -0.00211133 -0.000157309
-0.00211133 0.00593182 -0.000545032
-0.000157309 -0.000545032 0.000304193
0.00377061 0.000696599 0.000135078
0.000696599 0.00147165 0.000152034
0.000135078 0.000152034 -0.000973718
0.0102475 -0.00024857 -4.49639e-05
-0.00024857 -0.00479329 -0.000276319
-4.49639e-05 -0.000276319 -0.00305422
0.000765739 0.000849779 5.19296e-06
0.000849779 0.000757734 -1.17981e-06
5.19296e-06 -1.17981e-06 0.000110999
-0.00305733 0.00051992 3.12605e-06
0.00051992 0.00173479 8.73013e-06
3.12605e-06 8.73013e-06 -0.000895762
0.0065904 -0.000514644 0.000220082
-0.000514644 0.000306961 1.15224e-05
0.000220082 1.15224e-05 -0.00161447
-0.00188632 0.00095886 -2.41868e-05
0.00095886 0.000138174 -1.38595e-05
-2.41868e-05 -1.38595e-05 -0.000989977
0.0167875 0.00172747 2.16435e-05
0.00172747 0.00227243 -8.29988e-05
2.16435e-05 -8.29988e-05 4.02074e-05
0.00444186 0.00301004 0.000364667
0.00301004 0.0057288 0.000227275
0.000364667 0.000227275 -0.00106555
0.0135562 0.000636938 -0.000211041
0.000636938 0.00513212 2.48384e-07
-0.000211041 2.48384e-07 0.000113247
0.0012191 0.000913841 -6.34992e-06
0.000913841 0.00117102 -2.43723e-05
-6.34992e-06 -2.43723e-05 0.000331582
0.00337046 -3.36308e-05 3.055e-05
-3.36308e-05 0.00203388 3.00879e-05
3.055e-05 3.00879e-05 1.93578e-05
0.00398484 -0.00278008 0.000281112
-0.00278008 0.00418308 -0.00028839
0.000281112 -0.00028839 0.00148558
0.0318949 0.00732321 0.000468713
0.00732321 0.0127026 -0.000382175
0.000468713 -0.000382175 0.00621806
0.00985308 -0.000390181 -0.000130129
-0.000390181 0.00749157 0.00062172
-0.000130129 0.00062172 0.00206974
-0.00177231 0.000897274 -0.000162742
0.000897274 0.000861348 -0.000130425
-0.000162742 -0.000130425 -0.000336507
0.00193332 0.000852816 0.000223917
0.000852816 0.00604618 1.81234e-05
0.000223917 1.81234e-05 -0.00382862
0.00127133 0.000512542 9.50398e-06
0.000512542 0.00104694 1.09861e-05
9.50398e-06 1.09861e-05 0.000503626
0.000610687 0.000359831 9.12387e-06
0.000359831 0.000885383 8.6075e-06
9.12387e-06 8.6075e-06 0.000226206
0.000473097 -0.000109832 -1.02253e-05
-0.000109832 0.00116286 1.93675e-05
-1.02253e-05 1.93675e-05 0.000528424
-0.00100262 -1.69594e-05 4.85668e-06
-1.69594e-05 -0.000643588 -4.98366e-06
4.85668e-06 -4.98366e-06 -0.000889186
-0.000732123 -2.03158e-06 2.48923e-06
-2.03158e-06 -1.77367e-07 3.6247e-06
2.48923e-06 3.6247e-06 -0.000565087
2.21692e-05 4.00903e-05 -7.15069e-06
4.00903e-05 0.000638065 -7.49414e-06
-7.15069e-06 -7.49414e-06 -1.10831e-07
-0.00020833 -7.65268e-06 -1.1057e-06
-7.65268e-06 9.38451e-05 4.27944e-07
-1.1057e-06 4.27944e-07 -0.000246737
-6.79945e-05 -8.29364e-05 3.13698e-06
-8.29364e-05 0.000461282 2.5727e-06
3.13698e-06 2.5727e-06 -5.92195e-05
0.00236172 -0.000556229 9.91978e-06
-0.000556229 0.00155179 -1.37447e-05
9.91978e-06 -1.37447e-05 0.00118228
-8.37934e-05 -4.8916e-05 -2.13831e-06
-4.8916e-05 4.94782e-05 8.48227e-06
-2.13831e-06 8.48227e-06 -0.000179289
-0.00118014 -3.5883e-07 2.80216e-06
-3.5883e-07 -0.000788352 3.61804e-06
2.80216e-06 3.61804e-06 -0.000946965
0.00107421 -0.000382654 -2.92049e-06
-0.000382654 0.000542962 5.6201e-06
-2.92049e-06 5.6201e-06 0.000314487
-0.00407583 3.81389e-05 2.64631e-05
3.81389e-05 -0.00230353 2.21339e-05
2.64631e-05 2.21339e-05 -0.00271014
-0.00121767 -9.93548e-05 3.54226e-05
-9.93548e-05 -0.00086264 -7.08782e-06
3.54226e-05 -7.08782e-06 -0.000891556
1.10342e-05 -0.000427705 -1.10413e-05
-0.000427705 -0.000189988 -4.15611e-06
-1.10413e-05 -4.15611e-06 -0.000537587
0.00162677 -0.000829928 -1.28817e-06
-0.000829928 0.000594408 -2.18806e-06
-1.28817e-06 -2.18806e-06 -7.74443e-05
0.00200989 -0.00100403 -1.15626e-05
-0.00100403 0.000685478 1.72531e-06
-1.15626e-05 1.72531e-06 3.69358e-05
0.00125778 -0.000414559 3.58731e-06
-0.000414559 0.000422103 -5.27936e-06
3.58731e-06 -5.27936e-06 0.00017222
0.0015651 -0.000728443 1.37865e-06
-0.000728443 0.000558433 1.1505e-06
1.37865e-06 1.1505e-06 5.6529e-05
0.00179661 -0.00089687 6.42639e-06
-0.00089687 0.000546001 -6.94933e-06
6.42639e-06 -6.94933e-06 -3.29196e-05
0.00210884 -0.000708141 3.55421e-06
-0.000708141 0.00091673 2.43598e-06
3.55421e-06 2.43598e-06 0.000432702
0.00115974 -0.000746598 2.52491e-06
-0.000746598 0.000233937 -5.33238e-06
2.52491e-06 -5.33238e-06 -0.000298055
0.00131839 -0.000273263 -1.92484e-07
-0.000273263 0.000478687 -3.34111e-06
-1.92484e-07 -3.34111e-06 0.000192443
0.000922698 -0.00044336 -1.06008e-06
-0.00044336 0.000207891 7.70384e-07
-1.06008e-06 7.70384e-07 -0.000130641
-0.00060596 -0.000362446 -9.16968e-07
-0.000362446 -0.000736143 -7.7582e-06
-9.16968e-07 -7.7582e-06 -0.00108239
-0.000240239 -0.000101859 1.24744e-06
-0.000101859 -0.000304518 -5.21433e-06
1.24744e-06 -5.21433e-06 -0.000626084
0.000544148 -0.000229554 -2.04494e-07
-0.000229554 0.000201534 -5.22621e-07
-2.04494e-07 -5.22621e-07 -0.000144608
-0.000683672 -0.000158993 3.92641e-06
-0.000158993 -0.000645421 1.27167e-06
3.92641e-06 1.27167e-06 -0.000908437
0.00124949 -0.000235059 -2.63508e-06
-0.000235059 0.00066022 4.55666e-06
-2.63508e-06 4.55666e-06 0.000351215
0.000701983 -0.000182674 7.33976e-07
-0.000182674 0.000251835 5.99924e-07
7.33976e-07 5.99924e-07 -1.21985e-05
4.49129e-05 -5.58572e-05 2.44441e-06
-5.58572e-05 -0.00023849 8.57711e-06
2.44441e-06 8.57711e-06 -0.00039408
0.00133073 -0.000326279 -3.94232e-06
-0.000326279 0.000662334 2.20071e-06
-3.94232e-06 2.20071e-06 0.000431966
0.000561908 -5.5973e-05 -1.29926e-06
-5.5973e-05 9.48523e-05 -1.76078e-07
-1.29926e-06 -1.76078e-07 -3.77123e-05
0.000325131 4.04952e-05 3.33685e-06
4.04952e-05 -7.3502e-05 1.08198e-05
3.33685e-06 1.08198e-05 -0.000125386
0.00107161 -0.000122207 -1.58367e-06
-0.000122207 0.000444916 -5.32043e-06
-1.58367e-06 -5.32043e-06 0.000320293
0.000435035 -2.88998e-05 -1.86929e-06
-2.88998e-05 -1.29431e-05 3.76136e-08
-1.86929e-06 3.76136e-08 -5.4316e-05
0.00280871 9.63423e-05 9.55647e-07
9.63423e-05 0.00152764 3.36289e-06
9.55647e-07 3.36289e-06 0.00152795
0.000480408 -4.48526e-05 3.3332e-06
-4.48526e-05 1.99954e-05 -7.78994e-06
3.3332e-06 -7.78994e-06 -1.79933e-05
0.00181743 4.06112e-05 2.33234e-05
4.06112e-05 0.000877847 -1.13647e-06
2.33234e-05 -1.13647e-06 0.000881163
0.00271093 3.08327e-05 3.37994e-05
3.08327e-05 0.00145905 -6.27761e-06
3.37994e-05 -6.27761e-06 0.00147039
0.000261867 4.93723e-05 3.72818e-06
4.93723e-05 -7.40931e-05 3.08217e-06
3.72818e-06 3.08217e-06 -0.000227778
0.000108633 1.71542e-05 1.85374e-06
1.71542e-05 -0.000192558 -4.4885e-06
1.85374e-06 -4.4885e-06 -0.000292907
0.000432634 5.82573e-05 -2.27009e-07
5.82573e-05 5.58523e-05 -8.28058e-07
-2.27009e-07 -8.28058e-07 -0.000103142
0.000459151 1.32583e-05 2.43542e-06
1.32583e-05 -5.51679e-06 -5.92548e-06
2.43542e-06 -5.92548e-06 -2.78086e-05
7.43807e-05 2.82191e-05 -9.88341e-07
2.82191e-05 -0.000216073 -2.25962e-06
-9.88341e-07 -2.25962e-06 -0.000301827
0.000616877 8.6537e-05 1.39715e-06
8.6537e-05 0.000192655 3.94635e-06
1.39715e-06 3.94635e-06 3.71553e-05
0.00219772 -1.46505e-05 -2.05808e-05
-1.46505e-05 0.00112476 -5.487e-06
-2.05808e-05 -5.487e-06 0.00114024
0.000420104 9.91972e-06 -1.27659e-06
9.91972e-06 -3.19132e-05 -1.79607e-07
-1.27659e-06 -1.79607e-07 -4.83579e-05
-3.1469e-05 1.72264e-05 1.72642e-06
1.72264e-05 -0.000286022 4.53951e-06
1.72642e-06 4.53951e-06 -0.000357488
0.00208612 4.6539e-07 -4.09664e-06
4.6539e-07 0.00105257 8.10971e-08
-4.09664e-06 8.10971e-08 0.00106898
0.000395035 8.32043e-06 -2.25182e-06
8.32043e-06 -4.72337e-05 4.46758e-06
-2.25182e-06 4.46758e-06 -6.0364e-05
0.00206827 1.64209e-05 1.10427e-05
1.64209e-05 0.00104256 5.46878e-06
1.10427e-05 5.46878e-06 0.00105838
0.000953972 -0.00014129 0.000273475
-0.00014129 0.00468635 0.000159451
0.000273475 0.000159451 0.00261085
-0.000719232 -0.000658113 -7.7035e-05
-0.000658113 0.000520137 4.85528e-06
-7.7035e-05 4.85528e-06 -0.00480129
0.00145576 0.00236065 -0.000362321
0.00236065 0.0109645 -0.000115196
-0.000362321 -0.000115196 0.00336152
0.000735803 0.00015515 9.54284e-07
0.00015515 0.000248797 1.72534e-07
9.54284e-07 1.72534e-07 7.18561e-05
-0.000274484 9.56853e-05 7.95619e-06
9.56853e-05 -0.000372535 5.72383e-06
7.95619e-06 5.72383e-06 -0.00057058
0.00166263 0.000279912 1.669e-05
0.000279912 0.00083588 1.83927e-05
1.669e-05 1.83927e-05 0.000652927
0.00899305 -0.00110186 -0.000318428
-0.00110186 0.000351275 0.000147272
-0.000318428 0.000147272 -0.00214091
0.0073716 -0.00252855 0.0001732
-0.00252855 0.00409513 3.96926e-05
0.0001732 3.96926e-05 0.00186413
0.00472845 -0.00371578 0.000354115
-0.00371578 0.00206431 -0.00035686
0.000354115 -0.00035686 -0.0030794
0.00901378 -0.00441584 -1.79248e-05
-0.00441584 -0.00125274 -5.33215e-05
-1.79248e-05 -5.33215e-05 0.000752645
0.00445665 -0.00721904 -0.000933072
-0.00721904 -0.00241667 3.29634e-05
-0.000933072 3.29634e-05 -0.00311924
0.0303335 0.00664664 0.000670068
0.00664664 0.0155988 0.000317779
0.000670068 0.000317779 0.00597835
0.00876413 -0.00114988 0.000462303
-0.00114988 -0.00135524 -0.000327467
0.000462303 -0.000327467 -0.00325962
0.00250587 -0.00423729 3.2086e-06
-0.00423729 -0.000988202 1.3707e-05
3.2086e-06 1.3707e-05 0.00059432
0.00527638 -0.00745569 -0.000292236
-0.00745569 0.00252646 4.45931e-06
-0.000292236 4.45931e-06 -0.00272509
0.00714195 0.00453511 -0.000131041
0.00453511 0.00742554 -0.000409802
-0.000131041 -0.000409802 0.000489068
0.0132577 -0.000378508 -0.000153836
-0.000378508 -0.00227309 0.000181645
-0.000153836 0.000181645 -0.00106719
-0.000844111 -0.00318481 -0.000176324
-0.00318481 0.000668547 9.2617e-05
-0.000176324 9.2617e-05 -7.18657e-05
0.00793614 -0.00392858 -0.000486508
-0.00392858 0.00586511 0.00027247
-0.000486508 0.00027247 -0.000410028
0.00645246 -0.000210237 5.37689e-05
-0.000210237 0.00358856 -0.000384739
5.37689e-05 -0.000384739 -0.00134676
0.00993572 0.000597867 6.31754e-05
0.000597867 -0.00130463 0.000176179
6.31754e-05 0.000176179 -0.00206022
-0.00023088 9.32511e-05 9.0289e-06
9.32511e-05 -0.000286383 2.27059e-05
9.0289e-06 2.27059e-05 -0.000429772
0.000674373 1.81289e-05 1.18965e-07
1.81289e-05 0.000312859 -7.79179e-07
1.18965e-07 -7.79179e-07 8.85789e-05
0.000725706 -0.00023591 1.18212e-05
-0.00023591 0.000331214 -1.00011e-05
1.18212e-05 -1.00011e-05 8.96277e-05
0.000565807 0.000188563 -1.6154e-06
0.000188563 0.000107684 2.43919e-06
-1.6154e-06 2.43919e-06 -5.97038e-05
0.000774584 0.000218006 2.31319e-06
0.000218006 0.000330953 -8.33706e-06
2.31319e-06 -8.33706e-06 0.000111059
0.00127627 0.000256398 -5.63785e-06
0.000256398 0.000646017 -6.6722e-06
-5.63785e-06 -6.6722e-06 0.000424472
0.00113915 -0.00194642 7.98777e-05
-0.00194642 -4.26975e-05 -2.6779e-05
7.98777e-05 -2.6779e-05 -0.000381534
-0.00101695 -0.000521638 7.40192e-06
-0.000521638 -0.000789978 -2.55936e-05
7.40192e-06 -2.55936e-05 -0.000791469
0.000275696 0.000222969 -6.08709e-06
0.000222969 0.0001513 -2.4707e-05
-6.08709e-06 -2.4707e-05 -0.000125672
0.00254537 -0.000580536 7.0756e-05
-0.000580536 0.00164693 -3.86736e-05
7.0756e-05 -3.86736e-05 0.00119791
0.00299085 -0.000151709 9.12156e-06
-0.000151709 0.00196579 -2.2038e-05
9.12156e-06 -2.2038e-05 0.00158501
-0.000463906 8.54287e-05 9.01328e-06
8.54287e-05 -0.000252208 6.92827e-07
9.01328e-06 6.92827e-07 -0.000475411
-0.00020194 3.52689e-05 3.14756e-06
3.52689e-05 0.000244813 8.21523e-06
3.14756e-06 8.21523e-06 -0.000258515
0.00194438 -0.00217278 -6.92036e-05
-0.00217278 0.00129805 1.46419e-06
-6.92036e-05 1.46419e-06 0.000341765
0.000356529 -6.13134e-05 -6.65577e-06
-6.13134e-05 0.000731656 -8.16309e-07
-6.65577e-06 -8.16309e-07 8.62934e-05
-6.14427e-06 -0.00045813 -8.93409e-06
-0.00045813 0.000544893 1.57345e-06
-8.93409e-06 1.57345e-06 -0.000118576
0.000831003 0.000242948 1.35841e-05
0.000242948 0.000786489 -2.16966e-05
1.35841e-05 -2.16966e-05 0.000397319
-0.00403438 -0.000213077 -0.000138289
-0.000213077 -0.000649514 1.01217e-05
-0.000138289 1.01217e-05 -0.00176701
-0.000238587 -0.000204579 -8.07969e-06
-0.000204579 0.000904684 -1.53705e-05
-8.07969e-06 -1.53705e-05 0.000126358
-0.00360027 -0.000118137 -2.92762e-05
-0.000118137 -0.00119071 -3.97511e-06
-2.92762e-05 -3.97511e-06 -0.00194663
0.0010208 0.000597424 -4.47686e-06
0.000597424 -0.00015673 -2.84566e-06
-4.47686e-06 -2.84566e-06 -0.0038666
-0.00183263 0.000809563 0.000172884
0.000809563 0.00375179 4.90756e-06
0.000172884 4.90756e-06 0.00108061
-0.0016896 2.57323e-05 0.000476121
2.57323e-05 0.000490383 4.96674e-05
0.000476121 4.96674e-05 -0.00498043
-2.87396e-05 0.000861421 1.10454e-05
0.000861421 0.000238829 2.24995e-05
1.10454e-05 2.24995e-05 -0.000447705
0.000458437 0.0014333 -1.9643e-05
0.0014333 0.000896007 -3.44528e-05
-1.9643e-05 -3.44528e-05 -0.000191909
-0.00247929 0.000518741 -0.000192124
0.000518741 0.00207789 -6.02972e-05
-0.000192124 -6.02972e-05 -0.000685133
-0.0045871 0.00102319 0.000212857
0.00102319 0.00393874 0.000247932
0.000212857 0.000247932 -0.00248499
0.00387693 0.000690232 -0.000198708
0.000690232 -0.00131303 -0.000518549
-0.000198708 -0.000518549 -0.0073561
0.00609624 7.61257e-05 0.000120209
7.61257e-05 -3.26699e-05 3.52e-05
0.000120209 3.52e-05 -0.0012966
0.00792456 -0.000900421 -0.00044848
-0.000900421 -0.00157336 0.000309384
-0.00044848 0.000309384 -0.00341169
0.00049722 0.000696667 -6.82844e-06
0.000696667 0.000855436 -1.56435e-07
-6.82844e-06 -1.56435e-07 0.00011781
0.00190938 0.000376366 6.42185e-05
0.000376366 0.00197274 3.56078e-05
6.42185e-05 3.56078e-05 1.15516e-05
0.006332 -0.00181678 -0.000162117
-0.00181678 0.00386944 -2.48018e-05
-0.000162117 -2.48018e-05 0.00177054
-4.62545e-05 0.00103224 -0.000155833
0.00103224 0.00253806 -2.09303e-05
-0.000155833 -2.09303e-05 0.000318131
0.0223226 0.00697277 -0.000281428
0.00697277 0.00955851 -0.000524599
-0.000281428 -0.000524599 0.0033448
0.00953143 0.00393961 0.000104543
0.00393961 0.00805044 0.00044355
0.000104543 0.00044355 0.000394737
0.00663466 0.00185359 9.06165e-05
0.00185359 0.0074631 -3.25537e-06
9.06165e-05 -3.25537e-06 -0.000261324
-1.26038e-05 7.40615e-05 2.44184e-05
7.40615e-05 0.00159892 -1.44018e-05
2.44184e-05 -1.44018e-05 2.89167e-05
0.00072515 1.83457e-06 -0.000265849
1.83457e-06 0.00554221 -5.32299e-06
-0.000265849 -5.32299e-06 0.00317896
0.000671962 -0.000936102 0.000873544
-0.000936102 0.000557075 -0.000283185
0.000873544 -0.000283185 -0.00534699
0.0329156 0.013092 -0.000104861
0.013092 0.0227577 -0.000106117
-0.000104861 -0.000106117 0.0130385
0.0153428 0.0054636 0.000419627
0.0054636 0.00701559 0.0011739
0.000419627 0.0011739 -0.00168457
0.0121102 -0.00565411 0.000570947
-0.00565411 0.00749912 -0.000363465
0.000570947 -0.000363465 -0.000354114
0.000923449 -0.000800676 -8.30804e-05
-0.000800676 0.00344769 5.30741e-05
-8.30804e-05 5.30741e-05 0.00195098
0.000590643 0.000296937 -8.60287e-06
0.000296937 0.000902306 2.56647e-06
-8.60287e-06 2.56647e-06 0.000309622
-0.000175296 -0.000108126 2.35933e-06
-0.000108126 0.000626817 -6.67442e-06
2.35933e-06 -6.67442e-06 -8.41472e-05
0.000439476 -0.000624753 5.70131e-05
-0.000624753 0.000682626 -2.04268e-05
5.70131e-05 -2.04268e-05 -9.66541e-05
0.00017419 -8.02091e-05 -3.79227e-06
-8.02091e-05 0.000270007 1.36111e-05
-3.79227e-06 1.36111e-05 -1.33303e-05
0.000142539 -0.000107022 1.60759e-06
-0.000107022 0.000512926 -1.98811e-05
1.60759e-06 -1.98811e-05 3.3319e-05
0.000922094 -0.000372745 -3.80062e-06
-0.000372745 0.000838705 1.14728e-07
-3.80062e-06 1.14728e-07 0.000463864
0.00126269 -0.000873782 2.96364e-05
-0.000873782 0.000692454 -1.85156e-05
2.96364e-05 -1.85156e-05 0.000176876
0.000643244 -0.000397892 6.63972e-06
-0.000397892 0.000327251 1.32557e-07
6.63972e-06 1.32557e-07 2.20549e-05
0.00111085 -0.000707983 2.01521e-05
-0.000707983 0.000526026 -6.17112e-06
2.01521e-05 -6.17112e-06 9.81672e-06
0.00150828 -0.000891376 1.3783e-05
-0.000891376 0.00069616 -4.5024e-06
1.3783e-05 -4.5024e-06 -0.000159469
0.000797957 -0.000483795 -8.56662e-06
-0.000483795 0.000240429 -3.67392e-06
-8.56662e-06 -3.67392e-06 -5.66357e-05
0.00261664 -0.000969842 -2.90227e-06
-0.000969842 0.00113806 -2.20595e-07
-2.90227e-06 -2.20595e-07 0.000457619
0.00156247 -0.00105403 -1.73674e-05
-0.00105403 0.000365123 -1.31693e-06
-1.73674e-05 -1.31693e-06 -0.000411008
0.00266241 -0.00128582 -1.42215e-05
-0.00128582 0.000787302 -3.80464e-07
-1.42215e-05 -3.80464e-07 8.70278e-05
0.002203 -0.00113327 -4.13e-06
-0.00113327 0.000717336 -1.20437e-06
-4.13e-06 -1.20437e-06 4.76198e-05
0.00191993 -0.000987273 -5.88745e-06
-0.000987273 0.000629238 2.81452e-07
-5.88745e-06 2.81452e-07 -1.52438e-05
0.00133919 -0.000707243 -3.08055e-07
-0.000707243 0.000397187 -6.4078e-06
-3.08055e-07 -6.4078e-06 -0.000104179
0.00183913 -0.000870065 9.09914e-06
-0.000870065 0.000639915 -7.834e-06
9.09914e-06 -7.834e-06 6.79554e-05
0.00180784 -0.000912466 9.45244e-06
-0.000912466 0.000554157 -1.82592e-06
9.45244e-06 -1.82592e-06 -2.87845e-05
0.0016452 -0.00042791 -1.85695e-07
-0.00042791 0.000618196 9.28026e-07
-1.85695e-07 9.28026e-07 0.000268631
0.00149158 -0.0006443 5.59044e-06
-0.0006443 0.000511627 -3.72503e-06
5.59044e-06 -3.72503e-06 4.25663e-05
-0.000293171 -0.000549434 -1.51495e-05
-0.000549434 -0.000666461 -7.87303e-07
-1.51495e-05 -7.87303e-07 -0.0011434
0.000328657 -0.00010451 -1.25268e-06
-0.00010451 -1.62234e-05 -6.31609e-06
-1.25268e-06 -6.31609e-06 -0.000318486
0.000741045 -0.00029286 1.59016e-07
-0.00029286 0.000140603 -1.14212e-06
1.59016e-07 -1.14212e-06 -0.000160368
-0.00013958 -0.000350772 -8.43446e-06
-0.000350772 -0.000464175 -9.13372e-07
-8.43446e-06 -9.13372e-07 -0.000799799
1.04539e-05 -0.000105844 -8.29562e-07
-0.000105844 -0.000220623 7.17801e-06
-8.29562e-07 7.17801e-06 -0.000442439
0.000885968 -0.000199348 3.49566e-07
-0.000199348 0.000397254 3.03194e-07
3.49566e-07 3.03194e-07 7.93835e-05
-0.000728089 -0.000269077 -1.66136e-06
-0.000269077 -0.000583542 3.7213e-06
-1.66136e-06 3.7213e-06 -0.000922592
0.00171724 -0.000274729 -1.73529e-06
-0.000274729 0.000902309 2.92405e-06
-1.73529e-06 2.92405e-06 0.000631005
0.000777617 -0.000125758 4.43526e-08
-0.000125758 0.00023079 2.50373e-07
4.43526e-08 2.50373e-07 6.78915e-05
0.000330119 8.5214e-06 3.0969e-06
8.5214e-06 -6.32651e-05 1.43872e-05
3.0969e-06 1.43872e-05 -0.000128497
0.00103526 -0.000114892 -5.84533e-07
-0.000114892 0.000397743 -8.07487e-06
-5.84533e-07 -8.07487e-06 0.000259604
0.000422123 -8.89398e-06 -5.2025e-06
-8.89398e-06 -1.52336e-05 -4.94092e-07
-5.2025e-06 -4.94092e-07 -6.67273e-05
0.003226 0.000102066 -4.90429e-05
0.000102066 0.00180663 6.30235e-06
-4.90429e-05 6.30235e-06 0.00180682
0.000488589 -3.83855e-05 2.63172e-06
-3.83855e-05 1.73494e-05 -9.40651e-06
2.63172e-06 -9.40651e-06 -2.38893e-05
0.00196281 6.2409e-05 2.85634e-05
6.2409e-05 0.000975023 -5.89258e-07
2.85634e-05 -5.89258e-07 0.000973881
0.00284673 5.06613e-05 4.11776e-05
5.06613e-05 0.00154754 -6.10831e-06
4.11776e-05 -6.10831e-06 0.0015569
0.000869496 0.000146346 3.96681e-06
0.000146346 0.000324552 -5.91266e-06
3.96681e-06 -5.91266e-06 0.000143136
0.000512086 7.48128e-05 3.86415e-06
7.48128e-05 7.04678e-05 -3.85324e-06
3.86415e-06 -3.85324e-06 -4.19126e-05
0.000404604 7.30557e-05 -2.96552e-07
7.30557e-05 3.86654e-05 -7.37037e-07
-2.96552e-07 -7.37037e-07 -0.000131468
0.000438007 2.47157e-05 4.96282e-07
2.47157e-05 -1.47217e-05 -7.49544e-06
4.96282e-07 -7.49544e-06 -4.53447e-05
0.000239807 5.08861e-05 -2.50513e-06
5.08861e-05 -0.000105361 -2.50234e-06
-2.50513e-06 -2.50234e-06 -0.000205789
0.000601524 0.000105019 -1.38679e-06
0.000105019 0.000171681 -3.09926e-06
-1.38679e-06 -3.09926e-06 1.28351e-05
0.00231271 -3.14012e-05 -2.37678e-05
-3.14012e-05 0.00120037 -5.79014e-06
-2.37678e-05 -5.79014e-06 0.00121389
0.000402225 2.1226e-06 1.13529e-06
2.1226e-06 -4.23745e-05 -2.87652e-07
1.13529e-06 -2.87652e-07 -6.41076e-05
8.01971e-05 2.45219e-05 -1.60989e-06
2.45219e-05 -0.000211392 1.84982e-06
-1.60989e-06 1.84982e-06 -0.000300354
0.00216728 -1.43015e-05 -6.13747e-06
-1.43015e-05 0.00110486 1.25546e-07
-6.13747e-06 1.25546e-07 0.00112059
0.000408952 2.70537e-06 -4.22074e-06
2.70537e-06 -4.01383e-05 4.93231e-06
-4.22074e-06 4.93231e-06 -5.58675e-05
0.00212901 1.90838e-06 1.59146e-05
1.90838e-06 0.00108081 5.41592e-06
1.59146e-05 5.41592e-06 0.00109701
0.00264172 -0.000344915 -0.000165033
-0.000344915 0.00170282 1.60105e-05
-0.000165033 1.60105e-05 -0.000371415
-0.00175817 -3.48053e-05 0.00015356
-3.48053e-05 0.00418021 -5.22257e-06
0.00015356 -5.22257e-06 0.00143482
-0.000620798 -0.000404359 0.0001586
-0.000404359 0.00142137 -0.000276237
0.0001586 -0.000276237 -0.00473594
-0.000367307 -2.0097e-05 3.77507e-06
-2.0097e-05 -0.000331046 -5.60397e-06
3.77507e-06 -5.60397e-06 -0.000647806
0.0039756 0.000400054 1.06882e-05
0.000400054 0.00231776 1.07338e-05
1.06882e-05 1.07338e-05 0.0020655
0.000369101 0.00015767 -4.79922e-06
0.00015767 2.10162e-05 -9.35897e-06
-4.79922e-06 -9.35897e-06 -0.000155431
-0.00012358 6.99978e-05 7.61358e-07
6.99978e-05 -0.000288962 -3.1142e-06
7.61358e-07 -3.1142e-06 -0.000489707
0.000169429 0.000108244 3.21564e-09
0.000108244 -0.000151564 -2.17841e-06
3.21564e-09 -2.17841e-06 -0.000284908
0.000456815 0.000120594 6.01173e-06
0.000120594 7.90894e-05 1.24893e-05
6.01173e-06 1.24893e-05 -0.00010708
-0.000542703 4.16147e-05 1.65076e-05
4.16147e-05 -0.000560543 8.39218e-06
1.65076e-05 8.39218e-06 -0.000651669
0.00435215 0.00192727 0.000287027
0.00192727 0.000207928 0.000250956
0.000287027 0.000250956 -0.0021636
0.00742196 -0.000469613 -0.000119111
-0.000469613 0.000447347 4.39837e-05
-0.000119111 4.39837e-05 -0.00211028
0.00542596 -0.00102134 0.000466607
-0.00102134 0.00463318 -0.000133727
0.000466607 -0.000133727 0.00178806
0.010665 1.06926e-05 -2.70326e-05
1.06926e-05 -0.00458737 0.000208415
-2.70326e-05 0.000208415 -0.0029876
0.00706512 -0.00550077 -0.000175077
-0.00550077 0.000871989 3.7598e-05
-0.000175077 3.7598e-05 0.0016806
0.000421157 -0.00632799 -0.000472364
-0.00632799 0.00213367 0.000181469
-0.000472364 0.000181469 -0.00468596
0.0240039 0.00479377 0.000289263
0.00479377 0.00950204 -0.000265377
0.000289263 -0.000265377 0.00278259
0.00256188 -0.00441063 -8.38079e-05
-0.00441063 0.000626171 4.96584e-05
-8.38079e-05 4.96584e-05 0.000887922
-7.99102e-05 -0.00169543 -0.000104709
-0.00169543 0.00579284 6.58647e-05
-0.000104709 6.58647e-05 -0.00282581
0.0143075 0.000228741 0.000345855
0.000228741 0.00545932 -4.50184e-05
0.000345855 -4.50184e-05 0.000243482
0.019202 -0.00199262 -8.21502e-05
-0.00199262 0.00296833 -2.24449e-06
-8.21502e-05 -2.24449e-06 0.00289643
-0.00524272 -0.000659598 -0.000247208
-0.000659598 -0.000655762 0.000233509
-0.000247208 0.000233509 -0.00137292
0.00151225 0.00133591 -0.000262181
0.00133591 0.00602075 -0.000197481
-0.000262181 -0.000197481 -0.00262398
0.00780845 -0.00654535 -3.72853e-05
-0.00654535 0.00259597 -0.000274478
-3.72853e-05 -0.000274478 -0.00507824
0.0196539 -0.00293889 0.000410845
-0.00293889 0.00869953 -0.000778189
0.000410845 -0.000778189 0.00434648
-1.93961e-05 2.80026e-05 3.02579e-05
2.80026e-05 0.000222545 -2.44422e-06
3.02579e-05 -2.44422e-06 -0.000198794
0.000639395 0.000202108 -6.19303e-07
0.000202108 0.000295491 -3.11923e-06
-6.19303e-07 -3.11923e-06 0.000129925
0.000537551 -3.19289e-05 1.47844e-06
-3.19289e-05 0.000246411 -6.4853e-06
1.47844e-06 -6.4853e-06 6.71699e-06
0.000924443 0.000197738 -3.58898e-06
0.000197738 0.000367024 -1.40653e-05
-3.58898e-06 -1.40653e-05 0.000180709
0.00127057 -0.0018745 9.95124e-05
-0.0018745 0.000908433 2.49748e-05
9.95124e-05 2.49748e-05 -4.39501e-05
0.000683025 -0.000468992 -1.67275e-06
-0.000468992 0.00108243 -1.55816e-05
-1.67275e-06 -1.55816e-05 0.000291973
0.000290991 9.18282e-05 -3.30461e-05
9.18282e-05 0.000209531 -1.22759e-05
-3.30461e-05 -1.22759e-05 -3.66926e-06
0.00126587 -0.000176578 6.75248e-06
-0.000176578 0.000971516 -4.00337e-05
6.75248e-06 -4.00337e-05 0.000600633
-0.000145578 -6.96266e-05 -1.52891e-05
-6.96266e-05 0.000476162 6.12041e-06
-1.52891e-05 6.12041e-06 -9.1875e-05
5.9988e-05 0.000125777 1.53425e-06
0.000125777 0.000239519 5.79027e-06
1.53425e-06 5.79027e-06 -0.000104996
0.00100323 -0.000113296 1.46463e-07
-0.000113296 0.0012083 1.06945e-06
1.46463e-07 1.06945e-06 0.000617362
0.000680728 -0.00117564 1.8241e-05
-0.00117564 0.0016407 -1.16667e-05
1.8241e-05 -1.16667e-05 -4.42601e-05
0.000818046 -0.000174332 -7.50204e-07
-0.000174332 0.00155684 -1.70097e-05
-7.50204e-07 -1.70097e-05 0.00083427
0.000649372 0.000147352 3.54556e-06
0.000147352 0.000652783 -1.09251e-05
3.54556e-06 -1.09251e-05 0.000298057
-0.00120206 0.000254738 -0.000227199
0.000254738 0.00248883 -8.27371e-06
-0.000227199 -8.27371e-06 0.00010174
0.000895431 0.000486774 1.41171e-05
0.000486774 0.00138181 -1.16652e-06
1.41171e-05 -1.16652e-06 0.00071201
-0.00348791 -0.000110188 -8.83091e-05
-0.000110188 0.00382344 -9.86715e-05
-8.83091e-05 -9.86715e-05 0.00134939
0.0022204 0.000203924 3.5941e-05
0.000203924 0.00103205 1.91338e-05
3.5941e-05 1.91338e-05 -0.0013257
-0.00431639 0.00130891 -0.000101668
0.00130891 0.00311573 -0.000101436
-0.000101668 -0.000101436 1.6607e-05
0.000159168 0.000505792 -1.92758e-05
0.000505792 0.000819556 1.81806e-06
-1.92758e-05 1.81806e-06 0.000187081
-0.00124013 0.00126057 0.000264681
0.00126057 0.00111569 0.000119963
0.000264681 0.000119963 -0.000161942
0.00109898 7.95233e-05 0.000103435
7.95233e-05 0.00217347 -1.10301e-05
0.000103435 -1.10301e-05 0.00044635
0.006768 -0.00227808 0.000388228
-0.00227808 0.00681251 -0.000231574
0.000388228 -0.000231574 -0.00286056
0.025331 0.00444282 -0.000342192
0.00444282 0.00975317 0.000258143
-0.000342192 0.000258143 0.00257468
0.00319521 -0.000961819 -0.000435088
-0.000961819 0.00312287 8.19854e-05
-0.000435088 8.19854e-05 0.000536112
0.016167 0.00577616 -0.000315299
0.00577616 0.0111628 -0.000315382
-0.000315299 -0.000315382 0.00590375
0.000658017 0.000237522 -5.17031e-05
0.000237522 0.00176189 5.60723e-06
-5.17031e-05 5.60723e-06 0.000261155
-0.000512049 -0.000577646 -0.000147371
-0.000577646 0.00411743 2.65499e-06
-0.000147371 2.65499e-06 0.00203548
0.00228581 -0.00219569 0.00031028
-0.00219569 0.00219236 -6.46409e-05
0.00031028 -6.46409e-05 -0.00357853
-0.0039658 2.66984e-05 8.31653e-05
2.66984e-05 0.000455505 4.31459e-05
8.31653e-05 4.31459e-05 -0.000465635
0.0284628 0.0158408 0.000934062
0.0158408 0.0199572 -0.000299552
0.000934062 -0.000299552 0.0094942
0.0129024 0.00350779 -0.000152129
0.00350779 0.00878312 0.000483474
-0.000152129 0.000483474 0.000685402
-0.00155922 -0.00190743 0.000300768
-0.00190743 0.00421744 -0.000209008
0.000300768 -0.000209008 -0.00478676
-0.00263882 -0.000708432 -4.73129e-05
-0.000708432 0.00030941 -4.23335e-05
-4.73129e-05 -4.23335e-05 -0.00130376
0.00152284 -0.00135344 0.000439185
-0.00135344 0.00012499 -0.00011353
0.000439185 -0.00011353 -0.00460242
0.00324254 0.00346032 -0.00234757
0.00346032 0.0119871 0.000335189
-0.00234757 0.000335189 0.00426002
0.0252171 0.00951315 -0.000635074
0.00951315 0.010562 0.000460031
-0.000635074 0.000460031 0.00185314
0.0066665 -0.00555757 -0.00029537
-0.00555757 0.00396545 0.000142925
-0.00029537 0.000142925 0.000234613
0.00380656 -0.0028985 8.48714e-05
-0.0028985 0.00450803 3.12084e-05
8.48714e-05 3.12084e-05 0.00274596
3.16188e-05 -0.000104085 7.9819e-06
-0.000104085 0.000676366 -2.07941e-05
7.9819e-06 -2.07941e-05 -9.27268e-05
0.00021253 -0.000524605 6.93029e-06
-0.000524605 0.000672769 -2.87204e-06
6.93029e-06 -2.87204e-06 -0.000164021
0.000420414 -0.00124888 -6.06346e-06
-0.00124888 0.000453035 1.0645e-05
-6.06346e-06 1.0645e-05 -0.000276732
-8.60074e-05 -0.000224496 -2.13358e-06
-0.000224496 0.000382768 1.06186e-05
-2.13358e-06 1.06186e-05 -8.78916e-06
0.000354398 -0.000622611 -3.45475e-06
-0.000622611 0.0003568 4.44792e-06
-3.45475e-06 4.44792e-06 -0.000104665
0.00232104 -0.00110484 3.78912e-05
-0.00110484 0.000953857 -3.01367e-05
3.78912e-05 -3.01367e-05 0.000382065
0.00624139 -0.00145319 -1.15826e-05
-0.00145319 0.00332663 3.50554e-06
-1.15826e-05 3.50554e-06 0.0027007
0.0027635 -0.00109046 1.18849e-05
-0.00109046 0.00130724 -4.03713e-06
1.18849e-05 -4.03713e-06 0.000451673
0.00275274 -0.00137183 5.19326e-06
-0.00137183 0.000898946 -1.94919e-05
5.19326e-06 -1.94919e-05 3.80964e-05
0.0027883 -0.00098997 -1.0664e-05
-0.00098997 0.00120251 -8.3162e-06
-1.0664e-05 -8.3162e-06 0.000540635
0.00222307 -0.00115867 6.00172e-07
-0.00115867 0.000713802 -2.13557e-06
6.00172e-07 -2.13557e-06 -8.61144e-05
0.00296536 -0.00138616 -8.29987e-06
-0.00138616 0.000949802 -1.00297e-05
-8.29987e-06 -1.00297e-05 0.000178597
0.0025798 -0.00100137 -1.73894e-06
-0.00100137 0.000499474 -6.74168e-06
-1.73894e-06 -6.74168e-06 1.12277e-05
0.00307147 -0.00130637 -1.11166e-05
-0.00130637 0.00098772 -1.3895e-06
-1.11166e-05 -1.3895e-06 0.000314996
0.00289295 -0.00131516 -4.23794e-06
-0.00131516 0.000913372 -4.66955e-07
-4.23794e-06 -4.66955e-07 0.00020383
0.00227973 -0.00112881 8.18916e-06
-0.00112881 0.000780334 -7.11186e-06
8.18916e-06 -7.11186e-06 0.000126038
0.00188572 -0.00106646 3.7814e-06
-0.00106646 0.000543285 -1.25379e-06
3.7814e-06 -1.25379e-06 -9.92493e-05
0.0019181 -0.000980624 7.70662e-06
-0.000980624 0.000616819 -2.3956e-06
7.70662e-06 -2.3956e-06 -2.54697e-05
0.00159304 -0.000733811 1.08815e-05
-0.000733811 0.000540995 9.42972e-07
1.08815e-05 9.42972e-07 1.34539e-05
0.001907 -0.000879395 -1.35795e-06
-0.000879395 0.000691662 -1.93516e-06
-1.35795e-06 -1.93516e-06 0.000116985
0.00187109 -0.000934748 1.44197e-06
-0.000934748 0.000598722 6.59468e-06
1.44197e-06 6.59468e-06 9.88204e-06
0.00179876 -0.000272304 -8.82229e-07
-0.000272304 0.000806576 -5.31692e-06
-8.82229e-07 -5.31692e-06 0.000520674
0.000959137 -0.000344743 -4.91459e-06
-0.000344743 0.000222788 3.03334e-06
-4.91459e-06 3.03334e-06 -0.000113089
0.000980686 -0.000586573 -7.29175e-06
-0.000586573 0.000173892 -6.4688e-06
-7.29175e-06 -6.4688e-06 -0.000280041
0.000429873 -0.000108134 7.15511e-07
-0.000108134 2.47271e-05 2.25306e-06
7.15511e-07 2.25306e-06 -0.000239418
0.000604371 -0.000218367 -4.6426e-07
-0.000218367 0.000156472 1.49469e-06
-4.6426e-07 1.49469e-06 -0.000152242
0.000514982 -0.000265757 2.78272e-06
-0.000265757 5.0121e-05 1.34572e-07
2.78272e-06 1.34572e-07 -0.000281361
0.000298935 -6.19798e-05 -1.2634e-05
-6.19798e-05 -0.000106768 1.95683e-05
-1.2634e-05 1.95683e-05 -0.000175724
0.000713171 -0.000116887 2.45695e-08
-0.000116887 0.000211331 6.02657e-07
2.45695e-08 6.02657e-07 -2.36109e-06
0.00175921 -0.000318563 -7.39638e-07
-0.000318563 0.000937979 4.1444e-06
-7.39638e-07 4.1444e-06 0.000622973
0.00106236 -0.000135106 2.64406e-07
-0.000135106 0.000409742 -7.94783e-06
2.64406e-07 -7.94783e-06 0.000244025
0.000402624 -2.08068e-05 -5.31045e-07
-2.08068e-05 -2.83452e-05 -5.62193e-07
-5.31045e-07 -5.62193e-07 -8.81972e-05
0.00346673 0.000135217 -5.11883e-05
0.000135217 0.0019755 6.75572e-06
-5.11883e-05 6.75572e-06 0.00196727
0.000467462 -3.42267e-05 3.84348e-06
-3.42267e-05 7.33134e-06 -1.17483e-05
3.84348e-06 -1.17483e-05 -4.06163e-05
0.00316207 0.000101363 7.32402e-06
0.000101363 0.00176468 8.60301e-07
7.32402e-06 8.60301e-07 0.00176508
0.00291835 7.26499e-05 4.62071e-05
7.26499e-05 0.00159697 -6.07987e-06
4.62071e-05 -6.07987e-06 0.00160357
0.00229606 7.91906e-05 9.63073e-06
7.91906e-05 0.00143723 -9.58579e-06
9.63073e-06 -9.58579e-06 0.00106426
0.00218261 0.000230875 9.33522e-06
0.000230875 0.00131991 -1.70793e-05
9.33522e-06 -1.70793e-05 0.00100759
0.000550202 6.60167e-05 5.65043e-06
6.60167e-05 8.72108e-05 -7.2283e-06
5.65043e-06 -7.2283e-06 -3.85072e-05
0.000764218 0.000162329 -3.22738e-07
0.000162329 0.000287208 1.31687e-06
-3.22738e-07 1.31687e-06 9.11659e-05
0.000428221 -1.56391e-05 5.31585e-06
-1.56391e-05 -1.87866e-05 -8.98742e-06
5.31585e-06 -8.98742e-06 -5.53355e-05
0.000542508 8.01869e-05 4.28299e-08
8.01869e-05 9.27045e-05 -3.61957e-07
4.28299e-08 -3.61957e-07 -2.02616e-05
0.000694555 7.33504e-05 -6.06483e-06
7.33504e-05 0.000217511 -4.05255e-06
-6.06483e-06 -4.05255e-06 5.17355e-05
0.00260717 -5.02396e-05 -3.18422e-05
-5.02396e-05 0.00139556 -6.19604e-06
-3.18422e-05 -6.19604e-06 0.00140561
0.000430302 6.13885e-06 -1.86715e-06
6.13885e-06 -2.02132e-05 -2.55506e-07
-1.86715e-06 -2.55506e-07 -4.97264e-05
0.000527607 7.91222e-05 -5.1102e-06
7.91222e-05 8.47673e-05 1.4297e-06
-5.1102e-06 1.4297e-06 -1.75833e-05
0.00233855 -3.21059e-05 -5.59521e-06
-3.21059e-05 0.00121728 3.20833e-07
-5.59521e-06 3.20833e-07 0.00123073
0.000424403 7.18408e-06 -3.50271e-06
7.18408e-06 -2.91059e-05 5.5033e-06
-3.50271e-06 5.5033e-06 -5.01159e-05
0.00216937 -1.42835e-05 1.8799e-05
-1.42835e-05 0.00110592 5.38178e-06
1.8799e-05 5.38178e-06 0.00112168
-0.0024832 0.000955952 -3.4195e-05
0.000955952 0.00241115 -0.000134063
-3.4195e-05 -0.000134063 -0.000225336
0.00386706 -0.00035634 -2.97965e-05
-0.00035634 0.00259811 -5.99069e-05
-2.97965e-05 -5.99069e-05 0.000760149
0.000252102 -0.000444333 5.25103e-05
-0.000444333 0.00408054 -6.96646e-05
5.25103e-05 -6.96646e-05 0.00178258
0.00055798 2.99211e-05 2.81016e-06
2.99211e-05 0.000350541 -8.13271e-06
2.81016e-06 -8.13271e-06 -4.89899e-05
-0.00018124 0.000216432 9.17577e-06
0.000216432 -0.000290566 -5.86347e-06
9.17577e-06 -5.86347e-06 -0.000528199
-0.002116 4.51609e-05 2.42477e-05
4.51609e-05 -0.00166679 -1.5193e-05
2.42477e-05 -1.5193e-05 -0.00185264
-0.00262683 -2.89411e-05 -6.21249e-06
-2.89411e-05 -0.00165013 2.22404e-05
-6.21249e-06 2.22404e-05 -0.00202827
0.00120081 0.000331679 4.94136e-06
0.000331679 0.000525519 -1.73696e-06
4.94136e-06 -1.73696e-06 0.000241346
0.000623709 5.44392e-05 -7.24413e-06
5.44392e-05 0.000190229 -6.55517e-07
-7.24413e-06 -6.55517e-07 -3.24776e-05
0.00015015 0.000121905 -1.0092e-05
0.000121905 -0.00013164 -1.52249e-05
-1.0092e-05 -1.52249e-05 -0.000266464
0.00128387 -1.53179e-06 7.26827e-06
-1.53179e-06 0.00059421 2.12689e-06
7.26827e-06 2.12689e-06 0.000415848
0.000909311 0.000196609 -3.02401e-06
0.000196609 0.000396035 -6.41686e-06
-3.02401e-06 -6.41686e-06 0.000279247
0.00286726 0.000224067 -4.65787e-06
0.000224067 0.00184279 -1.39671e-05
-4.65787e-06 -1.39671e-05 0.00150352
0.0090789 0.0025684 0.000772026
0.0025684 0.00603919 0.000619786
0.000772026 0.000619786 0.000710348
0.00398362 0.00153999 2.6499e-05
0.00153999 0.00127129 8.22488e-05
2.6499e-05 8.22488e-05 -0.00139479
0.00730481 -0.000336592 0.000159289
-0.000336592 0.000124987 -3.70266e-06
0.000159289 -3.70266e-06 -0.00156318
0.0149425 -0.000815217 -0.000298444
-0.000815217 0.00233836 -0.000134569
-0.000298444 -0.000134569 0.00382454
0.00253004 0.000804369 0.000141976
0.000804369 -0.00126787 0.000472105
0.000141976 0.000472105 -0.00741364
0.00318471 -0.00454284 -8.0518e-05
-0.00454284 0.00153779 3.43909e-06
-8.0518e-05 3.43909e-06 0.00137793
0.00383259 -0.00215502 -0.000345265
-0.00215502 0.00559492 0.00011552
-0.000345265 0.00011552 -0.00101521
-0.000647914 -0.0016939 -0.000106231
-0.0016939 0.000983947 0.000138373
-0.000106231 0.000138373 4.59832e-05
0.0119242 -0.000309317 -0.000336968
-0.000309317 0.0087789 -9.85103e-07
-0.000336968 -9.85103e-07 0.000983523
0.00956578 -0.00317872 0.000156953
-0.00317872 0.00585342 0.000268839
0.000156953 0.000268839 -0.00134926
0.0266652 -0.0059678 0.000145991
-0.0059678 0.00898842 -0.000964247
0.000145991 -0.000964247 0.00252251
-0.000145405 0.000405487 -0.000189152
0.000405487 0.00300299 0.000118236
-0.000189152 0.000118236 0.00098895
0.00536828 0.00226046 -0.000288361
0.00226046 0.00663392 -0.000101133
-0.000288361 -0.000101133 -0.000239948
0.0282259 -0.0100438 0.000479163
-0.0100438 0.0159362 -0.00106689
0.000479163 -0.00106689 0.00631842
0.0326255 -0.0149602 8.58219e-05
-0.0149602 0.0186025 -8.08834e-05
8.58219e-05 -8.08834e-05 0.00855743
-0.000184266 0.000359403 3.12633e-05
0.000359403 3.16878e-05 1.95427e-05
3.12633e-05 1.95427e-05 -0.000460058
-0.000151258 7.8037e-05 1.2015e-05
7.8037e-05 0.000209238 1.74605e-06
1.2015e-05 1.74605e-06 -0.000259924
0.000986195 0.000196614 -2.67541e-05
0.000196614 0.000517899 -1.52454e-05
-2.67541e-05 -1.52454e-05 0.000346238
0.00359032 -0.00160494 0.000107198
-0.00160494 0.00284317 -5.79745e-06
0.000107198 -5.79745e-06 0.000778307
-0.00118249 -0.000197156 0.000110289
-0.000197156 0.000691693 1.16579e-05
0.000110289 1.16579e-05 -0.000147268
-0.000274321 0.000104066 -1.4114e-05
0.000104066 6.5862e-06 5.446e-06
-1.4114e-05 5.446e-06 -0.000321479
-0.000377271 -0.000256938 1.4427e-05
-0.000256938 0.00053188 -9.88936e-06
1.4427e-05 -9.88936e-06 -0.000212155
-0.000278751 0.000147093 -7.83999e-06
0.000147093 0.000117218 1.36147e-06
-7.83999e-06 1.36147e-06 -0.000242271
-0.000509998 0.000338478 2.75076e-05
0.000338478 0.000432626 7.96405e-06
2.75076e-05 7.96405e-06 -0.000289312
-0.00241362 0.000109845 0.000173234
0.000109845 0.00156475 -7.66583e-05
0.000173234 -7.66583e-05 -0.000690465
0.00185021 0.000924154 5.15319e-05
0.000924154 0.00101599 5.10254e-05
5.15319e-05 5.10254e-05 0.000496469
0.00150884 0.00119416 -0.000122967
0.00119416 0.00196905 -0.000127784
-0.000122967 -0.000127784 4.25448e-05
0.000210988 -0.000310022 0.000307208
-0.000310022 0.00176251 0.000117051
0.000307208 0.000117051 -0.00383078
-0.00321707 0.000581961 -0.000185503
0.000581961 0.00361394 -2.74852e-06
-0.000185503 -2.74852e-06 0.000512671
0.0046622 -0.00047576 -0.000117376
-0.00047576 0.00275256 2.8943e-06
-0.000117376 2.8943e-06 0.00173306
0.000419572 0.0006637 7.20371e-05
0.0006637 0.00129925 2.02262e-05
7.20371e-05 2.02262e-05 -0.000280722
0.000531928 0.00033303 -0.000108671
0.00033303 0.00319212 0.00011359
-0.000108671 0.00011359 0.00111792
-0.00118848 -0.000245058 -2.98509e-05
-0.000245058 0.0031862 -6.41922e-05
-2.98509e-05 -6.41922e-05 0.000705516
0.0147738 -0.00606202 0.000396664
-0.00606202 0.00947114 -0.000245136
0.000396664 -0.000245136 0.000963834
0.0286317 0.00800944 -0.000668518
0.00800944 0.015673 -0.000332855
-0.000668518 -0.000332855 0.00586044
0.00655759 -0.0028084 -0.000533536
-0.0028084 0.00369192 0.00035277
-0.000533536 0.00035277 -0.00116868
0.0212565 0.0190259 0.00317374
0.0190259 0.0157694 -0.0018848
0.00317374 -0.0018848 0.00482014
0.000195414 -0.000815392 4.66961e-05
-0.000815392 0.00162459 -1.22513e-05
4.66961e-05 -1.22513e-05 -3.33409e-05
1.15228e-05 -0.000898168 8.95373e-05
-0.000898168 0.00109068 6.78849e-06
8.95373e-05 6.78849e-06 -0.00434877
0.00624665 0.00412415 -0.00166116
0.00412415 0.0113228 0.000235349
-0.00166116 0.000235349 0.00312275
0.000215299 -0.00163695 5.21854e-05
-0.00163695 0.00208072 2.86987e-05
5.21854e-05 2.86987e-05 0.000735845
0.0273874 0.00938211 0.000504387
0.00938211 0.0115107 0.000199357
0.000504387 0.000199357 0.00286462
0.00615122 -0.0082055 0.000402324
-0.0082055 0.00297152 -0.000106915
0.000402324 -0.000106915 -0.0017565
-0.000324374 -0.00213379 7.4814e-06
-0.00213379 0.000541368 4.91934e-05
7.4814e-06 4.91934e-05 -0.000949421
-0.00193033 -0.00178132 0.000213294
-0.00178132 0.00938373 -0.000124433
0.000213294 -0.000124433 0.00381025
0.0214437 0.010161 -0.00234178
0.010161 0.00934849 0.000402404
-0.00234178 0.000402404 0.00224005
0.00508346 -0.00692745 -0.000768243
-0.00692745 -0.00241406 0.000261216
-0.000768243 0.000261216 -0.00394843
-0.00105039 -0.00282182 0.000206116
-0.00282182 -0.000299471 -0.00016533
0.000206116 -0.00016533 0.000603474
0.0016189 -0.000731603 -0.000130817
-0.000731603 0.00128911 4.87871e-05
-0.000130817 4.87871e-05 0.000488834
0.000204149 -0.0010035 -1.45932e-05
-0.0010035 0.00040979 1.20209e-05
-1.45932e-05 1.20209e-05 -0.000315199
0.000562124 -0.00109203 1.39134e-05
-0.00109203 0.000101915 -3.0506e-05
1.39134e-05 -3.0506e-05 -0.000481414
-0.000669397 -0.000362249 9.20165e-06
-0.000362249 -2.79771e-05 4.07223e-06
9.20165e-06 4.07223e-06 -0.000445429
0.000806213 -0.000903312 6.61712e-06
-0.000903312 0.0001754 -9.01053e-07
6.61712e-06 -9.01053e-07 -0.000351656
0.00322538 -0.00146753 8.91864e-06
-0.00146753 0.000924307 -1.63704e-05
8.91864e-06 -1.63704e-05 0.000357168
0.00438503 -0.00134889 -3.52803e-05
-0.00134889 0.0021173 6.68675e-06
-3.52803e-05 6.68675e-06 0.00125156
0.00220346 -0.00126353 -4.93848e-06
-0.00126353 0.000588901 -6.32506e-07
-4.93848e-06 -6.32506e-07 -0.000239287
0.0028922 -0.0014769 3.07088e-06
-0.0014769 0.000675152 -8.31002e-06
3.07088e-06 -8.31002e-06 -7.712e-06
0.0031672 -0.00130034 7.82976e-06
-0.00130034 0.00122361 4.53706e-06
7.82976e-06 4.53706e-06 0.000397021
0.00269038 -0.00133573 3.41157e-06
-0.00133573 0.000794561 -3.66275e-06
3.41157e-06 -3.66275e-06 4.79168e-05
0.00281922 -0.00107353 -3.14382e-06
-0.00107353 0.000586078 -6.42276e-06
-3.14382e-06 -6.42276e-06 9.70098e-05
0.00207424 -0.000648353 -1.06711e-06
-0.000648353 3.69441e-05 -2.5023e-06
-1.06711e-06 -2.5023e-06 -0.000223666
0.00213092 -0.00096077 9.49122e-07
-0.00096077 0.000170972 -3.80779e-06
9.49122e-07 -3.80779e-06 -0.000307441
0.00251166 -0.00100469 3.83369e-06
-0.00100469 0.000443633 -2.24855e-06
3.83369e-06 -2.24855e-06 -4.52722e-05
0.00294066 -0.00117223 -3.99358e-06
-0.00117223 0.00096714 -3.03077e-06
-3.99358e-06 -3.03077e-06 0.000356872
0.00303951 -0.00130075 -4.28193e-06
-0.00130075 0.000975295 -3.47733e-07
-4.28193e-06 -3.47733e-07 0.000298489
0.00272414 -0.00129182 1.03924e-05
-0.00129182 0.000813378 -3.03754e-06
1.03924e-05 -3.03754e-06 0.000105739
0.00205414 -0.000997543 7.27325e-06
-0.000997543 0.00069249 -8.28408e-06
7.27325e-06 -8.28408e-06 6.96861e-05
0.00199868 -0.0010887 1.9601e-06
-0.0010887 0.000622585 -8.52192e-07
1.9601e-06 -8.52192e-07 -2.05162e-05
0.0015297 -0.000998469 4.12777e-06
-0.000998469 0.000345289 2.61507e-06
4.12777e-06 2.61507e-06 -0.000270146
0.00238099 -0.000487004 3.43896e-06
-0.000487004 0.00109934 7.82915e-06
3.43896e-06 7.82915e-06 0.000732385
0.00148918 -0.000703837 7.25509e-07
-0.000703837 0.000514062 2.35161e-06
7.25509e-07 2.35161e-06 2.43631e-06
0.00220103 -0.000909719 -7.37915e-06
-0.000909719 0.000887085 7.88638e-06
-7.37915e-06 7.88638e-06 0.000306065
0.000360069 -0.000214768 -4.75667e-06
-0.000214768 -9.61565e-05 -5.20773e-06
-4.75667e-06 -5.20773e-06 -0.000341666
0.000607404 -0.000258652 -3.60832e-06
-0.000258652 6.74051e-05 -4.68939e-06
-3.60832e-06 -4.68939e-06 -0.000227974
0.000746358 -0.000278036 -6.77621e-07
-0.000278036 0.000119969 -1.14482e-06
-6.77621e-07 -1.14482e-06 -0.000204318
0.00211645 -4.73711e-05 -6.89736e-05
-4.73711e-05 0.00107322 1.31819e-05
-6.89736e-05 1.31819e-05 0.00099279
0.00054193 -0.000210719 2.78035e-06
-0.000210719 8.06003e-05 1.19512e-06
2.78035e-06 1.19512e-06 -0.000174544
0.00102769 -0.000316473 3.44578e-06
-0.000316473 0.000427774 5.40111e-06
3.44578e-06 5.40111e-06 0.000108938
0.000793625 3.87897e-06 -8.07949e-05
3.87897e-06 0.000226734 8.99483e-06
-8.07949e-05 8.99483e-06 0.000212288
0.00126866 -4.65954e-05 -2.46425e-05
-4.65954e-05 0.000525798 -6.5726e-07
-2.46425e-05 -6.5726e-07 0.000456639
0.00125567 -0.000148235 1.64929e-06
-0.000148235 0.000542776 -6.17745e-06
1.64929e-06 -6.17745e-06 0.000335751
0.00056458 -4.02309e-05 6.89455e-06
-4.02309e-05 6.85923e-05 -1.37494e-05
6.89455e-06 -1.37494e-05 9.23113e-06
0.00368562 0.000135181 1.31623e-05
0.000135181 0.00211819 1.07504e-06
1.31623e-05 1.07504e-06 0.00211055
0.00330808 0.000100985 5.52046e-05
0.000100985 0.00185956 -6.38444e-06
5.52046e-05 -6.38444e-06 0.0018602
-0.000278037 0.000136698 3.81203e-06
0.000136698 -0.000398455 9.73166e-06
3.81203e-06 9.73166e-06 -0.000674615
0.0021907 0.000223317 7.09869e-06
0.000223317 0.00133734 -1.71549e-05
7.09869e-06 -1.71549e-05 0.000967416
-0.000639361 6.30616e-05 4.60447e-06
6.30616e-05 -0.000449928 -8.18205e-11
4.60447e-06 -8.18205e-11 -0.000798554
0.000672629 0.000105311 6.70619e-07
0.000105311 0.000174036 -1.13485e-05
6.70619e-07 -1.13485e-05 1.9681e-05
0.000540496 0.000146992 3.21492e-06
0.000146992 0.00019511 -5.05291e-07
3.21492e-06 -5.05291e-07 -6.68489e-05
0.000380165 1.52677e-05 -1.83023e-06
1.52677e-05 -3.80113e-05 -1.24272e-05
-1.83023e-06 -1.24272e-05 -8.45316e-05
0.000535735 7.76154e-05 -1.33364e-08
7.76154e-05 8.84021e-05 -1.74151e-07
-1.33364e-08 -1.74151e-07 -4.17184e-05
0.000755907 9.01599e-05 -5.66342e-06
9.01599e-05 0.000305905 4.05471e-06
-5.66342e-06 4.05471e-06 0.000100254
0.00286643 -7.01894e-05 -4.18506e-05
-7.01894e-05 0.00156986 -6.21158e-06
-4.18506e-05 -6.21158e-06 0.00157662
0.000385343 1.05673e-05 -5.99196e-07
1.05673e-05 -4.33427e-05 2.58324e-08
-5.99196e-07 2.58324e-08 -8.07197e-05
0.000430469 7.90402e-05 -2.81103e-06
7.90402e-05 2.14859e-05 4.29437e-06
-2.81103e-06 4.29437e-06 -9.10001e-05
0.00253089 -5.16851e-05 -7.745e-06
-5.16851e-05 0.00134585 5.08469e-07
-7.745e-06 5.08469e-07 0.00135584
0.000340419 -1.66191e-05 -7.71642e-06
-1.66191e-05 -7.85859e-05 6.89806e-06
-7.71642e-06 6.89806e-06 -0.000107069
0.00227841 -3.04177e-05 2.38622e-05
-3.04177e-05 0.00117788 5.55474e-06
2.38622e-05 5.55474e-06 0.00119197
0.00694576 0.00146743 0.000608084
0.00146743 0.00537125 0.000150966
0.000608084 0.000150966 0.00166714
-0.00228144 0.000842171 -1.97396e-05
0.000842171 0.00207258 -1.41196e-05
-1.97396e-05 -1.41196e-05 -0.000877601
0.000525812 0.00102236 -7.2701e-06
0.00102236 0.00271245 -2.12501e-05
-7.2701e-06 -2.12501e-05 0.000250791
-0.000523288 0.000275552 -1.08824e-05
0.000275552 -0.000638488 1.38124e-05
-1.08824e-05 1.38124e-05 -0.000933275
-0.000337618 5.87342e-05 -1.27889e-05
5.87342e-05 -0.000308073 2.76731e-05
-1.27889e-05 2.76731e-05 -0.000644291
0.000315359 0.000142164 -1.63282e-05
0.000142164 1.30468e-05 -1.27167e-05
-1.63282e-05 -1.27167e-05 -0.000191175
0.00189858 0.000165494 1.02704e-05
0.000165494 0.001072 9.21012e-08
1.02704e-05 9.21012e-08 0.000801895
0.000837855 0.000257802 -2.09566e-07
0.000257802 0.000177445 -1.10148e-05
-2.09566e-07 -1.10148e-05 -3.2178e-05
0.00279977 0.000484809 -2.13735e-05
0.000484809 0.00153849 -8.75634e-06
-2.13735e-05 -8.75634e-06 0.00130811
0.00125334 0.000370049 8.47579e-06
0.000370049 0.000478232 -2.05797e-05
8.47579e-06 -2.05797e-05 0.00010953
-0.00213162 0.000172996 -1.22239e-05
0.000172996 -0.00110352 3.30335e-06
-1.22239e-05 3.30335e-06 -0.00151766
-0.000542381 1.78735e-05 -3.47339e-06
1.78735e-05 -0.000512725 -1.65021e-05
-3.47339e-06 -1.65021e-05 -0.000706668
-0.00039513 6.35258e-05 -1.14896e-05
6.35258e-05 -0.000513152 -1.4486e-05
-1.14896e-05 -1.4486e-05 -0.000567911
-0.00104245 4.4202e-05 -7.03649e-06
4.4202e-05 -0.000571872 2.17635e-06
-7.03649e-06 2.17635e-06 -0.000916344
4.12634e-05 0.000349668 -3.57144e-06
0.000349668 0.000226489 1.13678e-05
-3.57144e-06 1.13678e-05 -0.000366139
0.00969556 -0.00779991 -0.000113003
-0.00779991 0.0110547 0.000200799
-0.000113003 0.000200799 0.000810439
0.00942232 0.00313821 0.00027819
0.00313821 0.0044408 0.000205946
0.00027819 0.000205946 -0.00168437
0.00451169 0.000878045 5.1545e-05
0.000878045 0.00210012 -7.25976e-05
5.1545e-05 -7.25976e-05 -0.000911414
0.0384676 -0.00926893 -0.00135201
-0.00926893 0.0131445 -0.000493344
-0.00135201 -0.000493344 0.00552146
0.00628653 -0.00138315 0.000353077
-0.00138315 0.00537505 0.000635029
0.000353077 0.000635029 0.000140025
0.0016444 -0.00115575 -0.000239255
-0.00115575 0.00596182 0.000177116
-0.000239255 0.000177116 -0.00271989
0.0003843 -0.00220394 5.83952e-05
-0.00220394 0.00219869 7.75913e-05
5.83952e-05 7.75913e-05 0.0004396
-0.00140349 -0.00010462 0.000208859
-0.00010462 0.00189084 4.40164e-05
0.000208859 4.40164e-05 0.000481049
0.0287706 -0.0168988 0.000541752
-0.0168988 0.017545 0.000557867
0.000541752 0.000557867 0.00687234
0.00414964 0.0025886 -0.000212704
0.0025886 0.00598572 -0.000134356
-0.000212704 -0.000134356 -0.00177857
0.0125908 -0.00536677 -0.000168473
-0.00536677 0.00992031 0.000182275
-0.000168473 0.000182275 0.000241233
-0.000409483 0.0011438 5.26297e-06
0.0011438 0.00165644 1.44342e-05
5.26297e-06 1.44342e-05 0.000560871
0.00631679 0.00614633 -0.000226782
0.00614633 0.00293001 2.93714e-07
-0.000226782 2.93714e-07 -0.00134181
0.0258637 -0.00887778 -0.00119197
-0.00887778 0.0108624 -0.000383788
-0.00119197 -0.000383788 0.00178809
0.00127664 0.000873056 2.04711e-05
0.000873056 0.000427908 2.04521e-05
2.04711e-05 2.04521e-05 0.000178241
0.00100474 0.000414623 8.69973e-06
0.000414623 0.000761349 4.89204e-06
8.69973e-06 4.89204e-06 0.000243817
-0.000308523 5.64253e-05 -3.65332e-05
5.64253e-05 0.000112893 -9.6655e-07
-3.65332e-05 -9.6655e-07 -0.000355242
-0.00244115 -0.000262297 -0.000150377
-0.000262297 0.00136825 -3.36857e-05
-0.000150377 -3.36857e-05 -0.000744917
0.00134498 0.000400245 -3.78789e-05
0.000400245 0.000971747 -1.11172e-05
-3.78789e-05 -1.11172e-05 0.000409852
-0.000280741 0.000220101 -6.52282e-06
0.000220101 0.000126252 3.02207e-06
-6.52282e-06 3.02207e-06 -0.000296578
0.00142673 0.000886104 8.02453e-06
0.000886104 0.00076829 3.81719e-07
8.02453e-06 3.81719e-07 0.000248933
-6.04975e-05 0.000992122 -2.14381e-06
0.000992122 0.00123753 -5.07005e-05
-2.14381e-06 -5.07005e-05 -0.000439965
0.00246317 0.00249086 0.000117452
0.00249086 0.00105091 2.8409e-05
0.000117452 2.8409e-05 -0.000375673
-0.00688586 0.00121373 0.000588398
0.00121373 0.00648919 -3.98725e-05
0.000588398 -3.98725e-05 -0.00284546
0.00198049 -0.000722997 -3.17472e-05
-0.000722997 0.00258543 9.91438e-05
-3.17472e-05 9.91438e-05 -0.0012324
-0.00312054 8.54665e-05 -4.18019e-05
8.54665e-05 0.00280195 0.000109516
-4.18019e-05 0.000109516 -0.000101627
-0.00121741 -0.000506689 -6.56796e-05
-0.000506689 0.000896274 1.25421e-05
-6.56796e-05 1.25421e-05 -0.000788329
-0.00177876 -0.00109547 -5.64486e-05
-0.00109547 0.000437739 4.23902e-05
-5.64486e-05 4.23902e-05 0.000198144
-0.00165636 -0.00116911 -0.000289174
-0.00116911 0.00150709 0.000197345
-0.000289174 0.000197345 -0.00437954
-0.00193713 -0.00615832 0.000311831
-0.00615832 0.00256601 -0.000180922
0.000311831 -0.000180922 -0.00482256
0.0194006 0.00750033 0.000959699
0.00750033 0.00598534 -0.000423423
0.000959699 -0.000423423 -0.00221665
0.0203309 0.00867153 -0.000430614
0.00867153 0.013282 0.000553297
-0.000430614 0.000553297 0.00345308
0.000717094 -0.00157618 -4.54568e-05
-0.00157618 0.0017075 1.12604e-05
-4.54568e-05 1.12604e-05 0.00029096
0.00518469 0.00209905 0.000339346
0.00209905 0.0116968 -6.9395e-05
0.000339346 -6.9395e-05 0.00429038
0.00738042 0.00695898 3.13303e-05
0.00695898 0.00316378 0.000111777
3.13303e-05 0.000111777 -0.00271507
0.00231468 -0.00467881 7.82183e-05
-0.00467881 0.000940547 -6.16419e-05
7.82183e-05 -6.16419e-05 0.000964832
0.0127844 -0.00753073 -1.22414e-06
-0.00753073 -0.000101589 1.58359e-05
-1.22414e-06 1.58359e-05 -0.00144801
0.0035126 -0.00275906 2.54288e-05
-0.00275906 0.00163189 2.13585e-05
2.54288e-05 2.13585e-05 0.000870881
-0.00500177 0.0029538 -0.0012381
0.0029538 -0.000133948 0.000175489
-0.0012381 0.000175489 -0.00597
0.0159593 -0.00481372 -0.000332492
-0.00481372 -0.000624645 7.90029e-05
-0.000332492 7.90029e-05 -0.000720101
0.004531 -0.00448324 0.00013711
-0.00448324 -0.00021631 -9.85727e-05
0.00013711 -9.85727e-05 0.00121071
0.000392273 -0.000814335 3.14122e-06
-0.000814335 0.000630497 -4.12178e-06
3.14122e-06 -4.12178e-06 -0.000111554
0.00230071 -0.0015187 3.14926e-05
-0.0015187 0.000845069 -1.20658e-05
3.14926e-05 -1.20658e-05 0.000284081
0.0019271 -0.0012645 9.42854e-06
-0.0012645 0.000246181 -1.49474e-05
9.42854e-06 -1.49474e-05 -0.000212757
-0.000224254 -0.000774509 -6.8132e-06
-0.000774509 -0.000357007 1.93043e-05
-6.8132e-06 1.93043e-05 -0.00085597
0.00220866 -0.00135987 -8.49813e-06
-0.00135987 0.000390213 -3.13188e-07
-8.49813e-06 -3.13188e-07 -0.000177589
0.00349045 -0.00150125 5.47575e-06
-0.00150125 0.000838756 -3.97348e-06
5.47575e-06 -3.97348e-06 0.000298881
0.00140999 -0.00112104 -9.96918e-06
-0.00112104 0.000137391 9.17896e-06
-9.96918e-06 9.17896e-06 -0.000656156
0.00270488 -0.00144399 -3.87847e-07
-0.00144399 0.000579622 3.54286e-06
-3.87847e-07 3.54286e-06 -0.000102286
0.00264904 -0.00110071 -1.29654e-06
-0.00110071 0.000299286 -2.31505e-06
-1.29654e-06 -2.31505e-06 -8.88418e-05
0.00223708 -0.00126392 1.01268e-05
-0.00126392 0.000537564 3.77621e-06
1.01268e-05 3.77621e-06 -0.000181499
0.00244694 -0.0010152 -2.10308e-06
-0.0010152 0.000379659 2.30613e-06
-2.10308e-06 2.30613e-06 -9.10394e-05
0.00234864 -0.000716822 3.82842e-07
-0.000716822 9.72584e-05 -7.99359e-07
3.82842e-07 -7.99359e-07 -0.000121555
0.00233856 -0.000658418 -2.61203e-06
-0.000658418 0.000199094 4.59705e-07
-2.61203e-06 4.59705e-07 7.77618e-06
0.0019423 -0.000651539 -3.87493e-06
-0.000651539 -1.46947e-05 -1.833e-06
-3.87493e-06 -1.833e-06 -0.000293586
0.00208811 -0.000644511 1.26187e-06
-0.000644511 3.65171e-05 2.98132e-06
1.26187e-06 2.98132e-06 -0.000219855
0.00197628 -0.000832921 -4.04022e-06
-0.000832921 0.00014426 -4.94365e-06
-4.04022e-06 -4.94365e-06 -0.000279197
0.00229772 -0.000969077 3.21721e-06
-0.000969077 0.000299332 5.59556e-07
3.21721e-06 5.59556e-07 -0.000175815
0.00246647 -0.00100388 2.4493e-06
-0.00100388 0.000410974 4.3328e-06
2.4493e-06 4.3328e-06 -7.63774e-05
0.00223978 -0.0010161 -1.09078e-07
-0.0010161 0.000571705 -6.2262e-06
-1.09078e-07 -6.2262e-06 -7.48906e-06
0.00265447 -0.00114552 1.79723e-06
-0.00114552 0.000784523 -9.65984e-07
1.79723e-06 -9.65984e-07 0.000176339
0.00306178 -0.00130047 3.85904e-06
-0.00130047 0.000995703 -4.60159e-07
3.85904e-06 -4.60159e-07 0.000313796
0.00166552 -0.00069128 -5.25695e-06
-0.00069128 0.000500748 -2.63298e-07
-5.25695e-06 -2.63298e-07 1.55769e-05
0.00209789 -0.000988137 1.05594e-06
-0.000988137 0.000724578 5.39771e-07
1.05594e-06 5.39771e-07 0.000109301
0.00163071 -0.00103644 3.52209e-07
-0.00103644 0.000414921 4.55771e-06
3.52209e-07 4.55771e-06 -0.000213986
0.000663034 -0.000259787 -5.30801e-06
-0.000259787 7.07177e-05 -3.09554e-06
-5.30801e-06 -3.09554e-06 -0.000186726
0.0011422 -0.000455023 4.81436e-06
-0.000455023 0.00031374 5.07574e-07
4.81436e-06 5.07574e-07 -4.95844e-05
0.000861571 -0.000626666 -5.86008e-06
-0.000626666 0.000157789 6.63822e-06
-5.86008e-06 6.63822e-06 -0.000331446
0.000462722 -0.000139488 -2.11926e-05
-0.000139488 -4.88574e-05 1.6213e-05
-2.11926e-05 1.6213e-05 -0.000160106
0.000787926 -0.000255341 -1.81964e-06
-0.000255341 0.000205535 9.47098e-07
-1.81964e-06 9.47098e-07 -6.71544e-05
-0.000453145 -0.000286802 -4.42969e-06
-0.000286802 -0.000600296 -1.59946e-06
-4.42969e-06 -1.59946e-06 -0.000900966
0.00479576 0.000329181 3.02525e-05
0.000329181 0.00291938 1.15957e-05
3.02525e-05 1.15957e-05 0.00284883
0.000427608 -0.000104654 6.61281e-07
-0.000104654 -4.01341e-05 -3.84616e-07
6.61281e-07 -3.84616e-07 -0.000139369
0.00141604 -0.000247067 2.35549e-06
-0.000247067 0.000627379 -9.18723e-07
2.35549e-06 -9.18723e-07 0.000377983
0.00408477 0.000150255 1.16882e-05
0.000150255 0.00238719 7.91747e-07
1.16882e-05 7.91747e-07 0.00237547
0.000703201 -6.86442e-05 1.13447e-05
-6.86442e-05 0.000153687 -1.55088e-05
1.13447e-05 -1.55088e-05 7.40879e-05
0.00367792 0.000113971 8.05624e-05
0.000113971 0.00210799 -7.74557e-06
8.05624e-05 -7.74557e-06 0.00210573
0.00238184 0.000466232 2.66483e-06
0.000466232 0.00116841 6.17183e-06
2.66483e-06 6.17183e-06 0.000864531
0.000214864 0.000215127 1.44154e-06
0.000215127 -8.16248e-05 1.14685e-06
1.44154e-06 1.14685e-06 -0.00038048
0.00130909 0.000599059 -6.29247e-06
0.000599059 0.000694897 -3.91268e-06
-6.29247e-06 -3.91268e-06 0.000332018
0.00133585 0.000202568 -1.06855e-06
0.000202568 0.000597105 -1.28846e-05
-1.06855e-06 -1.28846e-05 0.000403103
0.000932202 0.000169877 5.86408e-08
0.000169877 0.000547281 3.91538e-07
5.86408e-08 3.91538e-07 0.000163482
-0.000202534 0.000114576 -2.49645e-06
0.000114576 -0.000143087 6.89959e-06
-2.49645e-06 6.89959e-06 -0.000523464
0.000573669 9.17031e-06 -3.57351e-06
9.17031e-06 9.61116e-05 -1.49939e-05
-3.57351e-06 -1.49939e-05 3.75467e-05
0.00062891 7.99944e-05 5.18897e-07
7.99944e-05 0.000150582 4.26825e-07
5.18897e-07 4.26825e-07 -1.87526e-06
-0.000354589 7.27106e-05 -5.18136e-06
7.27106e-05 -0.000404237 1.78515e-05
-5.18136e-06 1.78515e-05 -0.000654925
0.00308868 -8.79524e-05 -5.43513e-05
-8.79524e-05 0.00172182 -6.95374e-06
-5.43513e-05 -6.95374e-06 0.00172566
0.000389151 -2.94309e-05 1.91635e-06
-2.94309e-05 -2.9344e-05 -4.26061e-07
1.91635e-06 -4.26061e-07 -7.65096e-05
0.000556278 6.58171e-05 -4.38373e-06
6.58171e-05 0.000112272 7.42181e-06
-4.38373e-06 7.42181e-06 -2.0612e-05
0.00283026 -7.28142e-05 -9.14945e-06
-7.28142e-05 0.00154693 7.15029e-07
-9.14945e-06 7.15029e-07 0.00155273
0.00039949 2.05672e-05 -1.10097e-06
2.05672e-05 -3.5087e-05 8.62554e-06
-1.10097e-06 8.62554e-06 -7.13642e-05
0.00250009 -5.20113e-05 2.48967e-05
-5.20113e-05 0.00132569 5.84923e-06
2.48967e-05 5.84923e-06 0.00133579
-0.00593087 0.000477286 -0.000411422
0.000477286 0.00591531 7.43037e-05
-0.000411422 7.43037e-05 -0.00277563
0.00665758 0.00125904 6.66927e-05
0.00125904 0.00456475 1.68604e-06
6.66927e-05 1.68604e-06 0.00103586
-0.00132916 0.000864473 0.000193659
0.000864473 0.0020815 9.41351e-05
0.000193659 9.41351e-05 -0.00105235
0.000397918 0.000308512 -1.09218e-05
0.000308512 -1.66803e-05 1.14993e-05
-1.09218e-05 1.14993e-05 -0.000373475
0.0044514 0.00111929 2.60155e-05
0.00111929 0.00247809 2.97662e-05
2.60155e-05 2.97662e-05 0.00188931
0.000380812 0.000297165 -1.58756e-05
0.000297165 0.00028337 8.86609e-06
-1.58756e-05 8.86609e-06 -0.000257212
0.000883393 0.000185397 -1.22116e-05
0.000185397 0.000451536 -1.49681e-05
-1.22116e-05 -1.49681e-05 0.000172723
0.00360495 0.000510786 -4.28952e-06
0.000510786 0.0018973 -8.94066e-06
-4.28952e-06 -8.94066e-06 0.00165122
-0.00215942 2.01545e-05 -8.85513e-06
2.01545e-05 -0.00155142 1.7878e-05
-8.85513e-06 1.7878e-05 -0.00166787
-0.000366362 0.000299789 4.40431e-07
0.000299789 -0.000173158 7.73409e-06
4.40431e-07 7.73409e-06 -0.000523192
8.32922e-05 0.000180009 -8.35349e-06
0.000180009 -0.000123031 -5.25866e-06
-8.35349e-06 -5.25866e-06 -0.000488627
0.00074553 0.000872101 -1.15231e-05
0.000872101 0.000357559 -1.90096e-05
-1.15231e-05 -1.90096e-05 -0.000252303
-0.00114121 0.000678703 -3.34448e-05
0.000678703 -0.000992432 7.04583e-05
-3.34448e-05 7.04583e-05 -0.00122584
0.000541447 5.11006e-05 -1.51243e-05
5.11006e-05 0.000330763 1.02713e-05
-1.51243e-05 1.02713e-05 3.94458e-05
0.00236653 0.000608716 1.70793e-05
0.000608716 0.00152442 -4.24707e-06
1.70793e-05 -4.24707e-06 0.000992383
0.00564738 -0.00492171 -0.00301771
-0.00492171 0.00373883 -0.000167288
-0.00301771 -0.000167288 -0.00338924
0.00354394 -0.00613188 0.000979189
-0.00613188 0.0117729 0.000114741
0.000979189 0.000114741 0.00230666
0.00997416 0.00379936 -0.00110103
0.00379936 0.00391908 -0.000343467
-0.00110103 -0.000343467 -0.00286702
0.0220309 -0.0188119 0.00322202
-0.0188119 0.0163949 0.00182303
0.00322202 0.00182303 0.00513198
0.0316061 -0.00510022 -0.000155831
-0.00510022 0.0134041 0.000544247
-0.000155831 0.000544247 0.00552781
-0.00268391 0.00159482 -0.000144674
0.00159482 0.00378943 -0.000223722
-0.000144674 -0.000223722 -0.00311512
-0.00121319 0.000162097 -0.000191382
0.000162097 0.00282932 -1.90841e-06
-0.000191382 -1.90841e-06 0.000621839
0.000401431 0.00124802 8.08237e-05
0.00124802 0.00230164 6.03735e-05
8.08237e-05 6.03735e-05 0.00129601
0.0268754 -0.00772553 -0.000936571
-0.00772553 0.0124162 0.000111191
-0.000936571 0.000111191 0.00366998
-0.00119716 0.00586097 -0.000298103
0.00586097 0.00105401 -4.10748e-05
-0.000298103 -4.10748e-05 -0.00388262
0.00326994 0.00371045 8.61142e-05
0.00371045 0.00136279 -8.9086e-05
8.61142e-05 -8.9086e-05 0.00193512
0.00845007 0.0100388 -0.000963741
0.0100388 -0.00162174 -9.41001e-05
-0.000963741 -9.41001e-05 -0.00326479
0.00442535 0.00183099 4.08315e-05
0.00183099 0.00188698 -1.14491e-05
4.08315e-05 -1.14491e-05 0.00131193
0.00102802 0.000811788 -5.09089e-06
0.000811788 0.000242527 -4.20971e-06
-5.09089e-06 -4.20971e-06 3.1644e-05
-0.000201485 0.000290521 -3.48887e-05
0.000290521 3.84398e-05 -1.52576e-05
-3.48887e-05 -1.52576e-05 -0.000472592
-0.0008066 0.000905244 -0.000159119
0.000905244 0.000993042 -8.06085e-05
-0.000159119 -8.06085e-05 -0.000463132
0.000340778 0.000817005 -6.75699e-05
0.000817005 0.000121245 -5.40917e-05
-6.75699e-05 -5.40917e-05 -0.000344424
0.00278399 0.00254129 3.35709e-06
0.00254129 0.00106659 -1.4226e-05
3.35709e-06 -1.4226e-05 -0.000292519
-0.0017235 0.00244607 0.000129763
0.00244607 -0.00227459 7.40946e-05
0.000129763 7.40946e-05 -0.00281837
-0.00699957 -0.000798998 -0.00108548
-0.000798998 -0.00190323 7.3654e-05
-0.00108548 7.3654e-05 -0.00533215
-0.010581 0.000508562 0.000770405
0.000508562 0.00698242 5.05314e-06
0.000770405 5.05314e-06 -0.000743277
0.00235572 0.00022191 -0.000231418
0.00022191 0.00243836 3.82822e-05
-0.000231418 3.82822e-05 -6.71444e-05
0.00110664 -0.00170028 -7.81238e-05
-0.00170028 0.0013619 -6.35141e-05
-7.81238e-05 -6.35141e-05 -2.13017e-05
-0.000799093 -0.00343178 0.000225727
-0.00343178 8.19324e-05 1.36851e-05
0.000225727 1.36851e-05 5.66893e-06
0.00243328 0.00228931 0.000434139
0.00228931 0.0111128 0.000119335
0.000434139 0.000119335 0.00344801
0.00595351 -0.00735008 0.000952008
-0.00735008 -0.00248372 -8.62609e-05
0.000952008 -8.62609e-05 -0.00278631
0.0249602 0.00650438 0.001819
0.00650438 0.0127247 1.07715e-06
0.001819 1.07715e-06 0.00616282
0.00241394 -0.00311863 -2.40599e-05
-0.00311863 0.000781338 -1.80277e-08
-2.40599e-05 -1.80277e-08 -0.000264441
0.0058697 0.00363111 0.000483273
0.00363111 0.00337884 -0.000145459
0.000483273 -0.000145459 -0.00195035
0.00796608 -0.00449374 -0.00026561
-0.00449374 -0.00541124 0.000216819
-0.00026561 0.000216819 -0.00579736
0.00251556 -0.00406771 -2.02645e-05
-0.00406771 -0.00144668 3.86209e-05
-2.02645e-05 3.86209e-05 0.000652821
0.00268539 -0.00241574 5.82934e-05
-0.00241574 6.98902e-06 -9.91622e-06
5.82934e-05 -9.91622e-06 -0.000173272
0.0198485 -0.00135568 -0.000139455
-0.00135568 0.00204747 0.000116052
-0.000139455 0.000116052 0.00204363
0.00289095 -0.00299402 0.000135985
-0.00299402 -0.00443541 -0.000130761
0.000135985 -0.000130761 -0.0014081
0.00183042 -0.00158707 -6.79431e-05
-0.00158707 0.000497248 5.01589e-05
-6.79431e-05 5.01589e-05 6.278e-05
0.000631434 -0.00106085 -1.72879e-05
-0.00106085 -0.000446247 1.27132e-06
-1.72879e-05 1.27132e-06 -0.000744286
0.00553496 -0.00153181 4.94431e-05
-0.00153181 0.00182321 -2.3382e-05
4.94431e-05 -2.3382e-05 0.00149341
0.000737447 -0.00118229 -1.84428e-05
-0.00118229 -0.000371095 1.30604e-05
-1.84428e-05 1.30604e-05 -0.000917558
0.00283116 -0.00141597 3.26494e-07
-0.00141597 0.000504029 -5.89761e-07
3.26494e-07 -5.89761e-07 -1.47142e-05
0.00319956 -0.0011454 2.3364e-06
-0.0011454 0.000421663 -1.3164e-06
2.3364e-06 -1.3164e-06 0.00020085
0.00256491 -0.00141381 7.97484e-06
-0.00141381 0.000508203 8.97987e-06
7.97484e-06 8.97987e-06 -0.000170851
0.00265764 -0.00109047 -3.81541e-06
-0.00109047 0.000302563 1.46317e-06
-3.81541e-06 1.46317e-06 -7.46419e-05
0.00248582 -0.000761712 4.39025e-07
-0.000761712 3.04122e-06 1.11324e-07
4.39025e-07 1.11324e-07 -7.04768e-05
0.00216073 -0.000972729 8.60354e-06
-0.000972729 0.000215346 5.89466e-06
8.60354e-06 5.89466e-06 -0.00024165
0.00228998 -0.000704089 4.62738e-08
-0.000704089 6.02397e-05 2.35195e-06
4.62738e-08 2.35195e-06 -0.000147643
0.00243444 -0.000731478 -1.15857e-06
-0.000731478 9.49058e-05 1.6767e-06
-1.15857e-06 1.6767e-06 -1.89283e-05
0.00237116 -0.000703358 -3.72086e-06
-0.000703358 0.000147095 6.8307e-07
-3.72086e-06 6.8307e-07 -6.12032e-06
0.00234082 -0.000660477 -3.45585e-06
-0.000660477 0.000187451 2.38318e-06
-3.45585e-06 2.38318e-06 2.68718e-06
0.00234737 -0.000643283 -1.0808e-06
-0.000643283 0.000282348 -1.86008e-06
-1.0808e-06 -1.86008e-06 6.42808e-05
0.00235359 -0.000703414 -6.73422e-06
-0.000703414 0.000289724 -2.93448e-06
-6.73422e-06 -2.93448e-06 -1.02623e-05
0.00219186 -0.000669206 1.16847e-06
-0.000669206 0.0001546 1.47176e-06
1.16847e-06 1.47176e-06 -0.000125569
0.00207994 -0.000642193 2.34562e-06
-0.000642193 1.42565e-05 7.9987e-06
2.34562e-06 7.9987e-06 -0.000238413
0.0022618 -0.000836649 -5.84531e-06
-0.000836649 0.000381223 -6.1231e-06
-5.84531e-06 -6.1231e-06 -5.26819e-05
0.00193666 -0.000841828 -5.92806e-07
-0.000841828 0.000102072 1.5721e-07
-5.92806e-07 1.5721e-07 -0.000326988
0.00245487 -0.000979704 7.90331e-06
-0.000979704 0.00041672 4.56582e-06
7.90331e-06 4.56582e-06 -5.62143e-05
0.00188217 -0.0008341 -5.58145e-06
-0.0008341 0.000411561 -2.41228e-06
-5.58145e-06 -2.41228e-06 -0.000113079
0.00238661 -0.00103687 -7.228e-07
-0.00103687 0.000651952 6.51401e-07
-7.228e-07 6.51401e-07 6.74615e-05
0.0024563 -0.00113067 5.20658e-06
-0.00113067 0.00065253 2.73436e-06
5.20658e-06 2.73436e-06 4.35496e-05
0.00128617 -0.000354694 -1.22963e-05
-0.000354694 0.000379052 9.9444e-06
-1.22963e-05 9.9444e-06 8.62048e-05
0.00153036 -0.0006798 7.52858e-07
-0.0006798 0.000408208 1.3488e-06
7.52858e-07 1.3488e-06 -7.28996e-05
0.00212357 -0.000979798 -2.4593e-06
-0.000979798 0.000741706 7.61897e-06
-2.4593e-06 7.61897e-06 0.000132752
0.000318433 -0.000206545 -3.00496e-05
-0.000206545 -0.000175351 1.88054e-05
-3.00496e-05 1.88054e-05 -0.000306601
0.00068004 -0.000253921 -1.81238e-06
-0.000253921 9.90143e-05 -9.02309e-07
-1.81238e-06 -9.02309e-07 -0.000175761
-0.000200121 -0.000423001 3.17318e-06
-0.000423001 -0.000535884 -7.68005e-07
3.17318e-06 -7.68005e-07 -0.000901413
0.00549318 0.000203889 -0.000132242
0.000203889 0.00332825 1.25055e-05
-0.000132242 1.25055e-05 0.00329912
0.00060355 -0.000174202 1.82604e-06
-0.000174202 2.72179e-05 -1.29322e-07
1.82604e-06 -1.29322e-07 -8.54382e-05
0.000674168 -0.000281079 3.51694e-06
-0.000281079 0.000143134 4.13317e-07
3.51694e-06 4.13317e-07 -0.000143322
0.00313681 0.000155486 7.69554e-05
0.000155486 0.00179713 1.06027e-06
7.69554e-05 1.06027e-06 0.00175495
0.000756492 -0.000112889 1.84962e-05
-0.000112889 0.000164635 -1.63248e-05
1.84962e-05 -1.63248e-05 6.05723e-05
0.00434465 0.000137237 0.000109285
0.000137237 0.00255494 -1.0694e-05
0.000109285 -1.0694e-05 0.00254611
0.0022089 0.000533992 -1.45206e-07
0.000533992 0.000947839 8.85029e-06
-1.45206e-07 8.85029e-06 0.000583164
0.000890814 0.000283833 -4.6048e-06
0.000283833 0.00021012 1.17595e-06
-4.6048e-06 1.17595e-06 -4.53095e-05
0.000117249 0.000231456 2.74691e-06
0.000231456 -0.000195279 2.03258e-06
2.74691e-06 2.03258e-06 -0.000475118
0.00136968 0.000304727 -7.26285e-07
0.000304727 0.000647926 -5.49531e-06
-7.26285e-07 -5.49531e-06 0.000348245
0.00123857 0.000154322 -9.78411e-07
0.000154322 0.000636965 4.40997e-07
-9.78411e-07 4.40997e-07 0.000300638
0.00118095 0.000157243 -2.74756e-07
0.000157243 0.000536426 -1.50867e-05
-2.74756e-07 -1.50867e-05 0.000282339
0.000638095 8.29738e-05 -1.28534e-05
8.29738e-05 0.000124631 -1.84778e-05
-1.28534e-05 -1.84778e-05 5.2239e-05
0.000617951 0.000136827 -9.06012e-07
0.000136827 0.000161721 2.53642e-07
-9.06012e-07 2.53642e-07 -3.85911e-05
-0.00143038 -9.61803e-06 -1.0964e-05
-9.61803e-06 -0.00101915 1.9751e-05
-1.0964e-05 1.9751e-05 -0.0013515
0.0034066 -9.86267e-05 -7.90243e-05
-9.86267e-05 0.00193814 -9.03213e-06
-7.90243e-05 -9.03213e-06 0.00194011
0.000244982 4.01255e-05 1.4203e-06
4.01255e-05 -0.000115819 -3.2314e-07
1.4203e-06 -3.2314e-07 -0.000173324
0.00062769 0.000113725 -2.96262e-06
0.000113725 0.000153238 1.1018e-05
-2.96262e-06 1.1018e-05 6.92166e-07
0.00304759 -9.36047e-05 -9.83988e-06
-9.36047e-05 0.00169683 9.06959e-07
-9.83988e-06 9.06959e-07 0.00169856
0.000230931 -6.64726e-06 -2.22653e-07
-6.64726e-06 -0.000128022 1.10053e-05
-2.22653e-07 1.10053e-05 -0.00017536
0.00273171 -7.31762e-05 3.10066e-05
-7.31762e-05 0.00148262 6.38426e-06
3.10066e-05 6.38426e-06 0.0014881
0.00288861 -0.000975174 -0.00177009
-0.000975174 0.00454403 -6.75684e-05
-0.00177009 -6.75684e-05 0.00177795
-0.00362459 -0.000760216 -4.09908e-05
-0.000760216 0.00748645 -4.89577e-05
-4.09908e-05 -4.89577e-05 -0.001671
0.00688128 0.000746387 -0.000559035
0.000746387 0.00428501 -0.000147836
-0.000559035 -0.000147836 0.000928707
0.000671641 0.000207693 4.10449e-06
0.000207693 0.000131158 3.75048e-06
4.10449e-06 3.75048e-06 -0.00020197
0.000289614 0.000213994 1.10047e-05
0.000213994 4.25042e-05 3.27189e-06
1.10047e-05 3.27189e-06 -0.000432912
0.00268757 0.000857472 -6.69055e-06
0.000857472 0.00136945 2.86927e-07
-6.69055e-06 2.86927e-07 0.000824166
0.00253928 0.00109331 2.79156e-05
0.00109331 0.00112252 1.41833e-05
2.79156e-05 1.41833e-05 0.000438503
0.00132058 0.00081094 2.67721e-06
0.00081094 0.000796572 1.65693e-05
2.67721e-06 1.65693e-05 0.000200436
0.00303601 0.00043604 -1.34581e-06
0.00043604 0.0018664 3.59216e-06
-1.34581e-06 3.59216e-06 0.00156082
0.00202381 0.000393447 1.68478e-05
0.000393447 0.0011488 8.65694e-06
1.68478e-05 8.65694e-06 0.000776213
0.00188034 0.000852265 -4.31301e-06
0.000852265 0.001047 2.46905e-06
-4.31301e-06 2.46905e-06 0.000460233
0.00148589 0.00117632 8.55377e-06
0.00117632 0.000344745 -2.22616e-06
8.55377e-06 -2.22616e-06 -0.000194823
0.00273304 0.00126262 9.87859e-07
0.00126262 0.00103562 4.03348e-05
9.87859e-07 4.03348e-05 0.00069298
0.00200371 0.00143637 4.05821e-05
0.00143637 0.000297549 5.36803e-07
4.05821e-05 5.36803e-07 -1.31363e-05
0.0011992 0.000932877 1.58123e-05
0.000932877 0.000372459 3.63476e-06
1.58123e-05 3.63476e-06 8.79534e-06
0.00159808 0.000788125 3.64467e-06
0.000788125 0.00103432 1.34991e-05
3.64467e-06 1.34991e-05 0.000397441
0.0174437 0.00513565 -0.000149162
0.00513565 0.0011554 6.62993e-05
-0.000149162 6.62993e-05 0.00104234
0.00933154 -0.00417648 -0.000891094
-0.00417648 0.00602865 -0.000262236
-0.000891094 -0.000262236 0.00087837
0.00470794 -0.00764589 0.0016107
-0.00764589 0.0129995 0.000256958
0.0016107 0.000256958 0.00358751
0.0190781 -0.00409129 0.000755487
-0.00409129 0.00789246 0.000206022
0.000755487 0.000206022 8.60874e-05
0.011472 0.00810756 -0.000214563
0.00810756 0.00449778 -7.71872e-05
-0.000214563 -7.71872e-05 0.000137369
-0.00208162 0.000907385 -1.81585e-05
0.000907385 0.00143006 2.33934e-06
-1.81585e-05 2.33934e-06 0.000310048
0.0017433 0.003225 -0.000114351
0.003225 0.000591275 -5.36748e-05
-0.000114351 -5.36748e-05 0.00156132
0.011689 0.00836192 2.01932e-05
0.00836192 -0.000149337 5.09693e-05
2.01932e-05 5.09693e-05 -0.00232101
0.00773746 0.00601667 -0.000198364
0.00601667 -0.000746777 -0.000147627
-0.000198364 -0.000147627 0.000521624
0.00142473 0.00169996 1.85435e-05
0.00169996 1.15398e-05 -1.96679e-05
1.85435e-05 -1.96679e-05 -0.000409942
0.00159035 0.00133733 1.5692e-05
0.00133733 0.000461335 -7.51183e-07
1.5692e-05 -7.51183e-07 3.36564e-05
0.0022055 0.000880128 -4.09612e-05
0.000880128 0.0010463 -2.48686e-05
-4.09612e-05 -2.48686e-05 0.000834866
0.0018078 0.00247771 -9.61521e-05
0.00247771 0.0003793 -4.55223e-05
-9.61521e-05 -4.55223e-05 -0.000904751
0.00179899 0.00289964 0.000122807
0.00289964 -0.000661393 6.47293e-05
0.000122807 6.47293e-05 -0.00147231
0.00611576 -0.000431474 -0.000120339
-0.000431474 -0.00578322 2.62174e-05
-0.000120339 2.62174e-05 -0.00644283
-0.000154707 -0.00264705 2.90452e-06
-0.00264705 0.00407908 8.04736e-05
2.90452e-06 8.04736e-05 0.00111467
-0.014507 -0.000414155 0.000746421
-0.000414155 0.00808403 -2.88481e-06
0.000746421 -2.88481e-06 0.00208547
0.0026333 -0.00378598 -0.000120431
-0.00378598 0.000441649 5.73247e-05
-0.000120431 5.73247e-05 -0.000899877
0.00668289 -0.00551113 1.78222e-05
-0.00551113 -0.000388072 8.66149e-05
1.78222e-05 8.66149e-05 0.00110992
0.00636019 0.00126206 0.00182513
0.00126206 0.00587755 -0.000388708
0.00182513 -0.000388708 0.0027022
0.0150498 -0.00444191 -0.000434093
-0.00444191 -0.000780799 0.000277631
-0.000434093 0.000277631 0.000121962
0.00222676 -0.00240088 -2.89946e-05
-0.00240088 -0.000228141 1.0572e-05
-2.89946e-05 1.0572e-05 -0.000550696
0.0129188 -0.000595879 -0.000344267
-0.000595879 -0.00291169 0.000112652
-0.000344267 0.000112652 -0.0028517
0.00738517 -0.00349452 0.000105317
-0.00349452 -0.00166515 8.23074e-06
0.000105317 8.23074e-06 0.000499183
0.003282 -0.00188945 5.31343e-05
-0.00188945 -0.000560729 -5.25731e-05
5.31343e-05 -5.25731e-05 -0.000327507
0.00292004 -0.00137917 6.88715e-05
-0.00137917 -0.00367759 -1.36816e-05
6.88715e-05 -1.36816e-05 -0.000785852
-0.000584317 -0.000924009 -1.5071e-05
-0.000924009 -0.00113554 2.30031e-05
-1.5071e-05 2.30031e-05 -0.00131024
0.0014151 -0.00107248 -2.11783e-05
-0.00107248 -0.000493711 4.65107e-06
-2.11783e-05 4.65107e-06 -0.000519765
0.00387842 -0.00107293 4.27335e-05
-0.00107293 0.000594509 -1.84494e-05
4.27335e-05 -1.84494e-05 0.000698788
0.00232855 -0.00134776 -1.22792e-05
-0.00134776 0.000250578 8.34362e-06
-1.22792e-05 8.34362e-06 -0.000249301
0.00281752 -0.00111909 -4.40385e-06
-0.00111909 0.000202172 1.62655e-06
-4.40385e-06 1.62655e-06 -1.78779e-05
0.0028546 -0.000864222 5.62953e-06
-0.000864222 2.60495e-05 -7.94058e-07
5.62953e-06 -7.94058e-07 4.72386e-05
0.002451 -0.00104944 -7.70429e-06
-0.00104944 0.000195079 7.40723e-06
-7.70429e-06 7.40723e-06 -0.000163028
0.00240517 -0.000755512 9.66937e-08
-0.000755512 -4.88064e-05 1.61705e-06
9.66937e-08 1.61705e-06 -0.00012174
0.00259773 -0.000756323 -4.12217e-07
-0.000756323 3.7726e-05 -1.12261e-07
-4.12217e-07 -1.12261e-07 2.93307e-05
0.0022337 -0.0006876 1.90057e-06
-0.0006876 3.08336e-05 4.78942e-06
1.90057e-06 4.78942e-06 -0.000164629
0.0024058 -0.000723495 -9.2289e-08
-0.000723495 8.75308e-05 7.34574e-07
-9.2289e-08 7.34574e-07 -2.63066e-05
0.00255205 -0.000741235 -1.73452e-06
-0.000741235 0.000111914 4.72808e-07
-1.73452e-06 4.72808e-07 2.43555e-05
0.00234759 -0.000708114 -5.06731e-06
-0.000708114 0.000124468 7.10697e-07
-5.06731e-06 7.10697e-07 -2.10886e-05
0.0023498 -0.000668511 -1.3502e-06
-0.000668511 0.000183752 -1.49399e-07
-1.3502e-06 -1.49399e-07 1.9629e-05
0.00234604 -0.000662523 4.78812e-07
-0.000662523 0.000181471 3.71485e-06
4.78812e-07 3.71485e-06 2.77404e-06
0.00235894 -0.000640283 8.55104e-07
-0.000640283 0.000289664 -5.27912e-07
8.55104e-07 -5.27912e-07 7.14857e-05
0.00227163 -0.000648865 -2.95701e-06
-0.000648865 0.00026298 -1.00812e-06
-2.95701e-06 -1.00812e-06 1.8344e-05
0.00237604 -0.000703176 -2.76924e-06
-0.000703176 0.000375194 -6.31064e-06
-2.76924e-06 -6.31064e-06 5.42917e-05
0.00241245 -0.00071199 -5.76874e-07
-0.00071199 0.000329372 1.90546e-07
-5.76874e-07 1.90546e-07 2.66122e-05
0.00244928 -0.000685853 8.02955e-06
-0.000685853 0.000332649 4.60928e-06
8.02955e-06 4.60928e-06 5.1415e-05
0.00195427 -0.000770367 -6.81995e-06
-0.000770367 0.000280232 -3.1941e-06
-6.81995e-06 -3.1941e-06 -0.000173104
0.00218847 -0.000837226 -1.9e-06
-0.000837226 0.000322078 -1.05709e-06
-1.9e-06 -1.05709e-06 -0.000117551
0.00186501 -0.000846342 4.85616e-06
-0.000846342 3.86899e-05 4.54304e-06
4.85616e-06 4.54304e-06 -0.000394773
0.00134898 -0.000451611 -1.88775e-05
-0.000451611 0.00026569 1.05308e-05
-1.88775e-05 1.05308e-05 -7.81393e-05
0.00196941 -0.000838524 1.92343e-09
-0.000838524 0.000478768 1.32811e-06
1.92343e-09 1.32811e-06 -4.46158e-05
0.00253085 -0.00105477 5.01157e-07
-0.00105477 0.000733639 6.57421e-06
5.01157e-07 6.57421e-06 0.000145219
0.000314338 -0.000232585 -1.72108e-05
-0.000232585 -0.000175747 2.55867e-05
-1.72108e-05 2.55867e-05 -0.000346791
0.000702462 -0.000335 3.03952e-06
-0.000335 3.7562e-06 -6.38916e-07
3.03952e-06 -6.38916e-07 -0.000296792
0.00127458 -0.000648472 5.30414e-06
-0.000648472 0.000240237 2.05808e-06
5.30414e-06 2.05808e-06 -0.000229626
0.00670532 9.44754e-05 -0.000230453
9.44754e-05 0.00407311 1.68715e-05
-0.000230453 1.68715e-05 0.0040707
0.000376274 -0.000222727 -9.54254e-06
-0.000222727 -0.000129703 -1.23061e-06
-9.54254e-06 -1.23061e-06 -0.000269476
0.000522866 -0.00031147 4.92102e-06
-0.00031147 3.19263e-05 -3.78776e-06
4.92102e-06 -3.78776e-06 -0.000270634
0.006006 0.000156316 8.97139e-06
0.000156316 0.00365385 -2.69619e-06
8.97139e-06 -2.69619e-06 0.00363627
0.000570805 -0.000202447 3.16825e-05
-0.000202447 6.80537e-06 -1.6299e-05
3.16825e-05 -1.6299e-05 -0.000111809
0.00537379 0.000145673 0.000170688
0.000145673 0.00324105 -1.63743e-05
0.000170688 -1.63743e-05 0.00322823
0.00321164 0.00104867 1.71343e-06
0.00104867 0.00153274 1.01851e-05
1.71343e-06 1.01851e-05 0.000897259
0.00129248 0.000527072 -2.32853e-06
0.000527072 0.000386814 1.06114e-06
-2.32853e-06 1.06114e-06 -9.75909e-06
0.000640647 0.000301789 7.94271e-06
0.000301789 5.52757e-05 -1.65867e-06
7.94271e-06 -1.65867e-06 -0.000229398
-0.00113298 0.000111873 -2.24549e-07
0.000111873 -0.00104649 -1.17924e-05
-2.24549e-07 -1.17924e-05 -0.00129199
0.000119942 0.000300067 5.59079e-06
0.000300067 -0.000230186 -1.44403e-06
5.59079e-06 -1.44403e-06 -0.00048193
5.41608e-05 0.000352182 -8.84823e-06
0.000352182 -0.000272353 -7.40782e-06
-8.84823e-06 -7.40782e-06 -0.000516298
-0.00025912 9.46185e-05 -6.01284e-06
9.46185e-05 -0.000312807 3.27696e-06
-6.01284e-06 3.27696e-06 -0.000663001
0.00074528 0.000200955 1.85835e-06
0.000200955 0.000256341 5.63638e-07
1.85835e-06 5.63638e-07 -4.95499e-07
0.000796287 0.00012466 -1.95273e-05
0.00012466 0.000215993 -2.1003e-05
-1.95273e-05 -2.1003e-05 0.000116496
0.00383632 -0.000113708 -0.000102913
-0.000113708 0.00223062 -1.32e-05
-0.000102913 -1.32e-05 0.00222807
0.000473104 5.12572e-05 3.81025e-06
5.12572e-05 3.23657e-05 -2.94542e-07
3.81025e-06 -2.94542e-07 -4.17284e-05
2.08298e-05 5.17591e-05 -4.2942e-06
5.17591e-05 -0.00019231 1.45855e-05
-4.2942e-06 1.45855e-05 -0.000404221
0.00335821 -0.000117919 -1.23666e-05
-0.000117919 0.00190991 1.25794e-06
-1.23666e-05 1.25794e-06 0.00190614
0.000311083 -7.32193e-05 -1.13988e-05
-7.32193e-05 -5.82472e-05 1.51972e-05
-1.13988e-05 1.51972e-05 -0.000123941
0.0029822 -9.4955e-05 4.05836e-05
-9.4955e-05 0.00165508 6.79287e-06
4.05836e-05 6.79287e-06 0.00165585
0.0161375 0.000951252 0.000735226
0.000951252 0.00043992 0.000164911
0.000735226 0.000164911 0.00123652
0.00219238 -0.00535033 -0.0010366
-0.00535033 -0.000502168 -8.01251e-05
-0.0010366 -8.01251e-05 -0.00585056
-0.00729404 0.00146045 -0.000292992
0.00146045 0.00709936 -0.00010918
-0.000292992 -0.00010918 -0.00156137
8.44023e-05 0.000120149 1.22878e-05
0.000120149 -0.00010891 -3.42656e-05
1.22878e-05 -3.42656e-05 -0.000614033
0.00051759 0.000595983 -8.0083e-06
0.000595983 3.0267e-05 -9.60918e-06
-8.0083e-06 -9.60918e-06 -0.000488823
0.00243521 0.000897845 -1.40489e-05
0.000897845 0.00135495 -6.73477e-06
-1.40489e-05 -6.73477e-06 0.000745371
0.0014054 0.000933598 7.41117e-07
0.000933598 0.000444201 6.53103e-08
7.41117e-07 6.53103e-08 -0.000199937
0.00192602 0.001009 2.34772e-05
0.001009 0.000462358 2.46687e-05
2.34772e-05 2.46687e-05 -0.000116639
-1.50784e-05 0.000892602 3.6608e-05
0.000892602 -0.000500999 1.1957e-05
3.6608e-05 1.1957e-05 -0.00101516
0.00195137 0.000773073 -1.42866e-05
0.000773073 0.00108878 -1.76899e-06
-1.42866e-05 -1.76899e-06 0.000530735
0.00111043 0.00111291 7.26473e-06
0.00111291 0.000101105 5.01708e-06
7.26473e-06 5.01708e-06 -0.000420738
0.00205134 0.0011467 2.96853e-05
0.0011467 0.000716883 3.62251e-06
2.96853e-05 3.62251e-06 0.000318085
0.0023287 0.00115635 1.39807e-05
0.00115635 0.000722727 3.25028e-06
1.39807e-05 3.25028e-06 0.000224338
0.00203593 0.00126408 1.21246e-05
0.00126408 0.000338262 5.13256e-06
1.21246e-05 5.13256e-06 7.24446e-05
0.00243133 0.00147999 2.647e-05
0.00147999 0.000548814 1.13497e-05
2.647e-05 1.13497e-05 2.46411e-05
0.00140099 0.00134955 1.24711e-05
0.00134955 -1.7113e-05 -1.21092e-06
1.24711e-05 -1.21092e-06 -0.000282776
0.00248727 0.00101865 -3.61289e-05
0.00101865 0.00109202 -8.92987e-05
-3.61289e-05 -8.92987e-05 0.000709514
0.00384434 0.00287668 3.22131e-05
0.00287668 -0.00407639 5.717e-05
3.22131e-05 5.717e-05 -0.000714999
0.0131594 0.00588381 0.000422044
0.00588381 -0.00204431 0.000254248
0.000422044 0.000254248 -0.002409
0.0176633 -0.0077269 0.00111536
-0.0077269 0.00889052 -0.00015996
0.00111536 -0.00015996 0.00186245
0.00690834 0.0096173 0.00107249
0.0096173 -0.00179281 0.000463822
0.00107249 0.000463822 -0.0048722
-0.00095446 0.002241 -3.64479e-05
0.002241 8.66302e-05 2.99176e-05
-3.64479e-05 2.99176e-05 0.000657311
0.00353119 0.00360462 -9.28994e-05
0.00360462 -0.00141196 -6.77326e-05
-9.28994e-05 -6.77326e-05 0.000487131
0.00726465 0.00328105 5.16353e-05
0.00328105 0.00105881 3.04924e-05
5.16353e-05 3.04924e-05 0.000876684
0.00606691 0.00252429 2.52351e-05
0.00252429 0.00211474 1.32995e-05
2.52351e-05 1.32995e-05 0.00147559
0.000858907 0.00118673 -4.62029e-05
0.00118673 4.51765e-05 7.58573e-06
-4.62029e-05 7.58573e-06 -0.000312922
0.00976225 0.0040888 -0.000222356
0.0040888 0.00305982 -2.95697e-06
-0.000222356 -2.95697e-06 0.00182991
0.00550455 -0.00112784 1.41678e-05
-0.00112784 -0.00186423 4.12964e-05
1.41678e-05 4.12964e-05 0.000351484
0.0125724 -0.000580797 -6.45092e-05
-0.000580797 -0.000844149 -4.97e-05
-6.45092e-05 -4.97e-05 0.000256431
-0.0120613 -0.00448968 0.00139957
-0.00448968 -0.00263465 -3.05694e-05
0.00139957 -3.05694e-05 -0.00684231
0.00188658 -0.00219185 -0.000146453
-0.00219185 -0.000290678 5.09969e-05
-0.000146453 5.09969e-05 -0.000501543
0.00812421 -0.00406811 -8.51004e-05
-0.00406811 -0.00198927 0.000138247
-8.51004e-05 0.000138247 0.000430663
0.00249865 -0.000504657 -0.000474459
-0.000504657 -0.00796032 1.5977e-05
-0.000474459 1.5977e-05 -0.00783479
0.00365679 -0.00176023 4.78735e-05
-0.00176023 -0.000343793 -5.58228e-07
4.78735e-05 -5.58228e-07 0.000175385
0.00510718 -0.00144621 -8.98031e-05
-0.00144621 -0.00214672 -1.62959e-06
-8.98031e-05 -1.62959e-06 6.34194e-05
0.00733318 -0.00140136 7.08837e-05
-0.00140136 0.00165797 -4.99109e-05
7.08837e-05 -4.99109e-05 0.00226412
0.00676867 -0.00088741 0.000151055
-0.00088741 0.000798748 7.16176e-06
0.000151055 7.16176e-06 0.00185018
-0.00141918 -0.000782655 1.41154e-05
-0.000782655 -0.00220598 1.18452e-05
1.41154e-05 1.18452e-05 -0.00192014
0.00225325 -0.000917664 -1.00402e-05
-0.000917664 -0.000360124 3.84194e-06
-1.00402e-05 3.84194e-06 -9.95128e-05
0.00260145 -0.000684393 2.70212e-05
-0.000684393 -0.000353769 -1.09927e-05
2.70212e-05 -1.09927e-05 2.47774e-05
0.00241405 -0.00109641 -4.43393e-06
-0.00109641 -3.0067e-05 3.29308e-06
-4.43393e-06 3.29308e-06 -0.000253343
0.00280047 -0.000856949 8.51563e-07
-0.000856949 3.27743e-06 1.36829e-06
8.51563e-07 1.36829e-06 2.62251e-05
0.00275783 -0.000727698 4.53561e-08
-0.000727698 -1.44018e-05 -1.06733e-06
4.53561e-08 -1.06733e-06 2.09712e-05
0.00234403 -0.000754339 1.6787e-06
-0.000754339 -9.23769e-05 3.13194e-06
1.6787e-06 3.13194e-06 -0.000167182
0.00256099 -0.000752658 9.85482e-08
-0.000752658 2.88966e-05 4.02638e-07
9.85482e-08 4.02638e-07 1.06048e-05
0.00251616 -0.000642999 -1.75208e-06
-0.000642999 2.98951e-07 -8.31385e-07
-1.75208e-06 -8.31385e-07 -2.5416e-05
0.0023813 -0.000718009 1.17285e-06
-0.000718009 7.89006e-05 6.13281e-07
1.17285e-06 6.13281e-07 -3.54971e-05
0.00254286 -0.000738359 -1.79067e-07
-0.000738359 0.000133831 -1.09356e-07
-1.79067e-07 -1.09356e-07 4.02363e-05
0.00243723 -0.000641909 7.97758e-07
-0.000641909 0.000118585 -2.6834e-07
7.97758e-07 -2.6834e-07 2.36836e-05
0.00232084 -0.000712997 -2.60158e-06
-0.000712997 9.80256e-05 2.95116e-07
-2.60158e-06 2.95116e-07 -3.98363e-05
0.00229544 -0.000666933 -1.52733e-06
-0.000666933 0.000144034 1.60705e-07
-1.52733e-06 1.60705e-07 -1.54413e-05
0.00238505 -0.000634589 -2.60789e-06
-0.000634589 0.000272777 4.73569e-07
-2.60789e-06 4.73569e-07 7.68683e-05
0.00236625 -0.000635592 3.45535e-06
-0.000635592 0.000294161 1.31518e-06
3.45535e-06 1.31518e-06 7.67716e-05
0.00228676 -0.000644695 -7.89082e-08
-0.000644695 0.000269153 6.78651e-08
-7.89082e-08 6.78651e-08 2.55814e-05
0.0023366 -0.000648822 -1.1207e-06
-0.000648822 0.000327012 -2.26284e-06
-1.1207e-06 -2.26284e-06 5.67386e-05
0.00207841 -0.000646043 -4.94975e-06
-0.000646043 0.00028689 -4.09723e-06
-4.94975e-06 -4.09723e-06 -6.21632e-05
0.00226852 -0.000700503 -4.84677e-07
-0.000700503 0.000301255 -1.714e-06
-4.84677e-07 -1.714e-06 -2.71602e-05
0.00247293 -0.00072155 4.92667e-06
-0.00072155 0.00037069 3.6529e-06
4.92667e-06 3.6529e-06 6.4735e-05
0.00129319 -0.000501206 -2.34714e-05
-0.000501206 9.00063e-05 6.53228e-06
-2.34714e-05 6.53228e-06 -0.000267117
0.00213879 -0.000782133 -1.36236e-06
-0.000782133 0.000411316 4.0439e-07
-1.36236e-06 4.0439e-07 -4.25822e-05
0.00213402 -0.000840191 7.50577e-07
-0.000840191 0.000274735 4.57195e-06
7.50577e-07 4.57195e-06 -0.000171298
0.000483476 -0.000263786 -2.21274e-05
-0.000263786 -0.00010628 2.54075e-05
-2.21274e-05 2.54075e-05 -0.000284457
0.000894206 -0.000428736 5.46314e-06
-0.000428736 -1.46234e-05 7.78951e-07
5.46314e-06 7.78951e-07 -0.000361486
0.00209948 -0.000847468 6.06137e-06
-0.000847468 0.000574078 4.08886e-06
6.06137e-06 4.08886e-06 5.07131e-05
0.00774963 -2.15724e-06 -0.000307046
-2.15724e-06 0.00470947 2.56401e-05
-0.000307046 2.56401e-05 0.0047199
0.000266349 -0.000250118 4.64265e-07
-0.000250118 -0.000205996 2.04858e-07
4.64265e-07 2.04858e-07 -0.000379287
0.000219888 -0.000316872 6.6847e-06
-0.000316872 -0.000307888 -6.83783e-06
6.6847e-06 -6.83783e-06 -0.000615334
0.0070173 5.90541e-05 -1.11212e-05
5.90541e-05 0.004277 -2.22361e-06
-1.11212e-05 -2.22361e-06 0.00427429
0.000555478 -0.000232037 2.22496e-05
-0.000232037 -1.73854e-05 -2.22267e-05
2.22496e-05 -2.22267e-05 -0.000160098
0.00626977 0.000140279 0.000217183
0.000140279 0.00384346 -3.06876e-05
0.000217183 -3.06876e-05 0.00381983
0.00219628 0.000950754 -1.11739e-05
0.000950754 0.000654021 1.24538e-05
-1.11739e-05 1.24538e-05 8.75884e-05
0.00211615 0.00090107 -1.67111e-06
0.00090107 0.000815847 -3.76854e-07
-1.67111e-06 -3.76854e-07 0.000227428
0.00116798 0.000602154 -5.21228e-06
0.000602154 0.000272744 6.05101e-06
-5.21228e-06 6.05101e-06 -0.000181619
0.000617403 0.000508983 3.41389e-06
0.000508983 -2.56756e-05 -5.73606e-06
3.41389e-06 -5.73606e-06 -0.000439411
0.000956126 0.000315459 -3.30826e-06
0.000315459 0.000227666 -3.13892e-06
-3.30826e-06 -3.13892e-06 -6.54468e-05
-8.75457e-05 0.000218568 -4.38026e-06
0.000218568 -0.000392083 -2.87918e-06
-4.38026e-06 -2.87918e-06 -0.000668661
0.00182673 0.000204666 4.55306e-07
0.000204666 0.000846913 -3.71114e-06
4.55306e-07 -3.71114e-06 0.000611925
0.000951026 0.000194278 2.19756e-06
0.000194278 0.000339239 -1.13946e-06
2.19756e-06 -1.13946e-06 6.84867e-05
0.000536384 0.000175953 -2.93788e-05
0.000175953 6.14973e-06 -2.0869e-05
-2.93788e-05 -2.0869e-05 -0.000109619
0.000168941 0.000156332 -9.91011e-07
0.000156332 -9.15602e-05 1.71461e-05
-9.91011e-07 1.71461e-05 -0.000356836
0.000465368 0.000116587 -6.74e-07
0.000116587 1.09094e-05 -4.59443e-07
-6.74e-07 -4.59443e-07 -8.42903e-05
0.0047368 -0.000134536 -0.000146093
-0.000134536 0.00283546 -1.92562e-05
-0.000146093 -1.92562e-05 0.0028235
0.00380135 -0.000139816 -1.40634e-05
-0.000139816 0.00221313 1.44362e-06
-1.40634e-05 1.44362e-06 0.00220346
0.000144148 9.27457e-05 1.33441e-05
9.27457e-05 -0.000178436 1.80292e-05
1.33441e-05 1.80292e-05 -0.000246983
0.00328847 -0.000122776 4.84777e-05
-0.000122776 0.00186528 7.63781e-06
4.84777e-05 7.63781e-06 0.00185972
0.00172316 0.00054928 0.00013126
0.00054928 -0.00296436 2.97781e-05
0.00013126 2.97781e-05 -0.000484689
0.00565272 -0.000448129 0.00028074
-0.000448129 -0.00640406 0.000162322
0.00028074 0.000162322 -0.00689979
0.0171224 -0.00605353 -0.000351006
-0.00605353 0.00939023 -0.000137355
-0.000351006 -0.000137355 0.00373519
0.00183933 0.000872706 1.19729e-05
0.000872706 0.000172451 1.21553e-05
1.19729e-05 1.21553e-05 -0.000273739
0.00433919 0.00108839 -1.83068e-05
0.00108839 0.00234941 -1.49958e-05
-1.83068e-05 -1.49958e-05 0.00174112
0.00050009 0.000804405 -1.26192e-05
0.000804405 -9.76336e-05 -1.7034e-05
-1.26192e-05 -1.7034e-05 -0.000708838
0.00175929 0.00112263 7.9023e-07
0.00112263 0.000568919 7.28336e-07
7.9023e-07 7.28336e-07 -1.13946e-05
0.00215077 0.0010395 6.71383e-08
0.0010395 0.000624821 5.26118e-06
6.71383e-08 5.26118e-06 3.22608e-05
0.00240831 0.00116464 3.08768e-05
0.00116464 0.000691569 1.8631e-05
3.08768e-05 1.8631e-05 0.00015365
0.00198866 0.00120349 -3.78204e-05
0.00120349 0.000621182 -3.85875e-06
-3.78204e-05 -3.85875e-06 5.26886e-05
0.00118711 0.000967434 -8.42293e-07
0.000967434 0.000283485 -3.84223e-05
-8.42293e-07 -3.84223e-05 -0.000102988
0.00211486 0.00125136 1.93464e-06
0.00125136 0.000515095 -9.41069e-07
1.93464e-06 -9.41069e-07 2.23913e-05
0.00118344 0.00117194 1.64864e-05
0.00117194 -0.000167311 -3.722e-05
1.64864e-05 -3.722e-05 -0.000331261
0.00225851 0.00119756 2.91232e-05
0.00119756 0.000400967 -2.52344e-06
2.91232e-05 -2.52344e-06 -0.000126281
0.00237474 0.00105662 3.70444e-05
0.00105662 0.000399277 4.50127e-05
3.70444e-05 4.50127e-05 0.000189265
0.00118921 0.00125352 -1.06468e-05
0.00125352 -9.80839e-05 -1.02487e-05
-1.06468e-05 -1.02487e-05 -0.000506978
0.00169721 0.00133121 -4.37977e-05
0.00133121 0.000197481 -7.67079e-06
-4.37977e-05 -7.67079e-06 -5.96451e-05
0.00284076 0.00137833 3.96165e-05
0.00137833 -0.00131151 4.34183e-05
3.96165e-05 4.34183e-05 -0.000207306
0.00627869 0.00315058 -0.000124401
0.00315058 -0.00278539 -4.97014e-05
-0.000124401 -4.97014e-05 0.00039534
0.00451071 0.00427651 0.000855584
0.00427651 -0.00778033 0.000256365
0.000855584 0.000256365 -0.00788745
0.00357797 0.00326332 -0.000303764
0.00326332 -0.00021575 -0.000140551
-0.000303764 -0.000140551 0.00107735
0.00589327 0.00272337 -3.56845e-05
0.00272337 0.000861013 -9.49671e-06
-3.56845e-05 -9.49671e-06 0.000821521
0.00753216 0.00281155 -0.000222353
0.00281155 0.0026966 -5.74122e-05
-0.000222353 -5.74122e-05 0.00198972
0.00373185 -0.000245079 -4.43605e-05
-0.000245079 -0.000791078 -2.49546e-05
-4.43605e-05 -2.49546e-05 -3.77075e-05
0.000234992 -0.000752735 0.000141065
-0.000752735 -0.00242508 3.70537e-05
0.000141065 3.70537e-05 -0.000307491
0.00739615 0.00015438 0.000310053
0.00015438 -0.00626548 -1.53984e-05
0.000310053 -1.53984e-05 -0.00649291
0.00215748 -0.00147818 -8.06424e-05
-0.00147818 -0.0010435 0.000100952
-8.06424e-05 0.000100952 -0.000333617
0.00642393 -0.0014758 -0.000228506
-0.0014758 -0.00167743 6.44659e-05
-0.000228506 6.44659e-05 0.000121901
0.00338777 -0.00108845 -2.92564e-05
-0.00108845 -0.000674299 1.22564e-05
-2.92564e-05 1.22564e-05 0.000170421
0.00465612 -0.000791705 -3.21555e-05
-0.000791705 -0.000216761 3.55784e-07
-3.21555e-05 3.55784e-07 0.000645425
0.00471619 -0.000573058 0.000105306
-0.000573058 0.000866399 -2.02471e-05
0.000105306 -2.02471e-05 0.00125082
0.00285235 -0.000117698 4.81961e-05
-0.000117698 3.00655e-05 2.38705e-06
4.81961e-05 2.38705e-06 0.000243875
0.000666416 -0.000736622 -1.73056e-05
-0.000736622 -0.00123076 1.36968e-05
-1.73056e-05 1.36968e-05 -0.000831144
0.0026104 -0.000714976 -3.48229e-06
-0.000714976 -0.00032932 5.76582e-07
-3.48229e-06 5.76582e-07 2.3406e-06
0.00269765 -0.000537769 2.90843e-06
-0.000537769 -0.000261516 -2.41352e-06
2.90843e-06 -2.41352e-06 2.07353e-05
0.00271674 -0.000842528 -3.27498e-06
-0.000842528 -3.08089e-05 2.7302e-06
-3.27498e-06 2.7302e-06 -3.74821e-06
0.00275305 -0.000702556 -1.7461e-07
-0.000702556 1.60123e-05 -4.68716e-07
-1.7461e-07 -4.68716e-07 6.40552e-05
0.00254705 -0.000525296 -1.6574e-06
-0.000525296 -0.000104508 -7.48713e-07
-1.6574e-06 -7.48713e-07 -2.72933e-05
0.00251969 -0.000746488 -5.72941e-07
-0.000746488 2.0517e-05 5.58341e-07
-5.72941e-07 5.58341e-07 -6.66474e-06
0.00251194 -0.000645292 -6.3377e-07
-0.000645292 1.30161e-05 -4.22236e-08
-6.3377e-07 -4.22236e-08 -1.04413e-05
0.00239946 -0.000533698 1.04231e-07
-0.000533698 3.30876e-05 -5.62931e-07
1.04231e-07 -5.62931e-07 -7.19804e-06
0.00253375 -0.000734283 -5.88522e-08
-0.000734283 0.000157121 -3.85065e-07
-5.88522e-08 -3.85065e-07 5.76155e-05
0.0024372 -0.000642982 1.00606e-06
-0.000642982 0.000116566 -9.17857e-08
1.00606e-06 -9.17857e-08 2.12047e-05
0.00232459 -0.000572071 -1.06575e-06
-0.000572071 0.000140693 4.0362e-07
-1.06575e-06 4.0362e-07 1.56455e-05
0.00224379 -0.000665925 -1.42756e-06
-0.000665925 0.000106552 5.8682e-07
-1.42756e-06 5.8682e-07 -4.84842e-05
0.00228903 -0.000629664 -1.15687e-06
-0.000629664 0.000201839 4.83032e-07
-1.15687e-06 4.83032e-07 9.09404e-06
0.00239542 -0.000615388 -1.49407e-06
-0.000615388 0.000314541 -1.56916e-06
-1.49407e-06 -1.56916e-06 8.89491e-05
0.00230553 -0.000640982 3.1552e-06
-0.000640982 0.000277416 1.76067e-06
3.1552e-06 1.76067e-06 3.4641e-05
0.00230538 -0.000647243 -3.49519e-07
-0.000647243 0.000305069 2.50929e-07
-3.49519e-07 2.50929e-07 3.76286e-05
0.00220696 -0.000589883 -3.93872e-06
-0.000589883 0.000334125 -1.87637e-06
-3.93872e-06 -1.87637e-06 3.72254e-05
0.00138383 -0.000451797 -1.98231e-05
-0.000451797 5.73994e-05 6.64643e-06
-1.98231e-05 6.64643e-06 -0.000253763
0.00205227 -0.000644114 -3.22882e-07
-0.000644114 0.000274534 -1.38011e-06
-3.22882e-07 -1.38011e-06 -7.95176e-05
0.00215339 -0.000697432 1.25311e-06
-0.000697432 0.000221392 3.06261e-06
1.25311e-06 3.06261e-06 -0.000114471
0.00012337 -0.00026393 -2.14931e-05
-0.00026393 -0.00034881 2.20456e-05
-2.14931e-05 2.20456e-05 -0.00053516
0.00131589 -0.000495694 6.78732e-07
-0.000495694 0.000114016 -8.84212e-08
6.78732e-07 -8.84212e-08 -0.000239588
0.00229789 -0.00079216 4.50332e-06
-0.00079216 0.000524222 3.82989e-06
4.50332e-06 3.82989e-06 7.00498e-05
0.00851985 -5.56079e-05 -0.000357877
-5.56079e-05 0.00517021 3.25583e-05
-0.000357877 3.25583e-05 0.00518641
0.000141672 -0.000287109 1.01951e-06
-0.000287109 -0.000311594 2.15079e-06
1.01951e-06 2.15079e-06 -0.000501628
0.000611297 -0.000420266 1.89029e-05
-0.000420266 -0.000193665 -5.62159e-06
1.89029e-05 -5.62159e-06 -0.000544334
0.00804274 -2.32418e-05 -1.0223e-05
-2.32418e-05 0.00489835 1.00363e-06
-1.0223e-05 1.00363e-06 0.004908
0.000237887 -0.000287573 2.16702e-05
-0.000287573 -0.000221455 -2.74734e-05
2.16702e-05 -2.74734e-05 -0.000399757
0.00733337 4.5842e-05 0.000296012
4.5842e-05 0.00448902 -3.76333e-05
0.000296012 -3.76333e-05 0.0044844
0.00186617 0.000811972 -5.25622e-06
0.000811972 0.000248941 1.2007e-05
-5.25622e-06 1.2007e-05 -0.000203973
0.00209513 0.000933682 -1.98616e-06
0.000933682 0.00059174 1.07776e-06
-1.98616e-06 1.07776e-06 2.98768e-05
0.00174977 0.00075067 -7.21852e-06
0.00075067 0.000418187 7.75336e-06
-7.21852e-06 7.75336e-06 -7.66994e-05
0.000969615 0.000746674 -3.01534e-06
0.000746674 6.63092e-05 -8.55465e-06
-3.01534e-06 -8.55465e-06 -0.000474805
0.00160924 0.00061515 -3.17348e-06
0.00061515 0.000504479 -1.72737e-06
-3.17348e-06 -1.72737e-06 5.48861e-05
0.000454216 0.000311717 -1.27292e-05
0.000311717 -0.00011951 -2.502e-06
-1.27292e-05 -2.502e-06 -0.000421403
0.00149756 0.000320808 -1.04675e-06
0.000320808 0.000513092 -7.82156e-06
-1.04675e-06 -7.82156e-06 0.000222856
0.000451678 0.000269032 3.41972e-06
0.000269032 -8.03987e-05 -1.09549e-06
3.41972e-06 -1.09549e-06 -0.00033011
0.000350413 0.000219724 -3.26948e-05
0.000219724 -0.000155275 -2.14252e-05
-3.26948e-05 -2.14252e-05 -0.000275502
0.00103774 0.000210408 1.92556e-06
0.000210408 0.000376565 8.78054e-06
1.92556e-06 8.78054e-06 0.000112174
0.000633868 0.000167389 -1.03256e-06
0.000167389 7.40053e-05 -8.30761e-07
-1.03256e-06 -8.30761e-07 -3.66841e-05
0.00610779 -0.00018168 -0.000191011
-0.00018168 0.00374984 -2.58022e-05
-0.000191011 -2.58022e-05 0.00372034
0.000252322 0.000116231 1.86049e-05
0.000116231 -0.000118728 2.11702e-05
1.86049e-05 2.11702e-05 -0.000210469
0.00442378 -0.000174476 -1.62267e-05
-0.000174476 0.00264303 1.89048e-06
-1.62267e-05 1.89048e-06 0.00262017
0.00366258 -0.000153896 6.28387e-05
-0.000153896 0.00212499 9.39576e-06
6.28387e-05 9.39576e-06 0.00211062
0.000778083 0.00045721 1.7928e-05
0.00045721 -0.00258371 1.51634e-05
1.7928e-05 1.51634e-05 -0.00119877
0.00533107 0.000412629 7.41917e-05
0.000412629 -0.00175378 3.31743e-05
7.41917e-05 3.31743e-05 0.000737871
0.0173963 0.000880613 3.22256e-05
0.000880613 0.000803747 0.0001137
3.22256e-05 0.0001137 0.00195672
0.00236161 0.00101595 3.61749e-06
0.00101595 0.000420258 6.64105e-06
3.61749e-06 6.64105e-06 -3.11359e-05
0.00231852 0.000912591 6.86611e-07
0.000912591 0.000246728 6.24483e-06
6.86611e-07 6.24483e-06 -0.000126994
0.00183225 0.000875938 -7.0675e-07
0.000875938 0.000172932 -4.85671e-06
-7.0675e-07 -4.85671e-06 -0.000269689
0.00339288 0.00133142 -1.87127e-05
0.00133142 0.00154619 -2.52169e-06
-1.87127e-05 -2.52169e-06 0.000910045
0.00223795 0.001047 -1.56058e-05
0.001047 0.000705374 -1.29857e-05
-1.56058e-05 -1.29857e-05 0.000106517
0.00242091 0.00120821 6.66088e-06
0.00120821 0.000647346 2.67623e-06
6.66088e-06 2.67623e-06 0.000105476
0.00258191 0.00114981 -5.98502e-06
0.00114981 0.000284502 -5.10847e-07
-5.98502e-06 -5.10847e-07 -0.000109353
0.00193761 0.0013067 -1.37865e-05
0.0013067 0.000340516 -4.86348e-06
-1.37865e-05 -4.86348e-06 -0.000152385
0.000895132 0.00117301 -3.80063e-05
0.00117301 -0.000341221 0.000101188
-3.80063e-05 0.000101188 -0.000490183
0.00298641 0.00132128 1.59482e-06
0.00132128 0.000784621 -5.33603e-06
1.59482e-06 -5.33603e-06 0.000235067
0.00317263 0.00112061 -1.9859e-07
0.00112061 0.000490549 1.54112e-05
-1.9859e-07 1.54112e-05 0.000253158
0.00212672 0.000534479 6.4596e-05
0.000534479 3.7085e-05 1.03127e-05
6.4596e-05 1.03127e-05 0.00022433
0.000377373 0.000840487 6.59378e-06
0.000840487 -0.000641808 -1.30556e-05
6.59378e-06 -1.30556e-05 -0.000821049
0.000917495 0.00118477 -4.91181e-05
0.00118477 -0.000220728 -4.29594e-06
-4.91181e-05 -4.29594e-06 -0.000612797
0.00402867 0.00151631 3.08641e-05
0.00151631 -0.0006464 1.44183e-05
3.08641e-05 1.44183e-05 0.000329295
0.010181 0.0032065 -8.5923e-05
0.0032065 -0.000598679 -5.95757e-05
-8.5923e-05 -5.95757e-05 0.00182565
0.00572844 0.00229872 -8.13866e-05
0.00229872 0.00129786 -9.77925e-05
-8.13866e-05 -9.77925e-05 0.00135869
0.00334158 -5.4225e-05 7.35265e-05
-5.4225e-05 0.000316894 7.76972e-06
7.35265e-05 7.76972e-06 0.000632882
0.00368068 -0.000269963 -0.000105524
-0.000269963 -0.00094957 1.00547e-05
-0.000105524 1.00547e-05 5.1055e-05
0.00542318 0.00055261 -2.57078e-05
0.00055261 -0.000370121 -1.80349e-05
-2.57078e-05 -1.80349e-05 0.00116982
0.00099111 -0.000948215 -0.000100192
-0.000948215 -0.00210221 7.68663e-05
-0.000100192 7.68663e-05 -0.00114346
0.00275355 -0.000782695 -0.000109754
-0.000782695 -0.001134 8.55188e-06
-0.000109754 8.55188e-06 -0.000434753
0.00329841 -0.000515687 6.18592e-07
-0.000515687 -4.86155e-05 -5.54575e-06
6.18592e-07 -5.54575e-06 0.000493859
0.0024781 -0.000113254 -1.54602e-05
-0.000113254 -0.000212505 -1.90934e-06
-1.54602e-05 -1.90934e-06 3.192e-05
0.00263155 -0.000316055 8.55315e-06
-0.000316055 -0.000310235 -2.0334e-07
8.55315e-06 -2.0334e-07 -5.95342e-06
0.00242214 8.57183e-05 3.79708e-06
8.57183e-05 -0.000419818 3.7986e-07
3.79708e-06 3.7986e-07 -0.000208557
0.00267966 -0.000755014 -1.982e-05
-0.000755014 -0.000282866 8.35743e-06
-1.982e-05 8.35743e-06 4.35311e-06
0.00275014 -0.000566477 -3.03303e-06
-0.000566477 -0.00024279 6.87674e-07
-3.03303e-06 6.87674e-07 4.91723e-07
0.00262126 -0.000384488 -9.80605e-07
-0.000384488 -0.000174831 -6.52269e-07
-9.80605e-07 -6.52269e-07 1.13526e-05
0.00274737 -0.00067819 -2.95945e-06
-0.00067819 4.07135e-05 1.0464e-06
-2.95945e-06 1.0464e-06 0.000102978
0.00256564 -0.000527996 2.94908e-07
-0.000527996 -8.20018e-05 -2.0025e-07
2.94908e-07 -2.0025e-07 -1.13005e-05
0.00243214 -0.000428316 6.19292e-07
-0.000428316 -5.11386e-05 -3.89493e-07
6.19292e-07 -3.89493e-07 -5.36923e-06
0.00250795 -0.000648094 -6.97306e-07
-0.000648094 2.45834e-05 5.38875e-07
-6.97306e-07 5.38875e-07 3.43473e-06
0.00241414 -0.00053293 3.86858e-07
-0.00053293 3.65205e-05 -1.37515e-07
3.86858e-07 -1.37515e-07 -3.77105e-06
0.00231171 -0.000475413 -1.07587e-06
-0.000475413 6.61695e-05 1.35961e-07
-1.07587e-06 1.35961e-07 1.43143e-06
0.00243836 -0.000644425 1.86733e-06
-0.000644425 0.000114967 8.65523e-09
1.86733e-06 8.65523e-09 1.91025e-05
0.00230913 -0.000572198 6.70617e-07
-0.000572198 0.000125482 -1.55484e-07
6.70617e-07 -1.55484e-07 3.07404e-07
0.00230784 -0.000540407 -2.54796e-06
-0.000540407 0.000198627 2.79281e-08
-2.54796e-06 2.79281e-08 2.46288e-05
0.00219153 -0.000624799 5.24312e-07
-0.000624799 0.000129582 2.06937e-07
5.24312e-07 2.06937e-07 -5.98389e-05
0.00228084 -0.00060849 2.83279e-08
-0.00060849 0.000237894 -3.89808e-07
2.83279e-08 -3.89808e-07 1.27509e-05
0.00214822 -0.000547174 -3.13048e-06
-0.000547174 0.000232084 -1.48912e-06
-3.13048e-06 -1.48912e-06 -2.58415e-05
0.00227759 -0.000645893 7.55609e-07
-0.000645893 0.000285892 3.42205e-06
7.55609e-07 3.42205e-06 2.11635e-05
0.00221522 -0.000593371 -6.82707e-07
-0.000593371 0.000340183 -9.30769e-08
-6.82707e-07 -9.30769e-08 4.44571e-05
0.00140561 -0.000392645 -1.50871e-05
-0.000392645 4.66477e-05 6.00446e-06
-1.50871e-05 6.00446e-06 -0.000223138
0.000332391 -0.000255552 -1.91162e-05
-0.000255552 -0.000250294 2.06977e-05
-1.91162e-05 2.06977e-05 -0.000428244
0.00142264 -0.000452953 -1.24041e-08
-0.000452953 8.63533e-05 1.55786e-07
-1.24041e-08 1.55786e-07 -0.000223621
0.00204281 -0.000643361 3.6635e-06
-0.000643361 0.00027405 1.49952e-06
3.6635e-06 1.49952e-06 -8.51809e-05
0.00860508 -0.000148691 -0.000402234
-0.000148691 0.00520314 3.80446e-05
-0.000402234 3.80446e-05 0.00522879
0.000326603 -0.00027949 -1.32477e-06
-0.00027949 -0.000230337 1.04802e-06
-1.32477e-06 1.04802e-06 -0.000415191
0.00120875 -0.000478921 2.1644e-05
-0.000478921 6.33513e-05 -6.29399e-06
2.1644e-05 -6.29399e-06 -0.000285377
0.00864424 -9.55549e-05 -1.63594e-07
-9.55549e-05 0.00524891 1.66666e-06
-1.63594e-07 1.66666e-06 0.00526773
0.000126171 -0.000299164 2.61507e-05
-0.000299164 -0.000323829 -2.52421e-05
2.61507e-05 -2.52421e-05 -0.000516179
0.00850069 -6.77598e-05 0.00036986
-6.77598e-05 0.00518327 -3.98829e-05
0.00036986 -3.98829e-05 0.00519631
0.00211144 0.000836016 1.11737e-06
0.000836016 0.000238316 1.10194e-05
1.11737e-06 1.10194e-05 -0.000155792
0.0019695 0.000830461 1.42757e-06
0.000830461 0.0003252 -9.19354e-08
1.42757e-06 -9.19354e-08 -0.000129343
0.00218219 0.000780305 -3.29068e-06
0.000780305 0.000521135 8.76107e-06
-3.29068e-06 8.76107e-06 6.46161e-05
0.00202294 0.000916075 8.17449e-06
0.000916075 0.000558916 -9.20728e-06
8.17449e-06 -9.20728e-06 1.81199e-06
0.00177608 0.00075221 -2.60416e-07
0.00075221 0.000433427 1.43861e-06
-2.60416e-07 1.43861e-06 -6.33881e-05
0.000776531 0.000377692 -2.31831e-05
0.000377692 -6.00863e-05 -2.31346e-06
-2.31831e-05 -2.31346e-06 -0.000380109
0.00207367 0.000620249 -1.03518e-06
0.000620249 0.000749687 -3.85206e-06
-1.03518e-06 -3.85206e-06 0.000308176
0.000567981 0.000277766 8.54913e-07
0.000277766 -6.09241e-05 -3.00067e-07
8.54913e-07 -3.00067e-07 -0.000343516
0.000527477 0.000285701 -3.43116e-05
0.000285701 -5.56297e-05 -2.62891e-05
-3.43116e-05 -2.62891e-05 -0.000206194
0.00152385 0.000204248 2.57182e-06
0.000204248 0.000593649 2.53426e-06
2.57182e-06 2.53426e-06 0.000350367
0.000366244 0.000206623 3.5286e-06
0.000206623 -0.000141317 -1.26975e-06
3.5286e-06 -1.26975e-06 -0.000261185
0.00709093 -0.000163873 -0.0002415
-0.000163873 0.0043719 -3.1073e-05
-0.0002415 -3.1073e-05 0.00434397
0.000300167 0.00016036 2.5443e-05
0.00016036 -0.000128357 2.26231e-05
2.5443e-05 2.26231e-05 -0.000237434
0.00555906 -0.00019171 -1.05045e-05
-0.00019171 0.00338852 2.79475e-07
-1.05045e-05 2.79475e-07 0.00335889
0.00428239 -0.000193178 8.62601e-05
-0.000193178 0.00255303 1.34523e-05
8.62601e-05 1.34523e-05 0.00252602
0.00171825 0.000333838 4.98403e-05
0.000333838 -0.000504651 1.68754e-05
4.98403e-05 1.68754e-05 -6.51371e-05
0.00207954 0.000536749 -6.88371e-06
0.000536749 -0.0022181 -7.07289e-06
-6.88371e-06 -7.07289e-06 -0.000792685
0.00543125 0.000985599 0.000282875
0.000985599 -0.00191893 0.000111076
0.000282875 0.000111076 0.000937526
0.0027416 0.000978041 -9.32997e-06
0.000978041 0.000425068 1.73422e-07
-9.32997e-06 1.73422e-07 7.76565e-05
0.00231672 0.00103134 -9.10959e-06
0.00103134 0.000378671 -5.28243e-06
-9.10959e-06 -5.28243e-06 -7.27263e-05
0.00247231 0.000739484 4.17771e-06
0.000739484 0.000221213 4.4289e-06
4.17771e-06 4.4289e-06 -2.03594e-05
0.00250914 0.000920686 1.49659e-06
0.000920686 0.000371308 4.31076e-07
1.49659e-06 4.31076e-07 2.75294e-06
0.00186868 0.000880463 -4.49576e-06
0.000880463 0.000205533 -1.53807e-05
-4.49576e-06 -1.53807e-05 -0.000233635
0.0028293 0.000881995 -6.57008e-06
0.000881995 0.000206295 1.47202e-06
-6.57008e-06 1.47202e-06 2.75243e-05
0.00257154 0.00126962 -1.01806e-05
0.00126962 0.000684198 -7.83075e-06
-1.01806e-05 -7.83075e-06 0.000132253
0.0027719 0.00112903 -1.45654e-06
0.00112903 0.000425261 -1.16619e-06
-1.45654e-06 -1.16619e-06 3.35352e-05
0.00234779 0.000540645 -1.34258e-05
0.000540645 -0.000287127 4.86581e-08
-1.34258e-05 4.86581e-08 -0.000156597
0.00293149 0.00137019 -1.50726e-05
0.00137019 0.000676882 1.96592e-05
-1.50726e-05 1.96592e-05 0.000177978
0.00280438 0.00107788 1.21017e-06
0.00107788 0.000285604 -3.21773e-06
1.21017e-06 -3.21773e-06 5.11156e-05
0.000539906 0.000503482 -1.6635e-05
0.000503482 -0.000993573 8.47505e-07
-1.6635e-05 8.47505e-07 -0.000689199
-0.00258792 0.000541814 -2.74345e-05
0.000541814 -0.002217 -1.71804e-05
-2.74345e-05 -1.71804e-05 -0.00232941
0.00459528 0.0016386 -0.000174898
0.0016386 -0.000337986 -6.60621e-05
-0.000174898 -6.60621e-05 0.000524683
0.00271588 0.00019235 1.4146e-06
0.00019235 -0.000175399 -2.06924e-06
1.4146e-06 -2.06924e-06 4.51525e-05
0.00307638 -2.70688e-05 -3.2359e-06
-2.70688e-05 0.000198393 5.94622e-07
-3.2359e-06 5.94622e-07 0.000443229
0.00329326 -0.000341795 -0.000135773
-0.000341795 -0.00120152 -9.76307e-06
-0.000135773 -9.76307e-06 -3.50564e-05
0.00149793 -0.00043505 -9.26619e-05
-0.00043505 -0.00119983 2.14709e-05
-9.26619e-05 2.14709e-05 -0.00048827
0.0021757 -0.000121559 -1.64812e-05
-0.000121559 -0.0003994 -1.63653e-06
-1.64812e-05 -1.63653e-06 -0.000134754
0.00255883 -0.000326261 4.79863e-06
-0.000326261 -0.000374369 -7.78003e-07
4.79863e-06 -7.78003e-07 -3.05508e-05
0.00272963 9.9654e-05 -3.118e-06
9.9654e-05 -0.000217061 -4.88716e-07
-3.118e-06 -4.88716e-07 -2.21504e-05
0.00262812 -6.65069e-05 -2.25995e-06
-6.65069e-05 -0.000207334 -6.82456e-07
-2.25995e-06 -6.82456e-07 1.17874e-05
0.00278406 -0.00059015 -2.61869e-06
-0.00059015 -0.000227425 1.87178e-06
-2.61869e-06 1.87178e-06 -2.32412e-05
0.00255504 -0.000368634 3.05607e-07
-0.000368634 -0.000197871 -3.33084e-07
3.05607e-07 -3.33084e-07 -2.23538e-05
0.00246584 -0.000276255 1.14602e-06
-0.000276255 -8.79955e-05 -3.42922e-07
1.14602e-06 -3.42922e-07 3.42287e-05
0.00258504 -0.000531041 2.95967e-07
-0.000531041 -5.76138e-05 8.62674e-07
2.95967e-07 8.62674e-07 5.78084e-06
0.00243315 -0.000426763 2.71992e-07
-0.000426763 -4.73094e-05 1.12776e-07
2.71992e-07 1.12776e-07 -4.77236e-06
0.00228773 -0.00036041 -4.93011e-07
-0.00036041 2.24173e-06 2.39244e-08
-4.93011e-07 2.39244e-08 -3.7293e-06
0.00242929 -0.000531922 7.28949e-07
-0.000531922 4.02349e-05 3.42682e-07
7.28949e-07 3.42682e-07 -6.68577e-08
0.00231753 -0.000476579 3.76066e-07
-0.000476579 6.68431e-05 1.53649e-08
3.76066e-07 1.53649e-08 1.8195e-06
0.00232265 -0.000450754 -4.12974e-06
-0.000450754 0.000143641 8.54088e-07
-4.12974e-06 8.54088e-07 3.19558e-05
0.00229558 -0.000572534 2.04578e-06
-0.000572534 0.000111717 -6.38143e-07
2.04578e-06 -6.38143e-07 -1.36547e-05
0.00226415 -0.000535888 4.48134e-07
-0.000535888 0.000169563 -4.81989e-07
4.48134e-07 -4.81989e-07 -3.83732e-06
0.00215544 -0.000476972 -2.09915e-06
-0.000476972 0.000179477 -1.40932e-06
-2.09915e-06 -1.40932e-06 -2.96176e-05
0.00216905 -0.000601794 1.11048e-06
-0.000601794 0.000162619 6.73011e-07
1.11048e-06 6.73011e-07 -6.20117e-05
0.00219413 -0.000549713 -7.26269e-07
-0.000549713 0.000267277 1.38127e-07
-7.26269e-07 1.38127e-07 9.01275e-06
0.00139014 -0.000342896 -1.1552e-05
-0.000342896 1.33391e-05 4.88087e-06
-1.1552e-05 4.88087e-06 -0.000224969
0.0022101 -0.000595472 2.94824e-06
-0.000595472 0.000337428 1.96224e-06
2.94824e-06 1.96224e-06 4.32108e-05
0.00143136 -0.00039505 3.61693e-08
-0.00039505 5.72557e-05 1.95736e-07
3.61693e-08 1.95736e-07 -0.00021186
0.00298809 -0.000259737 -5.95579e-05
-0.000259737 0.00144771 1.52195e-05
-5.95579e-05 1.52195e-05 0.00130788
0.00282825 -0.000145715 -0.000315778
-0.000145715 0.00147273 4.89524e-05
-0.000315778 4.89524e-05 0.00145526
0.00171221 -0.000277533 -1.80263e-05
-0.000277533 0.000637458 3.9785e-07
-1.80263e-05 3.9785e-07 0.000471595
0.0014416 -0.000452536 1.82617e-05
-0.000452536 0.000102107 -6.30917e-06
1.82617e-05 -6.30917e-06 -0.000206442
0.00842 -0.000150892 -1.03438e-05
-0.000150892 0.00509518 2.86785e-06
-1.03438e-05 2.86785e-06 0.00511423
0.000142705 -0.00029841 2.32372e-05
-0.00029841 -0.000348098 -2.25646e-05
2.32372e-05 -2.25646e-05 -0.000538144
0.00868094 -0.000104726 0.00037612
-0.000104726 0.00527797 -4.20844e-05
0.00037612 -4.20844e-05 0.00529148
0.00231178 0.000573507 1.80312e-06
0.000573507 0.000135768 1.49323e-06
1.80312e-06 1.49323e-06 -3.22828e-05
0.0023552 0.000745401 4.1391e-06
0.000745401 0.000313806 7.68397e-06
4.1391e-06 7.68397e-06 9.80039e-06
0.00237055 0.000853782 6.26438e-07
0.000853782 0.000404136 7.15328e-08
6.26438e-07 7.15328e-08 1.35928e-05
0.0021651 0.000734026 -1.08108e-06
0.000734026 0.000408763 8.34423e-06
-1.08108e-06 8.34423e-06 1.24524e-05
0.00202646 0.000849658 7.09115e-06
0.000849658 0.000361098 -1.04167e-05
7.09115e-06 -1.04167e-05 -9.60124e-05
0.00200475 0.000762204 5.85191e-07
0.000762204 0.000403212 5.87453e-07
5.85191e-07 5.87453e-07 -5.04926e-05
0.0010689 0.000455384 -3.47351e-05
0.000455384 3.01297e-05 -3.74867e-06
-3.47351e-05 -3.74867e-06 -0.00030961
0.00175064 0.000751388 7.83556e-06
0.000751388 0.000407732 -6.45465e-06
7.83556e-06 -6.45465e-06 -9.08038e-05
0.000875066 0.000384766 -2.80747e-06
0.000384766 1.26717e-05 2.46314e-07
-2.80747e-06 2.46314e-07 -0.000305491
0.000219465 0.000317894 -3.1729e-05
0.000317894 -0.000260072 -2.44545e-05
-3.1729e-05 -2.44545e-05 -0.000442137
0.000872512 0.000262218 1.16955e-05
0.000262218 0.000130581 -1.11691e-06
1.16955e-05 -1.11691e-06 -0.000136866
0.000275752 0.000240277 4.58466e-06
0.000240277 -0.000213201 -1.45849e-06
4.58466e-06 -1.45849e-06 -0.000360312
0.00839629 -3.82087e-05 -0.000332054
-3.82087e-05 0.00514557 -3.74395e-05
-0.000332054 -3.74395e-05 0.00514229
0.000582377 0.000186518 3.07517e-05
0.000186518 2.23025e-06 2.16825e-05
3.07517e-05 2.16825e-05 -0.000115874
0.00683066 -0.000164939 8.85181e-06
-0.000164939 0.0041911 -3.69551e-06
8.85181e-06 -3.69551e-06 0.00416806
0.00504437 -0.000237731 0.000109874
-0.000237731 0.00307897 1.89884e-05
0.000109874 1.89884e-05 0.0030333
0.00253482 0.00025021 -5.52441e-06
0.00025021 -0.000322641 4.78675e-07
-5.52441e-06 4.78675e-07 -5.80207e-05
0.00172805 0.000272933 1.19102e-05
0.000272933 -0.000777724 -3.42647e-06
1.19102e-05 -3.42647e-06 -0.000214108
0.00377316 0.000645314 -0.000164159
0.000645314 -0.00164019 -1.30159e-05
-0.000164159 -1.30159e-05 -0.000142063
0.0025277 0.000686154 -2.08282e-06
0.000686154 0.000148196 1.49064e-06
-2.08282e-06 1.49064e-06 1.37539e-06
0.00263646 0.000956588 -4.14492e-06
0.000956588 0.000400011 -7.32465e-07
-4.14492e-06 -7.32465e-07 6.08291e-05
0.00226505 0.00104469 -4.90542e-06
0.00104469 0.000331615 -9.22853e-06
-4.90542e-06 -9.22853e-06 -0.000118276
0.00244836 0.000719835 1.33936e-06
0.000719835 0.000225598 1.34549e-06
1.33936e-06 1.34549e-06 -1.35889e-05
0.00258153 0.000918594 -1.01418e-06
0.000918594 0.00041874 -7.63742e-06
-1.01418e-06 -7.63742e-06 5.66545e-05
0.00272542 0.000539859 4.47779e-06
0.000539859 -4.47795e-05 1.00623e-06
4.47779e-06 1.00623e-06 3.96808e-05
0.00272611 0.000874263 -2.13517e-06
0.000874263 0.000160865 3.68962e-07
-2.13517e-06 3.68962e-07 -1.16367e-05
0.00290261 0.00110711 2.13494e-06
0.00110711 0.000527609 -3.31258e-06
2.13494e-06 -3.31258e-06 0.000137621
0.00224667 0.000506367 9.57648e-08
0.000506367 -0.000292322 4.45093e-07
9.57648e-08 4.45093e-07 -0.000152825
0.00250116 0.00102611 1.11904e-05
0.00102611 0.000105943 -2.95475e-06
1.11904e-05 -2.95475e-06 -0.000123329
-0.000362842 0.000463072 -4.4177e-05
0.000463072 -0.00161177 -1.26044e-05
-4.4177e-05 -1.26044e-05 -0.00118976
0.00256082 0.000109329 2.42747e-08
0.000109329 -0.000147083 -2.36002e-07
2.42747e-08 -2.36002e-07 3.04502e-05
0.00259894 0.000184851 -4.27488e-07
0.000184851 -0.000260496 7.796e-07
-4.27488e-07 7.796e-07 -3.44724e-05
0.00303934 -6.09529e-06 -6.19046e-05
-6.09529e-06 0.000208859 -5.02279e-06
-6.19046e-05 -5.02279e-06 0.000391108
0.00243809 -0.000336888 -2.28674e-05
-0.000336888 -0.000478822 2.78271e-06
-2.28674e-05 2.78271e-06 -9.20943e-05
0.00299102 0.000119051 3.86778e-06
0.000119051 -5.03682e-05 3.04612e-06
3.86778e-06 3.04612e-06 0.000129943
0.00263372 -7.42702e-05 -9.48208e-07
-7.42702e-05 -0.000215076 -7.09508e-07
-9.48208e-07 -7.09508e-07 5.8719e-06
0.00232165 -7.96646e-05 7.55811e-07
-7.96646e-05 -0.000112331 3.97466e-08
7.55811e-07 3.97466e-08 -5.09305e-06
0.00248529 -0.000351981 1.24381e-06
-0.000351981 -0.000223041 -1.36406e-07
1.24381e-06 -1.36406e-07 -5.7483e-05
0.00242057 -0.000284295 -2.25022e-08
-0.000284295 -0.000111916 -1.33778e-08
-2.25022e-08 -1.33778e-08 1.6934e-06
0.00222662 -0.000236372 8.88651e-07
-0.000236372 -4.90682e-05 -3.55579e-07
8.88651e-07 -3.55579e-07 -1.94038e-05
0.00243201 -0.000425108 -8.13232e-07
-0.000425108 -4.51559e-05 8.46657e-07
-8.13232e-07 8.46657e-07 -5.66653e-06
0.00229497 -0.000360191 8.27163e-08
-0.000360191 3.04509e-06 3.35212e-08
8.27163e-08 3.35212e-08 -3.06211e-06
0.00229402 -0.000348897 -4.91745e-06
-0.000348897 7.66023e-05 7.04543e-07
-4.91745e-06 7.04543e-07 1.92757e-05
0.00232385 -0.000477776 1.77828e-06
-0.000477776 6.75106e-05 -1.41789e-07
1.77828e-06 -1.41789e-07 2.20617e-06
0.00230179 -0.000448587 5.07473e-07
-0.000448587 0.000131564 -5.69876e-08
5.07473e-07 -5.69876e-08 2.00787e-05
0.00217153 -0.00039293 -1.86762e-06
-0.00039293 0.000150989 -1.0541e-06
-1.86762e-06 -1.0541e-06 -9.24847e-06
0.002214 -0.000530863 2.72044e-06
-0.000530863 0.000136228 -7.13868e-07
2.72044e-06 -7.13868e-07 -3.64629e-05
0.00220836 -0.000481175 -7.74494e-07
-0.000481175 0.000214379 1.08974e-07
-7.74494e-07 1.08974e-07 4.5481e-06
0.00140155 -0.000293448 -8.91256e-06
-0.000293448 2.70347e-07 3.66126e-06
-8.91256e-06 3.66126e-06 -0.000210808
0.00223979 -0.000552234 2.58121e-06
-0.000552234 0.000302426 1.27905e-06
2.58121e-06 1.27905e-06 4.38271e-05
0.00143436 -0.000347606 -1.17738e-07
-0.000347606 3.106e-05 2.53578e-07
-1.17738e-07 2.53578e-07 -0.000207003
0.00294553 -0.000239584 -6.64493e-05
-0.000239584 0.0014202 1.45694e-05
-6.64493e-05 1.45694e-05 0.00129392
0.00146073 -0.000398629 1.38201e-05
-0.000398629 6.92597e-05 -5.64163e-06
1.38201e-05 -5.64163e-06 -0.000199539
0.00310261 -0.000292899 5.70262e-05
-0.000292899 0.00152518 -9.88363e-06
5.70262e-05 -9.88363e-06 0.00139601
0.00268146 -0.000169679 -0.000306176
-0.000169679 0.00138832 5.25265e-05
-0.000306176 5.25265e-05 0.00136736
0.00535316 -0.000184143 -0.000299744
-0.000184143 0.00312389 3.75482e-05
-0.000299744 3.75482e-05 0.00312325
0.0032253 -0.000357141 0.000190121
-0.000357141 0.00162336 -3.40669e-05
0.000190121 -3.40669e-05 0.00148995
0.00829391 -0.000163411 0.00037621
-0.000163411 0.00502287 -4.59863e-05
0.00037621 -4.59863e-05 0.00503846
0.00238571 0.000548424 -4.49893e-08
0.000548424 0.00012566 -4.75177e-07
-4.49893e-08 -4.75177e-07 2.22788e-05
0.00218992 0.000589047 -2.83639e-07
0.000589047 0.000175904 2.74774e-06
-2.83639e-07 2.74774e-06 -4.24959e-05
0.00231355 0.00056428 6.30194e-07
0.00056428 0.000144013 -1.17089e-07
6.30194e-07 -1.17089e-07 -1.27233e-05
0.00219375 0.000647277 -1.43153e-06
0.000647277 0.000329736 6.37016e-06
-1.43153e-06 6.37016e-06 8.41821e-06
0.00243628 0.000753689 -7.9821e-08
0.000753689 0.000353008 -1.77868e-07
-7.9821e-08 -1.77868e-07 4.87844e-05
0.00274338 0.000882947 -6.36074e-07
0.000882947 0.00064524 -9.89978e-06
-6.36074e-07 -9.89978e-06 0.00025608
0.00209468 0.000730087 1.12187e-06
0.000730087 0.00035682 4.00226e-07
1.12187e-06 4.00226e-07 -3.96378e-05
0.0014263 0.000492157 -3.25697e-05
0.000492157 0.000134994 -4.96092e-06
-3.25697e-05 -4.96092e-06 -0.000193579
0.00188107 0.000750651 6.22918e-06
0.000750651 0.00031983 -7.67611e-06
6.22918e-06 -7.67611e-06 -0.000132792
0.00116065 0.000471464 -3.45506e-06
0.000471464 6.8717e-05 -1.15179e-07
-3.45506e-06 -1.15179e-07 -0.000274589
0.000169454 0.000301969 -2.7787e-05
0.000301969 -0.000317146 -2.21361e-05
-2.7787e-05 -2.21361e-05 -0.000508217
0.00102275 0.000388833 2.39773e-05
0.000388833 0.000117094 5.58729e-06
2.39773e-05 5.58729e-06 -0.000197997
0.000274986 0.000279704 2.68582e-06
0.000279704 -0.000233349 2.39496e-06
2.68582e-06 2.39496e-06 -0.000407481
0.00879819 6.06582e-05 -0.00036266
6.06582e-05 0.00536459 -4.28088e-05
-0.00036266 -4.28088e-05 0.00536864
6.73137e-05 0.000203174 2.67269e-05
0.000203174 -0.00035528 2.4237e-05
2.67269e-05 2.4237e-05 -0.000493845
0.00781834 -8.18188e-05 9.05954e-06
-8.18188e-05 0.00477619 -2.32442e-06
9.05954e-06 -2.32442e-06 0.00477103
0.00633353 -0.000185986 0.000182486
-0.000185986 0.00386834 1.72898e-05
0.000182486 1.72898e-05 0.00384354
0.00260588 0.00030969 2.39951e-06
0.00030969 -0.000120245 3.10969e-08
2.39951e-06 3.10969e-08 3.16217e-05
0.0024402 0.000252026 2.30024e-06
0.000252026 -0.000308992 -1.13804e-06
2.30024e-06 -1.13804e-06 -4.80561e-05
0.0011297 0.000215769 -6.62761e-05
0.000215769 -0.00142657 -4.46316e-06
-6.62761e-05 -4.46316e-06 -0.00071485
0.00244569 0.000476729 3.72333e-06
0.000476729 -2.50476e-05 1.03678e-06
3.72333e-06 1.03678e-06 -1.3753e-05
0.00247563 0.0006797 -1.02075e-06
0.0006797 0.000129816 1.89724e-07
-1.02075e-06 1.89724e-07 -1.35775e-05
0.00250213 0.000930739 7.10212e-06
0.000930739 0.000357744 -2.73574e-06
7.10212e-06 -2.73574e-06 2.8332e-05
0.00244983 0.000703112 -2.30989e-06
0.000703112 0.000245371 -3.64144e-06
-2.30989e-06 -3.64144e-06 8.99488e-06
0.00269552 0.000524199 -2.56213e-06
0.000524199 -4.61886e-05 -1.93246e-07
-2.56213e-06 -1.93246e-07 3.60682e-05
0.00260368 0.000860535 3.24481e-06
0.000860535 0.000113466 -1.65592e-06
3.24481e-06 -1.65592e-06 -5.22878e-05
0.00215474 0.000489604 1.13364e-05
0.000489604 -0.00024346 -2.04488e-06
1.13364e-05 -2.04488e-06 -0.000106083
0.00237872 8.36439e-05 2.10224e-06
8.36439e-05 -8.20397e-05 2.29869e-07
2.10224e-06 2.29869e-07 1.60277e-05
0.00250122 0.000109143 9.90983e-08
0.000109143 -0.000172284 -9.86318e-08
9.90983e-08 -9.86318e-08 6.51144e-07
0.00250737 0.00018287 -9.17487e-06
0.00018287 -0.00032057 -1.36705e-07
-9.17487e-06 -1.36705e-07 -9.28697e-05
0.00221383 -1.44123e-05 7.19112e-08
-1.44123e-05 -7.65015e-05 2.39988e-07
7.19112e-08 2.39988e-07 -1.21242e-05
0.0026563 -8.68031e-05 3.40646e-06
-8.68031e-05 -0.000211362 6.82534e-08
3.40646e-06 6.82534e-08 1.18427e-05
0.00233327 -8.38214e-05 -3.50799e-07
-8.38214e-05 -0.000105229 3.17808e-07
-3.50799e-07 3.17808e-07 1.10964e-06
0.00217223 -0.000124401 -1.24456e-07
-0.000124401 -6.85275e-05 8.54139e-08
-1.24456e-07 8.54139e-08 -3.00742e-05
0.00237464 -0.000292324 -9.37217e-07
-0.000292324 -0.000135847 4.98876e-07
-9.37217e-07 4.98876e-07 -3.12536e-05
0.00223525 -0.000232938 7.36976e-07
-0.000232938 -4.44373e-05 -3.61888e-07
7.36976e-07 -3.61888e-07 -1.39925e-05
0.00225568 -0.000240306 -3.74128e-06
-0.000240306 4.55587e-05 5.93042e-07
-3.74128e-06 5.93042e-07 1.72342e-05
0.00230491 -0.000359657 8.41409e-07
-0.000359657 5.55814e-06 -6.57847e-08
8.41409e-07 -6.57847e-08 -6.39889e-07
0.00231671 -0.000348722 2.27122e-07
-0.000348722 9.43342e-05 -1.47379e-07
2.27122e-07 -1.47379e-07 3.66247e-05
0.00218447 -0.000313631 -1.72823e-06
-0.000313631 0.000131882 -9.91162e-08
-1.72823e-06 -9.91162e-08 1.15371e-05
0.00228305 -0.000446437 4.3759e-06
-0.000446437 0.000121621 -7.86753e-07
4.3759e-06 -7.86753e-07 1.03389e-05
0.00217953 -0.000394171 -8.05156e-07
-0.000394171 0.00015081 -1.80181e-07
-8.05156e-07 -1.80181e-07 -9.59881e-06
0.00135552 -0.000240469 -5.9954e-06
-0.000240469 -3.50239e-05 2.66007e-06
-5.9954e-06 2.66007e-06 -0.000222491
0.00226969 -0.000485713 2.46263e-06
-0.000485713 0.000255499 9.3344e-07
2.46263e-06 9.3344e-07 4.49257e-05
0.0014233 -0.000294875 -2.87253e-07
-0.000294875 3.70453e-06 1.69734e-07
-2.87253e-07 1.69734e-07 -0.000206336
0.00282828 -0.000214641 -7.15956e-05
-0.000214641 0.00135296 1.36313e-05
-7.15956e-05 1.36313e-05 0.00123701
0.00147188 -0.000352075 1.04029e-05
-0.000352075 4.41225e-05 -4.49033e-06
1.04029e-05 -4.49033e-06 -0.000193641
0.00302002 -0.000256023 5.21261e-05
-0.000256023 0.00146875 -7.66436e-06
5.21261e-05 -7.66436e-06 0.00135388
0.00264832 -0.00014283 -0.00029738
-0.00014283 0.00136001 4.52449e-05
-0.00029738 4.52449e-05 0.00134197
0.00319716 -0.000295975 0.000178498
-0.000295975 0.00158112 -3.37116e-05
0.000178498 -3.37116e-05 0.00146647
0.00226756 -0.000105287 -0.000118116
-0.000105287 0.00112019 1.91324e-05
-0.000118116 1.91324e-05 0.00108265
0.00765736 -9.97861e-05 0.000133946
-9.97861e-05 0.00459543 -9.46006e-06
0.000133946 -9.46006e-06 0.00457516
0.00236292 0.000461076 4.62355e-07
0.000461076 7.92282e-05 3.25818e-07
4.62355e-07 3.25818e-07 2.34932e-05
0.00224819 0.000520945 -3.07773e-06
0.000520945 0.00011439 -9.62854e-07
-3.07773e-06 -9.62854e-07 -3.63685e-05
0.00239254 0.000546701 -2.96793e-06
0.000546701 0.000128959 2.94538e-08
-2.96793e-06 2.94538e-08 2.17049e-05
0.00212196 0.000547188 -2.39331e-06
0.000547188 0.000205588 2.37279e-06
-2.39331e-06 2.37279e-06 -5.45447e-05
0.00220981 0.000603025 -1.16891e-06
0.000603025 0.000165657 -2.21308e-06
-1.16891e-06 -2.21308e-06 -4.65018e-05
0.00229774 0.000552288 -4.95292e-06
0.000552288 0.000141049 -3.28932e-06
-4.95292e-06 -3.28932e-06 -4.16689e-06
0.00150598 0.000436725 -2.40954e-05
0.000436725 7.76684e-05 -4.62886e-06
-2.40954e-05 -4.62886e-06 -0.000203437
0.00212007 0.000641872 1.46714e-06
0.000641872 0.000278184 2.79501e-07
1.46714e-06 2.79501e-07 -4.22987e-05
0.00251632 0.000761082 2.63662e-06
0.000761082 0.000392173 -7.73328e-06
2.63662e-06 -7.73328e-06 8.75893e-05
0.0020134 0.000724724 2.44579e-06
0.000724724 0.000298801 -7.57097e-06
2.44579e-06 -7.57097e-06 -9.75321e-05
0.00140236 0.000493235 -8.47716e-07
0.000493235 0.000115649 7.15151e-08
-8.47716e-07 7.15151e-08 -0.000214829
0.000311994 0.000295998 -2.52424e-05
0.000295998 -0.000249738 -2.02258e-05
-2.52424e-05 -2.02258e-05 -0.000434983
0.00136599 0.000489914 3.66298e-05
0.000489914 0.00018517 6.48521e-06
3.66298e-05 6.48521e-06 -0.000160166
0.000144012 0.000288182 1.08063e-06
0.000288182 -0.000323448 1.32135e-06
1.08063e-06 1.32135e-06 -0.000512506
0.00838203 0.000150336 -0.00036185
0.000150336 0.00509047 -4.89686e-05
-0.00036185 -4.89686e-05 0.00509391
6.82785e-05 0.000233317 2.33743e-05
0.000233317 -0.000362924 2.50246e-05
2.33743e-05 2.50246e-05 -0.00053172
0.00864025 2.06353e-05 6.01493e-06
2.06353e-05 0.00525916 7.17874e-07
6.01493e-06 7.17874e-07 0.00526764
0.00763305 -0.000116434 0.00025859
-0.000116434 0.00465602 1.87149e-05
0.00025859 1.87149e-05 0.00465097
0.00237389 0.000251681 1.31602e-06
0.000251681 -6.39963e-05 -3.67102e-07
1.31602e-06 -3.67102e-07 5.77084e-06
0.00255681 0.000315676 -1.06639e-06
0.000315676 -0.000172102 4.07175e-07
-1.06639e-06 4.07175e-07 -1.43364e-05
0.00234223 0.000244616 2.42811e-07
0.000244616 -0.000336604 1.27974e-07
2.42811e-07 1.27974e-07 -7.24937e-05
0.00244182 0.000471838 3.90191e-07
0.000471838 -2.52921e-05 4.54086e-07
3.90191e-07 4.54086e-07 -1.1843e-05
0.00242864 0.000674147 2.00276e-08
0.000674147 0.000115812 -1.78599e-06
2.00276e-08 -1.78599e-06 -2.45821e-05
0.00262349 0.000507744 6.4118e-07
0.000507744 -8.97906e-05 -7.261e-07
6.4118e-07 -7.261e-07 -6.70549e-06
0.00226342 7.93243e-05 1.65082e-06
7.93243e-05 -5.02279e-05 1.90939e-07
1.65082e-06 1.90939e-07 4.39029e-06
0.00236368 8.3225e-05 3.0189e-07
8.3225e-05 -8.7207e-05 -2.08558e-07
3.0189e-07 -2.08558e-07 1.06633e-05
0.00242965 0.000108806 -2.51484e-07
0.000108806 -0.000206218 2.79975e-07
-2.51484e-07 2.79975e-07 -3.71732e-05
0.00222757 -1.13521e-05 -6.09242e-07
-1.13521e-05 -6.54631e-05 7.44278e-08
-6.09242e-07 7.44278e-08 -3.08655e-06
0.00220301 -3.38193e-05 -1.99844e-06
-3.38193e-05 1.02213e-05 4.50423e-07
-1.99844e-06 4.50423e-07 3.74848e-05
0.00234475 -8.76478e-05 -1.10485e-06
-8.76478e-05 -9.85571e-05 2.21976e-07
-1.10485e-06 2.21976e-07 7.14148e-06
0.00220037 -0.000125697 -1.16509e-06
-0.000125697 -4.13069e-05 2.3336e-07
-1.16509e-06 2.3336e-07 -7.84417e-06
0.00213887 -0.000148789 -4.76016e-06
-0.000148789 -2.43596e-05 9.17664e-07
-4.76016e-06 9.17664e-07 -3.75454e-05
0.00224025 -0.000229809 8.59013e-07
-0.000229809 -4.19577e-05 -4.17881e-07
8.59013e-07 -4.17881e-07 -1.07926e-05
0.00226497 -0.000241161 1.54523e-06
-0.000241161 5.47513e-05 -3.98591e-07
1.54523e-06 -3.98591e-07 2.60165e-05
0.00215201 -0.000234144 -6.31943e-07
-0.000234144 8.62248e-05 2.38155e-07
-6.31943e-07 2.38155e-07 -6.18649e-06
0.00233636 -0.000349519 5.00068e-06
-0.000349519 0.000110367 -9.97736e-07
5.00068e-06 -9.97736e-07 5.20616e-05
0.00215994 -0.000313109 -4.58935e-07
-0.000313109 0.000110739 -1.57021e-07
-4.58935e-07 -1.57021e-07 -9.32906e-06
0.00130804 -0.000190712 -3.80049e-06
-0.000190712 -6.04433e-05 1.90755e-06
-3.80049e-06 1.90755e-06 -0.00022883
0.00218537 -0.000395464 2.14502e-06
-0.000395464 0.000147981 1.32521e-07
2.14502e-06 1.32521e-07 -1.26021e-05
0.0013781 -0.000239902 -3.47094e-07
-0.000239902 -2.65207e-05 7.55686e-08
-3.47094e-07 7.55686e-08 -0.000212593
0.00271697 -0.000198812 -7.2763e-05
-0.000198812 0.00129259 1.17206e-05
-7.2763e-05 1.17206e-05 0.0011854
0.00144316 -0.000296314 7.44206e-06
-0.000296314 5.38236e-06 -3.33665e-06
7.44206e-06 -3.33665e-06 -0.000203591
0.0029181 -0.000212034 4.91047e-05
-0.000212034 0.00140595 -5.92695e-06
4.91047e-05 -5.92695e-06 0.0013032
0.00256855 -0.000115746 -0.000290068
-0.000115746 0.00130563 3.73922e-05
-0.000290068 3.73922e-05 0.00128955
0.00310048 -0.000245023 0.000173018
-0.000245023 0.00151158 -2.8209e-05
0.000173018 -2.8209e-05 0.00141223
0.00222816 -0.000100458 -0.000107547
-0.000100458 0.00109414 1.48553e-05
-0.000107547 1.48553e-05 0.00105842
0.00190476 -9.92822e-05 7.91143e-05
-9.92822e-05 0.00090179 -1.35804e-05
7.91143e-05 -1.35804e-05 0.000840726
0.00225433 0.000286623 6.14995e-07
0.000286623 -1.96836e-05 -4.31984e-07
6.14995e-07 -4.31984e-07 -1.92019e-05
0.00233443 0.000427382 -4.15673e-06
0.000427382 0.000129994 -5.3182e-07
-4.15673e-06 -5.3182e-07 3.13934e-05
0.00234968 0.000461803 -3.52371e-07
0.000461803 5.06916e-05 -9.90866e-08
-3.52371e-07 -9.90866e-08 5.94612e-06
0.00217798 0.000490463 -1.12554e-06
0.000490463 0.000158413 5.41768e-07
-1.12554e-06 5.41768e-07 -4.47662e-05
0.0022871 0.000521243 -1.03416e-06
0.000521243 0.00014953 -4.3742e-07
-1.03416e-06 -4.3742e-07 -5.43745e-06
0.00239998 0.000546576 1.62118e-07
0.000546576 0.000132796 2.30708e-07
1.62118e-07 2.30708e-07 2.13627e-05
0.00148092 0.000364857 -1.7117e-05
0.000364857 3.4242e-05 -4.29071e-06
-1.7117e-05 -4.29071e-06 -0.000203969
0.00210596 0.000552402 6.40279e-07
0.000552402 0.000184618 -1.17188e-06
6.40279e-07 -1.17188e-06 -6.76554e-05
0.00226214 0.000621096 -2.37763e-06
0.000621096 0.000176039 -5.39206e-06
-2.37763e-06 -5.39206e-06 -3.04402e-05
0.00035791 0.00023365 -2.20423e-05
0.00023365 -0.000248599 -1.6832e-05
-2.20423e-05 -1.6832e-05 -0.000411131
0.00146953 0.000429768 -1.5602e-07
0.000429768 6.39127e-05 2.30704e-07
-1.5602e-07 2.30704e-07 -0.000216552
0.00205654 0.000637359 3.31346e-06
0.000637359 0.000232923 -6.18341e-06
3.31346e-06 -6.18341e-06 -8.68536e-05
0.00137922 0.000496126 3.44145e-05
0.000496126 9.45871e-05 5.56291e-06
3.44145e-05 5.56291e-06 -0.000238523
0.000291346 0.000280434 -6.66847e-08
0.000280434 -0.000260059 9.37137e-07
-6.66847e-08 9.37137e-07 -0.000444562
0.00803543 0.00024307 -0.00036241
0.00024307 0.00486486 -5.31952e-05
-0.00036241 -5.31952e-05 0.00486628
0.000341674 0.000277921 2.61195e-05
0.000277921 -0.000194739 2.01747e-05
2.61195e-05 2.01747e-05 -0.000380993
0.00855093 0.000127392 1.05461e-05
0.000127392 0.00518447 1.88953e-06
1.05461e-05 1.88953e-06 0.0051966
0.00845223 -1.88389e-05 0.000322476
-1.88389e-05 0.00513346 2.55436e-05
0.000322476 2.55436e-05 0.0051422
0.00227823 0.000153079 7.22816e-07
0.000153079 -1.44966e-05 -2.94324e-07
7.22816e-07 -2.94324e-07 2.82908e-05
0.00234427 0.00025614 6.63338e-07
0.00025614 -8.90133e-05 4.27075e-07
6.63338e-07 4.27075e-07 -2.12179e-05
0.00254319 0.000323451 -5.09101e-07
0.000323451 -0.000192297 5.72429e-07
-5.09101e-07 5.72429e-07 -3.10534e-05
0.00244572 0.00046568 -2.00729e-06
0.00046568 -2.04802e-05 -1.58652e-06
-2.00729e-06 -1.58652e-06 -5.11532e-06
0.00216941 3.47104e-05 -1.95265e-06
3.47104e-05 1.65112e-05 2.91776e-07
-1.95265e-06 2.91776e-07 2.34513e-05
0.00226465 7.01309e-05 -1.8926e-08
7.01309e-05 -5.10737e-05 -5.04475e-08
-1.8926e-08 -5.04475e-08 5.65305e-06
0.00234865 8.24722e-05 -1.48998e-06
8.24722e-05 -9.22608e-05 -8.20223e-08
-1.48998e-06 -8.20223e-08 5.00581e-06
0.00223889 -7.80755e-06 -2.87476e-06
-7.80755e-06 -5.5716e-05 -3.33986e-07
-2.87476e-06 -3.33986e-07 4.44757e-06
0.00220363 -2.78008e-05 -6.16306e-07
-2.78008e-05 3.82262e-06 -1.60117e-07
-6.16306e-07 -1.60117e-07 3.41482e-05
0.00211571 -6.07268e-05 -4.64684e-06
-6.07268e-05 -1.92508e-05 8.37663e-07
-4.64684e-06 8.37663e-07 -3.5472e-05
0.00222913 -0.00012703 5.46479e-07
-0.00012703 -1.34268e-05 1.17303e-07
5.46479e-07 1.17303e-07 1.47854e-05
0.00217321 -0.000150198 -1.79139e-06
-0.000150198 7.1946e-06 3.49505e-07
-1.79139e-06 3.49505e-07 -1.33445e-05
0.00219811 -0.000154801 -1.47243e-06
-0.000154801 0.000104932 5.34325e-07
-1.47243e-06 5.34325e-07 3.58095e-05
0.00228002 -0.000241226 6.72612e-06
-0.000241226 6.6423e-05 -1.36931e-06
6.72612e-06 -1.36931e-06 3.74734e-05
0.00217474 -0.000231891 8.28231e-07
-0.000231891 0.000103886 -2.97895e-07
8.28231e-07 -2.97895e-07 1.25237e-05
0.00131095 -0.000143029 -3.96325e-06
-0.000143029 -5.21644e-05 1.22267e-06
-3.96325e-06 1.22267e-06 -0.000204621
0.00215096 -0.000311103 1.82556e-06
-0.000311103 0.000100978 -5.13553e-07
1.82556e-06 -5.13553e-07 -1.83313e-05
0.00132851 -0.000190028 -1.52632e-07
-0.000190028 -4.94266e-05 1.13828e-07
-1.52632e-07 1.13828e-07 -0.000216731
0.000288733 -0.000104 -1.70381e-05
-0.000104 -0.000290908 6.89889e-06
-1.70381e-05 6.89889e-06 -0.000405296
0.00139523 -0.000238979 4.7865e-06
-0.000238979 -2.05867e-05 -2.50424e-06
4.7865e-06 -2.50424e-06 -0.000205198
0.00159466 -0.000138595 7.31976e-05
-0.000138595 0.000550479 -6.11536e-06
7.31976e-05 -6.11536e-06 0.000448815
0.00720492 -0.000189795 -0.000386148
-0.000189795 0.00432917 3.17692e-05
-0.000386148 3.17692e-05 0.00435654
0.00301664 -0.000193295 0.000167737
-0.000193295 0.001459 -2.20876e-05
0.000167737 -2.20876e-05 0.00137178
0.00217444 -9.13957e-05 -9.7639e-05
-9.13957e-05 0.00106331 9.5864e-06
-9.7639e-05 9.5864e-06 0.00102787
0.00180812 -0.00011348 9.01964e-05
-0.00011348 0.000847808 -1.5119e-05
9.01964e-05 -1.5119e-05 0.000785885
0.00219897 0.000188719 -4.7836e-07
0.000188719 -2.24709e-07 -9.67473e-07
-4.7836e-07 -9.67473e-07 2.68835e-07
0.00231485 0.000327786 -2.85329e-06
0.000327786 9.2412e-05 -6.03294e-07
-2.85329e-06 -6.03294e-07 3.30874e-05
0.00226903 0.000279084 -4.37154e-07
0.000279084 3.53206e-06 -3.91326e-08
-4.37154e-07 -3.91326e-08 -2.1362e-06
0.00231174 0.000398181 -1.01194e-06
0.000398181 0.000223177 5.36568e-07
-1.01194e-06 5.36568e-07 7.82711e-05
0.00227055 0.00042351 5.73857e-07
0.00042351 8.70818e-05 5.22857e-08
5.73857e-07 5.22857e-08 -1.04913e-05
0.00234082 0.000462572 -1.25427e-06
0.000462572 2.48686e-05 -6.74363e-07
-1.25427e-06 -6.74363e-07 -9.05255e-06
0.00155162 0.000315775 -1.05688e-05
0.000315775 7.91667e-05 -2.01798e-06
-1.05688e-05 -2.01798e-06 -0.000120413
0.00219937 0.00048625 1.471e-07
0.00048625 0.00017702 -2.13279e-07
1.471e-07 -2.13279e-07 -2.45901e-05
0.00230273 0.000518496 2.02946e-06
0.000518496 0.000169659 -1.0748e-06
2.02946e-06 -1.0748e-06 1.08915e-05
0.00034811 0.000168818 -1.86665e-05
0.000168818 -0.00026495 -1.29595e-05
-1.86665e-05 -1.29595e-05 -0.000405139
0.00144903 0.000360413 4.46533e-07
0.000360413 2.09455e-05 5.04136e-07
4.46533e-07 5.04136e-07 -0.000212165
0.0020574 0.000553103 3.57109e-06
0.000553103 0.000143802 -5.56009e-06
3.57109e-06 -5.56009e-06 -9.99057e-05
0.0076986 0.000299205 -0.000364868
0.000299205 0.00464668 -5.17749e-05
-0.000364868 -5.17749e-05 0.00464932
0.000319051 0.000230067 2.49609e-07
0.000230067 -0.000277178 7.37196e-07
2.49609e-07 7.37196e-07 -0.000441165
0.00140671 0.000420836 2.58148e-05
0.000420836 3.31116e-05 5.05828e-06
2.58148e-05 5.05828e-06 -0.000246387
0.000240332 0.000266131 2.29601e-05
0.000266131 -0.000289349 2.02476e-05
2.29601e-05 2.02476e-05 -0.000473112
0.00807252 0.000239259 1.04066e-05
0.000239259 0.00488459 2.71846e-06
1.04066e-05 2.71846e-06 0.00489203
0.00853159 0.000101998 0.000379601
0.000101998 0.00515736 3.42388e-05
0.000379601 3.42388e-05 0.00517779
0.00213808 9.57096e-05 -3.07974e-06
9.57096e-05 2.10981e-06 -1.28187e-07
-3.07974e-06 -1.28187e-07 9.56461e-07
0.00226645 0.000147589 -1.2033e-07
0.000147589 -2.19256e-05 6.88731e-09
-1.2033e-07 6.88731e-09 1.84099e-05
0.00230769 0.000259993 -1.02886e-06
0.000259993 -0.000118604 3.70566e-07
-1.02886e-06 3.70566e-07 -5.20969e-05
0.0021475 1.56272e-05 -5.93817e-06
1.56272e-05 1.83178e-05 3.32212e-07
-5.93817e-06 3.32212e-07 -7.98154e-06
0.00214032 4.06769e-05 7.86726e-07
4.06769e-05 -7.14363e-06 5.94238e-09
7.86726e-07 5.94238e-09 3.69879e-06
0.0022656 5.99611e-05 -2.08183e-06
5.99611e-05 -5.25475e-05 -1.29939e-07
-2.08183e-06 -1.29939e-07 6.5644e-06
0.00220603 -2.19822e-05 6.43332e-07
-2.19822e-05 -1.84107e-06 -3.72237e-07
6.43332e-07 -3.72237e-07 3.19131e-05
0.00211474 -5.94333e-05 -6.65404e-07
-5.94333e-05 -2.0505e-05 2.8541e-08
-6.65404e-07 2.8541e-08 -3.58306e-05
0.00209221 -7.25842e-05 -9.55109e-07
-7.25842e-05 4.70833e-05 6.01055e-07
-9.55109e-07 6.01055e-07 -2.71402e-05
0.00220754 -0.000151783 4.16614e-06
-0.000151783 3.93879e-05 -7.6034e-07
4.16614e-06 -7.6034e-07 1.16278e-05
0.00213825 -0.000156162 8.64514e-07
-0.000156162 7.25611e-05 -4.55434e-08
8.64514e-07 -4.55434e-08 -6.59427e-06
0.00148138 -9.02634e-05 -4.76587e-06
-9.02634e-05 6.79411e-05 4.31014e-07
-4.76587e-06 4.31014e-07 -5.84114e-05
0.00217664 -0.000230873 2.33089e-06
-0.000230873 0.000107861 -9.40662e-07
2.33089e-06 -9.40662e-07 1.70758e-05
0.00131072 -0.000139301 3.34307e-09
-0.000139301 -5.68013e-05 7.67338e-08
3.34307e-09 7.67338e-08 -0.000208152
0.00028142 -3.40706e-05 -1.57733e-05
-3.40706e-05 -0.00029408 3.77552e-06
-1.57733e-05 3.77552e-06 -0.000397777
0.00136631 -0.000188659 3.14421e-06
-0.000188659 -2.96863e-05 -1.70327e-06
3.14421e-06 -1.70327e-06 -0.000195648
0.000316116 -8.88427e-05 -5.02217e-07
-8.88427e-05 -0.00027089 5.45756e-07
-5.02217e-07 5.45756e-07 -0.000384831
0.00711596 -8.04203e-05 -0.000375423
-8.04203e-05 0.00426425 2.03432e-05
-0.000375423 2.03432e-05 0.00429829
0.000410226 -9.7951e-05 1.25389e-05
-9.7951e-05 -0.000218869 -9.21767e-06
1.25389e-05 -9.21767e-06 -0.000341469
0.00459231 -0.000124713 0.000160591
-0.000124713 0.00263998 -9.47462e-06
0.000160591 -9.47462e-06 0.00262445
0.00176083 -9.96001e-05 9.47921e-05
-9.96001e-05 0.000819904 -1.40781e-05
9.47921e-05 -1.40781e-05 0.000760179
0.00219519 0.00015679 -5.23752e-06
0.00015679 5.62803e-05 -8.90888e-07
-5.23752e-06 -8.90888e-07 4.75095e-05
0.00228284 0.00023487 -4.80684e-06
0.00023487 9.50597e-05 -9.7327e-07
-4.80684e-06 -9.7327e-07 4.36938e-05
0.00219216 0.00018195 -6.31176e-07
0.00018195 1.01235e-06 -2.18507e-07
-6.31176e-07 -2.18507e-07 1.50615e-06
0.00225651 0.000315672 -6.10409e-07
0.000315672 0.000177788 1.05475e-08
-6.10409e-07 1.05475e-08 5.54897e-05
0.00232761 0.000324973 -6.89271e-08
0.000324973 9.99083e-05 -1.47475e-07
-6.89271e-08 -1.47475e-07 3.9728e-05
0.00227991 0.000271751 9.42543e-07
0.000271751 2.4738e-05 5.9914e-07
9.42543e-07 5.9914e-07 1.29078e-05
0.00151018 0.000248738 -5.177e-06
0.000248738 6.79275e-05 -1.34573e-06
-5.177e-06 -1.34573e-06 -0.000104702
0.00215417 0.000388285 1.96574e-06
0.000388285 0.000124889 3.72782e-07
1.96574e-06 3.72782e-07 -2.90763e-05
0.00219971 0.000419588 3.55919e-06
0.000419588 3.90239e-05 -1.32132e-09
3.55919e-06 -1.32132e-09 -5.73687e-05
0.000330549 0.000121354 -1.66669e-05
0.000121354 -0.000274608 -9.72499e-06
-1.66669e-05 -9.72499e-06 -0.000400695
0.0014993 0.000306908 1.27835e-06
0.000306908 5.13693e-05 1.03138e-06
1.27835e-06 1.03138e-06 -0.0001455
0.00223265 0.000483703 2.08101e-06
0.000483703 0.000203694 -1.30636e-06
2.08101e-06 -1.30636e-06 3.62891e-06
0.00742067 0.00032902 -0.00037739
0.00032902 0.00447956 -4.89043e-05
-0.00037739 -4.89043e-05 0.00448262
0.000342872 0.000172372 5.25508e-07
0.000172372 -0.000273508 3.97197e-07
5.25508e-07 3.97197e-07 -0.000415942
0.00141804 0.000357985 1.76821e-05
0.000357985 5.98762e-06 3.67068e-06
1.76821e-05 3.67068e-06 -0.000222622
0.0077987 0.000321447 1.17627e-05
0.000321447 0.00472125 5.10121e-06
1.17627e-05 5.10121e-06 0.00472084
0.000301167 0.000226563 1.96709e-05
0.000226563 -0.000293068 1.72139e-05
1.96709e-05 1.72139e-05 -0.000458504
0.00814492 0.000212701 0.000381008
0.000212701 0.00491433 4.2866e-05
0.000381008 4.2866e-05 0.00493172
0.00211197 7.73369e-05 -5.83675e-06
7.73369e-05 -1.10189e-05 -6.47784e-08
-5.83675e-06 -6.47784e-08 -4.3769e-05
0.00213519 0.000102858 -9.88955e-07
0.000102858 6.29516e-06 -2.4095e-07
-9.88955e-07 -2.4095e-07 4.89637e-06
0.00225702 0.000142628 -4.50809e-07
0.000142628 -2.66123e-05 3.90089e-07
-4.50809e-07 3.90089e-07 1.08034e-05
0.00206869 -4.39003e-06 -1.78473e-07
-4.39003e-06 3.75147e-05 3.07924e-07
-1.78473e-07 3.07924e-07 -3.67413e-05
0.00211602 1.69313e-05 -7.74554e-07
1.69313e-05 -7.34096e-06 -2.61627e-08
-7.74554e-07 -2.61627e-08 -3.05119e-05
0.0021101 4.73967e-05 1.91907e-06
4.73967e-05 -3.15519e-05 -3.15427e-08
1.91907e-06 -3.15427e-08 -1.6819e-05
0.00211254 -5.82586e-05 3.04306e-06
-5.82586e-05 -2.24305e-05 -7.38485e-07
3.04306e-06 -7.38485e-07 -3.69775e-05
0.00204524 -7.15791e-05 -9.21362e-07
-7.15791e-05 1.68114e-05 2.34614e-07
-9.21362e-07 2.34614e-07 -5.67743e-05
0.00142312 -3.70755e-05 -4.87301e-06
-3.70755e-05 4.90975e-05 3.54835e-08
-4.87301e-06 3.54835e-08 -6.96084e-05
0.00207174 -0.000157298 1.06303e-07
-0.000157298 3.5223e-05 -6.09844e-07
1.06303e-07 -6.09844e-07 -5.39165e-05
0.00137316 -9.05041e-05 3.26077e-06
-9.05041e-05 -9.18748e-06 -3.71271e-07
3.26077e-06 -3.71271e-07 -0.000142145
0.000271347 -1.38729e-05 -1.62578e-05
-1.38729e-05 -0.000293944 2.24231e-06
-1.62578e-05 2.24231e-06 -0.0003921
0.00130203 -0.000137003 3.36427e-06
-0.000137003 -6.55817e-05 -1.1482e-06
3.36427e-06 -1.1482e-06 -0.000216092
0.000288818 -4.55674e-05 4.42101e-07
-4.55674e-05 -0.00028683 -3.5132e-07
4.42101e-07 -3.5132e-07 -0.000389837
0.00688149 -0.000173263 -0.000374278
-0.000173263 0.00413393 2.20233e-05
-0.000374278 2.20233e-05 0.00416037
0.000320511 -7.30657e-05 1.56712e-05
-7.30657e-05 -0.000266416 -5.37351e-06
1.56712e-05 -5.37351e-06 -0.000379006
0.0070303 -0.000116489 7.02621e-06
-0.000116489 0.00421432 1.90866e-07
7.02621e-06 1.90866e-07 0.0042469
0.00206938 -4.95539e-05 0.000285932
-4.95539e-05 0.00098647 -2.18206e-05
0.000285932 -2.18206e-05 0.000978671
0.0021203 0.000159425 -6.92836e-06
0.000159425 -4.72492e-06 -1.041e-06
-6.92836e-06 -1.041e-06 -4.98476e-05
0.00213454 0.000158092 -1.21667e-06
0.000158092 3.62729e-06 -1.22737e-07
-1.21667e-06 -1.22737e-07 1.38298e-06
0.00225763 0.000233643 1.28902e-06
0.000233643 0.000165863 -2.98428e-08
1.28902e-06 -2.98428e-08 6.5028e-05
0.0022935 0.000234382 8.0802e-07
0.000234382 9.8267e-05 6.95068e-09
8.0802e-07 6.95068e-09 4.76352e-05
0.00218548 0.000175052 1.16911e-06
0.000175052 1.64099e-06 3.66626e-07
1.16911e-06 3.66626e-07 2.3311e-06
0.00128412 0.000180505 -1.9119e-06
0.000180505 -7.00336e-05 -1.21692e-06
-1.9119e-06 -1.21692e-06 -0.00023513
0.00219222 0.000312744 3.21158e-07
0.000312744 0.000133056 1.12404e-08
3.21158e-07 1.12404e-08 1.02611e-05
0.00234468 0.000322305 4.35654e-06
0.000322305 0.000110113 8.77392e-07
4.35654e-06 8.77392e-07 4.88612e-05
0.000327878 8.87997e-05 -1.58006e-05
8.87997e-05 -0.000268502 -7.23839e-06
-1.58006e-05 -7.23839e-06 -0.000385887
0.00140425 0.000243003 2.84788e-06
0.000243003 2.82559e-06 9.56355e-07
2.84788e-06 9.56355e-07 -0.000175465
0.00201288 0.000379257 1.10742e-06
0.000379257 3.83563e-05 1.70987e-07
1.10742e-06 1.70987e-07 -0.000124738
0.00722227 0.000318053 -0.00039047
0.000318053 0.00436445 -4.41243e-05
-0.00039047 -4.41243e-05 0.00436975
0.000344284 0.000127993 7.02974e-07
0.000127993 -0.00026901 2.56958e-07
7.02974e-07 2.56958e-07 -0.000397356
0.0014529 0.000298162 9.9946e-06
0.000298162 2.72953e-05 3.62112e-06
9.9946e-06 3.62112e-06 -0.000166709
0.00752485 0.000356404 8.51647e-06
0.000356404 0.00455843 5.52739e-06
8.51647e-06 5.52739e-06 0.00455579
0.00034589 0.000175319 1.7337e-05
0.000175319 -0.000276673 1.35741e-05
1.7337e-05 1.35741e-05 -0.000421244
0.00790394 0.00033387 0.000394439
0.00033387 0.00478401 5.37854e-05
0.000394439 5.37854e-05 0.00478789
0.00202963 7.33445e-05 9.72715e-07
7.33445e-05 1.5142e-05 -1.7004e-07
9.72715e-07 -1.7004e-07 -6.60309e-05
0.00212709 7.79542e-05 -2.69716e-06
7.79542e-05 4.38021e-06 -1.87613e-07
-2.69716e-06 -1.87613e-07 -2.99044e-05
0.00213206 0.000109673 3.59005e-06
0.000109673 1.03117e-05 2.39138e-07
3.59005e-06 2.39138e-07 8.70223e-06
0.00137602 -7.92953e-06 -6.05585e-06
-7.92953e-06 3.64569e-05 -1.28472e-07
-6.05585e-06 -1.28472e-07 -8.12063e-05
0.00203518 -1.34341e-06 -4.98895e-07
-1.34341e-06 1.74923e-05 1.11029e-07
-4.98895e-07 1.11029e-07 -5.65604e-05
0.00208535 1.76883e-05 2.86221e-06
1.76883e-05 -3.20877e-05 -1.89271e-07
2.86221e-06 -1.89271e-07 -5.22358e-05
0.00200048 -7.08703e-05 -1.16147e-06
-7.08703e-05 -1.15685e-05 -1.48708e-07
-1.16147e-06 -1.48708e-07 -8.46175e-05
0.00138664 -3.9554e-05 2.56203e-06
-3.9554e-05 1.60429e-05 -1.40381e-07
2.56203e-06 -1.40381e-07 -0.000102825
0.000280935 -3.38274e-05 -1.70236e-05
-3.38274e-05 -0.000281465 1.14589e-06
-1.70236e-05 1.14589e-06 -0.000375289
0.00127125 -9.01674e-05 7.08674e-06
-9.01674e-05 -8.2077e-05 -1.17284e-06
7.08674e-06 -1.17284e-06 -0.000221573
0.000285523 -2.76163e-06 6.94679e-10
-2.76163e-06 -0.000285058 6.10025e-08
6.94679e-10 6.10025e-08 -0.000381605
0.00676867 -0.000140361 -0.00037327
-0.000140361 0.00406019 1.67735e-05
-0.00037327 1.67735e-05 0.00409051
0.000332591 -5.31928e-05 1.68031e-05
-5.31928e-05 -0.000254356 -3.71027e-06
1.68031e-05 -3.71027e-06 -0.000358034
0.00686939 -6.95861e-05 -2.82321e-06
-6.95861e-05 0.0041118 3.56952e-06
-2.82321e-06 3.56952e-06 0.00414718
0.00699173 -0.000130254 0.000373075
-0.000130254 0.00419221 -1.99619e-05
0.000373075 -1.99619e-05 0.00422439
0.00216567 0.000149687 1.6337e-06
0.000149687 0.000103855 -2.98676e-07
1.6337e-06 -2.98676e-07 1.72386e-05
0.00217152 0.000159663 -1.81216e-06
0.000159663 2.37361e-05 -1.78095e-07
-1.81216e-06 -1.78095e-07 -1.58716e-05
0.00207569 0.000159663 3.13249e-06
0.000159663 -4.80893e-05 7.61421e-07
3.13249e-06 7.61421e-07 -4.38719e-05
0.00124618 0.000121864 -2.64473e-06
0.000121864 -8.17274e-05 -7.32746e-07
-2.64473e-06 -7.32746e-07 -0.000230979
0.00219055 0.000230517 1.43171e-07
0.000230517 0.000118052 -1.44648e-07
1.43171e-07 -1.44648e-07 1.69182e-05
0.00230683 0.000233738 4.66803e-06
0.000233738 0.000103711 7.10146e-07
4.66803e-06 7.10146e-07 5.38857e-05
0.000321451 6.03107e-05 -1.51898e-05
6.03107e-05 -0.000262078 -5.25902e-06
-1.51898e-05 -5.25902e-06 -0.000371778
0.00130727 0.000182633 1.59641e-07
0.000182633 -4.60364e-05 2.89086e-07
1.59641e-07 2.89086e-07 -0.000212242
0.00213147 0.0003097 9.33569e-07
0.0003097 9.1118e-05 -1.2501e-07
9.33569e-07 -1.2501e-07 -3.21305e-05
0.00703505 0.000259064 -0.000396205
0.000259064 0.00424187 -3.55154e-05
-0.000396205 -3.55154e-05 0.004258
0.000333424 9.69627e-05 8.92409e-07
9.69627e-05 -0.000266446 2.49018e-07
8.92409e-07 2.49018e-07 -0.000386156
0.0012869 0.0002362 4.66132e-06
0.0002362 -7.0619e-05 2.97609e-06
4.66132e-06 2.97609e-06 -0.000254346
0.00732774 0.000337766 4.55071e-06
0.000337766 0.00443685 3.561e-06
4.55071e-06 3.561e-06 0.00443988
0.000358274 0.000136189 1.59538e-05
0.000136189 -0.000261959 1.06668e-05
1.59538e-05 1.06668e-05 -0.00039318
0.00765098 0.000397267 0.000402398
0.000397267 0.00465242 5.91175e-05
0.000402398 5.91175e-05 0.00464357
0.00116541 3.92818e-05 -8.06213e-06
3.92818e-05 -9.90124e-05 -4.99744e-07
-8.06213e-06 -4.99744e-07 -0.000231409
0.00211552 7.05956e-05 -7.2872e-07
7.05956e-05 7.33118e-05 9.98074e-09
-7.2872e-07 9.98074e-09 -1.10246e-06
0.00214162 7.89433e-05 3.04955e-06
7.89433e-05 1.88874e-05 1.42029e-07
3.04955e-06 1.42029e-07 -1.68646e-05
0.000325394 3.27617e-05 -1.777e-05
3.27617e-05 -0.000256086 -1.01924e-06
-1.777e-05 -1.01924e-06 -0.000341068
0.00135851 -3.85416e-06 2.41928e-06
-3.85416e-06 1.79021e-05 3.80288e-08
2.41928e-06 3.80288e-08 -9.95748e-05
0.00199812 3.13969e-06 -8.7736e-07
3.13969e-06 -5.28407e-06 -1.2371e-07
-8.7736e-07 -1.2371e-07 -7.90697e-05
0.00134213 -4.15634e-05 9.6485e-06
-4.15634e-05 -2.2661e-05 -7.00171e-07
9.6485e-06 -7.00171e-07 -0.000141698
0.000290304 -7.10368e-06 2.31165e-07
-7.10368e-06 -0.000274598 4.36057e-07
2.31165e-07 4.36057e-07 -0.000368144
0.00667004 7.2436e-08 -0.000375191
7.2436e-08 0.00398694 3.68429e-06
-0.000375191 3.68429e-06 0.00402628
0.000290008 8.59875e-06 1.63881e-05
8.59875e-06 -0.000282785 -1.25209e-06
1.63881e-05 -1.25209e-06 -0.00037763
0.00672977 -0.0001378 -7.59811e-06
-0.0001378 0.00403729 2.33275e-06
-7.59811e-06 2.33275e-06 0.00406706
0.00679765 -5.24407e-05 0.000358973
-5.24407e-05 0.0040658 -1.15456e-05
0.000358973 -1.15456e-05 0.00410147
0.0012259 7.75894e-05 -6.00967e-06
7.75894e-05 -7.08519e-05 -7.97805e-07
-6.00967e-06 -7.97805e-07 -0.000209132
0.00220457 0.000145879 -4.34038e-07
0.000145879 0.000129951 -2.36771e-07
-4.34038e-07 -2.36771e-07 4.74043e-05
0.00222135 0.000159658 1.52618e-06
0.000159658 5.15413e-05 2.34044e-07
1.52618e-06 2.34044e-07 1.7426e-05
0.00276468 7.6081e-05 -0.000165936
7.6081e-05 0.00132751 -7.09216e-06
-0.000165936 -7.09216e-06 0.00126988
0.0012577 0.000123382 7.89193e-08
0.000123382 -6.63736e-05 1.04422e-07
7.89193e-08 1.04422e-07 -0.000216351
0.00211866 0.000227068 -2.10799e-08
0.000227068 6.74798e-05 -1.60934e-07
-2.10799e-08 -1.60934e-07 -3.39586e-05
0.00688241 0.000189494 -0.000394146
0.000189494 0.00413668 -2.56276e-05
-0.000394146 -2.56276e-05 0.00416387
0.000329059 8.02426e-05 1.17888e-06
8.02426e-05 -0.000256986 5.054e-07
1.17888e-06 5.054e-07 -0.000369425
0.00132453 0.000184209 2.32257e-06
0.000184209 -2.68088e-05 1.59499e-06
2.32257e-06 1.59499e-06 -0.000194129
0.00715285 0.000276574 1.40424e-06
0.000276574 0.00431843 1.77264e-06
1.40424e-06 1.77264e-06 0.00433297
0.00034607 0.000107313 1.5655e-05
0.000107313 -0.000258737 8.42179e-06
1.5655e-05 8.42179e-06 -0.000381359
0.00742503 0.00037354 0.000405461
0.00037354 0.00451295 5.53162e-05
0.000405461 5.53162e-05 0.00450931
0.000410707 1.55608e-05 -1.33989e-05
1.55608e-05 -0.000187331 -2.10757e-06
-1.33989e-05 -2.10757e-06 -0.000281777
0.00124584 3.88991e-05 -1.90269e-07
3.88991e-05 -4.89439e-05 9.56371e-08
-1.90269e-07 9.56371e-08 -0.000175746
0.00220892 6.65326e-05 -1.73376e-07
6.65326e-05 0.000136559 -6.04382e-08
-1.73376e-07 -6.04382e-08 6.88912e-05
0.00651295 -0.000106942 -0.000358366
-0.000106942 0.00390488 6.11166e-06
-0.000358366 6.11166e-06 0.00393313
0.000278517 1.15162e-05 -7.05613e-07
1.15162e-05 -0.000281211 -2.11411e-07
-7.05613e-07 -2.11411e-07 -0.000368834
0.00134875 -8.79768e-07 1.03879e-05
-8.79768e-07 4.58495e-06 -1.38443e-07
1.03879e-05 -1.38443e-07 -0.000112687
0.000269231 1.92667e-05 1.66595e-05
1.92667e-05 -0.000289001 3.20932e-07
1.66595e-05 3.20932e-07 -0.00038106
0.00661168 -3.44447e-05 1.70793e-06
-3.44447e-05 0.00395662 -1.98562e-06
1.70793e-06 -1.98562e-06 0.00399067
0.00671048 -6.3251e-05 0.000363845
-6.3251e-05 0.00401136 -8.63349e-06
0.000363845 -8.63349e-06 0.00404793
0.00284973 2.5581e-05 -0.000160372
2.5581e-05 0.00138509 -3.74925e-06
-0.000160372 -3.74925e-06 0.00133301
0.00120908 8.01062e-05 -5.46688e-08
8.01062e-05 -8.22035e-05 -8.24333e-08
-5.46688e-08 -8.24333e-08 -0.000221256
0.00223814 0.000142193 1.25319e-07
0.000142193 0.000151838 -1.46957e-07
1.25319e-07 -1.46957e-07 7.33162e-05
0.00643624 -1.34915e-05 -0.000169988
-1.34915e-05 0.00386182 -7.49342e-07
-0.000169988 -7.49342e-07 0.00385256
0.00030497 6.62267e-05 7.4342e-07
6.62267e-05 -0.00026361 2.50676e-07
7.4342e-07 2.50676e-07 -0.000367154
0.00127109 0.000125919 3.00572e-06
0.000125919 -5.17766e-05 7.7772e-07
3.00572e-06 7.7772e-07 -0.000202585
0.00695789 0.000166869 -9.15421e-06
0.000166869 0.00417848 -1.84455e-06
-9.15421e-06 -1.84455e-06 0.00420689
0.000329488 0.000102507 1.68563e-05
0.000102507 -0.000257581 7.02242e-06
1.68563e-05 7.02242e-06 -0.000371911
0.00724603 0.000299421 0.000407792
0.000299421 0.00438295 4.5408e-05
0.000407792 4.5408e-05 0.00439576
0.00198797 -5.27076e-05 -0.000276896
-5.27076e-05 0.000938039 1.77674e-06
-0.000276896 1.77674e-06 0.00094311
0.00153579 3.68113e-05 -7.05211e-05
3.68113e-05 0.000533871 -2.03247e-07
-7.05211e-05 -2.03247e-07 0.000466218
0.00131834 4.10771e-05 8.8788e-06
4.10771e-05 -3.66576e-06 4.21433e-07
8.8788e-06 4.21433e-07 -0.000124896
0.00657799 -5.23628e-05 6.67194e-06
-5.23628e-05 0.00393995 3.46533e-06
6.67194e-06 3.46533e-06 0.00397433
0.000293206 -8.31709e-06 1.72897e-05
-8.31709e-06 -0.000264276 9.23451e-07
1.72897e-05 9.23451e-07 -0.000355807
0.00664667 -9.56146e-05 0.000376235
-9.56146e-05 0.00398461 -7.37611e-06
0.000376235 -7.37611e-06 0.00401798
0.00155735 2.85573e-05 -7.94371e-05
2.85573e-05 0.000692023 -1.81088e-06
-7.94371e-05 -1.81088e-06 0.00064728
0.0015263 2.68637e-05 -7.13498e-05
2.68637e-05 0.000528844 -1.98937e-06
-7.13498e-05 -1.98937e-06 0.000455327
0.00120112 8.10418e-05 6.07401e-06
8.10418e-05 -8.62877e-05 5.52935e-07
6.07401e-06 5.52935e-07 -0.000225966
0.00421881 8.21314e-05 0.000139996
8.21314e-05 0.00240479 4.91932e-06
0.000139996 4.91932e-06 0.00239942
0.000289173 7.72013e-05 1.72487e-05
7.72013e-05 -0.000275525 5.24484e-06
1.72487e-05 5.24484e-06 -0.000379408
0.00704966 0.000154739 0.000388914
0.000154739 0.00422845 2.77846e-05
0.000388914 2.77846e-05 0.00426079
0.00652152 -1.59301e-05 -8.38186e-06
-1.59301e-05 0.00390841 -3.94216e-06
-8.38186e-06 -3.94216e-06 0.00394092
0.00027657 5.48616e-05 1.90244e-05
5.48616e-05 -0.000284166 2.74549e-06
1.90244e-05 2.74549e-06 -0.000369035
0.00648991 3.20186e-05 0.00036374
3.20186e-05 0.00387863 3.21514e-07
0.00036374 3.21514e-07 0.00391664
0.00409873 4.18839e-05 0.000151242
4.18839e-05 0.00233115 6.72636e-06
0.000151242 6.72636e-06 0.0023293
0.000301093 1.57174e-05 1.68943e-05
1.57174e-05 -0.000262379 2.8399e-06
1.68943e-05 2.8399e-06 -0.000357591
0.00681657 2.2285e-05 0.000374139
2.2285e-05 0.00407828 1.31749e-05
0.000374139 1.31749e-05 0.00411417
0.00656583 -0.000109177 0.000363026
-0.000109177 0.00393958 -4.47558e-06
0.000363026 -4.47558e-06 0.00396841
0.00660445 2.55465e-05 0.000366174
2.55465e-05 0.00394328 8.14049e-06
0.000366174 8.14049e-06 0.0039823
