# vtk DataFile Version 2.0
Wound Healing Simulation
ASCII
DATASET UNSTRUCTURED_GRID
POINTS 3012 float
69.9759 18.75 4
67.2507 60.3285 4
69.976 18.75 2
73.0099 25.446 4
71.1327 20.9142 4
68.6801 16.6661 4
67.8211 19.9261 3.97263
67.2507 60.3286 2
71.1327 54.0858 4
68.6801 58.3339 4
65.6939 62.2254 4
65.3079 58.9988 3.97127
74.6784 42.3946 4
73.7221 47.2057 4
69.9759 18.75 0
73.0099 25.446 2
68.6801 16.6661 2
71.1327 20.9142 2
67.8216 19.9299 2
74.6792 32.6053 4
73.7222 27.7943 4
72.1454 23.1494 4
70.6111 26.2217 3.97272
68.8815 21.9577 3.97286
67.2507 14.6715 4
66.6323 17.9733 3.97139
65.7412 21.0449 3.96177
67.2507 60.3285 0
71.1327 54.0858 2
68.6801 58.3339 2
65.694 62.2255 2
65.3093 58.9941 2
72.1454 51.8506 4
69.9759 56.25 4
68.8319 53.1143 3.9727
64.0165 64.0165 4
66.6059 57.1329 3.97249
63.8803 60.7618 3.96768
63.4718 57.7561 3.96077
60.3285 67.2507 4
74.6792 42.3947 2
73.7222 47.2057 2
74.9194 39.9526 4
74.2788 44.8158 4
72.1658 42.0859 3.97437
73.0099 49.554 4
71.2462 46.5985 3.97277
73.0099 25.446 0
71.1327 20.9142 0
68.6801 16.6661 0
67.8211 19.9261 0.0273711
74.6792 32.6053 2
73.7222 27.7943 2
67.2508 14.6715 2
72.1455 23.1494 2
70.6103 26.2227 2
66.6333 17.9775 2
68.8816 21.9605 2
65.7403 21.0461 2
74.9197 35.0474 4
74.2794 30.1841 4
72.1825 32.945 3.97461
71.2755 28.4328 3.97287
69.8119 24.0596 3.97286
68.3173 26.9623 3.96422
66.7114 22.9502 3.96263
65.694 12.7746 4
65.319 16.1064 3.9702
64.6578 19.2168 3.96055
63.7158 22.1026 3.9645
71.1327 54.0858 0
65.6939 62.2254 0
68.6801 58.3339 0
65.3079 58.9988 0.0287252
72.1455 51.8506 2
69.9759 56.25 2
68.8321 53.1111 2
64.0165 64.0165 2
66.6071 57.128 2
63.8812 60.7566 2
63.4627 57.7543 2
62.2254 65.694 4
58.8904 65.4115 3.97914
69.7649 50.9902 3.97264
67.779 55.1679 3.97286
66.5883 52.1931 3.96282
62.3313 62.4235 3.97325
64.6092 56.0145 3.96161
62.1892 59.3861 3.96033
61.6884 56.619 3.96043
58.3339 68.6801 4
60.3285 67.2508 2
73.7221 47.2057 0
74.6784 42.3946 0
74.9197 39.9526 2
74.2794 44.8159 2
72.1647 42.0853 2
73.0099 49.554 2
71.2454 46.5972 2
75 37.5 4
72.4031 39.8028 3.97535
71.7798 44.3532 3.97389
69.7918 41.7882 3.96612
70.5716 48.8144 3.97262
68.8829 46.0082 3.96553
74.6792 32.6053 0
73.7222 27.7943 0
67.2507 14.6715 0
72.1454 23.1494 0
70.6111 26.2217 0.0272805
68.8815 21.9577 0.0271365
66.6323 17.9733 0.028614
65.7412 21.0449 0.0382272
74.9197 35.0474 2
74.2794 30.1841 2
72.1813 32.9449 2
71.2745 28.4334 2
65.694 12.7745 2
65.3198 16.1111 2
69.8116 24.0614 2
68.3212 26.9629 2
64.6518 19.2183 2
66.713 22.9512 2
63.7153 22.1032 2
72.4109 35.2255 3.97545
71.8014 30.678 3.97405
69.831 33.2737 3.96576
68.9459 29.0467 3.96464
67.5688 24.9261 3.9634
66.0143 27.6843 3.97167
64.0165 10.9835 4
64.577 23.8932 3.96691
63.8838 14.3323 3.96632
63.4756 17.4684 3.9585
62.7408 20.3927 3.96206
61.7969 23.0604 3.97058
60.6799 11.1032 3.97425
57.6039 11.4848 3.9644
72.1454 51.8506 0
69.9759 56.25 0
68.8319 53.1143 0.0272982
64.0165 64.0165 0
63.8803 60.7618 0.0323211
66.6059 57.1329 0.0275131
63.4718 57.7561 0.0392252
62.2255 65.694 2
58.8929 65.4062 2
69.7647 50.9879 2
67.7797 55.1637 2
66.5894 52.1919 2
62.3331 62.4169 2
64.6038 56.0127 2
62.1847 59.3859 2
61.6856 56.6193 2
60.6648 63.9725 3.97654
57.021 66.7319 3.98111
57.5491 63.6634 3.97136
67.4512 50.1629 3.96366
65.6434 54.1565 3.96208
64.3324 51.3221 3.96751
60.7653 60.912 3.96622
62.6587 55.0047 3.9634
60.5535 58.0981 3.9569
60.1045 55.6835 3.96578
56.25 69.9759 4
58.3339 68.6801 2
60.3285 67.2507 0
58.9174 9.66016 3.97653
62.2254 9.30607 4
73.0099 49.554 0
74.2788 44.8158 0
71.2462 46.5985 0.0272285
72.1658 42.0859 0.0256281
74.9194 39.9526 0
75 37.5 2
72.4026 39.8024 2
71.7792 44.3521 2
69.7936 41.7879 2
70.5711 48.8128 2
68.8873 46.0077 2
72.4865 37.513 3.97515
70.0332 39.6578 3.96631
69.4137 43.904 3.96588
67.4425 41.4824 3.9758
68.2215 48.0967 3.96481
66.524 45.4027 3.97472
74.9197 35.0474 0
74.2794 30.1841 0
72.1825 32.945 0.0253943
71.2755 28.4328 0.0271271
65.694 12.7746 0
65.319 16.1064 0.0298032
69.8119 24.0596 0.0271367
68.3173 26.9623 0.0357849
66.7114 22.9502 0.0373657
64.6578 19.2168 0.0394491
63.7158 22.1026 0.0355013
72.4105 35.2251 2
71.8008 30.6784 2
69.8321 33.274 2
68.9504 29.047 2
64.0165 10.9835 2
63.8848 14.338 2
63.4713 17.4684 2
67.5717 24.9269 2
66.0122 27.6856 2
62.7428 20.3924 2
64.5756 23.8942 2
61.7945 23.061 2
60.6822 11.1083 2
57.603 11.4769 2
70.0509 35.3958 3.96623
69.4534 31.1563 3.96487
67.5138 33.6104 3.97511
66.6087 29.6622 3.97402
65.3386 25.7571 3.96917
63.8066 28.3484 3.97563
62.3363 12.6602 3.97166
62.5432 24.7476 3.97342
62.1823 15.8076 3.9598
61.6575 18.7616 3.95932
60.9367 21.4657 3.96675
60.0184 23.8914 3.97379
59.2371 12.8188 3.96272
55.8666 10.2697 3.97344
56.39 13.1877 3.96512
69.7649 50.9902 0.027362
62.2254 65.694 0
58.8904 65.4115 0.0208598
67.779 55.1679 0.0271398
66.5883 52.1931 0.0371829
62.3313 62.4235 0.0267545
62.1892 59.3861 0.0396686
64.6092 56.0145 0.0383858
61.6884 56.619 0.0395738
60.6676 63.9685 2
57.0242 66.7277 2
57.5504 63.6689 2
67.4532 50.1618 2
65.6418 54.155 2
64.3303 51.3212 2
60.7614 60.9128 2
62.6587 55.0051 2
60.5471 58.098 2
60.104 55.6839 2
55.067 67.93 3.98455
59.2116 62.3285 3.96594
55.7941 64.8766 3.97178
56.3155 62.0337 3.9785
65.1166 49.35 3.96959
63.5155 53.2271 3.96524
62.0805 50.5406 3.97217
59.2778 59.5028 3.95698
60.8033 54.2017 3.96881
59.0663 56.9012 3.96037
58.942 55.0524 3.96941
48.0987 68.5702 3.98077
50.9448 69.9306 3.98753
54.0858 71.1327 4
56.25 69.976 2
58.3339 68.6801 0
57.0541 8.33984 3.9768
60.3285 7.74928 4
58.9199 9.66595 2
62.2255 9.30602 2
70.5716 48.8144 0.0273842
71.7798 44.3532 0.0261143
68.8829 46.0082 0.0344679
69.7918 41.7882 0.0338849
72.4031 39.8028 0.0246522
75 37.5 0
72.4855 37.5126 2
70.034 39.6576 2
69.4156 43.9035 2
67.4391 41.4817 2
68.2234 48.0958 2
66.5205 45.4015 2
70.1216 37.5237 3.96644
67.6904 39.5067 3.9756
67.054 43.4441 3.97545
65.2268 41.1816 3.97674
65.861 47.3693 3.97215
64.2876 44.7785 3.97577
72.4109 35.2255 0.0245509
71.8014 30.678 0.0259498
69.831 33.2737 0.0342356
68.9459 29.0467 0.0353578
64.0165 10.9835 0
63.8838 14.3323 0.0336848
63.4756 17.4684 0.0414957
67.5688 24.9261 0.0366033
66.0143 27.6843 0.0283251
64.577 23.8932 0.0330901
62.7408 20.3927 0.0379415
61.7969 23.0604 0.0294167
60.6799 11.1032 0.0257527
57.6039 11.4848 0.0356016
70.0508 35.3958 2
69.456 31.1566 2
67.5115 33.611 2
66.607 29.6633 2
62.3382 12.6664 2
62.1791 15.8072 2
61.6611 18.7608 2
65.3366 25.7583 2
63.8046 28.349 2
60.9348 21.4659 2
62.5413 24.7482 2
60.0177 23.8916 2
59.2356 12.8166 2
56.3892 13.1836 2
55.8668 10.2772 2
67.7343 35.5586 3.97523
67.1181 31.6513 3.97488
65.3878 33.9613 3.97677
64.3218 30.2681 3.97553
63.2117 26.5168 3.97522
61.7833 28.9032 3.97531
60.7648 14.2537 3.96293
60.6078 25.4979 3.97506
60.5108 17.1983 3.9564
59.9437 19.9502 3.96222
59.2636 22.4316 3.96974
58.4791 24.5266 3.9742
54.03 9.16791 3.96905
57.8828 14.3963 3.95767
54.7758 12.0791 3.96893
55.275 14.7478 3.95619
67.4512 50.1629 0.0363371
57.021 66.7319 0.0188924
60.6648 63.9725 0.0234612
57.5491 63.6634 0.0286365
65.6434 54.1565 0.037919
64.3324 51.3221 0.0324916
60.7653 60.912 0.0337828
60.5535 58.0981 0.043099
62.6587 55.0047 0.0365997
60.1045 55.6835 0.0342224
55.0706 67.9266 2
59.21 62.3322 2
55.7962 64.8761 2
56.3139 62.0348 2
65.114 49.3489 2
63.5141 53.2267 2
62.0791 50.5401 2
59.2904 59.5105 2
60.8035 54.202 2
59.0753 56.904 2
58.9503 55.0544 2
53.0387 68.9977 3.98509
53.9601 65.9997 3.97224
57.8548 60.8181 3.96195
54.6616 63.1414 3.96587
55.1843 60.5497 3.97567
62.8197 48.5574 3.97455
61.4201 52.4635 3.97052
59.7681 49.8589 3.97309
57.8637 58.1668 3.95737
58.9706 53.8053 3.97163
57.7777 55.6598 3.96281
50.1045 67.8475 3.97818
47.4574 66.5646 3.97573
46.0531 69.1511 3.98316
48.1008 68.5699 2
48.7989 70.7219 3.98875
50.9479 69.9286 2
51.8506 72.1454 4
54.0858 71.1327 2
56.25 69.9759 0
55.0988 7.1439 3.98214
58.3339 6.31992 4
57.0578 8.3463 2
60.3286 7.74926 2
58.9174 9.66016 0.0234727
62.2254 9.30607 0
68.2215 48.0967 0.0351947
69.4137 43.904 0.0341229
66.524 45.4027 0.0252839
67.4425 41.4824 0.0241951
70.0332 39.6578 0.0336896
72.4865 37.513 0.0248498
70.1218 37.5237 2
67.6869 39.5063 2
67.0515 43.4431 2
65.2247 41.1808 2
65.8584 47.3681 2
64.2853 44.7778 2
67.7938 37.5249 3.9754
65.4695 39.3578 3.97686
64.8322 42.9755 3.97654
63.2981 40.8884 3.9767
63.587 46.6253 3.97522
62.2973 44.1258 3.97583
70.0509 35.3958 0.0337677
69.4534 31.1563 0.0351253
67.5138 33.6104 0.0248884
66.6087 29.6622 0.025978
62.3363 12.6602 0.0283408
62.1823 15.8076 0.0401953
61.6575 18.7616 0.0406816
65.3386 25.7571 0.0308263
63.8066 28.3484 0.0243685
62.5432 24.7476 0.0265801
60.9367 21.4657 0.033247
60.0184 23.8914 0.0262083
59.2371 12.8188 0.0372785
56.39 13.1877 0.0348778
55.8666 10.2697 0.0265586
67.7312 35.5588 2
67.1166 31.6522 2
65.3853 33.9621 2
64.3199 30.2689 2
60.7618 14.2533 2
60.5029 17.1999 2
59.9391 19.9506 2
63.2103 26.5174 2
61.7828 28.9032 2
59.2669 22.4309 2
60.607 25.4982 2
58.4769 24.5287 2
57.8853 14.3946 2
55.2703 14.7384 2
54.0333 9.16322 2
54.7694 12.0863 2
65.5697 35.6859 3.97676
64.8524 32.2069 3.97624
63.8754 34.2911 3.97653
62.1016 30.7347 3.97569
61.19 27.2173 3.97512
60.275 29.2899 3.97578
59.2487 15.7357 3.95579
58.7839 26.0021 3.97549
58.9084 18.4828 3.95902
58.3594 21.0353 3.96407
57.802 23.3057 3.97053
57.4222 24.8974 3.9757
52.1073 8.16551 3.97084
53.0401 11.0866 3.96553
56.6175 15.8417 3.95581
53.7923 13.7698 3.97696
54.2944 16.1263 3.95711
55.067 67.93 0.0154467
65.1166 49.35 0.0304074
55.7941 64.8766 0.0282195
59.2116 62.3285 0.0340588
56.3155 62.0337 0.0215024
63.5155 53.2271 0.0347583
62.0805 50.5406 0.0278282
59.2778 59.5028 0.0430178
59.0663 56.9012 0.0396349
60.8033 54.2017 0.0311885
58.942 55.0524 0.0305889
53.0422 68.9957 2
53.9621 65.9978 2
57.8565 60.8208 2
54.6605 63.1426 2
55.1827 60.5504 2
62.8182 48.5568 2
61.4197 52.4634 2
59.769 49.8586 2
57.8693 58.1701 2
58.9759 53.8062 2
57.7751 55.6586 2
52.0643 66.9867 3.9754
52.9376 64.1764 3.97308
56.5759 59.4141 3.95669
53.6404 61.5305 3.97065
54.1999 59.2341 3.96307
60.448 47.727 3.97428
59.2681 51.95 3.97207
57.4075 49.4087 3.97466
56.5532 56.8584 3.96137
56.6604 53.9348 3.96701
50.1066 67.8457 2
49.3286 65.8944 3.97543
47.4595 66.5598 2
46.8828 64.6974 3.97697
45.5552 67.0831 3.97862
43.971 69.5837 3.98429
46.0555 69.1512 2
46.6059 71.3664 3.99018
48.0987 68.5702 0.0192277
48.8019 70.721 2
49.554 73.0099 4
50.9448 69.9306 0.0124726
51.8506 72.1455 2
54.0858 71.1327 0
53.0617 6.07426 3.98668
55.1032 7.14601 2
56.25 5.02411 4
58.3339 6.3199 2
57.0541 8.33984 0.0232002
60.3285 7.74928 0
65.861 47.3693 0.0278474
67.054 43.4441 0.0245463
64.2876 44.7785 0.0242297
65.2268 41.1816 0.0232568
67.6904 39.5067 0.0244032
70.1216 37.5237 0.0335617
67.7909 37.5249 2
65.4674 39.3575 2
64.8296 42.9744 2
63.2978 40.8877 2
63.5852 46.6245 2
62.2968 44.1255 2
65.5799 37.5054 3.97678
63.4495 39.2497 3.97658
62.8444 42.4897 3.9763
61.8708 40.6496 3.9766
61.4341 45.795 3.97544
60.8258 43.5809 3.97616
67.7343 35.5586 0.0247684
67.1181 31.6513 0.0251208
65.3878 33.9613 0.0232272
64.3218 30.2681 0.0244712
60.7648 14.2537 0.0370709
60.5108 17.1983 0.0436044
59.9437 19.9502 0.0377766
63.2117 26.5168 0.0247787
61.7833 28.9032 0.0246882
60.6078 25.4979 0.0249385
59.2636 22.4316 0.030264
58.4791 24.5266 0.0258003
57.8828 14.3963 0.0423264
55.275 14.7478 0.0438123
54.03 9.16791 0.0309513
54.7758 12.0791 0.0310703
65.5672 35.6863 2
64.8502 32.2078 2
63.8754 34.2915 2
62.1014 30.735 2
59.2617 15.7311 2
58.9071 18.4815 2
58.3582 21.0356 2
61.1891 27.2175 2
60.2759 29.2901 2
57.7986 23.3084 2
58.7818 26.0028 2
57.4217 24.9002 2
56.5862 15.8456 2
54.292 16.1125 2
53.7791 13.7656 2
52.1097 8.16837 2
53.0433 11.0807 2
63.6607 35.6584 3.97644
62.4304 33.1156 3.97616
59.9819 30.7493 3.97562
58.955 28.0979 3.97537
57.7973 17.0985 3.95665
57.1132 25.9766 3.97552
57.3898 19.6533 3.959
56.8881 22.0673 3.96427
56.6187 24.1968 3.9726
50.1082 7.29512 3.9801
51.2194 10.1687 3.96975
52.1388 12.8994 3.96625
55.4053 17.1079 3.95593
52.9246 15.3696 3.95909
53.6368 17.1268 3.95705
53.0387 68.9977 0.0149148
53.9601 65.9997 0.0277559
62.8197 48.5574 0.0254466
54.6616 63.1414 0.0341278
57.8548 60.8181 0.0380505
55.1843 60.5497 0.02433
61.4201 52.4635 0.0294834
59.7681 49.8589 0.0269123
57.8637 58.1668 0.0426267
57.7777 55.6598 0.0371872
58.9706 53.8053 0.0283682
52.0666 66.9856 2
52.9375 64.177 2
56.5743 59.4147 2
53.6387 61.53 2
54.1953 59.2359 2
60.4478 47.7263 2
59.2707 51.9502 2
57.4089 49.4083 2
56.55 56.862 2
56.6585 53.9336 2
51.157 65.1028 3.97315
52.0146 62.4694 3.96858
55.3494 58.1457 3.96085
52.7589 60.0217 3.96422
53.544 58.3663 3.9617
57.5552 46.637 3.97525
57.016 51.5864 3.97185
55.5407 49.3102 3.97384
55.1815 55.6343 3.96185
54.8337 53.1719 3.96216
50.1045 67.8475 0.0218212
49.3296 65.8993 2
48.6039 64.0876 3.97853
47.4574 66.5646 0.024267
45.5565 67.0856 2
46.8833 64.6994 2
46.366 63.0026 3.98219
45.1257 65.1726 3.97908
43.6297 67.4567 3.98047
41.8589 69.8706 3.98416
43.9726 69.5837 2
44.3736 71.8611 3.99057
46.0531 69.1511 0.0168384
46.6081 71.366 2
47.2057 73.7222 4
48.7989 70.7219 0.0112527
49.554 73.0099 2
51.8506 72.1454 0
50.9529 5.13439 3.98901
53.0647 6.07606 2
54.0858 3.86728 4
55.0988 7.1439 0.0178604
56.25 5.02406 2
58.3339 6.31992 0
63.587 46.6253 0.024777
64.8322 42.9755 0.0234559
62.2973 44.1258 0.0241673
63.2981 40.8884 0.0233007
65.4695 39.3578 0.0231444
67.7938 37.5249 0.024604
65.5778 37.5056 2
63.4496 39.2496 2
62.8447 42.4889 2
61.8712 40.6491 2
61.4334 45.7945 2
60.8261 43.5808 2
63.5142 37.461 3.97651
61.5741 39.3278 3.97685
60.5709 41.8762 3.97674
59.5566 44.6233 3.97557
65.5697 35.6859 0.0232415
64.8524 32.2069 0.0237603
63.8754 34.2911 0.0234665
62.1016 30.7347 0.0243143
59.2487 15.7357 0.044215
58.9084 18.4828 0.0409812
58.3594 21.0353 0.0359285
61.19 27.2173 0.024876
60.275 29.2899 0.0242205
58.7839 26.0021 0.0245139
57.802 23.3057 0.0294701
57.4222 24.8974 0.024301
56.6175 15.8417 0.0441899
54.2944 16.1263 0.0428864
53.7923 13.7698 0.0230353
52.1073 8.16551 0.0291552
53.0401 11.0866 0.0344654
63.6609 35.6586 2
62.4316 33.1164 2
59.9831 30.7497 2
57.8035 17.0941 2
57.3995 19.6496 2
56.8876 22.0699 2
58.9557 28.0972 2
56.6267 24.1987 2
57.1135 25.9751 2
50.1115 7.29231 2
55.4023 17.1107 2
53.6405 17.1178 2
52.9143 15.374 2
52.1484 12.8952 2
51.2211 10.1662 2
61.6169 35.3972 3.97655
59.5938 32.8486 3.97591
57.862 30.259 3.9753
56.5713 27.6289 3.97577
56.4257 18.3107 3.9578
55.6285 25.3875 3.97477
55.96 20.7381 3.95778
55.5479 23.1348 3.96516
48.0548 6.53492 3.98314
49.3165 9.35841 3.97436
50.4084 12.0718 3.9677
51.3196 14.617 3.96545
54.2382 18.0897 3.96027
52.2607 17.2002 3.95406
52.0643 66.9867 0.0245965
52.9376 64.1764 0.0269249
60.448 47.727 0.0257214
53.6404 61.5305 0.0293462
56.5759 59.4141 0.0433136
54.1999 59.2341 0.0369309
59.2681 51.95 0.0279304
57.4075 49.4087 0.0253354
56.5532 56.8584 0.0386307
56.6604 53.9348 0.032986
51.1571 65.1001 2
52.014 62.4728 2
55.3459 58.1457 2
52.7577 60.0237 2
53.541 58.3691 2
57.5552 46.636 2
57.0147 51.5854 2
55.5397 49.3093 2
55.1808 55.6347 2
54.8321 53.1716 2
50.325 63.3447 3.97395
51.1838 60.8402 3.97298
54.0474 57.1429 3.96578
52.1665 58.5048 3.96564
55.7452 43.9786 3.97572
54.6523 47.6236 3.9753
54.3777 51.1387 3.96547
53.6308 54.3603 3.96437
49.3286 65.8944 0.024574
48.6025 64.0912 2
47.9364 62.4348 3.9871
45.5552 67.0831 0.0213796
46.8828 64.6974 0.0230291
43.6304 67.4567 2
46.3661 63.0076 2
45.1276 65.1683 2
45.9611 61.5303 3.99351
44.7565 63.4064 3.97579
43.3547 65.4872 3.97801
41.6626 67.6747 3.9795
39.7013 70.0171 3.9836
41.8601 69.8713 2
42.1086 72.205 3.99094
43.971 69.5837 0.0157121
44.3754 71.8605 2
44.8159 74.2794 4
46.6059 71.3664 0.00982402
47.2057 73.7222 2
49.554 73.0099 0
48.7844 4.32454 3.98971
50.9552 5.13424 2
51.8506 2.85458 4
53.0617 6.07426 0.0133155
54.0858 3.86728 2
56.25 5.02411 0
61.4341 45.795 0.0245569
62.8444 42.4897 0.0236976
60.8258 43.5809 0.0238412
61.8708 40.6496 0.0234002
63.4495 39.2497 0.023415
65.5799 37.5054 0.0232196
63.5145 37.4611 2
61.5742 39.3274 2
60.5721 41.8758 2
59.5575 44.623 2
61.3976 37.4484 3.97674
59.5055 39.799 3.97681
58.16 42.7905 3.97581
63.6607 35.6584 0.0235645
62.4304 33.1156 0.0238406
59.9819 30.7493 0.0243823
57.7973 17.0985 0.0433533
57.3898 19.6533 0.041003
56.8881 22.0673 0.0357284
58.955 28.0979 0.0246324
57.1132 25.9766 0.0244812
56.6187 24.1968 0.0274012
55.4053 17.1079 0.0440658
53.6368 17.1268 0.0429539
52.9246 15.3696 0.040906
50.1082 7.29512 0.0198999
52.1388 12.8994 0.0337458
51.2194 10.1687 0.0302493
61.6177 35.3979 2
59.5936 32.8485 2
57.8639 30.2588 2
56.4251 18.3093 2
55.9848 20.7322 2
55.5556 23.1379 2
56.5734 27.6292 2
55.6342 25.3906 2
48.0557 6.53612 2
49.3171 9.3579 2
54.2437 18.0931 2
52.2494 17.1983 2
51.3215 14.6144 2
50.4127 12.0744 2
59.1322 35.1727 3.9766
57.1167 32.4129 3.97528
55.688 29.5792 3.97545
54.6578 26.9203 3.97481
55.0854 19.3741 3.96206
54.3192 24.3545 3.97184
54.5388 21.8188 3.96137
45.9615 5.88863 3.98534
43.3734 7.48301 3.98126
47.3517 8.63921 3.97652
48.5821 11.3466 3.97032
49.6662 13.8301 3.96767
50.5404 16.2734 3.95693
52.9327 18.8723 3.96364
51.1767 18.2823 3.95687
51.157 65.1028 0.0268459
52.0146 62.4694 0.0314236
57.5552 46.637 0.0247469
52.7589 60.0217 0.035777
55.3494 58.1457 0.0391493
53.544 58.3663 0.038303
57.016 51.5864 0.0281519
55.5407 49.3102 0.0261638
55.1815 55.6343 0.0381513
54.8337 53.1719 0.03784
50.3233 63.3438 2
51.1831 60.8423 2
54.0438 57.144 2
52.1595 58.5064 2
55.7473 43.9801 2
54.6517 47.6233 2
54.3735 51.1373 2
53.6244 54.3608 2
49.5504 61.7013 3.97452
54.4373 41.5904 3.97372
50.4593 59.2204 3.96464
51.9272 56.3375 3.96411
53.1115 45.2595 3.97334
52.4752 49.0361 3.97016
52.1185 52.6266 3.95918
48.6039 64.0876 0.0214744
47.9366 62.4335 2
47.2893 60.9606 3.99172
43.6297 67.4567 0.0195253
45.1257 65.1726 0.020923
46.366 63.0026 0.0178062
41.6638 67.6745 2
43.3579 65.4877 2
45.9614 61.5362 2
44.7568 63.4047 2
45.7257 60.5757 3.99536
44.4649 61.7764 3.97906
43.1399 63.6871 3.97837
41.5458 65.6252 3.97393
39.6325 67.7529 3.97864
37.5259 70.0415 3.98339
39.7022 70.0173 2
39.8162 72.4021 3.99125
41.8589 69.8706 0.0158436
42.1099 72.2054 2
42.3947 74.6792 4
44.3736 71.8611 0.00943223
44.8159 74.2794 2
47.2057 73.7222 0
43.851 5.36396 3.98563
46.5706 3.64926 3.9906
48.7853 4.32544 2
49.554 1.99015 4
50.9529 5.13439 0.0109931
51.8506 2.85453 2
54.0858 3.86728 0
59.5566 44.6233 0.0244341
60.5709 41.8762 0.0232552
61.5741 39.3278 0.0231487
63.5142 37.461 0.0234874
61.3971 37.4486 2
59.5057 39.797 2
58.161 42.7906 2
58.9881 37.5671 3.97724
57.0723 40.5693 3.97748
53.8376 39.6205 3.97562
61.6169 35.3972 0.0234493
59.5938 32.8486 0.0240907
57.862 30.259 0.0246986
56.4257 18.3107 0.042196
55.96 20.7381 0.0422226
55.5479 23.1348 0.0348424
56.5713 27.6289 0.0242254
55.6285 25.3875 0.0252269
54.2382 18.0897 0.0397306
52.2607 17.2002 0.0459432
51.3196 14.617 0.0345537
48.0548 6.53492 0.0168561
49.3165 9.35841 0.0256419
50.4084 12.0718 0.0322981
59.1329 35.1741 2
45.962 5.8883 2
43.3732 7.48221 2
57.1162 32.4148 2
55.6884 29.5774 2
55.0734 19.3792 2
54.5755 21.815 2
54.319 24.3597 2
54.66 26.9201 2
47.3515 8.63838 2
48.585 11.3423 2
52.9279 18.8348 2
51.1721 18.2797 2
50.5482 16.2754 2
49.6664 13.8389 2
56.4271 34.8398 3.97713
54.7161 31.7242 3.97467
53.5832 28.704 3.97641
53.0378 25.8386 3.97402
53.6712 20.3605 3.96359
53.0633 23.0109 3.96337
41.3993 7.08446 3.98284
45.3585 8.00424 3.98539
42.8652 9.43166 3.97078
46.6574 10.687 3.977
47.7053 13.1604 3.9686
48.8528 15.4949 3.97117
49.8834 17.8669 3.96435
51.4484 19.5745 3.98655
50.325 63.3447 0.0260515
51.1838 60.8402 0.0270227
55.7452 43.9786 0.0242828
54.6523 47.6236 0.0247018
52.1665 58.5048 0.0343638
54.0474 57.1429 0.0342233
54.3777 51.1387 0.0345256
53.6308 54.3603 0.0356305
49.5504 61.6981 2
54.4371 41.5882 2
50.4567 59.2272 2
51.9334 56.3418 2
53.1061 45.2554 2
52.4721 49.0338 2
52.1215 52.6267 2
48.7755 60.1509 3.99252
51.1221 42.4552 3.98346
49.6152 57.5098 3.96388
50.2088 54.2486 3.96001
50.7755 46.938 3.97576
50.5213 50.6887 3.95274
46.8493 43.4353 3.9645
47.9364 62.4348 0.0128998
47.2915 60.9624 2
46.5617 59.7448 3.99345
41.6626 67.6747 0.0204954
43.3547 65.4872 0.021986
44.7565 63.4064 0.0242077
45.9611 61.5303 0.00648852
39.6338 67.7536 2
41.5479 65.6233 2
45.7251 60.5817 2
43.139 63.6855 2
44.4637 61.7789 2
44.5834 60.2292 3.9931
42.9355 62.034 3.9762
41.5955 63.792 3.97852
39.6465 65.5918 3.97463
37.5636 67.7343 3.97716
31.6988 65.1093 3.97351
33.3934 67.4728 3.97772
35.3343 69.9527 3.9838
37.5258 70.0435 2
37.5093 72.4562 3.99177
39.7013 70.0171 0.0163972
39.8172 72.4021 2
39.9526 74.9197 4
42.1086 72.205 0.00906114
42.3947 74.6792 2
44.8159 74.2794 0
41.7359 4.9714 3.9877
43.8514 5.36307 2
44.3264 3.11186 3.99184
46.5715 3.64944 2
47.2057 1.27793 4
48.7844 4.32454 0.0102903
49.554 1.99013 2
51.8506 2.85458 0
58.16 42.7905 0.0241852
59.5055 39.799 0.023192
61.3976 37.4484 0.0232607
58.9857 37.5682 2
57.0774 40.5684 2
53.8413 39.6243 2
55.7846 37.8768 3.97737
48.1444 41.1647 3.96772
51.693 39.2333 3.97981
39.4424 6.80891 3.98167
59.1322 35.1727 0.0234
57.1167 32.4129 0.0247181
55.688 29.5792 0.0245518
55.0854 19.3741 0.0379422
54.5388 21.8188 0.0386265
54.3192 24.3545 0.0281606
54.6578 26.9203 0.0251947
52.9327 18.8723 0.0363618
51.1767 18.2823 0.0431268
50.5404 16.2734 0.0430678
45.9615 5.88863 0.0146629
49.6662 13.8301 0.0323262
47.3517 8.63921 0.023476
48.5821 11.3466 0.0296799
43.3734 7.48301 0.0187397
56.4304 34.8409 2
41.3997 7.08606 2
45.358 8.00408 2
42.8642 9.43338 2
54.7192 31.7268 2
53.581 28.705 2
53.6722 20.3669 2
53.0455 23.0141 2
53.0397 25.8374 2
46.658 10.6825 2
47.7091 13.1606 2
51.4545 19.5724 2
49.8809 17.863 2
48.8564 15.5254 2
53.65 34.0581 3.97522
52.3806 30.7944 3.975
51.706 27.5694 3.9749
51.5432 24.46 3.974
52.0533 21.326 3.98317
41.0122 9.05683 3.97707
44.7263 10.0076 3.98313
42.453 10.9183 4.00451
45.9679 12.7591 3.96556
47.6221 14.6874 3.96631
48.0007 17.0936 3.96848
49.6763 19.9756 3.98619
49.5504 61.7013 0.0254836
50.4593 59.2204 0.0353636
54.4373 41.5904 0.0262771
53.1115 45.2595 0.0266553
52.4752 49.0361 0.0298372
51.9272 56.3375 0.0358908
52.1185 52.6266 0.0408194
48.7741 60.1455 2
51.1368 42.475 2
49.6145 57.5083 2
50.2113 54.2507 2
50.7772 46.9373 2
50.5261 50.6884 2
46.8581 43.4798 2
47.8809 58.6491 3.99047
48.8507 44.9795 3.9818
48.3435 55.7832 3.95392
48.6382 52.391 3.98082
48.848 48.7556 3.96897
44.5456 39.7133 3.8282
45.0796 42.3631 3.87363
45.3967 45.3954 3.98217
42.4202 40.9554 3.61042
41.3422 41.598 3.40811
47.2893 60.9606 0.00827541
46.5579 59.7522 2
45.3983 58.7377 3.99554
39.6325 67.7529 0.0213552
41.5458 65.6252 0.0260676
43.1399 63.6871 0.0216283
44.4649 61.7764 0.0209363
45.7257 60.5757 0.00463793
41.5969 63.7868 2
37.5644 67.7371 2
39.6492 65.5924 2
44.5846 60.2324 2
42.9337 62.0369 2
41.7415 62.444 3.97786
42.4487 59.9289 3.98813
39.8914 63.5273 3.97744
37.6413 65.4883 3.97387
35.4639 67.6445 3.97697
33.5763 65.3206 3.9742
31.9631 63.264 3.97929
29.888 64.6963 3.97925
31.6976 65.1088 2
31.3791 67.1831 3.97822
33.3928 67.4745 2
33.1582 69.746 3.98376
35.3335 69.9541 2
35.1964 72.3712 3.99195
37.5259 70.0415 0.0166108
37.5097 72.4568 2
37.5 75 4
39.8162 72.4021 0.00875308
39.9526 74.9197 2
42.3947 74.6792 0
39.6242 4.71899 3.98834
41.7361 4.97176 2
42.0631 2.71884 3.99237
43.851 5.36396 0.0143728
44.3269 3.11145 2
44.8158 0.721173 4
46.5706 3.64926 0.00939777
47.2057 1.27779 2
49.554 1.99015 0
57.0723 40.5693 0.0225182
58.9881 37.5671 0.0227647
53.8376 39.6205 0.0243755
48.1722 41.1798 2
55.7825 37.8733 2
51.6934 39.2193 2
52.568 36.6183 3.97713
46.0746 40.2479 3.88627
49.0617 38.4901 3.97591
37.5163 6.67776 3.98474
39.4434 6.80904 2
39.2097 8.70314 3.98002
35.9424 8.50012 3.98168
56.4271 34.8398 0.0228734
54.7161 31.7242 0.0253333
53.5832 28.704 0.0235904
53.6712 20.3605 0.0364051
53.0633 23.0109 0.0366253
53.0378 25.8386 0.0259751
51.4484 19.5745 0.0134491
49.8834 17.8669 0.0356507
48.8528 15.4949 0.02883
45.3585 8.00424 0.0146143
47.7053 13.1604 0.0313957
46.6574 10.687 0.0229969
41.3993 7.08446 0.0171554
42.8652 9.43166 0.0292221
53.6451 34.0511 2
41.0124 9.06087 2
44.7241 10.0074 2
42.4551 10.9261 2
52.3748 30.7916 2
51.7161 27.5687 2
52.0548 21.3308 2
51.5278 24.4619 2
45.9726 12.7568 2
47.6167 14.6622 2
49.6924 19.9928 2
47.9973 17.0969 2
51.097 33.021 3.97809
50.2079 29.5405 3.97644
50.0149 26.0621 3.97058
49.6126 22.5668 3.98178
40.5572 11.6159 3.98496
43.8246 11.9222 3.96505
45.7448 15.5646 3.99017
47.3857 19.5891 3.98059
44.9583 37.4878 3.83271
48.7755 60.1509 0.00747738
49.6152 57.5098 0.0361239
51.1221 42.4552 0.0165417
50.7755 46.938 0.0242371
50.5213 50.6887 0.0472633
50.2088 54.2486 0.0399858
46.8493 43.4353 0.0355038
47.8761 58.6536 2
48.8655 44.9923 2
48.3412 55.7852 2
48.6393 52.3961 2
48.8532 48.7584 2
44.6681 39.7392 2
45.1119 42.3853 2
45.4063 45.4164 2
42.4864 41.0152 2
41.3865 41.6238 2
46.6881 57.252 3.98728
43.0858 39.3512 3.60136
41.7277 40.5743 3.39322
47.0825 46.9912 3.98542
46.8375 54.073 3.96085
46.9834 50.5269 3.9765
44.023 47.0262 3.98761
43.7398 41.7248 3.83051
43.9172 44.1448 3.8609
41.5921 42.2578 3.66434
40.4413 41.8804 3.34839
46.5617 59.7448 0.0065452
45.3951 58.7375 2
43.8058 57.6025 3.98448
37.5636 67.7343 0.0228414
39.6465 65.5918 0.0253712
41.5955 63.792 0.0214769
42.9355 62.034 0.0238006
44.5834 60.2292 0.00690298
35.4639 67.6468 2
41.7393 62.4483 2
39.8912 63.5289 2
37.643 65.4921 2
42.4503 59.9308 2
40.6117 61.5857 3.98498
40.4149 58.1047 3.98895
37.8358 63.1834 3.97257
35.5727 65.4118 3.97568
33.5758 65.3199 2
31.9657 63.2641 2
33.6306 63.3124 3.97911
30.3853 62.8242 3.98169
32.1351 61.967 3.98844
26.8945 61.4242 3.9857
28.072 64.1225 3.98191
29.8878 64.6948 2
29.4096 66.7464 3.97782
31.6988 65.1093 0.0264906
31.3784 67.1839 2
31.0163 69.4113 3.98336
33.3934 67.4728 0.0222825
33.1569 69.7473 2
32.8946 72.1455 3.99117
35.3343 69.9527 0.0161971
35.1959 72.372 2
35.0474 74.9194 4
37.5093 72.4562 0.00822916
37.5 75 2
39.9526 74.9197 0
35.6208 6.72982 3.98294
37.5242 4.61823 3.98904
39.6244 4.71866 2
39.7896 2.47533 3.9926
41.7359 4.9714 0.0122979
42.0631 2.71889 2
42.3946 0.32156 4
44.3264 3.11186 0.00816491
44.8159 0.72056 2
47.2057 1.27793 0
48.1444 41.1647 0.0322846
55.7846 37.8768 0.022634
51.693 39.2333 0.0201916
46.1032 40.2522 2
49.0689 38.4643 2
52.5961 36.627 2
49.878 35.5478 3.97757
46.7049 37.7236 3.8745
44.5722 35.231 3.8306
42.4702 33.9768 3.61056
41.3815 33.3321 3.40802
37.4577 8.5381 3.98386
37.5175 6.67811 2
39.4424 6.80891 0.018334
39.2112 8.70392 2
38.9714 10.1389 3.99009
35.8979 9.78343 3.98091
34.1525 8.83252 3.97943
35.9439 8.49944 2
53.65 34.0581 0.0247848
52.3806 30.7944 0.0250048
51.706 27.5694 0.0250983
52.0533 21.326 0.0168265
51.5432 24.46 0.0259995
49.6763 19.9756 0.0138127
48.0007 17.0936 0.0315245
47.6221 14.6874 0.0336891
44.7263 10.0076 0.016866
45.9679 12.7591 0.0344425
41.0122 9.05683 0.0229255
42.453 10.9183 -0.00451199
51.1111 33.0084 2
40.5636 11.626 2
43.8272 11.9175 2
50.2209 29.5414 2
50.0175 26.0753 2
49.5962 22.5316 2
45.7288 15.4933 2
47.3959 19.6252 2
48.6903 31.5944 3.98256
48.3506 27.8358 3.97444
48.8223 24.6884 3.97952
46.9728 22.3822 3.99311
38.2972 12.7619 3.97819
42.0698 14.3794 3.98423
44.7114 18.6833 3.98203
43.4565 37.475 3.61693
45.0635 37.4772 2
47.8809 58.6491 0.00952871
48.3435 55.7832 0.0460781
48.8507 44.9795 0.0182004
48.848 48.7556 0.0310317
48.6382 52.391 0.0191808
44.5456 39.7133 0.171803
45.0796 42.3631 0.126373
45.3967 45.3954 0.0178264
42.4202 40.9554 0.389582
41.3422 41.598 0.591887
46.6858 57.2567 2
43.1736 39.3739 2
41.7457 40.5866 2
47.0905 46.9928 2
46.833 54.0762 2
46.985 50.539 2
44.0665 47.034 2
43.8107 41.775 2
43.9743 44.1791 2
41.6474 42.3414 2
40.4885 41.9016 2
45.2091 55.8103 4.00116
42.0622 39.119 3.40274
40.3214 40.4801 3.4816
45.3722 48.6367 4.00252
45.0879 52.316 3.99065
42.8223 48.0057 3.98974
42.6821 45.6511 3.86571
42.7491 43.4715 3.81986
40.6537 43.1918 3.62385
39.1388 42.151 3.42534
45.3983 58.7377 0.0044635
43.8011 57.6164 2
42.0266 56.1617 3.99123
35.4639 67.6445 0.0230265
37.6413 65.4883 0.0261275
39.8914 63.5273 0.0225607
41.7415 62.444 0.0221361
42.4487 59.9289 0.011867
35.5738 65.4155 2
40.6108 61.585 2
37.8367 63.1826 2
40.4123 58.1125 2
38.9012 56.3015 3.99614
38.2411 60.2686 3.98477
35.6068 63.1788 3.97265
33.5763 65.3206 0.0257983
31.9631 63.264 0.0207137
33.6334 63.3149 2
30.3872 62.8242 2
32.138 61.9669 2
28.6947 62.1599 3.97926
33.3535 61.4753 3.98324
31.0888 61.1917 3.99183
27.6224 59.5218 3.9807
23.8661 58.9818 3.98509
25.0712 60.785 3.97842
26.8952 61.4264 2
26.2443 63.4489 3.97432
28.0715 64.1182 2
27.4681 66.1633 3.97632
29.888 64.6963 0.0207492
29.4085 66.7453 2
28.9092 68.9365 3.98254
31.3791 67.1831 0.0217831
31.0146 69.4115 2
30.6178 71.777 3.99047
33.1582 69.746 0.0162398
32.8934 72.1459 2
32.6054 74.6784 4
35.1964 72.3712 0.00804836
35.0474 74.9197 2
37.5 75 0
33.7239 6.98634 3.98147
35.4363 4.68819 3.98838
35.6221 6.72959 2
37.5155 2.38792 3.99278
37.5244 4.61785 2
39.6242 4.71899 0.0116582
39.7895 2.47509 2
39.9526 0.0806499 4
42.0631 2.71884 0.00762812
42.3947 0.320817 2
44.8158 0.721173 0
43.114 35.593 3.60875
41.7596 34.3499 3.37672
46.0746 40.2479 0.113728
49.0617 38.4901 0.0240877
52.568 36.6183 0.0228652
46.7085 37.7111 2
49.8983 35.5731 2
44.6769 35.2161 2
42.5267 33.9159 2
41.4086 33.3077 2
46.9547 34.423 3.93221
43.7956 33.2159 3.82377
41.6456 32.6763 3.66319
40.4657 33.0598 3.34781
37.3086 10.6362 3.9812
37.4596 8.53952 2
37.5163 6.67776 0.0152564
39.2097 8.70314 0.0199754
38.9773 10.1414 2
34.7556 10.3948 3.97681
35.9033 9.78087 2
32.3805 9.38132 3.97459
34.1528 8.83053 2
35.9424 8.50012 0.0183228
51.097 33.021 0.0219135
50.2079 29.5405 0.0235612
50.0149 26.0621 0.0294213
49.6126 22.5668 0.0182165
47.3857 19.5891 0.0194069
45.7448 15.5646 0.00983374
43.8246 11.9222 0.0349468
40.5572 11.6159 0.0150356
48.7091 31.5782 2
38.3002 12.761 2
42.0782 14.3858 2
48.3481 27.8332 2
48.8225 24.694 2
46.9629 22.3734 2
44.7233 18.7478 2
46.6521 29.8487 3.98016
46.51 25.3964 3.97903
44.1558 21.6902 3.98341
36.5874 12.9775 3.9768
38.6681 14.8926 3.97777
41.6918 18.0085 3.9828
42.235 37.4489 3.43243
43.5339 37.4763 2
44.9583 37.4878 0.167285
46.6881 57.252 0.0127183
46.8375 54.073 0.0391503
47.0825 46.9912 0.0145846
46.9834 50.5269 0.0234966
43.0858 39.3512 0.398642
43.7398 41.7248 0.169493
43.9172 44.1448 0.139105
44.023 47.0262 0.012388
41.5921 42.2578 0.33566
41.7277 40.5743 0.606776
40.4413 41.8804 0.651607
45.2073 55.8145 2
42.0783 39.1269 2
40.3887 40.4713 2
45.3732 48.6595 2
45.083 52.3191 2
42.865 48.0282 2
42.7534 45.7151 2
42.794 43.5051 2
40.7155 43.2753 2
39.121 42.1798 2
43.529 54.2484 4.00293
40.4025 38.9675 3.51044
39.0357 40.5692 3.45925
43.1463 50.107 4.00288
41.496 47.139 3.91641
41.4154 44.7404 3.81804
39.3671 43.8439 3.60003
37.5117 42.2929 3.48493
43.8058 57.6025 0.0155215
42.0332 56.1484 2
40.3324 54.7212 3.99503
35.5727 65.4118 0.0243218
37.8358 63.1834 0.0274289
40.6117 61.5857 0.0150247
40.4149 58.1047 0.0110489
35.609 63.1749 2
38.2373 60.2667 2
38.902 56.2808 2
37.9754 54.9825 3.99533
36.9224 57.5124 3.99283
35.3652 60.8723 3.9851
33.6306 63.3124 0.0208939
30.3853 62.8242 0.0183114
32.1351 61.967 0.0115621
33.3565 61.4746 2
28.695 62.167 2
31.0917 61.1935 2
29.4414 60.2478 3.9832
32.3704 59.6568 3.99609
28.1059 58.3128 4.01854
27.6237 59.5212 2
25.4569 58.508 3.97808
22.8663 58.1347 3.9723
23.4462 60.25 3.97554
23.8668 58.9828 2
25.0724 60.7857 2
24.4535 62.7211 3.97459
26.8945 61.4242 0.0143
26.2443 63.4478 2
25.5547 65.4728 3.97419
28.072 64.1225 0.0180893
27.4674 66.1657 2
26.8398 68.323 3.98044
29.4096 66.7464 0.0221823
28.9075 68.9358 2
28.3732 71.2625 3.98944
31.0163 69.4113 0.0166417
30.616 71.7768 2
30.1842 74.2788 4
32.8946 72.1455 0.00882863
32.6053 74.6792 2
35.0474 74.9194 0
31.7885 7.4272 3.97903
33.3488 4.92811 3.98703
33.7248 6.98511 2
35.2461 2.46371 3.99282
35.4363 4.68813 2
35.6208 6.72982 0.0170599
37.5 0 4
37.515 2.38773 2
37.5242 4.61823 0.0109642
39.7896 2.47533 0.00740015
39.9526 0.0802889 2
42.3946 0.32156 0
42.0584 35.776 3.36859
43.2117 35.569 2
40.3754 34.436 3.48782
41.7672 34.3325 2
46.7049 37.7236 0.125501
49.878 35.5478 0.0224269
44.5722 35.231 0.169401
42.4702 33.9768 0.389436
41.3815 33.3321 0.59198
46.9904 34.4308 2
43.8552 33.1618 2
41.6956 32.5963 2
40.5047 33.0395 2
45.109 31.878 3.88653
42.8029 31.4635 3.81057
40.699 31.744 3.62546
39.1456 32.8036 3.42272
35.6969 11.7947 3.9745
37.3166 10.6378 2
37.4577 8.5381 0.0161356
38.9714 10.1389 0.00990877
33.1026 11.2366 3.97277
34.7588 10.3891 2
35.8979 9.78343 0.0190874
30.4874 10.0344 3.97558
32.3807 9.38111 2
34.1525 8.83252 0.0205715
48.6903 31.5944 0.0174372
48.3506 27.8358 0.0255623
48.8223 24.6884 0.0204825
46.9728 22.3822 0.00689428
44.7114 18.6833 0.017968
42.0698 14.3794 0.0157741
38.2972 12.7619 0.0218143
36.5853 12.9628 2
46.6417 29.7878 2
38.6711 14.8733 2
41.689 18.0076 2
46.5144 25.3815 2
44.1398 21.6781 2
44.7058 27.9928 3.99525
43.4297 24.3346 4.01947
41.2459 21.0343 3.99513
35.7723 14.8157 3.98553
38.6392 17.7443 3.98779
40.4573 37.4158 3.53545
42.2563 37.4545 2
43.4565 37.475 0.383066
45.2091 55.8103 -0.00115564
45.0879 52.316 0.0093485
45.3722 48.6367 -0.00252399
42.0622 39.119 0.59726
42.7491 43.4715 0.180138
42.6821 45.6511 0.134291
42.8223 48.0057 0.0102622
40.6537 43.1918 0.376146
40.3214 40.4801 0.518402
39.1388 42.151 0.574657
43.5243 54.2435 2
40.4362 38.9704 2
39.024 40.5715 2
43.1371 50.1292 2
41.4892 47.1674 2
41.4403 44.7824 2
37.506 42.3171 2
39.3844 43.9233 2
41.6807 52.6973 4.00088
39.0467 39.0258 3.45288
37.5089 40.6145 3.51533
35.8856 42.1652 3.42106
40.6882 49.2465 3.99104
39.632 45.4225 3.78234
37.5073 44.1307 3.64631
42.0266 56.1617 0.0087712
40.3338 54.7293 2
38.7003 53.4697 3.99679
35.6068 63.1788 0.0273509
38.2411 60.2686 0.0152345
38.9012 56.3015 0.00385525
35.3649 60.8566 2
36.9237 57.5189 2
37.9656 54.9736 2
36.3204 55.0778 3.99763
34.4948 58.4363 3.99449
33.3535 61.4753 0.0167616
28.6947 62.1599 0.0207403
31.0888 61.1917 0.00817384
32.3703 59.6627 2
29.4429 60.2512 2
30.3662 57.7491 3.99189
28.1076 58.3118 2
27.1002 56.7476 3.96813
27.6224 59.5218 0.0192981
25.4582 58.5092 2
24.0235 56.686 3.96024
21.5221 57.2649 3.9573
22.0526 59.5265 3.97577
22.8662 58.1365 2
22.7637 61.9433 3.97328
23.4472 60.2506 2
23.8661 58.9818 0.0149102
25.0712 60.785 0.0215769
24.4538 62.7212 2
23.6911 64.6841 3.97189
26.2443 63.4489 0.025676
25.5541 65.4751 2
24.8125 67.5836 3.97805
27.4681 66.1633 0.023683
26.8377 68.3243 2
26.1687 70.6029 3.98861
28.9092 68.9365 0.0174643
28.3711 71.2618 2
27.7943 73.7221 4
30.6178 71.777 0.00953371
30.1841 74.2794 2
32.6054 74.6784 0
29.8117 8.00501 3.9768
31.2542 5.33567 3.98561
31.7891 7.42628 2
32.9822 2.70192 3.99221
33.3484 4.92753 2
33.7239 6.98634 0.0185296
35.0474 0.080333 4
35.2453 2.46382 2
35.4363 4.68819 0.0116163
37.5 0 2
37.5155 2.38792 0.00722435
39.9526 0.0806499 0
40.4962 35.9076 3.53035
42.0839 35.7753 2
43.114 35.593 0.391254
28.549 10.7096 3.97658
39.0429 34.3923 3.44969
40.39 34.4344 2
41.7596 34.3499 0.623278
46.9547 34.423 0.0677897
43.7956 33.2159 0.176231
41.6456 32.6763 0.336814
40.4657 33.0598 0.65219
45.1406 31.8618 2
42.8485 31.4224 2
40.754 31.6622 2
39.1378 32.7704 2
43.571 30.1459 3.87016
41.4413 30.189 3.81931
39.3833 31.0999 3.60213
37.5273 32.6769 3.48255
34.1023 12.9597 3.97656
35.7 11.7846 2
37.3086 10.6362 0.0187989
31.1936 12.0086 3.97661
33.1062 11.2347 2
34.7556 10.3948 0.0231942
30.4852 10.0295 2
32.3805 9.38132 0.0254143
46.6521 29.8487 0.0198418
46.51 25.3964 0.0209655
36.5874 12.9775 0.0231966
44.1558 21.6902 0.0165852
41.6918 18.0085 0.017199
38.6681 14.8926 0.022226
35.7715 14.825 2
44.7029 27.9958 2
38.6443 17.7323 2
41.2311 21.012 2
43.4235 24.3126 2
33.6268 15.9178 3.99088
42.5693 26.8032 3.97437
40.7573 23.6738 3.99429
38.367 20.5436 3.99256
35.8373 17.6253 3.98484
39.0668 37.4805 3.45205
40.4781 37.4235 2
42.235 37.4489 0.567572
43.529 54.2484 -0.00292964
43.1463 50.107 -0.00288137
40.4025 38.9675 0.48956
41.4154 44.7404 0.181965
41.496 47.139 0.0835945
39.3671 43.8439 0.399967
39.0357 40.5692 0.540754
37.5117 42.2929 0.515071
41.6692 52.6901 2
39.0303 39.0173 2
37.5016 40.6143 2
40.669 49.2528 2
35.8989 42.1919 2
39.6646 45.4928 2
37.5032 44.2137 2
39.6918 51.457 3.99934
37.5135 39.0232 3.50513
35.9996 40.5888 3.45904
34.5799 41.9056 3.34929
35.6498 43.8605 3.59924
38.6194 48.0854 3.92461
37.5165 45.7168 3.81636
40.3324 54.7212 0.00496783
38.698 53.4862 2
36.7702 52.8293 3.99741
35.3652 60.8723 0.0148985
36.9224 57.5124 0.00716856
37.9754 54.9825 0.00467171
34.4941 58.4484 2
36.3227 55.0686 2
33.302 55.2745 3.99427
32.3704 59.6568 0.00391128
29.4414 60.2478 0.0168031
30.3676 57.7452 2
28.9102 55.2534 3.99534
28.1059 58.3128 -0.0185407
27.1023 56.7463 2
25.5883 55.0143 3.95418
22.1278 55.1791 3.95966
25.4569 58.508 0.0219188
24.0245 56.6883 2
20.4084 56.894 3.96224
20.7336 58.6744 3.95996
21.5234 57.2666 2
21.2015 61.079 3.97034
22.0526 59.5273 2
22.8663 58.1347 0.0276955
21.9094 63.7912 3.97182
22.7645 61.9453 2
23.4462 60.25 0.0244601
24.4535 62.7211 0.0254139
23.6908 64.6854 2
22.8407 66.7251 3.97532
25.5547 65.4728 0.0258107
24.8101 67.5829 2
24.0131 69.8043 3.98793
26.8398 68.323 0.0195585
26.1658 70.6026 2
25.446 73.0099 4
28.3732 71.2625 0.010555
27.7943 73.7222 2
30.1842 74.2788 0
27.822 8.66576 3.97723
29.1565 5.88334 3.98301
29.8111 8.00112 2
30.7278 3.09905 3.99164
31.2536 5.33452 2
31.7885 7.4272 0.020969
32.6053 0.320823 4
32.981 2.70188 2
33.3488 4.92811 0.0129691
35.0474 0.0802903 2
35.2461 2.46371 0.00718476
37.5 0 0
38.9924 35.9399 3.46472
40.4762 35.9037 2
42.0584 35.776 0.631414
28.5465 10.706 2
26.6311 11.409 3.97533
29.235 12.6596 3.97971
37.5321 34.3597 3.51579
39.0676 34.4048 2
40.3754 34.436 0.512185
45.109 31.878 0.113471
42.8029 31.4635 0.189433
40.699 31.744 0.374542
39.1456 32.8036 0.577277
43.5983 30.1164 2
41.4811 30.1444 2
39.3971 31.0209 2
37.5336 32.6485 2
41.8546 28.8622 3.85565
39.6384 29.508 3.80309
37.5225 30.8299 3.64812
35.8981 32.8118 3.42825
31.9371 14.506 3.9832
34.1048 12.9653 2
35.6969 11.7947 0.0254997
31.195 11.9983 2
33.1026 11.2366 0.0272259
30.4874 10.0344 0.0244233
44.7058 27.9928 0.00474985
43.4297 24.3346 -0.0194741
35.7723 14.8157 0.0144735
41.2459 21.0343 0.00486647
38.6392 17.7443 0.012215
33.6132 15.9075 2
35.8381 17.5816 2
42.6428 26.7732 2
38.3515 20.5771 2
40.7419 23.6736 2
33.5636 17.4607 3.99095
40.2024 26.1669 3.96562
38.0166 23.4259 3.99706
35.5282 20.3346 3.99615
37.5278 37.4742 3.52254
39.0392 37.4708 2
40.4573 37.4158 0.464554
41.6807 52.6973 -0.000882453
40.6882 49.2465 0.00895792
39.0467 39.0258 0.547115
39.632 45.4225 0.217662
37.5073 44.1307 0.353686
37.5089 40.6145 0.484666
35.8856 42.1652 0.578936
39.6747 51.451 2
37.509 39.0238 2
35.9909 40.5715 2
38.6397 48.1496 2
34.5393 41.9262 2
35.6334 43.9364 2
37.505 45.7768 2
37.6793 50.4162 3.98983
36.0323 39.0403 3.46731
34.6868 40.5147 3.49017
33.6674 41.6292 3.41085
34.375 43.2174 3.61705
35.3337 45.4743 3.80796
36.9248 47.7037 3.88408
38.7003 53.4697 0.00320652
36.7759 52.7768 2
34.5053 52.1481 4.00186
34.4948 58.4363 0.00550846
36.3204 55.0778 0.00236583
33.3028 55.2833 2
30.7655 53.2193 3.99891
30.3662 57.7491 0.00811238
28.9107 55.2504 2
27.2498 53.2802 3.95535
27.1002 56.7476 0.031871
25.5909 55.0172 2
24.0097 53.2792 3.95362
21.0026 53.0002 3.95908
20.2317 55.6694 3.96104
22.1267 55.1802 2
24.0235 56.686 0.0397554
19.5695 57.7734 3.9613
20.4035 56.8973 2
19.7399 60.118 3.96919
20.7265 58.6785 2
21.5221 57.2649 0.0427041
20.2275 62.7867 3.97107
21.2036 61.0814 2
22.0526 59.5265 0.0242305
20.9432 65.7501 3.97255
21.9094 63.7949 2
22.7637 61.9433 0.026721
23.6911 64.6841 0.0281126
22.8391 66.7241 2
21.916 68.8714 3.98662
24.8125 67.5836 0.0219517
24.0097 69.8027 2
23.1494 72.1454 4
26.1687 70.6029 0.0113915
25.446 73.0099 2
27.7943 73.7221 0
25.8622 9.39655 3.97544
27.0713 6.54843 3.98126
27.8201 8.66279 2
28.4903 3.64504 3.99049
29.1552 5.88142 2
29.8117 8.00501 0.0231977
30.1841 0.720592 4
30.7258 3.09891 2
31.2542 5.33567 0.0143851
32.6053 0.320817 2
32.9822 2.70192 0.00779455
35.0474 0.080333 0
37.5203 35.9313 3.49575
38.9723 35.9157 2
40.4962 35.9076 0.469651
24.7908 12.088 3.97258
23.7809 14.4478 3.97973
28.549 10.7096 0.0234238
26.6267 11.4038 2
29.2363 12.657 2
27.3029 13.4055 3.9733
29.8066 14.2163 3.98982
35.9958 34.3919 3.46506
37.5453 34.3562 2
39.0429 34.3923 0.550305
37.5273 32.6769 0.517451
43.571 30.1459 0.129842
41.4413 30.189 0.180685
39.3833 31.0999 0.39787
41.8872 28.7865 2
39.6649 29.4418 2
37.5253 30.752 2
35.9137 32.7838 2
39.8172 28.1343 3.85612
37.4954 29.2326 3.80532
35.6708 31.1218 3.60215
34.5849 33.079 3.35279
30.9671 16.8619 3.9972
31.9309 14.4923 2
34.1023 12.9597 0.0234413
31.1936 12.0086 0.0233921
42.5693 26.8032 0.0256286
40.7573 23.6738 0.00570898
33.6268 15.9178 0.00911778
35.8373 17.6253 0.0151559
38.367 20.5436 0.00743599
33.5467 17.4755 2
35.5233 20.3614 2
40.246 26.1326 2
38.0221 23.4173 2
32.9473 19.9288 3.9973
37.7137 25.8092 3.96131
35.3282 23.0862 4.00824
36.003 37.4702 3.45654
37.5109 37.4735 2
39.0668 37.4805 0.547953
39.6918 51.457 0.000664248
38.6194 48.0854 0.0753876
37.5135 39.0232 0.49487
37.5165 45.7168 0.183638
35.6498 43.8605 0.400757
35.9996 40.5888 0.540965
34.5799 41.9056 0.650714
37.654 50.4557 2
36.069 39.0268 2
34.6324 40.5233 2
36.9274 47.7675 2
33.624 41.6571 2
34.3114 43.2943 2
35.3068 45.5331 2
35.5734 49.6241 3.98143
34.5802 39.0268 3.52545
33.2859 40.6139 3.38158
33.4173 42.2863 3.66734
33.6427 44.7541 3.80798
34.6089 46.8733 3.85872
36.7702 52.8293 0.00259369
34.4856 52.1765 2
32.3361 50.971 3.99923
33.302 55.2745 0.00572957
30.768 53.2127 2
28.8746 51.3545 3.98691
28.9102 55.2534 0.00466317
27.2517 53.2797 2
25.6173 51.5098 3.95351
25.5883 55.0143 0.0458158
24.0119 53.2833 2
22.5883 51.5564 3.95554
19.9043 51.3805 3.96376
19.3729 54.1117 3.96157
21.0074 52.9987 2
18.6814 56.5831 3.96207
20.2297 55.6717 2
22.1278 55.1791 0.040339
18.4284 59.022 3.95873
19.5687 57.7757 2
20.4084 56.894 0.0377572
18.6383 61.6924 3.97563
19.7412 60.1214 2
20.7336 58.6744 0.0400359
19.1357 64.6463 3.97208
20.2282 62.7902 2
21.2015 61.079 0.0296565
19.8902 67.8073 3.98369
20.9417 65.7492 2
21.9094 63.7912 0.0281786
22.8407 66.7251 0.0246763
21.9118 68.8692 2
20.9142 71.1327 4
24.0131 69.8043 0.0120708
23.1494 72.1455 2
25.446 73.0099 0
23.1127 12.8593 3.97744
23.9757 10.1825 3.97439
25.025 7.31998 3.97869
25.8591 9.39405 2
26.2823 4.32947 3.98935
27.069 6.54739 2
27.822 8.66576 0.0227689
27.7943 1.27781 4
28.4874 3.64545 2
29.1565 5.88334 0.0169895
30.1841 0.720551 2
30.7278 3.09905 0.00835733
32.6053 0.320823 0
35.9911 35.9234 3.45662
37.5538 35.9424 2
38.9924 35.9399 0.535276
24.783 12.116 2
23.7809 14.4522 2
22.5225 15.1366 3.97918
25.3775 13.9941 3.97392
24.0819 15.7033 3.99289
26.6311 11.409 0.0246708
29.235 12.6596 0.0202939
27.3112 13.3931 2
29.7999 14.2165 2
28.4076 15.9806 3.99192
34.7076 34.4723 3.48188
36.0081 34.3906 2
37.5321 34.3597 0.484214
35.8981 32.8118 0.571748
37.5225 30.8299 0.351885
41.8546 28.8622 0.144348
39.6384 29.508 0.196906
39.8663 28.0785 2
37.498 29.1794 2
35.6538 31.04 2
34.5401 33.0599 2
37.625 27.8608 3.85866
35.3951 29.5306 3.80227
34.3678 31.7666 3.62314
33.6756 33.3575 3.40927
30.289 19.548 3.97904
30.9453 16.8612 2
31.9371 14.506 0.0167983
40.2024 26.1669 0.0343757
38.0166 23.4259 0.00294411
33.5636 17.4607 0.0090502
35.5282 20.3346 0.0038498
32.9563 19.9515 2
35.294 23.0697 2
37.7126 25.7936 2
32.5528 22.6755 4.00176
35.1991 25.6925 3.98436
34.5579 37.5044 3.54686
35.9991 37.4885 2
37.5278 37.4742 0.477462
37.6793 50.4162 0.0101704
36.9248 47.7037 0.115922
36.0323 39.0403 0.532691
35.3337 45.4743 0.192037
34.375 43.2174 0.382952
34.6868 40.5147 0.509835
33.6674 41.6292 0.589154
35.5543 49.6345 2
34.5617 39.0316 2
33.2706 40.6241 2
34.5474 46.9441 2
33.3649 42.3694 2
33.5984 44.8026 2
33.5231 48.7523 3.9724
32.9667 39.1741 3.37432
32.5705 40.9868 3.61042
32.2558 43.5015 3.81632
32.8612 45.8776 3.85581
34.5053 52.1481 -0.00186079
32.3526 50.9657 2
30.457 49.4916 4.00537
30.7655 53.2193 0.00109203
28.8826 51.371 2
27.172 49.7235 3.97436
27.2498 53.2802 0.0446492
25.6195 51.5095 2
24.0669 49.9089 3.96759
24.0097 53.2792 0.0463787
22.5944 51.5532 2
21.2598 50.0336 3.96701
18.6515 50.0952 3.97259
18.4192 52.5719 3.96589
19.8963 51.3812 2
17.8142 55.1703 3.96266
19.3717 54.112 2
21.0026 53.0002 0.0409242
17.2879 57.7658 3.95956
18.6819 56.584 2
20.2317 55.6694 0.0389639
17.1551 60.4871 3.9607
18.428 59.0239 2
19.5695 57.7734 0.0386979
17.4193 63.4219 3.96769
18.6399 61.6945 2
19.7399 60.118 0.0308113
17.9459 66.6153 3.9812
19.1343 64.6452 2
20.2275 62.7867 0.02893
18.75 69.9759 4
19.8861 67.8031 2
20.9432 65.7501 0.0274488
21.916 68.8714 0.013385
20.9142 71.1327 2
23.1494 72.1454 0
21.6124 13.6933 3.9705
22.1984 11.0624 3.96989
23.1123 12.8568 2
23.042 8.1874 3.97567
23.9745 10.1912 2
24.1203 5.14417 3.98901
25.0214 7.31916 2
25.8622 9.39655 0.0245565
25.446 1.99014 4
26.2784 4.33056 2
27.0713 6.54843 0.0187407
27.7943 1.27778 2
28.4903 3.64504 0.00950548
30.1841 0.720592 0
34.6342 35.9673 3.51217
36.0123 35.936 2
37.5203 35.9313 0.504254
21.3649 15.9377 3.96281
24.7908 12.088 0.027417
23.7809 14.4478 0.0202688
25.3778 13.9683 2
22.5205 15.1252 2
24.0877 15.7108 2
23.342 16.3444 3.96382
25.4412 16.1793 3.98832
27.3029 13.4055 0.0266966
29.8066 14.2163 0.0101828
28.3996 16.0039 2
27.5255 18.9718 3.97868
33.2926 34.3796 3.39712
34.6408 34.4811 2
35.9958 34.3919 0.534939
34.5849 33.079 0.647212
35.6708 31.1218 0.397852
37.4954 29.2326 0.194681
39.8172 28.1343 0.143876
37.593 27.8248 2
33.6386 33.3329 2
35.3837 29.4632 2
34.3178 31.6876 2
35.275 27.953 3.87256
33.6246 30.216 3.81216
33.4157 32.6946 3.6662
29.8735 22.1627 4.00871
30.292 19.5465 2
30.9671 16.8619 0.00279844
37.7137 25.8092 0.0386902
35.3282 23.0862 -0.00823734
32.9473 19.9288 0.00270263
32.5409 22.6453 2
35.2152 25.6825 2
32.1747 25.973 4.00949
32.7877 37.4977 3.4269
34.5578 37.4961 2
36.003 37.4702 0.543457
35.5734 49.6241 0.0185668
34.6089 46.8733 0.141276
34.5802 39.0268 0.474551
33.6427 44.7541 0.192019
33.4173 42.2863 0.332658
33.2859 40.6139 0.618418
33.5217 48.7435 2
32.9678 39.1826 2
32.5136 41.0452 2
32.8498 45.9339 2
32.2101 43.5358 2
31.8266 47.5795 3.98807
31.9263 39.3745 3.60959
31.251 41.7578 3.82578
31.3673 44.5201 3.86256
32.3361 50.971 0.000774705
30.4617 49.5231 2
28.6902 47.9055 3.97506
28.8746 51.3545 0.0130867
27.1704 49.727 2
25.5227 48.1602 3.97229
25.6173 51.5098 0.0464894
24.0718 49.9053 2
22.5753 48.471 3.97152
22.5883 51.5564 0.0444551
21.2613 50.0317 2
19.7973 48.829 3.97499
17.5178 49.117 3.97615
17.339 51.2027 3.97154
18.653 50.0938 2
16.8368 53.6922 3.96673
18.4146 52.5723 2
19.9043 51.3805 0.0362421
16.2393 56.3466 3.9616
17.8129 55.1709 2
19.3729 54.1117 0.0384274
15.8042 59.1463 3.95774
17.2837 57.7681 2
18.6814 56.5831 0.0379332
15.7933 62.0941 3.97089
17.158 60.4885 2
18.4284 59.022 0.041268
16.0929 65.2942 3.97649
17.4182 63.4266 2
18.6383 61.6924 0.0243685
16.6661 68.6801 4
17.9424 66.6107 2
19.1357 64.6463 0.0279158
18.75 69.9759 2
19.8902 67.8073 0.0163119
20.9142 71.1327 0
20.2512 14.6886 3.97178
21.6126 13.6949 2
20.5441 12.0654 3.97283
21.1457 9.16126 3.97409
22.1944 11.0731 2
23.1127 12.8593 0.0225575
22.0197 6.08285 3.98753
23.0393 8.18998 2
23.9757 10.1825 0.025609
23.1494 2.85457 4
24.1152 5.14602 2
25.025 7.31998 0.0213056
25.446 1.99012 2
26.2823 4.32947 0.0106483
27.7943 1.27781 0
32.9514 35.8323 3.40378
34.5931 35.9673 2
35.9911 35.9234 0.543379
21.3692 15.9309 2
20.4025 17.069 3.96229
22.1779 16.7405 3.9589
25.3775 13.9941 0.026083
22.5225 15.1366 0.0208156
24.0819 15.7033 0.00711324
25.4443 16.1773 2
23.3503 16.3409 2
24.3081 18.6306 3.98129
27.317 21.7653 3.99299
28.4076 15.9806 0.00808182
27.5214 18.9923 2
32.5978 33.9929 3.60738
33.2771 34.3679 2
34.7076 34.4723 0.518122
33.6756 33.3575 0.590729
34.3678 31.7666 0.376861
35.3951 29.5306 0.197726
37.625 27.8608 0.141343
35.2666 27.9064 2
33.3548 32.6154 2
33.5818 30.1674 2
33.094 28.5883 3.88057
32.2524 31.4747 3.80934
29.3247 24.6336 4.01479
29.8482 22.1679 2
30.289 19.548 0.0209612
35.1991 25.6925 0.0156395
32.5528 22.6755 -0.00176306
32.165 25.9409 2
30.4017 27.6489 3.97903
31.5705 37.4839 3.61193
32.7832 37.498 2
34.5579 37.5044 0.453135
33.5231 48.7523 0.0276045
32.8612 45.8776 0.144192
32.9667 39.1741 0.625683
32.2558 43.5015 0.183676
32.5705 40.9868 0.389579
31.7691 47.6091 2
31.8332 39.3903 2
31.1872 41.8106 2
31.3094 44.5665 2
30.1402 46.1946 3.98529
30.4626 39.7469 3.83341
29.9381 42.8436 3.88075
30.457 49.4916 -0.0053676
28.6892 47.9121 2
26.9753 46.3257 3.97841
27.172 49.7235 0.0256433
25.5242 48.1568 2
23.8589 46.7329 3.97419
24.0669 49.9089 0.032412
22.575 48.4708 2
20.846 47.3307 3.97574
21.2598 50.0336 0.0329921
19.7959 48.8279 2
18.3896 47.9434 3.97651
16.7568 48.4819 3.9763
17.5169 49.1168 2
16.39 49.9824 3.97493
15.8289 52.2481 3.97149
17.3405 51.2017 2
18.6515 50.0952 0.0274134
15.1935 54.8417 3.96449
16.8368 53.6919 2
18.4192 52.5719 0.034111
14.5813 57.6651 3.958
16.2386 56.3473 2
17.8142 55.1703 0.0373416
14.2765 60.6597 3.96393
15.8042 59.1478 2
17.2879 57.7658 0.0404395
14.3378 63.8537 3.97518
15.7953 62.0961 2
17.1551 60.4871 0.0393047
14.6715 67.2507 4
16.0897 65.2895 2
17.4193 63.4219 0.032306
16.6661 68.6801 2
17.9459 66.6153 0.0188037
18.75 69.9759 0
18.9865 15.8729 3.96229
20.2543 14.6818 2
18.9989 13.1869 3.96984
21.6124 13.6933 0.0295002
20.5406 12.0659 2
19.3483 10.2585 3.97198
19.9946 7.14824 3.98515
21.1424 9.16223 2
22.1984 11.0624 0.0301079
20.9142 3.86727 4
22.014 6.08635 2
23.042 8.1874 0.0243278
23.1494 2.85451 2
24.1203 5.14417 0.0109885
25.446 1.99014 0
31.9488 35.6064 3.60061
32.9475 35.8239 2
34.6342 35.9673 0.487828
21.3649 15.9377 0.0371906
22.1846 16.7337 2
20.4106 17.0682 2
19.4612 18.5583 3.95874
21.8872 18.0115 3.98289
25.4412 16.1793 0.011685
23.342 16.3444 0.0361771
24.3011 18.6527 2
22.558 20.092 3.97312
24.9045 21.6112 3.989
26.956 23.9254 3.98347
27.3131 21.6759 2
27.5255 18.9718 0.0213204
31.2921 33.2277 3.82539
32.5418 33.9391 2
33.2926 34.3796 0.602881
33.4157 32.6946 0.333804
33.6246 30.216 0.187836
35.275 27.953 0.127438
33.0542 28.55 2
32.1963 31.423 2
31.0488 29.9578 3.90185
28.6818 26.8203 4.00442
29.3131 24.6414 2
29.8735 22.1627 -0.0087119
32.1747 25.973 -0.00949471
30.3913 27.6253 2
30.0611 37.4735 3.83249
31.4833 37.4819 2
32.7877 37.4977 0.573105
31.8266 47.5795 0.0119343
31.3673 44.5201 0.137436
31.9263 39.3745 0.39041
31.251 41.7578 0.174221
30.1441 46.2014 2
30.3651 39.7553 2
29.9069 42.8721 2
28.4759 44.5278 3.96537
28.2091 40.4394 3.92369
28.6902 47.9055 0.0249381
26.9752 46.3259 2
25.1931 44.8449 3.9797
25.5227 48.1602 0.027711
23.8565 46.7317 2
21.9066 45.6351 3.97734
22.5753 48.471 0.0284771
20.8457 47.3295 2
19.154 46.5044 3.97587
19.7973 48.829 0.0250071
18.3896 47.9429 2
17.0156 47.5115 3.97561
16.7579 48.4819 2
15.7494 48.8343 3.97554
17.5178 49.117 0.023853
16.3914 49.9815 2
14.9349 50.8306 3.97441
14.1531 53.3098 3.96869
15.8303 52.2474 2
17.339 51.2027 0.0284647
13.4415 56.0856 3.96092
15.1931 54.8418 2
16.8368 53.6922 0.0332671
12.8696 59.1011 3.95871
14.5803 57.6661 2
16.2393 56.3466 0.0383957
12.6836 62.2946 3.97027
14.2792 60.6608 2
15.8042 59.1463 0.0422557
12.7746 65.6939 4
14.3349 63.8481 2
15.7933 62.0941 0.0291087
14.6714 67.2507 2
16.0929 65.2942 0.0235056
16.6661 68.6801 0
17.8111 17.2714 3.96036
18.9875 15.8677 2
17.5375 14.444 3.9694
20.2512 14.6886 0.0282227
18.9985 13.1857 2
17.6496 11.4985 3.97231
20.5441 12.0654 0.0271739
19.3447 10.265 2
18.0544 8.34158 3.9828
18.75 5.0241 4
19.9885 7.15327 2
21.1457 9.16126 0.0259068
20.9142 3.86727 2
22.0197 6.08285 0.0124665
23.1494 2.85457 0
30.4746 35.2509 3.82909
31.8564 35.5843 2
32.9514 35.8323 0.596221
22.1779 16.7405 0.0411031
20.4025 17.069 0.0377132
21.892 18.0096 2
19.4533 18.5525 2
18.3468 20.1238 3.96317
21.1301 19.5665 3.97191
24.3081 18.6306 0.0187131
22.5526 20.0922 2
24.9182 21.5869 2
22.7897 21.9538 3.97854
25.2608 23.2978 3.98108
26.3001 26.2007 3.98015
26.9598 23.9182 2
27.317 21.7653 0.00700536
29.7002 32.5898 3.88061
31.2111 33.1845 2
32.5978 33.9929 0.392617
32.2524 31.4747 0.190656
33.094 28.5883 0.119433
31.0274 29.9403 2
28.1011 29.4255 4.01068
28.6647 26.8303 2
29.3247 24.6336 -0.0147926
30.4017 27.6489 0.0209653
28.4028 37.3913 3.87049
29.9769 37.4829 2
31.5705 37.4839 0.388073
30.1402 46.1946 0.0147099
29.9381 42.8436 0.119246
30.4626 39.7469 0.166587
28.4752 44.5833 2
28.1701 40.4452 2
26.6018 42.9754 3.97984
25.5116 39.4245 3.97686
26.9753 46.3257 0.0215886
25.1827 44.8478 2
23.1273 43.6692 3.97507
23.8589 46.7329 0.0258098
21.9036 45.6359 2
19.965 44.7451 3.97526
20.846 47.3307 0.02426
19.1534 46.5052 2
17.3908 46.0154 3.97559
18.3896 47.9434 0.0234899
17.016 47.5115 2
15.5275 47.4991 3.97528
16.7568 48.4819 0.0236969
15.7511 48.8337 2
14.2512 49.3987 3.97515
16.39 49.9824 0.0250706
14.936 50.8299 2
13.2207 51.7603 3.97177
12.3365 54.451 3.96339
14.1539 53.3093 2
15.8289 52.2481 0.028506
11.5875 57.4322 3.95973
13.4405 56.0859 2
15.1935 54.8417 0.0355124
11.1398 60.6208 3.96787
12.873 59.1006 2
14.5813 57.6651 0.0419955
10.9835 64.0165 4
12.6818 62.2887 2
14.2765 60.6597 0.0360702
12.7745 65.694 2
14.3378 63.8537 0.0248243
14.6715 67.2507 0
16.6425 18.7843 3.96107
17.8059 17.2657 2
16.1543 15.8499 3.9573
18.9865 15.8729 0.037712
17.5382 14.4392 2
16.0312 12.8571 3.96631
18.9989 13.1869 0.0301621
17.6452 11.5037 2
16.2058 9.66687 3.9782
19.3483 10.2585 0.028016
18.0492 8.34838 2
16.6661 6.31991 4
18.75 5.02404 2
19.9946 7.14824 0.0148526
20.9142 3.86727 0
28.8752 34.8837 3.88849
30.3664 35.2109 2
31.9488 35.6064 0.399393
17.0941 21.558 3.96954
21.8872 18.0115 0.0171147
19.4612 18.5583 0.0412592
21.1188 19.561 2
18.3437 20.1205 2
20.2148 21.8025 3.97339
22.558 20.092 0.0268787
24.9045 21.6112 0.0109995
22.7923 21.9526 2
25.242 23.3526 2
23.6098 24.859 3.97159
25.6668 28.7931 3.98441
26.2894 26.2078 2
26.956 23.9254 0.0165286
27.5651 31.9464 3.9797
29.6566 32.5666 2
31.2921 33.2277 0.174614
31.0488 29.9578 0.0981527
28.115 29.3912 2
28.6818 26.8203 -0.0044157
26.2194 36.8722 3.96709
28.3738 37.3907 2
30.0611 37.4735 0.167515
28.4759 44.5278 0.0346304
28.2091 40.4394 0.0763132
26.5783 43.0024 2
25.4763 39.4247 2
24.3655 41.6772 3.97822
23.2097 38.5147 3.9761
25.1931 44.8449 0.0203039
23.1256 43.6716 2
20.8609 42.7072 3.97489
21.9066 45.6351 0.0226582
19.9661 44.7457 2
17.8125 44.2051 3.97514
19.154 46.5044 0.0241275
17.3909 46.0159 2
15.4975 45.9335 3.9753
17.0156 47.5115 0.0243943
15.5281 47.4991 2
13.7851 47.87 3.97524
15.7494 48.8343 0.024462
14.2526 49.3979 2
12.4564 50.1467 3.97398
14.9349 50.8306 0.0255852
13.2217 51.7596 2
11.3284 52.7688 3.96567
10.3945 55.6861 3.96127
12.3365 54.4507 2
14.1531 53.3098 0.0313058
9.70564 58.8456 3.97062
11.5923 57.4308 2
13.4415 56.0856 0.0390826
9.30605 62.2254 4
11.1384 60.6151 2
12.8696 59.1011 0.0412928
10.9835 64.0165 2
12.6836 62.2946 0.029729
12.7746 65.6939 0
15.4523 20.3245 3.96475
16.6514 18.7834 2
14.8651 17.3836 3.95846
17.8111 17.2714 0.0396354
16.1538 15.8457 2
14.492 14.3309 3.96778
17.5375 14.444 0.0305983
16.0319 12.8515 2
14.4494 11.1203 3.97573
17.6496 11.4985 0.0276949
16.2014 9.67474 2
14.6715 7.74927 4
18.0544 8.34158 0.0171963
16.6661 6.31988 2
18.75 5.0241 0
26.831 34.4046 3.97225
28.8526 34.8914 2
30.4746 35.2509 0.170912
18.3817 22.5396 3.97492
15.9988 23.0985 3.9726
17.0943 21.5562 2
21.1301 19.5665 0.0280935
18.3468 20.1238 0.0368317
20.2108 21.7999 2
20.3671 24.652 3.97203
22.7897 21.9538 0.0214565
25.2608 23.2978 0.0189173
23.6022 24.8552 2
23.0313 28.1476 3.97118
25.1319 31.4717 3.98308
25.6742 28.7632 2
26.3001 26.2007 0.0198493
27.5325 31.9113 2
29.7002 32.5898 0.119391
28.1011 29.4255 -0.0106792
23.9593 36.3329 3.97816
26.191 36.863 2
28.4028 37.3913 0.129506
26.6018 42.9754 0.0201638
25.5116 39.4245 0.0231428
24.3398 41.6786 2
23.2071 38.5128 2
22.0078 40.5439 3.97526
21.3177 37.7908 3.97793
23.1273 43.6692 0.024932
20.8624 42.7064 2
18.2949 41.9743 3.97573
19.965 44.7451 0.0247423
17.8129 44.2054 2
15.5469 44.065 3.97535
17.3908 46.0154 0.0244094
15.4972 45.9337 2
13.4845 46.1737 3.97516
15.5275 47.4991 0.0247193
13.786 47.8696 2
11.8467 48.4505 3.97539
14.2512 49.3987 0.0248498
12.458 50.1457 2
10.4614 51.0183 3.96783
13.2207 51.7603 0.0282323
11.3292 52.768 2
9.30125 53.8686 3.96232
8.38971 56.9806 3.97181
10.3962 55.6847 2
12.3365 54.451 0.036615
7.74927 60.3285 4
9.70451 58.8407 2
11.5875 57.4322 0.0402663
9.306 62.2255 2
11.1398 60.6208 0.0321327
10.9835 64.0165 0
14.2873 21.8828 3.96886
15.4522 20.3221 2
13.6096 18.9831 3.96125
16.6425 18.7843 0.0389279
14.8646 17.3808 2
13.0426 15.9152 3.96389
16.1543 15.8499 0.0427029
14.4978 14.3283 2
12.7871 12.6936 3.97308
16.0312 12.8571 0.0336919
14.4457 11.1279 2
12.7746 9.30605 4
16.2058 9.66687 0.021799
14.6715 7.74924 2
16.6661 6.31991 0
24.504 33.9126 3.98118
26.8077 34.399 2
28.8752 34.8837 0.111512
18.2639 24.2774 3.97299
18.3887 22.5397 2
14.8172 24.6182 3.97416
15.9986 23.0967 2
17.0941 21.558 0.0304623
19.931 27.4741 3.97332
20.2148 21.8025 0.0266074
20.3668 24.65 2
22.4194 30.9131 3.97391
23.6098 24.859 0.0284137
23.0294 28.1498 2
25.0878 31.4898 2
25.6668 28.7931 0.0155913
27.5651 31.9464 0.0203035
21.4205 35.9745 3.97727
23.9506 36.3308 2
26.2194 36.8722 0.0329142
24.3655 41.6772 0.0217831
23.2097 38.5147 0.0239004
22.0119 40.5434 2
21.3218 37.7925 2
19.0679 38.967 3.97715
20.8609 42.7072 0.0251062
18.2948 41.9744 2
15.5282 41.8323 3.97592
17.8125 44.2051 0.0248571
15.5461 44.0653 2
13.246 44.2929 3.97548
15.4975 45.9335 0.0246972
13.4848 46.1737 2
11.3603 46.6435 3.97541
13.7851 47.87 0.0247629
11.8487 48.4495 2
9.7337 49.1837 3.97011
12.4564 50.1467 0.0260222
10.4627 51.0172 2
8.32804 51.9855 3.96319
11.3284 52.7688 0.034335
9.30058 53.8673 2
7.19854 55.033 3.97275
6.31991 58.3339 4
8.38847 56.9761 2
10.3945 55.6861 0.0387293
7.74924 60.3285 2
9.70564 58.8456 0.0293811
9.30605 62.2254 0
13.6682 25.5033 3.97604
13.1831 23.4033 3.97283
14.2876 21.8811 2
12.431 20.6299 3.96387
15.4523 20.3245 0.0352462
13.6076 18.9803 2
11.6871 17.5889 3.96024
14.8651 17.3836 0.0415378
13.0501 15.9127 2
11.2255 14.3812 3.96626
14.492 14.3309 0.0322154
12.7856 12.7021 2
10.9835 10.9835 4
14.4494 11.1203 0.0242671
12.7745 9.306 2
14.6715 7.74927 0
21.7853 33.5513 3.97643
24.5061 33.8933 2
26.831 34.4046 0.0277526
16.5802 26.6047 3.97419
18.2676 24.2771 2
18.3817 22.5396 0.0250829
14.8149 24.6176 2
15.9988 23.0985 0.0274004
19.3334 30.3852 3.9746
19.934 27.4747 2
20.3671 24.652 0.0279655
22.441 30.9115 2
23.0313 28.1476 0.0288245
25.1319 31.4717 0.0169175
18.6495 36.0135 3.97787
21.4215 35.9758 2
23.9593 36.3329 0.0218408
22.0078 40.5439 0.0247375
21.3177 37.7908 0.0220732
19.0685 38.9657 2
15.0118 39.1477 3.97694
18.2949 41.9743 0.0242708
15.5275 41.8319 2
12.9344 42.2111 3.97603
15.5469 44.065 0.0246474
13.2457 44.2928 2
10.9441 44.7298 3.97565
13.4845 46.1737 0.0248356
11.3627 46.6428 2
9.11164 47.2714 3.97251
11.8467 48.4505 0.0246087
9.73571 49.1826 2
7.48627 50.0223 3.96387
10.4614 51.0183 0.03217
8.32626 51.9843 2
6.13898 53.0088 3.97281
9.30125 53.8686 0.0376773
7.19785 55.029 2
5.0241 56.25 4
6.31988 58.3339 2
8.38971 56.9806 0.0281937
7.74927 60.3285 0
13.9642 26.9565 3.97494
12.2898 24.8968 3.97513
13.6669 25.5025 2
11.3545 22.3088 3.96679
13.1852 23.4025 2
14.2873 21.8828 0.031144
12.429 20.6279 2
10.4588 19.346 3.96148
13.6096 18.9831 0.0387462
11.7019 17.5902 2
9.76621 16.1629 3.9701
13.0426 15.9152 0.0361096
11.2257 14.3868 2
9.30607 12.7746 4
12.7871 12.6936 0.026917
10.9835 10.9835 2
12.7746 9.30605 0
18.82 33.2203 3.97571
21.7818 33.5539 2
24.504 33.9126 0.0188239
16.2103 29.7994 3.97516
16.5803 26.6045 2
18.2639 24.2774 0.0270082
14.8172 24.6182 0.0258445
19.3285 30.3854 2
19.931 27.4741 0.0266763
22.4194 30.9131 0.0260913
15.6555 36.0478 3.97734
18.6493 36.0145 2
21.4205 35.9745 0.0227296
13.1645 37.8274 3.97707
19.0679 38.967 0.0228522
15.0116 39.1476 2
12.4239 40.1062 3.97653
15.5282 41.8323 0.0240779
12.9336 42.2107 2
10.5387 42.728 3.97615
13.246 44.2929 0.0245154
10.9461 44.7293 2
8.57483 45.2834 3.97455
11.3603 46.6435 0.024585
9.11375 47.2703 2
6.76401 47.991 3.96462
9.7337 49.1837 0.0298871
7.48379 50.0213 2
5.21522 50.9121 3.97275
8.32804 51.9855 0.0368148
6.13877 53.0057 2
3.86727 54.0858 4
7.19854 55.033 0.0272462
5.02404 56.25 2
6.31991 58.3339 0
13.4408 29.1464 3.97451
11.7358 26.5869 3.97498
13.9636 26.9564 2
10.4035 24.0308 3.96965
12.2925 24.8964 2
13.6682 25.5033 0.0239561
9.31907 21.1614 3.96286
11.3547 22.3081 2
13.1831 23.4033 0.0271746
12.431 20.6299 0.0361263
10.4677 19.3471 2
8.42207 18.0313 3.97179
11.6871 17.5889 0.0397638
9.76517 16.1671 2
7.74928 14.6715 4
11.2255 14.3812 0.0337445
9.30602 12.7745 2
10.9835 10.9835 0
15.1852 32.9432 3.97623
18.8204 33.2207 2
21.7853 33.5513 0.0235677
16.2091 29.7986 2
16.5802 26.6047 0.0258051
19.3334 30.3852 0.0254031
13.4739 36.2266 3.97669
15.6554 36.0479 2
18.6495 36.0135 0.0221312
13.1635 37.8274 2
11.7375 38.3019 3.97671
15.0118 39.1477 0.0230641
12.4232 40.1062 2
10.1078 40.7262 3.97655
12.9344 42.2111 0.0239735
10.5407 42.7276 2
8.11356 43.2431 3.97525
10.9441 44.7298 0.0243453
8.5777 45.2823 2
6.16061 45.8988 3.96481
9.11164 47.2714 0.0274871
6.76141 47.9902 2
4.4262 48.7522 3.97249
7.48627 50.0223 0.0361297
5.21538 50.9099 2
2.85457 51.8506 4
6.13898 53.0088 0.0271946
3.86727 54.0858 2
5.0241 56.25 0
12.5634 31.3306 3.97573
11.1426 28.4977 3.97493
13.4399 29.1458 2
9.6134 25.8518 3.97193
11.7375 26.5869 2
13.9642 26.9565 0.025055
8.29274 23.0401 3.96406
10.4058 24.031 2
12.2898 24.8968 0.0248713
7.20439 19.9788 3.97292
9.32428 21.1628 2
11.3545 22.3088 0.0332089
10.4588 19.346 0.0385162
8.42138 18.0356 2
6.31992 16.6661 4
9.76621 16.1629 0.0299039
7.74926 14.6714 2
9.30607 12.7746 0
12.5994 34.3377 3.97664
15.185 32.9442 2
18.82 33.2203 0.0242898
16.2103 29.7994 0.0248352
11.2646 36.6234 3.97658
13.4732 36.2267 2
15.6555 36.0478 0.0226561
13.1645 37.8274 0.0229327
11.737 38.3016 2
9.68051 38.8137 3.97679
12.4239 40.1062 0.0234651
10.1094 40.7257 2
7.71453 41.1954 3.97539
10.5387 42.728 0.0238481
8.11582 43.2422 2
5.66494 43.7637 3.96494
8.57483 45.2834 0.0254474
6.15698 45.8983 2
3.7714 46.5372 3.97255
6.76401 47.991 0.0353767
4.42676 48.7507 2
1.99014 49.554 4
5.21522 50.9121 0.0272534
2.85451 51.8506 2
3.86727 54.0858 0
11.3489 32.9711 3.9764
10.4406 30.4419 3.97553
12.5626 31.3313 2
8.90685 27.7749 3.97351
11.144 28.4978 2
13.4408 29.1464 0.0254924
7.40329 24.9941 3.96462
9.61606 25.8523 2
11.7358 26.5869 0.0250156
6.12107 22.0008 3.97346
8.2935 23.0411 2
10.4035 24.0308 0.0303483
5.02411 18.75 4
7.20391 19.9824 2
9.31907 21.1614 0.0371422
8.42207 18.0313 0.0282103
6.3199 16.6661 2
7.74928 14.6715 0
10.8413 35.025 3.97632
12.5981 34.3378 2
15.1852 32.9432 0.0237726
9.33011 36.99 3.97664
11.2641 36.6235 2
13.4739 36.2266 0.0233075
11.7375 38.3019 0.0232923
9.68209 38.8134 2
7.38154 39.1759 3.9752
10.1078 40.7262 0.023448
7.71782 41.1946 2
5.27462 41.6112 3.96538
8.11356 43.2431 0.0247473
5.66248 43.7633 2
3.24876 44.2817 3.97348
6.16061 45.8988 0.0351917
3.77222 46.5361 2
1.27781 47.2057 4
4.4262 48.7522 0.0275115
1.99012 49.554 2
2.85457 51.8506 0
10.4652 33.9149 3.97603
9.7036 32.1961 3.97608
11.349 32.9717 2
8.23474 29.7274 3.97404
10.4425 30.443 2
12.5634 31.3306 0.0242658
6.63306 27.0165 3.96474
8.91013 27.7756 2
11.1426 28.4977 0.0250701
5.1759 24.0934 3.97321
7.40131 24.9948 2
9.6134 25.8518 0.0280712
3.86728 20.9142 4
6.12101 22.0034 2
8.29274 23.0401 0.0359441
5.02406 18.75 2
7.20439 19.9788 0.0270831
6.31992 16.6661 0
9.1389 35.2966 3.97644
10.8412 35.025 2
12.5994 34.3377 0.0233622
7.15288 37.2076 3.97472
9.3322 36.9899 2
11.2646 36.6234 0.0234217
9.68051 38.8137 0.0232075
7.38429 39.1755 2
4.99763 39.4662 3.9659
7.71453 41.1954 0.0246125
5.27294 41.6109 2
2.85898 42.0018 3.97399
5.66494 43.7637 0.0350614
3.24939 44.281 2
0.720592 44.8159 4
3.7714 46.5372 0.0274476
1.27778 47.2057 2
1.99014 49.554 0
9.17562 33.7253 3.97644
10.466 33.9152 2
7.66043 31.6319 3.97421
9.70618 32.1969 2
11.3489 32.9711 0.023598
5.96848 29.0754 3.96476
8.23751 29.7282 2
10.4406 30.4419 0.0244726
4.36295 26.2465 3.97291
6.62947 27.0169 2
8.90685 27.7749 0.0264949
2.85458 23.1494 4
5.17622 24.0951 2
7.40329 24.9941 0.0353765
3.86728 20.9142 2
6.12107 22.0008 0.0265383
5.02411 18.75 0
7.09956 35.3144 3.97445
9.14164 35.2966 2
10.8413 35.025 0.0236815
4.84511 37.3402 3.96624
7.15601 37.2075 2
9.33011 36.99 0.0233579
7.38154 39.1759 0.024795
4.99652 39.4662 2
2.60685 39.7135 3.9744
5.27462 41.6112 0.0346198
2.85991 42.0017 2
0.320823 42.3947 4
3.24876 44.2817 0.0265212
0.720551 44.8159 2
1.27781 47.2057 0
7.2634 33.4759 3.97429
9.17845 33.7256 2
10.4652 33.9149 0.0239746
5.4293 31.1376 3.96533
7.66202 31.6323 2
9.7036 32.1961 0.0239247
3.6841 28.4433 3.97314
5.96409 29.0757 2
8.23474 29.7274 0.0259587
1.99015 25.446 4
4.36355 26.2477 2
6.63306 27.0165 0.035257
2.85453 23.1494 2
5.1759 24.0934 0.0267875
3.86728 20.9142 0
4.85899 35.2532 3.9663
7.10155 35.3146 2
9.1389 35.2966 0.0235586
2.49831 37.4283 3.97535
4.84523 37.3405 2
7.15288 37.2076 0.0252802
4.99763 39.4662 0.0341049
2.60791 39.714 2
0.080333 39.9526 4
2.85898 42.0018 0.0260116
0.320817 42.3947 2
0.720592 44.8159 0
5.05266 33.193 3.96591
7.26514 33.4762 2
9.17562 33.7253 0.0235611
3.14804 30.6665 3.97383
5.4257 31.1378 2
7.66043 31.6319 0.0257913
1.27793 27.7943 4
3.68498 28.4441 2
5.96848 29.0754 0.035241
1.99013 25.446 2
4.36295 26.2465 0.0270856
2.85458 23.1494 0
2.5503 35.1592 3.97526
4.85987 35.2536 2
7.09956 35.3144 0.0255545
0 37.5 4
2.4987 37.429 2
4.84511 37.3402 0.033761
2.60685 39.7135 0.0255974
0.0802903 39.9526 2
0.320823 42.3947 0
2.76801 32.9062 3.97502
5.05288 33.1932 2
7.2634 33.4759 0.0257135
0.721173 30.1842 4
3.14907 30.6671 2
5.4293 31.1376 0.0346682
1.27779 27.7943 2
3.6841 28.4433 0.0268633
1.99015 25.446 0
0.0806499 35.0474 4
2.55119 35.1596 2
4.85899 35.2532 0.0336993
0 37.5 2
2.49831 37.4283 0.0246455
0.080333 39.9526 0
0.32156 32.6054 4
2.76854 32.9066 2
5.05266 33.193 0.0340872
0.72056 30.1841 2
3.14804 30.6665 0.026169
1.27793 27.7943 0
0.0802889 35.0474 2
2.5503 35.1592 0.0247413
0 37.5 0
0.320817 32.6053 2
2.76801 32.9062 0.0249823
0.721173 30.1842 0
0.0806499 35.0474 0
0.32156 32.6054 0
CELLS 1910 17190
8 18 6 25 56 2 0 5 16
8 57 23 6 18 17 4 0 2
8 78 36 9 29 31 11 1 7
8 31 11 1 7 79 37 10 30
8 110 57 18 50 48 17 2 14
8 50 18 56 111 14 2 16 49
8 116 62 22 55 52 20 3 15
8 56 25 67 118 16 5 24 53
8 119 63 23 57 54 21 4 17
8 55 22 63 119 15 3 21 54
8 58 26 68 121 18 6 25 56
8 122 65 26 58 57 23 6 18
8 73 31 7 27 142 79 30 71
8 143 78 29 72 73 31 7 27
8 83 147 76 34 32 74 28 8
8 84 148 78 36 33 75 29 9
8 76 34 8 28 148 84 33 75
8 37 79 150 86 10 30 77 35
8 151 87 36 78 80 38 11 31
8 80 38 11 31 152 88 37 79
8 175 100 42 94 96 44 12 40
8 44 96 176 101 12 40 95 43
8 101 176 98 46 43 95 41 13
8 46 98 178 103 13 41 97 45
8 178 103 45 97 147 83 32 74
8 189 116 55 109 106 52 15 47
8 111 56 118 191 49 16 53 107
8 192 119 57 110 108 54 17 48
8 109 55 119 192 47 15 54 108
8 194 122 58 112 110 57 18 50
8 112 58 121 195 50 18 56 111
8 115 61 19 51 197 124 59 113
8 115 61 125 198 51 19 60 114
8 198 125 62 116 114 60 20 52
8 200 127 64 120 116 62 22 55
8 118 67 132 202 53 24 66 117
8 121 68 133 203 56 25 67 118
8 120 64 128 204 55 22 63 119
8 204 128 65 122 119 63 23 57
8 206 134 68 121 123 69 26 58
8 123 69 26 58 207 131 65 122
8 226 147 74 138 140 76 28 70
8 229 148 75 139 143 78 29 72
8 140 76 28 70 229 148 75 139
8 142 79 30 71 231 150 77 141
8 144 80 31 73 232 152 79 142
8 233 151 78 143 144 80 31 73
8 150 86 35 77 235 154 81 145
8 235 154 81 145 146 82 39 91
8 146 82 39 91 236 155 90 165
8 238 157 83 147 149 85 34 76
8 239 158 84 148 151 87 36 78
8 149 85 34 76 239 158 84 148
8 152 88 37 79 241 160 86 150
8 242 161 87 151 153 89 38 80
8 153 89 38 80 243 162 88 152
8 171 98 41 92 265 178 97 169
8 265 178 97 169 226 147 74 138
8 172 96 40 93 266 176 95 170
8 266 176 95 170 171 98 41 92
8 269 175 94 173 172 96 40 93
8 271 180 99 174 175 100 42 94
8 197 124 59 113 271 180 99 174
8 272 181 100 175 177 102 44 96
8 273 182 101 176 179 104 46 98
8 177 102 44 96 273 182 101 176
8 179 104 46 98 275 184 103 178
8 275 184 103 178 238 157 83 147
8 188 115 51 105 283 197 113 186
8 188 115 198 284 105 51 114 187
8 284 198 116 189 187 114 52 106
8 286 200 120 193 189 116 55 109
8 191 118 202 288 107 53 117 190
8 195 121 203 289 111 56 118 191
8 193 120 204 290 109 55 119 192
8 290 204 122 194 192 119 57 110
8 196 123 58 112 292 207 122 194
8 293 206 121 195 196 123 58 112
8 199 126 61 115 297 211 124 197
8 298 212 127 200 198 125 62 116
8 199 126 212 298 115 61 125 198
8 205 129 64 120 300 214 127 200
8 301 217 130 201 202 132 66 117
8 209 136 168 264 301 217 130 201
8 302 219 132 202 203 133 67 118
8 303 220 133 203 206 134 68 121
8 205 129 215 304 120 64 128 204
8 304 215 131 207 204 128 65 122
8 306 221 134 206 208 135 69 123
8 208 135 69 123 307 218 131 207
8 210 137 167 263 309 223 136 209
8 328 238 147 226 230 149 76 140
8 228 146 91 166 329 236 165 260
8 231 150 77 141 330 235 145 227
8 330 235 145 227 228 146 91 166
8 332 239 148 229 233 151 78 143
8 230 149 76 140 332 239 148 229
8 232 152 79 142 334 241 150 231
8 234 153 80 144 335 243 152 232
8 336 242 151 233 234 153 80 144
8 236 155 90 165 338 245 164 259
8 241 160 86 150 339 246 154 235
8 339 246 154 235 237 156 82 146
8 237 156 82 146 340 247 155 236
8 342 249 157 238 240 159 85 149
8 343 250 158 239 242 161 87 151
8 240 159 85 149 343 250 158 239
8 243 162 88 152 345 252 160 241
8 244 163 253 346 153 89 161 242
8 244 163 89 153 347 254 162 243
8 311 224 261 371 210 137 167 263
8 263 167 262 372 209 136 168 264
8 267 179 98 171 375 275 178 265
8 375 275 178 265 328 238 147 226
8 376 273 176 266 267 179 98 171
8 268 177 96 172 376 273 176 266
8 379 272 175 269 268 177 96 172
8 380 271 174 270 269 175 94 173
8 283 197 113 186 380 271 174 270
8 381 277 180 271 272 181 100 175
8 297 211 124 197 381 277 180 271
8 382 278 181 272 274 183 102 177
8 274 183 102 177 383 279 182 273
8 383 279 182 273 276 185 104 179
8 385 281 184 275 342 249 157 238
8 276 185 104 179 385 281 184 275
8 285 199 115 188 393 297 197 283
8 394 298 200 286 284 198 116 189
8 285 199 298 394 188 115 198 284
8 291 205 120 193 396 300 200 286
8 397 301 201 287 288 202 117 190
8 295 209 264 374 397 301 201 287
8 398 302 202 288 289 203 118 191
8 399 303 203 289 293 206 121 195
8 291 205 304 400 193 120 204 290
8 400 304 207 292 290 204 122 194
8 294 208 123 196 402 307 207 292
8 403 306 206 293 294 208 123 196
8 296 210 263 373 405 309 209 295
8 408 312 213 299 297 211 126 199
8 299 213 313 409 199 126 212 298
8 409 313 214 300 298 212 127 200
8 305 216 129 205 411 315 214 300
8 412 318 217 301 302 219 132 202
8 309 223 136 209 412 318 217 301
8 413 320 219 302 303 220 133 203
8 306 221 321 414 206 134 220 303
8 307 218 131 207 415 316 215 304
8 305 216 316 415 205 129 215 304
8 417 322 221 306 308 222 135 208
8 308 222 135 208 418 319 218 307
8 310 225 137 210 420 325 223 309
8 423 326 224 311 310 225 137 210
8 329 236 165 260 441 338 259 368
8 442 342 238 328 333 240 149 230
8 331 237 146 228 443 340 236 329
8 334 241 150 231 444 339 235 330
8 444 339 235 330 331 237 146 228
8 446 343 239 332 336 242 151 233
8 333 240 149 230 446 343 239 332
8 335 243 152 232 448 345 241 334
8 337 244 153 234 449 347 243 335
8 337 244 346 450 234 153 242 336
8 338 245 164 259 452 349 258 367
8 340 247 155 236 453 350 245 338
8 345 252 160 241 454 351 246 339
8 454 351 246 339 341 248 156 237
8 341 248 156 237 455 352 247 340
8 240 159 251 344 342 249 354 457
8 242 161 253 346 343 250 355 458
8 343 250 355 458 240 159 251 344
8 347 254 162 243 460 357 252 345
8 348 255 358 461 244 163 253 346
8 348 255 163 244 462 359 254 347
8 473 360 257 365 363 256 364 482
8 452 349 258 367 365 257 366 485
8 422 324 369 488 311 224 261 371
8 371 261 370 490 263 167 262 372
8 407 311 371 491 296 210 263 373
8 373 263 372 492 295 209 264 374
8 493 385 275 375 442 342 238 328
8 377 276 179 267 493 385 275 375
8 378 274 177 268 494 383 273 376
8 494 383 273 376 377 276 179 267
8 497 382 272 379 378 274 177 268
8 498 381 271 380 379 272 175 269
8 393 297 197 283 498 381 271 380
8 499 387 277 381 382 278 181 272
8 408 312 211 297 499 387 277 381
8 500 388 278 382 384 280 183 274
8 501 389 279 383 386 282 185 276
8 384 280 183 274 501 389 279 383
8 386 282 185 276 503 391 281 385
8 503 391 281 385 457 354 249 342
8 511 408 299 395 393 297 199 285
8 395 299 409 512 285 199 298 394
8 512 409 300 396 394 298 200 286
8 401 305 205 291 514 411 300 396
8 515 412 301 397 398 302 202 288
8 405 309 209 295 515 412 301 397
8 516 413 302 398 399 303 203 289
8 403 306 414 517 293 206 303 399
8 402 307 207 292 518 415 304 400
8 401 305 415 518 291 205 304 400
8 404 308 208 294 520 418 307 402
8 521 417 306 403 404 308 208 294
8 406 310 210 296 523 420 309 405
8 526 423 311 407 406 310 210 296
8 410 314 213 299 527 424 312 408
8 528 425 315 411 409 313 214 300
8 410 314 425 528 299 213 313 409
8 416 317 216 305 530 427 315 411
8 531 430 318 412 413 320 219 302
8 420 325 223 309 531 430 318 412
8 532 432 320 413 414 321 220 303
8 417 322 433 533 306 221 321 414
8 418 319 218 307 534 428 316 415
8 416 317 428 534 305 216 316 415
8 419 323 434 536 308 222 322 417
8 419 323 222 308 537 431 319 418
8 421 327 225 310 539 438 325 420
8 421 327 439 541 310 225 326 423
8 543 437 324 422 423 326 224 311
8 441 338 259 368 559 452 367 486
8 443 340 236 329 560 453 338 441
8 333 240 344 447 442 342 457 561
8 445 341 237 331 562 455 340 443
8 448 345 241 334 563 454 339 444
8 563 454 339 444 445 341 237 331
8 336 242 346 450 446 343 458 565
8 446 343 458 565 333 240 344 447
8 449 347 243 335 567 460 345 448
8 451 348 244 337 568 462 347 449
8 451 348 461 569 337 244 346 450
8 570 463 349 452 473 360 257 365
8 453 350 245 338 570 463 349 452
8 455 352 247 340 571 464 350 453
8 460 357 252 345 572 465 351 454
8 572 465 351 454 456 353 248 341
8 456 353 248 341 573 466 352 455
8 344 251 356 459 457 354 468 575
8 458 355 469 576 344 251 356 459
8 346 253 358 461 458 355 469 576
8 462 359 254 347 578 471 357 460
8 348 255 359 462 461 358 472 579
8 591 474 360 473 475 361 256 363
8 475 361 256 363 594 477 362 479
8 363 256 364 482 479 362 480 603
8 590 473 365 484 481 363 482 605
8 482 364 257 365 606 483 366 485
8 559 452 367 486 484 365 485 607
8 542 436 487 609 422 324 369 488
8 525 422 488 611 407 311 371 491
8 488 369 489 612 371 261 370 490
8 491 371 490 613 373 263 372 492
8 495 386 276 377 614 503 385 493
8 614 503 385 493 561 457 342 442
8 615 501 383 494 495 386 276 377
8 496 384 274 378 615 501 383 494
8 618 500 382 497 496 384 274 378
8 619 499 381 498 497 382 272 379
8 511 408 297 393 619 499 381 498
8 620 505 387 499 500 388 278 382
8 527 424 312 408 620 505 387 499
8 502 390 506 621 384 280 388 500
8 622 507 389 501 504 392 282 386
8 502 390 280 384 622 507 389 501
8 504 392 282 386 624 509 391 503
8 624 509 391 503 575 468 354 457
8 513 410 299 395 630 527 408 511
8 631 528 411 514 512 409 300 396
8 513 410 528 631 395 299 409 512
8 519 416 305 401 633 530 411 514
8 634 531 412 515 516 413 302 398
8 523 420 309 405 634 531 412 515
8 635 532 413 516 517 414 303 399
8 521 417 533 636 403 306 414 517
8 520 418 307 402 637 534 415 518
8 519 416 534 637 401 305 415 518
8 522 419 308 404 639 537 418 520
8 522 419 536 640 404 308 417 521
8 524 421 310 406 642 539 420 523
8 524 421 541 644 406 310 423 526
8 646 543 422 525 526 423 311 407
8 529 426 314 410 647 544 424 527
8 528 425 545 648 411 315 427 530
8 529 426 545 648 410 314 425 528
8 535 429 317 416 649 546 427 530
8 650 548 430 531 532 432 320 413
8 539 438 325 420 650 548 430 531
8 533 433 550 651 414 321 432 532
8 536 434 551 652 417 322 433 533
8 537 431 319 418 653 547 428 534
8 535 429 547 653 416 317 428 534
8 538 435 552 654 419 323 434 536
8 538 435 323 419 655 549 431 537
8 540 440 327 421 657 556 438 539
8 540 440 557 659 421 327 439 541
8 541 439 555 660 423 326 437 543
8 661 554 436 542 543 437 324 422
8 676 570 452 559 590 473 365 484
8 560 453 338 441 676 570 452 559
8 562 455 340 443 677 571 453 560
8 447 344 459 566 561 457 575 678
8 564 456 341 445 679 573 455 562
8 567 460 345 448 680 572 454 563
8 680 572 454 563 564 456 341 445
8 565 458 576 682 447 344 459 566
8 450 346 461 569 565 458 576 682
8 568 462 347 449 684 578 460 567
8 451 348 462 568 569 461 579 685
8 686 580 463 570 591 474 360 473
8 571 464 350 453 686 580 463 570
8 573 466 352 455 687 581 464 571
8 572 465 582 688 460 357 471 578
8 574 467 582 688 456 353 465 572
8 574 467 353 456 689 583 466 573
8 459 356 470 577 575 468 585 691
8 576 469 586 692 459 356 470 577
8 461 358 472 579 576 469 586 692
8 462 359 471 578 579 472 588 694
8 704 591 473 590 593 475 363 481
8 595 476 592 705 475 361 474 591
8 593 475 363 481 707 594 479 602
8 594 477 362 479 709 598 478 600
8 595 476 361 475 711 597 477 594
8 479 362 480 603 600 478 601 720
8 481 363 482 605 602 479 603 722
8 603 480 364 482 723 604 483 606
8 605 482 365 484 724 606 485 607
8 656 553 608 726 542 436 487 609
8 645 542 609 728 525 422 488 611
8 609 487 610 729 488 369 489 612
8 611 488 612 730 491 371 490 613
8 616 504 386 495 731 624 503 614
8 731 624 503 614 678 575 457 561
8 732 622 501 615 616 504 386 495
8 617 502 384 496 732 622 501 615
8 617 502 621 735 496 384 500 618
8 736 620 499 619 618 500 382 497
8 630 527 408 511 736 620 499 619
8 621 506 626 737 500 388 505 620
8 647 544 424 527 737 626 505 620
8 623 508 627 738 502 390 506 621
8 623 508 390 502 739 628 507 622
8 625 510 628 739 504 392 507 622
8 740 629 509 624 691 585 468 575
8 625 510 392 504 740 629 509 624
8 632 529 410 513 744 647 527 630
8 631 528 648 745 514 411 530 633
8 632 529 648 745 513 410 528 631
8 638 535 416 519 746 649 530 633
8 747 650 531 634 635 532 413 516
8 642 539 420 523 747 650 531 634
8 636 533 651 748 517 414 532 635
8 640 536 652 749 521 417 533 636
8 639 537 418 520 750 653 534 637
8 638 535 653 750 519 416 534 637
8 641 538 419 522 751 655 537 639
8 641 538 654 752 522 419 536 640
8 643 540 421 524 753 657 539 642
8 643 540 659 755 524 421 541 644
8 644 541 660 757 526 423 543 646
8 758 661 542 645 646 543 422 525
8 529 426 544 647 648 545 662 759
8 530 427 545 648 649 546 663 760
8 535 429 546 649 653 547 664 761
8 762 666 548 650 651 550 432 532
8 657 556 438 539 762 666 548 650
8 652 551 668 763 533 433 550 651
8 654 552 669 764 536 434 551 652
8 655 549 431 537 765 665 547 653
8 538 435 549 655 654 552 667 766
8 661 554 671 768 542 436 553 656
8 658 558 440 540 769 674 556 657
8 658 558 675 770 540 440 557 659
8 659 557 673 771 541 439 555 660
8 660 555 672 772 543 437 554 661
8 788 686 570 676 704 591 473 590
8 677 571 453 560 788 686 570 676
8 679 573 455 562 789 687 571 677
8 566 459 577 683 678 575 691 790
8 681 574 456 564 791 689 573 679
8 680 572 688 792 567 460 578 684
8 681 574 688 792 564 456 572 680
8 682 576 692 794 566 459 577 683
8 569 461 579 685 682 576 692 794
8 568 462 578 684 685 579 694 796
8 687 581 464 571 798 696 580 686
8 798 696 580 686 705 592 474 591
8 689 583 466 573 799 697 581 687
8 688 582 698 800 578 471 588 694
8 690 584 698 800 574 467 582 688
8 690 584 467 574 801 699 583 689
8 693 587 701 803 577 470 585 691
8 693 587 470 577 804 702 586 692
8 695 589 702 804 579 472 586 692
8 695 589 472 579 805 703 588 694
8 708 595 705 813 593 475 591 704
8 710 596 706 814 595 476 592 705
8 707 594 479 602 816 709 600 719
8 708 595 475 593 817 711 594 707
8 709 598 478 600 819 715 599 717
8 711 597 477 594 820 714 598 709
8 710 596 476 595 822 713 597 711
8 600 478 601 720 717 599 718 832
8 602 479 603 722 719 600 720 834
8 720 601 480 603 835 721 604 723
8 722 603 482 605 836 723 606 724
8 767 670 725 839 656 553 608 726
8 756 656 726 841 645 542 609 728
8 726 608 727 842 609 487 610 729
8 728 609 729 843 611 488 612 730
8 844 740 624 731 790 691 575 678
8 733 625 504 616 844 740 624 731
8 734 623 502 617 845 739 622 732
8 733 625 739 845 616 504 622 732
8 734 623 738 846 617 502 621 735
8 735 621 737 847 618 500 620 736
8 744 647 527 630 847 737 620 736
8 621 506 627 738 737 626 741 848
8 647 544 626 737 759 662 741 848
8 623 508 628 739 738 627 742 849
8 740 629 585 691 850 743 700 802
8 625 510 629 740 739 628 743 850
8 632 529 647 744 745 648 759 854
8 633 530 648 745 746 649 760 855
8 638 535 649 746 750 653 761 856
8 857 762 650 747 748 651 532 635
8 753 657 539 642 857 762 650 747
8 749 652 763 858 636 533 651 748
8 752 654 764 859 640 536 652 749
8 751 655 537 639 860 765 653 750
8 641 538 655 751 752 654 766 861
8 754 658 540 643 862 769 657 753
8 754 658 770 863 643 540 659 755
8 755 659 771 864 644 541 660 757
8 758 661 768 866 645 542 656 756
8 757 660 772 867 646 543 661 758
8 759 662 773 868 648 545 663 760
8 649 546 663 760 761 664 774 871
8 765 665 547 653 872 775 664 761
8 873 777 666 762 763 668 550 651
8 769 674 556 657 873 777 666 762
8 764 669 779 874 652 551 668 763
8 654 552 667 766 764 669 778 875
8 655 549 665 765 766 667 776 876
8 768 671 782 877 656 553 670 767
8 772 672 783 878 661 554 671 768
8 658 558 674 769 770 675 786 879
8 659 557 675 770 771 673 785 881
8 882 784 672 772 771 673 555 660
8 789 687 571 677 897 798 686 788
8 897 798 686 788 813 705 591 704
8 791 689 573 679 898 799 687 789
8 795 693 803 900 683 577 691 790
8 793 690 574 681 901 801 689 791
8 792 688 800 902 684 578 694 796
8 793 690 800 902 681 574 688 792
8 795 693 577 683 903 804 692 794
8 797 695 804 903 685 579 692 794
8 797 695 579 685 904 805 694 796
8 905 806 697 799 798 696 581 687
8 814 706 806 905 705 592 696 798
8 689 583 697 799 801 699 808 907
8 800 698 809 908 694 588 703 805
8 690 584 699 801 800 698 809 908
8 803 701 810 909 691 585 700 802
8 693 587 702 804 803 701 811 910
8 695 589 703 805 804 702 812 911
8 818 710 814 919 708 595 705 813
8 821 712 815 920 710 596 706 814
8 816 709 600 719 922 819 717 831
8 817 711 594 707 923 820 709 816
8 818 710 595 708 924 822 711 817
8 819 715 599 717 926 827 716 829
8 820 714 598 709 927 826 715 819
8 929 825 713 822 820 714 597 711
8 821 712 596 710 930 824 713 822
8 717 599 718 832 829 716 830 942
8 719 600 720 834 831 717 832 944
8 832 718 601 720 945 833 721 835
8 834 720 603 722 946 835 723 836
8 869 780 838 950 767 670 725 839
8 865 767 839 952 756 656 726 841
8 839 725 840 953 726 608 727 842
8 841 726 842 954 728 609 729 843
8 844 740 691 790 955 850 802 899
8 733 625 740 844 845 739 850 955
8 734 623 739 845 846 738 849 956
8 735 621 738 846 847 737 848 957
8 744 647 737 847 854 759 848 957
8 738 627 742 849 848 741 851 958
8 848 741 851 958 759 662 773 868
8 850 743 700 802 959 852 807 906
8 849 742 628 739 959 852 743 850
8 854 759 868 965 745 648 760 855
8 746 649 760 855 856 761 871 966
8 860 765 653 750 967 872 761 856
8 968 873 762 857 858 763 651 748
8 862 769 657 753 968 873 762 857
8 859 764 874 969 749 652 763 858
8 752 654 766 861 859 764 875 970
8 751 655 765 860 861 766 876 971
8 754 658 769 862 863 770 879 972
8 755 659 770 863 864 771 881 974
8 976 882 772 867 864 771 660 757
8 866 768 877 977 756 656 767 865
8 867 772 878 978 758 661 768 866
8 760 663 773 868 871 774 883 980
8 870 781 837 948 982 890 780 869
8 982 890 780 869 877 782 670 767
8 761 664 774 871 872 775 884 984
8 876 776 665 765 985 885 775 872
8 873 777 668 763 986 887 779 874
8 769 674 777 873 879 786 887 986
8 764 669 778 875 874 779 888 987
8 766 667 776 876 875 778 886 988
8 878 783 892 989 768 671 782 877
8 878 783 672 772 990 893 784 882
8 880 787 675 770 991 896 786 879
8 880 787 895 992 770 675 785 881
8 881 785 894 993 771 673 784 882
8 1006 905 799 898 897 798 687 789
8 919 814 905 1006 813 705 798 897
8 791 689 799 898 901 801 907 1007
8 900 803 909 1009 790 691 802 899
8 795 693 804 903 900 803 910 1010
8 902 800 908 1011 796 694 805 904
8 793 690 801 901 902 800 908 1011
8 797 695 805 904 903 804 911 1012
8 799 697 806 905 907 808 912 1013
8 920 815 912 1013 814 706 806 905
8 802 700 810 909 906 807 913 1014
8 801 699 808 907 908 809 914 1015
8 805 703 809 908 911 812 915 1016
8 803 701 811 910 909 810 916 1017
8 911 812 917 1018 804 702 811 910
8 925 821 920 1030 818 710 814 919
8 928 823 921 1031 821 712 815 920
8 922 819 717 831 1033 926 829 941
8 923 820 709 816 1034 927 819 922
8 1035 929 822 924 923 820 711 817
8 925 821 710 818 1036 930 822 924
8 1038 933 825 929 927 826 714 820
8 926 827 716 829 1039 935 828 939
8 927 826 715 819 1040 934 827 926
8 928 823 712 821 1041 931 824 930
8 1042 932 824 930 929 825 713 822
8 829 716 830 942 939 828 940 1058
8 831 717 832 944 941 829 942 1060
8 942 830 718 832 1061 943 833 945
8 944 832 720 834 1062 945 835 946
8 981 889 947 1064 870 781 837 948
8 948 837 949 1067 869 780 838 950
8 975 869 950 1069 865 767 839 952
8 950 838 951 1070 839 725 840 953
8 952 839 953 1071 841 726 842 954
8 955 850 802 899 1072 959 906 1008
8 956 849 739 845 1072 959 850 955
8 846 738 849 956 957 848 958 1073
8 957 848 958 1073 854 759 868 965
8 849 742 852 959 958 851 961 1076
8 960 853 961 1076 906 807 852 959
8 958 851 961 1076 868 773 883 980
8 960 853 807 906 1077 963 913 1014
8 855 760 868 965 966 871 980 1085
8 856 761 871 966 967 872 984 1086
8 971 876 765 860 1087 985 872 967
8 968 873 763 858 1088 986 874 969
8 862 769 873 968 972 879 986 1088
8 859 764 875 970 969 874 987 1089
8 861 766 876 971 970 875 988 1090
8 973 880 770 863 1091 991 879 972
8 973 880 992 1092 863 770 881 974
8 974 881 993 1093 864 771 882 976
8 979 870 948 1066 1094 982 869 975
8 1094 982 869 975 977 877 767 865
8 978 878 772 867 1095 990 882 976
8 978 878 989 1096 866 768 877 977
8 871 774 883 980 984 884 994 1099
8 983 891 999 1100 870 781 889 981
8 1101 1000 890 982 989 892 782 877
8 983 891 781 870 1101 1000 890 982
8 872 775 884 984 985 885 995 1103
8 876 776 885 985 988 886 996 1104
8 986 887 779 874 1105 998 888 987
8 879 786 887 986 991 896 998 1105
8 875 778 886 988 987 888 997 1106
8 990 893 1002 1107 878 783 892 989
8 1108 1003 893 990 993 894 784 882
8 880 787 896 991 992 895 1005 1109
8 993 894 785 881 1110 1004 895 992
8 898 799 905 1006 1007 907 1013 1120
8 1030 920 1013 1120 919 814 905 1006
8 901 801 907 1007 1011 908 1015 1121
8 899 802 909 1009 1008 906 1014 1122
8 900 803 910 1010 1009 909 1017 1123
8 1012 911 1018 1124 903 804 910 1010
8 904 805 908 1011 1012 911 1016 1125
8 1013 912 1020 1127 907 808 914 1015
8 1031 921 1020 1127 920 815 912 1013
8 1019 918 962 1075 1128 1021 913 1014
8 1128 1021 913 1014 1017 916 810 909
8 1015 914 1022 1129 908 809 915 1016
8 1016 915 1023 1130 911 812 917 1018
8 1018 917 1024 1131 910 811 916 1017
8 1037 928 1031 1148 925 821 920 1030
8 928 823 931 1041 1031 921 1032 1149
8 1033 926 829 941 1151 1039 939 1057
8 1034 927 819 922 1152 1040 926 1033
8 1153 1038 929 1035 1034 927 820 923
8 1154 1042 930 1036 1035 929 822 924
8 1037 928 821 925 1155 1041 930 1036
8 1039 935 828 939 1156 1047 938 1055
8 1157 1043 932 1042 1038 933 825 929
8 1038 933 826 927 1158 1045 934 1040
8 1040 934 827 926 1159 1046 935 1039
8 930 824 932 1042 1041 931 1044 1160
8 1051 936 1048 1165 1175 1052 937 1053
8 1156 1047 938 1055 1053 937 1054 1178
8 939 828 940 1058 1055 938 1056 1181
8 941 829 942 1060 1057 939 1058 1183
8 942 830 943 1061 1058 940 1059 1184
8 1060 942 832 944 1185 1061 945 1062
8 1082 964 1063 1188 981 889 947 1064
8 1097 981 1064 1190 979 870 948 1066
8 1064 947 1065 1191 948 837 949 1067
8 1066 948 1067 1193 975 869 950 1069
8 1067 949 1068 1194 950 838 951 1070
8 1069 950 1070 1195 952 839 953 1071
8 956 849 959 1072 1073 958 1076 1197
8 1074 960 1076 1197 1008 906 959 1072
8 1073 958 1076 1197 965 868 980 1085
8 1074 960 906 1008 1198 1077 1014 1122
8 1133 1026 1079 1199 1019 918 962 1075
8 1077 963 913 1014 1200 1080 962 1075
8 960 853 963 1077 1076 961 1078 1201
8 980 883 961 1076 1099 994 1078 1201
8 1210 1083 964 1082 1100 999 889 981
8 966 871 980 1085 1086 984 1099 1215
8 967 872 984 1086 1087 985 1103 1216
8 971 876 985 1087 1090 988 1104 1217
8 1088 986 874 969 1218 1105 987 1089
8 972 879 986 1088 1091 991 1105 1218
8 970 875 988 1090 1089 987 1106 1219
8 973 880 991 1091 1092 992 1109 1220
8 1093 993 881 974 1221 1110 992 1092
8 1222 1108 990 1095 1093 993 882 976
8 1223 1101 982 1094 1096 989 877 977
8 1098 983 870 979 1223 1101 982 1094
8 1095 990 1107 1224 978 878 989 1096
8 1098 983 1100 1225 979 870 981 1097
8 984 884 994 1099 1103 995 1111 1227
8 1102 1001 1115 1228 983 891 999 1100
8 1101 1000 892 989 1229 1116 1002 1107
8 1102 1001 891 983 1229 1116 1000 1101
8 985 885 995 1103 1104 996 1112 1230
8 988 886 996 1104 1106 997 1113 1231
8 1105 998 888 987 1232 1114 997 1106
8 991 896 998 1105 1109 1005 1114 1232
8 1108 1003 1117 1233 990 893 1002 1107
8 1108 1003 894 993 1233 1117 1004 1110
8 992 895 1005 1109 1110 1004 1118 1234
8 1120 1013 1127 1244 1007 907 1015 1121
8 1148 1031 1127 1244 1030 920 1013 1120
8 1121 1015 1129 1245 1011 908 1016 1125
8 1126 1019 1075 1196 1246 1128 1014 1122
8 1246 1128 1014 1122 1123 1017 909 1009
8 1124 1018 1131 1247 1010 910 1017 1123
8 1125 1016 1130 1248 1012 911 1018 1124
8 1127 1020 1137 1254 1015 914 1022 1129
8 1031 921 1032 1149 1127 1020 1137 1254
8 1134 1027 918 1019 1257 1140 1021 1128
8 1257 1140 1021 1128 1131 1024 916 1017
8 1129 1022 1141 1258 1016 915 1023 1130
8 1130 1023 1142 1259 1018 917 1024 1131
8 1261 1144 1025 1132 1133 1026 1079 1199
8 1255 1138 1025 1132 1135 1028 1144 1261
8 1133 1026 918 1019 1262 1145 1027 1134
8 1136 1029 1139 1256 1263 1146 1028 1135
8 1037 928 1041 1155 1148 1031 1149 1275
8 1041 931 1044 1160 1149 1032 1150 1276
8 1151 1039 939 1057 1278 1156 1055 1180
8 1152 1040 926 1033 1279 1159 1039 1151
8 1153 1038 927 1034 1280 1158 1040 1152
8 1281 1157 1042 1154 1153 1038 929 1035
8 1036 930 1042 1154 1155 1041 1160 1282
8 1283 1164 1046 1159 1156 1047 935 1039
8 1165 1048 1164 1283 1053 937 1047 1156
8 1157 1043 933 1038 1284 1161 1045 1158
8 1157 1043 1161 1284 1042 932 1044 1160
8 1040 934 1046 1159 1158 1045 1163 1285
8 1166 1049 1167 1292 1051 936 1048 1165
8 1166 1049 936 1051 1293 1168 1050 1172
8 1051 936 1052 1175 1172 1050 1173 1306
8 1174 1051 1165 1290 1308 1175 1053 1177
8 1053 937 1054 1178 1175 1052 1176 1309
8 1278 1156 1055 1180 1177 1053 1178 1311
8 1055 938 1056 1181 1178 1054 1179 1312
8 1057 939 1058 1183 1180 1055 1181 1314
8 1058 940 1059 1184 1181 1056 1182 1315
8 1060 942 1061 1185 1183 1058 1184 1316
8 1208 1081 1187 1321 1082 964 1063 1188
8 1209 1082 1188 1322 1097 981 1064 1190
8 1188 1063 1189 1323 1064 947 1065 1191
8 1190 1064 1191 1325 1066 948 1067 1193
8 1191 1065 1192 1326 1067 949 1068 1194
8 1067 1193 1069 950 1194 1327 1195 1070
8 1250 1133 1199 1330 1126 1019 1075 1196
8 1198 1077 1014 1122 1331 1200 1075 1196
8 1074 960 1077 1198 1197 1076 1201 1332
8 1085 980 1076 1197 1215 1099 1201 1332
8 1199 1079 1203 1333 1075 962 1080 1200
8 1132 1025 1119 1243 1199 1079 1203 1333
8 1201 1078 963 1077 1334 1202 1080 1200
8 1099 994 1078 1201 1227 1111 1202 1334
8 1343 1207 1081 1208 1210 1083 964 1082
8 1214 1084 1186 1319 1343 1207 1081 1208
8 1345 1210 1082 1209 1225 1100 981 1097
8 1346 1211 1083 1210 1228 1115 999 1100
8 1086 984 1099 1215 1216 1103 1227 1352
8 1087 985 1103 1216 1217 1104 1230 1353
8 1090 988 1104 1217 1219 1106 1231 1354
8 1218 1105 987 1089 1355 1232 1106 1219
8 1091 991 1105 1218 1220 1109 1232 1355
8 1092 992 1109 1220 1221 1110 1234 1356
8 1222 1108 1233 1357 1095 990 1107 1224
8 1222 1108 993 1093 1357 1233 1110 1221
8 1223 1101 989 1096 1358 1229 1107 1224
8 1226 1102 983 1098 1358 1229 1101 1223
8 1226 1102 1228 1359 1098 983 1100 1225
8 1103 995 1111 1227 1230 1112 1235 1360
8 1107 1002 1117 1233 1229 1116 1240 1362
8 1102 1001 1116 1229 1228 1115 1240 1362
8 1104 996 1112 1230 1231 1113 1236 1363
8 1364 1237 1114 1232 1231 1113 997 1106
8 1109 1005 1114 1232 1234 1118 1238 1365
8 1110 1004 1118 1234 1233 1117 1241 1366
8 1242 1374 1255 1138 1119 1243 1132 1025
8 1244 1127 1254 1376 1121 1015 1129 1245
8 1148 1031 1149 1275 1244 1127 1254 1376
8 1245 1129 1258 1377 1125 1016 1130 1248
8 1251 1134 1019 1126 1378 1257 1128 1246
8 1378 1257 1128 1246 1247 1131 1017 1123
8 1248 1130 1259 1379 1124 1018 1131 1247
8 1261 1381 1250 1133 1132 1249 1330 1199
8 1255 1380 1252 1135 1132 1249 1381 1261
8 1250 1133 1019 1126 1382 1262 1134 1251
8 1253 1136 1256 1385 1384 1263 1135 1252
8 1254 1137 1265 1387 1129 1022 1141 1258
8 1149 1032 1150 1276 1254 1137 1265 1387
8 1028 1135 1255 1138 1139 1256 1388 1266
8 1136 1029 1147 1264 1256 1139 1267 1389
8 1390 1268 1140 1257 1259 1142 1024 1131
8 1260 1143 1027 1134 1390 1268 1140 1257
8 1258 1141 1269 1391 1130 1023 1142 1259
8 1262 1145 1027 1134 1393 1271 1143 1260
8 1261 1144 1026 1133 1394 1272 1145 1262
8 1135 1028 1144 1261 1263 1146 1272 1394
8 1136 1029 1146 1263 1264 1147 1273 1395
8 1155 1041 1160 1282 1275 1149 1276 1405
8 1276 1150 1044 1160 1406 1277 1162 1286
8 1408 1283 1159 1279 1278 1156 1039 1151
8 1290 1165 1283 1408 1177 1053 1156 1278
8 1152 1040 1159 1279 1280 1158 1285 1409
8 1281 1157 1038 1153 1410 1284 1158 1280
8 1281 1157 1284 1410 1154 1042 1160 1282
8 1159 1046 1164 1283 1285 1163 1289 1412
8 1292 1167 1289 1412 1165 1048 1164 1283
8 1158 1045 1163 1285 1284 1161 1288 1413
8 1284 1161 1288 1413 1160 1044 1162 1286
8 1291 1166 1292 1418 1174 1051 1165 1290
8 1291 1166 1051 1174 1419 1293 1172 1305
8 1294 1169 1296 1421 1166 1049 1167 1292
8 1293 1168 1050 1172 1422 1295 1171 1303
8 1294 1169 1049 1166 1423 1297 1168 1293
8 1422 1295 1171 1303 1301 1170 1302 1435
8 1172 1050 1173 1306 1303 1171 1304 1438
8 1174 1051 1175 1308 1305 1172 1306 1440
8 1175 1052 1176 1309 1306 1173 1307 1441
8 1177 1053 1178 1311 1308 1175 1309 1443
8 1178 1054 1179 1312 1309 1176 1310 1444
8 1180 1055 1181 1314 1311 1178 1312 1446
8 1056 1181 1312 1179 1182 1315 1447 1313
8 1183 1058 1184 1316 1314 1181 1315 1448
8 1319 1186 1084 1214 1451 1317 1213 1350
8 1319 1186 1318 1453 1208 1081 1187 1321
8 1321 1187 1320 1456 1188 1063 1189 1323
8 1344 1208 1321 1457 1209 1082 1188 1322
8 1322 1188 1323 1458 1190 1064 1191 1325
8 1323 1189 1324 1459 1191 1065 1192 1326
8 1191 1325 1193 1067 1326 1460 1327 1194
8 1242 1374 1243 1119 1328 1462 1335 1204
8 1330 1199 1333 1465 1196 1075 1200 1331
8 1132 1249 1330 1199 1243 1375 1465 1333
8 1332 1201 1077 1198 1466 1334 1200 1331
8 1215 1099 1201 1332 1352 1227 1334 1466
8 1119 1243 1333 1203 1204 1335 1470 1338
8 1333 1203 1338 1470 1200 1080 1202 1334
8 1227 1111 1202 1334 1360 1235 1338 1470
8 1328 1462 1335 1204 1205 1336 1471 1339
8 1337 1206 1340 1472 1464 1329 1205 1336
8 1346 1211 1342 1479 1210 1083 1207 1343
8 1346 1211 1115 1228 1479 1342 1239 1361
8 1348 1212 1084 1214 1479 1342 1207 1343
8 1480 1343 1208 1344 1345 1210 1082 1209
8 1351 1214 1319 1454 1480 1343 1208 1344
8 1481 1346 1210 1345 1359 1228 1100 1225
8 1348 1212 1347 1483 1214 1084 1213 1350
8 1216 1103 1227 1352 1353 1230 1360 1488
8 1217 1104 1230 1353 1354 1231 1363 1489
8 1490 1364 1232 1355 1354 1231 1106 1219
8 1220 1109 1232 1355 1356 1234 1365 1491
8 1221 1110 1234 1356 1357 1233 1366 1492
8 1224 1107 1233 1357 1358 1229 1362 1493
8 1226 1102 1229 1358 1359 1228 1362 1493
8 1230 1112 1235 1360 1363 1236 1367 1496
8 1361 1239 1115 1228 1497 1371 1240 1362
8 1366 1241 1372 1498 1233 1117 1240 1362
8 1364 1237 1113 1231 1499 1368 1236 1363
8 1364 1237 1368 1499 1232 1114 1238 1365
8 1234 1118 1238 1365 1366 1241 1369 1500
8 1507 1373 1242 1374 1388 1266 1138 1255
8 1508 1374 1243 1375 1380 1255 1132 1249
8 1376 1254 1387 1509 1245 1129 1258 1377
8 1275 1149 1276 1405 1376 1254 1387 1509
8 1377 1258 1391 1510 1248 1130 1259 1379
8 1511 1390 1257 1378 1379 1259 1131 1247
8 1383 1260 1134 1251 1511 1390 1257 1378
8 1252 1135 1256 1385 1380 1255 1388 1512
8 1261 1381 1513 1394 1133 1250 1382 1262
8 1135 1252 1384 1263 1261 1381 1513 1394
8 1382 1262 1134 1251 1514 1393 1260 1383
8 1253 1136 1263 1384 1386 1264 1395 1516
8 1253 1136 1264 1386 1385 1256 1389 1517
8 1387 1265 1397 1519 1258 1141 1269 1391
8 1276 1150 1277 1406 1387 1265 1397 1519
8 1256 1139 1267 1389 1388 1266 1398 1520
8 1264 1147 1274 1396 1389 1267 1399 1521
8 1392 1270 1143 1260 1522 1400 1268 1390
8 1390 1268 1142 1259 1522 1400 1269 1391
8 1392 1270 1401 1523 1260 1143 1271 1393
8 1272 1394 1524 1402 1145 1262 1393 1271
8 1395 1273 1146 1263 1524 1402 1272 1394
8 1273 1395 1264 1147 1403 1526 1396 1274
8 1405 1276 1160 1282 1534 1406 1286 1411
8 1414 1287 1407 1535 1286 1162 1277 1406
8 1279 1159 1283 1408 1409 1285 1412 1537
8 1418 1292 1412 1537 1290 1165 1283 1408
8 1280 1158 1285 1409 1410 1284 1413 1538
8 1410 1284 1413 1538 1282 1160 1286 1411
8 1285 1163 1289 1412 1413 1288 1417 1540
8 1421 1296 1417 1540 1292 1167 1289 1412
8 1414 1287 1162 1286 1541 1416 1288 1413
8 1420 1294 1421 1545 1291 1166 1292 1418
8 1419 1293 1172 1305 1546 1422 1303 1437
8 1420 1294 1166 1291 1547 1423 1293 1419
8 1294 1169 1297 1423 1421 1296 1425 1548
8 1423 1297 1168 1293 1549 1424 1295 1422
8 1301 1170 1298 1427 1422 1295 1424 1549
8 1432 1300 1428 1554 1301 1170 1298 1427
8 1431 1299 1428 1554 1560 1430 1300 1432
8 1563 1433 1300 1432 1435 1302 1170 1301
8 1546 1422 1303 1437 1434 1301 1435 1565
8 1303 1171 1304 1438 1435 1302 1436 1566
8 1305 1172 1306 1440 1437 1303 1438 1568
8 1306 1173 1307 1441 1438 1304 1439 1569
8 1308 1175 1309 1443 1440 1306 1441 1571
8 1309 1176 1310 1444 1441 1307 1442 1572
8 1311 1178 1312 1446 1443 1309 1444 1574
8 1179 1312 1444 1310 1313 1447 1575 1445
8 1314 1181 1315 1448 1446 1312 1447 1576
8 1350 1213 1349 1486 1451 1317 1449 1579
8 1451 1317 1450 1581 1319 1186 1318 1453
8 1454 1319 1214 1351 1582 1451 1350 1487
8 1453 1318 1452 1584 1321 1187 1320 1456
8 1454 1319 1453 1585 1344 1208 1321 1457
8 1456 1320 1455 1586 1323 1189 1324 1459
8 1457 1321 1456 1587 1322 1188 1323 1458
8 1458 1323 1459 1588 1325 1191 1326 1460
8 1205 1336 1464 1329 1328 1462 1590 1461
8 1507 1373 1461 1590 1374 1242 1328 1462
8 1508 1374 1462 1591 1375 1243 1335 1467
8 1337 1206 1329 1464 1473 1341 1463 1594
8 1375 1243 1335 1467 1465 1333 1470 1596
8 1465 1333 1470 1596 1331 1200 1334 1466
8 1352 1227 1334 1466 1488 1360 1470 1596
8 1591 1462 1336 1468 1467 1335 1471 1597
8 1469 1337 1472 1598 1595 1464 1336 1468
8 1471 1339 1474 1600 1335 1204 1338 1470
8 1600 1474 1367 1496 1470 1338 1235 1360
8 1336 1205 1340 1472 1471 1339 1475 1601
8 1337 1206 1341 1473 1472 1340 1476 1602
8 1495 1370 1478 1609 1361 1239 1342 1479
8 1348 1212 1342 1479 1483 1347 1478 1609
8 1481 1346 1479 1610 1345 1210 1343 1480
8 1481 1346 1228 1359 1610 1479 1361 1494
8 1484 1348 1214 1351 1610 1479 1343 1480
8 1483 1347 1482 1612 1350 1213 1349 1486
8 1484 1348 1483 1613 1351 1214 1350 1487
8 1353 1230 1360 1488 1489 1363 1496 1616
8 1490 1364 1231 1354 1617 1499 1363 1489
8 1490 1364 1499 1617 1355 1232 1365 1491
8 1356 1234 1365 1491 1492 1366 1500 1619
8 1492 1366 1498 1620 1357 1233 1362 1493
8 1494 1361 1228 1359 1621 1497 1362 1493
8 1495 1370 1239 1361 1622 1504 1371 1497
8 1363 1236 1367 1496 1499 1368 1501 1623
8 1497 1371 1240 1362 1624 1505 1372 1498
8 1625 1503 1372 1498 1500 1369 1241 1366
8 1365 1238 1368 1499 1500 1369 1502 1626
8 1520 1398 1506 1633 1388 1266 1373 1507
8 1634 1507 1374 1508 1512 1388 1255 1380
8 1509 1387 1519 1635 1377 1258 1391 1510
8 1405 1276 1406 1534 1509 1387 1519 1635
8 1515 1392 1260 1383 1636 1522 1390 1511
8 1511 1390 1259 1379 1636 1522 1391 1510
8 1385 1256 1389 1517 1512 1388 1520 1637
8 1513 1394 1262 1382 1638 1524 1393 1514
8 1395 1516 1638 1524 1263 1384 1513 1394
8 1515 1392 1523 1639 1383 1260 1393 1514
8 1516 1395 1526 1640 1386 1264 1396 1518
8 1386 1264 1396 1518 1517 1389 1521 1641
8 1519 1397 1527 1643 1391 1269 1400 1522
8 1535 1407 1527 1643 1406 1277 1397 1519
8 1389 1267 1399 1521 1520 1398 1528 1644
8 1645 1529 1399 1521 1525 1404 1274 1396
8 1392 1270 1400 1522 1523 1401 1531 1646
8 1524 1402 1271 1393 1648 1532 1401 1523
8 1403 1526 1648 1532 1273 1395 1524 1402
8 1525 1404 1274 1396 1649 1533 1403 1526
8 1539 1414 1535 1657 1411 1286 1406 1534
8 1542 1415 1536 1658 1414 1287 1407 1535
8 1409 1285 1412 1537 1538 1413 1540 1660
8 1545 1421 1540 1660 1418 1292 1412 1537
8 1539 1414 1286 1411 1661 1541 1413 1538
8 1540 1417 1544 1663 1413 1288 1416 1541
8 1421 1296 1425 1548 1540 1417 1544 1663
8 1542 1415 1287 1414 1664 1543 1416 1541
8 1420 1294 1423 1547 1545 1421 1548 1666
8 1547 1423 1293 1419 1667 1549 1422 1546
8 1434 1301 1427 1553 1546 1422 1549 1667
8 1423 1297 1424 1549 1548 1425 1550 1668
8 1551 1426 1550 1668 1427 1298 1424 1549
8 1551 1426 1298 1427 1671 1552 1428 1554
8 1562 1432 1554 1674 1434 1301 1427 1553
8 1431 1299 1429 1558 1554 1428 1555 1675
8 1431 1299 1430 1560 1558 1429 1557 1680
8 1560 1430 1300 1432 1683 1559 1433 1563
8 1561 1431 1554 1674 1684 1560 1432 1562
8 1685 1563 1432 1562 1565 1435 1301 1434
8 1435 1302 1436 1566 1563 1433 1564 1686
8 1437 1303 1438 1568 1565 1435 1566 1688
8 1438 1304 1439 1569 1566 1436 1567 1689
8 1440 1306 1441 1571 1568 1438 1569 1691
8 1441 1307 1442 1572 1569 1439 1570 1692
8 1443 1309 1444 1574 1571 1441 1572 1694
8 1310 1444 1572 1442 1445 1575 1695 1573
8 1446 1312 1447 1576 1574 1444 1575 1696
8 1486 1349 1485 1614 1579 1449 1577 1699
8 1451 1317 1449 1579 1581 1450 1578 1701
8 1487 1350 1486 1615 1582 1451 1579 1702
8 1581 1450 1580 1704 1453 1318 1452 1584
8 1582 1451 1581 1705 1454 1319 1453 1585
8 1584 1452 1583 1706 1456 1320 1455 1586
8 1585 1453 1584 1707 1457 1321 1456 1587
8 1587 1456 1586 1708 1458 1323 1459 1588
8 1633 1506 1589 1710 1507 1373 1461 1590
8 1464 1329 1461 1590 1594 1463 1589 1710
8 1468 1336 1462 1591 1595 1464 1590 1711
8 1634 1507 1590 1711 1508 1374 1462 1591
8 1473 1341 1463 1594 1603 1477 1593 1716
8 1469 1337 1464 1595 1599 1473 1594 1717
8 1471 1597 1467 1335 1600 1718 1596 1470
8 1718 1600 1496 1616 1596 1470 1360 1488
8 1336 1468 1597 1471 1472 1598 1719 1601
8 1469 1337 1473 1599 1598 1472 1602 1720
8 1722 1604 1501 1623 1600 1474 1367 1496
8 1475 1601 1471 1339 1604 1722 1600 1474
8 1602 1476 1605 1723 1472 1340 1475 1601
8 1476 1602 1724 1606 1341 1473 1603 1477
8 1483 1347 1478 1609 1612 1482 1608 1731
8 1495 1370 1504 1622 1609 1478 1608 1731
8 1618 1495 1609 1732 1494 1361 1479 1610
8 1484 1348 1479 1610 1613 1483 1609 1732
8 1486 1349 1482 1612 1614 1485 1611 1733
8 1613 1483 1612 1734 1487 1350 1486 1615
8 1489 1363 1496 1616 1617 1499 1623 1736
8 1491 1365 1499 1617 1619 1500 1626 1737
8 1618 1495 1361 1494 1738 1622 1497 1621
8 1739 1625 1498 1620 1619 1500 1366 1492
8 1621 1497 1362 1493 1740 1624 1498 1620
8 1742 1631 1504 1622 1624 1505 1371 1497
8 1743 1628 1502 1626 1623 1501 1368 1499
8 1744 1630 1505 1624 1625 1503 1372 1498
8 1745 1629 1503 1625 1626 1502 1369 1500
8 1520 1398 1528 1644 1633 1506 1632 1751
8 1637 1520 1633 1752 1512 1388 1507 1634
8 1635 1519 1643 1753 1510 1391 1522 1636
8 1657 1535 1643 1753 1534 1406 1519 1635
8 1515 1392 1522 1636 1639 1523 1646 1754
8 1517 1389 1521 1641 1637 1520 1644 1755
8 1524 1638 1756 1648 1393 1514 1639 1523
8 1640 1526 1395 1516 1756 1648 1524 1638
8 1642 1525 1396 1518 1757 1649 1526 1640
8 1758 1645 1521 1641 1642 1525 1396 1518
8 1646 1531 1400 1522 1760 1650 1527 1643
8 1535 1407 1536 1658 1643 1527 1650 1760
8 1521 1399 1529 1645 1644 1528 1651 1761
8 1647 1530 1652 1762 1525 1404 1529 1645
8 1401 1523 1648 1532 1531 1646 1763 1655
8 1525 1404 1533 1649 1647 1530 1654 1765
8 1533 1649 1766 1656 1403 1526 1648 1532
8 1662 1542 1658 1774 1539 1414 1535 1657
8 1542 1415 1543 1664 1658 1536 1659 1775
8 1660 1540 1663 1777 1538 1413 1541 1661
8 1545 1421 1548 1666 1660 1540 1663 1777
8 1662 1542 1414 1539 1778 1664 1541 1661
8 1664 1543 1416 1541 1779 1665 1544 1663
8 1548 1425 1550 1668 1663 1544 1665 1779
8 1547 1423 1549 1667 1666 1548 1668 1781
8 1670 1551 1668 1781 1553 1427 1549 1667
8 1551 1426 1552 1671 1668 1550 1669 1782
8 1670 1551 1427 1553 1784 1671 1554 1674
8 1675 1555 1672 1785 1554 1428 1552 1671
8 1678 1556 1673 1789 1558 1429 1555 1675
8 1561 1431 1558 1681 1674 1554 1675 1790
8 1794 1677 1556 1678 1680 1557 1429 1558
8 1560 1430 1559 1683 1680 1557 1679 1797
8 1561 1431 1560 1684 1681 1558 1680 1798
8 1563 1433 1564 1686 1683 1559 1682 1800
8 1684 1560 1432 1562 1801 1683 1563 1685
8 1565 1435 1566 1688 1685 1563 1686 1802
8 1566 1436 1567 1689 1686 1564 1687 1803
8 1568 1438 1569 1691 1688 1566 1689 1805
8 1569 1439 1570 1692 1689 1567 1690 1806
8 1571 1441 1572 1694 1691 1569 1692 1808
8 1442 1572 1692 1570 1573 1695 1809 1693
8 1574 1444 1575 1696 1694 1572 1695 1810
8 1614 1485 1592 1712 1699 1577 1697 1813
8 1579 1449 1577 1699 1701 1578 1698 1815
8 1615 1486 1614 1735 1702 1579 1699 1816
8 1701 1578 1700 1818 1581 1450 1580 1704
8 1582 1451 1579 1702 1705 1581 1701 1819
8 1704 1580 1703 1820 1584 1452 1583 1706
8 1705 1581 1704 1821 1585 1453 1584 1707
8 1707 1584 1706 1822 1587 1456 1586 1708
8 1710 1589 1506 1633 1824 1709 1632 1751
8 1594 1463 1589 1710 1716 1593 1709 1824
8 1752 1633 1710 1825 1634 1507 1590 1711
8 1595 1464 1590 1711 1717 1594 1710 1825
8 1830 1714 1592 1712 1733 1611 1485 1614
8 1603 1477 1593 1716 1725 1607 1715 1834
8 1599 1473 1594 1717 1721 1603 1716 1835
8 1837 1722 1623 1736 1718 1600 1496 1616
8 1719 1601 1722 1837 1597 1471 1600 1718
8 1602 1720 1598 1472 1723 1838 1719 1601
8 1720 1602 1473 1599 1839 1724 1603 1721
8 1723 1605 1726 1840 1601 1475 1604 1722
8 1840 1726 1628 1743 1722 1604 1501 1623
8 1724 1606 1727 1841 1602 1476 1605 1723
8 1725 1607 1728 1842 1603 1477 1606 1724
8 1612 1482 1608 1731 1733 1611 1730 1849
8 1741 1627 1730 1849 1622 1504 1608 1731
8 1613 1483 1609 1732 1734 1612 1731 1850
8 1618 1495 1622 1738 1732 1609 1731 1850
8 1615 1486 1612 1734 1735 1614 1733 1851
8 1852 1743 1626 1737 1736 1623 1499 1617
8 1853 1745 1625 1739 1737 1626 1500 1619
8 1855 1742 1622 1738 1740 1624 1497 1621
8 1856 1744 1624 1740 1739 1625 1498 1620
8 1741 1627 1504 1622 1857 1746 1631 1742
8 1742 1631 1505 1624 1858 1749 1630 1744
8 1859 1747 1629 1745 1743 1628 1502 1626
8 1860 1748 1630 1744 1745 1629 1503 1625
8 1644 1528 1651 1761 1751 1632 1750 1865
8 1637 1520 1644 1755 1752 1633 1751 1866
8 1754 1646 1522 1636 1867 1760 1643 1753
8 1657 1535 1658 1774 1753 1643 1760 1867
8 1639 1523 1646 1754 1756 1648 1763 1868
8 1641 1521 1645 1758 1755 1644 1761 1869
8 1757 1649 1526 1640 1870 1766 1648 1756
8 1642 1525 1649 1757 1759 1647 1765 1871
8 1759 1647 1762 1872 1642 1525 1645 1758
8 1760 1650 1767 1874 1646 1531 1655 1763
8 1658 1536 1659 1775 1760 1650 1767 1874
8 1762 1652 1768 1875 1645 1529 1651 1761
8 1764 1653 1769 1876 1647 1530 1652 1762
8 1656 1766 1877 1773 1532 1648 1763 1655
8 1771 1879 1765 1654 1653 1764 1647 1530
8 1533 1649 1765 1654 1656 1766 1880 1772
8 1662 1542 1664 1778 1774 1658 1775 1887
8 1664 1543 1665 1779 1775 1659 1776 1888
8 1778 1664 1541 1661 1890 1779 1663 1777
8 1666 1548 1668 1781 1777 1663 1779 1890
8 1782 1669 1780 1891 1668 1550 1665 1779
8 1670 1551 1671 1784 1781 1668 1782 1893
8 1671 1552 1672 1785 1782 1669 1783 1894
8 1790 1675 1785 1896 1674 1554 1671 1784
8 1675 1555 1673 1789 1785 1672 1786 1897
8 1792 1676 1788 1903 1678 1556 1673 1789
8 1795 1678 1789 1904 1681 1558 1675 1790
8 1792 1676 1556 1678 1906 1791 1677 1794
8 1680 1557 1679 1797 1794 1677 1793 1909
8 1910 1794 1678 1795 1798 1680 1558 1681
8 1683 1559 1682 1800 1797 1679 1796 1912
8 1684 1560 1683 1801 1798 1680 1797 1913
8 1686 1564 1687 1803 1800 1682 1799 1915
8 1685 1563 1686 1802 1801 1683 1800 1916
8 1688 1566 1689 1805 1802 1686 1803 1917
8 1689 1567 1690 1806 1803 1687 1804 1918
8 1691 1569 1692 1808 1805 1689 1806 1920
8 1692 1570 1693 1809 1806 1690 1807 1921
8 1694 1572 1695 1810 1808 1692 1809 1922
8 1829 1713 1811 1926 1712 1592 1697 1813
8 1813 1697 1812 1928 1699 1577 1698 1815
8 1735 1614 1712 1828 1816 1699 1813 1929
8 1815 1698 1814 1931 1701 1578 1700 1818
8 1702 1579 1699 1816 1819 1701 1815 1932
8 1818 1700 1817 1933 1704 1580 1703 1820
8 1819 1701 1818 1934 1705 1581 1704 1821
8 1821 1704 1820 1935 1707 1584 1706 1822
8 1824 1709 1632 1751 1937 1823 1750 1865
8 1716 1593 1709 1824 1834 1715 1823 1937
8 1825 1710 1633 1752 1938 1824 1751 1866
8 1717 1594 1710 1825 1835 1716 1824 1938
8 1945 1830 1712 1828 1851 1733 1614 1735
8 1830 1714 1831 1946 1712 1592 1713 1829
8 1947 1832 1714 1830 1849 1730 1611 1733
8 1843 1729 1607 1725 1950 1833 1715 1834
8 1721 1603 1716 1835 1836 1725 1834 1951
8 1836 1725 1842 1953 1721 1603 1724 1839
8 1723 1838 1719 1601 1840 1954 1837 1722
8 1954 1840 1743 1852 1837 1722 1623 1736
8 1724 1839 1720 1602 1841 1955 1838 1723
8 1841 1727 1844 1956 1723 1605 1726 1840
8 1956 1844 1747 1859 1840 1726 1628 1743
8 1728 1842 1724 1606 1845 1957 1841 1727
8 1725 1607 1729 1843 1842 1728 1846 1958
8 1741 1627 1746 1857 1849 1730 1848 1965
8 1734 1612 1731 1850 1851 1733 1849 1966
8 1854 1741 1849 1966 1738 1622 1731 1850
8 1967 1859 1745 1853 1852 1743 1626 1737
8 1968 1860 1744 1856 1853 1745 1625 1739
8 1854 1741 1622 1738 1969 1857 1742 1855
8 1855 1742 1624 1740 1970 1858 1744 1856
8 1857 1746 1631 1742 1971 1861 1749 1858
8 1858 1749 1630 1744 1972 1863 1748 1860
8 1859 1747 1862 1973 1745 1629 1748 1860
8 1875 1768 1864 1977 1761 1651 1750 1865
8 1755 1644 1761 1869 1866 1751 1865 1978
8 1867 1760 1874 1979 1754 1646 1763 1868
8 1774 1658 1775 1887 1867 1760 1874 1979
8 1870 1766 1648 1756 1980 1877 1763 1868
8 1872 1762 1875 1981 1758 1645 1761 1869
8 1757 1649 1766 1870 1871 1765 1880 1982
8 1983 1879 1764 1873 1871 1765 1647 1759
8 1873 1764 1876 1984 1759 1647 1762 1872
8 1877 1773 1655 1763 1986 1881 1767 1874
8 1775 1659 1776 1888 1874 1767 1881 1986
8 1876 1769 1882 1987 1762 1652 1768 1875
8 1878 1770 1883 1988 1764 1653 1769 1876
8 1880 1772 1656 1766 1989 1886 1773 1877
8 1878 1770 1653 1764 1990 1884 1771 1879
8 1765 1654 1772 1880 1879 1771 1885 1991
8 1778 1664 1779 1890 1887 1775 1888 1997
8 1998 1889 1776 1888 1891 1780 1665 1779
8 1893 1782 1891 2000 1781 1668 1779 1890
8 1894 1783 1892 2001 1782 1669 1780 1891
8 1784 1671 1785 1896 1893 1782 1894 2003
8 1897 1786 1895 2004 1785 1672 1783 1894
8 1790 1675 1789 1904 1896 1785 1897 2006
8 1901 1787 1898 2007 1789 1673 1786 1897
8 1903 1788 1900 2013 1789 1673 1787 1901
8 1792 1676 1791 1906 1903 1788 1902 2016
8 1907 1792 1903 2017 1795 1678 1789 1904
8 1906 1791 1677 1794 2019 1905 1793 1909
8 1907 1792 1678 1795 2020 1906 1794 1910
8 1797 1679 1796 1912 1909 1793 1908 2022
8 1798 1680 1797 1913 1910 1794 1909 2023
8 1800 1682 1799 1915 1912 1796 1911 2025
8 1801 1683 1800 1916 1913 1797 1912 2026
8 1803 1687 1804 1918 1915 1799 1914 2028
8 1802 1686 1803 1917 1916 1800 1915 2029
8 1805 1689 1806 1920 1917 1803 1918 2030
8 1806 1690 1807 1921 1918 1804 1919 2031
8 1808 1692 1809 1922 1920 1806 1921 2032
8 1939 1826 1924 2037 1829 1713 1811 1926
8 1926 1811 1925 2039 1813 1697 1812 1928
8 1944 1829 1926 2040 1828 1712 1813 1929
8 1928 1812 1927 2042 1815 1698 1814 1931
8 1929 1813 1928 2043 1816 1699 1815 1932
8 1931 1814 1930 2044 1818 1700 1817 1933
8 1932 1815 1931 2045 1819 1701 1818 1934
8 1934 1818 1933 2046 1821 1704 1820 1935
8 2048 1936 1823 1937 1977 1864 1750 1865
8 1950 1833 1715 1834 2048 1936 1823 1937
8 1938 1824 1751 1866 2049 1937 1865 1978
8 1835 1716 1824 1938 1951 1834 1937 2049
8 1939 1826 1713 1829 2053 1942 1831 1946
8 1940 1827 1923 2035 2053 1942 1826 1939
8 1945 1830 1946 2058 1828 1712 1829 1944
8 2059 1947 1830 1945 1966 1849 1733 1851
8 1947 1832 1730 1849 2060 1948 1848 1965
8 1947 1832 1948 2060 1830 1714 1831 1946
8 1959 1847 1729 1843 2063 1949 1833 1950
8 1952 1843 1725 1836 2064 1950 1834 1951
8 1836 1725 1843 1952 1953 1842 1958 2066
8 1953 1842 1957 2067 1839 1724 1841 1955
8 1841 1955 1838 1723 1956 2068 1954 1840
8 2068 1956 1859 1967 1954 1840 1743 1852
8 1956 1844 1960 2069 1859 1747 1862 1973
8 1845 1957 1841 1727 1960 2069 1956 1844
8 1728 1842 1957 1845 1846 1958 2071 1961
8 1962 2072 1959 1847 1846 1958 1843 1729
8 1971 1861 1964 2077 1857 1746 1848 1965
8 1854 1741 1857 1969 1966 1849 1965 2078
8 1967 1859 1973 2079 1853 1745 1860 1968
8 1970 1858 1744 1856 2080 1972 1860 1968
8 1969 1857 1742 1855 2081 1971 1858 1970
8 1971 1861 1749 1858 2082 1974 1863 1972
8 1973 1862 1975 2083 1860 1748 1863 1972
8 1987 1882 1976 2086 1875 1768 1864 1977
8 1981 1875 1977 2087 1869 1761 1865 1978
8 1980 1877 1763 1868 2088 1986 1874 1979
8 1887 1775 1888 1997 1979 1874 1986 2088
8 1880 1982 2089 1989 1766 1870 1980 1877
8 1984 1876 1987 2090 1872 1762 1875 1981
8 1765 1871 1983 1879 1880 1982 2091 1991
8 1985 1878 1764 1873 2092 1990 1879 1983
8 1985 1878 1988 2093 1873 1764 1876 1984
8 2094 1992 1881 1986 1998 1889 1776 1888
8 1986 1881 1992 2094 1877 1773 1886 1989
8 1988 1883 1993 2095 1876 1769 1882 1987
8 1878 1770 1884 1990 1988 1883 1994 2096
8 1991 1885 1772 1880 2097 1996 1886 1989
8 1879 1771 1885 1991 1990 1884 1995 2098
8 2103 1998 1888 1997 2000 1891 1779 1890
8 2104 1999 1889 1998 2001 1892 1780 1891
8 2003 1894 2001 2106 1893 1782 1891 2000
8 2004 1895 2002 2107 1894 1783 1892 2001
8 2006 1897 2004 2109 1896 1785 1894 2003
8 2007 1898 2005 2110 1897 1786 1895 2004
8 2014 1901 2007 2112 1904 1789 1897 2006
8 2011 1899 2008 2113 1901 1787 1898 2007
8 2119 2010 1899 2011 2013 1900 1787 1901
8 2016 1902 2012 2122 1903 1788 1900 2013
8 2017 1903 2013 2123 1904 1789 1901 2014
8 1906 1791 1905 2019 2016 1902 2015 2125
8 1907 1792 1906 2020 2017 1903 2016 2126
8 1909 1793 1908 2022 2019 1905 2018 2128
8 2020 1906 1794 1910 2129 2019 1909 2023
8 1912 1796 1911 2025 2022 1908 2021 2131
8 1913 1797 1912 2026 2023 1909 2022 2132
8 1915 1799 1914 2028 2025 1911 2024 2134
8 1916 1800 1915 2029 2026 1912 2025 2135
8 1918 1804 1919 2031 2028 1914 2027 2136
8 1917 1803 1918 2030 2029 1915 2028 2137
8 1920 1806 1921 2032 2030 1918 2031 2138
8 1940 1827 1941 2054 2035 1923 2033 2140
8 2035 1923 2034 2143 1939 1826 1924 2037
8 2037 1924 2036 2146 1926 1811 1925 2039
8 2051 1939 2037 2147 1944 1829 1926 2040
8 2039 1925 2038 2149 1928 1812 1927 2042
8 2040 1926 2039 2150 1929 1813 1928 2043
8 2042 1927 2041 2151 1931 1814 1930 2044
8 2043 1928 2042 2152 1932 1815 1931 2045
8 2045 1931 2044 2153 1934 1818 1933 2046
8 2155 2047 1936 2048 2086 1976 1864 1977
8 2063 1949 1833 1950 2155 2047 1936 2048
8 2156 2048 1937 2049 2087 1977 1865 1978
8 2064 1950 1834 1951 2156 2048 1937 2049
8 2051 1939 1829 1944 2160 2053 1946 2058
8 2052 1940 2035 2144 2160 2053 1939 2051
8 2053 1942 1831 1946 2163 2057 1948 2060
8 2055 1943 1827 1940 2163 2057 1942 2053
8 2055 1943 2056 2164 1940 1827 1941 2054
8 2059 1947 1849 1966 2167 2060 1965 2078
8 2059 1947 2060 2167 1945 1830 1946 2058
8 2077 1964 2061 2168 1965 1848 1948 2060
8 2070 1963 1847 1959 2170 2062 1949 2063
8 2065 1959 1843 1952 2171 2063 1950 2064
8 2173 2072 1958 2066 2065 1959 1843 1952
8 1953 1842 1958 2066 2067 1957 2071 2174
8 2068 1956 2069 2175 1967 1859 1973 2079
8 2067 1957 2069 2175 1955 1841 1956 2068
8 1845 1957 2069 1960 1961 2071 2176 2073
8 2069 1960 2073 2176 1973 1862 1975 2083
8 2070 1963 2075 2177 1959 1847 1962 2072
8 1846 1958 2071 1961 1962 2072 2178 2074
8 2077 1964 1861 1971 2182 2076 1974 2082
8 2081 1971 2077 2183 1969 1857 1965 2078
8 2079 1973 2083 2184 1968 1860 1972 2080
8 2081 1971 1858 1970 2185 2082 1972 2080
8 2083 1975 2084 2186 1972 1863 1974 2082
8 2086 1976 1882 1987 2189 2085 1993 2095
8 2090 1987 2086 2190 1981 1875 1977 2087
8 2191 2094 1986 2088 2103 1998 1888 1997
8 2088 1986 2094 2191 1980 1877 1989 2089
8 1991 2091 2192 2097 1880 1982 2089 1989
8 2093 1988 2095 2193 1984 1876 1987 2090
8 1879 1983 2092 1990 1991 2091 2194 2098
8 1985 1878 1990 2092 2093 1988 2096 2195
8 2097 1996 1886 1989 2196 2099 1992 2094
8 2196 2099 1992 2094 2104 1999 1889 1998
8 1994 2096 1988 1883 2100 2197 2095 1993
8 2096 1994 1884 1990 2198 2101 1995 2098
8 1995 2098 2199 2102 1885 1991 2097 1996
8 2203 2104 1998 2103 2106 2001 1891 2000
8 2107 2002 2105 2204 2001 1892 1999 2104
8 2109 2004 2107 2206 2003 1894 2001 2106
8 2110 2005 2108 2207 2004 1895 2002 2107
8 2112 2007 2110 2209 2006 1897 2004 2109
8 2113 2008 2111 2210 2007 1898 2005 2110
8 2120 2011 2113 2212 2014 1901 2007 2112
8 2117 2009 2114 2213 2011 1899 2008 2113
8 2219 2116 2009 2117 2119 2010 1899 2011
8 2222 2118 2010 2119 2122 2012 1900 2013
8 2223 2119 2011 2120 2123 2013 1901 2014
8 2016 1902 2015 2125 2122 2012 2121 2225
8 2126 2016 2122 2226 2017 1903 2013 2123
8 2019 1905 2018 2128 2125 2015 2124 2228
8 2020 1906 2019 2129 2126 2016 2125 2229
8 2022 1908 2021 2131 2128 2018 2127 2231
8 2023 1909 2022 2132 2129 2019 2128 2232
8 2025 1911 2024 2134 2131 2021 2130 2234
8 2026 1912 2025 2135 2132 2022 2131 2235
8 1914 2028 2134 2024 2027 2136 2236 2133
8 2029 1915 2028 2137 2135 2025 2134 2237
8 2030 1918 2031 2138 2137 2028 2136 2238
8 2157 2050 2139 2240 2054 1941 2033 2140
8 2052 1940 2054 2161 2144 2035 2140 2242
8 2140 2033 2141 2243 2035 1923 2034 2143
8 2143 2034 2142 2246 2037 1924 2036 2146
8 2144 2035 2143 2247 2051 1939 2037 2147
8 2146 2036 2145 2249 2039 1925 2038 2149
8 2147 2037 2146 2250 2040 1926 2039 2150
8 2149 2038 2148 2251 2042 1927 2041 2151
8 2150 2039 2149 2252 2043 1928 2042 2152
8 2152 2042 2151 2253 2045 1931 2044 2153
8 2255 2154 2047 2155 2189 2085 1976 2086
8 2170 2062 1949 2063 2255 2154 2047 2155
8 2256 2155 2048 2156 2190 2086 1977 2087
8 2171 2063 1950 2064 2256 2155 2048 2156
8 2258 2159 2050 2157 2164 2056 1941 2054
8 2160 2053 1946 2058 2262 2163 2060 2167
8 2162 2055 1940 2052 2262 2163 2053 2160
8 2162 2055 2164 2263 2052 1940 2054 2161
8 2163 2057 1948 2060 2264 2165 2061 2168
8 2055 1943 2057 2163 2164 2056 2165 2264
8 2182 2076 2166 2268 2077 1964 2061 2168
8 2183 2077 2168 2269 2078 1965 2060 2167
8 2070 1963 2062 2170 2177 2075 2169 2271
8 2172 2070 1959 2065 2272 2170 2063 2171
8 2172 2070 2177 2273 2065 1959 2072 2173
8 2066 1958 2072 2173 2174 2071 2178 2274
8 2067 1957 2071 2174 2175 2069 2176 2275
8 2175 2069 2176 2275 2079 1973 2083 2184
8 2071 1961 2074 2178 2176 2073 2179 2276
8 2176 2073 2179 2276 2083 1975 2084 2186
8 2072 1962 2075 2177 2178 2074 2180 2277
8 2182 2076 1974 2082 2280 2181 2084 2186
8 2183 2077 1971 2081 2281 2182 2082 2185
8 2184 2083 2186 2282 2080 1972 2082 2185
8 2189 2085 1993 2095 2285 2188 2100 2197
8 2190 2086 1987 2090 2286 2189 2095 2193
8 2192 2097 1989 2089 2287 2196 2094 2191
8 2287 2196 2094 2191 2203 2104 1998 2103
8 2194 2098 1991 2091 2288 2199 2097 2192
8 2195 2096 2197 2289 2093 1988 2095 2193
8 2096 2195 2290 2198 1990 2092 2194 2098
8 2097 1996 2099 2196 2199 2102 2200 2291
8 2196 2099 1999 2104 2291 2200 2105 2204
8 2100 2197 2292 2201 1994 2096 2198 2101
8 1995 2098 2198 2101 2102 2199 2293 2202
8 2206 2107 2204 2296 2106 2001 2104 2203
8 2207 2108 2205 2297 2107 2002 2105 2204
8 2209 2110 2207 2299 2109 2004 2107 2206
8 2210 2111 2208 2300 2110 2005 2108 2207
8 2212 2113 2210 2302 2112 2007 2110 2209
8 2213 2114 2211 2303 2113 2008 2111 2210
8 2220 2117 2213 2305 2120 2011 2113 2212
8 2216 2115 2214 2306 2117 2009 2114 2213
8 2216 2115 2009 2117 2311 2217 2116 2219
8 2219 2116 2010 2119 2314 2218 2118 2222
8 2315 2219 2117 2220 2223 2119 2011 2120
8 2122 2012 2121 2225 2222 2118 2221 2317
8 2318 2222 2119 2223 2226 2122 2013 2123
8 2125 2015 2124 2228 2225 2121 2224 2320
8 2126 2016 2125 2229 2226 2122 2225 2321
8 2128 2018 2127 2231 2228 2124 2227 2323
8 2129 2019 2128 2232 2229 2125 2228 2324
8 2131 2021 2130 2234 2231 2127 2230 2326
8 2132 2022 2131 2235 2232 2128 2231 2327
8 2134 2024 2133 2236 2234 2130 2233 2328
8 2135 2025 2134 2237 2235 2131 2234 2329
8 2137 2028 2136 2238 2237 2134 2236 2330
8 2157 2050 2158 2259 2240 2139 2239 2332
8 2257 2157 2240 2334 2161 2054 2140 2242
8 2240 2139 2241 2335 2140 2033 2141 2243
8 2242 2140 2243 2337 2144 2035 2143 2247
8 2243 2141 2244 2338 2143 2034 2142 2246
8 2246 2142 2245 2341 2146 2036 2145 2249
8 2247 2143 2246 2342 2147 2037 2146 2250
8 2249 2145 2248 2343 2149 2038 2148 2251
8 2250 2146 2249 2344 2150 2039 2149 2252
8 2252 2149 2251 2345 2152 2042 2151 2253
8 2169 2271 2347 2254 2062 2170 2255 2154
8 2189 2085 2188 2285 2255 2154 2254 2347
8 2348 2255 2155 2256 2286 2189 2086 2190
8 2272 2170 2063 2171 2348 2255 2155 2256
8 2349 2258 2157 2257 2263 2164 2054 2161
8 2258 2159 2261 2351 2157 2050 2158 2259
8 2258 2159 2056 2164 2351 2261 2165 2264
8 2262 2163 2060 2167 2355 2264 2168 2269
8 2162 2055 2163 2262 2263 2164 2264 2355
8 2357 2266 2165 2264 2268 2166 2061 2168
8 2268 2166 2076 2182 2361 2267 2181 2280
8 2281 2182 2268 2362 2183 2077 2168 2269
8 2271 2169 2270 2364 2177 2075 2180 2277
8 2172 2070 2170 2272 2273 2177 2271 2365
8 2072 2173 2274 2178 2177 2273 2366 2277
8 2071 2174 2275 2176 2178 2274 2367 2276
8 2275 2176 2276 2367 2184 2083 2186 2282
8 2283 2187 2084 2186 2368 2278 2179 2276
8 2178 2074 2180 2277 2276 2179 2278 2368
8 2283 2187 2279 2370 2186 2084 2181 2280
8 2281 2182 2082 2185 2371 2280 2186 2282
8 2188 2285 2374 2284 2100 2197 2292 2201
8 2286 2189 2095 2193 2375 2285 2197 2289
8 2192 2097 2196 2287 2288 2199 2291 2376
8 2287 2196 2104 2203 2376 2291 2204 2296
8 2194 2098 2199 2288 2290 2198 2293 2377
8 2289 2197 2096 2195 2378 2292 2198 2290
8 2291 2200 2105 2204 2379 2294 2205 2297
8 2199 2102 2200 2291 2293 2202 2294 2379
8 2198 2101 2202 2293 2292 2201 2295 2380
8 2299 2207 2297 2383 2206 2107 2204 2296
8 2300 2208 2298 2384 2207 2108 2205 2297
8 2302 2210 2300 2386 2209 2110 2207 2299
8 2303 2211 2301 2387 2210 2111 2208 2300
8 2305 2213 2303 2389 2212 2113 2210 2302
8 2306 2214 2304 2390 2213 2114 2211 2303
8 2310 2216 2306 2392 2220 2117 2213 2305
8 2308 2215 2307 2393 2216 2115 2214 2306
8 2308 2215 2115 2216 2396 2309 2217 2311
8 2310 2216 2117 2220 2398 2311 2219 2315
8 2311 2217 2116 2219 2399 2312 2218 2314
8 2314 2218 2118 2222 2402 2313 2221 2317
8 2315 2219 2119 2223 2403 2314 2222 2318
8 2225 2121 2224 2320 2317 2221 2316 2405
8 2226 2122 2225 2321 2318 2222 2317 2406
8 2228 2124 2227 2323 2320 2224 2319 2408
8 2229 2125 2228 2324 2321 2225 2320 2409
8 2231 2127 2230 2326 2323 2227 2322 2411
8 2232 2128 2231 2327 2324 2228 2323 2412
8 2234 2130 2233 2328 2326 2230 2325 2413
8 2235 2131 2234 2329 2327 2231 2326 2414
8 2237 2134 2236 2330 2329 2234 2328 2415
8 2259 2158 2260 2352 2332 2239 2331 2417
8 2257 2157 2259 2350 2334 2240 2332 2419
8 2240 2139 2239 2332 2335 2241 2333 2420
8 2334 2240 2335 2422 2242 2140 2243 2337
8 2335 2241 2336 2423 2243 2141 2244 2338
8 2337 2243 2338 2425 2247 2143 2246 2342
8 2338 2244 2339 2426 2246 2142 2245 2341
8 2341 2245 2340 2428 2249 2145 2248 2343
8 2342 2246 2341 2429 2250 2146 2249 2344
8 2344 2249 2343 2430 2252 2149 2251 2345
8 2188 2285 2347 2254 2284 2374 2432 2346
8 2347 2254 2346 2432 2271 2169 2270 2364
8 2365 2271 2170 2272 2433 2347 2255 2348
8 2286 2189 2285 2375 2348 2255 2347 2433
8 2349 2258 2351 2435 2257 2157 2259 2350
8 2349 2258 2164 2263 2435 2351 2264 2355
8 2259 2158 2261 2351 2352 2260 2354 2437
8 2356 2265 2354 2437 2264 2165 2261 2351
8 2441 2357 2264 2355 2362 2268 2168 2269
8 2356 2265 2165 2264 2442 2358 2266 2357
8 2443 2359 2266 2357 2361 2267 2166 2268
8 2370 2279 2360 2446 2280 2181 2267 2361
8 2362 2268 2182 2281 2447 2361 2280 2371
8 2180 2277 2368 2278 2270 2364 2449 2363
8 2271 2365 2273 2177 2364 2450 2366 2277
8 2372 2283 2186 2282 2451 2368 2276 2367
8 2178 2274 2367 2276 2277 2366 2451 2368
8 2283 2187 2278 2368 2370 2279 2369 2452
8 2372 2283 2370 2453 2282 2186 2280 2371
8 2284 2374 2455 2373 2201 2292 2380 2295
8 2375 2285 2197 2289 2456 2374 2292 2378
8 2376 2291 2204 2296 2457 2379 2297 2383
8 2288 2199 2291 2376 2377 2293 2379 2457
8 2198 2290 2378 2292 2293 2377 2458 2380
8 2293 2202 2294 2379 2380 2295 2381 2459
8 2384 2298 2381 2459 2297 2205 2294 2379
8 2386 2300 2384 2463 2299 2207 2297 2383
8 2387 2301 2385 2464 2300 2208 2298 2384
8 2389 2303 2387 2466 2302 2210 2300 2386
8 2390 2304 2388 2467 2303 2211 2301 2387
8 2392 2306 2390 2469 2305 2213 2303 2389
8 2393 2307 2391 2470 2306 2214 2304 2390
8 2395 2308 2393 2472 2310 2216 2306 2392
8 2308 2215 2309 2396 2393 2307 2394 2473
8 2395 2308 2216 2310 2475 2396 2311 2398
8 2396 2309 2217 2311 2476 2397 2312 2399
8 2398 2311 2219 2315 2478 2399 2314 2403
8 2399 2312 2218 2314 2479 2400 2313 2402
8 2317 2221 2316 2405 2402 2313 2401 2482
8 2403 2314 2222 2318 2483 2402 2317 2406
8 2320 2224 2319 2408 2405 2316 2404 2485
8 2321 2225 2320 2409 2406 2317 2405 2486
8 2323 2227 2322 2411 2408 2319 2407 2488
8 2324 2228 2323 2412 2409 2320 2408 2489
8 2326 2230 2325 2413 2411 2322 2410 2490
8 2327 2231 2326 2414 2412 2323 2411 2491
8 2329 2234 2328 2415 2414 2326 2413 2492
8 2417 2331 2260 2352 2494 2416 2353 2438
8 2350 2259 2352 2436 2419 2332 2417 2496
8 2332 2239 2331 2417 2420 2333 2418 2497
8 2334 2240 2332 2419 2422 2335 2420 2499
8 2420 2333 2421 2500 2335 2241 2336 2423
8 2422 2335 2423 2502 2337 2243 2338 2425
8 2423 2336 2424 2503 2338 2244 2339 2426
8 2425 2338 2426 2505 2342 2246 2341 2429
8 2426 2339 2427 2506 2341 2245 2340 2428
8 2429 2341 2428 2507 2344 2249 2343 2430
8 2432 2346 2284 2374 2509 2431 2373 2455
8 2432 2346 2431 2509 2364 2270 2363 2449
8 2375 2285 2374 2456 2433 2347 2432 2510
8 2347 2433 2365 2271 2432 2510 2450 2364
8 2350 2259 2351 2435 2436 2352 2437 2514
8 2440 2356 2437 2514 2355 2264 2351 2435
8 2352 2260 2354 2437 2438 2353 2439 2516
8 2356 2265 2358 2442 2437 2354 2439 2516
8 2440 2356 2264 2355 2518 2442 2357 2441
8 2519 2443 2357 2441 2447 2361 2268 2362
8 2443 2359 2444 2520 2357 2266 2358 2442
8 2443 2359 2267 2361 2520 2444 2360 2446
8 2446 2360 2279 2370 2523 2445 2369 2452
8 2453 2370 2446 2524 2371 2280 2361 2447
8 2449 2363 2448 2525 2368 2278 2369 2452
8 2366 2277 2364 2450 2451 2368 2449 2526
8 2372 2283 2368 2451 2453 2370 2452 2527
8 2455 2373 2295 2380 2529 2454 2382 2460
8 2456 2374 2292 2378 2530 2455 2380 2458
8 2377 2293 2379 2457 2458 2380 2459 2531
8 2463 2384 2459 2531 2383 2297 2379 2457
8 2533 2461 2382 2460 2459 2381 2295 2380
8 2464 2385 2461 2533 2384 2298 2381 2459
8 2466 2387 2464 2537 2386 2300 2384 2463
8 2467 2388 2465 2538 2387 2301 2385 2464
8 2469 2390 2467 2540 2389 2303 2387 2466
8 2470 2391 2468 2541 2390 2304 2388 2467
8 2472 2393 2470 2543 2392 2306 2390 2469
8 2393 2307 2394 2473 2470 2391 2471 2544
8 2395 2308 2396 2475 2472 2393 2473 2546
8 2396 2309 2397 2476 2473 2394 2474 2547
8 2475 2396 2311 2398 2549 2476 2399 2478
8 2476 2397 2312 2399 2550 2477 2400 2479
8 2478 2399 2314 2403 2552 2479 2402 2483
8 2479 2400 2313 2402 2553 2480 2401 2482
8 2405 2316 2404 2485 2482 2401 2481 2556
8 2406 2317 2405 2486 2483 2402 2482 2557
8 2408 2319 2407 2488 2485 2404 2484 2559
8 2409 2320 2408 2489 2486 2405 2485 2560
8 2411 2322 2410 2490 2488 2407 2487 2561
8 2412 2323 2411 2491 2489 2408 2488 2562
8 2414 2326 2413 2492 2491 2411 2490 2563
8 2513 2434 2493 2565 2438 2353 2416 2494
8 2496 2417 2352 2436 2567 2494 2438 2515
8 2494 2416 2495 2568 2417 2331 2418 2497
8 2419 2332 2417 2496 2499 2420 2497 2570
8 2497 2418 2498 2571 2420 2333 2421 2500
8 2499 2420 2500 2573 2422 2335 2423 2502
8 2500 2421 2501 2574 2423 2336 2424 2503
8 2502 2423 2503 2576 2425 2338 2426 2505
8 2503 2424 2504 2577 2426 2339 2427 2506
8 2505 2426 2506 2578 2429 2341 2428 2507
8 2509 2431 2373 2455 2580 2508 2454 2529
8 2509 2431 2508 2580 2449 2363 2448 2525
8 2432 2510 2581 2509 2374 2456 2530 2455
8 2432 2510 2450 2364 2509 2581 2526 2449
8 2583 2511 2434 2513 2516 2439 2353 2438
8 2436 2352 2437 2514 2515 2438 2516 2588
8 2440 2356 2442 2518 2514 2437 2516 2588
8 2442 2358 2444 2520 2516 2439 2517 2589
8 2519 2443 2520 2591 2441 2357 2442 2518
8 2519 2443 2361 2447 2591 2520 2446 2524
8 2446 2360 2445 2523 2520 2444 2521 2592
8 2525 2448 2522 2593 2452 2369 2445 2523
8 2524 2446 2370 2453 2594 2523 2452 2527
8 2526 2449 2525 2595 2451 2368 2452 2527
8 2534 2462 2528 2597 2460 2382 2454 2529
8 2530 2455 2380 2458 2598 2529 2460 2532
8 2599 2533 2460 2532 2531 2459 2380 2458
8 2537 2464 2533 2599 2463 2384 2459 2531
8 2534 2462 2382 2460 2601 2535 2461 2533
8 2538 2465 2535 2601 2464 2385 2461 2533
8 2540 2467 2538 2604 2466 2387 2464 2537
8 2541 2468 2539 2605 2467 2388 2465 2538
8 2543 2470 2541 2607 2469 2390 2467 2540
8 2470 2391 2471 2544 2541 2468 2542 2608
8 2472 2393 2473 2546 2543 2470 2544 2610
8 2473 2394 2474 2547 2544 2471 2545 2611
8 2475 2396 2476 2549 2546 2473 2547 2613
8 2476 2397 2477 2550 2547 2474 2548 2614
8 2549 2476 2399 2478 2616 2550 2479 2552
8 2479 2400 2480 2553 2550 2477 2551 2617
8 2552 2479 2402 2483 2619 2553 2482 2557
8 2482 2401 2481 2556 2553 2480 2554 2620
8 2485 2404 2484 2559 2556 2481 2555 2623
8 2486 2405 2485 2560 2557 2482 2556 2624
8 2488 2407 2487 2561 2559 2484 2558 2625
8 2489 2408 2488 2562 2560 2485 2559 2626
8 2491 2411 2490 2563 2562 2488 2561 2627
8 2513 2434 2512 2585 2565 2493 2564 2630
8 2586 2513 2565 2632 2515 2438 2494 2567
8 2565 2493 2566 2633 2494 2416 2495 2568
8 2567 2494 2568 2635 2496 2417 2497 2570
8 2568 2495 2569 2636 2497 2418 2498 2571
8 2570 2497 2571 2638 2499 2420 2500 2573
8 2571 2498 2572 2639 2500 2421 2501 2574
8 2573 2500 2574 2641 2502 2423 2503 2576
8 2574 2501 2575 2642 2503 2424 2504 2577
8 2576 2503 2577 2643 2505 2426 2506 2578
8 2597 2528 2579 2645 2529 2454 2508 2580
8 2580 2508 2579 2645 2525 2448 2522 2593
8 2581 2509 2455 2530 2646 2580 2529 2598
8 2581 2509 2580 2646 2526 2449 2525 2595
8 2583 2511 2582 2648 2513 2434 2512 2585
8 2583 2511 2439 2516 2648 2582 2517 2589
8 2649 2583 2513 2586 2588 2516 2438 2515
8 2589 2517 2444 2520 2653 2587 2521 2592
8 2518 2442 2520 2591 2588 2516 2589 2654
8 2593 2522 2590 2655 2523 2445 2521 2592
8 2524 2446 2523 2594 2591 2520 2592 2656
8 2595 2525 2593 2657 2527 2452 2523 2594
8 2602 2536 2596 2659 2534 2462 2528 2597
8 2600 2534 2597 2660 2532 2460 2529 2598
8 2600 2534 2460 2532 2661 2601 2533 2599
8 2604 2538 2601 2661 2537 2464 2533 2599
8 2602 2536 2462 2534 2663 2603 2535 2601
8 2601 2535 2465 2538 2663 2603 2539 2605
8 2607 2541 2605 2665 2540 2467 2538 2604
8 2608 2542 2606 2666 2541 2468 2539 2605
8 2543 2470 2544 2610 2607 2541 2608 2668
8 2544 2471 2545 2611 2608 2542 2609 2669
8 2546 2473 2547 2613 2610 2544 2611 2671
8 2547 2474 2548 2614 2611 2545 2612 2672
8 2549 2476 2550 2616 2613 2547 2614 2674
8 2550 2477 2551 2617 2614 2548 2615 2675
8 2552 2479 2553 2619 2616 2550 2617 2677
8 2553 2480 2554 2620 2617 2551 2618 2678
8 2557 2482 2556 2624 2619 2553 2620 2680
8 2556 2481 2555 2623 2620 2554 2621 2681
8 2559 2484 2558 2625 2623 2555 2622 2683
8 2560 2485 2559 2626 2624 2556 2623 2684
8 2562 2488 2561 2627 2626 2559 2625 2685
8 2690 2629 2564 2630 2650 2584 2512 2585
8 2586 2513 2585 2651 2632 2565 2630 2691
8 2630 2564 2631 2692 2565 2493 2566 2633
8 2632 2565 2633 2694 2567 2494 2568 2635
8 2633 2566 2634 2695 2568 2495 2569 2636
8 2635 2568 2636 2697 2570 2497 2571 2638
8 2636 2569 2637 2698 2571 2498 2572 2639
8 2638 2571 2639 2700 2573 2500 2574 2641
8 2639 2572 2640 2701 2574 2501 2575 2642
8 2641 2574 2642 2702 2576 2503 2577 2643
8 2597 2528 2596 2659 2645 2579 2644 2704
8 2645 2579 2644 2704 2593 2522 2590 2655
8 2660 2597 2645 2705 2598 2529 2580 2646
8 2646 2580 2645 2705 2595 2525 2593 2657
8 2650 2584 2512 2585 2707 2647 2582 2648
8 2648 2582 2517 2589 2707 2647 2587 2653
8 2649 2583 2648 2708 2586 2513 2585 2651
8 2649 2583 2516 2588 2708 2648 2589 2654
8 2655 2590 2652 2710 2592 2521 2587 2653
8 2654 2589 2520 2591 2711 2653 2592 2656
8 2657 2593 2655 2712 2594 2523 2592 2656
8 2602 2536 2603 2663 2659 2596 2658 2714
8 2662 2602 2659 2715 2600 2534 2597 2660
8 2662 2602 2534 2600 2717 2663 2601 2661
8 2661 2601 2538 2604 2717 2663 2605 2665
8 2666 2606 2664 2718 2605 2539 2603 2663
8 2668 2608 2666 2720 2607 2541 2605 2665
8 2608 2542 2609 2669 2666 2606 2667 2721
8 2610 2544 2611 2671 2668 2608 2669 2723
8 2611 2545 2612 2672 2669 2609 2670 2724
8 2613 2547 2614 2674 2671 2611 2672 2726
8 2614 2548 2615 2675 2672 2612 2673 2727
8 2616 2550 2617 2677 2674 2614 2675 2729
8 2617 2551 2618 2678 2675 2615 2676 2730
8 2619 2553 2620 2680 2677 2617 2678 2732
8 2620 2554 2621 2681 2678 2618 2679 2733
8 2624 2556 2623 2684 2680 2620 2681 2735
8 2681 2621 2555 2623 2736 2682 2622 2683
8 2626 2559 2625 2685 2684 2623 2683 2737
8 2688 2628 2584 2650 2740 2686 2647 2707
8 2688 2628 2687 2742 2650 2584 2629 2690
8 2690 2629 2689 2745 2630 2564 2631 2692
8 2746 2690 2630 2691 2709 2650 2585 2651
8 2691 2630 2692 2747 2632 2565 2633 2694
8 2692 2631 2693 2748 2633 2566 2634 2695
8 2694 2633 2695 2750 2635 2568 2636 2697
8 2695 2634 2696 2751 2636 2569 2637 2698
8 2697 2636 2698 2753 2638 2571 2639 2700
8 2698 2637 2699 2754 2639 2572 2640 2701
8 2700 2639 2701 2755 2641 2574 2642 2702
8 2659 2596 2658 2714 2704 2644 2703 2757
8 2704 2644 2703 2757 2655 2590 2652 2710
8 2660 2597 2659 2715 2705 2645 2704 2758
8 2705 2645 2704 2758 2657 2593 2655 2712
8 2759 2706 2647 2707 2710 2652 2587 2653
8 2709 2650 2585 2651 2760 2707 2648 2708
8 2708 2648 2589 2654 2760 2707 2653 2711
8 2712 2655 2710 2761 2656 2592 2653 2711
8 2763 2713 2658 2714 2718 2664 2603 2663
8 2662 2602 2663 2717 2715 2659 2714 2764
8 2720 2666 2718 2767 2665 2605 2663 2717
8 2768 2719 2664 2718 2721 2667 2606 2666
8 2668 2608 2669 2723 2720 2666 2721 2770
8 2669 2609 2670 2724 2721 2667 2722 2771
8 2671 2611 2672 2726 2723 2669 2724 2773
8 2672 2612 2673 2727 2724 2670 2725 2774
8 2674 2614 2675 2729 2726 2672 2727 2776
8 2675 2615 2676 2730 2727 2673 2728 2777
8 2677 2617 2678 2732 2729 2675 2730 2779
8 2678 2618 2679 2733 2730 2676 2731 2780
8 2680 2620 2681 2735 2732 2678 2733 2782
8 2733 2679 2621 2681 2783 2734 2682 2736
8 2735 2681 2623 2684 2784 2736 2683 2737
8 2740 2686 2647 2707 2787 2738 2706 2759
8 2688 2628 2686 2740 2742 2687 2739 2789
8 2743 2688 2650 2709 2790 2740 2707 2760
8 2742 2687 2741 2792 2690 2629 2689 2745
8 2743 2688 2742 2793 2709 2650 2690 2746
8 2745 2689 2744 2795 2692 2631 2693 2748
8 2746 2690 2745 2796 2691 2630 2692 2747
8 2747 2692 2748 2797 2694 2633 2695 2750
8 2748 2693 2749 2798 2695 2634 2696 2751
8 2750 2695 2751 2800 2697 2636 2698 2753
8 2751 2696 2752 2801 2698 2637 2699 2754
8 2753 2698 2754 2802 2700 2639 2701 2755
8 2763 2713 2756 2804 2714 2658 2703 2757
8 2759 2706 2652 2710 2804 2756 2703 2757
8 2715 2659 2714 2764 2758 2704 2757 2805
8 2758 2704 2757 2805 2712 2655 2710 2761
8 2806 2759 2707 2760 2761 2710 2653 2711
8 2765 2716 2762 2808 2718 2664 2713 2763
8 2809 2763 2714 2764 2767 2718 2663 2717
8 2765 2716 2664 2718 2811 2766 2719 2768
8 2813 2768 2718 2767 2770 2721 2666 2720
8 2814 2769 2719 2768 2771 2722 2667 2721
8 2723 2669 2724 2773 2770 2721 2771 2816
8 2724 2670 2725 2774 2771 2722 2772 2817
8 2726 2672 2727 2776 2773 2724 2774 2819
8 2727 2673 2728 2777 2774 2725 2775 2820
8 2729 2675 2730 2779 2776 2727 2777 2822
8 2730 2676 2731 2780 2777 2728 2778 2823
8 2732 2678 2733 2782 2779 2730 2780 2825
8 2780 2731 2679 2733 2826 2781 2734 2783
8 2782 2733 2681 2735 2827 2783 2736 2784
8 2830 2785 2738 2787 2804 2756 2706 2759
8 2789 2739 2686 2740 2832 2786 2738 2787
8 2790 2740 2707 2760 2833 2787 2759 2806
8 2742 2687 2739 2789 2792 2741 2788 2835
8 2743 2688 2740 2790 2793 2742 2789 2836
8 2792 2741 2791 2838 2745 2689 2744 2795
8 2793 2742 2792 2839 2746 2690 2745 2796
8 2795 2744 2794 2841 2748 2693 2749 2798
8 2796 2745 2795 2842 2747 2692 2748 2797
8 2797 2748 2798 2843 2750 2695 2751 2800
8 2798 2749 2799 2844 2751 2696 2752 2801
8 2800 2751 2801 2845 2753 2698 2754 2802
8 2808 2762 2803 2847 2763 2713 2756 2804
8 2809 2763 2804 2848 2764 2714 2757 2805
8 2806 2759 2710 2761 2848 2804 2757 2805
8 2765 2716 2766 2811 2808 2762 2807 2850
8 2810 2765 2808 2851 2767 2718 2763 2809
8 2810 2765 2718 2767 2852 2811 2768 2813
8 2811 2766 2719 2768 2853 2812 2769 2814
8 2855 2814 2768 2813 2816 2771 2721 2770
8 2856 2815 2769 2814 2817 2772 2722 2771
8 2773 2724 2774 2819 2816 2771 2817 2858
8 2774 2725 2775 2820 2817 2772 2818 2859
8 2776 2727 2777 2822 2819 2774 2820 2861
8 2777 2728 2778 2823 2820 2775 2821 2862
8 2779 2730 2780 2825 2822 2777 2823 2864
8 2823 2778 2731 2780 2865 2824 2781 2826
8 2825 2780 2733 2782 2866 2826 2783 2827
8 2869 2828 2785 2830 2847 2803 2756 2804
8 2871 2829 2786 2832 2830 2785 2738 2787
8 2872 2830 2787 2833 2848 2804 2759 2806
8 2789 2739 2786 2832 2835 2788 2831 2874
8 2836 2789 2740 2790 2875 2832 2787 2833
8 2792 2741 2788 2835 2838 2791 2834 2877
8 2793 2742 2789 2836 2839 2792 2835 2878
8 2838 2791 2837 2880 2795 2744 2794 2841
8 2839 2792 2838 2881 2796 2745 2795 2842
8 2841 2794 2840 2882 2798 2749 2799 2844
8 2842 2795 2841 2883 2797 2748 2798 2843
8 2843 2798 2844 2884 2800 2751 2801 2845
8 2886 2846 2803 2847 2850 2807 2762 2808
8 2851 2808 2847 2887 2809 2763 2804 2848
8 2850 2807 2766 2811 2889 2849 2812 2853
8 2810 2765 2811 2852 2851 2808 2850 2890
8 2852 2811 2768 2813 2891 2853 2814 2855
8 2853 2812 2769 2814 2892 2854 2815 2856
8 2894 2856 2814 2855 2858 2817 2771 2816
8 2817 2772 2818 2859 2856 2815 2857 2895
8 2819 2774 2820 2861 2858 2817 2859 2897
8 2820 2775 2821 2862 2859 2818 2860 2898
8 2822 2777 2823 2864 2861 2820 2862 2900
8 2823 2778 2824 2865 2862 2821 2863 2901
8 2864 2823 2780 2825 2902 2865 2826 2866
8 2904 2867 2828 2869 2886 2846 2803 2847
8 2869 2828 2868 2906 2830 2785 2829 2871
8 2907 2869 2830 2872 2887 2847 2804 2848
8 2871 2829 2870 2909 2832 2786 2831 2874
8 2910 2871 2832 2875 2872 2830 2787 2833
8 2835 2788 2831 2874 2877 2834 2873 2912
8 2836 2789 2832 2875 2878 2835 2874 2913
8 2877 2834 2876 2915 2838 2791 2837 2880
8 2839 2792 2835 2878 2881 2838 2877 2916
8 2880 2837 2879 2917 2841 2794 2840 2882
8 2881 2838 2880 2918 2842 2795 2841 2883
8 2883 2841 2882 2919 2843 2798 2844 2884
8 2921 2885 2846 2886 2889 2849 2807 2850
8 2922 2886 2847 2887 2890 2850 2808 2851
8 2889 2849 2812 2853 2924 2888 2854 2892
8 2890 2850 2811 2852 2925 2889 2853 2891
8 2891 2853 2814 2855 2926 2892 2856 2894
8 2892 2854 2815 2856 2927 2893 2857 2895
8 2858 2817 2859 2897 2894 2856 2895 2929
8 2859 2818 2860 2898 2895 2857 2896 2930
8 2861 2820 2862 2900 2897 2859 2898 2932
8 2862 2821 2863 2901 2898 2860 2899 2933
8 2864 2823 2865 2902 2900 2862 2901 2934
8 2904 2867 2846 2886 2936 2903 2885 2921
8 2904 2867 2903 2936 2869 2828 2868 2906
8 2937 2904 2869 2907 2922 2886 2847 2887
8 2906 2868 2905 2939 2871 2829 2870 2909
8 2907 2869 2906 2940 2872 2830 2871 2910
8 2909 2870 2908 2942 2874 2831 2873 2912
8 2910 2871 2909 2943 2875 2832 2874 2913
8 2912 2873 2911 2945 2877 2834 2876 2915
8 2878 2835 2874 2913 2916 2877 2912 2946
8 2915 2876 2914 2947 2880 2837 2879 2917
8 2916 2877 2915 2948 2881 2838 2880 2918
8 2918 2880 2917 2949 2883 2841 2882 2919
8 2921 2885 2849 2889 2951 2920 2888 2924
8 2952 2921 2886 2922 2925 2889 2850 2890
8 2924 2888 2854 2892 2954 2923 2893 2927
8 2925 2889 2853 2891 2955 2924 2892 2926
8 2926 2892 2856 2894 2956 2927 2895 2929
8 2895 2857 2896 2930 2927 2893 2928 2957
8 2897 2859 2898 2932 2929 2895 2930 2959
8 2898 2860 2899 2933 2930 2896 2931 2960
8 2900 2862 2901 2934 2932 2898 2933 2961
8 2936 2903 2885 2921 2963 2935 2920 2951
8 2936 2903 2935 2963 2906 2868 2905 2939
8 2937 2904 2886 2922 2964 2936 2921 2952
8 2937 2904 2936 2964 2907 2869 2906 2940
8 2939 2905 2938 2966 2909 2870 2908 2942
8 2940 2906 2939 2967 2910 2871 2909 2943
8 2942 2908 2941 2969 2912 2873 2911 2945
8 2943 2909 2942 2970 2913 2874 2912 2946
8 2945 2911 2944 2971 2915 2876 2914 2947
8 2946 2912 2945 2972 2916 2877 2915 2948
8 2948 2915 2947 2973 2918 2880 2917 2949
8 2951 2920 2888 2924 2975 2950 2923 2954
8 2952 2921 2889 2925 2976 2951 2924 2955
8 2927 2893 2928 2957 2954 2923 2953 2978
8 2955 2924 2892 2926 2979 2954 2927 2956
8 2929 2895 2930 2959 2956 2927 2957 2980
8 2930 2896 2931 2960 2957 2928 2958 2981
8 2932 2898 2933 2961 2959 2930 2960 2982
8 2951 2920 2950 2975 2963 2935 2962 2984
8 2963 2935 2962 2984 2939 2905 2938 2966
8 2964 2936 2921 2952 2985 2963 2951 2976
8 2964 2936 2963 2985 2940 2906 2939 2967
8 2966 2938 2965 2987 2942 2908 2941 2969
8 2967 2939 2966 2988 2943 2909 2942 2970
8 2969 2941 2968 2989 2945 2911 2944 2971
8 2970 2942 2969 2990 2946 2912 2945 2972
8 2972 2945 2971 2991 2948 2915 2947 2973
8 2954 2923 2953 2978 2975 2950 2974 2993
8 2976 2951 2924 2955 2994 2975 2954 2979
8 2957 2928 2958 2981 2978 2953 2977 2995
8 2956 2927 2957 2980 2979 2954 2978 2996
8 2959 2930 2960 2982 2980 2957 2981 2997
8 2984 2962 2983 2999 2966 2938 2965 2987
8 2975 2950 2974 2993 2984 2962 2983 2999
8 2976 2951 2975 2994 2985 2963 2984 3000
8 2985 2963 2984 3000 2967 2939 2966 2988
8 2987 2965 2986 3001 2969 2941 2968 2989
8 2988 2966 2987 3002 2970 2942 2969 2990
8 2990 2969 2989 3003 2972 2945 2971 2991
8 2978 2953 2977 2995 2993 2974 2992 3004
8 2979 2954 2978 2996 2994 2975 2993 3005
8 2980 2957 2981 2997 2996 2978 2995 3006
8 2974 2993 2999 2983 2992 3004 3007 2998
8 2983 2999 2987 2965 2998 3007 3001 2986
8 3000 2984 2999 3008 2988 2966 2987 3002
8 2994 2975 2993 3005 3000 2984 2999 3008
8 3002 2987 3001 3009 2990 2969 2989 3003
8 2996 2978 2995 3006 3005 2993 3004 3010
8 3005 2993 3004 3010 3008 2999 3007 3011
8 3008 2999 3007 3011 3002 2987 3001 3009

CELL_TYPES 1910
12
12
12
12
12
12
12
12
12
12
12
12
12
12
12
12
12
12
12
12
12
12
12
12
12
12
12
12
12
12
12
12
12
12
12
12
12
12
12
12
12
12
12
12
12
12
12
12
12
12
12
12
12
12
12
12
12
12
12
12
12
12
12
12
12
12
12
12
12
12
12
12
12
12
12
12
12
12
12
12
12
12
12
12
12
12
12
12
12
12
12
12
12
12
12
12
12
12
12
12
12
12
12
12
12
12
12
12
12
12
12
12
12
12
12
12
12
12
12
12
12
12
12
12
12
12
12
12
12
12
12
12
12
12
12
12
12
12
12
12
12
12
12
12
12
12
12
12
12
12
12
12
12
12
12
12
12
12
12
12
12
12
12
12
12
12
12
12
12
12
12
12
12
12
12
12
12
12
12
12
12
12
12
12
12
12
12
12
12
12
12
12
12
12
12
12
12
12
12
12
12
12
12
12
12
12
12
12
12
12
12
12
12
12
12
12
12
12
12
12
12
12
12
12
12
12
12
12
12
12
12
12
12
12
12
12
12
12
12
12
12
12
12
12
12
12
12
12
12
12
12
12
12
12
12
12
12
12
12
12
12
12
12
12
12
12
12
12
12
12
12
12
12
12
12
12
12
12
12
12
12
12
12
12
12
12
12
12
12
12
12
12
12
12
12
12
12
12
12
12
12
12
12
12
12
12
12
12
12
12
12
12
12
12
12
12
12
12
12
12
12
12
12
12
12
12
12
12
12
12
12
12
12
12
12
12
12
12
12
12
12
12
12
12
12
12
12
12
12
12
12
12
12
12
12
12
12
12
12
12
12
12
12
12
12
12
12
12
12
12
12
12
12
12
12
12
12
12
12
12
12
12
12
12
12
12
12
12
12
12
12
12
12
12
12
12
12
12
12
12
12
12
12
12
12
12
12
12
12
12
12
12
12
12
12
12
12
12
12
12
12
12
12
12
12
12
12
12
12
12
12
12
12
12
12
12
12
12
12
12
12
12
12
12
12
12
12
12
12
12
12
12
12
12
12
12
12
12
12
12
12
12
12
12
12
12
12
12
12
12
12
12
12
12
12
12
12
12
12
12
12
12
12
12
12
12
12
12
12
12
12
12
12
12
12
12
12
12
12
12
12
12
12
12
12
12
12
12
12
12
12
12
12
12
12
12
12
12
12
12
12
12
12
12
12
12
12
12
12
12
12
12
12
12
12
12
12
12
12
12
12
12
12
12
12
12
12
12
12
12
12
12
12
12
12
12
12
12
12
12
12
12
12
12
12
12
12
12
12
12
12
12
12
12
12
12
12
12
12
12
12
12
12
12
12
12
12
12
12
12
12
12
12
12
12
12
12
12
12
12
12
12
12
12
12
12
12
12
12
12
12
12
12
12
12
12
12
12
12
12
12
12
12
12
12
12
12
12
12
12
12
12
12
12
12
12
12
12
12
12
12
12
12
12
12
12
12
12
12
12
12
12
12
12
12
12
12
12
12
12
12
12
12
12
12
12
12
12
12
12
12
12
12
12
12
12
12
12
12
12
12
12
12
12
12
12
12
12
12
12
12
12
12
12
12
12
12
12
12
12
12
12
12
12
12
12
12
12
12
12
12
12
12
12
12
12
12
12
12
12
12
12
12
12
12
12
12
12
12
12
12
12
12
12
12
12
12
12
12
12
12
12
12
12
12
12
12
12
12
12
12
12
12
12
12
12
12
12
12
12
12
12
12
12
12
12
12
12
12
12
12
12
12
12
12
12
12
12
12
12
12
12
12
12
12
12
12
12
12
12
12
12
12
12
12
12
12
12
12
12
12
12
12
12
12
12
12
12
12
12
12
12
12
12
12
12
12
12
12
12
12
12
12
12
12
12
12
12
12
12
12
12
12
12
12
12
12
12
12
12
12
12
12
12
12
12
12
12
12
12
12
12
12
12
12
12
12
12
12
12
12
12
12
12
12
12
12
12
12
12
12
12
12
12
12
12
12
12
12
12
12
12
12
12
12
12
12
12
12
12
12
12
12
12
12
12
12
12
12
12
12
12
12
12
12
12
12
12
12
12
12
12
12
12
12
12
12
12
12
12
12
12
12
12
12
12
12
12
12
12
12
12
12
12
12
12
12
12
12
12
12
12
12
12
12
12
12
12
12
12
12
12
12
12
12
12
12
12
12
12
12
12
12
12
12
12
12
12
12
12
12
12
12
12
12
12
12
12
12
12
12
12
12
12
12
12
12
12
12
12
12
12
12
12
12
12
12
12
12
12
12
12
12
12
12
12
12
12
12
12
12
12
12
12
12
12
12
12
12
12
12
12
12
12
12
12
12
12
12
12
12
12
12
12
12
12
12
12
12
12
12
12
12
12
12
12
12
12
12
12
12
12
12
12
12
12
12
12
12
12
12
12
12
12
12
12
12
12
12
12
12
12
12
12
12
12
12
12
12
12
12
12
12
12
12
12
12
12
12
12
12
12
12
12
12
12
12
12
12
12
12
12
12
12
12
12
12
12
12
12
12
12
12
12
12
12
12
12
12
12
12
12
12
12
12
12
12
12
12
12
12
12
12
12
12
12
12
12
12
12
12
12
12
12
12
12
12
12
12
12
12
12
12
12
12
12
12
12
12
12
12
12
12
12
12
12
12
12
12
12
12
12
12
12
12
12
12
12
12
12
12
12
12
12
12
12
12
12
12
12
12
12
12
12
12
12
12
12
12
12
12
12
12
12
12
12
12
12
12
12
12
12
12
12
12
12
12
12
12
12
12
12
12
12
12
12
12
12
12
12
12
12
12
12
12
12
12
12
12
12
12
12
12
12
12
12
12
12
12
12
12
12
12
12
12
12
12
12
12
12
12
12
12
12
12
12
12
12
12
12
12
12
12
12
12
12
12
12
12
12
12
12
12
12
12
12
12
12
12
12
12
12
12
12
12
12
12
12
12
12
12
12
12
12
12
12
12
12
12
12
12
12
12
12
12
12
12
12
12
12
12
12
12
12
12
12
12
12
12
12
12
12
12
12
12
12
12
12
12
12
12
12
12
12
12
12
12
12
12
12
12
12
12
12
12
12
12
12
12
12
12
12
12
12
12
12
12
12
12
12
12
12
12
12
12
12
12
12
12
12
12
12
12
12
12
12
12
12
12
12
12
12
12
12
12
12
12
12
12
12
12
12
12
12
12
12
12
12
12
12
12
12
12
12
12
12
12
12
12
12
12
12
12
12
12
12
12
12
12
12
12
12
12
12
12
12
12
12
12
12
12
12
12
12
12
12
12
12
12
12
12
12
12
12
12
12
12
12
12
12
12
12
12
12
12
12
12
12
12
12
12
12
12
12
12
12
12
12
12
12
12
12
12
12
12
12
12
12
12
12
12
12
12
12
12
12
12
12
12
12
12
12
12
12
12
12
12
12
12
12
12
12
12
12
12
12
12
12
12
12
12
12
12
12
12
12
12
12
12
12
12
12
12
12
12
12
12
12
12
12
12
12
12
12
12
12
12
12
12
12
12
12
12
12
12
12
12
12
12
12
12
12
12
12
12
12
12
12
12
12
12
12
12
12
12
12
12
12
12
12
12
12
12
12
12
12
12
12
12
12
12
12
12
12
12
12
12
12
12
12
12
12
12
12
12
12
12
12
12
12
12
12
12
12
12
12
12
12
12
12
12
12
12
12
12
12
12
12
12
12
12
12
12
12
12
12
12
12
12
12
12
12
12
12
12
12
12
12
12
12
12
12
12
12
12
12
12
12
12
12
12
12
12
12
12
12
12
12
12
12
12
12
12
12
12
12
12
12
12
12
12
12
12
12
12
12
12
12
12
12
12
12
12
12
12
12
12
12
12
12
12
12
12
12
12
12
12
12
12
12
12
12
12
12
12
12
12
12
12
12
12
12
12
12
12
12
12
12
12
12
12
12
12
12
12
12
12
12
12
12
12
12
12
12
12
12
12
12
12
12
12
12
12
12
12
12
12
12
12
12
12
12
12
12
12
12
12
12
12
12
12
12
12
12
12
12
12
12
12
12
12
12
12
12
12
12
12
12
12
12
12
12
12
12
12
12
12
12
12
12
12
12
12
12
12
12
12
12
12
12
12
12
12
12
12
12
12
12
12
12
12
12
12
12
12
12
12
12
12
12
12
12
12
12
12
12
12
12
12
12
12
12
12
12
12
12
12
12
12
12
12
12
12
12
12
12
12
12
12
12
12
12
12
12
12
12
12
12
12
12
12
12
12
12
12
12
12
12
12
12
12
12
12
12
12
12
12
12
12
12
12
12
12
12
12
12
12
12
12
12
12
12
12
12
12
12
12
12
12
12

POINT_DATA 3012
SCALARS Jp_lamdaP float 4
LOOKUP_TABLE default
0.999494 1 1 0.999494
1 1 1 1
0.999509 1 1 0.999509
0.999436 1 1 0.999436
0.999496 1 1 0.999496
0.999466 1 1 0.999466
1.00842 1.01 1 0.998442
1 1 1 1
1 1 1 1
1 1 1 1
0.999551 1 1 0.999551
1.00436 1.0059 1 0.998469
0.999471 1 1 0.999471
0.999458 1 1 0.999458
0.999515 1 1 0.999515
0.999471 1 1 0.999471
0.999475 1 1 0.999475
0.999521 1 1 0.999521
1.0084 1.00998 1 0.998441
1 1 1 1
0.999423 1 1 0.999423
0.99947 1 1 0.99947
1.00302 1.00469 1 0.998341
1.00743 1.00902 1 0.998431
0.999454 1 1 0.999454
1.00782 1.00941 1 0.998434
1.03343 1.03666 1 0.996879
1 1 1 1
0.999745 1 1 0.999745
0.999757 1 1 0.999757
1 1 1 1
1.003 1.00452 1 0.998478
0.999481 1 1 0.999481
0.999511 1 1 0.999511
1.0089 1.01027 1 0.998642
1 1 1 1
1.0079 1.00921 1 0.998709
1.00024 1.0017 1 0.998548
1.02162 1.02489 1 0.996808
1 1 1 1
1 1 1 1
0.999731 1 1 0.999731
1 1 1 1
0.999476 1 1 0.999476
0.998829 1.00056 1 0.998268
1 1 1 1
1.00194 1.00339 1 0.998552
0.999502 1 1 0.999502
0.999539 1 1 0.999539
0.999478 1 1 0.999478
1.00842 1.00999 1 0.998444
0.999717 1 1 0.999717
0.999455 1 1 0.999455
0.999468 1 1 0.999468
0.999502 1 1 0.999502
1.00275 1.00443 1 0.998333
1.00786 1.00944 1 0.998434
1.00727 1.00886 1 0.998429
1.03372 1.03696 1 0.996869
1 1 1 1
0.999438 1 1 0.999438
0.998937 1.00031 1 0.99863
1.00097 1.00265 1 0.998323
1.00566 1.00728 1 0.998387
1.03477 1.03821 1 0.99669
1.0342 1.03754 1 0.996776
0.999497 1 1 0.999497
1.00185 1.00336 1 0.9985
1.03182 1.035 1 0.996932
1.05376 1.05798 1 0.996014
1 1 1 1
1 1 1 1
1 1 1 1
1.002 1.00352 1 0.998487
1 1 1 1
1 1 1 1
1.00876 1.0104 1 0.998376
0.999825 1 1 0.999825
1.00676 1.00831 1 0.998463
1.00011 1.0013 1.00009 0.998732
1.02275 1.02603 1 0.996804
1 1 1 1
1.00208 1 1.00258 0.999503
1.00712 1.00884 1 0.998289
1.00885 1.01047 1 0.998403
1.03996 1.04368 1 0.99644
0.999687 1 1.00061 0.999081
1.02974 1.03313 1 0.996721
1.01634 1.01938 1.00005 0.996975
1.04097 1.04511 1 0.99604
1 1 1 1
1 1 1 1
1 1 1 1
1 1 1 1
1 1 1 1
0.999739 1 1 0.999739
0.999298 1.00086 1 0.998437
0.999729 1 1 0.999729
1.00273 1.00432 1 0.998416
1 1 1 1
0.998449 1.00014 1 0.998307
1.00012 1.00156 1 0.998564
1.02919 1.03293 1 0.996384
1.0049 1.00633 1 0.998583
1.03686 1.04063 1 0.996374
0.999496 1 1 0.999496
0.999484 1 1 0.999484
0.999477 1 1 0.999477
0.99953 1 1 0.99953
1.00249 1.00417 1 0.998328
1.00712 1.0087 1 0.998429
1.00778 1.00935 1 0.998438
1.03413 1.03739 1 0.996859
1 1 1 1
0.999467 1 1 0.999467
0.99863 1.00028 1 0.998347
1.00065 1.00234 1 0.998313
0.999753 1 1 0.999753
1.00294 1.00436 1 0.998596
1.00541 1.00703 1 0.998383
1.03471 1.03816 1 0.996669
1.03115 1.03434 1 0.99692
1.03489 1.03822 1 0.996793
1.05352 1.05773 1 0.996024
0.998483 1.00015 1 0.998332
0.99968 1.00134 1 0.99834
1.02639 1.02979 1 0.996695
1.03121 1.03467 1 0.996658
1.03588 1.03931 1 0.996708
1.0677 1.07186 1 0.996118
1 1 1 1
1.05762 1.06181 1 0.996051
0.999652 1.00056 1.00046 0.998638
1.02203 1.02527 1 0.996845
1.0503 1.05454 1 0.995975
1.05777 1.06195 1 0.996057
1.00188 1 1.00278 0.999098
1.00672 1 1.00896 0.997783
1 1 1 1
1 1 1 1
1.00883 1.01047 1 0.998381
1 1 1 1
0.999706 1.00071 1.00036 0.99864
1.00589 1.00743 1 0.99847
1.02318 1.02646 1 0.9968
1 1 1 1
1.00218 1 1.00265 0.999528
1.0078 1.00937 1 0.998451
1.00877 1.01023 1 0.998551
1.0391 1.04281 1 0.996438
1.00004 1.00002 1.00107 0.998952
1.02986 1.03324 1 0.996722
1.01424 1.01723 1.00009 0.996971
1.04169 1.04583 1 0.996043
1.00144 1 1.00221 0.999231
1.00231 1 1.0026 0.999704
1.00605 1.00061 1.00728 0.99816
1.0415 1.0453 1 0.996365
1.03662 1.04018 1 0.996577
1.06201 1.06634 1 0.995944
1.00927 1.01094 1.00105 0.997305
1.04864 1.05276 1 0.996093
1.02981 1.03326 1.00057 0.996092
1.04818 1.05242 1 0.995966
1 1 1 1
1 1 1 1
1 1 1 1
1.00215 1 1.00286 0.999296
1 1 1 1
1 1 1 1
1 1 1 1
1.00333 1.00505 1 0.998284
0.999386 1.00108 1 0.998307
1 1 1 1
1 1 1 1
0.998557 1.00025 1 0.998308
1.00044 1.00201 1 0.99843
1.02944 1.03317 1 0.996385
1.00536 1.00708 1 0.998286
1.03611 1.03988 1 0.996372
0.998345 1.00003 1 0.998312
1.02687 1.03061 1 0.996366
1.03239 1.03613 1 0.996394
1.07027 1.07514 0.999258 0.996211
1.04019 1.044 1 0.996352
1.07312 1.07757 0.999712 0.996149
1 1 1 1
0.999497 1 1 0.999497
0.998225 1.0002 1 0.99803
1.00036 1.00206 1 0.998304
1 1 1 1
1.00433 1.00564 1 0.998695
1.00516 1.00679 1 0.998382
1.03463 1.0381 1 0.996649
1.03572 1.03903 1 0.99681
1.03032 1.03352 1 0.996908
1.0531 1.0573 1 0.996033
0.998389 1.00006 1 0.99833
0.999454 1.00113 1 0.99833
1.02655 1.03011 1 0.99655
1.03159 1.03505 1 0.996663
1 1 1 1
1.00053 1.00156 1.00023 0.998739
1.02276 1.02589 1 0.996947
1.03632 1.03975 1 0.9967
1.06791 1.07211 0.999941 0.996133
1.05046 1.0547 1 0.995974
1.05766 1.06182 1 0.996081
1.05734 1.06151 1 0.996067
1.00159 1 1.00251 0.999085
1.00587 1.0003 1.0078 0.997783
1.02566 1.02938 1 0.996388
1.02732 1.03073 1 0.996686
1.06813 1.07269 0.999527 0.996218
1.06739 1.07279 0.998793 0.99617
1.06272 1.06691 0.999913 0.996155
1.06641 1.0733 0.997199 0.996374
1.00046 1 1.00159 0.998868
1.06016 1.06435 0.999828 0.996227
1.01284 1.01573 1.00011 0.997052
1.04483 1.04905 1 0.995975
1.05631 1.06067 1 0.995888
1.05676 1.0608 0.999819 0.996376
1.00416 1.0016 1.0051 0.997471
1.00674 1 1.00861 0.998146
1.006 1.0032 1.00577 0.997037
1.00818 1.00987 1 0.998325
1 1 1 1
1.00199 1 1.00244 0.999553
1.00838 1.00996 1 0.99844
1.03839 1.0421 1 0.996436
1.00024 1 1.0013 0.998947
1.01331 1.01635 1.00004 0.996968
1.02979 1.03318 1 0.996723
1.04329 1.04743 1 0.996045
1.00157 1 1.00231 0.999255
1.00184 1 1.00212 0.999722
1.00624 1.00017 1.00793 0.998159
1.04047 1.04427 1 0.996361
1.03581 1.03937 1 0.996579
1.06222 1.06656 1 0.995937
1.00691 1.00886 1.00076 0.997309
1.04927 1.05339 1 0.99609
1.03386 1.03744 1.00047 0.996082
1.04951 1.05375 1 0.995978
1.00149 1 1.00167 0.999824
1.00539 1.00366 1.00403 0.997697
1.00713 1 1.00853 0.998612
1.00868 1.00461 1.00659 0.997486
1.06657 1.07088 1 0.995974
1.05595 1.06019 1 0.996004
1.0633 1.06754 1 0.99603
1.01977 1.02291 1.00049 0.996444
1.05029 1.05437 1 0.996134
1.04545 1.04816 1.00158 0.995836
1.05975 1.06403 1 0.995977
1.00008 1 1.00065 0.999439
0.999933 1 1 0.999933
1 1 1 1
1 1 1 1
1 1 1 1
1.00241 1 1.00292 0.999491
1 1 1 1
1.00244 1 1.00317 0.999278
1 1 1 1
1.00622 1.00794 1 0.998287
1.00088 1.00258 1 0.998298
1.0358 1.03957 1 0.996371
1.02983 1.03356 1 0.996385
0.998721 1.00041 1 0.99831
1 1 1 1
0.998381 1.00007 1 0.998311
1.02723 1.03097 1 0.996366
1.03256 1.0363 1 0.996393
1.06983 1.07464 0.999314 0.99621
1.03954 1.04335 1 0.996347
1.07272 1.07711 0.999775 0.996147
1.0257 1.02944 1 0.996368
1.06879 1.0735 0.999422 0.996192
1.07204 1.07685 0.999328 0.996201
1.06828 1.07789 0.994493 0.996574
1.07154 1.07583 0.999955 0.996061
1.06907 1.07845 0.994835 0.996455
0.998392 1.00006 1 0.998328
0.999225 1.00091 1 0.998319
1.02679 1.0305 1 0.996406
1.03195 1.0354 1 0.996668
1 1 1 1
1.00115 1.00227 1.00004 0.998844
1.0232 1.02623 1 0.997047
1.03675 1.04019 1 0.996692
1.0681 1.07237 0.999871 0.996148
1.05755 1.06168 1 0.996112
1.05103 1.05528 1 0.995973
1.05706 1.06123 1 0.996076
1.00144 1 1.00237 0.999072
1.00619 1.0009 1.00751 0.997783
1.02569 1.02941 1 0.996387
1.02785 1.03127 1 0.99668
1.06755 1.07248 0.999155 0.996247
1.06871 1.07356 0.999323 0.996151
1.00009 1.00003 1.0012 0.998858
1.01399 1.01682 1.00017 0.997052
1.0449 1.0491 1 0.995996
1.06256 1.06674 0.999951 0.996127
1.06556 1.07297 0.996659 0.996428
1.0557 1.06006 1 0.995886
1.06036 1.0646 0.99978 0.996231
1.05685 1.0609 0.999816 0.996365
1.00516 1.00282 1.00488 0.99747
1.00715 1.00378 1.00635 0.997034
1.00792 1.00004 1.00975 0.998147
1.06748 1.07199 0.999581 0.996202
1.06856 1.0738 0.998873 0.996244
1.06878 1.07706 0.995793 0.996499
1.06713 1.07658 0.994755 0.996452
1.06175 1.06749 0.998242 0.996371
1.0575 1.07026 0.991314 0.996736
1.00418 1.00617 1.00075 0.99727
1.05704 1.06407 0.996833 0.996555
1.03239 1.03632 1 0.996208
1.04818 1.05275 1 0.995658
1.05246 1.05673 1 0.995961
1.04938 1.05503 0.997988 0.996651
1.0091 1 1.01067 0.99845
1.00662 1.0087 1.00113 0.996817
1.00939 1.00094 1.01118 0.997293
1.0075 1.00769 1.00315 0.99668
1.03951 1.04331 1 0.996357
1.00143 1 1.00169 0.999741
1.00185 1 1.00257 0.999279
1.00748 1.00007 1.00927 0.998158
1.03512 1.03868 1 0.99658
1.06233 1.06667 1 0.995931
1.00335 1.00552 1.00052 0.997314
1.03533 1.03907 1.00033 0.996071
1.05006 1.05418 1 0.996087
1.04921 1.05344 1 0.99599
1.00084 1 1.00101 0.999837
1.00495 1.00238 1.00487 0.997703
1.00748 1.00004 1.00883 0.998618
1.00789 1.00346 1.00695 0.997482
1.06659 1.07091 1 0.995967
1.05619 1.06043 1 0.996
1.06277 1.06701 1 0.996028
1.01746 1.02063 1.00045 0.996449
1.04977 1.05386 1 0.996117
1.04243 1.045 1.00173 0.995822
1.05908 1.06325 1 0.996072
0.999894 1 1 0.999894
1.00483 1 1.00588 0.998956
1.0096 1.0107 1.00191 0.997003
1.01115 1.00201 1.01128 0.997865
1.00692 1.0065 1.00318 0.99724
1.06718 1.07199 0.999359 0.996148
1.05644 1.06064 1 0.996041
1.05711 1.06202 0.999161 0.996217
1.02078 1.02278 1.00199 0.996054
1.05106 1.05507 1 0.996192
1.03542 1.039 1.00086 0.995692
0.99993 1 1.00059 0.999344
1.00135 1 1.0026 0.998753
0.999521 1 1 0.999521
0.999623 1 1.00018 0.999441
0.999957 1 1 0.999957
0.999939 1 1 0.999939
1 1 1 1
1 1 1 1
1 1 1 1
1.00143 1 1.00174 0.999699
1 1 1 1
1.00246 1 1.00299 0.999474
1 1 1 1
1.00211 1 1.00286 0.999259
1 1 1 1
1.03867 1.04248 1 0.996343
1.03245 1.03619 1 0.996392
1.07197 1.0763 0.99983 0.996144
1.06925 1.074 0.999372 0.996209
1.02753 1.03128 1 0.996367
0.998392 1.00008 1 0.99831
1.0259 1.02964 1 0.996368
1.06836 1.07303 0.999451 0.996192
1.07147 1.0762 0.999399 0.996199
1.0679 1.07811 0.993916 0.996591
1.07065 1.07492 0.999973 0.996057
1.06952 1.0788 0.994923 0.996454
1.06762 1.07225 0.999501 0.996181
1.06761 1.07743 0.994271 0.996598
1.0689 1.07883 0.994236 0.996538
1.0626 1.07513 0.991516 0.996803
1.0674 1.0747 0.996877 0.996318
1.06213 1.07832 0.988156 0.996793
1.02563 1.02935 1 0.996387
1.02839 1.03183 1 0.996673
1.067 1.07228 0.998795 0.996277
1.07003 1.07435 0.999843 0.996132
0.999773 1.00011 1.00081 0.998848
1.01611 1.01896 1.00015 0.997053
1.046 1.05019 1 0.996018
1.06237 1.06653 1 0.9961
1.06474 1.07265 0.99613 0.996482
1.06058 1.06487 0.999733 0.996235
1.05482 1.05918 1 0.995884
1.0569 1.06095 0.999822 0.996354
1.00615 1.00426 1.00443 0.997469
1.00634 1.00303 1.00629 0.99703
1.00808 1 1.00995 0.998148
1.06727 1.07181 0.999565 0.996197
1.06811 1.07359 0.998646 0.996242
1.06825 1.0772 0.995129 0.996546
1.06715 1.07605 0.99529 0.996425
1.00733 1.0091 1.00098 0.997269
1.03179 1.03571 1 0.996207
1.04733 1.05183 1.00003 0.995684
1.06235 1.06767 0.998683 0.996323
1.05692 1.07052 0.990485 0.996783
1.05349 1.0578 1 0.995922
1.05719 1.06418 0.996869 0.996555
1.05047 1.05591 0.998154 0.996689
1.00743 1.00908 1.00155 0.996816
1.00679 1.00656 1.00361 0.996632
1.00786 1 1.00943 0.998449
1.0085 1.00058 1.01061 0.997335
1.06807 1.07683 0.995295 0.996549
1.07027 1.07938 0.995069 0.996477
1.05768 1.07086 0.990938 0.996719
1.05579 1.07251 0.987551 0.996812
1.05662 1.06771 0.992877 0.996707
1.05679 1.07343 0.987504 0.996954
1.01557 1.01912 1 0.996517
1.04864 1.06048 0.99189 0.996923
1.03409 1.03844 1 0.995811
1.04391 1.04843 1.00018 0.995516
1.05139 1.05563 1 0.995981
1.05359 1.0594 0.997794 0.996717
1.00454 1 1.00582 0.998733
1.01267 1.00123 1.01391 0.997556
1.01139 1.01501 1 0.996435
1.00852 1.00468 1.00686 0.996983
1.00954 1.00667 1.0064 0.99647
1.0003 1 1.00045 0.999851
1.06657 1.0709 1 0.99596
1.00751 1.00013 1.00876 0.998623
1.00451 1.00123 1.00558 0.99771
1.00681 1.00221 1.00713 0.997479
1.05639 1.06064 1 0.995997
1.06227 1.06651 1 0.996025
1.01817 1.02128 1.00051 0.996454
1.0422 1.04456 1.00193 0.995809
1.04938 1.05349 1 0.9961
1.05925 1.06333 1 0.996166
0.999902 1 1 0.999902
1.00492 1 1.00595 0.998967
1.00737 1.00898 1.00139 0.997012
1.01208 1.00185 1.01238 0.997859
1.00685 1.00604 1.00363 0.997183
1.06705 1.07181 0.999412 0.996143
1.05613 1.06033 1 0.99604
1.05674 1.0617 0.99912 0.996206
1.02186 1.02373 1.00213 0.996052
1.05449 1.05854 1 0.996172
1.03565 1.0391 1.00096 0.995729
1.00117 1 1.00198 0.999199
1.00825 1 1.01002 0.998247
1.00384 1.00675 1.0005 0.99661
1.01447 1.00621 1.01073 0.997504
1.01034 1.01126 1.00203 0.997058
1.06244 1.07114 0.995479 0.996388
1.05157 1.05561 1 0.996172
1.05217 1.05873 0.99736 0.996437
1.00587 1.00616 1.00379 0.99593
1.03246 1.03689 1 0.995727
1.00021 1 1.00086 0.999346
0.999793 1 1.00114 0.998654
1.00162 1 1.0029 0.998728
1.00123 1 1.00275 0.998484
1.00063 1 1.00181 0.998825
0.999572 1 1 0.999572
0.999585 1 1.00006 0.999524
0.999978 1 1 0.999978
0.999641 1 1.0002 0.999443
0.999964 1 1 0.999964
1 1 1 1
0.999945 1 1 0.999945
1 1 1 1
1 1 1 1
1.00016 1 1.00028 0.999875
1.00222 1 1.00254 0.99968
1 1 1 1
1 1 1 1
1.00316 1 1.00371 0.999457
1 1 1 1
1.06993 1.07417 1 0.996052
1.07119 1.07585 0.999465 0.996197
1.07005 1.07925 0.995004 0.996453
1.06761 1.07844 0.993332 0.996608
1.06791 1.07255 0.999481 0.996193
1.02609 1.02983 1 0.996368
1.06736 1.07197 0.999517 0.996182
1.0676 1.07725 0.994429 0.996593
1.06932 1.07931 0.994182 0.996539
1.0619 1.07504 0.990912 0.996832
1.06838 1.07563 0.996937 0.996312
1.06236 1.07846 0.988218 0.996815
1.06787 1.0772 0.994746 0.996568
1.06024 1.07416 0.990227 0.996784
1.06329 1.07702 0.990354 0.996866
1.0631 1.08043 0.98696 0.996951
1.0621 1.07624 0.990202 0.996625
1.06468 1.08362 0.985461 0.997014
1.06704 1.0716 0.99955 0.996192
1.06764 1.07335 0.998433 0.99624
1.06764 1.07729 0.994435 0.996594
1.06713 1.07547 0.995832 0.996398
1.00931 1.01079 1.00127 0.997269
1.02879 1.0327 1 0.996207
1.04586 1.05018 1.00018 0.99571
1.06299 1.06791 0.999114 0.996275
1.05639 1.07076 0.98972 0.996831
1.05741 1.06437 0.996897 0.996556
1.05448 1.05884 1 0.995882
1.05138 1.05662 0.998305 0.996728
1.00972 1.01064 1.00228 0.996817
1.00741 1.0073 1.00354 0.996585
1.00739 1 1.00896 0.998449
1.0076 1.00015 1.0101 0.997378
1.0682 1.07696 0.995301 0.996548
1.06988 1.07895 0.995113 0.996459
1.0577 1.07103 0.990775 0.99675
1.05675 1.07257 0.988415 0.996795
1.01652 1.01969 1.00039 0.996511
1.03263 1.03691 1.00003 0.995845
1.04369 1.048 1.00039 0.995504
1.05748 1.0678 0.993656 0.996657
1.05519 1.07241 0.986891 0.997009
1.04923 1.05348 1 0.995967
1.04984 1.06179 0.991796 0.996923
1.05343 1.05922 0.997743 0.996786
1.01035 1.01387 1.00009 0.996439
1.007 1.00684 1.00371 0.996455
1.00762 1.00319 1.00747 0.99698
1.00513 1 1.00643 0.998705
1.01209 1.00053 1.014 0.997596
1.0591 1.07312 0.990133 0.996766
1.05935 1.07494 0.988682 0.996782
1.05525 1.07752 0.982289 0.996993
1.05021 1.06849 0.985833 0.997013
1.01826 1.02219 1 0.99616
1.05348 1.06607 0.991077 0.997095
1.02038 1.02461 1.00029 0.995586
1.03654 1.04085 1.00051 0.995355
1.04701 1.05142 0.999824 0.995983
1.0011 1 1.00206 0.999042
1.01066 1 1.01269 0.997987
1.00752 1.00012 1.01017 0.997269
1.00789 1.01113 1.0005 0.996302
1.00924 1.00514 1.00755 0.996558
1.00921 1.00695 1.00598 0.996297
0.999911 1 1 0.999911
1.00471 1 1.00574 0.998977
1.06688 1.07158 0.999467 0.996138
1.01353 1.00166 1.01403 0.997853
1.00393 1.00614 1.00079 0.99702
1.00685 1.00583 1.0039 0.997125
1.05569 1.05989 1 0.996038
1.05653 1.06154 0.999082 0.996195
1.02142 1.02313 1.00229 0.99605
1.03468 1.03827 1.00077 0.995765
1.05816 1.06224 1 0.996153
1.00062 1 1.00142 0.999204
1.00913 1 1.01089 0.998251
1.0067 1.00968 1.00047 0.996578
1.0146 1.00537 1.01171 0.997501
1.01058 1.0118 1.00176 0.997042
1.06118 1.06983 0.99551 0.996383
1.05354 1.05761 1 0.996158
1.05399 1.06032 0.997558 0.99646
1.00785 1.00872 1.00324 0.9959
1.03056 1.03496 1.00006 0.995694
1.00296 1 1.00442 0.998547
1.01271 1.00058 1.01434 0.997815
1.00484 1.00632 1.00211 0.996432
1.01691 1.01201 1.00767 0.997189
1.02293 1.02507 1.00107 0.996854
1.05253 1.06933 0.987373 0.996879
1.05482 1.05903 0.999994 0.996029
1.05747 1.06353 0.997889 0.996408
1.00964 1.00947 1.00433 0.995853
1.015 1.0196 1 0.995487
0.999807 1 1.00046 0.999349
0.99953 1 1.00086 0.998666
0.99875 1 1.00029 0.998456
1.00045 1 1.00175 0.998703
1.00005 1 1.00123 0.998823
1.00216 1 1.0037 0.998466
0.999963 1 1.00149 0.998472
1.00282 1 1.00441 0.998409
0.999238 1 1.00036 0.998882
0.999568 1 1 0.999568
0.999572 1 1 0.999572
0.999991 1 1 0.999991
0.999527 1 1 0.999527
0.999982 1 1 0.999982
1 1 1 1
0.99997 1 1 0.99997
1 1 1 1
1 1 1 1
0.999964 1 1 0.999964
1.00046 1 1.00061 0.99985
1 1 1 1
1.00245 1 1.0028 0.999661
1 1 1 1
1 1 1 1
1.06936 1.07656 0.996995 0.996307
1.06953 1.07958 0.994135 0.996539
1.06257 1.07859 0.988271 0.996837
1.06116 1.0749 0.990332 0.996861
1.06762 1.07709 0.994601 0.996588
1.06716 1.07175 0.999532 0.996183
1.06803 1.07714 0.994979 0.99655
1.06079 1.0742 0.990713 0.996777
1.06261 1.07632 0.990383 0.996852
1.06155 1.0797 0.986189 0.996961
1.06192 1.07589 0.990352 0.996627
1.06201 1.08185 0.984567 0.99705
1.06132 1.07433 0.991106 0.996757
1.06265 1.08157 0.98551 0.996953
1.0639 1.08338 0.984941 0.997039
1.05659 1.08024 0.980993 0.997064
1.06837 1.07712 0.995308 0.996547
1.06954 1.07858 0.995156 0.996441
1.05779 1.07124 0.990637 0.996781
1.05774 1.07271 0.989233 0.996778
1.01844 1.02156 1.00045 0.996504
1.03158 1.03585 1 0.995878
1.0435 1.04762 1.00058 0.995492
1.05814 1.06773 0.994386 0.996607
1.05353 1.0714 0.986217 0.997065
1.05085 1.06287 0.991737 0.996923
1.04756 1.05182 1 0.995952
1.05431 1.05968 0.998076 0.996854
1.00509 1.00812 1.00055 0.996443
1.00626 1.00711 1.00273 0.99644
1.00833 1.00266 1.00871 0.996976
1.00512 1 1.00645 0.998678
1.01149 1.0001 1.01378 0.997637
1.05911 1.07308 0.990184 0.996768
1.06 1.07558 0.988696 0.996778
1.05568 1.07682 0.983328 0.996986
1.01817 1.02209 1 0.996159
1.02028 1.02451 1.00026 0.995621
1.03534 1.03939 1.00076 0.995343
1.05049 1.0684 0.986199 0.996999
1.05006 1.05462 0.999574 0.996107
1.04977 1.06265 0.990789 0.997061
1.00147 1 1.00238 0.999095
1.00714 1.00867 1.00219 0.996298
1.0093 1.00536 1.00754 0.996404
1.01257 1.00697 1.00904 0.996553
1.01034 1.00224 1.01082 0.997291
1.01113 1 1.01321 0.997954
1.06149 1.07968 0.986265 0.996838
1.05968 1.08421 0.980378 0.996935
1.0487 1.07547 0.977984 0.997069
1.0444 1.06977 0.979025 0.997207
1.01115 1.01495 1.00027 0.995991
1.04545 1.05323 0.995941 0.996653
1.00911 1.01228 1.00165 0.99523
1.02394 1.02779 1.00104 0.995213
0.999557 1 1.0001 0.999452
1.00548 1 1.00707 0.99842
1.00966 1.00038 1.01168 0.997626
1.01124 1.00282 1.01168 0.996754
1.00663 1.0051 1.00533 0.996214
1.01455 1.00584 1.01259 0.996112
1.00053 1 1.00132 0.99921
1.00978 1 1.01154 0.998254
1.06001 1.06863 0.995539 0.996378
1.01423 1.00431 1.0124 0.997498
1.00956 1.01279 1.00027 0.996545
1.00985 1.01132 1.00152 0.997026
1.0556 1.05968 1 0.996144
1.05559 1.06173 0.997731 0.996482
1.01041 1.01183 1.00273 0.99587
1.0285 1.0327 1.00027 0.995661
1.00319 1 1.00465 0.998551
1.01282 1.0003 1.01476 0.997789
1.00525 1.00684 1.002 0.996437
1.0164 1.01232 1.00685 0.997195
1.02544 1.02813 1.00048 0.996905
1.05497 1.07159 0.987519 0.996926
1.05441 1.05857 1 0.996068
1.05857 1.06423 0.998186 0.996488
1.01068 1.0103 1.00458 0.995818
1.01456 1.01922 1.00003 0.995399
1.00363 1 1.00538 0.998253
1.01208 1.00193 1.01273 0.997436
1.015 1.01482 1.00378 0.996398
1.02119 1.02261 1.00188 0.99674
1.05337 1.09131 0.967979 0.99717
1.05355 1.06569 0.991654 0.99693
1.03926 1.04382 0.999999 0.995631
1.01779 1.01811 1.00426 0.995444
1.00016 1 1.00148 0.998679
0.999056 1 1.0006 0.998458
0.998966 1 1.00042 0.998551
1.00051 1 1.00169 0.998821
1.00371 1 1.00527 0.998449
0.999297 1 1.00042 0.998878
0.999799 1 1.0013 0.998497
1.00359 1 1.00518 0.998417
0.998657 1 1 0.998657
1.00313 1 1.00484 0.998296
1.00188 1 1.00351 0.998375
0.998856 1 1 0.998856
0.999525 1 1 0.999525
0.999565 1 1 0.999565
0.999996 1 1 0.999996
0.999572 1 1 0.999572
0.999993 1 1 0.999993
1 1 1 1
0.999986 1 1 0.999986
1 1 1 1
1 1 1 1
0.999992 1 1 0.999992
0.999947 1 1 0.999947
1 1 1 1
1.00106 1 1.00124 0.999825
1 1 1 1
1 1 1 1
1.06164 1.07545 0.9905 0.99663
1.06205 1.07573 0.990417 0.996837
1.05943 1.08013 0.983703 0.997086
1.05998 1.079 0.985361 0.996971
1.06135 1.07427 0.99117 0.99677
1.06819 1.07707 0.995202 0.996532
1.06103 1.07418 0.990973 0.996758
1.06241 1.08116 0.985667 0.996943
1.06242 1.08248 0.984384 0.997036
1.05716 1.08065 0.981129 0.997075
1.06363 1.08147 0.98656 0.996899
1.06287 1.08795 0.979785 0.9971
1.06438 1.09197 0.977533 0.99714
1.05909 1.07303 0.990214 0.996769
1.06055 1.07613 0.988714 0.996774
1.05621 1.07611 0.98448 0.996979
1.0209 1.02484 1 0.996158
1.01976 1.02403 1.00018 0.995655
1.03395 1.03792 1.00085 0.995332
1.05086 1.06844 0.986523 0.996986
1.04545 1.05928 0.989888 0.997027
1.05238 1.05729 0.999116 0.996231
1.0072 1.00751 1.00341 0.996293
1.00389 1.00219 1.0052 0.996512
1.01401 1.00814 1.00931 0.996548
1.00165 1 1.0025 0.999149
1.01113 1.00361 1.01021 0.997313
1.01194 1 1.01405 0.99792
1.06214 1.08007 0.98651 0.996847
1.05887 1.08402 0.979805 0.996939
1.04912 1.07539 0.978441 0.997061
1.00938 1.01336 1.00009 0.995984
1.00877 1.01212 1.0014 0.995304
1.02418 1.02808 1.0009 0.995315
1.04506 1.06964 0.979756 0.997209
1.04068 1.04948 0.99497 0.996629
0.999591 1 1.00006 0.999529
1.00522 1 1.00682 0.998417
1.00347 1.00371 1.00352 0.996251
1.01709 1.00501 1.01579 0.996291
1.01164 1.00416 1.01067 0.996807
1.00941 1.00043 1.01143 0.997579
1.06122 1.08686 0.979334 0.997018
1.04944 1.08769 0.967717 0.997024
1.04507 1.07549 0.974395 0.997251
1.03293 1.05438 0.982405 0.9972
1.00209 1.00501 1.00133 0.995776
1.02481 1.02827 1.00093 0.995714
1.00917 1.01151 1.00264 0.995059
0.999743 1 1 0.999743
0.999162 1 1 0.999162
1.00042 1 1.00159 0.998827
1.00477 1 1.0069 0.997883
1.00993 1 1.01276 0.997204
1.01928 1.00421 1.01858 0.996484
1.00392 1.00192 1.00555 0.996465
1.04107 1.00282 1.04159 0.996693
1.00268 1 1.00413 0.998556
1.0133 1 1.01557 0.997763
1.05763 1.07398 0.987768 0.996973
1.01788 1.01435 1.0063 0.997201
1.00564 1.00705 1.00215 0.996443
1.0274 1.0305 1.00004 0.996958
1.054 1.05812 1 0.996108
1.05965 1.06493 0.998474 0.996569
1.01128 1.0107 1.00482 0.995783
1.01393 1.01871 1 0.995311
1.00397 1 1.00578 0.998205
1.01061 1.00095 1.01226 0.997424
1.01897 1.01841 1.00415 0.996413
1.02059 1.02228 1.00157 0.996781
1.0548 1.09381 0.967058 0.997189
1.05686 1.06816 0.992519 0.996874
1.03698 1.04153 0.99994 0.995689
1.01976 1.02062 1.00377 0.995394
1.00422 1 1.00615 0.998079
1.06385 1.10091 0.969052 0.997197
1.00669 1.00204 1.00763 0.997041
1.01917 1.02035 1.00268 0.996179
1.037 1.07616 0.966209 0.997317
1.03228 1.03775 0.998954 0.995775
1.01379 1.01543 1.00323 0.995167
0.999587 1 1.00113 0.998459
0.998383 0.999429 1.00041 0.998543
0.998936 0.999011 1.0012 0.998724
0.999109 1 1.00023 0.998875
1.00359 1 1.00518 0.998426
0.999834 1 1.00131 0.998522
0.998852 1 1 0.998852
1.00207 1 1.00369 0.998383
0.99888 1 1.00019 0.998692
1.00227 1 1.00397 0.998305
0.998815 1 1 0.998815
0.999443 1 1.00094 0.998508
1.00338 1 1.00525 0.998147
0.999105 1 1.00084 0.998269
0.998761 1 1 0.998761
0.999476 1 1 0.999476
0.99952 1 1 0.99952
0.999998 1 1 0.999998
0.999563 1 1 0.999563
0.999997 1 1 0.999997
1 1 1 1
0.999995 1 1 0.999995
1 1 1 1
1 1 1 1
0.999782 1 1 0.999782
0.999999 1 1 0.999999
0.999986 1 1 0.999986
1 1 1 1
0.999929 1 1 0.999929
1 1 1 1
1 1 1 1
1.05774 1.08106 0.98129 0.997086
1.06097 1.0816 0.983841 0.997033
1.06223 1.08077 0.985869 0.996934
1.06071 1.07397 0.990868 0.996758
1.06343 1.08166 0.986182 0.996918
1.06291 1.08763 0.980127 0.997091
1.06119 1.08887 0.977367 0.997146
1.0625 1.08822 0.979222 0.997083
1.07537 1.10474 0.976168 0.997182
1.08221 1.11307 0.974765 0.997445
1.06294 1.08056 0.986795 0.996856
1.05789 1.08383 0.979058 0.996943
1.04959 1.07529 0.978985 0.997053
1.00777 1.01178 1.00006 0.995977
1.00972 1.01312 1.00126 0.995382
1.02637 1.03029 1.00078 0.995417
1.04593 1.06926 0.980925 0.997211
1.03606 1.04539 0.994444 0.996606
1.00488 1.00369 1.00492 0.996289
1.02237 1.00526 1.02063 0.996465
1.0136 1.00542 1.01131 0.996861
0.999606 1 1 0.999606
1.00505 1 1.00665 0.998413
1.00918 1.00012 1.01155 0.997531
1.0608 1.08715 0.978674 0.997028
0.999738 1 1 0.999738
0.999118 1 1 0.999118
1.05095 1.08676 0.969932 0.997026
1.04322 1.07378 0.974249 0.997221
1.00313 1.00537 1.00192 0.995858
1.00878 1.01043 1.00332 0.995072
1.02369 1.02828 0.999833 0.9957
1.03201 1.05425 0.981685 0.997172
1.0007 1 1.00179 0.998918
1.00508 1 1.00722 0.997871
1.0042 1.00195 1.00592 0.99635
1.03507 1.00276 1.03554 0.996793
1.01657 1.00275 1.01734 0.996502
1.00919 1.00001 1.01199 0.997222
1.07205 1.10574 0.972316 0.997128
1.03206 1.08583 0.953193 0.997152
1.02955 1.06416 0.970001 0.997397
1.01593 1.03332 0.986247 0.996886
1.00534 1.0028 1.00649 0.996075
1.00948 1.00882 1.0055 0.995181
0.999062 1 1 0.999062
0.999177 1 1.00004 0.99914
0.999002 1.00021 1 0.998796
1.00038 1 1.00223 0.99815
1.00994 1 1.01239 0.997583
1.00807 1.00036 1.01087 0.996865
1.06127 1.00021 1.06468 0.99659
0.994703 1.00049 0.996855 0.99735
1.00462 1 1.00647 0.998157
1.00861 1 1.01123 0.997412
1.05563 1.09537 0.966421 0.997208
1.05977 1.07028 0.993341 0.99682
1.02025 1.02231 1.00117 0.996822
1.02402 1.02318 1.00441 0.996426
1.03507 1.03955 0.999945 0.995746
1.02251 1.02386 1.00335 0.995344
1.00435 1 1.00631 0.998055
1.06656 1.1047 0.968118 0.997267
1.00691 1.00121 1.00863 0.997096
1.01653 1.01776 1.00269 0.996114
1.03758 1.07594 0.966973 0.997292
1.03029 1.03592 0.998694 0.99587
1.01499 1.01636 1.00348 0.995181
1.00858 0.999278 1.01152 0.997815
1.00897 1.05899 0.954981 0.997679
1.00471 1.00194 1.00599 0.996797
1.00588 1.00649 1.00379 0.995616
1.01718 1.03673 0.984264 0.996822
1.00296 1.00533 1.00221 0.995439
0.955533 1.00278 0.956176 0.996562
0.997573 0.998462 1.00058 0.998535
0.99889 0.997666 1.0025 0.998728
1.00108 0.999362 1.00306 0.998668
0.998848 1 1 0.998848
1.00311 1 1.00473 0.99839
1.00113 1 1.00282 0.998314
0.998981 1 1.00025 0.998729
0.99876 1 1 0.99876
0.999241 1 1.00097 0.998271
0.998781 1 1 0.998781
1.00325 1 1.00511 0.998148
0.99922 1 1.00074 0.998476
1.00001 1 1.00124 0.99877
0.999188 1 1.00121 0.997978
1.00339 1 1.00529 0.99811
0.998481 1 1.00034 0.998138
0.998589 1 1 0.998589
1.0006 1 1.00227 0.998335
0.998964 1 1.00041 0.998555
0.999456 1 1 0.999456
0.999473 1 1 0.999473
0.999999 1 1 0.999999
0.999516 1 1 0.999516
0.999998 1 1 0.999998
1 1 1 1
0.999997 1 1 0.999997
1 1 1 1
1 1 1 1
0.999826 1 1 0.999826
0.999784 1 1 0.999784
1 1 1 1
0.999998 1 1 0.999998
1 1 1 1
0.99998 1 1 0.99998
1 1 1 1
1 1 1 1
1.05812 1.08598 0.977132 0.997151
1.06285 1.08731 0.980367 0.997082
1.06312 1.08177 0.985777 0.996936
1.06226 1.08806 0.979146 0.997082
1.07202 1.10137 0.976109 0.997177
1.08126 1.11199 0.974938 0.99736
1.08025 1.11533 0.971219 0.997248
0.957145 1.01605 0.947298 0.99443
1.03026 1.06777 0.966657 0.998156
0.99925 1 1 0.99925
1.06043 1.08742 0.978082 0.997037
1.05247 1.08609 0.971933 0.997029
1.04106 1.07229 0.973609 0.997191
1.00014 1.0034 1.00082 0.995936
1.00722 1.00814 1.00402 0.995083
1.02155 1.02689 0.999112 0.995686
1.03093 1.05422 0.980715 0.997143
0.998812 1.00199 1.00059 0.996241
1.02868 1.00283 1.02897 0.9969
1.01329 1.00119 1.01562 0.99652
0.999732 1 1 0.999732
1.00958 1 1.01237 0.99724
1.00092 1 1.00191 0.999007
1.00532 1 1.00748 0.997859
0.999207 1 1.00013 0.999075
1.06918 1.10618 0.969334 0.997135
0.999118 1 1 0.999118
0.999487 1 1.00034 0.999142
0.998868 1.00057 0.999536 0.998758
1.03609 1.08634 0.95647 0.997149
1.02853 1.06327 0.969907 0.997348
1.00171 1.00217 1.00344 0.99611
1.01413 1.01348 1.00534 0.995326
1.0147 1.03127 0.98703 0.996867
1.00011 1 1.0019 0.998216
1.00916 1 1.01165 0.997531
1.00575 1.00031 1.00828 0.997175
1.0503 1.00081 1.05303 0.9966
1.00791 1.00061 1.01041 0.996921
1.04416 1.09592 0.955401 0.997242
1.00852 1.07147 0.943783 0.997314
1.02089 1.04373 0.981037 0.997028
0.996097 1.01506 0.984623 0.99664
1.00181 1 1.00489 0.996936
0.998638 1 1 0.998638
0.999472 1.00038 1.00057 0.998526
1.00106 1 1.00252 0.998541
1.01161 1 1.0137 0.997936
1.01129 1 1.01383 0.997501
1.04401 0.999932 1.04716 0.997065
1.02966 1.00181 1.03051 0.997369
1.00436 1 1.00634 0.998029
1.00632 1 1.00919 0.997152
1.0682 1.10865 0.966085 0.997335
1.03869 1.0765 0.967527 0.997267
1.0285 1.03441 0.998311 0.995964
1.01253 1.01383 1.00268 0.996049
1.0156 1.01684 1.0036 0.995196
1.00892 0.999693 1.01137 0.997885
1.01068 1.06027 0.955394 0.99773
1.00172 1.0014 1.00353 0.996805
1.00447 1.00479 1.00409 0.995616
1.01483 1.03548 0.983049 0.996956
1.00377 1.00563 1.00273 0.995437
0.956546 1.00219 0.958891 0.995373
1.00855 0.998565 1.01226 0.997766
0.990824 1.02615 0.96783 0.997674
1.00103 1.00137 1.00311 0.996557
1.00441 1.002 1.00641 0.996018
0.992372 1.00701 0.988712 0.996719
0.894989 0.973283 0.948391 0.969596
0.881284 0.960178 0.932634 0.984131
0.956032 0.979374 0.97923 0.996872
0.676956 0.811894 0.8923 0.934438
0.586868 0.753548 0.852946 0.913078
0.998919 0.996709 1.00349 0.998733
1.0018 0.997704 1.00539 0.998721
1.00325 0.999936 1.00462 0.998703
0.998759 1 1 0.998759
0.999158 1 1.00089 0.998273
1.00247 1 1.00433 0.998149
0.999172 1 1.00073 0.998443
0.998747 1 1 0.998747
1.00414 1 1.00606 0.998092
0.998628 1 1 0.998628
0.998457 1 1.0003 0.998156
0.999524 1 1.00082 0.998707
0.999905 1 1.00186 0.998044
1.00492 1 1.00686 0.998068
1.00633 0.99983 1.00821 0.998304
1.00447 1 1.00643 0.998052
0.99896 1 1.00093 0.998034
0.998572 1 1.00002 0.998557
0.999269 1 1.00111 0.99816
1.00035 1 1.00211 0.998244
1.00055 1 1.00215 0.99841
1.00043 1 1.00214 0.998297
0.998926 1 1.00024 0.998685
0.999112 1 1.00056 0.998552
0.99945 1 1 0.99945
0.999456 1 1 0.999456
1 1 1 1
0.999469 1 1 0.999469
1 1 1 1
1 1 1 1
0.999999 1 1 0.999999
1 1 1 1
1 1 1 1
0.999879 1 1 0.999879
0.999823 1 1 0.999823
1 1 1 1
0.999786 1 1 0.999786
1 1 1 1
1 1 1 1
0.999996 1 1 0.999996
1 1 1 1
1 1 1 1
1.06874 1.09807 0.976049 0.997171
1.06204 1.08786 0.979124 0.99708
1.08043 1.11051 0.975572 0.997275
0.958662 1.01579 0.94896 0.99452
1.07803 1.11323 0.971057 0.997246
1.03852 1.07037 0.972158 0.998024
1.05717 1.0877 0.974485 0.997379
0.910869 0.975113 0.949972 0.983308
0.982863 1.02056 0.967496 0.995414
0.999292 1 1 0.999292
0.999243 1 1 0.999243
0.998746 1 1 0.998746
0.998874 1 1 0.998874
1.06659 1.106 0.967125 0.997142
1.0401 1.08608 0.960409 0.997146
1.02805 1.06237 0.970321 0.997298
1.00048 1.00129 1.00306 0.996145
1.01871 1.01871 1.00455 0.995472
1.01338 1.02915 0.987793 0.996848
1.01764 1 1.02071 0.996996
1.04028 1.00127 1.0425 0.996609
1.00759 1.00037 1.01027 0.996976
0.999899 1 1.00076 0.999145
1.00713 1.00003 1.00965 0.99748
0.999824 1 1.00154 0.998281
0.999174 1 1 0.999174
0.999125 1.00099 0.999414 0.998719
1.04299 1.09598 0.954273 0.997257
0.998659 1 1 0.998659
0.999178 1.0006 0.999968 0.998611
1.0007 0.999597 1.00233 0.998771
1.01573 1.07503 0.947389 0.997301
1.0215 1.04365 0.981694 0.997028
1.00027 1.00084 1.00252 0.99692
0.998683 1.01416 0.987979 0.996716
1.00993 1 1.01212 0.997835
1.01122 1 1.01392 0.997343
1.03523 1.00243 1.03547 0.997347
1.04351 1.00109 1.04556 0.996955
0.996984 1.05795 0.944794 0.997442
0.997618 1.04628 0.956064 0.99731
1.0093 1.01812 0.994634 0.996681
0.975387 1.00121 0.976375 0.997784
1.00474 1 1.00626 0.998483
1.00471 1 1.0066 0.998129
1.01884 0.999516 1.02122 0.998157
1.06382 1.00091 1.06567 0.997359
0.87765 0.968622 0.93894 0.965003
1.01004 1 1.0121 0.997956
1.00001 1.00091 1.0023 0.99681
1.01209 1.06143 0.955631 0.997787
1.01239 1.03384 0.982113 0.99709
1.00453 1.00583 1.0033 0.99543
1.00364 1.00356 1.00448 0.995613
0.95727 1.00293 0.960097 0.994144
1.00695 0.998311 1.01085 0.997823
0.989797 1.02681 0.966224 0.997651
1.00093 1.00148 1.0029 0.99657
1.00498 1.00301 1.00596 0.99603
0.995544 1.00813 0.990785 0.996702
0.887389 0.977176 0.940994 0.96506
0.876125 0.955624 0.934624 0.980939
0.959776 0.979972 0.982413 0.996924
0.670335 0.805197 0.889353 0.936086
0.574785 0.746648 0.848223 0.907568
1.00298 0.998423 1.00665 0.997925
0.702588 0.823518 0.9082 0.93939
0.621192 0.76586 0.888018 0.913388
0.986488 1.00553 0.983257 0.997767
1.00907 1.00152 1.01031 0.997264
1.01437 1.00575 1.01141 0.997193
0.947196 0.96789 0.981233 0.997336
0.859014 0.947844 0.936636 0.967593
0.841328 0.92476 0.929476 0.978809
0.65835 0.795257 0.879482 0.941288
0.639069 0.814381 0.863524 0.908753
1.00215 0.996026 1.00738 0.998773
1.00215 0.99841 1.00508 0.998676
1.01279 0.999998 1.01397 0.998837
0.998666 1 1 0.998666
0.998236 1 1.00006 0.998175
1.00469 1 1.00663 0.998075
1.001 1 1.00289 0.998109
0.998644 1 1 0.998644
0.998592 1 1.00003 0.998557
1.00554 1 1.00751 0.998041
1.00473 1 1.0067 0.998045
0.998501 1 1.00042 0.998081
1.00716 0.999714 1.00911 0.998348
1.00742 1 1.00919 0.99824
1.02284 0.999753 1.02463 0.998496
1.00263 1 1.00471 0.997929
0.998954 1 1.00084 0.998118
0.998824 1 1.00067 0.998154
1.0007 1 1.00243 0.998276
1.00034 1 1.00231 0.998038
0.999753 1 1.00141 0.998347
1.00474 1 1.00634 0.998413
1.00896 1 1.01085 0.998133
1.00112 1 1.00274 0.998387
1.00008 1 1.00167 0.998413
0.9994 1 1.00068 0.998716
1.00019 1 1.00194 0.99826
0.998929 1 1.00028 0.998651
0.999427 1 1 0.999427
0.99924 1 1.00069 0.998549
0.999452 1 1 0.999452
0.999997 1 1 0.999997
0.999457 1 1 0.999457
1 1 1 1
1 1 1 1
1 1 1 1
1 1 1 1
1 1 1 1
0.999233 1 1 0.999233
0.999894 1 1 0.999894
0.999875 1 1 0.999875
1 1 1 1
0.99982 1 1 0.99982
1 1 1 1
1 1 1 1
1 1 1 1
1 1 1 1
1 1 1 1
0.96119 1.01536 0.951776 0.994613
1.07683 1.11196 0.971081 0.997245
1.04771 1.07401 0.977576 0.99789
0.900164 0.97135 0.941273 0.984533
0.982682 1.02066 0.967008 0.995634
1.05681 1.09097 0.97127 0.997334
0.991497 1.03342 0.96318 0.996112
0.916833 0.975191 0.953357 0.986155
0.892378 0.976432 0.944866 0.967245
0.678664 0.810168 0.889739 0.941492
0.54427 0.705417 0.845984 0.912025
0.998827 1 1 0.998827
0.999289 1 1 0.999289
0.999236 1 1 0.999236
0.998755 1 1 0.998755
0.998949 1 1.00038 0.998573
0.998522 1 1 0.998522
0.998709 1 1.00002 0.998693
0.998826 1 1 0.998826
1.04264 1.09753 0.952587 0.997271
1.02313 1.07958 0.950293 0.997289
1.02132 1.04366 0.981508 0.997027
1.00008 1.00189 1.00129 0.996906
1.00136 1.0135 0.991204 0.996792
1.04376 1.0028 1.04364 0.997323
1.04396 1.00266 1.04448 0.996846
1.01114 1.00007 1.01392 0.997186
0.998409 1.00077 0.99894 0.998696
1.01033 1 1.01263 0.99773
0.998683 1 1 0.998683
0.999352 0.999412 1.00094 0.999002
0.995162 1.05878 0.942288 0.99748
1.00383 0.999824 1.00555 0.998469
1.00665 1 1.00842 0.998244
0.995114 1.04412 0.95566 0.997284
1.00685 1.01912 0.991089 0.99684
0.979055 1.00138 0.980023 0.997641
1.02979 1.00057 1.03143 0.997839
1.05809 1.00222 1.05849 0.997404
0.969519 1.03087 0.943007 0.997324
0.992945 1.01514 0.980782 0.997298
0.973756 1.00186 0.974484 0.997394
0.97653 0.999194 0.979291 0.997986
1.00801 1 1.01008 0.997943
1.01883 1 1.02078 0.998083
1.05433 0.999839 1.0569 0.997723
0.717408 0.832742 0.914474 0.942073
0.893232 0.976423 0.942392 0.970721
1.00478 0.998546 1.00838 0.997882
1.00065 1.00132 1.00276 0.996585
0.990356 1.02764 0.966009 0.997627
0.998339 1.00953 0.992201 0.996686
1.00597 1.00423 1.00571 0.996047
0.888829 0.973646 0.943487 0.967568
0.880198 0.965377 0.928901 0.981553
0.961011 0.979015 0.984586 0.996978
0.682028 0.80689 0.897166 0.942139
0.563407 0.740656 0.843461 0.901863
1.00309 0.999168 1.00601 0.99793
0.710764 0.833392 0.906958 0.940348
0.600181 0.74669 0.883388 0.909893
0.986103 1.00668 0.981767 0.997755
1.00903 1.0021 1.00967 0.997272
1.01222 1.00386 1.01102 0.997341
0.941349 0.962 0.980913 0.997574
0.870851 0.961581 0.939309 0.964161
0.838177 0.920402 0.927894 0.981432
0.666747 0.795195 0.892815 0.939131
0.641207 0.823518 0.857909 0.907579
1.00519 0.999405 1.00727 0.998538
0.644313 0.778312 0.906635 0.913085
0.711265 0.855288 0.903176 0.920761
0.983962 0.990681 0.994575 0.998636
1.01564 1.00245 1.01462 0.99855
0.953007 0.955118 1.0009 0.996889
0.855407 0.91205 0.954121 0.982994
0.811782 0.903774 0.933645 0.962049
0.678077 0.789907 0.912944 0.940283
0.702881 0.881 0.873958 0.912883
1.00227 0.998248 1.00539 0.99865
1.01017 1 1.0114 0.998787
1.0104 0.999001 1.01234 0.999074
0.998558 1 1 0.998558
0.998175 1 1.00005 0.998129
1.00572 1 1.0077 0.998038
1.00669 1 1.0087 0.998014
1.00741 0.999502 1.00954 0.998392
0.998739 1 1.00062 0.998115
1.00608 1 1.0079 0.99819
1.00257 1 1.00464 0.997933
1.02104 0.998788 1.02375 0.99856
1.0396 0.997006 1.04367 0.999094
1.01343 1 1.01521 0.998243
1.00115 1 1.00327 0.99789
0.998542 1 1.00039 0.998148
1.00097 1 1.00267 0.998307
1.00087 1 1.00285 0.998027
1.0006 1 1.00227 0.998329
1.00271 1 1.00419 0.99853
1.00524 1 1.00697 0.998288
1.0082 1 1.00995 0.998266
1.00411 0.998628 1.00693 0.998572
0.999539 1 1.00131 0.998231
1.00008 1.00165 1.00093 0.9975
1.00702 1 1.00905 0.997997
1.00749 1 1.00937 0.998135
1.00815 1 1.00994 0.998221
1.00263 1 1.00425 0.998387
0.999611 1 1.00093 0.998683
1.00024 1 1.00182 0.998416
0.999476 1 1.00076 0.998722
0.999395 1 1 0.999395
0.998974 1 1.00036 0.998618
0.999431 1 1 0.999431
0.999985 1 1 0.999985
0.999454 1 1 0.999454
0.999994 1 1 0.999994
1 1 1 1
0.999999 1 1 0.999999
1 1 1 1
1 1 1 1
0.999226 1 1 0.999226
0.99986 1 1 0.99986
0.999235 1 1 0.999235
1 1 1 1
0.999895 1 1 0.999895
0.999871 1 1 0.999871
1 1 1 1
1 1 1 1
1 1 1 1
1 1 1 1
1 1 1 1
0.701688 0.824679 0.909756 0.935264
0.606322 0.758372 0.877732 0.910876
0.899429 0.971121 0.940149 0.985138
0.983387 1.02055 0.967583 0.995868
1.05382 1.09237 0.967334 0.99729
0.903942 0.957984 0.955543 0.987489
0.99088 1.03282 0.962937 0.996324
0.903916 0.986934 0.94626 0.967898
0.668737 0.809882 0.882068 0.936121
0.55315 0.723746 0.843108 0.906511
0.927153 0.994657 0.940841 0.990745
0.881378 0.962523 0.94578 0.968191
0.663183 0.800229 0.88111 0.940566
0.634868 0.812825 0.859291 0.908963
1.00084 1 1.00248 0.998361
0.998869 1 1 0.998869
0.999286 1 1 0.999286
0.998765 1 1 0.998765
0.998948 1 1.00028 0.998667
0.999355 1 1.00112 0.998233
0.998524 1 1.00003 0.998499
0.998544 1 1.00026 0.998288
0.998649 1 1 0.998644
0.998779 1 1 0.998779
0.991547 1.05843 0.939145 0.997516
0.992034 1.04138 0.955231 0.997259
1.00599 1.0205 0.988747 0.997001
0.981787 1.00177 0.982507 0.997497
1.04889 1.00359 1.04781 0.997448
1.04116 1.00133 1.04236 0.997525
1.00718 1 1.00884 0.998359
1.00303 0.999517 1.00507 0.998453
0.969227 1.03145 0.94209 0.997436
1.00988 1 1.01201 0.997891
1.01852 1 1.02052 0.99804
0.985942 1.01249 0.976481 0.997237
0.971972 1.0018 0.972655 0.997501
0.977049 1.00022 0.978858 0.997934
1.04738 0.999727 1.05013 0.997659
0.962014 1.00294 0.961564 0.997538
0.962932 0.997733 0.966811 0.998251
1.01241 0.997703 1.0166 0.998168
1.01012 1 1.01233 0.997811
1.01626 1 1.01852 0.997785
1.02934 1 1.03156 0.997845
0.6733 0.792952 0.91828 0.92467
0.718863 0.831095 0.917618 0.942613
0.882046 0.974248 0.93803 0.965173
1.00229 0.998532 1.00585 0.997932
1.00881 1.00236 1.00918 0.997276
0.987684 1.00796 0.982103 0.997743
1.01049 1.00243 1.01059 0.997483
0.713402 0.828677 0.912513 0.943431
0.867311 0.957989 0.938136 0.965046
0.83651 0.917069 0.931799 0.97892
0.941137 0.958723 0.983824 0.997797
0.664513 0.801027 0.887941 0.93427
0.595613 0.743183 0.879099 0.911656
0.643389 0.823145 0.856565 0.912508
1.00497 0.999131 1.00734 0.998505
0.646595 0.77843 0.905549 0.917277
0.725933 0.8699 0.906682 0.92039
0.982711 0.988303 0.995596 0.998741
1.01551 1.00166 1.01535 0.998501
0.950181 0.953245 0.999213 0.99757
0.844948 0.917088 0.939789 0.980368
0.844445 0.920234 0.949417 0.966532
0.688171 0.803022 0.916377 0.935179
0.69606 0.873446 0.869402 0.916622
1.00781 0.997699 1.01071 0.999431
0.749823 0.877171 0.92053 0.928617
0.724693 0.874769 0.896125 0.924468
0.977755 0.960955 1.01777 0.999715
0.889174 0.915051 0.983353 0.98817
0.841442 0.894615 0.975018 0.964662
0.763924 0.871896 0.940074 0.932017
0.744952 0.921154 0.88118 0.917764
1.00873 1 1.01 0.998736
1.01255 0.998534 1.01499 0.999059
1.02702 0.990854 1.03717 0.999354
0.998934 1 1.00082 0.998112
1.00257 1 1.00465 0.997936
1.00404 1 1.00591 0.99814
1.01976 0.998162 1.02304 0.998624
1.00181 1 1.00393 0.997891
1.01274 0.999927 1.01461 0.998233
1.0445 0.997696 1.04778 0.999173
1.04291 0.990717 1.05327 0.999446
1.04314 0.998746 1.04542 0.999068
1.00758 1 1.00946 0.998143
1.00101 1 1.003 0.998016
1.00092 1 1.00262 0.998311
1.00058 1 1.00194 0.998645
1.00753 1 1.00926 0.998289
1.00365 1 1.00537 0.998286
1.00638 0.999195 1.0086 0.998602
1.00315 0.999381 1.00542 0.998357
1.0135 0.997361 1.01724 0.998962
0.996693 1.00101 0.997283 0.998395
1.00004 1.00057 1.00123 0.998237
0.998611 1.00016 1.00069 0.997756
1.00457 1.00659 1.00153 0.996477
1.00424 1.00115 1.00526 0.997831
0.999423 1.00087 1.00073 0.997827
1.00712 1 1.00915 0.997997
1.01376 1 1.01577 0.998024
1.00543 1 1.0073 0.998137
1.00737 1 1.00917 0.99822
1.00044 1 1.0019 0.998542
1.00292 1 1.00454 0.998386
0.999222 1 1.00054 0.998679
0.99952 1 1.00017 0.999351
0.999172 1 1.00045 0.998728
0.999396 1 1 0.999396
0.999966 1 1 0.999966
0.999434 1 1 0.999434
0.99998 1 1 0.99998
1 1 1 1
0.999992 1 1 0.999992
1 1 1 1
1 1 1 1
0.998923 1 1 0.998923
0.999798 1 1 0.999798
0.999141 1 1 0.999141
1 1 1 1
0.999866 1 1 0.999866
0.999237 1 1 0.999237
1 1 1 1
1 1 1 1
0.999895 1 1 0.999895
1 1 1 1
1 1 1 1
1 1 1 1
0.632692 0.772183 0.894336 0.91616
0.708924 0.831338 0.90827 0.938875
0.719377 0.868317 0.900764 0.919745
0.60323 0.757399 0.875792 0.909406
0.902851 0.965412 0.949653 0.984778
0.991533 1.03291 0.963266 0.996549
0.905073 0.985412 0.948633 0.968206
0.685148 0.812989 0.895113 0.941503
0.564125 0.74521 0.840267 0.900907
0.930124 0.989194 0.950041 0.989731
0.867914 0.958526 0.941284 0.96195
0.675936 0.806905 0.892633 0.938448
0.626228 0.806949 0.856941 0.905598
0.892311 0.965905 0.936636 0.986305
0.819257 0.900981 0.946052 0.961147
0.714067 0.838362 0.913808 0.932079
0.697799 0.876504 0.874746 0.910111
1.00316 1 1.00519 0.997984
1.00001 1 1.0016 0.998415
0.99891 1 1 0.99891
0.998763 1 1 0.998763
0.998546 1 1.00072 0.997824
0.998652 1 1.00036 0.998292
0.998477 1 1 0.998477
0.998264 1 1 0.998264
0.998458 1 1.00013 0.998329
0.998595 1 1 0.998595
0.969854 1.0326 0.941546 0.997545
0.980991 1.0102 0.973835 0.99718
0.96808 1.00129 0.969154 0.997606
0.978326 1.00145 0.978982 0.997884
1.03887 1 1.04138 0.997593
1.01809 1 1.02014 0.997999
1.01105 1 1.01324 0.997838
1.00968 1 1.01195 0.997755
0.961503 1.00318 0.960762 0.997602
1.01425 1 1.01653 0.997755
1.0294 1 1.03165 0.997821
0.962336 0.998599 0.965372 0.998254
1.00684 0.999584 1.00915 0.998124
0.945445 0.97528 0.971474 0.997874
0.965875 0.973107 0.993328 0.999235
1.04404 0.99797 1.04787 0.998377
1.00582 1 1.008 0.997834
1.02621 1 1.02826 0.998005
0.763325 0.888483 0.92048 0.933354
0.670084 0.791387 0.916994 0.923365
0.710708 0.827592 0.915779 0.937744
1.0041 0.998928 1.00671 0.998476
1.01576 1.00051 1.01681 0.99845
0.978153 0.985696 0.993491 0.998849
0.643408 0.776073 0.903347 0.917761
0.823389 0.905842 0.945263 0.961611
0.85002 0.914087 0.947025 0.981928
0.939424 0.947183 0.993524 0.998273
0.699399 0.816175 0.910927 0.940715
0.734496 0.877144 0.909954 0.920236
0.697545 0.873048 0.871282 0.917012
1.00608 0.997834 1.0089 0.999376
0.749356 0.877918 0.917332 0.930481
0.723227 0.872614 0.896317 0.924678
0.979403 0.965017 1.01539 0.999521
0.902844 0.927669 0.985018 0.988043
0.811347 0.88877 0.951182 0.95974
0.74124 0.918326 0.87952 0.917733
0.781424 0.877876 0.952519 0.934501
0.998125 0.969059 1.03029 0.999711
0.736827 0.866865 0.908634 0.93546
0.760639 0.907837 0.903002 0.927859
0.695418 0.874741 0.873287 0.910352
0.942458 0.932892 1.01341 0.996881
0.890872 0.921692 1.00038 0.966193
0.836542 0.930371 0.958705 0.937879
1.0151 0.997997 1.01811 0.999043
1.02801 0.993245 1.03576 0.99927
1.03338 0.982185 1.05258 0.999566
1.00211 1 1.00422 0.997892
1.01072 0.999756 1.01277 0.998222
1.04908 0.99765 1.05234 0.999251
1.00789 1 1.00975 0.998149
1.04321 0.998633 1.0456 0.999079
1.04752 0.990759 1.0579 0.999421
1.03767 0.985665 1.0533 0.999489
1.02771 0.997353 1.0314 0.999058
1.00654 1 1.00824 0.998314
1.00303 1 1.00475 0.998285
1.00899 0.99968 1.0107 0.998633
1.01292 0.998119 1.01591 0.998933
1.00322 0.999651 1.00522 0.998365
1.00316 0.999504 1.00483 0.998827
0.99716 0.999914 0.998532 0.998712
1.00382 0.999998 1.0066 0.997246
1.00042 1.00116 1.00101 0.998251
0.999818 1.00162 1.00055 0.997644
1.00102 1.0029 1.002 0.99613
1.0167 1.0195 1.00129 0.995969
1.00531 1.00515 1.00276 0.997409
1.00248 1.00457 1.00138 0.996543
1.01213 1 1.01439 0.997768
1.00552 1.00189 1.00578 0.997847
0.998767 1.0001 1.00052 0.99815
1.00749 1 1.00951 0.997997
1.01268 1 1.01466 0.998057
1.00576 1 1.00741 0.998361
1.00714 1 1.00893 0.99822
1.00077 1 1.00223 0.998542
0.999575 1 1.00033 0.99925
0.999261 1 1.00059 0.998675
0.999508 1 1.00016 0.999348
0.99995 1 1 0.99995
0.999479 1 1.00008 0.999397
0.999961 1 1 0.999961
1 1 1 1
0.999974 1 1 0.999974
1 1 1 1
1 1 1 1
0.998622 1 1 0.998622
0.999555 1 1 0.999555
0.998921 1 1 0.998921
1 1 1 1
0.999737 1 1 0.999737
0.999056 1 1 0.999056
1 1 1 1
1 1 1 1
0.999871 1 1 0.999871
1 1 1 1
1 1 1 1
1 1 1 1
0.753723 0.889571 0.912233 0.928807
0.638721 0.773152 0.8976 0.920372
0.69976 0.825206 0.90398 0.938054
0.998153 1 1 0.998153
0.729068 0.871597 0.901558 0.927809
0.718613 0.868026 0.900281 0.919569
0.614325 0.770731 0.872466 0.913581
0.939943 0.993111 0.957462 0.988512
0.861334 0.94669 0.940465 0.967434
0.678998 0.822106 0.884925 0.933328
0.61678 0.789168 0.860248 0.908526
0.889917 0.961544 0.941515 0.982998
0.839148 0.913425 0.950973 0.966045
0.706415 0.822012 0.921215 0.93287
0.696481 0.874026 0.874391 0.911337
0.834639 0.909196 0.93756 0.979134
0.818388 0.883911 0.96174 0.962705
0.792573 0.885295 0.957126 0.935367
0.745056 0.918829 0.883561 0.917735
1.00146 1 1.00365 0.997813
1.00414 1 1.00621 0.997943
0.999505 1 1.00104 0.99847
0.998258 1 1.00028 0.997976
0.998753 1 1.00085 0.997903
0.998411 1 1.00006 0.998349
0.998294 1 1.00003 0.998265
0.998453 1 1.00008 0.99837
0.961337 1.00383 0.959928 0.997649
0.962975 1.00094 0.963738 0.998266
1.00935 1 1.01168 0.997699
1.0008 1.00114 1.00158 0.99808
1.03043 1 1.03271 0.997797
1.014 1 1.01631 0.997724
1.00748 1 1.00966 0.997836
0.946927 0.973608 0.974525 0.998021
1.02353 1 1.02557 0.998013
1.03293 0.999032 1.03556 0.998422
0.966694 0.977042 0.990118 0.999283
1.00811 1 1.01007 0.998066
0.932369 0.948664 0.985314 0.997473
0.99799 0.974435 1.02471 0.999476
1.06172 0.996659 1.06684 0.998536
1.03346 0.9986 1.03676 0.998211
0.74237 0.866799 0.911818 0.939277
0.763026 0.888689 0.920414 0.932839
0.668171 0.789093 0.918368 0.922024
1.00341 0.998035 1.00607 0.999322
0.982499 0.968521 1.01511 0.99933
0.75206 0.881681 0.914947 0.932277
0.833048 0.882674 0.977285 0.965714
0.891707 0.926315 0.978058 0.984236
0.77336 0.870423 0.952615 0.932682
0.724086 0.873486 0.896333 0.924837
0.739884 0.917595 0.878641 0.917701
1.00426 0.978301 1.02687 0.999669
0.738305 0.868631 0.908617 0.935448
0.76275 0.906264 0.904886 0.930109
0.955721 0.941847 1.01565 0.99909
0.694315 0.872467 0.873093 0.911479
0.859068 0.900459 0.990779 0.962913
0.836002 0.928024 0.960969 0.93743
0.995502 0.964843 1.03209 0.999695
0.770544 0.897758 0.913925 0.939134
0.727426 0.86799 0.902794 0.928294
0.632222 0.811004 0.857466 0.909137
0.789447 0.883443 0.956001 0.934729
0.935103 0.936212 1.00619 0.992669
0.897162 0.920394 1.01732 0.958162
1.0271 0.996028 1.03203 0.999188
1.03208 0.979515 1.05415 0.999534
1.01933 0.96405 1.05778 0.999582
1.00942 1 1.01129 0.998155
1.04669 0.99812 1.04962 0.999091
1.05549 0.991683 1.06499 0.999396
1.02358 0.997763 1.02686 0.999045
1.0358 0.987846 1.04908 0.999488
1.0075 0.985292 1.02332 0.999235
1.01286 0.998921 1.01507 0.998903
1.00329 0.99968 1.00524 0.998375
1.00641 0.999624 1.008 0.998804
1.01331 0.998224 1.01707 0.99807
0.998003 0.998974 1 0.999028
1.00034 1.00013 1.00275 0.997471
1.00575 1.00184 1.00835 0.995582
1.0056 1.00769 1.00264 0.9953
1.00103 1.00318 1.00033 0.997523
1.00133 1.00361 1.00182 0.99591
1.01913 1.02265 1.00053 0.996033
1.01379 1.01451 1.00261 0.996688
1.01531 1.01803 1.00125 0.996079
1.00867 1.0015 1.00962 0.997564
1.00797 1.00726 1.00335 0.997371
0.999773 1.00189 1.00128 0.996612
1.01254 1 1.01443 0.998139
1.01131 1 1.01354 0.997797
1.00682 1.00263 1.00634 0.997863
1.01149 1 1.01342 0.99809
1.00572 1 1.00737 0.998362
1.00045 1 1.00138 0.999071
1.00103 1 1.00249 0.998542
0.999726 1 1.00048 0.999245
0.999934 1 1 0.999934
0.999377 1 1.00003 0.999344
0.999947 1 1 0.999947
1 1 1 1
0.999956 1 1 0.999956
1 1 1 1
1 1 1 1
0.998532 1 1 0.998532
0.999359 1 1 0.999359
0.998679 1 1 0.998679
0.999998 1 1 0.999998
0.999534 1 1 0.999534
0.998918 1 1 0.998918
1 1 1 1
1 1 1 1
0.999677 1 1 0.999677
1 1 1 1
1 1 1 1
1 1 1 1
0.743951 0.870743 0.911098 0.937755
0.755273 0.888286 0.915411 0.928827
0.639795 0.772044 0.900273 0.920502
0.998209 1 1.00002 0.998194
1.0001 1 1.00201 0.998096
0.998131 1 1 0.998131
0.762722 0.910466 0.903256 0.927452
0.726455 0.871755 0.897973 0.928007
0.716562 0.867664 0.898227 0.919425
0.896805 0.969336 0.93916 0.985108
0.806677 0.898768 0.933894 0.961068
0.707986 0.810623 0.928948 0.940186
0.702356 0.880938 0.877023 0.909078
0.838635 0.915433 0.932749 0.982159
0.83521 0.893289 0.971292 0.962617
0.778939 0.872011 0.954227 0.936116
0.741784 0.918015 0.880589 0.917601
0.852452 0.909166 0.957213 0.979532
0.864629 0.904688 0.991348 0.964062
0.836693 0.927405 0.961525 0.938287
0.707376 0.884253 0.876151 0.913051
0.998881 1 1.00088 0.998006
1.00171 1 1.00395 0.99777
1.0037 1 1.00581 0.997902
0.998123 1 1.00016 0.997961
0.998547 1 1.00056 0.997984
0.998267 1 1 0.998267
0.943799 0.96735 0.977442 0.998171
0.966069 0.977061 0.989435 0.999308
1.00816 1 1.01035 0.997838
1.02485 1.00005 1.02637 0.998466
1.02214 1 1.02416 0.998021
1.00933 0.999868 1.0114 0.998083
1.02552 0.995247 1.03223 0.998249
0.938454 0.947612 0.992745 0.997573
1.05649 0.994614 1.06362 0.998678
1.0013 0.968023 1.0351 0.999302
1.01573 0.993249 1.02425 0.998418
0.964717 0.948461 1.02004 0.997153
1.01313 0.969912 1.04538 0.999219
1.03362 0.973765 1.06275 0.998792
0.786019 0.906643 0.921033 0.941286
0.746238 0.868703 0.914152 0.939697
0.762085 0.888858 0.919607 0.932329
1.01084 0.98722 1.02431 0.999627
0.944873 0.940016 1.00776 0.997425
0.738821 0.86899 0.908885 0.935439
0.856446 0.887729 0.997531 0.967149
0.831802 0.929823 0.95828 0.933528
0.764074 0.905815 0.904724 0.932351
0.702347 0.87993 0.877736 0.909368
0.990613 0.960684 1.03141 0.999755
0.769819 0.895285 0.914746 0.939998
0.72999 0.873439 0.900116 0.928508
0.930584 0.93234 1.00991 0.988319
0.623426 0.803646 0.856276 0.905954
0.777199 0.871247 0.953946 0.935119
0.899207 0.922781 1.00999 0.96481
1.00674 0.952276 1.059 0.998296
0.744783 0.868853 0.91383 0.938033
0.73035 0.875815 0.906092 0.920335
0.545617 0.703959 0.849096 0.912816
0.702277 0.827794 0.910423 0.931845
0.870173 0.90415 0.999069 0.963317
0.904842 0.923101 0.995237 0.984911
1.02797 0.977958 1.05166 0.999501
1.0269 0.975054 1.05361 0.999583
1.00999 0.976578 1.03476 0.999475
1.01722 0.998248 1.01999 0.999032
1.03173 0.989937 1.04275 0.999487
1.01103 0.981287 1.03101 0.999319
1.00694 0.995751 1.01249 0.998764
1.00991 0.999937 1.0112 0.998779
1.01053 0.999179 1.01359 0.997804
1.02322 1.00092 1.02638 0.996006
0.996558 0.999929 0.998927 0.9977
1.00693 1.00171 1.00961 0.995639
1.00649 1.00268 1.00912 0.994719
1.00931 1.01254 1.00191 0.99492
1.01145 1.01475 1.00108 0.995677
1.00558 1.0075 1.00287 0.995241
1.00142 1.0042 1.00155 0.995693
1.01563 1.01822 1.0011 0.996366
1.02047 1.02395 1.00048 0.996126
1.00737 1.00569 1.00464 0.99705
1.01602 1.01653 1.00274 0.996773
1.01519 1.01788 1.00117 0.99619
1.01321 1.00034 1.01507 0.997821
1.00976 1.00281 1.0094 0.997556
1.01078 1.00962 1.00383 0.997331
1.0047 1 1.00585 0.998858
1.01111 1 1.013 0.998138
1.01077 1.00008 1.01289 0.997827
1.00547 1 1.00712 0.998364
1.00093 1 1.00187 0.999067
0.999891 1 1 0.999891
0.999758 1 1.00052 0.999239
0.999927 1 1 0.999927
1 1 1 1
0.999943 1 1 0.999943
1 1 1 1
1 1 1 1
0.998469 1 1 0.998469
0.999318 1 1 0.999318
0.998562 1 1 0.998562
0.999987 1 1 0.999987
0.999408 1 1 0.999408
0.998736 1 1 0.998736
1 1 1 1
0.999999 1 1 0.999999
0.999513 1 1 0.999513
1 1 1 1
1 1 1 1
1 1 1 1
0.768387 0.89641 0.91313 0.93873
0.748592 0.871862 0.915603 0.937756
0.757562 0.887053 0.9194 0.928889
1.01099 1 1.01306 0.997964
1.0039 1 1.00602 0.997899
0.998236 1 1 0.998236
1.00054 1 1.00247 0.998077
0.998143 1 1 0.998143
1.0017 1 1.0036 0.9981
0.998212 1 1 0.998212
0.72927 0.880848 0.895637 0.924391
0.766074 0.909042 0.906414 0.929738
0.728688 0.869837 0.902522 0.928209
0.740122 0.917904 0.878837 0.917483
0.84027 0.918391 0.93409 0.979496
0.837042 0.889778 0.977599 0.962287
0.787772 0.886674 0.945987 0.939186
0.836806 0.909849 0.939938 0.978489
0.866561 0.899249 1.00499 0.95886
0.834214 0.925897 0.96038 0.938149
0.698398 0.876163 0.869482 0.916764
0.886075 0.922662 0.978327 0.981621
0.881207 0.908787 1.01145 0.958673
0.767952 0.874869 0.9413 0.93253
0.641735 0.818673 0.862675 0.908654
1.03019 0.999483 1.0324 0.998378
1.00046 0.999973 1.00246 0.998035
1.00257 1 1.00486 0.997727
0.997947 1 1 0.997947
0.948841 0.950516 1.00054 0.997702
1.00302 0.965175 1.04012 0.99912
1.00908 0.9996 1.0114 0.998101
1.01884 0.994556 1.02618 0.998287
1.04475 0.988363 1.0583 0.998821
1.01689 0.997302 1.02125 0.99842
1.03814 0.973704 1.06748 0.998779
0.964699 0.948099 1.02213 0.995478
1.01274 0.961527 1.05392 0.999379
1.01197 0.978568 1.03526 0.998906
0.950692 0.924461 1.03388 0.994674
0.998965 0.948618 1.05384 0.999273
0.745256 0.866608 0.915293 0.939557
0.782992 0.903864 0.91854 0.943096
0.751211 0.87079 0.917634 0.94011
0.985643 0.954377 1.03296 0.999805
0.93634 0.936109 1.00718 0.993117
0.767442 0.892233 0.914187 0.940875
0.904222 0.928613 1.01532 0.959045
0.779993 0.880682 0.943909 0.9383
0.734889 0.875787 0.903544 0.928698
0.615382 0.785992 0.861496 0.908811
1.00709 0.954022 1.05717 0.998533
0.748549 0.873958 0.913077 0.938042
0.723327 0.869162 0.904409 0.920173
0.906871 0.923367 0.994429 0.987638
0.555302 0.724161 0.845101 0.907372
0.695344 0.812181 0.918324 0.93229
0.866153 0.901022 1.00203 0.959353
0.992133 0.956463 1.04115 0.996294
0.757115 0.893652 0.911839 0.929127
0.60552 0.754886 0.879802 0.911722
0.664981 0.801599 0.881258 0.941346
0.812475 0.86905 0.969718 0.964094
0.860392 0.898192 0.977095 0.98037
1.03534 0.980352 1.05653 0.99959
1.01296 0.973337 1.04124 0.999483
0.979616 0.972684 1.00789 0.999248
1.01526 0.977207 1.03956 0.999402
1.00387 0.986467 1.01879 0.998874
1.00484 1.0008 1.00642 0.997631
1.00717 1.00003 1.00963 0.997539
1.02205 1.00093 1.02536 0.995849
1.0108 1.00134 1.01459 0.994931
1.00842 1.00186 1.0109 0.995697
1.00715 1.0025 1.01007 0.994625
1.00204 1.00309 1.00448 0.994492
1.03677 1.04179 1 0.995188
1.02076 1.02483 1.00077 0.995259
1.00968 1.01268 1.00218 0.994861
1.01261 1.01656 1.00013 0.995983
1.00963 1.01319 1.00074 0.995741
1.0056 1.00723 1.00321 0.995182
1.01324 1.01573 1.00112 0.996435
1.01505 1.01768 1.00108 0.996336
1.02122 1.02466 1.00043 0.996219
1.00721 1.00172 1.00811 0.997392
1.00832 1.00655 1.00463 0.997144
1.01732 1.01759 1.00288 0.996858
1.00989 1 1.01136 0.998538
1.01226 1.0006 1.01386 0.997829
1.01071 1.00425 1.00891 0.997548
1.00006 1 1.00025 0.999814
1.00503 1 1.00618 0.998853
1.00991 1 1.01179 0.998137
1.00154 1 1.00248 0.999063
0.999879 1 1 0.999879
1 1 1 1
0.999919 1 1 0.999919
1 1 1 1
1 1 1 1
1.00981 1 1.01186 0.99797
1.00353 1 1.00527 0.998268
0.999145 1 1 0.999145
0.999027 1 1.00056 0.998464
0.999961 1 1 0.999961
0.99932 1 1 0.99932
0.998591 1 1 0.998591
1 1 1 1
0.999991 1 1 0.999991
0.999455 1 1 0.999455
1 1 1 1
1 1 1 1
1 1 1 1
0.739279 0.868602 0.90983 0.935465
0.76477 0.892703 0.911743 0.939618
0.749012 0.87522 0.91261 0.937749
1.01283 1 1.01489 0.997972
1.00645 1.00041 1.00814 0.997918
1.00044 1.00021 1.00243 0.997804
1.01305 1 1.01516 0.997924
1.00873 1.00109 1.00975 0.997901
1.00249 1 1.00444 0.998058
0.998185 1 1.00003 0.998155
1.00144 1 1.00334 0.998104
0.998287 1 1.00005 0.99824
1.01807 1 1.01981 0.998291
0.71302 0.85901 0.901701 0.920537
0.727801 0.876937 0.897567 0.92465
0.766543 0.908743 0.905055 0.93201
0.698675 0.876342 0.869279 0.917154
0.832764 0.927704 0.961112 0.933982
0.832566 0.90487 0.941835 0.976917
0.871274 0.901041 1.00358 0.963513
0.875062 0.922847 0.969605 0.977944
0.886636 0.920091 0.999886 0.963748
0.784327 0.877481 0.955373 0.935593
0.644002 0.827685 0.857486 0.907392
0.891992 0.912851 0.996465 0.980616
0.873037 0.897057 1.00907 0.964477
0.686437 0.795517 0.917956 0.940003
0.58776 0.753961 0.854337 0.912477
1.02719 0.999719 1.02857 0.998939
1.03024 0.999176 1.03275 0.998388
1.00312 1 1.00506 0.998066
0.964278 0.947206 1.02446 0.993717
1.01384 0.955499 1.06155 0.999536
1.01795 0.999522 1.02005 0.998422
1.04528 0.972893 1.07573 0.998767
1.0156 0.983073 1.03421 0.998912
1.00534 0.957031 1.05125 0.999272
0.951865 0.929283 1.02983 0.994629
1.0117 0.986742 1.02596 0.999345
0.963648 0.948938 1.01999 0.995602
0.765438 0.89027 0.921669 0.932853
0.75231 0.871742 0.918116 0.939965
0.779046 0.900691 0.915354 0.944926
1.00899 0.962872 1.04924 0.998726
0.902181 0.921713 0.995843 0.982895
0.755182 0.879531 0.915331 0.938042
0.869405 0.904134 1.00081 0.960809
0.694856 0.798877 0.925883 0.939418
0.713857 0.863576 0.898439 0.920073
0.564506 0.744192 0.841131 0.901819
0.989664 0.955555 1.03924 0.996586
0.75619 0.88836 0.916161 0.929117
0.603963 0.755956 0.877685 0.910281
0.8731 0.911169 0.975745 0.982039
0.67621 0.807518 0.891759 0.939034
0.812598 0.881353 0.959382 0.961024
0.942586 0.941802 1.00632 0.994549
0.634605 0.773212 0.89524 0.916781
0.680604 0.811157 0.890519 0.942207
0.81767 0.902339 0.942684 0.961263
0.836346 0.899785 0.945607 0.982962
1.01377 0.971836 1.04368 0.999493
0.983079 0.968124 1.01624 0.999221
0.992034 0.988233 1.00545 0.998409
1.00097 0.975653 1.02699 0.998979
1.0034 0.999787 1.0059 0.997726
0.998012 1.00289 0.998566 0.996562
1.02121 1.00082 1.02479 0.995689
1.0097 1.00172 1.0131 0.994929
0.999969 1.00329 1.00137 0.995324
1.00728 1.00215 1.01065 0.994532
1.00225 1.00404 1.0037 0.994531
1.03281 1.03757 0.999974 0.99544
1.06331 1.06826 0.999439 0.995931
1.04832 1.05327 1.00002 0.995289
1.03701 1.04199 1 0.995221
1.02633 1.03092 1 0.995553
1.01961 1.02342 1.00107 0.9952
1.01077 1.01358 1.00244 0.994803
1.01941 1.02339 1 0.996113
1.01114 1.01512 1.00002 0.996055
1.00759 1.01152 1.00032 0.995804
1.00481 1.00586 1.00208 0.996879
1.01014 1.01239 1.0013 0.996488
1.01524 1.01789 1.0011 0.996307
1.01084 1.00024 1.01257 0.998051
1.00915 1.00287 1.00889 0.997392
1.00934 1.0073 1.0048 0.997237
1.00171 1 1.002 0.999704
1.00933 1 1.01081 0.998533
1.01167 1.00084 1.01302 0.997837
0.999965 1 1 0.999965
1.00053 1 1.00073 0.999799
1.00537 1 1.00653 0.998848
0.999886 1 1.00002 0.999866
1 1 1 1
1 1 1 1
1.00774 1.00132 1.00863 0.997803
1.00883 1 1.01078 0.998071
1.01126 1 1.01335 0.997944
1.0005 1 1.00155 0.998955
1.00285 1 1.00459 0.998264
0.999923 1 1 0.999923
0.999253 1 1.0001 0.99915
0.998985 1 1.00053 0.998458
1 1 1 1
0.99997 1 1 0.99997
0.999323 1 1 0.999323
1 1 1 1
0.999995 1 1 0.999995
1 1 1 1
0.748959 0.879821 0.912487 0.932905
0.74318 0.871997 0.911066 0.935467
0.765685 0.888204 0.916595 0.940502
1.00038 1.00221 1.00044 0.997725
1.01068 1 1.01272 0.997981
1.00408 1 1.00615 0.99794
1.00757 1 1.0097 0.997891
1.00099 1.00072 1.00244 0.997833
1.00442 1 1.00635 0.998077
1.01366 1.00083 1.01552 0.997337
1.01806 0.99981 1.02021 0.998086
1.00157 1 1.00347 0.998108
0.998267 1 1 0.998267
1.01953 0.999899 1.02139 0.998274
1.03584 1.00139 1.03596 0.998491
0.621243 0.76569 0.888719 0.912944
0.726637 0.87276 0.904795 0.92018
0.728449 0.875933 0.8992 0.924851
0.64541 0.826926 0.855579 0.912238
0.778508 0.873838 0.953575 0.934281
0.883757 0.911571 1.01119 0.958763
0.876512 0.918697 0.974875 0.978671
0.892132 0.914516 0.992633 0.982764
0.576985 0.748933 0.849374 0.907032
0.862993 0.899118 0.999625 0.960182
0.695773 0.808568 0.920569 0.934748
0.890795 0.921775 0.981544 0.984562
0.841504 0.891884 0.976594 0.966126
0.664371 0.799378 0.884221 0.939934
0.992215 1.00088 0.991818 0.999526
1.02774 1.00021 1.0286 0.998945
1.0299 0.99979 1.03177 0.998397
0.954515 0.933645 1.02784 0.99466
1.01276 0.966504 1.04862 0.999273
1.01987 0.989693 1.03161 0.998919
1.0098 0.985591 1.02524 0.999344
0.959719 0.947893 1.0169 0.995652
0.985043 0.98021 1.00779 0.997162
0.671892 0.791316 0.922195 0.920718
0.761699 0.888687 0.916791 0.934899
0.754743 0.875068 0.917215 0.940343
0.990844 0.955495 1.04036 0.99677
0.865866 0.909098 0.96899 0.982927
0.753648 0.882994 0.918559 0.929189
0.827302 0.878748 0.97921 0.961444
0.681859 0.825331 0.884457 0.934092
0.617379 0.770891 0.875881 0.914353
0.940885 0.935198 1.01154 0.994606
0.640776 0.774015 0.898959 0.92091
0.671199 0.810458 0.883997 0.93685
0.831792 0.902413 0.941438 0.979079
0.84052 0.918123 0.94756 0.966141
0.93582 0.952777 0.984691 0.997472
0.700263 0.821626 0.910906 0.935649
0.883491 0.96522 0.945434 0.968155
0.834579 0.914226 0.932678 0.978774
0.986237 0.964721 1.02312 0.999199
0.982321 0.988116 0.995634 0.998494
0.994306 1.00054 0.996355 0.997402
1.00203 0.999171 1.00505 0.997821
0.999619 1.00291 1.00019 0.996526
1.00153 1.00615 0.998958 0.996444
1.00892 1.00242 1.01162 0.994927
0.999772 1.00279 1.00167 0.995327
1.03254 1.04035 0.996087 0.996388
1.00247 1.00475 1.00319 0.99457
1.03125 1.03614 0.999827 0.995449
1.06228 1.06959 0.996567 0.996586
1.06088 1.06738 0.997216 0.996688
1.06464 1.06917 0.999925 0.995844
1.06437 1.06936 0.999352 0.995981
1.0512 1.05594 1 0.995519
1.04632 1.05119 1 0.995361
1.03584 1.04078 1 0.995254
1.03727 1.0416 1 0.99584
1.02722 1.03164 1.00014 0.995575
1.01834 1.0218 1.00148 0.995142
1.01542 1.01905 1 0.996436
1.0172 1.02117 1 0.996111
1.0094 1.01333 1 0.996127
1.00471 1.00163 1.00551 0.997575
1.00728 1.00808 1.00234 0.996871
1.00665 1.00869 1.00145 0.996541
1.00309 1 1.00362 0.999473
1.00941 1.00085 1.01053 0.998048
1.01041 1.00415 1.00887 0.997391
1 1 1 1
1.00232 1 1.00267 0.999654
1.00829 1 1.00978 0.998528
1 1 1 1
1.00098 1 1.0012 0.999779
1 1 1 1
1.0025 1.00305 1.00185 0.9976
1.0064 1.00075 1.00789 0.997775
1.00998 1 1.0121 0.997907
1.00461 1 1.00585 0.998763
1.01031 1 1.01226 0.998069
1.01508 1 1.0172 0.997919
0.999867 1 1 0.999867
1.00004 1 1.00108 0.99896
1.00353 1 1.00528 0.998259
1 1 1 1
0.999934 1 1 0.999934
0.99916 1 1.00001 0.999155
1 1 1 1
0.999978 1 1 0.999978
1 1 1 1
0.644156 0.778238 0.905621 0.91397
0.752892 0.883927 0.912959 0.932965
0.747301 0.875976 0.911947 0.935479
1.00362 1.00125 1.00468 0.997695
1.0094 1.00501 1.0071 0.997293
1.0136 1.00165 1.01445 0.997525
1.00752 1 1.00969 0.997857
1.00306 1.00259 1.00261 0.997863
1.00533 1 1.0071 0.998247
1.01736 0.99998 1.0194 0.998014
1.01449 1.00162 1.01542 0.99747
1.01883 1.00232 1.019 0.997518
0.980429 1.0017 0.979774 0.998965
1.0184 1 1.02018 0.998257
1.03077 1.00044 1.0319 0.998464
0.677235 0.809476 0.896212 0.933522
0.600331 0.746499 0.884225 0.909491
0.735373 0.88035 0.907916 0.92004
0.567068 0.744297 0.845216 0.901407
0.706825 0.818989 0.917903 0.940236
0.849919 0.891591 0.99115 0.961773
0.894256 0.916179 0.996147 0.979846
0.877813 0.913395 0.978749 0.98191
0.67101 0.797033 0.897436 0.938101
0.820622 0.88337 0.965999 0.961665
0.856728 0.91665 0.950097 0.98372
0.812629 0.911565 0.926762 0.961914
0.997604 1 0.998573 0.99903
0.992503 1.00045 0.992578 0.999474
1.02864 0.999782 1.02995 0.998951
0.95225 0.943442 1.01368 0.995714
1.00669 0.98313 1.02464 0.999344
0.98678 0.982672 1.00708 0.997117
0.970523 0.9877 0.986541 0.996015
0.720031 0.834939 0.915616 0.941853
0.667895 0.788476 0.91982 0.920908
0.764085 0.890996 0.915346 0.936872
0.943756 0.941646 1.00747 0.99481
0.834387 0.899193 0.947377 0.979471
0.641892 0.773734 0.900782 0.920981
0.806428 0.901294 0.930518 0.961556
0.688135 0.814684 0.89642 0.942265
0.937824 0.956608 0.984226 0.996076
0.71079 0.831463 0.91013 0.939279
0.870521 0.960588 0.941752 0.962289
0.8345 0.914851 0.929308 0.981559
0.947596 0.978308 0.971285 0.997243
0.896128 0.977124 0.948026 0.967387
0.889524 0.964779 0.936286 0.984739
0.972733 0.986888 0.987077 0.998561
0.988726 1.00048 0.990855 0.997371
0.984082 1.00902 0.978033 0.997192
1.00058 1.00294 1.00116 0.996492
1.00086 1.00612 0.998326 0.996435
1.02566 1.04676 0.982665 0.997131
0.999372 1.00219 1.00186 0.99533
1.0302 1.03925 0.994913 0.996364
1.04733 1.06925 0.982249 0.997202
1.03064 1.03565 0.999707 0.995457
1.06069 1.06896 0.995676 0.996576
1.05259 1.06829 0.988073 0.997198
1.05514 1.06578 0.992914 0.99708
1.0617 1.06863 0.996745 0.996764
1.06006 1.06445 0.999334 0.996537
1.06546 1.06984 1 0.995906
1.06484 1.06932 0.999944 0.995871
1.06632 1.07138 0.999243 0.996031
1.05402 1.05854 1 0.995729
1.05289 1.0576 1 0.995546
1.04456 1.04935 1 0.995432
1.03546 1.03949 1 0.996126
1.03731 1.04164 1 0.995838
1.02814 1.03251 1.00017 0.995598
1.00319 1.0055 1.00049 0.997208
1.01658 1.02022 1 0.996435
1.0157 1.01967 1 0.996108
1.00248 1 1.00332 0.999166
1.00586 1.00275 1.00555 0.997572
1.01004 1.01019 1.003 0.996863
1 1 1 1
1.00337 1 1.00393 0.999448
1.00869 1.00122 1.00943 0.998045
0.999972 1 1 0.999972
1.00313 1 1.00349 0.999641
1 1 1 1
1.00143 1.00403 1 0.997413
1.00201 1.00151 1.00289 0.997616
1.0055 1 1.00777 0.997743
1.00375 1 1.00602 0.997746
1.01003 1 1.01215 0.99791
1.00819 1 1.00964 0.998557
1.00048 1 1.0007 0.999784
1.00356 1 1.0048 0.998763
1.01 1 1.01195 0.998066
1 1 1 1
0.999883 1 1 0.999883
0.999652 1 1.00069 0.998965
1 1 1 1
0.999947 1 1 0.999947
1 1 1 1
0.702454 0.823899 0.907916 0.939071
0.646246 0.778101 0.907248 0.915453
0.754113 0.885825 0.912415 0.93303
1.00638 1.00038 1.00835 0.997666
1.01686 1.00094 1.01864 0.99731
1.0066 1.00399 1.00526 0.997358
1.00711 1.00869 1.0021 0.996347
1.017 1.00274 1.01679 0.997478
1.0154 1 1.01749 0.997947
1.0125 1.00113 1.01379 0.997602
1.01961 1.00194 1.02005 0.997631
0.999913 1.00522 0.997452 0.997264
0.972247 1.00102 0.972744 0.998466
0.971294 1.00035 0.973217 0.997673
0.984145 1.00131 0.983846 0.998991
1.02639 1.00097 1.027 0.998439
0.862623 0.950448 0.939791 0.965743
0.668967 0.802827 0.890792 0.93542
0.594899 0.742062 0.879822 0.911189
0.670303 0.805611 0.891557 0.933247
0.828466 0.892127 0.964394 0.962928
0.883923 0.911058 0.98539 0.984601
0.855541 0.914522 0.949096 0.985682
0.848945 0.923343 0.950507 0.967301
0.877734 0.957308 0.931058 0.98477
0.992437 1.00132 0.992899 0.998218
0.997521 0.999991 0.998523 0.999005
0.992196 1.00005 0.992719 0.999424
0.990004 0.986726 1.00621 0.997127
0.977597 0.990217 0.99074 0.996483
0.879766 0.96641 0.943364 0.964998
0.7219 0.833422 0.918969 0.942563
0.662578 0.783471 0.918084 0.921153
0.940608 0.963077 0.981982 0.994589
0.842484 0.926346 0.928964 0.979015
0.703752 0.826749 0.907025 0.938482
0.864244 0.94905 0.941273 0.967458
0.955653 0.979283 0.978471 0.997342
0.905862 0.986918 0.94844 0.967768
0.886959 0.961418 0.93957 0.981889
0.957456 1.0028 0.957974 0.99667
0.92356 0.990838 0.942042 0.989447
0.987341 1.00226 0.987714 0.997368
0.980295 1.00886 0.974463 0.997146
0.99134 1.04134 0.954367 0.997501
1.00018 1.00565 0.998123 0.996425
1.02824 1.0482 0.98381 0.997098
1.04208 1.0756 0.971254 0.997505
1.02764 1.03803 0.993623 0.996341
1.04742 1.06936 0.98226 0.997176
1.03985 1.06794 0.976203 0.997433
1.0582 1.06749 0.99471 0.996566
1.05221 1.06792 0.988077 0.997175
1.05031 1.06972 0.984528 0.997277
1.05372 1.06537 0.991909 0.997138
1.05481 1.06409 0.994364 0.996891
1.06211 1.06946 0.996274 0.996841
1.0601 1.0644 0.99943 0.996529
1.06075 1.06478 0.999913 0.996302
1.06267 1.06706 1 0.995885
1.06524 1.06963 1 0.995893
1.06494 1.06935 0.999985 0.995897
1.05075 1.05502 1 0.995956
1.05482 1.05935 1 0.995727
1.05482 1.05951 1 0.995573
1.01302 1.01615 1 0.996921
1.03396 1.03798 1 0.996128
1.03687 1.04121 1 0.995836
1.00041 1 1.00159 0.998819
1.00631 1.00838 1.00074 0.99721
1.01749 1.02113 1 0.996435
1 1 1 1
1.002 1 1.00286 0.999141
1.00693 1.00421 1.00515 0.997569
1 1 1 1
1.0034 1 1.00398 0.999422
1 1 1 1
1.01563 1.01852 1.00067 0.996481
1.00259 1.00505 1.00015 0.997399
1.00159 1.00188 1.00226 0.997462
1.00224 1 1.00461 0.997632
1.00507 1.00008 1.0073 0.997704
1.0086 1.00025 1.01009 0.998273
1.01217 1 1.01428 0.997912
1.00893 1 1.01039 0.998554
1.00271 1 1.00304 0.999664
1 1 1 1
1.00025 1 1.00045 0.999798
1.00321 1 1.00445 0.998764
1 1 1 1
0.999896 1 1 0.999896
1 1 1 1
0.89726 0.976048 0.948232 0.969466
0.710861 0.833185 0.907513 0.940135
0.645094 0.777817 0.908207 0.913189
1.01981 1.00039 1.02239 0.997095
1.00401 1.00332 1.00327 0.997423
1.01412 1.00267 1.01408 0.997376
1.00783 1.00941 1.00199 0.996448
1.02622 1.03011 1.00016 0.996064
1.00202 1.00514 0.999904 0.99699
1.02209 1.00191 1.02245 0.997741
1.00118 1.00625 0.997888 0.997076
0.979537 1.00246 0.978655 0.998449
0.996368 1.00347 0.995581 0.997327
0.9727 1.00345 0.971645 0.997645
0.992826 1.00155 0.994086 0.997188
0.972248 1.00082 0.973618 0.997776
0.987741 1.0001 0.988611 0.999017
0.891133 0.968796 0.934153 0.984673
0.872336 0.960852 0.940526 0.965287
0.681261 0.803408 0.900916 0.941225
0.827892 0.914337 0.941902 0.961307
0.867772 0.916885 0.959155 0.986737
0.879842 0.948047 0.93847 0.988905
0.968228 1.00377 0.96766 0.996832
0.989927 1.00043 0.991352 0.998131
0.996938 0.999525 0.998428 0.998982
0.979557 0.991191 0.991302 0.996933
0.915326 0.973146 0.954654 0.985263
0.893123 0.973322 0.94537 0.970628
0.712075 0.829089 0.915995 0.93763
0.953507 0.974606 0.980855 0.997447
0.891057 0.966933 0.936855 0.98364
0.905647 0.985366 0.949506 0.967974
0.952243 1.00055 0.954808 0.996768
0.926306 0.987616 0.9488 0.988535
0.955861 1.02532 0.935117 0.996945
0.971774 1.0211 0.956022 0.995469
0.97462 1.00867 0.969061 0.997093
0.988019 1.03864 0.953648 0.997499
1.00803 1.07444 0.940573 0.99747
1.03141 1.05029 0.984916 0.997066
1.04122 1.07506 0.970965 0.997481
1.04485 1.07521 0.974308 0.997383
1.04807 1.0698 0.98249 0.997149
1.04094 1.06767 0.977494 0.997413
1.05476 1.07695 0.98211 0.997237
1.0522 1.06784 0.988161 0.997152
1.04883 1.06747 0.985227 0.99727
1.0543 1.06987 0.988411 0.997
1.05258 1.0652 0.990933 0.997195
1.0546 1.06401 0.994201 0.996937
1.05983 1.06568 0.997947 0.996556
1.06025 1.06447 0.999511 0.99652
1.06114 1.06518 0.999921 0.996291
1.06268 1.06681 1 0.996135
1.05616 1.06045 1 0.99595
1.0629 1.06731 1 0.995868
1.06494 1.06935 1 0.995881
1.0273 1.03068 1 0.996714
1.04938 1.05364 1 0.995962
1.05568 1.06021 1 0.995725
0.999907 1.0011 1.00027 0.998538
1.01493 1.01805 1.00001 0.99692
1.03266 1.03667 1 0.99613
1 1 1 1
1.00017 1.0002 1.00116 0.998799
1.00938 1.01119 1.001 0.997212
1 1 1 1
1.00165 1 1.00253 0.999116
1 1 1 1
1.0311 1.03513 1 0.996111
1.01721 1.02042 1.00034 0.996514
1.01319 1.01573 1.00066 0.99684
1.00368 1.00595 1.00035 0.997385
1.00185 1.00226 1.0022 0.997401
1.00666 1.00338 1.00538 0.9979
1.00395 1 1.0063 0.997666
1.00877 1.0002 1.01032 0.998275
1.00403 1 1.00453 0.999503
1.00897 1 1.01043 0.998553
1.00187 1 1.0022 0.999675
1 1 1 1
1 1 1 1
0.999908 1 1.00009 0.999814
1 1 1 1
0.90723 0.969208 0.949627 0.985707
0.885842 0.973304 0.94385 0.964283
0.710872 0.826216 0.912265 0.943141
1.04748 1.05161 1.00007 0.996003
1.01081 1.00198 1.01156 0.997276
1.0089 1.01058 1.00179 0.99655
1.00247 1.00548 0.999998 0.997001
1.02468 1.02831 1.00042 0.996045
1.01088 1.01423 0.999715 0.996982
1.00177 1.00598 0.998928 0.996889
0.98363 1.00274 0.98248 0.99843
0.994321 1.00394 0.993055 0.997341
0.966166 1.00246 0.966218 0.997492
1.01436 1.01828 0.999536 0.996618
0.990325 1.0074 0.985751 0.997262
0.99184 1.00216 0.992514 0.997165
0.974493 1.00134 0.975263 0.997878
0.961281 1.00598 0.95808 0.99738
0.883125 0.963219 0.932566 0.983145
0.869078 0.962303 0.935719 0.965166
0.877906 0.941144 0.945578 0.986494
0.971092 1.00454 0.968812 0.997822
0.989978 1.00018 0.99175 0.998032
0.972652 1.00837 0.969804 0.994613
0.902865 0.956752 0.95642 0.986676
0.880799 0.971657 0.939228 0.965145
0.952098 0.998311 0.95671 0.996863
0.934294 0.989745 0.956015 0.987405
0.959392 1.02713 0.936763 0.997109
0.977055 1.02161 0.960413 0.995813
0.990917 1.05053 0.945836 0.99727
1.05539 1.08886 0.972025 0.997156
0.984165 1.03528 0.953013 0.997496
1.01425 1.07599 0.945021 0.997452
1.03655 1.09027 0.953363 0.997234
1.03984 1.07411 0.970565 0.997458
1.04121 1.073 0.972918 0.99738
1.05544 1.08519 0.975394 0.997119
1.04168 1.06718 0.978654 0.997394
1.05238 1.07517 0.981502 0.997251
1.05787 1.07569 0.986442 0.996949
1.04725 1.06514 0.985909 0.997264
1.05464 1.0702 0.988427 0.996997
1.05965 1.06985 0.993763 0.996683
1.05427 1.06382 0.994021 0.996983
1.06027 1.06607 0.997946 0.996602
1.06493 1.06907 0.999846 0.996274
1.06155 1.06557 0.999944 0.99628
1.06249 1.06662 1 0.996126
1.05811 1.06233 1 0.996028
1.0353 1.03882 1 0.996614
1.05609 1.06038 1 0.995952
1.06311 1.06754 1 0.995851
1.00428 1.00589 1 0.998401
1.02665 1.03003 1 0.996714
1.04818 1.05243 1 0.995968
1 1 1 1
1.0011 1.00248 1.0001 0.998523
1.01684 1.01998 1 0.99692
1 1 1 1
0.999803 1.0004 1.00063 0.99878
1 1 1 1
1.04634 1.05065 1 0.995895
1.03209 1.03612 1 0.996104
1.03068 1.03439 1 0.996413
1.01904 1.02249 1.00008 0.996547
1.01506 1.01773 1.00056 0.996821
1.01039 1.01033 1.00253 0.997534
1.00155 1.00226 1.00196 0.99734
1.00591 1.00183 1.00619 0.997903
1.00235 1 1.00306 0.999295
1.00898 1 1.01072 0.998276
1.00333 1 1.00381 0.999516
1 1 1 1
1.00121 1 1.00152 0.999687
1 1 1 1
1 1 1 1
0.966716 1.01057 0.959551 0.996933
0.901069 0.968001 0.94728 0.982661
0.885427 0.968403 0.94277 0.969819
1.03975 1.04334 1.00001 0.996546
1.05763 1.0623 0.999385 0.996215
1.04567 1.04967 1.00009 0.99609
1.00336 1.00637 1 0.99701
1.02285 1.02618 1.00073 0.996024
1.01355 1.01778 0.998873 0.99697
1.03736 1.0469 0.994321 0.99655
0.993718 1.00524 0.991163 0.997355
0.962635 1.00189 0.963383 0.99734
1.01574 1.02101 0.998094 0.996741
1.02542 1.04696 0.982856 0.996505
0.992772 1.02844 0.967809 0.997427
0.997079 1.01 0.989976 0.997201
0.993038 1.0027 0.993204 0.997141
0.963926 1.00746 0.958989 0.997706
0.889225 0.967432 0.93643 0.981558
0.971266 1.00417 0.968349 0.998846
1.03485 1.06761 0.971523 0.997724
0.970274 1.00682 0.968771 0.994764
0.905699 0.965631 0.952934 0.98426
0.962305 1.02941 0.937383 0.997262
0.981433 1.02188 0.964102 0.996176
0.985306 1.05087 0.940003 0.997453
1.05261 1.08826 0.969981 0.99718
1.05025 1.1006 0.956958 0.997172
1.09279 1.12564 0.973424 0.997324
1.02049 1.07849 0.948657 0.997433
1.04288 1.09286 0.956911 0.997234
1.05764 1.09482 0.968907 0.997034
1.03765 1.07091 0.971489 0.997377
1.05537 1.08446 0.975987 0.99712
1.05765 1.08089 0.98153 0.996917
1.05006 1.07342 0.980914 0.997265
1.05866 1.07644 0.986489 0.996945
1.06057 1.07407 0.990703 0.996695
1.05501 1.07056 0.98844 0.996995
1.06039 1.07058 0.993781 0.996681
1.06781 1.07281 0.99899 0.996345
1.06068 1.06646 0.997928 0.996648
1.06452 1.06867 0.999834 0.996287
1.06218 1.06638 1 0.99606
1.06229 1.06643 1 0.996116
1.05795 1.06217 1 0.996035
1.03615 1.03971 1 0.996574
1.00884 1.01048 1 0.998378
1.03466 1.03817 1 0.996614
1.05601 1.0603 1 0.995953
1 1 1 1
1.00552 1.00714 1 0.998389
1.02568 1.02906 1 0.996713
1 1 1 1
1.00211 1.00361 1 0.998508
1 1 1 1
1.05627 1.06055 1 0.99597
1.04582 1.05013 1 0.995902
1.04436 1.0484 1 0.996148
1.03216 1.0362 1 0.996096
1.03121 1.03491 1 0.996416
1.01677 1.01919 1.00041 0.997216
1.01653 1.01932 1.00046 0.996803
1.00793 1.00766 1.00273 0.997536
1.00044 1 1.00144 0.999003
1.00578 1.00061 1.00728 0.997907
1.00279 1 1.00347 0.999313
1 1 1 1
1.00282 1 1.00329 0.999529
1 1 1 1
1 1 1 1
0.998888 1.05004 0.953377 0.997807
0.963879 1.00941 0.958841 0.995882
0.903252 0.969978 0.946892 0.983436
1.05197 1.05862 0.997262 0.996451
1.04037 1.04382 0.999933 0.996762
1.06917 1.07622 0.997082 0.996361
1.05768 1.06288 0.998904 0.996196
1.04385 1.04776 1.00009 0.996179
1.06066 1.07899 0.986611 0.996352
1.01613 1.02134 0.997929 0.996959
1.03666 1.04561 0.994935 0.996488
1.04812 1.08569 0.968626 0.996658
1.0137 1.02348 0.993567 0.996865
1.02662 1.0477 0.983396 0.996423
0.993008 1.03248 0.964207 0.997468
1.00086 1.01068 0.993135 0.997137
0.966964 1.00874 0.960518 0.997993
1.08025 1.11649 0.970098 0.997357
1.04042 1.06925 0.975233 0.997749
0.96906 1.00555 0.968634 0.994917
0.980627 1.05073 0.935496 0.997633
1.04996 1.08766 0.96804 0.997206
1.04466 1.09814 0.953978 0.997195
1.09793 1.12997 0.974254 0.997318
1.07575 1.1098 0.972032 0.997204
1.04895 1.095 0.960601 0.997234
1.05856 1.09394 0.970527 0.997045
1.05801 1.08505 0.978059 0.996958
1.05533 1.08369 0.976644 0.997121
1.05811 1.08097 0.981897 0.996898
1.0602 1.0761 0.988497 0.996686
1.05945 1.0772 0.986544 0.996942
1.06093 1.07444 0.990707 0.996691
1.06969 1.0771 0.99672 0.996394
1.06109 1.07127 0.993798 0.996678
1.06756 1.07257 0.998979 0.996346
1.06751 1.07172 1 0.996077
1.06416 1.0683 0.999824 0.996301
1.06177 1.06596 1 0.996067
1.03679 1.04041 1 0.996526
1.05775 1.06195 1 0.996041
1.03676 1.04032 1 0.996574
1.01023 1.01156 1 0.998686
0.999453 1 1 0.999453
1.00937 1.01088 1 0.998507
1.03403 1.03754 1 0.996614
1 1 1 1
1.00711 1.00874 1 0.998377
1 1 1 1
1.07226 1.079 0.997273 0.996473
1.06318 1.06737 0.999885 0.996192
1.05702 1.06131 0.999966 0.995989
1.05031 1.05446 1 0.996066
1.04609 1.05038 1 0.995908
1.04458 1.04863 1 0.996141
1.02048 1.02362 1 0.996935
1.03223 1.03594 1 0.996419
1.01426 1.0165 1.00058 0.997216
1.0001 1.00131 1.00012 0.998668
1.0052 1.00484 1.00282 0.997538
1.00088 1.00001 1.00185 0.999022
1 1 1 1
1.00288 1 1.00355 0.999332
1 1 1 1
1 1 1 1
1.06768 1.11092 0.963867 0.9971
1.00707 1.05986 0.952262 0.997827
0.961052 1.00962 0.956823 0.994852
1.06361 1.07722 0.990926 0.996402
1.04766 1.05457 0.996939 0.996496
1.04089 1.04417 0.999877 0.996976
1.06768 1.07425 0.997499 0.996375
1.05785 1.06347 0.998534 0.996177
1.06673 1.0988 0.974093 0.996637
1.05641 1.0752 0.986156 0.996311
1.03628 1.04451 0.995682 0.996425
1.04447 1.08182 0.968713 0.996657
1.03186 1.05142 0.985007 0.996342
0.996999 1.04146 0.959685 0.99752
1.07281 1.10177 0.976333 0.997311
1.08196 1.1183 0.970028 0.997396
1.04521 1.07111 0.977997 0.997776
1.03978 1.09633 0.95107 0.997215
1.10342 1.13446 0.975256 0.997312
1.07663 1.11152 0.971319 0.997209
1.06469 1.08617 0.983101 0.997075
1.05939 1.09302 0.972097 0.997055
1.05861 1.08492 0.978738 0.996943
1.06127 1.07744 0.988224 0.996732
1.0586 1.08111 0.982244 0.996878
1.06075 1.07664 0.988519 0.996685
1.07002 1.08005 0.994271 0.996421
1.06132 1.07484 0.990711 0.996686
1.06925 1.07667 0.996702 0.996393
1.07091 1.07512 1 0.996084
1.06733 1.07235 0.998965 0.996347
1.06744 1.07163 1 0.996082
1.03798 1.04168 1 0.996453
1.06134 1.06552 1 0.996074
1.03811 1.04173 1 0.996527
1.00926 1.01056 1 0.998704
1.03747 1.04104 1 0.996574
1.00997 1.01131 1 0.99868
0.999484 1 1 0.999484
0.99974 1 1 0.99974
1.00992 1.01129 1 0.998648
1 1 1 1
1.06413 1.07627 0.992198 0.99649
1.06666 1.07135 0.999328 0.996289
1.07033 1.07758 0.996652 0.996604
1.05935 1.06352 1 0.996077
1.06531 1.06951 0.999898 0.996182
1.05758 1.06197 0.999859 0.996009
1.0507 1.05486 1 0.996055
1.02994 1.03332 1 0.996736
1.04501 1.04907 1 0.996134
1.02197 1.02511 1 0.996936
1.00488 1.00644 1 0.998456
1.01213 1.01443 1.00052 0.997217
1.00028 1.00105 1.00054 0.99869
1 1 1 1
1.00141 1 1.00237 0.999042
1 1 1 1
1 1 1 1
1.06561 1.09718 0.974162 0.996987
1.0604 1.10282 0.96433 0.9971
1.01322 1.06624 0.952332 0.997839
1.0639 1.08581 0.983202 0.996567
1.06091 1.07463 0.990794 0.996398
1.04328 1.05047 0.996606 0.996543
1.0659 1.07216 0.997768 0.996389
1.06542 1.09685 0.974654 0.996612
1.05153 1.07072 0.98576 0.99627
1.03546 1.07189 0.969247 0.996656
1.06819 1.08854 0.984123 0.99714
1.07146 1.10003 0.976694 0.997269
1.08325 1.11961 0.970014 0.997434
1.06355 1.0799 0.987845 0.99698
1.07728 1.11313 0.970498 0.997213
1.06441 1.086 0.98301 0.997061
1.06302 1.07781 0.989405 0.996843
1.05924 1.08477 0.979478 0.996927
1.0614 1.0776 0.988195 0.996734
1.07014 1.08058 0.993877 0.996447
1.06126 1.07713 0.988544 0.996684
1.06955 1.07955 0.994295 0.99642
1.07193 1.0764 0.999744 0.9961
1.06871 1.07615 0.996685 0.996392
1.07171 1.07593 0.999987 0.996087
1.03742 1.04119 1 0.996385
1.0673 1.0715 1 0.996087
1.03926 1.04296 1 0.996456
1.00754 1.00888 1 0.998678
1.03946 1.04308 1 0.996528
1.00877 1.01009 1 0.99869
0.999486 1 1 0.999486
1.00967 1.01101 1 0.998677
0.999497 1 1 0.999497
1 1 1 1
1.06205 1.0766 0.990047 0.996398
1.06783 1.07491 0.997106 0.996295
1.06589 1.07763 0.992587 0.996487
1.06677 1.0709 1 0.996143
1.06754 1.07277 0.998782 0.996339
1.06857 1.07631 0.996069 0.996733
1.04003 1.04357 1 0.996609
1.05941 1.0636 1 0.996065
1.0676 1.0717 1 0.996171
1.05115 1.05533 1 0.996044
1.03071 1.03408 1 0.996736
1.01001 1.01163 1 0.998393
1.02245 1.02559 1 0.996938
1.00309 1.00463 1 0.998473
1 1 1 1
1.00018 1.00054 1.00093 0.998709
1 1 1 1
1 1 1 1
1.06408 1.08501 0.983793 0.996871
1.06614 1.09821 0.973754 0.996966
1.05638 1.09853 0.964429 0.997101
1.06364 1.0855 0.98322 0.996584
1.05802 1.07186 0.990663 0.996395
1.06565 1.09654 0.975159 0.996587
1.06561 1.08144 0.988345 0.996978
1.06815 1.08845 0.984171 0.997135
1.07008 1.0983 0.977019 0.997227
1.06388 1.07994 0.988094 0.997001
1.0619 1.07465 0.991308 0.996803
1.06409 1.08583 0.982886 0.997046
1.06345 1.07778 0.989864 0.996805
1.0696 1.07966 0.994119 0.996539
1.06157 1.0778 0.988167 0.996737
1.06985 1.08028 0.993875 0.99645
1.07171 1.07649 0.999441 0.996114
1.06916 1.07914 0.994311 0.99642
1.07294 1.07746 0.999705 0.996101
1.03484 1.03863 1 0.996349
1.07262 1.07685 0.999985 0.99609
1.03805 1.04181 1 0.996388
1.00515 1.00654 1 0.998623
1.0406 1.04429 1 0.996458
1.00684 1.0082 1 0.998657
0.99946 1 1 0.99946
1.00828 1.00961 1 0.99868
0.999511 1 1 0.999511
0.999505 1 1 0.999505
1.06379 1.07829 0.989862 0.996662
1.06895 1.07774 0.995577 0.996248
1.06179 1.07751 0.988946 0.996424
1.07122 1.07566 0.999719 0.996152
1.06761 1.0744 0.99739 0.996281
1.06756 1.07893 0.992956 0.996486
1.04211 1.04574 1 0.996529
1.06659 1.07085 0.99988 0.99614
1.06835 1.07416 0.9982 0.996389
1.011 1.01262 1 0.998399
1.03917 1.0427 1 0.996609
1.05955 1.06375 1 0.996053
1.03153 1.0349 1 0.996736
1.00861 1.01022 1 0.998404
1 1 1 1
1.00175 1.00326 1 0.99849
1 1 1 1
1 1 1 1
1.06301 1.07861 0.988629 0.996868
1.06446 1.08521 0.983969 0.996861
1.06583 1.09832 0.973393 0.996944
1.06349 1.08528 0.983269 0.996601
1.06301 1.07359 0.993367 0.99676
1.0656 1.08155 0.988226 0.996989
1.0682 1.08838 0.984278 0.99713
1.06424 1.07998 0.988364 0.997022
1.06209 1.07509 0.991068 0.996812
1.07047 1.07906 0.995503 0.99652
1.0639 1.07775 0.990348 0.996766
1.07041 1.0798 0.994793 0.996486
1.0702 1.07562 0.998771 0.996191
1.06959 1.08001 0.993876 0.996452
1.0718 1.07667 0.999362 0.996116
1.03191 1.03572 1 0.996326
1.07373 1.0783 0.999657 0.996103
1.03479 1.03858 1 0.996351
1.0025 1.00421 1 0.9983
1.03859 1.04235 1 0.996391
1.00428 1.00582 1 0.998474
1 1 1 1
1.00613 1.0075 1 0.998639
0.999491 1 1 0.999491
0.999529 1 1 0.999529
1.06307 1.0749 0.992207 0.996762
1.06928 1.0786 0.994961 0.996386
1.06416 1.0778 0.990664 0.996654
1.07163 1.07662 0.999278 0.996084
1.06845 1.07739 0.995434 0.99625
1.06157 1.07845 0.98785 0.99645
1.04024 1.04399 1 0.996409
1.07088 1.07543 0.999621 0.996153
1.06742 1.0739 0.997696 0.996267
1.00862 1.01022 1 0.998416
1.04073 1.04438 1 0.996502
1.06618 1.07054 0.999793 0.996137
1 1 1 1
1.01113 1.01274 1 0.99841
1.03824 1.04178 1 0.99661
1.00714 1.00873 1 0.998417
1 1 1 1
1 1 1 1
1.06167 1.07185 0.99371 0.996766
1.06353 1.07876 0.988971 0.996875
1.06473 1.08536 0.984096 0.99685
1.07098 1.07831 0.996735 0.99646
1.06236 1.07339 0.992928 0.996771
1.0656 1.08168 0.988091 0.997001
1.06224 1.07554 0.990785 0.996822
1.07029 1.07897 0.99542 0.996521
1.06925 1.0744 0.998979 0.996216
1.07113 1.07987 0.995454 0.996432
1.07041 1.07552 0.999077 0.996161
1.02961 1.03343 1 0.996302
1.07195 1.0769 0.999282 0.996118
1.03197 1.03577 1 0.996327
1.00093 1.00265 1 0.99828
1.03494 1.03873 1 0.996352
1.00204 1.00374 1 0.998298
1 1 1 1
1.00342 1.00513 1 0.998301
0.99972 1 1 0.99972
0.999519 1 1 0.999519
1.06013 1.07036 0.993704 0.996725
1.07063 1.07813 0.996564 0.996467
1.06269 1.07434 0.992367 0.99677
1.07135 1.07581 0.999779 0.996077
1.07014 1.07928 0.995144 0.996372
1.06447 1.07724 0.991474 0.996646
1.0358 1.0396 1 0.996341
1.0713 1.0759 0.999649 0.996077
1.06801 1.07709 0.995305 0.996251
1.00546 1.00708 1 0.998392
1.03954 1.0433 1 0.996399
1.07051 1.07519 0.999497 0.996154
1 1 1 1
1.00949 1.01108 1 0.998424
1.03961 1.04329 1 0.996475
1 1 1 1
1.0113 1.0129 1 0.99842
1 1 1 1
1.07062 1.07762 0.996994 0.996498
1.06122 1.07146 0.993669 0.996752
1.064 1.07883 0.989345 0.996881
1.06841 1.07336 0.999181 0.996211
1.07041 1.07808 0.996393 0.996479
1.06171 1.07319 0.992492 0.996782
1.07013 1.07887 0.995365 0.996521
1.06887 1.07409 0.998923 0.996216
1.0276 1.03141 1 0.996308
1.07066 1.07548 0.999379 0.996131
1.03001 1.03383 1 0.996303
0.999769 1.00152 1 0.998254
1.03192 1.03573 1 0.996328
1.00054 1.00227 1 0.998278
1 1 1 1
1.00148 1.00319 1 0.998296
1 1 1 1
0.999491 1 1 0.999491
1.07103 1.07789 0.997154 0.996473
1.05942 1.07035 0.993027 0.996743
1.07034 1.07466 0.999852 0.996133
1.07097 1.07851 0.996528 0.996466
1.06233 1.07381 0.992507 0.996778
1.03243 1.03621 1 0.996348
1.07102 1.07538 0.999866 0.996074
1.07105 1.08001 0.995326 0.996359
1.00274 1.00441 1 0.998338
1.03577 1.03957 1 0.996347
1.0709 1.07513 0.999999 0.996069
1 1 1 1
1.00635 1.00797 1 0.998398
1.03888 1.04265 1 0.996388
1 1 1 1
1.01031 1.01189 1 0.998433
1 1 1 1
1.06851 1.07323 0.999373 0.996229
1.07059 1.07745 0.997139 0.996487
1.06076 1.07106 0.993626 0.996738
1.02624 1.03003 1 0.996328
1.06814 1.07311 0.999153 0.996211
1.06981 1.07783 0.996047 0.996499
1.0685 1.07377 0.998868 0.996217
1.02795 1.03176 1 0.996305
0.998912 1.00066 1 0.998249
1.03041 1.03423 1 0.996303
0.999478 1.00123 1 0.998252
1 1 1 1
1.00018 1.00191 1 0.998276
1 1 1 1
1 1 1 1
1.07009 1.07427 0.99994 0.996164
1.07044 1.07775 0.996687 0.996523
1.05877 1.0704 0.992354 0.996761
1.02986 1.03362 1 0.996366
1.07032 1.07457 0.99991 0.99613
1.07124 1.07883 0.99649 0.996465
1.00054 1.00225 1 0.998297
1.0321 1.03588 1 0.996346
1.07058 1.07484 0.999964 0.99607
1 1 1 1
1.00345 1.00512 1 0.998341
1.03578 1.03957 1 0.996353
1 1 1 1
1.00721 1.00882 1 0.998403
1 1 1 1
1.02646 1.03021 1 0.996356
1.0682 1.07299 0.999309 0.99622
1.07057 1.07731 0.997259 0.996476
0.998475 1.00019 1 0.998282
1.02649 1.03027 1 0.996324
1.06787 1.07287 0.999124 0.996212
1.02836 1.03217 1 0.996302
0.998725 1.00048 1 0.99825
1 1 1 1
0.999186 1.00094 1 0.99825
1 1 1 1
1 1 1 1
1.02744 1.03118 1 0.996373
1.06939 1.07381 0.999689 0.996195
1.06985 1.07758 0.996246 0.996572
0.999206 1.00061 1 0.998592
1.02949 1.03324 1 0.996365
1.07032 1.0745 0.999985 0.996127
1 1 1 1
1.00115 1.00286 1 0.998298
1.0319 1.03569 1 0.996343
1 1 1 1
1.00414 1.00581 1 0.998344
1 1 1 1
0.998268 1 1 0.998265
1.02665 1.03041 1 0.996351
1.06792 1.07276 0.999269 0.996211
1 1 1 1
0.998346 1.00007 1 0.998281
1.02666 1.03045 1 0.996321
0.998485 1.00024 1 0.998249
1 1 1 1
1 1 1 1
0.998599 1.00003 1 0.998569
1.02783 1.03157 1 0.996373
1.06878 1.07347 0.999397 0.996226
1 1 1 1
0.999449 1.00116 1 0.998292
1.0293 1.03305 1 0.996364
1 1 1 1
1.0017 1.00341 1 0.998299
1 1 1 1
0.999477 1 1 0.999477
0.998435 1 1 0.998435
1.02682 1.03059 1 0.996345
1 1 1 1
0.998284 1 1 0.998282
1 1 1 1
0.999486 1 1 0.999486
0.998611 1.00017 1 0.998437
1.02796 1.0317 1 0.996374
0.999736 1 1 0.999736
0.999871 1.00158 1 0.998294
1 1 1 1
1 1 1 1
0.998314 1.00001 1 0.998305
1 1 1 1
0.999743 1 1 0.999743
0.998761 1.00045 1 0.998308
1 1 1 1
1 1 1 1
1 1 1 1

VECTORS lamdaE float
1.00224 0.999989 0.992779
1.00181 1.00078 0.996336
1.00171 1.00018 0.993166
1.00212 1.00013 0.992741
1.00228 0.999921 0.992791
1.00223 1.00022 0.992587
1.00327 1.00067 0.989833
1.00189 1.00082 0.996245
1.00155 1.00006 0.997007
1.00108 1.00089 0.997019
1.0016 1.00124 0.992116
1.00334 1.0014 0.987773
1.0016 0.999966 0.993459
1.00132 1.00006 0.993658
1.00122 1.00039 0.993527
1.00173 1.00011 0.993161
1.00161 1.00058 0.992946
1.00182 0.999974 0.993193
1.00352 1.00056 0.989629
1.00164 1.00002 0.996588
1.00202 1.00016 0.992802
1.00222 1 0.992771
1.00327 1.00026 0.990293
1.00335 1.00038 0.990033
1.00218 1.00052 0.992307
1.00321 1.00118 0.9894
1.0053 1.00134 0.985329
1.00196 1.00082 0.996141
1.00181 0.999938 0.995023
1.00146 1.00056 0.994983
1.00192 1.00107 0.996101
1.00328 1.00152 0.987761
1.00204 0.999763 0.993002
1.00194 0.999986 0.993044
1.00367 1.00025 0.990268
1.00046 1.00183 0.997129
1.00352 1.00088 0.989964
1.00337 1.00213 0.987079
1.00517 1.00222 0.98403
1.00058 1.00038 0.997376
1.00164 0.999982 0.996586
1.00159 1.00002 0.995067
1.00155 0.999961 0.996657
1.00114 1.00005 0.993876
1.00331 0.999898 0.98953
1.0015 0.999962 0.996969
1.00367 1.00017 0.990407
1.00136 1.00005 0.993581
1.00139 1.00002 0.993582
1.00105 1.00095 0.993285
1.00375 1.00045 0.989441
1.00142 1.00004 0.995208
1.00163 1.00019 0.993226
1.00164 1.00094 0.992605
1.00182 0.99998 0.993179
1.00347 1.00021 0.990071
1.00349 1.00102 0.989201
1.00356 1.00031 0.989823
1.00531 1.00131 0.985417
1.00153 0.999999 0.996645
1.00187 1.0001 0.993064
1.00304 0.999959 0.99137
1.00322 1.00021 0.990424
1.00334 1.00027 0.990174
1.00524 0.999978 0.986838
1.00531 1.00033 0.986256
1.00223 1.00076 0.991827
1.00313 1.00212 0.988557
1.00532 1.00204 0.984537
1.0053 0.999641 0.986306
1.00217 0.99994 0.99644
1.00176 1.00101 0.996333
1.00188 1.0005 0.996385
1.00323 1.00161 0.987753
1.00211 0.999871 0.996405
1.00206 1.00009 0.996461
1.00353 1.0002 0.988729
1.00074 1.0014 0.995043
1.00331 1.00084 0.988416
1.00317 1.00236 0.988313
1.00525 1.00208 0.984023
1.00093 1.00072 0.996974
1.00099 1.00268 0.990597
1.00364 1.00015 0.988684
1.00361 1.00026 0.988607
1.00534 1.00037 0.985726
1.00243 1.00301 0.989987
1.00534 1.00139 0.984628
1.00431 1.00333 0.984148
1.00536 1.0016 0.984167
1.00035 0.999795 0.99774
1.00043 1.00019 0.997527
1.00195 0.999976 0.99641
1.0017 0.999981 0.996556
1.00159 0.999969 0.996648
1.00145 0.999993 0.995221
1.00334 0.999895 0.990266
1.00174 0.999965 0.995005
1.00353 1.00018 0.989698
1.00155 0.999975 0.996676
1.00315 0.999761 0.989859
1.00355 1.00006 0.990681
1.00532 0.998713 0.987553
1.00363 1.00017 0.990387
1.00526 0.999169 0.987184
1.0016 0.999962 0.993486
1.00122 1.00021 0.993654
1.00108 1.00134 0.992888
1.00142 0.99994 0.993585
1.00366 1.0002 0.98985
1.00376 1.00026 0.989621
1.00374 1.00088 0.989012
1.00532 1.00127 0.985501
1.00158 0.999977 0.996661
1.00148 1.00009 0.993479
1.00325 0.999872 0.990189
1.00341 1.00018 0.990201
1.002 1.0013 0.993881
1.00344 1.00191 0.98877
1.00353 1.00022 0.989958
1.00524 0.999722 0.987126
1.00532 1.00203 0.984653
1.00532 1.00057 0.98609
1.00529 0.999644 0.986331
1.00312 0.999808 0.989862
1.00313 1.00002 0.990695
1.00525 0.998499 0.988447
1.00523 0.999191 0.987776
1.00531 0.999786 0.986903
1.00533 0.99718 0.98911
1.00118 1.00133 0.996622
1.00532 0.998614 0.987282
1.00291 1.00311 0.986637
1.0053 1.00278 0.983132
1.00529 1.00072 0.985305
1.00527 0.99686 0.9889
1.00158 1.00339 0.988761
1.00293 1.00438 0.985784
1.00216 0.999882 0.996412
1.00207 1.00015 0.996446
1.00353 1.00019 0.988709
1.00104 1.00104 0.996847
1.0026 1.00267 0.987488
1.00336 1.00075 0.988411
1.00533 1.00196 0.984008
1.00075 1.00076 0.997136
1.00097 1.00278 0.990611
1.00366 1.0002 0.989487
1.00364 1.00033 0.989364
1.00533 1.00039 0.985691
1.00184 1.00315 0.988533
1.00534 1.0014 0.984599
1.00459 1.00298 0.984113
1.00534 1.00143 0.98441
1.00137 1.00291 0.989654
1.00067 1.00238 0.991497
1.00258 1.00357 0.987408
1.00531 0.999907 0.986274
1.00535 1.00086 0.985183
1.0053 0.998259 0.987773
1.0035 1.00366 0.985089
1.00532 0.999974 0.986026
1.00529 1.00288 0.983227
1.00534 0.999617 0.985896
1.00021 0.999228 0.99811
1.00023 0.999709 0.997895
1.00033 1.00011 0.997672
1.00132 1.00314 0.98955
1.00069 1.0011 0.997
1.00208 0.999917 0.996395
1.0018 0.999985 0.996467
1.00334 1.00023 0.989033
1.00318 0.999904 0.989624
1.00157 0.999968 0.996631
1.00152 0.999965 0.996672
1.00312 0.999781 0.989854
1.00343 1.00004 0.989967
1.0053 0.998722 0.987562
1.00346 1.00023 0.988859
1.00525 0.999181 0.987167
1.00309 0.999746 0.989939
1.0053 0.99862 0.987668
1.00531 0.998888 0.987397
1.00529 0.995423 0.99114
1.00525 0.999513 0.986804
1.00525 0.995864 0.990565
1.00154 0.999972 0.996665
1.00106 1.00016 0.993893
1.00328 0.999843 0.989175
1.0036 1.00016 0.989978
1.00113 1.00201 0.996508
1.00377 1.00145 0.988993
1.00373 1.0002 0.989744
1.00524 0.999455 0.987415
1.00532 1.00079 0.985921
1.00531 1.00198 0.984771
1.00528 0.999651 0.986356
1.00311 0.999793 0.989866
1.00331 1.00004 0.990477
1.00528 0.998427 0.988237
1.00523 0.999443 0.98745
1.00138 1.00135 0.996446
1.00303 1.00285 0.987783
1.00513 1.00308 0.983527
1.00531 0.999864 0.986858
1.00533 0.996743 0.98951
1.00529 1.00061 0.985388
1.00531 0.99882 0.987179
1.00527 0.996922 0.988894
1.00165 1.00327 0.988751
1.00302 1.00426 0.985713
1.00526 0.998743 0.987619
1.00527 0.998819 0.98811
1.00533 0.996129 0.990201
1.00531 0.996095 0.990308
1.00533 0.997685 0.988259
1.00531 0.995265 0.990874
1.00215 1.00335 0.987652
1.00527 0.995744 0.990094
1.00484 1.00374 0.983243
1.0053 1.00182 0.983956
1.0053 0.998647 0.987249
1.00525 0.995613 0.990318
1.00364 1.00431 0.984476
1.0028 1.00373 0.987102
1.00416 1.004 0.984524
1.00351 1.0002 0.988763
1.0005 1.0006 0.997301
1.00085 1.00279 0.99063
1.00348 1.00031 0.988638
1.00532 1.0004 0.985658
1.00182 1.00322 0.988415
1.00483 1.00273 0.984085
1.00534 1.00141 0.984568
1.00533 1.00124 0.984654
1.00126 1.00303 0.989688
1.00052 1.00249 0.991485
1.00245 1.00363 0.987408
1.00531 0.999931 0.986242
1.00534 1.00088 0.98515
1.00531 0.998245 0.987761
1.00375 1.00341 0.985055
1.00532 1.00009 0.985914
1.00536 1.00286 0.98314
1.00534 0.999253 0.986181
1.00044 1.00182 0.99234
1.00314 1.00406 0.986165
1.00198 1.00397 0.987814
1.00306 1.00125 0.987888
1.00533 0.997346 0.988765
1.00531 0.999213 0.98674
1.0053 0.99589 0.989873
1.00494 1.00363 0.983005
1.0053 0.997557 0.988337
1.00533 1.00141 0.984617
1.00542 0.997962 0.987453
1.00018 1.00362 0.991116
1.00027 1.00072 0.993766
1.00019 0.998594 0.998359
1.00015 0.999103 0.998211
1.00013 0.999605 0.998036
1.00099 1.00299 0.990323
1.00055 1.00078 0.997222
1.0014 1.0031 0.989475
1.00088 1.0012 0.996872
1.00343 1.00027 0.988852
1.00328 1.00004 0.989321
1.00523 0.999192 0.987157
1.00528 0.998736 0.987573
1.00313 0.999806 0.989855
1.00158 0.999953 0.996668
1.00311 0.999744 0.989943
1.00529 0.998634 0.987677
1.00528 0.998906 0.987404
1.0053 0.995381 0.991142
1.00526 0.99953 0.986771
1.00528 0.995829 0.990566
1.00527 0.998638 0.987694
1.00532 0.995393 0.991146
1.00523 0.995563 0.991002
1.00514 0.994977 0.99169
1.00533 0.996476 0.989739
1.00528 0.994913 0.991328
1.00313 0.999785 0.989876
1.0035 1.00001 0.990258
1.0053 0.998332 0.988033
1.00523 0.999684 0.987123
1.00162 1.00144 0.996231
1.00344 1.00272 0.988659
1.00493 1.00319 0.983914
1.0053 0.99993 0.986812
1.00533 0.996305 0.989909
1.00531 0.999027 0.987079
1.0053 1.00053 0.985471
1.00527 0.996981 0.988889
1.00174 1.00319 0.988741
1.00298 1.00393 0.985645
1.00527 0.998455 0.987933
1.00528 0.998791 0.988104
1.00532 0.996123 0.990243
1.00531 0.996375 0.989924
1.00223 1.00337 0.987639
1.00456 1.00374 0.983273
1.00534 1.002 0.983757
1.00534 0.997897 0.988141
1.00532 0.995094 0.990955
1.00529 0.998416 0.98752
1.00527 0.995795 0.990065
1.00525 0.995594 0.99019
1.00362 1.00436 0.98444
1.00375 1.00373 0.984523
1.0022 1.004 0.987139
1.00534 0.996027 0.990335
1.00531 0.996283 0.99007
1.00517 0.994956 0.991616
1.0053 0.994924 0.991237
1.00527 0.995121 0.990712
1.0053 0.994913 0.990973
1.00416 1.00395 0.983838
1.00526 0.994974 0.990756
1.00535 1.0034 0.982431
1.00531 1.00004 0.98554
1.00525 0.997085 0.988803
1.00527 0.995392 0.990401
1.00164 1.00506 0.987193
1.00498 1.0044 0.982712
1.00272 1.00204 0.987219
1.00514 1.00403 0.98299
1.0053 0.999954 0.986211
1.00045 1.0026 0.991469
1.00107 1.00329 0.989727
1.00195 1.00385 0.987401
1.00533 1.0009 0.985116
1.00532 0.998232 0.987748
1.00399 1.00297 0.985023
1.00537 1.00281 0.983047
1.00532 1.00022 0.985804
1.00533 0.998907 0.986467
1.00033 1.00194 0.992351
1.00286 1.0038 0.986287
1.00181 1.00409 0.987725
1.00339 1.00123 0.987956
1.00532 0.997323 0.988763
1.00532 0.999196 0.986726
1.0053 0.995878 0.989892
1.00512 1.00365 0.982931
1.0053 0.997799 0.988061
1.0053 1.00125 0.984601
1.00542 0.997799 0.987704
1.0004 1.00125 0.993064
1.00152 1.00494 0.987957
1.00341 1.00381 0.985249
1.00349 1.00218 0.987673
1.00363 1.00059 0.988404
1.00527 0.995193 0.990636
1.00531 0.996707 0.988965
1.00533 0.995143 0.990316
1.00517 1.00311 0.983129
1.00536 0.996369 0.989211
1.00523 0.999679 0.986091
1.00052 1.00407 0.990039
1.00018 1.00504 0.989759
1.0001 1.00277 0.992019
1.00011 1.00356 0.991119
1.00018 1.00005 0.995321
1.00024 1.00059 0.994277
1.00034 0.997966 0.99679
1.00017 0.998532 0.998421
1.00011 0.998987 0.998284
1.00021 1.0028 0.9916
1.00023 1.00048 0.997627
1.00099 1.00295 0.990299
1.00058 1.0009 0.997146
1.00141 1.00306 0.989403
1.00104 1.00122 0.996744
1.00527 0.999547 0.986737
1.00525 0.998919 0.987407
1.00531 0.99582 0.990566
1.00531 0.995338 0.991144
1.00527 0.99865 0.987685
1.0031 0.999736 0.989943
1.00527 0.998645 0.987698
1.00532 0.995366 0.991148
1.00527 0.995517 0.991001
1.00514 0.994973 0.991671
1.00531 0.996466 0.989749
1.00527 0.994911 0.991347
1.00534 0.995424 0.991084
1.00514 0.994964 0.991693
1.00519 0.994963 0.991569
1.00522 0.994952 0.991477
1.00529 0.994891 0.991061
1.00526 0.994936 0.991083
1.00528 0.998159 0.988245
1.00529 0.998781 0.9881
1.00532 0.996126 0.990285
1.0053 0.996659 0.989542
1.00232 1.00336 0.987634
1.00431 1.00408 0.983315
1.00536 1.00216 0.983562
1.00534 0.998106 0.988023
1.00532 0.99492 0.991036
1.00527 0.995844 0.990035
1.00527 0.998156 0.98779
1.00525 0.995566 0.990061
1.00354 1.0046 0.984404
1.00379 1.0038 0.984521
1.00197 1.00438 0.987173
1.00533 0.995757 0.990672
1.0053 0.996299 0.990073
1.00517 0.994954 0.991618
1.0053 0.994926 0.991218
1.00402 1.00421 0.983889
1.00534 1.00344 0.982508
1.00533 1.00024 0.985261
1.00527 0.995327 0.990545
1.0053 0.994913 0.990931
1.00524 0.99696 0.988794
1.00527 0.994964 0.990729
1.00527 0.995324 0.990428
1.00453 1.00438 0.982729
1.00499 1.00412 0.982778
1.0019 1.00468 0.987265
1.00298 1.00257 0.987309
1.00517 0.994957 0.991712
1.00521 0.994944 0.991368
1.00522 0.994946 0.991492
1.00528 0.994913 0.991013
1.00528 0.994877 0.990863
1.00534 0.994903 0.990758
1.00524 1.00431 0.981921
1.00531 0.994862 0.990634
1.00528 1.002 0.983664
1.00531 0.999139 0.98632
1.00521 0.996462 0.989257
1.00531 0.995152 0.990395
1.0015 1.00491 0.987577
1.00343 1.00345 0.986247
1.00519 1.00445 0.981692
1.0034 1.00088 0.987295
1.00482 1.00444 0.982284
1.00022 1.00203 0.992366
1.00531 0.9973 0.988762
1.00197 1.00394 0.987636
1.00261 1.00375 0.986414
1.00356 1.00099 0.988024
1.00532 0.999178 0.986713
1.00529 0.995867 0.989911
1.00526 1.00329 0.982858
1.00529 1.00117 0.984583
1.0053 0.998024 0.987785
1.00542 0.997647 0.987954
1.00034 1.00122 0.993102
1.00124 1.00501 0.987971
1.00373 1.00331 0.985336
1.00308 1.00214 0.987612
1.00396 1.00034 0.987566
1.00528 0.9952 0.990658
1.00531 0.996677 0.988987
1.00532 0.995145 0.990333
1.00517 1.00328 0.983067
1.00537 0.996496 0.989003
1.00522 0.999717 0.98636
1.00105 1.00454 0.988911
1.00235 1.00516 0.987417
1.00369 1.00364 0.984501
1.00391 1.0009 0.987732
1.00485 1.00244 0.985543
1.00534 0.994852 0.990739
1.00532 0.995575 0.989794
1.00524 0.994977 0.990428
1.00491 1.00164 0.984569
1.00522 0.998196 0.987333
1.00044 1.00422 0.99003
1.0004 1.00489 0.989291
0.999709 1.00502 0.98982
1.00045 1.00448 0.990401
1.0002 1.00447 0.990605
0.999993 1.0024 0.992543
0.999961 1.00296 0.992038
1.0001 0.999581 0.995825
1.00003 1.00372 0.991122
1.00018 0.999933 0.995403
1.00028 0.997493 0.997209
1.00023 1.0005 0.994774
1.00021 0.998059 0.997717
1.00015 0.998384 0.998483
0.99986 1.00166 0.993285
1.00041 1.0025 0.991646
0.999947 0.99955 0.998207
1.00044 1.00038 0.997441
1.00113 1.00275 0.990277
1.00068 1.001 0.997061
1.0053 0.996444 0.989758
1.00531 0.995457 0.990999
1.00526 0.994909 0.991367
1.00514 0.99497 0.991652
1.00532 0.995337 0.991149
1.00526 0.998652 0.987701
1.00533 0.995417 0.991084
1.00515 0.994966 0.991694
1.00518 0.994963 0.991571
1.00522 0.994948 0.991447
1.0053 0.994888 0.991093
1.00526 0.994934 0.991093
1.00516 0.994957 0.991693
1.00523 0.99495 0.991535
1.00524 0.994947 0.991296
1.00528 0.994928 0.991375
1.00528 0.994876 0.990984
1.00531 0.994938 0.990977
1.00533 0.995492 0.991009
1.00529 0.996315 0.990075
1.00518 0.994952 0.991621
1.00529 0.994929 0.9912
1.00381 1.00435 0.98394
1.00532 1.00345 0.982578
1.00535 1.00039 0.984983
1.00527 0.995535 0.990377
1.00529 0.994913 0.990889
1.00528 0.994956 0.990701
1.00523 0.996842 0.988785
1.00527 0.995257 0.990458
1.00428 1.00473 0.982748
1.00439 1.00456 0.982568
1.00195 1.00424 0.987333
1.00303 1.00203 0.987387
1.00517 0.994957 0.99171
1.00521 0.994942 0.991414
1.00521 0.994945 0.991469
1.00528 0.994914 0.991014
1.00513 1.00443 0.981973
1.00528 1.00218 0.983506
1.00529 0.999142 0.986293
1.00529 0.99488 0.990893
1.00534 0.994896 0.990745
1.00523 0.996368 0.989267
1.00531 0.994864 0.990623
1.00528 0.995107 0.990525
1.00517 1.00454 0.981768
1.00492 1.0049 0.982171
1.00376 1.00143 0.987374
1.00121 1.00485 0.987807
1.00281 1.00353 0.986128
1.00523 0.994946 0.991469
1.00526 0.994922 0.991275
1.00533 0.99488 0.990767
1.00533 0.994883 0.990667
1.00521 1.00383 0.982262
1.00531 0.994846 0.990552
1.0052 1.00128 0.983948
1.00525 0.99858 0.986863
1.00529 0.995769 0.989471
1.00013 1.00439 0.98997
1.00204 1.00509 0.986654
1.00404 1.00393 0.986056
1.00507 1.00453 0.982089
1.00446 1.00232 0.984819
1.00477 1.00492 0.982414
1.00029 1.00122 0.993139
1.00096 1.00508 0.987985
1.0053 0.995207 0.99068
1.00242 1.0022 0.987547
1.00432 1.00335 0.985425
1.00443 1.00032 0.986736
1.0053 0.99665 0.989008
1.00532 0.995149 0.990348
1.00516 1.00334 0.983017
1.0052 0.999763 0.986632
1.00539 0.99661 0.988794
1.0009 1.00465 0.9889
1.00151 1.00516 0.987411
1.00417 1.00389 0.983808
1.00389 1.00054 0.987857
1.00462 1.00202 0.9853
1.00533 0.99485 0.99076
1.00534 0.995608 0.989774
1.00528 0.994991 0.990351
1.00501 1.00155 0.984745
1.0052 0.99834 0.987237
1.00135 1.00509 0.988342
1.00118 1.0045 0.987701
1.0045 1.003 0.98439
1.0031 1.00196 0.985902
1.00523 1.00197 0.985111
1.00534 0.99482 0.990623
1.00534 0.996081 0.989042
1.00537 0.995232 0.98968
1.00506 1.00039 0.985875
1.00509 0.999015 0.986866
1.00035 1.00428 0.990023
1.00058 1.00503 0.989166
0.999484 1.004 0.991286
0.999562 1.00499 0.98987
0.999832 1.0046 0.990584
0.999583 1.00475 0.990623
1 1.00287 0.992039
0.999462 1.00504 0.990593
0.999848 1.00415 0.991133
1.00001 1.0023 0.992601
1.00001 1.00232 0.99254
1.00003 0.999372 0.996101
0.999911 1.00284 0.992051
1.00012 0.9995 0.995881
1.00021 0.997285 0.997532
1.00021 0.999796 0.99549
1.00024 0.997582 0.997184
1.00004 0.998133 0.998668
0.999849 1.00051 0.994495
0.999961 1.00164 0.993232
0.999823 0.998752 0.998644
1.00062 1.00233 0.99169
1.00014 0.999797 0.997987
1.00052 1.00064 0.997296
1.0053 0.994885 0.991125
1.00517 0.994963 0.991572
1.00526 0.994932 0.991103
1.00521 0.994943 0.991417
1.00516 0.994969 0.991696
1.00532 0.995413 0.991083
1.00517 0.994957 0.991717
1.00523 0.994954 0.991537
1.00523 0.99495 0.991317
1.00527 0.994925 0.991352
1.0053 0.994874 0.990985
1.0053 0.994934 0.990959
1.00524 0.994952 0.991497
1.00529 0.994928 0.991418
1.00529 0.994915 0.991233
1.00535 0.994892 0.990697
1.00518 0.994956 0.991708
1.00521 0.99494 0.991458
1.0052 0.994944 0.991446
1.00528 0.994915 0.991016
1.00497 1.00436 0.982025
1.00528 1.00238 0.983347
1.00528 0.999191 0.986267
1.00529 0.994882 0.990923
1.00533 0.994888 0.990732
1.0053 0.994866 0.990613
1.00525 0.996288 0.989275
1.00527 0.99508 0.990655
1.0051 1.00461 0.981837
1.00458 1.00477 0.982059
1.00433 1.00209 0.98744
1.00107 1.00462 0.988056
1.00249 1.00427 0.986024
1.00523 0.994946 0.991463
1.00526 0.994925 0.991281
1.00533 0.994884 0.990782
1.00519 1.00395 0.982296
1.00519 1.00152 0.983876
1.00527 0.998435 0.986871
1.00533 0.994884 0.990682
1.00529 0.995709 0.989671
1.00531 0.994851 0.990557
1.00001 1.004 0.990245
1.00487 1.00453 0.98213
1.00449 1.00492 0.982213
1.00444 1.00275 0.98474
1.00399 1.00301 0.986065
1.0018 1.00509 0.986711
1.00528 0.99493 0.991365
1.00532 0.994895 0.991032
1.00535 0.994874 0.990614
1.00531 0.994831 0.990548
1.005 1.0036 0.982922
1.00528 0.994962 0.990387
1.0051 1.00114 0.984592
1.00526 0.997748 0.987285
0.999926 1.00277 0.991722
1.00077 1.00511 0.988885
1.00294 1.0048 0.986522
1.00323 1.00342 0.985471
1.00449 1.004 0.984067
1.00485 1.00501 0.98193
1.00075 1.0048 0.988889
1.00086 1.00516 0.987408
1.00531 0.994848 0.990781
1.00393 1.00008 0.987974
1.00472 1.00418 0.983105
1.00401 1.00243 0.985053
1.00536 0.995641 0.989755
1.00531 0.994998 0.990275
1.00506 1.00151 0.984919
1.00519 0.998489 0.987141
1.00101 1.00501 0.98837
1.00175 1.00448 0.987453
1.00439 1.00322 0.984266
1.00384 1.00285 0.98575
1.00515 1.00222 0.984756
1.00535 0.99482 0.990614
1.00535 0.995933 0.989307
1.00536 0.995303 0.989813
1.00507 1.00029 0.985828
1.00504 0.999357 0.986595
0.999507 1.00489 0.989197
1.00015 1.00437 0.98805
1.00491 1.00122 0.985563
1.00461 1.00163 0.985622
1.00541 0.99482 0.990393
1.0054 0.994843 0.990286
1.00524 0.997826 0.987413
1.00514 0.999732 0.985949
1.00092 1.00491 0.989043
0.999619 1.00447 0.991004
0.998231 1.00419 0.993945
0.999522 1.00483 0.99057
0.998652 1.00508 0.990844
0.999873 1.00414 0.991088
0.999551 1.00328 0.992457
0.999519 1.00508 0.990621
0.999536 1.00042 0.995252
0.999449 1.00473 0.991094
0.99942 1.00493 0.990453
1.00006 1.00402 0.990927
0.999972 1.00245 0.992469
0.999972 1.00232 0.992583
0.999943 0.999338 0.996229
0.999976 1.00235 0.992541
1.00005 0.999327 0.996118
1.00012 0.997269 0.997644
1.00012 0.999421 0.995937
1.00018 0.997329 0.997512
1.00017 0.997685 0.997148
1.00002 0.999669 0.995105
0.999884 1.00064 0.994419
0.999809 0.998109 0.998843
0.999994 1.00172 0.993179
0.999891 0.998864 0.998512
1.00035 0.999742 0.997738
1.00531 0.994872 0.990985
1.00523 0.994952 0.991339
1.00528 0.99493 0.990942
1.00526 0.994922 0.991329
1.00522 0.994959 0.991538
1.00517 0.994956 0.99174
1.00524 0.994951 0.991514
1.00528 0.994929 0.991409
1.00529 0.994919 0.991195
1.00533 0.994889 0.990724
1.00528 0.994932 0.991422
1.00528 0.994897 0.99136
1.00534 0.994901 0.990913
1.00522 0.994945 0.991457
1.00526 0.994928 0.991288
1.00534 0.99489 0.990796
1.00519 1.00394 0.982339
1.0052 1.00176 0.983801
1.00528 0.998284 0.986879
1.00533 0.994884 0.990695
1.00531 0.994853 0.990562
1.00528 0.99563 0.989874
1.00479 1.00453 0.982169
1.00495 1.00491 0.982029
1.00462 1.00368 0.984678
1.00013 1.00387 0.990521
1.00386 1.00265 0.986058
1.00153 1.00506 0.986752
1.00528 0.99493 0.991378
1.00533 0.994887 0.990991
1.00535 0.994877 0.990619
1.00507 1.00345 0.98289
1.00503 1.00109 0.984662
1.00528 0.997533 0.987612
1.00532 0.994831 0.990519
1.00527 0.994976 0.990342
0.999901 1.00295 0.991909
1.00065 1.00511 0.988864
1.00436 1.00336 0.983852
1.00465 1.0048 0.982532
1.00387 1.0035 0.985238
1.00252 1.00491 0.986464
1.0053 0.994896 0.991308
1.00538 0.994859 0.990653
1.00536 0.994838 0.990508
1.00527 0.994834 0.990329
1.00421 1.00238 0.984694
1.00524 0.995674 0.989527
1.00491 1.0003 0.985758
1.00014 1.00187 0.99287
1.00019 1.00313 0.991719
0.999496 1.00474 0.990624
1.00145 1.00509 0.987635
1.00219 1.00483 0.986541
1.0041 1.00473 0.983833
1.00311 1.00328 0.986229
1.00374 1.00358 0.986514
1.00071 1.00508 0.988399
1.00249 1.00443 0.987204
1.00535 0.99482 0.990605
1.00457 1.00221 0.985602
1.00435 1.0034 0.984143
1.00527 1.00241 0.984409
1.00536 0.995776 0.989572
1.00537 0.995372 0.989946
1.00507 1.00018 0.985779
1.00496 0.999669 0.986325
1.00038 1.00469 0.988905
1.00149 1.00463 0.987581
1.00492 1.00128 0.985319
1.00478 1.00181 0.985525
1.00541 0.994817 0.990391
1.00543 0.994846 0.990263
1.00518 0.997703 0.987558
1.00513 0.999916 0.986004
0.998606 1.00488 0.99138
1.00546 0.994849 0.990517
1.00292 1.00382 0.987434
1.00495 1.00062 0.985729
1.00536 0.994735 0.990721
1.00504 0.997109 0.987376
1.00504 1.0007 0.985695
0.999525 1.00467 0.990723
0.998387 1.00349 0.99399
0.997147 1.00287 0.996574
0.999798 1.00399 0.991042
0.999466 1.0051 0.990648
0.998028 1.00458 0.99289
1.00006 1.00389 0.990911
0.99951 1.00493 0.990524
0.998213 1.00175 0.995676
0.999669 1.00462 0.990971
0.998978 0.99995 0.997649
0.998075 1.00348 0.993947
0.999419 1.00513 0.990691
1.00043 1.00476 0.989433
1.00028 1.00393 0.99052
0.999989 1.00248 0.99242
0.999926 1.00254 0.992448
0.999824 0.999437 0.996354
0.999908 1.00245 0.992566
0.999954 0.999366 0.996237
0.999991 0.997441 0.997739
1.00006 0.999274 0.99614
1.00012 0.997327 0.997639
1.00018 0.997383 0.997486
1.00009 1.00146 0.993337
0.999996 0.999239 0.995547
0.999978 0.99979 0.995072
0.999885 0.997837 0.998939
0.999923 1.0006 0.994345
0.999848 0.998316 0.998802
1.00002 0.999055 0.998362
1.00532 0.994888 0.990752
1.00529 0.994922 0.991156
1.00527 0.994929 0.9914
1.00524 0.99495 0.991531
1.00529 0.994932 0.991417
1.00528 0.994897 0.99136
1.00534 0.994898 0.990854
1.00528 0.994901 0.991383
1.00536 0.994849 0.991272
1.0056 0.994853 0.991114
1.00529 0.994931 0.991391
1.00533 0.994885 0.990951
1.00535 0.994882 0.990625
1.00508 1.00332 0.982863
1.0049 1.00114 0.984749
1.00529 0.997303 0.987927
1.00532 0.994829 0.990489
1.00527 0.995011 0.990298
1.00398 1.00394 0.983634
1.00425 1.00469 0.983093
1.00373 1.00288 0.985004
0.999954 1.00286 0.992098
1.00031 1.00511 0.988842
1.00234 1.00496 0.986407
1.0053 0.994892 0.991286
1.00016 1.00176 0.992853
1.00011 1.00304 0.99157
1.00538 0.994862 0.990661
1.00535 0.994842 0.990521
1.00446 1.00266 0.984671
1.00497 0.999874 0.986129
1.00523 0.995639 0.989467
1.00526 0.994843 0.990269
0.999807 1.00453 0.990763
1.00143 1.00509 0.987575
1.00302 1.00384 0.985936
1.00437 1.0029 0.985073
1.00389 1.00472 0.983699
1.00218 1.0042 0.986575
1.00538 0.994802 0.991113
1.00539 0.994946 0.990391
1.00534 0.99483 0.990462
1.00521 0.995127 0.99003
1.00323 1.00173 0.987423
1.00502 0.998065 0.988363
1.00029 1.00276 0.991521
0.999775 1.00336 0.991793
1.00181 1.00201 0.990824
1.00072 1.00447 0.989052
1.00196 1.00511 0.986939
1.00227 1.00263 0.98762
1.00223 1.00363 0.985977
1.0013 0.999964 0.992915
1.00071 1.00471 0.988618
1.00292 1.00503 0.987101
1.00541 0.99481 0.990391
1.00546 0.994848 0.990241
1.00486 1.00241 0.98542
1.00492 1.00136 0.98507
1.00513 0.997581 0.987704
1.00512 1.0001 0.986062
0.999231 1.00453 0.99128
1.00547 0.994836 0.990739
1.00196 1.00395 0.988194
1.00488 1.00077 0.985635
1.00537 0.99475 0.990773
1.00512 0.997264 0.987566
1.005 1.00045 0.985655
0.998487 1.00511 0.993134
1.00501 0.994744 0.990504
1.00204 1.00336 0.988215
1.00442 1.00208 0.98456
1.00515 0.995653 0.990243
1.00351 1.0009 0.986749
0.999144 0.994736 0.98364
0.998461 1.00324 0.994019
0.997455 1.00234 0.996578
0.997161 1.00176 0.997627
1.00001 1.00389 0.990892
0.999383 1.00499 0.990599
1.00024 1.00436 0.990849
0.99754 1.00197 0.996115
1.00021 1.004 0.990524
1.00021 1.00476 0.989691
0.998444 0.999408 0.998067
0.999334 1.00515 0.99066
0.998606 1.00365 0.993459
0.997089 1.00267 0.997154
0.999787 1.00434 0.991103
0.999769 1.00507 0.990546
1.00077 1.00434 0.989486
1.00027 1.00413 0.990088
1.00035 1.005 0.989875
1.00005 1.00433 0.990165
0.99992 1.0025 0.992457
0.999945 1.00253 0.992407
0.999704 0.999431 0.99585
0.999931 1.00248 0.992429
0.999804 0.999456 0.996036
0.999978 0.997473 0.999076
0.999963 0.999391 0.996248
1.00001 0.997412 0.997732
1.00012 0.997373 0.997628
0.999987 1.00105 0.993829
1.00012 1.00137 0.993368
1.00007 0.998768 0.995994
1.00001 0.999275 0.995859
0.999891 0.997542 0.999047
0.999917 0.999999 0.995036
0.999873 0.997856 0.998919
0.99989 0.998338 0.998742
1.00533 0.994897 0.990796
1.00528 0.994898 0.991361
1.0053 0.994931 0.991412
1.00529 0.994896 0.991385
1.00534 0.994855 0.991222
1.00563 0.99489 0.990963
1.00544 0.994811 0.991314
1.00097 0.994774 0.980391
1.0052 0.994968 0.990832
1.00017 1.00232 0.99231
1.0053 0.994884 0.991265
1.00539 0.994857 0.990668
1.00535 0.994848 0.990535
1.00457 1.00232 0.98463
1.00502 0.99951 0.986486
1.00523 0.995508 0.989393
1.00527 0.994858 0.99021
1.00347 1.00333 0.985714
1.00475 1.00325 0.983714
1.00417 1.00453 0.983546
1.00015 1.0018 0.992838
1.00282 1.00412 0.986595
0.999973 1.0044 0.990889
1.00135 1.0051 0.987521
0.99993 1.00304 0.991429
1.00539 0.994828 0.991101
1.00028 1.00263 0.99176
0.99989 1.0033 0.991865
1.00097 1.00243 0.991208
1.0054 0.99489 0.990394
1.0053 0.994837 0.990421
1.00269 1.00232 0.987534
1.00487 0.997534 0.988642
1.00524 0.995008 0.99001
1.00069 1.00442 0.989122
1.00211 1.00493 0.98704
1.00225 1.0003 0.991558
1.00298 1.00464 0.985621
1.00326 1.00266 0.987523
1.00544 0.994777 0.990901
1.00534 0.994832 0.990533
1.00526 0.994875 0.990118
1.00488 0.997172 0.99029
1.00186 0.999553 0.991429
1.00006 1.00267 0.991805
1.00192 1.00215 0.989755
1.00044 1.0021 0.991476
1.0015 1.00446 0.988845
1.00149 1.00336 0.989267
1.00088 1.00259 0.989677
1.00143 0.998842 0.99394
1.00061 1.00386 0.991125
1.00086 1.00421 0.988975
1.00546 0.994854 0.990953
1.00538 0.994764 0.990813
1.0052 0.997396 0.987757
1.0048 1.00094 0.985542
1.00496 1.00019 0.985627
0.998498 1.00481 0.993986
1.00463 0.99477 0.990708
1.002 1.00345 0.988178
1.00462 1.00211 0.984498
1.00498 0.995585 0.990544
1.00392 1.00079 0.986834
0.998949 0.994741 0.98194
0.997601 1.00487 0.994089
1.00377 0.994764 0.990677
1.0024 1.00333 0.986331
1.00311 1.00018 0.988065
1.00345 0.99751 0.990807
0.999973 0.994884 0.938519
0.994916 0.994745 0.960611
0.996174 0.997433 0.987028
0.996576 0.994757 0.848545
0.9947 0.99506 0.808146
0.99807 1.00191 0.996598
0.997149 1.00218 0.997727
0.996238 1.00349 0.997696
1.00022 1.00401 0.990531
1.00011 1.0047 0.989946
0.999413 1.00514 0.990629
0.99901 1.0039 0.992939
0.998125 0.999428 0.998473
0.999567 1.00506 0.99071
1.00036 1.00407 0.990154
1.00066 1.00453 0.989429
0.997598 1.00188 0.996888
0.999289 1.00458 0.991543
0.999935 1.00424 0.991814
0.997559 1.00422 0.994427
0.999444 1.00481 0.991261
1.00057 1.00464 0.98901
1.00019 1.00427 0.990141
0.99999 1.00479 0.989951
0.999997 1.00382 0.991514
0.999536 1.00503 0.990859
1.00007 1.00498 0.989975
1.00009 1.00435 0.990396
1.00008 1.00433 0.990163
0.999878 1.00262 0.992442
0.999918 1.00254 0.992466
0.999676 0.999446 0.995913
0.999895 1.00264 0.992391
0.999689 0.999473 0.995853
0.999936 0.997457 0.999111
0.999777 0.99949 0.995723
0.999933 0.997477 0.99845
1.00004 0.997391 0.997722
0.99988 1.00079 0.994235
0.999995 1.00107 0.993835
1.00009 0.998453 0.996314
1.00016 1.00126 0.993398
1.00006 0.998748 0.996302
0.999934 0.997146 0.999146
1.00004 0.999377 0.995442
0.999906 0.997676 0.998997
0.999879 0.998002 0.998901
1.00533 0.994862 0.991173
1.00528 0.994891 0.991387
1.00569 0.994857 0.990815
1.00011 0.994778 0.980485
1.00545 0.994823 0.991257
1.0052 0.994806 0.990828
1.00548 0.994665 0.991313
0.995687 0.994885 0.961997
1.00286 0.994826 0.980035
1.00025 1.00186 0.99269
1.00026 1.00228 0.992281
0.999695 1.00353 0.991704
0.999918 1.00282 0.992111
1.0054 0.994845 0.99109
1.00541 0.994859 0.990397
1.00526 0.994832 0.990382
1.00374 1.00244 0.987638
1.00495 0.996268 0.988958
1.00523 0.99492 0.990007
1.00231 0.999616 0.990122
1.00391 1.00481 0.985276
1.00292 1.00209 0.987448
0.999952 1.00317 0.991935
1.00206 1.00419 0.987166
1.00074 1.00456 0.989191
1.00024 1.00255 0.991993
1.00035 1.00262 0.991604
1.00547 0.994741 0.990885
1.00014 1.00311 0.99149
1.00176 1.00194 0.9902
0.998045 1.00259 0.994515
1.00536 0.994857 0.990487
1.00526 0.994871 0.990116
1.00313 0.998207 0.991516
1.00466 0.996725 0.990191
1.00169 1.00478 0.988207
1.00124 1.00317 0.988444
1.00117 0.999139 0.993969
1.0022 1.00274 0.98919
1.0041 0.996211 0.990543
1.00524 0.994892 0.990685
1.00478 0.996531 0.989846
1.00349 0.996121 0.993331
0.997389 1.00486 0.994085
1.00244 1.00302 0.987933
0.998723 1.00327 0.993917
0.998557 1.00366 0.993399
1.00001 0.995082 0.923599
0.997976 1.0046 0.994881
1.00165 1.0036 0.988124
1.00417 0.994743 0.990949
1.00475 0.995558 0.990838
1.00422 1.00067 0.986888
1.00468 1.00229 0.984419
0.998896 0.994751 0.98002
0.997816 1.00456 0.994263
1.00338 0.994776 0.990547
1.00247 1.00406 0.986259
1.00366 1.00009 0.988238
1.00368 0.997985 0.990577
0.999671 0.994872 0.924238
0.995436 0.994794 0.957416
0.996255 0.997091 0.987477
0.997023 0.994747 0.85301
0.994755 0.995004 0.802142
0.998033 1.0046 0.993093
0.99892 0.994818 0.857919
0.99476 0.994874 0.798399
1.00092 0.997328 0.992954
1.00133 1.00143 0.990747
1.00128 1.00013 0.992972
0.994869 0.996639 0.990916
0.997405 0.994732 0.938249
0.994887 0.9948 0.953643
0.994756 0.994744 0.874855
0.994754 0.994836 0.785253
0.996872 1.0023 0.997827
0.996345 1.00342 0.997587
0.995898 1.00517 0.99688
1.0005 1.00393 0.990215
1.00057 1.00463 0.989372
0.999001 1.00509 0.990875
0.998955 1.00482 0.991982
0.99802 1.00104 0.99664
1.00032 1.00411 0.990123
0.999597 1.00453 0.991561
0.999331 1.00492 0.990939
1.00078 1.00464 0.989142
0.997613 1.00391 0.994697
0.99857 1.0039 0.993856
0.996128 1.00503 0.995725
0.999584 1.00504 0.990187
1.00051 1.00465 0.989535
1.00024 1.00476 0.989915
0.999679 1.00346 0.99196
0.999449 1.00468 0.991381
0.999937 1.00285 0.99232
0.99854 1.00242 0.994356
0.998095 1.00479 0.992569
0.998934 1.00508 0.991159
0.999531 1.005 0.990871
0.999849 1.00473 0.990254
0.999836 1.00497 0.990078
1.00018 1.00431 0.990307
0.999939 1.00271 0.992283
1.00016 1.00431 0.99016
0.999909 1.00255 0.99246
0.999886 0.999419 0.996337
0.99988 1.00258 0.992474
0.999741 0.999405 0.996167
0.999906 0.997404 0.997947
0.999675 0.999466 0.995853
0.999927 0.997472 0.999121
0.999922 0.997521 0.997821
1.00028 1.00207 0.992458
0.999876 1.00065 0.994403
0.999899 1.00081 0.994229
1.00003 0.998361 0.996472
0.999976 1.00114 0.993842
1.00009 0.998439 0.996308
0.999976 0.996965 0.999198
1.00006 0.998805 0.996535
0.99993 0.997323 0.998504
0.999912 0.997671 0.997666
0.999545 0.994791 0.980544
1.00546 0.994817 0.991199
1.00513 0.994849 0.990822
0.996259 0.994807 0.962292
1.00301 0.99483 0.980409
1.00549 0.994798 0.991318
1.0036 0.994802 0.985917
0.998282 0.994768 0.963292
0.99948 0.994857 0.938037
0.996797 0.99478 0.875611
0.994701 0.994846 0.806889
0.999571 1.00289 0.99238
1.00024 1.00187 0.992675
1.00037 1.00216 0.992244
0.99985 1.0031 0.992043
0.998455 1.0048 0.992927
1.0003 1.00305 0.991459
1.00014 1.00385 0.991042
1.00014 1.00266 0.992033
1.00547 0.99479 0.990863
1.00536 0.994871 0.990445
1.00528 0.994871 0.990113
1.00313 0.998602 0.991613
1.00441 0.996956 0.990073
1.001 0.999183 0.993997
1.00364 1.00269 0.988707
1.00278 1.00345 0.987617
1.00152 1.00181 0.99063
1.00177 1.00489 0.987519
1.00024 1.00353 0.991185
0.996424 1.00339 0.997353
1.00422 0.995418 0.990873
0.997573 1.00474 0.993979
1.00159 1.00302 0.989822
1.00501 0.994824 0.990652
1.00434 0.99698 0.990118
1.00301 0.996211 0.993235
0.999903 1.00331 0.992208
0.999674 1.00236 0.993549
1.00312 0.995926 0.989534
1.00323 0.998656 0.990887
1.00381 0.997331 0.991664
1.00107 0.997385 0.995264
0.998887 1.00485 0.992067
0.998018 1.00497 0.99294
0.998173 1.00427 0.994026
0.999815 0.995295 0.858502
1.00036 0.994883 0.93912
0.998581 1.00413 0.994447
1.00267 1.00456 0.986208
1.00303 0.994781 0.9904
1.00399 0.998496 0.990366
1.00412 0.999864 0.988452
1 0.99484 0.936412
0.995861 0.994787 0.956916
0.996319 0.997097 0.988064
0.996388 0.994789 0.872817
0.994801 0.994851 0.79573
0.998356 1.00466 0.993053
0.999843 0.994874 0.855496
0.994716 0.994846 0.791955
1.00093 0.997597 0.992795
1.00132 1.00155 0.990769
1.00122 1.00012 0.993435
0.994886 0.997996 0.991776
0.99702 0.994724 0.931413
0.994871 0.994797 0.95382
0.994762 0.99478 0.874413
0.994787 0.994903 0.783142
0.997041 1.00507 0.995468
0.994753 0.994793 0.7855
0.994745 0.99476 0.786447
0.996723 1.00162 0.997272
0.999357 1.00177 0.99651
0.994892 0.999077 0.988116
0.994924 0.994823 0.957437
0.994846 0.994716 0.927029
0.994793 0.994867 0.877308
0.994869 0.99488 0.79552
0.996599 1.00322 0.997483
0.996668 1.00502 0.996505
0.995825 1.00447 0.997239
1.00043 1.00399 0.990104
1.00086 1.00469 0.989275
0.999481 1.00507 0.990614
0.999098 1.00483 0.991309
0.997444 1.00364 0.994967
1.00054 1.00469 0.989498
0.998667 1.00376 0.993357
0.99996 1.00501 0.990189
0.995933 1.00484 0.995975
0.995379 1.00523 0.997664
0.997943 1.00471 0.993755
1.00025 1.00492 0.990437
1.00054 1.00439 0.989882
0.999486 1.0031 0.992397
0.999441 1.00446 0.991356
1.0001 1.00257 0.992232
0.998165 1.00281 0.994642
0.998267 1.0043 0.992543
0.997384 1.00507 0.993701
0.998108 1.00177 0.996252
0.999735 1.00201 0.993562
1.00379 0.99941 0.990625
0.998474 1.00471 0.991787
0.998515 1.00467 0.992585
0.999189 1.00509 0.99008
0.999175 1.00507 0.991218
1.00007 1.00495 0.989779
0.999418 1.00504 0.990881
0.99995 1.00468 0.990335
0.999913 1.00303 0.991848
1.00026 1.00434 0.990218
0.999938 1.0027 0.992293
1.00002 0.999442 0.996081
0.999899 1.00256 0.99248
0.99987 0.99941 0.99597
1.00003 0.997317 0.997771
0.999736 0.999406 0.995876
0.999958 0.997368 0.999135
0.999923 0.997449 0.999132
1.00036 1.00255 0.992156
0.999923 1.00086 0.994184
1.00023 1.00209 0.992472
1.00002 0.998286 0.996541
0.999899 1.00063 0.994394
0.999908 1.00082 0.994221
1.00004 0.998348 0.996461
0.999994 0.996884 0.999223
1.00007 0.998482 0.996831
0.999981 0.996989 0.998628
0.99995 0.99727 0.997966
0.999402 0.995001 0.842416
0.994749 0.994833 0.78438
0.996097 0.994817 0.962897
1.00273 0.994774 0.980939
1.00553 0.994744 0.991332
0.998808 0.994859 0.961438
1.00336 0.994667 0.986533
0.99987 0.994865 0.93354
0.996389 0.994738 0.854009
0.994739 0.994907 0.801258
0.997732 0.994734 0.970939
0.996713 0.994776 0.939282
0.995038 0.994756 0.875194
0.994795 0.995027 0.795408
0.999779 1.00384 0.991924
0.999796 1.00265 0.99246
1.0002 1.00197 0.992668
0.99993 1.00276 0.99239
0.99812 1.00421 0.99381
1.0003 1.00425 0.990184
0.999778 1.00372 0.99161
1.00072 1.004 0.989658
1.00013 1.00382 0.990911
0.99972 1.00328 0.991946
1.00413 0.994767 0.991182
1.00489 0.994824 0.990614
1.00358 0.997414 0.990393
1.00235 0.995914 0.993136
1.00021 1.00227 0.993679
0.999786 1.00363 0.990548
1.00038 1.0029 0.991903
0.997675 1.00459 0.993824
1.00223 0.995465 0.990117
0.998842 1.00502 0.991843
0.997738 1.00492 0.99321
1.00299 0.998545 0.990766
1.00335 0.997341 0.991712
1.00072 0.997427 0.995689
0.998306 1.00419 0.993984
0.999625 0.995508 0.988735
1.00058 0.999711 0.994988
0.996967 1.00252 0.996794
0.9986 1.00451 0.991581
0.997263 1.0052 0.993045
0.997422 1.00488 0.994539
0.994728 0.994805 0.806819
0.999814 0.994882 0.864955
1.0001 0.995039 0.923879
0.998624 1.00492 0.992991
1.00158 1.00183 0.990746
1.00092 0.997547 0.992627
1.00104 0.999909 0.993901
0.999843 0.995092 0.870553
0.996738 0.99477 0.924683
0.994886 0.994762 0.953716
0.99491 0.998804 0.992451
0.99477 0.994746 0.858441
0.994685 0.994822 0.798541
0.994825 0.995047 0.799324
0.99714 1.00474 0.995141
0.99474 0.994807 0.794985
0.994766 0.994766 0.785788
0.996779 1.00005 0.997947
0.998866 1.00171 0.99643
0.994907 0.99767 0.989934
0.994998 0.994807 0.955518
0.994861 0.994734 0.938633
0.994754 0.995161 0.857361
0.99515 0.994883 0.80532
0.996296 1.00414 0.998883
0.994756 0.994802 0.794313
0.994812 0.994824 0.785895
0.994846 1.0024 0.999902
0.99496 0.996719 0.965455
0.99478 0.994811 0.935353
0.994909 0.994932 0.852667
0.995798 0.994897 0.82112
0.997317 1.00437 0.996107
0.996276 1.00448 0.997455
0.995389 1.00411 0.99869
1.00036 1.00476 0.989458
1.00015 1.005 0.990192
0.998752 1.00358 0.992857
0.995935 1.00457 0.996224
0.999693 1.00494 0.990447
0.997728 1.00481 0.993754
0.995177 1.00511 0.997858
0.994774 1.00485 0.998713
0.995438 1.00503 0.997635
0.998406 1.0051 0.993246
0.999582 1.00451 0.991323
1.00017 1.00222 0.992148
0.997692 1.00323 0.994922
0.997542 1.00496 0.993768
0.998998 1.00401 0.9925
0.997414 1.00261 0.996265
0.997694 1.00378 0.995023
0.995426 1.00515 0.997722
1.00107 0.998714 0.995342
0.999281 1.00143 0.994445
1.00205 1.00002 0.991367
1.00476 0.99978 0.988034
1.00279 1.00132 0.99009
1.00286 0.999006 0.991531
0.999183 1.00447 0.991572
0.999423 1.00512 0.989552
0.999057 1.00452 0.992602
0.999862 1.00509 0.990105
1.00048 1.00508 0.988849
0.999666 1.00498 0.991271
1.00011 1.00504 0.989781
1.00001 1.00369 0.991065
1.00004 1.00468 0.990418
1 1.00308 0.99185
1.00016 0.999575 0.995762
1.00003 1.00256 0.992304
1.00001 0.999472 0.995676
1.00012 0.997399 0.99758
0.999873 0.999383 0.995671
1.00002 0.99732 0.998452
0.999973 0.997334 0.999115
1.00032 1.00344 0.990912
1.00005 1.0011 0.993775
1.00024 1.00261 0.991946
1.00004 0.998339 0.996464
0.999934 1.00079 0.994198
1.00025 1.00197 0.992489
1.00002 0.996825 0.999236
1.00002 0.998293 0.99654
0.999899 1.00067 0.994386
1.00006 0.998335 0.996451
0.999996 0.996902 0.999217
0.999973 0.996982 0.99919
0.994718 0.994773 0.784263
0.999404 0.994859 0.855899
0.994774 0.994777 0.785214
0.99476 0.99482 0.785311
0.998403 0.994871 0.960783
1.00294 0.994718 0.987146
0.999604 0.99481 0.928216
0.997062 0.994783 0.875353
0.99478 0.994845 0.795591
0.998171 0.994798 0.969804
0.996818 0.994747 0.924629
0.994765 0.994758 0.873861
0.994746 0.994897 0.787829
0.994908 0.994782 0.961922
0.995012 0.994693 0.92526
0.994823 0.996059 0.850171
0.994837 0.994884 0.798626
1.0006 1.00463 0.990355
0.999192 1.00389 0.992081
0.999948 1.00249 0.992535
0.997491 1.00368 0.994697
1.00093 1.00371 0.989541
1.00012 1.0043 0.990393
0.999227 1.004 0.991765
1.00119 1.00345 0.989817
1.00078 1.00429 0.989637
1.00025 1.00357 0.990783
1.00202 0.994797 0.990658
1.00267 0.998364 0.99067
1.00332 0.997175 0.99176
1.0002 0.997416 0.996118
0.999551 1.00434 0.993922
0.997997 1.00485 0.993482
0.998835 1.0051 0.991628
0.999617 1.00419 0.991365
0.999378 0.996494 0.989421
0.99828 1.00513 0.992679
0.998292 1.00459 0.994484
1.00034 0.999538 0.995176
0.998247 1.0013 0.99669
0.996012 1.00092 0.988579
0.996651 1.00113 0.99993
0.994914 1.00515 0.997358
0.997539 1.00459 0.994169
0.996385 1.00518 0.995401
0.994779 0.994793 0.80101
0.994726 0.994775 0.802026
0.999825 0.995271 0.845377
0.997411 1.0049 0.994871
0.998729 1.00121 0.996357
0.997005 0.999539 0.99862
0.994716 0.994792 0.79224
0.994791 0.994714 0.926279
0.994979 0.994803 0.955304
0.994909 0.995962 0.992198
0.994778 0.994925 0.877289
0.99479 0.994772 0.786123
0.995644 0.994875 0.807223
0.996377 1.00401 0.999087
0.994769 0.994809 0.796471
0.994799 0.994823 0.787122
0.994947 1.00241 0.998851
0.994928 0.995831 0.967278
0.994826 0.994798 0.9229
0.995519 0.994895 0.815992
0.995282 0.997641 0.861668
0.994827 1.00512 1.00046
0.994784 0.994832 0.783321
0.994867 0.994842 0.800745
0.994842 0.994879 0.798317
0.994804 0.999361 0.988389
0.994874 0.995415 0.938963
0.997561 0.994884 0.873757
0.996668 1.00512 0.997689
0.995542 1.00483 0.998453
0.995231 1.00525 0.998886
0.999473 1.00492 0.990462
0.997669 1.00497 0.993752
0.99485 1.00526 0.998055
0.997811 1.00512 0.993286
0.995528 1.00509 0.997641
0.994778 1.00527 0.998606
0.994842 1.00516 0.998843
0.995437 1.00509 0.9977
0.997353 1.00491 0.99386
0.999587 1.00378 0.992454
0.996951 1.00332 0.996276
0.995472 1.00487 0.99765
0.997269 1.00404 0.995003
0.998263 1.00095 0.997442
0.998192 0.998696 0.999173
1.00186 1.00032 0.990454
0.998917 1.00083 0.995263
1.00239 0.999932 0.991005
1.00443 1.00137 0.986364
1.00479 1.00246 0.984681
1.00457 0.999404 0.988587
1.00387 0.999967 0.988015
1.00181 1.00356 0.988656
1.0018 1.0017 0.990367
1.00183 0.998665 0.992407
0.999883 1.00425 0.991355
0.999953 1.00513 0.989393
1.00071 1.00513 0.988054
1.00044 1.0051 0.990135
1.00073 1.00502 0.98883
1.00033 1.0042 0.990055
1.00025 1.00494 0.989779
1.00013 1.0036 0.991046
1.0002 0.999934 0.995374
1.00001 1.00315 0.99185
1.00014 0.99964 0.995313
1.00023 0.997488 0.997336
1.00002 0.999494 0.995345
1.00011 0.997371 0.998318
1.00006 0.997317 0.999044
1.0007 1.00353 0.990008
1.00011 1.00159 0.992796
1.00043 1.00332 0.99092
1.00011 0.998482 0.996224
1.00006 1.00108 0.993588
1.0002 1.00263 0.991736
1.00004 0.99684 0.999214
1.00005 0.998311 0.996479
0.999984 1.00066 0.994213
1.00001 0.996857 0.999233
1.00001 0.998303 0.99654
0.999998 0.996896 0.999212
0.994814 0.994808 0.791411
0.994727 0.994816 0.79911
0.999385 0.994825 0.85459
1.0009 1.00336 0.990152
0.994786 0.994801 0.79127
0.994773 0.994782 0.785134
0.994796 0.994821 0.800045
0.998402 0.994821 0.969353
0.996676 0.994758 0.939086
0.994992 0.994835 0.856685
0.994711 0.994853 0.799031
0.995747 0.994786 0.95954
0.994926 0.994752 0.937563
0.994724 0.994934 0.853682
0.994855 0.994888 0.800938
0.994849 0.994795 0.954078
0.994771 0.994811 0.933619
0.996242 0.997206 0.865066
0.995525 0.994901 0.821319
0.999161 1.00418 0.99186
0.999818 1.00462 0.990534
0.999368 1.00354 0.992244
1.00123 1.00232 0.990622
1.00091 1.00405 0.989595
1.00002 1.0046 0.990599
1.00132 1.00346 0.989736
1.00084 1.00433 0.989619
0.998378 0.997321 0.989934
0.999623 0.999329 0.995276
0.999515 1.00432 0.991137
0.999697 1 0.996593
0.998733 1.0042 0.994433
0.998995 1.00512 0.992293
0.997827 1.00442 0.993729
0.995575 1.00011 0.988874
0.997222 1.00509 0.995204
0.996203 1.00365 0.997568
0.995897 1.00099 1
0.996784 1.00457 0.995529
0.994798 1.00144 0.986208
0.995262 1.0031 0.998646
0.995725 1.00485 0.997676
0.996686 1.00546 0.996019
0.994759 0.994811 0.787482
0.994775 0.994798 0.79767
0.994719 0.994747 0.79703
0.996327 1.0041 0.999269
0.994965 1.00165 0.997758
0.994783 0.994818 0.798428
0.99474 0.994849 0.937043
0.994989 0.9958 0.964266
0.995424 0.996266 0.860051
0.99479 0.994823 0.788092
0.994892 0.994905 0.810791
0.994982 1.00511 1.00031
0.994784 0.99483 0.783646
0.994873 0.994855 0.799925
0.994838 1.00004 0.992129
0.994861 0.994886 0.800781
0.994841 0.996754 0.931389
0.996492 0.997425 0.875543
0.995236 1.00392 0.997247
0.99484 0.994843 0.794853
0.994798 0.994815 0.793154
0.994805 0.994954 0.794898
0.99628 0.9973 0.864904
0.994891 1.00107 0.971393
0.995053 0.996589 0.924165
0.996005 1.00514 0.99823
0.99528 1.00523 0.998934
0.994799 1.0053 0.998113
0.99718 1.00512 0.993323
0.995029 1.005 0.997651
0.994792 1.00533 0.99854
0.995219 1.00472 0.997676
0.994848 1.00505 0.99885
0.997446 1.00211 0.998916
0.995365 1.00463 0.997569
0.996654 1.00434 0.995023
0.997614 1.00136 0.997888
0.997907 1.00056 0.995217
0.995461 0.99881 1.00266
1.00143 1 0.99177
1.00436 1.00436 0.982686
1.00428 1.0031 0.984379
1.00276 0.999812 0.990559
1.00423 1.00167 0.985912
1.00509 1.00224 0.984096
1.00515 1.00149 0.985365
1.00433 1.00232 0.984922
1.00404 1.00049 0.988086
1.00387 0.99995 0.988445
1.00317 1.00011 0.98802
1.00084 1.00511 0.987814
1.00134 1.00388 0.988765
1.00076 1.00206 0.990641
1.00055 1.00513 0.989234
1.00108 1.00513 0.988084
1.00057 1.00477 0.988982
1.00097 1.00507 0.988811
1.00048 1.00409 0.990047
1.00019 1.00037 0.994112
1.00034 1.00362 0.991035
1.00023 0.999983 0.994518
1.00013 0.997618 0.998798
1.00013 0.99975 0.994943
1.00019 0.99745 0.998147
1.00014 0.997352 0.99895
1.00064 1.00372 0.989968
1.00032 1.00225 0.991877
1.00063 1.00363 0.990205
1.00019 0.998758 0.995842
1.00022 1.0016 0.992684
1.00047 1.00331 0.990923
1.00007 0.9969 0.999157
1.00012 0.998433 0.996244
1.00006 1.00107 0.9934
1.00004 0.996831 0.999223
1.00005 0.998282 0.996494
1.00001 0.996872 0.999231
0.994783 0.994823 0.792694
0.994807 0.994807 0.791807
0.994719 0.994829 0.798329
1.00105 1.00331 0.990111
1.00024 1.00466 0.98946
1.00173 1.0015 0.991289
0.994867 0.994856 0.799637
0.994796 0.994803 0.792382
0.994778 0.994772 0.785217
0.996586 0.994773 0.959694
0.994832 0.994719 0.925409
0.99475 0.995735 0.875693
0.994848 0.994866 0.795145
0.994909 0.994788 0.955174
0.994804 0.995118 0.92937
0.996121 0.997113 0.862724
0.995327 0.994904 0.816054
0.994884 0.994862 0.953627
0.994876 0.995437 0.933555
0.997182 0.994899 0.873647
0.994856 0.994883 0.79718
0.998678 1.00287 0.993718
0.999703 1.00379 0.991664
0.999761 1.00455 0.990712
1.0012 1.00242 0.990545
1.00056 1.00452 0.989643
1.00139 1.00352 0.989656
0.99542 1.00023 0.989511
0.995693 1.00114 1.00018
0.99877 1.00342 0.993306
0.997902 1.0026 0.997654
0.998014 1.00477 0.995014
0.99652 1.00406 0.995969
0.996107 1.00524 0.995958
0.994782 1.00276 0.986128
0.99538 1.0052 0.997939
0.994919 1.00367 0.997892
0.995719 1.00482 0.99777
0.995044 1.00021 0.984436
0.995154 1.00514 0.994615
0.994814 1.00318 0.99912
0.994867 0.994848 0.787136
0.994767 0.994821 0.786521
0.994773 0.994798 0.794371
0.995027 1.00509 1.00014
0.994859 1.00024 0.987712
0.994782 0.994829 0.783982
0.99481 0.996629 0.931081
0.996225 0.994874 0.860734
0.994882 0.994851 0.799076
0.994857 0.994863 0.795093
0.995044 1.00363 0.997764
0.994825 0.994843 0.794213
0.994814 0.994804 0.794389
0.994922 1.00114 0.96857
0.994767 0.994901 0.787617
0.995897 0.99743 0.862374
0.994845 0.996311 0.938148
0.994993 1.00516 0.988532
0.99478 0.994827 0.794054
0.994777 0.994793 0.786511
0.994748 0.994872 0.807615
0.99481 0.995507 0.848874
0.994859 0.996278 0.934656
0.994838 1.00133 0.962578
0.995092 1.00521 0.998921
0.994898 1.00527 0.998058
0.995239 1.0051 0.997587
0.995607 1.00445 0.997654
0.994875 1.00515 0.998814
0.99596 1.00386 0.998798
0.998456 1.00051 0.998681
0.9969 1.00187 0.998306
1.00053 1.00028 0.994168
1.00192 1.00494 0.986717
1.00081 0.99971 0.993517
1.00422 1.00421 0.983593
1.00422 1.00369 0.983101
1.00504 1.00066 0.985279
1.00505 1.0016 0.984698
1.00427 1.00303 0.98435
1.0042 1.00201 0.985467
1.00508 1.00232 0.984196
1.00511 1.00207 0.984253
1.00512 1.00079 0.985957
1.00467 1.00163 0.985495
1.00372 1.00218 0.985171
1.00187 1.00344 0.988194
1.00349 1.00118 0.987946
1.00312 1.00057 0.988283
1.0008 1.00518 0.98814
1.00131 1.00511 0.987808
1.00074 1.0041 0.988874
1.00147 1.00511 0.988118
1.00087 1.00461 0.989001
1.00016 1.00114 0.993402
1.00077 1.00388 0.990033
1.00024 1.00039 0.994085
1.0002 0.997825 0.998714
1.00027 0.999961 0.994513
1.00023 0.99764 0.997978
1.00019 0.997476 0.998847
1.00131 1.00355 0.989468
1.00054 1.00263 0.991422
1.00088 1.00347 0.989952
1.00026 0.999126 0.995347
1.00033 1.00225 0.991961
1.00056 1.00366 0.990406
1.0001 0.997017 0.999071
1.0002 0.998675 0.995867
1.0003 1.00159 0.992574
1.00007 0.996879 0.999175
1.00013 0.998388 0.996263
1.00004 0.996853 0.999232
0.994829 0.994844 0.793042
0.994784 0.994838 0.793061
0.994809 0.994808 0.792144
0.999829 1.00525 0.989395
1.00198 1.00225 0.991327
1.00088 1.00327 0.990075
1.00037 1.00455 0.989338
1.00062 1.00182 0.99174
1.00038 1.00281 0.991191
0.998874 1.00151 0.994438
0.994826 0.994831 0.787704
0.994867 0.994858 0.798822
0.994798 0.99483 0.793478
0.994888 0.994911 0.810738
0.99543 0.994787 0.95409
0.9948 0.996001 0.923647
0.99599 0.994925 0.875977
0.994881 0.995199 0.952969
0.994858 0.998213 0.919828
0.996453 0.997327 0.874783
0.995082 0.994882 0.806767
0.994961 0.995758 0.957061
0.99486 0.998239 0.921904
0.994914 0.994912 0.853059
0.994764 0.994877 0.786812
0.996252 1.00455 0.996182
0.998406 1.00328 0.994289
0.999535 1.00425 0.991465
1.00106 1.00292 0.990475
0.994786 1.00199 0.985922
0.9947 1.00393 0.997114
0.996368 1.00443 0.996413
0.996654 1.00524 0.995903
0.99503 1.00525 0.998355
0.995223 1.005 0.997667
0.995801 1.00361 0.999226
0.995214 1.00079 0.981339
0.995346 1.00516 0.994718
0.995885 1.00314 0.999303
0.995479 1.00199 0.977382
0.994722 1.00317 0.999392
0.994761 0.994829 0.789419
0.994849 0.994847 0.791598
0.994778 0.994838 0.785538
0.994865 1.00373 0.99827
0.994882 1.00114 0.972234
0.99481 0.994846 0.7936
0.994883 0.997349 0.925369
0.995921 0.994906 0.875837
0.994808 0.994833 0.795436
0.994726 0.994862 0.798537
0.994938 1.00511 0.989559
0.994791 0.994836 0.794469
0.994765 0.994797 0.786488
0.994829 1.00055 0.962695
0.994779 0.994866 0.802055
0.994763 0.995348 0.852151
0.994872 0.996585 0.921648
0.994863 1.00406 0.983681
0.994829 0.994815 0.791762
0.994735 0.994838 0.785518
0.994712 0.994735 0.875884
0.994784 0.994877 0.933918
0.994813 0.999871 0.957411
0.994949 1.00526 0.998506
0.995256 1.00472 0.997639
0.996145 1.00332 0.997475
0.995054 1.00482 0.998685
0.996629 1.00303 0.998948
1.00081 1.00064 0.994329
1.00301 0.999962 0.993134
1.00279 1.00488 0.9858
1.00441 1.00205 0.984717
1.00387 1.00403 0.9845
1.00447 1.00361 0.983061
1.00477 1.00159 0.984796
1.00526 0.998129 0.987221
1.00511 1.00021 0.985978
1.005 1.00083 0.985307
1.00509 1.00167 0.984775
1.00504 1.00149 0.984681
1.00426 1.00301 0.984319
1.0051 1.00277 0.983652
1.00508 1.00238 0.98422
1.00513 1.00195 0.984415
1.00383 1.00147 0.98777
1.00426 1.00144 0.986366
1.00431 1.00165 0.985629
1.00142 1.00481 0.987485
1.00208 1.00332 0.988193
1.00297 1.00208 0.987807
1.00034 1.00169 0.99255
1.00106 1.00507 0.988181
1.00168 1.00511 0.987802
1.00102 1.00448 0.989019
1.0002 1.00113 0.99338
1.00017 0.998168 0.998576
1.00025 1.00045 0.994059
1.0002 0.997828 0.998681
1.00022 0.997599 0.998756
1.00075 1.00478 0.989773
1.00127 1.00512 0.988713
1.00083 1.00308 0.990505
1.00099 1.00398 0.989461
1.00025 0.999592 0.994879
1.00052 1.00267 0.991417
1.00098 1.00349 0.989936
1.00012 0.997287 0.998951
1.00025 0.999111 0.995371
1.00039 1.00226 0.992042
1.0001 0.997011 0.999097
1.00021 0.99864 0.995897
1.00007 0.996857 0.999194
0.994793 0.994847 0.785066
0.994824 0.994835 0.792434
0.994789 0.994829 0.793421
1.0003 1.00524 0.989202
1.00057 1.00166 0.991674
1.00203 1.00153 0.988345
0.998638 1.00362 0.991521
1.00197 0.999856 0.992109
1.00079 1.00449 0.98921
0.999946 1.00256 0.992198
1.00027 1.00373 0.991208
0.999451 1.00104 0.99503
0.999027 1.0036 0.9945
0.994759 0.994766 0.787777
0.994806 0.994835 0.789056
0.994868 0.994844 0.797993
0.995339 0.994872 0.80857
0.995971 0.994894 0.860537
0.994866 0.994907 0.95195
0.994846 0.996026 0.932555
0.995226 0.996217 0.952822
0.994881 0.997061 0.934406
0.995129 0.997834 0.862402
0.994782 0.994884 0.784744
0.994928 0.998339 0.955216
0.994819 0.996473 0.934245
0.994792 0.994884 0.877763
0.99472 0.994994 0.809895
0.998586 1.00016 0.996658
0.995986 1.00474 0.99655
0.998538 1.00288 0.994879
0.995223 1.00257 0.977851
0.995036 1.00515 0.994397
0.995004 1.0051 0.997517
0.99473 1.00442 0.999358
0.995458 1.00347 0.999167
0.994738 1.0021 0.999854
0.994826 1.00193 0.977697
0.996084 1.00134 1.00138
0.994898 1.00052 0.984575
0.994798 0.994816 0.801146
0.994785 0.994839 0.788382
0.994833 0.994839 0.796207
0.994973 1.00514 0.989888
0.994857 0.999921 0.960496
0.994809 0.994842 0.794891
0.994856 0.996292 0.933896
0.994775 0.995239 0.873143
0.994769 0.994773 0.786779
0.994814 0.994851 0.796424
0.995165 1.00475 0.984377
0.994816 0.994815 0.791952
0.994755 0.994833 0.786379
0.994902 0.998534 0.958512
0.994735 0.99475 0.874032
0.994797 0.995574 0.92701
0.995163 1.00256 0.981543
0.994717 0.994788 0.784955
0.996739 0.994763 0.876042
0.994781 0.994721 0.925189
0.994834 0.994866 0.958607
0.995433 1.00515 0.997732
0.995547 1.00405 0.997384
0.997808 1.0007 0.997811
0.994849 1.00515 0.99924
0.999576 1.00125 0.995217
1.00436 0.996124 0.991517
1.00373 1.00498 0.984857
1.00431 1.00209 0.984587
1.00477 0.998744 0.987307
1.00477 1.00365 0.983019
1.00478 1.00141 0.984856
1.00506 0.99789 0.987836
1.00533 0.995613 0.989499
1.00528 0.997777 0.987294
1.00526 0.998033 0.987262
1.00519 1.00018 0.986049
1.0051 1.00025 0.98592
1.0049 1.00092 0.985334
1.00518 1.00255 0.983769
1.00509 1.00157 0.984695
1.00499 1.00135 0.984664
1.00503 1.00217 0.9851
1.00469 1.00307 0.98404
1.00508 1.00249 0.984241
1.00217 1.00377 0.987222
1.0033 1.00164 0.98769
1.00366 1.00188 0.98677
1.00053 1.0027 0.992433
1.00155 1.00484 0.987572
1.00228 1.0032 0.988193
1.00023 0.998832 0.995917
1.0004 1.00184 0.992979
1.00128 1.00495 0.988224
1.00026 1.0012 0.993353
1.0002 0.998301 0.998502
1.00022 0.997877 0.998645
1.00157 1.00309 0.988929
1.00162 1.00516 0.988058
0.999744 1.00486 0.989673
1.0008 1.00417 0.989499
1.00087 1.00483 0.988676
1.00017 1.00013 0.994458
1.00067 1.00335 0.990509
1.00075 1.00439 0.989447
1.00011 0.997592 0.998856
1.00026 0.999537 0.994906
1.00049 1.00269 0.991413
1.00011 0.997242 0.998988
1.00025 0.999042 0.995393
1.0001 0.996963 0.999124
0.994776 0.99482 0.800958
0.994797 0.994845 0.785458
0.99481 0.994853 0.791768
1.00332 1.00249 0.986097
1.00028 1.00503 0.989013
1.0002 1.00205 0.992094
1.00016 1.00458 0.99099
1.00321 1.00142 0.988426
1.00147 1.00024 0.993703
1.00399 1.00143 0.987267
0.99653 1.00441 0.994595
0.999451 1.00411 0.991225
0.999387 0.999572 0.995622
0.997596 1.00339 0.994466
0.998434 1.00247 0.994725
0.994773 0.994854 0.7995
0.994778 0.994774 0.787153
0.994797 0.99484 0.790126
0.994822 0.99578 0.800594
0.995269 0.996442 0.860845
0.994874 0.998211 0.921995
0.995768 0.995024 0.95222
0.995211 0.997915 0.955794
0.994745 0.995523 0.803735
0.994851 0.996699 0.925617
0.994739 0.996008 0.85795
0.994887 0.996464 0.960989
0.994774 0.994835 0.936292
0.994753 0.994994 0.876163
0.999927 0.995076 1.00111
0.998868 1.00075 0.996496
0.995463 1.00513 0.996891
0.994938 1.00168 0.977758
0.995773 1.00061 1.00025
0.995824 1.00297 0.999094
0.996654 0.999989 1.00175
0.994916 0.999552 0.984682
0.995755 0.998897 0.992471
0.994718 0.994796 0.80168
0.99479 0.994814 0.801578
0.994805 0.994839 0.787166
0.994946 1.00446 0.984535
0.994865 0.99981 0.957614
0.994798 0.99482 0.792407
0.994831 0.995492 0.921488
0.994727 0.994735 0.857287
0.994807 0.994845 0.800691
0.994934 1.00489 0.981223
0.994727 0.994829 0.799507
0.996451 0.994733 0.854298
0.994882 0.995271 0.954066
0.994838 0.994749 0.937591
0.994887 1.0006 0.990085
0.999502 0.995017 0.842156
0.996723 0.994783 0.939462
0.994898 0.994783 0.952563
0.994817 1.00517 0.997255
0.997235 1.00167 0.997577
1.00058 0.998974 0.993862
0.998598 1.00148 0.996101
1.00399 0.996579 0.991231
1.0049 0.996214 0.990072
1.00419 1.00202 0.984461
1.00477 0.998669 0.987199
1.00511 0.996007 0.989348
1.00473 1.00107 0.984925
1.00498 0.997847 0.987785
1.00536 0.994963 0.99009
1.0053 0.994881 0.990828
1.00532 0.995751 0.989432
1.00535 0.995576 0.989541
1.00536 0.997714 0.987326
1.00528 0.997743 0.98748
1.00527 0.997951 0.9873
1.00529 1.00096 0.98492
1.00519 1.00006 0.985966
1.0051 1.00029 0.985859
1.00528 1.00324 0.983037
1.00516 1.00258 0.983803
1.00508 1.00145 0.984612
1.00306 1.00308 0.986741
1.0043 1.00272 0.985056
1.00408 1.00342 0.98443
1.00101 1.00319 0.990002
1.00246 1.00363 0.987201
1.00282 1.00201 0.9876
0.999894 0.999986 0.997991
1.00069 1.00259 0.99112
1.00182 1.00481 0.987659
1.00024 0.998792 0.998247
1.00048 1.00184 0.992388
1.00024 0.998334 0.998416
1.00442 1.00145 0.987316
1.0023 1.00248 0.98862
1.00195 1.00435 0.987834
1.00111 1.00481 0.988699
1.00119 1.00515 0.988051
1.00012 1.00482 0.989572
1.00005 1.00104 0.993823
1.00073 1.00429 0.989506
1.00089 1.00437 0.988632
1.00008 0.997844 0.998753
1.00016 1.00013 0.994472
1.00047 1.00367 0.99051
1.00009 0.997546 0.998881
1.00026 0.999519 0.994928
1.0001 0.997191 0.999025
0.994745 0.994785 0.787528
0.994791 0.994819 0.801311
0.994805 0.99484 0.785913
1.00337 1.00304 0.985971
1.00466 1.00369 0.985385
1.00225 1.00408 0.98682
0.999962 1.00455 0.990454
1.0042 1.00099 0.988523
0.999181 0.999478 0.995197
0.998218 1.00327 0.994163
1.00211 1.00211 0.988769
1.00134 1.00001 0.992425
0.998725 1.00002 0.996346
0.998205 1.00363 0.994405
0.99939 1.00296 0.994172
0.996809 0.994799 0.848765
0.994738 0.994842 0.793315
0.994792 0.994782 0.787452
0.99479 0.99486 0.797106
0.994777 0.995119 0.877779
0.99485 0.995758 0.921677
0.994853 0.997174 0.954647
0.994885 0.996971 0.958345
0.995028 0.9948 0.874442
0.994814 0.995291 0.923457
0.99486 0.997394 0.96228
0.995288 0.994708 0.926226
0.999096 0.995463 1.00435
0.999765 0.995109 1.00112
0.998594 1.00042 0.996487
0.994849 0.999264 0.984941
0.996566 0.999417 1.00212
0.996079 0.998989 0.992065
0.995607 0.996317 0.990035
0.999814 0.995868 0.856829
0.994718 0.994777 0.798338
0.99479 0.99482 0.801725
0.994837 1.00453 0.981735
0.994889 0.994871 0.952136
0.994721 0.994838 0.798527
0.994871 0.994716 0.926154
0.996746 0.994765 0.875767
0.994952 0.998438 0.98649
0.999449 0.994857 0.85598
0.996797 0.994741 0.924994
0.994876 0.9948 0.953534
0.995875 0.998515 0.986561
0.999507 0.994844 0.938212
0.994948 0.9948 0.960313
0.996367 1.00163 0.997368
0.999772 0.999506 0.993823
1.00321 0.998726 0.991308
1.00317 0.99763 0.990965
1.00472 0.996244 0.98998
1.00517 0.995349 0.990223
1.00484 0.998645 0.987094
1.00502 0.996378 0.989261
1.00535 0.994805 0.990193
1.00495 0.99785 0.987731
1.00536 0.994991 0.990039
1.00528 0.994826 0.990719
1.00532 0.99485 0.990804
1.00529 0.99488 0.990866
1.00527 0.995027 0.990837
1.00532 0.996213 0.989372
1.00532 0.995785 0.989585
1.00536 0.995528 0.989586
1.00538 0.998783 0.986667
1.00535 0.997782 0.987247
1.00528 0.997694 0.987665
1.0054 1.00246 0.983327
1.0053 1.001 0.984933
1.0052 0.999986 0.985883
1.00428 1.00307 0.984927
1.00514 1.00313 0.983155
1.00513 1.00263 0.983838
1.00136 1.0034 0.989062
1.00303 1.00312 0.986641
1.00377 1.00275 0.985021
1.00022 1.00043 0.997541
1.00114 1.00301 0.990019
1.00268 1.00352 0.987171
1.00011 0.999976 0.996581
1.00091 1.00242 0.991166
1.00027 0.999033 0.998086
1.00508 1.00273 0.984529
1.00352 1.00191 0.987153
1.00277 1.00257 0.987559
1.00247 1.00274 0.988313
1.00178 1.00451 0.98787
1.00117 1.00513 0.988215
1.00023 1.00161 0.992963
1.00085 1.00488 0.988674
1.00036 1.00515 0.98805
1.00008 0.998313 0.998543
1.00005 1.00085 0.993845
1.00075 1.00425 0.989513
1.00005 0.997859 0.998787
1.00013 1.00004 0.994509
1.00008 0.997499 0.998908
0.998936 0.99481 0.85719
0.994737 0.994789 0.793653
0.994798 0.994817 0.801786
1.00342 1.00313 0.985856
1.00301 1.00394 0.985647
1.00428 1.00385 0.985015
1.00465 1.00317 0.984437
1.00153 1.00207 0.990428
0.999706 1.00329 0.993765
1.00215 1.00232 0.990252
1.00131 1.00061 0.99264
1.00471 0.995433 0.991375
1.00185 0.998173 0.994588
1.00151 0.997998 0.99537
1.0003 0.998799 0.995945
1.00007 1.0018 0.993601
0.997424 0.994785 0.936043
0.997392 0.994779 0.853017
0.994698 0.994824 0.79959
0.994896 0.994818 0.85934
0.994779 0.994798 0.934602
0.994935 0.99643 0.96024
0.994851 0.996675 0.964009
0.995147 0.994756 0.939027
0.995739 0.99477 0.962067
0.997977 0.996459 1.0025
0.997995 0.996095 1.00445
0.999919 0.996036 1.00099
0.996174 0.998377 0.991794
0.996777 0.996618 0.990605
1.0001 0.99525 0.923075
0.999818 0.994895 0.863702
0.994714 0.994755 0.79509
0.995098 0.998101 0.982488
0.994891 0.994793 0.953137
0.999486 0.994827 0.854882
0.996683 0.994748 0.939216
0.995756 0.997977 0.986831
0.999829 0.99486 0.933473
0.995504 0.994803 0.958092
0.999874 0.995373 0.985167
0.99761 0.994794 0.969598
0.999326 0.99935 0.993786
1.0024 0.997488 0.991321
1.0051 0.994821 0.991171
1.00487 0.995898 0.989877
1.00515 0.995261 0.990168
1.00531 0.9948 0.990496
1.00481 0.996673 0.989174
1.00535 0.994813 0.990156
1.00532 0.99483 0.990455
1.00537 0.99502 0.989988
1.00527 0.994836 0.990712
1.00533 0.994861 0.990611
1.00531 0.994846 0.990815
1.00534 0.994863 0.990783
1.00529 0.994882 0.990903
1.00527 0.995024 0.990845
1.00522 0.995415 0.990489
1.00532 0.997354 0.988424
1.00532 0.996236 0.989371
1.00532 0.995822 0.989737
1.00539 1.00113 0.984515
1.00541 0.99891 0.986453
1.00534 0.997843 0.98717
1.00511 1.00291 0.983509
1.00541 1.00244 0.983394
1.00532 1.00104 0.984946
1.002 1.00343 0.987887
1.00384 1.00338 0.984959
1.00478 1.00333 0.983271
1.00061 1.00108 0.997078
1.00148 1.0033 0.98904
1.00297 1.00317 0.98655
1.00043 1.00061 0.997355
1.00122 1.00284 0.99004
1.00037 0.999975 0.997636
1.00512 1.00374 0.983645
1.00495 1.00219 0.984604
1.00339 1.0034 0.986005
1.00285 1.00201 0.986975
1.00236 1.00308 0.987529
1.00177 1.00439 0.987489
1.00137 1.00419 0.987899
1.00103 1.00515 0.988162
1.00053 1.00233 0.991876
1.00009 0.998926 0.998247
1.00006 1.0018 0.992971
1.00055 1.00508 0.98865
1.00003 0.998251 0.998622
1.00006 1.00086 0.993836
1.00003 0.997816 0.998816
0.999973 0.994867 0.938382
0.999846 0.994867 0.854964
0.994719 0.99477 0.787386
1.00296 1.00495 0.984461
1.00382 1.00366 0.984638
1.00282 1.002 0.989163
1.00407 1.00323 0.984562
1.0052 0.999692 0.986108
1.00356 0.998022 0.989618
1.00103 1.00114 0.99283
1.00462 0.995469 0.990938
1.00184 0.997771 0.994657
1.00399 0.99699 0.99077
1.0023 0.998409 0.99321
1.0017 0.998958 0.994154
1.00108 0.998318 0.995447
1.00077 0.999158 0.99556
0.99517 0.994777 0.960748
0.997409 0.994758 0.931139
0.996464 0.994822 0.872079
0.994806 0.994674 0.925815
0.994866 0.996606 0.964383
0.995668 0.995587 0.967746
0.999002 0.994796 0.990892
0.999288 0.995921 1.00144
0.997494 0.996572 1.00456
0.998456 0.998298 0.991259
0.998111 0.994761 0.96221
1.00028 0.994886 0.938526
0.999825 0.995841 0.844006
0.995452 0.997893 0.987287
0.99608 0.994801 0.958076
0.999429 0.994824 0.928211
0.999164 0.996685 0.985727
0.997716 0.994802 0.968556
1.00266 0.996777 0.98762
1.00328 0.994662 0.985093
1.0015 0.99732 0.991322
1.00458 0.994892 0.991233
1.00527 0.994797 0.990693
1.00502 0.995329 0.990114
1.0053 0.994797 0.990449
1.00537 0.994879 0.99043
1.00535 0.994816 0.990118
1.00532 0.994835 0.990453
1.00535 0.994877 0.990507
1.00526 0.994842 0.990705
1.00534 0.994859 0.990636
1.00537 0.994851 0.990668
1.00529 0.994841 0.990827
1.00534 0.99485 0.990778
1.00529 0.99507 0.99083
1.00527 0.995023 0.990853
1.00523 0.995392 0.990509
1.00527 0.996583 0.989376
1.00533 0.999662 0.986178
1.00533 0.997578 0.9881
1.00532 0.99626 0.98937
1.00535 1.00218 0.983717
1.0054 1.00119 0.984543
1.00544 0.999042 0.986239
1.00293 1.00274 0.987154
1.00478 1.00318 0.983528
1.00541 1.00244 0.983463
1.00109 1.00138 0.996645
1.00214 1.00333 0.987794
1.00342 1.00371 0.984994
1.00079 1.00115 0.996925
1.00159 1.0032 0.989021
1.00062 1.00076 0.997185
1.00525 1.00137 0.98473
1.00498 1.00332 0.983597
1.00438 1.00381 0.98382
1.00473 1.00208 0.984683
1.00364 1.00314 0.985682
1.00303 1.00316 0.98641
1.00219 1.00407 0.987508
1.00192 1.0044 0.987483
1.00094 1.00285 0.990531
1.00081 1.00513 0.988122
1.00032 1.00249 0.991879
1.00012 0.999806 0.997828
1.00004 0.99884 0.99836
0.999931 1.00186 0.992991
1 0.998196 0.998691
0.995835 0.994956 0.964064
0.999657 0.994903 0.922703
0.999847 0.995252 0.869914
1.00529 0.997499 0.987848
1.00448 1.00204 0.987924
1.00361 1.00327 0.984685
1.00417 0.998217 0.989786
1.00519 0.999833 0.986136
1.00515 0.996394 0.989481
1.00481 0.996457 0.990495
1.00148 0.997818 0.994741
1.00453 0.996339 0.990784
1.00191 0.998606 0.993322
1.00375 0.997857 0.990185
1.00318 0.994815 0.994519
1.00149 0.998281 0.99432
1.00085 0.998891 0.995526
0.998451 0.994721 0.989562
0.99561 0.994767 0.959258
0.997249 0.994765 0.924675
0.995393 0.995823 0.968829
0.998804 0.994815 0.993522
0.999588 0.995599 1.00032
1.00262 0.995196 0.978934
0.998564 0.994869 0.960689
1.00024 0.995047 0.923134
0.998136 0.997323 0.986264
0.99771 0.994784 0.968094
1.00185 0.995759 0.988242
1.00287 0.994667 0.985591
1.0036 0.996779 0.990152
1.00549 0.99465 0.990779
1.00411 0.994813 0.9913
1.00528 0.994819 0.990674
1.0054 0.994876 0.990403
1.00529 0.994802 0.990404
1.00536 0.994871 0.990439
1.00538 0.994884 0.990483
1.00533 0.994843 0.990451
1.00534 0.99488 0.990512
1.00534 0.994905 0.99069
1.00534 0.994858 0.990661
1.00537 0.994851 0.990665
1.00531 0.994872 0.990899
1.00533 0.994839 0.990773
1.00529 0.995005 0.99084
1.00527 0.99556 0.990497
1.00524 0.995368 0.990529
1.00528 0.996402 0.989533
1.00532 0.999029 0.987028
1.00534 1.0014 0.98454
1.00532 0.99991 0.985925
1.00533 0.997797 0.987776
1.00334 1.00149 0.987603
1.00527 1.0023 0.983733
1.00541 1.00126 0.984572
1.00172 1.00136 0.996196
1.00301 1.00251 0.987123
1.00455 1.00335 0.983545
1.00131 1.00147 0.996431
1.00234 1.00323 0.9877
1.00095 1.00126 0.996742
1.0053 0.999322 0.98624
1.00524 1.00136 0.984689
1.00534 1.00248 0.983477
1.00474 1.00295 0.983556
1.00484 1.00365 0.983437
1.00344 1.00341 0.985617
1.00431 1.00255 0.985358
1.00296 1.00341 0.986457
1.00128 1.00322 0.989404
1.00188 1.00447 0.987442
1.00082 1.00304 0.990564
1.0003 1.00084 0.997366
1.00012 1.00263 0.991883
1.00004 0.999623 0.997995
0.99998 0.998732 0.99846
0.999505 0.995269 0.9857
0.996419 0.994868 0.959428
1.00009 0.994837 0.938079
1.00537 0.995837 0.989422
1.00532 0.995601 0.989695
1.00529 0.997196 0.9881
1.00478 0.998047 0.989948
1.00518 0.999947 0.986171
1.00516 0.996279 0.989589
1.00536 0.99501 0.989854
1.00482 0.995744 0.990808
1.00181 0.998329 0.993458
1.00372 0.998007 0.99078
1.00517 0.994828 0.990996
1.00364 0.994753 0.993197
1.00269 0.994893 0.994271
1.00175 0.997368 0.994491
0.99901 0.994669 0.989503
0.996186 0.994789 0.958168
0.998997 0.994805 0.9963
1.00484 0.995216 0.990091
1.00284 0.995111 0.979073
0.998439 0.994893 0.960365
1.00161 0.994788 0.988778
1.0025 0.994663 0.986108
1.00377 0.99581 0.990546
1.00546 0.994644 0.990867
1.00548 0.99474 0.990861
1.00553 0.994755 0.991188
1.00529 0.994834 0.990651
1.00542 0.994868 0.990412
1.00537 0.994852 0.990748
1.00535 0.994862 0.990447
1.00538 0.994881 0.990511
1.00532 0.994893 0.990785
1.00534 0.994881 0.990517
1.00535 0.994906 0.990688
1.00531 0.994914 0.990922
1.00537 0.994851 0.990661
1.00531 0.994872 0.990888
1.0053 0.995055 0.990929
1.00528 0.994942 0.99085
1.00527 0.995536 0.99044
1.00533 0.998166 0.987873
1.00528 0.996224 0.98969
1.00531 0.998897 0.987173
1.00531 1.00088 0.985195
1.00345 1.00079 0.988223
1.00535 1.00138 0.984562
1.00532 1.00016 0.985672
1.00208 1.0009 0.996167
1.00335 1.00154 0.98763
1.00506 1.00251 0.983743
1.00184 1.00131 0.996146
1.0031 1.00244 0.987089
1.00152 1.00157 0.99625
1.00535 0.997061 0.988346
1.00529 0.999137 0.986508
1.0054 1.00122 0.984684
1.00522 1.00136 0.984642
1.00535 1.00259 0.983382
1.00414 1.00311 0.984739
1.00526 1.00354 0.983053
1.00365 1.00305 0.985628
1.00186 1.00358 0.988166
1.00313 1.00347 0.98652
1.00122 1.00334 0.989423
1.00058 1.00139 0.996977
1.00061 1.00316 0.990594
1.00014 1.00057 0.997536
0.999999 0.999452 0.998144
1.00392 0.995331 0.992
0.999282 0.995272 0.983279
0.996375 0.994868 0.960006
1.00534 0.995137 0.990138
1.00535 0.995545 0.989624
1.00534 0.994922 0.990624
1.00532 0.995753 0.989646
1.00529 0.996916 0.988344
1.00542 0.994834 0.990302
1.0052 0.996389 0.989687
1.00533 0.995262 0.989844
1.00537 0.994748 0.990698
1.00375 0.997475 0.991367
1.00518 0.994827 0.990646
1.00312 0.994673 0.993452
1.00188 0.994994 0.994043
0.999375 0.994617 0.989175
1.00554 0.994763 0.991234
1.00499 0.99515 0.990094
1.00276 0.995121 0.979332
1.0038 0.994797 0.990925
1.00546 0.994656 0.990956
1.00546 0.994745 0.99083
1.00556 0.994776 0.991311
1.00538 0.994837 0.99129
1.00543 0.99486 0.990423
1.00537 0.994859 0.99075
1.00531 0.994889 0.991051
1.00539 0.994878 0.990539
1.00532 0.994895 0.990786
1.00528 0.994929 0.991062
1.00535 0.994907 0.990686
1.0053 0.994915 0.990924
1.00531 0.994913 0.991169
1.00531 0.994872 0.990877
1.0053 0.995065 0.990892
1.00532 0.997235 0.988882
1.00528 0.99551 0.990384
1.00532 0.998189 0.987881
1.00531 1.0004 0.985718
1.00531 0.998761 0.987319
1.00532 1.00085 0.985223
1.00338 1.00056 0.990392
1.00237 0.999992 0.992685
1.00344 1.00083 0.989143
1.00536 1.00136 0.984585
1.002 1.00085 0.99624
1.00335 1.0014 0.987658
1.00185 1.00134 0.996144
1.00529 0.994958 0.990913
1.00531 0.995796 0.98989
1.00534 0.997004 0.988573
1.00531 0.999881 0.986026
1.00529 0.998918 0.986776
1.00537 1.00124 0.984612
1.00494 1.00233 0.984108
1.00537 1.00265 0.983287
1.00442 1.00268 0.984683
1.00285 1.003 0.987025
1.00389 1.00265 0.985643
1.00178 1.00361 0.988166
1.00117 1.00191 0.996369
1.00117 1.00351 0.989455
1.00045 1.00129 0.997126
0.999995 1.00035 0.997719
1.00546 0.994809 0.991061
1.00372 0.995079 0.991541
0.999368 0.995051 0.980926
1.00533 0.994865 0.990655
1.00534 0.995172 0.990072
1.00534 0.995263 0.98984
1.00533 0.995 0.990605
1.00533 0.995866 0.989598
1.00538 0.994844 0.990719
1.0054 0.994827 0.990269
1.0053 0.995397 0.989838
1.00532 0.994743 0.990749
1.00518 0.994979 0.990295
1.00285 0.994558 0.993684
1.00531 0.994851 0.991381
1.00551 0.994763 0.991259
1.00519 0.995034 0.990091
1.00543 0.994746 0.99079
1.00558 0.994784 0.991432
1.00539 0.994845 0.991257
1.00531 0.994903 0.991338
1.00536 0.994868 0.990752
1.00531 0.994893 0.99101
1.00525 0.994932 0.99125
1.00533 0.994898 0.990787
1.00528 0.994929 0.991062
1.00525 0.994932 0.991333
1.0053 0.994915 0.990927
1.00531 0.994912 0.991138
1.00531 0.996426 0.989837
1.00529 0.995074 0.990855
1.00534 0.997265 0.988877
1.0053 1.00001 0.986202
1.00532 0.99821 0.987891
1.00532 1.00038 0.985751
1.00343 1.00038 0.990502
1.00533 1.00082 0.985251
1.00362 1.00042 0.990239
1.00242 0.99968 0.992854
1.00203 1.00033 0.994621
1.00363 1.00085 0.989862
1.00196 1.00077 0.996301
1.00529 0.99488 0.990937
1.00528 0.995609 0.990345
1.00529 0.994946 0.990955
1.00528 0.998617 0.98738
1.00531 0.995793 0.989975
1.00534 0.996997 0.9888
1.00531 0.999845 0.985995
1.00533 1.00135 0.984609
1.00534 1.00128 0.98454
1.00513 1.00214 0.984115
1.00327 1.00182 0.987372
1.00464 1.00253 0.984637
1.00265 1.00313 0.987102
1.00165 1.00181 0.996067
1.00165 1.00355 0.988175
1.00094 1.00164 0.996633
1.00022 1.00116 0.997262
1.00534 0.994878 0.991019
1.00541 0.994817 0.991127
1.00327 0.995002 0.991097
1.00531 0.994893 0.99087
1.00533 0.994859 0.99061
1.00534 0.995182 0.990009
1.00531 0.995121 0.990584
1.0054 0.994851 0.990698
1.00536 0.994822 0.990236
1.00529 0.994745 0.990795
1.0053 0.9949 0.991375
1.00532 0.994855 0.991335
1.00548 0.994772 0.991281
1.00529 0.994922 0.991411
1.00541 0.994852 0.991225
1.00531 0.994903 0.991331
1.00525 0.994937 0.991383
1.00531 0.994895 0.99097
1.00526 0.994932 0.991253
1.00519 0.994961 0.991525
1.00528 0.99493 0.991062
1.00527 0.994932 0.991319
1.00532 0.995853 0.990553
1.00531 0.994912 0.991107
1.00532 0.99645 0.989829
1.00526 0.999694 0.986622
1.00535 0.997297 0.988873
1.0053 0.999987 0.986237
1.00339 1.00035 0.990545
1.00533 1.00036 0.985784
1.00364 1.00028 0.990323
1.00244 0.99968 0.992814
1.00385 1.00028 0.990093
1.00191 0.999845 0.993224
1.00132 1.00071 0.996951
1.00527 0.994918 0.991
1.00531 0.995054 0.990809
1.00529 0.994888 0.990957
1.00531 0.998072 0.987978
1.00528 0.995363 0.990508
1.00528 0.994943 0.991
1.00535 1.0005 0.985482
1.00529 0.998573 0.987364
1.00532 0.995743 0.990062
1.00531 0.999806 0.985965
1.00532 1.00136 0.984583
1.00323 1.00105 0.988283
1.00534 1.00189 0.984112
1.00317 1.00195 0.987379
1.00173 1.00125 0.996263
1.00251 1.00322 0.987152
1.00156 1.00173 0.996133
1.00076 1.00156 0.996853
1.0053 0.994915 0.991177
1.00536 0.994873 0.99095
1.00534 0.994819 0.991199
1.0053 0.994892 0.990884
1.00534 0.994853 0.990565
1.00541 0.994855 0.990676
1.00529 0.994928 0.991399
1.0053 0.994903 0.991389
1.00532 0.99486 0.99129
1.00529 0.99492 0.991422
1.00524 0.994945 0.991536
1.0053 0.994903 0.991324
1.00525 0.99494 0.991413
1.00516 0.994967 0.991601
1.00526 0.994932 0.991256
1.00519 0.994961 0.991524
1.00532 0.995508 0.990927
1.00529 0.994932 0.991305
1.00529 0.995869 0.990555
1.00525 0.999433 0.986911
1.00533 0.99646 0.989821
1.00526 0.999679 0.986655
1.00332 1.00039 0.990586
1.0053 0.999968 0.986273
1.00359 1.00027 0.990358
1.00234 0.999827 0.992779
1.00384 1.00018 0.990151
1.00198 0.99974 0.99321
1.00141 1.00004 0.993581
1.00526 0.994938 0.991202
1.00531 0.99493 0.991116
1.00527 0.994914 0.990978
1.00531 0.996857 0.989224
1.00532 0.995123 0.990791
1.00529 0.994895 0.990976
1.00532 1.00001 0.986117
1.00531 0.997621 0.988371
1.0053 0.995126 0.990671
1.00335 1.00041 0.988762
1.00533 1.00055 0.985449
1.0053 0.998535 0.987348
1.00534 1.00137 0.984557
1.00326 1.00102 0.988253
1.00178 1.00078 0.996431
1.00312 1.00218 0.9874
1.00179 1.00134 0.996172
1.00144 1.00162 0.996309
1.00527 0.99494 0.991363
1.0053 0.994914 0.99114
1.00538 0.994867 0.990881
1.0053 0.994896 0.990899
1.00525 0.994948 0.991507
1.00529 0.994927 0.991405
1.0053 0.994906 0.991402
1.00529 0.994918 0.991433
1.00524 0.994941 0.991533
1.00518 0.994957 0.991625
1.00525 0.994944 0.991443
1.00516 0.994968 0.991614
1.0053 0.995468 0.991066
1.0052 0.994962 0.991523
1.00529 0.995572 0.990927
1.00528 0.999191 0.987113
1.00525 0.995906 0.990557
1.00526 0.999413 0.98692
1.00335 1.00037 0.988894
1.00525 0.999663 0.986687
1.00351 1.00034 0.989529
1.00201 0.999933 0.996389
1.00379 1.0002 0.990171
1.00193 0.999825 0.993177
1.00154 0.999792 0.993588
1.00525 0.994953 0.991333
1.00528 0.994945 0.991276
1.00525 0.99494 0.991227
1.00527 0.996003 0.990373
1.00531 0.994966 0.991066
1.00528 0.99491 0.990957
1.00525 0.999165 0.987147
1.00531 0.996905 0.98922
1.00532 0.995186 0.990774
1.00343 1.0001 0.988964
1.0053 0.999748 0.986355
1.00531 0.997154 0.988762
1.00191 1.00029 0.996513
1.00338 1.00035 0.988737
1.00531 1.00058 0.985413
1.00329 1.00096 0.988227
1.0018 1.0008 0.996383
1.00179 1.00137 0.996064
1.00526 0.994956 0.991404
1.00528 0.994939 0.991352
1.0053 0.994913 0.991103
1.00523 0.994956 0.99159
1.00524 0.994948 0.991489
1.00529 0.994926 0.991411
1.00524 0.994937 0.991531
1.00518 0.994956 0.991619
1.00533 0.996106 0.990365
1.00517 0.994969 0.991626
1.0053 0.995792 0.990694
1.0053 0.998402 0.988043
1.00525 0.995625 0.990927
1.00531 0.999167 0.987107
1.0033 1.00018 0.989158
1.00528 0.999395 0.986933
1.00338 1.00034 0.988896
1.00193 1.00001 0.996392
1.00357 1.00032 0.988644
1.00184 0.999974 0.994843
1.00152 0.99981 0.993573
1.00524 0.994958 0.991409
1.00525 0.994966 0.991426
1.00525 0.994954 0.991339
1.00526 0.995989 0.990472
1.00527 0.994947 0.991304
1.00525 0.994942 0.991252
1.00522 0.998906 0.987495
1.00528 0.996272 0.990006
1.0053 0.994994 0.991017
1.00345 1.00009 0.988966
1.00524 0.999104 0.987193
1.0053 0.996959 0.989215
1.002 0.999973 0.996506
1.00345 1.00008 0.988949
1.00529 0.999487 0.986594
1.00194 1.00032 0.996486
1.00343 1.0003 0.988713
1.00181 1.00087 0.996342
1.00527 0.994965 0.991447
1.00525 0.994955 0.991415
1.00528 0.99494 0.991341
1.00535 0.996152 0.990289
1.00524 0.994954 0.991558
1.00524 0.994948 0.99147
1.00519 0.994954 0.991614
1.00532 0.99608 0.990371
1.00526 0.998294 0.988214
1.0053 0.99611 0.990321
1.00531 0.99867 0.987662
1.00324 1 0.989428
1.00533 0.999141 0.9871
1.00329 1.00019 0.989161
1.00181 1.00002 0.996435
1.0034 1.00031 0.988893
1.00189 1.00003 0.996399
1.00194 0.999969 0.992953
1.00526 0.994979 0.991393
1.00524 0.994955 0.991351
1.00529 0.995899 0.990554
1.00526 0.994965 0.991427
1.00525 0.994954 0.991344
1.00523 0.999337 0.986975
1.00528 0.995916 0.990471
1.00526 0.994951 0.991332
1.00343 1.00017 0.988948
1.00521 0.99918 0.987179
1.00529 0.99656 0.989641
1.00201 0.999899 0.996442
1.00345 1.00011 0.988961
1.00524 0.999043 0.987241
1.00202 1.00001 0.996513
1.00347 1.00007 0.988931
1.00198 1.00034 0.996455
1.00533 0.996256 0.990175
1.00528 0.994968 0.991456
1.00525 0.994955 0.991426
1.00519 0.998355 0.988255
1.00534 0.996149 0.990295
1.00524 0.994955 0.991526
1.00531 0.996061 0.990377
1.00528 0.998245 0.988192
1.00316 0.999894 0.989679
1.00532 0.998945 0.987282
1.00324 1.00001 0.989435
1.00172 1.00001 0.99651
1.00331 1.0002 0.989168
1.00177 1.00005 0.99647
1.00185 1.00004 0.99642
1.00533 0.995866 0.990604
1.00527 0.99498 0.991412
1.00524 0.994953 0.991292
1.00524 0.999181 0.987162
1.0053 0.995855 0.990559
1.00526 0.994962 0.991427
1.00336 1.00019 0.989071
1.00522 0.999363 0.986979
1.0053 0.995837 0.99047
1.00194 0.999949 0.996398
1.00341 1.0002 0.98895
1.0052 0.999449 0.986863
1.00203 0.999914 0.996468
1.00344 1.00013 0.988953
1.00207 1.00002 0.99651
1.00513 0.998954 0.987587
1.00533 0.996004 0.990488
1.00528 0.994981 0.991465
1.00307 0.999859 0.989893
1.0052 0.998302 0.988247
1.00533 0.996134 0.990301
1.0053 0.998186 0.988171
1.00318 0.999866 0.989686
1.00166 1 0.996556
1.00324 1.00001 0.989442
1.0017 1.00002 0.996522
1.00171 1.00007 0.996496
1.0052 0.99903 0.987405
1.00532 0.99583 0.990659
1.00527 0.994968 0.991432
1.00341 1.00009 0.990788
1.00521 0.999196 0.987175
1.0053 0.995799 0.990564
1.00183 1.00001 0.996422
1.00334 1.00022 0.989074
1.00521 0.999389 0.986985
1.00198 0.999944 0.996414
1.0034 1.00023 0.98895
1.00206 0.999916 0.996491
1.00318 0.999835 0.989804
1.00514 0.9987 0.987891
1.00533 0.995754 0.990801
1.00154 0.999991 0.996631
1.00308 0.999823 0.989888
1.00523 0.998262 0.988239
1.00319 0.999838 0.989688
1.00162 0.999993 0.996581
1.00166 1.00004 0.996539
1.00341 0.999946 0.991003
1.00517 0.99906 0.987416
1.00531 0.99582 0.990714
1.00119 1.00004 0.997115
1.00325 1.00011 0.98934
1.0052 0.999207 0.987191
1.00187 0.999999 0.996418
1.00332 1.00025 0.989074
1.00202 0.999936 0.996431
1.00151 0.999947 0.993643
1.00319 0.999862 0.990518
1.00514 0.998433 0.988192
1.00157 0.999981 0.996646
1.00311 0.99979 0.989892
1.00163 0.999983 0.996603
1.00097 1 0.99414
1.00327 0.999942 0.990323
1.00514 0.999096 0.987423
1.00143 1.00002 0.99522
1.00321 1.00012 0.989366
1.00191 0.999987 0.996417
1.00153 0.999978 0.996651
1.00304 0.999871 0.98991
1.00153 0.99997 0.996651
1.00128 0.999981 0.995395
1.00311 0.999964 0.989709
1.00176 1.00001 0.996465
1.00155 0.999987 0.996646
1.00161 0.999998 0.996564

TENSORS stress float
0.00253103 -0.000180707 0.000296943
-0.000180707 0.00130118 -5.42234e-05
0.000296943 -5.42234e-05 0.00127316
0.00782675 0.000143346 0.000360939
0.000143346 0.00471303 4.51029e-05
0.000360939 4.51029e-05 0.00472718
0.00215298 -0.000111146 0.000119164
-0.000111146 0.00105226 -2.0815e-05
0.000119164 -2.0815e-05 0.00101021
0.00239277 -0.000100592 0.000280213
-0.000100592 0.0011915 -3.08415e-05
0.000280213 -3.08415e-05 0.00117489
0.00254478 -0.000158319 0.000290088
-0.000158319 0.00129959 -4.7502e-05
0.000290088 -4.7502e-05 0.00127563
0.00257952 -0.000188477 0.000310114
-0.000188477 0.00133299 -5.67271e-05
0.000310114 -5.67271e-05 0.00130476
0.00207266 -0.000202878 5.97034e-05
-0.000202878 0.000859369 -1.52413e-05
5.97034e-05 -1.52413e-05 0.000718618
0.00795174 0.000135178 -1.07769e-05
0.000135178 0.00478285 -3.07379e-06
-1.07769e-05 -3.07379e-06 0.00480116
0.0071175 0.000266441 0.000178514
0.000266441 0.00426962 2.00239e-05
0.000178514 2.00239e-05 0.0042371
0.00730113 6.24309e-05 0.000116826
6.24309e-05 0.00435115 7.6905e-06
0.000116826 7.6905e-06 0.00433093
0.0019006 0.000256742 0.000331178
0.000256742 0.000910947 4.99197e-05
0.000331178 4.99197e-05 0.000890807
0.000246388 0.000280486 2.60246e-05
0.000280486 -0.000252105 2.22924e-05
2.60246e-05 2.22924e-05 -0.000428663
0.00195782 -3.10456e-05 0.000274277
-3.10456e-05 0.000907476 5.17993e-06
0.000274277 5.17993e-06 0.000912374
0.00171664 6.47856e-06 7.69447e-05
6.47856e-06 0.000777567 3.13006e-06
7.69447e-05 3.13006e-06 0.000725899
0.00185873 -0.000109794 -7.22971e-05
-0.000109794 0.000876009 1.32685e-05
-7.22971e-05 1.32685e-05 0.000811332
0.00204938 -9.87786e-05 9.00676e-05
-9.87786e-05 0.000989584 -5.99638e-06
9.00676e-05 -5.99638e-06 0.000951285
0.00220884 -0.000102606 0.000130857
-0.000102606 0.00109198 -2.3402e-05
0.000130857 -2.3402e-05 0.00104658
0.00214251 -0.000114466 0.000106774
-0.000114466 0.00104271 -1.56729e-05
0.000106774 -1.56729e-05 0.0010029
0.0021947 -0.000239806 -4.59305e-05
-0.000239806 0.00093873 7.69499e-06
-4.59305e-05 7.69499e-06 0.000807528
0.00664534 -0.000167256 0.00036304
-0.000167256 0.00397153 -1.81009e-05
0.00036304 -1.81009e-05 0.0039969
0.00229139 -7.60643e-05 0.0002766
-7.60643e-05 0.00112589 -2.30531e-05
0.0002766 -2.30531e-05 0.00111282
0.00248982 -0.000129379 0.000284727
-0.000129379 0.00125716 -3.92204e-05
0.000284727 -3.92204e-05 0.00123745
0.0020021 -0.00016289 7.54505e-05
-0.00016289 0.000842029 -1.22059e-05
7.54505e-05 -1.22059e-05 0.00073159
0.00208016 -0.000198778 6.74323e-05
-0.000198778 0.000863305 -1.50484e-05
6.74323e-05 -1.50484e-05 0.000735057
0.00249557 -0.00017143 0.000317582
-0.00017143 0.00127289 -5.40984e-05
0.000317582 -5.40984e-05 0.00124777
0.00210672 -0.000208406 5.56643e-05
-0.000208406 0.000895318 -1.57289e-05
5.56643e-05 -1.57289e-05 0.00073708
0.00212554 -0.000426757 1.82396e-05
-0.000426757 0.000593766 -6.42043e-06
1.82396e-05 -6.42043e-06 0.000323866
0.00796666 0.00013212 -0.000386329
0.00013212 0.00478029 -3.77643e-05
-0.000386329 -3.77643e-05 0.00480602
0.00469583 0.000194562 -0.000163533
0.000194562 0.00269573 -2.00513e-05
-0.000163533 -2.00513e-05 0.00267124
0.00475237 0.000128199 -0.000170003
0.000128199 0.00273341 -2.00423e-05
-0.000170003 -2.00423e-05 0.00271154
0.00815915 7.1928e-05 -1.3301e-06
7.1928e-05 0.00491768 -1.56751e-06
-1.3301e-06 -1.56751e-06 0.00493616
0.000255846 0.000265328 -1.39386e-06
0.000265328 -0.000240287 -1.30371e-06
-1.39386e-06 -1.30371e-06 -0.000415398
0.00205828 7.81383e-05 0.000283395
7.81383e-05 0.000971466 2.88314e-05
0.000283395 2.88314e-05 0.000961488
0.00222203 0.000171725 0.000296403
0.000171725 0.00110848 4.52642e-05
0.000296403 4.52642e-05 0.00108505
0.00297175 0.000253697 0.000173851
0.000253697 0.00143369 2.71754e-05
0.000173851 2.71754e-05 0.00133327
0.0073635 -0.000230102 4.83274e-05
-0.000230102 0.0044642 3.63005e-06
4.83274e-05 3.63005e-06 0.0044192
0.00308737 0.000347704 0.000186488
0.000347704 0.00156136 3.50578e-05
0.000186488 3.50578e-05 0.00143459
0.000382424 0.00027274 2.60957e-05
0.00027274 -0.000157893 3.16658e-05
2.60957e-05 3.16658e-05 -0.000339125
0.00116471 0.00041247 2.66485e-05
0.00041247 0.000103372 7.17708e-06
2.66485e-05 7.17708e-06 -0.000208661
0.00580491 -0.000113407 0.000218661
-0.000113407 0.00351377 2.81894e-05
0.000218661 2.81894e-05 0.00350393
0.00659015 9.00103e-05 3.30821e-06
9.00103e-05 0.00391964 -2.13657e-06
3.30821e-06 -2.13657e-06 0.00395421
0.00433574 0.000103006 -0.000137516
0.000103006 0.00246222 -6.66223e-06
-0.000137516 -6.66223e-06 0.00245194
0.00644839 5.72243e-05 0.000352301
5.72243e-05 0.00383103 5.05116e-06
0.000352301 5.05116e-06 0.00386681
0.0016085 9.24895e-05 7.8763e-05
9.24895e-05 0.000712304 5.99595e-06
7.8763e-05 5.99595e-06 0.000665077
0.00044193 1.4201e-05 1.32863e-05
1.4201e-05 -0.000175241 2.41039e-06
1.32863e-05 2.41039e-06 -0.000271109
0.00676446 0.000248262 0.000202974
0.000248262 0.00406535 2.06471e-05
0.000202974 2.06471e-05 0.00403923
0.00294624 9.22496e-05 0.000160654
9.22496e-05 0.00141792 1.18647e-05
0.000160654 1.18647e-05 0.00135378
0.00168797 -9.97539e-05 -9.18114e-05
-9.97539e-05 0.000776835 1.24162e-05
-9.18114e-05 1.24162e-05 0.000716205
0.00174807 -0.000131548 -8.5217e-05
-0.000131548 0.000815824 1.57526e-05
-8.5217e-05 1.57526e-05 0.000748634
0.00195317 -7.19645e-05 -6.04929e-05
-7.19645e-05 0.000928483 1.0896e-05
-6.04929e-05 1.0896e-05 0.000864603
0.00227699 -0.000242313 -0.000159136
-0.000242313 0.000981838 3.05742e-05
-0.000159136 3.05742e-05 0.000864545
0.00417928 -3.78109e-05 -0.000140614
-3.78109e-05 0.00237157 -9.80314e-07
-0.000140614 -9.80314e-07 0.00236174
0.00201009 -7.89317e-05 9.43825e-05
-7.89317e-05 0.000960608 -4.82757e-06
9.43825e-05 -4.82757e-06 0.000926891
0.00230379 -7.71322e-05 0.000135422
-7.71322e-05 0.00114881 -2.18579e-05
0.000135422 -2.18579e-05 0.00110113
0.00209668 -0.000106532 9.64917e-05
-0.000106532 0.00101545 -1.00755e-05
9.64917e-05 -1.00755e-05 0.000976768
0.00208686 -0.000140459 -3.73366e-05
-0.000140459 0.000883197 3.20224e-06
-3.73366e-05 3.20224e-06 0.000787092
0.00221324 -0.000254986 -5.31856e-05
-0.000254986 0.000963407 8.99621e-06
-5.31856e-05 8.99621e-06 0.000816845
0.00216985 -0.00021385 -4.0772e-05
-0.00021385 0.000919655 5.67616e-06
-4.0772e-05 5.67616e-06 0.000801587
0.00223882 -0.000435901 -1.03654e-05
-0.000435901 0.000665708 2.73659e-06
-1.03654e-05 2.73659e-06 0.000396109
0.00643606 -1.36495e-05 0.000348852
-1.36495e-05 0.00382065 -4.36541e-06
0.000348852 -4.36541e-06 0.00385759
0.00221713 -4.9957e-05 0.00027136
-4.9957e-05 0.00108106 -1.59972e-05
0.00027136 -1.59972e-05 0.00107314
0.00251565 -2.38856e-05 5.93947e-05
-2.38856e-05 0.00118012 -7.65875e-07
5.93947e-05 -7.65875e-07 0.00110532
0.00196992 -0.000130984 6.85497e-05
-0.000130984 0.0008262 -8.18426e-06
6.85497e-05 -8.18426e-06 0.000726555
0.00204064 -0.00018139 7.29344e-05
-0.00018139 0.000847827 -1.40772e-05
7.29344e-05 -1.40772e-05 0.000729347
0.00201599 -0.000266363 3.19398e-06
-0.000266363 0.00044309 -1.77017e-06
3.19398e-06 -1.77017e-06 0.000258944
0.00203908 -0.000378364 1.38379e-05
-0.000378364 0.000491783 -4.10473e-06
1.38379e-05 -4.10473e-06 0.000258709
0.00227056 -0.000133423 0.000304662
-0.000133423 0.0011194 -4.72082e-05
0.000304662 -4.72082e-05 0.00109235
0.00208098 -0.000168179 4.79516e-05
-0.000168179 0.000912864 -1.35169e-05
4.79516e-05 -1.35169e-05 0.00074804
0.00209421 -0.000478642 2.2783e-05
-0.000478642 0.00061164 -6.64169e-06
2.2783e-05 -6.64169e-06 0.00030168
0.00201856 -0.00057102 4.56588e-06
-0.00057102 0.00027329 1.6946e-06
4.56588e-06 1.6946e-06 -3.89404e-05
0.00757264 0.000321065 -0.00040264
0.000321065 0.00455776 -5.02931e-05
-0.00040264 -5.02931e-05 0.00456679
0.00803054 3.27513e-05 -0.000342567
3.27513e-05 0.00483871 -3.04017e-05
-0.000342567 -3.04017e-05 0.0048578
0.00766184 0.000195731 -0.000376087
0.000195731 0.00459058 -4.12449e-05
-0.000376087 -4.12449e-05 0.0046127
0.000272662 0.000251879 -2.56876e-05
0.000251879 -0.000223167 -2.13865e-05
-2.56876e-05 -2.13865e-05 -0.000398721
0.00728032 0.000269894 -1.98485e-06
0.000269894 0.00436393 -2.66434e-06
-1.98485e-06 -2.66434e-06 0.00438022
0.00759488 0.000284903 -8.42798e-06
0.000284903 0.00456167 -3.73826e-06
-8.42798e-06 -3.73826e-06 0.00457353
0.000352024 0.000165696 3.52714e-07
0.000165696 -0.00025971 -3.0166e-07
3.52714e-07 -3.0166e-07 -0.000398962
0.00436171 -3.50524e-05 -0.000148745
-3.50524e-05 0.00252498 -9.42612e-06
-0.000148745 -9.42612e-06 0.00249445
0.000292617 0.000244105 1.50617e-06
0.000244105 -0.000240276 -4.2521e-07
1.50617e-06 -4.2521e-07 -0.000406339
0.00200353 0.000290067 7.53374e-05
0.000290067 0.00089321 4.33491e-06
7.53374e-05 4.33491e-06 0.000743508
0.00112704 0.000414573 1.48095e-06
0.000414573 6.82782e-05 3.14355e-07
1.48095e-06 3.14355e-07 -0.000244771
0.00655611 -8.00164e-05 0.000267658
-8.00164e-05 0.00397515 3.31555e-05
0.000267658 3.31555e-05 0.00397099
0.000552074 0.000143597 2.73885e-05
0.000143597 5.83674e-06 1.59988e-05
2.73885e-05 1.59988e-05 -8.9911e-05
0.000447606 0.000129534 1.39712e-05
0.000129534 -0.000208783 1.2034e-05
1.39712e-05 1.2034e-05 -0.000336831
0.000453461 0.000197905 1.84594e-05
0.000197905 -0.00018243 2.03135e-05
1.84594e-05 2.03135e-05 -0.000332515
0.00145878 0.000357395 1.37257e-05
0.000357395 6.12273e-05 5.34346e-06
1.37257e-05 5.34346e-06 -0.00018131
0.00363836 0.000320876 0.000183677
0.000320876 0.00196341 3.03599e-05
0.000183677 3.03599e-05 0.00185372
0.0013376 0.000423286 2.506e-05
0.000423286 0.000119694 7.97263e-06
2.506e-05 7.97263e-06 -0.000177064
0.000772381 0.000368128 2.0845e-05
0.000368128 -4.12297e-05 6.46835e-06
2.0845e-05 6.46835e-06 -0.00035194
0.0017348 0.000643635 9.87633e-06
0.000643635 0.000281195 -3.96909e-06
9.87633e-06 -3.96909e-06 -0.000127934
0.00493916 -0.000149925 0.00015064
-0.000149925 0.00294227 1.54297e-05
0.00015064 1.54297e-05 0.00293011
0.00537935 -0.000161173 1.51057e-05
-0.000161173 0.00323383 2.2587e-06
1.51057e-05 2.2587e-06 0.00321768
0.00706544 7.94135e-05 -0.000371628
7.94135e-05 0.00420788 -2.05678e-05
-0.000371628 -2.05678e-05 0.00424058
0.00669368 8.18272e-05 -0.000363937
8.18272e-05 0.00398149 -1.26416e-05
-0.000363937 -1.26416e-05 0.00401735
0.00653929 8.37934e-05 -1.00565e-10
8.37934e-05 0.00389377 -4.41543e-06
-1.00565e-10 -4.41543e-06 0.00392695
0.00419212 4.39575e-05 -0.000148724
4.39575e-05 0.00236946 -8.55174e-06
-0.000148724 -8.55174e-06 0.00236518
0.00156255 4.31382e-05 7.06073e-05
4.31382e-05 0.000547257 2.20634e-06
7.06073e-05 2.20634e-06 0.00047227
0.00451322 0.000165457 -0.00014066
0.000165457 0.00258284 -8.8964e-06
-0.00014066 -8.8964e-06 0.00256376
0.00164257 0.000106402 7.17787e-05
0.000106402 0.00058029 3.92369e-06
7.17787e-05 3.92369e-06 0.0004909
0.00648541 0.000110945 0.000355549
0.000110945 0.00386733 7.43498e-06
0.000355549 7.43498e-06 0.0038962
0.000315308 1.03202e-05 1.69694e-05
1.03202e-05 -0.000249877 1.30953e-06
1.69694e-05 1.30953e-06 -0.000341439
0.00290756 5.06198e-05 0.000158817
5.06198e-05 0.00140305 8.01862e-06
0.000158817 8.01862e-06 0.00134678
0.00121599 8.50463e-05 6.25564e-06
8.50463e-05 -7.13204e-05 9.31243e-07
6.25564e-06 9.31243e-07 -0.000206846
0.00286187 0.000145423 0.00016543
0.000145423 0.00135663 1.54998e-05
0.00016543 1.54998e-05 0.00128239
0.00134404 0.000177689 3.41514e-06
0.000177689 -3.76215e-05 1.63599e-06
3.41514e-06 1.63599e-06 -0.000198084
0.00198401 3.82441e-05 -0.000274238
3.82441e-05 0.00092015 4.14799e-06
-0.000274238 4.14799e-06 0.00092823
0.00168411 -2.96878e-05 -7.86155e-05
-2.96878e-05 0.000763529 4.23822e-06
-7.86155e-05 4.23822e-06 0.000710382
0.00202332 -3.58148e-05 -5.38867e-05
-3.58148e-05 0.000965388 9.48958e-06
-5.38867e-05 9.48958e-06 0.000900144
0.00168446 -0.000117532 -9.29188e-05
-0.000117532 0.000775835 1.5117e-05
-9.29188e-05 1.5117e-05 0.000712411
0.00219862 -0.000117714 -0.00014552
-0.000117714 0.000942191 1.4793e-05
-0.00014552 1.4793e-05 0.000860501
0.00227527 -0.000199551 -0.000153278
-0.000199551 0.000973925 2.56286e-05
-0.000153278 2.56286e-05 0.000871525
0.00231075 -0.000278521 -0.000167695
-0.000278521 0.00102542 3.32347e-05
-0.000167695 3.32347e-05 0.000890142
0.00235273 -0.000446097 -3.55989e-05
-0.000446097 0.000738351 1.1003e-05
-3.55989e-05 1.1003e-05 0.000468778
0.00654546 -0.000121616 2.41213e-06
-0.000121616 0.00390576 -2.1153e-06
2.41213e-06 -2.1153e-06 0.00393395
0.00190166 1.69236e-05 0.000101187
1.69236e-05 0.000880532 -5.66475e-06
0.000101187 -5.66475e-06 0.000858343
0.00120013 -1.83665e-05 -7.39303e-05
-1.83665e-05 0.000320189 2.86643e-06
-7.39303e-05 2.86643e-06 0.000245418
0.00204317 -9.46413e-05 -4.01087e-05
-9.46413e-05 0.000863643 3.74441e-06
-4.01087e-05 3.74441e-06 0.000776774
0.00550042 -0.000110211 0.000316482
-0.000110211 0.00320455 -2.97421e-05
0.000316482 -2.97421e-05 0.00319956
0.00276333 -0.000256013 -5.08747e-05
-0.000256013 0.00134717 5.91556e-06
-5.08747e-05 5.91556e-06 0.00119835
0.00212906 -0.000177257 -3.76631e-05
-0.000177257 0.000897167 4.13865e-06
-3.76631e-05 4.13865e-06 0.000791252
0.00206628 -0.000266702 -8.94592e-06
-0.000266702 0.000472639 1.90643e-06
-8.94592e-06 1.90643e-06 0.000294303
0.00225878 -0.000495913 -9.15649e-06
-0.000495913 0.000728011 2.69533e-06
-9.15649e-06 2.69533e-06 0.000416005
0.00213777 -0.000383745 -1.02278e-05
-0.000383745 0.000557452 2.90012e-06
-1.02278e-05 2.90012e-06 0.000321344
0.00204448 -0.000573013 9.29375e-07
-0.000573013 0.000292654 -1.77815e-07
9.29375e-07 -1.77815e-07 -1.95348e-05
0.00032517 5.84941e-06 1.7803e-05
5.84941e-06 -0.000246604 1.88039e-07
1.7803e-05 1.88039e-07 -0.000334802
0.00186437 -1.97997e-05 6.03859e-05
-1.97997e-05 0.000750582 -2.73524e-06
6.03859e-05 -2.73524e-06 0.000667499
0.00202348 -9.51016e-05 4.93829e-06
-9.51016e-05 0.000474425 3.67199e-07
4.93829e-06 3.67199e-07 0.000355897
0.0020891 -0.000213384 2.0582e-06
-0.000213384 0.000506324 -5.54965e-07
2.0582e-06 -5.54965e-07 0.000353248
0.00209693 -0.000326714 8.60759e-06
-0.000326714 0.000495806 -2.26153e-06
8.60759e-06 -2.26153e-06 0.000294704
0.00219713 -0.000381888 -5.59178e-07
-0.000381888 0.000221563 8.48706e-08
-5.59178e-07 8.48706e-08 4.57568e-05
0.00755142 2.1922e-05 0.000291468
2.1922e-05 0.00455879 -2.68906e-05
0.000291468 -2.68906e-05 0.00456623
0.00193687 -0.000519993 3.85972e-06
-0.000519993 0.000156638 1.31466e-06
3.85972e-06 1.31466e-06 -0.000111344
0.00014766 -0.000227689 2.04313e-05
-0.000227689 -0.000329522 -2.63731e-05
2.04313e-05 -2.63731e-05 -0.000495433
0.00108999 -0.000432042 2.32311e-05
-0.000432042 5.0094e-05 -7.13232e-06
2.32311e-05 -7.13232e-06 -0.000287872
0.00217463 -0.000640139 5.1747e-06
-0.000640139 0.000442739 2.24576e-06
5.1747e-06 2.24576e-06 7.54708e-05
0.00210432 -0.000636854 2.97419e-06
-0.000636854 0.000228991 4.7291e-06
2.97419e-06 4.7291e-06 -5.67864e-05
0.000394809 -0.000188891 2.37039e-05
-0.000188891 -0.000114272 -2.21831e-05
2.37039e-05 -2.21831e-05 -0.000252185
0.000920135 -0.000185921 -5.60896e-07
-0.000185921 0.000264549 -5.07895e-06
-5.60896e-07 -5.07895e-06 -1.55343e-05
0.00742646 0.000297779 -0.000404914
0.000297779 0.00446334 -4.56991e-05
-0.000404914 -4.56991e-05 0.00447647
0.00766733 0.00027957 -0.000394504
0.00027957 0.00460655 -4.82669e-05
-0.000394504 -4.82669e-05 0.00462217
0.00032046 0.000164935 -1.74565e-05
0.000164935 -0.000281019 -1.48593e-05
-1.74565e-05 -1.48593e-05 -0.000421261
0.00710775 -5.45943e-05 -0.000272757
-5.45943e-05 0.00428937 -2.3278e-05
-0.000272757 -2.3278e-05 0.00429695
-7.27551e-05 0.000216278 -1.97677e-05
0.000216278 -0.000436978 -2.52312e-05
-1.97677e-05 -2.52312e-05 -0.000597684
0.000281475 0.0002318 -2.14078e-05
0.0002318 -0.000246383 -2.09942e-05
-2.14078e-05 -2.09942e-05 -0.000412328
0.00112145 0.000415074 -2.90668e-05
0.000415074 5.7049e-05 -8.56787e-06
-2.90668e-05 -8.56787e-06 -0.000255913
0.00643076 -8.26526e-05 -1.22341e-05
-8.26526e-05 0.0038887 1.70133e-06
-1.22341e-05 1.70133e-06 0.00388738
0.0006621 0.000119729 4.82431e-07
0.000119729 7.94151e-05 4.42243e-07
4.82431e-07 4.42243e-07 -1.45551e-05
0.00172717 0.000177763 7.49541e-05
0.000177763 0.000618797 7.16694e-06
7.49541e-05 7.16694e-06 0.000508328
0.00172954 0.000251236 7.87721e-05
0.000251236 0.000649332 8.93394e-06
7.87721e-05 8.93394e-06 0.000515607
0.00141276 0.00035459 -1.60277e-07
0.00035459 3.78681e-05 -3.42299e-07
-1.60277e-07 -3.42299e-07 -0.000205667
0.00035374 0.000220213 -1.53764e-06
0.000220213 -0.000145105 -6.24718e-08
-1.53764e-06 -6.24718e-08 -0.000288037
0.0012863 0.000419739 7.91429e-07
0.000419739 8.55581e-05 1.03689e-07
7.91429e-07 1.03689e-07 -0.000211558
0.000833523 0.000359238 2.42616e-06
0.000359238 -8.98869e-07 -1.35705e-06
2.42616e-06 -1.35705e-06 -0.000305348
0.00180961 0.000658145 -1.96028e-06
0.000658145 0.000321863 -3.04492e-07
-1.96028e-06 -3.04492e-07 -8.79278e-05
0.000482745 0.000184309 2.08297e-05
0.000184309 -4.97217e-05 2.03799e-05
2.08297e-05 2.03799e-05 -0.000171908
0.000609005 8.09154e-05 1.66436e-05
8.09154e-05 7.34355e-05 1.52591e-05
1.66436e-05 1.52591e-05 -1.28902e-05
0.00116345 0.000329335 2.06757e-06
0.000329335 0.000448866 2.20663e-06
2.06757e-06 2.20663e-06 0.000193369
0.00145126 0.000303044 9.6443e-06
0.000303044 2.16315e-05 3.59215e-06
9.6443e-06 3.59215e-06 -0.000190659
0.00141968 0.000398333 1.92687e-05
0.000398333 8.99276e-05 6.92985e-06
1.92687e-05 6.92985e-06 -0.00018157
0.00216229 0.000550847 5.00953e-06
0.000550847 0.000274726 -8.56956e-07
5.00953e-06 -8.56956e-07 4.89479e-06
0.000440905 0.000284007 1.05887e-05
0.000284007 -0.000138663 7.11184e-06
1.05887e-05 7.11184e-06 -0.000421435
0.00218081 0.000675309 4.77221e-06
0.000675309 0.000451219 -3.1403e-06
4.77221e-06 -3.1403e-06 8.30271e-05
0.00176084 0.000677528 5.60375e-06
0.000677528 0.000461928 -6.20346e-06
5.60375e-06 -6.20346e-06 -2.93305e-06
0.00178087 0.000699438 -8.71344e-06
0.000699438 0.00020409 -8.13193e-06
-8.71344e-06 -8.13193e-06 -0.000195455
0.00433944 -0.000145211 0.000108954
-0.000145211 0.00253899 8.76222e-06
0.000108954 8.76222e-06 0.00252926
0.00477478 -0.00018388 1.86213e-05
-0.00018388 0.0028392 -1.00242e-06
1.86213e-05 -1.00242e-06 0.00281846
0.00525481 -0.000211401 -0.000129839
-0.000211401 0.00315842 -1.15347e-05
-0.000129839 -1.15347e-05 0.00313071
0.00048686 -0.00018816 2.44282e-05
-0.00018816 -3.75634e-05 -1.96948e-05
2.44282e-05 -1.96948e-05 -0.000156793
0.00658713 7.66111e-05 0.00023844
7.66111e-05 0.00397878 -2.50896e-05
0.00023844 -2.50896e-05 0.00397566
0.00725742 0.000241963 -0.000397974
0.000241963 0.00434796 -3.69445e-05
-0.000397974 -3.69445e-05 0.00436922
0.00681036 0.00011062 -0.000366759
0.00011062 0.00405258 -1.78241e-05
-0.000366759 -1.78241e-05 0.00408607
0.000303929 0.000109365 -1.6567e-05
0.000109365 -0.00028207 -7.22722e-06
-1.6567e-05 -7.22722e-06 -0.000392737
0.000275664 4.62464e-05 -1.68453e-05
4.62464e-05 -0.000278122 -3.38224e-06
-1.68453e-05 -3.38224e-06 -0.00037497
0.00647971 -2.81895e-06 -0.000350119
-2.81895e-06 0.00384697 -3.55944e-06
-0.000350119 -3.55944e-06 0.00388391
0.00642198 -2.62272e-06 1.44739e-07
-2.62272e-06 0.00381137 -1.31396e-06
1.44739e-07 -1.31396e-06 0.00384869
0.000285454 1.34695e-06 -2.23957e-07
1.34695e-06 -0.00027188 1.83196e-07
-2.23957e-07 1.83196e-07 -0.000361799
0.0015707 4.90856e-05 7.13603e-05
4.90856e-05 0.000542342 3.5161e-06
7.13603e-05 3.5161e-06 0.000463511
0.00120549 8.87174e-05 3.44599e-08
8.87174e-05 -7.79399e-05 -5.10229e-08
3.44599e-08 -5.10229e-08 -0.000214361
0.000360831 0.000105016 -7.9063e-07
0.000105016 -0.000254347 -3.36934e-07
-7.9063e-07 -3.36934e-07 -0.000373752
0.00129981 0.000178698 -2.06191e-07
0.000178698 -5.79493e-05 1.14951e-09
-2.06191e-07 1.14951e-09 -0.000219911
0.000276045 -3.36852e-05 1.76862e-05
-3.36852e-05 -0.00027846 -2.98608e-07
1.76862e-05 -2.98608e-07 -0.000365376
0.00115952 3.82687e-05 7.51558e-06
3.82687e-05 -9.03341e-05 5.03637e-07
7.51558e-06 5.03637e-07 -0.000219667
0.00128494 0.000134401 4.37746e-06
0.000134401 -4.74887e-05 1.36946e-06
4.37746e-06 1.36946e-06 -0.000193706
0.00212117 0.00014122 2.03434e-06
0.00014122 9.53482e-05 9.70461e-07
2.03434e-06 9.70461e-07 1.95791e-05
0.00137952 0.000236409 5.63166e-06
0.000236409 -3.01601e-05 2.28543e-06
5.63166e-06 2.28543e-06 -0.000213161
0.00211426 0.000304137 2.4578e-06
0.000304137 9.36121e-05 3.55736e-07
2.4578e-06 3.55736e-07 -3.05352e-05
0.00644904 -8.32436e-05 -0.000354063
-8.32436e-05 0.00383794 5.17013e-06
-0.000354063 5.17013e-06 0.00387005
0.0015722 -0.000167977 -7.84527e-05
-0.000167977 0.000714097 1.00678e-05
-7.84527e-05 1.00678e-05 0.000653395
-0.000235468 -1.00922e-05 -9.48691e-06
-1.00922e-05 -0.00059926 8.59305e-07
-9.48691e-06 8.59305e-07 -0.000703377
0.00215032 -8.45914e-05 -0.000143191
-8.45914e-05 0.000924771 1.04182e-05
-0.000143191 1.04182e-05 0.000850008
0.00832483 0.000186002 -7.15682e-05
0.000186002 0.00502077 3.45691e-06
-7.15682e-05 3.45691e-06 0.00497979
0.00310858 -0.000319974 -0.000171157
-0.000319974 0.00157596 3.34224e-05
-0.000171157 3.34224e-05 0.00143692
0.00224186 -0.000157373 -0.000148646
-0.000157373 0.000955685 1.99287e-05
-0.000148646 1.99287e-05 0.000864926
0.00209885 -0.000266173 -2.35214e-05
-0.000266173 0.000490369 4.5257e-06
-2.35214e-05 4.5257e-06 0.000317994
0.00221139 -0.000387601 -3.07876e-05
-0.000387601 0.000605408 9.5801e-06
-3.07876e-05 9.5801e-06 0.000366629
0.00235984 -0.000506551 -3.97439e-05
-0.000506551 0.000802976 1.17858e-05
-3.97439e-05 1.17858e-05 0.000490563
0.00205633 -0.0005731 -3.04344e-06
-0.0005731 0.000304466 -1.96597e-06
-3.04344e-06 -1.96597e-06 -7.25778e-06
0.000280166 1.55095e-06 5.92713e-08
1.55095e-06 -0.000273876 3.95465e-07
5.92713e-08 3.95465e-07 -0.000362903
0.00198939 -0.000100993 -3.86869e-05
-0.000100993 0.000840778 6.85875e-07
-3.86869e-05 6.85875e-07 0.000759345
0.00168661 -9.14866e-05 -1.37014e-05
-9.14866e-05 0.000254477 8.40513e-07
-1.37014e-05 8.40513e-07 0.00013235
0.00199841 -0.000208401 -1.23334e-05
-0.000208401 0.000440532 2.09494e-06
-1.23334e-05 2.09494e-06 0.000283031
0.00781757 1.56277e-05 4.32756e-06
1.56277e-05 0.00472851 4.36276e-08
4.32756e-06 4.36276e-08 0.00473555
0.00170434 -0.000236241 1.00207e-05
-0.000236241 0.000688194 -2.45186e-07
1.00207e-05 -2.45186e-07 0.00051683
0.00166371 -0.000461187 -6.54935e-07
-0.000461187 0.000422811 -1.37657e-06
-6.54935e-07 -1.37657e-06 8.93226e-05
0.0021497 -0.000333081 -1.02471e-05
-0.000333081 0.000527988 2.83362e-06
-1.02471e-05 2.83362e-06 0.000325032
0.00217975 -0.000386995 1.70996e-06
-0.000386995 0.000199165 -1.05652e-06
1.70996e-06 -1.05652e-06 2.99292e-05
0.00213447 -0.000637231 1.8094e-06
-0.000637231 0.000414575 4.46141e-08
1.8094e-06 4.46141e-08 4.91444e-05
0.00205124 -0.000522639 1.71271e-07
-0.000522639 0.000237612 -1.06814e-07
1.71271e-07 -1.06814e-07 -3.15984e-05
0.00216733 -0.000641505 8.26488e-07
-0.000641505 0.000274989 2.70259e-07
8.26488e-07 2.70259e-07 -1.20682e-05
0.000390505 -0.000210553 1.91914e-06
-0.000210553 -0.000126351 2.6258e-07
1.91914e-06 2.6258e-07 -0.000261859
0.000879695 -0.00024695 -7.04676e-07
-0.00024695 0.000235774 3.36475e-07
-7.04676e-07 3.36475e-07 -4.71171e-05
0.00116062 -4.53962e-05 9.10849e-06
-4.53962e-05 -7.58018e-05 9.99855e-08
9.10849e-06 9.99855e-08 -0.000206296
0.00208526 -0.000151014 1.84077e-06
-0.000151014 0.000514292 -1.03792e-08
1.84077e-06 -1.03792e-08 0.000382049
0.00193451 -0.0001545 1.76812e-06
-0.0001545 -1.20849e-05 -5.27321e-07
1.76812e-06 -5.27321e-07 -0.000107751
0.00222721 -0.000316034 -8.50138e-07
-0.000316034 0.000200721 1.1288e-06
-8.50138e-07 1.1288e-06 7.90207e-05
0.00192617 -0.000457419 -1.41914e-06
-0.000457419 8.7308e-05 1.11169e-06
-1.41914e-06 1.11169e-06 -0.000132737
0.00235419 -0.00043463 4.91222e-06
-0.00043463 0.000229083 -1.28005e-06
4.91222e-06 -1.28005e-06 0.000101202
0.000151704 -0.000214781 2.07041e-05
-0.000214781 -0.000297306 -2.54387e-05
2.07041e-05 -2.54387e-05 -0.000452656
0.00212715 -0.000579202 1.59159e-06
-0.000579202 0.000191787 2.96464e-06
1.59159e-06 2.96464e-06 -3.81197e-05
0.00133726 -0.000386838 1.68758e-05
-0.000386838 0.000313101 -8.05058e-06
1.68758e-05 -8.05058e-06 -5.84547e-06
0.00181285 -0.000703275 1.40933e-05
-0.000703275 0.000296528 2.50113e-06
1.40933e-05 2.50113e-06 -0.000146706
0.0024338 -0.000718327 2.67691e-06
-0.000718327 0.00050777 4.08235e-06
2.67691e-06 4.08235e-06 0.000149905
0.00240215 -0.000677738 -1.1513e-06
-0.000677738 0.000393235 5.06579e-06
-1.1513e-06 5.06579e-06 0.000129862
0.000751612 -0.000246986 4.74616e-06
-0.000246986 0.000130539 -1.2121e-06
4.74616e-06 -1.2121e-06 -0.000169931
0.00149867 -0.000248882 6.71339e-06
-0.000248882 0.000623297 -5.58544e-06
6.71339e-06 -5.58544e-06 0.000382045
0.00168616 -0.000397404 3.59578e-07
-0.000397404 0.00077337 -4.14166e-07
3.59578e-07 -4.14166e-07 0.000403342
0.000336421 0.000138165 -1.63035e-05
0.000138165 -0.000277719 -1.15502e-05
-1.63035e-05 -1.15502e-05 -0.000408705
0.00584597 -0.000117235 -0.000205672
-0.000117235 0.00351377 -1.6643e-05
-0.000205672 -1.6643e-05 0.00350992
0.000399899 0.000104669 -1.98014e-05
0.000104669 -8.5447e-05 -1.53207e-05
-1.98014e-05 -1.53207e-05 -0.000174139
0.000279033 0.000196844 -1.90759e-05
0.000196844 -0.000285558 -1.8316e-05
-1.90759e-05 -1.8316e-05 -0.00043729
0.00136421 0.000352259 -1.52791e-05
0.000352259 1.16912e-05 -5.87632e-06
-1.52791e-05 -5.87632e-06 -0.00023298
0.000211043 0.000214503 -2.30889e-05
0.000214503 -0.000246458 -2.42095e-05
-2.30889e-05 -2.42095e-05 -0.000386028
0.00096557 0.000364683 -1.94712e-05
0.000364683 8.13126e-05 -1.06689e-05
-1.94712e-05 -1.06689e-05 -0.000220917
0.00125241 0.000417032 -2.61798e-05
0.000417032 6.40988e-05 -8.30004e-06
-2.61798e-05 -8.30004e-06 -0.000233422
0.00191099 0.000679989 -1.10056e-05
0.000679989 0.000372318 3.64841e-06
-1.10056e-05 3.64841e-06 -4.05457e-05
0.000412618 0.000185994 -4.69842e-06
0.000185994 -0.000100089 1.65056e-06
-4.69842e-06 1.65056e-06 -0.00021426
0.000380998 5.46379e-05 1.04066e-06
5.46379e-05 -6.45568e-05 5.03604e-07
1.04066e-06 5.03604e-07 -0.000149136
0.000923591 0.000253291 6.26897e-07
0.000253291 0.000255232 1.00351e-06
6.26897e-07 1.00351e-06 3.16082e-05
0.00142502 0.000301723 -2.49966e-07
0.000301723 1.32176e-05 -3.69989e-07
-2.49966e-07 -3.69989e-07 -0.000200203
0.00138168 0.000394094 1.77248e-07
0.000394094 7.12717e-05 -3.22597e-07
1.77248e-07 -3.22597e-07 -0.000200414
0.00214954 0.000549735 -4.71437e-07
0.000549735 0.000264379 -1.93967e-07
-4.71437e-07 -1.93967e-07 -5.26822e-06
0.000600412 0.000276516 -5.4387e-07
0.000276516 -4.15533e-05 6.4284e-07
-5.4387e-07 6.4284e-07 -0.000313878
0.00218783 0.000671082 -1.09304e-06
0.000671082 0.00045662 -4.71799e-07
-1.09304e-06 -4.71799e-07 8.82571e-05
0.0017952 0.000694183 -8.83813e-07
0.000694183 0.00045269 -2.21781e-06
-8.83813e-07 -2.21781e-06 -1.92863e-05
0.00174168 0.000707521 -1.40078e-06
0.000707521 0.000155237 3.07291e-06
-1.40078e-06 3.07291e-06 -0.000242158
0.000446421 3.19881e-05 7.04877e-06
3.19881e-05 -1.10185e-05 1.42599e-05
7.04877e-06 1.42599e-05 -8.60652e-05
0.00150131 0.000303091 5.94633e-06
0.000303091 0.000623819 2.01601e-06
5.94633e-06 2.01601e-06 0.000353825
0.00082418 0.000166099 4.78546e-06
0.000166099 0.000220294 9.0047e-07
4.78546e-06 9.0047e-07 8.73247e-06
-0.000293592 0.000111996 -4.51527e-06
0.000111996 -0.000483518 4.50505e-06
-4.51527e-06 4.50505e-06 -0.000766315
0.00224093 0.000483445 2.55951e-06
0.000483445 0.00026025 -1.96721e-06
2.55951e-06 -1.96721e-06 4.13825e-05
0.00213254 0.000613854 5.01268e-06
0.000613854 0.000335481 -1.46905e-06
5.01268e-06 -1.46905e-06 1.29907e-05
0.00223636 0.000612489 1.33965e-06
0.000612489 0.000240672 -1.49231e-06
1.33965e-06 -1.49231e-06 -9.73967e-06
0.00133058 0.000549356 -3.68955e-06
0.000549356 0.000288093 -4.82464e-06
-3.68955e-06 -4.82464e-06 -0.000135154
0.00252804 0.000776046 -6.28892e-06
0.000776046 0.000581295 -4.27981e-06
-6.28892e-06 -4.27981e-06 0.000222015
0.00224402 0.000847071 -1.38453e-05
0.000847071 0.000623642 -1.45549e-05
-1.38453e-05 -1.45549e-05 0.000103111
0.0021168 0.000745841 -5.22753e-06
0.000745841 0.000278528 -4.48207e-06
-5.22753e-06 -4.48207e-06 -9.5095e-05
0.000711887 9.29779e-05 2.98809e-07
9.29779e-05 0.000205885 6.7879e-06
2.98809e-07 6.7879e-06 9.18447e-05
0.000514847 1.84626e-05 3.37692e-06
1.84626e-05 3.27387e-05 1.15465e-05
3.37692e-06 1.15465e-05 -1.5381e-05
0.00372668 -0.000129976 7.48793e-05
-0.000129976 0.00213052 6.54143e-06
7.48793e-05 6.54143e-06 0.00212438
0.00415352 -0.0001728 1.38979e-05
-0.0001728 0.00242591 -1.39834e-06
1.38979e-05 -1.39834e-06 0.00240808
0.00457641 -0.000222339 -8.03357e-05
-0.000222339 0.0027235 -9.2788e-06
-8.03357e-05 -9.2788e-06 0.00269058
0.000578691 -0.000209505 3.13151e-05
-0.000209505 3.56512e-05 -1.91269e-05
3.13151e-05 -1.91269e-05 -6.86989e-05
0.00611088 0.000110771 0.00020557
0.000110771 0.00368937 -2.33785e-05
0.00020557 -2.33785e-05 0.00368017
0.000535652 -0.000200878 2.93598e-06
-0.000200878 -1.58089e-05 8.58444e-07
2.93598e-06 8.58444e-07 -0.000137168
0.00699292 5.34866e-05 5.97881e-06
5.34866e-05 0.00423279 1.29041e-07
5.97881e-06 1.29041e-07 0.00423241
0.000335611 0.00012989 -1.68635e-05
0.00012989 -0.000270882 -9.40454e-06
-1.68635e-05 -9.40454e-06 -0.000393536
0.000287786 4.02703e-05 -1.53302e-05
4.02703e-05 -0.000283082 -4.23836e-06
-1.53302e-05 -4.23836e-06 -0.000383957
0.00126997 0.000179733 -4.15828e-06
0.000179733 -7.32997e-05 -1.62612e-06
-4.15828e-06 -1.62612e-06 -0.000236682
0.00119897 9.18342e-05 -6.30396e-06
9.18342e-05 -8.32445e-05 -9.28561e-07
-6.30396e-06 -9.28561e-07 -0.000220429
0.000331032 -6.71712e-06 -1.74165e-05
-6.71712e-06 -0.000245752 -1.24169e-06
-1.74165e-05 -1.24169e-06 -0.000334187
0.00651523 -0.000105304 -0.000361281
-0.000105304 0.00388463 6.62313e-06
-0.000361281 6.62313e-06 0.0039154
0.000323607 -3.70857e-06 2.71203e-08
-3.70857e-06 -0.000248987 -6.94e-07
2.71203e-08 -6.94e-07 -0.0003357
0.00116393 4.34152e-05 1.5435e-08
4.34152e-05 -8.85238e-05 3.59411e-08
1.5435e-08 3.59411e-08 -0.00021829
0.00125772 0.000134659 -1.31866e-07
0.000134659 -6.47513e-05 -2.49476e-09
-1.31866e-07 -2.49476e-09 -0.000211867
0.0020924 0.000139133 -4.33943e-08
0.000139133 7.85202e-05 2.4057e-07
-4.33943e-08 2.4057e-07 2.55603e-06
0.00138021 0.000237567 -3.85871e-07
0.000237567 -2.29834e-05 -1.58061e-07
-3.85871e-07 -1.58061e-07 -0.000207439
0.00212279 0.000303391 -6.07252e-07
0.000303391 0.000103944 3.55246e-07
-6.07252e-07 3.55246e-07 -2.04434e-05
0.00113144 -5.64626e-06 8.58827e-06
-5.64626e-06 -9.73742e-05 1.74073e-07
8.58827e-06 1.74073e-07 -0.000225578
0.00212201 6.60972e-05 2.79333e-06
6.60972e-05 0.00010295 7.18128e-07
2.79333e-06 7.18128e-07 3.34499e-05
0.00208727 0.00022095 1.47642e-06
0.00022095 7.17388e-05 7.87606e-07
1.47642e-06 7.87606e-07 -2.15262e-05
0.0022072 0.000160692 6.24107e-06
0.000160692 6.01415e-05 1.6889e-06
6.24107e-06 1.6889e-06 3.78396e-05
0.00222321 0.000396105 3.62389e-06
0.000396105 0.000189988 -7.24078e-07
3.62389e-06 -7.24078e-07 2.21707e-05
0.00225258 0.000332382 5.65881e-06
0.000332382 9.02345e-05 1.05556e-06
5.65881e-06 1.05556e-06 2.31511e-05
0.000323182 -5.52045e-06 -1.69195e-05
-5.52045e-06 -0.000243218 5.07358e-08
-1.69195e-05 5.07358e-08 -0.000334441
0.00209546 -5.6519e-05 -0.000141395
-5.6519e-05 0.000897454 6.86332e-06
-0.000141395 6.86332e-06 0.000829644
0.00132263 -8.71789e-05 -1.70403e-05
-8.71789e-05 1.57772e-05 1.14101e-06
-1.70403e-05 1.14101e-06 -0.000110311
0.00190077 -0.000203899 -2.09038e-05
-0.000203899 0.000369552 3.54433e-06
-2.09038e-05 3.54433e-06 0.000207578
0.00819411 -1.43811e-05 -0.000345515
-1.43811e-05 0.00496137 3.80394e-05
-0.000345515 3.80394e-05 0.00497085
0.00372597 -0.00034078 -0.000198158
-0.00034078 0.00198429 3.2376e-05
-0.000198158 3.2376e-05 0.00184967
0.00189798 -0.000491067 -3.26158e-05
-0.000491067 0.000597531 9.34735e-06
-3.26158e-05 9.34735e-06 0.000261426
0.00218643 -0.000338372 -2.85373e-05
-0.000338372 0.000549151 7.46272e-06
-2.85373e-05 7.46272e-06 0.000344582
0.00217073 -0.000392405 -1.30021e-06
-0.000392405 0.000182302 -1.57934e-06
-1.30021e-06 -1.57934e-06 1.9743e-05
0.00216558 -0.000525249 -1.88706e-06
-0.000525249 0.000320054 -7.9723e-07
-1.88706e-06 -7.9723e-07 4.95972e-05
0.00215209 -0.000639923 -3.92209e-06
-0.000639923 0.000421293 -2.941e-06
-3.92209e-06 -2.941e-06 5.6612e-05
0.00224021 -0.000647699 -1.67805e-06
-0.000647699 0.000325608 -3.92409e-06
-1.67805e-06 -3.92409e-06 3.69099e-05
0.000472991 -0.000225192 -2.36538e-05
-0.000225192 -7.56412e-05 2.25416e-05
-2.36538e-05 2.25416e-05 -0.000214264
0.000226678 -0.00021696 -2.06874e-06
-0.00021696 -0.000163684 3.57858e-06
-2.06874e-06 3.57858e-06 -0.00045582
0.00121956 -4.15298e-05 4.17078e-07
-4.15298e-05 -3.85818e-05 -4.33905e-08
4.17078e-07 -4.33905e-08 -0.000163186
0.00205607 -0.000150801 -1.18069e-05
-0.000150801 0.000490952 1.47204e-06
-1.18069e-05 1.47204e-06 0.000359068
0.00197328 -0.000151248 2.2255e-06
-0.000151248 1.16983e-05 -3.24848e-07
2.2255e-06 -3.24848e-07 -7.89299e-05
0.00206169 -0.000310788 -1.92733e-06
-0.000310788 8.96864e-05 8.08122e-07
-1.92733e-06 8.08122e-07 -4.34814e-05
0.000362794 -0.000240834 9.40678e-07
-0.000240834 -0.000159888 6.47376e-07
9.40678e-07 6.47376e-07 -0.000318615
0.000722024 -0.000366122 -3.33697e-06
-0.000366122 -6.65554e-05 -1.3317e-07
-3.33697e-06 -1.3317e-07 -0.000390728
0.00185873 -0.000706047 8.82733e-07
-0.000706047 0.000326953 4.95198e-07
8.82733e-07 4.95198e-07 -0.000119435
0.00204138 -0.000461157 -2.0717e-06
-0.000461157 0.000170604 5.46235e-07
-2.0717e-06 5.46235e-07 -5.24784e-05
0.00227186 -0.000433601 1.40004e-06
-0.000433601 0.000163493 -6.36566e-07
1.40004e-06 -6.36566e-07 4.29854e-05
0.00248775 -0.000725205 2.23018e-07
-0.000725205 0.00054125 -1.12081e-06
2.23018e-07 -1.12081e-06 0.000186169
0.00216313 -0.000582414 4.14554e-07
-0.000582414 0.0002131 3.55127e-07
4.14554e-07 3.55127e-07 -1.77e-05
0.00223709 -0.000670596 3.30487e-07
-0.000670596 0.00027933 9.47163e-07
3.30487e-07 9.47163e-07 1.43188e-05
0.000697027 -0.000250059 2.22689e-07
-0.000250059 9.65169e-05 -8.90615e-07
2.22689e-07 -8.90615e-07 -0.000206376
0.000295636 -0.000231369 -6.66401e-07
-0.000231369 -0.000154724 -1.62867e-06
-6.66401e-07 -1.62867e-06 -0.000488727
0.000519456 -0.000212409 4.65194e-06
-0.000212409 4.88972e-05 1.83484e-06
4.65194e-06 1.83484e-06 -0.000212943
0.00191362 -7.46846e-05 3.11512e-06
-7.46846e-05 -2.30215e-05 -2.22315e-07
3.11512e-06 -2.22315e-07 -0.000108384
0.00204763 -0.000228572 -1.16306e-06
-0.000228572 5.56526e-05 -3.7665e-07
-1.16306e-06 -3.7665e-07 -4.86286e-05
0.00212974 -0.000156234 7.50985e-06
-0.000156234 2.10499e-05 -1.24408e-06
7.50985e-06 -1.24408e-06 -1.41276e-05
0.00227386 -0.000354054 3.51298e-06
-0.000354054 0.000109954 -1.02767e-06
3.51298e-06 -1.02767e-06 3.76654e-05
0.0020615 -0.000517257 3.20841e-07
-0.000517257 8.68048e-05 1.58096e-06
3.20841e-07 1.58096e-06 -8.7396e-05
0.00231539 -0.000454771 2.31024e-06
-0.000454771 0.000123783 -4.62251e-07
2.31024e-06 -4.62251e-07 5.21282e-05
0.00067508 -0.000282064 1.03604e-05
-0.000282064 7.72977e-06 -5.50306e-06
1.03604e-05 -5.50306e-06 -0.000282344
0.00221815 -0.000626072 5.0181e-07
-0.000626072 0.000184996 1.32042e-06
5.0181e-07 1.32042e-06 -1.49607e-05
0.00168548 -0.000704086 8.3737e-06
-0.000704086 0.000382821 -1.00134e-07
8.3737e-06 -1.00134e-07 -0.000105835
0.00218306 -0.000837368 1.24008e-05
-0.000837368 0.00042389 5.91644e-06
1.24008e-05 5.91644e-06 -4.45968e-05
0.00253606 -0.000742789 3.12667e-06
-0.000742789 0.000546632 5.34567e-06
3.12667e-06 5.34567e-06 0.000212254
0.00247786 -0.000715819 -1.95655e-07
-0.000715819 0.000427024 1.55287e-06
-1.95655e-07 1.55287e-06 0.000173553
0.000652996 -0.000160575 -1.55119e-06
-0.000160575 0.000197107 -6.00013e-06
-1.55119e-06 -6.00013e-06 -7.50483e-05
0.001894 -0.000456352 -2.34735e-06
-0.000456352 0.000751156 -1.88056e-06
-2.34735e-06 -1.88056e-06 0.000382407
-0.000998115 -8.5073e-05 6.61351e-06
-8.5073e-05 -0.000867346 -1.3786e-06
6.61351e-06 -1.3786e-06 -0.00118505
0.00209707 -0.000567845 1.09343e-05
-0.000567845 0.000979247 4.06883e-06
1.09343e-05 4.06883e-06 0.000532043
0.00139716 0.000300566 -1.12484e-05
0.000300566 3.24152e-06 -4.23821e-06
-1.12484e-05 -4.23821e-06 -0.000211329
0.000355199 3.3356e-05 -6.85628e-06
3.3356e-05 -7.36142e-05 -1.66097e-05
-6.85628e-06 -1.66097e-05 -0.000158517
0.000401442 0.000143348 -2.34717e-05
0.000143348 -9.46257e-05 -1.76302e-05
-2.34717e-05 -1.76302e-05 -0.000208357
3.53861e-05 0.000177001 -6.26673e-06
0.000177001 -0.000293232 2.18896e-06
-6.26673e-06 2.18896e-06 -0.000517131
0.00132926 0.000389507 -2.04113e-05
0.000389507 4.22281e-05 -7.49446e-06
-2.04113e-05 -7.49446e-06 -0.000229737
0.00213486 0.000548171 -4.95892e-06
0.000548171 0.000253404 9.03805e-07
-4.95892e-06 9.03805e-07 -1.59304e-05
0.000457646 0.00023574 -1.01218e-05
0.00023574 -0.000137332 -4.27e-06
-1.01218e-05 -4.27e-06 -0.000389967
0.00166452 0.000680641 -8.98518e-06
0.000680641 0.0003522 1.92229e-06
-8.98518e-06 1.92229e-06 -0.000116525
0.00220433 0.000667553 -4.44504e-06
0.000667553 0.000467485 2.79376e-06
-4.44504e-06 2.79376e-06 9.88596e-05
0.0016842 0.000707679 8.88036e-06
0.000707679 0.000106772 1.3162e-05
8.88036e-06 1.3162e-05 -0.000285604
0.000382804 1.5103e-05 -3.62027e-06
1.5103e-05 -4.60561e-05 7.80861e-07
-3.62027e-06 7.80861e-07 -0.000119317
0.000591168 0.00023559 -3.6023e-08
0.00023559 6.76393e-05 -1.35113e-06
-3.6023e-08 -1.35113e-06 -0.000202069
0.000474115 0.000140346 3.0436e-06
0.000140346 1.95388e-06 -1.5538e-06
3.0436e-06 -1.5538e-06 -0.000210604
0.000546653 0.000191572 -2.56996e-06
0.000191572 4.81983e-05 4.08132e-06
-2.56996e-06 4.08132e-06 -0.000246849
0.00217998 0.000478716 -1.86569e-06
0.000478716 0.000218929 -1.38244e-06
-1.86569e-06 -1.38244e-06 7.94386e-07
0.00210378 0.000612228 -7.01994e-07
0.000612228 0.000315579 -3.16959e-07
-7.01994e-07 -3.16959e-07 -7.04742e-06
0.00223066 0.000609692 2.16631e-08
0.000609692 0.00024246 1.53682e-07
2.16631e-08 1.53682e-07 -6.83493e-06
0.00165128 0.000573373 2.75688e-06
0.000573373 0.000510274 -7.96809e-08
2.75688e-06 -7.96809e-08 8.3561e-05
0.00243368 0.00075994 1.30237e-06
0.00075994 0.000532312 9.03565e-07
1.30237e-06 9.03565e-07 0.000172708
0.00197322 0.000806423 -1.10296e-06
0.000806423 0.000465128 -2.08162e-06
-1.10296e-06 -2.08162e-06 -4.50557e-05
0.00219054 0.000732284 -6.86281e-06
0.000732284 0.000337897 2.9077e-06
-6.86281e-06 2.9077e-06 -2.22262e-05
0.000566526 1.76729e-05 5.41554e-06
1.76729e-05 6.13417e-05 1.28857e-05
5.41554e-06 1.28857e-05 5.20527e-06
0.00126458 0.000114032 1.19803e-07
0.000114032 0.000544732 9.34124e-06
1.19803e-07 9.34124e-06 0.000347212
0.000719995 0.00038198 -7.07185e-06
0.00038198 8.2873e-05 -4.15085e-07
-7.07185e-06 -4.15085e-07 -0.000255736
0.0017131 0.000199405 4.17654e-06
0.000199405 0.000807553 -4.21895e-06
4.17654e-06 -4.21895e-06 0.000506599
0.00102073 0.000140985 -2.3767e-06
0.000140985 0.000222976 1.17311e-05
-2.3767e-06 1.17311e-05 -2.88145e-05
0.00216111 0.000522961 9.18525e-07
0.000522961 0.00011884 -2.14952e-06
9.18525e-07 -2.14952e-06 -7.04593e-05
0.00226233 0.000697263 -1.29429e-06
0.000697263 0.000333094 -2.5858e-06
-1.29429e-06 -2.5858e-06 2.2838e-05
0.00221027 0.000662351 -3.47064e-06
0.000662351 0.000204281 -1.01307e-06
-3.47064e-06 -1.01307e-06 -4.56315e-05
0.00179708 0.000808575 -3.82111e-06
0.000808575 0.00058332 -8.70385e-06
-3.82111e-06 -8.70385e-06 1.90969e-05
0.00261217 0.00082232 -6.81103e-06
0.00082232 0.000566555 -4.0179e-06
-6.81103e-06 -4.0179e-06 0.000211361
0.00188483 0.000849533 3.85694e-06
0.000849533 0.000325802 -7.81422e-06
3.85694e-06 -7.81422e-06 -0.000166169
0.0005854 9.10533e-05 -2.52976e-07
9.10533e-05 0.000113511 7.79161e-06
-2.52976e-07 7.79161e-06 -1.31722e-05
0.000794751 0.000139912 -4.14362e-06
0.000139912 0.000340454 3.97217e-06
-4.14362e-06 3.97217e-06 0.000142616
0.000571551 7.29681e-05 -5.3079e-07
7.29681e-05 0.000108507 5.94178e-06
-5.3079e-07 5.94178e-06 1.36643e-05
0.000461518 2.93715e-05 -1.15896e-06
2.93715e-05 4.03647e-05 1.93045e-07
-1.15896e-06 1.93045e-07 -6.78209e-05
0.0015479 -1.16655e-05 2.19255e-06
-1.16655e-05 0.000703425 6.52362e-06
2.19255e-06 6.52362e-06 0.000667817
0.000978945 2.77508e-06 -1.87982e-07
2.77508e-06 0.000334794 -6.65829e-08
-1.87982e-07 -6.65829e-08 0.000289774
0.000946166 -3.27567e-05 5.85564e-05
-3.27567e-05 0.000310295 1.31452e-05
5.85564e-05 1.31452e-05 0.000303971
0.00368674 -0.00014092 1.2183e-05
-0.00014092 0.00210754 -1.15257e-06
1.2183e-05 -1.15257e-06 0.0020984
0.0040145 -0.000178497 -6.95221e-05
-0.000178497 0.00233789 -7.1001e-06
-6.95221e-05 -7.1001e-06 0.00231827
0.000291391 -0.000122288 1.74369e-05
-0.000122288 -0.000101412 -1.5894e-05
1.74369e-05 -1.5894e-05 -0.000190542
0.00550945 0.00017118 0.000142417
0.00017118 0.0033263 -1.82273e-05
0.000142417 -1.82273e-05 0.00330131
0.000491826 -0.000175291 2.20897e-06
-0.000175291 -7.64796e-06 1.12637e-06
2.20897e-06 1.12637e-06 -0.000120777
0.00624278 0.000104624 7.50181e-07
0.000104624 0.003781 1.07211e-06
7.50181e-07 1.07211e-06 0.00376903
0.000409378 -0.000205289 -2.55997e-05
-0.000205289 -9.74653e-05 2.10546e-05
-2.55997e-05 2.10546e-05 -0.000220695
0.00723129 5.12965e-05 -0.000285441
5.12965e-05 0.00438681 3.3788e-05
-0.000285441 3.3788e-05 0.00438589
0.00137057 0.000237748 -7.36547e-06
0.000237748 -2.07808e-05 -2.6218e-06
-7.36547e-06 -2.6218e-06 -0.000206501
0.00121506 0.000135908 -4.62548e-06
0.000135908 -8.91345e-05 -1.25391e-06
-4.62548e-06 -1.25391e-06 -0.000237426
0.00217053 0.000300551 -2.76385e-06
0.000300551 0.000141817 8.03766e-07
-2.76385e-06 8.03766e-07 1.80501e-05
0.00205946 0.000137041 -2.33488e-06
0.000137041 5.99498e-05 -4.7635e-07
-2.33488e-06 -4.7635e-07 -1.62393e-05
0.00116836 4.84546e-05 -7.47702e-06
4.84546e-05 -8.59145e-05 -4.67453e-07
-7.47702e-06 -4.67453e-07 -0.000216113
0.000294862 2.84537e-05 -1.7699e-05
2.84537e-05 -0.000270308 -1.25309e-06
-1.7699e-05 -1.25309e-06 -0.000355167
0.00113638 -1.3811e-06 -4.60464e-08
-1.3811e-06 -9.43081e-05 4.508e-08
-4.60464e-08 4.508e-08 -0.000222522
0.00207876 6.50959e-05 6.56848e-08
6.50959e-05 7.68041e-05 1.35302e-07
6.56848e-08 1.35302e-07 7.05162e-06
0.00212079 0.000219886 -1.29447e-07
0.000219886 9.64125e-05 1.63485e-07
-1.29447e-07 1.63485e-07 3.31115e-06
0.00218581 0.00015547 -4.1367e-07
0.00015547 3.61491e-05 4.13564e-08
-4.1367e-07 4.13564e-08 2.0166e-05
0.00217108 0.000390431 -8.47971e-07
0.000390431 0.000162451 -1.77537e-07
-8.47971e-07 -1.77537e-07 -4.51497e-06
0.00225436 0.000333592 1.09511e-07
0.000333592 8.95698e-05 8.95962e-08
1.09511e-07 8.95962e-08 2.17373e-05
0.00209921 -6.05584e-06 2.84091e-06
-6.05584e-06 9.51045e-05 3.18849e-07
2.84091e-06 3.18849e-07 2.61426e-05
0.0021128 7.20761e-05 4.92884e-06
7.20761e-05 -6.12225e-06 8.79017e-07
4.92884e-06 8.79017e-07 -1.58132e-05
0.00224645 0.000238483 6.4007e-06
0.000238483 8.24469e-05 1.69247e-06
6.4007e-06 1.69247e-06 4.72667e-05
0.00216888 0.000137916 4.40999e-06
0.000137916 5.32859e-06 1.59462e-06
4.40999e-06 1.59462e-06 1.51919e-05
0.00220594 0.00043655 3.25986e-06
0.00043655 9.2015e-05 4.80902e-07
3.25986e-06 4.80902e-07 -3.10936e-05
0.00225567 0.000344237 2.13096e-06
0.000344237 -1.21984e-05 3.75888e-07
2.13096e-06 3.75888e-07 -1.80515e-05
0.00127025 -3.81552e-05 -9.84486e-06
-3.81552e-05 -6.23198e-06 1.35748e-07
-9.84486e-06 1.35748e-07 -0.000124987
0.00204859 -0.000150848 -2.4682e-05
-0.000150848 0.000482359 2.71568e-06
-2.4682e-05 2.71568e-06 0.000350811
0.00203306 -0.00014671 1.03181e-06
-0.00014671 4.80382e-05 -2.25115e-07
1.03181e-06 -2.25115e-07 -3.72776e-05
0.00188773 -0.000304533 6.47427e-07
-0.000304533 -2.69135e-05 6.91008e-07
6.47427e-07 6.91008e-07 -0.000171342
0.000550963 -0.000282519 -2.80903e-05
-0.000282519 -3.75521e-05 2.64317e-05
-2.80903e-05 2.64317e-05 -0.000199842
0.000734842 -0.000373844 -1.59247e-05
-0.000373844 -6.74512e-05 5.69182e-06
-1.59247e-05 5.69182e-06 -0.000395661
0.00187685 -0.000711748 -6.59573e-06
-0.000711748 0.000331761 -1.19771e-06
-6.59573e-06 -1.19771e-06 -0.000119673
0.00215035 -0.000464105 -2.58162e-06
-0.000464105 0.000250004 -2.74888e-07
-2.58162e-06 -2.74888e-07 2.39885e-05
0.00217919 -0.000431711 -9.58548e-07
-0.000431711 9.07198e-05 -3.67484e-08
-9.58548e-07 -3.67484e-08 -2.2358e-05
0.00219805 -0.000585709 -1.93387e-06
-0.000585709 0.000233433 -1.8644e-06
-1.93387e-06 -1.8644e-06 1.67881e-06
0.00247833 -0.000725243 -1.69859e-06
-0.000725243 0.000535829 -7.77347e-06
-1.69859e-06 -7.77347e-06 0.000185144
0.00203449 -0.000658337 1.87362e-06
-0.000658337 0.000142688 -2.62305e-06
1.87362e-06 -2.62305e-06 -0.000122577
0.000791262 -0.000288811 -8.80592e-06
-0.000288811 0.000161391 2.62298e-06
-8.80592e-06 2.62298e-06 -0.000149094
0.000475739 -0.000224085 -2.20628e-06
-0.000224085 -5.05872e-05 2.50623e-06
-2.20628e-06 2.50623e-06 -0.000368517
0.000583995 -0.000274951 4.14136e-07
-0.000274951 9.82909e-05 7.45995e-06
4.14136e-07 7.45995e-06 -0.000169308
0.00199365 -7.12676e-05 2.76006e-06
-7.12676e-05 3.00041e-05 -1.95513e-07
2.76006e-06 -1.95513e-07 -4.90171e-05
0.00204078 -0.000235788 6.21819e-07
-0.000235788 5.56132e-05 -2.20034e-07
6.21819e-07 -2.20034e-07 -4.84264e-05
0.00217081 -0.000153172 1.15124e-06
-0.000153172 3.79884e-05 -1.02794e-07
1.15124e-06 -1.02794e-07 1.05135e-05
0.00220064 -0.000342458 -1.34887e-06
-0.000342458 6.94273e-05 2.06269e-07
-1.34887e-06 2.06269e-07 -6.15766e-06
0.000802112 -0.000313623 7.28575e-07
-0.000313623 8.61339e-05 -9.59308e-08
7.28575e-07 -9.59308e-08 -0.000218144
0.00180299 -0.000725552 -1.88753e-07
-0.000725552 0.000463085 -1.24321e-06
-1.88753e-07 -1.24321e-06 -3.14408e-05
0.00209797 -0.000824995 8.90803e-07
-0.000824995 0.000378945 1.42275e-06
8.90803e-07 1.42275e-06 -9.21521e-05
0.00208436 -0.000513348 -5.36436e-07
-0.000513348 0.000110476 6.08505e-07
-5.36436e-07 6.08505e-07 -7.06094e-05
0.00228028 -0.000456737 1.70975e-07
-0.000456737 8.70515e-05 -8.35256e-09
1.70975e-07 -8.35256e-09 2.26836e-05
0.00236247 -0.000733458 -8.89439e-07
-0.000733458 0.000421146 4.44932e-07
-8.89439e-07 4.44932e-07 8.71098e-05
0.00218544 -0.000622298 -6.41234e-07
-0.000622298 0.000161611 8.08425e-07
-6.41234e-07 8.08425e-07 -3.78211e-05
0.00237529 -0.000700659 1.19595e-06
-0.000700659 0.00035671 -6.14263e-07
1.19595e-06 -6.14263e-07 0.000107979
0.000794094 -0.000389883 -3.26389e-06
-0.000389883 8.99708e-05 2.35398e-07
-3.26389e-06 2.35398e-07 -0.000286935
0.00158934 -0.000486279 -1.60206e-06
-0.000486279 0.000650988 1.72575e-06
-1.60206e-06 1.72575e-06 0.000222755
0.000850714 -0.000203282 -2.72006e-06
-0.000203282 0.000293666 -2.42124e-06
-2.72006e-06 -2.42124e-06 3.81636e-05
0.000523031 -0.00016615 5.40927e-07
-0.00016615 5.84218e-05 1.7531e-06
5.40927e-07 1.7531e-06 -0.000236646
0.00219681 -8.45145e-05 6.91035e-06
-8.45145e-05 6.64086e-05 -8.10056e-07
6.91035e-06 -8.10056e-07 4.55938e-05
0.00205617 -0.000243132 4.352e-06
-0.000243132 -6.21611e-05 -1.62842e-06
4.352e-06 -1.62842e-06 -0.000108903
0.0021539 -0.000143009 4.73318e-06
-0.000143009 2.56046e-05 -1.40343e-06
4.73318e-06 -1.40343e-06 3.96329e-05
0.00225131 -0.000366125 -4.63394e-07
-0.000366125 1.46885e-05 -3.86875e-07
-4.63394e-07 -3.86875e-07 7.27613e-06
0.00222453 -0.00055339 -5.18699e-07
-0.00055339 0.000107455 6.35281e-07
-5.18699e-07 6.35281e-07 -1.85009e-05
0.00232715 -0.000487108 1.35422e-06
-0.000487108 4.35394e-05 -3.12685e-07
1.35422e-06 -3.12685e-07 4.94207e-09
0.00153055 -0.00060796 -3.37362e-07
-0.00060796 0.00046853 -1.59077e-07
-3.37362e-07 -1.59077e-07 3.86923e-06
0.00227421 -0.00067424 -1.36245e-06
-0.00067424 0.000158144 8.93028e-07
-1.36245e-06 8.93028e-07 -7.68837e-06
0.00192315 -0.000890044 1.51937e-06
-0.000890044 0.000456936 8.61422e-06
1.51937e-06 8.61422e-06 -0.000101841
0.0023944 -0.000884702 7.58062e-06
-0.000884702 0.000516923 5.13801e-06
7.58062e-06 5.13801e-06 4.81145e-05
0.00236878 -0.000741644 -1.16761e-06
-0.000741644 0.000407433 4.5953e-06
-1.16761e-06 4.5953e-06 8.17122e-05
0.00229442 -0.000749815 -4.33406e-06
-0.000749815 0.000240895 -1.1193e-06
-4.33406e-06 -1.1193e-06 -1.85768e-05
0.000612206 -0.000204625 2.06122e-07
-0.000204625 0.000146277 -9.35264e-06
2.06122e-07 -9.35264e-06 -7.28596e-05
0.00130417 -0.000272666 -7.06869e-07
-0.000272666 0.000612363 3.96638e-06
-7.06869e-07 3.96638e-06 0.0002448
0.00135774 -0.000601713 2.57706e-05
-0.000601713 0.00040171 3.35353e-06
2.57706e-05 3.35353e-06 -7.97491e-05
-0.000720606 -0.000139825 1.9589e-05
-0.000139825 -0.000800392 -8.17726e-06
1.9589e-05 -8.17726e-06 -0.00108911
0.00115671 -0.00052109 1.95418e-06
-0.00052109 0.000392943 1.47503e-05
1.95418e-06 1.47503e-05 -0.000111725
0.000264563 3.99182e-06 -6.07778e-06
3.99182e-06 -0.000119233 -1.3963e-05
-6.07778e-06 -1.3963e-05 -0.000188553
0.00211722 0.000473651 -5.22063e-06
0.000473651 0.000176909 -3.1452e-07
-5.22063e-06 -3.1452e-07 -4.04175e-05
0.00045788 5.68478e-05 1.6533e-06
5.68478e-05 7.51853e-06 -4.28652e-06
1.6533e-06 -4.28652e-06 -0.000216966
0.000127307 0.000242384 -7.43793e-06
0.000242384 -0.000271428 1.81666e-06
-7.43793e-06 1.81666e-06 -0.000504781
0.000665515 0.000240926 -8.5342e-07
0.000240926 0.00013841 8.68428e-06
-8.5342e-07 8.68428e-06 -0.000170307
0.0020779 0.000610797 -4.82435e-06
0.000610797 0.000297918 1.41601e-06
-4.82435e-06 1.41601e-06 -2.48865e-05
0.00222245 0.0006067 -2.38239e-07
0.0006067 0.000242593 2.00656e-06
-2.38239e-07 2.00656e-06 -5.56676e-06
0.00130731 0.000581205 4.11427e-06
0.000581205 0.000311848 1.21744e-06
4.11427e-06 1.21744e-06 -0.000132758
0.00186399 0.000797919 7.16294e-06
0.000797919 0.000395425 1.00096e-05
7.16294e-06 1.00096e-05 -0.00011555
0.00232286 0.000741241 4.51958e-06
0.000741241 0.000471311 6.0521e-06
4.51958e-06 6.0521e-06 0.000112243
0.00230365 0.000729439 1.22668e-05
0.000729439 0.000418671 1.66756e-05
1.22668e-05 1.66756e-05 6.79107e-05
0.00044645 2.26497e-05 -2.75585e-07
2.26497e-05 -1.25683e-05 5.41293e-08
-2.75585e-07 5.41293e-08 -6.80681e-05
0.000694202 9.4929e-05 -1.94466e-06
9.4929e-05 0.000190861 -5.55222e-08
-1.94466e-06 -5.55222e-08 -8.05512e-06
0.00085613 0.000413327 5.08572e-06
0.000413327 0.00019053 -1.02394e-07
5.08572e-06 -1.02394e-07 -0.000154464
0.000521721 0.000121852 4.21349e-07
0.000121852 5.67371e-05 -4.09902e-06
4.21349e-07 -4.09902e-06 -0.000242329
0.000265523 0.000117054 5.78004e-07
0.000117054 -0.000257574 3.7395e-06
5.78004e-07 3.7395e-06 -0.00051942
0.00224077 0.000529026 -1.78049e-06
0.000529026 0.000174077 -1.4909e-06
-1.78049e-06 -1.4909e-06 -1.6397e-05
0.00222663 0.000692494 2.8435e-07
0.000692494 0.000314195 3.29118e-08
2.8435e-07 3.29118e-08 5.52297e-06
0.00222038 0.000664917 1.45164e-06
0.000664917 0.000215754 2.91826e-07
1.45164e-06 2.91826e-07 -3.4914e-05
0.00191844 0.000824172 1.31658e-06
0.000824172 0.000675946 -2.18276e-06
1.31658e-06 -2.18276e-06 0.000102334
0.00251819 0.000812459 3.37742e-06
0.000812459 0.000486209 3.34736e-07
3.37742e-06 3.34736e-07 0.000130485
0.00228446 0.000890063 -4.53533e-06
0.000890063 0.00059677 4.55793e-07
-4.53533e-06 4.55793e-07 0.000100533
0.000900749 0.000127608 1.40572e-06
0.000127608 0.000298621 8.05723e-06
1.40572e-06 8.05723e-06 0.000151202
0.00285244 0.000431349 -3.8041e-07
0.000431349 0.00163584 3.18193e-06
-3.8041e-07 3.18193e-06 0.00132059
0.000345101 0.000468684 -1.62524e-06
0.000468684 -0.000150043 1.48151e-06
-1.62524e-06 1.48151e-06 -0.000564794
0.0011596 0.000163081 5.45519e-06
0.000163081 0.000290836 4.84603e-07
5.45519e-06 4.84603e-07 3.78086e-05
0.00293175 0.000605049 -1.47777e-06
0.000605049 0.00134981 -2.22856e-06
-1.47777e-06 -2.22856e-06 0.000965729
0.00225364 0.000562829 -3.12768e-06
0.000562829 0.000109287 -1.30946e-06
-3.12768e-06 -1.30946e-06 -4.83692e-05
0.00222671 0.000753119 -5.01318e-06
0.000753119 0.000280009 -1.43686e-06
-5.01318e-06 -1.43686e-06 -3.45377e-05
0.00221297 0.000728443 2.32373e-07
0.000728443 0.000175134 -2.2243e-07
2.32373e-07 -2.2243e-07 -7.82977e-05
0.00135346 0.000839179 7.08584e-06
0.000839179 0.00037118 -7.97774e-06
7.08584e-06 -7.97774e-06 -0.000218069
0.00201476 0.00087654 1.24371e-05
0.00087654 0.000303465 -3.6142e-06
1.24371e-05 -3.6142e-06 -0.000144111
0.000612937 8.02342e-05 -5.02451e-07
8.02342e-05 0.00013288 2.18327e-07
-5.02451e-07 2.18327e-07 5.74171e-06
0.000454244 0.000190396 5.47367e-07
0.000190396 6.14537e-05 -4.86845e-07
5.47367e-07 -4.86845e-07 -0.000108461
-0.00024111 9.42756e-05 3.99206e-07
9.42756e-05 -0.000341547 -2.39705e-06
3.99206e-07 -2.39705e-06 -0.000520067
0.0015737 0.00026446 -4.36805e-06
0.00026446 0.000860595 -3.69187e-06
-4.36805e-06 -3.69187e-06 0.000635687
0.00124363 0.000204347 -1.93448e-06
0.000204347 0.000622555 2.96514e-06
-1.93448e-06 2.96514e-06 0.000440588
0.000543581 8.51612e-05 1.06516e-06
8.51612e-05 9.7999e-05 4.62282e-06
1.06516e-06 4.62282e-06 7.08957e-06
0.00055496 3.18704e-05 -1.1777e-06
3.18704e-05 0.000103833 -8.05821e-08
-1.1777e-06 -8.05821e-08 8.02422e-06
0.00140763 2.53643e-06 1.90923e-06
2.53643e-06 0.000612898 5.16769e-06
1.90923e-06 5.16769e-06 0.000584525
0.000492809 5.27644e-05 1.54068e-06
5.27644e-05 5.48883e-05 -6.99847e-06
1.54068e-06 -6.99847e-06 -4.83447e-05
0.00149964 -1.01022e-05 -1.25441e-05
-1.01022e-05 0.000671757 -1.9728e-06
-1.25441e-05 -1.9728e-06 0.000639566
0.000737332 -2.34384e-05 4.68973e-05
-2.34384e-05 0.0001715 1.1321e-05
4.68973e-05 1.1321e-05 0.00017112
0.0015274 3.49324e-07 -2.49541e-05
3.49324e-07 0.000692626 -8.69183e-06
-2.49541e-05 -8.69183e-06 0.000653558
0.00209961 -7.55098e-05 5.28524e-05
-7.55098e-05 0.00106589 1.29558e-06
5.28524e-05 1.29558e-06 0.00106032
0.00350467 -0.00014036 -5.54661e-05
-0.00014036 0.00198954 -6.57292e-06
-5.54661e-05 -6.57292e-06 0.00198006
0.000219229 3.66998e-05 -1.45327e-06
3.66998e-05 -0.00012729 -1.12193e-05
-1.45327e-06 -1.12193e-05 -0.000192368
0.000391258 -0.000110854 -2.95187e-06
-0.000110854 -4.03047e-05 4.07356e-07
-2.95187e-06 4.07356e-07 -0.000135224
0.00433915 0.000212616 3.054e-05
0.000212616 0.00256644 -1.03511e-05
3.054e-05 -1.03511e-05 0.00253075
0.00557382 0.00012631 -1.04731e-05
0.00012631 0.00336245 -4.27659e-07
-1.04731e-05 -4.27659e-07 0.00334638
0.000500589 -0.000176556 -2.35163e-05
-0.000176556 -6.05907e-06 1.96782e-05
-2.35163e-05 1.96782e-05 -0.000124576
0.00648936 0.00010275 -0.000234444
0.00010275 0.00394931 3.34105e-05
-0.000234444 3.34105e-05 0.00393389
0.00211399 0.000385098 -3.10994e-06
0.000385098 0.000130184 1.11568e-06
-3.10994e-06 1.11568e-06 -3.61022e-05
0.0021251 0.000220882 -2.09551e-06
0.000220882 0.00010061 -3.42261e-07
-2.09551e-06 -3.42261e-07 6.9525e-06
0.0022558 0.000335743 -5.37717e-06
0.000335743 8.8581e-05 -8.90258e-07
-5.37717e-06 -8.90258e-07 1.98241e-05
0.00216632 0.000150217 -5.54626e-06
0.000150217 1.25511e-05 -1.31712e-06
-5.54626e-06 -1.31712e-06 2.91616e-06
0.00203322 6.51485e-05 -3.02873e-06
6.51485e-05 4.93839e-05 -5.09211e-07
-3.02873e-06 -5.09211e-07 -2.06584e-05
0.00114737 3.33508e-06 -8.29081e-06
3.33508e-06 -8.74258e-05 -2.16886e-07
-8.29081e-06 -2.16886e-07 -0.000215566
0.00207008 -3.95426e-06 1.18527e-07
-3.95426e-06 7.79087e-05 1.2935e-07
1.18527e-07 1.2935e-07 8.64651e-06
0.00213235 6.41012e-05 -6.05681e-07
6.41012e-05 1.01947e-05 -1.02329e-07
-6.05681e-07 -1.02329e-07 -6.50248e-07
0.00222864 0.000236399 -1.47601e-07
0.000236399 6.48566e-05 1.60481e-07
-1.47601e-07 1.60481e-07 3.07417e-05
0.0021324 0.000138529 -8.06915e-08
0.000138529 -2.69308e-05 5.6553e-08
-8.06915e-08 5.6553e-08 -1.12606e-05
0.00227154 0.000444286 2.0289e-07
0.000444286 0.000129967 2.20676e-07
2.0289e-07 2.20676e-07 5.14597e-06
0.00224544 0.00033474 5.19327e-08
0.00033474 -2.07247e-05 1.1954e-07
5.19327e-08 1.1954e-07 -2.43451e-05
0.00211851 -9.60336e-06 5.46371e-06
-9.60336e-06 4.02163e-06 -5.62449e-08
5.46371e-06 -5.62449e-08 -8.07348e-06
0.00217847 5.8584e-05 4.0482e-06
5.8584e-05 1.30195e-05 3.98718e-07
4.0482e-06 3.98718e-07 4.25318e-05
0.00217207 0.000212055 1.02035e-06
0.000212055 -3.13661e-05 7.42031e-07
1.02035e-06 7.42031e-07 -2.43075e-05
0.00227202 0.000144954 6.83874e-07
0.000144954 -2.22211e-05 1.24571e-06
6.83874e-07 1.24571e-06 2.95773e-05
0.00227013 0.000450629 8.68848e-07
0.000450629 3.50929e-05 3.58602e-07
8.68848e-07 3.58602e-07 -2.4223e-05
0.00237974 0.000332525 5.85787e-07
0.000332525 -1.9616e-05 4.95607e-07
5.85787e-07 4.95607e-07 3.92601e-06
0.00208123 -6.8097e-05 -8.51916e-07
-6.8097e-05 8.85712e-05 -1.40448e-07
-8.51916e-07 -1.40448e-07 1.59016e-05
0.00204857 -0.00024187 2.15701e-06
-0.00024187 6.33127e-05 -2.14893e-07
2.15701e-06 -2.14893e-07 -4.02218e-05
0.00220947 -0.000150695 -3.66573e-06
-0.000150695 5.43219e-05 8.8714e-07
-3.66573e-06 8.8714e-07 3.46029e-05
0.00213438 -0.000331693 -4.93324e-06
-0.000331693 3.46199e-05 1.46791e-06
-4.93324e-06 1.46791e-06 -4.44974e-05
0.000595676 -0.000319581 -1.03999e-05
-0.000319581 -3.56403e-05 6.84533e-06
-1.03999e-05 6.84533e-06 -0.00034964
0.00184362 -0.000728232 -9.93098e-06
-0.000728232 0.000510217 -1.05753e-06
-9.93098e-06 -1.05753e-06 1.6442e-05
0.00194543 -0.000803265 -2.80971e-06
-0.000803265 0.000296651 -4.55565e-06
-2.80971e-06 -4.55565e-06 -0.000175043
0.00211239 -0.000510232 -2.66208e-06
-0.000510232 0.000137094 -3.34563e-07
-2.66208e-06 -3.34563e-07 -5.09471e-05
0.00224267 -0.000458402 -4.12797e-07
-0.000458402 4.94386e-05 -4.53767e-08
-4.12797e-07 -4.53767e-08 -8.15061e-06
0.00216243 -0.000619136 -5.38613e-07
-0.000619136 0.000143996 -4.60338e-07
-5.38613e-07 -4.60338e-07 -5.49044e-05
0.00222409 -0.000732316 3.87195e-07
-0.000732316 0.000316707 -6.23663e-06
3.87195e-07 -6.23663e-06 -1.9793e-05
0.00230738 -0.000694661 3.40212e-06
-0.000694661 0.000307127 -2.49843e-06
3.40212e-06 -2.49843e-06 6.03286e-05
0.00073665 -0.000391752 2.47395e-06
-0.000391752 5.10453e-05 -2.1941e-06
2.47395e-06 -2.1941e-06 -0.000335382
0.000513791 -0.000368789 -1.62916e-05
-0.000368789 -5.41157e-05 -1.66653e-06
-1.62916e-05 -1.66653e-06 -0.000459393
0.000454947 -0.000203964 -6.6039e-06
-0.000203964 2.57777e-05 5.05077e-06
-6.6039e-06 5.05077e-06 -0.000220245
-1.16554e-05 -0.000211917 -4.17701e-06
-0.000211917 -0.000325063 1.68467e-06
-4.17701e-06 1.68467e-06 -0.000593439
0.00220207 -8.49164e-05 -1.37027e-07
-8.49164e-05 6.89413e-05 2.72637e-08
-1.37027e-07 2.72637e-08 4.79865e-05
0.00212064 -0.00024792 2.1229e-06
-0.00024792 -1.34392e-05 -5.26195e-07
2.1229e-06 -5.26195e-07 -6.12369e-05
0.00210826 -0.000141589 3.20271e-07
-0.000141589 -1.01778e-05 -1.30718e-07
3.20271e-07 -1.30718e-07 5.93853e-06
0.00223122 -0.000363824 -4.41227e-07
-0.000363824 1.10318e-05 2.84027e-07
-4.41227e-07 2.84027e-07 -4.02352e-06
0.00153699 -0.000580106 -2.9752e-06
-0.000580106 0.000449013 9.94262e-08
-2.9752e-06 9.94262e-08 9.07084e-07
0.00188751 -0.000886027 3.2631e-06
-0.000886027 0.000445122 -1.8084e-08
3.2631e-06 -1.8084e-08 -0.000115836
0.00233688 -0.000895913 -3.33469e-07
-0.000895913 0.000477304 6.56108e-07
-3.33469e-07 6.56108e-07 -7.05211e-07
0.00225748 -0.000552076 -1.14129e-06
-0.000552076 0.000139182 2.53518e-07
-1.14129e-06 2.53518e-07 6.21496e-06
0.00230254 -0.000486004 8.89433e-07
-0.000486004 2.83002e-05 -4.13293e-07
8.89433e-07 -4.13293e-07 -8.90344e-06
0.00234082 -0.000744499 -1.14214e-06
-0.000744499 0.00039743 9.15632e-07
-1.14214e-06 9.15632e-07 7.00767e-05
0.00226245 -0.000678645 -1.05275e-06
-0.000678645 0.000140206 8.72454e-07
-1.05275e-06 8.72454e-07 -2.61358e-05
0.0023194 -0.000750499 5.74524e-06
-0.000750499 0.000254841 -4.553e-06
5.74524e-06 -4.553e-06 -4.14192e-07
0.00151568 -0.000637645 2.79842e-07
-0.000637645 0.000516523 -1.8532e-06
2.79842e-07 -1.8532e-06 2.03749e-05
0.00194895 -0.000629604 1.26538e-06
-0.000629604 0.000882443 2.49648e-06
1.26538e-06 2.49648e-06 0.000375404
0.00102346 -0.000267509 -4.09875e-07
-0.000267509 0.00033637 -5.60787e-06
-4.09875e-07 -5.60787e-06 1.93796e-05
0.000178295 -0.00011788 -2.58056e-06
-0.00011788 -0.000119524 1.4427e-06
-2.58056e-06 1.4427e-06 -0.000341586
-0.00023132 -0.000189868 -1.87279e-06
-0.000189868 -0.000384134 9.66413e-07
-1.87279e-06 9.66413e-07 -0.000724895
0.0021048 -8.64404e-05 2.58488e-06
-8.64404e-05 -3.29059e-05 -7.92794e-07
2.58488e-06 -7.92794e-07 -4.78271e-06
0.00217411 -0.00021564 8.12176e-07
-0.00021564 -3.25649e-05 -1.41278e-06
8.12176e-07 -1.41278e-06 -1.06294e-05
0.00234405 -0.000439816 -1.33097e-06
-0.000439816 -3.98381e-05 -7.41414e-07
-1.33097e-06 -7.41414e-07 -1.69546e-05
0.00231301 -0.00058199 1.4962e-07
-0.00058199 5.67118e-05 6.88583e-07
1.4962e-07 6.88583e-07 -7.50949e-06
0.00167223 -0.000803019 9.83521e-06
-0.000803019 0.000514654 4.52921e-06
9.83521e-06 4.52921e-06 -4.98545e-05
0.00252351 -0.000813866 -5.02752e-06
-0.000813866 0.000200618 -3.49894e-07
-5.02752e-06 -3.49894e-07 -1.01549e-06
0.00144012 -0.00092145 -1.26968e-05
-0.00092145 0.000172072 1.01476e-05
-1.26968e-05 1.01476e-05 -0.000413631
0.00257567 -0.000964167 -1.6337e-06
-0.000964167 0.000596922 4.50552e-06
-1.6337e-06 4.50552e-06 0.000105852
0.00202539 -0.000717633 -1.05319e-05
-0.000717633 0.000175854 -1.76684e-07
-1.05319e-05 -1.76684e-07 -0.000133623
6.89122e-05 -7.31523e-05 -6.79822e-07
-7.31523e-05 -0.000181353 -8.3413e-06
-6.79822e-07 -8.3413e-06 -0.000336468
0.000869853 -0.000324197 -4.5106e-06
-0.000324197 0.000423239 -1.14789e-06
-4.5106e-06 -1.14789e-06 6.41017e-05
0.00331255 -0.000259142 -7.37496e-06
-0.000259142 0.001834 1.87962e-06
-7.37496e-06 1.87962e-06 0.00149428
0.00199218 -0.000765594 -5.23229e-08
-0.000765594 0.000808608 7.46018e-06
-5.23229e-08 7.46018e-06 0.000261061
0.000671446 -0.000359151 1.46891e-05
-0.000359151 5.96611e-05 -1.43806e-06
1.46891e-05 -1.43806e-06 -0.000335027
0.00218226 -0.00072494 -1.99758e-06
-0.00072494 0.00101164 1.75627e-05
-1.99758e-06 1.75627e-05 0.000453075
0.000380929 2.34184e-05 -4.78499e-06
2.34184e-05 -5.22151e-05 -1.27302e-05
-4.78499e-06 -1.27302e-05 -0.000107603
0.000166012 7.8296e-05 -1.17802e-06
7.8296e-05 -0.000138628 -8.68125e-06
-1.17802e-06 -8.68125e-06 -0.000335918
0.00232096 0.000535161 -4.27656e-06
0.000535161 0.000229906 -8.93223e-07
-4.27656e-06 -8.93223e-07 3.82211e-05
-0.00110548 1.46037e-05 -2.20681e-06
1.46037e-05 -0.000953972 4.7055e-07
-2.20681e-06 4.7055e-07 -0.00125984
0.0024336 0.000508196 1.11045e-05
0.000508196 0.00118715 -4.64992e-06
1.11045e-05 -4.64992e-06 0.000843802
0.000234125 0.000154841 -7.5185e-06
0.000154841 -0.000283923 -2.73532e-06
-7.5185e-06 -2.73532e-06 -0.000571637
0.00218835 0.000686998 2.01448e-06
0.000686998 0.000294782 2.59745e-06
2.01448e-06 2.59745e-06 -1.20768e-05
0.0022358 0.000668118 3.29139e-06
0.000668118 0.000229418 8.81693e-07
3.29139e-06 8.81693e-07 -2.2114e-05
0.00190157 0.000817534 7.37863e-06
0.000817534 0.000682262 6.62215e-06
7.37863e-06 6.62215e-06 0.000106458
0.00264297 0.000917996 -2.6949e-06
0.000917996 0.000844448 7.88051e-06
-2.6949e-06 7.88051e-06 0.000350244
0.0024153 0.00080401 5.34407e-06
0.00080401 0.000397237 4.57375e-06
5.34407e-06 4.57375e-06 4.02848e-05
0.000700019 0.000118346 8.89924e-07
0.000118346 0.000171953 1.01603e-07
8.89924e-07 1.01603e-07 2.84687e-05
0.000818442 0.000230732 -1.76806e-06
0.000230732 0.00033015 5.94896e-07
-1.76806e-06 5.94896e-07 3.92376e-05
0.000884562 0.000546639 6.70324e-07
0.000546639 0.000176175 9.02484e-07
6.70324e-07 9.02484e-07 -0.000270945
0.000749695 0.000102522 -7.16486e-07
0.000102522 3.87419e-05 -5.75368e-07
-7.16486e-07 -5.75368e-07 -0.000214823
0.00147324 0.000402944 2.77175e-06
0.000402944 0.000365896 -5.41816e-06
2.77175e-06 -5.41816e-06 3.03644e-05
0.00224712 0.000563446 -2.21515e-06
0.000563446 0.000118547 -1.11788e-06
-2.21515e-06 -1.11788e-06 -4.04724e-05
0.00230501 0.000761887 2.55847e-06
0.000761887 0.000316234 6.24606e-07
2.55847e-06 6.24606e-07 -1.72227e-07
0.00224463 0.000732842 1.25047e-06
0.000732842 0.000178909 2.61884e-07
1.25047e-06 2.61884e-07 -7.69284e-05
0.00176832 0.000910604 2.27525e-06
0.000910604 0.000595419 1.09427e-06
2.27525e-06 1.09427e-06 -5.59671e-06
0.00202197 0.000883164 -2.06246e-06
0.000883164 0.000338913 -2.63095e-06
-2.06246e-06 -2.63095e-06 -0.00011706
0.00163901 0.000305901 3.3559e-06
0.000305901 0.000839443 2.97724e-06
3.3559e-06 2.97724e-06 0.000610207
-0.000451782 0.000116901 1.59117e-06
0.000116901 -0.000464748 -7.08091e-07
1.59117e-06 -7.08091e-07 -0.000785699
0.00155448 0.000712974 1.47927e-06
0.000712974 0.00059305 -6.40736e-06
1.47927e-06 -6.40736e-06 7.79444e-05
-0.00156068 0.000211704 5.98145e-06
0.000211704 -0.00152947 6.13285e-07
5.98145e-06 6.13285e-07 -0.00180626
0.00292906 0.000752072 2.74135e-06
0.000752072 0.00121915 -5.92453e-06
2.74135e-06 -5.92453e-06 0.000783352
0.00244721 0.000658819 -2.67234e-06
0.000658819 0.00011673 -7.7859e-08
-2.67234e-06 -7.7859e-08 1.02595e-05
0.00231348 0.000814702 8.75087e-06
0.000814702 0.000274982 -2.94595e-06
8.75087e-06 -2.94595e-06 -7.87875e-05
0.00227556 0.000754531 7.0616e-06
0.000754531 0.000124592 9.9496e-07
7.0616e-06 9.9496e-07 -0.00014955
0.00202283 0.000964921 1.54272e-05
0.000964921 0.000677919 3.33872e-07
1.54272e-05 3.33872e-07 8.33517e-05
0.00234992 0.00103996 8.01377e-06
0.00103996 0.000579018 -2.25307e-08
8.01377e-06 -2.25307e-08 5.04738e-05
0.000495884 6.5677e-05 1.43563e-06
6.5677e-05 5.42854e-05 -8.25344e-06
1.43563e-06 -8.25344e-06 -6.77037e-05
0.000894551 0.000159281 6.49773e-07
0.000159281 0.000348878 -1.53603e-06
6.49773e-07 -1.53603e-06 0.000173905
-9.20326e-05 0.000104579 -3.11457e-06
0.000104579 -0.000287298 -9.66614e-06
-3.11457e-06 -9.66614e-06 -0.000418676
-0.0005488 -1.61416e-05 4.5126e-06
-1.61416e-05 -0.00056299 -1.80233e-06
4.5126e-06 -1.80233e-06 -0.000718037
0.000548549 9.94502e-05 -1.37533e-06
9.94502e-05 0.000156613 3.33222e-07
-1.37533e-06 3.33222e-07 -2.88757e-06
0.000255918 0.000109221 2.13936e-06
0.000109221 -1.3469e-05 -4.08428e-07
2.13936e-06 -4.08428e-07 -0.000196379
0.000562702 0.000185857 -1.46449e-06
0.000185857 0.000170392 -1.18061e-05
-1.46449e-06 -1.18061e-05 1.75379e-06
0.000342662 2.8399e-05 -5.33674e-06
2.8399e-05 6.09552e-05 1.31557e-06
-5.33674e-06 1.31557e-06 -0.00013457
0.000733067 0.000124586 -9.18437e-07
0.000124586 0.000252132 1.9504e-06
-9.18437e-07 1.9504e-06 0.000116124
0.000513034 8.84769e-05 2.25922e-06
8.84769e-05 7.85099e-05 4.39004e-06
2.25922e-06 4.39004e-06 -1.24416e-05
0.000453382 3.36362e-05 -2.86721e-06
3.36362e-05 3.37359e-05 1.1621e-07
-2.86721e-06 1.1621e-07 -5.35351e-05
0.00135004 6.90146e-06 2.33236e-06
6.90146e-06 0.000576419 4.57189e-06
2.33236e-06 4.57189e-06 0.000552031
0.000278201 -7.89268e-05 6.08773e-06
-7.89268e-05 -6.57765e-05 -5.18181e-06
6.08773e-06 -5.18181e-06 -0.0001649
0.00141298 4.28328e-07 -1.08996e-05
4.28328e-07 0.00061463 -1.8189e-06
-1.08996e-05 -1.8189e-06 0.000588957
0.000730089 -1.74825e-05 3.84701e-05
-1.74825e-05 0.000165762 1.02993e-05
3.84701e-05 1.02993e-05 0.0001688
0.00147901 -2.97955e-06 -1.83645e-05
-2.97955e-06 0.000655997 -9.64841e-06
-1.83645e-05 -9.64841e-06 0.000626518
0.000747295 -3.46305e-05 1.80709e-05
-3.46305e-05 0.000177886 4.11097e-06
1.80709e-05 4.11097e-06 0.000172873
0.00319006 -0.000138383 2.96131e-06
-0.000138383 0.0017781 -4.3893e-06
2.96131e-06 -4.3893e-06 0.00176816
0.000254497 7.71106e-05 -5.20787e-06
7.71106e-05 -9.09894e-05 -8.49291e-06
-5.20787e-06 -8.49291e-06 -0.000148925
0.000356392 -2.823e-05 -4.02594e-06
-2.823e-05 -4.44636e-05 6.51642e-07
-4.02594e-06 6.51642e-07 -0.000112603
0.0035215 0.000202613 -2.572e-05
0.000202613 0.00203238 -1.14263e-05
-2.572e-05 -1.14263e-05 0.00200511
0.000699975 -0.000142096 -1.76098e-05
-0.000142096 0.000152049 1.49244e-05
-1.76098e-05 1.49244e-05 5.37535e-05
0.00481635 0.000161345 -4.53881e-05
0.000161345 0.00287012 -6.18657e-08
-4.53881e-05 -6.18657e-08 0.0028476
0.00592833 0.000138044 -0.000189879
0.000138044 0.00360527 3.14578e-05
-0.000189879 3.14578e-05 0.00358178
0.00233124 0.000451604 -4.3311e-06
0.000451604 0.000163969 -5.51331e-07
-4.3311e-06 -5.51331e-07 3.75346e-05
0.0022153 0.00023349 -6.06527e-06
0.00023349 5.14164e-05 -1.18335e-06
-6.06527e-06 -1.18335e-06 1.85267e-05
0.00223853 0.000325341 -2.57821e-07
0.000325341 -2.69444e-05 -3.16249e-07
-2.57821e-07 -3.16249e-07 -2.83452e-05
0.00209564 0.000139476 -1.14011e-06
0.000139476 -5.88148e-05 -1.07668e-06
-1.14011e-06 -1.07668e-06 -3.75984e-05
0.00214967 5.72024e-05 -6.09607e-06
5.72024e-05 2.51319e-05 -4.50971e-07
-6.09607e-06 -4.50971e-07 1.29633e-05
0.00204307 -2.4465e-06 -2.79729e-06
-2.4465e-06 6.1542e-05 -8.99878e-08
-2.79729e-06 -8.99878e-08 -7.95772e-06
0.00215886 -1.13246e-05 1.22071e-07
-1.13246e-05 3.56623e-05 -1.89056e-08
1.22071e-07 -1.89056e-08 2.13393e-05
0.00216156 6.09666e-05 8.53846e-07
6.09666e-05 6.76125e-06 1.66092e-08
8.53846e-07 1.66092e-08 3.15842e-05
0.00219617 0.000213003 -3.60425e-07
0.000213003 -8.8639e-06 -1.5608e-08
-3.60425e-07 -1.5608e-08 -2.29184e-06
0.00222844 0.000144849 6.05706e-07
0.000144849 -5.60412e-05 9.41177e-08
6.05706e-07 9.41177e-08 3.5895e-06
0.00229045 0.000450633 -4.92111e-07
0.000450633 5.35435e-05 1.12403e-07
-4.92111e-07 1.12403e-07 -7.15956e-06
0.00234892 0.000334989 2.19131e-06
0.000334989 -3.83397e-05 6.47923e-07
2.19131e-06 6.47923e-07 -7.17007e-06
0.00210365 -1.5532e-05 2.60113e-06
-1.5532e-05 -2.99611e-05 -1.6927e-07
2.60113e-06 -1.6927e-07 -7.62761e-06
0.0022515 7.16906e-05 7.61235e-07
7.16906e-05 -5.27688e-05 4.72661e-07
7.61235e-07 4.72661e-07 2.04984e-05
0.00233223 0.000218527 -2.14257e-06
0.000218527 -3.9665e-05 6.23478e-07
-2.14257e-06 6.23478e-07 1.94357e-05
0.00246475 0.00048039 -1.99767e-06
0.00048039 5.75928e-06 -1.95475e-08
-1.99767e-06 -1.95475e-08 2.55614e-05
0.00220811 -8.53795e-05 -7.13295e-06
-8.53795e-05 7.17273e-05 8.9207e-07
-7.13295e-06 8.9207e-07 5.06191e-05
0.00217421 -0.000253263 -3.38071e-06
-0.000253263 2.84564e-05 1.01345e-06
-3.38071e-06 1.01345e-06 -2.05297e-05
0.00206346 -0.000140792 -2.63192e-06
-0.000140792 -4.52296e-05 1.03697e-06
-2.63192e-06 1.03697e-06 -2.73645e-05
0.00221462 -0.000361959 -3.10127e-06
-0.000361959 8.07624e-06 8.98761e-07
-3.10127e-06 8.98761e-07 -1.43242e-05
0.00115979 -0.000545892 1.88703e-06
-0.000545892 0.000200194 -1.97879e-06
1.88703e-06 -1.97879e-06 -0.000241609
0.00190039 -0.000885767 2.8724e-06
-0.000885767 0.000461476 -7.83888e-06
2.8724e-06 -7.83888e-06 -0.000101412
0.00233437 -0.000914979 -4.00859e-06
-0.000914979 0.000470981 -5.31059e-06
-4.00859e-06 -5.31059e-06 -1.86752e-05
0.00229157 -0.000550467 -3.21279e-06
-0.000550467 0.000172237 5.13674e-07
-3.21279e-06 5.13674e-07 3.28003e-05
0.00227698 -0.000485272 2.28843e-06
-0.000485272 1.21186e-05 -2.32065e-07
2.28843e-06 -2.32065e-07 -1.82682e-05
0.00224444 -0.000680867 -1.18137e-06
-0.000680867 0.000120347 6.12833e-07
-1.18137e-06 6.12833e-07 -4.62798e-05
0.00229839 -0.000737703 -4.31356e-07
-0.000737703 0.00037841 -3.19805e-06
-4.31356e-07 -3.19805e-06 5.3129e-05
0.00237592 -0.000750841 9.0067e-06
-0.000750841 0.000290706 -2.8347e-06
9.0067e-06 -2.8347e-06 3.69078e-05
0.00152175 -0.000633004 -2.79353e-05
-0.000633004 0.000565809 -3.14544e-06
-2.79353e-05 -3.14544e-06 6.70062e-05
0.000793534 -0.000499301 2.2936e-06
-0.000499301 0.000128142 -1.47397e-05
2.2936e-06 -1.47397e-05 -0.000344937
0.00342493 -0.000397848 -9.20719e-06
-0.000397848 0.00182223 -3.30864e-06
-9.20719e-06 -3.30864e-06 0.0015116
-0.00010658 -6.60994e-05 3.65867e-06
-6.60994e-05 -0.000299827 6.15848e-06
3.65867e-06 6.15848e-06 -0.000519072
-6.16287e-05 -0.000121146 6.43713e-06
-0.000121146 -0.000257486 -5.81106e-06
6.43713e-06 -5.81106e-06 -0.000595465
0.00208715 -9.37624e-05 1.48349e-08
-9.37624e-05 -4.43655e-05 -1.11002e-07
1.48349e-08 -1.11002e-07 -1.73376e-05
0.00219675 -0.000217088 1.68063e-06
-0.000217088 -2.11702e-05 -2.21936e-08
1.68063e-06 -2.21936e-08 -2.26981e-07
0.00233504 -0.000433056 -8.59785e-07
-0.000433056 -2.76421e-05 2.96184e-07
-8.59785e-07 2.96184e-07 -1.31581e-05
0.00187975 -0.000806941 -1.72207e-06
-0.000806941 0.000642563 -1.99149e-07
-1.72207e-06 -1.99149e-07 8.377e-05
0.00159986 -0.000921906 6.09726e-06
-0.000921906 0.000272877 -9.90359e-07
6.09726e-06 -9.90359e-07 -0.000309091
0.00241589 -0.000965131 -1.5658e-06
-0.000965131 0.000499264 1.76612e-07
-1.5658e-06 1.76612e-07 1.89228e-06
0.00231917 -0.000576725 4.43602e-07
-0.000576725 6.55608e-05 -3.8475e-07
4.43602e-07 -3.8475e-07 -3.77859e-07
0.00224254 -0.000761763 3.25283e-06
-0.000761763 0.000278269 -4.40391e-06
3.25283e-06 -4.40391e-06 -3.63948e-05
0.0024842 -0.000795345 -1.04951e-06
-0.000795345 0.000209306 -5.63923e-07
-1.04951e-06 -5.63923e-07 1.45556e-05
-0.000403051 7.95102e-06 -1.82481e-06
7.95102e-06 -0.000504596 -4.89616e-07
-1.82481e-06 -4.89616e-07 -0.000640835
0.00153815 -0.000690914 2.85338e-07
-0.000690914 0.000552306 -8.5529e-07
2.85338e-07 -8.5529e-07 1.32597e-05
0.00124353 -0.000614998 -4.5704e-06
-0.000614998 0.000438924 -1.09336e-06
-4.5704e-06 -1.09336e-06 -0.00012483
0.00107499 -0.000354159 -3.26208e-06
-0.000354159 0.000311655 4.00241e-06
-3.26208e-06 4.00241e-06 -9.63838e-05
0.0018119 -0.000452819 1.02105e-06
-0.000452819 0.000913846 -5.06631e-07
1.02105e-06 -5.06631e-07 0.000540385
0.000402116 -0.000174843 -5.71905e-07
-0.000174843 0.000107983 8.05761e-07
-5.71905e-07 8.05761e-07 -0.000236584
0.00220337 -0.000117983 -2.97681e-07
-0.000117983 -6.54063e-05 -1.09227e-06
-2.97681e-07 -1.09227e-06 -4.58506e-06
0.00237317 -0.000291347 -5.60989e-07
-0.000291347 -7.87602e-05 -1.33905e-06
-5.60989e-07 -1.33905e-06 5.42942e-06
0.00242335 -0.000538397 -1.24713e-06
-0.000538397 -2.69174e-05 -5.20864e-09
-1.24713e-06 -5.20864e-09 3.83355e-06
0.00245475 -0.000698934 -1.69825e-06
-0.000698934 3.83863e-05 4.81257e-07
-1.69825e-06 4.81257e-07 -7.81121e-07
0.00208018 -0.000917191 -5.83026e-06
-0.000917191 0.000759765 6.12859e-06
-5.83026e-06 6.12859e-06 0.000159195
0.00249323 -0.00091616 -5.98026e-06
-0.00091616 0.000293956 -3.34528e-06
-5.98026e-06 -3.34528e-06 -9.84961e-06
0.00220143 -0.00109159 -5.55407e-05
-0.00109159 0.000628464 1.09471e-05
-5.55407e-05 1.09471e-05 -1.6096e-05
0.00220963 -0.000988285 -2.83836e-05
-0.000988285 0.000395599 5.14827e-06
-2.83836e-05 5.14827e-06 -0.000110361
-0.000275099 4.37131e-05 -5.16831e-06
4.37131e-05 -0.000427834 -5.65869e-06
-5.16831e-06 -5.65869e-06 -0.000527416
0.00107821 -5.05791e-05 -2.15219e-06
-5.05791e-05 0.000539913 -1.93654e-06
-2.15219e-06 -1.93654e-06 0.00027943
0.0024532 -0.000471553 -1.1362e-05
-0.000471553 0.00144182 -1.24936e-06
-1.1362e-05 -1.24936e-06 0.00104859
-0.000186655 -0.000280979 -4.8219e-06
-0.000280979 -0.000380766 -7.64894e-06
-4.8219e-06 -7.64894e-06 -0.000749708
0.00289894 -0.000894174 -7.76444e-06
-0.000894174 0.00137571 1.88393e-05
-7.76444e-06 1.88393e-05 0.000788744
0.00181611 -0.000688226 7.40579e-06
-0.000688226 0.000809887 1.74702e-05
7.40579e-06 1.74702e-05 0.000180768
0.000540755 9.74593e-05 4.35174e-07
9.74593e-05 7.37977e-05 -8.6393e-06
4.35174e-07 -8.6393e-06 -6.86449e-05
-0.000772124 8.65159e-05 5.53568e-07
8.65159e-05 -0.000691404 -1.57702e-06
5.53568e-07 -1.57702e-06 -0.000963058
0.00224053 0.00056446 -1.43462e-06
0.00056446 0.000126849 -9.38908e-07
-1.43462e-06 -9.38908e-07 -3.36535e-05
0.000316816 6.57067e-05 -5.11756e-06
6.57067e-05 -0.00022203 3.83765e-06
-5.11756e-06 3.83765e-06 -0.000478834
0.00162661 0.000649103 7.00189e-06
0.000649103 0.000635557 -3.72342e-06
7.00189e-06 -3.72342e-06 0.000150527
0.000191393 0.000198922 -7.72811e-06
0.000198922 -0.000445672 -5.1423e-06
-7.72811e-06 -5.1423e-06 -0.000718102
0.00238297 0.00077076 5.25163e-06
0.00077076 0.000351615 1.60735e-06
5.25163e-06 1.60735e-06 3.33054e-05
0.00226027 0.000735057 -3.1469e-06
0.000735057 0.000173971 3.39359e-08
-3.1469e-06 3.39359e-08 -8.35488e-05
0.00210962 0.000970878 -3.96466e-06
0.000970878 0.000776222 5.97972e-06
-3.96466e-06 5.97972e-06 0.000165312
0.00207114 0.000893406 -7.49872e-06
0.000893406 0.000405451 2.51697e-06
-7.49872e-06 2.51697e-06 -6.08206e-05
0.000736191 0.000218856 -7.00302e-07
0.000218856 0.000253877 -5.24689e-07
-7.00302e-07 -5.24689e-07 3.63897e-05
0.000556359 0.000229441 2.03483e-06
0.000229441 0.00016606 -1.74069e-06
2.03483e-06 -1.74069e-06 -0.000167489
0.00134645 0.000673704 -2.95549e-06
0.000673704 0.00046863 -6.73891e-07
-2.95549e-06 -6.73891e-07 -3.54664e-05
0.0013165 0.000309639 -2.47151e-06
0.000309639 0.000271716 1.88948e-06
-2.47151e-06 1.88948e-06 -3.65833e-06
0.00259125 0.000680173 -6.39506e-08
0.000680173 0.00099198 -3.20288e-07
-6.39506e-08 -3.20288e-07 0.000576962
0.00247704 0.000666738 -2.41718e-06
0.000666738 0.000116625 -5.924e-07
-2.41718e-06 -5.924e-07 7.3333e-06
0.00247951 0.000809631 2.96375e-06
0.000809631 0.000385618 -7.91152e-07
2.96375e-06 -7.91152e-07 4.28756e-05
0.00255524 0.000783035 6.29763e-07
0.000783035 0.000299181 2.56284e-06
6.29763e-07 2.56284e-06 1.81241e-05
0.00190764 0.000961607 4.88328e-06
0.000961607 0.000603083 1.17655e-06
4.88328e-06 1.17655e-06 3.66492e-06
0.00230342 0.00107753 -4.86002e-06
0.00107753 0.000555315 9.8279e-07
-4.86002e-06 9.8279e-07 1.83255e-06
-0.00175848 2.9134e-05 -8.32139e-06
2.9134e-05 -0.00131137 2.09654e-06
-8.32139e-06 2.09654e-06 -0.00151119
-0.00263477 0.00015987 -2.26927e-06
0.00015987 -0.00173138 -2.85095e-06
-2.26927e-06 -2.85095e-06 -0.00211168
0.00189997 0.000791607 7.83428e-06
0.000791607 0.000707979 -4.18076e-06
7.83428e-06 -4.18076e-06 0.000183124
0.00162865 0.000474189 5.09616e-06
0.000474189 0.00037719 -4.01394e-06
5.09616e-06 -4.01394e-06 4.94571e-05
0.00264779 0.000636444 1.03859e-07
0.000636444 -0.000111097 3.98523e-07
1.03859e-07 3.98523e-07 -2.17562e-05
0.00264754 0.000803866 6.85626e-06
0.000803866 0.000234603 1.34122e-06
6.85626e-06 1.34122e-06 3.5413e-05
0.00256991 0.000984012 9.6743e-06
0.000984012 0.000445585 -3.99798e-06
9.6743e-06 -3.99798e-06 -1.35307e-05
0.00192724 0.00107325 6.59642e-06
0.00107325 0.000443805 -3.48637e-07
6.59642e-06 -3.48637e-07 -0.00018661
0.00131124 0.000208313 1.88939e-06
0.000208313 0.000647806 2.17247e-06
1.88939e-06 2.17247e-06 0.00044285
0.000489243 0.000202732 -3.90239e-06
0.000202732 0.000118544 -1.15725e-07
-3.90239e-06 -1.15725e-07 -4.14586e-05
0.00104333 0.000146035 -9.89812e-06
0.000146035 0.000484437 -6.56366e-06
-9.89812e-06 -6.56366e-06 0.000369394
0.000155841 4.71987e-05 1.87628e-06
4.71987e-05 -0.000120204 -3.34907e-06
1.87628e-06 -3.34907e-06 -0.000259676
-0.0011636 5.82236e-05 5.45317e-07
5.82236e-05 -0.000888307 2.07258e-06
5.45317e-07 2.07258e-06 -0.0010739
0.000705251 7.60749e-05 -1.00858e-06
7.60749e-05 0.000236112 -1.30412e-08
-1.00858e-06 -1.30412e-08 9.81843e-05
0.000677117 0.000212756 2.37925e-06
0.000212756 0.000283 1.7127e-06
2.37925e-06 1.7127e-06 0.000104727
0.000577199 9.91577e-05 9.74883e-07
9.91577e-05 0.000235836 1.80109e-06
9.74883e-07 1.80109e-06 1.9877e-05
0.000591768 0.000152129 7.05012e-07
0.000152129 0.000124196 -1.17725e-05
7.05012e-07 -1.17725e-05 3.73241e-05
0.00059753 6.80886e-05 -8.05056e-07
6.80886e-05 0.000239391 -7.87268e-06
-8.05056e-07 -7.87268e-06 2.87629e-05
-0.0001134 6.86005e-05 -1.27848e-06
6.86005e-05 -0.000247937 2.74722e-06
-1.27848e-06 2.74722e-06 -0.000429286
0.000725331 0.000136102 2.0589e-06
0.000136102 0.000245362 3.99978e-06
2.0589e-06 3.99978e-06 0.000105444
0.000446711 9.27337e-05 2.57031e-06
9.27337e-05 4.22823e-05 4.19603e-06
2.57031e-06 4.19603e-06 -5.39936e-05
0.000429162 2.09278e-05 -1.74371e-06
2.09278e-05 2.0878e-05 -4.35955e-07
-1.74371e-06 -4.35955e-07 -6.71813e-05
0.00127383 1.30366e-05 1.91195e-07
1.30366e-05 0.000532552 3.64664e-06
1.91195e-07 3.64664e-06 0.000508328
0.000427362 -4.50992e-05 2.06591e-06
-4.50992e-05 1.33561e-05 -4.1396e-06
2.06591e-06 -4.1396e-06 -7.08669e-05
0.00134088 4.45657e-07 -9.67803e-06
4.45657e-07 0.000571161 -1.80571e-06
-9.67803e-06 -1.80571e-06 0.000547614
0.000655474 -7.69914e-06 3.50866e-05
-7.69914e-06 0.000120076 1.03403e-05
3.50866e-05 1.03403e-05 0.000124162
0.00137162 -2.923e-05 -1.1779e-05
-2.923e-05 0.000589317 -8.40927e-06
-1.1779e-05 -8.40927e-06 0.000564483
0.000720104 -2.43561e-05 1.51149e-05
-2.43561e-05 0.00015813 3.83098e-06
1.51149e-05 3.83098e-06 0.000158317
0.000688187 -3.85232e-05 2.39176e-06
-3.85232e-05 0.00014109 -4.39178e-06
2.39176e-06 -4.39178e-06 0.000133777
0.00032192 4.58334e-05 -2.38518e-06
4.58334e-05 -7.71581e-05 -6.86826e-06
-2.38518e-06 -6.86826e-06 -0.000114425
0.000427482 5.77863e-05 -1.4852e-06
5.77863e-05 5.87068e-06 9.66335e-08
-1.4852e-06 9.66335e-08 -4.57978e-05
0.00284545 0.000148192 -1.12229e-05
0.000148192 0.0015761 -8.37704e-06
-1.12229e-05 -8.37704e-06 0.001564
0.000480425 -3.5021e-05 -1.18671e-05
-3.5021e-05 3.52395e-05 1.27762e-05
-1.18671e-05 1.27762e-05 -3.73804e-05
0.00365723 0.00016503 -2.5588e-05
0.00016503 0.00210651 -2.09104e-06
-2.5588e-05 -2.09104e-06 0.00208667
0.00485932 7.73143e-05 -0.000173456
7.73143e-05 0.00288746 2.4101e-05
-0.000173456 2.4101e-05 0.00288453
0.00230812 0.000450199 -6.58787e-07
0.000450199 7.1091e-05 2.54264e-08
-6.58787e-07 2.54264e-08 9.14018e-06
0.0022184 0.000214093 -2.37493e-06
0.000214093 1.14954e-05 -1.34511e-06
-2.37493e-06 -1.34511e-06 1.75844e-05
0.00231378 0.000336662 2.04303e-06
0.000336662 -6.00467e-05 1.06642e-06
2.04303e-06 1.06642e-06 -2.12038e-05
0.00219151 0.000145035 8.8366e-07
0.000145035 -8.58068e-05 -9.22149e-07
8.8366e-07 -9.22149e-07 -1.78647e-05
0.00214397 6.3266e-05 -3.187e-06
6.3266e-05 -4.36002e-07 -5.60627e-07
-3.187e-06 -5.60627e-07 1.99932e-05
0.00219924 -1.44141e-05 -7.46533e-06
-1.44141e-05 6.69448e-05 2.79743e-07
-7.46533e-06 2.79743e-07 5.05359e-05
0.00211858 -1.45622e-05 4.70886e-07
-1.45622e-05 -1.88294e-05 1.99074e-08
4.70886e-07 1.99074e-08 4.65766e-06
0.00222396 7.53241e-05 6.85589e-07
7.53241e-05 -6.65275e-05 5.31471e-08
6.85589e-07 5.31471e-08 5.01608e-06
0.0023144 0.000224365 1.00138e-06
0.000224365 -5.36233e-05 2.52616e-07
1.00138e-06 2.52616e-07 8.91498e-06
0.0024367 0.000465965 4.56771e-07
0.000465965 -1.70778e-05 1.84551e-07
4.56771e-07 1.84551e-07 6.98494e-06
0.00219153 -1.69176e-05 -2.46616e-07
-1.69176e-05 -7.87724e-05 -3.47876e-07
-2.46616e-07 -3.47876e-07 -1.32158e-05
0.0023643 0.000124267 -2.7358e-06
0.000124267 -9.68688e-05 1.3341e-06
-2.7358e-06 1.3341e-06 2.56324e-05
0.00258106 0.000337976 -2.653e-06
0.000337976 -4.12273e-05 6.67742e-09
-2.653e-06 6.67742e-09 5.28125e-05
0.00206746 -0.000101064 -2.00908e-06
-0.000101064 -5.74278e-05 7.53506e-07
-2.00908e-06 7.53506e-07 -3.12764e-05
0.00221736 -0.000217894 -1.78563e-06
-0.000217894 -1.03162e-05 8.946e-07
-1.78563e-06 8.946e-07 9.76842e-06
0.0023229 -0.000425839 1.0868e-07
-0.000425839 -1.65125e-05 5.15136e-07
1.0868e-07 5.15136e-07 -1.13028e-05
0.00196701 -0.000811751 -1.00196e-05
-0.000811751 0.00066924 -5.49517e-06
-1.00196e-05 -5.49517e-06 0.000113446
0.00181017 -0.000923491 1.52299e-05
-0.000923491 0.000406619 -9.63276e-06
1.52299e-05 -9.63276e-06 -0.000170201
0.00226293 -0.000965306 3.24274e-06
-0.000965306 0.000409228 -3.24893e-06
3.24274e-06 -3.24893e-06 -9.27387e-05
0.00232775 -0.000572686 -2.4986e-07
-0.000572686 7.44962e-05 -9.76651e-08
-2.4986e-07 -9.76651e-08 6.85401e-06
0.00243633 -0.000777305 4.5299e-06
-0.000777305 0.000206486 -3.15561e-07
4.5299e-06 -3.15561e-07 2.3751e-05
0.00241878 -0.000804172 9.88973e-06
-0.000804172 0.000356095 -7.25745e-06
9.88973e-06 -7.25745e-06 3.78399e-05
0.00136639 -0.000657015 -6.44969e-06
-0.000657015 0.000459808 -7.71239e-06
-6.44969e-06 -7.71239e-06 -7.71536e-05
0.00219732 -0.000761115 -1.96484e-07
-0.000761115 0.00101426 -2.25792e-05
-1.96484e-07 -2.25792e-05 0.000435688
0.00274625 -0.000507608 -1.4141e-05
-0.000507608 0.00142991 1.70125e-05
-1.4141e-05 1.70125e-05 0.000958721
9.57512e-05 2.25138e-05 6.00376e-06
2.25138e-05 -0.000182296 4.53446e-06
6.00376e-06 4.53446e-06 -0.000318826
0.0010054 -0.00044001 7.23318e-06
-0.00044001 0.000379091 -7.91264e-06
7.23318e-06 -7.91264e-06 1.56909e-05
-0.000222377 -5.66288e-05 8.66022e-06
-5.66288e-05 -0.000304531 1.62373e-07
8.66022e-06 1.62373e-07 -0.000638273
0.00221864 -0.000113074 -2.92205e-07
-0.000113074 -5.48079e-05 8.24754e-08
-2.92205e-07 8.24754e-08 4.3096e-06
0.00235066 -0.000302354 4.64713e-07
-0.000302354 -9.93368e-05 9.96784e-08
4.64713e-07 9.96784e-08 -1.22783e-05
0.00242385 -0.000528902 -6.05049e-07
-0.000528902 -2.22356e-05 1.32e-07
-6.05049e-07 1.32e-07 7.00409e-06
0.00202741 -0.000913516 -1.4416e-06
-0.000913516 0.000719564 1.13626e-06
-1.4416e-06 1.13626e-06 0.000121894
0.00201057 -0.00105443 9.39813e-06
-0.00105443 0.000526242 -1.7989e-06
9.39813e-06 -1.7989e-06 -0.000103861
0.00238201 -0.0009866 -1.62589e-06
-0.0009866 0.000498874 -2.35703e-06
-1.62589e-06 -2.35703e-06 7.49806e-06
0.00245461 -0.0007103 5.39459e-07
-0.0007103 4.08756e-05 -1.30934e-07
5.39459e-07 -1.30934e-07 -9.83915e-06
0.00241811 -0.000887407 2.28079e-06
-0.000887407 0.000270528 -1.57809e-06
2.28079e-06 -1.57809e-06 -1.67424e-05
0.000211005 6.82913e-05 -2.66214e-06
6.82913e-05 -0.000110457 -2.2551e-06
-2.66214e-06 -2.2551e-06 -0.000209927
0.00077372 -7.86396e-05 -1.66871e-06
-7.86396e-05 0.000324935 7.81795e-07
-1.66871e-06 7.81795e-07 8.0995e-05
0.00126533 -0.00069089 -3.32492e-06
-0.00069089 0.000386416 1.01389e-06
-3.32492e-06 1.01389e-06 -0.000142187
0.00172794 -0.00063768 -7.06844e-06
-0.00063768 0.000790306 1.7153e-06
-7.06844e-06 1.7153e-06 0.000172804
0.00122825 -0.000228616 1.2178e-06
-0.000228616 0.000469446 -5.36088e-06
1.2178e-06 -5.36088e-06 0.000101471
0.00152033 -0.000370976 -2.36545e-06
-0.000370976 0.000839151 2.2157e-06
-2.36545e-06 2.2157e-06 0.000459623
0.00232984 -0.00014747 -1.90983e-06
-0.00014747 -0.000113838 -1.74817e-06
-1.90983e-06 -1.74817e-06 9.48803e-06
0.00253621 -0.000446148 -1.70512e-06
-0.000446148 -0.000146806 -1.38745e-06
-1.70512e-06 -1.38745e-06 1.2742e-05
0.00249494 -0.000666314 1.30264e-06
-0.000666314 -4.72559e-05 3.51372e-07
1.30264e-06 3.51372e-07 -1.98547e-05
0.00262015 -0.000901854 1.32531e-06
-0.000901854 0.000177274 -4.27708e-07
1.32531e-06 -4.27708e-07 1.92944e-05
0.00105084 -0.000811575 -7.74213e-06
-0.000811575 0.000163743 -2.34314e-06
-7.74213e-06 -2.34314e-06 -0.000397653
0.00258022 -0.00108321 -7.49892e-07
-0.00108321 0.000525866 5.70798e-07
-7.49892e-07 5.70798e-07 5.55742e-05
0.00239986 -0.00120963 -6.43913e-05
-0.00120963 0.000677475 7.62447e-06
-6.43913e-05 7.62447e-06 7.48481e-07
0.000568612 4.84932e-05 -5.3078e-07
4.84932e-05 9.87227e-05 -3.25977e-06
-5.3078e-07 -3.25977e-06 2.26414e-05
0.000833656 -0.000173553 4.15497e-06
-0.000173553 0.000349863 -6.41706e-06
4.15497e-06 -6.41706e-06 0.000201723
3.16781e-05 7.51646e-05 -7.1459e-06
7.51646e-05 -0.000173696 -3.00932e-06
-7.1459e-06 -3.00932e-06 -0.000329961
0.000907686 -0.000111723 -6.88194e-06
-0.000111723 0.000430744 7.01323e-07
-6.88194e-06 7.01323e-07 0.000128909
0.000809352 -0.000201204 -8.85359e-06
-0.000201204 0.000299264 -1.38869e-05
-8.85359e-06 -1.38869e-05 -2.8452e-05
0.00155016 -0.000369699 -5.04732e-06
-0.000369699 0.000827828 -4.09528e-06
-5.04732e-06 -4.09528e-06 0.000307638
0.00119652 -0.000748409 -1.65558e-05
-0.000748409 0.000337588 4.13235e-05
-1.65558e-05 4.13235e-05 -0.000198923
0.00361063 -0.000865335 -2.42671e-05
-0.000865335 0.00201564 2.22915e-05
-2.42671e-05 2.22915e-05 0.00122383
0.000179706 0.000100464 1.61873e-06
0.000100464 -0.000127799 -9.21897e-07
1.61873e-06 -9.21897e-07 -0.000317998
0.00194084 0.000387064 8.07777e-07
0.000387064 0.00101995 2.17207e-06
8.07777e-07 2.17207e-06 0.000674845
0.0025104 0.000676025 -6.40263e-07
0.000676025 0.000118116 -1.07483e-06
-6.40263e-07 -1.07483e-06 4.8492e-06
0.00198583 0.000242407 -1.74981e-06
0.000242407 0.000646214 -1.72083e-06
-1.74981e-06 -1.72083e-06 0.000374283
0.0013144 0.000657891 4.45882e-07
0.000657891 0.000452788 2.46535e-07
4.45882e-07 2.46535e-07 -4.78945e-05
0.00270346 0.000669936 -1.85873e-06
0.000669936 0.00104519 8.02733e-06
-1.85873e-06 8.02733e-06 0.000634044
0.00263556 0.000801963 -4.72312e-06
0.000801963 0.000490658 -1.25594e-07
-4.72312e-06 -1.25594e-07 0.000160063
0.00284032 0.000812717 -5.7494e-06
0.000812717 0.0004772 6.38061e-06
-5.7494e-06 6.38061e-06 0.000189036
0.00174116 0.000953281 -4.33149e-06
0.000953281 0.000494871 2.35984e-06
-4.33149e-06 2.35984e-06 -0.000107311
0.00213784 0.00110427 -1.47444e-05
0.00110427 0.000460176 -8.09098e-07
-1.47444e-05 -8.09098e-07 -0.00011543
-0.000423998 0.000106414 2.10718e-06
0.000106414 -0.000431009 1.67752e-06
2.10718e-06 1.67752e-06 -0.000676664
0.000322365 0.000389111 5.80804e-06
0.000389111 0.000142711 -1.85981e-06
5.80804e-06 -1.85981e-06 -0.000266788
0.0017334 0.000790447 2.69242e-07
0.000790447 0.000569763 -3.77899e-07
2.69242e-07 -3.77899e-07 3.5601e-05
0.00210271 0.000539596 -6.15304e-06
0.000539596 0.00072353 7.64279e-08
-6.15304e-06 7.64279e-08 0.000369182
0.0026042 0.000612051 1.3129e-07
0.000612051 -0.000173207 -1.02391e-06
1.3129e-07 -1.02391e-06 -6.09441e-05
0.00275632 0.000818071 3.19626e-06
0.000818071 0.000293743 -5.87027e-07
3.19626e-06 -5.87027e-07 8.05908e-05
0.00236419 0.000940482 -3.44302e-06
0.000940482 0.00036218 -1.19653e-08
-3.44302e-06 -1.19653e-08 -8.11355e-05
0.00226723 0.00110069 2.11536e-06
0.00110069 0.00062912 4.9197e-07
2.11536e-06 4.9197e-07 3.18274e-06
-0.000818992 2.52523e-05 -5.18603e-06
2.52523e-05 -0.000655736 -1.64462e-06
-5.18603e-06 -1.64462e-06 -0.000851209
0.00252988 0.000430002 -1.57495e-06
0.000430002 -0.000239657 -1.42829e-06
-1.57495e-06 -1.42829e-06 -9.841e-05
0.00263197 0.000670049 -7.5285e-06
0.000670049 0.00154932 8.6969e-06
-7.5285e-06 8.6969e-06 0.00106783
0.00175307 0.000759531 3.79539e-07
0.000759531 0.000490708 -3.4982e-06
3.79539e-07 -3.4982e-06 -1.59417e-06
0.00271137 0.000796656 -1.58412e-05
0.000796656 3.84805e-05 -9.62998e-06
-1.58412e-05 -9.62998e-06 5.93293e-05
0.00130952 0.000858803 6.5923e-06
0.000858803 -0.000353817 -1.00406e-05
6.5923e-06 -1.00406e-05 -0.000759181
0.00312333 0.00123529 4.31683e-06
0.00123529 0.00106366 4.44064e-06
4.31683e-06 4.44064e-06 0.000407577
0.000122825 0.000140169 9.71987e-07
0.000140169 -9.30922e-05 3.68037e-06
9.71987e-07 3.68037e-06 -0.000263711
0.000435659 0.000143775 -2.16024e-06
0.000143775 0.00011304 -6.87141e-07
-2.16024e-06 -6.87141e-07 -7.36657e-06
0.000276937 9.93917e-05 -4.02064e-06
9.93917e-05 4.27812e-05 -5.29835e-06
-4.02064e-06 -5.29835e-06 -4.52249e-05
0.000248562 5.30701e-06 2.1644e-06
5.30701e-06 -6.47027e-05 -3.54023e-06
2.1644e-06 -3.54023e-06 -0.000195035
0.000520758 0.00011282 3.32396e-06
0.00011282 0.00019444 -3.71457e-06
3.32396e-06 -3.71457e-06 -1.65903e-05
-0.000426896 0.000171944 -5.45504e-06
0.000171944 -0.00036787 1.38284e-05
-5.45504e-06 1.38284e-05 -0.00053567
0.000504054 3.08541e-05 -1.69003e-06
3.08541e-05 0.000104382 -1.22702e-07
-1.69003e-06 -1.22702e-07 -3.56284e-05
0.000201007 8.41243e-06 -3.2451e-07
8.41243e-06 -2.63245e-05 -5.8063e-07
-3.2451e-07 -5.8063e-07 -0.000222696
-2.03626e-05 9.44741e-05 -5.99342e-06
9.44741e-05 -0.000225058 3.19954e-06
-5.99342e-06 3.19954e-06 -0.000299131
0.000764316 0.000161365 1.98723e-06
0.000161365 0.000360176 -1.71896e-06
1.98723e-06 -1.71896e-06 0.000138346
0.00203558 0.00021878 -1.42315e-06
0.00021878 0.00103583 -1.08969e-05
-1.42315e-06 -1.08969e-05 0.000973655
-0.000345187 2.58683e-05 1.34513e-05
2.58683e-05 -0.000407252 -1.3982e-05
1.34513e-05 -1.3982e-05 -0.000509902
0.000518943 0.000130238 -3.40475e-07
0.000130238 0.000210256 1.90982e-06
-3.40475e-07 1.90982e-06 -1.52872e-05
0.0005448 6.96624e-05 -2.05477e-07
6.96624e-05 0.00016705 2.99527e-06
-2.05477e-07 2.99527e-06 -3.37263e-05
0.000540152 2.51242e-05 1.72467e-06
2.51242e-05 0.000111239 3.20476e-06
1.72467e-06 3.20476e-06 -2.89051e-05
0.000477475 -7.45074e-05 -1.73957e-06
-7.45074e-05 5.3314e-05 3.11533e-06
-1.73957e-06 3.11533e-06 -3.97954e-05
0.000455413 1.62966e-05 6.38404e-07
1.62966e-05 3.33133e-05 -4.79638e-07
6.38404e-07 -4.79638e-07 -5.38973e-05
0.00132394 2.81572e-05 3.64445e-06
2.81572e-05 0.000569789 3.86589e-06
3.64445e-06 3.86589e-06 0.000545584
0.000453286 1.5654e-05 1.40844e-06
1.5654e-05 2.14562e-05 -4.02374e-06
1.40844e-06 -4.02374e-06 -5.68433e-05
0.00134764 1.97375e-05 -1.00951e-05
1.97375e-05 0.000581943 -1.99505e-06
-1.00951e-05 -1.99505e-06 0.00055726
0.000752755 -1.66657e-06 3.08898e-05
-1.66657e-06 0.000188272 9.68184e-06
3.08898e-05 9.68184e-06 0.000191441
0.00132275 -1.53176e-05 -1.02095e-05
-1.53176e-05 0.000558469 -7.99277e-06
-1.02095e-05 -7.99277e-06 0.000536377
0.000747727 -1.49952e-05 1.26214e-05
-1.49952e-05 0.000176878 3.82834e-06
1.26214e-05 3.82834e-06 0.000178559
0.00076984 -2.96584e-05 1.87719e-06
-2.96584e-05 0.000187432 -3.48726e-06
1.87719e-06 -3.48726e-06 0.000186064
0.000536725 -1.74747e-05 -4.62371e-08
-1.74747e-05 6.66902e-05 -3.82287e-06
-4.62371e-08 -3.82287e-06 3.51427e-06
0.000285544 3.08662e-05 -9.8798e-07
3.08662e-05 -0.000107983 -6.04042e-06
-9.8798e-07 -6.04042e-06 -0.000136583
0.000350719 4.21862e-05 1.09709e-06
4.21862e-05 -5.67708e-05 4.83228e-07
1.09709e-06 4.83228e-07 -9.50435e-05
0.00276997 0.000118708 7.52101e-07
0.000118708 0.00151357 -6.62619e-06
7.52101e-07 -6.62619e-06 0.00150975
0.000354055 2.99557e-05 1.41125e-06
2.99557e-05 -5.52204e-05 9.85741e-06
1.41125e-06 9.85741e-06 -0.000101454
0.00317695 0.000166294 -5.96543e-06
0.000166294 0.00179537 -7.30375e-07
-5.96543e-06 -7.30375e-07 0.00177931
0.00403053 0.000116006 -7.60895e-05
0.000116006 0.00233581 9.87006e-06
-7.60895e-05 9.87006e-06 0.00232657
0.00241105 0.000452255 2.19728e-06
0.000452255 -3.80837e-05 3.87325e-07
2.19728e-06 3.87325e-07 -1.02776e-05
0.00229543 0.000231 1.34312e-06
0.000231 -6.83567e-05 -6.15914e-07
1.34312e-06 -6.15914e-07 -2.6759e-06
0.00219272 7.92402e-05 -7.77987e-08
7.92402e-05 -8.2388e-05 -7.39162e-07
-7.77987e-08 -7.39162e-07 -1.29475e-05
0.00213562 -1.32578e-05 -3.48105e-06
-1.32578e-05 -5.4927e-06 1.08949e-07
-3.48105e-06 1.08949e-07 1.89035e-05
0.00220739 -1.19563e-05 -4.15947e-07
-1.19563e-05 -7.27046e-05 1.48457e-07
-4.15947e-07 1.48457e-07 -3.57761e-06
0.00233119 0.000118833 7.91208e-07
0.000118833 -0.000112048 5.0838e-07
7.91208e-07 5.0838e-07 8.17341e-06
0.00248439 0.00034978 -6.93162e-07
0.00034978 -8.60114e-05 -4.09691e-07
-6.93162e-07 -4.09691e-07 8.18269e-06
0.00230528 -1.48541e-05 -7.91736e-08
-1.48541e-05 -0.000139969 -5.49871e-07
-7.91736e-08 -5.49871e-07 -4.24273e-06
0.00265279 0.000165333 -3.79748e-06
0.000165333 -8.67111e-05 1.30011e-06
-3.79748e-06 1.30011e-06 6.6476e-05
0.00242365 0.000144683 -6.53449e-07
0.000144683 -0.000227014 5.16604e-06
-6.53449e-07 5.16604e-06 -7.88629e-05
0.00224186 -0.000108177 -2.04893e-07
-0.000108177 -3.91187e-05 9.87581e-07
-2.04893e-07 9.87581e-07 1.78467e-05
0.00234386 -0.000314007 -5.63155e-07
-0.000314007 -0.000110733 8.16662e-07
-5.63155e-07 8.16662e-07 -1.98815e-05
0.00241897 -0.000517507 1.68451e-06
-0.000517507 -1.8996e-05 1.21157e-07
1.68451e-06 1.21157e-07 8.38798e-06
0.00184435 -0.000893082 -1.01865e-06
-0.000893082 0.000600659 -2.92847e-06
-1.01865e-06 -2.92847e-06 8.90485e-06
0.0018163 -0.00102691 3.71178e-05
-0.00102691 0.000408652 -6.96146e-06
3.71178e-05 -6.96146e-06 -0.000212259
0.00250311 -0.000984456 1.57377e-05
-0.000984456 0.000559696 -5.23171e-06
1.57377e-05 -5.23171e-06 8.16339e-05
0.00243223 -0.000716835 3.29628e-06
-0.000716835 3.49348e-05 -9.7549e-07
3.29628e-06 -9.7549e-07 -2.93593e-05
0.00235956 -0.000857416 8.81816e-06
-0.000857416 0.000264477 -4.29544e-07
8.81816e-06 -4.29544e-07 -9.12305e-06
0.000759306 -0.000619449 -9.88335e-07
-0.000619449 0.000101723 -2.45707e-05
-9.88335e-07 -2.45707e-05 -0.000436871
0.00121255 -0.000531843 6.1775e-06
-0.000531843 0.000533498 -2.07703e-05
6.1775e-06 -2.07703e-05 -7.94751e-05
-0.000359787 -0.000176446 1.55848e-06
-0.000176446 -0.000580347 6.82799e-06
1.55848e-06 6.82799e-06 -0.000932441
0.00046641 1.39759e-05 7.55796e-07
1.39759e-05 5.1029e-05 4.12163e-06
7.55796e-07 4.12163e-06 -4.42842e-05
-5.07265e-05 -1.41317e-05 6.76065e-06
-1.41317e-05 -0.000218739 1.87154e-06
6.76065e-06 1.87154e-06 -0.000444014
0.0011015 -0.000314771 2.42545e-06
-0.000314771 0.000564015 6.36641e-06
2.42545e-06 6.36641e-06 0.000191028
0.00232733 -0.000151045 2.88759e-07
-0.000151045 -0.000127398 2.07738e-07
2.88759e-07 2.07738e-07 9.55709e-07
0.000437669 -1.04159e-06 1.83109e-06
-1.04159e-06 1.20362e-05 4.18007e-07
1.83109e-06 4.18007e-07 -6.3302e-05
0.000332324 -8.70259e-05 -4.20937e-06
-8.70259e-05 -1.80758e-05 -1.26339e-06
-4.20937e-06 -1.26339e-06 -0.000138641
0.00251047 -0.000433361 -3.57679e-07
-0.000433361 -0.000134722 -2.19657e-07
-3.57679e-07 -2.19657e-07 7.45988e-06
0.00247266 -0.0006495 -1.94203e-06
-0.0006495 -4.2488e-05 3.0781e-07
-1.94203e-06 3.0781e-07 -9.73685e-06
0.00207378 -0.000973515 1.55097e-06
-0.000973515 0.000763175 2.3281e-06
1.55097e-06 2.3281e-06 0.00015174
0.00246932 -0.00122224 1.11916e-05
-0.00122224 0.000720902 -1.55932e-06
1.11916e-05 -1.55932e-06 4.19633e-05
0.00241062 -0.00105977 1.85658e-06
-0.00105977 0.000417948 -3.06154e-06
1.85658e-06 -3.06154e-06 -3.69696e-05
0.00253723 -0.000898327 2.36174e-06
-0.000898327 0.000125601 -1.04725e-06
2.36174e-06 -1.04725e-06 -2.60176e-05
0.000643374 4.09924e-07 -1.62941e-06
4.09924e-07 0.000233839 -9.58985e-07
-1.62941e-06 -9.58985e-07 6.3558e-05
0.000766954 -0.000125305 4.52522e-07
-0.000125305 0.000341838 1.96626e-06
4.52522e-07 1.96626e-06 3.97409e-05
0.00135542 -0.000733622 1.06472e-05
-0.000733622 0.000475937 1.21338e-05
1.06472e-05 1.21338e-05 -5.86165e-05
0.00217817 -0.000698843 2.77746e-05
-0.000698843 0.00114402 -1.62108e-05
2.77746e-05 -1.62108e-05 0.000418982
0.00074693 -0.000264541 -3.05846e-06
-0.000264541 0.000310529 -8.2405e-08
-3.05846e-06 -8.2405e-08 -0.000179758
-0.000107336 -0.000250256 3.07695e-06
-0.000250256 -0.000270641 -3.13911e-06
3.07695e-06 -3.13911e-06 -0.000603106
0.00234775 -0.000172114 -2.20207e-06
-0.000172114 -0.000335056 2.93057e-06
-2.20207e-06 2.93057e-06 -0.000141648
0.00257854 -0.000570931 -1.13511e-06
-0.000570931 -0.000244778 8.0331e-07
-1.13511e-06 8.0331e-07 1.31034e-05
0.0029076 -0.000936878 -5.15447e-06
-0.000936878 0.000149466 5.90129e-08
-5.15447e-06 5.90129e-08 0.000109385
0.00277937 -0.00114819 7.60375e-06
-0.00114819 0.00037942 -1.37983e-06
7.60375e-06 -1.37983e-06 6.54158e-05
0.00123363 -0.000935886 -3.62261e-07
-0.000935886 0.000341981 -7.77172e-06
-3.62261e-07 -7.77172e-06 -0.000276859
0.00367433 -0.00148711 -9.41137e-06
-0.00148711 0.00124962 5.39388e-06
-9.41137e-06 5.39388e-06 0.000536006
0.000270397 6.75061e-05 -3.94366e-06
6.75061e-05 -6.6051e-05 -9.04885e-06
-3.94366e-06 -9.04885e-06 -0.00018619
0.000339636 -5.96781e-05 7.09466e-06
-5.96781e-05 -1.34078e-05 -3.57177e-06
7.09466e-06 -3.57177e-06 -0.000125026
0.00182892 -0.000244029 -8.95788e-06
-0.000244029 0.000914274 1.27687e-05
-8.95788e-06 1.27687e-05 0.00074696
0.000295811 3.15246e-05 -4.63448e-06
3.15246e-05 -5.49172e-06 1.45095e-06
-4.63448e-06 1.45095e-06 -0.000219706
0.00116991 -0.000246936 -1.18949e-05
-0.000246936 0.000590763 7.03743e-06
-1.18949e-05 7.03743e-06 0.000245849
-0.000701588 -0.000107086 4.77906e-07
-0.000107086 -0.000709582 -2.58953e-05
4.77906e-07 -2.58953e-05 -0.000984908
-0.00133674 -0.000311136 -1.28088e-05
-0.000311136 -0.000539978 6.06808e-06
-1.28088e-05 6.06808e-06 -0.00151459
0.000959765 -0.000917167 -5.95716e-05
-0.000917167 0.000104919 3.331e-05
-5.95716e-05 3.331e-05 -0.000306336
-6.8223e-05 0.000258767 8.26299e-08
0.000258767 -0.000143177 -1.13719e-06
8.26299e-08 -1.13719e-06 -0.000445317
0.00370779 0.000594893 -1.57699e-05
0.000594893 0.00222905 -6.3454e-06
-1.57699e-05 -6.3454e-06 0.00183264
0.00255181 0.000584359 -2.86712e-06
0.000584359 -0.000232697 1.55684e-08
-2.86712e-06 1.55684e-08 -9.9381e-05
0.00285078 0.000829652 -5.99651e-06
0.000829652 0.000347289 -1.50689e-06
-5.99651e-06 -1.50689e-06 0.000120987
0.00299795 0.000596197 -6.7196e-06
0.000596197 0.00130464 2.81414e-06
-6.7196e-06 2.81414e-06 0.000947697
0.00153566 0.000787261 -1.05119e-05
0.000787261 0.000410443 1.14871e-09
-1.05119e-05 1.14871e-09 -0.000132538
0.00220002 0.000900865 -6.24128e-06
0.000900865 0.000302034 2.26846e-06
-6.24128e-06 2.26846e-06 -0.000126795
0.0026179 0.00112457 -1.10605e-05
0.00112457 0.000820133 -1.4199e-06
-1.10605e-05 -1.4199e-06 0.000199489
-2.44505e-06 0.000200462 2.55088e-06
0.000200462 -7.99731e-05 -1.0313e-07
2.55088e-06 -1.0313e-07 -0.000339611
0.00256603 0.000416524 -1.34369e-06
0.000416524 -0.000217291 -2.52547e-06
-1.34369e-06 -2.52547e-06 -6.24643e-05
0.00154416 0.000489797 3.63836e-06
0.000489797 0.000881175 7.56302e-06
3.63836e-06 7.56302e-06 0.000466568
0.00157721 0.000721294 3.64844e-06
0.000721294 0.000421814 1.94645e-06
3.64844e-06 1.94645e-06 -6.1867e-05
0.0028307 0.000774036 6.49923e-07
0.000774036 0.000149679 -4.57309e-07
6.49923e-07 -4.57309e-07 0.000162603
0.00199412 0.000946946 -2.49612e-06
0.000946946 4.25767e-05 -6.04396e-06
-2.49612e-06 -6.04396e-06 -0.000378371
0.00261053 0.00114072 -1.82804e-06
0.00114072 0.000787775 -5.3334e-07
-1.82804e-06 -5.3334e-07 0.000157115
0.00176615 0.000422247 -6.39104e-06
0.000422247 0.00113563 -3.08738e-06
-6.39104e-06 -3.08738e-06 0.00079055
0.00410493 0.000749218 -0.000103091
0.000749218 0.000620336 -3.80297e-05
-0.000103091 -3.80297e-05 0.000904762
0.0012209 0.000602967 -1.08952e-05
0.000602967 0.00059839 9.24091e-06
-1.08952e-05 9.24091e-06 0.00013127
0.0013011 0.00078488 -7.4048e-06
0.00078488 0.000225294 -1.02879e-05
-7.4048e-06 -1.02879e-05 -0.000323131
0.00337888 0.00109982 -4.29878e-05
0.00109982 0.000664243 -2.39597e-05
-4.29878e-05 -2.39597e-05 0.000385109
0.00102699 0.000934661 -3.13402e-05
0.000934661 -0.000117988 -2.80595e-06
-3.13402e-05 -2.80595e-06 -0.000670531
0.00151452 0.00146397 1.10259e-05
0.00146397 -0.00219695 -6.48837e-05
1.10259e-05 -6.48837e-05 -0.00115444
0.000257532 0.000178059 8.43901e-06
0.000178059 3.90875e-05 7.13344e-06
8.43901e-06 7.13344e-06 -9.67514e-05
0.000214673 0.000132351 2.53292e-06
0.000132351 3.63874e-05 8.48654e-07
2.53292e-06 8.48654e-07 -7.14737e-05
0.000149502 0.000107199 2.07528e-06
0.000107199 -2.67779e-05 -7.55328e-06
2.07528e-06 -7.55328e-06 -0.000123572
0.000353054 -6.65062e-05 2.30456e-06
-6.65062e-05 1.21363e-05 -4.60913e-06
2.30456e-06 -4.60913e-06 -0.00012988
9.47651e-05 -9.4523e-06 4.58807e-07
-9.4523e-06 -9.41215e-05 -2.84369e-06
4.58807e-07 -2.84369e-06 -0.000290188
0.00158202 0.000281809 -2.81252e-07
0.000281809 0.000882196 4.55107e-07
-2.81252e-07 4.55107e-07 0.000650369
-0.000699813 6.04902e-05 -7.93763e-06
6.04902e-05 -0.000624592 2.34402e-05
-7.93763e-06 2.34402e-05 -0.000692597
0.000477007 -1.4686e-05 -2.14939e-07
-1.4686e-05 8.81411e-05 -2.84321e-07
-2.14939e-07 -2.84321e-07 -6.13226e-05
0.000396191 9.0234e-05 2.75848e-07
9.0234e-05 4.10241e-05 -4.03924e-07
2.75848e-07 -4.03924e-07 -0.000132205
0.000551855 0.000144438 5.15472e-06
0.000144438 0.000114402 3.30687e-06
5.15472e-06 3.30687e-06 6.73123e-05
0.000308303 8.79264e-05 1.19387e-06
8.79264e-05 4.71156e-05 6.74467e-07
1.19387e-06 6.74467e-07 -0.000158054
0.000485079 9.25573e-05 1.45223e-07
9.25573e-05 0.000106106 -1.89692e-06
1.45223e-07 -1.89692e-06 -9.11705e-06
0.000667124 0.000140001 -1.08953e-06
0.000140001 0.000261202 -1.67467e-05
-1.08953e-06 -1.67467e-05 0.00017751
0.000903675 0.000173324 -3.69869e-06
0.000173324 0.000357423 -8.0546e-06
-3.69869e-06 -8.0546e-06 0.000194833
0.00106976 0.000155994 7.1621e-07
0.000155994 0.000511936 3.10412e-06
7.1621e-07 3.10412e-06 0.000306594
0.000794858 0.000127762 -2.44034e-06
0.000127762 0.000309872 -6.80207e-07
-2.44034e-06 -6.80207e-07 0.000114669
0.000186596 -2.17565e-05 -2.18931e-06
-2.17565e-05 -0.000126559 9.1616e-07
-2.18931e-06 9.1616e-07 -0.000265867
0.00132319 -0.00013126 1.68969e-06
-0.00013126 0.000731673 -2.40361e-06
1.68969e-06 -2.40361e-06 0.000488488
7.87434e-05 -5.41657e-05 -5.73344e-07
-5.41657e-05 -0.000184497 3.32983e-06
-5.73344e-07 3.32983e-06 -0.000328262
0.000395894 3.67271e-06 -2.03766e-06
3.67271e-06 8.65897e-06 3.13181e-06
-2.03766e-06 3.13181e-06 -8.79543e-05
0.000420224 4.49959e-05 2.43526e-06
4.49959e-05 2.19613e-05 -8.3845e-08
2.43526e-06 -8.3845e-08 -7.37916e-05
0.00032423 2.05657e-05 -2.0027e-06
2.05657e-05 -6.84572e-05 5.04979e-06
-2.0027e-06 5.04979e-06 -9.76335e-05
0.000350661 -4.24054e-07 -1.13168e-06
-4.24054e-07 -2.17929e-05 -4.26468e-06
-1.13168e-06 -4.26468e-06 -0.000116831
0.000851773 1.75233e-05 -4.42097e-06
1.75233e-05 0.000267657 -1.52372e-06
-4.42097e-06 -1.52372e-06 0.000241171
0.00266193 3.6253e-06 2.84373e-05
3.6253e-06 0.00142134 6.05185e-06
2.84373e-05 6.05185e-06 0.00143345
0.00141145 5.00442e-05 -1.68029e-05
5.00442e-05 0.000626086 -8.10076e-06
-1.68029e-05 -8.10076e-06 0.000600184
0.000765966 -5.82668e-06 1.20206e-05
-5.82668e-06 0.000192974 3.79274e-06
1.20206e-05 3.79274e-06 0.000195023
0.000835662 -1.93686e-05 1.59928e-06
-1.93686e-05 0.000230133 -3.32222e-06
1.59928e-06 -3.32222e-06 0.000230815
0.000411927 9.84153e-06 -2.64429e-06
9.84153e-06 -3.03507e-06 -4.86008e-06
-2.64429e-06 -4.86008e-06 -6.52702e-05
0.000518866 -4.1455e-05 5.47562e-07
-4.1455e-05 6.36672e-05 -2.1721e-07
5.47562e-07 -2.1721e-07 -4.59358e-06
0.000415652 2.448e-05 -4.9566e-07
2.448e-05 -3.35014e-05 -4.87121e-06
-4.9566e-07 -4.87121e-06 -5.44949e-05
0.000795272 4.82682e-05 1.46656e-07
4.82682e-05 0.000223493 1.75283e-07
1.46656e-07 1.75283e-07 0.000195351
0.00251294 8.99233e-05 1.31644e-06
8.99233e-05 0.0013385 -5.80996e-06
1.31644e-06 -5.80996e-06 0.00134171
0.000462847 6.12705e-05 5.55932e-06
6.12705e-05 2.56921e-05 8.11829e-06
5.55932e-06 8.11829e-06 -1.82443e-05
0.00273811 0.000123458 -2.21885e-06
0.000123458 0.00149552 -1.96983e-07
-2.21885e-06 -1.96983e-07 0.00149046
0.00322669 0.000140096 -2.84861e-06
0.000140096 0.00181665 7.99119e-06
-2.84861e-06 7.99119e-06 0.0018056
0.0023847 0.000360348 1.97817e-06
0.000360348 -0.000135335 2.47258e-07
1.97817e-06 2.47258e-07 -3.99909e-05
0.00232131 0.000114798 2.60722e-06
0.000114798 -0.000111295 -1.73513e-06
2.60722e-06 -1.73513e-06 7.04892e-06
0.00221367 -7.46436e-06 -7.86583e-07
-7.46436e-06 -7.31325e-05 5.09352e-08
-7.86583e-07 5.09352e-08 -7.01096e-08
0.00230684 -6.26626e-06 -2.28447e-08
-6.26626e-06 -0.000137557 -1.64813e-07
-2.28447e-08 -1.64813e-07 -1.03444e-06
0.00257896 0.000174913 1.7817e-06
0.000174913 -0.000113538 -3.53782e-07
1.7817e-06 -3.53782e-07 3.66897e-05
0.00253653 0.000127122 3.53689e-06
0.000127122 -0.000169987 -2.72714e-06
3.53689e-06 -2.72714e-06 -2.70428e-05
0.00272335 2.36755e-05 -6.72951e-06
2.36755e-05 -0.000139023 2.70518e-06
-6.72951e-06 2.70518e-06 6.86574e-05
0.00547477 0.00148751 7.69058e-05
0.00148751 -0.00103971 1.36525e-05
7.69058e-05 1.36525e-05 0.000358724
0.00292741 0.000125303 -3.71067e-05
0.000125303 0.000187684 2.03683e-05
-3.71067e-05 2.03683e-05 0.000492826
0.000468184 0.000122469 -4.4296e-06
0.000122469 7.42875e-05 -4.55463e-06
-4.4296e-06 -4.55463e-06 -4.05588e-05
0.00232622 -0.000153856 1.71037e-06
-0.000153856 -0.000138602 8.071e-07
1.71037e-06 8.071e-07 -5.84042e-06
0.00247147 -0.000422454 1.8643e-06
-0.000422454 -0.000136436 2.0844e-06
1.8643e-06 2.0844e-06 -9.40599e-06
0.00245819 -0.000635989 1.48536e-06
-0.000635989 -3.90679e-05 -3.03057e-07
1.48536e-06 -3.03057e-07 2.50622e-06
0.00176041 -0.000957515 -6.01629e-06
-0.000957515 0.000580614 7.55488e-06
-6.01629e-06 7.55488e-06 -2.80171e-05
0.00257768 -0.00120944 3.78064e-05
-0.00120944 0.000802042 1.81597e-06
3.78064e-05 1.81597e-06 0.000135909
0.00213963 -0.00101967 -1.11192e-06
-0.00101967 0.000263788 -2.17312e-06
-1.11192e-06 -2.17312e-06 -0.000173948
0.00251868 -0.000902351 2.63907e-06
-0.000902351 0.000109527 -2.01388e-06
2.63907e-06 -2.01388e-06 -3.69852e-05
0.00156813 -0.000724533 3.03554e-05
-0.000724533 0.000513178 -5.49552e-05
3.03554e-05 -5.49552e-05 4.59907e-05
0.00158912 -0.000642605 1.86336e-05
-0.000642605 0.000754972 -5.67377e-05
1.86336e-05 -5.67377e-05 6.70269e-05
0.000931243 -0.000252717 1.37435e-05
-0.000252717 0.000378539 7.23983e-06
1.37435e-05 7.23983e-06 -7.4922e-05
0.000440123 5.60497e-06 3.36007e-06
5.60497e-06 1.69569e-05 4.22042e-06
3.36007e-06 4.22042e-06 -6.06024e-05
0.00140497 -0.000313757 2.31139e-06
-0.000313757 0.000692452 1.56265e-05
2.31139e-06 1.56265e-05 0.000336269
0.00101069 -4.93597e-05 6.63514e-06
-4.93597e-05 0.000495969 1.08399e-06
6.63514e-06 1.08399e-06 0.000309624
0.000494556 -0.000121385 4.7158e-06
-0.000121385 0.00014691 -7.93419e-09
4.7158e-06 -7.93419e-09 -0.000141794
-0.000293194 -1.73375e-05 -4.87032e-06
-1.73375e-05 -0.000438811 4.08933e-06
-4.87032e-06 4.08933e-06 -0.000546259
0.00247982 -0.000199158 -8.13911e-07
-0.000199158 -0.000269489 -5.04853e-07
-8.13911e-07 -5.04853e-07 -5.73711e-05
0.000384567 5.47898e-05 7.54936e-07
5.47898e-05 2.28949e-05 -2.73169e-06
7.54936e-07 -2.73169e-06 -0.000103646
0.000606913 -9.05689e-05 3.12875e-06
-9.05689e-05 0.0001948 1.61157e-06
3.12875e-06 1.61157e-06 5.79154e-05
0.00104105 -0.000137614 7.34364e-06
-0.000137614 0.000398467 -8.26873e-07
7.34364e-06 -8.26873e-07 0.000258837
0.0025548 -0.000585602 2.23731e-06
-0.000585602 -0.000251498 -6.6636e-07
2.23731e-06 -6.6636e-07 -2.55352e-05
0.00276001 -0.000916017 -3.90621e-07
-0.000916017 7.37372e-05 -1.92809e-07
-3.90621e-07 -1.92809e-07 4.25154e-05
0.000742655 -0.000778259 7.43367e-06
-0.000778259 2.28724e-05 -5.14617e-07
7.43367e-06 -5.14617e-07 -0.000496523
0.00279865 -0.00136165 1.64343e-05
-0.00136165 0.000764832 1.17362e-06
1.64343e-05 1.17362e-06 8.88354e-05
0.00265912 -0.00114493 3.7358e-08
-0.00114493 0.000320781 1.29384e-06
3.7358e-08 1.29384e-06 -2.45181e-06
0.00023429 -2.09055e-05 -5.13064e-07
-2.09055e-05 -5.27434e-05 -2.78663e-07
-5.13064e-07 -2.78663e-07 -0.00025663
0.00143377 -0.00024805 3.00345e-06
-0.00024805 0.000776102 3.46112e-06
3.00345e-06 3.46112e-06 0.000412965
0.00213854 -0.00109834 -1.1132e-06
-0.00109834 0.000787794 4.84249e-06
-1.1132e-06 4.84249e-06 0.000220655
0.00154391 -0.000407157 -7.80636e-07
-0.000407157 0.000916993 8.59168e-06
-7.80636e-07 8.59168e-06 0.000196952
0.00161093 -0.000256958 6.49817e-06
-0.000256958 0.000778289 1.05712e-05
6.49817e-06 1.05712e-05 0.000459903
0.002887 -0.000405369 -1.40269e-05
-0.000405369 -9.00176e-05 1.014e-05
-1.40269e-05 1.014e-05 0.000169905
0.00231834 -0.00066699 -1.55363e-05
-0.00066699 -0.000376647 6.43419e-06
-1.55363e-05 6.43419e-06 -6.57697e-05
0.0026886 -0.00109195 -1.38801e-05
-0.00109195 0.000189322 -3.35419e-06
-1.38801e-05 -3.35419e-06 -3.89199e-05
0.00465451 -0.00155708 9.20068e-07
-0.00155708 0.00163858 6.34921e-06
9.20068e-07 6.34921e-06 0.00111612
0.00013576 -0.000912945 -1.39978e-05
-0.000912945 -0.000435044 1.50673e-05
-1.39978e-05 1.50673e-05 -0.000961892
3.44788e-05 -2.17275e-05 -1.37849e-06
-2.17275e-05 -0.000206689 -1.17537e-06
-1.37849e-06 -1.17537e-06 -0.000334046
0.000775649 1.3497e-06 -3.27345e-06
1.3497e-06 0.000185642 1.17471e-05
-3.27345e-06 1.17471e-05 3.58169e-05
-0.000283437 -0.00019095 -1.16857e-05
-0.00019095 -0.000405603 -4.7957e-06
-1.16857e-05 -4.7957e-06 -0.000560809
0.00192871 -0.000335586 -4.44892e-05
-0.000335586 0.00102837 3.37461e-05
-4.44892e-05 3.37461e-05 0.00072438
0.000849761 -0.000183742 -5.46801e-06
-0.000183742 0.000363823 2.55329e-05
-5.46801e-06 2.55329e-05 5.75806e-05
-0.00154735 -7.10788e-05 7.73176e-06
-7.10788e-05 -0.000610528 4.14237e-06
7.73176e-06 4.14237e-06 -0.0013702
0.00141431 -0.00116529 -9.08036e-06
-0.00116529 0.000695857 -7.21336e-06
-9.08036e-06 -7.21336e-06 -8.49478e-05
0.0021279 0.000503498 3.17744e-06
0.000503498 0.00126696 -2.50791e-06
3.17744e-06 -2.50791e-06 0.000955477
0.000272653 0.000297046 -2.56278e-06
0.000297046 0.000127435 -3.75889e-07
-2.56278e-06 -3.75889e-07 -0.000220428
0.0025969 0.000396867 1.39171e-05
0.000396867 -0.000202617 6.06612e-06
1.39171e-05 6.06612e-06 -2.75485e-05
0.00294965 0.000753484 1.57813e-05
0.000753484 0.000250781 1.00391e-05
1.57813e-05 1.00391e-05 0.000261788
0.00262479 0.00102851 6.10348e-06
0.00102851 0.00040741 3.5755e-06
6.10348e-06 3.5755e-06 -2.63767e-05
0.0014182 0.000683429 -2.48761e-06
0.000683429 0.000375841 2.41088e-06
-2.48761e-06 2.41088e-06 -9.93198e-05
0.00211521 0.00105302 1.8731e-06
0.00105302 0.000523193 3.94744e-06
1.8731e-06 3.94744e-06 -8.356e-05
0.00256918 0.00047479 -2.83027e-07
0.00047479 0.00158133 1.29446e-06
-2.83027e-07 1.29446e-06 0.00127756
0.00308067 0.000593789 1.26418e-05
0.000593789 6.02236e-05 5.66584e-06
1.26418e-05 5.66584e-06 0.000412322
0.00116747 0.000528336 -6.66582e-06
0.000528336 0.000528601 4.98817e-06
-6.66582e-06 4.98817e-06 0.000117452
0.00178664 0.000863208 2.59166e-06
0.000863208 0.000550898 -2.3488e-06
2.59166e-06 -2.3488e-06 -3.12558e-05
0.00298407 0.0010415 -1.88388e-06
0.0010415 0.000479428 -3.99723e-06
-1.88388e-06 -3.99723e-06 0.000238277
0.00218458 0.00109849 -6.8059e-06
0.00109849 0.000517413 7.41468e-06
-6.8059e-06 7.41468e-06 -7.57027e-05
0.00310573 0.00180597 5.87907e-05
0.00180597 -0.00167846 1.31113e-05
5.87907e-05 1.31113e-05 -0.000810183
0.000567776 0.000356427 9.49035e-07
0.000356427 0.000456585 8.35532e-07
9.49035e-07 8.35532e-07 8.58991e-05
0.00448782 0.00123626 -0.000123471
0.00123626 0.000896155 -5.21369e-05
-0.000123471 -5.21369e-05 0.000914999
-1.04492e-05 0.000477273 -2.10845e-05
0.000477273 -0.000402992 6.35559e-06
-2.10845e-05 6.35559e-06 -0.000822931
0.000235926 0.000743021 -6.64759e-06
0.000743021 -0.000389074 -2.06992e-05
-6.64759e-06 -2.06992e-05 -0.00091802
0.00176428 0.00118824 -4.89029e-05
0.00118824 1.93237e-05 -2.23537e-05
-4.89029e-05 -2.23537e-05 -0.000386184
0.0158142 0.000860388 -0.000771351
0.000860388 0.00113688 -0.000104383
-0.000771351 -0.000104383 0.00151827
0.00248318 0.00265908 -0.000116073
0.00265908 -0.00414173 -0.000108495
-0.000116073 -0.000108495 -0.00111625
0.00128448 0.00216424 2.01032e-05
0.00216424 -0.000899465 -5.27553e-06
2.01032e-05 -5.27553e-06 -0.00102491
0.00424819 -0.00455519 0.00279266
-0.00455519 0.00261555 0.00026671
0.00279266 0.00026671 -0.0032046
0.0307455 -0.0143092 -7.52246e-05
-0.0143092 0.016726 5.21578e-05
-7.52246e-05 5.21578e-05 0.00788015
0.00109135 0.000204252 6.87318e-06
0.000204252 0.000595983 1.07071e-05
6.87318e-06 1.07071e-05 0.00046872
0.000878148 0.0001482 -2.38589e-06
0.0001482 0.000469977 -5.94744e-07
-2.38589e-06 -5.94744e-07 0.00034838
0.000306823 0.000180485 1.0552e-05
0.000180485 0.000135411 -3.85202e-06
1.0552e-05 -3.85202e-06 -1.8161e-05
0.000507097 -6.11828e-05 1.08572e-06
-6.11828e-05 0.000119016 -2.45457e-06
1.08572e-06 -2.45457e-06 -3.74939e-05
0.000440532 7.4184e-05 1.46772e-06
7.4184e-05 8.0141e-05 -3.52356e-06
1.46772e-06 -3.52356e-06 -9.39516e-05
0.000452157 -8.95873e-06 6.58477e-09
-8.95873e-06 0.000131754 -7.92724e-07
6.58477e-09 -7.92724e-07 -6.76237e-05
0.00106961 0.000125862 2.15768e-06
0.000125862 0.000459725 1.43335e-05
2.15768e-06 1.43335e-05 0.000337153
0.000405237 0.000125638 3.20421e-06
0.000125638 2.73667e-05 1.45834e-05
3.20421e-06 1.45834e-05 -1.21807e-05
0.000791555 0.000175428 -1.46245e-06
0.000175428 0.000383219 1.64335e-07
-1.46245e-06 1.64335e-07 0.000150216
0.000392338 -2.10745e-05 2.94697e-07
-2.10745e-05 1.71287e-05 1.03483e-06
2.94697e-07 1.03483e-06 -0.000130387
0.000718476 7.02747e-05 -1.06733e-06
7.02747e-05 0.00026069 2.94422e-07
-1.06733e-06 2.94422e-07 6.86003e-05
0.000365301 0.000121927 -3.24967e-06
0.000121927 4.65656e-05 -4.02794e-06
-3.24967e-06 -4.02794e-06 -2.76076e-05
0.000696843 0.000139238 -1.15974e-06
0.000139238 0.000242228 6.9832e-09
-1.15974e-06 6.9832e-09 8.33219e-05
0.00211254 0.000277047 -1.60406e-06
0.000277047 0.0011905 -2.55444e-06
-1.60406e-06 -2.55444e-06 0.000963437
1.87509e-06 8.74587e-05 -1.26301e-07
8.74587e-05 -5.19798e-05 -1.14122e-05
-1.26301e-07 -1.14122e-05 -0.00025309
0.000937265 0.000108274 2.76644e-06
0.000108274 0.000453843 -1.68014e-06
2.76644e-06 -1.68014e-06 0.000245177
8.97564e-05 1.70019e-05 -1.14085e-06
1.70019e-05 -0.00017746 -2.13247e-06
-1.14085e-06 -2.13247e-06 -0.000353901
0.000273785 -7.32692e-05 -5.11721e-07
-7.32692e-05 -5.64037e-05 1.48876e-08
-5.11721e-07 1.48876e-08 -0.000203075
0.000303366 -2.56054e-05 -8.26341e-08
-2.56054e-05 -1.25277e-05 -3.79873e-06
-8.26341e-08 -3.79873e-06 -0.000184124
0.00120595 -6.15602e-05 2.79933e-06
-6.15602e-05 0.000572882 -7.74901e-06
2.79933e-06 -7.74901e-06 0.000398599
0.000890657 -7.60077e-05 -1.74972e-06
-7.60077e-05 0.000432954 -6.34876e-07
-1.74972e-06 -6.34876e-07 0.000231188
0.000793217 -0.000100142 2.15119e-06
-0.000100142 0.000342655 -4.71255e-07
2.15119e-06 -4.71255e-07 0.00013907
0.000533795 -0.000130984 -1.63419e-06
-0.000130984 0.000130632 4.01569e-06
-1.63419e-06 4.01569e-06 -2.43461e-05
0.000142683 -2.99294e-05 8.9243e-09
-2.99294e-05 -0.000134822 1.15613e-06
8.9243e-09 1.15613e-06 -0.000285152
0.000461767 -7.1265e-05 -1.17627e-06
-7.1265e-05 4.1176e-05 3.98856e-06
-1.17627e-06 3.98856e-06 -4.90257e-05
0.000465539 -4.7259e-05 2.1605e-06
-4.7259e-05 5.14454e-05 1.48049e-07
2.1605e-06 1.48049e-07 -4.39663e-05
0.000363136 6.64497e-08 4.28234e-06
6.64497e-08 -3.83072e-05 6.96418e-06
4.28234e-06 6.96418e-06 -6.96748e-05
0.000458098 6.53414e-05 -1.49519e-06
6.53414e-05 3.78846e-05 -3.52792e-06
-1.49519e-06 -3.52792e-06 -5.21436e-05
0.000355127 3.03689e-05 5.60231e-07
3.03689e-05 -4.78973e-05 1.31608e-07
5.60231e-07 1.31608e-07 -7.72972e-05
0.00259453 1.14742e-05 1.44464e-05
1.14742e-05 0.00137924 5.69598e-06
1.44464e-05 5.69598e-06 0.00139064
0.000387252 6.26513e-05 -5.06245e-06
6.26513e-05 -2.56515e-05 -8.31899e-06
-5.06245e-06 -8.31899e-06 -5.90175e-05
0.00168465 -1.02252e-06 -9.01023e-06
-1.02252e-06 0.000789341 1.33494e-07
-9.01023e-06 1.33494e-07 0.000795781
0.000804791 -8.88446e-06 1.11848e-06
-8.88446e-06 0.000212996 -2.55548e-06
1.11848e-06 -2.55548e-06 0.00021473
0.000373812 2.16984e-05 -1.57392e-06
2.16984e-05 -3.80728e-05 -3.72237e-06
-1.57392e-06 -3.72237e-06 -8.72681e-05
0.000463843 -4.11409e-05 8.71951e-07
-4.11409e-05 3.22351e-05 1.04747e-07
8.71951e-07 1.04747e-07 -3.14985e-05
0.000470115 6.7017e-06 1.27265e-06
6.7017e-06 -4.05288e-06 -4.44418e-06
1.27265e-06 -4.44418e-06 -1.92284e-05
0.000475482 -5.48426e-05 -2.60836e-07
-5.48426e-05 3.83148e-05 2.25064e-06
-2.60836e-07 2.25064e-06 -3.17309e-05
0.000801476 2.82235e-05 2.94084e-07
2.82235e-05 0.00021657 -8.69091e-07
2.94084e-07 -8.69091e-07 0.000197787
0.00217963 6.36563e-05 6.54148e-07
6.36563e-05 0.00111432 -5.37622e-06
6.54148e-07 -5.37622e-06 0.00112405
0.000430488 3.23913e-05 1.00252e-06
3.23913e-05 -1.61949e-05 6.32503e-06
1.00252e-06 6.32503e-06 -4.61575e-05
0.00266678 9.98149e-05 -2.4405e-06
9.98149e-05 0.0014427 1.5785e-06
-2.4405e-06 1.5785e-06 0.00144352
0.00293812 0.000137025 2.11374e-05
0.000137025 0.00163011 9.5336e-06
2.11374e-05 9.5336e-06 0.0016222
0.00251245 0.000186967 2.60093e-06
0.000186967 -0.000133905 -2.53664e-06
2.60093e-06 -2.53664e-06 1.28605e-05
0.00227555 -6.72843e-07 3.68101e-07
-6.72843e-07 -0.000158365 1.6758e-08
3.68101e-07 1.6758e-08 -2.05907e-05
0.00263676 9.83161e-05 1.06807e-05
9.83161e-05 -0.000112109 3.80429e-06
1.06807e-05 3.80429e-06 2.21533e-05
0.00279209 0.00114317 0.000132172
0.00114317 -0.00241265 3.80127e-05
0.000132172 3.80127e-05 -0.000939842
0.00265692 -1.26506e-05 -3.69443e-06
-1.26506e-05 -0.000161611 -1.90465e-06
-3.69443e-06 -1.90465e-06 4.2397e-05
0.00270652 0.000103778 -5.02546e-06
0.000103778 5.21185e-05 -3.91603e-06
-5.02546e-06 -3.91603e-06 0.00030183
0.00264054 -5.09235e-05 -4.45985e-05
-5.09235e-05 6.80556e-05 -6.87049e-06
-4.45985e-05 -6.87049e-06 0.000230258
0.00327166 0.000784642 -0.000114845
0.000784642 -0.00267056 -3.35855e-05
-0.000114845 -3.35855e-05 -0.000766527
0.00279525 0.000347489 0.000155738
0.000347489 -0.00136735 7.82433e-05
0.000155738 7.82433e-05 -0.000525745
0.000528194 9.39208e-05 -3.63066e-07
9.39208e-05 0.000115042 -3.54096e-06
-3.63066e-07 -3.54096e-06 2.6529e-06
0.000561298 -8.34621e-06 -5.50592e-07
-8.34621e-06 0.000145221 -2.1874e-07
-5.50592e-07 -2.1874e-07 2.12873e-05
0.000298404 -0.000106173 -7.25824e-06
-0.000106173 -2.67551e-05 1.55825e-07
-7.25824e-06 1.55825e-07 -0.000155782
0.000339625 -6.89148e-05 -4.29408e-06
-6.89148e-05 2.1341e-05 1.46804e-07
-4.29408e-06 1.46804e-07 -0.000115478
0.00259706 -0.000220277 6.7381e-07
-0.000220277 -0.00020468 -2.58947e-06
6.7381e-07 -2.58947e-06 1.92185e-05
0.00256109 -0.00059403 7.40954e-07
-0.00059403 -0.000221144 7.79395e-07
7.40954e-07 7.79395e-07 -3.53735e-05
0.00256944 -0.000892102 5.13197e-07
-0.000892102 -2.67012e-05 -6.16961e-07
5.13197e-07 -6.16961e-07 -5.08745e-05
0.00408434 -0.00119958 2.57848e-05
-0.00119958 0.00192365 1.74304e-06
2.57848e-05 1.74304e-06 0.00131475
0.0016157 -0.00125197 -6.93143e-06
-0.00125197 6.02453e-05 7.35342e-07
-6.93143e-06 7.35342e-07 -0.000583294
0.0025138 -0.00114065 -2.96899e-07
-0.00114065 0.000249014 -5.00707e-06
-2.96899e-07 -5.00707e-06 -8.17406e-05
-0.000675031 -0.000742471 3.21038e-06
-0.000742471 -0.000744759 -2.23773e-05
3.21038e-06 -2.23773e-05 -0.00139095
0.00385276 -0.000571685 1.74538e-05
-0.000571685 0.00203854 -1.44745e-05
1.74538e-05 -1.44745e-05 0.0015247
-0.000106544 -0.000150225 3.47025e-06
-0.000150225 -0.000300463 1.29366e-05
3.47025e-06 1.29366e-05 -0.000611755
0.00066549 -8.52146e-05 3.43818e-06
-8.52146e-05 0.000229678 2.22871e-06
3.43818e-06 2.22871e-06 9.07239e-05
0.000424909 -0.000143909 -7.35573e-06
-0.000143909 0.000159833 -9.07683e-06
-7.35573e-06 -9.07683e-06 -0.000209973
0.000656618 -6.70546e-05 4.00237e-06
-6.70546e-05 0.000219372 1.22887e-06
4.00237e-06 1.22887e-06 1.46715e-05
0.000524135 -2.97769e-06 1.18396e-06
-2.97769e-06 0.000131853 5.4997e-06
1.18396e-06 5.4997e-06 -3.57349e-06
0.000447059 -7.54543e-05 -9.90087e-06
-7.54543e-05 7.29954e-06 9.95911e-06
-9.90087e-06 9.95911e-06 -0.000112053
0.00275611 -0.000379067 2.81386e-06
-0.000379067 -0.000164743 1.30528e-06
2.81386e-06 1.30528e-06 0.000117734
0.000408701 -4.1007e-05 -2.9673e-07
-4.1007e-05 5.21805e-05 3.68132e-06
-2.9673e-07 3.68132e-06 -9.23456e-05
0.000742987 -8.49121e-05 8.18533e-06
-8.49121e-05 0.000175715 -2.29339e-06
8.18533e-06 -2.29339e-06 2.51204e-05
-0.000919205 -7.78024e-05 1.24751e-05
-7.78024e-05 -0.000742773 -1.29469e-06
1.24751e-05 -1.29469e-06 -0.000851341
0.00234624 -0.00069375 5.13989e-07
-0.00069375 -0.000371809 -8.06335e-07
5.13989e-07 -8.06335e-07 -9.7739e-05
0.00264586 -0.00109311 2.40204e-06
-0.00109311 0.000157895 -1.47446e-06
2.40204e-06 -1.47446e-06 -6.99657e-05
0.00192861 -0.00122327 -1.49194e-05
-0.00122327 0.000554405 1.52844e-06
-1.49194e-05 1.52844e-06 -4.66256e-05
0.00334394 -0.00143023 -4.80826e-06
-0.00143023 0.00089899 -1.08835e-07
-4.80826e-06 -1.08835e-07 0.000399257
0.00187625 -0.000236412 1.41445e-05
-0.000236412 0.00103354 -7.99487e-06
1.41445e-05 -7.99487e-06 0.000707276
-0.00120031 -4.28107e-05 9.36396e-06
-4.28107e-05 -0.000909384 6.78097e-06
9.36396e-06 6.78097e-06 -0.00124405
0.00104675 -0.00121745 -4.60508e-07
-0.00121745 0.000617756 -1.00911e-06
-4.60508e-07 -1.00911e-06 -0.00025775
0.00191408 -0.000552962 -1.16403e-05
-0.000552962 0.00105664 -2.76903e-06
-1.16403e-05 -2.76903e-06 0.000468646
0.00395449 -0.00057321 -5.90809e-05
-0.00057321 0.00056544 1.96064e-05
-5.90809e-05 1.96064e-05 0.000892755
0.0027421 -0.000910238 -3.82781e-05
-0.000910238 7.16604e-05 1.63995e-05
-3.82781e-05 1.63995e-05 0.000165002
0.00299586 -0.00126145 -6.72266e-06
-0.00126145 0.000642358 -1.76179e-05
-6.72266e-06 -1.76179e-05 0.000186704
0.0027348 -0.00140592 1.5772e-05
-0.00140592 0.000780446 3.66502e-05
1.5772e-05 3.66502e-05 0.000326114
0.000164886 -0.000177929 -7.4787e-06
-0.000177929 6.89215e-05 -1.47516e-05
-7.4787e-06 -1.47516e-05 -0.000132058
0.000741909 -0.000263971 -1.8363e-05
-0.000263971 0.000266162 -6.1921e-06
-1.8363e-05 -6.1921e-06 -3.82334e-05
0.000594975 -0.000298991 -1.65934e-05
-0.000298991 0.000477348 8.02687e-05
-1.65934e-05 8.02687e-05 7.80008e-05
-0.000295952 -0.00101357 4.13386e-06
-0.00101357 0.000522861 -4.097e-05
4.13386e-06 -4.097e-05 -0.000643479
0.0054303 -0.00048528 6.91085e-05
-0.00048528 -0.00637113 1.14839e-05
6.91085e-05 1.14839e-05 -0.00670493
0.00225013 0.000362563 1.33768e-05
0.000362563 0.00138942 -5.63317e-06
1.33768e-05 -5.63317e-06 0.00109193
0.000376776 0.000393342 1.48238e-06
0.000393342 3.55323e-05 -2.74485e-06
1.48238e-06 -2.74485e-06 -0.00033496
0.00182781 0.000464295 6.11511e-05
0.000464295 -0.000686391 2.72617e-05
6.11511e-05 2.72617e-05 -0.000250877
0.00250386 0.000975219 2.74342e-05
0.000975219 0.000249672 1.2624e-05
2.74342e-05 1.2624e-05 4.90024e-05
0.00298708 0.00120822 1.39102e-05
0.00120822 0.000963508 1.46455e-05
1.39102e-05 1.46455e-05 0.000341493
0.00209484 0.000916967 1.70749e-05
0.000916967 0.000762655 1.16824e-05
1.70749e-05 1.16824e-05 0.000153138
0.00496503 0.00223117 9.90051e-05
0.00223117 -0.00110049 4.0225e-05
9.90051e-05 4.0225e-05 -0.000449284
0.000883589 0.000336023 3.52509e-06
0.000336023 0.000601591 -5.0698e-06
3.52509e-06 -5.0698e-06 0.000270131
0.00300454 0.00105932 -5.82258e-06
0.00105932 5.95869e-05 4.22668e-06
-5.82258e-06 4.22668e-06 0.000187989
0.00105533 0.000621195 -8.09868e-06
0.000621195 0.000287426 7.13998e-06
-8.09868e-06 7.13998e-06 -0.000181864
0.00187843 0.000992633 1.65459e-06
0.000992633 0.000545043 -9.35096e-06
1.65459e-06 -9.35096e-06 -4.06423e-05
0.00280365 0.00126934 -1.52305e-05
0.00126934 0.000605835 -4.65693e-07
-1.52305e-05 -4.65693e-07 0.000160017
0.00529206 -0.000290723 -0.000220249
-0.000290723 -0.00663272 -0.00015661
-0.000220249 -0.00015661 -0.0067922
0.00674544 0.00295825 -0.000195038
0.00295825 -0.00154191 -8.49077e-05
-0.000195038 -8.49077e-05 0.00083677
0.0014874 0.00209815 -8.4427e-06
0.00209815 -0.000742232 8.62211e-07
-8.4427e-06 8.62211e-07 -0.000963354
0.00707555 -0.00379689 0.000852029
-0.00379689 0.00501968 0.00027541
0.000852029 0.00027541 0.000658727
0.0251967 -0.0156219 -0.000619847
-0.0156219 0.0154463 -0.000560872
-0.000619847 -0.000560872 0.00628427
-6.59145e-06 0.000274613 -8.28085e-06
0.000274613 -0.000126427 -2.62459e-06
-8.28085e-06 -2.62459e-06 -0.000410018
0.0023667 -1.79602e-05 0.00145991
-1.79602e-05 0.00476618 7.63415e-05
0.00145991 7.63415e-05 0.00238719
0.00835584 -0.00687542 -3.30274e-05
-0.00687542 0.00996087 -0.000202995
-3.30274e-05 -0.000202995 0.000769492
0.00356091 0.00174034 -8.73398e-05
0.00174034 0.000606156 -3.00834e-05
-8.73398e-05 -3.00834e-05 0.000265642
0.000787908 0.000588018 -3.53238e-05
0.000588018 5.78841e-05 -7.14465e-06
-3.53238e-05 -7.14465e-06 -0.000360876
0.00149142 0.00100198 -5.19329e-05
0.00100198 0.000345924 -4.01804e-05
-5.19329e-05 -4.01804e-05 -0.000168745
5.82197e-05 0.00198715 0.000144479
0.00198715 -0.00101366 0.00012744
0.000144479 0.00012744 -0.00132629
0.015357 0.00423246 0.000175066
0.00423246 0.000142028 -3.35639e-06
0.000175066 -3.35639e-06 0.00117194
0.00676376 0.00453507 -0.000118099
0.00453507 -0.000626686 -0.000110031
-0.000118099 -0.000110031 0.00119066
0.0227666 -0.00874262 0.00136875
-0.00874262 0.00950624 0.000410153
0.00136875 0.000410153 0.0017997
0.017948 -0.00329478 -0.000336163
-0.00329478 0.00816112 0.00075607
-0.000336163 0.00075607 0.0039781
0.00052738 0.000123671 1.8999e-06
0.000123671 0.00029355 7.65706e-06
1.8999e-06 7.65706e-06 0.000158252
0.000321485 0.000197999 3.60345e-06
0.000197999 0.000181674 3.60588e-07
3.60345e-06 3.60588e-07 1.34102e-05
0.000345335 0.000214324 5.59772e-06
0.000214324 0.000259966 -5.77249e-06
5.59772e-06 -5.77249e-06 -1.00276e-05
0.000602514 -6.2433e-07 2.35319e-06
-6.2433e-07 0.00018156 1.39643e-06
2.35319e-06 1.39643e-06 1.38222e-05
0.000593978 9.26177e-05 1.57349e-06
9.26177e-05 0.000166779 -8.05633e-07
1.57349e-06 -8.05633e-07 -1.41761e-05
-0.000240654 3.27777e-05 -7.24388e-09
3.27777e-05 -0.000310542 2.87799e-06
-7.24388e-09 2.87799e-06 -0.000507307
0.000874183 0.000145379 -3.8489e-06
0.000145379 0.000380128 6.70671e-06
-3.8489e-06 6.70671e-06 0.000212843
-0.000174617 8.94736e-05 -4.90972e-06
8.94736e-05 -0.000314532 8.30896e-06
-4.90972e-06 8.30896e-06 -0.000375928
0.000319094 -9.58105e-06 -5.06674e-07
-9.58105e-06 -2.17133e-05 6.61337e-07
-5.06674e-07 6.61337e-07 -0.000174688
0.00138424 0.000179891 3.12786e-06
0.000179891 0.000705162 1.26682e-06
3.12786e-06 1.26682e-06 0.000494314
0.000368712 6.63256e-05 -7.42497e-07
6.63256e-05 9.736e-05 -1.03273e-06
-7.42497e-07 -1.03273e-06 -0.000118415
0.000759711 5.17187e-05 1.64287e-06
5.17187e-05 0.000298706 1.41056e-07
1.64287e-06 1.41056e-07 9.14718e-05
8.37065e-05 8.99694e-05 -9.42657e-07
8.99694e-05 -4.77939e-06 -3.77091e-06
-9.42657e-07 -3.77091e-06 -0.000208007
0.00130948 0.000149799 -1.21361e-06
0.000149799 0.000689228 -7.51563e-06
-1.21361e-06 -7.51563e-06 0.000497838
-0.000599547 3.98966e-05 -1.64693e-06
3.98966e-05 -0.000205447 -5.40515e-06
-1.64693e-06 -5.40515e-06 -0.000557275
5.16649e-05 -3.74866e-05 -2.91918e-07
-3.74866e-05 -0.000137028 2.96603e-07
-2.91918e-07 2.96603e-07 -0.000338771
0.00070992 -7.74078e-05 -3.94464e-06
-7.74078e-05 0.000272892 -2.23636e-06
-3.94464e-06 -2.23636e-06 7.12292e-05
0.000773524 -6.5056e-05 -4.37442e-07
-6.5056e-05 0.000319743 -1.87918e-06
-4.37442e-07 -1.87918e-06 0.000124057
0.000576498 -6.73492e-05 -4.49371e-06
-6.73492e-05 0.000160222 1.86563e-06
-4.49371e-06 1.86563e-06 6.08491e-06
0.00091432 1.29744e-05 -8.19355e-06
1.29744e-05 0.00046285 -6.30945e-06
-8.19355e-06 -6.30945e-06 0.000254498
0.000833999 -0.000143179 5.61476e-06
-0.000143179 0.000292641 -1.0572e-05
5.61476e-06 -1.0572e-05 0.000159243
-0.000217722 -3.83934e-05 -4.1209e-06
-3.83934e-05 -0.000291202 -5.36746e-06
-4.1209e-06 -5.36746e-06 -0.000439467
-0.000421761 -2.12961e-05 1.73847e-06
-2.12961e-05 -0.000332365 -6.899e-06
1.73847e-06 -6.899e-06 -0.000580635
-7.5453e-06 -6.61062e-05 9.17295e-07
-6.61062e-05 -0.000182036 7.72961e-07
9.17295e-07 7.72961e-07 -0.000343535
0.000856383 -0.000156267 -1.20092e-06
-0.000156267 0.000391609 9.77176e-07
-1.20092e-06 9.77176e-07 0.00020281
0.00031518 -8.50454e-05 -1.47617e-07
-8.50454e-05 -2.52165e-05 2.91989e-06
-1.47617e-07 2.91989e-06 -0.000168419
0.000397811 -0.000110707 3.37554e-06
-0.000110707 4.56233e-05 -8.97835e-07
3.37554e-06 -8.97835e-07 -0.000123149
0.000561023 -0.000136688 1.02278e-07
-0.000136688 0.000147145 2.96485e-07
1.02278e-07 2.96485e-07 -1.06519e-05
0.000502835 -7.02996e-05 -1.22021e-06
-7.02996e-05 6.69316e-05 5.13795e-06
-1.22021e-06 5.13795e-06 -2.57848e-05
0.000286252 2.54161e-07 1.53028e-07
2.54161e-07 -2.12562e-05 -5.58748e-07
1.53028e-07 -5.58748e-07 -0.000187216
0.000449026 1.57897e-06 2.68433e-06
1.57897e-06 4.29378e-05 1.36183e-07
2.68433e-06 1.36183e-07 -5.35972e-05
0.00140555 -4.11897e-05 -1.4548e-05
-4.11897e-05 0.00062342 7.48043e-06
-1.4548e-05 7.48043e-06 0.000598634
0.000437436 8.44302e-05 -2.75401e-06
8.44302e-05 3.3849e-05 -3.20967e-06
-2.75401e-06 -3.20967e-06 -6.09506e-05
0.000813167 -2.81971e-05 -5.72667e-06
-2.81971e-05 0.000250987 7.53954e-07
-5.72667e-06 7.53954e-07 0.000221884
0.000821757 1.88219e-07 -8.21452e-06
1.88219e-07 0.000234707 4.84587e-06
-8.21452e-06 4.84587e-06 0.000238282
0.000311581 -3.99933e-05 5.54426e-06
-3.99933e-05 -7.57281e-05 -5.50948e-06
5.54426e-06 -5.50948e-06 -0.000104715
0.00261 3.96186e-06 1.25893e-05
3.96186e-06 0.0013896 3.23408e-08
1.25893e-05 3.23408e-08 0.00140084
0.000843879 6.4991e-06 -1.41734e-05
6.4991e-06 0.000249566 -5.6817e-06
-1.41734e-05 -5.6817e-06 0.00025151
0.000553789 8.18268e-05 1.70786e-06
8.18268e-05 0.000143013 -1.48318e-06
1.70786e-06 -1.48318e-06 1.99015e-05
0.000404751 6.40051e-05 -3.173e-06
6.40051e-05 -1.71061e-06 -4.03874e-06
-3.173e-06 -4.03874e-06 -5.89697e-05
0.000440815 1.91996e-06 1.47105e-06
1.91996e-06 1.98889e-05 2.25331e-07
1.47105e-06 2.25331e-07 -3.89348e-05
0.000429838 9.83245e-06 9.26853e-07
9.83245e-06 -2.86408e-05 -4.09525e-06
9.26853e-07 -4.09525e-06 -4.195e-05
0.000534344 -7.85226e-05 -1.37083e-06
-7.85226e-05 9.06855e-05 4.44659e-06
-1.37083e-06 4.44659e-06 1.92588e-05
0.000449142 9.67564e-06 3.5052e-07
9.67564e-06 -1.78278e-05 -7.68453e-07
3.5052e-07 -7.68453e-07 -3.30412e-05
0.00208828 4.38431e-05 1.10885e-07
4.38431e-05 0.00104984 -5.23145e-06
1.10885e-07 -5.23145e-06 0.00106314
0.00121145 4.37684e-05 1.82484e-06
4.37684e-05 0.000483985 3.15312e-06
1.82484e-06 3.15312e-06 0.000464992
0.00152419 5.34479e-05 -1.06206e-06
5.34479e-05 0.000691509 1.69146e-06
-1.06206e-06 1.69146e-06 0.000695965
0.000793763 5.62517e-05 5.48513e-06
5.62517e-05 0.000226682 1.14648e-05
5.48513e-06 1.14648e-05 0.000220877
0.000853507 0.000841547 9.74539e-05
0.000841547 -0.00331551 2.80862e-05
9.74539e-05 2.80862e-05 -0.0018251
0.00253191 -4.30283e-05 1.04718e-05
-4.30283e-05 -0.000233053 2.53834e-07
1.04718e-05 2.53834e-07 -3.01905e-05
0.00252223 8.37716e-05 5.12628e-05
8.37716e-05 -1.87317e-05 -1.35297e-05
5.12628e-05 -1.35297e-05 0.000161204
0.00426812 0.000788593 -9.5476e-05
0.000788593 -0.00265968 -4.89807e-05
-9.5476e-05 -4.89807e-05 2.71626e-05
0.00336997 0.000121507 8.99291e-05
0.000121507 -0.00095324 -5.62126e-06
8.99291e-05 -5.62126e-06 -7.43026e-05
0.00278318 -7.29036e-05 -9.21002e-06
-7.29036e-05 0.000118631 -3.1911e-06
-9.21002e-06 -3.1911e-06 0.000291695
0.00493423 -0.000661268 -7.52369e-05
-0.000661268 0.000337491 -3.54356e-05
-7.52369e-05 -3.54356e-05 0.00102548
0.00492367 -0.000825136 2.76284e-05
-0.000825136 -0.00136894 -5.04511e-07
2.76284e-05 -5.04511e-07 0.000577328
0.0205493 -0.00118488 0.000102684
-0.00118488 0.00235899 -8.7775e-05
0.000102684 -8.7775e-05 0.00230428
0.0206415 0.00940097 0.00227863
0.00940097 0.00861536 -0.000410144
0.00227863 -0.000410144 0.00230666
0.0317877 0.0111111 0.000183761
0.0111111 0.0206871 8.72004e-05
0.000183761 8.72004e-05 0.0128472
2.04035e-05 -0.000112446 9.7736e-07
-0.000112446 -0.000181121 -2.86857e-06
9.7736e-07 -2.86857e-06 -0.000310589
0.000513827 -1.09769e-05 2.28941e-06
-1.09769e-05 0.000107227 5.34803e-08
2.28941e-06 5.34803e-08 -5.93998e-06
0.000602015 -9.82151e-05 -8.41692e-07
-9.82151e-05 0.000179452 6.57911e-06
-8.41692e-07 6.57911e-06 4.81517e-05
0.000528605 -5.10245e-05 2.35523e-06
-5.10245e-05 0.000113021 -1.06243e-07
2.35523e-06 -1.06243e-07 -1.11376e-05
0.000995811 0.000155343 -8.00154e-06
0.000155343 0.000507058 -4.70383e-06
-8.00154e-06 -4.70383e-06 0.000349832
0.000631835 0.000157624 -2.42307e-06
0.000157624 0.000196418 3.69118e-06
-2.42307e-06 3.69118e-06 4.7387e-05
0.000831619 2.58301e-05 1.45075e-06
2.58301e-05 0.000344694 -5.99747e-08
1.45075e-06 -5.99747e-08 0.000181374
0.000517596 -2.34953e-05 -1.54208e-06
-2.34953e-05 0.000120929 1.10888e-06
-1.54208e-06 1.10888e-06 -1.42825e-05
0.00269676 -0.000371472 1.49264e-05
-0.000371472 -0.000207655 -1.19305e-05
1.49264e-05 -1.19305e-05 9.76582e-05
0.00238041 -0.00072971 1.44825e-05
-0.00072971 -0.000378811 -5.85293e-06
1.44825e-05 -5.85293e-06 -0.000137232
0.00270527 -0.00109912 6.18726e-06
-0.00109912 0.000182688 4.49019e-06
6.18726e-06 4.49019e-06 -3.98521e-05
0.00270266 -0.00132018 9.28826e-06
-0.00132018 0.000925398 -2.47084e-06
9.28826e-06 -2.47084e-06 0.000334305
0.00277918 -0.00136016 -2.88056e-05
-0.00136016 0.000613137 -2.21797e-06
-2.88056e-05 -2.21797e-06 9.81022e-05
0.000603815 -0.00123512 2.29699e-05
-0.00123512 0.000393781 1.10625e-05
2.29699e-05 1.10625e-05 -0.000548224
0.00512568 -0.000938609 9.14567e-06
-0.000938609 0.00275492 5.24236e-06
9.14567e-06 5.24236e-06 0.00222633
0.00178503 -0.000440729 2.25064e-05
-0.000440729 0.00104211 -5.5332e-05
2.25064e-05 -5.5332e-05 0.000585394
0.000628122 -0.000117913 -3.25414e-06
-0.000117913 8.59057e-05 7.60497e-06
-3.25414e-06 7.60497e-06 -4.14738e-05
0.0012107 -0.000111004 1.72454e-05
-0.000111004 0.000582283 -2.1526e-05
1.72454e-05 -2.1526e-05 0.000272706
0.000827403 -7.19861e-05 5.2466e-06
-7.19861e-05 0.000325039 6.75506e-06
5.2466e-06 6.75506e-06 0.00016986
0.000525485 6.81742e-06 8.86724e-06
6.81742e-06 0.000189232 1.25116e-06
8.86724e-06 1.25116e-06 0.000133417
0.00266814 -0.000502113 1.01243e-06
-0.000502113 -0.000212552 4.11067e-06
1.01243e-06 4.11067e-06 0.000211971
0.000280018 -0.000103721 -6.29645e-06
-0.000103721 0.000106009 8.64816e-07
-6.29645e-06 8.64816e-07 -7.61565e-05
0.00142346 -0.00027991 -6.21037e-06
-0.00027991 0.000701043 6.10205e-06
-6.21037e-06 6.10205e-06 0.000436446
0.00186893 -0.000841563 8.52255e-06
-0.000841563 -0.000433792 -5.14907e-06
8.52255e-06 -5.14907e-06 -0.00028295
0.00250826 -0.00116326 2.16756e-06
-0.00116326 0.000387348 6.18207e-06
2.16756e-06 6.18207e-06 -9.76017e-07
0.00146368 -0.00122697 -2.72911e-06
-0.00122697 1.84602e-05 -1.64052e-05
-2.72911e-06 -1.64052e-05 -0.000377927
0.00129883 -0.000425728 -2.44482e-06
-0.000425728 0.00082725 -3.37029e-05
-2.44482e-06 -3.37029e-05 0.000311922
0.00108935 -0.000833755 1.48796e-05
-0.000833755 0.00114176 1.89622e-06
1.48796e-05 1.89622e-06 0.000165294
0.00637622 -0.00121264 -5.66489e-05
-0.00121264 0.00162035 3.71021e-05
-5.66489e-05 3.71021e-05 0.00194552
0.00323202 -0.00122827 -4.50093e-05
-0.00122827 0.000747337 1.71437e-05
-4.50093e-05 1.71437e-05 0.000451243
0.00284271 -0.00142324 5.08993e-06
-0.00142324 0.000693653 1.89048e-05
5.08993e-06 1.89048e-05 0.000262478
0.000284537 -0.000804873 -1.33553e-05
-0.000804873 -0.000288394 2.73631e-05
-1.33553e-05 2.73631e-05 -0.00045749
0.000782026 -0.000216106 1.17488e-07
-0.000216106 0.000492465 1.08429e-06
1.17488e-07 1.08429e-06 0.000185457
7.93685e-06 -0.000195005 3.66139e-06
-0.000195005 9.98733e-05 7.52686e-06
3.66139e-06 7.52686e-06 -0.000284499
0.000599718 -0.000359473 -1.71894e-05
-0.000359473 0.00084547 -1.60595e-05
-1.71894e-05 -1.60595e-05 3.12802e-05
-0.00798309 -0.000671525 0.000977226
-0.000671525 -0.00290468 -4.52697e-05
0.000977226 -4.52697e-05 -0.00519379
0.0126247 -0.000541341 8.05992e-05
-0.000541341 -0.000786478 5.48669e-05
8.05992e-05 5.48669e-05 0.000405804
0.00245566 0.000428137 9.24128e-06
0.000428137 0.00147281 -9.6837e-06
9.24128e-06 -9.6837e-06 0.00118682
0.00213539 0.000764604 2.60938e-06
0.000764604 0.000989593 7.12623e-06
2.60938e-06 7.12623e-06 0.000470015
0.00156644 0.000849419 0.000110891
0.000849419 -0.000720127 5.7907e-05
0.000110891 5.7907e-05 -0.000509223
0.00414317 0.00139905 3.60138e-05
0.00139905 0.00134798 1.87219e-05
3.60138e-05 1.87219e-05 0.000850085
0.00309601 0.00118257 2.70514e-05
0.00118257 0.00122278 5.79263e-06
2.70514e-05 5.79263e-06 0.00059534
0.0187438 0.000905996 0.000106669
0.000905996 0.00175665 -0.00014156
0.000106669 -0.00014156 0.0020646
0.00871492 0.00362483 -0.000299862
0.00362483 -0.0022031 -3.19979e-05
-0.000299862 -3.19979e-05 0.000812802
0.00222952 0.00213041 -3.19244e-06
0.00213041 -0.000244095 -3.91242e-05
-3.19244e-06 -3.91242e-05 -0.000602027
0.0178453 -0.00732133 -0.000961705
-0.00732133 0.00821097 0.000104089
-0.000961705 0.000104089 0.00241913
0.0176377 -0.0173025 -0.00335232
-0.0173025 0.0142935 -0.00185436
-0.00335232 -0.00185436 0.00470775
0.000624308 0.000377197 7.15532e-06
0.000377197 0.000329483 -3.69993e-06
7.15532e-06 -3.69993e-06 -1.26858e-06
0.000939368 -0.00447654 0.000902716
-0.00447654 -0.00131093 8.91848e-05
0.000902716 8.91848e-05 -0.00564569
0.00167981 -0.00541947 -0.00092497
-0.00541947 0.0105599 -0.000153032
-0.00092497 -0.000153032 0.00197061
0.00393 0.00167192 -2.01566e-05
0.00167192 0.000747146 3.20406e-06
-2.01566e-05 3.20406e-06 0.000462162
0.000834811 0.000650611 -1.20864e-05
0.000650611 0.000152327 8.63024e-06
-1.20864e-05 8.63024e-06 -0.000313849
0.00202668 0.00116676 3.1029e-06
0.00116676 0.000630284 9.68757e-07
3.1029e-06 9.68757e-07 5.32626e-05
0.00217598 0.00202045 8.04462e-05
0.00202045 0.000438359 5.47178e-05
8.04462e-05 5.47178e-05 0.000122281
0.0144722 0.00459289 -0.000194359
0.00459289 -0.00136619 -0.000132823
-0.000194359 -0.000132823 -0.00153502
0.00286123 0.00415057 -1.29013e-05
0.00415057 -0.00159415 -4.94521e-05
-1.29013e-05 -4.94521e-05 0.000332843
0.0246973 -0.00742968 0.000833161
-0.00742968 0.0113664 -6.35666e-05
0.000833161 -6.35666e-05 0.00378239
0.0246583 -0.00603349 -8.69681e-05
-0.00603349 0.00823839 0.00093569
-8.69681e-05 0.00093569 0.00232264
0.000903221 0.000427239 -1.25901e-05
0.000427239 0.000425958 -1.7394e-05
-1.25901e-05 -1.7394e-05 0.000125664
-0.00737214 0.00108597 -2.1068e-05
0.00108597 0.00587895 -0.000162244
-2.1068e-05 -0.000162244 -0.00291908
0.0074295 0.00196503 -0.000656569
0.00196503 0.00598916 -0.00062333
-0.000656569 -0.00062333 0.000452054
0.00292917 0.00128873 -5.2407e-05
0.00128873 0.000697664 -2.70989e-05
-5.2407e-05 -2.70989e-05 0.00054322
0.0029233 0.00122821 -9.17324e-05
0.00122821 0.001307 -3.64134e-05
-9.17324e-05 -3.64134e-05 0.000742171
0.00255197 0.00158343 -0.000111381
0.00158343 0.00151883 -4.07794e-05
-0.000111381 -4.07794e-05 0.000645654
-0.00285589 0.00297719 5.28833e-05
0.00297719 -0.000931768 -2.89261e-05
5.28833e-05 -2.89261e-05 -0.00095787
0.00580746 0.00684966 0.000846534
0.00684966 -0.00187503 9.10583e-05
0.000846534 9.10583e-05 -0.00274711
0.026722 -0.00935158 -0.000258474
-0.00935158 0.0151451 0.000995466
-0.000258474 0.000995466 0.0065606
0.00942806 0.000536877 -0.000203021
0.000536877 -0.00169832 -0.000220608
-0.000203021 -0.000220608 -0.00173884
0.000467224 0.000238387 -3.46391e-06
0.000238387 0.000304717 1.06224e-06
-3.46391e-06 1.06224e-06 0.000110165
0.00156151 0.00037172 4.48599e-06
0.00037172 0.000972449 9.26405e-07
4.48599e-06 9.26405e-07 0.000686278
-0.000582219 0.000156724 -5.3434e-06
0.000156724 -0.000281391 3.45601e-06
-5.3434e-06 3.45601e-06 -0.000533827
0.000368768 6.34808e-05 2.72839e-06
6.34808e-05 9.84343e-06 2.12883e-06
2.72839e-06 2.12883e-06 -0.000145291
0.00119309 9.77738e-05 6.33987e-07
9.77738e-05 0.000599489 5.89822e-07
6.33987e-07 5.89822e-07 0.000379385
0.000467081 2.94985e-05 -1.77887e-06
2.94985e-05 0.000164875 2.94439e-06
-1.77887e-06 2.94439e-06 -6.37855e-05
0.000244002 0.000111418 8.29047e-06
0.000111418 1.56859e-05 9.98437e-06
8.29047e-06 9.98437e-06 -0.000211247
-0.000347821 5.19974e-05 -4.87712e-06
5.19974e-05 -0.000266124 5.91192e-06
-4.87712e-06 5.91192e-06 -0.000464428
0.000784593 3.99401e-05 1.64015e-07
3.99401e-05 0.000326101 -7.70999e-07
1.64015e-07 -7.70999e-07 0.000119977
0.000614075 9.03141e-05 3.29562e-08
9.03141e-05 0.000243783 1.62495e-07
3.29562e-08 1.62495e-07 5.87082e-05
0.00088183 -4.22797e-05 -1.05943e-06
-4.22797e-05 0.000422054 2.45836e-06
-1.05943e-06 2.45836e-06 0.00019344
-0.0010146 4.31268e-05 -3.85892e-07
4.31268e-05 -0.000441092 1.39251e-06
-3.85892e-07 1.39251e-06 -0.000794014
0.000464981 4.56883e-05 2.792e-06
4.56883e-05 0.000585223 9.74282e-06
2.792e-06 9.74282e-06 0.000137636
0.000764007 -2.63121e-05 1.55137e-06
-2.63121e-05 0.000483533 -6.88051e-06
1.55137e-06 -6.88051e-06 0.000210787
0.00176309 -3.61396e-05 -3.8424e-06
-3.61396e-05 0.0010423 3.01329e-06
-3.8424e-06 3.01329e-06 0.000777633
0.000904157 -0.000104463 -6.03574e-07
-0.000104463 0.000406536 -7.44471e-07
-6.03574e-07 -7.44471e-07 0.000202834
0.000232817 -0.000115213 2.04259e-06
-0.000115213 -6.79017e-05 1.06899e-05
2.04259e-06 1.06899e-05 -0.000209588
0.000544826 -0.000106027 6.20577e-07
-0.000106027 0.000199945 -5.863e-08
6.20577e-07 -5.863e-08 6.46761e-06
0.000695058 -0.00014093 -2.20937e-06
-0.00014093 0.000194932 -1.71702e-06
-2.20937e-06 -1.71702e-06 5.77629e-05
-0.000134494 -7.12366e-05 -2.81878e-07
-7.12366e-05 -0.000228689 6.17223e-06
-2.81878e-07 6.17223e-06 -0.000365289
-0.000766693 -4.47105e-05 1.5664e-06
-4.47105e-05 -0.000599388 -9.77443e-06
1.5664e-06 -9.77443e-06 -0.000793159
-9.95647e-05 -5.88421e-05 -8.30258e-06
-5.88421e-05 -8.35115e-05 -1.53927e-06
-8.30258e-06 -1.53927e-06 -0.000314835
0.000422417 -0.000137491 2.08956e-06
-0.000137491 0.000130848 -1.03228e-05
2.08956e-06 -1.03228e-05 -7.42093e-06
0.00105194 -0.000153602 2.60535e-05
-0.000153602 0.000390497 -1.84624e-05
2.60535e-05 -1.84624e-05 0.000273399
0.00328154 -0.000568075 -1.0686e-06
-0.000568075 0.00170394 1.86022e-06
-1.0686e-06 1.86022e-06 0.00141709
-0.000753665 -0.000118783 -2.23518e-06
-0.000118783 -0.000596188 -2.76549e-06
-2.23518e-06 -2.76549e-06 -0.000819334
0.000449445 -5.17738e-05 2.37552e-06
-5.17738e-05 0.000192997 1.91956e-08
2.37552e-06 1.91956e-08 -4.37823e-05
-0.00096902 -1.21162e-06 5.94857e-06
-1.21162e-06 -0.000738728 -1.23828e-06
5.94857e-06 -1.23828e-06 -0.000983707
0.000649751 -0.000197889 -1.80088e-06
-0.000197889 0.000259282 -7.85958e-07
-1.80088e-06 -7.85958e-07 6.57451e-05
0.000483706 -5.42818e-05 2.70501e-06
-5.42818e-05 8.53811e-05 -7.30887e-07
2.70501e-06 -7.30887e-07 -7.29193e-05
0.000679491 -0.000183595 1.21716e-06
-0.000183595 0.000256118 -1.32041e-06
1.21716e-06 -1.32041e-06 8.17485e-05
0.000582934 -0.00010145 -7.49303e-07
-0.00010145 0.000167664 2.04541e-07
-7.49303e-07 2.04541e-07 9.19852e-06
0.000272138 3.33978e-05 1.7457e-06
3.33978e-05 -8.01389e-05 4.96655e-06
1.7457e-06 4.96655e-06 -0.000177611
0.000645423 -0.000138865 1.27932e-07
-0.000138865 0.000194001 -2.31857e-06
1.27932e-07 -2.31857e-06 3.72017e-05
0.000494607 -5.65677e-05 -6.53793e-07
-5.65677e-05 5.58961e-05 2.37283e-07
-6.53793e-07 2.37283e-07 -3.30289e-05
0.00138343 2.96962e-05 -8.80333e-06
2.96962e-05 0.000601155 7.97374e-06
-8.80333e-06 7.97374e-06 0.000576403
0.00046475 -7.94456e-05 7.7961e-07
-7.94456e-05 4.68746e-05 -3.43709e-06
7.7961e-07 -3.43709e-06 -4.54901e-05
0.000838635 -2.98602e-05 -1.09574e-05
-2.98602e-05 0.000259456 9.37699e-07
-1.09574e-05 9.37699e-07 0.000230969
0.000742404 1.01385e-05 1.82677e-06
1.01385e-05 0.000172885 2.27667e-06
1.82677e-06 2.27667e-06 0.000175462
0.000402203 -3.84722e-05 4.07651e-06
-3.84722e-05 -2.1737e-05 -5.06956e-06
4.07651e-06 -5.06956e-06 -4.95309e-05
0.0025507 6.59912e-06 6.91264e-06
6.59912e-06 0.00134931 -1.1472e-08
6.91264e-06 -1.1472e-08 0.00136154
0.00258299 -3.48348e-06 9.34518e-06
-3.48348e-06 0.00137173 -5.13829e-06
9.34518e-06 -5.13829e-06 0.00138313
0.00102038 7.94094e-05 -1.51926e-06
7.94094e-05 0.00044106 -1.78188e-06
-1.51926e-06 -1.78188e-06 0.00031267
0.000494341 7.48381e-05 -2.25461e-06
7.48381e-05 6.14341e-05 -4.4071e-06
-2.25461e-06 -4.4071e-06 -3.16878e-06
0.000508042 -2.13308e-05 -8.28237e-07
-2.13308e-05 0.000111963 9.20104e-07
-8.28237e-07 9.20104e-07 -9.35915e-06
0.000410554 1.16497e-05 9.83441e-07
1.16497e-05 -4.13068e-05 -4.19232e-06
9.83441e-07 -4.19232e-06 -5.36512e-05
0.000406612 -9.29831e-06 1.9438e-06
-9.29831e-06 -3.82743e-06 -2.55974e-07
1.9438e-06 -2.55974e-07 -5.95658e-05
0.000454166 -6.94819e-05 -2.14308e-06
-6.94819e-05 3.31986e-05 4.37723e-06
-2.14308e-06 4.37723e-06 -2.88532e-05
0.00042838 4.73699e-06 -6.63767e-07
4.73699e-06 -3.03076e-05 1.04553e-08
-6.63767e-07 1.04553e-08 -4.34898e-05
0.00205076 2.85632e-05 -5.18672e-06
2.85632e-05 0.00102286 -5.222e-06
-5.18672e-06 -5.222e-06 0.00103808
0.00118643 2.01991e-05 -9.46814e-07
2.01991e-05 0.000461389 3.07138e-06
-9.46814e-07 3.07138e-06 0.00044907
0.00134084 3.37667e-05 -3.85523e-06
3.37667e-05 0.000564139 4.07604e-08
-3.85523e-06 4.07604e-08 0.000573777
0.000741354 3.97003e-05 -2.07322e-06
3.97003e-05 0.000182797 8.94805e-06
-2.07322e-06 8.94805e-06 0.000184643
-0.0061035 0.00282118 0.0010238
0.00282118 -0.00158186 -0.000119071
0.0010238 -0.000119071 -0.00664846
0.00291579 0.00244482 0.00225599
0.00244482 0.0103001 -0.000364896
0.00225599 -0.000364896 0.00362777
0.00211358 0.000898983 -0.000147716
0.000898983 -0.00352621 -4.96524e-05
-0.000147716 -4.96524e-05 -0.000549274
0.00288595 -6.22394e-05 3.01999e-05
-6.22394e-05 -0.00122136 -3.8042e-05
3.01999e-05 -3.8042e-05 -0.000232096
0.00282442 -8.72567e-05 5.39039e-05
-8.72567e-05 9.52017e-05 1.37761e-05
5.39039e-05 1.37761e-05 0.000284
-0.000715207 -0.000164955 -0.000138363
-0.000164955 -0.00270539 -3.95338e-05
-0.000138363 -3.95338e-05 -0.000592141
0.00440547 -0.000678542 3.38209e-06
-0.000678542 3.08262e-05 2.89186e-06
3.38209e-06 2.89186e-06 0.000621801
0.0126993 -0.000504814 0.000307097
-0.000504814 -0.00284069 -0.000127251
0.000307097 -0.000127251 -0.00275712
0.00659723 0.00628311 -1.15128e-05
0.00628311 0.00241644 -9.58594e-05
-1.15128e-05 -9.58594e-05 -0.00278852
0.0267655 0.0137541 -0.000851305
0.0137541 0.0178803 0.000316268
-0.000851305 0.000316268 0.0094026
0.00229628 -0.00148199 -5.59998e-06
-0.00148199 -0.00361939 -4.00997e-05
-5.59998e-06 -4.00997e-05 -0.00108409
0.0158726 -0.00427711 0.000317475
-0.00427711 -0.000143296 -7.8652e-05
0.000317475 -7.8652e-05 -0.00060123
0.0253069 0.00838216 0.000578175
0.00838216 0.0098789 -0.000496809
0.000578175 -0.000496809 0.00196969
0.0293599 0.00608213 -0.000383934
0.00608213 0.0114691 0.000380353
-0.000383934 0.000380353 0.00618814
0.0012522 0.000187542 -7.60222e-06
0.000187542 0.000688091 -1.32548e-06
-7.60222e-06 -1.32548e-06 0.000467857
0.000325116 3.5458e-05 1.08226e-06
3.5458e-05 -1.10681e-05 -6.77698e-07
1.08226e-06 -6.77698e-07 -0.00012944
0.000529656 -0.000108342 3.76136e-06
-0.000108342 0.000129805 3.89072e-06
3.76136e-06 3.89072e-06 9.70733e-06
0.000710724 -1.5037e-05 7.00038e-06
-1.5037e-05 0.00024032 2.0023e-06
7.00038e-06 2.0023e-06 0.000111422
0.000631933 7.69097e-05 4.0174e-06
7.69097e-05 0.000259288 8.29998e-08
4.0174e-06 8.29998e-08 0.000131104
0.000598952 8.36922e-05 -2.04576e-06
8.36922e-05 0.00020216 4.79061e-06
-2.04576e-06 4.79061e-06 8.69966e-06
0.000614273 8.39835e-05 -1.14102e-06
8.39835e-05 0.000208158 2.82252e-06
-1.14102e-06 2.82252e-06 5.51481e-05
0.000437171 0.000111296 2.9126e-06
0.000111296 4.29465e-05 3.10053e-06
2.9126e-06 3.10053e-06 -0.000121645
0.000575487 1.67979e-06 1.57024e-06
1.67979e-06 0.00017753 -1.25149e-06
1.57024e-06 -1.25149e-06 1.54291e-05
0.00033078 -3.25844e-05 3.29847e-06
-3.25844e-05 -9.89306e-06 3.24453e-07
3.29847e-06 3.24453e-07 -0.000130764
0.0010646 -0.000403426 4.44887e-05
-0.000403426 -0.0012189 -1.93865e-05
4.44887e-05 -1.93865e-05 -0.000649981
0.00129785 -0.000784328 2.52663e-05
-0.000784328 -0.000733848 -1.15242e-05
2.52663e-05 -1.15242e-05 -0.00054833
0.00112347 -0.000960852 1.09193e-05
-0.000960852 -0.000376199 5.13733e-06
1.09193e-05 5.13733e-06 -0.000660905
-0.000972808 -0.000868118 -1.51194e-05
-0.000868118 -0.00132761 -1.38034e-05
-1.51194e-05 -1.38034e-05 -0.00164636
0.00269456 -0.000796835 2.88815e-06
-0.000796835 0.00189915 4.94347e-05
2.88815e-06 4.94347e-05 0.00108176
-0.000826113 -0.000728776 -7.30451e-06
-0.000728776 -0.000399318 -1.83999e-05
-7.30451e-06 -1.83999e-05 -0.00112431
0.00135044 -0.000323437 1.45729e-05
-0.000323437 0.000687132 -4.81445e-06
1.45729e-05 -4.81445e-06 0.000460755
7.60943e-05 -4.55769e-05 5.11746e-06
-4.55769e-05 -5.36318e-05 6.6622e-06
5.11746e-06 6.6622e-06 -0.000214779
0.00286035 -0.000884228 1.43004e-05
-0.000884228 -0.000422996 -1.09483e-05
1.43004e-05 -1.09483e-05 0.000122157
0.000605931 -0.000130113 4.18887e-07
-0.000130113 0.000369063 2.20284e-06
4.18887e-07 2.20284e-06 6.12641e-05
-0.000325282 -0.00026375 -8.05251e-06
-0.00026375 -0.000101364 -2.40908e-06
-8.05251e-06 -2.40908e-06 -0.000483571
0.00198867 -0.00105386 1.98782e-05
-0.00105386 4.5122e-05 -1.27045e-06
1.98782e-05 -1.27045e-06 -0.00011915
0.00185712 -0.00126614 -1.60329e-06
-0.00126614 0.000105438 -4.70335e-06
-1.60329e-06 -4.70335e-06 -0.000207697
-5.19626e-05 -0.00083484 1.46503e-05
-0.00083484 -0.000424981 -1.66543e-05
1.46503e-05 -1.66543e-05 -0.000689367
0.000895086 -0.000518148 2.10143e-05
-0.000518148 0.000990859 -2.58311e-05
2.10143e-05 -2.58311e-05 0.000221633
0.00184826 -0.0014122 -4.41884e-05
-0.0014122 -0.000523502 4.66155e-05
-4.41884e-05 4.66155e-05 -0.000563196
0.00229494 -0.0011758 -4.58019e-05
-0.0011758 0.000486367 2.75794e-05
-4.58019e-05 2.75794e-05 0.000349791
-0.00101415 -0.000554045 -4.18415e-05
-0.000554045 -0.000455046 3.02924e-05
-4.18415e-05 3.02924e-05 -0.000875074
-0.00107997 -9.38746e-05 -9.45983e-06
-9.38746e-05 -0.00073815 6.78925e-06
-9.45983e-06 6.78925e-06 -0.00101288
-0.00126328 1.01012e-05 -3.40677e-06
1.01012e-05 -0.000691044 1.54138e-05
-3.40677e-06 1.54138e-05 -0.00105061
0.000764731 -9.50323e-05 1.77789e-06
-9.50323e-05 0.000592264 -3.81483e-06
1.77789e-06 -3.81483e-06 0.000194119
-0.00282572 0.00155123 -0.000658506
0.00155123 0.00831785 2.37007e-05
-0.000658506 2.37007e-05 0.00148311
-0.000193128 -0.00231467 -2.26348e-05
-0.00231467 0.00399989 -3.94949e-05
-2.26348e-05 -3.94949e-05 0.00180653
0.0056712 0.000759956 -0.000168525
0.000759956 -0.0068704 -4.61906e-05
-0.000168525 -4.61906e-05 -0.00691759
0.00144363 0.000490094 1.96318e-05
0.000490094 0.00089908 -7.68713e-06
1.96318e-05 -7.68713e-06 0.000525544
0.0018201 0.000847094 2.20859e-05
0.000847094 0.000781768 2.84059e-05
2.20859e-05 2.84059e-05 0.00023565
0.00380587 0.00150694 9.46983e-05
0.00150694 0.000636392 4.20276e-05
9.46983e-05 4.20276e-05 0.000430917
0.0018281 0.00122038 2.78059e-05
0.00122038 0.000556776 3.0255e-05
2.78059e-05 3.0255e-05 -6.42944e-05
0.0158886 -0.00532789 0.000356191
-0.00532789 0.00780606 0.000106763
0.000356191 0.000106763 0.00326035
0.00351295 0.00317705 -0.000582808
0.00317705 -0.00725581 -0.000142326
-0.000582808 -0.000142326 -0.00752539
0.006292 0.00434576 4.4493e-05
0.00434576 0.000504737 2.4222e-05
4.4493e-05 2.4222e-05 0.00172506
0.00336283 0.00191547 9.70729e-05
0.00191547 0.00138569 1.25381e-05
9.70729e-05 1.25381e-05 0.00106392
0.0155315 -0.00423708 -0.000776338
-0.00423708 0.00678173 -0.000250357
-0.000776338 -0.000250357 0.000104614
0.0032701 -0.00688124 -0.00139271
-0.00688124 0.0115809 -0.00027814
-0.00139271 -0.00027814 0.00305892
0.035755 -0.00891723 0.00128855
-0.00891723 0.0122006 0.000494398
0.00128855 0.000494398 0.00528292
0.000164547 0.000371183 1.19893e-05
0.000371183 2.9686e-05 -5.93186e-06
1.19893e-05 -5.93186e-06 -0.000283887
-0.00226796 6.95342e-06 -0.000180541
6.95342e-06 0.00828185 -2.15948e-05
-0.000180541 -2.15948e-05 0.000462164
0.00792719 0.00251987 -0.00026043
0.00251987 0.00449706 -0.000206452
-0.00026043 -0.000206452 -0.00185998
0.00195716 0.00129977 1.21899e-05
0.00129977 0.000325248 4.00808e-06
1.21899e-05 4.00808e-06 8.24947e-05
0.00106329 0.000966892 1.5953e-05
0.000966892 0.000412294 8.13421e-06
1.5953e-05 8.13421e-06 -0.000140156
0.00125838 0.00159856 -0.000119441
0.00159856 0.00076128 -9.02166e-05
-0.000119441 -9.02166e-05 6.16905e-05
0.00333326 0.00478865 7.99394e-05
0.00478865 0.000632782 5.46299e-05
7.99394e-05 5.46299e-05 0.000879454
0.013082 0.00751464 -2.45297e-05
0.00751464 0.000573805 -3.78641e-06
-2.45297e-05 -3.78641e-06 -0.00133151
0.0114141 -0.00516408 0.000127557
-0.00516408 0.00891855 -0.000153382
0.000127557 -0.000153382 0.000228236
0.0185974 -0.00215559 -5.47844e-05
-0.00215559 0.0029784 -6.318e-05
-5.47844e-05 -6.318e-05 0.00303467
0.00138788 0.000832102 -2.0215e-05
0.000832102 0.000720206 -9.96658e-06
-2.0215e-05 -9.96658e-06 0.0002617
0.00147093 0.000487723 -0.000557673
0.000487723 0.00342929 -0.000154512
-0.000557673 -0.000154512 -0.00328174
0.00235361 0.00158089 -0.000183799
0.00158089 0.000469205 -0.000206133
-0.000183799 -0.000206133 -0.00193587
-0.000988277 0.000529369 -6.66923e-06
0.000529369 -0.000190177 -2.9514e-05
-6.66923e-06 -2.9514e-05 -0.000597282
-0.00193445 0.00117939 -0.000181711
0.00117939 0.000814213 4.01931e-06
-0.000181711 4.01931e-06 3.77783e-06
0.00934771 0.00728929 0.000253308
0.00728929 0.00373299 -6.86586e-06
0.000253308 -6.86586e-06 -0.00144353
0.0059877 -0.00682842 -1.87717e-05
-0.00682842 0.00205825 0.000238889
-1.87717e-05 0.000238889 -0.00514421
0.0156668 -0.000491768 8.33148e-05
-0.000491768 -0.000919853 -0.000345977
8.33148e-05 -0.000345977 0.000596585
0.00172517 0.000368693 6.03816e-06
0.000368693 0.00102095 2.41973e-05
6.03816e-06 2.41973e-05 0.000766819
0.000943684 0.000317523 -8.61029e-06
0.000317523 0.000660686 -6.34466e-06
-8.61029e-06 -6.34466e-06 0.000362174
-0.000602556 0.000167409 2.04213e-06
0.000167409 -6.86843e-05 -5.4933e-07
2.04213e-06 -5.4933e-07 -0.000502131
0.000418247 8.22426e-05 5.34224e-07
8.22426e-05 6.20616e-05 1.68521e-09
5.34224e-07 1.68521e-09 -0.000122248
0.00131607 -2.82935e-05 -3.51719e-06
-2.82935e-05 0.000719775 5.95843e-06
-3.51719e-06 5.95843e-06 0.000474924
-0.000173947 8.42555e-05 2.76513e-06
8.42555e-05 -0.000262781 7.32424e-06
2.76513e-06 7.32424e-06 -0.00044293
-0.00106939 9.60221e-05 4.63157e-07
9.60221e-05 -0.000466858 1.62846e-06
4.63157e-07 1.62846e-06 -0.000824752
0.000525045 -3.51682e-05 2.12637e-06
-3.51682e-05 0.000190899 5.90362e-07
2.12637e-06 5.90362e-07 -2.48842e-05
0.000393618 8.46147e-05 5.74661e-07
8.46147e-05 0.000245557 -2.31704e-06
5.74661e-07 -2.31704e-06 -2.0686e-05
3.86353e-05 3.81896e-05 1.57363e-06
3.81896e-05 0.000405689 2.10333e-06
1.57363e-06 2.10333e-06 -0.000102123
-0.000975485 1.84469e-05 6.04953e-07
1.84469e-05 -5.86567e-05 1.06218e-05
6.04953e-07 1.06218e-05 -0.000636841
0.000577559 6.44156e-07 9.27283e-07
6.44156e-07 0.000671794 -3.70897e-06
9.27283e-07 -3.70897e-06 0.000208769
0.0017165 2.74885e-05 -4.26029e-06
2.74885e-05 0.00108409 2.58253e-06
-4.26029e-06 2.58253e-06 0.000819259
0.000901441 -0.000183727 4.54986e-06
-0.000183727 0.000435864 3.90978e-06
4.54986e-06 3.90978e-06 0.000233346
0.000247613 -0.000102249 -9.37968e-07
-0.000102249 -9.93795e-05 6.26602e-06
-9.37968e-07 6.26602e-06 -0.000233249
-0.000244889 -6.88174e-05 1.03112e-05
-6.88174e-05 -0.000303763 1.38718e-05
1.03112e-05 1.38718e-05 -0.000414286
0.000201927 -2.79828e-05 1.14471e-06
-2.79828e-05 9.46912e-05 1.3218e-06
1.14471e-06 1.3218e-06 -0.000126351
0.000517819 -4.85716e-05 6.2921e-07
-4.85716e-05 0.000172927 1.12429e-06
6.2921e-07 1.12429e-06 -7.43e-06
3.25668e-05 -8.33973e-05 -3.91615e-06
-8.33973e-05 -7.52199e-05 3.58288e-08
-3.91615e-06 3.58288e-08 -0.000225011
0.00070653 -0.000118443 -2.40875e-06
-0.000118443 0.00031639 -8.92549e-06
-2.40875e-06 -8.92549e-06 0.000172969
0.000968449 -0.000115912 6.91952e-06
-0.000115912 0.000692388 -1.23131e-05
6.91952e-06 -1.23131e-05 0.000466931
0.00224003 -0.000406947 6.59779e-06
-0.000406947 0.00107254 3.00481e-06
6.59779e-06 3.00481e-06 0.000942074
0.000454278 -0.000152214 -2.24376e-05
-0.000152214 3.16433e-05 2.41451e-07
-2.24376e-05 2.41451e-07 -8.51069e-05
0.000943673 -0.000363147 1.0374e-05
-0.000363147 0.000257921 4.11197e-06
1.0374e-05 4.11197e-06 3.39542e-05
0.00277486 -0.000814246 -4.04637e-06
-0.000814246 0.00133788 1.91919e-05
-4.04637e-06 1.91919e-05 0.000875876
0.00253201 -0.000337219 1.19547e-05
-0.000337219 0.00126199 -8.2418e-06
1.19547e-05 -8.2418e-06 0.0010368
0.00162572 -0.000401477 -8.52587e-07
-0.000401477 0.00068858 -6.57378e-06
-8.52587e-07 -6.57378e-06 0.000459138
0.000318587 -0.000142099 -7.62205e-07
-0.000142099 5.54359e-05 -2.33296e-07
-7.62205e-07 -2.33296e-07 -0.000173539
-0.00114103 -8.44831e-05 1.11303e-06
-8.44831e-05 -0.000809771 -3.79622e-06
1.11303e-06 -3.79622e-06 -0.00111704
0.00157341 -6.80251e-05 1.67691e-06
-6.80251e-05 0.000878777 4.40594e-06
1.67691e-06 4.40594e-06 0.00065227
0.000718153 -0.000202274 2.15323e-06
-0.000202274 0.000307705 -1.3951e-06
2.15323e-06 -1.3951e-06 6.02768e-05
0.000312745 -7.78278e-05 2.85095e-06
-7.78278e-05 -5.00627e-05 -1.61839e-06
2.85095e-06 -1.61839e-06 -0.000217154
0.00176124 -0.000328997 -5.66972e-06
-0.000328997 0.000985744 2.58072e-07
-5.66972e-06 2.58072e-07 0.000763937
0.000701546 -0.000153139 -3.15881e-07
-0.000153139 0.00023631 -2.5283e-08
-3.15881e-07 -2.5283e-08 7.05441e-05
0.000325098 -1.19601e-05 1.59656e-06
-1.19601e-05 -5.57317e-05 5.02026e-06
1.59656e-06 5.02026e-06 -0.000159055
0.00090795 -0.000165696 -1.15872e-06
-0.000165696 0.000387526 -9.36963e-07
-1.15872e-06 -9.36963e-07 0.000222188
0.000562875 -7.61267e-05 -5.35189e-07
-7.61267e-05 0.000106452 -9.75794e-08
-5.35189e-07 -9.75794e-08 7.06029e-06
0.00144537 3.3551e-06 -1.44515e-05
3.3551e-06 0.000637787 8.78817e-06
-1.44515e-05 8.78817e-06 0.000609313
0.000503464 -8.09962e-05 8.30335e-07
-8.09962e-05 7.14754e-05 -4.91378e-06
8.30335e-07 -4.91378e-06 -2.48704e-05
0.000830642 -1.82984e-05 -1.28788e-05
-1.82984e-05 0.000245852 8.64755e-07
-1.28788e-05 8.64755e-07 0.000217077
0.000795778 1.89308e-05 2.06008e-06
1.89308e-05 0.000204998 3.11742e-06
2.06008e-06 3.11742e-06 0.000205139
0.000392907 -5.04896e-05 3.63244e-06
-5.04896e-05 -3.0552e-05 -5.64847e-06
3.63244e-06 -5.64847e-06 -6.13626e-05
0.00167127 1.58609e-05 1.53821e-05
1.58609e-05 0.000776952 -1.60523e-06
1.53821e-05 -1.60523e-06 0.000784762
0.00250442 3.65857e-06 1.97267e-05
3.65857e-06 0.00131862 -5.35463e-06
1.97267e-05 -5.35463e-06 0.00133125
0.000459794 8.00793e-05 3.54892e-07
8.00793e-05 4.96988e-05 -2.60111e-06
3.54892e-07 -2.60111e-06 -7.60659e-05
0.000553828 7.71785e-05 -1.49534e-06
7.71785e-05 9.5804e-05 -4.18514e-06
-1.49534e-06 -4.18514e-06 2.62091e-05
0.000536317 1.69605e-05 5.13301e-07
1.69605e-05 0.000118869 7.01789e-07
5.13301e-07 7.01789e-07 -3.13501e-06
0.000419865 1.05455e-05 2.01852e-06
1.05455e-05 -3.53918e-05 -4.64484e-06
2.01852e-06 -4.64484e-06 -4.85799e-05
0.000445324 6.50577e-05 -6.50693e-08
6.50577e-05 2.37602e-05 -2.42819e-07
-6.50693e-08 -2.42819e-07 -3.68119e-05
0.000405858 -0.000118225 -2.38818e-06
-0.000118225 2.83523e-05 3.54337e-06
-2.38818e-06 3.54337e-06 -8.22758e-05
0.00203748 1.38709e-05 -1.01062e-05
1.38709e-05 0.00101209 -5.20289e-06
-1.01062e-05 -5.20289e-06 0.00102863
0.000409207 8.43817e-06 -3.17357e-07
8.43817e-06 -4.21329e-05 1.73842e-08
-3.17357e-07 1.73842e-08 -5.43948e-05
0.000471597 4.34122e-06 -2.80924e-07
4.34122e-06 2.81118e-05 3.81741e-06
-2.80924e-07 3.81741e-06 -2.17777e-05
0.00042672 1.38278e-06 -2.0212e-06
1.38278e-06 -3.2283e-05 4.33905e-06
-2.0212e-06 4.33905e-06 -4.54317e-05
0.00207291 2.97052e-05 -5.89441e-06
2.97052e-05 0.00103737 -1.60363e-07
-5.89441e-06 -1.60363e-07 0.00105234
0.00209602 4.53732e-05 -3.33198e-07
4.53732e-05 0.0010553 5.34701e-06
-3.33198e-07 5.34701e-06 0.00106831
-0.00292528 -0.00212961 -0.000346264
-0.00212961 0.00867357 7.33792e-05
-0.000346264 7.33792e-05 0.00344426
0.00518714 0.0030601 -0.000442814
0.0030601 0.00270494 0.000141797
-0.000442814 0.000141797 -0.00169115
0.00306331 -0.00124977 -0.000662895
-0.00124977 0.00145177 0.000312888
-0.000662895 0.000312888 -0.00373482
0.005385 0.00324531 0.00158977
0.00324531 0.0100373 -0.000288238
0.00158977 -0.000288238 0.0028015
0.00503698 0.00101911 -3.14798e-05
0.00101911 -0.000694049 -1.01653e-05
-3.14798e-05 -1.01653e-05 0.000909708
0.00355425 -0.000740235 0.000111496
-0.000740235 -0.000422643 1.86144e-05
0.000111496 1.86144e-05 7.68546e-05
0.00235538 -0.00056814 0.000453327
-0.00056814 -0.00752871 -4.01189e-05
0.000453327 -4.01189e-05 -0.00760739
0.0262472 0.00578919 -0.00171171
0.00578919 0.0123695 7.02552e-06
-0.00171171 7.02552e-06 0.00645061
0.0192554 0.0166566 -0.00324571
0.0166566 0.0137464 0.00189186
-0.00324571 0.00189186 0.00452699
0.00546615 -0.00119154 6.30658e-05
-0.00119154 -0.00142461 3.53425e-06
6.30658e-05 3.53425e-06 0.000340212
0.00776899 -0.00416557 0.000241625
-0.00416557 -0.00485846 -0.000209599
0.000241625 -0.000209599 -0.00578399
0.0257895 0.00822945 -0.000459966
0.00822945 0.0103904 -0.000175269
-0.000459966 -0.000175269 0.00250432
0.0213607 0.00564046 0.000230539
0.00564046 0.00819021 0.000510413
0.000230539 0.000510413 0.00297452
0.00195124 -0.00275258 -0.000109522
-0.00275258 -0.00435441 5.64346e-05
-0.000109522 5.64346e-05 -0.00170299
0.00608823 -0.00672631 0.000756614
-0.00672631 -0.001444 -0.00028295
0.000756614 -0.00028295 -0.00386089
0.0156858 0.00403033 -0.000185339
0.00403033 0.00606398 -0.0011187
-0.000185339 -0.0011187 -0.00187495
0.0103346 -0.000434413 -0.000420468
-0.000434413 -0.000393442 4.92657e-05
-0.000420468 4.92657e-05 -0.000993226
0.00214734 -4.56927e-05 -1.70921e-06
-4.56927e-05 0.00128646 1.46154e-05
-1.70921e-06 1.46154e-05 0.000985147
0.000181038 6.90118e-05 -1.50766e-06
6.90118e-05 -4.81118e-05 -2.20289e-06
-1.50766e-06 -2.20289e-06 -0.000209592
0.00056544 0.000119888 4.89355e-06
0.000119888 0.000135026 2.27308e-06
4.89355e-06 2.27308e-06 1.96372e-05
-0.000316242 -6.64123e-05 4.18523e-06
-6.64123e-05 -0.000400623 3.69064e-07
4.18523e-06 3.69064e-07 -0.000464448
0.000386948 0.000157669 -2.19158e-07
0.000157669 3.29042e-05 8.92603e-06
-2.19158e-07 8.92603e-06 -0.000166648
0.000522764 8.50852e-05 -1.07557e-07
8.50852e-05 0.000151552 1.01376e-06
-1.07557e-07 1.01376e-06 -3.07916e-05
-2.00165e-05 8.87778e-06 3.54546e-06
8.87778e-06 -0.000207144 6.0389e-07
3.54546e-06 6.0389e-07 -0.000342396
0.000941777 0.000198131 5.18014e-06
0.000198131 0.000417813 1.04584e-05
5.18014e-06 1.04584e-05 0.000213027
0.000960744 0.000180034 1.20084e-07
0.000180034 0.000440132 -5.31928e-07
1.20084e-07 -5.31928e-07 0.000233366
0.00030772 1.78882e-05 -1.57158e-06
1.78882e-05 -7.47748e-06 -3.15572e-06
-1.57158e-06 -3.15572e-06 -0.000165152
0.000799649 -0.000729952 0.000109496
-0.000729952 -0.00159956 -6.5026e-05
0.000109496 -6.5026e-05 -0.000963847
0.000444115 -0.00087693 6.68533e-06
-0.00087693 -0.000850873 -1.29177e-05
6.68533e-06 -1.29177e-05 -0.000886553
0.00172609 -0.0012397 5.71817e-06
-0.0012397 2.34245e-06 9.37542e-06
5.71817e-06 9.37542e-06 -0.000233002
-0.000924621 -0.000849165 4.96033e-06
-0.000849165 -0.000922693 -1.30332e-05
4.96033e-06 -1.30332e-05 -0.0012429
0.00437979 -0.000690487 -5.39231e-05
-0.000690487 0.00283161 7.38466e-05
-5.39231e-05 7.38466e-05 0.00228095
0.000599869 -0.000286443 -4.30112e-07
-0.000286443 0.000479445 -1.8743e-06
-4.30112e-07 -1.8743e-06 8.41561e-05
0.000407801 7.37369e-05 2.43393e-06
7.37369e-05 0.000218633 -1.13642e-05
2.43393e-06 -1.13642e-05 -7.80624e-05
0.000624048 -2.44651e-06 -5.80848e-06
-2.44651e-06 0.000326345 6.0618e-06
-5.80848e-06 6.0618e-06 2.24532e-05
0.0028948 -0.00141755 -2.69055e-05
-0.00141755 -1.32756e-06 1.87465e-06
-2.69055e-05 1.87465e-06 0.000126656
0.000608692 -4.83952e-05 1.65664e-06
-4.83952e-05 0.000411946 3.12988e-06
1.65664e-06 3.12988e-06 7.64352e-05
0.00243551 -0.000456907 9.27174e-06
-0.000456907 0.00158582 -5.04362e-06
9.27174e-06 -5.04362e-06 0.00117042
0.00179408 -0.00112728 2.00414e-05
-0.00112728 0.000200455 -5.4666e-06
2.00414e-05 -5.4666e-06 5.18846e-05
0.000396781 -0.000721156 -3.37113e-05
-0.000721156 0.000278169 1.0984e-05
-3.37113e-05 1.0984e-05 -0.000113339
0.00286521 -0.00239727 6.00391e-05
-0.00239727 0.000451418 -3.00518e-05
6.00391e-05 -3.00518e-05 -3.09225e-05
0.00155898 -0.000835641 -2.04307e-05
-0.000835641 0.000787748 3.24982e-05
-2.04307e-05 3.24982e-05 0.000548336
-0.00185289 -0.000177174 6.38615e-06
-0.000177174 -0.000703553 3.89382e-06
6.38615e-06 3.89382e-06 -0.00126962
0.000217838 9.21662e-05 -2.58818e-07
9.21662e-05 8.22763e-05 4.61238e-06
-2.58818e-07 4.61238e-06 -0.000125961
-7.8916e-05 -0.000159685 -1.6003e-06
-0.000159685 9.69959e-05 1.9632e-05
-1.6003e-06 1.9632e-05 -0.000285907
0.00191237 0.000325489 -0.000119786
0.000325489 0.00241211 -4.17537e-05
-0.000119786 -4.17537e-05 -0.00276618
-0.00786739 0.000395915 -0.000660066
0.000395915 0.00761785 -1.70756e-05
-0.000660066 -1.70756e-05 0.00142825
-0.0136027 -0.00399974 -0.00122908
-0.00399974 -0.00378538 1.86147e-06
-0.00122908 1.86147e-06 -0.00690605
0.00063639 0.000469384 2.09731e-05
0.000469384 0.000406104 -8.6931e-07
2.09731e-05 -8.6931e-07 2.861e-05
-0.000323156 0.000790767 2.05298e-06
0.000790767 -0.000268566 1.03607e-05
2.05298e-06 1.03607e-05 -0.00081246
0.00306046 0.00154924 6.11676e-05
0.00154924 0.000934111 5.07044e-05
6.11676e-05 5.07044e-05 0.000594942
-0.00347586 0.0023265 0.000171997
0.0023265 0.00933289 7.41163e-05
0.000171997 7.41163e-05 0.00344007
0.00550362 0.0066744 -0.000638314
0.0066744 -0.00201253 -0.000218531
-0.000638314 -0.000218531 -0.00408245
2.56578e-05 0.00315866 0.000517657
0.00315866 -0.000591621 0.000216828
0.000517657 0.000216828 -0.000276223
5.06135e-05 0.00143199 -1.14538e-05
0.00143199 0.000102599 -4.17091e-05
-1.14538e-05 -4.17091e-05 -0.000214675
0.0317536 -0.00480832 3.52506e-05
-0.00480832 0.0125909 -0.000544145
3.52506e-05 -0.000544145 0.00559454
0.00855998 0.00321493 0.000993579
0.00321493 0.00417134 0.000333335
0.000993579 0.000333335 -0.00284704
0.0140893 -0.00119513 0.000165568
-0.00119513 0.00287107 6.28941e-05
0.000165568 6.28941e-05 0.0038683
0.0016379 0.000843563 1.10944e-05
0.000843563 0.00093399 -9.40817e-07
1.10944e-05 -9.40817e-07 0.000480243
0.00396612 0.00135032 -6.93112e-05
0.00135032 0.00447077 -3.52567e-06
-6.93112e-05 -3.52567e-06 -0.000866443
0.00247867 0.00125532 0.000128836
0.00125532 0.000830585 -1.52282e-05
0.000128836 -1.52282e-05 -0.00143494
9.72861e-06 0.000869815 -9.91432e-06
0.000869815 0.000235253 -6.47918e-06
-9.91432e-06 -6.47918e-06 -0.000286275
-0.000843842 0.0021425 -0.00014657
0.0021425 0.000394715 -8.82698e-05
-0.00014657 -8.82698e-05 -0.000988585
0.00241543 0.00744172 0.000401403
0.00744172 0.00149997 0.000131114
0.000401403 0.000131114 -0.00314803
0.0126578 -0.000499564 1.60298e-05
-0.000499564 -0.00292072 -0.000230955
1.60298e-05 -0.000230955 -0.00102795
0.00956873 -0.00309123 -0.000132148
-0.00309123 0.00540712 -0.000233408
-0.000132148 -0.000233408 -0.00166845
0.00123548 0.000728314 -6.34807e-06
0.000728314 0.00107132 -1.15626e-05
-6.34807e-06 -1.15626e-05 0.000508998
-0.00417005 0.000793 5.28485e-05
0.000793 0.00113037 7.03147e-05
5.28485e-05 7.03147e-05 -0.000878576
0.00752099 -0.000952818 0.00027104
-0.000952818 0.000236961 -0.000116622
0.00027104 -0.000116622 -0.00164392
0.0101238 -0.000255925 0.000378676
-0.000255925 -0.000455549 -9.74725e-06
0.000378676 -9.74725e-06 -0.000806659
-0.0030237 0.00038389 6.37227e-05
0.00038389 0.000253927 -1.4891e-05
6.37227e-05 -1.4891e-05 -0.000846973
0.00864046 0.00427916 0.000421923
0.00427916 0.00573408 0.000192216
0.000421923 0.000192216 -0.00119736
0.00667177 -0.000638245 -3.74624e-05
-0.000638245 0.00327023 0.000394748
-3.74624e-05 0.000394748 -0.00134796
0.00324827 0.000569801 2.68252e-05
0.000569801 0.00209244 1.17368e-05
2.68252e-05 1.17368e-05 0.00173168
0.000344518 0.000312328 -8.66462e-06
0.000312328 0.000508916 -2.18888e-06
-8.66462e-06 -2.18888e-06 2.30163e-05
0.000425376 0.000318971 -7.60213e-07
0.000318971 0.000706575 -1.58675e-05
-7.60213e-07 -1.58675e-05 4.62579e-05
-1.9807e-06 9.38689e-05 2.8809e-06
9.38689e-05 -0.000142152 -3.38251e-06
2.8809e-06 -3.38251e-06 -0.000354811
0.000491023 0.000131342 -5.79258e-07
0.000131342 0.000295088 8.82887e-07
-5.79258e-07 8.82887e-07 4.44497e-05
-0.000178231 2.70535e-05 1.10439e-06
2.70535e-05 0.000332468 -7.52894e-06
1.10439e-06 -7.52894e-06 -0.000213663
0.000398329 2.4499e-05 4.47439e-08
2.4499e-05 0.00022367 -6.08262e-07
4.47439e-08 -6.08262e-07 -1.30073e-05
0.000838036 -7.28059e-05 1.15396e-07
-7.28059e-05 0.000862637 -2.92186e-06
1.15396e-07 -2.92186e-06 0.000382517
-0.000129187 2.7972e-05 4.18456e-06
2.7972e-05 0.000452943 1.25995e-06
4.18456e-06 1.25995e-06 -0.000121809
2.43269e-05 -7.75539e-05 -1.26691e-06
-7.75539e-05 0.000492907 1.67143e-05
-1.26691e-06 1.67143e-05 -7.36763e-06
0.000868872 -7.24111e-05 1.18638e-06
-7.24111e-05 0.000781974 -1.43812e-05
1.18638e-06 -1.43812e-05 0.000420663
-0.000166638 -3.39572e-05 6.32163e-06
-3.39572e-05 -0.000174419 7.01098e-06
6.32163e-06 7.01098e-06 -0.000364452
0.00156459 -8.0525e-05 3.83727e-07
-8.0525e-05 0.000797468 6.54053e-06
3.83727e-07 6.54053e-06 0.000628028
-1.24099e-07 -6.53317e-05 -7.91999e-06
-6.53317e-05 -6.01043e-05 1.02666e-05
-7.91999e-06 1.02666e-05 -0.000227166
0.000594843 -8.97291e-05 8.33659e-07
-8.97291e-05 0.000446999 5.41887e-07
8.33659e-07 5.41887e-07 0.000232725
-1.3879e-05 -5.53519e-05 -2.79872e-06
-5.53519e-05 -0.000113452 -1.94236e-06
-2.79872e-06 -1.94236e-06 -0.000256897
0.00133861 -0.000333977 1.95181e-06
-0.000333977 0.000682583 1.73635e-06
1.95181e-06 1.73635e-06 0.000522256
0.000535325 -0.00024368 -2.269e-05
-0.00024368 0.000129497 2.22758e-08
-2.269e-05 2.22758e-08 5.81794e-05
-0.000520455 -0.000342335 1.67023e-05
-0.000342335 -0.000458801 2.06697e-05
1.67023e-05 2.06697e-05 -0.000818626
-9.20401e-05 -0.000138922 1.34479e-06
-0.000138922 -0.000286179 2.75273e-06
1.34479e-06 2.75273e-06 -0.000401759
0.00114898 -0.000385486 -5.96828e-06
-0.000385486 0.000373443 9.62268e-06
-5.96828e-06 9.62268e-06 0.000139562
0.00221364 -0.000768287 -6.36894e-06
-0.000768287 0.000965915 1.05751e-05
-6.36894e-06 1.05751e-05 0.000477709
0.00210901 -0.000821161 -2.62232e-06
-0.000821161 0.000813256 -2.45866e-06
-2.62232e-06 -2.45866e-06 0.000274285
0.0020698 -0.000528283 5.86876e-06
-0.000528283 0.000937215 1.11151e-06
5.86876e-06 1.11151e-06 0.000613076
0.000748966 -0.000528184 1.15643e-05
-0.000528184 8.19347e-05 -3.42962e-06
1.15643e-05 -3.42962e-06 -0.000299082
0.0011527 -0.000236486 3.55061e-06
-0.000236486 0.00055087 -5.44964e-06
3.55061e-06 -5.44964e-06 0.000220852
0.00104958 -0.000252062 -7.64146e-06
-0.000252062 0.000386426 1.85615e-06
-7.64146e-06 1.85615e-06 0.000148609
-0.000195753 -0.00022249 2.04237e-05
-0.00022249 -0.000440034 -1.34825e-05
2.04237e-05 -1.34825e-05 -0.000609532
0.00138245 -0.000163832 -5.34022e-06
-0.000163832 0.000702065 4.45899e-06
-5.34022e-06 4.45899e-06 0.000465422
-7.13612e-05 -0.0001437 4.93824e-07
-0.0001437 -0.000156035 1.05595e-06
4.93824e-07 1.05595e-06 -0.00045926
-0.000231315 -4.29702e-05 2.04406e-06
-4.29702e-05 -0.000358583 -1.65322e-06
2.04406e-06 -1.65322e-06 -0.000590047
0.00219336 -0.000423608 -4.3023e-06
-0.000423608 0.00123224 5.95693e-07
-4.3023e-06 5.95693e-07 0.000971363
0.000787495 -0.000181693 -4.16993e-07
-0.000181693 0.000275079 -6.18294e-08
-4.16993e-07 -6.18294e-08 8.4549e-05
0.000375155 -1.69915e-05 4.79979e-06
-1.69915e-05 -1.26895e-05 6.42296e-06
4.79979e-06 6.42296e-06 -0.000142668
0.000879454 -0.000222817 -1.21085e-06
-0.000222817 0.000368784 2.02146e-08
-1.21085e-06 2.02146e-08 0.000186735
0.000443741 -9.21119e-06 -2.32196e-06
-9.21119e-06 3.87837e-05 -4.13e-07
-2.32196e-06 -4.13e-07 -7.83558e-05
0.00149322 -1.51212e-05 -2.23637e-05
-1.51212e-05 0.000668114 6.8392e-06
-2.23637e-05 6.8392e-06 0.000636
0.000670269 -9.27179e-05 4.81696e-07
-9.27179e-05 0.000185116 -5.33043e-06
4.81696e-07 -5.33043e-06 7.94648e-05
0.000848312 -1.99015e-05 -1.21305e-05
-1.99015e-05 0.000251826 6.0536e-07
-1.21305e-05 6.0536e-07 0.000220483
0.00082999 2.93526e-05 1.46505e-06
2.93526e-05 0.000224472 3.62925e-06
1.46505e-06 3.62925e-06 0.000221325
0.000419586 -4.50776e-05 3.69227e-06
-4.50776e-05 -2.04967e-05 -6.79865e-06
3.69227e-06 -6.79865e-06 -5.32647e-05
0.00176438 2.7885e-05 1.86489e-05
2.7885e-05 0.000834496 -1.35496e-06
1.86489e-05 -1.35496e-06 0.000840734
0.00256948 1.65482e-05 2.49865e-05
1.65482e-05 0.0013575 -5.72698e-06
2.49865e-05 -5.72698e-06 0.00136997
0.000157631 3.50521e-05 4.99796e-07
3.50521e-05 -0.000130763 2.97658e-06
4.99796e-07 2.97658e-06 -0.000286527
-5.43907e-06 2.66683e-05 -2.47579e-07
2.66683e-05 -0.000273868 -5.96295e-06
-2.47579e-07 -5.96295e-06 -0.00035215
0.000546478 8.12022e-05 -3.03782e-07
8.12022e-05 0.000118647 5.77769e-07
-3.03782e-07 5.77769e-07 -1.76865e-05
0.000430168 1.40944e-05 1.63714e-06
1.40944e-05 -2.96185e-05 -5.01928e-06
1.63714e-06 -5.01928e-06 -4.57881e-05
0.000289851 8.83376e-06 1.70933e-06
8.83376e-06 -8.54889e-05 4.22685e-08
1.70933e-06 4.22685e-08 -0.00015079
0.00017413 -0.000101445 4.82766e-07
-0.000101445 -0.000118734 2.48845e-06
4.82766e-07 2.48845e-06 -0.000240109
0.00208419 -5.34883e-07 -1.43617e-05
-5.34883e-07 0.00104129 -5.32363e-06
-1.43617e-05 -5.32363e-06 0.00105793
0.000413401 8.01342e-06 2.17555e-07
8.01342e-06 -4.02164e-05 -7.89451e-08
2.17555e-07 -7.89451e-08 -5.30633e-05
0.00038659 -1.01412e-05 -3.19856e-06
-1.01412e-05 -2.18318e-05 4.03303e-06
-3.19856e-06 4.03303e-06 -7.79839e-05
0.00207232 1.51227e-05 -5.04769e-06
1.51227e-05 0.00103517 -2.01751e-08
-5.04769e-06 -2.01751e-08 0.00105134
0.000412178 5.8956e-06 -1.7625e-06
5.8956e-06 -3.99932e-05 4.13088e-06
-1.7625e-06 4.13088e-06 -5.22718e-05
0.00206141 3.07241e-05 5.38668e-06
3.07241e-05 0.00102997 5.4671e-06
5.38668e-06 5.4671e-06 0.00104478
-0.000889656 -0.00159378 -0.000357298
-0.00159378 -0.000170411 0.000153843
-0.000357298 0.000153843 -0.00455691
0.00423716 0.00194352 -0.000248158
0.00194352 0.0109281 6.41044e-05
-0.000248158 6.41044e-05 0.00431039
0.00528171 0.000913503 -0.00152455
0.000913503 0.00519473 0.000335509
-0.00152455 0.000335509 0.00261448
0.000596163 0.000130235 8.51887e-06
0.000130235 0.000171918 9.06634e-06
8.51887e-06 9.06634e-06 -7.28727e-06
0.00651644 -0.0014613 -0.000216443
-0.0014613 0.0042153 0.000337208
-0.000216443 0.000337208 0.00124964
0.00464919 -0.00167174 -0.000332412
-0.00167174 0.00233128 3.93831e-05
-0.000332412 3.93831e-05 -0.00293097
0.0196023 0.00773348 0.000263734
0.00773348 0.0120248 -0.000528431
0.000263734 -0.000528431 0.00386995
0.00777624 -0.00182721 0.000164097
-0.00182721 -0.00039157 -2.28749e-05
0.000164097 -2.28749e-05 0.000884683
0.0153626 -0.00393565 0.000390417
-0.00393565 3.61267e-05 -0.000247584
0.000390417 -0.000247584 0.000509985
0.0181833 0.00634608 -0.00103493
0.00634608 0.00527474 0.000422882
-0.00103493 0.000422882 -0.00222162
0.0164279 0.00490345 0.000265891
0.00490345 0.00965462 0.000295778
0.000265891 0.000295778 0.00538999
0.00780331 -0.00354851 -9.67263e-05
-0.00354851 -0.000843426 -6.56038e-06
-9.67263e-05 -6.56038e-06 0.00069077
0.0127864 -0.0070466 5.1379e-07
-0.0070466 0.000889986 -4.75758e-05
5.1379e-07 -4.75758e-05 -0.00127981
0.0115505 0.00276404 0.00013479
0.00276404 0.00733806 -0.000464838
0.00013479 -0.000464838 4.95809e-05
0.0156945 0.00138224 -1.26533e-05
0.00138224 0.00181159 7.17383e-05
-1.26533e-05 7.17383e-05 5.72038e-05
0.00394708 -0.0038666 -4.46649e-05
-0.0038666 0.000567724 6.64123e-05
-4.46649e-05 6.64123e-05 0.00139435
0.0111514 -0.00694249 0.000299369
-0.00694249 0.00478553 -0.000178653
0.000299369 -0.000178653 0.00086641
0.00871747 -5.41799e-05 2.41741e-05
-5.41799e-05 0.00636346 -0.000517428
2.41741e-05 -0.000517428 0.00141858
0.0152231 -0.000365885 -0.000225999
-0.000365885 -0.0003649 0.000323949
-0.000225999 0.000323949 0.000629807
0.000207136 0.000165023 9.59785e-06
0.000165023 1.11095e-05 1.4751e-05
9.59785e-06 1.4751e-05 -0.000205663
0.000494757 -0.000102351 4.14806e-07
-0.000102351 0.00021755 -5.36662e-07
4.14806e-07 -5.36662e-07 -4.48912e-05
0.000319213 5.74656e-05 6.91918e-06
5.74656e-05 3.33851e-05 4.49356e-07
6.91918e-06 4.49356e-07 -0.000120444
0.000650518 0.000196371 3.70026e-06
0.000196371 0.00014577 2.023e-05
3.70026e-06 2.023e-05 -1.20116e-05
0.000910924 0.00025831 -2.68885e-07
0.00025831 0.000403739 -1.09503e-06
-2.68885e-07 -1.09503e-06 0.000180103
0.00101913 0.000140408 9.54134e-07
0.000140408 0.000492205 -2.25706e-06
9.54134e-07 -2.25706e-06 0.000300661
0.00113274 0.000217149 -1.99829e-06
0.000217149 0.000542084 -2.80978e-07
-1.99829e-06 -2.80978e-07 0.000331899
0.00111001 0.000243344 3.65989e-06
0.000243344 0.000554522 2.28885e-06
3.65989e-06 2.28885e-06 0.000334111
0.00127875 -0.00113866 0.000143488
-0.00113866 -0.000962505 -9.266e-05
0.000143488 -9.266e-05 -0.000542665
-0.00031775 -0.000892129 -2.83963e-05
-0.000892129 -0.00101774 -1.52764e-05
-2.83963e-05 -1.52764e-05 -0.00104858
0.000222903 -0.000133829 5.1545e-06
-0.000133829 7.04347e-05 -2.63317e-05
5.1545e-06 -2.63317e-05 -0.000225545
0.00209013 -0.000874654 3.57423e-05
-0.000874654 0.00121685 -2.3433e-05
3.57423e-05 -2.3433e-05 0.000817589
0.00299534 -0.000650184 -2.45565e-05
-0.000650184 0.001846 1.63111e-05
-2.45565e-05 1.63111e-05 0.00143786
0.0017932 -0.000193986 1.38698e-05
-0.000193986 0.00114238 -2.35853e-05
1.38698e-05 -2.35853e-05 0.000780336
3.64025e-05 7.74868e-05 2.39206e-06
7.74868e-05 -3.43241e-05 1.0138e-05
2.39206e-06 1.0138e-05 -0.000263334
0.000650014 -0.00197608 -1.62249e-05
-0.00197608 -0.000554122 -5.38655e-06
-1.62249e-05 -5.38655e-06 -0.000897361
0.00150235 -0.000111285 -2.75406e-06
-0.000111285 0.00107398 -1.90929e-06
-2.75406e-06 -1.90929e-06 0.00067907
-0.000368222 -0.000272665 -1.26494e-05
-0.000272665 5.94974e-05 9.98219e-06
-1.26494e-05 9.98219e-06 -0.000451507
-0.000722176 -0.000608192 3.28659e-05
-0.000608192 -0.000602006 -4.29933e-06
3.28659e-05 -4.29933e-06 -0.000642742
0.000351284 9.141e-05 7.15242e-06
9.141e-05 0.000190137 3.66302e-06
7.15242e-06 3.66302e-06 -6.26115e-06
-9.36636e-05 -0.0019906 -0.000114216
-0.0019906 0.000201725 -2.15698e-05
-0.000114216 -2.15698e-05 -0.0005415
-0.000669272 -0.000573262 -2.63087e-05
-0.000573262 -8.29588e-05 1.89803e-05
-2.63087e-05 1.89803e-05 -0.000556352
0.000423522 0.000154883 1.60044e-06
0.000154883 0.000646595 -6.70442e-06
1.60044e-06 -6.70442e-06 9.84242e-05
0.00178004 0.000284814 -2.14972e-06
0.000284814 0.00141764 1.15499e-05
-2.14972e-06 1.15499e-05 0.000920679
-0.000660011 8.24403e-05 0.000257004
8.24403e-05 0.00352202 6.46492e-05
0.000257004 6.46492e-05 0.00125314
-2.80012e-05 5.42434e-05 0.000217772
5.42434e-05 0.00134609 -3.58975e-05
0.000217772 -3.58975e-05 -0.00406975
-0.0144025 -0.00056629 -0.000540028
-0.00056629 0.00682226 2.77738e-05
-0.000540028 2.77738e-05 0.000937941
0.00175904 0.000820931 2.16461e-05
0.000820931 0.00109046 5.11828e-07
2.16461e-05 5.11828e-07 0.000653298
-0.000530931 0.0010979 1.87092e-05
0.0010979 -5.78611e-05 1.33974e-05
1.87092e-05 1.33974e-05 -0.000734582
0.00598512 0.00183543 0.000584038
0.00183543 0.00483581 0.000144984
0.000584038 0.000144984 0.000695462
0.00665522 0.00546361 0.000264257
0.00546361 0.00333476 0.000228783
0.000264257 0.000228783 -0.00065388
0.00256609 0.00356454 -0.000161668
0.00356454 0.00171309 -0.000161589
-0.000161668 -0.000161589 -1.7332e-05
0.00533649 -0.00217712 -0.000176371
-0.00217712 0.00569561 -0.000541345
-0.000176371 -0.000541345 0.000384095
0.00357454 0.000734305 0.000141063
0.000734305 0.00117782 0.000156574
0.000141063 0.000156574 -0.00106076
0.00991703 -0.000327102 -4.78912e-05
-0.000327102 -0.00512154 -0.000275928
-4.78912e-05 -0.000275928 -0.00289262
0.000882501 0.000796611 4.01277e-06
0.000796611 0.000798875 -1.32169e-06
4.01277e-06 -1.32169e-06 0.000195938
-0.00311961 0.00043659 9.20476e-07
0.00043659 0.00137153 8.60938e-06
9.20476e-07 8.60938e-06 -0.000824705
0.00622259 -0.000453968 0.000198751
-0.000453968 0.000167025 1.26655e-05
0.000198751 1.26655e-05 -0.00146131
-0.00189439 0.000843476 -2.17126e-05
0.000843476 6.52929e-05 -1.30628e-05
-2.17126e-05 -1.30628e-05 -0.000984703
0.0160758 0.00169183 1.37953e-05
0.00169183 0.00174111 -7.6986e-05
1.37953e-05 -7.6986e-05 2.37089e-05
0.00432801 0.00284585 0.000341949
0.00284585 0.00542852 0.000210434
0.000341949 0.000210434 -0.00116453
0.0124643 0.000637137 -0.000203171
0.000637137 0.00472792 9.32724e-06
-0.000203171 9.32724e-06 -3.5307e-05
0.00110717 0.000827192 -6.81872e-06
0.000827192 0.0010921 -2.43116e-05
-6.81872e-06 -2.43116e-05 0.00030682
0.00298733 -3.25412e-05 1.68678e-05
-3.25412e-05 0.00168315 2.16202e-05
1.68678e-05 2.16202e-05 -7.29063e-06
0.00403286 -0.00247434 0.000242316
-0.00247434 0.00397761 -0.000285383
0.000242316 -0.000285383 0.00147041
0.0300718 0.00700657 0.000428342
0.00700657 0.0115121 -0.000367463
0.000428342 -0.000367463 0.00584727
0.00987134 -0.000420985 -0.000141752
-0.000420985 0.00712089 0.000602274
-0.000141752 0.000602274 0.00207214
-0.00171337 0.00081798 -0.000146418
0.00081798 0.000728437 -0.000128245
-0.000146418 -0.000128245 -0.00037245
0.00253031 0.00106016 0.000242408
0.00106016 0.00622198 2.13729e-05
0.000242408 2.13729e-05 -0.00341001
0.00154617 0.000518643 1.40404e-05
0.000518643 0.00117342 1.1746e-05
1.40404e-05 1.1746e-05 0.000656416
0.000822431 0.000359551 8.56324e-06
0.000359551 0.000974875 8.44119e-06
8.56324e-06 8.44119e-06 0.00035323
0.000459405 -0.000104356 -5.78582e-06
-0.000104356 0.00108921 1.8528e-05
-5.78582e-06 1.8528e-05 0.000496084
-0.00104025 -1.0013e-05 4.25856e-06
-1.0013e-05 -0.000692475 -3.57979e-06
4.25856e-06 -3.57979e-06 -0.000920822
-0.000578607 -4.07871e-06 2.07967e-06
-4.07871e-06 7.08979e-05 2.4295e-06
2.07967e-06 2.4295e-06 -0.00047131
0.000111186 3.2904e-05 -7.83173e-06
3.2904e-05 0.000633638 -1.0772e-05
-7.83173e-06 -1.0772e-05 3.15229e-05
-0.000258363 -4.00611e-06 -5.53e-07
-4.00611e-06 5.1633e-05 3.27771e-07
-5.53e-07 3.27771e-07 -0.000277408
-0.000162622 -7.40197e-05 3.11168e-06
-7.40197e-05 0.000374439 2.64088e-06
3.11168e-06 2.64088e-06 -0.000129663
0.00231488 -0.000545461 1.302e-05
-0.000545461 0.00151457 -1.33627e-05
1.302e-05 -1.33627e-05 0.00114364
-0.000111498 -4.75025e-05 -1.28896e-06
-4.75025e-05 6.09238e-06 9.69397e-06
-1.28896e-06 9.69397e-06 -0.000203048
-0.00105462 9.23946e-06 1.88829e-06
9.23946e-06 -0.000733756 5.00736e-06
1.88829e-06 5.00736e-06 -0.000877096
0.00101197 -0.000354344 -2.29585e-06
-0.000354344 0.000501318 6.0789e-06
-2.29585e-06 6.0789e-06 0.000288531
-0.00432353 8.15583e-05 2.88436e-05
8.15583e-05 -0.00246231 2.28247e-05
2.88436e-05 2.28247e-05 -0.00283723
-0.0011038 -9.41983e-05 2.64522e-05
-9.41983e-05 -0.000793065 -2.94206e-06
2.64522e-05 -2.94206e-06 -0.000812152
-3.55658e-05 -0.000394686 -8.80882e-06
-0.000394686 -0.000226754 -4.67652e-06
-8.80882e-06 -4.67652e-06 -0.00054431
0.00166222 -0.000787858 9.06287e-07
-0.000787858 0.000606718 -2.40479e-06
9.06287e-07 -2.40479e-06 -2.8963e-05
0.00192065 -0.000931962 -1.01325e-05
-0.000931962 0.000634173 1.09772e-06
-1.01325e-05 1.09772e-06 2.86173e-05
0.00130335 -0.000403786 2.79248e-06
-0.000403786 0.000448441 -4.08123e-06
2.79248e-06 -4.08123e-06 0.000207431
0.00151116 -0.000678595 9.89216e-07
-0.000678595 0.000527031 1.13363e-06
9.89216e-07 1.13363e-06 5.47532e-05
0.00174781 -0.000828951 5.44531e-06
-0.000828951 0.00051638 -6.90617e-06
5.44531e-06 -6.90617e-06 -2.44831e-05
0.00214947 -0.00067063 3.27545e-06
-0.00067063 0.000933392 2.93828e-06
3.27545e-06 2.93828e-06 0.000479788
0.00105495 -0.000676973 2.20924e-06
-0.000676973 0.000166259 -5.55609e-06
2.20924e-06 -5.55609e-06 -0.000329516
0.00130995 -0.000267881 2.19494e-06
-0.000267881 0.000484383 -4.9235e-06
2.19494e-06 -4.9235e-06 0.0002021
0.000978289 -0.000432919 -2.40824e-06
-0.000432919 0.000256576 1.32894e-06
-2.40824e-06 1.32894e-06 -6.57452e-05
-0.000817174 -0.000299649 -1.14232e-06
-0.000299649 -0.000878551 -8.01213e-06
-1.14232e-06 -8.01213e-06 -0.00119286
-0.000300191 -9.59814e-05 1.19506e-06
-9.59814e-05 -0.000351421 -5.00393e-06
1.19506e-06 -5.00393e-06 -0.000656254
0.000593427 -0.000224681 -1.8157e-07
-0.000224681 0.0002333 -2.4959e-07
-1.8157e-07 -2.4959e-07 -0.000101974
-0.000577781 -0.000162442 5.75805e-06
-0.000162442 -0.000573113 1.66777e-06
5.75805e-06 1.66777e-06 -0.000825848
0.00116947 -0.000210978 -2.01328e-06
-0.000210978 0.000596174 2.98657e-06
-2.01328e-06 2.98657e-06 0.000304048
0.000698325 -0.000171746 5.26573e-07
-0.000171746 0.00023457 4.42401e-07
5.26573e-07 4.42401e-07 -7.24502e-06
0.000245 -4.3438e-05 2.31435e-06
-4.3438e-05 -0.000117157 7.7196e-06
2.31435e-06 7.7196e-06 -0.000258069
0.00139627 -0.000276641 -2.74479e-06
-0.000276641 0.000686031 1.54235e-06
-2.74479e-06 1.54235e-06 0.000472074
0.000555278 -4.74271e-05 -1.40658e-06
-4.74271e-05 8.2781e-05 -1.357e-07
-1.40658e-06 -1.357e-07 -3.9057e-05
0.000315863 4.49247e-05 3.44666e-06
4.49247e-05 -8.26995e-05 9.75489e-06
3.44666e-06 9.75489e-06 -0.000133092
0.000960548 -0.000110278 -3.73594e-07
-0.000110278 0.000360984 -4.91318e-06
-3.73594e-07 -4.91318e-06 0.000245121
0.000430062 -2.37936e-05 -1.73398e-06
-2.37936e-05 -2.13148e-05 1.83186e-08
-1.73398e-06 1.83186e-08 -6.1383e-05
0.00282689 9.64724e-05 2.85587e-08
9.64724e-05 0.00152685 3.2227e-06
2.85587e-08 3.2227e-06 0.00152756
0.000488262 -4.05327e-05 3.40276e-06
-4.05327e-05 1.86944e-05 -7.66483e-06
3.40276e-06 -7.66483e-06 -1.76451e-05
0.00180797 4.15583e-05 2.2201e-05
4.15583e-05 0.000862294 -1.09533e-06
2.2201e-05 -1.09533e-06 0.000866112
0.00266908 3.22564e-05 3.21421e-05
3.22564e-05 0.00141998 -6.1119e-06
3.21421e-05 -6.1119e-06 0.0014316
0.000243306 4.28422e-05 3.23276e-06
4.28422e-05 -9.20981e-05 3.29426e-06
3.23276e-06 3.29426e-06 -0.000237872
0.000115479 1.59387e-05 1.73889e-06
1.59387e-05 -0.000195035 -4.06906e-06
1.73889e-06 -4.06906e-06 -0.000290099
0.000430433 5.50073e-05 -3.54423e-07
5.50073e-05 4.65738e-05 -9.12887e-07
-3.54423e-07 -9.12887e-07 -0.000105851
0.000463109 1.39714e-05 1.97196e-06
1.39714e-05 -8.74034e-06 -5.69281e-06
1.97196e-06 -5.69281e-06 -2.96034e-05
9.6232e-05 2.68533e-05 -8.97773e-07
2.68533e-05 -0.00020768 -2.16835e-06
-8.97773e-07 -2.16835e-06 -0.000289634
0.000615322 8.3063e-05 1.40677e-06
8.3063e-05 0.000182677 3.43243e-06
1.40677e-06 3.43243e-06 3.33946e-05
0.00216628 -1.48294e-05 -1.99141e-05
-1.48294e-05 0.00109365 -5.36343e-06
-1.99141e-05 -5.36343e-06 0.00110964
0.000427456 9.99027e-06 -1.0655e-06
9.99027e-06 -3.26314e-05 -1.59041e-07
-1.0655e-06 -1.59041e-07 -4.80705e-05
-4.28156e-06 1.82706e-05 2.17145e-06
1.82706e-05 -0.000272062 4.02073e-06
2.17145e-06 4.02073e-06 -0.00034152
0.00207847 2.00475e-07 -4.08431e-06
2.00475e-07 0.0010376 7.18e-08
-4.08431e-06 7.18e-08 0.00105428
0.00040206 7.62067e-06 -2.08453e-06
7.62067e-06 -4.78697e-05 4.33062e-06
-2.08453e-06 4.33062e-06 -6.03254e-05
0.00208325 1.62092e-05 1.06065e-05
1.62092e-05 0.00104259 5.42378e-06
1.06065e-05 5.42378e-06 0.00105848
0.000865264 -0.000122723 0.000249066
-0.000122723 0.00424573 0.000141493
0.000249066 0.000141493 0.00243685
-0.000610466 -0.000610985 -7.59719e-05
-0.000610985 0.000530471 2.47739e-06
-7.59719e-05 2.47739e-06 -0.00459895
0.00110412 0.00196455 -0.000281536
0.00196455 0.0103159 -0.000100391
-0.000281536 -0.000100391 0.00327854
0.000823172 0.000160267 1.15357e-06
0.000160267 0.000295878 1.02513e-07
1.15357e-06 1.02513e-07 0.000126519
-2.22963e-05 0.00010131 7.26396e-06
0.00010131 -0.000227482 5.15552e-06
7.26396e-06 5.15552e-06 -0.00040644
0.0015467 0.000265029 1.35718e-05
0.000265029 0.000751879 1.59793e-05
1.35718e-05 1.59793e-05 0.000576889
0.00859643 -0.00100277 -0.00027738
-0.00100277 0.00017925 0.000167324
-0.00027738 0.000167324 -0.00200541
0.0069557 -0.00224907 0.000159181
-0.00224907 0.00379938 3.48577e-05
0.000159181 3.48577e-05 0.00173269
0.00471137 -0.00333863 0.000339228
-0.00333863 0.00203309 -0.000347706
0.000339228 -0.000347706 -0.00306636
0.00931702 -0.00418229 -2.08586e-05
-0.00418229 -0.000851531 -4.60441e-05
-2.08586e-05 -4.60441e-05 0.000890059
0.00422148 -0.0065175 -0.000842327
-0.0065175 -0.00212931 3.99065e-05
-0.000842327 3.99065e-05 -0.00321649
0.0299953 0.00610434 0.000583752
0.00610434 0.0147489 0.0002924
0.000583752 0.0002924 0.00594176
0.00849047 -0.000967694 0.000440273
-0.000967694 -0.00159859 -0.000322317
0.000440273 -0.000322317 -0.00314778
0.00245622 -0.00389647 -5.92876e-06
-0.00389647 -0.0010137 1.58187e-05
-5.92876e-06 1.58187e-05 0.00049292
0.00585802 -0.00690606 -0.000261161
-0.00690606 0.00255245 7.09838e-06
-0.000261161 7.09838e-06 -0.00259663
0.0057393 0.00450033 -0.00012268
0.00450033 0.00698266 -0.000395398
-0.00012268 -0.000395398 0.000369144
0.0127709 -0.000312933 -0.000140692
-0.000312933 -0.0026558 0.000176952
-0.000140692 0.000176952 -0.00103636
-0.0012585 -0.0027177 -0.000171055
-0.0027177 0.000375352 9.39284e-05
-0.000171055 9.39284e-05 -0.0002176
0.00837673 -0.00374243 -0.000462393
-0.00374243 0.00590548 0.000264324
-0.000462393 0.000264324 -0.000207755
0.00491738 -0.000185427 5.1211e-05
-0.000185427 0.00328756 -0.000360793
5.1211e-05 -0.000360793 -0.00153027
0.00983672 0.000385885 8.61008e-05
0.000385885 -0.00145456 0.000161477
8.61008e-05 0.000161477 -0.00184738
-0.000157181 8.87495e-05 9.88006e-06
8.87495e-05 -0.000255533 2.22327e-05
9.88006e-06 2.22327e-05 -0.000397247
0.00066918 2.16467e-05 8.99652e-07
2.16467e-05 0.000294243 -1.47813e-06
8.99652e-07 -1.47813e-06 6.63844e-05
0.000559885 -0.000216327 1.06464e-05
-0.000216327 0.000204919 -9.34396e-06
1.06464e-05 -9.34396e-06 -3.12381e-05
0.000590889 0.000180646 -1.92529e-06
0.000180646 0.000121253 2.3141e-06
-1.92529e-06 2.3141e-06 -4.29835e-05
0.000818764 0.000204411 4.28061e-06
0.000204411 0.0003525 -8.4377e-06
4.28061e-06 -8.4377e-06 0.000136055
0.00126306 0.000249382 -4.76789e-06
0.000249382 0.000626768 -7.04139e-06
-4.76789e-06 -7.04139e-06 0.000412781
0.00117021 -0.00180519 7.64727e-05
-0.00180519 -4.92309e-05 -2.4162e-05
7.64727e-05 -2.4162e-05 -0.000353854
-0.000671114 -0.000498794 6.57817e-06
-0.000498794 -0.000633324 -2.68164e-05
6.57817e-06 -2.68164e-05 -0.000607181
0.000246298 0.000188934 -4.20457e-06
0.000188934 0.000109088 -2.25282e-05
-4.20457e-06 -2.25282e-05 -0.000155694
0.00272871 -0.000594175 8.09756e-05
-0.000594175 0.00175091 -4.01086e-05
8.09756e-05 -4.01086e-05 0.00129633
0.00269756 -0.000164388 9.77729e-06
-0.000164388 0.00174695 -1.62646e-05
9.77729e-06 -1.62646e-05 0.00138798
-0.000439343 9.11982e-05 9.04513e-06
9.11982e-05 -0.000257928 1.34925e-06
9.04513e-06 1.34925e-06 -0.000472971
-4.87186e-05 4.56882e-05 3.16429e-06
4.56882e-05 0.000272982 5.63251e-06
3.16429e-06 5.63251e-06 -0.000173293
0.00217114 -0.00204919 -6.62898e-05
-0.00204919 0.00127155 2.18304e-06
-6.62898e-05 2.18304e-06 0.000440593
0.000244788 -5.23449e-05 -6.62402e-06
-5.23449e-05 0.00064446 -2.54597e-07
-6.62402e-06 -2.54597e-07 1.93393e-05
0.000148186 -0.000443762 -1.2644e-05
-0.000443762 0.000574408 -1.27668e-07
-1.2644e-05 -1.27668e-07 -5.03871e-05
0.000950298 0.000233513 9.64595e-06
0.000233513 0.000819958 -1.64954e-05
9.64595e-06 -1.64954e-05 0.000469457
-0.00334755 -0.000302649 -9.92426e-05
-0.000302649 -0.000414692 -1.93929e-06
-9.92426e-05 -1.93929e-06 -0.00148452
0.000106787 -0.00021891 -1.0433e-05
-0.00021891 0.000994998 -1.19173e-05
-1.0433e-05 -1.19173e-05 0.000254492
-0.00277176 -8.02295e-05 -2.47641e-05
-8.02295e-05 -0.000811824 -1.82456e-07
-2.47641e-05 -1.82456e-07 -0.00149967
0.000727982 0.000515621 -7.04039e-06
0.000515621 -0.000265769 -5.35092e-07
-7.04039e-06 -5.35092e-07 -0.00342781
-0.00195053 0.000671025 0.000151243
0.000671025 0.00324843 4.52532e-07
0.000151243 4.52532e-07 0.000940074
-0.0014286 -3.55413e-05 0.000456269
-3.55413e-05 0.000503847 4.8278e-05
0.000456269 4.8278e-05 -0.00483405
0.000149384 0.000804855 1.27542e-05
0.000804855 0.000324134 2.14672e-05
1.27542e-05 2.14672e-05 -0.000317473
0.000376179 0.00130323 -1.86417e-05
0.00130323 0.000800968 -3.1392e-05
-1.86417e-05 -3.1392e-05 -0.000203268
-0.00261592 0.000417706 -0.000161186
0.000417706 0.00166531 -5.35882e-05
-0.000161186 -5.35882e-05 -0.000663262
-0.00449053 0.000956692 0.000182843
0.000956692 0.00374329 0.000236585
0.000182843 0.000236585 -0.00251962
0.00280985 0.000685753 -0.000175346
0.000685753 -0.00148682 -0.0005102
-0.000175346 -0.0005102 -0.00742113
0.00560722 2.57399e-05 0.000116726
2.57399e-05 -0.000114857 4.32757e-05
0.000116726 4.32757e-05 -0.00111507
0.00767132 -0.000692351 -0.000423339
-0.000692351 -0.00172175 0.000300952
-0.000423339 0.000300952 -0.00327123
0.000378524 0.000622831 -5.32184e-06
0.000622831 0.000768868 -1.61323e-07
-5.32184e-06 -1.61323e-07 7.74988e-05
0.00172314 0.000285208 5.6328e-05
0.000285208 0.00161162 2.68913e-05
5.6328e-05 2.68913e-05 -2.83955e-05
0.00585982 -0.00163517 -0.000148133
-0.00163517 0.00363164 -1.96588e-05
-0.000148133 -1.96588e-05 0.00165972
-0.000145315 0.000954175 -0.000149352
0.000954175 0.00228667 -1.94203e-05
-0.000149352 -1.94203e-05 0.000223712
0.0209974 0.00666933 -0.000220725
0.00666933 0.00847499 -0.000504107
-0.000220725 -0.000504107 0.00299479
0.00762766 0.00396782 0.000101755
0.00396782 0.0073692 0.000427072
0.000101755 0.000427072 9.88e-05
0.00620749 0.00163182 8.54247e-05
0.00163182 0.00714123 -5.63495e-06
8.54247e-05 -5.63495e-06 -0.000555669
-1.81093e-05 5.95938e-05 2.30864e-05
5.95938e-05 0.00151564 -1.61766e-05
2.30864e-05 -1.61766e-05 3.82165e-05
0.000464762 -6.24428e-05 -0.000237731
-6.24428e-05 0.00491813 -2.46336e-06
-0.000237731 -2.46336e-06 0.00283227
0.000859575 -0.000930706 0.000871986
-0.000930706 0.000539189 -0.000281661
0.000871986 -0.000281661 -0.0051914
0.0303681 0.0120205 -0.000120774
0.0120205 0.021049 -7.79515e-05
-0.000120774 -7.79515e-05 0.012628
0.0145045 0.00507666 0.000296869
0.00507666 0.00624144 0.00110877
0.000296869 0.00110877 -0.00172116
0.0124051 -0.0053548 0.000518513
-0.0053548 0.00731566 -0.000339565
0.000518513 -0.000339565 -0.000182813
0.00139508 -0.000797378 -7.86146e-05
-0.000797378 0.0034307 5.10145e-05
-7.86146e-05 5.10145e-05 0.0020421
0.000529479 0.000271692 -6.64531e-06
0.000271692 0.000840609 2.38909e-06
-6.64531e-06 2.38909e-06 0.000274842
-0.000150092 -0.000107599 3.33219e-06
-0.000107599 0.000592421 -6.20615e-06
3.33219e-06 -6.20615e-06 -7.1562e-05
0.000737421 -0.000621747 5.58042e-05
-0.000621747 0.000828462 -1.7745e-05
5.58042e-05 -1.7745e-05 8.88602e-05
0.000255081 -8.38113e-05 -3.1941e-06
-8.38113e-05 0.000305794 1.3573e-05
-3.1941e-06 1.3573e-05 3.56981e-05
-5.74589e-06 -0.000108243 -3.19916e-06
-0.000108243 0.000399993 -2.08101e-05
-3.19916e-06 -2.08101e-05 -6.22389e-05
0.000845237 -0.000365516 -5.08935e-06
-0.000365516 0.00079319 4.8364e-07
-5.08935e-06 4.8364e-07 0.000413928
0.00122179 -0.000837153 3.05947e-05
-0.000837153 0.000633858 -1.73691e-05
3.05947e-05 -1.73691e-05 0.000155895
0.00065385 -0.000394013 4.46999e-06
-0.000394013 0.000320659 1.4985e-06
4.46999e-06 1.4985e-06 2.38558e-05
0.00118754 -0.000692138 1.95851e-05
-0.000692138 0.00055825 -5.25407e-06
1.95851e-05 -5.25407e-06 6.90164e-05
0.00141664 -0.000830099 1.61196e-05
-0.000830099 0.000633478 -3.41144e-06
1.61196e-05 -3.41144e-06 -0.000178084
0.000608093 -0.000430789 -1.03483e-05
-0.000430789 0.000121924 -3.8982e-06
-1.03483e-05 -3.8982e-06 -0.000142783
0.00241892 -0.000889678 -3.21625e-06
-0.000889678 0.00101512 -7.67984e-07
-3.21625e-06 -7.67984e-07 0.000380016
0.00163179 -0.00100273 -1.53081e-05
-0.00100273 0.000404615 -1.23417e-06
-1.53081e-05 -1.23417e-06 -0.000330166
0.00254149 -0.00121033 -1.31498e-05
-0.00121033 0.000726126 -3.01649e-07
-1.31498e-05 -3.01649e-07 6.47228e-05
0.00213345 -0.00105515 -4.09036e-06
-0.00105515 0.000679021 -1.36329e-06
-4.09036e-06 -1.36329e-06 5.40222e-05
0.00180073 -0.000913291 -5.94201e-06
-0.000913291 0.000558542 4.25538e-07
-5.94201e-06 4.25538e-07 -4.37749e-05
0.00131947 -0.000661515 -8.40683e-07
-0.000661515 0.000384872 -6.03887e-06
-8.40683e-07 -6.03887e-06 -8.80476e-05
0.00178958 -0.000803383 7.65221e-06
-0.000803383 0.000602234 -7.05826e-06
7.65221e-06 -7.05826e-06 7.14832e-05
0.00177465 -0.000845657 9.10475e-06
-0.000845657 0.000534831 -1.40389e-06
9.10475e-06 -1.40389e-06 -9.65259e-06
0.00154856 -0.000387928 1.86008e-06
-0.000387928 0.0005523 3.07779e-07
1.86008e-06 3.07779e-07 0.000226275
0.00136027 -0.000590944 6.30289e-06
-0.000590944 0.000421794 -4.15679e-06
6.30289e-06 -4.15679e-06 -1.42335e-05
-0.000369176 -0.00048724 -1.56767e-05
-0.00048724 -0.000718359 -1.79057e-06
-1.56767e-05 -1.79057e-06 -0.00116027
0.000366264 -0.000131704 -4.11181e-07
-0.000131704 7.3223e-06 -6.27416e-06
-4.11181e-07 -6.27416e-06 -0.000288544
0.000774967 -0.000303076 -4.69935e-09
-0.000303076 0.000175806 -1.26657e-06
-4.69935e-09 -1.26657e-06 -0.000121805
-0.000160968 -0.00033395 -9.38686e-06
-0.00033395 -0.00045951 -5.38473e-07
-9.38686e-06 -5.38473e-07 -0.00077838
0.000163231 -9.40822e-05 -4.5785e-07
-9.40822e-05 -0.000141889 7.25181e-06
-4.5785e-07 7.25181e-06 -0.000336598
0.000860758 -0.00017614 1.82111e-07
-0.00017614 0.000370832 2.9836e-07
1.82111e-07 2.9836e-07 7.02348e-05
-0.000395019 -0.000275297 -2.85286e-06
-0.000275297 -0.000372243 5.12707e-06
-2.85286e-06 5.12707e-06 -0.000700977
0.00167934 -0.000256372 -1.29072e-06
-0.000256372 0.000863881 2.2086e-06
-1.29072e-06 2.2086e-06 0.000612493
0.000745972 -0.000111218 -2.51093e-07
-0.000111218 0.000203413 -4.29511e-08
-2.51093e-07 -4.29511e-08 5.45751e-05
0.000336002 1.18181e-05 3.37126e-06
1.18181e-05 -6.57233e-05 1.31524e-05
3.37126e-06 1.31524e-05 -0.000126753
0.000893412 -0.000102608 -3.24274e-07
-0.000102608 0.000299063 -6.38679e-06
-3.24274e-07 -6.38679e-06 0.000171267
0.000435153 -6.59986e-06 -4.87878e-06
-6.59986e-06 -1.28909e-05 -4.28993e-07
-4.87878e-06 -4.28993e-07 -6.12047e-05
0.00315332 0.000100921 -4.8171e-05
0.000100921 0.00174556 5.91894e-06
-4.8171e-05 5.91894e-06 0.00174655
0.00048651 -3.44843e-05 2.96859e-06
-3.44843e-05 1.21387e-05 -8.63827e-06
2.96859e-06 -8.63827e-06 -2.77269e-05
0.00192545 6.21547e-05 2.74219e-05
6.21547e-05 0.000941592 -6.30379e-07
2.74219e-05 -6.30379e-07 0.00094091
0.00283218 5.2427e-05 3.97808e-05
5.2427e-05 0.00152615 -5.98824e-06
3.97808e-05 -5.98824e-06 0.00153554
0.000864161 0.000136227 5.04573e-06
0.000136227 0.000314571 -3.72421e-06
5.04573e-06 -3.72421e-06 0.00014136
0.000508304 6.90815e-05 3.7158e-06
6.90815e-05 6.04012e-05 -3.41335e-06
3.7158e-06 -3.41335e-06 -4.56423e-05
0.000415169 6.62943e-05 -2.79834e-07
6.62943e-05 3.65097e-05 -8.45263e-07
-2.79834e-07 -8.45263e-07 -0.000124937
0.000445328 2.04998e-05 9.00696e-07
2.04998e-05 -1.73831e-05 -7.1613e-06
9.00696e-07 -7.1613e-06 -4.55084e-05
0.000249874 4.94917e-05 -2.49819e-06
4.94917e-05 -0.000105964 -2.38096e-06
-2.49819e-06 -2.38096e-06 -0.000201189
0.000612622 0.000105277 -1.29265e-06
0.000105277 0.000169841 -3.33585e-06
-1.29265e-06 -3.33585e-06 1.76829e-05
0.00228172 -3.14686e-05 -2.31376e-05
-3.14686e-05 0.00116896 -5.61753e-06
-2.31376e-05 -5.61753e-06 0.00118311
0.000413854 1.319e-06 9.52378e-07
1.319e-06 -4.10864e-05 -2.49423e-07
9.52378e-07 -2.49423e-07 -6.1203e-05
8.85088e-05 2.32568e-05 -1.42124e-06
2.32568e-05 -0.000212053 1.51844e-06
-1.42124e-06 1.51844e-06 -0.000296832
0.0021583 -1.44582e-05 -6.05059e-06
-1.44582e-05 0.00108852 1.28037e-07
-6.05059e-06 1.28037e-07 0.00110464
0.000416922 2.98416e-06 -3.81084e-06
2.98416e-06 -4.03426e-05 4.72752e-06
-3.81084e-06 4.72752e-06 -5.51241e-05
0.00212433 1.64694e-06 1.54524e-05
1.64694e-06 0.0010676 5.35046e-06
1.54524e-05 5.35046e-06 0.00108405
0.00245227 -0.00037128 -0.000140107
-0.00037128 0.00140698 2.16481e-05
-0.000140107 2.16481e-05 -0.000330312
-0.00161456 -9.15391e-05 0.000134164
-9.15391e-05 0.00374201 -5.41989e-06
0.000134164 -5.41989e-06 0.00134457
-0.000759274 -0.0003907 0.000167268
-0.0003907 0.00131838 -0.000258439
0.000167268 -0.000258439 -0.00462587
-0.000223722 3.51134e-06 2.82956e-06
3.51134e-06 -0.000276604 -2.65573e-06
2.82956e-06 -2.65573e-06 -0.000547616
0.00339825 0.000308717 7.75805e-06
0.000308717 0.00192677 9.9014e-06
7.75805e-06 9.9014e-06 0.00170117
0.000325835 0.000154168 -3.70155e-06
0.000154168 -1.7852e-05 -9.14458e-06
-3.70155e-06 -9.14458e-06 -0.000186254
-3.14486e-05 6.9034e-05 9.78043e-07
6.9034e-05 -0.000247574 -2.25761e-06
9.78043e-07 -2.25761e-06 -0.000426783
6.96002e-05 9.28391e-05 -5.41498e-08
9.28391e-05 -0.000222504 -2.03907e-06
-5.41498e-08 -2.03907e-06 -0.000348378
0.000152588 9.36515e-05 5.22809e-06
9.36515e-05 -0.000126518 7.365e-06
5.22809e-06 7.365e-06 -0.000294951
-0.000607603 2.93864e-05 1.58748e-05
2.93864e-05 -0.0006047 5.39251e-06
1.58748e-05 5.39251e-06 -0.00069366
0.00387081 0.00182407 0.000289163
0.00182407 3.24724e-05 0.000257086
0.000289163 0.000257086 -0.00207564
0.00706314 -0.000483784 -0.00010485
-0.000483784 0.00030006 4.65223e-05
-0.00010485 4.65223e-05 -0.00192473
0.00515901 -0.00101047 0.000428257
-0.00101047 0.00424411 -0.000134274
0.000428257 -0.000134274 0.00169208
0.0103166 -4.36521e-05 -1.88863e-05
-4.36521e-05 -0.00502285 0.00019972
-1.88863e-05 0.00019972 -0.00284575
0.0071639 -0.00509649 -0.000170769
-0.00509649 0.000992718 3.32776e-05
-0.000170769 3.32776e-05 0.00175542
0.000817085 -0.00594572 -0.000449657
-0.00594572 0.00203452 0.000161753
-0.000449657 0.000161753 -0.00456334
0.0226823 0.00486306 0.000249587
0.00486306 0.00908372 -0.000253258
0.000249587 -0.000253258 0.0026651
0.00239115 -0.00394061 -7.5554e-05
-0.00394061 0.000422224 4.37843e-05
-7.5554e-05 4.37843e-05 0.000850561
-0.000586721 -0.00149273 -9.79067e-05
-0.00149273 0.00541895 6.13564e-05
-9.79067e-05 6.13564e-05 -0.00300956
0.0134928 0.000292839 0.000318189
0.000292839 0.00513054 -4.40973e-05
0.000318189 -4.40973e-05 0.000249955
0.0186803 -0.00197545 -8.35773e-05
-0.00197545 0.00274572 -5.00976e-06
-8.35773e-05 -5.00976e-06 0.0030078
-0.00542078 -0.00053857 -0.00025437
-0.00053857 -0.000951201 0.000231383
-0.00025437 0.000231383 -0.00157734
0.00178532 0.0016258 -0.000268162
0.0016258 0.00593026 -0.000178087
-0.000268162 -0.000178087 -0.00253886
0.00581545 -0.00652396 -2.43284e-05
-0.00652396 0.00194973 -0.000263835
-2.43284e-05 -0.000263835 -0.00524728
0.0185933 -0.0030073 0.000342081
-0.0030073 0.00784314 -0.000758805
0.000342081 -0.000758805 0.00397458
-0.0001181 1.35966e-05 2.72503e-05
1.35966e-05 0.00011494 -4.04757e-06
2.72503e-05 -4.04757e-06 -0.000271895
0.000616397 0.000194447 -8.91167e-07
0.000194447 0.000263281 -3.69778e-06
-8.91167e-07 -3.69778e-06 0.000101564
0.000659864 -1.93703e-05 1.13447e-06
-1.93703e-05 0.000308995 -5.78601e-06
1.13447e-06 -5.78601e-06 6.15847e-05
0.000896447 0.000188626 -1.96619e-06
0.000188626 0.00034472 -1.40145e-05
-1.96619e-06 -1.40145e-05 0.000163037
0.000993632 -0.00166475 0.000113043
-0.00166475 0.000646486 2.50589e-05
0.000113043 2.50589e-05 -0.000155649
0.000780441 -0.000439284 2.57365e-06
-0.000439284 0.00105145 -1.88198e-05
2.57365e-06 -1.88198e-05 0.000301047
0.000385764 9.61431e-05 -2.88495e-05
9.61431e-05 0.000248 -1.73785e-05
-2.88495e-05 -1.73785e-05 4.61633e-05
0.0012053 -9.86168e-05 3.75372e-06
-9.86168e-05 0.000919872 -3.12337e-05
3.75372e-06 -3.12337e-05 0.000572541
5.08598e-05 -5.06987e-05 -9.51106e-06
-5.06987e-05 0.000550055 6.07242e-06
-9.51106e-06 6.07242e-06 8.58681e-06
-6.18943e-06 0.000106867 1.8814e-06
0.000106867 0.000165862 4.44123e-06
1.8814e-06 4.44123e-06 -0.000145625
0.000724863 -8.28512e-05 1.34381e-06
-8.28512e-05 0.00103526 1.58453e-06
1.34381e-06 1.58453e-06 0.000457456
0.000252754 -0.00100636 1.8927e-05
-0.00100636 0.0013111 -1.06435e-05
1.8927e-05 -1.06435e-05 -0.000260603
0.000755789 -0.000155153 -5.00808e-07
-0.000155153 0.00144249 -1.50524e-05
-5.00808e-07 -1.50524e-05 0.000751715
0.000596412 0.000139138 1.63501e-06
0.000139138 0.00061842 -9.0095e-06
1.63501e-06 -9.0095e-06 0.000285487
-0.000753145 0.000293642 -0.000206955
0.000293642 0.00265599 -1.57267e-05
-0.000206955 -1.57267e-05 0.000354155
0.000717727 0.000426288 1.9337e-06
0.000426288 0.00126703 3.16062e-06
1.9337e-06 3.16062e-06 0.000611943
-0.00319038 -6.53201e-05 -9.49999e-05
-6.53201e-05 0.00336189 -8.4769e-05
-9.49999e-05 -8.4769e-05 0.00120121
0.00193354 0.0001879 3.20245e-05
0.0001879 0.00077095 1.68388e-05
3.20245e-05 1.68388e-05 -0.00116469
-0.00415601 0.00106757 -8.48434e-05
0.00106757 0.00262346 -9.6024e-05
-8.48434e-05 -9.6024e-05 -3.80576e-05
0.000202804 0.000468312 -1.86363e-05
0.000468312 0.000806687 2.53972e-06
-1.86363e-05 2.53972e-06 0.000213948
-0.00119628 0.00114418 0.000238355
0.00114418 0.000971992 0.00011849
0.000238355 0.00011849 -0.000195431
0.00106999 7.15374e-05 9.97483e-05
7.15374e-05 0.00173948 -1.13299e-05
9.97483e-05 -1.13299e-05 0.000358723
0.00675174 -0.00237891 0.000370491
-0.00237891 0.00674543 -0.000217639
0.000370491 -0.000217639 -0.00267106
0.0240995 0.00444193 -0.000297654
0.00444193 0.00933993 0.000240456
-0.000297654 0.000240456 0.00262653
0.00316483 -0.000920493 -0.000389102
-0.000920493 0.00284505 8.95981e-05
-0.000389102 8.95981e-05 0.000542569
0.0155078 0.00555013 -0.000244671
0.00555013 0.010134 -0.000298491
-0.000244671 -0.000298491 0.00533486
0.000543753 0.0002346 -4.77458e-05
0.0002346 0.00163397 5.04064e-06
-4.77458e-05 5.04064e-06 0.000220868
-0.00036401 -0.000494598 -0.000133161
-0.000494598 0.00369438 2.05496e-06
-0.000133161 2.05496e-06 0.00190638
0.00248689 -0.00207313 0.000311132
-0.00207313 0.00202956 -6.15075e-05
0.000311132 -6.15075e-05 -0.00356355
-0.00384171 3.85736e-06 7.45103e-05
3.85736e-06 0.000237166 4.05934e-05
7.45103e-05 4.05934e-05 -0.000584238
0.0256693 0.0144316 0.000921854
0.0144316 0.0180787 -0.000305646
0.000921854 -0.000305646 0.00908251
0.0120206 0.00340977 -0.000168221
0.00340977 0.00787954 0.000463067
-0.000168221 0.000463067 0.000429186
-0.00191633 -0.00177429 0.000272759
-0.00177429 0.003928 -0.000196677
0.000272759 -0.000196677 -0.00483745
-0.00238868 -0.000634414 -4.27347e-05
-0.000634414 0.000306849 -3.54098e-05
-4.27347e-05 -3.54098e-05 -0.00118399
0.0012956 -0.00126651 0.000418414
-0.00126651 5.57792e-05 -0.00010789
0.000418414 -0.00010789 -0.00439552
0.00249763 0.00280965 -0.00213562
0.00280965 0.0109911 0.000371252
-0.00213562 0.000371252 0.00410309
0.0244716 0.00912749 -0.000707422
0.00912749 0.00968038 0.000466674
-0.000707422 0.000466674 0.00165849
0.00650246 -0.00510857 -0.000261255
-0.00510857 0.00373164 0.000121032
-0.000261255 0.000121032 0.000157292
0.00374414 -0.00265581 7.0025e-05
-0.00265581 0.004257 2.59062e-05
7.0025e-05 2.59062e-05 0.00267241
6.34029e-05 -9.58262e-05 5.12388e-06
-9.58262e-05 0.000648673 -1.90887e-05
5.12388e-06 -1.90887e-05 -7.09944e-05
0.000128051 -0.000511552 6.66137e-06
-0.000511552 0.000582537 -2.57101e-06
6.66137e-06 -2.57101e-06 -0.000200566
0.000762386 -0.00119933 -5.41983e-06
-0.00119933 0.000596268 8.06816e-06
-5.41983e-06 8.06816e-06 -5.86283e-05
-0.000241392 -0.000203568 -5.04895e-06
-0.000203568 0.000289134 1.0569e-05
-5.04895e-06 1.0569e-05 -0.000105462
0.000451494 -0.000602518 -2.67149e-06
-0.000602518 0.00036711 5.69153e-06
-2.67149e-06 5.69153e-06 -5.53105e-05
0.0025246 -0.00109867 3.82547e-05
-0.00109867 0.00103232 -3.64912e-05
3.82547e-05 -3.64912e-05 0.000495668
0.00630467 -0.00142056 -1.48825e-05
-0.00142056 0.00334661 1.82045e-06
-1.48825e-05 1.82045e-06 0.00275288
0.00269341 -0.00102453 1.15762e-05
-0.00102453 0.00125614 -4.02108e-06
1.15762e-05 -4.02108e-06 0.000448022
0.00253132 -0.00126343 5.0766e-06
-0.00126343 0.000783545 -1.96097e-05
5.0766e-06 -1.96097e-05 -2.37832e-05
0.00255553 -0.00090246 -1.42457e-05
-0.00090246 0.00106071 -7.64822e-06
-1.42457e-05 -7.64822e-06 0.00044621
0.00219764 -0.00109208 5.33205e-07
-0.00109208 0.000701046 -1.7663e-06
5.33205e-07 -1.7663e-06 -5.4888e-05
0.00285104 -0.00130083 -8.42035e-06
-0.00130083 0.000898374 -9.61313e-06
-8.42035e-06 -9.61313e-06 0.000167984
0.00251375 -0.000961189 -8.5664e-07
-0.000961189 0.000478302 -7.00707e-06
-8.5664e-07 -7.00707e-06 8.81681e-06
0.00296714 -0.00123901 -1.0565e-05
-0.00123901 0.000935525 -1.11625e-06
-1.0565e-05 -1.11625e-06 0.00029794
0.00277022 -0.0012386 -4.28567e-06
-0.0012386 0.000849961 -4.11384e-07
-4.28567e-06 -4.11384e-07 0.000179526
0.00219583 -0.00104878 6.95919e-06
-0.00104878 0.00073323 -6.4466e-06
6.95919e-06 -6.4466e-06 0.000123855
0.00183904 -0.000993939 3.53248e-06
-0.000993939 0.000518607 -1.2471e-06
3.53248e-06 -1.2471e-06 -8.17684e-05
0.0017391 -0.000899208 6.4732e-06
-0.000899208 0.000513611 -1.69682e-06
6.4732e-06 -1.69682e-06 -8.60367e-05
0.00150594 -0.000669664 9.16228e-06
-0.000669664 0.000480772 1.86513e-06
9.16228e-06 1.86513e-06 -4.31582e-06
0.00191703 -0.000819815 -1.3196e-06
-0.000819815 0.000692803 -2.06843e-06
-1.3196e-06 -2.06843e-06 0.000157125
0.00188208 -0.000872364 3.56849e-06
-0.000872364 0.000606445 6.90674e-06
3.56849e-06 6.90674e-06 5.57561e-05
0.00174375 -0.000246624 -8.4996e-07
-0.000246624 0.000745737 -5.03042e-06
-8.4996e-07 -5.03042e-06 0.000482979
0.000939939 -0.000323061 -3.72231e-06
-0.000323061 0.000200922 2.70142e-06
-3.72231e-06 2.70142e-06 -0.000113772
0.000723818 -0.000521045 -7.4965e-06
-0.000521045 7.01991e-06 -6.97921e-06
-7.4965e-06 -6.97921e-06 -0.000411701
0.000180874 -9.77173e-05 -3.60814e-07
-9.77173e-05 -0.000119814 3.34502e-06
-3.60814e-07 3.34502e-06 -0.000374658
0.000713482 -0.00023328 4.03431e-08
-0.00023328 0.000233689 1.56385e-06
4.03431e-08 1.56385e-06 -7.14836e-05
0.000602815 -0.000284483 -2.95569e-08
-0.000284483 0.000117435 1.46506e-06
-2.95569e-08 1.46506e-06 -0.000208557
0.000325779 -5.29199e-05 -1.05394e-05
-5.29199e-05 -9.56108e-05 1.88466e-05
-1.05394e-05 1.88466e-05 -0.000158961
0.000703972 -0.000111604 5.37403e-08
-0.000111604 0.000189082 4.63229e-07
5.37403e-08 4.63229e-07 -2.82707e-06
0.00176069 -0.000288279 -1.25649e-06
-0.000288279 0.000925655 4.17083e-06
-1.25649e-06 4.17083e-06 0.000629396
0.000935615 -0.000125334 2.28933e-07
-0.000125334 0.000320592 -7.0175e-06
2.28933e-07 -7.0175e-06 0.000168736
0.000375281 -1.21502e-05 -8.31425e-07
-1.21502e-05 -5.07987e-05 -6.16847e-07
-8.31425e-07 -6.16847e-07 -0.000107223
0.00338941 0.00013339 -4.9894e-05
0.00013339 0.00190981 6.16035e-06
-4.9894e-05 6.16035e-06 0.00190292
0.000496301 -2.84911e-05 3.64359e-06
-2.84911e-05 1.93778e-05 -1.04019e-05
3.64359e-06 -1.04019e-05 -2.56265e-05
0.0031283 0.000101673 6.71212e-06
0.000101673 0.00172902 8.06844e-07
6.71212e-06 8.06844e-07 0.00173002
0.00294572 7.51762e-05 4.5084e-05
7.51762e-05 0.00160281 -5.71835e-06
4.5084e-05 -5.71835e-06 0.00160916
0.00181357 0.00010221 7.23072e-06
0.00010221 0.00108921 -8.53576e-06
7.23072e-06 -8.53576e-06 0.000757524
0.00194568 0.000214181 8.88912e-06
0.000214181 0.00114028 -1.31378e-05
8.88912e-06 -1.31378e-05 0.000853205
0.000531791 5.71218e-05 5.71023e-06
5.71218e-05 6.66203e-05 -6.52165e-06
5.71023e-06 -6.52165e-06 -5.20017e-05
0.000719044 0.000151764 -1.26956e-07
0.000151764 0.000247273 9.57174e-07
-1.26956e-07 9.57174e-07 6.31696e-05
0.000426164 -1.25238e-05 4.83576e-06
-1.25238e-05 -2.68504e-05 -8.61253e-06
4.83576e-06 -8.61253e-06 -6.07001e-05
0.000521125 7.19496e-05 7.74175e-08
7.19496e-05 6.9737e-05 -3.5267e-07
7.74175e-08 -3.5267e-07 -3.64229e-05
0.000670029 7.3472e-05 -5.95322e-06
7.3472e-05 0.000189324 -3.96231e-06
-5.95322e-06 -3.96231e-06 3.29866e-05
0.00253108 -4.98295e-05 -3.04077e-05
-4.98295e-05 0.00133351 -5.98804e-06
-3.04077e-05 -5.98804e-06 0.00134448
0.000435096 6.60919e-06 -1.47568e-06
6.60919e-06 -2.38269e-05 -2.15761e-07
-1.47568e-06 -2.15761e-07 -5.10922e-05
0.000512809 7.46902e-05 -4.77609e-06
7.46902e-05 6.68966e-05 1.08164e-06
-4.77609e-06 1.08164e-06 -2.97708e-05
0.00229773 -3.18073e-05 -5.40112e-06
-3.18073e-05 0.00117938 3.03225e-07
-5.40112e-06 3.03225e-07 0.00119353
0.000432219 6.34301e-06 -3.41185e-06
6.34301e-06 -3.0266e-05 5.25904e-06
-3.41185e-06 5.25904e-06 -4.97364e-05
0.00215628 -1.43843e-05 1.84422e-05
-1.43843e-05 0.00108697 5.27181e-06
1.84422e-05 5.27181e-06 0.00110311
-0.00259423 0.000802223 -2.65735e-05
0.000802223 0.0019373 -0.000118778
-2.65735e-05 -0.000118778 -0.000216258
0.00333044 -0.000327546 -2.4592e-05
-0.000327546 0.00213723 -4.88283e-05
-2.4592e-05 -4.88283e-05 0.000636416
0.000173415 -0.000393392 3.81019e-05
-0.000393392 0.00359778 -6.30871e-05
3.81019e-05 -6.30871e-05 0.00162371
0.000565526 6.63443e-05 2.67771e-06
6.63443e-05 0.000312437 -7.25619e-06
2.67771e-06 -7.25619e-06 -3.5627e-05
-0.000324001 0.000167572 6.58913e-06
0.000167572 -0.000412869 -4.51811e-06
6.58913e-06 -4.51811e-06 -0.000626677
-0.00178561 3.71574e-05 1.7223e-05
3.71574e-05 -0.00145184 -1.26051e-05
1.7223e-05 -1.26051e-05 -0.00163548
-0.00240374 -1.40671e-05 -6.49408e-06
-1.40671e-05 -0.00156567 2.194e-05
-6.49408e-06 2.194e-05 -0.00187777
0.001244 0.000293956 2.74328e-06
0.000293956 0.000548282 2.77708e-07
2.74328e-06 2.77708e-07 0.000272015
0.000669101 5.26988e-05 -5.98833e-06
5.26988e-05 0.000201146 -1.20637e-06
-5.98833e-06 -1.20637e-06 -1.40701e-07
0.00022625 0.000126237 -9.05586e-06
0.000126237 -8.713e-05 -1.33415e-05
-9.05586e-06 -1.33415e-05 -0.000216814
0.00124631 9.28651e-06 5.76053e-06
9.28651e-06 0.000558437 1.55065e-06
5.76053e-06 1.55065e-06 0.00039807
0.000930116 0.000193396 -2.11278e-06
0.000193396 0.000399228 -5.56358e-06
-2.11278e-06 -5.56358e-06 0.00028119
0.0027894 0.000217632 -3.3794e-06
0.000217632 0.00176684 -1.72215e-05
-3.3794e-06 -1.72215e-05 0.00144857
0.00838047 0.00218763 0.000693894
0.00218763 0.00568747 0.000607262
0.000693894 0.000607262 0.000431263
0.00367754 0.00144186 2.61722e-05
0.00144186 0.000965672 8.55908e-05
2.61722e-05 8.55908e-05 -0.00141963
0.00677151 -0.000324657 0.000138697
-0.000324657 -2.15096e-05 -9.04039e-06
0.000138697 -9.04039e-06 -0.00144276
0.0147498 -0.000929893 -0.000303737
-0.000929893 0.0022457 -0.000142046
-0.000303737 -0.000142046 0.00384391
0.000958254 0.000884489 0.000133012
0.000884489 -0.00168765 0.000449184
0.000133012 0.000449184 -0.00767115
0.0029112 -0.00408174 -5.95796e-05
-0.00408174 0.00122922 -1.69902e-05
-5.95796e-05 -1.69902e-05 0.0012796
0.00435646 -0.0021049 -0.000318797
-0.0021049 0.00559348 9.25365e-05
-0.000318797 9.25365e-05 -0.000845815
0.000151219 -0.0016481 -0.000126082
-0.0016481 0.00125155 0.000142552
-0.000126082 0.000142552 0.000441461
0.0113537 -0.000247015 -0.000310005
-0.000247015 0.00840984 -3.93755e-07
-0.000310005 -3.93755e-07 0.000791394
0.00913641 -0.00304355 0.000141624
-0.00304355 0.00550369 0.000252949
0.000141624 0.000252949 -0.00130494
0.0250235 -0.00571615 8.68631e-05
-0.00571615 0.00792498 -0.000928559
8.68631e-05 -0.000928559 0.00228377
0.000260802 0.000396809 -0.000166208
0.000396809 0.00311947 0.000107662
-0.000166208 0.000107662 0.00127727
0.00654345 0.00242044 -0.000286318
0.00242044 0.0066407 -8.41139e-05
-0.000286318 -8.41139e-05 -8.94794e-06
0.0264333 -0.00955185 0.000329733
-0.00955185 0.0148043 -0.00100282
0.000329733 -0.00100282 0.00607508
0.0312364 -0.0137835 9.97952e-05
-0.0137835 0.016832 -7.91002e-05
9.97952e-05 -7.91002e-05 0.0081829
-0.000248877 0.00031084 2.77081e-05
0.00031084 -4.38539e-05 1.06961e-05
2.77081e-05 1.06961e-05 -0.000499483
-2.73092e-05 7.25857e-05 1.0425e-05
7.25857e-05 0.000235851 1.24124e-06
1.0425e-05 1.24124e-06 -0.000192384
0.00119751 0.000210938 -2.66602e-05
0.000210938 0.000641514 -1.5857e-05
-2.66602e-05 -1.5857e-05 0.000468838
0.00469728 -0.00168739 0.000141993
-0.00168739 0.00328496 -1.90324e-05
0.000141993 -1.90324e-05 0.00128564
-0.000919288 -0.000194468 0.000101664
-0.000194468 0.000750947 7.61691e-06
0.000101664 7.61691e-06 -3.60602e-05
-0.000494238 8.09111e-05 -1.111e-05
8.09111e-05 -0.000155462 2.88511e-06
-1.111e-05 2.88511e-06 -0.000453104
-0.000485939 -0.000212566 1.77145e-05
-0.000212566 0.000430301 -1.11916e-05
1.77145e-05 -1.11916e-05 -0.00026812
-0.000250864 0.00013626 -5.46369e-06
0.00013626 0.000118971 6.6386e-07
-5.46369e-06 6.6386e-07 -0.000219873
-0.000314189 0.00033224 2.24622e-05
0.00033224 0.000517334 6.41898e-06
2.24622e-05 6.41898e-06 -0.0001775
-0.00238001 0.000103494 0.000173703
0.000103494 0.00146316 -6.18856e-05
0.000173703 -6.18856e-05 -0.000747725
0.00152256 0.000844409 3.98189e-05
0.000844409 0.000851121 4.41924e-05
3.98189e-05 4.41924e-05 0.000357485
0.00145377 0.00110879 -0.000126057
0.00110879 0.00190717 -0.000118168
-0.000126057 -0.000118168 5.98027e-05
0.000408368 -0.000151075 0.000286087
-0.000151075 0.00179097 0.000107362
0.000286087 0.000107362 -0.00361911
-0.00309298 0.000494411 -0.000163598
0.000494411 0.00313568 9.73881e-07
-0.000163598 9.73881e-07 0.000450788
0.00419542 -0.000425112 -9.72371e-05
-0.000425112 0.00230718 3.1706e-07
-9.72371e-05 3.1706e-07 0.00155292
0.000438267 0.000609984 6.90115e-05
0.000609984 0.00126133 2.15581e-05
6.90115e-05 2.15581e-05 -0.000220304
0.000776656 0.000309116 -0.000113513
0.000309116 0.00313917 0.000109969
-0.000113513 0.000109969 0.0011937
-0.00103156 -0.000262083 -2.00695e-05
-0.000262083 0.00287469 -5.52084e-05
-2.00695e-05 -5.52084e-05 0.000730643
0.0150655 -0.00573427 0.000355558
-0.00573427 0.00933032 -0.000218026
0.000355558 -0.000218026 0.00123828
0.0274415 0.00734618 -0.000581262
0.00734618 0.014654 -0.000298741
-0.000581262 -0.000298741 0.00570361
0.00622531 -0.00260608 -0.000497367
-0.00260608 0.00346248 0.000341155
-0.000497367 0.000341155 -0.00133694
0.0183243 0.0172461 0.00324448
0.0172461 0.013877 -0.00189854
0.00324448 -0.00189854 0.00443569
0.000379556 -0.000754124 4.56164e-05
-0.000754124 0.00161065 -1.24842e-05
4.56164e-05 -1.24842e-05 6.20479e-05
-0.000126136 -0.000843874 8.12488e-05
-0.000843874 0.000965001 7.52478e-06
8.12488e-05 7.52478e-06 -0.00421956
0.00506947 0.00344383 -0.00162536
0.00344383 0.010385 0.000274289
-0.00162536 0.000274289 0.00303534
0.000202818 -0.00146725 4.85593e-05
-0.00146725 0.00192141 2.7121e-05
4.85593e-05 2.7121e-05 0.000689677
0.026008 0.00894766 0.000476807
0.00894766 0.0104631 0.00016406
0.000476807 0.00016406 0.00253682
0.00678222 -0.00772633 0.000372374
-0.00772633 0.00293155 -9.6022e-05
0.000372374 -9.6022e-05 -0.00159069
0.000161552 -0.00202552 -9.12663e-07
-0.00202552 0.00067648 4.61826e-05
-9.12663e-07 4.61826e-05 -0.000686573
-0.00290559 -0.00193374 0.000211423
-0.00193374 0.00866297 -0.000116142
0.000211423 -0.000116142 0.00344286
0.0205696 0.00962002 -0.00225004
0.00962002 0.00873386 0.00047067
-0.00225004 0.00047067 0.00231039
0.00565584 -0.00634037 -0.000685029
-0.00634037 -0.00196171 0.00024304
-0.000685029 0.00024304 -0.00386488
-0.00116609 -0.00255843 0.000196044
-0.00255843 -0.000411244 -0.000150817
0.000196044 -0.000150817 0.000526763
0.00131167 -0.000704713 -0.000123203
-0.000704713 0.00108944 4.36039e-05
-0.000123203 4.36039e-05 0.000344755
0.000323015 -0.000946619 -1.71615e-05
-0.000946619 0.000426606 1.21879e-05
-1.71615e-05 1.21879e-05 -0.000227928
0.00136487 -0.00111295 1.81796e-05
-0.00111295 0.00052506 -3.58043e-05
1.81796e-05 -3.58043e-05 -2.98079e-05
-0.000749347 -0.000340194 7.36834e-06
-0.000340194 -0.000122495 1.92871e-06
7.36834e-06 1.92871e-06 -0.000499491
0.00100113 -0.000891735 4.87138e-06
-0.000891735 0.000258278 -1.92589e-07
4.87138e-06 -1.92589e-07 -0.000244064
0.00306749 -0.00137507 8.73016e-06
-0.00137507 0.000853305 -1.8735e-05
8.73016e-06 -1.8735e-05 0.000313483
0.00428727 -0.00127327 -3.65369e-05
-0.00127327 0.00204699 5.85356e-06
-3.65369e-05 5.85356e-06 0.00123362
0.00208599 -0.00117233 -4.62139e-06
-0.00117233 0.000533564 -3.81935e-07
-4.62139e-06 -3.81935e-07 -0.000246634
0.00273112 -0.00137451 1.6409e-06
-0.00137451 0.00061371 -8.03178e-06
1.6409e-06 -8.03178e-06 -2.76301e-05
0.00308054 -0.00122279 6.16046e-06
-0.00122279 0.00117832 4.54541e-06
6.16046e-06 4.54541e-06 0.00039664
0.00264177 -0.00126298 3.09291e-06
-0.00126298 0.000772751 -3.62737e-06
3.09291e-06 -3.62737e-06 6.39379e-05
0.00278227 -0.00103189 -3.6829e-06
-0.00103189 0.000576875 -6.752e-06
-3.6829e-06 -6.752e-06 0.000106556
0.00203079 -0.000628053 -5.36234e-07
-0.000628053 3.29319e-05 -2.62261e-06
-5.36234e-07 -2.62261e-06 -0.000227124
0.00210154 -0.00093045 2.62272e-06
-0.00093045 0.000176452 -3.94238e-06
2.62272e-06 -3.94238e-06 -0.00028738
0.00245381 -0.000966316 3.67533e-06
-0.000966316 0.000428215 -2.3483e-06
3.67533e-06 -2.3483e-06 -4.25258e-05
0.0028143 -0.00110642 -4.38232e-06
-0.00110642 0.00090634 -2.58423e-06
-4.38232e-06 -2.58423e-06 0.000328979
0.0029284 -0.0012314 -4.00525e-06
-0.0012314 0.000920033 -3.00691e-07
-4.00525e-06 -3.00691e-07 0.000279117
0.00270436 -0.00123057 1.01426e-05
-0.00123057 0.000804967 -3.08294e-06
1.01426e-05 -3.08294e-06 0.000132893
0.00189376 -0.000909713 7.31533e-06
-0.000909713 0.000603228 -6.79084e-06
7.31533e-06 -6.79084e-06 2.93773e-05
0.00190354 -0.00100737 1.94762e-06
-0.00100737 0.000568843 -7.74475e-07
1.94762e-06 -7.74475e-07 -2.90615e-05
0.00142773 -0.00092183 4.19105e-06
-0.00092183 0.000286471 3.17687e-06
4.19105e-06 3.17687e-06 -0.000287064
0.00208775 -0.000423485 3.02341e-06
-0.000423485 0.00089837 7.34273e-06
3.02341e-06 7.34273e-06 0.000566162
0.00145984 -0.00064643 7.63151e-07
-0.00064643 0.00048543 1.98452e-06
7.63151e-07 1.98452e-06 1.37934e-05
0.00212867 -0.000841111 -5.76171e-06
-0.000841111 0.000836477 7.11502e-06
-5.76171e-06 7.11502e-06 0.000295787
0.000171516 -0.000173611 -5.08246e-06
-0.000173611 -0.000202821 -2.16501e-06
-5.08246e-06 -2.16501e-06 -0.000450261
0.000610864 -0.000256749 -4.16746e-06
-0.000256749 5.52682e-05 -3.89092e-06
-4.16746e-06 -3.89092e-06 -0.000222685
0.000682564 -0.000290318 -2.61601e-06
-0.000290318 6.52719e-05 -5.04463e-07
-2.61601e-06 -5.04463e-07 -0.000245304
0.00205206 -3.05992e-05 -6.36734e-05
-3.05992e-05 0.00102634 1.28457e-05
-6.36734e-05 1.28457e-05 0.000951363
0.000709389 -0.000205594 2.23639e-06
-0.000205594 0.000183071 7.43211e-07
2.23639e-06 7.43211e-07 -5.59653e-05
0.00104138 -0.000318147 4.09491e-06
-0.000318147 0.000442536 5.68715e-06
4.09491e-06 5.68715e-06 0.000130247
0.000688651 5.06314e-06 -7.54963e-05
5.06314e-06 0.000152585 8.45586e-06
-7.54963e-05 8.45586e-06 0.000139376
0.00131386 -3.57623e-05 -2.38112e-05
-3.57623e-05 0.000545524 -6.70188e-07
-2.38112e-05 -6.70188e-07 0.000483438
0.00113239 -0.000142125 2.31693e-06
-0.000142125 0.000448626 -6.01303e-06
2.31693e-06 -6.01303e-06 0.000259726
0.000611962 -3.24064e-05 5.66328e-06
-3.24064e-05 9.29015e-05 -1.28487e-05
5.66328e-06 -1.28487e-05 3.85164e-05
0.00354895 0.000133241 1.24858e-05
0.000133241 0.00201321 1.03628e-06
1.24858e-05 1.03628e-06 0.00200681
0.00318389 0.000100693 5.12538e-05
0.000100693 0.00176444 -5.90044e-06
5.12538e-05 -5.90044e-06 0.00176594
0.000181846 0.000161003 6.00734e-06
0.000161003 -9.6249e-05 6.01672e-06
6.00734e-06 6.01672e-06 -0.000365847
0.00194845 0.000210115 6.09189e-06
0.000210115 0.00115094 -1.37057e-05
6.09189e-06 -1.37057e-05 0.000812799
-0.000607336 5.47513e-05 4.05286e-06
5.47513e-05 -0.000471987 9.8166e-09
4.05286e-06 9.8166e-09 -0.000776462
0.000631054 9.49363e-05 1.41696e-06
9.49363e-05 0.000139781 -1.05827e-05
1.41696e-06 -1.05827e-05 -5.88027e-06
0.000569166 0.000140361 2.1391e-06
0.000140361 0.000194088 -3.08125e-07
2.1391e-06 -3.08125e-07 -4.63871e-05
0.000397376 1.39503e-05 -1.30402e-06
1.39503e-05 -3.50017e-05 -1.18264e-05
-1.30402e-06 -1.18264e-05 -7.82046e-05
0.000542281 7.22168e-05 1.07771e-08
7.22168e-05 8.47169e-05 -2.84054e-07
1.07771e-08 -2.84054e-07 -3.81431e-05
0.000712237 8.01318e-05 -5.89634e-06
8.01318e-05 0.000266966 2.37457e-06
-5.89634e-06 2.37457e-06 7.35973e-05
0.00280954 -7.02054e-05 -3.99962e-05
-7.02054e-05 0.00151933 -5.94679e-06
-3.99962e-05 -5.94679e-06 0.00152685
0.000395685 7.85369e-06 -4.17468e-07
7.85369e-06 -4.39415e-05 -2.68619e-09
-4.17468e-07 -2.68619e-09 -7.85305e-05
0.000468905 7.55078e-05 -2.56793e-06
7.55078e-05 3.76348e-05 3.94859e-06
-2.56793e-06 3.94859e-06 -6.88496e-05
0.00249381 -5.12144e-05 -7.41313e-06
-5.12144e-05 0.00130944 4.88031e-07
-7.41313e-06 4.88031e-07 0.00132027
0.000360661 -1.73694e-05 -7.55743e-06
-1.73694e-05 -7.17029e-05 6.62255e-06
-7.55743e-06 6.62255e-06 -9.81722e-05
0.00226532 -3.02563e-05 2.36546e-05
-3.02563e-05 0.00115821 5.41604e-06
2.36546e-05 5.41604e-06 0.00117284
0.00695957 0.00132249 0.000562059
0.00132249 0.00513703 0.00013968
0.000562059 0.00013968 0.0016763
-0.00235178 0.000680542 -1.56108e-05
0.000680542 0.0016764 -1.36446e-05
-1.56108e-05 -1.36446e-05 -0.000802024
0.000499925 0.000817102 -8.4009e-06
0.000817102 0.00226148 -1.96868e-05
-8.4009e-06 -1.96868e-05 0.000232075
-0.00038891 0.000240444 -9.20021e-06
0.000240444 -0.000571776 1.11494e-05
-9.20021e-06 1.11494e-05 -0.000837341
-3.71581e-05 7.20851e-05 -1.00255e-05
7.20851e-05 -0.000153659 2.19687e-05
-1.00255e-05 2.19687e-05 -0.000441695
4.42727e-06 0.000112771 -1.1664e-05
0.000112771 -0.000207193 -1.33016e-05
-1.1664e-05 -1.33016e-05 -0.000397854
0.00194658 0.000159825 8.85282e-06
0.000159825 0.00106523 3.18872e-07
8.85282e-06 3.18872e-07 0.000831504
0.00107033 0.000240113 -8.92167e-07
0.000240113 0.00032799 -9.62716e-06
-8.92167e-07 -9.62716e-06 0.000121816
0.00281431 0.00044669 -2.00531e-05
0.00044669 0.0015381 -7.81789e-06
-2.00531e-05 -7.81789e-06 0.0013085
0.00149049 0.000346998 1.98852e-06
0.000346998 0.000619263 -1.56721e-05
1.98852e-06 -1.56721e-05 0.000263843
-0.00203545 0.000187697 -1.02544e-05
0.000187697 -0.00106968 3.37081e-06
-1.02544e-05 3.37081e-06 -0.00147761
-0.000117112 5.33654e-05 -3.65535e-06
5.33654e-05 -0.000254622 -1.09375e-05
-3.65535e-06 -1.09375e-05 -0.000429643
-0.000480782 5.85131e-05 -1.14181e-05
5.85131e-05 -0.000573193 -1.11599e-05
-1.14181e-05 -1.11599e-05 -0.000632909
-0.00103616 2.98981e-05 -5.17897e-06
2.98981e-05 -0.000596574 2.27833e-06
-5.17897e-06 2.27833e-06 -0.000918726
-3.55113e-05 0.000321455 -2.1265e-06
0.000321455 0.000150866 8.88596e-06
-2.1265e-06 8.88596e-06 -0.000415748
0.00850564 -0.00685782 -6.167e-05
-0.00685782 0.0100297 0.000213625
-6.167e-05 0.000213625 0.000767771
0.0088706 0.00275955 0.000256922
0.00275955 0.0042506 0.000202609
0.000256922 0.000202609 -0.00174261
0.0043087 0.000804803 2.48181e-05
0.000804803 0.00173842 -7.80553e-05
2.48181e-05 -7.80553e-05 -0.000973619
0.0363233 -0.00857765 -0.00125077
-0.00857765 0.0119992 -0.000484904
-0.00125077 -0.000484904 0.00537812
0.00599048 -0.0014732 0.000349571
-0.0014732 0.00515309 0.000613742
0.000349571 0.000613742 0.000189381
0.0019451 -0.0013556 -0.000254053
-0.0013556 0.00592389 0.000161236
-0.000254053 0.000161236 -0.00255675
-0.000262448 -0.0018386 7.9127e-05
-0.0018386 0.00179523 6.04727e-05
7.9127e-05 6.04727e-05 0.000246443
-0.00152666 -5.35803e-05 0.000201912
-5.35803e-05 0.00168754 4.77433e-05
0.000201912 4.77433e-05 0.000407509
0.0265391 -0.0153968 0.000557301
-0.0153968 0.0156313 0.000548698
0.000557301 0.000548698 0.00644458
0.00392767 0.00241279 -0.000192079
0.00241279 0.00571479 -0.000125067
-0.000192079 -0.000125067 -0.00184094
0.0122985 -0.00500919 -0.000168562
-0.00500919 0.00899265 0.000173469
-0.000168562 0.000173469 7.70932e-05
-0.000339194 0.00106301 -2.55692e-06
0.00106301 0.00155175 2.33106e-05
-2.55692e-06 2.33106e-05 0.000582166
0.00675413 0.00577993 -0.000200068
0.00577993 0.00290872 -1.87484e-06
-0.000200068 -1.87484e-06 -0.00134992
0.0243676 -0.00858757 -0.00111649
-0.00858757 0.00976267 -0.000425205
-0.00111649 -0.000425205 0.0015254
0.00112161 0.000824279 1.76153e-05
0.000824279 0.000316091 1.42795e-05
1.76153e-05 1.42795e-05 8.24932e-05
0.00104189 0.000384533 9.19645e-06
0.000384533 0.000749986 5.74136e-06
9.19645e-06 5.74136e-06 0.000274041
-0.000273579 4.85395e-05 -2.98002e-05
4.85395e-05 7.7267e-05 1.8399e-06
-2.98002e-05 1.8399e-06 -0.000343709
-0.00263924 -0.000237531 -0.000147594
-0.000237531 0.00108919 -4.04611e-05
-0.000147594 -4.04611e-05 -0.00100423
0.000792622 0.000350623 -2.51958e-05
0.000350623 0.000715015 -1.53037e-05
-2.51958e-05 -1.53037e-05 0.000130421
-0.000271775 0.000207956 -6.56722e-06
0.000207956 0.000116364 3.16372e-06
-6.56722e-06 3.16372e-06 -0.0002854
0.00128875 0.000835179 1.08291e-05
0.000835179 0.000700565 1.69632e-06
1.08291e-05 1.69632e-06 0.000201815
-0.000150977 0.000909803 5.85952e-06
0.000909803 0.0011486 -4.73671e-05
5.85952e-06 -4.73671e-05 -0.000462557
0.00204264 0.00225488 0.000105701
0.00225488 0.000810476 2.09268e-05
0.000105701 2.09268e-05 -0.000507053
-0.00689387 0.00123732 0.000553957
0.00123732 0.00636429 -3.2184e-05
0.000553957 -3.2184e-05 -0.00271086
0.00209523 -0.000612255 -2.62924e-05
-0.000612255 0.00248259 9.51482e-05
-2.62924e-05 9.51482e-05 -0.00118115
-0.00317908 4.03467e-05 -3.49287e-05
4.03467e-05 0.00238093 0.000100615
-3.49287e-05 0.000100615 -9.3987e-05
-0.00109697 -0.00046436 -5.85098e-05
-0.00046436 0.000873919 9.49042e-06
-5.85098e-05 9.49042e-06 -0.000712593
-0.00179172 -0.000981995 -5.5672e-05
-0.000981995 0.000266573 4.50075e-05
-5.5672e-05 4.50075e-05 0.000133405
-0.00136628 -0.0010012 -0.000276144
-0.0010012 0.00145025 0.000186296
-0.000276144 0.000186296 -0.00420372
-0.00182061 -0.005777 0.00028221
-0.005777 0.00238369 -0.000160096
0.00028221 -0.000160096 -0.00472366
0.0184143 0.00711651 0.000936427
0.00711651 0.00504482 -0.000457383
0.000936427 -0.000457383 -0.00249454
0.0186048 0.00762312 -0.000442187
0.00762312 0.0121592 0.000508085
-0.000442187 0.000508085 0.00351883
0.000688975 -0.00142836 -4.23457e-05
-0.00142836 0.00159945 9.68043e-06
-4.23457e-05 9.68043e-06 0.000301106
0.0045128 0.00170992 0.000293225
0.00170992 0.0108819 -6.18858e-05
0.000293225 -6.18858e-05 0.00411549
0.00652248 0.00661514 2.751e-05
0.00661514 0.00274544 0.00010763
2.751e-05 0.00010763 -0.00275428
0.00227796 -0.00428999 7.71771e-05
-0.00428999 0.000885487 -5.94293e-05
7.71771e-05 -5.94293e-05 0.00102749
0.0132792 -0.00694411 -4.43465e-06
-0.00694411 0.000308122 1.31574e-05
-4.43465e-06 1.31574e-05 -0.00124803
0.00356537 -0.00258076 2.36526e-05
-0.00258076 0.0016276 2.15579e-05
2.36526e-05 2.15579e-05 0.000926114
-0.00565051 0.0025555 -0.00109258
0.0025555 -0.000614006 0.000172879
-0.00109258 0.000172879 -0.00581319
0.0161507 -0.00442077 -0.000284436
-0.00442077 2.55515e-05 8.24954e-05
-0.000284436 8.24954e-05 -0.000404238
0.0044466 -0.00407371 0.000145761
-0.00407371 -6.65269e-05 -9.34405e-05
0.000145761 -9.34405e-05 0.00124119
-8.15816e-05 -0.000701257 7.41521e-06
-0.000701257 0.000340519 -4.52889e-06
7.41521e-06 -4.52889e-06 -0.000327197
0.00237741 -0.00142178 2.60369e-05
-0.00142178 0.000879886 -1.04419e-05
2.60369e-05 -1.04419e-05 0.000378442
0.00230295 -0.00122851 1.28439e-05
-0.00122851 0.000466313 -1.83121e-05
1.28439e-05 -1.83121e-05 2.97041e-05
-0.000252934 -0.00072526 -6.24681e-06
-0.00072526 -0.000391205 2.19697e-05
-6.24681e-06 2.19697e-05 -0.000863479
0.00216228 -0.00127719 -7.13641e-06
-0.00127719 0.000379083 1.17131e-07
-7.13641e-06 1.17131e-07 -0.000167967
0.00331835 -0.00141092 6.72206e-06
-0.00141092 0.000776269 -4.23058e-06
6.72206e-06 -4.23058e-06 0.000254307
0.00144968 -0.00105162 -1.05357e-05
-0.00105162 0.000171384 9.56e-06
-1.05357e-05 9.56e-06 -0.000579671
0.00252038 -0.00134294 -3.3286e-07
-0.00134294 0.000501886 3.42243e-06
-3.3286e-07 3.42243e-06 -0.000137926
0.00245835 -0.00102887 -1.52296e-06
-0.00102887 0.000219602 -2.45318e-06
-1.52296e-06 -2.45318e-06 -0.000152582
0.00207403 -0.00117874 9.90129e-06
-0.00117874 0.000450882 3.24808e-06
9.90129e-06 3.24808e-06 -0.000227825
0.00235853 -0.000965643 -1.82131e-06
-0.000965643 0.000348344 2.15259e-06
-1.82131e-06 2.15259e-06 -0.000103008
0.00230971 -0.00068731 3.51652e-07
-0.00068731 0.000104821 -1.35728e-06
3.51652e-07 -1.35728e-06 -0.000118556
0.00225862 -0.000621079 -2.33543e-06
-0.000621079 0.000176214 4.43119e-07
-2.33543e-06 4.43119e-07 -1.70415e-05
0.00191634 -0.000634888 -3.03902e-06
-0.000634888 -7.11065e-06 -1.97366e-06
-3.03902e-06 -1.97366e-06 -0.000283956
0.00203411 -0.000623012 1.41434e-06
-0.000623012 2.74021e-05 3.00401e-06
1.41434e-06 3.00401e-06 -0.000228087
0.00193561 -0.000806632 -3.21716e-06
-0.000806632 0.00014626 -4.73483e-06
-3.21716e-06 -4.73483e-06 -0.000265916
0.00226799 -0.000939447 2.84583e-06
-0.000939447 0.000303436 4.66631e-07
2.84583e-06 4.66631e-07 -0.000157438
0.00241702 -0.000967227 1.48846e-06
-0.000967227 0.000401514 4.36934e-06
1.48846e-06 4.36934e-06 -6.83662e-05
0.00216716 -0.000959124 9.15635e-07
-0.000959124 0.000549409 -5.14277e-06
9.15635e-07 -5.14277e-06 1.36217e-09
0.00256235 -0.00108403 1.88455e-06
-0.00108403 0.000744842 -8.51553e-07
1.88455e-06 -8.51553e-07 0.000168598
0.002913 -0.00122449 3.16751e-06
-0.00122449 0.000919949 -5.37809e-07
3.16751e-06 -5.37809e-07 0.000275771
0.00172356 -0.000638417 -5.47337e-06
-0.000638417 0.000560291 2.19883e-06
-5.47337e-06 2.19883e-06 0.000112576
0.00194877 -0.000900535 7.65664e-07
-0.000900535 0.000645261 6.12565e-07
7.65664e-07 6.12565e-07 7.89171e-05
0.00156573 -0.000958889 9.66863e-07
-0.000958889 0.00037946 4.0932e-06
9.66863e-07 4.0932e-06 -0.000205207
0.000764459 -0.000253456 -4.42516e-06
-0.000253456 0.000142557 -2.08359e-06
-4.42516e-06 -2.08359e-06 -0.000113504
0.00109341 -0.000382543 4.50013e-06
-0.000382543 0.000273159 -5.03925e-08
4.50013e-06 -5.03925e-08 -5.662e-05
0.000987597 -0.000584353 -5.44554e-06
-0.000584353 0.000227858 5.18497e-06
-5.44554e-06 5.18497e-06 -0.000223481
0.000469311 -0.000130619 -2.01317e-05
-0.000130619 -4.6416e-05 1.6542e-05
-2.01317e-05 1.6542e-05 -0.000149788
0.000657687 -0.000209865 -1.14954e-06
-0.000209865 0.00013056 1.41473e-06
-1.14954e-06 1.41473e-06 -0.000137809
-0.000119956 -0.000294974 -4.72156e-06
-0.000294974 -0.000379603 -1.59067e-06
-4.72156e-06 -1.59067e-06 -0.000673986
0.00453266 0.000304955 2.45564e-05
0.000304955 0.00272074 1.02254e-05
2.45564e-05 1.02254e-05 0.00265839
0.000427222 -8.91352e-05 2.2942e-07
-8.91352e-05 -4.05483e-05 -5.06024e-07
2.2942e-07 -5.06024e-07 -0.00013284
0.00146183 -0.000225153 1.99366e-06
-0.000225153 0.000653982 -2.66214e-06
1.99366e-06 -2.66214e-06 0.000418741
0.0039736 0.000148009 1.08777e-05
0.000148009 0.00229686 7.57724e-07
1.08777e-05 7.57724e-07 0.00228653
0.000658258 -5.53167e-05 9.72848e-06
-5.53167e-05 0.000117589 -1.4903e-05
9.72848e-06 -1.4903e-05 4.56256e-05
0.00355983 0.000113606 7.76426e-05
0.000113606 0.00201571 -7.12529e-06
7.76426e-05 -7.12529e-06 0.00201436
0.00245385 0.00045702 3.19571e-06
0.00045702 0.00123485 3.30641e-06
3.19571e-06 3.30641e-06 0.000939784
0.00057238 0.000226404 4.37151e-07
0.000226404 0.000155954 -3.59898e-07
4.37151e-07 -3.59898e-07 -0.000134077
0.00129818 0.000488422 -3.8362e-06
0.000488422 0.000673816 -4.63596e-06
-3.8362e-06 -4.63596e-06 0.000335907
0.00118878 0.000166415 -1.06292e-07
0.000166415 0.000499307 -1.12115e-05
-1.06292e-07 -1.12115e-05 0.000314856
0.000877875 0.000157366 -1.06649e-07
0.000157366 0.000471978 6.77572e-07
-1.06649e-07 6.77572e-07 0.000129365
7.92466e-05 0.000131098 -1.80476e-06
0.000131098 -2.20817e-07 6.06292e-06
-1.80476e-06 6.06292e-06 -0.000344506
0.000546238 4.95453e-06 -2.16982e-06
4.95453e-06 6.97164e-05 -1.4594e-05
-2.16982e-06 -1.4594e-05 1.45235e-05
0.000632475 7.42051e-05 1.89559e-07
7.42051e-05 0.000146368 2.8941e-07
1.89559e-07 2.8941e-07 1.24002e-06
-0.000146843 8.24912e-05 -5.09095e-06
8.24912e-05 -0.000289619 1.42269e-05
-5.09095e-06 1.42269e-05 -0.000517339
0.00297195 -8.71243e-05 -5.11451e-05
-8.71243e-05 0.00163123 -6.55511e-06
-5.11451e-05 -6.55511e-06 0.00163598
0.000389996 -2.83465e-05 2.06105e-06
-2.83465e-05 -3.68327e-05 -4.06369e-07
2.06105e-06 -4.06369e-07 -8.06535e-05
0.000555285 6.5039e-05 -4.38328e-06
6.5039e-05 0.000103662 6.56733e-06
-4.38328e-06 6.56733e-06 -2.12911e-05
0.0027456 -7.15487e-05 -8.56654e-06
-7.15487e-05 0.00147824 6.68093e-07
-8.56654e-06 6.68093e-07 0.00148516
0.000402076 1.64929e-05 -1.52464e-06
1.64929e-05 -4.08426e-05 8.27096e-06
-1.52464e-06 8.27096e-06 -7.42801e-05
0.00245107 -5.11119e-05 2.46546e-05
-5.11119e-05 0.00128167 5.65287e-06
2.46546e-05 5.65287e-06 0.00129269
-0.00688207 0.000730223 -0.000341712
0.000730223 0.00554554 7.34398e-05
-0.000341712 7.34398e-05 -0.0028083
0.0066117 0.00112279 5.37296e-05
0.00112279 0.00443408 6.87572e-07
5.37296e-05 6.87572e-07 0.00112629
-0.00149675 0.00068068 0.000162729
0.00068068 0.00169139 8.17053e-05
0.000162729 8.17053e-05 -0.00100142
0.000289667 0.000263191 -7.81677e-06
0.000263191 -0.000102912 1.01789e-05
-7.81677e-06 1.01789e-05 -0.000424485
0.00402265 0.00100123 2.24215e-05
0.00100123 0.0022066 2.48021e-05
2.24215e-05 2.48021e-05 0.00166841
0.000132123 0.000252044 -1.54063e-05
0.000252044 7.49898e-05 7.40347e-06
-1.54063e-05 7.40347e-06 -0.000416876
0.000621672 0.000135214 -8.35562e-06
0.000135214 0.000242754 -1.73957e-05
-8.35562e-06 -1.73957e-05 2.76877e-06
0.00301705 0.000428406 -2.37458e-06
0.000428406 0.00152942 -6.71731e-06
-2.37458e-06 -6.71731e-06 0.00129587
-0.00181062 2.15635e-05 -7.87035e-06
2.15635e-05 -0.00134958 1.61792e-05
-7.87035e-06 1.61792e-05 -0.00148062
-0.000122861 0.000275276 -6.17153e-07
0.000275276 -5.02297e-05 6.62216e-06
-6.17153e-07 6.62216e-06 -0.000383618
-0.000145848 0.000133673 -5.73958e-06
0.000133673 -0.000283851 -5.26575e-06
-5.73958e-06 -5.26575e-06 -0.000632001
0.00073156 0.000775322 -7.17892e-06
0.000775322 0.000322379 -2.17844e-05
-7.17892e-06 -2.17844e-05 -0.000252765
-0.00091853 0.000658333 -3.00364e-05
0.000658333 -0.000873214 7.03493e-05
-3.00364e-05 7.03493e-05 -0.0010952
0.000704835 7.57762e-05 -1.31913e-05
7.57762e-05 0.000408702 1.45624e-05
-1.31913e-05 1.45624e-05 0.000136339
0.00220153 0.000556091 1.26564e-05
0.000556091 0.00140906 -4.04158e-06
1.26564e-05 -4.04158e-06 0.000906159
0.00451777 -0.00446692 -0.00279051
-0.00446692 0.00322372 -0.000221039
-0.00279051 -0.000221039 -0.00327102
0.00232739 -0.0053655 0.00090961
-0.0053655 0.0106465 0.000147164
0.00090961 0.000147164 0.00195675
0.00950434 0.00339343 -0.001007
0.00339343 0.00380194 -0.000322326
-0.001007 -0.000322326 -0.00280214
0.018914 -0.017006 0.00321277
-0.017006 0.0143178 0.00180832
0.00321277 0.00180832 0.00455955
0.0309803 -0.00487957 -0.00011702
-0.00487957 0.0126039 0.00051974
-0.00011702 0.00051974 0.0054813
-0.00279745 0.00153468 -0.000112696
0.00153468 0.00364169 -0.000218451
-0.000112696 -0.000218451 -0.0030641
-0.0017889 0.000218403 -0.000205075
0.000218403 0.00236274 -2.13283e-05
-0.000205075 -2.13283e-05 0.000237059
0.000324349 0.00113996 7.68113e-05
0.00113996 0.00210024 5.99384e-05
7.68113e-05 5.99384e-05 0.00123728
0.0256082 -0.00721639 -0.000912809
-0.00721639 0.0116179 7.65963e-05
-0.000912809 7.65963e-05 0.00367949
-0.00126785 0.00534079 -0.000264989
0.00534079 0.000987947 -4.13014e-05
-0.000264989 -4.13014e-05 -0.0039072
0.00337105 0.00344185 7.86533e-05
0.00344185 0.00133659 -8.30584e-05
7.86533e-05 -8.30584e-05 0.00200052
0.00806017 0.00912473 -0.000858576
0.00912473 -0.00146482 -9.93528e-05
-0.000858576 -9.93528e-05 -0.00333095
0.00417196 0.00171782 3.69015e-05
0.00171782 0.00172919 -9.12165e-06
3.69015e-05 -9.12165e-06 0.00120062
0.000886686 0.000761642 -4.62555e-06
0.000761642 0.000150112 -3.93821e-06
-4.62555e-06 -3.93821e-06 -4.62187e-05
-0.000139509 0.000267011 -2.95306e-05
0.000267011 2.79978e-05 -6.77819e-06
-2.95306e-05 -6.77819e-06 -0.000430332
-0.000956163 0.000820918 -0.000146456
0.000820918 0.000836053 -7.97675e-05
-0.000146456 -7.97675e-05 -0.00056743
0.000540297 0.000806371 -6.22052e-05
0.000806371 0.000219127 -4.88059e-05
-6.22052e-05 -4.88059e-05 -0.00024168
0.00265002 0.00235125 3.87944e-06
0.00235125 0.000977206 -1.34066e-05
3.87944e-06 -1.34066e-05 -0.000294829
-0.00165458 0.00226758 0.000120182
0.00226758 -0.00220957 6.86798e-05
0.000120182 6.86798e-05 -0.00273807
-0.00704232 -0.000774133 -0.00098272
-0.000774133 -0.00252062 6.98814e-05
-0.00098272 6.98814e-05 -0.00521941
-0.0105019 0.000504145 0.000697452
0.000504145 0.00686359 1.1396e-05
0.000697452 1.1396e-05 -0.000759842
0.00253723 0.000140268 -0.000211888
0.000140268 0.00234319 3.73366e-05
-0.000211888 3.73366e-05 -2.00954e-05
0.000957083 -0.0015161 -6.38745e-05
-0.0015161 0.00121349 -5.95556e-05
-6.38745e-05 -5.95556e-05 -5.05801e-05
-0.00112871 -0.00302043 0.000216516
-0.00302043 -9.95298e-05 5.28581e-06
0.000216516 5.28581e-06 -3.4019e-05
0.00200063 0.00189764 0.000337288
0.00189764 0.0103725 0.00010232
0.000337288 0.00010232 0.00332713
0.00613146 -0.00670678 0.000870889
-0.00670678 -0.00196727 -6.39808e-05
0.000870889 -6.39808e-05 -0.00263383
0.0250833 0.00607177 0.00163848
0.00607177 0.0121097 -4.49864e-05
0.00163848 -4.49864e-05 0.00610276
0.00218242 -0.00285014 -2.49108e-05
-0.00285014 0.000658682 2.26031e-06
-2.49108e-05 2.26031e-06 -0.000312014
0.00524411 0.00313015 0.000452325
0.00313015 0.00283717 -0.000134881
0.000452325 -0.000134881 -0.00182966
0.00789084 -0.0040429 -0.000241379
-0.0040429 -0.00480469 0.00021202
-0.000241379 0.00021202 -0.00568548
0.00244896 -0.00373211 -1.06831e-05
-0.00373211 -0.00138124 3.33671e-05
-1.06831e-05 3.33671e-05 0.000629521
0.00292111 -0.00227517 6.67272e-05
-0.00227517 0.000201392 -7.88985e-06
6.67272e-05 -7.88985e-06 -2.51516e-05
0.0198328 -0.0012714 -0.000129156
-0.0012714 0.0024984 0.000107561
-0.000129156 0.000107561 0.00223518
0.00275332 -0.00276595 0.00013587
-0.00276595 -0.00425295 -0.000116975
0.00013587 -0.000116975 -0.00147561
0.00109008 -0.00136208 -5.94396e-05
-0.00136208 0.000106795 5.19734e-05
-5.94396e-05 5.19734e-05 -0.000237791
0.000566027 -0.000980105 -2.08284e-05
-0.000980105 -0.000462789 1.63587e-06
-2.08284e-05 1.63587e-06 -0.000731807
0.00571553 -0.00148337 5.21258e-05
-0.00148337 0.00194225 -2.38872e-05
5.21258e-05 -2.38872e-05 0.00162887
0.000697525 -0.00108969 -1.65344e-05
-0.00108969 -0.000363499 1.63087e-05
-1.65344e-05 1.63087e-05 -0.00089128
0.00259722 -0.00131058 -3.19371e-07
-0.00131058 0.000412382 -6.72364e-07
-3.19371e-07 -6.72364e-07 -8.26596e-05
0.0030594 -0.00108256 3.85746e-06
-0.00108256 0.000366949 -1.77561e-06
3.85746e-06 -1.77561e-06 0.000144266
0.00257647 -0.00134422 8.63142e-06
-0.00134422 0.000527498 8.47593e-06
8.63142e-06 8.47593e-06 -0.00011677
0.00264943 -0.00104135 -3.44663e-06
-0.00104135 0.000322167 1.14363e-06
-3.44663e-06 1.14363e-06 -4.64967e-05
0.00243626 -0.000726631 1.26523e-06
-0.000726631 1.19032e-05 -2.43997e-07
1.26523e-06 -2.43997e-07 -7.55589e-05
0.00215489 -0.000933831 8.87358e-06
-0.000933831 0.000231303 6.18871e-06
8.87358e-06 6.18871e-06 -0.000210126
0.00225223 -0.000675573 -5.32531e-09
-0.000675573 6.81588e-05 2.36026e-06
-5.32531e-09 2.36026e-06 -0.000144551
0.00238601 -0.000692627 -6.5829e-07
-0.000692627 9.93716e-05 2.02068e-06
-6.5829e-07 2.02068e-06 -2.21595e-05
0.00231446 -0.000665239 -3.31973e-06
-0.000665239 0.000149981 1.02276e-06
-3.31973e-06 1.02276e-06 -7.78057e-06
0.00229054 -0.000625141 -3.42075e-06
-0.000625141 0.000184269 2.5383e-06
-3.42075e-06 2.5383e-06 -3.52405e-06
0.0022912 -0.000612196 -9.4293e-07
-0.000612196 0.000270419 -2.03973e-06
-9.4293e-07 -2.03973e-06 5.37372e-05
0.00231005 -0.000682731 -6.65197e-06
-0.000682731 0.000281025 -2.91529e-06
-6.65197e-06 -2.91529e-06 -1.34933e-05
0.00215247 -0.000652229 1.06492e-06
-0.000652229 0.000150145 1.45302e-06
1.06492e-06 1.45302e-06 -0.000127312
0.00202522 -0.0006208 1.60362e-06
-0.0006208 5.74179e-06 8.18136e-06
1.60362e-06 8.18136e-06 -0.000246173
0.00221467 -0.000811757 -5.34955e-06
-0.000811757 0.000380496 -5.58282e-06
-5.34955e-06 -5.58282e-06 -4.40929e-05
0.00190499 -0.000815836 -6.3938e-07
-0.000815836 0.000110109 1.63021e-07
-6.3938e-07 1.63021e-07 -0.000307684
0.00242983 -0.00095121 6.51611e-06
-0.00095121 0.000422827 4.33921e-06
6.51611e-06 4.33921e-06 -3.62101e-05
0.00178492 -0.00077064 -6.36301e-06
-0.00077064 0.000383588 -8.0977e-07
-6.36301e-06 -8.0977e-07 -0.000109129
0.0022884 -0.000975548 -4.58555e-07
-0.000975548 0.00061671 6.97444e-07
-4.58555e-07 6.97444e-07 6.3389e-05
0.00239464 -0.00107282 5.02961e-06
-0.00107282 0.000631949 2.36283e-06
5.02961e-06 2.36283e-06 5.42267e-05
0.00125843 -0.000337829 -1.07155e-05
-0.000337829 0.000373962 9.42353e-06
-1.07155e-05 9.42353e-06 9.3622e-05
0.00140764 -0.00061048 1.53312e-06
-0.00061048 0.000349031 1.0914e-06
1.53312e-06 1.0914e-06 -9.20992e-05
0.00198455 -0.000893386 -3.21795e-06
-0.000893386 0.000670045 6.12802e-06
-3.21795e-06 6.12802e-06 0.000109582
0.000320919 -0.000194098 -3.05778e-05
-0.000194098 -0.00017118 1.76591e-05
-3.05778e-05 1.76591e-05 -0.000293998
0.000598427 -0.000239451 -1.68859e-06
-0.000239451 5.07507e-05 -1.06053e-06
-1.68859e-06 -1.06053e-06 -0.000217921
-0.000165793 -0.000343985 1.82721e-06
-0.000343985 -0.000522804 -2.15479e-06
1.82721e-06 -2.15479e-06 -0.000854714
0.00529895 0.000214181 -0.000121225
0.000214181 0.00318836 1.20992e-05
-0.000121225 1.20992e-05 0.00315661
0.000565494 -0.000158556 2.32956e-06
-0.000158556 7.00079e-06 5.3804e-08
2.32956e-06 5.3804e-08 -0.000100116
0.00100885 -0.00028577 4.12014e-06
-0.00028577 0.000346495 -1.11558e-06
4.12014e-06 -1.11558e-06 7.31998e-05
0.00301319 0.000153178 7.34036e-05
0.000153178 0.00170228 1.4736e-06
7.34036e-05 1.4736e-06 0.0016628
0.00076655 -9.63553e-05 1.60571e-05
-9.63553e-05 0.000170067 -1.66451e-05
1.60571e-05 -1.66451e-05 7.29423e-05
0.00417073 0.000136299 0.000102727
0.000136299 0.00242333 -9.64224e-06
0.000102727 -9.64224e-06 0.00241553
0.00219944 0.000500088 -1.98088e-07
0.000500088 0.000957442 4.83571e-06
-1.98088e-07 4.83571e-06 0.000621858
0.000724 0.000252744 -4.71991e-06
0.000252744 0.000109976 6.55679e-07
-4.71991e-06 6.55679e-07 -0.000130936
0.000361397 0.000252216 9.25582e-07
0.000252216 -2.34771e-05 -1.55646e-08
9.25582e-07 -1.55646e-08 -0.000307809
0.000916943 0.000245366 -6.04097e-07
0.000245366 0.000361085 -2.06656e-06
-6.04097e-07 -2.06656e-06 8.46942e-05
0.00117413 0.000159298 -2.51974e-07
0.000159298 0.000588302 6.1572e-08
-2.51974e-07 6.1572e-08 0.000268405
0.00115133 0.000164161 -1.43703e-06
0.000164161 0.000494707 -1.24265e-05
-1.43703e-06 -1.24265e-05 0.000264766
0.000574836 7.48723e-05 -1.1271e-05
7.48723e-05 8.00503e-05 -1.76539e-05
-1.1271e-05 -1.76539e-05 1.10675e-05
0.000617995 0.00012573 -5.20138e-07
0.00012573 0.000149275 2.47267e-07
-5.20138e-07 2.47267e-07 -3.63064e-05
-0.00108267 4.14222e-06 -9.03168e-06
4.14222e-06 -0.000831714 1.56097e-05
-9.03168e-06 1.56097e-05 -0.0011259
0.00332671 -9.87995e-05 -7.65068e-05
-9.87995e-05 0.00187068 -8.37861e-06
-7.65068e-05 -8.37861e-06 0.00187317
0.000283735 3.53241e-05 1.44139e-06
3.53241e-05 -9.7733e-05 -3.61251e-07
1.44139e-06 -3.61251e-07 -0.00015224
0.000626284 9.90138e-05 -3.41481e-06
9.90138e-05 0.000145999 1.03613e-05
-3.41481e-06 1.03613e-05 1.92092e-08
0.00297858 -9.26049e-05 -9.3065e-06
-9.26049e-05 0.00163725 8.53464e-07
-9.3065e-06 8.53464e-07 0.00164003
0.000262173 -9.04245e-06 -8.2881e-07
-9.04245e-06 -0.000115581 1.05094e-05
-8.2881e-07 1.05094e-05 -0.000159666
0.00269027 -7.21072e-05 3.06959e-05
-7.21072e-05 0.00144225 6.12084e-06
3.06959e-05 6.12084e-06 0.00144881
0.00260838 -0.000693688 -0.00159928
-0.000693688 0.00446744 -7.52735e-05
-0.00159928 -7.52735e-05 0.00183532
-0.0043404 -0.000469149 -1.91754e-05
-0.000469149 0.00702809 -3.98111e-05
-1.91754e-05 -3.98111e-05 -0.00175471
0.00673111 0.000625488 -0.000503651
0.000625488 0.00417065 -0.000134513
-0.000503651 -0.000134513 0.00103293
0.000373981 0.000163355 5.05954e-06
0.000163355 -7.43829e-05 3.16602e-06
5.05954e-06 3.16602e-06 -0.0003764
0.000211626 0.000179608 8.94769e-06
0.000179608 -5.36742e-05 3.21399e-06
8.94769e-06 3.21399e-06 -0.000476612
0.0027167 0.00080485 -5.79731e-06
0.00080485 0.00139876 5.72266e-07
-5.79731e-06 5.72266e-07 0.000891869
0.00246078 0.00101453 2.53352e-05
0.00101453 0.0010823 1.46641e-05
2.53352e-05 1.46641e-05 0.000445043
0.00103394 0.000714122 4.45347e-06
0.000714122 0.000592175 1.39403e-05
4.45347e-06 1.39403e-05 4.19113e-05
0.00297744 0.000404524 -3.27652e-06
0.000404524 0.00180666 4.13831e-06
-3.27652e-06 4.13831e-06 0.00150665
0.00232966 0.000374462 1.70393e-05
0.000374462 0.00131032 8.20903e-06
1.70393e-05 8.20903e-06 0.000961155
0.00174061 0.000792839 -3.56746e-06
0.000792839 0.000950457 2.55891e-06
-3.56746e-06 2.55891e-06 0.000386005
0.00151308 0.00111355 1.01779e-05
0.00111355 0.000368135 -4.94807e-06
1.01779e-05 -4.94807e-06 -0.000149566
0.00264986 0.00119414 -3.78973e-06
0.00119414 0.0010111 3.47957e-05
-3.78973e-06 3.47957e-05 0.000678097
0.00197887 0.00133781 3.681e-05
0.00133781 0.000297606 6.90232e-06
3.681e-05 6.90232e-06 1.66257e-05
0.00109595 0.000876959 1.29225e-05
0.000876959 0.000310932 2.31537e-06
1.29225e-05 2.31537e-06 -3.4723e-05
0.00165227 0.000703167 2.52184e-06
0.000703167 0.00102811 1.49571e-05
2.52184e-06 1.49571e-05 0.000441443
0.0167343 0.00464369 -0.000153254
0.00464369 0.00130782 5.89765e-05
-0.000153254 5.89765e-05 0.000921613
0.00822982 -0.003771 -0.00085304
-0.003771 0.00563897 -0.000261035
-0.00085304 -0.000261035 0.000918032
0.00382076 -0.00692089 0.00148229
-0.00692089 0.0117738 0.000264452
0.00148229 0.000264452 0.00307256
0.0171802 -0.00380348 0.000670603
-0.00380348 0.00703251 0.000231075
0.000670603 0.000231075 -3.5129e-05
0.0116805 0.00759494 -0.00018535
0.00759494 0.00441932 -6.84119e-05
-0.00018535 -6.84119e-05 5.90564e-05
-0.00223483 0.00077882 -1.14991e-05
0.00077882 0.00121867 -3.35206e-06
-1.14991e-05 -3.35206e-06 0.000234691
0.00180072 0.00295508 -0.000103174
0.00295508 0.000572923 -4.6353e-05
-0.000103174 -4.6353e-05 0.00158669
0.0127667 0.00780835 1.56507e-05
0.00780835 0.000468503 4.6361e-05
1.56507e-05 4.6361e-05 -0.00190843
0.00744501 0.00557064 -0.000181949
0.00557064 -0.000735046 -0.000144343
-0.000181949 -0.000144343 0.000463941
0.00155321 0.00163075 1.36865e-05
0.00163075 7.01332e-05 -1.0959e-05
1.36865e-05 -1.0959e-05 -0.000334575
0.00156388 0.00127095 1.48891e-05
0.00127095 0.000439625 -2.03881e-06
1.48891e-05 -2.03881e-06 3.6063e-05
0.00241198 0.000863466 -4.17673e-05
0.000863466 0.00117795 -1.92192e-05
-4.17673e-05 -1.92192e-05 0.000967066
0.00193317 0.00233509 -8.91988e-05
0.00233509 0.000427102 -4.10426e-05
-8.91988e-05 -4.10426e-05 -0.000784775
0.00181127 0.00271611 0.000116926
0.00271611 -0.000640906 6.14482e-05
0.000116926 6.14482e-05 -0.00140084
0.00545633 -0.00037574 -0.000134941
-0.00037574 -0.0057452 3.15204e-05
-0.000134941 3.15204e-05 -0.00631452
-3.82584e-05 -0.00254249 9.45964e-06
-0.00254249 0.00374823 6.58788e-05
9.45964e-06 6.58788e-05 0.00119378
-0.0144123 -0.000443358 0.000636063
-0.000443358 0.00790052 -8.14149e-06
0.000636063 -8.14149e-06 0.00184262
0.00257387 -0.00349639 -0.000110428
-0.00349639 0.00041469 4.85892e-05
-0.000110428 4.85892e-05 -0.00085343
0.00662041 -0.00509619 1.83308e-05
-0.00509619 -0.00028676 7.56657e-05
1.83308e-05 7.56657e-05 0.00113843
0.00559482 0.000953061 0.00165103
0.000953061 0.00549375 -0.000371802
0.00165103 -0.000371802 0.0026028
0.0153132 -0.00406729 -0.000428415
-0.00406729 1.4187e-05 0.000253389
-0.000428415 0.000253389 0.000465154
0.00211665 -0.00222845 -3.12039e-05
-0.00222845 -0.000199049 9.39253e-06
-3.12039e-05 9.39253e-06 -0.000552092
0.012697 -0.000462368 -0.000315743
-0.000462368 -0.00264959 0.000105833
-0.000315743 0.000105833 -0.00276187
0.00732355 -0.00321822 0.000102932
-0.00321822 -0.00144453 9.9311e-06
0.000102932 9.9311e-06 0.000498493
0.00361918 -0.00180686 6.08855e-05
-0.00180686 -0.000239125 -4.74946e-05
6.08855e-05 -4.74946e-05 -0.000130597
0.00282451 -0.00126889 5.36972e-05
-0.00126889 -0.00342201 -8.54191e-06
5.36972e-05 -8.54191e-06 -0.000812112
-0.00108787 -0.000801398 -1.32979e-05
-0.000801398 -0.00138701 2.54542e-05
-1.32979e-05 2.54542e-05 -0.00152581
0.00134027 -0.00101637 -2.0699e-05
-0.00101637 -0.000504478 4.14878e-06
-2.0699e-05 4.14878e-06 -0.00053055
0.00374191 -0.00101213 4.29842e-05
-0.00101213 0.000552414 -1.60957e-05
4.29842e-05 -1.60957e-05 0.000645638
0.00237428 -0.00128638 -1.41601e-05
-0.00128638 0.000291826 7.74754e-06
-1.41601e-05 7.74754e-06 -0.000194587
0.00272016 -0.00105965 -4.59075e-06
-0.00105965 0.000172805 1.8499e-06
-4.59075e-06 1.8499e-06 -5.13082e-05
0.00277289 -0.000824588 6.98021e-06
-0.000824588 1.27787e-05 -4.37815e-07
6.98021e-06 -4.37815e-07 1.95077e-05
0.00233814 -0.000984857 -6.49373e-06
-0.000984857 0.000165798 7.31192e-06
-6.49373e-06 7.31192e-06 -0.000181869
0.00237206 -0.000722005 4.90488e-08
-0.000722005 -2.95058e-05 1.41827e-06
4.90488e-08 1.41827e-06 -0.000116162
0.00254149 -0.000722652 3.47968e-07
-0.000722652 4.10201e-05 1.07483e-07
3.47968e-07 1.07483e-07 2.28182e-05
0.002193 -0.000658993 1.72025e-06
-0.000658993 3.67497e-05 5.08603e-06
1.72025e-06 5.08603e-06 -0.000162935
0.00234781 -0.000684768 -2.95425e-08
-0.000684768 8.34336e-05 7.67924e-07
-2.95425e-08 7.67924e-07 -3.67824e-05
0.00250478 -0.000711034 -1.32558e-06
-0.000711034 0.000117225 1.05955e-06
-1.32558e-06 1.05955e-06 2.48796e-05
0.00229686 -0.000670813 -4.97502e-06
-0.000670813 0.000130332 8.28575e-07
-4.97502e-06 8.28575e-07 -1.97996e-05
0.00229044 -0.000636149 -1.09415e-06
-0.000636149 0.00018367 8.70695e-08
-1.09415e-06 8.70695e-08 1.5049e-05
0.0023262 -0.000629246 1.4098e-07
-0.000629246 0.000198427 3.64838e-06
1.4098e-07 3.64838e-06 1.59401e-05
0.00231576 -0.000610803 9.15796e-07
-0.000610803 0.000285756 -4.93535e-07
9.15796e-07 -4.93535e-07 6.89593e-05
0.00221337 -0.000620609 -2.92817e-06
-0.000620609 0.000241921 -1.11874e-06
-2.92817e-06 -1.11874e-06 3.10458e-06
0.00233026 -0.000677867 -2.96818e-06
-0.000677867 0.000365939 -5.9754e-06
-2.96818e-06 -5.9754e-06 5.16922e-05
0.00236435 -0.000691188 -5.93432e-07
-0.000691188 0.000318009 1.92874e-07
-5.93432e-07 1.92874e-07 2.06069e-05
0.00238991 -0.000668052 7.48358e-06
-0.000668052 0.000311899 4.72893e-06
7.48358e-06 4.72893e-06 3.41814e-05
0.00191561 -0.000735363 -7.47102e-06
-0.000735363 0.00028723 -2.25306e-06
-7.47102e-06 -2.25306e-06 -0.000150099
0.0021457 -0.000810412 -1.69237e-06
-0.000810412 0.000327416 -9.75685e-07
-1.69237e-06 -9.75685e-07 -0.000101976
0.00185159 -0.000821997 4.09761e-06
-0.000821997 5.8203e-05 4.24951e-06
4.09761e-06 4.24951e-06 -0.000364395
0.00120003 -0.000404021 -1.69678e-05
-0.000404021 0.000198246 9.51118e-06
-1.69678e-05 9.51118e-06 -0.000120345
0.00186685 -0.000773839 3.65299e-07
-0.000773839 0.000446804 1.28281e-06
3.65299e-07 1.28281e-06 -4.4268e-05
0.00240684 -0.00098898 -1.67311e-07
-0.00098898 0.00068582 5.75118e-06
-1.67311e-07 5.75118e-06 0.00012991
0.000227922 -0.000221692 -1.7359e-05
-0.000221692 -0.000226782 2.41435e-05
-1.7359e-05 2.41435e-05 -0.000388138
0.000713911 -0.000319782 2.23778e-06
-0.000319782 3.07291e-05 -5.56857e-08
2.23778e-06 -5.56857e-08 -0.000256655
0.000997172 -0.000567832 5.55475e-06
-0.000567832 8.47377e-05 3.88321e-07
5.55475e-06 3.88321e-07 -0.000344982
0.00648062 0.000109606 -0.000216978
0.000109606 0.00390935 1.53955e-05
-0.000216978 1.53955e-05 0.00390472
0.000445166 -0.000217936 -9.18249e-06
-0.000217936 -8.84725e-05 -1.30692e-06
-9.18249e-06 -1.30692e-06 -0.000217927
0.000389311 -0.000265833 4.44249e-06
-0.000265833 -6.14488e-05 -4.92851e-06
4.44249e-06 -4.92851e-06 -0.000347815
0.00577425 0.000160528 1.09584e-05
0.000160528 0.00348347 -2.08218e-06
1.09584e-05 -2.08218e-06 0.00346591
0.000552985 -0.000188623 3.19298e-05
-0.000188623 -1.75077e-06 -1.61753e-05
3.19298e-05 -1.61753e-05 -0.000114826
0.00509903 0.000139978 0.000163943
0.000139978 0.00303976 -1.46093e-05
0.000163943 -1.46093e-05 0.00302955
0.00307289 0.00096339 3.25133e-06
0.00096339 0.00145676 8.60359e-06
3.25133e-06 8.60359e-06 0.000870103
0.0011933 0.000462871 -2.80818e-06
0.000462871 0.00033129 5.43292e-07
-2.80818e-06 5.43292e-07 -2.13557e-05
0.000981019 0.000283965 8.76159e-06
0.000283965 0.000253171 -2.15751e-06
8.76159e-06 -2.15751e-06 -7.29812e-06
-0.00102511 9.86377e-05 -1.51207e-06
9.86377e-05 -0.00098203 -8.03597e-06
-1.51207e-06 -8.03597e-06 -0.00121349
0.000116503 0.000246993 4.29441e-06
0.000246993 -0.000222867 -1.24861e-07
4.29441e-06 -1.24861e-07 -0.000469382
0.000528823 0.000311599 -7.71102e-06
0.000311599 2.95482e-05 -6.98565e-06
-7.71102e-06 -6.98565e-06 -0.000201615
-0.000247239 8.18555e-05 -4.87808e-06
8.18555e-05 -0.000316016 3.31027e-06
-4.87808e-06 3.31027e-06 -0.000638833
0.000736477 0.000172049 1.10581e-06
0.000172049 0.000238244 6.47825e-07
1.10581e-06 6.47825e-07 2.71308e-06
0.000757318 0.000111301 -1.80767e-05
0.000111301 0.00018683 -2.00038e-05
-1.80767e-05 -2.00038e-05 9.54008e-05
0.00380743 -0.000113151 -0.000102808
-0.000113151 0.00219471 -1.20789e-05
-0.000102808 -1.20789e-05 0.00219299
0.000445245 4.4284e-05 2.98317e-06
4.4284e-05 8.36071e-06 -3.88193e-07
2.98317e-06 -3.88193e-07 -6.15965e-05
0.000149165 6.57377e-05 -3.59319e-06
6.57377e-05 -0.000131185 1.2905e-05
-3.59319e-06 1.2905e-05 -0.000321474
0.00325872 -0.000116447 -1.19739e-05
-0.000116447 0.00182924 1.19816e-06
-1.19739e-05 1.19816e-06 0.00182651
0.00029793 -6.94855e-05 -1.09645e-05
-6.94855e-05 -7.49439e-05 1.4562e-05
-1.09645e-05 1.4562e-05 -0.00013666
0.00289638 -9.30154e-05 3.93786e-05
-9.30154e-05 0.00158456 6.43048e-06
3.93786e-05 6.43048e-06 0.00158667
0.0161815 0.00089396 0.000693654
0.00089396 0.000844142 0.00015884
0.000693654 0.00015884 0.00136497
0.00161791 -0.00488284 -0.000940098
-0.00488284 -0.000936445 -8.84268e-05
-0.000940098 -8.84268e-05 -0.00565157
-0.00807066 0.00162234 -0.00028832
0.00162234 0.00667003 -0.000118342
-0.00028832 -0.000118342 -0.00177584
-0.000182305 8.69503e-05 1.33558e-05
8.69503e-05 -0.000296741 -3.05408e-05
1.33558e-05 -3.05408e-05 -0.000756484
0.000670554 0.000557415 -6.47768e-06
0.000557415 0.000133006 -6.38894e-06
-6.47768e-06 -6.38894e-06 -0.00034318
0.00246855 0.000851315 -1.27129e-05
0.000851315 0.00136628 -5.46069e-06
-1.27129e-05 -5.46069e-06 0.000783381
0.00119352 0.000840689 4.44218e-07
0.000840689 0.00031422 -5.58475e-07
4.44218e-07 -5.58475e-07 -0.000279497
0.00184779 0.000951633 2.05662e-05
0.000951633 0.000426629 2.44743e-05
2.05662e-05 2.44743e-05 -0.000121603
-0.000362439 0.000772408 3.5124e-05
0.000772408 -0.000691514 1.13875e-05
3.5124e-05 1.13875e-05 -0.00116835
0.00190936 0.000721496 -1.1859e-05
0.000721496 0.00107669 1.98409e-06
-1.1859e-05 1.98409e-06 0.000535565
0.000712207 0.000984314 8.82673e-06
0.000984314 -0.00011501 4.30672e-06
8.82673e-06 4.30672e-06 -0.000597235
0.00209955 0.00109174 2.67568e-05
0.00109174 0.000750545 3.41967e-06
2.67568e-05 3.41967e-06 0.000366164
0.00154366 0.00100703 8.9189e-06
0.00100703 0.000263884 4.25377e-07
8.9189e-06 4.25377e-07 -0.000178436
0.00221162 0.00121963 9.13734e-06
0.00121963 0.000424288 5.83883e-06
9.13734e-06 5.83883e-06 0.000184035
0.00248791 0.00139255 2.39562e-05
0.00139255 0.000592326 1.06043e-05
2.39562e-05 1.06043e-05 0.000105821
0.00121788 0.00123223 1.16235e-05
0.00123223 -0.000108999 -2.0293e-06
1.16235e-05 -2.0293e-06 -0.000336666
0.00234701 0.000933366 -2.97048e-05
0.000933366 0.00103297 -8.4988e-05
-2.97048e-05 -8.4988e-05 0.000673472
0.00391942 0.00268511 3.31176e-05
0.00268511 -0.00369546 5.34986e-05
3.31176e-05 5.34986e-05 -0.000679295
0.013475 0.00540584 0.000398981
0.00540584 -0.001418 0.000235543
0.000398981 0.000235543 -0.00213884
0.0164982 -0.00719856 0.00102466
-0.00719856 0.00820682 -0.000125585
0.00102466 -0.000125585 0.00191061
0.00652477 0.00872147 0.000954183
0.00872147 -0.00174633 0.000447701
0.000954183 0.000447701 -0.00512418
-0.000926371 0.0020062 -3.77284e-05
0.0020062 3.20238e-05 2.61582e-05
-3.77284e-05 2.61582e-05 0.000667799
0.00354585 0.00339981 -9.2876e-05
0.00339981 -0.00132507 -6.39786e-05
-9.2876e-05 -6.39786e-05 0.000448016
0.00700054 0.00307955 5.21876e-05
0.00307955 0.00102731 3.2101e-05
5.21876e-05 3.2101e-05 0.000842933
0.00586101 0.00237003 2.48393e-05
0.00237003 0.00202015 1.22795e-05
2.48393e-05 1.22795e-05 0.00142531
0.000822058 0.00112568 -4.1428e-05
0.00112568 2.30173e-05 5.22408e-06
-4.1428e-05 5.22408e-06 -0.00031229
0.00931956 0.00380565 -0.000217742
0.00380565 0.00285997 -8.56121e-06
-0.000217742 -8.56121e-06 0.00173072
0.00508017 -0.00101763 -6.47121e-06
-0.00101763 -0.00162437 3.36604e-05
-6.47121e-06 3.36604e-05 0.000301522
0.0121446 -0.000610504 -6.84198e-05
-0.000610504 -0.0006217 -4.5813e-05
-6.84198e-05 -4.5813e-05 0.000281646
-0.012645 -0.00428505 0.00127493
-0.00428505 -0.00332481 -1.92442e-05
0.00127493 -1.92442e-05 -0.00687847
0.00154519 -0.00198812 -0.000146779
-0.00198812 -0.000366515 4.53696e-05
-0.000146779 4.53696e-05 -0.000609024
0.0081665 -0.00381113 -7.50527e-05
-0.00381113 -0.00177033 0.000122246
-7.50527e-05 0.000122246 0.000421961
0.00232326 -0.000457151 -0.000444377
-0.000457151 -0.00735673 1.92209e-05
-0.000444377 1.92209e-05 -0.0075814
0.00359099 -0.00163692 4.41657e-05
-0.00163692 -0.000244618 3.26537e-08
4.41657e-05 3.26537e-08 0.000173349
0.00519551 -0.00129887 -8.13645e-05
-0.00129887 -0.00182171 -2.1549e-06
-8.13645e-05 -2.1549e-06 0.000141916
0.00728857 -0.00131732 6.97345e-05
-0.00131732 0.00173232 -4.52827e-05
6.97345e-05 -4.52827e-05 0.00227131
0.00637533 -0.000807266 0.000139809
-0.000807266 0.000753732 3.28265e-06
0.000139809 3.28265e-06 0.00166691
-0.00164089 -0.000714565 1.01776e-05
-0.000714565 -0.00227013 1.29408e-05
1.01776e-05 1.29408e-05 -0.00200742
0.00224984 -0.000873892 -9.03567e-06
-0.000873892 -0.000322192 3.49867e-06
-9.03567e-06 3.49867e-06 -8.80993e-05
0.002509 -0.000651395 2.71349e-05
-0.000651395 -0.000375467 -8.02134e-06
2.71349e-05 -8.02134e-06 -1.11323e-05
0.00231808 -0.00103284 -5.57823e-06
-0.00103284 -5.19416e-05 2.73648e-06
-5.57823e-06 2.73648e-06 -0.000278327
0.00270902 -0.000816519 9.61895e-07
-0.000816519 -1.69125e-05 1.45589e-06
9.61895e-07 1.45589e-06 -7.77967e-06
0.00270399 -0.000702832 8.25249e-07
-0.000702832 -7.37921e-06 -6.50708e-07
8.25249e-07 -6.50708e-07 2.05271e-05
0.00231411 -0.000721338 8.91088e-07
-0.000721338 -7.01667e-05 3.49827e-06
8.91088e-07 3.49827e-06 -0.000158832
0.00250707 -0.000719003 1.41025e-07
-0.000719003 3.37948e-05 4.36517e-07
1.41025e-07 4.36517e-07 6.05355e-06
0.00246984 -0.000618991 -1.40816e-06
-0.000618991 7.43767e-06 -5.84926e-07
-1.40816e-06 -5.84926e-07 -2.57769e-05
0.00231283 -0.000679367 9.80021e-07
-0.000679367 6.61667e-05 4.59582e-07
9.80021e-07 4.59582e-07 -5.3848e-05
0.00250116 -0.00070831 -1.33989e-07
-0.00070831 0.000143381 -1.08326e-07
-1.33989e-07 -1.08326e-07 4.47137e-05
0.00238217 -0.00061561 8.71808e-07
-0.00061561 0.000120009 1.94157e-07
8.71808e-07 1.94157e-07 1.83952e-05
0.00227572 -0.000676492 -2.81468e-06
-0.000676492 0.000106791 -5.85734e-08
-2.81468e-06 -5.85734e-08 -3.59167e-05
0.00224001 -0.000633209 -1.58888e-06
-0.000633209 0.000147884 2.82304e-08
-1.58888e-06 2.82304e-08 -1.71411e-05
0.00235918 -0.000610277 -2.49374e-06
-0.000610277 0.000284227 6.4887e-07
-2.49374e-06 6.4887e-07 8.54721e-05
0.00233516 -0.000607502 3.27576e-06
-0.000607502 0.000297643 1.27915e-06
3.27576e-06 1.27915e-06 8.14713e-05
0.00223948 -0.000618562 -2.2412e-07
-0.000618562 0.000254884 1.12752e-07
-2.2412e-07 1.12752e-07 1.73601e-05
0.00228059 -0.000620781 -8.76204e-07
-0.000620781 0.000307948 -2.24749e-06
-8.76204e-07 -2.24749e-06 4.50377e-05
0.00203052 -0.000618917 -5.66435e-06
-0.000618917 0.000278735 -3.27105e-06
-5.66435e-06 -3.27105e-06 -6.11343e-05
0.00222061 -0.000675207 -4.02302e-07
-0.000675207 0.000291752 -1.68097e-06
-4.02302e-07 -1.68097e-06 -2.98073e-05
0.00241699 -0.000700205 4.71501e-06
-0.000700205 0.000354425 3.63225e-06
4.71501e-06 3.63225e-06 5.38522e-05
0.00124973 -0.00046202 -2.26397e-05
-0.00046202 9.00896e-05 7.36419e-06
-2.26397e-05 7.36419e-06 -0.00024394
0.00205466 -0.000741994 -1.34161e-06
-0.000741994 0.000388241 4.513e-07
-1.34161e-06 4.513e-07 -4.82021e-05
0.0020904 -0.000810736 3.01417e-07
-0.000810736 0.000282727 4.12363e-06
3.01417e-07 4.12363e-06 -0.000151903
0.000375453 -0.000247262 -2.05166e-05
-0.000247262 -0.000172093 2.47922e-05
-2.05166e-05 2.47922e-05 -0.000342427
0.000862846 -0.000390439 4.4208e-06
-0.000390439 -1.52382e-05 4.99647e-07
4.4208e-06 4.99647e-07 -0.000337473
0.00196033 -0.000778771 7.29126e-06
-0.000778771 0.000516378 2.60328e-06
7.29126e-06 2.60328e-06 2.63843e-05
0.00744959 1.39142e-05 -0.000292991
1.39142e-05 0.00449611 2.32317e-05
-0.000292991 2.32317e-05 0.00450541
0.000292613 -0.000242242 -9.2666e-07
-0.000242242 -0.000187784 1.05672e-08
-9.2666e-07 1.05672e-08 -0.000351562
0.000276839 -0.000306275 7.46794e-06
-0.000306275 -0.000247568 -6.76993e-06
7.46794e-06 -6.76993e-06 -0.000541315
0.00678268 7.35406e-05 -1.11318e-05
7.35406e-05 0.00410719 -2.40829e-06
-1.11318e-05 -2.40829e-06 0.00410276
0.000531444 -0.000231277 2.41541e-05
-0.000231277 -3.35919e-05 -2.10118e-05
2.41541e-05 -2.10118e-05 -0.000166062
0.00616194 0.00014539 0.000209826
0.00014539 0.00375185 -2.84633e-05
0.000209826 -2.84633e-05 0.00372879
0.00211321 0.000891976 -8.80753e-06
0.000891976 0.000623429 1.09203e-05
-8.80753e-06 1.09203e-05 8.85001e-05
0.00204985 0.000827452 -1.46637e-06
0.000827452 0.000784449 -4.71421e-07
-1.46637e-06 -4.71421e-07 0.000241644
0.00123188 0.000551882 -4.3945e-06
0.000551882 0.000323485 4.51982e-06
-4.3945e-06 4.51982e-06 -9.29549e-05
0.000591287 0.000449361 1.45382e-06
0.000449361 -2.27615e-05 -3.63315e-06
1.45382e-06 -3.63315e-06 -0.000392409
0.000758786 0.000273971 -2.38878e-06
0.000273971 0.00011157 -2.56953e-06
-2.38878e-06 -2.56953e-06 -0.000157542
0.000232731 0.000219901 -4.3867e-06
0.000219901 -0.000185926 -2.75415e-06
-4.3867e-06 -2.75415e-06 -0.000449802
0.00113127 0.00016508 -2.6312e-07
0.00016508 0.000416898 -1.54088e-06
-2.6312e-07 -1.54088e-06 0.000185704
0.000850799 0.000187646 2.05562e-06
0.000187646 0.000279017 -1.19691e-06
2.05562e-06 -1.19691e-06 1.88321e-05
0.00059665 0.000156703 -2.69497e-05
0.000156703 4.82034e-05 -2.04401e-05
-2.69497e-05 -2.04401e-05 -6.05454e-05
0.000114572 0.000129312 -1.14166e-06
0.000129312 -0.000134158 1.39804e-05
-1.14166e-06 1.39804e-05 -0.000380956
0.000480728 0.000107388 -7.8849e-07
0.000107388 1.63985e-05 -3.76418e-07
-7.8849e-07 -3.76418e-07 -7.17455e-05
0.00456451 -0.00013708 -0.000135476
-0.00013708 0.00270293 -1.73335e-05
-0.000135476 -1.73335e-05 0.00269161
0.00374893 -0.000139478 -1.39604e-05
-0.000139478 0.00216181 1.38393e-06
-1.39604e-05 1.38393e-06 0.00215288
0.000253876 8.542e-05 1.19273e-05
8.542e-05 -0.000113381 1.76254e-05
1.19273e-05 1.76254e-05 -0.000178957
0.00320379 -0.000120192 4.72176e-05
-0.000120192 0.0017944 7.12956e-06
4.72176e-05 7.12956e-06 0.00179022
0.00234601 0.00045052 0.000119972
0.00045052 -0.00250487 3.30663e-05
0.000119972 3.30663e-05 -0.000245264
0.00580069 -0.000610281 0.00026556
-0.000610281 -0.00596518 0.000149356
0.00026556 0.000149356 -0.00655826
0.0163886 -0.00547288 -0.000328337
-0.00547288 0.00849467 -0.000133904
-0.000328337 -0.000133904 0.00375463
0.00180258 0.000842733 1.04117e-05
0.000842733 0.000168637 1.22138e-05
1.04117e-05 1.22138e-05 -0.000263482
0.00507855 0.0011188 -1.56836e-05
0.0011188 0.00280465 -1.19021e-05
-1.56836e-05 -1.19021e-05 0.00220927
0.000204952 0.000700044 -1.12688e-05
0.000700044 -0.000280874 -1.51891e-05
-1.12688e-05 -1.51891e-05 -0.00083722
0.0018126 0.00105526 4.43871e-07
0.00105526 0.000616559 -3.18047e-07
4.43871e-07 -3.18047e-07 6.21032e-05
0.00206666 0.000979578 -2.64162e-07
0.000979578 0.000585901 4.83115e-06
-2.64162e-07 4.83115e-06 2.48949e-05
0.00225634 0.00109332 3.00026e-05
0.00109332 0.000619843 1.82856e-05
3.00026e-05 1.82856e-05 0.000112442
0.00206935 0.00112512 -3.83218e-05
0.00112512 0.000706822 -1.00711e-06
-3.83218e-05 -1.00711e-06 0.000164692
0.00127 0.00093974 3.85154e-06
0.00093974 0.000333775 -3.47252e-05
3.85154e-06 -3.47252e-05 -5.07548e-05
0.00205785 0.00118087 7.05926e-07
0.00118087 0.00049995 -1.23126e-06
7.05926e-07 -1.23126e-06 3.61848e-05
0.00144401 0.0011319 1.56111e-05
0.0011319 -2.16921e-05 -3.18595e-05
1.56111e-05 -3.18595e-05 -0.000171736
0.0021399 0.00114536 2.62733e-05
0.00114536 0.000319795 -2.66792e-06
2.62733e-05 -2.66792e-06 -0.000163502
0.00225097 0.00100446 3.58451e-05
0.00100446 0.000354376 3.73704e-05
3.58451e-05 3.73704e-05 0.000144556
0.0011299 0.00117471 -1.03609e-05
0.00117471 -0.000124335 -8.64682e-06
-1.03609e-05 -8.64682e-06 -0.000507409
0.00146264 0.00121338 -3.77305e-05
0.00121338 8.40087e-05 -1.32756e-05
-3.77305e-05 -1.32756e-05 -0.00014587
0.00264014 0.00127478 4.72566e-05
0.00127478 -0.00122762 4.23562e-05
4.72566e-05 4.23562e-05 -0.000272049
0.00630403 0.00293288 -0.000116966
0.00293288 -0.00247279 -4.35351e-05
-0.000116966 -4.35351e-05 0.000360007
0.00472519 0.00389116 0.00080707
0.00389116 -0.00705537 0.000232666
0.00080707 0.000232666 -0.00755309
0.0035259 0.00303851 -0.000294114
0.00303851 -0.000204038 -0.00013101
-0.000294114 -0.00013101 0.00103858
0.00562259 0.00255018 -3.32543e-05
0.00255018 0.000814081 -9.63838e-06
-3.32543e-05 -9.63838e-06 0.0007614
0.00709088 0.00260509 -0.000208886
0.00260509 0.0024979 -5.60866e-05
-0.000208886 -5.60866e-05 0.00184803
0.00332744 -0.000240428 -4.89693e-05
-0.000240428 -0.000860057 -2.42331e-05
-4.89693e-05 -2.42331e-05 -0.00018681
-0.0001741 -0.000669765 0.000137073
-0.000669765 -0.00233223 3.51274e-05
0.000137073 3.51274e-05 -0.000391672
0.00682081 0.00029951 0.000314641
0.00029951 -0.00606847 -1.12914e-05
0.000314641 -1.12914e-05 -0.00627553
0.00165872 -0.00132907 -7.60946e-05
-0.00132907 -0.00117069 9.36329e-05
-7.60946e-05 9.36329e-05 -0.000543805
0.00668247 -0.00136889 -0.000220773
-0.00136889 -0.00117109 6.02948e-05
-0.000220773 6.02948e-05 0.000350942
0.00329141 -0.00101221 -3.09024e-05
-0.00101221 -0.000617951 1.21007e-05
-3.09024e-05 1.21007e-05 0.000144694
0.00461037 -0.000737158 -2.50105e-05
-0.000737158 -7.95042e-05 6.49667e-08
-2.50105e-05 6.49667e-08 0.000654208
0.0046204 -0.000540866 9.86144e-05
-0.000540866 0.000851204 -1.72814e-05
9.86144e-05 -1.72814e-05 0.00121676
0.00278673 -0.000112972 4.60107e-05
-0.000112972 7.71424e-05 1.16542e-06
4.60107e-05 1.16542e-06 0.000244727
0.000607849 -0.000693495 -1.99153e-05
-0.000693495 -0.00121659 1.19854e-05
-1.99153e-05 1.19854e-05 -0.00085286
0.00255002 -0.000682227 -3.07545e-06
-0.000682227 -0.000330959 6.68548e-07
-3.07545e-06 6.68548e-07 -1.45516e-05
0.00264888 -0.000523246 3.25018e-06
-0.000523246 -0.000259669 -1.25179e-06
3.25018e-06 -1.25179e-06 1.33164e-05
0.00263032 -0.000802732 -3.8563e-06
-0.000802732 -4.86706e-05 2.56148e-06
-3.8563e-06 2.56148e-06 -3.51364e-05
0.00269582 -0.000678483 -1.46867e-07
-0.000678483 1.96614e-05 -5.40796e-07
-1.46867e-07 -5.40796e-07 5.93385e-05
0.00250719 -0.000511452 -1.44053e-06
-0.000511452 -9.15969e-05 -5.75499e-07
-1.44053e-06 -5.75499e-07 -2.54786e-05
0.00247242 -0.000713179 -1.19134e-06
-0.000713179 2.93702e-05 4.23414e-07
-1.19134e-06 4.23414e-07 -6.69244e-06
0.00246931 -0.000621917 -6.44988e-07
-0.000621917 2.11476e-05 1.48287e-10
-6.44988e-07 1.48287e-10 -9.49993e-06
0.00236427 -0.000516694 -7.37358e-08
-0.000516694 4.12314e-05 -3.11995e-07
-7.37358e-08 -3.11995e-07 -4.99196e-06
0.00249768 -0.000704414 -5.43252e-07
-0.000704414 0.000170752 -7.85959e-07
-5.43252e-07 -7.85959e-07 6.60688e-05
0.0023799 -0.000616683 1.04142e-06
-0.000616683 0.00011634 -8.64388e-08
1.04142e-06 -8.64388e-08 1.43756e-05
0.00228364 -0.000550675 -1.23386e-06
-0.000550675 0.000146517 5.2641e-07
-1.23386e-06 5.2641e-07 1.37465e-05
0.00219339 -0.000630881 -1.81881e-06
-0.000630881 0.000114996 2.61208e-07
-1.81881e-06 2.61208e-07 -4.64462e-05
0.0022748 -0.000604604 -1.20102e-06
-0.000604604 0.000221953 5.5032e-07
-1.20102e-06 5.5032e-07 2.59441e-05
0.00236469 -0.000591512 -1.47398e-06
-0.000591512 0.000314542 -1.61235e-06
-1.47398e-06 -1.61235e-06 9.37674e-05
0.00226841 -0.000617013 2.85608e-06
-0.000617013 0.000269401 1.99243e-06
2.85608e-06 1.99243e-06 3.28868e-05
0.00226455 -0.000620526 -2.1597e-07
-0.000620526 0.000296268 7.82985e-08
-2.1597e-07 7.82985e-08 3.58605e-05
0.00215554 -0.000562234 -4.38621e-06
-0.000562234 0.000322994 -1.32183e-06
-4.38621e-06 -1.32183e-06 3.35027e-05
0.00132435 -0.000426804 -1.99078e-05
-0.000426804 4.58054e-05 7.06928e-06
-1.99078e-05 7.06928e-06 -0.000252698
0.00200865 -0.000617353 -4.48352e-07
-0.000617353 0.00026878 -1.2299e-06
-4.48352e-07 -1.2299e-06 -7.57796e-05
0.00211365 -0.000673027 1.35673e-06
-0.000673027 0.000218955 2.6857e-06
1.35673e-06 2.6857e-06 -0.000110056
0.000170316 -0.000256332 -2.17015e-05
-0.000256332 -0.000312266 2.13288e-05
-2.17015e-05 2.13288e-05 -0.000491404
0.00125116 -0.000458176 1.24529e-06
-0.000458176 9.77511e-05 -9.59066e-08
1.24529e-06 -9.59066e-08 -0.000234545
0.00219482 -0.000749453 5.34157e-06
-0.000749453 0.000488867 2.8223e-06
5.34157e-06 2.8223e-06 5.30098e-05
0.00827777 -3.59616e-05 -0.000341689
-3.59616e-05 0.00499289 2.98964e-05
-0.000341689 2.98964e-05 0.00500722
0.000198031 -0.000281294 1.7854e-07
-0.000281294 -0.000271949 2.22729e-06
1.7854e-07 2.22729e-06 -0.000454442
0.000602519 -0.000385149 1.70768e-05
-0.000385149 -0.000183843 -5.77171e-06
1.70768e-05 -5.77171e-06 -0.000510552
0.00777373 -3.81357e-06 -9.13172e-06
-3.81357e-06 0.00470379 7.2763e-07
-9.13172e-06 7.2763e-07 0.00471174
0.000479657 -0.000285945 2.29945e-05
-0.000285945 -6.84557e-05 -2.61857e-05
2.29945e-05 -2.61857e-05 -0.000238206
0.00706961 6.30949e-05 0.000279392
6.30949e-05 0.00429912 -3.48861e-05
0.000279392 -3.48861e-05 0.00429237
0.00182509 0.000781443 -3.78565e-06
0.000781443 0.000249863 1.07939e-05
-3.78565e-06 1.07939e-05 -0.000189439
0.00202209 0.000879353 -1.83736e-06
0.000879353 0.000563919 1.01685e-06
-1.83736e-06 1.01685e-06 3.19307e-05
0.0016144 0.000683114 -7.91154e-06
0.000683114 0.000358008 6.46875e-06
-7.91154e-06 6.46875e-06 -0.000100127
0.000828468 0.000669048 -4.5755e-06
0.000669048 -1.81668e-05 -6.92236e-06
-4.5755e-06 -6.92236e-06 -0.000512773
0.00157802 0.000551773 -3.67937e-06
0.000551773 0.000493819 -1.91179e-06
-3.67937e-06 -1.91179e-06 8.53538e-05
0.0005943 0.000290135 -1.27631e-05
0.000290135 -1.60168e-05 -2.03661e-06
-1.27631e-05 -2.03661e-06 -0.000298505
0.00108132 0.00026499 -1.20774e-06
0.00026499 0.000271841 -6.86813e-06
-1.20774e-06 -6.86813e-06 6.29672e-06
0.000530393 0.000246822 3.01913e-06
0.000246822 -2.52158e-05 -8.22861e-07
3.01913e-06 -8.22861e-07 -0.000264237
0.000371085 0.000204252 -3.18551e-05
0.000204252 -0.000135234 -2.04906e-05
-3.18551e-05 -2.04906e-05 -0.000248658
0.000819261 0.000186472 2.0252e-06
0.000186472 0.000242252 8.16297e-06
2.0252e-06 8.16297e-06 -9.08403e-06
0.00060355 0.000146961 -8.67487e-07
0.000146961 5.91854e-05 -5.92998e-07
-8.67487e-07 -5.92998e-07 -4.48538e-05
0.00579682 -0.000174156 -0.000182015
-0.000174156 0.0035216 -2.30484e-05
-0.000182015 -2.30484e-05 0.00349626
0.0002404 0.000106055 1.71885e-05
0.000106055 -0.000130389 2.02404e-05
1.71885e-05 2.02404e-05 -0.000215234
0.00433439 -0.000168791 -1.4603e-05
-0.000168791 0.00256294 1.72033e-06
-1.4603e-05 1.72033e-06 0.00254317
0.00359129 -0.000152148 6.02701e-05
-0.000152148 0.00206118 8.71083e-06
6.02701e-05 8.71083e-06 0.00204798
0.000963857 0.000385265 1.19732e-05
0.000385265 -0.00226599 1.34068e-05
1.19732e-05 1.34068e-05 -0.00104153
0.00509481 0.000330349 7.39162e-05
0.000330349 -0.00160986 3.21893e-05
7.39162e-05 3.21893e-05 0.000641519
0.0169917 0.000869064 3.24914e-05
0.000869064 0.00113468 9.30456e-05
3.24914e-05 9.30456e-05 0.0019762
0.00231438 0.000977495 3.61262e-06
0.000977495 0.000420525 7.12288e-06
3.61262e-06 7.12288e-06 -1.31276e-05
0.00233374 0.000884634 1.28078e-06
0.000884634 0.0002833 6.50476e-06
1.28078e-06 6.50476e-06 -8.17599e-05
0.00179002 0.000843974 -6.98581e-07
0.000843974 0.000168358 -4.67046e-06
-6.98581e-07 -4.67046e-06 -0.000259687
0.00344651 0.00126815 -1.86748e-05
0.00126815 0.00158842 -2.05683e-06
-1.86748e-05 -2.05683e-06 0.000980512
0.00225179 0.000999925 -1.28794e-05
0.000999925 0.000726164 -1.33941e-05
-1.28794e-05 -1.33941e-05 0.000154883
0.00228361 0.00113401 6.82262e-06
0.00113401 0.000584833 3.07478e-06
6.82262e-06 3.07478e-06 7.55776e-05
0.00250564 0.00110275 -4.68257e-06
0.00110275 0.000276439 -3.99252e-07
-4.68257e-06 -3.99252e-07 -0.000109629
0.00200011 0.00124109 -1.23627e-05
0.00124109 0.000391128 -2.79707e-06
-1.23627e-05 -2.79707e-06 -7.62304e-05
0.000743331 0.00107827 -3.36011e-05
0.00107827 -0.000432277 8.82892e-05
-3.36011e-05 8.82892e-05 -0.000543182
0.00298545 0.00127008 6.78081e-07
0.00127008 0.000780057 -3.66116e-06
6.78081e-07 -3.66116e-06 0.000269191
0.0030669 0.00107168 -2.31161e-06
0.00107168 0.000462304 1.29013e-05
-2.31161e-06 1.29013e-05 0.000223787
0.00194585 0.000511809 5.97344e-05
0.000511809 -4.32326e-05 1.11856e-05
5.97344e-05 1.11856e-05 0.000123258
0.000397888 0.000809971 6.94815e-06
0.000809971 -0.000611702 -9.94627e-06
6.94815e-06 -9.94627e-06 -0.000796431
0.000721899 0.00110238 -4.46163e-05
0.00110238 -0.000331971 -6.67334e-06
-4.46163e-05 -6.67334e-06 -0.000694802
0.00388623 0.00141277 2.65778e-05
0.00141277 -0.000523353 1.3181e-05
2.65778e-05 1.3181e-05 0.000287544
0.00961672 0.00288981 -7.66379e-05
0.00288981 -0.00067188 -5.60016e-05
-7.66379e-05 -5.60016e-05 0.00152468
0.00553869 0.00216158 -7.59751e-05
0.00216158 0.00127773 -8.8633e-05
-7.59751e-05 -8.8633e-05 0.00131407
0.0031556 -6.57435e-05 6.68401e-05
-6.57435e-05 0.000254581 8.126e-06
6.68401e-05 8.126e-06 0.000553676
0.00353477 -0.000263173 -9.54798e-05
-0.000263173 -0.000808291 8.66669e-06
-9.54798e-05 8.66669e-06 6.45327e-05
0.00552633 0.000540582 -5.51455e-06
0.000540582 -0.000129742 -1.78209e-05
-5.51455e-06 -1.78209e-05 0.00125162
0.000753751 -0.000865632 -9.32496e-05
-0.000865632 -0.00212993 7.01693e-05
-9.32496e-05 7.01693e-05 -0.0012412
0.00292212 -0.000740308 -0.000107767
-0.000740308 -0.000876366 7.77622e-06
-0.000107767 7.77622e-06 -0.000305666
0.00320926 -0.000487186 8.43327e-07
-0.000487186 -5.02994e-05 -4.46356e-06
8.43327e-07 -4.46356e-06 0.000466106
0.00241552 -0.000107983 -1.44848e-05
-0.000107983 -0.000169504 -1.1548e-06
-1.44848e-05 -1.1548e-06 3.06195e-05
0.00261244 -0.000303835 9.22738e-06
-0.000303835 -0.000261192 2.54884e-07
9.22738e-06 2.54884e-07 1.40433e-05
0.00235628 7.29593e-05 3.96614e-06
7.29593e-05 -0.000406075 1.65766e-07
3.96614e-06 1.65766e-07 -0.000219197
0.00262554 -0.000721019 -2.07702e-05
-0.000721019 -0.000283478 5.78191e-06
-2.07702e-05 5.78191e-06 -8.95304e-06
0.00270513 -0.000550254 -2.86208e-06
-0.000550254 -0.000235004 7.00593e-07
-2.86208e-06 7.00593e-07 -2.29826e-06
0.00257574 -0.000373468 -9.1777e-07
-0.000373468 -0.000166751 -4.42394e-07
-9.1777e-07 -4.42394e-07 4.68725e-06
0.00269115 -0.000655148 -3.53412e-06
-0.000655148 4.41879e-05 8.38857e-07
-3.53412e-06 8.38857e-07 9.66617e-05
0.00252713 -0.000513214 2.95503e-07
-0.000513214 -6.75319e-05 -2.02436e-07
2.95503e-07 -2.02436e-07 -7.9474e-06
0.00239518 -0.00041751 4.76553e-07
-0.00041751 -4.25641e-05 -3.13006e-07
4.76553e-07 -3.13006e-07 -7.50565e-06
0.002469 -0.000625293 -1.06692e-06
-0.000625293 3.38009e-05 2.25877e-07
-1.06692e-06 2.25877e-07 5.63092e-06
0.00237747 -0.0005159 3.76328e-07
-0.0005159 4.41206e-05 -7.60188e-08
3.76328e-07 -7.60188e-08 -2.01208e-06
0.00228337 -0.000460176 -1.55612e-06
-0.000460176 7.50326e-05 4.1805e-07
-1.55612e-06 4.1805e-07 5.07897e-06
0.00237865 -0.000618148 1.77055e-06
-0.000618148 0.000112976 -4.37315e-07
1.77055e-06 -4.37315e-07 1.06064e-05
0.00226662 -0.000550434 6.9374e-07
-0.000550434 0.000129727 -2.7052e-07
6.9374e-07 -2.7052e-07 -3.08746e-06
0.0022598 -0.000520602 -2.50498e-06
-0.000520602 0.000194694 -2.23094e-07
-2.50498e-06 -2.23094e-07 1.83343e-05
0.00219225 -0.000599254 2.16249e-07
-0.000599254 0.000160591 1.87817e-07
2.16249e-07 1.87817e-07 -3.26006e-05
0.00226834 -0.000586409 -2.79797e-08
-0.000586409 0.000250941 -2.31935e-07
-2.79797e-08 -2.31935e-07 3.01583e-05
0.00211332 -0.00052327 -3.591e-06
-0.00052327 0.000235932 -1.0795e-06
-3.591e-06 -1.0795e-06 -1.74053e-05
0.0022498 -0.000620308 9.97276e-07
-0.000620308 0.00028575 3.23164e-06
9.97276e-07 3.23164e-06 2.78445e-05
0.00216866 -0.000566014 -7.01617e-07
-0.000566014 0.000331775 -7.1356e-08
-7.01617e-07 -7.1356e-08 4.34777e-05
0.00135605 -0.000370478 -1.56076e-05
-0.000370478 3.89963e-05 6.44177e-06
-1.56076e-05 6.44177e-06 -0.000221239
0.000318408 -0.000244116 -1.92701e-05
-0.000244116 -0.000249427 2.03379e-05
-1.92701e-05 2.03379e-05 -0.000419466
0.00135398 -0.000426669 6.67582e-08
-0.000426669 6.94471e-05 1.16939e-07
6.67582e-08 1.16939e-07 -0.000227675
0.00198579 -0.000615515 4.19424e-06
-0.000615515 0.000258614 8.14192e-07
4.19424e-06 8.14192e-07 -9.05614e-05
0.00839912 -0.000131485 -0.000389375
-0.000131485 0.00504819 3.56744e-05
-0.000389375 3.56744e-05 0.00507233
0.00031686 -0.000268145 -1.32397e-06
-0.000268145 -0.000229764 1.13417e-06
-1.32397e-06 1.13417e-06 -0.000406774
0.00108469 -0.000441601 2.08004e-05
-0.000441601 6.58477e-06 -6.49709e-06
2.08004e-05 -6.49709e-06 -0.000322544
0.00839389 -7.76793e-05 4.37999e-07
-7.76793e-05 0.00506554 1.48842e-06
4.37999e-07 1.48842e-06 0.00508281
0.000242685 -0.000294725 2.63629e-05
-0.000294725 -0.000247422 -2.42964e-05
2.63629e-05 -2.42964e-05 -0.000431494
0.00817552 -4.99243e-05 0.000354618
-4.99243e-05 0.00495101 -3.73299e-05
0.000354618 -3.73299e-05 0.00496301
0.00207206 0.000807637 1.53899e-06
0.000807637 0.00023912 1.05432e-05
1.53899e-06 1.05432e-05 -0.000145172
0.00192735 0.000799331 1.06958e-06
0.000799331 0.000322775 1.02069e-07
1.06958e-06 1.02069e-07 -0.000117984
0.00207505 0.000735326 -5.1165e-06
0.000735326 0.000484554 7.43449e-06
-5.1165e-06 7.43449e-06 4.90398e-05
0.00189891 0.000858568 5.75878e-06
0.000858568 0.000494132 -8.16307e-06
5.75878e-06 -8.16307e-06 -3.24615e-05
0.00166006 0.000686986 -3.89787e-07
0.000686986 0.000386973 1.15464e-06
-3.89787e-07 1.15464e-06 -7.36212e-05
0.000850695 0.000349916 -2.05134e-05
0.000349916 6.00906e-06 -2.69556e-06
-2.05134e-05 -2.69556e-06 -0.000290104
0.00187747 0.000545351 -2.33994e-07
0.000545351 0.000642067 -3.30452e-06
-2.33994e-07 -3.30452e-06 0.000242347
0.000573821 0.000252835 1.06346e-06
0.000252835 -4.28168e-05 2.83558e-08
1.06346e-06 2.83558e-08 -0.00030833
0.000531936 0.000264703 -3.2739e-05
0.000264703 -4.66759e-05 -2.47455e-05
-3.2739e-05 -2.47455e-05 -0.000187112
0.00108864 0.000181117 2.76857e-06
0.000181117 0.000335309 3.06929e-06
2.76857e-06 3.06929e-06 9.41108e-05
0.00041647 0.000190814 2.67855e-06
0.000190814 -0.000102976 -1.1411e-06
2.67855e-06 -1.1411e-06 -0.000215573
0.00670779 -0.000175609 -0.000222626
-0.000175609 0.00410764 -2.89591e-05
-0.000222626 -2.89591e-05 0.00407691
0.000317476 0.000143313 2.35405e-05
0.000143313 -0.000115043 2.16594e-05
2.35405e-05 2.16594e-05 -0.000216667
0.0052821 -0.000195244 -1.20637e-05
-0.000195244 0.00318991 8.13133e-07
-1.20637e-05 8.13133e-07 0.00316008
0.00421551 -0.000189708 8.45508e-05
-0.000189708 0.00248888 1.22544e-05
8.45508e-05 1.22544e-05 0.002464
0.00176293 0.000305107 4.75944e-05
0.000305107 -0.00041982 1.77146e-05
4.75944e-05 1.77146e-05 -2.55858e-05
0.00222032 0.000457914 -1.60017e-05
0.000457914 -0.00193591 -5.59681e-06
-1.60017e-05 -5.59681e-06 -0.000657811
0.0052148 0.000818515 0.000274108
0.000818515 -0.00178956 9.80825e-05
0.000274108 9.80825e-05 0.00081796
0.00270606 0.000942923 -8.96236e-06
0.000942923 0.000436272 4.109e-07
-8.96236e-06 4.109e-07 9.3761e-05
0.00222114 0.000989375 -8.74853e-06
0.000989375 0.000346731 -5.28354e-06
-8.74853e-06 -5.28354e-06 -8.55586e-05
0.00242753 0.000712711 3.20414e-06
0.000712711 0.000223592 4.71562e-06
3.20414e-06 4.71562e-06 -1.88173e-05
0.0024471 0.000885109 1.46589e-06
0.000885109 0.000357997 4.5376e-07
1.46589e-06 4.5376e-07 -2.20988e-06
0.00178309 0.000844321 -2.5457e-06
0.000844321 0.000173766 -1.5493e-05
-2.5457e-06 -1.5493e-05 -0.000249985
0.00274168 0.00084844 -6.46733e-06
0.00084844 0.000195244 1.22497e-06
-6.46733e-06 1.22497e-06 7.58312e-06
0.00268265 0.00122144 -1.02404e-05
0.00122144 0.000769913 -8.14114e-06
-1.02404e-05 -8.14114e-06 0.0002437
0.00276866 0.00109381 -1.03458e-06
0.00109381 0.00045672 -8.39738e-07
-1.03458e-06 -8.39738e-07 6.9747e-05
0.00230709 0.000524609 -1.64738e-05
0.000524609 -0.00026468 7.28627e-07
-1.64738e-05 7.28627e-07 -0.00015988
0.00303653 0.00132162 -1.22641e-05
0.00132162 0.000742183 1.69814e-05
-1.22641e-05 1.69814e-05 0.0002727
0.00269531 0.00103045 7.62834e-07
0.00103045 0.000255279 -2.09175e-06
7.62834e-07 -2.09175e-06 1.87538e-05
0.000545138 0.000482467 -1.28588e-05
0.000482467 -0.000929693 1.0126e-06
-1.28588e-05 1.0126e-06 -0.000677828
-0.00233774 0.000537808 -2.79435e-05
0.000537808 -0.00206145 -1.52174e-05
-2.79435e-05 -1.52174e-05 -0.00218776
0.00427424 0.00151949 -0.000164016
0.00151949 -0.000309764 -6.05062e-05
-0.000164016 -6.05062e-05 0.000382827
0.0026556 0.000181396 7.19668e-07
0.000181396 -0.000162249 -2.04205e-06
7.19668e-07 -2.04205e-06 3.33101e-05
0.00304199 -4.29947e-05 -1.84088e-06
-4.29947e-05 0.000256424 3.1963e-07
-1.84088e-06 3.1963e-07 0.00047391
0.00330774 -0.000327101 -0.000126419
-0.000327101 -0.000988678 -6.26348e-06
-0.000126419 -6.26348e-06 5.34887e-05
0.00141255 -0.000412207 -8.73202e-05
-0.000412207 -0.00118406 1.70422e-05
-8.73202e-05 1.70422e-05 -0.000512953
0.00213247 -0.000115559 -1.64715e-05
-0.000115559 -0.000350077 -4.49659e-07
-1.64715e-05 -4.49659e-07 -0.000126839
0.00254149 -0.000311222 4.30789e-06
-0.000311222 -0.000323973 -7.29065e-07
4.30789e-06 -7.29065e-07 -1.10888e-05
0.0026706 8.53858e-05 -3.2213e-06
8.53858e-05 -0.000200611 -5.28078e-07
-3.2213e-06 -5.28078e-07 -2.77705e-05
0.00259784 -6.67007e-05 -2.43709e-06
-6.67007e-05 -0.000184368 -6.69633e-07
-2.43709e-06 -6.69633e-07 1.52569e-05
0.00273311 -0.000572177 -3.15133e-06
-0.000572177 -0.000220476 7.39151e-07
-3.15133e-06 7.39151e-07 -2.75832e-05
0.00251671 -0.000358386 3.11396e-07
-0.000358386 -0.000183918 -3.48911e-07
3.11396e-07 -3.48911e-07 -2.3482e-05
0.00243257 -0.000269268 9.45778e-07
-0.000269268 -7.60213e-05 -2.37215e-07
9.45778e-07 -2.37215e-07 3.35868e-05
0.0025453 -0.000515256 5.60287e-08
-0.000515256 -4.3311e-05 7.02567e-07
5.60287e-08 7.02567e-07 8.96487e-06
0.00239973 -0.000415791 2.36236e-07
-0.000415791 -3.61844e-05 7.10573e-08
2.36236e-07 7.10573e-08 -4.08848e-06
0.00226801 -0.000351569 -1.00952e-06
-0.000351569 1.48337e-05 1.24432e-07
-1.00952e-06 1.24432e-07 1.96111e-06
0.00239136 -0.00051492 8.86733e-07
-0.00051492 4.7453e-05 2.11523e-07
8.86733e-07 2.11523e-07 1.40586e-06
0.00228263 -0.00046129 3.64542e-07
-0.00046129 7.12081e-05 5.0701e-08
3.64542e-07 5.0701e-08 1.08422e-06
0.00230259 -0.000436464 -4.05653e-06
-0.000436464 0.00015955 9.75948e-07
-4.05653e-06 9.75948e-07 4.04741e-05
0.0022504 -0.000550265 2.22978e-06
-0.000550265 0.000113699 -9.48807e-07
2.22978e-06 -9.48807e-07 -1.91844e-05
0.00221351 -0.000516106 2.28801e-07
-0.000516106 0.000163992 -5.81602e-07
2.28801e-07 -5.81602e-07 -1.18931e-05
0.00210413 -0.000459243 -2.40917e-06
-0.000459243 0.000171287 -1.07868e-06
-2.40917e-06 -1.07868e-06 -3.73737e-05
0.00216976 -0.000581134 1.21892e-06
-0.000581134 0.000185438 8.32683e-07
1.21892e-06 8.32683e-07 -3.52913e-05
0.0021376 -0.000524305 -7.08312e-07
-0.000524305 0.000256156 1.18019e-07
-7.08312e-07 1.18019e-07 2.81901e-06
0.00133073 -0.000323524 -1.21007e-05
-0.000323524 -4.19532e-07 5.27985e-06
-1.21007e-05 5.27985e-06 -0.000232148
0.0021744 -0.000568965 3.39409e-06
-0.000568965 0.000335682 1.47731e-06
3.39409e-06 1.47731e-06 4.87877e-05
0.00137859 -0.000372427 7.74091e-08
-0.000372427 4.81335e-05 1.81687e-07
7.74091e-08 1.81687e-07 -0.000211389
0.00294198 -0.000246878 -5.80399e-05
-0.000246878 0.00141877 1.49233e-05
-5.80399e-05 1.49233e-05 0.00128546
0.00272594 -0.000138882 -0.000306497
-0.000138882 0.00140063 4.6824e-05
-0.000306497 4.6824e-05 0.00138295
0.00168565 -0.000265283 -1.73496e-05
-0.000265283 0.000626083 3.0863e-07
-1.73496e-05 3.0863e-07 0.000467604
0.00138337 -0.000426573 1.84792e-05
-0.000426573 9.28423e-05 -6.71225e-06
1.84792e-05 -6.71225e-06 -0.000202931
0.00825013 -0.000134577 -1.07015e-05
-0.000134577 0.0049637 2.71167e-06
-1.07015e-05 2.71167e-06 0.00498125
0.00016049 -0.000288234 2.34661e-05
-0.000288234 -0.000328717 -2.20775e-05
2.34661e-05 -2.20775e-05 -0.000510576
0.0084644 -8.75727e-05 0.000364215
-8.75727e-05 0.00511644 -3.98748e-05
0.000364215 -3.98748e-05 0.00512831
0.00226866 0.000551805 7.03988e-07
0.000551805 0.00013624 1.51412e-06
7.03988e-07 1.51412e-06 -3.52668e-05
0.00227231 0.000715989 3.70778e-06
0.000715989 0.000281281 7.62775e-06
3.70778e-06 7.62775e-06 -1.70419e-05
0.00232642 0.000825668 5.40818e-07
0.000825668 0.00039897 4.72318e-08
5.40818e-07 4.72318e-08 1.68542e-05
0.0021284 0.000707505 -3.02912e-06
0.000707505 0.000404916 7.17859e-06
-3.02912e-06 7.17859e-06 1.94376e-05
0.00200745 0.000819487 6.24615e-06
0.000819487 0.000372847 -9.43737e-06
6.24615e-06 -9.43737e-06 -7.05927e-05
0.00192013 0.000720899 4.6181e-07
0.000720899 0.000378958 6.9152e-07
4.6181e-07 6.9152e-07 -5.49285e-05
0.000939532 0.000416433 -3.16656e-05
0.000416433 -3.08907e-05 -4.20513e-06
-3.16656e-05 -4.20513e-06 -0.000348229
0.0016493 0.000688093 8.44382e-06
0.000688093 0.000372155 -5.2863e-06
8.44382e-06 -5.2863e-06 -9.05505e-05
0.000763236 0.000348059 -1.85294e-06
0.000348059 -3.31856e-05 3.90311e-08
-1.85294e-06 3.90311e-08 -0.000327117
0.000407252 0.000317804 -3.19815e-05
0.000317804 -0.000137629 -2.35625e-05
-3.19815e-05 -2.35625e-05 -0.000311685
0.000558039 0.000229727 1.03146e-05
0.000229727 -5.3793e-05 -1.86123e-06
1.03146e-05 -1.86123e-06 -0.000306854
0.000380132 0.00023367 5.37253e-06
0.00023367 -0.00014241 -1.71611e-06
5.37253e-06 -1.71611e-06 -0.000280703
0.00801802 -5.35792e-05 -0.000314749
-5.35792e-05 0.00488418 -3.50236e-05
-0.000314749 -3.50236e-05 0.00487854
0.000566879 0.000168048 2.87501e-05
0.000168048 1.19302e-06 2.08191e-05
2.87501e-05 2.08191e-05 -0.000110543
0.00647199 -0.000169115 7.77863e-06
-0.000169115 0.00393864 -3.1732e-06
7.77863e-06 -3.1732e-06 0.00391583
0.00488559 -0.000230377 0.000108308
-0.000230377 0.0029515 1.72959e-05
0.000108308 1.72959e-05 0.00290993
0.00252313 0.000245699 -6.6748e-06
0.000245699 -0.000285171 4.07647e-07
-6.6748e-06 4.07647e-07 -4.30952e-05
0.00173681 0.000247255 1.22577e-05
0.000247255 -0.00069969 -3.09465e-06
1.22577e-05 -3.09465e-06 -0.00018599
0.00397572 0.000570934 -0.000151328
0.000570934 -0.00131564 -9.68797e-06
-0.000151328 -9.68797e-06 2.39741e-05
0.00249479 0.000662897 -3.00411e-06
0.000662897 0.000160236 1.25862e-06
-3.00411e-06 1.25862e-06 5.11704e-06
0.0025697 0.000917384 -4.03222e-06
0.000917384 0.000394035 -6.04212e-07
-4.03222e-06 -6.04212e-07 5.97339e-05
0.00216726 0.0010026 -5.41145e-06
0.0010026 0.00029726 -1.01385e-05
-5.41145e-06 -1.01385e-05 -0.000132838
0.00242261 0.000696212 1.6691e-06
0.000696212 0.000238777 1.46214e-06
1.6691e-06 1.46214e-06 -1.21021e-06
0.00250991 0.000881348 -1.49917e-06
0.000881348 0.000399947 -7.66966e-06
-1.49917e-06 -7.66966e-06 4.45326e-05
0.00269042 0.000524586 2.36958e-06
0.000524586 -3.08333e-05 3.69239e-07
2.36958e-06 3.69239e-07 3.74012e-05
0.00265071 0.000842495 -1.61144e-06
0.000842495 0.000157604 1.57003e-07
-1.61144e-06 1.57003e-07 -2.57577e-05
0.00289 0.00107407 -3.19599e-07
0.00107407 0.00055012 -3.90479e-06
-3.19599e-07 -3.90479e-06 0.000164585
0.00222658 0.000493739 1.10569e-07
0.000493739 -0.000262485 1.96534e-07
1.10569e-07 1.96534e-07 -0.00015038
0.00252861 0.000996003 1.38024e-05
0.000996003 0.000159367 -2.75599e-06
1.38024e-05 -2.75599e-06 -7.70171e-05
-0.000358193 0.000440293 -4.48808e-05
0.000440293 -0.0015248 -1.35374e-05
-4.48808e-05 -1.35374e-05 -0.00118236
0.00253551 0.000106435 -4.55412e-07
0.000106435 -0.0001267 -5.22219e-07
-4.55412e-07 -5.22219e-07 3.27341e-05
0.00253714 0.000177108 -5.57433e-07
0.000177108 -0.000249039 9.38214e-07
-5.57433e-07 9.38214e-07 -4.782e-05
0.00301514 -2.4657e-05 -6.18369e-05
-2.4657e-05 0.000293913 -5.68331e-06
-6.18369e-05 -5.68331e-06 0.000444106
0.00242184 -0.000317289 -2.26328e-05
-0.000317289 -0.000426372 1.89229e-06
-2.26328e-05 1.89229e-06 -7.32928e-05
0.00294097 0.000103236 3.61056e-06
0.000103236 -2.90359e-05 3.04968e-06
3.61056e-06 3.04968e-06 0.000130465
0.00260193 -7.54617e-05 -8.93815e-07
-7.54617e-05 -0.000193831 -7.09594e-07
-8.93815e-07 -7.09594e-07 8.95624e-06
0.00228882 -7.77906e-05 4.89878e-07
-7.77906e-05 -9.86419e-05 4.47114e-08
4.89878e-07 4.47114e-08 -3.23319e-06
0.00245629 -0.000342557 1.16729e-06
-0.000342557 -0.000201855 -2.68219e-07
1.16729e-06 -2.68219e-07 -5.15769e-05
0.00238695 -0.000276854 -2.09529e-08
-0.000276854 -0.000100198 -1.81185e-08
-2.09529e-08 -1.81185e-08 1.21632e-06
0.00219951 -0.000230761 3.67146e-07
-0.000230761 -4.14283e-05 -2.95727e-07
3.67146e-07 -2.95727e-07 -1.93821e-05
0.00240215 -0.000413989 -5.9084e-07
-0.000413989 -3.15898e-05 7.29758e-07
-5.9084e-07 7.29758e-07 -2.21842e-06
0.00227179 -0.000351358 7.45316e-08
-0.000351358 1.36683e-05 6.69827e-08
7.45316e-08 6.69827e-08 7.08142e-07
0.00228951 -0.000340843 -5.18083e-06
-0.000340843 9.37001e-05 7.76294e-07
-5.18083e-06 7.76294e-07 2.99909e-05
0.00228184 -0.000462445 2.22426e-06
-0.000462445 6.70229e-05 -3.54256e-07
2.22426e-06 -3.54256e-07 -3.26675e-06
0.00225639 -0.000432312 5.24559e-07
-0.000432312 0.000130418 -1.17393e-07
5.24559e-07 -1.17393e-07 1.1939e-05
0.00211278 -0.00037569 -1.84401e-06
-0.00037569 0.000136094 -9.47619e-07
-1.84401e-06 -9.47619e-07 -2.6114e-05
0.00216522 -0.000511427 2.66467e-06
-0.000511427 0.00013188 -7.88863e-07
2.66467e-06 -7.88863e-07 -4.34808e-05
0.0021712 -0.000463796 -7.34153e-07
-0.000463796 0.00021757 8.24674e-08
-7.34153e-07 8.24674e-08 8.25177e-06
0.00135357 -0.000278174 -9.27806e-06
-0.000278174 -7.10704e-06 3.9509e-06
-9.27806e-06 3.9509e-06 -0.000214154
0.00216198 -0.000525311 2.82132e-06
-0.000525311 0.000276609 9.31957e-07
2.82132e-06 9.31957e-07 2.32848e-05
0.00137977 -0.000328105 -1.29222e-07
-0.000328105 2.09451e-05 2.33869e-07
-1.29222e-07 2.33869e-07 -0.000210477
0.0029204 -0.000229549 -6.53501e-05
-0.000229549 0.00140305 1.43639e-05
-6.53501e-05 1.43639e-05 0.00128216
0.00139917 -0.000374989 1.43821e-05
-0.000374989 5.53188e-05 -6.05769e-06
1.43821e-05 -6.05769e-06 -0.000203735
0.00306631 -0.000281005 5.58246e-05
-0.000281005 0.00150186 -9.57647e-06
5.58246e-05 -9.57647e-06 0.00137869
0.00261414 -0.000165231 -0.000298786
-0.000165231 0.0013383 5.07755e-05
-0.000298786 5.07755e-05 0.00131754
0.0052141 -0.000174363 -0.000293228
-0.000174363 0.00302122 3.58248e-05
-0.000293228 3.58248e-05 0.00301983
0.0031685 -0.00034489 0.000185975
-0.00034489 0.00158791 -3.30268e-05
0.000185975 -3.30268e-05 0.00146067
0.00813005 -0.000147925 0.000365122
-0.000147925 0.00489606 -4.37882e-05
0.000365122 -4.37882e-05 0.00491014
0.0023416 0.000528626 -9.7234e-07
0.000528626 0.00012555 -1.92322e-07
-9.7234e-07 -1.92322e-07 1.47227e-05
0.00221382 0.000571831 -6.81678e-07
0.000571831 0.000213557 2.68253e-06
-6.81678e-07 2.68253e-06 -4.27148e-06
0.00226436 0.000542694 4.61812e-07
0.000542694 0.000140358 -4.38039e-07
4.61812e-07 -4.38039e-07 -2.04343e-05
0.00214655 0.000625432 -2.75855e-06
0.000625432 0.000315261 5.67478e-06
-2.75855e-06 5.67478e-06 -1.46125e-07
0.00240714 0.000730151 2.66162e-08
0.000730151 0.00035387 -6.04876e-08
2.66162e-08 -6.04876e-08 5.45317e-05
0.00265363 0.000851336 -1.14417e-06
0.000851336 0.000607141 -9.29677e-06
-1.14417e-06 -9.29677e-06 0.000225866
0.00205455 0.000703253 1.03449e-06
0.000703253 0.000352581 4.45211e-07
1.03449e-06 4.45211e-07 -3.31698e-05
0.00136311 0.000463137 -3.13157e-05
0.000463137 0.00012298 -5.60733e-06
-3.13157e-05 -5.60733e-06 -0.000189864
0.00183551 0.000713786 7.70534e-06
0.000713786 0.000319736 -6.14711e-06
7.70534e-06 -6.14711e-06 -0.00011428
0.001112 0.000433068 -3.48964e-06
0.000433068 6.15293e-05 -4.88382e-08
-3.48964e-06 -4.88382e-08 -0.000257513
0.000166822 0.000291721 -2.79907e-05
0.000291721 -0.000310473 -2.10903e-05
-2.79907e-05 -2.10903e-05 -0.000492463
0.000958639 0.000352664 2.12873e-05
0.000352664 0.000102706 4.76402e-06
2.12873e-05 4.76402e-06 -0.000188043
0.000235793 0.000265511 1.93589e-06
0.000265511 -0.00024951 2.1404e-06
1.93589e-06 2.1404e-06 -0.000415902
0.00858454 4.35253e-05 -0.000351007
4.35253e-05 0.00520833 -4.05249e-05
-0.000351007 -4.05249e-05 0.00521013
-3.21959e-05 0.000193757 2.69607e-05
0.000193757 -0.000409087 2.29334e-05
2.69607e-05 2.29334e-05 -0.000539324
0.00745193 -9.69177e-05 7.0651e-06
-9.69177e-05 0.00452297 -2.53084e-06
7.0651e-06 -2.53084e-06 0.00451517
0.00595758 -0.000193513 0.000167182
-0.000193513 0.00360988 1.61098e-05
0.000167182 1.61098e-05 0.00358305
0.00257735 0.000299426 1.53748e-06
0.000299426 -0.000105903 -5.33514e-08
1.53748e-06 -5.33514e-08 3.27533e-05
0.00242009 0.000247936 2.25135e-06
0.000247936 -0.000282117 -9.49919e-07
2.25135e-06 -9.49919e-07 -4.29945e-05
0.00133765 0.000192349 -6.83231e-05
0.000192349 -0.00119469 -6.65062e-06
-6.83231e-05 -6.65062e-06 -0.000553048
0.00242091 0.000464183 2.83971e-06
0.000464183 -1.13457e-05 8.62816e-07
2.83971e-06 8.62816e-07 -1.12536e-05
0.00242988 0.000655614 -7.91543e-07
0.000655614 0.000135402 1.15539e-07
-7.91543e-07 1.15539e-07 -1.69693e-05
0.00238814 0.000886876 6.62219e-06
0.000886876 0.000324322 -3.14962e-06
6.62219e-06 -3.14962e-06 -3.24128e-07
0.00246697 0.000684841 -1.34667e-06
0.000684841 0.000285228 -3.39324e-06
-1.34667e-06 -3.39324e-06 4.76093e-05
0.00264656 0.00050713 -2.09093e-06
0.00050713 -4.07921e-05 -5.78337e-08
-2.09093e-06 -5.78337e-08 2.701e-05
0.00253473 0.000832391 2.15352e-06
0.000832391 0.000111342 -9.44984e-07
2.15352e-06 -9.44984e-07 -6.70695e-05
0.00212042 0.00047302 1.43642e-05
0.00047302 -0.000228409 -2.17231e-06
1.43642e-05 -2.17231e-06 -0.000116388
0.00234102 8.06018e-05 1.84559e-06
8.06018e-05 -7.29654e-05 7.69888e-08
1.84559e-06 7.69888e-08 1.31717e-05
0.00247222 0.000104833 2.47517e-07
0.000104833 -0.000153954 6.61584e-08
2.47517e-07 6.61584e-08 1.39097e-06
0.0024385 0.000177848 -8.7166e-06
0.000177848 -0.000315531 -4.05106e-07
-8.7166e-06 -4.05106e-07 -0.000111241
0.00218608 -1.42622e-05 -4.78053e-07
-1.42622e-05 -6.24508e-05 1.51265e-07
-4.78053e-07 1.51265e-07 -7.70403e-06
0.00261787 -8.93472e-05 3.50646e-06
-8.93472e-05 -0.00019521 3.38197e-08
3.50646e-06 3.38197e-08 1.12205e-05
0.00229926 -8.18084e-05 -4.02281e-07
-8.18084e-05 -9.31034e-05 3.29623e-07
-4.02281e-07 3.29623e-07 1.57248e-06
0.00214417 -0.000121837 -7.33369e-07
-0.000121837 -6.03012e-05 1.72878e-07
-7.33369e-07 1.72878e-07 -2.94582e-05
0.00234134 -0.000284428 -7.30031e-07
-0.000284428 -0.000123776 3.95249e-07
-7.30031e-07 3.95249e-07 -3.11316e-05
0.00221193 -0.000227551 8.02261e-07
-0.000227551 -3.37937e-05 -3.90161e-07
8.02261e-07 -3.90161e-07 -1.10423e-05
0.00225348 -0.000236324 -3.97858e-06
-0.000236324 5.6409e-05 3.24208e-07
-3.97858e-06 3.24208e-07 2.41086e-05
0.00227939 -0.000350859 1.3421e-06
-0.000350859 1.50027e-05 -1.35811e-07
1.3421e-06 -1.35811e-07 1.98608e-06
0.00229836 -0.000339479 3.07186e-07
-0.000339479 0.000103308 -5.21241e-08
3.07186e-07 -5.21241e-08 3.94711e-05
0.00216318 -0.000297797 -1.66849e-06
-0.000297797 0.00014399 -4.34283e-07
-1.66849e-06 -4.34283e-07 2.12049e-05
0.00220523 -0.000427733 4.25512e-06
-0.000427733 9.85877e-05 -9.91336e-07
4.25512e-06 -9.91336e-07 -1.92102e-05
0.00215414 -0.000379153 -7.05194e-07
-0.000379153 0.000158087 -1.34117e-08
-7.05194e-07 -1.34117e-08 -4.57643e-06
0.00133103 -0.000228191 -6.57048e-06
-0.000228191 -2.85557e-05 2.68436e-06
-6.57048e-06 2.68436e-06 -0.000213326
0.00224109 -0.000468352 2.45865e-06
-0.000468352 0.000266344 6.80034e-07
2.45865e-06 6.80034e-07 5.63901e-05
0.0013829 -0.000280052 -2.6985e-07
-0.000280052 6.87553e-07 2.54431e-07
-2.6985e-07 2.54431e-07 -0.0002054
0.00281791 -0.000207155 -7.08063e-05
-0.000207155 0.00134444 1.34404e-05
-7.08063e-05 1.34404e-05 0.00123271
0.00142313 -0.000332581 1.10518e-05
-0.000332581 3.83356e-05 -4.92023e-06
1.10518e-05 -4.92023e-06 -0.00019275
0.0029971 -0.00024684 5.12205e-05
-0.00024684 0.00145279 -7.43363e-06
5.12205e-05 -7.43363e-06 0.00134266
0.00260144 -0.000139685 -0.000291305
-0.000139685 0.00132185 4.39259e-05
-0.000291305 4.39259e-05 0.00130399
0.00317233 -0.000285058 0.000175311
-0.000285058 0.00156489 -3.29168e-05
0.000175311 -3.29168e-05 0.00145551
0.00220632 -0.000101203 -0.00011627
-0.000101203 0.00107557 1.85645e-05
-0.00011627 1.85645e-05 0.0010388
0.00750226 -8.4958e-05 0.00012767
-8.4958e-05 0.00447589 -8.64769e-06
0.00012767 -8.64769e-06 0.00445599
0.00232426 0.000447172 1.44038e-07
0.000447172 7.70247e-05 5.99692e-07
1.44038e-07 5.99692e-07 1.57855e-05
0.0022008 0.000500403 -3.5405e-06
0.000500403 0.000111712 -5.29046e-07
-3.5405e-06 -5.29046e-07 -4.34937e-05
0.00236824 0.000529262 -2.98196e-06
0.000529262 0.000141376 -2.45528e-08
-2.98196e-06 -2.45528e-08 2.70839e-05
0.00210636 0.000529981 -2.73638e-06
0.000529981 0.000215824 2.19517e-06
-2.73638e-06 2.19517e-06 -4.12071e-05
0.00216871 0.000579736 -1.2414e-06
0.000579736 0.000161113 -2.36057e-06
-1.2414e-06 -2.36057e-06 -5.0751e-05
0.0022639 0.000532422 -3.79104e-06
0.000532422 0.000147933 -3.16352e-06
-3.79104e-06 -3.16352e-06 -2.09988e-06
0.00145313 0.000415964 -2.39223e-05
0.000415964 7.19223e-05 -5.2123e-06
-2.39223e-05 -5.2123e-06 -0.000199858
0.0020832 0.000620424 1.44473e-06
0.000620424 0.00027156 3.11024e-07
1.44473e-06 3.11024e-07 -4.31531e-05
0.00246648 0.00073687 2.75431e-06
0.00073687 0.000377607 -7.37301e-06
2.75431e-06 -7.37301e-06 7.83556e-05
0.00194422 0.000695701 4.30246e-06
0.000695701 0.00027636 -6.37692e-06
4.30246e-06 -6.37692e-06 -0.000109102
0.00132033 0.000462344 -9.51945e-07
0.000462344 9.08545e-05 7.23318e-09
-9.51945e-07 7.23318e-09 -0.00022325
0.000289036 0.000285892 -2.51286e-05
0.000285892 -0.000252691 -1.94852e-05
-2.51286e-05 -1.94852e-05 -0.00042965
0.00124245 0.000442955 3.30752e-05
0.000442955 0.000132423 7.23964e-06
3.30752e-05 7.23964e-06 -0.000185998
0.000147944 0.000280454 1.0975e-06
0.000280454 -0.000313341 1.42277e-06
1.0975e-06 1.42277e-06 -0.000494025
0.00822886 0.000133694 -0.000351269
0.000133694 0.00497188 -4.65438e-05
-0.000351269 -4.65438e-05 0.00497368
9.0491e-05 0.00022363 2.30604e-05
0.00022363 -0.000341302 2.42741e-05
2.30604e-05 2.42741e-05 -0.000502993
0.00833761 1.79824e-06 6.19619e-06
1.79824e-06 0.00504643 4.83602e-07
6.19619e-06 4.83602e-07 0.00505198
0.00724507 -0.000130576 0.000239816
-0.000130576 0.00438978 1.69488e-05
0.000239816 1.69488e-05 0.00438179
0.00234369 0.000243093 1.014e-06
0.000243093 -5.41284e-05 -4.03596e-07
1.014e-06 -4.03596e-07 5.96356e-06
0.00253168 0.000305485 -9.28204e-07
0.000305485 -0.000152804 5.48227e-07
-9.28204e-07 5.48227e-07 -9.32159e-06
0.00232295 0.000243436 1.6639e-06
0.000243436 -0.000314353 -1.78382e-07
1.6639e-06 -1.78382e-07 -7.24408e-05
0.00241374 0.000458879 5.04803e-07
0.000458879 -1.4753e-05 5.49386e-07
5.04803e-07 5.49386e-07 -1.20334e-05
0.00238212 0.000649687 3.89602e-07
0.000649687 0.00012282 -1.54849e-06
3.89602e-07 -1.54849e-06 -2.71535e-05
0.00259831 0.000491113 1.75979e-06
0.000491113 -6.67036e-05 -3.32289e-07
1.75979e-06 -3.32289e-07 1.74775e-06
0.00223359 7.59243e-05 1.1775e-06
7.59243e-05 -4.03747e-05 5.38601e-08
1.1775e-06 5.38601e-08 5.63856e-06
0.00232894 7.95891e-05 3.23083e-07
7.95891e-05 -7.65918e-05 -2.18233e-07
3.23083e-07 -2.18233e-07 9.74261e-06
0.00240809 0.000103177 -5.50988e-08
0.000103177 -0.000181973 3.19045e-07
-5.50988e-08 3.19045e-07 -3.02125e-05
0.0021954 -1.13996e-05 -6.38381e-07
-1.13996e-05 -5.46485e-05 5.69517e-08
-6.38381e-07 5.69517e-08 -1.93523e-06
0.0021703 -3.4785e-05 -2.71776e-06
-3.4785e-05 1.20657e-05 3.46455e-07
-2.71776e-06 3.46455e-07 3.26856e-05
0.00230925 -8.54402e-05 -7.75433e-07
-8.54402e-05 -8.82737e-05 2.12351e-07
-7.75433e-07 2.12351e-07 5.95959e-06
0.00216943 -0.000122738 -1.25847e-06
-0.000122738 -3.58978e-05 2.3693e-07
-1.25847e-06 2.3693e-07 -9.55692e-06
0.00214964 -0.000147609 -5.33508e-06
-0.000147609 -5.13422e-06 8.92622e-07
-5.33508e-06 8.92622e-07 -2.25723e-05
0.00222004 -0.000224628 1.49478e-06
-0.000224628 -2.88161e-05 -5.21078e-07
1.49478e-06 -5.21078e-07 -5.41239e-06
0.00226389 -0.000237542 1.69087e-06
-0.000237542 6.74471e-05 -4.61824e-07
1.69087e-06 -4.61824e-07 3.46114e-05
0.00212835 -0.00022378 -4.90437e-07
-0.00022378 9.64501e-05 1.62636e-07
-4.90437e-07 1.62636e-07 9.6999e-07
0.00230741 -0.000339314 5.25757e-06
-0.000339314 0.000113552 -8.41636e-07
5.25757e-06 -8.41636e-07 4.93394e-05
0.00212059 -0.000297444 -5.61526e-07
-0.000297444 0.000106028 -2.54359e-07
-5.61526e-07 -2.54359e-07 -1.67539e-05
0.00126062 -0.00018042 -4.54802e-06
-0.00018042 -6.69166e-05 1.96288e-06
-4.54802e-06 1.96288e-06 -0.00023413
0.00218826 -0.000382487 2.37038e-06
-0.000382487 0.000173855 3.48427e-07
2.37038e-06 3.48427e-07 1.06932e-05
0.0013417 -0.000226984 -3.83833e-07
-0.000226984 -2.8379e-05 7.28819e-08
-3.83833e-07 7.28819e-08 -0.000211739
0.00270238 -0.000193139 -7.20229e-05
-0.000193139 0.00128159 1.1492e-05
-7.20229e-05 1.1492e-05 0.00117746
0.00141253 -0.000282042 8.13252e-06
-0.000282042 8.15042e-06 -3.5128e-06
8.13252e-06 -3.5128e-06 -0.000196957
0.00289932 -0.000204618 4.83532e-05
-0.000204618 0.00139192 -5.74887e-06
4.83532e-05 -5.74887e-06 0.00129283
0.00252995 -0.000113343 -0.000284487
-0.000113343 0.00127253 3.63332e-05
-0.000284487 3.63332e-05 0.0012565
0.00307791 -0.000236266 0.00017038
-0.000236266 0.00149569 -2.769e-05
0.00017038 -2.769e-05 0.00140044
0.0021792 -9.7653e-05 -0.000105928
-9.7653e-05 0.00105588 1.45245e-05
-0.000105928 1.45245e-05 0.00102097
0.00185143 -9.59067e-05 7.63511e-05
-9.59067e-05 0.000862805 -1.30712e-05
7.63511e-05 -1.30712e-05 0.000803413
0.0022388 0.000279339 1.28715e-07
0.000279339 -6.95808e-06 -6.29217e-07
1.28715e-07 -6.29217e-07 -1.35591e-05
0.00230386 0.000413474 -4.19032e-06
0.000413474 0.000131887 -2.58816e-07
-4.19032e-06 -2.58816e-07 2.95663e-05
0.00232053 0.000448252 -3.29068e-07
0.000448252 5.52942e-05 -1.12394e-07
-3.29068e-07 -1.12394e-07 4.30905e-06
0.00213484 0.000472894 -8.71129e-07
0.000472894 0.000151221 1.12523e-06
-8.71129e-07 1.12523e-06 -5.24588e-05
0.00226662 0.000502805 -1.37243e-06
0.000502805 0.000165202 -5.5301e-07
-1.37243e-06 -5.5301e-07 6.66974e-06
0.00238436 0.000530543 1.17662e-06
0.000530543 0.000150066 -7.28157e-08
1.17662e-06 -7.28157e-08 3.21833e-05
0.00144614 0.00034992 -1.73321e-05
0.00034992 3.33349e-05 -4.59786e-06
-1.73321e-05 -4.59786e-06 -0.000199599
0.00206572 0.000533831 8.56859e-07
0.000533831 0.000178847 -9.82856e-07
8.56859e-07 -9.82856e-07 -7.15943e-05
0.0021581 0.00059162 -1.91535e-06
0.00059162 0.00013055 -5.7804e-06
-1.91535e-06 -5.7804e-06 -7.59707e-05
0.000342588 0.000226206 -2.21295e-05
0.000226206 -0.000248829 -1.63642e-05
-2.21295e-05 -1.63642e-05 -0.000404959
0.00141521 0.000409798 -2.11429e-07
0.000409798 5.48289e-05 1.98224e-07
-2.11429e-07 1.98224e-07 -0.00021646
0.00204239 0.000617355 4.75046e-06
0.000617355 0.000242523 -5.30748e-06
4.75046e-06 -5.30748e-06 -7.18188e-05
0.00131705 0.000465835 3.2918e-05
0.000465835 8.36099e-05 6.2239e-06
3.2918e-05 6.2239e-06 -0.000232743
0.000290498 0.000269936 3.99922e-08
0.000269936 -0.000248761 9.08017e-07
3.99922e-08 9.08017e-07 -0.00042497
0.00790932 0.000228792 -0.000353123
0.000228792 0.00476301 -5.09472e-05
-0.000353123 -5.09472e-05 0.00476359
0.000409532 0.000273048 2.6458e-05
0.000273048 -0.000144745 1.90546e-05
2.6458e-05 1.90546e-05 -0.000323738
0.00838668 0.000110433 1.00897e-05
0.000110433 0.00505876 1.64255e-06
1.00897e-05 1.64255e-06 0.00506921
0.00816406 -3.81206e-05 0.000304659
-3.81206e-05 0.00492986 2.31851e-05
0.000304659 2.31851e-05 0.00493577
0.0022528 0.0001472 1.03285e-08
0.0001472 -6.51213e-06 -5.1048e-07
1.03285e-08 -5.1048e-07 2.87832e-05
0.00231596 0.000247622 6.98461e-07
0.000247622 -7.73231e-05 4.63282e-07
6.98461e-07 4.63282e-07 -1.95098e-05
0.00250633 0.000312718 9.4892e-09
0.000312718 -0.000178336 3.6593e-07
9.4892e-09 3.6593e-07 -3.18777e-05
0.0024187 0.000452612 -1.36557e-06
0.000452612 -9.83325e-06 -1.60023e-06
-1.36557e-06 -1.60023e-06 -4.65015e-06
0.00213759 3.21961e-05 -2.83016e-06
3.21961e-05 1.7148e-05 3.22015e-07
-2.83016e-06 3.22015e-07 1.78663e-05
0.00223396 6.69825e-05 -2.26842e-09
6.69825e-05 -4.11896e-05 -4.21766e-08
-2.26842e-09 -4.21766e-08 6.84351e-06
0.00231605 7.82914e-05 -1.18867e-06
7.82914e-05 -8.04954e-05 1.17805e-07
-1.18867e-06 1.17805e-07 5.50702e-06
0.00220524 -7.96153e-06 -2.42405e-06
-7.96153e-06 -4.60225e-05 -2.64471e-07
-2.42405e-06 -2.64471e-07 4.45602e-06
0.00217135 -2.8849e-05 -6.93984e-07
-2.8849e-05 6.39055e-06 -1.75854e-07
-6.93984e-07 -1.75854e-07 2.95505e-05
0.00208522 -6.18361e-05 -4.77084e-06
-6.18361e-05 -2.81705e-05 6.47754e-07
-4.77084e-06 6.47754e-07 -5.05463e-05
0.00219607 -0.000123728 1.15897e-06
-0.000123728 -1.03038e-05 3.50539e-08
1.15897e-06 3.50539e-08 1.12817e-05
0.00216126 -0.000148988 -1.81832e-06
-0.000148988 1.01119e-05 3.39753e-07
-1.81832e-06 3.39753e-07 -1.46534e-05
0.00220008 -0.000150172 -1.62944e-06
-0.000150172 0.000132302 4.26742e-07
-1.62944e-06 4.26742e-07 5.93514e-05
0.00228014 -0.000237898 7.32474e-06
-0.000237898 8.09929e-05 -1.25863e-06
7.32474e-06 -1.25863e-06 4.78384e-05
0.0021371 -0.00022148 9.19161e-07
-0.00022148 0.000101265 -3.02451e-07
9.19161e-07 -3.02451e-07 6.81713e-06
0.00124615 -0.000135114 -4.81623e-06
-0.000135114 -6.56427e-05 1.27136e-06
-4.81623e-06 1.27136e-06 -0.000218588
0.00210344 -0.000295994 1.75375e-06
-0.000295994 8.62003e-05 -4.28494e-07
1.75375e-06 -4.28494e-07 -3.60765e-05
0.00127834 -0.000179167 -1.51583e-07
-0.000179167 -5.62281e-05 5.06074e-08
-1.51583e-07 5.06074e-08 -0.000222249
0.000292313 -0.000100176 -1.73927e-05
-0.000100176 -0.000282484 6.76753e-06
-1.73927e-05 6.76753e-06 -0.000394355
0.00134448 -0.000225323 5.24067e-06
-0.000225323 -3.27472e-05 -2.55104e-06
5.24067e-06 -2.55104e-06 -0.000214629
0.00158357 -0.000132508 7.16802e-05
-0.000132508 0.000545552 -5.97685e-06
7.16802e-05 -5.97685e-06 0.000446723
0.00711119 -0.000185949 -0.000377813
-0.000185949 0.00424663 3.07055e-05
-0.000377813 3.07055e-05 0.00427265
0.00298872 -0.000185757 0.000165025
-0.000185757 0.00143896 -2.15924e-05
0.000165025 -2.15924e-05 0.00135484
0.00212803 -8.91955e-05 -9.58341e-05
-8.91955e-05 0.001026 9.33476e-06
-9.58341e-05 9.33476e-06 0.000991307
0.00175964 -0.000111744 8.78651e-05
-0.000111744 0.000810842 -1.47242e-05
8.78651e-05 -1.47242e-05 0.000750416
0.0021843 0.000183701 -1.19784e-06
0.000183701 1.02919e-05 -1.21379e-06
-1.19784e-06 -1.21379e-06 4.78769e-06
0.00230725 0.000319974 -3.02255e-06
0.000319974 0.000107587 -6.92809e-07
-3.02255e-06 -6.92809e-07 4.24236e-05
0.00224476 0.000271608 -3.71976e-07
0.000271608 9.66872e-06 -3.89187e-08
-3.71976e-07 -3.89187e-08 -2.74016e-06
0.00226829 0.000382453 -1.28581e-06
0.000382453 0.000209734 7.56939e-07
-1.28581e-06 7.56939e-07 6.37019e-05
0.00227503 0.000411483 4.43356e-07
0.000411483 0.000113519 -5.19714e-08
4.43356e-07 -5.19714e-08 1.20574e-05
0.00232068 0.000449504 -9.72801e-07
0.000449504 3.60568e-05 -9.7868e-07
-9.72801e-07 -9.7868e-07 -4.84075e-06
0.00149495 0.000302076 -1.1262e-05
0.000302076 5.59435e-05 -2.14434e-06
-1.1262e-05 -2.14434e-06 -0.00014111
0.00217273 0.000470438 7.36088e-07
0.000470438 0.000179957 -1.04394e-07
7.36088e-07 -1.04394e-07 -2.17533e-05
0.00231575 0.000503062 2.14439e-06
0.000503062 0.000208361 -1.38102e-06
2.14439e-06 -1.38102e-06 4.68408e-05
0.000341862 0.00016276 -1.88524e-05
0.00016276 -0.000263185 -1.25468e-05
-1.88524e-05 -1.25468e-05 -0.000398233
0.00139029 0.00034488 4.14727e-07
0.00034488 3.3033e-06 5.3646e-07
4.14727e-07 5.3646e-07 -0.000225097
0.00199068 0.000533437 4.74345e-06
0.000533437 0.000120302 -4.99109e-06
4.74345e-06 -4.99109e-06 -0.000122761
0.00760907 0.000288417 -0.000356767
0.000288417 0.00456684 -4.98236e-05
-0.000356767 -4.98236e-05 0.00456915
0.000305423 0.000221409 1.21714e-07
0.000221409 -0.000275777 7.39601e-07
1.21714e-07 7.39601e-07 -0.000432974
0.00134845 0.000401597 2.55144e-05
0.000401597 1.92282e-05 5.68736e-06
2.55144e-05 5.68736e-06 -0.00025128
0.00022734 0.000253695 2.27478e-05
0.000253695 -0.000285965 1.92904e-05
2.27478e-05 1.92904e-05 -0.000461119
0.00792649 0.000223685 1.11236e-05
0.000223685 0.00476955 2.59446e-06
1.11236e-05 2.59446e-06 0.00477612
0.00827097 8.21366e-05 0.000362178
8.21366e-05 0.00497099 3.15312e-05
0.000362178 3.15312e-05 0.00498865
0.00212116 9.15023e-05 -4.16056e-06
9.15023e-05 1.22642e-05 -1.46956e-07
-4.16056e-06 -1.46956e-07 5.35659e-06
0.00223935 0.000141924 -7.88916e-08
0.000141924 -1.44307e-05 1.15576e-08
-7.88916e-08 1.15576e-08 1.84868e-05
0.0022792 0.00025159 -7.29163e-07
0.00025159 -0.000106887 3.56844e-07
-7.29163e-07 3.56844e-07 -5.06103e-05
0.00210323 1.19914e-05 -6.66708e-06
1.19914e-05 2.22968e-06 3.35275e-07
-6.66708e-06 3.35275e-07 -3.09247e-05
0.00211415 3.79022e-05 7.74786e-07
3.79022e-05 -2.75895e-06 1.16127e-08
7.74786e-07 1.16127e-08 1.79933e-06
0.00223253 5.70378e-05 -1.63509e-06
5.70378e-05 -4.37003e-05 7.41374e-09
-1.63509e-06 7.41374e-09 6.58963e-06
0.00217234 -2.31221e-05 1.20744e-06
-2.31221e-05 8.55931e-08 -3.16938e-07
1.20744e-06 -3.16938e-07 2.61933e-05
0.00208421 -6.07086e-05 -7.54678e-07
-6.07086e-05 -2.8983e-05 2.32931e-08
-7.54678e-07 2.32931e-08 -5.05585e-05
0.00207901 -7.18318e-05 -1.09327e-06
-7.18318e-05 6.65345e-05 2.68732e-07
-1.09327e-06 2.68732e-07 -1.22802e-05
0.0021718 -0.000150549 4.25104e-06
-0.000150549 2.52073e-05 -7.0546e-07
4.25104e-06 -7.0546e-07 -6.74178e-06
0.0021081 -0.000151214 8.9039e-07
-0.000151214 7.69073e-05 -6.52904e-08
8.9039e-07 -6.52904e-08 -6.02019e-06
0.00145377 -8.56346e-05 -5.9449e-06
-8.56346e-05 8.12309e-05 2.17343e-07
-5.9449e-06 2.17343e-07 -4.67429e-05
0.00212522 -0.000220505 2.34349e-06
-0.000220505 9.26611e-05 -8.94692e-07
2.34349e-06 -8.94692e-07 -1.23324e-06
0.00125268 -0.000131301 -3.67644e-08
-0.000131301 -6.38179e-05 1.36437e-07
-3.67644e-08 1.36437e-07 -0.000215601
0.000285759 -3.07006e-05 -1.61721e-05
-3.07006e-05 -0.000285857 3.47929e-06
-1.61721e-05 3.47929e-06 -0.000387901
0.00131006 -0.000177131 3.84889e-06
-0.000177131 -3.88298e-05 -1.839e-06
3.84889e-06 -1.839e-06 -0.000203409
0.000317445 -8.48958e-05 -5.06748e-07
-8.48958e-05 -0.000264202 5.721e-07
-5.06748e-07 5.721e-07 -0.000375794
0.00704918 -7.6687e-05 -0.000367997
-7.6687e-05 0.00419924 1.95942e-05
-0.000367997 1.95942e-05 0.00423169
0.000407258 -9.23379e-05 1.2677e-05
-9.23379e-05 -0.000214886 -9.10887e-06
1.2677e-05 -9.10887e-06 -0.000334038
0.00452852 -0.000122038 0.000157712
-0.000122038 0.00258403 -9.17629e-06
0.000157712 -9.17629e-06 0.00256851
0.00170879 -9.7977e-05 9.25147e-05
-9.7977e-05 0.000779799 -1.37354e-05
9.25147e-05 -1.37354e-05 0.000721502
0.00216192 0.00015123 -6.14454e-06
0.00015123 5.10856e-05 -9.05254e-07
-6.14454e-06 -9.05254e-07 3.66863e-05
0.00227295 0.000230283 -4.89172e-06
0.000230283 0.00010374 -1.02864e-06
-4.89172e-06 -1.02864e-06 4.74598e-05
0.00217397 0.000177183 -6.65647e-07
0.000177183 9.00334e-06 -1.95842e-07
-6.65647e-07 -1.95842e-07 3.37483e-06
0.00221704 0.000303714 -6.77339e-07
0.000303714 0.000169253 1.71424e-07
-6.77339e-07 1.71424e-07 4.40364e-05
0.00231528 0.000317463 -6.92173e-08
0.000317463 0.000110001 -2.36348e-07
-6.92173e-08 -2.36348e-07 4.4235e-05
0.00224498 0.000264017 1.46544e-06
0.000264017 2.29832e-05 8.16058e-07
1.46544e-06 8.16058e-07 4.68721e-06
0.00143885 0.000235047 -5.95801e-06
0.000235047 3.79292e-05 -1.17884e-06
-5.95801e-06 -1.17884e-06 -0.000132359
0.00212672 0.000372963 2.10717e-06
0.000372963 0.00012482 4.41738e-07
2.10717e-06 4.41738e-07 -2.9771e-05
0.00223457 0.000409135 3.7178e-06
0.000409135 8.65176e-05 -3.2433e-07
3.7178e-06 -3.2433e-07 -1.40854e-05
0.000329183 0.000115831 -1.68804e-05
0.000115831 -0.000271033 -9.33005e-06
-1.68804e-05 -9.33005e-06 -0.00039275
0.00145025 0.000293781 9.2435e-07
0.000293781 3.29099e-05 1.02983e-06
9.2435e-07 1.02983e-06 -0.000161478
0.00222058 0.000469126 2.9268e-06
0.000469126 0.000215347 -1.37528e-06
2.9268e-06 -1.37528e-06 1.55312e-05
0.00733897 0.000321543 -0.000369392
0.000321543 0.00440374 -4.71548e-05
-0.000369392 -4.71548e-05 0.00440652
0.000338075 0.00016557 4.29478e-07
0.00016557 -0.000270529 4.00597e-07
4.29478e-07 4.00597e-07 -0.000407475
0.00133947 0.000341916 1.78066e-05
0.000341916 -2.53418e-05 4.09429e-06
1.78066e-05 4.09429e-06 -0.000249786
0.0076857 0.000309927 1.21541e-05
0.000309927 0.00462622 4.93752e-06
1.21541e-05 4.93752e-06 0.0046255
0.00029864 0.000217352 1.9796e-05
0.000217352 -0.000283922 1.66793e-05
1.9796e-05 1.66793e-05 -0.000442258
0.00799847 0.000196831 0.000370661
0.000196831 0.00479937 4.036e-05
0.000370661 4.036e-05 0.00481597
0.00208168 7.24383e-05 -6.59839e-06
7.24383e-05 -1.34573e-05 -6.93663e-09
-6.59839e-06 -6.93663e-09 -5.233e-05
0.00211242 9.824e-05 -1.06298e-06
9.824e-05 1.15423e-05 -2.38259e-07
-1.06298e-06 -2.38259e-07 4.32913e-06
0.0022248 0.000137081 1.97364e-07
0.000137081 -2.19671e-05 5.46263e-07
1.97364e-07 5.46263e-07 8.19365e-06
0.00203167 -7.72285e-06 -1.47572e-06
-7.72285e-06 4.45183e-05 -8.31637e-09
-1.47572e-06 -8.31637e-09 -3.48943e-05
0.00208113 1.32408e-05 -8.15078e-07
1.32408e-05 -1.59876e-05 -1.79436e-08
-8.15078e-07 -1.79436e-08 -4.607e-05
0.0020914 4.43885e-05 2.93293e-06
4.43885e-05 -2.20721e-05 4.12129e-09
2.93293e-06 4.12129e-09 -1.37471e-05
0.00208223 -5.96946e-05 3.0397e-06
-5.96946e-05 -3.01695e-05 -5.16687e-07
3.0397e-06 -5.16687e-07 -5.12038e-05
0.00202199 -7.10316e-05 -5.31795e-07
-7.10316e-05 2.89236e-05 2.15145e-07
-5.31795e-07 2.15145e-07 -4.92686e-05
0.00140637 -3.65904e-05 -6.92666e-06
-3.65904e-05 6.69098e-05 -4.46001e-07
-6.92666e-06 -4.46001e-07 -5.35874e-05
0.00200779 -0.000151887 2.63783e-07
-0.000151887 1.54257e-05 -4.13618e-07
2.63783e-07 -4.13618e-07 -7.74315e-05
0.00132557 -8.52105e-05 3.01931e-06
-8.52105e-05 -8.14128e-06 -3.61678e-07
3.01931e-06 -3.61678e-07 -0.000142518
0.000281153 -1.19509e-05 -1.67809e-05
-1.19509e-05 -0.000283519 1.87221e-06
-1.67809e-05 1.87221e-06 -0.000380404
0.00125483 -0.000129017 4.26733e-06
-0.000129017 -6.35058e-05 -1.0501e-06
4.26733e-06 -1.0501e-06 -0.000214377
0.000291817 -4.27167e-05 5.08432e-07
-4.27167e-05 -0.000280194 -3.47223e-07
5.08432e-07 -3.47223e-07 -0.000381619
0.00683086 -0.000170855 -0.000368478
-0.000170855 0.00407924 2.12866e-05
-0.000368478 2.12866e-05 0.00410441
0.000319432 -6.88423e-05 1.60312e-05
-6.88423e-05 -0.000261613 -5.17515e-06
1.60312e-05 -5.17515e-06 -0.000372007
0.00697059 -0.000113265 7.17072e-06
-0.000113265 0.00415371 1.59402e-07
7.17072e-06 1.59402e-07 0.00418495
0.00203296 -4.7455e-05 0.000281552
-4.7455e-05 0.000955842 -2.11605e-05
0.000281552 -2.11605e-05 0.000948016
0.00209318 0.000155561 -7.27358e-06
0.000155561 -7.52335e-06 -8.32295e-07
-7.27358e-06 -8.32295e-07 -5.80915e-05
0.00211577 0.000152519 -1.43614e-06
0.000152519 8.94748e-06 -1.36936e-07
-1.43614e-06 -1.36936e-07 5.33316e-07
0.00219231 0.00022586 1.20238e-06
0.00022586 0.000143608 3.01615e-07
1.20238e-06 3.01615e-07 3.85641e-05
0.00228473 0.000229882 8.34106e-07
0.000229882 0.000107751 -9.56482e-09
8.34106e-07 -9.56482e-09 5.21409e-05
0.00217224 0.000170686 1.918e-06
0.000170686 1.29228e-05 5.46528e-07
1.918e-06 5.46528e-07 7.34319e-06
0.00124706 0.000171433 -2.76858e-06
0.000171433 -7.08504e-05 -9.86517e-07
-2.76858e-06 -9.86517e-07 -0.000234174
0.00215573 0.000300234 3.14419e-07
0.000300234 0.000128914 -2.28108e-08
3.14419e-07 -2.28108e-08 3.45027e-06
0.00233183 0.000315065 4.56978e-06
0.000315065 0.000117912 1.13057e-06
4.56978e-06 1.13057e-06 5.15491e-05
0.000328077 8.39671e-05 -1.60855e-05
8.39671e-05 -0.000264397 -6.82168e-06
-1.60855e-05 -6.82168e-06 -0.000378342
0.00135267 0.000230704 2.53938e-06
0.000230704 -1.41232e-05 8.92771e-07
2.53938e-06 8.92771e-07 -0.0001898
0.00201725 0.000365143 1.48376e-06
0.000365143 6.29923e-05 -9.90738e-08
1.48376e-06 -9.90738e-08 -0.000100214
0.00714777 0.000313335 -0.000383318
0.000313335 0.00429332 -4.27388e-05
-0.000383318 -4.27388e-05 0.00429803
0.000345891 0.000122216 6.19673e-07
0.000122216 -0.000263867 2.24744e-07
6.19673e-07 2.24744e-07 -0.000387642
0.00140519 0.000285286 1.00395e-05
0.000285286 9.35929e-06 3.5469e-06
1.00395e-05 3.5469e-06 -0.000182192
0.00743766 0.000348649 8.85626e-06
0.000348649 0.00447905 5.46704e-06
8.85626e-06 5.46704e-06 0.00447613
0.00034176 0.000167622 1.74887e-05
0.000167622 -0.000273196 1.31393e-05
1.74887e-05 1.31393e-05 -0.000411873
0.00776712 0.000320048 0.000383
0.000320048 0.00467296 5.10358e-05
0.000383 5.10358e-05 0.00467663
0.00199639 6.85109e-05 -1.34723e-07
6.85109e-05 2.50578e-05 -1.53588e-07
-1.34723e-07 -1.53588e-07 -6.04483e-05
0.00209096 7.33457e-05 -2.75414e-06
7.33457e-05 -1.82129e-06 -1.39723e-07
-2.75414e-06 -1.39723e-07 -4.21598e-05
0.00210537 0.00010469 4.45937e-06
0.00010469 1.19024e-05 1.94776e-07
4.45937e-06 1.94776e-07 4.4293e-06
0.00134228 -1.05615e-05 -8.99166e-06
-1.05615e-05 4.12841e-05 -6.67529e-07
-8.99166e-06 -6.67529e-07 -7.80013e-05
0.00201612 -4.5375e-06 -3.91283e-08
-4.5375e-06 3.62532e-05 1.30398e-07
-3.91283e-08 1.30398e-07 -4.28405e-05
0.00206095 1.39038e-05 3.48969e-06
1.39038e-05 -3.25756e-05 -1.36276e-07
3.48969e-06 -1.36276e-07 -5.9549e-05
0.00197569 -7.07207e-05 -1.14546e-07
-7.07207e-05 -9.18603e-07 2.05806e-07
-1.14546e-07 2.05806e-07 -7.85033e-05
0.00135467 -3.88778e-05 2.4577e-06
-3.88778e-05 2.63508e-05 -1.03881e-07
2.4577e-06 -1.03881e-07 -9.4364e-05
0.00028301 -3.37326e-05 -1.7491e-05
-3.37326e-05 -0.000277037 6.46658e-07
-1.7491e-05 6.46658e-07 -0.000369632
0.00120239 -8.43055e-05 7.93235e-06
-8.43055e-05 -9.40068e-05 -8.58449e-07
7.93235e-06 -8.58449e-07 -0.00023475
0.000290921 -7.92996e-07 7.23693e-08
-7.92996e-07 -0.000277814 6.39439e-08
7.23693e-08 6.39439e-08 -0.000373149
0.00671868 -0.000138465 -0.000367389
-0.000138465 0.00400642 1.61426e-05
-0.000367389 1.61426e-05 0.0040353
0.000332538 -5.06956e-05 1.72237e-05
-5.06956e-05 -0.000250365 -3.40308e-06
1.72237e-05 -3.40308e-06 -0.000352613
0.00682059 -6.64832e-05 -2.84324e-06
-6.64832e-05 0.00405853 3.4772e-06
-2.84324e-06 3.4772e-06 0.00409246
0.00693858 -0.000127258 0.00036712
-0.000127258 0.00413565 -1.92424e-05
0.00036712 -1.92424e-05 0.00416654
0.00213485 0.000145466 8.93382e-07
0.000145466 0.000109803 8.55432e-08
8.93382e-07 8.55432e-08 1.83516e-05
0.0021619 0.000155374 -2.03995e-06
0.000155374 3.37806e-05 -2.13298e-07
-2.03995e-06 -2.13298e-07 -1.10491e-05
0.00206458 0.000153928 3.85638e-06
0.000153928 -3.68748e-05 7.55381e-07
3.85638e-06 7.55381e-07 -3.93247e-05
0.00122505 0.000117405 -4.5175e-06
0.000117405 -6.98918e-05 -3.25727e-07
-4.5175e-06 -3.25727e-07 -0.000218415
0.00216032 0.000223858 8.06182e-08
0.000223858 0.000121921 -1.3778e-07
8.06182e-08 -1.3778e-07 1.65799e-05
0.00229134 0.000229067 4.8389e-06
0.000229067 0.0001088 7.44665e-07
4.8389e-06 7.44665e-07 5.39347e-05
0.000323933 5.67611e-05 -1.55875e-05
5.67611e-05 -0.000257327 -4.71362e-06
-1.55875e-05 -4.71362e-06 -0.000364513
0.00126537 0.000173776 1.60931e-07
0.000173776 -5.14706e-05 2.94957e-07
1.60931e-07 2.94957e-07 -0.000215925
0.00209173 0.000296439 1.07112e-06
0.000296439 8.72473e-05 -4.06329e-07
1.07112e-06 -4.06329e-07 -3.84973e-05
0.00697994 0.000256168 -0.000390252
0.000256168 0.00418351 -3.44875e-05
-0.000390252 -3.44875e-05 0.00419869
0.000335915 9.20376e-05 8.75378e-07
9.20376e-05 -0.000261013 2.33128e-07
8.75378e-07 2.33128e-07 -0.000377162
0.00125253 0.000225184 4.86451e-06
0.000225184 -7.63941e-05 2.74384e-06
4.86451e-06 2.74384e-06 -0.000257225
0.0072487 0.000332759 4.63844e-06
0.000332759 0.00436272 3.52394e-06
4.63844e-06 3.52394e-06 0.00436509
0.000364492 0.000130303 1.62546e-05
0.000130303 -0.000254222 1.0257e-05
1.62546e-05 1.0257e-05 -0.000380663
0.00755763 0.000389027 0.000393641
0.000389027 0.00456841 5.68886e-05
0.000393641 5.68886e-05 0.00455941
0.00110784 3.64016e-05 -1.04337e-05
3.64016e-05 -0.000109122 -5.69341e-07
-1.04337e-05 -5.69341e-07 -0.00024189
0.00208899 6.57784e-05 -8.0534e-08
6.57784e-05 8.68634e-05 3.80842e-08
-8.0534e-08 3.80842e-08 7.66806e-06
0.00211505 7.47995e-05 3.51891e-06
7.47995e-05 1.98951e-05 -7.52704e-08
3.51891e-06 -7.52704e-08 -2.17078e-05
0.000327001 3.24843e-05 -1.81865e-05
3.24843e-05 -0.000252011 -1.4225e-06
-1.81865e-05 -1.4225e-06 -0.000335902
0.0013074 -6.22004e-06 2.07747e-06
-6.22004e-06 1.33953e-05 -1.83198e-09
2.07747e-06 -1.83198e-09 -0.000105837
0.00198542 6.40064e-08 1.35245e-06
6.40064e-08 1.7081e-05 2.38808e-07
1.35245e-06 2.38808e-07 -6.17327e-05
0.00129461 -4.06132e-05 1.07715e-05
-4.06132e-05 -2.09297e-05 -2.10796e-07
1.07715e-05 -2.10796e-07 -0.000141834
0.000302769 -6.59639e-06 2.47924e-07
-6.59639e-06 -0.000264136 4.45438e-07
2.47924e-07 4.45438e-07 -0.000356457
0.00661706 1.75778e-06 -0.000369368
1.75778e-06 0.00393182 3.32314e-06
-0.000369368 3.32314e-06 0.00396957
0.000294747 1.05516e-05 1.68399e-05
1.05516e-05 -0.000276313 -8.55881e-07
1.68399e-05 -8.55881e-07 -0.000369982
0.0066811 -0.000135961 -7.68691e-06
-0.000135961 0.00398441 2.29851e-06
-7.68691e-06 2.29851e-06 0.00401277
0.00674769 -4.9174e-05 0.000353129
-4.9174e-05 0.00401201 -1.09756e-05
0.000353129 -1.09756e-05 0.00404623
0.00117761 7.54405e-05 -8.66304e-06
7.54405e-05 -7.73054e-05 -4.09811e-07
-8.66304e-06 -4.09811e-07 -0.000215397
0.00215867 0.000141224 -4.63303e-07
0.000141224 0.000125937 -2.46315e-07
-4.63303e-07 -2.46315e-07 3.84561e-05
0.00221356 0.000154779 1.83057e-06
0.000154779 6.30828e-05 1.03513e-07
1.83057e-06 1.03513e-07 2.37584e-05
0.00274468 7.34768e-05 -0.000163962
7.34768e-05 0.00130978 -6.38149e-06
-0.000163962 -6.38149e-06 0.00125296
0.00120804 0.000118599 1.3459e-07
0.000118599 -7.52588e-05 1.25258e-07
1.3459e-07 1.25258e-07 -0.000224625
0.00208738 0.000220896 1.55633e-07
0.000220896 7.1841e-05 -4.19681e-07
1.55633e-07 -4.19681e-07 -3.40376e-05
0.00682791 0.000186906 -0.00038799
0.000186906 0.00407922 -2.4759e-05
-0.00038799 -2.4759e-05 0.00410519
0.000329996 7.66046e-05 1.173e-06
7.66046e-05 -0.00025302 5.25918e-07
1.173e-06 5.25918e-07 -0.00036283
0.00127569 0.00017562 3.11836e-06
0.00017562 -3.87106e-05 1.40871e-06
3.11836e-06 1.40871e-06 -0.000204328
0.00709087 0.000273437 1.26777e-06
0.000273437 0.00425557 1.72434e-06
1.26777e-06 1.72434e-06 0.00426913
0.000349077 0.0001023 1.59706e-05
0.0001023 -0.00025307 8.02247e-06
1.59706e-05 8.02247e-06 -0.000372016
0.00734398 0.000368725 0.000397608
0.000368725 0.00443744 5.359e-05
0.000397608 5.359e-05 0.00443309
0.000427718 1.4808e-05 -1.38136e-05
1.4808e-05 -0.000175472 -2.15287e-06
-1.38136e-05 -2.15287e-06 -0.000268356
0.00121794 3.63546e-05 -1.35138e-07
3.63546e-05 -4.13689e-05 2.08954e-08
-1.35138e-07 2.08954e-08 -0.000168883
0.0021873 6.17096e-05 1.53687e-06
6.17096e-05 0.000152267 -3.37935e-08
1.53687e-06 -3.37935e-08 7.92423e-05
0.00643058 -0.000106204 -0.00035167
-0.000106204 0.00383206 5.72718e-06
-0.00035167 5.72718e-06 0.00385859
0.000293134 1.07066e-05 -6.84665e-07
1.07066e-05 -0.000269966 -1.98191e-07
-6.84665e-07 -1.98191e-07 -0.000356287
0.00131201 -2.99473e-06 1.25304e-05
-2.99473e-06 1.16353e-05 4.15158e-07
1.25304e-05 4.15158e-07 -0.000107372
0.000275498 1.99333e-05 1.71294e-05
1.99333e-05 -0.000282747 8.44077e-07
1.71294e-05 8.44077e-07 -0.000373585
0.00654872 -3.32856e-05 2.01968e-06
-3.32856e-05 0.00389528 -1.93474e-06
2.01968e-06 -1.93474e-06 0.00392779
0.00666449 -6.07162e-05 0.000358224
-6.07162e-05 0.00396033 -8.13539e-06
0.000358224 -8.13539e-06 0.00399548
0.00284962 2.42028e-05 -0.000158368
2.42028e-05 0.00137828 -3.19847e-06
-0.000158368 -3.19847e-06 0.0013269
0.00117115 7.79141e-05 -5.09931e-08
7.79141e-05 -8.30566e-05 -6.56292e-08
-5.09931e-08 -6.56292e-08 -0.000222018
0.0022244 0.000138074 9.31308e-07
0.000138074 0.000171024 -3.7795e-07
9.31308e-07 -3.7795e-07 8.78422e-05
0.00636798 -1.74153e-05 -0.000165606
-1.74153e-05 0.00379663 -4.20399e-07
-0.000165606 -4.20399e-07 0.00378719
0.00031512 6.42154e-05 7.26011e-07
6.42154e-05 -0.000254867 2.46715e-07
7.26011e-07 2.46715e-07 -0.000356214
0.00122276 0.000121197 4.74e-06
0.000121197 -6.19558e-05 4.05791e-07
4.74e-06 4.05791e-07 -0.000212087
0.00690902 0.000164159 -9.4504e-06
0.000164159 0.00412453 -1.86378e-06
-9.4504e-06 -1.86378e-06 0.00415175
0.000333134 9.89902e-05 1.71797e-05
9.89902e-05 -0.000251704 6.5202e-06
1.71797e-05 6.5202e-06 -0.000363261
0.0071807 0.000296506 0.000400619
0.000296506 0.00431803 4.41267e-05
0.000400619 4.41267e-05 0.0043297
0.00197597 -5.30665e-05 -0.000272656
-5.30665e-05 0.000924978 1.80545e-06
-0.000272656 1.80545e-06 0.000929296
0.00152744 3.56474e-05 -6.92355e-05
3.56474e-05 0.000526779 -1.73465e-07
-6.92355e-05 -1.73465e-07 0.000459951
0.0012677 3.86728e-05 1.12996e-05
3.86728e-05 -1.19657e-05 4.77685e-07
1.12996e-05 4.77685e-07 -0.000134521
0.00650187 -5.17502e-05 7.08717e-06
-5.17502e-05 0.00387079 3.33776e-06
7.08717e-06 3.33776e-06 0.00390347
0.000314014 -9.15988e-06 1.7734e-05
-9.15988e-06 -0.000250504 1.31628e-06
1.7734e-05 1.31628e-06 -0.000340551
0.00659904 -9.4769e-05 0.000370462
-9.4769e-05 0.00393287 -7.0111e-06
0.000370462 -7.0111e-06 0.00396473
0.00149414 2.785e-05 -7.67164e-05
2.785e-05 0.000645419 -1.3276e-06
-7.67164e-05 -1.3276e-06 0.000601717
0.00153273 2.54685e-05 -7.01737e-05
2.54685e-05 0.000531682 -1.92957e-06
-7.01737e-05 -1.92957e-06 0.000459343
0.00116725 7.86534e-05 8.61334e-06
7.86534e-05 -8.4895e-05 1.91472e-07
8.61334e-06 1.91472e-07 -0.000224619
0.00416566 7.98771e-05 0.000137201
7.98771e-05 0.00235609 4.818e-06
0.000137201 4.818e-06 0.0023506
0.000289606 7.51262e-05 1.76628e-05
7.51262e-05 -0.000272206 4.57558e-06
1.76628e-05 4.57558e-06 -0.000373786
0.00700135 0.000151857 0.000382762
0.000151857 0.00417471 2.6897e-05
0.000382762 2.6897e-05 0.00420584
0.00641979 -1.72435e-05 -8.28733e-06
-1.72435e-05 0.00382329 -3.78729e-06
-8.28733e-06 -3.78729e-06 0.00385402
0.000297791 5.36709e-05 1.93e-05
5.36709e-05 -0.00026857 2.63417e-06
1.93e-05 2.63417e-06 -0.000352
0.00640043 3.19087e-05 0.000356408
3.19087e-05 0.00380117 3.07044e-07
0.000356408 3.07044e-07 0.00383743
0.00402787 3.98914e-05 0.000148519
3.98914e-05 0.00227324 6.58129e-06
0.000148519 6.58129e-06 0.00227088
0.000302249 1.40085e-05 1.73598e-05
1.40085e-05 -0.000257954 2.26944e-06
1.73598e-05 2.26944e-06 -0.000351514
0.00676152 1.90384e-05 0.000368125
1.90384e-05 0.00402125 1.2554e-05
0.000368125 1.2554e-05 0.00405569
0.00646033 -0.000109785 0.000355069
-0.000109785 0.00385217 -4.50695e-06
0.000355069 -4.50695e-06 0.00387914
0.00651759 2.28831e-05 0.000358908
2.28831e-05 0.00386728 7.60527e-06
0.000358908 7.60527e-06 0.00390467
