# vtk DataFile Version 2.0
Wound Healing Simulation
ASCII
DATASET UNSTRUCTURED_GRID
POINTS 3012 float
69.9759 18.75 4
67.2507 60.3285 4
69.976 18.75 2
73.0099 25.446 4
71.1327 20.9142 4
68.6801 16.6661 4
67.8215 19.9261 3.97367
67.2507 60.3286 2
71.1327 54.0858 4
68.6801 58.3339 4
65.6939 62.2254 4
65.3082 58.9988 3.97239
74.6784 42.3946 4
73.7221 47.2057 4
69.9759 18.75 0
73.0099 25.446 2
68.6801 16.6661 2
71.1327 20.9142 2
67.8221 19.9299 2
74.6792 32.6053 4
73.7222 27.7943 4
72.1454 23.1494 4
70.6114 26.2216 3.97363
68.8819 21.9577 3.97392
67.2507 14.6715 4
66.6328 17.9731 3.97252
65.7595 21.0381 3.96247
67.2507 60.3285 0
71.1327 54.0858 2
68.6801 58.3339 2
65.694 62.2255 2
65.3096 58.9943 2
72.1454 51.8506 4
69.9759 56.25 4
68.8323 53.1143 3.97372
64.0165 64.0165 4
66.6065 57.1329 3.97355
63.8814 60.762 3.97
63.4876 57.7621 3.96243
60.3285 67.2507 4
74.6792 42.3947 2
73.7222 47.2057 2
74.9194 39.9526 4
74.2788 44.8158 4
72.1659 42.0857 3.97506
73.0099 49.554 4
71.2466 46.5985 3.9736
73.0099 25.446 0
71.1327 20.9142 0
68.6801 16.6661 0
67.8215 19.9261 0.0263258
74.6792 32.6053 2
73.7222 27.7943 2
67.2508 14.6715 2
72.1455 23.1494 2
70.6107 26.2224 2
66.634 17.9775 2
68.8821 21.9604 2
65.7575 21.0401 2
74.9197 35.0474 4
74.2794 30.1841 4
72.1828 32.9448 3.97558
71.2758 28.4326 3.97375
69.8122 24.0596 3.97372
68.3277 26.9587 3.96407
66.7293 22.9441 3.96302
65.694 12.7746 4
65.3192 16.1064 3.97129
64.6779 19.2093 3.9617
63.749 22.0891 3.96425
71.1327 54.0858 0
65.6939 62.2254 0
68.6801 58.3339 0
65.3082 58.9988 0.0276093
72.1455 51.8506 2
69.9759 56.25 2
68.8326 53.1112 2
64.0165 64.0165 2
66.6077 57.1283 2
63.8824 60.7572 2
63.4806 57.7604 2
62.2254 65.694 4
58.891 65.4123 3.98089
69.7652 50.9901 3.97339
67.7795 55.1678 3.97383
66.6082 52.1994 3.96307
62.3319 62.4243 3.97513
64.6316 56.0218 3.96276
62.1928 59.3886 3.96331
61.7259 56.6351 3.96063
58.3339 68.6801 4
60.3285 67.2508 2
73.7221 47.2057 0
74.6784 42.3946 0
74.9197 39.9526 2
74.2794 44.8159 2
72.1651 42.0855 2
73.0099 49.554 2
71.2458 46.5976 2
75 37.5 4
72.4034 39.8027 3.97629
71.78 44.353 3.97449
69.7974 41.7892 3.96603
70.5719 48.8144 3.97336
68.8944 46.0111 3.96542
74.6792 32.6053 0
73.7222 27.7943 0
67.2507 14.6715 0
72.1454 23.1494 0
70.6114 26.2216 0.0263652
68.8819 21.9577 0.0260805
66.6328 17.9731 0.0274765
65.7595 21.0381 0.0375272
74.9197 35.0474 2
74.2794 30.1841 2
72.1819 32.9447 2
71.2749 28.4329 2
65.694 12.7745 2
65.3203 16.1111 2
69.8119 24.0613 2
68.3313 26.9594 2
64.672 19.2117 2
66.7299 22.9457 2
63.7477 22.09 2
72.4113 35.2253 3.97641
71.8016 30.6779 3.97478
69.834 33.2724 3.96621
68.9556 29.0438 3.9648
67.5841 24.9211 3.96347
66.0428 27.6756 3.96998
64.0165 10.9835 4
64.6114 23.8805 3.96644
63.8847 14.332 3.96851
63.4937 17.4613 3.96046
62.7738 20.3783 3.96214
61.8437 23.04 3.96971
60.6803 11.1025 3.9759
57.6047 11.4789 3.96765
72.1454 51.8506 0
69.9759 56.25 0
68.8323 53.1143 0.0262764
64.0165 64.0165 0
63.8814 60.762 0.0299999
66.6065 57.1329 0.0264539
63.4876 57.7621 0.037572
62.2255 65.694 2
58.8933 65.4075 2
69.765 50.988 2
67.7802 55.1638 2
66.6085 52.1979 2
62.3339 62.4186 2
64.6248 56.0196 2
62.1892 59.3886 2
61.7223 56.6349 2
60.6652 63.9728 3.97787
57.0214 66.7329 3.98329
57.5503 63.6676 3.9719
67.4691 50.1681 3.96368
65.6647 54.1635 3.96271
64.3698 51.3353 3.9664
60.7665 60.9151 3.96681
62.6953 55.0198 3.96335
60.585 58.1132 3.95844
60.1519 55.7058 3.96525
56.25 69.9759 4
58.3339 68.6801 2
60.3285 67.2507 0
58.9176 9.65997 3.97802
62.2254 9.30607 4
73.0099 49.554 0
74.2788 44.8158 0
71.2466 46.5985 0.0264035
72.1659 42.0857 0.0249423
74.9194 39.9526 0
75 37.5 2
72.4031 39.8025 2
71.7795 44.3524 2
69.7966 41.789 2
70.5714 48.8131 2
68.8985 46.0107 2
72.4868 37.5129 3.97597
70.0352 39.658 3.96665
69.4223 43.9059 3.96595
67.4727 41.4856 3.97484
68.2349 48.1007 3.96445
66.5472 45.409 3.97271
74.9197 35.0474 0
74.2794 30.1841 0
72.1828 32.9448 0.0244237
71.2758 28.4326 0.0262506
65.694 12.7746 0
65.3192 16.1064 0.0287092
69.8122 24.0596 0.0262766
68.3277 26.9587 0.0359343
66.7293 22.9441 0.0369834
64.6779 19.2093 0.0383024
63.749 22.0891 0.0357521
72.411 35.2251 2
71.8012 30.6779 2
69.8332 33.2729 2
68.9585 29.0443 2
64.0165 10.9835 2
63.8862 14.3376 2
63.4882 17.4629 2
67.5863 24.9223 2
66.0404 27.6768 2
62.7738 20.3784 2
64.6092 23.8817 2
61.842 23.0406 2
60.6827 11.1076 2
57.6045 11.4717 2
70.0521 35.395 3.96682
69.4604 31.1542 3.96526
67.5381 33.6072 3.97427
66.6307 29.6557 3.972
65.3733 25.7457 3.96826
63.8536 28.3324 3.97601
62.337 12.6594 3.97396
62.5891 24.7288 3.97237
62.1865 15.8043 3.96318
61.6955 18.7453 3.95957
60.9805 21.4446 3.96598
60.0738 23.8645 3.97328
59.2378 12.814 3.96336
55.8675 10.2649 3.97356
56.3921 13.1788 3.96687
69.7652 50.9901 0.0266067
62.2254 65.694 0
58.891 65.4123 0.0191145
67.7795 55.1678 0.0261689
66.6082 52.1994 0.0369252
62.3319 62.4243 0.0248703
62.1928 59.3886 0.036689
64.6316 56.0218 0.0372448
61.7259 56.6351 0.0393699
60.6676 63.9695 2
57.0245 66.7292 2
57.5511 63.6716 2
67.4706 50.167 2
65.6623 54.1616 2
64.3682 51.3345 2
60.7636 60.916 2
62.6952 55.02 2
60.5825 58.114 2
60.1506 55.7057 2
55.0675 67.9302 3.98576
59.2121 62.3325 3.96698
55.7975 64.8893 3.97285
56.315 62.0387 3.97574
65.1543 49.3615 3.96843
63.5536 53.2417 3.96479
62.1342 50.5611 3.97109
59.2968 59.5144 3.95924
60.8528 54.2236 3.96791
59.1181 56.9259 3.9606
58.9992 55.0795 3.96837
48.0993 68.5722 3.98195
50.9452 69.9306 3.98828
54.0858 71.1327 4
56.25 69.976 2
58.3339 68.6801 0
57.0548 8.33919 3.97937
60.3285 7.74928 4
58.9206 9.6644 2
62.2255 9.30602 2
70.5719 48.8144 0.0266429
71.78 44.353 0.0255118
68.8944 46.0111 0.0345789
69.7974 41.7892 0.0339694
72.4034 39.8027 0.0237092
75 37.5 0
72.486 37.5126 2
70.0349 39.658 2
69.4229 43.9055 2
67.4697 41.4851 2
68.2371 48.0998 2
66.5443 45.4079 2
70.1233 37.5234 3.96684
67.7178 39.5082 3.97475
67.0815 43.449 3.9744
65.2657 41.184 3.97653
65.8926 47.3779 3.97059
64.3302 44.7861 3.97615
72.4113 35.2253 0.0235897
71.8016 30.6779 0.02522
69.834 33.2724 0.0337932
68.9556 29.0438 0.0351986
64.0165 10.9835 0
63.8847 14.332 0.0314882
63.4937 17.4613 0.0395393
67.5841 24.9211 0.036529
66.0428 27.6756 0.030021
64.6114 23.8805 0.0335607
62.7738 20.3783 0.0378589
61.8437 23.04 0.0302933
60.6803 11.1025 0.0240987
57.6047 11.4789 0.0323542
70.0518 35.3953 2
69.4602 31.1546 2
67.5359 33.6078 2
66.6293 29.6565 2
62.3392 12.6649 2
62.1841 15.805 2
61.6948 18.7452 2
65.3709 25.747 2
63.8507 28.3336 2
60.9801 21.4445 2
62.5869 24.7296 2
60.0732 23.8654 2
59.2369 12.8136 2
56.392 13.1757 2
55.8687 10.2668 2
67.7573 35.5569 3.97443
67.1425 31.6465 3.97385
65.4251 33.9579 3.97639
64.3655 30.2581 3.97587
63.2582 26.4991 3.97471
61.8402 28.8873 3.97566
60.7663 14.2501 3.96444
60.6648 25.4712 3.97491
60.5379 17.1841 3.95778
59.991 19.9269 3.96199
59.3197 22.4034 3.9688
58.5439 24.4936 3.97413
54.032 9.15746 3.97064
57.8893 14.3876 3.96105
54.7748 12.0737 3.97089
55.2829 14.7311 3.95959
67.4691 50.1681 0.0363238
57.0214 66.7329 0.0167141
60.6652 63.9728 0.0221276
57.5503 63.6676 0.0280952
65.6647 54.1635 0.0372888
64.3698 51.3353 0.0335969
60.7665 60.9151 0.03319
60.585 58.1132 0.0415569
62.6953 55.0198 0.036648
60.1519 55.7058 0.0347491
55.0708 67.9275 2
59.2112 62.3362 2
55.799 64.8888 2
56.3132 62.0389 2
65.1521 49.3605 2
63.5529 53.2414 2
62.1331 50.5605 2
59.3046 59.5204 2
60.8536 54.2238 2
59.1261 56.9281 2
59.0056 55.0808 2
53.0394 68.9987 3.98685
53.9622 66.0018 3.97479
57.8608 60.8256 3.96574
54.6673 63.1564 3.96935
55.1881 60.5582 3.97509
62.8714 48.5765 3.97359
61.4726 52.4851 3.96944
59.8379 49.8883 3.97296
57.905 58.1889 3.95911
59.0299 53.833 3.97046
57.8443 55.6914 3.96296
50.1053 67.8484 3.97985
47.4592 66.5664 3.97621
46.0534 69.1519 3.98394
48.1008 68.5714 2
48.7994 70.7224 3.98942
50.9479 69.9296 2
51.8506 72.1454 4
54.0858 71.1327 2
56.25 69.9759 0
55.0995 7.14348 3.98356
58.3339 6.31992 4
57.0581 8.34419 2
60.3286 7.74926 2
58.9176 9.65997 0.0219767
62.2254 9.30607 0
68.2349 48.1007 0.0355461
69.4223 43.9059 0.0340488
66.5472 45.409 0.0272943
67.4727 41.4856 0.0251621
70.0352 39.658 0.0333536
72.4868 37.5129 0.0240319
70.1226 37.5235 2
67.7145 39.508 2
67.0803 43.4482 2
65.2631 41.1837 2
65.8902 47.3768 2
64.3279 44.7852 2
67.8189 37.5248 3.97456
65.5073 39.3595 3.97661
64.8736 42.9801 3.97618
63.3446 40.8925 3.97666
63.6349 46.6415 3.97542
62.3534 44.1343 3.97588
70.0521 35.395 0.0331786
69.4604 31.1542 0.0347367
67.5381 33.6072 0.0257311
66.6307 29.6557 0.028001
62.337 12.6594 0.0260355
62.1865 15.8043 0.0368151
61.6955 18.7453 0.0404332
65.3733 25.7457 0.0317384
63.8536 28.3324 0.0239889
62.5891 24.7288 0.0276324
60.9805 21.4446 0.0340216
60.0738 23.8645 0.0267204
59.2378 12.814 0.0366389
56.3921 13.1788 0.0331332
55.8675 10.2649 0.0264391
67.7546 35.5573 2
67.1412 31.6472 2
65.4214 33.9583 2
64.3632 30.259 2
60.7647 14.2504 2
60.5289 17.1854 2
59.9886 19.9268 2
63.2562 26.5001 2
61.8386 28.8875 2
59.3229 22.4034 2
60.6635 25.4724 2
58.5411 24.4962 2
57.8889 14.3875 2
55.2826 14.7275 2
54.0347 9.15465 2
54.7726 12.0752 2
65.6062 35.6842 3.97638
64.8936 32.201 3.97576
63.9193 34.287 3.97629
62.1591 30.7218 3.97569
61.2488 27.1964 3.97531
60.3437 29.2701 3.97582
59.2673 15.7238 3.95751
58.8534 25.9719 3.97552
58.9514 18.4596 3.95919
58.4182 21.0051 3.96349
57.8664 23.2723 3.97016
57.4933 24.8617 3.97554
52.1086 8.16501 3.97343
53.044 11.0743 3.9676
56.626 15.826 3.95725
53.7914 13.7583 3.97657
54.3126 16.1051 3.96004
55.0675 67.9302 0.014242
65.1543 49.3615 0.0315663
55.7975 64.8893 0.02715
59.2121 62.3325 0.0330233
56.315 62.0387 0.0242624
63.5536 53.2417 0.0352136
62.1342 50.5611 0.0289096
59.2968 59.5144 0.0407571
59.1181 56.9259 0.0394015
60.8528 54.2236 0.032088
58.9992 55.0795 0.0316314
53.0425 68.9968 2
53.9639 66.0003 2
57.8617 60.8279 2
54.6666 63.1578 2
55.1856 60.5579 2
62.8699 48.5757 2
61.4726 52.4849 2
59.8392 49.888 2
57.9079 58.1913 2
59.0349 53.8337 2
57.8409 55.6901 2
52.0661 66.9898 3.97785
52.9422 64.1874 3.974
56.5989 59.43 3.96045
53.6513 61.5507 3.97201
54.2108 59.2531 3.96657
60.5125 47.7521 3.97438
59.3332 51.9788 3.97121
57.4872 49.447 3.97444
56.6013 56.8858 3.96169
56.7397 53.9725 3.96642
50.1071 67.8484 2
49.3314 65.9035 3.97517
47.4602 66.565 2
46.8859 64.7072 3.97659
45.556 67.0848 3.97918
43.9712 69.5844 3.98501
46.0551 69.1525 2
46.6061 71.3666 3.99044
48.0993 68.5722 0.0180496
48.8017 70.7214 2
49.554 73.0099 4
50.9452 69.9306 0.0117168
51.8506 72.1455 2
54.0858 71.1327 0
53.0622 6.07422 3.98736
55.1033 7.1456 2
56.25 5.02411 4
58.3339 6.3199 2
57.0548 8.33919 0.0206327
60.3285 7.74928 0
65.8926 47.3779 0.029408
67.0815 43.449 0.0256018
64.3302 44.7861 0.023853
65.2657 41.184 0.0234674
67.7178 39.5082 0.0252548
70.1233 37.5234 0.0331614
67.8159 37.5249 2
65.5044 39.3593 2
64.8708 42.9795 2
63.3447 40.8921 2
63.633 46.6405 2
62.3528 44.1341 2
65.6167 37.5054 3.97649
63.4962 39.2514 3.97663
62.8946 42.4965 3.9762
61.9259 40.6542 3.97655
61.495 45.8093 3.97564
60.8907 43.5919 3.97589
67.7573 35.5569 0.0255732
67.1425 31.6465 0.0261494
65.4251 33.9579 0.0236059
64.3655 30.2581 0.0241349
60.7663 14.2501 0.0355604
60.5379 17.1841 0.0422234
59.991 19.9269 0.0380086
63.2582 26.4991 0.025288
61.8402 28.8873 0.0243385
60.6648 25.4712 0.0250915
59.3197 22.4034 0.0311971
58.5439 24.4936 0.0258729
57.8893 14.3876 0.0389494
55.2829 14.7311 0.0404056
54.032 9.15746 0.0293642
54.7748 12.0737 0.0291109
65.6031 35.6842 2
64.8905 32.2015 2
63.9187 34.2873 2
62.1583 30.7217 2
59.2707 15.7205 2
58.9567 18.4572 2
58.4183 21.0059 2
61.2471 27.197 2
60.3438 29.2704 2
57.8579 23.2763 2
58.8518 25.9726 2
57.494 24.8639 2
56.6122 15.8281 2
54.3124 16.0971 2
53.7858 13.7542 2
52.111 8.16612 2
53.046 11.0703 2
63.7067 35.6555 3.97639
62.4838 33.1079 3.9761
60.0546 30.7331 3.97564
59.0313 28.0722 3.97558
57.8296 17.0777 3.95727
57.1926 25.9397 3.97557
57.4484 19.6224 3.95868
56.9574 22.0319 3.96405
56.6885 24.1604 3.97204
50.1093 7.29408 3.98011
51.2224 10.157 3.97092
52.1481 12.8841 3.9651
55.4357 17.0834 3.95653
52.9348 15.3592 3.95996
53.6619 17.1043 3.9589
53.0394 68.9987 0.0131475
53.9622 66.0018 0.02521
62.8714 48.5765 0.0264139
54.6673 63.1564 0.0306528
57.8608 60.8256 0.0342565
55.1881 60.5582 0.024912
61.4726 52.4851 0.0305626
59.8379 49.8883 0.027036
57.905 58.1889 0.0408901
57.8443 55.6914 0.0370414
59.0299 53.833 0.0295447
52.0678 66.9889 2
52.9423 64.1906 2
56.5972 59.4305 2
53.6495 61.551 2
54.2052 59.2548 2
60.5123 47.7514 2
59.3354 51.9788 2
57.4883 49.4466 2
56.5973 56.8891 2
56.737 53.9715 2
51.161 65.1099 3.97564
52.0229 62.4873 3.97089
55.3782 58.1693 3.96061
52.7829 60.046 3.96809
53.5621 58.3894 3.96224
57.6478 46.6663 3.97566
57.0973 51.6246 3.97123
55.6223 49.352 3.97333
55.236 55.6665 3.96194
54.9173 53.2124 3.96211
50.1053 67.8484 0.0201492
49.3323 65.9041 2
48.6085 64.0973 3.97831
47.4592 66.5664 0.0237894
45.5566 67.087 2
46.886 64.7082 2
46.3705 63.0152 3.98181
45.1283 65.1765 3.97834
43.6302 67.4578 3.98084
41.8591 69.8713 3.98476
43.9723 69.5846 2
44.3737 71.8612 3.99078
46.0534 69.1519 0.0160637
46.608 71.3664 2
47.2057 73.7222 4
48.7994 70.7224 0.0105766
49.554 73.0099 2
51.8506 72.1454 0
50.9534 5.13423 3.98966
53.0651 6.07549 2
54.0858 3.86728 4
55.0995 7.14348 0.0164443
56.25 5.02406 2
58.3339 6.31992 0
63.6349 46.6415 0.0245821
64.8736 42.9801 0.0238208
62.3534 44.1343 0.0241179
63.3446 40.8925 0.0233368
65.5073 39.3595 0.0233937
67.8189 37.5248 0.0254428
65.6136 37.5054 2
63.4964 39.2513 2
62.895 42.496 2
61.9275 40.654 2
61.4943 45.8088 2
60.8914 43.5922 2
63.5606 37.4607 3.97651
61.6314 39.3304 3.97684
60.6344 41.8845 3.97672
59.6335 44.6388 3.97573
65.6062 35.6842 0.0236231
64.8936 32.201 0.0242373
63.9193 34.287 0.0237093
62.1591 30.7218 0.024313
59.2673 15.7238 0.0424904
58.9514 18.4596 0.0408101
58.4182 21.0051 0.036507
61.2488 27.1964 0.0246868
60.3437 29.2701 0.0241819
58.8534 25.9719 0.0244781
57.8664 23.2723 0.0298387
57.4933 24.8617 0.0244576
56.626 15.826 0.042748
54.3126 16.1051 0.0399615
53.7914 13.7583 0.0234322
52.1086 8.16501 0.0265728
53.044 11.0743 0.0323972
63.7069 35.6556 2
62.4848 33.1082 2
60.0554 30.733 2
57.8363 17.0745 2
57.4609 19.619 2
56.9551 22.0349 2
59.0312 28.0721 2
56.6953 24.1621 2
57.195 25.9404 2
50.112 7.2917 2
55.4342 17.0879 2
53.6675 17.0986 2
52.9261 15.3589 2
52.15 12.8854 2
51.2242 10.1541 2
61.6747 35.3929 3.97657
59.6669 32.8365 3.97597
57.9508 30.2351 3.97549
56.6601 27.5956 3.97593
56.4684 18.2839 3.95854
55.7113 25.346 3.97494
56.0289 20.7033 3.95938
55.6234 23.0962 3.96466
48.0553 6.53353 3.9847
49.3185 9.35161 3.97513
50.4143 12.0598 3.96924
51.3292 14.6003 3.96264
54.2726 18.064 3.96009
52.2819 17.1772 3.95536
52.0661 66.9898 0.0221486
52.9422 64.1874 0.0260002
60.5125 47.7521 0.0256215
53.6513 61.5507 0.0279946
56.5989 59.43 0.0395494
54.2108 59.2531 0.0334346
59.3332 51.9788 0.0287938
57.4872 49.447 0.0255591
56.6013 56.8858 0.0383054
56.7397 53.9725 0.0335815
51.1612 65.1087 2
52.0223 62.4896 2
55.3747 58.1697 2
52.7811 60.0478 2
53.5586 58.3919 2
57.6481 46.6656 2
57.0953 51.6238 2
55.6201 49.3511 2
55.2339 55.6666 2
54.9164 53.2124 2
50.3314 63.3551 3.97538
51.1986 60.8583 3.97285
54.0814 57.1703 3.96572
52.1983 58.5343 3.96436
55.8497 44.0008 3.976
54.7545 47.6698 3.97543
54.4831 51.1859 3.96532
53.6925 54.3958 3.96432
49.3314 65.9035 0.0248337
48.6074 64.0972 2
47.9431 62.444 3.98425
45.556 67.0848 0.0208216
46.8859 64.7072 0.0234053
43.6305 67.4581 2
46.3704 63.0184 2
45.1294 65.1731 2
45.968 61.5432 3.99158
44.7599 63.4164 3.97652
43.3559 65.4892 3.97822
41.6629 67.6761 3.98023
39.7015 70.0175 3.98411
41.86 69.8718 2
42.1086 72.2053 3.99116
43.9712 69.5844 0.0149935
44.3752 71.8609 2
44.8159 74.2794 4
46.6061 71.3666 0.00956422
47.2057 73.7222 2
49.554 73.0099 0
48.7849 4.32449 3.99049
50.9554 5.13402 2
51.8506 2.85458 4
53.0622 6.07422 0.0126389
54.0858 3.86728 2
56.25 5.02411 0
61.495 45.8093 0.0243572
62.8946 42.4965 0.0238013
60.8907 43.5919 0.0241144
61.9259 40.6542 0.023446
63.4962 39.2514 0.0233683
65.6167 37.5054 0.0235141
63.5608 37.4607 2
61.633 39.3303 2
60.6367 41.8847 2
59.6346 44.6389 2
61.4579 37.4474 3.97688
59.5758 39.8025 3.97675
58.2432 42.8042 3.97586
63.7067 35.6555 0.0236053
62.4838 33.1079 0.0239038
60.0546 30.7331 0.0243596
57.8296 17.0777 0.042728
57.4484 19.6224 0.04132
56.9574 22.0319 0.0359476
59.0313 28.0722 0.0244187
57.1926 25.9397 0.0244312
56.6885 24.1604 0.0279622
55.4357 17.0834 0.0434745
53.6619 17.1043 0.0410991
52.9348 15.3592 0.0400372
50.1093 7.29408 0.0198867
52.1481 12.8841 0.0349028
51.2224 10.157 0.0290796
61.6764 35.3932 2
59.6676 32.8357 2
57.9519 30.2343 2
56.4686 18.2835 2
56.0524 20.698 2
55.632 23.099 2
56.6615 27.5971 2
55.7201 25.35 2
48.0563 6.53371 2
49.3198 9.35036 2
54.281 18.0675 2
52.2715 17.1774 2
51.3277 14.6023 2
50.4164 12.0595 2
59.2068 35.166 3.97653
57.2107 32.3959 3.97543
55.7915 29.5483 3.97563
54.7522 26.8781 3.97506
55.1332 19.3466 3.96193
54.3997 24.3134 3.97249
54.6126 21.7799 3.96079
45.962 5.88739 3.98676
43.374 7.48246 3.9822
47.3526 8.63616 3.97888
48.5868 11.3346 3.97152
49.6736 13.8152 3.96794
50.5585 16.257 3.96115
52.9686 18.8432 3.9655
51.2006 18.2536 3.95834
51.161 65.1099 0.0243587
52.0229 62.4873 0.0291141
57.6478 46.6663 0.0243396
52.7829 60.046 0.0319134
55.3782 58.1693 0.0393911
53.5621 58.3894 0.0377566
57.0973 51.6246 0.0287658
55.6223 49.352 0.0266698
55.236 55.6665 0.0380643
54.9173 53.2124 0.03789
50.3303 63.3546 2
51.1976 60.8584 2
54.0796 57.1715 2
52.1915 58.5357 2
55.8518 44.0021 2
54.7538 47.6689 2
54.4794 51.1848 2
53.6871 54.3965 2
49.5609 61.713 3.97438
54.5578 41.605 3.9738
50.4817 59.2428 3.96606
51.9768 56.3703 3.96321
53.2364 45.301 3.97403
52.5947 49.089 3.96993
52.1978 52.6681 3.95916
48.6085 64.0973 0.0216859
47.9431 62.4417 2
47.2983 60.9724 3.99329
43.6302 67.4578 0.0191619
45.1283 65.1765 0.0216603
46.3705 63.0152 0.0181874
41.6637 67.6755 2
43.358 65.4897 2
45.9681 61.547 2
44.76 63.4145 2
45.7335 60.5889 3.99314
44.4701 61.7885 3.97857
43.1424 63.6946 3.97848
41.5464 65.6276 3.97517
39.6327 67.7536 3.97918
37.526 70.0418 3.98361
39.7022 70.0177 2
39.8162 72.4022 3.99136
41.8591 69.8713 0.0152426
42.1097 72.2056 2
42.3947 74.6792 4
44.3737 71.8612 0.00921827
44.8159 74.2794 2
47.2057 73.7222 0
43.8514 5.36371 3.98619
46.5711 3.64906 3.99119
48.7858 4.32482 2
49.554 1.99015 4
50.9534 5.13423 0.010338
51.8506 2.85453 2
54.0858 3.86728 0
59.6335 44.6388 0.0242747
60.6344 41.8845 0.0232827
61.6314 39.3304 0.0231563
63.5606 37.4607 0.0234855
61.4588 37.4475 2
59.5785 39.8017 2
58.2453 42.8051 2
59.0635 37.5669 3.9774
57.1597 40.5787 3.97737
53.9572 39.6282 3.97547
61.6747 35.3929 0.023428
59.6669 32.8365 0.0240311
57.9508 30.2351 0.0245086
56.4684 18.2839 0.0414644
56.0289 20.7033 0.0406156
55.6234 23.0962 0.0353375
56.6601 27.5956 0.0240671
55.7113 25.346 0.0250634
54.2726 18.064 0.0399123
52.2819 17.1772 0.0446358
51.3292 14.6003 0.0373609
48.0553 6.53353 0.015297
49.3185 9.35161 0.0248699
50.4143 12.0598 0.0307617
59.2088 35.1659 2
45.9627 5.88647 2
43.3743 7.48061 2
57.2108 32.3961 2
55.7905 29.5471 2
55.1216 19.3516 2
54.6495 21.7776 2
54.4016 24.3202 2
54.7542 26.8777 2
47.3533 8.635 2
48.5885 11.3305 2
52.9666 18.8081 2
51.1968 18.2465 2
50.5612 16.2602 2
49.6731 13.8205 2
56.5223 34.8302 3.97699
54.8324 31.6958 3.97523
53.6966 28.664 3.97662
53.1315 25.7954 3.97415
53.7214 20.3287 3.96351
53.1439 22.9711 3.96212
41.4001 7.08539 3.98279
45.3592 8.00196 3.98651
42.8664 9.43115 3.97277
46.6606 10.6772 3.97748
47.7124 13.1475 3.97066
48.8682 15.4862 3.96739
49.9032 17.8239 3.95816
51.485 19.541 3.9835
50.3314 63.3551 0.0246238
51.1986 60.8583 0.0271504
55.8497 44.0008 0.0240029
54.7545 47.6698 0.0245681
52.1983 58.5343 0.0356354
54.0814 57.1703 0.0342812
54.4831 51.1859 0.0346841
53.6925 54.3958 0.0356848
49.5606 61.7109 2
54.555 41.6019 2
50.4784 59.2467 2
51.9827 56.375 2
53.2316 45.2979 2
52.5922 49.0869 2
52.2011 52.6685 2
48.7913 60.162 3.98593
51.2767 42.4735 3.9834
49.6478 57.5361 3.96409
50.2698 54.285 3.96073
50.9046 46.9942 3.97597
50.6189 50.7349 3.95382
46.9885 43.4817 3.96929
47.9431 62.444 0.0157451
47.299 60.9717 2
46.5716 59.7592 3.99329
41.6629 67.6761 0.0197709
43.3559 65.4892 0.0217762
44.7599 63.4164 0.0234821
45.968 61.5432 0.00842163
39.6337 67.7542 2
41.5479 65.6251 2
45.7334 60.5927 2
43.1415 63.6928 2
44.4687 61.7901 2
44.5905 60.2432 3.99411
42.9398 62.0452 3.97555
41.598 63.7955 3.97785
39.6472 65.5925 3.97468
37.5639 67.7347 3.97757
31.699 65.1106 3.97365
33.3939 67.4735 3.97793
35.3344 69.9528 3.98402
37.526 70.0437 2
37.5092 72.4563 3.99187
39.7015 70.0175 0.0158866
39.817 72.4022 2
39.9526 74.9197 4
42.1086 72.2053 0.00883774
42.3947 74.6792 2
44.8159 74.2794 0
41.7364 4.97148 3.98764
43.8519 5.36224 2
44.3268 3.11189 3.99203
46.5718 3.64886 2
47.2057 1.27793 4
48.7849 4.32449 0.00950675
49.554 1.99013 2
51.8506 2.85458 0
58.2432 42.8042 0.024144
59.5758 39.8025 0.023253
61.4579 37.4474 0.0231195
59.0647 37.5669 2
57.1645 40.5802 2
53.9543 39.6366 2
55.8764 37.8731 3.97704
48.3004 41.1876 3.96837
51.8557 39.2518 3.97995
39.4437 6.80872 3.98256
59.2068 35.166 0.0234675
57.2107 32.3959 0.0245734
55.7915 29.5483 0.0243678
55.1332 19.3466 0.0380703
54.6126 21.7799 0.0392083
54.3997 24.3134 0.0275146
54.7522 26.8781 0.0249357
52.9686 18.8432 0.0344965
51.2006 18.2536 0.0416632
50.5585 16.257 0.0388466
45.962 5.88739 0.0132413
49.6736 13.8152 0.0320625
47.3526 8.63616 0.0211197
48.5868 11.3346 0.0284821
43.374 7.48246 0.0177999
56.5255 34.8275 2
41.4005 7.08565 2
45.3596 8.00081 2
42.8661 9.43024 2
54.8343 31.6962 2
53.6949 28.6675 2
53.723 20.3365 2
53.1269 22.9767 2
53.1309 25.7943 2
46.6613 10.6721 2
47.7142 13.1454 2
51.4922 19.5371 2
49.8994 17.8287 2
48.8661 15.5089 2
53.7764 34.0385 3.97496
52.5139 30.7639 3.97501
51.8123 27.5296 3.97476
51.6377 24.4214 3.97583
52.1081 21.2938 3.98046
41.0133 9.05945 3.97633
44.7272 10.0041 3.9863
42.455 10.9165 4.00717
45.9746 12.75 3.96556
47.6316 14.6695 3.96635
48.0127 17.0734 3.96483
49.705 19.9359 3.9845
49.5609 61.713 0.0256174
50.4817 59.2428 0.0339418
54.5578 41.605 0.0261985
53.2364 45.301 0.0259732
52.5947 49.089 0.0300738
51.9768 56.3703 0.0367887
52.1978 52.6681 0.0408404
48.7891 60.1584 2
51.289 42.4911 2
49.6459 57.5347 2
50.2723 54.2885 2
50.9068 46.9945 2
50.6239 50.7347 2
46.9978 43.5206 2
47.8991 58.669 3.99049
48.9859 45.0289 3.98182
48.3859 55.813 3.95547
48.7084 52.4297 3.97741
48.9605 48.8048 3.96981
44.6965 39.7406 3.83679
45.219 42.4127 3.88046
45.5216 45.4617 3.98279
42.5556 40.9705 3.62973
41.4156 41.6693 3.42767
47.2983 60.9724 0.00671433
46.569 59.761 2
45.4077 58.7533 3.99548
39.6327 67.7536 0.0208243
41.5464 65.6276 0.0248321
43.1424 63.6946 0.0215164
44.4701 61.7885 0.0214251
45.7335 60.5889 0.00685511
41.5985 63.7915 2
37.5645 67.7372 2
39.6493 65.593 2
44.5919 60.2453 2
42.9377 62.0466 2
41.7444 62.4521 3.97708
42.4542 59.9402 3.9856
39.8937 63.5284 3.97683
37.6419 65.4887 3.97403
35.4644 67.6448 3.97757
33.5769 65.3213 3.9742
31.9622 63.2653 3.97765
29.8875 64.6986 3.97903
31.6983 65.1101 2
31.3793 67.184 3.97827
33.3931 67.4751 2
33.1582 69.7464 3.984
35.3337 69.9544 2
35.1962 72.3712 3.992
37.526 70.0418 0.0163938
37.5095 72.4569 2
37.5 75 4
39.8162 72.4022 0.00864196
39.9526 74.9197 2
42.3947 74.6792 0
39.6247 4.71899 3.98864
41.7365 4.97131 2
42.0634 2.71887 3.99248
43.8514 5.36371 0.0138123
44.3271 3.11116 2
44.8158 0.721173 4
46.5711 3.64906 0.00881206
47.2057 1.27779 2
49.554 1.99015 0
57.1597 40.5787 0.0226307
59.0635 37.5669 0.0225998
53.9572 39.6282 0.0245279
48.324 41.2011 2
55.8813 37.8723 2
51.8502 39.2249 2
52.7098 36.616 3.97704
46.2309 40.2667 3.88927
49.2293 38.4941 3.97986
37.5177 6.67736 3.98492
39.4445 6.80772 2
39.2112 8.70254 3.98046
35.9437 8.49901 3.98243
56.5223 34.8302 0.0230081
54.8324 31.6958 0.024769
53.6966 28.664 0.0233826
53.7214 20.3287 0.0364946
53.1439 22.9711 0.0378843
53.1315 25.7954 0.0258461
51.485 19.541 0.0165009
49.9032 17.8239 0.0418395
48.8682 15.4862 0.0326106
45.3592 8.00196 0.0134905
47.7124 13.1475 0.0293362
46.6606 10.6772 0.022516
41.4001 7.08539 0.017206
42.8664 9.43115 0.0272306
53.7718 34.0289 2
41.014 9.0616 2
44.7256 10.0028 2
42.4569 10.9199 2
52.5042 30.7617 2
51.8254 27.5298 2
52.1096 21.2999 2
51.6187 24.4227 2
45.977 12.7451 2
47.6248 14.6416 2
49.721 19.9533 2
48.0086 17.0795 2
51.249 32.9831 3.98054
50.3464 29.4939 3.9762
50.1227 26.0196 3.97051
49.6709 22.545 3.98342
40.5591 11.6206 3.98527
43.8292 11.9152 3.96987
45.7516 15.5313 3.99081
47.4103 19.5597 3.98186
45.1393 37.4858 3.83827
48.7913 60.162 0.0140703
49.6478 57.5361 0.0359104
51.2767 42.4735 0.0165972
50.9046 46.9942 0.0240333
50.6189 50.7349 0.0461751
50.2698 54.285 0.0392689
46.9885 43.4817 0.0307144
47.8946 58.6738 2
49.0013 45.0411 2
48.3824 55.8149 2
48.7109 52.4354 2
48.9657 48.8077 2
44.8114 39.7677 2
45.2489 42.4328 2
45.5313 45.4822 2
42.6205 41.0281 2
41.4577 41.6946 2
46.713 57.2728 3.98297
43.2439 39.3485 3.62365
41.7997 40.6322 3.42069
47.2063 47.0464 3.98337
46.8872 54.109 3.95892
47.0679 50.5667 3.97722
44.1147 47.0917 3.98761
43.8739 41.7618 3.83713
44.0295 44.2001 3.87003
41.681 42.3203 3.68034
40.4898 41.9541 3.38119
46.5716 59.7592 0.00671037
45.4066 58.7525 2
43.8149 57.6251 3.98275
37.5639 67.7347 0.0224283
39.6472 65.5925 0.0253189
41.598 63.7955 0.0221516
42.9398 62.0452 0.0244533
44.5905 60.2432 0.00588954
35.4642 67.6473 2
41.7421 62.4553 2
39.8929 63.5291 2
37.6432 65.4919 2
42.4566 59.9402 2
40.6145 61.5927 3.98464
40.4183 58.1119 3.98577
37.8373 63.1848 3.97244
35.5732 65.4122 3.97626
33.5767 65.3213 2
31.9647 63.2681 2
33.6304 63.3126 3.97696
30.3828 62.8291 3.98165
32.1335 61.9683 3.9881
26.889 61.4372 3.98491
28.0701 64.1273 3.98145
29.8874 64.6982 2
29.4095 66.7475 3.97759
31.699 65.1106 0.0263507
31.3785 67.1842 2
31.0162 69.4118 3.98358
33.3939 67.4735 0.0220654
33.1571 69.7477 2
32.8945 72.1456 3.99135
35.3344 69.9528 0.015977
35.1957 72.372 2
35.0474 74.9194 4
37.5092 72.4563 0.00812749
37.5 75 2
39.9526 74.9197 0
35.6221 6.72921 3.98349
37.5246 4.61791 3.98925
39.6247 4.71794 2
39.79 2.47541 3.99268
41.7364 4.97148 0.0123601
42.0633 2.71868 2
42.3946 0.32156 4
44.3268 3.11189 0.00796902
44.8159 0.72056 2
47.2057 1.27793 0
48.3004 41.1876 0.0316302
55.8764 37.8731 0.0229551
51.8557 39.2518 0.0200482
46.2531 40.2738 2
49.229 38.4821 2
52.7372 36.6372 2
50.0405 35.5508 3.97576
46.8751 37.7385 3.88793
44.7259 35.2161 3.8375
42.606 33.9721 3.62936
41.4544 33.2713 3.42661
37.4592 8.53765 3.98408
37.5184 6.67741 2
39.4437 6.80872 0.0174409
39.2128 8.7014 2
38.9739 10.139 3.98826
35.8995 9.7821 3.98037
34.1538 8.8314 3.98023
35.9449 8.4975 2
53.7764 34.0385 0.0250374
52.5139 30.7639 0.0249886
51.8123 27.5296 0.0252361
52.1081 21.2938 0.0195356
51.6377 24.4214 0.0241714
49.705 19.9359 0.0154984
48.0127 17.0734 0.0351688
47.6316 14.6695 0.033647
44.7272 10.0041 0.0136954
45.9746 12.75 0.034436
41.0133 9.05945 0.0236651
42.455 10.9165 -0.00716665
51.2614 32.973 2
40.564 11.6268 2
43.8298 11.9092 2
50.359 29.4962 2
50.1216 26.0318 2
49.6534 22.5083 2
45.7363 15.4636 2
47.4199 19.5963 2
48.8427 31.575 3.9838
48.4724 27.791 3.97453
48.906 24.655 3.98032
47.0142 22.3406 3.99228
38.2975 12.7596 3.97798
42.0751 14.3523 3.98327
44.7298 18.6559 3.97528
43.6465 37.4793 3.63926
45.2408 37.4823 2
47.8991 58.669 0.00950866
48.3859 55.813 0.0445256
48.9859 45.0289 0.0181804
48.9605 48.8048 0.0301944
48.7084 52.4297 0.0225857
44.6965 39.7406 0.163207
45.219 42.4127 0.119543
45.5216 45.4617 0.0172095
42.5556 40.9705 0.37027
41.4156 41.6693 0.57233
46.7098 57.2787 2
43.3262 39.3728 2
41.8138 40.6446 2
47.2143 47.0479 2
46.882 54.1132 2
47.0701 50.5784 2
44.1544 47.0961 2
43.9439 41.8044 2
44.0865 44.2311 2
41.7315 42.3935 2
40.5293 41.9739 2
45.2367 55.8401 4.00107
42.1395 39.1519 3.43103
40.3762 40.5243 3.52229
45.4647 48.6916 4.00196
45.1505 52.362 3.98781
42.9005 48.0775 3.99104
42.7665 45.7177 3.86965
42.8486 43.5223 3.82536
40.6616 43.2727 3.64666
39.1513 42.217 3.44934
45.4077 58.7533 0.00452041
43.8119 57.6363 2
42.0354 56.1935 3.99097
35.4644 67.6448 0.0224254
37.6419 65.4887 0.02597
39.8937 63.5284 0.0231713
41.7444 62.4521 0.022916
42.4542 59.9402 0.0144031
35.5742 65.4161 2
40.6137 61.591 2
37.8377 63.1831 2
40.4175 58.1185 2
38.8995 56.3294 3.99492
38.2435 60.2745 3.98387
35.6075 63.1794 3.97209
33.5769 65.3213 0.0258003
31.9622 63.2653 0.0223468
33.6332 63.3151 2
30.3845 62.832 2
32.1361 61.9706 2
28.6907 62.169 3.98042
33.3521 61.475 3.98126
31.0863 61.1976 3.99095
27.6121 59.5338 3.97773
23.8504 59.0018 3.98871
25.0635 60.8021 3.97762
26.89 61.4397 2
26.2409 63.4576 3.97413
28.0693 64.1251 2
27.4669 66.1675 3.9767
29.8875 64.6986 0.0209669
29.4083 66.7448 2
28.9088 68.9374 3.98239
31.3793 67.184 0.0217292
31.0148 69.4116 2
30.6176 71.7772 3.99054
33.1582 69.7464 0.015999
32.8933 72.1461 2
32.6054 74.6784 4
35.1962 72.3712 0.00799682
35.0474 74.9197 2
37.5 75 0
33.7251 6.98559 3.9821
35.4368 4.68795 3.98863
35.6229 6.72849 2
37.5158 2.38785 3.99285
37.5246 4.61748 2
39.6247 4.71899 0.0113573
39.7896 2.47485 2
39.9526 0.0806499 4
42.0634 2.71887 0.00752147
42.3947 0.320817 2
44.8158 0.721173 0
43.2696 35.6039 3.63003
41.8284 34.3034 3.40464
46.2309 40.2667 0.110727
49.2293 38.4941 0.020139
52.7098 36.616 0.0229583
46.8729 37.7213 2
50.0539 35.5544 2
44.8208 35.1975 2
42.6589 33.9129 2
41.4825 33.2466 2
47.105 34.3949 3.93592
43.9294 33.188 3.8315
41.7371 32.6237 3.67718
40.5173 32.9967 3.38047
37.3108 10.6351 3.98131
37.4607 8.53868 2
37.5177 6.67736 0.015083
39.2112 8.70254 0.0195355
38.9786 10.1386 2
34.7569 10.3931 3.97796
35.9035 9.77824 2
32.3813 9.37897 3.97579
34.1534 8.82768 2
35.9437 8.49901 0.0175667
51.249 32.9831 0.0194589
50.3464 29.4939 0.0237973
50.1227 26.0196 0.0294857
49.6709 22.545 0.0165786
47.4103 19.5597 0.0181416
45.7516 15.5313 0.0091935
43.8292 11.9152 0.0301277
40.5591 11.6206 0.0147307
48.8598 31.5569 2
38.3005 12.7556 2
42.0821 14.366 2
48.4689 27.7904 2
48.9028 24.66 2
47.0032 22.3434 2
44.7418 18.7279 2
46.7934 29.7955 3.98187
46.591 25.3678 3.97687
44.1801 21.668 3.98342
36.587 12.9752 3.9756
38.6737 14.8794 3.97697
41.7052 17.9845 3.97875
42.3133 37.4554 3.46502
43.7166 37.4807 2
45.1393 37.4858 0.161725
46.713 57.2728 0.0170254
46.8872 54.109 0.0410766
47.2063 47.0464 0.0166318
47.0679 50.5667 0.0227833
43.2439 39.3485 0.376352
43.8739 41.7618 0.162868
44.0295 44.2001 0.129973
44.1147 47.0917 0.0123914
41.681 42.3203 0.319658
41.7997 40.6322 0.579312
40.4898 41.9541 0.618808
45.2329 55.8444 2
42.1504 39.16 2
40.4311 40.5138 2
45.4662 48.7133 2
45.1456 52.3647 2
42.9366 48.0956 2
42.8313 45.7783 2
42.8891 43.5559 2
40.7155 43.3501 2
39.1405 42.2412 2
43.555 54.2878 4.00055
40.4663 38.996 3.5481
39.047 40.6076 3.49461
43.218 50.1734 4.00308
41.5604 47.2148 3.92011
41.4704 44.812 3.83008
39.3598 43.923 3.61763
37.5094 42.3509 3.50255
43.8149 57.6251 0.0172475
42.0424 56.1815 2
40.3467 54.7505 3.99439
35.5732 65.4122 0.0237365
37.8373 63.1848 0.027557
40.6145 61.5927 0.0153593
40.4183 58.1119 0.0142309
35.6094 63.1756 2
38.2403 60.273 2
38.9022 56.3109 2
37.9733 55.0092 3.99509
36.9224 57.5313 3.99215
35.3657 60.8744 3.98316
33.6304 63.3126 0.0230417
30.3828 62.8291 0.0183539
32.1335 61.9683 0.011904
33.354 61.4745 2
28.6919 62.1738 2
31.0887 61.2028 2
29.435 60.2579 3.9803
32.37 59.6712 3.99571
28.09 58.3234 4.01704
27.6129 59.5327 2
25.4402 58.5248 3.97795
22.8443 58.157 3.9703
23.436 60.2684 3.97553
23.8518 59.0023 2
25.065 60.8022 2
24.4487 62.7309 3.97604
26.889 61.4372 0.0150943
26.241 63.4555 2
25.552 65.4772 3.97612
28.0701 64.1273 0.0185469
27.4665 66.1685 2
26.8389 68.3233 3.9813
29.4095 66.7475 0.0224053
28.9077 68.9358 2
28.3729 71.2627 3.98965
31.0162 69.4118 0.0164183
30.616 71.7768 2
30.1842 74.2788 4
32.8945 72.1456 0.00864754
32.6053 74.6792 2
35.0474 74.9194 0
31.7896 7.42571 3.98008
33.3493 4.92783 3.98746
33.7252 6.98349 2
35.2463 2.46364 3.9929
35.4366 4.68764 2
35.6221 6.72921 0.0165078
37.5 0 4
37.5151 2.38758 2
37.5246 4.61791 0.0107479
39.79 2.47541 0.00731707
39.9526 0.0802889 2
42.3946 0.32156 0
42.135 35.7565 3.40476
43.3608 35.5782 2
40.428 34.4079 3.52513
41.8324 34.286 2
46.8751 37.7385 0.112071
50.0405 35.5508 0.0242403
44.7259 35.2161 0.162495
42.606 33.9721 0.37064
41.4544 33.2713 0.573388
47.1376 34.4056 2
43.9855 33.1413 2
41.7881 32.5524 2
40.5521 32.9776 2
45.2498 31.8357 3.89175
42.9072 31.4251 3.8174
40.7093 31.6739 3.64782
39.1639 32.752 3.44568
35.6975 11.7919 3.97499
37.317 10.6361 2
37.4592 8.53765 0.0159184
38.9739 10.139 0.0117389
33.1029 11.2331 3.97211
34.758 10.3855 2
35.8995 9.7821 0.0196275
30.4874 10.0311 3.97624
32.3807 9.37784 2
34.1538 8.8314 0.0197707
48.8427 31.575 0.0161954
48.4724 27.791 0.0254662
48.906 24.655 0.0196787
47.0142 22.3406 0.00771504
44.7298 18.6559 0.0247185
42.0751 14.3523 0.0167333
38.2975 12.7596 0.0220234
36.5844 12.9543 2
46.7858 29.7377 2
38.6732 14.8621 2
41.701 17.9863 2
46.5928 25.3539 2
44.1593 21.6443 2
44.8107 27.9347 3.99297
43.4845 24.3045 4.02299
41.2613 21.0099 3.99386
35.7706 14.8162 3.98197
38.6489 17.7154 3.98572
40.5219 37.4289 3.56944
42.3299 37.4605 2
43.6465 37.4793 0.360737
45.2367 55.8401 -0.00107145
45.1505 52.362 0.0121907
45.4647 48.6916 -0.00195938
42.1395 39.1519 0.568972
42.8486 43.5223 0.174645
42.7665 45.7177 0.130349
42.9005 48.0775 0.00896063
40.6616 43.2727 0.353344
40.3762 40.5243 0.47771
39.1513 42.217 0.550665
43.5511 54.2813 2
40.4906 38.9979 2
39.0403 40.6079 2
43.2096 50.1915 2
41.5553 47.2445 2
41.5001 44.856 2
37.5046 42.3747 2
39.3785 43.9994 2
41.7071 52.7387 4.0002
39.0565 39.048 3.4934
37.5084 40.6577 3.54196
35.8711 42.2269 3.44536
40.7278 49.3093 3.99239
39.6648 45.5067 3.79241
37.5037 44.199 3.66133
42.0354 56.1935 0.00903283
40.3485 54.7587 2
38.71 53.5189 3.99684
35.6075 63.1794 0.0279105
38.2435 60.2745 0.0161251
38.8995 56.3294 0.00508234
35.3644 60.8595 2
36.9238 57.5414 2
37.9687 55.0023 2
36.3112 55.1 3.9982
34.4947 58.4563 3.99416
33.3521 61.475 0.0187397
28.6907 62.169 0.0195769
31.0863 61.1976 0.00905306
32.3685 59.6747 2
29.4364 60.259 2
30.3539 57.7602 3.99083
28.0919 58.3212 2
27.0736 56.7636 3.96948
27.6121 59.5338 0.0222726
25.4418 58.5247 2
23.9904 56.7087 3.96003
21.4858 57.2912 3.9577
22.0393 59.5447 3.9778
22.846 58.1581 2
22.7577 61.9627 3.97271
23.4373 60.2688 2
23.8504 59.0018 0.0112867
25.0635 60.8021 0.0223812
24.4492 62.731 2
23.6886 64.6897 3.97343
26.2409 63.4576 0.0258657
25.5522 65.4787 2
24.8112 67.5849 3.98032
27.4669 66.1675 0.0232954
26.8375 68.3253 2
26.1684 70.6028 3.98891
28.9088 68.9374 0.0176051
28.3713 71.2618 2
27.7943 73.7221 4
30.6176 71.7772 0.00946152
30.1841 74.2794 2
32.6054 74.6784 0
29.8126 8.00254 3.9781
31.2547 5.33491 3.98622
31.7893 7.42436 2
32.9824 2.70187 3.99238
33.3487 4.92672 2
33.7251 6.98559 0.0179033
35.0474 0.080333 4
35.2454 2.46362 2
35.4368 4.68795 0.0113699
37.5 0 2
37.5158 2.38785 0.00715365
39.9526 0.0806499 0
40.5426 35.898 3.56101
42.1524 35.7557 2
43.2696 35.6039 0.369972
28.5479 10.7055 3.97664
39.0591 34.3629 3.48798
40.4417 34.4096 2
41.8284 34.3034 0.595361
47.105 34.3949 0.0640753
43.9294 33.188 0.168501
41.7371 32.6237 0.32282
40.5173 32.9967 0.619528
45.2804 31.8195 2
42.9503 31.3867 2
40.7588 31.5963 2
39.1612 32.7237 2
43.6805 30.0884 3.87784
41.4991 30.1269 3.83009
39.3822 31.033 3.61852
37.5309 32.6291 3.50021
34.1024 12.9569 3.97509
35.6986 11.7798 2
37.3108 10.6351 0.0186925
31.1933 12.0039 3.97739
33.1047 11.231 2
34.7569 10.3931 0.0220427
30.4848 10.0261 2
32.3813 9.37897 0.0242094
46.7934 29.7955 0.0181347
46.591 25.3678 0.0231257
36.587 12.9752 0.0244028
44.1801 21.668 0.0165794
41.7052 17.9845 0.0212487
38.6737 14.8794 0.0230298
35.7736 14.8199 2
44.8071 27.9388 2
38.6518 17.7128 2
41.2455 20.9902 2
43.4742 24.2832 2
33.6211 15.9157 3.99044
42.6234 26.7612 3.97769
40.7678 23.634 3.99391
38.3737 20.5059 3.99346
35.8435 17.5916 3.98691
39.0781 37.4841 3.49808
40.536 37.4355 2
42.3133 37.4554 0.534982
43.555 54.2878 -0.000548971
43.218 50.1734 -0.00308364
40.4663 38.996 0.4519
41.4704 44.812 0.169919
41.5604 47.2148 0.079889
39.3598 43.923 0.382371
39.047 40.6076 0.505385
37.5094 42.3509 0.497445
41.6928 52.7351 2
39.0446 39.0374 2
37.5018 40.6536 2
40.7094 49.3182 2
35.8777 42.2497 2
39.6881 45.5735 2
37.5009 44.2777 2
39.7009 51.5123 4.00092
37.5132 39.0465 3.54023
35.9807 40.6245 3.49554
34.5261 41.9747 3.38266
35.6497 43.9409 3.6146
38.6375 48.1659 3.9282
37.5292 45.8034 3.82717
40.3467 54.7505 0.00560569
38.7079 53.5303 2
36.777 52.8654 3.997
35.3657 60.8744 0.0168358
36.9224 57.5313 0.00784706
37.9733 55.0092 0.00491309
34.493 58.4637 2
36.3137 55.0901 2
33.2851 55.296 3.99313
32.37 59.6712 0.00428926
29.435 60.2579 0.0196989
30.3553 57.7564 2
28.8784 55.2697 3.99252
28.09 58.3234 -0.0170379
27.0758 56.7614 2
25.5438 55.0378 3.95431
22.0729 55.2112 3.96062
25.4402 58.5248 0.0220482
23.9928 56.7098 2
20.3668 56.921 3.96243
20.7098 58.6959 3.96235
21.4882 57.2929 2
21.1942 61.0949 3.97269
22.0404 59.5453 2
22.8443 58.157 0.0296953
21.906 63.8022 3.97322
22.7588 61.9641 2
23.436 60.2684 0.0244682
24.4487 62.7309 0.0239638
23.6887 64.6917 2
22.8398 66.7272 3.9773
25.552 65.4772 0.0238783
24.8099 67.5853 2
24.0127 69.8047 3.9887
26.8389 68.3233 0.0186995
26.166 70.603 2
25.446 73.0099 4
28.3729 71.2627 0.0103462
27.7943 73.7222 2
30.1842 74.2788 0
27.8226 8.66247 3.97885
29.157 5.88213 3.98402
29.8111 7.99879 2
30.728 3.09878 3.99196
31.2539 5.3336 2
31.7896 7.42571 0.0199217
32.6053 0.320823 4
32.9811 2.7016 2
33.3493 4.92783 0.0125371
35.0474 0.0802903 2
35.2463 2.46364 0.00709506
37.5 0 0
39.02 35.9258 3.50606
40.5235 35.8951 2
42.135 35.7565 0.595239
28.5453 10.7023 2
26.6283 11.4048 3.9763
29.2344 12.6545 3.98098
37.533 34.3271 3.54219
39.0827 34.3771 2
40.428 34.4079 0.474873
45.2498 31.8357 0.10825
42.9072 31.4251 0.182603
40.7093 31.6739 0.352179
39.1639 32.752 0.554323
43.7075 30.059 2
41.5354 30.085 2
39.3955 30.9574 2
37.5357 32.6006 2
41.9154 28.7999 3.85902
39.6674 29.4355 3.81304
37.5264 30.7747 3.66427
35.8862 32.7555 3.45199
31.9343 14.5011 3.98241
34.103 12.9619 2
35.6975 11.7919 0.0250051
31.1929 11.9949 2
33.1029 11.2331 0.0278899
30.4874 10.0311 0.0237599
44.8107 27.9347 0.00703049
43.4845 24.3045 -0.0229852
35.7706 14.8162 0.0180301
41.2613 21.0099 0.0061426
38.6489 17.7154 0.0142833
33.6118 15.8998 2
35.8381 17.5767 2
42.6901 26.7346 2
38.3609 20.5496 2
40.7556 23.6261 2
33.5566 17.46 3.98771
40.2099 26.1115 3.96591
38.0222 23.3754 3.99701
35.5385 20.2855 3.99644
37.5239 37.4798 3.55664
39.0567 37.4742 2
40.5219 37.4289 0.430562
41.7071 52.7387 -0.000202255
40.7278 49.3093 0.00760909
39.0565 39.048 0.506605
39.6648 45.5067 0.20759
37.5037 44.199 0.338674
37.5084 40.6577 0.458039
35.8711 42.2269 0.554636
39.6836 51.5086 2
37.5122 39.0461 2
35.9753 40.6103 2
38.6572 48.2287 2
34.4931 41.994 2
35.6351 44.0101 2
37.5152 45.8624 2
37.6833 50.4833 3.99136
36.0053 39.059 3.50709
34.636 40.5541 3.52791
33.5927 41.6943 3.43019
34.3668 43.2924 3.63895
35.3003 45.5466 3.81631
36.9188 47.7802 3.89049
38.71 53.5189 0.00315677
36.7721 52.8186 2
34.4892 52.181 4.00073
34.4947 58.4563 0.00584314
36.3112 55.1 0.00180292
33.2873 55.3025 2
30.7267 53.2262 3.99968
30.3539 57.7602 0.00917007
28.8795 55.2654 2
27.1975 53.3136 3.95628
27.0736 56.7636 0.030522
25.5464 55.0385 2
23.9435 53.315 3.95392
20.9219 53.0404 3.95857
20.1738 55.7011 3.96113
22.0724 55.2131 2
23.9904 56.7087 0.0399717
19.5378 57.7964 3.96115
20.3635 56.9236 2
19.7347 60.1286 3.97198
20.7062 58.6988 2
21.4858 57.2912 0.0423036
20.2231 62.8022 3.97192
21.1957 61.0967 2
22.0393 59.5447 0.0221984
20.942 65.7528 3.97427
21.9063 63.8065 2
22.7577 61.9627 0.027288
23.6886 64.6897 0.0265679
22.8387 66.7266 2
21.9153 68.872 3.98773
24.8112 67.5849 0.0196833
24.0097 69.8035 2
23.1494 72.1454 4
26.1684 70.6028 0.0110863
25.446 73.0099 2
27.7943 73.7221 0
25.8624 9.39278 3.97691
27.0717 6.54673 3.9825
27.82 8.66026 2
28.4905 3.64475 3.99092
29.1554 5.88014 2
29.8126 8.00254 0.0218976
30.1841 0.720592 4
30.726 3.09861 2
31.2547 5.33491 0.0137821
32.6053 0.320817 2
32.9824 2.70187 0.00762224
35.0474 0.080333 0
37.5183 35.9191 3.53247
39.0013 35.9086 2
40.5426 35.898 0.438989
24.7872 12.0869 3.97569
23.7748 14.4249 3.97945
28.5479 10.7055 0.0233574
26.6241 11.4001 2
29.2336 12.6523 2
27.3019 13.3942 3.9749
29.8021 14.212 3.98594
35.9847 34.3631 3.49892
37.5431 34.3274 2
39.0591 34.3629 0.512022
37.5309 32.6291 0.49979
43.6805 30.0884 0.12216
41.4991 30.1269 0.169915
39.3822 31.033 0.381484
41.953 28.727 2
39.6917 29.3726 2
37.5282 30.6995 2
35.8947 32.7327 2
39.8343 28.062 3.86276
37.4972 29.1634 3.81804
35.6784 31.0528 3.62076
34.5387 33.0129 3.38513
30.9567 16.8553 3.9975
31.9272 14.4879 2
34.1024 12.9569 0.0249121
31.1933 12.0039 0.0226127
42.6234 26.7612 0.0223083
40.7678 23.634 0.00609209
33.6211 15.9157 0.00955554
35.8435 17.5916 0.0130911
38.3737 20.5059 0.00653998
33.5465 17.4679 2
35.5433 20.3 2
40.2625 26.0761 2
38.0198 23.3557 2
32.9197 19.8934 3.99638
37.6887 25.7406 3.96224
35.2976 23.0349 4.00737
35.9803 37.4748 3.50141
37.5107 37.4791 2
39.0781 37.4841 0.501917
39.7009 51.5123 -0.000915502
38.6375 48.1659 0.0718036
37.5132 39.0465 0.45977
37.5292 45.8034 0.172833
35.6497 43.9409 0.385397
35.9807 40.6245 0.504457
34.5261 41.9747 0.617341
37.6607 50.5248 2
36.0353 39.046 2
34.5864 40.5578 2
36.9182 47.8434 2
33.5511 41.7217 2
34.3078 43.366 2
35.2799 45.6039 2
35.5697 49.6864 3.98261
34.5298 39.048 3.55689
33.2143 40.665 3.41061
33.3257 42.3426 3.68453
33.5834 44.8232 3.8184
34.5629 46.9422 3.86373
36.777 52.8654 0.00299977
34.4715 52.2006 2
32.2995 51.0062 3.99935
33.2851 55.296 0.00687296
30.7314 53.2271 2
28.8157 51.4036 3.98059
28.8784 55.2697 0.00747826
27.1997 53.3124 2
25.5407 51.5478 3.95332
25.5438 55.0378 0.045693
23.9464 53.3219 2
22.5013 51.5984 3.95397
19.8091 51.424 3.96285
19.2959 54.1485 3.96173
20.9272 53.0382 2
18.6337 56.6102 3.96248
20.1725 55.7027 2
22.0729 55.2112 0.0393841
18.4128 59.0373 3.96141
19.5364 57.7984 2
20.3668 56.921 0.0375687
18.637 61.7003 3.97213
19.7349 60.1321 2
20.7098 58.6959 0.0376506
19.1332 64.6567 3.97309
20.2238 62.8061 2
21.1942 61.0949 0.0273069
19.8896 67.8076 3.98493
20.9411 65.7515 2
21.906 63.8022 0.0267818
22.8398 66.7272 0.0226982
21.9118 68.8699 2
20.9142 71.1327 4
24.0127 69.8047 0.0113046
23.1494 72.1455 2
25.446 73.0099 0
23.1099 12.8373 3.97716
23.9751 10.1807 3.97474
25.0253 7.31816 3.98044
25.8587 9.39069 2
26.2824 4.32898 3.98989
27.0694 6.54592 2
27.8226 8.66247 0.0211537
27.7943 1.27781 4
28.4876 3.64495 2
29.157 5.88213 0.0159813
30.1841 0.720551 2
30.728 3.09878 0.00804041
32.6053 0.320823 0
35.9779 35.9084 3.49559
37.5473 35.9286 2
39.02 35.9258 0.493944
24.7814 12.1033 2
23.7745 14.4308 2
22.5138 15.1172 3.97705
25.3737 13.9683 3.97237
24.0699 15.6825 3.98973
26.6283 11.4048 0.023704
29.2344 12.6545 0.0190236
27.3058 13.3866 2
29.794 14.2117 2
28.3956 15.9771 3.98926
34.6564 34.4375 3.52151
35.9894 34.3627 2
37.533 34.3271 0.457811
35.8862 32.7555 0.548013
37.5264 30.7747 0.335734
41.9154 28.7999 0.140984
39.6674 29.4355 0.186963
39.8735 28.0127 2
37.4968 29.1069 2
35.6618 30.9735 2
34.4998 32.9953 2
37.6223 27.796 3.86639
35.3641 29.4559 3.81215
34.3623 31.6946 3.6453
33.6053 33.2933 3.42802
30.2619 19.5017 3.97807
30.9437 16.8459 2
31.9343 14.5011 0.017586
40.2099 26.1115 0.0340929
38.0222 23.3754 0.00299219
33.5566 17.46 0.0122948
35.5385 20.2855 0.00355839
32.9239 19.9159 2
35.275 23.0194 2
37.7141 25.724 2
32.5063 22.6383 3.99857
35.1714 25.6335 3.9856
34.4992 37.5044 3.57721
35.9776 37.49 2
37.5239 37.4798 0.443357
37.6833 50.4833 0.00863653
36.9188 47.7802 0.109506
36.0053 39.059 0.492912
35.3003 45.5466 0.183693
34.3668 43.2924 0.361045
34.636 40.5541 0.472086
33.5927 41.6943 0.569805
35.5549 49.6983 2
34.5163 39.0498 2
33.2021 40.6762 2
34.5143 47.007 2
33.2797 42.4159 2
33.5416 44.8696 2
33.4792 48.804 3.97303
32.8903 39.2002 3.41036
32.4356 40.9968 3.63045
32.1533 43.5443 3.82381
32.7915 45.9397 3.86251
34.4892 52.181 -0.00072678
32.323 51.0076 2
30.3809 49.5383 4.00377
30.7267 53.2262 0.000317428
28.8206 51.4077 2
27.0811 49.7676 3.97408
27.1975 53.3136 0.0437221
25.5433 51.5502 2
23.9692 49.9517 3.9666
23.9435 53.315 0.0460787
22.5072 51.595 2
21.1518 50.0794 3.96555
18.5711 50.1338 3.97177
18.3362 52.6102 3.96513
19.8023 51.424 2
17.7445 55.2027 3.96255
19.2959 54.1482 2
20.9219 53.0404 0.0414265
17.2539 57.7862 3.96094
18.632 56.6115 2
20.1738 55.7011 0.0388665
17.1501 60.495 3.96419
18.4129 59.0388 2
19.5378 57.7964 0.0388531
17.4174 63.4297 3.9679
18.6381 61.7029 2
19.7347 60.1286 0.0280161
17.9456 66.6155 3.98259
19.1325 64.657 2
20.2231 62.8022 0.0280795
18.75 69.9759 4
19.886 67.8044 2
20.942 65.7528 0.0257319
21.9153 68.872 0.0122665
20.9142 71.1327 2
23.1494 72.1454 0
21.6075 13.6748 3.97165
22.1965 11.0541 3.97108
23.1084 12.838 2
23.0423 8.18531 3.97694
23.9737 10.1853 2
24.1202 5.14381 3.98955
25.0218 7.31708 2
25.8624 9.39278 0.023091
25.446 1.99014 4
26.2787 4.33003 2
27.0717 6.54673 0.0175011
27.7943 1.27778 2
28.4905 3.64475 0.00907692
30.1841 0.720592 0
34.5724 35.9494 3.54811
35.9942 35.9229 2
37.5183 35.9191 0.467535
21.3516 15.9191 3.96807
24.7872 12.0869 0.0243061
23.7748 14.4249 0.0205481
25.3728 13.9432 2
22.5134 15.1082 2
24.0742 15.6895 2
23.3254 16.3251 3.96454
25.4277 16.1541 3.98769
27.3019 13.3942 0.0250995
29.8021 14.212 0.0140604
28.3866 15.9972 2
27.5001 18.9353 3.98252
33.2244 34.3299 3.42385
34.6015 34.4479 2
35.9847 34.3631 0.501083
34.5387 33.0129 0.614867
35.6784 31.0528 0.37924
37.4972 29.1634 0.181961
39.8343 28.062 0.137244
37.5942 27.757 2
33.5699 33.2679 2
35.3576 29.3905 2
34.3159 31.619 2
35.2478 27.8837 3.87815
33.5671 30.1514 3.82281
33.3362 32.6414 3.68279
29.8244 22.1112 4.00811
30.2645 19.5108 2
30.9567 16.8553 0.00249739
37.6887 25.7406 0.0377609
35.2976 23.0349 -0.00736874
32.9197 19.8934 0.00362447
32.5014 22.617 2
35.1971 25.6252 2
32.1123 25.9233 4.0094
32.7107 37.4994 3.46137
34.5037 37.4969 2
35.9803 37.4748 0.498591
35.5697 49.6864 0.0173902
34.5629 46.9422 0.13627
34.5298 39.048 0.443106
33.5834 44.8232 0.181601
33.3257 42.3426 0.31547
33.2143 40.665 0.589388
33.4724 48.7977 2
32.8946 39.2095 2
32.3799 41.0523 2
32.7722 45.9948 2
32.1071 43.5792 2
31.7427 47.6383 3.98601
31.7684 39.3692 3.63032
31.1183 41.7889 3.83258
31.2538 44.5787 3.87053
32.2995 51.0062 0.000646241
30.385 49.573 2
28.5823 47.9389 3.9731
28.8157 51.4036 0.0194118
27.0795 49.7697 2
25.4098 48.2051 3.96883
25.5407 51.5478 0.0466822
23.9754 49.9494 2
22.4574 48.5201 3.97169
22.5013 51.5984 0.0460337
21.1539 50.0778 2
19.707 48.8703 3.97428
17.4408 49.1524 3.97576
17.2676 51.2365 3.97066
18.5725 50.1321 2
16.7667 53.724 3.96628
18.3314 52.6105 2
19.8091 51.424 0.0371459
16.1782 56.3736 3.96194
17.7443 55.2031 2
19.2959 54.1485 0.0382697
15.782 59.1593 3.96012
17.2483 57.7884 2
18.6337 56.6102 0.0375231
15.7933 62.0982 3.97049
17.1528 60.4962 2
18.4128 59.0373 0.0385888
16.0922 65.2958 3.97901
17.4164 63.4336 2
18.637 61.7003 0.0278707
16.6661 68.6801 4
17.9424 66.6114 2
19.1332 64.6567 0.0269133
18.75 69.9759 2
19.8896 67.8076 0.0150662
20.9142 71.1327 0
20.2445 14.6745 3.97071
21.6064 13.68 2
20.5405 12.0506 3.97323
21.1454 9.15883 3.97531
22.1935 11.058 2
23.1099 12.8373 0.0228419
22.0195 6.08226 3.9884
23.0396 8.18743 2
23.9751 10.1807 0.0252602
23.1494 2.85457 4
24.1155 5.14523 2
25.0253 7.31816 0.0195584
25.446 1.99012 2
26.2824 4.32898 0.0101088
27.7943 1.27781 0
32.8786 35.807 3.4318
34.542 35.9491 2
35.9779 35.9084 0.504406
21.3558 15.912 2
20.3777 17.0474 3.9638
22.1596 16.7203 3.96109
25.3737 13.9683 0.0276303
22.5138 15.1172 0.0229479
24.0699 15.6825 0.0102695
25.4299 16.1545 2
23.331 16.321 2
24.286 18.6096 3.97569
27.2613 21.7315 3.99344
28.3956 15.9771 0.0107388
27.4992 18.9688 2
32.468 33.9879 3.62541
33.2139 34.3156 2
34.6564 34.4375 0.478493
33.6053 33.2933 0.571983
34.3623 31.6946 0.354698
35.3641 29.4559 0.187849
37.6223 27.796 0.133606
35.2448 27.8381 2
33.2667 32.5701 2
33.5301 30.1062 2
33.0274 28.5232 3.88587
32.1536 31.4382 3.81457
29.2542 24.5936 4.01291
29.8022 22.1305 2
30.2619 19.5017 0.0219276
35.1714 25.6335 0.0143983
32.5063 22.6383 0.00143404
32.0995 25.8954 2
30.3052 27.5938 3.97633
31.382 37.4864 3.63567
32.71 37.4993 2
34.4992 37.5044 0.422793
33.4792 48.804 0.0269711
32.7915 45.9397 0.137488
32.8903 39.2002 0.589643
32.1533 43.5443 0.176188
32.4356 40.9968 0.369548
31.6841 47.6714 2
31.6814 39.3865 2
31.0575 41.8379 2
31.2044 44.6195 2
30.027 46.2502 3.98815
30.3061 39.7635 3.83997
29.7995 42.8875 3.88672
30.3809 49.5383 -0.00377363
28.5796 47.9419 2
26.8472 46.3686 3.981
27.0811 49.7676 0.0259181
25.41 48.2026 2
23.7293 46.7823 3.97358
23.9692 49.9517 0.0333971
22.4584 48.5207 2
20.7368 47.3729 3.97611
21.1518 50.0794 0.0344537
19.7069 48.8688 2
18.2968 47.9792 3.9766
16.6755 48.5146 3.97654
17.4397 49.1516 2
16.3242 50.0135 3.97461
15.7674 52.2765 3.97061
17.2687 51.2355 2
18.5711 50.1338 0.0282264
15.1384 54.8667 3.96442
16.7666 53.7239 2
18.3362 52.6102 0.0348674
14.5435 57.6826 3.95954
16.1781 56.374 2
17.7445 55.2027 0.0374517
14.2745 60.6642 3.96533
15.7848 59.1598 2
17.2539 57.7862 0.0390583
14.3371 63.8537 3.97662
15.7948 62.0995 2
17.1501 60.495 0.0358124
14.6715 67.2507 4
16.0894 65.2917 2
17.4174 63.4297 0.0320951
16.6661 68.6801 2
17.9456 66.6155 0.0174104
18.75 69.9759 0
18.9712 15.8562 3.96981
20.2472 14.6699 2
18.9947 13.1728 3.97107
21.6075 13.6748 0.0283506
20.5385 12.0494 2
19.3469 10.2526 3.97276
19.9944 7.14791 3.98624
21.1425 9.16044 2
22.1965 11.0541 0.0289152
20.9142 3.86727 4
22.0144 6.08565 2
23.0423 8.18531 0.0230599
23.1494 2.85451 2
24.1202 5.14381 0.0104498
25.446 1.99014 0
31.795 35.619 3.62334
32.8775 35.7979 2
34.5724 35.9494 0.451889
21.3516 15.9191 0.0319316
22.1635 16.7136 2
20.3806 17.0441 2
19.4153 18.5281 3.95866
21.8633 17.9814 3.97877
25.4277 16.1541 0.012308
23.3254 16.3251 0.0354616
24.2757 18.629 2
22.5061 20.0614 3.9766
24.8456 21.5823 3.98824
26.8834 23.8802 3.98481
27.2603 21.6394 2
27.5001 18.9353 0.0174833
31.1652 33.2003 3.83276
32.4163 33.9314 2
33.2244 34.3299 0.576145
33.3362 32.6414 0.317209
33.5671 30.1514 0.177191
35.2478 27.8837 0.121846
32.9905 28.4887 2
32.1008 31.3892 2
30.9395 29.8969 3.90959
28.5785 26.7702 4.00031
29.2426 24.5926 2
29.8244 22.1112 -0.00811335
32.1123 25.9233 -0.00939865
30.2964 27.57 2
29.8805 37.4811 3.83898
31.3042 37.4843 2
32.7107 37.4994 0.538632
31.7427 47.6383 0.0139906
31.2538 44.5787 0.129466
31.7684 39.3692 0.369684
31.1183 41.7889 0.167418
30.0283 46.2583 2
30.2174 39.7782 2
29.7684 42.9122 2
28.3404 44.581 3.9667
28.0565 40.4693 3.92686
28.5823 47.9389 0.0268993
26.8456 46.369 2
25.0554 44.8957 3.98037
25.4098 48.2051 0.0311719
23.7275 46.781 2
21.783 45.6712 3.97775
22.4574 48.5201 0.0283112
20.7369 47.3719 2
19.0502 46.5382 3.97612
19.707 48.8703 0.025723
18.297 47.9782 2
16.9279 47.5418 3.97591
16.6763 48.5138 2
15.6773 48.8653 3.97549
17.4408 49.1524 0.0242417
16.3258 50.0125 2
14.8766 50.8567 3.97388
14.1032 53.3319 3.96782
15.7686 52.2758 2
17.2676 51.2365 0.0293362
13.3993 56.1032 3.96111
15.1382 54.8667 2
16.7667 53.724 0.0337178
12.8643 59.1045 3.96268
14.5454 57.6827 2
16.1782 56.3736 0.0380623
12.6831 62.2959 3.97361
14.2763 60.6647 2
15.782 59.1593 0.0398814
12.7746 65.6939 4
14.3346 63.8492 2
15.7933 62.0982 0.0295114
14.6714 67.2507 2
16.0922 65.2958 0.0209907
16.6661 68.6801 0
17.7713 17.2474 3.96095
18.9722 15.853 2
17.5319 14.4348 3.96879
20.2445 14.6745 0.0292863
18.9951 13.175 2
17.6466 11.4861 3.97293
20.5405 12.0506 0.0267742
19.3436 10.2541 2
18.0543 8.34103 3.98361
18.75 5.0241 4
19.9887 7.15172 2
21.1454 9.15883 0.0246853
20.9142 3.86727 2
22.0195 6.08226 0.0116047
23.1494 2.85457 0
30.3291 35.2292 3.83763
31.7087 35.596 2
32.8786 35.807 0.568197
22.1596 16.7203 0.0389116
20.3777 17.0474 0.0362049
21.8637 17.9774 2
19.4092 18.5218 2
18.2811 20.0892 3.9622
21.0838 19.5317 3.96748
24.286 18.6096 0.0243077
22.499 20.0638 2
24.8561 21.5619 2
22.7155 21.9142 3.98008
25.1734 23.291 3.97637
26.1914 26.147 3.97981
26.8845 23.8728 2
27.2613 21.7315 0.00655707
29.5637 32.5538 3.88649
31.0862 33.1627 2
32.468 33.9879 0.374592
32.1536 31.4382 0.185428
33.0274 28.5232 0.114127
30.9181 29.8849 2
27.9766 29.364 4.01218
28.5653 26.7746 2
29.2542 24.5936 -0.0129103
30.3052 27.5938 0.02367
28.2311 37.3817 3.88332
29.8015 37.4812 2
31.382 37.4864 0.364327
30.027 46.2502 0.0118514
29.7995 42.8875 0.113277
30.3061 39.7635 0.160025
28.3372 44.6337 2
28.0221 40.4725 2
26.4514 42.9991 3.98151
25.3477 39.4342 3.97488
26.8472 46.3686 0.0189962
25.0453 44.8972 2
22.9832 43.7064 3.97524
23.7293 46.7823 0.0264178
21.7798 45.6724 2
19.8473 44.7778 3.97566
20.7368 47.3729 0.0238859
19.0496 46.5387 2
17.2972 46.0434 3.97572
18.2968 47.9792 0.0234043
16.9285 47.5414 2
15.4514 47.524 3.97558
16.6755 48.5146 0.0234576
15.6788 48.8645 2
14.1904 49.4245 3.97511
16.3242 50.0135 0.0253859
14.8779 50.8559 2
13.1716 51.7805 3.97071
12.3003 54.4661 3.96328
14.1039 53.3314 2
15.7674 52.2765 0.0293918
11.5634 57.4404 3.96139
13.3994 56.1031 2
15.1384 54.8667 0.0355782
11.1392 60.6212 3.96827
12.8667 59.1039 2
14.5435 57.6826 0.0404648
10.9835 64.0165 4
12.6813 62.291 2
14.2745 60.6642 0.0346702
12.7745 65.694 2
14.3371 63.8537 0.0233771
14.6715 67.2507 0
16.5918 18.7582 3.96125
17.7648 17.2422 2
16.1333 15.8377 3.96101
18.9712 15.8562 0.0301877
17.5327 14.431 2
16.0298 12.8512 3.96734
18.9947 13.1728 0.0289346
17.6437 11.4943 2
16.2054 9.66608 3.98032
19.3469 10.2526 0.0272369
18.0493 8.34761 2
16.6661 6.31991 4
18.75 5.02404 2
19.9944 7.14791 0.0137602
20.9142 3.86727 0
28.7255 34.8694 3.89175
30.2291 35.1895 2
31.795 35.619 0.376663
17.0285 21.5252 3.96865
21.8633 17.9814 0.0212342
19.4153 18.5281 0.0413392
21.0749 19.5267 2
18.2812 20.0864 2
20.1318 21.7605 3.97227
22.5061 20.0614 0.0233974
24.8456 21.5823 0.0117552
22.7161 21.9158 2
25.1595 23.3222 2
23.5021 24.81 3.97179
25.5367 28.7383 3.98406
26.1828 26.1545 2
26.8834 23.8802 0.0151935
27.4244 31.9118 3.98114
29.5232 32.5303 2
31.1652 33.2003 0.167237
30.9395 29.8969 0.0904099
27.9902 29.3361 2
28.5785 26.7702 -0.000310322
26.0524 36.8557 3.97156
28.2065 37.3829 2
29.8805 37.4811 0.161022
28.3404 44.581 0.0333046
28.0565 40.4693 0.0731407
26.4294 43.024 2
25.3176 39.4369 2
24.2119 41.7187 3.98017
23.0602 38.5155 3.97685
25.0554 44.8957 0.0196281
22.9816 43.7077 2
20.7403 42.7367 3.97515
21.783 45.6712 0.022253
19.8483 44.778 2
17.7159 44.2299 3.97533
19.0502 46.5382 0.0238831
17.2972 46.0438 2
15.4191 45.9553 3.97536
16.9279 47.5418 0.0240854
15.4522 47.5235 2
13.7233 47.8916 3.97556
15.6773 48.8653 0.0245116
14.1919 49.4237 2
12.4068 50.1654 3.97297
14.8766 50.8567 0.0261228
13.1727 51.7797 2
11.2941 52.7822 3.96524
10.3724 55.6937 3.96233
12.3002 54.4656 2
14.1032 53.3319 0.0321803
9.70499 58.8454 3.97152
11.5678 57.4386 2
13.3993 56.1032 0.0388912
9.30605 62.2254 4
11.1379 60.6162 2
12.8643 59.1045 0.0373221
10.9835 64.0165 2
12.6831 62.2959 0.0263911
12.7746 65.6939 0
15.397 20.2985 3.96437
16.5985 18.7574 2
14.8288 17.3667 3.96043
17.7713 17.2474 0.0390524
16.1353 15.835 2
14.4905 14.3281 3.96792
17.5319 14.4348 0.0312102
16.0302 12.8473 2
14.4483 11.1191 3.97751
17.6466 11.4861 0.027072
16.201 9.67269 2
14.6715 7.74927 4
18.0543 8.34103 0.0163889
16.6661 6.31988 2
18.75 5.0241 0
26.6825 34.3897 3.97305
28.7063 34.8763 2
30.3291 35.2292 0.162371
18.3063 22.5012 3.97525
15.9321 23.0667 3.97226
17.0304 21.5241 2
21.0838 19.5317 0.0325187
18.2811 20.0892 0.0378037
20.1283 21.7574 2
20.2728 24.6063 3.97196
22.7155 21.9142 0.0199206
25.1734 23.291 0.0236322
23.4959 24.8096 2
22.8986 28.0908 3.97115
24.9901 31.4309 3.98231
25.543 28.7213 2
26.1914 26.147 0.0201878
27.3937 31.8729 2
29.5637 32.5538 0.113512
27.9766 29.364 -0.0121794
23.7971 36.3196 3.97763
26.0283 36.8496 2
28.2311 37.3817 0.116682
26.4514 42.9991 0.0184929
25.3477 39.4342 0.0251218
24.1893 41.7182 2
23.0495 38.5159 2
21.8742 40.5638 3.97497
21.2007 37.7969 3.97727
22.9832 43.7064 0.0247558
20.7413 42.7359 2
18.1987 41.9918 3.97568
19.8473 44.7778 0.0243449
17.7163 44.2302 2
15.469 44.0824 3.97531
17.2972 46.0434 0.0242752
15.419 45.9553 2
13.4224 46.1896 3.97535
15.4514 47.524 0.0244212
13.7244 47.8909 2
11.7967 48.4682 3.97477
14.1904 49.4245 0.0248913
12.4084 50.1644 2
10.4255 51.0307 3.96711
13.1716 51.7805 0.0292928
11.2948 52.7812 2
9.28165 53.8752 3.96292
8.38888 56.9802 3.97294
10.3749 55.6919 2
12.3003 54.4661 0.0367237
7.74927 60.3285 4
9.70375 58.8409 2
11.5634 57.4404 0.0386066
9.306 62.2255 2
11.1392 60.6212 0.0317251
10.9835 64.0165 0
14.2352 21.8595 3.96817
15.3966 20.2968 2
13.5678 18.9653 3.96131
16.5918 18.7582 0.0387523
14.8298 17.3647 2
13.039 15.9126 3.96684
16.1333 15.8377 0.0389888
14.4947 14.3256 2
12.7861 12.6934 3.97504
16.0298 12.8512 0.0326622
14.4451 11.1265 2
12.7746 9.30605 4
16.2054 9.66608 0.0196839
14.6715 7.74924 2
16.6661 6.31991 0
24.3558 33.8988 3.98089
26.6609 34.3895 2
28.7255 34.8694 0.108246
18.1839 24.2365 3.97321
18.3144 22.5015 2
14.7581 24.5918 3.97427
15.9327 23.0658 2
17.0285 21.5252 0.0313474
19.8316 27.4371 3.97359
20.1318 21.7605 0.0277271
20.2692 24.6036 2
22.2856 30.8819 3.97419
23.5021 24.81 0.0282107
22.8989 28.093 2
24.9494 31.4372 2
25.5367 28.7383 0.0159358
27.4244 31.9118 0.0188595
21.3072 35.9681 3.97686
23.7918 36.3147 2
26.0524 36.8557 0.0284362
24.2119 41.7187 0.0198326
23.0602 38.5155 0.0231538
21.8787 40.5662 2
21.204 37.7971 2
18.9684 38.9739 3.9771
20.7403 42.7367 0.024853
18.1985 41.9918 2
15.4535 41.8436 3.97594
17.7159 44.2299 0.024671
15.4683 44.0824 2
13.1839 44.3062 3.97537
15.4191 45.9553 0.0246379
13.4231 46.1895 2
11.3113 46.6592 3.97575
13.7233 47.8916 0.0244411
11.7988 48.4671 2
9.69714 49.1948 3.969
12.4068 50.1654 0.0270305
10.4268 51.0296 2
8.30937 51.9913 3.96351
11.2941 52.7822 0.0347595
9.28186 53.8736 2
7.19789 55.0325 3.97393
6.31991 58.3339 4
8.38764 56.9759 2
10.3724 55.6937 0.0376656
7.74924 60.3285 2
9.70499 58.8454 0.0284765
9.30605 62.2254 0
13.6147 25.4802 3.97636
13.135 23.3827 3.9718
14.2347 21.8582 2
12.3935 20.6144 3.96371
15.397 20.2985 0.0356341
13.5676 18.9637 2
11.6744 17.5839 3.96224
14.8288 17.3667 0.03957
13.044 15.9104 2
11.2244 14.3807 3.96929
14.4905 14.3281 0.0320751
12.7844 12.7006 2
10.9835 10.9835 4
14.4483 11.1191 0.022491
12.7745 9.306 2
14.6715 7.74927 0
21.663 33.5291 3.97626
24.3592 33.8788 2
26.6825 34.3897 0.0269452
16.507 26.5784 3.97436
18.1879 24.2361 2
18.3063 22.5012 0.0247545
14.757 24.5912 2
15.9321 23.0667 0.0277417
19.234 30.3616 3.97448
19.8318 27.4384 2
20.2728 24.6063 0.0280433
22.3082 30.8815 2
22.8986 28.0908 0.0288532
24.9901 31.4309 0.0176932
18.5565 36.0089 3.9779
21.3085 35.9699 2
23.7971 36.3196 0.0223652
21.8742 40.5638 0.0250302
21.2007 37.7969 0.0227265
18.9684 38.9724 2
14.9416 39.1526 3.97698
18.1987 41.9918 0.0243178
15.4527 41.8431 2
12.8772 42.22 3.97605
15.469 44.0824 0.0246929
13.1841 44.3059 2
10.8968 44.7394 3.97573
13.4224 46.1896 0.0246464
11.3139 46.6581 2
9.08196 47.2799 3.9709
11.7967 48.4682 0.0252257
9.69902 49.1937 2
7.47004 50.027 3.96388
10.4255 51.0307 0.0328886
8.30804 51.9899 2
6.13846 53.0084 3.97398
9.28165 53.8752 0.0370761
7.19711 55.0287 2
5.0241 56.25 4
6.31988 58.3339 2
8.38888 56.9802 0.0270625
7.74927 60.3285 0
13.9068 26.9369 3.97531
12.2414 24.8778 3.97473
13.6138 25.4796 2
11.3191 22.2953 3.96604
13.1359 23.3822 2
14.2352 21.8595 0.0318303
12.393 20.6133 2
10.4317 19.338 3.96277
13.5678 18.9653 0.0386945
11.6831 17.5845 2
9.76547 16.163 3.97115
13.039 15.9126 0.0331576
11.224 14.3864 2
9.30607 12.7746 4
12.7861 12.6934 0.0249598
10.9835 10.9835 2
12.7746 9.30605 0
18.722 33.2071 3.97584
21.6591 33.5324 2
24.3558 33.8988 0.0191074
16.1353 29.7812 3.97514
16.5062 26.578 2
18.1839 24.2365 0.0267876
14.7581 24.5918 0.0257258
19.2322 30.3616 2
19.8316 27.4371 0.0264134
22.2856 30.8819 0.0258062
15.5803 36.044 3.97748
18.5558 36.0098 2
21.3072 35.9681 0.0231356
13.1067 37.8286 3.9771
18.9684 38.9739 0.022897
14.9416 39.1527 2
12.3708 40.1107 3.97655
15.4535 41.8436 0.0240595
12.8768 42.2194 2
10.4934 42.7342 3.97582
13.1839 44.3062 0.0246259
10.899 44.7385 2
8.54851 45.2906 3.97303
11.3113 46.6592 0.0242506
9.08395 47.2788 2
6.75178 47.9946 3.96436
9.69714 49.1948 0.0310008
7.46775 50.0259 2
5.21488 50.9119 3.97365
8.30937 51.9913 0.0364932
6.13815 53.0055 2
3.86727 54.0858 4
7.19789 55.0325 0.0260699
5.02404 56.25 2
6.31991 58.3339 0
13.3845 29.1327 3.97468
11.6902 26.5714 3.97541
13.9062 26.9368 2
10.3691 24.0194 3.96858
12.2443 24.878 2
13.6147 25.4802 0.0236411
9.29675 21.1546 3.96349
11.3189 22.2948 2
13.135 23.3827 0.0281979
12.3935 20.6144 0.0362885
10.4435 19.3401 2
8.42135 18.0318 3.97268
11.6744 17.5839 0.0377629
9.76486 16.1671 2
7.74928 14.6715 4
11.2244 14.3807 0.030713
9.30602 12.7745 2
10.9835 10.9835 0
15.1155 32.9347 3.97622
18.7213 33.2065 2
21.663 33.5291 0.0237395
16.1351 29.7809 2
16.507 26.5784 0.025639
19.234 30.3616 0.0255154
13.4132 36.2248 3.97674
15.5798 36.0441 2
18.5565 36.0089 0.0221028
13.1061 37.8286 2
11.6883 38.3039 3.97671
14.9416 39.1526 0.0230154
12.3707 40.1106 2
10.0655 40.7302 3.97634
12.8772 42.22 0.023951
10.496 42.7338 2
8.08142 43.2487 3.97433
10.8968 44.7394 0.0242673
8.55085 45.2896 2
6.14752 45.9018 3.96489
9.08196 47.2799 0.0291046
6.749 47.9938 2
4.42583 48.7522 3.97343
7.47004 50.027 0.0361174
5.21497 50.9098 2
2.85457 51.8506 4
6.13846 53.0084 0.0260173
3.86727 54.0858 2
5.0241 56.25 0
12.511 31.3225 3.97579
11.0988 28.4867 3.97543
13.3844 29.1324 2
9.58409 25.8429 3.97008
11.6925 26.5716 2
13.9068 26.9369 0.024685
8.27507 23.0348 3.96408
10.3715 24.0197 2
12.2414 24.8778 0.0252731
7.20373 19.9794 3.97386
9.30256 21.1563 2
11.3191 22.2953 0.0339585
10.4317 19.338 0.0372334
8.42062 18.0356 2
6.31992 16.6661 4
9.76547 16.163 0.0288488
7.74926 14.6714 2
9.30607 12.7746 0
12.5461 34.3334 3.97656
15.1151 32.9353 2
18.722 33.2071 0.0241646
16.1353 29.7812 0.0248621
11.2187 36.623 3.97653
13.4126 36.2249 2
15.5803 36.044 0.0225205
13.1067 37.8286 0.0229004
11.6885 38.3036 2
9.64106 38.8157 3.97648
12.3708 40.1107 0.023451
10.068 40.7297 2
7.6831 41.199 3.97441
10.4934 42.7342 0.0241844
8.08259 43.2479 2
5.65454 43.7658 3.96501
8.54851 45.2906 0.0269728
6.14442 45.9012 2
3.77107 46.5372 3.97339
6.75178 47.9946 0.0356404
4.42636 48.7508 2
1.99014 49.554 4
5.21488 50.9119 0.026347
2.85451 51.8506 2
3.86727 54.0858 0
11.3046 32.9659 3.97639
10.4001 30.4351 3.9755
12.5107 31.3232 2
8.88327 27.7686 3.97123
11.1011 28.4871 2
13.3845 29.1327 0.0253198
7.39006 24.9903 3.96446
9.58666 25.8435 2
11.6902 26.5714 0.0245928
6.12058 22.0014 3.97436
8.27667 23.0361 2
10.3691 24.0194 0.0314248
5.02411 18.75 4
7.20328 19.9827 2
9.29675 21.1546 0.0365056
8.42135 18.0318 0.0273245
6.3199 16.6661 2
7.74928 14.6715 0
10.7979 35.0229 3.97634
12.5451 34.3333 2
15.1155 32.9347 0.0237755
9.29439 36.9902 3.97651
11.219 36.6231 2
13.4132 36.2248 0.023257
11.6883 38.3039 0.0232895
9.64366 38.8153 2
7.35616 39.1774 3.97406
10.0655 40.7302 0.0236554
7.68578 41.1986 2
5.26733 41.6123 3.96532
8.08142 43.2487 0.0256702
5.65334 43.7654 2
3.24852 44.2816 3.97407
6.14752 45.9018 0.0351121
3.77184 46.5364 2
1.27781 47.2057 4
4.42583 48.7522 0.0265699
1.99012 49.554 2
2.85457 51.8506 0
10.4259 33.9119 3.97605
9.66795 32.1916 3.97613
11.3052 32.9663 2
8.2135 29.7233 3.97256
10.4025 30.4362 2
12.511 31.3225 0.0242101
6.6217 27.0136 3.96477
8.88627 27.7693 2
11.0988 28.4867 0.0245694
5.1755 24.0938 3.97416
7.38846 24.9911 2
9.58409 25.8429 0.0299168
3.86728 20.9142 4
6.12048 22.0037 2
8.27507 23.0348 0.0359155
5.02406 18.75 2
7.20373 19.9794 0.026142
6.31992 16.6661 0
9.10557 35.2953 3.97661
10.7986 35.0229 2
12.5461 34.3334 0.0234362
7.13332 37.2075 3.97374
9.29732 36.9899 2
11.2187 36.623 0.0234699
9.64106 38.8157 0.023518
7.35907 39.1772 2
4.99409 39.4666 3.96624
7.6831 41.199 0.0255871
5.26779 41.6121 2
2.85878 42.0017 3.97464
5.65454 43.7658 0.0349933
3.24911 44.2812 2
0.720592 44.8159 4
3.77107 46.5372 0.0266121
1.27778 47.2057 2
1.99014 49.554 0
9.14333 33.7227 3.97663
10.4275 33.9121 2
7.63953 31.629 3.973
9.67084 32.1924 2
11.3046 32.9659 0.0236119
5.95859 29.0731 3.96498
8.21543 29.7238 2
10.4001 30.4351 0.0244958
4.36263 26.2467 3.9738
6.61855 27.014 2
8.88327 27.7686 0.028766
2.85458 23.1494 4
5.1758 24.0952 2
7.39006 24.9903 0.0355402
3.86728 20.9142 2
6.12058 22.0014 0.0256368
5.02411 18.75 0
7.08243 35.3133 3.97335
9.10913 35.2952 2
10.7979 35.0229 0.0236573
4.84406 37.3401 3.96679
7.13645 37.2075 2
9.29439 36.9902 0.0234941
7.35616 39.1774 0.0259414
4.99488 39.4665 2
2.60659 39.7134 3.97529
5.26733 41.6123 0.0346833
2.85953 42.0018 2
0.320823 42.3947 4
3.24852 44.2816 0.0259341
0.720551 44.8159 2
1.27781 47.2057 0
7.24581 33.474 3.97322
9.14673 33.723 2
10.4259 33.9119 0.0239482
5.42349 31.1361 3.9654
7.64153 31.6293 2
9.66795 32.1916 0.0238722
3.68385 28.4434 3.97387
5.95524 29.0733 2
8.2135 29.7233 0.0274414
1.99015 25.446 4
4.3632 26.2475 2
6.6217 27.0136 0.0352319
2.85453 23.1494 2
5.1755 24.0938 0.0258362
3.86728 20.9142 0
4.8582 35.2527 3.96668
7.08473 35.3135 2
9.10557 35.2953 0.0233894
2.49796 37.4282 3.97633
4.84428 37.3402 2
7.13332 37.2075 0.0262593
4.99409 39.4666 0.0337611
2.60736 39.7139 2
0.080333 39.9526 4
2.85878 42.0017 0.0253626
0.320817 42.3947 2
0.720592 44.8159 0
5.05176 33.1921 3.96619
7.248 33.4742 2
9.14333 33.7227 0.0233742
3.1479 30.6665 3.97458
5.42331 31.1364 2
7.63953 31.629 0.0270048
1.27793 27.7943 4
3.68471 28.4438 2
5.95859 29.0731 0.0350169
1.99013 25.446 2
4.36263 26.2467 0.0262038
2.85458 23.1494 0
2.54998 35.1591 3.97613
4.85907 35.2531 2
7.08243 35.3133 0.0266476
0 37.5 4
2.49822 37.4287 2
4.84406 37.3401 0.0332065
2.60659 39.7134 0.0247099
0.0802903 39.9526 2
0.320823 42.3947 0
2.76775 32.906 3.97591
5.05223 33.1925 2
7.24581 33.474 0.0267777
0.721173 30.1842 4
3.14862 30.6668 2
5.42349 31.1361 0.0345988
1.27779 27.7943 2
3.68385 28.4434 0.0261314
1.99015 25.446 0
0.0806499 35.0474 4
2.55085 35.1595 2
4.8582 35.2527 0.0333187
0 37.5 2
2.49796 37.4282 0.0236706
0.080333 39.9526 0
0.32156 32.6054 4
2.76808 32.9065 2
5.05176 33.1921 0.033813
0.72056 30.1841 2
3.1479 30.6665 0.0254189
1.27793 27.7943 0
0.0802889 35.0474 2
2.54998 35.1591 0.0238732
0 37.5 0
0.320817 32.6053 2
2.76775 32.906 0.0240875
0.721173 30.1842 0
0.0806499 35.0474 0
0.32156 32.6054 0
CELLS 1910 17190
8 18 6 25 56 2 0 5 16
8 57 23 6 18 17 4 0 2
8 78 36 9 29 31 11 1 7
8 31 11 1 7 79 37 10 30
8 110 57 18 50 48 17 2 14
8 50 18 56 111 14 2 16 49
8 116 62 22 55 52 20 3 15
8 56 25 67 118 16 5 24 53
8 119 63 23 57 54 21 4 17
8 55 22 63 119 15 3 21 54
8 58 26 68 121 18 6 25 56
8 122 65 26 58 57 23 6 18
8 73 31 7 27 142 79 30 71
8 143 78 29 72 73 31 7 27
8 83 147 76 34 32 74 28 8
8 84 148 78 36 33 75 29 9
8 76 34 8 28 148 84 33 75
8 37 79 150 86 10 30 77 35
8 151 87 36 78 80 38 11 31
8 80 38 11 31 152 88 37 79
8 175 100 42 94 96 44 12 40
8 44 96 176 101 12 40 95 43
8 101 176 98 46 43 95 41 13
8 46 98 178 103 13 41 97 45
8 178 103 45 97 147 83 32 74
8 189 116 55 109 106 52 15 47
8 111 56 118 191 49 16 53 107
8 192 119 57 110 108 54 17 48
8 109 55 119 192 47 15 54 108
8 194 122 58 112 110 57 18 50
8 112 58 121 195 50 18 56 111
8 115 61 19 51 197 124 59 113
8 115 61 125 198 51 19 60 114
8 198 125 62 116 114 60 20 52
8 200 127 64 120 116 62 22 55
8 118 67 132 202 53 24 66 117
8 121 68 133 203 56 25 67 118
8 120 64 128 204 55 22 63 119
8 204 128 65 122 119 63 23 57
8 206 134 68 121 123 69 26 58
8 123 69 26 58 207 131 65 122
8 226 147 74 138 140 76 28 70
8 229 148 75 139 143 78 29 72
8 140 76 28 70 229 148 75 139
8 142 79 30 71 231 150 77 141
8 144 80 31 73 232 152 79 142
8 233 151 78 143 144 80 31 73
8 150 86 35 77 235 154 81 145
8 235 154 81 145 146 82 39 91
8 146 82 39 91 236 155 90 165
8 238 157 83 147 149 85 34 76
8 239 158 84 148 151 87 36 78
8 149 85 34 76 239 158 84 148
8 152 88 37 79 241 160 86 150
8 242 161 87 151 153 89 38 80
8 153 89 38 80 243 162 88 152
8 171 98 41 92 265 178 97 169
8 265 178 97 169 226 147 74 138
8 172 96 40 93 266 176 95 170
8 266 176 95 170 171 98 41 92
8 269 175 94 173 172 96 40 93
8 271 180 99 174 175 100 42 94
8 197 124 59 113 271 180 99 174
8 272 181 100 175 177 102 44 96
8 273 182 101 176 179 104 46 98
8 177 102 44 96 273 182 101 176
8 179 104 46 98 275 184 103 178
8 275 184 103 178 238 157 83 147
8 188 115 51 105 283 197 113 186
8 188 115 198 284 105 51 114 187
8 284 198 116 189 187 114 52 106
8 286 200 120 193 189 116 55 109
8 191 118 202 288 107 53 117 190
8 195 121 203 289 111 56 118 191
8 193 120 204 290 109 55 119 192
8 290 204 122 194 192 119 57 110
8 196 123 58 112 292 207 122 194
8 293 206 121 195 196 123 58 112
8 199 126 61 115 297 211 124 197
8 298 212 127 200 198 125 62 116
8 199 126 212 298 115 61 125 198
8 205 129 64 120 300 214 127 200
8 301 217 130 201 202 132 66 117
8 209 136 168 264 301 217 130 201
8 302 219 132 202 203 133 67 118
8 303 220 133 203 206 134 68 121
8 205 129 215 304 120 64 128 204
8 304 215 131 207 204 128 65 122
8 306 221 134 206 208 135 69 123
8 208 135 69 123 307 218 131 207
8 210 137 167 263 309 223 136 209
8 328 238 147 226 230 149 76 140
8 228 146 91 166 329 236 165 260
8 231 150 77 141 330 235 145 227
8 330 235 145 227 228 146 91 166
8 332 239 148 229 233 151 78 143
8 230 149 76 140 332 239 148 229
8 232 152 79 142 334 241 150 231
8 234 153 80 144 335 243 152 232
8 336 242 151 233 234 153 80 144
8 236 155 90 165 338 245 164 259
8 241 160 86 150 339 246 154 235
8 339 246 154 235 237 156 82 146
8 237 156 82 146 340 247 155 236
8 342 249 157 238 240 159 85 149
8 343 250 158 239 242 161 87 151
8 240 159 85 149 343 250 158 239
8 243 162 88 152 345 252 160 241
8 244 163 253 346 153 89 161 242
8 244 163 89 153 347 254 162 243
8 311 224 261 371 210 137 167 263
8 263 167 262 372 209 136 168 264
8 267 179 98 171 375 275 178 265
8 375 275 178 265 328 238 147 226
8 376 273 176 266 267 179 98 171
8 268 177 96 172 376 273 176 266
8 379 272 175 269 268 177 96 172
8 380 271 174 270 269 175 94 173
8 283 197 113 186 380 271 174 270
8 381 277 180 271 272 181 100 175
8 297 211 124 197 381 277 180 271
8 382 278 181 272 274 183 102 177
8 274 183 102 177 383 279 182 273
8 383 279 182 273 276 185 104 179
8 385 281 184 275 342 249 157 238
8 276 185 104 179 385 281 184 275
8 285 199 115 188 393 297 197 283
8 394 298 200 286 284 198 116 189
8 285 199 298 394 188 115 198 284
8 291 205 120 193 396 300 200 286
8 397 301 201 287 288 202 117 190
8 295 209 264 374 397 301 201 287
8 398 302 202 288 289 203 118 191
8 399 303 203 289 293 206 121 195
8 291 205 304 400 193 120 204 290
8 400 304 207 292 290 204 122 194
8 294 208 123 196 402 307 207 292
8 403 306 206 293 294 208 123 196
8 296 210 263 373 405 309 209 295
8 408 312 213 299 297 211 126 199
8 299 213 313 409 199 126 212 298
8 409 313 214 300 298 212 127 200
8 305 216 129 205 411 315 214 300
8 412 318 217 301 302 219 132 202
8 309 223 136 209 412 318 217 301
8 413 320 219 302 303 220 133 203
8 306 221 321 414 206 134 220 303
8 307 218 131 207 415 316 215 304
8 305 216 316 415 205 129 215 304
8 417 322 221 306 308 222 135 208
8 308 222 135 208 418 319 218 307
8 310 225 137 210 420 325 223 309
8 423 326 224 311 310 225 137 210
8 329 236 165 260 441 338 259 368
8 442 342 238 328 333 240 149 230
8 331 237 146 228 443 340 236 329
8 334 241 150 231 444 339 235 330
8 444 339 235 330 331 237 146 228
8 446 343 239 332 336 242 151 233
8 333 240 149 230 446 343 239 332
8 335 243 152 232 448 345 241 334
8 337 244 153 234 449 347 243 335
8 337 244 346 450 234 153 242 336
8 338 245 164 259 452 349 258 367
8 340 247 155 236 453 350 245 338
8 345 252 160 241 454 351 246 339
8 454 351 246 339 341 248 156 237
8 341 248 156 237 455 352 247 340
8 240 159 251 344 342 249 354 457
8 242 161 253 346 343 250 355 458
8 343 250 355 458 240 159 251 344
8 347 254 162 243 460 357 252 345
8 348 255 358 461 244 163 253 346
8 348 255 163 244 462 359 254 347
8 473 360 257 365 363 256 364 482
8 452 349 258 367 365 257 366 485
8 422 324 369 488 311 224 261 371
8 371 261 370 490 263 167 262 372
8 407 311 371 491 296 210 263 373
8 373 263 372 492 295 209 264 374
8 493 385 275 375 442 342 238 328
8 377 276 179 267 493 385 275 375
8 378 274 177 268 494 383 273 376
8 494 383 273 376 377 276 179 267
8 497 382 272 379 378 274 177 268
8 498 381 271 380 379 272 175 269
8 393 297 197 283 498 381 271 380
8 499 387 277 381 382 278 181 272
8 408 312 211 297 499 387 277 381
8 500 388 278 382 384 280 183 274
8 501 389 279 383 386 282 185 276
8 384 280 183 274 501 389 279 383
8 386 282 185 276 503 391 281 385
8 503 391 281 385 457 354 249 342
8 511 408 299 395 393 297 199 285
8 395 299 409 512 285 199 298 394
8 512 409 300 396 394 298 200 286
8 401 305 205 291 514 411 300 396
8 515 412 301 397 398 302 202 288
8 405 309 209 295 515 412 301 397
8 516 413 302 398 399 303 203 289
8 403 306 414 517 293 206 303 399
8 402 307 207 292 518 415 304 400
8 401 305 415 518 291 205 304 400
8 404 308 208 294 520 418 307 402
8 521 417 306 403 404 308 208 294
8 406 310 210 296 523 420 309 405
8 526 423 311 407 406 310 210 296
8 410 314 213 299 527 424 312 408
8 528 425 315 411 409 313 214 300
8 410 314 425 528 299 213 313 409
8 416 317 216 305 530 427 315 411
8 531 430 318 412 413 320 219 302
8 420 325 223 309 531 430 318 412
8 532 432 320 413 414 321 220 303
8 417 322 433 533 306 221 321 414
8 418 319 218 307 534 428 316 415
8 416 317 428 534 305 216 316 415
8 419 323 434 536 308 222 322 417
8 419 323 222 308 537 431 319 418
8 421 327 225 310 539 438 325 420
8 421 327 439 541 310 225 326 423
8 543 437 324 422 423 326 224 311
8 441 338 259 368 559 452 367 486
8 443 340 236 329 560 453 338 441
8 333 240 344 447 442 342 457 561
8 445 341 237 331 562 455 340 443
8 448 345 241 334 563 454 339 444
8 563 454 339 444 445 341 237 331
8 336 242 346 450 446 343 458 565
8 446 343 458 565 333 240 344 447
8 449 347 243 335 567 460 345 448
8 451 348 244 337 568 462 347 449
8 451 348 461 569 337 244 346 450
8 570 463 349 452 473 360 257 365
8 453 350 245 338 570 463 349 452
8 455 352 247 340 571 464 350 453
8 460 357 252 345 572 465 351 454
8 572 465 351 454 456 353 248 341
8 456 353 248 341 573 466 352 455
8 344 251 356 459 457 354 468 575
8 458 355 469 576 344 251 356 459
8 346 253 358 461 458 355 469 576
8 462 359 254 347 578 471 357 460
8 348 255 359 462 461 358 472 579
8 591 474 360 473 475 361 256 363
8 475 361 256 363 594 477 362 479
8 363 256 364 482 479 362 480 603
8 590 473 365 484 481 363 482 605
8 482 364 257 365 606 483 366 485
8 559 452 367 486 484 365 485 607
8 542 436 487 609 422 324 369 488
8 525 422 488 611 407 311 371 491
8 488 369 489 612 371 261 370 490
8 491 371 490 613 373 263 372 492
8 495 386 276 377 614 503 385 493
8 614 503 385 493 561 457 342 442
8 615 501 383 494 495 386 276 377
8 496 384 274 378 615 501 383 494
8 618 500 382 497 496 384 274 378
8 619 499 381 498 497 382 272 379
8 511 408 297 393 619 499 381 498
8 620 505 387 499 500 388 278 382
8 527 424 312 408 620 505 387 499
8 502 390 506 621 384 280 388 500
8 622 507 389 501 504 392 282 386
8 502 390 280 384 622 507 389 501
8 504 392 282 386 624 509 391 503
8 624 509 391 503 575 468 354 457
8 513 410 299 395 630 527 408 511
8 631 528 411 514 512 409 300 396
8 513 410 528 631 395 299 409 512
8 519 416 305 401 633 530 411 514
8 634 531 412 515 516 413 302 398
8 523 420 309 405 634 531 412 515
8 635 532 413 516 517 414 303 399
8 521 417 533 636 403 306 414 517
8 520 418 307 402 637 534 415 518
8 519 416 534 637 401 305 415 518
8 522 419 308 404 639 537 418 520
8 522 419 536 640 404 308 417 521
8 524 421 310 406 642 539 420 523
8 524 421 541 644 406 310 423 526
8 646 543 422 525 526 423 311 407
8 529 426 314 410 647 544 424 527
8 528 425 545 648 411 315 427 530
8 529 426 545 648 410 314 425 528
8 535 429 317 416 649 546 427 530
8 650 548 430 531 532 432 320 413
8 539 438 325 420 650 548 430 531
8 533 433 550 651 414 321 432 532
8 536 434 551 652 417 322 433 533
8 537 431 319 418 653 547 428 534
8 535 429 547 653 416 317 428 534
8 538 435 552 654 419 323 434 536
8 538 435 323 419 655 549 431 537
8 540 440 327 421 657 556 438 539
8 540 440 557 659 421 327 439 541
8 541 439 555 660 423 326 437 543
8 661 554 436 542 543 437 324 422
8 676 570 452 559 590 473 365 484
8 560 453 338 441 676 570 452 559
8 562 455 340 443 677 571 453 560
8 447 344 459 566 561 457 575 678
8 564 456 341 445 679 573 455 562
8 567 460 345 448 680 572 454 563
8 680 572 454 563 564 456 341 445
8 565 458 576 682 447 344 459 566
8 450 346 461 569 565 458 576 682
8 568 462 347 449 684 578 460 567
8 451 348 462 568 569 461 579 685
8 686 580 463 570 591 474 360 473
8 571 464 350 453 686 580 463 570
8 573 466 352 455 687 581 464 571
8 572 465 582 688 460 357 471 578
8 574 467 582 688 456 353 465 572
8 574 467 353 456 689 583 466 573
8 459 356 470 577 575 468 585 691
8 576 469 586 692 459 356 470 577
8 461 358 472 579 576 469 586 692
8 462 359 471 578 579 472 588 694
8 704 591 473 590 593 475 363 481
8 595 476 592 705 475 361 474 591
8 593 475 363 481 707 594 479 602
8 594 477 362 479 709 598 478 600
8 595 476 361 475 711 597 477 594
8 479 362 480 603 600 478 601 720
8 481 363 482 605 602 479 603 722
8 603 480 364 482 723 604 483 606
8 605 482 365 484 724 606 485 607
8 656 553 608 726 542 436 487 609
8 645 542 609 728 525 422 488 611
8 609 487 610 729 488 369 489 612
8 611 488 612 730 491 371 490 613
8 616 504 386 495 731 624 503 614
8 731 624 503 614 678 575 457 561
8 732 622 501 615 616 504 386 495
8 617 502 384 496 732 622 501 615
8 617 502 621 735 496 384 500 618
8 736 620 499 619 618 500 382 497
8 630 527 408 511 736 620 499 619
8 621 506 626 737 500 388 505 620
8 647 544 424 527 737 626 505 620
8 623 508 627 738 502 390 506 621
8 623 508 390 502 739 628 507 622
8 625 510 628 739 504 392 507 622
8 740 629 509 624 691 585 468 575
8 625 510 392 504 740 629 509 624
8 632 529 410 513 744 647 527 630
8 631 528 648 745 514 411 530 633
8 632 529 648 745 513 410 528 631
8 638 535 416 519 746 649 530 633
8 747 650 531 634 635 532 413 516
8 642 539 420 523 747 650 531 634
8 636 533 651 748 517 414 532 635
8 640 536 652 749 521 417 533 636
8 639 537 418 520 750 653 534 637
8 638 535 653 750 519 416 534 637
8 641 538 419 522 751 655 537 639
8 641 538 654 752 522 419 536 640
8 643 540 421 524 753 657 539 642
8 643 540 659 755 524 421 541 644
8 644 541 660 757 526 423 543 646
8 758 661 542 645 646 543 422 525
8 529 426 544 647 648 545 662 759
8 530 427 545 648 649 546 663 760
8 535 429 546 649 653 547 664 761
8 762 666 548 650 651 550 432 532
8 657 556 438 539 762 666 548 650
8 652 551 668 763 533 433 550 651
8 654 552 669 764 536 434 551 652
8 655 549 431 537 765 665 547 653
8 538 435 549 655 654 552 667 766
8 661 554 671 768 542 436 553 656
8 658 558 440 540 769 674 556 657
8 658 558 675 770 540 440 557 659
8 659 557 673 771 541 439 555 660
8 660 555 672 772 543 437 554 661
8 788 686 570 676 704 591 473 590
8 677 571 453 560 788 686 570 676
8 679 573 455 562 789 687 571 677
8 566 459 577 683 678 575 691 790
8 681 574 456 564 791 689 573 679
8 680 572 688 792 567 460 578 684
8 681 574 688 792 564 456 572 680
8 682 576 692 794 566 459 577 683
8 569 461 579 685 682 576 692 794
8 568 462 578 684 685 579 694 796
8 687 581 464 571 798 696 580 686
8 798 696 580 686 705 592 474 591
8 689 583 466 573 799 697 581 687
8 688 582 698 800 578 471 588 694
8 690 584 698 800 574 467 582 688
8 690 584 467 574 801 699 583 689
8 693 587 701 803 577 470 585 691
8 693 587 470 577 804 702 586 692
8 695 589 702 804 579 472 586 692
8 695 589 472 579 805 703 588 694
8 708 595 705 813 593 475 591 704
8 710 596 706 814 595 476 592 705
8 707 594 479 602 816 709 600 719
8 708 595 475 593 817 711 594 707
8 709 598 478 600 819 715 599 717
8 711 597 477 594 820 714 598 709
8 710 596 476 595 822 713 597 711
8 600 478 601 720 717 599 718 832
8 602 479 603 722 719 600 720 834
8 720 601 480 603 835 721 604 723
8 722 603 482 605 836 723 606 724
8 767 670 725 839 656 553 608 726
8 756 656 726 841 645 542 609 728
8 726 608 727 842 609 487 610 729
8 728 609 729 843 611 488 612 730
8 844 740 624 731 790 691 575 678
8 733 625 504 616 844 740 624 731
8 734 623 502 617 845 739 622 732
8 733 625 739 845 616 504 622 732
8 734 623 738 846 617 502 621 735
8 735 621 737 847 618 500 620 736
8 744 647 527 630 847 737 620 736
8 621 506 627 738 737 626 741 848
8 647 544 626 737 759 662 741 848
8 623 508 628 739 738 627 742 849
8 740 629 585 691 850 743 700 802
8 625 510 629 740 739 628 743 850
8 632 529 647 744 745 648 759 854
8 633 530 648 745 746 649 760 855
8 638 535 649 746 750 653 761 856
8 857 762 650 747 748 651 532 635
8 753 657 539 642 857 762 650 747
8 749 652 763 858 636 533 651 748
8 752 654 764 859 640 536 652 749
8 751 655 537 639 860 765 653 750
8 641 538 655 751 752 654 766 861
8 754 658 540 643 862 769 657 753
8 754 658 770 863 643 540 659 755
8 755 659 771 864 644 541 660 757
8 758 661 768 866 645 542 656 756
8 757 660 772 867 646 543 661 758
8 759 662 773 868 648 545 663 760
8 649 546 663 760 761 664 774 871
8 765 665 547 653 872 775 664 761
8 873 777 666 762 763 668 550 651
8 769 674 556 657 873 777 666 762
8 764 669 779 874 652 551 668 763
8 654 552 667 766 764 669 778 875
8 655 549 665 765 766 667 776 876
8 768 671 782 877 656 553 670 767
8 772 672 783 878 661 554 671 768
8 658 558 674 769 770 675 786 879
8 659 557 675 770 771 673 785 881
8 882 784 672 772 771 673 555 660
8 789 687 571 677 897 798 686 788
8 897 798 686 788 813 705 591 704
8 791 689 573 679 898 799 687 789
8 795 693 803 900 683 577 691 790
8 793 690 574 681 901 801 689 791
8 792 688 800 902 684 578 694 796
8 793 690 800 902 681 574 688 792
8 795 693 577 683 903 804 692 794
8 797 695 804 903 685 579 692 794
8 797 695 579 685 904 805 694 796
8 905 806 697 799 798 696 581 687
8 814 706 806 905 705 592 696 798
8 689 583 697 799 801 699 808 907
8 800 698 809 908 694 588 703 805
8 690 584 699 801 800 698 809 908
8 803 701 810 909 691 585 700 802
8 693 587 702 804 803 701 811 910
8 695 589 703 805 804 702 812 911
8 818 710 814 919 708 595 705 813
8 821 712 815 920 710 596 706 814
8 816 709 600 719 922 819 717 831
8 817 711 594 707 923 820 709 816
8 818 710 595 708 924 822 711 817
8 819 715 599 717 926 827 716 829
8 820 714 598 709 927 826 715 819
8 929 825 713 822 820 714 597 711
8 821 712 596 710 930 824 713 822
8 717 599 718 832 829 716 830 942
8 719 600 720 834 831 717 832 944
8 832 718 601 720 945 833 721 835
8 834 720 603 722 946 835 723 836
8 869 780 838 950 767 670 725 839
8 865 767 839 952 756 656 726 841
8 839 725 840 953 726 608 727 842
8 841 726 842 954 728 609 729 843
8 844 740 691 790 955 850 802 899
8 733 625 740 844 845 739 850 955
8 734 623 739 845 846 738 849 956
8 735 621 738 846 847 737 848 957
8 744 647 737 847 854 759 848 957
8 738 627 742 849 848 741 851 958
8 848 741 851 958 759 662 773 868
8 850 743 700 802 959 852 807 906
8 849 742 628 739 959 852 743 850
8 854 759 868 965 745 648 760 855
8 746 649 760 855 856 761 871 966
8 860 765 653 750 967 872 761 856
8 968 873 762 857 858 763 651 748
8 862 769 657 753 968 873 762 857
8 859 764 874 969 749 652 763 858
8 752 654 766 861 859 764 875 970
8 751 655 765 860 861 766 876 971
8 754 658 769 862 863 770 879 972
8 755 659 770 863 864 771 881 974
8 976 882 772 867 864 771 660 757
8 866 768 877 977 756 656 767 865
8 867 772 878 978 758 661 768 866
8 760 663 773 868 871 774 883 980
8 870 781 837 948 982 890 780 869
8 982 890 780 869 877 782 670 767
8 761 664 774 871 872 775 884 984
8 876 776 665 765 985 885 775 872
8 873 777 668 763 986 887 779 874
8 769 674 777 873 879 786 887 986
8 764 669 778 875 874 779 888 987
8 766 667 776 876 875 778 886 988
8 878 783 892 989 768 671 782 877
8 878 783 672 772 990 893 784 882
8 880 787 675 770 991 896 786 879
8 880 787 895 992 770 675 785 881
8 881 785 894 993 771 673 784 882
8 1006 905 799 898 897 798 687 789
8 919 814 905 1006 813 705 798 897
8 791 689 799 898 901 801 907 1007
8 900 803 909 1009 790 691 802 899
8 795 693 804 903 900 803 910 1010
8 902 800 908 1011 796 694 805 904
8 793 690 801 901 902 800 908 1011
8 797 695 805 904 903 804 911 1012
8 799 697 806 905 907 808 912 1013
8 920 815 912 1013 814 706 806 905
8 802 700 810 909 906 807 913 1014
8 801 699 808 907 908 809 914 1015
8 805 703 809 908 911 812 915 1016
8 803 701 811 910 909 810 916 1017
8 911 812 917 1018 804 702 811 910
8 925 821 920 1030 818 710 814 919
8 928 823 921 1031 821 712 815 920
8 922 819 717 831 1033 926 829 941
8 923 820 709 816 1034 927 819 922
8 1035 929 822 924 923 820 711 817
8 925 821 710 818 1036 930 822 924
8 1038 933 825 929 927 826 714 820
8 926 827 716 829 1039 935 828 939
8 927 826 715 819 1040 934 827 926
8 928 823 712 821 1041 931 824 930
8 1042 932 824 930 929 825 713 822
8 829 716 830 942 939 828 940 1058
8 831 717 832 944 941 829 942 1060
8 942 830 718 832 1061 943 833 945
8 944 832 720 834 1062 945 835 946
8 981 889 947 1064 870 781 837 948
8 948 837 949 1067 869 780 838 950
8 975 869 950 1069 865 767 839 952
8 950 838 951 1070 839 725 840 953
8 952 839 953 1071 841 726 842 954
8 955 850 802 899 1072 959 906 1008
8 956 849 739 845 1072 959 850 955
8 846 738 849 956 957 848 958 1073
8 957 848 958 1073 854 759 868 965
8 849 742 852 959 958 851 961 1076
8 960 853 961 1076 906 807 852 959
8 958 851 961 1076 868 773 883 980
8 960 853 807 906 1077 963 913 1014
8 855 760 868 965 966 871 980 1085
8 856 761 871 966 967 872 984 1086
8 971 876 765 860 1087 985 872 967
8 968 873 763 858 1088 986 874 969
8 862 769 873 968 972 879 986 1088
8 859 764 875 970 969 874 987 1089
8 861 766 876 971 970 875 988 1090
8 973 880 770 863 1091 991 879 972
8 973 880 992 1092 863 770 881 974
8 974 881 993 1093 864 771 882 976
8 979 870 948 1066 1094 982 869 975
8 1094 982 869 975 977 877 767 865
8 978 878 772 867 1095 990 882 976
8 978 878 989 1096 866 768 877 977
8 871 774 883 980 984 884 994 1099
8 983 891 999 1100 870 781 889 981
8 1101 1000 890 982 989 892 782 877
8 983 891 781 870 1101 1000 890 982
8 872 775 884 984 985 885 995 1103
8 876 776 885 985 988 886 996 1104
8 986 887 779 874 1105 998 888 987
8 879 786 887 986 991 896 998 1105
8 875 778 886 988 987 888 997 1106
8 990 893 1002 1107 878 783 892 989
8 1108 1003 893 990 993 894 784 882
8 880 787 896 991 992 895 1005 1109
8 993 894 785 881 1110 1004 895 992
8 898 799 905 1006 1007 907 1013 1120
8 1030 920 1013 1120 919 814 905 1006
8 901 801 907 1007 1011 908 1015 1121
8 899 802 909 1009 1008 906 1014 1122
8 900 803 910 1010 1009 909 1017 1123
8 1012 911 1018 1124 903 804 910 1010
8 904 805 908 1011 1012 911 1016 1125
8 1013 912 1020 1127 907 808 914 1015
8 1031 921 1020 1127 920 815 912 1013
8 1019 918 962 1075 1128 1021 913 1014
8 1128 1021 913 1014 1017 916 810 909
8 1015 914 1022 1129 908 809 915 1016
8 1016 915 1023 1130 911 812 917 1018
8 1018 917 1024 1131 910 811 916 1017
8 1037 928 1031 1148 925 821 920 1030
8 928 823 931 1041 1031 921 1032 1149
8 1033 926 829 941 1151 1039 939 1057
8 1034 927 819 922 1152 1040 926 1033
8 1153 1038 929 1035 1034 927 820 923
8 1154 1042 930 1036 1035 929 822 924
8 1037 928 821 925 1155 1041 930 1036
8 1039 935 828 939 1156 1047 938 1055
8 1157 1043 932 1042 1038 933 825 929
8 1038 933 826 927 1158 1045 934 1040
8 1040 934 827 926 1159 1046 935 1039
8 930 824 932 1042 1041 931 1044 1160
8 1051 936 1048 1165 1175 1052 937 1053
8 1156 1047 938 1055 1053 937 1054 1178
8 939 828 940 1058 1055 938 1056 1181
8 941 829 942 1060 1057 939 1058 1183
8 942 830 943 1061 1058 940 1059 1184
8 1060 942 832 944 1185 1061 945 1062
8 1082 964 1063 1188 981 889 947 1064
8 1097 981 1064 1190 979 870 948 1066
8 1064 947 1065 1191 948 837 949 1067
8 1066 948 1067 1193 975 869 950 1069
8 1067 949 1068 1194 950 838 951 1070
8 1069 950 1070 1195 952 839 953 1071
8 956 849 959 1072 1073 958 1076 1197
8 1074 960 1076 1197 1008 906 959 1072
8 1073 958 1076 1197 965 868 980 1085
8 1074 960 906 1008 1198 1077 1014 1122
8 1133 1026 1079 1199 1019 918 962 1075
8 1077 963 913 1014 1200 1080 962 1075
8 960 853 963 1077 1076 961 1078 1201
8 980 883 961 1076 1099 994 1078 1201
8 1210 1083 964 1082 1100 999 889 981
8 966 871 980 1085 1086 984 1099 1215
8 967 872 984 1086 1087 985 1103 1216
8 971 876 985 1087 1090 988 1104 1217
8 1088 986 874 969 1218 1105 987 1089
8 972 879 986 1088 1091 991 1105 1218
8 970 875 988 1090 1089 987 1106 1219
8 973 880 991 1091 1092 992 1109 1220
8 1093 993 881 974 1221 1110 992 1092
8 1222 1108 990 1095 1093 993 882 976
8 1223 1101 982 1094 1096 989 877 977
8 1098 983 870 979 1223 1101 982 1094
8 1095 990 1107 1224 978 878 989 1096
8 1098 983 1100 1225 979 870 981 1097
8 984 884 994 1099 1103 995 1111 1227
8 1102 1001 1115 1228 983 891 999 1100
8 1101 1000 892 989 1229 1116 1002 1107
8 1102 1001 891 983 1229 1116 1000 1101
8 985 885 995 1103 1104 996 1112 1230
8 988 886 996 1104 1106 997 1113 1231
8 1105 998 888 987 1232 1114 997 1106
8 991 896 998 1105 1109 1005 1114 1232
8 1108 1003 1117 1233 990 893 1002 1107
8 1108 1003 894 993 1233 1117 1004 1110
8 992 895 1005 1109 1110 1004 1118 1234
8 1120 1013 1127 1244 1007 907 1015 1121
8 1148 1031 1127 1244 1030 920 1013 1120
8 1121 1015 1129 1245 1011 908 1016 1125
8 1126 1019 1075 1196 1246 1128 1014 1122
8 1246 1128 1014 1122 1123 1017 909 1009
8 1124 1018 1131 1247 1010 910 1017 1123
8 1125 1016 1130 1248 1012 911 1018 1124
8 1127 1020 1137 1254 1015 914 1022 1129
8 1031 921 1032 1149 1127 1020 1137 1254
8 1134 1027 918 1019 1257 1140 1021 1128
8 1257 1140 1021 1128 1131 1024 916 1017
8 1129 1022 1141 1258 1016 915 1023 1130
8 1130 1023 1142 1259 1018 917 1024 1131
8 1261 1144 1025 1132 1133 1026 1079 1199
8 1255 1138 1025 1132 1135 1028 1144 1261
8 1133 1026 918 1019 1262 1145 1027 1134
8 1136 1029 1139 1256 1263 1146 1028 1135
8 1037 928 1041 1155 1148 1031 1149 1275
8 1041 931 1044 1160 1149 1032 1150 1276
8 1151 1039 939 1057 1278 1156 1055 1180
8 1152 1040 926 1033 1279 1159 1039 1151
8 1153 1038 927 1034 1280 1158 1040 1152
8 1281 1157 1042 1154 1153 1038 929 1035
8 1036 930 1042 1154 1155 1041 1160 1282
8 1283 1164 1046 1159 1156 1047 935 1039
8 1165 1048 1164 1283 1053 937 1047 1156
8 1157 1043 933 1038 1284 1161 1045 1158
8 1157 1043 1161 1284 1042 932 1044 1160
8 1040 934 1046 1159 1158 1045 1163 1285
8 1166 1049 1167 1292 1051 936 1048 1165
8 1166 1049 936 1051 1293 1168 1050 1172
8 1051 936 1052 1175 1172 1050 1173 1306
8 1174 1051 1165 1290 1308 1175 1053 1177
8 1053 937 1054 1178 1175 1052 1176 1309
8 1278 1156 1055 1180 1177 1053 1178 1311
8 1055 938 1056 1181 1178 1054 1179 1312
8 1057 939 1058 1183 1180 1055 1181 1314
8 1058 940 1059 1184 1181 1056 1182 1315
8 1060 942 1061 1185 1183 1058 1184 1316
8 1208 1081 1187 1321 1082 964 1063 1188
8 1209 1082 1188 1322 1097 981 1064 1190
8 1188 1063 1189 1323 1064 947 1065 1191
8 1190 1064 1191 1325 1066 948 1067 1193
8 1191 1065 1192 1326 1067 949 1068 1194
8 1067 1193 1069 950 1194 1327 1195 1070
8 1250 1133 1199 1330 1126 1019 1075 1196
8 1198 1077 1014 1122 1331 1200 1075 1196
8 1074 960 1077 1198 1197 1076 1201 1332
8 1085 980 1076 1197 1215 1099 1201 1332
8 1199 1079 1203 1333 1075 962 1080 1200
8 1132 1025 1119 1243 1199 1079 1203 1333
8 1201 1078 963 1077 1334 1202 1080 1200
8 1099 994 1078 1201 1227 1111 1202 1334
8 1343 1207 1081 1208 1210 1083 964 1082
8 1214 1084 1186 1319 1343 1207 1081 1208
8 1345 1210 1082 1209 1225 1100 981 1097
8 1346 1211 1083 1210 1228 1115 999 1100
8 1086 984 1099 1215 1216 1103 1227 1352
8 1087 985 1103 1216 1217 1104 1230 1353
8 1090 988 1104 1217 1219 1106 1231 1354
8 1218 1105 987 1089 1355 1232 1106 1219
8 1091 991 1105 1218 1220 1109 1232 1355
8 1092 992 1109 1220 1221 1110 1234 1356
8 1222 1108 1233 1357 1095 990 1107 1224
8 1222 1108 993 1093 1357 1233 1110 1221
8 1223 1101 989 1096 1358 1229 1107 1224
8 1226 1102 983 1098 1358 1229 1101 1223
8 1226 1102 1228 1359 1098 983 1100 1225
8 1103 995 1111 1227 1230 1112 1235 1360
8 1107 1002 1117 1233 1229 1116 1240 1362
8 1102 1001 1116 1229 1228 1115 1240 1362
8 1104 996 1112 1230 1231 1113 1236 1363
8 1364 1237 1114 1232 1231 1113 997 1106
8 1109 1005 1114 1232 1234 1118 1238 1365
8 1110 1004 1118 1234 1233 1117 1241 1366
8 1242 1374 1255 1138 1119 1243 1132 1025
8 1244 1127 1254 1376 1121 1015 1129 1245
8 1148 1031 1149 1275 1244 1127 1254 1376
8 1245 1129 1258 1377 1125 1016 1130 1248
8 1251 1134 1019 1126 1378 1257 1128 1246
8 1378 1257 1128 1246 1247 1131 1017 1123
8 1248 1130 1259 1379 1124 1018 1131 1247
8 1261 1381 1250 1133 1132 1249 1330 1199
8 1255 1380 1252 1135 1132 1249 1381 1261
8 1250 1133 1019 1126 1382 1262 1134 1251
8 1253 1136 1256 1385 1384 1263 1135 1252
8 1254 1137 1265 1387 1129 1022 1141 1258
8 1149 1032 1150 1276 1254 1137 1265 1387
8 1028 1135 1255 1138 1139 1256 1388 1266
8 1136 1029 1147 1264 1256 1139 1267 1389
8 1390 1268 1140 1257 1259 1142 1024 1131
8 1260 1143 1027 1134 1390 1268 1140 1257
8 1258 1141 1269 1391 1130 1023 1142 1259
8 1262 1145 1027 1134 1393 1271 1143 1260
8 1261 1144 1026 1133 1394 1272 1145 1262
8 1135 1028 1144 1261 1263 1146 1272 1394
8 1136 1029 1146 1263 1264 1147 1273 1395
8 1155 1041 1160 1282 1275 1149 1276 1405
8 1276 1150 1044 1160 1406 1277 1162 1286
8 1408 1283 1159 1279 1278 1156 1039 1151
8 1290 1165 1283 1408 1177 1053 1156 1278
8 1152 1040 1159 1279 1280 1158 1285 1409
8 1281 1157 1038 1153 1410 1284 1158 1280
8 1281 1157 1284 1410 1154 1042 1160 1282
8 1159 1046 1164 1283 1285 1163 1289 1412
8 1292 1167 1289 1412 1165 1048 1164 1283
8 1158 1045 1163 1285 1284 1161 1288 1413
8 1284 1161 1288 1413 1160 1044 1162 1286
8 1291 1166 1292 1418 1174 1051 1165 1290
8 1291 1166 1051 1174 1419 1293 1172 1305
8 1294 1169 1296 1421 1166 1049 1167 1292
8 1293 1168 1050 1172 1422 1295 1171 1303
8 1294 1169 1049 1166 1423 1297 1168 1293
8 1422 1295 1171 1303 1301 1170 1302 1435
8 1172 1050 1173 1306 1303 1171 1304 1438
8 1174 1051 1175 1308 1305 1172 1306 1440
8 1175 1052 1176 1309 1306 1173 1307 1441
8 1177 1053 1178 1311 1308 1175 1309 1443
8 1178 1054 1179 1312 1309 1176 1310 1444
8 1180 1055 1181 1314 1311 1178 1312 1446
8 1056 1181 1312 1179 1182 1315 1447 1313
8 1183 1058 1184 1316 1314 1181 1315 1448
8 1319 1186 1084 1214 1451 1317 1213 1350
8 1319 1186 1318 1453 1208 1081 1187 1321
8 1321 1187 1320 1456 1188 1063 1189 1323
8 1344 1208 1321 1457 1209 1082 1188 1322
8 1322 1188 1323 1458 1190 1064 1191 1325
8 1323 1189 1324 1459 1191 1065 1192 1326
8 1191 1325 1193 1067 1326 1460 1327 1194
8 1242 1374 1243 1119 1328 1462 1335 1204
8 1330 1199 1333 1465 1196 1075 1200 1331
8 1132 1249 1330 1199 1243 1375 1465 1333
8 1332 1201 1077 1198 1466 1334 1200 1331
8 1215 1099 1201 1332 1352 1227 1334 1466
8 1119 1243 1333 1203 1204 1335 1470 1338
8 1333 1203 1338 1470 1200 1080 1202 1334
8 1227 1111 1202 1334 1360 1235 1338 1470
8 1328 1462 1335 1204 1205 1336 1471 1339
8 1337 1206 1340 1472 1464 1329 1205 1336
8 1346 1211 1342 1479 1210 1083 1207 1343
8 1346 1211 1115 1228 1479 1342 1239 1361
8 1348 1212 1084 1214 1479 1342 1207 1343
8 1480 1343 1208 1344 1345 1210 1082 1209
8 1351 1214 1319 1454 1480 1343 1208 1344
8 1481 1346 1210 1345 1359 1228 1100 1225
8 1348 1212 1347 1483 1214 1084 1213 1350
8 1216 1103 1227 1352 1353 1230 1360 1488
8 1217 1104 1230 1353 1354 1231 1363 1489
8 1490 1364 1232 1355 1354 1231 1106 1219
8 1220 1109 1232 1355 1356 1234 1365 1491
8 1221 1110 1234 1356 1357 1233 1366 1492
8 1224 1107 1233 1357 1358 1229 1362 1493
8 1226 1102 1229 1358 1359 1228 1362 1493
8 1230 1112 1235 1360 1363 1236 1367 1496
8 1361 1239 1115 1228 1497 1371 1240 1362
8 1366 1241 1372 1498 1233 1117 1240 1362
8 1364 1237 1113 1231 1499 1368 1236 1363
8 1364 1237 1368 1499 1232 1114 1238 1365
8 1234 1118 1238 1365 1366 1241 1369 1500
8 1507 1373 1242 1374 1388 1266 1138 1255
8 1508 1374 1243 1375 1380 1255 1132 1249
8 1376 1254 1387 1509 1245 1129 1258 1377
8 1275 1149 1276 1405 1376 1254 1387 1509
8 1377 1258 1391 1510 1248 1130 1259 1379
8 1511 1390 1257 1378 1379 1259 1131 1247
8 1383 1260 1134 1251 1511 1390 1257 1378
8 1252 1135 1256 1385 1380 1255 1388 1512
8 1261 1381 1513 1394 1133 1250 1382 1262
8 1135 1252 1384 1263 1261 1381 1513 1394
8 1382 1262 1134 1251 1514 1393 1260 1383
8 1253 1136 1263 1384 1386 1264 1395 1516
8 1253 1136 1264 1386 1385 1256 1389 1517
8 1387 1265 1397 1519 1258 1141 1269 1391
8 1276 1150 1277 1406 1387 1265 1397 1519
8 1256 1139 1267 1389 1388 1266 1398 1520
8 1264 1147 1274 1396 1389 1267 1399 1521
8 1392 1270 1143 1260 1522 1400 1268 1390
8 1390 1268 1142 1259 1522 1400 1269 1391
8 1392 1270 1401 1523 1260 1143 1271 1393
8 1272 1394 1524 1402 1145 1262 1393 1271
8 1395 1273 1146 1263 1524 1402 1272 1394
8 1273 1395 1264 1147 1403 1526 1396 1274
8 1405 1276 1160 1282 1534 1406 1286 1411
8 1414 1287 1407 1535 1286 1162 1277 1406
8 1279 1159 1283 1408 1409 1285 1412 1537
8 1418 1292 1412 1537 1290 1165 1283 1408
8 1280 1158 1285 1409 1410 1284 1413 1538
8 1410 1284 1413 1538 1282 1160 1286 1411
8 1285 1163 1289 1412 1413 1288 1417 1540
8 1421 1296 1417 1540 1292 1167 1289 1412
8 1414 1287 1162 1286 1541 1416 1288 1413
8 1420 1294 1421 1545 1291 1166 1292 1418
8 1419 1293 1172 1305 1546 1422 1303 1437
8 1420 1294 1166 1291 1547 1423 1293 1419
8 1294 1169 1297 1423 1421 1296 1425 1548
8 1423 1297 1168 1293 1549 1424 1295 1422
8 1301 1170 1298 1427 1422 1295 1424 1549
8 1432 1300 1428 1554 1301 1170 1298 1427
8 1431 1299 1428 1554 1560 1430 1300 1432
8 1563 1433 1300 1432 1435 1302 1170 1301
8 1546 1422 1303 1437 1434 1301 1435 1565
8 1303 1171 1304 1438 1435 1302 1436 1566
8 1305 1172 1306 1440 1437 1303 1438 1568
8 1306 1173 1307 1441 1438 1304 1439 1569
8 1308 1175 1309 1443 1440 1306 1441 1571
8 1309 1176 1310 1444 1441 1307 1442 1572
8 1311 1178 1312 1446 1443 1309 1444 1574
8 1179 1312 1444 1310 1313 1447 1575 1445
8 1314 1181 1315 1448 1446 1312 1447 1576
8 1350 1213 1349 1486 1451 1317 1449 1579
8 1451 1317 1450 1581 1319 1186 1318 1453
8 1454 1319 1214 1351 1582 1451 1350 1487
8 1453 1318 1452 1584 1321 1187 1320 1456
8 1454 1319 1453 1585 1344 1208 1321 1457
8 1456 1320 1455 1586 1323 1189 1324 1459
8 1457 1321 1456 1587 1322 1188 1323 1458
8 1458 1323 1459 1588 1325 1191 1326 1460
8 1205 1336 1464 1329 1328 1462 1590 1461
8 1507 1373 1461 1590 1374 1242 1328 1462
8 1508 1374 1462 1591 1375 1243 1335 1467
8 1337 1206 1329 1464 1473 1341 1463 1594
8 1375 1243 1335 1467 1465 1333 1470 1596
8 1465 1333 1470 1596 1331 1200 1334 1466
8 1352 1227 1334 1466 1488 1360 1470 1596
8 1591 1462 1336 1468 1467 1335 1471 1597
8 1469 1337 1472 1598 1595 1464 1336 1468
8 1471 1339 1474 1600 1335 1204 1338 1470
8 1600 1474 1367 1496 1470 1338 1235 1360
8 1336 1205 1340 1472 1471 1339 1475 1601
8 1337 1206 1341 1473 1472 1340 1476 1602
8 1495 1370 1478 1609 1361 1239 1342 1479
8 1348 1212 1342 1479 1483 1347 1478 1609
8 1481 1346 1479 1610 1345 1210 1343 1480
8 1481 1346 1228 1359 1610 1479 1361 1494
8 1484 1348 1214 1351 1610 1479 1343 1480
8 1483 1347 1482 1612 1350 1213 1349 1486
8 1484 1348 1483 1613 1351 1214 1350 1487
8 1353 1230 1360 1488 1489 1363 1496 1616
8 1490 1364 1231 1354 1617 1499 1363 1489
8 1490 1364 1499 1617 1355 1232 1365 1491
8 1356 1234 1365 1491 1492 1366 1500 1619
8 1492 1366 1498 1620 1357 1233 1362 1493
8 1494 1361 1228 1359 1621 1497 1362 1493
8 1495 1370 1239 1361 1622 1504 1371 1497
8 1363 1236 1367 1496 1499 1368 1501 1623
8 1497 1371 1240 1362 1624 1505 1372 1498
8 1625 1503 1372 1498 1500 1369 1241 1366
8 1365 1238 1368 1499 1500 1369 1502 1626
8 1520 1398 1506 1633 1388 1266 1373 1507
8 1634 1507 1374 1508 1512 1388 1255 1380
8 1509 1387 1519 1635 1377 1258 1391 1510
8 1405 1276 1406 1534 1509 1387 1519 1635
8 1515 1392 1260 1383 1636 1522 1390 1511
8 1511 1390 1259 1379 1636 1522 1391 1510
8 1385 1256 1389 1517 1512 1388 1520 1637
8 1513 1394 1262 1382 1638 1524 1393 1514
8 1395 1516 1638 1524 1263 1384 1513 1394
8 1515 1392 1523 1639 1383 1260 1393 1514
8 1516 1395 1526 1640 1386 1264 1396 1518
8 1386 1264 1396 1518 1517 1389 1521 1641
8 1519 1397 1527 1643 1391 1269 1400 1522
8 1535 1407 1527 1643 1406 1277 1397 1519
8 1389 1267 1399 1521 1520 1398 1528 1644
8 1645 1529 1399 1521 1525 1404 1274 1396
8 1392 1270 1400 1522 1523 1401 1531 1646
8 1524 1402 1271 1393 1648 1532 1401 1523
8 1403 1526 1648 1532 1273 1395 1524 1402
8 1525 1404 1274 1396 1649 1533 1403 1526
8 1539 1414 1535 1657 1411 1286 1406 1534
8 1542 1415 1536 1658 1414 1287 1407 1535
8 1409 1285 1412 1537 1538 1413 1540 1660
8 1545 1421 1540 1660 1418 1292 1412 1537
8 1539 1414 1286 1411 1661 1541 1413 1538
8 1540 1417 1544 1663 1413 1288 1416 1541
8 1421 1296 1425 1548 1540 1417 1544 1663
8 1542 1415 1287 1414 1664 1543 1416 1541
8 1420 1294 1423 1547 1545 1421 1548 1666
8 1547 1423 1293 1419 1667 1549 1422 1546
8 1434 1301 1427 1553 1546 1422 1549 1667
8 1423 1297 1424 1549 1548 1425 1550 1668
8 1551 1426 1550 1668 1427 1298 1424 1549
8 1551 1426 1298 1427 1671 1552 1428 1554
8 1562 1432 1554 1674 1434 1301 1427 1553
8 1431 1299 1429 1558 1554 1428 1555 1675
8 1431 1299 1430 1560 1558 1429 1557 1680
8 1560 1430 1300 1432 1683 1559 1433 1563
8 1561 1431 1554 1674 1684 1560 1432 1562
8 1685 1563 1432 1562 1565 1435 1301 1434
8 1435 1302 1436 1566 1563 1433 1564 1686
8 1437 1303 1438 1568 1565 1435 1566 1688
8 1438 1304 1439 1569 1566 1436 1567 1689
8 1440 1306 1441 1571 1568 1438 1569 1691
8 1441 1307 1442 1572 1569 1439 1570 1692
8 1443 1309 1444 1574 1571 1441 1572 1694
8 1310 1444 1572 1442 1445 1575 1695 1573
8 1446 1312 1447 1576 1574 1444 1575 1696
8 1486 1349 1485 1614 1579 1449 1577 1699
8 1451 1317 1449 1579 1581 1450 1578 1701
8 1487 1350 1486 1615 1582 1451 1579 1702
8 1581 1450 1580 1704 1453 1318 1452 1584
8 1582 1451 1581 1705 1454 1319 1453 1585
8 1584 1452 1583 1706 1456 1320 1455 1586
8 1585 1453 1584 1707 1457 1321 1456 1587
8 1587 1456 1586 1708 1458 1323 1459 1588
8 1633 1506 1589 1710 1507 1373 1461 1590
8 1464 1329 1461 1590 1594 1463 1589 1710
8 1468 1336 1462 1591 1595 1464 1590 1711
8 1634 1507 1590 1711 1508 1374 1462 1591
8 1473 1341 1463 1594 1603 1477 1593 1716
8 1469 1337 1464 1595 1599 1473 1594 1717
8 1471 1597 1467 1335 1600 1718 1596 1470
8 1718 1600 1496 1616 1596 1470 1360 1488
8 1336 1468 1597 1471 1472 1598 1719 1601
8 1469 1337 1473 1599 1598 1472 1602 1720
8 1722 1604 1501 1623 1600 1474 1367 1496
8 1475 1601 1471 1339 1604 1722 1600 1474
8 1602 1476 1605 1723 1472 1340 1475 1601
8 1476 1602 1724 1606 1341 1473 1603 1477
8 1483 1347 1478 1609 1612 1482 1608 1731
8 1495 1370 1504 1622 1609 1478 1608 1731
8 1618 1495 1609 1732 1494 1361 1479 1610
8 1484 1348 1479 1610 1613 1483 1609 1732
8 1486 1349 1482 1612 1614 1485 1611 1733
8 1613 1483 1612 1734 1487 1350 1486 1615
8 1489 1363 1496 1616 1617 1499 1623 1736
8 1491 1365 1499 1617 1619 1500 1626 1737
8 1618 1495 1361 1494 1738 1622 1497 1621
8 1739 1625 1498 1620 1619 1500 1366 1492
8 1621 1497 1362 1493 1740 1624 1498 1620
8 1742 1631 1504 1622 1624 1505 1371 1497
8 1743 1628 1502 1626 1623 1501 1368 1499
8 1744 1630 1505 1624 1625 1503 1372 1498
8 1745 1629 1503 1625 1626 1502 1369 1500
8 1520 1398 1528 1644 1633 1506 1632 1751
8 1637 1520 1633 1752 1512 1388 1507 1634
8 1635 1519 1643 1753 1510 1391 1522 1636
8 1657 1535 1643 1753 1534 1406 1519 1635
8 1515 1392 1522 1636 1639 1523 1646 1754
8 1517 1389 1521 1641 1637 1520 1644 1755
8 1524 1638 1756 1648 1393 1514 1639 1523
8 1640 1526 1395 1516 1756 1648 1524 1638
8 1642 1525 1396 1518 1757 1649 1526 1640
8 1758 1645 1521 1641 1642 1525 1396 1518
8 1646 1531 1400 1522 1760 1650 1527 1643
8 1535 1407 1536 1658 1643 1527 1650 1760
8 1521 1399 1529 1645 1644 1528 1651 1761
8 1647 1530 1652 1762 1525 1404 1529 1645
8 1401 1523 1648 1532 1531 1646 1763 1655
8 1525 1404 1533 1649 1647 1530 1654 1765
8 1533 1649 1766 1656 1403 1526 1648 1532
8 1662 1542 1658 1774 1539 1414 1535 1657
8 1542 1415 1543 1664 1658 1536 1659 1775
8 1660 1540 1663 1777 1538 1413 1541 1661
8 1545 1421 1548 1666 1660 1540 1663 1777
8 1662 1542 1414 1539 1778 1664 1541 1661
8 1664 1543 1416 1541 1779 1665 1544 1663
8 1548 1425 1550 1668 1663 1544 1665 1779
8 1547 1423 1549 1667 1666 1548 1668 1781
8 1670 1551 1668 1781 1553 1427 1549 1667
8 1551 1426 1552 1671 1668 1550 1669 1782
8 1670 1551 1427 1553 1784 1671 1554 1674
8 1675 1555 1672 1785 1554 1428 1552 1671
8 1678 1556 1673 1789 1558 1429 1555 1675
8 1561 1431 1558 1681 1674 1554 1675 1790
8 1794 1677 1556 1678 1680 1557 1429 1558
8 1560 1430 1559 1683 1680 1557 1679 1797
8 1561 1431 1560 1684 1681 1558 1680 1798
8 1563 1433 1564 1686 1683 1559 1682 1800
8 1684 1560 1432 1562 1801 1683 1563 1685
8 1565 1435 1566 1688 1685 1563 1686 1802
8 1566 1436 1567 1689 1686 1564 1687 1803
8 1568 1438 1569 1691 1688 1566 1689 1805
8 1569 1439 1570 1692 1689 1567 1690 1806
8 1571 1441 1572 1694 1691 1569 1692 1808
8 1442 1572 1692 1570 1573 1695 1809 1693
8 1574 1444 1575 1696 1694 1572 1695 1810
8 1614 1485 1592 1712 1699 1577 1697 1813
8 1579 1449 1577 1699 1701 1578 1698 1815
8 1615 1486 1614 1735 1702 1579 1699 1816
8 1701 1578 1700 1818 1581 1450 1580 1704
8 1582 1451 1579 1702 1705 1581 1701 1819
8 1704 1580 1703 1820 1584 1452 1583 1706
8 1705 1581 1704 1821 1585 1453 1584 1707
8 1707 1584 1706 1822 1587 1456 1586 1708
8 1710 1589 1506 1633 1824 1709 1632 1751
8 1594 1463 1589 1710 1716 1593 1709 1824
8 1752 1633 1710 1825 1634 1507 1590 1711
8 1595 1464 1590 1711 1717 1594 1710 1825
8 1830 1714 1592 1712 1733 1611 1485 1614
8 1603 1477 1593 1716 1725 1607 1715 1834
8 1599 1473 1594 1717 1721 1603 1716 1835
8 1837 1722 1623 1736 1718 1600 1496 1616
8 1719 1601 1722 1837 1597 1471 1600 1718
8 1602 1720 1598 1472 1723 1838 1719 1601
8 1720 1602 1473 1599 1839 1724 1603 1721
8 1723 1605 1726 1840 1601 1475 1604 1722
8 1840 1726 1628 1743 1722 1604 1501 1623
8 1724 1606 1727 1841 1602 1476 1605 1723
8 1725 1607 1728 1842 1603 1477 1606 1724
8 1612 1482 1608 1731 1733 1611 1730 1849
8 1741 1627 1730 1849 1622 1504 1608 1731
8 1613 1483 1609 1732 1734 1612 1731 1850
8 1618 1495 1622 1738 1732 1609 1731 1850
8 1615 1486 1612 1734 1735 1614 1733 1851
8 1852 1743 1626 1737 1736 1623 1499 1617
8 1853 1745 1625 1739 1737 1626 1500 1619
8 1855 1742 1622 1738 1740 1624 1497 1621
8 1856 1744 1624 1740 1739 1625 1498 1620
8 1741 1627 1504 1622 1857 1746 1631 1742
8 1742 1631 1505 1624 1858 1749 1630 1744
8 1859 1747 1629 1745 1743 1628 1502 1626
8 1860 1748 1630 1744 1745 1629 1503 1625
8 1644 1528 1651 1761 1751 1632 1750 1865
8 1637 1520 1644 1755 1752 1633 1751 1866
8 1754 1646 1522 1636 1867 1760 1643 1753
8 1657 1535 1658 1774 1753 1643 1760 1867
8 1639 1523 1646 1754 1756 1648 1763 1868
8 1641 1521 1645 1758 1755 1644 1761 1869
8 1757 1649 1526 1640 1870 1766 1648 1756
8 1642 1525 1649 1757 1759 1647 1765 1871
8 1759 1647 1762 1872 1642 1525 1645 1758
8 1760 1650 1767 1874 1646 1531 1655 1763
8 1658 1536 1659 1775 1760 1650 1767 1874
8 1762 1652 1768 1875 1645 1529 1651 1761
8 1764 1653 1769 1876 1647 1530 1652 1762
8 1656 1766 1877 1773 1532 1648 1763 1655
8 1771 1879 1765 1654 1653 1764 1647 1530
8 1533 1649 1765 1654 1656 1766 1880 1772
8 1662 1542 1664 1778 1774 1658 1775 1887
8 1664 1543 1665 1779 1775 1659 1776 1888
8 1778 1664 1541 1661 1890 1779 1663 1777
8 1666 1548 1668 1781 1777 1663 1779 1890
8 1782 1669 1780 1891 1668 1550 1665 1779
8 1670 1551 1671 1784 1781 1668 1782 1893
8 1671 1552 1672 1785 1782 1669 1783 1894
8 1790 1675 1785 1896 1674 1554 1671 1784
8 1675 1555 1673 1789 1785 1672 1786 1897
8 1792 1676 1788 1903 1678 1556 1673 1789
8 1795 1678 1789 1904 1681 1558 1675 1790
8 1792 1676 1556 1678 1906 1791 1677 1794
8 1680 1557 1679 1797 1794 1677 1793 1909
8 1910 1794 1678 1795 1798 1680 1558 1681
8 1683 1559 1682 1800 1797 1679 1796 1912
8 1684 1560 1683 1801 1798 1680 1797 1913
8 1686 1564 1687 1803 1800 1682 1799 1915
8 1685 1563 1686 1802 1801 1683 1800 1916
8 1688 1566 1689 1805 1802 1686 1803 1917
8 1689 1567 1690 1806 1803 1687 1804 1918
8 1691 1569 1692 1808 1805 1689 1806 1920
8 1692 1570 1693 1809 1806 1690 1807 1921
8 1694 1572 1695 1810 1808 1692 1809 1922
8 1829 1713 1811 1926 1712 1592 1697 1813
8 1813 1697 1812 1928 1699 1577 1698 1815
8 1735 1614 1712 1828 1816 1699 1813 1929
8 1815 1698 1814 1931 1701 1578 1700 1818
8 1702 1579 1699 1816 1819 1701 1815 1932
8 1818 1700 1817 1933 1704 1580 1703 1820
8 1819 1701 1818 1934 1705 1581 1704 1821
8 1821 1704 1820 1935 1707 1584 1706 1822
8 1824 1709 1632 1751 1937 1823 1750 1865
8 1716 1593 1709 1824 1834 1715 1823 1937
8 1825 1710 1633 1752 1938 1824 1751 1866
8 1717 1594 1710 1825 1835 1716 1824 1938
8 1945 1830 1712 1828 1851 1733 1614 1735
8 1830 1714 1831 1946 1712 1592 1713 1829
8 1947 1832 1714 1830 1849 1730 1611 1733
8 1843 1729 1607 1725 1950 1833 1715 1834
8 1721 1603 1716 1835 1836 1725 1834 1951
8 1836 1725 1842 1953 1721 1603 1724 1839
8 1723 1838 1719 1601 1840 1954 1837 1722
8 1954 1840 1743 1852 1837 1722 1623 1736
8 1724 1839 1720 1602 1841 1955 1838 1723
8 1841 1727 1844 1956 1723 1605 1726 1840
8 1956 1844 1747 1859 1840 1726 1628 1743
8 1728 1842 1724 1606 1845 1957 1841 1727
8 1725 1607 1729 1843 1842 1728 1846 1958
8 1741 1627 1746 1857 1849 1730 1848 1965
8 1734 1612 1731 1850 1851 1733 1849 1966
8 1854 1741 1849 1966 1738 1622 1731 1850
8 1967 1859 1745 1853 1852 1743 1626 1737
8 1968 1860 1744 1856 1853 1745 1625 1739
8 1854 1741 1622 1738 1969 1857 1742 1855
8 1855 1742 1624 1740 1970 1858 1744 1856
8 1857 1746 1631 1742 1971 1861 1749 1858
8 1858 1749 1630 1744 1972 1863 1748 1860
8 1859 1747 1862 1973 1745 1629 1748 1860
8 1875 1768 1864 1977 1761 1651 1750 1865
8 1755 1644 1761 1869 1866 1751 1865 1978
8 1867 1760 1874 1979 1754 1646 1763 1868
8 1774 1658 1775 1887 1867 1760 1874 1979
8 1870 1766 1648 1756 1980 1877 1763 1868
8 1872 1762 1875 1981 1758 1645 1761 1869
8 1757 1649 1766 1870 1871 1765 1880 1982
8 1983 1879 1764 1873 1871 1765 1647 1759
8 1873 1764 1876 1984 1759 1647 1762 1872
8 1877 1773 1655 1763 1986 1881 1767 1874
8 1775 1659 1776 1888 1874 1767 1881 1986
8 1876 1769 1882 1987 1762 1652 1768 1875
8 1878 1770 1883 1988 1764 1653 1769 1876
8 1880 1772 1656 1766 1989 1886 1773 1877
8 1878 1770 1653 1764 1990 1884 1771 1879
8 1765 1654 1772 1880 1879 1771 1885 1991
8 1778 1664 1779 1890 1887 1775 1888 1997
8 1998 1889 1776 1888 1891 1780 1665 1779
8 1893 1782 1891 2000 1781 1668 1779 1890
8 1894 1783 1892 2001 1782 1669 1780 1891
8 1784 1671 1785 1896 1893 1782 1894 2003
8 1897 1786 1895 2004 1785 1672 1783 1894
8 1790 1675 1789 1904 1896 1785 1897 2006
8 1901 1787 1898 2007 1789 1673 1786 1897
8 1903 1788 1900 2013 1789 1673 1787 1901
8 1792 1676 1791 1906 1903 1788 1902 2016
8 1907 1792 1903 2017 1795 1678 1789 1904
8 1906 1791 1677 1794 2019 1905 1793 1909
8 1907 1792 1678 1795 2020 1906 1794 1910
8 1797 1679 1796 1912 1909 1793 1908 2022
8 1798 1680 1797 1913 1910 1794 1909 2023
8 1800 1682 1799 1915 1912 1796 1911 2025
8 1801 1683 1800 1916 1913 1797 1912 2026
8 1803 1687 1804 1918 1915 1799 1914 2028
8 1802 1686 1803 1917 1916 1800 1915 2029
8 1805 1689 1806 1920 1917 1803 1918 2030
8 1806 1690 1807 1921 1918 1804 1919 2031
8 1808 1692 1809 1922 1920 1806 1921 2032
8 1939 1826 1924 2037 1829 1713 1811 1926
8 1926 1811 1925 2039 1813 1697 1812 1928
8 1944 1829 1926 2040 1828 1712 1813 1929
8 1928 1812 1927 2042 1815 1698 1814 1931
8 1929 1813 1928 2043 1816 1699 1815 1932
8 1931 1814 1930 2044 1818 1700 1817 1933
8 1932 1815 1931 2045 1819 1701 1818 1934
8 1934 1818 1933 2046 1821 1704 1820 1935
8 2048 1936 1823 1937 1977 1864 1750 1865
8 1950 1833 1715 1834 2048 1936 1823 1937
8 1938 1824 1751 1866 2049 1937 1865 1978
8 1835 1716 1824 1938 1951 1834 1937 2049
8 1939 1826 1713 1829 2053 1942 1831 1946
8 1940 1827 1923 2035 2053 1942 1826 1939
8 1945 1830 1946 2058 1828 1712 1829 1944
8 2059 1947 1830 1945 1966 1849 1733 1851
8 1947 1832 1730 1849 2060 1948 1848 1965
8 1947 1832 1948 2060 1830 1714 1831 1946
8 1959 1847 1729 1843 2063 1949 1833 1950
8 1952 1843 1725 1836 2064 1950 1834 1951
8 1836 1725 1843 1952 1953 1842 1958 2066
8 1953 1842 1957 2067 1839 1724 1841 1955
8 1841 1955 1838 1723 1956 2068 1954 1840
8 2068 1956 1859 1967 1954 1840 1743 1852
8 1956 1844 1960 2069 1859 1747 1862 1973
8 1845 1957 1841 1727 1960 2069 1956 1844
8 1728 1842 1957 1845 1846 1958 2071 1961
8 1962 2072 1959 1847 1846 1958 1843 1729
8 1971 1861 1964 2077 1857 1746 1848 1965
8 1854 1741 1857 1969 1966 1849 1965 2078
8 1967 1859 1973 2079 1853 1745 1860 1968
8 1970 1858 1744 1856 2080 1972 1860 1968
8 1969 1857 1742 1855 2081 1971 1858 1970
8 1971 1861 1749 1858 2082 1974 1863 1972
8 1973 1862 1975 2083 1860 1748 1863 1972
8 1987 1882 1976 2086 1875 1768 1864 1977
8 1981 1875 1977 2087 1869 1761 1865 1978
8 1980 1877 1763 1868 2088 1986 1874 1979
8 1887 1775 1888 1997 1979 1874 1986 2088
8 1880 1982 2089 1989 1766 1870 1980 1877
8 1984 1876 1987 2090 1872 1762 1875 1981
8 1765 1871 1983 1879 1880 1982 2091 1991
8 1985 1878 1764 1873 2092 1990 1879 1983
8 1985 1878 1988 2093 1873 1764 1876 1984
8 2094 1992 1881 1986 1998 1889 1776 1888
8 1986 1881 1992 2094 1877 1773 1886 1989
8 1988 1883 1993 2095 1876 1769 1882 1987
8 1878 1770 1884 1990 1988 1883 1994 2096
8 1991 1885 1772 1880 2097 1996 1886 1989
8 1879 1771 1885 1991 1990 1884 1995 2098
8 2103 1998 1888 1997 2000 1891 1779 1890
8 2104 1999 1889 1998 2001 1892 1780 1891
8 2003 1894 2001 2106 1893 1782 1891 2000
8 2004 1895 2002 2107 1894 1783 1892 2001
8 2006 1897 2004 2109 1896 1785 1894 2003
8 2007 1898 2005 2110 1897 1786 1895 2004
8 2014 1901 2007 2112 1904 1789 1897 2006
8 2011 1899 2008 2113 1901 1787 1898 2007
8 2119 2010 1899 2011 2013 1900 1787 1901
8 2016 1902 2012 2122 1903 1788 1900 2013
8 2017 1903 2013 2123 1904 1789 1901 2014
8 1906 1791 1905 2019 2016 1902 2015 2125
8 1907 1792 1906 2020 2017 1903 2016 2126
8 1909 1793 1908 2022 2019 1905 2018 2128
8 2020 1906 1794 1910 2129 2019 1909 2023
8 1912 1796 1911 2025 2022 1908 2021 2131
8 1913 1797 1912 2026 2023 1909 2022 2132
8 1915 1799 1914 2028 2025 1911 2024 2134
8 1916 1800 1915 2029 2026 1912 2025 2135
8 1918 1804 1919 2031 2028 1914 2027 2136
8 1917 1803 1918 2030 2029 1915 2028 2137
8 1920 1806 1921 2032 2030 1918 2031 2138
8 1940 1827 1941 2054 2035 1923 2033 2140
8 2035 1923 2034 2143 1939 1826 1924 2037
8 2037 1924 2036 2146 1926 1811 1925 2039
8 2051 1939 2037 2147 1944 1829 1926 2040
8 2039 1925 2038 2149 1928 1812 1927 2042
8 2040 1926 2039 2150 1929 1813 1928 2043
8 2042 1927 2041 2151 1931 1814 1930 2044
8 2043 1928 2042 2152 1932 1815 1931 2045
8 2045 1931 2044 2153 1934 1818 1933 2046
8 2155 2047 1936 2048 2086 1976 1864 1977
8 2063 1949 1833 1950 2155 2047 1936 2048
8 2156 2048 1937 2049 2087 1977 1865 1978
8 2064 1950 1834 1951 2156 2048 1937 2049
8 2051 1939 1829 1944 2160 2053 1946 2058
8 2052 1940 2035 2144 2160 2053 1939 2051
8 2053 1942 1831 1946 2163 2057 1948 2060
8 2055 1943 1827 1940 2163 2057 1942 2053
8 2055 1943 2056 2164 1940 1827 1941 2054
8 2059 1947 1849 1966 2167 2060 1965 2078
8 2059 1947 2060 2167 1945 1830 1946 2058
8 2077 1964 2061 2168 1965 1848 1948 2060
8 2070 1963 1847 1959 2170 2062 1949 2063
8 2065 1959 1843 1952 2171 2063 1950 2064
8 2173 2072 1958 2066 2065 1959 1843 1952
8 1953 1842 1958 2066 2067 1957 2071 2174
8 2068 1956 2069 2175 1967 1859 1973 2079
8 2067 1957 2069 2175 1955 1841 1956 2068
8 1845 1957 2069 1960 1961 2071 2176 2073
8 2069 1960 2073 2176 1973 1862 1975 2083
8 2070 1963 2075 2177 1959 1847 1962 2072
8 1846 1958 2071 1961 1962 2072 2178 2074
8 2077 1964 1861 1971 2182 2076 1974 2082
8 2081 1971 2077 2183 1969 1857 1965 2078
8 2079 1973 2083 2184 1968 1860 1972 2080
8 2081 1971 1858 1970 2185 2082 1972 2080
8 2083 1975 2084 2186 1972 1863 1974 2082
8 2086 1976 1882 1987 2189 2085 1993 2095
8 2090 1987 2086 2190 1981 1875 1977 2087
8 2191 2094 1986 2088 2103 1998 1888 1997
8 2088 1986 2094 2191 1980 1877 1989 2089
8 1991 2091 2192 2097 1880 1982 2089 1989
8 2093 1988 2095 2193 1984 1876 1987 2090
8 1879 1983 2092 1990 1991 2091 2194 2098
8 1985 1878 1990 2092 2093 1988 2096 2195
8 2097 1996 1886 1989 2196 2099 1992 2094
8 2196 2099 1992 2094 2104 1999 1889 1998
8 1994 2096 1988 1883 2100 2197 2095 1993
8 2096 1994 1884 1990 2198 2101 1995 2098
8 1995 2098 2199 2102 1885 1991 2097 1996
8 2203 2104 1998 2103 2106 2001 1891 2000
8 2107 2002 2105 2204 2001 1892 1999 2104
8 2109 2004 2107 2206 2003 1894 2001 2106
8 2110 2005 2108 2207 2004 1895 2002 2107
8 2112 2007 2110 2209 2006 1897 2004 2109
8 2113 2008 2111 2210 2007 1898 2005 2110
8 2120 2011 2113 2212 2014 1901 2007 2112
8 2117 2009 2114 2213 2011 1899 2008 2113
8 2219 2116 2009 2117 2119 2010 1899 2011
8 2222 2118 2010 2119 2122 2012 1900 2013
8 2223 2119 2011 2120 2123 2013 1901 2014
8 2016 1902 2015 2125 2122 2012 2121 2225
8 2126 2016 2122 2226 2017 1903 2013 2123
8 2019 1905 2018 2128 2125 2015 2124 2228
8 2020 1906 2019 2129 2126 2016 2125 2229
8 2022 1908 2021 2131 2128 2018 2127 2231
8 2023 1909 2022 2132 2129 2019 2128 2232
8 2025 1911 2024 2134 2131 2021 2130 2234
8 2026 1912 2025 2135 2132 2022 2131 2235
8 1914 2028 2134 2024 2027 2136 2236 2133
8 2029 1915 2028 2137 2135 2025 2134 2237
8 2030 1918 2031 2138 2137 2028 2136 2238
8 2157 2050 2139 2240 2054 1941 2033 2140
8 2052 1940 2054 2161 2144 2035 2140 2242
8 2140 2033 2141 2243 2035 1923 2034 2143
8 2143 2034 2142 2246 2037 1924 2036 2146
8 2144 2035 2143 2247 2051 1939 2037 2147
8 2146 2036 2145 2249 2039 1925 2038 2149
8 2147 2037 2146 2250 2040 1926 2039 2150
8 2149 2038 2148 2251 2042 1927 2041 2151
8 2150 2039 2149 2252 2043 1928 2042 2152
8 2152 2042 2151 2253 2045 1931 2044 2153
8 2255 2154 2047 2155 2189 2085 1976 2086
8 2170 2062 1949 2063 2255 2154 2047 2155
8 2256 2155 2048 2156 2190 2086 1977 2087
8 2171 2063 1950 2064 2256 2155 2048 2156
8 2258 2159 2050 2157 2164 2056 1941 2054
8 2160 2053 1946 2058 2262 2163 2060 2167
8 2162 2055 1940 2052 2262 2163 2053 2160
8 2162 2055 2164 2263 2052 1940 2054 2161
8 2163 2057 1948 2060 2264 2165 2061 2168
8 2055 1943 2057 2163 2164 2056 2165 2264
8 2182 2076 2166 2268 2077 1964 2061 2168
8 2183 2077 2168 2269 2078 1965 2060 2167
8 2070 1963 2062 2170 2177 2075 2169 2271
8 2172 2070 1959 2065 2272 2170 2063 2171
8 2172 2070 2177 2273 2065 1959 2072 2173
8 2066 1958 2072 2173 2174 2071 2178 2274
8 2067 1957 2071 2174 2175 2069 2176 2275
8 2175 2069 2176 2275 2079 1973 2083 2184
8 2071 1961 2074 2178 2176 2073 2179 2276
8 2176 2073 2179 2276 2083 1975 2084 2186
8 2072 1962 2075 2177 2178 2074 2180 2277
8 2182 2076 1974 2082 2280 2181 2084 2186
8 2183 2077 1971 2081 2281 2182 2082 2185
8 2184 2083 2186 2282 2080 1972 2082 2185
8 2189 2085 1993 2095 2285 2188 2100 2197
8 2190 2086 1987 2090 2286 2189 2095 2193
8 2192 2097 1989 2089 2287 2196 2094 2191
8 2287 2196 2094 2191 2203 2104 1998 2103
8 2194 2098 1991 2091 2288 2199 2097 2192
8 2195 2096 2197 2289 2093 1988 2095 2193
8 2096 2195 2290 2198 1990 2092 2194 2098
8 2097 1996 2099 2196 2199 2102 2200 2291
8 2196 2099 1999 2104 2291 2200 2105 2204
8 2100 2197 2292 2201 1994 2096 2198 2101
8 1995 2098 2198 2101 2102 2199 2293 2202
8 2206 2107 2204 2296 2106 2001 2104 2203
8 2207 2108 2205 2297 2107 2002 2105 2204
8 2209 2110 2207 2299 2109 2004 2107 2206
8 2210 2111 2208 2300 2110 2005 2108 2207
8 2212 2113 2210 2302 2112 2007 2110 2209
8 2213 2114 2211 2303 2113 2008 2111 2210
8 2220 2117 2213 2305 2120 2011 2113 2212
8 2216 2115 2214 2306 2117 2009 2114 2213
8 2216 2115 2009 2117 2311 2217 2116 2219
8 2219 2116 2010 2119 2314 2218 2118 2222
8 2315 2219 2117 2220 2223 2119 2011 2120
8 2122 2012 2121 2225 2222 2118 2221 2317
8 2318 2222 2119 2223 2226 2122 2013 2123
8 2125 2015 2124 2228 2225 2121 2224 2320
8 2126 2016 2125 2229 2226 2122 2225 2321
8 2128 2018 2127 2231 2228 2124 2227 2323
8 2129 2019 2128 2232 2229 2125 2228 2324
8 2131 2021 2130 2234 2231 2127 2230 2326
8 2132 2022 2131 2235 2232 2128 2231 2327
8 2134 2024 2133 2236 2234 2130 2233 2328
8 2135 2025 2134 2237 2235 2131 2234 2329
8 2137 2028 2136 2238 2237 2134 2236 2330
8 2157 2050 2158 2259 2240 2139 2239 2332
8 2257 2157 2240 2334 2161 2054 2140 2242
8 2240 2139 2241 2335 2140 2033 2141 2243
8 2242 2140 2243 2337 2144 2035 2143 2247
8 2243 2141 2244 2338 2143 2034 2142 2246
8 2246 2142 2245 2341 2146 2036 2145 2249
8 2247 2143 2246 2342 2147 2037 2146 2250
8 2249 2145 2248 2343 2149 2038 2148 2251
8 2250 2146 2249 2344 2150 2039 2149 2252
8 2252 2149 2251 2345 2152 2042 2151 2253
8 2169 2271 2347 2254 2062 2170 2255 2154
8 2189 2085 2188 2285 2255 2154 2254 2347
8 2348 2255 2155 2256 2286 2189 2086 2190
8 2272 2170 2063 2171 2348 2255 2155 2256
8 2349 2258 2157 2257 2263 2164 2054 2161
8 2258 2159 2261 2351 2157 2050 2158 2259
8 2258 2159 2056 2164 2351 2261 2165 2264
8 2262 2163 2060 2167 2355 2264 2168 2269
8 2162 2055 2163 2262 2263 2164 2264 2355
8 2357 2266 2165 2264 2268 2166 2061 2168
8 2268 2166 2076 2182 2361 2267 2181 2280
8 2281 2182 2268 2362 2183 2077 2168 2269
8 2271 2169 2270 2364 2177 2075 2180 2277
8 2172 2070 2170 2272 2273 2177 2271 2365
8 2072 2173 2274 2178 2177 2273 2366 2277
8 2071 2174 2275 2176 2178 2274 2367 2276
8 2275 2176 2276 2367 2184 2083 2186 2282
8 2283 2187 2084 2186 2368 2278 2179 2276
8 2178 2074 2180 2277 2276 2179 2278 2368
8 2283 2187 2279 2370 2186 2084 2181 2280
8 2281 2182 2082 2185 2371 2280 2186 2282
8 2188 2285 2374 2284 2100 2197 2292 2201
8 2286 2189 2095 2193 2375 2285 2197 2289
8 2192 2097 2196 2287 2288 2199 2291 2376
8 2287 2196 2104 2203 2376 2291 2204 2296
8 2194 2098 2199 2288 2290 2198 2293 2377
8 2289 2197 2096 2195 2378 2292 2198 2290
8 2291 2200 2105 2204 2379 2294 2205 2297
8 2199 2102 2200 2291 2293 2202 2294 2379
8 2198 2101 2202 2293 2292 2201 2295 2380
8 2299 2207 2297 2383 2206 2107 2204 2296
8 2300 2208 2298 2384 2207 2108 2205 2297
8 2302 2210 2300 2386 2209 2110 2207 2299
8 2303 2211 2301 2387 2210 2111 2208 2300
8 2305 2213 2303 2389 2212 2113 2210 2302
8 2306 2214 2304 2390 2213 2114 2211 2303
8 2310 2216 2306 2392 2220 2117 2213 2305
8 2308 2215 2307 2393 2216 2115 2214 2306
8 2308 2215 2115 2216 2396 2309 2217 2311
8 2310 2216 2117 2220 2398 2311 2219 2315
8 2311 2217 2116 2219 2399 2312 2218 2314
8 2314 2218 2118 2222 2402 2313 2221 2317
8 2315 2219 2119 2223 2403 2314 2222 2318
8 2225 2121 2224 2320 2317 2221 2316 2405
8 2226 2122 2225 2321 2318 2222 2317 2406
8 2228 2124 2227 2323 2320 2224 2319 2408
8 2229 2125 2228 2324 2321 2225 2320 2409
8 2231 2127 2230 2326 2323 2227 2322 2411
8 2232 2128 2231 2327 2324 2228 2323 2412
8 2234 2130 2233 2328 2326 2230 2325 2413
8 2235 2131 2234 2329 2327 2231 2326 2414
8 2237 2134 2236 2330 2329 2234 2328 2415
8 2259 2158 2260 2352 2332 2239 2331 2417
8 2257 2157 2259 2350 2334 2240 2332 2419
8 2240 2139 2239 2332 2335 2241 2333 2420
8 2334 2240 2335 2422 2242 2140 2243 2337
8 2335 2241 2336 2423 2243 2141 2244 2338
8 2337 2243 2338 2425 2247 2143 2246 2342
8 2338 2244 2339 2426 2246 2142 2245 2341
8 2341 2245 2340 2428 2249 2145 2248 2343
8 2342 2246 2341 2429 2250 2146 2249 2344
8 2344 2249 2343 2430 2252 2149 2251 2345
8 2188 2285 2347 2254 2284 2374 2432 2346
8 2347 2254 2346 2432 2271 2169 2270 2364
8 2365 2271 2170 2272 2433 2347 2255 2348
8 2286 2189 2285 2375 2348 2255 2347 2433
8 2349 2258 2351 2435 2257 2157 2259 2350
8 2349 2258 2164 2263 2435 2351 2264 2355
8 2259 2158 2261 2351 2352 2260 2354 2437
8 2356 2265 2354 2437 2264 2165 2261 2351
8 2441 2357 2264 2355 2362 2268 2168 2269
8 2356 2265 2165 2264 2442 2358 2266 2357
8 2443 2359 2266 2357 2361 2267 2166 2268
8 2370 2279 2360 2446 2280 2181 2267 2361
8 2362 2268 2182 2281 2447 2361 2280 2371
8 2180 2277 2368 2278 2270 2364 2449 2363
8 2271 2365 2273 2177 2364 2450 2366 2277
8 2372 2283 2186 2282 2451 2368 2276 2367
8 2178 2274 2367 2276 2277 2366 2451 2368
8 2283 2187 2278 2368 2370 2279 2369 2452
8 2372 2283 2370 2453 2282 2186 2280 2371
8 2284 2374 2455 2373 2201 2292 2380 2295
8 2375 2285 2197 2289 2456 2374 2292 2378
8 2376 2291 2204 2296 2457 2379 2297 2383
8 2288 2199 2291 2376 2377 2293 2379 2457
8 2198 2290 2378 2292 2293 2377 2458 2380
8 2293 2202 2294 2379 2380 2295 2381 2459
8 2384 2298 2381 2459 2297 2205 2294 2379
8 2386 2300 2384 2463 2299 2207 2297 2383
8 2387 2301 2385 2464 2300 2208 2298 2384
8 2389 2303 2387 2466 2302 2210 2300 2386
8 2390 2304 2388 2467 2303 2211 2301 2387
8 2392 2306 2390 2469 2305 2213 2303 2389
8 2393 2307 2391 2470 2306 2214 2304 2390
8 2395 2308 2393 2472 2310 2216 2306 2392
8 2308 2215 2309 2396 2393 2307 2394 2473
8 2395 2308 2216 2310 2475 2396 2311 2398
8 2396 2309 2217 2311 2476 2397 2312 2399
8 2398 2311 2219 2315 2478 2399 2314 2403
8 2399 2312 2218 2314 2479 2400 2313 2402
8 2317 2221 2316 2405 2402 2313 2401 2482
8 2403 2314 2222 2318 2483 2402 2317 2406
8 2320 2224 2319 2408 2405 2316 2404 2485
8 2321 2225 2320 2409 2406 2317 2405 2486
8 2323 2227 2322 2411 2408 2319 2407 2488
8 2324 2228 2323 2412 2409 2320 2408 2489
8 2326 2230 2325 2413 2411 2322 2410 2490
8 2327 2231 2326 2414 2412 2323 2411 2491
8 2329 2234 2328 2415 2414 2326 2413 2492
8 2417 2331 2260 2352 2494 2416 2353 2438
8 2350 2259 2352 2436 2419 2332 2417 2496
8 2332 2239 2331 2417 2420 2333 2418 2497
8 2334 2240 2332 2419 2422 2335 2420 2499
8 2420 2333 2421 2500 2335 2241 2336 2423
8 2422 2335 2423 2502 2337 2243 2338 2425
8 2423 2336 2424 2503 2338 2244 2339 2426
8 2425 2338 2426 2505 2342 2246 2341 2429
8 2426 2339 2427 2506 2341 2245 2340 2428
8 2429 2341 2428 2507 2344 2249 2343 2430
8 2432 2346 2284 2374 2509 2431 2373 2455
8 2432 2346 2431 2509 2364 2270 2363 2449
8 2375 2285 2374 2456 2433 2347 2432 2510
8 2347 2433 2365 2271 2432 2510 2450 2364
8 2350 2259 2351 2435 2436 2352 2437 2514
8 2440 2356 2437 2514 2355 2264 2351 2435
8 2352 2260 2354 2437 2438 2353 2439 2516
8 2356 2265 2358 2442 2437 2354 2439 2516
8 2440 2356 2264 2355 2518 2442 2357 2441
8 2519 2443 2357 2441 2447 2361 2268 2362
8 2443 2359 2444 2520 2357 2266 2358 2442
8 2443 2359 2267 2361 2520 2444 2360 2446
8 2446 2360 2279 2370 2523 2445 2369 2452
8 2453 2370 2446 2524 2371 2280 2361 2447
8 2449 2363 2448 2525 2368 2278 2369 2452
8 2366 2277 2364 2450 2451 2368 2449 2526
8 2372 2283 2368 2451 2453 2370 2452 2527
8 2455 2373 2295 2380 2529 2454 2382 2460
8 2456 2374 2292 2378 2530 2455 2380 2458
8 2377 2293 2379 2457 2458 2380 2459 2531
8 2463 2384 2459 2531 2383 2297 2379 2457
8 2533 2461 2382 2460 2459 2381 2295 2380
8 2464 2385 2461 2533 2384 2298 2381 2459
8 2466 2387 2464 2537 2386 2300 2384 2463
8 2467 2388 2465 2538 2387 2301 2385 2464
8 2469 2390 2467 2540 2389 2303 2387 2466
8 2470 2391 2468 2541 2390 2304 2388 2467
8 2472 2393 2470 2543 2392 2306 2390 2469
8 2393 2307 2394 2473 2470 2391 2471 2544
8 2395 2308 2396 2475 2472 2393 2473 2546
8 2396 2309 2397 2476 2473 2394 2474 2547
8 2475 2396 2311 2398 2549 2476 2399 2478
8 2476 2397 2312 2399 2550 2477 2400 2479
8 2478 2399 2314 2403 2552 2479 2402 2483
8 2479 2400 2313 2402 2553 2480 2401 2482
8 2405 2316 2404 2485 2482 2401 2481 2556
8 2406 2317 2405 2486 2483 2402 2482 2557
8 2408 2319 2407 2488 2485 2404 2484 2559
8 2409 2320 2408 2489 2486 2405 2485 2560
8 2411 2322 2410 2490 2488 2407 2487 2561
8 2412 2323 2411 2491 2489 2408 2488 2562
8 2414 2326 2413 2492 2491 2411 2490 2563
8 2513 2434 2493 2565 2438 2353 2416 2494
8 2496 2417 2352 2436 2567 2494 2438 2515
8 2494 2416 2495 2568 2417 2331 2418 2497
8 2419 2332 2417 2496 2499 2420 2497 2570
8 2497 2418 2498 2571 2420 2333 2421 2500
8 2499 2420 2500 2573 2422 2335 2423 2502
8 2500 2421 2501 2574 2423 2336 2424 2503
8 2502 2423 2503 2576 2425 2338 2426 2505
8 2503 2424 2504 2577 2426 2339 2427 2506
8 2505 2426 2506 2578 2429 2341 2428 2507
8 2509 2431 2373 2455 2580 2508 2454 2529
8 2509 2431 2508 2580 2449 2363 2448 2525
8 2432 2510 2581 2509 2374 2456 2530 2455
8 2432 2510 2450 2364 2509 2581 2526 2449
8 2583 2511 2434 2513 2516 2439 2353 2438
8 2436 2352 2437 2514 2515 2438 2516 2588
8 2440 2356 2442 2518 2514 2437 2516 2588
8 2442 2358 2444 2520 2516 2439 2517 2589
8 2519 2443 2520 2591 2441 2357 2442 2518
8 2519 2443 2361 2447 2591 2520 2446 2524
8 2446 2360 2445 2523 2520 2444 2521 2592
8 2525 2448 2522 2593 2452 2369 2445 2523
8 2524 2446 2370 2453 2594 2523 2452 2527
8 2526 2449 2525 2595 2451 2368 2452 2527
8 2534 2462 2528 2597 2460 2382 2454 2529
8 2530 2455 2380 2458 2598 2529 2460 2532
8 2599 2533 2460 2532 2531 2459 2380 2458
8 2537 2464 2533 2599 2463 2384 2459 2531
8 2534 2462 2382 2460 2601 2535 2461 2533
8 2538 2465 2535 2601 2464 2385 2461 2533
8 2540 2467 2538 2604 2466 2387 2464 2537
8 2541 2468 2539 2605 2467 2388 2465 2538
8 2543 2470 2541 2607 2469 2390 2467 2540
8 2470 2391 2471 2544 2541 2468 2542 2608
8 2472 2393 2473 2546 2543 2470 2544 2610
8 2473 2394 2474 2547 2544 2471 2545 2611
8 2475 2396 2476 2549 2546 2473 2547 2613
8 2476 2397 2477 2550 2547 2474 2548 2614
8 2549 2476 2399 2478 2616 2550 2479 2552
8 2479 2400 2480 2553 2550 2477 2551 2617
8 2552 2479 2402 2483 2619 2553 2482 2557
8 2482 2401 2481 2556 2553 2480 2554 2620
8 2485 2404 2484 2559 2556 2481 2555 2623
8 2486 2405 2485 2560 2557 2482 2556 2624
8 2488 2407 2487 2561 2559 2484 2558 2625
8 2489 2408 2488 2562 2560 2485 2559 2626
8 2491 2411 2490 2563 2562 2488 2561 2627
8 2513 2434 2512 2585 2565 2493 2564 2630
8 2586 2513 2565 2632 2515 2438 2494 2567
8 2565 2493 2566 2633 2494 2416 2495 2568
8 2567 2494 2568 2635 2496 2417 2497 2570
8 2568 2495 2569 2636 2497 2418 2498 2571
8 2570 2497 2571 2638 2499 2420 2500 2573
8 2571 2498 2572 2639 2500 2421 2501 2574
8 2573 2500 2574 2641 2502 2423 2503 2576
8 2574 2501 2575 2642 2503 2424 2504 2577
8 2576 2503 2577 2643 2505 2426 2506 2578
8 2597 2528 2579 2645 2529 2454 2508 2580
8 2580 2508 2579 2645 2525 2448 2522 2593
8 2581 2509 2455 2530 2646 2580 2529 2598
8 2581 2509 2580 2646 2526 2449 2525 2595
8 2583 2511 2582 2648 2513 2434 2512 2585
8 2583 2511 2439 2516 2648 2582 2517 2589
8 2649 2583 2513 2586 2588 2516 2438 2515
8 2589 2517 2444 2520 2653 2587 2521 2592
8 2518 2442 2520 2591 2588 2516 2589 2654
8 2593 2522 2590 2655 2523 2445 2521 2592
8 2524 2446 2523 2594 2591 2520 2592 2656
8 2595 2525 2593 2657 2527 2452 2523 2594
8 2602 2536 2596 2659 2534 2462 2528 2597
8 2600 2534 2597 2660 2532 2460 2529 2598
8 2600 2534 2460 2532 2661 2601 2533 2599
8 2604 2538 2601 2661 2537 2464 2533 2599
8 2602 2536 2462 2534 2663 2603 2535 2601
8 2601 2535 2465 2538 2663 2603 2539 2605
8 2607 2541 2605 2665 2540 2467 2538 2604
8 2608 2542 2606 2666 2541 2468 2539 2605
8 2543 2470 2544 2610 2607 2541 2608 2668
8 2544 2471 2545 2611 2608 2542 2609 2669
8 2546 2473 2547 2613 2610 2544 2611 2671
8 2547 2474 2548 2614 2611 2545 2612 2672
8 2549 2476 2550 2616 2613 2547 2614 2674
8 2550 2477 2551 2617 2614 2548 2615 2675
8 2552 2479 2553 2619 2616 2550 2617 2677
8 2553 2480 2554 2620 2617 2551 2618 2678
8 2557 2482 2556 2624 2619 2553 2620 2680
8 2556 2481 2555 2623 2620 2554 2621 2681
8 2559 2484 2558 2625 2623 2555 2622 2683
8 2560 2485 2559 2626 2624 2556 2623 2684
8 2562 2488 2561 2627 2626 2559 2625 2685
8 2690 2629 2564 2630 2650 2584 2512 2585
8 2586 2513 2585 2651 2632 2565 2630 2691
8 2630 2564 2631 2692 2565 2493 2566 2633
8 2632 2565 2633 2694 2567 2494 2568 2635
8 2633 2566 2634 2695 2568 2495 2569 2636
8 2635 2568 2636 2697 2570 2497 2571 2638
8 2636 2569 2637 2698 2571 2498 2572 2639
8 2638 2571 2639 2700 2573 2500 2574 2641
8 2639 2572 2640 2701 2574 2501 2575 2642
8 2641 2574 2642 2702 2576 2503 2577 2643
8 2597 2528 2596 2659 2645 2579 2644 2704
8 2645 2579 2644 2704 2593 2522 2590 2655
8 2660 2597 2645 2705 2598 2529 2580 2646
8 2646 2580 2645 2705 2595 2525 2593 2657
8 2650 2584 2512 2585 2707 2647 2582 2648
8 2648 2582 2517 2589 2707 2647 2587 2653
8 2649 2583 2648 2708 2586 2513 2585 2651
8 2649 2583 2516 2588 2708 2648 2589 2654
8 2655 2590 2652 2710 2592 2521 2587 2653
8 2654 2589 2520 2591 2711 2653 2592 2656
8 2657 2593 2655 2712 2594 2523 2592 2656
8 2602 2536 2603 2663 2659 2596 2658 2714
8 2662 2602 2659 2715 2600 2534 2597 2660
8 2662 2602 2534 2600 2717 2663 2601 2661
8 2661 2601 2538 2604 2717 2663 2605 2665
8 2666 2606 2664 2718 2605 2539 2603 2663
8 2668 2608 2666 2720 2607 2541 2605 2665
8 2608 2542 2609 2669 2666 2606 2667 2721
8 2610 2544 2611 2671 2668 2608 2669 2723
8 2611 2545 2612 2672 2669 2609 2670 2724
8 2613 2547 2614 2674 2671 2611 2672 2726
8 2614 2548 2615 2675 2672 2612 2673 2727
8 2616 2550 2617 2677 2674 2614 2675 2729
8 2617 2551 2618 2678 2675 2615 2676 2730
8 2619 2553 2620 2680 2677 2617 2678 2732
8 2620 2554 2621 2681 2678 2618 2679 2733
8 2624 2556 2623 2684 2680 2620 2681 2735
8 2681 2621 2555 2623 2736 2682 2622 2683
8 2626 2559 2625 2685 2684 2623 2683 2737
8 2688 2628 2584 2650 2740 2686 2647 2707
8 2688 2628 2687 2742 2650 2584 2629 2690
8 2690 2629 2689 2745 2630 2564 2631 2692
8 2746 2690 2630 2691 2709 2650 2585 2651
8 2691 2630 2692 2747 2632 2565 2633 2694
8 2692 2631 2693 2748 2633 2566 2634 2695
8 2694 2633 2695 2750 2635 2568 2636 2697
8 2695 2634 2696 2751 2636 2569 2637 2698
8 2697 2636 2698 2753 2638 2571 2639 2700
8 2698 2637 2699 2754 2639 2572 2640 2701
8 2700 2639 2701 2755 2641 2574 2642 2702
8 2659 2596 2658 2714 2704 2644 2703 2757
8 2704 2644 2703 2757 2655 2590 2652 2710
8 2660 2597 2659 2715 2705 2645 2704 2758
8 2705 2645 2704 2758 2657 2593 2655 2712
8 2759 2706 2647 2707 2710 2652 2587 2653
8 2709 2650 2585 2651 2760 2707 2648 2708
8 2708 2648 2589 2654 2760 2707 2653 2711
8 2712 2655 2710 2761 2656 2592 2653 2711
8 2763 2713 2658 2714 2718 2664 2603 2663
8 2662 2602 2663 2717 2715 2659 2714 2764
8 2720 2666 2718 2767 2665 2605 2663 2717
8 2768 2719 2664 2718 2721 2667 2606 2666
8 2668 2608 2669 2723 2720 2666 2721 2770
8 2669 2609 2670 2724 2721 2667 2722 2771
8 2671 2611 2672 2726 2723 2669 2724 2773
8 2672 2612 2673 2727 2724 2670 2725 2774
8 2674 2614 2675 2729 2726 2672 2727 2776
8 2675 2615 2676 2730 2727 2673 2728 2777
8 2677 2617 2678 2732 2729 2675 2730 2779
8 2678 2618 2679 2733 2730 2676 2731 2780
8 2680 2620 2681 2735 2732 2678 2733 2782
8 2733 2679 2621 2681 2783 2734 2682 2736
8 2735 2681 2623 2684 2784 2736 2683 2737
8 2740 2686 2647 2707 2787 2738 2706 2759
8 2688 2628 2686 2740 2742 2687 2739 2789
8 2743 2688 2650 2709 2790 2740 2707 2760
8 2742 2687 2741 2792 2690 2629 2689 2745
8 2743 2688 2742 2793 2709 2650 2690 2746
8 2745 2689 2744 2795 2692 2631 2693 2748
8 2746 2690 2745 2796 2691 2630 2692 2747
8 2747 2692 2748 2797 2694 2633 2695 2750
8 2748 2693 2749 2798 2695 2634 2696 2751
8 2750 2695 2751 2800 2697 2636 2698 2753
8 2751 2696 2752 2801 2698 2637 2699 2754
8 2753 2698 2754 2802 2700 2639 2701 2755
8 2763 2713 2756 2804 2714 2658 2703 2757
8 2759 2706 2652 2710 2804 2756 2703 2757
8 2715 2659 2714 2764 2758 2704 2757 2805
8 2758 2704 2757 2805 2712 2655 2710 2761
8 2806 2759 2707 2760 2761 2710 2653 2711
8 2765 2716 2762 2808 2718 2664 2713 2763
8 2809 2763 2714 2764 2767 2718 2663 2717
8 2765 2716 2664 2718 2811 2766 2719 2768
8 2813 2768 2718 2767 2770 2721 2666 2720
8 2814 2769 2719 2768 2771 2722 2667 2721
8 2723 2669 2724 2773 2770 2721 2771 2816
8 2724 2670 2725 2774 2771 2722 2772 2817
8 2726 2672 2727 2776 2773 2724 2774 2819
8 2727 2673 2728 2777 2774 2725 2775 2820
8 2729 2675 2730 2779 2776 2727 2777 2822
8 2730 2676 2731 2780 2777 2728 2778 2823
8 2732 2678 2733 2782 2779 2730 2780 2825
8 2780 2731 2679 2733 2826 2781 2734 2783
8 2782 2733 2681 2735 2827 2783 2736 2784
8 2830 2785 2738 2787 2804 2756 2706 2759
8 2789 2739 2686 2740 2832 2786 2738 2787
8 2790 2740 2707 2760 2833 2787 2759 2806
8 2742 2687 2739 2789 2792 2741 2788 2835
8 2743 2688 2740 2790 2793 2742 2789 2836
8 2792 2741 2791 2838 2745 2689 2744 2795
8 2793 2742 2792 2839 2746 2690 2745 2796
8 2795 2744 2794 2841 2748 2693 2749 2798
8 2796 2745 2795 2842 2747 2692 2748 2797
8 2797 2748 2798 2843 2750 2695 2751 2800
8 2798 2749 2799 2844 2751 2696 2752 2801
8 2800 2751 2801 2845 2753 2698 2754 2802
8 2808 2762 2803 2847 2763 2713 2756 2804
8 2809 2763 2804 2848 2764 2714 2757 2805
8 2806 2759 2710 2761 2848 2804 2757 2805
8 2765 2716 2766 2811 2808 2762 2807 2850
8 2810 2765 2808 2851 2767 2718 2763 2809
8 2810 2765 2718 2767 2852 2811 2768 2813
8 2811 2766 2719 2768 2853 2812 2769 2814
8 2855 2814 2768 2813 2816 2771 2721 2770
8 2856 2815 2769 2814 2817 2772 2722 2771
8 2773 2724 2774 2819 2816 2771 2817 2858
8 2774 2725 2775 2820 2817 2772 2818 2859
8 2776 2727 2777 2822 2819 2774 2820 2861
8 2777 2728 2778 2823 2820 2775 2821 2862
8 2779 2730 2780 2825 2822 2777 2823 2864
8 2823 2778 2731 2780 2865 2824 2781 2826
8 2825 2780 2733 2782 2866 2826 2783 2827
8 2869 2828 2785 2830 2847 2803 2756 2804
8 2871 2829 2786 2832 2830 2785 2738 2787
8 2872 2830 2787 2833 2848 2804 2759 2806
8 2789 2739 2786 2832 2835 2788 2831 2874
8 2836 2789 2740 2790 2875 2832 2787 2833
8 2792 2741 2788 2835 2838 2791 2834 2877
8 2793 2742 2789 2836 2839 2792 2835 2878
8 2838 2791 2837 2880 2795 2744 2794 2841
8 2839 2792 2838 2881 2796 2745 2795 2842
8 2841 2794 2840 2882 2798 2749 2799 2844
8 2842 2795 2841 2883 2797 2748 2798 2843
8 2843 2798 2844 2884 2800 2751 2801 2845
8 2886 2846 2803 2847 2850 2807 2762 2808
8 2851 2808 2847 2887 2809 2763 2804 2848
8 2850 2807 2766 2811 2889 2849 2812 2853
8 2810 2765 2811 2852 2851 2808 2850 2890
8 2852 2811 2768 2813 2891 2853 2814 2855
8 2853 2812 2769 2814 2892 2854 2815 2856
8 2894 2856 2814 2855 2858 2817 2771 2816
8 2817 2772 2818 2859 2856 2815 2857 2895
8 2819 2774 2820 2861 2858 2817 2859 2897
8 2820 2775 2821 2862 2859 2818 2860 2898
8 2822 2777 2823 2864 2861 2820 2862 2900
8 2823 2778 2824 2865 2862 2821 2863 2901
8 2864 2823 2780 2825 2902 2865 2826 2866
8 2904 2867 2828 2869 2886 2846 2803 2847
8 2869 2828 2868 2906 2830 2785 2829 2871
8 2907 2869 2830 2872 2887 2847 2804 2848
8 2871 2829 2870 2909 2832 2786 2831 2874
8 2910 2871 2832 2875 2872 2830 2787 2833
8 2835 2788 2831 2874 2877 2834 2873 2912
8 2836 2789 2832 2875 2878 2835 2874 2913
8 2877 2834 2876 2915 2838 2791 2837 2880
8 2839 2792 2835 2878 2881 2838 2877 2916
8 2880 2837 2879 2917 2841 2794 2840 2882
8 2881 2838 2880 2918 2842 2795 2841 2883
8 2883 2841 2882 2919 2843 2798 2844 2884
8 2921 2885 2846 2886 2889 2849 2807 2850
8 2922 2886 2847 2887 2890 2850 2808 2851
8 2889 2849 2812 2853 2924 2888 2854 2892
8 2890 2850 2811 2852 2925 2889 2853 2891
8 2891 2853 2814 2855 2926 2892 2856 2894
8 2892 2854 2815 2856 2927 2893 2857 2895
8 2858 2817 2859 2897 2894 2856 2895 2929
8 2859 2818 2860 2898 2895 2857 2896 2930
8 2861 2820 2862 2900 2897 2859 2898 2932
8 2862 2821 2863 2901 2898 2860 2899 2933
8 2864 2823 2865 2902 2900 2862 2901 2934
8 2904 2867 2846 2886 2936 2903 2885 2921
8 2904 2867 2903 2936 2869 2828 2868 2906
8 2937 2904 2869 2907 2922 2886 2847 2887
8 2906 2868 2905 2939 2871 2829 2870 2909
8 2907 2869 2906 2940 2872 2830 2871 2910
8 2909 2870 2908 2942 2874 2831 2873 2912
8 2910 2871 2909 2943 2875 2832 2874 2913
8 2912 2873 2911 2945 2877 2834 2876 2915
8 2878 2835 2874 2913 2916 2877 2912 2946
8 2915 2876 2914 2947 2880 2837 2879 2917
8 2916 2877 2915 2948 2881 2838 2880 2918
8 2918 2880 2917 2949 2883 2841 2882 2919
8 2921 2885 2849 2889 2951 2920 2888 2924
8 2952 2921 2886 2922 2925 2889 2850 2890
8 2924 2888 2854 2892 2954 2923 2893 2927
8 2925 2889 2853 2891 2955 2924 2892 2926
8 2926 2892 2856 2894 2956 2927 2895 2929
8 2895 2857 2896 2930 2927 2893 2928 2957
8 2897 2859 2898 2932 2929 2895 2930 2959
8 2898 2860 2899 2933 2930 2896 2931 2960
8 2900 2862 2901 2934 2932 2898 2933 2961
8 2936 2903 2885 2921 2963 2935 2920 2951
8 2936 2903 2935 2963 2906 2868 2905 2939
8 2937 2904 2886 2922 2964 2936 2921 2952
8 2937 2904 2936 2964 2907 2869 2906 2940
8 2939 2905 2938 2966 2909 2870 2908 2942
8 2940 2906 2939 2967 2910 2871 2909 2943
8 2942 2908 2941 2969 2912 2873 2911 2945
8 2943 2909 2942 2970 2913 2874 2912 2946
8 2945 2911 2944 2971 2915 2876 2914 2947
8 2946 2912 2945 2972 2916 2877 2915 2948
8 2948 2915 2947 2973 2918 2880 2917 2949
8 2951 2920 2888 2924 2975 2950 2923 2954
8 2952 2921 2889 2925 2976 2951 2924 2955
8 2927 2893 2928 2957 2954 2923 2953 2978
8 2955 2924 2892 2926 2979 2954 2927 2956
8 2929 2895 2930 2959 2956 2927 2957 2980
8 2930 2896 2931 2960 2957 2928 2958 2981
8 2932 2898 2933 2961 2959 2930 2960 2982
8 2951 2920 2950 2975 2963 2935 2962 2984
8 2963 2935 2962 2984 2939 2905 2938 2966
8 2964 2936 2921 2952 2985 2963 2951 2976
8 2964 2936 2963 2985 2940 2906 2939 2967
8 2966 2938 2965 2987 2942 2908 2941 2969
8 2967 2939 2966 2988 2943 2909 2942 2970
8 2969 2941 2968 2989 2945 2911 2944 2971
8 2970 2942 2969 2990 2946 2912 2945 2972
8 2972 2945 2971 2991 2948 2915 2947 2973
8 2954 2923 2953 2978 2975 2950 2974 2993
8 2976 2951 2924 2955 2994 2975 2954 2979
8 2957 2928 2958 2981 2978 2953 2977 2995
8 2956 2927 2957 2980 2979 2954 2978 2996
8 2959 2930 2960 2982 2980 2957 2981 2997
8 2984 2962 2983 2999 2966 2938 2965 2987
8 2975 2950 2974 2993 2984 2962 2983 2999
8 2976 2951 2975 2994 2985 2963 2984 3000
8 2985 2963 2984 3000 2967 2939 2966 2988
8 2987 2965 2986 3001 2969 2941 2968 2989
8 2988 2966 2987 3002 2970 2942 2969 2990
8 2990 2969 2989 3003 2972 2945 2971 2991
8 2978 2953 2977 2995 2993 2974 2992 3004
8 2979 2954 2978 2996 2994 2975 2993 3005
8 2980 2957 2981 2997 2996 2978 2995 3006
8 2974 2993 2999 2983 2992 3004 3007 2998
8 2983 2999 2987 2965 2998 3007 3001 2986
8 3000 2984 2999 3008 2988 2966 2987 3002
8 2994 2975 2993 3005 3000 2984 2999 3008
8 3002 2987 3001 3009 2990 2969 2989 3003
8 2996 2978 2995 3006 3005 2993 3004 3010
8 3005 2993 3004 3010 3008 2999 3007 3011
8 3008 2999 3007 3011 3002 2987 3001 3009

CELL_TYPES 1910
12
12
12
12
12
12
12
12
12
12
12
12
12
12
12
12
12
12
12
12
12
12
12
12
12
12
12
12
12
12
12
12
12
12
12
12
12
12
12
12
12
12
12
12
12
12
12
12
12
12
12
12
12
12
12
12
12
12
12
12
12
12
12
12
12
12
12
12
12
12
12
12
12
12
12
12
12
12
12
12
12
12
12
12
12
12
12
12
12
12
12
12
12
12
12
12
12
12
12
12
12
12
12
12
12
12
12
12
12
12
12
12
12
12
12
12
12
12
12
12
12
12
12
12
12
12
12
12
12
12
12
12
12
12
12
12
12
12
12
12
12
12
12
12
12
12
12
12
12
12
12
12
12
12
12
12
12
12
12
12
12
12
12
12
12
12
12
12
12
12
12
12
12
12
12
12
12
12
12
12
12
12
12
12
12
12
12
12
12
12
12
12
12
12
12
12
12
12
12
12
12
12
12
12
12
12
12
12
12
12
12
12
12
12
12
12
12
12
12
12
12
12
12
12
12
12
12
12
12
12
12
12
12
12
12
12
12
12
12
12
12
12
12
12
12
12
12
12
12
12
12
12
12
12
12
12
12
12
12
12
12
12
12
12
12
12
12
12
12
12
12
12
12
12
12
12
12
12
12
12
12
12
12
12
12
12
12
12
12
12
12
12
12
12
12
12
12
12
12
12
12
12
12
12
12
12
12
12
12
12
12
12
12
12
12
12
12
12
12
12
12
12
12
12
12
12
12
12
12
12
12
12
12
12
12
12
12
12
12
12
12
12
12
12
12
12
12
12
12
12
12
12
12
12
12
12
12
12
12
12
12
12
12
12
12
12
12
12
12
12
12
12
12
12
12
12
12
12
12
12
12
12
12
12
12
12
12
12
12
12
12
12
12
12
12
12
12
12
12
12
12
12
12
12
12
12
12
12
12
12
12
12
12
12
12
12
12
12
12
12
12
12
12
12
12
12
12
12
12
12
12
12
12
12
12
12
12
12
12
12
12
12
12
12
12
12
12
12
12
12
12
12
12
12
12
12
12
12
12
12
12
12
12
12
12
12
12
12
12
12
12
12
12
12
12
12
12
12
12
12
12
12
12
12
12
12
12
12
12
12
12
12
12
12
12
12
12
12
12
12
12
12
12
12
12
12
12
12
12
12
12
12
12
12
12
12
12
12
12
12
12
12
12
12
12
12
12
12
12
12
12
12
12
12
12
12
12
12
12
12
12
12
12
12
12
12
12
12
12
12
12
12
12
12
12
12
12
12
12
12
12
12
12
12
12
12
12
12
12
12
12
12
12
12
12
12
12
12
12
12
12
12
12
12
12
12
12
12
12
12
12
12
12
12
12
12
12
12
12
12
12
12
12
12
12
12
12
12
12
12
12
12
12
12
12
12
12
12
12
12
12
12
12
12
12
12
12
12
12
12
12
12
12
12
12
12
12
12
12
12
12
12
12
12
12
12
12
12
12
12
12
12
12
12
12
12
12
12
12
12
12
12
12
12
12
12
12
12
12
12
12
12
12
12
12
12
12
12
12
12
12
12
12
12
12
12
12
12
12
12
12
12
12
12
12
12
12
12
12
12
12
12
12
12
12
12
12
12
12
12
12
12
12
12
12
12
12
12
12
12
12
12
12
12
12
12
12
12
12
12
12
12
12
12
12
12
12
12
12
12
12
12
12
12
12
12
12
12
12
12
12
12
12
12
12
12
12
12
12
12
12
12
12
12
12
12
12
12
12
12
12
12
12
12
12
12
12
12
12
12
12
12
12
12
12
12
12
12
12
12
12
12
12
12
12
12
12
12
12
12
12
12
12
12
12
12
12
12
12
12
12
12
12
12
12
12
12
12
12
12
12
12
12
12
12
12
12
12
12
12
12
12
12
12
12
12
12
12
12
12
12
12
12
12
12
12
12
12
12
12
12
12
12
12
12
12
12
12
12
12
12
12
12
12
12
12
12
12
12
12
12
12
12
12
12
12
12
12
12
12
12
12
12
12
12
12
12
12
12
12
12
12
12
12
12
12
12
12
12
12
12
12
12
12
12
12
12
12
12
12
12
12
12
12
12
12
12
12
12
12
12
12
12
12
12
12
12
12
12
12
12
12
12
12
12
12
12
12
12
12
12
12
12
12
12
12
12
12
12
12
12
12
12
12
12
12
12
12
12
12
12
12
12
12
12
12
12
12
12
12
12
12
12
12
12
12
12
12
12
12
12
12
12
12
12
12
12
12
12
12
12
12
12
12
12
12
12
12
12
12
12
12
12
12
12
12
12
12
12
12
12
12
12
12
12
12
12
12
12
12
12
12
12
12
12
12
12
12
12
12
12
12
12
12
12
12
12
12
12
12
12
12
12
12
12
12
12
12
12
12
12
12
12
12
12
12
12
12
12
12
12
12
12
12
12
12
12
12
12
12
12
12
12
12
12
12
12
12
12
12
12
12
12
12
12
12
12
12
12
12
12
12
12
12
12
12
12
12
12
12
12
12
12
12
12
12
12
12
12
12
12
12
12
12
12
12
12
12
12
12
12
12
12
12
12
12
12
12
12
12
12
12
12
12
12
12
12
12
12
12
12
12
12
12
12
12
12
12
12
12
12
12
12
12
12
12
12
12
12
12
12
12
12
12
12
12
12
12
12
12
12
12
12
12
12
12
12
12
12
12
12
12
12
12
12
12
12
12
12
12
12
12
12
12
12
12
12
12
12
12
12
12
12
12
12
12
12
12
12
12
12
12
12
12
12
12
12
12
12
12
12
12
12
12
12
12
12
12
12
12
12
12
12
12
12
12
12
12
12
12
12
12
12
12
12
12
12
12
12
12
12
12
12
12
12
12
12
12
12
12
12
12
12
12
12
12
12
12
12
12
12
12
12
12
12
12
12
12
12
12
12
12
12
12
12
12
12
12
12
12
12
12
12
12
12
12
12
12
12
12
12
12
12
12
12
12
12
12
12
12
12
12
12
12
12
12
12
12
12
12
12
12
12
12
12
12
12
12
12
12
12
12
12
12
12
12
12
12
12
12
12
12
12
12
12
12
12
12
12
12
12
12
12
12
12
12
12
12
12
12
12
12
12
12
12
12
12
12
12
12
12
12
12
12
12
12
12
12
12
12
12
12
12
12
12
12
12
12
12
12
12
12
12
12
12
12
12
12
12
12
12
12
12
12
12
12
12
12
12
12
12
12
12
12
12
12
12
12
12
12
12
12
12
12
12
12
12
12
12
12
12
12
12
12
12
12
12
12
12
12
12
12
12
12
12
12
12
12
12
12
12
12
12
12
12
12
12
12
12
12
12
12
12
12
12
12
12
12
12
12
12
12
12
12
12
12
12
12
12
12
12
12
12
12
12
12
12
12
12
12
12
12
12
12
12
12
12
12
12
12
12
12
12
12
12
12
12
12
12
12
12
12
12
12
12
12
12
12
12
12
12
12
12
12
12
12
12
12
12
12
12
12
12
12
12
12
12
12
12
12
12
12
12
12
12
12
12
12
12
12
12
12
12
12
12
12
12
12
12
12
12
12
12
12
12
12
12
12
12
12
12
12
12
12
12
12
12
12
12
12
12
12
12
12
12
12
12
12
12
12
12
12
12
12
12
12
12
12
12
12
12
12
12
12
12
12
12
12
12
12
12
12
12
12
12
12
12
12
12
12
12
12
12
12
12
12
12
12
12
12
12
12
12
12
12
12
12
12
12
12
12
12
12
12
12
12
12
12
12
12
12
12
12
12
12
12
12
12
12
12
12
12
12
12
12
12
12
12
12
12
12
12
12
12
12
12
12
12
12
12
12
12
12
12
12
12
12
12
12
12
12
12
12
12
12
12
12
12
12
12
12
12
12
12
12
12
12
12
12
12
12
12
12
12
12
12
12
12
12
12
12
12
12
12
12
12
12
12
12
12
12
12
12
12
12
12
12
12
12
12
12
12
12
12
12
12
12
12
12
12
12
12
12
12
12
12
12
12
12
12
12
12
12
12
12
12
12
12
12
12
12
12
12
12
12
12
12
12
12
12
12
12
12
12
12
12
12
12
12
12
12
12
12
12
12
12
12
12
12
12
12
12
12
12
12
12
12
12
12
12
12
12
12
12
12
12
12
12
12
12
12
12
12
12
12
12
12
12
12
12
12
12
12
12
12
12
12
12
12
12
12
12
12
12
12
12
12
12
12
12
12
12
12
12
12
12
12
12
12
12
12
12
12
12
12
12
12
12
12
12
12
12
12
12
12
12
12
12
12
12
12
12
12
12
12
12
12
12
12
12
12
12
12
12
12
12
12
12
12
12
12
12
12
12
12
12
12
12
12
12

POINT_DATA 3012
SCALARS Jp_lamdaP float 4
LOOKUP_TABLE default
0.999556 1 1 0.999556
1 1 1 1
0.999569 1 1 0.999569
0.999499 1 1 0.999499
0.999558 1 1 0.999558
0.999531 1 1 0.999531
1.00465 1.00608 1 0.998578
1 1 1 1
1 1 1 1
1 1 1 1
0.999624 1 1 0.999624
1.00093 1.0023 1 0.998639
0.99952 1 1 0.99952
0.999514 1 1 0.999514
0.999574 1 1 0.999574
0.999531 1 1 0.999531
0.999539 1 1 0.999539
0.99958 1 1 0.99958
1.0047 1.00613 1 0.998578
1 1 1 1
0.999484 1 1 0.999484
0.999533 1 1 0.999533
1.00092 1.00245 1 0.998467
1.00384 1.00528 1 0.998563
0.999524 1 1 0.999524
1.00375 1.00518 1 0.998579
1.02629 1.02926 1 0.997113
1 1 1 1
0.999774 1 1 0.999774
0.999786 1 1 0.999786
1 1 1 1
1.00024 1.00159 1 0.998649
0.999538 1 1 0.999538
0.999568 1 1 0.999568
1.00509 1.00634 1 0.998761
1 1 1 1
1.00363 1.0048 1 0.998834
0.999032 1.0003 1 0.998732
1.01584 1.01883 1 0.997069
1 1 1 1
1 1 1 1
0.999759 1 1 0.999759
1 1 1 1
0.999529 1 1 0.999529
0.998399 1 1 0.998399
1 1 1 1
0.999997 1.00133 1 0.998668
0.999559 1 1 0.999559
0.999596 1 1 0.999596
0.999541 1 1 0.999541
1.00476 1.00619 1 0.998582
0.999744 1 1 0.999744
0.999513 1 1 0.999513
0.999539 1 1 0.999539
0.999562 1 1 0.999562
1.00065 1.0022 1 0.998461
1.00387 1.0053 1 0.99858
1.00377 1.00522 1 0.998562
1.02643 1.02941 1 0.997101
1 1 1 1
0.999495 1 1 0.999495
0.99873 1 1 0.99873
0.999234 1.00079 1 0.998446
1.00256 1.00405 1 0.998517
1.02853 1.03174 1 0.996891
1.02689 1.02999 1 0.99699
0.999582 1 1 0.999582
0.999556 1.00089 1 0.998662
1.02406 1.02695 1 0.997183
1.04662 1.05058 1 0.99623
1 1 1 1
1 1 1 1
1 1 1 1
0.999733 1.00108 1 0.998658
1 1 1 1
1 1 1 1
1.00485 1.00634 1 0.998526
0.999855 1 1 0.999855
1.0026 1.00399 1 0.998619
0.999293 1.00032 1.00008 0.998889
1.01558 1.01857 1 0.997065
1 1 1 1
1.00182 1 1.00221 0.999602
1.00393 1.0055 1 0.998441
1.00472 1.00617 1 0.998556
1.03154 1.03499 1 0.996668
0.999682 1 1.00048 0.999203
1.02168 1.02479 1 0.996971
1.01107 1.01385 1.00002 0.99723
1.0318 1.03563 1 0.996305
1 1 1 1
1 1 1 1
1 1 1 1
1 1 1 1
1 1 1 1
0.999764 1 1 0.999764
0.998569 1.00001 1 0.998554
0.999758 1 1 0.999758
1.00065 1.00211 1 0.998546
1 1 1 1
0.99843 1 1 0.99843
0.998855 1.00018 1 0.998674
1.02255 1.02607 1 0.996568
1.00234 1.00365 1 0.998699
1.03101 1.03456 1 0.996568
0.999545 1 1 0.999545
0.99954 1 1 0.99954
0.999549 1 1 0.999549
0.999587 1 1 0.999587
1.00041 1.00196 1 0.998457
1.00371 1.00516 1 0.998564
1.00392 1.00534 1 0.998586
1.02661 1.02961 1 0.997089
1 1 1 1
0.999522 1 1 0.999522
0.998464 1 1 0.998464
0.99903 1.00059 1 0.998438
0.999794 1 1 0.999794
1.00028 1.00153 1 0.99875
1.00238 1.00388 1 0.998514
1.02858 1.03181 1 0.996864
1.02361 1.02652 1 0.997169
1.02746 1.03054 1 0.997011
1.04649 1.05044 1 0.996239
0.998454 1 1 0.998454
0.998536 1.00008 1 0.998457
1.02164 1.02487 1 0.996856
1.0262 1.02945 1 0.996837
1.02835 1.03154 1 0.996908
1.05934 1.06331 1 0.99627
1 1 1 1
1.05041 1.05437 1 0.996244
0.999296 1.00004 1.00043 0.998833
1.01547 1.0184 1 0.997127
1.04313 1.0471 1 0.996214
1.0513 1.05529 1 0.996213
1.00153 1 1.00229 0.999242
1.00646 1 1.00847 0.998
1 1 1 1
1 1 1 1
1.0048 1.00628 1 0.998531
1 1 1 1
0.999302 1.00015 1.00034 0.998815
1.00195 1.00333 1 0.998627
1.01514 1.01814 1 0.997061
1 1 1 1
1.00161 1 1.00199 0.999626
1.00439 1.00581 1 0.998586
1.00452 1.00584 1 0.998688
1.03085 1.0343 1 0.996667
0.999988 1 1.00089 0.999101
1.02172 1.02482 1 0.996973
1.00896 1.01169 1.00007 0.997228
1.03307 1.0369 1 0.996302
1.00123 1 1.00188 0.999354
1.0011 1 1.00132 0.999781
1.00483 1.0002 1.00631 0.998338
1.03349 1.03703 1 0.996582
1.02806 1.03134 1 0.996817
1.05408 1.05818 1 0.996128
1.0051 1.00671 1.00086 0.997541
1.04067 1.04451 1 0.996317
1.02233 1.02546 1.00057 0.996375
1.03997 1.04394 1 0.996194
1 1 1 1
1 1 1 1
1 1 1 1
1.00175 1 1.00233 0.99942
1 1 1 1
1 1 1 1
1 1 1 1
1.0011 1.00268 1 0.998428
0.998514 1.00008 1 0.998436
1 1 1 1
1 1 1 1
0.998431 1 1 0.998431
0.999026 1.00047 1 0.998554
1.02334 1.02686 1 0.996569
1.00264 1.00421 1 0.998434
1.03044 1.03399 1 0.996567
0.998432 1 1 0.998432
1.0211 1.02463 1 0.996546
1.02593 1.02944 1 0.996582
1.06324 1.06751 0.999692 0.996312
1.03353 1.03711 1 0.996556
1.06604 1.07003 1 0.996266
1 1 1 1
0.999549 1 1 0.999549
0.998169 1 1 0.998169
0.998846 1.00042 1 0.99843
1 1 1 1
1.0013 1.00246 1 0.998841
1.00221 1.0037 1 0.998514
1.02866 1.03193 1 0.996837
1.02816 1.03123 1 0.997031
1.02301 1.02593 1 0.997154
1.04632 1.05026 1 0.996248
0.998451 1 1 0.998451
0.998501 1.00005 1 0.998448
1.02158 1.02495 1 0.996716
1.02656 1.0298 1 0.99685
1 1 1 1
0.999661 1.00053 1.00022 0.998912
1.01688 1.01972 1 0.997219
1.02877 1.03197 1 0.996901
1.05943 1.06339 1 0.996275
1.04317 1.04714 1 0.996211
1.05057 1.05449 1 0.996277
1.05087 1.05485 1 0.996222
1.00136 1 1.00213 0.99923
1.00537 1.00005 1.00734 0.998002
1.02085 1.02436 1 0.996568
1.02263 1.02586 1 0.996856
1.06042 1.06433 0.999983 0.99634
1.0598 1.06458 0.999217 0.996292
1.0551 1.05899 1 0.996324
1.06086 1.06595 0.998739 0.996477
1.00045 1 1.00141 0.999038
1.0542 1.05805 1 0.996353
1.00846 1.01105 1.00011 0.997328
1.03766 1.04157 1 0.996245
1.04895 1.05307 1 0.996083
1.0506 1.0543 1 0.996494
1.00354 1.00102 1.00481 0.997722
1.0064 1 1.00808 0.998332
1.00458 1.00168 1.00563 0.997285
1.00456 1.0061 1 0.998475
1 1 1 1
1.00118 1 1.00153 0.99965
1.00402 1.00544 1 0.998592
1.03028 1.03373 1 0.996666
1.0002 1 1.0011 0.9991
1.00744 1.0102 1.00004 0.997225
1.02128 1.02438 1 0.996975
1.03463 1.03847 1 0.996299
1.00134 1 1.00197 0.999376
1.00069 1 1.00089 0.999799
1.00557 1 1.00725 0.998338
1.03263 1.03617 1 0.996579
1.02737 1.03065 1 0.996819
1.05421 1.05832 1 0.996122
1.00337 1.00521 1.00063 0.997545
1.04127 1.04512 1 0.996316
1.02484 1.02809 1.00047 0.996367
1.04126 1.04524 1 0.996199
1.00045 1 1.00056 0.999881
1.00345 1.00192 1.00362 0.997907
1.0049 1 1.00613 0.998779
1.00659 1.00215 1.0068 0.997653
1.05849 1.06259 1 0.996135
1.0481 1.05209 1 0.996211
1.05594 1.06 1 0.996164
1.01392 1.01675 1.00049 0.996728
1.04324 1.04711 1 0.996305
1.03708 1.03951 1.00158 0.996091
1.05004 1.05407 1 0.996168
0.999529 1 1 0.999529
0.99996 1 1 0.99996
1 1 1 1
1 1 1 1
1 1 1 1
1.00143 1 1.00183 0.999596
1 1 1 1
1.00195 1 1.00255 0.999404
1 1 1 1
1.00327 1.00484 1 0.998435
0.999282 1.00085 1 0.998435
1.03036 1.03391 1 0.996566
1.02406 1.02758 1 0.996569
0.998433 1 1 0.998432
1 1 1 1
0.998432 1 1 0.998432
1.02143 1.02497 1 0.996547
1.02675 1.03028 1 0.996581
1.06249 1.06668 0.999758 0.99631
1.03277 1.03635 1 0.996552
1.06545 1.06945 1 0.996264
1.02063 1.02417 1 0.996547
1.06091 1.06505 0.999821 0.996292
1.06607 1.07021 0.99983 0.996305
1.06436 1.07296 0.99531 0.996658
1.06313 1.06718 1 0.996199
1.06441 1.0711 0.997197 0.996546
0.99845 1 1 0.99845
0.99845 1.00001 1 0.99844
1.02153 1.02503 1 0.996578
1.02682 1.03005 1 0.996862
1 1 1 1
0.999776 1.00074 1.00004 0.998993
1.01796 1.02071 1 0.99731
1.02918 1.03239 1 0.996894
1.05945 1.06341 1 0.99628
1.05056 1.05445 1 0.996309
1.04347 1.04744 1 0.996208
1.05052 1.05449 1 0.996232
1.00133 1 1.00212 0.999217
1.00509 1.00032 1.00678 0.998003
1.02076 1.02428 1 0.996561
1.0228 1.02604 1 0.99685
1.05995 1.0642 0.999633 0.996368
1.06076 1.06515 0.999592 0.996283
1.00007 1 1.00105 0.999028
1.01004 1.01261 1.00014 0.997327
1.0371 1.04098 1 0.99627
1.05491 1.05883 1 0.9963
1.06014 1.06554 0.998396 0.996528
1.04866 1.05279 1 0.996075
1.05422 1.05807 1 0.996357
1.05066 1.05436 1 0.996487
1.00409 1.0018 1.00458 0.997721
1.00536 1.00214 1.00594 0.99728
1.00687 1 1.00855 0.998332
1.05968 1.06361 0.99998 0.99632
1.06092 1.06539 0.999426 0.996369
1.06413 1.07116 0.996842 0.996586
1.06158 1.06864 0.996839 0.996545
1.05634 1.06101 0.999111 0.996479
1.05245 1.06302 0.993205 0.996834
1.00245 1.00426 1.00067 0.997534
1.05188 1.05702 0.998462 0.996661
1.0245 1.02809 1 0.99651
1.04084 1.04513 1 0.995894
1.04638 1.05046 1 0.996119
1.04373 1.0479 0.999255 0.996766
1.00629 1 1.00766 0.998633
1.00323 1.00546 1.00067 0.997106
1.00857 1.00015 1.01098 0.997472
1.00476 1.00515 1.00266 0.996961
1.03183 1.03538 1 0.996575
1.00028 1 1.00046 0.999818
1.00158 1 1.00218 0.9994
1.0071 1 1.00878 0.998337
1.02681 1.03008 1 0.996821
1.05426 1.05837 1 0.996116
1.00095 1.00297 1.00043 0.997551
1.02584 1.02925 1.00033 0.996358
1.04223 1.04609 1 0.996316
1.04121 1.04517 1 0.996204
1.0001 1 1.00021 0.999894
1.00353 1.00118 1.00444 0.997911
1.00501 1 1.00623 0.998787
1.00615 1.00149 1.00703 0.997648
1.05856 1.06267 1 0.996128
1.04831 1.0523 1 0.996208
1.05542 1.05948 1 0.996161
1.01162 1.01448 1.00045 0.996734
1.04282 1.0467 1 0.996294
1.03492 1.0372 1.00173 0.996078
1.04945 1.05339 1 0.996257
0.999935 1 1 0.999935
1.00248 1 1.00336 0.999118
1.00663 1.00749 1.00191 0.997232
1.00855 1.00071 1.00981 0.998034
1.00429 1.00368 1.00322 0.9974
1.06089 1.06493 0.999941 0.996261
1.04911 1.05311 1 0.996197
1.05044 1.05431 0.999996 0.996335
1.01596 1.01766 1.00199 0.996339
1.04287 1.0467 1 0.996341
1.02962 1.03296 1.00086 0.995912
0.999458 1 1 0.999458
0.999851 1 1.00097 0.99888
0.99959 1 1 0.99959
0.999531 1 1 0.999531
0.999975 1 1 0.999975
0.999964 1 1 0.999964
1 1 1 1
1 1 1 1
1 1 1 1
1.00046 1 1.00069 0.999775
1 1 1 1
1.0017 1 1.00212 0.999579
1 1 1 1
1.00174 1 1.00235 0.999387
1 1 1 1
1.03189 1.03547 1 0.996549
1.02729 1.03082 1 0.99658
1.06447 1.06846 1 0.996261
1.06168 1.0658 0.999825 0.996309
1.02182 1.02536 1 0.996548
0.99843 1 1 0.99843
1.02072 1.02426 1 0.996547
1.06074 1.06485 0.999848 0.996292
1.06459 1.06869 0.999857 0.996304
1.06416 1.07324 0.994842 0.996675
1.06267 1.06673 1 0.996195
1.06487 1.07143 0.997321 0.996545
1.05973 1.06377 0.999922 0.996282
1.06396 1.07263 0.995217 0.996681
1.06409 1.07266 0.995367 0.996624
1.05826 1.06928 0.992784 0.996891
1.06268 1.06741 0.999147 0.996416
1.05718 1.07123 0.989966 0.99689
1.02068 1.02421 1 0.996553
1.02302 1.02626 1 0.996844
1.05954 1.0641 0.99931 0.996396
1.06185 1.06582 1 0.996274
0.99971 1 1.00069 0.999017
1.01239 1.01496 1.00014 0.997327
1.03756 1.04142 1 0.996296
1.05473 1.05867 1 0.996276
1.05942 1.06515 0.998031 0.996579
1.05425 1.0581 1 0.996361
1.04826 1.0524 1 0.996066
1.05082 1.05453 1 0.996479
1.00434 1.00253 1.00409 0.997721
1.00582 1.00226 1.00629 0.997275
1.00696 1 1.00864 0.998333
1.05966 1.0636 0.99998 0.996308
1.06077 1.06543 0.999253 0.996367
1.06354 1.07115 0.996253 0.996633
1.06148 1.06819 0.997194 0.99652
1.00466 1.00627 1.00087 0.997532
1.02453 1.02812 1 0.996508
1.03969 1.04391 1.00003 0.995926
1.05679 1.06119 0.999414 0.996436
1.05213 1.0634 0.992497 0.996882
1.0475 1.05162 1 0.996079
1.05211 1.05721 0.998512 0.996662
1.0449 1.04888 0.999399 0.996803
1.00467 1.00629 1.00129 0.997106
1.00465 1.00471 1.00304 0.996918
1.00582 1 1.0072 0.998631
1.00813 1.00003 1.01061 0.997512
1.06346 1.07105 0.996275 0.996632
1.06484 1.07234 0.996422 0.996569
1.05323 1.06476 0.992341 0.996807
1.0509 1.06531 0.989532 0.99691
1.05236 1.06039 0.995599 0.996809
1.05102 1.06474 0.990027 0.997058
1.0107 1.01391 1 0.996828
1.04402 1.05263 0.99477 0.997031
1.02706 1.03109 1 0.996091
1.03696 1.04122 1.00018 0.995734
1.04666 1.05073 1 0.996126
1.04724 1.05115 0.999445 0.996832
1.00189 1 1.00299 0.998904
1.01129 1.00015 1.01341 0.997762
1.00675 1.01003 1 0.996752
1.00675 1.00308 1.00652 0.99716
1.00738 1.00588 1.00474 0.996766
0.999908 1 1 0.999908
1.05859 1.06271 1 0.996122
1.00486 1 1.00608 0.998795
1.00369 1.00061 1.00517 0.997914
1.00544 1.00079 1.00703 0.997643
1.04846 1.05245 1 0.996205
1.05496 1.05903 1 0.996158
1.01128 1.01407 1.00051 0.99674
1.03502 1.0371 1.00193 0.996065
1.04248 1.04637 1 0.996284
1.04972 1.05357 1 0.996346
0.999942 1 1 0.999942
1.00227 1 1.00315 0.999129
1.00442 1.00586 1.00134 0.997239
1.00966 1.00058 1.01107 0.99803
1.00397 1.00298 1.00363 0.997361
1.06063 1.06466 0.999953 0.996256
1.04889 1.05289 1 0.996195
1.0503 1.05422 0.999955 0.996323
1.01717 1.01874 1.00213 0.996338
1.04595 1.0498 1 0.996327
1.02985 1.03305 1.00096 0.995943
1.00018 1 1.00084 0.999338
1.0053 1 1.00689 0.998422
1.00256 1.00524 1.00048 0.996862
1.0105 1.00284 1.00999 0.997676
1.00529 1.00599 1.00203 0.997282
1.05751 1.06289 0.99844 0.996493
1.04437 1.04825 1 0.996305
1.04884 1.05307 0.999433 0.996552
1.00574 1.00578 1.00379 0.996185
1.02695 1.03115 1 0.99592
0.999461 1 1 0.999461
0.998839 1 1.00005 0.998791
0.999953 1 1.0011 0.998854
0.99989 1 1.00129 0.998599
0.99979 1 1.00086 0.998931
0.999628 1 1 0.999628
0.999593 1 1 0.999593
0.999987 1 1 0.999987
0.999533 1 1 0.999533
0.999979 1 1 0.999979
1 1 1 1
0.999969 1 1 0.999969
1 1 1 1
1 1 1 1
0.999913 1 1 0.999913
1.00106 1 1.00131 0.999755
1 1 1 1
1 1 1 1
1.00223 1 1.00267 0.999562
1 1 1 1
1.06231 1.06637 1 0.99619
1.0635 1.06757 0.999883 0.996302
1.06546 1.07191 0.997426 0.996543
1.06405 1.07363 0.994361 0.996693
1.06048 1.06456 0.999875 0.996293
1.02076 1.0243 1 0.996547
1.05973 1.06376 0.999933 0.996283
1.06372 1.07228 0.995323 0.996676
1.06474 1.07333 0.995358 0.996625
1.05772 1.06928 0.992245 0.99692
1.0636 1.06825 0.999236 0.99641
1.05746 1.07133 0.990112 0.996912
1.06371 1.07183 0.995755 0.996652
1.0558 1.06813 0.991558 0.99687
1.05838 1.07067 0.991535 0.996958
1.05816 1.07342 0.988718 0.997041
1.05864 1.06876 0.993789 0.996724
1.0583 1.07542 0.986928 0.997113
1.05958 1.06355 0.999967 0.996295
1.06058 1.06543 0.999074 0.996366
1.06289 1.07109 0.99565 0.99668
1.06125 1.06763 0.997517 0.996494
1.00628 1.00767 1.00109 0.99753
1.02261 1.02619 1 0.996506
1.03789 1.04191 1.00018 0.995958
1.05727 1.06138 0.999738 0.996392
1.05186 1.06376 0.991855 0.996931
1.05229 1.05734 0.998555 0.996663
1.04843 1.0526 1 0.99604
1.04565 1.04945 0.999535 0.996841
1.00666 1.00763 1.00194 0.997106
1.0044 1.00463 1.0029 0.996875
1.0057 1 1.00709 0.998628
1.0076 1.00012 1.00995 0.997553
1.06352 1.0711 0.996279 0.996632
1.06445 1.07189 0.996498 0.99655
1.05335 1.06504 0.992165 0.996838
1.05188 1.06545 0.990344 0.996893
1.01134 1.0145 1.00007 0.99682
1.0256 1.02956 1.00003 0.996127
1.03688 1.04093 1.00039 0.995722
1.05296 1.06041 0.996205 0.996758
1.04962 1.06376 0.989565 0.997114
1.04356 1.04763 1 0.996112
1.04511 1.05382 0.994687 0.997031
1.04776 1.05172 0.999341 0.996897
1.00595 1.00923 1 0.996754
1.0057 1.00595 1.00301 0.996754
1.00691 1.0024 1.00737 0.997156
1.00262 1 1.00376 0.998872
1.01085 1.00007 1.013 0.997806
1.05455 1.06695 0.991493 0.996854
1.05462 1.06805 0.990528 0.996875
1.05026 1.06913 0.985209 0.997098
1.04526 1.06022 0.98873 0.997119
1.01347 1.01706 1 0.99647
1.04917 1.05828 0.994176 0.997204
1.01555 1.01948 1.00029 0.995858
1.03086 1.03494 1.00051 0.995559
1.04035 1.0444 1 0.996122
0.999947 1 1.00079 0.99916
1.00898 1 1.01082 0.998183
1.00754 1 1.01007 0.997489
1.00543 1.00839 1.00046 0.996611
1.00778 1.0042 1.00678 0.996803
1.00849 1.00683 1.00507 0.996596
0.99995 1 1 0.99995
1.00169 1 1.00256 0.999139
1.06034 1.06436 0.999969 0.99625
1.01089 1.00041 1.01247 0.998025
1.00144 1.00346 1.00074 0.997245
1.00368 1.00246 1.0039 0.997322
1.04856 1.05257 1 0.996193
1.05024 1.05422 0.999916 0.996312
1.01722 1.01863 1.00229 0.996338
1.02883 1.03219 1.00077 0.995974
1.04915 1.05303 1 0.996313
0.999751 1 1.00041 0.999344
1.00602 1 1.00761 0.998425
1.00492 1.00768 1.00041 0.996844
1.01075 1.00227 1.01081 0.997671
1.00566 1.00667 1.00174 0.997273
1.05668 1.06196 0.998533 0.996487
1.0458 1.04969 1 0.996292
1.04953 1.05374 0.999431 0.996576
1.00726 1.00788 1.00324 0.996152
1.02528 1.02945 1.00006 0.995889
1.00106 1 1.00236 0.998703
1.01049 1 1.01253 0.997987
1.00492 1.00624 1.002 0.996692
1.01149 1.00681 1.00726 0.997406
1.01651 1.01845 1.001 0.997098
1.04955 1.06127 0.991939 0.996985
1.04689 1.05091 1 0.996179
1.05023 1.05433 0.999563 0.99654
1.00861 1.00821 1.00433 0.996079
1.01285 1.01723 1 0.99569
0.999463 1 1 0.999463
0.998837 1 1.00003 0.998807
0.998658 1 1.00011 0.998553
0.99953 1 1.0007 0.998829
0.999463 1 1.00053 0.998929
1.00038 1 1.00181 0.998577
0.999408 1 1.00086 0.998548
1.00097 1 1.00246 0.998519
0.999107 1 1.00013 0.998975
0.999623 1 1 0.999623
0.999629 1 1 0.999629
0.999996 1 1 0.999996
0.999596 1 1 0.999596
0.99999 1 1 0.99999
1 1 1 1
0.999982 1 1 0.999982
1 1 1 1
1 1 1 1
0.999978 1 1 0.999978
0.999999 1 1.00011 0.999891
1 1 1 1
1.0014 1 1.00167 0.999734
1 1 1 1
1 1 1 1
1.06452 1.06908 0.999325 0.996404
1.06514 1.07372 0.995362 0.996626
1.0577 1.07138 0.990268 0.996934
1.05716 1.06922 0.991741 0.99695
1.06352 1.07195 0.995445 0.996671
1.05979 1.0638 0.999944 0.996284
1.06371 1.07161 0.995981 0.996633
1.05639 1.06831 0.991957 0.996863
1.05775 1.0701 0.991491 0.996943
1.05679 1.07281 0.987986 0.997051
1.05824 1.0681 0.994025 0.996726
1.05597 1.07387 0.986139 0.99715
1.05662 1.06807 0.992414 0.996844
1.05776 1.07448 0.987356 0.997041
1.05879 1.07596 0.986868 0.997133
1.05108 1.07131 0.983898 0.997169
1.06362 1.07119 0.996283 0.996631
1.06416 1.07153 0.99658 0.996532
1.05352 1.06536 0.991991 0.99687
1.05292 1.06569 0.991114 0.996876
1.01275 1.01592 1.00006 0.996813
1.0247 1.02864 1 0.996164
1.03682 1.04068 1.00058 0.995711
1.05344 1.06036 0.996764 0.996707
1.04819 1.0628 0.989053 0.99717
1.04617 1.05497 0.994612 0.997031
1.04112 1.0452 1 0.996097
1.049 1.05281 0.999411 0.996963
1.00336 1.00645 1.00017 0.996757
1.00507 1.0064 1.00195 0.996742
1.00752 1.00168 1.00871 0.997151
1.00298 1 1.00414 0.998841
1.01065 1 1.01283 0.99785
1.05471 1.06705 0.991549 0.996855
1.05516 1.06864 0.990486 0.996871
1.0505 1.06837 0.986142 0.99709
1.01356 1.01715 1 0.996467
1.01576 1.01969 1.00026 0.995895
1.02925 1.03307 1.00076 0.995547
1.04557 1.06013 0.989133 0.997105
1.04346 1.04747 0.999929 0.996241
1.04542 1.05483 0.993891 0.99717
1.00013 1 1.00093 0.999207
1.00553 1.00724 1.0017 0.996606
1.00813 1.00536 1.00606 0.996708
1.01054 1.00555 1.00819 0.996798
1.00896 1.00093 1.01053 0.997511
1.00915 1 1.01102 0.998149
1.0565 1.0726 0.988021 0.996928
1.05448 1.07618 0.982756 0.997033
1.04383 1.06687 0.981177 0.997176
1.04106 1.06205 0.982868 0.997315
1.00941 1.0129 1.00027 0.996287
1.04044 1.04657 0.997374 0.996766
1.0066 1.0095 1.00165 0.995484
1.01831 1.02194 1.00104 0.995406
0.999525 1 1 0.999525
1.00301 1 1.00445 0.998565
1.00841 1 1.01061 0.997827
1.00951 1.00172 1.0108 0.997
1.00609 1.00491 1.00471 0.996481
1.01263 1.00494 1.01127 0.996426
0.999491 1 1.00014 0.999349
1.00701 1 1.0086 0.998429
1.05597 1.06116 0.998626 0.996482
1.01082 1.00154 1.01163 0.997665
1.00723 1.01017 1.00027 0.996826
1.00511 1.00634 1.00152 0.997264
1.04734 1.05125 1 0.996279
1.05014 1.05433 0.999429 0.9966
1.00917 1.01035 1.00273 0.996118
1.02352 1.0275 1.00027 0.995858
1.001 1 1.0023 0.998707
1.01095 1 1.01301 0.997966
1.0053 1.00663 1.00198 0.9967
1.01127 1.00721 1.00664 0.997412
1.01798 1.0204 1.00048 0.997159
1.05177 1.06329 0.992112 0.997032
1.04629 1.05027 1 0.996212
1.05104 1.05514 0.999489 0.996618
1.00917 1.00855 1.00458 0.996045
1.0125 1.01694 1.00003 0.995609
1.00225 1 1.00387 0.998393
1.01138 1.00193 1.01186 0.997604
1.01199 1.01158 1.00378 0.996633
1.01512 1.01657 1.00161 0.996978
1.04908 1.08127 0.972872 0.997281
1.0482 1.05613 0.99544 0.997045
1.03275 1.03708 1 0.995821
1.01526 1.01536 1.00426 0.995669
0.998832 1 1.00001 0.998823
0.998719 1 1.00016 0.99856
0.998594 1 1 0.998594
0.99968 1 1.00075 0.998928
1.00128 1 1.00273 0.998554
0.999186 1 1.00021 0.998972
0.999264 1 1.0007 0.998567
1.00144 1 1.00291 0.998527
0.998684 1 1 0.998684
1.00142 1 1.00304 0.998393
1.00064 1 1.00215 0.998486
0.998953 1 1 0.998953
0.999585 1 1 0.999585
0.999621 1 1 0.999621
0.999999 1 1 0.999999
0.999629 1 1 0.999629
0.999997 1 1 0.999997
1 1 1 1
0.999993 1 1 0.999993
1 1 1 1
1 1 1 1
0.999997 1 1 0.999997
0.999965 1 1 0.999965
1 1 1 1
1.0003 1 1.00043 0.999869
1 1 1 1
1 1 1 1
1.05776 1.06737 0.994256 0.996728
1.05723 1.06965 0.99144 0.996928
1.05373 1.07239 0.985368 0.997187
1.05539 1.07222 0.987205 0.997062
1.05698 1.06852 0.992321 0.996856
1.06371 1.07139 0.996204 0.996614
1.05639 1.06795 0.992303 0.996844
1.05755 1.07413 0.987496 0.997032
1.05727 1.07512 0.986234 0.99713
1.05197 1.07202 0.984074 0.99718
1.05874 1.07442 0.988387 0.996987
1.05882 1.08094 0.982294 0.99719
1.05846 1.08315 0.979913 0.997241
1.05486 1.06715 0.991606 0.996857
1.05562 1.06913 0.990466 0.996867
1.05082 1.06759 0.987169 0.997082
1.01515 1.01875 1 0.996465
1.01555 1.01951 1.00018 0.995931
1.02739 1.03113 1.00085 0.995535
1.04595 1.06012 0.989517 0.997092
1.04137 1.05152 0.993193 0.997136
1.04623 1.05033 0.99973 0.99636
1.00501 1.00594 1.00249 0.9966
1.00352 1.00202 1.0047 0.996821
1.01232 1.00652 1.009 0.996792
1.00023 1 1.00097 0.999254
1.00913 1.00178 1.00983 0.997533
1.00953 1 1.01144 0.998114
1.05721 1.07301 0.988305 0.996937
1.0537 1.07588 0.982294 0.997038
1.04413 1.06676 0.981573 0.997168
1.00697 1.01064 1.00009 0.99628
1.00639 1.00947 1.0014 0.995558
1.01841 1.02209 1.0009 0.9955
1.04151 1.06182 0.983513 0.997318
1.0364 1.0433 0.996634 0.996743
0.999597 1 1 0.999597
1.00285 1 1.00429 0.998562
1.00305 1.00349 1.00306 0.996522
1.01506 1.00411 1.01437 0.996589
1.00993 1.00285 1.01004 0.997051
1.00842 1.00013 1.01053 0.997783
1.05661 1.07933 0.981792 0.99711
1.0444 1.07831 0.971343 0.997131
1.04078 1.06672 0.978263 0.997361
1.03039 1.04799 0.985851 0.997315
1.00219 1.00485 1.00133 0.99603
1.01986 1.02291 1.00117 0.995849
1.00724 1.00935 1.00264 0.995288
0.999789 1 1 0.999789
0.999238 1 1 0.999238
0.999585 1 1.00066 0.998924
1.00328 1 1.00523 0.998055
1.0093 1 1.01191 0.997415
1.01356 1.00272 1.0141 0.99676
1.00354 1.00192 1.00496 0.996679
1.03883 1.00229 1.03967 0.99691
1.00074 1 1.00204 0.99871
1.0114 1 1.01348 0.997944
1.05412 1.06537 0.992343 0.99708
1.01302 1.00928 1.0063 0.997419
1.0058 1.00696 1.00215 0.996708
1.01909 1.02189 1.00004 0.99722
1.04559 1.04953 1 0.996246
1.0518 1.0559 0.999413 0.996697
1.00955 1.00874 1.00482 0.996012
1.01193 1.01647 1 0.995527
1.00258 1 1.00423 0.99835
1.00987 1.00094 1.01134 0.997601
1.01519 1.01439 1.00415 0.996653
1.01521 1.01681 1.00142 0.997018
1.05052 1.08369 0.972014 0.997301
1.05065 1.05776 0.996271 0.99699
1.03149 1.03576 1 0.995875
1.01717 1.0178 1.00377 0.995618
1.00344 1 1.00528 0.998178
1.05654 1.08952 0.972346 0.997307
1.00522 1.00195 1.00606 0.997226
1.01518 1.01611 1.00268 0.996413
1.0373 1.0676 0.974133 0.997419
1.02731 1.03195 0.999541 0.995963
1.01234 1.01374 1.00323 0.995398
0.998598 1 1.00003 0.998568
0.998399 0.999692 1.00012 0.998584
0.999074 0.999583 1.00076 0.99873
0.999065 1 1.0001 0.998969
1.00143 1 1.0029 0.998535
0.999355 1 1.00077 0.998586
0.998949 1 1 0.998949
1.00077 1 1.00228 0.998492
0.998772 1 1.00006 0.99871
1.0008 1 1.0024 0.998405
0.998815 1 1 0.998815
0.998994 1 1.00044 0.998552
1.00135 1 1.0031 0.998254
0.998843 1 1.00044 0.998402
0.998868 1 1 0.998868
0.999539 1 1 0.999539
0.999581 1 1 0.999581
1 1 1 1
0.999619 1 1 0.999619
0.999999 1 1 0.999999
1 1 1 1
0.999998 1 1 0.999998
1 1 1 1
1 1 1 1
0.99982 1 1 0.99982
1 1 1 1
0.999994 1 1 0.999994
1 1 1 1
0.999952 1 1 0.999952
1 1 1 1
1 1 1 1
1.05287 1.07273 0.984257 0.99719
1.05578 1.07425 0.985637 0.997128
1.05738 1.07378 0.987667 0.997022
1.05611 1.06779 0.992194 0.996844
1.05836 1.07439 0.988034 0.997006
1.05874 1.08055 0.982591 0.997181
1.05569 1.08035 0.979873 0.997248
1.05834 1.0811 0.981723 0.997173
1.07024 1.09538 0.979719 0.997275
1.07031 1.09823 0.976979 0.997541
1.05795 1.07342 0.9886 0.996945
1.0527 1.07558 0.981638 0.997042
1.04449 1.06667 0.98199 0.99716
1.00578 1.00949 1.00006 0.996273
1.00719 1.01033 1.00126 0.995635
1.02031 1.02403 1.00078 0.995594
1.04216 1.0613 0.984607 0.997321
1.03204 1.03933 0.996251 0.996721
1.00432 1.00369 1.00408 0.996564
1.01952 1.00455 1.01822 0.996748
1.01151 1.00382 1.01059 0.997102
0.999669 1 1 0.999669
1.00268 1 1.00413 0.998559
1.0085 1.00011 1.01068 0.997738
1.05637 1.07966 0.981251 0.99712
0.999783 1 1 0.999783
0.999198 1 1 0.999198
1.04562 1.07733 0.973352 0.997133
1.03887 1.06516 0.977929 0.997331
1.00308 1.00506 1.00192 0.996113
1.00695 1.00837 1.00332 0.995293
1.01899 1.02322 1.00003 0.995836
1.0294 1.04783 0.985078 0.997287
0.999753 1 1.00074 0.999012
1.00352 1 1.00549 0.998045
1.00375 1.00186 1.00533 0.99657
1.03319 1.0021 1.03409 0.99704
1.01068 1.00194 1.01198 0.996777
1.00838 1 1.01098 0.997431
1.06727 1.09591 0.976574 0.997225
1.02591 1.07599 0.956072 0.997263
1.02608 1.05605 0.974051 0.997509
1.01193 1.0279 0.987424 0.997007
1.0055 1.0028 1.00646 0.996266
1.00713 1.0063 1.0055 0.995348
0.999147 1 1 0.999147
0.99921 1 1 0.99921
0.99894 1.00005 1 0.99889
0.999061 1 1.00077 0.998289
1.00804 1 1.01029 0.997774
1.00657 1.00036 1.00916 0.997065
1.05521 1.00014 1.05843 0.996825
0.99733 1.00049 0.999426 0.997411
1.00335 1 1.00505 0.998308
1.0078 1 1.01023 0.997599
1.05141 1.0852 0.971465 0.99732
1.05268 1.05902 0.997072 0.996936
1.01546 1.01729 1.00115 0.997059
1.019 1.01791 1.00441 0.996673
1.0306 1.03478 1.00004 0.995929
1.0197 1.02082 1.00335 0.995566
1.00354 1 1.0054 0.998155
1.0595 1.09321 0.971718 0.997372
1.00536 1.00111 1.007 0.997266
1.01325 1.01423 1.00269 0.996349
1.037 1.06707 0.974361 0.997394
1.02607 1.03065 0.999509 0.996052
1.01355 1.01468 1.00348 0.995413
1.00677 0.999622 1.00928 0.997887
1.01081 1.05356 0.961544 0.997793
1.0045 1.00276 1.00478 0.996967
1.00507 1.00543 1.00379 0.995873
1.01739 1.0332 0.987731 0.996938
1.00282 1.00499 1.00221 0.995645
0.965719 1.00306 0.965754 0.996913
0.997974 0.999109 1.00029 0.998575
0.99897 0.998612 1.00163 0.998733
1.00026 0.999819 1.00177 0.998668
0.998946 1 1 0.998946
1.00153 1 1.00303 0.998498
0.999853 1 1.00144 0.998417
0.998872 1 1.00013 0.998738
0.998868 1 1 0.998868
0.998965 1 1.00057 0.998399
0.998781 1 1 0.998781
1.00121 1 1.00296 0.998255
0.998903 1 1.00038 0.998526
0.999497 1 1.00073 0.99877
0.998744 1 1.00067 0.998077
1.00204 1 1.00382 0.998221
0.998494 1 1.00022 0.998273
0.998708 1 1 0.998708
0.999989 1 1.00153 0.998463
0.999033 1 1.00036 0.998673
0.999518 1 1 0.999518
0.999535 1 1 0.999535
1 1 1 1
0.999577 1 1 0.999577
1 1 1 1
1 1 1 1
0.999999 1 1 0.999999
1 1 1 1
1 1 1 1
0.999854 1 1 0.999854
0.999821 1 1 0.999821
1 1 1 1
1 1 1 1
1 1 1 1
0.99999 1 1 0.99999
1 1 1 1
1 1 1 1
1.05303 1.07779 0.979721 0.997255
1.05846 1.08005 0.982796 0.997172
1.05799 1.07438 0.987679 0.997025
1.05819 1.08089 0.981772 0.997171
1.0673 1.0926 0.979523 0.997271
1.06905 1.09651 0.977437 0.99746
1.07409 1.10429 0.97525 0.99734
0.96455 1.01605 0.954132 0.994945
1.02144 1.05708 0.967973 0.998258
0.999314 1 1 0.999314
1.05617 1.07995 0.9808 0.99713
1.04694 1.07655 0.975291 0.997135
1.03669 1.06383 0.977125 0.9973
1.00005 1.00305 1.00082 0.996192
1.00544 1.00615 1.00402 0.995295
1.01743 1.02231 0.999401 0.995824
1.02798 1.04762 0.983954 0.99726
0.998809 1.00199 1.00036 0.996464
1.02715 1.00107 1.02896 0.997176
1.00741 1.00088 1.00976 0.996794
0.999778 1 1 0.999778
1.00889 1 1.01147 0.997446
0.99971 1 1.00061 0.999099
1.0038 1 1.00577 0.998035
0.999158 1 1 0.999158
1.06375 1.09613 0.97315 0.997232
0.999198 1 1 0.999198
0.999232 1 1.00002 0.999211
0.99871 1.00037 0.999486 0.998852
1.03037 1.07652 0.959766 0.997261
1.02562 1.05579 0.973902 0.99746
1.00188 1.00217 1.00343 0.996299
1.01178 1.01092 1.0054 0.995485
1.01058 1.02557 0.988363 0.996988
0.999117 1 1.00077 0.998352
1.00771 1 1.01001 0.997721
1.00799 1.00031 1.01044 0.997268
1.04444 1.00037 1.04736 0.996842
1.00653 1.00059 1.00884 0.997119
1.04021 1.08473 0.96152 0.997342
1.00522 1.06309 0.948012 0.997422
1.01765 1.03729 0.983869 0.997149
0.992892 1.01168 0.984623 0.996753
1.00357 1 1.00656 0.997029
0.998718 1 1 0.998718
0.998812 1.00017 1 0.99864
0.999932 1 1.00131 0.998619
1.00877 1 1.01071 0.99808
1.01008 1 1.01246 0.997646
1.04068 0.999899 1.04369 0.997215
1.03204 1.00173 1.03293 0.997403
1.00351 1 1.00539 0.998132
1.00498 1 1.00769 0.997306
1.06129 1.09753 0.969471 0.997434
1.03722 1.06731 0.974369 0.997367
1.02512 1.0297 0.999408 0.996142
1.01023 1.01128 1.00268 0.996286
1.01419 1.01519 1.0036 0.995428
1.00687 0.999872 1.00908 0.997939
1.01156 1.05448 0.961375 0.997838
1.00152 1.00176 1.00279 0.996975
1.00401 1.00408 1.00408 0.995873
1.01596 1.0327 0.986689 0.997064
1.00349 1.00514 1.00273 0.99564
0.966514 1.00291 0.967762 0.995814
1.00698 0.999728 1.00946 0.997817
0.997577 1.02518 0.975234 0.997785
1.00078 1.00137 1.00265 0.996773
1.00422 1.0016 1.00644 0.996197
0.991868 1.00628 0.988819 0.996824
0.904347 0.974981 0.954057 0.972221
0.89608 0.964547 0.942612 0.985576
0.963402 0.982433 0.983449 0.997132
0.703018 0.82509 0.904035 0.942496
0.616952 0.776365 0.85977 0.924279
0.998996 0.997807 1.00246 0.998736
1.00108 0.998531 1.00384 0.998721
1.00152 1 1.00282 0.998703
0.998867 1 1 0.998867
0.998868 1 1.00047 0.998396
1.00055 1 1.0023 0.998256
0.998864 1 1.00037 0.998499
0.998747 1 1 0.998747
1.00274 1 1.00455 0.9982
0.998745 1 1 0.998745
0.998475 1 1.00018 0.998293
0.999258 1 1.00054 0.998715
0.999192 1 1.00106 0.998132
1.00381 1 1.00567 0.998149
1.00506 1 1.00674 0.99833
1.00335 1 1.00521 0.998147
0.998995 1 1.00081 0.998182
0.998674 1 1 0.998674
0.999232 1 1.00095 0.998287
0.999717 1 1.00138 0.998336
0.999622 1 1.00111 0.998514
0.999941 1 1.00152 0.998424
0.998907 1 1.00011 0.998798
0.999135 1 1.00047 0.99867
0.999512 1 1 0.999512
0.999518 1 1 0.999518
1 1 1 1
0.999532 1 1 0.999532
1 1 1 1
1 1 1 1
1 1 1 1
1 1 1 1
1 1 1 1
0.999897 1 1 0.999897
0.999851 1 1 0.999851
1 1 1 1
0.999822 1 1 0.999822
1 1 1 1
1 1 1 1
0.999999 1 1 0.999999
1 1 1 1
1 1 1 1
1.06413 1.08962 0.979278 0.997266
1.0582 1.0808 0.981864 0.997169
1.06794 1.09422 0.978554 0.997379
0.965762 1.01582 0.955467 0.99503
1.07125 1.10177 0.974887 0.99734
1.03234 1.06009 0.975651 0.998126
1.05245 1.07532 0.981212 0.997472
0.919402 0.977786 0.954893 0.984707
0.986839 1.01944 0.971994 0.995909
0.999346 1 1 0.999346
0.999308 1 1 0.999308
0.998828 1 1 0.998828
0.998943 1 1 0.998943
1.06089 1.09598 0.970666 0.99724
1.03469 1.07624 0.964041 0.997258
1.02592 1.05558 0.974421 0.997411
1.00058 1.0012 1.00306 0.996331
1.0166 1.01636 1.00463 0.995622
1.00953 1.02352 0.989326 0.99697
1.01912 1 1.02207 0.997122
1.03476 1.00089 1.03709 0.996858
1.00522 1.00037 1.0077 0.997173
0.999438 1 1.00023 0.999212
1.00572 1 1.00807 0.997668
0.999141 1 1.00073 0.998415
0.999248 1 1 0.999248
0.998779 1.00072 0.999247 0.998814
1.03893 1.08453 0.96049 0.997357
0.998747 1 1 0.998747
0.998782 1.00038 0.999685 0.998713
0.999478 0.999674 1.001 0.99881
1.01175 1.06631 0.951297 0.997411
1.01822 1.03728 0.984435 0.997148
1.00216 1.00079 1.00437 0.997012
0.996132 1.01119 0.988245 0.996831
1.0069 1 1.00892 0.997997
1.00967 1 1.0122 0.997508
1.03726 1.00218 1.03772 0.997381
1.04048 1.00043 1.04304 0.997117
0.995435 1.05152 0.948988 0.997549
0.996593 1.04045 0.960331 0.997417
1.00739 1.01497 0.995709 0.996807
0.978546 1.00095 0.97975 0.997823
1.00222 1 1.00372 0.998505
1.00268 1 1.0044 0.998285
1.01651 0.999516 1.01885 0.998187
1.06223 1.00073 1.06421 0.997408
0.884087 0.968053 0.943134 0.968329
1.00753 1 1.00956 0.997992
0.999482 1.00091 1.0016 0.996982
1.01312 1.05521 0.962142 0.997888
1.0143 1.03169 0.985914 0.99719
1.00407 1.00517 1.0033 0.995632
1.00352 1.0032 1.00447 0.995871
0.966913 1.00399 0.968217 0.994682
1.00532 0.999308 1.00816 0.997874
0.995954 1.02604 0.97285 0.997766
1.00063 1.00148 1.00238 0.996787
1.00471 1.00241 1.00611 0.996205
0.995242 1.00741 0.991077 0.996812
0.899456 0.980238 0.947547 0.968383
0.889839 0.960235 0.943131 0.982566
0.967773 0.983107 0.987195 0.997172
0.698067 0.819457 0.902515 0.943879
0.603625 0.767319 0.855869 0.919144
1.00227 0.999134 1.00514 0.998007
0.729159 0.838089 0.918899 0.946813
0.651883 0.785404 0.897305 0.92499
0.986961 1.00588 0.983327 0.997825
1.00849 1.00153 1.00959 0.997385
1.01418 1.00537 1.01155 0.997244
0.955728 0.972688 0.985004 0.997522
0.877291 0.952497 0.94925 0.970285
0.85842 0.931384 0.939852 0.980644
0.688006 0.813184 0.892498 0.947974
0.671413 0.833269 0.874463 0.921432
1.00197 0.997441 1.00578 0.998773
1.00143 0.999 1.00376 0.998676
1.00871 1 1.00988 0.998837
0.998782 1 1 0.998782
0.998313 1 1 0.998313
1.00336 1 1.00519 0.998179
1.00007 1 1.00188 0.998187
0.998661 1 1 0.998661
0.998683 1 1.00001 0.998675
1.00427 1 1.00615 0.998129
1.00364 1 1.00551 0.998148
0.998533 1 1.00031 0.998226
1.00562 0.999981 1.00728 0.998367
1.00633 1 1.00807 0.998272
1.01837 1 1.01989 0.998502
1.00189 1 1.00385 0.998051
0.999025 1 1.00077 0.998253
0.998827 1 1.00055 0.998282
1.00026 1 1.00191 0.998357
1.00033 1 1.0022 0.998136
0.999453 1 1.00104 0.998415
1.00316 1 1.00473 0.998443
1.00736 1 1.00918 0.998195
1.00003 1 1.00155 0.998484
0.999266 1 1.00075 0.998517
0.998895 1 1.00006 0.998834
0.999686 1 1.0013 0.998385
0.998841 1 1.00007 0.998767
0.999494 1 1 0.999494
0.99922 1 1.00055 0.998667
0.999513 1 1 0.999513
0.999998 1 1 0.999998
0.999518 1 1 0.999518
1 1 1 1
1 1 1 1
1 1 1 1
1 1 1 1
1 1 1 1
0.999293 1 1 0.999293
0.999908 1 1 0.999908
0.999893 1 1 0.999893
1 1 1 1
0.999848 1 1 0.999848
1 1 1 1
1 1 1 1
1 1 1 1
1 1 1 1
1 1 1 1
0.967915 1.01547 0.957843 0.995118
1.06961 1.09982 0.975127 0.997339
1.04093 1.06382 0.980457 0.997991
0.910513 0.972989 0.949179 0.985893
0.987077 1.01969 0.971801 0.99611
1.05007 1.07878 0.975895 0.997427
0.994942 1.02955 0.969875 0.996398
0.926276 0.975191 0.961937 0.987425
0.90275 0.976651 0.952987 0.969931
0.70303 0.822997 0.901035 0.948055
0.577393 0.730476 0.856082 0.923315
0.998891 1 1 0.998891
0.999344 1 1 0.999344
0.999303 1 1 0.999303
0.99883 1 1 0.99883
0.998792 1 1.00017 0.998625
0.998608 1 1 0.998608
0.998787 1 1 0.998787
0.998898 1 1 0.998898
1.0371 1.08565 0.957793 0.997371
1.01836 1.07066 0.953632 0.9974
1.01743 1.03693 0.983993 0.997148
1.00252 1.00189 1.00364 0.996996
0.99897 1.01052 0.991632 0.996909
1.04592 1.00244 1.04614 0.997358
1.04143 1.00138 1.04311 0.99702
1.01005 1 1.01272 0.99737
0.998331 1.00057 0.998972 0.998787
1.00708 1 1.00919 0.99791
0.998778 1 1 0.998778
0.998608 0.999606 1 0.999002
0.99369 1.05244 0.946468 0.997578
1.00167 0.999882 1.00329 0.998503
1.00395 1 1.00559 0.998361
0.993829 1.03837 0.959613 0.99739
1.00444 1.01562 0.992003 0.996959
0.982185 1.00131 0.983171 0.997686
1.02669 1.00003 1.0288 0.997914
1.05788 1.00209 1.05838 0.997449
0.973335 1.02908 0.948232 0.997468
0.990009 1.01259 0.98025 0.997402
0.974128 1.00166 0.974977 0.997474
0.981775 1.00051 0.98324 0.998003
1.00651 1 1.00851 0.998017
1.01459 1 1.01649 0.998136
1.05375 1 1.05612 0.997763
0.738969 0.847624 0.91851 0.94916
0.901197 0.976233 0.94848 0.97328
1.00298 0.999055 1.00601 0.997932
1.00032 1.00132 1.0022 0.996804
0.995946 1.02719 0.971774 0.997746
0.99831 1.00884 0.992734 0.996802
1.00533 1.00342 1.00571 0.996217
0.899082 0.973996 0.951329 0.970311
0.893977 0.968571 0.938777 0.98318
0.969436 0.98221 0.989757 0.997209
0.707201 0.821399 0.907389 0.948845
0.591456 0.759203 0.852505 0.913835
1.00198 0.999466 1.00451 0.99801
0.733831 0.846852 0.914342 0.94772
0.633929 0.768924 0.894276 0.921903
0.987025 1.00696 0.982343 0.997818
1.00837 1.00208 1.0089 0.997398
1.01228 1.00357 1.01132 0.997395
0.949269 0.96665 0.98425 0.997733
0.88909 0.965299 0.952264 0.967223
0.854465 0.927109 0.937374 0.98322
0.695824 0.812949 0.90486 0.94592
0.671908 0.84086 0.868232 0.920344
1.00405 0.999811 1.00567 0.998572
0.679459 0.797794 0.920419 0.925309
0.749341 0.873767 0.919053 0.933132
0.985481 0.992657 0.994115 0.998648
1.01558 1.00258 1.01443 0.998565
0.958846 0.958728 1.00294 0.997189
0.869392 0.917619 0.962245 0.984618
0.834953 0.912829 0.947477 0.965392
0.702499 0.806589 0.919704 0.946991
0.728566 0.891797 0.883077 0.925134
1.00207 0.998779 1.00465 0.99865
1.00697 1 1.00818 0.998791
1.00835 0.999053 1.01024 0.999074
0.998676 1 1 0.998676
0.99827 1 1 0.99827
1.00448 1 1.00634 0.998148
1.00514 1 1.00704 0.99811
1.00568 0.999884 1.00741 0.998404
0.998857 1 1.00061 0.99825
1.00499 1 1.00677 0.998234
1.00189 1 1.00384 0.998053
1.01737 0.999615 1.01922 0.998564
1.03619 0.998113 1.03909 0.999094
1.01075 1 1.01249 0.998283
1.001 1 1.00299 0.998008
0.998613 1 1.00034 0.998277
1.00079 1 1.00242 0.998378
1.0009 1 1.00278 0.998126
0.999953 1 1.00156 0.998399
1.00118 1 1.00263 0.99855
1.00406 1 1.00572 0.998348
1.00531 1 1.00701 0.998308
1.00347 0.999058 1.00584 0.998582
0.999584 1 1.00131 0.998277
0.999488 1.00096 1.00093 0.997607
1.00556 1 1.0075 0.998079
1.00615 1 1.00796 0.998197
1.00635 1 1.00802 0.998342
1.00121 1 1.00274 0.998482
0.999061 1 1.00025 0.99881
0.999294 1 1.00078 0.998519
0.999085 1 1.00025 0.998838
0.999473 1 1 0.999473
0.998868 1 1.00013 0.998735
0.999497 1 1 0.999497
0.99999 1 1 0.99999
0.999515 1 1 0.999515
0.999996 1 1 0.999996
1 1 1 1
1 1 1 1
1 1 1 1
1 1 1 1
0.999293 1 1 0.999293
0.999879 1 1 0.999879
0.999295 1 1 0.999295
1 1 1 1
0.999908 1 1 0.999908
0.999889 1 1 0.999889
1 1 1 1
1 1 1 1
1 1 1 1
1 1 1 1
1 1 1 1
0.72571 0.837973 0.91793 0.94346
0.639276 0.778636 0.889227 0.923298
0.909917 0.973855 0.947166 0.986464
0.98885 1.01977 0.973264 0.996321
1.04886 1.08076 0.973036 0.997382
0.910558 0.957984 0.961263 0.988797
0.996291 1.0292 0.971341 0.996584
0.914931 0.988568 0.953381 0.970767
0.696667 0.823623 0.896199 0.943828
0.583395 0.745327 0.852506 0.91816
0.93814 0.995636 0.950176 0.991661
0.896582 0.965629 0.9564 0.970823
0.690969 0.816908 0.892921 0.947267
0.662342 0.828376 0.868064 0.921092
1.00067 1 1.00223 0.998438
0.99893 1 1 0.99893
0.999342 1 1 0.999342
0.998831 1 1 0.998831
0.99888 1 1.00018 0.9987
0.999435 1 1.00109 0.998351
0.998582 1 1 0.998582
0.998535 1 1.00012 0.998416
0.998741 1 1 0.998741
0.998853 1 1 0.998853
0.991894 1.05217 0.944972 0.997605
0.990633 1.03569 0.959021 0.997367
1.00344 1.01695 0.989568 0.997112
0.983958 1.00177 0.984628 0.99755
1.04892 1.00337 1.04803 0.997489
1.03736 1.00043 1.03936 0.997644
1.00375 1 1.00532 0.998438
1.00113 0.999608 1.00303 0.998499
0.97334 1.02943 0.947822 0.997562
1.00774 1 1.00979 0.997971
1.01453 1 1.01647 0.998088
0.984764 1.01071 0.976928 0.997343
0.972316 1.00159 0.973133 0.997577
0.980471 1.00118 0.981335 0.997944
1.04666 0.999867 1.04921 0.997703
0.96959 1.00331 0.968597 0.997724
0.964161 0.998555 0.967205 0.998295
1.01309 0.999794 1.01516 0.998171
1.00959 1 1.01171 0.997903
1.01198 1 1.01417 0.997842
1.02887 1 1.03106 0.997877
0.708032 0.8135 0.930351 0.93551
0.742853 0.846172 0.924553 0.949538
0.889509 0.973018 0.943928 0.96848
1.0012 0.999001 1.0042 0.99801
1.00819 1.00223 1.00856 0.997407
0.989384 1.00815 0.983542 0.997811
1.01086 1.00226 1.01107 0.997541
0.733434 0.842131 0.916658 0.95011
0.883578 0.96154 0.948919 0.968386
0.852998 0.923842 0.941436 0.980753
0.947892 0.962884 0.986469 0.997933
0.692019 0.816728 0.899526 0.941948
0.631211 0.767039 0.891302 0.923277
0.670102 0.837092 0.866076 0.924298
1.0041 0.999525 1.00603 0.998549
0.681525 0.798883 0.918353 0.928942
0.762812 0.886787 0.922159 0.932809
0.984764 0.990567 0.995388 0.998747
1.01593 1.00185 1.01556 0.998516
0.955919 0.956702 1.0014 0.997781
0.860241 0.922621 0.94936 0.982123
0.86396 0.927091 0.961451 0.969268
0.715906 0.823291 0.922157 0.94297
0.719913 0.883087 0.878244 0.928241
1.0076 0.998287 1.00991 0.999431
0.784528 0.8939 0.93334 0.940328
0.756483 0.888387 0.908793 0.936984
0.981001 0.965383 1.01647 0.999715
0.898822 0.920471 0.986971 0.989371
0.864967 0.908309 0.984113 0.967657
0.780404 0.878373 0.944925 0.94025
0.765068 0.927212 0.888581 0.928589
1.0065 1 1.00777 0.998744
1.00971 0.998579 1.0121 0.999062
1.02475 0.992619 1.03304 0.999354
0.999052 1 1.00081 0.998248
1.00191 1 1.00386 0.998056
1.00308 1 1.00489 0.998197
1.01676 0.999356 1.01881 0.998627
1.00163 1 1.00363 0.998008
1.01006 1 1.01181 0.998272
1.04156 0.999251 1.0432 0.999173
1.0447 0.994496 1.05106 0.999446
1.04005 0.998874 1.04219 0.999068
1.00439 1 1.00621 0.998193
1.00111 1 1.003 0.998116
1.00024 1 1.00186 0.998384
0.999253 1 1.0006 0.998655
1.00483 1 1.00651 0.99833
1.00295 1 1.00461 0.998347
1.00532 0.999591 1.00714 0.998608
1.0035 0.999762 1.00536 0.998386
1.0112 0.99816 1.01411 0.998962
0.996594 1.00083 0.997339 0.998424
1.0001 1.00065 1.00117 0.998288
0.9986 1.00006 1.00069 0.997847
1.00344 1.00528 1.00153 0.996651
1.00338 1.00067 1.00477 0.997947
0.999155 1.00046 1.00079 0.997906
1.00559 1 1.00752 0.998084
1.01085 1 1.01272 0.998158
1.00453 1 1.00635 0.998198
1.00569 1 1.00736 0.998341
0.999692 1 1.00101 0.998687
1.0019 1 1.00343 0.99848
0.998808 1 1 0.998807
0.999444 1 1 0.999444
0.998932 1 1.00009 0.998842
0.999474 1 1 0.999474
0.999976 1 1 0.999976
0.9995 1 1 0.9995
0.999986 1 1 0.999986
1 1 1 1
0.999995 1 1 0.999995
1 1 1 1
1 1 1 1
0.999019 1 1 0.999019
0.999826 1 1 0.999826
0.999212 1 1 0.999212
1 1 1 1
0.999884 1 1 0.999884
0.999296 1 1 0.999296
1 1 1 1
1 1 1 1
0.999909 1 1 0.999909
1 1 1 1
1 1 1 1
1 1 1 1
0.670197 0.793725 0.909469 0.928419
0.732938 0.844871 0.9167 0.946346
0.755613 0.884756 0.916147 0.932203
0.636152 0.77706 0.888085 0.921833
0.910333 0.9667 0.954898 0.986171
0.995876 1.02959 0.970381 0.996781
0.917313 0.985863 0.957949 0.971312
0.710139 0.826477 0.90624 0.948134
0.592132 0.763254 0.849806 0.912914
0.939032 0.989856 0.957555 0.990706
0.886313 0.963073 0.953329 0.96535
0.704617 0.824368 0.904221 0.945272
0.657372 0.826448 0.866318 0.918161
0.90685 0.970717 0.945875 0.987664
0.846508 0.91264 0.961567 0.964611
0.734413 0.850763 0.918035 0.940313
0.723878 0.888647 0.883242 0.922267
1.00268 1 1.00459 0.9981
0.999769 1 1.00128 0.998488
0.998969 1 1 0.998969
0.998776 1 1 0.998776
0.998445 1 1.00049 0.997959
0.998754 1 1.00035 0.998404
0.998557 1 1 0.998557
0.998387 1 1 0.998387
0.998493 1 1.00004 0.998457
0.998696 1 1 0.998696
0.973711 1.03047 0.947143 0.997654
0.981649 1.00913 0.975414 0.997288
0.968396 1.00129 0.9694 0.997679
0.98238 1.00228 0.982221 0.997889
1.03837 1 1.04082 0.997642
1.01452 1 1.01651 0.998041
1.00838 1 1.01048 0.997925
1.00918 1 1.01135 0.997853
0.967977 1.00353 0.966729 0.997767
1.01112 1 1.01333 0.997819
1.02888 1 1.03109 0.997854
0.963617 0.99908 0.966151 0.998296
1.0081 1.00114 1.00884 0.998128
0.949109 0.978663 0.971662 0.998085
0.972671 0.979417 0.993874 0.999234
1.04232 0.999336 1.04471 0.998381
1.00504 1 1.00719 0.997872
1.0224 1 1.02444 0.998013
0.796819 0.903299 0.9339 0.944557
0.706574 0.812183 0.930962 0.934484
0.733449 0.841812 0.921346 0.945654
1.00347 0.999429 1.00553 0.998528
1.01655 1.00082 1.01728 0.998467
0.980688 0.98825 0.993491 0.998849
0.680635 0.798222 0.917284 0.92958
0.848981 0.916411 0.960011 0.965009
0.865376 0.91986 0.956406 0.983651
0.945911 0.951064 0.996194 0.998382
0.72299 0.832649 0.916486 0.947424
0.770527 0.893051 0.925113 0.932645
0.723015 0.884242 0.880596 0.928537
1.00596 0.998433 1.00817 0.999376
0.782956 0.893869 0.929778 0.942072
0.75569 0.88713 0.908983 0.937131
0.982772 0.969146 1.01453 0.999532
0.912168 0.932034 0.989363 0.989208
0.833599 0.90039 0.960997 0.963395
0.762796 0.925493 0.887339 0.928849
0.796699 0.884887 0.955529 0.942242
0.999113 0.97328 1.02684 0.999711
0.768832 0.881809 0.919948 0.94775
0.788392 0.917557 0.914451 0.939613
0.722046 0.88689 0.882514 0.922514
0.949903 0.939737 1.01365 0.997207
0.902127 0.928283 1.00284 0.969072
0.849687 0.931821 0.965031 0.944899
1.01139 0.998022 1.01436 0.999049
1.025 0.994121 1.03181 0.99927
1.02785 0.983117 1.04596 0.999566
1.00176 1 1.00376 0.998008
1.00833 1 1.01008 0.998261
1.04596 0.999375 1.0474 0.999251
1.00473 1 1.00654 0.998199
1.04015 0.998956 1.0422 0.999079
1.04739 0.994519 1.05377 0.999421
1.03811 0.989362 1.0498 0.999489
1.0251 0.997807 1.02833 0.999058
1.00396 1 1.00561 0.998354
1.00216 1 1.00382 0.998347
1.00717 1 1.00855 0.998635
1.01039 0.998748 1.01273 0.998933
1.00329 0.999877 1.00503 0.998391
1.00336 0.999803 1.00473 0.99883
0.997457 1.00016 0.998566 0.998727
1.00311 1.00027 1.00549 0.997358
1.00054 1.00133 1.00091 0.998306
0.999658 1.00133 1.00059 0.997743
0.999947 1.0022 1.00141 0.996343
1.01532 1.01786 1.00129 0.996224
1.00396 1.00365 1.00276 0.997557
1.00171 1.00362 1.00138 0.996716
1.0105 1 1.0126 0.997922
1.0047 1.00131 1.00544 0.997956
0.998846 1 1.00065 0.998201
1.00594 1 1.00787 0.998089
1.00986 1 1.01169 0.998193
1.00338 1 1.00486 0.998524
1.00527 1 1.00694 0.998341
0.999898 1 1.00121 0.998687
0.999362 1 1 0.999362
0.998803 1 1 0.998803
0.999441 1 1 0.999441
0.999965 1 1 0.999965
0.999474 1 1 0.999474
0.999972 1 1 0.999972
1 1 1 1
0.999982 1 1 0.999982
1 1 1 1
1 1 1 1
0.998739 1 1 0.998739
0.999606 1 1 0.999606
0.999016 1 1 0.999016
1 1 1 1
0.99977 1 1 0.99977
0.999132 1 1 0.999132
1 1 1 1
1 1 1 1
0.999889 1 1 0.999889
1 1 1 1
1 1 1 1
1 1 1 1
0.7852 0.902314 0.925099 0.940663
0.673178 0.794218 0.909671 0.931764
0.725649 0.839606 0.91392 0.945677
0.998269 1 1 0.998269
0.762691 0.886404 0.915367 0.939986
0.754678 0.884478 0.915463 0.932039
0.644788 0.787918 0.884546 0.925157
0.948344 0.993477 0.964672 0.989529
0.878742 0.951503 0.951997 0.970099
0.707152 0.838147 0.896512 0.941101
0.649971 0.811103 0.870615 0.920432
0.904062 0.965945 0.950665 0.984506
0.860186 0.921879 0.963081 0.968849
0.733237 0.840514 0.927104 0.940959
0.721219 0.884866 0.882771 0.923297
0.852848 0.917646 0.947425 0.980962
0.843535 0.898059 0.97253 0.965818
0.808734 0.894001 0.959372 0.942932
0.765799 0.925808 0.890818 0.928549
1.00141 1 1.00352 0.997899
1.00383 1 1.00578 0.998056
0.999194 1 1.00066 0.998539
0.998217 1 1.00013 0.998082
0.998718 1 1.00068 0.998037
0.998456 1 1 0.998456
0.998391 1 1 0.998391
0.998523 1 1.00003 0.998497
0.966492 1.00413 0.964643 0.997796
0.963409 1.00076 0.964313 0.998304
1.00909 1 1.01131 0.997801
1.00252 1.00239 1.00205 0.998084
1.03029 1 1.03253 0.99783
1.01092 1 1.01315 0.997797
1.00584 1 1.00797 0.997881
0.951869 0.977891 0.975127 0.998218
1.02014 1 1.02216 0.998028
1.03177 1.00009 1.0333 0.998424
0.971517 0.982367 0.989664 0.999283
1.00729 1 1.00923 0.998075
0.937896 0.955624 0.983648 0.997764
1.00105 0.979137 1.02291 0.999477
1.05711 0.996972 1.06188 0.998536
1.02435 0.999363 1.02683 0.998216
0.776445 0.883131 0.924336 0.951165
0.796554 0.903619 0.933582 0.94423
0.706518 0.810398 0.933989 0.933433
1.0036 0.998512 1.00578 0.999324
0.985783 0.972412 1.01441 0.999354
0.784329 0.896586 0.926923 0.943762
0.858121 0.898272 0.986292 0.96858
0.901154 0.930599 0.982485 0.985622
0.791391 0.879816 0.95629 0.940609
0.75672 0.888297 0.908922 0.937239
0.762172 0.925405 0.886448 0.929111
1.00412 0.98116 1.02374 0.999669
0.770389 0.88345 0.920122 0.947725
0.7893 0.915563 0.915324 0.941843
0.961238 0.947096 1.01572 0.999226
0.719054 0.883085 0.88176 0.92344
0.874484 0.909605 0.995006 0.966213
0.851035 0.933188 0.9656 0.944454
0.995895 0.967454 1.02968 0.999721
0.798962 0.908722 0.924727 0.950783
0.759947 0.882322 0.915929 0.940361
0.659238 0.826224 0.866062 0.921288
0.806942 0.893084 0.958844 0.942327
0.941239 0.941607 1.00608 0.99357
0.909591 0.926643 1.02046 0.961922
1.02347 0.996028 1.02838 0.999188
1.02828 0.981662 1.04798 0.999534
1.01675 0.968901 1.04982 0.999582
1.00607 1 1.00788 0.998205
1.04385 0.998996 1.04585 0.999091
1.05364 0.995394 1.05915 0.999396
1.02089 0.998134 1.02378 0.999045
1.03644 0.991175 1.0462 0.999488
1.00942 0.986777 1.02373 0.999235
1.01027 0.999419 1.01197 0.998903
1.00326 1 1.00488 0.998396
1.00681 0.999905 1.00811 0.998807
1.01222 0.999012 1.01516 0.998091
0.998528 0.999499 1 0.999028
1 1.00021 1.00222 0.997573
1.00409 1.00149 1.00674 0.995885
1.00524 1.00751 1.0022 0.99556
1.00065 1.00262 1.0004 0.997634
1.00043 1.00286 1.00145 0.996135
1.01684 1.02008 1.00053 0.996301
1.01075 1.01123 1.00261 0.996917
1.01404 1.0165 1.00125 0.996328
1.00791 1.00058 1.00962 0.997726
1.00666 1.00579 1.00335 0.997523
0.999506 1.00145 1.00128 0.996783
1.00939 1 1.0111 0.99831
1.00981 1 1.01189 0.997947
1.00602 1.00194 1.00613 0.997964
1.00875 1 1.01054 0.998228
1.00343 1 1.00492 0.998524
0.999815 1 1.00061 0.999207
1.00005 1 1.00136 0.998688
0.999432 1 1.00008 0.999357
0.999955 1 1 0.999955
0.999438 1 1 0.999438
0.999963 1 1 0.999963
1 1 1 1
0.999969 1 1 0.999969
1 1 1 1
1 1 1 1
0.99865 1 1 0.99865
0.999431 1 1 0.999431
0.998791 1 1 0.998791
1 1 1 1
0.999587 1 1 0.999587
0.999014 1 1 0.999014
1 1 1 1
1 1 1 1
0.999714 1 1 0.999714
1 1 1 1
1 1 1 1
1 1 1 1
0.775857 0.88533 0.922981 0.949475
0.787199 0.901431 0.928358 0.940668
0.67421 0.793557 0.911672 0.93192
0.99831 1 1 0.99831
0.998691 1 1.00047 0.998226
0.998219 1 1 0.998219
0.789364 0.91987 0.9136 0.939279
0.759424 0.886007 0.911721 0.940125
0.752973 0.883908 0.914123 0.931896
0.910734 0.973045 0.948697 0.986577
0.831955 0.909537 0.948362 0.964506
0.731222 0.827878 0.932695 0.946985
0.729222 0.892571 0.886689 0.921394
0.856539 0.923264 0.942921 0.983888
0.857677 0.906293 0.979753 0.965914
0.792656 0.876917 0.957841 0.943698
0.76323 0.925695 0.887777 0.928717
0.865826 0.916457 0.962661 0.981397
0.879182 0.913169 0.995407 0.967224
0.849244 0.928898 0.967172 0.945281
0.733022 0.895292 0.884934 0.925212
0.998687 1 1.00064 0.998045
1.00175 1 1.00389 0.997861
1.00356 1 1.00556 0.998011
0.998099 1 1.00003 0.998069
0.998462 1 1.00035 0.998114
0.998394 1 1 0.998394
0.950685 0.973055 0.978631 0.998344
0.969253 0.981841 0.98786 0.999311
1.00651 1 1.00864 0.997891
1.02345 1.00048 1.02453 0.998466
1.02041 1 1.02241 0.998043
1.00941 1 1.01135 0.998088
1.02038 0.9972 1.02503 0.998253
0.945294 0.955421 0.991523 0.99786
1.05342 0.995594 1.05949 0.998678
1.00474 0.974039 1.03221 0.99933
1.013 0.995889 1.01879 0.998418
0.97012 0.953669 1.0198 0.997501
1.01271 0.973517 1.04101 0.999285
1.0361 0.980202 1.0583 0.998792
0.813025 0.915761 0.931425 0.953177
0.779433 0.884435 0.926074 0.951629
0.795836 0.903829 0.932843 0.943906
1.0098 0.98895 1.02146 0.999627
0.950496 0.944863 1.00824 0.99774
0.771299 0.88407 0.920586 0.947701
0.871353 0.897547 1.00045 0.97038
0.847734 0.933185 0.965012 0.941367
0.790196 0.914457 0.91531 0.944068
0.729353 0.891418 0.887725 0.921676
0.991202 0.963694 1.02878 0.999767
0.799042 0.907202 0.925538 0.951637
0.762059 0.886709 0.913787 0.940509
0.936652 0.937391 1.00985 0.989463
0.654535 0.82345 0.865385 0.918515
0.789237 0.875266 0.95647 0.942749
0.916826 0.93245 1.01599 0.967768
1.00429 0.954439 1.05377 0.998536
0.776635 0.883744 0.925361 0.949684
0.765711 0.891832 0.920522 0.932711
0.57766 0.728454 0.858191 0.924031
0.723174 0.84037 0.915328 0.940146
0.883345 0.912088 1.00211 0.966448
0.913467 0.930913 0.994862 0.986326
1.02598 0.980894 1.04649 0.999501
1.02252 0.977471 1.04652 0.999585
1.0095 0.979627 1.03101 0.999492
1.01494 0.998541 1.0174 0.999032
1.03191 0.992561 1.04017 0.999487
1.01278 0.983289 1.0307 0.999319
1.00552 0.997144 1.00964 0.998776
1.01017 1 1.0114 0.998783
1.00952 0.999527 1.01216 0.997858
1.0222 1.00093 1.02513 0.99622
0.99673 1.00005 0.998883 0.997792
1.0052 1.00157 1.00774 0.99592
1.00535 1.00253 1.00783 0.995014
1.00812 1.01109 1.00191 0.995162
1.00957 1.0126 1.00108 0.99593
1.00527 1.00737 1.00243 0.995503
1.0007 1.00343 1.00136 0.995929
1.01151 1.01382 1.0011 0.996628
1.01775 1.02094 1.00048 0.996391
1.00441 1.00252 1.00464 0.997261
1.01303 1.01331 1.00274 0.996997
1.01371 1.01615 1.00117 0.996432
1.01126 1 1.01329 0.99799
1.00809 1.00138 1.009 0.997721
1.00954 1.00822 1.00383 0.997488
1.00197 1 1.00295 0.999018
1.00813 1 1.00983 0.998309
1.00907 1 1.01112 0.997973
1.00333 1 1.00481 0.998524
1.00021 1 1.00101 0.999203
0.999924 1 1 0.999924
0.999551 1 1.0002 0.999352
0.999949 1 1 0.999949
1 1 1 1
0.999961 1 1 0.999961
1 1 1 1
1 1 1 1
0.998597 1 1 0.998597
0.999399 1 1 0.999399
0.998679 1 1 0.998679
0.999993 1 1 0.999993
0.999477 1 1 0.999477
0.998843 1 1 0.998843
1 1 1 1
1 1 1 1
0.999569 1 1 0.999569
1 1 1 1
1 1 1 1
1 1 1 1
0.797453 0.908084 0.92392 0.950485
0.779627 0.886346 0.926418 0.949461
0.78924 0.900197 0.931998 0.940712
1.00573 1 1.00764 0.998096
1.00239 1 1.00441 0.997993
0.998351 1 1 0.998351
0.999163 1 1.00096 0.998209
0.998222 1 1 0.998222
1.00017 1 1.00198 0.998194
0.998249 1 1 0.998249
0.759724 0.893305 0.907815 0.936826
0.792534 0.918351 0.916576 0.941544
0.760009 0.884031 0.914322 0.940268
0.761888 0.925888 0.885854 0.928904
0.856765 0.924591 0.944287 0.981313
0.858282 0.902404 0.984734 0.96585
0.802246 0.891038 0.95165 0.946094
0.851415 0.917272 0.946768 0.980392
0.880947 0.907514 1.00827 0.962767
0.848804 0.930567 0.965042 0.945178
0.721999 0.885492 0.878335 0.928306
0.892715 0.92697 0.979367 0.983335
0.89528 0.917449 1.01384 0.962516
0.784555 0.881228 0.946407 0.940713
0.673191 0.836568 0.873482 0.921261
1.02466 1 1.02632 0.998385
1.00028 1 1.00221 0.998071
1.00267 1 1.00486 0.997823
0.998056 1 1 0.998056
0.95572 0.958112 0.999514 0.997988
1.00634 0.971856 1.03634 0.999175
1.00883 1 1.01075 0.998101
1.01567 0.996658 1.02082 0.998289
1.04316 0.991034 1.05384 0.998821
1.01275 0.998516 1.01586 0.99842
1.03847 0.980011 1.06095 0.998779
0.969168 0.953097 1.02097 0.995974
1.01129 0.96453 1.04907 0.999442
1.01218 0.983217 1.03058 0.998906
0.953779 0.927086 1.0336 0.995351
1.00506 0.955962 1.05211 0.999286
0.778398 0.88275 0.926884 0.951347
0.810613 0.913992 0.928967 0.954709
0.782967 0.88574 0.928453 0.952088
0.986806 0.958331 1.02991 0.999805
0.942545 0.941368 1.00732 0.993974
0.797188 0.904974 0.924823 0.952502
0.91825 0.936806 1.01815 0.962714
0.793384 0.883986 0.949493 0.945249
0.765524 0.889251 0.915187 0.940642
0.64882 0.80864 0.871437 0.920732
1.00518 0.956782 1.0519 0.998747
0.779303 0.88798 0.924121 0.949675
0.758977 0.885953 0.918634 0.932557
0.915601 0.931219 0.994199 0.988966
0.584566 0.745004 0.853861 0.918941
0.721984 0.830904 0.923915 0.94047
0.88029 0.908915 1.00556 0.96315
0.99313 0.961133 1.03668 0.996731
0.787595 0.905379 0.92448 0.940968
0.638938 0.776142 0.890877 0.924059
0.694194 0.819782 0.893293 0.947957
0.83491 0.883246 0.977364 0.967167
0.871761 0.906918 0.978764 0.982091
1.0303 0.982236 1.04937 0.99959
1.01269 0.977358 1.03667 0.999497
0.980203 0.975007 1.00606 0.999274
1.01747 0.980381 1.03845 0.999402
1.00325 0.989206 1.01533 0.99888
1.00305 1.0008 1.00458 0.997679
1.00699 1.00003 1.00936 0.997627
1.02046 1.00092 1.02354 0.996081
1.01047 1.00089 1.01445 0.995188
1.00673 1.00186 1.00894 0.995955
1.00612 1.00235 1.00889 0.994922
1.00173 1.00253 1.00448 0.99475
1.03043 1.03521 1 0.995386
1.01799 1.02183 1.00077 0.995482
1.0085 1.01126 1.00218 0.995103
1.00959 1.01328 1.00013 0.996234
1.00823 1.01154 1.00074 0.995994
1.0054 1.00717 1.00281 0.995446
1.00944 1.01165 1.00112 0.996702
1.01093 1.01328 1.00108 0.9966
1.01825 1.02141 1.00043 0.99648
1.00648 1.00091 1.00801 0.997572
1.00543 1.00346 1.00463 0.997345
1.01469 1.01474 1.00288 0.997078
1.00718 1 1.00847 0.998718
1.01014 1 1.01217 0.997997
1.00833 1.00226 1.00837 0.997716
0.999867 1 1 0.999867
1.00275 1 1.00374 0.999012
1.00717 1 1.00888 0.998307
1.00065 1 1.00146 0.999199
0.999913 1 1 0.999913
1 1 1 1
0.999942 1 1 0.999942
1 1 1 1
1 1 1 1
1.00744 1 1.00936 0.998094
1.00124 1 1.00282 0.998417
0.999248 1 1 0.999248
0.998837 1 1.00024 0.998593
0.999974 1 1 0.999974
0.999401 1 1 0.999401
0.998708 1 1 0.998708
1 1 1 1
0.999996 1 1 0.999996
0.999522 1 1 0.999522
1 1 1 1
1 1 1 1
1 1 1 1
0.769908 0.882789 0.920285 0.947675
0.794467 0.90479 0.922963 0.951359
0.780288 0.889367 0.924074 0.949439
1.00713 1 1.00904 0.998107
1.00469 1.00002 1.00668 0.998004
1.00039 1 1.00243 0.997968
1.00811 1 1.01012 0.998013
1.00775 1.00004 1.00975 0.997978
1.00053 1 1.00234 0.998193
0.998225 1 1 0.998225
0.999823 1 1.00163 0.998197
0.998262 1 1 0.998262
1.01525 1 1.01696 0.998322
0.750278 0.87645 0.917652 0.932861
0.759029 0.8907 0.909455 0.937014
0.79363 0.917903 0.916101 0.943795
0.723466 0.886633 0.878704 0.928606
0.848024 0.931122 0.967029 0.941808
0.846611 0.912937 0.94734 0.978898
0.886843 0.911681 1.00621 0.966754
0.883404 0.927863 0.971598 0.979915
0.902113 0.927969 1.0054 0.966917
0.799935 0.884867 0.95841 0.943246
0.674284 0.844499 0.867792 0.920086
0.898864 0.917374 0.997322 0.982454
0.886977 0.907725 1.00986 0.9676
0.70953 0.811461 0.923637 0.946676
0.616922 0.775971 0.860805 0.923591
1.02317 0.999681 1.02457 0.998956
1.02552 0.999788 1.02738 0.998399
1.00309 1 1.005 0.998099
0.969325 0.953233 1.02263 0.994374
1.01256 0.958208 1.05715 0.999603
1.01361 1 1.01521 0.998422
1.04367 0.979637 1.06667 0.998767
1.01511 0.987349 1.02924 0.998912
1.0113 0.963928 1.0499 0.999279
0.95679 0.934504 1.02869 0.995294
1.01428 0.989288 1.02594 0.999345
0.96747 0.9527 1.0195 0.99608
0.797022 0.90392 0.933962 0.944085
0.78366 0.886234 0.929037 0.951802
0.807656 0.91183 0.926274 0.956253
1.00638 0.964253 1.04481 0.998925
0.910349 0.927786 0.996711 0.984444
0.784742 0.892304 0.926076 0.949657
0.882762 0.913385 1.00252 0.964043
0.718267 0.81618 0.929906 0.94637
0.750461 0.880392 0.914172 0.932446
0.591787 0.761601 0.850378 0.913748
0.990389 0.959699 1.03509 0.996994
0.787364 0.901077 0.928635 0.940953
0.636873 0.776294 0.889205 0.922624
0.883732 0.918663 0.977944 0.983672
0.705687 0.825618 0.903705 0.945816
0.833928 0.893901 0.967288 0.964458
0.94649 0.945699 1.00577 0.995094
0.671538 0.794812 0.909482 0.928994
0.70441 0.82331 0.901827 0.948723
0.844881 0.914085 0.958095 0.964718
0.849392 0.907604 0.950524 0.984575
1.01229 0.975029 1.03873 0.999503
0.982598 0.971149 1.01255 0.999248
0.993365 0.989575 1.00542 0.99842
0.99984 0.979392 1.02192 0.998979
1.00225 1.00042 1.00406 0.997772
0.998252 1.00248 0.999119 0.996661
1.01854 1.00072 1.02196 0.99594
1.00924 1.00124 1.01287 0.995189
0.999415 1.00254 1.00137 0.995519
1.00623 1.002 1.00945 0.99483
1.00206 1.00359 1.0037 0.994788
1.02692 1.03144 1 0.995624
1.05542 1.05958 1 0.996071
1.04127 1.04598 1.00002 0.995482
1.03068 1.03542 1 0.995417
1.02221 1.02655 1 0.995774
1.01675 1.02032 1.00107 0.995425
1.00952 1.01209 1.00244 0.995045
1.01545 1.01913 1 0.996381
1.00793 1.01164 1.00002 0.996308
1.00663 1.01029 1.00032 0.996058
1.00341 1.00423 1.00208 0.997113
1.00703 1.00901 1.0013 0.996746
1.01083 1.0132 1.0011 0.996571
1.0098 1.00002 1.01155 0.998242
1.0079 1.00169 1.00864 0.997574
1.00643 1.00421 1.0048 0.997428
1.00053 1 1.00075 0.999778
1.00669 1 1.00799 0.998711
1.00933 1.00001 1.01133 0.998005
0.999982 1 1 0.999982
0.999947 1 1.00009 0.999852
1.00327 1 1.00427 0.999006
0.999902 1 1 0.999902
1 1 1 1
1 1 1 1
1.00696 1.0006 1.00841 0.997954
1.00549 1 1.00727 0.998239
1.00838 1 1.01033 0.998071
0.999822 1 1.00074 0.999084
1.00088 1 1.00247 0.998414
0.999942 1 1 0.999942
0.999253 1 1 0.999253
0.998612 1 1.00002 0.998588
1 1 1 1
0.999981 1 1 0.999981
0.999404 1 1 0.999404
1 1 1 1
0.999998 1 1 0.999998
1 1 1 1
0.781772 0.895372 0.924671 0.944255
0.773736 0.885882 0.921646 0.94766
0.795093 0.901128 0.926591 0.952233
0.999568 1.00125 1.00039 0.997935
1.00593 1 1.00783 0.998118
1.00343 1 1.00543 0.998017
1.00421 1 1.00623 0.997991
1.00041 1.00001 1.00241 0.997995
1.00446 1 1.00635 0.998121
1.01272 1.00024 1.01499 0.99753
1.01757 1 1.0195 0.998106
0.999765 1 1.00157 0.9982
0.998274 1 1 0.998274
1.0164 1 1.01812 0.998305
1.03144 1.0004 1.03256 0.998517
0.651907 0.784744 0.898559 0.92451
0.762841 0.88887 0.920288 0.93255
0.759829 0.890188 0.910797 0.937158
0.672459 0.840913 0.865475 0.923976
0.797009 0.883805 0.957218 0.942097
0.897372 0.919979 1.01332 0.962602
0.883477 0.921885 0.977252 0.980645
0.898659 0.918533 0.99375 0.984516
0.605303 0.769299 0.856608 0.918535
0.878431 0.908217 1.00353 0.963804
0.722008 0.827737 0.925473 0.94251
0.898527 0.927203 0.982751 0.986082
0.86275 0.905148 0.983609 0.969043
0.693299 0.817856 0.895571 0.94655
0.992167 1.00002 0.992616 0.99953
1.02283 1.00001 1.02388 0.998962
1.02568 1 1.02731 0.99841
0.957663 0.937414 1.0264 0.995321
1.01829 0.972666 1.04767 0.999273
1.0174 0.992519 1.02617 0.998919
1.01312 0.988957 1.0251 0.999344
0.963686 0.951519 1.01673 0.996126
0.988561 0.982997 1.00824 0.99744
0.707482 0.812292 0.934669 0.931848
0.793685 0.902797 0.929232 0.946093
0.785053 0.888326 0.928072 0.952237
0.991662 0.95943 1.03654 0.997164
0.874362 0.915289 0.970268 0.984558
0.785337 0.896901 0.930512 0.941
0.846333 0.88949 0.985843 0.965145
0.710664 0.841612 0.896596 0.941793
0.647298 0.788362 0.886807 0.925869
0.946111 0.940698 1.01065 0.99516
0.674706 0.795054 0.910279 0.932273
0.69901 0.82425 0.897876 0.944514
0.845784 0.909261 0.948258 0.980945
0.861196 0.926103 0.959731 0.968932
0.941725 0.957305 0.986009 0.997685
0.723776 0.834839 0.918547 0.943844
0.898388 0.967937 0.956082 0.970782
0.85075 0.92086 0.942075 0.98067
0.986122 0.968903 1.01856 0.999228
0.984578 0.989844 0.99617 0.998505
0.995243 1.00089 0.996896 0.997458
1.00241 1.00048 1.00407 0.997865
1.0009 1.0026 1.00168 0.996631
1.00111 1.00513 0.999428 0.996574
1.00823 1.00171 1.01137 0.995189
0.999258 1.00208 1.00167 0.995524
1.02906 1.03508 0.997645 0.99653
1.00236 1.00437 1.00319 0.994825
1.02543 1.02993 1 0.995634
1.05523 1.06037 0.998435 0.996711
1.05589 1.06007 0.999262 0.996793
1.0567 1.06096 1 0.995986
1.05617 1.06033 0.999957 0.99612
1.04314 1.04763 1 0.995711
1.03935 1.044 1 0.99555
1.02979 1.03449 1 0.995449
1.03123 1.03528 1 0.996085
1.02287 1.02705 1.00014 0.995798
1.01555 1.01877 1.00148 0.995368
1.01067 1.014 1 0.996717
1.01418 1.01787 1 0.996377
1.00608 1.00973 1 0.996382
1.00383 1.00083 1.00523 0.997775
1.00581 1.00638 1.00234 0.997107
1.00419 1.00597 1.00145 0.996792
1.00216 1 1.00257 0.999587
1.00812 1.00044 1.00945 0.99824
1.00858 1.00251 1.0085 0.997575
1 1 1 1
1.00118 1 1.00144 0.999741
1.00601 1 1.00732 0.998704
1 1 1 1
1.0002 1 1.00037 0.999836
1 1 1 1
1.0014 1.00177 1.00185 0.997785
1.00575 1.00036 1.00747 0.997932
1.00806 1 1.01 0.99808
1.00242 1 1.00351 0.998912
1.00655 1 1.00833 0.998236
1.0105 1 1.01248 0.998049
0.999896 1 1 0.999896
0.999576 1 1.00049 0.999089
1.00125 1 1.00284 0.99841
1 1 1 1
0.999952 1 1 0.999952
0.999258 1 1 0.999258
1 1 1 1
0.999987 1 1 0.999987
1 1 1 1
0.679575 0.798016 0.919569 0.926064
0.784777 0.898351 0.925106 0.944297
0.777766 0.889339 0.922854 0.947651
1.00227 1.00064 1.00374 0.997908
1.00716 1.0039 1.00575 0.997523
1.01092 1.00084 1.01238 0.997726
1.0051 1 1.00714 0.997969
1.00118 1.00084 1.00232 0.998022
1.00534 1 1.00709 0.99826
1.01689 1 1.01887 0.998049
1.01302 1.00063 1.01479 0.997629
1.01761 1.00163 1.01841 0.997596
0.982469 1.00146 0.982057 0.998966
1.01516 1 1.0169 0.998287
1.0269 1.00015 1.02829 0.998496
0.70162 0.821389 0.907174 0.941591
0.633475 0.767965 0.895193 0.921449
0.770905 0.895742 0.923029 0.932401
0.594154 0.762144 0.853567 0.913323
0.729318 0.835385 0.921965 0.946926
0.864869 0.901042 0.994133 0.965519
0.903617 0.922964 0.997261 0.981728
0.886035 0.919028 0.980176 0.983599
0.697774 0.813574 0.907677 0.9449
0.842626 0.895411 0.974909 0.965268
0.868549 0.923707 0.954418 0.985193
0.836825 0.920361 0.941918 0.965302
0.999454 1 1.00043 0.999023
0.993383 1.00005 0.993849 0.999478
1.02298 1 1.02404 0.998967
0.95759 0.948168 1.01381 0.99618
1.01147 0.987425 1.02502 0.999344
0.989881 0.984911 1.00768 0.99739
0.975099 0.989289 0.98925 0.996368
0.741126 0.849742 0.919036 0.949013
0.704939 0.809815 0.933756 0.932249
0.795722 0.90491 0.927527 0.948046
0.949455 0.947482 1.00677 0.995345
0.848616 0.907103 0.953267 0.981386
0.675918 0.795132 0.911719 0.932382
0.830962 0.911233 0.945044 0.964939
0.71421 0.82957 0.907355 0.948846
0.944013 0.960551 0.986305 0.99643
0.734293 0.844811 0.918077 0.946739
0.88892 0.965173 0.953742 0.965665
0.852008 0.922378 0.939328 0.983372
0.953893 0.981411 0.974387 0.997511
0.907105 0.977865 0.956265 0.970064
0.90225 0.968784 0.944369 0.986185
0.975429 0.988871 0.987816 0.998573
0.990486 1.00098 0.992066 0.997429
0.982364 1.00848 0.976756 0.997281
1.00247 1.00292 1.00295 0.996603
1.0005 1.0053 0.998648 0.996567
1.02464 1.04257 0.985508 0.997254
0.999135 1.00175 1.00186 0.99553
1.02731 1.0345 0.996532 0.996508
1.04337 1.06061 0.986386 0.99732
1.02476 1.02924 1 0.995644
1.05374 1.05979 0.997581 0.996702
1.04967 1.06095 0.992044 0.997303
1.05068 1.05757 0.996292 0.997184
1.05667 1.06128 0.998785 0.996868
1.05416 1.05775 0.999966 0.996642
1.05776 1.06195 1 0.996049
1.0568 1.06103 1 0.996009
1.05764 1.06181 0.9999 0.996169
1.0456 1.04987 1 0.995936
1.04491 1.04938 1 0.99574
1.03754 1.0421 1 0.995617
1.02714 1.03085 1 0.996406
1.03105 1.0351 1 0.996083
1.02342 1.02753 1.00017 0.995822
1.00062 1.0029 1.00028 0.997446
1.01223 1.01557 1 0.996714
1.01388 1.01757 1 0.996374
1.00215 1 1.00285 0.999302
1.00425 1.00136 1.00512 0.997775
1.00883 1.00874 1.003 0.9971
1 1 1 1
1.00263 1 1.00307 0.999561
1.00704 1.00063 1.00818 0.998237
0.999983 1 1 0.999983
1.00179 1 1.00206 0.999727
1 1 1 1
1.00042 1.00277 1 0.997651
1.00162 1.00093 1.00289 0.997804
1.0055 1 1.00759 0.997923
1.00365 1 1.00575 0.99791
1.0085 1 1.01044 0.998082
1.00551 1 1.0068 0.998718
1.00001 1 1.00018 0.999829
1.00162 1 1.00271 0.998913
1.00695 1 1.00873 0.998233
1 1 1 1
0.99991 1 1 0.99991
0.999331 1 1.00024 0.999094
1 1 1 1
0.999962 1 1 0.999962
1 1 1 1
0.728823 0.838165 0.918658 0.946539
0.681819 0.798645 0.920751 0.927199
0.785563 0.899669 0.924636 0.944337
1.00464 1.00001 1.00676 0.997882
1.01349 1.00031 1.01568 0.997537
1.00443 1.00282 1.00402 0.997595
1.00543 1.00746 1.00139 0.996608
1.01377 1.00206 1.01411 0.99761
1.01524 1 1.01728 0.997995
1.01094 1.00022 1.01302 0.997728
1.01904 1.00133 1.02004 0.997701
0.999731 1.00369 0.998691 0.997364
0.973935 1.00125 0.97419 0.998489
0.971636 1.00035 0.973548 0.997685
0.983798 1.00086 0.983935 0.998997
1.02184 1.00024 1.02315 0.998477
0.878614 0.954635 0.950226 0.968577
0.695052 0.815692 0.903383 0.943233
0.630007 0.765565 0.891802 0.922772
0.695655 0.819949 0.901713 0.94089
0.851773 0.905388 0.973923 0.965972
0.891156 0.915767 0.986807 0.986136
0.868546 0.922074 0.954318 0.987039
0.869021 0.930667 0.962622 0.970019
0.892693 0.961717 0.941262 0.986153
0.993314 1.00132 0.993777 0.998218
0.998554 1 0.999553 0.999
0.994065 1 0.994636 0.999426
0.992814 0.988608 1.00688 0.997389
0.9808 0.991768 0.992185 0.99673
0.886086 0.966003 0.947261 0.96834
0.744996 0.848201 0.924995 0.949545
0.701127 0.80541 0.933337 0.932697
0.947299 0.966288 0.98518 0.995096
0.859767 0.932511 0.939961 0.980882
0.728727 0.840693 0.916219 0.946081
0.880298 0.952763 0.952405 0.970115
0.960955 0.981445 0.981475 0.997603
0.916668 0.988274 0.955598 0.970642
0.899902 0.965103 0.948111 0.983474
0.965297 1.00317 0.965173 0.996969
0.934554 0.991996 0.951197 0.990431
0.989842 1.00294 0.989485 0.997426
0.979966 1.00823 0.974659 0.997234
0.993127 1.03897 0.958182 0.997591
0.999524 1.00486 0.998123 0.99656
1.02695 1.04394 0.986465 0.997223
1.03933 1.06808 0.975412 0.997615
1.02524 1.03373 0.99528 0.996486
1.0433 1.06078 0.986194 0.997295
1.03642 1.05979 0.980358 0.997544
1.0516 1.05859 0.996696 0.996693
1.04945 1.06094 0.991874 0.997281
1.04628 1.06106 0.988663 0.997384
1.04999 1.05759 0.995562 0.99724
1.04949 1.05558 0.997227 0.996995
1.05705 1.0621 0.998293 0.996944
1.05401 1.05759 0.999976 0.996634
1.05521 1.05901 1 0.996417
1.05495 1.05913 1 0.996052
1.05749 1.0617 1 0.996037
1.05679 1.061 1 0.996032
1.04185 1.04581 1 0.996212
1.04581 1.05007 1 0.995939
1.04695 1.0514 1 0.995768
1.00748 1.01032 1 0.997191
1.02564 1.02934 1 0.996407
1.03047 1.03452 1 0.996081
1.0003 1 1.00132 0.998983
1.00283 1.00483 1.00057 0.997447
1.01322 1.01656 1 0.996711
1 1 1 1
1.00177 1 1.0025 0.999276
1.00447 1.00212 1.00458 0.997774
1 1 1 1
1.0029 1 1.00337 0.999535
1 1 1 1
1.01155 1.01455 1.00029 0.996755
1.00101 1.00338 1 0.997636
1.00121 1.00128 1.00226 0.997673
1.00243 1 1.00461 0.997824
1.00479 1 1.00692 0.997885
1.00681 1 1.00837 0.998453
1.01005 1 1.01199 0.998083
1.00576 1 1.00705 0.998717
1.00119 1 1.00146 0.999735
1 1 1 1
0.999856 1 1.00001 0.999843
1.0008 1 1.00188 0.998915
1 1 1 1
0.999922 1 1 0.999922
1 1 1 1
0.907353 0.977586 0.954787 0.972108
0.733773 0.846392 0.914937 0.947542
0.682877 0.799562 0.923003 0.925309
1.01592 1 1.01862 0.997347
1.00233 1.00249 1.00218 0.997667
1.01154 1.00213 1.01189 0.997535
1.00651 1.00833 1.00149 0.996706
1.02152 1.02516 1.00016 0.996287
1.00072 1.00358 1 0.997143
1.02169 1.00135 1.02256 0.997804
1.00058 1.00446 0.99896 0.997179
0.980818 1.00227 0.980091 0.998472
0.995757 1.00273 0.995605 0.99743
0.970472 1.00345 0.969372 0.997693
0.993189 1.00152 0.994446 0.997225
0.973402 1.00082 0.974756 0.997794
0.98787 1.00029 0.988546 0.999031
0.904208 0.971639 0.943724 0.986093
0.888294 0.964095 0.951483 0.968359
0.704797 0.816515 0.91053 0.947994
0.855473 0.925277 0.958352 0.964738
0.879164 0.923829 0.963146 0.988066
0.893752 0.953756 0.946546 0.990007
0.974527 1.00377 0.973718 0.997075
0.99104 1.00051 0.992366 0.998151
0.997238 0.999691 0.998567 0.998978
0.982331 0.993088 0.99207 0.997074
0.924511 0.973169 0.96292 0.986583
0.900935 0.973334 0.951097 0.973211
0.734441 0.843263 0.921056 0.945601
0.959057 0.976912 0.983988 0.997698
0.905311 0.97147 0.9459 0.985197
0.917612 0.98599 0.958362 0.971085
0.959459 1.00125 0.961096 0.997047
0.93569 0.988246 0.956796 0.989572
0.96142 1.02479 0.940837 0.997153
0.980423 1.01872 0.966482 0.995787
0.97623 1.00798 0.971237 0.997181
0.990145 1.03665 0.957448 0.997587
1.00679 1.06773 0.945218 0.997574
1.02991 1.04593 0.987452 0.997192
1.03872 1.06768 0.975225 0.997593
1.03926 1.06597 0.977396 0.997495
1.04375 1.06121 0.986241 0.997269
1.03716 1.05937 0.981466 0.997525
1.0492 1.0678 0.985191 0.997348
1.04955 1.06115 0.99179 0.997259
1.04466 1.05876 0.98928 0.997377
1.04926 1.06048 0.992288 0.997106
1.04958 1.05784 0.994884 0.997297
1.04966 1.05565 0.997276 0.997041
1.05416 1.05835 0.999374 0.99666
1.05402 1.0576 0.999993 0.996625
1.05543 1.05924 1 0.996406
1.05601 1.05996 1 0.996278
1.04832 1.05235 1 0.996169
1.05516 1.05935 1 0.996042
1.05718 1.0614 1 0.996025
1.01914 1.02223 1 0.996982
1.04039 1.04434 1 0.996218
1.04601 1.05028 1 0.995942
0.99939 1.00039 1.00027 0.998725
1.00992 1.01276 1.00001 0.997189
1.02424 1.02794 1 0.996407
1 1 1 1
0.999907 1 1.00094 0.998966
1.00504 1.0068 1.00081 0.997448
1 1 1 1
1.00152 1 1.00227 0.999252
1 1 1 1
1.02482 1.02856 1 0.996362
1.0133 1.01644 1.00012 0.996788
1.00931 1.01157 1.00066 0.997105
1.00074 1.00312 1 0.997621
1.00085 1.00104 1.0022 0.997619
1.00451 1.00141 1.005 0.998108
1.0039 1 1.00607 0.997847
1.00735 1 1.0089 0.998455
1.00309 1 1.00348 0.999604
1.00641 1 1.0077 0.998716
1.00093 1 1.00119 0.999746
1 1 1 1
1 1 1 1
0.999858 1 1 0.999858
1 1 1 1
0.915159 0.972175 0.953768 0.986983
0.896622 0.976042 0.949301 0.967691
0.730703 0.839411 0.916446 0.94986
1.04087 1.04479 1.00007 0.996183
1.00912 1.00184 1.00983 0.997462
1.00769 1.0094 1.0015 0.996804
1.00108 1.00395 1 0.997146
1.02023 1.02362 1.00042 0.996267
1.00716 1.0103 0.999766 0.997123
1.00096 1.0042 0.999783 0.996993
0.983667 1.00237 0.982858 0.998454
0.993643 1.00312 0.993088 0.997442
0.964133 1.00246 0.964135 0.997544
1.00953 1.01591 0.996981 0.996737
0.99461 1.00724 0.99015 0.997285
0.99328 1.00213 0.993958 0.997198
0.975595 1.00134 0.976342 0.997901
0.970324 1.00613 0.966743 0.997593
0.89748 0.966972 0.942599 0.984655
0.885832 0.965401 0.947403 0.968521
0.890187 0.946966 0.951795 0.98765
0.977401 1.00491 0.97462 0.997958
0.990967 1.0002 0.992681 0.998074
0.977294 1.00747 0.974781 0.995147
0.909913 0.956985 0.962339 0.988023
0.888476 0.970678 0.945105 0.96848
0.958157 0.999009 0.961875 0.997122
0.943766 0.990337 0.964079 0.988482
0.965243 1.02649 0.94288 0.997295
0.9845 1.01883 0.970086 0.996105
0.991482 1.04592 0.950427 0.997393
1.05121 1.07585 0.979783 0.99726
0.986639 1.0337 0.956788 0.997583
1.0124 1.06922 0.949178 0.997556
1.03045 1.08006 0.95661 0.997347
1.03744 1.06681 0.974833 0.997571
1.03602 1.06401 0.976141 0.997491
1.04955 1.07556 0.978529 0.99723
1.03757 1.05876 0.982434 0.997505
1.04702 1.06616 0.984651 0.997361
1.05201 1.06669 0.989157 0.997055
1.04291 1.05639 0.989842 0.99737
1.04966 1.06086 0.992312 0.997104
1.05518 1.06209 0.996705 0.996784
1.04973 1.05563 0.997312 0.997087
1.05461 1.05875 0.999377 0.996706
1.05819 1.06203 1 0.99639
1.05564 1.05946 1 0.996395
1.05571 1.05967 1 0.996266
1.0505 1.05448 1 0.996228
1.02691 1.03014 1 0.996867
1.04812 1.05215 1 0.996177
1.05532 1.05952 1 0.996033
1.00128 1.0027 1 0.998578
1.01961 1.0227 1 0.996981
1.03914 1.04308 1 0.996223
1 1 1 1
0.999798 1.00099 1.0001 0.99871
1.01251 1.01537 1 0.997188
1 1 1 1
0.999403 1 1.00046 0.998948
1 1 1 1
1.0395 1.04356 1 0.996113
1.02638 1.03013 1 0.996357
1.02306 1.02646 1 0.996687
1.01549 1.01872 1.00001 0.996821
1.01015 1.01253 1.00056 0.997093
1.00618 1.00605 1.00237 0.997758
1.00032 1.0008 1.00196 0.997565
1.00464 1.00077 1.00577 0.99811
1.00226 1 1.00284 0.999423
1.00719 1 1.00874 0.998457
1.00219 1 1.00258 0.999616
1 1 1 1
1.00032 1 1.00057 0.999757
1 1 1 1
1 1 1 1
0.972501 1.01057 0.965018 0.997218
0.909655 0.970233 0.952645 0.984169
0.895908 0.968974 0.950777 0.972462
1.03142 1.03483 1.00001 0.996687
1.05063 1.05461 0.999877 0.996348
1.03888 1.04265 1.00012 0.996264
1.00187 1.00474 1 0.997148
1.01873 1.02182 1.00073 0.996246
1.00935 1.01341 0.998886 0.997108
1.03108 1.03837 0.99629 0.996677
0.99301 1.00431 0.991269 0.997455
0.960959 1.00189 0.961652 0.997395
1.01059 1.01811 0.995758 0.996847
1.0246 1.04099 0.987608 0.996603
0.997293 1.02705 0.973488 0.997474
0.999553 1.00946 0.992932 0.997231
0.994209 1.00267 0.994381 0.997169
0.974174 1.00766 0.96881 0.997892
0.90255 0.970863 0.945579 0.98314
0.977649 1.00481 0.974068 0.998871
1.03064 1.05892 0.975393 0.997848
0.975387 1.0062 0.973964 0.995288
0.913051 0.967232 0.957703 0.985674
0.968126 1.02858 0.943652 0.997428
0.988586 1.01928 0.973353 0.99644
0.986911 1.04642 0.945435 0.997563
1.04973 1.07611 0.978144 0.997282
1.04601 1.0884 0.96368 0.997273
1.08576 1.11154 0.979343 0.997418
1.01791 1.07155 0.952279 0.997539
1.03664 1.08218 0.960467 0.997346
1.05274 1.08532 0.972761 0.997139
1.03298 1.06219 0.974946 0.997488
1.04937 1.07469 0.979156 0.99723
1.05261 1.0725 0.984384 0.997021
1.04493 1.06455 0.984149 0.997375
1.05268 1.06733 0.989191 0.997052
1.0555 1.06619 0.993159 0.996795
1.05006 1.06124 0.992337 0.997101
1.05579 1.06268 0.996726 0.996782
1.06128 1.06537 0.999709 0.996448
1.05504 1.05914 0.999379 0.996752
1.05777 1.06159 1 0.996404
1.05434 1.05831 1 0.996241
1.05542 1.05938 1 0.996253
1.05044 1.05441 1 0.996231
1.02856 1.03185 1 0.996813
1.00439 1.00586 1 0.998539
1.02627 1.02949 1 0.996867
1.04802 1.05203 1 0.996184
1 1 1 1
1.00207 1.00351 1 0.998566
1.01975 1.02284 1 0.996981
1 1 1 1
1.00004 1.00135 1 0.998696
1 1 1 1
1.04822 1.05228 1 0.996138
1.03905 1.04311 1 0.996113
1.03492 1.03866 1 0.996399
1.0271 1.03086 1 0.99635
1.0231 1.0265 1 0.996692
1.01141 1.0136 1.00037 0.997456
1.01038 1.01287 1.00046 0.997082
1.00464 1.00423 1.00266 0.99776
1.0005 1 1.00135 0.999161
1.00544 1.00017 1.00717 0.998113
1.00246 1 1.00302 0.999441
1 1 1 1
1.00182 1 1.00219 0.999629
1 1 1 1
1 1 1 1
1.00171 1.04584 0.959832 0.997884
0.969631 1.00952 0.964081 0.996272
0.911638 0.972193 0.952086 0.984904
1.04575 1.05039 0.999009 0.996571
1.0325 1.03574 0.999975 0.996896
1.06377 1.06868 0.99893 0.996469
1.05094 1.05514 0.999695 0.99633
1.03703 1.04069 1.00014 0.996346
1.05474 1.0685 0.990626 0.996468
1.0115 1.01655 0.997929 0.997093
1.03094 1.03771 0.996857 0.996615
1.04564 1.07661 0.974396 0.996763
1.00916 1.0201 0.992294 0.996957
1.02559 1.04172 0.987941 0.99653
0.998214 1.0303 0.971275 0.997513
1.00161 1.00978 0.994716 0.997174
0.978763 1.00928 0.971547 0.998161
1.07251 1.10244 0.975337 0.997452
1.03501 1.05957 0.978906 0.997873
0.974123 1.00502 0.973704 0.995429
0.983252 1.04622 0.941952 0.99773
1.04674 1.07541 0.975963 0.997306
1.04076 1.08628 0.960695 0.997297
1.08926 1.11513 0.97933 0.99741
1.07069 1.10018 0.975838 0.997296
1.04253 1.0839 0.964397 0.997346
1.05344 1.08452 0.97412 0.99715
1.05331 1.07714 0.980757 0.997056
1.04918 1.07379 0.979795 0.99723
1.05284 1.07246 0.984662 0.997002
1.05502 1.06873 0.990353 0.996784
1.05335 1.06797 0.989229 0.997048
1.05597 1.06666 0.993163 0.996791
1.06386 1.06915 0.998565 0.996489
1.05639 1.06327 0.996746 0.99678
1.0612 1.0653 0.999702 0.99645
1.0594 1.06341 1 0.996234
1.05738 1.06118 1 0.996419
1.05413 1.0581 1 0.996247
1.02926 1.03261 1 0.996753
1.05034 1.05431 1 0.996234
1.029 1.03229 1 0.996812
1.00617 1.00737 1 0.998808
0.999516 1 1 0.999516
1.00503 1.00639 1 0.998652
1.02555 1.02877 1 0.996866
1 1 1 1
1.00315 1.00461 1 0.998553
1 1 1 1
1.06803 1.07287 0.998911 0.996573
1.05633 1.06023 1 0.996322
1.04891 1.05296 1 0.996152
1.0422 1.04608 1 0.996289
1.03919 1.04324 1 0.996114
1.03582 1.03957 1 0.996394
1.01582 1.01868 1 0.997193
1.02375 1.02715 1 0.996697
1.00901 1.01104 1.00054 0.997458
0.999233 1.00026 1.00012 0.998853
1.00299 1.00241 1.00282 0.997762
1.0009 1 1.00172 0.99918
1 1 1 1
1.00226 1 1.00281 0.999459
1 1 1 1
1 1 1 1
1.0609 1.09868 0.968332 0.997198
1.0081 1.05444 0.958047 0.997917
0.966632 1.00962 0.961902 0.995345
1.05929 1.06904 0.994355 0.996508
1.04164 1.04641 0.998828 0.996617
1.03335 1.03637 0.999977 0.997104
1.0623 1.06706 0.99906 0.996483
1.05125 1.05566 0.999508 0.996312
1.06136 1.0888 0.977982 0.996743
1.05108 1.0652 0.990279 0.996427
1.03089 1.03699 0.997555 0.996552
1.04293 1.07364 0.974557 0.996761
1.03007 1.0452 0.989035 0.996457
1.00342 1.0385 0.96858 0.997561
1.06913 1.09404 0.979785 0.9974
1.07496 1.10483 0.975418 0.99749
1.0392 1.06062 0.981873 0.997899
1.03676 1.08534 0.957815 0.997317
1.09393 1.11943 0.979766 0.997402
1.07116 1.10151 0.975075 0.997301
1.05988 1.07859 0.98545 0.997165
1.05416 1.08367 0.975541 0.99716
1.0538 1.07698 0.981379 0.997041
1.05684 1.07087 0.99004 0.996824
1.05311 1.07246 0.984932 0.996982
1.05562 1.06933 0.990364 0.996782
1.06504 1.07274 0.996291 0.996512
1.05646 1.06715 0.993169 0.996786
1.06356 1.06885 0.998551 0.996489
1.06287 1.0669 1 0.996219
1.06116 1.06526 0.999696 0.996452
1.05914 1.06314 1 0.996239
1.0305 1.03394 1 0.996671
1.0539 1.05786 1 0.996254
1.03033 1.03369 1 0.996754
1.00552 1.0067 1 0.998824
1.02951 1.0328 1 0.996812
1.00602 1.00723 1 0.998802
0.999544 1 1 0.999544
0.999769 1 1 0.999769
1.00571 1.00694 1 0.998776
1 1 1 1
1.06064 1.06955 0.995064 0.996588
1.06087 1.06489 0.999821 0.996408
1.06658 1.07167 0.998546 0.996702
1.05224 1.05618 1 0.996269
1.05836 1.06228 1 0.99631
1.04957 1.05361 1 0.996166
1.04276 1.04666 1 0.996279
1.02261 1.0257 1 0.996986
1.03655 1.04031 1 0.996389
1.01529 1.01815 1 0.997193
1.0015 1.00287 1 0.998636
1.0067 1.00873 1.00052 0.99746
0.999618 1.00025 1.0005 0.998872
1 1 1 1
1.0014 1 1.0022 0.9992
1 1 1 1
1 1 1 1
1.06047 1.08845 0.977139 0.997085
1.05516 1.0924 0.968625 0.997196
1.01244 1.05963 0.957434 0.997943
1.05927 1.07782 0.986066 0.996669
1.05652 1.06639 0.994221 0.996506
1.03772 1.04257 0.998684 0.996666
1.06068 1.06528 0.999178 0.996498
1.05976 1.08671 0.978412 0.996718
1.04702 1.06151 0.98993 0.996387
1.03499 1.06492 0.975054 0.996759
1.06368 1.0812 0.986527 0.997229
1.06754 1.09214 0.980064 0.99736
1.07667 1.10666 0.975314 0.997527
1.05862 1.07267 0.989802 0.997068
1.07119 1.10252 0.974206 0.997307
1.05971 1.07851 0.985371 0.997151
1.05857 1.0715 0.990979 0.996933
1.05432 1.07678 0.982065 0.997027
1.05682 1.07089 0.990003 0.996827
1.06565 1.07455 0.995164 0.996535
1.05618 1.06988 0.99038 0.996781
1.06435 1.07202 0.996325 0.996512
1.06406 1.0681 1 0.996216
1.06316 1.06847 0.998535 0.996489
1.06328 1.06732 1 0.996222
1.03075 1.03427 1 0.996593
1.05883 1.06282 1 0.996244
1.03161 1.03505 1 0.996672
1.00419 1.0054 1 0.998796
1.03145 1.03481 1 0.996754
1.00515 1.00635 1 0.99881
0.999548 1 1 0.999548
1.00585 1.00706 1 0.998799
0.999556 1 1 0.999556
1 1 1 1
1.05804 1.06994 0.99236 0.996496
1.06243 1.06766 0.998699 0.9964
1.06226 1.07098 0.995263 0.996585
1.05881 1.06272 1 0.996321
1.06193 1.06619 0.999551 0.996453
1.06531 1.07065 0.998176 0.99683
1.03162 1.03489 1 0.996841
1.05209 1.05604 1 0.996258
1.06051 1.06445 1 0.996298
1.04363 1.04754 1 0.996269
1.02336 1.02645 1 0.996987
1.00556 1.00701 1 0.998553
1.01472 1.01757 1 0.997195
1.00062 1.00197 1 0.998652
1 1 1 1
0.999727 1 1.00084 0.99889
1 1 1 1
1 1 1 1
1.0588 1.07726 0.985855 0.996966
1.06078 1.08913 0.97684 0.997066
1.05262 1.08978 0.968622 0.997195
1.059 1.07753 0.986073 0.996685
1.05344 1.06342 0.99409 0.996504
1.05961 1.08609 0.978852 0.996694
1.06054 1.07424 0.990145 0.997067
1.06367 1.0812 0.986524 0.997224
1.06595 1.09031 0.980283 0.997319
1.0591 1.07285 0.990069 0.997089
1.05738 1.06854 0.992647 0.996888
1.05951 1.07845 0.985254 0.997137
1.05894 1.07149 0.991372 0.996893
1.06567 1.07447 0.995171 0.996624
1.05684 1.07095 0.989965 0.996829
1.06522 1.07415 0.995137 0.996537
1.06396 1.06807 0.999933 0.99622
1.06378 1.07142 0.996346 0.996512
1.0655 1.06957 0.99998 0.996218
1.02913 1.0327 1 0.99655
1.06375 1.06778 1 0.996225
1.03146 1.03499 1 0.996595
1.00244 1.0037 1 0.998741
1.03277 1.03622 1 0.996674
1.0037 1.00493 1 0.998777
0.999523 1 1 0.999523
1.00478 1.00598 1 0.998801
0.99957 1 1 0.99957
0.999562 1 1 0.999562
1.05905 1.07159 0.991511 0.996756
1.06342 1.0701 0.997407 0.996343
1.05785 1.07084 0.991319 0.996523
1.06329 1.06724 1 0.996301
1.06211 1.0671 0.998936 0.996386
1.06388 1.07239 0.99547 0.996583
1.034 1.03737 1 0.996749
1.05873 1.06266 1 0.996309
1.06288 1.06736 0.999301 0.996498
1.00689 1.00835 1 0.998549
1.03106 1.03433 1 0.996843
1.05204 1.056 1 0.996247
1.02342 1.02652 1 0.996988
1.00427 1.00572 1 0.998565
1 1 1 1
0.999845 1.00118 1 0.998668
1 1 1 1
1 1 1 1
1.0577 1.07141 0.990209 0.996959
1.0592 1.07746 0.98605 0.996956
1.06026 1.08888 0.976602 0.997046
1.05872 1.07726 0.986041 0.996702
1.05802 1.06713 0.994605 0.996847
1.06057 1.07434 0.990075 0.997078
1.06374 1.0812 0.986591 0.997218
1.05958 1.07301 0.990351 0.997109
1.05755 1.06892 0.992444 0.996898
1.06573 1.07307 0.996546 0.996606
1.05931 1.07147 0.991773 0.996854
1.0663 1.07446 0.995818 0.996571
1.06274 1.0675 0.999244 0.996292
1.06479 1.07373 0.995118 0.996539
1.06485 1.06902 0.999875 0.996222
1.02612 1.0297 1 0.996521
1.06673 1.0708 0.999976 0.996219
1.02889 1.03245 1 0.996551
1.00024 1.0018 1 0.998447
1.03219 1.03572 1 0.996597
1.00173 1.00313 1 0.998608
1 1 1 1
1.00321 1.00446 1 0.99876
0.999551 1 1 0.999551
0.999585 1 1 0.999585
1.05797 1.06825 0.993508 0.996853
1.0633 1.07103 0.99629 0.996479
1.05944 1.07116 0.992285 0.996748
1.06457 1.06877 0.999866 0.996206
1.06274 1.06976 0.997078 0.996348
1.0577 1.07177 0.990291 0.996549
1.03337 1.03688 1 0.996606
1.06309 1.06709 0.999954 0.996301
1.06178 1.06656 0.999137 0.996372
1.00538 1.00683 1 0.99856
1.033 1.03641 1 0.996716
1.05844 1.06237 1 0.996296
1 1 1 1
1.00679 1.00824 1 0.998559
1.03052 1.03378 1 0.996844
1.00333 1.00476 1 0.998578
1 1 1 1
1 1 1 1
1.05634 1.06514 0.994868 0.996855
1.05812 1.07152 0.9905 0.996965
1.05954 1.07766 0.986196 0.996947
1.06521 1.07146 0.997612 0.996546
1.05745 1.06696 0.994209 0.996858
1.06061 1.07446 0.989992 0.997089
1.05771 1.06931 0.992213 0.996908
1.06541 1.0729 0.996402 0.996607
1.06135 1.06586 0.99943 0.996334
1.06686 1.07437 0.996474 0.996518
1.06308 1.06753 0.999556 0.996271
1.02374 1.02736 1 0.996475
1.06584 1.07009 0.999802 0.996224
1.02566 1.02924 1 0.996522
0.999021 1.0006 1 0.998421
1.02885 1.03241 1 0.996552
0.999844 1.0014 1 0.998445
1 1 1 1
1.00099 1.00254 1 0.998453
0.999752 1 1 0.999752
0.999576 1 1 0.999576
1.05531 1.06412 0.994883 0.996814
1.06465 1.07099 0.99752 0.996556
1.05767 1.06777 0.993663 0.99686
1.06451 1.06858 1 0.996196
1.06426 1.07181 0.996477 0.996465
1.05978 1.07069 0.993052 0.996739
1.03051 1.0341 1 0.996529
1.06404 1.06815 0.99994 0.996208
1.0621 1.06945 0.996765 0.996352
1.00296 1.00443 1 0.998537
1.0328 1.03633 1 0.996595
1.06289 1.06692 0.999921 0.996302
1 1 1 1
1.00596 1.0074 1 0.998569
1.03225 1.03568 1 0.996683
1 1 1 1
1.00663 1.00807 1 0.99857
1 1 1 1
1.06427 1.07034 0.997727 0.996588
1.05597 1.06482 0.994833 0.996841
1.05849 1.07155 0.990815 0.996972
1.06066 1.06505 0.999538 0.99633
1.06452 1.07115 0.997241 0.996567
1.05687 1.06678 0.993823 0.99687
1.06507 1.07272 0.996248 0.996608
1.0611 1.06571 0.99933 0.996334
1.02252 1.02614 1 0.996476
1.06348 1.06763 0.99986 0.996251
1.02368 1.02729 1 0.996485
0.998555 1.00017 1 0.998388
1.02507 1.02864 1 0.996524
0.998808 1.00039 1 0.998419
1 1 1 1
0.999359 1.00092 1 0.998443
1 1 1 1
0.999548 1 1 0.999548
1.06494 1.07087 0.997892 0.996564
1.05464 1.06407 0.994279 0.996833
1.06302 1.06702 1 0.996248
1.06498 1.07135 0.99749 0.996556
1.0574 1.06734 0.993803 0.996868
1.0273 1.03086 1 0.996546
1.06373 1.0678 1 0.996193
1.0652 1.07257 0.996665 0.99645
1.00069 1.00221 1 0.998483
1.03052 1.03409 1 0.996542
1.06338 1.06743 1 0.996209
1 1 1 1
1.00365 1.00511 1 0.998542
1.0323 1.03584 1 0.996583
1 1 1 1
1.00651 1.00794 1 0.998578
1 1 1 1
1.0608 1.06508 0.999629 0.996351
1.06413 1.0701 0.997835 0.996576
1.05562 1.06451 0.994806 0.996827
1.02214 1.02573 1 0.996493
1.0604 1.06487 0.999463 0.99633
1.06379 1.0708 0.996856 0.996587
1.06086 1.06556 0.999253 0.996334
1.02267 1.02629 1 0.996474
0.998389 1.00001 1 0.998376
1.02358 1.02718 1 0.996495
0.998453 1.00007 1 0.998386
1 1 1 1
0.998614 1.0002 1 0.998417
1 1 1 1
1 1 1 1
1.0621 1.06607 1 0.996278
1.06443 1.0707 0.99752 0.996612
1.05398 1.06405 0.993666 0.996852
1.02476 1.0283 1 0.996559
1.06271 1.06672 1 0.996245
1.06531 1.07172 0.997459 0.996555
0.999097 1.00066 1 0.998439
1.02728 1.03084 1 0.996544
1.06291 1.06697 1 0.99619
1 1 1 1
1.0013 1.00282 1 0.998486
1.03062 1.03418 1 0.996555
1 1 1 1
1.00428 1.00574 1 0.998548
1 1 1 1
1.02279 1.02634 1 0.996538
1.06049 1.06489 0.999539 0.996335
1.06399 1.06989 0.997916 0.996565
0.998403 1 1 0.998403
1.02232 1.02592 1 0.99649
1.06015 1.0647 0.999394 0.996331
1.0228 1.02642 1 0.996471
0.998377 1 1 0.998377
1 1 1 1
0.998388 1 1 0.998384
1 1 1 1
1 1 1 1
1.02349 1.02702 1 0.996559
1.06163 1.06576 0.999809 0.996307
1.06394 1.07051 0.997192 0.996661
0.998746 1.00005 1 0.998698
1.02508 1.02862 1 0.996558
1.06249 1.0665 1 0.996242
1 1 1 1
0.999567 1.00113 1 0.99844
1.02745 1.03102 1 0.996541
1 1 1 1
1.00187 1.00338 1 0.998489
1 1 1 1
0.998388 1 1 0.998388
1.02295 1.02651 1 0.996525
1.06022 1.0647 0.999466 0.996319
1 1 1 1
0.998402 1 1 0.998402
1.0225 1.0261 1 0.996487
0.998376 1 1 0.998376
1 1 1 1
1 1 1 1
0.99867 1 1 0.99867
1.02382 1.02735 1 0.99656
1.06114 1.06548 0.999585 0.996335
1 1 1 1
0.998644 1.00022 1 0.998427
1.02523 1.02877 1 0.996556
1 1 1 1
0.999908 1.00147 1 0.998441
1 1 1 1
0.999522 1 1 0.999522
0.998544 1 1 0.998544
1.02309 1.02667 1 0.996512
1 1 1 1
0.998403 1 1 0.998403
1 1 1 1
0.999533 1 1 0.999533
0.998552 1 1 0.998552
1.02412 1.02765 1 0.99656
0.999761 1 1 0.999761
0.998897 1.00047 1 0.998429
1 1 1 1
1 1 1 1
0.998425 1 1 0.998425
1 1 1 1
0.999766 1 1 0.999766
0.998466 1.00003 1 0.998433
1 1 1 1
1 1 1 1
1 1 1 1

VECTORS lamdaE float
1.00199 1 0.993046
1.00155 1.00077 0.996509
1.00147 1.00021 0.993407
1.00194 1.0001 0.992969
1.00205 0.999915 0.993051
1.00195 1.00024 0.992868
1.00315 1.00057 0.990041
1.0016 1.00079 0.996443
1.00135 1.00006 0.99712
1.00085 1.00087 0.997139
1.00134 1.00123 0.992606
1.00314 1.00121 0.988252
1.00142 0.999983 0.993632
1.00119 1.00002 0.993809
1.00099 1.00043 0.993742
1.00157 1.00007 0.993363
1.00136 1.0006 0.993199
1.00161 0.999967 0.993429
1.00339 1.00044 0.98986
1.00143 1.00002 0.996736
1.00184 1.00015 0.99302
1.00204 0.999979 0.99299
1.00318 1.00021 0.990377
1.00324 1.00029 0.990197
1.00195 1.00053 0.992599
1.00307 1.00104 0.989679
1.00528 1.0012 0.985469
1.00162 1.0008 0.996374
1.0016 0.999941 0.995189
1.00123 1.00057 0.995165
1.00152 1.00102 0.996373
1.00308 1.00134 0.98826
1.00187 0.999752 0.99318
1.0017 1.00003 0.993277
1.00355 1.00015 0.990478
1.00029 1.0014 0.997332
1.0034 1.00073 0.990248
1.0029 1.00207 0.987822
1.00508 1.00169 0.984609
1.00046 1.00008 0.99758
1.00147 0.999987 0.996706
1.00144 1.00001 0.9952
1.00135 0.999964 0.996794
1.00102 1.00005 0.993991
1.00315 0.999917 0.989719
1.00137 0.99994 0.997056
1.00353 1.00014 0.990558
1.00122 0.999995 0.993758
1.00119 1.00001 0.993794
1.00082 1.00096 0.993511
1.00361 1.00031 0.989695
1.00122 1.00004 0.995388
1.00146 1.00016 0.99342
1.00137 1.00098 0.992878
1.00165 0.999949 0.993377
1.00337 1.00017 0.990172
1.00334 1.00086 0.989503
1.00344 1.00021 0.99001
1.00529 1.00117 0.985534
1.00132 1 0.996794
1.00171 1.00009 0.993266
1.00282 0.999986 0.991602
1.0031 1.00019 0.990533
1.00326 1.0002 0.990268
1.00527 1.00009 0.986634
1.00528 1.00039 0.986221
1.00176 1.0007 0.992339
1.00297 1.00195 0.989029
1.00531 1.00176 0.984851
1.00529 0.999943 0.985989
1.00194 0.999951 0.996586
1.00138 1.00089 0.996603
1.00164 1.0005 0.996544
1.00305 1.00145 0.988269
1.00194 0.999866 0.996526
1.00182 1.00011 0.996608
1.00341 1.00009 0.988982
1.00057 1.00114 0.995376
1.00317 1.00069 0.988748
1.00276 1.00226 0.988967
1.00519 1.00153 0.984605
1.00077 1.00043 0.997187
1.00072 1.00246 0.991229
1.00356 1.00006 0.988851
1.00347 1.00015 0.988892
1.00532 1.00044 0.985603
1.00201 1.00285 0.990565
1.0053 1.00115 0.984876
1.00418 1.00286 0.984879
1.00537 1.00153 0.984194
1.00024 0.999375 0.997972
1.0003 0.999841 0.997745
1.00178 0.999968 0.99653
1.00154 0.999986 0.996666
1.0014 0.999971 0.996784
1.0013 1.00001 0.995331
1.00319 0.999914 0.990434
1.00159 0.999941 0.995134
1.00341 1.00016 0.98985
1.00135 0.999981 0.996816
1.00295 0.999795 0.990102
1.00342 1.00007 0.990804
1.00519 0.999009 0.98737
1.00353 1.0001 0.990522
1.00523 0.999402 0.986895
1.00137 1 0.993716
1.00108 1.00016 0.993825
1.00078 1.00141 0.993143
1.00127 0.999907 0.993759
1.00354 1.00016 0.989967
1.00364 1.00015 0.989831
1.00359 1.00069 0.989338
1.0053 1.00114 0.985596
1.00137 0.999981 0.996806
1.00132 1.00011 0.993654
1.00302 0.999934 0.990433
1.00327 1.00016 0.990325
1.00156 1.00123 0.994268
1.00327 1.00173 0.989205
1.00344 1.00015 0.990072
1.00526 0.999885 0.986878
1.0053 1.00175 0.98494
1.00529 1.00059 0.986073
1.00528 0.999945 0.986019
1.00291 0.999839 0.990147
1.00298 1.00006 0.990812
1.00501 0.998826 0.988419
1.0052 0.999427 0.9875
1.00529 0.999943 0.986706
1.00535 0.997752 0.988406
1.00092 1.00107 0.996882
1.00529 0.999054 0.986877
1.00252 1.00301 0.987421
1.00524 1.00219 0.983835
1.00529 1.00091 0.985087
1.00526 0.997408 0.988341
1.00132 1.00316 0.989421
1.00248 1.00425 0.98648
1.00197 0.99988 0.996545
1.00181 1.00017 0.996596
1.00343 1.00007 0.988959
1.00084 1.00078 0.997065
1.00231 1.00259 0.988179
1.0032 1.00063 0.988751
1.00531 1.00138 0.984596
1.00061 1.00047 0.997338
1.00066 1.00258 0.991246
1.00357 1.0001 0.989661
1.00351 1.00022 0.989641
1.00532 1.00046 0.985571
1.00155 1.00299 0.989177
1.00531 1.00114 0.984852
1.00444 1.00248 0.984851
1.00536 1.0014 0.984401
1.00112 1.00273 0.990199
1.00039 1.00215 0.992194
1.00219 1.00408 0.987673
1.00532 1.00007 0.986024
1.00533 1.00079 0.98522
1.00531 0.998817 0.987177
1.00338 1.00346 0.985573
1.00532 1.00026 0.985729
1.0053 1.0024 0.983603
1.00532 0.999993 0.985567
1.00013 0.998875 0.998303
1.00015 0.999306 0.998113
1.00022 0.999723 0.997903
1.00099 1.003 0.99023
1.00053 1.00085 0.997216
1.00192 0.999907 0.996512
1.00163 0.999991 0.996581
1.00324 1.00021 0.989183
1.00304 0.999927 0.989794
1.00139 0.99997 0.996762
1.00133 0.99997 0.996811
1.00294 0.99981 0.990091
1.0033 1.00006 0.990101
1.00516 0.999022 0.987383
1.00338 1.00016 0.989007
1.00523 0.999416 0.986873
1.00287 0.999795 0.990207
1.00511 0.998912 0.987578
1.00521 0.999161 0.987176
1.00531 0.99576 0.990649
1.00529 0.999719 0.98647
1.00533 0.996485 0.989786
1.00134 0.99998 0.996806
1.0009 1.00015 0.99404
1.00305 0.999914 0.989426
1.00345 1.00015 0.990114
1.00074 1.00193 0.996738
1.00357 1.0013 0.989391
1.00363 1.00012 0.989879
1.00526 0.999672 0.987123
1.0053 1.00077 0.98592
1.00529 1.00172 0.985029
1.00528 0.999947 0.986048
1.00288 0.999835 0.990152
1.00315 1.00007 0.990608
1.00505 0.998775 0.988177
1.0052 0.999641 0.987235
1.00108 1.00114 0.996727
1.00263 1.00276 0.988494
1.00506 1.00246 0.984188
1.0053 1 0.986665
1.00536 0.997345 0.988824
1.0053 1.00081 0.985158
1.00528 0.999226 0.986797
1.00526 0.997465 0.988346
1.00137 1.00309 0.989395
1.00261 1.00418 0.986426
1.00502 0.999008 0.98765
1.0051 0.99912 0.987997
1.00531 0.996419 0.989838
1.00535 0.996614 0.989624
1.00531 0.998142 0.987836
1.00527 0.995454 0.99068
1.00175 1.00328 0.988398
1.00525 0.99628 0.989577
1.00459 1.00309 0.984149
1.0053 1.00187 0.983925
1.0053 0.999115 0.986772
1.00526 0.99594 0.989961
1.00333 1.00411 0.985064
1.00216 1.00401 0.98763
1.00393 1.00326 0.985387
1.00343 1.0001 0.988947
1.00038 1.0003 0.997502
1.00055 1.0026 0.991266
1.00335 1.0002 0.988934
1.00532 1.00048 0.985539
1.00151 1.0031 0.989056
1.00464 1.00221 0.984829
1.00533 1.00114 0.984824
1.00537 1.00124 0.984607
1.00105 1.00283 0.990232
1.00023 1.00222 0.992197
1.00197 1.00407 0.987662
1.00531 1.0001 0.985992
1.00533 1.0008 0.985194
1.00531 0.998817 0.987158
1.00357 1.00324 0.985566
1.00532 1.00036 0.985631
1.00536 1.00237 0.983537
1.00533 0.999675 0.985813
1.00019 1.00151 0.993012
1.00303 1.00373 0.986491
1.00138 1.00454 0.988298
1.0031 1.00138 0.988008
1.0053 0.998004 0.988087
1.00531 0.999635 0.986315
1.00528 0.996538 0.989272
1.00489 1.00274 0.983823
1.00526 0.998213 0.987727
1.00534 1.00136 0.984606
1.00538 0.998583 0.986968
1.00013 1.00319 0.991536
1.00029 1.00017 0.994233
1.00012 0.998306 0.998524
1.00007 0.998776 0.99839
1.00006 0.99923 0.998231
1.00063 1.00272 0.991062
1.00036 1.00046 0.997472
1.00107 1.0029 0.990162
1.00068 1.00088 0.997102
1.00336 1.00019 0.989003
1.00316 1.00007 0.98946
1.00522 0.999428 0.986857
1.00513 0.999041 0.987393
1.00295 0.999829 0.990088
1.00138 0.999957 0.996807
1.0029 0.999786 0.990209
1.0051 0.998925 0.987587
1.00519 0.999182 0.987174
1.00532 0.995726 0.990652
1.00528 0.999736 0.986443
1.00532 0.996472 0.989794
1.00504 0.998917 0.987687
1.00532 0.995729 0.990695
1.00531 0.995961 0.990382
1.00526 0.994959 0.991453
1.00532 0.997223 0.988977
1.00527 0.994922 0.991203
1.00289 0.999836 0.990162
1.00333 1.00005 0.990405
1.00508 0.998695 0.987938
1.00521 0.999833 0.986971
1.00128 1.00121 0.996525
1.00301 1.00261 0.989312
1.00486 1.00263 0.984535
1.0053 1.00006 0.986623
1.00536 0.996938 0.98924
1.00528 0.999401 0.986719
1.00531 1.00072 0.985229
1.00526 0.997516 0.988351
1.00144 1.003 0.989371
1.0026 1.00405 0.986377
1.00503 0.998761 0.987917
1.00512 0.999087 0.987977
1.00531 0.996402 0.9899
1.00536 0.996921 0.98923
1.00183 1.00325 0.988408
1.00434 1.00323 0.984178
1.00531 1.00202 0.983761
1.0053 0.998378 0.987684
1.00527 0.995233 0.99083
1.00529 0.998886 0.987019
1.00526 0.996304 0.989558
1.00526 0.995913 0.989838
1.00331 1.00421 0.985021
1.0036 1.00347 0.985402
1.0019 1.00408 0.987666
1.00531 0.996317 0.989997
1.00534 0.996581 0.989657
1.00529 0.99496 0.991284
1.00531 0.994919 0.991155
1.00525 0.995492 0.990379
1.00526 0.994929 0.990981
1.00383 1.0038 0.984515
1.00528 0.995122 0.990545
1.00531 1.00315 0.982746
1.00529 1.00044 0.985177
1.00525 0.99753 0.988331
1.00528 0.995602 0.990193
1.00126 1.00493 0.987776
1.00472 1.00381 0.983614
1.0027 1.00187 0.987761
1.00482 1.00367 0.983885
1.0053 1.00012 0.985961
1.00014 1.00236 0.992197
1.00087 1.00307 0.990271
1.00162 1.00408 0.987648
1.00532 1.0008 0.985166
1.00531 0.998818 0.98714
1.00375 1.00283 0.98556
1.00539 1.00234 0.983467
1.00531 1.00048 0.985534
1.00533 0.99938 0.986059
1.00013 1.00159 0.993035
1.00281 1.00357 0.986578
1.00121 1.00462 0.988238
1.00332 1.00133 0.988058
1.0053 0.997999 0.988071
1.00531 0.999626 0.986296
1.00528 0.996514 0.989279
1.0051 1.00271 0.98379
1.00526 0.998417 0.987481
1.00532 1.00122 0.984582
1.00537 0.998449 0.987162
1.0003 1.00071 0.993692
1.00107 1.00468 0.988837
1.00376 1.00259 0.985896
1.00273 1.00274 0.988129
1.00392 0.999812 0.988575
1.00527 0.995699 0.990188
1.00527 0.99739 0.98835
1.00528 0.995507 0.990042
1.00523 1.00242 0.983741
1.0053 0.997104 0.988559
1.00524 0.999868 0.985862
1.00045 1.00346 0.990704
1.00023 1.00477 0.989834
1.00009 1.00247 0.99233
1.00013 1.00312 0.991549
1.00018 0.999725 0.99558
1.00025 1.00011 0.994707
1.00029 0.997744 0.997025
1.00011 0.9982 0.998576
1.00003 0.998645 0.998459
1.00002 1.0025 0.992223
1.00015 1.00006 0.997854
1.00069 1.00266 0.991054
1.00044 1.00059 0.997378
1.00116 1.00281 0.990092
1.00082 1.00095 0.996995
1.00527 0.999756 0.986415
1.00517 0.999199 0.987169
1.00531 0.996479 0.989802
1.00533 0.99569 0.990655
1.00508 0.998938 0.987596
1.00289 0.999771 0.990206
1.00504 0.998918 0.98769
1.00531 0.995707 0.990702
1.00532 0.995955 0.990385
1.00525 0.994956 0.991441
1.00531 0.997201 0.988976
1.00528 0.994922 0.99123
1.00532 0.995772 0.990658
1.00524 0.994964 0.991488
1.00528 0.994943 0.991349
1.00524 0.994954 0.991342
1.00525 0.995109 0.990873
1.00528 0.994914 0.991016
1.00503 0.998514 0.988184
1.00515 0.999082 0.987959
1.00531 0.996393 0.989962
1.00537 0.997223 0.988838
1.00192 1.0032 0.988427
1.00411 1.00356 0.984221
1.00533 1.00216 0.9836
1.00529 0.998612 0.987531
1.00527 0.995008 0.99098
1.00527 0.996336 0.989539
1.00528 0.998639 0.987266
1.00526 0.995889 0.989714
1.00339 1.00449 0.984974
1.00337 1.00348 0.985416
1.00173 1.00414 0.987698
1.00531 0.996071 0.990296
1.00534 0.996591 0.989668
1.0053 0.994955 0.991313
1.00531 0.994987 0.991039
1.00376 1.00396 0.984546
1.00528 1.00321 0.982816
1.0053 1.00063 0.984928
1.00525 0.995712 0.990167
1.00526 0.994923 0.990934
1.00525 0.997397 0.988302
1.00527 0.995138 0.990517
1.00528 0.995493 0.990232
1.00433 1.00392 0.98362
1.00455 1.00366 0.983666
1.00146 1.00472 0.98784
1.00286 1.00202 0.98781
1.00528 0.994968 0.991437
1.00534 0.994955 0.991068
1.00527 0.994947 0.991307
1.00528 0.994922 0.99095
1.00529 0.994912 0.990788
1.00533 0.994907 0.990734
1.00518 1.00375 0.982578
1.0053 0.994917 0.990544
1.00528 1.00217 0.983489
1.00526 0.999628 0.985913
1.00518 0.996851 0.988865
1.00534 0.995255 0.990198
1.001 1.00481 0.98834
1.00299 1.00339 0.986605
1.00515 1.00401 0.982259
1.0035 1.00125 0.987478
1.00449 1.0045 0.983031
1.00006 1.00161 0.99306
1.00531 0.997992 0.988055
1.00118 1.00458 0.988178
1.00256 1.00357 0.986667
1.00342 1.00112 0.988108
1.00531 0.999618 0.986277
1.00527 0.996489 0.989285
1.00527 1.00243 0.983756
1.00531 1.00114 0.984558
1.00526 0.9986 0.987236
1.00536 0.998324 0.987356
1.00027 1.00069 0.993723
1.0008 1.00477 0.988848
1.00398 1.00226 0.985967
1.0024 1.00276 0.988076
1.00409 0.999786 0.987936
1.00526 0.995676 0.990205
1.00527 0.997364 0.988356
1.00527 0.995508 0.990052
1.00522 1.00252 0.983661
1.00532 0.997205 0.988367
1.00523 0.999918 0.986081
1.00076 1.00399 0.989824
1.00158 1.00509 0.98824
1.00438 1.00241 0.985021
1.00357 1.00078 0.988273
1.00505 1.00134 0.986465
1.00531 0.994968 0.990628
1.00526 0.996181 0.989284
1.00522 0.995236 0.990171
1.00494 1.00155 0.984506
1.00522 0.998531 0.98693
1.00037 1.00364 0.990687
1.00053 1.00453 0.98949
0.999883 1.00486 0.989852
1.00052 1.00449 0.990153
1.0001 1.00433 0.990706
0.999957 1.00218 0.992799
0.99998 1.00257 0.992352
1.00014 0.99928 0.99598
1.00011 1.00313 0.991562
1.00021 0.999569 0.995647
1.00028 0.997303 0.997363
1.00023 1.00005 0.995169
1.00019 0.997812 0.99788
1.00011 0.998105 0.998624
0.999764 1.00145 0.993664
1.00015 1.00229 0.992247
0.999886 0.99934 0.998345
1.00029 1.00004 0.997689
1.00077 1.00254 0.991049
1.00054 1.00064 0.997277
1.0053 0.997178 0.988974
1.00533 0.995931 0.990389
1.00529 0.994921 0.991255
1.00524 0.994953 0.991429
1.00531 0.995684 0.990708
1.00504 0.998919 0.987693
1.00531 0.995766 0.99066
1.00524 0.994965 0.991489
1.00528 0.99494 0.991359
1.00524 0.994953 0.991319
1.00526 0.995094 0.9909
1.00528 0.994907 0.991012
1.00526 0.994967 0.991466
1.00524 0.994949 0.991425
1.00525 0.994962 0.991178
1.00527 0.994939 0.991272
1.0053 0.994846 0.990929
1.00533 0.994939 0.990879
1.0053 0.995837 0.990595
1.00534 0.996583 0.989678
1.0053 0.99495 0.991343
1.00531 0.99507 0.990923
1.00366 1.00403 0.984577
1.00523 1.00322 0.98288
1.00531 1.00075 0.984678
1.00526 0.99593 0.989953
1.00526 0.994918 0.990887
1.00527 0.995139 0.990488
1.00526 0.997281 0.988274
1.00529 0.995366 0.990274
1.00397 1.00442 0.98363
1.00432 1.00399 0.983449
1.00158 1.00448 0.987905
1.00283 1.0018 0.987849
1.00528 0.994969 0.991437
1.00534 0.994959 0.991092
1.00527 0.994947 0.991278
1.00527 0.994927 0.990958
1.00502 1.00394 0.9826
1.00529 1.00229 0.983356
1.00526 0.999586 0.985894
1.00529 0.994917 0.990797
1.00533 0.994904 0.990705
1.00523 0.996738 0.988873
1.00531 0.994913 0.99053
1.00531 0.995223 0.990332
1.00513 1.00403 0.982319
1.00439 1.00472 0.982884
1.00379 1.00115 0.987504
1.00088 1.00471 0.988468
1.00257 1.00377 0.986505
1.00526 0.99495 0.99135
1.00529 0.994933 0.991141
1.00533 0.994891 0.990697
1.00532 0.9949 0.990641
1.00518 1.00372 0.982357
1.0053 0.994916 0.990485
1.00519 1.00159 0.983816
1.00521 0.998994 0.986517
1.00527 0.996167 0.989151
1.00007 1.00413 0.990288
1.00182 1.00508 0.987201
1.00397 1.00388 0.985823
1.00497 1.00455 0.98236
1.00477 1.00209 0.984732
1.00434 1.00477 0.982811
1.00024 1.00068 0.993754
1.00056 1.00485 0.988858
1.00525 0.995654 0.990221
1.002 1.00289 0.98802
1.00438 1.00226 0.986042
1.00436 0.999923 0.987303
1.00527 0.997339 0.988361
1.00526 0.995512 0.990061
1.00521 1.00252 0.983588
1.0052 0.999985 0.986303
1.00534 0.997296 0.988173
1.00065 1.00409 0.989808
1.001 1.0051 0.988223
1.00463 1.00248 0.984553
1.0035 1.00067 0.988343
1.00473 1.00084 0.98619
1.0053 0.994967 0.990656
1.00528 0.996206 0.989259
1.00525 0.995242 0.990111
1.00499 1.00155 0.984642
1.0052 0.998669 0.986865
1.00103 1.00477 0.988944
1.00109 1.00411 0.988271
1.00466 1.00267 0.984382
1.00401 1.00074 0.986584
1.00505 1.00195 0.985234
1.0053 0.994831 0.990613
1.0053 0.996538 0.988661
1.00534 0.995492 0.989466
1.00504 1.00059 0.985626
1.00511 0.999182 0.986555
1.00029 1.00376 0.990671
1.00059 1.00463 0.989343
0.99975 1.0041 0.990903
0.999762 1.00482 0.989863
0.999873 1.00441 0.990694
0.999773 1.00476 0.990342
0.999988 1.00315 0.991758
0.999602 1.00494 0.990441
0.999841 1.00397 0.991271
0.99997 1.00212 0.992823
0.999981 1.0021 0.992798
1.00005 0.99919 0.996208
0.99995 1.00248 0.992371
1.00015 0.999262 0.996025
1.00022 0.997165 0.997599
1.00024 0.999472 0.99572
1.00023 0.997397 0.997345
1.00005 0.997821 0.998758
0.999835 1.00023 0.994802
0.99984 1.00145 0.99362
0.999765 0.998624 0.998719
1.00032 1.00218 0.992272
1.00004 0.999506 0.998159
1.00039 1.00025 0.997551
1.00526 0.995079 0.990927
1.00528 0.994937 0.991369
1.00529 0.994898 0.991008
1.00524 0.994953 0.991296
1.00524 0.994967 0.991489
1.0053 0.995763 0.990663
1.00526 0.994969 0.991479
1.00524 0.994951 0.99143
1.00525 0.994966 0.991192
1.00527 0.994939 0.991246
1.00531 0.994842 0.990944
1.00533 0.994937 0.990823
1.00525 0.994949 0.991402
1.00527 0.994931 0.991344
1.00529 0.994938 0.991118
1.00535 0.994868 0.990664
1.00529 0.994969 0.991437
1.00534 0.994965 0.991116
1.00527 0.994946 0.991248
1.00526 0.994931 0.990965
1.00487 1.00392 0.982621
1.00528 1.00248 0.983224
1.00526 0.999595 0.985875
1.00529 0.994922 0.990807
1.00533 0.9949 0.990676
1.00531 0.994911 0.990516
1.00527 0.996607 0.988878
1.00527 0.995239 0.990464
1.00483 1.00432 0.982375
1.00421 1.0048 0.982738
1.00441 1.00101 0.987523
1.00082 1.00451 0.988611
1.0022 1.00427 0.986412
1.00525 0.99495 0.991337
1.00529 0.994933 0.991144
1.00533 0.994896 0.990714
1.00518 1.00378 0.982403
1.00515 1.0018 0.983716
1.00522 0.998878 0.986522
1.00532 0.994897 0.99065
1.00527 0.99605 0.989361
1.0053 0.994908 0.990474
1.00002 1.00382 0.990557
1.00459 1.00472 0.982409
1.00409 1.00517 0.982672
1.00452 1.0028 0.984727
1.00399 1.00315 0.985779
1.00151 1.00508 0.987234
1.00528 0.994934 0.991272
1.00531 0.99491 0.990946
1.00533 0.994885 0.990589
1.00529 0.994877 0.990523
1.00481 1.00399 0.982832
1.00524 0.99511 0.990368
1.00502 1.00108 0.984668
1.0052 0.998325 0.986927
0.999929 1.00223 0.992281
1.00057 1.0051 0.989192
1.00259 1.00487 0.986847
1.00364 1.00408 0.984521
1.00431 1.00448 0.984068
1.0048 1.00468 0.982331
1.00052 1.00424 0.989791
1.0005 1.00509 0.988208
1.00528 0.994966 0.990685
1.00345 1.00045 0.988407
1.00503 1.00247 0.984076
1.00406 1.00119 0.985911
1.0053 0.996231 0.989235
1.00528 0.995247 0.99005
1.00507 1.00163 0.984774
1.00518 0.998817 0.9868
1.00077 1.00485 0.988959
1.00151 1.0041 0.988102
1.00461 1.00275 0.984338
1.00441 1.00119 0.986644
1.00498 1.00225 0.984845
1.00531 0.994832 0.990616
1.0053 0.996411 0.988925
1.00534 0.995596 0.989555
1.00506 1.00049 0.985582
1.00507 0.99948 0.9863
0.999572 1.00472 0.989408
1.00106 1.00335 0.988117
1.0048 1.00155 0.985326
1.00512 1.00125 0.985219
1.00538 0.994809 0.990425
1.00534 0.994985 0.990276
1.00526 0.998027 0.987128
1.0051 0.999953 0.985648
1.00087 1.00467 0.989197
0.999895 1.0043 0.990675
0.998732 1.00397 0.993419
0.999631 1.00467 0.990686
0.99901 1.00504 0.990531
0.999862 1.00396 0.991242
0.999611 1.00339 0.99217
0.999667 1.00501 0.990411
0.999761 1.00063 0.994671
0.999618 1.00462 0.99098
0.999539 1.00474 0.990486
1.00005 1.00379 0.991129
0.999944 1.00231 0.992627
0.999938 1.00213 0.992807
0.999943 0.9992 0.996327
0.999959 1.00209 0.992801
1.00007 0.999156 0.996224
1.00013 0.997188 0.997698
1.00015 0.999204 0.996071
1.00021 0.997188 0.997587
1.00019 0.997481 0.997317
0.999987 0.999369 0.995448
0.999842 1.00036 0.994729
0.999759 0.998013 0.998914
0.999867 1.00151 0.993574
0.99983 0.998747 0.998609
1.00021 0.999512 0.997953
1.00531 0.994837 0.99096
1.00525 0.994971 0.991206
1.00532 0.994937 0.990768
1.00527 0.994937 0.991221
1.00523 0.994952 0.991434
1.00527 0.994971 0.99149
1.00525 0.994949 0.991411
1.00527 0.994931 0.991334
1.00529 0.994939 0.991074
1.00534 0.994867 0.990675
1.00527 0.994927 0.991358
1.00527 0.994915 0.99126
1.00535 0.994904 0.990827
1.00525 0.994949 0.991324
1.00529 0.994934 0.991147
1.00533 0.994903 0.990731
1.00526 1.00368 0.982454
1.00517 1.002 0.983614
1.00524 0.998728 0.986525
1.00532 0.994893 0.990659
1.00531 0.994891 0.990464
1.00528 0.995931 0.989573
1.00431 1.00489 0.982455
1.00461 1.00483 0.98255
1.00446 1.00356 0.984732
1.00011 1.00366 0.990832
1.00414 1.00289 0.985738
1.00118 1.00509 0.987254
1.00528 0.994932 0.991293
1.00532 0.994909 0.990913
1.00533 0.994884 0.990592
1.00497 1.00376 0.982824
1.005 1.00105 0.984639
1.00519 0.99816 0.987258
1.0053 0.994884 0.990493
1.00518 0.995112 0.990319
0.999928 1.0023 0.992499
1.00045 1.00509 0.989169
1.00405 1.00387 0.983919
1.00455 1.00458 0.982921
1.00402 1.00371 0.984687
1.00233 1.00495 0.986683
1.0053 0.994912 0.991215
1.00536 0.994844 0.990635
1.00533 0.994883 0.990499
1.00524 0.994895 0.990304
1.00406 1.00273 0.984551
1.00518 0.995886 0.989428
1.00495 1.00057 0.985461
1.00012 1.00133 0.99341
1.00022 1.00262 0.992132
0.999503 1.00411 0.99133
1.00126 1.00504 0.988093
1.00187 1.00502 0.986208
1.00417 1.00473 0.983357
1.00262 1.00447 0.986129
1.00346 1.00421 0.985664
1.00045 1.00485 0.988974
1.00204 1.00416 0.987932
1.00533 0.994836 0.990617
1.00474 1.00013 0.986706
1.00453 1.00285 0.984297
1.00503 1.00251 0.984464
1.00531 0.996269 0.98919
1.00534 0.995686 0.989646
1.00507 1.00033 0.985537
1.00502 0.99974 0.986047
1.00039 1.00451 0.989195
1.00201 1.00346 0.987832
1.00482 1.00155 0.985105
1.00517 1.00134 0.985311
1.00538 0.994804 0.990413
1.00537 0.994999 0.990221
1.0052 0.997923 0.987275
1.00511 1.0001 0.985711
0.999124 1.00475 0.990756
1.00543 0.994878 0.990445
1.00343 1.00276 0.987362
1.00502 1.00103 0.985208
1.00532 0.994697 0.990817
1.00511 0.997142 0.987246
1.00507 1.0008 0.985473
0.999916 1.00459 0.990449
0.998722 1.00353 0.993405
0.997584 1.00248 0.996302
0.99984 1.00382 0.991212
0.999631 1.00507 0.990379
0.998249 1.00441 0.992585
1.00006 1.00366 0.991112
0.999595 1.00481 0.990527
0.998534 1.00182 0.995086
0.999779 1.00449 0.990867
0.9992 0.999729 0.997368
0.998574 1.00321 0.993609
0.999519 1.00505 0.990537
1.00035 1.00465 0.989631
1.00024 1.00381 0.990678
0.999958 1.00243 0.992503
0.999893 1.00242 0.992605
0.99982 0.999348 0.996423
0.999886 1.00224 0.992792
0.999958 0.999233 0.996331
1 0.997344 0.99779
1.00008 0.999124 0.996244
1.00013 0.997218 0.997694
1.00019 0.997225 0.997569
1.00009 1.00122 0.993592
1.00001 0.998957 0.995817
0.99996 0.999482 0.995401
0.999835 0.997694 0.999011
0.999849 1.0004 0.994659
0.999795 0.998189 0.998871
0.999943 0.998895 0.998473
1.00533 0.994867 0.990686
1.00529 0.99494 0.991031
1.00527 0.994932 0.991323
1.00525 0.994949 0.991421
1.00528 0.994925 0.991361
1.00527 0.994915 0.991263
1.00533 0.994898 0.990778
1.00528 0.994908 0.991305
1.00537 0.994876 0.991122
1.00558 0.995025 0.990983
1.00528 0.994932 0.991313
1.00532 0.994905 0.99088
1.00534 0.994886 0.990595
1.00481 1.00355 0.982821
1.00497 1.0012 0.984631
1.00515 0.997996 0.987577
1.0053 0.994892 0.990461
1.00521 0.995133 0.990271
1.00348 1.00474 0.983769
1.00403 1.00473 0.983464
1.00379 1.00304 0.984846
0.999958 1.00219 0.992717
1.00025 1.00508 0.989142
1.0022 1.00498 0.986516
1.00529 0.994906 0.991192
1.00013 1.00126 0.993399
1.00013 1.0026 0.991976
1.00535 0.994862 0.990645
1.00532 0.99489 0.990513
1.00438 1.00294 0.984516
1.00492 1.00019 0.98582
1.00516 0.995992 0.989355
1.00524 0.99489 0.990255
0.999659 1.004 0.991471
1.00117 1.00506 0.988023
1.00269 1.00446 0.985975
1.00382 1.00383 0.984545
1.00412 1.00466 0.983439
1.00195 1.00484 0.98629
1.00539 0.994856 0.99095
1.00537 0.994866 0.990461
1.00529 0.994888 0.99041
1.00521 0.995088 0.990152
1.00313 1.00213 0.986933
1.00493 0.998628 0.987969
1.00013 1.00288 0.991601
0.999837 1.00262 0.992476
1.00193 1.00089 0.991663
1.00076 1.00403 0.989377
1.00159 1.00509 0.987415
1.00286 1.00416 0.986089
1.0021 1.00472 0.984581
1.00123 1.00089 0.99201
1.00082 1.00434 0.988986
1.00305 1.00377 0.987541
1.00539 0.9948 0.990402
1.0054 0.995023 0.990167
1.00518 1.00179 0.985397
1.00486 1.00161 0.984881
1.00515 0.99783 0.98742
1.00512 1.00029 0.985778
0.999794 1.00428 0.990631
1.00544 0.99487 0.99067
1.00264 1.00303 0.987895
1.00499 1.00105 0.985206
1.00533 0.994716 0.99084
1.00516 0.997269 0.987465
1.00493 1.00067 0.985421
0.999024 1.00508 0.992263
1.00496 0.99482 0.990615
1.0023 1.00267 0.98799
1.00445 1.00229 0.984413
1.00511 0.995592 0.990214
1.00366 1.00098 0.986451
0.998986 0.994729 0.984891
0.998668 1.00345 0.993391
0.997589 1.00248 0.996327
0.99753 1.00177 0.997421
0.999998 1.00369 0.991095
0.999512 1.00492 0.99057
1.00031 1.00425 0.990756
0.997924 1.00206 0.995518
1.00016 1.00391 0.990678
1.00021 1.00462 0.989807
0.998938 0.999305 0.997544
0.999525 1.00498 0.990522
0.999059 1.0033 0.993143
0.997634 1.00207 0.997164
1.00023 1.00392 0.990715
0.999954 1.0049 0.990314
1.00077 1.00439 0.989452
1.00022 1.00412 0.99017
1.00044 1.00504 0.989678
1.00006 1.00431 0.990139
0.99991 1.00244 0.992516
0.999916 1.00248 0.99249
0.999699 0.999377 0.995904
0.999887 1.00239 0.992584
0.999802 0.999376 0.996105
0.999981 0.997425 0.999088
0.999966 0.999271 0.996337
1.00002 0.997314 0.997785
1.00015 0.997239 0.997684
0.999989 1.00096 0.993903
1.00012 1.00109 0.993629
1.00007 0.998628 0.996122
1.00002 0.998972 0.996117
0.99987 0.997418 0.999094
0.999923 0.999657 0.995352
0.999831 0.997737 0.99899
0.999832 0.998242 0.998819
1.00531 0.994893 0.990729
1.00528 0.994916 0.991267
1.00528 0.994923 0.991364
1.00527 0.994906 0.991307
1.00534 0.994879 0.991081
1.0056 0.995093 0.990822
1.00544 0.99487 0.99112
1.00112 0.994836 0.980754
1.00504 0.995234 0.991179
1.00019 1.00213 0.992457
1.00529 0.994903 0.99117
1.00535 0.994874 0.990655
1.00532 0.994891 0.990527
1.00453 1.00256 0.984459
1.00498 0.999774 0.986162
1.00504 0.995865 0.989268
1.00525 0.994888 0.990207
1.00316 1.00361 0.985879
1.00478 1.00379 0.983511
1.00443 1.00431 0.983517
1.00013 1.00126 0.99339
1.00243 1.00494 0.986368
0.999758 1.004 0.991597
1.00106 1.00507 0.987954
1.00002 1.00262 0.991825
1.0054 0.994865 0.990943
1.00012 1.00277 0.991815
0.999858 1.00268 0.992527
1.00108 1.00133 0.992123
1.00537 0.994851 0.990445
1.00528 0.994873 0.990375
1.00264 1.00285 0.987047
1.00484 0.99785 0.988323
1.0052 0.995021 0.990124
1.00068 1.00396 0.989575
1.00174 1.00504 0.987388
1.002 1.00137 0.990793
1.00336 1.00483 0.984346
1.0032 1.00371 0.986268
1.00543 0.994713 0.990963
1.00531 0.994855 0.990564
1.00523 0.994907 0.990001
1.0051 0.996569 0.990454
1.00183 0.999728 0.990909
0.999585 1.00342 0.991733
1.00204 1.00101 0.990872
1.00035 1.00074 0.992456
1.00131 1.00425 0.989326
1.001 1.00455 0.988906
1.00099 1.0038 0.988131
1.00133 0.999362 0.993263
1.00094 1.00368 0.990471
1.00165 1.00331 0.988442
1.00542 0.994975 0.990888
1.00535 0.994739 0.990853
1.00518 0.997366 0.987684
1.00498 1.00104 0.985203
1.00479 1.00054 0.985378
0.999184 1.00476 0.992718
1.00464 0.994831 0.990827
1.00243 1.00272 0.987976
1.00462 1.00221 0.984385
1.00497 0.995483 0.990525
1.00392 1.00092 0.986529
0.998767 0.995089 0.98306
0.997869 1.00463 0.993715
1.00348 0.994739 0.991023
1.00286 1.00304 0.98595
1.00303 1.00107 0.987203
1.00355 0.997503 0.990685
0.999964 0.994892 0.940466
0.99497 0.994786 0.962343
0.99597 0.998429 0.987504
0.997947 0.99478 0.851716
0.994707 0.994879 0.81176
0.997849 1.00227 0.996351
0.997381 1.00201 0.997547
0.996922 1.00326 0.997241
1.00015 1.00395 0.99068
1.00015 1.00454 0.989981
0.999636 1.005 0.990509
0.999402 1.00354 0.992649
0.998729 0.999063 0.99771
0.999787 1.00496 0.990431
1.00028 1.00408 0.990242
1.00067 1.00447 0.989414
0.998077 1.00116 0.996772
0.999743 1.00426 0.991127
1.0004 1.00399 0.991399
0.998163 1.00412 0.993604
0.999661 1.00474 0.990923
1.00061 1.00465 0.988916
1.00015 1.00421 0.99025
1.00012 1.0049 0.989628
1.00042 1.0037 0.991015
0.999702 1.00497 0.990654
1.00019 1.005 0.989728
1.00017 1.00433 0.990293
1.00011 1.0043 0.990151
0.999899 1.00254 0.992497
0.999923 1.00247 0.992523
0.999677 0.9994 0.995955
0.999865 1.00259 0.992475
0.999682 0.999421 0.995904
0.999935 0.997415 0.999122
0.999773 0.999424 0.99579
0.99994 0.997426 0.998472
1.00005 0.997291 0.997776
0.999881 1.00068 0.994324
0.999974 1.00102 0.993909
1.00008 0.998385 0.99637
1.00016 1.00095 0.993665
1.00007 0.998583 0.996424
0.999921 0.99708 0.999167
1.00004 0.99904 0.995746
0.999877 0.997547 0.999058
0.99984 0.997857 0.998972
1.00533 0.994883 0.99104
1.00527 0.994904 0.99131
1.00559 0.994894 0.990662
1.00033 0.994861 0.980926
1.00545 0.994871 0.991083
1.005 0.994953 0.991141
1.00549 0.994837 0.991127
0.995873 0.994896 0.962911
1.00229 0.994867 0.981773
1.00025 1.00171 0.99285
1.00015 1.00228 0.99242
0.999438 1.004 0.991621
0.999891 1.00264 0.992296
1.00538 0.994869 0.990936
1.00536 0.994855 0.990428
1.00527 0.994867 0.990339
1.00365 1.00309 0.98716
1.00477 0.996507 0.988717
1.0052 0.99496 0.990112
1.00192 1.00121 0.989515
1.00469 1.00467 0.984106
1.00302 1.00284 0.986441
0.999855 1.00267 0.992579
1.00161 1.00478 0.987384
1.00062 1.00408 0.989774
1.00005 1.00282 0.992025
1.00035 1.00175 0.992574
1.00542 0.994752 0.990956
0.999927 1.00352 0.991404
1.00187 1.00064 0.991361
0.99808 1.00136 0.995621
1.00532 0.994872 0.9905
1.00523 0.99493 0.99001
1.00295 0.999047 0.990952
1.00478 0.996044 0.99046
1.00153 1.00451 0.988551
1.00101 1.00418 0.988149
1.00125 1.00008 0.993237
1.00262 1.0036 0.987555
1.0042 0.995644 0.991075
1.00521 0.995191 0.990628
1.00505 0.995862 0.989773
1.00358 0.9958 0.993481
0.997243 1.00492 0.994145
1.00205 1.00194 0.989507
0.998074 1.00435 0.993699
0.999118 1.00375 0.992577
1.00001 0.994911 0.926022
0.999026 1.00457 0.993196
1.00224 1.00303 0.987945
1.00422 0.994778 0.991072
1.00485 0.995393 0.990831
1.00417 1.00085 0.986581
1.00463 1.00222 0.984343
0.998688 0.995693 0.981051
0.998297 1.00436 0.993759
1.00323 0.995216 0.990896
1.00285 1.00368 0.985897
1.00366 1.00081 0.987343
1.0038 0.99775 0.990468
0.999869 0.994872 0.926532
0.995448 0.994825 0.959017
0.996025 0.997938 0.987867
0.997396 0.99476 0.85629
0.994726 0.994952 0.804571
0.998655 1.00445 0.992256
0.999479 0.994802 0.861874
0.99474 0.994829 0.802506
1.00082 0.998233 0.992656
1.00148 1.00184 0.989787
1.00152 0.99971 0.992708
0.994877 0.997085 0.991094
0.997432 0.994778 0.939943
0.994883 0.994786 0.955133
0.995599 0.994789 0.87713
0.994738 0.994837 0.79086
0.997058 1.00219 0.997681
0.996872 1.00296 0.997133
0.996725 1.00496 0.996273
1.00039 1.00399 0.99031
1.00064 1.00451 0.989377
0.999261 1.00503 0.990548
0.999409 1.00449 0.991538
0.998574 1.00031 0.996395
1.00026 1.00408 0.990237
1.00008 1.00421 0.991127
0.999568 1.00488 0.990626
1.0008 1.00468 0.98906
0.998134 1.00377 0.993867
0.999066 1.0038 0.993334
0.996808 1.00505 0.994677
0.999799 1.00502 0.989901
1.00049 1.00471 0.989491
1.00033 1.00492 0.989596
1.00016 1.0032 0.991443
0.999862 1.00488 0.990602
1.00037 1.00237 0.992138
0.999065 1.00173 0.993725
0.998424 1.00469 0.99227
0.999211 1.0049 0.991007
0.999736 1.00482 0.990686
1.0001 1.00452 0.990146
1 1.00495 0.98978
1.00024 1.00428 0.990208
0.999967 1.00264 0.992283
1.00018 1.00427 0.990163
0.999918 1.00247 0.992511
0.999888 0.99935 0.99639
0.999862 1.00253 0.992529
0.999738 0.999353 0.996214
0.999895 0.997372 0.997968
0.999671 0.999417 0.995902
0.999927 0.997433 0.999131
0.999925 0.997467 0.997853
1.00032 1.00178 0.992636
0.999909 1.00048 0.994512
0.999883 1.00074 0.994315
1.00004 0.998279 0.996518
0.999949 1.00109 0.993916
1.00009 0.998362 0.996364
0.999966 0.996928 0.999209
1.00006 0.998599 0.996671
0.999918 0.997255 0.998554
0.99989 0.997572 0.997802
0.999807 0.994829 0.981063
1.0055 0.994858 0.991041
1.00495 0.994897 0.991097
0.996197 0.994831 0.963379
1.00234 0.994892 0.982172
1.00547 0.995258 0.991118
1.00354 0.995609 0.986104
0.997763 0.994825 0.965354
0.999853 0.994851 0.939749
0.996976 0.994794 0.87814
0.994672 0.994833 0.810083
0.999614 1.00274 0.992443
1.00024 1.0017 0.992833
1.00024 1.00221 0.992378
0.999747 1.00339 0.991915
0.998621 1.00473 0.992796
1.0005 1.00255 0.991589
1.00021 1.00347 0.99134
1.00019 1.00239 0.99219
1.00545 0.994789 0.990941
1.00533 0.994875 0.990443
1.00522 0.995127 0.990016
1.00289 0.999849 0.991002
1.00453 0.996204 0.990447
1.00122 0.999789 0.993205
1.00398 1.00354 0.986993
1.00227 1.00443 0.987397
1.00158 1.00035 0.991841
1.00175 1.00463 0.987722
1.00037 1.00348 0.991092
0.996367 1.00221 0.998637
1.00425 0.995058 0.991375
0.997663 1.00459 0.994009
1.00146 1.00204 0.991025
1.00496 0.994979 0.9906
1.00463 0.996278 0.99007
1.00306 0.995783 0.993302
0.999561 1.00462 0.991705
1.00008 1.00245 0.99279
1.00328 0.99536 0.990248
1.00344 0.998648 0.99061
1.00416 0.996382 0.991617
1.00094 0.997332 0.995161
0.99886 1.005 0.99178
0.998215 1.00502 0.992719
0.998779 1.00487 0.992796
0.999804 0.994934 0.863491
1.00013 0.994873 0.941181
0.999251 1.00384 0.993812
1.00303 1.00418 0.985863
1.00297 0.995463 0.990758
1.00409 0.998012 0.990266
1.0041 1.00074 0.987518
0.999994 0.994855 0.938538
0.995803 0.994797 0.95858
0.996086 0.998054 0.988308
0.997006 0.994805 0.875633
0.99475 0.994857 0.796939
0.998992 1.00445 0.992224
0.999823 0.994852 0.860031
0.99471 0.994812 0.795852
1.00086 0.998379 0.992537
1.00146 1.00219 0.989817
1.00138 0.999868 0.993138
0.994878 0.998362 0.991915
0.997607 0.994784 0.933174
0.994925 0.994804 0.955598
0.995006 0.994801 0.876817
0.994756 0.994841 0.788932
0.997774 1.00473 0.994835
0.994733 0.994784 0.79083
0.994742 0.994773 0.795444
0.996864 1.00146 0.997182
0.999695 1.00187 0.995692
0.994902 0.999214 0.988476
0.994952 0.994818 0.95834
0.994946 0.994754 0.928721
0.994756 0.994886 0.880495
0.994844 0.994866 0.799141
0.99704 1.00243 0.997032
0.997394 1.00454 0.995859
0.996336 1.00389 0.996806
1.00034 1.00397 0.990223
1.00086 1.00465 0.989206
0.999705 1.00503 0.990325
0.999617 1.00445 0.990857
0.997833 1.00346 0.99413
1.0005 1.00474 0.989467
0.999138 1.00355 0.992826
1.00012 1.00498 0.989919
0.996395 1.00495 0.994961
0.996041 1.00511 0.997041
0.998283 1.00477 0.993121
1.00041 1.00498 0.989973
1.00056 1.00462 0.989566
0.99997 1.00276 0.99186
0.999768 1.00474 0.990559
1.00053 1.0021 0.992032
0.998697 1.0023 0.994133
0.998701 1.0039 0.992503
0.997955 1.00508 0.992838
0.998644 1.00126 0.995754
1.0002 1.00232 0.992537
1.00333 0.999462 0.990611
0.998747 1.00476 0.991529
0.998723 1.00466 0.992292
0.999329 1.00501 0.990105
0.999349 1.00494 0.991045
1.00019 1.00453 0.989949
0.999531 1.00496 0.990716
1.00012 1.00449 0.99022
1.00003 1.00286 0.99186
1.00031 1.0043 0.990123
0.999977 1.00262 0.992289
1.00003 0.999378 0.996125
0.999937 1.00244 0.992527
0.999871 0.999336 0.996027
1.00002 0.997271 0.997811
0.999732 0.999344 0.995925
0.999952 0.997347 0.999144
0.999922 0.99742 0.999141
1.00039 1.00225 0.992394
0.999955 1.00066 0.994312
1.00022 1.00192 0.992649
1.00004 0.998207 0.996584
0.999892 1.00051 0.994505
0.999859 1.00081 0.994306
1.00005 0.998282 0.996505
0.999992 0.996834 0.999232
1.00007 0.998393 0.996882
0.999973 0.996943 0.99865
0.999934 0.997239 0.998015
0.999572 0.994844 0.847261
0.994724 0.994805 0.789908
0.996252 0.99485 0.963873
1.00189 0.994923 0.9827
1.00538 0.994787 0.991127
0.997602 0.994873 0.964253
1.00344 0.994749 0.98666
0.999974 0.994861 0.935423
0.99714 0.994748 0.857136
0.994716 0.994857 0.803241
0.997671 0.994769 0.971981
0.997182 0.994815 0.940984
0.995995 0.9948 0.876786
0.994787 0.99486 0.799693
0.999881 1.00367 0.991834
0.999831 1.00248 0.992543
1.00015 1.00185 0.992823
0.999904 1.00298 0.992213
0.998301 1.00435 0.993476
1.00035 1.004 0.990308
1.00004 1.00332 0.991613
1.00071 1.00373 0.989892
1.00018 1.00345 0.991211
0.999879 1.00293 0.992078
1.00405 0.994764 0.991659
1.00483 0.994908 0.990566
1.00396 0.9965 0.99037
1.00241 0.995964 0.993119
1.0005 1.00239 0.992981
0.999588 1.00482 0.989764
1.00048 1.0019 0.992704
0.99796 1.00425 0.993832
1.00229 0.995218 0.990788
0.998938 1.00509 0.991518
0.997945 1.00505 0.992846
1.00318 0.998419 0.990568
1.00384 0.996153 0.991767
1.00073 0.997616 0.99547
0.998792 1.00481 0.992473
0.999804 0.995563 0.989121
1.00083 0.999195 0.994688
0.997136 1.00253 0.99652
0.998544 1.00475 0.990964
0.997769 1.00509 0.992299
0.998278 1.00488 0.993133
0.994715 0.994815 0.813533
0.9998 0.994874 0.869398
1.00007 0.994873 0.926368
0.99903 1.00465 0.992169
1.00173 1.00237 0.989805
1.00085 0.997949 0.99241
1.0011 0.999786 0.993574
0.999828 0.994904 0.874326
0.997335 0.994807 0.92694
0.994875 0.994819 0.955155
0.994886 0.999083 0.992595
0.995581 0.994798 0.860988
0.994684 0.9948 0.802212
0.994807 0.994972 0.804647
0.997758 1.00412 0.994524
0.994719 0.994795 0.800724
0.994764 0.994778 0.794783
0.997008 0.999856 0.997829
0.999124 1.00165 0.995585
0.994898 0.997864 0.990412
0.995167 0.994795 0.95698
0.995547 0.994792 0.940345
0.994706 0.996344 0.86138
0.995124 0.994866 0.809199
0.996698 1.00366 0.998131
0.994765 0.994816 0.803508
0.994811 0.994813 0.793358
0.994826 1.00253 0.9999
0.99502 0.996724 0.966427
0.994795 0.994944 0.938026
0.994897 0.994907 0.855357
0.995765 0.9949 0.822286
0.997996 1.00345 0.995412
0.996742 1.00412 0.996933
0.995546 1.00398 0.998448
1.00034 1.0048 0.989439
1.00028 1.00502 0.989939
0.999228 1.00324 0.992317
0.99622 1.00477 0.995248
0.999893 1.005 0.989992
0.998094 1.0049 0.993102
0.995581 1.00488 0.997305
0.99493 1.00437 0.998575
0.995703 1.00508 0.997268
0.998824 1.00512 0.992561
0.99983 1.00489 0.990509
1.00063 1.00158 0.991931
0.998223 1.00284 0.994532
0.998025 1.00505 0.992925
0.999201 1.00367 0.992442
0.998072 1.002 0.995793
0.998227 1.0036 0.99401
0.995686 1.00511 0.997381
1.00139 0.998814 0.994727
0.999741 1.00172 0.993508
1.00195 1.00038 0.991092
1.00475 1.00007 0.987634
1.00246 1.00138 0.990327
1.00235 0.999008 0.992002
0.999337 1.00455 0.991331
0.999551 1.0051 0.989556
0.999087 1.00458 0.992316
0.999866 1.00505 0.990107
1.00043 1.0046 0.989375
0.999834 1.00474 0.991078
1.00039 1.00443 0.989932
1.0001 1.00331 0.99139
1.00027 1.00433 0.990294
1.00012 1.00287 0.991861
1.00017 0.999481 0.995818
1.00008 1.00247 0.992297
1.00002 0.999396 0.995723
1.0001 0.997369 0.997606
0.999877 0.999304 0.995728
1.00001 0.997279 0.998478
0.999967 0.997306 0.999126
1.00034 1.00301 0.991298
1.0001 1.00083 0.99395
1.00028 1.00228 0.992194
1.00005 0.998255 0.996522
0.999974 1.00059 0.994324
1.00023 1.00182 0.992663
1.00002 0.996775 0.999245
1.00003 0.998213 0.996584
0.999893 1.00056 0.9945
1.00006 0.998275 0.996493
0.999993 0.996869 0.999226
0.999962 0.996941 0.999202
0.994706 0.994762 0.791472
0.999649 0.994839 0.860348
0.994763 0.994773 0.793069
0.994736 0.994797 0.790107
0.99776 0.994882 0.962844
1.00326 0.994781 0.98721
0.999717 0.994821 0.930331
0.998398 0.994794 0.877885
0.994759 0.994842 0.796295
0.998295 0.994805 0.970911
0.99746 0.994791 0.926563
0.995131 0.994803 0.87576
0.99473 0.994851 0.79209
0.994897 0.994784 0.963125
0.995905 0.994733 0.927166
0.994825 0.996959 0.853794
0.994833 0.994875 0.800667
1.00066 1.00476 0.990259
0.999379 1.0037 0.991974
1.00004 1.00222 0.992638
0.997747 1.00391 0.994167
1.00104 1.00371 0.989369
1.00024 1.00392 0.990532
0.999514 1.0037 0.99164
1.00124 1.00304 0.990093
1.00077 1.00397 0.989925
1.00031 1.00315 0.991083
1.00198 0.99478 0.991291
1.00286 0.998 0.990541
1.00378 0.995846 0.991917
1.0003 0.997319 0.99578
1.00018 1.00478 0.992124
0.998223 1.00502 0.99298
0.999005 1.00511 0.991255
0.99967 1.00468 0.990724
0.999517 0.99649 0.989752
0.998696 1.00511 0.992018
0.998961 1.00484 0.992983
1.00051 0.99911 0.995025
0.998524 1.00122 0.99635
0.996127 1.00086 0.988675
0.996649 1.00003 1.00045
0.995183 1.00509 0.996953
0.998251 1.00474 0.992933
0.996971 1.00511 0.994621
0.994792 0.994804 0.810076
0.994712 0.994792 0.809004
0.999821 0.994913 0.850634
0.997887 1.00418 0.994277
0.998932 1.00105 0.99548
0.997237 0.999416 0.998474
0.994691 0.99478 0.798537
0.995676 0.994747 0.928436
0.995295 0.994803 0.956418
0.994877 0.996091 0.99274
0.994766 0.995648 0.881116
0.994773 0.994781 0.79502
0.995549 0.994865 0.810889
0.996856 1.00359 0.998223
0.994777 0.994819 0.806058
0.994798 0.994814 0.794492
0.995034 1.00202 0.998912
0.995125 0.995881 0.968214
0.994802 0.995408 0.925885
0.995454 0.994886 0.817511
0.995254 0.99829 0.864077
0.994849 1.00492 1.00024
0.994789 0.994833 0.794077
0.994865 0.994833 0.805847
0.99483 0.994868 0.800666
0.994778 0.999051 0.989081
0.994898 0.996769 0.941234
0.997707 0.995232 0.875227
0.997128 1.00479 0.997083
0.99571 1.00471 0.998171
0.995048 1.00524 0.999029
0.999794 1.00497 0.990013
0.997992 1.00508 0.99308
0.995276 1.00505 0.997563
0.998292 1.00511 0.992565
0.995837 1.00507 0.997255
0.99495 1.005 0.998473
0.994923 1.005 0.998754
0.995487 1.00511 0.997406
0.997808 1.00503 0.993036
0.999623 1.00365 0.992378
0.997692 1.00278 0.995835
0.995739 1.00484 0.997286
0.998018 1.00386 0.994055
0.998339 1.00138 0.99672
0.998539 0.998752 0.998541
1.00206 0.999996 0.990267
0.999316 1.00119 0.994414
1.00234 1.00026 0.990756
1.00444 1.00153 0.986169
1.00476 1.00265 0.984473
1.00426 0.999161 0.98921
1.00384 1.00014 0.987791
1.00143 1.00408 0.988721
1.00161 1.00174 0.990654
1.00136 0.998588 0.993363
0.999936 1.00438 0.991133
0.999949 1.00509 0.989515
1.00042 1.00508 0.988658
1.00039 1.00505 0.990114
1.00059 1.00464 0.989364
1.00023 1.00364 0.990788
1.00055 1.00424 0.989913
1.00018 1.00316 0.991387
1.0002 0.999736 0.995527
1.00008 1.00295 0.99186
1.00013 0.999547 0.995385
1.00022 0.997448 0.997391
1.00003 0.999407 0.995393
1.0001 0.997332 0.998337
1.00005 0.997274 0.999057
1.0007 1.00308 0.990461
1.00014 1.00128 0.993081
1.00047 1.00287 0.9913
1.00012 0.998342 0.996323
1.00009 1.00084 0.993773
1.00022 1.00233 0.991995
1.00005 0.996786 0.999227
1.00006 0.998223 0.996536
0.999995 1.0005 0.994336
1.00002 0.996806 0.999242
1.00002 0.998233 0.996584
0.999994 0.996857 0.999221
0.994816 0.994812 0.800159
0.994712 0.994806 0.805675
0.99955 0.994809 0.859026
1.0011 1.00288 0.990276
0.9948 0.994801 0.799398
0.994765 0.994776 0.793017
0.99477 0.994805 0.804388
0.998694 0.994815 0.970309
0.997062 0.994783 0.940638
0.995896 0.994821 0.858511
0.994698 0.994842 0.80253
0.995878 0.994805 0.960853
0.995686 0.994796 0.939173
0.994735 0.995329 0.857307
0.994851 0.994875 0.803661
0.994831 0.994787 0.955216
0.994767 0.994798 0.935912
0.996 0.998876 0.867673
0.995361 0.994896 0.822487
0.999312 1.00458 0.99122
0.999955 1.00465 0.99033
0.999601 1.00349 0.992117
1.00113 1.00232 0.990661
1.00093 1.00402 0.98953
1.00015 1.00426 0.990754
1.0013 1.00315 0.990015
1.0008 1.00403 0.989954
0.998488 0.997359 0.990236
0.999791 0.999067 0.99528
0.999904 1.00465 0.990478
0.9999 0.99988 0.996191
0.999229 1.0047 0.992841
0.999318 1.00511 0.991736
0.998359 1.00442 0.992832
0.995716 1.00008 0.989071
0.997635 1.00502 0.994575
0.9964 1.0037 0.997236
0.995944 1.00052 1.0005
0.997668 1.00419 0.994666
0.994799 1.00081 0.986734
0.995228 1.00279 0.998887
0.995696 1.00501 0.997507
0.996969 1.00527 0.995742
0.994768 0.994812 0.798943
0.994792 0.994807 0.807038
0.994706 0.99477 0.804311
0.996922 1.00377 0.998291
0.995247 1.00095 0.997897
0.994792 0.994825 0.808406
0.99475 0.994933 0.939429
0.995337 0.995925 0.965287
0.995375 0.996972 0.862363
0.994794 0.994816 0.79538
0.994894 0.994868 0.812707
0.995127 1.00496 1.00004
0.99479 0.994829 0.79431
0.994868 0.994849 0.805671
0.994821 0.999644 0.992823
0.994852 0.994866 0.803693
0.994855 0.996635 0.933419
0.996378 0.997435 0.876994
0.994982 1.00357 0.997756
0.99484 0.994839 0.803597
0.994803 0.994808 0.801052
0.994787 0.994858 0.799417
0.996112 0.998856 0.867172
0.994877 1.00113 0.972478
0.99528 0.997423 0.926331
0.996119 1.00506 0.99791
0.995221 1.00519 0.999034
0.994835 1.00529 0.998269
0.997658 1.00512 0.992566
0.995269 1.005 0.997247
0.994923 1.00509 0.998402
0.995362 1.00492 0.997377
0.99492 1.00494 0.998755
0.997492 1.00217 0.998559
0.995587 1.00467 0.997181
0.997543 1.00417 0.994136
0.997866 1.00164 0.997142
0.998184 1.00071 0.994657
0.995988 0.998727 1.00208
1.00169 0.99974 0.99156
1.0044 1.00445 0.982512
1.00436 1.00297 0.984368
1.00275 1.0001 0.990349
1.00427 1.00187 0.985655
1.00506 1.00243 0.98399
1.00508 1.00085 0.985943
1.00435 1.00246 0.984761
1.00307 1.00128 0.988634
1.00368 0.999774 0.989016
1.00307 1.00019 0.987977
1.0006 1.00512 0.988264
1.00092 1.00423 0.988912
1.00072 1.00209 0.990971
1.00037 1.00508 0.989474
1.00073 1.00507 0.988692
1.00034 1.00443 0.98978
1.00074 1.00484 0.989351
1.00032 1.00361 0.990778
1.00018 1.00002 0.994473
1.00037 1.00304 0.991386
1.00022 0.999777 0.99471
1.00014 0.997482 0.998834
1.00011 0.999685 0.995022
1.00017 0.997414 0.99818
1.00013 0.997302 0.998964
1.0006 1.00329 0.990436
1.00033 1.0018 0.992305
1.00065 1.00315 0.990649
1.0002 0.998551 0.996002
1.00025 1.00126 0.992986
1.00051 1.00286 0.991297
1.00008 0.996805 0.999181
1.00013 0.998305 0.99634
1.0001 1.00083 0.993597
1.00004 0.996773 0.999235
1.00007 0.998188 0.996549
1.00001 0.996839 0.999239
0.994793 0.994825 0.802816
0.994812 0.99481 0.800542
0.994704 0.994818 0.805194
1.00117 1.00285 0.990358
1.00034 1.0042 0.989904
1.00159 1.00142 0.991431
0.994871 0.994849 0.804843
0.994806 0.994799 0.800392
0.994766 0.994765 0.793102
0.996902 0.994801 0.960948
0.994886 0.99475 0.927133
0.994762 0.99655 0.879532
0.994835 0.994859 0.797904
0.994983 0.994778 0.95653
0.994784 0.996292 0.93179
0.995959 0.997416 0.86467
0.995226 0.994893 0.817518
0.994879 0.995326 0.954485
0.994843 0.99662 0.935672
0.997029 0.99491 0.87574
0.99484 0.99487 0.800633
0.999304 1.0024 0.9932
0.999983 1.00397 0.991002
0.999907 1.00439 0.990399
1.00119 1.00239 0.99059
1.00058 1.00444 0.98969
1.00133 1.00327 0.989936
0.995578 1.00008 0.989743
0.995749 1.00108 1.00068
0.99897 1.00359 0.992733
0.998112 1.00253 0.997419
0.998198 1.0046 0.994527
0.997114 1.00379 0.995288
0.996348 1.00495 0.995902
0.994779 1.00239 0.986664
0.995426 1.00514 0.997828
0.995 1.00336 0.99823
0.99619 1.00476 0.996865
0.995595 0.999585 0.985145
0.995208 1.0052 0.994865
0.994796 1.00365 0.999205
0.994862 0.994842 0.798049
0.994774 0.99482 0.797977
0.994792 0.994805 0.804048
0.995264 1.00482 0.999793
0.994846 0.999813 0.988476
0.994785 0.994825 0.794553
0.994837 0.997219 0.932955
0.996371 0.995239 0.861987
0.994877 0.994848 0.805467
0.994834 0.994855 0.798119
0.994907 1.00339 0.998264
0.994826 0.994838 0.803268
0.994818 0.994802 0.802137
0.994903 1.00058 0.969825
0.994715 0.994853 0.792225
0.995795 0.99815 0.863797
0.994847 0.995893 0.940254
0.994946 1.00519 0.989202
0.994787 0.994832 0.803682
0.994773 0.994789 0.794525
0.994665 0.994846 0.811536
0.994819 0.996791 0.852695
0.994887 0.997133 0.936201
0.994846 1.00132 0.964025
0.995203 1.00516 0.998988
0.994924 1.00525 0.998192
0.995755 1.00463 0.997392
0.99569 1.00461 0.997351
0.994929 1.00497 0.998776
0.996108 1.0038 0.998446
0.998861 1.00011 0.998196
0.997436 1.00191 0.99754
1.00084 1.00036 0.993591
1.00215 1.00484 0.98628
1.00103 0.999551 0.99322
1.00422 1.00426 0.98346
1.00431 1.00398 0.98278
1.00498 1.00101 0.984914
1.00507 1.00168 0.984586
1.00429 1.00305 0.984243
1.00427 1.00218 0.985154
1.00517 1.00187 0.984331
1.00508 1.00225 0.984123
1.00464 1.0006 0.986817
1.00462 1.00092 0.986178
1.00381 1.00229 0.985055
1.00136 1.0042 0.988094
1.00276 1.00189 0.988547
1.00297 1.00046 0.988807
1.00059 1.00498 0.988758
1.00099 1.0051 0.988272
1.00049 1.00436 0.989104
1.00104 1.00507 0.988728
1.00058 1.00422 0.989792
1.00014 1.00066 0.993899
1.00051 1.00342 0.990768
1.00023 1.00004 0.994452
1.00019 0.997666 0.99878
1.00024 0.999763 0.994719
1.00022 0.997522 0.998041
1.00018 0.997461 0.998872
1.00103 1.00341 0.989993
1.00049 1.00213 0.991966
1.0008 1.00304 0.990475
1.00028 0.99885 0.995565
1.00034 1.0018 0.992391
1.00061 1.00316 0.990841
1.00012 0.996896 0.999108
1.00021 0.998488 0.996024
1.00031 1.00123 0.992892
1.00008 0.996807 0.999195
1.00014 0.998271 0.996358
1.00005 0.996796 0.999242
0.994831 0.994839 0.802164
0.994794 0.994842 0.803083
0.994811 0.994817 0.800915
0.999679 1.0052 0.989691
1.00118 1.00367 0.990909
1.001 1.00285 0.990449
1.0004 1.0041 0.989808
1.00073 1.00165 0.99177
1.00038 1.00274 0.991218
0.99955 1.00129 0.993902
0.994826 0.994821 0.794669
0.994872 0.994852 0.804716
0.994807 0.994829 0.801394
0.994892 0.994893 0.812557
0.99554 0.994885 0.955255
0.994795 0.996921 0.926298
0.995918 0.994905 0.878513
0.994878 0.995385 0.953969
0.994868 0.998412 0.922304
0.996215 0.997407 0.876791
0.994984 0.994866 0.810546
0.995441 0.996171 0.958111
0.994871 0.998242 0.924752
0.994902 0.99491 0.856015
0.994748 0.994835 0.792159
0.996816 1.00443 0.995623
0.998991 1.00295 0.99372
0.999984 1.00424 0.990784
1.00112 1.00276 0.990528
0.994828 1.00183 0.986519
0.99478 1.00381 0.997507
0.996691 1.00459 0.99591
0.996574 1.00498 0.996075
0.99522 1.00514 0.998272
0.995739 1.00493 0.996907
0.995485 1.00386 0.999268
0.99551 1.00038 0.981965
0.995231 1.00522 0.994974
0.995685 1.00375 0.998447
0.995275 1.00247 0.978557
0.99469 1.00325 0.999326
0.994768 0.994824 0.800192
0.994848 0.994841 0.801921
0.994783 0.994836 0.796989
0.994822 1.00352 0.998759
0.994878 1.00071 0.973264
0.994815 0.994838 0.802978
0.994863 0.997884 0.92754
0.99614 0.994901 0.877874
0.994817 0.994833 0.803078
0.994684 0.99485 0.802412
0.994904 1.00497 0.990161
0.994801 0.994837 0.803983
0.994763 0.99479 0.794533
0.994838 1.00006 0.964161
0.99472 0.994862 0.804733
0.994719 0.996206 0.855698
0.994876 0.997496 0.923556
0.994858 1.00438 0.984303
0.994831 0.994813 0.800378
0.994711 0.994813 0.791497
0.995374 0.994805 0.87866
0.994753 0.995313 0.935905
0.994821 0.999971 0.958212
0.994946 1.00525 0.998539
0.995362 1.00464 0.997468
0.996847 1.00207 0.997487
0.995073 1.00504 0.998332
0.996949 1.00232 0.998535
1.00145 1.00113 0.992585
1.00341 0.999827 0.992534
1.00298 1.00489 0.985429
1.00433 1.00248 0.984236
1.00387 1.00407 0.98441
1.00444 1.00403 0.982725
1.0046 1.00267 0.984056
1.00525 0.998706 0.986603
1.00511 1.0004 0.985685
1.005 1.00115 0.984882
1.00514 1.00152 0.984634
1.00501 1.00154 0.984582
1.00419 1.00315 0.984116
1.00519 1.00183 0.984456
1.00517 1.00202 0.984274
1.00509 1.00208 0.98426
1.00347 1.00203 0.987467
1.00397 1.00098 0.987256
1.00432 1.00088 0.986417
1.00093 1.00511 0.987825
1.00171 1.00406 0.988129
1.0023 1.00256 0.98846
1.00024 1.00132 0.993072
1.00079 1.00486 0.988794
1.00132 1.00509 0.98828
1.00072 1.00411 0.989802
1.00016 1.0007 0.993869
1.00015 0.997912 0.998684
1.00025 1.00006 0.994431
1.00019 0.997629 0.998762
1.00021 0.997463 0.998808
1.00028 1.00513 0.989939
1.00093 1.00501 0.989053
1.00074 1.00262 0.991081
1.00074 1.00381 0.989963
1.00027 0.999263 0.995146
1.00049 1.00215 0.99196
1.00088 1.00301 0.990517
1.00013 0.997112 0.999001
1.00027 0.998845 0.995587
1.00036 1.00183 0.992473
1.00011 0.99689 0.99913
1.00022 0.998456 0.99605
1.00008 0.996787 0.999211
0.994799 0.994843 0.795219
0.994824 0.994833 0.801863
0.9948 0.994831 0.803345
1.00005 1.00518 0.98967
1.00021 1.00301 0.991181
1.00141 1.00243 0.988341
0.99883 1.00416 0.991104
1.00166 1.00202 0.991487
1.00071 1.00416 0.98971
1.0003 1.00209 0.99211
1.00027 1.00357 0.991239
1 1.00108 0.994106
0.998938 1.00375 0.994106
0.994755 0.994769 0.796219
0.994809 0.994824 0.795908
0.994874 0.994836 0.804542
0.995174 0.994863 0.812147
0.995853 0.99491 0.862278
0.994843 0.994877 0.95306
0.9948 0.996877 0.934861
0.995467 0.996126 0.954144
0.994864 0.996592 0.937115
0.99505 0.998391 0.865108
0.994763 0.994838 0.790245
0.994905 0.998055 0.957089
0.994848 0.998311 0.936754
0.994761 0.994891 0.880883
0.994707 0.994877 0.813413
0.998979 1.00057 0.996373
0.99645 1.00432 0.996176
0.999006 1.00273 0.994259
0.995235 1.00259 0.978467
0.995067 1.0052 0.994836
0.995445 1.0049 0.996929
0.994748 1.00436 0.999343
0.995761 1.00368 0.998345
0.994752 1.00246 0.999775
0.994863 1.00194 0.978452
0.996105 1.0013 1.00062
0.994957 1.00064 0.984962
0.994804 0.994818 0.809587
0.99479 0.994834 0.799206
0.994833 0.994834 0.805892
0.994947 1.00489 0.990454
0.99486 0.999948 0.961837
0.994819 0.994841 0.804287
0.994852 0.997623 0.935712
0.99475 0.996331 0.876802
0.99476 0.994768 0.7948
0.994763 0.994849 0.797747
0.995263 1.0048 0.984924
0.994816 0.994817 0.800599
0.994729 0.994808 0.791715
0.994984 0.998518 0.959298
0.994988 0.994802 0.876641
0.994798 0.996584 0.929625
0.995341 1.00252 0.98175
0.994705 0.994774 0.792323
0.997198 0.994802 0.87898
0.995586 0.994733 0.927514
0.994858 0.995398 0.959807
0.995564 1.00514 0.997577
0.995723 1.00375 0.997367
0.998324 1.00163 0.996715
0.994888 1.005 0.998927
0.999993 1.00178 0.993796
1.00414 0.997954 0.990298
1.00387 1.005 0.98456
1.00415 1.00268 0.984141
1.00462 0.999494 0.986747
1.0047 1.00414 0.982667
1.00471 1.00219 0.984136
1.00505 0.998672 0.98708
1.00535 0.996053 0.988955
1.00528 0.998272 0.986825
1.00525 0.998637 0.986659
1.00515 1.00039 0.985792
1.00512 1.00043 0.985616
1.00498 1.00123 0.984849
1.00518 1.00207 0.984198
1.00515 1.00143 0.984591
1.00496 1.00144 0.984576
1.00491 1.0015 0.985605
1.0048 1.00218 0.984731
1.00519 1.00223 0.984217
1.00195 1.00405 0.987186
1.0032 1.0021 0.9874
1.00357 1.00124 0.987691
1.00033 1.00241 0.992977
1.0012 1.00509 0.987867
1.00203 1.00386 0.988166
1.00017 0.998556 0.996222
1.00027 1.00153 0.99346
1.00098 1.00474 0.988829
1.0002 1.00075 0.993836
1.00016 0.998013 0.99862
1.0002 0.997629 0.99874
1.00129 1.00391 0.988779
1.00141 1.00514 0.988296
0.999481 1.00514 0.98984
1.0007 1.00383 0.989997
1.00072 1.00479 0.989017
1.00021 0.999733 0.994764
1.0006 1.00284 0.991098
1.00057 1.00416 0.989926
1.00012 0.997409 0.998914
1.00028 0.999215 0.995167
1.00048 1.00215 0.991956
1.00012 0.997093 0.999034
1.00026 0.998807 0.995607
1.00011 0.996869 0.999153
0.99478 0.994821 0.809994
0.994803 0.994842 0.7955
0.994811 0.994851 0.801542
1.00326 1.0017 0.986921
0.99987 1.00503 0.989648
0.999662 1.0032 0.991501
0.999981 1.005 0.99068
1.00262 1.00221 0.98844
1.00054 1.00239 0.992853
1.00355 1.00236 0.986935
0.996884 1.00485 0.993678
0.999768 1.00383 0.991255
0.999942 1.00004 0.994312
0.997894 1.00347 0.994058
0.99818 1.00343 0.994505
0.994743 0.994833 0.803228
0.994773 0.994775 0.79561
0.994801 0.994827 0.796896
0.994806 0.99525 0.805655
0.995086 0.997092 0.863549
0.99485 0.998385 0.924834
0.99567 0.995155 0.953381
0.995091 0.997691 0.9575
0.99473 0.995144 0.805975
0.994869 0.996709 0.9281
0.994716 0.996892 0.861893
0.994876 0.996537 0.962154
0.994782 0.996011 0.938783
0.995187 0.994817 0.878708
1.00017 0.994946 1.00073
0.998651 1.00107 0.996244
0.995953 1.00426 0.996695
0.99491 1.00172 0.978379
0.995377 1.00132 1.00015
0.996232 1.00354 0.998281
0.996777 1.00039 1.00097
0.994942 0.999655 0.985092
0.995816 0.998874 0.992324
0.994711 0.994813 0.808302
0.9948 0.994815 0.81034
0.994805 0.994836 0.798079
0.99494 1.00444 0.985124
0.994876 0.999902 0.958623
0.994799 0.994826 0.801056
0.994834 0.996767 0.924092
0.995574 0.994811 0.860043
0.994765 0.994815 0.80558
0.995035 1.00492 0.981534
0.994713 0.994816 0.806223
0.99701 0.99476 0.857982
0.99487 0.995531 0.955452
0.995389 0.994792 0.939508
0.994877 1.00095 0.990064
0.999676 0.994854 0.847288
0.997223 0.994821 0.941105
0.994869 0.994809 0.954198
0.994873 1.00491 0.997195
0.997547 1.00186 0.99659
1.00066 1.00002 0.993441
0.998958 1.00166 0.994995
1.00374 0.998158 0.990056
1.0047 0.997735 0.989179
1.00397 1.00284 0.984047
1.00459 0.999465 0.986647
1.0051 0.996214 0.989031
1.00471 1.00165 0.984223
1.00494 0.998622 0.98704
1.00536 0.995404 0.989668
1.00528 0.995072 0.990528
1.00532 0.996279 0.988901
1.00536 0.996022 0.989022
1.00529 0.998255 0.986928
1.00527 0.998248 0.98702
1.00523 0.998603 0.986713
1.00523 1.00099 0.984934
1.00517 1.00027 0.985732
1.00512 1.00042 0.985547
1.00515 1.00247 0.983938
1.00511 1.00212 0.984247
1.00515 1.00131 0.984547
1.00303 1.00302 0.986777
1.00437 1.00209 0.985542
1.00421 1.00258 0.985007
1.00072 1.00293 0.990686
1.0022 1.00408 0.987183
1.00298 1.00248 0.987327
0.999891 0.999664 0.998148
1.00046 1.00231 0.991734
1.00148 1.00508 0.98791
1.00018 0.998531 0.998387
1.00031 1.00154 0.992901
1.00019 0.998103 0.998544
1.00398 1.0019 0.987549
1.00167 1.00357 0.988544
1.0016 1.0047 0.988039
1.00089 1.00463 0.989088
1.00098 1.00515 0.988299
0.99975 1.00518 0.989745
1.00006 1.0006 0.994195
1.00064 1.00385 0.990011
1.00067 1.00446 0.988977
1.0001 0.997608 0.998826
1.0002 0.999724 0.994784
1.00043 1.00304 0.991112
1.00011 0.997348 0.998937
1.00029 0.999189 0.995185
1.00011 0.997044 0.999067
0.994735 0.994785 0.793107
0.994797 0.994822 0.810366
0.99481 0.994837 0.795827
1.00325 1.00238 0.98676
1.00467 1.00282 0.985859
1.00252 1.0034 0.986836
0.999678 1.00501 0.990251
1.00371 1.00183 0.988547
0.998626 1.00157 0.994153
0.998281 1.00412 0.993153
1.00208 1.00282 0.988209
1.00174 1.00092 0.991102
0.99873 0.999685 0.996459
0.998662 1.00359 0.993983
0.998785 1.00367 0.994276
0.997932 0.994789 0.851686
0.994713 0.994813 0.796859
0.994781 0.99478 0.79584
0.994756 0.994862 0.798041
0.994767 0.99635 0.881419
0.994847 0.99656 0.92408
0.99486 0.996808 0.955869
0.994896 0.996768 0.959685
0.995389 0.995168 0.87676
0.994796 0.995782 0.925955
0.994845 0.997417 0.963523
0.995426 0.994724 0.927848
0.999292 0.995444 1.00349
0.999823 0.995386 1.00071
0.998273 1.00077 0.99624
0.994843 0.999341 0.985377
0.997174 0.999539 1.00131
0.9963 0.999009 0.991889
0.995877 0.996596 0.990001
0.999801 0.99503 0.862293
0.994704 0.994793 0.805198
0.994804 0.994818 0.810854
0.994839 1.00454 0.981979
0.994827 0.994872 0.953492
0.994705 0.994825 0.805555
0.994983 0.994745 0.928282
0.99779 0.994807 0.878908
0.994899 0.998888 0.986574
0.999677 0.994852 0.86047
0.99734 0.994801 0.927009
0.994849 0.994783 0.955221
0.996127 0.998189 0.987215
0.999843 0.994846 0.939898
0.995031 0.99483 0.961582
0.996321 1.00144 0.996486
0.999883 0.99979 0.993396
1.00337 0.998871 0.991594
1.0028 0.999099 0.989838
1.00438 0.99767 0.989102
1.00514 0.995846 0.989758
1.00461 0.999492 0.986549
1.00496 0.996663 0.988966
1.00531 0.994838 0.990164
1.00486 0.998601 0.986996
1.00535 0.995422 0.989613
1.0053 0.994861 0.990596
1.00531 0.994928 0.990709
1.00529 0.995057 0.990603
1.00524 0.995321 0.990536
1.00529 0.996738 0.988837
1.00532 0.996307 0.98905
1.00539 0.995979 0.989092
1.0053 0.999265 0.986365
1.00529 0.998313 0.986863
1.00527 0.998201 0.987216
1.00529 1.00216 0.983785
1.00524 1.00103 0.984958
1.00518 1.00018 0.98567
1.00383 1.00296 0.985571
1.00504 1.00243 0.984005
1.00498 1.00217 0.9843
1.0011 1.00317 0.989791
1.00301 1.00307 0.986714
1.00397 1.00216 0.985484
1.00017 0.999981 0.997768
1.00087 1.00275 0.990693
1.00245 1.004 0.987174
1.00008 0.999582 0.996852
1.00066 1.0022 0.991763
1.00021 0.998759 0.998238
1.00481 1.00158 0.986048
1.0032 1.002 0.987457
1.00196 1.00365 0.987749
1.00174 1.00367 0.988307
1.0013 1.00488 0.988074
1.00104 1.00503 0.988493
1.00015 1.00137 0.993353
1.00073 1.00469 0.989061
1.0003 1.00513 0.988305
1.00008 0.998082 0.998648
1.00008 1.00046 0.994223
1.00065 1.00389 0.990026
1.00008 0.997655 0.998854
1.00017 0.999681 0.994821
1.00011 0.997322 0.998961
0.999427 0.994812 0.86122
0.99472 0.994794 0.799151
0.994807 0.994821 0.810819
1.00316 1.00258 0.986609
1.00302 1.0036 0.985895
1.00437 1.00321 0.98566
1.0047 1.0034 0.984034
1.00195 1.00276 0.988919
0.999404 1.0044 0.992678
1.00201 1.0033 0.989471
1.00134 1.00116 0.991604
1.00458 0.99575 0.990456
1.00206 0.998477 0.994006
1.00173 0.997073 0.995362
1.0003 0.998803 0.996115
0.999911 1.00187 0.994037
0.997424 0.994822 0.937682
0.997997 0.99476 0.856092
0.99469 0.994804 0.802965
0.995584 0.994812 0.861933
0.994785 0.995963 0.936848
0.995038 0.996183 0.961255
0.99483 0.996757 0.965174
0.996138 0.994776 0.940502
0.995745 0.994782 0.963605
0.998451 0.99676 1.00129
0.998338 0.996115 1.00357
0.9995 0.99662 1.00058
0.996574 0.998362 0.991568
0.997039 0.997071 0.990214
1.00002 0.994917 0.92573
0.999802 0.994892 0.868537
0.994693 0.994776 0.802209
0.99504 0.998468 0.98271
0.994992 0.994768 0.954661
0.999662 0.994828 0.859379
0.99724 0.994814 0.940809
0.995987 0.997688 0.987451
0.999974 0.994861 0.935294
0.995656 0.994822 0.959407
1.00021 0.995019 0.986025
0.997725 0.994734 0.970476
0.999384 0.999049 0.993368
1.00245 0.997493 0.991605
1.00507 0.994871 0.991543
1.00438 0.997377 0.989013
1.00511 0.995678 0.989673
1.00528 0.994804 0.990482
1.00473 0.997043 0.988902
1.00531 0.994869 0.990123
1.00531 0.994805 0.990467
1.00533 0.995424 0.989558
1.00529 0.994867 0.990579
1.00533 0.994824 0.990607
1.0053 0.994901 0.990751
1.00531 0.995011 0.990692
1.00529 0.995034 0.990678
1.00525 0.995298 0.990543
1.00522 0.995787 0.990078
1.0053 0.997898 0.987897
1.00529 0.996792 0.988825
1.00532 0.996337 0.989198
1.00533 1.00128 0.984525
1.00532 0.999377 0.98619
1.00529 0.998375 0.9868
1.00471 1.00249 0.984473
1.00527 1.00216 0.983843
1.00524 1.00107 0.98498
1.00159 1.00326 0.988616
1.00354 1.0032 0.985597
1.00474 1.00262 0.98407
1.00042 1.00069 0.997341
1.0012 1.00303 0.989776
1.00296 1.00317 0.986658
1.00031 1.0002 0.997599
1.00098 1.00258 0.990704
1.00027 0.999579 0.997855
1.0051 1.0033 0.983874
1.00442 1.00137 0.986066
1.00324 1.00276 0.986697
1.00281 1.00184 0.987363
1.00191 1.00378 0.987683
1.00156 1.00478 0.987722
1.00093 1.00487 0.988104
1.00085 1.00512 0.988446
1.00033 1.00216 0.99232
1.00008 0.998603 0.998362
1.00003 1.00142 0.993367
1.00049 1.00486 0.989036
1.00004 0.997967 0.998715
1.00009 1.00037 0.994226
1.00005 0.9976 0.998879
0.999968 0.994886 0.940332
0.999828 0.99486 0.85965
0.994698 0.994776 0.792983
1.00294 1.00463 0.984943
1.00376 1.00336 0.985458
1.00316 1.00273 0.987964
1.00425 1.00329 0.984246
1.00519 1.00018 0.985572
1.00365 0.999339 0.988033
1.00068 1.00185 0.992073
1.0045 0.995494 0.990716
1.00202 0.998091 0.99403
1.00423 0.995613 0.990845
1.00299 0.998384 0.992904
1.00189 0.998331 0.993994
1.00126 0.997583 0.995283
1.00007 0.999399 0.995784
0.995383 0.994794 0.962122
0.998005 0.99516 0.932856
0.996952 0.994817 0.874604
0.995244 0.994715 0.927618
0.994847 0.996746 0.965466
0.995606 0.995698 0.969233
0.99915 0.994805 0.991376
0.99957 0.99608 1.00046
0.99779 0.996642 1.00367
0.998604 0.99887 0.99049
0.997458 0.99486 0.964217
1.00004 0.994884 0.940786
0.999819 0.995006 0.849707
0.995646 0.997854 0.987844
0.99618 0.994808 0.959508
0.999636 0.994823 0.930199
0.999483 0.99622 0.986511
0.997956 0.994788 0.969499
1.00284 0.996252 0.98831
1.00337 0.994982 0.985125
1.00149 0.996783 0.991603
1.0045 0.994886 0.991585
1.00525 0.994799 0.990818
1.00505 0.995627 0.989589
1.00527 0.994805 0.99043
1.00535 0.994856 0.990478
1.00531 0.99491 0.990079
1.00532 0.99482 0.990456
1.00536 0.994865 0.990487
1.00528 0.994873 0.990562
1.00534 0.994831 0.990629
1.00535 0.994856 0.990649
1.00528 0.994873 0.990792
1.00531 0.994992 0.990694
1.00527 0.995308 0.990614
1.00525 0.995276 0.990549
1.00523 0.995769 0.99009
1.00526 0.997078 0.988864
1.0053 0.999984 0.985881
1.00529 0.998111 0.987611
1.00529 0.996848 0.988813
1.0053 1.00161 0.984369
1.00532 1.00131 0.984567
1.00534 0.999491 0.986016
1.00256 1.00271 0.987628
1.00446 1.00275 0.984493
1.00527 1.00216 0.983899
1.00088 1.00105 0.996921
1.0018 1.00316 0.988561
1.00328 1.00349 0.985622
1.00062 1.00077 0.997191
1.00127 1.00291 0.989764
1.00048 1.00036 0.997429
1.00527 1.00143 0.98462
1.00502 1.00286 0.983913
1.00459 1.00276 0.984477
1.00438 1.00173 0.986086
1.00338 1.00269 0.986428
1.0028 1.00358 0.986655
1.00182 1.00413 0.987622
1.00148 1.00477 0.987726
1.00075 1.00262 0.991139
1.00056 1.00512 0.988408
1.00019 1.00222 0.992328
1.00008 0.999501 0.997996
1.00004 0.998589 0.998472
0.999954 1.00143 0.993389
1.00002 0.99795 0.998774
0.996243 0.994923 0.965016
0.999819 0.994892 0.925218
0.999833 0.994915 0.873759
1.00527 0.998028 0.987357
1.00457 1.00274 0.987029
1.00381 1.00317 0.984456
1.00425 0.999259 0.988465
1.00518 1.00037 0.985557
1.00513 0.996732 0.988966
1.00483 0.996051 0.990976
1.00169 0.99755 0.994072
1.00472 0.99581 0.990892
1.00263 0.99843 0.992392
1.00418 0.997246 0.990005
1.00324 0.994837 0.994357
1.0018 0.997358 0.994167
1.00115 0.997807 0.9952
0.998531 0.994734 0.990136
0.995714 0.994792 0.960616
0.997827 0.994789 0.926701
0.995366 0.996141 0.969694
0.99885 0.994821 0.994083
0.999817 0.995578 0.999575
1.00228 0.99493 0.980605
0.997554 0.994883 0.963503
1.00007 0.994886 0.92585
0.998398 0.99667 0.986987
0.998147 0.994807 0.968909
1.00198 0.995455 0.988906
1.00311 0.994907 0.985719
1.00374 0.996201 0.990406
1.00551 0.995204 0.99072
1.00398 0.994827 0.991624
1.00522 0.994828 0.990775
1.00539 0.99488 0.990404
1.00527 0.994807 0.99038
1.00533 0.994846 0.990487
1.00538 0.99486 0.99047
1.00532 0.994832 0.990445
1.00535 0.99486 0.990495
1.00535 0.994883 0.990637
1.00534 0.99484 0.990652
1.00535 0.994856 0.990642
1.00528 0.994897 0.990869
1.0053 0.994977 0.990696
1.00527 0.995218 0.990657
1.00527 0.996065 0.989971
1.00523 0.995748 0.990103
1.00526 0.996937 0.988995
1.00529 0.999437 0.986619
1.00533 1.00115 0.984778
1.00531 1.00019 0.98566
1.00529 0.998322 0.987325
1.00319 1.00146 0.987907
1.00518 1.00175 0.984366
1.00532 1.00134 0.98461
1.00145 1.00117 0.996445
1.00275 1.00249 0.987602
1.00427 1.00294 0.984519
1.00107 1.00113 0.996724
1.00204 1.00307 0.988517
1.00077 1.00089 0.997041
1.00527 0.999732 0.985912
1.00525 1.00146 0.984556
1.0053 1.00192 0.984059
1.00494 1.00241 0.983955
1.00496 1.00255 0.984253
1.00336 1.00327 0.986058
1.00376 1.00227 0.986158
1.00264 1.00379 0.986683
1.00101 1.00302 0.990063
1.00139 1.00483 0.987704
1.00055 1.00277 0.991173
1.00017 1.00035 0.997594
1.00002 1.00228 0.992336
1.00003 0.999254 0.998136
0.999995 0.998424 0.998568
0.999833 0.9953 0.986078
0.996336 0.994903 0.960811
1 0.994852 0.940072
1.0053 0.99628 0.989075
1.00529 0.995946 0.989413
1.00527 0.997701 0.987627
1.00484 0.998775 0.988894
1.00517 1.00059 0.985546
1.00515 0.996714 0.989156
1.00532 0.99516 0.98971
1.0049 0.995575 0.990943
1.00236 0.998376 0.991895
1.00408 0.997417 0.990514
1.0052 0.994806 0.990887
1.00368 0.994807 0.993022
1.00284 0.994881 0.994082
1.00208 0.996761 0.99435
0.999148 0.994707 0.990135
0.996013 0.994804 0.959433
0.998947 0.994806 0.996938
1.00496 0.994949 0.990308
1.00232 0.994966 0.980755
0.997736 0.994894 0.962489
1.00166 0.994752 0.989435
1.00276 0.994688 0.986327
1.00385 0.995508 0.990936
1.00543 0.994904 0.990778
1.00547 0.994757 0.990828
1.00556 0.994805 0.99104
1.00523 0.994854 0.990729
1.00541 0.994861 0.990399
1.00537 0.994862 0.99066
1.00532 0.994834 0.990496
1.00538 0.994861 0.99049
1.00534 0.994884 0.990699
1.00534 0.994855 0.990503
1.00536 0.994884 0.990637
1.0053 0.994899 0.990895
1.00534 0.994856 0.990636
1.00529 0.994897 0.990848
1.00528 0.995399 0.990579
1.00527 0.995123 0.9907
1.00527 0.996023 0.989952
1.00531 0.998684 0.987358
1.00527 0.996795 0.989125
1.00529 0.99931 0.986758
1.0053 1.00078 0.985252
1.00327 1.00069 0.988565
1.00532 1.00115 0.984795
1.00532 1.00041 0.985439
1.0018 1.00091 0.996271
1.00321 1.00145 0.987906
1.00499 1.00197 0.984356
1.0016 1.00116 0.996317
1.00295 1.00236 0.987561
1.00131 1.00121 0.996507
1.0053 0.997574 0.98791
1.00528 0.999534 0.986148
1.00536 1.00121 0.98472
1.00522 1.00146 0.984486
1.00532 1.002 0.983983
1.00401 1.00264 0.985507
1.00525 1.00237 0.984031
1.00348 1.00292 0.986062
1.00144 1.00342 0.988946
1.00261 1.00379 0.986725
1.00096 1.00316 0.990084
1.00036 1.00108 0.997216
1.00037 1.00294 0.991201
1.00006 1.00017 0.997748
0.999995 0.99916 0.998268
1.00411 0.99536 0.991834
0.999693 0.995169 0.983771
0.996418 0.994909 0.960898
1.00532 0.99527 0.990052
1.00529 0.995876 0.989386
1.00526 0.995166 0.990526
1.00529 0.996077 0.989368
1.00528 0.997359 0.987891
1.0054 0.994846 0.990233
1.00517 0.996873 0.989338
1.00531 0.995426 0.989704
1.00535 0.994787 0.990605
1.00405 0.997407 0.991018
1.00518 0.994906 0.990539
1.00323 0.994948 0.993281
1.00212 0.995263 0.993819
0.999418 0.99468 0.98987
1.00556 0.994839 0.990977
1.00509 0.995066 0.990272
1.00214 0.994991 0.981015
1.00384 0.994726 0.991459
1.00547 0.994761 0.990845
1.00545 0.994765 0.990837
1.0056 0.994837 0.991093
1.00538 0.994869 0.991167
1.00543 0.994847 0.990397
1.00536 0.994869 0.990668
1.00531 0.994903 0.990956
1.00538 0.994865 0.99051
1.00534 0.994888 0.990693
1.0053 0.994925 0.990961
1.00536 0.994884 0.990637
1.0053 0.994897 0.99089
1.0053 0.995019 0.991017
1.0053 0.994897 0.990828
1.00527 0.99542 0.99055
1.00533 0.997856 0.988235
1.00527 0.995982 0.989933
1.0053 0.998695 0.987376
1.0053 1.00044 0.985632
1.00529 0.999183 0.986899
1.00531 1.00076 0.985276
1.00324 1.0004 0.990687
1.00203 1.0001 0.992953
1.00327 1.00073 0.989452
1.00532 1.00115 0.98481
1.00172 1.00088 0.996363
1.00324 1.0013 0.98791
1.00162 1.00125 0.996273
1.0052 0.995128 0.990837
1.00525 0.996333 0.9895
1.00531 0.997554 0.98813
1.00533 1.00014 0.98574
1.00529 0.999335 0.986385
1.00536 1.00122 0.984639
1.00479 1.0018 0.984783
1.00534 1.00205 0.983907
1.00423 1.00216 0.985469
1.00233 1.00295 0.987881
1.00361 1.00255 0.986065
1.00138 1.00349 0.98893
1.0008 1.00167 0.996681
1.00087 1.00327 0.990117
1.00023 1.00089 0.997361
0.999975 0.99992 0.997896
1.00549 0.994833 0.990897
1.00398 0.995135 0.991437
0.999938 0.994907 0.981539
1.00531 0.994878 0.99063
1.00531 0.995323 0.989968
1.00528 0.995476 0.989706
1.00525 0.995284 0.990477
1.00529 0.996219 0.989322
1.00539 0.99485 0.990611
1.00539 0.994845 0.99021
1.00531 0.995597 0.9897
1.00532 0.994787 0.990655
1.00518 0.995027 0.990191
1.003 0.994741 0.993532
1.0053 0.994882 0.99128
1.00554 0.994827 0.991003
1.00523 0.995174 0.990229
1.00541 0.994765 0.990829
1.00561 0.994862 0.991147
1.00539 0.994868 0.99112
1.00529 0.994911 0.991269
1.00536 0.994869 0.990676
1.00531 0.994901 0.990913
1.00528 0.994926 0.99114
1.00535 0.994892 0.990688
1.0053 0.994926 0.990966
1.00532 0.994919 0.99119
1.0053 0.994896 0.990884
1.00529 0.995021 0.990985
1.00533 0.997047 0.989113
1.00527 0.995438 0.990521
1.00532 0.997876 0.988245
1.0053 1.00013 0.985986
1.00529 0.998705 0.987393
1.00531 1.00042 0.985664
1.00331 1.00022 0.990772
1.00531 1.00073 0.985299
1.00347 1.00028 0.990542
1.00211 0.99975 0.993151
1.0017 1.00043 0.994827
1.00346 1.00073 0.990147
1.00167 1.00083 0.99644
1.00524 0.994902 0.990986
1.00523 0.996053 0.989929
1.00519 0.995106 0.990919
1.00528 0.999041 0.986923
1.00525 0.996347 0.989533
1.0053 0.997541 0.988351
1.00532 1.00014 0.985702
1.00527 1.00111 0.984903
1.00536 1.00126 0.98456
1.00504 1.00157 0.984789
1.00298 1.00174 0.987896
1.00446 1.00192 0.985441
1.00215 1.0031 0.987935
1.00124 1.00179 0.996344
1.00127 1.00355 0.988924
1.0006 1.00146 0.996909
1.00007 1.00077 0.997504
1.00534 0.994891 0.99092
1.00541 0.994838 0.990964
1.00365 0.995053 0.991045
1.00531 0.994886 0.990802
1.00532 0.994878 0.990576
1.00529 0.995359 0.989889
1.00525 0.995405 0.990427
1.00539 0.994854 0.990604
1.00536 0.994845 0.990188
1.00526 0.994791 0.990702
1.00527 0.994917 0.991319
1.0053 0.994885 0.991241
1.00553 0.994817 0.991027
1.00528 0.994927 0.99134
1.00542 0.99487 0.991074
1.00529 0.994913 0.991259
1.00526 0.994934 0.991292
1.00532 0.994901 0.99087
1.00528 0.994926 0.991146
1.0053 0.994937 0.991304
1.00529 0.994926 0.990971
1.00532 0.994918 0.991169
1.00533 0.996372 0.989894
1.00529 0.995023 0.990953
1.00534 0.997072 0.98911
1.00527 0.999871 0.986342
1.00532 0.997898 0.988255
1.00531 1.00011 0.986018
1.00331 1.00022 0.990747
1.00531 1.00039 0.985695
1.00351 1.00013 0.990596
1.00217 0.999699 0.993102
1.00369 1.00015 0.990404
1.00161 0.999928 0.993494
1.00101 1.0008 0.997076
1.00524 0.994907 0.991025
1.00526 0.995373 0.9906
1.00523 0.994908 0.991003
1.00531 0.998563 0.987457
1.00523 0.995768 0.990149
1.00518 0.995082 0.991003
1.00533 1.00046 0.985507
1.00529 0.999023 0.986893
1.00524 0.996353 0.989568
1.0053 1.00013 0.985664
1.00527 1.0011 0.984887
1.00309 1.00097 0.98856
1.00525 1.00129 0.984791
1.00291 1.0019 0.987925
1.00141 1.00134 0.996427
1.00213 1.00317 0.987968
1.00112 1.00166 0.996442
1.00044 1.0013 0.9971
1.0053 0.994927 0.99109
1.00535 0.994888 0.990861
1.00535 0.994842 0.991036
1.00531 0.994887 0.990803
1.00533 0.994878 0.990522
1.0054 0.994857 0.990596
1.00527 0.994936 0.991328
1.00527 0.994917 0.991338
1.0053 0.994887 0.991203
1.00528 0.994928 0.991351
1.00525 0.994952 0.991415
1.00528 0.994915 0.99125
1.00526 0.994938 0.991312
1.00527 0.994952 0.991383
1.00528 0.994926 0.991151
1.0053 0.994938 0.9913
1.00534 0.99592 0.990385
1.00531 0.994916 0.991148
1.00533 0.996387 0.989888
1.00522 0.999659 0.986664
1.00536 0.997096 0.989106
1.00527 0.99985 0.986373
1.00323 1.0003 0.990751
1.00532 1.00009 0.98605
1.00349 1.00015 0.990564
1.00214 0.999817 0.993008
1.0037 1.00005 0.990428
1.00172 0.999758 0.993474
1.00113 1.00013 0.993823
1.00525 0.994937 0.991127
1.00528 0.994932 0.99109
1.00524 0.994907 0.99099
1.00534 0.997389 0.988643
1.00526 0.995392 0.990594
1.00522 0.994914 0.991018
1.00532 1.00009 0.985945
1.00531 0.998124 0.987841
1.00523 0.995488 0.99037
1.0032 1.00036 0.989006
1.00532 1.00048 0.985479
1.00529 0.99901 0.986865
1.00531 1.00108 0.984866
1.00309 1.00097 0.988542
1.0015 1.00087 0.996566
1.00277 1.00214 0.987959
1.00142 1.00139 0.996375
1.00097 1.00156 0.996613
1.00528 0.994943 0.991257
1.0053 0.994926 0.991055
1.00536 0.994887 0.990801
1.00532 0.994889 0.990803
1.00525 0.994958 0.991403
1.00527 0.994934 0.991337
1.00527 0.994917 0.991356
1.00527 0.994928 0.991362
1.00525 0.99495 0.991413
1.00528 0.994966 0.991329
1.00526 0.994941 0.991332
1.00527 0.994954 0.991359
1.00533 0.995839 0.990621
1.0053 0.99494 0.991295
1.00532 0.995952 0.990384
1.00518 0.999469 0.9869
1.00534 0.996397 0.989882
1.00522 0.999636 0.986682
1.00323 1.00034 0.989069
1.00527 0.999829 0.986404
1.0034 1.00026 0.989728
1.00182 0.999921 0.99653
1.00368 1.00009 0.99038
1.00174 0.999807 0.993385
1.0013 0.999812 0.993831
1.00525 0.994949 0.99124
1.00529 0.994951 0.991142
1.00525 0.994938 0.991153
1.00533 0.996448 0.989658
1.00528 0.995095 0.990923
1.00524 0.994906 0.990955
1.00529 0.999389 0.986747
1.00534 0.997393 0.988646
1.00526 0.995411 0.990588
1.00332 1.00001 0.989192
1.00531 0.999874 0.986141
1.0053 0.997677 0.988224
1.00165 1.00039 0.996649
1.00324 1.0003 0.988992
1.00531 1.0005 0.985449
1.00308 1.00097 0.988531
1.00153 1.0009 0.996519
1.0014 1.0014 0.99633
1.00525 0.99496 0.991323
1.00528 0.994945 0.991252
1.0053 0.994925 0.99102
1.00528 0.994996 0.991339
1.00525 0.994957 0.991385
1.00527 0.994932 0.991346
1.00525 0.994949 0.991412
1.00528 0.995006 0.991323
1.00532 0.996385 0.98997
1.00528 0.994964 0.991335
1.00533 0.996114 0.99025
1.00514 0.998811 0.987804
1.0053 0.995989 0.990383
1.00519 0.999445 0.9869
1.00317 1.0002 0.989292
1.00522 0.999615 0.986704
1.00325 1.00031 0.989074
1.00175 1 0.996525
1.00344 1.00025 0.988866
1.00166 0.999952 0.99501
1.00135 0.999787 0.993761
1.00523 0.994953 0.991348
1.00529 0.99496 0.991296
1.00525 0.994949 0.991247
1.00531 0.996494 0.989725
1.0053 0.994948 0.991164
1.00525 0.994939 0.991178
1.00522 0.999154 0.987104
1.00532 0.996871 0.989269
1.00528 0.995255 0.990756
1.00334 0.999985 0.989191
1.00529 0.999335 0.986785
1.00533 0.997397 0.988648
1.00178 1.00003 0.996646
1.00334 0.999977 0.989183
1.00529 0.999657 0.986337
1.00166 1.00042 0.996622
1.00328 1.00024 0.988977
1.00151 1.00096 0.996479
1.00528 0.995051 0.991242
1.00525 0.994959 0.991337
1.00528 0.994947 0.991247
1.00531 0.996399 0.98997
1.00528 0.995042 0.991317
1.00525 0.994955 0.991366
1.00528 0.995052 0.991318
1.00532 0.996399 0.989981
1.00506 0.998652 0.98806
1.00532 0.996372 0.989879
1.00517 0.999022 0.987437
1.00309 1.00005 0.989579
1.00521 0.999419 0.986898
1.00317 1.00021 0.989294
1.00165 1.00003 0.996549
1.00327 1.00028 0.989074
1.00171 1.00002 0.996525
1.00176 0.999933 0.993165
1.00527 0.995103 0.991214
1.00523 0.994951 0.991285
1.00531 0.99633 0.98996
1.00528 0.994961 0.991299
1.00524 0.99495 0.991254
1.0052 0.999508 0.98679
1.00532 0.996516 0.989728
1.0053 0.994944 0.991187
1.00332 1.00009 0.989157
1.00522 0.999384 0.986857
1.00532 0.997303 0.988883
1.00182 0.999909 0.996582
1.00335 0.999991 0.989184
1.00528 0.999278 0.986825
1.00179 1.00007 0.996651
1.00336 0.99995 0.989172
1.00169 1.00044 0.996589
1.00531 0.996499 0.989855
1.00528 0.995084 0.991263
1.00525 0.994958 0.991352
1.005 0.998619 0.988167
1.00531 0.996443 0.989973
1.00528 0.995091 0.991295
1.00532 0.996419 0.989991
1.00509 0.998622 0.988022
1.00297 0.999937 0.98991
1.00521 0.999244 0.987069
1.00309 1.00004 0.989589
1.00157 1.00002 0.996616
1.00319 1.0002 0.989299
1.00161 1.00005 0.996578
1.00169 1.00004 0.996537
1.00531 0.996299 0.990074
1.00527 0.995038 0.991274
1.00524 0.994948 0.991221
1.00519 0.999361 0.986999
1.00531 0.996347 0.989964
1.00528 0.994961 0.991303
1.00325 1.00013 0.989251
1.00519 0.999533 0.986784
1.00532 0.996547 0.989731
1.00178 0.999941 0.996527
1.00331 1.00011 0.989156
1.00522 0.999605 0.98661
1.00183 0.999931 0.996608
1.00336 1 0.989176
1.00183 1.00008 0.996647
1.00502 0.999117 0.987543
1.00531 0.996302 0.990118
1.00528 0.995117 0.991284
1.00288 0.999856 0.990174
1.00501 0.998593 0.988157
1.00531 0.996481 0.989976
1.00511 0.998577 0.987984
1.00298 0.999916 0.989923
1.00147 1.00001 0.996682
1.00309 1.00003 0.989599
1.00153 1.00003 0.996635
1.00156 1.00007 0.996602
1.00507 0.999271 0.987301
1.00531 0.996226 0.990177
1.00527 0.994961 0.991336
1.00328 1.00005 0.990963
1.00514 0.999407 0.987014
1.00532 0.996362 0.989968
1.00168 0.999994 0.996546
1.00324 1.00016 0.989254
1.00518 0.999558 0.986782
1.00181 0.999941 0.996548
1.0033 1.00014 0.989152
1.00186 0.99994 0.99663
1.00298 0.999845 0.990083
1.00501 0.998896 0.987806
1.00531 0.996104 0.990381
1.00135 0.999981 0.996777
1.00287 0.999846 0.99017
1.00503 0.998572 0.988148
1.00297 0.999896 0.989932
1.00142 1 0.996717
1.0015 1.00004 0.996661
1.00319 0.999962 0.991232
1.00507 0.999263 0.987311
1.00531 0.996164 0.99028
1.00103 1.00002 0.997206
1.00311 1.00008 0.989528
1.0051 0.999452 0.987025
1.0017 0.99999 0.996542
1.00322 1.00019 0.989254
1.00183 0.999939 0.996569
1.00132 0.999933 0.993866
1.00301 0.999861 0.990778
1.00501 0.998673 0.988067
1.00136 0.999981 0.996791
1.00288 0.99984 0.990175
1.00142 0.999993 0.996746
1.0008 1.00002 0.99432
1.00309 0.999937 0.990552
1.00504 0.999258 0.987319
1.00127 1.00002 0.99536
1.00307 1.00012 0.989559
1.00175 0.999981 0.996544
1.00134 0.99997 0.996791
1.00286 0.999859 0.990177
1.00132 0.999979 0.996794
1.00111 0.99997 0.995556
1.00297 0.999927 0.989942
1.0016 1.00001 0.996588
1.00137 0.999976 0.996787
1.00144 0.999987 0.996698

TENSORS stress float
0.00243556 -0.000171436 0.000284024
-0.000171436 0.00122366 -5.06237e-05
0.000284024 -5.06237e-05 0.00119653
0.00752392 0.000113181 0.000338911
0.000113181 0.00447626 4.0818e-05
0.000338911 4.0818e-05 0.00448775
0.00204652 -0.000101682 0.000116002
-0.000101682 0.000971488 -1.96497e-05
0.000116002 -1.96497e-05 0.000931241
0.00233447 -9.58216e-05 0.000270159
-9.58216e-05 0.00113774 -2.88075e-05
0.000270159 -2.88075e-05 0.00112106
0.00244911 -0.000150293 0.000277646
-0.000150293 0.00122183 -4.45385e-05
0.000277646 -4.45385e-05 0.0011984
0.00243856 -0.000177046 0.000295365
-0.000177046 0.00122727 -5.26274e-05
0.000295365 -5.26274e-05 0.00120018
0.00198741 -0.000178801 5.69092e-05
-0.000178801 0.000813453 -1.51371e-05
5.69092e-05 -1.51371e-05 0.0006837
0.00759561 0.000106659 -8.59999e-06
0.000106659 0.00451283 -2.42365e-06
-8.59999e-06 -2.42365e-06 0.00452901
0.0069012 0.000248569 0.000167721
0.000248569 0.00408469 1.80901e-05
0.000167721 1.80901e-05 0.00405451
0.00698128 3.05378e-05 0.000104099
3.05378e-05 0.00410647 6.23393e-06
0.000104099 6.23393e-06 0.00408708
0.00206337 0.000234043 0.000314238
0.000234043 0.000999826 4.46402e-05
0.000314238 4.46402e-05 0.000983467
0.000257187 0.000268799 2.7043e-05
0.000268799 -0.000236106 2.12227e-05
2.7043e-05 2.12227e-05 -0.000395032
0.0018962 -3.26893e-05 0.000264442
-3.26893e-05 0.00085521 4.47671e-06
0.000264442 4.47671e-06 0.000858586
0.00163541 4.72925e-06 7.26677e-05
4.72925e-06 0.000712114 2.55446e-06
7.26677e-05 2.55446e-06 0.000662287
0.00174111 -0.000100575 -6.68949e-05
-0.000100575 0.000789114 1.22308e-05
-6.68949e-05 1.22308e-05 0.000728184
0.00197552 -9.43545e-05 8.71323e-05
-9.43545e-05 0.000926877 -5.63106e-06
8.71323e-05 -5.63106e-06 0.000889915
0.00206885 -9.14813e-05 0.00012633
-9.14813e-05 0.000990558 -2.16566e-05
0.00012633 -2.16566e-05 0.000946942
0.00204315 -0.000106331 0.000103862
-0.000106331 0.000964871 -1.49267e-05
0.000103862 -1.49267e-05 0.000926997
0.00209583 -0.000215766 -4.42599e-05
-0.000215766 0.000882543 7.06489e-06
-4.42599e-05 7.06489e-06 0.00076199
0.00644215 -0.00015819 0.000346996
-0.00015819 0.00380013 -1.63652e-05
0.000346996 -1.63652e-05 0.00382304
0.00224149 -7.17633e-05 0.000266815
-7.17633e-05 0.00107847 -2.12921e-05
0.000266815 -2.12921e-05 0.00106495
0.0024327 -0.000124009 0.000274836
-0.000124009 0.00120299 -3.68946e-05
0.000274836 -3.68946e-05 0.00118344
0.00193205 -0.000152439 7.39617e-05
-0.000152439 0.000794363 -1.16584e-05
7.39617e-05 -1.16584e-05 0.00068825
0.00199285 -0.00017803 6.49859e-05
-0.00017803 0.000814431 -1.48017e-05
6.49859e-05 -1.48017e-05 0.00069512
0.00247619 -0.000159769 0.000304662
-0.000159769 0.00124296 -4.97839e-05
0.000304662 -4.97839e-05 0.00121941
0.00199681 -0.000180954 5.17982e-05
-0.000180954 0.000837396 -1.56489e-05
5.17982e-05 -1.56489e-05 0.000692741
0.00208559 -0.000387938 1.94057e-05
-0.000387938 0.000600957 -7.77885e-06
1.94057e-05 -7.77885e-06 0.000351209
0.00754426 9.50109e-05 -0.000350737
9.50109e-05 0.00446924 -3.21913e-05
-0.000350737 -3.21913e-05 0.00449063
0.00453669 0.000182081 -0.000157799
0.000182081 0.00256377 -1.88109e-05
-0.000157799 -1.88109e-05 0.00254016
0.00456763 0.000108244 -0.000161621
0.000108244 0.00258742 -1.80143e-05
-0.000161621 -1.80143e-05 0.00256617
0.00762253 3.57683e-05 -3.38121e-06
3.57683e-05 0.00453692 -1.20988e-06
-3.38121e-06 -1.20988e-06 0.0045506
0.000312389 0.000256404 -7.01576e-07
0.000256404 -0.000197965 -1.38776e-06
-7.01576e-07 -1.38776e-06 -0.000357018
0.00197617 7.45479e-05 0.000273672
7.45479e-05 0.000905101 2.71981e-05
0.000273672 2.71981e-05 0.000894313
0.00212763 0.000167241 0.000283924
0.000167241 0.00103501 4.23124e-05
0.000283924 4.23124e-05 0.00101135
0.00291883 0.000236333 0.00016804
0.000236333 0.00139871 2.58834e-05
0.00016804 2.58834e-05 0.00130555
0.00668663 -0.000251062 3.45763e-05
-0.000251062 0.00399831 3.81102e-06
3.45763e-05 3.81102e-06 0.0039511
0.00303164 0.000321032 0.000178175
0.000321032 0.00152095 3.26155e-05
0.000178175 3.26155e-05 0.00140656
0.000300372 0.000248353 2.56113e-05
0.000248353 -0.000198947 2.95757e-05
2.56113e-05 2.95757e-05 -0.000362171
0.000982274 0.000343542 2.33901e-05
0.000343542 1.6455e-05 7.43669e-06
2.33901e-05 7.43669e-06 -0.000256275
0.00544581 -0.0001208 0.000203282
-0.0001208 0.00324119 2.45224e-05
0.000203282 2.45224e-05 0.00323177
0.00646206 8.79146e-05 3.23889e-06
8.79146e-05 0.00379627 -2.07227e-06
3.23889e-06 -2.07227e-06 0.0038279
0.00422823 9.86995e-05 -0.000132114
9.86995e-05 0.00236483 -6.29152e-06
-0.000132114 -6.29152e-06 0.00235402
0.00627434 5.73635e-05 0.000337268
5.73635e-05 0.00368024 4.78631e-06
0.000337268 4.78631e-06 0.00371265
0.00155408 9.20955e-05 7.49444e-05
9.20955e-05 0.000663945 5.20824e-06
7.49444e-05 5.20824e-06 0.000618344
0.000449688 1.30102e-05 1.42563e-05
1.30102e-05 -0.000170448 1.63778e-06
1.42563e-05 1.63778e-06 -0.000263378
0.00663602 0.000244093 0.000195108
0.000244093 0.00393821 1.95368e-05
0.000195108 1.95368e-05 0.00391233
0.00290475 8.47053e-05 0.000155993
8.47053e-05 0.00138229 1.08317e-05
0.000155993 1.08317e-05 0.00131989
0.00159292 -9.47458e-05 -8.71886e-05
-9.47458e-05 0.000701689 1.14851e-05
-8.71886e-05 1.14851e-05 0.000643914
0.00164759 -0.000124578 -8.00998e-05
-0.000124578 0.000738489 1.46528e-05
-8.00998e-05 1.46528e-05 0.000674956
0.00180558 -6.11006e-05 -5.46835e-05
-6.11006e-05 0.000823435 1.00548e-05
-5.46835e-05 1.00548e-05 0.000763337
0.00216511 -0.000218357 -0.000153064
-0.000218357 0.000917407 2.92961e-05
-0.000153064 2.92961e-05 0.0008098
0.00404524 -3.18259e-05 -0.000134635
-3.18259e-05 0.00225987 -1.14048e-06
-0.000134635 -1.14048e-06 0.00224953
0.00194624 -7.48535e-05 9.19795e-05
-7.48535e-05 0.000904786 -4.58307e-06
9.19795e-05 -4.58307e-06 0.000872219
0.00219376 -6.77888e-05 0.000132979
-6.77888e-05 0.00106798 -2.03787e-05
0.000132979 -2.03787e-05 0.00102226
0.00202259 -0.000100882 9.40068e-05
-0.000100882 0.000952217 -9.68684e-06
9.40068e-05 -9.68684e-06 0.000915114
0.00201415 -0.000130278 -3.58326e-05
-0.000130278 0.000834812 2.86375e-06
-3.58326e-05 2.86375e-06 0.000742032
0.00210022 -0.000226531 -5.11454e-05
-0.000226531 0.000901022 8.1493e-06
-5.11454e-05 8.1493e-06 0.000768224
0.00208368 -0.000193921 -3.89077e-05
-0.000193921 0.000870752 5.15229e-06
-3.89077e-05 5.15229e-06 0.000760853
0.00216732 -0.000394491 -1.0382e-05
-0.000394491 0.000651559 2.76764e-06
-1.0382e-05 2.76764e-06 0.000402264
0.00624848 -7.2535e-06 0.000332883
-7.2535e-06 0.00366182 -3.57982e-06
0.000332883 -3.57982e-06 0.00369537
0.00219955 -4.66241e-05 0.000263767
-4.66241e-05 0.00105411 -1.44855e-05
0.000263767 -1.44855e-05 0.00104574
0.00246667 -1.84378e-05 5.67471e-05
-1.84378e-05 0.00113725 -6.62296e-07
5.67471e-05 -6.62296e-07 0.00106492
0.00190623 -0.000123197 6.73668e-05
-0.000123197 0.000782494 -7.56183e-06
6.73668e-05 -7.56183e-06 0.000686388
0.00197457 -0.00016725 7.11643e-05
-0.00016725 0.00080861 -1.37965e-05
7.11643e-05 -1.37965e-05 0.000696163
0.00200066 -0.000248472 5.15506e-06
-0.000248472 0.000464343 -2.22973e-06
5.15506e-06 -2.22973e-06 0.000284727
0.0020034 -0.000343156 1.57569e-05
-0.000343156 0.000508112 -5.30795e-06
1.57569e-05 -5.30795e-06 0.000289068
0.00188857 -0.000120811 0.000277889
-0.000120811 0.000869101 -4.20555e-05
0.000277889 -4.20555e-05 0.000843935
0.00216969 -0.000154104 4.53823e-05
-0.000154104 0.000973034 -1.40944e-05
4.53823e-05 -1.40944e-05 0.000821799
0.00206681 -0.000433679 2.36392e-05
-0.000433679 0.000632588 -8.60357e-06
2.36392e-05 -8.60357e-06 0.000350274
0.00191469 -0.000518275 6.97415e-06
-0.000518275 0.000247261 4.86219e-07
6.97415e-06 4.86219e-07 -4.68344e-05
0.00735101 0.000304007 -0.000383803
0.000304007 0.00436808 -4.63957e-05
-0.000383803 -4.63957e-05 0.00437604
0.00741704 6.23265e-07 -0.000309155
6.23265e-07 0.00440882 -2.56493e-05
-0.000309155 -2.56493e-05 0.00442354
0.00741893 0.000168542 -0.000358286
0.000168542 0.00439006 -3.70657e-05
-0.000358286 -3.70657e-05 0.00441133
0.000426118 0.000253215 -2.6842e-05
0.000253215 -0.000120244 -2.11198e-05
-2.6842e-05 -2.11198e-05 -0.000282466
0.00714527 0.000261718 -1.79835e-06
0.000261718 0.00423094 -2.55637e-06
-1.79835e-06 -2.55637e-06 0.00424527
0.00735918 0.000262774 -8.40774e-06
0.000262774 0.00436375 -3.47179e-06
-8.40774e-06 -3.47179e-06 0.00437477
0.000347384 0.000150877 3.13713e-07
0.000150877 -0.000247819 -2.46966e-07
3.13713e-07 -2.46966e-07 -0.000377098
0.00411893 -6.02586e-05 -0.000134936
-6.02586e-05 0.00234622 -7.54205e-06
-0.000134936 -7.54205e-06 0.00231496
0.000299827 0.000226567 8.67091e-07
0.000226567 -0.000222152 -4.17553e-07
8.67091e-07 -4.17553e-07 -0.000373833
0.00189528 0.000268184 7.02425e-05
0.000268184 0.000822393 4.44161e-06
7.02425e-05 4.44161e-06 0.000687066
0.000977632 0.00034373 1.62819e-06
0.00034373 1.21466e-05 1.2683e-07
1.62819e-06 1.2683e-07 -0.000259758
0.00612121 -0.000109643 0.000237581
-0.000109643 0.0036605 2.94044e-05
0.000237581 2.94044e-05 0.00365025
0.00054607 0.000112518 2.37767e-05
0.000112518 1.0042e-05 1.50646e-05
2.37767e-05 1.50646e-05 -7.8103e-05
0.000448969 0.00011782 1.43935e-05
0.00011782 -0.000198136 1.17388e-05
1.43935e-05 1.17388e-05 -0.000318934
0.000456096 0.000181529 1.90107e-05
0.000181529 -0.000165579 1.98043e-05
1.90107e-05 1.98043e-05 -0.000304094
0.00134145 0.000316622 1.48612e-05
0.000316622 3.96377e-05 5.97764e-06
1.48612e-05 5.97764e-06 -0.000188955
0.00329158 0.000271849 0.000166393
0.000271849 0.0017268 2.55697e-05
0.000166393 2.55697e-05 0.00163154
0.001197 0.000365584 2.46526e-05
0.000365584 7.96872e-05 8.58532e-06
2.46526e-05 8.58532e-06 -0.000188096
0.000793879 0.000316323 1.72368e-05
0.000316323 -2.41879e-06 6.65084e-06
1.72368e-05 6.65084e-06 -0.000273852
0.00157225 0.000563138 9.53907e-06
0.000563138 0.000230021 -2.67086e-06
9.53907e-06 -2.67086e-06 -0.000139371
0.00445456 -0.000138146 0.000137033
-0.000138146 0.00258726 1.2048e-05
0.000137033 1.2048e-05 0.00258
0.00495876 -0.000166725 1.97204e-05
-0.000166725 0.00292499 8.56211e-07
1.97204e-05 8.56211e-07 0.00290868
0.00691897 7.33718e-05 -0.000357088
7.33718e-05 0.00407033 -1.91208e-05
-0.000357088 -1.91208e-05 0.00409999
0.00656205 7.95434e-05 -0.00035098
7.95434e-05 0.00385528 -1.17014e-05
-0.00035098 -1.17014e-05 0.00388805
0.00637376 8.36565e-05 -3.21732e-08
8.36565e-05 0.00374794 -4.20508e-06
-3.21732e-08 -4.20508e-06 0.00377754
0.00410193 4.00709e-05 -0.000144231
4.00709e-05 0.00228394 -8.20435e-06
-0.000144231 -8.20435e-06 0.00227885
0.00157905 4.13478e-05 6.90165e-05
4.13478e-05 0.000551611 2.07686e-06
6.90165e-05 2.07686e-06 0.000478546
0.00440741 0.000160806 -0.00013525
0.000160806 0.00248467 -8.35938e-06
-0.00013525 -8.35938e-06 0.00246547
0.00164081 9.96827e-05 6.91621e-05
9.96827e-05 0.000577964 3.76603e-06
6.91621e-05 3.76603e-06 0.000491818
0.00630097 0.000114057 0.000339371
0.000114057 0.0037105 7.39728e-06
0.000339371 7.39728e-06 0.00373543
0.000339467 1.03184e-05 1.76664e-05
1.03184e-05 -0.000234669 9.15839e-07
1.76664e-05 9.15839e-07 -0.000323062
0.00288605 4.61319e-05 0.000155441
4.61319e-05 0.00137738 7.14735e-06
0.000155441 7.14735e-06 0.00132179
0.00115891 7.94975e-05 1.0212e-05
7.94975e-05 -5.57256e-05 4.34101e-07
1.0212e-05 4.34101e-07 -0.000191948
0.00282691 0.000135018 0.00016102
0.000135018 0.0013271 1.45193e-05
0.00016102 1.45193e-05 0.00125609
0.00127731 0.000164278 5.16247e-06
0.000164278 -4.11616e-05 1.43383e-06
5.16247e-06 1.43383e-06 -0.000201207
0.00192866 3.96527e-05 -0.00026287
3.96527e-05 0.000874405 3.55483e-06
-0.00026287 3.55483e-06 0.000880617
0.0015931 -2.5541e-05 -7.40204e-05
-2.5541e-05 0.000691956 3.55634e-06
-7.40204e-05 3.55634e-06 0.000641082
0.00184974 -2.85226e-05 -4.86607e-05
-2.85226e-05 0.000848239 8.87581e-06
-4.86607e-05 8.87581e-06 0.00078638
0.00159694 -0.000112743 -8.8527e-05
-0.000112743 0.000705899 1.42186e-05
-8.8527e-05 1.42186e-05 0.000645321
0.00212481 -0.000107992 -0.000140698
-0.000107992 0.000893646 1.39304e-05
-0.000140698 1.39304e-05 0.000814279
0.00218367 -0.000179584 -0.000147813
-0.000179584 0.000920986 2.46137e-05
-0.000147813 2.46137e-05 0.000825831
0.00218167 -0.000247473 -0.000159649
-0.000247473 0.00095027 3.15863e-05
-0.000159649 3.15863e-05 0.000828635
0.00224912 -0.000401537 -3.65274e-05
-0.000401537 0.000702926 1.21935e-05
-3.65274e-05 1.21935e-05 0.000454008
0.0063419 -0.000115503 2.56339e-06
-0.000115503 0.0037353 -2.05134e-06
2.56339e-06 -2.05134e-06 0.0037604
0.00185787 2.10613e-05 9.97074e-05
2.10613e-05 0.000839715 -5.35396e-06
9.97074e-05 -5.35396e-06 0.000817726
0.00118342 -1.58587e-05 -7.13478e-05
-1.58587e-05 0.000306958 2.562e-06
-7.13478e-05 2.562e-06 0.000234182
0.0019726 -8.68057e-05 -3.8741e-05
-8.68057e-05 0.000815752 3.48211e-06
-3.8741e-05 3.48211e-06 0.000731348
0.00497535 -8.97923e-05 0.000293062
-8.97923e-05 0.00284754 -2.502e-05
0.000293062 -2.502e-05 0.00284162
0.00276105 -0.000232082 -4.97769e-05
-0.000232082 0.00134068 5.39414e-06
-4.97769e-05 5.39414e-06 0.00120652
0.00206351 -0.000163398 -3.61172e-05
-0.000163398 0.000858487 3.72908e-06
-3.61172e-05 3.72908e-06 0.000757781
0.00205415 -0.000249084 -9.13777e-06
-0.000249084 0.000495132 1.79429e-06
-9.13777e-06 1.79429e-06 0.00032032
0.00217986 -0.000445784 -9.21767e-06
-0.000445784 0.000710874 2.71045e-06
-9.21767e-06 2.71045e-06 0.000427266
0.00208447 -0.000346961 -9.9385e-06
-0.000346961 0.000560013 2.69337e-06
-9.9385e-06 2.69337e-06 0.000338758
0.00194189 -0.000520069 9.30001e-07
-0.000520069 0.00026635 -2.49048e-07
9.30001e-07 -2.49048e-07 -2.74897e-05
0.000364786 7.44339e-06 1.84802e-05
7.44339e-06 -0.000220936 -1.31132e-07
1.84802e-05 -1.31132e-07 -0.000305483
0.00183025 -1.44291e-05 5.93223e-05
-1.44291e-05 0.000724788 -2.30386e-06
5.93223e-05 -2.30386e-06 0.000643796
0.00195795 -8.62546e-05 7.55003e-06
-8.62546e-05 0.000467293 1.17371e-07
7.55003e-06 1.17371e-07 0.000348783
0.00204523 -0.000197256 5.48402e-06
-0.000197256 0.000501752 -4.11439e-07
5.48402e-06 -4.11439e-07 0.000349768
0.00203415 -0.000299396 1.04195e-05
-0.000299396 0.000496143 -3.26419e-06
1.04195e-05 -3.26419e-06 0.000302342
0.00208941 -0.000356044 -3.21098e-07
-0.000356044 0.000201031 -3.56692e-08
-3.21098e-07 -3.56692e-08 2.26045e-05
0.00699691 5.16475e-05 0.000263955
5.16475e-05 0.00416661 -2.28927e-05
0.000263955 -2.28927e-05 0.00417049
0.00186015 -0.000473246 5.97364e-06
-0.000473246 0.000153044 3.73812e-07
5.97364e-06 3.73812e-07 -0.000102498
0.00025192 -0.000216973 2.0791e-05
-0.000216973 -0.00025555 -2.47424e-05
2.0791e-05 -2.47424e-05 -0.000404197
0.00104504 -0.000369056 2.31991e-05
-0.000369056 5.87592e-05 -1.0465e-05
2.31991e-05 -1.0465e-05 -0.00023601
0.00204616 -0.000584005 8.79343e-06
-0.000584005 0.000398526 7.23273e-07
8.79343e-06 7.23273e-07 5.44228e-05
0.00203142 -0.000586486 2.4444e-06
-0.000586486 0.000217563 4.13684e-06
2.4444e-06 4.13684e-06 -5.50796e-05
0.00042555 -0.000177047 2.31923e-05
-0.000177047 -9.46185e-05 -2.01454e-05
2.31923e-05 -2.01454e-05 -0.000216274
0.00067909 -0.000156359 -9.06514e-07
-0.000156359 0.000118667 -2.60335e-06
-9.06514e-07 -2.60335e-06 -0.000141983
0.00725997 0.000288161 -0.000388323
0.000288161 0.00430998 -4.2766e-05
-0.000388323 -4.2766e-05 0.00432093
0.00738382 0.000254044 -0.000371611
0.000254044 0.00437779 -4.35365e-05
-0.000371611 -4.35365e-05 0.0043924
0.000316672 0.000149227 -1.78217e-05
0.000149227 -0.000268703 -1.44546e-05
-1.78217e-05 -1.44546e-05 -0.000398638
0.0066254 -7.93097e-05 -0.000250088
-7.93097e-05 0.00394287 -1.99221e-05
-0.000250088 -1.99221e-05 0.00394694
0.000187769 0.000215877 -2.19008e-05
0.000215877 -0.000267312 -2.3172e-05
-2.19008e-05 -2.3172e-05 -0.000413509
0.000276139 0.000213043 -2.11854e-05
0.000213043 -0.000236179 -2.00416e-05
-2.11854e-05 -2.00416e-05 -0.000387866
0.00102729 0.000345861 -2.53199e-05
0.000345861 4.08618e-05 -9.27049e-06
-2.53199e-05 -9.27049e-06 -0.000229961
0.00600124 -0.00010453 -1.12252e-05
-0.00010453 0.00357647 2.06994e-06
-1.12252e-05 2.06994e-06 0.00357154
0.000595003 9.21344e-05 6.84996e-07
9.21344e-05 4.46739e-05 5.366e-07
6.84996e-07 5.366e-07 -4.06067e-05
0.00171101 0.000164046 7.2518e-05
0.000164046 0.000611672 6.68901e-06
7.2518e-05 6.68901e-06 0.000507913
0.00169675 0.000231904 7.53392e-05
0.000231904 0.000636044 8.10482e-06
7.53392e-05 8.10482e-06 0.000513165
0.00130905 0.000315088 -7.83812e-08
0.000315088 2.44532e-05 -3.52504e-07
-7.83812e-08 -3.52504e-07 -0.000205197
0.000383452 0.000197661 -9.63876e-07
0.000197661 -0.00012418 -1.95923e-07
-9.63876e-07 -1.95923e-07 -0.00025181
0.00115063 0.000361507 9.12395e-07
0.000361507 4.97214e-05 1.77391e-07
9.12395e-07 1.77391e-07 -0.000217864
0.000789097 0.000304569 1.09073e-06
0.000304569 -3.3758e-06 -8.29937e-07
1.09073e-06 -8.29937e-07 -0.000268685
0.00169041 0.000582073 -1.64491e-06
0.000582073 0.000293544 -5.74484e-07
-1.64491e-06 -5.74484e-07 -7.79255e-05
0.000432696 0.000164989 2.08214e-05
0.000164989 -7.66782e-05 1.86775e-05
2.08214e-05 1.86775e-05 -0.000188427
0.000662561 5.58319e-05 1.47356e-05
5.58319e-05 0.000107226 1.40249e-05
1.47356e-05 1.40249e-05 3.51375e-05
0.00140104 0.000286554 3.02903e-06
0.000286554 0.000600639 3.12562e-06
3.02903e-06 3.12562e-06 0.000362206
0.00136078 0.000272761 1.06686e-05
0.000272761 1.55708e-05 4.16566e-06
1.06686e-05 4.16566e-06 -0.000189129
0.00130279 0.000350569 2.03282e-05
0.000350569 6.84893e-05 7.72182e-06
2.03282e-05 7.72182e-06 -0.000182298
0.00208058 0.000505191 4.79094e-06
0.000505191 0.000268776 -4.12914e-07
4.79094e-06 -4.12914e-07 8.17044e-06
0.000568803 0.000257329 1.11415e-05
0.000257329 -4.08239e-05 6.15099e-06
1.11415e-05 6.15099e-06 -0.000295662
0.00207872 0.000611603 5.48685e-06
0.000611603 0.000431727 -1.90806e-06
5.48685e-06 -1.90806e-06 8.91923e-05
0.00154242 0.000564679 4.57148e-06
0.000564679 0.000352701 -4.09868e-06
4.57148e-06 -4.09868e-06 -4.81597e-05
0.00167692 0.000636629 -6.42268e-06
0.000636629 0.000187273 -6.31028e-06
-6.42268e-06 -6.31028e-06 -0.000186429
0.00395671 -0.000142089 9.50374e-05
-0.000142089 0.00225851 6.80738e-06
9.50374e-05 6.80738e-06 0.00225082
0.00434662 -0.000180796 2.00071e-05
-0.000180796 0.00252693 -1.44903e-06
2.00071e-05 -1.44903e-06 0.00250826
0.00481205 -0.000224947 -0.000107939
-0.000224947 0.00284443 -1.07768e-05
-0.000107939 -1.07768e-05 0.00281282
0.000521765 -0.000165234 2.29616e-05
-0.000165234 -1.09411e-05 -1.70923e-05
2.29616e-05 -1.70923e-05 -0.000116744
0.00622575 0.000102255 0.000218337
0.000102255 0.00371182 -2.19312e-05
0.000218337 -2.19312e-05 0.00370483
0.0071294 0.000236453 -0.000384468
0.000236453 0.00421996 -3.4883e-05
-0.000384468 -3.4883e-05 0.00423876
0.00667538 0.000106077 -0.000352325
0.000106077 0.00392366 -1.65052e-05
-0.000352325 -1.65052e-05 0.00395399
0.000335929 0.000104068 -1.76795e-05
0.000104068 -0.000254896 -6.49646e-06
-1.76795e-05 -6.49646e-06 -0.000360832
0.000315273 4.45409e-05 -1.79509e-05
4.45409e-05 -0.000250628 -2.67451e-06
-1.79509e-05 -2.67451e-06 -0.000344458
0.00632818 -3.34783e-06 -0.000336682
-3.34783e-06 0.00370986 -3.20678e-06
-0.000336682 -3.20678e-06 0.00374378
0.00624581 2.08892e-07 2.78499e-08
2.08892e-07 0.00365955 -1.21887e-06
2.78499e-08 -1.21887e-06 0.00369352
0.000318429 1.00248e-06 -1.87664e-08
1.00248e-06 -0.000250821 2.42492e-07
-1.87664e-08 2.42492e-07 -0.000337509
0.00156304 4.45672e-05 6.91459e-05
4.45672e-05 0.000534492 3.30773e-06
6.91459e-05 3.30773e-06 0.000457711
0.00111949 8.23591e-05 -4.87025e-08
8.23591e-05 -8.56555e-05 -1.82851e-07
-4.87025e-08 -1.82851e-07 -0.000222898
0.000368873 9.58605e-05 -6.93901e-07
9.58605e-05 -0.000241577 -3.42634e-07
-6.93901e-07 -3.42634e-07 -0.000355142
0.00125519 0.00016642 -1.91735e-07
0.00016642 -4.84353e-05 -4.92143e-08
-1.91735e-07 -4.92143e-08 -0.000209952
0.000308813 -3.30125e-05 1.82518e-05
-3.30125e-05 -0.000257223 -6.32631e-07
1.82518e-05 -6.32631e-07 -0.000340779
0.00108497 3.50391e-05 1.03923e-05
3.50391e-05 -9.01593e-05 1.36983e-07
1.03923e-05 1.36983e-07 -0.000219955
0.00120242 0.000122665 7.45765e-06
0.000122665 -5.23468e-05 1.20575e-06
7.45765e-06 1.20575e-06 -0.000198543
0.00202421 0.000131034 1.82962e-06
0.000131034 7.73586e-05 3.0288e-07
1.82962e-06 3.0288e-07 -7.41528e-06
0.00134389 0.000218693 6.93922e-06
0.000218693 -1.00147e-05 2.45571e-06
6.93922e-06 2.45571e-06 -0.000190671
0.00212941 0.000288675 1.71577e-06
0.000288675 0.000150441 -5.01897e-07
1.71577e-06 -5.01897e-07 1.64651e-05
0.0062666 -7.74924e-05 -0.000338762
-7.74924e-05 0.00368133 4.44178e-06
-0.000338762 4.44178e-06 0.00371051
0.0014733 -0.000165046 -7.37372e-05
-0.000165046 0.000636812 8.98046e-06
-7.37372e-05 8.98046e-06 0.000579118
-0.000226641 -9.42943e-06 -1.11599e-05
-9.42943e-06 -0.000588554 9.99564e-07
-1.11599e-05 9.99564e-07 -0.000689389
0.00208558 -7.714e-05 -0.000139281
-7.714e-05 0.000880176 9.59396e-06
-0.000139281 9.59396e-06 0.000807012
0.00768315 0.000213743 -5.67633e-05
0.000213743 0.00458409 3.3673e-06
-5.67633e-05 3.3673e-06 0.00453983
0.00306898 -0.000297452 -0.000165202
-0.000297452 0.00154405 3.18467e-05
-0.000165202 3.18467e-05 0.00141851
0.00217162 -0.000143099 -0.00014416
-0.000143099 0.000913867 1.91632e-05
-0.00014416 1.91632e-05 0.000827571
0.00209205 -0.000249304 -2.61954e-05
-0.000249304 0.000515376 4.92795e-06
-2.61954e-05 4.92795e-06 0.000345424
0.00214082 -0.000349278 -3.22193e-05
-0.000349278 0.000594485 1.05345e-05
-3.22193e-05 1.05345e-05 0.000371367
0.00225701 -0.000453861 -3.96484e-05
-0.000453861 0.000767075 1.33129e-05
-3.96484e-05 1.33129e-05 0.00048319
0.0019614 -0.000521035 -5.59295e-06
-0.000521035 0.000280951 -8.0048e-07
-5.59295e-06 -8.0048e-07 -1.24844e-05
0.000313656 2.73884e-06 7.94567e-09
2.73884e-06 -0.00025162 3.96858e-07
7.94567e-09 3.96858e-07 -0.000337151
0.00193678 -9.63119e-05 -3.79195e-05
-9.63119e-05 0.000800957 6.37008e-07
-3.79195e-05 6.37008e-07 0.000721523
0.00162418 -8.2444e-05 -1.24942e-05
-8.2444e-05 0.000253166 7.33995e-07
-1.24942e-05 7.33995e-07 0.000130838
0.0019956 -0.000194035 -1.11502e-05
-0.000194035 0.000463942 1.91033e-06
-1.11502e-05 1.91033e-06 0.000308516
0.00726035 4.89168e-05 3.23221e-06
4.89168e-05 0.00433538 3.49346e-07
3.23221e-06 3.49346e-07 0.00433766
0.00170784 -0.00021606 7.71113e-06
-0.00021606 0.000693969 3.43555e-07
7.71113e-06 3.43555e-07 0.000537996
0.00151481 -0.000397094 -1.20446e-06
-0.000397094 0.000356399 -1.12574e-06
-1.20446e-06 -1.12574e-06 6.30174e-05
0.0020851 -0.000304124 -9.984e-06
-0.000304124 0.000525404 2.68039e-06
-9.984e-06 2.68039e-06 0.000330432
0.00213862 -0.000363635 1.11413e-06
-0.000363635 0.000226669 -6.92104e-07
1.11413e-06 -6.92104e-07 5.4223e-05
0.00203069 -0.000582373 1.51211e-06
-0.000582373 0.000386803 -1.40873e-08
1.51211e-06 -1.40873e-08 4.43806e-05
0.001958 -0.000475739 2.03856e-07
-0.000475739 0.000220488 -1.42951e-07
2.03856e-07 -1.42951e-07 -3.59838e-05
0.00210353 -0.000591296 9.0604e-07
-0.000591296 0.000269137 2.52575e-07
9.0604e-07 2.52575e-07 -4.48784e-06
0.000437687 -0.000192362 1.70915e-06
-0.000192362 -9.33626e-05 2.04377e-07
1.70915e-06 2.04377e-07 -0.000214243
0.000834209 -0.000226844 7.21525e-07
-0.000226844 0.000209764 7.61936e-07
7.21525e-07 7.61936e-07 -5.04617e-05
0.00109182 -4.06006e-05 1.05754e-05
-4.06006e-05 -7.83663e-05 -2.40715e-07
1.05754e-05 -2.40715e-07 -0.000207924
0.0020269 -0.000138162 6.05895e-06
-0.000138162 0.000505942 1.19825e-07
6.05895e-06 1.19825e-07 0.000374291
0.00182648 -0.000141368 2.64176e-06
-0.000141368 -2.55029e-05 -3.62366e-07
2.64176e-06 -3.62366e-07 -0.000128099
0.00212774 -0.000293163 -6.83339e-07
-0.000293163 0.000184915 1.21695e-06
-6.83339e-07 1.21695e-06 5.50771e-05
0.00187792 -0.000422015 2.31334e-07
-0.000422015 0.000107185 6.10327e-07
2.31334e-07 6.10327e-07 -0.000107021
0.00222417 -0.000405929 5.34383e-06
-0.000405929 0.000196866 -1.32878e-06
5.34383e-06 -1.32878e-06 6.06609e-05
0.000203868 -0.000193207 2.06947e-05
-0.000193207 -0.000252847 -2.35778e-05
2.06947e-05 -2.35778e-05 -0.000392786
0.00208072 -0.00053724 2.04457e-06
-0.00053724 0.00019807 2.34414e-06
2.04457e-06 2.34414e-06 -2.47156e-05
0.0010722 -0.000323528 1.57773e-05
-0.000323528 0.000173344 -8.9743e-06
1.57773e-05 -8.9743e-06 -0.000105363
0.00172664 -0.000628721 1.62722e-05
-0.000628721 0.000282309 3.22608e-07
1.62722e-05 3.22608e-07 -0.000121589
0.00234877 -0.000662555 2.18347e-06
-0.000662555 0.000489618 3.42181e-06
2.18347e-06 3.42181e-06 0.000150663
0.0023692 -0.000630157 -9.37172e-07
-0.000630157 0.000403362 4.09831e-06
-9.37172e-07 4.09831e-06 0.000154371
0.000585733 -0.000218873 2.79833e-06
-0.000218873 2.39395e-05 -4.38019e-06
2.79833e-06 -4.38019e-06 -0.000253175
0.00115975 -0.0001833 3.01728e-06
-0.0001833 0.000429635 -2.04179e-06
3.01728e-06 -2.04179e-06 0.000199493
0.00130013 -0.000333747 -2.1388e-06
-0.000333747 0.000513514 -1.272e-06
-2.1388e-06 -1.272e-06 0.000181028
0.000336385 0.000125141 -1.67233e-05
0.000125141 -0.000265744 -1.13046e-05
-1.67233e-05 -1.13046e-05 -0.000388593
0.00545722 -0.000142256 -0.000180116
-0.000142256 0.00323094 -1.43149e-05
-0.000180116 -1.43149e-05 0.00322169
0.000374712 8.17879e-05 -1.80431e-05
8.17879e-05 -9.42393e-05 -1.44472e-05
-1.80431e-05 -1.44472e-05 -0.000173078
0.000297265 0.000181248 -1.96188e-05
0.000181248 -0.000256861 -1.78231e-05
-1.96188e-05 -1.78231e-05 -0.000396723
0.00127521 0.000313929 -1.62355e-05
0.000313929 7.47459e-06 -6.56639e-06
-1.62355e-05 -6.56639e-06 -0.000223335
0.000284461 0.000193716 -2.3139e-05
0.000193716 -0.000194166 -2.17263e-05
-2.3139e-05 -2.17263e-05 -0.000319812
0.000805418 0.000298677 -1.6453e-05
0.000298677 9.54683e-06 -8.89913e-06
-1.6453e-05 -8.89913e-06 -0.000251654
0.00114886 0.000359473 -2.5503e-05
0.000359473 5.19294e-05 -8.96944e-06
-2.5503e-05 -8.96944e-06 -0.000215486
0.00183292 0.000605148 -9.98223e-06
0.000605148 0.000369859 1.64296e-06
-9.98223e-06 1.64296e-06 -4.76416e-06
0.000454051 0.000166181 -3.58019e-06
0.000166181 -7.16118e-05 1.67065e-06
-3.58019e-06 1.67065e-06 -0.000174896
0.00038366 3.07204e-05 1.38811e-06
3.07204e-05 -6.01135e-05 3.51248e-07
1.38811e-06 3.51248e-07 -0.000131693
0.000819063 0.000200511 1.20149e-06
0.000200511 0.000203431 4.00986e-07
1.20149e-06 4.00986e-07 -1.04546e-05
0.00132552 0.000271458 -2.36854e-07
0.000271458 5.50149e-08 -3.28685e-07
-2.36854e-07 -3.28685e-07 -0.000205783
0.00126536 0.00034721 2.0138e-07
0.00034721 4.99763e-05 -3.04946e-07
2.0138e-07 -3.04946e-07 -0.00020109
0.00206135 0.000503565 -3.67368e-07
0.000503565 0.000255272 -1.55576e-07
-3.67368e-07 -1.55576e-07 -5.30799e-06
0.000660474 0.000250208 -5.23529e-07
0.000250208 1.35213e-05 5.73761e-08
-5.23529e-07 5.73761e-08 -0.00023345
0.00206542 0.000606171 -9.90769e-07
0.000606171 0.000423715 -4.7816e-07
-9.90769e-07 -4.7816e-07 8.12632e-05
0.00158648 0.000579323 -4.70751e-07
0.000579323 0.000360652 -1.57504e-06
-4.70751e-07 -1.57504e-06 -4.57812e-05
0.00166471 0.000646347 -1.29125e-06
0.000646347 0.00015726 2.4779e-06
-1.29125e-06 2.4779e-06 -0.000215246
0.000420413 1.26299e-05 5.18926e-06
1.26299e-05 -3.18017e-05 1.29475e-05
5.18926e-06 1.29475e-05 -9.30579e-05
0.00128067 0.000244997 5.45029e-06
0.000244997 0.000472283 2.21271e-06
5.45029e-06 2.21271e-06 0.000226238
0.000973277 0.000135641 4.04335e-06
0.000135641 0.000315321 2.8928e-06
4.04335e-06 2.8928e-06 0.000131061
0.000200967 0.000183881 -2.34332e-06
0.000183881 -0.000167717 3.3385e-06
-2.34332e-06 3.3385e-06 -0.00043967
0.00211138 0.00044349 2.22448e-06
0.00044349 0.000226165 -1.87226e-06
2.22448e-06 -1.87226e-06 1.01181e-05
0.00203698 0.000559856 5.04591e-06
0.000559856 0.000320003 -5.85551e-07
5.04591e-06 -5.85551e-07 1.48802e-05
0.00219746 0.000569831 7.24374e-07
0.000569831 0.000259171 -1.37262e-06
7.24374e-07 -1.37262e-06 1.67387e-05
0.0010573 0.000445407 -1.11018e-06
0.000445407 0.000134528 -2.82601e-06
-1.11018e-06 -2.82601e-06 -0.000223379
0.00243193 0.000712852 -5.80981e-06
0.000712852 0.000558707 -3.48223e-06
-5.80981e-06 -3.48223e-06 0.000218863
0.0020964 0.000743431 -9.86442e-06
0.000743431 0.000571106 -1.10227e-05
-9.86442e-06 -1.10227e-05 0.000106258
0.00209316 0.000689432 -3.18864e-06
0.000689432 0.000325106 -3.20615e-06
-3.18864e-06 -3.20615e-06 -2.88545e-05
0.000602762 7.09475e-05 7.99281e-07
7.09475e-05 0.000116026 6.40774e-06
7.99281e-07 6.40774e-06 1.78038e-05
0.00046867 4.82536e-06 2.48445e-06
4.82536e-06 -9.41623e-06 9.57177e-06
2.48445e-06 9.57177e-06 -5.07573e-05
0.00344084 -0.000128339 6.60673e-05
-0.000128339 0.00191758 5.41646e-06
6.60673e-05 5.41646e-06 0.00191315
0.00380861 -0.000163272 1.09382e-05
-0.000163272 0.00216893 -1.06282e-06
1.09382e-05 -1.06282e-06 0.00215497
0.00420377 -0.000205944 -7.37104e-05
-0.000205944 0.00244093 -6.92971e-06
-7.37104e-05 -6.92971e-06 0.00241455
0.000439648 -0.000167282 2.54265e-05
-0.000167282 -4.53061e-05 -1.64235e-05
2.54265e-05 -1.64235e-05 -0.000135818
0.00559199 0.000131786 0.000180235
0.000131786 0.00332399 -2.01285e-05
0.000180235 -2.01285e-05 0.00331075
0.00049087 -0.000174118 2.37593e-06
-0.000174118 -3.75514e-05 7.89943e-07
2.37593e-06 7.89943e-07 -0.000145529
0.00646366 7.8555e-05 6.23193e-06
7.8555e-05 0.00385639 3.00527e-07
6.23193e-06 3.00527e-07 0.00385257
0.000352603 0.000121155 -1.76045e-05
0.000121155 -0.00025155 -8.88575e-06
-1.76045e-05 -8.88575e-06 -0.00036794
0.00032621 3.66909e-05 -1.64354e-05
3.66909e-05 -0.000253266 -3.62023e-06
-1.64354e-05 -3.62023e-06 -0.000350792
0.00123284 0.000168169 -5.98133e-06
0.000168169 -6.07606e-05 -1.50513e-06
-5.98133e-06 -1.50513e-06 -0.000223721
0.00109357 8.45871e-05 -1.00015e-05
8.45871e-05 -0.000106503 -7.45635e-07
-1.00015e-05 -7.45635e-07 -0.000244554
0.000370544 -7.31588e-06 -1.83694e-05
-7.31588e-06 -0.000220507 -7.17523e-07
-1.83694e-05 -7.17523e-07 -0.000305579
0.00634172 -0.000103062 -0.000345903
-0.000103062 0.00373332 6.22614e-06
-0.000345903 6.22614e-06 0.00376089
0.000359403 -3.2404e-06 7.8284e-08
-3.2404e-06 -0.000226248 -7.25285e-07
7.8284e-08 -7.25285e-07 -0.000309602
0.00108225 4.04595e-05 -6.75456e-08
4.04595e-05 -9.32966e-05 1.11673e-07
-6.75456e-08 1.11673e-07 -0.000223547
0.00118264 0.000124365 -1.41527e-07
0.000124365 -7.03462e-05 8.03419e-08
-1.41527e-07 8.03419e-08 -0.000217708
0.00200403 0.000128836 -6.93875e-08
0.000128836 6.98223e-05 2.07024e-07
-6.93875e-08 2.07024e-07 -1.52471e-05
0.00131489 0.000218752 -3.70957e-07
0.000218752 -2.15584e-05 -2.84166e-07
-3.70957e-07 -2.84166e-07 -0.000203569
0.00207875 0.00028463 -3.99638e-07
0.00028463 0.000121941 7.91124e-08
-3.99638e-07 7.91124e-08 -1.1605e-05
0.00105848 -4.66923e-06 1.03963e-05
-4.66923e-06 -0.000100385 -2.72675e-07
1.03963e-05 -2.72675e-07 -0.000228335
0.00202981 6.44863e-05 3.20067e-06
6.44863e-05 9.63279e-05 2.47267e-07
3.20067e-06 2.47267e-07 1.75435e-05
0.00202025 0.00020137 6.86435e-07
0.00020137 6.36679e-05 8.23926e-08
6.86435e-07 8.23926e-08 -3.87932e-05
0.00220696 0.000156898 5.7412e-06
0.000156898 8.4865e-05 6.34175e-07
5.7412e-06 6.34175e-07 5.44355e-05
0.00215992 0.000373723 2.54958e-06
0.000373723 0.000206508 -7.76118e-07
2.54958e-06 -7.76118e-07 3.3063e-05
0.00209739 0.000309428 4.08201e-06
0.000309428 4.37958e-05 1.10163e-06
4.08201e-06 1.10163e-06 -4.07471e-05
0.000349676 -4.36001e-06 -1.74978e-05
-4.36001e-06 -0.000225384 4.09377e-07
-1.74978e-05 4.09377e-07 -0.000313171
0.00204053 -5.18359e-05 -0.000138613
-5.18359e-05 0.000856429 6.132e-06
-0.000138613 6.132e-06 0.000789476
0.00124594 -7.77718e-05 -1.91373e-05
-7.77718e-05 1.02253e-05 1.30195e-06
-1.91373e-05 1.30195e-06 -0.000116321
0.00192088 -0.000190635 -2.40366e-05
-0.000190635 0.000409593 3.5345e-06
-2.40366e-05 3.5345e-06 0.000250756
0.0075537 1.69931e-05 -0.000313373
1.69931e-05 0.00451416 3.30513e-05
-0.000313373 3.30513e-05 0.00451973
0.00354293 -0.000300793 -0.000182459
-0.000300793 0.00186077 2.92994e-05
-0.000182459 2.92994e-05 0.00173984
0.00178034 -0.000432398 -3.20845e-05
-0.000432398 0.000537512 1.13271e-05
-3.20845e-05 1.13271e-05 0.000239426
0.00212511 -0.000307979 -2.99755e-05
-0.000307979 0.000547309 8.02249e-06
-2.99755e-05 8.02249e-06 0.000351391
0.00219002 -0.000371161 -2.21556e-06
-0.000371161 0.000254186 -1.04041e-06
-2.21556e-06 -1.04041e-06 8.77345e-05
0.00206519 -0.000478766 -3.93551e-06
-0.000478766 0.000295614 1.75546e-07
-3.93551e-06 1.75546e-07 3.81548e-05
0.00203653 -0.000583158 -6.97111e-06
-0.000583158 0.000386625 -1.43562e-06
-6.97111e-06 -1.43562e-06 4.53825e-05
0.00216854 -0.000595887 -9.04027e-07
-0.000595887 0.000315091 -3.42788e-06
-9.04027e-07 -3.42788e-06 4.04899e-05
0.000431559 -0.00020413 -2.30408e-05
-0.00020413 -9.52265e-05 2.08923e-05
-2.30408e-05 2.08923e-05 -0.000221193
0.00054629 -0.000225251 -2.76171e-07
-0.000225251 3.8266e-05 2.56325e-06
-2.76171e-07 2.56325e-06 -0.000227787
0.00114891 -3.61089e-05 5.05697e-07
-3.61089e-05 -4.23677e-05 2.49351e-08
5.05697e-07 2.49351e-08 -0.000166932
0.00200262 -0.000137907 -1.1197e-05
-0.000137907 0.000487853 1.50951e-06
-1.1197e-05 1.50951e-06 0.00035656
0.00190339 -0.00013916 1.61227e-06
-0.00013916 2.34867e-05 -2.10715e-07
1.61227e-06 -2.10715e-07 -7.39171e-05
0.00200745 -0.000290117 -2.35655e-06
-0.000290117 0.000107111 8.76098e-07
-2.35655e-06 8.76098e-07 -3.31159e-05
0.000371923 -0.000216918 5.9505e-07
-0.000216918 -0.000146289 6.36074e-07
5.9505e-07 6.36074e-07 -0.00028783
0.000737711 -0.000318 -1.92671e-06
-0.000318 -3.44336e-05 2.30038e-07
-1.92671e-06 2.30038e-07 -0.000318305
0.00172515 -0.000625935 2.06478e-06
-0.000625935 0.000287027 -1.10243e-07
2.06478e-06 -1.10243e-07 -0.00011823
0.00196378 -0.000424337 -2.53833e-06
-0.000424337 0.000170046 7.61895e-07
-2.53833e-06 7.61895e-07 -4.72895e-05
0.00216713 -0.000404735 1.98677e-06
-0.000404735 0.000150883 -6.12213e-07
1.98677e-06 -6.12213e-07 2.14906e-05
0.00238604 -0.000669274 -4.28605e-07
-0.000669274 0.000509225 -1.06462e-06
-4.28605e-07 -1.06462e-06 0.000172471
0.00210919 -0.000540135 5.04515e-07
-0.000540135 0.000215608 1.39241e-07
5.04515e-07 1.39241e-07 -8.12269e-06
0.00218522 -0.000621263 6.33935e-07
-0.000621263 0.000279189 9.53234e-07
6.33935e-07 9.53234e-07 2.90449e-05
0.000587896 -0.000221848 -1.53919e-07
-0.000221848 3.03871e-05 -9.80961e-07
-1.53919e-07 -9.80961e-07 -0.000249766
0.000823032 -0.000242897 -1.11913e-06
-0.000242897 0.000179087 -1.09803e-06
-1.11913e-06 -1.09803e-06 -0.000123276
0.000682054 -0.000172729 2.41038e-06
-0.000172729 0.000149311 9.02713e-07
2.41038e-06 9.02713e-07 -9.09982e-05
0.0018406 -6.6615e-05 3.09173e-06
-6.6615e-05 -1.17695e-05 -3.32559e-07
3.09173e-06 -3.32559e-07 -0.000104254
0.00198291 -0.000209591 2.79061e-07
-0.000209591 6.96101e-05 4.95439e-07
2.79061e-07 4.95439e-07 -4.12193e-05
0.00204439 -0.000147684 8.00014e-06
-0.000147684 -3.39674e-06 -5.18753e-07
8.00014e-06 -5.18753e-07 -4.96155e-05
0.00217996 -0.000331828 3.10601e-06
-0.000331828 0.000107701 -1.21502e-06
3.10601e-06 -1.21502e-06 2.16969e-05
0.00203289 -0.000481543 1.1718e-06
-0.000481543 0.000112333 1.64923e-06
1.1718e-06 1.64923e-06 -6.17186e-05
0.0022541 -0.000424089 4.02417e-06
-0.000424089 0.00013752 -6.41627e-07
4.02417e-06 -6.41627e-07 5.86605e-05
0.000629041 -0.000255798 9.54815e-06
-0.000255798 -7.5571e-06 -6.34345e-06
9.54815e-06 -6.34345e-06 -0.000272883
0.00214844 -0.000577686 8.27606e-07
-0.000577686 0.000186948 4.66478e-07
8.27606e-07 4.66478e-07 -1.10058e-05
0.00154474 -0.000601472 1.4319e-05
-0.000601472 0.000334289 -1.78307e-06
1.4319e-05 -1.78307e-06 -9.41825e-05
0.00207545 -0.000764484 8.71407e-06
-0.000764484 0.000399361 5.09677e-06
8.71407e-06 5.09677e-06 -3.70443e-05
0.00244289 -0.000692779 4.2489e-06
-0.000692779 0.000513051 4.27089e-06
4.2489e-06 4.27089e-06 0.000194944
0.00244856 -0.000660014 1.84943e-07
-0.000660014 0.000453159 9.91577e-07
1.84943e-07 9.91577e-07 0.000209974
0.000451413 -0.000140298 6.55011e-08
-0.000140298 4.28612e-05 -4.90645e-06
6.55011e-08 -4.90645e-06 -0.000185847
0.00166374 -0.000395131 7.70259e-07
-0.000395131 0.000618649 -3.68359e-06
7.70259e-07 -3.68359e-06 0.000295404
-0.000462514 -0.000137442 7.21094e-07
-0.000137442 -0.000523474 2.1758e-06
7.21094e-07 2.1758e-06 -0.000834411
0.00205633 -0.000494471 -1.22133e-06
-0.000494471 0.000943289 -3.18955e-07
-1.22133e-06 -3.18955e-07 0.000558344
0.00128655 0.000270302 -1.21379e-05
0.000270302 -1.8419e-05 -4.74192e-06
-1.21379e-05 -4.74192e-06 -0.000225431
0.000366627 1.93877e-06 -2.82828e-06
1.93877e-06 -5.74385e-05 -1.54465e-05
-2.82828e-06 -1.54465e-05 -0.000132502
0.000429129 0.000129562 -2.32747e-05
0.000129562 -7.80952e-05 -1.5956e-05
-2.32747e-05 -1.5956e-05 -0.000179616
-4.29406e-05 0.000143394 -5.09605e-06
0.000143394 -0.00032798 4.83287e-07
-5.09605e-06 4.83287e-07 -0.000545371
0.00121165 0.000343259 -2.10493e-05
0.000343259 2.00216e-05 -8.29885e-06
-2.10493e-05 -8.29885e-06 -0.000231354
0.00204094 0.000501576 -4.61668e-06
0.000501576 0.000241541 4.89728e-07
-4.61668e-06 4.89728e-07 -1.89043e-05
0.000451437 0.000216938 -8.28042e-06
0.000216938 -0.000122881 -3.55824e-06
-8.28042e-06 -3.55824e-06 -0.000355438
0.00152678 0.000576016 -7.59491e-06
0.000576016 0.000311101 5.06031e-07
-7.59491e-06 5.06031e-07 -9.47975e-05
0.00205748 0.000601931 -5.21953e-06
0.000601931 0.000416888 1.63759e-06
-5.21953e-06 1.63759e-06 7.41442e-05
0.0016457 0.000650519 5.97738e-06
0.000650519 0.00013327 1.03713e-05
5.97738e-06 1.03713e-05 -0.000236032
0.00041952 -5.76613e-06 -3.89519e-06
-5.76613e-06 -2.44145e-05 8.39262e-07
-3.89519e-06 8.39262e-07 -8.69072e-05
0.000608698 0.000221876 -4.11566e-07
0.000221876 7.012e-05 -1.10988e-06
-4.11566e-07 -1.10988e-06 -0.000181423
0.000566291 0.000120803 2.0299e-06
0.000120803 5.92007e-05 -1.1712e-06
2.0299e-06 -1.1712e-06 -0.00012177
0.000721807 0.000205386 -2.09159e-06
0.000205386 0.000141859 2.20613e-06
-2.09159e-06 2.20613e-06 -0.000124705
0.00209191 0.000441713 -1.74424e-06
0.000441713 0.000212708 -1.3102e-06
-1.74424e-06 -1.3102e-06 -3.24635e-06
0.00199811 0.000557635 -6.01479e-07
0.000557635 0.000293884 -2.69288e-07
-6.01479e-07 -2.69288e-07 -1.14792e-05
0.00216824 0.000565542 1.42386e-07
0.000565542 0.000244875 2.18118e-07
1.42386e-07 2.18118e-07 3.66214e-06
0.00141678 0.000469543 3.2274e-06
0.000469543 0.000380519 4.47822e-08
3.2274e-06 4.47822e-08 2.07315e-05
0.00232179 0.000695754 9.26522e-07
0.000695754 0.000499441 7.41794e-07
9.26522e-07 7.41794e-07 0.000159943
0.00185464 0.00071297 -9.80383e-07
0.00071297 0.000426797 -2.11655e-06
-9.80383e-07 -2.11655e-06 -3.20496e-05
0.0021133 0.000675304 -5.92165e-06
0.000675304 0.000346562 2.50351e-06
-5.92165e-06 2.50351e-06 3.90658e-06
0.000495541 9.72303e-07 3.21587e-06
9.72303e-07 9.46818e-06 1.12683e-05
3.21587e-06 1.12683e-05 -3.9364e-05
0.00114562 9.50947e-05 6.83786e-07
9.50947e-05 0.000447851 7.87407e-06
6.83786e-07 7.87407e-06 0.000286947
0.000719361 0.000301795 -4.76534e-06
0.000301795 4.5401e-05 8.01229e-07
-4.76534e-06 8.01229e-07 -0.000237644
0.00139756 0.000182849 3.27083e-06
0.000182849 0.000636156 -3.23067e-06
3.27083e-06 -3.23067e-06 0.000351058
0.000868962 0.000214374 -1.18833e-06
0.000214374 0.000156173 9.51251e-06
-1.18833e-06 9.51251e-06 -8.7576e-05
0.00221615 0.000498296 5.30082e-07
0.000498296 0.000200581 -2.90445e-06
5.30082e-07 -2.90445e-06 9.87247e-06
0.00217801 0.000640517 -1.60383e-06
0.000640517 0.000322184 -2.09637e-06
-1.60383e-06 -2.09637e-06 2.6528e-05
0.00214851 0.000615761 -3.47031e-06
0.000615761 0.000214629 -1.44725e-06
-3.47031e-06 -1.44725e-06 -2.74977e-05
0.00176915 0.000699012 -4.82906e-07
0.000699012 0.00058169 -4.47717e-06
-4.82906e-07 -4.47717e-06 9.48322e-05
0.00250261 0.000755548 -5.49941e-06
0.000755548 0.000543463 -3.21889e-06
-5.49941e-06 -3.21889e-06 0.000207369
0.00181941 0.000755539 5.78788e-06
0.000755539 0.000328413 -5.9487e-06
5.78788e-06 -5.9487e-06 -0.000115964
0.000534455 6.82915e-05 4.10594e-07
6.82915e-05 6.17679e-05 6.31955e-06
4.10594e-07 6.31955e-06 -4.6144e-05
0.000677043 0.00013564 -2.33096e-06
0.00013564 0.000223267 2.55245e-06
-2.33096e-06 2.55245e-06 5.35828e-05
0.00060353 6.89999e-05 6.31328e-07
6.89999e-05 0.000115537 5.30912e-06
6.31328e-07 5.30912e-06 2.79047e-05
0.000514393 2.23742e-05 -8.87261e-07
2.23742e-05 5.77533e-05 1.33579e-08
-8.87261e-07 1.33579e-08 -3.91051e-05
0.0014911 -2.08502e-05 1.91688e-06
-2.08502e-05 0.00064905 5.6863e-06
1.91688e-06 5.6863e-06 0.000617878
0.000958548 -9.34553e-06 1.82992e-07
-9.34553e-06 0.00030695 -7.73165e-09
1.82992e-07 -7.73165e-09 0.000268196
0.000885624 -4.03858e-05 4.74945e-05
-4.03858e-05 0.000259008 1.15444e-05
4.74945e-05 1.15444e-05 0.000253701
0.00334403 -0.000135989 1.04927e-05
-0.000135989 0.00185672 -1.00213e-06
1.04927e-05 -1.00213e-06 0.00185012
0.00363272 -0.000167115 -6.0412e-05
-0.000167115 0.0020577 -5.74749e-06
-6.0412e-05 -5.74749e-06 0.00204225
0.000315573 -9.98087e-05 1.48183e-05
-9.98087e-05 -9.03044e-05 -1.41709e-05
1.48183e-05 -1.41709e-05 -0.000165194
0.00506213 0.000185939 0.000123664
0.000185939 0.00300636 -1.62726e-05
0.000123664 -1.62726e-05 0.00297864
0.000490761 -0.000145732 6.51013e-07
-0.000145732 -5.94559e-06 9.36715e-07
6.51013e-07 9.36715e-07 -0.000104193
0.0058605 0.000126677 -4.48039e-07
0.000126677 0.00350094 1.10659e-06
-4.48039e-07 1.10659e-06 0.0034854
0.000491438 -0.00017385 -2.29759e-05
-0.00017385 -3.98569e-05 1.87963e-05
-2.29759e-05 1.87963e-05 -0.000150753
0.00673455 8.39097e-05 -0.000254145
8.39097e-05 0.00403231 2.94753e-05
-0.000254145 2.94753e-05 0.00402595
0.00127958 0.000218127 -8.10844e-06
0.000218127 -3.60585e-05 -2.94753e-06
-8.10844e-06 -2.94753e-06 -0.000219273
0.00115485 0.000127347 -7.90606e-06
0.000127347 -9.01024e-05 -1.02891e-06
-7.90606e-06 -1.02891e-06 -0.000238865
0.00206878 0.000278288 -1.77095e-06
0.000278288 0.000122224 1.06813e-06
-1.77095e-06 1.06813e-06 -1.00654e-05
0.00197506 0.000126559 -2.0653e-06
0.000126559 5.68352e-05 1.68826e-07
-2.0653e-06 1.68826e-07 -2.85713e-05
0.00107937 4.56563e-05 -1.03364e-05
4.56563e-05 -9.72048e-05 4.11121e-08
-1.03364e-05 4.11121e-08 -0.000227937
0.00032559 2.85931e-05 -1.83224e-05
2.85931e-05 -0.0002504 -9.50063e-07
-1.83224e-05 -9.50063e-07 -0.000332078
0.00105916 -5.83082e-07 -4.84175e-08
-5.83082e-07 -9.97617e-05 -6.50285e-09
-4.84175e-08 -6.50285e-09 -0.000227709
0.00198336 6.40257e-05 1.11568e-08
6.40257e-05 6.71303e-05 1.40141e-07
1.11568e-08 1.40141e-07 -1.19832e-05
0.00204526 0.000198753 -1.90185e-07
0.000198753 9.05594e-05 3.39881e-07
-1.90185e-07 3.39881e-07 -1.14322e-05
0.002184 0.000151609 -4.24218e-07
0.000151609 6.04891e-05 1.80494e-07
-4.24218e-07 1.80494e-07 3.527e-05
0.0021068 0.000368882 -7.29279e-07
0.000368882 0.000173856 -1.27308e-07
-7.29279e-07 -1.27308e-07 1.1882e-06
0.00216487 0.000314715 7.44749e-08
0.000314715 8.80004e-05 3.12859e-07
7.44749e-08 3.12859e-07 1.93658e-06
0.00200533 -1.90558e-06 3.26661e-06
-1.90558e-06 8.98473e-05 -2.37867e-09
3.26661e-06 -2.37867e-09 1.14312e-05
0.00214028 7.24147e-05 4.69083e-06
7.24147e-05 4.06253e-05 4.52944e-07
4.69083e-06 4.52944e-07 2.09505e-05
0.0021841 0.000227834 5.38437e-06
0.000227834 7.5841e-05 8.53825e-07
5.38437e-06 8.53825e-07 3.11316e-05
0.00211475 0.00013322 4.15869e-06
0.00013322 8.2792e-06 8.70318e-07
4.15869e-06 8.70318e-07 6.1119e-06
0.00214897 0.00041269 2.42521e-06
0.00041269 0.000114609 1.94667e-07
2.42521e-06 1.94667e-07 -2.43554e-05
0.00221289 0.000331781 2.14313e-06
0.000331781 1.12545e-05 3.48396e-07
2.14313e-06 3.48396e-07 -8.21783e-06
0.00119309 -3.23985e-05 -1.12903e-05
-3.23985e-05 -1.41398e-05 5.74367e-07
-1.12903e-05 5.74367e-07 -0.000133853
0.00202091 -0.000137997 -2.76328e-05
-0.000137997 0.000498051 2.37474e-06
-2.76328e-05 2.37474e-06 0.000367108
0.00200062 -0.000135635 -1.24985e-06
-0.000135635 8.40426e-05 -3.66613e-07
-1.24985e-06 -3.66613e-07 -7.98405e-06
0.00187605 -0.000285854 -9.07349e-07
-0.000285854 2.11315e-05 3.94436e-07
-9.07349e-07 3.94436e-07 -0.000129563
0.00054628 -0.000253 -2.69352e-05
-0.000253 -3.57726e-05 2.38706e-05
-2.69352e-05 2.38706e-05 -0.000178913
0.000754431 -0.000327532 -1.46912e-05
-0.000327532 -3.08745e-05 8.21865e-06
-1.46912e-05 8.21865e-06 -0.000319862
0.00172632 -0.000628165 -1.18104e-05
-0.000628165 0.000285403 4.8539e-07
-1.18104e-05 4.8539e-07 -0.000123202
0.00204048 -0.000425779 -4.46514e-06
-0.000425779 0.000226747 5.97876e-07
-4.46514e-06 5.97876e-07 6.47396e-06
0.00210614 -0.000402938 -1.09846e-06
-0.000402938 0.000101791 -3.60549e-08
-1.09846e-06 -3.60549e-08 -2.04181e-05
0.00214635 -0.000543857 -2.3916e-06
-0.000543857 0.000238793 -1.67015e-06
-2.3916e-06 -1.67015e-06 1.39048e-05
0.00238522 -0.000671657 -1.02787e-06
-0.000671657 0.000505807 -6.73214e-06
-1.02787e-06 -6.73214e-06 0.000172316
0.00198784 -0.000608305 1.52032e-06
-0.000608305 0.000146734 -1.67711e-06
1.52032e-06 -1.67711e-06 -0.00010323
0.00110692 -0.000278039 -8.16594e-06
-0.000278039 0.000356425 4.45152e-06
-8.16594e-06 4.45152e-06 7.22508e-05
0.000290297 -0.000176151 8.03699e-07
-0.000176151 -0.000160303 3.04241e-06
8.03699e-07 3.04241e-06 -0.000451536
0.000429285 -0.000209731 1.073e-07
-0.000209731 -3.921e-06 3.20935e-06
1.073e-07 3.20935e-06 -0.000247138
0.00190408 -6.31697e-05 1.86002e-06
-6.31697e-05 2.7409e-05 -1.7675e-07
1.86002e-06 -1.7675e-07 -5.97272e-05
0.00200756 -0.000218274 -2.96514e-07
-0.000218274 8.82643e-05 -2.45599e-07
-2.96514e-07 -2.45599e-07 -2.2635e-05
0.00211959 -0.000146221 1.43785e-06
-0.000146221 3.88083e-05 -1.35951e-07
1.43785e-06 -1.35951e-07 -2.03988e-07
0.0020869 -0.000318429 -1.45047e-06
-0.000318429 5.24902e-05 3.07028e-07
-1.45047e-06 3.07028e-07 -3.64271e-05
0.000757966 -0.000280298 1.16287e-06
-0.000280298 7.23856e-05 -4.80418e-07
1.16287e-06 -4.80418e-07 -0.000203161
0.00164739 -0.000618244 -4.73688e-07
-0.000618244 0.000400906 -6.98939e-07
-4.73688e-07 -6.98939e-07 -3.16928e-05
0.00196753 -0.00075129 1.26515e-06
-0.00075129 0.000342741 1.11252e-06
1.26515e-06 1.11252e-06 -9.58564e-05
0.00201977 -0.000477328 -5.37291e-07
-0.000477328 0.000110728 7.97925e-07
-5.37291e-07 7.97925e-07 -6.96782e-05
0.00220516 -0.000426534 2.10351e-07
-0.000426534 9.22348e-05 -6.57445e-08
2.10351e-07 -6.57445e-08 1.94295e-05
0.00226831 -0.000684398 -6.7163e-07
-0.000684398 0.000386676 4.55654e-07
-6.7163e-07 4.55654e-07 6.83534e-05
0.00210948 -0.000573796 -6.16132e-07
-0.000573796 0.000160075 7.74593e-07
-6.16132e-07 7.74593e-07 -3.77725e-05
0.0023205 -0.000640679 1.06751e-06
-0.000640679 0.000365082 -5.6962e-07
1.06751e-06 -5.6962e-07 0.000128035
0.000890313 -0.000355311 -2.03858e-06
-0.000355311 0.000159219 4.89152e-07
-2.03858e-06 4.89152e-07 -0.000175977
0.00108251 -0.000385636 1.21828e-08
-0.000385636 0.000321918 1.9298e-06
1.21828e-08 1.9298e-06 -4.67678e-05
0.000741708 -0.000164898 -1.26147e-06
-0.000164898 0.000213703 -1.63861e-06
-1.26147e-06 -1.63861e-06 -1.02383e-05
0.000225149 -0.000158751 2.39151e-06
-0.000158751 -0.000142119 1.4451e-06
2.39151e-06 1.4451e-06 -0.00042032
0.00216676 -7.9564e-05 7.34143e-06
-7.9564e-05 7.96925e-05 -2.41817e-07
7.34143e-06 -2.41817e-07 4.8524e-05
0.00203152 -0.000230517 4.68921e-06
-0.000230517 -3.35318e-05 -8.21223e-07
4.68921e-06 -8.21223e-07 -9.26737e-05
0.00209444 -0.000135602 5.54706e-06
-0.000135602 2.69031e-05 -6.97417e-07
5.54706e-06 -6.97417e-07 2.76222e-05
0.00220736 -0.000345391 6.15816e-07
-0.000345391 3.99477e-05 -5.70979e-08
6.15816e-07 -5.70979e-08 1.96785e-05
0.00215923 -0.000514225 4.48841e-07
-0.000514225 0.000123342 3.18671e-08
4.48841e-07 3.18671e-08 -1.33671e-05
0.00226752 -0.000452041 3.11547e-06
-0.000452041 7.29057e-05 -3.29629e-07
3.11547e-06 -3.29629e-07 1.74931e-05
0.0014437 -0.00051506 6.94873e-06
-0.00051506 0.000427188 -3.05365e-06
6.94873e-06 -3.05365e-06 2.69004e-05
0.00214918 -0.000614853 -1.59859e-06
-0.000614853 0.000142939 2.82724e-07
-1.59859e-06 2.82724e-07 -2.69709e-05
0.00178364 -0.000786057 -3.93009e-06
-0.000786057 0.000406135 7.09238e-06
-3.93009e-06 7.09238e-06 -9.78503e-05
0.00226991 -0.000818257 5.20433e-06
-0.000818257 0.000480762 4.29598e-06
5.20433e-06 4.29598e-06 3.93503e-05
0.00225013 -0.000691654 4.15374e-06
-0.000691654 0.000350302 3.24639e-06
4.15374e-06 3.24639e-06 4.13097e-05
0.00219162 -0.000672079 -4.70615e-06
-0.000672079 0.000231823 -2.15977e-06
-4.70615e-06 -2.15977e-06 -1.36973e-05
0.000437667 -0.000161691 -7.64053e-07
-0.000161691 1.65897e-05 -7.81497e-06
-7.64053e-07 -7.81497e-06 -0.000163363
0.000724581 -0.000161439 1.5794e-06
-0.000161439 0.000235006 1.24033e-06
1.5794e-06 1.24033e-06 -0.000104072
0.00135736 -0.000528224 7.36587e-06
-0.000528224 0.000416655 -1.21057e-06
7.36587e-06 -1.21057e-06 -7.31748e-06
0.000329067 -0.000229298 1.23351e-05
-0.000229298 -0.000115799 -4.64728e-06
1.23351e-05 -4.64728e-06 -0.000405797
0.00143399 -0.000491391 -4.60249e-06
-0.000491391 0.000562621 6.40589e-06
-4.60249e-06 6.40589e-06 0.00011783
0.000316447 -1.51655e-05 -3.6424e-06
-1.51655e-05 -8.72172e-05 -1.25942e-05
-3.6424e-06 -1.25942e-05 -0.000147782
0.00207163 0.000439617 -5.01444e-06
0.000439617 0.000199229 -3.94743e-07
-5.01444e-06 -3.94743e-07 -1.65459e-05
0.00032977 6.1921e-05 -1.73543e-07
6.1921e-05 -7.42984e-05 -4.79064e-06
-1.73543e-07 -4.79064e-06 -0.000262267
0.000152224 0.000225409 -6.96841e-06
0.000225409 -0.000251759 8.2588e-07
-6.96841e-06 8.2588e-07 -0.000476036
0.000736684 0.000215245 -1.00776e-06
0.000215245 0.000143841 5.02375e-06
-1.00776e-06 5.02375e-06 -0.000118056
0.00196371 0.000555645 -4.73405e-06
0.000555645 0.000271265 5.57128e-07
-4.73405e-06 5.57128e-07 -3.43707e-05
0.0021358 0.000561122 4.82567e-07
0.000561122 0.00022813 2.0154e-06
4.82567e-07 2.0154e-06 -1.18714e-05
0.00133147 0.000488117 1.76203e-06
0.000488117 0.000349987 -9.50954e-07
1.76203e-06 -9.50954e-07 -2.34967e-05
0.00173439 0.000707036 4.33259e-06
0.000707036 0.000346838 6.54961e-06
4.33259e-06 6.54961e-06 -0.000114415
0.00218412 0.000675104 3.82029e-06
0.000675104 0.000421543 4.95518e-06
3.82029e-06 4.95518e-06 8.34012e-05
0.00217282 0.000671324 8.66829e-06
0.000671324 0.000389257 1.33949e-05
8.66829e-06 1.33949e-05 5.41561e-05
0.000440253 3.97443e-06 -5.77614e-07
3.97443e-06 -2.36108e-05 1.37377e-07
-5.77614e-07 1.37377e-07 -7.20736e-05
0.000631645 7.89002e-05 -6.93315e-07
7.89002e-05 0.000128346 4.21186e-08
-6.93315e-07 4.21186e-08 -2.97981e-05
0.000843646 0.000335348 3.34687e-06
0.000335348 0.000146247 8.52078e-07
3.34687e-06 8.52078e-07 -0.000142169
0.000523606 0.000134192 5.54666e-07
0.000134192 7.76621e-05 -2.56113e-06
5.54666e-07 -2.56113e-06 -0.000199576
0.000332089 0.000158115 -1.60348e-07
0.000158115 -0.000198423 3.19437e-06
-1.60348e-07 3.19437e-06 -0.000435503
0.00219573 0.000496581 -1.97231e-06
0.000496581 0.000189523 -1.91265e-06
-1.97231e-06 -1.91265e-06 -7.59457e-07
0.00215116 0.000636996 4.43041e-07
0.000636996 0.000308311 1.28623e-07
4.43041e-07 1.28623e-07 1.37313e-05
0.00213685 0.000615565 1.53436e-06
0.000615565 0.000211384 1.85814e-07
1.53436e-06 1.85814e-07 -3.09684e-05
0.00174856 0.000698616 1.40453e-06
0.000698616 0.000575178 -1.15441e-06
1.40453e-06 -1.15441e-06 8.36766e-05
0.00239472 0.000744165 2.94791e-06
0.000744165 0.000457021 4.81035e-07
2.94791e-06 4.81035e-07 0.000120927
0.00214805 0.00078779 -4.36204e-06
0.00078779 0.000548953 1.7931e-07
-4.36204e-06 1.7931e-07 0.00010142
0.000781992 8.93285e-05 8.46317e-07
8.93285e-05 0.000212478 6.72938e-06
8.46317e-07 6.72938e-06 8.71685e-05
0.00213557 0.000297858 -4.77287e-07
0.000297858 0.0011545 3.97159e-07
-4.77287e-07 3.97159e-07 0.000890549
0.000997802 0.000472966 -1.91451e-07
0.000472966 0.000237287 4.25292e-06
-1.91451e-07 4.25292e-06 -0.00013431
0.000935782 0.000147401 5.47988e-06
0.000147401 0.000213666 1.14342e-07
5.47988e-06 1.14342e-07 -3.54266e-05
0.00310709 0.000515762 -7.85683e-07
0.000515762 0.00147253 3.98844e-07
-7.85683e-07 3.98844e-07 0.00115052
0.00216094 0.000523979 -3.8392e-06
0.000523979 0.000117873 -1.82379e-06
-3.8392e-06 -1.82379e-06 -5.43007e-05
0.0021606 0.000691526 -4.27899e-06
0.000691526 0.000280286 -1.46297e-06
-4.27899e-06 -1.46297e-06 -1.54233e-05
0.00212813 0.000676272 1.18994e-06
0.000676272 0.000165354 -8.26094e-07
1.18994e-06 -8.26094e-07 -8.86435e-05
0.00123191 0.000715312 1.01691e-05
0.000715312 0.000286143 -5.6627e-06
1.01691e-05 -5.6627e-06 -0.000231935
0.00187396 0.000777944 1.30776e-05
0.000777944 0.000261007 -2.85886e-06
1.30776e-05 -2.85886e-06 -0.00014504
0.00057867 6.31399e-05 -1.40436e-07
6.31399e-05 9.09162e-05 1.22189e-07
-1.40436e-07 1.22189e-07 -1.60123e-05
0.000540461 0.000127386 1.49424e-06
0.000127386 8.84795e-05 1.64929e-06
1.49424e-06 1.64929e-06 -6.00591e-05
2.09817e-05 8.48302e-05 2.42222e-07
8.48302e-05 -0.000213676 -9.19026e-07
2.42222e-07 -9.19026e-07 -0.000364212
0.00143973 0.000230886 -2.55234e-06
0.000230886 0.000726157 -2.64465e-06
-2.55234e-06 -2.64465e-06 0.000529611
0.000980914 0.00016418 -6.56004e-07
0.00016418 0.000420199 2.31142e-06
-6.56004e-07 2.31142e-06 0.000261177
0.000536297 7.72096e-05 1.64782e-06
7.72096e-05 8.03308e-05 4.1505e-06
1.64782e-06 4.1505e-06 -3.7476e-06
0.000513119 2.49277e-05 -1.02126e-06
2.49277e-05 6.12676e-05 4.31045e-08
-1.02126e-06 4.31045e-08 -2.58804e-05
0.00134001 -5.22594e-06 1.7411e-06
-5.22594e-06 0.000550277 4.65032e-06
1.7411e-06 4.65032e-06 0.000525607
0.000501111 4.55977e-05 5.51649e-07
4.55977e-05 4.21019e-05 -6.09557e-06
5.51649e-07 -6.09557e-06 -4.98118e-05
0.00142245 -1.64674e-05 -1.07338e-05
-1.64674e-05 0.000603273 -1.77664e-06
-1.07338e-05 -1.77664e-06 0.000575259
0.000733832 -2.79829e-05 4.13168e-05
-2.79829e-05 0.000155705 1.06756e-05
4.13168e-05 1.06756e-05 0.000156781
0.00147186 -1.51628e-05 -2.10491e-05
-1.51628e-05 0.0006393 -7.48014e-06
-2.10491e-05 -7.48014e-06 0.000605287
0.00198468 -7.65327e-05 4.58851e-05
-7.65327e-05 0.000970775 1.341e-06
4.58851e-05 1.341e-06 0.000967288
0.0032623 -0.000134762 -5.02039e-05
-0.000134762 0.00180364 -5.5671e-06
-5.02039e-05 -5.5671e-06 0.0017971
0.000254133 5.26238e-05 -3.46358e-06
5.26238e-05 -0.000103804 -1.07371e-05
-3.46358e-06 -1.07371e-05 -0.000166368
0.000373008 -8.28093e-05 -1.30121e-06
-8.28093e-05 -5.19072e-05 4.43818e-07
-1.30121e-06 4.43818e-07 -0.00013364
0.00413713 0.000204192 2.60636e-05
0.000204192 0.00239888 -8.81004e-06
2.60636e-05 -8.81004e-06 0.00236789
0.00513872 0.000134301 -1.40733e-05
0.000134301 0.00304414 -1.31034e-06
-1.40733e-05 -1.31034e-06 0.00302842
0.000498975 -0.000149588 -2.12259e-05
-0.000149588 -4.24645e-06 1.63525e-05
-2.12259e-05 1.63525e-05 -0.000106091
0.00601766 0.000122877 -0.00021243
0.000122877 0.00360945 2.99815e-05
-0.00021243 2.99815e-05 0.00359072
0.00205287 0.000364393 -2.83682e-06
0.000364393 0.000140017 9.91746e-07
-2.83682e-06 9.91746e-07 -3.19841e-05
0.0020338 0.000198275 -1.14101e-06
0.000198275 9.14655e-05 7.83868e-07
-1.14101e-06 7.83868e-07 -1.07955e-05
0.00222456 0.000320538 -4.02885e-06
0.000320538 0.000126264 -5.69217e-07
-4.02885e-06 -5.69217e-07 3.86617e-05
0.00216751 0.00014653 -5.06726e-06
0.00014653 3.95646e-05 -3.11907e-07
-5.06726e-06 -3.11907e-07 1.96369e-05
0.00194058 6.47646e-05 -3.20393e-06
6.47646e-05 4.11241e-05 7.34045e-08
-3.20393e-06 7.34045e-08 -3.83267e-05
0.00107418 3.9855e-06 -1.00912e-05
3.9855e-06 -9.0105e-05 1.26009e-07
-1.00912e-05 1.26009e-07 -0.000217919
0.00197505 5.38252e-07 1.12787e-07
5.38252e-07 7.03348e-05 9.05392e-08
1.12787e-07 9.05392e-08 -8.35476e-06
0.00214389 6.39353e-05 -6.37153e-07
6.39353e-05 4.68364e-05 -4.36747e-09
-6.37153e-07 -4.36747e-09 2.65928e-05
0.0021977 0.000227206 7.45427e-08
0.000227206 7.88249e-05 1.5568e-08
7.45427e-08 1.5568e-08 3.46195e-05
0.002092 0.000133678 -1.13399e-07
0.000133678 -1.42169e-05 9.43084e-08
-1.13399e-07 9.43084e-08 -1.12042e-05
0.00218395 0.000418189 -2.12049e-07
0.000418189 0.000132837 3.42626e-07
-2.12049e-07 3.42626e-07 -7.65549e-06
0.00218881 0.000321906 -5.38109e-08
0.000321906 -5.7908e-06 -7.30358e-08
-5.38109e-08 -7.30358e-08 -2.37723e-05
0.00212859 -7.14751e-06 5.60636e-06
-7.14751e-06 4.39156e-05 1.88164e-07
5.60636e-06 1.88164e-07 2.11203e-05
0.00211141 5.70567e-05 3.71093e-06
5.70567e-05 1.04251e-05 1.90691e-07
3.71093e-06 1.90691e-07 2.7267e-05
0.00214122 0.000209534 4.85921e-07
0.000209534 -8.73914e-06 -7.97147e-09
4.85921e-07 -7.97147e-09 -1.32298e-05
0.00220437 0.00013854 -8.16152e-07
0.00013854 -1.52227e-05 4.84427e-07
-8.16152e-07 4.84427e-07 2.03762e-05
0.00218066 0.000421195 7.43189e-07
0.000421195 4.30237e-05 3.61334e-07
7.43189e-07 3.61334e-07 -4.01705e-05
0.00235685 0.000323987 2.22811e-07
0.000323987 2.08975e-05 -1.85248e-07
2.22811e-07 -1.85248e-07 3.22416e-05
0.00198256 -5.99368e-05 -1.77169e-06
-5.99368e-05 7.76386e-05 8.35727e-08
-1.77169e-06 8.35727e-08 -4.01052e-06
0.00201587 -0.000225271 -1.01676e-06
-0.000225271 9.33564e-05 -7.02517e-07
-1.01676e-06 -7.02517e-07 -1.72216e-05
0.00218886 -0.000145246 -4.11195e-06
-0.000145246 7.7985e-05 6.73032e-08
-4.11195e-06 6.73032e-08 4.60996e-05
0.00201411 -0.000306474 -4.62895e-06
-0.000306474 1.24755e-05 8.91325e-07
-4.62895e-06 8.91325e-07 -7.93647e-05
0.000675916 -0.000283049 -1.19246e-05
-0.000283049 1.81003e-05 8.13243e-06
-1.19246e-05 8.13243e-06 -0.000262051
0.00161396 -0.000612284 -1.50159e-05
-0.000612284 0.000393536 8.17598e-07
-1.50159e-05 8.17598e-07 -3.62178e-05
0.00177961 -0.000727253 -8.3594e-08
-0.000727253 0.00024201 -4.05006e-06
-8.3594e-08 -4.05006e-06 -0.00019651
0.00201024 -0.00047357 -3.39371e-06
-0.00047357 0.000111479 9.75537e-08
-3.39371e-06 9.75537e-08 -7.5511e-05
0.00215507 -0.000428701 -2.02743e-06
-0.000428701 4.70527e-05 1.75263e-07
-2.02743e-06 1.75263e-07 -2.02698e-05
0.00206802 -0.000568996 -8.71127e-07
-0.000568996 0.000131647 3.84852e-07
-8.71127e-07 3.84852e-07 -6.5727e-05
0.00214246 -0.000686437 -1.89371e-06
-0.000686437 0.000291346 -4.54472e-06
-1.89371e-06 -4.54472e-06 -3.05848e-05
0.00222023 -0.000629715 3.53968e-06
-0.000629715 0.000294746 -2.3581e-06
3.53968e-06 -2.3581e-06 6.12967e-05
0.000758067 -0.000347695 -4.05179e-07
-0.000347695 8.56658e-05 8.50993e-07
-4.05179e-07 8.50993e-07 -0.000257544
0.000740052 -0.000327341 -3.0381e-06
-0.000327341 7.79914e-05 4.05968e-06
-3.0381e-06 4.05968e-06 -0.000270578
0.000772379 -0.000166614 -2.82841e-06
-0.000166614 0.000225005 3.85775e-06
-2.82841e-06 3.85775e-06 3.24924e-06
-8.9176e-05 -0.000160105 2.45291e-07
-0.000160105 -0.000381402 -1.93759e-06
2.45291e-07 -1.93759e-06 -0.000630947
0.00217174 -7.97214e-05 -1.41879e-07
-7.97214e-05 8.2729e-05 2.71252e-08
-1.41879e-07 2.71252e-08 5.14785e-05
0.00207221 -0.000234687 2.27972e-06
-0.000234687 -1.22964e-06 -5.35154e-07
2.27972e-06 -5.35154e-07 -6.16292e-05
0.00207047 -0.000134683 6.77104e-07
-0.000134683 4.87579e-06 -2.81155e-07
6.77104e-07 -2.81155e-07 7.54281e-06
0.00217683 -0.000343342 -4.4329e-07
-0.000343342 2.92699e-05 8.32002e-08
-4.4329e-07 8.32002e-08 1.82351e-06
0.00138619 -0.000486712 -3.23754e-06
-0.000486712 0.000368743 2.11634e-07
-3.23754e-06 2.11634e-07 -1.65452e-05
0.00174911 -0.000777503 2.27561e-06
-0.000777503 0.000396004 2.28941e-08
2.27561e-06 2.28941e-08 -0.00010717
0.00219521 -0.000826496 -7.15383e-07
-0.000826496 0.000430375 5.64006e-07
-7.15383e-07 5.64006e-07 -1.87023e-05
0.00215932 -0.000509978 -1.16035e-06
-0.000509978 0.000132033 3.68471e-07
-1.16035e-06 3.68471e-07 -9.75186e-06
0.00222271 -0.000449745 9.80556e-07
-0.000449745 4.56318e-05 -4.10578e-07
9.80556e-07 -4.10578e-07 -4.74552e-06
0.00225196 -0.000697096 -7.79477e-07
-0.000697096 0.000365244 7.59352e-07
-7.79477e-07 7.59352e-07 5.43565e-05
0.00216018 -0.000618806 -1.05345e-06
-0.000618806 0.000139328 7.87751e-07
-1.05345e-06 7.87751e-07 -3.07615e-05
0.00222959 -0.000676306 4.94178e-06
-0.000676306 0.00025039 -4.06387e-06
4.94178e-06 -4.06387e-06 8.55234e-06
0.00142389 -0.000541959 -4.13709e-07
-0.000541959 0.000466343 -1.574e-06
-4.13709e-07 -1.574e-06 3.7876e-05
0.00133442 -0.000486485 3.32985e-06
-0.000486485 0.000485474 2.67517e-06
3.32985e-06 2.67517e-06 5.53916e-05
0.000922747 -0.000238509 3.24186e-07
-0.000238509 0.000255063 -4.73706e-06
3.24186e-07 -4.73706e-06 -4.1622e-05
0.000179794 -0.000113959 -2.7776e-06
-0.000113959 -0.000143856 1.04635e-06
-2.7776e-06 1.04635e-06 -0.000325635
0.000133988 -0.000161524 -1.53796e-06
-0.000161524 -0.000144633 -9.54808e-07
-1.53796e-06 -9.54808e-07 -0.000470928
0.00206957 -7.97769e-05 2.52083e-06
-7.97769e-05 -1.22572e-05 -3.38033e-07
2.52083e-06 -3.38033e-07 3.09966e-06
0.00213113 -0.000206752 1.33989e-06
-0.000206752 -9.30143e-06 -3.75965e-07
1.33989e-06 -3.75965e-07 -3.8292e-06
0.00227077 -0.000412371 -2.40626e-07
-0.000412371 -1.8886e-05 4.54816e-07
-2.40626e-07 4.54816e-07 -1.54431e-05
0.00223031 -0.00053559 1.14647e-06
-0.00053559 7.12847e-05 -1.87157e-07
1.14647e-06 -1.87157e-07 -2.98818e-06
0.00150046 -0.000667764 -6.96087e-07
-0.000667764 0.000422522 2.59863e-06
-6.96087e-07 2.59863e-06 -6.41795e-05
0.00244277 -0.000744877 -8.09672e-06
-0.000744877 0.00021607 -3.02859e-06
-8.09672e-06 -3.02859e-06 1.43704e-05
0.00152887 -0.000843305 -1.69877e-05
-0.000843305 0.000258913 7.57934e-06
-1.69877e-05 7.57934e-06 -0.000277285
0.00241748 -0.000898576 -4.1671e-07
-0.000898576 0.000535644 2.72543e-06
-4.1671e-07 2.72543e-06 7.26935e-05
0.00201392 -0.000669761 -7.96745e-06
-0.000669761 0.000205001 -2.53982e-07
-7.96745e-06 -2.53982e-07 -8.8529e-05
2.49368e-05 -5.04239e-05 -2.0134e-06
-5.04239e-05 -0.000229485 -7.19563e-06
-2.0134e-06 -7.19563e-06 -0.000363822
0.00116507 -0.000236874 -3.56227e-06
-0.000236874 0.000593888 -9.56114e-07
-3.56227e-06 -9.56114e-07 0.000261619
0.00277984 -0.000237749 -9.84629e-07
-0.000237749 0.00147392 -2.88288e-06
-9.84629e-07 -2.88288e-06 0.00114441
0.00208732 -0.000688965 -7.45347e-06
-0.000688965 0.000873865 7.62699e-08
-7.45347e-06 7.62699e-08 0.000384052
0.000941449 -0.000362253 1.17349e-05
-0.000362253 0.000204915 -1.13735e-06
1.17349e-05 -1.13735e-06 -0.000166807
0.0013995 -0.000551133 -4.66971e-06
-0.000551133 0.000514644 1.13053e-05
-4.66971e-06 1.13053e-05 3.81894e-05
0.000394711 6.66308e-06 -3.48266e-06
6.66308e-06 -5.14489e-05 -1.08654e-05
-3.48266e-06 -1.08654e-05 -9.93873e-05
0.000183567 6.67799e-05 -7.25063e-07
6.67799e-05 -0.000152378 -7.70875e-06
-7.25063e-07 -7.70875e-06 -0.000305074
0.00217563 0.000494844 -3.64761e-06
0.000494844 0.000179124 -7.27806e-07
-3.64761e-06 -7.27806e-07 -1.07566e-05
-0.000363034 4.22391e-05 -8.31284e-07
4.22391e-05 -0.000482693 1.07994e-06
-8.31284e-07 1.07994e-06 -0.000754435
0.00190839 0.000404747 7.03902e-06
0.000404747 0.000822025 -2.44902e-06
7.03902e-06 -2.44902e-06 0.000534474
0.000309978 0.000150115 -5.93388e-06
0.000150115 -0.000227328 -2.11894e-06
-5.93388e-06 -2.11894e-06 -0.000471487
0.00212697 0.000633313 2.50388e-06
0.000633313 0.000296951 2.30634e-06
2.50388e-06 2.30634e-06 3.56163e-06
0.00213563 0.000616271 3.43934e-06
0.000616271 0.000213974 1.13668e-06
3.43934e-06 1.13668e-06 -2.87328e-05
0.001591 0.000677407 4.16603e-06
0.000677407 0.00048447 3.47177e-06
4.16603e-06 3.47177e-06 -5.43099e-06
0.00245286 0.00081023 -4.73557e-06
0.00081023 0.000756991 5.86533e-06
-4.73557e-06 5.86533e-06 0.000311868
0.002284 0.00073442 3.96348e-06
0.00073442 0.000366762 3.83558e-06
3.96348e-06 3.83558e-06 2.99928e-05
0.000630829 8.2294e-05 4.21838e-07
8.2294e-05 0.000117238 4.33782e-07
4.21838e-07 4.33782e-07 -4.72502e-06
0.000721819 0.000139177 -1.19056e-06
0.000139177 0.000250467 2.64899e-08
-1.19056e-06 2.64899e-08 5.14355e-06
0.00105568 0.000488236 6.01403e-07
0.000488236 0.000253101 1.26823e-06
6.01403e-07 1.26823e-06 -0.000128856
0.000668539 8.4851e-05 2.37551e-08
8.4851e-05 4.88547e-05 -4.993e-07
2.37551e-08 -4.993e-07 -0.000198046
0.00122906 0.00033228 3.70339e-06
0.00033228 0.000252628 -4.66267e-06
3.70339e-06 -4.66267e-06 -3.06014e-05
0.00215792 0.000525616 -2.25453e-06
0.000525616 0.000127935 -1.24416e-06
-2.25453e-06 -1.24416e-06 -4.61872e-05
0.00222087 0.000697849 2.39544e-06
0.000697849 0.00030847 6.88671e-07
2.39544e-06 6.88671e-07 1.14132e-05
0.00214624 0.000676047 1.24799e-06
0.000676047 0.000166092 1.52153e-07
1.24799e-06 1.52153e-07 -8.70033e-05
0.00159215 0.000774243 2.1714e-06
0.000774243 0.000483657 9.92059e-07
2.1714e-06 9.92059e-07 -4.34079e-05
0.0019156 0.00078634 -1.97873e-06
0.00078634 0.000312236 -2.24925e-06
-1.97873e-06 -2.24925e-06 -0.000101105
0.00132482 0.000204844 1.38379e-06
0.000204844 0.000610822 2.61703e-06
1.38379e-06 2.61703e-06 0.000417037
-0.000364273 4.06402e-05 6.2137e-08
4.06402e-05 -0.000417492 1.82883e-07
6.2137e-08 1.82883e-07 -0.000709148
0.00145045 0.000605694 1.76679e-06
0.000605694 0.000505167 -4.77696e-06
1.76679e-06 -4.77696e-06 5.6074e-05
-0.000193169 0.000173692 6.89652e-06
0.000173692 -0.000652635 3.61426e-06
6.89652e-06 3.61426e-06 -0.000896392
0.00255402 0.000654682 2.6806e-06
0.000654682 0.00103197 -3.94952e-06
2.6806e-06 -3.94952e-06 0.000643221
0.00229436 0.000597668 -2.66164e-06
0.000597668 0.000100188 -5.38453e-07
-2.66164e-06 -5.38453e-07 -2.56876e-05
0.00225456 0.000757323 8.87671e-06
0.000757323 0.000284177 -3.28974e-06
8.87671e-06 -3.28974e-06 -4.83461e-05
0.00217992 0.000705617 7.30787e-06
0.000705617 0.000129364 8.53694e-07
7.30787e-06 8.53694e-07 -0.000143234
0.00190279 0.000834298 1.5092e-05
0.000834298 0.00061431 4.57817e-07
1.5092e-05 4.57817e-07 8.65481e-05
0.00218934 0.00091109 7.13685e-06
0.00091109 0.000507907 -4.83129e-07
7.13685e-06 -4.83129e-07 3.83822e-05
0.000560403 5.12168e-05 1.03423e-07
5.12168e-05 7.96492e-05 -6.96578e-06
1.03423e-07 -6.96578e-06 -2.61013e-05
0.000627571 0.000126117 8.90968e-07
0.000126117 0.000147989 -1.0105e-06
8.90968e-07 -1.0105e-06 -5.6264e-06
0.000159637 9.52428e-05 -1.91425e-06
9.52428e-05 -0.000149083 -3.55896e-06
-1.91425e-06 -3.55896e-06 -0.000276073
-0.000308806 -2.19567e-05 3.12918e-06
-2.19567e-05 -0.000431969 -2.89173e-06
3.12918e-06 -2.89173e-06 -0.00057318
0.000556477 8.4852e-05 -1.21549e-06
8.4852e-05 0.000139041 3.94853e-07
-1.21549e-06 3.94853e-07 -6.96481e-06
0.000352858 0.000104901 1.31281e-06
0.000104901 1.087e-05 -2.69894e-07
1.31281e-06 -2.69894e-07 -0.000150163
0.000568571 0.000162099 -1.67541e-06
0.000162099 0.00014503 -8.80265e-06
-1.67541e-06 -8.80265e-06 -7.0762e-06
0.000338359 4.08753e-05 -3.79578e-06
4.08753e-05 2.23554e-05 1.27386e-06
-3.79578e-06 1.27386e-06 -0.000150109
0.000675393 0.000112397 1.25834e-08
0.000112397 0.000196931 2.37719e-06
1.25834e-08 2.37719e-06 7.07288e-05
0.000519969 8.24824e-05 2.67907e-06
8.24824e-05 7.08825e-05 4.29095e-06
2.67907e-06 4.29095e-06 -1.4107e-05
0.000481127 3.03997e-05 -2.79086e-06
3.03997e-05 4.01647e-05 9.45264e-08
-2.79086e-06 9.45264e-08 -4.1258e-05
0.00131393 7.08742e-06 2.45865e-06
7.08742e-06 0.000536916 3.99578e-06
2.45865e-06 3.99578e-06 0.00051465
0.000337217 -7.47485e-05 4.74944e-06
-7.47485e-05 -4.21027e-05 -4.73448e-06
4.74944e-06 -4.73448e-06 -0.000133491
0.00138522 -2.17293e-06 -9.09871e-06
-2.17293e-06 0.000578912 -1.74943e-06
-9.09871e-06 -1.74943e-06 0.000555965
0.00073319 -2.03233e-05 3.51892e-05
-2.03233e-05 0.000154619 9.786e-06
3.51892e-05 9.786e-06 0.000158456
0.00144546 -6.21275e-06 -1.6979e-05
-6.21275e-06 0.00061636 -8.97252e-06
-1.6979e-05 -8.97252e-06 0.000590257
0.000738999 -3.67542e-05 1.5333e-05
-3.67542e-05 0.000159626 3.85607e-06
1.5333e-05 3.85607e-06 0.000156791
0.00291814 -0.000127938 8.55425e-07
-0.000127938 0.00157448 -3.70597e-06
8.55425e-07 -3.70597e-06 0.00156861
0.000281104 7.30639e-05 -4.96631e-06
7.30639e-05 -8.61859e-05 -7.52416e-06
-4.96631e-06 -7.52416e-06 -0.000137684
0.00038975 -1.5655e-05 -3.85135e-06
-1.5655e-05 -2.88096e-05 5.10338e-07
-3.85135e-06 5.10338e-07 -8.91193e-05
0.00334883 0.000186046 -1.59924e-05
0.000186046 0.00188902 -9.51135e-06
-1.59924e-05 -9.51135e-06 0.00186652
0.000649209 -0.000117372 -1.56098e-05
-0.000117372 0.000117135 1.35596e-05
-1.56098e-05 1.35596e-05 3.30329e-05
0.00447315 0.000151728 -4.13229e-05
0.000151728 0.00260766 -4.26834e-08
-4.13229e-05 -4.26834e-08 0.00259033
0.00547926 0.000122278 -0.000180823
0.000122278 0.00326296 2.57928e-05
-0.000180823 2.57928e-05 0.00324803
0.00222018 0.000423674 -3.43079e-06
0.000423674 0.000151887 3.27081e-07
-3.43079e-06 3.27081e-07 9.8804e-06
0.00221003 0.000225612 -5.11861e-06
0.000225612 8.25683e-05 -7.88209e-07
-5.11861e-06 -7.88209e-07 3.89886e-05
0.00216805 0.000312053 -1.26064e-07
0.000312053 -2.01653e-05 -6.87931e-08
-1.26064e-07 -6.87931e-08 -3.68019e-05
0.00206965 0.000134365 -2.74295e-07
0.000134365 -3.57985e-05 -2.95485e-07
-2.74295e-07 -2.95485e-07 -2.79939e-05
0.00214614 5.67445e-05 -6.27262e-06
5.67445e-05 5.22989e-05 -1.89094e-07
-6.27262e-06 -1.89094e-07 3.12866e-05
0.00194558 2.34048e-06 -3.11446e-06
2.34048e-06 5.07183e-05 2.26174e-07
-3.11446e-06 2.26174e-07 -2.81874e-05
0.00214703 -8.76651e-06 1.11261e-07
-8.76651e-06 6.13239e-05 5.61601e-08
1.11261e-07 5.61601e-08 3.63449e-05
0.0021033 5.85973e-05 1.1448e-06
5.85973e-05 8.45918e-06 2.63638e-09
1.1448e-06 2.63638e-09 2.14878e-05
0.00215885 0.000209805 -3.23698e-07
0.000209805 7.20998e-06 -1.02665e-07
-3.23698e-07 -1.02665e-07 3.02203e-06
0.00217937 0.000139193 5.59226e-07
0.000139193 -3.63999e-05 1.13236e-07
5.59226e-07 1.13236e-07 6.19474e-06
0.00219819 0.000421162 -4.31186e-07
0.000421162 6.27264e-05 2.85617e-07
-4.31186e-07 2.85617e-07 -2.22686e-05
0.00230218 0.000325969 2.40362e-06
0.000325969 -1.49705e-05 5.19957e-07
2.40362e-06 5.19957e-07 2.95909e-06
0.00206271 -1.43708e-05 2.69803e-06
-1.43708e-05 -1.18497e-05 2.90375e-08
2.69803e-06 2.90375e-08 -1.96354e-06
0.00218595 6.70398e-05 -1.69222e-06
6.70398e-05 -4.13161e-05 1.2362e-07
-1.69222e-06 1.2362e-07 1.46206e-05
0.00227092 0.000213979 -3.65622e-06
0.000213979 -2.47979e-05 -5.8712e-07
-3.65622e-06 -5.8712e-07 1.58776e-05
0.00239155 0.000457983 -2.61884e-06
0.000457983 2.80826e-05 -6.21255e-07
-2.61884e-06 -6.21255e-07 2.86611e-05
0.00217793 -8.00454e-05 -7.52692e-06
-8.00454e-05 8.62029e-05 3.00725e-07
-7.52692e-06 3.00725e-07 5.48569e-05
0.00211031 -0.000239512 -3.33491e-06
-0.000239512 3.00598e-05 3.58221e-07
-3.33491e-06 3.58221e-07 -3.17736e-05
0.00204368 -0.000134299 -3.28041e-06
-0.000134299 -1.90752e-05 3.14206e-07
-3.28041e-06 3.14206e-07 -1.45304e-05
0.00214776 -0.000341328 -4.32961e-06
-0.000341328 1.77182e-05 4.48928e-07
-4.32961e-06 4.48928e-07 -1.6497e-05
0.00106938 -0.000459854 -6.55741e-06
-0.000459854 0.000156271 3.09971e-07
-6.55741e-06 3.09971e-07 -0.000223877
0.00174991 -0.000772484 9.90885e-06
-0.000772484 0.000405972 -7.15029e-06
9.90885e-06 -7.15029e-06 -9.67277e-05
0.00217979 -0.000842921 -2.25492e-06
-0.000842921 0.000415545 -3.95736e-06
-2.25492e-06 -3.95736e-06 -4.36292e-05
0.0021463 -0.000504975 -4.27111e-06
-0.000504975 0.00013251 9.90062e-07
-4.27111e-06 9.90062e-07 -1.37947e-05
0.00217621 -0.000447867 3.03157e-07
-0.000447867 1.68991e-05 1.14976e-07
3.03157e-07 1.14976e-07 -2.80872e-05
0.0021438 -0.00062098 -7.97624e-07
-0.00062098 0.000119265 1.31917e-06
-7.97624e-07 1.31917e-06 -5.08805e-05
0.00217637 -0.000684928 -5.31171e-06
-0.000684928 0.000330576 -2.08794e-06
-5.31171e-06 -2.08794e-06 2.35046e-05
0.00228598 -0.000678588 1.01187e-05
-0.000678588 0.000282973 -3.77417e-06
1.01187e-05 -3.77417e-06 4.38924e-05
0.00116251 -0.00050493 -9.71083e-06
-0.00050493 0.000327676 5.16343e-07
-9.71083e-06 5.16343e-07 -9.33585e-05
0.000854458 -0.000440037 7.66466e-06
-0.000440037 0.000162842 -4.98721e-06
7.66466e-06 -4.98721e-06 -0.000252134
0.00218947 -0.00029438 -3.4923e-06
-0.00029438 0.00101717 -4.61733e-06
-3.4923e-06 -4.61733e-06 0.000728984
-1.43715e-05 -8.6578e-05 1.64265e-06
-8.6578e-05 -0.000267234 5.49511e-06
1.64265e-06 5.49511e-06 -0.000449064
-0.000172478 -0.000166978 2.18564e-06
-0.000166978 -0.000334927 -3.3554e-06
2.18564e-06 -3.3554e-06 -0.000654157
0.00205471 -8.77029e-05 1.40415e-07
-8.77029e-05 -2.30517e-05 -1.11433e-07
1.40415e-07 -1.11433e-07 -8.98253e-06
0.0021402 -0.000207336 1.63707e-06
-0.000207336 -7.43247e-06 2.21245e-08
1.63707e-06 2.21245e-08 -2.3048e-06
0.00225554 -0.000404941 -6.90156e-07
-0.000404941 -1.07458e-05 1.12696e-07
-6.90156e-07 1.12696e-07 -1.44353e-05
0.00170509 -0.000683757 -1.63265e-06
-0.000683757 0.00054665 -4.10481e-07
-1.63265e-06 -4.10481e-07 5.93569e-05
0.00154492 -0.000824435 4.13727e-06
-0.000824435 0.000272195 -5.55335e-07
4.13727e-06 -5.55335e-07 -0.000255624
0.00228594 -0.000898409 -1.13354e-06
-0.000898409 0.000459743 -7.09626e-08
-1.13354e-06 -7.09626e-08 -8.43678e-06
0.00222905 -0.000531656 5.06305e-07
-0.000531656 7.53034e-05 -7.22057e-08
5.06305e-07 -7.22057e-08 -1.46062e-06
0.00216944 -0.000704679 3.02358e-06
-0.000704679 0.000271422 -4.34465e-06
3.02358e-06 -4.34465e-06 -2.57978e-05
0.00236025 -0.000722302 -9.7247e-07
-0.000722302 0.000198378 -3.95639e-07
-9.7247e-07 -3.95639e-07 4.22633e-06
-0.000152886 3.07171e-05 -2.10309e-06
3.07171e-05 -0.00035797 -6.45089e-07
-2.10309e-06 -6.45089e-07 -0.000478144
0.00139258 -0.000590285 -3.66439e-07
-0.000590285 0.000469223 -1.69562e-06
-3.66439e-07 -1.69562e-06 -5.2524e-06
0.00117807 -0.000530668 -4.90492e-06
-0.000530668 0.000391226 -1.34198e-06
-4.90492e-06 -1.34198e-06 -0.000101826
0.00128399 -0.000351003 -4.28872e-06
-0.000351003 0.000445935 4.16232e-06
-4.28872e-06 4.16232e-06 6.36146e-05
0.00166569 -0.000388083 1.66674e-06
-0.000388083 0.000789838 -1.85083e-06
1.66674e-06 -1.85083e-06 0.000437839
0.000474565 -0.000120259 -4.60465e-07
-0.000120259 0.000140484 1.04474e-06
-4.60465e-07 1.04474e-06 -0.000175033
0.00214612 -0.000109939 -1.07344e-06
-0.000109939 -4.93919e-05 -7.29738e-08
-1.07344e-06 -7.29738e-08 -4.80469e-06
0.00230967 -0.0002795 -1.27513e-06
-0.0002795 -5.73399e-05 1.04906e-06
-1.27513e-06 1.04906e-06 6.36127e-06
0.00233385 -0.000499602 3.91861e-07
-0.000499602 -1.26999e-05 4.93753e-07
3.91861e-07 4.93753e-07 1.30205e-06
0.00236991 -0.000641009 -5.81434e-07
-0.000641009 5.50892e-05 -1.5926e-06
-5.81434e-07 -1.5926e-06 2.13514e-06
0.00194389 -0.000792109 -9.13714e-06
-0.000792109 0.000690678 3.35658e-06
-9.13714e-06 3.35658e-06 0.000157533
0.00248573 -0.000844107 -1.04731e-05
-0.000844107 0.000340582 -5.75987e-06
-1.04731e-05 -5.75987e-06 5.67165e-05
0.00190467 -0.000954406 -5.09479e-05
-0.000954406 0.000478641 8.74761e-06
-5.09479e-05 8.74761e-06 -9.50143e-05
0.00218973 -0.00093599 -2.7732e-05
-0.00093599 0.000420256 3.77961e-06
-2.7732e-05 3.77961e-06 -6.02586e-05
-0.000214285 4.55552e-05 -6.0301e-06
4.55552e-05 -0.00039892 -4.44778e-06
-6.0301e-06 -4.44778e-06 -0.000487627
0.0010693 -7.72308e-06 -2.97396e-06
-7.72308e-06 0.000498608 -1.04008e-06
-2.97396e-06 -1.04008e-06 0.000273845
0.00225625 -0.000422046 -7.9036e-06
-0.000422046 0.00129116 7.51948e-07
-7.9036e-06 7.51948e-07 0.000923981
0.000427698 -0.000229757 -6.46066e-07
-0.000229757 -2.00105e-05 -9.40677e-06
-6.46066e-07 -9.40677e-06 -0.000378543
0.00304641 -0.000826159 -1.20596e-05
-0.000826159 0.00146557 1.39528e-05
-1.20596e-05 1.39528e-05 0.000932013
0.00171922 -0.000596138 5.68586e-06
-0.000596138 0.00073259 1.30707e-05
5.68586e-06 1.30707e-05 0.000178617
0.000543125 6.95304e-05 -5.04627e-07
6.95304e-05 6.21954e-05 -7.55285e-06
-5.04627e-07 -7.55285e-06 -5.66942e-05
-0.000547353 4.5266e-05 1.31125e-06
4.5266e-05 -0.000555235 3.57587e-07
1.31125e-06 3.57587e-07 -0.000789737
0.00215224 0.000527499 -1.25453e-06
0.000527499 0.000135165 -8.40712e-07
-1.25453e-06 -8.40712e-07 -4.1015e-05
0.000303182 6.88151e-05 -4.456e-06
6.88151e-05 -0.00017895 2.261e-06
-4.456e-06 2.261e-06 -0.000423463
0.00131744 0.000528647 2.84064e-06
0.000528647 0.000398248 -4.88987e-06
2.84064e-06 -4.88987e-06 3.4426e-07
-0.00028583 0.000141344 -7.85328e-06
0.000141344 -0.000710747 -7.31262e-06
-7.85328e-06 -7.31262e-06 -0.000938902
0.00227505 0.000703853 4.75075e-06
0.000703853 0.000331954 1.9265e-06
4.75075e-06 1.9265e-06 3.35622e-05
0.0021477 0.000673625 -3.69268e-06
0.000673625 0.000157414 6.46436e-07
-3.69268e-06 6.46436e-07 -9.43626e-05
0.00211268 0.00085227 -5.60737e-06
0.00085227 0.000781375 4.86623e-06
-5.60737e-06 4.86623e-06 0.000240144
0.00198658 0.000796932 -8.17187e-06
0.000796932 0.000386315 2.15165e-06
-8.17187e-06 2.15165e-06 -3.59473e-05
0.000845646 0.000158037 -9.48416e-07
0.000158037 0.00029812 -1.93363e-07
-9.48416e-07 -1.93363e-07 0.00011635
0.000383581 0.000153391 2.26966e-06
0.000153391 4.90544e-05 -8.16235e-07
2.26966e-06 -8.16235e-07 -0.000254984
0.00131907 0.000580405 -3.40425e-06
0.000580405 0.000421405 -1.09627e-06
-3.40425e-06 -1.09627e-06 -1.90561e-05
0.00152211 0.000250374 -1.7097e-06
0.000250374 0.00042006 1.21338e-06
-1.7097e-06 1.21338e-06 0.000174981
0.00227595 0.000575243 3.63458e-07
0.000575243 0.00083841 -2.4683e-06
3.63458e-07 -2.4683e-06 0.000473408
0.00235343 0.000608816 -2.44966e-06
0.000608816 0.000119534 -7.76203e-07
-2.44966e-06 -7.76203e-07 -9.65744e-06
0.00242269 0.000756048 2.93748e-06
0.000756048 0.000395086 -7.74598e-07
2.93748e-06 -7.74598e-07 7.15412e-05
0.00244617 0.000734791 1.07919e-06
0.000734791 0.000289236 2.71226e-06
1.07919e-06 2.71226e-06 1.19759e-05
0.00179297 0.000830565 4.74875e-06
0.000830565 0.000544828 1.29103e-06
4.74875e-06 1.29103e-06 1.25839e-05
0.00215644 0.000941594 -4.9572e-06
0.000941594 0.00049105 8.60886e-07
-4.9572e-06 8.60886e-07 1.10682e-06
-0.00153515 2.40835e-05 -6.33194e-06
2.40835e-05 -0.00119034 3.91709e-06
-6.33194e-06 3.91709e-06 -0.00136416
-0.00175108 0.000103077 -4.59889e-07
0.000103077 -0.00124416 3.17047e-07
-4.59889e-07 3.17047e-07 -0.00158586
0.00172407 0.000671099 6.92556e-06
0.000671099 0.000607195 -3.46626e-06
6.92556e-06 -3.46626e-06 0.000143026
0.00167859 0.000450222 6.68912e-06
0.000450222 0.000430768 5.15493e-07
6.68912e-06 5.15493e-07 0.000120842
0.00257981 0.000602852 1.04867e-06
0.000602852 -6.83899e-05 6.00276e-07
1.04867e-06 6.00276e-07 -1.01559e-05
0.0026129 0.000735368 6.53217e-06
0.000735368 0.000295931 8.79786e-07
6.53217e-06 8.79786e-07 8.97602e-05
0.00243851 0.000897549 8.43529e-06
0.000897549 0.000413369 -4.39468e-06
8.43529e-06 -4.39468e-06 -7.64884e-06
0.00167916 0.000916331 5.20478e-06
0.000916331 0.000323125 -1.23176e-06
5.20478e-06 -1.23176e-06 -0.000235425
0.00112491 0.00017283 7.16606e-07
0.00017283 0.000481652 -1.78545e-06
7.16606e-07 -1.78545e-06 0.000310313
0.000444364 0.000170878 -2.83482e-06
0.000170878 5.35766e-05 -2.86973e-07
-2.83482e-06 -2.86973e-07 -9.23219e-05
0.0011782 0.000137356 -9.71294e-06
0.000137356 0.000529298 -5.60801e-06
-9.71294e-06 -5.60801e-06 0.000420603
0.000371991 5.27949e-05 3.29316e-07
5.27949e-05 -3.89485e-06 -2.58363e-06
3.29316e-07 -2.58363e-06 -0.000129635
-0.000794617 5.43471e-05 3.27719e-07
5.43471e-05 -0.000699669 7.90877e-07
3.27719e-07 7.90877e-07 -0.00085523
0.000664682 6.64444e-05 -8.01748e-07
6.64444e-05 0.000192194 3.98483e-08
-8.01748e-07 3.98483e-08 6.39087e-05
0.000594056 0.000180274 1.53371e-06
0.000180274 0.000193359 1.18e-06
1.53371e-06 1.18e-06 3.51305e-05
0.00054624 8.94592e-05 7.11206e-07
8.94592e-05 0.000175219 1.10668e-06
7.11206e-07 1.10668e-06 -1.45592e-05
0.000622923 0.000144324 2.97364e-06
0.000144324 0.000126175 -8.45859e-06
2.97364e-06 -8.45859e-06 3.81714e-05
0.000696771 4.76533e-05 9.58676e-07
4.76533e-05 0.000258974 -5.57376e-06
9.58676e-07 -5.57376e-06 7.64192e-05
-4.13415e-05 7.54989e-05 -4.12548e-07
7.54989e-05 -0.000226635 3.05425e-06
-4.12548e-07 3.05425e-06 -0.000390414
0.000683651 0.000125257 2.32871e-06
0.000125257 0.000201083 4.12514e-06
2.32871e-06 4.12514e-06 7.0211e-05
0.000445398 8.72832e-05 2.76585e-06
8.72832e-05 2.95039e-05 4.12287e-06
2.76585e-06 4.12287e-06 -6.14788e-05
0.000434458 2.05525e-05 -1.55274e-06
2.05525e-05 1.29855e-05 -4.12679e-07
-1.55274e-06 -4.12679e-07 -6.93864e-05
0.00125253 1.29176e-05 1.02358e-06
1.29176e-05 0.000503053 3.38074e-06
1.02358e-06 3.38074e-06 0.000481136
0.000420454 -4.08258e-05 1.08875e-06
-4.08258e-05 -2.46017e-06 -3.65094e-06
1.08875e-06 -3.65094e-06 -8.08562e-05
0.00132989 -8.37184e-07 -8.81719e-06
-8.37184e-07 0.00054662 -1.74537e-06
-8.81719e-06 -1.74537e-06 0.000525496
0.000688746 -1.04514e-05 3.22861e-05
-1.04514e-05 0.000129115 9.85501e-06
3.22861e-05 9.85501e-06 0.000133756
0.00136868 -2.37188e-05 -1.15341e-05
-2.37188e-05 0.000568833 -7.70726e-06
-1.15341e-05 -7.70726e-06 0.000546751
0.000733503 -2.61807e-05 1.33138e-05
-2.61807e-05 0.000152979 3.70783e-06
1.33138e-05 3.70783e-06 0.00015453
0.000741341 -4.07604e-05 1.60459e-06
-4.07604e-05 0.000160786 -4.07442e-06
1.60459e-06 -4.07442e-06 0.000156077
0.000341703 4.90665e-05 -2.35846e-06
4.90665e-05 -7.33114e-05 -5.60351e-06
-2.35846e-06 -5.60351e-06 -0.000106569
0.000398646 6.67176e-05 -1.24765e-06
6.67176e-05 -1.69308e-05 1.49746e-07
-1.24765e-06 1.49746e-07 -6.66907e-05
0.00273132 0.000137202 -3.39479e-06
0.000137202 0.00147686 -6.93106e-06
-3.39479e-06 -6.93106e-06 0.00146802
0.000467958 -2.05235e-05 -9.93948e-06
-2.05235e-05 2.0704e-05 1.17298e-05
-9.93948e-06 1.17298e-05 -4.26464e-05
0.00352642 0.000165255 -2.41592e-05
0.000165255 0.00199437 -2.18259e-06
-2.41592e-05 -2.18259e-06 0.00197596
0.00457483 8.20985e-05 -0.000157878
8.20985e-05 0.00266522 1.9478e-05
-0.000157878 1.9478e-05 0.00266421
0.00221333 0.000420745 -5.11025e-07
0.000420745 8.15784e-05 2.83552e-07
-5.11025e-07 2.83552e-07 -5.08405e-06
0.00217528 0.000210285 -2.09933e-06
0.000210285 2.13652e-05 -7.92359e-07
-2.09933e-06 -7.92359e-07 1.75523e-05
0.00224587 0.000327544 2.59646e-06
0.000327544 -5.23702e-05 1.63115e-06
2.59646e-06 1.63115e-06 -2.78587e-05
0.00215112 0.000140015 2.66059e-06
0.000140015 -6.03124e-05 -7.70073e-08
2.66059e-06 -7.70073e-08 -1.01939e-05
0.00209414 6.01544e-05 -2.80747e-06
6.01544e-05 5.20107e-06 -3.62169e-07
-2.80747e-06 -3.62169e-07 1.47822e-05
0.00216806 -1.2033e-05 -8.02916e-06
-1.2033e-05 8.02461e-05 -3.8264e-09
-8.02916e-06 -3.8264e-09 5.31564e-05
0.00207284 -1.30289e-05 2.55991e-07
-1.30289e-05 -4.37374e-06 1.87172e-09
2.55991e-07 1.87172e-09 6.40476e-06
0.00216758 6.99349e-05 1.01057e-06
6.99349e-05 -4.92138e-05 5.80439e-08
1.01057e-06 5.80439e-08 5.10144e-06
0.00224956 0.000220122 1.01976e-06
0.000220122 -4.17938e-05 2.10659e-07
1.01976e-06 2.10659e-07 2.96959e-06
0.0023641 0.000444577 5.18151e-07
0.000444577 4.21054e-06 1.70375e-07
5.18151e-07 1.70375e-07 7.98509e-06
0.00213417 -1.68517e-05 -2.1493e-06
-1.68517e-05 -6.09941e-05 -4.95193e-08
-2.1493e-06 -4.95193e-08 -1.25631e-05
0.00229368 0.000120075 -6.01023e-06
0.000120075 -8.58193e-05 -2.59511e-07
-6.01023e-06 -2.59511e-07 1.26987e-05
0.00252007 0.000334319 -2.96497e-06
0.000334319 -1.50565e-05 -1.49546e-06
-2.96497e-06 -1.49546e-06 5.76167e-05
0.00204028 -9.55438e-05 -2.04973e-06
-9.55438e-05 -3.34925e-05 2.70728e-07
-2.04973e-06 2.70728e-07 -2.07125e-05
0.00214807 -0.000207384 -1.97803e-06
-0.000207384 -5.43541e-06 -1.34028e-07
-1.97803e-06 -1.34028e-07 -7.44666e-07
0.00224005 -0.000397237 -1.14311e-06
-0.000397237 -1.79532e-06 -3.14901e-07
-1.14311e-06 -3.14901e-07 -1.34044e-05
0.00185143 -0.000701483 -1.61005e-07
-0.000701483 0.000616353 -3.73945e-06
-1.61005e-07 -3.73945e-06 0.00012756
0.00169172 -0.000816893 2.00824e-05
-0.000816893 0.000365721 -7.99776e-06
2.00824e-05 -7.99776e-06 -0.000154773
0.00213169 -0.000893669 2.57745e-06
-0.000893669 0.000376434 -1.64455e-06
2.57745e-06 -1.64455e-06 -9.44134e-05
0.00223223 -0.000528433 -1.43648e-06
-0.000528433 8.10682e-05 3.16237e-07
-1.43648e-06 3.16237e-07 1.84204e-06
0.00228567 -0.000701226 7.86199e-06
-0.000701226 0.000179451 1.721e-06
7.86199e-06 1.721e-06 -3.77272e-06
0.00234551 -0.000746878 7.23043e-06
-0.000746878 0.000349044 -6.82624e-06
7.23043e-06 -6.82624e-06 4.67898e-05
0.00099371 -0.000526305 -1.10898e-06
-0.000526305 0.00023631 -1.47729e-06
-1.10898e-06 -1.47729e-06 -0.000227494
0.00187324 -0.000637406 3.70361e-06
-0.000637406 0.000808838 -1.18351e-05
3.70361e-06 -1.18351e-05 0.000305737
0.00221317 -0.000403203 -1.08504e-05
-0.000403203 0.0010806 1.12895e-05
-1.08504e-05 1.12895e-05 0.000656317
0.000237126 3.7424e-05 5.04211e-06
3.7424e-05 -0.000110581 3.51688e-06
5.04211e-06 3.51688e-06 -0.000228908
0.00161882 -0.000446033 -8.2148e-07
-0.000446033 0.000753188 9.49885e-07
-8.2148e-07 9.49885e-07 0.000398876
-0.000274707 -3.17191e-07 7.1905e-06
-3.17191e-07 -0.000351876 -3.17146e-07
7.1905e-06 -3.17146e-07 -0.000649668
0.00215593 -0.000106173 -5.49209e-07
-0.000106173 -4.23489e-05 8.26673e-08
-5.49209e-07 8.26673e-08 1.88122e-07
0.00228915 -0.000289463 3.65547e-07
-0.000289463 -7.40139e-05 2.4096e-08
3.65547e-07 2.4096e-08 -8.42368e-06
0.00233558 -0.000491633 -7.10668e-07
-0.000491633 -7.83778e-06 3.35799e-07
-7.10668e-07 3.35799e-07 4.78735e-06
0.00203341 -0.000805777 -1.3083e-06
-0.000805777 0.000741057 1.21628e-06
-1.3083e-06 1.21628e-06 0.00020748
0.00174413 -0.000923815 8.08857e-06
-0.000923815 0.000389828 -1.89645e-06
8.08857e-06 -1.89645e-06 -0.000172646
0.00237886 -0.000931998 -1.84207e-06
-0.000931998 0.000537747 -1.59418e-06
-1.84207e-06 -1.59418e-06 7.20877e-05
0.00237137 -0.000652068 9.65056e-08
-0.000652068 5.89608e-05 -1.42164e-07
9.65056e-08 -1.42164e-07 -4.35772e-06
0.00222206 -0.000800995 2.17682e-06
-0.000800995 0.000206125 -1.30553e-06
2.17682e-06 -1.30553e-06 -6.12426e-05
0.000197174 6.3145e-05 -2.42294e-06
6.3145e-05 -0.000135001 -1.63401e-06
-2.42294e-06 -1.63401e-06 -0.000222033
0.000734565 -5.23249e-05 -1.28414e-06
-5.23249e-05 0.000270994 6.14664e-07
-1.28414e-06 6.14664e-07 5.9656e-05
0.00121639 -0.000602597 -3.18748e-06
-0.000602597 0.000363341 8.42058e-07
-3.18748e-06 8.42058e-07 -0.000112142
0.00169379 -0.000557265 -4.68381e-06
-0.000557265 0.000751602 2.33858e-06
-4.68381e-06 2.33858e-06 0.000205167
0.00110475 -0.000208103 6.18516e-07
-0.000208103 0.000385166 -1.90689e-06
6.18516e-07 -1.90689e-06 2.5442e-05
0.00148696 -0.000311673 -5.87105e-07
-0.000311673 0.000795195 1.8395e-06
-5.87105e-07 1.8395e-06 0.000437609
0.00228159 -0.000142403 -4.57664e-06
-0.000142403 -8.30661e-05 1.3357e-06
-4.57664e-06 1.3357e-06 1.65584e-05
0.00245276 -0.000421852 -1.76746e-06
-0.000421852 -0.000122712 2.17542e-06
-1.76746e-06 2.17542e-06 1.03637e-05
0.00241103 -0.000613641 3.07004e-06
-0.000613641 -2.10173e-05 -1.22583e-06
3.07004e-06 -1.22583e-06 -1.06133e-05
0.00251774 -0.000829779 1.96431e-06
-0.000829779 0.000173437 -2.29412e-06
1.96431e-06 -2.29412e-06 1.59187e-05
0.000973438 -0.000702818 -7.84501e-06
-0.000702818 0.000115931 -3.73198e-06
-7.84501e-06 -3.73198e-06 -0.000385576
0.00244201 -0.00100137 -4.56186e-06
-0.00100137 0.000480276 -2.17656e-06
-4.56186e-06 -2.17656e-06 4.6484e-05
0.0023907 -0.0011038 -5.88497e-05
-0.0011038 0.000687851 3.84606e-06
-5.88497e-05 3.84606e-06 6.99014e-05
0.000553393 4.52693e-05 -3.27721e-07
4.52693e-05 7.39266e-05 -1.50799e-06
-3.27721e-07 -1.50799e-06 7.74788e-06
0.000792822 -0.000167684 3.89865e-06
-0.000167684 0.000302514 -3.63588e-06
3.89865e-06 -3.63588e-06 0.000165915
0.000172297 8.50908e-05 -8.18839e-06
8.50908e-05 -9.94661e-05 -1.7722e-06
-8.18839e-06 -1.7722e-06 -0.000236992
0.0010759 -9.50438e-05 -4.6688e-06
-9.50438e-05 0.000514729 2.7189e-06
-4.6688e-06 2.7189e-06 0.000239265
-0.000120748 -0.000181259 -1.06741e-06
-0.000181259 -0.000295314 -1.16496e-05
-1.06741e-06 -1.16496e-05 -0.000612515
0.00109677 -0.000293639 2.73387e-06
-0.000293639 0.000476297 -1.08074e-05
2.73387e-06 -1.08074e-05 1.39239e-05
0.00148206 -0.000665744 -2.33172e-05
-0.000665744 0.000527048 3.65118e-05
-2.33172e-05 3.65118e-05 4.52577e-05
0.00251024 -0.000604538 -1.79106e-05
-0.000604538 0.00142278 1.6542e-05
-1.79106e-05 1.6542e-05 0.000670991
9.72441e-05 7.34791e-05 3.69799e-07
7.34791e-05 -0.000201023 -2.26435e-07
3.69799e-07 -2.26435e-07 -0.00035834
0.00154107 0.00027871 -5.79943e-08
0.00027871 0.000762592 1.37044e-06
-5.79943e-08 1.37044e-06 0.000448872
0.00241495 0.000621052 -4.12604e-07
0.000621052 0.000140087 -8.15431e-07
-4.12604e-07 -8.15431e-07 6.86307e-06
0.000865292 0.000198069 -5.86292e-06
0.000198069 -7.98613e-06 -3.10395e-06
-5.86292e-06 -3.10395e-06 -0.000258563
0.00119465 0.000555685 -2.72422e-06
0.000555685 0.000346552 -8.46566e-07
-2.72422e-06 -8.46566e-07 -8.76999e-05
0.00225161 0.000532927 -6.75097e-06
0.000532927 0.000802356 2.0881e-06
-6.75097e-06 2.0881e-06 0.000450815
0.00257693 0.000751536 -5.49318e-06
0.000751536 0.000498786 3.38157e-07
-5.49318e-06 3.38157e-07 0.000185444
0.00269278 0.00076274 -7.2578e-06
0.00076274 0.000437707 6.66004e-06
-7.2578e-06 6.66004e-06 0.000156185
0.0015996 0.000818703 -5.18636e-06
0.000818703 0.000419677 1.78241e-06
-5.18636e-06 1.78241e-06 -0.000114473
0.00201868 0.000962425 -1.20286e-05
0.000962425 0.000411618 7.01816e-09
-1.20286e-05 7.01816e-09 -9.61265e-05
-0.000191821 8.2168e-05 1.52968e-06
8.2168e-05 -0.000318116 1.56436e-06
1.52968e-06 1.56436e-06 -0.000531788
0.000288222 0.0003112 4.19412e-06
0.0003112 4.65049e-05 -2.38962e-06
4.19412e-06 -2.38962e-06 -0.00031884
0.00151219 0.000659435 1.29028e-06
0.000659435 0.000447853 -1.58803e-07
1.29028e-06 -1.58803e-07 -2.19773e-05
0.0020244 0.000492762 -5.39598e-06
0.000492762 0.000682251 1.12825e-06
-5.39598e-06 1.12825e-06 0.000355774
0.00252714 0.000579372 2.76018e-07
0.000579372 -0.000131951 -9.97142e-07
2.76018e-07 -9.97142e-07 -5.3022e-05
0.002664 0.000749204 3.24633e-06
0.000749204 0.000322905 -2.76797e-07
3.24633e-06 -2.76797e-07 0.000102655
0.00227851 0.000862232 -3.11297e-06
0.000862232 0.000348297 -1.84797e-08
-3.11297e-06 -1.84797e-08 -5.99531e-05
0.00204387 0.000949561 2.04901e-06
0.000949561 0.000521166 3.4742e-07
2.04901e-06 3.4742e-07 -3.46721e-05
-0.000629484 3.51381e-05 -5.13976e-06
3.51381e-05 -0.000573278 5.12113e-07
-5.13976e-06 5.12113e-07 -0.00075988
0.00244229 0.000420602 3.51722e-06
0.000420602 -0.000209096 -4.68491e-07
3.51722e-06 -4.68491e-07 -9.42824e-05
0.00229707 0.000585923 -7.71583e-07
0.000585923 0.00125539 9.61353e-06
-7.71583e-07 9.61353e-06 0.000837569
0.00169757 0.000675036 1.4296e-06
0.000675036 0.00048424 -4.12801e-06
1.4296e-06 -4.12801e-06 3.10717e-05
0.00261729 0.00073286 -1.4431e-05
0.00073286 7.56474e-05 -9.39978e-06
-1.4431e-05 -9.39978e-06 5.88317e-05
0.0013348 0.000800526 3.9983e-06
0.000800526 -0.000301708 -1.03792e-05
3.9983e-06 -1.03792e-05 -0.00068002
0.00300116 0.00109175 2.65439e-06
0.00109175 0.0010098 3.19807e-06
2.65439e-06 3.19807e-06 0.000425096
0.000570809 0.000146914 -1.38452e-07
0.000146914 0.000147432 -7.99842e-09
-1.38452e-07 -7.99842e-09 -6.28436e-06
0.000474228 0.000130456 -2.8162e-06
0.000130456 0.00010497 -1.31275e-06
-2.8162e-06 -1.31275e-06 -9.54918e-06
0.000383811 9.67595e-05 -3.48457e-06
9.67595e-05 7.30674e-05 -6.54915e-07
-3.48457e-06 -6.54915e-07 -7.10875e-06
0.000363993 8.91273e-06 1.33116e-06
8.91273e-06 -3.27505e-06 -3.56912e-06
1.33116e-06 -3.56912e-06 -0.00012764
0.000500895 9.12636e-05 2.70021e-06
9.12636e-05 0.000143659 -3.47024e-06
2.70021e-06 -3.47024e-06 -4.3574e-05
-0.000584865 0.000134602 -4.37093e-06
0.000134602 -0.000506292 1.02782e-05
-4.37093e-06 1.02782e-05 -0.000653303
0.000508116 2.71443e-05 -1.68877e-06
2.71443e-05 9.18492e-05 -5.32478e-08
-1.68877e-06 -5.32478e-08 -4.06016e-05
0.000244005 -1.66226e-07 -6.52273e-07
-1.66226e-07 -2.52203e-05 -3.54158e-07
-6.52273e-07 -3.54158e-07 -0.000203252
2.76349e-06 8.13194e-05 -4.17401e-06
8.13194e-05 -0.000229527 2.80149e-06
-4.17401e-06 2.80149e-06 -0.000303129
0.000729811 0.000136737 1.50195e-06
0.000136737 0.000291282 -1.34499e-06
1.50195e-06 -1.34499e-06 9.96989e-05
0.0018641 0.000190136 -1.41898e-06
0.000190136 0.000902321 -7.05134e-06
-1.41898e-06 -7.05134e-06 0.00084697
-2.22529e-05 2.48243e-05 1.19755e-05
2.48243e-05 -0.000235243 -1.10721e-05
1.19755e-05 -1.10721e-05 -0.000331299
0.000441888 0.00012585 7.32106e-07
0.00012585 0.000118293 3.15704e-06
7.32106e-07 3.15704e-06 -7.82324e-05
0.000508457 6.83766e-05 7.56396e-07
6.83766e-05 0.0001216 4.0277e-06
7.56396e-07 4.0277e-06 -6.31003e-05
0.000527737 2.40434e-05 2.27532e-06
2.40434e-05 9.00562e-05 3.42022e-06
2.27532e-06 3.42022e-06 -4.33827e-05
0.000487336 -7.10898e-05 -1.47358e-06
-7.10898e-05 4.87864e-05 3.07131e-06
-1.47358e-06 3.07131e-06 -4.04944e-05
0.000464942 1.58462e-05 7.19202e-07
1.58462e-05 2.92531e-05 -4.7209e-07
7.19202e-07 -4.7209e-07 -5.36234e-05
0.00131694 2.88866e-05 3.6781e-06
2.88866e-05 0.000550439 3.629e-06
3.6781e-06 3.629e-06 0.000527661
0.000464719 1.47885e-05 6.50806e-07
1.47885e-05 1.87255e-05 -3.90146e-06
6.50806e-07 -3.90146e-06 -5.48369e-05
0.00133598 1.89792e-05 -8.91008e-06
1.89792e-05 0.000557676 -1.89289e-06
-8.91008e-06 -1.89289e-06 0.000535263
0.000750844 -4.04289e-06 2.77078e-05
-4.04289e-06 0.000174401 9.36752e-06
2.77078e-05 9.36752e-06 0.000178293
0.00133961 -1.29244e-05 -9.62245e-06
-1.29244e-05 0.000552199 -7.42394e-06
-9.62245e-06 -7.42394e-06 0.000532061
0.000754378 -1.65458e-05 1.0935e-05
-1.65458e-05 0.000168162 3.69665e-06
1.0935e-05 3.69665e-06 0.000170876
0.000736209 -2.95889e-05 1.18218e-06
-2.95889e-05 0.000152815 -3.22334e-06
1.18218e-06 -3.22334e-06 0.000153215
0.00058963 -2.05596e-05 9.29483e-07
-2.05596e-05 9.09281e-05 -2.51582e-06
9.29483e-07 -2.51582e-06 3.09454e-05
0.000342423 3.02101e-05 -6.52922e-07
3.02101e-05 -8.38198e-05 -4.85598e-06
-6.52922e-07 -4.85598e-06 -0.000108183
0.000375038 4.56835e-05 6.6287e-07
4.56835e-05 -5.10574e-05 3.79783e-07
6.6287e-07 3.79783e-07 -8.49541e-05
0.00258873 0.000108588 5.47305e-06
0.000108588 0.00137273 -5.68782e-06
5.47305e-06 -5.68782e-06 0.00137191
0.000374466 4.17887e-05 2.83518e-06
4.17887e-05 -4.45118e-05 8.8798e-06
2.83518e-06 8.8798e-06 -8.89437e-05
0.0030084 0.000152812 -4.74995e-06
0.000152812 0.00165828 -5.5548e-07
-4.74995e-06 -5.5548e-07 0.0016459
0.00381306 0.000117221 -6.797e-05
0.000117221 0.00216546 8.19248e-06
-6.797e-05 8.19248e-06 0.00215745
0.00233965 0.000431823 2.81801e-06
0.000431823 -1.7746e-05 1.08269e-06
2.81801e-06 1.08269e-06 -1.1054e-05
0.00223202 0.000226757 2.69839e-06
0.000226757 -5.56478e-05 6.05421e-07
2.69839e-06 6.05421e-07 -7.3306e-06
0.00215262 7.3729e-05 1.85372e-06
7.3729e-05 -5.42059e-05 -1.87849e-07
1.85372e-06 -1.87849e-07 -1.88899e-06
0.00208239 -1.14776e-05 -3.12513e-06
-1.14776e-05 3.17961e-06 -9.36343e-08
-3.12513e-06 -9.36343e-08 1.4852e-05
0.00214813 -1.17273e-05 -7.79637e-07
-1.17273e-05 -5.43361e-05 -1.06409e-08
-7.79637e-07 -1.06409e-08 -2.50931e-06
0.00228659 0.000114415 3.99823e-07
0.000114415 -8.20605e-05 6.63219e-07
3.99823e-07 6.63219e-07 1.40345e-05
0.0024193 0.000342865 -9.32748e-07
0.000342865 -6.25348e-05 -3.21662e-07
-9.32748e-07 -3.21662e-07 9.72887e-06
0.00225716 -1.22789e-05 -4.94593e-06
-1.22789e-05 -0.000110515 4.54539e-07
-4.94593e-06 4.54539e-07 6.32109e-07
0.00257926 0.000168484 -4.79903e-06
0.000168484 -5.48423e-05 -2.96182e-06
-4.79903e-06 -2.96182e-06 6.25185e-05
0.00247727 0.000136636 3.94466e-06
0.000136636 -8.61882e-05 6.93923e-06
3.94466e-06 6.93923e-06 3.51068e-05
0.00217223 -0.000102676 9.81753e-07
-0.000102676 -3.07853e-05 1.64652e-07
9.81753e-07 1.64652e-07 9.5261e-06
0.00226852 -0.000299842 3.77702e-07
-0.000299842 -9.29997e-05 -1.3456e-06
3.77702e-07 -1.3456e-06 -2.37517e-05
0.00233563 -0.000482325 1.3716e-07
-0.000482325 -2.93345e-06 -9.39245e-07
1.3716e-07 -9.39245e-07 8.31831e-06
0.00132724 -0.000725374 4.32842e-06
-0.000725374 0.000301946 -4.80662e-07
4.32842e-06 -4.80662e-07 -0.000211871
0.00183709 -0.000935338 3.56144e-05
-0.000935338 0.000437291 -4.49682e-06
3.56144e-05 -4.49682e-06 -0.000127053
0.00243211 -0.000915547 1.42657e-05
-0.000915547 0.000567908 -4.25065e-06
1.42657e-05 -4.25065e-06 0.000118377
0.00235716 -0.000658528 3.24189e-06
-0.000658528 5.95353e-05 1.19591e-06
3.24189e-06 1.19591e-06 -1.66681e-05
0.00224889 -0.000783881 1.35718e-05
-0.000783881 0.000246345 2.15373e-06
1.35718e-05 2.15373e-06 -1.16759e-05
0.00074791 -0.000533563 5.22881e-06
-0.000533563 0.00010533 -2.02258e-05
5.22881e-06 -2.02258e-05 -0.000372869
0.00121494 -0.000461173 4.28909e-06
-0.000461173 0.000522998 -1.92734e-05
4.28909e-06 -1.92734e-05 -2.34973e-05
-0.000190483 -0.000140615 -5.25408e-06
-0.000140615 -0.000463694 6.70469e-06
-5.25408e-06 6.70469e-06 -0.000801963
0.000438745 1.42824e-05 2.4061e-06
1.42824e-05 1.74394e-05 2.84693e-06
2.4061e-06 2.84693e-06 -6.58318e-05
0.000207232 1.31715e-06 7.39157e-06
1.31715e-06 -7.97525e-05 1.01016e-06
7.39157e-06 1.01016e-06 -0.000275258
0.00100096 -0.000248269 -4.55128e-07
-0.000248269 0.000478901 6.90316e-06
-4.55128e-07 6.90316e-06 0.000124747
0.00227894 -0.000145263 4.09713e-07
-0.000145263 -9.61052e-05 3.3323e-07
4.09713e-07 3.3323e-07 7.40282e-06
0.000459892 2.38571e-06 1.91215e-06
2.38571e-06 1.31952e-05 3.67778e-07
1.91215e-06 3.67778e-07 -5.27464e-05
0.000347303 -8.59413e-05 -3.5933e-06
-8.59413e-05 -2.35901e-05 -1.01636e-06
-3.5933e-06 -1.01636e-06 -0.00013436
0.00242275 -0.000408895 -3.42427e-07
-0.000408895 -0.000113052 -1.91087e-07
-3.42427e-07 -1.91087e-07 4.15016e-06
0.00238644 -0.000597495 -1.93179e-06
-0.000597495 -1.92718e-05 6.70315e-07
-1.93179e-06 6.70315e-07 -2.33678e-06
0.00202527 -0.000857943 1.27353e-06
-0.000857943 0.000736636 1.8656e-06
1.27353e-06 1.8656e-06 0.000189424
0.00224297 -0.00108515 9.92231e-06
-0.00108515 0.000612027 -9.86654e-07
9.92231e-06 -9.86654e-07 -2.23489e-06
0.00241506 -0.000997449 2.06915e-06
-0.000997449 0.000452635 -4.00634e-06
2.06915e-06 -4.00634e-06 2.89982e-05
0.00245783 -0.000827215 2.40998e-06
-0.000827215 0.000135255 -5.22633e-07
2.40998e-06 -5.22633e-07 -1.57558e-05
0.000566492 9.64852e-06 -1.48577e-06
9.64852e-06 0.000160927 -1.31978e-06
-1.48577e-06 -1.31978e-06 1.70258e-05
0.00079491 -8.1355e-05 1.49938e-06
-8.1355e-05 0.000331033 2.11923e-06
1.49938e-06 2.11923e-06 6.09773e-05
0.00143542 -0.000644284 1.07112e-05
-0.000644284 0.000541385 1.10607e-05
1.07112e-05 1.10607e-05 6.26821e-05
0.00125395 -0.000474751 1.95666e-05
-0.000474751 0.000625535 -1.06567e-05
1.95666e-05 -1.06567e-05 -3.88726e-05
0.000929535 -0.000213868 -2.51665e-06
-0.000213868 0.000320905 -4.0882e-07
-2.51665e-06 -4.0882e-07 -8.43754e-05
-9.35921e-05 -0.000175522 1.83966e-06
-0.000175522 -0.000262726 -2.41405e-06
1.83966e-06 -2.41405e-06 -0.000587605
0.00229409 -0.000169931 -4.33508e-06
-0.000169931 -0.000277028 5.09371e-06
-4.33508e-06 5.09371e-06 -0.000128218
0.00246666 -0.000534204 1.46925e-06
-0.000534204 -0.000247012 3.36736e-06
1.46925e-06 3.36736e-06 1.24183e-06
0.00274423 -0.000849422 -6.04932e-06
-0.000849422 0.000125819 -3.76639e-06
-6.04932e-06 -3.76639e-06 8.4746e-05
0.00274405 -0.00107678 1.11538e-05
-0.00107678 0.000397326 -1.83379e-06
1.11538e-05 -1.83379e-06 0.000110098
0.000896774 -0.000782341 -1.68918e-06
-0.000782341 0.000151199 -1.03962e-05
-1.68918e-06 -1.03962e-05 -0.000402914
0.00358831 -0.00135218 -1.15457e-05
-0.00135218 0.00123344 3.71915e-06
-1.15457e-05 3.71915e-06 0.000583565
0.000211842 6.51664e-05 -3.60371e-06
6.51664e-05 -0.000110374 -6.43599e-06
-3.60371e-06 -6.43599e-06 -0.000225724
0.000411699 -5.43467e-05 6.04451e-06
-5.43467e-05 2.06195e-05 -1.18616e-06
6.04451e-06 -1.18616e-06 -8.06717e-05
0.0017402 -0.000224645 -6.86721e-06
-0.000224645 0.000822798 1.71676e-05
-6.86721e-06 1.71676e-05 0.000677453
0.000261583 2.24358e-05 -4.1536e-06
2.24358e-05 -5.93246e-05 2.75496e-06
-4.1536e-06 2.75496e-06 -0.000247286
0.00102439 -0.000180335 -7.33234e-06
-0.000180335 0.000469396 9.35385e-06
-7.33234e-06 9.35385e-06 0.000161628
0.000812003 -8.62973e-05 8.70709e-06
-8.62973e-05 0.000213067 -2.16333e-05
8.70709e-06 -2.16333e-05 -6.81335e-05
-0.00216945 -0.000248528 -2.00682e-06
-0.000248528 -0.00106179 -3.28396e-06
-2.00682e-06 -3.28396e-06 -0.00199705
0.000995874 -0.000809394 -4.87242e-05
-0.000809394 0.000142515 2.95519e-05
-4.87242e-05 2.95519e-05 -0.000244556
0.000264266 0.000175778 -9.71123e-08
0.000175778 1.20627e-05 -1.40542e-06
-9.71123e-08 -1.40542e-06 -0.000247248
0.00289392 0.000494223 -1.58955e-05
0.000494223 0.00164868 -8.07356e-06
-1.58955e-05 -8.07356e-06 0.0012896
0.0024947 0.000554148 -4.36232e-06
0.000554148 -0.000172673 -4.31914e-07
-4.36232e-06 -4.31914e-07 -7.69135e-05
0.00273348 0.000763595 -5.98273e-06
0.000763595 0.000364332 -1.00959e-06
-5.98273e-06 -1.00959e-06 0.000130008
0.00279315 0.00052722 -6.96373e-06
0.00052722 0.00117482 1.52776e-06
-6.96373e-06 1.52776e-06 0.000852819
0.00140945 0.000661174 -9.24793e-06
0.000661174 0.000358926 -1.46479e-06
-9.24793e-06 -1.46479e-06 -0.000119531
0.00217532 0.000832905 -5.78764e-06
0.000832905 0.00031479 2.75169e-06
-5.78764e-06 2.75169e-06 -8.22653e-05
0.00247559 0.000986154 -9.30582e-06
0.000986154 0.000759842 -3.98117e-07
-9.30582e-06 -3.98117e-07 0.000206148
0.000101547 0.000157689 1.92433e-06
0.000157689 -6.92709e-05 -5.03198e-07
1.92433e-06 -5.03198e-07 -0.000309458
0.00249551 0.000404174 -1.22687e-06
0.000404174 -0.000175551 -2.61183e-06
-1.22687e-06 -2.61183e-06 -5.04023e-05
0.00149382 0.000436049 3.037e-06
0.000436049 0.000754634 5.02709e-06
3.037e-06 5.02709e-06 0.000392128
0.00157554 0.000648684 2.91855e-06
0.000648684 0.000433985 1.98113e-06
2.91855e-06 1.98113e-06 -1.1357e-05
0.00272003 0.000718489 9.1378e-07
0.000718489 0.000165835 -2.63896e-07
9.1378e-07 -2.63896e-07 0.000144235
0.00191239 0.000866373 -2.21995e-06
0.000866373 3.70794e-05 -5.55812e-06
-2.21995e-06 -5.55812e-06 -0.000351763
0.00238728 0.000990259 -7.22473e-07
0.000990259 0.000679968 -2.56274e-07
-7.22473e-07 -2.56274e-07 0.000118749
0.00178408 0.00039964 -4.49431e-06
0.00039964 0.00109504 -2.05905e-06
-4.49431e-06 -2.05905e-06 0.000771563
0.00389808 0.000664831 -9.11118e-05
0.000664831 0.000612867 -3.09066e-05
-9.11118e-05 -3.09066e-05 0.000844709
0.000596996 0.000509478 -1.10251e-05
0.000509478 0.000153696 7.83712e-06
-1.10251e-05 7.83712e-06 -0.000256177
0.00144226 0.000722439 -6.50079e-06
0.000722439 0.000308787 -1.05785e-05
-6.50079e-06 -1.05785e-05 -0.000195086
0.00299489 0.000992886 -3.86068e-05
0.000992886 0.000490037 -2.32365e-05
-3.86068e-05 -2.32365e-05 0.000231286
0.0011927 0.000852983 -2.8803e-05
0.000852983 -2.35232e-05 -4.53506e-06
-2.8803e-05 -4.53506e-06 -0.000526264
0.00115024 0.00120542 2.38635e-05
0.00120542 -0.00197906 -4.86317e-05
2.38635e-05 -4.86317e-05 -0.00122915
0.000162998 0.000165997 6.92306e-06
0.000165997 -4.87412e-05 2.91547e-06
6.92306e-06 2.91547e-06 -0.000180255
0.000402623 0.000129873 3.15837e-06
0.000129873 0.000122002 1.87672e-06
3.15837e-06 1.87672e-06 2.50007e-05
0.00077716 0.000140944 1.82372e-06
0.000140944 0.000327658 -2.90213e-06
1.82372e-06 -2.90213e-06 0.000242274
0.000375961 -6.59176e-05 1.34524e-06
-6.59176e-05 1.42672e-05 -4.8105e-06
1.34524e-06 -4.8105e-06 -0.000121059
0.000280366 -1.9234e-05 -3.4966e-07
-1.9234e-05 -3.76256e-06 -2.87341e-06
-3.4966e-07 -2.87341e-06 -0.000180767
0.00148103 0.000252765 -2.13021e-07
0.000252765 0.00077118 -2.14954e-07
-2.13021e-07 -2.14954e-07 0.00056666
-0.000505158 5.06682e-05 -7.54008e-06
5.06682e-05 -0.000520547 2.01239e-05
-7.54008e-06 2.01239e-05 -0.000589837
0.000490616 -1.73145e-05 -1.41432e-07
-1.73145e-05 8.51335e-05 -2.53457e-07
-1.41432e-07 -2.53457e-07 -5.82518e-05
0.000408494 8.46174e-05 1.68032e-07
8.46174e-05 3.26223e-05 -6.73628e-07
1.68032e-07 -6.73628e-07 -0.000130816
0.000855948 0.00014413 4.01592e-06
0.00014413 0.000274492 3.90786e-06
4.01592e-06 3.90786e-06 0.000228123
0.00034939 8.06152e-05 1.34101e-06
8.06152e-05 3.26045e-05 8.46419e-07
1.34101e-06 8.46419e-07 -0.000146602
0.000603515 8.07593e-05 -1.24948e-07
8.07593e-05 0.000150484 -2.05522e-06
-1.24948e-07 -2.05522e-06 4.06128e-05
0.0011387 0.000149425 -3.42738e-06
0.000149425 0.000512931 -1.54678e-05
-3.42738e-06 -1.54678e-05 0.000441833
0.000833791 0.000158767 -2.92418e-06
0.000158767 0.000267565 -5.2101e-06
-2.92418e-06 -5.2101e-06 0.000117382
0.000969433 0.000147411 1.84292e-06
0.000147411 0.000415452 3.1862e-06
1.84292e-06 3.1862e-06 0.00022492
0.000884133 0.000125372 -8.31377e-07
0.000125372 0.000351757 8.92198e-07
-8.31377e-07 8.92198e-07 0.000160697
0.00021124 -2.54378e-05 -1.85946e-06
-2.54378e-05 -0.000118827 1.36685e-06
-1.85946e-06 1.36685e-06 -0.000254151
0.00134454 -0.00012364 1.23242e-06
-0.00012364 0.000715157 -2.12289e-06
1.23242e-06 -2.12289e-06 0.000483891
7.5786e-05 -5.17669e-05 -3.23997e-07
-5.17669e-05 -0.000196307 3.3797e-06
-3.23997e-07 3.3797e-06 -0.000336484
0.000407072 2.4203e-06 -2.01047e-06
2.4203e-06 4.32777e-06 2.89486e-06
-2.01047e-06 2.89486e-06 -8.8381e-05
0.000432349 4.2085e-05 2.49458e-06
4.2085e-05 1.89747e-05 -1.05142e-07
2.49458e-06 -1.05142e-07 -7.28123e-05
0.000343693 2.08609e-05 -1.31272e-06
2.08609e-05 -6.57218e-05 4.84735e-06
-1.31272e-06 4.84735e-06 -9.30397e-05
0.000373735 1.60561e-06 -1.61272e-06
1.60561e-06 -1.71584e-05 -4.20887e-06
-1.61272e-06 -4.20887e-06 -0.00010736
0.000863498 1.70497e-05 -4.16957e-06
1.70497e-05 0.000261887 -1.51373e-06
-4.16957e-06 -1.51373e-06 0.000237335
0.00266024 1.18997e-06 2.58035e-05
1.18997e-06 0.00139662 5.83808e-06
2.58035e-05 5.83808e-06 0.00140889
0.00141506 4.15065e-05 -1.46629e-05
4.15065e-05 0.000610211 -7.62637e-06
-1.46629e-05 -7.62637e-06 0.000586943
0.000764997 -7.21533e-06 1.02311e-05
-7.21533e-06 0.00017974 3.64663e-06
1.02311e-05 3.64663e-06 0.000182757
0.000832828 -1.99462e-05 1.14472e-06
-1.99462e-05 0.000214206 -3.0406e-06
1.14472e-06 -3.0406e-06 0.000216246
0.00043564 1.19725e-05 -2.5078e-06
1.19725e-05 1.09357e-06 -3.50348e-06
-2.5078e-06 -3.50348e-06 -5.84352e-05
0.000531159 -3.68297e-05 5.88837e-07
-3.68297e-05 5.8048e-05 -3.40208e-07
5.88837e-07 -3.40208e-07 -4.51128e-06
0.000453982 2.3312e-05 5.07163e-08
2.3312e-05 -2.0378e-05 -4.16795e-06
5.07163e-08 -4.16795e-06 -3.92357e-05
0.000791473 4.56588e-05 1.62573e-08
4.56588e-05 0.000205968 1.52323e-07
1.62573e-08 1.52323e-07 0.000182252
0.00239046 8.35015e-05 4.58484e-06
8.35015e-05 0.00123702 -5.2441e-06
4.58484e-06 -5.2441e-06 0.00124228
0.000468036 6.66141e-05 6.1455e-06
6.66141e-05 1.92106e-05 7.39016e-06
6.1455e-06 7.39016e-06 -2.11775e-05
0.00261071 0.000114181 -2.55431e-06
0.000114181 0.0013889 -2.56024e-07
-2.55431e-06 -2.56024e-07 0.00138666
0.00309976 0.000143208 4.4508e-06
0.000143208 0.00171221 8.12578e-06
4.4508e-06 8.12578e-06 0.00170149
0.00230899 0.000350781 2.55823e-06
0.000350781 -0.000119558 1.73748e-06
2.55823e-06 1.73748e-06 -4.63608e-05
0.00227687 0.000109892 6.57811e-06
0.000109892 -8.01003e-05 -2.69321e-07
6.57811e-06 -2.69321e-07 1.44843e-05
0.00215625 -7.38769e-06 1.62612e-06
-7.38769e-06 -5.21128e-05 -1.48603e-07
1.62612e-06 -1.48603e-07 3.22206e-06
0.00224664 -6.64653e-06 8.99859e-09
-6.64653e-06 -0.000115167 -4.45664e-07
8.99859e-09 -4.45664e-07 -4.15327e-06
0.00249155 0.000176023 8.26681e-07
0.000176023 -9.65631e-05 3.1736e-07
8.26681e-07 3.1736e-07 2.0039e-05
0.00261753 0.000118339 7.16114e-06
0.000118339 3.41883e-06 -5.6088e-06
7.16114e-06 -5.6088e-06 0.000111431
0.00261713 1.39876e-05 -1.18036e-05
1.39876e-05 -0.000119646 -3.00903e-06
-1.18036e-05 -3.00903e-06 4.82906e-05
0.0050426 0.00122109 7.98611e-05
0.00122109 -0.000858098 9.4971e-06
7.98611e-05 9.4971e-06 0.00024246
0.00302879 0.000106244 -2.64214e-05
0.000106244 0.000390992 2.5344e-05
-2.64214e-05 2.5344e-05 0.000657955
0.00048591 0.000120972 -3.70567e-06
0.000120972 7.18696e-05 -2.65914e-06
-3.70567e-06 -2.65914e-06 -3.78104e-05
0.00227455 -0.000147962 4.2192e-06
-0.000147962 -0.000108718 -2.17528e-06
4.2192e-06 -2.17528e-06 -2.30641e-06
0.00240078 -0.000397738 2.05702e-06
-0.000397738 -0.00010079 -1.35469e-06
2.05702e-06 -1.35469e-06 9.81875e-07
0.00237137 -0.000586187 -4.12983e-07
-0.000586187 -1.88796e-05 5.29156e-07
-4.12983e-07 5.29156e-07 7.71649e-06
0.00173923 -0.000843875 -3.30441e-06
-0.000843875 0.00057306 7.8956e-06
-3.30441e-06 7.8956e-06 2.99976e-05
0.00229909 -0.00106722 3.55548e-05
-0.00106722 0.000661374 5.52583e-06
3.55548e-05 5.52583e-06 6.03296e-05
0.00177661 -0.000920099 1.64077e-06
-0.000920099 9.23227e-05 1.71812e-07
1.64077e-06 1.71812e-07 -0.000308553
0.00241126 -0.000826252 1.40861e-06
-0.000826252 0.000103934 -8.06422e-07
1.40861e-06 -8.06422e-07 -3.86281e-05
0.00136558 -0.000608434 2.79677e-05
-0.000608434 0.00040933 -4.73362e-05
2.79677e-05 -4.73362e-05 1.03094e-06
0.00218992 -0.000622198 1.05591e-05
-0.000622198 0.00110449 -5.33155e-05
1.05591e-05 -5.33155e-05 0.000472602
0.00126686 -0.000200554 4.9875e-06
-0.000200554 0.000498705 1.29539e-05
4.9875e-06 1.29539e-05 0.000125866
0.000446805 8.31486e-06 3.20818e-06
8.31486e-06 6.56626e-06 2.44017e-06
3.20818e-06 2.44017e-06 -6.07698e-05
0.00138784 -0.000217931 2.07745e-06
-0.000217931 0.000681359 1.16931e-05
2.07745e-06 1.16931e-05 0.000335776
0.000976052 -4.03655e-05 7.76758e-06
-4.03655e-05 0.000445209 1.95858e-07
7.76758e-06 1.95858e-07 0.000288661
0.000454073 -6.33861e-05 2.94627e-06
-6.33861e-05 9.69957e-05 -1.88265e-06
2.94627e-06 -1.88265e-06 -0.000160934
-0.000105269 -3.63183e-05 -4.45628e-06
-3.63183e-05 -0.000326891 7.20205e-07
-4.45628e-06 7.20205e-07 -0.000427849
0.00240664 -0.000193887 1.14444e-07
-0.000193887 -0.000232553 1.01159e-06
1.14444e-07 1.01159e-06 -5.81477e-05
0.000339358 4.04982e-05 6.46396e-07
4.04982e-05 -1.58754e-05 -2.88189e-06
6.46396e-07 -2.88189e-06 -0.000136649
0.000612296 -8.02238e-05 3.26226e-06
-8.02238e-05 0.00017579 1.44955e-06
3.26226e-06 1.44955e-06 5.71698e-05
0.00106816 -0.000153159 6.79379e-06
-0.000153159 0.000394265 -9.5342e-07
6.79379e-06 -9.5342e-07 0.000271372
0.002458 -0.000549583 2.15272e-06
-0.000549583 -0.00023754 -9.01308e-07
2.15272e-06 -9.01308e-07 -2.77348e-05
0.00262768 -0.000836178 -1.23888e-07
-0.000836178 6.31156e-05 5.32541e-07
-1.23888e-07 5.32541e-07 2.86076e-05
0.00077792 -0.000672057 6.47779e-06
-0.000672057 4.67189e-05 2.26013e-07
6.47779e-06 2.26013e-07 -0.000421496
0.00264197 -0.00123088 1.75722e-05
-0.00123088 0.000699522 1.49495e-06
1.75722e-05 1.49495e-06 8.6418e-05
0.00259391 -0.00107167 -6.30915e-08
-0.00107167 0.000324404 1.63854e-06
-6.30915e-08 1.63854e-06 2.95945e-05
0.000235332 -1.82293e-05 -3.97654e-07
-1.82293e-05 -7.73561e-05 2.599e-07
-3.97654e-07 2.599e-07 -0.000258518
0.00126537 -0.000185339 1.85949e-06
-0.000185339 0.000644368 3.8733e-06
1.85949e-06 3.8733e-06 0.000313838
0.00206658 -0.000954532 -1.13087e-06
-0.000954532 0.000775849 3.33192e-06
-1.13087e-06 3.33192e-06 0.000266421
0.000948767 -0.000356456 -3.84867e-07
-0.000356456 0.000533911 6.39203e-06
-3.84867e-07 6.39203e-06 -0.000169812
0.00123935 -0.000168149 2.30704e-06
-0.000168149 0.000494744 9.07226e-06
2.30704e-06 9.07226e-06 0.00020036
0.00282026 -0.000383343 -1.10266e-05
-0.000383343 -2.36693e-05 1.30364e-05
-1.10266e-05 1.30364e-05 0.00018766
0.00220051 -0.000616426 -1.0939e-05
-0.000616426 -0.000367133 6.55413e-06
-1.0939e-05 6.55413e-06 -7.92806e-05
0.002446 -0.000981415 -1.36391e-05
-0.000981415 0.000106161 -5.3921e-06
-1.36391e-05 -5.3921e-06 -0.000100613
0.00461865 -0.00144953 4.0206e-06
-0.00144953 0.00161351 6.08627e-06
4.0206e-06 6.08627e-06 0.00116558
-0.000325199 -0.000754864 -1.27799e-05
-0.000754864 -0.000675549 1.23e-05
-1.27799e-05 1.23e-05 -0.00115249
-7.34914e-05 -2.70195e-05 2.08572e-07
-2.70195e-05 -0.000277638 2.53379e-06
2.08572e-07 2.53379e-06 -0.000397443
0.00105916 -4.16982e-06 -4.05239e-06
-4.16982e-06 0.00033916 1.56101e-05
-4.05239e-06 1.56101e-05 0.000213483
-0.00103907 -0.000195528 -8.96975e-06
-0.000195528 -0.000925092 -7.1803e-07
-8.96975e-06 -7.1803e-07 -0.00103229
0.00189549 -0.000315526 -3.75348e-05
-0.000315526 0.000985171 3.18133e-05
-3.75348e-05 3.18133e-05 0.000715227
0.000945193 -0.000157586 -5.25759e-06
-0.000157586 0.000415648 2.80643e-05
-5.25759e-06 2.80643e-05 0.000123574
-0.00187763 -0.000104575 8.81066e-06
-0.000104575 -0.000748016 9.00478e-07
8.81066e-06 9.00478e-07 -0.00155242
0.000948897 -0.00100182 -1.14443e-05
-0.00100182 0.000468196 -8.75164e-06
-1.14443e-05 -8.75164e-06 -0.000278877
0.00178393 0.000427555 -7.36531e-07
0.000427555 0.000991678 -3.7381e-06
-7.36531e-07 -3.7381e-06 0.000708216
0.000203124 0.000248792 -3.33298e-06
0.000248792 -2.49926e-05 -1.73904e-06
-3.33298e-06 -1.73904e-06 -0.00033058
0.00263642 0.000382836 8.81527e-06
0.000382836 -9.10111e-05 5.72892e-06
8.81527e-06 5.72892e-06 5.09394e-05
0.00281428 0.000704836 1.41807e-05
0.000704836 0.000241509 8.99226e-06
1.41807e-05 8.99226e-06 0.00022048
0.00238526 0.000920483 6.66662e-06
0.000920483 0.000316097 4.31241e-06
6.66662e-06 4.31241e-06 -8.00575e-05
0.0014781 0.000624266 -2.47029e-06
0.000624266 0.000409797 3.25916e-06
-2.47029e-06 3.25916e-06 -2.84486e-05
0.0017416 0.000888596 2.00965e-06
0.000888596 0.000332706 4.72652e-06
2.00965e-06 4.72652e-06 -0.000205147
0.00238622 0.000447398 2.28985e-07
0.000447398 0.00140218 -5.30777e-08
2.28985e-07 -5.30777e-08 0.00111966
0.00298688 0.000531023 1.02368e-05
0.000531023 0.000121312 4.44869e-06
1.02368e-05 4.44869e-06 0.00040622
0.000949281 0.000472897 -5.6813e-06
0.000472897 0.000339071 5.39931e-06
-5.6813e-06 5.39931e-06 -2.8225e-05
0.00171288 0.000767133 3.1675e-06
0.000767133 0.000509674 -1.99057e-06
3.1675e-06 -1.99057e-06 -1.8157e-05
0.00268392 0.000944446 -2.56758e-06
0.000944446 0.000347025 -4.17573e-06
-2.56758e-06 -4.17573e-06 0.000120682
0.00198055 0.0009591 -5.29883e-06
0.0009591 0.000417164 6.29814e-06
-5.29883e-06 6.29814e-06 -0.000112205
0.00293541 0.00152558 4.33783e-05
0.00152558 -0.00134204 9.84022e-06
4.33783e-05 9.84022e-06 -0.000768741
0.000367284 0.000331299 1.93135e-06
0.000331299 0.000274758 1.21086e-06
1.93135e-06 1.21086e-06 -5.22477e-05
0.00333552 0.00101526 -9.80466e-05
0.00101526 0.000417367 -4.45911e-05
-9.80466e-05 -4.45911e-05 0.000404735
0.000245254 0.00045798 -1.48307e-05
0.00045798 -0.000290236 5.09914e-06
-1.48307e-05 5.09914e-06 -0.000676656
0.000127851 0.000627943 -6.05407e-06
0.000627943 -0.000442998 -2.0697e-05
-6.05407e-06 -2.0697e-05 -0.000925536
0.00184364 0.00107742 -4.63212e-05
0.00107742 8.53209e-05 -2.08084e-05
-4.63212e-05 -2.08084e-05 -0.000275405
0.0156352 0.000667646 -0.000680295
0.000667646 0.00163243 -0.000104193
-0.000680295 -0.000104193 0.00168779
0.00285625 0.00231913 -9.32541e-05
0.00231913 -0.00337198 -8.57764e-05
-9.32541e-05 -8.57764e-05 -0.00101424
0.00142419 0.00185965 2.02812e-05
0.00185965 -0.000635446 -2.88797e-06
2.02812e-05 -2.88797e-06 -0.000850694
0.00478283 -0.00349661 0.00230527
-0.00349661 0.00274557 0.000329391
0.00230527 0.000329391 -0.00214471
0.0278671 -0.0121412 -4.5243e-05
-0.0121412 0.0134643 7.1821e-05
-4.5243e-05 7.1821e-05 0.00713531
0.000735442 0.000167672 6.82481e-06
0.000167672 0.000346198 7.01707e-06
6.82481e-06 7.01707e-06 0.000235123
0.000946611 0.000147109 -2.49272e-06
0.000147109 0.000471666 -2.02305e-06
-2.49272e-06 -2.02305e-06 0.000368675
0.00107273 0.000239456 6.45855e-06
0.000239456 0.000567147 -2.64484e-06
6.45855e-06 -2.64484e-06 0.000423162
0.00050671 -6.11946e-05 4.82539e-07
-6.11946e-05 0.000106449 -2.8952e-06
4.82539e-07 -2.8952e-06 -4.34168e-05
0.000392549 7.25418e-05 -2.32868e-07
7.25418e-05 2.85184e-05 -3.89309e-06
-2.32868e-07 -3.89309e-06 -0.000134642
0.000629075 -1.2229e-05 -5.17878e-07
-1.2229e-05 0.000208252 -1.79582e-06
-5.17878e-07 -1.79582e-06 2.94958e-05
0.00107592 0.000109824 -1.16467e-07
0.000109824 0.000433242 1.21395e-05
-1.16467e-07 1.21395e-05 0.000317241
0.000234891 0.000110295 3.46858e-06
0.000110295 -0.000112167 1.24193e-05
3.46858e-06 1.24193e-05 -0.000150668
0.000795784 0.000170848 -1.24045e-06
0.000170848 0.000348546 5.67035e-08
-1.24045e-06 5.67035e-08 0.000133084
0.000395373 -2.14007e-05 2.77394e-07
-2.14007e-05 9.18987e-06 1.13364e-06
2.77394e-07 1.13364e-06 -0.000133291
0.000698035 6.94364e-05 -8.54202e-07
6.94364e-05 0.000227304 1.53327e-07
-8.54202e-07 1.53327e-07 4.32026e-05
0.000310672 0.000111139 -2.41104e-06
0.000111139 -2.08849e-05 -3.58698e-06
-2.41104e-06 -3.58698e-06 -8.50524e-05
0.000731925 0.000137934 -1.46943e-06
0.000137934 0.000225972 -4.35157e-07
-1.46943e-06 -4.35157e-07 7.68989e-05
0.00230997 0.000288709 -1.22617e-06
0.000288709 0.0012687 -1.3224e-06
-1.22617e-06 -1.3224e-06 0.00105277
0.000164698 0.000104695 -1.01329e-06
0.000104695 -2.37541e-06 -7.68068e-06
-1.01329e-06 -7.68068e-06 -0.000192012
0.000899011 0.000105912 3.47977e-06
0.000105912 0.000395897 -6.05781e-07
3.47977e-06 -6.05781e-07 0.000200048
0.000118356 7.68536e-06 -4.46656e-07
7.68536e-06 -0.00016979 -9.17554e-07
-4.46656e-07 -9.17554e-07 -0.00034362
0.000295053 -7.40413e-05 -4.6916e-07
-7.40413e-05 -5.18791e-05 -2.42416e-07
-4.6916e-07 -2.42416e-07 -0.000194052
0.000346309 -2.15404e-05 -2.15334e-07
-2.15404e-05 2.54501e-08 -2.99773e-06
-2.15334e-07 -2.99773e-06 -0.000170973
0.00135153 -6.8572e-05 2.10579e-06
-6.8572e-05 0.000627999 -1.1706e-05
2.10579e-06 -1.1706e-05 0.000459201
0.000925979 -6.56478e-05 -2.17169e-06
-6.56478e-05 0.000426023 -1.69588e-06
-2.17169e-06 -1.69588e-06 0.00023718
0.000779838 -9.83282e-05 2.09614e-06
-9.83282e-05 0.000308244 -8.57465e-07
2.09614e-06 -8.57465e-07 0.000113961
0.000580155 -0.00012903 -1.25495e-06
-0.00012903 0.000142427 5.17788e-06
-1.25495e-06 5.17788e-06 -7.56564e-06
0.000167685 -2.79564e-05 1.49496e-07
-2.79564e-05 -0.000130296 1.03479e-06
1.49496e-07 1.03479e-06 -0.000276334
0.000495708 -6.83436e-05 -1.33385e-06
-6.83436e-05 5.11036e-05 3.88763e-06
-1.33385e-06 3.88763e-06 -3.5893e-05
0.000487356 -4.64168e-05 2.09625e-06
-4.64168e-05 5.32803e-05 1.22536e-07
2.09625e-06 1.22536e-07 -3.84364e-05
0.000389517 7.82738e-07 3.86418e-06
7.82738e-07 -3.2316e-05 6.68473e-06
3.86418e-06 6.68473e-06 -6.15002e-05
0.000466069 6.09981e-05 -1.52001e-06
6.09981e-05 3.3181e-05 -3.38925e-06
-1.52001e-06 -3.38925e-06 -5.35076e-05
0.000367674 3.1252e-05 4.8733e-07
3.1252e-05 -4.91308e-05 1.05375e-07
4.8733e-07 1.05375e-07 -7.69871e-05
0.00258708 9.60457e-06 1.17315e-05
9.60457e-06 0.00135151 5.54307e-06
1.17315e-05 5.54307e-06 0.00136316
0.00041239 5.5532e-05 -4.63904e-06
5.5532e-05 -2.09514e-05 -7.99859e-06
-4.63904e-06 -7.99859e-06 -5.16668e-05
0.00169931 -2.11714e-06 -7.31542e-06
-2.11714e-06 0.0007811 1.63599e-07
-7.31542e-06 1.63599e-07 0.000788008
0.000807103 -9.28504e-06 7.30039e-07
-9.28504e-06 0.000201653 -2.46574e-06
7.30039e-07 -2.46574e-06 0.000204505
0.00038497 1.72277e-05 -8.13164e-07
1.72277e-05 -4.06301e-05 -2.65717e-06
-8.13164e-07 -2.65717e-06 -8.78013e-05
0.000494143 -4.32201e-05 2.78217e-07
-4.32201e-05 4.22821e-05 1.18799e-07
2.78217e-07 1.18799e-07 -1.95691e-05
0.000488724 9.69e-06 1.37276e-06
9.69e-06 -2.31991e-06 -3.84481e-06
1.37276e-06 -3.84481e-06 -1.66759e-05
0.000470053 -5.00851e-05 -8.05532e-07
-5.00851e-05 2.04705e-05 9.20223e-07
-8.05532e-07 9.20223e-07 -4.31998e-05
0.000798959 2.90596e-05 -2.33813e-08
2.90596e-05 0.000201492 -8.13096e-07
-2.33813e-08 -8.13096e-07 0.000184824
0.00212178 6.02033e-05 2.77769e-06
6.02033e-05 0.00105694 -5.06737e-06
2.77769e-06 -5.06737e-06 0.0010677
0.000432795 3.45969e-05 1.36203e-06
3.45969e-05 -2.62151e-05 5.08912e-06
1.36203e-06 5.08912e-06 -5.19541e-05
0.00254019 9.18584e-05 -3.85841e-06
9.18584e-05 0.00133699 1.38524e-06
-3.85841e-06 1.38524e-06 0.0013402
0.00278016 0.000125872 1.2776e-05
0.000125872 0.00150148 7.91116e-06
1.2776e-05 7.91116e-06 0.00149672
0.00242206 0.000186706 5.21823e-06
0.000186706 -0.000122361 6.89349e-07
5.21823e-06 6.89349e-07 -6.79371e-06
0.00223859 -2.8588e-06 5.18663e-06
-2.8588e-06 -0.000118681 -8.48024e-07
5.18663e-06 -8.48024e-07 -8.11134e-06
0.00234453 8.52156e-05 7.24476e-07
8.52156e-05 -0.000195873 7.73957e-06
7.24476e-07 7.73957e-06 -8.65979e-05
0.00270007 0.000937182 0.000118499
0.000937182 -0.00207047 2.97777e-05
0.000118499 2.97777e-05 -0.000867257
0.00255547 -2.15423e-05 -8.71405e-07
-2.15423e-05 -0.000136441 -1.66e-06
-8.71405e-07 -1.66e-06 2.94728e-05
0.00253214 9.03303e-05 -5.11299e-06
9.03303e-05 7.64541e-05 -7.39855e-06
-5.11299e-06 -7.39855e-06 0.000282545
0.00242914 -5.17153e-05 -3.70186e-05
-5.17153e-05 8.17832e-05 -2.32512e-06
-3.70186e-05 -2.32512e-06 0.000178173
0.00330997 0.000497509 -6.3619e-05
0.000497509 -0.00242774 -4.84411e-05
-6.3619e-05 -4.84411e-05 -0.00081223
0.00275137 0.000305649 0.000154555
0.000305649 -0.00111378 6.32344e-05
0.000154555 6.32344e-05 -0.000407137
0.000572325 9.43591e-05 2.39853e-07
9.43591e-05 0.000129002 -2.32213e-06
2.39853e-07 -2.32213e-06 2.20004e-05
0.000565164 -3.5853e-06 -2.19383e-07
-3.5853e-06 0.000136805 -1.44485e-07
-2.19383e-07 -1.44485e-07 1.819e-05
0.000277405 -9.55193e-05 -6.92346e-06
-9.55193e-05 -4.17673e-05 2.11029e-06
-6.92346e-06 2.11029e-06 -0.000168158
0.000317524 -5.61152e-05 -3.81683e-06
-5.61152e-05 -8.01463e-06 9.85989e-07
-3.81683e-06 9.85989e-07 -0.000136836
0.00246849 -0.000213006 8.80234e-07
-0.000213006 -0.000214322 -7.63037e-06
8.80234e-07 -7.63037e-06 -2.18676e-05
0.00243232 -0.000556843 -1.98481e-06
-0.000556843 -0.000224358 -2.11592e-06
-1.98481e-06 -2.11592e-06 -5.69496e-05
0.00252079 -0.000824329 3.31409e-07
-0.000824329 8.69894e-06 1.73036e-06
3.31409e-07 1.73036e-06 -2.53645e-05
0.0041302 -0.00106605 2.48251e-05
-0.00106605 0.0019603 4.60669e-06
2.48251e-05 4.60669e-06 0.00141422
0.000989036 -0.00105728 -7.98502e-06
-0.00105728 -0.000251392 2.99893e-06
-7.98502e-06 2.99893e-06 -0.000820749
0.00247792 -0.00107348 -2.23246e-06
-0.00107348 0.00027005 -4.26055e-06
-2.23246e-06 -4.26055e-06 -3.50152e-05
-0.000182548 -0.000705595 3.63424e-06
-0.000705595 -0.000475018 -2.2326e-05
3.63424e-06 -2.2326e-05 -0.00104886
0.00399296 -0.000483408 1.15607e-05
-0.000483408 0.00202886 -4.5424e-06
1.15607e-05 -4.5424e-06 0.00157788
-0.000140643 -9.88106e-05 -4.25019e-06
-9.88106e-05 -0.000366148 1.04554e-05
-4.25019e-06 1.04554e-05 -0.000647356
0.00067124 -7.41045e-05 4.28249e-06
-7.41045e-05 0.000210496 5.81189e-07
4.28249e-06 5.81189e-07 9.21477e-05
0.00056853 -0.000132722 -8.7773e-06
-0.000132722 0.00022587 -1.20984e-05
-8.7773e-06 -1.20984e-05 -0.000109293
0.000569794 -4.21442e-05 5.11431e-06
-4.21442e-05 0.000137431 4.20396e-07
5.11431e-06 4.20396e-07 -4.24363e-05
0.000531548 -2.51029e-06 8.73232e-07
-2.51029e-06 0.000131059 3.04751e-06
8.73232e-07 3.04751e-06 -1.24516e-06
0.000617441 -7.93306e-05 -1.08744e-05
-7.93306e-05 0.000103191 3.80764e-06
-1.08744e-05 3.80764e-06 2.74672e-07
0.00273415 -0.000359563 2.2769e-06
-0.000359563 -5.93718e-05 1.0609e-06
2.2769e-06 1.0609e-06 0.000164428
0.000405643 -3.68836e-05 -8.73483e-07
-3.68836e-05 4.71969e-05 3.42997e-06
-8.73483e-07 3.42997e-06 -9.54919e-05
0.000848562 -7.36489e-05 9.04023e-06
-7.36489e-05 0.000220685 -1.32017e-06
9.04023e-06 -1.32017e-06 9.26384e-05
-0.00101934 -7.04126e-05 1.03352e-05
-7.04126e-05 -0.000835774 -6.37193e-07
1.03352e-05 -6.37193e-07 -0.000908843
0.00221552 -0.000635665 3.99921e-07
-0.000635665 -0.0003714 -1.10112e-06
3.99921e-07 -1.10112e-06 -0.000114814
0.00244634 -0.000989767 2.65812e-06
-0.000989767 0.000101951 -1.2801e-06
2.65812e-06 -1.2801e-06 -0.000107646
0.00190132 -0.00108198 -1.24568e-05
-0.00108198 0.000563428 4.64626e-07
-1.24568e-05 4.64626e-07 1.17614e-05
0.00302885 -0.00128361 -3.72819e-06
-0.00128361 0.000740545 2.95536e-07
-3.72819e-06 2.95536e-07 0.000314707
0.00164222 -0.000195093 9.75165e-06
-0.000195093 0.000839976 -5.63969e-06
9.75165e-06 -5.63969e-06 0.000558542
-0.000647654 -4.09698e-05 7.87557e-06
-4.09698e-05 -0.000586481 8.60837e-06
7.87557e-06 8.60837e-06 -0.000889756
0.00167284 -0.00121589 -4.20164e-07
-0.00121589 0.000958477 -1.35202e-06
-4.20164e-07 -1.35202e-06 0.000115293
0.00188329 -0.000552333 -1.07442e-05
-0.000552333 0.00101316 -1.89194e-06
-1.07442e-05 -1.89194e-06 0.000428375
0.00376115 -0.00053362 -5.07656e-05
-0.00053362 0.000518012 1.92406e-05
-5.07656e-05 1.92406e-05 0.000827426
0.00282887 -0.000831995 -3.50918e-05
-0.000831995 0.000206926 1.34038e-05
-3.50918e-05 1.34038e-05 0.000279951
0.00276817 -0.00114172 -2.01269e-06
-0.00114172 0.000522037 -1.77042e-05
-2.01269e-06 -1.77042e-05 0.000119556
0.00284058 -0.00127352 1.76331e-05
-0.00127352 0.000860943 3.63353e-05
1.76331e-05 3.63353e-05 0.000449217
-1.38947e-05 -0.00012384 -6.17524e-06
-0.00012384 -8.01499e-05 -1.00886e-05
-6.17524e-06 -1.00886e-05 -0.000243656
0.00052829 -0.000196121 -1.66185e-05
-0.000196121 0.000112947 -5.9369e-06
-1.66185e-05 -5.9369e-06 -0.000140138
0.000229512 -0.000234613 -9.82819e-06
-0.000234613 0.000260932 6.92566e-05
-9.82819e-06 6.92566e-05 -0.000114308
8.43911e-05 -0.00100728 -4.97216e-06
-0.00100728 0.00074762 -4.52494e-05
-4.97216e-06 -4.52494e-05 -0.000447113
0.00441838 -0.000455712 7.90411e-05
-0.000455712 -0.00604391 -5.08775e-06
7.90411e-05 -5.08775e-06 -0.00619834
0.00239439 0.00035754 9.37477e-06
0.00035754 0.00139226 -3.59738e-06
9.37477e-06 -3.59738e-06 0.0011182
0.000828089 0.000399277 3.59986e-07
0.000399277 0.000254537 -2.66024e-06
3.59986e-07 -2.66024e-06 -7.94344e-05
0.00183792 0.000418205 5.49444e-05
0.000418205 -0.000549021 2.42571e-05
5.49444e-05 2.42571e-05 -0.000207719
0.00248277 0.000910021 2.62614e-05
0.000910021 0.000261543 1.29644e-05
2.62614e-05 1.29644e-05 6.26716e-05
0.00266942 0.00104964 1.34324e-05
0.00104964 0.000805679 1.46554e-05
1.34324e-05 1.46554e-05 0.00025256
0.00168766 0.000773392 1.32689e-05
0.000773392 0.000525388 1.18052e-05
1.32689e-05 1.18052e-05 -1.64882e-05
0.00535402 0.00195082 0.000105265
0.00195082 -0.000442929 3.57822e-05
0.000105265 3.57822e-05 -8.7629e-05
0.00110206 0.000348083 3.91432e-06
0.000348083 0.000672711 -2.75767e-06
3.91432e-06 -2.75767e-06 0.000373393
0.00295852 0.000948357 -1.80009e-05
0.000948357 0.00018556 2.03268e-06
-1.80009e-05 2.03268e-06 0.000242614
0.000981734 0.000552208 -7.28309e-06
0.000552208 0.0002066 5.54605e-06
-7.28309e-06 5.54605e-06 -0.000215019
0.0016765 0.000856551 1.06381e-06
0.000856551 0.000438807 -8.04268e-06
1.06381e-06 -8.04268e-06 -9.45356e-05
0.00265335 0.00113933 -1.23914e-05
0.00113933 0.000537216 -1.30575e-07
-1.23914e-05 -1.30575e-07 0.000149027
0.0053715 -0.000495086 -0.000201364
-0.000495086 -0.00586452 -0.000131433
-0.000201364 -0.000131433 -0.00631227
0.00681174 0.002516 -0.000179559
0.002516 -0.00114536 -7.5161e-05
-0.000179559 -7.5161e-05 0.00077949
0.00121297 0.00175503 -4.14001e-06
0.00175503 -0.000680829 1.51302e-06
-4.14001e-06 1.51302e-06 -0.000993307
0.00430488 -0.00314599 0.000750957
-0.00314599 0.00399681 0.000260833
0.000750957 0.000260833 0.000213967
0.0212112 -0.0128621 -0.000594261
-0.0128621 0.0120591 -0.000526553
-0.000594261 -0.000526553 0.00548684
0.000222025 0.000267468 -1.18239e-05
0.000267468 -3.93094e-05 -2.70911e-06
-1.18239e-05 -2.70911e-06 -0.000297137
0.00233113 0.000377602 0.00116054
0.000377602 0.00484758 8.63117e-05
0.00116054 8.63117e-05 0.00262958
0.00666225 -0.00532078 -0.000116367
-0.00532078 0.00820698 -0.000210312
-0.000116367 -0.000210312 0.00069687
0.00363893 0.00154036 -7.91538e-05
0.00154036 0.000722593 -2.77815e-05
-7.91538e-05 -2.77815e-05 0.00043626
0.000527374 0.000465516 -3.29631e-05
0.000465516 -0.000106852 -7.63602e-06
-3.29631e-05 -7.63602e-06 -0.000477877
0.001399 0.000877774 -4.55374e-05
0.000877774 0.000310776 -3.7509e-05
-4.55374e-05 -3.7509e-05 -0.00014537
-0.000174384 0.00166767 0.00011511
0.00166767 -0.00105817 0.000115298
0.00011511 0.000115298 -0.0014056
0.014099 0.00348059 0.000133307
0.00348059 0.000679208 -6.38614e-06
0.000133307 -6.38614e-06 0.000876359
0.00616714 0.00379975 -7.83019e-05
0.00379975 -0.000539427 -8.3027e-05
-7.83019e-05 -8.3027e-05 0.000961263
0.0212732 -0.00785127 0.00132535
-0.00785127 0.00820838 0.000475793
0.00132535 0.000475793 0.00190138
0.016287 -0.00331743 -0.000222323
-0.00331743 0.00649952 0.000717656
-0.000222323 0.000717656 0.00325578
0.000623121 0.000117987 1.70071e-06
0.000117987 0.000311078 2.20969e-06
1.70071e-06 2.20969e-06 0.000193537
0.000346494 0.000179935 6.08084e-06
0.000179935 0.000144841 8.70944e-07
6.08084e-06 8.70944e-07 -1.80491e-08
0.00139232 0.000299578 3.66255e-06
0.000299578 0.000815698 -4.18499e-06
3.66255e-06 -4.18499e-06 0.000582403
0.000598741 -2.6621e-06 1.9436e-06
-2.6621e-06 0.000167498 9.72233e-07
1.9436e-06 9.72233e-07 5.82506e-06
0.000624442 7.69802e-05 7.21817e-07
7.69802e-05 0.000170542 -1.76382e-06
7.21817e-07 -1.76382e-06 -6.07375e-06
-0.000164128 3.6537e-05 -1.48398e-06
3.6537e-05 -0.000290207 1.75979e-06
-1.48398e-06 1.75979e-06 -0.000473479
0.000851943 0.000141189 -5.51724e-06
0.000141189 0.00032701 4.0672e-06
-5.51724e-06 4.0672e-06 0.000170562
-0.000247538 8.12469e-05 -3.32217e-06
8.12469e-05 -0.000392352 5.16746e-06
-3.32217e-06 5.16746e-06 -0.000448076
0.000337417 -1.2713e-05 -4.59461e-07
-1.2713e-05 -2.00038e-05 6.79643e-07
-4.59461e-07 6.79643e-07 -0.000167679
0.001486 0.0001833 3.0904e-06
0.0001833 0.000724904 1.17951e-06
3.0904e-06 1.17951e-06 0.000526873
0.000436057 6.42361e-05 -6.22419e-07
6.42361e-05 0.000113326 -7.83254e-07
-6.22419e-07 -7.83254e-07 -9.22445e-05
0.000787719 4.28905e-05 1.62782e-06
4.28905e-05 0.000297875 -2.95903e-08
1.62782e-06 -2.95903e-08 9.65879e-05
-2.86775e-05 8.74524e-05 -8.93652e-07
8.74524e-05 -0.000119115 -3.49545e-06
-8.93652e-07 -3.49545e-06 -0.000310337
0.00163031 0.000169316 -1.85266e-06
0.000169316 0.000847257 -5.45675e-06
-1.85266e-06 -5.45675e-06 0.000665424
-0.000350851 7.98389e-05 -7.08746e-06
7.98389e-05 -0.000123686 -5.74362e-06
-7.08746e-06 -5.74362e-06 -0.000440643
0.000145147 -4.61766e-05 2.39958e-07
-4.61766e-05 -9.97784e-05 1.51292e-06
2.39958e-07 1.51292e-06 -0.000293533
0.000728993 -8.49507e-05 -3.13307e-06
-8.49507e-05 0.000269128 -1.78708e-06
-3.13307e-06 -1.78708e-06 7.29591e-05
0.000811909 -6.50675e-05 -4.43442e-07
-6.50675e-05 0.000325727 -1.24341e-06
-4.43442e-07 -1.24341e-06 0.000131849
0.000634915 -6.4439e-05 -4.75742e-06
-6.4439e-05 0.000163328 1.42912e-06
-4.75742e-06 1.42912e-06 1.28769e-05
0.00107787 1.62923e-05 -8.27463e-06
1.62923e-05 0.000546106 -6.73432e-06
-8.27463e-06 -6.73432e-06 0.000329184
0.00095216 -0.000138907 4.41797e-06
-0.000138907 0.000336822 -1.41469e-05
4.41797e-06 -1.41469e-05 0.000207889
-0.000870772 -1.84936e-05 -5.21742e-06
-1.84936e-05 -0.000742515 -9.03595e-06
-5.21742e-06 -9.03595e-06 -0.000875166
-0.000199877 -3.11837e-05 2.29082e-06
-3.11837e-05 -0.000234175 -4.42022e-06
2.29082e-06 -4.42022e-06 -0.000457921
0.00019138 -7.67083e-05 7.13308e-07
-7.67083e-05 -8.55872e-05 -4.13032e-07
7.13308e-07 -4.13032e-07 -0.000232916
0.000843097 -0.000140275 -1.07317e-06
-0.000140275 0.000348642 1.00965e-06
-1.07317e-06 1.00965e-06 0.000175221
0.000470519 -9.57933e-05 -7.18663e-08
-9.57933e-05 5.07004e-05 4.70888e-06
-7.18663e-08 4.70888e-06 -8.5474e-05
0.000375355 -9.76258e-05 3.78561e-06
-9.76258e-05 8.53366e-06 1.55146e-07
3.78561e-06 1.55146e-07 -0.000153242
0.000540902 -0.000128998 -1.96653e-08
-0.000128998 0.000114907 7.31207e-08
-1.96653e-08 7.31207e-08 -3.62e-05
0.000499427 -6.72249e-05 -1.53574e-06
-6.72249e-05 5.22844e-05 5.7304e-06
-1.53574e-06 5.7304e-06 -3.75962e-05
0.000309467 -7.36237e-07 8.90952e-08
-7.36237e-07 -2.12471e-05 -4.18202e-07
8.90952e-08 -4.18202e-07 -0.000180849
0.000454395 -6.58965e-08 2.51877e-06
-6.58965e-08 3.35578e-05 1.30364e-07
2.51877e-06 1.30364e-07 -5.88684e-05
0.00142597 -4.10394e-05 -1.28239e-05
-4.10394e-05 0.000620501 7.17954e-06
-1.28239e-05 7.17954e-06 0.00059682
0.000432758 7.65562e-05 -2.48335e-06
7.65562e-05 1.9186e-05 -2.99215e-06
-2.48335e-06 -2.99215e-06 -7.15274e-05
0.000832172 -2.47463e-05 -5.10909e-06
-2.47463e-05 0.000249542 7.50141e-07
-5.10909e-06 7.50141e-07 0.000222606
0.000815471 2.00853e-06 -5.07784e-06
2.00853e-06 0.000219224 4.75118e-06
-5.07784e-06 4.75118e-06 0.000223097
0.000333002 -3.34438e-05 4.88595e-06
-3.34438e-05 -7.14588e-05 -5.27596e-06
4.88595e-06 -5.27596e-06 -9.87457e-05
0.00260734 4.58176e-06 1.02479e-05
4.58176e-06 0.00136493 1.76527e-08
1.02479e-05 1.76527e-08 0.00137644
0.00085771 5.66674e-06 -1.29045e-05
5.66674e-06 0.000245744 -5.56996e-06
-1.29045e-05 -5.56996e-06 0.000248267
0.000536414 7.76708e-05 2.44377e-06
7.76708e-05 0.000111595 -3.53954e-07
2.44377e-06 -3.53954e-07 -3.12957e-06
0.000424665 6.12282e-05 -2.5349e-06
6.12282e-05 -1.92937e-06 -3.29685e-06
-2.5349e-06 -3.29685e-06 -5.58353e-05
0.000448317 1.80891e-06 1.44423e-06
1.80891e-06 1.4075e-05 2.55559e-07
1.44423e-06 2.55559e-07 -4.20458e-05
0.000441218 1.0279e-05 1.26845e-06
1.0279e-05 -3.18331e-05 -3.58464e-06
1.26845e-06 -3.58464e-06 -4.42793e-05
0.000542375 -7.42124e-05 -1.67885e-06
-7.42124e-05 8.36437e-05 3.08685e-06
-1.67885e-06 3.08685e-06 1.57443e-05
0.000458557 1.16372e-05 1.78385e-07
1.16372e-05 -2.19418e-05 -7.51891e-07
1.78385e-07 -7.51891e-07 -3.62537e-05
0.00207063 4.19122e-05 1.65338e-06
4.19122e-05 0.00101904 -5.01862e-06
1.65338e-06 -5.01862e-06 0.00103288
0.00115753 4.0779e-05 7.38171e-07
4.0779e-05 0.000433026 2.3055e-06
7.38171e-07 2.3055e-06 0.000416973
0.00150807 5.11659e-05 -7.52086e-07
5.11659e-05 0.000664591 1.56107e-06
-7.52086e-07 1.56107e-06 0.000670184
0.00083739 5.42847e-05 3.87023e-07
5.42847e-05 0.000241485 9.90319e-06
3.87023e-07 9.90319e-06 0.000237931
0.000948644 0.000686491 8.03302e-05
0.000686491 -0.002894 2.68628e-05
8.03302e-05 2.68628e-05 -0.00166482
0.00252639 -5.12919e-05 1.00267e-05
-5.12919e-05 -0.000127112 5.38385e-06
1.00267e-05 5.38385e-06 3.15504e-05
0.00223413 8.36817e-05 4.17699e-05
8.36817e-05 -8.66386e-05 -1.16515e-05
4.17699e-05 -1.16515e-05 7.31219e-05
0.00345591 0.000642489 -7.99418e-05
0.000642489 -0.00251262 -4.53453e-05
-7.99418e-05 -4.53453e-05 -0.000325579
0.00313252 0.00011764 7.25529e-05
0.00011764 -0.000764751 -3.1373e-06
7.25529e-05 -3.1373e-06 -7.7216e-05
0.00295506 -5.66218e-05 -5.2585e-06
-5.66218e-05 0.000363532 -7.43289e-06
-5.2585e-06 -7.43289e-06 0.000496741
0.00522373 -0.00054272 -7.16781e-05
-0.00054272 0.00086506 -1.89931e-05
-7.16781e-05 -1.89931e-05 0.00134973
0.00450372 -0.000617387 4.55189e-05
-0.000617387 -0.000841581 -3.97691e-08
4.55189e-05 -3.97691e-08 0.00058213
0.0200896 -0.00111205 0.000100547
-0.00111205 0.00309885 -6.62501e-05
0.000100547 -6.62501e-05 0.00259399
0.0179937 0.0080015 0.00198891
0.0080015 0.00719885 -0.000452672
0.00198891 -0.000452672 0.00227327
0.0270597 0.00924701 0.000125181
0.00924701 0.0174378 4.99694e-05
0.000125181 4.99694e-05 0.0116416
2.46733e-05 -0.00010594 1.01118e-06
-0.00010594 -0.000192738 -1.90062e-06
1.01118e-06 -1.90062e-06 -0.000316164
0.000523215 -5.99012e-06 2.02542e-06
-5.99012e-06 9.70957e-05 2.97237e-08
2.02542e-06 2.97237e-08 -9.51206e-06
0.000603378 -9.51605e-05 -8.67342e-07
-9.51605e-05 0.000169361 4.85751e-06
-8.67342e-07 4.85751e-06 4.3515e-05
0.000536713 -3.80651e-05 1.91597e-06
-3.80651e-05 0.000112518 6.57072e-08
1.91597e-06 6.57072e-08 -1.09657e-05
0.00110218 0.00015407 -6.3283e-06
0.00015407 0.000557421 -1.03977e-06
-6.3283e-06 -1.03977e-06 0.000403152
0.000615154 0.000153497 -4.12982e-07
0.000153497 0.000158086 5.67492e-06
-4.12982e-07 5.67492e-06 1.82276e-05
0.000899566 1.50139e-05 2.40273e-06
1.50139e-05 0.000369602 2.43999e-06
2.40273e-06 2.43999e-06 0.000213965
0.000526838 -2.43331e-05 -1.50177e-06
-2.43331e-05 0.00010904 1.28589e-06
-1.50177e-06 1.28589e-06 -1.91577e-05
0.00273763 -0.000350449 1.46105e-05
-0.000350449 -6.19811e-05 -1.33194e-05
1.46105e-05 -1.33194e-05 0.000187832
0.002252 -0.000664512 9.83904e-06
-0.000664512 -0.000379262 -5.80246e-06
9.83904e-06 -5.80246e-06 -0.000148756
0.00268519 -0.0010124 6.04976e-06
-0.0010124 0.000233134 6.93938e-06
6.04976e-06 6.93938e-06 2.55059e-05
0.00301704 -0.00119352 1.0931e-05
-0.00119352 0.00114282 -3.38501e-06
1.0931e-05 -3.38501e-06 0.000596486
0.00255249 -0.00123257 -3.2817e-05
-0.00123257 0.000497926 -3.16707e-06
-3.2817e-05 -3.16707e-06 5.57264e-05
0.00109037 -0.00118952 2.76778e-05
-0.00118952 0.000635241 9.55942e-06
2.76778e-05 9.55942e-06 -0.000251786
0.00485352 -0.000881648 7.98255e-06
-0.000881648 0.00248226 7.89713e-06
7.98255e-06 7.89713e-06 0.00199405
0.00167221 -0.000379774 1.99375e-05
-0.000379774 0.000952939 -5.3645e-05
1.99375e-05 -5.3645e-05 0.000535741
0.00045606 -0.000124944 -2.6508e-07
-0.000124944 -4.69422e-05 4.41813e-06
-2.6508e-07 4.41813e-06 -0.000150162
0.00116204 -9.42021e-05 1.43357e-05
-9.42021e-05 0.000501189 -2.32164e-05
1.43357e-05 -2.32164e-05 0.000234475
0.000947228 -6.25733e-05 4.78282e-06
-6.25733e-05 0.000386405 2.9691e-06
4.78282e-06 2.9691e-06 0.000231615
0.000519227 -4.49311e-06 9.13578e-06
-4.49311e-06 0.000158317 -5.4529e-06
9.13578e-06 -5.4529e-06 0.000130221
0.00258978 -0.00047052 -7.62948e-07
-0.00047052 -0.000161953 3.17428e-06
-7.62948e-07 3.17428e-06 0.000221446
0.00033138 -0.000111379 -5.62029e-06
-0.000111379 0.000107036 -9.07334e-07
-5.62029e-06 -9.07334e-07 -5.01051e-05
0.00143704 -0.000254956 -8.40025e-06
-0.000254956 0.000674893 5.82524e-06
-8.40025e-06 5.82524e-06 0.000457449
0.00173085 -0.000747381 8.67547e-06
-0.000747381 -0.00042975 -4.57136e-06
8.67547e-06 -4.57136e-06 -0.000290422
0.00235587 -0.00104955 1.91317e-06
-0.00104955 0.00030559 5.1488e-06
1.91317e-06 5.1488e-06 -2.71247e-05
0.00119051 -0.00105709 -3.84526e-06
-0.00105709 -0.000111079 -1.62546e-05
-3.84526e-06 -1.62546e-05 -0.000456925
0.00163875 -0.00042014 -2.6489e-06
-0.00042014 0.00101545 -3.31245e-05
-2.6489e-06 -3.31245e-05 0.000538893
0.00121853 -0.000754579 1.20843e-05
-0.000754579 0.00117225 2.96938e-06
1.20843e-05 2.96938e-06 0.000212858
0.00608494 -0.00109212 -5.19637e-05
-0.00109212 0.00156553 3.57966e-05
-5.19637e-05 3.57966e-05 0.00183422
0.00336522 -0.0011082 -3.95402e-05
-0.0011082 0.000852619 1.36476e-05
-3.95402e-05 1.36476e-05 0.000608534
0.0026158 -0.00124847 1.23188e-05
-0.00124847 0.000569538 1.61544e-05
1.23188e-05 1.61544e-05 0.000214815
-0.00021253 -0.000678371 -7.65394e-06
-0.000678371 -0.000548801 2.47373e-05
-7.65394e-06 2.47373e-05 -0.000705744
0.000551548 -0.000177335 8.56666e-07
-0.000177335 0.000300849 4.84456e-06
8.56666e-07 4.84456e-06 2.77509e-05
0.000284535 -0.000195289 4.10864e-06
-0.000195289 0.000216717 1.96486e-06
4.10864e-06 1.96486e-06 -0.00012286
0.00131884 -0.000326953 -1.72971e-05
-0.000326953 0.00121669 -2.19875e-05
-1.72971e-05 -2.19875e-05 0.000415215
-0.00765809 -0.00057093 0.000816841
-0.00057093 -0.00350839 -4.43296e-05
0.000816841 -4.43296e-05 -0.00470366
0.0121126 -0.000463577 8.20309e-05
-0.000463577 -0.00018734 4.41054e-05
8.20309e-05 4.41054e-05 0.000616567
0.00283167 0.000442459 1.05223e-05
0.000442459 0.00164198 -1.05771e-05
1.05223e-05 -1.05771e-05 0.00138071
0.00206213 0.00069066 -1.83603e-08
0.00069066 0.00091352 7.76666e-06
-1.83603e-08 7.76666e-06 0.00044486
0.00215266 0.000807369 0.000109157
0.000807369 -0.000244377 5.16275e-05
0.000109157 5.16275e-05 -0.000128551
0.00360558 0.00122563 3.19929e-05
0.00122563 0.00106224 1.75104e-05
3.19929e-05 1.75104e-05 0.00064076
0.00302167 0.00105006 2.49175e-05
0.00105006 0.00120032 8.593e-06
2.49175e-05 8.593e-06 0.000627383
0.0178221 0.000847759 0.000106624
0.000847759 0.0022656 -9.21467e-05
0.000106624 -9.21467e-05 0.00214738
0.00860424 0.00311085 -0.000275602
0.00311085 -0.00160309 -3.80394e-05
-0.000275602 -3.80394e-05 0.000814707
0.00190376 0.00175439 8.66342e-06
0.00175439 -0.00018588 -3.35046e-05
8.66342e-06 -3.35046e-05 -0.000632066
0.016486 -0.00623854 -0.000752654
-0.00623854 0.00727429 4.40468e-05
-0.000752654 4.40468e-05 0.0026919
0.0126591 -0.0139543 -0.00309124
-0.0139543 0.0106217 -0.0017593
-0.00309124 -0.0017593 0.00362778
0.000824914 0.000369091 5.22597e-06
0.000369091 0.000398968 -2.73547e-06
5.22597e-06 -2.73547e-06 9.55883e-05
-0.000276111 -0.00366006 0.000735427
-0.00366006 -0.00204979 9.47805e-05
0.000735427 9.47805e-05 -0.0053495
-9.23169e-06 -0.00419046 -0.000768913
-0.00419046 0.0085625 -0.000192727
-0.000768913 -0.000192727 0.00127613
0.0039447 0.00146136 -1.92857e-05
0.00146136 0.000838752 2.14541e-06
-1.92857e-05 2.14541e-06 0.000607544
0.00089363 0.000570265 -1.09997e-05
0.000570265 0.000171097 8.91271e-06
-1.09997e-05 8.91271e-06 -0.000253684
0.00183797 0.00101713 5.25556e-06
0.00101713 0.000550741 1.81521e-06
5.25556e-06 1.81521e-06 3.38652e-05
0.00179973 0.00168343 6.8377e-05
0.00168343 0.000315048 4.84863e-05
6.8377e-05 4.84863e-05 -1.19141e-05
0.0142014 0.00382071 -0.00016302
0.00382071 -0.000275398 -0.000116939
-0.00016302 -0.000116939 -0.00126516
0.00342639 0.00365165 -1.55285e-05
0.00365165 -0.0012386 -4.19114e-05
-1.55285e-05 -4.19114e-05 0.000403751
0.0215332 -0.00659719 0.000729669
-0.00659719 0.00948974 -3.38933e-05
0.000729669 -3.38933e-05 0.00323147
0.0216606 -0.00545727 8.12373e-06
-0.00545727 0.0062323 0.000861926
8.12373e-06 0.000861926 0.00184369
0.00159237 0.000446391 -1.78177e-05
0.000446391 0.000804925 -1.79913e-05
-1.78177e-05 -1.79913e-05 0.000528344
-0.00911382 0.0013115 -9.51061e-05
0.0013115 0.00508306 -0.00015558
-9.51061e-05 -0.00015558 -0.00299637
0.00647162 0.00147654 -0.000527303
0.00147654 0.00525982 -0.00059017
-0.000527303 -0.00059017 -2.95749e-05
0.00269245 0.00108446 -4.27393e-05
0.00108446 0.000623661 -2.03542e-05
-4.27393e-05 -2.03542e-05 0.000519686
0.00317372 0.00109118 -9.04156e-05
0.00109118 0.0014333 -3.35514e-05
-9.04156e-05 -3.35514e-05 0.000941351
0.00223282 0.00130374 -0.000100091
0.00130374 0.00137539 -3.2231e-05
-0.000100091 -3.2231e-05 0.000579844
-0.00316871 0.00239801 4.41806e-05
0.00239801 -0.00113113 -3.20813e-05
4.41806e-05 -3.20813e-05 -0.0012228
0.00371842 0.0052577 0.000666631
0.0052577 -0.00191267 0.000118194
0.000666631 0.000118194 -0.0033573
0.0233008 -0.00833443 -4.76878e-05
-0.00833443 0.0129301 0.000882406
-4.76878e-05 0.000882406 0.00592533
0.00929665 5.08061e-05 -0.000207424
5.08061e-05 -0.00184227 -0.00020067
-0.000207424 -0.00020067 -0.00138024
-0.000205548 0.000174743 -8.75285e-07
0.000174743 -0.000159504 -2.78752e-06
-8.75285e-07 -2.78752e-06 -0.000327524
0.00188012 0.000378074 9.17591e-06
0.000378074 0.00109584 2.49848e-06
9.17591e-06 2.49848e-06 0.000848498
-0.000617001 0.000115062 -5.85059e-06
0.000115062 -0.000366283 2.68021e-06
-5.85059e-06 2.68021e-06 -0.000566362
0.000342055 5.39483e-05 2.27392e-06
5.39483e-05 -1.91949e-05 2.20473e-06
2.27392e-06 2.20473e-06 -0.000167126
0.00110089 8.74287e-05 3.6573e-07
8.74287e-05 0.000512234 -5.65718e-07
3.6573e-07 -5.65718e-07 0.000303115
0.000543786 3.67057e-05 -2.53117e-06
3.67057e-05 0.000186965 2.32855e-06
-2.53117e-06 2.32855e-06 -3.12289e-05
0.000316117 0.000111669 7.38031e-06
0.000111669 1.4354e-05 8.06078e-06
7.38031e-06 8.06078e-06 -0.000193994
-0.000867796 2.44314e-05 -5.12551e-06
2.44314e-05 -0.000623132 3.19306e-06
-5.12551e-06 3.19306e-06 -0.000808823
0.000771102 3.52583e-05 3.89307e-07
3.52583e-05 0.000300159 -6.7254e-07
3.89307e-07 -6.7254e-07 0.000100796
0.000688378 0.000100123 4.75519e-07
0.000100123 0.000250652 -1.08956e-07
4.75519e-07 -1.08956e-07 7.56668e-05
0.000856005 -4.10288e-05 -1.26363e-06
-4.10288e-05 0.000373034 2.35101e-06
-1.26363e-06 2.35101e-06 0.000157822
-0.00113689 4.65655e-05 1.63698e-06
4.65655e-05 -0.000584422 1.02398e-06
1.63698e-06 1.02398e-06 -0.000899172
0.00113667 9.51086e-05 -9.33468e-07
9.51086e-05 0.000894042 6.50765e-06
-9.33468e-07 6.50765e-06 0.000506727
0.000771299 -1.54128e-05 3.52603e-08
-1.54128e-05 0.000439334 -6.5366e-06
3.52603e-08 -6.5366e-06 0.000191228
0.001621 -1.59667e-05 -2.70121e-06
-1.59667e-05 0.000912391 3.47294e-06
-2.70121e-06 3.47294e-06 0.000659182
0.000865597 -9.39879e-05 -7.24463e-07
-9.39879e-05 0.000361916 -7.46334e-07
-7.24463e-07 -7.46334e-07 0.000162216
0.000129072 -0.00011806 3.93071e-06
-0.00011806 -0.000165554 1.39843e-05
3.93071e-06 1.39843e-05 -0.000304416
0.000602097 -9.36101e-05 5.72017e-07
-9.36101e-05 0.000217139 -5.3712e-07
5.72017e-07 -5.3712e-07 1.70812e-05
0.000779144 -0.000123019 -2.82124e-06
-0.000123019 0.000217756 -1.23794e-06
-2.82124e-06 -1.23794e-06 8.72807e-05
-0.000327418 -7.16529e-05 1.28441e-06
-7.16529e-05 -0.000393866 6.19951e-06
1.28441e-06 6.19951e-06 -0.000514927
-0.000355251 -5.09712e-05 3.32468e-07
-5.09712e-05 -0.000379121 -8.1722e-06
3.32468e-07 -8.1722e-06 -0.000551957
2.56791e-05 -5.01266e-05 -8.31914e-06
-5.01266e-05 -4.95652e-05 -2.12879e-06
-8.31914e-06 -2.12879e-06 -0.000262653
0.000286502 -0.000132728 2.16135e-06
-0.000132728 3.43185e-06 -1.14602e-05
2.16135e-06 -1.14602e-05 -0.000125358
0.00118405 -0.000144836 2.41138e-05
-0.000144836 0.000443609 -1.7324e-05
2.41138e-05 -1.7324e-05 0.000321422
0.0021786 -0.000409952 -1.22523e-06
-0.000409952 0.000997523 3.35689e-06
-1.22523e-06 3.35689e-06 0.000761777
-0.000370897 -8.8982e-05 -4.64362e-06
-8.8982e-05 -0.000385536 -2.312e-06
-4.64362e-06 -2.312e-06 -0.000589694
0.000531403 -4.70738e-05 2.40074e-06
-4.70738e-05 0.000204869 -6.96531e-07
2.40074e-06 -6.96531e-07 -8.06724e-06
-0.000702929 -1.3857e-05 4.71259e-06
-1.3857e-05 -0.00059908 -7.76684e-07
4.71259e-06 -7.76684e-07 -0.000818621
0.000640075 -0.000162633 -1.57759e-06
-0.000162633 0.000221811 -9.0281e-07
-1.57759e-06 -9.0281e-07 4.75303e-05
0.000428518 -4.71495e-05 1.16329e-06
-4.71495e-05 2.29199e-05 9.24396e-07
1.16329e-06 9.24396e-07 -0.000118882
0.000611865 -0.000160025 1.10956e-06
-0.000160025 0.00018441 4.20643e-07
1.10956e-06 4.20643e-07 2.53878e-05
0.000577624 -9.6475e-05 -4.23916e-07
-9.6475e-05 0.000137082 1.7909e-07
-4.23916e-07 1.7909e-07 -1.08557e-05
0.000349257 3.28894e-05 9.09716e-07
3.28894e-05 -4.55851e-05 5.67832e-06
9.09716e-07 5.67832e-06 -0.000139679
0.000607302 -0.000129579 -1.24772e-07
-0.000129579 0.000150149 -3.15218e-06
-1.24772e-07 -3.15218e-06 3.70728e-07
0.000505363 -5.20259e-05 -6.07065e-07
-5.20259e-05 5.01455e-05 1.71523e-07
-6.07065e-07 1.71523e-07 -3.61134e-05
0.00140665 2.41794e-05 -8.26624e-06
2.41794e-05 0.000599351 7.8934e-06
-8.26624e-06 7.8934e-06 0.000575928
0.00047942 -7.45886e-05 7.68172e-07
-7.45886e-05 4.28663e-05 -3.49134e-06
7.68172e-07 -3.49134e-06 -4.57378e-05
0.000851801 -2.59741e-05 -9.74359e-06
-2.59741e-05 0.000253994 8.78607e-07
-9.74359e-06 8.78607e-07 0.000227646
0.00073672 1.08155e-05 1.67361e-06
1.08155e-05 0.000158556 2.22556e-06
1.67361e-06 2.22556e-06 0.000161733
0.000405334 -3.17779e-05 3.57435e-06
-3.17779e-05 -2.97012e-05 -4.83336e-06
3.57435e-06 -4.83336e-06 -5.57881e-05
0.00256053 8.98218e-06 7.1103e-06
8.98218e-06 0.0013334 3.68189e-09
7.1103e-06 3.68189e-09 0.00134569
0.00259144 -1.23779e-06 6.00208e-06
-1.23779e-06 0.00135453 -5.0637e-06
6.00208e-06 -5.0637e-06 0.00136612
0.00104629 8.22455e-05 -6.67394e-07
8.22455e-05 0.000437024 -2.38446e-07
-6.67394e-07 -2.38446e-07 0.000316372
0.000496706 7.11507e-05 -1.76775e-06
7.11507e-05 4.83282e-05 -3.61393e-06
-1.76775e-06 -3.61393e-06 -1.19587e-05
0.000527618 -1.75854e-05 -7.03842e-07
-1.75854e-05 0.000108474 8.30969e-07
-7.03842e-07 8.30969e-07 -5.96357e-06
0.000435416 1.00689e-05 1.40291e-06
1.00689e-05 -3.6081e-05 -3.84936e-06
1.40291e-06 -3.84936e-06 -4.74838e-05
0.000414915 -9.18226e-06 1.56996e-06
-9.18226e-06 -1.0278e-05 -2.30004e-07
1.56996e-06 -2.30004e-07 -6.26343e-05
0.000486235 -6.5601e-05 -2.07286e-06
-6.5601e-05 4.3982e-05 3.22625e-06
-2.07286e-06 3.22625e-06 -1.54413e-05
0.000448698 6.71888e-06 -6.14566e-07
6.71888e-06 -2.74837e-05 1.62059e-08
-6.14566e-07 1.62059e-08 -3.99089e-05
0.00202697 2.69174e-05 -3.699e-06
2.69174e-05 0.000988052 -5.0546e-06
-3.699e-06 -5.0546e-06 0.00100377
0.00117304 2.43079e-05 -7.42054e-07
2.43079e-05 0.000438367 2.5562e-06
-7.42054e-07 2.5562e-06 0.000426891
0.00132556 3.26257e-05 -3.08253e-06
3.26257e-05 0.00053941 5.04775e-09
-3.08253e-06 5.04775e-09 0.00054965
0.000768045 3.86806e-05 -4.7045e-06
3.86806e-05 0.000188417 8.25751e-06
-4.7045e-06 8.25751e-06 0.000191109
-0.00725197 0.00210616 0.000823392
0.00210616 -0.00226374 -0.000101211
0.000823392 -0.000101211 -0.00629552
0.00140657 0.00140404 0.00183941
0.00140404 0.00876545 -0.000376084
0.00183941 -0.000376084 0.00338331
0.00225106 0.000644639 -0.000163887
0.000644639 -0.00302523 -3.60581e-05
-0.000163887 -3.60581e-05 -0.000587129
0.00234867 -4.44473e-05 1.62159e-05
-4.44473e-05 -0.00117865 -3.31634e-05
1.62159e-05 -3.31634e-05 -0.000410789
0.00210348 -8.15398e-05 4.21063e-05
-8.15398e-05 -0.00025002 1.79415e-05
4.21063e-05 1.79415e-05 -9.30007e-05
-0.0015285 -6.80501e-05 -0.000127083
-6.80501e-05 -0.0025995 -3.52621e-05
-0.000127083 -3.52621e-05 -0.000835234
0.00396041 -0.000589114 1.96578e-06
-0.000589114 2.08944e-05 4.2738e-06
1.96578e-06 4.2738e-06 0.000429776
0.0123274 -0.000293927 0.000252143
-0.000293927 -0.00227675 -0.000110951
0.000252143 -0.000110951 -0.00252739
0.00446557 0.00529646 -4.46324e-06
0.00529646 0.00174029 -8.20229e-05
-4.46324e-06 -8.20229e-05 -0.00276303
0.0217449 0.0111548 -0.000740977
0.0111548 0.0143815 0.000305454
-0.000740977 0.000305454 0.00823142
0.00196869 -0.00121745 1.61242e-05
-0.00121745 -0.00324136 -3.18164e-05
1.61242e-05 -3.18164e-05 -0.00123531
0.0156239 -0.00358846 0.000271261
-0.00358846 0.000719117 -7.08893e-05
0.000271261 -7.08893e-05 -0.000225996
0.023799 0.00748587 0.000465649
0.00748587 0.00854153 -0.000526946
0.000465649 -0.000526946 0.00219053
0.0262473 0.00557689 -0.000356833
0.00557689 0.0093997 0.000345863
-0.000356833 0.000345863 0.00536648
0.00114564 0.00018295 -4.91325e-06
0.00018295 0.000588314 8.29117e-07
-4.91325e-06 8.29117e-07 0.000382468
0.000310526 4.09729e-05 8.02678e-07
4.09729e-05 -3.3559e-05 -8.4856e-07
8.02678e-07 -8.4856e-07 -0.000147011
0.000523622 -0.000101264 2.86372e-06
-0.000101264 0.000110636 2.79233e-06
2.86372e-06 2.79233e-06 -2.65356e-06
0.000732159 -2.605e-07 7.10284e-06
-2.605e-07 0.000247726 -5.33026e-07
7.10284e-06 -5.33026e-07 0.000117546
0.000773701 8.38312e-05 3.53078e-06
8.38312e-05 0.000344454 3.58786e-07
3.53078e-06 3.58786e-07 0.000209461
0.00055961 6.08601e-05 -3.83611e-07
6.08601e-05 0.000156507 7.42976e-06
-3.83611e-07 7.42976e-06 -2.74725e-05
0.000679401 8.83894e-05 -4.81436e-07
8.83894e-05 0.000224928 3.08436e-06
-4.81436e-07 3.08436e-06 7.73679e-05
0.00042047 9.35546e-05 4.68473e-06
9.35546e-05 1.52335e-05 3.19363e-06
4.68473e-06 3.19363e-06 -0.000139454
0.000623598 -9.08657e-06 2.0924e-06
-9.08657e-06 0.000190974 -1.19559e-06
2.0924e-06 -1.19559e-06 3.7347e-05
0.000409526 -2.60535e-05 2.66594e-06
-2.60535e-05 2.58035e-05 -1.2963e-06
2.66594e-06 -1.2963e-06 -9.16814e-05
0.00116033 -0.000380103 3.87346e-05
-0.000380103 -0.000989151 -1.93194e-05
3.87346e-05 -1.93194e-05 -0.000523447
0.00107054 -0.00068737 2.13916e-05
-0.00068737 -0.000783631 -8.61543e-06
2.13916e-05 -8.61543e-06 -0.000606579
0.000969681 -0.000856125 5.99762e-06
-0.000856125 -0.000459361 5.62477e-06
5.99762e-06 5.62477e-06 -0.000694073
-0.00057589 -0.000803195 -1.86681e-05
-0.000803195 -0.00108497 -1.01394e-05
-1.86681e-05 -1.01394e-05 -0.00137289
0.00269803 -0.000633243 9.89144e-06
-0.000633243 0.00182517 5.34629e-05
9.89144e-06 5.34629e-05 0.00105741
-0.000662768 -0.000677698 -8.58976e-06
-0.000677698 -0.000352838 -1.22047e-05
-8.58976e-06 -1.22047e-05 -0.00101599
0.00129709 -0.000318197 1.02109e-05
-0.000318197 0.000609295 -4.63783e-06
1.02109e-05 -4.63783e-06 0.000424477
0.000281617 -6.18592e-05 2.86162e-06
-6.18592e-05 4.61368e-05 4.46193e-06
2.86162e-06 4.46193e-06 -9.78157e-05
0.0026962 -0.00077759 1.53623e-05
-0.00077759 -0.000340614 -1.01575e-05
1.53623e-05 -1.01575e-05 9.87674e-05
0.000498115 -9.99109e-05 4.52591e-07
-9.99109e-05 0.000257358 2.39778e-06
4.52591e-07 2.39778e-06 -2.01437e-05
-0.000137228 -0.000238115 -4.58597e-06
-0.000238115 -3.80192e-05 -5.21194e-06
-4.58597e-06 -5.21194e-06 -0.000376746
0.00196891 -0.000937927 1.94749e-05
-0.000937927 6.52273e-05 -1.49271e-06
1.94749e-05 -1.49271e-06 -5.83641e-05
0.00184541 -0.00113606 -2.23435e-06
-0.00113606 8.20087e-05 -2.96314e-06
-2.23435e-06 -2.96314e-06 -0.00016422
5.14521e-05 -0.000799409 1.51018e-05
-0.000799409 -0.000359509 -2.04019e-05
1.51018e-05 -2.04019e-05 -0.00061371
0.00087634 -0.000419902 1.58649e-05
-0.000419902 0.00093916 -2.42516e-05
1.58649e-05 -2.42516e-05 0.000161285
0.00170983 -0.00117104 -5.50347e-05
-0.00117104 -0.000377281 4.62491e-05
-5.50347e-05 4.62491e-05 -0.000535831
0.0019075 -0.00099992 -3.5657e-05
-0.00099992 0.000267467 2.19459e-05
-3.5657e-05 2.19459e-05 0.000204829
-0.000905676 -0.000573661 -4.39355e-05
-0.000573661 -0.000417489 3.65672e-05
-4.39355e-05 3.65672e-05 -0.000841386
-0.00175578 -0.000161223 -1.00076e-05
-0.000161223 -0.00118458 1.19449e-05
-1.00076e-05 1.19449e-05 -0.00144513
-0.00123983 -7.48714e-06 -1.51347e-06
-7.48714e-06 -0.000740658 1.23788e-05
-1.51347e-06 1.23788e-05 -0.00105671
0.000886613 -7.75828e-05 2.73133e-06
-7.75828e-05 0.000611244 -1.28699e-05
2.73133e-06 -1.28699e-05 0.000211638
-0.00288303 0.00150961 -0.000568135
0.00150961 0.00795352 2.53292e-05
-0.000568135 2.53292e-05 0.00173803
-0.000225638 -0.00207432 -2.31186e-05
-0.00207432 0.00334943 -1.97599e-05
-2.31186e-05 -1.97599e-05 0.00165641
0.00459322 0.000905206 -0.000171103
0.000905206 -0.0063042 -3.53607e-05
-0.000171103 -3.53607e-05 -0.00638494
0.000990307 0.000404415 1.65642e-05
0.000404415 0.000557691 -5.6036e-06
1.65642e-05 -5.6036e-06 0.00023149
0.00179528 0.000754373 1.80314e-05
0.000754373 0.000754533 2.63593e-05
1.80314e-05 2.63593e-05 0.000254526
0.00333173 0.00127028 8.3288e-05
0.00127028 0.000482299 3.63611e-05
8.3288e-05 3.63611e-05 0.000322852
0.00146371 0.00105825 2.02798e-05
0.00105825 0.000390127 2.86935e-05
2.02798e-05 2.86935e-05 -0.000177581
0.0148199 -0.00433211 0.000323338
-0.00433211 0.00650371 9.69247e-05
0.000323338 9.69247e-05 0.00346665
0.00368456 0.0024984 -0.000478416
0.0024984 -0.00597617 -0.000119517
-0.000478416 -0.000119517 -0.00686535
0.00586426 0.00367035 4.92795e-05
0.00367035 0.000488145 3.10276e-05
4.92795e-05 3.10276e-05 0.00149478
0.00290514 0.00157543 8.02988e-05
0.00157543 0.00121404 4.79964e-06
8.02988e-05 4.79964e-06 0.000910898
0.0135869 -0.00381074 -0.000649502
-0.00381074 0.00576299 -0.000320109
-0.000649502 -0.000320109 0.000209178
0.00175748 -0.00550869 -0.00113511
-0.00550869 0.00944144 -0.000280092
-0.00113511 -0.000280092 0.00211405
0.031782 -0.00764278 0.00107334
-0.00764278 0.0101481 0.000466668
0.00107334 0.000466668 0.00504196
0.000174424 0.000320491 1.59274e-05
0.000320491 -1.76831e-05 -5.44983e-06
1.59274e-05 -5.44983e-06 -0.000288079
-0.00332497 0.000331013 -0.000196922
0.000331013 0.0073065 -2.87321e-05
-0.000196922 -2.87321e-05 0.000286619
0.00711759 0.00197218 -0.000215528
0.00197218 0.0040713 -0.000198634
-0.000215528 -0.000198634 -0.00192463
0.00185066 0.00111096 9.43021e-06
0.00111096 0.000290321 3.13069e-06
9.43021e-06 3.13069e-06 0.000106022
0.000824529 0.000818917 1.85382e-05
0.000818917 0.000279263 7.49392e-06
1.85382e-05 7.49392e-06 -0.000217672
0.00113793 0.00135143 -9.23063e-05
0.00135143 0.000706917 -7.81974e-05
-9.23063e-05 -7.81974e-05 5.73442e-05
0.00376571 0.00418848 5.68103e-05
0.00418848 0.000922811 4.80417e-05
5.68103e-05 4.80417e-05 0.0010299
0.0143824 0.00626161 -4.77986e-06
0.00626161 0.0017518 1.70477e-06
-4.77986e-06 1.70477e-06 -0.000442776
0.0108726 -0.00455043 0.000102485
-0.00455043 0.00706144 -0.000133711
0.000102485 -0.000133711 -0.000245009
0.0175934 -0.00217524 -3.34564e-05
-0.00217524 0.00259637 -6.86208e-05
-3.34564e-05 -6.86208e-05 0.00321304
0.00108589 0.000691021 -1.77505e-05
0.000691021 0.000492854 -8.14556e-06
-1.77505e-05 -8.14556e-06 0.00010625
0.00153108 0.000348366 -0.000478305
0.000348366 0.00296975 -0.000129314
-0.000478305 -0.000129314 -0.00311212
0.00185501 0.00132736 -0.000173994
0.00132736 0.000121738 -0.000196675
-0.000173994 -0.000196675 -0.00184567
-0.000830076 0.000432922 -5.48721e-06
0.000432922 -0.000147422 -2.45197e-05
-5.48721e-06 -2.45197e-05 -0.000494922
-0.00176964 0.000932581 -0.000183256
0.000932581 0.000749587 -3.02052e-06
-0.000183256 -3.02052e-06 -1.0873e-05
0.00987449 0.00632468 0.000160812
0.00632468 0.00353704 -2.49857e-05
0.000160812 -2.49857e-05 -0.00147396
0.00209502 -0.0066059 -2.62013e-05
-0.0066059 0.000886607 0.000231244
-2.62013e-05 0.000231244 -0.00547737
0.0142851 -0.000232622 7.20408e-05
-0.000232622 -0.00127007 -0.000346916
7.20408e-05 -0.000346916 0.000735377
0.00121273 0.000279183 7.29468e-07
0.000279183 0.000633295 2.15598e-05
7.29468e-07 2.15598e-05 0.000430971
0.000978939 0.000290073 -8.88131e-06
0.000290073 0.000623064 -6.18882e-06
-8.88131e-06 -6.18882e-06 0.000368876
-0.000584133 0.000142463 1.67666e-06
0.000142463 -0.000106738 -1.24855e-06
1.67666e-06 -1.24855e-06 -0.000490831
0.000450662 8.48419e-05 -2.71054e-08
8.48419e-05 7.06758e-05 -3.78589e-07
-2.71054e-08 -3.78589e-07 -0.000109442
0.00131983 -2.91032e-05 -3.59408e-06
-2.91032e-05 0.000689585 4.51629e-06
-3.59408e-06 4.51629e-06 0.000456798
-0.000293368 7.83946e-05 2.84085e-06
7.83946e-05 -0.000372483 4.23082e-06
2.84085e-06 4.23082e-06 -0.000542452
-0.00144895 6.31781e-05 2.04712e-06
6.31781e-05 -0.000755236 1.6665e-06
2.04712e-06 1.6665e-06 -0.00107726
0.00045358 -2.14375e-05 1.60783e-06
-2.14375e-05 0.000119792 5.65011e-07
1.60783e-06 5.65011e-07 -9.02387e-05
0.000477132 8.56234e-05 8.60274e-07
8.56234e-05 0.000250535 -2.30009e-06
8.60274e-07 -2.30009e-06 8.56159e-06
-4.14462e-05 5.14399e-05 3.86125e-06
5.14399e-05 0.000299487 2.81048e-06
3.86125e-06 2.81048e-06 -0.00017987
-0.00134612 7.36698e-06 -8.26463e-07
7.36698e-06 -0.000318918 1.04547e-05
-8.26463e-07 1.04547e-05 -0.000888539
0.000792194 2.06505e-05 -1.30533e-06
2.06505e-05 0.000739687 -5.90267e-06
-1.30533e-06 -5.90267e-06 0.000319972
0.00178527 5.30045e-05 -1.64189e-06
5.30045e-05 0.00106206 1.85331e-06
-1.64189e-06 1.85331e-06 0.000829014
0.000901204 -0.000178142 4.16974e-06
-0.000178142 0.000411883 3.12804e-06
4.16974e-06 3.12804e-06 0.00020632
0.000122813 -8.4914e-05 1.08309e-06
-8.4914e-05 -0.000216407 8.06284e-06
1.08309e-06 8.06284e-06 -0.000336843
-0.000110327 -8.56655e-05 1.04028e-05
-8.56655e-05 -0.00025898 1.8721e-05
1.04028e-05 1.8721e-05 -0.000357927
0.00027068 -2.99984e-05 8.92156e-07
-2.99984e-05 8.95091e-05 1.33606e-06
8.92156e-07 1.33606e-06 -0.000110923
0.000446713 -4.16969e-05 -3.89976e-07
-4.16969e-05 9.80932e-05 1.88906e-06
-3.89976e-07 1.88906e-06 -6.69555e-05
6.35478e-05 -6.98466e-05 -3.48597e-06
-6.98466e-05 -0.000103277 -1.29874e-06
-3.48597e-06 -1.29874e-06 -0.000240764
0.000251281 -8.7403e-05 -3.75999e-06
-8.7403e-05 1.84493e-06 -5.75932e-06
-3.75999e-06 -5.75932e-06 -0.000145511
0.00105684 -0.000116368 9.37661e-06
-0.000116368 0.000703835 -1.06831e-05
9.37661e-06 -1.06831e-05 0.000502239
0.00232142 -0.000373395 6.47345e-06
-0.000373395 0.0010888 3.9182e-06
6.47345e-06 3.9182e-06 0.000970846
0.000644265 -0.000139921 -1.79018e-05
-0.000139921 0.00012129 5.64379e-08
-1.79018e-05 5.64379e-08 2.82587e-06
0.000795454 -0.000306699 8.44193e-06
-0.000306699 0.000157788 4.94959e-06
8.44193e-06 4.94959e-06 -4.57822e-05
0.00260282 -0.000722258 -5.2857e-06
-0.000722258 0.0012121 2.12897e-05
-5.2857e-06 2.12897e-05 0.000795996
0.00216951 -0.000301703 8.12777e-06
-0.000301703 0.00103864 -9.00207e-06
8.12777e-06 -9.00207e-06 0.000823258
0.0010396 -0.000301348 -3.73192e-06
-0.000301348 0.000312878 -6.49702e-06
-3.73192e-06 -6.49702e-06 0.000123388
0.000484466 -0.000116988 -6.19627e-07
-0.000116988 0.000125643 -1.16697e-06
-6.19627e-07 -1.16697e-06 -8.03238e-05
-0.000837341 -5.68146e-05 6.6996e-08
-5.68146e-05 -0.000652517 -2.35289e-06
6.6996e-08 -2.35289e-06 -0.000925035
0.00133816 -4.78723e-05 1.97087e-06
-4.78723e-05 0.000695421 2.48815e-06
1.97087e-06 2.48815e-06 0.000490251
0.000690184 -0.000166165 1.49692e-06
-0.000166165 0.000265785 -8.73331e-07
1.49692e-06 -8.73331e-07 4.07294e-05
0.000282993 -6.92727e-05 6.40099e-07
-6.92727e-05 -8.91266e-05 -6.3984e-07
6.40099e-07 -6.3984e-07 -0.000235192
0.00155272 -0.000273496 -4.95459e-06
-0.000273496 0.000815356 9.25165e-07
-4.95459e-06 9.25165e-07 0.000613713
0.000743089 -0.000138327 -2.73835e-07
-0.000138327 0.000229596 1.88032e-07
-2.73835e-07 1.88032e-07 7.87674e-05
0.000497456 -5.54014e-06 -5.89859e-07
-5.54014e-06 3.98792e-05 4.22956e-06
-5.89859e-07 4.22956e-06 -5.57345e-05
0.000798034 -0.000150104 -5.11829e-07
-0.000150104 0.000283883 -2.8453e-06
-5.11829e-07 -2.8453e-06 0.000130054
0.000577797 -6.86258e-05 -1.99042e-07
-6.86258e-05 9.77338e-05 5.84603e-08
-1.99042e-07 5.84603e-08 3.01658e-06
0.00145453 5.62009e-06 -1.37168e-05
5.62009e-06 0.000625862 8.7249e-06
-1.37168e-05 8.7249e-06 0.000599206
0.000527904 -7.72198e-05 1.00431e-06
-7.72198e-05 7.23764e-05 -5.60323e-06
1.00431e-06 -5.60323e-06 -2.05197e-05
0.000844792 -1.77333e-05 -1.13322e-05
-1.77333e-05 0.000241743 8.22662e-07
-1.13322e-05 8.22662e-07 0.000214374
0.000788546 1.95393e-05 1.67971e-06
1.95393e-05 0.000189603 3.15622e-06
1.67971e-06 3.15622e-06 0.000190113
0.00040344 -4.39486e-05 3.03099e-06
-4.39486e-05 -3.50558e-05 -5.43991e-06
3.03099e-06 -5.43991e-06 -6.36194e-05
0.0016644 1.75856e-05 1.39017e-05
1.75856e-05 0.000755949 -1.55492e-06
1.39017e-05 -1.55492e-06 0.000764062
0.00250692 6.57089e-06 1.6786e-05
6.57089e-06 0.00129821 -5.20153e-06
1.6786e-05 -5.20153e-06 0.00131091
0.00046591 7.16942e-05 1.5625e-06
7.16942e-05 3.73687e-05 -1.47938e-06
1.5625e-06 -1.47938e-06 -7.88129e-05
0.000572567 7.33797e-05 -1.02314e-06
7.33797e-05 9.13431e-05 -3.12206e-06
-1.02314e-06 -3.12206e-06 2.70362e-05
0.000550895 1.21815e-05 5.59728e-07
1.21815e-05 0.000109881 8.46904e-07
5.59728e-07 8.46904e-07 -3.89565e-06
0.000435124 8.86306e-06 2.26447e-06
8.86306e-06 -3.59546e-05 -4.25489e-06
2.26447e-06 -4.25489e-06 -4.80682e-05
0.000465662 6.19903e-05 -8.15316e-08
6.19903e-05 2.27697e-05 -2.2818e-07
-8.15316e-08 -2.2818e-07 -3.39134e-05
0.00043253 -0.000115416 -2.86639e-06
-0.000115416 3.19664e-05 2.2689e-06
-2.86639e-06 2.2689e-06 -7.27869e-05
0.0020289 1.24987e-05 -8.75165e-06
1.24987e-05 0.000986961 -5.07053e-06
-8.75165e-06 -5.07053e-06 0.00100389
0.000421844 7.71779e-06 -2.69657e-07
7.71779e-06 -4.44501e-05 3.13547e-08
-2.69657e-07 3.13547e-08 -5.58207e-05
0.000481459 1.24657e-06 -9.62276e-07
1.24657e-06 2.4429e-05 3.07296e-06
-9.62276e-07 3.07296e-06 -2.32758e-05
0.000444106 3.44762e-06 -2.09151e-06
3.44762e-06 -3.1172e-05 3.86401e-06
-2.09151e-06 3.86401e-06 -4.3604e-05
0.00207187 2.8356e-05 -5.76108e-06
2.8356e-05 0.00101717 -1.37668e-07
-5.76108e-06 -1.37668e-07 0.00103252
0.00206989 4.33616e-05 -2.18647e-06
4.33616e-05 0.00101898 5.0987e-06
-2.18647e-06 5.0987e-06 0.00103258
-0.0046827 -0.00215312 -0.00028443
-0.00215312 0.00756567 7.0474e-05
-0.00028443 7.0474e-05 0.00272764
0.00412181 0.00228823 -0.000378256
0.00228823 0.00192424 0.000122465
-0.000378256 0.000122465 -0.00149759
0.00296477 -0.00116506 -0.000678705
-0.00116506 0.0013857 0.000297834
-0.000678705 0.000297834 -0.0036017
0.00324047 0.00210611 0.00142399
0.00210611 0.00855392 -0.000321936
0.00142399 -0.000321936 0.00259379
0.0045297 0.000861546 -5.53338e-05
0.000861546 -0.000645126 5.64957e-06
-5.53338e-05 5.64957e-06 0.000702388
0.00362029 -0.000651179 0.000104999
-0.000651179 -0.000141805 4.29263e-06
0.000104999 4.29263e-06 0.000177161
0.00169306 -0.000473559 0.000386044
-0.000473559 -0.00653543 -5.32628e-05
0.000386044 -5.32628e-05 -0.00728982
0.0272215 0.00461794 -0.00137137
0.00461794 0.012235 4.82087e-05
-0.00137137 4.82087e-05 0.00747461
0.0142959 0.0133457 -0.00293578
0.0133457 0.0102474 0.00176576
-0.00293578 0.00176576 0.00352205
0.00544434 -0.000997806 5.11193e-05
-0.000997806 -0.00091265 3.85208e-06
5.11193e-05 3.85208e-06 0.000425746
0.00786833 -0.00346406 0.000217706
-0.00346406 -0.00375294 -0.000181047
0.000217706 -0.000181047 -0.00536423
0.0230487 0.00725621 -0.000425174
0.00725621 0.00852905 -0.000148595
-0.000425174 -0.000148595 0.00212902
0.0193418 0.00534317 0.000138483
0.00534317 0.00621891 0.000475547
0.000138483 0.000475547 0.00213157
0.00157764 -0.00234933 -0.000105125
-0.00234933 -0.00414695 4.62199e-05
-0.000105125 4.62199e-05 -0.00199998
0.00744033 -0.0055652 0.000639049
-0.0055652 -0.000315144 -0.00026727
0.000639049 -0.00026727 -0.00344894
0.013433 0.00396095 -4.25302e-05
0.00396095 0.00439522 -0.00102317
-4.25302e-05 -0.00102317 -0.00208636
0.00974904 3.94627e-05 -0.00038892
3.94627e-05 -0.0011871 4.71839e-05
-0.00038892 4.71839e-05 -0.00120385
0.00236142 -5.52549e-05 9.36043e-07
-5.52549e-05 0.00140119 1.68484e-05
9.36043e-07 1.68484e-05 0.00110538
0.000209477 8.29544e-05 -1.6865e-06
8.29544e-05 -4.93174e-05 -2.21038e-06
-1.6865e-06 -2.21038e-06 -0.000204674
0.000561049 0.000116664 3.74918e-06
0.000116664 0.000115501 1.10158e-06
3.74918e-06 1.10158e-06 5.33185e-06
-0.000163432 -4.98649e-05 4.64368e-06
-4.98649e-05 -0.000294785 -3.04461e-06
4.64368e-06 -3.04461e-06 -0.000375607
0.00046507 0.000136038 2.22723e-06
0.000136038 6.5496e-05 8.06021e-06
2.22723e-06 8.06021e-06 -0.000130539
0.000498557 7.17187e-05 -9.52735e-08
7.17187e-05 0.000111642 1.46695e-06
-9.52735e-08 1.46695e-06 -6.0277e-05
4.75328e-05 1.63568e-05 2.22174e-06
1.63568e-05 -0.00018125 -1.37783e-06
2.22174e-06 -1.37783e-06 -0.000315163
0.000902076 0.000188391 5.99898e-06
0.000188391 0.000364684 9.98459e-06
5.99898e-06 9.98459e-06 0.000173229
0.000928944 0.000160193 -1.17066e-08
0.000160193 0.000394783 -5.6206e-07
-1.17066e-08 -5.6206e-07 0.000201813
0.000297226 7.17538e-06 -3.18332e-06
7.17538e-06 -3.38798e-05 -5.75343e-06
-3.18332e-06 -5.75343e-06 -0.00018084
0.000640692 -0.000622012 9.59314e-05
-0.000622012 -0.00148624 -6.09235e-05
9.59314e-05 -6.09235e-05 -0.000964904
0.000189351 -0.000757549 1.38525e-06
-0.000757549 -0.000961565 -9.60922e-06
1.38525e-06 -9.60922e-06 -0.000965403
0.0015974 -0.00110757 -4.44106e-06
-0.00110757 -0.000114672 1.01258e-05
-4.44106e-06 1.01258e-05 -0.0002628
-0.00114043 -0.000800523 4.35085e-06
-0.000800523 -0.00102624 -4.67773e-06
4.35085e-06 -4.67773e-06 -0.00133533
0.00404399 -0.000593594 -3.93479e-05
-0.000593594 0.00257206 8.06633e-05
-3.93479e-05 8.06633e-05 0.00201125
0.000707569 -0.000256248 -2.16986e-06
-0.000256248 0.000502498 6.87541e-06
-2.16986e-06 6.87541e-06 0.000141747
0.00033222 0.000104346 -1.16498e-06
0.000104346 0.000126313 -1.45022e-05
-1.16498e-06 -1.45022e-05 -0.000139338
0.000570034 -1.65657e-05 -4.49e-06
-1.65657e-05 0.000268741 8.24708e-06
-4.49e-06 8.24708e-06 -2.72166e-05
0.00253582 -0.00116332 -2.26329e-05
-0.00116332 -3.92063e-06 9.10406e-07
-2.26329e-05 9.10406e-07 2.00227e-05
0.000664015 -5.19344e-05 2.02156e-06
-5.19344e-05 0.000389235 3.35271e-06
2.02156e-06 3.35271e-06 8.57564e-05
0.00233275 -0.000390869 6.32155e-06
-0.000390869 0.00147554 -3.57953e-06
6.32155e-06 -3.57953e-06 0.00105641
0.00149289 -0.000957605 1.53135e-05
-0.000957605 3.78166e-05 -4.6644e-06
1.53135e-05 -4.6644e-06 -3.21825e-05
0.000573726 -0.000721383 -3.78488e-05
-0.000721383 0.000360248 1.14349e-05
-3.78488e-05 1.14349e-05 -3.62446e-05
0.00238493 -0.0019667 5.75361e-05
-0.0019667 0.000194987 -3.31282e-05
5.75361e-05 -3.31282e-05 -0.000140878
0.000665892 -0.000723408 -1.35121e-05
-0.000723408 0.00021156 3.34707e-05
-1.35121e-05 3.34707e-05 5.88835e-05
-0.00177911 -0.0001437 1.20102e-05
-0.0001437 -0.000708698 5.16942e-06
1.20102e-05 5.16942e-06 -0.00123797
0.000386914 6.11321e-05 -3.98061e-06
6.11321e-05 0.000149676 8.49533e-06
-3.98061e-06 8.49533e-06 -6.28912e-05
0.000161318 -0.000102152 7.21804e-07
-0.000102152 0.000194615 4.20785e-06
7.21804e-07 4.20785e-06 -0.000160451
0.00154625 0.000250263 -8.60378e-05
0.000250263 0.00221276 -3.15935e-05
-8.60378e-05 -3.15935e-05 -0.00261753
-0.00766536 0.000439917 -0.000538074
0.000439917 0.0073654 -2.18164e-05
-0.000538074 -2.18164e-05 0.00142225
-0.013902 -0.00351679 -0.00103219
-0.00351679 -0.00445324 -6.69241e-06
-0.00103219 -6.69241e-06 -0.00661103
0.000158663 0.000368717 1.64152e-05
0.000368717 5.48796e-05 -2.5612e-06
1.64152e-05 -2.5612e-06 -0.000264657
-0.000913268 0.00063194 -1.40758e-06
0.00063194 -0.000592682 9.97424e-06
-1.40758e-06 9.97424e-06 -0.00109208
0.00296542 0.00134875 4.9062e-05
0.00134875 0.000900717 4.25906e-05
4.9062e-05 4.25906e-05 0.000627095
-0.00460349 0.00240291 0.000138202
0.00240291 0.0082203 6.77624e-05
0.000138202 6.77624e-05 0.00280037
0.00695459 0.00549715 -0.000511603
0.00549715 -0.000778755 -0.000208842
-0.000511603 -0.000208842 -0.00353076
0.00059032 0.00270721 0.000496717
0.00270721 -0.000208198 0.000202672
0.000496717 0.000202672 -0.000102568
-0.000178432 0.00119698 -1.11443e-05
0.00119698 -2.31112e-05 -4.60106e-05
-1.11443e-05 -4.60106e-05 -0.000328456
0.0303789 -0.00439581 -8.52526e-05
-0.00439581 0.0111129 -0.000485689
-8.52526e-05 -0.000485689 0.00552912
0.00772948 0.00255022 0.000814755
0.00255022 0.00383141 0.000285594
0.000814755 0.000285594 -0.00274596
0.0140721 -0.00141289 0.000182214
-0.00141289 0.00268197 5.8572e-05
0.000182214 5.8572e-05 0.00388322
0.00143645 0.000718096 8.73539e-06
0.000718096 0.000777227 -1.07477e-06
8.73539e-06 -1.07477e-06 0.000388325
0.00389364 0.00102295 -4.30271e-05
0.00102295 0.00398398 5.28216e-06
-4.30271e-05 5.28216e-06 -0.000720159
0.00213257 0.00113009 0.000104843
0.00113009 0.000453822 -9.28173e-06
0.000104843 -9.28173e-06 -0.00147948
-0.000275181 0.000684514 -4.27977e-06
0.000684514 4.5092e-05 -5.84277e-06
-4.27977e-06 -5.84277e-06 -0.000388888
-0.000368576 0.00182753 -0.000146247
0.00182753 0.000600873 -7.99375e-05
-0.000146247 -7.99375e-05 -0.000745147
0.00260193 0.00640026 0.000321404
0.00640026 0.00141985 0.00012785
0.000321404 0.00012785 -0.00312901
0.0116443 -0.000404102 1.30593e-05
-0.000404102 -0.00323568 -0.000230598
1.30593e-05 -0.000230598 -0.000860216
0.00840245 -0.00286391 -0.00010888
-0.00286391 0.00473157 -0.000206595
-0.00010888 -0.000206595 -0.00151081
0.000993136 0.000585832 -2.46475e-06
0.000585832 0.000875087 -1.23438e-05
-2.46475e-06 -1.23438e-05 0.000407696
-0.00391656 0.000552408 3.59623e-05
0.000552408 0.000611057 5.54453e-05
3.59623e-05 5.54453e-05 -0.000694079
0.00667819 -0.000644377 0.000206688
-0.000644377 -1.04184e-05 -0.000138048
0.000206688 -0.000138048 -0.00160796
0.00950593 0.000195124 0.000350823
0.000195124 -0.00110978 -1.47828e-05
0.000350823 -1.47828e-05 -0.00101093
-0.00289431 0.000272031 5.84972e-05
0.000272031 8.96976e-05 -1.64141e-05
5.84972e-05 -1.64141e-05 -0.000895341
0.0106826 0.00410653 0.000401518
0.00410653 0.00609073 0.000146907
0.000401518 0.000146907 -0.000212843
0.0048954 -0.00073536 -3.62821e-05
-0.00073536 0.00319333 0.000387043
-3.62821e-05 0.000387043 -0.00122077
0.00317604 0.000531672 2.7559e-05
0.000531672 0.00199674 1.05994e-05
2.7559e-05 1.05994e-05 0.00167389
0.000379895 0.000279158 -8.89848e-06
0.000279158 0.000481296 -2.25127e-06
-8.89848e-06 -2.25127e-06 5.13284e-05
0.000196951 0.000257297 1.67314e-06
0.000257297 0.00054241 -1.19155e-05
1.67314e-06 -1.19155e-05 -2.81192e-05
0.000206346 0.000117418 1.8248e-06
0.000117418 -2.8792e-05 -3.92564e-06
1.8248e-06 -3.92564e-06 -0.000241469
0.000468058 0.000124423 -5.0753e-08
0.000124423 0.000225824 1.26326e-07
-5.0753e-08 1.26326e-07 3.28581e-06
-9.78124e-05 1.04213e-05 5.32975e-06
1.04213e-05 0.000291573 -4.17692e-06
5.32975e-06 -4.17692e-06 -0.000200607
0.000512 3.89492e-05 5.40421e-07
3.89492e-05 0.000234664 -6.30506e-07
5.40421e-07 -6.30506e-07 2.89051e-05
0.00102906 -4.06266e-05 -7.53349e-07
-4.06266e-05 0.000910744 -2.84208e-06
-7.53349e-07 -2.84208e-06 0.000472784
-0.000194337 2.49598e-05 2.08953e-06
2.49598e-05 0.000347059 7.30053e-07
2.08953e-06 7.30053e-07 -0.00019636
-5.23291e-05 -5.58677e-05 2.63931e-06
-5.58677e-05 0.000400145 1.63761e-05
2.63931e-06 1.63761e-05 -8.14979e-05
0.000568786 -4.44882e-05 1.15673e-06
-4.44882e-05 0.000569011 -1.2186e-05
1.15673e-06 -1.2186e-05 0.000226357
-9.52847e-05 -4.51859e-05 5.27789e-06
-4.51859e-05 -0.000176104 8.72807e-06
5.27789e-06 8.72807e-06 -0.000345751
0.00136449 -3.74752e-05 1.28812e-06
-3.74752e-05 0.000653603 5.79351e-06
1.28812e-06 5.79351e-06 0.000493452
0.000368456 -6.76842e-05 -1.08059e-05
-6.76842e-05 0.000111639 1.24715e-05
-1.08059e-05 1.24715e-05 -3.64817e-05
0.000665608 -9.35137e-05 1.6698e-06
-9.35137e-05 0.000449539 5.48851e-07
1.6698e-06 5.48851e-07 0.0002578
0.000159309 -4.72173e-05 -2.15142e-06
-4.72173e-05 -4.25307e-05 -1.89059e-06
-2.15142e-06 -1.89059e-06 -0.00018933
0.00111132 -0.000284752 2.59829e-06
-0.000284752 0.000530021 2.95164e-06
2.59829e-06 2.95164e-06 0.000379976
0.000576143 -0.000220479 -2.08182e-05
-0.000220479 0.000127838 2.60433e-07
-2.08182e-05 2.60433e-07 6.34684e-05
-0.000722084 -0.000313548 1.55502e-05
-0.000313548 -0.000617835 2.21192e-05
1.55502e-05 2.21192e-05 -0.000947961
0.000172073 -0.000120848 1.5167e-06
-0.000120848 -0.000148114 8.19184e-07
1.5167e-06 8.19184e-07 -0.000263887
0.00112732 -0.000343222 -5.91098e-06
-0.000343222 0.000347802 1.06394e-05
-5.91098e-06 1.06394e-05 0.000131416
0.00213526 -0.000693391 -6.6656e-06
-0.000693391 0.000911734 1.28944e-05
-6.6656e-06 1.28944e-05 0.000469798
0.00198105 -0.000714562 -5.85339e-06
-0.000714562 0.000724783 -1.69288e-06
-5.85339e-06 -1.69288e-06 0.000244566
0.00185153 -0.000465711 1.59111e-06
-0.000465711 0.000800869 1.53791e-06
1.59111e-06 1.53791e-06 0.000511175
0.000621351 -0.000453408 1.07945e-05
-0.000453408 -1.53061e-05 -4.05108e-06
1.07945e-05 -4.05108e-06 -0.000355805
0.00109855 -0.000206725 3.31401e-06
-0.000206725 0.000499613 -3.93837e-06
3.31401e-06 -3.93837e-06 0.000198024
0.00107262 -0.000241234 -8.06547e-06
-0.000241234 0.000401951 1.81641e-06
-8.06547e-06 1.81641e-06 0.000174655
-9.32357e-05 -0.000193138 2.12076e-05
-0.000193138 -0.000377962 -1.61966e-05
2.12076e-05 -1.61966e-05 -0.000520739
0.00141326 -0.000146643 -4.96179e-06
-0.000146643 0.000682844 3.06651e-06
-4.96179e-06 3.06651e-06 0.000472632
7.90017e-05 -0.000110762 6.76042e-07
-0.000110762 -9.35857e-05 1.2406e-06
6.76042e-07 1.2406e-06 -0.000362023
-6.3826e-05 -4.67653e-05 1.15781e-06
-4.67653e-05 -0.000276509 -1.21751e-06
1.15781e-06 -1.21751e-06 -0.000469713
0.00198923 -0.000321604 -3.06832e-06
-0.000321604 0.00107974 -3.87361e-07
-3.06832e-06 -3.87361e-07 0.000841245
0.000704568 -0.000136691 -5.43118e-07
-0.000136691 0.000201064 -5.59232e-08
-5.43118e-07 -5.59232e-08 3.43281e-05
0.00040591 -8.33977e-07 3.06451e-06
-8.33977e-07 -5.07137e-06 4.82566e-06
3.06451e-06 4.82566e-06 -0.000119523
0.000801722 -0.000170657 -1.66086e-07
-0.000170657 0.000279082 -2.25368e-06
-1.66086e-07 -2.25368e-06 0.000116318
0.000437784 2.3356e-06 -2.13545e-06
2.3356e-06 1.71746e-05 -2.08449e-07
-2.13545e-06 -2.08449e-07 -8.9265e-05
0.00148003 -8.93828e-06 -2.14594e-05
-8.93828e-06 0.000642602 6.29427e-06
-2.14594e-05 6.29427e-06 0.000612732
0.000590045 -7.97891e-05 1.34437e-06
-7.97891e-05 0.000114664 -5.9369e-06
1.34437e-06 -5.9369e-06 1.53823e-05
0.000845772 -1.72199e-05 -1.05831e-05
-1.72199e-05 0.000237418 5.09958e-07
-1.05831e-05 5.09958e-07 0.000207595
0.000861908 3.04031e-05 9.13842e-07
3.04031e-05 0.00023336 3.63165e-06
9.13842e-07 3.63165e-06 0.000230869
0.000434995 -3.78138e-05 3.27099e-06
-3.78138e-05 -2.24839e-05 -6.87093e-06
3.27099e-06 -6.87093e-06 -5.31305e-05
0.00175365 2.97851e-05 1.715e-05
2.97851e-05 0.000810481 -1.28413e-06
1.715e-05 -1.28413e-06 0.000816885
0.00255118 1.97568e-05 2.20907e-05
1.97568e-05 0.00132342 -5.60644e-06
2.20907e-05 -5.60644e-06 0.00133596
0.000219774 2.70219e-05 1.68513e-06
2.70219e-05 -0.000104199 2.47296e-06
1.68513e-06 2.47296e-06 -0.000250186
6.32352e-05 2.53138e-05 3.91737e-07
2.53138e-05 -0.00024072 -4.89677e-06
3.91737e-07 -4.89677e-06 -0.000313194
0.000583306 6.94477e-05 -7.85826e-08
6.94477e-05 0.00012553 4.12501e-07
-7.85826e-08 4.12501e-07 -1.96763e-06
0.000440818 1.00146e-05 2.10962e-06
1.00146e-05 -3.41931e-05 -4.52053e-06
2.10962e-06 -4.52053e-06 -4.84462e-05
0.000300948 9.08922e-06 1.7546e-06
9.08922e-06 -9.09455e-05 4.67333e-08
1.7546e-06 4.67333e-08 -0.000151603
0.000198447 -9.87352e-05 -5.68671e-07
-9.87352e-05 -0.000117722 6.62533e-07
-5.68671e-07 6.62533e-07 -0.000231195
0.00207758 -1.78775e-06 -1.33095e-05
-1.78775e-06 0.0010171 -5.14349e-06
-1.33095e-05 -5.14349e-06 0.00103414
0.00043005 6.75933e-06 5.99786e-08
6.75933e-06 -4.00744e-05 -7.60139e-08
5.99786e-08 -7.60139e-08 -5.18352e-05
0.000399417 -1.11656e-05 -3.38708e-06
-1.11656e-05 -2.60179e-05 3.32858e-06
-3.38708e-06 3.32858e-06 -7.85713e-05
0.00205762 1.38341e-05 -4.90972e-06
1.38341e-05 0.00100591 -3.60639e-09
-4.90972e-06 -3.60639e-09 0.0010225
0.000429002 6.53443e-06 -1.86773e-06
6.53443e-06 -3.93301e-05 3.75733e-06
-1.86773e-06 3.75733e-06 -5.07917e-05
0.00204899 2.93621e-05 3.84069e-06
2.93621e-05 0.00100253 5.24073e-06
3.84069e-06 5.24073e-06 0.00101778
-0.00071636 -0.00125828 -0.00031914
-0.00125828 -0.000126232 0.000136826
-0.00031914 0.000136826 -0.00412035
0.00311807 0.00130946 -0.000187045
0.00130946 0.00962171 4.72001e-05
-0.000187045 4.72001e-05 0.00396662
0.00387185 0.00046032 -0.00126803
0.00046032 0.00452709 0.000287194
-0.00126803 0.000287194 0.00233454
0.000608664 0.000127474 8.35558e-06
0.000127474 0.000148929 7.88701e-06
8.35558e-06 7.88701e-06 -1.87716e-05
0.00605114 -0.00129692 -0.000173702
-0.00129692 0.00375081 0.000307243
-0.000173702 0.000307243 0.00112136
0.00444058 -0.00155144 -0.000319447
-0.00155144 0.00206696 3.58516e-05
-0.000319447 3.58516e-05 -0.00298537
0.0165014 0.00586441 0.000328548
0.00586441 0.0102631 -0.000461991
0.000328548 -0.000461991 0.0037849
0.00784671 -0.001546 0.000146163
-0.001546 0.000217423 -3.0799e-05
0.000146163 -3.0799e-05 0.00107474
0.0148306 -0.00329462 0.000341686
-0.00329462 0.00079149 -0.000203335
0.000341686 -0.000203335 0.000615299
0.0161631 0.005647 -0.000936705
0.005647 0.0039435 0.000442447
-0.000936705 0.000442447 -0.00210686
0.0156645 0.00476815 0.000218987
0.00476815 0.00786856 0.000273649
0.000218987 0.000273649 0.00420577
0.00775199 -0.00309858 -0.000103595
-0.00309858 -0.0004918 -5.50531e-06
-0.000103595 -5.50531e-06 0.000628302
0.0143996 -0.00592704 5.79152e-06
-0.00592704 0.00202257 -4.27333e-05
5.79152e-06 -4.27333e-05 -0.000439345
0.010497 0.0030214 0.000129295
0.0030214 0.00565172 -0.000424376
0.000129295 -0.000424376 -0.000572737
0.0144929 0.00134536 -4.11678e-06
0.00134536 0.000877463 5.94765e-05
-4.11678e-06 5.94765e-05 -4.89728e-05
0.0034637 -0.0032149 -5.9852e-05
-0.0032149 0.000341638 7.26613e-05
-5.9852e-05 7.26613e-05 0.000954641
0.0107581 -0.00586848 0.000250311
-0.00586848 0.00449056 -0.000153002
0.000250311 -0.000153002 0.00047811
0.00990772 -0.000255605 7.79408e-05
-0.000255605 0.00603337 -0.000498094
7.79408e-05 -0.000498094 0.00188942
0.0139624 -0.000116467 -0.000192316
-0.000116467 -0.000925927 0.000314951
-0.000192316 0.000314951 0.000610246
0.000246276 0.000142011 8.58158e-06
0.000142011 2.55571e-05 1.59765e-05
8.58158e-06 1.59765e-05 -0.000194756
0.000596577 -0.000115575 3.68064e-07
-0.000115575 0.000268945 1.02017e-07
3.68064e-07 1.02017e-07 7.90693e-06
0.000628206 8.73848e-05 4.31469e-06
8.73848e-05 0.000224262 -2.3903e-06
4.31469e-06 -2.3903e-06 6.43973e-05
0.000523137 0.000178156 3.39207e-06
0.000178156 5.04538e-05 1.66348e-05
3.39207e-06 1.66348e-05 -9.83943e-05
0.000863362 0.000239912 3.11672e-07
0.000239912 0.00034923 -3.83226e-07
3.11672e-07 -3.83226e-07 0.000135959
0.0010886 0.000134001 -2.48616e-06
0.000134001 0.00051023 -4.24936e-06
-2.48616e-06 -4.24936e-06 0.000328659
0.00110815 0.000200549 -1.82698e-06
0.000200549 0.000501136 -9.55234e-08
-1.82698e-06 -9.55234e-08 0.000303475
0.00111723 0.00022139 2.04545e-06
0.00022139 0.000535852 1.62293e-06
2.04545e-06 1.62293e-06 0.000328891
0.000898615 -0.000908014 0.000129989
-0.000908014 -0.0010036 -8.27858e-05
0.000129989 -8.27858e-05 -0.00069648
-9.23851e-05 -0.000787987 -3.26245e-05
-0.000787987 -0.000889172 -1.05655e-05
-3.26245e-05 -1.05655e-05 -0.000863744
0.000709409 -0.000202207 5.76904e-06
-0.000202207 0.000371515 -3.28158e-05
5.76904e-06 -3.28158e-05 5.90877e-05
0.00192988 -0.000819689 2.61431e-05
-0.000819689 0.00108174 -2.53401e-05
2.61431e-05 -2.53401e-05 0.00070405
0.00270111 -0.000561014 -2.1885e-05
-0.000561014 0.00163158 2.24314e-05
-2.1885e-05 2.24314e-05 0.00121804
0.00178867 -0.000190288 9.48463e-06
-0.000190288 0.00108278 -2.05705e-05
9.48463e-06 -2.05705e-05 0.000752933
5.11516e-05 3.05316e-05 3.76525e-06
3.05316e-05 -7.04815e-05 6.83857e-06
3.76525e-06 6.83857e-06 -0.000287187
0.00043346 -0.0016369 -1.03908e-05
-0.0016369 -0.000707887 -7.17711e-06
-1.03908e-05 -7.17711e-06 -0.000956713
0.00153668 -5.45379e-05 -1.38451e-06
-5.45379e-05 0.00104634 -1.53193e-06
-1.38451e-06 -1.53193e-06 0.00067845
-0.00021124 -0.000256477 -1.07656e-05
-0.000256477 0.000108322 8.90926e-06
-1.07656e-05 8.90926e-06 -0.000369751
-0.000563272 -0.000529595 3.01476e-05
-0.000529595 -0.000561505 -2.90451e-06
3.01476e-05 -2.90451e-06 -0.000559204
0.000704351 0.000119194 3.85118e-06
0.000119194 0.000353714 8.04571e-06
3.85118e-06 8.04571e-06 0.0001658
-0.000779141 -0.0016127 -0.00011318
-0.0016127 -0.000379713 -2.41676e-05
-0.00011318 -2.41676e-05 -0.000907058
-0.000998097 -0.000484738 -1.70338e-05
-0.000484738 -0.000332485 2.56194e-05
-1.70338e-05 2.56194e-05 -0.000746847
0.000367546 0.000140504 4.95905e-06
0.000140504 0.000602365 -1.49924e-05
4.95905e-06 -1.49924e-05 6.86477e-05
0.00188707 0.000299742 -3.58839e-06
0.000299742 0.00136502 2.14636e-06
-3.58839e-06 2.14636e-06 0.000959668
-0.00105179 0.000116027 0.000202316
0.000116027 0.00263673 4.92324e-05
0.000202316 4.92324e-05 0.00100891
0.000115337 1.88076e-05 0.00019835
1.88076e-05 0.0012988 -3.71917e-05
0.00019835 -3.71917e-05 -0.00367623
-0.0135662 -0.000489858 -0.000404085
-0.000489858 0.00677147 2.91344e-05
-0.000404085 2.91344e-05 0.000820017
0.001817 0.00073081 2.18442e-05
0.00073081 0.00110213 -5.91935e-07
2.18442e-05 -5.91935e-07 0.000713593
-0.000642846 0.000909031 1.29456e-05
0.000909031 -0.000175952 1.10205e-05
1.29456e-05 1.10205e-05 -0.000749318
0.00588988 0.00139654 0.000473841
0.00139654 0.0044553 0.000110777
0.000473841 0.000110777 0.000986024
0.00698396 0.0048235 0.000266584
0.0048235 0.00297255 0.000219285
0.000266584 0.000219285 -0.00111013
0.00366842 0.00325818 -0.000157191
0.00325818 0.00212228 -0.000139979
-0.000157191 -0.000139979 0.000512108
0.00454902 -0.0023489 -0.000178699
-0.0023489 0.0051489 -0.000508536
-0.000178699 -0.000508536 0.00037202
0.0032684 0.000754102 0.000143016
0.000754102 0.000740705 0.000172434
0.000143016 0.000172434 -0.00116647
0.0092123 -0.000436862 -4.96918e-05
-0.000436862 -0.00549922 -0.000266294
-4.96918e-05 -0.000266294 -0.00260626
0.00102357 0.000690082 3.38347e-06
0.000690082 0.000840858 -2.84205e-07
3.38347e-06 -2.84205e-07 0.000325911
-0.0030647 0.000288951 -1.85633e-06
0.000288951 0.000785114 6.97055e-06
-1.85633e-06 6.97055e-06 -0.000686994
0.00559723 -0.000337772 0.000162903
-0.000337772 -6.2413e-05 1.62097e-05
0.000162903 1.62097e-05 -0.00121895
-0.00191214 0.000646951 -1.94719e-05
0.000646951 -8.07356e-05 -1.22998e-05
-1.94719e-05 -1.22998e-05 -0.000990202
0.0145906 0.00157936 5.22889e-06
0.00157936 0.000846841 -6.32502e-05
5.22889e-06 -6.32502e-05 -4.71081e-05
0.00368044 0.00249667 0.000299267
0.00249667 0.00482997 0.000180055
0.000299267 0.000180055 -0.00142542
0.0104203 0.000699392 -0.000196537
0.000699392 0.00405711 1.2157e-05
-0.000196537 1.2157e-05 -0.000324071
0.000490074 0.000616881 3.19795e-06
0.000616881 0.000729919 -2.21914e-05
3.19795e-06 -2.21914e-05 5.56209e-05
0.00232508 -3.53668e-05 1.84137e-06
-3.53668e-05 0.00108765 5.0558e-06
1.84137e-06 5.0558e-06 -5.6668e-05
0.0040987 -0.00193914 0.000172719
-0.00193914 0.00365578 -0.000277215
0.000172719 -0.000277215 0.0014426
0.026414 0.00628548 0.000368905
0.00628548 0.00930921 -0.000339782
0.000368905 -0.000339782 0.00510319
0.010231 -0.000412134 -0.000143929
-0.000412134 0.00651196 0.000558457
-0.000143929 0.000558457 0.00214811
-0.000982162 0.000630061 -8.81115e-05
0.000630061 0.00073263 -0.000135301
-8.81115e-05 -0.000135301 -0.00020834
0.00385014 0.00130898 0.000273062
0.00130898 0.00664142 2.34705e-05
0.000273062 2.34705e-05 -0.00259614
0.00147901 0.000457547 1.15408e-05
0.000457547 0.00110002 1.15816e-05
1.15408e-05 1.15816e-05 0.000641995
0.000832615 0.000320116 4.92245e-06
0.000320116 0.000923847 6.39528e-06
4.92245e-06 6.39528e-06 0.000384106
0.000593283 -7.34289e-05 -6.87462e-06
-7.34289e-05 0.00101851 1.34772e-05
-6.87462e-06 1.34772e-05 0.000521041
-0.000996931 -1.14188e-05 2.19944e-06
-1.14188e-05 -0.000720163 -3.32718e-06
2.19944e-06 -3.32718e-06 -0.000915863
-0.000582656 -2.82656e-05 1.66662e-06
-2.82656e-05 3.77983e-05 3.74436e-06
1.66662e-06 3.74436e-06 -0.00048828
-5.43132e-05 3.53985e-05 -1.62487e-06
3.53985e-05 0.000459125 -8.63969e-06
-1.62487e-06 -8.63969e-06 -0.000106435
-5.35901e-05 -1.69744e-05 3.28434e-07
-1.69744e-05 0.000139249 3.37508e-07
3.28434e-07 3.37508e-07 -0.000158722
-0.000196818 -6.8795e-05 2.58914e-06
-6.8795e-05 0.000303604 1.69984e-06
2.58914e-06 1.69984e-06 -0.000177092
0.00207835 -0.000487453 1.02808e-05
-0.000487453 0.00137185 -1.21527e-05
1.02808e-05 -1.21527e-05 0.00101381
-8.34887e-05 -5.33777e-05 -4.21834e-06
-5.33777e-05 -1.21855e-05 8.38681e-06
-4.21834e-06 8.38681e-06 -0.000200855
-0.000444394 2.44211e-05 7.15011e-07
2.44211e-05 -0.00039815 4.21793e-06
7.15011e-07 4.21793e-06 -0.000541085
0.000992266 -0.000321672 -8.84508e-07
-0.000321672 0.000467144 6.02492e-06
-8.84508e-07 6.02492e-06 0.000264608
-0.0040341 2.40472e-05 2.50922e-05
2.40472e-05 -0.00234505 2.33303e-05
2.50922e-05 2.33303e-05 -0.00270156
-0.00074951 -9.89883e-05 1.36137e-05
-9.89883e-05 -0.000600906 -3.41961e-07
1.36137e-05 -3.41961e-07 -0.000618936
-3.65362e-05 -0.000371948 -4.31711e-06
-0.000371948 -0.000258573 -5.74223e-06
-4.31711e-06 -5.74223e-06 -0.000550277
0.00161446 -0.000702665 8.03375e-07
-0.000702665 0.000561947 4.22628e-07
8.03375e-07 4.22628e-07 -7.86359e-06
0.00191366 -0.000831298 -1.01789e-05
-0.000831298 0.000621785 5.9195e-07
-1.01789e-05 5.9195e-07 8.30039e-05
0.00139282 -0.000380303 4.97384e-06
-0.000380303 0.000492848 -6.00816e-06
4.97384e-06 -6.00816e-06 0.00026363
0.001495 -0.000614224 8.36768e-07
-0.000614224 0.000509372 1.09474e-06
8.36768e-07 1.09474e-06 7.79049e-05
0.00177109 -0.00072616 4.04964e-06
-0.00072616 0.000539238 -5.70048e-06
4.04964e-06 -5.70048e-06 5.90815e-05
0.00184603 -0.000558488 -3.12281e-07
-0.000558488 0.000726097 5.78715e-06
-3.12281e-07 5.78715e-06 0.000339401
0.0010561 -0.000591841 2.51682e-06
-0.000591841 0.000160849 -5.14768e-06
2.51682e-06 -5.14768e-06 -0.00028232
0.000929855 -0.000223213 8.07328e-07
-0.000223213 0.000286011 -5.8416e-06
8.07328e-07 -5.8416e-06 1.42507e-05
0.00108116 -0.000400507 -4.23896e-06
-0.000400507 0.000321404 2.09663e-06
-4.23896e-06 2.09663e-06 2.89641e-05
-0.000995381 -0.000228063 1.29005e-06
-0.000228063 -0.00100854 -9.46627e-06
1.29005e-06 -9.46627e-06 -0.00128315
-0.000150491 -8.1433e-05 5.20346e-07
-8.1433e-05 -0.000284761 -5.18973e-06
5.20346e-07 -5.18973e-06 -0.000546492
0.000349106 -0.00018196 6.04078e-07
-0.00018196 6.16288e-05 2.69837e-07
6.04078e-07 2.69837e-07 -0.000241676
-0.000147443 -0.000176688 9.40492e-06
-0.000176688 -0.000307664 8.70193e-07
9.40492e-06 8.70193e-07 -0.00054735
0.00103951 -0.000173417 -9.38938e-07
-0.000173417 0.000482913 1.40291e-06
-9.38938e-07 1.40291e-06 0.000226424
0.000723832 -0.000142044 3.42597e-07
-0.000142044 0.000229518 4.20319e-07
3.42597e-07 4.20319e-07 2.28948e-05
0.00038584 -2.89181e-05 1.36019e-06
-2.89181e-05 -3.39341e-05 6.83616e-06
1.36019e-06 6.83616e-06 -0.000157036
0.00132797 -0.000210633 -1.47565e-06
-0.000210633 0.000620025 2.50369e-07
-1.47565e-06 2.50369e-07 0.000431881
0.000579706 -3.16728e-05 -1.30601e-06
-3.16728e-05 8.79683e-05 -3.2862e-07
-1.30601e-06 -3.2862e-07 -1.8543e-05
0.000336433 4.82946e-05 3.24992e-06
4.82946e-05 -7.99019e-05 8.44683e-06
3.24992e-06 8.44683e-06 -0.000125123
0.000745591 -8.64646e-05 1.18236e-06
-8.64646e-05 0.00020096 -4.02931e-06
1.18236e-06 -4.02931e-06 9.73859e-05
0.000435844 -1.39425e-05 -1.60399e-06
-1.39425e-05 -2.81917e-05 -1.00755e-07
-1.60399e-06 -1.00755e-07 -6.50721e-05
0.00275509 9.46834e-05 -1.04768e-06
9.46834e-05 0.0014558 2.89916e-06
-1.04768e-06 2.89916e-06 0.00145796
0.000477634 -3.20723e-05 3.2796e-06
-3.20723e-05 2.01639e-06 -7.35392e-06
3.2796e-06 -7.35392e-06 -3.22031e-05
0.00181083 4.37244e-05 2.0291e-05
4.37244e-05 0.000846683 -9.80269e-07
2.0291e-05 -9.80269e-07 0.000850652
0.0026434 3.56479e-05 2.9032e-05
3.56479e-05 0.00138058 -6.00164e-06
2.9032e-05 -6.00164e-06 0.00139215
0.000252496 3.50056e-05 3.75443e-06
3.50056e-05 -9.95688e-05 1.87584e-06
3.75443e-06 1.87584e-06 -0.000234465
0.000146135 1.34159e-05 2.35805e-06
1.34159e-05 -0.000188605 -3.54861e-06
2.35805e-06 -3.54861e-06 -0.000274661
0.000458654 4.53689e-05 -3.96436e-07
4.53689e-05 4.68182e-05 -1.11033e-06
-3.96436e-07 -1.11033e-06 -9.43409e-05
0.000467586 1.31899e-05 1.72276e-06
1.31899e-05 -1.73459e-05 -5.20641e-06
1.72276e-06 -5.20641e-06 -3.57032e-05
0.000135243 2.29358e-05 -7.76973e-07
2.29358e-05 -0.000194878 -2.04507e-06
-7.76973e-07 -2.04507e-06 -0.000270262
0.00063183 7.26268e-05 -1.51883e-08
7.26268e-05 0.000172802 2.22993e-06
-1.51883e-08 2.22993e-06 3.44001e-05
0.00212456 -1.57809e-05 -1.86868e-05
-1.57809e-05 0.00104605 -5.12226e-06
-1.86868e-05 -5.12226e-06 0.00106275
0.000442161 7.17702e-06 -8.40068e-07
7.17702e-06 -3.41907e-05 -1.17214e-07
-8.40068e-07 -1.17214e-07 -4.79253e-05
5.08982e-05 1.79785e-05 1.55446e-06
1.79785e-05 -0.000247616 2.93014e-06
1.55446e-06 2.93014e-06 -0.000312544
0.00206695 -8.54334e-07 -4.09942e-06
-8.54334e-07 0.00101024 6.07841e-08
-4.09942e-06 6.07841e-08 0.00102736
0.000420356 6.05982e-06 -2.2784e-06
6.05982e-06 -4.68273e-05 3.99516e-06
-2.2784e-06 3.99516e-06 -5.81916e-05
0.00209346 1.52206e-05 9.31438e-06
1.52206e-05 0.00102939 5.24611e-06
9.31438e-06 5.24611e-06 0.00104557
0.000653341 -9.03029e-05 0.000203389
-9.03029e-05 0.00344676 0.000106755
0.000203389 0.000106755 0.00211717
-0.000491493 -0.000526823 -7.03104e-05
-0.000526823 0.000516067 -2.64006e-06
-7.03104e-05 -2.64006e-06 -0.00418829
0.000527772 0.00131506 -0.000163355
0.00131506 0.00914246 -7.56151e-05
-0.000163355 -7.56151e-05 0.00313147
0.00086752 0.000156408 1.09661e-06
0.000156408 0.000298792 1.09965e-07
1.09661e-06 1.09965e-07 0.000139488
0.00023328 0.000113321 8.16203e-06
0.000113321 -8.98681e-05 5.00752e-06
8.16203e-06 5.00752e-06 -0.000247462
0.00135634 0.000238501 1.2935e-05
0.000238501 0.000606429 1.20524e-05
1.2935e-05 1.20524e-05 0.00044398
0.00779518 -0.000806148 -0.000203644
-0.000806148 -0.000111152 0.000201049
-0.000203644 0.000201049 -0.00177791
0.00620653 -0.00177282 0.000135026
-0.00177282 0.00333517 2.4529e-05
0.000135026 2.4529e-05 0.00155003
0.00466459 -0.0027033 0.000290857
-0.0027033 0.00195976 -0.000320615
0.000290857 -0.000320615 -0.00302642
0.00988427 -0.00376196 -2.35478e-05
-0.00376196 -0.000128268 -4.31986e-05
-2.35478e-05 -4.31986e-05 0.00116233
0.0023059 -0.00505595 -0.000654624
-0.00505595 -0.00225435 7.31285e-05
-0.000654624 7.31285e-05 -0.00397649
0.0289253 0.00549375 0.000433907
0.00549375 0.0131436 0.000249887
0.000433907 0.000249887 0.0058239
0.0081968 -0.000640506 0.000397909
-0.000640506 -0.00204303 -0.00030884
0.000397909 -0.00030884 -0.00300531
0.00276292 -0.00337249 -2.38063e-05
-0.00337249 -0.000818249 1.84248e-05
-2.38063e-05 1.84248e-05 0.000365061
0.00706135 -0.00591665 -0.000191128
-0.00591665 0.00261854 1.59324e-05
-0.000191128 1.59324e-05 -0.00234691
0.00268588 0.0043595 -0.000111144
0.0043595 0.00595428 -0.000365524
-0.000111144 -0.000365524 -3.72085e-05
0.0118456 -0.000203901 -0.000118144
-0.000203901 -0.0031923 0.000168833
-0.000118144 0.000168833 -0.000926667
-0.00102043 -0.00220973 -0.00016342
-0.00220973 0.000246285 7.99894e-05
-0.00016342 7.99894e-05 -0.000223733
0.00949745 -0.00353815 -0.000417367
-0.00353815 0.00600054 0.000236297
-0.000417367 0.000236297 0.000279093
0.00238342 -0.000205492 5.99188e-05
-0.000205492 0.00289359 -0.000341034
5.99188e-05 -0.000341034 -0.00164395
0.00971394 -2.35604e-05 0.000117161
-2.35604e-05 -0.00169757 0.000127645
0.000117161 0.000127645 -0.00151964
-8.70319e-05 0.000104404 1.12215e-05
0.000104404 -0.000249249 2.32318e-05
1.12215e-05 2.32318e-05 -0.000387318
0.000677753 1.83814e-05 2.06953e-06
1.83814e-05 0.000277533 -2.75335e-06
2.06953e-06 -2.75335e-06 4.78209e-05
0.000255873 -0.000183937 5.45576e-06
-0.000183937 -2.17655e-05 -1.16581e-05
5.45576e-06 -1.16581e-05 -0.000242923
0.000654169 0.000160727 -2.12884e-06
0.000160727 0.000146564 2.33705e-06
-2.12884e-06 2.33705e-06 -1.15438e-05
0.000887363 0.000179002 3.31796e-06
0.000179002 0.000374374 -8.42706e-06
3.31796e-06 -8.42706e-06 0.000167671
0.00123712 0.000227579 -5.67835e-06
0.000227579 0.000583224 -6.32506e-06
-5.67835e-06 -6.32506e-06 0.000383362
0.000876175 -0.00150015 6.4762e-05
-0.00150015 -0.000265692 -1.74875e-05
6.4762e-05 -1.74875e-05 -0.000508506
0.000110471 -0.000462231 1.377e-05
-0.000462231 -0.000222386 -2.79184e-05
1.377e-05 -2.79184e-05 -0.00017747
0.000181439 0.000129101 -2.88946e-06
0.000129101 2.64578e-05 -2.05503e-05
-2.88946e-06 -2.05503e-05 -0.000215087
0.0028871 -0.000567178 8.22069e-05
-0.000567178 0.0018204 -4.01836e-05
8.22069e-05 -4.01836e-05 0.00137788
0.00225093 -0.000166805 6.41587e-06
-0.000166805 0.00141706 -3.16327e-06
6.41587e-06 -3.16327e-06 0.00108734
-0.000381877 9.8128e-05 7.16966e-06
9.8128e-05 -0.000254617 2.88741e-06
7.16966e-06 2.88741e-06 -0.000469924
0.000160501 5.99875e-05 3.07949e-06
5.99875e-05 0.000282691 9.00485e-07
3.07949e-06 9.00485e-07 -7.3282e-05
0.00175775 -0.00173625 -5.39085e-05
-0.00173625 0.00084483 1.66068e-06
-5.39085e-05 1.66068e-06 0.00021362
0.000142495 -4.20421e-05 -6.18707e-06
-4.20421e-05 0.000546119 1.8253e-06
-6.18707e-06 1.8253e-06 -4.30573e-05
0.000197751 -0.000422633 -1.44896e-05
-0.000422633 0.000497807 -3.02733e-06
-1.44896e-05 -3.02733e-06 -4.85849e-05
0.000850584 0.00020897 4.81935e-06
0.00020897 0.00067854 -1.04374e-05
4.81935e-06 -1.04374e-05 0.000376428
-0.00242114 -0.000458139 -1.76357e-05
-0.000458139 -0.000127053 -2.18475e-05
-1.76357e-05 -2.18475e-05 -0.00113969
0.000408449 -0.000211544 -1.7966e-05
-0.000211544 0.000985799 -4.48381e-06
-1.7966e-05 -4.48381e-06 0.000345904
-0.00181381 -3.95986e-05 -1.96813e-05
-3.95986e-05 -0.000390405 -9.23375e-07
-1.96813e-05 -9.23375e-07 -0.000991853
0.000204502 0.000373972 -1.13371e-05
0.000373972 -0.000442488 2.20353e-06
-1.13371e-05 2.20353e-06 -0.00269887
-0.00205587 0.000448443 0.000112294
0.000448443 0.00237095 -6.35755e-06
0.000112294 -6.35755e-06 0.000680194
-0.000990799 -0.000116939 0.000411118
-0.000116939 0.000539932 4.33548e-05
0.000411118 4.33548e-05 -0.004397
0.000333882 0.00069077 8.37225e-06
0.00069077 0.000405521 1.90561e-05
8.37225e-06 1.90561e-05 -0.000139919
0.00011958 0.00104879 -2.08557e-05
0.00104879 0.000565707 -2.47262e-05
-2.08557e-05 -2.47262e-05 -0.000285948
-0.00268846 0.00024849 -0.000108037
0.00024849 0.000974328 -4.07585e-05
-0.000108037 -4.07585e-05 -0.000643613
-0.0045216 0.000836369 0.000122897
0.000836369 0.00337879 0.000221092
0.000122897 0.000221092 -0.00255067
0.00104481 0.000775987 -0.000155103
0.000775987 -0.00168726 -0.00049678
-0.000155103 -0.00049678 -0.00731137
0.00481406 -5.51049e-05 0.00010669
-5.51049e-05 -0.000228572 6.57386e-05
0.00010669 6.57386e-05 -0.000816604
0.00739074 -0.000400566 -0.00037554
-0.000400566 -0.00202884 0.000288698
-0.00037554 0.000288698 -0.00309967
0.000235243 0.000492573 -3.38689e-06
0.000492573 0.000642395 -4.13332e-07
-3.38689e-06 -4.13332e-07 5.26982e-05
0.00140122 0.000146588 4.43976e-05
0.000146588 0.00100202 1.05383e-05
4.43976e-05 1.05383e-05 -0.000107065
0.00513034 -0.00132604 -0.000125934
-0.00132604 0.00327279 -1.06056e-05
-0.000125934 -1.06056e-05 0.00149494
-0.000387107 0.000840842 -0.000151322
0.000840842 0.00177601 -1.32524e-05
-0.000151322 -1.32524e-05 -2.53097e-05
0.0186413 0.00611753 -0.000118495
0.00611753 0.00632752 -0.000467034
-0.000118495 -0.000467034 0.0021354
0.00418234 0.00378659 9.77014e-05
0.00378659 0.00619721 0.000389993
9.77014e-05 0.000389993 -0.000270108
0.00545456 0.00128787 7.56762e-05
0.00128787 0.00648727 -1.23562e-05
7.56762e-05 -1.23562e-05 -0.0012249
0.000220547 2.93046e-05 2.96542e-05
2.93046e-05 0.00147671 -2.16408e-05
2.96542e-05 -2.16408e-05 0.000173068
0.000128272 -0.00013616 -0.000190043
-0.00013616 0.00383473 1.05458e-06
-0.000190043 1.05458e-06 0.00225539
0.0012787 -0.000961729 0.000840009
-0.000961729 0.000543444 -0.000277814
0.000840009 -0.000277814 -0.00487843
0.0258856 0.0100316 -0.000108984
0.0100316 0.017721 -4.12397e-05
-0.000108984 -4.12397e-05 0.0115215
0.0121319 0.004579 8.44941e-05
0.004579 0.00462794 0.000997297
8.44941e-05 0.000997297 -0.00180147
0.0122311 -0.00460338 0.000402695
-0.00460338 0.00689035 -0.000294894
0.000402695 -0.000294894 7.45337e-05
0.00231822 -0.000815272 -7.68196e-05
-0.000815272 0.0033473 4.32654e-05
-7.68196e-05 4.32654e-05 0.00213784
0.000951996 0.000286327 -4.91995e-06
0.000286327 0.0010019 3.5546e-06
-4.91995e-06 3.5546e-06 0.000507028
9.28419e-06 -8.10151e-05 -1.95313e-06
-8.10151e-05 0.000576374 -5.30861e-06
-1.95313e-06 -5.30861e-06 2.05467e-05
0.00114368 -0.000598244 5.0359e-05
-0.000598244 0.000963604 -1.40635e-05
5.0359e-05 -1.40635e-05 0.000328476
0.000237143 -7.37265e-05 -4.00241e-06
-7.37265e-05 0.000268174 1.07749e-05
-4.00241e-06 1.07749e-05 1.84765e-05
-9.48834e-05 -9.46224e-05 -5.28011e-06
-9.46224e-05 0.000307346 -1.95339e-05
-5.28011e-06 -1.95339e-05 -0.000134053
0.000722555 -0.000332891 -5.1557e-06
-0.000332891 0.000711532 1.18981e-06
-5.1557e-06 1.18981e-06 0.00033764
0.00134027 -0.00076239 3.02603e-05
-0.00076239 0.000658884 -1.90688e-05
3.02603e-05 -1.90688e-05 0.000245641
0.000955836 -0.000380322 2.39079e-06
-0.000380322 0.000477105 7.67007e-07
2.39079e-06 7.67007e-07 0.000194873
0.00141174 -0.000686358 1.75648e-05
-0.000686358 0.000640931 -3.50611e-06
1.75648e-05 -3.50611e-06 0.000188577
0.00143194 -0.000745772 1.14795e-05
-0.000745772 0.000627044 -1.13942e-07
1.14795e-05 -1.13942e-07 -0.000115643
0.000526357 -0.000392336 -8.93868e-06
-0.000392336 4.16912e-05 -6.92054e-06
-8.93868e-06 -6.92054e-06 -0.000196121
0.0022913 -0.000790963 -3.75745e-06
-0.000790963 0.000920617 -2.15873e-06
-3.75745e-06 -2.15873e-06 0.000354858
0.00179688 -0.000922171 -1.44198e-05
-0.000922171 0.000488741 -1.71909e-06
-1.44198e-05 -1.71909e-06 -0.000176788
0.00232319 -0.00106355 -1.44815e-05
-0.00106355 0.000622146 1.19511e-06
-1.44815e-05 1.19511e-06 2.778e-05
0.00211794 -0.000924005 -4.88196e-06
-0.000924005 0.000685232 -7.321e-07
-4.88196e-06 -7.321e-07 0.000133865
0.0017016 -0.000802325 -5.27059e-06
-0.000802325 0.000492902 9.00549e-07
-5.27059e-06 9.00549e-07 -4.33089e-05
0.00126734 -0.000592715 1.00871e-06
-0.000592715 0.000343524 -7.69855e-06
1.00871e-06 -7.69855e-06 -8.92016e-05
0.0015574 -0.00067048 8.18785e-06
-0.00067048 0.000465938 -5.01446e-06
8.18785e-06 -5.01446e-06 9.784e-06
0.00174421 -0.000734786 7.55064e-06
-0.000734786 0.000524491 -1.45156e-06
7.55064e-06 -1.45156e-06 4.28407e-05
0.00134351 -0.000339293 2.39217e-06
-0.000339293 0.000450298 2.62328e-07
2.39217e-06 2.62328e-07 0.000158471
0.0011804 -0.000498602 6.34553e-06
-0.000498602 0.000299255 -4.23733e-06
6.34553e-06 -4.23733e-06 -7.50341e-05
-0.000166275 -0.000433069 -9.30563e-06
-0.000433069 -0.00059245 -4.94366e-06
-9.30563e-06 -4.94366e-06 -0.00099068
0.000144027 -0.000120918 -3.55638e-09
-0.000120918 -0.000130965 -5.83166e-06
-3.55638e-09 -5.83166e-06 -0.000409345
0.000908921 -0.000264927 -9.41964e-07
-0.000264927 0.000296126 -4.37625e-07
-9.41964e-07 -4.37625e-07 1.47491e-05
6.37488e-05 -0.000316075 -5.54745e-06
-0.000316075 -0.000313103 -1.90626e-06
-5.54745e-06 -1.90626e-06 -0.000605872
0.000326701 -8.07411e-05 -5.29534e-07
-8.07411e-05 -6.39243e-05 6.84241e-06
-5.29534e-07 6.84241e-06 -0.000221092
0.000798596 -0.000147595 -3.01688e-08
-0.000147595 0.00030217 4.07484e-07
-3.01688e-08 4.07484e-07 4.30144e-05
-0.000272282 -0.000187631 -2.91103e-07
-0.000187631 -0.00031233 4.51634e-06
-2.91103e-07 4.51634e-06 -0.000607642
0.0015038 -0.000206316 2.10654e-07
-0.000206316 0.000732482 1.7834e-06
2.10654e-07 1.7834e-06 0.000513731
0.000667248 -8.30385e-05 -3.63891e-07
-8.30385e-05 0.000145941 -2.92813e-07
-3.63891e-07 -2.92813e-07 1.5515e-05
0.000334328 1.69495e-05 2.8807e-06
1.69495e-05 -7.80216e-05 1.14202e-05
2.8807e-06 1.14202e-05 -0.000130794
0.000721215 -8.41188e-05 5.32765e-07
-8.41188e-05 0.000178667 -4.78086e-06
5.32765e-07 -4.78086e-06 6.70641e-05
0.000446313 1.95724e-06 -4.16121e-06
1.95724e-06 -1.76548e-05 -3.30477e-07
-4.16121e-06 -3.30477e-07 -5.99459e-05
0.00303836 0.000100019 -4.57439e-05
0.000100019 0.0016448 5.30749e-06
-4.57439e-05 5.30749e-06 0.00164712
0.000475681 -2.4299e-05 3.01188e-06
-2.4299e-05 -5.49465e-06 -7.30999e-06
3.01188e-06 -7.30999e-06 -4.17121e-05
0.00187341 6.23805e-05 2.51859e-05
6.23805e-05 0.000889299 -7.3624e-07
2.51859e-05 -7.3624e-07 0.000889686
0.00285749 5.68257e-05 3.68637e-05
5.68257e-05 0.001519 -5.72213e-06
3.68637e-05 -5.72213e-06 0.00152799
0.000813982 0.000114578 6.26739e-06
0.000114578 0.000267945 -1.68312e-06
6.26739e-06 -1.68312e-06 0.000110262
0.000499201 5.82063e-05 3.9251e-06
5.82063e-05 3.91154e-05 -3.12529e-06
3.9251e-06 -3.12529e-06 -5.54686e-05
0.000402038 5.74403e-05 -4.67529e-07
5.74403e-05 1.09296e-05 -1.27096e-06
-4.67529e-07 -1.27096e-06 -0.000136577
0.000455688 1.38513e-05 1.47097e-06
1.38513e-05 -2.41345e-05 -6.50278e-06
1.47097e-06 -6.50278e-06 -4.8297e-05
0.000280957 4.4797e-05 -2.46173e-06
4.4797e-05 -0.000100094 -2.16903e-06
-2.46173e-06 -2.16903e-06 -0.000186231
0.000665293 9.40569e-05 -2.12545e-06
9.40569e-05 0.000185395 -3.12359e-06
-2.12545e-06 -3.12359e-06 4.32794e-05
0.00222933 -3.20147e-05 -2.20864e-05
-3.20147e-05 0.00111349 -5.31417e-06
-2.20864e-05 -5.31417e-06 0.0011286
0.000434052 -6.43834e-07 5.16832e-07
-6.43834e-07 -3.99346e-05 -1.94857e-07
5.16832e-07 -1.94857e-07 -5.73877e-05
0.000104829 1.96598e-05 -2.15034e-06
1.96598e-05 -0.000214445 8.95434e-07
-2.15034e-06 8.95434e-07 -0.00029188
0.00214451 -1.53069e-05 -5.84128e-06
-1.53069e-05 0.00105903 1.3014e-07
-5.84128e-06 1.3014e-07 0.0010757
0.000434536 2.20156e-06 -3.56694e-06
2.20156e-06 -3.97507e-05 4.2856e-06
-3.56694e-06 4.2856e-06 -5.3021e-05
0.0021126 6.22184e-07 1.41903e-05
6.22184e-07 0.00103974 5.19927e-06
1.41903e-05 5.19927e-06 0.00105662
0.00208649 -0.000352394 -0.000103066
-0.000352394 0.000870475 3.02814e-05
-0.000103066 3.02814e-05 -0.000296656
-0.00133177 -0.000166724 0.00010344
-0.000166724 0.00296669 -5.14105e-06
0.00010344 -5.14105e-06 0.00121586
-0.000958528 -0.000389812 0.000170462
-0.000389812 0.0010721 -0.00021979
0.000170462 -0.00021979 -0.00433085
-0.000174015 2.06386e-05 5.02414e-06
2.06386e-05 -0.00029445 1.36448e-06
5.02414e-06 1.36448e-06 -0.000506617
0.00300487 0.00017595 5.10096e-06
0.00017595 0.00167438 6.39284e-06
5.10096e-06 6.39284e-06 0.00146561
0.000601769 0.00015798 -5.1863e-06
0.00015798 0.0001336 -7.52704e-06
-5.1863e-06 -7.52704e-06 -2.30621e-05
0.000105149 7.58522e-05 1.30501e-06
7.58522e-05 -0.000187722 -4.69233e-07
1.30501e-06 -4.69233e-07 -0.000340399
0.000182098 9.05294e-05 2.01654e-07
9.05294e-05 -0.000166043 -1.6425e-06
2.01654e-07 -1.6425e-06 -0.000287406
0.000126308 9.42733e-05 7.14507e-06
9.42733e-05 -0.000164767 4.4994e-06
7.14507e-06 4.4994e-06 -0.000315208
-9.61287e-05 9.11989e-05 1.71517e-05
9.11989e-05 -0.000285843 5.3778e-06
1.71517e-05 5.3778e-06 -0.000392889
0.00302134 0.00161748 0.000278801
0.00161748 -0.000238112 0.00026278
0.000278801 0.00026278 -0.00195237
0.00640599 -0.000453207 -8.17062e-05
-0.000453207 4.02185e-05 5.04212e-05
-8.17062e-05 5.04212e-05 -0.00160019
0.00471719 -0.000940933 0.00034599
-0.000940933 0.00357603 -0.000130208
0.00034599 -0.000130208 0.00157622
0.00959736 -0.000156491 -6.52409e-06
-0.000156491 -0.00557208 0.000187419
-6.52409e-06 0.000187419 -0.00257461
0.00703952 -0.00430936 -0.000154562
-0.00430936 0.00113508 3.37559e-05
-0.000154562 3.37559e-05 0.00170585
0.00117449 -0.00521643 -0.00037209
-0.00521643 0.00176931 0.000136513
-0.00037209 0.000136513 -0.00447541
0.0198068 0.00484501 0.000193886
0.00484501 0.00830701 -0.000222742
0.000193886 -0.000222742 0.00253661
0.0024022 -0.00323742 -6.48353e-05
-0.00323742 0.00021299 3.44234e-05
-6.48353e-05 3.44234e-05 0.000744744
-0.00135818 -0.00116379 -7.89854e-05
-0.00116379 0.00479195 5.40565e-05
-7.89854e-05 5.40565e-05 -0.00318082
0.0118042 0.00044444 0.000273998
0.00044444 0.00452241 -3.80044e-05
0.000273998 -3.80044e-05 0.000226708
0.0175642 -0.00195796 -8.51255e-05
-0.00195796 0.00237061 -1.00991e-05
-8.51255e-05 -1.00991e-05 0.0031596
-0.00344145 -0.000565307 -0.000191473
-0.000565307 -0.000194879 0.000191099
-0.000191473 0.000191099 -0.000627912
0.0020823 0.0020318 -0.000251801
0.0020318 0.00560696 -0.00014451
-0.000251801 -0.00014451 -0.00245026
0.0020318 -0.00631082 5.1851e-06
-0.00631082 0.000822031 -0.000249154
5.1851e-06 -0.000249154 -0.00551167
0.016773 -0.00308296 0.000241745
-0.00308296 0.00623878 -0.000721523
0.000241745 -0.000721523 0.00329086
0.000291136 -1.81898e-09 2.31738e-05
-1.81898e-09 0.000263057 -1.4695e-06
2.31738e-05 -1.4695e-06 -5.27911e-05
0.000728013 0.000198389 -2.39753e-06
0.000198389 0.000292974 -4.07395e-06
-2.39753e-06 -4.07395e-06 0.000136469
0.000774429 -1.95188e-06 -6.36728e-07
-1.95188e-06 0.000355551 -6.77849e-06
-6.36728e-07 -6.77849e-06 0.000103299
0.000927339 0.000176233 -4.12666e-06
0.000176233 0.000345904 -1.27692e-05
-4.12666e-06 -1.27692e-05 0.000170037
0.0010591 -0.00141875 9.26756e-05
-0.00141875 0.000447823 2.98509e-05
9.26756e-05 2.98509e-05 -0.000177931
0.00107988 -0.000405098 5.99373e-06
-0.000405098 0.00110824 -2.5889e-05
5.99373e-06 -2.5889e-05 0.000446186
0.00066962 0.000108804 -2.07968e-05
0.000108804 0.000390139 -2.37705e-05
-2.07968e-05 -2.37705e-05 0.000196058
0.00100737 -4.31528e-06 1.96447e-07
-4.31528e-06 0.000746766 -1.16553e-05
1.96447e-07 -1.16553e-05 0.000443521
0.000240005 -4.6634e-05 2.94165e-07
-4.6634e-05 0.000614177 9.69702e-06
2.94165e-07 9.69702e-06 9.99734e-05
0.000150223 9.12002e-05 2.24665e-06
9.12002e-05 0.000181052 3.74724e-06
2.24665e-06 3.74724e-06 -7.3131e-05
0.000426874 -3.19078e-05 5.03999e-07
-3.19078e-05 0.000815059 1.6103e-06
5.03999e-07 1.6103e-06 0.000270659
0.000343073 -0.000839001 -1.30924e-06
-0.000839001 0.00120175 -1.60258e-06
-1.30924e-06 -1.60258e-06 -0.000181721
0.000483579 -0.000140654 -3.75654e-06
-0.000140654 0.00117156 -9.86461e-06
-3.75654e-06 -9.86461e-06 0.000556541
-0.000145159 0.000119053 2.92601e-06
0.000119053 0.0001607 -8.36574e-06
2.92601e-06 -8.36574e-06 -0.000145249
-0.000253364 0.000314801 -0.000177211
0.000314801 0.00283894 -1.84278e-05
-0.000177211 -1.84278e-05 0.000690751
0.000401713 0.000349417 -1.74744e-05
0.000349417 0.00103087 5.3335e-06
-1.74744e-05 5.3335e-06 0.000417183
-0.00267831 2.16237e-06 -9.67936e-05
2.16237e-06 0.00257857 -5.75128e-05
-9.67936e-05 -5.75128e-05 0.000930061
0.00142016 0.000142203 2.58791e-05
0.000142203 0.000359078 1.23132e-05
2.58791e-05 1.23132e-05 -0.000897102
-0.00374252 0.000685111 -5.46397e-05
0.000685111 0.00181074 -8.41982e-05
-5.46397e-05 -8.41982e-05 -8.76607e-05
0.000363595 0.000397727 -2.14631e-05
0.000397727 0.000818253 3.28138e-06
-2.14631e-05 3.28138e-06 0.000318318
-0.00136008 0.00101494 0.000198086
0.00101494 0.000538727 0.000115961
0.000198086 0.000115961 -0.000457138
0.00094728 6.49431e-05 8.95488e-05
6.49431e-05 0.00102163 -9.31054e-06
8.95488e-05 -9.31054e-06 0.000194081
0.00665471 -0.00242058 0.000332809
-0.00242058 0.00655613 -0.000199591
0.000332809 -0.000199591 -0.0024806
0.0213356 0.00432789 -0.000225925
0.00432789 0.00874059 0.000205264
-0.000225925 0.000205264 0.00281789
0.00320998 -0.000840222 -0.000308588
-0.000840222 0.00245273 0.000106089
-0.000308588 0.000106089 0.000654204
0.0146164 0.00525628 -0.000171016
0.00525628 0.00812741 -0.00027137
-0.000171016 -0.00027137 0.00409896
0.000453454 0.00026109 -5.44582e-05
0.00026109 0.00143427 1.09159e-05
-5.44582e-05 1.09159e-05 0.000192468
-0.000166841 -0.000364481 -0.000109128
-0.000364481 0.00294434 1.38905e-06
-0.000109128 1.38905e-06 0.0016753
0.0028151 -0.00183904 0.000305568
-0.00183904 0.0017835 -5.38725e-05
0.000305568 -5.38725e-05 -0.00348311
-0.00352566 -5.89466e-05 5.96562e-05
-5.89466e-05 -0.000201776 3.58343e-05
5.96562e-05 3.58343e-05 -0.000852424
0.0207101 0.0117983 0.000812766
0.0117983 0.0145188 -0.000300795
0.000812766 -0.000300795 0.00803699
0.0105601 0.00337114 -0.000170305
0.00337114 0.00604341 0.000426625
-0.000170305 0.000426625 -0.000197297
-0.00258346 -0.00147226 0.000224711
-0.00147226 0.00342848 -0.000171987
0.000224711 -0.000171987 -0.00489573
-0.00165001 -0.000502996 -1.8024e-05
-0.000502996 0.000442322 -3.06955e-05
-1.8024e-05 -3.06955e-05 -0.000832384
0.000843659 -0.0010724 0.000371107
-0.0010724 -4.30488e-05 -9.64061e-05
0.000371107 -9.64061e-05 -0.00401607
0.00105552 0.00171583 -0.00173279
0.00171583 0.00923181 0.000384465
-0.00173279 0.000384465 0.00371803
0.0228708 0.00824689 -0.000668001
0.00824689 0.00813506 0.000501146
-0.000668001 0.000501146 0.00166252
0.00639739 -0.00431245 -0.000219262
-0.00431245 0.00337536 9.70711e-05
-0.000219262 9.70711e-05 -0.000158795
0.00341368 -0.00217264 5.10541e-05
-0.00217264 0.00368467 1.31206e-05
5.10541e-05 1.31206e-05 0.00242928
8.08374e-05 -6.34637e-05 2.15995e-06
-6.34637e-05 0.000572624 -1.57083e-05
2.15995e-06 -1.57083e-05 -3.69292e-05
1.94633e-05 -0.000434927 4.60644e-06
-0.000434927 0.000440706 -2.22908e-06
4.60644e-06 -2.22908e-06 -0.000229317
0.00104395 -0.00103878 -5.0491e-06
-0.00103878 0.000684888 -2.14875e-06
-5.0491e-06 -2.14875e-06 0.000175582
-0.0002761 -0.00020135 -3.68561e-06
-0.00020135 0.000247004 7.75917e-06
-3.68561e-06 7.75917e-06 -0.000135051
-6.35902e-05 -0.000520068 -7.16915e-07
-0.000520068 2.90755e-05 5.8561e-06
-7.16915e-07 5.8561e-06 -0.000328865
0.0027101 -0.00101908 4.12498e-05
-0.00101908 0.0011141 -2.63106e-05
4.12498e-05 -2.63106e-05 0.000619297
0.00636689 -0.00134746 -1.43978e-05
-0.00134746 0.00334519 -6.00191e-07
-1.43978e-05 -6.00191e-07 0.00279772
0.00278898 -0.000941888 1.05043e-05
-0.000941888 0.00128776 -3.4483e-06
1.05043e-05 -3.4483e-06 0.000550876
0.00224388 -0.00108786 3.02954e-06
-0.00108786 0.000651588 -1.91729e-05
3.02954e-06 -1.91729e-05 -8.10344e-05
0.00247822 -0.000810575 -1.27805e-05
-0.000810575 0.000998012 -7.5704e-06
-1.27805e-05 -7.5704e-06 0.000448074
0.00218392 -0.000978185 5.35161e-07
-0.000978185 0.000698089 -2.23282e-06
5.35161e-07 -2.23282e-06 1.5249e-05
0.00277851 -0.00115249 -8.95001e-06
-0.00115249 0.000893603 -1.07502e-05
-8.95001e-06 -1.07502e-05 0.000226045
0.00237191 -0.000880883 -2.73014e-06
-0.000880883 0.000437304 -5.54007e-06
-2.73014e-06 -5.54007e-06 -3.25553e-06
0.00275167 -0.00110069 -1.10362e-05
-0.00110069 0.000829949 7.18911e-07
-1.10362e-05 7.18911e-07 0.000257941
0.00258368 -0.00109848 -3.92395e-06
-0.00109848 0.000760155 6.48745e-08
-3.92395e-06 6.48745e-08 0.000154781
0.00190005 -0.000882258 6.36868e-06
-0.000882258 0.000571115 -5.52228e-06
6.36868e-06 -5.52228e-06 4.47257e-05
0.00166915 -0.00085021 3.22959e-06
-0.00085021 0.000427672 -1.34679e-06
3.22959e-06 -1.34679e-06 -9.79438e-05
0.00144951 -0.000766696 7.64686e-06
-0.000766696 0.000333588 -8.15569e-07
7.64686e-06 -8.15569e-07 -0.000198113
0.00149667 -0.000575027 8.2035e-06
-0.000575027 0.000470214 3.55915e-06
8.2035e-06 3.55915e-06 5.84743e-05
0.00169502 -0.000685811 -1.12775e-06
-0.000685811 0.000560683 -2.14915e-06
-1.12775e-06 -2.14915e-06 9.92425e-05
0.0017024 -0.000741799 4.74127e-06
-0.000741799 0.000499516 5.30269e-06
4.74127e-06 5.30269e-06 1.71539e-05
0.00130636 -0.000225628 7.14116e-07
-0.000225628 0.000468822 -5.17201e-06
7.14116e-07 -5.17201e-06 0.000215268
0.000867445 -0.000300551 -3.03933e-06
-0.000300551 0.000173478 2.50565e-06
-3.03933e-06 2.50565e-06 -0.000107303
0.000732853 -0.000452247 -3.54538e-06
-0.000452247 4.8911e-06 -9.6444e-06
-3.54538e-06 -9.6444e-06 -0.000356589
3.72779e-06 -9.20817e-05 -1.91489e-06
-9.20817e-05 -0.000244144 3.10952e-06
-1.91489e-06 3.10952e-06 -0.000464709
0.000832201 -0.000225379 5.14438e-08
-0.000225379 0.000311514 7.66719e-07
5.14438e-08 7.66719e-07 2.06581e-05
0.000649209 -0.000286462 1.46918e-06
-0.000286462 0.00017495 1.27736e-06
1.46918e-06 1.27736e-06 -0.00012559
0.000335348 -3.49913e-05 -8.28653e-06
-3.49913e-05 -9.40624e-05 1.6728e-05
-8.28653e-06 1.6728e-05 -0.000149771
0.000678361 -0.000101705 6.86231e-07
-0.000101705 0.00014982 3.70546e-07
6.86231e-07 3.70546e-07 -8.64891e-06
0.00160146 -0.000237235 -5.235e-07
-0.000237235 0.000797397 4.56464e-06
-5.235e-07 4.56464e-06 0.000539468
0.0008495 -9.64496e-05 3.73404e-07
-9.64496e-05 0.000258453 -6.14179e-06
3.73404e-07 -6.14179e-06 0.000125156
0.00042293 -6.50505e-07 -8.75408e-07
-6.50505e-07 -2.96351e-05 -5.50759e-07
-8.75408e-07 -5.50759e-07 -7.93405e-05
0.00316484 0.000128642 -4.52174e-05
0.000128642 0.00173608 5.46432e-06
-4.52174e-05 5.46432e-06 0.00173173
0.000520263 -1.54645e-05 2.93846e-06
-1.54645e-05 2.26725e-05 -8.96254e-06
2.93846e-06 -8.96254e-06 -1.67687e-05
0.00297231 0.000101312 5.72295e-06
0.000101312 0.001602 7.28561e-07
5.72295e-06 7.28561e-07 0.00160431
0.00283946 7.72855e-05 4.01132e-05
7.72855e-05 0.00150973 -5.26419e-06
4.01132e-05 -5.26419e-06 0.00151654
0.00149404 0.000104871 6.25778e-06
0.000104871 0.000847651 -7.21931e-06
6.25778e-06 -7.21931e-06 0.000559314
0.00155221 0.000195656 7.9063e-06
0.000195656 0.000834825 -6.81235e-06
7.9063e-06 -6.81235e-06 0.000593376
0.000545448 4.61224e-05 6.098e-06
4.61224e-05 6.16847e-05 -5.88816e-06
6.098e-06 -5.88816e-06 -4.5398e-05
0.000671329 0.000130653 -1.1182e-07
0.000130653 0.00019537 4.29006e-07
-1.1182e-07 4.29006e-07 3.17489e-05
0.000428165 -6.43431e-06 3.83155e-06
-6.43431e-06 -3.84644e-05 -7.81097e-06
3.83155e-06 -7.81097e-06 -6.78767e-05
0.000524957 6.16788e-05 1.95224e-07
6.16788e-05 5.60921e-05 -2.8398e-07
1.95224e-07 -2.8398e-07 -3.8642e-05
0.000615318 6.21553e-05 -6.48603e-06
6.21553e-05 0.000135168 -2.72562e-06
-6.48603e-06 -2.72562e-06 -6.02997e-06
0.00242766 -4.95516e-05 -2.86183e-05
-4.95516e-05 0.00124315 -5.62034e-06
-2.86183e-05 -5.62034e-06 0.00125544
0.000446497 6.33169e-06 -9.84679e-07
6.33169e-06 -2.92542e-05 -1.64007e-07
-9.84679e-07 -1.64007e-07 -5.28524e-05
0.000489457 6.61539e-05 -4.99491e-06
6.61539e-05 3.58948e-05 8.0402e-07
-4.99491e-06 8.0402e-07 -5.07667e-05
0.00224112 -3.18786e-05 -5.11474e-06
-3.18786e-05 0.00112111 2.77618e-07
-5.11474e-06 2.77618e-07 0.00113624
0.000446105 2.93351e-06 -3.6481e-06
2.93351e-06 -3.30539e-05 4.76703e-06
-3.6481e-06 4.76703e-06 -4.99961e-05
0.00213804 -1.50174e-05 1.76431e-05
-1.50174e-05 0.00105469 5.08238e-06
1.76431e-05 5.08238e-06 0.00107138
-0.00269764 0.000548049 -1.74054e-05
0.000548049 0.00115335 -8.9104e-05
-1.74054e-05 -8.9104e-05 -0.000185878
0.00244778 -0.00029161 -1.85752e-05
-0.00029161 0.00137024 -2.71958e-05
-1.85752e-05 -2.71958e-05 0.000413911
-4.93851e-06 -0.000310113 2.06222e-05
-0.000310113 0.00277377 -5.21273e-05
2.06222e-05 -5.21273e-05 0.00136351
0.00060425 8.30997e-05 2.01653e-06
8.30997e-05 0.000267563 -4.86589e-06
2.01653e-06 -4.86589e-06 -3.41482e-06
9.85063e-05 0.00013872 6.86506e-06
0.00013872 -0.000143594 -3.19481e-06
6.86506e-06 -3.19481e-06 -0.000347517
-0.00195624 -1.16313e-07 9.96761e-06
-1.16313e-07 -0.00153191 -1.03533e-05
9.96761e-06 -1.03533e-05 -0.0017092
-0.00172933 -8.02368e-06 -3.79486e-06
-8.02368e-06 -0.00120223 1.81957e-05
-3.79486e-06 1.81957e-05 -0.0014463
0.00276007 0.000393792 3.24501e-06
0.000393792 0.00151506 -1.58775e-06
3.24501e-06 -1.58775e-06 0.00122622
0.000781508 4.71077e-05 -6.58561e-06
4.71077e-05 0.000236438 -2.52579e-06
-6.58561e-06 -2.52579e-06 7.14224e-05
0.000274056 0.000120766 -1.10325e-05
0.000120766 -8.5315e-05 -1.17376e-05
-1.10325e-05 -1.17376e-05 -0.000208268
0.00111488 2.65529e-05 3.06728e-06
2.65529e-05 0.000449465 3.52533e-07
3.06728e-06 3.52533e-07 0.00030843
0.000996476 0.000188946 -1.76578e-06
0.000188946 0.000404392 -4.70136e-06
-1.76578e-06 -4.70136e-06 0.000283801
0.00225497 0.000179698 2.28956e-06
0.000179698 0.0013821 -1.83044e-05
2.28956e-06 -1.83044e-05 0.00110001
0.00717191 0.00163057 0.000561384
0.00163057 0.00500962 0.000573689
0.000561384 0.000573689 -6.22591e-05
0.00313216 0.00125918 2.44444e-05
0.00125918 0.000493156 8.97346e-05
2.44444e-05 8.97346e-05 -0.00146457
0.00581092 -0.00032109 9.89254e-05
-0.00032109 -0.000207962 -1.76818e-05
9.89254e-05 -1.76818e-05 -0.00119784
0.014439 -0.00120398 -0.000303832
-0.00120398 0.00210881 -0.000145468
-0.000303832 -0.000145468 0.0038478
-0.00162178 0.00100633 0.000104555
0.00100633 -0.00227036 0.000425033
0.000104555 0.000425033 -0.00783552
0.00266419 -0.00337178 -4.03828e-05
-0.00337178 0.000785502 -2.95356e-05
-4.03828e-05 -2.95356e-05 0.00105838
0.00571062 -0.00211296 -0.000244799
-0.00211296 0.00547468 6.17454e-05
-0.000244799 6.17454e-05 -0.000540762
0.000857662 -0.00144956 -0.000144464
-0.00144956 0.0013054 0.000138983
-0.000144464 0.000138983 0.000754079
0.0107412 -0.000133097 -0.000250509
-0.000133097 0.00782709 -2.69741e-06
-0.000250509 -2.69741e-06 0.000579342
0.00794845 -0.00285432 0.000114986
-0.00285432 0.00482166 0.000225918
0.000114986 0.000225918 -0.0012191
0.0219566 -0.00517628 -8.56875e-06
-0.00517628 0.00595625 -0.00085574
-8.56875e-06 -0.00085574 0.00179329
0.000766783 0.000357948 -0.000145563
0.000357948 0.0030275 0.000103273
-0.000145563 0.000103273 0.00147287
0.00966728 0.00272138 -0.000289166
0.00272138 0.00693794 -5.08473e-05
-0.000289166 -5.08473e-05 0.000865978
0.0229128 -0.00860529 0.000108748
-0.00860529 0.0125996 -0.00088522
0.000108748 -0.00088522 0.0054393
0.0283772 -0.011597 0.000105563
-0.011597 0.0136537 -7.68636e-05
0.000105563 -7.68636e-05 0.00746709
0.000978334 0.000330422 2.68082e-05
0.000330422 0.000636813 -2.27048e-06
2.68082e-05 -2.27048e-06 0.000231386
-3.2139e-05 4.82257e-05 6.2009e-06
4.82257e-05 0.000146843 1.65786e-06
6.2009e-06 1.65786e-06 -0.000222411
0.00121896 0.000213934 -2.32027e-05
0.000213934 0.000624983 -1.89903e-05
-2.32027e-05 -1.89903e-05 0.000450016
0.00441553 -0.00139002 0.00012058
-0.00139002 0.00298774 -1.32426e-05
0.00012058 -1.32426e-05 0.00125639
-0.000513236 -0.000152543 7.34768e-05
-0.000152543 0.000820666 -9.28209e-06
7.34768e-05 -9.28209e-06 0.00013123
-0.000490979 6.29664e-05 -5.96198e-06
6.29664e-05 -0.000225266 -2.14376e-06
-5.96198e-06 -2.14376e-06 -0.000469323
-0.000466675 -0.000145271 2.19736e-05
-0.000145271 0.000354493 -7.05619e-06
2.19736e-05 -7.05619e-06 -0.000265431
-0.000215953 0.000133288 -2.84124e-06
0.000133288 9.42208e-05 -5.29701e-07
-2.84124e-06 -5.29701e-07 -0.000216767
-6.35448e-05 0.000313255 1.83193e-05
0.000313255 0.000587348 4.88544e-06
1.83193e-05 4.88544e-06 -5.73566e-05
-0.00236847 9.05537e-05 0.000197216
9.05537e-05 0.00125242 -4.02362e-05
0.000197216 -4.02362e-05 -0.000860872
0.000456161 0.000650768 2.18202e-05
0.000650768 0.000281559 2.97483e-05
2.18202e-05 2.97483e-05 -0.000169065
0.0014084 0.000946751 -0.000135928
0.000946751 0.00177198 -0.000104692
-0.000135928 -0.000104692 9.66174e-05
0.00076518 4.94747e-05 0.000246376
4.94747e-05 0.00179562 8.87449e-05
0.000246376 8.87449e-05 -0.00316578
-0.00284642 0.000358232 -0.000122603
0.000358232 0.0023325 7.39377e-06
-0.000122603 7.39377e-06 0.000340684
0.00336282 -0.000340617 -6.51218e-05
-0.000340617 0.00156966 -2.43387e-06
-6.51218e-05 -2.43387e-06 0.00122381
0.000170209 0.000604578 9.66981e-05
0.000604578 0.00102229 1.8283e-05
9.66981e-05 1.8283e-05 -0.000275589
0.0011265 0.00031232 -0.000112942
0.00031232 0.00306227 0.00010971
-0.000112942 0.00010971 0.00133197
-0.000761495 -0.000276317 -8.54764e-06
-0.000276317 0.00234972 -3.68102e-05
-8.54764e-06 -3.68102e-05 0.000788419
0.0158887 -0.00517633 0.000305747
-0.00517633 0.0090826 -0.000171949
0.000305747 -0.000171949 0.00180216
0.0256751 0.00629808 -0.000410495
0.00629808 0.0128788 -0.000241386
-0.000410495 -0.000241386 0.00550186
0.00567534 -0.00222752 -0.000414948
-0.00222752 0.00306827 0.000313624
-0.000414948 0.000313624 -0.00161886
0.0133417 0.0139077 0.00303248
0.0139077 0.0103419 -0.00179878
0.00303248 -0.00179878 0.00351601
0.000868808 -0.000672523 4.47817e-05
-0.000672523 0.00166136 -1.35031e-05
4.47817e-05 -1.35031e-05 0.000315898
-0.000325325 -0.000733923 6.69788e-05
-0.000733923 0.000735756 9.58218e-06
6.69788e-05 9.58218e-06 -0.00394004
0.00302693 0.00227831 -0.00146807
0.00227831 0.00872354 0.000316547
-0.00146807 0.000316547 0.00275782
3.82801e-06 -0.0011307 3.75134e-05
-0.0011307 0.00155809 2.63444e-05
3.75134e-05 2.63444e-05 0.000512615
0.0231493 0.00791793 0.000436617
0.00791793 0.00849212 0.000131533
0.000436617 0.000131533 0.00204068
0.00781903 -0.00669733 0.00029666
-0.00669733 0.00286668 -8.90916e-05
0.00029666 -8.90916e-05 -0.00137273
0.000366623 -0.00169857 -7.34767e-06
-0.00169857 0.000619006 3.87674e-05
-7.34767e-06 3.87674e-05 -0.0005543
-0.00458055 -0.00203442 0.000194067
-0.00203442 0.00742999 -0.000103848
0.000194067 -0.000103848 0.00272059
0.0189022 0.00819512 -0.00199306
0.00819512 0.00767849 0.000513968
-0.00199306 0.000513968 0.00264218
0.00702223 -0.00525402 -0.000581794
-0.00525402 -0.000791024 0.000223328
-0.000581794 0.000223328 -0.00345302
-0.000375817 -0.00230063 0.00019643
-0.00230063 -0.000276193 -0.000141608
0.00019643 -0.000141608 0.000686637
0.00139133 -0.000651037 -0.000116841
-0.000651037 0.00104721 3.84582e-05
-0.000116841 3.84582e-05 0.000426824
0.000461881 -0.000784046 -1.87965e-05
-0.000784046 0.000445369 1.25739e-05
-1.87965e-05 1.25739e-05 -8.69913e-05
0.00258595 -0.00106909 2.36777e-05
-0.00106909 0.00119326 -3.26525e-05
2.36777e-05 -3.26525e-05 0.000687492
-0.0010565 -0.000251304 1.35063e-05
-0.000251304 -0.000364915 5.48294e-06
1.35063e-05 5.48294e-06 -0.00067452
0.00112606 -0.000799991 -1.70186e-06
-0.000799991 0.00031154 -3.50319e-06
-1.70186e-06 -3.50319e-06 -0.000144773
0.00331021 -0.0012488 1.06267e-05
-0.0012488 0.00103718 -1.07833e-05
1.06267e-05 -1.07833e-05 0.000533759
0.00434608 -0.00116724 -3.2754e-05
-0.00116724 0.00206183 3.10778e-06
-3.2754e-05 3.10778e-06 0.00133073
0.00181542 -0.000995798 -2.5853e-06
-0.000995798 0.000417211 -1.31483e-06
-2.5853e-06 -1.31483e-06 -0.000288016
0.00255595 -0.00121285 -2.43045e-06
-0.00121285 0.00055831 -1.10128e-05
-2.43045e-06 -1.10128e-05 -1.8943e-05
0.00303458 -0.00109786 7.20905e-06
-0.00109786 0.00115532 7.38929e-06
7.20905e-06 7.38929e-06 0.00044989
0.00250103 -0.0011172 2.46779e-06
-0.0011172 0.000714279 -3.95998e-06
2.46779e-06 -3.95998e-06 6.87663e-05
0.00274411 -0.000950019 -5.13845e-06
-0.000950019 0.00060233 -7.81985e-06
-5.13845e-06 -7.81985e-06 0.000160339
0.00189497 -0.000586337 -1.54121e-06
-0.000586337 -3.14738e-06 -2.12424e-06
-1.54121e-06 -2.12424e-06 -0.0002609
0.00201739 -0.00086311 1.74249e-06
-0.00086311 0.000174373 -2.90115e-06
1.74249e-06 -2.90115e-06 -0.000262208
0.00235499 -0.000888422 3.41664e-06
-0.000888422 0.000415193 -2.53718e-06
3.41664e-06 -2.53718e-06 -2.66246e-05
0.00259341 -0.000975258 -5.03655e-06
-0.000975258 0.00080187 -1.61377e-06
-5.03655e-06 -1.61377e-06 0.000285973
0.00274197 -0.00109776 -3.5364e-06
-0.00109776 0.000832132 -1.23678e-07
-3.5364e-06 -1.23678e-07 0.000255601
0.00263265 -0.00110792 1.11226e-05
-0.00110792 0.000776788 -5.05379e-06
1.11226e-05 -5.05379e-06 0.000165201
0.00181163 -0.000766546 6.94504e-06
-0.000766546 0.000567046 -3.63004e-06
6.94504e-06 -3.63004e-06 8.09455e-05
0.0016961 -0.000848518 2.2365e-06
-0.000848518 0.000461883 -8.24989e-07
2.2365e-06 -8.24989e-07 -5.37062e-05
0.00134184 -0.000794309 3.86636e-06
-0.000794309 0.000243008 3.00118e-06
3.86636e-06 3.00118e-06 -0.000261282
0.00158212 -0.000349071 8.96453e-07
-0.000349071 0.000564012 3.14598e-06
8.96453e-07 3.14598e-06 0.000272397
0.00140544 -0.000545245 1.62642e-06
-0.000545245 0.000441318 9.68435e-07
1.62642e-06 9.68435e-07 4.22046e-05
0.00197053 -0.000714146 -4.71635e-06
-0.000714146 0.000744769 4.08365e-06
-4.71635e-06 4.08365e-06 0.000275168
5.48552e-05 -0.000142932 -3.28611e-06
-0.000142932 -0.000269426 1.07762e-07
-3.28611e-06 1.07762e-07 -0.000510694
0.000639418 -0.000256418 -2.50014e-06
-0.000256418 8.25648e-05 -1.97196e-06
-2.50014e-06 -1.97196e-06 -0.000194165
0.000899235 -0.000303919 -4.32122e-06
-0.000303919 0.000211357 9.79329e-07
-4.32122e-06 9.79329e-07 -6.82196e-05
0.00200629 -1.1908e-05 -5.824e-05
-1.1908e-05 0.000980851 1.10898e-05
-5.824e-05 1.10898e-05 0.000918675
0.000719839 -0.000162286 6.97775e-07
-0.000162286 0.00017949 2.95352e-08
6.97775e-07 2.95352e-08 -2.98076e-05
0.00141299 -0.000320948 1.32102e-06
-0.000320948 0.000683937 6.02971e-06
1.32102e-06 6.02971e-06 0.000380968
0.000634813 1.56045e-05 -6.48062e-05
1.56045e-05 0.000108516 7.31907e-06
-6.48062e-05 7.31907e-06 9.65358e-05
0.00127134 -1.6645e-05 -2.10095e-05
-1.6645e-05 0.000507258 -7.25547e-07
-2.10095e-05 -7.25547e-07 0.000453763
0.00103272 -0.000121315 3.32485e-06
-0.000121315 0.000365962 -5.50201e-06
3.32485e-06 -5.50201e-06 0.00020657
0.000555017 -1.66528e-05 3.99177e-06
-1.66528e-05 4.78746e-05 -1.15793e-05
3.99177e-06 -1.15793e-05 -7.39571e-09
0.00325654 0.000127802 1.05569e-05
0.000127802 0.00179501 8.78395e-07
1.05569e-05 8.78395e-07 0.00179107
0.00295692 9.983e-05 4.44127e-05
9.983e-05 0.00159167 -5.35779e-06
4.44127e-05 -5.35779e-06 0.0015946
0.000521845 0.00017114 9.46309e-06
0.00017114 0.000133681 2.2016e-06
9.46309e-06 2.2016e-06 -0.000134251
0.00182 0.000190975 5.46559e-06
0.000190975 0.00102177 -7.00197e-06
5.46559e-06 -7.00197e-06 0.000726593
-0.000537295 3.61919e-05 2.60725e-06
3.61919e-05 -0.000466817 -2.7233e-07
2.60725e-06 -2.7233e-07 -0.000723242
0.000668614 7.37266e-05 2.30827e-06
7.37266e-05 0.000148213 -9.34947e-06
2.30827e-06 -9.34947e-06 1.82979e-05
0.000696204 0.00013248 1.13372e-06
0.00013248 0.000242254 -7.36201e-08
1.13372e-06 -7.36201e-08 3.47412e-05
0.000421731 1.18198e-05 -7.6329e-07
1.18198e-05 -3.43425e-05 -1.07433e-05
-7.6329e-07 -1.07433e-05 -7.17051e-05
0.00055766 6.15155e-05 -7.83321e-08
6.15155e-05 7.88683e-05 -5.14535e-07
-7.83321e-08 -5.14535e-07 -3.09016e-05
0.000701623 6.1828e-05 -6.16261e-06
6.1828e-05 0.000240094 1.81036e-06
-6.16261e-06 1.81036e-06 6.53689e-05
0.00270616 -6.96908e-05 -3.76884e-05
-6.96908e-05 0.00142702 -5.48498e-06
-3.76884e-05 -5.48498e-06 0.00143583
0.000413769 5.26499e-06 -2.36352e-07
5.26499e-06 -4.62575e-05 -2.19794e-08
-2.36352e-07 -2.19794e-08 -7.61226e-05
0.000488495 6.71246e-05 -2.74065e-06
6.71246e-05 3.38085e-05 3.53893e-06
-2.74065e-06 3.53893e-06 -6.12593e-05
0.00242726 -5.06202e-05 -6.84833e-06
-5.06202e-05 0.00124304 4.45615e-07
-6.84833e-06 4.45615e-07 0.00125516
0.000393979 -1.42973e-05 -6.99072e-06
-1.42973e-05 -6.25723e-05 6.05548e-06
-6.99072e-06 6.05548e-06 -8.55644e-05
0.00224104 -3.04433e-05 2.30795e-05
-3.04433e-05 0.00112101 5.14845e-06
2.30795e-05 5.14845e-06 0.00113643
0.00686632 0.00106363 0.00047252
0.00106363 0.00464384 0.000114738
0.00047252 0.000114738 0.00164799
-0.00236992 0.000415543 -8.95532e-06
0.000415543 0.00102192 -1.19595e-05
-8.95532e-06 -1.19595e-05 -0.000646739
0.000460715 0.000495376 -8.73909e-06
0.000495376 0.00148737 -1.70623e-05
-8.73909e-06 -1.70623e-05 0.000196614
-0.000489472 0.000176032 -9.32414e-06
0.000176032 -0.000665926 8.00073e-06
-9.32414e-06 8.00073e-06 -0.000883194
-3.20241e-05 4.00187e-05 -7.91215e-06
4.00187e-05 -0.000206321 1.22651e-05
-7.91215e-06 1.22651e-05 -0.000423021
-0.000469809 5.5721e-05 -9.0491e-06
5.5721e-05 -0.000493668 -1.00147e-05
-9.0491e-06 -1.00147e-05 -0.000677068
0.00172133 0.000100024 5.5905e-06
0.000100024 0.00089109 3.52222e-07
5.5905e-06 3.52222e-07 0.000685935
0.0008271 0.000188461 -3.56714e-06
0.000188461 0.000195492 -7.08416e-06
-3.56714e-06 -7.08416e-06 4.56636e-07
0.00250929 0.000386794 -1.46756e-05
0.000386794 0.00136828 -5.55418e-06
-1.46756e-05 -5.55418e-06 0.00114365
0.00127043 0.000312649 1.27609e-06
0.000312649 0.000498427 -1.30708e-05
1.27609e-06 -1.30708e-05 0.000155657
-0.00186396 0.000162831 -4.07456e-06
0.000162831 -0.000983668 3.18931e-08
-4.07456e-06 3.18931e-08 -0.00138928
0.000299356 9.04802e-05 -6.83199e-06
9.04802e-05 -2.63323e-05 -7.23426e-06
-6.83199e-06 -7.23426e-06 -0.000178893
-0.00034057 5.68008e-05 -1.43533e-05
5.68008e-05 -0.000509014 -8.95541e-06
-1.43533e-05 -8.95541e-06 -0.000579759
-0.000789837 1.30781e-05 -2.9926e-06
1.30781e-05 -0.000481571 2.15756e-06
-2.9926e-06 2.15756e-06 -0.000775754
0.000502981 0.000340916 1.63654e-05
0.000340916 0.000464068 4.69296e-06
1.63654e-05 4.69296e-06 -7.36411e-05
0.00640969 -0.0052115 3.15374e-05
-0.0052115 0.00828571 0.000234869
3.15374e-05 0.000234869 0.000628043
0.00786053 0.00216449 0.000215532
0.00216449 0.00385523 0.000194824
0.000215532 0.000194824 -0.00184392
0.00392899 0.000661549 -1.122e-05
0.000661549 0.00117269 -8.38447e-05
-1.122e-05 -8.38447e-05 -0.00106811
0.0320879 -0.00723817 -0.00105856
-0.00723817 0.0098952 -0.000459561
-0.00105856 -0.000459561 0.00504018
0.0053471 -0.00165464 0.000317812
-0.00165464 0.00458467 0.000569241
0.000317812 0.000569241 0.00014877
0.00237968 -0.00163464 -0.000271184
-0.00163464 0.00561579 0.000135513
-0.000271184 0.000135513 -0.00240803
-0.000648786 -0.00131496 9.00094e-05
-0.00131496 0.00151171 5.12323e-05
9.00094e-05 5.12323e-05 0.000295321
-0.00148966 -4.06247e-05 0.000172958
-4.06247e-05 0.00143493 5.28111e-05
0.000172958 5.28111e-05 0.0004007
0.022296 -0.0126314 0.000540414
-0.0126314 0.0121848 0.000516446
0.000540414 0.000516446 0.00557918
0.00303774 0.00206624 -0.000148508
0.00206624 0.00516146 -0.000106999
-0.000148508 -0.000106999 -0.0020104
0.0114198 -0.00456447 -0.000153691
-0.00456447 0.00713749 0.000149504
-0.000153691 0.000149504 -0.000353907
-0.000177325 0.000883339 -1.30824e-05
0.000883339 0.00137402 3.65537e-05
-1.30824e-05 3.65537e-05 0.000648694
0.00867493 0.00520869 -0.000155837
0.00520869 0.0031755 -3.43632e-06
-0.000155837 -3.43632e-06 -0.000944214
0.0215632 -0.00793292 -0.00100423
-0.00793292 0.00789254 -0.000477239
-0.00100423 -0.000477239 0.00117768
0.00122134 0.000765926 1.24976e-05
0.000765926 0.000348593 -4.13301e-07
1.24976e-05 -4.13301e-07 0.000140254
0.000652796 0.000276013 8.21588e-06
0.000276013 0.000464054 6.55641e-06
8.21588e-06 6.55641e-06 6.2898e-05
-0.000659572 1.23891e-05 -2.25398e-05
1.23891e-05 -0.000221415 -1.68428e-06
-2.25398e-05 -1.68428e-06 -0.000604776
-0.00300795 -0.000271627 -0.000127029
-0.000271627 0.000691839 -5.30868e-05
-0.000127029 -5.30868e-05 -0.00131785
0.00037155 0.000287737 -3.5459e-06
0.000287737 0.000487354 -1.71564e-05
-3.5459e-06 -1.71564e-05 -8.70159e-05
0.000601689 0.000241638 -5.73759e-06
0.000241638 0.000547315 6.86283e-06
-5.73759e-06 6.86283e-06 0.000200841
0.00116957 0.000771497 1.43317e-05
0.000771497 0.000631752 3.40118e-06
1.43317e-05 3.40118e-06 0.00016701
-0.000285954 0.000732389 1.95805e-05
0.000732389 0.000976914 -4.02904e-05
1.95805e-05 -4.02904e-05 -0.000479045
0.00140628 0.00185141 8.92723e-05
0.00185141 0.000423414 7.66757e-06
8.92723e-05 7.66757e-06 -0.00069666
-0.00679505 0.00126139 0.000479265
0.00126139 0.00609286 -1.51148e-05
0.000479265 -1.51148e-05 -0.00231826
0.0022244 -0.000416928 -1.78156e-05
-0.000416928 0.00227995 8.51938e-05
-1.78156e-05 8.51938e-05 -0.00105112
-0.00313916 -1.47286e-05 -2.53791e-05
-1.47286e-05 0.00168447 8.30265e-05
-2.53791e-05 8.30265e-05 -7.37408e-05
-0.000966053 -0.000374493 -5.24932e-05
-0.000374493 0.000770247 1.24501e-05
-5.24932e-05 1.24501e-05 -0.000631676
-0.00165036 -0.00076898 -6.28751e-05
-0.00076898 7.19167e-05 5.03245e-05
-6.28751e-05 5.03245e-05 0.000122882
-0.000903336 -0.000750177 -0.00024489
-0.000750177 0.00126017 0.000163549
-0.00024489 0.000163549 -0.00383522
-0.00134902 -0.00504096 0.000252666
-0.00504096 0.00222502 -0.000140748
0.000252666 -0.000140748 -0.00443135
0.0167811 0.00628667 0.000895456
0.00628667 0.00384631 -0.000470523
0.000895456 -0.000470523 -0.00224209
0.0155375 0.0057746 -0.000460995
0.0057746 0.010209 0.000438523
-0.000460995 0.000438523 0.00346122
0.00100821 -0.00119853 -3.44145e-05
-0.00119853 0.00156677 6.45091e-06
-3.44145e-05 6.45091e-06 0.000456266
0.00330321 0.00112646 0.000217428
0.00112646 0.00946984 -4.56932e-05
0.000217428 -4.56932e-05 0.00378797
0.00406352 0.00566428 1.80404e-05
0.00566428 0.0018476 9.24155e-05
1.80404e-05 9.24155e-05 -0.00289858
0.00251064 -0.0036286 8.91178e-05
-0.0036286 0.000875892 -5.6751e-05
8.91178e-05 -5.6751e-05 0.00112068
0.0143308 -0.00574717 1.96871e-07
-0.00574717 0.00131906 9.99078e-06
1.96871e-07 9.99078e-06 -0.00055404
0.00331386 -0.00219017 9.05746e-06
-0.00219017 0.00143064 1.45309e-05
9.05746e-06 1.45309e-05 0.000841626
-0.00671085 0.0019194 -0.000861877
0.0019194 -0.00138267 0.000150561
-0.000861877 0.000150561 -0.00548354
0.0159049 -0.00370292 -0.000238158
-0.00370292 0.000892359 6.7041e-05
-0.000238158 6.7041e-05 -2.947e-05
0.00435126 -0.00345329 0.000135807
-0.00345329 4.30499e-05 -7.89775e-05
0.000135807 -7.89775e-05 0.00112937
-0.000299158 -0.00056867 1.06314e-05
-0.00056867 0.000161559 2.83066e-06
1.06314e-05 2.83066e-06 -0.000393066
0.00202259 -0.00115339 1.34716e-05
-0.00115339 0.000724923 -8.39689e-06
1.34716e-05 -8.39689e-06 0.000324389
0.00309125 -0.00111265 2.36758e-05
-0.00111265 0.000943269 -2.03973e-05
2.36758e-05 -2.03973e-05 0.000552247
-0.000324891 -0.000619908 -7.65398e-06
-0.000619908 -0.000446571 1.51294e-05
-7.65398e-06 1.51294e-05 -0.0008766
0.00201278 -0.00110482 -4.61565e-06
-0.00110482 0.000353206 1.49989e-06
-4.61565e-06 1.49989e-06 -0.00014999
0.00352468 -0.00130575 6.73233e-06
-0.00130575 0.000938817 -6.1914e-06
6.73233e-06 -6.1914e-06 0.000446902
0.00138705 -0.000904812 -8.3739e-06
-0.000904812 0.000171854 1.0992e-05
-8.3739e-06 1.0992e-05 -0.000507009
0.00229295 -0.00117185 -8.51839e-07
-0.00117185 0.000422322 2.65944e-06
-8.51839e-07 2.65944e-06 -0.000152164
0.0022542 -0.000918613 -4.21607e-06
-0.000918613 0.000155066 -4.72578e-06
-4.21607e-06 -4.72578e-06 -0.000190108
0.00182989 -0.0010284 9.19639e-06
-0.0010284 0.000331645 3.87408e-06
9.19639e-06 3.87408e-06 -0.00028477
0.00224263 -0.000877124 -1.7671e-06
-0.000877124 0.00033202 1.86957e-06
-1.7671e-06 1.86957e-06 -9.19294e-05
0.00226851 -0.000636945 -1.62047e-06
-0.000636945 0.000144814 -2.17034e-06
-1.62047e-06 -2.17034e-06 -8.30195e-05
0.00206412 -0.000548539 -2.5754e-06
-0.000548539 0.000104299 5.82502e-07
-2.5754e-06 5.82502e-07 -8.73463e-05
0.00186952 -0.000602062 -2.96535e-06
-0.000602062 1.01768e-05 -1.93186e-06
-2.96535e-06 -1.93186e-06 -0.000261154
0.00194673 -0.000585588 1.63328e-06
-0.000585588 2.53856e-05 2.89817e-06
1.63328e-06 2.89817e-06 -0.000228794
0.00183763 -0.000748716 -3.88211e-06
-0.000748716 0.000137931 -4.06114e-06
-3.88211e-06 -4.06114e-06 -0.000252413
0.00220726 -0.000874731 2.75264e-06
-0.000874731 0.000312763 3.96356e-08
2.75264e-06 3.96356e-08 -0.000121341
0.0023322 -0.000889572 3.40829e-06
-0.000889572 0.000398738 2.36408e-06
3.40829e-06 2.36408e-06 -4.22313e-05
0.00199317 -0.000837169 3.91861e-07
-0.000837169 0.000475464 -2.99608e-06
3.91861e-07 -2.99608e-06 -1.03357e-05
0.00238969 -0.000958695 2.00321e-06
-0.000958695 0.000671149 -6.30653e-07
2.00321e-06 -6.30653e-07 0.000155587
0.00264842 -0.00108266 3.99738e-06
-0.00108266 0.000786704 -2.08132e-06
3.99738e-06 -2.08132e-06 0.000208323
0.001529 -0.000526456 -7.48417e-06
-0.000526456 0.000449625 4.12293e-06
-7.48417e-06 4.12293e-06 7.42337e-05
0.00178033 -0.000749484 7.91079e-07
-0.000749484 0.000551629 5.93505e-07
7.91079e-07 5.93505e-07 7.41057e-05
0.00144146 -0.000806577 -1.24603e-06
-0.000806577 0.000324631 3.16919e-06
-1.24603e-06 3.16919e-06 -0.000178164
0.000708094 -0.000241729 -6.52017e-06
-0.000241729 8.42565e-05 -8.0414e-07
-6.52017e-06 -8.0414e-07 -0.000149474
0.00103756 -0.000324635 2.76953e-06
-0.000324635 0.000224924 -6.43153e-07
2.76953e-06 -6.43153e-07 -6.85638e-05
0.000893544 -0.000480025 -6.21085e-06
-0.000480025 0.000156259 3.15559e-06
-6.21085e-06 3.15559e-06 -0.000225079
0.00041685 -9.91771e-05 -1.72497e-05
-9.91771e-05 -7.16372e-05 1.51716e-05
-1.72497e-05 1.51716e-05 -0.000163689
0.00071787 -0.000197569 1.27589e-06
-0.000197569 0.000169765 1.9085e-06
1.27589e-06 1.9085e-06 -8.75706e-05
0.000568553 -0.000296663 -3.08149e-06
-0.000296663 7.25609e-05 1.1584e-06
-3.08149e-06 1.1584e-06 -0.000227235
0.00433077 0.000277371 1.57586e-05
0.000277371 0.00254216 8.07128e-06
1.57586e-05 8.07128e-06 0.00249053
0.000404308 -6.48492e-05 1.52347e-07
-6.48492e-05 -5.6531e-05 -3.10547e-07
1.52347e-07 -3.10547e-07 -0.000135568
0.00147097 -0.000174723 9.00761e-07
-0.000174723 0.000648837 -3.97246e-06
9.00761e-07 -3.97246e-06 0.000439072
0.00370244 0.000144525 9.84974e-06
0.000144525 0.00208994 6.45437e-07
9.84974e-06 6.45437e-07 0.00208161
0.000601781 -3.64468e-05 7.66257e-06
-3.64468e-05 7.52015e-05 -1.33752e-05
7.66257e-06 -1.33752e-05 1.3815e-05
0.00333612 0.00011514 6.85503e-05
0.00011514 0.00184363 -6.01311e-06
6.85503e-05 -6.01311e-06 0.00184303
0.00238979 0.000415714 2.60336e-06
0.000415714 0.00119658 2.27411e-06
2.60336e-06 2.27411e-06 0.000922354
0.000591458 0.000203523 -2.16687e-07
0.000203523 0.00018076 -2.11373e-06
-2.16687e-07 -2.11373e-06 -9.84298e-05
0.00132013 0.000343872 -3.30771e-06
0.000343872 0.000672239 -3.27737e-06
-3.30771e-06 -3.27737e-06 0.000365267
0.000992498 0.000117388 1.23389e-06
0.000117388 0.000358553 -9.06416e-06
1.23389e-06 -9.06416e-06 0.000196347
0.00079157 0.000133132 1.89974e-07
0.000133132 0.000360637 1.10368e-06
1.89974e-07 1.10368e-06 7.46978e-05
6.82907e-06 0.000111896 -3.57398e-06
0.000111896 -8.00266e-05 6.47415e-06
-3.57398e-06 6.47415e-06 -0.000375375
0.000510926 1.68465e-06 -1.39704e-06
1.68465e-06 3.34911e-05 -1.32906e-05
-1.39704e-06 -1.32906e-05 -1.47371e-05
0.000564242 5.79668e-05 -4.39421e-07
5.79668e-05 8.66363e-05 2.87078e-08
-4.39421e-07 2.87078e-08 -4.34889e-05
3.736e-05 8.69601e-05 -5.14739e-06
8.69601e-05 -0.000204198 7.8823e-06
-5.14739e-06 7.8823e-06 -0.00039431
0.00280902 -8.59269e-05 -4.6856e-05
-8.59269e-05 0.00149901 -5.83643e-06
-4.6856e-05 -5.83643e-06 0.0015052
0.000393906 -2.61955e-05 2.55092e-06
-2.61955e-05 -4.86127e-05 -3.34341e-07
2.55092e-06 -3.34341e-07 -8.66847e-05
0.000466973 5.29192e-05 -4.5591e-06
5.29192e-05 2.92734e-05 5.74902e-06
-4.5591e-06 5.74902e-06 -8.17337e-05
0.00262783 -6.98177e-05 -7.65503e-06
-6.98177e-05 0.00137672 5.89067e-07
-7.65503e-06 5.89067e-07 0.0013853
0.000418862 7.99669e-06 -2.46069e-06
7.99669e-06 -4.36457e-05 7.55619e-06
-2.46069e-06 7.55619e-06 -7.26723e-05
0.0023835 -5.00792e-05 2.43732e-05
-5.00792e-05 0.0012149 5.29927e-06
2.43732e-05 5.29927e-06 0.00122727
-0.00840509 0.00103792 -0.00023061
0.00103792 0.00493 7.62095e-05
-0.00023061 7.62095e-05 -0.0027937
0.00647326 0.000864713 3.14008e-05
0.000864713 0.00414678 -2.87598e-08
3.14008e-05 -2.87598e-08 0.00128332
-0.00172102 0.000388305 0.000110383
0.000388305 0.00103662 5.81027e-05
0.000110383 5.81027e-05 -0.000887263
0.000238149 0.000207216 -2.88257e-06
0.000207216 -0.000171256 7.09674e-06
-2.88257e-06 7.09674e-06 -0.00043564
0.00350637 0.000843758 1.9628e-05
0.000843758 0.00185515 1.94631e-05
1.9628e-05 1.94631e-05 0.00139422
-9.46627e-05 0.000190333 -9.74007e-06
0.000190333 -0.000171383 7.65474e-06
-9.74007e-06 7.65474e-06 -0.000579885
0.000352638 8.699e-05 -8.27354e-06
8.699e-05 4.96695e-05 -1.81369e-05
-8.27354e-06 -1.81369e-05 -0.000165444
0.00312443 0.000390499 2.4009e-07
0.000390499 0.00160888 -4.1057e-06
2.4009e-07 -4.1057e-06 0.00139065
-0.00159495 5.03748e-08 -1.42533e-05
5.03748e-08 -0.0011685 1.56288e-05
-1.42533e-05 1.56288e-05 -0.00131942
-0.000188527 0.000214031 -3.56351e-07
0.000214031 -0.000104352 7.65515e-06
-3.56351e-07 7.65515e-06 -0.00043228
4.68179e-05 0.000136849 -4.93266e-06
0.000136849 -0.000168919 -5.54807e-06
-4.93266e-06 -5.54807e-06 -0.000508892
0.00113081 0.000707701 2.24478e-06
0.000707701 0.000545923 -1.97529e-05
2.24478e-06 -1.97529e-05 4.72587e-06
-0.00097541 0.000555864 -2.57368e-05
0.000555864 -0.000907118 6.61907e-05
-2.57368e-05 6.61907e-05 -0.00107699
0.00118907 5.69974e-05 -1.65967e-05
5.69974e-05 0.000660724 1.71907e-05
-1.65967e-05 1.71907e-05 0.000418549
0.00187406 0.000425794 9.86023e-06
0.000425794 0.00123454 -8.48667e-06
9.86023e-06 -8.48667e-06 0.00077916
0.00382632 -0.00349036 -0.00230976
-0.00349036 0.00293827 -0.000271074
-0.00230976 -0.000271074 -0.00247088
0.000234678 -0.00405377 0.000763126
-0.00405377 0.00867532 0.000187534
0.000763126 0.000187534 0.00126077
0.00859575 0.00271705 -0.000829711
0.00271705 0.00350991 -0.000275914
-0.000829711 -0.000275914 -0.0027246
0.0135042 -0.013742 0.00299788
-0.013742 0.0105904 0.00172177
0.00299788 0.00172177 0.00341921
0.0303789 -0.00454102 -1.02543e-05
-0.00454102 0.0112869 0.000468426
-1.02543e-05 0.000468426 0.00561412
-0.00314277 0.00149144 -6.68754e-05
0.00149144 0.00321171 -0.000208236
-6.68754e-05 -0.000208236 -0.00310352
-0.00248358 0.000262706 -0.000253894
0.000262706 0.00167799 -4.97268e-05
-0.000253894 -4.97268e-05 -0.000291741
0.000180225 0.000925999 7.3425e-05
0.000925999 0.00174966 5.84252e-05
7.3425e-05 5.84252e-05 0.00114435
0.0230768 -0.00639417 -0.000839244
-0.00639417 0.0100294 3.71801e-05
-0.000839244 3.71801e-05 0.00352055
-0.00179941 0.00440294 -0.000197071
0.00440294 0.000693799 -4.83908e-05
-0.000197071 -4.83908e-05 -0.00417712
0.00352034 0.00299783 4.87096e-05
0.00299783 0.0012135 -8.31869e-05
4.87096e-05 -8.31869e-05 0.001994
0.00599122 0.00726411 -0.000658637
0.00726411 -0.00169584 -0.000110055
-0.000658637 -0.000110055 -0.00390139
0.00372582 0.00148895 2.99571e-05
0.00148895 0.00149003 -6.36833e-06
2.99571e-05 -6.36833e-06 0.00104093
0.0010248 0.000703715 -5.82924e-06
0.000703715 0.000236428 -3.58365e-06
-5.82924e-06 -3.58365e-06 5.97332e-05
-0.000731702 0.000170095 -2.13849e-05
0.000170095 -0.000382545 6.10292e-06
-2.13849e-05 6.10292e-06 -0.000763734
-0.0011428 0.000622122 -0.000117924
0.000622122 0.000618299 -7.45548e-05
-0.000117924 -7.45548e-05 -0.000646251
0.00129735 0.000842001 -5.50993e-05
0.000842001 0.000620504 -3.74373e-05
-5.50993e-05 -3.74373e-05 0.00015704
0.00249547 0.00201577 5.96166e-06
0.00201577 0.000849223 -1.12822e-05
5.96166e-06 -1.12822e-05 -0.000254184
-0.00140695 0.00198157 0.000108389
0.00198157 -0.00205348 5.80521e-05
0.000108389 5.80521e-05 -0.00253425
-0.00695912 -0.000675759 -0.000827484
-0.000675759 -0.003389 6.46236e-05
-0.000827484 6.46236e-05 -0.00487022
-0.0100748 0.000516222 0.000570982
0.000516222 0.00655174 1.76624e-05
0.000570982 1.76624e-05 -0.000755568
0.00275468 2.10302e-05 -0.00017519
2.10302e-05 0.00219729 3.53178e-05
-0.00017519 3.53178e-05 8.72778e-05
0.000782862 -0.00122235 -5.52672e-05
-0.00122235 0.000988718 -5.13262e-05
-5.52672e-05 -5.13262e-05 -7.44523e-05
-0.00123141 -0.00248872 0.000152291
-0.00248872 -0.000422431 2.10375e-05
0.000152291 2.10375e-05 -0.000199786
0.00127064 0.00127884 0.000200171
0.00127884 0.00907384 7.52619e-05
0.000200171 7.52619e-05 0.00312027
0.0047859 -0.00526082 0.000702782
-0.00526082 -0.00177271 -7.59824e-05
0.000702782 -7.59824e-05 -0.00307508
0.0255535 0.00500951 0.00131994
0.00500951 0.0116221 -7.95708e-05
0.00131994 -7.95708e-05 0.00675673
0.00181665 -0.00236827 -2.13103e-05
-0.00236827 0.000458092 3.85304e-06
-2.13103e-05 3.85304e-06 -0.00038478
0.00410571 0.00234529 0.000386014
0.00234529 0.0019796 -0.000113622
0.000386014 -0.000113622 -0.00161902
0.00755787 -0.00329743 -0.000209341
-0.00329743 -0.00386987 0.000184603
-0.000209341 0.000184603 -0.00543423
0.00264362 -0.00323962 -4.76148e-06
-0.00323962 -0.0011727 2.69444e-05
-4.76148e-06 2.69444e-05 0.000479472
0.00275031 -0.00192127 7.5592e-05
-0.00192127 0.000206809 -1.6987e-05
7.5592e-05 -1.6987e-05 -2.42433e-05
0.0193951 -0.00114219 -0.000115553
-0.00114219 0.00319653 7.72363e-05
-0.000115553 7.72363e-05 0.00245137
0.00276548 -0.00239904 0.000134809
-0.00239904 -0.00381453 -9.32897e-05
0.000134809 -9.32897e-05 -0.00149487
-0.000754166 -0.00091511 -3.41748e-05
-0.00091511 -0.000865638 4.74586e-05
-3.41748e-05 4.74586e-05 -0.00106146
0.000343712 -0.000805251 -3.69482e-05
-0.000805251 -0.000559967 4.49207e-06
-3.69482e-05 4.49207e-06 -0.000765997
0.00626575 -0.00139396 6.42023e-05
-0.00139396 0.0023021 -2.40621e-05
6.42023e-05 -2.40621e-05 0.00201431
0.000170812 -0.000864143 -1.34837e-05
-0.000864143 -0.000575846 9.37774e-06
-1.34837e-05 9.37774e-06 -0.00105417
0.00228919 -0.00114066 -1.8775e-06
-0.00114066 0.000307146 -1.9107e-06
-1.8775e-06 -1.9107e-06 -0.000142559
0.0029966 -0.000997621 2.81669e-06
-0.000997621 0.000371851 -3.62503e-06
2.81669e-06 -3.62503e-06 0.000155403
0.00227755 -0.0011645 1.04653e-05
-0.0011645 0.00041288 1.05873e-05
1.04653e-05 1.05873e-05 -0.000165276
0.00243886 -0.000929612 -2.42253e-06
-0.000929612 0.000258794 8.54909e-07
-2.42253e-06 8.54909e-07 -8.33374e-05
0.0023111 -0.000662401 7.63324e-08
-0.000662401 9.32832e-06 -9.51654e-07
7.63324e-08 -9.51654e-07 -9.15119e-05
0.00189055 -0.000825462 1.0046e-05
-0.000825462 0.000137741 6.49095e-06
1.0046e-05 6.49095e-06 -0.000273236
0.00217599 -0.000622615 -2.03559e-07
-0.000622615 8.59076e-05 2.55193e-06
-2.03559e-07 2.55193e-06 -0.000131201
0.00228399 -0.000618757 -1.63106e-06
-0.000618757 0.000102567 2.32221e-06
-1.63106e-06 2.32221e-06 -2.90846e-05
0.00221717 -0.000590395 -3.02978e-06
-0.000590395 0.00016293 1.63905e-06
-3.02978e-06 1.63905e-06 -1.28177e-08
0.00215578 -0.000556968 -3.15088e-06
-0.000556968 0.000150251 2.78621e-06
-3.15088e-06 2.78621e-06 -3.58831e-05
0.00220746 -0.000555171 -1.37496e-06
-0.000555171 0.000255204 -2.3367e-06
-1.37496e-06 -2.3367e-06 4.93783e-05
0.00219395 -0.000639599 -6.37125e-06
-0.000639599 0.000246219 -2.93237e-06
-6.37125e-06 -2.93237e-06 -3.84807e-05
0.00209818 -0.000618986 1.2164e-06
-0.000618986 0.000160015 1.27517e-06
1.2164e-06 1.27517e-06 -0.000111665
0.00201844 -0.000589036 2.53408e-06
-0.000589036 5.95364e-05 7.6741e-06
2.53408e-06 7.6741e-06 -0.000192005
0.0020995 -0.000753755 -6.18377e-06
-0.000753755 0.000360419 -4.17698e-06
-6.18377e-06 -4.17698e-06 -4.07693e-05
0.0018285 -0.000758247 -7.40077e-07
-0.000758247 0.000116111 1.91876e-07
-7.40077e-07 1.91876e-07 -0.000279126
0.00237499 -0.000886194 6.654e-06
-0.000886194 0.000434546 2.84287e-06
6.654e-06 2.84287e-06 2.66003e-06
0.00158919 -0.000650696 -9.74079e-06
-0.000650696 0.000311691 1.92959e-06
-9.74079e-06 1.92959e-06 -0.000113995
0.00209878 -0.000851191 -3.06346e-07
-0.000851191 0.000536724 8.66209e-07
-3.06346e-07 8.66209e-07 4.77217e-05
0.00224299 -0.000950022 5.03917e-06
-0.000950022 0.000573271 1.64974e-06
5.03917e-06 1.64974e-06 5.63186e-05
0.000937306 -0.000279606 -8.85065e-06
-0.000279606 0.000185099 8.25299e-06
-8.85065e-06 8.25299e-06 -6.26629e-05
0.00129833 -0.00051051 1.64253e-06
-0.00051051 0.000291633 7.22375e-07
1.64253e-06 7.22375e-07 -8.13893e-05
0.00160669 -0.000720604 -3.36784e-06
-0.000720604 0.000440019 3.6644e-06
-3.36784e-06 3.6644e-06 -2.72139e-05
0.000457938 -0.000171826 -2.88903e-05
-0.000171826 -7.79024e-05 1.60183e-05
-2.88903e-05 1.60183e-05 -0.000187524
0.000623696 -0.000230814 -2.56678e-06
-0.000230814 4.87309e-05 -6.45399e-07
-2.56678e-06 -6.45399e-07 -0.000197499
0.000118058 -0.00031574 2.32479e-06
-0.00031574 -0.000355221 -2.00486e-06
2.32479e-06 -2.00486e-06 -0.00065545
0.00489093 0.000226983 -0.00010447
0.000226983 0.00289493 1.10756e-05
-0.00010447 1.10756e-05 0.00286031
0.000552892 -0.000123509 2.54768e-06
-0.000123509 7.60205e-06 1.55241e-07
2.54768e-06 1.55241e-07 -8.89022e-05
0.00120485 -0.000267331 6.43427e-06
-0.000267331 0.000469105 -1.54885e-06
6.43427e-06 -1.54885e-06 0.000211067
0.00279866 0.00014278 6.5984e-05
0.00014278 0.00153132 1.6067e-06
6.5984e-05 1.6067e-06 0.00149883
0.000761008 -7.12608e-05 1.42065e-05
-7.12608e-05 0.000163482 -1.53606e-05
1.42065e-05 -1.53606e-05 8.04736e-05
0.00389568 0.000132432 9.57734e-05
0.000132432 0.00221246 -7.68535e-06
9.57734e-05 -7.68535e-06 0.0022069
0.00204266 0.000434242 4.696e-07
0.000434242 0.000861351 -1.63748e-08
4.696e-07 -1.63748e-08 0.000580503
0.00055296 0.000206782 -4.49013e-06
0.000206782 -1.35439e-06 2.97233e-07
-4.49013e-06 2.97233e-07 -0.000221326
0.000280932 0.000205188 -3.50469e-08
0.000205188 -5.70147e-05 -3.51604e-06
-3.50469e-08 -3.51604e-06 -0.000328172
0.000566521 0.000197568 -9.26437e-07
0.000197568 0.000149611 3.4016e-06
-9.26437e-07 3.4016e-06 -0.00011351
0.000903889 0.000123247 -1.95925e-07
0.000123247 0.000401744 1.35211e-07
-1.95925e-07 1.35211e-07 0.000109233
0.00114231 0.000156046 -1.66883e-06
0.000156046 0.000457113 -1.00641e-05
-1.66883e-06 -1.00641e-05 0.000261019
0.00062795 5.94453e-05 -8.75187e-06
5.94453e-05 0.000103524 -1.58822e-05
-8.75187e-06 -1.58822e-05 4.3714e-05
0.000649274 0.000108552 -6.34072e-08
0.000108552 0.000144554 1.14094e-07
-6.34072e-08 1.14094e-07 -1.39724e-05
-0.000820164 1.07536e-05 -7.0733e-06
1.07536e-05 -0.000703151 7.01512e-06
-7.0733e-06 7.01512e-06 -0.000950858
0.00318793 -0.000100247 -7.03035e-05
-0.000100247 0.00175159 -6.89519e-06
-7.03035e-05 -6.89519e-06 0.00175498
0.000363441 2.75423e-05 1.45223e-06
2.75423e-05 -5.98074e-05 -3.06341e-07
1.45223e-06 -3.06341e-07 -0.000107608
0.000657627 7.62057e-05 -3.8535e-06
7.62057e-05 0.000151505 9.56717e-06
-3.8535e-06 9.56717e-06 1.91178e-05
0.00287227 -9.07547e-05 -8.4383e-06
-9.07547e-05 0.00154111 7.63037e-07
-8.4383e-06 7.63037e-07 0.00154561
0.000315594 -1.19731e-05 -1.444e-06
-1.19731e-05 -9.57209e-05 9.50515e-06
-1.444e-06 9.50515e-06 -0.000133959
0.00261484 -7.0342e-05 3.03724e-05
-7.0342e-05 0.00136815 5.65145e-06
3.03724e-05 5.65145e-06 0.00137641
0.00232116 -0.000261493 -0.0012897
-0.000261493 0.00445041 -7.60288e-05
-0.0012897 -7.60288e-05 0.00199656
-0.00534248 -8.39044e-05 1.19852e-05
-8.39044e-05 0.00622355 -2.39931e-05
1.19852e-05 -2.39931e-05 -0.00185145
0.00639961 0.000444305 -0.00040051
0.000444305 0.00392932 -0.000108348
-0.00040051 -0.000108348 0.00123853
6.56763e-05 0.000112634 6.62625e-06
0.000112634 -0.000285346 -1.65485e-06
6.62625e-06 -1.65485e-06 -0.000544876
0.000142708 0.000140287 6.95591e-06
0.000140287 -0.000133589 3.97846e-06
6.95591e-06 3.97846e-06 -0.000505489
0.00295977 0.000747656 -3.36837e-06
0.000747656 0.00153797 2.84479e-06
-3.36837e-06 2.84479e-06 0.00109054
0.00236257 0.000886758 1.85982e-05
0.000886758 0.00101274 1.22281e-05
1.85982e-05 1.22281e-05 0.000450159
0.000982418 0.000618546 1.01808e-05
0.000618546 0.000506899 1.41906e-05
1.01808e-05 1.41906e-05 9.47027e-06
0.00230928 0.000316868 -6.62043e-06
0.000316868 0.0013879 6.45445e-06
-6.62043e-06 6.45445e-06 0.00108263
0.00233799 0.000328895 1.209e-05
0.000328895 0.00129965 8.489e-06
1.209e-05 8.489e-06 0.000966524
0.00111475 0.000643098 -4.77559e-06
0.000643098 0.000573344 1.18587e-06
-4.77559e-06 1.18587e-06 5.16541e-05
0.000316472 0.000836143 1.55561e-05
0.000836143 -0.000341093 -4.39854e-06
1.55561e-05 -4.39854e-06 -0.000766532
0.00296356 0.00108935 -6.91657e-06
0.00108935 0.00119773 3.34243e-05
-6.91657e-06 3.34243e-05 0.000880217
0.00162414 0.00111835 3.38626e-05
0.00111835 0.000127377 1.20568e-05
3.38626e-05 1.20568e-05 -7.03105e-05
0.00151155 0.000812673 1.11429e-06
0.000812673 0.000569446 -8.60083e-07
1.11429e-06 -8.60083e-07 0.000269261
0.00199745 0.000564151 -2.4377e-06
0.000564151 0.00121015 2.69268e-05
-2.4377e-06 2.69268e-05 0.000717925
0.0150383 0.00373263 -0.000151501
0.00373263 0.00138446 5.48188e-05
-0.000151501 5.48188e-05 0.00058459
0.00587828 -0.00302652 -0.000759081
-0.00302652 0.0048606 -0.00024658
-0.000759081 -0.00024658 0.000838171
0.00208963 -0.00552959 0.00121602
-0.00552959 0.00962397 0.000258794
0.00121602 0.000258794 0.00212359
0.014797 -0.00346352 0.000493878
-0.00346352 0.00586607 0.000285699
0.000493878 0.000285699 7.60207e-05
0.012941 0.00665801 -0.000132979
0.00665801 0.0044896 -5.8945e-05
-0.000132979 -5.8945e-05 0.000267894
-0.00246615 0.000560775 -5.27193e-06
0.000560775 0.000838461 -1.49087e-05
-5.27193e-06 -1.49087e-05 8.69981e-05
0.00201827 0.00254449 -9.11971e-05
0.00254449 0.000534968 -3.72334e-05
-9.11971e-05 -3.72334e-05 0.00154278
0.0150665 0.0066908 1.75333e-05
0.0066908 0.00187676 4.1881e-05
1.75333e-05 4.1881e-05 -0.000746354
0.00712682 0.00480099 -0.000151929
0.00480099 -0.000555617 -0.000135709
-0.000151929 -0.000135709 0.000404824
0.00168937 0.00148116 6.48887e-06
0.00148116 0.000140097 2.01665e-06
6.48887e-06 2.01665e-06 -0.000218019
0.00155494 0.00113626 1.31789e-05
0.00113626 0.000435327 -3.75239e-06
1.31789e-05 -3.75239e-06 7.75237e-05
0.0017565 0.000709941 -3.58386e-05
0.000709941 0.000782841 -5.63571e-06
-3.58386e-05 -5.63571e-06 0.000606596
0.0021544 0.00206058 -8.08473e-05
0.00206058 0.000501439 -3.08266e-05
-8.08473e-05 -3.08266e-05 -0.000563213
0.00171223 0.0023746 0.000102762
0.0023746 -0.000674715 5.44413e-05
0.000102762 5.44413e-05 -0.00131849
0.00413103 -0.000305661 -0.00014805
-0.000305661 -0.0056306 4.45797e-05
-0.00014805 4.45797e-05 -0.00597548
0.000206314 -0.00226936 1.57752e-05
-0.00226936 0.00315746 4.17881e-05
1.57752e-05 4.17881e-05 0.00125557
-0.0137265 -0.000420273 0.000473001
-0.000420273 0.00741253 -1.74276e-05
0.000473001 -1.74276e-05 0.00133608
0.00204483 -0.00286925 -9.73988e-05
-0.00286925 0.000193699 4.84492e-05
-9.73988e-05 4.84492e-05 -0.000924995
0.00655246 -0.00437586 2.5459e-05
-0.00437586 -7.90738e-06 5.78015e-05
2.5459e-05 5.78015e-05 0.00107732
0.00420535 0.000481072 0.00135458
0.000481072 0.00478646 -0.000320743
0.00135458 -0.000320743 0.00239565
0.0155135 -0.0034598 -0.000388968
-0.0034598 0.00110684 0.000219151
-0.000388968 0.000219151 0.000930444
0.00184216 -0.00188102 -3.01593e-05
-0.00188102 -0.000226984 5.70079e-06
-3.01593e-05 5.70079e-06 -0.000576796
0.0122513 -0.000285239 -0.00026053
-0.000285239 -0.00211606 9.15625e-05
-0.00026053 9.15625e-05 -0.00254176
0.00728098 -0.00277106 9.90166e-05
-0.00277106 -0.0010279 1.09832e-05
9.90166e-05 1.09832e-05 0.000488987
0.00373 -0.00159451 6.31733e-05
-0.00159451 4.11431e-05 -4.06101e-05
6.31733e-05 -4.06101e-05 2.00254e-05
0.00260298 -0.00107782 2.44479e-05
-0.00107782 -0.00294193 -8.63306e-07
2.44479e-05 -8.63306e-07 -0.000910081
-0.00232672 -0.000548956 -5.33504e-06
-0.000548956 -0.00203272 2.18462e-05
-5.33504e-06 2.18462e-05 -0.00209381
0.00140365 -0.000920487 -2.23733e-05
-0.000920487 -0.000414285 4.44978e-06
-2.23733e-05 4.44978e-06 -0.000419424
0.00394425 -0.000947539 4.27807e-05
-0.000947539 0.000754282 -1.3364e-05
4.27807e-05 -1.3364e-05 0.000813833
0.00171204 -0.00106931 -1.39311e-05
-0.00106931 8.28437e-06 7.6871e-06
-1.39311e-05 7.6871e-06 -0.000420559
0.00247622 -0.000952499 -4.55224e-06
-0.000952499 8.51804e-05 2.79529e-06
-4.55224e-06 2.79529e-06 -0.000127895
0.00263604 -0.000757398 6.33522e-06
-0.000757398 -5.61276e-06 -4.00768e-07
6.33522e-06 -4.00768e-07 -8.47493e-06
0.00224592 -0.000889575 -2.20757e-06
-0.000889575 0.000165463 9.28596e-06
-2.20757e-06 9.28596e-06 -0.000160557
0.00226431 -0.000658536 2.08892e-07
-0.000658536 -2.05222e-05 1.30354e-06
2.08892e-07 1.30354e-06 -0.000119593
0.00243686 -0.000660798 1.6394e-07
-0.000660798 4.98432e-05 4.2579e-07
1.6394e-07 4.2579e-07 1.81572e-05
0.00202012 -0.000599186 3.97508e-06
-0.000599186 -6.16478e-06 5.35408e-06
3.97508e-06 5.35408e-06 -0.000210096
0.00223188 -0.000612641 -5.3851e-08
-0.000612641 7.2998e-05 1.02405e-06
-5.3851e-08 1.02405e-06 -5.68756e-05
0.00237768 -0.000647471 -1.39786e-06
-0.000647471 0.000115688 1.76044e-06
-1.39786e-06 1.76044e-06 1.04528e-05
0.00221333 -0.000597446 -4.75096e-06
-0.000597446 0.000151037 1.42312e-06
-4.75096e-06 1.42312e-06 -6.47128e-06
0.00224878 -0.000577017 -6.46114e-07
-0.000577017 0.000229108 1.40742e-07
-6.46114e-07 1.40742e-07 5.56441e-05
0.00222862 -0.000564276 5.3621e-07
-0.000564276 0.000187262 3.41587e-06
5.3621e-07 3.41587e-06 6.82181e-06
0.00220732 -0.000554008 7.68105e-07
-0.000554008 0.000253702 -4.50994e-07
7.68105e-07 -4.50994e-07 4.8383e-05
0.00213502 -0.00057123 -2.9085e-06
-0.00057123 0.000218384 -1.56365e-06
-2.9085e-06 -1.56365e-06 -7.62515e-06
0.00223341 -0.000629494 -3.24928e-06
-0.000629494 0.000344925 -5.0216e-06
-3.24928e-06 -5.0216e-06 4.35232e-05
0.0022604 -0.000648921 -6.05947e-07
-0.000648921 0.000291493 7.99364e-08
-6.05947e-07 7.99364e-08 3.48759e-06
0.00232544 -0.000634848 7.17537e-06
-0.000634848 0.000311962 4.70334e-06
7.17537e-06 4.70334e-06 4.02399e-05
0.00183615 -0.000661782 -9.62195e-06
-0.000661782 0.000297101 4.85026e-07
-9.62195e-06 4.85026e-07 -0.000102816
0.00203985 -0.000749005 -1.83837e-06
-0.000749005 0.00031977 -6.32938e-07
-1.83837e-06 -6.32938e-07 -8.39612e-05
0.00183396 -0.000769078 4.56885e-06
-0.000769078 0.000101675 3.35985e-06
4.56885e-06 3.35985e-06 -0.000298713
0.000959093 -0.000327793 -1.37608e-05
-0.000327793 9.28559e-05 8.45199e-06
-1.37608e-05 8.45199e-06 -0.000180904
0.00163525 -0.000650397 5.59184e-07
-0.000650397 0.000352026 7.97837e-07
5.59184e-07 7.97837e-07 -7.16872e-05
0.00220222 -0.000862614 1.10505e-06
-0.000862614 0.000600043 3.88072e-06
1.10505e-06 3.88072e-06 0.000108934
8.27953e-05 -0.000203928 -1.87595e-05
-0.000203928 -0.000312169 2.15696e-05
-1.87595e-05 2.15696e-05 -0.000455339
0.00064201 -0.000271216 7.13928e-07
-0.000271216 1.53436e-06 5.20475e-07
7.13928e-07 5.20475e-07 -0.000251822
0.000944009 -0.000475165 8.02632e-06
-0.000475165 6.34677e-05 -1.6364e-06
8.02632e-06 -1.6364e-06 -0.000301256
0.00591067 0.000134511 -0.000187391
0.000134511 0.00350965 1.26198e-05
-0.000187391 1.26198e-05 0.00350064
0.000486206 -0.000194731 -7.38154e-06
-0.000194731 -5.64105e-05 -1.22353e-06
-7.38154e-06 -1.22353e-06 -0.000172247
0.000577221 -0.000261075 4.82164e-06
-0.000261075 4.47309e-05 -4.86907e-06
4.82164e-06 -4.86907e-06 -0.000218859
0.00529268 0.000171033 1.59662e-05
0.000171033 0.00313514 -9.39045e-07
1.59662e-05 -9.39045e-07 0.00311675
0.000583287 -0.000152559 2.84354e-05
-0.000152559 2.41321e-05 -1.49076e-05
2.84354e-05 -1.49076e-05 -7.73982e-05
0.00467925 0.000141683 0.000143323
0.000141683 0.00272835 -1.12654e-05
0.000143323 -1.12654e-05 0.00271977
0.00267753 0.000805411 3.7399e-06
0.000805411 0.00120955 4.7144e-06
3.7399e-06 4.7144e-06 0.000710224
0.000787201 0.000349841 -2.77278e-06
0.000349841 8.83921e-05 -1.55416e-06
-2.77278e-06 -1.55416e-06 -0.000191448
0.000705518 0.000217546 6.25792e-06
0.000217546 7.07179e-05 4.33069e-07
6.25792e-06 4.33069e-07 -0.000157066
-0.000745887 8.40917e-05 -8.79287e-07
8.40917e-05 -0.000817406 -4.61269e-06
-8.79287e-07 -4.61269e-06 -0.00103389
0.000286043 0.000198889 2.5202e-06
0.000198889 -0.00010012 1.12384e-06
2.5202e-06 1.12384e-06 -0.000339034
0.00094366 0.000200868 -4.11716e-06
0.000200868 0.000306728 -1.0155e-05
-4.11716e-06 -1.0155e-05 8.69657e-05
3.93771e-05 7.70914e-05 -2.85208e-06
7.70914e-05 -0.000152272 1.68944e-06
-2.85208e-06 1.68944e-06 -0.000438913
0.000733621 0.000117912 3.50319e-07
0.000117912 0.000216834 7.69692e-07
3.50319e-07 7.69692e-07 1.29226e-05
0.000720195 8.09335e-05 -1.39721e-05
8.09335e-05 0.000156517 -1.8307e-05
-1.39721e-05 -1.8307e-05 7.83746e-05
0.00353397 -0.000108419 -9.67371e-05
-0.000108419 0.00198378 -9.90364e-06
-9.67371e-05 -9.90364e-06 0.00198451
0.000422462 3.25179e-05 1.98657e-06
3.25179e-05 -1.84672e-05 -5.52585e-07
1.98657e-06 -5.52585e-07 -7.8753e-05
0.000306558 7.17329e-05 -2.67613e-06
7.17329e-05 -6.3485e-05 1.03648e-05
-2.67613e-06 1.03648e-05 -0.000219634
0.00304619 -0.000111317 -1.02453e-05
-0.000111317 0.00166188 1.00477e-06
-1.02453e-05 1.00477e-06 0.00166168
0.000264478 -6.09606e-05 -9.45818e-06
-6.09606e-05 -0.000112282 1.29419e-05
-9.45818e-06 1.29419e-05 -0.000165166
0.00277223 -8.9861e-05 3.81527e-05
-8.9861e-05 0.00147725 5.80229e-06
3.81527e-05 5.80229e-06 0.00148143
0.0159379 0.000790378 0.000618255
0.000790378 0.0013877 0.000146048
0.000618255 0.000146048 0.00153046
0.000390017 -0.00405572 -0.000766741
-0.00405572 -0.00167941 -9.47799e-05
-0.000766741 -9.47799e-05 -0.0053262
-0.00911684 0.00173517 -0.000268443
0.00173517 0.00585152 -0.000128737
-0.000268443 -0.000128737 -0.00216143
5.54658e-05 7.73344e-05 1.14499e-05
7.73344e-05 -0.00019451 -2.15419e-05
1.14499e-05 -2.15419e-05 -0.000586153
0.00129953 0.000540575 -7.89855e-06
0.000540575 0.000521638 -5.11511e-06
-7.89855e-06 -5.11511e-06 0.000107422
0.0027027 0.000791567 -1.16525e-05
0.000791567 0.00147415 -4.41111e-06
-1.16525e-05 -4.41111e-06 0.000936772
0.00132575 0.00074832 1.10761e-06
0.00074832 0.000384523 -6.24456e-07
1.10761e-06 -6.24456e-07 -0.000142966
0.00169991 0.000837306 1.41176e-05
0.000837306 0.000361533 2.23158e-05
1.41176e-05 2.23158e-05 -0.000133888
-0.000432889 0.000643689 3.40705e-05
0.000643689 -0.000721043 1.24879e-05
3.40705e-05 1.24879e-05 -0.00115586
0.000942728 0.000541939 -1.2293e-05
0.000541939 0.000523869 4.92956e-06
-1.2293e-05 4.92956e-06 1.05294e-05
0.00012035 0.000785525 7.24311e-06
0.000785525 -0.000455936 2.49045e-07
7.24311e-06 2.49045e-07 -0.000860562
0.00227948 0.0010059 1.72047e-05
0.0010059 0.000859278 4.96751e-06
1.72047e-05 4.96751e-06 0.000498171
0.000375905 0.000799396 7.7333e-06
0.000799396 -0.000441329 -2.97047e-06
7.7333e-06 -2.97047e-06 -0.000780717
0.00391725 0.00127476 8.01548e-06
0.00127476 0.00138975 1.09691e-05
8.01548e-06 1.09691e-05 0.00112803
0.00218921 0.00118166 2.2645e-05
0.00118166 0.000456589 6.82538e-06
2.2645e-05 6.82538e-06 5.90223e-05
0.000847851 0.00101427 8.12338e-06
0.00101427 -0.000321049 -1.34387e-06
8.12338e-06 -1.34387e-06 -0.000442907
0.00132381 0.000724053 -1.3767e-05
0.000724053 0.000460864 -7.39686e-05
-1.3767e-05 -7.39686e-05 0.000183746
0.004167 0.0023241 2.76507e-05
0.0023241 -0.00295866 4.26576e-05
2.76507e-05 4.26576e-05 -0.000558699
0.0137468 0.00449326 0.000352433
0.00449326 -0.000381685 0.000202746
0.000352433 0.000202746 -0.00159835
0.0142026 -0.00605153 0.000824434
-0.00605153 0.00700221 -8.11776e-05
0.000824434 -8.11776e-05 0.00198565
0.0059165 0.00709423 0.000778448
0.00709423 -0.00142765 0.000402961
0.000778448 0.000402961 -0.00535725
-0.000604033 0.00169862 -4.6922e-05
0.00169862 -1.11556e-05 2.045e-05
-4.6922e-05 2.045e-05 0.000676699
0.00357859 0.00302702 -9.33947e-05
0.00302702 -0.0011217 -5.64783e-05
-9.33947e-05 -5.64783e-05 0.000345343
0.00671849 0.00274198 5.54393e-05
0.00274198 0.0010898 3.35228e-05
5.54393e-05 3.35228e-05 0.000882997
0.00532676 0.00206915 2.4124e-05
0.00206915 0.00177664 1.03017e-05
2.4124e-05 1.03017e-05 0.00127717
0.000692534 0.000984943 -3.41472e-05
0.000984943 -3.64445e-05 2.7863e-06
-3.41472e-05 2.7863e-06 -0.000322324
0.00843525 0.00329147 -0.000206836
0.00329147 0.00245 -1.32475e-05
-0.000206836 -1.32475e-05 0.00152273
0.00398804 -0.000783987 -4.29155e-06
-0.000783987 -0.00134673 2.48497e-05
-4.29155e-06 2.48497e-05 9.76732e-05
0.0118771 -0.000624975 -6.07623e-05
-0.000624975 6.91101e-05 -3.45716e-05
-6.07623e-05 -3.45716e-05 0.000623629
-0.0131833 -0.00377391 0.00107377
-0.00377391 -0.00426842 -6.79535e-06
0.00107377 -6.79535e-06 -0.00672205
0.00141622 -0.00168232 -0.000141791
-0.00168232 -0.000325698 4.36735e-05
-0.000141791 4.36735e-05 -0.000600235
0.00828168 -0.00333593 -4.54651e-05
-0.00333593 -0.00128699 9.46552e-05
-4.54651e-05 9.46552e-05 0.000461053
0.00167646 -0.000382155 -0.000385511
-0.000382155 -0.00644453 3.70273e-05
-0.000385511 3.70273e-05 -0.00729993
0.00342015 -0.00141109 3.78858e-05
-0.00141109 -0.000120396 1.6577e-06
3.78858e-05 1.6577e-06 0.000154838
0.0052914 -0.00105256 -6.76597e-05
-0.00105256 -0.00121779 1.14864e-06
-6.76597e-05 1.14864e-06 0.000256162
0.00690336 -0.00116386 6.2175e-05
-0.00116386 0.00167121 -3.85032e-05
6.2175e-05 -3.85032e-05 0.00212167
0.00590602 -0.000669457 0.000124322
-0.000669457 0.0008632 -9.82371e-07
0.000124322 -9.82371e-07 0.00149933
-0.00255004 -0.000558495 1.08016e-05
-0.000558495 -0.00271589 1.10271e-05
1.08016e-05 1.10271e-05 -0.00241609
0.00222347 -0.000799707 -9.54023e-06
-0.000799707 -0.000255727 2.7367e-06
-9.54023e-06 2.7367e-06 -4.64451e-05
0.00251724 -0.000602463 2.63386e-05
-0.000602463 -0.000270368 -6.03861e-06
2.63386e-05 -6.03861e-06 4.97972e-05
0.00208275 -0.000926213 -2.48114e-06
-0.000926213 -0.0001391 4.3881e-06
-2.48114e-06 4.3881e-06 -0.00035469
0.00256073 -0.000749907 1.10557e-06
-0.000749907 -4.21013e-05 1.65604e-06
1.10557e-06 1.65604e-06 -4.40607e-05
0.00259654 -0.000653677 1.17085e-06
-0.000653677 4.70867e-06 -2.38423e-07
1.17085e-06 -2.38423e-07 2.35979e-05
0.00224486 -0.000659639 2.12611e-06
-0.000659639 -3.5384e-05 4.69481e-06
2.12611e-06 4.69481e-06 -0.000136014
0.00240511 -0.000656608 1.62542e-07
-0.000656608 4.52574e-05 4.31217e-07
1.62542e-07 4.31217e-07 5.24407e-06
0.00239106 -0.000574201 -1.48236e-06
-0.000574201 3.06063e-05 -1.67527e-08
-1.48236e-06 -1.67527e-08 -1.45732e-05
0.00219169 -0.000608956 2.24336e-06
-0.000608956 4.84687e-05 3.13676e-07
2.24336e-06 3.13676e-07 -8.08302e-05
0.00238169 -0.000644693 3.49703e-08
-0.000644693 0.000146706 -1.26883e-08
3.49703e-08 -1.26883e-08 3.58607e-05
0.00226721 -0.000564174 9.23042e-07
-0.000564174 0.000127737 5.63635e-07
9.23042e-07 5.63635e-07 9.67188e-06
0.00220988 -0.000604415 -3.09368e-06
-0.000604415 0.000138132 -2.3245e-07
-3.09368e-06 -2.3245e-07 -1.43015e-05
0.00219315 -0.000569552 -1.60872e-06
-0.000569552 0.000191908 1.26444e-07
-1.60872e-06 1.26444e-07 2.11221e-05
0.0022939 -0.000559168 -2.25313e-06
-0.000559168 0.000292452 3.57023e-07
-2.25313e-06 3.57023e-07 9.71149e-05
0.00220718 -0.000551105 3.41632e-06
-0.000551105 0.000251754 1.58283e-06
3.41632e-06 1.58283e-06 4.74801e-05
0.00215644 -0.000571287 -3.33683e-07
-0.000571287 0.000229195 1.06703e-08
-3.33683e-07 1.06703e-08 3.60854e-06
0.00219433 -0.000570684 -8.81634e-07
-0.000570684 0.000287593 -2.32622e-06
-8.81634e-07 -2.32622e-06 3.71316e-05
0.0019168 -0.000567352 -6.99119e-06
-0.000567352 0.000252411 -1.81703e-06
-6.99119e-06 -1.81703e-06 -6.88836e-05
0.00213675 -0.00062766 -4.24058e-07
-0.00062766 0.000281177 -1.47481e-06
-4.24058e-07 -1.47481e-06 -2.69238e-05
0.00232649 -0.000658609 4.42824e-06
-0.000658609 0.00033697 3.33527e-06
4.42824e-06 3.33527e-06 4.54891e-05
0.00114451 -0.000388098 -2.03799e-05
-0.000388098 7.39496e-05 9.08809e-06
-2.03799e-05 9.08809e-06 -0.000215286
0.00190826 -0.000660805 -8.37205e-07
-0.000660805 0.000354421 7.05694e-07
-8.37205e-07 7.05694e-07 -4.2571e-05
0.00198908 -0.000745097 1.4151e-06
-0.000745097 0.000284737 2.94117e-06
1.4151e-06 2.94117e-06 -0.00012169
0.000179679 -0.000215576 -1.7168e-05
-0.000215576 -0.000286948 2.35448e-05
-1.7168e-05 2.35448e-05 -0.000442143
0.00080548 -0.000328565 2.50904e-06
-0.000328565 -1.13036e-05 8.49814e-08
2.50904e-06 8.49814e-08 -0.000289975
0.00170409 -0.000652908 1.05967e-05
-0.000652908 0.000405781 -5.32252e-07
1.05967e-05 -5.32252e-07 -1.66601e-05
0.00694106 4.6288e-05 -0.000264428
4.6288e-05 0.00413058 1.89637e-05
-0.000264428 1.89637e-05 0.00413671
0.000351053 -0.000226339 -2.86629e-06
-0.000226339 -0.000147638 -4.85176e-07
-2.86629e-06 -4.85176e-07 -0.000293022
0.000486436 -0.000267456 9.13469e-06
-0.000267456 -9.77963e-05 -7.02606e-06
9.13469e-06 -7.02606e-06 -0.000356023
0.00627284 9.78513e-05 -1.2155e-05
9.78513e-05 0.00374306 -2.57138e-06
-1.2155e-05 -2.57138e-06 0.00373566
0.000454196 -0.000201694 2.30901e-05
-0.000201694 -7.17934e-05 -1.899e-05
2.30901e-05 -1.899e-05 -0.000192969
0.00567589 0.000128561 0.00020013
0.000128561 0.00338486 -2.3211e-05
0.00020013 -2.3211e-05 0.00337065
0.00200047 0.000787916 -7.81382e-06
0.000787916 0.000583981 7.98795e-06
-7.81382e-06 7.98795e-06 0.00010547
0.00187633 0.000703075 -1.37507e-06
0.000703075 0.000681481 -9.45319e-07
-1.37507e-06 -9.45319e-07 0.000215168
0.00114078 0.000454673 -3.7204e-06
0.000454673 0.000259761 2.98001e-07
-3.7204e-06 2.98001e-07 -9.1739e-05
0.0012223 0.000438636 -4.96515e-06
0.000438636 0.000405452 -3.77883e-06
-4.96515e-06 -3.77883e-06 8.63946e-05
0.000565855 0.000229896 1.98274e-07
0.000229896 9.42799e-07 -1.29131e-06
1.98274e-07 -1.29131e-06 -0.00024089
0.000682863 0.000241321 -4.16068e-06
0.000241321 0.0001164 -5.48986e-06
-4.16068e-06 -5.48986e-06 -0.000136605
0.000503874 0.00012892 1.0142e-06
0.00012892 3.07438e-05 7.07118e-07
1.0142e-06 7.07118e-07 -0.000194962
0.000727178 0.000169393 1.47636e-06
0.000169393 0.00020577 -9.67295e-07
1.47636e-06 -9.67295e-07 -3.87329e-05
0.000707067 0.000121805 -2.17706e-05
0.000121805 0.000122423 -1.97251e-05
-2.17706e-05 -1.97251e-05 2.48095e-05
-3.87856e-05 9.75191e-05 -1.07148e-06
9.75191e-05 -0.000248947 1.13173e-05
-1.07148e-06 1.13173e-05 -0.000464427
0.000494468 8.06184e-05 2.04528e-07
8.06184e-05 1.7889e-05 -2.32102e-07
2.04528e-07 -2.32102e-07 -5.85829e-05
0.00432291 -0.00013652 -0.000124637
-0.00013652 0.00250715 -1.38232e-05
-0.000124637 -1.38232e-05 0.00249843
0.0035884 -0.000136681 -1.31021e-05
-0.000136681 0.00202379 1.20198e-06
-1.31021e-05 1.20198e-06 0.00201717
0.000285699 6.36164e-05 8.63102e-06
6.36164e-05 -0.000103831 1.6074e-05
8.63102e-06 1.6074e-05 -0.00016258
0.0030566 -0.0001149 4.60855e-05
-0.0001149 0.00166934 6.19761e-06
4.60855e-05 6.19761e-06 0.00166791
0.0033425 0.000303518 0.000102669
0.000303518 -0.00183145 3.60501e-05
0.000102669 3.60501e-05 8.76846e-05
0.00591719 -0.000812626 0.000236472
-0.000812626 -0.00527847 0.000119636
0.000236472 0.000119636 -0.0059826
0.0149422 -0.00446941 -0.000291607
-0.00446941 0.00698781 -0.000125319
-0.000291607 -0.000125319 0.00380639
0.00169218 0.000769952 7.31307e-06
0.000769952 0.000137101 1.09241e-05
7.31307e-06 1.09241e-05 -0.000265973
0.00503169 0.00103118 -1.45609e-05
0.00103118 0.00277375 -8.46587e-06
-1.45609e-05 -8.46587e-06 0.00221193
0.000279911 0.000606908 -9.61079e-06
0.000606908 -0.000247862 -1.09927e-05
-9.61079e-06 -1.09927e-05 -0.000738404
0.00165812 0.000909092 1.91382e-06
0.000909092 0.000535106 -2.47915e-06
1.91382e-06 -2.47915e-06 3.61429e-05
0.00192623 0.000864046 -1.35402e-06
0.000864046 0.000524836 4.10177e-06
-1.35402e-06 4.10177e-06 1.67655e-05
0.00189601 0.000946268 2.62758e-05
0.000946268 0.000434735 1.66757e-05
2.62758e-05 1.66757e-05 -1.26402e-05
0.00225396 0.00102018 -4.2257e-05
0.00102018 0.000826115 -5.55857e-06
-4.2257e-05 -5.55857e-06 0.00034989
0.000635739 0.000792783 1.04071e-05
0.000792783 -3.89435e-05 -3.76284e-05
1.04071e-05 -3.76284e-05 -0.000380923
0.00200969 0.00106777 -9.7283e-07
0.00106777 0.000467902 -1.19313e-06
-9.7283e-07 -1.19313e-06 7.07351e-05
0.00220982 0.00108755 1.34938e-05
0.00108755 0.000375005 -1.76592e-05
1.34938e-05 -1.76592e-05 0.000262771
0.00231252 0.00108424 2.13419e-05
0.00108424 0.000375573 -4.20509e-06
2.13419e-05 -4.20509e-06 -3.10983e-05
0.00202698 0.000907385 3.0544e-05
0.000907385 0.000268022 2.61433e-05
3.0544e-05 2.61433e-05 6.06073e-05
0.000711259 0.00099114 -8.78042e-06
0.00099114 -0.000336121 -6.77423e-06
-8.78042e-06 -6.77423e-06 -0.000658259
0.000657086 0.000967254 -2.90387e-05
0.000967254 -0.000371315 -2.14179e-05
-2.90387e-05 -2.14179e-05 -0.000499689
0.00214178 0.00107654 5.53047e-05
0.00107654 -0.00114317 4.0535e-05
5.53047e-05 4.0535e-05 -0.000450921
0.00626628 0.00249949 -0.000105651
0.00249949 -0.00192368 -3.47517e-05
-0.000105651 -3.47517e-05 0.000302611
0.00449306 0.00316941 0.00070326
0.00316941 -0.00597608 0.000186179
0.00070326 0.000186179 -0.00706453
0.00324499 0.00262857 -0.000249313
0.00262857 -0.000281587 -0.000106104
-0.000249313 -0.000106104 0.000820556
0.0052527 0.00225466 -3.20613e-05
0.00225466 0.000806367 -9.65766e-06
-3.20613e-05 -9.65766e-06 0.00071278
0.00628642 0.00224118 -0.000183507
0.00224118 0.00213615 -5.30724e-05
-0.000183507 -5.30724e-05 0.00159964
0.00320265 -0.000237516 -5.15231e-05
-0.000237516 -0.000632102 -2.07727e-05
-5.15231e-05 -2.07727e-05 -0.000105483
-0.000633829 -0.000453914 0.000114673
-0.000453914 -0.002 2.75266e-05
0.000114673 2.75266e-05 -0.00043102
0.00539111 0.000567157 0.000293348
0.000567157 -0.00570267 -1.71075e-05
0.000293348 -1.71075e-05 -0.00589518
0.000976663 -0.00109053 -6.6094e-05
-0.00109053 -0.00132245 8.19676e-05
-6.6094e-05 8.19676e-05 -0.000830565
0.0068996 -0.00116822 -0.000200582
-0.00116822 -0.000381572 5.75034e-05
-0.000200582 5.75034e-05 0.000622207
0.00302914 -0.000877291 -2.81179e-05
-0.000877291 -0.000555489 1.15712e-05
-2.81179e-05 1.15712e-05 7.08608e-05
0.00465859 -0.000637717 -1.54648e-05
-0.000637717 0.000280984 -1.64141e-06
-1.54648e-05 -1.64141e-06 0.000770328
0.00396752 -0.000479317 8.28333e-05
-0.000479317 0.000518522 -1.40794e-05
8.28333e-05 -1.40794e-05 0.000877552
0.00325052 -0.000117758 5.1178e-05
-0.000117758 0.00055073 -2.50243e-06
5.1178e-05 -2.50243e-06 0.000641053
0.000483998 -0.000630158 -2.09553e-05
-0.000630158 -0.0012257 1.08294e-05
-2.09553e-05 1.08294e-05 -0.000881547
0.00245495 -0.000628652 -3.1825e-06
-0.000628652 -0.00031121 6.35816e-07
-3.1825e-06 6.35816e-07 -1.7426e-05
0.00259051 -0.000497778 3.46332e-06
-0.000497778 -0.000216148 -7.24517e-07
3.46332e-06 -7.24517e-07 3.11041e-05
0.00247863 -0.000736934 -2.58525e-06
-0.000736934 -7.62812e-05 2.7156e-06
-2.58525e-06 2.7156e-06 -7.46781e-05
0.00258661 -0.000632845 -9.72956e-08
-0.000632845 2.63222e-05 -5.62567e-07
-9.72956e-08 -5.62567e-07 5.55288e-05
0.00243832 -0.000486113 -1.22554e-06
-0.000486113 -6.00329e-05 -3.08079e-07
-1.22554e-06 -3.08079e-07 -1.45896e-05
0.00236455 -0.000649981 -1.02976e-06
-0.000649981 3.73974e-05 5.09723e-07
-1.02976e-06 5.09723e-07 -9.28062e-06
0.00238308 -0.000577694 -7.32195e-07
-0.000577694 3.80925e-05 6.79948e-08
-7.32195e-07 6.79948e-08 -4.80709e-06
0.00227622 -0.000482311 -4.52354e-07
-0.000482311 5.23977e-05 5.44022e-07
-4.52354e-07 5.44022e-07 -7.08343e-06
0.0023862 -0.0006412 -4.33167e-07
-0.0006412 0.000178698 -1.52977e-06
-4.33167e-07 -1.52977e-06 6.28369e-05
0.0022509 -0.000564187 9.87591e-07
-0.000564187 0.0001151 -3.40256e-07
9.87591e-07 -3.40256e-07 -3.24206e-06
0.00217368 -0.000508961 -1.19083e-06
-0.000508961 0.000139309 3.78511e-07
-1.19083e-06 3.78511e-07 -5.47783e-06
0.00214273 -0.000563121 -2.17374e-06
-0.000563121 0.000158639 2.64888e-07
-2.17374e-06 2.64888e-07 -9.64882e-06
0.00223397 -0.000553395 -1.33839e-06
-0.000553395 0.000246696 7.34091e-07
-1.33839e-06 7.34091e-07 5.46595e-05
0.00230241 -0.000544711 -1.32887e-06
-0.000544711 0.000313221 -1.7257e-06
-1.32887e-06 -1.7257e-06 0.000100818
0.0021748 -0.000571506 2.76556e-06
-0.000571506 0.000237663 2.40517e-06
2.76556e-06 2.40517e-06 1.24166e-05
0.00219384 -0.000572141 2.41888e-08
-0.000572141 0.000287236 -1.89179e-07
2.41888e-08 -1.89179e-07 3.8298e-05
0.00204278 -0.00051007 -5.19056e-06
-0.00051007 0.000294696 -3.44194e-07
-5.19056e-06 -3.44194e-07 2.00506e-05
0.00122288 -0.00037811 -1.9843e-05
-0.00037811 3.72436e-05 8.05966e-06
-1.9843e-05 8.05966e-06 -0.000235365
0.00191427 -0.000566644 -6.94587e-07
-0.000566644 0.000255826 -9.05492e-07
-6.94587e-07 -9.05492e-07 -6.9316e-05
0.00204336 -0.000626263 1.69875e-06
-0.000626263 0.000219568 2.00483e-06
1.69875e-06 2.00483e-06 -9.53737e-05
0.000273646 -0.000243862 -2.24026e-05
-0.000243862 -0.00023624 1.95993e-05
-2.24026e-05 1.95993e-05 -0.000402073
0.00109596 -0.000385325 2.00038e-06
-0.000385325 4.32366e-05 -8.70433e-08
2.00038e-06 -8.70433e-08 -0.000246648
0.00198332 -0.000660893 7.89615e-06
-0.000660893 0.00041232 7.09348e-07
7.89615e-06 7.09348e-07 1.78762e-05
0.00779139 -2.0868e-07 -0.000311778
-2.0868e-07 0.00464003 2.51577e-05
-0.000311778 2.51577e-05 0.00465082
0.000284645 -0.000268206 -1.3969e-06
-0.000268206 -0.000209551 2.29884e-06
-1.3969e-06 2.29884e-06 -0.000377212
0.000681611 -0.000332301 1.42382e-05
-0.000332301 -0.000100257 -6.85263e-06
1.42382e-05 -6.85263e-06 -0.000383973
0.00722257 3.02181e-05 -6.13167e-06
3.02181e-05 0.00431033 1.13489e-07
-6.13167e-06 1.13489e-07 0.00431485
0.000766002 -0.000284558 2.63564e-05
-0.000284558 0.000112118 -2.38484e-05
2.63564e-05 -2.38484e-05 -3.90908e-05
0.00657908 9.66892e-05 0.000246973
9.66892e-05 0.00394735 -3.00419e-05
0.000246973 -3.00419e-05 0.00393556
0.00174852 0.000712834 -3.54561e-06
0.000712834 0.000243014 8.74287e-06
-3.54561e-06 8.74287e-06 -0.000165231
0.00188779 0.000776956 -1.6172e-06
0.000776956 0.000507102 9.67184e-07
-1.6172e-06 9.67184e-07 2.96419e-05
0.00144976 0.000578043 -9.08753e-06
0.000578043 0.000288434 2.69097e-06
-9.08753e-06 2.69097e-06 -0.000105178
0.00107491 0.000602925 -4.53603e-06
0.000602925 0.000142794 -4.5768e-06
-4.53603e-06 -4.5768e-06 -0.000290889
0.00139395 0.000448448 -4.17446e-06
0.000448448 0.000383535 -2.23067e-06
-4.17446e-06 -2.23067e-06 4.15477e-05
0.000829308 0.000262744 -1.20261e-05
0.000262744 0.000146655 -2.11179e-06
-1.20261e-05 -2.11179e-06 -0.000108929
0.000487511 0.000200517 -1.53163e-06
0.000200517 -7.19831e-05 -4.02373e-06
-1.53163e-06 -4.02373e-06 -0.000308754
0.000646789 0.000202895 1.28487e-06
0.000202895 6.7361e-05 -2.98964e-07
1.28487e-06 -2.98964e-07 -0.000161991
0.000416396 0.000173491 -2.95888e-05
0.000173491 -9.50685e-05 -1.90585e-05
-2.95888e-05 -1.90585e-05 -0.000199382
0.000557972 0.000137727 1.38507e-06
0.000137727 8.5967e-05 1.00584e-05
1.38507e-06 1.00584e-05 -0.000146772
0.000490215 0.000114064 -1.1042e-06
0.000114064 -8.1487e-06 -3.13015e-07
-1.1042e-06 -3.13015e-07 -0.00010016
0.00515677 -0.000160829 -0.000161924
-0.000160829 0.00305954 -1.81937e-05
-0.000161924 -1.81937e-05 0.00304066
0.000169822 8.57914e-05 1.38603e-05
8.57914e-05 -0.000183713 1.84713e-05
1.38603e-05 1.84713e-05 -0.000255781
0.00403636 -0.000157104 -1.30061e-05
-0.000157104 0.00232846 1.44332e-06
-1.30061e-05 1.44332e-06 0.00231414
0.00337823 -0.000144498 5.63018e-05
-0.000144498 0.00188917 7.21411e-06
5.63018e-05 7.21411e-06 0.00187958
0.00101892 0.000275726 1.17249e-06
0.000275726 -0.00191788 1.15358e-05
1.17249e-06 1.15358e-05 -0.000932984
0.00488159 0.000194678 7.13301e-05
0.000194678 -0.00131135 2.79092e-05
7.13301e-05 2.79092e-05 0.000562723
0.0159739 0.000864306 1.83258e-05
0.000864306 0.00160252 5.17567e-05
1.83258e-05 5.17567e-05 0.00196648
0.00213282 0.000887673 1.36007e-06
0.000887673 0.000360765 6.90873e-06
1.36007e-06 6.90873e-06 -3.65998e-05
0.00223933 0.000820191 8.78123e-07
0.000820191 0.00026981 5.46774e-06
8.78123e-07 5.46774e-06 -7.34028e-05
0.00168231 0.000770644 -5.94596e-07
0.000770644 0.000140602 -4.50475e-06
-5.94596e-07 -4.50475e-06 -0.000257961
0.00318642 0.00110705 -1.62306e-05
0.00110705 0.00144052 -2.38443e-06
-1.62306e-05 -2.38443e-06 0.000899138
0.00218294 0.000892054 -6.80659e-06
0.000892054 0.00070888 -1.18244e-05
-6.80659e-06 -1.18244e-05 0.000187867
0.00220951 0.00101454 7.67677e-06
0.00101454 0.000571534 3.70172e-06
7.67677e-06 3.70172e-06 0.000116828
0.00230174 0.00100134 -2.229e-06
0.00100134 0.000220447 -1.68264e-06
-2.229e-06 -1.68264e-06 -0.000138733
0.00220777 0.00113428 -1.5219e-05
0.00113428 0.000520233 2.73287e-07
-1.5219e-05 2.73287e-07 0.000116671
0.000612345 0.000920987 -2.62995e-05
0.000920987 -0.000582034 5.20514e-05
-2.62995e-05 5.20514e-05 -0.000559268
0.00288274 0.00116025 1.13503e-07
0.00116025 0.000696395 8.12583e-07
1.13503e-07 8.12583e-07 0.000273248
0.0029016 0.000978467 -4.90746e-06
0.000978467 0.000426261 6.89318e-06
-4.90746e-06 6.89318e-06 0.000188402
0.00157514 0.000461827 5.07146e-05
0.000461827 -0.000206695 1.5494e-05
5.07146e-05 1.5494e-05 -8.12201e-05
0.000383974 0.000745158 7.77829e-06
0.000745158 -0.000592506 -6.32895e-06
7.77829e-06 -6.32895e-06 -0.000780403
0.000830401 0.000997862 -3.91115e-05
0.000997862 -0.000268973 -4.31176e-06
-3.91115e-05 -4.31176e-06 -0.000590484
0.00363016 0.00122197 1.91747e-05
0.00122197 -0.00029733 1.11251e-05
1.91747e-05 1.11251e-05 0.000231859
0.00858634 0.00230418 -5.84639e-05
0.00230418 -0.000747646 -4.87817e-05
-5.84639e-05 -4.87817e-05 0.00101877
0.00510495 0.00190304 -6.2581e-05
0.00190304 0.00120679 -7.45513e-05
-6.2581e-05 -7.45513e-05 0.00119362
0.00289054 -8.52127e-05 5.73675e-05
-8.52127e-05 0.000206314 8.3315e-06
5.73675e-05 8.3315e-06 0.000457307
0.00320906 -0.00024372 -8.10784e-05
-0.00024372 -0.000677275 6.40636e-06
-8.10784e-05 6.40636e-06 1.25869e-06
0.00506616 0.000489836 1.72012e-05
0.000489836 -0.00013368 -2.14609e-05
1.72012e-05 -2.14609e-05 0.000984952
0.00063677 -0.000735857 -7.95875e-05
-0.000735857 -0.00193526 5.91305e-05
-7.95875e-05 5.91305e-05 -0.00121275
0.00293667 -0.000659108 -0.000103437
-0.000659108 -0.000583881 5.90657e-06
-0.000103437 5.90657e-06 -0.000234826
0.00299234 -0.000444782 4.31708e-06
-0.000444782 -5.6644e-05 -3.01912e-06
4.31708e-06 -3.01912e-06 0.000394375
0.00236852 -0.000106099 -1.52562e-05
-0.000106099 -2.53047e-05 -6.27916e-08
-1.52562e-05 -6.27916e-08 9.4376e-05
0.00255375 -0.000285367 1.26414e-05
-0.000285367 -0.000166838 -2.53376e-06
1.26414e-05 -2.53376e-06 5.06499e-05
0.00231107 4.70626e-05 8.23332e-06
4.70626e-05 -0.000298907 -3.98734e-07
8.23332e-06 -3.98734e-07 -0.000168266
0.00248434 -0.000663265 -1.97792e-05
-0.000663265 -0.000305812 4.5314e-06
-1.97792e-05 4.5314e-06 -4.01509e-05
0.00262192 -0.000521133 -2.77846e-06
-0.000521133 -0.000204218 7.61251e-07
-2.77846e-06 7.61251e-07 4.24941e-06
0.00250274 -0.00035634 -4.93481e-07
-0.00035634 -0.00013488 -3.88934e-07
-4.93481e-07 -3.88934e-07 3.284e-06
0.00256995 -0.000612833 -3.60257e-06
-0.000612833 3.94631e-05 5.13326e-07
-3.60257e-06 5.13326e-07 7.93999e-05
0.00244941 -0.000485788 2.33427e-07
-0.000485788 -4.06488e-05 -1.56538e-07
2.33427e-07 -1.56538e-07 -1.21784e-06
0.0023338 -0.000398181 1.99556e-07
-0.000398181 -1.68604e-05 1.01725e-07
1.99556e-07 1.01725e-07 -3.19615e-06
0.00237681 -0.0005816 -1.11203e-06
-0.0005816 4.57792e-05 -3.03327e-07
-1.11203e-06 -3.03327e-07 4.85724e-06
0.00228494 -0.000481348 3.81524e-07
-0.000481348 5.30367e-05 -3.45274e-08
3.81524e-07 -3.45274e-08 -6.19931e-06
0.00221311 -0.000431765 -2.09263e-06
-0.000431765 8.94311e-05 9.10551e-07
-2.09263e-06 9.10551e-07 6.31781e-06
0.0022354 -0.000564269 1.67199e-06
-0.000564269 0.000102851 -1.22626e-06
1.67199e-06 -1.22626e-06 -1.57547e-05
0.00217046 -0.000508749 7.49029e-07
-0.000508749 0.000131955 -4.67243e-07
7.49029e-07 -4.67243e-07 -1.30367e-05
0.00217431 -0.000481636 -1.99628e-06
-0.000481636 0.000186363 -6.10299e-07
-1.99628e-06 -6.10299e-07 1.17516e-05
0.0021691 -0.000547374 -3.77446e-07
-0.000547374 0.000197523 8.71127e-07
-3.77446e-07 8.71127e-07 8.83658e-06
0.00222395 -0.000540769 -2.05137e-07
-0.000540769 0.000262702 -1.55086e-07
-2.05137e-07 -1.55086e-07 5.06115e-05
0.00201728 -0.000473953 -4.22872e-06
-0.000473953 0.000223006 -3.15317e-07
-4.22872e-06 -3.15317e-07 -1.97782e-05
0.00219062 -0.000573359 1.71085e-06
-0.000573359 0.000285309 2.78141e-06
1.71085e-06 2.78141e-06 3.79353e-05
0.00206273 -0.000514264 -7.21201e-07
-0.000514264 0.000306808 -2.96468e-08
-7.21201e-07 -2.96468e-08 3.32664e-05
0.00125429 -0.00032802 -1.64254e-05
-0.00032802 2.19588e-05 7.38647e-06
-1.64254e-05 7.38647e-06 -0.000219518
0.000290365 -0.000222944 -1.94127e-05
-0.000222944 -0.000249229 1.93042e-05
-1.94127e-05 1.93042e-05 -0.000404441
0.00122535 -0.000375752 2.65246e-07
-0.000375752 4.30197e-05 1.69431e-08
2.65246e-07 1.69431e-08 -0.000228157
0.0018986 -0.00056507 5.15739e-06
-0.00056507 0.000250165 -3.25755e-07
5.15739e-06 -3.25755e-07 -7.87307e-05
0.00800142 -9.70613e-05 -0.000362746
-9.70613e-05 0.00474984 3.10789e-05
-0.000362746 3.10789e-05 0.00477048
0.000320825 -0.000249499 -1.19116e-06
-0.000249499 -0.000216916 1.23753e-06
-1.19116e-06 1.23753e-06 -0.000379291
0.000952423 -0.000375418 1.89733e-05
-0.000375418 -4.20212e-05 -7.32945e-06
1.89733e-05 -7.32945e-06 -0.000331684
0.00795123 -4.20007e-05 1.27702e-06
-4.20007e-05 0.00473863 1.21424e-06
1.27702e-06 1.21424e-06 0.00475236
0.000522256 -0.000281813 2.62937e-05
-0.000281813 -6.73391e-05 -2.2424e-05
2.62937e-05 -2.2424e-05 -0.000235951
0.00759214 -1.63496e-05 0.000325189
-1.63496e-05 0.00453398 -3.26689e-05
0.000325189 -3.26689e-05 0.00454352
0.00196193 0.000742652 1.17123e-06
0.000742652 0.000218837 8.84741e-06
1.17123e-06 8.84741e-06 -0.000141859
0.00182411 0.000727211 6.33034e-07
0.000727211 0.000295069 4.26033e-07
6.33034e-07 4.26033e-07 -0.000113807
0.00188078 0.000644322 -7.39406e-06
0.000644322 0.000414532 4.44673e-06
-7.39406e-06 4.44673e-06 2.33321e-05
0.0017185 0.000755788 4.42686e-06
0.000755788 0.000402135 -6.06788e-06
4.42686e-06 -6.06788e-06 -7.12006e-05
0.0014908 0.000579683 -6.4477e-07
0.000579683 0.000316707 5.62479e-07
-6.4477e-07 5.62479e-07 -7.79708e-05
0.000935707 0.000302992 -1.51047e-05
0.000302992 8.89116e-05 -3.63657e-06
-1.51047e-05 -3.63657e-06 -0.000169821
0.00151326 0.00043735 2.32169e-06
0.00043735 0.000437469 -1.98404e-06
2.32169e-06 -1.98404e-06 0.000103581
0.000587987 0.000224977 1.06304e-06
0.000224977 -1.46637e-05 6.32177e-07
1.06304e-06 6.32177e-07 -0.000258483
0.000446788 0.000233709 -3.09076e-05
0.000233709 -9.09568e-05 -2.1636e-05
-3.09076e-05 -2.1636e-05 -0.000215442
0.000616115 0.000153407 2.77497e-06
0.000153407 5.90666e-05 6.02682e-06
2.77497e-06 6.02682e-06 -0.000177624
0.000497983 0.000157761 1.0433e-06
0.000157761 -3.97522e-05 -9.43118e-07
1.0433e-06 -9.43118e-07 -0.000142858
0.00613739 -0.000188153 -0.000197
-0.000188153 0.00370559 -2.52838e-05
-0.000197 -2.52838e-05 0.00367215
0.000343417 0.000106944 1.85581e-05
0.000106944 -9.23212e-05 2.00676e-05
1.85581e-05 2.00676e-05 -0.000183224
0.00488221 -0.000195649 -1.3405e-05
-0.000195649 0.00289341 1.6096e-06
-1.3405e-05 1.6096e-06 0.00286515
0.004008 -0.000179855 8.0374e-05
-0.000179855 0.0023139 9.78518e-06
8.0374e-05 9.78518e-06 0.0022939
0.00165993 0.000256201 4.08615e-05
0.000256201 -0.000386547 2.20952e-05
4.08615e-05 2.20952e-05 -6.11266e-05
0.00234668 0.000340522 -2.6858e-05
0.000340522 -0.00155072 -3.42593e-06
-2.6858e-05 -3.42593e-06 -0.000499733
0.0048733 0.000561818 0.00025697
0.000561818 -0.00167656 7.9031e-05
0.00025697 7.9031e-05 0.00057946
0.00259834 0.000876362 -8.81353e-06
0.000876362 0.000423146 5.35154e-07
-8.81353e-06 5.35154e-07 9.59512e-05
0.00203654 0.000901594 -8.01559e-06
0.000901594 0.000283573 -5.51047e-06
-8.01559e-06 -5.51047e-06 -0.00011157
0.00235835 0.000668365 2.22004e-06
0.000668365 0.000230857 5.39095e-06
2.22004e-06 5.39095e-06 -1.08039e-05
0.00233408 0.00081885 1.53263e-06
0.00081885 0.000333202 5.0535e-07
1.53263e-06 5.0535e-07 -7.6315e-06
0.0016521 0.000769366 1.7497e-06
0.000769366 0.000130541 -1.3988e-05
1.7497e-06 -1.3988e-05 -0.000263046
0.00253256 0.000775973 -4.35634e-06
0.000775973 0.000146694 1.10189e-06
-4.35634e-06 1.10189e-06 -4.79616e-05
0.00273826 0.00110889 -9.40729e-06
0.00110889 0.000838543 -7.33991e-06
-9.40729e-06 -7.33991e-06 0.000367755
0.00262721 0.00100685 6.85606e-08
0.00100685 0.000428785 1.8566e-08
6.85606e-08 1.8566e-08 6.48693e-05
0.00218058 0.000485024 -1.77438e-05
0.000485024 -0.00024626 5.03139e-07
-1.77438e-05 5.03139e-07 -0.000180619
0.00339912 0.00124677 -8.23783e-06
0.00124677 0.000955451 1.26319e-05
-8.23783e-06 1.26319e-05 0.000541003
0.00262513 0.000950204 -6.15458e-08
0.000950204 0.000274484 -9.82667e-07
-6.15458e-08 -9.82667e-07 3.63585e-05
0.000642876 0.000449911 -7.01102e-06
0.000449911 -0.000774037 1.57681e-06
-7.01102e-06 1.57681e-06 -0.000603904
-0.00168069 0.000538399 -2.70903e-05
0.000538399 -0.00166774 -1.12988e-05
-2.70903e-05 -1.12988e-05 -0.0018131
0.00381446 0.00131234 -0.000145305
0.00131234 -0.000197105 -5.2359e-05
-0.000145305 -5.2359e-05 0.000208785
0.00250124 0.000155224 2.5797e-07
0.000155224 -0.000153767 -2.01223e-06
2.5797e-07 -2.01223e-06 -3.8782e-06
0.00288516 -6.31399e-05 -2.3325e-06
-6.31399e-05 0.000299763 5.35959e-07
-2.3325e-06 5.35959e-07 0.000469785
0.00281538 -0.000285161 -0.000109414
-0.000285161 -0.000965375 -1.91735e-06
-0.000109414 -1.91735e-06 -0.000142968
0.00163698 -0.000394317 -7.87304e-05
-0.000394317 -0.00086008 1.22438e-05
-7.87304e-05 1.22438e-05 -0.000319095
0.00202072 -0.000112661 -2.00339e-05
-0.000112661 -0.000262754 3.1132e-06
-2.00339e-05 3.1132e-06 -0.000117862
0.00252895 -0.000289737 3.10471e-06
-0.000289737 -0.000195086 -1.07367e-06
3.10471e-06 -1.07367e-06 5.14691e-05
0.00258279 5.66451e-05 -3.45934e-06
5.66451e-05 -0.000136817 2.64608e-07
-3.45934e-06 2.64608e-07 -1.09313e-05
0.0025412 -7.09009e-05 -1.36518e-06
-7.09009e-05 -0.000137592 -6.4464e-07
-1.36518e-06 -6.4464e-07 2.40667e-05
0.00264845 -0.000540894 -3.80743e-06
-0.000540894 -0.000187539 1.57012e-07
-3.80743e-06 1.57012e-07 -1.80813e-05
0.00245478 -0.000342432 3.30397e-07
-0.000342432 -0.000145588 -2.43306e-07
3.30397e-07 -2.43306e-07 -1.66658e-05
0.00237688 -0.000260476 8.27716e-07
-0.000260476 -4.94201e-05 -1.02085e-07
8.27716e-07 -1.02085e-07 3.5579e-05
0.00246584 -0.000486034 -8.17515e-08
-0.000486034 -1.66538e-05 2.87135e-07
-8.17515e-08 2.87135e-07 1.61672e-05
0.00233237 -0.000395538 1.57927e-07
-0.000395538 -1.44151e-05 1.24759e-07
1.57927e-07 1.24759e-07 -2.68194e-06
0.0022251 -0.000334448 -1.83377e-06
-0.000334448 3.89519e-05 6.92694e-07
-1.83377e-06 6.92694e-07 1.30125e-05
0.00229267 -0.000480201 1.17056e-06
-0.000480201 5.29373e-05 -5.05185e-07
1.17056e-06 -5.05185e-07 -6.0319e-06
0.00220769 -0.000432604 5.03889e-07
-0.000432604 8.16164e-05 -7.10362e-08
5.03889e-07 -7.10362e-08 -1.59094e-06
0.00221158 -0.000408497 -3.25699e-06
-0.000408497 0.000157771 6.92088e-07
-3.25699e-06 6.92088e-07 2.87449e-05
0.00216673 -0.000508527 2.08044e-06
-0.000508527 0.000124384 -1.09943e-06
2.08044e-06 -1.09943e-06 -2.08052e-05
0.00215657 -0.000480082 -6.5186e-08
-0.000480082 0.000174028 -3.77888e-07
-6.5186e-08 -3.77888e-07 -7.46198e-07
0.0020427 -0.000425346 -2.79089e-06
-0.000425346 0.000184041 -4.54377e-07
-2.79089e-06 -4.54377e-07 -2.25187e-05
0.00214996 -0.000537041 1.0748e-06
-0.000537041 0.00021481 1.1394e-06
1.0748e-06 1.1394e-06 3.04502e-06
0.00203628 -0.000474967 -6.71898e-07
-0.000474967 0.000237788 1.10905e-07
-6.71898e-07 1.10905e-07 -4.86009e-06
0.00123707 -0.000286927 -1.30077e-05
-0.000286927 -1.15856e-05 6.07861e-06
-1.30077e-05 6.07861e-06 -0.00023018
0.00208533 -0.000518486 4.2074e-06
-0.000518486 0.000320634 5.95375e-07
4.2074e-06 5.95375e-07 4.82461e-05
0.00127749 -0.000329466 1.12248e-07
-0.000329466 3.22495e-05 1.75192e-07
1.12248e-07 1.75192e-07 -0.000208461
0.00286132 -0.000222362 -5.50669e-05
-0.000222362 0.00136734 1.41486e-05
-5.50669e-05 1.41486e-05 0.00124606
0.00254039 -0.000126234 -0.000289574
-0.000126234 0.00127007 4.26641e-05
-0.000289574 4.26641e-05 0.00125197
0.00163481 -0.00024148 -1.60923e-05
-0.00024148 0.000602886 1.59948e-07
-1.60923e-05 1.59948e-07 0.000458403
0.00124969 -0.000374825 1.86271e-05
-0.000374825 6.38463e-05 -7.59722e-06
1.86271e-05 -7.59722e-06 -0.00020609
0.00790348 -0.000103099 -1.1083e-05
-0.000103099 0.00469848 2.33276e-06
-1.1083e-05 2.33276e-06 0.00471303
0.000156532 -0.000271743 2.42091e-05
-0.000271743 -0.000318633 -2.07641e-05
2.42091e-05 -2.07641e-05 -0.000484807
0.00804616 -5.50399e-05 0.000341187
-5.50399e-05 0.00480518 -3.57083e-05
0.000341187 -3.57083e-05 0.00481363
0.00216349 0.000514144 3.47075e-08
0.000514144 0.000112534 1.45032e-06
3.47075e-08 1.45032e-06 -6.19417e-05
0.00226584 0.00067122 3.83408e-06
0.00067122 0.000317526 7.34933e-06
3.83408e-06 7.34933e-06 3.28429e-05
0.00227376 0.000767155 5.88916e-07
0.000767155 0.000413265 1.04417e-07
5.88916e-07 1.04417e-07 5.25221e-05
0.00203225 0.000647823 -5.29814e-06
0.000647823 0.00039047 4.65068e-06
-5.29814e-06 4.65068e-06 3.01394e-05
0.00192836 0.000747501 6.49223e-06
0.000747501 0.000359961 -7.10452e-06
6.49223e-06 -7.10452e-06 -5.14495e-05
0.00177595 0.000638642 -1.2428e-07
0.000638642 0.000337601 9.591e-07
-1.2428e-07 9.591e-07 -5.45262e-05
0.00072865 0.000344741 -2.50125e-05
0.000344741 -0.000136093 -4.8617e-06
-2.50125e-05 -4.8617e-06 -0.000412056
0.00149038 0.000580241 9.63853e-06
0.000580241 0.000311883 -1.4458e-06
9.63853e-06 -1.4458e-06 -8.40371e-05
0.000651242 0.000290785 -4.78767e-07
0.000290785 -7.52516e-05 -4.10825e-07
-4.78767e-07 -4.10825e-07 -0.000330309
0.000378031 0.000290287 -3.00791e-05
0.000290287 -0.000141191 -2.22696e-05
-3.00791e-05 -2.22696e-05 -0.000297344
0.000370448 0.000198869 8.32028e-06
0.000198869 -0.000155513 -5.41994e-07
8.32028e-06 -5.41994e-07 -0.000389749
0.000385901 0.000206952 3.88189e-06
0.000206952 -0.000128919 -1.56012e-06
3.88189e-06 -1.56012e-06 -0.000252039
0.00730126 -8.27836e-05 -0.000280044
-8.27836e-05 0.00439249 -2.99108e-05
-0.000280044 -2.99108e-05 0.0043819
0.000485136 0.000143178 2.61001e-05
0.000143178 -4.29277e-05 1.94848e-05
2.61001e-05 1.94848e-05 -0.000142522
0.00578324 -0.000172737 2.72182e-06
-0.000172737 0.00345528 -1.94847e-06
2.72182e-06 -1.94847e-06 0.00343319
0.00451753 -0.00020989 0.00010368
-0.00020989 0.00266437 1.36803e-05
0.00010368 1.36803e-05 0.00263201
0.0024665 0.000237864 -7.21433e-06
0.000237864 -0.000225571 -3.0723e-07
-7.21433e-06 -3.0723e-07 -2.4513e-05
0.00183633 0.000204457 1.39757e-05
0.000204457 -0.000496756 -3.56372e-06
1.39757e-05 -3.56372e-06 -7.38759e-05
0.00456575 0.000463449 -0.000133354
0.000463449 -0.000652514 -5.59821e-06
-0.000133354 -5.59821e-06 0.000449052
0.00240381 0.000620975 -2.53138e-06
0.000620975 0.000164001 1.44771e-06
-2.53138e-06 1.44771e-06 -4.62041e-06
0.00244522 0.000847766 -4.37951e-06
0.000847766 0.000374765 -4.96397e-07
-4.37951e-06 -4.96397e-07 5.43182e-05
0.00199021 0.000917906 -3.2423e-06
0.000917906 0.000237044 -1.1033e-05
-3.2423e-06 -1.1033e-05 -0.000155356
0.00238674 0.000656699 2.41668e-06
0.000656699 0.000265092 1.53387e-06
2.41668e-06 1.53387e-06 2.63748e-05
0.00243669 0.000818975 -8.12928e-07
0.000818975 0.000401743 -6.62138e-06
-8.12928e-07 -6.62138e-06 6.27702e-05
0.00260945 0.000491467 -5.05741e-07
0.000491467 -8.76686e-06 6.23104e-07
-5.05741e-07 6.23104e-07 3.25948e-05
0.00250357 0.000777153 -6.43605e-07
0.000777153 0.000146414 -1.42477e-07
-6.43605e-07 -1.42477e-07 -4.7049e-05
0.00287027 0.00100514 -4.87594e-06
0.00100514 0.00058828 -4.02506e-06
-4.87594e-06 -4.02506e-06 0.000220745
0.00217589 0.000465864 1.05917e-07
0.000465864 -0.000209592 -3.03079e-07
1.05917e-07 -3.03079e-07 -0.000141527
0.00243002 0.000920706 1.64629e-05
0.000920706 0.000159399 6.57795e-07
1.64629e-05 6.57795e-07 -7.90764e-05
-0.000225628 0.000404437 -4.39744e-05
0.000404437 -0.00130657 -1.75868e-05
-4.39744e-05 -1.75868e-05 -0.00108805
0.00247634 0.000103202 3.16683e-07
0.000103202 -9.67782e-05 -1.70823e-07
3.16683e-07 -1.70823e-07 2.88696e-05
0.00237989 0.000157212 -8.58204e-07
0.000157212 -0.000241482 1.4263e-06
-8.58204e-07 1.4263e-06 -8.88757e-05
0.0029449 -4.7836e-05 -5.75389e-05
-4.7836e-05 0.000420219 -6.34509e-06
-5.75389e-05 -6.34509e-06 0.000519245
0.00241213 -0.000288774 -2.39808e-05
-0.000288774 -0.000291746 4.86189e-06
-2.39808e-05 4.86189e-06 -1.20406e-05
0.00278121 7.08966e-05 -8.90162e-07
7.08966e-05 -3.0226e-05 9.70117e-07
-8.90162e-07 9.70117e-07 9.00803e-05
0.00251287 -8.05713e-05 -5.532e-07
-8.05713e-05 -0.000170751 -6.96303e-07
-5.532e-07 -6.96303e-07 -4.00858e-06
0.00223299 -7.54036e-05 2.03419e-07
-7.54036e-05 -7.24566e-05 -9.81043e-08
2.03419e-07 -9.81043e-08 4.04069e-07
0.00239511 -0.000327508 6.77035e-07
-0.000327508 -0.000163315 -4.74902e-07
6.77035e-07 -4.74902e-07 -4.35083e-05
0.00232883 -0.000267166 -4.26817e-08
-0.000267166 -7.5051e-05 -7.10983e-09
-4.26817e-08 -7.10983e-09 2.59234e-06
0.00216537 -0.000223543 -3.49558e-07
-0.000223543 -1.56321e-05 -8.83466e-08
-3.49558e-07 -8.83466e-08 -9.78615e-06
0.0023313 -0.000392907 -2.02658e-07
-0.000392907 -1.20271e-05 3.54725e-07
-2.02658e-07 3.54725e-07 -2.13948e-06
0.00221675 -0.000334567 5.31396e-08
-0.000334567 2.95681e-05 1.98765e-07
5.31396e-08 1.98765e-07 3.61809e-06
0.0022544 -0.000323737 -4.65626e-06
-0.000323737 0.000122406 1.32033e-06
-4.65626e-06 1.32033e-06 4.39281e-05
0.00220404 -0.000433598 2.7056e-06
-0.000433598 7.46805e-05 -9.61379e-07
2.7056e-06 -9.61379e-07 -8.65332e-06
0.00215212 -0.000403638 2.29604e-07
-0.000403638 0.000119055 -3.71907e-07
2.29604e-07 -3.71907e-07 -9.51354e-06
0.00202308 -0.000351906 -1.81513e-06
-0.000351906 0.000126656 -5.76481e-07
-1.81513e-06 -5.76481e-07 -3.9616e-05
0.0021329 -0.000478276 2.44444e-06
-0.000478276 0.000157582 -2.61124e-07
2.44444e-06 -2.61124e-07 -1.73481e-05
0.00207897 -0.000427533 -6.36995e-07
-0.000427533 0.000210734 7.09669e-08
-6.36995e-07 7.09669e-08 4.04435e-06
0.00123941 -0.000249976 -9.94795e-06
-0.000249976 -3.20127e-05 4.65556e-06
-9.94795e-06 4.65556e-06 -0.00023183
0.0020538 -0.000475794 3.27374e-06
-0.000475794 0.000251821 2.62355e-07
3.27374e-06 2.62355e-07 9.35174e-06
0.00128161 -0.000290361 -1.10071e-07
-0.000290361 7.85142e-06 2.07474e-07
-1.10071e-07 2.07474e-07 -0.000210214
0.00286028 -0.000209501 -6.28034e-05
-0.000209501 0.00136206 1.37677e-05
-6.28034e-05 1.37677e-05 0.00125136
0.00129201 -0.000330826 1.54733e-05
-0.000330826 3.66195e-05 -6.9229e-06
1.54733e-05 -6.9229e-06 -0.000203433
0.00300087 -0.000258258 5.36301e-05
-0.000258258 0.0014587 -8.93975e-06
5.36301e-05 -8.93975e-06 0.00134661
0.00249264 -0.000156496 -0.00028471
-0.000156496 0.00124717 4.71724e-05
-0.00028471 4.71724e-05 0.00122661
0.00495113 -0.000154686 -0.000279725
-0.000154686 0.00282685 3.24526e-05
-0.000279725 3.24526e-05 0.0028239
0.00307918 -0.000320471 0.00017762
-0.000320471 0.00153 -3.07016e-05
0.00017762 -3.07016e-05 0.00141454
0.00780948 -0.000116888 0.000343024
-0.000116888 0.00464856 -3.94734e-05
0.000343024 -3.94734e-05 0.00465951
0.0023078 0.00049922 -1.72849e-06
0.00049922 0.000159435 -3.0785e-07
-1.72849e-06 -3.0785e-07 3.40996e-05
0.00212158 0.000531246 -1.18671e-07
0.000531246 0.000191854 2.41042e-06
-1.18671e-07 2.41042e-06 -2.12883e-05
0.00219774 0.00050736 3.18134e-07
0.00050736 0.000142364 -9.4929e-07
3.18134e-07 -9.4929e-07 -2.3571e-05
0.00203676 0.000573314 -3.91472e-06
0.000573314 0.000282057 4.19051e-06
-3.91472e-06 4.19051e-06 -1.74145e-05
0.00233212 0.000679125 5.35296e-07
0.000679125 0.000345037 1.93277e-07
5.35296e-07 1.93277e-07 5.98762e-05
0.00257992 0.000791923 -1.12345e-06
0.000791923 0.00060466 -7.87795e-06
-1.12345e-06 -7.87795e-06 0.00024366
0.00193798 0.000641427 8.01491e-07
0.000641427 0.000325681 3.56125e-07
8.01491e-07 3.56125e-07 -3.47942e-05
0.00122681 0.000404652 -3.03579e-05
0.000404652 8.56539e-05 -6.72837e-06
-3.03579e-05 -6.72837e-06 -0.000196693
0.00172423 0.000637153 9.57389e-06
0.000637153 0.000297035 -2.29108e-06
9.57389e-06 -2.29108e-06 -9.6778e-05
0.00100153 0.000362062 -3.12879e-06
0.000362062 3.15714e-05 1.94325e-07
-3.12879e-06 1.94325e-07 -0.000244412
0.000164996 0.000280559 -2.8062e-05
0.000280559 -0.00029589 -2.03141e-05
-2.8062e-05 -2.03141e-05 -0.000459988
0.000772864 0.000288168 1.54971e-05
0.000288168 1.10292e-05 3.34286e-06
1.54971e-05 3.34286e-06 -0.000239431
0.000234657 0.000244548 2.01437e-06
0.000244548 -0.000235706 1.26268e-06
2.01437e-06 1.26268e-06 -0.00038469
0.00805241 1.01282e-05 -0.00032406
1.01282e-05 0.00483368 -3.59468e-05
-0.00032406 -3.59468e-05 0.00483147
0.000172313 0.000167916 2.62258e-05
0.000167916 -0.00026489 2.06581e-05
2.62258e-05 2.06581e-05 -0.000383072
0.00683025 -0.000123956 6.41776e-06
-0.000123956 0.00409456 -2.63788e-06
6.41776e-06 -2.63788e-06 0.00408115
0.00542915 -0.000208913 0.000144615
-0.000208913 0.0032409 1.4251e-05
0.000144615 1.4251e-05 0.00320983
0.00251383 0.000283631 7.00635e-07
0.000283631 -8.05936e-05 6.90211e-07
7.00635e-07 6.90211e-07 3.27331e-05
0.00233586 0.000240685 2.17896e-06
0.000240685 -0.000255927 -6.68917e-07
2.17896e-06 -6.68917e-07 -5.55547e-05
0.00170477 0.000152786 -6.82904e-05
0.000152786 -0.000779722 -1.19477e-05
-6.82904e-05 -1.19477e-05 -0.000254314
0.00234899 0.000436976 1.50927e-06
0.000436976 2.26913e-06 7.97133e-07
1.50927e-06 7.97133e-07 -1.61932e-05
0.00233827 0.000613334 -9.87251e-07
0.000613334 0.000141582 4.92314e-08
-9.87251e-07 4.92314e-08 -2.47423e-05
0.00223276 0.000812775 6.94328e-06
0.000812775 0.000290667 -3.16419e-06
6.94328e-06 -3.16419e-06 -2.18446e-05
0.00242751 0.000645487 -1.05154e-06
0.000645487 0.000307111 -3.4506e-06
-1.05154e-06 -3.4506e-06 7.1504e-05
0.00254353 0.000472707 -1.11711e-06
0.000472707 -3.23973e-05 -1.87992e-07
-1.11711e-06 -1.87992e-07 1.04172e-05
0.00242544 0.000774383 -1.77577e-06
0.000774383 0.000118835 -1.5908e-07
-1.77577e-06 -1.5908e-07 -7.22406e-05
0.0020383 0.000445037 1.61734e-05
0.000445037 -0.000212529 -1.19674e-06
1.61734e-05 -1.19674e-06 -0.000142847
0.00227819 7.776e-05 2.27661e-06
7.776e-05 -5.28248e-05 1.88956e-07
2.27661e-06 1.88956e-07 1.05717e-05
0.00242843 9.90721e-05 2.35467e-07
9.90721e-05 -0.000111354 1.31855e-07
2.35467e-07 1.31855e-07 1.07745e-05
0.00228283 0.000164848 -8.18948e-06
0.000164848 -0.000308331 -1.58485e-06
-8.18948e-06 -1.58485e-06 -0.000153071
0.00213142 -1.29852e-05 -1.43323e-06
-1.29852e-05 -3.98486e-05 6.88282e-08
-1.43323e-06 6.88282e-08 -3.77121e-06
0.0025207 -9.65187e-05 2.00803e-06
-9.65187e-05 -0.000176508 4.47194e-07
2.00803e-06 4.47194e-07 -4.96816e-06
0.00224027 -7.91224e-05 -3.72811e-07
-7.91224e-05 -7.00012e-05 4.22519e-07
-3.72811e-07 4.22519e-07 2.12149e-06
0.00210484 -0.000118436 -1.85295e-06
-0.000118436 -3.94652e-05 3.50691e-07
-1.85295e-06 3.50691e-07 -2.33573e-05
0.00227992 -0.000273719 -4.93235e-07
-0.000273719 -0.000100527 1.37438e-07
-4.93235e-07 1.37438e-07 -3.08453e-05
0.00217047 -0.000220296 9.21123e-07
-0.000220296 -1.18917e-05 -4.15944e-07
9.21123e-07 -4.15944e-07 -5.19498e-06
0.0022554 -0.000227623 -3.72091e-06
-0.000227623 9.33082e-05 3.15288e-07
-3.72091e-06 3.15288e-07 4.98834e-05
0.00221017 -0.000334381 2.11771e-06
-0.000334381 2.1391e-05 -4.9824e-07
2.11771e-06 -4.9824e-07 -4.51975e-06
0.00221984 -0.000319265 3.88948e-07
-0.000319265 0.000104354 -7.93489e-08
3.88948e-07 -7.93489e-08 2.61445e-05
0.00202965 -0.000269905 -1.00181e-06
-0.000269905 0.000103302 -6.75569e-07
-1.00181e-06 -6.75569e-07 -2.56643e-05
0.00209622 -0.000398658 3.63064e-06
-0.000398658 8.3345e-05 -1.3936e-06
3.63064e-06 -1.3936e-06 -4.46863e-05
0.00208913 -0.000355916 -5.8788e-07
-0.000355916 0.00016855 1.03478e-07
-5.8788e-07 1.03478e-07 1.88449e-06
0.00126256 -0.000208036 -7.44578e-06
-0.000208036 -2.92987e-05 3.15269e-06
-7.44578e-06 3.15269e-06 -0.000210677
0.00211659 -0.000429589 2.3121e-06
-0.000429589 0.000238793 2.06704e-07
2.3121e-06 2.06704e-07 3.20316e-05
0.00128907 -0.000252265 -3.14418e-07
-0.000252265 -1.01807e-05 2.63578e-07
-3.14418e-07 2.63578e-07 -0.000209028
0.00279526 -0.000192983 -6.91453e-05
-0.000192983 0.00132515 1.30379e-05
-6.91453e-05 1.30379e-05 0.00122108
0.00131997 -0.000293661 1.21258e-05
-0.000293661 2.29044e-05 -5.7496e-06
1.21258e-05 -5.7496e-06 -0.000194607
0.0029446 -0.000228528 4.92265e-05
-0.000228528 0.00141621 -7.00719e-06
4.92265e-05 -7.00719e-06 0.00131503
0.00249297 -0.000132685 -0.000278109
-0.000132685 0.00123783 4.11719e-05
-0.000278109 4.11719e-05 0.00122005
0.00311979 -0.000263828 0.000168922
-0.000263828 0.00152935 -3.11487e-05
0.000168922 -3.11487e-05 0.0014297
0.00208923 -9.28285e-05 -0.000112607
-9.28285e-05 0.000990472 1.74547e-05
-0.000112607 1.74547e-05 0.000954956
0.0071764 -5.39534e-05 0.000114913
-5.39534e-05 0.00422887 -7.05457e-06
0.000114913 -7.05457e-06 0.00420955
0.00229343 0.000423134 -1.14922e-06
0.000423134 0.00010823 -9.9181e-08
-1.14922e-06 -9.9181e-08 3.42862e-05
0.00221968 0.000474403 -3.69274e-06
0.000474403 0.000179905 -5.21033e-07
-3.69274e-06 -5.21033e-07 1.67009e-05
0.00230082 0.000498909 -3.18459e-06
0.000498909 0.000150532 -6.40561e-09
-3.18459e-06 -6.40561e-09 2.34965e-05
0.00202637 0.000489475 -2.77426e-06
0.000489475 0.000209061 1.48888e-06
-2.77426e-06 1.48888e-06 -3.97643e-05
0.00208041 0.000537081 -1.31213e-06
0.000537081 0.000144527 -2.47419e-06
-1.31213e-06 -2.47419e-06 -6.36367e-05
0.00221884 0.000499462 -3.38511e-06
0.000499462 0.000163535 -3.55759e-06
-3.38511e-06 -3.55759e-06 6.47274e-06
0.00134828 0.000372277 -2.54249e-05
0.000372277 5.89435e-05 -6.49391e-06
-2.54249e-05 -6.49391e-06 -0.0001937
0.00199556 0.000570402 1.43148e-06
0.000570402 0.000255883 4.37058e-07
1.43148e-06 4.37058e-07 -4.36681e-05
0.00239039 0.000686112 1.49029e-06
0.000686112 0.000366952 -6.5887e-06
1.49029e-06 -6.5887e-06 8.15348e-05
0.00182917 0.000634918 6.9331e-06
0.000634918 0.000249239 -3.95731e-06
6.9331e-06 -3.95731e-06 -0.000111619
0.00118006 0.000400643 -1.14279e-06
0.000400643 4.99298e-05 -9.68254e-08
-1.14279e-06 -9.68254e-08 -0.000232023
0.000297545 0.000264388 -2.55366e-05
0.000264388 -0.000231188 -1.85419e-05
-2.55366e-05 -1.85419e-05 -0.00039298
0.00108462 0.000367724 2.58408e-05
0.000367724 8.02507e-05 7.98193e-06
2.58408e-05 7.98193e-06 -0.000194177
0.000292366 0.000273016 1.29048e-06
0.000273016 -0.000211839 1.51252e-06
1.29048e-06 1.51252e-06 -0.000376139
0.00793798 0.000101029 -0.000331327
0.000101029 0.00474584 -4.2244e-05
-0.000331327 -4.2244e-05 0.00474467
0.000347854 0.000224509 2.43358e-05
0.000224509 -0.000170957 2.23821e-05
2.43358e-05 2.23821e-05 -0.000316345
0.00772541 -3.3965e-05 6.63952e-06
-3.3965e-05 0.00462228 -3.18777e-08
6.63952e-06 -3.18777e-08 0.00462243
0.0065061 -0.000154548 0.000205601
-0.000154548 0.00388696 1.41345e-05
0.000205601 1.41345e-05 0.0038727
0.00227785 0.000228948 7.99007e-07
0.000228948 -3.95061e-05 1.13846e-07
7.99007e-07 1.13846e-07 3.64578e-06
0.00247867 0.000289573 -6.03652e-07
0.000289573 -0.000115505 7.77663e-07
-6.03652e-07 7.77663e-07 7.24328e-07
0.00228255 0.00024065 2.62688e-06
0.00024065 -0.000269517 1.96916e-08
2.62688e-06 1.96916e-08 -6.80301e-05
0.00234686 0.000431451 7.94539e-08
0.000431451 2.12685e-06 1.98664e-07
7.94539e-08 1.98664e-07 -1.38331e-05
0.00228351 0.000605959 1.62296e-07
0.000605959 0.000128246 -1.23209e-06
1.62296e-07 -1.23209e-06 -3.59285e-05
0.00251512 0.000456562 2.61681e-06
0.000456562 -4.07453e-05 -3.8949e-07
2.61681e-06 -3.8949e-07 2.50699e-06
0.00217589 7.14768e-05 7.85549e-07
7.14768e-05 -2.27396e-05 1.38483e-07
7.85549e-07 1.38483e-07 6.63408e-06
0.00226408 7.53433e-05 3.96848e-07
7.53433e-05 -5.89017e-05 -2.16586e-07
3.96848e-07 -2.16586e-07 5.38928e-06
0.0023569 9.49203e-05 -9.01962e-07
9.49203e-05 -0.000144033 -6.82553e-08
-9.01962e-07 -6.82553e-08 -2.40326e-05
0.00214169 -1.05226e-05 -7.90042e-07
-1.05226e-05 -3.24089e-05 1.10417e-08
-7.90042e-07 1.10417e-08 1.50984e-06
0.00210226 -3.5737e-05 -4.36867e-06
-3.5737e-05 1.00278e-05 4.42761e-07
-4.36867e-06 4.42761e-07 1.77553e-05
0.00224626 -8.24718e-05 -6.32678e-07
-8.24718e-05 -6.90702e-05 1.37766e-07
-6.32678e-07 1.37766e-07 2.71479e-06
0.00212275 -0.000118766 -1.44398e-06
-0.000118766 -2.13565e-05 2.61288e-07
-1.44398e-06 2.61288e-07 -9.12256e-06
0.00216121 -0.000144636 -6.08554e-06
-0.000144636 3.30978e-05 7.21912e-07
-6.08554e-06 7.21912e-07 5.23252e-06
0.00217394 -0.000217293 2.48935e-06
-0.000217293 -9.06046e-06 -8.21714e-07
2.48935e-06 -8.21714e-07 -1.58158e-06
0.00223891 -0.000228278 2.1094e-06
-0.000228278 8.67736e-05 -4.7424e-07
2.1094e-06 -4.7424e-07 4.31459e-05
0.00204127 -0.000201738 2.94718e-07
-0.000201738 9.12012e-05 -4.58295e-07
2.94718e-07 -4.58295e-07 -1.2307e-05
0.00216998 -0.00031537 4.60353e-06
-0.00031537 7.61007e-05 -1.38188e-06
4.60353e-06 -1.38188e-06 -1.98278e-06
0.00206742 -0.000273896 -4.27991e-07
-0.000273896 0.000116994 -1.63348e-07
-4.27991e-07 -1.63348e-07 -1.24073e-05
0.00123003 -0.000165056 -6.56316e-06
-0.000165056 -4.70098e-05 1.99491e-06
-6.56316e-06 1.99491e-06 -0.000212236
0.00215579 -0.00036005 1.90382e-06
-0.00036005 0.000210504 3.18591e-07
1.90382e-06 3.18591e-07 4.34158e-05
0.00128262 -0.000207078 -3.67248e-07
-0.000207078 -2.41538e-05 2.31175e-07
-3.67248e-07 2.31175e-07 -0.000204153
0.00268621 -0.000183852 -7.06089e-05
-0.000183852 0.00126449 1.10165e-05
-7.06089e-05 1.10165e-05 0.00116595
0.00133947 -0.000254743 9.15249e-06
-0.000254743 1.17366e-05 -4.23428e-06
9.15249e-06 -4.23428e-06 -0.000186135
0.00287005 -0.000191353 4.68949e-05
-0.000191353 0.00136776 -5.3822e-06
4.68949e-05 -5.3822e-06 0.00127511
0.00246102 -0.000108879 -0.000274031
-0.000108879 0.00121192 3.42657e-05
-0.000274031 3.42657e-05 0.0011957
0.00302986 -0.000218963 0.000164604
-0.000218963 0.00146182 -2.64755e-05
0.000164604 -2.64755e-05 0.00137422
0.002074 -9.14411e-05 -0.000102561
-9.14411e-05 0.000976261 1.37909e-05
-0.000102561 1.37909e-05 0.000942823
0.00174536 -8.85818e-05 7.08648e-05
-8.85818e-05 0.000785821 -1.19165e-05
7.08648e-05 -1.19165e-05 0.00072949
0.00218524 0.00026483 -6.85614e-07
0.00026483 5.65629e-06 -5.07036e-07
-6.85614e-07 -5.07036e-07 -1.28644e-05
0.002215 0.000386881 -4.40072e-06
0.000386881 0.000127395 -4.38291e-07
-4.40072e-06 -4.38291e-07 1.6078e-05
0.00226414 0.000423273 -3.74513e-07
0.000423273 6.99777e-05 -1.75809e-07
-3.74513e-07 -1.75809e-07 5.67852e-06
0.00212926 0.000445771 -3.11909e-07
0.000445771 0.000199609 1.25983e-06
-3.11909e-07 1.25983e-06 -4.86084e-06
0.00222461 0.000473068 -1.73944e-06
0.000473068 0.000191039 -6.16131e-07
-1.73944e-06 -6.16131e-07 2.59002e-05
0.00229669 0.000499742 2.21713e-06
0.000499742 0.000143277 -1.96956e-08
2.21713e-06 -1.96956e-08 1.40933e-05
0.00134953 0.0003168 -1.86877e-05
0.0003168 2.09812e-05 -5.49737e-06
-1.86877e-05 -5.49737e-06 -0.000201093
0.00198613 0.000493242 1.40518e-06
0.000493242 0.000174401 -6.09549e-07
1.40518e-06 -6.09549e-07 -6.9204e-05
0.00206192 0.000545245 -2.12846e-06
0.000545245 0.000111845 -6.0105e-06
-2.12846e-06 -6.0105e-06 -9.20152e-05
0.000309897 0.000211924 -2.24027e-05
0.000211924 -0.000251531 -1.5785e-05
-2.24027e-05 -1.5785e-05 -0.000396521
0.0012996 0.000367236 -3.15256e-07
0.000367236 3.28209e-05 1.15022e-07
-3.15256e-07 1.15022e-07 -0.000219674
0.00195223 0.000567414 5.72489e-06
0.000567414 0.000228036 -3.54823e-06
5.72489e-06 -3.54823e-06 -7.16213e-05
0.00118919 0.000399467 3.14087e-05
0.000399467 5.47588e-05 7.39829e-06
3.14087e-05 7.39829e-06 -0.0002269
0.000280304 0.000250982 4.54499e-07
0.000250982 -0.000237357 9.55235e-07
4.54499e-07 9.55235e-07 -0.000398928
0.00766778 0.000199357 -0.000334883
0.000199357 0.00456507 -4.6674e-05
-0.000334883 -4.6674e-05 0.00456415
0.000350553 0.000254633 2.48462e-05
0.000254633 -0.000170764 1.87507e-05
2.48462e-05 1.87507e-05 -0.000333194
0.00795671 7.77524e-05 8.30861e-06
7.77524e-05 0.00474552 1.01204e-06
8.30861e-06 1.01204e-06 0.00475306
0.0074644 -6.92956e-05 0.000270775
-6.92956e-05 0.004453 1.89503e-05
0.000270775 1.89503e-05 0.00445345
0.0021946 0.000138554 -1.02401e-06
0.000138554 6.32715e-06 -2.59627e-07
-1.02401e-06 -2.59627e-07 2.73837e-05
0.00225779 0.000233441 6.61131e-07
0.000233441 -5.64947e-05 4.3179e-07
6.61131e-07 4.3179e-07 -1.59591e-05
0.00243303 0.000295638 5.52275e-08
0.000295638 -0.000150602 -8.72791e-07
5.52275e-08 -8.72791e-07 -3.20915e-05
0.00234376 0.000425011 7.04749e-07
0.000425011 1.05412e-06 -8.89954e-07
7.04749e-07 -8.89954e-07 -1.17742e-05
0.0020699 2.74498e-05 -4.39588e-06
2.74498e-05 1.8635e-05 3.6452e-07
-4.39588e-06 3.6452e-07 7.75727e-06
0.00217376 6.26483e-05 -1.48206e-08
6.26483e-05 -2.45837e-05 -8.2063e-08
-1.48206e-08 -8.2063e-08 6.35375e-06
0.00225567 7.27719e-05 -1.57525e-06
7.27719e-05 -6.03969e-05 6.83576e-08
-1.57525e-06 6.83576e-08 3.99845e-06
0.00214779 -7.43636e-06 -1.52642e-06
-7.43636e-06 -2.72848e-05 -5.21904e-08
-1.52642e-06 -5.21904e-08 4.35591e-06
0.00210902 -3.01028e-05 -7.48246e-07
-3.01028e-05 9.09277e-06 -1.99596e-07
-7.48246e-07 -1.99596e-07 1.89216e-05
0.00198541 -6.24602e-05 -5.42232e-06
-6.24602e-05 -5.94098e-05 6.61879e-07
-5.42232e-06 6.61879e-07 -9.3875e-05
0.00214022 -0.000119271 2.15672e-06
-0.000119271 -3.47579e-06 -1.39112e-07
2.15672e-06 -1.39112e-07 4.82787e-06
0.00212573 -0.000146044 -1.80366e-06
-0.000146044 1.61336e-05 3.47664e-07
-1.80366e-06 3.47664e-07 -1.92409e-05
0.00221817 -0.000142298 -1.78712e-06
-0.000142298 0.000198624 1.56141e-07
-1.78712e-06 1.56141e-07 0.000116885
0.00223487 -0.000228303 7.63549e-06
-0.000228303 8.75256e-05 -1.25548e-06
7.63549e-06 -1.25548e-06 4.38519e-05
0.00205463 -0.000200459 9.83828e-07
-0.000200459 9.16523e-05 -4.54634e-07
9.83828e-07 -4.54634e-07 -1.09767e-05
0.00117321 -0.000123883 -7.77402e-06
-0.000123883 -6.96106e-05 1.34753e-06
-7.77402e-06 1.34753e-06 -0.000222275
0.00211462 -0.000276127 1.47202e-06
-0.000276127 0.000137142 -1.76325e-08
1.47202e-06 -1.76325e-08 7.72024e-06
0.00122055 -0.000162492 -1.57863e-07
-0.000162492 -5.27112e-05 1.11524e-08
-1.57863e-07 1.11524e-08 -0.000216729
0.000317797 -9.46036e-05 -1.83097e-05
-9.46036e-05 -0.00025851 6.40919e-06
-1.83097e-05 6.40919e-06 -0.000365405
0.0012961 -0.000205788 6.57112e-06
-0.000205788 -2.33658e-05 -2.76377e-06
6.57112e-06 -2.76377e-06 -0.000201949
0.00157468 -0.000122841 6.89485e-05
-0.000122841 0.000540324 -5.63533e-06
6.89485e-05 -5.63533e-06 0.000446611
0.00694374 -0.000179276 -0.000362269
-0.000179276 0.00409528 2.87207e-05
-0.000362269 2.87207e-05 0.00411869
0.00295035 -0.000172843 0.000160272
-0.000172843 0.00140828 -2.07532e-05
0.000160272 -2.07532e-05 0.00132944
0.00204723 -8.52106e-05 -9.27622e-05
-8.52106e-05 0.000959754 8.94075e-06
-9.27622e-05 8.94075e-06 0.000926185
0.00166467 -0.000107705 8.2895e-05
-0.000107705 0.000739358 -1.37623e-05
8.2895e-05 -1.37623e-05 0.000681926
0.00212789 0.000175531 -2.24809e-06
0.000175531 1.859e-05 -9.39953e-07
-2.24809e-06 -9.39953e-07 2.05319e-06
0.00220338 0.000298754 -2.90454e-06
0.000298754 8.8256e-05 -3.76286e-07
-2.90454e-06 -3.76286e-07 1.53038e-05
0.00218722 0.000257553 -2.45235e-07
0.000257553 1.88229e-05 -9.53391e-08
-2.45235e-07 -9.53391e-08 -5.36633e-06
0.00207932 0.000353703 -9.4089e-07
0.000353703 0.000126707 1.32675e-06
-9.4089e-07 1.32675e-06 -2.74294e-05
0.00221375 0.000386855 6.5013e-07
0.000386855 0.000127906 6.99845e-08
6.5013e-07 6.99845e-08 1.69189e-05
0.00223283 0.00042331 3.21997e-07
0.00042331 3.05129e-05 -5.31278e-07
3.21997e-07 -5.31278e-07 -2.42902e-05
0.00139282 0.000276456 -1.32065e-05
0.000276456 3.01302e-05 -3.0776e-06
-1.32065e-05 -3.0776e-06 -0.000163208
0.00211996 0.000441295 1.74169e-06
0.000441295 0.000194894 2.34696e-07
1.74169e-06 2.34696e-07 -7.75366e-06
0.00222125 0.000470468 1.43632e-06
0.000470468 0.000197316 -1.48564e-06
1.43632e-06 -1.48564e-06 3.08341e-05
0.000334205 0.000151438 -1.92745e-05
0.000151438 -0.000255883 -1.21608e-05
-1.92745e-05 -1.21608e-05 -0.000382339
0.00129351 0.000313114 5.14113e-07
0.000313114 -1.06604e-05 5.33937e-07
5.14113e-07 5.33937e-07 -0.00022943
0.00192828 0.000494267 5.72542e-06
0.000494267 0.000129299 -3.61064e-06
5.72542e-06 -3.61064e-06 -0.000108333
0.00742479 0.000265492 -0.000340745
0.000265492 0.00440407 -4.60921e-05
-0.000340745 -4.60921e-05 0.00440574
0.000299948 0.000205917 -7.12203e-08
0.000205917 -0.000260287 7.06567e-07
-7.12203e-08 7.06567e-07 -0.000405936
0.00124097 0.00036175 2.6716e-05
0.00036175 3.5569e-07 7.0215e-06
2.6716e-05 7.0215e-06 -0.000251974
0.000233298 0.000234822 2.2499e-05
0.000234822 -0.000264267 1.81495e-05
2.2499e-05 1.81495e-05 -0.000425426
0.00771317 0.000192007 1.11961e-05
0.000192007 0.00458852 2.26595e-06
1.11961e-05 2.26595e-06 0.00459368
0.00786347 4.13884e-05 0.000327413
4.13884e-05 0.00467321 2.62796e-05
0.000327413 2.62796e-05 0.00468605
0.00205644 8.37629e-05 -5.94113e-06
8.37629e-05 1.69372e-05 -6.33028e-08
-5.94113e-06 -6.33028e-08 -9.55616e-08
0.00218375 0.000133851 5.09015e-09
0.000133851 7.31634e-07 -2.97367e-08
5.09015e-09 -2.97367e-08 1.97732e-05
0.00223644 0.000237803 -3.17182e-07
0.000237803 -7.49499e-05 -1.09788e-07
-3.17182e-07 -1.09788e-07 -3.65265e-05
0.00198791 7.34435e-06 -7.14429e-06
7.34435e-06 -3.16666e-05 3.47243e-07
-7.14429e-06 3.47243e-07 -7.49784e-05
0.00205656 3.29694e-05 7.10946e-07
3.29694e-05 5.78111e-06 -6.64071e-09
7.10946e-07 -6.64071e-09 -1.68505e-06
0.00217364 5.28366e-05 -1.25922e-06
5.28366e-05 -2.55451e-05 2.28523e-08
-1.25922e-06 2.28523e-08 7.10831e-06
0.00211875 -2.47507e-05 2.41474e-06
-2.47507e-05 9.6728e-06 -2.96604e-07
2.41474e-06 -2.96604e-07 2.18499e-05
0.00203632 -6.14751e-05 -8.70679e-07
-6.14751e-05 -2.30866e-05 2.88108e-08
-8.70679e-07 2.88108e-08 -5.62166e-05
0.00195714 -6.99655e-05 -2.03359e-06
-6.99655e-05 4.28104e-05 7.85042e-08
-2.03359e-06 7.85042e-08 -4.46654e-05
0.00210035 -0.000147659 4.11212e-06
-0.000147659 7.22193e-06 -3.50228e-07
4.11212e-06 -3.50228e-07 -3.57108e-05
0.00205159 -0.000142341 7.79509e-07
-0.000142341 9.16369e-05 -5.01407e-08
7.79509e-07 -5.01407e-08 1.04235e-07
0.00138904 -8.00053e-05 -9.36923e-06
-8.00053e-05 8.42783e-05 2.91622e-07
-9.36923e-06 2.91622e-07 -4.60104e-05
0.00205303 -0.000200936 1.91028e-06
-0.000200936 8.29351e-05 -5.95866e-07
1.91028e-06 -5.95866e-07 -1.92726e-05
0.00116268 -0.00011882 1.71568e-09
-0.00011882 -7.45644e-05 9.28834e-08
1.71568e-09 9.28834e-08 -0.000225997
0.000301395 -2.57784e-05 -1.70012e-05
-2.57784e-05 -0.000268597 3.16425e-06
-1.70012e-05 3.16425e-06 -0.000367245
0.00121516 -0.000158811 5.59829e-06
-0.000158811 -5.85051e-05 -1.93039e-06
5.59829e-06 -1.93039e-06 -0.000221096
0.00033293 -7.8986e-05 -4.45329e-07
-7.8986e-05 -0.000246724 5.11394e-07
-4.45329e-07 5.11394e-07 -0.000353598
0.00689147 -6.97521e-05 -0.000352458
-6.97521e-05 0.00405505 1.81355e-05
-0.000352458 1.81355e-05 0.00408436
0.000412829 -8.39882e-05 1.31352e-05
-8.39882e-05 -0.000203936 -8.74146e-06
1.31352e-05 -8.74146e-06 -0.000316939
0.00439965 -0.000117215 0.000152375
-0.000117215 0.00247228 -8.62591e-06
0.000152375 -8.62591e-06 0.00245663
0.00162131 -9.56214e-05 8.82989e-05
-9.56214e-05 0.000711371 -1.3069e-05
8.82989e-05 -1.3069e-05 0.000655382
0.00211457 0.000141793 -7.35146e-06
0.000141793 6.25794e-05 -7.37656e-07
-7.35146e-06 -7.37656e-07 3.86463e-05
0.00220973 0.000217977 -4.58533e-06
0.000217977 0.000106662 -5.44231e-07
-4.58533e-06 -5.44231e-07 4.35989e-05
0.00211746 0.000169527 -7.24101e-07
0.000169527 1.68107e-05 -2.02267e-07
-7.24101e-07 -2.02267e-07 1.10208e-07
0.00203572 0.000278951 -6.81393e-07
0.000278951 8.79579e-05 6.88468e-07
-6.81393e-07 6.88468e-07 -4.47812e-05
0.00222888 0.000297905 -1.36792e-07
0.000297905 0.000100963 -1.75382e-07
-1.36792e-07 -1.75382e-07 2.70209e-05
0.00219047 0.000250483 2.18271e-06
0.000250483 3.31107e-05 6.99156e-07
2.18271e-06 6.99156e-07 3.31051e-06
0.00130887 0.000215549 -8.43125e-06
0.000215549 -1.6133e-05 -1.65846e-06
-8.43125e-06 -1.65846e-06 -0.000185968
0.00207514 0.00035066 2.5584e-06
0.00035066 0.000137068 8.51007e-07
2.5584e-06 8.51007e-07 -2.43666e-05
0.00220692 0.000386777 3.29041e-06
0.000386777 0.000124211 -2.70055e-07
3.29041e-06 -2.70055e-07 1.34469e-05
0.000332472 0.000106914 -1.74204e-05
0.000106914 -0.000261274 -8.96495e-06
-1.74204e-05 -8.96495e-06 -0.00037594
0.00134709 0.000269713 3.4885e-07
0.000269713 5.54633e-06 8.04655e-07
3.4885e-07 8.04655e-07 -0.000185789
0.0021122 0.000437439 4.34335e-06
0.000437439 0.000191373 -5.05061e-07
4.34335e-06 -5.05061e-07 -9.78171e-06
0.00719081 0.000306047 -0.000354243
0.000306047 0.00426243 -4.38654e-05
-0.000354243 -4.38654e-05 0.00426465
0.000327972 0.00015244 2.57092e-07
0.00015244 -0.000264031 4.28229e-07
2.57092e-07 4.28229e-07 -0.000391734
0.00123773 0.000311051 1.85964e-05
0.000311051 -4.37074e-05 5.14577e-06
1.85964e-05 5.14577e-06 -0.000259688
0.00745684 0.000285529 1.29571e-05
0.000285529 0.00443438 4.59335e-06
1.29571e-05 4.59335e-06 0.00443316
0.000300406 0.000200185 2.03552e-05
0.000200185 -0.000262716 1.5941e-05
2.03552e-05 1.5941e-05 -0.00040899
0.00769553 0.000164113 0.000349815
0.000164113 0.00456297 3.56736e-05
0.000349815 3.56736e-05 0.00457816
0.00197777 6.4859e-05 -7.27544e-06
6.4859e-05 -3.38744e-05 1.94287e-07
-7.27544e-06 1.94287e-07 -8.0856e-05
0.00206453 9.02807e-05 -1.0264e-06
9.02807e-05 2.69148e-05 -1.91699e-07
-1.0264e-06 -1.91699e-07 9.55453e-06
0.00217343 0.000129597 9.35151e-07
0.000129597 -3.53375e-06 2.27101e-07
9.35151e-07 2.27101e-07 1.31974e-05
0.00190911 -1.0167e-05 -1.48824e-06
-1.0167e-05 1.91131e-05 -8.17132e-08
-1.48824e-06 -8.17132e-08 -6.72253e-05
0.00202937 8.95068e-06 -1.07515e-06
8.95068e-06 -3.51488e-06 1.42106e-08
-1.07515e-06 1.42106e-08 -4.34128e-05
0.002042 3.94065e-05 4.60218e-06
3.94065e-05 -7.69232e-06 -3.09149e-08
4.60218e-06 -3.09149e-08 -1.18713e-05
0.00209492 -6.07396e-05 3.49486e-06
-6.07396e-05 1.88455e-05 -4.69702e-07
3.49486e-06 -4.69702e-07 -1.28642e-05
0.00197972 -6.99697e-05 4.41853e-07
-6.99697e-05 5.99146e-05 1.94809e-07
4.41853e-07 1.94809e-07 -2.64296e-05
0.00130928 -3.63393e-05 -1.03102e-05
-3.63393e-05 4.32907e-05 -5.59493e-07
-1.03102e-05 -5.59493e-07 -7.93222e-05
0.00186603 -0.000142165 7.35389e-07
-0.000142165 -2.93513e-05 2.54294e-08
7.35389e-07 2.54294e-08 -0.000130614
0.00125231 -7.90334e-05 2.01466e-06
-7.90334e-05 -6.58541e-06 -2.88198e-07
2.01466e-06 -2.88198e-07 -0.000142561
0.000307586 -9.71493e-06 -1.76146e-05
-9.71493e-06 -0.00026169 1.52229e-06
-1.76146e-05 1.52229e-06 -0.00035582
0.00116095 -0.000115635 7.18116e-06
-0.000115635 -7.20135e-05 -1.13032e-06
7.18116e-06 -1.13032e-06 -0.000222397
0.00030471 -3.87103e-05 5.76739e-07
-3.87103e-05 -0.000265939 -2.83368e-07
5.76739e-07 -2.83368e-07 -0.00036404
0.00670836 -0.00016603 -0.000354783
-0.00016603 0.00395751 1.98054e-05
-0.000354783 1.98054e-05 0.00397985
0.000325543 -6.25604e-05 1.67398e-05
-6.25604e-05 -0.000250139 -4.87197e-06
1.67398e-05 -4.87197e-06 -0.000356014
0.0068259 -0.000106705 7.46332e-06
-0.000106705 0.00401763 6.64161e-08
7.46332e-06 6.64161e-08 0.00404595
0.00194249 -4.29776e-05 0.000270913
-4.29776e-05 0.00088429 -1.96902e-05
0.000270913 -1.96902e-05 0.000875941
0.00208489 0.000147095 -7.49994e-06
0.000147095 3.64845e-05 -6.25108e-07
-7.49994e-06 -6.25108e-07 -2.12203e-05
0.00206362 0.000142777 -1.58066e-06
0.000142777 1.85497e-05 -1.5031e-07
-1.58066e-06 -1.5031e-07 -2.02748e-07
0.0020422 0.000208827 2.46995e-07
0.000208827 9.05165e-05 7.04676e-07
2.46995e-07 7.04676e-07 -2.11644e-05
0.00221459 0.000217428 8.11526e-07
0.000217428 0.000106375 -2.51438e-09
8.11526e-07 -2.51438e-09 4.39428e-05
0.00210236 0.000163227 3.06321e-06
0.000163227 1.1392e-05 3.60177e-07
3.06321e-06 3.60177e-07 -5.30272e-06
0.00122757 0.000161303 -6.45153e-06
0.000161303 -4.71983e-05 -1.18747e-06
-6.45153e-06 -1.18747e-06 -0.000208676
0.00209511 0.000279617 3.36046e-07
0.000279617 0.000134875 -9.7902e-08
3.36046e-07 -9.7902e-08 2.29239e-06
0.00226172 0.00029703 4.2259e-06
0.00029703 0.000118824 1.03281e-06
4.2259e-06 1.03281e-06 4.39497e-05
0.000340712 7.69066e-05 -1.67247e-05
7.69066e-05 -0.000251187 -6.41902e-06
-1.67247e-05 -6.41902e-06 -0.000359312
0.00127953 0.00021384 1.47456e-06
0.00021384 -3.00652e-05 7.32883e-07
1.47456e-06 7.32883e-07 -0.000204115
0.00209432 0.000348725 1.9841e-06
0.000348725 0.000164132 -5.55755e-08
1.9841e-06 -5.55755e-08 -4.53865e-06
0.00700711 0.000303914 -0.00036878
0.000303914 0.00415747 -4.00437e-05
-0.00036878 -4.00437e-05 0.00416073
0.000351819 0.00011222 4.70694e-07
0.00011222 -0.000252459 2.01737e-07
4.70694e-07 2.01737e-07 -0.000368688
0.00129749 0.000262474 1.08524e-05
0.000262474 -2.21931e-05 3.97748e-06
1.08524e-05 3.97748e-06 -0.000211312
0.00727221 0.000332458 9.56835e-06
0.000332458 0.00432648 5.34003e-06
9.56835e-06 5.34003e-06 0.004323
0.000337531 0.000153026 1.7936e-05
0.000153026 -0.000262527 1.27117e-05
1.7936e-05 1.27117e-05 -0.000391293
0.00752273 0.000292367 0.000362558
0.000292367 0.00446955 4.60056e-05
0.000362558 4.60056e-05 0.00447325
0.00190523 6.14586e-05 9.19831e-08
6.14586e-05 1.91571e-05 -2.16373e-08
9.19831e-08 -2.16373e-08 -7.1676e-05
0.00203399 6.63438e-05 -3.07995e-06
6.63438e-05 1.12789e-05 -9.65362e-08
-3.07995e-06 -9.65362e-08 -3.67147e-05
0.00207188 9.63392e-05 6.0185e-06
9.63392e-05 3.64359e-05 1.2896e-07
6.0185e-06 1.2896e-07 1.87439e-05
0.00124841 -1.25321e-05 -1.07062e-05
-1.25321e-05 1.08935e-05 -4.91851e-07
-1.07062e-05 -4.91851e-07 -0.000109481
0.00196635 -6.85951e-06 9.66207e-07
-6.85951e-06 6.11183e-05 8.07585e-08
9.66207e-07 8.07585e-08 -2.44853e-05
0.00207601 1.00211e-05 3.67603e-06
1.00211e-05 2.84609e-05 -1.74502e-07
3.67603e-06 -1.74502e-07 -7.89393e-06
0.00200977 -7.044e-05 2.54885e-06
-7.044e-05 8.22064e-05 2.29572e-07
2.54885e-06 2.29572e-07 -3.21793e-06
0.00127419 -3.80967e-05 1.55268e-06
-3.80967e-05 1.68137e-05 -1.21049e-07
1.55268e-06 -1.21049e-07 -0.000106207
0.000331078 -3.25761e-05 -1.83877e-05
-3.25761e-05 -0.000243995 4.78585e-07
-1.83877e-05 4.78585e-07 -0.000333373
0.00111373 -7.7231e-05 1.11794e-05
-7.7231e-05 -9.77356e-05 -6.0018e-07
1.11794e-05 -6.0018e-07 -0.000239395
0.000306658 1.59278e-06 2.67879e-07
1.59278e-06 -0.000264229 1.14867e-07
2.67879e-07 1.14867e-07 -0.000356786
0.00659965 -0.000134156 -0.000355018
-0.000134156 0.00388757 1.49041e-05
-0.000355018 1.49041e-05 0.00391365
0.000337073 -4.69945e-05 1.79005e-05
-4.69945e-05 -0.000242696 -2.92912e-06
1.79005e-05 -2.92912e-06 -0.000341844
0.00670465 -6.04721e-05 -2.75285e-06
-6.04721e-05 0.00394116 3.2956e-06
-2.75285e-06 3.2956e-06 0.00397224
0.00680331 -0.000121017 0.000354128
-0.000121017 0.0040051 -1.78216e-05
0.000354128 -1.78216e-05 0.00403346
0.002021 0.000134209 -2.65439e-07
0.000134209 8.83296e-05 2.33927e-07
-2.65439e-07 2.33927e-07 -9.63785e-06
0.00211032 0.000145834 -2.50653e-06
0.000145834 4.703e-05 -3.01397e-07
-2.50653e-06 -3.01397e-07 -5.02445e-06
0.00201608 0.000144205 5.31896e-06
0.000144205 -2.35489e-05 5.76743e-07
5.31896e-06 5.76743e-07 -3.71027e-05
0.00119981 0.000113066 -8.99932e-06
0.000113066 -4.86628e-05 -4.13309e-07
-8.99932e-06 -4.13309e-07 -0.000196583
0.00207743 0.000208113 1.775e-07
0.000208113 0.000117938 -1.43196e-07
1.775e-07 -1.43196e-07 6.35853e-06
0.00221407 0.00021659 4.62115e-06
0.00021659 0.000102462 2.57984e-07
4.62115e-06 2.57984e-07 4.06585e-05
0.000332379 5.18988e-05 -1.63283e-05
5.18988e-05 -0.000249488 -4.22448e-06
-1.63283e-05 -4.22448e-06 -0.000352219
0.00121512 0.000163616 2.21071e-07
0.000163616 -5.13997e-05 2.1222e-07
2.21071e-07 2.1222e-07 -0.000214277
0.00213766 0.000279712 1.14574e-06
0.000279712 0.000171116 -1.19139e-06
1.14574e-06 -1.19139e-06 3.85563e-05
0.00685221 0.000250074 -0.000377016
0.000250074 0.00405706 -3.24516e-05
-0.000377016 -3.24516e-05 0.00407001
0.00034998 8.44074e-05 8.15892e-07
8.44074e-05 -0.000246911 2.07286e-07
8.15892e-07 2.07286e-07 -0.000356968
0.00122652 0.000210697 6.49172e-06
0.000210697 -6.0881e-05 2.86329e-06
6.49172e-06 2.86329e-06 -0.000238961
0.00709819 0.000322549 4.99305e-06
0.000322549 0.00422013 3.49474e-06
4.99305e-06 3.49474e-06 0.00422115
0.000371892 0.000119292 1.68861e-05
0.000119292 -0.000241844 9.8497e-06
1.68861e-05 9.8497e-06 -0.000360218
0.00736863 0.000371011 0.000375906
0.000371011 0.00439915 5.24971e-05
0.000375906 5.24971e-05 0.00438996
0.00110384 3.27253e-05 -1.13961e-05
3.27253e-05 -8.46115e-05 -5.18725e-07
-1.13961e-05 -5.18725e-07 -0.000216355
0.00200511 5.90227e-05 9.78663e-07
5.90227e-05 8.51036e-05 -1.16907e-08
9.78663e-07 -1.16907e-08 -2.15838e-07
0.00209319 6.83289e-05 3.33164e-06
6.83289e-05 5.78095e-05 -6.463e-08
3.33164e-06 -6.463e-08 9.0067e-06
0.000372495 3.21408e-05 -1.89065e-05
3.21408e-05 -0.000223738 -1.1779e-06
-1.89065e-05 -1.1779e-06 -0.000303796
0.00123075 -7.6019e-06 1.2044e-06
-7.6019e-06 -3.91224e-06 -2.55075e-08
1.2044e-06 -2.55075e-08 -0.000124326
0.00201428 -2.02337e-06 3.18917e-06
-2.02337e-06 9.64546e-05 5.56632e-08
3.18917e-06 5.56632e-08 1.15302e-05
0.00121885 -3.91685e-05 1.30346e-05
-3.91685e-05 -2.34006e-05 -1.02938e-07
1.30346e-05 -1.02938e-07 -0.00014682
0.000326519 -6.05812e-06 4.78475e-07
-6.05812e-06 -0.000246896 4.0498e-07
4.78475e-07 4.0498e-07 -0.000336082
0.00645197 4.67203e-06 -0.000355483
4.67203e-06 0.00378561 2.7613e-06
-0.000355483 2.7613e-06 0.00382012
0.00030281 1.29361e-05 1.74834e-05
1.29361e-05 -0.000269205 -4.18968e-07
1.74834e-05 -4.18968e-07 -0.000360065
0.00655817 -0.000131665 -7.42826e-06
-0.000131665 0.00386328 2.20181e-06
-7.42826e-06 2.20181e-06 0.00388888
0.0066513 -4.28804e-05 0.000341314
-4.28804e-05 0.00390725 -9.90373e-06
0.000341314 -9.90373e-06 0.00393865
0.0011504 6.97814e-05 -1.09331e-05
6.97814e-05 -6.1634e-05 -5.90362e-07
-1.09331e-05 -5.90362e-07 -0.000199407
0.00207057 0.00013109 -3.43531e-07
0.00013109 0.000120659 -3.28444e-07
-3.43531e-07 -3.28444e-07 2.68672e-05
0.00211824 0.000143995 1.49784e-06
0.000143995 4.57798e-05 -2.97502e-07
1.49784e-06 -2.97502e-07 -9.99503e-07
0.00274486 7.07026e-05 -0.000160225
7.07026e-05 0.00129342 -5.76709e-06
-0.000160225 -5.76709e-06 0.00123792
0.00117439 0.000113948 1.72329e-07
0.000113948 -6.41248e-05 2.06978e-07
1.72329e-07 2.06978e-07 -0.000213115
0.00212226 0.000207836 1.05169e-06
0.000207836 0.000151035 -8.32531e-07
1.05169e-06 -8.32531e-07 3.95563e-05
0.00672925 0.00018257 -0.000376089
0.00018257 0.00397201 -2.32184e-05
-0.000376089 -2.32184e-05 0.00399544
0.000356171 7.19511e-05 1.15254e-06
7.19511e-05 -0.000233575 5.28014e-07
1.15254e-06 5.28014e-07 -0.000338715
0.00123099 0.000166558 6.90334e-06
0.000166558 -3.95317e-05 1.53713e-06
6.90334e-06 1.53713e-06 -0.000203693
0.00695911 0.000267185 1.28535e-06
0.000267185 0.00412612 1.65943e-06
1.28535e-06 1.65943e-06 0.00413742
0.000370303 9.44717e-05 1.67644e-05
9.44717e-05 -0.000234408 7.6225e-06
1.67644e-05 7.6225e-06 -0.000347022
0.00719226 0.00035901 0.000382313
0.00035901 0.00429364 5.02737e-05
0.000382313 5.02737e-05 0.00428777
0.000465828 1.36835e-05 -1.4729e-05
1.36835e-05 -0.00015341 -1.95893e-06
-1.4729e-05 -1.95893e-06 -0.000242557
0.00115537 3.22269e-05 -1.53297e-07
3.22269e-05 -5.4829e-05 9.7006e-08
-1.53297e-07 9.7006e-08 -0.000182381
0.00209708 5.51319e-05 3.41434e-06
5.51319e-05 0.000145796 -1.80538e-07
3.41434e-06 -1.80538e-07 6.58553e-05
0.0062496 -0.000104941 -0.000335953
-0.000104941 0.00367705 5.18975e-06
-0.000335953 5.18975e-06 0.00370012
0.000328884 1.05788e-05 -5.82454e-07
1.05788e-05 -0.000247329 -2.10554e-07
-5.82454e-07 -2.10554e-07 -0.000329998
0.00123426 -4.00037e-06 1.31091e-05
-4.00037e-06 -5.32307e-06 1.77137e-07
1.31091e-05 1.77137e-07 -0.000125696
0.000295412 2.0414e-05 1.76694e-05
2.0414e-05 -0.0002685 8.75162e-07
1.76694e-05 8.75162e-07 -0.00035627
0.00638688 -3.04723e-05 1.97329e-06
-3.04723e-05 0.00375161 -1.82374e-06
1.97329e-06 -1.82374e-06 0.00378081
0.0065304 -5.53421e-05 0.000344245
-5.53421e-05 0.00383274 -7.19707e-06
0.000344245 -7.19707e-06 0.00386482
0.00280312 2.13801e-05 -0.000153035
2.13801e-05 0.00133266 -3.02214e-06
-0.000153035 -3.02214e-06 0.00128207
0.00115173 7.31273e-05 5.68328e-08
7.31273e-05 -6.50078e-05 -7.79309e-08
5.68328e-08 -7.79309e-08 -0.000203398
0.00214609 0.000128605 1.89134e-06
0.000128605 0.000170603 -6.1366e-07
1.89134e-06 -6.1366e-07 8.13057e-05
0.00618437 -2.33052e-05 -0.000155481
-2.33052e-05 0.0036387 -3.30174e-08
-0.000155481 -3.30174e-08 0.00362859
0.000332151 6.18504e-05 5.34326e-07
6.18504e-05 -0.00024347 3.27579e-07
5.34326e-07 3.27579e-07 -0.000341105
0.00116365 0.000115336 9.02171e-06
0.000115336 -6.91861e-05 7.41139e-07
9.02171e-06 7.41139e-07 -0.000219194
0.00677799 0.000158845 -1.01638e-05
0.000158845 0.00399691 -1.87883e-06
-1.01638e-05 -1.87883e-06 0.00402143
0.000348356 9.45997e-05 1.80018e-05
9.45997e-05 -0.000238161 6.06343e-06
1.80018e-05 6.06343e-06 -0.000344839
0.00704103 0.000290535 0.000386053
0.000290535 0.00418346 4.16494e-05
0.000386053 4.16494e-05 0.0041927
0.0019025 -5.33158e-05 -0.000261294
-5.33158e-05 0.000865766 1.73786e-06
-0.000261294 1.73786e-06 0.000868695
0.00155309 3.39815e-05 -6.64842e-05
3.39815e-05 0.000533616 -8.8476e-08
-6.64842e-05 -8.8476e-08 0.000469251
0.0012164 3.44994e-05 1.2148e-05
3.44994e-05 -1.88333e-05 4.46755e-07
1.2148e-05 4.46755e-07 -0.000142181
0.00631172 -5.15341e-05 6.54042e-06
-5.15341e-05 0.00370995 3.10268e-06
6.54042e-06 3.10268e-06 0.0037388
0.000341035 -1.01028e-05 1.82001e-05
-1.01028e-05 -0.000232955 1.01578e-06
1.82001e-05 1.01578e-06 -0.000319569
0.00640269 -9.15685e-05 0.00035377
-9.15685e-05 0.00376716 -6.3891e-06
0.00035377 -6.3891e-06 0.00379552
0.00144845 2.54397e-05 -7.18877e-05
2.54397e-05 0.000605768 -1.19883e-06
-7.18877e-05 -1.19883e-06 0.000563613
0.00153753 2.28283e-05 -6.78165e-05
2.28283e-05 0.000525511 -1.79938e-06
-6.78165e-05 -1.79938e-06 0.000455574
0.00110738 7.42219e-05 1.10228e-05
7.42219e-05 -9.63607e-05 3.87066e-07
1.10228e-05 3.87066e-07 -0.000235528
0.00408686 7.63665e-05 0.000132571
7.63665e-05 0.0022783 4.54088e-06
0.000132571 4.54088e-06 0.00227223
0.000336058 7.17025e-05 1.87152e-05
7.17025e-05 -0.00024042 4.18583e-06
1.87152e-05 4.18583e-06 -0.000338251
0.00688025 0.000146378 0.000368917
0.000146378 0.004053 2.51893e-05
0.000368917 2.51893e-05 0.00408137
0.00624737 -1.84782e-05 -8.46008e-06
-1.84782e-05 0.00367333 -3.60914e-06
-8.46008e-06 -3.60914e-06 0.00370053
0.00033051 5.25643e-05 1.98889e-05
5.25643e-05 -0.000249982 2.50687e-06
1.98889e-05 2.50687e-06 -0.000329564
0.00621309 3.20556e-05 0.0003403
3.20556e-05 0.00364269 1.72968e-07
0.0003403 1.72968e-07 0.00367526
0.0039065 3.65557e-05 0.000143495
3.65557e-05 0.00216963 6.10318e-06
0.000143495 6.10318e-06 0.00216659
0.00035869 1.22958e-05 1.81306e-05
1.22958e-05 -0.000224435 2.20831e-06
1.81306e-05 2.20831e-06 -0.000314078
0.00662241 1.37845e-05 0.000354531
1.37845e-05 0.00389038 1.15217e-05
0.000354531 1.15217e-05 0.00392162
0.00630948 -0.000112651 0.000339996
-0.000112651 0.00371592 -4.5221e-06
0.000339996 -4.5221e-06 0.00373923
0.00636822 1.87724e-05 0.000345092
1.87724e-05 0.00373108 6.85329e-06
0.000345092 6.85329e-06 0.00376544
