# vtk DataFile Version 2.0
Wound Healing Simulation
ASCII
DATASET UNSTRUCTURED_GRID
POINTS 3012 float
69.9759 18.75 4
67.2507 60.3285 4
69.976 18.75 2
73.0099 25.446 4
71.1327 20.9142 4
68.6801 16.6661 4
67.8185 19.9249 3.96704
67.2507 60.3286 2
71.1327 54.0858 4
68.6801 58.3339 4
65.6939 62.2254 4
65.3035 58.9999 3.96471
74.6784 42.3946 4
73.7221 47.2057 4
69.9759 18.75 0
73.0099 25.446 2
68.6801 16.6661 2
71.1327 20.9142 2
67.819 19.9298 2
74.6792 32.6053 4
73.7222 27.7943 4
72.1454 23.1494 4
70.6103 26.2228 3.97008
68.8798 21.9576 3.968
67.2507 14.6715 4
66.6291 17.971 3.96589
65.6627 21.0773 3.96066
67.2507 60.3285 0
71.1327 54.0858 2
68.6801 58.3339 2
65.694 62.2255 2
65.3052 58.9926 2
72.1454 51.8506 4
69.9759 56.25 4
68.8301 53.1147 3.96805
64.0165 64.0165 4
66.6026 57.1346 3.9667
63.8765 60.7609 3.96184
63.3808 57.7134 3.95632
60.3285 67.2507 4
74.6792 42.3947 2
73.7222 47.2057 2
74.9194 39.9526 4
74.2788 44.8158 4
72.165 42.0855 3.97274
73.0099 49.554 4
71.2456 46.5976 3.97095
73.0099 25.446 0
71.1327 20.9142 0
68.6801 16.6661 0
67.8185 19.9249 0.0329623
74.6792 32.6053 2
73.7222 27.7943 2
67.2508 14.6715 2
72.1455 23.1494 2
70.6095 26.2241 2
66.6305 17.9768 2
68.8797 21.9611 2
65.6655 21.0786 2
74.9197 35.0474 4
74.2794 30.1841 4
72.1817 32.9455 3.97289
71.2749 28.4338 3.97097
69.8108 24.0603 3.96916
68.2486 26.9825 3.96581
66.6398 22.9779 3.96265
65.694 12.7746 4
65.3143 16.1043 3.96326
64.5646 19.2554 3.95721
63.57 22.1695 3.96952
71.1327 54.0858 0
65.6939 62.2254 0
68.6801 58.3339 0
65.3035 58.9999 0.0352908
72.1455 51.8506 2
69.9759 56.25 2
68.8302 53.1107 2
64.0165 64.0165 2
66.6041 57.1283 2
63.8787 60.7532 2
63.3851 57.7131 2
62.2254 65.694 4
58.8857 65.4077 3.96829
69.7638 50.9897 3.96915
67.7763 55.1691 3.96715
66.5125 52.1639 3.96315
62.3273 62.4213 3.96479
64.5188 55.9752 3.95905
62.1207 59.3423 3.9519
61.5381 56.5314 3.96329
58.3339 68.6801 4
60.3285 67.2508 2
73.7221 47.2057 0
74.6784 42.3946 0
74.9197 39.9526 2
74.2794 44.8159 2
72.1639 42.0844 2
73.0099 49.554 2
71.2446 46.5959 2
75 37.5 4
72.4022 39.8026 3.97361
71.779 44.3524 3.97206
69.7605 41.7837 3.9694
70.5709 48.8136 3.97018
68.8313 45.9952 3.96868
74.6792 32.6053 0
73.7222 27.7943 0
67.2507 14.6715 0
72.1454 23.1494 0
70.6103 26.2228 0.0299213
68.8798 21.9576 0.0319981
66.6291 17.971 0.0341132
65.6627 21.0773 0.0393374
74.9197 35.0474 2
74.2794 30.1841 2
72.1804 32.9457 2
71.2738 28.4347 2
65.694 12.7745 2
65.3154 16.1117 2
69.8103 24.0625 2
68.2501 26.9835 2
64.5609 19.2579 2
66.6423 22.9793 2
63.5698 22.1712 2
72.4102 35.2258 3.97376
71.8007 30.6788 3.97225
69.7969 33.2794 3.96911
68.8867 29.0618 3.96744
67.4977 24.9504 3.96402
65.8617 27.7314 3.97578
64.0165 10.9835 4
64.4373 23.9518 3.97297
63.8796 14.3312 3.9621
63.3772 17.5105 3.95366
62.5991 20.4672 3.96569
61.5949 23.1668 3.97356
60.6759 11.105 3.96703
57.5983 11.5166 3.95964
72.1454 51.8506 0
69.9759 56.25 0
68.8301 53.1147 0.0319475
64.0165 64.0165 0
63.8765 60.7609 0.0381643
66.6026 57.1346 0.0332999
63.3808 57.7134 0.0436781
62.2255 65.694 2
58.8895 65.4007 2
69.7635 50.9869 2
67.777 55.1638 2
66.5143 52.1624 2
62.3305 62.413 2
64.5159 55.9728 2
62.1235 59.3408 2
61.5438 56.5315 2
60.6607 63.9704 3.96495
57.0174 66.7269 3.96949
57.5361 63.6178 3.96536
67.3802 50.1386 3.96522
65.5653 54.1233 3.96139
64.1877 51.2594 3.97344
60.7376 60.8765 3.95116
62.5064 54.9253 3.96827
60.3628 57.9895 3.95844
59.8935 55.5579 3.96975
56.25 69.9759 4
58.3339 68.6801 2
60.3285 67.2507 0
58.9138 9.66464 3.96694
62.2254 9.30607 4
73.0099 49.554 0
74.2788 44.8158 0
71.2456 46.5976 0.029051
72.165 42.0855 0.0272633
74.9194 39.9526 0
75 37.5 2
72.4015 39.8018 2
71.7783 44.3509 2
69.7609 41.783 2
70.5704 48.8114 2
68.8332 45.9941 2
72.4858 37.5131 3.97353
70.0078 39.656 3.9694
69.3727 43.8957 3.96933
67.2888 41.4647 3.97657
68.1592 48.0782 3.96723
66.3689 45.3664 3.97599
74.9197 35.0474 0
74.2794 30.1841 0
72.1817 32.9455 0.027114
71.2749 28.4338 0.0290296
65.694 12.7746 0
65.3143 16.1043 0.0367406
69.8108 24.0603 0.0308444
68.2486 26.9825 0.0341915
66.6398 22.9779 0.0373485
64.5646 19.2554 0.0427881
63.57 22.1695 0.030478
72.4094 35.2255 2
71.7999 30.6796 2
69.7979 33.2799 2
68.8889 29.0626 2
64.0165 10.9835 2
63.8823 14.3392 2
63.3964 17.5066 2
67.4999 24.9516 2
65.8584 27.7334 2
62.6057 20.4672 2
64.436 23.9537 2
61.5943 23.1695 2
60.6793 11.1119 2
57.591 11.5064 2
70.0208 35.3985 3.96913
69.4096 31.1659 3.96838
67.3535 33.6297 3.97635
66.4461 29.7014 3.97596
65.196 25.8093 3.97484
63.6055 28.4004 3.97499
62.3316 12.6613 3.96394
62.3363 24.8402 3.97388
62.1218 15.8451 3.95197
61.5113 18.8466 3.96185
60.7385 21.5795 3.97246
59.7674 24.0287 3.97374
59.2213 12.8425 3.95458
55.8618 10.3072 3.96857
56.3514 13.2381 3.95295
69.7638 50.9897 0.0308496
62.2254 65.694 0
58.8857 65.4077 0.0317105
67.7763 55.1691 0.03285
66.5125 52.1639 0.036851
62.3273 62.4213 0.0352079
62.1207 59.3423 0.0481043
64.5188 55.9752 0.0409507
61.5381 56.5314 0.0367123
60.6643 63.9615 2
57.0213 66.7213 2
57.5423 63.6409 2
67.3807 50.137 2
65.5661 54.1215 2
64.1858 51.2577 2
60.7197 60.8825 2
62.5104 54.9253 2
60.3616 57.9876 2
59.8887 55.5548 2
55.0638 67.9296 3.97893
59.2027 62.286 3.96706
55.7765 64.8247 3.96556
56.2805 61.973 3.97797
64.9672 49.2943 3.9749
63.3669 53.156 3.9712
61.8659 50.4432 3.97356
59.1438 59.402 3.95614
60.5908 54.0803 3.97239
58.7839 56.7454 3.96
58.6762 54.8966 3.97039
48.0943 68.5648 3.97647
50.9425 69.9286 3.98265
54.0858 71.1327 4
56.25 69.976 2
58.3339 68.6801 0
57.0529 8.34192 3.97198
60.3285 7.74928 4
58.9169 9.67217 2
62.2255 9.30602 2
70.5709 48.8136 0.0298151
71.779 44.3524 0.027943
68.8313 45.9952 0.031321
69.7605 41.7837 0.0305989
72.4022 39.8026 0.0263885
75 37.5 0
72.4845 37.5125 2
70.0087 39.6556 2
69.3722 43.8948 2
67.2851 41.4642 2
68.1581 48.0766 2
66.3647 45.3656 2
70.0964 37.5241 3.96931
67.5355 39.4987 3.97654
66.9 43.4176 3.97636
65.0554 41.164 3.97607
65.7083 47.3225 3.9755
64.1094 44.7446 3.97555
72.4102 35.2258 0.0262415
71.8007 30.6788 0.02775
69.7969 33.2794 0.0308904
68.8867 29.0618 0.0325616
64.0165 10.9835 0
63.8796 14.3312 0.0378951
63.3772 17.5105 0.04634
67.4977 24.9504 0.0359802
65.8617 27.7314 0.0242169
64.4373 23.9518 0.0270268
62.5991 20.4672 0.0343095
61.5949 23.1668 0.0264445
60.6759 11.105 0.0329674
57.5983 11.5166 0.0403555
70.0219 35.3987 2
69.4108 31.1665 2
67.3501 33.6303 2
66.4423 29.7026 2
62.3352 12.6688 2
62.1317 15.8456 2
61.5139 18.8482 2
65.193 25.8115 2
63.6049 28.4008 2
60.7374 21.5832 2
62.3351 24.8413 2
59.7648 24.03 2
59.2175 12.8325 2
56.3451 13.2348 2
55.8624 10.3103 2
67.577 35.5691 3.97655
66.9513 31.6819 3.97626
65.213 33.9817 3.97613
64.1301 30.3094 3.97523
63.0029 26.5919 3.97462
61.5322 28.9775 3.97484
60.7279 14.2905 3.95227
60.3467 25.609 3.97394
60.3357 17.3004 3.9593
59.7357 20.0775 3.96831
59.0234 22.5829 3.97257
58.1735 24.6891 3.97365
54.0342 9.17284 3.973
57.7938 14.4893 3.954
54.7602 12.1472 3.96752
55.182 14.8539 3.95387
67.3802 50.1386 0.0347844
57.0174 66.7269 0.0305066
60.6607 63.9704 0.035055
57.5361 63.6178 0.0346406
65.5653 54.1233 0.0386068
64.1877 51.2594 0.026565
60.7376 60.8765 0.0488424
60.3628 57.9895 0.0415623
62.5064 54.9253 0.0317288
59.8935 55.5579 0.0302486
55.0687 67.922 2
59.1937 62.2949 2
55.7817 64.818 2
56.2784 61.9814 2
64.9647 49.2925 2
63.3666 53.1548 2
61.8649 50.4425 2
59.1615 59.4056 2
60.5886 54.0778 2
58.7889 56.7452 2
58.6844 54.8965 2
53.0358 68.9945 3.97908
53.946 65.9619 3.96738
57.7695 60.7474 3.94908
54.6362 63.0617 3.96619
55.1162 60.4706 3.97313
62.6108 48.4808 3.97386
61.2038 52.3481 3.97283
59.4844 49.7207 3.97263
57.6579 58.0297 3.9569
58.706 53.6455 3.97226
57.4437 55.4743 3.96283
50.0975 67.8406 3.97173
47.4448 66.5443 3.97304
46.0503 69.145 3.9795
48.0993 68.5645 2
48.7971 70.7204 3.98602
50.9486 69.9253 2
51.8506 72.1454 4
54.0858 71.1327 2
56.25 69.9759 0
55.0985 7.14407 3.98402
58.3339 6.31992 4
57.0575 8.34705 2
60.3286 7.74926 2
58.9138 9.66464 0.0330566
62.2254 9.30607 0
68.1592 48.0782 0.0327731
69.3727 43.8957 0.0306745
66.3689 45.3664 0.0240102
67.2888 41.4647 0.0234307
70.0078 39.656 0.0306026
72.4858 37.5131 0.0264677
70.0983 37.524 2
67.5316 39.4985 2
66.8973 43.4164 2
65.0554 41.1637 2
65.7054 47.3207 2
64.1092 44.7444 2
67.6383 37.5264 3.9765
65.2977 39.3498 3.9763
64.6601 42.9481 3.97592
63.0767 40.8661 3.97642
63.3928 46.5768 3.97435
62.0715 44.0812 3.97574
70.0208 35.3985 0.0308702
69.4096 31.1659 0.0316165
67.3535 33.6297 0.0236504
66.4461 29.7014 0.0240415
62.3316 12.6613 0.0360569
62.1218 15.8451 0.0480333
61.5113 18.8466 0.0381542
65.196 25.8093 0.0251634
63.6055 28.4004 0.0250127
62.3363 24.8402 0.0261237
60.7385 21.5795 0.0275398
59.7674 24.0287 0.026262
59.2213 12.8425 0.0454175
56.3514 13.2381 0.047052
55.8618 10.3072 0.0314332
67.5735 35.5693 2
66.9482 31.6829 2
65.2123 33.9819 2
64.1305 30.3096 2
60.7211 14.2902 2
60.3274 17.3046 2
59.7333 20.0815 2
63.002 26.5926 2
61.5326 28.9774 2
59.0216 22.5859 2
60.3463 25.6095 2
58.1691 24.691 2
57.7896 14.4814 2
55.1705 14.8422 2
54.0383 9.16476 2
54.7492 12.1433 2
65.3968 35.6968 3.9762
64.6694 32.2364 3.97558
63.6647 34.3136 3.97619
61.8553 30.7927 3.97532
60.9307 27.3042 3.9743
59.9774 29.3798 3.97539
59.0974 15.8412 3.95619
58.4664 26.1327 3.97451
58.6522 18.6328 3.96286
58.0993 21.2005 3.96895
57.5135 23.4851 3.97239
57.0754 25.074 3.97453
52.1024 8.19392 3.96564
53.0419 11.1007 3.95807
56.4474 15.9764 3.95511
53.7321 13.848 3.95273
54.1508 16.2508 3.96005
55.0638 67.9296 0.0210669
64.9672 49.2943 0.0250993
55.7765 64.8247 0.0344439
59.2027 62.286 0.032945
56.2805 61.973 0.0220324
63.3669 53.156 0.0287961
61.8659 50.4432 0.0264383
59.1438 59.402 0.0438642
58.7839 56.7454 0.0400038
60.5908 54.0803 0.027608
58.6762 54.8966 0.0296108
53.0423 68.99 2
53.9502 65.9527 2
57.774 60.7725 2
54.6285 63.0548 2
55.1143 60.4769 2
62.6103 48.4801 2
61.2027 52.3466 2
59.4842 49.7199 2
57.6538 58.0295 2
58.7103 53.6438 2
57.4411 55.4705 2
52.0543 66.9651 3.97103
52.9188 64.1152 3.96756
56.4232 59.2894 3.95352
53.5851 61.4147 3.96641
54.0955 59.1129 3.96434
60.1755 47.6366 3.97352
58.9905 51.804 3.97244
57.0458 49.2414 3.97289
56.3093 56.6976 3.95779
56.2697 53.719 3.96688
50.1023 67.8353 2
49.3124 65.8611 3.97072
47.4511 66.5344 2
46.8643 64.6545 3.97799
45.5484 67.0665 3.97823
43.9701 69.5774 3.98158
46.0544 69.146 2
46.6045 71.3648 3.9877
48.0943 68.5648 0.0235315
48.8028 70.7184 2
49.554 73.0099 4
50.9425 69.9286 0.0173502
51.8506 72.1455 2
54.0858 71.1327 0
53.0618 6.08062 3.98022
55.1026 7.14636 2
56.25 5.02411 4
58.3339 6.3199 2
57.0529 8.34192 0.0280162
60.3285 7.74928 0
65.7083 47.3225 0.0244969
66.9 43.4176 0.0236395
64.1094 44.7446 0.0244527
65.0554 41.164 0.0239314
67.5355 39.4987 0.0234643
70.0964 37.5241 0.0306882
67.6342 37.5264 2
65.2976 39.3498 2
64.6597 42.9478 2
63.0774 40.8662 2
63.3928 46.5761 2
62.0718 44.0815 2
65.4067 37.5072 3.97619
63.2253 39.2399 3.97645
62.6229 42.4538 3.97616
61.6061 40.6256 3.97652
61.1834 45.7297 3.97495
60.5615 43.5277 3.97637
67.577 35.5691 0.0234465
66.9513 31.6819 0.0237405
65.213 33.9817 0.0238651
64.1301 30.3094 0.0247705
60.7279 14.2905 0.0477292
60.3357 17.3004 0.0407014
59.7357 20.0775 0.0316875
63.0029 26.5919 0.0253817
61.5322 28.9775 0.0251596
60.3467 25.609 0.0260581
59.0234 22.5829 0.0274338
58.1735 24.6891 0.0263491
57.7938 14.4893 0.0459951
55.182 14.8539 0.046126
54.0342 9.17284 0.0270026
54.7602 12.1472 0.0324818
65.3964 35.6969 2
64.6692 32.2369 2
63.6658 34.3134 2
61.8556 30.7923 2
59.1152 15.8394 2
58.655 18.6355 2
58.0926 21.2053 2
60.931 27.3047 2
59.9782 29.38 2
57.5089 23.4883 2
58.4642 26.1333 2
57.07 25.076 2
56.4291 15.9838 2
54.1448 16.2514 2
53.7186 13.8383 2
52.1018 8.2017 2
53.0388 11.0935 2
63.4395 35.6738 3.97629
62.1827 33.1527 3.97597
59.6718 30.827 3.97535
58.6251 28.2137 3.97472
57.5519 17.251 3.95697
56.7494 26.1402 3.9744
57.0917 19.8375 3.96203
56.5877 22.2652 3.96871
56.2742 24.3917 3.97314
50.1027 7.32273 3.97173
51.1911 10.2304 3.96462
52.1106 12.9425 3.96369
55.1807 17.2801 3.95527
52.8238 15.5058 3.96348
53.4517 17.2896 3.95517
53.0358 68.9945 0.0209184
53.946 65.9619 0.0326228
62.6108 48.4808 0.0261365
54.6362 63.0617 0.0338141
57.7695 60.7474 0.0509218
55.1162 60.4706 0.0268719
61.2038 52.3481 0.0271661
59.4844 49.7207 0.0273679
57.6579 58.0297 0.0430956
57.4437 55.4743 0.0371735
58.706 53.6455 0.0277422
52.0588 66.9715 2
52.9139 64.1012 2
56.4231 59.2941 2
53.5782 61.408 2
54.0966 59.1096 2
60.1755 47.6361 2
58.9916 51.8026 2
57.0461 49.2415 2
56.3052 56.6986 2
56.2702 53.7165 2
51.1379 65.048 3.96299
51.9667 62.3629 3.96166
55.1579 58.0016 3.95863
52.6519 59.8852 3.95585
53.4046 58.2264 3.96208
57.1742 46.5036 3.97428
56.6717 51.3798 3.97277
55.1504 49.0872 3.97487
54.9122 55.4533 3.95818
54.4387 52.9463 3.95897
50.0975 67.8406 0.028273
49.3167 65.8604 2
48.5793 64.0251 3.97526
47.4448 66.5443 0.0269616
45.5497 67.0784 2
46.8693 64.6485 2
46.3426 62.9479 3.98795
45.1098 65.1504 3.98213
43.6251 67.4481 3.97975
41.8589 69.8667 3.98187
43.9723 69.5799 2
44.3728 71.8591 3.98856
46.0503 69.145 0.0204959
46.6091 71.3638 2
47.2057 73.7222 4
48.7971 70.7204 0.0139838
49.554 73.0099 2
51.8506 72.1454 0
50.9537 5.13619 3.98514
53.0638 6.07929 2
54.0858 3.86728 4
55.0985 7.14407 0.0159832
56.25 5.02406 2
58.3339 6.31992 0
63.3928 46.5768 0.0256455
64.6601 42.9481 0.0240783
62.0715 44.0812 0.0242554
63.0767 40.8661 0.0235833
65.2977 39.3498 0.0237042
67.6383 37.5264 0.0235019
65.4063 37.5073 2
63.2266 39.2399 2
62.6238 42.4535 2
61.6065 40.6256 2
61.1835 45.7293 2
60.5612 43.5276 2
63.2904 37.4638 3.97645
61.2936 39.3142 3.9768
60.2853 41.8343 3.97691
59.2499 44.5481 3.97538
65.3968 35.6968 0.023797
64.6694 32.2364 0.0244237
63.6647 34.3136 0.0238066
61.8553 30.7927 0.0246776
59.0974 15.8412 0.0438135
58.6522 18.6328 0.0371371
58.0993 21.2005 0.0310519
60.9307 27.3042 0.0257009
59.9774 29.3798 0.0246105
58.4664 26.1327 0.0254929
57.5135 23.4851 0.0276075
57.0754 25.074 0.0254729
56.4474 15.9764 0.0448877
54.1508 16.2508 0.0399456
53.7321 13.848 0.0472701
52.1024 8.19392 0.0343596
53.0419 11.1007 0.0419301
63.4408 35.6738 2
62.184 33.1531 2
59.6721 30.8268 2
57.5552 17.2539 2
57.0858 19.8402 2
56.5837 22.2693 2
58.6253 28.2131 2
56.2777 24.393 2
56.7481 26.1391 2
50.1104 7.29456 2
55.1771 17.2771 2
53.4521 17.2799 2
52.8123 15.4985 2
52.1189 12.9466 2
51.1944 10.2314 2
61.3341 35.4214 3.97657
59.2619 32.907 3.97595
57.4847 30.3693 3.97485
56.1769 27.7804 3.97459
56.1263 18.4991 3.95887
55.2306 25.5868 3.9732
55.6153 20.9542 3.96166
55.2069 23.3582 3.96863
48.0565 6.53575 3.97838
49.295 9.40204 3.97021
50.3669 12.1731 3.96369
51.253 14.6872 3.97867
53.9885 18.2801 3.95803
52.0703 17.3476 3.95746
52.0543 66.9651 0.0289702
52.9188 64.1152 0.032441
60.1755 47.6366 0.0264834
53.5851 61.4147 0.0335883
56.4232 59.2894 0.0464802
54.0955 59.1129 0.0356608
58.9905 51.804 0.0275597
57.0458 49.2414 0.027111
56.3093 56.6976 0.0422058
56.2697 53.719 0.0331214
51.142 65.0549 2
51.9751 62.404 2
55.1607 58 2
52.639 59.8789 2
53.4129 58.228 2
57.1733 46.5026 2
56.6716 51.3775 2
55.1502 49.0864 2
54.9093 55.4508 2
54.4354 52.9439 2
50.2952 63.2841 3.97103
51.0975 60.7178 3.96996
53.8402 56.9821 3.96586
51.9693 58.3441 3.9631
55.3093 43.8687 3.97494
54.2148 47.419 3.97463
53.9096 50.8826 3.96584
53.3175 54.1565 3.96204
49.3124 65.8611 0.0292787
48.5781 64.0505 2
47.9019 62.3724 3.99051
45.5484 67.0665 0.0217715
46.8643 64.6545 0.0220051
43.6272 67.4504 2
46.3401 62.9512 2
45.1175 65.1362 2
45.932 61.4592 3.9899
44.7379 63.3661 3.97754
43.3446 65.4727 3.98024
41.6599 67.6684 3.97822
39.7016 70.0138 3.98065
41.8601 69.8685 2
42.1085 72.2037 3.98972
43.9701 69.5774 0.0184161
44.3762 71.8592 2
44.8159 74.2794 4
46.6045 71.3648 0.0123038
47.2057 73.7222 2
49.554 73.0099 0
48.7845 4.32576 3.98552
50.9533 5.13623 2
51.8506 2.85458 4
53.0618 6.08062 0.019778
54.0858 3.86728 2
56.25 5.02411 0
61.1834 45.7297 0.0250475
62.6229 42.4538 0.0238357
60.5615 43.5277 0.023629
61.6061 40.6256 0.0234832
63.2253 39.2399 0.0235527
65.4067 37.5072 0.0238121
63.2912 37.4638 2
61.2941 39.3144 2
60.2852 41.8342 2
59.2503 44.5477 2
61.109 37.4524 3.97697
59.1645 39.7773 3.97649
57.8175 42.729 3.97606
63.4395 35.6738 0.0237065
62.1827 33.1527 0.0240311
59.6718 30.827 0.0246525
57.5519 17.251 0.0430303
57.0917 19.8375 0.0379688
56.5877 22.2652 0.031286
58.6251 28.2137 0.0252814
56.7494 26.1402 0.0256022
56.2742 24.3917 0.0268636
55.1807 17.2801 0.0447287
53.4517 17.2896 0.0448271
52.8238 15.5058 0.0365156
50.1027 7.32273 0.0282743
52.1106 12.9425 0.0363089
51.1911 10.2304 0.0353793
61.3349 35.4216 2
59.2616 32.9075 2
57.4847 30.3699 2
56.1241 18.4997 2
55.6294 20.9499 2
55.2205 23.3599 2
56.177 27.7805 2
55.2331 25.5899 2
48.0514 6.54744 2
49.2975 9.40197 2
53.9985 18.2788 2
52.0758 17.3391 2
51.2475 14.6866 2
50.3718 12.1686 2
58.7703 35.207 3.97631
56.7006 32.5019 3.975
55.2505 29.7206 3.97489
54.2212 27.1104 3.97359
54.7684 19.584 3.96085
53.8972 24.585 3.97079
54.1618 22.0555 3.96604
45.9609 5.89736 3.9787
43.3677 7.4983 3.97858
47.3344 8.6672 3.96937
48.5525 11.4149 3.96455
49.5981 13.9504 3.98044
50.4247 16.3741 3.96222
52.6734 19.0668 3.95463
50.9732 18.4595 3.95621
51.1379 65.048 0.0370099
51.9667 62.3629 0.038342
57.1742 46.5036 0.0257236
52.6519 59.8852 0.0441528
55.1579 58.0016 0.0413679
53.4046 58.2264 0.0379162
56.6717 51.3798 0.0272251
55.1504 49.0872 0.0251261
54.9122 55.4533 0.0418225
54.4387 52.9463 0.0410291
50.2893 63.2619 2
51.095 60.7228 2
53.8362 56.9807 2
51.9596 58.3439 2
55.3118 43.8675 2
54.2153 47.4192 2
53.9058 50.8797 2
53.3059 54.1548 2
49.4894 61.6324 3.97634
53.9614 41.5187 3.97485
50.3202 59.082 3.96949
51.6528 56.1456 3.96225
52.5779 45.0737 3.97247
51.9688 48.7545 3.96991
51.7481 52.3896 3.95786
48.5793 64.0251 0.0247373
47.8929 62.3809 2
47.2417 60.8875 3.99171
43.6251 67.4481 0.0202528
45.1098 65.1504 0.0178706
46.3426 62.9479 0.0120487
41.6629 67.6694 2
43.3561 65.4649 2
45.9319 61.4687 2
44.7386 63.3603 2
45.6726 60.5015 3.99755
44.4385 61.728 3.98826
43.1275 63.6535 3.9819
41.5407 65.6069 3.97189
39.6314 67.7464 3.97585
37.5263 70.0379 3.98099
39.7025 70.0132 2
39.8164 72.4012 3.98995
41.8589 69.8667 0.0181254
42.1104 72.2043 2
42.3947 74.6792 4
44.3728 71.8591 0.0114376
44.8159 74.2794 2
47.2057 73.7222 0
43.8494 5.37103 3.9776
46.569 3.65123 3.98698
48.7835 4.32914 2
49.554 1.99015 4
50.9537 5.13619 0.0148619
51.8506 2.85453 2
54.0858 3.86728 0
59.2499 44.5481 0.0246151
60.2853 41.8343 0.0230917
61.2936 39.3142 0.0232023
63.2904 37.4638 0.0235474
61.1092 37.4525 2
59.1633 39.7776 2
57.8151 42.7279 2
58.6137 37.5727 3.97698
56.6809 40.521 3.97763
53.3228 39.5842 3.97673
61.3341 35.4214 0.0234344
59.2619 32.907 0.0240544
57.4847 30.3693 0.0251499
56.1263 18.4991 0.0411265
55.6153 20.9542 0.0383442
55.2069 23.3582 0.0313695
56.1769 27.7804 0.0254059
55.2306 25.5868 0.0268004
53.9885 18.2801 0.0419742
52.0703 17.3476 0.0425407
51.253 14.6872 0.0213338
48.0565 6.53575 0.0216208
49.295 9.40204 0.0297872
50.3669 12.1731 0.0363065
58.7689 35.2066 2
45.9613 5.89518 2
43.368 7.50107 2
56.7009 32.5027 2
55.2525 29.7191 2
54.7577 19.5884 2
54.1869 22.0549 2
53.8958 24.5925 2
54.2214 27.1093 2
47.337 8.65725 2
48.5548 11.4101 2
52.6788 19.0337 2
50.9865 18.4565 2
50.4382 16.3821 2
49.596 13.9492 2
55.9837 34.895 3.97727
54.219 31.8571 3.97409
53.0839 28.8916 3.97525
52.5891 26.0677 3.97237
53.3494 20.5833 3.96629
52.6852 23.2657 3.96974
41.3949 7.09573 3.97622
45.3459 8.01377 3.9838
42.8544 9.45115 3.97335
46.6344 10.7421 3.97194
47.6595 13.2478 3.97624
48.7437 15.6035 3.97498
49.7003 18.0247 3.95692
51.1872 19.7795 3.97653
50.2952 63.2841 0.0289694
51.0975 60.7178 0.0300407
55.3093 43.8687 0.0250582
54.2148 47.419 0.0253735
51.9693 58.3441 0.036904
53.8402 56.9821 0.0341431
53.9096 50.8826 0.0341581
53.3175 54.1565 0.037959
49.4941 61.6314 2
53.9512 41.5108 2
50.3166 59.0903 2
51.6539 56.1487 2
52.569 45.0679 2
51.9641 48.7515 2
51.7508 52.3894 2
48.6804 60.0705 3.99532
50.4801 42.2855 3.98195
49.4147 57.3692 3.95957
49.8942 54.0227 3.95992
50.2416 46.6356 3.97708
50.082 50.418 3.9549
46.2767 43.1901 3.95472
47.9019 62.3724 0.00949444
47.2439 60.8816 2
46.4806 59.6712 3.99327
41.6599 67.6684 0.0217813
43.3446 65.4727 0.0197634
44.7379 63.3661 0.0224556
45.932 61.4592 0.010103
39.6343 67.7459 2
41.548 65.6035 2
45.6772 60.5093 2
43.1254 63.6554 2
44.4378 61.726 2
44.5574 60.1578 3.99374
42.9145 61.9886 3.97977
41.5842 63.7721 3.98373
39.6432 65.5795 3.97508
37.5631 67.7286 3.97489
31.7054 65.0871 3.97518
33.3955 67.4664 3.97844
35.3349 69.9499 3.98152
37.5264 70.0401 2
37.5096 72.4549 3.99049
39.7016 70.0138 0.0193457
39.8177 72.4009 2
39.9526 74.9197 4
42.1085 72.2037 0.0102796
42.3947 74.6792 2
44.8159 74.2794 0
41.7344 4.97841 3.98242
43.8495 5.37199 2
44.3252 3.11379 3.98847
46.5703 3.65053 2
47.2057 1.27793 4
48.7845 4.32576 0.014482
49.554 1.99013 2
51.8506 2.85458 0
57.8175 42.729 0.0239377
59.1645 39.7773 0.0235125
61.109 37.4524 0.0230318
58.6144 37.573 2
56.6808 40.523 2
53.3159 39.5908 2
55.3001 37.8831 3.97711
47.4863 41.037 3.96534
50.9735 39.2379 3.97953
39.4378 6.81802 3.97607
58.7703 35.207 0.0236867
56.7006 32.5019 0.0249978
55.2505 29.7206 0.0251106
54.7684 19.584 0.0391496
54.1618 22.0555 0.0339575
53.8972 24.585 0.0292107
54.2212 27.1104 0.0264116
52.6734 19.0668 0.0453678
50.9732 18.4595 0.0437906
50.4247 16.3741 0.0377788
45.9609 5.89736 0.0213038
49.5981 13.9504 0.0195585
47.3344 8.6672 0.030629
48.5525 11.4149 0.0354526
43.3677 7.4983 0.021422
55.9805 34.8963 2
41.3956 7.09784 2
45.3467 8.01236 2
42.8527 9.45115 2
54.2136 31.8564 2
53.0785 28.8937 2
53.3488 20.5903 2
52.6702 23.2814 2
52.5928 26.063 2
46.635 10.7329 2
47.6614 13.2341 2
51.2045 19.779 2
49.7049 17.9944 2
48.7582 15.624 2
53.0912 34.1748 3.9757
51.8284 30.935 3.97488
51.2166 27.785 3.97521
51.0713 24.7024 3.97275
51.7264 21.5727 3.97022
41.0041 9.07057 3.97661
44.7083 10.0517 3.97854
42.4437 10.951 4.00105
45.9359 12.8273 3.97453
47.5427 14.7726 3.9769
47.8436 17.1945 3.96866
49.4484 20.1749 3.9874
49.4894 61.6324 0.0236602
50.3202 59.082 0.0305076
53.9614 41.5187 0.0251459
52.5779 45.0737 0.0275278
51.9688 48.7545 0.0300912
51.6528 56.1456 0.0377546
51.7481 52.3896 0.0421442
48.6762 60.0744 2
50.5006 42.313 2
49.4122 57.3647 2
49.8927 54.0239 2
50.2414 46.6346 2
50.085 50.4175 2
46.2837 43.2182 2
47.7528 58.5161 3.99158
48.2664 44.79 3.98392
48.1054 55.6084 3.94645
48.2929 52.1429 3.9704
48.3802 48.4609 3.9766
43.8999 39.6313 3.79586
44.4952 42.1504 3.84521
44.9035 45.0783 3.96427
41.8619 40.9344 3.53418
41.0221 41.3105 3.34126
47.2417 60.8875 0.00828755
46.4864 59.6707 2
45.3167 58.631 3.99336
39.6314 67.7464 0.024155
41.5407 65.6069 0.0281099
43.1275 63.6535 0.0180975
44.4385 61.728 0.0117392
45.6726 60.5015 0.00245435
41.5878 63.7672 2
37.5654 67.7311 2
39.6482 65.5833 2
44.5544 60.1756 2
42.9137 61.9855 2
41.7256 62.4203 3.98733
42.4323 59.8349 3.99096
39.8826 63.5121 3.98006
37.6409 65.4816 3.97688
35.4641 67.6391 3.97431
33.5798 65.306 3.9722
31.976 63.2421 3.99404
29.9016 64.6763 3.9831
31.6968 65.0954 2
31.3846 67.1798 3.9788
33.397 67.4721 2
33.1592 69.7425 3.98162
35.3344 69.9512 2
35.1969 72.3704 3.99099
37.5263 70.0379 0.0190122
37.5103 72.4558 2
37.5 75 4
39.8164 72.4012 0.0100533
39.9526 74.9197 2
42.3947 74.6792 0
39.6231 4.72393 3.98447
41.7344 4.97922 2
42.0618 2.72082 3.98904
43.8494 5.37103 0.022398
44.3253 3.11406 2
44.8158 0.721173 4
46.569 3.65123 0.0130192
47.2057 1.27779 2
49.554 1.99015 0
56.6809 40.521 0.022367
58.6137 37.5727 0.0230233
53.3228 39.5842 0.0232724
47.5261 41.0568 2
55.2989 37.8811 2
50.9934 39.2174 2
51.9263 36.6356 3.97695
45.3945 40.1575 3.87262
48.2636 38.4321 3.96043
37.5124 6.68871 3.98033
39.4391 6.81697 2
39.207 8.72327 3.98754
35.9428 8.52057 3.97416
55.9837 34.895 0.0227263
54.219 31.8571 0.0259147
53.0839 28.8916 0.0247483
53.3494 20.5833 0.0337096
52.6852 23.2657 0.0302556
52.5891 26.0677 0.0276326
51.1872 19.7795 0.0234703
49.7003 18.0247 0.0430758
48.7437 15.6035 0.0250198
45.3459 8.01377 0.0162045
47.6595 13.2478 0.0237598
46.6344 10.7421 0.0280605
41.3949 7.09573 0.0237837
42.8544 9.45115 0.0266549
53.0935 34.1804 2
41.0016 9.07364 2
44.7084 10.046 2
42.4451 10.949 2
51.8321 30.9322 2
51.2181 27.7871 2
51.7122 21.5797 2
51.0566 24.7094 2
45.9347 12.8171 2
47.5386 14.7509 2
49.4779 20.196 2
47.8475 17.1813 2
50.4333 33.1976 3.97421
49.6239 29.7784 3.97681
49.5184 26.3273 3.97174
49.2482 22.7484 3.97492
40.5556 11.6378 3.99071
43.8048 11.9839 3.97078
45.6595 15.626 4.00773
47.1821 19.7296 3.97805
44.0657 37.5116 3.80872
48.6804 60.0705 0.00467883
49.4147 57.3692 0.0404285
50.4801 42.2855 0.0180474
50.2416 46.6356 0.0229165
50.082 50.418 0.0450999
49.8942 54.0227 0.0400778
46.2767 43.1901 0.0452804
47.7435 58.5211 2
48.2785 44.7971 2
48.0988 55.6092 2
48.2914 52.1476 2
48.385 48.4626 2
44.0155 39.6548 2
44.5491 42.209 2
44.9082 45.1046 2
41.9597 41.0021 2
41.0714 41.3252 2
46.534 57.0924 3.99379
42.4001 39.4307 3.53798
41.3849 40.3257 3.32442
46.5957 46.6852 3.99816
46.5772 53.8556 3.95245
46.6022 50.2563 3.9727
43.6179 46.6643 3.97294
43.2028 41.5798 3.80274
43.4819 43.891 3.83424
41.3867 42.0251 3.54604
40.235 41.5792 3.25492
46.4806 59.6712 0.00672958
45.3116 58.6357 2
43.7338 57.4816 3.99631
37.5631 67.7286 0.025113
39.6432 65.5795 0.0249205
41.5842 63.7721 0.016269
42.9145 61.9886 0.0202291
44.5574 60.1578 0.00626454
35.4659 67.6402 2
41.724 62.4162 2
39.884 63.5172 2
37.6432 65.4856 2
42.4302 59.8446 2
40.6002 61.5506 3.9902
40.399 58.0206 3.99365
37.8323 63.1645 3.97509
35.5741 65.3973 3.97294
33.5741 65.2985 2
31.974 63.2263 2
33.6387 63.2964 3.9911
30.412 62.7715 3.97911
32.1433 61.9407 3.98374
26.9538 61.3323 3.98819
28.0963 64.0664 3.98705
29.8965 64.6719 2
29.4176 66.732 3.97931
31.7054 65.0871 0.0248179
31.3856 67.1834 2
31.0179 69.4086 3.98236
33.3955 67.4664 0.0215557
33.158 69.7458 2
32.8956 72.1444 3.99045
35.3349 69.9499 0.0184801
35.1964 72.3712 2
35.0474 74.9194 4
37.5096 72.4549 0.009513
37.5 75 2
39.9526 74.9197 0
35.6182 6.74078 3.97712
37.5232 4.62388 3.98425
39.6227 4.72288 2
39.7886 2.47673 3.9908
41.7344 4.97841 0.017581
42.0617 2.72104 2
42.3946 0.32156 4
44.3252 3.11379 0.0115296
44.8159 0.72056 2
47.2057 1.27793 0
47.4863 41.037 0.0346599
55.3001 37.8831 0.0228863
50.9735 39.2379 0.0204711
45.4885 40.1497 2
48.3346 38.4554 2
51.9148 36.635 2
49.1482 35.6804 3.97788
45.8751 37.674 3.82023
43.9382 35.3642 3.79834
41.9148 34.0354 3.53336
41.0706 33.646 3.3457
37.4583 8.55331 3.97684
37.5137 6.68864 2
39.4378 6.81802 0.023926
39.2063 8.7268 2
38.9704 10.1637 3.99429
35.899 9.80552 3.98164
34.1533 8.85248 3.97588
35.9403 8.51872 2
53.0912 34.1748 0.0242979
51.8284 30.935 0.0251219
51.2166 27.785 0.0247861
51.7264 21.5727 0.0297772
51.0713 24.7024 0.0272504
49.4484 20.1749 0.0126045
47.8436 17.1945 0.0313362
47.5427 14.7726 0.0231039
44.7083 10.0517 0.0214557
45.9359 12.8273 0.0254694
41.0041 9.07057 0.0233945
42.4437 10.951 -0.00105128
50.462 33.18 2
40.5594 11.6511 2
43.8047 11.9529 2
49.6312 29.7741 2
49.5164 26.3451 2
49.2427 22.7394 2
45.6445 15.5677 2
47.2067 19.7844 2
48.0493 31.7526 3.98041
47.8336 28.1152 3.97725
48.3911 24.9234 3.95928
46.6807 22.5703 3.98725
38.3019 12.7884 3.98016
42.0355 14.442 3.99944
44.546 18.7262 3.98453
42.5596 37.4942 3.52328
44.2013 37.5028 2
47.7528 58.5161 0.00842495
48.1054 55.6084 0.0535481
48.2664 44.79 0.0160803
48.3802 48.4609 0.0233976
48.2929 52.1429 0.0296003
43.8999 39.6313 0.204138
44.4952 42.1504 0.154792
44.9035 45.0783 0.0357254
41.8619 40.9344 0.465821
41.0221 41.3105 0.658743
46.5289 57.0956 2
42.4856 39.4353 2
41.4243 40.3233 2
46.6011 46.6893 2
46.5675 53.8577 2
46.6003 50.2692 2
43.6592 46.6888 2
43.2738 41.6271 2
43.5529 43.9331 2
41.452 42.1248 2
40.3433 41.5991 2
45.0233 55.6533 4.00465
41.6503 38.9478 3.33475
40.0494 40.3286 3.32142
44.9724 48.3315 4.00648
44.7838 52.0643 3.99719
42.4742 47.6408 3.98484
42.3096 45.3056 3.84695
42.3589 43.1673 3.75223
40.6088 42.853 3.51906
39.0669 41.9007 3.34556
45.3167 58.631 0.00664335
43.7356 57.494 2
41.9682 56.0162 3.99677
35.4641 67.6391 0.025695
37.6409 65.4816 0.0231157
39.8826 63.5121 0.019942
41.7256 62.4203 0.0126717
42.4323 59.8349 0.00903928
35.5758 65.4057 2
40.6006 61.5386 2
37.8345 63.1703 2
40.3994 58.0344 2
38.8964 56.1731 3.99649
38.2328 60.2284 3.99031
35.6093 63.1593 3.97537
33.5798 65.306 0.0278047
31.976 63.2421 0.00596475
33.6373 63.2995 2
30.4082 62.7597 2
32.1552 61.9279 2
28.7419 62.0761 3.98941
33.3644 61.4648 3.99178
31.149 61.1203 3.99658
27.7212 59.4314 3.97716
23.9883 58.8424 3.97101
25.1459 60.6451 3.98472
26.9465 61.3425 2
26.2847 63.3719 3.97944
28.0962 64.0726 2
27.4824 66.1526 3.97534
29.9016 64.6763 0.0168962
29.4175 66.7446 2
28.9136 68.9291 3.97968
31.3846 67.1798 0.0212034
31.0155 69.4104 2
30.6193 71.7765 3.98993
33.1592 69.7425 0.0183778
32.8938 72.1456 2
32.6054 74.6784 4
35.1969 72.3704 0.00900771
35.0474 74.9197 2
37.5 75 0
33.722 6.99944 3.97455
35.4358 4.69378 3.98425
35.6192 6.74006 2
37.5149 2.38936 3.99077
37.5222 4.62306 2
39.6231 4.72393 0.0155325
39.7881 2.47642 2
39.9526 0.0806499 4
42.0618 2.72082 0.0109647
42.3947 0.320817 2
44.8158 0.721173 0
42.4458 35.5461 3.54137
41.426 34.6243 3.30838
45.3945 40.1575 0.12738
48.2636 38.4321 0.0395742
51.9263 36.6356 0.0230464
45.9389 37.6948 2
49.2056 35.6894 2
44.0521 35.3374 2
42.003 33.9596 2
41.0905 33.6323 2
46.2994 34.6177 3.91369
43.2463 33.3881 3.7933
41.4178 32.9395 3.54767
40.2489 33.3843 3.25229
37.3095 10.6597 3.9815
37.458 8.55248 2
37.5124 6.68871 0.0196684
39.207 8.72327 0.0124606
38.9736 10.1658 2
34.7588 10.4194 3.97445
35.9056 9.80421 2
32.384 9.40583 3.9711
34.1514 8.85333 2
35.9428 8.52057 0.025843
50.4333 33.1976 0.025794
49.6239 29.7784 0.023192
49.5184 26.3273 0.0282617
49.2482 22.7484 0.0250817
47.1821 19.7296 0.0219479
45.6595 15.626 -0.00773004
43.8048 11.9839 0.0292162
40.5556 11.6378 0.00929025
48.0686 31.7259 2
38.2987 12.7884 2
42.0412 14.4248 2
47.8225 28.1149 2
48.3901 24.9385 2
46.6725 22.5651 2
44.5762 18.7964 2
46.1 30.1643 3.97579
46.0959 25.6293 3.97788
43.9369 21.8492 3.98525
36.5978 13.0077 3.98062
38.6642 14.9584 3.98397
41.6231 18.0926 3.99039
41.7453 37.4592 3.3268
42.6602 37.4947 2
44.0657 37.5116 0.191283
46.534 57.0924 0.00620657
46.5772 53.8556 0.0475453
46.5957 46.6852 0.00184144
46.6022 50.2563 0.0272984
42.4001 39.4307 0.46202
43.2028 41.5798 0.197264
43.4819 43.891 0.165765
43.6179 46.6643 0.0270555
41.3867 42.0251 0.453958
41.3849 40.3257 0.675585
40.235 41.5792 0.74508
45.0182 55.654 2
41.6942 38.9524 2
40.1538 40.3109 2
44.9701 48.3584 2
44.7719 52.0626 2
42.5221 47.6665 2
42.3746 45.3993 2
42.4232 43.2011 2
40.6768 42.9548 2
38.9974 41.9576 2
43.3516 54.0363 4.00343
40.0273 38.8998 3.36056
38.9945 40.434 3.33887
42.8334 49.7628 4.00555
41.2184 46.7728 3.90721
41.1168 44.3463 3.75493
39.3737 43.541 3.54273
37.5104 42.078 3.42619
43.7338 57.4816 0.00368734
41.96 56.0057 2
40.2845 54.5588 3.99784
35.5741 65.3973 0.0270563
37.8323 63.1645 0.0249109
40.6002 61.5506 0.00979699
40.399 58.0206 0.00634758
35.6105 63.1662 2
38.2341 60.2112 2
38.8972 56.1611 2
37.9668 54.8546 3.99552
36.9278 57.4367 3.99282
35.3649 60.8294 3.98424
33.6387 63.2964 0.00889962
30.412 62.7715 0.0208908
32.1433 61.9407 0.0162573
33.3813 61.4609 2
28.732 62.0903 2
31.143 61.1175 2
29.5351 60.2499 3.98833
32.4049 59.59 3.99514
28.2173 58.1691 4.00824
27.7219 59.4473 2
25.5864 58.368 3.96786
23.0165 57.9782 3.96079
23.5286 60.1239 3.96856
23.9879 58.8424 2
25.1415 60.6441 2
24.5061 62.634 3.96416
26.9538 61.3323 0.0118135
26.2841 63.3917 2
25.5772 65.4254 3.9739
28.0963 64.0664 0.0129497
27.4773 66.1387 2
26.847 68.3205 3.98111
29.4176 66.732 0.0206875
28.9089 68.9323 2
28.3758 71.2605 3.98676
31.0179 69.4086 0.0176414
30.6163 71.7763 2
30.1842 74.2788 4
32.8956 72.1444 0.00954917
32.6053 74.6792 2
35.0474 74.9194 0
31.7879 7.44442 3.97242
33.3487 4.93471 3.98197
33.7229 6.99803 2
35.2457 2.46545 3.99063
35.4338 4.69359 2
35.6182 6.74078 0.0228835
37.5 0 4
37.5135 2.38925 2
37.5232 4.62388 0.0157487
39.7886 2.47673 0.00919519
39.9526 0.0802889 2
42.3946 0.32156 0
41.6624 35.9744 3.27238
42.5518 35.5417 2
40.1033 34.6204 3.3496
41.4614 34.619 2
45.8751 37.674 0.179766
49.1482 35.6804 0.0221176
43.9382 35.3642 0.201656
41.9148 34.0354 0.466639
41.0706 33.646 0.654305
46.3545 34.6082 2
43.3106 33.3404 2
41.4731 32.8464 2
40.3152 33.3706 2
44.5362 32.1329 3.86808
42.3805 31.8008 3.74143
40.6395 32.109 3.52697
39.0542 33.065 3.34913
35.7026 11.8278 3.97253
37.3174 10.6559 2
37.4583 8.55331 0.0231627
38.9704 10.1637 0.00571412
33.1107 11.277 3.96869
34.7645 10.4143 2
35.899 9.80552 0.0183562
30.4956 10.0724 3.96994
32.3818 9.41101 2
34.1533 8.85248 0.0241249
48.0493 31.7526 0.0195899
47.8336 28.1152 0.0227456
48.3911 24.9234 0.0407199
46.6807 22.5703 0.012746
44.546 18.7262 0.0154731
42.0355 14.442 0.000563626
38.3019 12.7884 0.0198413
36.5934 13.0075 2
46.0735 30.1105 2
38.6655 14.9417 2
41.59 18.0525 2
46.0931 25.6196 2
43.9326 21.8475 2
44.2559 28.3583 3.98459
43.11 24.5342 4.00475
41.0689 21.1576 3.9956
35.7953 14.8476 3.98965
38.6165 17.854 3.99232
40.076 37.4064 3.39455
41.8031 37.4701 2
42.5596 37.4942 0.476723
45.0233 55.6533 -0.00464848
44.7838 52.0643 0.00280857
44.9724 48.3315 -0.00648246
41.6503 38.9478 0.665254
42.3589 43.1673 0.247771
42.3096 45.3056 0.153046
42.4742 47.6408 0.0151645
40.6088 42.853 0.480942
40.0494 40.3286 0.678578
39.0669 41.9007 0.654444
43.3493 54.027 2
40.0998 38.9027 2
38.9316 40.4343 2
42.8082 49.7836 2
41.2244 46.8008 2
41.1397 44.4052 2
37.4912 42.0937 2
39.3853 43.6457 2
41.5094 52.4941 4.0063
38.9982 38.9528 3.32041
37.5039 40.4627 3.43466
35.9247 41.9232 3.34701
40.5204 48.9507 3.98559
39.4968 45.0678 3.73308
37.4941 43.8681 3.59652
41.9682 56.0162 0.00322754
40.2791 54.5591 2
38.6467 53.3097 3.99904
35.6093 63.1593 0.024633
38.2328 60.2284 0.00969202
38.8964 56.1731 0.00351291
35.3781 60.8187 2
36.9333 57.448 2
37.9532 54.8502 2
36.3303 54.9873 3.99574
34.5064 58.3511 3.99551
33.3644 61.4648 0.00822088
28.7419 62.0761 0.0105869
31.149 61.1203 0.0034188
32.4056 59.5748 2
29.5349 60.2599 2
30.4462 57.4948 3.98246
28.2086 58.1498 2
27.2607 56.5898 3.95954
27.7212 59.4314 0.0228442
25.5868 58.3659 2
24.2228 56.5108 3.95093
21.7441 57.0894 3.96038
22.1563 59.3954 3.96724
23.0102 57.9815 2
22.8277 61.8312 3.96884
23.5276 60.1253 2
23.9883 58.8424 0.0289925
25.1459 60.6451 0.0152824
24.5044 62.6473 2
23.7209 64.6297 3.96199
26.2847 63.3719 0.020557
25.5704 65.4144 2
24.8218 67.5828 3.96907
27.4824 66.1526 0.0246565
26.8408 68.323 2
26.1716 70.6025 3.98622
28.9136 68.9291 0.0203237
28.3712 71.2606 2
27.7943 73.7221 4
30.6193 71.7765 0.0100676
30.1841 74.2794 2
32.6054 74.6784 0
29.8118 8.02662 3.96882
31.2541 5.34325 3.97989
31.7884 7.43967 2
32.9822 2.70395 3.98957
33.3459 4.93422 2
33.722 6.99944 0.0254532
35.0474 0.080333 4
35.2438 2.46555 2
35.4358 4.69378 0.0157535
37.5 0 2
37.5149 2.38936 0.00922547
39.9526 0.0806499 0
40.2118 35.9873 3.41601
41.7257 35.9697 2
42.4458 35.5461 0.458634
28.5605 10.763 3.96878
38.9611 34.5527 3.31416
40.1136 34.6083 2
41.426 34.6243 0.691616
46.2994 34.6177 0.0863087
43.2463 33.3881 0.206704
41.4178 32.9395 0.45233
40.2489 33.3843 0.747707
44.5575 32.096 2
42.4547 31.7555 2
40.7045 32.0089 2
39.0013 33.0108 2
43.1156 30.4698 3.84833
41.1357 30.5826 3.75751
39.3657 31.419 3.54569
37.4911 32.9107 3.42259
34.1168 13.0058 3.98297
35.7066 11.8187 2
37.3095 10.6597 0.0184992
31.2078 12.067 3.97027
33.115 11.264 2
34.7588 10.4194 0.025548
30.49 10.0685 2
32.384 9.40583 0.0288973
46.1 30.1643 0.0242062
46.0959 25.6293 0.0221196
36.5978 13.0077 0.0193843
43.9369 21.8492 0.0147512
41.6231 18.0926 0.0096059
38.6642 14.9584 0.0160343
35.7761 14.8663 2
44.2487 28.3699 2
38.6144 17.8573 2
41.1005 21.1546 2
43.0995 24.5175 2
33.6619 15.994 3.99318
42.2439 27.1226 3.96919
40.6675 23.9551 4.00403
38.3425 20.6982 3.99726
35.848 17.7585 3.99355
38.9827 37.4824 3.27894
40.1198 37.4144 2
41.7453 37.4592 0.673203
43.3516 54.0363 -0.00342889
42.8334 49.7628 -0.00555412
40.0273 38.8998 0.639438
41.1168 44.3463 0.245066
41.2184 46.7728 0.0927868
39.3737 43.541 0.457273
38.9945 40.434 0.661128
37.5104 42.078 0.573806
41.4942 52.4852 2
38.9544 38.9535 2
37.476 40.4742 2
40.5085 48.9567 2
35.983 41.9732 2
39.5321 45.149 2
37.4871 43.9609 2
39.6324 51.2115 3.99818
37.4882 38.9516 3.39047
36.0734 40.4574 3.32407
34.7797 41.6064 3.24716
35.6239 43.5616 3.54109
38.5399 47.7684 3.91378
37.4683 45.3582 3.76449
40.2845 54.5588 0.0021614
38.6339 53.3227 2
36.7867 52.6452 4.00008
35.3649 60.8294 0.0157648
36.9278 57.4367 0.00718351
37.9668 54.8546 0.00447845
34.5058 58.3578 2
36.3298 54.9875 2
33.4756 55.162 4.00521
32.4049 59.59 0.00485528
29.5351 60.2499 0.0116684
30.4479 57.4922 2
29.1253 55.107 3.98516
28.2173 58.1691 -0.00823831
27.2622 56.5839 2
25.831 54.8249 3.95197
22.4283 54.9732 3.95863
25.5864 58.368 0.0321438
24.218 56.5121 2
20.6325 56.7238 3.96154
20.8773 58.5317 3.95577
21.7416 57.0929 2
21.273 60.9598 3.96284
22.153 59.4025 2
23.0165 57.9782 0.0392127
21.9472 63.7102 3.96501
22.8238 61.8365 2
23.5286 60.1239 0.0314395
24.5061 62.634 0.0358372
23.7134 64.6291 2
22.853 66.7044 3.96555
25.5772 65.4254 0.0260976
24.816 67.5771 2
24.0155 69.8043 3.98515
26.847 68.3205 0.0188878
26.1649 70.6011 2
25.446 73.0099 4
28.3758 71.2605 0.0132425
27.7943 73.7222 2
30.1842 74.2788 0
27.8242 8.70863 3.97005
29.1563 5.89026 3.9776
29.8118 8.0258 2
30.7282 3.10137 3.98838
31.2511 5.34323 2
31.7879 7.44442 0.0275804
32.6053 0.320823 4
32.9794 2.70413 2
33.3487 4.93471 0.0180295
35.0474 0.0802903 2
35.2457 2.46545 0.00937013
37.5 0 0
38.8384 36.0316 3.2936
40.1839 35.9894 2
41.6624 35.9744 0.727625
28.558 10.7656 2
26.6457 11.4781 3.96992
29.2565 12.714 3.97592
37.5022 34.5344 3.43361
38.9634 34.5581 2
40.1033 34.6204 0.650402
44.5362 32.1329 0.131919
42.3805 31.8008 0.258575
40.6395 32.109 0.473031
39.0542 33.065 0.650872
43.1881 30.4135 2
41.186 30.5177 2
39.3773 31.313 2
37.5091 32.8907 2
41.5386 29.2235 3.84446
39.5253 29.9093 3.75291
37.4927 31.1007 3.60039
35.9302 33.0801 3.35357
31.9678 14.5772 3.98439
34.1169 12.9968 2
35.7026 11.8278 0.0274743
31.2076 12.0564 2
33.1107 11.277 0.0313065
30.4956 10.0724 0.0300584
44.2559 28.3583 0.0154107
43.11 24.5342 -0.00475251
35.7953 14.8476 0.010351
41.0689 21.1576 0.00439601
38.6165 17.854 0.00767585
33.6396 15.9736 2
35.844 17.6855 2
42.2965 27.0722 2
38.3139 20.7564 2
40.6264 23.9798 2
33.6002 17.5867 3.98966
40.0814 26.4737 3.95493
37.9882 23.7269 3.99635
35.5537 20.5799 3.99211
37.5335 37.4846 3.41537
38.9321 37.4896 2
40.076 37.4064 0.605454
41.5094 52.4941 -0.006302
40.5204 48.9507 0.0144066
38.9982 38.9528 0.679587
39.4968 45.0678 0.266923
37.4941 43.8681 0.403485
37.5039 40.4627 0.565343
35.9247 41.9232 0.652991
39.6171 51.1936 2
37.463 38.965 2
36.0516 40.4271 2
38.5723 47.8368 2
34.6945 41.6233 2
35.6055 43.6711 2
37.4889 45.4378 2
37.6943 50.1921 3.98812
36.1801 38.9935 3.3048
34.9005 40.3515 3.35487
33.9561 41.3459 3.34467
34.3979 42.8852 3.51796
35.4599 45.1519 3.76318
36.9663 47.402 3.86308
38.6467 53.3097 0.000959062
36.8197 52.5777 2
34.5828 52.018 3.99889
34.5064 58.3511 0.0044851
36.3303 54.9873 0.00425554
33.4814 55.161 2
31.0184 53.1124 3.99451
30.4462 57.4948 0.017536
29.1324 55.1081 2
27.5348 53.0845 3.95136
27.2607 56.5898 0.0404624
25.8437 54.8208 2
24.3511 53.0497 3.95277
21.3877 52.7686 3.95859
20.5298 55.476 3.95949
22.4318 54.9739 2
24.2228 56.5108 0.0490743
19.7659 57.6196 3.96019
20.6295 56.7267 2
19.82 60.0102 3.96313
20.8634 58.5389 2
21.7441 57.0894 0.0396196
20.2798 62.6735 3.96852
21.2785 60.9726 2
22.1563 59.3954 0.032756
20.9618 65.6969 3.96402
21.9443 63.6991 2
22.8277 61.8312 0.0311627
23.7209 64.6297 0.038012
22.8483 66.6936 2
21.9196 68.8683 3.97996
24.8218 67.5828 0.0309277
24.0088 69.7997 2
23.1494 72.1454 4
26.1716 70.6025 0.0137756
25.446 73.0099 2
27.7943 73.7221 0
25.8653 9.45677 3.96822
27.0715 6.55683 3.97324
27.824 8.6954 2
28.4909 3.64672 3.98759
29.153 5.88973 2
29.8118 8.02662 0.0311781
30.1841 0.720592 4
30.7241 3.10187 2
31.2541 5.34325 0.020113
32.6053 0.320817 2
32.9822 2.70395 0.0104326
35.0474 0.080333 0
37.527 36.0126 3.37775
38.8084 35.9823 2
40.2118 35.9873 0.583985
24.8136 12.1611 3.96369
23.8314 14.6084 3.98257
28.5605 10.763 0.0312224
26.6434 11.4699 2
29.2508 12.7458 2
27.3247 13.5139 3.97586
29.8464 14.267 4.00563
36.0083 34.5502 3.34738
37.5441 34.5102 2
38.9611 34.5527 0.68584
37.4911 32.9107 0.57741
43.1156 30.4698 0.151674
41.1357 30.5826 0.242489
39.3657 31.419 0.45431
41.5687 29.1404 2
39.5216 29.8148 2
37.4929 31.0139 2
35.9875 33.0251 2
39.6782 28.5117 3.83292
37.4812 29.5737 3.74631
35.624 31.4421 3.5442
34.7423 33.4058 3.26023
31.0304 16.9452 3.99604
31.9566 14.5481 2
34.1168 13.0058 0.0170291
31.2078 12.067 0.0297338
42.2439 27.1226 0.0308088
40.6675 23.9551 -0.00403092
33.6619 15.994 0.00682205
35.848 17.7585 0.00644826
38.3425 20.6982 0.00274344
33.5554 17.6088 2
35.4946 20.625 2
40.0905 26.4658 2
38.0443 23.7204 2
33.058 20.1752 3.99631
37.7714 26.1382 3.95417
35.4532 23.3409 4.00367
36.1141 37.4825 3.28873
37.4957 37.4805 2
38.9827 37.4824 0.721058
39.6324 51.2115 0.00182496
38.5399 47.7684 0.0862186
37.4882 38.9516 0.60953
37.4683 45.3582 0.235512
35.6239 43.5616 0.458912
36.0734 40.4574 0.67593
34.7797 41.6064 0.752837
37.6176 50.2331 2
36.2424 38.9726 2
34.8718 40.375 2
36.9325 47.4797 2
33.9138 41.362 2
34.328 42.9797 2
35.4275 45.2191 2
35.6166 49.3638 3.98069
34.8465 38.9555 3.41626
33.5852 40.3707 3.30917
33.6093 42.0567 3.54545
33.9158 44.3844 3.74644
34.7903 46.5633 3.8435
36.7867 52.6452 -8.45784e-05
34.5688 52.0308 2
32.5634 50.7296 4.00555
33.4756 55.162 -0.005213
31.0247 53.1094 2
29.1603 51.0733 3.98465
29.1253 55.107 0.0148373
27.5418 53.0744 2
25.982 51.2477 3.95865
25.831 54.8249 0.0480294
24.3592 53.051 2
22.9922 51.306 3.9545
20.3052 51.1434 3.96597
19.7283 53.9 3.96155
21.3845 52.7686 2
18.9689 56.4031 3.9614
20.5239 55.4787 2
22.4283 54.9732 0.0413661
18.5738 58.8902 3.95373
19.771 57.6188 2
20.6325 56.7238 0.03846
18.6864 61.6264 3.97667
19.8332 60.0076 2
20.8773 58.5317 0.0442333
19.1607 64.5701 3.96574
20.2764 62.6806 2
21.273 60.9598 0.0371578
19.8942 67.8059 3.97697
20.9504 65.7018 2
21.9472 63.7102 0.0349888
22.853 66.7044 0.0344529
21.9125 68.8631 2
20.9142 71.1327 4
24.0155 69.8043 0.0148488
23.1494 72.1455 2
25.446 73.0099 0
23.1358 12.9874 3.96798
23.9894 10.2271 3.96631
25.0271 7.33644 3.9699
25.8678 9.44717 2
26.2832 4.33226 3.98535
27.0676 6.55941 2
27.8242 8.70863 0.0299498
27.7943 1.27781 4
28.4855 3.64868 2
29.1563 5.89026 0.022401
30.1841 0.720551 2
30.7282 3.10137 0.0116162
32.6053 0.320823 0
36.0408 36.0246 3.32301
37.5816 36.0278 2
38.8384 36.0316 0.706403
24.7965 12.2094 2
23.8283 14.6305 2
22.6039 15.2715 3.97234
25.409 14.1216 3.97013
24.175 15.8632 4.00197
26.6457 11.4781 0.0300777
29.2565 12.714 0.0240757
27.3326 13.4837 2
29.8317 14.298 2
28.4854 16.0199 3.99108
34.924 34.6488 3.33495
36.0797 34.553 2
37.5022 34.5344 0.566395
35.9302 33.0801 0.64643
37.4927 31.1007 0.399611
41.5386 29.2235 0.155537
39.5253 29.9093 0.247092
39.739 28.4478 2
37.481 29.5287 2
35.6091 31.3407 2
34.6501 33.3851 2
37.5799 28.1921 3.83046
35.4878 29.9144 3.74509
34.3672 32.1282 3.52098
33.938 33.6711 3.34652
30.4233 19.8241 3.98547
30.9856 16.9535 2
31.9678 14.5772 0.0156084
40.0814 26.4737 0.0450673
37.9882 23.7269 0.00365498
33.6002 17.5867 0.0103403
35.5537 20.5799 0.00788629
33.0479 20.2011 2
35.3788 23.3162 2
37.7365 26.1161 2
32.7334 22.9725 4.00526
35.2779 25.9914 3.97011
34.8704 37.5183 3.42456
36.1027 37.5092 2
37.5335 37.4846 0.584629
37.6943 50.1921 0.0118799
36.9663 47.402 0.136921
36.1801 38.9935 0.695198
35.4599 45.1519 0.236821
34.3979 42.8852 0.482044
34.9005 40.3515 0.645128
33.9561 41.3459 0.655329
35.6275 49.372 2
34.8203 38.9715 2
33.5476 40.3615 2
34.7445 46.6427 2
33.5426 42.1536 2
33.8638 44.4475 2
33.7704 48.4625 3.9674
33.3316 39.0045 3.27443
33.0993 40.9582 3.53306
32.634 43.2007 3.74985
33.1848 45.5397 3.83679
34.5828 52.018 0.00110527
32.58 50.7174 2
30.7896 49.1978 4.00367
31.0184 53.1124 0.00548911
29.1697 51.0625 2
27.5575 49.4239 3.98046
27.5348 53.0845 0.0486445
25.9929 51.248 2
24.4852 49.6405 3.97169
24.3511 53.0497 0.0472333
22.995 51.303 2
21.7111 49.7709 3.96642
18.9816 49.8887 3.97366
18.7699 52.3606 3.96775
20.303 51.1425 2
18.1267 54.9812 3.96319
19.7214 53.9009 2
21.3877 52.7686 0.0414138
17.5266 57.6086 3.96083
18.966 56.4045 2
20.5298 55.476 0.0405088
17.2523 60.3956 3.94964
18.5881 58.8891 2
19.7659 57.6196 0.0398143
17.4227 63.3857 3.96571
18.6862 61.6144 2
19.82 60.0102 0.0368702
17.9534 66.6085 3.96734
19.1441 64.5697 2
20.2798 62.6735 0.0314828
18.75 69.9759 4
19.8878 67.7984 2
20.9618 65.6969 0.0359773
21.9196 68.8683 0.0200412
20.9142 71.1327 2
23.1494 72.1454 0
21.6558 13.7968 3.96899
22.2132 11.1286 3.96288
23.1366 12.9777 2
23.0469 8.215 3.96943
23.9823 10.2624 2
24.1213 5.14548 3.98573
25.0216 7.3324 2
25.8653 9.45677 0.031779
25.446 1.99014 4
26.2768 4.33433 2
27.0715 6.55683 0.026758
27.7943 1.27778 2
28.4909 3.64672 0.0124121
30.1841 0.720592 0
34.9443 36.0578 3.37057
36.0921 36.0217 2
37.527 36.0126 0.622248
21.4908 16.0769 3.95745
24.8136 12.1611 0.036314
23.8314 14.6084 0.0174348
25.4077 14.0998 2
22.6077 15.2637 2
24.1805 15.8872 2
23.478 16.4937 3.96398
25.5238 16.377 3.98764
27.3247 13.5139 0.0241399
29.8464 14.267 -0.00563054
28.469 16.0971 2
27.6911 19.218 3.98969
33.5747 34.6512 3.32969
34.827 34.6641 2
36.0083 34.5502 0.652617
34.7423 33.4058 0.739768
35.624 31.4421 0.455803
37.4812 29.5737 0.253692
39.6782 28.5117 0.167081
37.5456 28.1566 2
33.897 33.6582 2
35.4708 29.8361 2
34.3074 32.028 2
35.3712 28.2931 3.85675
33.8791 30.6157 3.75694
33.5745 32.9504 3.5485
30.0921 22.4717 4.01049
30.3891 19.8594 2
31.0304 16.9452 0.00396488
37.7714 26.1382 0.0458295
35.4532 23.3409 -0.00366777
33.058 20.1752 0.00369272
32.7549 22.9413 2
35.2833 25.981 2
32.4623 26.3196 4.02224
33.2268 37.5092 3.31095
34.8518 37.5158 2
36.1141 37.4825 0.711271
35.6166 49.3638 0.0193148
34.7903 46.5633 0.156505
34.8465 38.9555 0.583737
33.9158 44.3844 0.253557
33.6093 42.0567 0.454547
33.5852 40.3707 0.690831
33.7193 48.4675 2
33.3073 39.0096 2
33.0078 41.0379 2
33.1672 45.613 2
32.5759 43.2238 2
32.1614 47.2181 3.97692
32.5638 39.4472 3.54537
31.7662 41.6116 3.79551
31.7704 44.2521 3.83359
32.5634 50.7296 -0.00555048
30.8032 49.2094 2
29.1168 47.6381 3.98045
29.1603 51.0733 0.0153539
27.5652 49.4218 2
25.984 47.8702 3.97667
25.982 51.2477 0.0413472
24.4912 49.6386 2
23.0411 48.1973 3.97321
22.9922 51.306 0.0454989
21.7109 49.7683 2
20.179 48.626 3.97479
17.8566 48.9569 3.97544
17.6262 51.0187 3.97305
18.9835 49.8885 2
17.1318 53.5106 3.96905
18.7707 52.3591 2
20.3052 51.1434 0.0340256
16.4922 56.1889 3.9654
18.1231 54.9825 2
19.7283 53.9 0.0384457
15.936 59.0362 3.95709
17.5312 57.6097 2
18.9689 56.4031 0.0385992
15.7998 62.0391 3.96665
17.2367 60.4061 2
18.5738 58.8902 0.0462687
16.0976 65.2967 3.96822
17.4228 63.4082 2
18.6864 61.6264 0.0233319
16.6661 68.6801 4
17.9447 66.6023 2
19.1607 64.5701 0.0342579
18.75 69.9759 2
19.8942 67.8059 0.0230283
20.9142 71.1327 0
20.3273 14.8006 3.95439
21.6572 13.788 2
20.5701 12.1551 3.96935
21.1543 9.20109 3.97154
22.2029 11.1492 2
23.1358 12.9874 0.0320245
22.0231 6.08613 3.985
23.0418 8.22224 2
23.9894 10.2271 0.0336934
23.1494 2.85457 4
24.1149 5.15152 2
25.0271 7.33644 0.0301008
25.446 1.99012 2
26.2832 4.33226 0.0146508
27.7943 1.27781 0
33.3154 36.022 3.33055
34.8693 36.0607 2
36.0408 36.0246 0.676991
21.5047 16.0913 2
20.6003 17.2681 3.96166
22.3341 16.8894 3.96414
25.409 14.1216 0.0298747
22.6039 15.2715 0.0276588
24.175 15.8632 -0.00197378
25.5336 16.371 2
23.4827 16.5038 2
24.4967 18.8569 3.97712
27.5753 22.0281 3.99017
28.4854 16.0199 0.00892376
27.6731 19.2086 2
33.0744 34.0304 3.53428
33.5382 34.6558 2
34.924 34.6488 0.665049
33.938 33.6711 0.653477
34.3672 32.1282 0.479023
35.4878 29.9144 0.254912
37.5799 28.1921 0.169542
35.3532 28.2453 2
33.5245 32.8565 2
33.8298 30.5387 2
33.3569 28.9563 3.8662
32.6339 31.8054 3.74481
29.6406 24.9813 4.0113
30.1101 22.4311 2
30.4233 19.8241 0.014531
35.2779 25.9914 0.0298873
32.7334 22.9725 -0.00526039
32.4458 26.281 2
30.7814 27.9451 3.98853
32.4396 37.4897 3.52224
33.1863 37.5103 2
34.8704 37.5183 0.57544
33.7704 48.4625 0.032597
33.1848 45.5397 0.163207
33.3316 39.0045 0.725568
32.634 43.2007 0.250145
33.0993 40.9582 0.466942
32.1202 47.2545 2
32.4714 39.4448 2
31.6967 41.6604 2
31.6862 44.322 2
30.5835 45.8524 3.97014
31.0696 39.6344 3.80167
30.4751 42.6269 3.862
30.7896 49.1978 -0.00367029
29.1251 47.6496 2
27.4727 46.0847 3.98599
27.5575 49.4239 0.0195391
25.9903 47.8677 2
24.3793 46.4835 3.97574
24.4852 49.6405 0.0283067
23.0416 48.1957 2
21.2952 47.1379 3.97468
21.7111 49.7709 0.0335781
20.1779 48.6257 2
18.7705 47.777 3.97535
17.0955 48.3375 3.97485
17.8567 48.9577 2
16.6819 49.8328 3.97434
16.0748 52.0927 3.97313
17.628 51.0172 2
18.9816 49.8887 0.0263374
15.4089 54.7028 3.9706
17.1342 53.5099 2
18.7699 52.3606 0.0322518
14.7376 57.5607 3.96228
16.4945 56.1892 2
18.1267 54.9812 0.0368135
14.2934 60.6215 3.9523
15.9276 59.0404 2
17.5266 57.6086 0.0391712
14.341 63.8509 3.96433
15.8093 62.0478 2
17.2523 60.3956 0.0503639
14.6715 67.2507 4
16.0927 65.2833 2
17.4227 63.3857 0.0342946
16.6661 68.6801 2
17.9534 66.6085 0.0326638
18.75 69.9759 0
19.1281 16.0335 3.95759
20.3443 14.7867 2
19.0329 13.299 3.96354
21.6558 13.7968 0.0310149
20.5552 12.1493 2
19.3627 10.3136 3.96941
19.9988 7.14861 3.97755
21.1473 9.20062 2
22.2132 11.1286 0.0371228
20.9142 3.86727 4
22.0125 6.08647 2
23.0469 8.215 0.0305717
23.1494 2.85451 2
24.1213 5.14548 0.0142672
25.446 1.99014 0
32.5716 35.5381 3.53115
33.2757 36.0185 2
34.9443 36.0578 0.629431
21.4908 16.0769 0.0425548
22.3512 16.9074 2
20.6147 17.2679 2
19.6842 18.7605 3.96606
22.0682 18.2514 3.97985
25.5238 16.377 0.0123569
23.478 16.4937 0.036022
24.5212 18.8698 2
22.8419 20.3275 3.96711
25.1997 21.878 3.98523
27.3115 24.206 3.9713
27.6033 21.9477 2
27.6911 19.218 0.0103113
31.734 33.3889 3.79421
32.994 33.9795 2
33.5747 34.6512 0.670306
33.5745 32.9504 0.451499
33.8791 30.6157 0.243058
35.3712 28.2931 0.143254
33.3098 28.895 2
32.5391 31.7333 2
31.4721 30.2852 3.88356
29.0832 27.1416 4.01389
29.6463 24.9536 2
30.0921 22.4717 -0.010492
32.4623 26.3196 -0.0222428
30.7848 27.9505 2
30.9269 37.4806 3.80799
32.3224 37.489 2
33.2268 37.5092 0.689051
32.1614 47.2181 0.0230836
31.7704 44.2521 0.166412
32.5638 39.4472 0.454626
31.7662 41.6116 0.20449
30.5994 45.8686 2
30.9702 39.6567 2
30.4467 42.6577 2
28.9956 44.2869 3.95453
28.8403 40.2861 3.9059
29.1168 47.6381 0.0195477
27.4781 46.0905 2
25.7481 44.6401 3.97748
25.984 47.8702 0.0233296
24.3815 46.4843 2
22.4184 45.4661 3.97577
23.0411 48.1973 0.0267853
21.2963 47.1381 2
19.5749 46.3492 3.97468
20.179 48.626 0.0252116
18.7711 47.7778 2
17.3661 47.3749 3.97459
17.0972 48.3385 2
16.0536 48.7041 3.97432
17.8566 48.9569 0.024565
16.6835 49.8324 2
15.1802 50.7004 3.97359
14.351 53.188 3.97307
16.0754 52.0921 2
17.6262 51.0187 0.026952
13.5912 55.9922 3.96419
15.4099 54.7031 2
17.1318 53.5106 0.030945
12.9424 59.0502 3.95167
14.7369 57.5624 2
16.4922 56.1889 0.0345992
12.6872 62.2936 3.96389
14.3072 60.627 2
15.936 59.0362 0.0429128
12.7746 65.6939 4
14.3367 63.8415 2
15.7998 62.0391 0.0333463
14.6714 67.2507 2
16.0976 65.2967 0.0317815
16.6661 68.6801 0
18.029 17.4455 3.95998
19.1554 16.0298 2
17.5917 14.5464 3.95384
20.3273 14.8006 0.0456075
19.0241 13.2436 2
17.6749 11.5827 3.96831
20.5701 12.1551 0.030646
19.3527 10.3309 2
18.0588 8.34575 3.9704
18.75 5.0241 4
19.9879 7.16072 2
21.1543 9.20109 0.0284616
20.9142 3.86727 2
22.0231 6.08613 0.015004
23.1494 2.85457 0
31.0662 35.3648 3.79672
32.4708 35.5361 2
33.3154 36.022 0.669449
22.3341 16.8894 0.035862
20.6003 17.2681 0.0383419
22.1036 18.2451 2
19.6913 18.7585 2
18.6364 20.3375 3.96843
21.4185 19.7986 3.97504
24.4967 18.8569 0.0228832
22.8551 20.3269 2
25.2196 21.8367 2
23.147 22.2213 3.97233
25.636 23.5356 3.96413
26.7304 26.5173 3.98512
27.3129 24.2204 2
27.5753 22.0281 0.00982921
30.1827 32.8285 3.85648
31.6673 33.345 2
33.0744 34.0304 0.465718
32.6339 31.8054 0.255187
33.3569 28.9563 0.133803
31.4473 30.2398 2
28.5966 29.75 4.00066
29.0738 27.1743 2
29.6406 24.9813 -0.0113027
30.7814 27.9451 0.0114733
29.2061 37.4567 3.82384
30.7991 37.4965 2
32.4396 37.4897 0.477763
30.5835 45.8524 0.0298646
30.4751 42.6269 0.137997
31.0696 39.6344 0.198332
29.0045 44.34 2
28.7928 40.3226 2
27.2065 42.8388 3.98413
26.2125 39.314 3.97643
27.4727 46.0847 0.0140149
25.7415 44.6479 2
23.7105 43.5417 3.97444
24.3793 46.4835 0.0242552
22.418 45.4655 2
20.4347 44.6091 3.97438
21.2952 47.1379 0.0253219
19.5753 46.3494 2
17.7612 45.8917 3.97483
18.7705 47.777 0.0246485
17.3665 47.3752 2
15.832 47.389 3.97455
17.0955 48.3375 0.0251488
16.0554 48.7045 2
14.5042 49.2883 3.97402
16.6819 49.8328 0.0256601
15.181 50.6998 2
13.4211 51.654 3.97339
12.4718 54.3731 3.9684
14.3521 53.1879 2
16.0748 52.0927 0.0268729
11.6635 57.3889 3.9567
13.5854 55.9943 2
15.4089 54.7028 0.0293995
11.1425 60.6198 3.96215
12.942 59.0509 2
14.7376 57.5607 0.0377158
10.9835 64.0165 4
12.6848 62.2836 2
14.2934 60.6215 0.0476973
12.7745 65.694 2
14.341 63.8509 0.0356698
14.6715 67.2507 0
16.8906 18.9611 3.96357
18.0412 17.4437 2
16.3157 15.9818 3.95828
19.1281 16.0335 0.0424098
17.6018 14.5479 2
16.0379 12.8931 3.95783
19.0329 13.299 0.0364551
17.6483 11.5539 2
16.2097 9.67057 3.96615
19.3627 10.3136 0.0305941
18.0498 8.35723 2
16.6661 6.31991 4
18.75 5.02404 2
19.9988 7.14861 0.0224545
20.9142 3.86727 0
29.4742 35.012 3.87238
30.9378 35.3361 2
32.5716 35.5381 0.468845
17.3659 21.7561 3.97182
22.0682 18.2514 0.0201482
19.6842 18.7605 0.0339366
21.4288 19.7961 2
18.6296 20.3325 2
20.5616 22.055 3.97393
22.8419 20.3275 0.0328873
25.1997 21.878 0.01477
23.1512 22.2198 2
25.6238 23.5831 2
24.0474 25.172 3.97245
26.1776 29.1298 3.98323
26.7304 26.5402 2
27.3115 24.206 0.0287004
28.0814 32.1613 3.97252
30.1322 32.797 2
31.734 33.3889 0.205792
31.4721 30.2852 0.116444
28.5981 29.7038 2
29.0832 27.1416 -0.0138933
26.982 36.9114 3.95241
29.1341 37.4077 2
30.9269 37.4806 0.192011
28.9956 44.2869 0.0454689
28.8403 40.2861 0.0940991
27.1831 42.8782 2
26.1565 39.2995 2
25.0016 41.5238 3.97383
23.9084 38.4916 3.97449
25.7481 44.6401 0.0225246
23.709 43.5485 2
21.3769 42.594 3.97447
22.4184 45.4661 0.0242327
20.4367 44.6095 2
18.2006 44.1005 3.9751
19.5749 46.3492 0.0253229
17.7619 45.892 2
15.8064 45.8363 3.97505
17.3661 47.3749 0.0254133
15.8322 47.3892 2
14.036 47.7825 3.97434
16.0536 48.7041 0.0256811
14.5047 49.2883 2
12.6627 50.0551 3.97431
15.1802 50.7004 0.0264136
13.4216 51.6537 2
11.4644 52.7009 3.97218
10.4684 55.6483 3.95943
12.4683 54.3741 2
14.351 53.188 0.0269337
9.70983 58.8451 3.96261
11.6649 57.3889 2
13.5912 55.9922 0.0358129
9.30605 62.2254 4
11.1413 60.6126 2
12.9424 59.0502 0.0483329
10.9835 64.0165 2
12.6872 62.2936 0.0361076
12.7746 65.6939 0
15.6546 20.4767 3.96977
16.9005 18.9603 2
15.0498 17.51 3.96191
18.029 17.4455 0.0400174
16.2832 15.9707 2
14.5061 14.3784 3.95357
17.5917 14.5464 0.0461607
16.0491 12.8874 2
14.453 11.1226 3.96756
17.6749 11.5827 0.0316852
16.2049 9.68739 2
14.6715 7.74927 4
18.0588 8.34575 0.0295986
16.6661 6.31988 2
18.75 5.0241 0
27.4214 34.5367 3.97493
29.4086 35.0171 2
31.0662 35.3648 0.203285
18.694 22.7673 3.97409
16.2496 23.2719 3.97238
17.368 21.7539 2
21.4185 19.7986 0.0249555
18.6364 20.3375 0.0315659
20.5703 22.0543 2
20.7713 24.9241 3.97189
23.147 22.2213 0.0276717
25.636 23.5356 0.0358691
24.0508 25.1692 2
23.5538 28.4168 3.97009
25.6687 31.6104 3.98238
26.1891 29.027 2
26.7304 26.5173 0.0148766
28.0498 32.1435 2
30.1827 32.8285 0.143516
28.5966 29.75 -0.000657535
24.643 36.3705 3.97813
26.9076 36.9119 2
29.2061 37.4567 0.176161
27.2065 42.8388 0.0158667
26.2125 39.314 0.0235695
24.9672 41.5359 2
23.9016 38.4985 2
22.5986 40.4421 3.97542
21.8792 37.7836 3.97839
23.7105 43.5417 0.0255564
21.3777 42.5911 2
18.7174 41.9 3.97564
20.4347 44.6091 0.0256196
18.2008 44.1001 2
15.8635 43.9896 3.97518
17.7612 45.8917 0.025172
15.8061 45.8363 2
13.7326 46.1006 3.97479
15.832 47.389 0.0254464
14.0354 47.7824 2
12.0482 48.3801 3.97455
14.5042 49.2883 0.0259782
12.6632 50.0547 2
10.6048 50.9574 3.9739
13.4211 51.654 0.0266137
11.4644 52.7007 2
9.36838 53.837 3.96174
8.39217 56.981 3.96595
10.4714 55.6469 2
12.4718 54.3731 0.0316038
7.74927 60.3285 4
9.70887 58.8389 2
11.6635 57.3889 0.0432973
9.306 62.2255 2
11.1425 60.6198 0.0378542
10.9835 64.0165 0
14.4858 22.0206 3.9725
15.6589 20.4748 2
13.761 19.086 3.96525
16.8906 18.9611 0.0364283
15.0293 17.501 2
13.0662 15.953 3.95384
16.3157 15.9818 0.0417226
14.5301 14.375 2
12.7901 12.6962 3.96483
16.0379 12.8931 0.0421688
14.448 11.1343 2
12.7746 9.30605 4
16.2097 9.67057 0.033848
14.6715 7.74924 2
16.6661 6.31991 0
25.0918 34.0464 3.97943
27.3978 34.4825 2
29.4742 35.012 0.127618
18.5922 24.4971 3.97179
18.7018 22.7691 2
15.0607 24.7343 3.97332
16.2493 23.2706 2
17.3659 21.7561 0.0281753
20.3167 27.6606 3.97259
20.5616 22.055 0.0260719
20.7745 24.9261 2
22.9224 31.0769 3.9738
24.0474 25.172 0.0275451
23.5497 28.4238 2
25.6129 31.6933 2
26.1776 29.1298 0.0167666
28.0814 32.1613 0.0274792
21.9621 36.0311 3.9774
24.6182 36.3849 2
26.982 36.9114 0.0475913
25.0016 41.5238 0.0261743
23.9084 38.4916 0.0255054
22.6065 40.4423 2
21.8771 37.7846 2
19.5372 38.9429 3.97709
21.3769 42.594 0.0255284
18.7181 41.8994 2
15.8611 41.7832 3.97585
18.2006 44.1005 0.0248994
15.8632 43.9892 2
13.495 44.2369 3.97515
15.8064 45.8363 0.0249478
13.7316 46.1007 2
11.5558 46.5907 3.97476
14.036 47.7825 0.0256593
12.0484 48.3797 2
9.88344 49.1292 3.97535
12.6627 50.0551 0.0256893
10.6054 50.9568 2
8.3989 51.9573 3.96335
11.4644 52.7009 0.0278168
9.36653 53.8361 2
7.20067 55.0327 3.96715
6.31991 58.3339 4
8.39104 56.9756 2
10.4684 55.6483 0.0405687
7.74924 60.3285 2
9.70983 58.8451 0.0373877
9.30605 62.2254 0
13.877 25.6067 3.97557
13.3801 23.5129 3.97348
14.4872 22.0184 2
12.5695 20.7153 3.96934
15.6546 20.4767 0.0302311
13.7503 19.0803 2
11.7748 17.6349 3.95331
15.0498 17.51 0.0380884
13.1008 15.9581 2
11.229 14.3827 3.96143
14.5061 14.3784 0.0464308
12.7884 12.7067 2
10.9835 10.9835 4
14.453 11.1226 0.0324351
12.7745 9.306 2
14.6715 7.74927 0
22.3125 33.6565 3.9772
25.0932 33.9903 2
27.4214 34.5367 0.0250716
16.8724 26.7323 3.97371
18.5941 24.4984 2
18.694 22.7673 0.0259127
15.0587 24.7354 2
16.2496 23.2719 0.0276245
19.7083 30.5111 3.97488
20.3199 27.6601 2
20.7713 24.9241 0.0281093
22.9374 31.0661 2
23.5538 28.4168 0.0299142
25.6687 31.6104 0.0176185
19.1016 36.0489 3.97717
21.9603 36.0259 2
24.643 36.3705 0.0218681
22.5986 40.4421 0.0245769
21.8792 37.7836 0.0216122
19.5367 38.9431 2
15.3381 39.1326 3.97685
18.7174 41.9 0.0243556
15.8612 41.7826 2
13.1841 42.174 3.97585
15.8635 43.9896 0.0248216
13.4943 44.2368 2
11.1346 44.691 3.97529
13.7326 46.1006 0.0252127
11.5556 46.5906 2
9.26872 47.2238 3.97567
12.0482 48.3801 0.0254506
9.8854 49.1283 2
7.55745 49.9981 3.96536
10.6048 50.9574 0.0260973
8.39683 51.9563 2
6.14032 53.0079 3.96849
9.36838 53.837 0.0382612
7.20031 55.028 2
5.0241 56.25 4
6.31988 58.3339 2
8.39217 56.981 0.0340505
7.74927 60.3285 0
14.1895 27.0469 3.97451
12.4661 24.9818 3.97468
13.8764 25.6076 2
11.4827 22.3813 3.97272
13.3782 23.513 2
14.4858 22.0206 0.0275047
12.5652 20.7121 2
10.5546 19.3918 3.95779
13.761 19.086 0.0347458
11.7829 17.6364 2
9.76979 16.1633 3.96296
13.0662 15.953 0.0461603
11.2274 14.3898 2
9.30607 12.7746 4
12.7901 12.6962 0.0351663
10.9835 10.9835 2
12.7746 9.30605 0
19.2359 33.305 3.97561
22.3049 33.6626 2
25.0918 34.0464 0.0205661
16.5055 29.902 3.97494
16.8723 26.7351 2
18.5922 24.4971 0.028209
15.0607 24.7343 0.0266802
19.7054 30.5124 2
20.3167 27.6606 0.0274056
22.9224 31.0769 0.0261973
16 36.0757 3.9771
19.1003 36.0499 2
21.9621 36.0311 0.0226039
13.4318 37.8301 3.97714
19.5372 38.9429 0.022912
15.3388 39.1322 2
12.6662 40.0896 3.97644
15.8611 41.7832 0.0241486
13.1834 42.1736 2
10.7251 42.7012 3.97555
13.495 44.2369 0.0248501
11.1343 44.6909 2
8.73959 45.246 3.97588
11.5558 46.5907 0.0252396
9.27141 47.2226 2
6.82968 47.9723 3.96729
9.88344 49.1292 0.0246455
7.55644 49.9971 2
5.21619 50.9109 3.96949
8.3989 51.9573 0.0366484
6.14048 53.0045 2
3.86727 54.0858 4
7.20067 55.0327 0.0328495
5.02404 56.25 2
6.31991 58.3339 0
13.6666 29.2196 3.974
11.9113 26.6484 3.97443
14.1895 27.048 2
10.5362 24.0947 3.97521
12.4681 24.9824 2
13.877 25.6067 0.0244333
9.39434 21.1984 3.96185
11.4823 22.3798 2
13.3801 23.5129 0.0265209
12.5695 20.7153 0.0306562
10.5594 19.393 2
8.42478 18.0313 3.96586
11.7748 17.6349 0.0466934
9.76875 16.1699 2
7.74928 14.6715 4
11.229 14.3827 0.0385714
9.30602 12.7745 2
10.9835 10.9835 0
15.4833 33.0007 3.97619
19.2363 33.3042 2
22.3125 33.6565 0.0228035
16.5072 29.9018 2
16.8724 26.7323 0.0262895
19.7083 30.5111 0.0251193
13.7467 36.2453 3.97678
16.0008 36.0758 2
19.1016 36.0489 0.0228259
13.4317 37.83 2
11.9634 38.3016 3.97646
15.3381 39.1326 0.0231457
12.6657 40.0895 2
10.2897 40.7116 3.97597
13.1841 42.174 0.0241491
10.725 42.7008 2
8.27932 43.2168 3.97604
11.1346 44.691 0.0247094
8.74284 45.2457 2
6.21427 45.8861 3.96875
9.26872 47.2238 0.0243318
6.82945 47.9713 2
4.4269 48.7511 3.97032
7.55745 49.9981 0.034639
5.21661 50.9085 2
2.85457 51.8506 4
6.14032 53.0079 0.0315066
3.86727 54.0858 2
5.0241 56.25 0
12.781 31.3823 3.97545
11.3169 28.5529 3.97472
13.667 29.2196 2
9.75156 25.9074 3.97547
11.912 26.6492 2
14.1895 27.0469 0.0254852
8.35605 23.0696 3.96437
10.5374 24.0943 2
12.4661 24.9818 0.0253177
7.20639 19.9793 3.96722
9.39574 21.1998 2
11.4827 22.3813 0.0272848
10.5546 19.3918 0.0422142
8.42405 18.0368 2
6.31992 16.6661 4
9.76979 16.1633 0.0370389
7.74926 14.6714 2
9.30607 12.7746 0
12.8388 34.3704 3.97663
15.4835 33.0014 2
19.2359 33.305 0.0243906
16.5055 29.902 0.0250556
11.474 36.6357 3.97641
13.747 36.2454 2
16 36.0757 0.0229013
13.4318 37.8301 0.0228612
11.9629 38.3015 2
9.85465 38.8122 3.97622
12.6662 40.0896 0.0235598
10.2895 40.7114 2
7.87659 41.1809 3.97614
10.7251 42.7012 0.0244499
8.28143 43.2157 2
5.70551 43.7567 3.96955
8.73959 45.246 0.024122
6.21326 45.8852 2
3.77205 46.5364 3.97096
6.82968 47.9723 0.0327061
4.42761 48.7493 2
1.99014 49.554 4
5.21619 50.9109 0.03051
2.85451 51.8506 2
3.86727 54.0858 0
11.5446 33.0069 3.97631
10.6082 30.4828 3.97513
12.7803 31.3831 2
9.05367 27.822 3.97568
11.317 28.5531 2
13.6666 29.2196 0.0260004
7.46108 25.0181 3.96608
9.75317 25.9078 2
11.9113 26.6484 0.0255703
6.12208 22.002 3.96889
8.35489 23.0709 2
10.5362 24.0947 0.0247916
5.02411 18.75 4
7.20612 19.9836 2
9.39434 21.1984 0.0381476
8.42478 18.0313 0.0341444
6.3199 16.6661 2
7.74928 14.6715 0
11.0383 35.046 3.9761
12.8385 34.3706 2
15.4833 33.0007 0.023814
9.49756 36.998 3.97623
11.4733 36.6359 2
13.7467 36.2453 0.023221
11.9634 38.3016 0.0235411
9.85481 38.8122 2
7.53803 39.1717 3.97637
10.2897 40.7116 0.024032
7.88011 41.1803 2
5.30818 41.6085 3.96974
8.27932 43.2168 0.0239629
5.70589 43.756 2
3.24955 44.2813 3.97194
6.21427 45.8861 0.0312507
3.77303 46.535 2
1.27781 47.2057 4
4.4269 48.7511 0.0296758
1.99012 49.554 2
2.85457 51.8506 0
10.6455 33.94 3.97566
9.86272 32.2277 3.97569
11.544 33.0072 2
8.38591 29.7682 3.97602
10.6082 30.4836 2
12.781 31.3823 0.0245459
6.68765 27.0361 3.96672
9.056 27.823 2
11.3169 28.5529 0.0252763
5.17641 24.0955 3.96968
7.45957 25.0192 2
9.75156 25.9074 0.0245268
3.86728 20.9142 4
6.12237 22.0051 2
8.35605 23.0696 0.0356323
5.02406 18.75 2
7.20639 19.9793 0.0327835
6.31992 16.6661 0
9.2991 35.3129 3.97631
11.0377 35.046 2
12.8388 34.3704 0.0233691
7.30473 37.2127 3.97642
9.49834 36.9982 2
11.474 36.6357 0.0235874
9.85465 38.8122 0.0237754
7.54148 39.1714 2
5.03035 39.467 3.9695
7.87659 41.1809 0.0238621
5.30785 41.6081 2
2.85981 42.002 3.97258
5.70551 43.7567 0.030452
3.25027 44.2802 2
0.720592 44.8159 4
3.77205 46.5364 0.0290364
1.27778 47.2057 2
1.99014 49.554 0
9.33019 33.7479 3.97621
10.6452 33.9401 2
7.80726 31.662 3.97622
9.86406 32.228 2
11.5446 33.0069 0.0236884
6.01727 29.0903 3.96686
8.38864 29.7694 2
10.6082 30.4828 0.0248695
4.36322 26.2491 3.97028
6.68665 27.0371 2
9.05367 27.822 0.0243179
2.85458 23.1494 4
5.17699 24.0974 2
7.46108 25.0181 0.0339237
3.86728 20.9142 2
6.12208 22.002 0.0311108
5.02411 18.75 0
7.24437 35.3287 3.97652
9.30054 35.313 2
11.0383 35.046 0.0239047
4.87419 37.3437 3.96908
7.3085 37.2127 2
9.49756 36.998 0.0237695
7.53803 39.1717 0.0236281
5.02979 39.4667 2
2.60755 39.7142 3.97321
5.30818 41.6085 0.0302624
2.8608 42.0013 2
0.320823 42.3947 4
3.24955 44.2813 0.0280559
0.720551 44.8159 2
1.27781 47.2057 0
7.40566 33.4979 3.9766
9.33196 33.7483 2
10.6455 33.94 0.0243443
5.4709 31.1488 3.96732
7.81037 31.6627 2
9.86272 32.2277 0.0243111
3.68437 28.446 3.97115
6.01526 29.091 2
8.38591 29.7682 0.0239818
1.99015 25.446 4
4.36394 26.2505 2
6.68765 27.0361 0.0332823
2.85453 23.1494 2
5.17641 24.0955 0.0303246
3.86728 20.9142 0
4.88932 35.2591 3.96828
7.24727 35.3288 2
9.2991 35.3129 0.0236926
2.499 37.4295 3.97388
4.87189 37.3437 2
7.30473 37.2127 0.0235761
5.03035 39.467 0.0305015
2.60869 39.714 2
0.080333 39.9526 4
2.85981 42.002 0.0274189
0.320817 42.3947 2
0.720592 44.8159 0
5.09205 33.2014 3.9676
7.40798 33.4984 2
9.33019 33.7479 0.0237869
3.14848 30.6689 3.97215
5.46775 31.1493 2
7.80726 31.662 0.023779
1.27793 27.7943 4
3.68538 28.4471 2
6.01727 29.0903 0.0331403
1.99013 25.446 2
4.36322 26.2491 0.0297174
2.85458 23.1494 0
2.55094 35.1608 3.97368
4.88738 35.2594 2
7.24437 35.3287 0.0234799
0 37.5 4
2.49987 37.4295 2
4.87419 37.3437 0.0309162
2.60755 39.7142 0.0267869
0.0802903 39.9526 2
0.320823 42.3947 0
2.76851 32.9081 3.97342
5.09012 33.2018 2
7.40566 33.4979 0.0233979
0.721173 30.1842 4
3.1498 30.6699 2
5.4709 31.1488 0.0326762
1.27779 27.7943 2
3.68437 28.446 0.02885
1.99015 25.446 0
0.0806499 35.0474 4
2.55235 35.161 2
4.88932 35.2591 0.0317239
0 37.5 2
2.499 37.4295 0.026118
0.080333 39.9526 0
0.32156 32.6054 4
2.76945 32.9089 2
5.09205 33.2014 0.0324036
0.72056 30.1841 2
3.14848 30.6689 0.0278536
1.27793 27.7943 0
0.0802889 35.0474 2
2.55094 35.1608 0.0263241
0 37.5 0
0.320817 32.6053 2
2.76851 32.9081 0.0265835
0.721173 30.1842 0
0.0806499 35.0474 0
0.32156 32.6054 0
CELLS 1910 17190
8 18 6 25 56 2 0 5 16
8 57 23 6 18 17 4 0 2
8 78 36 9 29 31 11 1 7
8 31 11 1 7 79 37 10 30
8 110 57 18 50 48 17 2 14
8 50 18 56 111 14 2 16 49
8 116 62 22 55 52 20 3 15
8 56 25 67 118 16 5 24 53
8 119 63 23 57 54 21 4 17
8 55 22 63 119 15 3 21 54
8 58 26 68 121 18 6 25 56
8 122 65 26 58 57 23 6 18
8 73 31 7 27 142 79 30 71
8 143 78 29 72 73 31 7 27
8 83 147 76 34 32 74 28 8
8 84 148 78 36 33 75 29 9
8 76 34 8 28 148 84 33 75
8 37 79 150 86 10 30 77 35
8 151 87 36 78 80 38 11 31
8 80 38 11 31 152 88 37 79
8 175 100 42 94 96 44 12 40
8 44 96 176 101 12 40 95 43
8 101 176 98 46 43 95 41 13
8 46 98 178 103 13 41 97 45
8 178 103 45 97 147 83 32 74
8 189 116 55 109 106 52 15 47
8 111 56 118 191 49 16 53 107
8 192 119 57 110 108 54 17 48
8 109 55 119 192 47 15 54 108
8 194 122 58 112 110 57 18 50
8 112 58 121 195 50 18 56 111
8 115 61 19 51 197 124 59 113
8 115 61 125 198 51 19 60 114
8 198 125 62 116 114 60 20 52
8 200 127 64 120 116 62 22 55
8 118 67 132 202 53 24 66 117
8 121 68 133 203 56 25 67 118
8 120 64 128 204 55 22 63 119
8 204 128 65 122 119 63 23 57
8 206 134 68 121 123 69 26 58
8 123 69 26 58 207 131 65 122
8 226 147 74 138 140 76 28 70
8 229 148 75 139 143 78 29 72
8 140 76 28 70 229 148 75 139
8 142 79 30 71 231 150 77 141
8 144 80 31 73 232 152 79 142
8 233 151 78 143 144 80 31 73
8 150 86 35 77 235 154 81 145
8 235 154 81 145 146 82 39 91
8 146 82 39 91 236 155 90 165
8 238 157 83 147 149 85 34 76
8 239 158 84 148 151 87 36 78
8 149 85 34 76 239 158 84 148
8 152 88 37 79 241 160 86 150
8 242 161 87 151 153 89 38 80
8 153 89 38 80 243 162 88 152
8 171 98 41 92 265 178 97 169
8 265 178 97 169 226 147 74 138
8 172 96 40 93 266 176 95 170
8 266 176 95 170 171 98 41 92
8 269 175 94 173 172 96 40 93
8 271 180 99 174 175 100 42 94
8 197 124 59 113 271 180 99 174
8 272 181 100 175 177 102 44 96
8 273 182 101 176 179 104 46 98
8 177 102 44 96 273 182 101 176
8 179 104 46 98 275 184 103 178
8 275 184 103 178 238 157 83 147
8 188 115 51 105 283 197 113 186
8 188 115 198 284 105 51 114 187
8 284 198 116 189 187 114 52 106
8 286 200 120 193 189 116 55 109
8 191 118 202 288 107 53 117 190
8 195 121 203 289 111 56 118 191
8 193 120 204 290 109 55 119 192
8 290 204 122 194 192 119 57 110
8 196 123 58 112 292 207 122 194
8 293 206 121 195 196 123 58 112
8 199 126 61 115 297 211 124 197
8 298 212 127 200 198 125 62 116
8 199 126 212 298 115 61 125 198
8 205 129 64 120 300 214 127 200
8 301 217 130 201 202 132 66 117
8 209 136 168 264 301 217 130 201
8 302 219 132 202 203 133 67 118
8 303 220 133 203 206 134 68 121
8 205 129 215 304 120 64 128 204
8 304 215 131 207 204 128 65 122
8 306 221 134 206 208 135 69 123
8 208 135 69 123 307 218 131 207
8 210 137 167 263 309 223 136 209
8 328 238 147 226 230 149 76 140
8 228 146 91 166 329 236 165 260
8 231 150 77 141 330 235 145 227
8 330 235 145 227 228 146 91 166
8 332 239 148 229 233 151 78 143
8 230 149 76 140 332 239 148 229
8 232 152 79 142 334 241 150 231
8 234 153 80 144 335 243 152 232
8 336 242 151 233 234 153 80 144
8 236 155 90 165 338 245 164 259
8 241 160 86 150 339 246 154 235
8 339 246 154 235 237 156 82 146
8 237 156 82 146 340 247 155 236
8 342 249 157 238 240 159 85 149
8 343 250 158 239 242 161 87 151
8 240 159 85 149 343 250 158 239
8 243 162 88 152 345 252 160 241
8 244 163 253 346 153 89 161 242
8 244 163 89 153 347 254 162 243
8 311 224 261 371 210 137 167 263
8 263 167 262 372 209 136 168 264
8 267 179 98 171 375 275 178 265
8 375 275 178 265 328 238 147 226
8 376 273 176 266 267 179 98 171
8 268 177 96 172 376 273 176 266
8 379 272 175 269 268 177 96 172
8 380 271 174 270 269 175 94 173
8 283 197 113 186 380 271 174 270
8 381 277 180 271 272 181 100 175
8 297 211 124 197 381 277 180 271
8 382 278 181 272 274 183 102 177
8 274 183 102 177 383 279 182 273
8 383 279 182 273 276 185 104 179
8 385 281 184 275 342 249 157 238
8 276 185 104 179 385 281 184 275
8 285 199 115 188 393 297 197 283
8 394 298 200 286 284 198 116 189
8 285 199 298 394 188 115 198 284
8 291 205 120 193 396 300 200 286
8 397 301 201 287 288 202 117 190
8 295 209 264 374 397 301 201 287
8 398 302 202 288 289 203 118 191
8 399 303 203 289 293 206 121 195
8 291 205 304 400 193 120 204 290
8 400 304 207 292 290 204 122 194
8 294 208 123 196 402 307 207 292
8 403 306 206 293 294 208 123 196
8 296 210 263 373 405 309 209 295
8 408 312 213 299 297 211 126 199
8 299 213 313 409 199 126 212 298
8 409 313 214 300 298 212 127 200
8 305 216 129 205 411 315 214 300
8 412 318 217 301 302 219 132 202
8 309 223 136 209 412 318 217 301
8 413 320 219 302 303 220 133 203
8 306 221 321 414 206 134 220 303
8 307 218 131 207 415 316 215 304
8 305 216 316 415 205 129 215 304
8 417 322 221 306 308 222 135 208
8 308 222 135 208 418 319 218 307
8 310 225 137 210 420 325 223 309
8 423 326 224 311 310 225 137 210
8 329 236 165 260 441 338 259 368
8 442 342 238 328 333 240 149 230
8 331 237 146 228 443 340 236 329
8 334 241 150 231 444 339 235 330
8 444 339 235 330 331 237 146 228
8 446 343 239 332 336 242 151 233
8 333 240 149 230 446 343 239 332
8 335 243 152 232 448 345 241 334
8 337 244 153 234 449 347 243 335
8 337 244 346 450 234 153 242 336
8 338 245 164 259 452 349 258 367
8 340 247 155 236 453 350 245 338
8 345 252 160 241 454 351 246 339
8 454 351 246 339 341 248 156 237
8 341 248 156 237 455 352 247 340
8 240 159 251 344 342 249 354 457
8 242 161 253 346 343 250 355 458
8 343 250 355 458 240 159 251 344
8 347 254 162 243 460 357 252 345
8 348 255 358 461 244 163 253 346
8 348 255 163 244 462 359 254 347
8 473 360 257 365 363 256 364 482
8 452 349 258 367 365 257 366 485
8 422 324 369 488 311 224 261 371
8 371 261 370 490 263 167 262 372
8 407 311 371 491 296 210 263 373
8 373 263 372 492 295 209 264 374
8 493 385 275 375 442 342 238 328
8 377 276 179 267 493 385 275 375
8 378 274 177 268 494 383 273 376
8 494 383 273 376 377 276 179 267
8 497 382 272 379 378 274 177 268
8 498 381 271 380 379 272 175 269
8 393 297 197 283 498 381 271 380
8 499 387 277 381 382 278 181 272
8 408 312 211 297 499 387 277 381
8 500 388 278 382 384 280 183 274
8 501 389 279 383 386 282 185 276
8 384 280 183 274 501 389 279 383
8 386 282 185 276 503 391 281 385
8 503 391 281 385 457 354 249 342
8 511 408 299 395 393 297 199 285
8 395 299 409 512 285 199 298 394
8 512 409 300 396 394 298 200 286
8 401 305 205 291 514 411 300 396
8 515 412 301 397 398 302 202 288
8 405 309 209 295 515 412 301 397
8 516 413 302 398 399 303 203 289
8 403 306 414 517 293 206 303 399
8 402 307 207 292 518 415 304 400
8 401 305 415 518 291 205 304 400
8 404 308 208 294 520 418 307 402
8 521 417 306 403 404 308 208 294
8 406 310 210 296 523 420 309 405
8 526 423 311 407 406 310 210 296
8 410 314 213 299 527 424 312 408
8 528 425 315 411 409 313 214 300
8 410 314 425 528 299 213 313 409
8 416 317 216 305 530 427 315 411
8 531 430 318 412 413 320 219 302
8 420 325 223 309 531 430 318 412
8 532 432 320 413 414 321 220 303
8 417 322 433 533 306 221 321 414
8 418 319 218 307 534 428 316 415
8 416 317 428 534 305 216 316 415
8 419 323 434 536 308 222 322 417
8 419 323 222 308 537 431 319 418
8 421 327 225 310 539 438 325 420
8 421 327 439 541 310 225 326 423
8 543 437 324 422 423 326 224 311
8 441 338 259 368 559 452 367 486
8 443 340 236 329 560 453 338 441
8 333 240 344 447 442 342 457 561
8 445 341 237 331 562 455 340 443
8 448 345 241 334 563 454 339 444
8 563 454 339 444 445 341 237 331
8 336 242 346 450 446 343 458 565
8 446 343 458 565 333 240 344 447
8 449 347 243 335 567 460 345 448
8 451 348 244 337 568 462 347 449
8 451 348 461 569 337 244 346 450
8 570 463 349 452 473 360 257 365
8 453 350 245 338 570 463 349 452
8 455 352 247 340 571 464 350 453
8 460 357 252 345 572 465 351 454
8 572 465 351 454 456 353 248 341
8 456 353 248 341 573 466 352 455
8 344 251 356 459 457 354 468 575
8 458 355 469 576 344 251 356 459
8 346 253 358 461 458 355 469 576
8 462 359 254 347 578 471 357 460
8 348 255 359 462 461 358 472 579
8 591 474 360 473 475 361 256 363
8 475 361 256 363 594 477 362 479
8 363 256 364 482 479 362 480 603
8 590 473 365 484 481 363 482 605
8 482 364 257 365 606 483 366 485
8 559 452 367 486 484 365 485 607
8 542 436 487 609 422 324 369 488
8 525 422 488 611 407 311 371 491
8 488 369 489 612 371 261 370 490
8 491 371 490 613 373 263 372 492
8 495 386 276 377 614 503 385 493
8 614 503 385 493 561 457 342 442
8 615 501 383 494 495 386 276 377
8 496 384 274 378 615 501 383 494
8 618 500 382 497 496 384 274 378
8 619 499 381 498 497 382 272 379
8 511 408 297 393 619 499 381 498
8 620 505 387 499 500 388 278 382
8 527 424 312 408 620 505 387 499
8 502 390 506 621 384 280 388 500
8 622 507 389 501 504 392 282 386
8 502 390 280 384 622 507 389 501
8 504 392 282 386 624 509 391 503
8 624 509 391 503 575 468 354 457
8 513 410 299 395 630 527 408 511
8 631 528 411 514 512 409 300 396
8 513 410 528 631 395 299 409 512
8 519 416 305 401 633 530 411 514
8 634 531 412 515 516 413 302 398
8 523 420 309 405 634 531 412 515
8 635 532 413 516 517 414 303 399
8 521 417 533 636 403 306 414 517
8 520 418 307 402 637 534 415 518
8 519 416 534 637 401 305 415 518
8 522 419 308 404 639 537 418 520
8 522 419 536 640 404 308 417 521
8 524 421 310 406 642 539 420 523
8 524 421 541 644 406 310 423 526
8 646 543 422 525 526 423 311 407
8 529 426 314 410 647 544 424 527
8 528 425 545 648 411 315 427 530
8 529 426 545 648 410 314 425 528
8 535 429 317 416 649 546 427 530
8 650 548 430 531 532 432 320 413
8 539 438 325 420 650 548 430 531
8 533 433 550 651 414 321 432 532
8 536 434 551 652 417 322 433 533
8 537 431 319 418 653 547 428 534
8 535 429 547 653 416 317 428 534
8 538 435 552 654 419 323 434 536
8 538 435 323 419 655 549 431 537
8 540 440 327 421 657 556 438 539
8 540 440 557 659 421 327 439 541
8 541 439 555 660 423 326 437 543
8 661 554 436 542 543 437 324 422
8 676 570 452 559 590 473 365 484
8 560 453 338 441 676 570 452 559
8 562 455 340 443 677 571 453 560
8 447 344 459 566 561 457 575 678
8 564 456 341 445 679 573 455 562
8 567 460 345 448 680 572 454 563
8 680 572 454 563 564 456 341 445
8 565 458 576 682 447 344 459 566
8 450 346 461 569 565 458 576 682
8 568 462 347 449 684 578 460 567
8 451 348 462 568 569 461 579 685
8 686 580 463 570 591 474 360 473
8 571 464 350 453 686 580 463 570
8 573 466 352 455 687 581 464 571
8 572 465 582 688 460 357 471 578
8 574 467 582 688 456 353 465 572
8 574 467 353 456 689 583 466 573
8 459 356 470 577 575 468 585 691
8 576 469 586 692 459 356 470 577
8 461 358 472 579 576 469 586 692
8 462 359 471 578 579 472 588 694
8 704 591 473 590 593 475 363 481
8 595 476 592 705 475 361 474 591
8 593 475 363 481 707 594 479 602
8 594 477 362 479 709 598 478 600
8 595 476 361 475 711 597 477 594
8 479 362 480 603 600 478 601 720
8 481 363 482 605 602 479 603 722
8 603 480 364 482 723 604 483 606
8 605 482 365 484 724 606 485 607
8 656 553 608 726 542 436 487 609
8 645 542 609 728 525 422 488 611
8 609 487 610 729 488 369 489 612
8 611 488 612 730 491 371 490 613
8 616 504 386 495 731 624 503 614
8 731 624 503 614 678 575 457 561
8 732 622 501 615 616 504 386 495
8 617 502 384 496 732 622 501 615
8 617 502 621 735 496 384 500 618
8 736 620 499 619 618 500 382 497
8 630 527 408 511 736 620 499 619
8 621 506 626 737 500 388 505 620
8 647 544 424 527 737 626 505 620
8 623 508 627 738 502 390 506 621
8 623 508 390 502 739 628 507 622
8 625 510 628 739 504 392 507 622
8 740 629 509 624 691 585 468 575
8 625 510 392 504 740 629 509 624
8 632 529 410 513 744 647 527 630
8 631 528 648 745 514 411 530 633
8 632 529 648 745 513 410 528 631
8 638 535 416 519 746 649 530 633
8 747 650 531 634 635 532 413 516
8 642 539 420 523 747 650 531 634
8 636 533 651 748 517 414 532 635
8 640 536 652 749 521 417 533 636
8 639 537 418 520 750 653 534 637
8 638 535 653 750 519 416 534 637
8 641 538 419 522 751 655 537 639
8 641 538 654 752 522 419 536 640
8 643 540 421 524 753 657 539 642
8 643 540 659 755 524 421 541 644
8 644 541 660 757 526 423 543 646
8 758 661 542 645 646 543 422 525
8 529 426 544 647 648 545 662 759
8 530 427 545 648 649 546 663 760
8 535 429 546 649 653 547 664 761
8 762 666 548 650 651 550 432 532
8 657 556 438 539 762 666 548 650
8 652 551 668 763 533 433 550 651
8 654 552 669 764 536 434 551 652
8 655 549 431 537 765 665 547 653
8 538 435 549 655 654 552 667 766
8 661 554 671 768 542 436 553 656
8 658 558 440 540 769 674 556 657
8 658 558 675 770 540 440 557 659
8 659 557 673 771 541 439 555 660
8 660 555 672 772 543 437 554 661
8 788 686 570 676 704 591 473 590
8 677 571 453 560 788 686 570 676
8 679 573 455 562 789 687 571 677
8 566 459 577 683 678 575 691 790
8 681 574 456 564 791 689 573 679
8 680 572 688 792 567 460 578 684
8 681 574 688 792 564 456 572 680
8 682 576 692 794 566 459 577 683
8 569 461 579 685 682 576 692 794
8 568 462 578 684 685 579 694 796
8 687 581 464 571 798 696 580 686
8 798 696 580 686 705 592 474 591
8 689 583 466 573 799 697 581 687
8 688 582 698 800 578 471 588 694
8 690 584 698 800 574 467 582 688
8 690 584 467 574 801 699 583 689
8 693 587 701 803 577 470 585 691
8 693 587 470 577 804 702 586 692
8 695 589 702 804 579 472 586 692
8 695 589 472 579 805 703 588 694
8 708 595 705 813 593 475 591 704
8 710 596 706 814 595 476 592 705
8 707 594 479 602 816 709 600 719
8 708 595 475 593 817 711 594 707
8 709 598 478 600 819 715 599 717
8 711 597 477 594 820 714 598 709
8 710 596 476 595 822 713 597 711
8 600 478 601 720 717 599 718 832
8 602 479 603 722 719 600 720 834
8 720 601 480 603 835 721 604 723
8 722 603 482 605 836 723 606 724
8 767 670 725 839 656 553 608 726
8 756 656 726 841 645 542 609 728
8 726 608 727 842 609 487 610 729
8 728 609 729 843 611 488 612 730
8 844 740 624 731 790 691 575 678
8 733 625 504 616 844 740 624 731
8 734 623 502 617 845 739 622 732
8 733 625 739 845 616 504 622 732
8 734 623 738 846 617 502 621 735
8 735 621 737 847 618 500 620 736
8 744 647 527 630 847 737 620 736
8 621 506 627 738 737 626 741 848
8 647 544 626 737 759 662 741 848
8 623 508 628 739 738 627 742 849
8 740 629 585 691 850 743 700 802
8 625 510 629 740 739 628 743 850
8 632 529 647 744 745 648 759 854
8 633 530 648 745 746 649 760 855
8 638 535 649 746 750 653 761 856
8 857 762 650 747 748 651 532 635
8 753 657 539 642 857 762 650 747
8 749 652 763 858 636 533 651 748
8 752 654 764 859 640 536 652 749
8 751 655 537 639 860 765 653 750
8 641 538 655 751 752 654 766 861
8 754 658 540 643 862 769 657 753
8 754 658 770 863 643 540 659 755
8 755 659 771 864 644 541 660 757
8 758 661 768 866 645 542 656 756
8 757 660 772 867 646 543 661 758
8 759 662 773 868 648 545 663 760
8 649 546 663 760 761 664 774 871
8 765 665 547 653 872 775 664 761
8 873 777 666 762 763 668 550 651
8 769 674 556 657 873 777 666 762
8 764 669 779 874 652 551 668 763
8 654 552 667 766 764 669 778 875
8 655 549 665 765 766 667 776 876
8 768 671 782 877 656 553 670 767
8 772 672 783 878 661 554 671 768
8 658 558 674 769 770 675 786 879
8 659 557 675 770 771 673 785 881
8 882 784 672 772 771 673 555 660
8 789 687 571 677 897 798 686 788
8 897 798 686 788 813 705 591 704
8 791 689 573 679 898 799 687 789
8 795 693 803 900 683 577 691 790
8 793 690 574 681 901 801 689 791
8 792 688 800 902 684 578 694 796
8 793 690 800 902 681 574 688 792
8 795 693 577 683 903 804 692 794
8 797 695 804 903 685 579 692 794
8 797 695 579 685 904 805 694 796
8 905 806 697 799 798 696 581 687
8 814 706 806 905 705 592 696 798
8 689 583 697 799 801 699 808 907
8 800 698 809 908 694 588 703 805
8 690 584 699 801 800 698 809 908
8 803 701 810 909 691 585 700 802
8 693 587 702 804 803 701 811 910
8 695 589 703 805 804 702 812 911
8 818 710 814 919 708 595 705 813
8 821 712 815 920 710 596 706 814
8 816 709 600 719 922 819 717 831
8 817 711 594 707 923 820 709 816
8 818 710 595 708 924 822 711 817
8 819 715 599 717 926 827 716 829
8 820 714 598 709 927 826 715 819
8 929 825 713 822 820 714 597 711
8 821 712 596 710 930 824 713 822
8 717 599 718 832 829 716 830 942
8 719 600 720 834 831 717 832 944
8 832 718 601 720 945 833 721 835
8 834 720 603 722 946 835 723 836
8 869 780 838 950 767 670 725 839
8 865 767 839 952 756 656 726 841
8 839 725 840 953 726 608 727 842
8 841 726 842 954 728 609 729 843
8 844 740 691 790 955 850 802 899
8 733 625 740 844 845 739 850 955
8 734 623 739 845 846 738 849 956
8 735 621 738 846 847 737 848 957
8 744 647 737 847 854 759 848 957
8 738 627 742 849 848 741 851 958
8 848 741 851 958 759 662 773 868
8 850 743 700 802 959 852 807 906
8 849 742 628 739 959 852 743 850
8 854 759 868 965 745 648 760 855
8 746 649 760 855 856 761 871 966
8 860 765 653 750 967 872 761 856
8 968 873 762 857 858 763 651 748
8 862 769 657 753 968 873 762 857
8 859 764 874 969 749 652 763 858
8 752 654 766 861 859 764 875 970
8 751 655 765 860 861 766 876 971
8 754 658 769 862 863 770 879 972
8 755 659 770 863 864 771 881 974
8 976 882 772 867 864 771 660 757
8 866 768 877 977 756 656 767 865
8 867 772 878 978 758 661 768 866
8 760 663 773 868 871 774 883 980
8 870 781 837 948 982 890 780 869
8 982 890 780 869 877 782 670 767
8 761 664 774 871 872 775 884 984
8 876 776 665 765 985 885 775 872
8 873 777 668 763 986 887 779 874
8 769 674 777 873 879 786 887 986
8 764 669 778 875 874 779 888 987
8 766 667 776 876 875 778 886 988
8 878 783 892 989 768 671 782 877
8 878 783 672 772 990 893 784 882
8 880 787 675 770 991 896 786 879
8 880 787 895 992 770 675 785 881
8 881 785 894 993 771 673 784 882
8 1006 905 799 898 897 798 687 789
8 919 814 905 1006 813 705 798 897
8 791 689 799 898 901 801 907 1007
8 900 803 909 1009 790 691 802 899
8 795 693 804 903 900 803 910 1010
8 902 800 908 1011 796 694 805 904
8 793 690 801 901 902 800 908 1011
8 797 695 805 904 903 804 911 1012
8 799 697 806 905 907 808 912 1013
8 920 815 912 1013 814 706 806 905
8 802 700 810 909 906 807 913 1014
8 801 699 808 907 908 809 914 1015
8 805 703 809 908 911 812 915 1016
8 803 701 811 910 909 810 916 1017
8 911 812 917 1018 804 702 811 910
8 925 821 920 1030 818 710 814 919
8 928 823 921 1031 821 712 815 920
8 922 819 717 831 1033 926 829 941
8 923 820 709 816 1034 927 819 922
8 1035 929 822 924 923 820 711 817
8 925 821 710 818 1036 930 822 924
8 1038 933 825 929 927 826 714 820
8 926 827 716 829 1039 935 828 939
8 927 826 715 819 1040 934 827 926
8 928 823 712 821 1041 931 824 930
8 1042 932 824 930 929 825 713 822
8 829 716 830 942 939 828 940 1058
8 831 717 832 944 941 829 942 1060
8 942 830 718 832 1061 943 833 945
8 944 832 720 834 1062 945 835 946
8 981 889 947 1064 870 781 837 948
8 948 837 949 1067 869 780 838 950
8 975 869 950 1069 865 767 839 952
8 950 838 951 1070 839 725 840 953
8 952 839 953 1071 841 726 842 954
8 955 850 802 899 1072 959 906 1008
8 956 849 739 845 1072 959 850 955
8 846 738 849 956 957 848 958 1073
8 957 848 958 1073 854 759 868 965
8 849 742 852 959 958 851 961 1076
8 960 853 961 1076 906 807 852 959
8 958 851 961 1076 868 773 883 980
8 960 853 807 906 1077 963 913 1014
8 855 760 868 965 966 871 980 1085
8 856 761 871 966 967 872 984 1086
8 971 876 765 860 1087 985 872 967
8 968 873 763 858 1088 986 874 969
8 862 769 873 968 972 879 986 1088
8 859 764 875 970 969 874 987 1089
8 861 766 876 971 970 875 988 1090
8 973 880 770 863 1091 991 879 972
8 973 880 992 1092 863 770 881 974
8 974 881 993 1093 864 771 882 976
8 979 870 948 1066 1094 982 869 975
8 1094 982 869 975 977 877 767 865
8 978 878 772 867 1095 990 882 976
8 978 878 989 1096 866 768 877 977
8 871 774 883 980 984 884 994 1099
8 983 891 999 1100 870 781 889 981
8 1101 1000 890 982 989 892 782 877
8 983 891 781 870 1101 1000 890 982
8 872 775 884 984 985 885 995 1103
8 876 776 885 985 988 886 996 1104
8 986 887 779 874 1105 998 888 987
8 879 786 887 986 991 896 998 1105
8 875 778 886 988 987 888 997 1106
8 990 893 1002 1107 878 783 892 989
8 1108 1003 893 990 993 894 784 882
8 880 787 896 991 992 895 1005 1109
8 993 894 785 881 1110 1004 895 992
8 898 799 905 1006 1007 907 1013 1120
8 1030 920 1013 1120 919 814 905 1006
8 901 801 907 1007 1011 908 1015 1121
8 899 802 909 1009 1008 906 1014 1122
8 900 803 910 1010 1009 909 1017 1123
8 1012 911 1018 1124 903 804 910 1010
8 904 805 908 1011 1012 911 1016 1125
8 1013 912 1020 1127 907 808 914 1015
8 1031 921 1020 1127 920 815 912 1013
8 1019 918 962 1075 1128 1021 913 1014
8 1128 1021 913 1014 1017 916 810 909
8 1015 914 1022 1129 908 809 915 1016
8 1016 915 1023 1130 911 812 917 1018
8 1018 917 1024 1131 910 811 916 1017
8 1037 928 1031 1148 925 821 920 1030
8 928 823 931 1041 1031 921 1032 1149
8 1033 926 829 941 1151 1039 939 1057
8 1034 927 819 922 1152 1040 926 1033
8 1153 1038 929 1035 1034 927 820 923
8 1154 1042 930 1036 1035 929 822 924
8 1037 928 821 925 1155 1041 930 1036
8 1039 935 828 939 1156 1047 938 1055
8 1157 1043 932 1042 1038 933 825 929
8 1038 933 826 927 1158 1045 934 1040
8 1040 934 827 926 1159 1046 935 1039
8 930 824 932 1042 1041 931 1044 1160
8 1051 936 1048 1165 1175 1052 937 1053
8 1156 1047 938 1055 1053 937 1054 1178
8 939 828 940 1058 1055 938 1056 1181
8 941 829 942 1060 1057 939 1058 1183
8 942 830 943 1061 1058 940 1059 1184
8 1060 942 832 944 1185 1061 945 1062
8 1082 964 1063 1188 981 889 947 1064
8 1097 981 1064 1190 979 870 948 1066
8 1064 947 1065 1191 948 837 949 1067
8 1066 948 1067 1193 975 869 950 1069
8 1067 949 1068 1194 950 838 951 1070
8 1069 950 1070 1195 952 839 953 1071
8 956 849 959 1072 1073 958 1076 1197
8 1074 960 1076 1197 1008 906 959 1072
8 1073 958 1076 1197 965 868 980 1085
8 1074 960 906 1008 1198 1077 1014 1122
8 1133 1026 1079 1199 1019 918 962 1075
8 1077 963 913 1014 1200 1080 962 1075
8 960 853 963 1077 1076 961 1078 1201
8 980 883 961 1076 1099 994 1078 1201
8 1210 1083 964 1082 1100 999 889 981
8 966 871 980 1085 1086 984 1099 1215
8 967 872 984 1086 1087 985 1103 1216
8 971 876 985 1087 1090 988 1104 1217
8 1088 986 874 969 1218 1105 987 1089
8 972 879 986 1088 1091 991 1105 1218
8 970 875 988 1090 1089 987 1106 1219
8 973 880 991 1091 1092 992 1109 1220
8 1093 993 881 974 1221 1110 992 1092
8 1222 1108 990 1095 1093 993 882 976
8 1223 1101 982 1094 1096 989 877 977
8 1098 983 870 979 1223 1101 982 1094
8 1095 990 1107 1224 978 878 989 1096
8 1098 983 1100 1225 979 870 981 1097
8 984 884 994 1099 1103 995 1111 1227
8 1102 1001 1115 1228 983 891 999 1100
8 1101 1000 892 989 1229 1116 1002 1107
8 1102 1001 891 983 1229 1116 1000 1101
8 985 885 995 1103 1104 996 1112 1230
8 988 886 996 1104 1106 997 1113 1231
8 1105 998 888 987 1232 1114 997 1106
8 991 896 998 1105 1109 1005 1114 1232
8 1108 1003 1117 1233 990 893 1002 1107
8 1108 1003 894 993 1233 1117 1004 1110
8 992 895 1005 1109 1110 1004 1118 1234
8 1120 1013 1127 1244 1007 907 1015 1121
8 1148 1031 1127 1244 1030 920 1013 1120
8 1121 1015 1129 1245 1011 908 1016 1125
8 1126 1019 1075 1196 1246 1128 1014 1122
8 1246 1128 1014 1122 1123 1017 909 1009
8 1124 1018 1131 1247 1010 910 1017 1123
8 1125 1016 1130 1248 1012 911 1018 1124
8 1127 1020 1137 1254 1015 914 1022 1129
8 1031 921 1032 1149 1127 1020 1137 1254
8 1134 1027 918 1019 1257 1140 1021 1128
8 1257 1140 1021 1128 1131 1024 916 1017
8 1129 1022 1141 1258 1016 915 1023 1130
8 1130 1023 1142 1259 1018 917 1024 1131
8 1261 1144 1025 1132 1133 1026 1079 1199
8 1255 1138 1025 1132 1135 1028 1144 1261
8 1133 1026 918 1019 1262 1145 1027 1134
8 1136 1029 1139 1256 1263 1146 1028 1135
8 1037 928 1041 1155 1148 1031 1149 1275
8 1041 931 1044 1160 1149 1032 1150 1276
8 1151 1039 939 1057 1278 1156 1055 1180
8 1152 1040 926 1033 1279 1159 1039 1151
8 1153 1038 927 1034 1280 1158 1040 1152
8 1281 1157 1042 1154 1153 1038 929 1035
8 1036 930 1042 1154 1155 1041 1160 1282
8 1283 1164 1046 1159 1156 1047 935 1039
8 1165 1048 1164 1283 1053 937 1047 1156
8 1157 1043 933 1038 1284 1161 1045 1158
8 1157 1043 1161 1284 1042 932 1044 1160
8 1040 934 1046 1159 1158 1045 1163 1285
8 1166 1049 1167 1292 1051 936 1048 1165
8 1166 1049 936 1051 1293 1168 1050 1172
8 1051 936 1052 1175 1172 1050 1173 1306
8 1174 1051 1165 1290 1308 1175 1053 1177
8 1053 937 1054 1178 1175 1052 1176 1309
8 1278 1156 1055 1180 1177 1053 1178 1311
8 1055 938 1056 1181 1178 1054 1179 1312
8 1057 939 1058 1183 1180 1055 1181 1314
8 1058 940 1059 1184 1181 1056 1182 1315
8 1060 942 1061 1185 1183 1058 1184 1316
8 1208 1081 1187 1321 1082 964 1063 1188
8 1209 1082 1188 1322 1097 981 1064 1190
8 1188 1063 1189 1323 1064 947 1065 1191
8 1190 1064 1191 1325 1066 948 1067 1193
8 1191 1065 1192 1326 1067 949 1068 1194
8 1067 1193 1069 950 1194 1327 1195 1070
8 1250 1133 1199 1330 1126 1019 1075 1196
8 1198 1077 1014 1122 1331 1200 1075 1196
8 1074 960 1077 1198 1197 1076 1201 1332
8 1085 980 1076 1197 1215 1099 1201 1332
8 1199 1079 1203 1333 1075 962 1080 1200
8 1132 1025 1119 1243 1199 1079 1203 1333
8 1201 1078 963 1077 1334 1202 1080 1200
8 1099 994 1078 1201 1227 1111 1202 1334
8 1343 1207 1081 1208 1210 1083 964 1082
8 1214 1084 1186 1319 1343 1207 1081 1208
8 1345 1210 1082 1209 1225 1100 981 1097
8 1346 1211 1083 1210 1228 1115 999 1100
8 1086 984 1099 1215 1216 1103 1227 1352
8 1087 985 1103 1216 1217 1104 1230 1353
8 1090 988 1104 1217 1219 1106 1231 1354
8 1218 1105 987 1089 1355 1232 1106 1219
8 1091 991 1105 1218 1220 1109 1232 1355
8 1092 992 1109 1220 1221 1110 1234 1356
8 1222 1108 1233 1357 1095 990 1107 1224
8 1222 1108 993 1093 1357 1233 1110 1221
8 1223 1101 989 1096 1358 1229 1107 1224
8 1226 1102 983 1098 1358 1229 1101 1223
8 1226 1102 1228 1359 1098 983 1100 1225
8 1103 995 1111 1227 1230 1112 1235 1360
8 1107 1002 1117 1233 1229 1116 1240 1362
8 1102 1001 1116 1229 1228 1115 1240 1362
8 1104 996 1112 1230 1231 1113 1236 1363
8 1364 1237 1114 1232 1231 1113 997 1106
8 1109 1005 1114 1232 1234 1118 1238 1365
8 1110 1004 1118 1234 1233 1117 1241 1366
8 1242 1374 1255 1138 1119 1243 1132 1025
8 1244 1127 1254 1376 1121 1015 1129 1245
8 1148 1031 1149 1275 1244 1127 1254 1376
8 1245 1129 1258 1377 1125 1016 1130 1248
8 1251 1134 1019 1126 1378 1257 1128 1246
8 1378 1257 1128 1246 1247 1131 1017 1123
8 1248 1130 1259 1379 1124 1018 1131 1247
8 1261 1381 1250 1133 1132 1249 1330 1199
8 1255 1380 1252 1135 1132 1249 1381 1261
8 1250 1133 1019 1126 1382 1262 1134 1251
8 1253 1136 1256 1385 1384 1263 1135 1252
8 1254 1137 1265 1387 1129 1022 1141 1258
8 1149 1032 1150 1276 1254 1137 1265 1387
8 1028 1135 1255 1138 1139 1256 1388 1266
8 1136 1029 1147 1264 1256 1139 1267 1389
8 1390 1268 1140 1257 1259 1142 1024 1131
8 1260 1143 1027 1134 1390 1268 1140 1257
8 1258 1141 1269 1391 1130 1023 1142 1259
8 1262 1145 1027 1134 1393 1271 1143 1260
8 1261 1144 1026 1133 1394 1272 1145 1262
8 1135 1028 1144 1261 1263 1146 1272 1394
8 1136 1029 1146 1263 1264 1147 1273 1395
8 1155 1041 1160 1282 1275 1149 1276 1405
8 1276 1150 1044 1160 1406 1277 1162 1286
8 1408 1283 1159 1279 1278 1156 1039 1151
8 1290 1165 1283 1408 1177 1053 1156 1278
8 1152 1040 1159 1279 1280 1158 1285 1409
8 1281 1157 1038 1153 1410 1284 1158 1280
8 1281 1157 1284 1410 1154 1042 1160 1282
8 1159 1046 1164 1283 1285 1163 1289 1412
8 1292 1167 1289 1412 1165 1048 1164 1283
8 1158 1045 1163 1285 1284 1161 1288 1413
8 1284 1161 1288 1413 1160 1044 1162 1286
8 1291 1166 1292 1418 1174 1051 1165 1290
8 1291 1166 1051 1174 1419 1293 1172 1305
8 1294 1169 1296 1421 1166 1049 1167 1292
8 1293 1168 1050 1172 1422 1295 1171 1303
8 1294 1169 1049 1166 1423 1297 1168 1293
8 1422 1295 1171 1303 1301 1170 1302 1435
8 1172 1050 1173 1306 1303 1171 1304 1438
8 1174 1051 1175 1308 1305 1172 1306 1440
8 1175 1052 1176 1309 1306 1173 1307 1441
8 1177 1053 1178 1311 1308 1175 1309 1443
8 1178 1054 1179 1312 1309 1176 1310 1444
8 1180 1055 1181 1314 1311 1178 1312 1446
8 1056 1181 1312 1179 1182 1315 1447 1313
8 1183 1058 1184 1316 1314 1181 1315 1448
8 1319 1186 1084 1214 1451 1317 1213 1350
8 1319 1186 1318 1453 1208 1081 1187 1321
8 1321 1187 1320 1456 1188 1063 1189 1323
8 1344 1208 1321 1457 1209 1082 1188 1322
8 1322 1188 1323 1458 1190 1064 1191 1325
8 1323 1189 1324 1459 1191 1065 1192 1326
8 1191 1325 1193 1067 1326 1460 1327 1194
8 1242 1374 1243 1119 1328 1462 1335 1204
8 1330 1199 1333 1465 1196 1075 1200 1331
8 1132 1249 1330 1199 1243 1375 1465 1333
8 1332 1201 1077 1198 1466 1334 1200 1331
8 1215 1099 1201 1332 1352 1227 1334 1466
8 1119 1243 1333 1203 1204 1335 1470 1338
8 1333 1203 1338 1470 1200 1080 1202 1334
8 1227 1111 1202 1334 1360 1235 1338 1470
8 1328 1462 1335 1204 1205 1336 1471 1339
8 1337 1206 1340 1472 1464 1329 1205 1336
8 1346 1211 1342 1479 1210 1083 1207 1343
8 1346 1211 1115 1228 1479 1342 1239 1361
8 1348 1212 1084 1214 1479 1342 1207 1343
8 1480 1343 1208 1344 1345 1210 1082 1209
8 1351 1214 1319 1454 1480 1343 1208 1344
8 1481 1346 1210 1345 1359 1228 1100 1225
8 1348 1212 1347 1483 1214 1084 1213 1350
8 1216 1103 1227 1352 1353 1230 1360 1488
8 1217 1104 1230 1353 1354 1231 1363 1489
8 1490 1364 1232 1355 1354 1231 1106 1219
8 1220 1109 1232 1355 1356 1234 1365 1491
8 1221 1110 1234 1356 1357 1233 1366 1492
8 1224 1107 1233 1357 1358 1229 1362 1493
8 1226 1102 1229 1358 1359 1228 1362 1493
8 1230 1112 1235 1360 1363 1236 1367 1496
8 1361 1239 1115 1228 1497 1371 1240 1362
8 1366 1241 1372 1498 1233 1117 1240 1362
8 1364 1237 1113 1231 1499 1368 1236 1363
8 1364 1237 1368 1499 1232 1114 1238 1365
8 1234 1118 1238 1365 1366 1241 1369 1500
8 1507 1373 1242 1374 1388 1266 1138 1255
8 1508 1374 1243 1375 1380 1255 1132 1249
8 1376 1254 1387 1509 1245 1129 1258 1377
8 1275 1149 1276 1405 1376 1254 1387 1509
8 1377 1258 1391 1510 1248 1130 1259 1379
8 1511 1390 1257 1378 1379 1259 1131 1247
8 1383 1260 1134 1251 1511 1390 1257 1378
8 1252 1135 1256 1385 1380 1255 1388 1512
8 1261 1381 1513 1394 1133 1250 1382 1262
8 1135 1252 1384 1263 1261 1381 1513 1394
8 1382 1262 1134 1251 1514 1393 1260 1383
8 1253 1136 1263 1384 1386 1264 1395 1516
8 1253 1136 1264 1386 1385 1256 1389 1517
8 1387 1265 1397 1519 1258 1141 1269 1391
8 1276 1150 1277 1406 1387 1265 1397 1519
8 1256 1139 1267 1389 1388 1266 1398 1520
8 1264 1147 1274 1396 1389 1267 1399 1521
8 1392 1270 1143 1260 1522 1400 1268 1390
8 1390 1268 1142 1259 1522 1400 1269 1391
8 1392 1270 1401 1523 1260 1143 1271 1393
8 1272 1394 1524 1402 1145 1262 1393 1271
8 1395 1273 1146 1263 1524 1402 1272 1394
8 1273 1395 1264 1147 1403 1526 1396 1274
8 1405 1276 1160 1282 1534 1406 1286 1411
8 1414 1287 1407 1535 1286 1162 1277 1406
8 1279 1159 1283 1408 1409 1285 1412 1537
8 1418 1292 1412 1537 1290 1165 1283 1408
8 1280 1158 1285 1409 1410 1284 1413 1538
8 1410 1284 1413 1538 1282 1160 1286 1411
8 1285 1163 1289 1412 1413 1288 1417 1540
8 1421 1296 1417 1540 1292 1167 1289 1412
8 1414 1287 1162 1286 1541 1416 1288 1413
8 1420 1294 1421 1545 1291 1166 1292 1418
8 1419 1293 1172 1305 1546 1422 1303 1437
8 1420 1294 1166 1291 1547 1423 1293 1419
8 1294 1169 1297 1423 1421 1296 1425 1548
8 1423 1297 1168 1293 1549 1424 1295 1422
8 1301 1170 1298 1427 1422 1295 1424 1549
8 1432 1300 1428 1554 1301 1170 1298 1427
8 1431 1299 1428 1554 1560 1430 1300 1432
8 1563 1433 1300 1432 1435 1302 1170 1301
8 1546 1422 1303 1437 1434 1301 1435 1565
8 1303 1171 1304 1438 1435 1302 1436 1566
8 1305 1172 1306 1440 1437 1303 1438 1568
8 1306 1173 1307 1441 1438 1304 1439 1569
8 1308 1175 1309 1443 1440 1306 1441 1571
8 1309 1176 1310 1444 1441 1307 1442 1572
8 1311 1178 1312 1446 1443 1309 1444 1574
8 1179 1312 1444 1310 1313 1447 1575 1445
8 1314 1181 1315 1448 1446 1312 1447 1576
8 1350 1213 1349 1486 1451 1317 1449 1579
8 1451 1317 1450 1581 1319 1186 1318 1453
8 1454 1319 1214 1351 1582 1451 1350 1487
8 1453 1318 1452 1584 1321 1187 1320 1456
8 1454 1319 1453 1585 1344 1208 1321 1457
8 1456 1320 1455 1586 1323 1189 1324 1459
8 1457 1321 1456 1587 1322 1188 1323 1458
8 1458 1323 1459 1588 1325 1191 1326 1460
8 1205 1336 1464 1329 1328 1462 1590 1461
8 1507 1373 1461 1590 1374 1242 1328 1462
8 1508 1374 1462 1591 1375 1243 1335 1467
8 1337 1206 1329 1464 1473 1341 1463 1594
8 1375 1243 1335 1467 1465 1333 1470 1596
8 1465 1333 1470 1596 1331 1200 1334 1466
8 1352 1227 1334 1466 1488 1360 1470 1596
8 1591 1462 1336 1468 1467 1335 1471 1597
8 1469 1337 1472 1598 1595 1464 1336 1468
8 1471 1339 1474 1600 1335 1204 1338 1470
8 1600 1474 1367 1496 1470 1338 1235 1360
8 1336 1205 1340 1472 1471 1339 1475 1601
8 1337 1206 1341 1473 1472 1340 1476 1602
8 1495 1370 1478 1609 1361 1239 1342 1479
8 1348 1212 1342 1479 1483 1347 1478 1609
8 1481 1346 1479 1610 1345 1210 1343 1480
8 1481 1346 1228 1359 1610 1479 1361 1494
8 1484 1348 1214 1351 1610 1479 1343 1480
8 1483 1347 1482 1612 1350 1213 1349 1486
8 1484 1348 1483 1613 1351 1214 1350 1487
8 1353 1230 1360 1488 1489 1363 1496 1616
8 1490 1364 1231 1354 1617 1499 1363 1489
8 1490 1364 1499 1617 1355 1232 1365 1491
8 1356 1234 1365 1491 1492 1366 1500 1619
8 1492 1366 1498 1620 1357 1233 1362 1493
8 1494 1361 1228 1359 1621 1497 1362 1493
8 1495 1370 1239 1361 1622 1504 1371 1497
8 1363 1236 1367 1496 1499 1368 1501 1623
8 1497 1371 1240 1362 1624 1505 1372 1498
8 1625 1503 1372 1498 1500 1369 1241 1366
8 1365 1238 1368 1499 1500 1369 1502 1626
8 1520 1398 1506 1633 1388 1266 1373 1507
8 1634 1507 1374 1508 1512 1388 1255 1380
8 1509 1387 1519 1635 1377 1258 1391 1510
8 1405 1276 1406 1534 1509 1387 1519 1635
8 1515 1392 1260 1383 1636 1522 1390 1511
8 1511 1390 1259 1379 1636 1522 1391 1510
8 1385 1256 1389 1517 1512 1388 1520 1637
8 1513 1394 1262 1382 1638 1524 1393 1514
8 1395 1516 1638 1524 1263 1384 1513 1394
8 1515 1392 1523 1639 1383 1260 1393 1514
8 1516 1395 1526 1640 1386 1264 1396 1518
8 1386 1264 1396 1518 1517 1389 1521 1641
8 1519 1397 1527 1643 1391 1269 1400 1522
8 1535 1407 1527 1643 1406 1277 1397 1519
8 1389 1267 1399 1521 1520 1398 1528 1644
8 1645 1529 1399 1521 1525 1404 1274 1396
8 1392 1270 1400 1522 1523 1401 1531 1646
8 1524 1402 1271 1393 1648 1532 1401 1523
8 1403 1526 1648 1532 1273 1395 1524 1402
8 1525 1404 1274 1396 1649 1533 1403 1526
8 1539 1414 1535 1657 1411 1286 1406 1534
8 1542 1415 1536 1658 1414 1287 1407 1535
8 1409 1285 1412 1537 1538 1413 1540 1660
8 1545 1421 1540 1660 1418 1292 1412 1537
8 1539 1414 1286 1411 1661 1541 1413 1538
8 1540 1417 1544 1663 1413 1288 1416 1541
8 1421 1296 1425 1548 1540 1417 1544 1663
8 1542 1415 1287 1414 1664 1543 1416 1541
8 1420 1294 1423 1547 1545 1421 1548 1666
8 1547 1423 1293 1419 1667 1549 1422 1546
8 1434 1301 1427 1553 1546 1422 1549 1667
8 1423 1297 1424 1549 1548 1425 1550 1668
8 1551 1426 1550 1668 1427 1298 1424 1549
8 1551 1426 1298 1427 1671 1552 1428 1554
8 1562 1432 1554 1674 1434 1301 1427 1553
8 1431 1299 1429 1558 1554 1428 1555 1675
8 1431 1299 1430 1560 1558 1429 1557 1680
8 1560 1430 1300 1432 1683 1559 1433 1563
8 1561 1431 1554 1674 1684 1560 1432 1562
8 1685 1563 1432 1562 1565 1435 1301 1434
8 1435 1302 1436 1566 1563 1433 1564 1686
8 1437 1303 1438 1568 1565 1435 1566 1688
8 1438 1304 1439 1569 1566 1436 1567 1689
8 1440 1306 1441 1571 1568 1438 1569 1691
8 1441 1307 1442 1572 1569 1439 1570 1692
8 1443 1309 1444 1574 1571 1441 1572 1694
8 1310 1444 1572 1442 1445 1575 1695 1573
8 1446 1312 1447 1576 1574 1444 1575 1696
8 1486 1349 1485 1614 1579 1449 1577 1699
8 1451 1317 1449 1579 1581 1450 1578 1701
8 1487 1350 1486 1615 1582 1451 1579 1702
8 1581 1450 1580 1704 1453 1318 1452 1584
8 1582 1451 1581 1705 1454 1319 1453 1585
8 1584 1452 1583 1706 1456 1320 1455 1586
8 1585 1453 1584 1707 1457 1321 1456 1587
8 1587 1456 1586 1708 1458 1323 1459 1588
8 1633 1506 1589 1710 1507 1373 1461 1590
8 1464 1329 1461 1590 1594 1463 1589 1710
8 1468 1336 1462 1591 1595 1464 1590 1711
8 1634 1507 1590 1711 1508 1374 1462 1591
8 1473 1341 1463 1594 1603 1477 1593 1716
8 1469 1337 1464 1595 1599 1473 1594 1717
8 1471 1597 1467 1335 1600 1718 1596 1470
8 1718 1600 1496 1616 1596 1470 1360 1488
8 1336 1468 1597 1471 1472 1598 1719 1601
8 1469 1337 1473 1599 1598 1472 1602 1720
8 1722 1604 1501 1623 1600 1474 1367 1496
8 1475 1601 1471 1339 1604 1722 1600 1474
8 1602 1476 1605 1723 1472 1340 1475 1601
8 1476 1602 1724 1606 1341 1473 1603 1477
8 1483 1347 1478 1609 1612 1482 1608 1731
8 1495 1370 1504 1622 1609 1478 1608 1731
8 1618 1495 1609 1732 1494 1361 1479 1610
8 1484 1348 1479 1610 1613 1483 1609 1732
8 1486 1349 1482 1612 1614 1485 1611 1733
8 1613 1483 1612 1734 1487 1350 1486 1615
8 1489 1363 1496 1616 1617 1499 1623 1736
8 1491 1365 1499 1617 1619 1500 1626 1737
8 1618 1495 1361 1494 1738 1622 1497 1621
8 1739 1625 1498 1620 1619 1500 1366 1492
8 1621 1497 1362 1493 1740 1624 1498 1620
8 1742 1631 1504 1622 1624 1505 1371 1497
8 1743 1628 1502 1626 1623 1501 1368 1499
8 1744 1630 1505 1624 1625 1503 1372 1498
8 1745 1629 1503 1625 1626 1502 1369 1500
8 1520 1398 1528 1644 1633 1506 1632 1751
8 1637 1520 1633 1752 1512 1388 1507 1634
8 1635 1519 1643 1753 1510 1391 1522 1636
8 1657 1535 1643 1753 1534 1406 1519 1635
8 1515 1392 1522 1636 1639 1523 1646 1754
8 1517 1389 1521 1641 1637 1520 1644 1755
8 1524 1638 1756 1648 1393 1514 1639 1523
8 1640 1526 1395 1516 1756 1648 1524 1638
8 1642 1525 1396 1518 1757 1649 1526 1640
8 1758 1645 1521 1641 1642 1525 1396 1518
8 1646 1531 1400 1522 1760 1650 1527 1643
8 1535 1407 1536 1658 1643 1527 1650 1760
8 1521 1399 1529 1645 1644 1528 1651 1761
8 1647 1530 1652 1762 1525 1404 1529 1645
8 1401 1523 1648 1532 1531 1646 1763 1655
8 1525 1404 1533 1649 1647 1530 1654 1765
8 1533 1649 1766 1656 1403 1526 1648 1532
8 1662 1542 1658 1774 1539 1414 1535 1657
8 1542 1415 1543 1664 1658 1536 1659 1775
8 1660 1540 1663 1777 1538 1413 1541 1661
8 1545 1421 1548 1666 1660 1540 1663 1777
8 1662 1542 1414 1539 1778 1664 1541 1661
8 1664 1543 1416 1541 1779 1665 1544 1663
8 1548 1425 1550 1668 1663 1544 1665 1779
8 1547 1423 1549 1667 1666 1548 1668 1781
8 1670 1551 1668 1781 1553 1427 1549 1667
8 1551 1426 1552 1671 1668 1550 1669 1782
8 1670 1551 1427 1553 1784 1671 1554 1674
8 1675 1555 1672 1785 1554 1428 1552 1671
8 1678 1556 1673 1789 1558 1429 1555 1675
8 1561 1431 1558 1681 1674 1554 1675 1790
8 1794 1677 1556 1678 1680 1557 1429 1558
8 1560 1430 1559 1683 1680 1557 1679 1797
8 1561 1431 1560 1684 1681 1558 1680 1798
8 1563 1433 1564 1686 1683 1559 1682 1800
8 1684 1560 1432 1562 1801 1683 1563 1685
8 1565 1435 1566 1688 1685 1563 1686 1802
8 1566 1436 1567 1689 1686 1564 1687 1803
8 1568 1438 1569 1691 1688 1566 1689 1805
8 1569 1439 1570 1692 1689 1567 1690 1806
8 1571 1441 1572 1694 1691 1569 1692 1808
8 1442 1572 1692 1570 1573 1695 1809 1693
8 1574 1444 1575 1696 1694 1572 1695 1810
8 1614 1485 1592 1712 1699 1577 1697 1813
8 1579 1449 1577 1699 1701 1578 1698 1815
8 1615 1486 1614 1735 1702 1579 1699 1816
8 1701 1578 1700 1818 1581 1450 1580 1704
8 1582 1451 1579 1702 1705 1581 1701 1819
8 1704 1580 1703 1820 1584 1452 1583 1706
8 1705 1581 1704 1821 1585 1453 1584 1707
8 1707 1584 1706 1822 1587 1456 1586 1708
8 1710 1589 1506 1633 1824 1709 1632 1751
8 1594 1463 1589 1710 1716 1593 1709 1824
8 1752 1633 1710 1825 1634 1507 1590 1711
8 1595 1464 1590 1711 1717 1594 1710 1825
8 1830 1714 1592 1712 1733 1611 1485 1614
8 1603 1477 1593 1716 1725 1607 1715 1834
8 1599 1473 1594 1717 1721 1603 1716 1835
8 1837 1722 1623 1736 1718 1600 1496 1616
8 1719 1601 1722 1837 1597 1471 1600 1718
8 1602 1720 1598 1472 1723 1838 1719 1601
8 1720 1602 1473 1599 1839 1724 1603 1721
8 1723 1605 1726 1840 1601 1475 1604 1722
8 1840 1726 1628 1743 1722 1604 1501 1623
8 1724 1606 1727 1841 1602 1476 1605 1723
8 1725 1607 1728 1842 1603 1477 1606 1724
8 1612 1482 1608 1731 1733 1611 1730 1849
8 1741 1627 1730 1849 1622 1504 1608 1731
8 1613 1483 1609 1732 1734 1612 1731 1850
8 1618 1495 1622 1738 1732 1609 1731 1850
8 1615 1486 1612 1734 1735 1614 1733 1851
8 1852 1743 1626 1737 1736 1623 1499 1617
8 1853 1745 1625 1739 1737 1626 1500 1619
8 1855 1742 1622 1738 1740 1624 1497 1621
8 1856 1744 1624 1740 1739 1625 1498 1620
8 1741 1627 1504 1622 1857 1746 1631 1742
8 1742 1631 1505 1624 1858 1749 1630 1744
8 1859 1747 1629 1745 1743 1628 1502 1626
8 1860 1748 1630 1744 1745 1629 1503 1625
8 1644 1528 1651 1761 1751 1632 1750 1865
8 1637 1520 1644 1755 1752 1633 1751 1866
8 1754 1646 1522 1636 1867 1760 1643 1753
8 1657 1535 1658 1774 1753 1643 1760 1867
8 1639 1523 1646 1754 1756 1648 1763 1868
8 1641 1521 1645 1758 1755 1644 1761 1869
8 1757 1649 1526 1640 1870 1766 1648 1756
8 1642 1525 1649 1757 1759 1647 1765 1871
8 1759 1647 1762 1872 1642 1525 1645 1758
8 1760 1650 1767 1874 1646 1531 1655 1763
8 1658 1536 1659 1775 1760 1650 1767 1874
8 1762 1652 1768 1875 1645 1529 1651 1761
8 1764 1653 1769 1876 1647 1530 1652 1762
8 1656 1766 1877 1773 1532 1648 1763 1655
8 1771 1879 1765 1654 1653 1764 1647 1530
8 1533 1649 1765 1654 1656 1766 1880 1772
8 1662 1542 1664 1778 1774 1658 1775 1887
8 1664 1543 1665 1779 1775 1659 1776 1888
8 1778 1664 1541 1661 1890 1779 1663 1777
8 1666 1548 1668 1781 1777 1663 1779 1890
8 1782 1669 1780 1891 1668 1550 1665 1779
8 1670 1551 1671 1784 1781 1668 1782 1893
8 1671 1552 1672 1785 1782 1669 1783 1894
8 1790 1675 1785 1896 1674 1554 1671 1784
8 1675 1555 1673 1789 1785 1672 1786 1897
8 1792 1676 1788 1903 1678 1556 1673 1789
8 1795 1678 1789 1904 1681 1558 1675 1790
8 1792 1676 1556 1678 1906 1791 1677 1794
8 1680 1557 1679 1797 1794 1677 1793 1909
8 1910 1794 1678 1795 1798 1680 1558 1681
8 1683 1559 1682 1800 1797 1679 1796 1912
8 1684 1560 1683 1801 1798 1680 1797 1913
8 1686 1564 1687 1803 1800 1682 1799 1915
8 1685 1563 1686 1802 1801 1683 1800 1916
8 1688 1566 1689 1805 1802 1686 1803 1917
8 1689 1567 1690 1806 1803 1687 1804 1918
8 1691 1569 1692 1808 1805 1689 1806 1920
8 1692 1570 1693 1809 1806 1690 1807 1921
8 1694 1572 1695 1810 1808 1692 1809 1922
8 1829 1713 1811 1926 1712 1592 1697 1813
8 1813 1697 1812 1928 1699 1577 1698 1815
8 1735 1614 1712 1828 1816 1699 1813 1929
8 1815 1698 1814 1931 1701 1578 1700 1818
8 1702 1579 1699 1816 1819 1701 1815 1932
8 1818 1700 1817 1933 1704 1580 1703 1820
8 1819 1701 1818 1934 1705 1581 1704 1821
8 1821 1704 1820 1935 1707 1584 1706 1822
8 1824 1709 1632 1751 1937 1823 1750 1865
8 1716 1593 1709 1824 1834 1715 1823 1937
8 1825 1710 1633 1752 1938 1824 1751 1866
8 1717 1594 1710 1825 1835 1716 1824 1938
8 1945 1830 1712 1828 1851 1733 1614 1735
8 1830 1714 1831 1946 1712 1592 1713 1829
8 1947 1832 1714 1830 1849 1730 1611 1733
8 1843 1729 1607 1725 1950 1833 1715 1834
8 1721 1603 1716 1835 1836 1725 1834 1951
8 1836 1725 1842 1953 1721 1603 1724 1839
8 1723 1838 1719 1601 1840 1954 1837 1722
8 1954 1840 1743 1852 1837 1722 1623 1736
8 1724 1839 1720 1602 1841 1955 1838 1723
8 1841 1727 1844 1956 1723 1605 1726 1840
8 1956 1844 1747 1859 1840 1726 1628 1743
8 1728 1842 1724 1606 1845 1957 1841 1727
8 1725 1607 1729 1843 1842 1728 1846 1958
8 1741 1627 1746 1857 1849 1730 1848 1965
8 1734 1612 1731 1850 1851 1733 1849 1966
8 1854 1741 1849 1966 1738 1622 1731 1850
8 1967 1859 1745 1853 1852 1743 1626 1737
8 1968 1860 1744 1856 1853 1745 1625 1739
8 1854 1741 1622 1738 1969 1857 1742 1855
8 1855 1742 1624 1740 1970 1858 1744 1856
8 1857 1746 1631 1742 1971 1861 1749 1858
8 1858 1749 1630 1744 1972 1863 1748 1860
8 1859 1747 1862 1973 1745 1629 1748 1860
8 1875 1768 1864 1977 1761 1651 1750 1865
8 1755 1644 1761 1869 1866 1751 1865 1978
8 1867 1760 1874 1979 1754 1646 1763 1868
8 1774 1658 1775 1887 1867 1760 1874 1979
8 1870 1766 1648 1756 1980 1877 1763 1868
8 1872 1762 1875 1981 1758 1645 1761 1869
8 1757 1649 1766 1870 1871 1765 1880 1982
8 1983 1879 1764 1873 1871 1765 1647 1759
8 1873 1764 1876 1984 1759 1647 1762 1872
8 1877 1773 1655 1763 1986 1881 1767 1874
8 1775 1659 1776 1888 1874 1767 1881 1986
8 1876 1769 1882 1987 1762 1652 1768 1875
8 1878 1770 1883 1988 1764 1653 1769 1876
8 1880 1772 1656 1766 1989 1886 1773 1877
8 1878 1770 1653 1764 1990 1884 1771 1879
8 1765 1654 1772 1880 1879 1771 1885 1991
8 1778 1664 1779 1890 1887 1775 1888 1997
8 1998 1889 1776 1888 1891 1780 1665 1779
8 1893 1782 1891 2000 1781 1668 1779 1890
8 1894 1783 1892 2001 1782 1669 1780 1891
8 1784 1671 1785 1896 1893 1782 1894 2003
8 1897 1786 1895 2004 1785 1672 1783 1894
8 1790 1675 1789 1904 1896 1785 1897 2006
8 1901 1787 1898 2007 1789 1673 1786 1897
8 1903 1788 1900 2013 1789 1673 1787 1901
8 1792 1676 1791 1906 1903 1788 1902 2016
8 1907 1792 1903 2017 1795 1678 1789 1904
8 1906 1791 1677 1794 2019 1905 1793 1909
8 1907 1792 1678 1795 2020 1906 1794 1910
8 1797 1679 1796 1912 1909 1793 1908 2022
8 1798 1680 1797 1913 1910 1794 1909 2023
8 1800 1682 1799 1915 1912 1796 1911 2025
8 1801 1683 1800 1916 1913 1797 1912 2026
8 1803 1687 1804 1918 1915 1799 1914 2028
8 1802 1686 1803 1917 1916 1800 1915 2029
8 1805 1689 1806 1920 1917 1803 1918 2030
8 1806 1690 1807 1921 1918 1804 1919 2031
8 1808 1692 1809 1922 1920 1806 1921 2032
8 1939 1826 1924 2037 1829 1713 1811 1926
8 1926 1811 1925 2039 1813 1697 1812 1928
8 1944 1829 1926 2040 1828 1712 1813 1929
8 1928 1812 1927 2042 1815 1698 1814 1931
8 1929 1813 1928 2043 1816 1699 1815 1932
8 1931 1814 1930 2044 1818 1700 1817 1933
8 1932 1815 1931 2045 1819 1701 1818 1934
8 1934 1818 1933 2046 1821 1704 1820 1935
8 2048 1936 1823 1937 1977 1864 1750 1865
8 1950 1833 1715 1834 2048 1936 1823 1937
8 1938 1824 1751 1866 2049 1937 1865 1978
8 1835 1716 1824 1938 1951 1834 1937 2049
8 1939 1826 1713 1829 2053 1942 1831 1946
8 1940 1827 1923 2035 2053 1942 1826 1939
8 1945 1830 1946 2058 1828 1712 1829 1944
8 2059 1947 1830 1945 1966 1849 1733 1851
8 1947 1832 1730 1849 2060 1948 1848 1965
8 1947 1832 1948 2060 1830 1714 1831 1946
8 1959 1847 1729 1843 2063 1949 1833 1950
8 1952 1843 1725 1836 2064 1950 1834 1951
8 1836 1725 1843 1952 1953 1842 1958 2066
8 1953 1842 1957 2067 1839 1724 1841 1955
8 1841 1955 1838 1723 1956 2068 1954 1840
8 2068 1956 1859 1967 1954 1840 1743 1852
8 1956 1844 1960 2069 1859 1747 1862 1973
8 1845 1957 1841 1727 1960 2069 1956 1844
8 1728 1842 1957 1845 1846 1958 2071 1961
8 1962 2072 1959 1847 1846 1958 1843 1729
8 1971 1861 1964 2077 1857 1746 1848 1965
8 1854 1741 1857 1969 1966 1849 1965 2078
8 1967 1859 1973 2079 1853 1745 1860 1968
8 1970 1858 1744 1856 2080 1972 1860 1968
8 1969 1857 1742 1855 2081 1971 1858 1970
8 1971 1861 1749 1858 2082 1974 1863 1972
8 1973 1862 1975 2083 1860 1748 1863 1972
8 1987 1882 1976 2086 1875 1768 1864 1977
8 1981 1875 1977 2087 1869 1761 1865 1978
8 1980 1877 1763 1868 2088 1986 1874 1979
8 1887 1775 1888 1997 1979 1874 1986 2088
8 1880 1982 2089 1989 1766 1870 1980 1877
8 1984 1876 1987 2090 1872 1762 1875 1981
8 1765 1871 1983 1879 1880 1982 2091 1991
8 1985 1878 1764 1873 2092 1990 1879 1983
8 1985 1878 1988 2093 1873 1764 1876 1984
8 2094 1992 1881 1986 1998 1889 1776 1888
8 1986 1881 1992 2094 1877 1773 1886 1989
8 1988 1883 1993 2095 1876 1769 1882 1987
8 1878 1770 1884 1990 1988 1883 1994 2096
8 1991 1885 1772 1880 2097 1996 1886 1989
8 1879 1771 1885 1991 1990 1884 1995 2098
8 2103 1998 1888 1997 2000 1891 1779 1890
8 2104 1999 1889 1998 2001 1892 1780 1891
8 2003 1894 2001 2106 1893 1782 1891 2000
8 2004 1895 2002 2107 1894 1783 1892 2001
8 2006 1897 2004 2109 1896 1785 1894 2003
8 2007 1898 2005 2110 1897 1786 1895 2004
8 2014 1901 2007 2112 1904 1789 1897 2006
8 2011 1899 2008 2113 1901 1787 1898 2007
8 2119 2010 1899 2011 2013 1900 1787 1901
8 2016 1902 2012 2122 1903 1788 1900 2013
8 2017 1903 2013 2123 1904 1789 1901 2014
8 1906 1791 1905 2019 2016 1902 2015 2125
8 1907 1792 1906 2020 2017 1903 2016 2126
8 1909 1793 1908 2022 2019 1905 2018 2128
8 2020 1906 1794 1910 2129 2019 1909 2023
8 1912 1796 1911 2025 2022 1908 2021 2131
8 1913 1797 1912 2026 2023 1909 2022 2132
8 1915 1799 1914 2028 2025 1911 2024 2134
8 1916 1800 1915 2029 2026 1912 2025 2135
8 1918 1804 1919 2031 2028 1914 2027 2136
8 1917 1803 1918 2030 2029 1915 2028 2137
8 1920 1806 1921 2032 2030 1918 2031 2138
8 1940 1827 1941 2054 2035 1923 2033 2140
8 2035 1923 2034 2143 1939 1826 1924 2037
8 2037 1924 2036 2146 1926 1811 1925 2039
8 2051 1939 2037 2147 1944 1829 1926 2040
8 2039 1925 2038 2149 1928 1812 1927 2042
8 2040 1926 2039 2150 1929 1813 1928 2043
8 2042 1927 2041 2151 1931 1814 1930 2044
8 2043 1928 2042 2152 1932 1815 1931 2045
8 2045 1931 2044 2153 1934 1818 1933 2046
8 2155 2047 1936 2048 2086 1976 1864 1977
8 2063 1949 1833 1950 2155 2047 1936 2048
8 2156 2048 1937 2049 2087 1977 1865 1978
8 2064 1950 1834 1951 2156 2048 1937 2049
8 2051 1939 1829 1944 2160 2053 1946 2058
8 2052 1940 2035 2144 2160 2053 1939 2051
8 2053 1942 1831 1946 2163 2057 1948 2060
8 2055 1943 1827 1940 2163 2057 1942 2053
8 2055 1943 2056 2164 1940 1827 1941 2054
8 2059 1947 1849 1966 2167 2060 1965 2078
8 2059 1947 2060 2167 1945 1830 1946 2058
8 2077 1964 2061 2168 1965 1848 1948 2060
8 2070 1963 1847 1959 2170 2062 1949 2063
8 2065 1959 1843 1952 2171 2063 1950 2064
8 2173 2072 1958 2066 2065 1959 1843 1952
8 1953 1842 1958 2066 2067 1957 2071 2174
8 2068 1956 2069 2175 1967 1859 1973 2079
8 2067 1957 2069 2175 1955 1841 1956 2068
8 1845 1957 2069 1960 1961 2071 2176 2073
8 2069 1960 2073 2176 1973 1862 1975 2083
8 2070 1963 2075 2177 1959 1847 1962 2072
8 1846 1958 2071 1961 1962 2072 2178 2074
8 2077 1964 1861 1971 2182 2076 1974 2082
8 2081 1971 2077 2183 1969 1857 1965 2078
8 2079 1973 2083 2184 1968 1860 1972 2080
8 2081 1971 1858 1970 2185 2082 1972 2080
8 2083 1975 2084 2186 1972 1863 1974 2082
8 2086 1976 1882 1987 2189 2085 1993 2095
8 2090 1987 2086 2190 1981 1875 1977 2087
8 2191 2094 1986 2088 2103 1998 1888 1997
8 2088 1986 2094 2191 1980 1877 1989 2089
8 1991 2091 2192 2097 1880 1982 2089 1989
8 2093 1988 2095 2193 1984 1876 1987 2090
8 1879 1983 2092 1990 1991 2091 2194 2098
8 1985 1878 1990 2092 2093 1988 2096 2195
8 2097 1996 1886 1989 2196 2099 1992 2094
8 2196 2099 1992 2094 2104 1999 1889 1998
8 1994 2096 1988 1883 2100 2197 2095 1993
8 2096 1994 1884 1990 2198 2101 1995 2098
8 1995 2098 2199 2102 1885 1991 2097 1996
8 2203 2104 1998 2103 2106 2001 1891 2000
8 2107 2002 2105 2204 2001 1892 1999 2104
8 2109 2004 2107 2206 2003 1894 2001 2106
8 2110 2005 2108 2207 2004 1895 2002 2107
8 2112 2007 2110 2209 2006 1897 2004 2109
8 2113 2008 2111 2210 2007 1898 2005 2110
8 2120 2011 2113 2212 2014 1901 2007 2112
8 2117 2009 2114 2213 2011 1899 2008 2113
8 2219 2116 2009 2117 2119 2010 1899 2011
8 2222 2118 2010 2119 2122 2012 1900 2013
8 2223 2119 2011 2120 2123 2013 1901 2014
8 2016 1902 2015 2125 2122 2012 2121 2225
8 2126 2016 2122 2226 2017 1903 2013 2123
8 2019 1905 2018 2128 2125 2015 2124 2228
8 2020 1906 2019 2129 2126 2016 2125 2229
8 2022 1908 2021 2131 2128 2018 2127 2231
8 2023 1909 2022 2132 2129 2019 2128 2232
8 2025 1911 2024 2134 2131 2021 2130 2234
8 2026 1912 2025 2135 2132 2022 2131 2235
8 1914 2028 2134 2024 2027 2136 2236 2133
8 2029 1915 2028 2137 2135 2025 2134 2237
8 2030 1918 2031 2138 2137 2028 2136 2238
8 2157 2050 2139 2240 2054 1941 2033 2140
8 2052 1940 2054 2161 2144 2035 2140 2242
8 2140 2033 2141 2243 2035 1923 2034 2143
8 2143 2034 2142 2246 2037 1924 2036 2146
8 2144 2035 2143 2247 2051 1939 2037 2147
8 2146 2036 2145 2249 2039 1925 2038 2149
8 2147 2037 2146 2250 2040 1926 2039 2150
8 2149 2038 2148 2251 2042 1927 2041 2151
8 2150 2039 2149 2252 2043 1928 2042 2152
8 2152 2042 2151 2253 2045 1931 2044 2153
8 2255 2154 2047 2155 2189 2085 1976 2086
8 2170 2062 1949 2063 2255 2154 2047 2155
8 2256 2155 2048 2156 2190 2086 1977 2087
8 2171 2063 1950 2064 2256 2155 2048 2156
8 2258 2159 2050 2157 2164 2056 1941 2054
8 2160 2053 1946 2058 2262 2163 2060 2167
8 2162 2055 1940 2052 2262 2163 2053 2160
8 2162 2055 2164 2263 2052 1940 2054 2161
8 2163 2057 1948 2060 2264 2165 2061 2168
8 2055 1943 2057 2163 2164 2056 2165 2264
8 2182 2076 2166 2268 2077 1964 2061 2168
8 2183 2077 2168 2269 2078 1965 2060 2167
8 2070 1963 2062 2170 2177 2075 2169 2271
8 2172 2070 1959 2065 2272 2170 2063 2171
8 2172 2070 2177 2273 2065 1959 2072 2173
8 2066 1958 2072 2173 2174 2071 2178 2274
8 2067 1957 2071 2174 2175 2069 2176 2275
8 2175 2069 2176 2275 2079 1973 2083 2184
8 2071 1961 2074 2178 2176 2073 2179 2276
8 2176 2073 2179 2276 2083 1975 2084 2186
8 2072 1962 2075 2177 2178 2074 2180 2277
8 2182 2076 1974 2082 2280 2181 2084 2186
8 2183 2077 1971 2081 2281 2182 2082 2185
8 2184 2083 2186 2282 2080 1972 2082 2185
8 2189 2085 1993 2095 2285 2188 2100 2197
8 2190 2086 1987 2090 2286 2189 2095 2193
8 2192 2097 1989 2089 2287 2196 2094 2191
8 2287 2196 2094 2191 2203 2104 1998 2103
8 2194 2098 1991 2091 2288 2199 2097 2192
8 2195 2096 2197 2289 2093 1988 2095 2193
8 2096 2195 2290 2198 1990 2092 2194 2098
8 2097 1996 2099 2196 2199 2102 2200 2291
8 2196 2099 1999 2104 2291 2200 2105 2204
8 2100 2197 2292 2201 1994 2096 2198 2101
8 1995 2098 2198 2101 2102 2199 2293 2202
8 2206 2107 2204 2296 2106 2001 2104 2203
8 2207 2108 2205 2297 2107 2002 2105 2204
8 2209 2110 2207 2299 2109 2004 2107 2206
8 2210 2111 2208 2300 2110 2005 2108 2207
8 2212 2113 2210 2302 2112 2007 2110 2209
8 2213 2114 2211 2303 2113 2008 2111 2210
8 2220 2117 2213 2305 2120 2011 2113 2212
8 2216 2115 2214 2306 2117 2009 2114 2213
8 2216 2115 2009 2117 2311 2217 2116 2219
8 2219 2116 2010 2119 2314 2218 2118 2222
8 2315 2219 2117 2220 2223 2119 2011 2120
8 2122 2012 2121 2225 2222 2118 2221 2317
8 2318 2222 2119 2223 2226 2122 2013 2123
8 2125 2015 2124 2228 2225 2121 2224 2320
8 2126 2016 2125 2229 2226 2122 2225 2321
8 2128 2018 2127 2231 2228 2124 2227 2323
8 2129 2019 2128 2232 2229 2125 2228 2324
8 2131 2021 2130 2234 2231 2127 2230 2326
8 2132 2022 2131 2235 2232 2128 2231 2327
8 2134 2024 2133 2236 2234 2130 2233 2328
8 2135 2025 2134 2237 2235 2131 2234 2329
8 2137 2028 2136 2238 2237 2134 2236 2330
8 2157 2050 2158 2259 2240 2139 2239 2332
8 2257 2157 2240 2334 2161 2054 2140 2242
8 2240 2139 2241 2335 2140 2033 2141 2243
8 2242 2140 2243 2337 2144 2035 2143 2247
8 2243 2141 2244 2338 2143 2034 2142 2246
8 2246 2142 2245 2341 2146 2036 2145 2249
8 2247 2143 2246 2342 2147 2037 2146 2250
8 2249 2145 2248 2343 2149 2038 2148 2251
8 2250 2146 2249 2344 2150 2039 2149 2252
8 2252 2149 2251 2345 2152 2042 2151 2253
8 2169 2271 2347 2254 2062 2170 2255 2154
8 2189 2085 2188 2285 2255 2154 2254 2347
8 2348 2255 2155 2256 2286 2189 2086 2190
8 2272 2170 2063 2171 2348 2255 2155 2256
8 2349 2258 2157 2257 2263 2164 2054 2161
8 2258 2159 2261 2351 2157 2050 2158 2259
8 2258 2159 2056 2164 2351 2261 2165 2264
8 2262 2163 2060 2167 2355 2264 2168 2269
8 2162 2055 2163 2262 2263 2164 2264 2355
8 2357 2266 2165 2264 2268 2166 2061 2168
8 2268 2166 2076 2182 2361 2267 2181 2280
8 2281 2182 2268 2362 2183 2077 2168 2269
8 2271 2169 2270 2364 2177 2075 2180 2277
8 2172 2070 2170 2272 2273 2177 2271 2365
8 2072 2173 2274 2178 2177 2273 2366 2277
8 2071 2174 2275 2176 2178 2274 2367 2276
8 2275 2176 2276 2367 2184 2083 2186 2282
8 2283 2187 2084 2186 2368 2278 2179 2276
8 2178 2074 2180 2277 2276 2179 2278 2368
8 2283 2187 2279 2370 2186 2084 2181 2280
8 2281 2182 2082 2185 2371 2280 2186 2282
8 2188 2285 2374 2284 2100 2197 2292 2201
8 2286 2189 2095 2193 2375 2285 2197 2289
8 2192 2097 2196 2287 2288 2199 2291 2376
8 2287 2196 2104 2203 2376 2291 2204 2296
8 2194 2098 2199 2288 2290 2198 2293 2377
8 2289 2197 2096 2195 2378 2292 2198 2290
8 2291 2200 2105 2204 2379 2294 2205 2297
8 2199 2102 2200 2291 2293 2202 2294 2379
8 2198 2101 2202 2293 2292 2201 2295 2380
8 2299 2207 2297 2383 2206 2107 2204 2296
8 2300 2208 2298 2384 2207 2108 2205 2297
8 2302 2210 2300 2386 2209 2110 2207 2299
8 2303 2211 2301 2387 2210 2111 2208 2300
8 2305 2213 2303 2389 2212 2113 2210 2302
8 2306 2214 2304 2390 2213 2114 2211 2303
8 2310 2216 2306 2392 2220 2117 2213 2305
8 2308 2215 2307 2393 2216 2115 2214 2306
8 2308 2215 2115 2216 2396 2309 2217 2311
8 2310 2216 2117 2220 2398 2311 2219 2315
8 2311 2217 2116 2219 2399 2312 2218 2314
8 2314 2218 2118 2222 2402 2313 2221 2317
8 2315 2219 2119 2223 2403 2314 2222 2318
8 2225 2121 2224 2320 2317 2221 2316 2405
8 2226 2122 2225 2321 2318 2222 2317 2406
8 2228 2124 2227 2323 2320 2224 2319 2408
8 2229 2125 2228 2324 2321 2225 2320 2409
8 2231 2127 2230 2326 2323 2227 2322 2411
8 2232 2128 2231 2327 2324 2228 2323 2412
8 2234 2130 2233 2328 2326 2230 2325 2413
8 2235 2131 2234 2329 2327 2231 2326 2414
8 2237 2134 2236 2330 2329 2234 2328 2415
8 2259 2158 2260 2352 2332 2239 2331 2417
8 2257 2157 2259 2350 2334 2240 2332 2419
8 2240 2139 2239 2332 2335 2241 2333 2420
8 2334 2240 2335 2422 2242 2140 2243 2337
8 2335 2241 2336 2423 2243 2141 2244 2338
8 2337 2243 2338 2425 2247 2143 2246 2342
8 2338 2244 2339 2426 2246 2142 2245 2341
8 2341 2245 2340 2428 2249 2145 2248 2343
8 2342 2246 2341 2429 2250 2146 2249 2344
8 2344 2249 2343 2430 2252 2149 2251 2345
8 2188 2285 2347 2254 2284 2374 2432 2346
8 2347 2254 2346 2432 2271 2169 2270 2364
8 2365 2271 2170 2272 2433 2347 2255 2348
8 2286 2189 2285 2375 2348 2255 2347 2433
8 2349 2258 2351 2435 2257 2157 2259 2350
8 2349 2258 2164 2263 2435 2351 2264 2355
8 2259 2158 2261 2351 2352 2260 2354 2437
8 2356 2265 2354 2437 2264 2165 2261 2351
8 2441 2357 2264 2355 2362 2268 2168 2269
8 2356 2265 2165 2264 2442 2358 2266 2357
8 2443 2359 2266 2357 2361 2267 2166 2268
8 2370 2279 2360 2446 2280 2181 2267 2361
8 2362 2268 2182 2281 2447 2361 2280 2371
8 2180 2277 2368 2278 2270 2364 2449 2363
8 2271 2365 2273 2177 2364 2450 2366 2277
8 2372 2283 2186 2282 2451 2368 2276 2367
8 2178 2274 2367 2276 2277 2366 2451 2368
8 2283 2187 2278 2368 2370 2279 2369 2452
8 2372 2283 2370 2453 2282 2186 2280 2371
8 2284 2374 2455 2373 2201 2292 2380 2295
8 2375 2285 2197 2289 2456 2374 2292 2378
8 2376 2291 2204 2296 2457 2379 2297 2383
8 2288 2199 2291 2376 2377 2293 2379 2457
8 2198 2290 2378 2292 2293 2377 2458 2380
8 2293 2202 2294 2379 2380 2295 2381 2459
8 2384 2298 2381 2459 2297 2205 2294 2379
8 2386 2300 2384 2463 2299 2207 2297 2383
8 2387 2301 2385 2464 2300 2208 2298 2384
8 2389 2303 2387 2466 2302 2210 2300 2386
8 2390 2304 2388 2467 2303 2211 2301 2387
8 2392 2306 2390 2469 2305 2213 2303 2389
8 2393 2307 2391 2470 2306 2214 2304 2390
8 2395 2308 2393 2472 2310 2216 2306 2392
8 2308 2215 2309 2396 2393 2307 2394 2473
8 2395 2308 2216 2310 2475 2396 2311 2398
8 2396 2309 2217 2311 2476 2397 2312 2399
8 2398 2311 2219 2315 2478 2399 2314 2403
8 2399 2312 2218 2314 2479 2400 2313 2402
8 2317 2221 2316 2405 2402 2313 2401 2482
8 2403 2314 2222 2318 2483 2402 2317 2406
8 2320 2224 2319 2408 2405 2316 2404 2485
8 2321 2225 2320 2409 2406 2317 2405 2486
8 2323 2227 2322 2411 2408 2319 2407 2488
8 2324 2228 2323 2412 2409 2320 2408 2489
8 2326 2230 2325 2413 2411 2322 2410 2490
8 2327 2231 2326 2414 2412 2323 2411 2491
8 2329 2234 2328 2415 2414 2326 2413 2492
8 2417 2331 2260 2352 2494 2416 2353 2438
8 2350 2259 2352 2436 2419 2332 2417 2496
8 2332 2239 2331 2417 2420 2333 2418 2497
8 2334 2240 2332 2419 2422 2335 2420 2499
8 2420 2333 2421 2500 2335 2241 2336 2423
8 2422 2335 2423 2502 2337 2243 2338 2425
8 2423 2336 2424 2503 2338 2244 2339 2426
8 2425 2338 2426 2505 2342 2246 2341 2429
8 2426 2339 2427 2506 2341 2245 2340 2428
8 2429 2341 2428 2507 2344 2249 2343 2430
8 2432 2346 2284 2374 2509 2431 2373 2455
8 2432 2346 2431 2509 2364 2270 2363 2449
8 2375 2285 2374 2456 2433 2347 2432 2510
8 2347 2433 2365 2271 2432 2510 2450 2364
8 2350 2259 2351 2435 2436 2352 2437 2514
8 2440 2356 2437 2514 2355 2264 2351 2435
8 2352 2260 2354 2437 2438 2353 2439 2516
8 2356 2265 2358 2442 2437 2354 2439 2516
8 2440 2356 2264 2355 2518 2442 2357 2441
8 2519 2443 2357 2441 2447 2361 2268 2362
8 2443 2359 2444 2520 2357 2266 2358 2442
8 2443 2359 2267 2361 2520 2444 2360 2446
8 2446 2360 2279 2370 2523 2445 2369 2452
8 2453 2370 2446 2524 2371 2280 2361 2447
8 2449 2363 2448 2525 2368 2278 2369 2452
8 2366 2277 2364 2450 2451 2368 2449 2526
8 2372 2283 2368 2451 2453 2370 2452 2527
8 2455 2373 2295 2380 2529 2454 2382 2460
8 2456 2374 2292 2378 2530 2455 2380 2458
8 2377 2293 2379 2457 2458 2380 2459 2531
8 2463 2384 2459 2531 2383 2297 2379 2457
8 2533 2461 2382 2460 2459 2381 2295 2380
8 2464 2385 2461 2533 2384 2298 2381 2459
8 2466 2387 2464 2537 2386 2300 2384 2463
8 2467 2388 2465 2538 2387 2301 2385 2464
8 2469 2390 2467 2540 2389 2303 2387 2466
8 2470 2391 2468 2541 2390 2304 2388 2467
8 2472 2393 2470 2543 2392 2306 2390 2469
8 2393 2307 2394 2473 2470 2391 2471 2544
8 2395 2308 2396 2475 2472 2393 2473 2546
8 2396 2309 2397 2476 2473 2394 2474 2547
8 2475 2396 2311 2398 2549 2476 2399 2478
8 2476 2397 2312 2399 2550 2477 2400 2479
8 2478 2399 2314 2403 2552 2479 2402 2483
8 2479 2400 2313 2402 2553 2480 2401 2482
8 2405 2316 2404 2485 2482 2401 2481 2556
8 2406 2317 2405 2486 2483 2402 2482 2557
8 2408 2319 2407 2488 2485 2404 2484 2559
8 2409 2320 2408 2489 2486 2405 2485 2560
8 2411 2322 2410 2490 2488 2407 2487 2561
8 2412 2323 2411 2491 2489 2408 2488 2562
8 2414 2326 2413 2492 2491 2411 2490 2563
8 2513 2434 2493 2565 2438 2353 2416 2494
8 2496 2417 2352 2436 2567 2494 2438 2515
8 2494 2416 2495 2568 2417 2331 2418 2497
8 2419 2332 2417 2496 2499 2420 2497 2570
8 2497 2418 2498 2571 2420 2333 2421 2500
8 2499 2420 2500 2573 2422 2335 2423 2502
8 2500 2421 2501 2574 2423 2336 2424 2503
8 2502 2423 2503 2576 2425 2338 2426 2505
8 2503 2424 2504 2577 2426 2339 2427 2506
8 2505 2426 2506 2578 2429 2341 2428 2507
8 2509 2431 2373 2455 2580 2508 2454 2529
8 2509 2431 2508 2580 2449 2363 2448 2525
8 2432 2510 2581 2509 2374 2456 2530 2455
8 2432 2510 2450 2364 2509 2581 2526 2449
8 2583 2511 2434 2513 2516 2439 2353 2438
8 2436 2352 2437 2514 2515 2438 2516 2588
8 2440 2356 2442 2518 2514 2437 2516 2588
8 2442 2358 2444 2520 2516 2439 2517 2589
8 2519 2443 2520 2591 2441 2357 2442 2518
8 2519 2443 2361 2447 2591 2520 2446 2524
8 2446 2360 2445 2523 2520 2444 2521 2592
8 2525 2448 2522 2593 2452 2369 2445 2523
8 2524 2446 2370 2453 2594 2523 2452 2527
8 2526 2449 2525 2595 2451 2368 2452 2527
8 2534 2462 2528 2597 2460 2382 2454 2529
8 2530 2455 2380 2458 2598 2529 2460 2532
8 2599 2533 2460 2532 2531 2459 2380 2458
8 2537 2464 2533 2599 2463 2384 2459 2531
8 2534 2462 2382 2460 2601 2535 2461 2533
8 2538 2465 2535 2601 2464 2385 2461 2533
8 2540 2467 2538 2604 2466 2387 2464 2537
8 2541 2468 2539 2605 2467 2388 2465 2538
8 2543 2470 2541 2607 2469 2390 2467 2540
8 2470 2391 2471 2544 2541 2468 2542 2608
8 2472 2393 2473 2546 2543 2470 2544 2610
8 2473 2394 2474 2547 2544 2471 2545 2611
8 2475 2396 2476 2549 2546 2473 2547 2613
8 2476 2397 2477 2550 2547 2474 2548 2614
8 2549 2476 2399 2478 2616 2550 2479 2552
8 2479 2400 2480 2553 2550 2477 2551 2617
8 2552 2479 2402 2483 2619 2553 2482 2557
8 2482 2401 2481 2556 2553 2480 2554 2620
8 2485 2404 2484 2559 2556 2481 2555 2623
8 2486 2405 2485 2560 2557 2482 2556 2624
8 2488 2407 2487 2561 2559 2484 2558 2625
8 2489 2408 2488 2562 2560 2485 2559 2626
8 2491 2411 2490 2563 2562 2488 2561 2627
8 2513 2434 2512 2585 2565 2493 2564 2630
8 2586 2513 2565 2632 2515 2438 2494 2567
8 2565 2493 2566 2633 2494 2416 2495 2568
8 2567 2494 2568 2635 2496 2417 2497 2570
8 2568 2495 2569 2636 2497 2418 2498 2571
8 2570 2497 2571 2638 2499 2420 2500 2573
8 2571 2498 2572 2639 2500 2421 2501 2574
8 2573 2500 2574 2641 2502 2423 2503 2576
8 2574 2501 2575 2642 2503 2424 2504 2577
8 2576 2503 2577 2643 2505 2426 2506 2578
8 2597 2528 2579 2645 2529 2454 2508 2580
8 2580 2508 2579 2645 2525 2448 2522 2593
8 2581 2509 2455 2530 2646 2580 2529 2598
8 2581 2509 2580 2646 2526 2449 2525 2595
8 2583 2511 2582 2648 2513 2434 2512 2585
8 2583 2511 2439 2516 2648 2582 2517 2589
8 2649 2583 2513 2586 2588 2516 2438 2515
8 2589 2517 2444 2520 2653 2587 2521 2592
8 2518 2442 2520 2591 2588 2516 2589 2654
8 2593 2522 2590 2655 2523 2445 2521 2592
8 2524 2446 2523 2594 2591 2520 2592 2656
8 2595 2525 2593 2657 2527 2452 2523 2594
8 2602 2536 2596 2659 2534 2462 2528 2597
8 2600 2534 2597 2660 2532 2460 2529 2598
8 2600 2534 2460 2532 2661 2601 2533 2599
8 2604 2538 2601 2661 2537 2464 2533 2599
8 2602 2536 2462 2534 2663 2603 2535 2601
8 2601 2535 2465 2538 2663 2603 2539 2605
8 2607 2541 2605 2665 2540 2467 2538 2604
8 2608 2542 2606 2666 2541 2468 2539 2605
8 2543 2470 2544 2610 2607 2541 2608 2668
8 2544 2471 2545 2611 2608 2542 2609 2669
8 2546 2473 2547 2613 2610 2544 2611 2671
8 2547 2474 2548 2614 2611 2545 2612 2672
8 2549 2476 2550 2616 2613 2547 2614 2674
8 2550 2477 2551 2617 2614 2548 2615 2675
8 2552 2479 2553 2619 2616 2550 2617 2677
8 2553 2480 2554 2620 2617 2551 2618 2678
8 2557 2482 2556 2624 2619 2553 2620 2680
8 2556 2481 2555 2623 2620 2554 2621 2681
8 2559 2484 2558 2625 2623 2555 2622 2683
8 2560 2485 2559 2626 2624 2556 2623 2684
8 2562 2488 2561 2627 2626 2559 2625 2685
8 2690 2629 2564 2630 2650 2584 2512 2585
8 2586 2513 2585 2651 2632 2565 2630 2691
8 2630 2564 2631 2692 2565 2493 2566 2633
8 2632 2565 2633 2694 2567 2494 2568 2635
8 2633 2566 2634 2695 2568 2495 2569 2636
8 2635 2568 2636 2697 2570 2497 2571 2638
8 2636 2569 2637 2698 2571 2498 2572 2639
8 2638 2571 2639 2700 2573 2500 2574 2641
8 2639 2572 2640 2701 2574 2501 2575 2642
8 2641 2574 2642 2702 2576 2503 2577 2643
8 2597 2528 2596 2659 2645 2579 2644 2704
8 2645 2579 2644 2704 2593 2522 2590 2655
8 2660 2597 2645 2705 2598 2529 2580 2646
8 2646 2580 2645 2705 2595 2525 2593 2657
8 2650 2584 2512 2585 2707 2647 2582 2648
8 2648 2582 2517 2589 2707 2647 2587 2653
8 2649 2583 2648 2708 2586 2513 2585 2651
8 2649 2583 2516 2588 2708 2648 2589 2654
8 2655 2590 2652 2710 2592 2521 2587 2653
8 2654 2589 2520 2591 2711 2653 2592 2656
8 2657 2593 2655 2712 2594 2523 2592 2656
8 2602 2536 2603 2663 2659 2596 2658 2714
8 2662 2602 2659 2715 2600 2534 2597 2660
8 2662 2602 2534 2600 2717 2663 2601 2661
8 2661 2601 2538 2604 2717 2663 2605 2665
8 2666 2606 2664 2718 2605 2539 2603 2663
8 2668 2608 2666 2720 2607 2541 2605 2665
8 2608 2542 2609 2669 2666 2606 2667 2721
8 2610 2544 2611 2671 2668 2608 2669 2723
8 2611 2545 2612 2672 2669 2609 2670 2724
8 2613 2547 2614 2674 2671 2611 2672 2726
8 2614 2548 2615 2675 2672 2612 2673 2727
8 2616 2550 2617 2677 2674 2614 2675 2729
8 2617 2551 2618 2678 2675 2615 2676 2730
8 2619 2553 2620 2680 2677 2617 2678 2732
8 2620 2554 2621 2681 2678 2618 2679 2733
8 2624 2556 2623 2684 2680 2620 2681 2735
8 2681 2621 2555 2623 2736 2682 2622 2683
8 2626 2559 2625 2685 2684 2623 2683 2737
8 2688 2628 2584 2650 2740 2686 2647 2707
8 2688 2628 2687 2742 2650 2584 2629 2690
8 2690 2629 2689 2745 2630 2564 2631 2692
8 2746 2690 2630 2691 2709 2650 2585 2651
8 2691 2630 2692 2747 2632 2565 2633 2694
8 2692 2631 2693 2748 2633 2566 2634 2695
8 2694 2633 2695 2750 2635 2568 2636 2697
8 2695 2634 2696 2751 2636 2569 2637 2698
8 2697 2636 2698 2753 2638 2571 2639 2700
8 2698 2637 2699 2754 2639 2572 2640 2701
8 2700 2639 2701 2755 2641 2574 2642 2702
8 2659 2596 2658 2714 2704 2644 2703 2757
8 2704 2644 2703 2757 2655 2590 2652 2710
8 2660 2597 2659 2715 2705 2645 2704 2758
8 2705 2645 2704 2758 2657 2593 2655 2712
8 2759 2706 2647 2707 2710 2652 2587 2653
8 2709 2650 2585 2651 2760 2707 2648 2708
8 2708 2648 2589 2654 2760 2707 2653 2711
8 2712 2655 2710 2761 2656 2592 2653 2711
8 2763 2713 2658 2714 2718 2664 2603 2663
8 2662 2602 2663 2717 2715 2659 2714 2764
8 2720 2666 2718 2767 2665 2605 2663 2717
8 2768 2719 2664 2718 2721 2667 2606 2666
8 2668 2608 2669 2723 2720 2666 2721 2770
8 2669 2609 2670 2724 2721 2667 2722 2771
8 2671 2611 2672 2726 2723 2669 2724 2773
8 2672 2612 2673 2727 2724 2670 2725 2774
8 2674 2614 2675 2729 2726 2672 2727 2776
8 2675 2615 2676 2730 2727 2673 2728 2777
8 2677 2617 2678 2732 2729 2675 2730 2779
8 2678 2618 2679 2733 2730 2676 2731 2780
8 2680 2620 2681 2735 2732 2678 2733 2782
8 2733 2679 2621 2681 2783 2734 2682 2736
8 2735 2681 2623 2684 2784 2736 2683 2737
8 2740 2686 2647 2707 2787 2738 2706 2759
8 2688 2628 2686 2740 2742 2687 2739 2789
8 2743 2688 2650 2709 2790 2740 2707 2760
8 2742 2687 2741 2792 2690 2629 2689 2745
8 2743 2688 2742 2793 2709 2650 2690 2746
8 2745 2689 2744 2795 2692 2631 2693 2748
8 2746 2690 2745 2796 2691 2630 2692 2747
8 2747 2692 2748 2797 2694 2633 2695 2750
8 2748 2693 2749 2798 2695 2634 2696 2751
8 2750 2695 2751 2800 2697 2636 2698 2753
8 2751 2696 2752 2801 2698 2637 2699 2754
8 2753 2698 2754 2802 2700 2639 2701 2755
8 2763 2713 2756 2804 2714 2658 2703 2757
8 2759 2706 2652 2710 2804 2756 2703 2757
8 2715 2659 2714 2764 2758 2704 2757 2805
8 2758 2704 2757 2805 2712 2655 2710 2761
8 2806 2759 2707 2760 2761 2710 2653 2711
8 2765 2716 2762 2808 2718 2664 2713 2763
8 2809 2763 2714 2764 2767 2718 2663 2717
8 2765 2716 2664 2718 2811 2766 2719 2768
8 2813 2768 2718 2767 2770 2721 2666 2720
8 2814 2769 2719 2768 2771 2722 2667 2721
8 2723 2669 2724 2773 2770 2721 2771 2816
8 2724 2670 2725 2774 2771 2722 2772 2817
8 2726 2672 2727 2776 2773 2724 2774 2819
8 2727 2673 2728 2777 2774 2725 2775 2820
8 2729 2675 2730 2779 2776 2727 2777 2822
8 2730 2676 2731 2780 2777 2728 2778 2823
8 2732 2678 2733 2782 2779 2730 2780 2825
8 2780 2731 2679 2733 2826 2781 2734 2783
8 2782 2733 2681 2735 2827 2783 2736 2784
8 2830 2785 2738 2787 2804 2756 2706 2759
8 2789 2739 2686 2740 2832 2786 2738 2787
8 2790 2740 2707 2760 2833 2787 2759 2806
8 2742 2687 2739 2789 2792 2741 2788 2835
8 2743 2688 2740 2790 2793 2742 2789 2836
8 2792 2741 2791 2838 2745 2689 2744 2795
8 2793 2742 2792 2839 2746 2690 2745 2796
8 2795 2744 2794 2841 2748 2693 2749 2798
8 2796 2745 2795 2842 2747 2692 2748 2797
8 2797 2748 2798 2843 2750 2695 2751 2800
8 2798 2749 2799 2844 2751 2696 2752 2801
8 2800 2751 2801 2845 2753 2698 2754 2802
8 2808 2762 2803 2847 2763 2713 2756 2804
8 2809 2763 2804 2848 2764 2714 2757 2805
8 2806 2759 2710 2761 2848 2804 2757 2805
8 2765 2716 2766 2811 2808 2762 2807 2850
8 2810 2765 2808 2851 2767 2718 2763 2809
8 2810 2765 2718 2767 2852 2811 2768 2813
8 2811 2766 2719 2768 2853 2812 2769 2814
8 2855 2814 2768 2813 2816 2771 2721 2770
8 2856 2815 2769 2814 2817 2772 2722 2771
8 2773 2724 2774 2819 2816 2771 2817 2858
8 2774 2725 2775 2820 2817 2772 2818 2859
8 2776 2727 2777 2822 2819 2774 2820 2861
8 2777 2728 2778 2823 2820 2775 2821 2862
8 2779 2730 2780 2825 2822 2777 2823 2864
8 2823 2778 2731 2780 2865 2824 2781 2826
8 2825 2780 2733 2782 2866 2826 2783 2827
8 2869 2828 2785 2830 2847 2803 2756 2804
8 2871 2829 2786 2832 2830 2785 2738 2787
8 2872 2830 2787 2833 2848 2804 2759 2806
8 2789 2739 2786 2832 2835 2788 2831 2874
8 2836 2789 2740 2790 2875 2832 2787 2833
8 2792 2741 2788 2835 2838 2791 2834 2877
8 2793 2742 2789 2836 2839 2792 2835 2878
8 2838 2791 2837 2880 2795 2744 2794 2841
8 2839 2792 2838 2881 2796 2745 2795 2842
8 2841 2794 2840 2882 2798 2749 2799 2844
8 2842 2795 2841 2883 2797 2748 2798 2843
8 2843 2798 2844 2884 2800 2751 2801 2845
8 2886 2846 2803 2847 2850 2807 2762 2808
8 2851 2808 2847 2887 2809 2763 2804 2848
8 2850 2807 2766 2811 2889 2849 2812 2853
8 2810 2765 2811 2852 2851 2808 2850 2890
8 2852 2811 2768 2813 2891 2853 2814 2855
8 2853 2812 2769 2814 2892 2854 2815 2856
8 2894 2856 2814 2855 2858 2817 2771 2816
8 2817 2772 2818 2859 2856 2815 2857 2895
8 2819 2774 2820 2861 2858 2817 2859 2897
8 2820 2775 2821 2862 2859 2818 2860 2898
8 2822 2777 2823 2864 2861 2820 2862 2900
8 2823 2778 2824 2865 2862 2821 2863 2901
8 2864 2823 2780 2825 2902 2865 2826 2866
8 2904 2867 2828 2869 2886 2846 2803 2847
8 2869 2828 2868 2906 2830 2785 2829 2871
8 2907 2869 2830 2872 2887 2847 2804 2848
8 2871 2829 2870 2909 2832 2786 2831 2874
8 2910 2871 2832 2875 2872 2830 2787 2833
8 2835 2788 2831 2874 2877 2834 2873 2912
8 2836 2789 2832 2875 2878 2835 2874 2913
8 2877 2834 2876 2915 2838 2791 2837 2880
8 2839 2792 2835 2878 2881 2838 2877 2916
8 2880 2837 2879 2917 2841 2794 2840 2882
8 2881 2838 2880 2918 2842 2795 2841 2883
8 2883 2841 2882 2919 2843 2798 2844 2884
8 2921 2885 2846 2886 2889 2849 2807 2850
8 2922 2886 2847 2887 2890 2850 2808 2851
8 2889 2849 2812 2853 2924 2888 2854 2892
8 2890 2850 2811 2852 2925 2889 2853 2891
8 2891 2853 2814 2855 2926 2892 2856 2894
8 2892 2854 2815 2856 2927 2893 2857 2895
8 2858 2817 2859 2897 2894 2856 2895 2929
8 2859 2818 2860 2898 2895 2857 2896 2930
8 2861 2820 2862 2900 2897 2859 2898 2932
8 2862 2821 2863 2901 2898 2860 2899 2933
8 2864 2823 2865 2902 2900 2862 2901 2934
8 2904 2867 2846 2886 2936 2903 2885 2921
8 2904 2867 2903 2936 2869 2828 2868 2906
8 2937 2904 2869 2907 2922 2886 2847 2887
8 2906 2868 2905 2939 2871 2829 2870 2909
8 2907 2869 2906 2940 2872 2830 2871 2910
8 2909 2870 2908 2942 2874 2831 2873 2912
8 2910 2871 2909 2943 2875 2832 2874 2913
8 2912 2873 2911 2945 2877 2834 2876 2915
8 2878 2835 2874 2913 2916 2877 2912 2946
8 2915 2876 2914 2947 2880 2837 2879 2917
8 2916 2877 2915 2948 2881 2838 2880 2918
8 2918 2880 2917 2949 2883 2841 2882 2919
8 2921 2885 2849 2889 2951 2920 2888 2924
8 2952 2921 2886 2922 2925 2889 2850 2890
8 2924 2888 2854 2892 2954 2923 2893 2927
8 2925 2889 2853 2891 2955 2924 2892 2926
8 2926 2892 2856 2894 2956 2927 2895 2929
8 2895 2857 2896 2930 2927 2893 2928 2957
8 2897 2859 2898 2932 2929 2895 2930 2959
8 2898 2860 2899 2933 2930 2896 2931 2960
8 2900 2862 2901 2934 2932 2898 2933 2961
8 2936 2903 2885 2921 2963 2935 2920 2951
8 2936 2903 2935 2963 2906 2868 2905 2939
8 2937 2904 2886 2922 2964 2936 2921 2952
8 2937 2904 2936 2964 2907 2869 2906 2940
8 2939 2905 2938 2966 2909 2870 2908 2942
8 2940 2906 2939 2967 2910 2871 2909 2943
8 2942 2908 2941 2969 2912 2873 2911 2945
8 2943 2909 2942 2970 2913 2874 2912 2946
8 2945 2911 2944 2971 2915 2876 2914 2947
8 2946 2912 2945 2972 2916 2877 2915 2948
8 2948 2915 2947 2973 2918 2880 2917 2949
8 2951 2920 2888 2924 2975 2950 2923 2954
8 2952 2921 2889 2925 2976 2951 2924 2955
8 2927 2893 2928 2957 2954 2923 2953 2978
8 2955 2924 2892 2926 2979 2954 2927 2956
8 2929 2895 2930 2959 2956 2927 2957 2980
8 2930 2896 2931 2960 2957 2928 2958 2981
8 2932 2898 2933 2961 2959 2930 2960 2982
8 2951 2920 2950 2975 2963 2935 2962 2984
8 2963 2935 2962 2984 2939 2905 2938 2966
8 2964 2936 2921 2952 2985 2963 2951 2976
8 2964 2936 2963 2985 2940 2906 2939 2967
8 2966 2938 2965 2987 2942 2908 2941 2969
8 2967 2939 2966 2988 2943 2909 2942 2970
8 2969 2941 2968 2989 2945 2911 2944 2971
8 2970 2942 2969 2990 2946 2912 2945 2972
8 2972 2945 2971 2991 2948 2915 2947 2973
8 2954 2923 2953 2978 2975 2950 2974 2993
8 2976 2951 2924 2955 2994 2975 2954 2979
8 2957 2928 2958 2981 2978 2953 2977 2995
8 2956 2927 2957 2980 2979 2954 2978 2996
8 2959 2930 2960 2982 2980 2957 2981 2997
8 2984 2962 2983 2999 2966 2938 2965 2987
8 2975 2950 2974 2993 2984 2962 2983 2999
8 2976 2951 2975 2994 2985 2963 2984 3000
8 2985 2963 2984 3000 2967 2939 2966 2988
8 2987 2965 2986 3001 2969 2941 2968 2989
8 2988 2966 2987 3002 2970 2942 2969 2990
8 2990 2969 2989 3003 2972 2945 2971 2991
8 2978 2953 2977 2995 2993 2974 2992 3004
8 2979 2954 2978 2996 2994 2975 2993 3005
8 2980 2957 2981 2997 2996 2978 2995 3006
8 2974 2993 2999 2983 2992 3004 3007 2998
8 2983 2999 2987 2965 2998 3007 3001 2986
8 3000 2984 2999 3008 2988 2966 2987 3002
8 2994 2975 2993 3005 3000 2984 2999 3008
8 3002 2987 3001 3009 2990 2969 2989 3003
8 2996 2978 2995 3006 3005 2993 3004 3010
8 3005 2993 3004 3010 3008 2999 3007 3011
8 3008 2999 3007 3011 3002 2987 3001 3009

CELL_TYPES 1910
12
12
12
12
12
12
12
12
12
12
12
12
12
12
12
12
12
12
12
12
12
12
12
12
12
12
12
12
12
12
12
12
12
12
12
12
12
12
12
12
12
12
12
12
12
12
12
12
12
12
12
12
12
12
12
12
12
12
12
12
12
12
12
12
12
12
12
12
12
12
12
12
12
12
12
12
12
12
12
12
12
12
12
12
12
12
12
12
12
12
12
12
12
12
12
12
12
12
12
12
12
12
12
12
12
12
12
12
12
12
12
12
12
12
12
12
12
12
12
12
12
12
12
12
12
12
12
12
12
12
12
12
12
12
12
12
12
12
12
12
12
12
12
12
12
12
12
12
12
12
12
12
12
12
12
12
12
12
12
12
12
12
12
12
12
12
12
12
12
12
12
12
12
12
12
12
12
12
12
12
12
12
12
12
12
12
12
12
12
12
12
12
12
12
12
12
12
12
12
12
12
12
12
12
12
12
12
12
12
12
12
12
12
12
12
12
12
12
12
12
12
12
12
12
12
12
12
12
12
12
12
12
12
12
12
12
12
12
12
12
12
12
12
12
12
12
12
12
12
12
12
12
12
12
12
12
12
12
12
12
12
12
12
12
12
12
12
12
12
12
12
12
12
12
12
12
12
12
12
12
12
12
12
12
12
12
12
12
12
12
12
12
12
12
12
12
12
12
12
12
12
12
12
12
12
12
12
12
12
12
12
12
12
12
12
12
12
12
12
12
12
12
12
12
12
12
12
12
12
12
12
12
12
12
12
12
12
12
12
12
12
12
12
12
12
12
12
12
12
12
12
12
12
12
12
12
12
12
12
12
12
12
12
12
12
12
12
12
12
12
12
12
12
12
12
12
12
12
12
12
12
12
12
12
12
12
12
12
12
12
12
12
12
12
12
12
12
12
12
12
12
12
12
12
12
12
12
12
12
12
12
12
12
12
12
12
12
12
12
12
12
12
12
12
12
12
12
12
12
12
12
12
12
12
12
12
12
12
12
12
12
12
12
12
12
12
12
12
12
12
12
12
12
12
12
12
12
12
12
12
12
12
12
12
12
12
12
12
12
12
12
12
12
12
12
12
12
12
12
12
12
12
12
12
12
12
12
12
12
12
12
12
12
12
12
12
12
12
12
12
12
12
12
12
12
12
12
12
12
12
12
12
12
12
12
12
12
12
12
12
12
12
12
12
12
12
12
12
12
12
12
12
12
12
12
12
12
12
12
12
12
12
12
12
12
12
12
12
12
12
12
12
12
12
12
12
12
12
12
12
12
12
12
12
12
12
12
12
12
12
12
12
12
12
12
12
12
12
12
12
12
12
12
12
12
12
12
12
12
12
12
12
12
12
12
12
12
12
12
12
12
12
12
12
12
12
12
12
12
12
12
12
12
12
12
12
12
12
12
12
12
12
12
12
12
12
12
12
12
12
12
12
12
12
12
12
12
12
12
12
12
12
12
12
12
12
12
12
12
12
12
12
12
12
12
12
12
12
12
12
12
12
12
12
12
12
12
12
12
12
12
12
12
12
12
12
12
12
12
12
12
12
12
12
12
12
12
12
12
12
12
12
12
12
12
12
12
12
12
12
12
12
12
12
12
12
12
12
12
12
12
12
12
12
12
12
12
12
12
12
12
12
12
12
12
12
12
12
12
12
12
12
12
12
12
12
12
12
12
12
12
12
12
12
12
12
12
12
12
12
12
12
12
12
12
12
12
12
12
12
12
12
12
12
12
12
12
12
12
12
12
12
12
12
12
12
12
12
12
12
12
12
12
12
12
12
12
12
12
12
12
12
12
12
12
12
12
12
12
12
12
12
12
12
12
12
12
12
12
12
12
12
12
12
12
12
12
12
12
12
12
12
12
12
12
12
12
12
12
12
12
12
12
12
12
12
12
12
12
12
12
12
12
12
12
12
12
12
12
12
12
12
12
12
12
12
12
12
12
12
12
12
12
12
12
12
12
12
12
12
12
12
12
12
12
12
12
12
12
12
12
12
12
12
12
12
12
12
12
12
12
12
12
12
12
12
12
12
12
12
12
12
12
12
12
12
12
12
12
12
12
12
12
12
12
12
12
12
12
12
12
12
12
12
12
12
12
12
12
12
12
12
12
12
12
12
12
12
12
12
12
12
12
12
12
12
12
12
12
12
12
12
12
12
12
12
12
12
12
12
12
12
12
12
12
12
12
12
12
12
12
12
12
12
12
12
12
12
12
12
12
12
12
12
12
12
12
12
12
12
12
12
12
12
12
12
12
12
12
12
12
12
12
12
12
12
12
12
12
12
12
12
12
12
12
12
12
12
12
12
12
12
12
12
12
12
12
12
12
12
12
12
12
12
12
12
12
12
12
12
12
12
12
12
12
12
12
12
12
12
12
12
12
12
12
12
12
12
12
12
12
12
12
12
12
12
12
12
12
12
12
12
12
12
12
12
12
12
12
12
12
12
12
12
12
12
12
12
12
12
12
12
12
12
12
12
12
12
12
12
12
12
12
12
12
12
12
12
12
12
12
12
12
12
12
12
12
12
12
12
12
12
12
12
12
12
12
12
12
12
12
12
12
12
12
12
12
12
12
12
12
12
12
12
12
12
12
12
12
12
12
12
12
12
12
12
12
12
12
12
12
12
12
12
12
12
12
12
12
12
12
12
12
12
12
12
12
12
12
12
12
12
12
12
12
12
12
12
12
12
12
12
12
12
12
12
12
12
12
12
12
12
12
12
12
12
12
12
12
12
12
12
12
12
12
12
12
12
12
12
12
12
12
12
12
12
12
12
12
12
12
12
12
12
12
12
12
12
12
12
12
12
12
12
12
12
12
12
12
12
12
12
12
12
12
12
12
12
12
12
12
12
12
12
12
12
12
12
12
12
12
12
12
12
12
12
12
12
12
12
12
12
12
12
12
12
12
12
12
12
12
12
12
12
12
12
12
12
12
12
12
12
12
12
12
12
12
12
12
12
12
12
12
12
12
12
12
12
12
12
12
12
12
12
12
12
12
12
12
12
12
12
12
12
12
12
12
12
12
12
12
12
12
12
12
12
12
12
12
12
12
12
12
12
12
12
12
12
12
12
12
12
12
12
12
12
12
12
12
12
12
12
12
12
12
12
12
12
12
12
12
12
12
12
12
12
12
12
12
12
12
12
12
12
12
12
12
12
12
12
12
12
12
12
12
12
12
12
12
12
12
12
12
12
12
12
12
12
12
12
12
12
12
12
12
12
12
12
12
12
12
12
12
12
12
12
12
12
12
12
12
12
12
12
12
12
12
12
12
12
12
12
12
12
12
12
12
12
12
12
12
12
12
12
12
12
12
12
12
12
12
12
12
12
12
12
12
12
12
12
12
12
12
12
12
12
12
12
12
12
12
12
12
12
12
12
12
12
12
12
12
12
12
12
12
12
12
12
12
12
12
12
12
12
12
12
12
12
12
12
12
12
12
12
12
12
12
12
12
12
12
12
12
12
12
12
12
12
12
12
12
12
12
12
12
12
12
12
12
12
12
12
12
12
12
12
12
12
12
12
12
12
12
12
12
12
12
12
12
12
12
12
12
12
12
12
12
12
12
12
12
12
12
12
12
12
12
12
12
12
12
12
12
12
12
12
12
12
12
12
12
12
12
12
12
12
12
12
12
12
12
12
12
12
12
12
12
12
12
12
12
12
12
12
12
12
12
12
12
12
12
12
12
12
12
12
12
12
12
12
12
12
12
12
12
12
12
12
12
12
12
12
12
12
12
12
12
12
12
12
12
12
12
12
12
12
12
12
12
12
12
12
12
12
12
12
12
12
12
12
12
12
12
12
12
12
12
12
12
12
12
12
12
12
12
12
12
12
12
12
12
12
12
12
12
12
12
12
12
12
12
12
12
12
12
12
12
12
12
12
12
12
12
12
12
12
12
12
12
12
12
12
12
12
12
12
12
12
12
12
12
12
12
12
12
12
12
12
12
12
12
12
12
12
12
12
12
12
12
12
12
12
12
12
12
12
12
12
12
12
12
12
12
12
12
12
12
12
12
12
12
12
12
12
12
12
12
12
12
12
12
12
12
12
12
12
12
12
12
12
12
12
12
12
12
12
12
12
12
12
12
12
12
12
12
12
12
12
12
12
12
12
12
12
12
12
12
12
12
12
12
12
12
12
12
12
12
12
12
12
12
12
12
12
12
12
12
12
12
12
12
12
12
12
12
12
12
12
12
12
12
12
12
12
12
12
12
12
12
12
12
12
12
12
12
12
12
12
12
12
12
12
12
12
12
12
12
12
12
12
12
12
12
12
12
12
12
12
12
12
12
12
12
12
12
12
12
12
12
12

POINT_DATA 3012
SCALARS Jp_lamdaP float 4
LOOKUP_TABLE default
0.999201 1 1 0.999201
1 1 1 1
0.999227 1 1 0.999227
0.999162 1 1 0.999162
0.999207 1 1 0.999207
0.999162 1 1 0.999162
1.02532 1.02752 1 0.997862
0.999998 1 1 0.999998
1 1 1 1
1 1 1 1
0.999202 1 1 0.999202
1.02203 1.02438 1 0.997704
0.999265 1 1 0.999265
0.999224 1 1 0.999224
0.999241 1 1 0.999241
0.999209 1 1 0.999209
0.99918 1 1 0.99918
0.999244 1 1 0.999244
1.02514 1.02735 1 0.997852
1 1 1 1
0.999164 1 1 0.999164
0.999187 1 1 0.999187
1.01708 1.01928 1 0.997836
1.02251 1.02468 1 0.997881
0.999136 1 1 0.999136
1.02779 1.03004 1 0.997808
1.06582 1.07017 1 0.99594
0.999992 1 1 0.999992
0.999615 1 1 0.999615
0.999622 1 1 0.999622
0.999993 1 1 0.999993
1.02051 1.02261 1.00024 0.997709
0.999225 1 1 0.999225
0.999244 1 1 0.999244
1.02417 1.02609 1 0.998129
1 1 1 1
1.02596 1.02786 1 0.998153
1.01589 1.01674 1.00146 0.997698
1.05635 1.06061 1.00031 0.995675
1 1 1 1
1 1 1 1
0.999617 1 1 0.999617
1 1 1 1
0.999258 1 1 0.999258
1.00456 1.00684 1 0.997739
1 1 1 1
1.01181 1.01375 1 0.998092
0.99925 1 1 0.99925
0.999273 1 1 0.999273
0.999188 1 1 0.999188
1.02505 1.02726 1 0.997848
0.9996 1 1 0.9996
0.999206 1 1 0.999206
0.999152 1 1 0.999152
0.999232 1 1 0.999232
1.01687 1.0191 1 0.997819
1.02733 1.02959 1 0.9978
1.02228 1.02446 1 0.99787
1.06678 1.07113 1 0.995943
1 1 1 1
0.999199 1 1 0.999199
1.0057 1.00748 1 0.998227
1.01308 1.01527 1 0.997844
1.0203 1.02249 1 0.997861
1.06812 1.07248 1 0.995943
1.06603 1.07035 1 0.995969
0.999131 1 1 0.999131
1.01865 1.02039 1.0005 0.997795
1.06552 1.06991 1 0.995893
1.08675 1.09189 1 0.995294
1 1 1 1
0.999999 1 1 0.999999
0.999999 1 1 0.999999
1.01863 1.02069 1.00027 0.997713
1 1 1 1
1 1 1 1
1.02424 1.02658 1 0.997717
0.99966 1 1 0.99966
1.02503 1.02733 1 0.997757
1.0139 1.01433 1.00159 0.997983
1.05966 1.06423 1.00003 0.995668
1 1 1 1
1.00689 1.0005 1.00749 0.998908
1.02097 1.02338 1 0.997645
1.02512 1.02747 1 0.99772
1.07297 1.07772 1 0.995596
1.01002 1.00862 1.00295 0.998442
1.06553 1.07012 1 0.995706
1.05212 1.05267 1.00372 0.995764
1.08931 1.09471 1 0.995066
1 1 1 1
1 1 1 1
1 1 1 1
1 1 1 1
1 1 1 1
0.999632 1 1 0.999632
1.00557 1.00761 1 0.99797
0.999609 1 1 0.999609
1.01324 1.01538 1 0.997893
1 1 1 1
1.00319 1.00539 1 0.997809
1.00779 1.00968 1 0.998129
1.06378 1.06831 1 0.995755
1.01706 1.01899 1 0.998108
1.07148 1.07611 1 0.995698
0.99929 1 1 0.99929
0.999245 1 1 0.999245
0.999162 1 1 0.999162
0.99927 1 1 0.99927
1.01666 1.0189 1 0.997806
1.02206 1.02425 1 0.997863
1.02646 1.02873 1 0.997798
1.06813 1.07248 1 0.995946
1 1 1 1
0.999238 1 1 0.999238
1.0052 1.00734 1 0.997876
1.01285 1.01506 1 0.997825
0.999571 1 1 0.999571
1.01952 1.02103 1.0006 0.997922
1.02004 1.02224 1 0.997848
1.06845 1.07279 0.999995 0.995959
1.0658 1.0702 1 0.995895
1.06686 1.07118 1 0.995964
1.08628 1.09147 0.99994 0.995303
1.00424 1.00643 1 0.99783
1.00863 1.01077 1 0.997891
1.06064 1.06541 0.9994 0.996124
1.06499 1.06969 0.99959 0.996015
1.06741 1.07172 1 0.995979
1.09571 1.10345 0.997323 0.995651
1 1 1 1
1.09086 1.09639 0.999508 0.995438
1.01044 1.00979 1.00289 0.997756
1.05858 1.06322 1 0.995633
1.08232 1.0876 1 0.995141
1.08502 1.09444 0.995799 0.995578
1.00507 1.00148 1.00523 0.998372
1.0149 1.00484 1.01321 0.996849
1 1 1 1
1 1 1 1
1.02463 1.02697 1 0.99772
1 1 1 1
1.01114 1.01105 1.00228 0.997807
1.02492 1.02722 1 0.997762
1.06343 1.06807 1 0.995661
1 1 1 1
1.00804 1.00057 1.00854 0.99893
1.02221 1.02438 1 0.997879
1.02577 1.02789 1 0.99794
1.07184 1.07659 1 0.995592
1.00833 1.00607 1.00409 0.998157
1.06589 1.07049 1 0.995703
1.05193 1.05282 1.00341 0.995758
1.0889 1.09426 1 0.995097
1.00721 1.00253 1.00614 0.998533
1.00969 1.0002 1.01028 0.999211
1.02285 1.01034 1.01506 0.997362
1.07483 1.0796 1 0.995589
1.07189 1.07657 1 0.995653
1.09412 1.1004 0.998902 0.995389
1.03756 1.03561 1.0057 0.996201
1.08536 1.09044 1 0.995342
1.08079 1.0848 1.00134 0.994972
1.10085 1.10618 0.999998 0.995188
1 1 1 1
1 1 1 1
1 1 1 1
1.00561 1.00049 1.00645 0.998678
1 1 1 1
1 1 1 1
1 1 1 1
1.01446 1.0168 1 0.997704
1.00611 1.00834 1 0.997788
1 1 1 1
1 1 1 1
1.00348 1.00568 1 0.997809
1.0087 1.01079 1 0.997935
1.06295 1.06747 1 0.995757
1.01796 1.02033 1 0.997675
1.06933 1.07395 1 0.995696
1.00321 1.0054 1 0.997819
1.06116 1.0657 1 0.995743
1.06706 1.07162 1 0.995749
1.09614 1.10577 0.995379 0.995894
1.07432 1.07904 1 0.995631
1.09557 1.10469 0.995922 0.995803
1 1 1 1
0.999278 1 1 0.999278
1.00465 1.00719 1 0.997478
1.01263 1.01486 1 0.997807
1 1 1 1
1.02027 1.02222 1.00003 0.998054
1.01979 1.022 1 0.997838
1.06874 1.07308 0.999981 0.995975
1.06773 1.07206 1 0.995959
1.065 1.06939 1 0.995899
1.08511 1.09031 0.999918 0.995313
1.00389 1.00607 1 0.997828
1.00851 1.01066 1 0.997873
1.06096 1.06603 0.999278 0.995968
1.06599 1.07051 0.99979 0.995988
0.999999 1 1 0.999999
1.01306 1.01337 1.00174 0.997955
1.0559 1.05974 1.0006 0.995775
1.0679 1.07222 1 0.995968
1.094 1.10252 0.996563 0.995701
1.08203 1.08731 1 0.995148
1.09092 1.09655 0.999417 0.995449
1.08456 1.09398 0.995793 0.995585
1.00592 1.00255 1.00501 0.998355
1.01705 1.00756 1.01263 0.996841
1.05982 1.06434 1 0.995754
1.0628 1.06778 0.999257 0.996084
1.09655 1.10508 0.996435 0.995827
1.09461 1.10415 0.995539 0.995798
1.09286 1.10099 0.997001 0.995602
1.0828 1.0971 0.990914 0.996018
1.00752 1.00511 1.00436 0.998046
1.08339 1.09692 0.991814 0.995818
1.05167 1.05369 1.0023 0.99579
1.08353 1.08898 1 0.994997
1.08833 1.09426 0.999314 0.99527
1.07686 1.095 0.987423 0.995959
1.02395 1.01535 1.01215 0.996365
1.01599 1.00128 1.01728 0.997458
1.02741 1.01686 1.01449 0.995934
1.02301 1.02539 1 0.997687
1 1 1 1
1.00766 1.00025 1.00847 0.998952
1.02589 1.02819 1 0.997759
1.07093 1.07568 1 0.995587
1.00762 1.0046 1.00485 0.998158
1.05332 1.05528 1.0024 0.995751
1.06532 1.06992 1 0.9957
1.08933 1.09466 1 0.995129
1.00691 1.00194 1.00641 0.998564
1.00891 1.00015 1.00953 0.999229
1.01863 1.00642 1.01481 0.997366
1.07294 1.0777 1 0.995583
1.07045 1.07513 1 0.995651
1.0951 1.10128 0.999002 0.995384
1.03592 1.03438 1.00531 0.9962
1.08608 1.09117 1 0.995332
1.08424 1.08885 1.00081 0.994955
1.10027 1.10557 0.999984 0.995226
1.00884 1 1.0094 0.99945
1.02596 1.01978 1.0093 0.996791
1.0221 1.00304 1.02122 0.997828
1.01889 1.01444 1.00765 0.996758
1.09386 1.10134 0.997691 0.995512
1.09128 1.09681 0.999622 0.99534
1.08838 1.102 0.99199 0.995612
1.06059 1.05697 1.00826 0.995215
1.08668 1.09327 0.998349 0.99561
1.08669 1.09055 1.00158 0.994895
1.11239 1.1176 1 0.995335
1.00368 1 1.0047 0.998983
1.001 1 1.00128 0.999725
1 1 1 1
1 1 1 1
1 1 1 1
1.00579 1 1.00671 0.999082
1 1 1 1
1.00559 1.00054 1.00641 0.998652
1 1 1 1
1.0195 1.02187 1 0.997676
1.00975 1.01202 1 0.99775
1.06764 1.07226 1 0.995695
1.06219 1.06671 1 0.995759
1.00383 1.00603 1 0.997811
1 1 1 1
1.00314 1.00534 1 0.997819
1.06095 1.06549 1 0.995745
1.06596 1.07051 1 0.995749
1.09632 1.10591 0.995416 0.995893
1.07243 1.07714 1 0.995625
1.09669 1.10574 0.996003 0.995801
1.05969 1.06422 1 0.995743
1.09641 1.10599 0.995444 0.995876
1.09641 1.1055 0.995882 0.995876
1.07968 1.09562 0.989148 0.996263
1.09483 1.10354 0.996415 0.995671
1.08339 1.09879 0.98982 0.996122
1.0036 1.00578 1 0.997827
1.00838 1.01055 1 0.997854
1.06129 1.06666 0.999146 0.995814
1.06701 1.07134 1 0.995961
0.999995 1 1 0.999995
1.01566 1.01608 1.00143 0.998159
1.05442 1.05784 1.00086 0.995914
1.06837 1.07271 1 0.995957
1.09238 1.10166 0.995804 0.995751
1.09095 1.09671 0.999289 0.99546
1.08357 1.08884 1 0.995156
1.08451 1.09394 0.995769 0.995591
1.00638 1.0035 1.00453 0.998338
1.02027 1.01043 1.01294 0.996832
1.05999 1.06482 0.999683 0.995782
1.06338 1.06822 0.999382 0.996079
1.09584 1.10481 0.996008 0.995855
1.09467 1.10342 0.996304 0.995747
1.00827 1.00636 1.00388 0.998031
1.04966 1.05133 1.00262 0.995793
1.08627 1.09174 1 0.994992
1.0931 1.10047 0.997713 0.995575
1.08256 1.09778 0.990025 0.99607
1.08799 1.09389 0.999308 0.995293
1.08326 1.09689 0.991717 0.995818
1.07632 1.0949 0.987041 0.995941
1.02703 1.01886 1.01169 0.996363
1.02674 1.01372 1.01698 0.995938
1.01764 1.00183 1.01836 0.997466
1.0968 1.10519 0.996574 0.99582
1.09597 1.10537 0.995653 0.995832
1.07897 1.09337 0.990605 0.996196
1.08129 1.09712 0.989415 0.996111
1.08213 1.09824 0.989301 0.995987
1.07863 1.10163 0.982702 0.996356
1.03799 1.03398 1.00786 0.996048
1.07326 1.09704 0.982098 0.996153
1.08145 1.08683 1 0.995044
1.08857 1.09423 0.999947 0.994882
1.07986 1.09051 0.994746 0.995462
1.0684 1.09423 0.980091 0.996226
1.02028 1.00331 1.01908 0.997873
1.04342 1.03208 1.01551 0.995547
1.01957 1.00316 1.01997 0.996465
1.02994 1.02286 1.01152 0.995463
1.07105 1.07581 1 0.995576
1.00911 1.00031 1.00955 0.999247
1.00684 1.00117 1.00708 0.998594
1.01881 1.0036 1.01784 0.997368
1.06935 1.07402 1 0.995649
1.09599 1.10206 0.999107 0.995379
1.03226 1.03021 1.00581 0.996198
1.08433 1.08932 1.00048 0.994938
1.08704 1.09215 1 0.995321
1.09767 1.1029 0.99999 0.995264
1.00728 1 1.00782 0.999465
1.02346 1.01571 1.01085 0.996809
1.02177 1.00251 1.02144 0.997821
1.01763 1.01193 1.0089 0.996764
1.09545 1.10284 0.997782 0.995507
1.092 1.09745 0.99969 0.995338
1.08748 1.10118 0.991911 0.995612
1.06022 1.0563 1.00854 0.995204
1.08551 1.09207 0.998412 0.995571
1.08202 1.08571 1.00173 0.99488
1.11295 1.11803 0.999992 0.995457
1.00345 1 1.00384 0.999609
1.01904 1 1.02088 0.998196
1.03412 1.02912 1.00894 0.995946
1.02352 1.00838 1.01794 0.997128
1.01759 1.01438 1.0066 0.996583
1.08558 1.10219 0.989118 0.995764
1.08725 1.09754 0.995032 0.995571
1.0794 1.09939 0.985962 0.995793
1.04314 1.0438 1.00448 0.994904
1.08973 1.09986 0.995063 0.995707
1.06475 1.06931 1.00086 0.994884
1.0065 1 1.00775 0.998762
1.01041 1 1.01221 0.998224
1.00037 1 1.0012 0.999172
1.00249 1 1.00351 0.998986
0.999842 1 1 0.999842
1.00034 1 1.0006 0.999747
0.999972 1 1 0.999972
1 1 1 1
1 1 1 1
1.00346 1 1.00402 0.999443
1 1 1 1
1.0063 1.00003 1.00722 0.999052
1 1 1 1
1.00524 1.00078 1.00584 0.998627
1 1 1 1
1.0702 1.07491 1 0.99562
1.06454 1.06908 1 0.995749
1.09747 1.10639 0.996122 0.995799
1.09641 1.10596 0.995457 0.995892
1.06067 1.0652 1 0.995746
1.00296 1.00516 1 0.997818
1.05992 1.06445 1 0.995743
1.09633 1.10591 0.995439 0.995877
1.09649 1.10566 0.99582 0.995874
1.07903 1.09572 0.98844 0.996279
1.09584 1.10458 0.996408 0.995667
1.08326 1.09848 0.989982 0.996121
1.09629 1.10563 0.995668 0.995865
1.07857 1.09505 0.988619 0.996289
1.08154 1.09678 0.989849 0.996221
1.08355 1.10477 0.984268 0.996471
1.08257 1.10006 0.988091 0.995959
1.08287 1.10684 0.98185 0.996428
1.06001 1.06517 0.999341 0.995811
1.06397 1.06868 0.999518 0.996073
1.09517 1.10456 0.995599 0.995884
1.09464 1.10262 0.997049 0.995696
1.00982 1.00823 1.00357 0.998018
1.04901 1.05018 1.0031 0.995797
1.08873 1.09422 1 0.994986
1.09326 1.09988 0.998426 0.995549
1.08221 1.09837 0.989126 0.996123
1.08301 1.09673 0.991637 0.995818
1.08731 1.09323 0.999265 0.995317
1.07573 1.09468 0.986718 0.995922
1.03094 1.02295 1.0115 0.996361
1.02479 1.01107 1.0177 0.995942
1.01805 1.00266 1.01793 0.997474
1.09609 1.10482 0.996235 0.995846
1.09527 1.10485 0.99548 0.995831
1.07862 1.0939 0.98976 0.996238
1.08207 1.09737 0.989936 0.996088
1.0417 1.03771 1.00782 0.996054
1.08142 1.08678 1.00002 0.995051
1.08891 1.09453 0.999989 0.994875
1.08298 1.09822 0.990154 0.995934
1.07809 1.10183 0.981987 0.9964
1.08032 1.09095 0.994814 0.995424
1.07358 1.09732 0.982141 0.996153
1.06852 1.09478 0.979669 0.996265
1.04114 1.03239 1.01298 0.995554
1.0274 1.02066 1.01126 0.995405
1.0173 1.003 1.01641 0.997879
1.01704 1.00291 1.01761 0.996539
1.07894 1.09378 0.990154 0.996244
1.08141 1.09688 0.989701 0.996153
1.07927 1.09967 0.985007 0.996389
1.076 1.10343 0.978628 0.996439
1.07574 1.09911 0.982366 0.99631
1.08019 1.10885 0.977524 0.996554
1.06135 1.06424 1.00206 0.995241
1.06615 1.09796 0.974441 0.996503
1.07514 1.08075 1 0.994815
1.08122 1.08778 0.999148 0.994819
1.07624 1.09215 0.98987 0.995512
1.06981 1.0974 0.978486 0.996293
1.01517 1.00472 1.0124 0.998029
1.02668 1.00926 1.02051 0.996815
1.03335 1.03443 1.00381 0.995169
1.02196 1.00996 1.01587 0.996078
1.02759 1.01878 1.01347 0.995245
1.00609 1 1.00661 0.999481
1.09711 1.10441 0.997873 0.995501
1.0195 1.00255 1.01914 0.997812
1.01941 1.01135 1.01117 0.99683
1.01371 1.00847 1.00845 0.99677
1.09265 1.09804 0.999757 0.995336
1.08649 1.10027 0.991829 0.995612
1.06216 1.06073 1.00618 0.995194
1.08086 1.08435 1.00193 0.994866
1.0848 1.09134 0.998474 0.995531
1.11432 1.11931 0.999958 0.995578
1.0029 1 1.00328 0.99962
1.0204 1.00024 1.022 0.998203
1.03266 1.02744 1.00916 0.995961
1.02305 1.00708 1.0188 0.997113
1.01848 1.01467 1.00734 0.996434
1.08471 1.10135 0.989085 0.995761
1.08671 1.09705 0.994975 0.995573
1.07819 1.09837 0.985777 0.995783
1.04386 1.04544 1.00361 0.994901
1.09556 1.10554 0.995279 0.995674
1.06581 1.07019 1.00096 0.994952
1.01042 1 1.01193 0.998515
1.02364 1.00335 1.0229 0.997388
1.01571 1.01592 1.00423 0.995578
1.03034 1.01657 1.0169 0.996698
1.03045 1.02788 1.00638 0.996154
1.08089 1.10648 0.980805 0.995986
1.07973 1.09389 0.991295 0.995724
1.06557 1.09333 0.97852 0.996005
1.01126 1.01257 1.00379 0.994937
1.05953 1.06538 0.999463 0.995043
1.00649 1 1.00773 0.998766
1.01056 1.00007 1.01249 0.99802
1.01101 1 1.01282 0.99821
1.00887 1 1.01081 0.998082
1.00549 1 1.00711 0.998398
0.999677 1 1.00039 0.999288
1.00067 1 1.00149 0.999177
0.999907 1 1 0.999907
1.00248 1 1.0035 0.998988
0.99988 1 1.00002 0.99986
0.999997 1 1 0.999997
1.00013 1 1.00036 0.999769
0.999986 1 1 0.999986
1 1 1 1
1.00363 1 1.004 0.999632
1.00517 1 1.00574 0.99943
1 1 1 1
1 1 1 1
1.00742 1 1.0084 0.999021
1 1 1 1
1.09702 1.10579 0.996389 0.995663
1.09688 1.10615 0.99573 0.995873
1.08324 1.0983 0.990131 0.996121
1.07846 1.0959 0.987742 0.996295
1.09626 1.10585 0.995432 0.995877
1.06036 1.06489 1 0.995743
1.09613 1.10547 0.995668 0.995865
1.07871 1.09494 0.98885 0.996285
1.08168 1.09693 0.989835 0.996221
1.08238 1.10447 0.983445 0.996498
1.08229 1.09987 0.988006 0.995956
1.08278 1.10709 0.981528 0.996451
1.07865 1.09444 0.989276 0.996262
1.08217 1.10445 0.983306 0.996459
1.08308 1.10505 0.983539 0.996522
1.08431 1.11244 0.978032 0.996615
1.0824 1.10762 0.980909 0.996245
1.08659 1.11509 0.977722 0.996643
1.09546 1.1045 0.99592 0.995873
1.09455 1.10431 0.995309 0.99583
1.07819 1.09439 0.988876 0.996281
1.0829 1.09764 0.99047 0.996065
1.04231 1.03834 1.00779 0.99606
1.07815 1.08343 1.00007 0.995056
1.08868 1.0941 1.00018 0.994867
1.08392 1.09826 0.991025 0.995882
1.07766 1.10204 0.981361 0.996444
1.07403 1.09774 0.982179 0.996153
1.08066 1.09133 0.994819 0.995387
1.06859 1.09539 0.979157 0.996305
1.03981 1.03103 1.01301 0.99556
1.02807 1.0175 1.01511 0.995346
1.01593 1.00286 1.01519 0.997883
1.01388 1.00271 1.01458 0.996612
1.07911 1.09393 0.990171 0.996244
1.08133 1.09677 0.98974 0.996138
1.07864 1.0994 0.984642 0.996416
1.0772 1.10355 0.979626 0.996422
1.06103 1.06077 1.00503 0.995242
1.07572 1.08127 1.00003 0.994832
1.08068 1.08668 0.999671 0.994807
1.07691 1.09956 0.983071 0.996263
1.07753 1.10731 0.976415 0.996609
1.07374 1.09028 0.98928 0.995499
1.06728 1.09909 0.974471 0.996502
1.06822 1.09624 0.977991 0.996368
1.03307 1.03215 1.00574 0.995178
1.02488 1.0158 1.01378 0.995231
1.02366 1.00837 1.01916 0.996081
1.01568 1.00328 1.01437 0.998017
1.02555 1.0048 1.02387 0.996843
1.08075 1.10307 0.983268 0.996435
1.08115 1.10628 0.980782 0.996433
1.07598 1.11332 0.969757 0.996596
1.07247 1.10413 0.974637 0.996598
1.05087 1.05614 1.00002 0.994993
1.06573 1.10159 0.970687 0.996661
1.05451 1.05991 1.00029 0.994619
1.06594 1.07563 0.996253 0.994715
1.06812 1.09142 0.98305 0.995523
1.01044 1 1.01204 0.998415
1.02338 1.00115 1.02509 0.997183
1.02497 1.01301 1.01531 0.996552
1.02269 1.0197 1.00786 0.995101
1.02726 1.01246 1.01911 0.995597
1.02385 1.01381 1.01484 0.995133
1.00158 1 1.00195 0.999632
1.02109 1 1.02292 0.99821
1.08375 1.10041 0.989055 0.995758
1.02642 1.00489 1.0244 0.997097
1.03287 1.02434 1.0124 0.995975
1.01987 1.01561 1.00793 0.996287
1.08584 1.09624 0.994921 0.995575
1.07715 1.09754 0.985592 0.995772
1.04294 1.04494 1.0032 0.9949
1.06545 1.06995 1.00077 0.995021
1.10171 1.11155 0.995486 0.995641
1.0116 1 1.0131 0.99852
1.02576 1.00184 1.02656 0.997392
1.02322 1.02153 1.00622 0.995464
1.03172 1.01502 1.01981 0.996708
1.03043 1.02859 1.00568 0.996124
1.07966 1.10509 0.980927 0.995981
1.08358 1.09769 0.991393 0.995709
1.06863 1.0974 0.977672 0.996026
1.01344 1.01531 1.00324 0.994932
1.0564 1.06227 0.99948 0.994996
1.01804 1.00216 1.01814 0.997752
1.03161 1.00415 1.03045 0.996986
1.00899 1.01062 1.00296 0.995438
1.04049 1.02759 1.01632 0.996289
1.05623 1.05932 1.00111 0.995976
1.06673 1.106 0.967925 0.996459
1.08682 1.10263 0.990122 0.995494
1.07769 1.10323 0.980851 0.99592
1.0175 1.01819 1.00433 0.995016
1.02555 1.03097 1 0.994744
1.00516 1 1.0064 0.99877
1.01038 1.0003 1.01208 0.998017
1.00204 1 1.00395 0.9981
1.00826 1 1.01008 0.998193
1.00479 1 1.00641 0.998393
1.0099 0.999949 1.01188 0.998095
1.00402 0.999995 1.0058 0.998243
1.01028 1 1.01226 0.998044
1.00154 1 1.00303 0.998507
0.999299 1 1 0.999299
0.999317 1 1.00003 0.999287
0.999946 1 1 0.999946
0.999977 1 1.0008 0.999182
0.999919 1 1 0.999919
1 1 1 1
0.999877 1 1 0.999877
0.999993 1 1 0.999993
1 1 1 1
1.00045 1 1.00068 0.999777
1.00256 1 1.00295 0.999615
1 1 1 1
1.00559 1 1.00618 0.999417
1 1 1 1
1 1 1 1
1.08203 1.09971 0.987924 0.995952
1.08165 1.0969 0.989832 0.996222
1.08269 1.10736 0.981187 0.996475
1.08114 1.10412 0.982599 0.996525
1.07886 1.09485 0.989075 0.99628
1.09586 1.10519 0.99567 0.995865
1.07896 1.09435 0.989654 0.996246
1.08275 1.10444 0.983852 0.996451
1.08285 1.10451 0.983828 0.996509
1.08165 1.11106 0.976836 0.996623
1.08303 1.10798 0.981158 0.996247
1.0835 1.11355 0.976257 0.996678
1.08264 1.10407 0.984103 0.996431
1.08572 1.11546 0.976642 0.99662
1.0823 1.11413 0.974646 0.996696
1.07831 1.11671 0.968855 0.996662
1.07928 1.09409 0.990187 0.996243
1.0813 1.09671 0.989787 0.996123
1.07806 1.09918 0.984285 0.996444
1.07844 1.10372 0.980615 0.996404
1.06346 1.06219 1.00598 0.995244
1.07802 1.0836 1 0.994848
1.07996 1.08541 1.00019 0.994794
1.07792 1.09994 0.983701 0.996216
1.07486 1.1058 0.975276 0.996664
1.06816 1.09992 0.97453 0.996502
1.07137 1.08851 0.988715 0.995486
1.06751 1.09568 0.977765 0.996444
1.02891 1.02757 1.00615 0.995186
1.01969 1.01318 1.01126 0.995217
1.02587 1.0078 1.02193 0.996084
1.01341 1.00245 1.01295 0.998009
1.02532 1.00128 1.02722 0.996873
1.08066 1.10285 0.983379 0.996436
1.08185 1.10683 0.980926 0.99643
1.07726 1.11283 0.971349 0.99659
1.05072 1.05579 1.00021 0.994992
1.05492 1.06033 1.00026 0.994645
1.0657 1.07411 0.997449 0.994706
1.07283 1.1038 0.975274 0.996587
1.06815 1.09209 0.98235 0.995658
1.06366 1.09954 0.970643 0.996629
1.00948 1 1.011 0.998496
1.01918 1.01687 1.0072 0.995099
1.02564 1.01429 1.01607 0.995201
1.03149 1.01392 1.02185 0.995575
1.0269 1.01312 1.01709 0.996574
1.02541 1.00445 1.02381 0.99713
1.08446 1.11342 0.977415 0.996499
1.08132 1.12049 0.968371 0.996566
1.06945 1.11301 0.964091 0.996654
1.06063 1.1047 0.963215 0.996775
1.02917 1.03413 1.00031 0.994886
1.05588 1.08712 0.974957 0.99621
1.03705 1.04122 1.00165 0.994364
1.04555 1.06012 0.991604 0.994609
1.00236 1 1.00336 0.999002
1.01901 1 1.02132 0.997741
1.02192 1.00719 1.0178 0.996876
1.0305 1.00965 1.02463 0.996127
1.01158 1.00623 1.0102 0.995166
1.03039 1.0111 1.02424 0.994949
1.01378 1 1.01527 0.998526
1.0212 1 1.02387 0.997396
1.07843 1.10371 0.981046 0.995977
1.02944 1.01333 1.01925 0.996718
1.0298 1.02694 1.00747 0.995348
1.0285 1.02712 1.00527 0.996093
1.08762 1.10169 0.991501 0.995694
1.07138 1.10122 0.976764 0.996046
1.01629 1.01869 1.00273 0.994926
1.05306 1.05877 0.999654 0.994949
1.01416 1.00028 1.01615 0.997762
1.0296 1.00374 1.02893 0.996928
1.01041 1.01126 1.00374 0.995423
1.04175 1.03105 1.01416 0.996258
1.06165 1.06533 1.00056 0.995994
1.06992 1.10871 0.968392 0.996506
1.08632 1.10207 0.990099 0.995559
1.07779 1.10234 0.981626 0.996024
1.02078 1.02126 1.00458 0.994975
1.024 1.0295 1.00003 0.994625
1.01128 1 1.01367 0.997643
1.02865 1.00433 1.02755 0.996757
1.03217 1.03287 1.00378 0.995561
1.05263 1.05309 1.00367 0.995911
1.07114 1.13553 0.946385 0.996738
1.05972 1.10203 0.964999 0.99649
1.06354 1.07248 0.996704 0.994947
1.03293 1.03412 1.00426 0.994611
1.0087 1 1.01071 0.998014
1.00382 0.999677 1.00609 0.998067
1.00147 0.998215 1.00483 0.998444
1.00706 1 1.00868 0.998389
1.01262 0.999788 1.01476 0.998107
1.00187 1 1.00338 0.998497
1.00353 0.999204 1.00605 0.998291
1.01181 1 1.01378 0.998058
1.00038 1 1.00178 0.998608
1.01064 1 1.01267 0.998002
1.00759 1 1.00962 0.99799
1.00033 1 1.00188 0.998451
0.999249 1 1 0.999248
0.999294 1 1 0.999294
0.999966 1 1 0.999966
0.999287 1 1 0.999287
0.999952 1 1 0.999952
1 1 1 1
0.999931 1 1 0.999931
1 1 1 1
0.999989 1 1 0.999989
0.999881 1 1 0.999881
1.00253 1 1.00278 0.999751
1 1 1 1
1.00396 1 1.00436 0.999599
1 1 1 1
1 1 1 1
1.08355 1.10824 0.981403 0.996249
1.08272 1.10405 0.984132 0.996495
1.08052 1.11208 0.974826 0.996713
1.07907 1.10974 0.97565 0.996631
1.08333 1.10441 0.984416 0.996444
1.07929 1.09429 0.990027 0.996229
1.08229 1.10395 0.983892 0.996433
1.08465 1.1143 0.976705 0.99661
1.08211 1.11413 0.97449 0.996687
1.07735 1.1157 0.968847 0.996677
1.08721 1.11609 0.977483 0.996567
1.08176 1.12122 0.967942 0.996762
1.08361 1.12736 0.964315 0.996766
1.08057 1.10262 0.983509 0.996436
1.08253 1.10735 0.981087 0.996427
1.07842 1.11228 0.972885 0.996584
1.05081 1.05539 1.00067 0.994992
1.05399 1.05944 1.00018 0.994671
1.06576 1.07309 0.998471 0.994696
1.07332 1.10365 0.975862 0.996575
1.06108 1.0975 0.970123 0.996597
1.06814 1.09279 0.981578 0.995792
1.01695 1.0143 1.00755 0.995097
1.02658 1.01509 1.01613 0.995272
1.03618 1.01572 1.02469 0.995553
1.01156 1 1.013 0.998578
1.02585 1.01185 1.0173 0.996595
1.02773 1.00681 1.02378 0.997074
1.08602 1.11435 0.97799 0.99651
1.08003 1.12031 0.967368 0.996567
1.06993 1.1126 0.964883 0.996647
1.02795 1.03281 1.00043 0.994876
1.03521 1.03955 1.0014 0.994437
1.04983 1.06424 0.991681 0.994734
1.06137 1.10531 0.963354 0.996774
1.05393 1.08563 0.974522 0.996184
1.00348 1 1.00438 0.999101
1.018 1 1.02031 0.997733
1.01012 1.00632 1.00864 0.99518
1.03383 1.01108 1.02748 0.995154
1.02913 1.01106 1.02185 0.996105
1.02331 1.01029 1.01609 0.996849
1.08222 1.12301 0.966902 0.996673
1.07203 1.12838 0.953278 0.99662
1.06068 1.11228 0.956644 0.996821
1.04239 1.08623 0.962772 0.996748
1.00861 1.01247 1.00133 0.994866
1.0353 1.0623 0.979234 0.995248
1.02543 1.02956 1.00168 0.994321
0.999597 1 1.0002 0.999401
0.999535 1 1.00074 0.998796
1.01138 1 1.0131 0.998298
1.01454 1 1.0174 0.99719
1.01634 1 1.0198 0.99661
1.04026 1.01546 1.02901 0.995537
1.01074 1.00314 1.01206 0.995564
1.05858 1.00546 1.05724 0.995827
1.01641 1 1.01868 0.997772
1.03643 1.00542 1.03408 0.996871
1.07357 1.11177 0.968977 0.996553
1.04737 1.03836 1.01249 0.996229
1.01156 1.01163 1.00455 0.995409
1.06664 1.07042 1.00046 0.996013
1.08585 1.10156 0.99007 0.995624
1.07813 1.10167 0.982439 0.996127
1.02345 1.02373 1.00482 0.994935
1.02207 1.02771 1 0.994506
1.0139 1.00059 1.01579 0.997556
1.02816 1.00557 1.02587 0.996688
1.04057 1.04091 1.00415 0.995547
1.04961 1.051 1.00276 0.995929
1.07189 1.13671 0.946049 0.996757
1.06817 1.10733 0.968086 0.996435
1.05839 1.06775 0.996196 0.995014
1.0343 1.03604 1.00377 0.994564
1.00748 0.998577 1.01123 0.997712
1.08208 1.1492 0.944616 0.996798
1.01702 1.0061 1.0145 0.99641
1.04195 1.04128 1.0053 0.995361
1.04397 1.11415 0.939923 0.996907
1.04532 1.05976 0.991247 0.995082
1.02267 1.02522 1.00323 0.994302
1.00731 1 1.00929 0.998033
0.999543 0.997039 1.00408 0.998436
1.00197 0.996011 1.00726 0.998723
1.00162 1 1.00314 0.998487
1.01148 1 1.01343 0.998071
1.00416 0.997664 1.00819 0.998339
1.00033 1 1.00189 0.998445
1.00698 1 1.00899 0.998007
1.00177 0.998881 1.00423 0.998663
1.00874 1 1.01077 0.997995
0.996639 0.995363 1.00247 0.998815
1.0046 0.999897 1.0063 0.99841
1.00882 1 1.01102 0.997831
1.00023 1 1.00247 0.997765
0.99923 1 1.00091 0.998317
0.9992 1 1 0.9992
0.999254 1 1.00001 0.999242
0.999975 1 1 0.999975
0.999315 1 1.00003 0.999289
0.999969 1 1 0.999969
1 1 1 1
0.999959 1 1 0.999959
1 1 1 1
1 1 1 1
0.999623 1 1.00015 0.999477
0.99993 1 1 0.99993
0.99987 1 1 0.99987
1 1 1 1
1.00195 1 1.00222 0.999724
1 1 1 1
1 1 1 1
1.07623 1.11454 0.968829 0.996692
1.08191 1.11406 0.974373 0.996679
1.08345 1.11302 0.976757 0.9966
1.08194 1.10381 0.983694 0.996434
1.0866 1.11604 0.976958 0.996586
1.08118 1.12073 0.967859 0.996752
1.08002 1.12372 0.964235 0.996766
1.08348 1.12426 0.966881 0.996742
1.09085 1.13986 0.960033 0.996843
1.10809 1.17379 0.946776 0.997096
1.08745 1.11518 0.978537 0.99652
1.07881 1.12016 0.966399 0.996568
1.07059 1.11227 0.965773 0.99664
1.02851 1.03332 1.00048 0.994867
1.03454 1.03893 1.00126 0.994513
1.05434 1.06852 0.991825 0.994857
1.06211 1.10544 0.963915 0.996774
1.05158 1.08344 0.974338 0.996159
1.01222 1.00733 1.00971 0.995194
1.04017 1.01143 1.03322 0.995349
1.0281 1.0102 1.02172 0.996082
1.00175 1 1.00255 0.999201
1.01636 1 1.01868 0.997724
1.02551 1.0136 1.01497 0.996822
1.08136 1.12294 0.966182 0.996681
0.999792 1 1.0004 0.999393
1.00017 1 1.00143 0.998742
1.07313 1.12769 0.954842 0.996623
1.0604 1.11136 0.957214 0.996793
1.00965 1.01284 1.00192 0.994936
1.02729 1.03125 1.00181 0.994366
1.03116 1.0578 0.979488 0.99523
1.04067 1.08532 0.962015 0.996714
1.01002 1 1.01164 0.998401
1.01502 1 1.0179 0.997171
1.01124 1.00268 1.01317 0.995419
1.05163 1.0066 1.04915 0.995791
1.03697 1.01178 1.0295 0.995526
1.01649 1.00241 1.01743 0.996678
1.0885 1.14894 0.950465 0.996773
1.05658 1.12572 0.94167 0.996716
1.04066 1.09902 0.949782 0.996966
1.02133 1.05834 0.968518 0.9964
1.01096 1.00692 1.00868 0.995373
1.02009 1.03231 0.99347 0.99466
0.999979 1 1.00132 0.99866
1.00382 1 1.00507 0.998759
1.00269 1.00021 1.0041 0.998394
1.00836 1 1.01083 0.99755
1.01592 1 1.01901 0.996969
1.01091 1.00069 1.01387 0.996386
1.08599 1.00725 1.08274 0.995775
0.994543 1.00049 0.997067 0.996977
1.00939 1 1.01195 0.997471
1.02426 1.0037 1.02394 0.996618
1.07144 1.13604 0.946191 0.996777
1.07605 1.11202 0.97117 0.99638
1.04692 1.04849 1.00257 0.995945
1.0512 1.05128 1.00441 0.99553
1.05354 1.06327 0.995749 0.995081
1.03655 1.03878 1.00335 0.994517
1.00974 0.998841 1.01324 0.997705
1.08264 1.15264 0.942199 0.996886
1.01798 1.00303 1.01845 0.99651
1.03663 1.03614 1.00522 0.995279
1.04491 1.11526 0.939836 0.996889
1.03938 1.05584 0.989153 0.995197
1.02404 1.02632 1.00348 0.994309
1.02131 0.997666 1.02616 0.997599
0.997369 1.08559 0.921316 0.997197
1.01014 0.999791 1.0142 0.996203
1.01654 1.0136 1.00832 0.994625
0.997539 1.04997 0.953459 0.996438
1.00534 1.0085 1.00221 0.994666
0.91493 0.998241 0.92132 0.994814
0.996099 0.994112 1.00358 0.998427
0.999251 0.992662 1.00792 0.998728
1.00346 0.993936 1.01093 0.998668
1.0003 1 1.00187 0.998439
1.00817 1 1.01017 0.998024
1.00703 1 1.00906 0.997989
1.00344 0.998473 1.00626 0.998721
0.999249 1 1.00093 0.998318
1.0012 1 1.00341 0.997803
0.993708 0.992812 1.00212 0.998781
1.01085 1 1.01305 0.997826
1.00601 0.999881 1.00778 0.99836
1.0015 0.99014 1.01272 0.99877
1.01231 1 1.01461 0.997734
1.00716 1 1.00939 0.997789
0.998556 1 1.00089 0.997668
0.998624 1 1.00051 0.998118
1.00667 1 1.0088 0.997896
1.00046 1 1.00236 0.998109
0.99919 1 1 0.999186
0.999197 1 1 0.999195
0.999983 1 1 0.999983
0.999235 1 1 0.999235
0.999977 1 1 0.999977
1 1 1 1
0.999971 1 1 0.999971
1 1 1 1
1 1 1 1
0.999596 1 1 0.999596
0.999635 1 1.00015 0.999484
0.999964 1 1 0.999964
0.999923 1 1 0.999923
1 1 1 1
1.00111 1 1.00125 0.999858
1 1 1 1
1 1 1 1
1.07681 1.12067 0.963978 0.996766
1.08064 1.12039 0.967669 0.996743
1.08615 1.11616 0.97643 0.996605
1.08291 1.12375 0.966805 0.996741
1.08871 1.13832 0.959458 0.996832
1.1109 1.17445 0.948722 0.997007
1.10282 1.16162 0.952323 0.996909
0.909362 1.01633 0.901759 0.992224
1.04541 1.11582 0.939113 0.997644
0.99994 1 1.00105 0.998895
1.08059 1.12298 0.965448 0.996689
1.07411 1.12667 0.956581 0.996625
1.05973 1.11028 0.957569 0.996765
1.00633 1.01055 1.00082 0.995001
1.029 1.03284 1.00188 0.994408
1.02729 1.05341 0.979894 0.995212
1.03947 1.08505 0.961186 0.996679
1.00645 1.00244 1.00876 0.995286
1.0443 1.00746 1.04097 0.995769
1.0343 1.00769 1.03103 0.995514
1.00128 1 1.00189 0.999385
1.01641 1.00386 1.01581 0.996742
1.00985 1 1.01136 0.998501
1.01559 1 1.01849 0.997151
1.00081 1 1.00213 0.998689
1.08794 1.14867 0.950187 0.99678
0.999446 1 1.00072 0.998725
1.0046 1 1.00584 0.998762
1.00239 1.00051 1.00353 0.998359
1.05899 1.12573 0.943816 0.996715
1.03734 1.09593 0.949472 0.996913
1.00581 1.0048 1.00562 0.995413
1.01939 1.03166 0.99326 0.994813
1.02216 1.0587 0.968998 0.996382
1.00851 1 1.01092 0.997618
1.0147 1 1.01781 0.996944
1.00656 1.00042 1.00946 0.996705
1.07469 1.00494 1.07399 0.99573
1.01142 1.00442 1.01055 0.996456
1.06122 1.14219 0.932048 0.996847
1.01801 1.10646 0.92293 0.996887
1.02499 1.06978 0.961422 0.996581
1.00823 1.03412 0.978744 0.996138
1.00176 1.00155 1.00377 0.996452
0.998965 1 1.0006 0.998364
1.00678 1.00038 1.00843 0.997992
1.0027 0.99852 1.00596 0.998236
1.01553 1 1.01812 0.997454
1.01376 1 1.01666 0.997146
1.05196 0.999837 1.05557 0.996739
1.03315 1.00335 1.0326 0.997192
1.01209 1.00058 1.01384 0.997696
1.0195 1.0007 1.02225 0.996612
1.08238 1.1573 0.938105 0.99697
1.04675 1.11759 0.939552 0.99687
1.03372 1.05234 0.986928 0.995313
1.02925 1.02911 1.00496 0.995198
1.02467 1.02682 1.0036 0.994319
1.02182 0.998096 1.02607 0.997754
0.999829 1.08818 0.921326 0.997264
1.00658 1.00048 1.00994 0.996199
1.01416 1.01054 1.00901 0.994613
0.997291 1.04674 0.956016 0.996596
1.00695 1.00959 1.00273 0.994669
0.908889 0.995182 0.919507 0.993238
1.02289 0.993788 1.03178 0.997579
0.958776 1.03012 0.933378 0.997176
1.00522 1.00144 1.00807 0.995742
1.00499 1.00284 1.00688 0.995294
0.986759 1.00784 0.982628 0.99639
0.84683 0.966011 0.915425 0.957615
0.799948 0.933038 0.877081 0.977514
0.909667 0.969522 0.942498 0.995508
0.55305 0.738467 0.834153 0.897816
0.475883 0.657583 0.838917 0.862641
0.997893 0.989509 1.00975 0.998733
1.00528 0.990521 1.0162 0.998721
1.00684 0.990812 1.0175 0.998703
0.998586 1 1.00027 0.998319
1.00148 1 1.00364 0.99784
1.01101 1 1.01322 0.99782
1.00602 1 1.00772 0.998308
0.989194 0.990435 1 0.998747
1.00822 1 1.01045 0.997801
0.998216 1 1.00006 0.99816
0.999006 1 1.00133 0.997679
1.00083 0.992362 1.00985 0.998693
1.01262 1 1.01482 0.997838
1.01799 1 1.02013 0.997902
1.0189 0.997792 1.02293 0.998258
1.00895 1 1.01118 0.997801
0.999566 1 1.00204 0.997531
0.999306 1 1.00123 0.998077
1.00256 1 1.00482 0.997752
1.00735 0.999398 1.00994 0.998033
1.00968 1 1.01161 0.998097
1.00669 1 1.00883 0.997878
1.00152 1 1.00324 0.998281
1.00128 1 1.00318 0.998102
0.99919 1 1 0.99919
0.999187 1 1 0.999187
0.99999 1 1 0.99999
0.999189 1 1 0.999189
0.999986 1 1 0.999986
1 1 1 1
0.99998 1 1 0.99998
1 1 1 1
1 1 1 1
0.999713 1 1 0.999713
0.999719 1 1.00012 0.999595
0.999986 1 1 0.999986
0.999738 1 1.00025 0.99949
0.999956 1 1 0.999956
1 1 1 1
0.999915 1 1 0.999915
1 1 1 1
1 1 1 1
1.08623 1.13645 0.958859 0.99682
1.08208 1.12296 0.966748 0.996739
1.11681 1.17694 0.951843 0.996921
0.914138 1.01386 0.908653 0.992288
1.10155 1.16236 0.950625 0.996905
1.05455 1.11917 0.944608 0.997522
1.06894 1.13655 0.943327 0.997014
0.856349 0.958219 0.914609 0.977126
0.958908 1.03424 0.933899 0.992781
0.999243 1 1.00027 0.99897
0.999642 1 1.00075 0.998888
1.00049 1 1.00202 0.998476
0.998913 1 1.00042 0.998493
1.08735 1.14872 0.949628 0.996787
1.0609 1.12602 0.945273 0.996714
1.03431 1.09306 0.949231 0.99686
1.00548 1.0048 1.00525 0.995452
1.01875 1.03098 0.993135 0.994972
1.02188 1.05815 0.969251 0.996366
1.01816 1 1.02181 0.996422
1.06225 1.00449 1.06208 0.995686
1.01289 1.00802 1.00834 0.99653
1.00443 1 1.00567 0.998766
1.01409 1.00061 1.0166 0.996924
1.0081 1 1.01043 0.997686
0.998789 1 1 0.998789
1.00201 1.00041 1.00327 0.998325
1.06284 1.14509 0.93109 0.996861
0.999688 0.999999 1.00134 0.998347
1.00501 1.0006 1.00632 0.998099
1.00311 0.997363 1.00716 0.998616
1.02716 1.11081 0.927597 0.996874
1.02426 1.06904 0.961402 0.996579
1.00218 1.00543 1.00032 0.996452
1.00995 1.03484 0.979663 0.996208
1.01479 1 1.01752 0.997314
1.01395 1.00003 1.01702 0.99696
1.03996 1.00421 1.03853 0.997176
1.05335 1.0035 1.05326 0.996592
1.01314 1.08762 0.934394 0.99692
0.987551 1.0681 0.927456 0.99691
1.00977 1.0291 0.984987 0.996174
0.973083 1.00438 0.971374 0.997386
1.0081 0.999176 1.0105 0.998454
1.00927 1 1.01176 0.997543
1.01982 0.99853 1.02324 0.998121
1.08322 1.0015 1.08458 0.997245
0.848948 0.966459 0.92521 0.949417
1.0227 0.998052 1.02684 0.997909
1.00388 1.00091 1.0068 0.996193
1.00336 1.09013 0.922853 0.997341
0.996614 1.04325 0.958415 0.996751
1.00862 1.01069 1.0033 0.994666
1.01257 1.00803 1.00996 0.994598
0.904648 0.993439 0.918357 0.991578
1.0182 0.994151 1.02661 0.997646
0.957959 1.03008 0.932648 0.997146
1.00546 1.00151 1.00823 0.995752
1.00735 1.00587 1.00618 0.995324
0.988193 1.00891 0.983035 0.996371
0.832112 0.963973 0.908824 0.94981
0.804448 0.935107 0.883686 0.973506
0.913597 0.969002 0.946993 0.995597
0.55221 0.737393 0.831117 0.901038
0.474753 0.667129 0.831024 0.856336
1.00827 0.994554 1.01617 0.997652
0.606592 0.771058 0.868661 0.905648
0.516624 0.695495 0.861745 0.861989
0.966848 1.00558 0.963822 0.997573
1.01606 1.0023 1.01702 0.996763
1.01727 1.0066 1.01366 0.996981
0.913507 0.955875 0.959201 0.996326
0.764995 0.927501 0.863653 0.955003
0.773236 0.904599 0.881 0.970241
0.522079 0.708671 0.810506 0.908939
0.513734 0.744063 0.811113 0.85123
1.00675 0.9872 1.02105 0.998773
1.00887 0.989633 1.0208 0.998676
1.01595 0.992889 1.02442 0.998837
0.99822 1 1.00002 0.9982
0.999827 1 1.00214 0.997689
1.00961 1 1.01182 0.997814
1.01401 1 1.0161 0.997941
1.00101 0.994172 1.00828 0.998615
0.999117 1 1.00104 0.998075
1.01785 1 1.01999 0.997899
1.00985 1 1.01212 0.997758
0.999468 1 1.00189 0.997583
1.01764 0.996983 1.02244 0.998321
1.01863 1 1.02047 0.998193
1.0319 0.99518 1.03846 0.998495
1.00923 1 1.01169 0.997564
0.999534 1 1.00192 0.997616
1.00149 1 1.00375 0.997744
1.00673 0.999019 1.00962 0.998117
1.0014 0.999941 1.00362 0.997847
1.00355 0.998159 1.00721 0.99821
1.01195 0.995849 1.01781 0.99839
1.01491 0.999702 1.01723 0.998013
1.01414 1 1.016 0.998161
1.01147 1 1.0134 0.998099
1.00681 1 1.0085 0.99832
1.00858 1 1.01074 0.997861
1.00193 1 1.0037 0.998238
0.999159 1 1 0.999159
1.00203 1 1.00394 0.998095
0.999197 1 1 0.999195
0.999985 1 1 0.999985
0.999193 1 1 0.999189
0.999989 1 1 0.999989
1 1 1 1
0.999988 1 1 0.999988
1 1 1 1
1 1 1 1
0.999639 1 1.00076 0.998878
0.99975 1 1 0.99975
0.999708 1 1 0.999708
0.999997 1 1 0.999997
0.999738 1 1.00014 0.999594
0.99998 1 1 0.99998
1 1 1 1
0.999948 1 1 0.999948
1 1 1 1
1 1 1 1
0.915416 1.01133 0.912143 0.99235
1.10021 1.16206 0.949719 0.996901
1.05862 1.12141 0.946473 0.997397
0.845871 0.960634 0.899929 0.978449
0.95103 1.03333 0.926799 0.99305
1.07133 1.13934 0.943161 0.996979
0.958949 1.05279 0.915647 0.994776
0.867887 0.973898 0.909336 0.979998
0.847829 0.970385 0.914942 0.954928
0.569566 0.748272 0.835056 0.911525
0.45172 0.640132 0.819035 0.861584
1.00054 1 1.00201 0.998531
0.999549 1 1.00058 0.998969
0.999752 1 1.00087 0.99888
1.00048 1 1.00198 0.998502
1.00062 1 1.00218 0.998439
0.999095 1 1.00096 0.998139
1.00085 1 1.00263 0.998224
0.999531 1 1.00108 0.998449
1.06584 1.14747 0.931781 0.996872
1.0369 1.11535 0.932596 0.99686
1.02382 1.06895 0.961072 0.996576
1.00043 1.00729 0.996725 0.996453
1.01161 1.03573 0.98036 0.996277
1.04957 1.00469 1.04764 0.997158
1.05441 1.00691 1.05091 0.996446
1.01141 1.00036 1.01432 0.996767
1.00324 1.00077 1.00427 0.998203
1.01557 1 1.01845 0.997169
1.00073 1 1.0024 0.998333
1.00415 0.997334 1.00784 0.999002
1.00581 1.0871 0.927993 0.997005
1.00732 0.9989 1.01005 0.998395
1.01069 0.999855 1.01305 0.997818
0.987754 1.06666 0.92892 0.996881
1.00994 1.03185 0.982364 0.996335
0.975161 1.0036 0.974341 0.997251
1.0289 0.998124 1.0332 0.997713
1.07227 1.00361 1.07131 0.997299
0.946446 1.03739 0.915462 0.996584
0.993384 1.02237 0.974677 0.996889
0.974107 1.00266 0.974508 0.996934
0.973423 0.994656 0.980769 0.997843
1.01375 0.999804 1.01622 0.99777
1.01903 0.995154 1.02606 0.997981
1.06625 0.998716 1.07012 0.997671
0.645552 0.789744 0.899936 0.908307
0.851263 0.969537 0.915698 0.958842
1.01368 0.995675 1.02041 0.997715
1.00541 1.00132 1.00835 0.995766
0.95845 1.03001 0.933218 0.997115
0.989764 1.01025 0.983308 0.996357
1.01018 1.00913 1.00571 0.995362
0.838533 0.969126 0.906071 0.954943
0.812721 0.949548 0.878623 0.974141
0.916167 0.966916 0.951586 0.995721
0.567251 0.734113 0.847512 0.911731
0.473539 0.678175 0.82171 0.849759
1.00797 0.996363 1.01402 0.997667
0.627599 0.785241 0.881588 0.906595
0.482372 0.65926 0.853894 0.856882
0.967513 1.00671 0.963443 0.997531
1.01638 1.00303 1.01661 0.996755
1.01499 1.00433 1.01353 0.997126
0.908426 0.949675 0.959724 0.996709
0.762174 0.931024 0.86186 0.949853
0.773783 0.90302 0.880434 0.973251
0.546259 0.725879 0.829446 0.90729
0.52631 0.763152 0.811817 0.849518
1.00906 0.994602 1.01616 0.998405
0.510221 0.698009 0.851306 0.858641
0.54451 0.768602 0.822446 0.861384
0.984376 0.989201 0.996559 0.998558
1.02186 1.00235 1.02098 0.998509
0.921268 0.935075 0.989685 0.995503
0.800183 0.895015 0.916152 0.975869
0.695004 0.870936 0.843921 0.945582
0.58885 0.733201 0.883546 0.908977
0.610938 0.845979 0.841253 0.858442
1.01243 0.992403 1.02156 0.99865
1.01301 0.994383 1.01997 0.998787
1.01368 0.990266 1.0246 0.999074
0.998581 1 1.00051 0.998072
0.99933 1 1.0017 0.997634
1.0115 1 1.01382 0.997715
1.01791 1 1.02006 0.997896
1.01606 0.996164 1.02162 0.998385
0.99924 1 1.00164 0.997606
1.01873 0.99999 1.02066 0.998115
1.00847 1 1.01094 0.997565
1.02856 0.992859 1.03745 0.998559
1.04662 0.990273 1.05786 0.999094
1.02361 0.999574 1.02594 0.998151
1.00463 1 1.00711 0.997532
1.00019 1 1.00246 0.997737
1.00599 0.999855 1.00795 0.998201
1.00136 0.99982 1.00371 0.997836
1.00342 0.999717 1.00553 0.998185
1.00482 0.991934 1.01449 0.998518
1.00514 0.999378 1.00759 0.99819
1.01768 0.996822 1.02273 0.998232
0.999314 0.985986 1.01497 0.998564
1.0269 1.00044 1.02869 0.997825
1.0101 1.0123 1.00093 0.996899
1.02235 0.999014 1.02572 0.9977
1.01539 0.999386 1.01803 0.998019
1.01912 1 1.02134 0.997827
1.01421 0.999929 1.01615 0.99817
1.01083 1 1.01262 0.998239
1.01043 1 1.01235 0.998101
1.00401 1 1.00568 0.998336
0.999547 1 1.00046 0.99909
1.0011 1 1.00291 0.998194
0.999164 1 1 0.999164
0.999962 1 1 0.999962
0.999199 1 1 0.999199
0.999981 1 1 0.999981
1 1 1 1
0.999989 1 1 0.999989
1 1 1 1
1 1 1 1
0.999599 1 1.00076 0.998837
0.999772 1 1.00008 0.999692
0.999426 1 1.00055 0.998881
0.999998 1 1 0.999998
0.999749 1 1 0.999749
0.999702 1 1 0.999702
0.999995 1 1 0.999995
1 1 1 1
0.999973 1 1 0.999973
1 1 1 1
1 1 1 1
0.605279 0.769096 0.876749 0.897636
0.497161 0.687603 0.845459 0.855199
0.846784 0.958439 0.902208 0.979268
0.946629 1.03214 0.923279 0.993359
1.07512 1.14403 0.942645 0.996944
0.866668 0.961761 0.918618 0.980959
0.964254 1.04815 0.924464 0.995126
0.850118 0.97522 0.913081 0.954701
0.544934 0.735959 0.821713 0.901095
0.463755 0.661611 0.81946 0.855379
0.877391 0.98927 0.899065 0.986478
0.788308 0.939216 0.877844 0.956121
0.527171 0.714688 0.8118 0.908628
0.535793 0.758483 0.826348 0.854848
1.00166 1 1.00359 0.998078
0.999676 1 1.00112 0.99856
0.999665 1 1.0007 0.99897
1.00004 1 1.00152 0.99853
1.00048 1 1.00188 0.998599
1.00069 1 1.00295 0.997744
0.999453 1 1.0013 0.998155
1.00364 1 1.00596 0.997689
1.00017 1 1.002 0.998167
1.00041 1 1.00201 0.998406
0.996727 1.08659 0.919976 0.997086
0.987567 1.06489 0.930314 0.996855
1.01064 1.03453 0.980338 0.996496
0.977984 1.00335 0.977535 0.997115
1.06137 1.00586 1.05798 0.997355
1.04 0.998327 1.04455 0.997313
1.01039 0.999345 1.01298 0.99809
1.00634 0.998351 1.00968 0.998334
0.945079 1.03751 0.913848 0.996782
1.01663 0.999698 1.01928 0.997702
1.01898 0.99484 1.02635 0.997968
0.981293 1.01755 0.967432 0.996832
0.972173 1.00206 0.973137 0.996959
0.978193 0.996621 0.983622 0.997853
1.05821 0.997393 1.06351 0.997623
0.918994 1.00043 0.921733 0.996599
0.97097 0.99677 0.976045 0.998024
1.02432 0.984073 1.04281 0.998167
1.01135 1 1.0138 0.997584
1.02696 0.996637 1.03281 0.99769
1.03 0.993651 1.03883 0.997838
0.529946 0.70956 0.854594 0.873942
0.634062 0.783332 0.88907 0.910438
0.851202 0.971283 0.922821 0.949663
1.00692 0.994727 1.01462 0.997678
1.01603 1.00294 1.01637 0.996737
0.969781 1.00796 0.964549 0.997486
1.01291 1.00261 1.01305 0.997264
0.637779 0.777255 0.898839 0.912903
0.775269 0.938882 0.86961 0.949548
0.763178 0.900916 0.872955 0.970397
0.907896 0.945903 0.962665 0.997044
0.537562 0.732081 0.817356 0.898375
0.465579 0.64047 0.844944 0.860334
0.540833 0.770112 0.817824 0.858715
1.00823 0.993767 1.01625 0.998332
0.51496 0.699169 0.851993 0.86448
0.567696 0.793109 0.831421 0.860918
0.978621 0.985973 0.993858 0.998677
1.02018 1.00081 1.02094 0.998443
0.918068 0.932045 0.988394 0.99657
0.787116 0.901314 0.898175 0.972303
0.718925 0.872097 0.864956 0.953071
0.584397 0.739028 0.879698 0.898905
0.603272 0.835487 0.834959 0.864786
1.00686 0.99065 1.01694 0.999431
0.586178 0.788897 0.852468 0.871627
0.593986 0.814189 0.842957 0.865457
0.964857 0.938795 1.02805 0.999715
0.845194 0.89037 0.965797 0.982879
0.737142 0.83874 0.924876 0.950255
0.68948 0.840723 0.915753 0.895552
0.663661 0.895614 0.850631 0.871132
1.00875 0.993888 1.01624 0.998736
1.01523 0.989106 1.02737 0.999059
1.02264 0.975045 1.04949 0.999354
0.999812 1 1.00222 0.997597
1.00711 1 1.00956 0.997567
1.0182 1 1.0202 0.998037
1.02614 0.991129 1.03675 0.998624
1.00517 1 1.00766 0.997531
1.02256 0.99906 1.02543 0.998139
1.05226 0.9901 1.06366 0.999173
1.04042 0.973768 1.06904 0.999446
1.04757 0.992304 1.05668 0.999068
1.01678 0.999111 1.01971 0.998022
1.00114 1 1.00332 0.997823
1.00197 1.00012 1.0037 0.998161
0.997081 0.986151 1.01246 0.998643
1.01701 0.996894 1.02196 0.998258
1.00349 0.99981 1.00552 0.998174
0.999712 0.984608 1.01677 0.998598
1.02581 0.998819 1.02885 0.998222
1.02063 0.978892 1.04372 0.998962
1.01227 1.00352 1.01065 0.998092
1.02079 1.00113 1.02182 0.997872
1.00594 1.00234 1.00641 0.997197
1.01512 1.01795 1.00153 0.995705
1.01297 1.00686 1.00888 0.997215
1.00795 1.00968 1.00102 0.997274
1.02039 0.999716 1.02304 0.997691
1.02978 0.999443 1.03296 0.997484
1.01528 0.999122 1.01819 0.998026
1.0189 1.00009 1.02102 0.997833
1.01318 1 1.01528 0.997929
1.01415 1 1.016 0.998178
1.01119 1 1.01297 0.998239
1.00263 1 1.00368 0.998948
1.00422 1 1.00587 0.998353
1.00015 1 1.00106 0.999092
0.999914 1 1 0.999914
0.999309 1 1.00014 0.99917
0.999948 1 1 0.999948
1 1 1 1
0.999977 1 1 0.999977
1 1 1 1
1 1 1 1
1.00059 1 1.00218 0.998415
0.999741 1 1.00016 0.999584
0.999987 1 1.00126 0.998732
0.999993 1 1 0.999993
0.9997 1 1 0.9997
0.999534 1 1.00065 0.998884
1 1 1 1
0.999999 1 1 0.999999
0.999749 1 1 0.999749
0.999992 1 1 0.999992
1 1 1 1
1 1 1 1
0.494057 0.682747 0.841501 0.859929
0.619312 0.776814 0.881242 0.904685
0.575137 0.803761 0.830788 0.8613
0.49654 0.692443 0.839568 0.85411
0.865877 0.961909 0.920239 0.978185
0.968839 1.04325 0.932873 0.995497
0.839253 0.980422 0.89736 0.953922
0.560072 0.729497 0.842624 0.911142
0.477679 0.688893 0.816573 0.84916
0.88683 0.983266 0.915517 0.985151
0.754164 0.922768 0.863796 0.946155
0.548081 0.725899 0.832533 0.906915
0.520635 0.746734 0.820608 0.849634
0.831667 0.947483 0.895468 0.980229
0.68775 0.841472 0.865734 0.944074
0.611412 0.778892 0.877838 0.894217
0.598655 0.830347 0.841082 0.857193
1.00619 1 1.00863 0.997577
1.00186 1 1.00373 0.998139
0.999526 1 1.00094 0.998588
1.00046 1 1.00171 0.998759
1.00102 1 1.00375 0.997277
1.00064 1 1.00282 0.99782
0.999524 1 1.00135 0.998171
1.00308 1 1.00545 0.99764
1.00218 1 1.00446 0.997727
0.999779 1 1.00167 0.99811
0.944532 1.038 0.912721 0.99697
0.970896 1.01309 0.961442 0.996782
0.968903 1.00129 0.970584 0.996983
0.982007 0.99833 0.985756 0.997863
1.04374 0.994343 1.05223 0.997569
1.02006 0.996207 1.02604 0.997958
1.01818 1 1.0206 0.997634
1.01126 1 1.01376 0.997537
0.921988 0.999602 0.925355 0.996759
1.02413 0.997699 1.02891 0.997649
1.03007 0.994376 1.03816 0.997816
0.969866 0.998298 0.97345 0.998017
1.01623 0.988468 1.03002 0.998123
0.928258 0.964442 0.965587 0.996784
0.949965 0.947554 1.00333 0.999214
1.05031 0.970878 1.08357 0.998377
1.01509 0.99833 1.019 0.997827
1.03292 0.992483 1.04283 0.998004
0.601009 0.806004 0.849163 0.878118
0.520607 0.711116 0.840233 0.871304
0.622761 0.773771 0.893477 0.900794
1.00876 0.995005 1.01559 0.998265
1.01865 0.999166 1.02116 0.998373
0.971157 0.983097 0.989034 0.998808
0.507356 0.693324 0.847297 0.863656
0.689604 0.850286 0.858565 0.94463
0.791785 0.899188 0.903793 0.97429
0.908021 0.925794 0.983046 0.997718
0.593201 0.750872 0.869225 0.908873
0.588152 0.813203 0.8401 0.860912
0.597524 0.828131 0.833489 0.865678
1.00584 0.991359 1.01525 0.999376
0.593249 0.794496 0.854813 0.873523
0.587925 0.80544 0.842917 0.865972
0.969047 0.945881 1.02505 0.999457
0.855505 0.902514 0.964428 0.982875
0.713777 0.84155 0.900413 0.941979
0.652624 0.886084 0.847053 0.869516
0.706578 0.839183 0.935054 0.900464
0.985969 0.94355 1.04526 0.999711
0.590415 0.789228 0.855701 0.874244
0.644039 0.863894 0.853308 0.873667
0.595569 0.828819 0.838162 0.857323
0.909674 0.900623 1.0147 0.995419
0.819867 0.877076 0.981181 0.952702
0.77378 0.920038 0.926705 0.907551
1.01795 0.989147 1.0301 0.999043
1.02528 0.981141 1.04575 0.99927
1.04077 0.969722 1.07373 0.999566
1.00608 1 1.00857 0.997531
1.02104 0.998595 1.02439 0.998126
1.0568 0.988494 1.0699 0.999251
1.02003 0.998998 1.02306 0.998037
1.04784 0.992242 1.057 0.999079
1.04812 0.975891 1.07464 0.999421
1.03494 0.963669 1.07451 0.999489
1.02928 0.986623 1.04422 0.999058
1.01501 0.996898 1.01992 0.998287
1.0038 1.00018 1.00547 0.998158
1.0021 0.985928 1.01779 0.998633
1.02201 0.983669 1.04009 0.998933
1.03264 0.9989 1.03561 0.998235
1.01769 1.00011 1.01882 0.998789
1.0148 0.999783 1.01649 0.998555
1.00462 1.0029 1.00508 0.996652
1.01734 1.0031 1.0163 0.997931
1.00759 1.0049 1.00561 0.997077
1.00572 1.00793 1.00258 0.995241
1.03314 1.03697 1.00129 0.995031
1.01427 1.01482 1.00279 0.996679
1.01059 1.01348 1.00138 0.99577
1.01982 1.00116 1.02163 0.997071
1.01268 1.00669 1.00873 0.997246
1.00512 1.00651 1.00098 0.997645
1.01808 1.00026 1.02018 0.997683
1.0292 0.999675 1.03214 0.997481
1.01982 1 1.0223 0.997576
1.02077 0.999947 1.02304 0.997839
1.01381 1.00051 1.0154 0.997924
1.00839 1 1.00974 0.998663
1.00866 1 1.01044 0.998238
1.00321 1 1.00427 0.998941
0.999864 1 1 0.999864
1.00012 1 1.00102 0.999093
0.999903 1 1 0.999903
0.999999 1 1 0.999999
0.999936 1 1 0.999936
1 1 1 1
1 1 1 1
1.00386 1 1.00587 0.997994
0.999967 1 1.00073 0.999234
1.00107 1 1.00266 0.998414
0.999981 1 1 0.999981
0.999555 1 1.00005 0.999503
0.99982 1 1.00119 0.998627
1 1 1 1
0.999995 1 1 0.999995
0.999707 1 1 0.999707
1 1 1 1
0.999999 1 1 0.999999
1 1 1 1
0.613388 0.824326 0.853842 0.871483
0.510312 0.689177 0.852996 0.868076
0.606628 0.771585 0.870317 0.90336
1.00522 1 1.00769 0.997542
0.581957 0.798363 0.838235 0.869611
0.575113 0.799787 0.83506 0.861116
0.516598 0.715626 0.837592 0.861854
0.890858 0.989855 0.914793 0.983816
0.764559 0.917368 0.872606 0.955101
0.533517 0.726882 0.817671 0.897648
0.506996 0.721937 0.820689 0.85571
0.826574 0.94429 0.896702 0.976176
0.716752 0.861199 0.873821 0.952451
0.600133 0.757899 0.883667 0.896082
0.602556 0.833995 0.841197 0.858888
0.770579 0.892633 0.889168 0.970869
0.723525 0.82998 0.91985 0.947696
0.712257 0.842931 0.936883 0.901901
0.660502 0.888339 0.853491 0.871157
1.00499 1 1.00739 0.997618
1.0065 1 1.00895 0.997575
1.00148 1 1.00329 0.998201
1.00144 1 1.00394 0.997513
1.00271 1 1.00537 0.997354
1.00069 1 1.0028 0.997895
1.00415 1 1.00653 0.997638
1.00143 1 1.00368 0.997765
0.926676 1.00117 0.928486 0.996881
0.970473 1.00102 0.971407 0.998021
1.01029 1 1.01283 0.997488
1.00872 0.992514 1.01828 0.998079
1.0326 0.993928 1.04121 0.997793
1.02595 0.999796 1.02862 0.997604
1.0188 0.999394 1.02167 0.997794
0.929912 0.964332 0.967245 0.996963
1.0322 0.994558 1.03992 0.998003
1.03883 0.978576 1.06325 0.998422
0.956554 0.952352 1.00516 0.999252
1.02503 0.997583 1.02951 0.998065
0.916248 0.923163 0.996523 0.995972
0.97925 0.943169 1.0388 0.999476
1.0723 0.982736 1.09274 0.998536
1.0656 0.994236 1.0737 0.998211
0.58299 0.778635 0.852095 0.878697
0.598138 0.803611 0.849098 0.876593
0.510452 0.71057 0.827079 0.868562
1.00395 0.991249 1.0135 0.999322
0.973705 0.951201 1.02448 0.999198
0.603341 0.803371 0.858002 0.875304
0.731166 0.818632 0.938418 0.951769
0.844966 0.900013 0.959985 0.977971
0.692937 0.829246 0.93058 0.897959
0.584814 0.800585 0.843144 0.86638
0.647887 0.882903 0.845551 0.867853
0.997681 0.957711 1.04208 0.999669
0.591543 0.791566 0.854692 0.874358
0.650604 0.865588 0.858588 0.875428
0.927004 0.912163 1.01787 0.998428
0.599729 0.831658 0.839586 0.858905
0.788096 0.85603 0.9713 0.947844
0.768058 0.904655 0.936067 0.906994
0.988251 0.943965 1.04739 0.999546
0.642768 0.843849 0.863671 0.881944
0.586934 0.799194 0.843512 0.870654
0.531271 0.753041 0.825453 0.854683
0.704242 0.835695 0.935126 0.901165
0.911932 0.913214 1.01007 0.988644
0.838511 0.891727 0.999256 0.941023
1.02728 0.988283 1.0403 0.999188
1.03499 0.961623 1.0768 0.999534
1.01269 0.937297 1.08088 0.999581
1.02315 0.998364 1.02683 0.99805
1.04948 0.990857 1.06013 0.999091
1.05732 0.978718 1.08097 0.999396
1.02735 0.987515 1.04134 0.999045
1.02827 0.963045 1.06828 0.999488
0.983973 0.959588 1.0262 0.999234
1.02463 0.987575 1.03866 0.998903
1.03763 0.995825 1.0438 0.998251
1.02394 0.998287 1.02697 0.998758
1.00253 0.998845 1.00585 0.99785
1.01579 0.996265 1.0206 0.999019
0.998789 1.00281 0.999045 0.996943
1.00909 1.00448 1.01018 0.994467
1.01208 1.01486 1.00297 0.994304
1.00871 1.00802 1.00375 0.996941
1.00582 1.0087 1.00218 0.994977
1.02961 1.0342 1.00053 0.995045
1.02904 1.03071 1.00261 0.995776
1.03011 1.03383 1.00125 0.995147
1.01471 1.00706 1.01077 0.996858
1.01824 1.01784 1.00377 0.996632
1.00598 1.00889 1.00128 0.995839
1.02759 1 1.03032 0.99735
1.02023 1.00146 1.0217 0.997102
1.01301 1.00663 1.00909 0.997275
1.02849 1.00019 1.0309 0.997479
1.01873 1.00043 1.02077 0.997576
1.01509 1 1.0168 0.998319
1.01396 1.00084 1.01521 0.997919
1.00836 1 1.00971 0.998656
1.00024 1 1.00047 0.999773
1.00462 1 1.00569 0.998937
0.999853 1 1 0.999853
1 1 1 1
0.99989 1 1 0.99989
1 1 1 1
1 1 1 1
1.00605 1 1.00817 0.997895
1.00244 1 1.00351 0.99893
1.00417 1 1.00611 0.998073
0.999957 1 1 0.999957
0.999752 1 1.00055 0.999201
1.00141 1 1.003 0.998411
1 1 1 1
0.999985 1 1 0.999985
0.999422 1 1 0.999422
1 1 1 1
0.999997 1 1 0.999997
1 1 1 1
0.590842 0.788908 0.852165 0.878862
0.609642 0.820071 0.852933 0.871583
0.512299 0.687973 0.857962 0.867928
1.00483 1 1.00725 0.997594
1.01222 1 1.01478 0.99748
1.00206 1 1.00434 0.997725
0.651603 0.870175 0.857869 0.872881
0.584059 0.804196 0.834675 0.870117
0.570817 0.799178 0.829557 0.861008
0.82733 0.946611 0.893132 0.978569
0.691218 0.861071 0.85009 0.944303
0.617631 0.748673 0.908028 0.908527
0.603851 0.842213 0.83849 0.855086
0.778889 0.895583 0.892438 0.974521
0.735258 0.839798 0.924772 0.946738
0.711566 0.843507 0.93395 0.90324
0.652457 0.883319 0.849598 0.869402
0.803106 0.888507 0.930372 0.971529
0.781967 0.85384 0.964489 0.949543
0.778392 0.917135 0.934724 0.907991
0.615097 0.847226 0.845012 0.859174
1.00272 0.998858 1.00594 0.997938
1.00431 1 1.00675 0.99758
1.0066 1 1.00905 0.997573
1.00155 1 1.00407 0.997488
1.00331 1 1.00589 0.997433
1.00363 1 1.006 0.997637
0.923998 0.95665 0.968591 0.997189
0.960487 0.952793 1.00882 0.999264
1.01785 0.999871 1.02026 0.997764
1.03095 0.987153 1.04598 0.998466
1.02882 0.995435 1.03561 0.998
1.02659 0.997518 1.03112 0.998083
1.04952 0.986889 1.06532 0.998248
0.914179 0.919283 0.998343 0.996098
1.06357 0.975999 1.09117 0.998678
0.979113 0.929984 1.0537 0.999174
1.04301 0.985627 1.0599 0.998418
0.928303 0.912065 1.02248 0.995423
1.00462 0.944382 1.06498 0.998877
1.02997 0.953185 1.08186 0.998792
0.664338 0.862042 0.874578 0.881174
0.589811 0.78375 0.856188 0.878954
0.594395 0.801188 0.847806 0.875072
1.00975 0.971864 1.03937 0.999627
0.914655 0.91117 1.00785 0.996007
0.590744 0.790911 0.854129 0.874477
0.784342 0.84075 0.97935 0.952578
0.757803 0.909343 0.926247 0.899708
0.653478 0.869069 0.857215 0.877176
0.6014 0.83959 0.837493 0.855293
0.980882 0.936502 1.04772 0.999682
0.637482 0.835003 0.865049 0.88255
0.590903 0.811052 0.836251 0.871226
0.908512 0.909436 1.01618 0.983077
0.515361 0.738969 0.82079 0.849675
0.712808 0.841851 0.938744 0.901967
0.824102 0.886152 0.977726 0.951165
1.00062 0.932772 1.07573 0.99721
0.595531 0.790513 0.856195 0.879877
0.583909 0.807462 0.838883 0.862029
0.454805 0.639295 0.825208 0.862106
0.598246 0.765584 0.874624 0.89344
0.79269 0.852837 0.979201 0.949217
0.868301 0.889233 0.998014 0.978403
1.02992 0.95799 1.07563 0.999501
1.02653 0.954369 1.07608 0.999562
0.993441 0.94588 1.05092 0.999393
1.02416 0.989293 1.03625 0.999032
1.02216 0.963408 1.06153 0.999487
0.986481 0.957058 1.03145 0.999318
1.01811 0.991903 1.02774 0.99872
1.0304 0.997232 1.03459 0.998721
0.998814 1.00124 1.0001 0.997484
1.03543 1.00159 1.03879 0.995179
0.992322 1.00165 0.993422 0.997245
1.01071 1.00392 1.01226 0.994564
1.00942 1.0055 1.01033 0.993628
1.02454 1.02872 1.00191 0.994033
1.02134 1.02566 1.00108 0.994709
1.01238 1.01482 1.00338 0.99424
1.0054 1.00901 1.00172 0.994716
1.0217 1.02535 1.0011 0.995349
1.03378 1.03833 1.00048 0.995145
1.02051 1.01898 1.00535 0.99617
1.03003 1.03129 1.00291 0.99587
1.02795 1.03164 1.00117 0.995264
1.02794 1.00355 1.02722 0.997166
1.01777 1.00944 1.01145 0.996837
1.02069 1.01996 1.00416 0.996581
1.02649 1.00098 1.02752 0.998019
1.02691 1.00045 1.02918 0.997349
1.02184 1.00213 1.0226 0.997132
1.02035 1.00154 1.02125 0.997578
1.01499 1.00042 1.01628 0.998316
1.00221 1 1.00259 0.999615
1.008 1 1.00936 0.998647
1.00071 1 1.00095 0.999757
1 1 1 1
0.999843 1 1 0.999843
0.999999 1 1 0.999999
1 1 1 1
1.00554 1 1.00775 0.997799
1.00443 1 1.00561 0.998828
1.00649 1 1.00859 0.997921
0.999914 1 1 0.999914
1.00167 1 1.00269 0.99899
1.00396 1 1.00582 0.998153
1 1 1 1
0.999964 1 1 0.999964
0.999483 1 1.00032 0.999168
1 1 1 1
0.999989 1 1 0.999989
1 1 1 1
0.64034 0.841712 0.863735 0.880778
0.600199 0.792205 0.86193 0.878993
0.610791 0.82125 0.853216 0.871682
1.0323 1 1.03507 0.997326
1.01187 1.00326 1.01103 0.997585
1.00485 1 1.00721 0.997648
1.01138 1 1.01396 0.997452
1.00184 1 1.00408 0.997775
1.00766 1 1.00998 0.997711
0.996483 0.99837 1 0.99811
0.60259 0.825052 0.843368 0.866011
0.653452 0.867814 0.860908 0.874642
0.595122 0.806869 0.847192 0.870605
0.649134 0.882508 0.847803 0.867602
0.782099 0.903316 0.891451 0.971236
0.7483 0.841778 0.94029 0.945402
0.717631 0.859839 0.918507 0.90866
0.79331 0.894497 0.914167 0.97015
0.787861 0.850063 0.984977 0.940963
0.768497 0.902552 0.938186 0.907571
0.608429 0.840996 0.835963 0.865424
0.840984 0.88855 0.971581 0.974153
0.816396 0.870949 0.996329 0.940819
0.694077 0.84366 0.91789 0.896292
0.521442 0.754129 0.811794 0.851755
1.06471 0.994695 1.07213 0.998375
1.00628 0.99917 1.00916 0.997975
1.0056 1 1.00808 0.997543
1.00374 1 1.00629 0.997464
0.919776 0.921581 1.00182 0.996232
0.978333 0.920865 1.06361 0.998868
1.02937 0.997533 1.03388 0.998101
1.04268 0.989606 1.05544 0.998285
1.04534 0.958786 1.09156 0.998821
1.04451 0.991088 1.05557 0.99842
1.03905 0.954981 1.08936 0.998779
0.929741 0.913445 1.02483 0.993179
1.00841 0.937482 1.07668 0.999056
1.01771 0.963174 1.05778 0.998906
0.927349 0.906927 1.03129 0.99149
0.977983 0.922489 1.06104 0.999171
0.592398 0.78133 0.861662 0.879918
0.657871 0.852346 0.872444 0.884682
0.600462 0.789334 0.865244 0.879196
0.968195 0.921378 1.05102 0.999805
0.918239 0.913786 1.01575 0.989293
0.630427 0.82542 0.864806 0.883164
0.843577 0.897927 0.997029 0.94227
0.713138 0.853679 0.9204 0.907617
0.599203 0.810774 0.847823 0.871704
0.502085 0.712499 0.823608 0.855603
0.997344 0.933208 1.07133 0.99757
0.601538 0.795774 0.85895 0.880046
0.580609 0.798241 0.843929 0.861874
0.873085 0.890041 0.999324 0.981612
0.467373 0.662449 0.82422 0.855989
0.589336 0.744513 0.884466 0.894973
0.793298 0.858566 0.980748 0.942117
0.984042 0.936275 1.05702 0.994322
0.624154 0.836017 0.856172 0.871998
0.495673 0.680165 0.851422 0.855925
0.527555 0.714067 0.812685 0.90909
0.7304 0.817739 0.9406 0.9496
0.81773 0.864649 0.972172 0.972807
1.0321 0.958873 1.07681 0.99959
1.00024 0.945204 1.05884 0.999414
0.988007 0.960859 1.02915 0.99913
0.989523 0.954193 1.03765 0.999402
1.01867 0.977973 1.0428 0.998853
1.0272 1.0008 1.02895 0.997499
0.995154 1.00362 0.994426 0.997121
1.03485 1.00186 1.03816 0.994949
1.02 1.00397 1.02208 0.99402
1.01201 1.0037 1.01369 0.994661
1.01111 1.00576 1.01187 0.993531
1.00983 1.01184 1.00448 0.993559
1.06771 1.07562 0.998122 0.99451
1.04351 1.04854 1.00077 0.994439
1.0244 1.02837 1.00218 0.993977
1.02425 1.02924 1.00013 0.995034
1.01905 1.02364 1.00074 0.994776
1.01273 1.01474 1.00387 0.994175
1.03111 1.03312 1.00277 0.995299
1.0222 1.02588 1.00108 0.995328
1.03786 1.04237 1.00043 0.995246
1.02157 1.01127 1.01355 0.996677
1.01849 1.01514 1.007 0.996325
1.03124 1.03166 1.00364 0.995965
1.0251 1.00439 1.02294 0.99773
1.02515 1.00511 1.02284 0.997171
1.01961 1.01189 1.01085 0.996816
1.0067 1 1.00726 0.999441
1.02408 1.00105 1.02502 0.998024
1.0234 1.00002 1.0261 0.997347
1.01275 1.00015 1.01431 0.998313
1.00341 1 1.00381 0.999602
1 1 1 1
1.00107 1 1.00132 0.999742
1 1 1 1
1 1 1 1
1.02453 1.00207 1.02513 0.997339
1.01951 1.00121 1.02081 0.99753
1.00536 1 1.00681 0.998558
1.00812 1.00003 1.01033 0.997794
1.00037 1 1.00052 0.999851
1.00418 1 1.00536 0.998829
1.00874 1 1.01082 0.997947
1 1 1 1
0.999926 1 1 0.999926
1.0013 1 1.00225 0.99905
1 1 1 1
0.999972 1 1 0.999972
1 1 1 1
0.59986 0.795816 0.861543 0.874904
0.631986 0.834208 0.859496 0.881433
0.59975 0.795783 0.857292 0.879116
1.0338 1.00034 1.03626 0.997297
1.01497 1.0017 1.01565 0.997635
1.00057 1.00164 1.00169 0.997252
1.03163 0.999473 1.03465 0.99761
1.0107 1.00618 1.00677 0.997741
1.01404 1 1.01666 0.997422
1.00086 0.999482 1.00357 0.997823
1.01033 0.999596 1.01304 0.997719
0.997641 0.999132 1.00032 0.998188
1.03424 0.998626 1.03753 0.998202
0.555909 0.782624 0.824082 0.861946
0.597871 0.814497 0.847014 0.866619
0.648609 0.865656 0.854915 0.876424
0.602905 0.837508 0.830948 0.866335
0.76345 0.908126 0.933895 0.900195
0.787664 0.886791 0.917447 0.968141
0.782467 0.843076 0.97837 0.948629
0.832115 0.893249 0.961218 0.969145
0.819745 0.885403 0.975715 0.948887
0.710528 0.839897 0.938009 0.901879
0.532514 0.770465 0.813152 0.849976
0.860821 0.892351 0.99234 0.972113
0.796001 0.84361 0.99345 0.949786
0.59924 0.739623 0.891212 0.909095
0.482074 0.665254 0.84002 0.862654
1.04985 0.997014 1.05412 0.998928
1.06453 0.99427 1.0724 0.998382
1.01055 1 1.01256 0.998016
0.9273 0.912301 1.02591 0.990771
1.01285 0.935582 1.08349 0.99916
1.04406 0.993869 1.05216 0.998422
1.04848 0.950873 1.10401 0.998767
1.02472 0.969833 1.05775 0.998912
0.979887 0.929107 1.05548 0.99922
0.921049 0.901525 1.03032 0.991596
0.999099 0.97168 1.02887 0.999362
0.939861 0.925655 1.02204 0.993454
0.613871 0.81692 0.855732 0.878132
0.606067 0.793325 0.868036 0.880099
0.649427 0.843559 0.866665 0.888309
1.00112 0.945728 1.06088 0.997816
0.8677 0.893261 0.995442 0.975832
0.612337 0.806105 0.863014 0.880199
0.796869 0.856606 0.983383 0.945982
0.60169 0.733862 0.903897 0.907067
0.573553 0.800043 0.8318 0.86187
0.480413 0.689667 0.81966 0.849849
0.980029 0.933365 1.05552 0.994762
0.619109 0.829032 0.856434 0.871971
0.496046 0.687005 0.844672 0.85482
0.831623 0.88055 0.968737 0.974915
0.547057 0.724745 0.831979 0.907267
0.720362 0.830822 0.918125 0.944368
0.916788 0.913279 1.0117 0.992236
0.495688 0.682298 0.844339 0.860432
0.572148 0.750094 0.836189 0.912196
0.689513 0.846722 0.862601 0.944043
0.786675 0.877617 0.91865 0.975753
1.00837 0.94894 1.06322 0.999439
0.987942 0.948702 1.0423 0.999098
0.99736 0.986104 1.01306 0.998373
1.01849 0.962213 1.05957 0.998979
1.01889 0.998937 1.02242 0.997603
0.987755 1.00488 0.98658 0.996327
1.03491 1.00194 1.03839 0.994713
1.01931 1.00554 1.0198 0.99401
1.00387 1.00997 0.999268 0.994688
1.01254 1.006 1.01315 0.993435
1.00811 1.01086 1.0037 0.993602
1.04775 1.06409 0.989799 0.994798
1.08302 1.10591 0.983766 0.995462
1.08413 1.09094 0.999135 0.994617
1.0677 1.07642 0.997339 0.994546
1.0589 1.06449 1 0.994749
1.042 1.04677 1.00107 0.994375
1.02433 1.02809 1.00244 0.993921
1.05019 1.05504 1.00036 0.995047
1.02214 1.02715 1.00002 0.995096
1.01623 1.02118 1.00032 0.994842
1.03455 1.0282 1.01041 0.995806
1.02603 1.02695 1.00371 0.995408
1.0237 1.0274 1.0011 0.995306
1.02992 1.00791 1.02457 0.997324
1.02685 1.01268 1.01738 0.996668
1.01819 1.01334 1.00833 0.996479
1.0105 1.00021 1.01101 0.999284
1.02931 1.00632 1.02517 0.997735
1.02508 1.0068 1.02104 0.997176
0.999825 1 1 0.999825
1.0089 1 1.00949 0.999423
1.02485 1.00185 1.02498 0.998029
1.00533 1 1.00574 0.999586
1 1 1 1
1 1 1 1
1.01369 1.00519 1.01136 0.997123
1.02359 1.00188 1.02445 0.997289
1.02612 1.00118 1.02767 0.997324
1.01076 1 1.01247 0.998307
1.01591 1.00075 1.01767 0.997527
1.00161 1 1.00183 0.999781
1.00708 1 1.00853 0.998563
1.00983 1 1.01207 0.997787
1 1 1 1
0.999927 1 1.00006 0.999867
1.0028 1 1.00397 0.99883
1 1 1 1
0.999938 1 1 0.999938
1 1 1 1
0.602664 0.801602 0.857022 0.877253
0.603467 0.800904 0.861067 0.875056
0.631641 0.822824 0.870331 0.882022
1.01948 1.00551 1.01711 0.99683
1.02957 1 1.03238 0.997271
1.01324 1 1.01559 0.997688
1.02877 1 1.03134 0.99751
1.00665 1.00592 1.00348 0.99726
1.00366 1.00205 1.00362 0.997997
1.01928 1.00418 1.01834 0.996761
1.02699 0.989566 1.03983 0.998059
1.01178 0.999673 1.01441 0.99773
0.996872 1 0.998602 0.998267
1.03555 0.996142 1.04144 0.998189
1.05544 0.999149 1.05797 0.998462
0.518006 0.698594 0.860331 0.861875
0.575971 0.803204 0.832393 0.861481
0.596584 0.808814 0.850672 0.867084
0.546886 0.776946 0.819402 0.859032
0.697472 0.832266 0.931282 0.899878
0.818264 0.873872 0.995084 0.940992
0.841499 0.896666 0.967387 0.970114
0.856629 0.887923 0.989729 0.974768
0.480913 0.674417 0.832639 0.856408
0.787882 0.851116 0.981341 0.943307
0.596224 0.746545 0.888534 0.898835
0.856555 0.89571 0.977981 0.977816
0.743556 0.834269 0.935949 0.952259
0.528354 0.712322 0.816762 0.908141
0.984145 1.00125 0.983343 0.999569
1.05175 0.997359 1.05566 0.998934
1.06342 0.993122 1.07252 0.998386
0.923804 0.904149 1.03031 0.99168
0.986489 0.940836 1.04929 0.99927
1.03361 0.980711 1.05508 0.998919
0.995633 0.969843 1.02723 0.99938
0.937597 0.92744 1.01751 0.99355
0.955031 0.963326 0.995274 0.996095
0.519977 0.702532 0.851562 0.869164
0.610958 0.812793 0.854329 0.879845
0.613019 0.805068 0.865121 0.880166
0.977269 0.928378 1.05797 0.99498
0.826044 0.876282 0.965979 0.975868
0.612974 0.818242 0.858963 0.872139
0.739069 0.830934 0.942156 0.944052
0.534257 0.727475 0.817656 0.898176
0.51881 0.712163 0.844705 0.862431
0.917745 0.907409 1.01929 0.992247
0.512755 0.688984 0.856877 0.868525
0.547711 0.736869 0.824328 0.901697
0.786396 0.887265 0.913205 0.970554
0.719442 0.86869 0.86956 0.952426
0.912403 0.938072 0.976176 0.996373
0.606315 0.767251 0.880118 0.897884
0.792234 0.941901 0.879713 0.956109
0.769888 0.900586 0.881305 0.970011
0.990251 0.940418 1.05397 0.999073
0.984721 0.985123 1.00116 0.99843
0.979254 1.00023 0.981751 0.997227
1.00991 0.997559 1.01471 0.997708
0.989419 1.00472 0.98845 0.996274
0.983541 1.01151 0.976134 0.996125
1.01906 1.00747 1.0176 0.994001
1.00344 1.01 0.998815 0.994678
1.03178 1.06171 0.975803 0.995913
1.00689 1.01011 1.00319 0.993646
1.0467 1.0633 0.98954 0.9948
1.07403 1.10638 0.974519 0.99614
1.06896 1.09874 0.976502 0.996307
1.08752 1.10538 0.988414 0.995375
1.08532 1.10773 0.984191 0.995514
1.09357 1.10034 0.998982 0.994862
1.08204 1.08898 0.998915 0.994707
1.06723 1.07671 0.996602 0.994582
1.08089 1.08637 1 0.99496
1.05854 1.06397 1.00014 0.99476
1.04014 1.04455 1.00148 0.99431
1.0593 1.06136 1.00284 0.995226
1.04811 1.05285 1.00046 0.995041
1.02031 1.02527 1 0.995158
1.02572 1.01462 1.01423 0.996745
1.03698 1.03057 1.01047 0.995796
1.01786 1.01753 1.00483 0.995519
1.00954 1.00082 1.00984 0.998884
1.02796 1.01116 1.01935 0.997311
1.02849 1.01353 1.01817 0.996656
1 1 1 1
1.01029 1.00046 1.01073 0.999111
1.03059 1.00799 1.02474 0.997738
1 1 1 1
1.01023 1 1.01087 0.999366
1 1 1 1
1.02169 1.01351 1.01142 0.996689
1.01342 1.00566 1.01068 0.99706
1.02273 1.00493 1.02065 0.997131
1.01865 1 1.02061 0.998088
1.02585 1.00156 1.02704 0.997285
1.03188 1 1.03467 0.997309
1.00478 1 1.00511 0.999674
1.01098 1 1.01269 0.998313
1.01177 1.00005 1.01424 0.997522
1 1 1 1
1.0017 1 1.00191 0.999794
1.009 1 1.01045 0.998567
1 1 1 1
0.999882 1 1 0.999882
1 1 1 1
0.506561 0.69317 0.850217 0.859533
0.607218 0.809425 0.855042 0.877366
0.607073 0.806657 0.859847 0.875247
1.02513 1.00434 1.02396 0.996815
1.03732 1.01752 1.02314 0.996401
1.03913 1.00397 1.03833 0.996808
1.03108 0.9998 1.03397 0.997406
1.01183 1.01028 1.00428 0.997271
1.00038 0.999015 1.00313 0.998246
1.02655 0.996122 1.03268 0.99793
1.02204 1.00461 1.02042 0.996992
1.0227 0.998409 1.02709 0.997309
0.972137 0.999443 0.973712 0.998939
1.03654 0.997835 1.04069 0.998175
1.05034 0.998262 1.05382 0.998431
0.557675 0.741947 0.837927 0.897019
0.485399 0.663582 0.853632 0.856906
0.592758 0.818878 0.840274 0.861464
0.479834 0.684941 0.824283 0.849888
0.60275 0.754387 0.879193 0.908781
0.777056 0.84717 0.971023 0.94461
0.851731 0.88012 0.996391 0.971249
0.843614 0.889334 0.973717 0.974196
0.554056 0.730556 0.836608 0.906522
0.725386 0.834258 0.920549 0.944543
0.816275 0.898466 0.929804 0.977111
0.694099 0.880536 0.833668 0.945543
0.986463 1 0.987328 0.999124
0.984553 1.00085 0.984203 0.999502
1.05229 0.997024 1.05656 0.998939
0.92472 0.919769 1.01178 0.993675
0.989189 0.963909 1.02685 0.999397
0.95813 0.967113 0.994638 0.996052
0.937884 0.981707 0.960631 0.994513
0.648472 0.789193 0.905145 0.9078
0.514119 0.704758 0.840244 0.868198
0.615666 0.813892 0.858226 0.881408
0.921945 0.91696 1.01299 0.992539
0.790315 0.887333 0.917192 0.971076
0.514825 0.689186 0.860376 0.868231
0.693309 0.867902 0.845465 0.944845
0.561299 0.728246 0.845319 0.911791
0.907716 0.94141 0.969659 0.994379
0.622198 0.778152 0.883417 0.905104
0.756577 0.925499 0.863641 0.94655
0.775428 0.898214 0.886987 0.973295
0.904304 0.965771 0.940296 0.995808
0.848277 0.969298 0.916242 0.955147
0.827414 0.946533 0.893576 0.978263
0.969752 0.982203 0.988842 0.998463
0.973861 1.00024 0.976386 0.99718
0.963045 1.00912 0.957292 0.996918
0.991239 1.0043 0.990738 0.996223
0.983702 1.01086 0.976936 0.996109
1.00328 1.06227 0.947533 0.996763
1.00265 1.01 0.998049 0.99467
1.02799 1.05918 0.974569 0.995878
1.04764 1.10412 0.951927 0.996763
1.04589 1.06275 0.989276 0.994801
1.07295 1.1065 0.973453 0.996125
1.06017 1.09995 0.96694 0.99679
1.07194 1.10075 0.977071 0.996679
1.06845 1.09896 0.975764 0.996383
1.07381 1.09723 0.982431 0.996155
1.09057 1.10408 0.992279 0.995453
1.08918 1.10567 0.98962 0.995415
1.08808 1.11006 0.984565 0.995565
1.09916 1.10527 0.999422 0.99505
1.09471 1.10158 0.998874 0.994887
1.08033 1.08745 0.998652 0.994796
1.08313 1.08849 1 0.995077
1.0837 1.08919 1 0.994958
1.05842 1.0638 1.00017 0.994773
1.03088 1.03017 1.00458 0.996131
1.06034 1.06288 1.00238 0.995242
1.04643 1.05101 1.00061 0.995034
1.00801 1.00097 1.00858 0.998466
1.02975 1.01866 1.0142 0.996734
1.04263 1.03537 1.01127 0.995788
1 1 1 1
1.00956 1.00063 1.01007 0.998862
1.03026 1.01472 1.01806 0.997299
0.999864 1 1 0.999864
1.01111 1.00048 1.01151 0.999121
1 1 1 1
1.03321 1.02328 1.01349 0.996259
1.0186 1.00769 1.01418 0.996697
1.01601 1.00871 1.01034 0.996923
1.01408 1.00742 1.00965 0.996996
1.02122 1.0035 1.02057 0.99714
1.0248 1 1.02701 0.997844
1.00732 1 1.00783 0.999494
1.01762 1 1.01958 0.998083
1.02454 1.00047 1.02684 0.997284
1 1 1 1
1.00334 1 1.00365 0.999691
1.01112 1 1.01283 0.99832
1 1 1 1
1.00052 1 1.00071 0.999811
1 1 1 1
0.606903 0.771597 0.869049 0.905074
0.509457 0.696606 0.847951 0.86248
0.608569 0.812779 0.853252 0.877526
1.02717 1.00248 1.02792 0.996801
1.04559 1.00223 1.04692 0.996513
1.0317 1.01593 1.01918 0.996405
1.02462 1.02676 1.00242 0.995517
1.03625 1.00709 1.03194 0.997115
1.02221 0.999899 1.02456 0.997809
1.02315 1.00428 1.02163 0.997223
1.02265 1.0007 1.02456 0.997441
0.997913 1.01038 0.990709 0.996923
0.964865 1.0028 0.963742 0.998369
0.96962 1.0014 0.970651 0.997546
0.979471 1.00125 0.979263 0.998965
1.04417 0.996548 1.04947 0.998402
0.769006 0.931012 0.867083 0.952608
0.556154 0.741062 0.833554 0.900341
0.469095 0.645304 0.845103 0.860174
0.543762 0.736272 0.82261 0.897794
0.729791 0.834249 0.922477 0.948304
0.85349 0.890079 0.980631 0.977832
0.812291 0.892374 0.929143 0.979674
0.722698 0.87058 0.869912 0.954274
0.826256 0.94732 0.891484 0.978372
0.979052 1.00019 0.98057 0.998263
0.990265 0.999407 0.99175 0.999095
0.985079 1.00037 0.985265 0.999437
0.963486 0.973314 0.993777 0.996102
0.948374 0.985497 0.966619 0.995564
0.847816 0.962659 0.92767 0.94937
0.635659 0.783837 0.891148 0.910016
0.506496 0.704063 0.82947 0.86729
0.910411 0.95116 0.964657 0.992227
0.777522 0.908696 0.881787 0.970355
0.610044 0.773398 0.872749 0.903793
0.767642 0.922987 0.870749 0.955146
0.914277 0.968358 0.948011 0.995929
0.849935 0.974731 0.913442 0.954598
0.824138 0.943664 0.896021 0.974685
0.905235 0.997159 0.912184 0.995209
0.876084 0.983055 0.904801 0.984952
0.972057 1.00198 0.9729 0.997163
0.955954 1.00911 0.950286 0.996879
0.962081 1.04784 0.920749 0.997184
0.983742 1.01012 0.977707 0.99609
1.00775 1.06452 0.949782 0.996723
1.03645 1.10672 0.939234 0.997091
1.0242 1.05644 0.973527 0.995843
1.04833 1.10335 0.953247 0.996732
1.05198 1.10427 0.95552 0.996998
1.07149 1.10613 0.972465 0.996111
1.05993 1.09925 0.967357 0.996768
1.06653 1.10567 0.967642 0.996855
1.06937 1.09924 0.976007 0.996734
1.07419 1.10118 0.978927 0.996486
1.06767 1.09885 0.975077 0.99646
1.07265 1.09708 0.981512 0.996148
1.07699 1.09468 0.987889 0.995908
1.09444 1.10342 0.99646 0.995381
1.09227 1.1047 0.993271 0.995441
1.09074 1.10587 0.990819 0.995455
1.09325 1.09868 1 0.995059
1.10189 1.10791 0.999529 0.995035
1.09556 1.10249 0.998797 0.994912
1.04772 1.04953 1.00257 0.995715
1.08172 1.08706 1 0.995087
1.08679 1.0923 1 0.994956
1.00703 1.00383 1.00521 0.997994
1.03214 1.03129 1.00471 0.996141
1.06162 1.06385 1.00266 0.995258
1 1 1 1
1.00766 1.00163 1.0076 0.998432
1.0314 1.02257 1.01194 0.996725
1 1 1 1
1.00835 1.00059 1.00893 0.998841
1 1 1 1
1.03915 1.043 1.00086 0.995451
1.03093 1.02595 1.00862 0.996257
1.02616 1.01259 1.01707 0.99639
1.01536 1.0018 1.01689 0.996704
1.019 1.00577 1.01635 0.996854
1.02499 1.00704 1.02043 0.997447
1.02234 1.00208 1.02314 0.997147
1.02646 1.00065 1.02802 0.997833
1.01299 1.00071 1.01307 0.999216
1 1 1 1
1.00701 1 1.0075 0.999507
1.01895 1 1.02091 0.998079
1 1 1 1
1.00377 1 1.00407 0.999701
1 1 1 1
0.843944 0.967531 0.911073 0.957404
0.627088 0.784224 0.882564 0.906028
0.501984 0.695034 0.841151 0.858638
1.05702 1.00153 1.05942 0.996215
1.02491 1.0148 1.0136 0.996411
1.03257 1.0089 1.02665 0.996898
1.02369 1.02592 1.00224 0.995599
1.04987 1.05471 1.00004 0.995373
1.00713 1.01842 0.992314 0.996575
1.02569 1.00435 1.02374 0.997566
0.999028 1.01167 0.990809 0.996663
0.972296 1.00299 0.971006 0.998343
1.00403 1.01127 0.995946 0.996884
0.973764 1.00464 0.971794 0.997396
0.983579 1.0019 0.984648 0.997022
0.968473 1.0018 0.969003 0.997659
0.986927 1.00105 0.986884 0.998993
0.831841 0.957644 0.887915 0.978284
0.768845 0.937176 0.862648 0.951008
0.572571 0.738774 0.851074 0.910647
0.691399 0.859915 0.851163 0.944627
0.825579 0.89458 0.940771 0.980969
0.834883 0.935794 0.906799 0.983863
0.935243 1.00283 0.936665 0.995661
0.975094 0.999768 0.977135 0.998143
0.994211 0.998692 0.996442 0.999069
0.957798 0.988866 0.971892 0.996594
0.866281 0.972008 0.910379 0.978964
0.850399 0.967453 0.916886 0.958689
0.625208 0.774832 0.896295 0.900256
0.911799 0.963326 0.950225 0.996092
0.821198 0.941658 0.892936 0.976639
0.839939 0.978069 0.90044 0.953726
0.907265 0.995477 0.915589 0.995411
0.882641 0.981278 0.91434 0.983749
0.932656 1.02665 0.912082 0.996016
0.934433 1.02913 0.913452 0.99401
0.948333 1.00914 0.942727 0.996834
0.958808 1.04456 0.920487 0.997194
1.00514 1.09923 0.917096 0.997066
1.01241 1.06733 0.951698 0.996684
1.036 1.10647 0.939062 0.997065
1.06083 1.11547 0.953923 0.996949
1.04904 1.10286 0.954354 0.996701
1.05316 1.10418 0.956684 0.996978
1.07328 1.11494 0.965714 0.996811
1.05976 1.09881 0.967612 0.996745
1.06548 1.10369 0.968426 0.99685
1.07539 1.10701 0.974759 0.996589
1.06688 1.09793 0.974849 0.99679
1.07364 1.10099 0.978556 0.996531
1.07796 1.09848 0.9851 0.996166
1.0716 1.09699 0.980646 0.99614
1.07697 1.09513 0.987474 0.995899
1.08702 1.09852 0.993826 0.995681
1.09133 1.09728 0.999349 0.995226
1.09598 1.10426 0.997159 0.995333
1.09388 1.10524 0.994266 0.995428
1.0625 1.06722 1 0.99558
1.09168 1.09709 1 0.995066
1.10469 1.11063 0.999632 0.99502
1.01152 1.01106 1.00278 0.997686
1.0466 1.04792 1.00303 0.995718
1.07888 1.08411 1.00008 0.995097
1 1 1 1
1.00813 1.00575 1.00441 0.997963
1.03259 1.03137 1.00505 0.996151
1 1 1 1
1.00783 1.00219 1.00724 0.9984
1 1 1 1
1.06854 1.07368 1 0.99521
1.03839 1.04262 1.00049 0.995461
1.04917 1.04723 1.00618 0.9957
1.02945 1.02842 1.00476 0.996254
1.0323 1.021 1.01482 0.996303
1.03084 1.02058 1.01317 0.99692
1.02164 1.0022 1.02268 0.996788
1.02154 1.00456 1.01949 0.997455
1.00999 1.00086 1.01026 0.998884
1.02279 1.00069 1.02431 0.997824
1.00952 1.00001 1.01029 0.999228
1 1 1 1
1 1 1 1
1.00516 1 1.00564 0.999523
1 1 1 1
0.860859 0.957153 0.917686 0.980069
0.836449 0.962595 0.916105 0.948529
0.637542 0.775203 0.901398 0.912382
1.08051 1.08808 0.997599 0.995429
1.02829 1.01104 1.02044 0.996686
1.02414 1.02644 1.00208 0.995683
1.01044 1.02181 0.992262 0.996583
1.05213 1.05678 1.00024 0.995361
1.03808 1.04372 0.998097 0.996497
1.00082 1.01212 0.992396 0.996404
0.978535 1.0022 0.978031 0.998317
1.0018 1.01271 0.992306 0.9969
0.965384 1.00373 0.964481 0.997214
1.02185 1.02926 0.996625 0.996162
0.953732 1.0094 0.947524 0.997175
0.983966 1.00243 0.984489 0.997047
0.968852 1.0022 0.968885 0.997771
0.92013 1.00408 0.919715 0.996381
0.817042 0.947995 0.88278 0.976305
0.776691 0.945739 0.864761 0.949688
0.830115 0.929076 0.910565 0.981242
0.936491 1.00211 0.937252 0.997088
0.971762 0.999948 0.97375 0.998011
0.944244 1.01916 0.934117 0.991842
0.87033 0.961188 0.923904 0.980051
0.848309 0.967489 0.923361 0.949591
0.915413 0.995202 0.923894 0.995598
0.888551 0.983978 0.919115 0.982488
0.933933 1.02833 0.911588 0.996284
0.94334 1.02917 0.921692 0.99448
0.991825 1.06607 0.933384 0.996757
1.05196 1.13496 0.929916 0.996728
0.955435 1.04058 0.920748 0.997203
1.01233 1.10094 0.922234 0.997046
1.06118 1.13145 0.9409 0.996803
1.03587 1.10593 0.939426 0.997039
1.05786 1.11323 0.953168 0.996946
1.07621 1.12521 0.959617 0.996698
1.05437 1.10392 0.958023 0.996959
1.07072 1.11297 0.965104 0.996824
1.07911 1.11145 0.974267 0.996546
1.06449 1.10166 0.969318 0.996846
1.07604 1.10755 0.974878 0.996586
1.07891 1.10259 0.982164 0.996293
1.07306 1.10073 0.978211 0.996577
1.07745 1.09863 0.984456 0.99621
1.08461 1.09921 0.990786 0.995889
1.07694 1.09561 0.987018 0.99589
1.08661 1.09857 0.993395 0.995687
1.09227 1.09759 0.999755 0.995403
1.06775 1.07245 1 0.99561
1.0918 1.09742 0.999679 0.995201
1.09773 1.10527 0.997884 0.995286
1.01993 1.02194 1.00043 0.997605
1.06086 1.0655 1.00006 0.99558
1.09063 1.09603 1 0.995073
0.999998 1 1 0.999998
1.01413 1.01487 1.00161 0.997669
1.04646 1.04804 1.00279 0.99572
0.999999 1 1 0.999999
1.00952 1.00842 1.00316 0.997933
1 1 1 1
1.08678 1.09257 0.99952 0.995175
1.06526 1.07039 1 0.995203
1.07915 1.0842 1 0.995342
1.03652 1.04096 1.00026 0.995473
1.05367 1.05198 1.00597 0.995661
1.04405 1.03817 1.00926 0.99644
1.03676 1.02795 1.0124 0.996216
1.02537 1.0135 1.01483 0.996926
1.00773 1.00186 1.0073 0.99857
1.02207 1.0017 1.02294 0.997454
1.01172 1.00141 1.0114 0.998903
1.00007 1 1.00007 1
1.0088 1 1.00957 0.99924
1.00003 1 1.00003 1
1 1 1 1
0.922604 1.00871 0.918581 0.995711
0.850977 0.958334 0.909982 0.975817
0.838146 0.9664 0.905568 0.957727
1.07385 1.08438 0.994204 0.996057
1.07863 1.09904 0.985612 0.995754
1.07937 1.08776 0.996735 0.995532
1.01282 1.02453 0.99195 0.996589
1.05408 1.05856 1.00043 0.995348
1.04065 1.04712 0.99732 0.996488
1.05687 1.08553 0.977441 0.996073
1.0009 1.01458 0.989573 0.996917
0.959656 1.00331 0.959338 0.997034
1.02606 1.03366 0.996306 0.996332
1.01945 1.0713 0.955289 0.996141
0.970415 1.03318 0.941846 0.997242
0.967061 1.01291 0.957524 0.99709
0.9888 1.00277 0.988971 0.99707
0.915457 1.00399 0.91477 0.996774
0.828716 0.95213 0.893223 0.974428
0.936289 1.00071 0.936963 0.998568
1.03254 1.09564 0.945127 0.997131
0.939396 1.0188 0.929482 0.992014
0.869613 0.963153 0.923588 0.97758
0.935162 1.03051 0.910639 0.996529
0.949922 1.02926 0.927573 0.994981
0.984694 1.06613 0.926407 0.996985
1.04809 1.13217 0.928729 0.996775
1.06559 1.14929 0.930161 0.996785
1.109 1.17894 0.943527 0.996977
1.01939 1.10393 0.926176 0.997027
1.0658 1.13481 0.942198 0.996805
1.07914 1.13638 0.952832 0.996642
1.0544 1.11105 0.951926 0.996944
1.07633 1.12489 0.959992 0.9967
1.07656 1.11632 0.967744 0.996527
1.06808 1.11101 0.964415 0.996837
1.0801 1.11235 0.974373 0.996542
1.08123 1.1057 0.981485 0.996313
1.0767 1.1081 0.97499 0.996583
1.07949 1.10312 0.982224 0.99629
1.08336 1.0994 0.989384 0.995981
1.07693 1.09876 0.983813 0.996254
1.08467 1.09957 0.990512 0.995896
1.09513 1.10118 0.998979 0.995523
1.08612 1.09855 0.992966 0.995693
1.0912 1.09704 0.999263 0.995418
1.06706 1.07171 1 0.995662
1.02448 1.02689 1 0.997651
1.06721 1.07191 1 0.995613
1.09241 1.09771 1 0.995176
0.999993 1 1 0.999993
1.0211 1.02303 1.00051 0.997599
1.05907 1.06318 1.00056 0.995581
0.999994 1 1 0.999994
1.01646 1.01743 1.00139 0.997651
0.999995 1 1 0.999995
1.08498 1.09687 0.993692 0.995439
1.08467 1.09081 0.999167 0.995206
1.08617 1.09137 1 0.995235
1.06186 1.06699 1 0.995195
1.07824 1.0833 1 0.995336
1.04433 1.04518 1.00315 0.996051
1.06104 1.05951 1.00585 0.995621
1.03998 1.03327 1.01009 0.996439
1.00789 1.00458 1.00511 0.998192
1.02195 1.00975 1.01519 0.996937
1.00831 1.00169 1.00802 0.998593
1 1 1 1
1.00954 1.00032 1.01031 0.998921
1 1 1 1
1 1 1 1
0.977733 1.0619 0.923028 0.99752
0.924316 1.00711 0.92317 0.994176
0.855195 0.964232 0.907787 0.977011
1.0706 1.09819 0.97879 0.995996
1.07161 1.08269 0.993463 0.996281
1.08359 1.10827 0.9817 0.995957
1.07851 1.0998 0.984843 0.995732
1.07761 1.08692 0.995782 0.995635
1.07535 1.1213 0.962949 0.995917
1.0436 1.0508 0.996657 0.996479
1.05365 1.08126 0.978371 0.996012
1.04831 1.11847 0.940783 0.996266
1.02434 1.03808 0.99023 0.996501
1.01942 1.07339 0.953508 0.996024
0.962021 1.03994 0.927586 0.997295
0.975632 1.01544 0.963687 0.997001
0.911175 1.00386 0.910312 0.997095
1.09498 1.16393 0.943562 0.997029
1.03748 1.10189 0.944222 0.997163
0.941231 1.01798 0.931872 0.992201
0.977589 1.06525 0.920284 0.997206
1.04516 1.12935 0.928398 0.996824
1.05672 1.14352 0.927062 0.996801
1.11912 1.18749 0.945274 0.996984
1.09443 1.15403 0.951342 0.996862
1.07025 1.13755 0.943855 0.996807
1.07951 1.13508 0.954235 0.996652
1.07704 1.12067 0.964345 0.996595
1.07658 1.12454 0.960519 0.996702
1.07729 1.11635 0.968393 0.996507
1.08024 1.10722 0.979241 0.996319
1.08114 1.1133 0.974486 0.996539
1.08146 1.10591 0.981518 0.996309
1.08301 1.09949 0.988923 0.996047
1.08009 1.10367 0.982283 0.996288
1.0844 1.10039 0.989453 0.995979
1.09795 1.10497 0.998013 0.995628
1.0847 1.09993 0.990211 0.995904
1.09378 1.09997 0.99884 0.995528
1.06828 1.07291 1 0.995685
1.08994 1.09627 0.998782 0.995433
1.06801 1.07266 1 0.995664
1.02498 1.02688 1 0.998147
0.999153 1 1 0.999153
1.0246 1.0268 1 0.997855
1.06615 1.07084 1 0.995616
0.999996 1 1 0.999996
1.02227 1.02473 1 0.997593
0.999996 1 1 0.999996
1.09057 1.10968 0.986628 0.996093
1.08438 1.10171 0.988455 0.995764
1.08451 1.09735 0.992791 0.995477
1.08329 1.08886 0.999572 0.995311
1.08335 1.08979 0.998856 0.995237
1.08477 1.08998 1 0.995224
1.04821 1.05173 1.00088 0.995781
1.07857 1.08363 1 0.99533
1.04791 1.0493 1.00264 0.996047
1.01225 1.01278 1.00169 0.997802
1.03395 1.02644 1.01091 0.996438
1.00806 1.00402 1.00582 0.998214
0.999997 1 1 0.999997
1.01028 1.00229 1.00937 0.998619
1 1 1 1
1 1 1 1
1.08152 1.15017 0.943379 0.996753
0.993253 1.07473 0.92653 0.997475
0.922107 1.00663 0.9228 0.992665
1.07812 1.11036 0.974875 0.995994
1.06733 1.09446 0.979094 0.996036
1.06957 1.08121 0.992703 0.996503
1.08263 1.10568 0.983109 0.995973
1.07845 1.10047 0.984209 0.995709
1.08203 1.13614 0.955955 0.996248
1.06713 1.11438 0.96157 0.995871
1.05056 1.07703 0.979385 0.99595
1.04106 1.11105 0.940514 0.99627
1.02529 1.07711 0.955805 0.995907
0.95575 1.05028 0.912409 0.997356
1.08985 1.14135 0.957778 0.996972
1.09596 1.16449 0.943917 0.997067
1.04205 1.1093 0.942026 0.997196
1.04787 1.13856 0.923289 0.996813
1.12847 1.19626 0.946175 0.996992
1.09692 1.15694 0.951101 0.996864
1.08557 1.12202 0.970686 0.996737
1.0798 1.13368 0.955662 0.996662
1.07795 1.12053 0.96531 0.996575
1.08144 1.10835 0.979265 0.996382
1.07802 1.11637 0.969045 0.996487
1.08081 1.10774 0.979294 0.996318
1.08218 1.09971 0.987933 0.996087
1.08172 1.10613 0.981552 0.996304
1.08364 1.1001 0.988956 0.996044
1.09819 1.10673 0.996563 0.995701
1.08542 1.10134 0.989522 0.995978
1.09626 1.10336 0.997926 0.995632
1.07009 1.07474 1 0.995674
1.09244 1.09877 0.9987 0.995534
1.06962 1.07425 1 0.995689
1.02364 1.0255 1 0.998187
1.0694 1.07406 1 0.995667
1.02458 1.02649 1 0.99814
0.999196 1 1 0.999196
0.9996 1 1 0.9996
1.02499 1.02697 1 0.998081
0.999999 1 1 0.999999
1.08046 1.10526 0.981382 0.996109
1.0865 1.10102 0.990873 0.995901
1.08902 1.10799 0.986607 0.996227
1.08849 1.09462 0.998921 0.99547
1.08587 1.10281 0.988835 0.995763
1.08419 1.09797 0.991901 0.995515
1.08328 1.08861 0.999803 0.9953
1.06195 1.06653 1 0.995698
1.08232 1.08753 1 0.995212
1.05255 1.05649 1.00049 0.995781
1.02165 1.02367 1.00038 0.997646
1.04884 1.05094 1.00197 0.996044
1.0099 1.00929 1.00279 0.997828
0.999996 1 1 0.999996
1.00793 1.00297 1.00672 0.998237
1 1 1 1
1 1 1 1
1.08297 1.13384 0.958369 0.996623
1.07085 1.13802 0.944033 0.996758
1.00715 1.08418 0.93135 0.997427
1.08031 1.11679 0.971041 0.996185
1.07472 1.10776 0.974083 0.995987
1.06379 1.09058 0.979277 0.996078
1.08153 1.10298 0.984499 0.99599
1.08331 1.13575 0.957445 0.996219
1.05866 1.10695 0.960387 0.995826
1.03063 1.09919 0.941131 0.996273
1.08938 1.12543 0.971076 0.996803
1.08854 1.13901 0.958636 0.996928
1.09657 1.16396 0.944837 0.997104
1.08396 1.11273 0.977421 0.996648
1.09939 1.15974 0.95095 0.996866
1.08519 1.12178 0.970559 0.996721
1.08402 1.10921 0.980713 0.996507
1.07883 1.12036 0.966262 0.996556
1.08189 1.10881 0.979254 0.996385
1.08181 1.09925 0.987961 0.996127
1.08132 1.10821 0.979347 0.996317
1.08234 1.09989 0.98791 0.996087
1.0982 1.10771 0.995637 0.995755
1.0843 1.10072 0.988991 0.996042
1.09727 1.10574 0.996629 0.995703
1.0699 1.07457 1 0.995658
1.09454 1.10172 0.997843 0.995636
1.07197 1.07662 1 0.995678
1.02216 1.02402 1 0.998178
1.07103 1.07567 1 0.995693
1.02319 1.02507 1 0.99817
0.999202 1 1 0.999202
1.02402 1.02593 1 0.998137
0.99922 1 1 0.99922
1 1 1 1
1.08025 1.10403 0.982361 0.996026
1.08037 1.09773 0.988203 0.995934
1.08309 1.10678 0.982413 0.996109
1.09344 1.10041 0.998066 0.995585
1.08525 1.10199 0.988813 0.995956
1.08775 1.10652 0.986624 0.99636
1.07342 1.07805 1 0.995705
1.09053 1.0964 0.99918 0.99546
1.08772 1.10434 0.989149 0.995762
1.08305 1.08819 0.999992 0.99529
1.063 1.06759 1 0.995695
1.02766 1.03006 1 0.997671
1.05846 1.06288 1.00006 0.99578
1.01849 1.0203 1.00056 0.99766
0.999999 1 1 0.999999
1.00892 1.00737 1.0037 0.99785
0.999995 1 1 0.999995
1 1 1 1
1.08294 1.11719 0.97273 0.99652
1.08394 1.13606 0.95738 0.996596
1.06273 1.12969 0.943778 0.996764
1.07968 1.11577 0.971342 0.996203
1.07124 1.10517 0.973207 0.995979
1.08546 1.1365 0.958747 0.99619
1.08689 1.11434 0.978645 0.996646
1.08972 1.12529 0.9715 0.996799
1.08737 1.13686 0.959458 0.996883
1.08444 1.11278 0.977792 0.996671
1.08252 1.10432 0.983725 0.996479
1.08479 1.12153 0.970433 0.996706
1.08447 1.10896 0.981382 0.996471
1.08026 1.09792 0.987638 0.996224
1.08234 1.10929 0.979244 0.996389
1.08166 1.09911 0.987949 0.996129
1.098 1.10827 0.994923 0.995786
1.08259 1.10017 0.987882 0.996087
1.0976 1.10723 0.995529 0.995756
1.06781 1.07246 1 0.995666
1.09636 1.10475 0.996685 0.995705
1.0719 1.07657 1 0.995662
1.01888 1.02077 1 0.998146
1.07385 1.0785 1 0.995683
1.02117 1.02306 1 0.998155
0.999183 1 1 0.999183
1.0227 1.02459 1 0.998159
0.99924 1 1 0.99924
0.999235 1 1 0.999235
1.08152 1.10555 0.981887 0.996312
1.08248 1.09727 0.990573 0.995902
1.07957 1.10517 0.980706 0.99605
1.09437 1.10406 0.995521 0.995681
1.08131 1.09726 0.989503 0.995919
1.08564 1.10825 0.983424 0.996109
1.07336 1.07798 1 0.995713
1.09381 1.10167 0.997239 0.995619
1.08376 1.10273 0.986733 0.99601
1.02606 1.0284 1 0.99773
1.07074 1.07537 1 0.995702
1.09216 1.09771 0.999488 0.99545
1.06412 1.06873 1 0.995692
1.02658 1.02897 1 0.997676
1 1 1 1
1.0146 1.01612 1.00083 0.997675
0.999996 1 1 0.999996
1 1 1 1
1.08282 1.10838 0.980339 0.996535
1.08281 1.11717 0.972637 0.996506
1.08427 1.13754 0.956457 0.996569
1.07937 1.1149 0.97181 0.996221
1.08286 1.10119 0.986869 0.996437
1.08702 1.11472 0.978421 0.996658
1.09018 1.12519 0.972003 0.996794
1.08494 1.11282 0.978179 0.996693
1.08244 1.10466 0.983331 0.996489
1.08077 1.09637 0.98951 0.996218
1.08496 1.10872 0.982071 0.996435
1.0814 1.09813 0.988544 0.996175
1.09645 1.10749 0.994143 0.995864
1.08154 1.099 0.987938 0.996132
1.09735 1.10754 0.994992 0.995788
1.06528 1.06991 1 0.995676
1.09684 1.10655 0.995445 0.995756
1.06942 1.07407 1 0.995667
1.01399 1.01631 1 0.997715
1.07379 1.07847 1 0.995665
1.01731 1.01942 1 0.997932
1 1 1 1
1.02021 1.02211 1 0.998135
0.999226 1 1 0.999226
0.999267 1 1 0.999267
1.08203 1.10172 0.985649 0.996425
1.0799 1.09597 0.989239 0.996053
1.08226 1.10498 0.98307 0.996307
1.09496 1.10319 0.996816 0.995711
1.08138 1.09658 0.990194 0.995902
1.07891 1.10633 0.979055 0.996074
1.07124 1.07607 0.999793 0.995716
1.09493 1.10392 0.996164 0.995681
1.08235 1.09683 0.990857 0.995903
1.02151 1.02378 1 0.997776
1.07099 1.07564 0.999951 0.995718
1.0941 1.10287 0.996376 0.995652
1 1 1 1
1.02725 1.02958 1 0.997737
1.0682 1.07281 1 0.995698
1.02553 1.02791 1 0.997684
0.999999 1 1 0.999999
0.999993 1 1 0.999993
1.08188 1.09893 0.988002 0.996435
1.0841 1.10912 0.980833 0.99654
1.08253 1.11706 0.972498 0.996492
1.0806 1.09401 0.991538 0.996165
1.0818 1.10084 0.98621 0.996447
1.08716 1.1151 0.978198 0.99667
1.08231 1.105 0.982901 0.996499
1.08071 1.09648 0.989357 0.996219
1.09683 1.10614 0.995736 0.995835
1.08245 1.09826 0.989442 0.996126
1.09705 1.10723 0.994975 0.995807
1.06249 1.06781 0.999286 0.99573
1.09683 1.10696 0.995043 0.995789
1.06654 1.07117 1 0.995676
1.00981 1.01211 1 0.997727
1.07123 1.0759 1 0.995668
1.01271 1.01503 1 0.997715
1 1 1 1
1.01578 1.01814 1 0.99768
0.999584 1 1 0.999584
0.999264 1 1 0.999264
1.07825 1.09513 0.988148 0.996399
1.07957 1.09298 0.99155 0.996153
1.08136 1.10088 0.985784 0.996434
1.09395 1.10206 0.996905 0.995721
1.08042 1.09613 0.989591 0.996042
1.08292 1.10434 0.984246 0.996302
1.06837 1.07346 0.999578 0.995679
1.09538 1.10317 0.997255 0.995671
1.08019 1.09583 0.989778 0.995903
1.01728 1.01955 1 0.99777
1.07016 1.07504 0.999747 0.99571
1.09547 1.10377 0.996785 0.995681
1 1 1 1
1.02299 1.02526 1 0.997783
1.06886 1.07353 0.999921 0.995724
1 1 1 1
1.02842 1.03075 1 0.997743
0.999997 1 1 0.999997
1.08084 1.09342 0.992266 0.996197
1.08088 1.09809 0.98786 0.996423
1.08538 1.10986 0.981328 0.996546
1.09693 1.10585 0.996085 0.995827
1.0801 1.09408 0.991 0.996182
1.08075 1.10049 0.985554 0.996456
1.08067 1.09659 0.989221 0.996219
1.09612 1.10566 0.995516 0.995835
1.05994 1.06513 0.999376 0.995743
1.09761 1.10696 0.995784 0.99575
1.06353 1.06852 0.999634 0.995701
1.00669 1.00898 1 0.997728
1.06756 1.07219 1 0.995676
1.00875 1.01105 1 0.997726
1 1 1 1
1.01134 1.01365 1 0.997713
1 1 1 1
0.999244 1 1 0.999244
1.07947 1.09189 0.99242 0.996172
1.07674 1.09467 0.987162 0.99641
1.09393 1.10222 0.996674 0.99579
1.08017 1.09347 0.991645 0.996152
1.08067 1.10003 0.985903 0.996443
1.06638 1.07106 1 0.995637
1.09461 1.10274 0.996895 0.995717
1.08106 1.0964 0.989936 0.996032
1.01368 1.01599 1 0.997732
1.06786 1.07273 0.9998 0.995653
1.09592 1.10321 0.997753 0.995631
1 1 1 1
1.01851 1.02078 1 0.997775
1.0691 1.07404 0.999694 0.995704
1 1 1 1
1.0244 1.02667 1 0.997789
0.999999 1 1 0.999999
1.09581 1.10414 0.996608 0.995838
1.08091 1.09333 0.992421 0.996189
1.07986 1.09721 0.987728 0.996412
1.05879 1.06396 0.999386 0.995754
1.09624 1.10525 0.996002 0.995827
1.07956 1.09411 0.990464 0.9962
1.09541 1.10518 0.995304 0.995835
1.06053 1.06583 0.999284 0.995739
1.00502 1.00729 1 0.997744
1.06469 1.06932 1 0.995672
1.00617 1.00847 1 0.997727
1 1 1 1
1.00778 1.01008 1 0.997725
1 1 1 1
1 1 1 1
1.09502 1.10288 0.997033 0.995832
1.07917 1.09208 0.991934 0.996217
1.07534 1.09432 0.986185 0.996421
1.06345 1.06807 1 0.995672
1.09432 1.10261 0.996679 0.995787
1.08077 1.09397 0.991753 0.996152
1.01016 1.01248 1 0.997715
1.06516 1.06983 1 0.995635
1.09524 1.10338 0.996887 0.995714
1 1 1 1
1.01469 1.01699 1 0.997735
1.0672 1.07189 1 0.995628
1 1 1 1
1.01972 1.02199 1 0.997779
1 1 1 1
1.0598 1.06438 1 0.995701
1.09516 1.10389 0.99621 0.995861
1.08101 1.09328 0.992567 0.99618
1.00399 1.00621 1 0.99779
1.05929 1.06451 0.999337 0.995752
1.09556 1.10467 0.995909 0.995827
1.06108 1.06649 0.999189 0.995736
1.00467 1.00695 1 0.997745
1 1 1 1
1.00564 1.00793 1 0.997725
1 1 1 1
1 1 1 1
1.06093 1.06551 1 0.995699
1.09464 1.10278 0.996737 0.995862
1.07877 1.09217 0.991438 0.996262
1.00766 1.00952 1 0.998162
1.06247 1.06709 1 0.995672
1.09456 1.10285 0.996683 0.995784
1 1 1 1
1.01117 1.01348 1 0.997716
1.06392 1.06859 1 0.995633
1 1 1 1
1.01576 1.01806 1 0.997738
1 1 1 1
1.00383 1.00609 1 0.997756
1.05893 1.06382 0.999671 0.995729
1.0945 1.10362 0.995827 0.995884
1 1 1 1
1.00388 1.00611 1 0.997787
1.05982 1.0651 0.999288 0.99575
1.00437 1.00664 1 0.997744
1 1 1 1
1 1 1 1
1.00559 1.00745 1 0.998153
1.06044 1.06502 1 0.995701
1.09441 1.10284 0.996451 0.995892
1 1 1 1
1.00808 1.01036 1 0.997739
1.06174 1.06635 1 0.995672
1 1 1 1
1.01218 1.0145 1 0.997717
1 1 1 1
0.999286 1 1 0.999286
1.00443 1.00646 1 0.997985
1.0581 1.06333 0.999325 0.995756
1 1 1 1
1.00373 1.00596 1 0.997788
1 1 1 1
0.999286 1 1 0.999286
1.00596 1.00801 1 0.997967
1.05978 1.06435 1 0.995702
0.999631 1 1 0.999631
1.00883 1.01111 1 0.997744
1 1 1 1
1 1 1 1
1.00459 1.0068 1 0.997805
1 1 1 1
0.999646 1 1 0.999646
1.00639 1.00862 1 0.997788
1 1 1 1
1 1 1 1
1 1 1 1

VECTORS lamdaE float
1.00353 0.999962 0.991404
1.00335 1.00061 0.995478
1.00287 1.00017 0.991909
1.00272 1.00022 0.992146
1.00331 1.00005 0.991605
1.00374 0.999898 0.991212
1.00378 1.00115 0.988941
1.00349 1.00066 0.995384
1.00234 1.0001 0.996479
1.00235 1.00065 0.996365
1.00302 1.00141 0.990669
1.00399 1.00236 0.985845
1.00207 0.999913 0.993123
1.00163 1.00018 0.993386
1.00225 1.00039 0.992384
1.00225 1.00024 0.992628
1.00301 1.00024 0.99167
1.00275 1.00013 0.992102
1.00408 1.00106 0.98863
1.00213 1 0.996279
1.00252 1.0002 0.992382
1.003 1.00016 0.991893
1.0035 1.00019 0.990357
1.00378 1.00072 0.98941
1.00416 0.999948 0.990702
1.0038 1.00173 0.988253
1.0053 1.00143 0.985328
1.00365 1.00073 0.9953
1.00269 1.00001 0.994231
1.00288 1.00036 0.993955
1.00341 1.0013 0.995247
1.00402 1.00232 0.985799
1.00266 0.999972 0.992237
1.00308 0.999942 0.991733
1.00421 1.00071 0.989239
1.00144 1.00283 0.996204
1.00432 1.00157 0.988406
1.00419 1.0028 0.98498
1.0055 1.00278 0.983099
1.00182 1.00181 0.995961
1.0021 0.999979 0.996284
1.00197 1.0001 0.994771
1.00203 0.999941 0.996355
1.00147 1.00011 0.993616
1.00354 0.999721 0.989511
1.00189 1.00008 0.996678
1.00387 1.00017 0.990341
1.00181 1.0002 0.993108
1.00221 1.00018 0.992581
1.00235 1.00055 0.992111
1.00437 1.00096 0.988336
1.00189 1.00001 0.99491
1.00204 1.00025 0.99287
1.00332 1.00051 0.991142
1.0025 1.00016 0.992374
1.00375 1.00014 0.990064
1.00416 1.00155 0.987955
1.00405 1.00065 0.98911
1.0053 1.00132 0.985515
1.00202 0.999973 0.996339
1.00238 1.00008 0.992667
1.00324 0.999775 0.9914
1.00335 0.999982 0.990779
1.00366 1.0004 0.989881
1.00538 0.998896 0.987978
1.00531 0.999654 0.987105
1.00388 1.00045 0.990636
1.00398 1.00262 0.987215
1.00533 1.0027 0.983949
1.00537 0.99674 0.98913
1.00321 0.999921 0.995706
1.00325 1.00139 0.995377
1.00349 1.00022 0.995527
1.00403 1.00228 0.98574
1.00275 0.999987 0.995883
1.00326 0.999979 0.995674
1.00402 1.00078 0.987511
1.00192 1.00236 0.993603
1.00404 1.00158 0.986601
1.00421 1.00295 0.986088
1.00546 1.00276 0.983064
1.00226 1.00209 0.995659
1.00287 1.00369 0.986597
1.00398 1.00048 0.988022
1.00426 1.00094 0.987029
1.00539 0.999473 0.986773
1.00382 1.0036 0.987126
1.00531 1.00151 0.984606
1.00553 1.00433 0.981507
1.00558 0.999191 0.986102
1.00125 1.00166 0.996434
1.00154 1.00192 0.996149
1.00239 1.00006 0.996053
1.00216 0.999982 0.996248
1.00207 0.999947 0.996345
1.00187 1 0.994935
1.00356 0.999729 0.990242
1.00219 1.00008 0.994603
1.00371 1.00018 0.989616
1.00203 0.999945 0.996374
1.00337 0.999567 0.989829
1.00378 0.999969 0.990643
1.0053 0.997305 0.989434
1.00386 1.00029 0.990108
1.0053 0.997641 0.989021
1.00208 0.999884 0.993138
1.00156 1.00029 0.993362
1.00241 1.00116 0.991571
1.00202 1.00014 0.99285
1.00398 1.00014 0.989772
1.0043 1.00062 0.988819
1.0045 1.00146 0.987661
1.0053 1.00121 0.985699
1.00206 0.999948 0.996357
1.00194 1.00007 0.993151
1.00349 0.999577 0.990364
1.00359 0.999945 0.990494
1.00334 1.00116 0.993002
1.00429 1.0025 0.987179
1.00391 1.00037 0.989587
1.00538 0.998494 0.988369
1.00533 1.0026 0.984162
1.00531 0.999981 0.986807
1.00538 0.996818 0.989091
1.00336 0.999579 0.98984
1.0033 0.999701 0.991142
1.0053 0.997327 0.989758
1.00534 0.997944 0.989049
1.0054 0.998745 0.987987
1.0053 0.995679 0.990901
1.00261 1.00165 0.995693
1.00532 0.99581 0.990242
1.00395 1.00316 0.984895
1.00539 1.00365 0.982102
1.00539 0.998044 0.987818
1.00538 0.994852 0.990908
1.0031 1.00365 0.98595
1.00465 1.00443 0.983682
1.00291 0.999959 0.995817
1.00338 0.999978 0.995643
1.00396 1.00084 0.987512
1.00252 1.00182 0.995584
1.00387 1.00319 0.985056
1.00403 1.00156 0.986574
1.00547 1.00262 0.983036
1.00215 1.00191 0.995765
1.0029 1.00382 0.986554
1.00401 1.00054 0.988813
1.00428 1.00105 0.987902
1.00538 0.999463 0.986765
1.0034 1.00368 0.985307
1.00535 1.00155 0.984571
1.00553 1.00412 0.981452
1.00561 0.998923 0.98641
1.0032 1.00376 0.985787
1.00252 1.00347 0.987758
1.00303 1.003 0.98564
1.0054 0.998665 0.987674
1.00535 1.00041 0.985784
1.00529 0.995485 0.990653
1.0049 1.00507 0.981905
1.0055 0.997204 0.98856
1.00566 1.00158 0.984355
1.00568 0.996863 0.987938
1.00072 1.00093 0.99716
1.001 1.00154 0.996705
1.00135 1.00196 0.996305
1.00264 1.00393 0.986815
1.00197 1.00201 0.995926
1.00263 1.00001 0.995939
1.00225 1.00002 0.996147
1.00348 1.00024 0.988958
1.00338 0.999734 0.98962
1.00205 0.999948 0.996329
1.00201 0.999936 0.996371
1.00335 0.999576 0.989826
1.00363 0.99993 0.989944
1.00529 0.997318 0.989443
1.00367 1.00039 0.988542
1.0053 0.997661 0.989028
1.00334 0.999517 0.989903
1.0053 0.99727 0.98948
1.00529 0.997406 0.989311
1.00531 0.994953 0.991929
1.00535 0.998052 0.988462
1.00532 0.994951 0.99171
1.00202 0.999944 0.996364
1.00142 1.00018 0.993634
1.00353 0.999452 0.989529
1.00383 0.999927 0.990207
1.00221 1.00205 0.99597
1.00465 1.00227 0.987157
1.00415 1.00037 0.989295
1.00537 0.998094 0.98876
1.00532 1.00029 0.98651
1.00533 1.00242 0.984389
1.00539 0.99687 0.98905
1.00335 0.99957 0.989838
1.0035 0.999712 0.99087
1.0053 0.997216 0.98977
1.00533 0.998178 0.988819
1.00283 1.0016 0.995555
1.00396 1.00322 0.9861
1.00539 1.00374 0.98243
1.0054 0.998778 0.987995
1.00531 0.995314 0.991184
1.0054 0.997963 0.987897
1.0053 0.996182 0.9899
1.00539 0.994851 0.990856
1.00307 1.0037 0.985898
1.00392 1.00487 0.983618
1.00529 0.997347 0.989407
1.00531 0.997652 0.989504
1.00533 0.995296 0.991383
1.00532 0.994925 0.991594
1.00534 0.99592 0.990239
1.00521 0.994948 0.991531
1.00358 1.00345 0.985293
1.0053 0.994859 0.991098
1.00546 1.00443 0.981253
1.00546 0.999151 0.986353
1.00538 0.995724 0.990058
1.00538 0.994772 0.990831
1.00502 1.00533 0.981677
1.00264 1.00491 0.986139
1.00523 1.00504 0.981538
1.0038 1.00062 0.988042
1.00188 1.00197 0.995932
1.00276 1.0039 0.986513
1.00403 1.00113 0.987059
1.00536 0.999448 0.98676
1.00349 1.00364 0.985355
1.0055 1.00404 0.981397
1.00537 1.00158 0.984528
1.0056 0.998652 0.986721
1.00304 1.00386 0.985923
1.00221 1.00359 0.98775
1.00327 1.00415 0.98574
1.00538 0.998667 0.987681
1.00535 1.00043 0.985756
1.00532 0.995426 0.99068
1.00507 1.00446 0.981824
1.00547 0.997235 0.988581
1.00563 1.00136 0.984321
1.00565 0.996658 0.988112
1.00178 1.00297 0.989581
1.00317 1.00507 0.984285
1.00316 1.00418 0.985753
1.0024 1.00252 0.986834
1.0053 0.995056 0.991225
1.00536 0.996239 0.989691
1.00532 0.994874 0.991011
1.00547 1.00409 0.982482
1.00548 0.995202 0.990236
1.00557 1.00001 0.98587
1.00562 0.996176 0.988775
1.00098 1.00449 0.989417
1.0007 1.00218 0.991745
1.00047 0.999856 0.997697
1.00053 1.00057 0.997394
1.00067 1.00128 0.997015
1.00123 1.00388 0.988945
1.00119 1.00205 0.996324
1.00262 1.00388 0.986711
1.00215 1.00196 0.995858
1.00362 1.00044 0.988542
1.00346 0.999913 0.989316
1.0053 0.997675 0.98904
1.00528 0.997332 0.989453
1.00336 0.999588 0.989831
1.00207 0.999924 0.996366
1.00335 0.999517 0.989908
1.00529 0.997282 0.989487
1.00529 0.997422 0.989322
1.00532 0.994952 0.991928
1.00534 0.998065 0.988476
1.00532 0.994952 0.991716
1.0053 0.997303 0.989465
1.00532 0.994955 0.991963
1.00531 0.994954 0.991847
1.00525 0.994928 0.991775
1.00532 0.994929 0.991522
1.00524 0.994932 0.991569
1.00336 0.999571 0.989844
1.00374 0.999641 0.9906
1.0053 0.997086 0.989785
1.00533 0.998377 0.988591
1.00301 1.00155 0.995417
1.00426 1.00318 0.987011
1.00542 1.00373 0.982745
1.0054 0.998796 0.988004
1.00532 0.994938 0.991468
1.00528 0.996579 0.989559
1.00542 0.99791 0.987977
1.00539 0.994842 0.990804
1.00306 1.00375 0.985848
1.00324 1.00481 0.983561
1.0053 0.997163 0.989642
1.00531 0.997558 0.989523
1.00533 0.995319 0.991353
1.00532 0.995192 0.991356
1.00351 1.0035 0.985282
1.00546 1.00436 0.981308
1.00546 0.999559 0.98601
1.00531 0.995947 0.990341
1.00521 0.994943 0.991451
1.00538 0.995452 0.990266
1.00533 0.994858 0.991062
1.00538 0.994775 0.990808
1.00481 1.00512 0.981727
1.00476 1.00531 0.981981
1.00243 1.00475 0.986234
1.00533 0.995308 0.991453
1.00533 0.995409 0.991179
1.00524 0.994928 0.991864
1.00524 0.994929 0.991499
1.00521 0.99491 0.991194
1.00536 0.994903 0.991106
1.00538 1.00506 0.980976
1.00536 0.994857 0.990822
1.00556 1.00128 0.98423
1.00545 0.996528 0.988882
1.00541 0.99489 0.99069
1.00542 0.994764 0.990648
1.00193 1.00362 0.987151
1.00529 1.00471 0.981542
1.00342 1.00511 0.983772
1.00516 1.00464 0.982044
1.00536 0.998669 0.98769
1.00182 1.00386 0.987744
1.0031 1.00389 0.986032
1.00307 1.00502 0.985821
1.00534 1.00043 0.98573
1.00536 0.995367 0.990707
1.00545 1.00376 0.981721
1.00564 1.00121 0.984285
1.00545 0.997252 0.9886
1.00563 0.996447 0.988285
1.00141 1.00312 0.989607
1.00402 1.00428 0.984394
1.00296 1.00428 0.985604
1.00322 1.00246 0.986942
1.00531 0.995025 0.991256
1.00538 0.996158 0.989716
1.0053 0.994872 0.991031
1.0055 1.00389 0.982321
1.00548 0.995362 0.990128
1.00556 0.99993 0.985838
1.00568 0.996242 0.988952
1.00122 1.00241 0.990879
1.00287 1.00521 0.986158
1.00352 1.00502 0.983332
1.00278 1.00273 0.987364
1.00305 1.00244 0.987777
1.00524 0.994917 0.991184
1.00542 0.994844 0.99068
1.0054 0.994851 0.990629
1.0053 1.00319 0.983417
1.00551 0.995162 0.99013
1.00535 0.999256 0.986555
1.00148 1.005 0.987918
1.00056 1.0051 0.989169
1.00039 1.00393 0.990766
1.00051 1.00466 0.989434
1.00036 1.00133 0.994131
1.00057 1.00208 0.992466
1.00055 0.999162 0.995603
1.00038 0.999927 0.997786
1.00047 1.00048 0.997558
1.0005 1.00291 0.991069
1.00025 1.0011 0.99737
1.00159 1.0035 0.988862
1.00148 1.002 0.996147
1.00268 1.0037 0.986599
1.00234 1.00187 0.995762
1.00533 0.99809 0.988486
1.00528 0.99744 0.98933
1.00531 0.994953 0.991722
1.00533 0.994952 0.991927
1.00529 0.997297 0.989492
1.00335 0.999504 0.989908
1.0053 0.997308 0.989464
1.00533 0.994955 0.991961
1.00531 0.994954 0.99185
1.00525 0.994926 0.991776
1.00532 0.994926 0.99154
1.00524 0.994932 0.991566
1.00533 0.994954 0.991965
1.00523 0.994931 0.991837
1.00525 0.994924 0.991719
1.00533 0.994901 0.991652
1.00523 0.994935 0.991343
1.0053 0.994913 0.99135
1.0053 0.996999 0.989873
1.0053 0.997492 0.989543
1.00533 0.995345 0.991322
1.00533 0.995479 0.991116
1.00346 1.00358 0.985283
1.00547 1.00448 0.981358
1.00544 0.999898 0.985671
1.00528 0.995974 0.990442
1.0052 0.994937 0.99137
1.00535 0.994857 0.991025
1.00538 0.995192 0.990475
1.00537 0.994777 0.990784
1.00454 1.00524 0.981779
1.00415 1.00537 0.982424
1.00221 1.00479 0.986322
1.00533 0.995139 0.991698
1.00533 0.995389 0.991185
1.00524 0.994925 0.991814
1.00523 0.994931 0.991565
1.00523 1.00506 0.981057
1.00555 1.0014 0.9843
1.00546 0.996724 0.98847
1.00523 0.994918 0.991257
1.00535 0.994896 0.991072
1.0054 0.994843 0.990692
1.00536 0.994858 0.990822
1.00542 0.994776 0.990636
1.00522 1.00484 0.981625
1.00509 1.00477 0.982225
1.00228 1.00403 0.987224
1.0036 1.00465 0.984
1.00524 0.994932 0.991838
1.00525 0.99492 0.991709
1.00533 0.994911 0.991652
1.00535 0.994887 0.991215
1.00534 0.994891 0.990862
1.00538 0.994856 0.990922
1.00551 1.00306 0.98271
1.00539 0.994813 0.990632
1.00551 0.998888 0.986241
1.00548 0.995761 0.989349
1.00546 0.994757 0.990629
1.00541 0.994781 0.990573
1.00289 1.00339 0.986562
1.00251 1.00527 0.984364
1.00504 1.00442 0.982484
1.00496 1.00521 0.983511
1.00499 1.004 0.983351
1.00111 1.00313 0.989642
1.00532 0.994993 0.991287
1.00343 1.00427 0.985446
1.00396 1.00397 0.984545
1.00405 1.00233 0.987047
1.00541 0.996077 0.989741
1.00528 0.99487 0.991051
1.0055 1.0036 0.982171
1.00555 0.999816 0.98581
1.00548 0.995527 0.990019
1.00573 0.996328 0.989134
1.00097 1.00256 0.990903
1.00224 1.00523 0.986053
1.00429 1.00445 0.983338
1.00302 1.00306 0.987274
1.00362 1.0019 0.986945
1.00524 0.99492 0.991184
1.00541 0.994842 0.990715
1.00539 0.994849 0.990636
1.00522 1.0033 0.983461
1.00555 0.99518 0.990037
1.00528 0.99955 0.986957
1.00205 1.00509 0.986908
1.00321 1.00517 0.985668
1.00389 1.00471 0.98423
1.00355 1.00264 0.986441
1.00462 1.00316 0.985427
1.00536 0.994862 0.990861
1.00543 0.994822 0.990459
1.0054 0.994753 0.990488
1.00513 1.00206 0.984186
1.00528 0.998083 0.987784
1.00129 1.00503 0.987952
1.00123 1.00512 0.98743
0.999725 1.0051 0.989297
0.999961 1.00512 0.991155
1.00022 1.00491 0.990565
0.999962 1.00356 0.991583
1.00004 1.00415 0.990792
1.00018 1.00068 0.994904
1.00028 1.00482 0.989448
1.00032 1.00121 0.99427
1.00035 0.998219 0.996508
1.00051 1.00213 0.993169
1.00031 0.999335 0.996867
1.00024 0.999873 0.997877
1.00033 1.00273 0.991776
1.00072 1.00251 0.99112
1.00007 1.00039 0.997907
1.00078 1.00127 0.996908
1.00198 1.00317 0.988797
1.00166 1.00224 0.996022
1.00531 0.994924 0.991558
1.00532 0.994954 0.991853
1.00525 0.994932 0.991564
1.00524 0.994924 0.991777
1.00533 0.994955 0.991959
1.0053 0.99731 0.989467
1.00533 0.994954 0.991963
1.00523 0.994931 0.991844
1.00525 0.994923 0.991717
1.00533 0.994897 0.991645
1.00524 0.994936 0.991338
1.00531 0.994909 0.991367
1.00523 0.994932 0.991859
1.00531 0.994911 0.991755
1.00532 0.994893 0.991574
1.00533 0.994888 0.991667
1.00532 0.994906 0.991137
1.0053 0.99489 0.99134
1.00533 0.99495 0.991945
1.00533 0.995367 0.991191
1.00524 0.994923 0.991765
1.00523 0.994934 0.991632
1.00512 1.00504 0.981128
1.00553 1.00162 0.984366
1.00548 0.996909 0.988061
1.00524 0.994926 0.991321
1.00535 0.994888 0.991039
1.00536 0.994858 0.990821
1.00539 0.994777 0.990695
1.00543 0.994786 0.990622
1.00515 1.00495 0.981701
1.00514 1.00459 0.982401
1.00263 1.00449 0.987293
1.00384 1.00434 0.9842
1.00523 0.994932 0.99184
1.00525 0.994918 0.991723
1.00533 0.994911 0.991632
1.00535 0.994889 0.991208
1.00548 1.0033 0.982786
1.00558 0.998881 0.986071
1.00548 0.995737 0.989355
1.00534 0.994898 0.990899
1.00538 0.994849 0.99092
1.00547 0.99473 0.990633
1.00539 0.994814 0.990627
1.0054 0.99478 0.990606
1.0052 1.00439 0.982443
1.00482 1.0043 0.983439
1.00414 1.00478 0.983597
1.00247 1.004 0.986662
1.00304 1.00526 0.984328
1.00532 0.9949 0.991725
1.00534 0.994892 0.991511
1.00537 0.994845 0.991004
1.00539 0.994832 0.990718
1.00542 1.00233 0.983864
1.0054 0.99473 0.990393
1.00555 0.997984 0.98632
1.0055 0.99542 0.989474
1.00546 0.99474 0.990483
1.00117 1.00511 0.987505
1.00394 1.0052 0.984982
1.00186 1.00528 0.986026
1.00496 1.00446 0.983416
1.00477 1.00332 0.985463
1.00489 1.00357 0.983712
1.00072 1.00275 0.990925
1.00233 1.00523 0.985952
1.00523 0.994922 0.991185
1.00255 1.00295 0.987196
1.00524 1.00449 0.983339
1.00411 1.00172 0.986113
1.00539 0.994841 0.990751
1.00538 0.994847 0.990643
1.0053 1.00351 0.983501
1.00529 0.999829 0.987354
1.00559 0.995192 0.989944
1.00206 1.00511 0.986897
1.0027 1.00522 0.985667
1.00431 1.00462 0.983545
1.00371 1.00225 0.986558
1.00458 1.00211 0.985301
1.00537 0.994863 0.990852
1.00544 0.994826 0.990438
1.00542 0.994747 0.990506
1.0051 1.00225 0.984486
1.00528 0.998284 0.987574
1.00286 1.00516 0.985596
1.00098 1.00527 0.986152
1.00482 1.00316 0.984395
1.00275 1.00264 0.985118
1.00535 1.00096 0.985525
1.00539 0.994791 0.99061
1.00548 0.995451 0.989522
1.00543 0.994735 0.990011
1.00511 1.00127 0.985699
1.0051 0.999247 0.986991
1.00123 1.00502 0.987988
1.00174 1.00508 0.987189
0.999108 1.00464 0.990908
0.999419 1.00508 0.989394
0.999651 1.00503 0.99054
0.998888 1.00463 0.991611
0.998395 1.0041 0.993663
0.998618 1.00513 0.991975
0.999529 1.00484 0.991171
1.00003 1.00321 0.991731
0.999857 1.00356 0.991566
1.00003 1.00036 0.995338
0.999677 1.00422 0.990814
1.00014 1.0006 0.994974
1.00021 0.997972 0.996926
1.00029 1.00101 0.994411
1.00025 0.99844 0.996447
0.999995 0.999425 0.99816
1.00011 1.00221 0.992536
1.00058 1.00225 0.991802
0.999798 0.999868 0.998178
1.00121 1.00212 0.991159
1.00021 1.0003 0.997777
1.00114 1.00148 0.996521
1.00524 0.994938 0.991333
1.00525 0.994923 0.991716
1.00531 0.994905 0.991384
1.00533 0.994894 0.991639
1.00523 0.994931 0.991851
1.00533 0.994954 0.991961
1.00523 0.994934 0.991865
1.00531 0.994912 0.991749
1.00532 0.994896 0.991581
1.00532 0.994885 0.991647
1.00533 0.994905 0.991132
1.0053 0.994883 0.991355
1.00531 0.994904 0.99177
1.00533 0.994883 0.991734
1.00531 0.994861 0.991621
1.00536 0.994872 0.990967
1.00523 0.994932 0.991841
1.00525 0.994916 0.991737
1.00533 0.99491 0.991612
1.00535 0.99489 0.991202
1.00552 1.00347 0.982868
1.00565 0.998868 0.985897
1.00547 0.995712 0.989358
1.00535 0.994906 0.990935
1.00538 0.994842 0.990918
1.00539 0.994815 0.990622
1.00548 0.994704 0.990637
1.00539 0.994779 0.99064
1.00522 1.0046 0.982401
1.00442 1.00459 0.983526
1.00396 1.00431 0.983695
1.0021 1.00455 0.986786
1.00356 1.00527 0.984326
1.00532 0.994901 0.991711
1.00534 0.994893 0.991507
1.00538 0.994846 0.991009
1.00544 1.00235 0.983877
1.00552 0.998163 0.986286
1.00551 0.995284 0.989509
1.00539 0.994837 0.99074
1.00544 0.994723 0.990535
1.00542 0.994735 0.990411
1.001 1.005 0.987765
1.00462 1.00428 0.983433
1.00508 1.00378 0.98329
1.00436 1.00299 0.985292
1.00273 1.0048 0.985605
1.00317 1.00521 0.985044
1.00534 0.994877 0.991669
1.00538 0.994849 0.991322
1.00541 0.994798 0.990782
1.00541 0.994772 0.990475
1.00526 1.00171 0.984494
1.00541 0.99471 0.990236
1.00547 0.997876 0.987175
1.00545 0.995018 0.989606
1.0004 1.00415 0.989231
1.00227 1.00514 0.986785
1.00331 1.0052 0.98599
1.00081 1.00232 0.99093
1.00488 1.00421 0.98367
1.00478 1.00334 0.984023
1.00158 1.0052 0.98689
1.00247 1.00514 0.985655
1.00538 0.994864 0.990844
1.00393 1.00144 0.986678
1.00485 1.00447 0.982867
1.00426 1.00259 0.985166
1.00545 0.994829 0.990415
1.00544 0.99474 0.990523
1.00507 1.00237 0.984784
1.0052 0.998542 0.987365
1.00278 1.00511 0.985658
1.00279 1.0052 0.985806
1.00457 1.00328 0.984228
1.00421 1.00347 0.984633
1.00533 1.00197 0.985405
1.00539 0.994791 0.990626
1.00547 0.995248 0.989818
1.00541 0.994744 0.990301
1.00516 1.00113 0.985551
1.00509 0.999826 0.986483
0.999884 1.00495 0.988502
1.00043 1.00501 0.987849
1.00506 1.00106 0.985843
1.00495 1.00261 0.985311
1.00544 0.994794 0.990627
1.00538 0.994657 0.99046
1.00524 0.997466 0.988098
1.00516 1.00039 0.985793
1.00263 1.00507 0.986963
0.999494 1.00498 0.990559
0.996776 1.005 0.994514
0.999149 1.0051 0.990524
0.997108 1.00506 0.992056
0.999586 1.0047 0.991084
0.997724 1.00482 0.994029
0.998748 1.00511 0.992009
0.998402 1.00238 0.996167
0.997873 1.0051 0.993311
0.998492 1.00511 0.991657
1.00004 1.00464 0.990592
1.00001 1.00345 0.991518
0.999912 1.00337 0.99169
0.999891 1.00015 0.995668
0.99964 1.00381 0.99155
1 1.00034 0.995381
1.00006 0.997978 0.997169
1.00009 1.00056 0.995039
1.00017 0.998085 0.996892
1.0001 0.998659 0.996373
1.00031 1.00114 0.993345
1.00015 1.00215 0.99246
0.999925 0.998948 0.998402
1.00044 1.00192 0.991831
0.999983 1.00007 0.998068
1.00054 1.00014 0.997525
1.00534 0.994904 0.991127
1.00531 0.9949 0.991587
1.0053 0.994876 0.99137
1.00531 0.994881 0.991627
1.00531 0.994913 0.991744
1.00523 0.994937 0.991871
1.00531 0.994904 0.991771
1.00533 0.994884 0.991725
1.00532 0.994862 0.991565
1.00534 0.99487 0.991028
1.00533 0.994874 0.991755
1.00536 0.994843 0.991649
1.00535 0.994832 0.991322
1.00532 0.994903 0.991697
1.00535 0.994895 0.991503
1.00538 0.994849 0.991014
1.00544 1.00236 0.983892
1.00553 0.998351 0.986258
1.00552 0.995126 0.989543
1.00538 0.994841 0.99076
1.00543 0.994743 0.990429
1.00542 0.994705 0.990593
1.00463 1.00406 0.983454
1.00487 1.00407 0.982871
1.00338 1.00318 0.985122
1.00106 1.0049 0.988026
1.00399 1.00447 0.985154
1.00218 1.0052 0.985085
1.00534 0.99488 0.991689
1.00538 0.994848 0.991294
1.0054 0.994808 0.990802
1.0053 1.00172 0.984469
1.00545 0.997686 0.987112
1.00547 0.994892 0.989748
1.00541 0.99476 0.990442
1.00543 0.994715 0.990235
1.00026 1.00461 0.989489
1.00188 1.00514 0.986757
1.00473 1.00364 0.98349
1.00439 1.00307 0.984141
1.0019 1.00291 0.989518
1.0023 1.00523 0.986488
1.00539 0.994833 0.991561
1.00543 0.994831 0.990937
1.0054 0.994723 0.990543
1.00541 0.994711 0.990169
1.0047 1.00119 0.985983
1.00537 0.994717 0.990309
1.00469 0.997551 0.988422
1.00009 1.00442 0.990303
1.00076 1.00319 0.990659
0.999924 1.00511 0.988538
1.00179 1.00515 0.987412
1.00135 1.00461 0.990052
1.00301 1.0027 0.98663
1.00445 1.0037 0.984745
1.00337 1.00528 0.985631
1.00274 1.00519 0.985724
1.00309 1.00527 0.985458
1.0054 0.994792 0.990642
1.00523 1.00238 0.984157
1.00466 1.00337 0.984064
1.0053 1.00229 0.985295
1.00546 0.995031 0.990116
1.0054 0.994756 0.990589
1.00519 1.00092 0.985404
1.00506 1.00034 0.985974
1.00092 1.00397 0.988116
1.00115 1.00478 0.987203
1.00503 1.00116 0.985568
1.0049 1.00247 0.985228
1.00542 0.994801 0.990638
1.0054 0.994675 0.990463
1.00522 0.997387 0.988129
1.00511 1.00054 0.985822
0.998976 1.0037 0.99196
1.00549 0.994718 0.991104
1.00258 1.00339 0.988702
1.00464 1.00155 0.985583
1.00538 0.9947 0.990761
1.00524 0.996382 0.988327
1.00508 1.00083 0.986001
1.00024 1.00479 0.990224
0.997478 1.00471 0.994622
0.996332 1.0029 0.996981
0.999254 1.00467 0.990991
0.99863 1.00509 0.992035
0.996558 1.0051 0.994405
0.999865 1.00458 0.990562
0.998641 1.00509 0.991802
0.996474 1.00353 0.996457
0.998206 1.00487 0.993098
0.996604 1.00332 0.997677
0.996148 1.00506 0.995883
0.99886 1.00462 0.992759
1.00027 1.00493 0.989714
1.00023 1.00477 0.989906
0.999977 1.00345 0.99151
0.999903 1.00356 0.991492
0.999784 1.00018 0.995829
0.99979 1.00355 0.991652
0.999926 1.00014 0.995682
0.999944 0.997975 0.997423
0.999996 1.00023 0.995434
1.00009 0.997977 0.997144
1.00014 0.998195 0.99685
1.00044 1.00376 0.990479
0.999984 1.00101 0.993789
1.00016 1.00126 0.993307
1.00004 0.998793 0.998517
1.00019 1.00199 0.992387
0.999895 0.999407 0.998333
1.00019 0.999885 0.998002
1.00533 0.994866 0.991089
1.00533 0.994864 0.991508
1.00532 0.994884 0.991715
1.00531 0.994903 0.991772
1.00533 0.994871 0.991766
1.00536 0.994844 0.991628
1.00535 0.99483 0.991261
1.00538 0.994833 0.991612
1.00538 0.99477 0.991667
1.00566 0.994619 0.991568
1.00534 0.994883 0.99171
1.00538 0.994845 0.991267
1.00539 0.994815 0.990823
1.00518 1.00175 0.984446
1.0054 0.997646 0.987056
1.00549 0.994828 0.989883
1.00542 0.994746 0.990409
1.00546 0.994717 0.990231
1.00497 1.00342 0.983304
1.00385 1.0026 0.984216
1.00245 1.00405 0.988115
1.00049 1.00467 0.989748
1.00166 1.00514 0.986724
1.0013 1.00524 0.986993
1.00539 0.994829 0.991554
1.00075 1.00362 0.990259
1.00018 1.00409 0.990568
1.00544 0.994818 0.990936
1.00542 0.994738 0.990573
1.00478 1.00135 0.985707
1.00525 0.997143 0.988642
1.00534 0.994734 0.990286
1.00541 0.994704 0.990098
1.00056 1.00512 0.988646
1.00155 1.00514 0.987351
1.00416 1.00425 0.984208
1.00351 1.00509 0.984595
1.00341 1.0033 0.986348
1.00063 1.0031 0.991025
1.00547 0.994744 0.99147
1.00541 0.995081 0.990571
1.00539 0.994649 0.990539
1.00529 0.994712 0.98994
1.00354 1.0011 0.987188
1.00518 0.995854 0.990092
1.00034 1.00445 0.990062
0.999662 1.00386 0.990475
1.00002 1.00498 0.990778
1.00053 1.00515 0.988758
1.00133 1.00343 0.990116
1.00203 1.00079 0.99027
1.00231 1.00526 0.985834
1.00222 1.00238 0.989864
1.00122 1.0049 0.987745
1.0036 1.00519 0.986553
1.0054 0.994808 0.990647
1.00542 0.994694 0.990466
1.00484 1.00306 0.985147
1.00475 1.00138 0.98528
1.00522 0.997316 0.988161
1.00507 1.0007 0.985853
0.99896 1.00445 0.991898
1.00551 0.994711 0.991221
1.00192 1.00403 0.989189
1.00447 1.00152 0.985475
1.00539 0.994685 0.990819
1.00522 0.996478 0.98857
1.00503 1.00059 0.985895
0.997968 1.00451 0.994266
1.00497 0.994666 0.990271
1.00176 1.00298 0.988406
1.00432 1.00308 0.984112
1.00482 0.99479 0.991883
1.00448 0.999897 0.987071
0.998136 0.994695 0.980811
0.997186 1.00512 0.994703
0.996897 1.00289 0.997025
0.996042 1.00322 0.99789
0.999853 1.00446 0.99053
0.998265 1.00508 0.991959
0.999077 1.00459 0.992894
0.995356 1.00383 0.996765
1.00019 1.00463 0.989945
0.999741 1.00501 0.990276
0.996322 1.00239 0.998338
0.998101 1.00493 0.992699
0.996582 1.00484 0.995463
0.994886 1.00521 0.997918
0.997938 1.00514 0.993449
0.998633 1.00465 0.992583
1.00007 1.00478 0.990322
0.999904 1.00489 0.989814
0.999626 1.00434 0.991726
0.999962 1.00433 0.990411
0.999887 1.00333 0.991664
0.999934 1.0035 0.991497
0.999674 1.00011 0.995251
0.999921 1.00345 0.991471
0.99978 1.00015 0.995457
0.999962 0.997909 0.998938
0.999926 1.00012 0.995706
0.999962 0.997914 0.997404
1.00011 0.997979 0.99711
1.00004 1.00338 0.991366
1.00068 1.00346 0.990548
1.00016 1.00032 0.994322
1.00014 1.00089 0.994261
0.999979 0.998326 0.998669
1.00001 1.00164 0.993267
0.999968 0.998611 0.998505
0.999945 0.999785 0.998193
1.00535 0.994829 0.991201
1.00535 0.994845 0.991607
1.00533 0.994869 0.991776
1.00537 0.994832 0.991615
1.00539 0.994775 0.991598
1.00569 0.994637 0.991542
1.00553 0.994732 0.991628
1.00001 0.994663 0.979484
1.0055 0.994595 0.989567
1.00021 1.00423 0.990276
1.00539 0.994826 0.991547
1.00544 0.994809 0.990935
1.00543 0.994755 0.990602
1.00495 1.00143 0.98542
1.0053 0.996254 0.988846
1.0053 0.994738 0.990249
1.00539 0.994694 0.990025
1.00431 1.00437 0.983745
1.00415 1.00483 0.983647
1.00313 1.00272 0.986055
1.00105 1.00317 0.990221
1.00025 1.00269 0.991972
1.00134 1.0051 0.988726
1.00119 1.00512 0.987286
1.00015 1.00444 0.990473
1.00546 0.994763 0.991477
1.00054 1.00427 0.989935
1.00046 1.00407 0.990449
0.999441 1.00467 0.99126
1.0054 0.994884 0.990598
1.00539 0.994647 0.990501
1.0037 1.00209 0.987222
1.0049 0.995622 0.990139
1.0053 0.994702 0.989961
1.00046 1.00511 0.988811
1.00147 1.00328 0.990388
1.003 1.00282 0.98905
1.0028 1.00492 0.985459
1.0028 0.999951 0.990766
1.00546 0.994698 0.99096
1.00534 0.994762 0.99073
1.00524 0.994627 0.990618
1.00459 0.997405 0.989718
1.00369 1.00038 0.98865
0.99946 1.00331 0.992961
0.999562 1.00513 0.989845
0.998319 1.00376 0.993335
1.00054 1.0028 0.992545
1.00114 0.998882 0.994278
1.00051 1.00133 0.991783
1.00128 1.00132 0.992562
1.00117 1.00363 0.991796
1.00031 1.00432 0.989674
1.00553 0.994695 0.991333
1.00541 0.994673 0.990863
1.0052 0.996573 0.988816
1.00431 1.00167 0.985368
1.00498 1.00035 0.985795
0.998077 1.005 0.995161
1.00445 0.994659 0.990348
1.00232 1.00288 0.988113
1.00461 1.00281 0.984089
1.00462 0.994763 0.991975
1.00459 0.999804 0.987107
0.998052 0.994645 0.978956
0.997462 1.00506 0.994272
1.00286 0.994543 0.990755
1.00258 1.0042 0.985782
1.00415 1.00166 0.986041
1.00354 0.996756 0.993558
0.999544 0.994921 0.932934
0.994816 0.994651 0.955399
0.997302 0.994563 0.983184
0.994804 0.998978 0.84033
0.994806 1.00056 0.802244
0.997841 1.00315 0.997076
0.996456 1.00311 0.997913
0.995167 1.00525 0.998443
1.00024 1.00464 0.989991
0.999482 1.00506 0.990839
0.998035 1.00502 0.992626
0.99681 1.00474 0.995038
0.995772 1.00208 0.998974
0.998503 1.00449 0.992998
1.0002 1.00481 0.989754
1.00002 1.00496 0.990135
0.995212 1.005 0.997779
0.997489 1.00498 0.993988
0.997466 1.00479 0.994582
0.99571 1.00524 0.99668
0.998057 1.00501 0.993386
0.999476 1.00504 0.99042
1.00018 1.00472 0.989645
0.998944 1.00461 0.991447
0.997166 1.00465 0.994765
0.997919 1.00491 0.992913
0.999215 1.0045 0.992164
0.999825 1.0041 0.991104
0.999789 1.00436 0.990308
0.999939 1.00315 0.991884
0.999962 1.00331 0.991691
0.999641 1.00002 0.995401
0.999843 1.00368 0.991481
0.999659 1.00014 0.99526
0.999932 0.997867 0.99898
0.999771 1.00016 0.995095
0.999904 0.99791 0.998222
1.00004 0.997862 0.99738
0.999908 1.00283 0.99224
1.00019 1.00321 0.991405
1.00006 0.999929 0.994896
1.00087 1.00311 0.990614
1.00012 1.00039 0.994755
1.00002 0.998028 0.998788
1.00033 1.00052 0.993728
1.00002 0.998547 0.998601
0.999928 0.998934 0.998497
1.0054 0.994778 0.991529
1.00537 0.994831 0.991618
1.00572 0.994659 0.991538
0.998928 0.994676 0.979101
1.00554 0.994721 0.991618
1.00551 0.994629 0.989631
1.00551 0.994598 0.991238
0.994834 0.994761 0.959206
1.00504 0.994649 0.97445
1.00031 1.00405 0.99048
1.00042 1.0041 0.990301
0.998598 1.00356 0.993457
1.00087 1.00439 0.989473
1.00546 0.994782 0.991483
1.00539 0.994789 0.990627
1.00539 0.994649 0.990463
1.00386 1.00202 0.987264
1.00511 0.995762 0.990221
1.00532 0.994703 0.990002
1.0026 1.00314 0.988162
1.00379 1.00499 0.985078
1.00274 0.998406 0.991306
1.00057 1.00479 0.990438
1.00057 1.00257 0.990717
1.00045 1.00517 0.988864
1.00071 1.00405 0.989799
0.998798 1.00493 0.991843
1.00549 0.994721 0.990952
0.999182 1.00371 0.99236
0.999758 1.00505 0.990016
0.996485 1.00492 0.995317
1.00534 0.994778 0.990712
1.00523 0.994625 0.990595
1.00402 0.998903 0.988854
1.0044 0.997394 0.989823
1.00099 1.00223 0.991834
0.999858 0.999872 0.993624
1.00095 1.00175 0.992524
1.00228 1.00135 0.990765
1.00365 0.996416 0.989645
1.00513 0.994502 0.991281
1.00386 0.998846 0.989829
1.00437 0.9988 0.989782
0.996092 1.00445 0.996565
1.00069 1.00248 0.991097
0.997601 0.998719 1.0006
0.997917 1.00504 0.992955
0.999219 0.997434 0.914988
0.998203 1.00477 0.996084
1.00222 1.00329 0.98781
1.00373 0.994682 0.990466
1.0044 0.994737 0.992053
1.0046 0.999661 0.987119
1.00481 1.00256 0.984062
0.997821 0.994608 0.976609
0.998132 1.00428 0.994509
1.00251 0.994563 0.990763
1.00286 1.0042 0.985795
1.00431 1.00161 0.986239
1.0033 0.996994 0.993502
0.997983 0.995004 0.918339
0.994939 0.994688 0.951804
0.996897 0.994598 0.983586
0.996041 0.99833 0.848675
0.994871 1.00113 0.801185
0.998042 1.00445 0.993685
0.997389 0.995972 0.85298
0.994893 0.99993 0.80101
1.00137 0.994702 0.994545
1.00183 1.00335 0.988927
1.00171 1.00019 0.992979
0.995344 0.995053 0.986669
0.997404 0.994635 0.928214
0.995119 0.994678 0.945117
0.994749 0.999726 0.849925
0.994838 0.996542 0.778767
0.996963 1.00282 0.997944
0.99497 1.00529 0.998309
0.995089 1.00506 0.999688
1.00049 1.00447 0.989685
0.999868 1.00505 0.989942
0.997688 1.00472 0.993421
0.997085 1.005 0.994517
0.995521 1.00455 0.997637
1.00024 1.00482 0.989601
0.997305 1.00462 0.994901
0.998029 1.00499 0.992893
0.999899 1.00494 0.990295
0.995509 1.00523 0.997014
0.995898 1.00524 0.996337
0.994904 1.00508 0.997978
0.998451 1.00511 0.992041
1.00024 1.00489 0.989748
0.999764 1.00421 0.991354
0.99716 1.00436 0.995097
0.997415 1.00383 0.994887
0.997461 1.00476 0.994678
0.995681 1.00484 0.99734
0.998252 1.00256 0.994675
0.996798 1.00515 0.99349
0.998188 1.00493 0.992909
0.998985 1.00459 0.991008
0.998873 1.00445 0.992603
0.999823 1.00434 0.991065
1.00003 1.00316 0.991825
1.00004 1.00449 0.990199
0.999949 1.00308 0.991925
0.999858 0.999905 0.995994
0.999736 1.00361 0.991719
0.999733 0.999954 0.995701
0.999917 0.997769 0.9977
0.999656 1.00012 0.995258
0.99992 0.9979 0.998992
0.999897 0.997986 0.997499
1.00057 1.00435 0.989988
0.999784 1.00275 0.992447
0.99998 1.00272 0.992226
0.999979 0.999558 0.995363
1.0003 1.00317 0.991445
1.00009 0.999921 0.994866
1.00001 0.997748 0.99891
1.00008 1.00058 0.995102
0.999983 0.99812 0.997897
0.99998 0.99841 0.996749
0.998135 0.994677 0.978702
1.00555 0.994716 0.991609
1.00552 0.994584 0.989681
0.995827 0.994803 0.958918
1.00482 0.994622 0.974299
1.00552 0.994574 0.991365
1.00447 0.994505 0.983716
0.999787 0.994714 0.955381
0.997423 0.99539 0.930905
0.995885 0.997398 0.8656
0.994927 1.00167 0.802019
0.999419 1.00413 0.991431
1.0002 1.00415 0.990573
1.00067 1.00399 0.99033
0.998688 1.00368 0.993339
0.997418 1.00451 0.994749
1.00008 1.00475 0.990486
1.00016 1.00506 0.989211
1.00052 1.00445 0.989715
1.00551 0.994744 0.990941
1.00534 0.994689 0.990694
1.00522 0.994624 0.990569
1.00431 0.998812 0.989045
1.00431 0.997374 0.989915
1.00088 1.0015 0.992472
1.00406 1.00101 0.989776
1.00144 1.00074 0.992956
1.00012 1.00463 0.990132
1.00149 1.00202 0.991047
0.998797 1.00455 0.991772
0.995047 1.00512 0.996988
1.00421 0.995436 0.990104
0.996184 1.00472 0.996266
1.00004 1.00243 0.992646
1.00484 0.994531 0.99126
1.0039 0.999111 0.989638
1.0038 0.998953 0.989792
0.998484 0.999858 0.997744
0.999256 1.00362 0.99329
1.00215 0.996023 0.988153
1.00259 0.999307 0.99102
1.00375 1.00109 0.989518
1.00181 0.999191 0.993296
0.997871 1.00483 0.994287
0.996067 1.00227 0.99786
0.997492 1.00299 0.996351
0.999731 0.999934 0.844604
1.00034 0.994895 0.931763
0.999168 1.00271 0.994749
1.00337 1.004 0.985822
1.00212 0.994589 0.990767
1.00312 0.997036 0.993468
1.0043 1.00146 0.986469
0.999958 0.994824 0.929908
0.995238 0.994693 0.951279
0.996526 0.994639 0.98427
0.994787 0.999168 0.86571
0.994863 1.00069 0.799754
0.998647 1.00409 0.993762
0.998944 0.997803 0.850372
0.99484 0.99927 0.795652
1.0008 0.994769 0.99438
1.00162 1.00354 0.988964
1.00172 1.00016 0.99411
0.995951 0.996097 0.987888
0.994859 0.994639 0.921243
0.995328 0.994667 0.947209
0.994798 0.999322 0.856458
0.994862 0.996948 0.775721
0.996838 1.00519 0.996878
0.994809 0.995596 0.7892
0.994745 0.99473 0.765007
0.997085 0.999891 0.996853
0.999026 1.0027 0.997515
0.994904 0.997617 0.986107
0.995233 0.994747 0.953382
0.994889 0.994538 0.907731
0.994828 0.997387 0.860781
0.9949 0.994904 0.796249
0.995197 1.00528 0.998192
0.995009 1.00484 0.999814
0.994775 1.00524 0.999695
1.00032 1.00479 0.989551
1.00021 1.00504 0.990171
0.998194 1.005 0.992395
0.997159 1.00398 0.995219
0.995417 1.00522 0.997359
1.00031 1.00501 0.989665
0.996204 1.00511 0.995863
0.998665 1.00512 0.99207
0.99498 1.00509 0.998061
0.994842 1.00519 0.998431
0.996123 1.00512 0.995798
0.999937 1.00501 0.99161
1.00032 1.00375 0.99126
0.997091 1.00397 0.995425
0.997987 1.00331 0.994928
0.99761 1.0041 0.994637
0.995923 1.00489 0.996201
0.998401 1.00279 0.9951
0.995477 1.00453 0.996481
0.997118 1.00336 0.997408
0.999232 1.0044 0.991925
1.00516 1.00212 0.986524
0.997498 1.00447 0.991734
0.998238 1.00281 0.994708
0.998563 1.00525 0.991024
0.997847 1.00523 0.993591
0.99947 1.00472 0.990225
0.998943 1.00515 0.992903
0.999463 1.00462 0.991094
0.999517 1.00385 0.991481
0.999877 1.00462 0.99102
0.999914 1.00317 0.991853
0.999964 0.999964 0.995735
1.00007 1.00286 0.991962
0.999843 0.999892 0.995626
1.00005 0.997533 0.997594
0.999707 0.999995 0.995382
0.999967 0.997703 0.999027
0.999917 0.997835 0.999008
1.00074 1.00475 0.98959
0.999863 1.00301 0.992129
1.00053 1.00428 0.989977
0.999979 0.999434 0.995523
1.00001 1.0025 0.992433
1.00017 1.00246 0.992214
1.00001 0.99956 0.99535
0.999999 0.997511 0.999009
1.00009 0.999994 0.995604
1.00003 0.997814 0.998075
1.00002 0.998124 0.997125
0.999319 0.999871 0.834772
0.99484 0.998249 0.783512
0.995171 0.994844 0.959866
1.00468 0.994596 0.97445
1.00555 0.994584 0.991474
1.00287 0.994722 0.952371
1.00339 0.994555 0.984552
0.99928 0.995124 0.926862
0.994773 0.997913 0.845032
0.994899 1.00156 0.801497
0.999153 0.994643 0.966079
0.994822 0.994658 0.931759
0.994749 0.99975 0.850995
0.995285 0.998012 0.79268
0.999939 1.00434 0.992176
1.00009 1.00404 0.990925
1.00012 1.00412 0.990676
0.998699 1.00341 0.993234
0.996846 1.00388 0.995747
1.00054 1.00499 0.989512
0.999267 1.00495 0.991078
1.00122 1.00513 0.987814
1.00044 1.00502 0.989246
0.99954 1.00507 0.989968
1.00464 0.994725 0.990526
1.00469 0.994563 0.991232
1.00373 0.999236 0.989439
1.00299 0.999064 0.989805
0.999897 1.00306 0.993575
0.999311 1.001 0.994979
0.998949 1.00271 0.994431
0.99631 1.00473 0.995958
1.00202 0.995456 0.988887
0.997552 1.00489 0.99394
0.996049 1.00266 0.998617
1.00242 0.998884 0.991284
1.00374 1.00208 0.987579
1.001 0.999672 0.993803
0.997771 1.00341 0.995827
0.99909 0.994523 0.986537
1.00125 1.00161 0.992678
0.996971 1.00395 0.996234
0.998646 1.00506 0.992958
0.996116 1.00499 0.995824
0.994936 1.00519 0.998414
0.994828 0.994736 0.795182
0.999582 0.995942 0.856167
0.999773 0.997425 0.915427
0.998681 1.00395 0.993813
1.00174 1.0039 0.988943
1.00016 0.994862 0.994191
1.00149 0.999847 0.995258
0.998742 1.0003 0.864553
0.994914 0.994656 0.915959
0.994931 0.994612 0.945303
0.996458 0.997285 0.988865
0.994845 0.999338 0.839867
0.994785 0.997994 0.801312
0.995259 0.997386 0.790033
0.996945 1.00502 0.996548
0.994834 0.996728 0.793053
0.994765 0.994755 0.765031
0.997796 0.998311 0.997539
0.998695 1.00275 0.997343
0.994993 0.99658 0.98775
0.995477 0.994744 0.948674
0.995428 0.994553 0.921411
0.994822 0.997153 0.840205
0.995334 0.99489 0.804081
0.995682 1.00512 1.00096
0.994714 0.994748 0.771743
0.994815 0.994839 0.774702
0.994808 1.00186 1.00098
0.994884 0.996652 0.962312
0.994797 0.994734 0.920774
0.995276 0.994889 0.848601
0.995285 0.994903 0.827996
0.994893 1.00469 0.999916
0.994757 1.0052 0.999925
0.994736 1.00528 1.00033
1.00013 1.00505 0.989587
0.998968 1.00511 0.992098
0.996536 1.00499 0.995389
0.99501 1.00509 0.998146
0.999108 1.00501 0.991559
0.996301 1.00511 0.995682
0.994822 1.0052 0.99845
0.994729 1.0053 0.998954
0.995549 1.0051 0.997946
0.997489 1.00509 0.994426
0.998549 1.00286 0.994962
0.997343 1.0037 0.994619
0.996436 1.0051 0.995142
0.995885 1.0042 0.996607
0.99859 1.00202 0.995013
0.996307 1.0035 0.997416
0.99932 1.0032 0.99521
0.995486 1.00512 0.998243
1.00189 1.00079 0.991949
0.999253 1.00385 0.99276
1.00189 1.00328 0.987885
1.00505 1.00237 0.984774
1.00475 1.00157 0.987169
1.00457 1.00155 0.986697
0.999242 1.0041 0.991652
0.999076 1.00524 0.988774
0.998329 1.00311 0.994743
0.999358 1.00517 0.9911
1.00147 1.00486 0.988088
0.998584 1.00516 0.993685
0.999783 1.00482 0.990274
0.999986 1.00414 0.990314
1.0004 1.00451 0.991178
1.00011 1.00352 0.991487
1.00028 1.0003 0.995047
0.999966 1.00311 0.991887
0.999972 1.00006 0.995214
1.00017 0.997661 0.997348
0.999855 0.999823 0.995311
1.00005 0.997577 0.998316
0.999985 0.997671 0.99902
1.00057 1.00506 0.988557
1.00001 1.00344 0.991564
1.00038 1.00482 0.989419
0.999975 0.999612 0.99534
0.999823 1.00305 0.992156
1.00021 1.00433 0.989958
1 0.997487 0.999021
0.999966 0.999452 0.995522
0.999957 1.00261 0.992425
1.00004 0.999531 0.99534
1 0.997574 0.998982
1.00002 0.997824 0.998854
0.994787 0.994953 0.779146
0.998635 0.997722 0.849355
0.99483 0.994771 0.771193
0.994873 0.998206 0.785848
0.999548 0.995349 0.954199
1.0021 0.994597 0.985451
0.99852 0.994734 0.92169
0.994765 0.998286 0.863443
0.994889 0.999935 0.801312
0.998541 0.994708 0.964623
0.996022 0.994608 0.914746
0.994769 0.999327 0.857691
0.994869 0.997521 0.785938
0.994893 0.994709 0.958197
0.99481 0.994608 0.90465
0.994879 0.997222 0.83501
0.994868 0.994899 0.804212
0.99995 1.00495 0.990664
0.998715 1.00438 0.99227
1.0001 1.00409 0.990419
0.996122 1.00352 0.996678
1.00091 1.00512 0.988292
1.00025 1.00487 0.989727
0.998709 1.00484 0.991664
1.00189 1.00514 0.987281
1.00143 1.0051 0.987875
1.00058 1.00474 0.989275
1.00255 0.994619 0.98951
1.00207 0.998628 0.991562
1.00379 1.00343 0.98566
1.00045 0.999783 0.99432
0.99842 1.00526 0.995285
0.996624 1.00141 0.999389
0.998304 1.00478 0.993539
0.998811 1.00427 0.992935
0.999485 0.99563 0.987242
0.997036 1.00514 0.995468
0.996129 1.00364 0.998414
1.00074 1.00116 0.992549
0.99717 1.0038 0.996343
0.996999 0.997269 0.985642
0.997026 1.00295 0.997459
0.994752 1.00545 0.998472
0.996176 1.00505 0.996413
0.994896 1.00524 0.997969
0.994722 0.994736 0.775375
0.994843 0.994689 0.789716
0.999656 1.00186 0.834833
0.996996 1.00475 0.996279
0.998833 1.00307 0.9972
0.998781 0.997323 0.998172
0.994842 0.995594 0.786805
0.994818 0.994556 0.904774
0.994952 0.994729 0.950289
0.99519 0.995305 0.989809
0.994793 0.997199 0.856619
0.994818 0.994784 0.765701
0.996386 0.994879 0.806188
0.996034 1.00516 1.00075
0.994729 0.994779 0.770974
0.9948 0.994837 0.775779
0.994977 1.00239 0.99945
0.994871 0.995613 0.963975
0.995647 0.994752 0.904951
0.995834 0.994897 0.822256
0.99564 0.995038 0.858132
0.994759 1.00514 1.00222
0.994757 0.994827 0.759637
0.994866 0.994841 0.796453
0.994865 0.994884 0.80353
0.994781 1.00055 0.987036
0.994829 0.995574 0.928359
0.996974 0.994881 0.874399
0.994754 1.00515 1.00016
0.994898 1.00515 1.00014
0.994751 1.00522 0.999545
0.998365 1.00509 0.991523
0.996585 1.0051 0.995567
0.994752 1.00522 0.998484
0.99682 1.00508 0.994595
0.995366 1.00454 0.998074
0.994746 1.00529 0.998777
0.994817 1.00511 0.999605
0.995217 1.00509 0.998198
0.996128 1.00371 0.99677
0.998818 1.00114 0.994917
0.995513 1.00342 0.997326
0.99526 1.00482 0.998142
0.997934 1.00239 0.995392
1.00037 1.00113 0.99505
0.999514 1.00156 0.995179
1.00345 1.00198 0.987113
0.998923 1.00316 0.99358
1.00234 1.00296 0.987936
1.00492 1.00346 0.983965
1.00504 1.00226 0.984773
1.00496 1.00164 0.985586
1.00476 1.00237 0.984825
1.0035 1.00412 0.986443
1.00332 1.00267 0.987212
1.00397 1.00132 0.986866
1.00105 1.00367 0.991557
1.00055 1.00525 0.988097
1.00289 1.00524 0.9855
0.999872 1.00521 0.991177
1.00142 1.00524 0.988021
1.00117 1.00488 0.987624
1.00064 1.00509 0.990305
1.0004 1.00389 0.990258
1.00049 1.00061 0.994541
1.0003 1.00311 0.991487
1.00028 1.00035 0.994515
1.00039 0.99798 0.996694
0.999944 1.00019 0.994857
1.00015 0.997628 0.998193
1.00009 0.997543 0.998974
1.00158 1.00511 0.987148
1.00024 1.00379 0.990337
1.0009 1.00508 0.988555
1.00003 0.999961 0.994905
0.999998 1.00348 0.991316
1.00046 1.00496 0.989251
1.00001 0.997607 0.998969
0.999986 0.999578 0.995353
0.999961 1.00278 0.99218
0.999995 0.99749 0.999024
0.999961 0.999447 0.995521
1.00001 0.997586 0.998957
0.994776 0.994795 0.771308
0.994812 0.996382 0.79304
0.999551 0.996373 0.849466
1.00146 1.00516 0.987305
0.994776 0.9948 0.774719
0.994802 0.994792 0.771281
0.9949 0.999937 0.797967
0.997543 0.994642 0.964696
0.99482 0.99465 0.929993
0.99472 0.998869 0.840976
0.994851 0.997205 0.797291
0.995085 0.994699 0.954756
0.995122 0.99462 0.921467
0.994922 0.997229 0.84196
0.994985 0.995068 0.803855
0.994965 0.994687 0.948052
0.994822 0.994794 0.917261
0.996489 0.994898 0.860117
0.995016 0.994902 0.828218
0.997987 1.00455 0.993114
0.999163 1.00504 0.99115
0.998573 1.00399 0.992368
1.00185 1.00301 0.989153
1.00116 1.00514 0.988364
1.00012 1.00499 0.98994
1.00206 1.00514 0.987292
1.00157 1.00508 0.98794
0.999106 0.996819 0.987849
0.999925 1.0006 0.992357
0.997454 1.005 0.992919
0.997106 1.00386 0.996352
0.996542 1.00341 0.998381
0.996482 1.00522 0.995204
0.995978 1.00475 0.995977
0.996701 0.998611 0.985639
0.995386 1.00518 0.998065
0.994927 1.00544 0.998488
0.996398 1.00288 0.997619
0.994953 1.00523 0.996588
0.995767 1.00295 0.98304
0.994708 1.00375 0.999341
0.994733 1.00536 0.999336
0.995009 1.00477 0.997945
0.994723 0.994795 0.756656
0.994713 0.994732 0.771771
0.994852 0.994628 0.783933
0.996015 1.00526 1.00051
0.995043 1.00156 0.997888
0.99474 0.994808 0.77023
0.994762 0.994795 0.921155
0.994862 0.995183 0.959674
0.995715 0.994901 0.85798
0.994779 0.994835 0.776656
0.994894 0.994887 0.816252
0.994819 1.00523 1.002
0.994759 0.994824 0.760234
0.994878 0.994848 0.793603
0.994739 1.00118 0.990543
0.994888 0.994981 0.802995
0.994833 0.996747 0.92274
0.996429 0.995033 0.875018
0.994749 1.00451 0.996829
0.994832 0.99483 0.777652
0.994788 0.994811 0.777059
0.994872 0.997788 0.790608
0.996688 0.994892 0.86017
0.994797 1.00172 0.968585
0.994944 0.994889 0.915936
0.995128 1.00513 0.999995
0.994924 1.00532 0.999584
0.994715 1.00523 0.998459
0.996215 1.00509 0.994739
0.995321 1.00396 0.998203
0.994766 1.00528 0.998684
0.995316 1.00455 0.998103
0.994779 1.00516 0.999483
0.997109 1.00319 0.999557
0.995139 1.00484 0.998059
0.996586 1.00161 0.995636
0.999081 1.00126 0.995872
1.00123 1.00022 0.991504
0.996629 1.00252 0.997901
1.00267 1.00162 0.988118
1.00462 1.00486 0.982065
1.00463 1.00277 0.984601
1.00299 1.00265 0.987862
1.00498 1.00363 0.983161
1.00517 1.00177 0.984898
1.00505 1.00312 0.984252
1.00475 1.00236 0.984713
1.00455 1.00391 0.985793
1.00376 1.00244 0.985603
1.00436 1.00231 0.9849
1.0027 1.00525 0.985227
1.00246 1.00452 0.986363
1.00192 1.00358 0.987239
1.00151 1.0052 0.98743
1.00307 1.00505 0.985435
1.00238 1.00521 0.985419
1.00113 1.00518 0.987945
1.00155 1.00479 0.987615
1.00046 1.00163 0.992555
1.00137 1.00371 0.99025
1.00065 1.00049 0.993479
1.00015 0.998148 0.998536
1.00034 1.00032 0.994137
1.0003 0.997919 0.997758
1.0002 0.997754 0.998809
1.00139 1.00516 0.986953
1.00077 1.00415 0.989145
1.00142 1.00512 0.987379
1.00012 1.00035 0.994397
1.00031 1.00387 0.990217
1.00115 1.00509 0.988549
1.00004 0.997816 0.998859
1.00004 0.999913 0.994933
0.999898 1.00357 0.991071
1 0.997573 0.998987
0.999986 0.999577 0.99537
0.999988 0.997493 0.999027
0.994725 0.994797 0.764267
0.994761 0.994779 0.771682
0.994821 0.997255 0.791753
1.00168 1.00514 0.987534
1.00045 1.00516 0.987751
1.0023 1.00303 0.990149
0.99488 0.994851 0.795194
0.994803 0.9948 0.775821
0.994785 0.994784 0.771504
0.99567 0.994693 0.95593
0.994856 0.994596 0.906439
0.994886 0.997395 0.85879
0.994895 0.994889 0.798892
0.995086 0.994738 0.951143
0.995262 0.994786 0.913062
0.996021 0.994916 0.861448
0.995653 0.994899 0.822391
0.994929 0.995194 0.950873
0.994774 0.997434 0.923256
0.996861 0.994887 0.874461
0.994898 0.994907 0.799174
0.997747 1.00325 0.994876
0.998273 1.0048 0.993178
0.9991 1.00508 0.991633
1.00132 1.00399 0.989001
1.001 1.00514 0.988439
1.00196 1.00513 0.987299
0.996312 0.999421 0.985988
0.996317 1.00312 0.997795
0.996827 1.00402 0.995541
0.995332 1.00534 0.99855
0.99615 1.00521 0.998103
0.995095 1.00531 0.996876
0.995086 1.00529 0.997887
0.995439 1.00207 0.983101
0.994708 1.0053 0.999389
0.994679 1.00482 0.99763
0.995382 1.0053 0.997892
0.994747 1.0028 0.981842
0.99475 1.00513 0.994647
0.995215 1.00452 0.998716
0.994849 0.994849 0.762108
0.994724 0.994799 0.756833
0.994701 0.994728 0.768091
0.994873 1.00527 1.00175
0.99473 1.00219 0.985798
0.994753 0.994822 0.760823
0.994811 0.996921 0.924581
0.996539 0.994884 0.862524
0.994888 0.994841 0.790829
0.994876 0.994876 0.798091
0.994727 1.00473 0.997335
0.994806 0.994834 0.775968
0.994812 0.994791 0.778336
0.99483 1.00238 0.964316
0.994852 0.9975 0.783733
0.995781 0.994943 0.860941
0.994859 0.997354 0.92939
0.994772 1.00518 0.987644
0.994746 0.994802 0.768518
0.994815 0.994768 0.772636
0.994934 1.00167 0.800628
0.99482 0.997582 0.83257
0.994795 0.994883 0.926661
0.994829 1.00163 0.957853
0.995082 1.0053 0.999499
0.994766 1.00503 0.998311
0.995083 1.00525 0.998196
0.995302 1.00403 0.997992
0.994768 1.00529 0.999172
0.996052 1.00317 0.999938
0.998495 1.00306 0.998252
0.998013 1.0011 0.996654
1.00303 0.999887 0.990626
1.00165 1.00496 0.986153
1.0021 1.00159 0.989676
1.00434 1.00463 0.982582
1.00423 1.00373 0.983562
1.00524 0.999523 0.986184
1.00518 1.00136 0.98511
1.00483 1.00267 0.984382
1.00503 1.00383 0.982363
1.00522 1.00265 0.984274
1.00521 1.00145 0.985019
1.00533 1.00286 0.984052
1.0048 1.00335 0.984173
1.00456 1.00223 0.98465
1.00261 1.00353 0.987183
1.00349 1.00284 0.985623
1.00333 1.00343 0.98559
1.00285 1.00528 0.984776
1.00288 1.00524 0.985216
1.00109 1.00461 0.986295
1.00265 1.00522 0.9854
1.00294 1.00519 0.98542
1.00084 1.00268 0.990904
1.00251 1.00467 0.987568
1.0007 1.00142 0.992446
1.00029 0.998558 0.998396
1.00089 1.00021 0.993434
1.00038 0.998157 0.997526
1.00032 0.997879 0.998603
1.00262 1.00513 0.986417
1.00131 1.00472 0.988346
1.00192 1.00514 0.986926
1.0002 1.0008 0.993791
1.00075 1.00422 0.989296
1.00148 1.00511 0.987618
1.00007 0.99797 0.998747
1.00013 1.00026 0.994411
1.0005 1.00389 0.9901
1.00002 0.997767 0.998894
1.00006 0.999851 0.994957
0.999999 0.997549 0.999005
0.99484 0.99484 0.774447
0.994742 0.994812 0.764879
0.994771 0.994755 0.771549
1.00111 1.00525 0.986793
1.00332 1.00211 0.990984
1.00113 1.00508 0.987772
1.00103 1.0051 0.987631
1.00074 1.00171 0.991097
1.00149 1.00251 0.991336
0.998945 1.00071 0.995424
0.994829 0.994837 0.777673
0.994872 0.994851 0.792089
0.994831 0.994814 0.776716
0.994888 0.994895 0.816222
0.995152 0.994728 0.947874
0.994839 0.99482 0.909402
0.996232 0.995488 0.870717
0.995553 0.994839 0.948943
0.994813 0.996666 0.9094
0.996241 0.99489 0.873543
0.995249 0.994893 0.806628
0.994833 0.996436 0.953125
0.995366 0.998382 0.911086
0.995364 0.994902 0.849215
0.994855 0.997176 0.7823
0.99514 1.00541 0.997061
0.99685 1.00384 0.995645
0.997909 1.0047 0.993255
1.0005 1.00498 0.988838
0.995444 1.00183 0.983046
0.994645 1.00526 0.996081
0.99527 1.00537 0.997209
0.995416 1.00528 0.998092
0.994722 1.00529 0.99962
0.995423 1.0053 0.99791
0.995271 1.00446 0.999209
0.994763 1.00242 0.978832
0.994698 1.00521 0.994515
0.995696 1.00385 0.99949
0.996069 1.00058 0.973647
0.995125 1.0049 0.996759
0.994724 0.994814 0.760996
0.994827 0.994854 0.770154
0.994727 0.994819 0.757015
0.994647 1.00529 0.997846
0.994827 1.00178 0.969441
0.994784 0.994834 0.774207
0.994939 0.994882 0.916745
0.995715 0.995249 0.870631
0.994807 0.994805 0.779319
0.994823 0.997404 0.795096
0.994736 1.00502 0.989024
0.994728 0.994813 0.769276
0.994803 0.994812 0.772742
0.994824 1.00182 0.958694
0.994939 1.00116 0.800085
0.994815 0.997347 0.839721
0.994832 0.994947 0.912801
0.995323 1.00384 0.982255
0.994803 0.994821 0.773962
0.994855 0.997756 0.783539
0.994761 0.999767 0.849753
0.99482 0.995065 0.920433
0.994835 0.998761 0.953658
0.994733 1.00508 0.999262
0.994956 1.00527 0.998254
0.995015 1.00532 0.997814
0.99482 1.00299 1.00033
0.996801 1.00298 0.998761
1.00047 1.00215 0.994277
1.00472 0.999552 0.989763
1.00283 1.00517 0.985493
1.0043 1.00103 0.986751
1.00412 1.00456 0.983096
1.0044 1.00343 0.983677
1.00511 1.00072 0.98562
1.00547 0.996582 0.988437
1.00542 0.998744 0.986999
1.00524 0.999685 0.986201
1.0052 1.00156 0.985498
1.00519 1.00106 0.985171
1.00507 1.00262 0.98416
1.00532 1.00399 0.983008
1.00524 1.00273 0.984422
1.00528 1.00136 0.985141
1.00433 1.00204 0.986814
1.00451 1.00352 0.984376
1.00389 1.00381 0.984097
1.00388 1.00415 0.98518
1.00293 1.00321 0.987126
1.00329 1.0025 0.985452
1.00156 1.00266 0.989522
1.00325 1.00528 0.98491
1.00326 1.00524 0.985207
1.00306 1.00518 0.985419
1.00092 1.00247 0.990925
1.0003 0.999445 0.998036
1.00077 1.00138 0.992366
1.00032 0.99867 0.998295
1.00039 0.997967 0.998483
1.00345 1.00482 0.986713
1.00362 1.00515 0.985633
1.00176 1.00511 0.98736
1.00244 1.0049 0.986424
1.00009 1.00164 0.993145
1.00123 1.00487 0.988334
1.00197 1.00518 0.986892
1.00008 0.998397 0.99859
1.00016 1.00089 0.993812
1.00082 1.00446 0.98944
1.00005 0.998 0.998778
1.00013 1.00028 0.994435
1.00001 0.997705 0.998929
0.994772 0.994838 0.762092
0.994819 0.99483 0.772874
0.994742 0.994817 0.76557
1.00207 1.00515 0.98628
0.999989 1.00244 0.991724
1.00336 1.00316 0.9872
0.998434 1.00495 0.99108
1.00252 0.998181 0.992904
1.00118 1.0051 0.987472
0.999864 1.00254 0.992237
1.00087 1.00269 0.99134
0.998858 0.999287 0.997958
0.999246 1.00146 0.99623
0.99478 0.994754 0.769945
0.994816 0.994839 0.778825
0.994859 0.994841 0.789227
0.995954 0.994876 0.809063
0.996447 0.994889 0.862412
0.995231 0.994837 0.947124
0.994742 0.997365 0.922369
0.99486 0.997523 0.947167
0.994873 0.998007 0.923216
0.99545 0.994901 0.858568
0.994873 0.997368 0.779272
0.99494 1.00033 0.948436
0.994967 0.995511 0.922495
0.994867 0.997387 0.862079
0.994831 1.00166 0.804645
0.998301 1.0007 0.998224
0.995379 1.00514 0.997357
0.997071 1.00378 0.996441
0.994792 1.00179 0.97512
0.994711 1.00522 0.993441
0.995317 1.00533 0.997821
0.994884 1.0043 0.999434
0.995631 1.0041 0.999489
0.994942 1.00437 0.99741
0.99486 1.00211 0.974493
0.994964 1.0024 1.00302
0.994787 1.00154 0.981144
0.994749 0.994746 0.779444
0.994737 0.994828 0.760777
0.994809 0.994849 0.778802
0.994754 1.00461 0.989025
0.99484 0.999226 0.955806
0.994732 0.994815 0.769985
0.994815 0.994894 0.92377
0.994803 0.997634 0.856098
0.994833 0.99481 0.773064
0.994927 0.999797 0.799984
0.995023 1.00395 0.983247
0.994813 0.994798 0.773797
0.994884 0.99857 0.785773
0.994849 0.998066 0.955425
0.994776 0.999459 0.856867
0.995264 0.994822 0.90931
0.994825 1.00259 0.981026
0.994794 0.995563 0.779095
0.995296 0.997725 0.8657
0.994804 0.994582 0.904066
0.994937 0.995189 0.953669
0.994822 1.00532 0.998353
0.994909 1.00532 0.997645
0.997651 0.999992 0.997502
0.995273 1.00293 0.999251
0.999393 1.00222 0.995113
1.004 0.996396 0.993524
1.00395 1.00519 0.984811
1.00409 1.00103 0.986668
1.00507 0.996365 0.989641
1.00451 1.00329 0.983797
1.00509 1.00042 0.985628
1.00535 0.997018 0.988436
1.00547 0.99476 0.990475
1.00555 0.99592 0.988661
1.00547 0.996519 0.988466
1.00553 0.998365 0.98742
1.00543 0.998799 0.986923
1.00524 0.9998 0.986221
1.00534 1.00165 0.984939
1.00518 1.00116 0.98535
1.00518 1.0007 0.985235
1.00524 1.00477 0.983392
1.0046 1.00385 0.983455
1.00516 1.00241 0.984574
1.00288 1.00471 0.98591
1.00322 1.00284 0.986739
1.00297 1.00358 0.984715
1.00257 1.00372 0.989166
1.00309 1.00433 0.985358
1.0028 1.00298 0.987055
1.00062 1.00063 0.994018
1.00194 1.00295 0.989869
1.00314 1.00526 0.985058
1.00122 1.00231 0.990908
1.00045 0.999637 0.997872
1.00039 0.99892 0.99818
1.00258 1.00419 0.985981
1.00316 1.0051 0.985778
1.00142 1.00496 0.987157
1.00173 1.00517 0.987205
1.00252 1.00511 0.985695
1 1.00207 0.992895
1.00156 1.00517 0.987376
1.0024 1.00516 0.986416
1.00009 0.998679 0.998456
1.00007 1.00154 0.993203
1.00095 1.00491 0.988322
1.00005 0.998272 0.998641
1.00013 1.00075 0.993831
1.00003 0.997959 0.99881
0.994748 0.994815 0.776897
0.994777 0.994829 0.76278
0.994792 0.994845 0.770888
1.00322 1.00537 0.983871
1.00188 1.00519 0.985856
0.998865 1.00264 0.992686
1.00032 1.00498 0.990312
1.00407 1.00172 0.986945
1.00149 0.997757 0.995516
1.00406 1.00133 0.987996
0.995322 1.00529 0.994588
0.999808 1.00293 0.9912
0.997659 0.996981 1.00021
0.99722 1.00275 0.996308
0.997437 1.00336 0.996046
0.994905 0.999933 0.802561
0.994791 0.994774 0.769855
0.9948 0.994843 0.779664
0.995358 0.997399 0.793275
0.995506 0.994884 0.857788
0.995343 0.998389 0.911396
0.99518 0.996162 0.947886
0.995473 0.99914 0.949905
0.994909 1.00138 0.803781
0.994823 0.99713 0.913776
0.994861 0.997348 0.841726
0.994841 0.996944 0.957128
0.994778 0.994792 0.923211
0.994746 0.999466 0.85137
0.99872 0.997989 1.00226
0.997725 1.00099 0.998216
0.995176 1.00532 0.997629
0.994747 1.0025 0.975158
0.9947 1.00366 0.998028
0.995473 1.0038 0.999581
0.995408 1.00094 1.00336
0.995001 1.00048 0.981453
0.995548 0.996393 0.995139
0.994813 0.994692 0.792071
0.994741 0.994771 0.777691
0.994765 0.994817 0.760142
0.994767 1.00455 0.983141
0.99484 0.999811 0.955188
0.994803 0.994792 0.773847
0.994837 0.994795 0.907825
0.994726 0.998502 0.839962
0.994936 0.999953 0.7978
0.994829 1.00425 0.980758
0.994827 0.997139 0.79335
0.994776 0.997716 0.844819
0.995307 0.99492 0.947225
0.995167 0.994603 0.920706
0.996316 0.997658 0.986304
0.998875 0.999878 0.83444
0.994821 0.994654 0.931934
0.99497 0.994677 0.945006
0.994837 1.00534 0.997539
0.997717 1.00078 0.996978
1.00097 0.995507 0.995312
0.998257 1.00266 0.995959
1.00304 0.997035 0.993276
1.00495 0.994589 0.992492
1.00397 1.00078 0.986591
1.00507 0.996097 0.989509
1.00527 0.994864 0.990554
1.005 0.999958 0.985637
1.00535 0.996836 0.988339
1.00545 0.994695 0.990346
1.00537 0.994757 0.991021
1.00546 0.994767 0.990578
1.00547 0.994758 0.990478
1.00555 0.995649 0.98902
1.00556 0.995876 0.988831
1.00547 0.996462 0.988498
1.00552 0.9979 0.987464
1.00552 0.998198 0.987268
1.00544 0.998877 0.986844
1.00544 1.00273 0.982917
1.00535 1.00168 0.984869
1.00528 1.0008 0.985201
1.00377 1.00394 0.984646
1.00419 1.00444 0.983479
1.00433 1.00395 0.983899
1.00291 1.00373 0.986328
1.00344 1.00382 0.985791
1.00211 1.0032 0.986657
1.00024 1.00284 0.996667
1.00257 1.00375 0.986952
1.00356 1.00365 0.985484
1.00068 1.00033 0.99741
1.00202 1.003 0.989055
1.00058 0.99972 0.997701
1.00436 1.00534 0.983397
1.0039 1.00304 0.985997
1.00221 1.00462 0.98603
1.00215 1.00517 0.987349
1.00288 1.00487 0.985758
1.00155 1.00416 0.987582
1.00051 1.00218 0.992174
1.00174 1.00517 0.987175
1.00294 1.00447 0.985762
1.00013 0.99916 0.998424
0.999928 1.00209 0.992875
1.00153 1.00521 0.987392
1.00005 0.998795 0.998494
1.00004 1.00166 0.993248
1.00002 0.998235 0.998687
0.994802 0.995843 0.786708
0.994755 0.994807 0.776927
0.994777 0.994824 0.763591
1.0032 1.00477 0.984243
1.00485 1.00298 0.986112
1.00149 1.00409 0.986776
1.00043 1.00516 0.989503
1.00476 1.00092 0.986703
0.996505 0.999418 0.997841
0.99807 1.00308 0.994269
1.00191 1.00212 0.989393
1.0009 1.00161 0.991778
0.998751 1.00257 0.994759
0.997382 1.003 0.996421
0.998566 1.00307 0.996094
0.994823 0.999739 0.840953
0.994853 0.999625 0.797588
0.994819 0.994795 0.770444
0.994896 1.00041 0.80251
0.994822 0.997311 0.858226
0.994831 0.996101 0.91224
0.995008 1.00067 0.947756
0.995239 0.997307 0.952298
0.994818 0.999277 0.857399
0.995126 0.994778 0.908238
0.994913 0.994827 0.958671
0.994946 0.994541 0.908037
0.998172 0.997403 1.00491
0.99863 0.998256 1.00192
0.997321 1.00125 0.998174
0.99551 1.00092 0.98172
0.996202 0.999884 1.00366
0.995588 0.996713 0.994531
0.995432 0.994689 0.991933
0.999106 0.999939 0.844172
0.994842 0.994663 0.787973
0.994736 0.994801 0.775852
0.994853 1.0038 0.981324
0.995106 0.99506 0.948443
0.994841 0.997386 0.791655
0.994858 0.994583 0.906799
0.994765 0.998369 0.863249
0.99615 0.997848 0.982563
0.99863 0.997519 0.849619
0.995752 0.994603 0.915088
0.995246 0.994718 0.947203
0.997628 0.995604 0.981845
0.997409 0.994836 0.931377
0.99489 0.994703 0.956499
0.997464 1.0019 0.99649
1.00054 0.995875 0.995276
1.00342 0.995205 0.993091
1.00215 0.997297 0.993035
1.00452 0.99461 0.992376
1.0052 0.994564 0.991315
1.00509 0.996072 0.989379
1.00526 0.994981 0.990426
1.00544 0.994575 0.990421
1.00531 0.996645 0.98824
1.00546 0.994685 0.990301
1.00539 0.994716 0.990673
1.00543 0.99482 0.990684
1.00537 0.994751 0.990979
1.0054 0.994788 0.990959
1.00538 0.994811 0.990903
1.00545 0.994782 0.990707
1.00546 0.994755 0.99048
1.00551 0.995604 0.989396
1.00555 0.995613 0.989085
1.00557 0.995825 0.989002
1.0056 0.999916 0.985326
1.00554 0.99801 0.987469
1.00551 0.998056 0.987119
1.00539 1.00338 0.981991
1.00542 1.00309 0.983104
1.0054 1.00174 0.984799
1.00295 1.00421 0.985965
1.00383 1.0043 0.984518
1.00346 1.00456 0.983582
1.00155 1.00204 0.996243
1.00298 1.00393 0.986352
1.00302 1.00387 0.985692
1.00084 1.00217 0.994574
1.00286 1.00341 0.987223
1.00098 1.001 0.997
1.0049 1.00392 0.982629
1.00409 1.00532 0.983328
1.00365 1.0031 0.984934
1.00426 1.00268 0.98601
1.00333 1.00412 0.986136
1.00229 1.00522 0.986935
1.00169 1.00266 0.990142
1.00176 1.00517 0.987215
1.00205 1.00509 0.98575
1.00034 0.998875 0.998039
1.00045 1.00216 0.992138
1.00185 1.00519 0.987149
1.00005 0.998761 0.998419
1.00007 1.00176 0.992896
0.999989 0.998656 0.998537
0.99736 0.996166 0.852087
0.99483 0.996716 0.79181
0.99475 0.994808 0.777112
1.00366 1.00506 0.984609
1.00228 1.00515 0.986657
1.00452 1.0023 0.985436
1.00521 0.998907 0.987687
1.00312 0.999984 0.990424
1.00106 1.00326 0.993949
1.00262 1.00068 0.990793
1.00151 1.00201 0.992047
1.00485 0.99734 0.99023
1.00179 1.0006 0.992673
1.0029 0.999133 0.992172
1.00017 1.00103 0.994989
0.99904 1.00284 0.996278
0.997382 0.994641 0.926472
0.996043 0.99889 0.848638
0.994801 0.998374 0.802662
0.994864 0.99971 0.841434
0.99478 0.994796 0.918793
0.995332 0.997873 0.956763
0.995159 0.994849 0.96122
0.995057 0.994581 0.923935
0.995519 0.994764 0.956292
0.997626 0.994972 1.00433
0.99766 0.997494 1.00503
0.99845 0.998485 1.00163
0.995361 0.996843 0.994222
0.996408 0.994904 0.993246
0.999301 0.99742 0.915119
0.999509 0.996922 0.854669
0.994861 0.994632 0.783549
0.996352 0.997355 0.978241
0.995056 0.994704 0.94533
0.999182 0.996611 0.849504
0.99482 0.994639 0.93016
0.997983 0.994807 0.981941
0.999134 0.995053 0.927159
0.995126 0.9947 0.952861
0.999468 0.994565 0.982332
0.998323 0.994689 0.965391
1.00025 0.996272 0.995163
1.0024 0.995112 0.99322
1.00489 0.994644 0.991638
1.00404 0.994645 0.992256
1.00508 0.994577 0.991245
1.00539 0.994651 0.990554
1.00523 0.995104 0.990296
1.00544 0.994603 0.990374
1.00543 0.994762 0.990361
1.00549 0.994683 0.990256
1.00538 0.994732 0.990687
1.00541 0.994792 0.990529
1.00543 0.994815 0.990639
1.00545 0.994849 0.990656
1.00537 0.994746 0.990937
1.0054 0.994778 0.990965
1.0054 0.994816 0.990907
1.00544 0.994931 0.99076
1.00539 0.994811 0.990886
1.00545 0.994795 0.990835
1.00552 0.998287 0.987089
1.00551 0.995701 0.989383
1.00556 0.995566 0.989149
1.00552 1.00371 0.98162
1.00561 1.00023 0.985357
1.00554 0.998092 0.987475
1.00344 1.00365 0.985331
1.00518 1.00398 0.982103
1.00538 1.00327 0.983293
1.00171 1.00195 0.995936
1.00298 1.00398 0.985852
1.00376 1.00456 0.984417
1.00153 1.00176 0.996115
1.00296 1.00373 0.986389
1.00138 1.00139 0.996332
1.00534 1.00196 0.985397
1.00518 1.00444 0.982745
1.00389 1.00492 0.982354
1.00424 1.00458 0.983249
1.00335 1.00422 0.98448
1.0024 1.00444 0.985265
1.00339 1.0032 0.986219
1.00189 1.00491 0.986836
1.00236 1.0036 0.987801
1.00059 1.00071 0.997199
1.00105 1.00313 0.990106
1.00141 1.00516 0.987086
1.00017 0.99952 0.9982
0.999811 1.00276 0.992035
1.00004 0.998994 0.998428
0.999784 0.994836 0.932647
0.999321 0.998889 0.848634
0.994838 0.995783 0.786371
1.00178 1.00493 0.986535
1.00509 1.00196 0.98478
1.0037 1.00032 0.989566
1.00506 0.999265 0.987347
1.00537 0.996701 0.9889
1.00492 0.996115 0.990505
1.00208 1.0011 0.992256
1.00487 0.997771 0.989436
1.00205 1.00116 0.992291
1.00443 0.998756 0.9894
1.0023 1.00097 0.990269
1.00335 0.998289 0.993565
1.00254 1.00009 0.992464
1.00061 1.00024 0.995197
0.994945 0.994676 0.956685
0.99575 0.994628 0.921132
0.994803 0.999776 0.86533
0.994869 0.994547 0.906576
0.99486 0.995218 0.962583
0.995517 0.994753 0.96358
0.998566 0.994622 0.988885
0.998903 0.994767 1.00279
0.99736 0.997459 1.00516
0.997299 0.994734 0.994526
0.999399 0.994701 0.955273
1.00048 0.99484 0.931795
0.99904 1.00244 0.833201
0.998031 0.994691 0.982408
0.995429 0.9947 0.953758
0.997913 0.994726 0.922047
0.999655 0.994609 0.983076
0.99755 0.994719 0.96394
1.00126 0.995719 0.986943
1.00418 0.994568 0.982907
1.00124 0.994653 0.993384
1.0042 0.994637 0.991781
1.00533 0.994787 0.990636
1.00493 0.994573 0.991174
1.0054 0.994629 0.990546
1.00545 0.994723 0.99045
1.00543 0.994621 0.990325
1.00543 0.994751 0.990377
1.0054 0.99481 0.990576
1.00538 0.994741 0.990702
1.00541 0.994798 0.990535
1.00541 0.994861 0.990688
1.00543 0.99481 0.990595
1.00544 0.994848 0.990644
1.00539 0.994869 0.990869
1.0054 0.994772 0.99097
1.0054 0.994808 0.990916
1.00538 0.994891 0.990879
1.00543 0.996772 0.988926
1.00543 0.995062 0.990549
1.0054 0.994809 0.99087
1.00546 1.00227 0.983225
1.00554 0.998475 0.987079
1.0055 0.995805 0.989371
1.00382 1.00328 0.98494
1.00549 1.00383 0.981684
1.00562 1.00061 0.98539
1.00244 1.00209 0.995548
1.00333 1.0038 0.985215
1.00496 1.00464 0.982195
1.00197 1.00226 0.995751
1.00307 1.00391 0.985724
1.00164 1.00213 0.995957
1.0055 0.998514 0.986941
1.00519 1.00186 0.985115
1.00543 1.00332 0.98348
1.00489 1.00419 0.982845
1.00489 1.00479 0.982238
1.00361 1.00515 0.982985
1.00437 1.0054 0.984048
1.00366 1.00411 0.985446
1.00249 1.00415 0.986447
1.00247 1.00464 0.986795
1.00209 1.00386 0.987825
1.00084 1.00208 0.996401
1.00037 1.00018 0.99753
1.00085 1.00321 0.990098
1.00003 0.999017 0.998309
0.994869 0.994774 0.961143
0.997802 0.995212 0.915984
0.999077 1.00178 0.863719
1.00548 0.995144 0.989905
1.00405 1.00079 0.988735
1.00509 0.999294 0.987011
1.00515 0.996472 0.990341
1.0054 0.996721 0.98899
1.00538 0.995668 0.989959
1.00478 0.99819 0.988689
1.00147 1.00138 0.991972
1.0045 0.998152 0.989419
1.00255 1.00145 0.988889
1.00342 0.999027 0.990182
1.0038 0.994475 0.994306
1.00224 0.997774 0.994097
1.00194 1.00049 0.992763
0.997361 0.994659 0.987216
0.995124 0.994678 0.954434
0.994907 0.994647 0.916344
0.994941 0.994724 0.963811
0.99859 0.994629 0.99082
0.999555 0.995072 1.00122
1.00465 0.994611 0.973985
1.00114 0.994734 0.952527
0.999632 0.997429 0.915812
0.999558 0.994658 0.983739
0.995951 0.994678 0.963857
1.00126 0.995234 0.987721
1.00264 0.994574 0.983587
1.00308 0.995833 0.989884
1.00555 0.994491 0.990354
1.00369 0.994648 0.991919
1.00533 0.994752 0.990598
1.00546 0.994954 0.990556
1.0054 0.994618 0.990539
1.00545 0.994741 0.99046
1.00541 0.99481 0.990746
1.00543 0.994745 0.990393
1.00541 0.994809 0.990555
1.00538 0.994862 0.990888
1.00542 0.994804 0.99054
1.00541 0.994862 0.990684
1.00538 0.994901 0.99088
1.00544 0.994846 0.990633
1.00539 0.994867 0.990833
1.00525 0.99488 0.991199
1.00539 0.994801 0.990925
1.0054 0.994862 0.990907
1.00538 0.995847 0.990196
1.00536 1.00133 0.984754
1.00546 0.997037 0.98868
1.00543 0.995184 0.990336
1.00405 1.00249 0.985391
1.00545 1.00247 0.98324
1.00553 0.99864 0.98707
1.00312 1.00163 0.995357
1.00378 1.00334 0.984996
1.0055 1.00406 0.981748
1.00255 1.00209 0.995464
1.00324 1.00388 0.985125
1.00208 1.00236 0.995611
1.0055 0.996214 0.988968
1.00547 0.998609 0.98696
1.00555 1.00076 0.985309
1.00491 1.00221 0.984844
1.00542 1.00331 0.983499
1.00498 1.00477 0.981629
1.00534 1.00494 0.982129
1.00429 1.00498 0.982974
1.00273 1.0042 0.98594
1.0032 1.00489 0.985481
1.00257 1.00426 0.986547
1.00108 1.00319 0.996078
1.00178 1.00415 0.987844
1.00061 1.00203 0.996694
1.00014 1.00037 0.997822
0.997881 0.994719 0.985156
0.996247 0.994791 0.954942
0.999979 0.994837 0.932166
1.00546 0.99479 0.990168
1.00544 0.994718 0.99041
1.00548 0.995134 0.989966
1.00526 0.996942 0.990146
1.00542 0.996662 0.989088
1.00537 0.995731 0.989968
1.00543 0.994973 0.990139
1.00466 0.997724 0.989418
1.00361 1.0023 0.987496
1.00385 0.998294 0.990194
1.00527 0.994563 0.991317
1.00375 0.994637 0.992866
1.00271 0.994436 0.994281
1.00195 0.997442 0.994648
0.998618 0.994632 0.98702
0.995451 0.994729 0.953575
0.999577 0.994619 0.992845
1.00531 0.994557 0.988934
1.00439 0.9946 0.973793
0.999131 0.994796 0.954157
1.00182 0.994713 0.988369
1.00109 0.994575 0.984303
1.00373 0.995308 0.990139
1.00548 0.994489 0.990644
1.00556 0.994717 0.990919
1.00564 0.994535 0.991378
1.00533 0.994722 0.990566
1.00545 0.994867 0.990586
1.00545 0.994811 0.991064
1.00546 0.994753 0.990471
1.00541 0.994809 0.990746
1.00537 0.994846 0.991082
1.00541 0.994807 0.990534
1.00538 0.994861 0.990889
1.00537 0.994904 0.991052
1.00541 0.994864 0.990681
1.00537 0.994901 0.990884
1.00523 0.99493 0.991282
1.00538 0.994865 0.990796
1.00529 0.994881 0.991136
1.00536 0.995315 0.990845
1.00542 0.994842 0.990934
1.00535 0.995963 0.990121
1.00531 1.00036 0.985881
1.00405 1.00178 0.986274
1.00533 1.00132 0.984782
1.00549 0.997317 0.988434
1.00362 1.00096 0.995248
1.00404 1.00254 0.985458
1.00548 1.00254 0.983261
1.00322 1.00161 0.995279
1.0037 1.00345 0.985048
1.00273 1.00222 0.995375
1.00543 0.994997 0.990324
1.00547 0.996147 0.989103
1.00547 0.998811 0.987081
1.00541 0.998697 0.986982
1.00552 1.00058 0.985245
1.00546 1.00425 0.98163
1.00544 1.00304 0.983516
1.00497 1.00489 0.981534
1.00292 1.0042 0.985361
1.00518 1.00372 0.983047
1.00273 1.0041 0.986049
1.00156 1.00277 0.995884
1.00263 1.00418 0.98665
1.00101 1.00266 0.99616
1.00036 1.00161 0.996993
1.00372 0.994779 0.991887
0.997533 0.994734 0.982423
0.995639 0.994774 0.95722
1.00546 0.994711 0.990235
1.00546 0.994793 0.990182
1.00536 0.99483 0.990758
1.00545 0.994727 0.990402
1.00548 0.995136 0.990016
1.00543 0.994669 0.990545
1.00537 0.99569 0.989974
1.0054 0.994846 0.990159
1.0053 0.994732 0.990974
1.00415 0.997585 0.990207
1.00531 0.994569 0.990883
1.00278 0.994913 0.993043
1.0013 0.994413 0.994282
0.999365 0.994593 0.986728
1.00555 0.994643 0.991649
1.00534 0.994553 0.988979
1.00399 0.99459 0.973717
1.00421 0.994813 0.990338
1.00551 0.99452 0.990914
1.00554 0.994718 0.990784
1.00568 0.99456 0.991591
1.00551 0.994746 0.991562
1.00544 0.99478 0.990617
1.00545 0.994809 0.991059
1.00538 0.99484 0.991367
1.00542 0.994808 0.990747
1.00536 0.994849 0.99108
1.00535 0.994893 0.991269
1.00538 0.994861 0.99089
1.00536 0.994904 0.991056
1.00526 0.994946 0.991376
1.00536 0.994902 0.990889
1.00524 0.99493 0.991276
1.00532 0.994993 0.991356
1.00532 0.994882 0.991074
1.00531 0.995405 0.99082
1.00536 0.999462 0.986805
1.00532 0.996073 0.990045
1.00532 1.00034 0.985899
1.00387 1.00139 0.989104
1.00396 1.00001 0.991113
1.0041 1.00174 0.987351
1.0053 1.0013 0.984803
1.00354 1.00088 0.995284
1.00402 1.00259 0.985508
1.0033 1.00154 0.995224
1.00532 0.994921 0.991049
1.00537 0.99482 0.990886
1.00543 0.994999 0.990433
1.00544 0.997101 0.988732
1.00548 0.996064 0.989238
1.0055 0.998577 0.987058
1.00546 1.00331 0.982448
1.00555 1.00054 0.98518
1.00548 1.00424 0.981565
1.00348 1.00386 0.98488
1.00532 1.00505 0.981433
1.00308 1.00411 0.985382
1.00231 1.00264 0.995477
1.00278 1.00413 0.986172
1.00148 1.00281 0.995983
1.00083 1.00283 0.996315
1.00542 0.994761 0.991514
1.00297 0.994817 0.991408
0.997651 0.994755 0.97949
1.00536 0.994811 0.990774
1.00546 0.994717 0.990199
1.00546 0.994795 0.990203
1.00534 0.994826 0.990818
1.00545 0.994741 0.990393
1.00538 0.994803 0.991132
1.0054 0.994658 0.990498
1.00536 0.994706 0.990176
1.00528 0.994723 0.991027
1.00532 0.994558 0.990445
1.00204 0.994671 0.993137
1.0055 0.994756 0.991536
1.00555 0.994634 0.991648
1.00539 0.994511 0.989026
1.00551 0.994716 0.990648
1.00569 0.994577 0.991801
1.00552 0.994736 0.991534
1.00538 0.994844 0.991631
1.00545 0.994804 0.991054
1.00538 0.994842 0.991326
1.00535 0.994888 0.991484
1.00536 0.994852 0.991079
1.00536 0.994893 0.991271
1.00527 0.994922 0.99152
1.00536 0.994904 0.991059
1.00525 0.994945 0.99138
1.00532 0.99493 0.991615
1.00524 0.99493 0.99127
1.00532 0.99503 0.991325
1.00539 0.99868 0.987687
1.00527 0.995493 0.990796
1.00538 0.999456 0.986805
1.00382 1.00092 0.989569
1.00533 1.00032 0.985921
1.00416 1.0012 0.988934
1.00361 0.999797 0.991487
1.0034 1.00033 0.993456
1.00438 1.00167 0.988188
1.00343 1.0008 0.995353
1.00531 0.994894 0.991086
1.00525 0.994902 0.991328
1.00534 0.99492 0.991086
1.00528 0.995917 0.990175
1.00534 0.994811 0.990946
1.00544 0.995 0.990541
1.00542 0.99685 0.988781
1.00533 1.00181 0.984102
1.00548 0.99838 0.987038
1.00544 1.00342 0.98242
1.00379 1.00305 0.985348
1.00549 1.00413 0.9815
1.00351 1.00379 0.984872
1.00292 1.00209 0.995239
1.00317 1.00401 0.985415
1.00205 1.00247 0.995656
1.00133 1.00261 0.996019
1.00542 0.994794 0.991345
1.00536 0.994766 0.991562
1.00159 0.995399 0.990982
1.00533 0.994856 0.991136
1.00536 0.994807 0.990729
1.00546 0.994722 0.990167
1.00532 0.994826 0.990876
1.00539 0.994805 0.991061
1.00538 0.994644 0.990451
1.00529 0.994704 0.991076
1.00541 0.994827 0.991617
1.00549 0.99476 0.991527
1.00553 0.99463 0.991646
1.00534 0.994866 0.991706
1.00555 0.994725 0.991507
1.00539 0.994843 0.991621
1.00535 0.994891 0.991637
1.00538 0.994842 0.991285
1.00535 0.994889 0.991489
1.00527 0.994917 0.991663
1.00536 0.994893 0.991272
1.00527 0.994922 0.991526
1.00534 0.994948 0.991734
1.00524 0.994944 0.991385
1.00533 0.994932 0.991592
1.00534 0.998059 0.988504
1.00532 0.995067 0.991295
1.0054 0.998684 0.98768
1.00369 1.00062 0.990012
1.0054 0.999446 0.986806
1.00408 1.00078 0.989394
1.00334 0.999848 0.99177
1.00444 1.00099 0.98877
1.00298 0.999993 0.991963
1.00243 1.0007 0.996274
1.00532 0.994902 0.99117
1.00518 0.994921 0.991432
1.00533 0.994905 0.991097
1.00525 0.996031 0.990331
1.00523 0.994899 0.991278
1.00535 0.99492 0.991125
1.00535 1.00022 0.985882
1.00532 0.995741 0.990218
1.00531 0.994803 0.991008
1.00539 0.996594 0.988829
1.00533 1.00193 0.984078
1.00387 1.00204 0.986375
1.00546 1.00353 0.982387
1.0038 1.00301 0.985308
1.00305 1.00141 0.995379
1.00356 1.00379 0.984855
1.00281 1.00216 0.995314
1.00196 1.00238 0.995847
1.00535 0.994854 0.991474
1.00542 0.994789 0.991294
1.00533 0.99478 0.991609
1.00532 0.994859 0.991152
1.00535 0.994804 0.990685
1.00541 0.994812 0.99099
1.00534 0.99487 0.991712
1.00541 0.994834 0.991632
1.00547 0.994765 0.991518
1.00534 0.994867 0.991735
1.00534 0.994907 0.991717
1.00539 0.994843 0.99161
1.00535 0.994894 0.991645
1.00526 0.99492 0.991751
1.00536 0.994889 0.991493
1.00527 0.994917 0.991669
1.00534 0.99495 0.991819
1.00526 0.994922 0.991532
1.00534 0.994947 0.991722
1.00531 0.997585 0.989109
1.00534 0.994934 0.991569
1.00536 0.998049 0.988493
1.0035 1.00043 0.990458
1.00541 0.998688 0.987674
1.00392 1.00052 0.989838
1.00303 0.999965 0.992034
1.00432 1.00065 0.989229
1.0028 0.999921 0.992244
1.00237 1.00022 0.992421
1.00533 0.994892 0.991433
1.00521 0.994933 0.991454
1.00532 0.994897 0.991154
1.0053 0.995586 0.99072
1.00518 0.994928 0.99143
1.00535 0.994914 0.991108
1.00539 0.999247 0.987019
1.00528 0.995562 0.990668
1.0052 0.994895 0.991229
1.00389 1.00126 0.987187
1.00533 1.00028 0.985862
1.00536 0.995562 0.990262
1.00536 1.00204 0.984055
1.00387 1.00205 0.986298
1.00301 1.0008 0.995591
1.00381 1.00297 0.985263
1.00315 1.00145 0.995309
1.00262 1.0021 0.995421
1.00532 0.99489 0.991668
1.00535 0.994851 0.991431
1.00542 0.994784 0.991242
1.00531 0.994861 0.991167
1.00532 0.994911 0.991717
1.00534 0.99487 0.991719
1.00541 0.994841 0.991648
1.00534 0.994869 0.991764
1.00533 0.994904 0.991728
1.00525 0.994931 0.991898
1.00535 0.994897 0.991654
1.00526 0.994924 0.991794
1.00534 0.994947 0.991802
1.00527 0.994917 0.991674
1.00534 0.99495 0.991815
1.0053 0.99728 0.989468
1.00534 0.994947 0.991711
1.00532 0.997573 0.989096
1.00349 1.00024 0.98896
1.00537 0.998048 0.988481
1.00372 1.00036 0.989387
1.0025 1.00003 0.996014
1.00414 1.00043 0.989666
1.00255 0.999986 0.992495
1.00229 0.999971 0.992698
1.00533 0.994912 0.991588
1.00521 0.994923 0.991569
1.00533 0.994894 0.991458
1.00529 0.994957 0.991527
1.0052 0.994929 0.99148
1.00533 0.994891 0.991138
1.00535 0.997899 0.988516
1.00529 0.99561 0.990703
1.00518 0.994936 0.991429
1.00383 1.00079 0.987779
1.00536 0.998807 0.987442
1.00532 0.995083 0.991004
1.00288 1.00042 0.995752
1.00388 1.00127 0.987139
1.00531 1.00034 0.985845
1.00386 1.00205 0.986227
1.00313 1.00083 0.995521
1.00321 1.00154 0.995268
1.00533 0.994918 0.991636
1.00533 0.994891 0.991657
1.00534 0.994848 0.991388
1.00522 0.994941 0.991953
1.00532 0.994908 0.991709
1.00534 0.99487 0.991726
1.00533 0.994902 0.991738
1.00525 0.99493 0.9919
1.00534 0.995216 0.991434
1.00526 0.994927 0.991837
1.00534 0.995106 0.99163
1.0053 0.996847 0.990021
1.00534 0.99495 0.991811
1.0053 0.997259 0.989458
1.00345 0.99993 0.989319
1.00532 0.997556 0.989087
1.00352 1.00019 0.988976
1.00237 1.00007 0.996069
1.00378 1.00031 0.988519
1.00229 1.00007 0.994466
1.00207 0.99998 0.992953
1.00534 0.994926 0.991628
1.00521 0.994935 0.991696
1.00533 0.994911 0.991591
1.00528 0.994953 0.991717
1.00521 0.994924 0.991585
1.00533 0.994896 0.991483
1.00532 0.99769 0.988901
1.00529 0.995232 0.991272
1.0052 0.994927 0.991506
1.00371 1.00058 0.988221
1.00535 0.997828 0.988583
1.00529 0.995631 0.990686
1.00271 1.00022 0.995869
1.00382 1.00083 0.987749
1.00533 0.998374 0.987871
1.00301 1.00042 0.995694
1.00388 1.00128 0.987085
1.00325 1.00087 0.995448
1.00522 0.994941 0.991912
1.00533 0.994918 0.991641
1.00533 0.994891 0.991646
1.00533 0.99527 0.991413
1.00523 0.994938 0.991944
1.00532 0.994906 0.991701
1.00525 0.994929 0.991903
1.00534 0.995271 0.991426
1.0053 0.996799 0.990004
1.00534 0.995279 0.991458
1.0053 0.997005 0.989811
1.0034 0.999701 0.989618
1.0053 0.997243 0.989447
1.00345 0.999938 0.989324
1.00226 1.00001 0.996152
1.00354 1.00016 0.988988
1.00232 1.00007 0.996095
1.00241 1.00006 0.992515
1.00521 0.994935 0.991869
1.00533 0.994924 0.991554
1.00529 0.994949 0.991804
1.00521 0.994936 0.9917
1.00533 0.99491 0.991594
1.00532 0.998108 0.988477
1.00528 0.994953 0.991718
1.00521 0.994926 0.991601
1.00361 1.00045 0.988558
1.00532 0.997934 0.988627
1.00528 0.995513 0.991016
1.00253 1.00019 0.99593
1.00369 1.00065 0.988205
1.00535 0.997759 0.988653
1.00282 1.00021 0.995826
1.0038 1.00088 0.987715
1.00314 1.0004 0.995645
1.00532 0.995331 0.991333
1.00522 0.99494 0.991933
1.00532 0.994918 0.991646
1.00531 0.996942 0.989859
1.00533 0.995319 0.991402
1.00523 0.994934 0.991934
1.00534 0.995328 0.991418
1.0053 0.996866 0.99001
1.00336 0.999569 0.989847
1.0053 0.997149 0.989604
1.00341 0.999692 0.989617
1.00217 0.999978 0.996243
1.00345 0.999943 0.989334
1.0022 1.00005 0.996194
1.00229 1.00008 0.996131
1.00531 0.99495 0.991893
1.00522 0.994934 0.991802
1.00533 0.994921 0.991481
1.00532 0.997981 0.988641
1.0053 0.994949 0.991804
1.00521 0.994937 0.991703
1.00351 1.00027 0.98891
1.00532 0.998135 0.98849
1.00529 0.994954 0.991718
1.00235 1.00021 0.99599
1.00358 1.0005 0.988555
1.00532 0.998172 0.988351
1.0026 1.00017 0.995911
1.00366 1.00072 0.988186
1.00297 1.00018 0.995776
1.00532 0.997619 0.98907
1.00532 0.995151 0.991604
1.00522 0.99494 0.991953
1.00331 0.999554 0.989957
1.00531 0.99698 0.989882
1.00533 0.995371 0.99139
1.0053 0.996928 0.990015
1.00337 0.999548 0.98984
1.00209 0.999951 0.996305
1.00342 0.999683 0.989615
1.00214 0.999979 0.996262
1.00215 1.00006 0.996224
1.00532 0.997855 0.988843
1.00531 0.99495 0.991851
1.00522 0.994934 0.991736
1.00358 1.00009 0.990701
1.00532 0.998013 0.988653
1.0053 0.994949 0.991804
1.00222 1.00019 0.996082
1.00348 1.00032 0.988912
1.00531 0.998165 0.988504
1.00242 1.00019 0.99597
1.00355 1.00056 0.988552
1.00269 1.00014 0.995887
1.00348 0.999569 0.989757
1.00531 0.997418 0.989363
1.00532 0.994951 0.991878
1.002 0.999952 0.996372
1.00333 0.999519 0.989941
1.00531 0.99702 0.989906
1.00338 0.999521 0.989832
1.00206 0.999941 0.99633
1.00209 0.99999 0.996287
1.00368 0.999832 0.990916
1.00531 0.997865 0.988852
1.00531 0.99495 0.991809
1.00149 1.0002 0.996904
1.0034 1.00008 0.989274
1.00531 0.998041 0.988668
1.00225 1.0002 0.996055
1.00345 1.00038 0.988914
1.00248 1.00017 0.995948
1.00202 0.999779 0.993321
1.00349 0.99962 0.990468
1.00531 0.997233 0.989654
1.00202 0.999948 0.996374
1.00335 0.999496 0.989931
1.00206 0.999936 0.996346
1.00129 1.00003 0.993911
1.00354 0.999752 0.990254
1.00531 0.997879 0.988859
1.00176 1.00014 0.99494
1.00338 1.00007 0.989304
1.00228 1.0002 0.996029
1.00202 0.999956 0.996357
1.00332 0.999614 0.989867
1.00201 0.999932 0.996366
1.00175 0.999919 0.995129
1.00339 0.999715 0.989657
1.00213 1.00017 0.996135
1.002 0.999998 0.996348
1.00204 1.00004 0.996258

TENSORS stress float
0.00314557 -0.000220828 0.00035938
-0.000220828 0.00176006 -7.08589e-05
0.00035938 -7.08589e-05 0.00172787
0.00954963 0.000270677 0.000465079
0.000270677 0.00600288 6.6341e-05
0.000465079 6.6341e-05 0.00602724
0.00268746 -0.000146731 0.000137837
-0.000146731 0.00144991 -2.62145e-05
0.000137837 -2.62145e-05 0.00139823
0.00271928 -0.000120808 0.000318141
-0.000120808 0.00147566 -3.78723e-05
0.000318141 -3.78723e-05 0.00146169
0.0030356 -0.000190792 0.000345309
-0.000190792 0.00168559 -6.03771e-05
0.000345309 -6.03771e-05 0.00165892
0.00326022 -0.000234909 0.000378162
-0.000234909 0.00182841 -7.67895e-05
0.000378162 -7.67895e-05 0.00179698
0.00251262 -0.000314078 6.89215e-05
-0.000314078 0.00110204 -1.8015e-05
6.89215e-05 -1.8015e-05 0.000906145
0.00980452 0.000277832 -7.2168e-06
0.000277832 0.0061617 -4.53178e-06
-7.2168e-06 -4.53178e-06 0.00619263
0.0079051 0.000325576 0.000216859
0.000325576 0.00496929 2.75655e-05
0.000216859 2.75655e-05 0.00492735
0.00862904 0.000179936 0.00016823
0.000179936 0.00537872 1.53271e-05
0.00016823 1.53271e-05 0.0053519
0.00306227 0.000297964 0.000421222
0.000297964 0.00173066 7.5427e-05
0.000421222 7.5427e-05 0.00169827
0.000297367 0.000397024 2.55968e-05
0.000397024 -0.000290303 2.85824e-05
2.55968e-05 2.85824e-05 -0.00055799
0.00218764 -2.0637e-05 0.000300772
-2.0637e-05 0.00111784 6.77919e-06
0.000300772 6.77919e-06 0.00112908
0.00194083 1.69899e-05 8.92106e-05
1.69899e-05 0.000985489 4.5185e-06
8.92106e-05 4.5185e-06 0.000929224
0.00229455 -0.000139776 -9.34027e-05
-0.000139776 0.00120847 1.88469e-05
-9.34027e-05 1.88469e-05 0.0011257
0.00234224 -0.000115189 0.00010131
-0.000115189 0.00124737 -7.32349e-06
0.00010131 -7.32349e-06 0.00120558
0.00278775 -0.000141166 0.000150363
-0.000141166 0.00150711 -2.98896e-05
0.000150363 -2.98896e-05 0.00145378
0.00259946 -0.000143775 0.000122378
-0.000143775 0.00139936 -1.89989e-05
0.000122378 -1.89989e-05 0.0013502
0.002636 -0.000347646 -5.66591e-05
-0.000347646 0.00118267 1.09434e-05
-5.66591e-05 1.09434e-05 0.000999871
0.00697783 -0.000187291 0.000403416
-0.000187291 0.00435808 -2.3833e-05
0.000403416 -2.3833e-05 0.00439353
0.0025618 -9.32234e-05 0.000308102
-9.32234e-05 0.00137278 -2.88608e-05
0.000308102 -2.88608e-05 0.00136392
0.00289403 -0.000154692 0.000330953
-0.000154692 0.0015909 -4.85872e-05
0.000330953 -4.85872e-05 0.00157122
0.00225813 -0.000218768 8.0357e-05
-0.000218768 0.000979532 -1.31692e-05
8.0357e-05 -1.31692e-05 0.000851301
0.00247307 -0.000293577 7.58795e-05
-0.000293577 0.00108999 -1.72956e-05
7.58795e-05 -1.72956e-05 0.000918654
0.003571 -0.000229209 0.000406489
-0.000229209 0.00200735 -7.81884e-05
0.000406489 -7.81884e-05 0.00198081
0.00254122 -0.000339182 6.73768e-05
-0.000339182 0.00110554 -1.93196e-05
6.73768e-05 -1.93196e-05 0.000877496
0.00242004 -0.00061441 1.15697e-05
-0.00061441 0.000633148 -5.80908e-06
1.15697e-05 -5.80908e-06 0.000274109
0.0101607 0.000282759 -0.000521568
0.000282759 0.00638016 -6.31739e-05
-0.000521568 -6.31739e-05 0.00641862
0.00534879 0.000240221 -0.000185402
0.000240221 0.00324299 -2.49184e-05
-0.000185402 -2.49184e-05 0.00321358
0.00591918 0.000209761 -0.000203897
0.000209761 0.00359794 -2.87494e-05
-0.000203897 -2.87494e-05 0.00357155
0.0103774 0.000230648 -7.08008e-06
0.000230648 0.00653432 -3.81591e-06
-7.08008e-06 -3.81591e-06 0.00656831
0.000248397 0.000376461 -8.58375e-07
0.000376461 -0.000322098 -1.55068e-06
-8.58375e-07 -1.55068e-06 -0.000587411
0.00234705 9.31176e-05 0.00031661
9.31176e-05 0.00122016 3.50535e-05
0.00031661 3.50535e-05 0.00121035
0.00255164 0.000189831 0.000346129
0.000189831 0.00137201 5.79055e-05
0.000346129 5.79055e-05 0.00134561
0.0032005 0.000334449 0.000194632
0.000334449 0.00157282 3.22887e-05
0.000194632 3.22887e-05 0.00143377
0.00955716 -9.66369e-05 0.000104195
-9.66369e-05 0.00602099 5.83995e-06
0.000104195 5.83995e-06 0.00598429
0.00356146 0.000465267 0.000219875
0.000465267 0.00185293 4.60478e-05
0.000219875 4.60478e-05 0.00166155
0.000132259 0.000353349 2.07075e-05
0.000353349 -0.000374545 3.95243e-05
2.07075e-05 3.95243e-05 -0.000651562
0.00196076 0.000733627 1.30553e-05
0.000733627 0.000379834 5.21284e-06
1.30553e-05 5.21284e-06 -9.63418e-05
0.00843072 -4.96025e-06 0.000353709
-4.96025e-06 0.00537333 5.01571e-05
0.000353709 5.01571e-05 0.00538057
0.0069023 0.00010094 2.37408e-06
0.00010094 0.00429031 -2.4168e-06
2.37408e-06 -2.4168e-06 0.00433628
0.00459506 0.000119303 -0.000152186
0.000119303 0.0027519 -8.39046e-06
-0.000152186 -8.39046e-06 0.00274342
0.00678364 5.91943e-05 0.000391881
5.91943e-05 0.0042126 5.98389e-06
0.000391881 5.98389e-06 0.0042605
0.0018003 9.38133e-05 9.03268e-05
9.38133e-05 0.000898398 7.83257e-06
9.03268e-05 7.83257e-06 0.000845207
0.000331005 2.44181e-05 1.15379e-05
2.44181e-05 -0.000257139 3.08177e-06
1.15379e-05 3.08177e-06 -0.000359082
0.00710387 0.000267278 0.000226508
0.000267278 0.00446694 2.49113e-05
0.000226508 2.49113e-05 0.00443837
0.00299417 0.000129882 0.00017211
0.000129882 0.00147464 1.3972e-05
0.00017211 1.3972e-05 0.00140457
0.00195725 -0.00011527 -0.000104642
-0.00011527 0.0010147 1.5189e-05
-0.000104642 1.5189e-05 0.00094473
0.00214971 -0.000154085 -0.000103947
-0.000154085 0.001132 2.04442e-05
-0.000103947 2.04442e-05 0.00104853
0.00237872 -0.000107163 -8.14182e-05
-0.000107163 0.00124036 1.65681e-05
-8.14182e-05 1.65681e-05 0.00116058
0.00271697 -0.000345815 -0.000187689
-0.000345815 0.00122062 3.91718e-05
-0.000187689 3.91718e-05 0.0010572
0.0044806 -5.87589e-05 -0.000152965
-5.87589e-05 0.00268081 6.69262e-08
-0.000152965 6.69262e-08 0.00267513
0.00225349 -9.25762e-05 0.000103688
-9.25762e-05 0.00118697 -5.77814e-06
0.000103688 -5.77814e-06 0.00115165
0.003147 -0.000129831 0.000163552
-0.000129831 0.00172763 -3.21126e-05
0.000163552 -3.21126e-05 0.00167289
0.00246657 -0.000129127 0.000109547
-0.000129127 0.00132117 -1.20843e-05
0.000109547 -1.20843e-05 0.00127582
0.00234791 -0.000199274 -4.47827e-05
-0.000199274 0.00102118 4.61011e-06
-4.47827e-05 4.61011e-06 0.000910049
0.00267884 -0.000389975 -6.48418e-05
-0.000389975 0.0011991 1.27158e-05
-6.48418e-05 1.27158e-05 0.000983592
0.00255634 -0.000304892 -5.09131e-05
-0.000304892 0.00113872 8.20723e-06
-5.09131e-05 8.20723e-06 0.000981939
0.00254084 -0.000623078 -9.79577e-06
-0.000623078 0.000712548 2.78719e-06
-9.79577e-06 2.78719e-06 0.000355687
0.00678114 -3.45204e-05 0.000389543
-3.45204e-05 0.00420724 -7.59478e-06
0.000389543 -7.59478e-06 0.00425633
0.00247229 -6.58869e-05 0.000301658
-6.58869e-05 0.00131459 -2.0925e-05
0.000301658 -2.0925e-05 0.00131209
0.00243839 -4.88589e-05 6.16803e-05
-4.88589e-05 0.00115936 -1.60361e-06
6.16803e-05 -1.60361e-06 0.00108059
0.00218962 -0.000167744 7.20143e-05
-0.000167744 0.00095158 -9.06141e-06
7.20143e-05 -9.06141e-06 0.000844144
0.00234051 -0.000257105 7.95617e-05
-0.000257105 0.00101244 -1.55335e-05
7.95617e-05 -1.55335e-05 0.000863546
0.00230332 -0.000390427 2.36622e-06
-0.000390427 0.000448477 -1.48312e-06
2.36622e-06 -1.48312e-06 0.00023985
0.00234518 -0.000550315 6.5872e-06
-0.000550315 0.000532769 -3.15053e-06
6.5872e-06 -3.15053e-06 0.000240516
0.0035749 -0.000205865 0.00040867
-0.000205865 0.00201521 -7.38292e-05
0.00040867 -7.38292e-05 0.00199117
0.00282424 -0.000322511 5.57569e-05
-0.000322511 0.00132695 -1.84605e-05
5.57569e-05 -1.84605e-05 0.00108042
0.00251697 -0.000714292 9.88087e-06
-0.000714292 0.000729352 -5.61627e-06
9.88087e-06 -5.61627e-06 0.000291602
0.00236742 -0.000805431 -3.04625e-06
-0.000805431 0.000318052 2.23574e-06
-3.04625e-06 2.23574e-06 -5.44968e-05
0.00851625 0.000384095 -0.000482621
0.000384095 0.00535977 -6.68872e-05
-0.000482621 -6.68872e-05 0.00537482
0.0103071 0.000195026 -0.000489351
0.000195026 0.00649334 -5.56969e-05
-0.000489351 -5.56969e-05 0.00652954
0.00935824 0.000325172 -0.000500951
0.000325172 0.00587085 -6.58775e-05
-0.000500951 -6.58775e-05 0.00590322
0.000118879 0.000360716 -2.15125e-05
0.000360716 -0.000399264 -2.94202e-05
-2.15125e-05 -2.94202e-05 -0.000665267
0.00781029 0.000302993 -2.94803e-06
0.000302993 0.00489356 -3.21556e-06
-2.94803e-06 -3.21556e-06 0.00491662
0.00867316 0.000367906 -7.16656e-06
0.000367906 0.00544831 -4.70023e-06
-7.16656e-06 -4.70023e-06 0.00546447
0.000390568 0.000236805 -3.32689e-07
0.000236805 -0.000305297 -4.15102e-07
-3.32689e-07 -4.15102e-07 -0.000495319
0.00617759 5.72381e-05 -0.00021352
5.72381e-05 0.00380339 -2.07778e-05
-0.00021352 -2.07778e-05 0.0037705
0.000352892 0.000336585 3.14483e-07
0.000336585 -0.000287301 -3.15597e-07
3.14483e-07 -3.15597e-07 -0.000530049
0.00197926 0.000406993 0.000108454
0.000406993 0.000860581 1.04728e-05
0.000108454 1.04728e-05 0.000623656
0.00179968 0.000747376 -1.26239e-06
0.000747376 0.000250478 7.65636e-08
-1.26239e-06 7.65636e-08 -0.00023644
0.0094365 3.67966e-05 0.00040782
3.67966e-05 0.00600649 5.644e-05
0.00040782 5.644e-05 0.00601985
0.000580971 0.000307258 3.6308e-05
0.000307258 -6.29962e-05 2.07841e-05
3.6308e-05 2.07841e-05 -0.000225373
0.000529001 0.000189628 1.48941e-05
0.000189628 -0.000210037 1.26064e-05
1.48941e-05 1.26064e-05 -0.000373095
0.000533007 0.000280088 1.83387e-05
0.000280088 -0.000203708 2.31743e-05
1.83387e-05 2.31743e-05 -0.000415682
0.00190637 0.0005395 1.00316e-05
0.0005395 0.000162361 4.43068e-06
1.00316e-05 4.43068e-06 -0.000138552
0.00348445 0.000438316 0.000240321
0.000438316 0.00188796 4.75471e-05
0.000240321 4.75471e-05 0.00169997
0.0017883 0.000673349 1.57066e-05
0.000673349 0.000197517 6.28685e-06
1.57066e-05 6.28685e-06 -0.000220793
0.00180622 0.000742887 2.34127e-05
0.000742887 0.000400752 2.91449e-06
2.34127e-05 2.91449e-06 -0.000156997
0.00222121 0.000962125 -7.79544e-06
0.000962125 0.000303535 -6.46949e-06
-7.79544e-06 -6.46949e-06 -0.000231843
0.00759495 -0.000145903 0.000249098
-0.000145903 0.00485389 3.38393e-05
0.000249098 3.38393e-05 0.00483433
0.00823827 -0.000105095 9.56463e-06
-0.000105095 0.00525638 5.7857e-06
9.56463e-06 5.7857e-06 0.00524802
0.00736354 0.00010685 -0.000412846
0.00010685 0.00457889 -2.6086e-05
-0.000412846 -2.6086e-05 0.00462197
0.00698458 9.43238e-05 -0.000403049
9.43238e-05 0.00433979 -1.61132e-05
-0.000403049 -1.61132e-05 0.0043871
0.00685983 8.46949e-05 -5.00872e-07
8.46949e-05 0.0042665 -4.86367e-06
-5.00872e-07 -4.86367e-06 0.00431263
0.00445443 6.36212e-05 -0.000162124
6.36212e-05 0.00265571 -1.03131e-05
-0.000162124 -1.03131e-05 0.00265433
0.00145318 5.37141e-05 7.73928e-05
5.37141e-05 0.000487458 2.8105e-06
7.73928e-05 2.8105e-06 0.000409552
0.00482255 0.000183867 -0.000157098
0.000183867 0.0029086 -1.12755e-05
-0.000157098 -1.12755e-05 0.00288975
0.00160968 0.000139374 7.86416e-05
0.000139374 0.000550529 5.03786e-06
7.86416e-05 5.03786e-06 0.000449625
0.0068062 9.6237e-05 0.000394457
9.6237e-05 0.00423734 6.84738e-06
0.000394457 6.84738e-06 0.0042798
0.000158048 1.14934e-05 1.3469e-05
1.14934e-05 -0.000360066 1.82215e-06
1.3469e-05 1.82215e-06 -0.00045694
0.00289777 7.63022e-05 0.000170021
7.63022e-05 0.00143175 9.82568e-06
0.000170021 9.82568e-06 0.00137453
0.00163765 0.000123079 7.50402e-06
0.000123079 -6.81599e-05 1.56933e-06
7.50402e-06 1.56933e-06 -0.000187297
0.0028933 0.000193511 0.00017655
0.000193511 0.00138588 1.78718e-05
0.00017655 1.78718e-05 0.00129636
0.00168741 0.000261054 5.54354e-06
0.000261054 -5.81662e-05 1.94762e-06
5.54354e-06 1.94762e-06 -0.000214993
0.00219439 2.38167e-05 -0.000299984
2.38167e-05 0.00111711 6.584e-06
-0.000299984 6.584e-06 0.00113154
0.00190772 -4.54671e-05 -9.08125e-05
-4.54671e-05 0.000970097 6.21932e-06
-9.08125e-05 6.21932e-06 0.000911399
0.00264258 -8.83802e-05 -8.02908e-05
-8.83802e-05 0.00140358 1.6535e-05
-8.02908e-05 1.6535e-05 0.0013202
0.00200599 -0.000134634 -0.000108164
-0.000134634 0.00104403 1.85771e-05
-0.000108164 1.85771e-05 0.000968031
0.00245595 -0.000178158 -0.00016346
-0.000178158 0.00107617 1.78329e-05
-0.00016346 1.78329e-05 0.000982013
0.00266757 -0.000288931 -0.000178318
-0.000288931 0.0011936 3.17194e-05
-0.000178318 3.17194e-05 0.0010569
0.00290548 -0.000424284 -0.000197234
-0.000424284 0.00135466 4.36311e-05
-0.000197234 4.36311e-05 0.00115025
0.00265433 -0.000633607 -2.80602e-05
-0.000633607 0.000784933 9.58395e-06
-2.80602e-05 9.58395e-06 0.00042944
0.00686051 -0.000132626 2.67031e-06
-0.000132626 0.00427686 -2.25551e-06
2.67031e-06 -2.25551e-06 0.0043164
0.00215511 -5.83861e-06 0.000109947
-5.83861e-06 0.00110717 -6.83647e-06
0.000109947 -6.83647e-06 0.00108573
0.00124352 -3.53446e-05 -8.00071e-05
-3.53446e-05 0.000344858 3.86759e-06
-8.00071e-05 3.86759e-06 0.000270285
0.00227033 -0.000135607 -4.61374e-05
-0.000135607 0.0009898 5.00128e-06
-4.61374e-05 5.00128e-06 0.000898419
0.00680805 -0.000214567 0.000395906
-0.000214567 0.00416733 -4.75677e-05
0.000395906 -4.75677e-05 0.00417002
0.00322347 -0.000401061 -6.37317e-05
-0.000401061 0.0016108 9.00881e-06
-6.37317e-05 9.00881e-06 0.00138359
0.00243947 -0.000252824 -4.64677e-05
-0.000252824 0.00106666 5.95317e-06
-4.64677e-05 5.95317e-06 0.000933875
0.0022951 -0.000391448 -8.27957e-06
-0.000391448 0.000432998 1.22677e-06
-8.27957e-06 1.22677e-06 0.000232204
0.00273489 -0.000745264 -7.16851e-06
-0.000745264 0.000885649 1.99696e-06
-7.16851e-06 1.99696e-06 0.000442019
0.00237342 -0.000550686 -1.17283e-05
-0.000550686 0.00055475 3.77103e-06
-1.17283e-05 3.77103e-06 0.000257217
0.00241814 -0.000809911 1.09452e-06
-0.000809911 0.000357044 8.13627e-08
1.09452e-06 8.13627e-08 -1.69485e-05
0.000192603 -5.62355e-06 1.44357e-05
-5.62355e-06 -0.000348327 1.60885e-07
1.44357e-05 1.60885e-07 -0.000442576
0.00214811 -5.61923e-05 6.44027e-05
-5.61923e-05 0.000934248 -3.59343e-06
6.44027e-05 -3.59343e-06 0.000850341
0.0021398 -0.000140626 2.37841e-06
-0.000140626 0.000307892 -1.53026e-08
2.37841e-06 -1.53026e-08 0.000202768
0.00225293 -0.000308982 8.34143e-07
-0.000308982 0.000401768 -4.37721e-07
8.34143e-07 -4.37721e-07 0.000243308
0.00234467 -0.000477313 3.63135e-06
-0.000477313 0.000493981 -1.94502e-06
3.63135e-06 -1.94502e-06 0.000253361
0.00248783 -0.000516369 3.98621e-06
-0.000516369 0.000236021 -2.34765e-06
3.98621e-06 -2.34765e-06 6.65724e-05
0.00969348 -0.000136809 0.000424185
-0.000136809 0.00610943 -4.97833e-05
0.000424185 -4.97833e-05 0.00613449
0.00235194 -0.000728992 1.04655e-06
-0.000728992 0.000238359 2.8925e-07
1.04655e-06 2.8925e-07 -6.31758e-05
5.66915e-05 -0.000303322 1.78729e-05
-0.000303322 -0.000448966 -3.28229e-05
1.78729e-05 -3.28229e-05 -0.000695176
0.00164458 -0.000788934 -9.08928e-06
-0.000788934 0.000171173 -1.99121e-06
-9.08928e-06 -1.99121e-06 -0.000366451
0.00249863 -0.000898801 -7.9389e-06
-0.000898801 0.000491514 3.97424e-06
-7.9389e-06 3.97424e-06 3.59292e-05
0.00256488 -0.000898841 1.15994e-06
-0.000898841 0.000349411 -3.21874e-06
1.15994e-06 -3.21874e-06 1.79845e-05
0.00022642 -0.000269779 2.20086e-05
-0.000269779 -0.000274001 -2.82328e-05
2.20086e-05 -2.82328e-05 -0.000484995
0.00206104 -0.000368455 7.14115e-06
-0.000368455 0.000947692 2.58324e-06
7.14115e-06 2.58324e-06 0.000559963
0.00803907 0.000333693 -0.000464961
0.000333693 0.00504727 -5.72739e-05
-0.000464961 -5.72739e-05 0.00506812
0.00891321 0.00037381 -0.00048913
0.00037381 0.00560306 -6.87595e-05
-0.00048913 -6.87595e-05 0.00562367
0.000366011 0.000238886 -1.67482e-05
0.000238886 -0.000321889 -1.60835e-05
-1.67482e-05 -1.60835e-05 -0.000514488
0.00954429 9.64308e-05 -0.000419487
9.64308e-05 0.0060266 -4.66819e-05
-0.000419487 -4.66819e-05 0.0060536
8.79571e-05 0.000330937 -2.43447e-05
0.000330937 -0.00040035 -3.34502e-05
-2.43447e-05 -3.34502e-05 -0.000655133
0.000277589 0.000328699 -1.8715e-05
0.000328699 -0.000335941 -2.53481e-05
-1.8715e-05 -2.53481e-05 -0.000580773
0.00158323 0.000753736 -1.54194e-05
0.000753736 8.35692e-05 -5.23176e-06
-1.54194e-05 -5.23176e-06 -0.000413609
0.00907671 4.54392e-05 -1.65979e-05
4.54392e-05 0.00576254 -3.65916e-07
-1.65979e-05 -3.65916e-07 0.00577883
0.000776346 0.000269079 1.7391e-06
0.000269079 6.10722e-05 6.29598e-07
1.7391e-06 6.29598e-07 -9.83502e-05
0.00183149 0.000243193 8.52033e-05
0.000243193 0.000657313 9.03286e-06
8.52033e-05 9.03286e-06 0.000514332
0.00198318 0.00034857 9.46687e-05
0.00034857 0.000771617 1.21954e-05
9.46687e-05 1.21954e-05 0.000579229
0.00183396 0.000534284 -4.12598e-07
0.000534284 0.000119477 -3.78323e-07
-4.12598e-07 -3.78323e-07 -0.000181909
4.796e-05 0.000306833 3.04083e-06
0.000306833 -0.000401908 -1.2167e-06
3.04083e-06 -1.2167e-06 -0.000641353
0.001881 0.000680844 2.22719e-07
0.000680844 0.000259014 5.72275e-08
2.22719e-07 5.72275e-08 -0.000161883
0.00141732 0.000714376 -3.43746e-07
0.000714376 0.000122597 -1.87937e-06
-3.43746e-07 -1.87937e-06 -0.000427592
0.00237916 0.000983138 4.23041e-07
0.000983138 0.000407935 9.17481e-07
4.23041e-07 9.17481e-07 -0.000127299
0.000343999 0.000284486 2.04091e-05
0.000284486 -0.000197178 3.04083e-05
2.04091e-05 3.04083e-05 -0.000411374
0.00102876 0.000219419 2.54733e-05
0.000219419 0.000270546 2.20449e-05
2.54733e-05 2.20449e-05 0.000122998
-0.00128129 0.000484365 1.11436e-05
0.000484365 -0.00106849 -1.8607e-05
1.11436e-05 -1.8607e-05 -0.00150392
0.00187242 0.00045561 9.12563e-06
0.00045561 9.47583e-05 3.30561e-06
9.12563e-06 3.30561e-06 -0.000151584
0.00186941 0.000604346 1.40506e-05
0.000604346 0.000176882 6.11027e-06
1.40506e-05 6.11027e-06 -0.000178093
0.00240839 0.000739032 2.35743e-06
0.000739032 0.000252813 6.65507e-07
2.35743e-06 6.65507e-07 -4.17171e-05
0.00149185 0.000628885 2.70431e-05
0.000628885 0.000381633 -2.00078e-06
2.70431e-05 -2.00078e-06 -0.000151267
0.00269153 0.000973913 -5.71528e-06
0.000973913 0.000590385 -3.50923e-06
-5.71528e-06 -3.50923e-06 0.000121048
0.0029243 0.00126136 -9.99444e-06
0.00126136 0.000941552 -8.66344e-06
-9.99444e-06 -8.66344e-06 0.000192116
0.00216838 0.000957234 -7.00725e-06
0.000957234 0.00012039 -3.42214e-06
-7.00725e-06 -3.42214e-06 -0.00036566
0.00639466 -0.000148247 0.000184798
-0.000148247 0.00404924 2.2168e-05
0.000184798 2.2168e-05 0.00403088
0.0072597 -0.000166266 5.44322e-06
-0.000166266 0.00462127 3.44721e-06
5.44322e-06 3.44721e-06 0.00459852
0.0080912 -0.000143429 -0.000248657
-0.000143429 0.00514279 -2.13209e-05
-0.000248657 -2.13209e-05 0.0051308
0.000724358 -0.000314641 2.97447e-05
-0.000314641 7.70309e-05 -2.79846e-05
2.97447e-05 -2.79846e-05 -0.00010887
0.00905811 -7.33667e-05 0.000381193
-7.33667e-05 0.00573965 -4.74892e-05
0.000381193 -4.74892e-05 0.00575631
0.00765181 0.000264809 -0.000444785
0.000264809 0.00478715 -4.5072e-05
-0.000444785 -4.5072e-05 0.00481712
0.00708956 0.000130038 -0.000405003
0.000130038 0.00440713 -2.25858e-05
-0.000405003 -2.25858e-05 0.00445061
0.000249844 0.000137867 -1.44496e-05
0.000137867 -0.000358796 -7.68442e-06
-1.44496e-05 -7.68442e-06 -0.000486348
0.000157109 5.47639e-05 -1.36283e-05
5.47639e-05 -0.000375526 -3.91406e-06
-1.36283e-05 -3.91406e-06 -0.000479314
0.00680801 6.0761e-06 -0.000389831
6.0761e-06 0.0042239 -5.11876e-06
-0.000389831 -5.11876e-06 0.00427308
0.00675136 -8.87946e-06 1.39283e-07
-8.87946e-06 0.00418743 -1.48256e-06
1.39283e-07 -1.48256e-06 0.00423712
0.000140375 5.96596e-06 -4.32618e-08
5.96596e-06 -0.000375891 2.59127e-07
-4.32618e-08 2.59127e-07 -0.000471481
0.00150647 7.34242e-05 7.81861e-05
7.34242e-05 0.000501883 4.30073e-06
7.81861e-05 4.30073e-06 0.000417044
0.001639 0.000125494 1.32677e-07
0.000125494 -5.21192e-05 -5.65322e-08
1.32677e-07 -5.65322e-08 -0.000172177
0.000354034 0.000150708 -8.74776e-07
0.000150708 -0.000307753 -3.0055e-07
-8.74776e-07 -3.0055e-07 -0.00045176
0.00171069 0.000262135 -1.68156e-07
0.000262135 -1.56282e-05 1.88409e-08
-1.68156e-07 1.88409e-08 -0.000173678
0.000138581 -3.21643e-05 1.42944e-05
-3.21643e-05 -0.000378255 -8.02304e-08
1.42944e-05 -8.02304e-08 -0.000470829
0.00160189 5.76942e-05 6.36116e-06
5.76942e-05 -7.93997e-05 1.06791e-06
6.36116e-06 1.06791e-06 -0.000190524
0.00165053 0.000193592 6.48674e-06
0.000193592 -6.75247e-05 2.00154e-06
6.48674e-06 2.00154e-06 -0.000201836
0.00245148 0.00019116 4.73858e-06
0.00019116 0.000113216 9.70585e-07
4.73858e-06 9.70585e-07 7.44408e-05
0.00177755 0.000355733 7.69465e-06
0.000355733 7.04061e-06 2.47603e-06
7.69465e-06 2.47603e-06 -0.000188484
0.00246217 0.000395894 5.42537e-06
0.000395894 0.000158404 1.44119e-06
5.42537e-06 1.44119e-06 6.13598e-05
0.00678123 -9.65061e-05 -0.0003931
-9.65061e-05 0.00421877 7.78255e-06
-0.0003931 7.78255e-06 0.00426195
0.0018034 -0.00017028 -9.01947e-05
-0.00017028 0.000928109 1.29025e-05
-9.01947e-05 1.29025e-05 0.000859114
-4.16655e-05 -2.10605e-05 -8.89933e-06
-2.10605e-05 -0.000510921 1.14912e-06
-8.89933e-06 1.14912e-06 -0.000615161
0.0023844 -0.000126763 -0.000158427
-0.000126763 0.00105425 1.28643e-05
-0.000158427 1.28643e-05 0.000977383
0.00986001 4.31784e-05 -0.000123449
4.31784e-05 0.0061617 6.80412e-06
-0.000123449 6.80412e-06 0.00613083
0.00358031 -0.000469112 -0.000209869
-0.000469112 0.00187059 4.90031e-05
-0.000209869 4.90031e-05 0.00165593
0.00257219 -0.000234169 -0.00016986
-0.000234169 0.00113762 2.41228e-05
-0.00016986 2.41228e-05 0.00102312
0.00228822 -0.00039196 -2.12523e-05
-0.00039196 0.000418708 4.15862e-06
-2.12523e-05 4.15862e-06 0.000226035
0.00238119 -0.000549586 -2.57103e-05
-0.000549586 0.000561015 9.11487e-06
-2.57103e-05 9.11487e-06 0.000258653
0.0028222 -0.000756363 -3.20042e-05
-0.000756363 0.000955218 1.13112e-05
-3.20042e-05 1.13112e-05 0.000512163
0.00245249 -0.000811037 2.50378e-06
-0.000811037 0.000389547 -1.34874e-06
2.50378e-06 -1.34874e-06 1.50116e-05
0.000149511 -7.27588e-06 6.60968e-08
-7.27588e-06 -0.000373452 4.52993e-07
6.60968e-08 4.52993e-07 -0.000468245
0.00222607 -0.000124863 -4.48295e-05
-0.000124863 0.000993579 1.46727e-06
-4.48295e-05 1.46727e-06 0.00091297
0.00201237 -0.000138966 -1.25834e-05
-0.000138966 0.00021537 7.19122e-07
-1.25834e-05 7.19122e-07 0.000110724
0.00223505 -0.000304754 -1.22052e-05
-0.000304754 0.000385299 2.08899e-06
-1.22052e-05 2.08899e-06 0.000221941
0.00993078 -0.000139817 5.17231e-06
-0.000139817 0.00625924 -1.67114e-06
5.17231e-06 -1.67114e-06 0.00628587
0.00190143 -0.000337245 1.54248e-05
-0.000337245 0.000791336 9.92251e-07
1.54248e-05 9.92251e-07 0.00053805
0.00221118 -0.000781527 7.47428e-06
-0.000781527 0.00056144 -3.24589e-06
7.47428e-06 -3.24589e-06 4.85668e-05
0.0024007 -0.000484064 -1.15495e-05
-0.000484064 0.000532233 3.16726e-06
-1.15495e-05 3.16726e-06 0.000290002
0.00243273 -0.000517244 2.896e-06
-0.000517244 0.000186998 -9.99607e-07
2.896e-06 -9.99607e-07 3.05333e-05
0.00252885 -0.000898259 2.31329e-06
-0.000898259 0.000516397 -5.88314e-07
2.31329e-06 -5.88314e-07 6.29877e-05
0.00232286 -0.000719092 3.4906e-07
-0.000719092 0.000221616 4.29306e-07
3.4906e-07 4.29306e-07 -8.21445e-05
0.00251485 -0.000892609 -6.19803e-07
-0.000892609 0.000317677 7.5605e-07
-6.19803e-07 7.5605e-07 -1.26496e-05
0.000169652 -0.000295117 1.92166e-06
-0.000295117 -0.000314776 -2.03814e-07
1.92166e-06 -2.03814e-07 -0.000529123
0.000880749 -0.000394253 -2.14688e-06
-0.000394253 0.000236687 5.21886e-07
-2.14688e-06 5.21886e-07 -0.000195339
0.00158471 -6.53784e-05 5.70197e-06
-6.53784e-05 -7.13075e-05 -1.96227e-07
5.70197e-06 -1.96227e-07 -0.000184127
0.00234388 -0.000223601 1.14322e-06
-0.000223601 0.000449932 -2.78978e-07
1.14322e-06 -2.78978e-07 0.000327003
0.00224507 -0.000199367 4.74536e-06
-0.000199367 -3.24433e-05 -9.25001e-07
4.74536e-06 -9.25001e-07 -9.32561e-05
0.00233605 -0.000417191 2.18085e-06
-0.000417191 6.33662e-05 -1.05244e-06
2.18085e-06 -1.05244e-06 -3.74929e-05
0.00230644 -0.000637313 1.20433e-06
-0.000637313 0.000136502 -1.67208e-06
1.20433e-06 -1.67208e-06 -9.36561e-05
0.00250283 -0.000531187 4.82198e-06
-0.000531187 0.000184549 -1.68876e-06
4.82198e-06 -1.68876e-06 8.59751e-05
0.00016963 -0.000280831 1.70758e-05
-0.000280831 -0.000341791 -3.26507e-05
1.70758e-05 -3.26507e-05 -0.000577339
0.00253506 -0.00079301 2.50275e-06
-0.00079301 0.0002515 -2.22456e-06
2.50275e-06 -2.22456e-06 2.0186e-05
0.00151277 -0.000716843 -1.16373e-06
-0.000716843 0.000131706 -5.20875e-06
-1.16373e-06 -5.20875e-06 -0.000405641
0.0023901 -0.0010112 2.63632e-06
-0.0010112 0.000455061 1.34839e-06
2.63632e-06 1.34839e-06 -0.000107012
0.00269725 -0.000972516 -4.16865e-07
-0.000972516 0.000528598 -3.01531e-06
-4.16865e-07 -3.01531e-06 9.63443e-05
0.00253366 -0.00092289 3.29713e-06
-0.00092289 0.000229119 -1.35756e-06
3.29713e-06 -1.35756e-06 -2.68874e-05
0.00158235 -0.000461753 1.51524e-05
-0.000461753 0.000605743 4.81522e-06
1.51524e-05 4.81522e-06 0.000107885
0.00133723 -0.000327573 6.84839e-06
-0.000327573 0.000627399 -2.03226e-06
6.84839e-06 -2.03226e-06 0.00024916
0.00162129 -0.000623581 7.56709e-06
-0.000623581 0.000673405 3.91041e-06
7.56709e-06 3.91041e-06 4.98858e-05
0.000390839 0.000201061 -1.59264e-05
0.000201061 -0.000304812 -1.20631e-05
-1.59264e-05 -1.20631e-05 -0.000474593
0.00877044 -7.03887e-08 -0.00035454
-7.03887e-08 0.00556062 -3.54966e-05
-0.00035454 -3.54966e-05 0.00557725
0.00044279 0.000204589 -2.00317e-05
0.000204589 -0.000130882 -2.25338e-05
-2.00317e-05 -2.25338e-05 -0.000293002
0.000331326 0.000283383 -1.78802e-05
0.000283383 -0.000330293 -2.13585e-05
-1.78802e-05 -2.13585e-05 -0.000548091
0.00176561 0.000530032 -1.13435e-05
0.000530032 7.80955e-05 -4.73749e-06
-1.13435e-05 -4.73749e-06 -0.000223959
0.00027959 0.000290091 -2.05393e-05
0.000290091 -0.000262109 -3.06906e-05
-2.05393e-05 -3.06906e-05 -0.000494798
0.00116343 0.000708184 -2.0004e-05
0.000708184 -8.70766e-05 -4.00999e-06
-2.0004e-05 -4.00999e-06 -0.000630511
0.00189552 0.000678078 -1.81841e-05
0.000678078 0.000274237 -6.55487e-06
-1.81841e-05 -6.55487e-06 -0.000146634
0.00246162 0.000998736 1.01293e-07
0.000998736 0.000453663 4.57588e-06
1.01293e-07 4.57588e-06 -8.07744e-05
0.00031394 0.00029353 -8.27235e-06
0.00029353 -0.000223228 5.50684e-08
-8.27235e-06 5.50684e-08 -0.000425987
0.000427073 0.000181042 -2.21582e-06
0.000181042 -9.84538e-05 2.06209e-06
-2.21582e-06 2.06209e-06 -0.000247599
0.00111259 0.000510058 2.07552e-06
0.000510058 0.000389939 1.05263e-06
2.07552e-06 1.05263e-06 2.75555e-05
0.00183249 0.000451106 -5.07859e-07
0.000451106 8.19717e-05 -2.66544e-07
-5.07859e-07 -2.66544e-07 -0.000164505
0.00183672 0.000598597 -3.112e-07
0.000598597 0.000165233 -2.06691e-07
-3.112e-07 -2.06691e-07 -0.00018935
0.00245954 0.000746585 -6.07752e-07
0.000746585 0.000282353 -1.98224e-07
-6.07752e-07 -1.98224e-07 -1.4022e-05
0.000899646 0.000552809 6.03234e-06
0.000552809 -3.1497e-05 -2.41218e-06
6.03234e-06 -2.41218e-06 -0.000533612
0.00266652 0.000963864 -2.18544e-06
0.000963864 0.000574272 -1.08193e-06
-2.18544e-06 -1.08193e-06 0.00010899
0.0025622 0.00121947 -2.79698e-06
0.00121947 0.000670019 -1.72761e-06
-2.79698e-06 -1.72761e-06 -6.38865e-05
0.0021043 0.00094399 -3.22164e-07
0.00094399 6.0223e-05 4.9592e-06
-3.22164e-07 4.9592e-06 -0.000415617
0.00108742 0.000151197 1.84739e-05
0.000151197 0.000384597 2.16339e-05
1.84739e-05 2.16339e-05 0.000257625
0.000361015 0.000682665 9.89115e-06
0.000682665 -0.00011698 -1.28756e-05
9.89115e-06 -1.28756e-05 -0.000576667
0.000786568 0.000318654 -4.26323e-06
0.000318654 0.000260044 -1.53497e-06
-4.26323e-06 -1.53497e-06 -0.000115364
-0.00163864 0.000275819 -9.40482e-06
0.000275819 -0.00132818 -7.64497e-06
-9.40482e-06 -7.64497e-06 -0.00174301
0.00244655 0.000636942 3.17096e-06
0.000636942 0.000224177 1.59235e-06
3.17096e-06 1.59235e-06 4.78605e-06
0.00247657 0.000844067 -9.4044e-07
0.000844067 0.000367537 -1.05317e-06
-9.4044e-07 -1.05317e-06 -9.51445e-06
0.00259175 0.000806464 2.68809e-06
0.000806464 0.000265242 1.41135e-06
2.68809e-06 1.41135e-06 2.09628e-05
0.00280512 0.00120016 -1.02066e-05
0.00120016 0.00114493 -1.7683e-05
-1.02066e-05 -1.7683e-05 0.000315734
0.00271744 0.00102848 -3.70192e-06
0.00102848 0.000502777 1.14958e-06
-3.70192e-06 1.14958e-06 6.24e-05
0.00291232 0.00134102 -7.10364e-06
0.00134102 0.000815983 -1.22008e-05
-7.10364e-06 -1.22008e-05 4.51256e-05
0.00240011 0.000949034 -2.5915e-06
0.000949034 0.000144291 1.44103e-06
-2.5915e-06 1.44103e-06 -0.000302581
0.00121817 0.000192943 -4.32489e-06
0.000192943 0.000599748 9.88502e-06
-4.32489e-06 9.88502e-06 0.000414225
0.000529731 9.51705e-05 1.00108e-05
9.51705e-05 7.56149e-05 1.56719e-05
1.00108e-05 1.56719e-05 -7.8164e-06
0.00506435 -0.000157993 0.000100611
-0.000157993 0.00315217 1.54082e-05
0.000100611 1.54082e-05 0.00313259
0.00578298 -0.000193949 2.22935e-05
-0.000193949 0.00364624 -8.78604e-07
2.22935e-05 -8.78604e-07 0.00361648
0.00658547 -0.0002384 -0.000135169
-0.0002384 0.00419399 -1.82644e-05
-0.000135169 -1.82644e-05 0.00415167
0.000349662 -0.000301075 3.44988e-05
-0.000301075 -0.000111414 -1.99381e-05
3.44988e-05 -1.99381e-05 -0.000258346
0.0079232 8.39212e-06 0.000282496
8.39212e-06 0.00502451 -3.75377e-05
0.000282496 -3.75377e-05 0.00502666
0.000511416 -0.000325792 4.34064e-06
-0.000325792 -7.51254e-05 4.4625e-07
4.34064e-06 4.4625e-07 -0.000261543
0.00932351 -9.31841e-05 7.55564e-06
-9.31841e-05 0.00590484 -1.38538e-06
7.55564e-06 -1.38538e-06 0.00592169
0.000341937 0.000173642 -1.58264e-05
0.000173642 -0.000320019 -9.69044e-06
-1.58264e-05 -9.69044e-06 -0.000468622
0.000188488 6.21133e-05 -1.25174e-05
6.21133e-05 -0.000379366 -4.74461e-06
-1.25174e-05 -4.74461e-06 -0.000490761
0.00174337 0.000263114 -5.53965e-06
0.000263114 2.77018e-05 -1.54249e-06
-5.53965e-06 -1.54249e-06 -0.000131397
0.00164683 0.000127595 -7.01667e-06
0.000127595 -3.24746e-05 -1.47338e-06
-7.01667e-06 -1.47338e-06 -0.000153308
0.000182609 1.1134e-06 -1.39668e-05
1.1134e-06 -0.000351801 -1.76547e-06
-1.39668e-05 -1.76547e-06 -0.000446309
0.00684571 -0.000103319 -0.000400934
-0.000103319 0.00426388 7.46155e-06
-0.000400934 7.46155e-06 0.0043073
0.000172546 -4.39412e-06 -5.43041e-08
-4.39412e-06 -0.0003557 -6.72538e-07
-5.43041e-08 -6.72538e-07 -0.000448039
0.00161199 6.26945e-05 3.4398e-08
6.26945e-05 -6.51351e-05 2.96772e-08
3.4398e-08 2.96772e-08 -0.000176788
0.00167546 0.000192866 6.55947e-08
0.000192866 -3.36087e-05 7.74584e-08
6.55947e-08 7.74584e-08 -0.000168446
0.00247005 0.000189154 -1.49387e-07
0.000189154 0.000125389 1.29885e-07
-1.49387e-07 1.29885e-07 8.67448e-05
0.00177863 0.000353028 -4.81977e-07
0.000353028 2.64805e-05 -9.07755e-08
-4.81977e-07 -9.07755e-08 -0.000169386
0.0024586 0.000395375 -1.28407e-07
0.000395375 0.000149964 1.51877e-07
-1.28407e-07 1.51877e-07 5.26179e-05
0.00159468 -4.66861e-06 5.31225e-06
-4.66861e-06 -6.92854e-05 3.80105e-07
5.31225e-06 3.80105e-07 -0.000179043
0.00246841 9.30385e-05 5.41511e-06
9.30385e-05 0.000117144 4.81702e-07
5.41511e-06 4.81702e-07 8.97014e-05
0.00243883 0.000289764 4.5303e-06
0.000289764 0.000123649 1.26737e-06
4.5303e-06 1.26737e-06 5.90004e-05
0.002244 0.000190171 3.45692e-06
0.000190171 -4.58417e-05 6.21404e-07
3.45692e-06 6.21404e-07 -2.20925e-05
0.00245163 0.000511362 4.92928e-06
0.000511362 0.000176452 1.91318e-06
4.92928e-06 1.91318e-06 2.93425e-05
0.00229036 0.000370975 3.73663e-06
0.000370975 -1.49439e-05 6.944e-07
3.73663e-06 6.944e-07 -4.51972e-05
0.000182063 -1.15429e-05 -1.34249e-05
-1.15429e-05 -0.000346846 4.11252e-08
-1.34249e-05 4.11252e-08 -0.000443386
0.00228713 -8.13593e-05 -0.000156207
-8.13593e-05 0.00101541 9.07634e-06
-0.000156207 9.07634e-06 0.000952217
0.00185743 -0.000136986 -1.73572e-05
-0.000136986 0.000103817 1.52915e-06
-1.73572e-05 1.52915e-06 -6.05938e-07
0.00217944 -0.000300275 -1.92724e-05
-0.000300275 0.000339418 3.17786e-06
-1.92724e-05 3.17786e-06 0.000170973
0.0100855 -0.000167787 -0.000463634
-0.000167787 0.00635046 5.99408e-05
-0.000463634 5.99408e-05 0.00637799
0.00380608 -0.000460144 -0.000235878
-0.000460144 0.00206028 4.69344e-05
-0.000235878 4.69344e-05 0.00184723
0.00263541 -0.000790516 -1.00648e-05
-0.000790516 0.000887822 7.73485e-06
-1.00648e-05 7.73485e-06 0.000384667
0.00244094 -0.000490082 -2.58009e-05
-0.000490082 0.000558685 7.41467e-06
-2.58009e-05 7.41467e-06 0.000314979
0.0023663 -0.000517398 -4.80586e-07
-0.000517398 0.000128849 5.47627e-07
-4.80586e-07 5.47627e-07 -1.44958e-05
0.00231397 -0.000710646 4.09566e-08
-0.000710646 0.000219869 7.61429e-07
4.09566e-08 7.61429e-07 -8.61975e-05
0.00261168 -0.000909729 6.94146e-06
-0.000909729 0.000566124 -2.62826e-06
6.94146e-06 -2.62826e-06 0.000110615
0.00242976 -0.000884133 3.87985e-07
-0.000884133 0.000258141 3.41312e-06
3.87985e-07 3.41312e-06 -7.04238e-05
0.000154268 -0.000310701 -2.23995e-05
-0.000310701 -0.000322415 3.01712e-05
-2.23995e-05 3.01712e-05 -0.000542012
-0.000913884 -0.000358169 -5.23334e-06
-0.000358169 -0.000836548 -4.61691e-06
-5.23334e-06 -4.61691e-06 -0.00132448
0.00167971 -6.34128e-05 9.11868e-07
-6.34128e-05 -9.43007e-06 -7.87871e-08
9.11868e-07 -7.87871e-08 -0.00011429
0.0022272 -0.000222057 -1.15289e-05
-0.000222057 0.000362942 1.30851e-06
-1.15289e-05 1.30851e-06 0.000239199
0.00224964 -0.000195527 2.14075e-06
-0.000195527 -3.24412e-05 -3.07178e-07
2.14075e-06 -3.07178e-07 -8.81368e-05
0.00234193 -0.000414642 -1.10269e-06
-0.000414642 8.83767e-05 1.88867e-07
-1.10269e-06 1.88867e-07 -2.51241e-05
6.82939e-05 -0.000302182 -2.668e-06
-0.000302182 -0.000394976 -5.99912e-07
-2.668e-06 -5.99912e-07 -0.000637936
0.00150288 -0.000717411 -7.17121e-07
-0.000717411 0.000166036 -2.88604e-07
-7.17121e-07 -2.88604e-07 -0.000378179
0.00247658 -0.00102983 3.96873e-07
-0.00102983 0.000504741 1.54038e-06
3.96873e-07 1.54038e-06 -7.11035e-05
0.00238507 -0.000635654 1.71134e-06
-0.000635654 0.000207744 -8.4501e-07
1.71134e-06 -8.4501e-07 -2.71551e-05
0.00242701 -0.00052881 -1.31974e-07
-0.00052881 0.000109525 1.0028e-07
-1.31974e-07 1.0028e-07 2.02178e-05
0.00262956 -0.000964659 2.36596e-06
-0.000964659 0.000478044 -1.57518e-06
2.36596e-06 -1.57518e-06 5.26704e-05
0.00253345 -0.000792243 -6.2614e-07
-0.000792243 0.000250039 2.11964e-07
-6.2614e-07 2.11964e-07 1.94447e-05
0.00251158 -0.000933541 2.49725e-07
-0.000933541 0.000207495 7.64369e-08
2.49725e-07 7.64369e-08 -4.99545e-05
0.000828407 -0.000448016 -3.40635e-06
-0.000448016 0.000127891 1.03168e-07
-3.40635e-06 1.03168e-07 -0.000390075
0.00149864 -0.000569079 3.774e-07
-0.000569079 0.000613511 -1.1816e-06
3.774e-07 -1.1816e-06 7.3724e-06
0.000739324 -0.000292251 1.24063e-07
-0.000292251 0.000302225 4.20333e-08
1.24063e-07 4.20333e-08 -0.000104515
0.00225775 -9.88196e-05 5.11752e-06
-9.88196e-05 -2.55009e-05 -3.97824e-07
5.11752e-06 -3.97824e-07 -7.40858e-05
0.00226939 -0.000296335 2.54638e-06
-0.000296335 -1.32597e-05 -1.0774e-06
2.54638e-06 -1.0774e-06 -8.83703e-05
0.00232757 -0.000179048 6.328e-06
-0.000179048 4.58968e-05 -6.17161e-07
6.328e-06 -6.17161e-07 5.7183e-05
0.00231799 -0.000414416 2.49554e-06
-0.000414416 9.33735e-06 -5.30405e-07
2.49554e-06 -5.30405e-07 -3.06846e-05
0.00236457 -0.000671019 2.46089e-06
-0.000671019 7.62641e-05 -9.05115e-07
2.46089e-06 -9.05115e-07 -7.04943e-05
0.00258486 -0.000575849 3.19475e-07
-0.000575849 8.81194e-05 2.79109e-07
3.19475e-07 2.79109e-07 5.48035e-05
0.00136335 -0.000578669 1.31595e-05
-0.000578669 0.000289232 -2.61648e-06
1.31595e-05 -2.61648e-06 -0.000255184
0.00258393 -0.000835333 1.77589e-06
-0.000835333 0.000169258 -1.10359e-06
1.77589e-06 -1.10359e-06 1.42585e-05
0.00242077 -0.00116655 1.25354e-06
-0.00116655 0.000585087 -1.38789e-06
1.25354e-06 -1.38789e-06 -0.000122437
0.00281493 -0.00110839 1.187e-05
-0.00110839 0.000636836 -1.61589e-06
1.187e-05 -1.61589e-06 8.75679e-05
0.00272287 -0.000993756 8.22476e-06
-0.000993756 0.000483565 -3.76788e-06
8.22476e-06 -3.76788e-06 0.000104688
0.00263949 -0.000979382 5.93082e-06
-0.000979382 0.000211103 -1.46373e-06
5.93082e-06 -1.46373e-06 1.54254e-06
-0.000973848 -0.000162322 4.05129e-06
-0.000162322 -0.000802282 -1.85406e-06
4.05129e-06 -1.85406e-06 -0.00118278
0.00163482 -0.000834566 4.88125e-06
-0.000834566 0.000537344 1.20827e-05
4.88125e-06 1.20827e-05 -0.000203635
0.000100906 -0.000315292 2.72698e-05
-0.000315292 6.45808e-08 2.45487e-06
2.72698e-05 2.45487e-06 -0.000573339
0.00183826 -0.000903415 2.10415e-05
-0.000903415 0.00086774 1.52224e-05
2.10415e-05 1.52224e-05 8.4861e-05
0.00178376 0.000446141 -1.01103e-05
0.000446141 6.30007e-05 -3.33299e-06
-1.01103e-05 -3.33299e-06 -0.000183511
-9.565e-05 0.000179184 -1.98217e-05
0.000179184 -0.000418667 -2.31892e-05
-1.98217e-05 -2.31892e-05 -0.00057651
0.000627001 0.000270974 -2.73488e-05
0.000270974 -3.83144e-05 -2.59915e-05
-2.73488e-05 -2.59915e-05 -0.00022477
0.00204029 0.000392424 9.40256e-07
0.000392424 0.000994674 2.07255e-05
9.40256e-07 2.07255e-05 0.000646385
0.00179354 0.000593752 -1.54345e-05
0.000593752 0.000143308 -6.00202e-06
-1.54345e-05 -6.00202e-06 -0.000211379
0.00251214 0.000754265 -2.51726e-06
0.000754265 0.0003134 -7.46441e-07
-2.51726e-06 -7.46441e-07 1.50782e-05
0.00062948 0.000478973 -2.36289e-05
0.000478973 -0.000235547 -4.87528e-06
-2.36289e-05 -4.87528e-06 -0.000705552
0.00234835 0.00117813 2.17065e-06
0.00117813 0.000524575 2.27084e-06
2.17065e-06 2.27084e-06 -0.000191622
0.0026508 0.000957268 6.26361e-06
0.000957268 0.000562287 4.42905e-06
6.26361e-06 4.42905e-06 9.9875e-05
0.00204652 0.000929312 6.53745e-06
0.000929312 1.58029e-05 1.22094e-05
6.53745e-06 1.22094e-05 -0.000449175
0.000488155 0.000124847 -1.57507e-06
0.000124847 1.42376e-05 1.28922e-07
-1.57507e-06 1.28922e-07 -0.000116749
0.00139356 0.000487959 -7.51317e-06
0.000487959 0.000504085 4.09952e-06
-7.51317e-06 4.09952e-06 8.34602e-05
0.000242406 0.000338531 2.38795e-06
0.000338531 -9.45261e-05 -1.5797e-06
2.38795e-06 -1.5797e-06 -0.000471102
0.00042875 0.000403182 -4.17444e-06
0.000403182 -3.36477e-05 1.04916e-05
-4.17444e-06 1.04916e-05 -0.000459451
0.00246755 0.000642973 -6.4544e-07
0.000642973 0.000229217 -2.76923e-07
-6.4544e-07 -2.76923e-07 8.12623e-06
0.00246427 0.000845811 -1.06228e-06
0.000845811 0.000354789 -2.65085e-07
-1.06228e-06 -2.65085e-07 -2.29941e-05
0.00256005 0.000800551 3.52169e-07
0.000800551 0.000248309 -2.28311e-09
3.52169e-07 -2.28311e-09 6.95055e-06
0.00236637 0.00116988 -4.33607e-07
0.00116988 0.000848336 -1.34662e-06
-4.33607e-07 -1.34662e-06 1.26202e-05
0.00272881 0.00103106 1.05353e-06
0.00103106 0.000525986 4.79302e-07
1.05353e-06 4.79302e-07 8.06836e-05
0.00278406 0.00131141 -1.98614e-06
0.00131141 0.000757453 -3.86351e-06
-1.98614e-06 -3.86351e-06 -3.02181e-06
0.00276751 0.000949143 -9.24717e-06
0.000949143 0.000427071 2.60462e-06
-9.24717e-06 2.60462e-06 -7.39373e-06
0.000819185 0.000103159 1.14598e-05
0.000103159 0.000239309 1.9106e-05
1.14598e-05 1.9106e-05 0.000142397
0.00207067 0.000275942 1.76306e-06
0.000275942 0.00114098 1.52748e-05
1.76306e-06 1.52748e-05 0.000802523
9.32537e-05 0.000734361 -4.58166e-06
0.000734361 -0.000280024 -2.81565e-05
-4.58166e-06 -2.81565e-05 -0.000941381
0.000293409 0.000544322 1.68332e-05
0.000544322 -7.0648e-05 2.73817e-06
1.68332e-05 2.73817e-06 -0.000468957
0.00126084 0.000379616 1.963e-07
0.000379616 0.000295764 9.25482e-06
1.963e-07 9.25482e-06 -0.00012258
0.00250777 0.000666675 2.0353e-06
0.000666675 0.000141948 9.46335e-07
2.0353e-06 9.46335e-07 -2.68373e-06
0.00258181 0.000934773 7.09123e-07
0.000934773 0.000333838 2.07096e-06
7.09123e-07 2.07096e-06 -1.53543e-05
0.00263607 0.000875072 -1.05532e-06
0.000875072 0.000219627 1.4093e-06
-1.05532e-06 1.4093e-06 -3.3402e-07
0.00273847 0.00154584 5.83867e-06
0.00154584 0.00111667 -1.02625e-05
5.83867e-06 -1.02625e-05 0.000103827
0.00298297 0.00106904 -6.12735e-06
0.00106904 0.000576015 1.12047e-06
-6.12735e-06 1.12047e-06 0.000157227
0.00227953 0.00135471 6.57756e-06
0.00135471 0.000319561 -3.80168e-06
6.57756e-06 -3.80168e-06 -0.00044774
0.000966252 0.000198227 -2.74738e-07
0.000198227 0.000429086 9.91376e-06
-2.74738e-07 9.91376e-06 0.000203336
0.00077558 0.000253873 -1.06049e-05
0.000253873 0.000472042 5.55029e-06
-1.06049e-05 5.55029e-06 0.000139915
0.000989584 0.000155959 -1.7869e-06
0.000155959 0.000452888 4.44633e-06
-1.7869e-06 4.44633e-06 0.000307724
0.000426264 8.4102e-05 -3.58224e-06
8.4102e-05 7.71005e-05 -4.01085e-07
-3.58224e-06 -4.01085e-07 -9.62908e-05
0.00194998 2.79988e-05 1.66058e-06
2.79988e-05 0.00103743 1.01209e-05
1.66058e-06 1.01209e-05 0.000978965
0.00111266 6.1223e-05 -2.2003e-06
6.1223e-05 0.000469067 1.3425e-07
-2.2003e-06 1.3425e-07 0.000393333
0.00124647 1.55155e-05 0.000112479
1.55155e-05 0.00055973 2.11322e-05
0.000112479 2.11322e-05 0.000547702
0.00509718 -0.000153145 1.29127e-05
-0.000153145 0.00317578 -1.51619e-06
1.29127e-05 -1.51619e-06 0.00315633
0.00575938 -0.000233678 -0.000101416
-0.000233678 0.00365242 -1.72747e-05
-0.000101416 -1.72747e-05 0.00360993
0.000217276 -0.000189168 3.38896e-05
-0.000189168 -0.00013641 -1.31918e-05
3.38896e-05 -1.31918e-05 -0.000247277
0.00590674 0.000142196 0.000154645
0.000142196 0.00373889 -2.16945e-05
0.000154645 -2.16945e-05 0.00371435
0.000511318 -0.000269812 1.7586e-06
-0.000269812 3.53571e-06 2.63506e-06
1.7586e-06 2.63506e-06 -0.000158105
0.00822589 -1.77344e-05 2.541e-06
-1.77344e-05 0.00523859 1.76148e-06
2.541e-06 1.76148e-06 0.00523992
0.000218328 -0.000334503 -3.10243e-05
-0.000334503 -0.000274093 2.60081e-05
-3.10243e-05 2.60081e-05 -0.000461185
0.00948979 -9.50999e-05 -0.000413493
-9.50999e-05 0.00600783 5.61427e-05
-0.000413493 5.61427e-05 0.00602647
0.00178615 0.00034973 -8.09674e-06
0.00034973 5.39903e-05 -2.31519e-06
-8.09674e-06 -2.31519e-06 -0.000141991
0.00168486 0.000192735 -6.2056e-06
0.000192735 -6.65959e-06 -1.45849e-06
-6.2056e-06 -1.45849e-06 -0.00014232
0.00246584 0.000392912 -5.65267e-06
0.000392912 0.000149277 -1.17711e-06
-5.65267e-06 -1.17711e-06 5.20323e-05
0.00248599 0.000187327 -4.89166e-06
0.000187327 0.000136572 -6.68592e-07
-4.89166e-06 -6.68592e-07 9.79763e-05
0.00162428 6.79472e-05 -6.23627e-06
6.79472e-05 -4.87661e-05 -8.71365e-07
-6.23627e-06 -8.71365e-07 -0.000160922
0.000142164 2.53944e-05 -1.41225e-05
2.53944e-05 -0.000377563 -1.63564e-06
-1.41225e-05 -1.63564e-06 -0.000467985
0.00160106 1.28928e-06 -2.98821e-08
1.28928e-06 -6.46107e-05 -3.61747e-08
-2.98821e-08 -3.61747e-08 -0.000174363
0.00247426 9.09767e-05 -1.37798e-07
9.09767e-05 0.000121842 1.01979e-07
-1.37798e-07 1.01979e-07 9.46962e-05
0.00246281 0.000288898 -2.59975e-08
0.000288898 0.000136474 1.34857e-07
-2.59975e-08 1.34857e-07 7.31629e-05
0.00224633 0.000185625 -2.9944e-07
0.000185625 -5.3055e-05 -6.22346e-08
-2.9944e-07 -6.22346e-08 -2.16084e-05
0.00246495 0.000515091 -3.26033e-07
0.000515091 0.000178968 5.02442e-08
-3.26033e-07 5.02442e-08 3.14098e-05
0.00229342 0.000372962 -9.92111e-08
0.000372962 -8.83142e-06 2.07642e-07
-9.92111e-08 2.07642e-07 -4.11266e-05
0.00246974 -4.97341e-06 5.16998e-06
-4.97341e-06 0.000119982 8.84174e-08
5.16998e-06 8.84174e-08 9.41339e-05
0.0022107 8.73703e-05 2.19422e-06
8.73703e-05 -7.60246e-05 2.41509e-07
2.19422e-06 2.41509e-07 -3.35536e-05
0.00225399 0.000268743 3.94117e-06
0.000268743 -3.07884e-05 8.00139e-07
3.94117e-06 8.00139e-07 -3.01043e-05
0.00237788 0.000189277 5.70757e-07
0.000189277 -8.57166e-05 1.49914e-07
5.70757e-07 1.49914e-07 -1.23504e-05
0.00241455 0.000522388 2.85218e-06
0.000522388 5.26912e-05 7.21469e-07
2.85218e-06 7.21469e-07 -1.77045e-05
0.00245279 0.000412143 -1.31238e-07
0.000412143 -6.88672e-05 -6.08316e-07
-1.31238e-07 -6.08316e-07 -3.02964e-05
0.00179626 -6.16584e-05 -8.1235e-06
-6.16584e-05 7.13018e-05 3.41248e-07
-8.1235e-06 3.41248e-07 -2.53444e-05
0.00213902 -0.000220581 -2.2279e-05
-0.000220581 0.000296451 2.69606e-06
-2.2279e-05 2.69606e-06 0.000171881
0.00226896 -0.000190576 9.35327e-07
-0.000190576 -2.35655e-05 2.96903e-08
9.35327e-07 2.96903e-08 -7.39753e-05
0.00236602 -0.000411852 -2.37265e-06
-0.000411852 0.000128312 1.48937e-06
-2.37265e-06 1.48937e-06 2.52888e-06
4.2567e-05 -0.000332032 -2.22734e-05
-0.000332032 -0.000404328 3.27503e-05
-2.22734e-05 3.27503e-05 -0.000654558
0.00180248 -0.000735152 -1.82738e-06
-0.000735152 0.000368682 4.45306e-06
-1.82738e-06 4.45306e-06 -0.00017795
0.00242484 -0.00103333 2.65799e-06
-0.00103333 0.00045723 2.71692e-07
2.65799e-06 2.71692e-07 -0.000128216
0.00246126 -0.0006334 -2.04511e-08
-0.0006334 0.000277466 3.78311e-07
-2.04511e-08 3.78311e-07 3.80077e-05
0.00235078 -0.00052657 -2.42232e-06
-0.00052657 3.46589e-05 7.42365e-07
-2.42232e-06 7.42365e-07 -4.54114e-05
0.00254554 -0.000792779 -2.50046e-06
-0.000792779 0.000259167 2.20278e-06
-2.50046e-06 2.20278e-06 2.87518e-05
0.00259514 -0.000957096 1.37132e-06
-0.000957096 0.000452624 6.70559e-07
1.37132e-06 6.70559e-07 3.49935e-05
0.00248576 -0.000943116 -3.3599e-06
-0.000943116 0.000185132 2.83912e-06
-3.3599e-06 2.83912e-06 -7.36735e-05
0.000417964 -0.000450776 -1.2721e-05
-0.000450776 -0.000144681 -7.04421e-06
-1.2721e-05 -7.04421e-06 -0.000675869
0.000718984 -0.000490366 -1.87024e-05
-0.000490366 0.000179903 -1.04592e-05
-1.87024e-05 -1.04592e-05 -0.000419305
0.000398116 -0.00031414 -6.00351e-07
-0.00031414 0.000116109 3.64682e-06
-6.00351e-07 3.64682e-06 -0.000310314
0.00237424 -9.60878e-05 3.85857e-06
-9.60878e-05 6.08467e-05 -9.23225e-08
3.85857e-06 -9.23225e-08 2.09207e-05
0.00223066 -0.000300278 2.04168e-06
-0.000300278 -3.59522e-05 -5.49889e-07
2.04168e-06 -5.49889e-07 -0.000110386
0.00229317 -0.000173261 -4.10099e-07
-0.000173261 2.48913e-06 1.19212e-07
-4.10099e-07 1.19212e-07 2.31094e-05
0.00236982 -0.000407868 -1.97594e-08
-0.000407868 5.27084e-05 -1.75649e-08
-1.97594e-08 -1.75649e-08 9.986e-06
0.00117765 -0.000593927 -1.80784e-06
-0.000593927 0.00015804 -1.01936e-06
-1.80784e-06 -1.01936e-06 -0.000400732
0.00264474 -0.00121064 2.24156e-06
-0.00121064 0.000735921 -4.55754e-07
2.24156e-06 -4.55754e-07 1.2736e-05
0.0025385 -0.00108362 1.76742e-06
-0.00108362 0.000448086 1.88492e-06
1.76742e-06 1.88492e-06 -0.00010455
0.00245815 -0.000673775 -2.18332e-07
-0.000673775 0.000157776 1.90718e-07
-2.18332e-07 1.90718e-07 1.72112e-06
0.00255795 -0.000579536 1.06235e-07
-0.000579536 5.65258e-05 4.6445e-08
1.06235e-07 4.6445e-08 2.929e-05
0.00266724 -0.000988299 -5.7101e-07
-0.000988299 0.000442508 -6.81482e-09
-5.7101e-07 -6.81482e-09 6.35182e-05
0.00259268 -0.000836314 -7.44727e-07
-0.000836314 0.00017326 1.71883e-07
-7.44727e-07 1.71883e-07 1.78182e-05
0.00261107 -0.00098173 1.44586e-06
-0.00098173 0.000183547 -2.0301e-07
1.44586e-06 -2.0301e-07 -2.06437e-05
0.00176925 -0.000883115 -1.67504e-06
-0.000883115 0.000667634 -1.22792e-06
-1.67504e-06 -1.22792e-06 -8.54894e-05
0.00206077 -0.000938858 -9.51519e-07
-0.000938858 0.00101851 1.44678e-06
-9.51519e-07 1.44678e-06 0.000232214
0.000592147 -0.000202546 1.41631e-06
-0.000202546 0.000191837 -1.15826e-06
1.41631e-06 -1.15826e-06 -0.000156963
0.000155137 -0.000279911 1.82495e-06
-0.000279911 -6.43057e-05 -4.89205e-06
1.82495e-06 -4.89205e-06 -0.000561036
0.00222252 -9.93362e-05 4.79873e-06
-9.93362e-05 -4.28538e-05 -2.99577e-07
4.79873e-06 -2.99577e-07 -1.70314e-05
0.0023333 -0.000287022 3.66066e-06
-0.000287022 1.57406e-05 -9.7081e-07
3.66066e-06 -9.7081e-07 1.2176e-05
0.0023674 -0.00018537 1.02864e-06
-0.00018537 -4.70471e-05 -3.51305e-07
1.02864e-06 -3.51305e-07 1.85761e-05
0.00251352 -0.000459381 -1.74632e-06
-0.000459381 -3.44196e-05 8.149e-07
-1.74632e-06 8.149e-07 1.78703e-05
0.00248606 -0.000704463 -1.09139e-06
-0.000704463 5.47053e-05 5.46376e-07
-1.09139e-06 5.46376e-07 -3.58816e-05
0.00262006 -0.000624238 8.25235e-07
-0.000624238 -1.4864e-05 1.16424e-07
8.25235e-07 1.16424e-07 -1.14783e-05
0.00197032 -0.00118409 -5.26573e-06
-0.00118409 0.000534318 4.40314e-06
-5.26573e-06 4.40314e-06 -0.000269285
0.00271802 -0.000907434 1.73911e-06
-0.000907434 0.000146773 4.28665e-07
1.73911e-06 4.28665e-07 3.73516e-05
0.0025228 -0.0012647 8.14836e-06
-0.0012647 0.000616114 1.60748e-06
8.14836e-06 1.60748e-06 -0.000109836
0.00285387 -0.00112477 1.66021e-05
-0.00112477 0.000624293 -4.00389e-06
1.66021e-05 -4.00389e-06 9.08113e-05
0.00277191 -0.0010309 5.30406e-06
-0.0010309 0.00043714 -1.7572e-06
5.30406e-06 -1.7572e-06 9.12088e-05
0.00268966 -0.00104884 2.96211e-06
-0.00104884 0.000174613 -1.78944e-06
2.96211e-06 -1.78944e-06 -4.20693e-05
0.00010638 -0.000305319 1.08971e-05
-0.000305319 -0.000206495 -7.82011e-06
1.08971e-05 -7.82011e-06 -0.000521806
-0.00107338 -4.83317e-05 -1.89444e-06
-4.83317e-05 -0.00080216 1.52374e-06
-1.89444e-06 1.52374e-06 -0.00134395
0.00202829 -0.00124306 2.22846e-05
-0.00124306 0.000863366 1.77973e-06
2.22846e-05 1.77973e-06 -3.74341e-05
0.0037943 -0.000920586 1.54341e-05
-0.000920586 0.0023052 1.63662e-05
1.54341e-05 1.63662e-05 0.00161842
0.00246288 -0.00119422 2.71991e-06
-0.00119422 0.00128312 8.95544e-06
2.71991e-06 8.95544e-06 0.000356107
-0.000184129 0.000102917 -1.03089e-05
0.000102917 -0.000409942 -2.12014e-05
-1.03089e-05 -2.12014e-05 -0.000539451
0.00248989 0.000649137 -4.19933e-06
0.000649137 0.000234887 -1.96219e-06
-4.19933e-06 -1.96219e-06 1.20878e-05
0.00109961 0.000186795 3.6053e-06
0.000186795 0.000421737 -3.97129e-06
3.6053e-06 -3.97129e-06 6.2394e-05
0.00101484 0.00051859 -1.86127e-05
0.00051859 0.000213858 2.23239e-05
-1.86127e-05 2.23239e-05 -0.00015959
0.00246122 0.000405282 9.57765e-07
0.000405282 0.00119713 1.91039e-05
9.57765e-07 1.91039e-05 0.000819142
0.00245382 0.00084768 9.47062e-07
0.00084768 0.000343716 1.0387e-06
9.47062e-07 1.0387e-06 -3.48441e-05
0.00252184 0.000793688 -2.38623e-06
0.000793688 0.000227165 -1.76754e-06
-2.38623e-06 -1.76754e-06 -1.09014e-05
0.00173699 0.00116008 1.00379e-05
0.00116008 0.000440467 2.01834e-05
1.00379e-05 2.01834e-05 -0.000411585
0.00264051 0.00130106 -2.65864e-06
0.00130106 0.000664019 4.27401e-06
-2.65864e-06 4.27401e-06 -9.62548e-05
0.00275709 0.00103124 3.45523e-06
0.00103124 0.000558583 1.02101e-06
3.45523e-06 1.02101e-06 0.000109994
0.00319716 0.000962242 1.23968e-05
0.000962242 0.000750202 1.23095e-05
1.23968e-05 1.23095e-05 0.000323017
0.000498596 0.0001147 -4.85131e-06
0.0001147 3.85917e-05 5.7529e-07
-4.85131e-06 5.7529e-07 -5.75027e-05
0.000426024 0.000234329 -2.22283e-06
0.000234329 0.000130395 -1.42657e-06
-2.22283e-06 -1.42657e-06 -0.000252915
0.00113751 0.000756305 9.70067e-06
0.000756305 0.000359244 -4.6782e-06
9.70067e-06 -4.6782e-06 -0.000293401
0.00118522 0.000310533 -4.03615e-06
0.000310533 0.000485 -4.44134e-06
-4.03615e-06 -4.44134e-06 0.000113358
0.00070379 0.000489296 -3.13008e-06
0.000489296 -4.35082e-05 5.84925e-06
-3.13008e-06 5.84925e-06 -0.000520248
0.00249783 0.000664222 -4.49312e-07
0.000664222 0.000139994 -3.77349e-07
-4.49312e-07 -3.77349e-07 -3.78285e-06
0.00258947 0.000932686 4.77309e-07
0.000932686 0.000342387 2.32676e-07
4.77309e-07 2.32676e-07 -4.73357e-06
0.00261382 0.000876236 1.10296e-06
0.000876236 0.000210945 4.97992e-07
1.10296e-06 4.97992e-07 -8.87726e-06
0.0027361 0.00152741 2.29073e-06
0.00152741 0.00113986 3.45761e-07
2.29073e-06 3.45761e-07 0.000144308
0.00296491 0.00106677 3.29777e-06
0.00106677 0.000530954 2.56176e-07
3.29777e-06 2.56176e-07 0.00011108
0.00299115 0.00143921 -6.92097e-06
0.00143921 0.000836354 1.32615e-06
-6.92097e-06 1.32615e-06 5.11635e-05
0.00098713 0.000244225 -3.14981e-07
0.000244225 0.000436907 8.08751e-06
-3.14981e-07 8.08751e-06 0.000163458
0.00223119 0.000648454 1.13922e-05
0.000648454 0.00135049 9.84681e-06
1.13922e-05 9.84681e-06 0.000856101
0.00190721 0.00114115 -4.25779e-06
0.00114115 0.000915118 -7.19437e-06
-4.25779e-06 -7.19437e-06 7.59362e-05
0.00106662 0.000392195 1.05086e-05
0.000392195 0.000116415 -1.04952e-05
1.05086e-05 -1.04952e-05 -0.000231135
0.00333313 0.00100561 -3.1448e-06
0.00100561 0.0014223 4.37005e-06
-3.1448e-06 4.37005e-06 0.000790015
0.00260801 0.000721836 -2.18397e-06
0.000721836 7.15256e-05 -1.01139e-06
-2.18397e-06 -1.01139e-06 -1.38626e-05
0.00271224 0.00101257 -2.51202e-06
0.00101257 0.000364224 2.58758e-06
-2.51202e-06 2.58758e-06 1.44796e-05
0.00270249 0.0010062 -6.40096e-07
0.0010062 0.000205755 1.07551e-06
-6.40096e-07 1.07551e-06 -2.11925e-06
0.00202588 0.00154277 9.84454e-06
0.00154277 0.000759077 -2.97689e-06
9.84454e-06 -2.97689e-06 -0.000254984
0.00275194 0.00136872 1.46707e-05
0.00136872 0.000528183 -3.00311e-07
1.46707e-05 -3.00311e-07 -0.000161582
0.000605207 0.000167953 3.8696e-07
0.000167953 0.00019623 -4.71052e-07
3.8696e-07 -4.71052e-07 -3.00802e-05
-0.00013911 0.000269407 -1.03285e-05
0.000269407 -0.000188785 -5.21204e-06
-1.03285e-05 -5.21204e-06 -0.000539816
-0.000968644 0.000111736 1.16972e-06
0.000111736 -0.000655939 -2.4403e-06
1.16972e-06 -2.4403e-06 -0.000992375
0.00230733 0.000403344 -1.84954e-05
0.000403344 0.00156325 8.94642e-07
-1.84954e-05 8.94642e-07 0.00118917
0.00175227 0.000325689 -8.08616e-06
0.000325689 0.00109453 -3.36266e-06
-8.08616e-06 -3.36266e-06 0.000817639
0.000648482 0.000132274 -1.60417e-07
0.000132274 0.000234733 9.93331e-07
-1.60417e-07 9.93331e-07 0.000106387
0.000566399 8.12603e-05 -2.22511e-06
8.12603e-05 0.000174383 -3.62309e-07
-2.22511e-06 -3.62309e-07 3.34029e-05
0.00170429 3.87928e-05 1.55672e-06
3.87928e-05 0.000878005 7.30219e-06
1.55672e-06 7.30219e-06 0.000829726
0.000136694 8.1763e-05 8.12897e-06
8.1763e-05 -0.000117999 -8.19073e-06
8.12897e-06 -8.19073e-06 -0.000284895
0.00187986 3.08541e-05 -2.19393e-05
3.08541e-05 0.00098903 -2.80995e-06
-2.19393e-05 -2.80995e-06 0.000937883
0.000751519 3.28758e-06 7.48155e-05
3.28758e-06 0.000229297 1.61333e-05
7.48155e-05 1.61333e-05 0.000224267
0.0020446 6.40768e-05 -4.45887e-05
6.40768e-05 0.00109744 -1.37243e-05
-4.45887e-05 -1.37243e-05 0.0010331
0.00277566 -7.14466e-05 9.77261e-05
-7.14466e-05 0.00160912 2.26124e-06
9.77261e-05 2.26124e-06 0.00159171
0.00483151 -0.000165039 -8.57107e-05
-0.000165039 0.00300734 -1.32731e-05
-8.57107e-05 -1.32731e-05 0.0029835
0.000566725 -7.08461e-06 5.72155e-06
-7.08461e-06 0.000109964 -9.0644e-06
5.72155e-06 -9.0644e-06 1.19224e-05
0.000226998 -0.000156145 2.67382e-07
-0.000156145 -0.000128964 2.90533e-07
2.67382e-07 2.90533e-07 -0.000252699
0.00524667 0.000220885 5.86678e-05
0.000220885 0.00332021 -1.71111e-05
5.86678e-05 -1.71111e-05 0.0032706
0.00665354 7.42328e-05 -1.95469e-07
7.42328e-05 0.00423805 3.96474e-06
-1.95469e-07 3.96474e-06 0.00422287
0.000872238 -0.000272019 -2.81996e-05
-0.000272019 0.000233178 2.32867e-05
-2.81996e-05 2.32867e-05 5.8772e-05
0.00883798 -2.71621e-05 -0.00035787
-2.71621e-05 0.00563496 5.41545e-05
-0.00035787 5.41545e-05 0.00563754
0.00248183 0.000519354 -4.93247e-06
0.000519354 0.000182661 -1.77478e-06
-4.93247e-06 -1.77478e-06 3.46351e-05
0.00247628 0.000289495 -4.96856e-06
0.000289495 0.000142051 -9.74036e-07
-4.96856e-06 -9.74036e-07 7.97308e-05
0.0022935 0.000375276 -3.51923e-06
0.000375276 -5.30091e-06 -1.13041e-07
-3.51923e-06 -1.13041e-07 -3.95809e-05
0.00225002 0.000180783 -2.98903e-06
0.000180783 -5.99569e-05 -4.00733e-07
-2.98903e-06 -4.00733e-07 -2.08785e-05
0.00248092 8.94956e-05 -5.42273e-06
8.94956e-05 0.000127107 -2.61115e-07
-5.42273e-06 -2.61115e-07 0.000100236
0.00160817 6.89828e-06 -5.31313e-06
6.89828e-06 -6.18403e-05 -4.03763e-07
-5.31313e-06 -4.03763e-07 -0.000171617
0.0024668 -5.45096e-06 -9.70365e-09
-5.45096e-06 0.000119128 6.46017e-08
-9.70365e-09 6.46017e-08 9.32336e-05
0.00221503 7.94151e-05 -4.13509e-07
7.94151e-05 -7.01736e-05 -5.25914e-08
-4.13509e-07 -5.25914e-08 -2.94247e-05
0.00225141 0.000268108 -8.67953e-08
0.000268108 -3.47212e-05 6.21219e-08
-8.67953e-08 6.21219e-08 -3.37374e-05
0.00237489 0.000191307 2.03234e-07
0.000191307 -9.47326e-05 5.43455e-08
2.03234e-07 5.43455e-08 -1.35816e-05
0.00242449 0.000522508 8.88032e-08
0.000522508 6.00833e-05 -1.56666e-07
8.88032e-08 -1.56666e-07 -9.48577e-06
0.00246017 0.000403071 2.37448e-07
0.000403071 -7.01082e-05 3.93765e-07
2.37448e-07 3.93765e-07 -2.52663e-05
0.00220959 -1.16788e-05 3.08587e-06
-1.16788e-05 -6.65588e-05 -8.45018e-08
3.08587e-06 -8.45018e-08 -2.7493e-05
0.00240001 8.03113e-05 3.94729e-08
8.03113e-05 -7.53191e-05 -1.94459e-07
3.94729e-08 -1.94459e-07 1.92768e-05
0.00240038 0.000273 -1.10628e-06
0.000273 -7.9846e-05 -4.16729e-07
-1.10628e-06 -4.16729e-07 -1.62236e-05
0.00251633 0.000200983 -2.42739e-07
0.000200983 -0.000108275 -1.15579e-07
-2.42739e-07 -1.15579e-07 2.35235e-05
0.0025452 0.000549006 -4.1035e-07
0.000549006 -5.12426e-06 -5.6658e-07
-4.1035e-07 -5.6658e-07 -9.84459e-06
0.00252199 0.000394408 6.67788e-07
0.000394408 -0.000143087 -7.40378e-09
6.67788e-07 -7.40378e-09 -5.52806e-05
0.00246594 -9.31683e-05 -1.85151e-06
-9.31683e-05 0.000127151 6.02097e-08
-1.85151e-06 6.02097e-08 9.56198e-05
0.00220719 -0.000304036 1.63939e-06
-0.000304036 -5.01163e-05 1.0677e-07
1.63939e-06 1.0677e-07 -0.000123821
0.0022534 -0.000167296 -2.95862e-06
-0.000167296 -4.40368e-05 2.29884e-07
-2.95862e-06 2.29884e-07 -1.37979e-05
0.00242191 -0.000401865 -5.12024e-06
-0.000401865 9.67467e-05 1.42319e-06
-5.12024e-06 1.42319e-06 5.10806e-05
0.00100558 -0.000592688 -1.3562e-05
-0.000592688 4.79825e-05 1.78654e-06
-1.3562e-05 1.78654e-06 -0.000516452
0.00297612 -0.00125065 -1.05484e-06
-0.00125065 0.000983561 5.5973e-07
-1.05484e-06 5.5973e-07 0.000248485
0.00226615 -0.00105655 -2.68942e-06
-0.00105655 0.000266793 2.47853e-06
-2.68942e-06 2.47853e-06 -0.000288989
0.0025534 -0.000676741 -4.94277e-06
-0.000676741 0.000240009 2.30537e-06
-4.94277e-06 2.30537e-06 7.44876e-05
0.00252809 -0.000582606 8.91784e-07
-0.000582606 2.34333e-05 -8.40211e-07
8.91784e-07 -8.40211e-07 1.70078e-06
0.00260222 -0.000837475 -1.89815e-06
-0.000837475 0.000176853 1.18718e-06
-1.89815e-06 1.18718e-06 2.09932e-05
0.00259765 -0.000985933 -7.51603e-06
-0.000985933 0.000389187 4.03642e-06
-7.51603e-06 4.03642e-06 8.681e-06
0.00261416 -0.000993694 -3.40902e-06
-0.000993694 0.000173238 4.50294e-08
-3.40902e-06 4.50294e-08 -2.89254e-05
0.00187061 -0.000906899 -4.64487e-06
-0.000906899 0.000728723 -1.2147e-05
-4.64487e-06 -1.2147e-05 -2.81854e-05
0.00215268 -0.000926429 -2.73649e-05
-0.000926429 0.00104607 -1.03452e-05
-2.73649e-05 -1.03452e-05 0.000263739
0.00220167 -0.000216655 -1.63779e-06
-0.000216655 0.00123467 5.34019e-06
-1.63779e-06 5.34019e-06 0.000896333
0.000613452 -0.000242779 -1.10718e-05
-0.000242779 0.00014119 -4.11008e-06
-1.10718e-05 -4.11008e-06 -0.000287558
0.00222338 -9.87788e-05 -1.03715e-07
-9.87788e-05 -4.31591e-05 2.83097e-08
-1.03715e-07 2.83097e-08 -1.74605e-05
0.00236367 -0.000289563 1.12632e-06
-0.000289563 3.86201e-05 -2.56486e-07
1.12632e-06 -2.56486e-07 3.41216e-05
0.00235058 -0.000182804 2.19774e-08
-0.000182804 -6.31248e-05 -6.00228e-08
2.19774e-08 -6.00228e-08 6.60445e-06
0.0024801 -0.000458686 -3.58804e-07
-0.000458686 -4.86638e-05 3.59664e-07
-3.58804e-07 3.59664e-07 -5.73907e-06
0.00236065 -0.0011673 -1.70286e-06
-0.0011673 0.000772336 1.92915e-08
-1.70286e-06 1.92915e-08 -1.41662e-05
0.00244607 -0.00126481 2.4097e-06
-0.00126481 0.000543742 4.55741e-07
2.4097e-06 4.55741e-07 -0.000185197
0.00285402 -0.00113623 -5.23208e-07
-0.00113623 0.000625396 6.52336e-07
-5.23208e-07 6.52336e-07 8.05954e-05
0.00253678 -0.000706688 -9.33749e-07
-0.000706688 9.79373e-05 2.51454e-07
-9.33749e-07 2.51454e-07 -7.40598e-07
0.00261058 -0.000622547 6.27905e-07
-0.000622547 -2.03737e-05 -6.67917e-07
6.27905e-07 -6.67917e-07 -5.7105e-06
0.0027932 -0.00104773 -1.93777e-06
-0.00104773 0.000456793 8.7784e-07
-1.93777e-06 8.7784e-07 0.000106343
0.00272037 -0.000910865 -1.14811e-06
-0.000910865 0.000141011 6.0877e-07
-1.14811e-06 6.0877e-07 3.03095e-05
0.00270205 -0.00104032 7.7902e-06
-0.00104032 0.000182225 -2.92379e-06
7.7902e-06 -2.92379e-06 -2.464e-05
0.00228658 -0.00130492 -9.11888e-07
-0.00130492 0.0010368 -1.64804e-07
-9.11888e-07 -1.64804e-07 9.27019e-05
0.00259362 -0.00119824 -4.01923e-06
-0.00119824 0.00136236 -3.93887e-07
-4.01923e-06 -3.93887e-07 0.000445175
0.00129604 -0.000713978 -7.11831e-06
-0.000713978 0.000734464 3.66817e-06
-7.11831e-06 3.66817e-06 5.36001e-05
0.000124767 -0.000222655 -4.40782e-06
-0.000222655 -0.000137103 3.17436e-06
-4.40782e-06 3.17436e-06 -0.000470985
0.000148731 -7.29149e-05 -3.79888e-06
-7.29149e-05 -3.21457e-05 -8.55533e-07
-3.79888e-06 -8.55533e-07 -0.000548098
0.0023817 -0.000114644 -9.43744e-07
-0.000114644 -8.01046e-05 -4.12941e-08
-9.43744e-07 -4.12941e-08 1.19044e-05
0.00243835 -0.000278963 -1.61948e-06
-0.000278963 -9.32006e-05 -2.14617e-07
-1.61948e-06 -2.14617e-07 -5.58193e-06
0.00264423 -0.000557177 -2.89087e-07
-0.000557177 -0.000114632 6.68005e-08
-2.89087e-07 6.68005e-08 -6.40811e-06
0.00263996 -0.000761236 8.62892e-07
-0.000761236 1.53354e-05 8.51451e-07
8.62892e-07 8.51451e-07 -1.63786e-05
0.00268842 -0.00148673 7.89673e-06
-0.00148673 0.00101975 -4.65449e-06
7.89673e-06 -4.65449e-06 9.0922e-05
0.00284834 -0.00104196 4.99465e-07
-0.00104196 0.000109054 -2.02888e-07
4.99465e-07 -2.02888e-07 -1.93695e-05
0.00196994 -0.00125641 9.49023e-06
-0.00125641 0.00026777 3.75555e-06
9.49023e-06 3.75555e-06 -0.00046812
0.00300354 -0.00120795 3.62537e-06
-0.00120795 0.000692514 -8.02198e-07
3.62537e-06 -8.02198e-07 0.000154715
0.00270462 -0.00107914 -8.13398e-06
-0.00107914 0.00030704 -2.10843e-06
-8.13398e-06 -2.10843e-06 4.74665e-06
-0.000163581 -0.00019192 -2.00282e-06
-0.00019192 -0.000248075 7.67681e-06
-2.00282e-06 7.67681e-06 -0.000549489
0.00307523 -0.000513172 -2.38091e-06
-0.000513172 0.00191492 5.2196e-07
-2.38091e-06 5.2196e-07 0.00139909
-0.000129137 -0.000383703 -1.27745e-05
-0.000383703 -0.000161645 1.23226e-05
-1.27745e-05 1.23226e-05 -0.00068919
0.00330756 -0.00156437 -4.35029e-06
-0.00156437 0.00169706 4.41686e-06
-4.35029e-06 4.41686e-06 0.000655719
0.00396392 -0.00101531 -6.21777e-07
-0.00101531 0.00224441 1.03493e-05
-6.21777e-07 1.03493e-05 0.00154737
0.00246952 -0.00125004 -1.59114e-05
-0.00125004 0.00122752 1.80283e-05
-1.59114e-05 1.80283e-05 0.000275154
0.00023073 0.000117569 -1.52647e-05
0.000117569 -0.000133711 -1.81296e-05
-1.52647e-05 -1.81296e-05 -0.000224331
0.000451396 0.000324642 -4.17075e-06
0.000324642 0.000136918 -1.58496e-05
-4.17075e-06 -1.58496e-05 -0.00024601
0.00248766 0.000661707 -3.86093e-06
0.000661707 0.00013859 -2.04928e-06
-3.86093e-06 -2.04928e-06 -4.36111e-06
-0.000296975 -1.99719e-05 -9.74919e-06
-1.99719e-05 -0.000386352 -3.93317e-06
-9.74919e-06 -3.93317e-06 -0.000814177
0.00343441 0.000893587 1.78357e-05
0.000893587 0.00179188 1.39658e-05
1.78357e-05 1.39658e-05 0.00112022
0.000461236 0.000559277 -9.92217e-06
0.000559277 -0.000200386 -5.2449e-07
-9.92217e-06 -5.2449e-07 -0.000738048
0.002589 0.000928885 -1.15993e-06
0.000928885 0.000347823 -2.3859e-06
-1.15993e-06 -2.3859e-06 3.2726e-06
0.00258865 0.000877761 1.54024e-06
0.000877761 0.000199222 -1.01037e-06
1.54024e-06 -1.01037e-06 -2.05597e-05
0.00326064 0.0015831 -4.04784e-08
0.0015831 0.00151064 7.36071e-06
-4.04784e-08 7.36071e-06 0.000504031
0.00385288 0.00153939 -7.73925e-06
0.00153939 0.00143523 4.82501e-06
-7.73925e-06 4.82501e-06 0.000630376
0.00293363 0.00106774 2.7573e-06
0.00106774 0.000471908 -1.38362e-06
2.7573e-06 -1.38362e-06 4.93252e-05
0.00101055 0.000233316 2.02608e-07
0.000233316 0.000468447 -2.97584e-07
2.02608e-07 -2.97584e-07 0.000182311
0.00101382 0.000424206 -5.40506e-06
0.000424206 0.00057232 8.88069e-08
-5.40506e-06 8.88069e-08 8.66234e-05
0.00188039 0.00116545 1.1647e-06
0.00116545 0.000868364 -6.42544e-07
1.1647e-06 -6.42544e-07 -8.32321e-06
0.00105219 0.000343941 -2.03398e-06
0.000343941 0.000108685 -6.00519e-07
-2.03398e-06 -6.00519e-07 -0.000252301
0.0016097 0.000840866 -1.99086e-06
0.000840866 0.000221024 -4.41992e-06
-1.99086e-06 -4.41992e-06 -0.000365012
0.00261236 0.000721009 -1.96257e-06
0.000721009 8.76672e-05 -1.16416e-06
-1.96257e-06 -1.16416e-06 2.27376e-07
0.00272939 0.00101878 2.48223e-06
0.00101878 0.000351878 4.33045e-07
2.48223e-06 4.33045e-07 1.32339e-07
0.00279031 0.00101236 1.064e-06
0.00101236 0.000227194 1.17878e-06
1.064e-06 1.17878e-06 2.74105e-05
0.0026221 0.00165705 3.16116e-06
0.00165705 0.0011074 2.87008e-06
3.16116e-06 2.87008e-06 6.37572e-05
0.00274313 0.00139643 -1.75573e-06
0.00139643 0.000575048 -4.1513e-06
-1.75573e-06 -4.1513e-06 -0.000139936
0.00115907 0.000633112 5.96353e-06
0.000633112 0.000613136 1.50903e-06
5.96353e-06 1.50903e-06 0.000196575
-0.00205269 0.000516382 4.27371e-06
0.000516382 -0.00142749 -1.26294e-05
4.27371e-06 -1.26294e-05 -0.00195899
0.00252884 0.00138072 -1.0688e-05
0.00138072 0.00123188 -3.39671e-06
-1.0688e-05 -3.39671e-06 0.000316741
-0.00236547 0.000662925 2.04639e-05
0.000662925 -0.00210139 -1.21867e-06
2.04639e-05 -1.21867e-06 -0.00272136
0.00258377 0.00125886 -7.41807e-07
0.00125886 0.000736512 -7.12501e-07
-7.41807e-07 -7.12501e-07 1.44344e-05
0.00277233 0.000849184 -1.42658e-06
0.000849184 9.85104e-06 1.83393e-07
-1.42658e-06 1.83393e-07 1.11862e-06
0.00284213 0.00109401 8.24943e-06
0.00109401 0.000345668 -1.27441e-06
8.24943e-06 -1.27441e-06 -4.63294e-05
0.00249318 0.000956802 6.94805e-06
0.000956802 -5.47948e-05 2.03537e-06
6.94805e-06 2.03537e-06 -0.000260885
0.00312247 0.00175266 2.40224e-05
0.00175266 0.00128876 8.79813e-06
2.40224e-05 8.79813e-06 0.000255041
0.00287476 0.00164123 1.3053e-05
0.00164123 0.000786504 4.06777e-06
1.3053e-05 4.06777e-06 -7.25723e-05
0.000492791 0.000129312 9.02304e-06
0.000129312 0.000115297 -9.74724e-06
9.02304e-06 -9.74724e-06 -9.94171e-05
0.000650242 0.000320058 -2.70606e-06
0.000320058 0.000305905 7.35674e-07
-2.70606e-06 7.35674e-07 -3.23744e-05
-0.00067999 0.00013234 -5.82935e-06
0.00013234 -0.000563828 -3.41902e-05
-5.82935e-06 -3.41902e-05 -0.000786324
-0.00155139 -4.51129e-05 1.39053e-05
-4.51129e-05 -0.00109941 -2.80073e-06
1.39053e-05 -2.80073e-06 -0.00137205
0.000595765 0.000150982 -3.01166e-06
0.000150982 0.00030144 3.83764e-07
-3.01166e-06 3.83764e-07 6.23326e-05
-0.000213265 0.000116407 6.98483e-06
0.000116407 -0.000153646 7.6471e-07
6.98483e-06 7.6471e-07 -0.000445337
0.000790015 0.000279156 -9.04956e-07
0.000279156 0.000533831 -5.12942e-06
-9.04956e-07 -5.12942e-06 0.000258194
0.000436815 -7.35768e-06 -1.62747e-05
-7.35768e-06 0.000269542 9.93776e-06
-1.62747e-05 9.93776e-06 -1.21125e-05
0.000972132 0.0001704 -4.88132e-06
0.0001704 0.000506671 -4.414e-06
-4.88132e-06 -4.414e-06 0.000320084
0.000496974 0.000112455 9.6456e-07
0.000112455 0.000124178 2.7124e-06
9.6456e-07 2.7124e-06 4.67799e-06
0.000398506 5.73179e-05 -3.12027e-06
5.73179e-05 5.51881e-05 3.10175e-07
-3.12027e-06 3.10175e-07 -6.11507e-05
0.00153839 9.66194e-06 1.45862e-06
9.66194e-06 0.00076693 5.23693e-06
1.45862e-06 5.23693e-06 0.000727193
-0.000139697 -7.28359e-05 1.03411e-05
-7.28359e-05 -0.000290414 -2.48886e-06
1.03411e-05 -2.48886e-06 -0.000423241
0.00161381 2.56258e-05 -1.86495e-05
2.56258e-05 0.000814217 -2.94634e-06
-1.86495e-05 -2.94634e-06 0.000772668
0.00068876 1.93864e-06 5.91904e-05
1.93864e-06 0.000188846 1.39621e-05
5.91904e-05 1.39621e-05 0.000186107
0.00172582 3.54924e-05 -2.92631e-05
3.54924e-05 0.000883233 -1.34857e-05
-2.92631e-05 -1.34857e-05 0.000838037
0.000770437 -2.38876e-05 3.30772e-05
-2.38876e-05 0.000245101 5.51526e-06
3.30772e-05 5.51526e-06 0.000230058
0.00406111 -0.000191353 2.4015e-05
-0.000191353 0.00248323 -8.50935e-06
2.4015e-05 -8.50935e-06 0.00245246
0.00036012 0.000113886 -2.34256e-06
0.000113886 3.51795e-05 -9.93009e-06
-2.34256e-06 -9.93009e-06 -7.11134e-05
0.000463444 -8.16202e-05 -7.73004e-06
-8.16202e-05 4.69985e-05 -3.84277e-07
-7.73004e-06 -3.84277e-07 -5.93177e-05
0.00426076 0.000275082 -4.66736e-05
0.000275082 0.00267172 -1.80852e-05
-4.66736e-05 -1.80852e-05 0.00261551
0.000840084 -0.00020545 -2.02748e-05
-0.00020545 0.000269173 1.53119e-05
-2.02748e-05 1.53119e-05 0.000135952
0.00522059 0.000182106 -3.57135e-05
0.000182106 0.00330916 -1.05101e-06
-3.57135e-05 -1.05101e-06 0.00326985
0.00717791 9.24386e-05 -0.000277249
9.24386e-05 0.00463666 5.96468e-05
-0.000277249 5.96468e-05 0.0045988
0.00243492 0.000522721 -3.59954e-06
0.000522721 6.77618e-05 -1.14267e-06
-3.59954e-06 -1.14267e-06 -1.04936e-06
0.00225069 0.00026718 -3.76258e-06
0.00026718 -3.62775e-05 -5.72367e-07
-3.76258e-06 -5.72367e-07 -3.50353e-05
0.00246848 0.000394319 1.03721e-06
0.000394319 -7.10171e-05 9.27709e-07
1.03721e-06 9.27709e-07 -1.98144e-05
0.00237298 0.000193823 1.66655e-06
0.000193823 -0.000102735 3.08733e-07
1.66655e-06 3.08733e-07 -1.36651e-05
0.00221673 7.2231e-05 -3.22063e-06
7.2231e-05 -6.62354e-05 -4.15278e-08
-3.22063e-06 -4.15278e-08 -2.71465e-05
0.00246414 -6.29124e-06 -5.04511e-06
-6.29124e-06 0.000119136 1.00471e-07
-5.04511e-06 1.00471e-07 9.32456e-05
0.00221284 -1.30177e-05 2.03725e-07
-1.30177e-05 -5.91518e-05 -2.43025e-08
2.03725e-07 -2.43025e-08 -2.37912e-05
0.00238422 8.30552e-05 4.01389e-07
8.30552e-05 -8.12454e-05 3.44122e-08
4.01389e-07 3.44122e-08 8.18275e-06
0.00241484 0.000272972 -7.67882e-07
0.000272972 -6.32312e-05 -9.05606e-08
-7.67882e-07 -9.05606e-08 -2.60163e-06
0.00247946 0.000204531 5.55193e-07
0.000204531 -0.00013802 1.50761e-07
5.55193e-07 1.50761e-07 5.90164e-06
0.00255868 0.000553212 -2.5277e-07
0.000553212 4.91196e-06 6.21895e-08
-2.5277e-07 6.21895e-08 -3.60557e-06
0.00255391 0.000398432 1.69643e-06
0.000398432 -0.00012227 7.59715e-07
1.69643e-06 7.59715e-07 -2.18946e-05
0.00236373 -1.56285e-05 -1.30512e-06
-1.56285e-05 -9.12531e-05 -4.56172e-08
-1.30512e-06 -4.56172e-08 -1.09914e-06
0.00252313 0.000100866 -7.07566e-07
0.000100866 -0.000139765 -4.43136e-07
-7.07566e-07 -4.43136e-07 1.85907e-05
0.00256187 0.00028857 1.91976e-07
0.00028857 -0.000124438 -1.20453e-07
1.91976e-07 -1.20453e-07 2.57692e-05
0.00267497 0.000559614 3.19119e-07
0.000559614 -0.000130852 3.12155e-07
3.19119e-07 3.12155e-07 -1.74423e-05
0.00222285 -9.83703e-05 -4.80031e-06
-9.83703e-05 -4.45831e-05 4.49785e-07
-4.80031e-06 4.49785e-07 -1.90053e-05
0.00238534 -0.000292329 -4.01232e-06
-0.000292329 5.60982e-05 9.89725e-07
-4.01232e-06 9.89725e-07 5.06376e-05
0.00233096 -0.000181223 1.08286e-06
-0.000181223 -8.11678e-05 -5.30275e-07
1.08286e-06 -5.30275e-07 -7.44982e-06
0.0024518 -0.000458456 -9.68466e-07
-0.000458456 -6.04517e-05 -4.03087e-07
-9.68466e-07 -4.03087e-07 -2.69937e-05
0.0028024 -0.00119752 5.88346e-06
-0.00119752 0.00106984 -6.52518e-06
5.88346e-06 -6.52518e-06 0.000277076
0.00234974 -0.00127219 5.29404e-06
-0.00127219 0.000448864 9.33455e-07
5.29404e-06 9.33455e-07 -0.000286434
0.00283693 -0.00114997 -1.47468e-05
-0.00114997 0.000616992 3.27703e-06
-1.47468e-05 3.27703e-06 5.87363e-05
0.00258884 -0.000708996 -2.25454e-06
-0.000708996 0.000142084 1.00105e-06
-2.25454e-06 1.00105e-06 3.59615e-05
0.00260182 -0.0006215 2.49424e-06
-0.0006215 -2.55398e-05 -9.26094e-07
2.49424e-06 -9.26094e-07 4.41764e-07
0.00272195 -0.000912803 -4.50428e-06
-0.000912803 0.000137253 7.67092e-07
-4.50428e-06 7.67092e-07 2.54285e-05
0.0027732 -0.00105559 -5.66693e-06
-0.00105559 0.000451527 2.81098e-06
-5.66693e-06 2.81098e-06 9.9828e-05
0.0026852 -0.00102817 -1.2356e-06
-0.00102817 0.000169323 -1.14571e-06
-1.2356e-06 -1.14571e-06 -2.79604e-05
0.00258239 -0.00134088 -2.70399e-05
-0.00134088 0.00124405 -1.13371e-06
-2.70399e-05 -1.13371e-06 0.00028912
0.0021631 -0.00112128 1.11762e-05
-0.00112128 0.0010947 -1.42405e-05
1.11762e-05 -1.42405e-05 0.000221886
0.000243985 -0.000440032 -1.53556e-05
-0.000440032 2.558e-05 -5.1953e-06
-1.53556e-05 -5.1953e-06 -0.00060258
0.000210058 -0.000146145 -4.77026e-06
-0.000146145 -5.27807e-05 9.95682e-07
-4.77026e-06 9.95682e-07 -0.000380314
0.00141639 -0.000102828 -1.62781e-06
-0.000102828 0.000741727 -3.69815e-06
-1.62781e-06 -3.69815e-06 0.00025833
0.00237536 -0.000123064 1.3159e-07
-0.000123064 -8.19222e-05 -7.64915e-08
1.3159e-07 -7.64915e-08 7.93194e-06
0.00244188 -0.000280082 1.67039e-06
-0.000280082 -9.23906e-05 -6.08386e-08
1.67039e-06 -6.08386e-08 -7.25527e-06
0.00261768 -0.000551446 -1.08779e-06
-0.000551446 -0.00011363 1.72026e-07
-1.08779e-06 1.72026e-07 -1.91888e-05
0.00282583 -0.00148267 -1.49769e-06
-0.00148267 0.00110141 -6.85151e-07
-1.49769e-06 -6.85151e-07 0.000179916
0.00203118 -0.00125895 5.49169e-06
-0.00125895 0.00030117 -8.44784e-07
5.49169e-06 -8.44784e-07 -0.000433892
0.00292559 -0.00121212 -1.87249e-06
-0.00121212 0.000646526 -4.7695e-07
-1.87249e-06 -4.7695e-07 9.3149e-05
0.00263997 -0.000750022 2.65429e-07
-0.000750022 2.43292e-05 -4.29254e-07
2.65429e-07 -4.29254e-07 -9.23418e-06
0.0027415 -0.00110327 5.42366e-06
-0.00110327 0.000312886 -2.87363e-06
5.42366e-06 -2.87363e-06 8.98743e-06
0.00284416 -0.00103488 -5.05828e-07
-0.00103488 0.000130372 -6.33305e-07
-5.05828e-07 -6.33305e-07 3.25783e-06
-0.000340876 -2.92171e-05 -3.81618e-06
-2.92171e-05 -0.000410326 -6.67008e-07
-3.81618e-06 -6.67008e-07 -0.00066623
0.00220935 -0.00136367 -1.38015e-06
-0.00136367 0.00101629 -1.87653e-06
-1.38015e-06 -1.87653e-06 4.57201e-05
0.00273813 -0.00134071 -3.31196e-06
-0.00134071 0.00138621 5.94615e-06
-3.31196e-06 5.94615e-06 0.000379774
0.00214797 -0.000817224 4.8676e-06
-0.000817224 0.00117284 2.56207e-06
4.8676e-06 2.56207e-06 0.000457243
0.000683618 -0.000434551 -1.22345e-06
-0.000434551 0.000304632 1.47337e-06
-1.22345e-06 1.47337e-06 -0.000221749
0.00138085 -0.000263463 -2.68128e-06
-0.000263463 0.000767247 1.34679e-06
-2.68128e-06 1.34679e-06 0.00027081
0.00247242 -0.000157074 -1.94454e-06
-0.000157074 -0.000155024 1.52467e-07
-1.94454e-06 1.52467e-07 -1.09896e-05
0.00262009 -0.000369032 1.03493e-06
-0.000369032 -0.000202992 -1.36646e-07
1.03493e-06 -1.36646e-07 -1.37149e-05
0.00275862 -0.000698602 1.35107e-07
-0.000698602 -9.09668e-05 6.50739e-07
1.35107e-07 6.50739e-07 1.49281e-05
0.00279448 -0.000899454 -4.19609e-08
-0.000899454 -1.15897e-05 1.16466e-06
-4.19609e-08 1.16466e-06 5.9363e-06
0.00264258 -0.00151608 4.63839e-06
-0.00151608 0.00102208 6.02095e-06
4.63839e-06 6.02095e-06 8.91371e-05
0.00287698 -0.00119119 5.81567e-07
-0.00119119 0.000237935 -4.79968e-06
5.81567e-07 -4.79968e-06 -2.03933e-05
0.00306992 -0.00155323 -4.06657e-05
-0.00155323 0.000961967 1.18873e-05
-4.06657e-05 1.18873e-05 0.000110784
0.00276867 -0.00128331 -2.97928e-05
-0.00128331 0.000539235 8.22063e-07
-2.97928e-05 8.22063e-07 2.26319e-06
-0.000885736 -7.43841e-06 -1.90863e-06
-7.43841e-06 -0.00080573 7.27457e-07
-1.90863e-06 7.27457e-07 -0.000970265
0.00146344 -0.000217149 -4.17573e-06
-0.000217149 0.000929209 7.10083e-06
-4.17573e-06 7.10083e-06 0.000473606
0.00312587 -0.000622414 -1.73333e-05
-0.000622414 0.0019265 9.96808e-06
-1.73333e-05 9.96808e-06 0.0014287
0.000218732 -0.00044969 -3.61956e-06
-0.00044969 1.36403e-05 -8.43485e-06
-3.61956e-06 -8.43485e-06 -0.000456501
0.00353722 -0.00155916 -2.01062e-05
-0.00155916 0.00180731 2.6408e-05
-2.01062e-05 2.6408e-05 0.000771664
0.0023208 -0.00119891 -2.85889e-05
-0.00119891 0.00119549 2.27118e-05
-2.85889e-05 2.27118e-05 0.000189951
-2.36217e-05 0.000149752 2.43551e-06
0.000149752 -0.000160172 -7.2634e-06
2.43551e-06 -7.2634e-06 -0.000480867
0.000280487 0.000238218 -6.73527e-06
0.000238218 3.09601e-05 -8.15674e-06
-6.73527e-06 -8.15674e-06 -0.000379915
0.00261878 0.000720314 -1.33292e-06
0.000720314 0.00010508 -1.07659e-06
-1.33292e-06 -1.07659e-06 1.55525e-05
0.000551407 0.000307181 -9.94485e-06
0.000307181 -0.00022312 1.47994e-05
-9.94485e-06 1.47994e-05 -0.000567513
0.00208421 0.00120508 1.05181e-05
0.00120508 0.000979948 5.29638e-06
1.05181e-05 5.29638e-06 7.35275e-05
0.00121745 0.000748233 -8.90771e-06
0.000748233 2.67523e-05 -5.11661e-06
-8.90771e-06 -5.11661e-06 -0.00052417
0.00274795 0.00102473 3.35477e-06
0.00102473 0.000339153 -2.878e-06
3.35477e-06 -2.878e-06 -1.44951e-05
0.00287813 0.00101736 -3.77964e-06
0.00101736 0.000250205 -1.89263e-06
-3.77964e-06 -1.89263e-06 5.94676e-05
0.00308558 0.00175123 -6.35105e-06
0.00175123 0.00136551 1.65971e-06
-6.35105e-06 1.65971e-06 0.000299468
0.00262076 0.00139911 -1.06887e-05
0.00139911 0.000571245 -8.66963e-07
-1.06887e-05 -8.66963e-07 -0.000162326
0.000900561 0.000366368 5.77756e-07
0.000366368 0.000460796 -4.0213e-07
5.77756e-07 -4.0213e-07 6.12883e-05
0.00168354 0.000527205 -3.6914e-06
0.000527205 0.00091841 -1.15309e-05
-3.6914e-06 -1.15309e-05 0.00042706
0.00179195 0.00123999 -2.52735e-06
0.00123999 0.000787017 -2.12047e-06
-2.52735e-06 -2.12047e-06 -8.98993e-05
0.001841 0.000672967 3.12013e-06
0.000672967 0.000384939 2.53732e-06
3.12013e-06 2.53732e-06 -8.13531e-05
0.00376222 0.00129959 -7.44429e-06
0.00129959 0.00156845 -1.70302e-07
-7.44429e-06 -1.70302e-07 0.000848173
0.00281582 0.00086081 -2.36977e-06
0.00086081 2.21682e-05 -4.69241e-07
-2.36977e-06 -4.69241e-07 5.78001e-06
0.00288699 0.00104533 2.93973e-06
0.00104533 0.000387538 -1.18289e-06
2.93973e-06 -1.18289e-06 2.67285e-05
0.00282216 0.000977732 5.25354e-07
0.000977732 0.000186778 2.39986e-06
5.25354e-07 2.39986e-06 -3.00366e-05
0.00290418 0.00174589 8.56235e-06
0.00174589 0.00114435 2.69605e-06
8.56235e-06 2.69605e-06 0.000102323
0.00296318 0.00174818 -5.43015e-06
0.00174818 0.000845853 2.30597e-06
-5.43015e-06 2.30597e-06 -7.63862e-05
-0.00188732 0.000165179 -1.21847e-05
0.000165179 -0.00132515 -1.11265e-06
-1.21847e-05 -1.11265e-06 -0.00164752
-0.00148291 0.000568453 4.26245e-06
0.000568453 -0.000691729 -1.35839e-05
4.26245e-06 -1.35839e-05 -0.00142887
0.00253418 0.00140634 7.41223e-06
0.00140634 0.00105219 2.11971e-06
7.41223e-06 2.11971e-06 0.000172243
0.00371656 0.00104159 8.10478e-06
0.00104159 0.00147494 -5.41085e-06
8.10478e-06 -5.41085e-06 0.000912139
0.00295484 0.000769055 5.68232e-06
0.000769055 -0.000246736 4.29856e-06
5.68232e-06 4.29856e-06 -7.75722e-06
0.00287717 0.00107198 8.38241e-06
0.00107198 3.54516e-05 3.09788e-06
8.38241e-06 3.09788e-06 -3.93569e-05
0.00319161 0.0014108 1.14785e-05
0.0014108 0.000618353 -2.79863e-06
1.14785e-05 -2.79863e-06 -1.50948e-05
0.00279026 0.00183498 1.74911e-05
0.00183498 0.000837621 4.98464e-06
1.74911e-05 4.98464e-06 -0.000217249
0.00229482 0.000372818 1.23372e-05
0.000372818 0.0014414 3.47495e-06
1.23372e-05 3.47495e-06 0.00105973
0.00016355 0.000273261 -4.80768e-06
0.000273261 5.03284e-05 3.97088e-06
-4.80768e-06 3.97088e-06 -0.000221881
-0.000541571 9.77442e-05 5.59528e-06
9.77442e-05 -0.000360837 -1.42306e-05
5.59528e-06 -1.42306e-05 -0.000538876
-0.000472348 1.3886e-05 7.41007e-06
1.3886e-05 -0.000421793 3.13207e-06
7.41007e-06 3.13207e-06 -0.000648771
-0.003149 -1.24287e-05 5.12184e-06
-1.24287e-05 -0.00196865 -3.9087e-06
5.12184e-06 -3.9087e-06 -0.00229101
0.000762795 0.000108843 -1.33273e-06
0.000108843 0.000370669 -5.46424e-07
-1.33273e-06 -5.46424e-07 0.000179741
0.000764412 0.000292515 1.34488e-05
0.000292515 0.00057659 3.82371e-06
1.34488e-05 3.82371e-06 0.000295695
0.000733634 0.000121406 1.60322e-06
0.000121406 0.000504337 3.91739e-06
1.60322e-06 3.91739e-06 0.000184841
0.00199977 0.000285534 -9.32865e-06
0.000285534 0.00114233 -1.56752e-05
-9.32865e-06 -1.56752e-05 0.000992544
0.000581132 8.58672e-05 -7.64608e-06
8.58672e-05 0.000423903 -3.52291e-06
-7.64608e-06 -3.52291e-06 0.000118705
-0.000338296 7.29412e-05 -9.00792e-06
7.29412e-05 -0.000288268 6.29553e-06
-9.00792e-06 6.29553e-06 -0.000529236
0.000981741 0.000190278 -1.75972e-07
0.000190278 0.000507056 2.49435e-06
-1.75972e-07 2.49435e-06 0.00031409
0.00049768 0.000119774 2.96216e-06
0.000119774 0.000133189 4.94109e-06
2.96216e-06 4.94109e-06 5.64555e-06
0.000413961 2.88092e-05 -2.08054e-06
2.88092e-05 6.46224e-05 -5.62901e-07
-2.08054e-06 -5.62901e-07 -5.04825e-05
0.00139462 4.03909e-05 9.49431e-07
4.03909e-05 0.000678507 3.77219e-06
9.49431e-07 3.77219e-06 0.0006405
0.000246484 -4.87298e-05 3.90781e-06
-4.87298e-05 -5.14106e-05 -1.06058e-06
3.90781e-06 -1.06058e-06 -0.000160148
0.00149616 2.11805e-05 -1.75038e-05
2.11805e-05 0.000744725 -2.36423e-06
-1.75038e-05 -2.36423e-06 0.000705036
0.000715734 6.61803e-06 5.42917e-05
6.61803e-06 0.00021108 1.27658e-05
5.42917e-05 1.27658e-05 0.000209246
0.00150364 -3.37972e-05 -1.73604e-05
-3.37972e-05 0.000744971 -1.08836e-05
-1.73604e-05 -1.08836e-05 0.000704793
0.000730239 -1.51341e-05 2.7315e-05
-1.51341e-05 0.000215279 5.11482e-06
2.7315e-05 5.11482e-06 0.000206723
0.000674337 -3.47167e-05 7.6962e-06
-3.47167e-05 0.000184725 -6.55816e-06
7.6962e-06 -6.55816e-06 0.000164818
0.000446436 5.37702e-06 5.3065e-06
5.37702e-06 2.40612e-05 -1.0616e-05
5.3065e-06 -1.0616e-05 -3.02202e-05
0.000293866 4.55522e-06 -1.69665e-06
4.55522e-06 -5.27813e-05 4.65715e-07
-1.69665e-06 4.65715e-07 -0.000141519
0.00354156 0.000192587 -2.16446e-05
0.000192587 0.0021473 -1.29869e-05
-2.16446e-05 -1.29869e-05 0.00211758
-0.000292301 -0.000100708 -2.28185e-05
-0.000100708 -0.000447134 1.01517e-05
-2.28185e-05 1.01517e-05 -0.000558694
0.00482666 0.00016971 -3.1437e-05
0.00016971 0.00300876 -1.70259e-06
-3.1437e-05 -1.70259e-06 0.00297712
0.00536277 5.77305e-05 -0.000203736
5.77305e-05 0.00339087 3.95152e-05
-0.000203736 3.95152e-05 0.00338202
0.00256929 0.000556809 8.06307e-07
0.000556809 1.37104e-05 8.41495e-07
8.06307e-07 8.41495e-07 1.62705e-06
0.00242912 0.000272886 4.46779e-07
0.000272886 -4.72866e-05 1.04956e-08
4.46779e-07 1.04956e-08 1.02609e-05
0.00258523 0.000401562 9.02882e-07
0.000401562 -0.000102288 1.85118e-06
9.02882e-07 1.85118e-06 1.06744e-05
0.00244036 0.000207936 1.75226e-06
0.000207936 -0.000169814 2.46228e-07
1.75226e-06 2.46228e-07 -1.37866e-05
0.00236934 8.56578e-05 1.16598e-06
8.56578e-05 -8.62443e-05 1.38951e-07
1.16598e-06 1.38951e-07 -2.15039e-06
0.00221948 -1.50813e-05 -4.8997e-06
-1.50813e-05 -4.97436e-05 1.48212e-07
-4.8997e-06 1.48212e-07 -1.80212e-05
0.00236681 -1.52184e-05 4.98707e-07
-1.52184e-05 -8.89997e-05 -2.0415e-08
4.98707e-07 -2.0415e-08 2.77406e-06
0.0024905 0.000106864 4.00004e-07
0.000106864 -0.000153763 1.74437e-07
4.00004e-07 1.74437e-07 3.67079e-06
0.00254988 0.000292691 6.9014e-07
0.000292691 -0.00013912 -4.67922e-08
6.9014e-07 -4.67922e-08 1.09908e-05
0.00268791 0.00054092 3.59921e-07
0.00054092 -0.000117152 2.4792e-07
3.59921e-07 2.4792e-07 2.86275e-06
0.00248953 -1.41176e-05 -1.94555e-06
-1.41176e-05 -0.000160146 -2.29678e-07
-1.94555e-06 -2.29678e-07 -5.64517e-06
0.00265041 0.000183364 7.93595e-08
0.000183364 -0.000183061 -8.15081e-07
7.93595e-08 -8.15081e-07 4.95789e-05
0.00277895 0.000386863 2.99584e-06
0.000386863 -0.000193266 -1.27732e-07
2.99584e-06 -1.27732e-07 2.40627e-05
0.00237041 -0.00013119 1.56537e-06
-0.00013119 -8.24525e-05 -1.67442e-07
1.56537e-06 -1.67442e-07 5.09754e-06
0.00244456 -0.000280301 1.026e-07
-0.000280301 -9.18225e-05 -2.89368e-07
1.026e-07 -2.89368e-07 -9.185e-06
0.00258942 -0.000544996 -3.19282e-07
-0.000544996 -0.00011379 -1.45049e-07
-3.19282e-07 -1.45049e-07 -3.23877e-05
0.0028833 -0.00147578 -1.00021e-05
-0.00147578 0.00112484 2.41046e-06
-1.00021e-05 2.41046e-06 0.000206374
0.00219071 -0.00125932 -9.08596e-07
-0.00125932 0.000403687 -1.77811e-06
-9.08596e-07 -1.77811e-06 -0.000325782
0.0028233 -0.00120238 -2.0775e-06
-0.00120238 0.000587475 1.62453e-06
-2.0775e-06 1.62453e-06 2.62366e-05
0.00263781 -0.00073914 -6.98034e-07
-0.00073914 2.97371e-05 -1.42462e-07
-6.98034e-07 -1.42462e-07 -5.21523e-06
0.00284706 -0.00102647 -2.51206e-06
-0.00102647 0.000153332 2.42589e-07
-2.51206e-06 2.42589e-07 3.20158e-05
0.00279825 -0.00112953 5.66736e-06
-0.00112953 0.000331567 -3.28549e-06
5.66736e-06 -3.28549e-06 2.58142e-05
0.00195887 -0.00131286 -1.02198e-05
-0.00131286 0.000869146 -7.71301e-06
-1.02198e-05 -7.71301e-06 -8.88745e-05
0.00199507 -0.00127348 1.23702e-05
-0.00127348 0.000951543 -1.97523e-05
1.23702e-05 -1.97523e-05 -7.49784e-05
-0.000339919 -0.000829299 -8.58852e-06
-0.000829299 -0.00019127 -1.31038e-05
-8.58852e-06 -1.31038e-05 -0.00103969
-3.29607e-06 6.15898e-07 5.55276e-06
6.15898e-07 -0.000149927 -1.1067e-05
5.55276e-06 -1.1067e-05 -0.000431453
0.00266794 -0.000529429 1.0953e-05
-0.000529429 0.00148162 -6.4312e-06
1.0953e-05 -6.4312e-06 0.000988999
-0.000917989 -8.20444e-05 9.16801e-06
-8.20444e-05 -0.000760214 1.31977e-06
9.16801e-06 1.31977e-06 -0.00123837
0.00249404 -0.00014738 -2.78753e-07
-0.00014738 -0.000140079 1.30961e-07
-2.78753e-07 1.30961e-07 -5.63629e-07
0.00261522 -0.000385555 6.16253e-08
-0.000385555 -0.000213088 -4.22205e-07
6.16253e-08 -4.22205e-07 -1.9064e-05
0.0027421 -0.00068116 -2.22708e-07
-0.00068116 -9.26795e-05 -3.81451e-08
-2.22708e-07 -3.81451e-08 1.19157e-05
0.00276147 -0.00153226 -1.19018e-06
-0.00153226 0.00107969 8.88244e-07
-1.19018e-06 8.88244e-07 0.000142189
0.00255946 -0.00147064 9.62615e-06
-0.00147064 0.000662585 -3.28873e-06
9.62615e-06 -3.28873e-06 -0.000160605
0.00279514 -0.00127135 -5.00608e-07
-0.00127135 0.000534082 -1.53953e-06
-5.00608e-07 -1.53953e-06 8.24688e-06
0.00279564 -0.000913889 6.78794e-07
-0.000913889 -1.72618e-05 -3.59152e-07
6.78794e-07 -3.59152e-07 -7.48779e-06
0.00289611 -0.0011829 2.2857e-06
-0.0011829 0.000259691 -1.75333e-06
2.2857e-06 -1.75333e-06 7.70035e-06
-0.000159807 2.10664e-05 4.08868e-07
2.10664e-05 -0.000307105 -7.28429e-06
4.08868e-07 -7.28429e-06 -0.00047957
0.000496626 -0.000190696 -1.48432e-06
-0.000190696 0.000273553 2.14769e-07
-1.48432e-06 2.14769e-07 -0.000152475
0.0020631 -0.00134045 -8.56433e-06
-0.00134045 0.00091349 1.27216e-08
-8.56433e-06 1.27216e-08 -5.83623e-05
0.00100524 -0.000944905 5.66975e-06
-0.000944905 0.00041133 1.60733e-06
5.66975e-06 1.60733e-06 -0.000538759
0.00177304 -0.000492918 -2.08087e-06
-0.000492918 0.000934327 -4.95106e-06
-2.08087e-06 -4.95106e-06 0.000456781
0.00144096 -0.000508294 1.92443e-06
-0.000508294 0.000858994 -3.78328e-06
1.92443e-06 -3.78328e-06 0.000353716
0.00259348 -0.000200787 1.63289e-06
-0.000200787 -0.000248841 5.13797e-07
1.63289e-06 5.13797e-07 -7.25705e-06
0.00286855 -0.000565492 3.20669e-06
-0.000565492 -0.00022496 -1.59893e-07
3.20669e-06 -1.59893e-07 3.90788e-05
0.00277333 -0.000847315 1.48811e-06
-0.000847315 -0.00016634 9.67115e-07
1.48811e-06 9.67115e-07 -4.7045e-05
0.0030411 -0.0011831 4.43752e-06
-0.0011831 0.000169187 1.56793e-06
4.43752e-06 1.56793e-06 4.62025e-05
0.00261535 -0.00158061 1.7391e-06
-0.00158061 0.00104842 -2.26839e-06
1.7391e-06 -2.26839e-06 0.0001021
0.00321452 -0.00152585 2.77241e-06
-0.00152585 0.00061645 -1.3336e-05
2.77241e-06 -1.3336e-05 0.00011112
0.00216894 -0.00151628 -5.36735e-05
-0.00151628 0.000463831 4.38259e-06
-5.36735e-05 4.38259e-06 -0.000380348
0.000366822 2.59282e-05 1.77592e-06
2.59282e-05 9.06508e-06 -5.50207e-06
1.77592e-06 -5.50207e-06 -0.000106461
0.000561229 -0.000194444 6.66805e-06
-0.000194444 0.000229606 -5.44845e-06
6.66805e-06 -5.44845e-06 3.38266e-05
-0.00155553 -1.48841e-06 -9.36525e-06
-1.48841e-06 -0.00107429 4.0803e-06
-9.36525e-06 4.0803e-06 -0.00140238
0.00129422 -0.000402597 -1.47699e-05
-0.000402597 0.000886403 1.61572e-05
-1.47699e-05 1.61572e-05 0.000406713
0.00342631 -0.000281205 -1.34547e-05
-0.000281205 0.00205876 2.45089e-06
-1.34547e-05 2.45089e-06 0.00170851
-0.000114369 -0.000381483 -9.4643e-06
-0.000381483 -7.94069e-05 3.20504e-07
-9.4643e-06 3.20504e-07 -0.000822225
0.00320432 -0.00161277 -5.5245e-05
-0.00161277 0.00146077 4.90378e-05
-5.5245e-05 4.90378e-05 0.000431112
0.00367642 -0.00136429 -6.5555e-05
-0.00136429 0.00212692 4.11514e-05
-6.5555e-05 4.11514e-05 0.00091624
0.00100097 0.00017879 8.13246e-06
0.00017879 0.000517607 -1.70059e-06
8.13246e-06 -1.70059e-06 0.00013135
0.00200447 0.000648777 1.03419e-05
0.000648777 0.00116347 3.37181e-05
1.03419e-05 3.37181e-05 0.000593429
0.00286117 0.000874644 -1.65666e-06
0.000874644 3.27543e-05 -1.66572e-06
-1.65666e-06 -1.66572e-06 7.33706e-06
0.00224988 0.000540517 -1.16119e-05
0.000540517 0.000468958 -1.05502e-05
-1.16119e-05 -1.05502e-05 5.77542e-05
0.0019404 0.00123323 9.76845e-06
0.00123323 0.000889784 -4.10203e-06
9.76845e-06 -4.10203e-06 1.35424e-05
0.00403151 0.00128147 1.32507e-05
0.00128147 0.00176592 6.77157e-06
1.32507e-05 6.77157e-06 0.00105644
0.00291239 0.000994584 -4.25346e-06
0.000994584 0.000416048 -3.72169e-06
-4.25346e-06 -3.72169e-06 8.73926e-05
0.00315886 0.00100003 -2.66537e-06
0.00100003 0.000432921 5.25851e-06
-2.66537e-06 5.25851e-06 0.00020448
0.00258236 0.00172379 -9.77668e-06
0.00172379 0.000935222 -4.78866e-06
-9.77668e-06 -4.78866e-06 -0.000108786
0.00288913 0.00184037 -2.47435e-05
0.00184037 0.000807453 -4.70494e-06
-2.47435e-05 -4.70494e-06 -0.000173787
-0.00145825 0.000284113 -2.32062e-06
0.000284113 -0.00101839 -5.72047e-07
-2.32062e-06 -5.72047e-07 -0.00140053
-0.000999964 0.000561114 3.65292e-06
0.000561114 -0.000407924 2.89742e-07
3.65292e-06 2.89742e-07 -0.00113955
0.00228656 0.0014048 5.01078e-07
0.0014048 0.000828534 -8.52648e-07
5.01078e-07 -8.52648e-07 -6.30395e-05
0.00320586 0.000979566 -1.0615e-05
0.000979566 0.00125944 -1.20002e-06
-1.0615e-05 -1.20002e-06 0.000689785
0.0028779 0.000728912 -2.21596e-07
0.000728912 -0.000334686 8.07313e-08
-2.21596e-07 8.07313e-08 -6.53807e-05
0.00301378 0.00106792 2.96343e-06
0.00106792 0.000125471 -1.28212e-06
2.96343e-06 -1.28212e-06 2.00326e-05
0.00298677 0.00136445 -4.6639e-06
0.00136445 0.000549814 -1.00114e-06
-4.6639e-06 -1.00114e-06 -6.53037e-05
0.00293055 0.00181206 2.38116e-06
0.00181206 0.000921839 1.37064e-06
2.38116e-06 1.37064e-06 -0.00010852
-0.00101244 5.42235e-05 -6.3676e-06
5.42235e-05 -0.000699216 -3.82746e-06
-6.3676e-06 -3.82746e-06 -0.000963795
0.00286365 0.000513387 8.45052e-06
0.000513387 -0.000401612 2.92252e-06
8.45052e-06 2.92252e-06 -5.09937e-05
0.00296728 0.000970744 -3.23546e-06
0.000970744 0.00197117 6.4976e-06
-3.23546e-06 6.4976e-06 0.00121895
0.00231746 0.00119599 1.17937e-05
0.00119599 0.000800586 -4.08535e-07
1.17937e-05 -4.08535e-07 1.77093e-05
0.00303639 0.00106871 -1.9264e-05
0.00106871 -9.84294e-05 -1.05225e-05
-1.9264e-05 -1.05225e-05 4.22546e-05
0.00240616 0.00133128 6.12678e-06
0.00133128 5.85589e-05 -1.05664e-05
6.12678e-06 -1.05664e-05 -0.000475179
0.00392218 0.0019783 1.0566e-05
0.0019783 0.00144356 7.3053e-06
1.0566e-05 7.3053e-06 0.000381978
0.0011342 0.000303999 4.71247e-06
0.000303999 0.000714057 1.19104e-05
4.71247e-06 1.19104e-05 0.000389676
0.000834048 0.000241377 -5.45056e-06
0.000241377 0.000538323 9.96794e-08
-5.45056e-06 9.96794e-08 0.000328384
-0.00124922 7.0976e-05 -3.52274e-06
7.0976e-05 -0.000790074 -1.80809e-06
-3.52274e-06 -1.80809e-06 -0.000958751
-0.000179062 9.98509e-06 4.23034e-06
9.98509e-06 -0.000272434 2.35835e-06
4.23034e-06 2.35835e-06 -0.000442026
0.000481843 0.000159677 9.81466e-06
0.000159677 0.000313982 -1.53799e-05
9.81466e-06 -1.53799e-05 1.49704e-05
-0.000996743 0.000173312 -1.08929e-05
0.000173312 -0.000523101 1.46845e-05
-1.08929e-05 1.46845e-05 -0.000786495
0.000455406 6.04891e-05 -1.5666e-06
6.04891e-05 0.000149522 -1.03416e-06
-1.5666e-06 -1.03416e-06 -3.30229e-05
0.000172818 3.85848e-05 8.8533e-07
3.85848e-05 7.12177e-05 -1.06102e-06
8.8533e-07 -1.06102e-06 -0.000186164
-0.000491063 0.000106965 3.42485e-07
0.000106965 -0.000367056 2.10208e-06
3.42485e-07 2.10208e-06 -0.00050691
0.000693755 0.000198221 3.44046e-06
0.000198221 0.000505225 -3.86552e-06
3.44046e-06 -3.86552e-06 0.000191715
0.00114924 0.000224664 -5.70137e-06
0.000224664 0.000688654 -1.38539e-05
-5.70137e-06 -1.38539e-05 0.000562413
0.000233425 0.000120995 -3.20893e-07
0.000120995 0.000100897 -1.67011e-05
-3.20893e-07 -1.67011e-05 -6.31912e-05
0.00137911 7.43086e-05 -7.38799e-06
7.43086e-05 0.000904495 5.30876e-06
-7.38799e-06 5.30876e-06 0.000610163
0.000665104 6.45262e-05 -7.72895e-06
6.45262e-05 0.000352586 6.88739e-07
-7.72895e-06 6.88739e-07 9.39419e-05
0.000613706 4.64515e-05 4.40173e-07
4.64515e-05 0.000233782 3.4742e-06
4.40173e-07 3.4742e-06 5.31282e-05
0.000420592 -9.97906e-05 -3.12362e-06
-9.97906e-05 6.81972e-05 4.08554e-06
-3.12362e-06 4.08554e-06 -5.17001e-05
0.000401198 1.86882e-05 1.06611e-06
1.86882e-05 4.72742e-05 -5.6704e-07
1.06611e-06 -5.6704e-07 -6.5847e-05
0.00142508 4.4981e-05 4.86151e-06
4.4981e-05 0.000701874 5.00501e-06
4.86151e-06 5.00501e-06 0.000664989
0.00036706 1.86649e-05 2.47945e-06
1.86649e-05 1.15269e-05 -2.74911e-06
2.47945e-06 -2.74911e-06 -8.91317e-05
0.00146959 2.49747e-05 -1.61083e-05
2.49747e-05 0.000732131 -2.38929e-06
-1.61083e-05 -2.38929e-06 0.000693299
0.000818309 1.14459e-05 4.85126e-05
1.14459e-05 0.000282332 1.17592e-05
4.85126e-05 1.17592e-05 0.000281346
0.00139241 -1.99394e-05 -1.61906e-05
-1.99394e-05 0.000672298 -9.36294e-06
-1.61906e-05 -9.36294e-06 0.000637178
0.000753884 -6.47466e-06 2.32423e-05
-6.47466e-06 0.000231527 5.02609e-06
2.32423e-05 5.02609e-06 0.00022584
0.000778087 -2.72814e-05 5.83432e-06
-2.72814e-05 0.000245231 -4.88444e-06
5.83432e-06 -4.88444e-06 0.000233457
0.00043906 -4.75999e-05 7.19345e-07
-4.75999e-05 4.05552e-05 -6.2578e-06
7.19345e-07 -6.2578e-06 -6.77286e-05
0.000148404 4.24087e-05 -6.01851e-07
4.24087e-05 -0.00015318 -9.74302e-06
-6.01851e-07 -9.74302e-06 -0.000210241
0.000215255 3.0961e-05 2.54019e-06
3.0961e-05 -0.000111266 1.45195e-06
2.54019e-06 1.45195e-06 -0.000175763
0.00375941 0.000139569 1.26026e-05
0.000139569 0.00227075 -8.65989e-06
1.26026e-05 -8.65989e-06 0.00225543
4.22937e-05 -2.57736e-05 -6.32384e-06
-2.57736e-05 -0.000228487 9.68369e-06
-6.32384e-06 9.68369e-06 -0.000313258
0.00403974 0.000226086 -1.20542e-05
0.000226086 0.00249536 -1.72137e-06
-1.20542e-05 -1.72137e-06 0.00245689
0.00491563 0.000144443 -9.78415e-05
0.000144443 0.00306864 1.51396e-05
-9.78415e-05 1.51396e-05 0.00304541
0.0027038 0.00052407 -9.78859e-08
0.00052407 -9.98013e-05 6.17639e-07
-9.78859e-08 6.17639e-07 2.59753e-05
0.00253912 0.000297959 -6.38109e-07
0.000297959 -0.000151729 3.70684e-07
-6.38109e-07 3.70684e-07 -2.48175e-06
0.00245457 0.000113205 1.52329e-06
0.000113205 -0.00016904 4.0039e-07
1.52329e-06 4.0039e-07 -1.23854e-05
0.00236803 -1.4819e-05 4.11603e-07
-1.4819e-05 -8.79663e-05 -5.97223e-08
4.11603e-07 -5.97223e-08 5.31737e-06
0.00249584 -1.01518e-05 -3.31314e-07
-1.01518e-05 -0.000158938 -8.64061e-08
-3.31314e-07 -8.64061e-08 8.47253e-07
0.00259842 0.000183264 7.84106e-07
0.000183264 -0.000219158 3.38834e-07
7.84106e-07 3.38834e-07 1.59913e-05
0.00270898 0.000405141 -4.36207e-07
0.000405141 -0.000217454 -2.39725e-08
-4.36207e-07 -2.39725e-08 -2.86785e-06
0.00256019 -8.74377e-06 9.90891e-07
-8.74377e-06 -0.000290794 -3.49379e-07
9.90891e-07 -3.49379e-07 -3.18165e-05
0.00288622 0.000237275 3.90003e-06
0.000237275 -0.000236176 -2.04741e-06
3.90003e-06 -2.04741e-06 7.02121e-05
0.00279238 0.000265599 -1.38229e-07
0.000265599 -0.000518749 9.47304e-06
-1.38229e-07 9.47304e-06 -0.000117619
0.00251662 -0.000138412 1.50151e-06
-0.000138412 -0.00012369 -8.22886e-08
1.50151e-06 -8.22886e-08 1.14487e-05
0.00261322 -0.000403507 -1.74842e-06
-0.000403507 -0.000220879 4.55299e-07
-1.74842e-06 4.55299e-07 -2.28454e-05
0.00271914 -0.000664793 -7.97215e-08
-0.000664793 -9.78971e-05 3.28922e-07
-7.97215e-08 3.28922e-07 4.40331e-06
0.00249086 -0.00149406 -1.30988e-05
-0.00149406 0.000893605 -2.45068e-06
-1.30988e-05 -2.45068e-06 -3.30495e-05
0.00220117 -0.0014286 2.08638e-05
-0.0014286 0.00044765 -5.53574e-06
2.08638e-05 -5.53574e-06 -0.000365073
0.00290544 -0.00127927 1.90528e-05
-0.00127927 0.000579371 -1.10492e-06
1.90528e-05 -1.10492e-06 5.59242e-05
0.00278757 -0.000925684 1.10887e-06
-0.000925684 -2.29396e-05 -2.17977e-06
1.10887e-06 -2.17977e-06 -2.34908e-05
0.00291588 -0.00116973 3.48615e-06
-0.00116973 0.000287522 2.52591e-06
3.48615e-06 2.52591e-06 4.22118e-05
0.00222125 -0.00136301 1.09095e-05
-0.00136301 0.0009988 -2.7475e-05
1.09095e-05 -2.7475e-05 1.97193e-05
-0.000985006 -0.000568991 3.43846e-05
-0.000568991 -0.000784819 -2.26433e-05
3.43846e-05 -2.26433e-05 -0.00169285
0.00279926 -0.000614758 1.11964e-05
-0.000614758 0.00151512 -3.08195e-07
1.11964e-05 -3.08195e-07 0.001054
0.000808496 -9.39042e-05 -3.30747e-06
-9.39042e-05 0.000341828 9.60669e-06
-3.30747e-06 9.60669e-06 0.000175128
-4.94505e-05 -3.5956e-05 1.0256e-05
-3.5956e-05 -0.000130763 -1.03534e-05
1.0256e-05 -1.03534e-05 -0.000515051
-0.000154653 -0.000337912 8.75237e-06
-0.000337912 -0.000201501 -1.18394e-05
8.75237e-06 -1.18394e-05 -0.000689828
0.00260896 -0.000202215 2.49164e-07
-0.000202215 -0.000244378 -2.47909e-07
2.49164e-07 -2.47909e-07 2.09075e-06
0.000597876 -7.28004e-05 2.59849e-06
-7.28004e-05 0.000157042 5.12648e-07
2.59849e-06 5.12648e-07 3.2564e-05
0.000447408 -0.000128797 -4.20372e-06
-0.000128797 0.000124969 -5.05271e-07
-4.20372e-06 -5.05271e-07 -4.6296e-05
0.00280548 -0.000557894 7.84884e-09
-0.000557894 -0.000253683 9.70669e-08
7.84884e-09 9.70669e-08 1.67052e-06
0.00280884 -0.000837812 -1.64084e-06
-0.000837812 -0.000124056 4.95898e-07
-1.64084e-06 4.95898e-07 -8.65647e-06
0.00272352 -0.00161115 -2.40504e-06
-0.00161115 0.00110267 2.30189e-06
-2.40504e-06 2.30189e-06 0.000135187
0.00352924 -0.00177437 1.0862e-05
-0.00177437 0.00119988 -3.6065e-06
1.0862e-05 -3.6065e-06 0.000284321
0.00308848 -0.00149214 3.96383e-06
-0.00149214 0.000567603 -9.80235e-07
3.96383e-06 -9.80235e-07 7.43513e-05
0.00292953 -0.00117492 2.27898e-06
-0.00117492 0.00010011 -1.19908e-06
2.27898e-06 -1.19908e-06 -1.18268e-05
8.18402e-05 -7.73771e-05 -4.14151e-06
-7.73771e-05 2.07126e-07 -1.36486e-06
-4.14151e-06 -1.36486e-06 -0.000327697
0.000629418 -0.000297885 1.23186e-06
-0.000297885 0.000422153 8.16313e-07
1.23186e-06 8.16313e-07 -3.5942e-05
0.00244863 -0.0014019 1.90977e-05
-0.0014019 0.00109038 5.40123e-06
1.90977e-05 5.40123e-06 0.000109947
0.00223056 -0.00113232 1.95605e-05
-0.00113232 0.00127405 -1.85724e-05
1.95605e-05 -1.85724e-05 0.00014624
0.00127201 -0.000454375 -5.26824e-06
-0.000454375 0.000749278 -2.11452e-06
-5.26824e-06 -2.11452e-06 7.82038e-05
0.000913099 -0.000395167 1.15696e-05
-0.000395167 0.000474735 -3.56149e-06
1.15696e-05 -3.56149e-06 0.000125338
0.00269949 -0.00026715 3.60331e-06
-0.00026715 -0.000503769 -2.13807e-06
3.60331e-06 -2.13807e-06 -9.83822e-05
0.00309322 -0.000759617 -5.3334e-07
-0.000759617 -0.000137554 3.62642e-06
-5.3334e-07 3.62642e-06 0.000144943
0.00323267 -0.00124236 2.08779e-06
-0.00124236 6.00267e-05 -1.23743e-06
2.08779e-06 -1.23743e-06 5.8169e-05
0.00291866 -0.00141155 8.97685e-06
-0.00141155 0.00026367 -1.4291e-06
8.97685e-06 -1.4291e-06 -5.29482e-05
0.000820925 -0.00138277 1.60437e-05
-0.00138277 4.71838e-05 -7.75439e-06
1.60437e-05 -7.75439e-06 -0.000891587
0.00385282 -0.00204328 -1.35788e-06
-0.00204328 0.00119739 -1.89525e-05
-1.35788e-06 -1.89525e-05 0.000274246
0.00059049 9.19465e-05 -5.66072e-06
9.19465e-05 0.000220389 -4.52882e-06
-5.66072e-06 -4.52882e-06 4.40611e-05
-0.00123187 -0.000100601 3.96671e-06
-0.000100601 -0.000937893 1.29389e-06
3.96671e-06 1.29389e-06 -0.00114953
0.00172211 -0.000287013 -1.6313e-05
-0.000287013 0.00104366 1.70525e-05
-1.6313e-05 1.70525e-05 0.000794022
0.00024008 -0.000148262 -1.03131e-05
-0.000148262 0.000123762 2.00624e-05
-1.03131e-05 2.00624e-05 -0.000224627
0.00166237 -0.000509534 -2.36135e-05
-0.000509534 0.00105074 3.39073e-05
-2.36135e-05 3.39073e-05 0.000636825
-0.000287739 -0.000154663 -1.74964e-05
-0.000154663 -0.000397451 -1.19825e-05
-1.74964e-05 -1.19825e-05 -0.000668316
0.00060347 -0.000855924 -3.13716e-05
-0.000855924 0.000902082 2.94178e-05
-3.13716e-05 2.94178e-05 -0.000418906
0.00199978 -0.00173118 -0.00012597
-0.00173118 0.0005883 2.79897e-05
-0.00012597 2.79897e-05 -0.000235117
-2.61032e-05 0.000597306 1.24535e-06
0.000597306 9.30995e-06 3.15375e-06
1.24535e-06 3.15375e-06 -0.000410219
0.0047202 0.000905231 -6.90913e-06
0.000905231 0.00299352 6.22643e-06
-6.90913e-06 6.22643e-06 0.00241684
0.0028091 0.000686902 -6.43693e-06
0.000686902 -0.000399736 -4.70231e-06
-6.43693e-06 -4.70231e-06 -0.000107296
0.00314269 0.00106197 -6.15059e-06
0.00106197 0.000213832 -2.07108e-06
-6.15059e-06 -2.07108e-06 7.83163e-05
0.00369679 0.000932033 -8.41597e-06
0.000932033 0.00169075 -1.8919e-06
-8.41597e-06 -1.8919e-06 0.0011497
0.00151672 0.00132975 -5.29337e-06
0.00132975 0.000283116 -1.17312e-05
-5.29337e-06 -1.17312e-05 -0.000599078
0.00283562 0.00132139 -7.17482e-06
0.00132139 0.000513782 8.63736e-07
-7.17482e-06 8.63736e-07 -8.3915e-05
0.00312523 0.00178744 -2.18816e-05
0.00178744 0.00103543 -5.98636e-06
-2.18816e-05 -5.98636e-06 3.06795e-05
-4.25892e-05 0.000416054 1.3603e-06
0.000416054 7.34015e-05 -2.63493e-07
1.3603e-06 -2.63493e-07 -0.000328008
0.00285718 0.000509525 -5.16492e-06
0.000509525 -0.000403398 -5.28795e-06
-5.16492e-06 -5.28795e-06 -3.69133e-05
0.00284088 0.000877585 2.76333e-06
0.000877585 0.00192978 5.84359e-06
2.76333e-06 5.84359e-06 0.00125172
0.0016133 0.00107261 3.62168e-06
0.00107261 0.000420331 2.33912e-06
3.62168e-06 2.33912e-06 -0.000328281
0.0030772 0.00102204 -1.33116e-07
0.00102204 -2.695e-05 -3.50371e-07
-1.33116e-07 -3.50371e-07 0.000120206
0.00275307 0.00140121 -4.43449e-06
0.00140121 0.000282957 -7.10632e-06
-4.43449e-06 -7.10632e-06 -0.000255009
0.00335239 0.0018308 -6.52988e-07
0.0018308 0.001143 -2.14482e-07
-6.52988e-07 -2.14482e-07 0.000132284
0.00102717 0.000557886 -5.78907e-06
0.000557886 0.00087715 -8.20253e-06
-5.78907e-06 -8.20253e-06 0.000314514
0.00503332 0.00115134 -0.000152382
0.00115134 0.000587851 -5.90762e-05
-0.000152382 -5.90762e-05 0.0012182
-6.35071e-05 0.000710878 -9.01495e-06
0.000710878 -3.40358e-05 2.08014e-05
-9.01495e-06 2.08014e-05 -0.000741165
0.00191496 0.00125743 9.40893e-06
0.00125743 0.000667392 -8.47293e-06
9.40893e-06 -8.47293e-06 -0.000235418
0.00397673 0.00150225 -5.84784e-05
0.00150225 0.000804523 -2.34439e-05
-5.84784e-05 -2.34439e-05 0.000586932
0.00279575 0.00176382 -3.41135e-05
0.00176382 0.000785502 -1.11596e-05
-3.41135e-05 -1.11596e-05 -0.000158294
0.000977287 0.0025686 -1.01953e-05
0.0025686 -0.00436732 -5.25012e-05
-1.01953e-05 -5.25012e-05 -0.00165076
0.000800052 0.000303918 8.823e-06
0.000303918 0.000593954 2.22986e-05
8.823e-06 2.22986e-05 0.000368439
0.000143781 0.000219865 -4.87109e-06
0.000219865 0.000165897 -1.84186e-06
-4.87109e-06 -1.84186e-06 -3.70939e-05
-0.000413372 0.000163221 -3.41668e-06
0.000163221 -0.00019133 -3.19024e-07
-3.41668e-06 -3.19024e-07 -0.000412397
0.000206718 -5.2353e-05 4.33288e-06
-5.2353e-05 -1.89876e-05 -1.89337e-06
4.33288e-06 -1.89337e-06 -0.000198923
-0.000474928 5.23794e-05 7.21268e-06
5.23794e-05 -0.000355175 -8.65788e-06
7.21268e-06 -8.65788e-06 -0.000604197
0.00200361 0.000377767 -2.33302e-06
0.000377767 0.00136076 -7.50434e-06
-2.33302e-06 -7.50434e-06 0.0010326
-0.00226153 -1.75223e-05 -1.45635e-05
-1.75223e-05 -0.00143574 1.39534e-05
-1.45635e-05 1.39534e-05 -0.00158402
0.000377231 6.35574e-06 4.81214e-07
6.35574e-06 8.31225e-05 -5.83258e-07
4.81214e-07 -5.83258e-07 -9.96861e-05
0.00040869 0.000114924 8.89095e-07
0.000114924 0.000136657 -2.39891e-07
8.89095e-07 -2.39891e-07 -7.61448e-05
6.4109e-05 0.000167126 3.74264e-06
0.000167126 8.81902e-06 2.5454e-06
3.74264e-06 2.5454e-06 -9.47751e-05
-8.46746e-06 8.77458e-05 1.44614e-06
8.77458e-05 -1.74156e-05 3.14358e-07
1.44614e-06 3.14358e-07 -0.000291815
0.000305235 0.000118525 2.50535e-06
0.000118525 0.000163946 3.13606e-06
2.50535e-06 3.13606e-06 -2.34924e-05
-4.99609e-05 0.000121751 7.4559e-06
0.000121751 0.000124465 -2.37119e-05
7.4559e-06 -2.37119e-05 -9.67842e-05
0.000977762 0.00014402 -3.36571e-06
0.00014402 0.000652879 -1.03921e-06
-3.36571e-06 -1.03921e-06 0.000364021
0.000674715 0.000127851 -4.84915e-06
0.000127851 0.000371059 5.28458e-07
-4.84915e-06 5.28458e-07 0.000136601
0.0008621 0.000172263 -8.64957e-06
0.000172263 0.000454985 -7.44381e-06
-8.64957e-06 -7.44381e-06 0.000233776
-6.12563e-05 7.1916e-06 -2.81566e-06
7.1916e-06 -0.000239578 -1.3288e-06
-2.81566e-06 -1.3288e-06 -0.000398659
0.00121506 -0.000254553 9.91805e-06
-0.000254553 0.000804114 -1.34909e-05
9.91805e-06 -1.34909e-05 0.000492505
0.000117212 -5.9578e-05 -3.47689e-06
-5.9578e-05 -9.53659e-05 1.7261e-06
-3.47689e-06 1.7261e-06 -0.000275533
0.000261133 5.37247e-06 -3.01902e-06
5.37247e-06 -3.27276e-05 3.09616e-06
-3.01902e-06 3.09616e-06 -0.000152918
0.000384387 5.53643e-05 2.2998e-06
5.53643e-05 5.06198e-05 -9.46379e-08
2.2998e-06 -9.46379e-08 -7.27236e-05
0.000270372 2.08436e-05 -4.26844e-06
2.08436e-05 -5.96558e-05 6.42817e-06
-4.26844e-06 6.42817e-06 -0.000104389
0.000231827 -3.56415e-06 -3.60068e-07
-3.56415e-06 -5.26942e-05 -5.13224e-06
-3.60068e-07 -5.13224e-06 -0.000173921
0.00083728 1.98203e-05 -6.40466e-06
1.98203e-05 0.000315293 -1.76157e-06
-6.40466e-06 -1.76157e-06 0.000274412
0.00291 1.55669e-05 4.32393e-05
1.55669e-05 0.00167962 7.97143e-06
4.32393e-05 7.97143e-06 0.00168942
0.00145683 8.52827e-05 -2.76117e-05
8.52827e-05 0.000731421 -1.02608e-05
-2.76117e-05 -1.02608e-05 0.000690076
0.000756174 1.14107e-06 2.14254e-05
1.14107e-06 0.000236546 4.74663e-06
2.14254e-05 4.74663e-06 0.000233269
0.000785948 -1.71184e-05 4.64338e-06
-1.71184e-05 0.000247657 -3.5868e-06
4.64338e-06 -3.5868e-06 0.000240225
0.000248045 2.34336e-06 -3.98618e-06
2.34336e-06 -5.56298e-05 -7.95367e-06
-3.98618e-06 -7.95367e-06 -0.000164127
0.000604559 -7.9866e-05 5.60199e-07
-7.9866e-05 0.00016881 -4.33765e-07
5.60199e-07 -4.33765e-07 4.70834e-05
0.000306398 2.10955e-05 -4.89674e-07
2.10955e-05 -6.34886e-05 -7.68484e-06
-4.89674e-07 -7.68484e-06 -0.00010698
0.00100742 3.775e-05 -6.1702e-08
3.775e-05 0.000409698 -5.19755e-08
-6.1702e-08 -5.19755e-08 0.000359498
0.00315888 0.000109479 -1.91597e-06
0.000109479 0.00185985 -8.31338e-06
-1.91597e-06 -8.31338e-06 0.00185273
0.000376707 9.96355e-06 -3.56658e-06
9.96355e-06 -2.79229e-06 1.03692e-05
-3.56658e-06 1.03692e-05 -7.01394e-05
0.00330727 0.000144877 -7.61729e-07
0.000144877 0.00197098 -1.2806e-07
-7.61729e-07 -1.2806e-07 0.00195473
0.00452687 0.000135037 -3.925e-05
0.000135037 0.00278677 9.74095e-06
-3.925e-05 9.74095e-06 0.0027657
0.00264223 0.000421178 -3.5035e-06
0.000421178 -0.000245651 -6.62239e-07
-3.5035e-06 -6.62239e-07 -3.09758e-05
0.0025408 0.000182995 -6.20992e-08
0.000182995 -0.00026181 7.97877e-07
-6.20992e-08 7.97877e-07 -2.25868e-05
0.00250554 -6.05129e-06 8.6744e-07
-6.05129e-06 -0.000157002 1.50338e-08
8.6744e-07 1.50338e-08 8.1161e-06
0.00254055 1.49806e-06 -1.47083e-07
1.49806e-06 -0.00030307 -2.41795e-07
-1.47083e-07 -2.41795e-07 -4.251e-05
0.0028361 0.00024901 1.06316e-06
0.00024901 -0.000266178 5.57872e-07
1.06316e-06 5.57872e-07 4.22436e-05
0.00293079 0.000226906 6.55697e-06
0.000226906 -0.00042609 -5.98374e-06
6.55697e-06 -5.98374e-06 -3.97278e-05
0.00302971 8.72839e-05 4.31013e-06
8.72839e-05 -0.000320187 1.17091e-06
4.31013e-06 1.17091e-06 6.69919e-05
0.00694435 0.00295951 -3.00436e-05
0.00295951 -0.00230966 2.58763e-05
-3.00436e-05 2.58763e-05 0.000735647
0.00315298 0.000302259 -9.99536e-05
0.000302259 -0.000611931 3.91785e-06
-9.99536e-05 3.91785e-06 0.000159728
0.00027966 0.000121103 -3.51599e-06
0.000121103 1.48443e-05 -2.89663e-06
-3.51599e-06 -2.89663e-06 -0.000153022
0.00261737 -0.000201622 -1.59321e-06
-0.000201622 -0.000246654 -4.2534e-07
-1.59321e-06 -4.2534e-07 5.4264e-06
0.0027465 -0.000546864 -3.44163e-06
-0.000546864 -0.000277006 -8.97967e-08
-3.44163e-06 -8.97967e-08 -3.15332e-05
0.00285365 -0.000824802 8.16219e-07
-0.000824802 -7.50593e-05 -7.23959e-07
8.16219e-07 -7.23959e-07 3.86745e-05
0.00293238 -0.00164763 -1.36002e-05
-0.00164763 0.00123834 -2.31759e-06
-1.36002e-05 -2.31759e-06 0.000253989
0.00268555 -0.00162963 2.69255e-05
-0.00162963 0.000709552 3.30814e-06
2.69255e-05 3.30814e-06 -0.000155777
0.00292772 -0.0014561 -8.9261e-07
-0.0014561 0.000497024 1.3076e-05
-8.9261e-07 1.3076e-05 1.50163e-05
0.00280831 -0.00117058 3.68584e-07
-0.00117058 2.05535e-05 -5.11503e-06
3.68584e-07 -5.11503e-06 -8.11111e-05
0.0024378 -0.00135217 7.8922e-05
-0.00135217 0.00105293 -7.12691e-05
7.8922e-05 -7.12691e-05 0.000131083
0.00225717 -0.00116222 8.53139e-05
-0.00116222 0.00124947 -6.68194e-05
8.53139e-05 -6.68194e-05 0.000147685
-0.000760384 -0.000238132 2.60819e-05
-0.000238132 -0.000535684 1.01318e-05
2.60819e-05 1.01318e-05 -0.00121043
0.000546599 -3.2383e-05 -2.71828e-07
-3.2383e-05 0.00011367 7.06277e-06
-2.71828e-07 7.06277e-06 -1.63616e-05
0.000814071 -0.000448818 -1.58915e-06
-0.000448818 0.000439235 -5.70522e-06
-1.58915e-06 -5.70522e-06 7.28561e-05
0.00191422 -0.000194915 1.17564e-05
-0.000194915 0.00127058 -7.76298e-06
1.17564e-05 -7.76298e-06 0.000895899
-0.000318329 -0.000188148 7.60607e-06
-0.000188148 -0.000253575 -1.38772e-05
7.60607e-06 -1.38772e-05 -0.00066786
0.00074816 -0.000141555 -8.45408e-06
-0.000141555 0.000350415 4.26978e-06
-8.45408e-06 4.26978e-06 0.000160808
0.00278345 -0.00028408 -4.09084e-07
-0.00028408 -0.000436079 -8.16827e-07
-4.09084e-07 -8.16827e-07 -4.07593e-05
0.000588696 7.42231e-05 1.17736e-06
7.42231e-05 0.000234388 -1.90465e-06
1.17736e-06 -1.90465e-06 4.71794e-05
0.000842787 -0.000219593 2.28357e-06
-0.000219593 0.000518191 3.35101e-06
2.28357e-06 3.35101e-06 0.00023771
0.000666998 -0.000172951 9.54431e-06
-0.000172951 0.000321355 1.0813e-06
9.54431e-06 1.0813e-06 0.00010737
0.00289825 -0.00074891 3.05133e-06
-0.00074891 -0.000283502 -5.06558e-07
3.05133e-06 -5.06558e-07 3.37401e-07
0.00316935 -0.00121101 -8.22987e-07
-0.00121101 5.11662e-05 5.50813e-07
-8.22987e-07 5.50813e-07 6.22524e-05
0.00276165 -0.00161579 -7.13555e-06
-0.00161579 0.00110124 2.33586e-06
-7.13555e-06 2.33586e-06 0.000168071
0.00259339 -0.00184904 1.17088e-05
-0.00184904 0.000506987 -1.01418e-06
1.17088e-05 -1.01418e-06 -0.00035264
0.00299592 -0.00144306 3.12698e-07
-0.00144306 0.000304715 9.00029e-07
3.12698e-07 9.00029e-07 -3.11456e-05
0.000106183 -0.000139047 -2.93505e-07
-0.000139047 3.02622e-05 5.30476e-07
-2.93505e-07 5.30476e-07 -0.00031355
0.0021877 -0.000480573 1.28097e-05
-0.000480573 0.0014196 -1.54223e-06
1.28097e-05 -1.54223e-06 0.000985847
0.0037775 -0.00205562 -7.66492e-06
-0.00205562 0.00163151 1.53995e-05
-7.66492e-06 1.53995e-05 0.000576793
0.00119874 -0.00055328 -5.78506e-06
-0.00055328 0.000825072 5.8164e-06
-5.78506e-06 5.8164e-06 -0.000205239
0.00113396 -0.000299397 8.05632e-06
-0.000299397 0.000504161 1.19685e-05
8.05632e-06 1.19685e-05 0.00018462
0.0030304 -0.000543695 -2.81704e-05
-0.000543695 -0.000469138 5.84088e-06
-2.81704e-05 5.84088e-06 3.04494e-05
0.00285258 -0.000897075 -2.40237e-05
-0.000897075 -0.00035573 1.17555e-05
-2.40237e-05 1.17555e-05 7.2484e-05
0.00324457 -0.00150266 -1.75382e-06
-0.00150266 0.000296073 -8.46678e-06
-1.75382e-06 -8.46678e-06 3.71968e-05
0.00380215 -0.00183108 1.50731e-05
-0.00183108 0.00108247 -1.22833e-05
1.50731e-05 -1.22833e-05 0.000387085
0.00282619 -0.00192072 2.19722e-05
-0.00192072 0.000916012 -1.73124e-06
2.19722e-05 -1.73124e-06 -8.81688e-05
0.00112224 -1.04369e-05 -1.15616e-05
-1.04369e-05 0.000626563 1.56626e-06
-1.15616e-05 1.56626e-06 0.000451209
-0.000423717 -0.000120897 -1.25703e-05
-0.000120897 -0.000412417 2.50064e-05
-1.25703e-05 2.50064e-05 -0.000656729
-0.000304756 -0.000120766 -7.19009e-06
-0.000120766 -0.000258461 1.42741e-05
-7.19009e-06 1.42741e-05 -0.000441381
0.00243336 -0.000575154 -7.03186e-05
-0.000575154 0.00154152 6.21882e-05
-7.03186e-05 6.21882e-05 0.00114887
0.000615806 -0.000275171 1.83332e-05
-0.000275171 0.000289723 2.72302e-05
1.83332e-05 2.72302e-05 9.61533e-07
-0.00149877 7.60836e-06 -1.03789e-05
7.60836e-06 -0.000508022 7.31586e-06
-1.03789e-05 7.31586e-06 -0.00131846
0.00209204 -0.00207262 -4.72335e-05
-0.00207262 0.00121925 -2.79054e-05
-4.72335e-05 -2.79054e-05 -5.43401e-05
0.00400935 0.000839792 8.49666e-06
0.000839792 0.00265487 2.51952e-06
8.49666e-06 2.51952e-06 0.00213914
-0.000205873 0.000441614 -7.62631e-06
0.000441614 9.3458e-05 1.43548e-08
-7.62631e-06 1.43548e-08 -0.000491842
0.00282334 0.000498431 8.31022e-06
0.000498431 -0.000446355 5.89255e-06
8.31022e-06 5.89255e-06 -4.35856e-05
0.0031291 0.000977783 1.74998e-05
0.000977783 3.65492e-05 1.20003e-05
1.74998e-05 1.20003e-05 0.000197632
0.00308929 0.0014683 4.551e-06
0.0014683 0.000499488 2.82149e-06
4.551e-06 2.82149e-06 -4.03156e-05
0.00119071 0.000992987 -1.07923e-05
0.000992987 0.000219625 -1.73178e-06
-1.07923e-05 -1.73178e-06 -0.000506678
0.00273523 0.00168451 -3.98686e-06
0.00168451 0.000818281 3.3331e-06
-3.98686e-06 3.3331e-06 -0.000142877
0.00317652 0.000749067 -3.38514e-07
0.000749067 0.00221609 -2.42108e-06
-3.38514e-07 -2.42108e-06 0.00165714
0.0034204 0.000924058 2.74944e-05
0.000924058 -0.000396941 6.98117e-06
2.74944e-05 6.98117e-06 0.000401732
0.000821244 0.000782537 -7.25889e-06
0.000782537 0.000452581 1.06149e-05
-7.25889e-06 1.06149e-05 -0.000226454
0.00234356 0.00135719 5.74612e-06
0.00135719 0.000939165 -3.25926e-06
5.74612e-06 -3.25926e-06 -4.64551e-06
0.00323938 0.00135972 -5.31294e-06
0.00135972 0.000472321 -3.44839e-06
-5.31294e-06 -3.44839e-06 0.00030062
0.00307733 0.00181501 -1.20663e-06
0.00181501 0.000937073 6.89985e-06
-1.20663e-06 6.89985e-06 -2.58315e-05
0.00243618 0.00306622 2.90225e-05
0.00306622 -0.00388766 -1.02229e-05
2.90225e-05 -1.02229e-05 -0.00125145
0.000223853 0.000509726 5.27147e-06
0.000509726 0.000513617 1.40016e-06
5.27147e-06 1.40016e-06 -0.000186198
0.00442712 0.00190695 -0.000139927
0.00190695 0.000261615 -5.06219e-05
-0.000139927 -5.06219e-05 0.000555912
0.00063713 0.000931964 -2.3642e-05
0.000931964 0.000127558 1.69049e-05
-2.3642e-05 1.69049e-05 -0.000646279
0.00223906 0.00159665 -1.12094e-05
0.00159665 0.00075942 -2.79758e-05
-1.12094e-05 -2.79758e-05 -0.000240986
0.00502984 0.00221278 -7.61257e-05
0.00221278 0.00170608 -4.31644e-05
-7.61257e-05 -4.31644e-05 0.000923135
0.0153458 0.00138851 -0.00101939
0.00138851 -0.00318346 -0.000114084
-0.00101939 -0.000114084 0.000645093
0.00275015 0.00488649 -0.000339644
0.00488649 -0.00656489 -0.000251163
-0.000339644 -0.000251163 8.31092e-05
0.0015776 0.00372495 4.58706e-05
0.00372495 -0.00191902 -6.16226e-06
4.58706e-05 -6.16226e-06 -0.00116895
0.0105872 -0.0105291 0.00438478
-0.0105291 0.00938044 -0.000853117
0.00438478 -0.000853117 -0.00348809
0.0416047 -0.0246296 -0.000336999
-0.0246296 0.0331028 -6.02716e-05
-0.000336999 -6.02716e-05 0.0108231
0.00284845 0.000430502 1.56664e-05
0.000430502 0.00194573 7.56629e-06
1.56664e-05 7.56629e-06 0.00168994
0.000521256 0.000207158 -7.49262e-07
0.000207158 0.000467159 5.89465e-07
-7.49262e-07 5.89465e-07 0.000203201
0.000675065 0.000363629 5.40333e-06
0.000363629 0.000669479 -1.2199e-05
5.40333e-06 -1.2199e-05 0.000289186
0.000571426 -5.8919e-05 3.44823e-06
-5.8919e-05 0.000229548 -9.23075e-07
3.44823e-06 -9.23075e-07 3.77225e-05
0.00067467 8.75829e-05 8.06221e-06
8.75829e-05 0.000341473 -2.71073e-06
8.06221e-06 -2.71073e-06 0.000123344
-0.00013341 6.27965e-06 2.11334e-06
6.27965e-06 -0.000100863 -2.85075e-06
2.11334e-06 -2.85075e-06 -0.000373361
7.18197e-05 0.000104437 4.77864e-06
0.000104437 6.83025e-06 1.15848e-05
4.77864e-06 1.15848e-05 -0.000177294
-0.000835702 0.000126238 3.43905e-06
0.000126238 -0.00054837 1.94685e-05
3.43905e-06 1.94685e-05 -0.000619084
0.000701172 0.000158147 -3.51112e-06
0.000158147 0.000448909 2.09462e-06
-3.51112e-06 2.09462e-06 0.000179133
0.000390691 -1.5141e-05 1.67096e-07
-1.5141e-05 7.81562e-05 1.48541e-07
1.67096e-07 1.48541e-07 -9.66326e-05
0.000761398 8.99327e-05 -5.04151e-07
8.99327e-05 0.000388212 8.08963e-07
-5.04151e-07 8.08963e-07 0.00016575
0.000250455 0.000162115 -1.89805e-06
0.000162115 0.000258816 -8.90584e-07
-1.89805e-06 -8.90584e-07 6.47144e-05
0.00045102 8.21432e-05 1.40427e-06
8.21432e-05 0.000305088 2.60125e-07
1.40427e-06 2.60125e-07 3.37177e-05
0.000945587 0.000161261 -9.06784e-07
0.000161261 0.000681848 5.24111e-06
-9.06784e-07 5.24111e-06 0.000358739
0.000153288 9.98605e-05 7.35738e-07
9.98605e-05 0.000274897 -1.19646e-05
7.35738e-07 -1.19646e-05 -5.82732e-05
0.000987157 0.00014036 -7.41876e-08
0.00014036 0.000641662 -4.02865e-06
-7.41876e-08 -4.02865e-06 0.00038052
6.80855e-05 1.08045e-05 -3.28834e-06
1.08045e-05 -0.000102678 -8.46321e-06
-3.28834e-06 -8.46321e-06 -0.000294727
6.67981e-05 -6.07741e-05 -1.79212e-06
-6.07741e-05 -0.000144447 -2.08148e-06
-1.79212e-06 -2.08148e-06 -0.000321475
-0.000289237 -6.35901e-05 2.8128e-06
-6.35901e-05 -0.000318421 -9.73158e-06
2.8128e-06 -9.73158e-06 -0.000513501
0.000401525 -4.88603e-05 1.13479e-05
-4.88603e-05 0.000244985 1.53451e-05
1.13479e-05 1.53451e-05 2.83177e-05
-0.000189057 -7.02043e-05 7.05485e-06
-7.02043e-05 -0.000103143 -8.32404e-06
7.05485e-06 -8.32404e-06 -0.000387337
0.00116527 -0.000283142 1.97836e-06
-0.000283142 0.000723062 1.83174e-06
1.97836e-06 1.83174e-06 0.000456156
0.000443675 -0.000147688 -2.94378e-06
-0.000147688 0.000167501 -6.27146e-06
-2.94378e-06 -6.27146e-06 -3.50026e-05
-0.000389225 -5.8496e-05 -1.58571e-06
-5.8496e-05 -0.000428735 2.43252e-06
-1.58571e-06 2.43252e-06 -0.000610828
0.000455458 -9.11111e-05 -1.55405e-06
-9.11111e-05 8.21028e-05 1.93567e-06
-1.55405e-06 1.93567e-06 -2.83615e-05
0.000447966 -5.98906e-05 2.79634e-06
-5.98906e-05 9.11891e-05 5.94491e-08
2.79634e-06 5.94491e-08 -3.03181e-05
0.000262765 1.83103e-06 6.12751e-06
1.83103e-06 -6.05754e-05 8.40975e-06
6.12751e-06 8.40975e-06 -0.000105862
0.000416663 8.35132e-05 -1.36767e-06
8.35132e-05 6.15693e-05 -4.71943e-06
-1.36767e-06 -4.71943e-06 -5.41801e-05
0.000283656 3.69137e-05 4.28709e-07
3.69137e-05 -5.18139e-05 2.47167e-07
4.28709e-07 2.47167e-07 -9.56758e-05
0.00284152 2.29552e-05 3.17216e-05
2.29552e-05 0.00163477 7.51914e-06
3.17216e-05 7.51914e-06 0.00164347
0.000310727 9.35667e-05 -7.73457e-06
9.35667e-05 -2.64004e-05 -1.06242e-05
-7.73457e-06 -1.06242e-05 -7.83109e-05
0.00177326 4.97603e-06 -1.88199e-05
4.97603e-06 0.000917605 -3.00667e-07
-1.88199e-05 -3.00667e-07 0.000919838
0.000841452 -7.71766e-06 3.0347e-06
-7.71766e-06 0.000284567 -2.64396e-06
3.0347e-06 -2.64396e-06 0.000280446
0.000412925 2.32062e-05 3.6876e-08
2.32062e-05 3.12211e-05 -4.13903e-06
3.6876e-08 -4.13903e-06 -5.0288e-05
0.000383392 -5.96967e-05 9.07908e-07
-5.96967e-05 3.13336e-05 1.1881e-07
9.07908e-07 1.1881e-07 -7.78435e-05
0.000360484 -5.1493e-06 2.17612e-06
-5.1493e-06 -3.0046e-05 -6.91694e-06
2.17612e-06 -6.91694e-06 -6.51738e-05
0.000595998 -0.000100726 -7.84049e-07
-0.000100726 0.00016513 2.9336e-06
-7.84049e-07 2.9336e-06 3.99844e-05
0.000947479 3.95359e-05 1.22086e-06
3.95359e-05 0.000369503 -1.05442e-06
1.22086e-06 -1.05442e-06 0.000325693
0.00299063 7.81886e-05 3.00212e-06
7.81886e-05 0.00173742 -7.54008e-06
3.00212e-06 -7.54008e-06 0.00173742
0.000134168 2.65316e-05 -2.33641e-06
2.65316e-05 -0.00017891 9.22759e-06
-2.33641e-06 9.22759e-06 -0.000231945
0.00345682 0.000117175 -1.09548e-05
0.000117175 0.00206452 1.42457e-06
-1.09548e-05 1.42457e-06 0.00205524
0.00367027 0.000174962 3.43613e-05
0.000174962 0.00222743 1.45649e-05
3.43613e-05 1.45649e-05 0.00220472
0.0027781 0.000264277 -4.02532e-06
0.000264277 -0.000300805 -8.1701e-07
-4.02532e-06 -8.1701e-07 9.88639e-06
0.00253063 9.2761e-06 -5.54066e-07
9.2761e-06 -0.00030516 -1.2501e-07
-5.54066e-07 -1.2501e-07 -4.38684e-05
0.0031122 0.000186222 -1.3929e-06
0.000186222 -0.000292688 4.62965e-06
-1.3929e-06 4.62965e-06 6.03356e-05
0.00287788 0.00225221 0.000189065
0.00225221 -0.00445137 8.56489e-05
0.000189065 8.56489e-05 -0.00121011
0.00299215 4.47699e-05 -5.33944e-07
4.47699e-05 -0.000357361 -6.75574e-07
-5.33944e-07 -6.75574e-07 4.24459e-05
0.00316602 0.000240671 3.25397e-06
0.000240671 -0.000566414 -5.34116e-06
3.25397e-06 -5.34116e-06 0.000110372
0.00348549 -0.000154832 -6.21644e-05
-0.000154832 -7.26491e-05 5.79467e-07
-6.21644e-05 5.79467e-07 0.000428383
0.00415268 0.00203442 -0.000314077
0.00203442 -0.00415137 -1.20468e-05
-0.000314077 -1.20468e-05 0.00033008
0.00544677 0.000894695 0.000118657
0.000894695 -0.00194378 4.96713e-05
0.000118657 4.96713e-05 0.000165119
0.000515029 0.000123483 -1.97661e-07
0.000123483 0.000191039 -3.77493e-06
-1.97661e-07 -3.77493e-06 1.62617e-05
0.00058277 -4.93426e-05 5.08582e-07
-4.93426e-05 0.000236517 -1.46974e-07
5.08582e-07 -1.46974e-07 5.34512e-05
0.000275661 -0.000113157 4.5091e-06
-0.000113157 5.82235e-05 2.95988e-06
4.5091e-06 2.95988e-06 -9.63193e-05
0.000834369 -0.00014899 -4.95623e-07
-0.00014899 0.000426419 6.36122e-06
-4.95623e-07 6.36122e-06 0.000206386
0.00288277 -0.000304914 -5.75305e-06
-0.000304914 -0.00035996 2.78284e-06
-5.75305e-06 2.78284e-06 2.65203e-05
0.00279866 -0.000741026 -1.90447e-06
-0.000741026 -0.000352668 -1.56666e-06
-1.90447e-06 -1.56666e-06 -7.38054e-05
0.0031115 -0.00118321 -2.97233e-06
-0.00118321 4.16465e-05 -2.75561e-07
-2.97233e-06 -2.75561e-07 6.47144e-05
0.0031898 -0.00167461 4.76366e-06
-0.00167461 0.0013825 5.7432e-06
4.76366e-06 5.7432e-06 0.000426246
0.00344443 -0.0020411 -1.68157e-05
-0.0020411 0.000973017 2.22313e-05
-1.68157e-05 2.22313e-05 6.45073e-05
0.00311058 -0.00147183 -5.97422e-07
-0.00147183 0.000374617 -1.81948e-06
-5.97422e-07 -1.81948e-06 2.181e-05
0.00184399 -0.00175326 6.70645e-05
-0.00175326 0.00060813 -2.63533e-05
6.70645e-05 -2.63533e-05 -0.000470486
0.0034094 -0.000689947 4.76698e-05
-0.000689947 0.00189421 -3.38397e-05
4.76698e-05 -3.38397e-05 0.00110303
-0.000437332 -0.000360252 1.87533e-05
-0.000360252 -0.000471739 8.72124e-06
1.87533e-05 8.72124e-06 -0.000844812
0.00216832 -0.000150709 1.2121e-05
-0.000150709 0.00137015 -1.22893e-06
1.2121e-05 -1.22893e-06 0.00110293
-0.000573586 -0.000151974 -2.0167e-05
-0.000151974 -0.000309148 -2.09513e-05
-2.0167e-05 -2.09513e-05 -0.000746587
0.000275423 -0.00012208 4.2928e-06
-0.00012208 0.000112766 -1.759e-05
4.2928e-06 -1.759e-05 -0.000211016
0.00045735 -5.03702e-05 9.26837e-08
-5.03702e-05 0.000139191 5.13546e-06
9.26837e-08 5.13546e-06 -4.5191e-05
0.000433611 -0.00014011 -5.36975e-06
-0.00014011 0.00017014 -4.24223e-07
-5.36975e-06 -4.24223e-07 -3.43542e-05
0.00295991 -0.000543533 5.17471e-06
-0.000543533 -0.00051357 -4.14308e-07
5.17471e-06 -4.14308e-07 -6.80775e-06
0.000226677 -5.92263e-05 -1.08987e-06
-5.92263e-05 1.2934e-05 5.60594e-06
-1.08987e-06 5.60594e-06 -0.000150971
0.000157064 -0.00017223 4.9398e-06
-0.00017223 -6.97678e-06 -5.67378e-06
4.9398e-06 -5.67378e-06 -0.00026902
-2.0068e-05 -9.68842e-05 1.56969e-05
-9.68842e-05 -9.62737e-06 -7.1906e-06
1.56969e-05 -7.1906e-06 -0.000180969
0.00284912 -0.000950969 2.27801e-06
-0.000950969 -0.00035947 -1.21983e-06
2.27801e-06 -1.21983e-06 3.43313e-06
0.00318692 -0.00148515 1.87758e-06
-0.00148515 0.000260783 -1.87128e-06
1.87758e-06 -1.87128e-06 1.1578e-05
0.00204579 -0.00182674 -9.16522e-06
-0.00182674 0.00048339 -7.31304e-07
-9.16522e-06 -7.31304e-07 -0.000475082
0.00336882 -0.00183334 -3.69366e-06
-0.00183334 0.000812658 2.34172e-06
-3.69366e-06 2.34172e-06 0.000117024
0.00166228 -0.000361629 3.04133e-05
-0.000361629 0.00102463 -1.39437e-05
3.04133e-05 -1.39437e-05 0.000649805
-0.00201143 -0.000100405 8.55049e-06
-0.000100405 -0.00127578 7.29879e-06
8.55049e-06 7.29879e-06 -0.00164636
0.00155712 -0.00202544 -1.47758e-06
-0.00202544 0.000975214 3.95041e-06
-1.47758e-06 3.95041e-06 -0.000300786
0.00189571 -0.000774865 -2.45619e-05
-0.000774865 0.00117529 3.82632e-06
-2.45619e-05 3.82632e-06 0.000404949
0.00335869 -0.000779706 -9.42774e-05
-0.000779706 -0.000232473 3.46961e-05
-9.42774e-05 3.46961e-05 0.000251928
0.00345562 -0.00139656 -4.34787e-05
-0.00139656 0.000126728 2.36393e-05
-4.34787e-05 2.36393e-05 0.000309166
0.00332336 -0.00167739 2.02917e-05
-0.00167739 0.000851048 -2.46944e-05
2.02917e-05 -2.46944e-05 0.000188845
0.00410093 -0.00229496 -9.05482e-06
-0.00229496 0.00143029 -3.72021e-06
-9.05482e-06 -3.72021e-06 0.0005364
0.000128356 -0.000201065 3.11884e-06
-0.000201065 0.000176906 -1.11131e-05
3.11884e-06 -1.11131e-05 -6.80733e-05
0.000367603 -0.00037766 -1.59908e-05
-0.00037766 0.000137974 4.79663e-05
-1.59908e-05 4.79663e-05 -0.00021785
0.000615497 -0.000400425 -3.14361e-05
-0.000400425 0.000655113 7.003e-05
-3.14361e-05 7.003e-05 0.000244831
-0.00115959 -0.00147934 1.65708e-05
-0.00147934 0.000273527 -5.04025e-05
1.65708e-05 -5.04025e-05 -0.00124745
0.00849954 -0.000322502 -3.97328e-05
-0.000322502 -0.00812633 4.27222e-05
-3.97328e-05 4.27222e-05 -0.00890515
0.00446339 0.000745577 1.58648e-05
0.000745577 0.00294572 3.55359e-06
1.58648e-05 3.55359e-06 0.00241421
0.000675883 0.000734092 -6.02136e-06
0.000734092 0.000364265 -8.51833e-06
-6.02136e-06 -8.51833e-06 -0.000290438
0.00145424 0.000726889 8.3128e-05
0.000726889 -0.00163685 4.06342e-05
8.3128e-05 4.06342e-05 -0.00067133
0.00246226 0.00121791 3.29809e-05
0.00121791 0.000114399 1.14388e-05
3.29809e-05 1.14388e-05 -9.91234e-06
0.00295135 0.00179322 1.56959e-05
0.00179322 0.000867535 1.94679e-05
1.56959e-05 1.94679e-05 -9.37335e-05
0.00259172 0.00142867 8.80479e-06
0.00142867 0.00109472 1.10345e-05
8.80479e-06 1.10345e-05 0.000115087
0.00298087 0.00340971 0.000161464
0.00340971 -0.0038527 8.16126e-05
0.000161464 8.16126e-05 -0.00136726
0.00111493 0.000583578 4.59149e-06
0.000583578 0.000954051 -7.68947e-06
4.59149e-06 -7.68947e-06 0.000337237
0.00323131 0.00170805 -5.26318e-06
0.00170805 -0.000447648 5.71984e-06
-5.26318e-06 5.71984e-06 5.07992e-05
0.00142161 0.00106632 -1.57725e-05
0.00106632 0.000616041 1.08598e-05
-1.57725e-05 1.08598e-05 -0.000206508
0.00288653 0.00172398 1.12671e-06
0.00172398 0.00111628 -8.31258e-06
1.12671e-06 -8.31258e-06 8.85863e-05
0.00449085 0.00204261 -9.47649e-06
0.00204261 0.00148731 -9.54946e-07
-9.47649e-06 -9.54946e-07 0.0007356
0.00417997 0.00112211 -0.000289813
0.00112211 -0.0119191 -0.000188924
-0.000289813 -0.000188924 -0.00923353
0.00649423 0.00537668 -0.000246699
0.00537668 -0.00433304 -0.000139023
-0.000246699 -0.000139023 0.00108802
0.000520857 0.00334574 -1.61488e-05
0.00334574 -0.00231753 -1.88367e-05
-1.61488e-05 -1.88367e-05 -0.0015547
0.0191061 -0.00731498 0.00117251
-0.00731498 0.0120909 9.22452e-05
0.00117251 9.22452e-05 0.0026256
0.0471658 -0.0286513 -0.000263959
-0.0286513 0.0352334 -0.000551843
-0.000263959 -0.000551843 0.0105287
5.76133e-05 0.000548279 -3.8378e-06
0.000548279 8.53537e-05 -3.32768e-06
-3.8378e-06 -3.32768e-06 -0.000466367
0.00435585 -0.00569748 0.00339348
-0.00569748 0.00682372 -0.000392596
0.00339348 -0.000392596 0.000889829
0.0216376 -0.0173603 0.000242303
-0.0173603 0.024 -0.000317563
0.000242303 -0.000317563 0.00172995
0.00610559 0.00324023 -0.000106025
0.00324023 0.00142963 -3.69632e-05
-0.000106025 -3.69632e-05 0.000849588
0.00192249 0.00120994 -4.42169e-05
0.00120994 0.000789033 -3.60653e-06
-4.42169e-05 -3.60653e-06 -4.5298e-05
0.00251786 0.00175464 -6.37808e-05
0.00175464 0.000845914 -5.9098e-05
-6.37808e-05 -5.9098e-05 -6.07137e-05
-0.00194347 0.00291332 0.00017321
0.00291332 -0.00249964 0.000139462
0.00017321 0.000139462 -0.00228709
0.0155738 0.00830742 0.00040182
0.00830742 -0.00640058 -1.87462e-05
0.00040182 -1.87462e-05 0.000333884
0.00740515 0.00835725 -0.000282387
0.00835725 -0.00203754 -0.000283316
-0.000282387 -0.000283316 0.000737811
0.0323757 -0.0121738 0.00119632
-0.0121738 0.0197021 -0.000182091
0.00119632 -0.000182091 0.00412314
0.0294565 -0.0015693 -0.00145392
-0.0015693 0.0160812 0.000915287
-0.00145392 0.000915287 0.00723619
0.00146073 0.000251308 9.87897e-06
0.000251308 0.00110865 4.43008e-06
9.87897e-06 4.43008e-06 0.000812353
0.000120948 0.000258959 3.55843e-06
0.000258959 0.000334167 1.38152e-06
3.55843e-06 1.38152e-06 -3.37822e-05
0.001132 0.000582183 2.63911e-06
0.000582183 0.000942992 -1.26668e-05
2.63911e-06 -1.26668e-05 0.00042234
0.000449584 6.1633e-06 4.57111e-06
6.1633e-06 0.000136449 1.70871e-06
4.57111e-06 1.70871e-06 -5.51163e-05
0.000279988 0.000130804 8.42839e-06
0.000130804 3.49829e-05 4.56548e-06
8.42839e-06 4.56548e-06 -0.00016685
-0.0001957 1.61786e-05 2.75802e-06
1.61786e-05 -0.000166983 6.21767e-06
2.75802e-06 6.21767e-06 -0.000400957
0.000288399 0.000110004 -6.26515e-06
0.000110004 0.000233096 3.32743e-06
-6.26515e-06 3.32743e-06 -5.09799e-05
0.000189667 0.000163284 -5.90345e-06
0.000163284 0.000181118 1.43168e-05
-5.90345e-06 1.43168e-05 3.97804e-06
0.000278253 1.20261e-05 -2.00121e-07
1.20261e-05 1.14577e-05 1.10688e-06
-2.00121e-07 1.10688e-06 -0.000176287
0.000778381 0.000116488 3.56139e-06
0.000116488 0.000553914 3.93352e-06
3.56139e-06 3.93352e-06 0.000248851
0.000186161 8.52411e-05 -1.45131e-07
8.52411e-05 9.9212e-05 -3.55641e-06
-1.45131e-07 -3.55641e-06 -0.000159692
0.000666703 0.000103164 1.60948e-07
0.000103164 0.000344788 4.05993e-07
1.60948e-07 4.05993e-07 0.000110181
0.00014721 9.70197e-05 -2.38428e-06
9.70197e-05 0.000272013 -2.16818e-06
-2.38428e-06 -2.16818e-06 -5.03095e-05
0.000393307 6.92454e-05 5.01354e-07
6.92454e-05 0.000363474 7.84017e-07
5.01354e-07 7.84017e-07 7.05307e-05
-0.000474512 3.84611e-05 8.47066e-07
3.84611e-05 7.48647e-05 -6.86254e-06
8.47066e-07 -6.86254e-06 -0.000406022
9.00107e-05 -0.0001028 -4.77391e-06
-0.0001028 4.42084e-05 -1.35852e-06
-4.77391e-06 -1.35852e-06 -0.000239857
0.00059374 -8.39641e-05 -6.36912e-06
-8.39641e-05 0.000278626 -1.16989e-05
-6.36912e-06 -1.16989e-05 4.35935e-05
0.000820578 -2.79012e-05 1.13664e-06
-2.79012e-05 0.000459484 -7.25832e-06
1.13664e-06 -7.25832e-06 0.000224157
0.000458741 -0.000117934 -2.04414e-06
-0.000117934 0.000277262 2.61783e-06
-2.04414e-06 2.61783e-06 6.89363e-05
1.05398e-05 -3.00144e-05 -5.55178e-06
-3.00144e-05 -7.38367e-05 1.8266e-07
-5.55178e-06 1.8266e-07 -0.000230442
0.00109158 -0.000184736 1.85246e-05
-0.000184736 0.000681806 1.02867e-05
1.85246e-05 1.02867e-05 0.000462463
0.000860269 -4.91903e-05 -1.94055e-06
-4.91903e-05 0.000677664 1.13115e-05
-1.94055e-06 1.13115e-05 0.000427061
-0.00041015 -4.54342e-06 4.15716e-06
-4.54342e-06 -0.000187905 -1.83669e-05
4.15716e-06 -1.83669e-05 -0.000544623
-0.00163202 6.12884e-05 3.12537e-06
6.12884e-05 -0.00100676 -1.18278e-05
3.12537e-06 -1.18278e-05 -0.00130719
0.000457658 -0.000219755 -4.88766e-07
-0.000219755 0.00034448 1.95229e-07
-4.88766e-07 1.95229e-07 2.5723e-05
-0.000892505 2.72706e-05 2.42285e-06
2.72706e-05 -0.000699323 -4.69622e-06
2.42285e-06 -4.69622e-06 -0.000919985
0.000986595 -0.000323651 -3.84666e-06
-0.000323651 0.000566799 1.02562e-06
-3.84666e-06 1.02562e-06 0.000327082
0.000742843 -0.000173871 1.29157e-06
-0.000173871 0.000371076 3.38216e-07
1.29157e-06 3.38216e-07 0.000162526
0.000582663 -9.68079e-05 -6.99518e-08
-9.68079e-05 0.000168521 5.24072e-07
-6.99518e-08 5.24072e-07 5.46822e-05
0.000189351 2.87913e-05 1.06831e-06
2.87913e-05 -4.33722e-06 1.26286e-06
1.06831e-06 1.26286e-06 -0.000221131
0.000424984 -3.73129e-06 3.47987e-06
-3.73129e-06 7.65032e-05 1.08559e-07
3.47987e-06 1.08559e-07 -4.2547e-05
0.00142028 -4.49985e-05 -2.25067e-05
-4.49985e-05 0.000699159 8.51338e-06
-2.25067e-05 8.51338e-06 0.000665406
0.000417338 0.000110884 -2.50776e-06
0.000110884 7.69265e-05 -2.34205e-06
-2.50776e-06 -2.34205e-06 -4.43434e-05
0.000799282 -3.92728e-05 -8.63847e-06
-3.92728e-05 0.000298108 9.39029e-07
-8.63847e-06 9.39029e-07 0.000254954
0.000884644 -1.30008e-05 -2.74119e-05
-1.30008e-05 0.000325336 5.90824e-06
-2.74119e-05 5.90824e-06 0.000325451
0.000240228 -6.77663e-05 7.8034e-06
-6.77663e-05 -7.96273e-05 -7.08616e-06
7.8034e-06 -7.08616e-06 -0.000123761
0.00288139 -5.18609e-06 2.03036e-05
-5.18609e-06 0.00166037 -2.76374e-07
2.03036e-05 -2.76374e-07 0.0016682
0.000857443 3.52893e-06 -9.84566e-06
3.52893e-06 0.000309444 -6.48159e-06
-9.84566e-06 -6.48159e-06 0.000305567
0.000813682 0.000122614 3.7192e-06
0.000122614 0.000412306 -1.55861e-06
3.7192e-06 -1.55861e-06 0.000211584
0.000306131 8.26116e-05 -2.66278e-06
8.26116e-05 -7.06331e-06 -5.29906e-06
-2.66278e-06 -5.29906e-06 -0.000103433
0.000387122 1.41398e-06 3.80238e-06
1.41398e-06 3.90895e-05 1.93453e-07
3.80238e-06 1.93453e-07 -5.88549e-05
0.00031133 1.88246e-05 9.15674e-07
1.88246e-05 -6.02708e-05 -5.85806e-06
9.15674e-07 -5.85806e-06 -9.04702e-05
0.000611944 -0.00012244 -2.75045e-06
-0.00012244 0.000205993 6.3711e-06
-2.75045e-06 6.3711e-06 8.17243e-05
0.000371347 1.60459e-06 2.3952e-06
1.60459e-06 -2.14914e-05 -1.14343e-06
2.3952e-06 -1.14343e-06 -5.82481e-05
0.00274583 5.71862e-05 -5.05008e-06
5.71862e-05 0.00156871 -7.04689e-06
-5.05008e-06 -7.04689e-06 0.00157372
0.00163662 5.35233e-05 3.13478e-06
5.35233e-05 0.000836239 5.58824e-06
3.13478e-06 5.58824e-06 0.000790626
0.00177518 5.6305e-05 -3.18754e-06
5.6305e-05 0.000926181 2.54153e-06
-3.18754e-06 2.54153e-06 0.000920338
0.000548008 4.0559e-05 2.76436e-06
4.0559e-05 0.000109919 1.54393e-05
2.76436e-06 1.54393e-05 9.3548e-05
-0.000368046 0.0017629 0.000224463
0.0017629 -0.00630378 4.38018e-05
0.000224463 4.38018e-05 -0.00268328
0.00291419 4.98982e-06 -6.29374e-06
4.98982e-06 -0.000410789 1.01579e-07
-6.29374e-06 1.01579e-07 -2.61954e-06
0.00298918 0.000178912 8.35835e-05
0.000178912 -0.000691913 2.83746e-06
8.35835e-05 2.83746e-06 -4.86154e-05
0.00594436 0.00255783 -0.000108928
0.00255783 -0.00464194 -5.39005e-05
-0.000108928 -5.39005e-05 0.00104834
0.00432503 0.000491905 0.00018495
0.000491905 -0.00324421 -1.28421e-05
0.00018495 -1.28421e-05 -0.000570268
0.0034285 -0.000175068 3.79341e-06
-0.000175068 -0.000102983 3.21385e-06
3.79341e-06 3.21385e-06 0.000370234
0.00761351 -0.00143275 -0.000116895
-0.00143275 0.000142826 -2.87149e-05
-0.000116895 -2.87149e-05 0.00208748
0.00518318 -0.000631933 -0.000286936
-0.000631933 -0.00540505 -0.000109895
-0.000286936 -0.000109895 9.75067e-06
0.0166945 -0.00187674 -2.69356e-05
-0.00187674 -0.00373354 -0.000189865
-2.69356e-05 -0.000189865 -0.000974207
0.0275515 0.0138709 0.00273506
0.0138709 0.0154142 0.000431761
0.00273506 0.000431761 0.0019308
0.0587017 0.0234074 8.87744e-05
0.0234074 0.0396275 0.000442347
8.87744e-05 0.000442347 0.0147611
1.5688e-05 -0.000148333 8.50286e-06
-0.000148333 -9.089e-05 5.3853e-06
8.50286e-06 5.3853e-06 -0.00028609
0.000554997 -2.29492e-05 1.12756e-06
-2.29492e-05 0.000222097 -8.25111e-08
1.12756e-06 -8.25111e-08 4.65449e-05
0.00100884 -0.000171238 3.74519e-07
-0.000171238 0.000552311 3.26279e-06
3.74519e-07 3.26279e-06 0.000345216
0.000501241 -0.000117966 9.40422e-06
-0.000117966 0.000181506 -5.85158e-07
9.40422e-06 -5.85158e-07 3.79358e-05
0.000812995 0.000155454 -3.21875e-06
0.000155454 0.00047157 -4.47145e-06
-3.21875e-06 -4.47145e-06 0.000302547
0.00106489 0.000224915 2.46578e-07
0.000224915 0.00059988 8.36073e-06
2.46578e-07 8.36073e-06 0.000382985
-9.34634e-05 3.65412e-05 3.6434e-06
3.65412e-05 -0.000227678 5.25563e-08
3.6434e-06 5.25563e-08 -0.000427824
0.000514348 -5.30122e-05 -1.59944e-06
-5.30122e-05 0.000190441 6.95343e-07
-1.59944e-06 6.95343e-07 -1.26079e-05
0.00289486 -0.000544166 2.24249e-05
-0.000544166 -0.000538879 -5.83739e-06
2.24249e-05 -5.83739e-06 -4.3944e-05
0.00275409 -0.00100893 2.15028e-05
-0.00100893 -0.00044832 -9.23996e-06
2.15028e-05 -9.23996e-06 -0.0001415
0.00311747 -0.0014675 -4.60986e-06
-0.0014675 0.000214994 9.50587e-06
-4.60986e-06 9.50587e-06 -2.19153e-05
0.00302046 -0.00193402 3.44708e-06
-0.00193402 0.000980264 1.33724e-05
3.44708e-06 1.33724e-05 5.97441e-05
0.00321658 -0.00187471 -3.3075e-05
-0.00187471 0.000704982 1.52976e-05
-3.3075e-05 1.52976e-05 -1.32367e-05
0.000793483 -0.00190513 4.89745e-05
-0.00190513 0.000556325 2.2167e-05
4.89745e-05 2.2167e-05 -0.000772602
0.00491102 -0.00122029 3.99354e-05
-0.00122029 0.0025824 -1.27524e-05
3.99354e-05 -1.27524e-05 0.00190186
0.00222852 -0.000606754 5.41694e-05
-0.000606754 0.00146908 -6.12629e-05
5.41694e-05 -6.12629e-05 0.000963848
0.00055964 -7.05819e-05 3.86887e-06
-7.05819e-05 0.000238664 -5.87555e-06
3.86887e-06 -5.87555e-06 -6.96629e-06
0.00142091 -0.00023352 3.0183e-05
-0.00023352 0.000783482 -4.86604e-05
3.0183e-05 -4.86604e-05 0.000445216
-0.000223876 -0.000150623 1.36045e-06
-0.000150623 -0.000304518 4.03806e-06
1.36045e-06 4.03806e-06 -0.00046277
-0.000663242 -1.8634e-06 -3.06308e-05
-1.8634e-06 -0.000390254 -1.82708e-05
-3.06308e-05 -1.82708e-05 -0.00053614
0.00305395 -0.000748088 -4.53024e-06
-0.000748088 -0.00044227 6.50655e-06
-4.53024e-06 6.50655e-06 0.000148351
0.000309844 -7.93756e-05 -6.60735e-06
-7.93756e-05 0.000249872 5.9456e-06
-6.60735e-06 5.9456e-06 2.99313e-05
0.000897938 -0.000330767 -4.4641e-06
-0.000330767 0.000492265 -4.72939e-07
-4.4641e-06 -4.72939e-07 0.000187815
0.00253287 -0.00131844 1.3071e-05
-0.00131844 -0.000444247 -6.46225e-06
1.3071e-05 -6.46225e-06 -0.000169788
0.00341258 -0.00170113 1.16302e-06
-0.00170113 0.000851127 2.70115e-06
1.16302e-06 2.70115e-06 0.000214252
0.00268026 -0.0020215 1.27305e-06
-0.0020215 0.00065276 -1.30147e-05
1.27305e-06 -1.30147e-05 -0.000161188
0.000457108 -0.000520269 -1.76655e-05
-0.000520269 0.000459628 -2.19469e-05
-1.76655e-05 -2.19469e-05 -9.7379e-05
0.00100885 -0.00108824 6.36587e-06
-0.00108824 0.00128419 -4.76732e-06
6.36587e-06 -4.76732e-06 3.39581e-05
0.0056517 -0.00190888 -5.42595e-05
-0.00190888 0.000260983 5.31472e-05
-5.42595e-05 5.31472e-05 0.00122615
0.00274521 -0.0017713 -3.65933e-05
-0.0017713 0.000350503 2.38611e-05
-3.65933e-05 2.38611e-05 -0.000174325
0.00477725 -0.00238923 5.97426e-06
-0.00238923 0.0016658 -4.43846e-06
5.97426e-06 -4.43846e-06 0.000783715
0.00173271 -0.00170913 -5.90789e-05
-0.00170913 0.000671386 7.07747e-06
-5.90789e-05 7.07747e-06 7.08203e-05
0.00140302 -0.000339244 1.66317e-05
-0.000339244 0.00107898 -3.23865e-06
1.66317e-05 -3.23865e-06 0.000668239
-0.00172588 6.43136e-05 3.06603e-05
6.43136e-05 -0.000829757 3.30535e-05
3.06603e-05 3.30535e-05 -0.0012201
-0.000146158 -0.000468464 -3.52584e-05
-0.000468464 0.000561729 -1.65097e-05
-3.52584e-05 -1.65097e-05 -0.000412269
-0.00575716 -0.00117587 0.00232084
-0.00117587 0.00613339 9.9182e-05
0.00232084 9.9182e-05 -0.00678303
0.0168413 -0.000367373 -0.00015845
-0.000367373 -0.00375024 6.31817e-05
-0.00015845 6.31817e-05 -0.000263787
0.00183472 0.000642429 8.53369e-06
0.000642429 0.0012363 -1.76775e-05
8.53369e-06 -1.76775e-05 0.000709822
0.00250532 0.00124809 -9.45925e-06
0.00124809 0.00128732 5.06068e-06
-9.45925e-06 5.06068e-06 0.000405027
0.00192199 0.00144756 0.00015444
0.00144756 -0.00120682 6.02513e-05
0.00015444 6.02513e-05 -0.000504228
0.00386399 0.00186836 4.36465e-05
0.00186836 0.00121085 2.42468e-05
4.36465e-05 2.42468e-05 0.000490285
0.00295232 0.00175172 2.04291e-05
0.00175172 0.00113434 1.4016e-05
2.04291e-05 1.4016e-05 0.000105421
0.0207281 0.00159198 2.29853e-05
0.00159198 -0.00198045 -0.000277322
2.29853e-05 -0.000277322 0.00196111
0.00719207 0.00626525 -0.000326932
0.00626525 -0.00625084 4.79659e-05
-0.000326932 4.79659e-05 0.000117561
-0.000253655 0.00313036 -6.03565e-05
0.00313036 -0.00244002 -4.43503e-05
-6.03565e-05 -4.43503e-05 -0.00181453
0.0216686 -0.0116005 -0.0017712
-0.0116005 0.015377 0.000805926
-0.0017712 0.000805926 0.00212763
0.0471432 -0.0343636 -0.00141798
-0.0343636 0.036082 -0.00182597
-0.00141798 -0.00182597 0.0098558
0.000985673 0.000718707 1.1463e-05
0.000718707 0.00070202 -9.61547e-06
1.1463e-05 -9.61547e-06 9.35621e-05
0.00634716 -0.0116801 0.00191305
-0.0116801 0.00514813 -0.000177491
0.00191305 -0.000177491 -0.00778322
0.0127988 -0.0137224 -0.00160834
-0.0137224 0.0233589 0.000323306
-0.00160834 0.000323306 0.00501464
0.00429005 0.00274976 2.71843e-06
0.00274976 0.000449647 1.59311e-05
2.71843e-06 1.59311e-05 7.15891e-05
0.00138664 0.00117961 -1.5506e-05
0.00117961 0.000565497 1.31327e-05
-1.5506e-05 1.31327e-05 -0.000313553
0.00430553 0.00209913 -1.85222e-05
0.00209913 0.00175656 -5.11133e-06
-1.85222e-05 -5.11133e-06 0.000736338
0.00188695 0.00339489 0.000109307
0.00339489 -0.000162164 7.42859e-05
0.000109307 7.42859e-05 -0.000226425
0.0108021 0.00951705 -0.000421449
0.00951705 -0.00951541 -0.000143292
-0.000421449 -0.000143292 -0.00351405
0.00460762 0.00820004 -0.000151473
0.00820004 -0.00182292 -0.000148344
-0.000151473 -0.000148344 0.000523182
0.0389932 -0.0125088 0.00121211
-0.0125088 0.0215711 -0.000587474
0.00121211 -0.000587474 0.00557614
0.0379371 -0.00790575 -0.000695635
-0.00790575 0.0172248 0.00125836
-0.000695635 0.00125836 0.0034065
0.00131996 0.000889594 -2.11708e-05
0.000889594 0.000830714 -1.54033e-05
-2.11708e-05 -1.54033e-05 0.000210474
0.00493925 -0.00225415 0.00063045
-0.00225415 0.0107612 -0.000350425
0.00063045 -0.000350425 -0.0011327
0.013642 0.00752714 -0.00161706
0.00752714 0.00954234 -0.00065388
-0.00161706 -0.00065388 0.00358077
0.00228258 0.00206683 -5.67128e-05
0.00206683 -6.39957e-06 -3.73838e-05
-5.67128e-05 -3.73838e-05 -0.000374997
0.00312777 0.00202098 -0.000104338
0.00202098 0.0014821 -4.34352e-05
-0.000104338 -4.34352e-05 0.000433613
0.000320846 0.00250736 -0.000151093
0.00250736 0.000750426 -8.7406e-05
-0.000151093 -8.7406e-05 -0.000360605
-0.000773675 0.00650237 0.000138307
0.00650237 0.000194079 -0.000110877
0.000138307 -0.000110877 -0.000355007
0.00544309 0.013699 0.00165421
0.013699 -0.00742299 0.00036655
0.00165421 0.00036655 -0.00397635
0.0384069 -0.0144236 -0.00213142
-0.0144236 0.025422 0.00163259
-0.00213142 0.00163259 0.00756679
0.010306 0.00132057 7.14343e-05
0.00132057 -0.00119658 -0.000320295
7.14343e-05 -0.000320295 -0.005109
0.000481966 0.000345475 -6.27647e-06
0.000345475 0.000569999 1.44984e-05
-6.27647e-06 1.44984e-05 0.000160293
0.000858024 0.000539067 5.04848e-06
0.000539067 0.000760596 2.15415e-06
5.04848e-06 2.15415e-06 0.000282951
0.000271795 0.000468502 3.86753e-06
0.000468502 0.000504634 2.06269e-06
3.86753e-06 2.06269e-06 -2.30147e-05
0.000337108 0.000102488 6.05109e-06
0.000102488 5.96968e-05 4.21001e-06
6.05109e-06 4.21001e-06 -0.00013347
0.00132498 0.000193495 1.31646e-06
0.000193495 0.000814579 6.66182e-06
1.31646e-06 6.66182e-06 0.000551641
-0.000139512 5.91385e-05 1.11013e-06
5.91385e-05 -0.00011125 6.23013e-06
1.11013e-06 6.23013e-06 -0.000385886
-5.36022e-05 4.08342e-05 9.04213e-06
4.08342e-05 2.3084e-05 -2.55329e-06
9.04213e-06 -2.55329e-06 -0.000278827
0.000428398 0.000120947 -1.50114e-06
0.000120947 0.000438136 1.07447e-05
-1.50114e-06 1.07447e-05 0.000134332
0.000804706 8.25274e-05 -1.83861e-06
8.25274e-05 0.000430909 -1.62061e-06
-1.83861e-06 -1.62061e-06 0.000186018
0.000257833 5.78733e-05 1.45119e-06
5.78733e-05 0.000266875 -3.3031e-06
1.45119e-06 -3.3031e-06 -3.61882e-05
0.000642933 -6.4615e-06 1.19348e-07
-6.4615e-06 0.000421974 2.82813e-06
1.19348e-07 2.82813e-06 0.000128516
-0.000126748 7.98429e-05 -1.95242e-06
7.98429e-05 0.000291676 4.56108e-07
-1.95242e-06 4.56108e-07 -0.000167686
-0.000220566 3.26809e-05 3.11701e-06
3.26809e-05 0.000404769 1.60769e-06
3.11701e-06 1.60769e-06 -0.000215311
-3.81892e-05 -7.49343e-05 -2.58742e-07
-7.49343e-05 0.000174466 1.67932e-06
-2.58742e-07 1.67932e-06 -0.00020772
0.00268767 -0.000163994 -1.28201e-05
-0.000163994 0.00184528 -7.34546e-06
-1.28201e-05 -7.34546e-06 0.00147501
0.00128872 -0.000224363 -4.27392e-06
-0.000224363 0.000780406 -4.17401e-07
-4.27392e-06 -4.17401e-07 0.000529324
0.000212959 -4.94297e-05 -1.13372e-05
-4.94297e-05 9.00577e-05 -4.57472e-06
-1.13372e-05 -4.57472e-06 -9.06212e-05
0.000602723 -0.000188712 4.74646e-08
-0.000188712 0.000330554 3.69652e-06
4.74646e-08 3.69652e-06 0.000152376
0.000455162 -0.000211542 1.3309e-06
-0.000211542 0.000210696 -8.50888e-07
1.3309e-06 -8.50888e-07 2.44632e-05
-0.000242404 -9.33535e-06 -9.37416e-06
-9.33535e-06 3.97181e-06 6.21357e-06
-9.37416e-06 6.21357e-06 -0.000239496
0.00103199 -0.000182769 2.0623e-05
-0.000182769 0.000589467 -1.99965e-05
2.0623e-05 -1.99965e-05 0.000380314
-0.00134746 -2.89111e-05 -1.37393e-05
-2.89111e-05 -0.000670133 3.98644e-06
-1.37393e-05 3.98644e-06 -0.00100508
0.0018565 -0.000268722 9.6476e-06
-0.000268722 0.00127727 -1.00456e-06
9.6476e-06 -1.00456e-06 0.00104966
0.000671965 1.55966e-05 1.56654e-05
1.55966e-05 0.000429074 -1.77817e-05
1.56654e-05 -1.77817e-05 4.03761e-05
0.00474308 -0.00101482 5.50545e-06
-0.00101482 0.00264014 5.05604e-06
5.50545e-06 5.05604e-06 0.00208329
-0.0036904 -0.000338977 1.26751e-05
-0.000338977 -0.00218008 -9.36232e-07
1.26751e-05 -9.36232e-07 -0.00267886
2.31447e-06 -0.000105054 -2.82889e-06
-0.000105054 7.05635e-05 1.26879e-06
-2.82889e-06 1.26879e-06 -0.000281803
-0.000946762 -7.37828e-06 1.73934e-05
-7.37828e-06 -0.000577785 -2.5585e-05
1.73934e-05 -2.5585e-05 -0.000953032
0.00110339 -0.000244253 1.09755e-06
-0.000244253 0.000770266 -2.00327e-06
1.09755e-06 -2.00327e-06 0.000437973
-0.000722611 -3.0474e-05 1.37223e-05
-3.0474e-05 -0.000564694 7.90537e-06
1.37223e-05 7.90537e-06 -0.000837682
0.00251774 -0.000217027 -6.11175e-06
-0.000217027 0.00168035 5.30422e-06
-6.11175e-06 5.30422e-06 0.00136178
0.000365761 -0.000136595 -3.68591e-06
-0.000136595 0.000132075 1.92997e-08
-3.68591e-06 1.92997e-08 -8.29844e-05
-6.28729e-05 1.09314e-05 6.63032e-06
1.09314e-05 -0.000255625 -9.47318e-07
6.63032e-06 -9.47318e-07 -0.000369327
0.00120204 -0.000217753 -2.12111e-06
-0.000217753 0.00067424 9.37459e-06
-2.12111e-06 9.37459e-06 0.000466251
0.000383975 -7.3301e-05 -1.21817e-06
-7.3301e-05 2.88565e-05 9.36372e-09
-1.21817e-06 9.36372e-09 -7.75651e-05
0.00137068 4.91456e-05 -1.08127e-05
4.91456e-05 0.000661067 8.89281e-06
-1.08127e-05 8.89281e-06 0.000626247
0.000427913 -0.000105044 1.24599e-06
-0.000105044 6.68207e-05 -6.14611e-07
1.24599e-06 -6.14611e-07 -4.67366e-05
0.000853305 -3.7839e-05 -1.59505e-05
-3.7839e-05 0.00032271 1.20693e-06
-1.59505e-05 1.20693e-06 0.000284334
0.000697883 6.02303e-06 2.58338e-06
6.02303e-06 0.000186004 1.93586e-06
2.58338e-06 1.93586e-06 0.000185873
0.000363129 -6.8403e-05 6.48769e-06
-6.8403e-05 -1.76786e-06 -6.11363e-06
6.48769e-06 -6.11363e-06 -4.34631e-05
0.00274866 -5.25942e-06 6.39744e-06
-5.25942e-06 0.00156838 -4.72237e-09
6.39744e-06 -4.72237e-09 0.00157842
0.00280415 -1.53631e-05 2.58727e-05
-1.53631e-05 0.0016079 -6.20757e-06
2.58727e-05 -6.20757e-06 0.00161642
0.00122421 0.000103395 5.7524e-08
0.000103395 0.000675885 -5.26037e-07
5.7524e-08 -5.26037e-07 0.000470664
0.000392856 9.54883e-05 -4.87707e-07
9.54883e-05 5.9522e-05 -6.35943e-06
-4.87707e-07 -6.35943e-06 -4.84739e-05
0.000611676 2.63303e-05 2.14751e-07
2.63303e-05 0.00026474 9.25465e-07
2.14751e-07 9.25465e-07 7.28687e-05
0.000361491 1.56314e-05 7.33158e-07
1.56314e-05 -2.75107e-05 -5.97665e-06
7.33158e-07 -5.97665e-06 -5.60078e-05
0.000421334 -2.59453e-05 2.46655e-06
-2.59453e-05 6.10345e-05 -4.2808e-07
2.46655e-06 -4.2808e-07 -3.38715e-05
0.000411016 -9.77321e-05 -3.4438e-06
-9.77321e-05 5.69549e-05 5.8008e-06
-3.4438e-06 5.8008e-06 -4.53538e-05
0.000366342 -8.12571e-06 -2.9179e-08
-8.12571e-06 -2.64412e-05 1.21361e-07
-2.9179e-08 1.21361e-07 -5.59885e-05
0.00251235 3.39491e-05 -6.39325e-06
3.39491e-05 0.00140876 -6.60068e-06
-6.39325e-06 -6.60068e-06 0.00141787
0.00151688 2.49343e-05 -8.79187e-07
2.49343e-05 0.000742886 5.26236e-06
-8.79187e-07 5.26236e-06 0.000711278
0.00170018 4.21169e-05 -1.20015e-05
4.21169e-05 0.000866619 -2.41616e-07
-1.20015e-05 -2.41616e-07 0.000865979
0.000772604 3.73949e-05 -2.14491e-06
3.73949e-05 0.000252478 1.3249e-05
-2.14491e-06 1.3249e-05 0.000242029
0.00524759 0.00761169 0.00213547
0.00761169 0.00696511 0.000173511
0.00213547 0.000173511 -0.00555869
0.0160833 0.0106364 0.00354275
0.0106364 0.0202666 0.000399387
0.00354275 0.000399387 0.00355167
0.00113622 0.00242815 4.20486e-05
0.00242815 -0.00654928 -9.31397e-05
4.20486e-05 -9.31397e-05 -0.000382017
0.00361958 7.5564e-05 0.000183271
7.5564e-05 -0.00411505 4.397e-05
0.000183271 4.397e-05 -0.0010584
0.00350669 -0.000195976 4.92063e-05
-0.000195976 -5.74529e-05 -4.51963e-06
4.92063e-05 -4.51963e-06 0.000383348
0.0048696 0.00055619 2.89127e-05
0.00055619 -0.0037935 -3.91944e-05
2.89127e-05 -3.91944e-05 0.000601748
0.00527562 -0.00124928 4.01765e-05
-0.00124928 -0.000868804 -6.03417e-07
4.01765e-05 -6.03417e-07 0.000787726
0.0130748 -0.00175289 0.000496702
-0.00175289 -0.00658988 -0.000198679
0.000496702 -0.000198679 -0.0041804
0.0147898 0.00916799 -0.000189534
0.00916799 0.00838558 -0.000162453
-0.000189534 -0.000162453 -0.00173615
0.0535274 0.0289915 -0.000545102
0.0289915 0.037961 0.00026451
-0.000545102 0.00026451 0.0123299
0.00447096 -0.00314924 -0.000172779
-0.00314924 -0.00497248 6.50354e-06
-0.000172779 6.50354e-06 0.000287547
0.0134875 -0.00782125 0.000819046
-0.00782125 -0.00635211 -0.000187492
0.000819046 -0.000187492 -0.00225336
0.033832 0.0127378 -0.000123144
0.0127378 0.0200995 -0.000700419
-0.000123144 -0.000700419 0.00407328
0.0393778 0.0077441 -0.000582337
0.0077441 0.0203968 0.000521905
-0.000582337 0.000521905 0.00865331
0.0025956 0.000213028 -7.4e-06
0.000213028 0.00175455 6.48777e-06
-7.4e-06 6.48777e-06 0.00142014
0.000697137 3.35633e-05 2.443e-06
3.35633e-05 0.000318088 -1.18774e-06
2.443e-06 -1.18774e-06 0.000128809
0.000458277 -0.00013039 1.86895e-06
-0.00013039 0.00016212 7.90097e-08
1.86895e-06 7.90097e-08 -1.38946e-05
-3.28125e-05 -5.82291e-05 7.01705e-06
-5.82291e-05 -0.000161699 -3.43372e-06
7.01705e-06 -3.43372e-06 -0.000305329
4.60453e-05 0.000103567 3.41761e-06
0.000103567 -4.23412e-05 9.69935e-07
3.41761e-06 9.69935e-07 -0.000175224
0.00111474 0.000286567 2.7141e-06
0.000286567 0.000649664 7.64723e-06
2.7141e-06 7.64723e-06 0.000376892
0.000396717 0.000101298 -3.42384e-06
0.000101298 0.000158023 -1.35646e-06
-3.42384e-06 -1.35646e-06 -4.23988e-05
0.000402088 0.000146151 8.52241e-06
0.000146151 0.000128079 5.42154e-06
8.52241e-06 5.42154e-06 -0.000147408
0.000508303 4.28882e-05 -2.76673e-07
4.28882e-05 0.000213525 -6.05507e-07
-2.76673e-07 -6.05507e-07 -1.85444e-05
-0.000400547 -3.52542e-05 -1.44112e-07
-3.52542e-05 -0.000450128 -4.27358e-06
-1.44112e-07 -4.27358e-06 -0.000613827
0.00275925 -0.00071237 8.72777e-05
-0.00071237 -0.000662699 -3.28296e-05
8.72777e-05 -3.28296e-05 5.03271e-05
0.00193335 -0.00124182 2.4346e-05
-0.00124182 -0.00075828 -1.64561e-05
2.4346e-05 -1.64561e-05 -0.000440395
0.0026573 -0.00159287 -2.70916e-06
-0.00159287 0.000399665 1.45664e-05
-2.70916e-06 1.45664e-05 -0.000168181
0.000522979 -0.00161816 -8.72386e-06
-0.00161816 -0.000532476 1.61532e-05
-8.72386e-06 1.61532e-05 -0.00122761
0.00243751 -0.00104821 2.92437e-05
-0.00104821 0.00197912 8.20895e-05
2.92437e-05 8.20895e-05 0.000863941
0.000293594 -0.000926605 -3.32665e-05
-0.000926605 0.000434457 -3.58164e-05
-3.32665e-05 -3.58164e-05 -0.000379422
0.00126938 -0.000312848 2.26361e-05
-0.000312848 0.00075773 -3.30818e-05
2.26361e-05 -3.30818e-05 0.000499315
0.000160616 -1.73377e-05 -4.31253e-06
-1.73377e-05 0.000103938 -2.82192e-06
-4.31253e-06 -2.82192e-06 -8.79797e-05
0.00408578 -0.00166653 -6.06003e-06
-0.00166653 -0.000595734 -9.27643e-06
-6.06003e-06 -9.27643e-06 0.000505926
0.000212655 -6.84518e-05 1.13856e-06
-6.84518e-05 0.000307296 3.08571e-07
1.13856e-06 3.08571e-07 -9.39318e-05
-6.11541e-06 -0.000146716 -1.05539e-05
-0.000146716 0.000236444 4.15575e-06
-1.05539e-05 4.15575e-06 -0.000133152
0.00203215 -0.00158558 2.81851e-05
-0.00158558 -9.13257e-05 -2.31287e-06
2.81851e-05 -2.31287e-06 -0.000399405
0.00357641 -0.00212778 -4.20201e-06
-0.00212778 0.00107025 -8.16807e-06
-4.20201e-06 -8.16807e-06 0.000209827
0.000718868 -0.00153015 3.6357e-05
-0.00153015 0.000140304 -1.8309e-05
3.6357e-05 -1.8309e-05 -0.00046584
0.000594213 -0.000743777 3.21006e-05
-0.000743777 0.00104781 -4.57831e-05
3.21006e-05 -4.57831e-05 6.56172e-05
0.00109861 -0.00248023 -1.96297e-05
-0.00248023 -0.00221359 5.8781e-05
-1.96297e-05 5.8781e-05 -0.00120534
0.00353784 -0.00198796 -5.65197e-05
-0.00198796 0.00130277 3.3062e-05
-5.65197e-05 3.3062e-05 0.000510295
-0.000312319 -0.000908465 -9.57418e-05
-0.000908465 0.000389285 1.83216e-05
-9.57418e-05 1.83216e-05 -0.000396817
0.00172432 0.000221579 5.95978e-06
0.000221579 0.00121705 3.45166e-06
5.95978e-06 3.45166e-06 0.00083368
-0.000554002 -4.65982e-05 1.42073e-05
-4.65982e-05 -2.52557e-05 1.44118e-05
1.42073e-05 1.44118e-05 -0.000522715
0.000341689 -0.000126619 1.79476e-05
-0.000126619 0.000598822 1.85691e-05
1.79476e-05 1.85691e-05 0.000107803
-0.002856 0.00318102 -0.000938161
0.00318102 0.00925571 -9.93478e-05
-0.000938161 -9.93478e-05 -3.14689e-05
0.00295436 -0.00253645 2.31003e-05
-0.00253645 0.00970961 -1.43173e-05
2.31003e-05 -1.43173e-05 0.000989446
0.010307 3.19527e-05 -2.52995e-05
3.19527e-05 -0.00783087 9.80239e-06
-2.52995e-05 9.80239e-06 -0.00810188
0.000837618 0.000680951 2.36549e-05
0.000680951 0.000648107 -1.71592e-05
2.36549e-05 -1.71592e-05 3.73795e-05
0.00203967 0.00134927 2.81807e-05
0.00134927 0.00100833 3.0501e-05
2.81807e-05 3.0501e-05 3.59826e-05
0.00230999 0.00213439 0.000106665
0.00213439 -0.000603813 6.02382e-05
0.000106665 6.02382e-05 -0.000740709
0.00483587 0.00226221 6.47135e-05
0.00226221 0.00205666 4.98712e-05
6.47135e-05 4.98712e-05 0.000961946
0.0198631 -0.0126869 0.00039008
-0.0126869 0.01744 0.000197393
0.00039008 0.000197393 0.00205673
0.00312745 0.00787678 -0.00111756
0.00787678 -0.0150172 -0.000214135
-0.00111756 -0.000214135 -0.00980663
0.00622305 0.00867148 -9.39685e-05
0.00867148 -0.00209067 2.26589e-05
-9.39685e-05 2.26589e-05 0.00075324
0.00541808 0.00361843 0.000132453
0.00361843 0.00193702 4.9061e-05
0.000132453 4.9061e-05 0.00170688
0.0313978 -0.0096037 -0.000484369
-0.0096037 0.0163146 -0.000223997
-0.000484369 -0.000223997 0.00229794
0.0124406 -0.0127231 -0.00233283
-0.0127231 0.0249638 0.000237856
-0.00233283 0.000237856 0.00817639
0.0493726 -0.0147326 0.00218544
-0.0147326 0.0221371 0.00043674
0.00218544 0.00043674 0.00536289
0.000864737 0.000844762 1.62048e-05
0.000844762 0.000613498 -5.87381e-06
1.62048e-05 -5.87381e-06 -3.22855e-05
0.00640485 -0.0054826 0.000201569
-0.0054826 0.0141652 2.51e-05
0.000201569 2.51e-05 0.000657636
0.0118709 0.0072634 -0.000326795
0.0072634 0.00599375 -0.000190926
-0.000326795 -0.000190926 -0.00127582
0.003728 0.00254467 7.18688e-06
0.00254467 0.00088283 6.39758e-06
7.18688e-06 6.39758e-06 0.000242115
0.00178435 0.00170994 1.88523e-06
0.00170994 0.000862979 6.97773e-06
1.88523e-06 6.97773e-06 -0.0001192
-0.00020519 0.00248712 -0.000185973
0.00248712 0.000421975 -0.000125377
-0.000185973 -0.000125377 -0.000476825
0.00480761 0.00907856 0.000133025
0.00907856 0.00134129 5.90057e-05
0.000133025 5.90057e-05 0.000538747
0.0111013 0.0138735 -4.14662e-05
0.0138735 -0.00204053 -1.47098e-05
-4.14662e-05 -1.47098e-05 -0.0014931
0.0205939 -0.00855404 -2.73412e-05
-0.00855404 0.0179498 -0.000177017
-2.73412e-05 -0.000177017 0.00189108
0.0220132 -0.00265712 -0.000269019
-0.00265712 0.00534954 -2.18894e-05
-0.000269019 -2.18894e-05 0.00189194
0.00178349 0.00157907 -1.82301e-05
0.00157907 0.00115384 -9.08607e-06
-1.82301e-05 -9.08607e-06 0.000224639
0.00249847 0.00213317 -0.000867817
0.00213317 0.00483088 -0.000208337
-0.000867817 -0.000208337 -0.00198154
0.00660827 0.00121006 0.000118226
0.00121006 0.00247291 -0.000205167
0.000118226 -0.000205167 -0.00279202
-0.000906918 0.00108296 -1.99304e-06
0.00108296 0.000173972 -3.84616e-05
-1.99304e-06 -3.84616e-05 -0.00059695
-0.00309835 0.00295147 -2.75748e-05
0.00295147 0.0010472 7.03732e-05
-2.75748e-05 7.03732e-05 -0.000441645
0.00555844 0.0111551 0.000656256
0.0111551 0.00469263 8.24241e-05
0.000656256 8.24241e-05 -0.00153707
0.0180065 -0.00634925 0.000188741
-0.00634925 0.00742556 0.00018843
0.000188741 0.00018843 -0.0045226
0.0226302 -0.00157156 0.000173463
-0.00157156 0.00174889 -0.000331589
0.000173463 -0.000331589 0.000301899
0.000593989 0.000481565 1.1334e-05
0.000481565 0.000591456 2.50067e-05
1.1334e-05 2.50067e-05 0.000163286
0.000558288 0.000492355 -3.83546e-06
0.000492355 0.000692712 -4.4242e-06
-3.83546e-06 -4.4242e-06 0.000148258
0.000627713 0.000542399 1.55925e-05
0.000542399 0.000866189 2.134e-06
1.55925e-05 2.134e-06 0.000180889
0.000359861 9.70203e-05 1.65528e-06
9.70203e-05 8.63408e-05 9.40056e-06
1.65528e-06 9.40056e-06 -0.000125481
0.00136828 -3.83729e-06 -8.95817e-07
-3.83729e-06 0.000922129 8.17718e-06
-8.95817e-07 8.17718e-06 0.000615203
0.000189546 9.33817e-05 3.66404e-06
9.33817e-05 0.000214401 1.02341e-06
3.66404e-06 1.02341e-06 -0.000100421
5.21122e-05 0.000117545 1.52482e-06
0.000117545 0.000404576 2.77995e-06
1.52482e-06 2.77995e-06 -4.54985e-05
0.000753353 -5.34197e-05 6.36166e-06
-5.34197e-05 0.000470372 8.99532e-07
6.36166e-06 8.99532e-07 0.000183088
0.000210751 -3.46335e-05 5.35059e-07
-3.46335e-05 0.000306316 -4.60934e-06
5.35059e-07 -4.60934e-06 -5.4144e-05
-0.000198404 3.7599e-05 1.29968e-07
3.7599e-05 0.000474162 1.02092e-06
1.29968e-07 1.02092e-06 -0.000189922
-0.000841928 2.61294e-05 7.47833e-06
2.61294e-05 0.00028264 5.73482e-06
7.47833e-06 5.73482e-06 -0.000457596
0.00129432 -0.000144084 1.13594e-05
-0.000144084 0.00129997 -9.8544e-06
1.13594e-05 -9.8544e-06 0.000738384
0.00111628 -0.00011828 -2.88164e-05
-0.00011828 0.000954862 5.04625e-06
-2.88164e-05 5.04625e-06 0.000523979
0.00127525 -0.000245845 5.59944e-06
-0.000245845 0.000785655 9.97779e-06
5.59944e-06 9.97779e-06 0.000582429
-0.000756401 -0.000346194 -6.71143e-06
-0.000346194 -0.000629097 -3.17747e-06
-6.71143e-06 -3.17747e-06 -0.000772925
-0.000356743 -1.71129e-05 1.13322e-05
-1.71129e-05 -2.40037e-05 -1.43797e-05
1.13322e-05 -1.43797e-05 -0.000264689
-0.000731142 -3.68833e-05 2.7713e-06
-3.68833e-05 -0.000280382 -1.75454e-06
2.7713e-06 -1.75454e-06 -0.000612912
0.000221144 -0.000250067 -1.27874e-06
-0.000250067 -8.5869e-07 2.44013e-06
-1.27874e-06 2.44013e-06 -0.000162743
0.000168919 -0.00022318 -1.09729e-05
-0.00022318 0.00021484 5.22878e-06
-1.09729e-05 5.22878e-06 1.90107e-05
0.00354399 -0.0003402 7.80298e-06
-0.0003402 0.00222808 -8.95898e-06
7.80298e-06 -8.95898e-06 0.00180366
0.00163463 -0.000179354 7.77888e-06
-0.000179354 0.00143119 5.79685e-06
7.77888e-06 5.79685e-06 0.00100011
0.00209414 -0.000809592 -1.09087e-05
-0.000809592 0.00125912 1.19424e-05
-1.09087e-05 1.19424e-05 0.00062845
0.00124139 -0.000187507 -1.47601e-05
-0.000187507 0.000703141 2.63731e-06
-1.47601e-05 2.63731e-06 0.000363372
0.000239875 -0.000508136 2.07552e-05
-0.000508136 -9.61405e-05 9.63752e-06
2.07552e-05 9.63752e-06 -0.000520491
0.0025972 -0.00125666 -7.85338e-06
-0.00125666 0.00125601 1.0459e-05
-7.85338e-06 1.0459e-05 0.000435808
0.00351914 -0.000583664 2.80134e-05
-0.000583664 0.00179897 -9.52958e-06
2.80134e-05 -9.52958e-06 0.00146177
0.00259902 -0.000762782 5.7075e-07
-0.000762782 0.00130205 -1.12545e-05
5.7075e-07 -1.12545e-05 0.000824471
-6.96731e-05 -0.000374514 -4.75849e-08
-0.000374514 1.34441e-06 1.76731e-06
-4.75849e-08 1.76731e-06 -0.000440543
-0.00310205 -0.00031971 2.1099e-05
-0.00031971 -0.00187467 -1.93915e-05
2.1099e-05 -1.93915e-05 -0.00241619
0.000709133 -0.000254521 -8.81682e-06
-0.000254521 0.000507353 1.15017e-05
-8.81682e-06 1.15017e-05 0.000171444
0.00105374 -0.000496924 1.14131e-05
-0.000496924 0.000641185 -4.6293e-06
1.14131e-05 -4.6293e-06 0.000265709
0.00105456 -0.000170218 2.00839e-05
-0.000170218 0.000582094 8.63796e-06
2.00839e-05 8.63796e-06 0.000232083
0.00288185 -0.000610657 -1.86924e-05
-0.000610657 0.00193094 1.7712e-05
-1.86924e-05 1.7712e-05 0.00156065
0.00018773 -0.000180883 -1.47445e-06
-0.000180883 0.000109781 -5.37354e-07
-1.47445e-06 -5.37354e-07 -0.000222599
-0.000259688 -4.74244e-05 9.53535e-06
-4.74244e-05 -0.000373787 4.65133e-06
9.53535e-06 4.65133e-06 -0.000532925
0.0024416 -0.000405613 -5.76906e-06
-0.000405613 0.00156851 8.03741e-06
-5.76906e-06 8.03741e-06 0.00129078
0.000821261 -0.000136801 4.72539e-07
-0.000136801 0.000336118 9.30397e-07
4.72539e-07 9.30397e-07 0.000203822
0.00157117 -1.37591e-05 -1.85768e-05
-1.37591e-05 0.000790148 1.02007e-05
-1.85768e-05 1.02007e-05 0.000746085
0.00044538 -0.000118017 -1.69846e-06
-0.000118017 9.19622e-05 4.22893e-07
-1.69846e-06 4.22893e-07 -2.968e-05
0.000797617 -2.39256e-05 -1.87643e-05
-2.39256e-05 0.000278926 1.01594e-06
-1.87643e-05 1.01594e-06 0.000238288
0.00079603 1.53354e-05 4.49216e-06
1.53354e-05 0.000248366 3.21466e-06
4.49216e-06 3.21466e-06 0.000245104
0.00034319 -7.09664e-05 5.22844e-06
-7.09664e-05 -2.01331e-05 -5.95866e-06
5.22844e-06 -5.95866e-06 -6.17241e-05
0.00175509 7.52984e-06 2.24247e-05
7.52984e-06 0.000897808 -2.20491e-06
2.24247e-05 -2.20491e-06 0.000903651
0.0027321 -9.79936e-06 3.37243e-05
-9.79936e-06 0.00155662 -6.2641e-06
3.37243e-05 -6.2641e-06 0.00156724
-0.000121151 0.000122716 3.31533e-06
0.000122716 -0.00029161 -6.90822e-07
3.31533e-06 -6.90822e-07 -0.000471845
0.000520995 0.000100028 1.24391e-06
0.000100028 0.000144288 -6.50227e-06
1.24391e-06 -6.50227e-06 2.62701e-05
0.000293766 3.79877e-05 1.15635e-06
3.79877e-05 2.66985e-05 1.18096e-06
1.15635e-06 1.18096e-06 -0.000157954
0.000345489 1.7995e-05 3.07382e-06
1.7995e-05 -3.77367e-05 -6.48745e-06
3.07382e-06 -6.48745e-06 -6.81323e-05
0.000416158 8.11384e-05 6.58926e-07
8.11384e-05 6.43968e-05 4.29146e-08
6.58926e-07 4.29146e-08 -3.57278e-05
-1.71424e-05 -8.7924e-05 -3.91791e-06
-8.7924e-05 -0.000201401 4.59728e-06
-3.91791e-06 4.59728e-06 -0.000358722
0.00250713 1.87275e-05 -1.47942e-05
1.87275e-05 0.00140416 -6.78988e-06
-1.47942e-05 -6.78988e-06 0.00141473
0.000358395 1.16535e-05 -8.62226e-07
1.16535e-05 -2.97331e-05 -7.96207e-08
-8.62226e-07 -7.96207e-08 -5.79096e-05
0.000467188 -9.48297e-06 -4.03667e-06
-9.48297e-06 7.40068e-05 4.82471e-06
-4.03667e-06 4.82471e-06 -9.73211e-06
0.000381662 -2.22682e-05 -4.23014e-06
-2.22682e-05 -1.67468e-05 6.20239e-06
-4.23014e-06 6.20239e-06 -4.69606e-05
0.00257741 3.63818e-05 -5.74144e-06
3.63818e-05 0.00145306 -1.45662e-07
-5.74144e-06 -1.45662e-07 0.0014614
0.00279386 5.25449e-05 -3.23903e-06
5.25449e-05 0.00160072 7.38963e-06
-3.23903e-06 7.38963e-06 0.00160525
0.00686427 0.000181543 -0.000545866
0.000181543 0.0154071 0.000111818
-0.000545866 0.000111818 0.00582936
0.0108087 0.00900226 -0.000513215
0.00900226 0.00962544 0.000225133
-0.000513215 0.000225133 -0.00284666
0.0121529 -0.00414822 -0.000532011
-0.00414822 0.00389386 0.000365024
-0.000532011 0.000365024 -0.00244891
0.0212738 0.0118647 0.00176351
0.0118647 0.0204487 0.000142435
0.00176351 0.000142435 0.0031201
0.00700425 0.0009299 0.000155658
0.0009299 -0.00276873 5.42282e-05
0.000155658 5.42282e-05 0.0011818
0.0024791 -0.00115293 0.000143959
-0.00115293 -0.00225142 -8.46196e-06
0.000143959 -8.46196e-06 -0.000780672
0.00280498 -0.00171824 0.000719895
-0.00171824 -0.0155365 -4.44982e-05
0.000719895 -4.44982e-05 -0.0100116
0.0220178 0.0106115 -0.00292855
0.0106115 0.0183035 -0.000660318
-0.00292855 -0.000660318 0.00522331
0.0454782 0.0336368 -0.00166756
0.0336368 0.0338271 0.00191655
-0.00166756 0.00191655 0.0081177
0.00610625 -0.00213108 9.25288e-05
-0.00213108 -0.00353695 -1.93662e-05
9.25288e-05 -1.93662e-05 0.000290266
0.00826079 -0.00872806 0.000526535
-0.00872806 -0.0102182 -0.000273555
0.000526535 -0.000273555 -0.00538962
0.0359954 0.0123858 -0.000798856
0.0123858 0.0214726 -0.000565542
-0.000798856 -0.000565542 0.00479547
0.0306779 0.00685651 0.000715513
0.00685651 0.0166835 0.000675176
0.000715513 0.000675176 0.00521314
0.00347074 -0.00514449 -9.62085e-05
-0.00514449 -0.00516423 0.000170917
-9.62085e-05 0.000170917 -0.000633366
-0.00196137 -0.0127107 0.00157821
-0.0127107 -0.00615786 -0.000379613
0.00157821 -0.000379613 -0.00484599
0.0213731 0.00468549 -0.00110655
0.00468549 0.013098 -0.00162723
-0.00110655 -0.00162723 -0.000214835
0.0137774 -0.00203707 -0.000287334
-0.00203707 0.00391121 5.19094e-05
-0.000287334 5.19094e-05 -0.000486632
0.0014119 4.71305e-05 6.57518e-06
4.71305e-05 0.000905346 1.70819e-05
6.57518e-06 1.70819e-05 0.000571781
2.35172e-05 -1.34314e-05 -4.23887e-07
-1.34314e-05 -7.26022e-05 -5.64081e-07
-4.23887e-07 -5.64081e-07 -0.000275628
7.55085e-05 9.73461e-05 -4.17042e-06
9.73461e-05 -0.000140051 -2.07724e-06
-4.17042e-06 -2.07724e-06 -0.000301612
-0.000728865 -9.83156e-05 -1.32045e-05
-9.83156e-05 -0.000649281 -1.30757e-06
-1.32045e-05 -1.30757e-06 -0.000686533
0.000418634 0.000211898 6.90139e-06
0.000211898 0.000136897 2.56307e-05
6.90139e-06 2.56307e-05 -0.000130406
0.000582044 0.000163342 -2.02828e-06
0.000163342 0.000291136 -2.12009e-06
-2.02828e-06 -2.12009e-06 3.83612e-05
-0.000178368 -5.91991e-05 3.03921e-06
-5.91991e-05 -0.000242735 -6.88074e-06
3.03921e-06 -6.88074e-06 -0.000412548
0.00112656 0.000270045 1.36405e-05
0.000270045 0.000676812 6.59822e-06
1.36405e-05 6.59822e-06 0.00034122
0.000900257 0.000266475 -1.242e-06
0.000266475 0.000505449 -3.58315e-06
-1.242e-06 -3.58315e-06 0.000201629
0.00044717 8.82185e-05 -4.40077e-06
8.82185e-05 0.000175204 -3.35351e-06
-4.40077e-06 -3.35351e-06 -5.83779e-05
0.00372421 -0.00162197 0.000191191
-0.00162197 -0.000711699 -0.000112289
0.000191191 -0.000112289 0.000329354
0.0010135 -0.00142371 -1.50043e-05
-0.00142371 -0.000769305 -1.09483e-05
-1.50043e-05 -1.09483e-05 -0.000844743
0.00298762 -0.00197641 7.52529e-06
-0.00197641 0.000816129 2.8083e-05
7.52529e-06 2.8083e-05 -5.57939e-05
-3.7023e-05 -0.00143273 2.03603e-05
-0.00143273 -0.000282107 3.84211e-06
2.03603e-05 3.84211e-06 -0.000888094
0.00455177 -0.000732809 -5.17964e-05
-0.000732809 0.00307785 0.000100588
-5.17964e-05 0.000100588 0.00246569
0.000641063 -0.000298305 -1.28129e-05
-0.000298305 0.000679243 -3.34404e-05
-1.28129e-05 -3.34404e-05 0.000261796
0.00128786 9.57868e-05 -9.33893e-06
9.57868e-05 0.000961138 -1.1878e-05
-9.33893e-06 -1.1878e-05 0.000544527
0.000961843 0.000109146 -9.61372e-06
0.000109146 0.000674535 -1.65707e-06
-9.61372e-06 -1.65707e-06 0.00031836
0.00384663 -0.00272788 -5.38259e-05
-0.00272788 -0.000600706 1.09154e-05
-5.38259e-05 1.09154e-05 0.000286296
0.00145993 -0.000225124 -3.44059e-06
-0.000225124 0.00120061 6.31783e-06
-3.44059e-06 6.31783e-06 0.000710352
0.00084874 -0.000332556 1.7412e-05
-0.000332556 0.00083114 -8.19349e-06
1.7412e-05 -8.19349e-06 0.000332612
0.00134326 -0.00168175 2.98784e-05
-0.00168175 5.2399e-05 -6.42079e-06
2.98784e-05 -6.42079e-06 -0.000566199
7.96745e-05 -0.000878087 2.02156e-07
-0.000878087 0.000444741 5.15139e-06
2.02156e-07 5.15139e-06 -0.000206215
0.000701881 -0.00342119 -3.48259e-05
-0.00342119 -0.000535733 1.92558e-05
-3.48259e-05 1.92558e-05 -0.00122965
0.000648809 -0.00128642 -8.4749e-06
-0.00128642 0.000743344 8.16055e-06
-8.4749e-06 8.16055e-06 4.49689e-05
-0.00111842 -0.000239761 -1.94847e-05
-0.000239761 0.000206696 -2.24431e-05
-1.94847e-05 -2.24431e-05 -0.000660203
0.000801588 0.000101748 2.40595e-05
0.000101748 0.00069869 -1.12449e-06
2.40595e-05 -1.12449e-06 0.000354069
-0.000345596 -0.000116732 1.25119e-05
-0.000116732 0.000198825 8.05328e-06
1.25119e-05 8.05328e-06 -0.000314256
0.0036845 9.38264e-05 -0.000238266
9.38264e-05 0.00207547 -0.000100015
-0.000238266 -0.000100015 -0.00269516
-0.00512593 0.00110334 -0.00147129
0.00110334 0.00777234 6.78796e-05
-0.00147129 6.78796e-05 0.000850292
-0.00392008 -0.00488205 -0.00268071
-0.00488205 0.00599552 0.000250881
-0.00268071 0.000250881 -0.00651102
0.000123788 0.000777381 2.81127e-05
0.000777381 0.000242894 -1.28618e-05
2.81127e-05 -1.28618e-05 -0.000439383
0.00237347 0.00170448 1.487e-05
0.00170448 0.00124977 1.03761e-05
1.487e-05 1.03761e-05 0.000275476
0.00693736 0.00342721 0.000108105
0.00342721 0.00258862 0.000100946
0.000108105 0.000100946 0.00154336
0.00336516 -0.00343429 0.000299593
-0.00343429 0.0144444 0.000102445
0.000299593 0.000102445 0.0030986
-0.0012664 0.0133454 -0.0015129
0.0133454 -0.00771308 -0.00027201
-0.0015129 -0.00027201 -0.00517497
0.00106581 0.00673918 0.000662606
0.00673918 -0.000854556 0.00041445
0.000662606 0.00041445 -0.000551015
-0.000230316 0.00237891 -1.11091e-05
0.00237891 0.000382127 -6.59088e-05
-1.11091e-05 -6.59088e-05 -8.94779e-05
0.0362971 -0.00924305 0.000480285
-0.00924305 0.0196471 -0.000895663
0.000480285 -0.000895663 0.0058183
0.0114186 0.00761052 0.00180348
0.00761052 0.00422615 0.000484949
0.00180348 0.000484949 -0.00442068
0.0164156 -0.00048423 -9.25444e-05
-0.00048423 0.00508725 9.99571e-05
-9.25444e-05 9.99571e-05 0.00378902
0.0026122 0.0016347 7.26555e-06
0.0016347 0.00162599 1.40749e-06
7.26555e-06 1.40749e-06 0.000705731
0.00413609 0.00336426 -0.000249946
0.00336426 0.00596795 -7.56491e-05
-0.000249946 -7.56491e-05 -0.000886387
0.00585902 0.000830555 0.000234835
0.000830555 0.00350452 -2.7202e-05
0.000234835 -2.7202e-05 -0.00127382
0.000612666 0.00176146 -4.14657e-05
0.00176146 0.000819592 -1.49646e-05
-4.14657e-05 -1.49646e-05 -0.000243033
-0.00172484 0.00422389 -0.000206105
0.00422389 0.000744418 -0.000176511
-0.000206105 -0.000176511 -0.00133479
0.00360219 0.0130613 0.000835375
0.0130613 0.00358044 0.000316945
0.000835375 0.000316945 -0.00309201
0.016399 -0.00126069 5.51195e-05
-0.00126069 -0.00049702 -0.000197951
5.51195e-05 -0.000197951 -0.00150878
0.0117053 -0.0051188 -7.08771e-05
-0.0051188 0.00844617 -0.000308585
-7.08771e-05 -0.000308585 -0.00220492
0.00200572 0.00136317 -8.81675e-07
0.00136317 0.00176831 -1.27035e-05
-8.81675e-07 -1.27035e-05 0.000759177
-0.00161984 0.00153991 0.000238842
0.00153991 0.00484108 0.000100907
0.000238842 0.000100907 -0.00165751
0.0104927 -0.00238844 0.00080201
-0.00238844 0.00128151 5.44368e-05
0.00080201 5.44368e-05 -0.00221592
0.0145959 -0.00240166 0.000356196
-0.00240166 0.00377053 -3.72282e-05
0.000356196 -3.72282e-05 -0.000207776
-0.00294861 0.00129315 7.61848e-05
0.00129315 0.00128178 -5.29497e-06
7.61848e-05 -5.29497e-06 -0.00062659
0.00563445 0.00542093 0.000631451
0.00542093 0.00742696 0.000376413
0.000631451 0.000376413 -0.00151379
0.0165916 -0.00153782 -0.00012265
-0.00153782 0.00450421 0.00041959
-0.00012265 0.00041959 -0.000645795
0.000842247 0.000527487 1.20597e-05
0.000527487 0.000879399 7.39427e-06
1.20597e-05 7.39427e-06 0.000306842
0.000393221 0.000556522 -9.10335e-06
0.000556522 0.00070935 -2.19034e-06
-9.10335e-06 -2.19034e-06 -5.56195e-06
-0.000553165 0.000233252 2.60146e-05
0.000233252 0.000510052 -4.91375e-06
2.60146e-05 -4.91375e-06 -0.000442855
-0.000864748 -2.91617e-05 7.90597e-06
-2.91617e-05 -0.000632905 8.57502e-06
7.90597e-06 8.57502e-06 -0.000872933
0.000724983 0.000114036 6.01491e-06
0.000114036 0.000625261 -3.18408e-06
6.01491e-06 -3.18408e-06 0.000275272
-0.000131865 3.0049e-05 -2.25102e-06
3.0049e-05 0.000583652 -6.24121e-07
-2.25102e-06 -6.24121e-07 -0.000115163
-0.000174016 -9.60346e-05 -1.08644e-06
-9.60346e-05 9.20651e-05 -2.38064e-07
-1.08644e-06 -2.38064e-07 -0.000311457
7.00408e-05 -7.7375e-05 -2.12172e-06
-7.7375e-05 0.000601384 -1.17158e-06
-2.12172e-06 -1.17158e-06 -3.85768e-06
-0.000363764 1.54106e-05 4.15162e-06
1.54106e-05 0.000571029 5.63455e-07
4.15162e-06 5.63455e-07 -0.000149015
0.000411582 -0.000243251 -1.17558e-05
-0.000243251 0.000947348 2.01977e-05
-1.17558e-05 2.01977e-05 0.000314685
0.000891866 -0.000125631 3.68849e-07
-0.000125631 0.00103061 -6.62105e-06
3.68849e-07 -6.62105e-06 0.000547749
-0.000645136 -2.85787e-06 2.11504e-05
-2.85787e-06 -0.000253524 -6.99825e-06
2.11504e-05 -6.99825e-06 -0.000558051
-0.000645403 -0.000292729 -1.51574e-05
-0.000292729 -0.000613128 1.30231e-05
-1.51574e-05 1.30231e-05 -0.000749161
-0.00200121 -9.15423e-05 6.23988e-06
-9.15423e-05 -0.00110825 -7.49929e-06
6.23988e-06 -7.49929e-06 -0.0013097
0.00051059 -9.86941e-05 6.80888e-07
-9.86941e-05 0.000734703 1.68647e-06
6.80888e-07 1.68647e-06 0.000301953
-0.000851287 -7.77121e-05 -1.75611e-05
-7.77121e-05 -0.000293193 2.73166e-06
-1.75611e-05 2.73166e-06 -0.000850679
0.00314268 -0.000982987 -6.48255e-06
-0.000982987 0.00199456 1.07752e-05
-6.48255e-06 1.07752e-05 0.00131003
0.00176324 -0.000664092 1.65212e-05
-0.000664092 0.00107844 -4.21402e-07
1.65212e-05 -4.21402e-07 0.000607793
0.00134916 -0.000738671 1.27516e-05
-0.000738671 0.000485202 2.93799e-05
1.27516e-05 2.93799e-05 -3.91772e-06
0.000690674 -0.000310237 -1.13203e-05
-0.000310237 0.000310378 3.26172e-06
-1.13203e-05 3.26172e-06 1.40216e-05
0.000976584 -0.000578924 -5.82144e-06
-0.000578924 0.000373314 3.71034e-06
-5.82144e-06 3.71034e-06 -7.91324e-05
0.0031715 -0.00134478 -1.62254e-05
-0.00134478 0.00155441 1.45266e-05
-1.62254e-05 1.45266e-05 0.000691574
0.0025982 -0.00145385 5.87844e-06
-0.00145385 0.00110362 -7.28587e-06
5.87844e-06 -7.28587e-06 0.000178166
0.00206773 -0.000755248 1.4959e-05
-0.000755248 0.00090099 -4.94476e-06
1.4959e-05 -4.94476e-06 0.000394232
0.00181265 -0.00110522 -4.79582e-07
-0.00110522 0.000800204 -1.84083e-07
-4.79582e-07 -1.84083e-07 3.40603e-05
0.00276984 -0.000443252 1.09389e-05
-0.000443252 0.00160059 -1.65133e-05
1.09389e-05 -1.65133e-05 0.001157
0.00163664 -0.000439751 -5.41998e-06
-0.000439751 0.000709946 3.5417e-06
-5.41998e-06 3.5417e-06 0.00034394
0.000880494 -0.000552512 4.05843e-06
-0.000552512 0.000242773 -2.12048e-05
4.05843e-06 -2.12048e-05 -0.000166171
0.00356731 -0.000425701 -5.61188e-06
-0.000425701 0.00220668 1.10327e-05
-5.61188e-06 1.10327e-05 0.00180457
-0.000401472 -0.000564494 3.82873e-06
-0.000564494 -0.000282061 -4.72347e-06
3.82873e-06 -4.72347e-06 -0.000770968
0.00118129 -0.000168133 2.05165e-05
-0.000168133 0.000655022 7.86019e-06
2.05165e-05 7.86019e-06 0.000222584
0.00263014 -0.0010962 -2.65815e-05
-0.0010962 0.00155605 2.48875e-05
-2.65815e-05 2.48875e-05 0.00119186
0.00140518 -0.000373817 -2.01871e-07
-0.000373817 0.000813316 -6.40012e-07
-2.01871e-07 -6.40012e-07 0.000452807
-0.000359471 -0.000168031 1.18607e-05
-0.000168031 -0.000440721 1.88297e-05
1.18607e-05 1.88297e-05 -0.000680351
0.00261083 -0.000287871 -1.16314e-05
-0.000287871 0.00169764 -7.20885e-06
-1.16314e-05 -7.20885e-06 0.0013752
0.000238031 -0.000126243 -2.62029e-06
-0.000126243 -5.16874e-05 -8.04179e-07
-2.62029e-06 -8.04179e-07 -0.000215723
0.0017829 -6.57759e-05 -3.10633e-05
-6.57759e-05 0.000921362 9.16197e-06
-3.10633e-05 9.16197e-06 0.000874155
0.00063357 -0.000135666 -3.06241e-06
-0.000135666 0.000213074 -8.9354e-07
-3.06241e-06 -8.9354e-07 7.72342e-05
0.000892354 -4.86109e-05 -1.7704e-05
-4.86109e-05 0.000333423 1.11286e-06
-1.7704e-05 1.11286e-06 0.000286308
0.000804386 2.44799e-05 5.16676e-06
2.44799e-05 0.000250481 3.99085e-06
5.16676e-06 3.99085e-06 0.000239337
0.000420287 -6.35402e-05 3.42718e-06
-6.35402e-05 2.41447e-05 -7.01344e-06
3.42718e-06 -7.01344e-06 -2.03747e-05
0.00188519 1.97851e-05 2.56246e-05
1.97851e-05 0.000981597 -1.82454e-06
2.56246e-05 -1.82454e-06 0.000986163
0.00271493 2.28697e-06 3.66239e-05
2.28697e-06 0.00154 -6.4889e-06
3.66239e-05 -6.4889e-06 0.00155182
0.000185183 5.1906e-05 3.69983e-06
5.1906e-05 -2.18973e-05 1.44061e-06
3.69983e-06 1.44061e-06 -0.000299222
-0.00020948 4.1807e-05 1.06331e-06
4.1807e-05 -0.000362442 -7.8535e-06
1.06331e-06 -7.8535e-06 -0.000492391
0.000596346 8.31307e-05 4.5389e-07
8.31307e-05 0.000244909 1.42741e-06
4.5389e-07 1.42741e-06 1.95736e-05
0.000343879 1.82981e-05 5.04501e-06
1.82981e-05 -3.74796e-05 -7.38788e-06
5.04501e-06 -7.38788e-06 -7.41159e-05
0.000226089 2.60497e-06 1.59803e-06
2.60497e-06 -7.23627e-05 2.03652e-07
1.59803e-06 2.03652e-07 -0.000180968
0.000415123 -0.000150329 -1.93745e-06
-0.000150329 0.000128538 4.07129e-06
-1.93745e-06 4.07129e-06 -7.35248e-05
0.00262184 4.75133e-06 -2.33361e-05
4.75133e-06 0.00148156 -7.24778e-06
-2.33361e-05 -7.24778e-06 0.00149187
0.000341806 1.29973e-05 2.26933e-06
1.29973e-05 -3.94286e-05 -1.30876e-07
2.26933e-06 -1.30876e-07 -7.03199e-05
0.000355646 -2.00489e-05 -7.06331e-06
-2.00489e-05 1.35015e-05 5.33411e-06
-7.06331e-06 5.33411e-06 -8.14538e-05
0.00249444 1.79839e-05 -8.02414e-06
1.79839e-05 0.00139603 -9.72226e-08
-8.02414e-06 -9.72226e-08 0.00140637
0.000336895 -1.38106e-05 -5.24398e-06
-1.38106e-05 -4.43236e-05 5.87402e-06
-5.24398e-06 5.87402e-06 -7.21388e-05
0.00256864 4.34129e-05 1.8839e-05
4.34129e-05 0.00144903 8.2157e-06
1.8839e-05 8.2157e-06 0.0014568
-0.00321519 -0.00320682 -0.000303758
-0.00320682 -8.17589e-05 0.000145962
-0.000303758 0.000145962 -0.00580893
0.00951479 0.0073426 -0.000629823
0.0073426 0.018501 4.36021e-05
-0.000629823 4.36021e-05 0.00531752
0.0133177 0.00504604 -0.00279805
0.00504604 0.00990862 0.000164112
-0.00279805 0.000164112 0.00351391
0.00020729 9.01312e-05 8.41693e-06
9.01312e-05 3.72822e-05 1.76262e-06
8.41693e-06 1.76262e-06 -0.000279547
0.0110052 -0.00311637 -0.000323488
-0.00311637 0.00803617 0.000405153
-0.000323488 0.000405153 0.00303497
0.0076545 -0.00266503 -0.000177287
-0.00266503 0.00375927 2.24936e-05
-0.000177287 2.24936e-05 -0.00237206
0.0333486 0.0202885 -0.000134466
0.0202885 0.024426 -0.000869538
-0.000134466 -0.000869538 0.00255606
0.00582442 -0.00341815 0.000237164
-0.00341815 -0.00440647 -7.2152e-05
0.000237164 -7.2152e-05 -0.000424882
0.0104947 -0.00715157 0.000463713
-0.00715157 -0.0070771 -0.000384012
0.000463713 -0.000384012 -0.00177167
0.0258653 0.00973622 -0.00121459
0.00973622 0.0160066 5.66912e-05
-0.00121459 5.66912e-05 0.000819161
0.0246538 0.00659211 0.00101973
0.00659211 0.0179862 0.000551701
0.00101973 0.000551701 0.00935419
0.00711693 -0.00620263 -8.94504e-05
-0.00620263 -0.00298298 8.08565e-06
-8.94504e-05 8.08565e-06 0.000473533
0.0100002 -0.0125388 9.69994e-05
-0.0125388 -0.00121402 -0.000135976
9.69994e-05 -0.000135976 -0.00125706
0.0193692 0.00203177 1.4199e-05
0.00203177 0.015153 -0.000699554
1.4199e-05 -0.000699554 0.00227787
0.0202846 0.00144709 -5.7314e-05
0.00144709 0.00652296 0.000110926
-5.7314e-05 0.000110926 0.000304003
0.00528461 -0.00866424 5.21215e-06
-0.00866424 0.000142272 4.09105e-05
5.21215e-06 4.09105e-05 0.00104967
0.00584464 -0.0105888 0.000563206
-0.0105888 0.00461291 -0.000307592
0.000563206 -0.000307592 -0.000604094
0.01022 0.00137992 -0.000280656
0.00137992 0.00924734 -0.000432665
-0.000280656 -0.000432665 0.00164844
0.0205072 -0.00125973 -0.000375677
-0.00125973 0.00281531 0.000353773
-0.000375677 0.000353773 0.000695589
-0.000234558 0.000370431 3.0863e-05
0.000370431 -0.000184153 3.26164e-05
3.0863e-05 3.26164e-05 -0.000444504
0.000376705 -0.000114262 -2.67521e-06
-0.000114262 0.000218505 -3.84376e-06
-2.67521e-06 -3.84376e-06 -7.42615e-05
-0.000719088 -7.40546e-05 2.86051e-06
-7.40546e-05 -0.000629747 -2.65277e-06
2.86051e-06 -2.65277e-06 -0.000772532
0.000795173 0.000228629 1.85849e-05
0.000228629 0.000368269 2.27223e-05
1.85849e-05 2.27223e-05 9.7964e-05
0.00109959 0.000295376 -6.53725e-06
0.000295376 0.00066925 -6.42283e-06
-6.53725e-06 -6.42283e-06 0.000334372
0.00074454 0.000121914 3.8613e-06
0.000121914 0.000423782 -4.50806e-06
3.8613e-06 -4.50806e-06 0.000157377
0.00152461 0.000288194 -1.88902e-06
0.000288194 0.00096015 4.61992e-07
-1.88902e-06 4.61992e-07 0.000605316
0.0012703 0.00026006 -8.40093e-07
0.00026006 0.000782807 4.03657e-06
-8.40093e-07 4.03657e-06 0.000459323
0.00451024 -0.00272703 0.000209947
-0.00272703 -0.000273575 -0.000137139
0.000209947 -0.000137139 0.000703867
-0.00193349 -0.00121145 -9.25654e-06
-0.00121145 -0.0018163 -1.09605e-05
-9.25654e-06 -1.09605e-05 -0.00219325
-0.00119313 9.99084e-05 -1.44482e-05
9.99084e-05 -0.000803954 -9.14105e-06
-1.44482e-05 -9.14105e-06 -0.00104459
-0.000105198 -0.000764597 1.9644e-05
-0.000764597 0.000202386 -2.64671e-06
1.9644e-05 -2.64671e-06 -0.000325814
0.00146393 -0.000462579 -4.9157e-05
-0.000462579 0.0011223 -1.01506e-06
-4.9157e-05 -1.01506e-06 0.00061172
-0.000205428 2.02219e-05 -1.02764e-05
2.02219e-05 0.0001312 -1.68011e-05
-1.02764e-05 -1.68011e-05 -0.000361061
-0.000786148 0.000194113 3.24813e-06
0.000194113 -0.000352798 1.23305e-05
3.24813e-06 1.23305e-05 -0.000687587
0.00186995 -0.00356781 -3.74098e-05
-0.00356781 -0.000128239 -4.62862e-06
-3.74098e-05 -4.62862e-06 -0.000791143
0.000781219 -0.000210833 -4.88941e-06
-0.000210833 0.000870121 8.96989e-06
-4.88941e-06 8.96989e-06 0.000347284
-0.000623021 -0.000202467 1.97591e-06
-0.000202467 0.000293543 7.47616e-06
1.97591e-06 7.47616e-06 -0.000423255
-0.000970764 -0.00104904 7.69411e-06
-0.00104904 -0.000315667 2.89833e-06
7.69411e-06 2.89833e-06 -0.000831438
-0.00159598 -0.000112195 2.63027e-05
-0.000112195 -0.00075183 7.12878e-06
2.63027e-05 7.12878e-06 -0.00113893
0.00269386 -0.00351527 -0.000102548
-0.00351527 0.00256124 -1.112e-07
-0.000102548 -1.112e-07 0.000705685
-0.000988105 -0.000914846 3.46714e-05
-0.000914846 0.000118613 -3.00319e-05
3.46714e-05 -3.00319e-05 -0.000653789
0.000297552 -4.57718e-05 3.47513e-06
-4.57718e-05 0.00097116 -3.34301e-05
3.47513e-06 -3.34301e-05 0.000116712
-0.00109098 -0.000213055 4.38442e-05
-0.000213055 -2.67927e-05 1.34721e-05
4.38442e-05 1.34721e-05 -0.000817346
0.0028696 -0.00092226 0.000553391
-0.00092226 0.0088181 0.000114284
0.000553391 0.000114284 0.0018215
-0.000383326 -7.54898e-05 0.000149708
-7.54898e-05 0.000751689 1.46838e-05
0.000149708 1.46838e-05 -0.00380047
-0.0102116 -0.000987773 -0.00194263
-0.000987773 0.00506264 9.79821e-06
-0.00194263 9.79821e-06 0.000610011
0.00241126 0.00148199 3.53642e-05
0.00148199 0.00153969 1.24601e-06
3.53642e-05 1.24601e-06 0.000697834
-0.000454633 0.0020318 3.40299e-05
0.0020318 0.000308455 2.1278e-05
3.40299e-05 2.1278e-05 -0.00097712
0.00469071 0.00389821 0.00101449
0.00389821 0.00580477 0.000226078
0.00101449 0.000226078 -0.0013972
0.000541181 0.00698404 0.000211342
0.00698404 0.00344716 0.00032151
0.000211342 0.00032151 -0.000591515
-4.65508e-05 0.00585713 -0.000391089
0.00585713 0.00201642 -0.000315362
-0.000391089 -0.000315362 -0.00132592
0.0129528 -0.00109573 -0.000183876
-0.00109573 0.00936596 -0.000558262
-0.000183876 -0.000558262 0.00152132
0.00674821 -7.20329e-06 -0.000111576
-7.20329e-06 0.00472189 5.81465e-05
-0.000111576 5.81465e-05 0.000230157
0.012364 -0.000290947 -5.28259e-05
-0.000290947 -0.00264138 -0.000344037
-5.28259e-05 -0.000344037 -0.00398371
0.00103333 0.00145236 8.64001e-06
0.00145236 0.00116645 4.35913e-07
8.64001e-06 4.35913e-07 4.56575e-05
-0.000251062 0.0011333 3.70393e-05
0.0011333 0.00506289 -2.29905e-05
3.70393e-05 -2.29905e-05 -0.00146148
0.00989181 -0.000797486 0.00042454
-0.000797486 0.00125144 8.82363e-06
0.00042454 8.82363e-06 -0.00292056
-0.00245177 0.00166525 -3.81329e-05
0.00166525 0.000703758 -2.25919e-05
-3.81329e-05 -2.25919e-05 -0.00109828
0.0217298 0.00193555 3.59634e-05
0.00193555 0.00647024 -0.000141113
3.59634e-05 -0.000141113 0.000114693
0.00372284 0.00402362 0.000523556
0.00402362 0.00763605 0.000363632
0.000523556 0.000363632 -0.000959643
0.0164696 0.00084366 -0.000304119
0.00084366 0.00619602 -3.95456e-05
-0.000304119 -3.95456e-05 -0.000651168
-0.000182423 0.00109559 1.29851e-05
0.00109559 0.000932498 -8.10343e-06
1.29851e-05 -8.10343e-06 -0.000380495
0.00763166 -7.63963e-05 0.000378563
-7.63963e-05 0.00504109 0.000119934
0.000378563 0.000119934 0.000151043
0.0039612 -0.00563594 0.000519771
-0.00563594 0.00590879 -0.000244771
0.000519771 -0.000244771 0.00192042
0.0418881 0.0093681 0.000814666
0.0093681 0.0215007 -0.000526457
0.000814666 -0.000526457 0.00825424
0.0138259 -4.48064e-05 5.02391e-05
-4.48064e-05 0.0109923 0.000661377
5.02391e-05 0.000661377 0.00320797
-0.00221066 0.00133912 -0.000190951
0.00133912 0.00195432 -0.00014498
-0.000190951 -0.00014498 -0.000144344
0.00217012 -0.000625021 0.000186491
-0.000625021 0.00656621 -0.000113258
0.000186491 -0.000113258 -0.00441698
0.00053546 0.000658167 -1.39882e-06
0.000658167 0.000741928 8.57844e-06
-1.39882e-06 8.57844e-06 -4.48006e-06
0.000371369 0.000360938 -9.45869e-07
0.000360938 0.00107526 5.22635e-06
-9.45869e-07 5.22635e-06 0.000181814
0.00102651 -9.66483e-05 -4.47109e-05
-9.66483e-05 0.00187375 1.64283e-05
-4.47109e-05 1.64283e-05 0.00103838
-0.0013425 9.66257e-05 1.93832e-05
9.66257e-05 -0.000694685 -2.70076e-06
1.93832e-05 -2.70076e-06 -0.00107307
-0.000802736 1.80618e-06 1.01103e-05
1.80618e-06 0.000119493 5.992e-06
1.01103e-05 5.992e-06 -0.000518946
-6.44866e-05 4.62691e-05 -1.77754e-05
4.62691e-05 0.00075428 -2.8538e-06
-1.77754e-05 -2.8538e-06 3.0206e-05
0.000163987 -3.58703e-05 -8.96054e-06
-3.58703e-05 0.000562873 2.36829e-06
-8.96054e-06 2.36829e-06 9.56433e-05
-4.53755e-05 -0.000194267 2.96925e-06
-0.000194267 0.000734212 2.82253e-06
2.96925e-06 2.82253e-06 7.12666e-05
0.00362871 -0.000847728 1.85195e-05
-0.000847728 0.00254572 -7.60379e-06
1.85195e-05 -7.60379e-06 0.00198007
0.000177885 -6.42728e-05 -1.38757e-06
-6.42728e-05 0.000490608 -7.93423e-06
-1.38757e-06 -7.93423e-06 6.75481e-05
-0.00498546 0.000115992 5.38315e-06
0.000115992 -0.00263817 3.28895e-06
5.38315e-06 3.28895e-06 -0.00331051
0.00119583 -0.0007268 1.16323e-06
-0.0007268 0.000944538 8.87212e-06
1.16323e-06 8.87212e-06 0.000180515
-0.00152338 -0.00035455 2.77533e-05
-0.00035455 -0.000926065 2.64669e-05
2.77533e-05 2.64669e-05 -0.00148273
-0.000282371 -0.000378699 -1.35148e-05
-0.000378699 -0.000136336 -3.8146e-05
-1.35148e-05 -3.8146e-05 -0.000471753
0.00026369 -0.000690462 -1.25496e-05
-0.000690462 -0.000132301 -3.7373e-06
-1.25496e-05 -3.7373e-06 -0.000615384
0.00232232 -0.00133998 -1.94045e-05
-0.00133998 0.0010181 8.41236e-06
-1.94045e-05 8.41236e-06 1.25497e-05
0.002699 -0.00163249 -1.77918e-05
-0.00163249 0.00105897 2.74585e-06
-1.77918e-05 2.74585e-06 5.12984e-05
0.00207556 -0.000685154 -7.83386e-06
-0.000685154 0.00101919 -8.90675e-06
-7.83386e-06 -8.90675e-06 0.000566482
0.00252507 -0.00127004 3.34464e-07
-0.00127004 0.00113672 1.27381e-06
3.34464e-07 1.27381e-06 0.000280834
0.00242692 -0.00150346 1.09672e-05
-0.00150346 0.000902251 -8.6902e-06
1.09672e-05 -8.6902e-06 -1.89858e-05
0.00274477 -0.00117261 1.01914e-05
-0.00117261 0.00134054 -6.89178e-06
1.01914e-05 -6.89178e-06 0.000559631
0.00182523 -0.00134319 5.23861e-06
-0.00134319 0.00063114 -1.30187e-06
5.23861e-06 -1.30187e-06 -0.000262656
0.00425456 -0.000567007 1.31675e-06
-0.000567007 0.00234301 -9.75486e-06
1.31675e-06 -9.75486e-06 0.00196786
0.000247806 -0.000594802 1.65156e-07
-0.000594802 -0.000213359 1.11183e-07
1.65156e-07 1.11183e-07 -0.000724637
0.000739903 -0.000907294 -5.12359e-06
-0.000907294 0.000143677 -5.90406e-06
-5.12359e-06 -5.90406e-06 -0.000551793
0.000398585 -0.00029036 1.02966e-05
-0.00029036 0.000178367 8.91352e-07
1.02966e-05 8.91352e-07 -0.000332793
0.000648529 -0.000409649 -1.56984e-06
-0.000409649 0.000332523 -1.53759e-06
-1.56984e-06 -1.53759e-06 -0.00016373
-0.000481384 -0.000271211 -8.23235e-06
-0.000271211 -0.00054198 5.43362e-07
-8.23235e-06 5.43362e-07 -0.000920945
0.000972107 -0.000724019 -2.3553e-05
-0.000724019 0.000522842 2.88959e-05
-2.3553e-05 2.88959e-05 4.01323e-05
0.00131611 -0.000455193 1.39128e-06
-0.000455193 0.000712428 8.95103e-07
1.39128e-06 8.95103e-07 0.000277448
-0.000296043 -0.000170016 1.13543e-05
-0.000170016 -0.000361303 1.65151e-05
1.13543e-05 1.65151e-05 -0.000713929
0.000574865 -0.000575491 -1.74235e-05
-0.000575491 0.000288569 -9.42357e-06
-1.74235e-05 -9.42357e-06 -0.000100646
0.000373838 -0.000115295 -2.35701e-06
-0.000115295 5.03949e-05 -4.65931e-07
-2.35701e-06 -4.65931e-07 -0.00020199
0.000360134 6.18376e-06 2.89333e-06
6.18376e-06 -3.2621e-05 1.50248e-05
2.89333e-06 1.50248e-05 -0.00010219
0.00219584 -0.000275868 -9.04065e-06
-0.000275868 0.0012343 -6.64732e-06
-9.04065e-06 -6.64732e-06 0.00105093
0.000459936 -7.23119e-05 -2.47925e-06
-7.23119e-05 2.71552e-05 5.49372e-07
-2.47925e-06 5.49372e-07 -2.90316e-05
0.00311161 0.000105023 1.02496e-05
0.000105023 0.00180976 4.91325e-06
1.02496e-05 4.91325e-06 0.00180386
0.000465293 -7.88651e-05 1.66619e-06
-7.88651e-05 4.48981e-05 -7.76464e-06
1.66619e-06 -7.76464e-06 -8.72729e-06
0.00200128 3.14387e-05 3.34076e-05
3.14387e-05 0.0010593 -1.99347e-06
3.34076e-05 -1.99347e-06 0.00105886
0.00302873 1.45564e-05 4.9596e-05
1.45564e-05 0.00174881 -7.90132e-06
4.9596e-05 -7.90132e-06 0.00175928
-0.000465069 0.000119445 2.54473e-06
0.000119445 -0.000457768 9.25885e-06
2.54473e-06 9.25885e-06 -0.000746472
-0.00017553 7.26613e-05 3.05555e-06
7.26613e-05 -0.000327409 -8.99828e-06
3.05555e-06 -8.99828e-06 -0.000502939
0.000141599 0.000167945 -1.10043e-06
0.000167945 -2.79401e-05 1.11007e-06
-1.10043e-06 1.11007e-06 -0.000314842
0.000393641 3.32791e-05 3.18716e-06
3.32791e-05 -4.14156e-06 -8.84101e-06
3.18716e-06 -8.84101e-06 -4.75244e-05
-0.000101751 4.37592e-05 -1.0013e-06
4.37592e-05 -0.000289457 -2.98337e-06
-1.0013e-06 -2.98337e-06 -0.00042213
0.00115218 0.000132579 -1.81401e-06
0.000132579 0.00066617 4.30483e-06
-1.81401e-06 4.30483e-06 0.00040206
0.00282541 -1.02908e-05 -3.20444e-05
-1.02908e-05 0.00161866 -7.78342e-06
-3.20444e-05 -7.78342e-06 0.00162756
0.000350619 2.00937e-05 -2.029e-07
2.00937e-05 -3.36138e-05 -2.61963e-07
-2.029e-07 -2.61963e-07 -6.94805e-05
-0.000230226 3.14954e-05 -9.25223e-07
3.14954e-05 -0.000382214 5.8958e-06
-9.25223e-07 5.8958e-06 -0.000488984
0.00258156 2.64573e-06 -6.0949e-06
2.64573e-06 0.00145436 8.50848e-08
-6.0949e-06 8.50848e-08 0.00146457
0.000363222 2.72778e-05 -1.521e-06
2.72778e-05 -2.49353e-05 6.28634e-06
-1.521e-06 6.28634e-06 -5.57526e-05
0.00248732 1.79263e-05 1.16831e-05
1.79263e-05 0.00139169 6.81584e-06
1.16831e-05 6.81584e-06 0.00140178
0.000792766 -0.000801146 0.000450701
-0.000801146 0.00819323 0.000268648
0.000450701 0.000268648 0.00412378
-0.00375639 -0.0010398 -5.596e-05
-0.0010398 -5.20822e-05 1.72366e-05
-5.596e-05 1.72366e-05 -0.00564772
0.00571634 0.00738675 -0.00147294
0.00738675 0.0167812 -0.000464552
-0.00147294 -0.000464552 0.00397261
0.00100075 0.000277087 -7.31057e-07
0.000277087 0.000591592 1.8784e-06
-7.31057e-07 1.8784e-06 0.000256159
-0.00148004 0.000148102 1.0208e-05
0.000148102 -0.000973769 1.03274e-05
1.0208e-05 1.03274e-05 -0.00135641
0.00313789 0.00046416 3.69507e-05
0.00046416 0.00200143 -4.83293e-07
3.69507e-05 -4.83293e-07 0.00168687
0.0118749 -0.00159393 -0.000738943
-0.00159393 0.00096083 1.66975e-05
-0.000738943 1.66975e-05 -0.00372717
0.0123448 -0.00539175 0.000277072
-0.00539175 0.00680306 6.54611e-05
0.000277072 6.54611e-05 0.00305278
0.0049698 -0.00630762 0.000428582
-0.00630762 0.00237557 -0.000339169
0.000428582 -0.000339169 -0.00245747
0.00803739 -0.00663012 0.000110992
-0.00663012 -0.00302124 -0.000165859
0.000110992 -0.000165859 0.000774236
0.00270971 -0.0125306 -0.00152247
-0.0125306 -0.00666512 0.000252563
-0.00152247 0.000252563 -0.00406147
0.0347372 0.0102477 0.00130336
0.0102477 0.0226645 0.000396407
0.00130336 0.000396407 0.00601698
0.0114213 -0.00241244 0.000515293
-0.00241244 0.00072501 -0.000343588
0.000515293 -0.000343588 -0.00460085
0.0048301 -0.00795287 3.73624e-07
-0.00795287 -9.21152e-05 1.01832e-05
3.73624e-07 1.01832e-05 0.00114271
0.00334536 -0.0119155 -0.000437961
-0.0119155 0.00408518 2.85376e-05
-0.000437961 2.85376e-05 -0.00284157
0.0132787 0.00550449 -0.000311818
0.00550449 0.0099217 -0.000476546
-0.000311818 -0.000476546 0.00071544
0.0166343 -0.000795788 -0.000271628
-0.000795788 0.000952866 0.000199183
-0.000271628 0.000199183 -0.000923461
0.00174255 -0.00673315 -0.000280112
-0.00673315 0.00293454 0.000184129
-0.000280112 0.000184129 0.000532449
0.00942132 -0.0054119 -0.000335591
-0.0054119 0.0090897 0.000434371
-0.000335591 0.000434371 0.00169396
0.0162174 -0.000547925 0.000112138
-0.000547925 0.00578124 -0.000380564
0.000112138 -0.000380564 -0.000350542
0.0106464 0.0014446 -0.000267535
0.0014446 0.00018775 0.000319565
-0.000267535 0.000319565 -0.00468556
-0.000227693 0.000177999 2.39205e-05
0.000177999 -0.000141606 4.30178e-05
2.39205e-05 4.30178e-05 -0.000369957
0.000855417 0.000114414 -9.30167e-06
0.000114414 0.000543837 2.07915e-06
-9.30167e-06 2.07915e-06 0.000276029
0.000975843 -0.000378961 1.19177e-05
-0.000378961 0.000620528 -1.75369e-05
1.19177e-05 -1.75369e-05 0.000317559
0.000736587 0.000227154 3.39561e-06
0.000227154 0.000325407 6.55116e-06
3.39561e-06 6.55116e-06 6.66429e-05
0.000827592 0.000330869 -4.12379e-06
0.000330869 0.000492014 -1.63911e-05
-4.12379e-06 -1.63911e-05 0.000159265
0.00126012 0.000402346 -9.25336e-06
0.000402346 0.00081923 -5.36144e-06
-9.25336e-06 -5.36144e-06 0.000444775
0.00231969 -0.00323497 8.66505e-05
-0.00323497 0.000223456 -5.03884e-05
8.66505e-05 -5.03884e-05 -0.000209129
-0.000255656 -0.00102483 -2.70994e-06
-0.00102483 -0.000142195 -2.21917e-05
-2.70994e-06 -2.21917e-05 -0.000520454
-0.000483599 0.000183337 -2.17757e-05
0.000183337 -0.000205495 -2.76786e-05
-2.17757e-05 -2.76786e-05 -0.000541787
0.000384059 -0.000299666 3.3357e-05
-0.000299666 0.000679218 1.41762e-06
3.3357e-05 1.41762e-06 6.7565e-05
0.002722 -0.000293031 -5.44602e-06
-0.000293031 0.00204307 -2.95305e-05
-5.44602e-06 -2.95305e-05 0.00152218
-0.000778699 -2.18623e-05 7.43967e-06
-2.18623e-05 -0.000234305 4.99418e-06
7.43967e-06 4.99418e-06 -0.000626917
-0.000272128 1.1895e-05 6.02318e-06
1.1895e-05 0.000522583 1.46884e-05
6.02318e-06 1.46884e-05 -0.000205741
0.000948929 -0.00306636 3.01815e-05
-0.00306636 0.00177029 -2.32131e-05
3.01815e-05 -2.32131e-05 0.000141771
-4.57442e-05 -5.46628e-05 -5.72709e-06
-5.46628e-05 0.000835724 1.39071e-06
-5.72709e-06 1.39071e-06 -7.18451e-05
0.000207578 -0.000905017 -8.19218e-06
-0.000905017 0.00113662 7.73161e-06
-8.19218e-06 7.73161e-06 0.000113074
9.94625e-05 0.000228752 6.0581e-05
0.000228752 0.000630597 -2.79276e-05
6.0581e-05 -2.79276e-05 -9.35719e-05
-0.00299783 -0.000677691 -0.000272894
-0.000677691 0.000898478 1.82964e-05
-0.000272894 1.82964e-05 -0.000609451
-0.000881947 -0.000295915 -6.10031e-05
-0.000295915 0.00143638 -3.37928e-05
-6.10031e-05 -3.37928e-05 0.000226487
-0.000935004 2.17022e-05 6.99124e-05
2.17022e-05 0.000337092 -2.75112e-06
6.99124e-05 -2.75112e-06 -0.000453436
0.00237753 0.000896374 3.77813e-05
0.000896374 0.000322805 -5.27388e-05
3.77813e-05 -5.27388e-05 -0.00855612
4.17848e-05 0.00216476 0.000405089
0.00216476 0.00817075 7.07576e-05
0.000405089 7.07576e-05 0.00230405
-0.00270628 0.000991873 0.000526594
0.000991873 0.000484619 3.16542e-05
0.000526594 3.16542e-05 -0.0031557
-6.69826e-05 0.00151412 1.69572e-05
0.00151412 0.000495504 2.77417e-05
1.69572e-05 2.77417e-05 -0.00073597
0.0018241 0.00249425 8.49064e-06
0.00249425 0.00236103 -6.42885e-05
8.49064e-06 -6.42885e-05 0.000484184
5.71412e-05 0.00137361 -0.000611656
0.00137361 0.00560323 -0.000157874
-0.000611656 -0.000157874 -0.000928395
-0.000978354 0.0026622 0.000409241
0.0026622 0.00696617 0.000399148
0.000409241 0.000399148 -0.000557439
0.0132672 -0.000360962 -0.000189346
-0.000360962 0.00178809 -0.000513203
-0.000189346 -0.000513203 -0.00560066
0.0107815 -8.1194e-05 3.03216e-05
-8.1194e-05 0.000420509 -7.41418e-05
3.03216e-05 -7.41418e-05 -0.00307883
0.0101379 -0.00247558 -0.000570849
-0.00247558 -0.000201062 0.000329836
-0.000570849 0.000329836 -0.00476011
0.000522427 0.00102086 -2.3481e-05
0.00102086 0.00134411 -5.57398e-06
-2.3481e-05 -5.57398e-06 0.000171384
0.00378882 0.00131603 0.000167774
0.00131603 0.00498451 8.78433e-05
0.000167774 8.78433e-05 0.000295815
0.0119793 -0.00406131 -0.000297259
-0.00406131 0.00617459 -6.29078e-05
-0.000297259 -6.29078e-05 0.00292544
-0.000753562 0.00170357 -0.000228619
0.00170357 0.00371152 -3.29175e-05
-0.000228619 -3.29175e-05 6.99886e-05
0.0319109 0.00861614 -0.000826722
0.00861614 0.0180851 -0.000688728
-0.000826722 -0.000688728 0.00579341
0.0176402 0.0044351 0.0002329
0.0044351 0.0115964 0.000562793
0.0002329 0.000562793 0.000663435
0.00857318 0.00433484 0.000153612
0.00433484 0.00937904 -1.34183e-05
0.000153612 -1.34183e-05 0.00096877
-2.17907e-05 4.02743e-05 9.53634e-05
4.02743e-05 0.00236102 -1.65301e-05
9.53634e-05 -1.65301e-05 0.000122245
0.00467719 0.000728713 -0.000608129
0.000728713 0.011062 -3.3837e-06
-0.000608129 -3.3837e-06 0.00646073
0.00463335 -0.00258379 0.000645565
-0.00258379 0.00240396 -0.000280046
0.000645565 -0.000280046 -0.00432984
0.0568976 0.0245019 0.000141338
0.0245019 0.0402477 -0.000393311
0.000141338 -0.000393311 0.014427
0.023051 0.00732167 0.0014489
0.00732167 0.0143501 0.00173711
0.0014489 0.00173711 0.0001924
0.0121111 -0.00816058 0.000847214
-0.00816058 0.0106038 -0.000619402
0.000847214 -0.000619402 0.000237296
-0.000200621 -0.00105704 -0.000106017
-0.00105704 0.00487643 8.26874e-05
-0.000106017 8.26874e-05 0.00222032
0.0011398 0.000423118 -1.6521e-05
0.000423118 0.00150623 -4.84685e-06
-1.6521e-05 -4.84685e-06 0.000695642
-0.000468803 -0.000102094 -1.55172e-05
-0.000102094 0.000813288 -8.02821e-06
-1.55172e-05 -8.02821e-06 -0.000174627
0.000867018 -0.00118472 7.49169e-05
-0.00118472 0.00140849 -1.06377e-05
7.49169e-05 -1.06377e-05 9.19986e-05
-0.000879906 3.19539e-05 2.99694e-06
3.19539e-05 -9.40757e-05 3.29436e-06
2.99694e-06 3.29436e-06 -0.000557496
-0.000481432 -0.000130085 1.56508e-05
-0.000130085 0.00048423 -2.16852e-05
1.56508e-05 -2.16852e-05 -0.00016799
0.00137663 -0.0005964 -7.6487e-06
-0.0005964 0.00129736 9.62902e-07
-7.6487e-06 9.62902e-07 0.000855511
0.00340552 -0.0016018 5.69918e-05
-0.0016018 0.00213188 -1.53723e-05
5.69918e-05 -1.53723e-05 0.00105346
-0.000675918 -0.000465562 4.14779e-06
-0.000465562 -9.51238e-05 -8.44357e-06
4.14779e-06 -8.44357e-06 -0.000918989
0.00218536 -0.00116456 2.31166e-05
-0.00116456 0.000966066 -7.00869e-06
2.31166e-05 -7.00869e-06 0.000294915
-0.000659969 -0.000881407 -1.11046e-05
-0.000881407 -0.00041397 3.44518e-06
-1.11046e-05 3.44518e-06 -0.00161518
0.00104909 -0.000814678 -2.14984e-05
-0.000814678 0.000374884 -1.02106e-05
-2.14984e-05 -1.02106e-05 -0.000100003
0.00189383 -0.00125504 1.427e-06
-0.00125504 0.000772065 -4.17811e-06
1.427e-06 -4.17811e-06 -0.000201418
0.00240237 -0.00165645 -2.97325e-05
-0.00165645 0.000816688 1.77081e-06
-2.97325e-05 1.77081e-06 -0.0003075
0.00327184 -0.00179998 -1.5573e-05
-0.00179998 0.00105352 -1.77814e-06
-1.5573e-05 -1.77814e-06 7.34343e-05
0.00279272 -0.00178652 -1.50375e-08
-0.00178652 0.00100759 -1.93468e-06
-1.50375e-08 -1.93468e-06 -3.16712e-05
0.00294775 -0.00164985 -2.00259e-06
-0.00164985 0.00118191 2.32363e-06
-2.00259e-06 2.32363e-06 0.000172216
0.0018785 -0.00118747 -6.04679e-06
-0.00118747 0.000730996 -3.89873e-06
-6.04679e-06 -3.89873e-06 -0.000115056
0.00266912 -0.00152593 3.27813e-07
-0.00152593 0.00114926 -8.28589e-06
3.27813e-07 -8.28589e-06 0.000202048
0.00227816 -0.00150582 1.06627e-05
-0.00150582 0.00079089 -2.79619e-06
1.06627e-05 -2.79619e-06 -0.000130288
0.00249162 -0.000770422 -1.24996e-05
-0.000770422 0.00111089 -1.49054e-06
-1.24996e-05 -1.49054e-06 0.000552715
0.00237152 -0.00111395 3.33635e-06
-0.00111395 0.0010676 -4.58864e-06
3.33635e-06 -4.58864e-06 0.000309949
0.00098829 -0.00122584 2.91471e-06
-0.00122584 0.000118579 4.65682e-06
2.91471e-06 4.65682e-06 -0.000741515
0.000732584 -0.000208163 2.87901e-06
-0.000208163 0.00025963 -4.30187e-06
2.87901e-06 -4.30187e-06 -0.000160173
-8.57837e-05 -0.000547596 2.36703e-06
-0.000547596 -0.000411277 -1.51749e-06
2.36703e-06 -1.51749e-06 -0.000818764
0.000648708 -0.000640001 -1.79832e-05
-0.000640001 3.31295e-05 1.0088e-05
-1.79832e-05 1.0088e-05 -0.000493903
5.13079e-05 -0.000296751 1.1836e-05
-0.000296751 -0.000103721 6.64979e-06
1.1836e-05 6.64979e-06 -0.000558213
0.000832997 -0.000422183 8.70562e-08
-0.000422183 0.000470532 1.24659e-06
8.70562e-08 1.24659e-06 -5.90998e-05
-0.00262876 -0.000577369 -1.14684e-05
-0.000577369 -0.00175731 1.42505e-05
-1.14684e-05 1.42505e-05 -0.00227376
0.000602866 -0.000656884 -1.28708e-05
-0.000656884 0.000247102 -7.11693e-06
-1.28708e-05 -7.11693e-06 -0.000209039
0.00102748 -0.000230457 1.88157e-06
-0.000230457 0.000470758 1.72648e-06
1.88157e-06 1.72648e-06 0.000135809
0.000353399 -3.70655e-05 4.06353e-06
-3.70655e-05 -2.38386e-05 2.42783e-05
4.06353e-06 2.42783e-05 -0.000136754
0.00236413 -0.000242655 -8.2883e-06
-0.000242655 0.00132 -1.80103e-05
-8.2883e-06 -1.80103e-05 0.00108343
0.000424929 -4.24702e-05 -9.54531e-06
-4.24702e-05 1.79282e-05 -8.99789e-07
-9.54531e-06 -8.99789e-07 -6.38316e-05
0.00378767 0.000106104 -5.89649e-05
0.000106104 0.00227568 9.68328e-06
-5.89649e-05 9.68328e-06 0.00227028
0.000526512 -7.79093e-05 2.6214e-06
-7.79093e-05 6.281e-05 -1.31474e-05
2.6214e-06 -1.31474e-05 6.28405e-06
0.00219991 5.92811e-05 3.96702e-05
5.92811e-05 0.00119515 -7.17163e-07
3.96702e-05 -7.17163e-07 0.00118878
0.00318482 3.66193e-05 5.45547e-05
3.66193e-05 0.00185045 -8.10367e-06
5.45547e-05 -8.10367e-06 0.00185852
0.00156046 0.000286401 -3.04764e-06
0.000286401 0.000928737 -7.26015e-06
-3.04764e-06 -7.26015e-06 0.000571422
0.000698199 0.000138184 5.46306e-06
0.000138184 0.000279397 -5.54019e-06
5.46306e-06 -5.54019e-06 6.08536e-05
0.000640518 0.000109433 -6.66573e-07
0.000109433 0.000336381 2.58498e-06
-6.66573e-07 2.58498e-06 3.04239e-06
0.000347537 5.42709e-05 -1.0211e-06
5.42709e-05 -2.8627e-05 -1.22624e-05
-1.0211e-06 -1.22624e-05 -8.35072e-05
8.03781e-05 8.35576e-05 -3.21487e-06
8.35576e-05 -0.00015307 -3.92115e-06
-3.21487e-06 -3.92115e-06 -0.000324538
0.000613227 0.000100884 -1.4172e-06
0.000100884 0.000291952 -3.52166e-06
-1.4172e-06 -3.52166e-06 5.71218e-06
0.00295296 -2.85e-05 -3.61173e-05
-2.85e-05 0.00170516 -8.31606e-06
-3.61173e-05 -8.31606e-06 0.00171232
0.00030349 7.22777e-06 5.07299e-07
7.22777e-06 -6.30535e-05 -4.19407e-07
5.07299e-07 -4.19407e-07 -0.000106266
0.000182339 2.13582e-05 -4.20035e-06
2.13582e-05 -8.93888e-05 3.05228e-06
-4.20035e-06 3.05228e-06 -0.00023253
0.00277461 -1.28621e-05 -8.49399e-06
-1.28621e-05 0.00158485 2.0435e-07
-8.49399e-06 2.0435e-07 0.00159369
0.0003213 1.02459e-05 -6.59919e-06
1.02459e-05 -5.28699e-05 7.01929e-06
-6.59919e-06 7.01929e-06 -8.84048e-05
0.00256402 2.91012e-06 1.88177e-05
2.91012e-06 0.00144274 7.03456e-06
1.88177e-05 7.03456e-06 0.00145292
0.00622608 -6.46505e-05 -0.000532849
-6.46505e-05 0.00448432 -4.95907e-05
-0.000532849 -4.95907e-05 -0.000499184
-0.00230504 0.000463414 0.000408035
0.000463414 0.00825359 1.20222e-05
0.000408035 1.20222e-05 0.00282811
0.00044562 -0.000938188 -0.000181084
-0.000938188 0.00124114 -0.000305834
-0.000181084 -0.000305834 -0.00464156
-0.00117793 -3.20391e-05 1.01102e-05
-3.20391e-05 -0.000662669 -1.02974e-05
1.01102e-05 -1.02974e-05 -0.00124091
0.00576594 0.000776777 2.77531e-05
0.000776777 0.00353554 3.37043e-07
2.77531e-05 3.37043e-07 0.00311858
6.5579e-06 0.00019125 -8.13434e-06
0.00019125 -5.09549e-05 -4.00915e-06
-8.13434e-06 -4.00915e-06 -0.00038119
-0.00034609 0.000130394 3.76053e-06
0.000130394 -0.000275478 -3.62873e-06
3.76053e-06 -3.62873e-06 -0.000655087
-0.000874269 8.32116e-05 -3.17814e-07
8.32116e-05 -0.00075285 -9.32832e-06
-3.17814e-07 -9.32832e-06 -0.000952472
0.00240555 0.000337081 2.30338e-05
0.000337081 0.0014439 -4.52395e-06
2.30338e-05 -4.52395e-06 0.00116364
-0.000331449 9.33349e-05 2.53204e-05
9.33349e-05 -0.000355224 -3.05597e-05
2.53204e-05 -3.05597e-05 -0.000473915
0.00854271 0.00227886 2.76315e-05
0.00227886 0.00161817 0.000184924
2.76315e-05 0.000184924 -0.00292824
0.0110084 -0.000508485 -0.000278458
-0.000508485 0.00165633 1.0784e-05
-0.000278458 1.0784e-05 -0.00354797
0.0103876 -0.00197079 0.000769362
-0.00197079 0.00755723 -0.000112033
0.000769362 -0.000112033 0.00231746
0.0132092 0.000241359 -9.29917e-05
0.000241359 -0.00163693 0.000283409
-9.29917e-05 0.000283409 -0.00364673
0.00714061 -0.00928136 -9.42439e-05
-0.00928136 0.000367315 1.80542e-05
-9.42439e-05 1.80542e-05 0.0009495
0.000174217 -0.00985662 -0.000674304
-0.00985662 0.00381413 0.000253856
-0.000674304 0.000253856 -0.00507202
0.0307663 0.00401469 0.00039473
0.00401469 0.0128794 -0.000553116
0.00039473 -0.000553116 0.0030957
0.0058123 -0.00923728 -0.000181465
-0.00923728 0.0031931 0.000130369
-0.000181465 0.000130369 0.000837875
-0.00227481 -0.00276728 -0.000270363
-0.00276728 0.00633361 0.000100212
-0.000270363 0.000100212 -0.00369298
0.0161524 -0.000330707 0.000670577
-0.000330707 0.00655823 -3.98126e-05
0.000670577 -3.98126e-05 -0.0010277
0.0220195 -0.002039 3.49242e-06
-0.002039 0.00492641 1.5277e-05
3.49242e-06 1.5277e-05 0.00158469
-0.00565066 -0.00118103 -0.000304765
-0.00118103 0.000973531 0.000309176
-0.000304765 0.000309176 -0.000628838
0.00212028 -0.000284208 -0.00023004
-0.000284208 0.00739466 -0.000241646
-0.00023004 -0.000241646 -0.00218172
0.0190499 -0.00573066 -0.000248659
-0.00573066 0.00797206 -0.000217862
-0.000248659 -0.000217862 -0.0040304
0.0303785 -0.00119003 0.00134585
-0.00119003 0.0155899 -0.000881988
0.00134585 -0.000881988 0.00707336
-0.000747959 0.000163959 4.81375e-05
0.000163959 0.000246753 -2.41787e-05
4.81375e-05 -2.41787e-05 -0.000595132
-0.000344937 0.000152374 -1.58328e-06
0.000152374 -0.000185407 -7.98031e-06
-1.58328e-06 -7.98031e-06 -0.000424105
-5.96396e-05 -1.96743e-05 -2.39919e-07
-1.96743e-05 -3.08013e-05 -2.75232e-05
-2.39919e-07 -2.75232e-05 -0.000300916
4.77636e-05 0.000147106 -9.11957e-06
0.000147106 -9.02277e-05 -9.70183e-06
-9.11957e-06 -9.70183e-06 -0.000361677
0.000993967 -0.00319393 6.77799e-05
-0.00319393 0.00158704 1.6917e-05
6.77799e-05 1.6917e-05 -7.38279e-05
0.000804289 -0.000846608 -2.07116e-05
-0.000846608 0.00181101 1.13662e-05
-2.07116e-05 1.13662e-05 0.000608201
0.000244845 5.04305e-05 -4.58745e-05
5.04305e-05 0.000391801 -2.38862e-05
-4.58745e-05 -2.38862e-05 5.24729e-06
0.000619955 -0.000109411 -2.88246e-05
-0.000109411 0.000870396 -4.25484e-05
-2.88246e-05 -4.25484e-05 0.000227564
0.000799886 2.26238e-05 1.86613e-06
2.26238e-05 0.00141464 3.11448e-05
1.86613e-06 3.11448e-05 0.000649063
0.000683218 0.000249292 -1.65527e-07
0.000249292 0.000897159 8.5874e-06
-1.65527e-07 8.5874e-06 0.000241923
-0.00015158 -4.77017e-05 -7.42518e-06
-4.77017e-05 0.000802285 -4.37957e-06
-7.42518e-06 -4.37957e-06 -2.13476e-06
-0.000719689 -0.00162288 3.04217e-05
-0.00162288 0.00204663 -1.58361e-05
3.04217e-05 -1.58361e-05 -0.000278189
-0.000178409 -0.000196831 -2.37393e-05
-0.000196831 0.00171655 -2.32106e-05
-2.37393e-05 -2.32106e-05 0.000624033
0.000497795 0.000208028 3.78974e-05
0.000208028 0.000719767 -2.32194e-05
3.78974e-05 -2.32194e-05 0.00014593
-0.00209216 -0.000329356 -0.000259116
-0.000329356 0.00256642 -1.61987e-05
-0.000259116 -1.61987e-05 -0.000549883
0.00102954 0.000563998 9.14023e-05
0.000563998 0.0018592 5.67287e-06
9.14023e-05 5.67287e-06 0.000942797
-0.00589394 -0.000946479 6.49218e-05
-0.000946479 0.00773921 -0.000194199
6.49218e-05 -0.000194199 0.00265797
0.00378004 -0.000148262 7.20504e-05
-0.000148262 0.00344181 5.76472e-05
7.20504e-05 5.76472e-05 -0.00308416
-0.00536882 0.00404655 -0.0002547
0.00404655 0.00748279 -0.000114001
-0.0002547 -0.000114001 0.00102863
0.00129478 0.000904474 -1.54864e-05
0.000904474 0.00192883 -7.27318e-06
-1.54864e-05 -7.27318e-06 0.000915045
-0.0013706 0.00203795 0.000384941
0.00203795 0.00245385 0.000125017
0.000384941 0.000125017 0.00018739
0.000902683 -0.000434287 4.23537e-05
-0.000434287 0.00594218 1.08203e-05
4.23537e-05 1.08203e-05 0.00134977
0.00621519 -0.00139673 0.000571042
-0.00139673 0.00707444 -0.000266555
0.000571042 -0.000266555 -0.00419596
0.0330269 0.00364395 -0.00059161
0.00364395 0.0137854 0.000532209
-0.00059161 0.000532209 0.00260753
0.00588566 -0.0015367 -0.000768749
-0.0015367 0.00589687 -6.52864e-05
-0.000768749 -6.52864e-05 0.00148637
0.0252054 0.00788095 -0.00116102
0.00788095 0.019893 -0.000526103
-0.00116102 -0.000526103 0.0101944
0.000785719 0.000323068 -8.21442e-05
0.000323068 0.00255382 1.67536e-05
-8.21442e-05 1.67536e-05 0.000371568
-0.00251745 -0.0020748 -0.000322334
-0.0020748 0.00776848 2.03755e-05
-0.000322334 2.03755e-05 0.00353079
0.00153519 -0.00328496 0.000170808
-0.00328496 0.00354726 -6.04929e-05
0.000170808 -6.04929e-05 -0.00330659
-0.00431211 0.000149098 9.589e-05
0.000149098 0.00239374 6.17245e-05
9.589e-05 6.17245e-05 0.000450079
0.052912 0.029734 0.000650966
0.029734 0.038823 -0.00020197
0.000650966 -0.00020197 0.0119371
0.0207119 0.00413292 -1.49667e-05
0.00413292 0.0164936 0.000687359
-1.49667e-05 0.000687359 0.00266179
0.000642694 -0.00254969 0.000566259
-0.00254969 0.00657589 -0.000333591
0.000566259 -0.000333591 -0.00437424
-0.00211544 -0.00133606 -2.94319e-05
-0.00133606 0.00173141 -5.77947e-05
-2.94319e-05 -5.77947e-05 -0.000687334
0.00198391 -0.00196535 0.000435322
-0.00196535 0.00071764 -0.000123156
0.000435322 -0.000123156 -0.00599649
0.0122656 0.0113757 -0.00367246
0.0113757 0.0216317 -0.000365244
-0.00367246 -0.000365244 0.0039245
0.0338498 0.0134922 8.46424e-05
0.0134922 0.020432 0.000672589
8.46424e-05 0.000672589 0.00411685
0.00475523 -0.00858665 -0.000461051
-0.00858665 0.00516443 0.000244195
-0.000461051 0.000244195 -0.000331344
0.00252806 -0.0046507 2.90264e-05
-0.0046507 0.00599805 0.000116818
2.90264e-05 0.000116818 0.00209513
-0.00024899 -0.000217327 1.06553e-05
-0.000217327 0.000851934 -3.23435e-05
1.06553e-05 -3.23435e-05 -0.000250397
0.00070333 -0.000923718 -8.29227e-06
-0.000923718 0.00138033 2.86458e-06
-8.29227e-06 2.86458e-06 4.22477e-05
2.46347e-05 -0.00195805 2.81979e-05
-0.00195805 0.000671798 2.10379e-05
2.81979e-05 2.10379e-05 -0.000820888
-0.0015878 -0.000285034 -2.41948e-07
-0.000285034 -0.00031423 -5.06093e-07
-2.41948e-07 -5.06093e-07 -0.000646305
-0.000361357 -0.000911137 -1.82806e-05
-0.000911137 0.000204687 5.46943e-06
-1.82806e-05 5.46943e-06 -0.000652888
0.00291139 -0.00158619 3.662e-05
-0.00158619 0.00139919 -9.70363e-06
3.662e-05 -9.70363e-06 0.000377651
0.00554795 -0.00195067 -1.13524e-05
-0.00195067 0.00269626 -1.5564e-06
-1.13524e-05 -1.5564e-06 0.00188391
0.00239833 -0.0014712 9.78955e-06
-0.0014712 0.00115783 -3.72097e-06
9.78955e-06 -3.72097e-06 -8.76715e-05
0.00334288 -0.00203947 -4.98805e-06
-0.00203947 0.00123327 -1.79687e-05
-4.98805e-06 -1.79687e-05 -4.26998e-05
0.00190566 -0.00125883 -1.41125e-06
-0.00125883 0.000744923 -1.46322e-05
-1.41125e-06 -1.46322e-05 -0.000210564
0.00265607 -0.00169985 7.98827e-07
-0.00169985 0.000963357 -3.03167e-06
7.98827e-07 -3.03167e-06 -0.00017895
0.00414255 -0.00205188 -5.23472e-06
-0.00205188 0.00152582 -1.19717e-05
-5.23472e-06 -1.19717e-05 0.00041304
0.00284344 -0.00126057 -3.11135e-06
-0.00126057 0.000451269 -5.53431e-06
-3.11135e-06 -5.53431e-06 -0.000139468
0.00382005 -0.0017859 -7.04801e-06
-0.0017859 0.00131499 -3.41606e-06
-7.04801e-06 -3.41606e-06 0.000392775
0.00354573 -0.00185725 -3.6963e-06
-0.00185725 0.00119546 -1.05378e-06
-3.6963e-06 -1.05378e-06 0.000193969
0.00344427 -0.00185092 1.07105e-05
-0.00185092 0.00143439 -9.13065e-06
1.07105e-05 -9.13065e-06 0.000395766
0.00245983 -0.00168486 3.37073e-06
-0.00168486 0.000826674 -1.86942e-06
3.37073e-06 -1.86942e-06 -0.000164905
0.00331584 -0.0016941 1.33462e-05
-0.0016941 0.00137609 -1.83183e-06
1.33462e-05 -1.83183e-06 0.0003544
0.00283751 -0.00141866 -1.18303e-05
-0.00141866 0.00134887 1.94323e-06
-1.18303e-05 1.94323e-06 0.000417405
0.00303896 -0.00158621 2.19896e-06
-0.00158621 0.0013843 -1.98856e-06
2.19896e-06 -1.98856e-06 0.000419006
0.00248304 -0.00157071 -7.95174e-07
-0.00157071 0.000911387 4.88982e-06
-7.95174e-07 4.88982e-06 -3.25306e-05
0.00244753 -0.000292783 1.06636e-05
-0.000292783 0.00115816 1.51041e-06
1.06636e-05 1.51041e-06 0.000769486
0.00179618 -0.000639898 -9.75131e-06
-0.000639898 0.000725635 5.24348e-06
-9.75131e-06 5.24348e-06 0.000191635
0.000577044 -0.000946303 -7.11019e-06
-0.000946303 -3.59839e-05 2.77205e-06
-7.11019e-06 2.77205e-06 -0.000784677
0.00167805 -0.000365653 1.12814e-05
-0.000365653 0.000738297 -1.05986e-05
1.12814e-05 -1.05986e-05 0.000364705
0.000966318 -0.000346 -4.85746e-06
-0.000346 0.000404241 1.62916e-06
-4.85746e-06 1.62916e-06 -2.49325e-05
-0.00129745 -0.000208236 5.16083e-06
-0.000208236 -0.00118135 9.00274e-06
5.16083e-06 9.00274e-06 -0.00160382
1.78538e-05 -0.000169888 -2.02677e-05
-0.000169888 -0.000298672 2.99982e-05
-2.02677e-05 2.99982e-05 -0.000432516
0.00126415 -0.000345321 2.81891e-06
-0.000345321 0.000612112 2.64352e-06
2.81891e-06 2.64352e-06 0.000216103
0.00179093 -0.000608722 -4.89165e-06
-0.000608722 0.00106199 -2.8223e-06
-4.89165e-06 -2.8223e-06 0.000553818
0.00134312 -0.000203561 -6.40065e-06
-0.000203561 0.000649305 -1.68534e-05
-6.40065e-06 -1.68534e-05 0.000340186
0.000285327 -9.27751e-05 -1.33188e-06
-9.27751e-05 -9.13588e-05 -1.12399e-06
-1.33188e-06 -1.12399e-06 -0.000198206
0.0045772 0.000124465 -8.1233e-05
0.000124465 0.0028111 9.919e-06
-8.1233e-05 9.919e-06 0.00279935
0.000425262 -9.26655e-05 7.1983e-06
-9.26655e-05 5.16797e-06 -1.88745e-05
7.1983e-06 -1.88745e-05 -7.32496e-05
0.00386616 0.000108213 1.34807e-05
0.000108213 0.0023291 1.36614e-06
1.34807e-05 1.36614e-06 0.00232319
0.00327847 5.98268e-05 6.18757e-05
5.98268e-05 0.00191558 -8.72021e-06
6.18757e-05 -8.72021e-06 0.0019217
0.00379398 0.000496102 1.59065e-05
0.000496102 0.00255171 -1.08984e-05
1.59065e-05 -1.08984e-05 0.00190624
0.0028283 0.000343279 1.13142e-05
0.000343279 0.00191501 -4.27175e-05
1.13142e-05 -4.27175e-05 0.00136916
0.000892898 0.000183899 4.00564e-06
0.000183899 0.000404179 -1.04188e-05
4.00564e-06 -1.04188e-05 0.000159783
0.000771365 0.000265959 2.3934e-06
0.000265959 0.000449815 1.53374e-06
2.3934e-06 1.53374e-06 6.34456e-05
0.00039922 -2.9104e-05 7.44434e-06
-2.9104e-05 1.32135e-05 -1.44076e-05
7.44434e-06 -1.44076e-05 -5.3141e-05
0.00072029 0.000158132 -6.32625e-07
0.000158132 0.000292618 -6.56512e-07
-6.32625e-07 -6.56512e-07 7.77619e-05
0.000770434 0.000165666 -5.54413e-06
0.000165666 0.000414874 -1.6254e-05
-5.54413e-06 -1.6254e-05 7.56187e-05
0.00338505 -4.47958e-05 -5.44501e-05
-4.47958e-05 0.00200079 -9.87948e-06
-5.44501e-05 -9.87948e-06 0.00200548
0.000405739 8.10025e-06 -3.55475e-06
8.10025e-06 1.09273e-05 -4.58558e-07
-3.55475e-06 -4.58558e-07 -4.25083e-05
0.00079618 0.000133363 -7.72015e-06
0.000133363 0.000336595 5.62345e-06
-7.72015e-06 5.62345e-06 0.000161325
0.00299974 -3.32182e-05 -8.00599e-06
-3.32182e-05 0.00173765 6.1102e-07
-8.00599e-06 6.1102e-07 0.0017438
0.000359718 -6.55432e-06 -7.78315e-06
-6.55432e-06 -2.86598e-05 8.59124e-06
-7.78315e-06 8.59124e-06 -6.97937e-05
0.00271434 -1.49197e-05 2.41496e-05
-1.49197e-05 0.00154404 7.24968e-06
2.41496e-05 7.24968e-06 0.00155281
0.000439286 0.00212331 -0.000190328
0.00212331 0.00656419 -0.000227374
-0.000190328 -0.000227374 -0.00032867
0.00923203 -0.00106808 -0.000108726
-0.00106808 0.00647129 -0.000128494
-0.000108726 -0.000128494 0.0014915
-0.000379986 -0.000795867 0.00028173
-0.000795867 0.00854273 -0.000121639
0.00028173 -0.000121639 0.0034316
0.000226734 0.00019459 -2.36666e-07
0.00019459 0.000343614 -1.10523e-05
-2.36666e-07 -1.10523e-05 -0.000346226
-0.000805211 0.000501702 -1.7073e-05
0.000501702 -0.000525115 -1.73275e-05
-1.7073e-05 -1.73275e-05 -0.000958931
0.0018823 0.000582696 2.98368e-06
0.000582696 0.000877756 -3.26826e-05
2.98368e-06 -3.26826e-05 0.000491519
-0.00182727 9.97884e-05 8.76197e-06
9.97884e-05 -0.000847634 1.50196e-05
8.76197e-06 1.50196e-05 -0.00156173
0.00114123 0.000692707 1.80788e-06
0.000692707 0.000488423 -2.22986e-05
1.80788e-06 -2.22986e-05 2.44448e-05
-0.000272521 0.000121511 -1.10406e-05
0.000121511 -0.000224036 -2.34166e-06
-1.10406e-05 -2.34166e-06 -0.000619876
-9.83917e-06 0.000154893 -2.4093e-05
0.000154893 -0.000144723 1.19854e-05
-2.4093e-05 1.19854e-05 -0.000348181
0.00117785 6.07493e-05 1.3959e-05
6.07493e-05 0.000663511 2.84724e-06
1.3959e-05 2.84724e-06 0.000375998
0.00114604 0.000239617 -1.3646e-05
0.000239617 0.000612157 -1.32389e-05
-1.3646e-05 -1.32389e-05 0.000502777
0.0023372 0.00026443 -2.67677e-06
0.00026443 0.00166036 -5.91554e-05
-2.67677e-06 -5.91554e-05 0.0011736
0.0153958 0.00786975 0.00153135
0.00786975 0.00876279 0.00070448
0.00153135 0.00070448 0.00301381
0.00757073 0.00189267 4.45783e-05
0.00189267 0.00393736 5.04484e-05
4.45783e-05 5.04484e-05 -0.0012711
0.0121448 -0.00069681 0.000382461
-0.00069681 0.00161997 6.0227e-06
0.000382461 6.0227e-06 -0.00229206
0.0187009 -1.5571e-05 -0.000152447
-1.5571e-05 0.00402599 -0.000111112
-0.000152447 -0.000111112 0.00366441
0.0125321 0.000230949 0.000183329
0.000230949 0.00227898 0.000453878
0.000183329 0.000453878 -0.00575107
0.00458898 -0.00895649 -0.00023456
-0.00895649 0.00322097 0.000149471
-0.00023456 0.000149471 0.000641547
0.00284553 -0.00217617 -0.000842833
-0.00217617 0.00804348 0.000201717
-0.000842833 0.000201717 0.00108438
-0.001845 -0.00300708 -0.000191029
-0.00300708 0.00272074 0.000218098
-0.000191029 0.000218098 -2.22723e-05
0.0118162 -0.000884127 -0.000576625
-0.000884127 0.0102519 -6.57797e-05
-0.000576625 -6.57797e-05 0.000198047
0.0108568 -0.00499688 8.81888e-05
-0.00499688 0.00822163 0.000310305
8.81888e-05 0.000310305 -0.0017822
0.0383889 -0.00766388 0.000687126
-0.00766388 0.0169684 -0.00128366
0.000687126 -0.00128366 0.00347054
-7.43632e-05 0.000923964 -0.000381107
0.000923964 0.00466748 0.000104722
-0.000381107 0.000104722 0.00113511
0.00210727 0.00190356 -0.00050814
0.00190356 0.00757351 -0.000189416
-0.00050814 -0.000189416 -0.000260839
0.0378785 -0.0140722 0.00221092
-0.0140722 0.025039 -0.00162015
0.00221092 -0.00162015 0.00715005
0.0429696 -0.0244012 0.000290278
-0.0244012 0.0330657 4.30843e-06
0.000290278 4.30843e-06 0.0107436
0.00131815 0.000910036 6.03007e-05
0.000910036 0.00130261 4.81565e-06
6.03007e-05 4.81565e-06 0.000317343
-0.000246026 0.000173468 2.28324e-05
0.000173468 0.000565705 1.73534e-06
2.28324e-05 1.73534e-06 -0.000292828
0.00124914 0.000195378 -4.7714e-05
0.000195378 0.000866767 -1.57479e-05
-4.7714e-05 -1.57479e-05 0.000598599
0.000324072 -0.00222432 0.000104286
-0.00222432 0.00245809 7.48773e-06
0.000104286 7.48773e-06 -0.000468346
-0.00205508 -0.000209455 0.000152641
-0.000209455 0.000840205 3.77273e-05
0.000152641 3.77273e-05 -0.000433096
0.000613247 0.000218808 -5.68292e-05
0.000218808 0.000829352 8.27317e-06
-5.68292e-05 8.27317e-06 0.000221954
-0.000818312 8.72078e-05 -7.74851e-05
8.72078e-05 0.000677066 1.25217e-06
-7.74851e-05 1.25217e-06 -0.000218067
0.000581803 0.000402566 -1.11584e-05
0.000402566 0.000860312 4.27037e-06
-1.11584e-05 4.27037e-06 0.000230738
0.00037623 0.000743652 1.01774e-05
0.000743652 0.00132852 -8.18566e-07
1.01774e-05 -8.18566e-07 0.000391605
-0.00329112 -3.61697e-05 0.000275223
-3.61697e-05 0.00216004 -0.000123388
0.000275223 -0.000123388 -0.000569044
0.00198408 0.00127191 5.32692e-05
0.00127191 0.00133108 7.70296e-05
5.32692e-05 7.70296e-05 0.000602189
-1.14249e-05 0.0016109 -6.74462e-05
0.0016109 0.00217774 -0.000130259
-6.74462e-05 -0.000130259 -0.000518176
-0.000537521 -0.00218654 0.00041299
-0.00218654 0.000314407 0.000155308
0.00041299 0.000155308 -0.00389254
-0.00476123 0.00169417 -0.000381393
0.00169417 0.00781542 -4.39074e-05
-0.000381393 -4.39074e-05 0.0012425
0.00835306 -0.00120413 -0.000322237
-0.00120413 0.0072103 5.90945e-06
-0.000322237 5.90945e-06 0.00327617
-0.000837052 0.0012301 0.000122156
0.0012301 0.00138613 1.41288e-06
0.000122156 1.41288e-06 -0.000946486
-0.000914548 0.000644025 1.60224e-05
0.000644025 0.00378425 0.000132427
1.60224e-05 0.000132427 0.000413513
-0.00246397 0.000132781 -0.000224484
0.000132781 0.00639414 -0.000152145
-0.000224484 -0.000152145 0.00152854
0.0134137 -0.00865704 0.000779584
-0.00865704 0.011775 -0.000431768
0.000779584 -0.000431768 0.00027397
0.0350586 0.0128154 -0.00140377
0.0128154 0.0236181 -0.000505417
-0.00140377 -0.000505417 0.00643565
0.0100229 -0.00447647 -0.000555341
-0.00447647 0.00479946 0.000369321
-0.000555341 0.000369321 -0.000766243
0.0457665 0.0345384 0.00139302
0.0345384 0.034695 -0.001947
0.00139302 -0.001947 0.00809575
-0.00169353 -0.00111017 1.74803e-05
-0.00111017 0.00169543 3.42385e-06
1.74803e-05 3.42385e-06 -0.000815018
0.00129366 -0.00150837 0.000203742
-0.00150837 0.00147473 -2.50637e-06
0.000203742 -2.50637e-06 -0.00493322
0.0192588 0.0122235 -0.00172654
0.0122235 0.0215564 -0.000175735
-0.00172654 -0.000175735 0.00340707
-0.000160145 -0.00319317 4.03345e-05
-0.00319317 0.00350961 5.28131e-05
4.03345e-05 5.28131e-05 0.000605488
0.0369302 0.0133128 0.000820863
0.0133128 0.0219329 0.000580878
0.000820863 0.000580878 0.00510542
0.00358985 -0.0123264 0.000740557
-0.0123264 0.00443387 -0.000268273
0.000740557 -0.000268273 -0.00254059
-0.000357391 -0.00341627 2.26257e-05
-0.00341627 0.00178516 4.84638e-05
2.26257e-05 4.84638e-05 -0.000806718
0.00661191 0.00109816 0.00016069
0.00109816 0.0160556 -0.000232788
0.00016069 -0.000232788 0.00621849
0.0267327 0.0142373 -0.00271035
0.0142373 0.0152312 -0.000368792
-0.00271035 -0.000368792 0.00134288
-0.000725868 -0.0125362 -0.00158087
-0.0125362 -0.00682875 0.00037907
-0.00158087 0.00037907 -0.00483067
0.000225017 -0.00539798 0.000287043
-0.00539798 0.000737641 -0.000251433
0.000287043 -0.000251433 0.000656427
0.000342301 -0.000709437 -9.47935e-05
-0.000709437 0.00116034 2.21638e-05
-9.47935e-05 2.21638e-05 -0.000190904
-5.89022e-05 -0.00154068 -3.26699e-05
-0.00154068 0.000754348 2.28693e-05
-3.26699e-05 2.28693e-05 -0.000616877
-0.000349781 -0.00156868 -1.31295e-05
-0.00156868 -0.000291743 -9.45347e-06
-1.31295e-05 -9.45347e-06 -0.00123928
-0.00357894 -0.000262368 3.03396e-05
-0.000262368 -0.0014175 -5.5432e-06
3.03396e-05 -5.5432e-06 -0.0020624
0.000931639 -0.00131844 1.1326e-05
-0.00131844 0.000335295 -9.00901e-06
1.1326e-05 -9.00901e-06 -0.000564646
0.00489469 -0.00230276 -5.40107e-06
-0.00230276 0.00176802 -1.2847e-06
-5.40107e-06 -1.2847e-06 0.000877293
0.00497246 -0.00196343 -2.79902e-05
-0.00196343 0.00247456 -4.44543e-06
-2.79902e-05 -4.44543e-06 0.00119289
0.00264139 -0.00184068 -1.69927e-06
-0.00184068 0.000859968 -4.59787e-07
-1.69927e-06 -4.59787e-07 -0.000339394
0.00375767 -0.00210123 -1.47198e-06
-0.00210123 0.00105291 -1.10348e-05
-1.47198e-06 -1.10348e-05 0.000103846
0.00293771 -0.00173593 1.66521e-05
-0.00173593 0.00113892 3.03823e-06
1.66521e-05 3.03823e-06 -2.44975e-05
0.00361437 -0.0019447 4.71442e-06
-0.0019447 0.00123669 -4.65247e-06
4.71442e-06 -4.65247e-06 0.000168791
0.0034749 -0.00145765 -1.79586e-06
-0.00145765 0.000752238 -7.11727e-06
-1.79586e-06 -7.11727e-06 0.000171783
0.00251074 -0.000842616 -3.36617e-06
-0.000842616 4.88836e-05 -1.89362e-06
-3.36617e-06 -1.89362e-06 -0.000133835
0.00254878 -0.00118709 -7.70053e-07
-0.00118709 0.000225968 -2.25381e-06
-7.70053e-07 -2.25381e-06 -0.000340707
0.00285008 -0.00126374 4.81767e-06
-0.00126374 0.000433922 -1.39517e-06
4.81767e-06 -1.39517e-06 -0.000149911
0.00375735 -0.00160385 -4.21611e-06
-0.00160385 0.00131384 -4.45307e-06
-4.21611e-06 -4.45307e-06 0.000493706
0.0037933 -0.00180308 -4.77942e-06
-0.00180308 0.00130122 -7.91391e-07
-4.77942e-06 -7.91391e-07 0.000363062
0.00377057 -0.00190443 6.31574e-06
-0.00190443 0.00130924 -3.23865e-06
6.31574e-06 -3.23865e-06 0.000289884
0.00291352 -0.00162376 -1.33388e-05
-0.00162376 0.00113064 -1.41945e-05
-1.33388e-05 -1.41945e-05 0.00017274
0.00264246 -0.00170863 2.22484e-06
-0.00170863 0.000952248 -1.27643e-06
2.22484e-06 -1.27643e-06 -3.78927e-05
0.00203722 -0.00156535 1.3026e-06
-0.00156535 0.000592352 2.43706e-06
1.3026e-06 2.43706e-06 -0.000344696
0.00404446 -0.000995777 1.87961e-05
-0.000995777 0.00216439 8.8111e-06
1.87961e-05 8.8111e-06 0.00148386
0.0014203 -0.00123326 5.35143e-06
-0.00123326 0.000501602 5.47779e-06
5.35143e-06 5.47779e-06 -0.00039334
0.00258774 -0.00151652 -1.68077e-06
-0.00151652 0.00109628 1.04858e-05
-1.68077e-06 1.04858e-05 0.000156681
0.00134123 -0.000475683 3.91833e-06
-0.000475683 0.000470925 -2.16065e-05
3.91833e-06 -2.16065e-05 0.000116701
0.000785025 -0.000487653 -2.37289e-06
-0.000487653 0.000209431 -6.53596e-06
-2.37289e-06 -6.53596e-06 -0.000267334
-0.00155241 -0.000415272 1.21719e-05
-0.000415272 -0.00123247 -5.87924e-06
1.21719e-05 -5.87924e-06 -0.00176527
0.00344435 -0.000177764 -0.000124411
-0.000177764 0.0019287 2.42755e-05
-0.000124411 2.42755e-05 0.00179039
0.000356124 -0.000419278 -1.76636e-06
-0.000419278 -4.37045e-05 5.72365e-07
-1.76636e-06 5.72365e-07 -0.000467756
0.000250138 -0.000555434 -1.98016e-06
-0.000555434 -6.38535e-05 -1.41781e-06
-1.98016e-06 -1.41781e-06 -0.000518228
0.00127768 -5.02068e-05 -0.000132835
-5.02068e-05 0.000577343 1.57392e-05
-0.000132835 1.57392e-05 0.000552861
0.00181882 -0.000163453 -3.62472e-05
-0.000163453 0.000888943 -2.27095e-07
-3.62472e-05 -2.27095e-07 0.000755773
0.00124703 -0.000391384 -6.68005e-06
-0.000391384 0.000567554 -3.21989e-06
-6.68005e-06 -3.21989e-06 0.00018559
0.000732739 -0.000123785 1.30534e-05
-0.000123785 0.000193396 -2.1973e-05
1.30534e-05 -2.1973e-05 8.06948e-05
0.00495559 0.000124402 1.1667e-05
0.000124402 0.00306415 2.99366e-07
1.1667e-05 2.99366e-07 0.00305332
0.00423936 8.82821e-05 9.01386e-05
8.82821e-05 0.00257241 -1.13064e-05
9.01386e-05 -1.13064e-05 0.00257079
-0.000157035 0.000394899 2.43338e-05
0.000394899 -0.000281427 1.02605e-05
2.43338e-05 1.02605e-05 -0.000745853
0.00202304 0.000629131 9.41786e-07
0.000629131 0.00136035 -2.99308e-05
9.41786e-07 -2.99308e-05 0.000789735
-0.000339396 0.000242096 6.57936e-06
0.000242096 -0.000136541 -1.63733e-06
6.57936e-06 -1.63733e-06 -0.000724505
0.000738258 0.000212354 -4.46814e-06
0.000212354 0.000310213 -1.65198e-05
-4.46814e-06 -1.65198e-05 2.41359e-05
0.000283911 0.000272311 8.80198e-06
0.000272311 0.000177638 -2.14515e-08
8.80198e-06 -2.14515e-08 -0.000305675
0.000443861 5.83557e-05 -1.24648e-05
5.83557e-05 6.41631e-05 -1.76816e-05
-1.24648e-05 -1.76816e-05 -2.18635e-05
0.000540364 0.00013675 -9.43439e-07
0.00013675 0.000191313 1.61119e-06
-9.43439e-07 1.61119e-06 -7.0851e-05
0.00101771 0.000254089 -3.81009e-06
0.000254089 0.00064246 4.1127e-06
-3.81009e-06 4.1127e-06 0.000240611
0.00361768 -6.8186e-05 -6.28242e-05
-6.8186e-05 0.00216275 -1.09442e-05
-6.28242e-05 -1.09442e-05 0.00216421
0.000273216 3.30755e-05 -3.41243e-06
3.30755e-05 -6.67209e-05 1.08209e-07
-3.41243e-06 1.08209e-07 -0.000131616
0.000127881 0.000142638 -4.3785e-06
0.000142638 -0.00011236 7.74397e-06
-4.3785e-06 7.74397e-06 -0.000310723
0.00320375 -5.53424e-05 -1.20629e-05
-5.53424e-05 0.00187938 7.40051e-07
-1.20629e-05 7.40051e-07 0.0018821
0.000176277 -1.62315e-05 -9.57841e-06
-1.62315e-05 -0.000142174 1.07884e-05
-9.57841e-06 1.07884e-05 -0.000193168
0.00295049 -3.39336e-05 3.21842e-05
-3.39336e-05 0.00170508 8.07876e-06
3.21842e-05 8.07876e-06 0.00171131
0.00544465 0.00250235 0.000847186
0.00250235 0.0061878 0.000170497
0.000847186 0.000170497 0.000646825
6.66533e-05 0.00223972 -7.59474e-05
0.00223972 0.00551303 8.18728e-06
-7.59474e-05 8.18728e-06 -0.00127614
0.000799596 0.00316072 2.31912e-05
0.00316072 0.00649902 -4.61584e-05
2.31912e-05 -4.61584e-05 0.000434265
0.000214268 0.000618119 -4.08394e-05
0.000618119 5.56717e-05 -5.77791e-06
-4.08394e-05 -5.77791e-06 -0.000646472
-0.000748465 0.000129179 -2.39483e-05
0.000129179 -0.000399406 4.38414e-05
-2.39483e-05 4.38414e-05 -0.00101864
-0.00184583 0.000125288 -2.3201e-05
0.000125288 -0.00120334 -1.33774e-06
-2.3201e-05 -1.33774e-06 -0.00155995
0.0017619 0.000224222 1.38806e-05
0.000224222 0.00120289 3.11384e-06
1.38806e-05 3.11384e-06 0.000703045
0.00132834 0.000548091 2.32155e-07
0.000548091 0.000418153 -1.96986e-06
2.32155e-07 -1.96986e-06 4.78389e-05
0.00152138 0.000746765 -3.35236e-05
0.000746765 0.000765522 -1.31629e-05
-3.35236e-05 -1.31629e-05 0.000392454
0.00244613 0.00075852 4.03308e-06
0.00075852 0.00117172 -4.5982e-05
4.03308e-06 -4.5982e-05 0.000640661
-0.00408137 0.000156384 -4.49236e-05
0.000156384 -0.00194413 5.72428e-06
-4.49236e-05 5.72428e-06 -0.00260896
-0.00122091 2.96243e-05 -1.2295e-05
2.96243e-05 -0.000779205 -4.94518e-06
-1.2295e-05 -4.94518e-06 -0.00113238
-0.00175818 5.39061e-05 -6.86267e-06
5.39061e-05 -0.00136661 3.37279e-05
-6.86267e-06 3.37279e-05 -0.00136723
-0.000575885 7.40487e-05 -1.83828e-05
7.40487e-05 -4.15152e-05 3.73649e-06
-1.83828e-05 3.73649e-06 -0.000566791
-5.51129e-05 0.000551369 8.73852e-06
0.000551369 0.00045586 1.39877e-05
8.73852e-06 1.39877e-05 -0.000509345
0.0238186 -0.0176747 -0.000302038
-0.0176747 0.0238753 0.000322618
-0.000302038 0.000322618 0.00176161
0.0132433 0.00743815 0.000328777
0.00743815 0.00546344 0.000204119
0.000328777 0.000204119 -0.00133109
0.007434 0.00127028 0.000446707
0.00127028 0.00564479 -2.90834e-05
0.000446707 -2.90834e-05 -0.000145444
0.049406 -0.0144954 -0.00204239
-0.0144954 0.0217749 -0.000489798
-0.00204239 -0.000489798 0.00543126
0.0129051 -0.000192896 0.000435422
-0.000192896 0.00853243 0.000681015
0.000435422 0.000681015 0.00105117
0.00180676 0.000420844 -0.000319579
0.000420844 0.00732096 0.000166831
-0.000319579 0.000166831 -0.00217997
-0.00108447 -0.00338724 -5.83431e-05
-0.00338724 0.00338057 0.000172275
-5.83431e-05 0.000172275 -0.000272801
-0.00171396 -0.00136354 0.000217433
-0.00136354 0.00348292 0.000120168
0.000217433 0.000120168 0.00080031
0.0487394 -0.0285803 0.000142608
-0.0285803 0.0351121 0.000563375
0.000142608 0.000563375 0.0105137
0.00383158 0.00350245 -0.000245023
0.00350245 0.00798694 -0.000154303
-0.000245023 -0.000154303 -0.00181012
0.019959 -0.0079 -8.20414e-06
-0.0079 0.0176728 0.000212681
-8.20414e-06 0.000212681 0.0012724
-0.000527771 0.0023257 1.39991e-05
0.0023257 0.00305795 -4.92087e-05
1.39991e-05 -4.92087e-05 0.000356737
0.00325379 0.00901057 -0.000391139
0.00901057 0.0040419 4.63642e-05
-0.000391139 4.63642e-05 -0.00115565
0.033066 -0.0122707 -0.000997014
-0.0122707 0.0198091 8.27633e-05
-0.000997014 8.27633e-05 0.0038066
0.00255823 0.00149134 -7.27988e-06
0.00149134 0.00127216 5.74883e-05
-7.27988e-06 5.74883e-05 0.000719222
9.47033e-06 0.000626629 2.66868e-06
0.000626629 0.000543113 1.62788e-06
2.66868e-06 1.62788e-06 -0.000399138
-0.000249285 0.00010828 -8.42285e-05
0.00010828 0.000547882 2.29178e-05
-8.42285e-05 2.29178e-05 -0.000305491
-0.00236364 -0.000451931 -0.000226708
-0.000451931 0.00268703 -5.04644e-05
-0.000226708 -5.04644e-05 0.000197856
-0.000583044 0.00074579 -9.41992e-05
0.00074579 0.000544849 -1.30322e-05
-9.41992e-05 -1.30322e-05 -0.000320979
-0.000330935 0.000368854 -2.24533e-05
0.000368854 0.000348472 6.50313e-06
-2.24533e-05 6.50313e-06 -0.000339464
0.00114471 0.00114244 -2.41251e-06
0.00114244 0.000798793 1.50923e-06
-2.41251e-06 1.50923e-06 8.45717e-05
-0.000595631 0.00177497 -0.000149628
0.00177497 0.00175654 -0.000115781
-0.000149628 -0.000115781 -0.000738066
0.00320488 0.00392836 0.000120312
0.00392836 0.00185626 6.24339e-05
0.000120312 6.24339e-05 -0.000144448
-0.00672897 0.00289035 0.000883212
0.00289035 0.00655793 -5.01301e-05
0.000883212 -5.01301e-05 -0.00250172
0.000140187 -0.00196658 -0.000111114
-0.00196658 0.00205669 7.48755e-05
-0.000111114 7.48755e-05 -0.00154602
-0.00154638 0.00101597 -0.000127974
0.00101597 0.00660886 0.000163559
-0.000127974 0.000163559 9.39543e-05
-0.00242298 -0.000729365 -7.45378e-05
-0.000729365 0.00127307 -5.52003e-07
-7.45378e-05 -5.52003e-07 -0.00120223
-0.000993461 -0.00217434 5.7007e-05
-0.00217434 0.0026101 -1.89347e-05
5.7007e-05 -1.89347e-05 0.000975306
-0.00579742 -0.00359056 -0.00017684
-0.00359056 0.000124394 0.000152884
-0.00017684 0.000152884 -0.00569468
-0.000526708 -0.00985371 0.000688612
-0.00985371 0.00492705 -0.000385225
0.000688612 -0.000385225 -0.00475815
0.0262909 0.0106633 0.00104499
0.0106633 0.0162164 -0.000154497
0.00104499 -0.000154497 0.000782873
0.0331138 0.0201738 -0.000158705
0.0201738 0.0262213 0.000846111
-0.000158705 0.000846111 0.00285478
0.000179132 -0.00234275 -6.4583e-05
-0.00234275 0.00239775 2.22956e-05
-6.4583e-05 2.22956e-05 0.000161305
0.0111227 0.00707067 0.000749064
0.00707067 0.0196485 -1.83996e-05
0.000749064 -1.83996e-05 0.00558401
0.0145195 0.00947071 0.000176728
0.00947071 0.00900651 0.000165193
0.000176728 0.000165193 -0.00157105
0.00334644 -0.00831963 9.6856e-05
-0.00831963 0.00194953 -4.74814e-05
9.6856e-05 -4.74814e-05 8.52958e-05
0.0107433 -0.0126112 -2.91602e-06
-0.0126112 -0.00220327 2.15165e-05
-2.91602e-06 2.15165e-05 -0.00147903
0.00215048 -0.00389737 5.37059e-05
-0.00389737 0.00102494 -1.79801e-05
5.37059e-05 -1.79801e-05 -4.51155e-06
0.00392827 0.00737729 -0.00240778
0.00737729 0.00719952 -0.000128807
-0.00240778 -0.000128807 -0.00561108
0.0141888 -0.0081684 -0.000766491
-0.0081684 -0.00564947 0.000176517
-0.000766491 0.000176517 -0.00185887
0.00537264 -0.00870803 0.000129225
-0.00870803 -0.00163905 -8.31958e-05
0.000129225 -8.31958e-05 0.000374438
0.000283616 -0.00114874 -1.70762e-05
-0.00114874 0.00102127 -1.24599e-05
-1.70762e-05 -1.24599e-05 -0.000257678
0.00222692 -0.00233447 5.96008e-05
-0.00233447 0.000936094 -2.86326e-05
5.96008e-05 -2.86326e-05 -0.000190374
0.0018731 -0.00195042 -2.33575e-05
-0.00195042 4.87663e-06 -1.40421e-05
-2.33575e-05 -1.40421e-05 -0.000647619
-0.000645714 -0.00113458 -1.22034e-06
-0.00113458 -0.000539458 -2.3344e-07
-1.22034e-06 -2.3344e-07 -0.00132577
0.00242364 -0.00197682 -7.36176e-06
-0.00197682 0.000440225 2.40028e-06
-7.36176e-06 2.40028e-06 -0.00031725
0.00476768 -0.00215511 -5.7818e-06
-0.00215511 0.00137945 -3.15656e-06
-5.7818e-06 -3.15656e-06 0.00069217
0.00189524 -0.00165367 1.66558e-05
-0.00165367 0.000445923 8.06407e-06
1.66558e-05 8.06407e-06 -0.000670328
0.00325949 -0.00201817 -1.00527e-06
-0.00201817 0.000775498 4.12781e-06
-1.00527e-06 4.12781e-06 -0.000147169
0.00318913 -0.00152526 -3.44429e-06
-0.00152526 0.000375626 -1.6204e-06
-3.44429e-06 -1.6204e-06 -2.32666e-05
0.00268211 -0.00177031 8.36091e-06
-0.00177031 0.000724392 3.72734e-06
8.36091e-06 3.72734e-06 -0.000282921
0.00305838 -0.00138987 -4.43454e-06
-0.00138987 0.000502168 4.33347e-06
-4.43454e-06 4.33347e-06 -5.38819e-05
0.00266122 -0.000926385 3.19912e-07
-0.000926385 1.70269e-06 -1.58317e-06
3.19912e-07 -1.58317e-06 -0.000111412
0.00270417 -0.00092718 -3.35749e-06
-0.00092718 0.000180609 -4.47982e-07
-3.35749e-06 -4.47982e-07 5.35961e-05
0.00250258 -0.000854131 -5.53094e-06
-0.000854131 0.000129186 2.68455e-08
-5.53094e-06 2.68455e-08 -0.000112145
0.00247123 -0.000834521 1.28415e-06
-0.000834521 1.05874e-05 2.63002e-06
1.28415e-06 2.63002e-06 -0.000171626
0.00236379 -0.00103774 -7.60174e-06
-0.00103774 0.000169531 -3.98698e-06
-7.60174e-06 -3.98698e-06 -0.000320104
0.00272876 -0.00119514 4.28155e-06
-0.00119514 0.000367232 6.40623e-07
4.28155e-06 6.40623e-07 -0.000194337
0.00288578 -0.001268 4.77953e-06
-0.001268 0.000437784 5.55566e-06
4.77953e-06 5.55566e-06 -0.000139555
0.00276461 -0.00137151 -9.18838e-06
-0.00137151 0.000694749 -7.57905e-06
-9.18838e-06 -7.57905e-06 -3.62931e-05
0.00331858 -0.00156075 2.66529e-06
-0.00156075 0.00103078 -1.21244e-06
2.66529e-06 -1.21244e-06 0.000215819
0.00378639 -0.00182177 -2.25756e-06
-0.00182177 0.00130216 2.4336e-07
-2.25756e-06 2.4336e-07 0.000347574
0.00171939 -0.00112491 2.90877e-06
-0.00112491 0.000319715 -1.60493e-05
2.90877e-06 -1.60493e-05 -0.000444961
0.00294499 -0.00161947 1.77366e-06
-0.00161947 0.00112774 -1.85463e-06
1.77366e-06 -1.85463e-06 0.000173924
0.00224618 -0.00162856 1.45828e-06
-0.00162856 0.00070863 5.33588e-06
1.45828e-06 5.33588e-06 -0.00025209
0.000827179 -0.000563665 -1.91079e-05
-0.000563665 5.98824e-05 -1.83136e-05
-1.91079e-05 -1.83136e-05 -0.000327654
0.00118921 -0.000913628 4.61144e-06
-0.000913628 0.000373294 3.21927e-06
4.61144e-06 3.21927e-06 -0.000309942
0.00144514 -0.00119262 1.45238e-05
-0.00119262 0.00053955 8.692e-06
1.45238e-05 8.692e-06 -0.000319532
0.00030756 -0.000268556 -2.78207e-05
-0.000268556 -0.000247195 2.49263e-05
-2.78207e-05 2.49263e-05 -0.000411655
0.00116808 -0.000521049 3.33641e-06
-0.000521049 0.000431958 6.56596e-07
3.33641e-06 6.56596e-07 1.96128e-05
-0.00152584 -0.000628065 -9.14843e-06
-0.000628065 -0.00112543 -9.62688e-06
-9.14843e-06 -9.62688e-06 -0.00168406
0.00741647 0.000380153 2.63554e-05
0.000380153 0.00476994 1.29284e-05
2.63554e-05 1.29284e-05 0.00468097
0.00038257 -0.000261467 -7.16728e-09
-0.000261467 -0.000154772 -1.21309e-07
-7.16728e-09 -1.21309e-07 -0.000315769
0.000683681 -0.000287318 -1.9528e-05
-0.000287318 0.000147627 1.19816e-05
-1.9528e-05 1.19816e-05 -0.000265215
0.0057899 0.000155734 2.98424e-05
0.000155734 0.00363671 1.4729e-06
2.98424e-05 1.4729e-06 0.0036173
0.000986991 -0.000204665 1.89218e-05
-0.000204665 0.000304269 -2.19237e-05
1.89218e-05 -2.19237e-05 0.000162917
0.00511789 0.000130522 0.000115563
0.000130522 0.00317626 -1.5497e-05
0.000115563 -1.5497e-05 0.00316462
0.00237213 0.000704127 -1.0323e-05
0.000704127 0.00123298 3.45041e-05
-1.0323e-05 3.45041e-05 0.000656674
0.00137748 0.000486432 4.37212e-06
0.000486432 0.000621192 7.90588e-07
4.37212e-06 7.90588e-07 0.000165536
-0.000339358 0.000945045 4.44548e-06
0.000945045 -0.000355682 1.8703e-05
4.44548e-06 1.8703e-05 -0.000845392
0.00214461 0.00048846 -4.41678e-06
0.00048846 0.00116369 -1.53385e-05
-4.41678e-06 -1.53385e-05 0.000853593
0.000994487 0.000331168 -3.79031e-07
0.000331168 0.000681338 8.69304e-07
-3.79031e-07 8.69304e-07 0.000115908
-0.000633607 0.000297321 -3.42561e-06
0.000297321 -0.000262372 1.37605e-05
-3.42561e-06 1.37605e-05 -0.000890229
0.000727286 5.89835e-05 -5.02654e-06
5.89835e-05 0.000240042 -1.92727e-05
-5.02654e-06 -1.92727e-05 0.000128416
0.000729972 0.000228827 -4.15965e-07
0.000228827 0.000310885 2.23248e-06
-4.15965e-07 2.23248e-06 1.7262e-05
0.000403068 0.000201728 -1.05153e-05
0.000201728 0.00018666 4.02763e-05
-1.05153e-05 4.02763e-05 -0.000232854
0.00434745 -0.000103284 -7.85828e-05
-0.000103284 0.00266426 -1.21418e-05
-7.85828e-05 -1.21418e-05 0.00266073
0.000280444 -9.98945e-06 6.70048e-07
-9.98945e-06 -4.92461e-05 -2.95961e-07
6.70048e-07 -2.95961e-07 -0.000131892
0.000541824 0.000114052 -5.33268e-06
0.000114052 0.000213291 7.9884e-06
-5.33268e-06 7.9884e-06 -6.80877e-05
0.00374251 -8.15052e-05 -1.34193e-05
-8.15052e-05 0.00225138 1.40211e-06
-1.34193e-05 1.40211e-06 0.00224898
0.000446655 5.94362e-05 2.58501e-06
5.94362e-05 4.70732e-05 1.42698e-05
2.58501e-06 1.42698e-05 -1.66363e-05
0.00315421 -5.90939e-05 3.29321e-05
-5.90939e-05 0.00184671 8.89524e-06
3.29321e-05 8.89524e-06 0.00184852
0.00286281 -0.00345779 -0.000883896
-0.00345779 0.00949579 0.000249378
-0.000883896 0.000249378 -0.0018213
0.00643905 0.00246279 0.000175192
0.00246279 0.00513814 4.46387e-06
0.000175192 4.46387e-06 0.00017797
0.000830695 0.00292175 0.000539132
0.00292175 0.00528375 0.000211438
0.000539132 0.000211438 -0.00113398
-0.000196107 0.000448508 2.91242e-06
0.000448508 -0.000213683 2.67182e-06
2.91242e-06 2.67182e-06 -0.000919952
0.00474494 0.00160217 -8.72439e-06
0.00160217 0.00263609 2.7348e-05
-8.72439e-06 2.7348e-05 0.00172007
-0.00195382 0.000227026 -4.20398e-05
0.000227026 -0.00099138 -1.37751e-05
-4.20398e-05 -1.37751e-05 -0.00185699
0.000992806 0.00040156 -7.20332e-06
0.00040156 0.000801575 -4.8413e-06
-7.20332e-06 -4.8413e-06 0.000249272
0.00163041 0.000654573 2.59767e-06
0.000654573 0.000523118 1.69787e-06
2.59767e-06 1.69787e-06 0.000158428
-0.00509444 7.04306e-05 5.04393e-05
7.04306e-05 -0.00349417 6.48049e-05
5.04393e-05 6.48049e-05 -0.0035439
-0.000896045 0.000501567 -8.92253e-07
0.000501567 -0.000275191 -3.86377e-07
-8.92253e-07 -3.86377e-07 -0.000844532
-2.01389e-06 0.000467304 -1.45136e-05
0.000467304 -0.000139989 -1.12581e-06
-1.45136e-05 -1.12581e-06 -0.000701173
0.000629221 0.001364 -6.90837e-05
0.001364 0.000519115 -1.46994e-05
-6.90837e-05 -1.46994e-05 -0.000459229
-0.000618951 0.00108786 -7.48747e-05
0.00108786 -0.000545702 7.21545e-05
-7.48747e-05 7.21545e-05 -0.00114315
0.00028843 0.000323895 -8.18671e-06
0.000323895 0.000434653 3.9876e-05
-8.18671e-06 3.9876e-05 -7.82206e-05
0.00226504 0.00105463 3.46066e-05
0.00105463 0.00167649 1.14866e-06
3.46066e-05 1.14866e-06 0.000819799
0.0132237 -0.01088 -0.00429565
-0.01088 0.0101747 0.000864255
-0.00429565 0.000864255 -0.00373459
0.0154629 -0.0141839 0.00147078
-0.0141839 0.0231924 -0.000303039
0.00147078 -0.000303039 0.00466948
0.0120238 0.00735288 -0.00166429
0.00735288 0.00378374 -0.00045115
-0.00166429 -0.00045115 -0.00406374
0.0483768 -0.0340819 0.00133285
-0.0340819 0.0358914 0.00181394
0.00133285 0.00181394 0.00954941
0.0348416 -0.00867602 -0.000490021
-0.00867602 0.019353 0.000760859
-0.000490021 0.000760859 0.00572948
0.00265567 0.00362883 -0.000279248
0.00362883 0.00702161 -0.00033809
-0.000279248 -0.00033809 -0.00142851
0.000934013 -0.000974035 -0.000358661
-0.000974035 0.00583584 9.00943e-05
-0.000358661 9.00943e-05 0.00212022
-0.000194453 0.00250073 -4.75058e-05
0.00250073 0.003351 4.25767e-06
-4.75058e-05 4.25767e-06 0.000609868
0.0391255 -0.0123794 -0.00124475
-0.0123794 0.0215474 0.000600381
-0.00124475 0.000600381 0.00516017
-0.000656294 0.00992318 -0.000538707
0.00992318 0.00258599 -6.18723e-05
-0.000538707 -6.18723e-05 -0.00361664
0.000861197 0.0061877 -7.04851e-05
0.0061877 0.000989689 -0.000189757
-7.04851e-05 -0.000189757 0.000168721
0.00680173 0.016046 -0.0014932
0.016046 -0.00568879 -0.000260289
-0.0014932 -0.000260289 -0.0041973
0.00416847 0.00242398 2.28885e-05
0.00242398 0.00182493 4.13661e-05
2.28885e-05 4.13661e-05 0.000996581
0.0023066 0.00138828 -2.40492e-05
0.00138828 0.00110923 -7.66533e-06
-2.40492e-05 -7.66533e-06 0.000647388
-0.000710404 0.000440382 -6.04906e-05
0.000440382 4.31564e-05 -2.63986e-06
-6.04906e-05 -2.63986e-06 -0.000793341
0.0014136 0.00241066 -0.000138142
0.00241066 0.00279692 -9.11258e-05
-0.000138142 -9.11258e-05 0.000363362
0.00187341 0.00136533 -7.35328e-05
0.00136533 0.00122786 -8.149e-05
-7.35328e-05 -8.149e-05 0.000505896
0.00312471 0.00397625 2.62583e-06
0.00397625 0.00151702 -1.85011e-05
2.62583e-06 -1.85011e-05 -0.000311702
0.00167636 0.00467723 0.000263964
0.00467723 -0.000881832 0.00016639
0.000263964 0.00016639 -0.00166271
-0.00750825 -0.00062348 -0.00242005
-0.00062348 0.00624125 -6.67863e-05
-0.00242005 -6.67863e-05 -0.00755167
-0.0083331 0.00168777 0.00153208
0.00168777 0.00715604 -7.38327e-05
0.00153208 -7.38327e-05 2.99407e-05
-0.000771896 0.00134838 -0.000296427
0.00134838 0.00263878 5.93659e-05
-0.000296427 5.93659e-05 -0.000628685
0.000440469 -0.0027054 -0.000103026
-0.0027054 0.00197783 -7.4345e-05
-0.000103026 -7.4345e-05 -0.000356607
0.00285686 -0.0076249 0.000147089
-0.0076249 0.00202253 0.000104424
0.000147089 0.000104424 9.90165e-05
0.00729427 0.00710062 0.00168277
0.00710062 0.018106 0.000545484
0.00168277 0.000545484 0.00458139
0.00523253 -0.013163 0.00162279
-0.013163 -0.00702876 -0.000412262
0.00162279 -0.000412262 -0.00392195
0.0214003 0.0108838 0.00286877
0.0108838 0.0186951 0.000595764
0.00286877 0.000595764 0.0054135
0.00371839 -0.00515063 -1.79026e-05
-0.00515063 0.0015523 -1.39709e-05
-1.79026e-05 -1.39709e-05 -9.70749e-05
0.0111818 0.00939091 0.000566868
0.00939091 0.0101682 -0.000218104
0.000566868 -0.000218104 -0.00288522
0.00832019 -0.0088296 -0.000530729
-0.0088296 -0.0103068 0.000251212
-0.000530729 0.000251212 -0.00537441
0.00409037 -0.00753472 -0.000114072
-0.00753472 -0.00160637 0.000112692
-0.000114072 0.000112692 0.000591033
0.0034786 -0.00403559 7.18194e-05
-0.00403559 -0.000450278 -4.68425e-05
7.18194e-05 -4.68425e-05 -2.53525e-05
0.0156004 -0.0019979 -8.64491e-05
-0.0019979 -0.00381245 0.000174402
-8.64491e-05 0.000174402 -0.00100888
0.0043761 -0.00528333 0.000137895
-0.00528333 -0.00546807 -0.000217735
0.000137895 -0.000217735 -0.000419756
0.0041462 -0.00288114 -0.000106844
-0.00288114 0.00192763 6.02814e-05
-0.000106844 6.02814e-05 0.00073842
0.00110085 -0.00183376 -1.09951e-05
-0.00183376 -0.000459144 1.99134e-06
-1.09951e-05 1.99134e-06 -0.000903643
0.00575003 -0.00213001 4.09418e-05
-0.00213001 0.00166608 -3.04752e-05
4.09418e-05 -3.04752e-05 0.00128636
-0.000411604 -0.00156277 -6.17456e-06
-0.00156277 -0.00105161 5.09953e-06
-6.17456e-06 5.09953e-06 -0.0016796
0.0031961 -0.00192968 1.07752e-06
-0.00192968 0.00055665 -3.69491e-07
1.07752e-06 -3.69491e-07 -2.7061e-05
0.00373825 -0.00152687 -3.67413e-06
-0.00152687 0.000508734 -2.47807e-06
-3.67413e-06 -2.47807e-06 0.000364948
0.00313326 -0.00199191 1.54375e-05
-0.00199191 0.000699522 1.27471e-05
1.54375e-05 1.27471e-05 -0.000211351
0.00317705 -0.00150432 -4.4944e-06
-0.00150432 0.000373893 1.98907e-06
-4.4944e-06 1.98907e-06 -7.73976e-06
0.00287009 -0.00101391 -1.30392e-06
-0.00101391 -6.16552e-05 -4.45109e-07
-1.30392e-06 -4.45109e-07 8.8587e-06
0.00253541 -0.0013069 5.10738e-06
-0.0013069 0.000192088 8.05121e-06
5.10738e-06 8.05121e-06 -0.00033491
0.00259643 -0.000915673 -7.71541e-08
-0.000915673 -4.89459e-05 3.09858e-06
-7.71541e-08 3.09858e-06 -0.000150075
0.00275672 -0.000973699 -1.88882e-06
-0.000973699 3.33618e-05 2.94753e-08
-1.88882e-06 2.94753e-08 -1.18663e-05
0.00272765 -0.000933142 -4.26454e-06
-0.000933142 0.000117681 -6.36115e-07
-4.26454e-06 -6.36115e-07 -7.50082e-06
0.00264582 -0.000926288 -3.71583e-06
-0.000926288 0.000128446 1.63834e-06
-3.71583e-06 1.63834e-06 1.12342e-05
0.00258776 -0.000889304 -6.54621e-07
-0.000889304 0.000190843 -1.3596e-06
-6.54621e-07 -1.3596e-06 1.49616e-05
0.00271745 -0.000894475 -6.36771e-06
-0.000894475 0.000366411 -8.26408e-07
-6.36771e-06 -8.26408e-07 7.18317e-05
0.00263961 -0.000850928 1.50709e-06
-0.000850928 0.000238786 1.41385e-06
1.50709e-06 1.41385e-06 -8.05101e-06
0.0024165 -0.000827406 5.05452e-06
-0.000827406 -4.36257e-05 6.27644e-06
5.05452e-06 6.27644e-06 -0.000224954
0.00238616 -0.00104034 -8.36271e-06
-0.00104034 0.000232789 -6.70688e-06
-8.36271e-06 -6.70688e-06 -0.00025991
0.00242457 -0.00106496 -6.66944e-07
-0.00106496 0.000198574 -4.18518e-08
-6.66944e-07 -4.18518e-08 -0.000300729
0.00289918 -0.00120519 9.83745e-06
-0.00120519 0.000497641 4.49086e-06
9.83745e-06 4.49086e-06 -5.9432e-05
0.002187 -0.00124078 -1.03841e-06
-0.00124078 0.000324411 -1.11768e-05
-1.03841e-06 -1.11768e-05 -0.000386515
0.00297285 -0.00141531 -1.86191e-06
-0.00141531 0.000796429 6.9564e-07
-1.86191e-06 6.9564e-07 4.99311e-05
0.00291409 -0.00152557 5.63605e-06
-0.00152557 0.000766432 3.59501e-06
5.63605e-06 3.59501e-06 -4.61513e-05
0.00049366 -0.000512765 -2.04068e-05
-0.000512765 -0.0003634 4.04288e-06
-2.04068e-05 4.04288e-06 -0.000830164
0.0023938 -0.00121478 -2.50054e-06
-0.00121478 0.000770047 2.3592e-06
-2.50054e-06 2.3592e-06 -1.50497e-05
0.00307491 -0.0016347 1.36528e-05
-0.0016347 0.00118494 1.04523e-05
1.36528e-05 1.04523e-05 0.00022713
0.000727609 -0.000287389 -2.99478e-05
-0.000287389 4.08232e-05 2.82736e-05
-2.99478e-05 2.82736e-05 -0.00016761
0.00130415 -0.00057664 -1.0496e-05
-0.00057664 0.000394259 -2.88444e-06
-1.0496e-05 -2.88444e-06 -3.40677e-05
-0.000231512 -0.000887575 -8.80475e-06
-0.000887575 -0.000510459 6.88553e-06
-8.80475e-06 6.88553e-06 -0.00122727
0.00859339 0.000174433 -0.000256098
0.000174433 0.00548064 2.37195e-05
-0.000256098 2.37195e-05 0.00546139
0.000862828 -0.000280401 -2.35707e-06
-0.000280401 0.000122494 -6.36002e-07
-2.35707e-06 -6.36002e-07 -5.60141e-05
6.19476e-05 -0.000629065 1.21005e-05
-0.000629065 -0.000159677 1.50923e-05
1.21005e-05 1.50923e-05 -0.000657715
0.00478812 0.000127452 0.000119775
0.000127452 0.00296039 -5.83608e-06
0.000119775 -5.83608e-06 0.00290802
0.000986465 -0.000246573 2.33739e-05
-0.000246573 0.000241542 -2.3495e-05
2.33739e-05 -2.3495e-05 7.16265e-05
0.0068636 9.50945e-05 0.000220735
9.50945e-05 0.00433303 -2.17535e-05
0.000220735 -2.17535e-05 0.00432776
0.000936737 0.000821759 -3.89278e-05
0.000821759 9.30775e-05 1.35242e-05
-3.89278e-05 1.35242e-05 -0.000603881
0.0015551 0.000597217 -1.07255e-05
0.000597217 0.000712806 -1.78627e-06
-1.07255e-05 -1.78627e-06 0.000157094
-0.00044449 0.000276013 1.52955e-05
0.000276013 -0.000652632 5.82534e-05
1.52955e-05 5.82534e-05 -0.00104232
0.00180829 0.000509728 4.3984e-06
0.000509728 0.000802171 -2.14132e-05
4.3984e-06 -2.14132e-05 0.000390458
0.00172195 0.000414357 5.73793e-06
0.000414357 0.000957719 -2.34517e-06
5.73793e-06 -2.34517e-06 0.000501224
0.00199247 0.000475514 1.48558e-06
0.000475514 0.00110705 1.13192e-06
1.48558e-06 1.13192e-06 0.000714112
0.00122329 0.000207355 -2.37495e-05
0.000207355 0.000516169 -2.74709e-05
-2.37495e-05 -2.74709e-05 0.00037481
0.000917146 0.000322608 -2.49392e-07
0.000322608 0.000458822 1.22298e-06
-2.49392e-07 1.22298e-06 0.000107215
-0.000666665 0.000117113 -2.02833e-05
0.000117113 -0.000443761 3.50799e-05
-2.02833e-05 3.50799e-05 -0.000977118
0.0038326 -7.93881e-05 -0.000110545
-7.93881e-05 0.00231627 -1.76824e-05
-0.000110545 -1.76824e-05 0.0023184
0.00050288 0.000126091 3.5801e-07
0.000126091 9.5762e-05 -7.84465e-07
3.5801e-07 -7.84465e-07 -1.04738e-05
0.00094678 0.000271733 -1.27785e-06
0.000271733 0.00047395 1.49176e-05
-1.27785e-06 1.49176e-05 0.000166536
0.0035731 -8.89191e-05 -9.72897e-06
-8.89191e-05 0.00214285 7.31026e-07
-9.72897e-06 7.31026e-07 0.00214043
0.000156363 1.37695e-05 6.78077e-06
1.37695e-05 -0.000128798 1.56639e-05
6.78077e-06 1.56639e-05 -0.000207778
0.00346934 -8.5867e-05 4.21717e-05
-8.5867e-05 0.00206833 1.03434e-05
4.21717e-05 1.03434e-05 0.00206438
0.00496653 -0.0062894 -0.00355458
-0.0062894 0.00742045 0.000384737
-0.00355458 0.000384737 0.000861921
0.00432377 -0.00566538 -0.000441754
-0.00566538 0.0120155 -9.09957e-05
-0.000441754 -9.09957e-05 -0.000691566
0.00642093 0.00211199 -0.000838426
0.00211199 0.00431268 -0.000211011
-0.000838426 -0.000211011 -0.000390514
0.00191878 0.000502482 2.32693e-05
0.000502482 0.00101836 1.97954e-05
2.32693e-05 1.97954e-05 0.000414858
0.00149707 0.000493511 1.86186e-05
0.000493511 0.00100657 -5.20878e-06
1.86186e-05 -5.20878e-06 0.000222632
0.00190358 0.00118834 -2.10017e-06
0.00118834 0.000896259 -1.30195e-06
-2.10017e-06 -1.30195e-06 2.32671e-06
0.00281046 0.00160192 4.19415e-08
0.00160192 0.00117877 1.75363e-05
4.19415e-08 1.75363e-05 0.000249578
0.00185144 0.00140415 -6.94674e-05
0.00140415 0.0011779 1.01337e-05
-6.94674e-05 1.01337e-05 9.30741e-05
0.00623946 0.00102377 1.89404e-05
0.00102377 0.00391183 1.85252e-05
1.89404e-05 1.85252e-05 0.00347536
0.00158689 0.000718685 3.884e-05
0.000718685 0.000990969 3.62061e-05
3.884e-05 3.62061e-05 0.000334323
0.00303416 0.00140532 -5.38873e-06
0.00140532 0.00188302 -2.92001e-07
-5.38873e-06 -2.92001e-07 0.000961206
0.00298321 0.00186512 -4.37072e-05
0.00186512 0.00127314 -4.3661e-07
-4.37072e-05 -4.3661e-07 0.000341173
0.00250808 0.00172545 -3.90533e-05
0.00172545 0.00096337 5.59372e-05
-3.90533e-05 5.59372e-05 0.00030809
0.00245069 0.00238958 4.40555e-05
0.00238958 0.000289897 -2.91262e-05
4.40555e-05 -2.91262e-05 -0.00043284
0.0015292 0.00145406 1.78041e-05
0.00145406 0.000679274 1.04833e-05
1.78041e-05 1.04833e-05 -2.84079e-05
0.00366193 0.00132054 -1.53547e-05
0.00132054 0.00252653 5.88077e-07
-1.53547e-05 5.88077e-07 0.00150323
0.0185165 0.00904124 -0.000259636
0.00904124 -0.00323398 0.000111412
-0.000259636 0.000111412 0.00102297
0.0213431 -0.00788808 -0.0010811
-0.00788808 0.0125394 -0.000122134
-0.0010811 -0.000122134 0.0021244
0.0151666 -0.0132944 0.00222786
-0.0132944 0.0248808 -0.000191351
0.00222786 -0.000191351 0.00788697
0.0320842 -0.00931912 0.000506587
-0.00931912 0.016555 0.000176457
0.000506587 0.000176457 0.00215838
0.00652776 0.010851 -0.000394406
0.010851 0.0048379 -0.000193614
-0.000394406 -0.000193614 -0.000640594
0.00158105 0.0029135 8.93652e-05
0.0029135 0.00444938 7.06638e-05
8.93652e-05 7.06638e-05 0.00155806
0.0017445 0.00604116 -0.000227836
0.00604116 0.001512 -0.000145897
-0.000227836 -0.000145897 0.000981209
0.00963656 0.0130017 0.000179448
0.0130017 -0.00154163 0.000170457
0.000179448 0.000170457 -0.00144481
0.00832657 0.00927274 -0.000217038
0.00927274 -0.00118171 -0.00019069
-0.000217038 -0.00019069 9.47035e-05
0.0015588 0.0023805 2.30499e-06
0.0023805 -7.38714e-05 -4.27023e-05
2.30499e-06 -4.27023e-05 -0.000627099
0.00276603 0.00211562 1.86611e-05
0.00211562 0.00107105 6.81188e-06
1.86611e-05 6.81188e-06 0.000331211
0.00170427 0.00123158 2.02505e-05
0.00123158 0.000795046 -5.02749e-05
2.02505e-05 -5.02749e-05 0.000361597
0.00268725 0.00403586 -9.99531e-05
0.00403586 0.00101174 -7.57166e-05
-9.99531e-05 -7.57166e-05 -0.000743772
0.00587298 0.00515807 0.00011993
0.00515807 0.00114636 4.35648e-05
0.00011993 4.35648e-05 -0.000106434
0.00872842 -7.88256e-05 -7.64299e-06
-7.88256e-05 -0.00729489 -7.47125e-06
-7.64299e-06 -7.47125e-06 -0.00825884
0.00266645 -0.00301727 -4.96199e-05
-0.00301727 0.0100037 2.20017e-05
-4.96199e-05 2.20017e-05 0.000640156
-0.0107081 0.000210119 0.00245566
0.000210119 0.00835792 5.84269e-05
0.00245566 5.84269e-05 0.00305189
0.00460189 -0.00634527 -0.00026724
-0.00634527 0.00149079 0.000171137
-0.00026724 0.000171137 -0.000662592
0.0073345 -0.00923752 -8.28284e-05
-0.00923752 -0.0010911 0.000164545
-8.28284e-05 0.000164545 0.00066552
0.0129525 0.00533288 0.00321117
0.00533288 0.00975459 -0.000160171
0.00321117 -0.000160171 0.00300717
0.0114619 -0.0077596 -0.000510469
-0.0077596 -0.00732948 0.000381264
-0.000510469 0.000381264 -0.00177412
0.00379475 -0.00421562 -3.34557e-05
-0.00421562 -0.000466053 1.63918e-05
-3.34557e-05 1.63918e-05 -0.000239939
0.0134178 -0.00176695 -0.000498056
-0.00176695 -0.00623067 0.000184531
-0.000498056 0.000184531 -0.00383298
0.00762781 -0.00609 0.000109738
-0.00609 -0.00332231 -1.54343e-05
0.000109738 -1.54343e-05 0.000546396
0.00372098 -0.00312554 7.4278e-05
-0.00312554 -0.00179034 -9.12857e-05
7.4278e-05 -9.12857e-05 -0.000272623
0.00468536 -0.00252302 0.000200793
-0.00252302 -0.00496435 -6.73619e-05
0.000200793 -6.73619e-05 0.000316396
0.000637271 -0.00180752 5.64603e-06
-0.00180752 -0.000785373 2.71894e-05
5.64603e-06 2.71894e-05 -0.00111296
0.00263432 -0.00172232 -3.61032e-05
-0.00172232 -0.000246837 1.23528e-05
-3.61032e-05 1.23528e-05 -0.000179108
0.0048372 -0.00151123 5.28307e-05
-0.00151123 0.000877692 -3.2031e-05
5.28307e-05 -3.2031e-05 0.001085
0.00146972 -0.00167825 -3.32815e-06
-0.00167825 -0.000346205 9.75091e-06
-3.32815e-06 9.75091e-06 -0.000816904
0.0032217 -0.00149944 -6.13168e-06
-0.00149944 0.000201637 2.40034e-06
-6.13168e-06 2.40034e-06 7.21365e-05
0.00320242 -0.00108495 2.36695e-06
-0.00108495 -3.03984e-05 -1.51917e-06
2.36695e-06 -1.51917e-06 0.000133439
0.0031315 -0.00147629 -1.27098e-05
-0.00147629 0.000359899 1.0274e-05
-1.27098e-05 1.0274e-05 -4.2004e-06
0.00281489 -0.00100912 -3.56471e-07
-0.00100912 -9.03554e-05 1.19413e-06
-3.56471e-07 1.19413e-06 -2.61539e-05
0.00290903 -0.00095226 -2.0294e-06
-0.00095226 -3.60141e-05 -4.88295e-07
-2.0294e-06 -4.88295e-07 3.51918e-05
0.0025544 -0.000904196 3.17135e-06
-0.000904196 -7.89946e-05 5.24581e-06
3.17135e-06 5.24581e-06 -0.000169163
0.00276078 -0.000964601 -2.09406e-07
-0.000964601 5.33048e-05 4.88129e-07
-2.09406e-07 4.88129e-07 6.11892e-06
0.00283396 -0.000919354 -2.29691e-06
-0.000919354 3.95442e-05 -5.54094e-07
-2.29691e-06 -5.54094e-07 9.13204e-06
0.00269123 -0.000932878 -5.08347e-06
-0.000932878 9.03922e-05 5.32837e-07
-5.08347e-06 5.32837e-07 -2.513e-05
0.002659 -0.000876918 -8.32942e-07
-0.000876918 0.000122745 -1.18378e-06
-8.32942e-07 -1.18378e-06 -6.65756e-06
0.0025926 -0.000925928 1.69129e-07
-0.000925928 8.31286e-05 3.8171e-06
1.69129e-07 3.8171e-06 -2.54029e-05
0.00259834 -0.000890473 8.65065e-07
-0.000890473 0.000193613 -6.30398e-07
8.65065e-07 -6.30398e-07 2.55869e-05
0.00257229 -0.000870354 -2.10018e-06
-0.000870354 0.000258527 1.11423e-07
-2.10018e-06 1.11423e-07 2.8312e-05
0.00264125 -0.000917809 -1.11339e-06
-0.000917809 0.000387777 -3.85914e-06
-1.11339e-06 -3.85914e-06 3.28722e-05
0.00273456 -0.000888107 -2.83647e-07
-0.000888107 0.000376977 -3.73355e-07
-2.83647e-07 -3.73355e-07 7.62415e-05
0.002779 -0.000846846 8.62743e-06
-0.000846846 0.000352543 2.11267e-06
8.62743e-06 2.11267e-06 0.000100632
0.00239828 -0.00107014 1.53412e-06
-0.00107014 0.000351723 -7.34402e-06
1.53412e-06 -7.34402e-06 -0.000212931
0.00246937 -0.00106697 -3.37276e-06
-0.00106697 0.000279241 -8.3494e-07
-3.37276e-06 -8.3494e-07 -0.000227317
0.00247711 -0.00108756 8.32258e-06
-0.00108756 0.00022582 3.46458e-06
8.32258e-06 3.46458e-06 -0.000281537
0.00120787 -0.000732483 -2.07146e-05
-0.000732483 -3.72834e-05 6.60613e-07
-2.07146e-05 6.60613e-07 -0.000584517
0.00264484 -0.0012933 -2.10629e-06
-0.0012933 0.000652994 -2.32101e-07
-2.10629e-06 -2.32101e-07 -7.39931e-05
0.00310811 -0.00145116 8.34576e-06
-0.00145116 0.000845926 7.8931e-06
8.34576e-06 7.8931e-06 8.64594e-05
0.00018112 -0.000305431 -1.74046e-05
-0.000305431 -0.000310903 3.13291e-05
-1.74046e-05 3.13291e-05 -0.00056296
0.0010175 -0.000575443 4.35333e-06
-0.000575443 4.90978e-06 1.31306e-06
4.35333e-06 1.31306e-06 -0.000484965
0.00279121 -0.00125342 -2.85379e-06
-0.00125342 0.00103357 1.59412e-05
-2.85379e-06 1.59412e-05 0.000245692
0.00838791 -1.54952e-05 -0.00032338
-1.54952e-05 0.00529631 3.23759e-05
-0.00032338 3.23759e-05 0.00530841
0.000302408 -0.000319126 -9.86448e-06
-0.000319126 -0.000226442 5.39848e-07
-9.86448e-06 5.39848e-07 -0.000445886
0.00136319 -0.000666115 1.03323e-05
-0.000666115 0.000505045 9.32601e-06
1.03323e-05 9.32601e-06 1.40554e-05
0.00795001 9.26033e-05 8.95897e-06
9.26033e-05 0.00504188 -4.30114e-06
8.95897e-06 -4.30114e-06 0.00503555
0.000588446 -0.000322751 3.58623e-05
-0.000322751 -4.98953e-05 -2.64077e-05
3.58623e-05 -2.64077e-05 -0.000237158
0.00737978 0.000143084 0.000227291
0.000143084 0.00468429 -2.97511e-05
0.000227291 -2.97511e-05 0.00466698
0.00396562 0.00158491 -1.62066e-05
0.00158491 0.00191193 1.36609e-05
-1.62066e-05 1.36609e-05 0.000998089
0.0025002 0.00108645 -1.24768e-06
0.00108645 0.00117348 2.36463e-06
-1.24768e-06 2.36463e-06 0.000392077
-0.000833901 0.00055292 -1.67298e-05
0.00055292 -0.000847694 3.10213e-05
-1.67298e-05 3.10213e-05 -0.00148591
0.000691662 0.000439159 1.19423e-05
0.000439159 0.000165995 -1.2628e-05
1.19423e-05 -1.2628e-05 -0.000351338
-0.000223409 0.000500842 -8.22157e-07
0.000500842 -0.000435144 -1.31309e-05
-8.22157e-07 -1.31309e-05 -0.000875659
-0.00115585 0.000657321 2.70971e-06
0.000657321 -0.00105174 2.06807e-05
2.70971e-06 2.06807e-05 -0.00147619
0.000663891 0.000224978 -2.26903e-05
0.000224978 0.000255771 -2.25527e-05
-2.26903e-05 -2.25527e-05 -0.000210871
0.000459495 0.000544692 2.03628e-06
0.000544692 0.000113218 -4.28898e-07
2.03628e-06 -4.28898e-07 -0.000301581
0.000910122 0.000317258 -4.20013e-05
0.000317258 0.000214145 -2.89257e-05
-4.20013e-05 -2.89257e-05 4.87808e-05
0.00584138 -0.000139182 -0.000167569
-0.000139182 0.00369723 -3.1168e-05
-0.000167569 -3.1168e-05 0.00367951
0.000378514 0.000150477 3.9902e-06
0.000150477 -7.59887e-06 -8.89343e-07
3.9902e-06 -8.89343e-07 -0.000157836
-0.000160613 0.000203793 -2.73831e-06
0.000203793 -0.00019299 1.9413e-05
-2.73831e-06 1.9413e-05 -0.000577831
0.00462588 -0.00014577 -1.86354e-05
-0.00014577 0.00286923 2.2494e-06
-1.86354e-05 2.2494e-06 0.0028536
-0.000239754 -4.79392e-05 -1.34069e-05
-4.79392e-05 -0.000353109 1.94562e-05
-1.34069e-05 1.94562e-05 -0.000478331
0.00391524 -0.000112228 5.69104e-05
-0.000112228 0.00237835 1.25208e-05
5.69104e-05 1.25208e-05 0.00236966
0.015781 0.00144925 0.000971302
0.00144925 -0.0035084 0.000185535
0.000971302 0.000185535 0.000761682
0.007947 -0.011932 -0.00194217
-0.011932 0.00648981 0.00019916
-0.00194217 0.00019916 -0.00714245
0.00179992 -0.00306998 -0.000371989
-0.00306998 0.010887 -5.35895e-05
-0.000371989 -5.35895e-05 0.000380388
-0.000239992 0.000219656 1.67382e-05
0.000219656 -6.5273e-05 3.09221e-06
1.67382e-05 3.09221e-06 -0.00089527
0.00192507 0.00121394 3.65848e-05
0.00121394 0.000936084 -1.82076e-05
3.65848e-05 -1.82076e-05 1.23629e-05
0.00267442 0.0014477 -9.17962e-06
0.0014477 0.00148314 -1.30809e-05
-9.17962e-06 -1.30809e-05 0.000510198
0.00237501 0.00156739 -4.2299e-06
0.00156739 0.000925233 -9.24443e-07
-4.2299e-06 -9.24443e-07 -1.16173e-05
0.00236187 0.0014288 1.96097e-05
0.0014288 0.000624146 2.4762e-05
1.96097e-05 2.4762e-05 -0.000146883
0.00176703 0.0017457 -3.14966e-05
0.0017457 0.000481591 1.20869e-05
-3.14966e-05 1.20869e-05 -0.000392549
0.00338292 0.00136077 6.40117e-06
0.00136077 0.00196225 -1.30114e-05
6.40117e-06 -1.30114e-05 0.00107119
0.00251613 0.00182995 4.89053e-06
0.00182995 0.000961886 3.88957e-06
4.89053e-06 3.88957e-06 4.29627e-05
0.00350761 0.00175388 3.78509e-05
0.00175388 0.00172796 1.27794e-05
3.78509e-05 1.27794e-05 0.00086375
0.00335103 0.00177096 -1.07187e-06
0.00177096 0.00131446 1.08286e-05
-1.07187e-06 1.08286e-05 0.000453729
0.000981482 0.00165027 -5.72833e-06
0.00165027 -0.000196148 1.26781e-06
-5.72833e-06 1.26781e-06 -0.000830494
0.00561378 0.00268885 1.57305e-05
0.00268885 0.00199604 3.0898e-05
1.57305e-05 3.0898e-05 0.00104087
0.00307622 0.00238167 1.94797e-05
0.00238167 0.000720228 3.49979e-06
1.94797e-05 3.49979e-06 -1.35346e-05
0.00203007 0.00141383 -3.31658e-05
0.00141383 0.000907299 -0.000111557
-3.31658e-05 -0.000111557 0.000215434
0.00639062 0.00505644 5.72618e-05
0.00505644 -0.00545773 0.000122437
5.72618e-05 0.000122437 0.000494266
0.0122621 0.010527 0.00074745
0.010527 -0.00793722 0.000335766
0.00074745 0.000335766 -0.00328844
0.0239645 -0.0121725 0.00180111
-0.0121725 0.0161046 -0.00082042
0.00180111 -0.00082042 0.00193324
0.00174741 0.0160954 0.00185844
0.0160954 -0.00526704 0.000568438
0.00185844 0.000568438 -0.00503039
-0.00092111 0.00469197 1.39445e-05
0.00469197 0.000766778 5.15814e-05
1.39445e-05 5.15814e-05 0.000166654
0.00336661 0.00573962 -0.000172317
0.00573962 -0.0021439 -0.000149195
-0.000172317 -0.000149195 9.27975e-05
0.00787344 0.00460018 4.49164e-05
0.00460018 0.000762459 1.97355e-05
4.49164e-05 1.97355e-05 0.00067929
0.0060314 0.00336918 1.45824e-05
0.00336918 0.00199025 1.3083e-05
1.45824e-05 1.3083e-05 0.00111495
0.00182146 0.00191762 2.93968e-06
0.00191762 0.000562707 -3.98732e-05
2.93968e-06 -3.98732e-05 -0.000134045
0.00899729 0.00547196 -0.000138457
0.00547196 0.00249397 0.000103767
-0.000138457 0.000103767 0.000999467
0.00688695 -0.000963664 0.000315384
-0.000963664 -0.00495585 9.67312e-05
0.000315384 9.67312e-05 0.000451122
0.0179739 -0.000298293 7.79385e-05
-0.000298293 -0.00306605 -6.82656e-05
7.79385e-05 -6.82656e-05 0.000234962
-0.0050693 -0.00525701 0.00272986
-0.00525701 0.00613985 -0.000279003
0.00272986 -0.000279003 -0.00745774
0.00434225 -0.00419481 -0.000189861
-0.00419481 -0.000172424 0.000106904
-0.000189861 0.000106904 0.000126893
0.00729773 -0.00611834 -0.000221149
-0.00611834 -0.00375167 0.000228838
-0.000221149 0.000228838 0.00065333
0.00242387 -0.00147149 -0.000616111
-0.00147149 -0.0151482 7.16461e-05
-0.000616111 7.16461e-05 -0.0100755
0.00449827 -0.00307686 6.31771e-05
-0.00307686 -0.00126827 -3.31724e-06
6.31771e-05 -3.31724e-06 0.000292766
0.0050345 -0.00248465 -0.000119228
-0.00248465 -0.00441942 3.6468e-05
-0.000119228 3.6468e-05 -0.000176083
0.00533802 -0.00199045 6.80655e-05
-0.00199045 -0.000453425 -7.45078e-05
6.80655e-05 -7.45078e-05 0.000873648
0.0101143 -0.00171438 0.000217857
-0.00171438 0.00134288 2.88178e-06
0.000217857 2.88178e-06 0.00339708
-0.00113158 -0.00131009 5.18844e-05
-0.00131009 -0.00268649 1.92235e-05
5.18844e-05 1.92235e-05 -0.00204231
0.00289908 -0.00132119 -1.86584e-05
-0.00132119 -0.000381307 2.70271e-06
-1.86584e-05 2.70271e-06 0.000113408
0.00309469 -0.000905296 3.4191e-05
-0.000905296 -0.000335243 -1.80518e-05
3.4191e-05 -1.80518e-05 0.00018292
0.00263109 -0.00146389 -8.33649e-07
-0.00146389 -0.000148171 3.80145e-06
-8.33649e-07 3.80145e-06 -0.000258078
0.00316017 -0.00108265 2.60454e-07
-0.00108265 -5.10003e-05 7.42762e-07
2.60454e-07 7.42762e-07 0.000118049
0.00302288 -0.000883256 -1.88783e-06
-0.000883256 -0.000144216 -5.20544e-07
-1.88783e-06 -5.20544e-07 -3.65484e-06
0.0027524 -0.00100574 7.94802e-07
-0.00100574 -0.000129788 3.41706e-06
7.94802e-07 3.41706e-06 -6.9927e-05
0.00288272 -0.000950603 -9.75273e-08
-0.000950603 -4.48667e-05 1.44363e-07
-9.75273e-08 1.44363e-07 1.84447e-05
0.0027924 -0.000789593 -2.27602e-06
-0.000789593 -8.32861e-05 -3.76192e-07
-2.27602e-06 -3.76192e-07 -3.07412e-05
0.00276355 -0.000957334 1.4532e-06
-0.000957334 6.70653e-05 1.37735e-06
1.4532e-06 1.37735e-06 1.93431e-05
0.00282286 -0.000920696 -1.91055e-07
-0.000920696 5.72771e-05 -2.98949e-07
-1.91055e-07 -2.98949e-07 1.78523e-05
0.00274232 -0.000791599 1.18563e-06
-0.000791599 8.416e-05 -1.38847e-06
1.18563e-06 -1.38847e-06 3.43861e-05
0.0026557 -0.000932891 -1.85266e-06
-0.000932891 6.20244e-05 1.81714e-06
-1.85266e-06 1.81714e-06 -4.30556e-05
0.00263394 -0.000882036 -1.36297e-06
-0.000882036 9.67263e-05 4.25025e-07
-1.36297e-06 4.25025e-07 -2.86689e-05
0.00260028 -0.000812503 -1.1138e-06
-0.000812503 0.000191767 -1.80659e-07
-1.1138e-06 -1.80659e-07 2.43286e-05
0.00260161 -0.000889567 3.0165e-06
-0.000889567 0.000192118 1.03008e-06
3.0165e-06 1.03008e-06 3.22552e-05
0.00255681 -0.000863167 4.35709e-07
-0.000863167 0.000244007 -2.99199e-07
4.35709e-07 -2.99199e-07 2.06925e-05
0.00245989 -0.000852901 -9.43004e-07
-0.000852901 0.000226864 -4.75048e-07
-9.43004e-07 -4.75048e-07 -5.91014e-05
0.00236683 -0.000875903 3.88254e-06
-0.000875903 0.000301227 -8.31227e-06
3.88254e-06 -8.31227e-06 -0.000108693
0.00254645 -0.000911095 3.30658e-07
-0.000911095 0.000318846 -1.54779e-06
3.30658e-07 -1.54779e-06 -4.62265e-05
0.00274619 -0.000882615 5.57964e-06
-0.000882615 0.000384246 4.67028e-07
5.57964e-06 4.67028e-07 7.6945e-05
0.0015395 -0.000746233 -1.80092e-05
-0.000746233 3.43014e-05 7.58607e-07
-1.80092e-05 7.58607e-07 -0.000454539
0.00267375 -0.00108575 -7.80811e-07
-0.00108575 0.000558098 5.45089e-07
-7.80811e-07 5.45089e-07 -8.09526e-06
0.00256464 -0.00109631 1.9152e-06
-0.00109631 0.000333106 5.15723e-06
1.9152e-06 5.15723e-06 -0.000188369
-1.21861e-05 -0.000317681 -1.97253e-05
-0.000317681 -0.000476814 3.12674e-05
-1.97253e-05 3.12674e-05 -0.000738688
0.00140189 -0.000733859 7.34016e-07
-0.000733859 0.000112858 1.72647e-06
7.34016e-07 1.72647e-06 -0.000433981
0.00319986 -0.00135054 -1.48227e-06
-0.00135054 0.00105921 1.0632e-05
-1.48227e-06 1.0632e-05 0.00031525
0.00972583 -0.000140967 -0.000416586
-0.000140967 0.00613419 4.59525e-05
-0.000416586 4.59525e-05 0.00615557
-2.06652e-05 -0.000310453 2.90974e-06
-0.000310453 -0.000433518 1.06454e-06
2.90974e-06 1.06454e-06 -0.000691702
0.00159982 -0.000630213 2.28972e-05
-0.000630213 0.000413227 3.88281e-06
2.28972e-05 3.88281e-06 -9.82695e-05
0.00916252 -3.99573e-05 -2.72372e-05
-3.99573e-05 0.00582344 -6.39622e-07
-2.72372e-05 -6.39622e-07 0.0058285
0.000230912 -0.000309209 1.90703e-05
-0.000309209 -0.00026847 -3.2263e-05
1.90703e-05 -3.2263e-05 -0.000495769
0.00848928 5.20015e-05 0.000328176
5.20015e-05 0.00543177 -4.92333e-05
0.000328176 -4.92333e-05 0.00542228
0.00248599 0.00128998 -1.42131e-05
0.00128998 0.000640925 1.49784e-05
-1.42131e-05 1.49784e-05 -8.5671e-05
0.00298097 0.00143192 3.77456e-06
0.00143192 0.00129745 6.38713e-07
3.77456e-06 6.38713e-07 0.000432018
0.00289033 0.00120427 7.69364e-06
0.00120427 0.00120017 1.75742e-05
7.69364e-06 1.75742e-05 0.000425915
0.00154744 0.00101255 3.87555e-05
0.00101255 0.000612085 -1.32316e-05
3.87555e-05 -1.32316e-05 -0.000175894
0.00137588 0.000705755 2.17078e-07
0.000705755 0.000382042 -3.26893e-06
2.17078e-07 -3.26893e-06 -0.000231348
-0.000411516 0.000473726 -5.32669e-06
0.000473726 -0.000538529 1.1514e-05
-5.32669e-06 1.1514e-05 -0.00108786
0.00338147 0.000471919 -1.58646e-06
0.000471919 0.00184889 -3.56128e-05
-1.58646e-06 -3.56128e-05 0.00138817
0.00162948 0.000429945 8.35118e-06
0.000429945 0.000724112 -4.37501e-06
8.35118e-06 -4.37501e-06 0.000345392
0.000217839 0.000333107 -4.08558e-05
0.000333107 -0.000281605 -3.12046e-05
-4.08558e-05 -3.12046e-05 -0.000465189
0.00131577 0.000343265 -5.98499e-06
0.000343265 0.000660187 5.89222e-06
-5.98499e-06 5.89222e-06 0.000275515
0.000674406 0.000302651 -7.49252e-06
0.000302651 8.64121e-05 -1.02444e-06
-7.49252e-06 -1.02444e-06 -7.26122e-05
0.00723344 -0.000174973 -0.000221988
-0.000174973 0.00465541 -4.41839e-05
-0.000221988 -4.41839e-05 0.00461527
0.00505493 -0.000173196 -3.16873e-05
-0.000173196 0.00317724 3.70447e-06
-3.16873e-05 3.70447e-06 0.00314906
1.84361e-05 0.000246137 3.51344e-05
0.000246137 -0.000250584 2.78597e-05
3.51344e-05 2.78597e-05 -0.000383573
0.00373686 -0.000123973 6.7968e-05
-0.000123973 0.00226809 1.33057e-05
6.7968e-05 1.33057e-05 0.00225618
0.0019509 0.00158481 0.000240132
0.00158481 -0.00512559 9.14602e-05
0.000240132 9.14602e-05 -0.000246886
0.00374442 0.00116057 0.00032902
0.00116057 -0.0114309 0.000212278
0.00032902 0.000212278 -0.00994667
0.0223276 -0.0131898 -0.000476823
-0.0131898 0.019283 -0.000211325
-0.000476823 -0.000211325 0.00277352
0.00236951 0.00115618 1.15333e-05
0.00115618 0.000339687 1.23295e-05
1.15333e-05 1.23295e-05 -0.000199002
0.00313902 0.00144666 3.68123e-05
0.00144666 0.00160599 -7.40236e-06
3.68123e-05 -7.40236e-06 0.000688974
0.00194583 0.00154839 1.25495e-05
0.00154839 0.000654686 -1.94012e-05
1.25495e-05 -1.94012e-05 -0.0002935
0.00269928 0.00186535 4.10474e-06
0.00186535 0.00102759 2.62453e-06
4.10474e-06 2.62453e-06 0.000103993
0.00262294 0.00147577 1.27475e-06
0.00147577 0.000785271 3.85522e-06
1.27475e-06 3.85522e-06 -4.3783e-06
0.00298322 0.001627 2.96492e-06
0.001627 0.000893226 1.45998e-05
2.96492e-06 1.45998e-05 0.000116045
0.00176594 0.00172208 2.39195e-05
0.00172208 0.000506068 6.78722e-07
2.39195e-05 6.78722e-07 -0.000392232
0.00178535 0.00143907 3.36594e-05
0.00143907 0.000813561 -5.58223e-05
3.36594e-05 -5.58223e-05 -1.49131e-06
0.0026543 0.00179063 8.40679e-07
0.00179063 0.000815154 -1.1172e-06
8.40679e-07 -1.1172e-06 -1.51553e-05
0.000420879 0.00164845 1.10872e-05
0.00164845 -0.000602484 -3.36402e-05
1.10872e-05 -3.36402e-05 -0.00113696
0.00277385 0.00160028 6.51425e-06
0.00160028 0.000710136 1.58713e-06
6.51425e-06 1.58713e-06 -6.50748e-05
0.00427565 0.00167142 8.22607e-05
0.00167142 0.00117137 0.00010658
8.22607e-05 0.00010658 0.000968112
0.00206763 0.00198804 -1.97816e-05
0.00198804 0.000192684 -2.17555e-05
-1.97816e-05 -2.17555e-05 -0.000469259
0.00223179 0.00209763 -2.48484e-05
0.00209763 0.00037332 -6.54354e-06
-2.48484e-05 -6.54354e-06 -0.000255175
0.00229491 0.00220136 1.06487e-05
0.00220136 -0.00315926 6.80952e-05
1.06487e-05 6.80952e-05 -0.000731666
0.00659911 0.00542257 -0.000206581
0.00542257 -0.00525305 -0.000102238
-0.000206581 -0.000102238 0.000805823
0.00301743 0.00822719 0.00138988
0.00822719 -0.014911 0.00043545
0.00138988 0.00043545 -0.00985017
0.00163794 0.00549459 -0.000265134
0.00549459 -0.00216637 -0.000159202
-0.000265134 -0.000159202 -0.000258118
0.00594254 0.00371365 -2.29863e-05
0.00371365 0.000228438 -1.50575e-05
-2.29863e-05 -1.50575e-05 0.00054618
0.00945916 0.00406753 -0.000255912
0.00406753 0.00351481 -9.25688e-05
-0.000255912 -9.25688e-05 0.00245333
0.00655179 0.000183103 -1.90394e-05
0.000183103 -0.00143487 -1.8646e-05
-1.90394e-05 -1.8646e-05 0.000649459
0.00315064 -0.00014727 6.29169e-05
-0.00014727 -0.0046553 2.79356e-05
6.29169e-05 2.79356e-05 -0.000417893
0.0114848 -0.000291502 0.000137668
-0.000291502 -0.00686207 -4.82238e-05
0.000137668 -4.82238e-05 -0.00726517
0.00446116 -0.00294807 -0.00010129
-0.00294807 -0.00112601 0.000153971
-0.00010129 0.000153971 0.000331804
0.00378499 -0.0024957 -0.000260767
-0.0024957 -0.00577388 0.000129676
-0.000260767 0.000129676 -0.00160832
0.00431213 -0.00181903 6.49438e-06
-0.00181903 -0.000914594 1.08696e-05
6.49438e-06 1.08696e-05 0.000454631
0.00524524 -0.00130936 -0.00010286
-0.00130936 -0.00115651 3.79828e-06
-0.00010286 3.79828e-06 0.000733323
0.00379339 -0.000809967 0.000130713
-0.000809967 -0.000113094 -3.70862e-05
0.000130713 -3.70862e-05 0.000488673
0.00346958 -0.000196217 8.13255e-05
-0.000196217 -0.000366282 -7.67122e-06
8.13255e-05 -7.67122e-06 0.000320354
0.00132767 -0.00112097 -1.7983e-05
-0.00112097 -0.00129556 2.25008e-05
-1.7983e-05 2.25008e-05 -0.000597526
0.00301199 -0.00093199 -6.42441e-06
-0.00093199 -0.000348247 1.96952e-06
-6.42441e-06 1.96952e-06 0.000102194
0.0030327 -0.000658106 4.45689e-06
-0.000658106 -0.000270468 -2.35184e-06
4.45689e-06 -2.35184e-06 7.44602e-05
0.00310635 -0.00107812 -1.35478e-06
-0.00107812 -7.10916e-05 1.80531e-06
-1.35478e-06 1.80531e-06 9.94953e-05
0.00302003 -0.000857551 -3.70448e-07
-0.000857551 -0.000103191 -2.73053e-07
-3.70448e-07 -2.73053e-07 4.3721e-05
0.00278045 -0.000637048 -2.08661e-06
-0.000637048 -0.00022291 2.5008e-07
-2.08661e-06 2.5008e-07 -4.15317e-05
0.00285366 -0.000947263 7.30781e-07
-0.000947263 -5.07187e-05 5.90587e-07
7.30781e-07 5.90587e-07 3.18669e-06
0.00277142 -0.000791491 -4.60342e-07
-0.000791491 -8.22693e-05 3.21541e-09
-4.60342e-07 3.21541e-09 -2.71309e-05
0.00267039 -0.00065372 5.4946e-07
-0.00065372 -1.63831e-05 -5.6941e-07
5.4946e-07 -5.6941e-07 3.6566e-06
0.0028101 -0.00092078 6.04929e-07
-0.00092078 7.56808e-05 1.06459e-06
6.04929e-07 1.06459e-06 2.66506e-05
0.00274039 -0.00079175 9.27173e-07
-0.00079175 8.00256e-05 -1.14852e-07
9.27173e-07 -1.14852e-07 2.93278e-05
0.00256653 -0.00070369 1.05191e-06
-0.00070369 9.42098e-05 -5.60025e-07
1.05191e-06 -5.60025e-07 6.45358e-06
0.0026089 -0.000887573 -1.12663e-06
-0.000887573 7.07786e-05 2.18492e-06
-1.12663e-06 2.18492e-06 -5.09421e-05
0.00255347 -0.000814894 -9.30971e-07
-0.000814894 0.000146404 3.644e-07
-9.30971e-07 3.644e-07 -1.43963e-05
0.00251993 -0.00077412 -1.91032e-06
-0.00077412 0.000211951 -5.61314e-08
-1.91032e-06 -5.61314e-08 4.14619e-06
0.00254766 -0.000856294 3.13852e-06
-0.000856294 0.000233333 -2.80896e-07
3.13852e-06 -2.80896e-07 1.71277e-05
0.0025076 -0.000857269 1.57799e-07
-0.000857269 0.000257662 6.52407e-07
1.57799e-07 6.52407e-07 -2.48503e-05
0.00250651 -0.000807983 -2.51806e-07
-0.000807983 0.000365171 -4.15983e-06
-2.51806e-07 -4.15983e-06 2.40957e-05
0.00190436 -0.000671283 -1.83691e-05
-0.000671283 0.000241844 3.76239e-06
-1.83691e-05 3.76239e-06 -0.000168206
0.00245881 -0.000886753 2.95851e-07
-0.000886753 0.000372534 -1.85147e-06
2.95851e-07 -1.85147e-06 -4.9052e-05
0.00245089 -0.000903552 -3.25136e-07
-0.000903552 0.000247459 3.4416e-06
-3.25136e-07 3.4416e-06 -0.000127554
4.97844e-05 -0.00036617 -1.85793e-05
-0.00036617 -0.000467336 2.76273e-05
-1.85793e-05 2.76273e-05 -0.000742472
0.0018255 -0.000759001 -1.5577e-06
-0.000759001 0.000228726 2.61028e-07
-1.5577e-06 2.61028e-07 -0.000257221
0.00286254 -0.0010944 -4.90173e-06
-0.0010944 0.000700857 9.16966e-06
-4.90173e-06 9.16966e-06 0.000134532
0.0103592 -0.000202236 -0.000474585
-0.000202236 0.00651698 5.43988e-05
-0.000474585 5.43988e-05 0.00654555
5.78997e-05 -0.000369198 -8.87163e-07
-0.000369198 -0.000409673 1.29015e-06
-8.87163e-07 1.29015e-06 -0.000691327
0.00183919 -0.000769923 2.46607e-05
-0.000769923 0.000410831 4.44294e-07
2.46607e-05 4.44294e-07 -0.000139709
0.00988055 -0.000166802 -7.92261e-06
-0.000166802 0.00623816 2.12698e-06
-7.92261e-06 2.12698e-06 0.00625996
-0.000245635 -0.000359431 2.36231e-05
-0.000359431 -0.000570515 -3.44647e-05
2.36231e-05 -3.44647e-05 -0.000837585
0.00939419 -7.11761e-05 0.000398558
-7.11761e-05 0.00597029 -5.72764e-05
0.000398558 -5.72764e-05 0.00597838
0.00230254 0.00108754 -5.12825e-06
0.00108754 0.000334156 1.15368e-05
-5.12825e-06 1.15368e-05 -0.000212414
0.00253502 0.00126767 -1.7105e-06
0.00126767 0.000714016 2.35431e-06
-1.7105e-06 2.35431e-06 -1.74074e-06
0.00287542 0.00123849 3.11471e-05
0.00123849 0.000923439 2.21731e-05
3.11471e-05 2.21731e-05 0.000214625
0.00227153 0.00130186 6.7023e-06
0.00130186 0.000890951 -1.59596e-05
6.7023e-06 -1.59596e-05 6.45541e-05
0.00285297 0.00119993 8.10042e-06
0.00119993 0.0011487 3.286e-06
8.10042e-06 3.286e-06 0.000384141
0.000804155 0.000549355 -4.37229e-05
0.000549355 -8.83978e-05 1.68007e-06
-4.37229e-05 1.68007e-06 -0.000627193
0.00259627 0.000854549 5.89195e-06
0.000854549 0.00113495 -1.52334e-05
5.89195e-06 -1.52334e-05 0.000483099
0.00102828 0.000458412 6.02974e-07
0.000458412 0.00025079 -9.60375e-07
6.02974e-07 -9.60375e-07 -0.000203208
0.000183912 0.000314866 -3.87067e-05
0.000314866 -0.000319602 -3.3596e-05
-3.87067e-05 -3.3596e-05 -0.000516471
0.00178569 0.000573455 -2.16736e-06
0.000573455 0.00082083 -2.4523e-05
-2.16736e-06 -2.4523e-05 0.000426611
0.000680258 0.000339774 6.07667e-06
0.000339774 9.95484e-06 -1.43209e-06
6.07667e-06 -1.43209e-06 -0.000165784
0.00892586 -0.00025558 -0.000254314
-0.00025558 0.00580252 -5.01827e-05
-0.000254314 -5.01827e-05 0.00573677
0.000371826 0.000289966 3.84087e-05
0.000289966 -8.47377e-05 3.24236e-05
3.84087e-05 3.24236e-05 -0.000250991
0.00704691 -0.000240401 -2.33803e-05
-0.000240401 0.00454538 1.86557e-06
-2.33803e-05 1.86557e-06 0.00449275
0.00523948 -0.000213501 8.29199e-05
-0.000213501 0.00331419 2.02779e-05
8.29199e-05 2.02779e-05 0.00327512
0.000476709 0.00121853 4.21736e-05
0.00121853 -0.00479243 7.35281e-05
4.21736e-05 7.35281e-05 -0.00156322
0.00635541 0.00171041 8.07475e-05
0.00171041 -0.00448758 3.5966e-05
8.07475e-05 3.5966e-05 0.000926358
0.0184061 0.00154357 1.2154e-05
0.00154357 -0.00302087 0.000220318
1.2154e-05 0.000220318 0.0014751
0.00270339 0.00129384 -2.42585e-06
0.00129384 0.000447711 3.88954e-06
-2.42585e-06 3.88954e-06 -9.48801e-05
0.00281814 0.00119788 2.38453e-06
0.00119788 0.000349757 2.69576e-06
2.38453e-06 2.69576e-06 -3.7818e-05
0.00249432 0.00117919 -9.74031e-07
0.00117919 0.000419806 -3.89442e-06
-9.74031e-07 -3.89442e-06 -0.000118368
0.00345088 0.00194552 3.97192e-05
0.00194552 0.00147109 -3.30566e-06
3.97192e-05 -3.30566e-06 0.000519196
0.00278601 0.001504 -8.23217e-06
0.001504 0.000884099 -1.46661e-05
-8.23217e-06 -1.46661e-05 8.34706e-05
0.00309769 0.00168442 8.82288e-06
0.00168442 0.000913008 2.62597e-06
8.82288e-06 2.62597e-06 0.000123594
0.00357845 0.00154556 -1.8408e-05
0.00154556 0.000668104 -3.70859e-06
-1.8408e-05 -3.70859e-06 0.000205299
0.0024766 0.00186477 1.915e-05
0.00186477 0.000641208 -8.0744e-06
1.915e-05 -8.0744e-06 -0.00019793
0.00256782 0.00203871 1.22238e-05
0.00203871 0.00060351 0.000110515
1.22238e-05 0.000110515 -8.89241e-05
0.00290843 0.00174991 8.25787e-06
0.00174991 0.000677044 -2.93107e-06
8.25787e-06 -2.93107e-06 -0.000133409
0.0036923 0.00148142 3.56688e-06
0.00148142 0.000541196 3.91476e-05
3.56688e-06 3.91476e-05 0.000343965
0.00316921 0.000839714 0.000106155
0.000839714 0.000351622 1.2345e-05
0.000106155 1.2345e-05 0.000709491
0.000734215 0.00121776 -1.95832e-05
0.00121776 -0.000788825 -4.11176e-05
-1.95832e-05 -4.11176e-05 -0.000760463
0.00116066 0.00178672 -4.00092e-05
0.00178672 -0.000193886 3.60043e-06
-4.00092e-05 3.60043e-06 -0.000833252
0.00530529 0.00246479 7.10721e-05
0.00246479 -0.0013141 2.15343e-05
7.10721e-05 2.15343e-05 0.000906578
0.00927917 0.00511234 -0.000122277
0.00511234 -0.00303913 -0.000107265
-0.000122277 -0.000107265 0.00180686
0.00711747 0.00332663 -0.00016391
0.00332663 0.00143055 -0.000134885
-0.00016391 -0.000134885 0.00177799
0.00393829 0.000115729 0.000142268
0.000115729 -9.95045e-05 1.40751e-05
0.000142268 1.40751e-05 0.000618397
0.0049468 -0.000139776 -0.000200558
-0.000139776 -0.00312867 1.21112e-05
-0.000200558 1.21112e-05 -0.000247915
0.00583423 0.000205401 -0.000136975
0.000205401 -0.00355873 -7.36612e-05
-0.000136975 -7.36612e-05 0.000548021
0.00455242 -0.00182861 -0.000192509
-0.00182861 -0.000651905 0.000128448
-0.000192509 0.000128448 0.000637408
0.000481276 -0.00107304 -0.000114476
-0.00107304 -0.00383037 3.18543e-05
-0.000114476 3.18543e-05 -0.00191805
0.00394075 -0.000802669 2.06201e-05
-0.000802669 -5.09559e-05 -1.30875e-05
2.06201e-05 -1.30875e-05 0.000631194
0.00295318 -0.00020588 -2.44658e-05
-0.00020588 -0.000616583 -2.39991e-06
-2.44658e-05 -2.39991e-06 6.16342e-05
0.00301339 -0.000455393 9.32631e-06
-0.000455393 -0.000508649 -7.57862e-06
9.32631e-06 -7.57862e-06 4.9371e-07
0.00266254 0.000172798 1.07061e-05
0.000172798 -0.000811948 -4.49123e-06
1.07061e-05 -4.49123e-06 -0.000324174
0.00298244 -0.000968811 -2.35404e-05
-0.000968811 -0.000345317 1.33262e-05
-2.35404e-05 1.33262e-05 4.45457e-05
0.00302102 -0.00068581 -3.47335e-06
-0.00068581 -0.00031552 7.97309e-07
-3.47335e-06 7.97309e-07 1.06666e-05
0.00287477 -0.000482564 -2.37348e-06
-0.000482564 -0.000286555 9.23105e-07
-2.37348e-06 9.23105e-07 1.81164e-05
0.00301484 -0.00083121 -1.0581e-06
-0.00083121 -7.07286e-05 1.65666e-07
-1.0581e-06 1.65666e-07 8.82372e-05
0.00277486 -0.000641405 3.19772e-07
-0.000641405 -0.000221156 -2.18833e-07
3.19772e-07 -2.18833e-07 -4.57797e-05
0.00268276 -0.000528787 4.08798e-07
-0.000528787 -0.000126195 3.64968e-07
4.08798e-07 3.64968e-07 1.12367e-05
0.00275108 -0.000793945 3.54024e-07
-0.000793945 -8.23814e-05 7.94038e-07
3.54024e-07 7.94038e-07 -2.39839e-05
0.00266994 -0.000651784 3.87464e-07
-0.000651784 -2.31501e-05 -2.06597e-07
3.87464e-07 -2.06597e-07 -2.72781e-06
0.00252669 -0.000578832 1.33703e-06
-0.000578832 1.63762e-05 -4.44798e-07
1.33703e-06 -4.44798e-07 -6.94181e-06
0.00273915 -0.000792226 1.4211e-06
-0.000792226 7.60949e-05 9.61793e-07
1.4211e-06 9.61793e-07 2.44156e-05
0.00255805 -0.000703106 5.05727e-07
-0.000703106 8.46261e-05 -5.93234e-08
5.05727e-07 -5.93234e-08 -3.09884e-06
0.00246035 -0.000647362 -2.30593e-06
-0.000647362 0.000143368 7.58403e-07
-2.30593e-06 7.58403e-07 6.68205e-06
0.00250902 -0.000817738 2.27799e-07
-0.000817738 0.000102579 8.79925e-07
2.27799e-07 8.79925e-07 -5.177e-05
0.00253253 -0.000782689 2.40727e-07
-0.000782689 0.000214247 -3.46627e-07
2.40727e-07 -3.46627e-07 5.32232e-06
0.0025115 -0.000747948 -7.55106e-07
-0.000747948 0.000304709 -1.74004e-06
-7.55106e-07 -1.74004e-06 1.93686e-05
0.00256641 -0.000863402 1.18108e-06
-0.000863402 0.000297451 8.62738e-07
1.18108e-06 8.62738e-07 1.772e-05
0.00248921 -0.000809677 -4.17063e-07
-0.000809677 0.000355774 -1.20464e-07
-4.17063e-07 -1.20464e-07 1.60432e-05
0.00177792 -0.000570693 -1.24027e-05
-0.000570693 0.000134338 3.32278e-06
-1.24027e-05 3.32278e-06 -0.000203863
0.000278682 -0.000331827 -1.75734e-05
-0.000331827 -0.000350238 2.22377e-05
-1.75734e-05 2.22377e-05 -0.000598355
0.00187074 -0.000666564 -1.9317e-07
-0.000666564 0.000220863 4.6793e-08
-1.9317e-07 4.6793e-08 -0.000186717
0.0025723 -0.000900772 -5.42718e-06
-0.000900772 0.000458994 6.08619e-06
-5.42718e-06 6.08619e-06 2.47762e-05
0.0103665 -0.00027873 -0.000505112
-0.00027873 0.00650764 5.9283e-05
-0.000505112 5.9283e-05 0.00653879
0.00021813 -0.000371772 -7.14074e-07
-0.000371772 -0.000371201 2.12315e-06
-7.14074e-07 2.12315e-06 -0.000639995
0.00202228 -0.000753203 1.79682e-05
-0.000753203 0.00036101 -1.98412e-06
1.79682e-05 -1.98412e-06 -0.000117442
0.0104478 -0.000233809 -3.70113e-06
-0.000233809 0.00657573 3.03387e-06
-3.70113e-06 3.03387e-06 0.00660321
0.000138718 -0.000385577 2.09643e-05
-0.000385577 -0.00036159 -3.14157e-05
2.09643e-05 -3.14157e-05 -0.000647509
0.0103646 -0.000215086 0.000476155
-0.000215086 0.00654818 -6.18113e-05
0.000476155 -6.18113e-05 0.00657118
0.0025195 0.00111927 3.12473e-06
0.00111927 0.000324105 8.50413e-06
3.12473e-06 8.50413e-06 -0.000127571
0.00236484 0.00108993 2.3292e-06
0.00108993 0.000387379 -8.39155e-07
2.3292e-06 -8.39155e-07 -0.000153634
0.00276979 0.00109969 1.75154e-05
0.00109969 0.00072227 1.79657e-05
1.75154e-05 1.79657e-05 0.000140881
0.00250441 0.0012375 1.46768e-05
0.0012375 0.000731046 -1.01877e-05
1.46768e-05 -1.01877e-05 2.79228e-05
0.00248794 0.00118102 1.4634e-06
0.00118102 0.000663721 5.26589e-07
1.4634e-06 5.26589e-07 -2.62347e-05
0.00160569 0.000707819 -5.4753e-05
0.000707819 0.000271143 -4.72071e-06
-5.4753e-05 -4.72071e-06 -0.000257785
0.00258835 0.00117642 -4.08665e-05
0.00117642 0.000882417 -2.28086e-05
-4.08665e-05 -2.28086e-05 0.000139307
0.000755722 0.000529022 -3.18757e-06
0.000529022 -7.3354e-05 1.03046e-06
-3.18757e-06 1.03046e-06 -0.000605777
-0.000158135 0.000322226 -3.29023e-05
0.000322226 -0.000515781 -3.45369e-05
-3.29023e-05 -3.45369e-05 -0.000751098
0.00143904 0.000293388 6.63523e-06
0.000293388 0.000439215 -1.19509e-05
6.63523e-06 -1.19509e-05 4.84494e-05
0.00019486 0.000301076 5.40251e-06
0.000301076 -0.000314533 4.79102e-07
5.40251e-06 4.79102e-07 -0.000509574
0.0091992 -7.12685e-05 -0.000337048
-7.12685e-05 0.00586821 -4.64667e-05
-0.000337048 -4.64667e-05 0.00585854
0.000815966 0.000342647 4.96003e-05
0.000342647 0.000100595 3.14469e-05
4.96003e-05 3.14469e-05 -6.16524e-05
0.00812566 -0.000179746 1.02504e-05
-0.000179746 0.00522062 -5.00085e-06
1.02504e-05 -5.00085e-06 0.00518288
0.00631375 -0.000284872 0.000118948
-0.000284872 0.00407646 3.19644e-05
0.000118948 3.19644e-05 0.00400804
0.00198665 0.000615018 7.2335e-05
0.000615018 -0.000871641 4.66862e-05
7.2335e-05 4.66862e-05 -0.000106311
0.00148395 0.00139479 5.93464e-05
0.00139479 -0.00457625 -1.18425e-05
5.93464e-05 -1.18425e-05 -0.00144358
0.00672022 0.00277774 0.000277818
0.00277774 -0.00454009 0.000150399
0.000277818 0.000150399 0.00133491
0.00301785 0.00124167 -7.62822e-06
0.00124167 0.000351762 -4.25585e-06
-7.62822e-06 -4.25585e-06 1.76694e-05
0.00279425 0.00132753 -1.03167e-05
0.00132753 0.000497655 -4.66652e-06
-1.03167e-05 -4.66652e-06 -5.02912e-05
0.00266149 0.000888941 4.65907e-06
0.000888941 0.000142248 -2.80067e-07
4.65907e-06 -2.80067e-07 -4.85645e-05
0.0027929 0.00118199 9.26545e-07
0.00118199 0.000329943 3.17216e-07
9.26545e-07 3.17216e-07 -4.34872e-05
0.00259667 0.00119487 -4.36606e-06
0.00119487 0.000491187 -1.26955e-05
-4.36606e-06 -1.26955e-05 -4.32228e-05
0.00313734 0.00107141 -7.44411e-06
0.00107141 0.000135075 -1.24262e-06
-7.44411e-06 -1.24262e-06 5.24812e-05
0.00307145 0.00172749 8.72981e-06
0.00172749 0.000846861 -4.55814e-06
8.72981e-06 -4.55814e-06 4.90784e-05
0.00335006 0.00145965 9.59294e-08
0.00145965 0.000569278 -1.93721e-06
9.59294e-08 -1.93721e-06 0.000133711
0.00247826 0.000679512 -6.12766e-06
0.000679512 -0.000490116 3.25062e-06
-6.12766e-06 3.25062e-06 -0.000177877
0.00260003 0.00184117 -1.96981e-06
0.00184117 0.000391147 2.10561e-05
-1.96981e-06 2.10561e-05 -0.00040852
0.00326735 0.00141663 2.20937e-06
0.00141663 0.000302648 -8.89434e-06
2.20937e-06 -8.89434e-06 0.000128383
0.00102847 0.000801361 -5.9348e-05
0.000801361 -0.00114391 -7.83763e-06
-5.9348e-05 -7.83763e-06 -0.000516665
-0.00375216 0.000697669 -6.00235e-06
0.000697669 -0.0032602 -2.43796e-05
-6.00235e-06 -2.43796e-05 -0.00299964
0.00684715 0.00262103 -0.000282758
0.00262103 -0.000370648 -0.000113175
-0.000282758 -0.000113175 0.00170681
0.00291685 0.000304251 9.89926e-06
0.000304251 -0.000432636 1.89157e-06
9.89926e-06 1.89157e-06 1.1048e-06
0.00384696 0.000132222 -6.46855e-07
0.000132222 -0.000276367 -8.87602e-06
-6.46855e-07 -8.87602e-06 0.000476309
0.00321717 -0.000518063 -0.000291646
-0.000518063 -0.00437487 -3.85164e-05
-0.000291646 -3.85164e-05 -0.00127325
0.00365141 -0.000757321 -0.00016072
-0.000757321 -0.000246169 4.43185e-05
-0.00016072 4.43185e-05 0.000527358
0.00267776 -0.000229044 -3.09087e-05
-0.000229044 -0.000675039 6.55407e-06
-3.09087e-05 6.55407e-06 -3.77248e-05
0.00290339 -0.000490362 8.45081e-06
-0.000490362 -0.000619405 -9.93546e-07
8.45081e-06 -9.93546e-07 -5.17507e-05
0.00304892 0.000185238 -1.70924e-06
0.000185238 -0.000492434 1.66633e-06
-1.70924e-06 1.66633e-06 -5.1208e-05
0.00289274 -9.07568e-05 -6.33892e-07
-9.07568e-05 -0.000390995 -1.9913e-06
-6.33892e-07 -1.9913e-06 1.21934e-05
0.00297753 -0.000706748 -1.8507e-06
-0.000706748 -0.000373629 1.72153e-06
-1.8507e-06 1.72153e-06 -6.55399e-05
0.00281228 -0.000462217 3.83328e-07
-0.000462217 -0.000315187 -3.38228e-07
3.83328e-07 -3.38228e-07 -1.60082e-05
0.00269053 -0.00034275 9.90238e-08
-0.00034275 -0.000195522 2.16773e-07
9.90238e-08 2.16773e-07 3.60019e-05
0.00277146 -0.000645646 1.52813e-06
-0.000645646 -0.000215674 2.06251e-07
1.52813e-06 2.06251e-07 -4.80639e-05
0.00266527 -0.000528106 3.42476e-07
-0.000528106 -0.000133123 9.62092e-08
3.42476e-07 9.62092e-08 -1.21392e-06
0.00250716 -0.00044471 1.21784e-06
-0.00044471 -5.32665e-05 -4.22232e-08
1.21784e-06 -4.22232e-08 -1.80382e-06
0.00267143 -0.000649748 4.93885e-08
-0.000649748 -2.87864e-05 8.74589e-08
4.93885e-08 8.74589e-08 -8.02072e-06
0.00252513 -0.000578916 2.63893e-07
-0.000578916 1.3225e-05 -7.91771e-08
2.63893e-07 -7.91771e-08 -1.0353e-05
0.00239013 -0.000519401 -2.4905e-06
-0.000519401 6.74546e-05 5.85389e-07
-2.4905e-06 5.85389e-07 -8.83623e-06
0.00254979 -0.000702582 8.37518e-09
-0.000702582 7.50771e-05 2.75125e-07
8.37518e-09 2.75125e-07 -1.26428e-05
0.00246579 -0.00065056 4.28564e-07
-0.00065056 0.000140614 -1.72939e-07
4.28564e-07 -1.72939e-07 2.28282e-06
0.00246868 -0.000636115 -1.89333e-06
-0.000636115 0.000224549 -4.69032e-07
-1.89333e-06 -4.69032e-07 8.7445e-06
0.00254146 -0.00079089 1.57485e-06
-0.00079089 0.000213562 -2.58462e-07
1.57485e-06 -2.58462e-07 3.93334e-06
0.00248435 -0.00074049 -5.37207e-07
-0.00074049 0.00029577 -6.18261e-08
-5.37207e-07 -6.18261e-08 1.2779e-05
0.00176009 -0.000507475 -8.86674e-06
-0.000507475 8.76525e-05 2.67992e-06
-8.86674e-06 2.67992e-06 -0.000200843
0.00246087 -0.000808849 -1.00575e-06
-0.000808849 0.000339748 2.8964e-06
-1.00575e-06 2.8964e-06 2.18255e-06
0.00179936 -0.000573047 -7.84292e-08
-0.000573047 0.000142103 2.15284e-08
-7.84292e-08 2.15284e-08 -0.000195505
0.00329489 -0.00035645 -6.95145e-05
-0.00035645 0.00164797 1.79182e-05
-6.95145e-05 1.79182e-05 0.00145418
0.00378032 -0.000209336 -0.00040882
-0.000209336 0.0021452 6.95354e-05
-0.00040882 6.95354e-05 0.00212663
0.00186835 -0.000367302 -2.5154e-05
-0.000367302 0.00070403 8.40732e-07
-2.5154e-05 8.40732e-07 0.000471148
0.00179566 -0.000656415 1.56929e-05
-0.000656415 0.00017502 -3.29094e-06
1.56929e-05 -3.29094e-06 -0.000228706
0.0101204 -0.000282781 -5.1296e-06
-0.000282781 0.00635847 4.03934e-06
-5.1296e-06 4.03934e-06 0.00638611
0.000317091 -0.000399967 2.48297e-05
-0.000399967 -0.000297132 -2.58581e-05
2.48297e-05 -2.58581e-05 -0.000572381
0.0104655 -0.000248892 0.000487691
-0.000248892 0.00659149 -6.44495e-05
0.000487691 -6.44495e-05 0.00661506
0.00249421 0.00068589 1.74607e-06
0.00068589 6.79992e-05 -1.62073e-06
1.74607e-06 -1.62073e-06 -5.81211e-05
0.002659 0.000952979 6.61083e-06
0.000952979 0.000318163 4.29963e-06
6.61083e-06 4.29963e-06 2.46371e-05
0.0026823 0.00113057 4.83875e-07
0.00113057 0.000428104 -6.20341e-07
4.83875e-07 -6.20341e-07 -1.48496e-05
0.00273668 0.0010138 1.02935e-05
0.0010138 0.000631207 1.28343e-05
1.02935e-05 1.28343e-05 0.000145653
0.0024875 0.00110458 6.06145e-06
0.00110458 0.000474159 -1.30276e-05
6.06145e-06 -1.30276e-05 -6.59273e-05
0.00251239 0.00106818 1.84023e-06
0.00106818 0.000542285 8.10497e-07
1.84023e-06 8.10497e-07 -2.86711e-05
0.00177276 0.000751584 -3.9483e-05
0.000751584 0.000295656 -4.20905e-06
-3.9483e-05 -4.20905e-06 -0.000209864
0.00237971 0.00115761 -2.7726e-05
0.00115761 0.000597846 -2.03983e-05
-2.7726e-05 -2.03983e-05 -8.36473e-05
0.00154504 0.000708796 -1.12304e-06
0.000708796 0.0001924 -8.5115e-08
-1.12304e-06 -8.5115e-08 -0.00033344
-1.75801e-05 0.000375806 -3.01793e-05
0.000375806 -0.000441834 -3.20847e-05
-3.01793e-05 -3.20847e-05 -0.000714261
0.00163083 0.000505102 4.47289e-05
0.000505102 0.000493383 1.88341e-06
4.47289e-05 1.88341e-06 -4.16944e-06
0.000105933 0.000295068 2.80188e-06
0.000295068 -0.000358716 4.75704e-08
2.80188e-06 4.75704e-08 -0.000588864
0.0101672 0.000102193 -0.000436382
0.000102193 0.00643766 -5.67333e-05
-0.000436382 -5.67333e-05 0.00645059
0.000498302 0.000284886 3.00333e-05
0.000284886 -0.000123613 3.0291e-05
3.00333e-05 3.0291e-05 -0.00031614
0.0092159 -8.26848e-05 1.8237e-05
-8.26848e-05 0.00587178 -3.26033e-06
1.8237e-05 -3.26033e-06 0.00586365
0.00821432 -0.0002152 0.000214899
-0.0002152 0.00527111 3.13713e-05
0.000214899 3.13713e-05 0.00523463
0.00264873 0.000356612 3.62643e-06
0.000356612 -0.000538435 5.7661e-06
3.62643e-06 5.7661e-06 -0.000110279
0.00131369 0.000536041 -9.74456e-06
0.000536041 -0.00174362 -1.1361e-05
-9.74456e-06 -1.1361e-05 -0.000660786
0.00327472 0.00170283 -0.000242882
0.00170283 -0.00409557 -9.39307e-05
-0.000242882 -9.39307e-05 -0.000796103
0.00274926 0.000835085 -2.37353e-06
0.000835085 8.36473e-05 -3.09665e-06
-2.37353e-06 -3.09665e-06 -4.25012e-06
0.00288199 0.00120939 -5.05996e-06
0.00120939 0.000299594 -7.55155e-07
-5.05996e-06 -7.55155e-07 -2.39941e-05
0.00289204 0.00136522 -8.503e-08
0.00136522 0.000548651 -3.09078e-06
-8.503e-08 -3.09078e-06 -5.45523e-06
0.0026342 0.000874521 1.64861e-06
0.000874521 0.000151268 8.71105e-07
1.64861e-06 8.71105e-07 -4.43998e-05
0.00277238 0.00116849 -1.79639e-06
0.00116849 0.000314842 -4.77477e-06
-1.79639e-06 -4.77477e-06 -4.67782e-05
0.00299823 0.000673696 2.96828e-06
0.000673696 -9.51979e-05 1.11597e-06
2.96828e-06 1.11597e-06 9.89694e-05
0.00303444 0.00105965 -2.0312e-06
0.00105965 9.36491e-05 6.62538e-07
-2.0312e-06 6.62538e-07 2.7975e-05
0.0030849 0.00137294 8.19873e-06
0.00137294 0.000446956 1.95867e-06
8.19873e-06 1.95867e-06 3.82938e-05
0.00235875 0.000616286 4.25288e-07
0.000616286 -0.000481674 1.44777e-06
4.25288e-07 1.44777e-06 -0.000147182
0.00275808 0.00130307 8.83679e-06
0.00130307 1.05291e-05 -1.32895e-05
8.83679e-06 -1.32895e-05 -0.000125113
-0.00128948 0.000652901 -2.44602e-05
0.000652901 -0.00294838 -3.96978e-06
-2.44602e-05 -3.96978e-06 -0.0017558
0.00280329 0.000163693 2.80377e-06
0.000163693 -0.000314761 -1.6803e-07
2.80377e-06 -1.6803e-07 2.18585e-05
0.00289343 0.000286131 2.257e-06
0.000286131 -0.000461735 -1.52817e-06
2.257e-06 -1.52817e-06 -2.15441e-05
0.00373598 0.000133088 -0.00011601
0.000133088 -0.000423294 9.12218e-06
-0.00011601 9.12218e-06 0.000337328
0.0027696 -0.000537732 -3.09488e-05
-0.000537732 -0.000776286 1.09055e-05
-3.09488e-05 1.09055e-05 -0.000137629
0.0033634 0.000204067 -4.37997e-06
0.000204067 -0.000245211 4.7062e-06
-4.37997e-06 4.7062e-06 0.000164574
0.00289951 -8.86436e-05 -1.00842e-06
-8.86436e-05 -0.00039627 -9.66015e-07
-1.00842e-06 -9.66015e-07 1.79273e-06
0.00256891 -9.55634e-05 -4.34031e-07
-9.55634e-05 -0.000224399 3.46284e-07
-4.34031e-07 3.46284e-07 -7.24897e-06
0.0027369 -0.000440671 2.43189e-06
-0.000440671 -0.000353413 -1.72797e-06
2.43189e-06 -1.72797e-06 -5.84114e-05
0.00265344 -0.00035449 3.90816e-08
-0.00035449 -0.000212993 8.29957e-08
3.90816e-08 8.29957e-08 6.24491e-06
0.00246233 -0.000293059 1.84372e-06
-0.000293059 -0.000104866 -4.91445e-07
1.84372e-06 -4.91445e-07 -7.25152e-06
0.00264539 -0.00052727 -8.6738e-07
-0.00052727 -0.000141526 -1.09454e-07
-8.6738e-07 -1.09454e-07 -1.50494e-05
0.00250878 -0.000443549 3.30105e-08
-0.000443549 -5.52073e-05 6.48772e-08
3.30105e-08 6.48772e-08 -3.86329e-06
0.00234402 -0.000397239 -2.72296e-06
-0.000397239 -9.99362e-07 3.82157e-07
-2.72296e-06 3.82157e-07 -2.10122e-05
0.00252379 -0.000579007 -6.72642e-07
-0.000579007 1.00015e-05 1.21279e-07
-6.72642e-07 1.21279e-07 -1.38338e-05
0.00238351 -0.000519613 1.75118e-07
-0.000519613 5.81905e-05 5.4572e-08
1.75118e-07 5.4572e-08 -1.83495e-05
0.00247518 -0.000511974 -3.49453e-06
-0.000511974 0.000189139 6.84584e-07
-3.49453e-06 6.84584e-07 4.28172e-05
0.00247271 -0.000653841 2.31904e-06
-0.000653841 0.000139171 -8.85537e-07
2.31904e-06 -8.85537e-07 -8.46936e-07
0.00246647 -0.000631202 -2.72335e-07
-0.000631202 0.000233701 -3.53298e-07
-2.72335e-07 -3.53298e-07 1.94642e-05
0.0017628 -0.000428198 -8.06986e-06
-0.000428198 5.81157e-05 1.70015e-06
-8.06986e-06 1.70015e-06 -0.000180132
0.00245554 -0.000732969 4.27581e-07
-0.000732969 0.000285531 1.25967e-06
4.27581e-07 1.25967e-06 4.89456e-06
0.00180927 -0.000512826 -1.03605e-07
-0.000512826 0.000111954 2.8076e-07
-1.03605e-07 2.8076e-07 -0.000176686
0.0030872 -0.00031491 -7.31419e-05
-0.00031491 0.00150888 1.60705e-05
-7.31419e-05 1.60705e-05 0.00134163
0.00181528 -0.000576809 1.10524e-05
-0.000576809 0.000142561 -3.51727e-06
1.10524e-05 -3.51727e-06 -0.000195051
0.00340339 -0.00038477 6.59504e-05
-0.00038477 0.00172388 -1.21871e-05
6.59504e-05 -1.21871e-05 0.0015455
0.00320075 -0.000205462 -0.000362042
-0.000205462 0.00178497 6.6079e-05
-0.000362042 6.6079e-05 0.00175996
0.00635474 -0.000254648 -0.000344309
-0.000254648 0.00387995 4.94676e-05
-0.000344309 4.94676e-05 0.0038789
0.00358858 -0.000455036 0.000216054
-0.000455036 0.00185562 -4.18273e-05
0.000216054 -4.18273e-05 0.00166423
0.00984814 -0.000278198 0.000465971
-0.000278198 0.00618855 -6.42545e-05
0.000465971 -6.42545e-05 0.00620969
0.00257059 0.000669922 -1.64798e-06
0.000669922 8.23806e-05 -2.63676e-06
-1.64798e-06 -2.63676e-06 1.74578e-05
0.00260207 0.000748628 1.69113e-06
0.000748628 0.000297495 3.88994e-07
1.69113e-06 3.88994e-07 9.59255e-05
0.00252591 0.000672836 4.1632e-07
0.000672836 0.000103393 -2.88717e-07
4.1632e-07 -2.88717e-07 -1.64216e-05
0.00247683 0.000847424 4.20617e-06
0.000847424 0.000381664 7.78363e-06
4.20617e-06 7.78363e-06 1.69163e-05
0.00266182 0.000947034 2.89873e-07
0.000947034 0.000311939 -3.34647e-07
2.89873e-07 -3.34647e-07 2.06364e-05
0.00285661 0.00114428 -3.2368e-06
0.00114428 0.000537745 -7.80993e-06
-3.2368e-06 -7.80993e-06 0.000102572
0.00242918 0.000983328 8.4828e-07
0.000983328 0.000416374 1.25201e-08
8.4828e-07 1.25201e-08 -6.21687e-05
0.00174721 0.000708866 -2.35691e-05
0.000708866 0.000168455 -2.75969e-06
-2.35691e-05 -2.75969e-06 -0.00027705
0.00218028 0.00102262 -1.65985e-05
0.00102262 0.000319495 -1.68378e-05
-1.65985e-05 -1.68378e-05 -0.000236599
0.00182678 0.000794142 -2.04423e-06
0.000794142 0.000306122 7.27345e-07
-2.04423e-06 7.27345e-07 -0.000216528
0.000254716 0.000405163 -2.72914e-05
0.000405163 -0.000323686 -2.72128e-05
-2.72914e-05 -2.72128e-05 -0.000604333
0.00130213 0.000678702 5.27728e-05
0.000678702 3.2658e-06 4.04337e-06
5.27728e-05 4.04337e-06 -0.000507813
-7.38853e-05 0.000330723 8.99888e-07
0.000330723 -0.000490253 1.77e-06
8.99888e-07 1.77e-06 -0.00074828
0.0104332 0.000208289 -0.000467199
0.000208289 0.006581 -6.44798e-05
-0.000467199 -6.44798e-05 0.00659634
0.000203315 0.000260171 2.90271e-05
0.000260171 -0.000318508 3.31304e-05
2.90271e-05 3.31304e-05 -0.000534194
0.00958588 4.57822e-05 1.19765e-05
4.57822e-05 0.00605857 -1.10037e-06
1.19765e-05 -1.10037e-06 0.00607041
0.00863078 -8.25974e-05 0.000301954
-8.25974e-05 0.00547321 3.13397e-05
0.000301954 3.13397e-05 0.00547019
0.00285339 0.0004329 2.73837e-06
0.0004329 -0.000209457 5.82149e-07
2.73837e-06 5.82149e-07 5.38756e-05
0.00251034 0.000367098 1.94428e-06
0.000367098 -0.00053767 -2.92673e-06
1.94428e-06 -2.92673e-06 -0.000113518
-7.98677e-05 0.000496373 -6.06979e-05
0.000496373 -0.00301372 -1.16894e-05
-6.06979e-05 -1.16894e-05 -0.00165895
0.0026626 0.000588998 1.4217e-06
0.000588998 -7.43154e-05 -5.14678e-07
1.4217e-06 -5.14678e-07 3.29667e-06
0.00268095 0.000835034 -9.64417e-07
0.000835034 4.57936e-05 9.53205e-07
-9.64417e-07 9.53205e-07 -3.34564e-05
0.00276138 0.00117533 7.25011e-06
0.00117533 0.000258175 1.53574e-06
7.25011e-06 1.53574e-06 -5.32596e-05
0.00261384 0.00086016 -3.90642e-06
0.00086016 0.000164215 3.47536e-07
-3.90642e-06 3.47536e-07 -3.62882e-05
0.0029006 0.000663707 -2.30548e-06
0.000663707 -0.000156479 -3.92694e-08
-2.30548e-06 -3.92694e-08 3.03318e-05
0.00294066 0.00104665 4.26991e-06
0.00104665 6.43798e-05 6.70543e-07
4.26991e-06 6.70543e-07 1.34007e-05
0.00226743 0.000621645 2.80116e-06
0.000621645 -0.000421339 -8.14809e-06
2.80116e-06 -8.14809e-06 -9.56358e-05
0.00262158 0.000129003 8.67337e-07
0.000129003 -0.00020876 1.42372e-07
8.67337e-07 1.42372e-07 1.55075e-06
0.00276812 0.000167323 -2.93292e-07
0.000167323 -0.000315773 1.08292e-07
-2.93292e-07 1.08292e-07 1.07625e-05
0.00285546 0.000283685 -2.04504e-05
0.000283685 -0.000488586 1.69737e-06
-2.04504e-05 1.69737e-06 -4.93276e-05
0.00241723 -1.12899e-05 -3.44474e-07
-1.12899e-05 -0.000194986 2.36912e-07
-3.44474e-07 2.36912e-07 -3.65902e-05
0.00293476 -9.0007e-05 1.18543e-06
-9.0007e-05 -0.000378054 1.163e-06
1.18543e-06 1.163e-06 1.16465e-05
0.00258089 -0.000100397 3.52412e-08
-0.000100397 -0.000214983 1.48288e-07
3.52412e-08 1.48288e-07 7.62953e-07
0.00243381 -0.000153787 3.97841e-07
-0.000153787 -0.000119429 1.4619e-07
3.97841e-07 1.4619e-07 -7.63242e-06
0.00261562 -0.000365896 3.22119e-09
-0.000365896 -0.000231197 -3.11089e-07
3.22119e-09 -3.11089e-07 -2.40331e-05
0.00246731 -0.000289391 5.64713e-07
-0.000289391 -0.00010416 -4.61539e-07
5.64713e-07 -4.61539e-07 -5.6813e-06
0.00230564 -0.000273883 -2.16737e-06
-0.000273883 -4.20169e-05 4.00977e-07
-2.16737e-06 4.00977e-07 -2.58471e-05
0.00251223 -0.000442197 -8.49195e-07
-0.000442197 -5.59314e-05 9.38347e-08
-8.49195e-07 9.38347e-08 -4.68252e-06
0.00234661 -0.000395953 1.22784e-08
-0.000395953 -1.08084e-06 -7.44795e-08
1.22784e-08 -7.44795e-08 -2.05353e-05
0.00247538 -0.000396843 -4.13142e-06
-0.000396843 0.000153737 7.11628e-07
-4.13142e-06 7.11628e-07 5.96148e-05
0.00237771 -0.000519992 2.7513e-06
-0.000519992 4.94374e-05 -5.77579e-07
2.7513e-06 -5.77579e-07 -2.74336e-05
0.00245608 -0.000508697 -5.74081e-08
-0.000508697 0.000182219 -1.287e-07
-5.74081e-08 -1.287e-07 3.57494e-05
0.00174683 -0.000341736 -6.87114e-06
-0.000341736 2.98467e-05 1.19839e-06
-6.87114e-06 1.19839e-06 -0.000162547
0.00246404 -0.000626211 1.66471e-06
-0.000626211 0.000242813 -3.65713e-07
1.66471e-06 -3.65713e-07 3.01665e-05
0.00180386 -0.000432827 -3.98132e-07
-0.000432827 7.24049e-05 1.92287e-07
-3.98132e-07 1.92287e-07 -0.000165814
0.00291724 -0.00027595 -7.61725e-05
-0.00027595 0.0014045 1.4528e-05
-7.61725e-05 1.4528e-05 0.00125926
0.00185832 -0.000518368 7.85599e-06
-0.000518368 0.00013563 -2.52712e-06
7.85599e-06 -2.52712e-06 -0.000153138
0.00320087 -0.000330104 5.92755e-05
-0.000330104 0.00158436 -9.33697e-06
5.92755e-05 -9.33697e-06 0.00143292
0.00305438 -0.000169404 -0.000343421
-0.000169404 0.00168742 5.49121e-05
-0.000343421 5.49121e-05 0.00166826
0.00349619 -0.000383968 0.000203201
-0.000383968 0.00177953 -4.0047e-05
0.000203201 -4.0047e-05 0.00162119
0.00274246 -0.000137034 -0.000133781
-0.000137034 0.00148042 2.32559e-05
-0.000133781 2.32559e-05 0.00143329
0.00875627 -0.000198968 0.000176859
-0.000198968 0.00546754 -1.62861e-05
0.000176859 -1.62861e-05 0.00543865
0.00252359 0.000567832 -7.43558e-07
0.000567832 3.67039e-05 -7.56288e-07
-7.43558e-07 -7.56288e-07 6.8916e-06
0.0025059 0.000630726 -3.13744e-06
0.000630726 0.000181854 -2.33721e-06
-3.13744e-06 -2.33721e-06 6.35881e-05
0.00261038 0.000665455 -2.2618e-06
0.000665455 0.000112076 5.42501e-08
-2.2618e-06 5.42501e-08 3.94246e-05
0.00241453 0.000712117 -3.0883e-07
0.000712117 0.000283939 1.56261e-06
-3.0883e-07 1.56261e-06 1.99007e-06
0.00252963 0.000748227 -5.86071e-07
0.000748227 0.00021603 -1.51175e-06
-5.86071e-07 -1.51175e-06 3.43669e-05
0.0025485 0.000658124 -3.83973e-06
0.000658124 0.000132789 -6.47922e-08
-3.83973e-06 -6.47922e-08 1.97728e-05
0.00181415 0.000604362 -1.63175e-05
0.000604362 0.000116781 -2.95298e-06
-1.63175e-05 -2.95298e-06 -0.000237072
0.00238898 0.000846672 1.55664e-06
0.000846672 0.000307483 1.08446e-07
1.55664e-06 1.08446e-07 -5.89442e-05
0.00265502 0.000941407 -3.20713e-06
0.000941407 0.000296541 -2.42366e-06
-3.20713e-06 -2.42366e-06 8.00819e-06
0.00208159 0.000947032 -9.22972e-06
0.000947032 0.000176059 -1.38645e-05
-9.22972e-06 -1.38645e-05 -0.000293438
0.00188406 0.000725402 -3.57943e-07
0.000725402 0.000260392 1.07019e-07
-3.57943e-07 1.07019e-07 -0.00019148
0.000426481 0.000384304 -2.35942e-05
0.000384304 -0.000242884 -2.32331e-05
-2.35942e-05 -2.32331e-05 -0.000505166
0.0019691 0.00084935 4.23187e-05
0.00084935 0.000361253 7.08547e-06
4.23187e-05 7.08547e-06 -0.000181861
0.000141111 0.000381638 -2.9358e-07
0.000381638 -0.000385966 1.79661e-06
-2.9358e-07 1.79661e-06 -0.000662393
0.00992637 0.000278198 -0.000452732
0.000278198 0.0062541 -6.91348e-05
-0.000452732 -6.91348e-05 0.00626194
2.8695e-05 0.000304629 2.84861e-05
0.000304629 -0.000429545 3.20218e-05
2.84861e-05 3.20218e-05 -0.000682603
0.010388 0.000162154 8.61706e-06
0.000162154 0.00654513 2.39659e-06
8.61706e-06 2.39659e-06 0.00656628
0.00950845 1.12434e-05 0.000366343
1.12434e-05 0.00600267 3.42178e-05
0.000366343 3.42178e-05 0.00601705
0.00257695 0.000339455 2.64653e-07
0.000339455 -0.000152738 1.76526e-07
2.64653e-07 1.76526e-07 -3.08132e-06
0.00279323 0.000441818 -9.44982e-07
0.000441818 -0.000285167 7.98411e-07
-9.44982e-07 7.98411e-07 -7.81587e-06
0.00242999 0.000336714 -9.2642e-06
0.000336714 -0.000530323 -2.62874e-06
-9.2642e-06 -2.62874e-06 -9.74629e-05
0.00264554 0.000584334 -6.58042e-07
0.000584334 -7.8954e-05 5.11174e-07
-6.58042e-07 5.11174e-07 -1.21398e-06
0.00260496 0.000835592 6.01457e-07
0.000835592 2.74786e-06 1.38775e-06
6.01457e-07 1.38775e-06 -6.7144e-05
0.00281142 0.000650662 2.18751e-06
0.000650662 -0.000221839 -1.17265e-06
2.18751e-06 -1.17265e-06 -3.88151e-05
0.00250726 0.000116103 6.17765e-07
0.000116103 -0.000126486 3.02597e-08
6.17765e-07 3.02597e-08 1.08659e-05
0.00263009 0.000126774 -1.04897e-07
0.000126774 -0.000194168 -1.73911e-07
-1.04897e-07 -1.73911e-07 1.24368e-05
0.00271521 0.000168281 -2.28316e-06
0.000168281 -0.000333503 -5.04273e-08
-2.28316e-06 -5.04273e-08 -1.48155e-05
0.00245639 -6.32104e-06 -6.36608e-07
-6.32104e-06 -0.000161567 3.94089e-08
-6.36608e-07 3.94089e-08 -7.44751e-06
0.00238216 -3.37156e-05 -2.51653e-07
-3.37156e-05 -8.78734e-05 2.18131e-09
-2.51653e-07 2.18131e-09 5.1622e-06
0.00259474 -0.000105339 -6.40047e-07
-0.000105339 -0.00020401 4.11317e-07
-6.40047e-07 4.11317e-07 1.02137e-05
0.00242931 -0.000156332 -6.81601e-07
-0.000156332 -0.000112575 2.10392e-07
-6.81601e-07 2.10392e-07 -7.54667e-06
0.00225358 -0.000167326 -2.59414e-06
-0.000167326 -7.8792e-05 5.82068e-07
-2.59414e-06 5.82068e-07 -3.71469e-05
0.00247017 -0.000285946 -3.22642e-07
-0.000285946 -0.000104442 -4.36973e-07
-3.22642e-07 -4.36973e-07 -5.13741e-06
0.002301 -0.00027204 8.65707e-07
-0.00027204 -4.2927e-05 -3.20125e-07
8.65707e-07 -3.20125e-07 -2.63646e-05
0.00250325 -0.000294206 -3.75621e-06
-0.000294206 0.00013854 9.36479e-07
-3.75621e-06 9.36479e-07 8.17733e-05
0.00234355 -0.000395012 2.86153e-06
-0.000395012 -4.90637e-06 -5.93718e-07
2.86153e-06 -5.93718e-07 -2.38129e-05
0.00246697 -0.00039608 4.16788e-08
-0.00039608 0.000149238 -1.09673e-07
4.16788e-08 -1.09673e-07 5.60442e-05
0.00172728 -0.000263419 -6.22251e-06
-0.000263419 1.092e-05 1.0101e-06
-6.22251e-06 1.0101e-06 -0.000146485
0.00243841 -0.00050522 3.40978e-06
-0.00050522 0.000176037 -8.7836e-07
3.40978e-06 -8.7836e-07 2.9583e-05
0.0017596 -0.000344138 -3.51835e-07
-0.000344138 2.14483e-05 7.16184e-08
-3.51835e-07 7.16184e-08 -0.000170559
0.00274379 -0.000240356 -7.49364e-05
-0.000240356 0.00130713 1.21375e-05
-7.49364e-05 1.21375e-05 0.00118207
0.00183978 -0.000437243 7.33305e-06
-0.000437243 8.30985e-05 -1.88844e-06
7.33305e-06 -1.88844e-06 -0.000155019
0.0030321 -0.000271673 5.49176e-05
-0.000271673 0.0014766 -7.04506e-06
5.49176e-05 -7.04506e-06 0.00134903
0.00290224 -0.000135461 -0.000327332
-0.000135461 0.00158761 4.39645e-05
-0.000327332 4.39645e-05 0.00157305
0.00332277 -0.000318967 0.000191761
-0.000318967 0.00165482 -3.19679e-05
0.000191761 -3.19679e-05 0.00152325
0.00261166 -0.000123502 -0.000119108
-0.000123502 0.00139962 1.71232e-05
-0.000119108 1.71232e-05 0.00135701
0.00233232 -0.000125826 9.82625e-05
-0.000125826 0.00122901 -1.79239e-05
9.82625e-05 -1.79239e-05 0.00115119
0.00246626 0.000366238 7.31575e-07
0.000366238 -5.08514e-05 -3.02246e-07
7.31575e-07 -3.02246e-07 -1.92161e-06
0.00235338 0.000493802 -3.4628e-06
0.000493802 6.11464e-05 -1.2136e-06
-3.4628e-06 -1.2136e-06 -2.16042e-05
0.00253216 0.000570639 -8.97579e-07
0.000570639 1.81687e-05 -2.86119e-07
-8.97579e-07 -2.86119e-07 3.82333e-06
0.00237476 0.000618195 -1.21733e-06
0.000618195 0.00015384 -9.94611e-07
-1.21733e-06 -9.94611e-07 -4.53902e-05
0.00249281 0.00062849 -9.16072e-08
0.00062849 0.000187003 1.25291e-08
-9.16072e-08 1.25291e-08 5.67202e-05
0.00265133 0.000662054 1.25335e-06
0.000662054 0.00014244 2.47269e-06
1.25335e-06 2.47269e-06 6.17238e-05
0.0018271 0.000517488 -1.06818e-05
0.000517488 0.000114291 -2.98331e-06
-1.06818e-05 -2.98331e-06 -0.000174606
0.00237555 0.000723242 -1.35197e-06
0.000723242 0.000229064 -1.85789e-06
-1.35197e-06 -1.85789e-06 -4.16335e-05
0.00246878 0.000749865 -1.64242e-06
0.000749865 0.000143141 -7.48267e-07
-1.64242e-06 -7.48267e-07 -1.94757e-05
0.000434899 0.000304042 -2.04546e-05
0.000304042 -0.000251258 -1.78882e-05
-2.04546e-05 -1.78882e-05 -0.000472186
0.00180562 0.000594292 2.99099e-07
0.000594292 0.000133176 5.2459e-08
2.99099e-07 5.2459e-08 -0.000218158
0.00233045 0.000847832 -3.19888e-06
0.000847832 0.000256745 -8.72884e-06
-3.19888e-06 -8.72884e-06 -0.000112042
0.00205063 0.000746208 2.74761e-05
0.000746208 0.000373195 3.03722e-06
2.74761e-05 3.03722e-06 -8.64403e-05
0.000341975 0.000370315 7.58722e-07
0.000370315 -0.000296503 9.3192e-07
7.58722e-07 9.3192e-07 -0.000558784
0.00923491 0.000352613 -0.000440485
0.000352613 0.00581103 -7.14958e-05
-0.000440485 -7.14958e-05 0.00581214
1.80965e-05 0.000353001 2.39068e-05
0.000353001 -0.000456772 2.74375e-05
2.39068e-05 2.74375e-05 -0.000725801
0.0101187 0.000268358 9.6182e-06
0.000268358 0.00636498 3.24823e-06
9.6182e-06 3.24823e-06 0.0063842
0.0100057 0.000123023 0.000425823
0.000123023 0.0062917 4.40833e-05
0.000425823 4.40833e-05 0.00631417
0.0024861 0.000210219 9.69691e-07
0.000210219 -7.83393e-05 -3.30881e-07
9.69691e-07 -3.30881e-07 2.96897e-05
0.00253893 0.000345496 4.45213e-07
0.000345496 -0.000187631 5.10741e-07
4.45213e-07 5.10741e-07 -3.6523e-05
0.00273744 0.00045499 -6.74679e-07
0.00045499 -0.000350861 -1.21833e-06
-6.74679e-07 -1.21833e-06 -6.21388e-05
0.002617 0.000576982 2.12903e-06
0.000576982 -9.22334e-05 -2.59452e-07
2.12903e-06 -2.59452e-07 -1.44404e-05
0.0023339 5.3515e-05 -4.68003e-07
5.3515e-05 -6.90182e-05 1.19933e-08
-4.68003e-07 1.19933e-08 -7.20678e-06
0.0025046 0.000102365 1.57053e-07
0.000102365 -0.000133503 -1.37924e-08
1.57053e-07 -1.37924e-08 7.8856e-06
0.00263685 0.000124104 2.18453e-07
0.000124104 -0.000180418 3.67936e-08
2.18453e-07 3.67936e-08 2.17656e-05
0.00249496 -9.58099e-07 -1.92535e-06
-9.58099e-07 -0.000128293 -1.63887e-07
-1.92535e-06 -1.63887e-07 2.14335e-05
0.00239278 -2.72787e-05 -7.7074e-07
-2.72787e-05 -8.60344e-05 -1.6038e-07
-7.7074e-07 -1.6038e-07 1.10138e-05
0.00230946 -5.87091e-05 -4.14863e-06
-5.87091e-05 -4.58935e-06 1.83002e-07
-4.14863e-06 1.83002e-07 3.05456e-05
0.00242445 -0.000158679 -7.4468e-07
-0.000158679 -0.00010605 2.1955e-07
-7.4468e-07 2.1955e-07 -7.95658e-06
0.00230045 -0.000168437 -1.50964e-06
-0.000168437 -3.46471e-05 2.54081e-07
-1.50964e-06 2.54081e-07 -2.23759e-06
0.00242259 -0.000195258 -3.28757e-06
-0.000195258 5.50691e-05 7.01816e-07
-3.28757e-06 7.01816e-07 2.70096e-05
0.00230323 -0.000269832 3.82029e-06
-0.000269832 -4.0162e-05 -9.75185e-07
3.82029e-06 -9.75185e-07 -2.31471e-05
0.00249443 -0.000292294 4.74872e-07
-0.000292294 0.00013665 -1.56006e-07
4.74872e-07 -1.56006e-07 7.96138e-05
0.00170716 -0.000195076 -6.88043e-06
-0.000195076 -7.22046e-06 1.05586e-06
-6.88043e-06 1.05586e-06 -0.000140739
0.00246459 -0.000394582 4.14724e-06
-0.000394582 0.000148929 -9.51582e-07
4.14724e-06 -9.51582e-07 5.67831e-05
0.00170811 -0.000263444 -1.55039e-07
-0.000263444 -1.9185e-05 7.81941e-09
-1.55039e-07 7.81941e-09 -0.000175942
0.000257652 -0.000128827 -1.49515e-05
-0.000128827 -0.000350335 6.75004e-06
-1.49515e-05 6.75004e-06 -0.000476582
0.00177951 -0.000346752 6.85025e-06
-0.000346752 1.95146e-05 -1.52445e-06
6.85025e-06 -1.52445e-06 -0.000172083
0.00162348 -0.000180704 8.03885e-05
-0.000180704 0.000546955 -7.39233e-06
8.03885e-05 -7.39233e-06 0.000430398
0.00748432 -0.000210589 -0.000422266
-0.000210589 0.00467087 3.78088e-05
-0.000422266 3.78088e-05 0.00470572
0.0031632 -0.00025273 0.000181968
-0.00025273 0.00155374 -2.42491e-05
0.000181968 -2.42491e-05 0.00144568
0.00248097 -0.000108418 -0.000107172
-0.000108418 0.001322 1.09583e-05
-0.000107172 1.09583e-05 0.00128255
0.00216052 -0.000130352 0.000105828
-0.000130352 0.00112778 -1.82791e-05
0.000105828 -1.82791e-05 0.00105345
0.00242529 0.000249302 6.64293e-07
0.000249302 -1.9269e-05 -8.38534e-07
6.64293e-07 -8.38534e-07 2.74452e-05
0.00230995 0.000375277 -2.53656e-06
0.000375277 6.44989e-07 -9.22748e-07
-2.53656e-06 -9.22748e-07 -2.62284e-05
0.00247542 0.000355585 -2.41921e-07
0.000355585 -2.84684e-05 -1.6588e-08
-2.41921e-07 -1.6588e-08 1.21448e-05
0.00234852 0.000491868 -8.95e-07
0.000491868 0.000113054 -5.71918e-07
-8.95e-07 -5.71918e-07 -3.04962e-05
0.00237808 0.000497699 -3.82626e-08
0.000497699 8.19131e-05 -2.10235e-07
-3.82626e-08 -2.10235e-07 1.86454e-06
0.00254079 0.000573538 6.54285e-07
0.000573538 -2.47693e-07 4.7613e-07
6.54285e-07 4.7613e-07 7.56959e-07
0.00182784 0.000452184 -5.69739e-06
0.000452184 8.9331e-05 -1.44234e-06
-5.69739e-06 -1.44234e-06 -0.000139206
0.00236285 0.000611852 -1.7788e-06
0.000611852 0.000150796 -9.09651e-07
-1.7788e-06 -9.09651e-07 -5.23943e-05
0.00247515 0.000624874 3.1045e-06
0.000624874 0.000190061 1.55195e-06
3.1045e-06 1.55195e-06 4.78553e-05
0.000371749 0.000225659 -1.66778e-05
0.000225659 -0.000293119 -1.28626e-05
-1.66778e-05 -1.28626e-05 -0.000476475
0.00173571 0.000508002 4.52234e-07
0.000508002 5.99521e-05 1.93018e-07
4.52234e-07 1.93018e-07 -0.000218912
0.00231005 0.000731405 -2.94987e-06
0.000731405 0.000154643 -5.70771e-06
-2.94987e-06 -5.70771e-06 -0.000103474
0.00859271 0.000382606 -0.000428676
0.000382606 0.00539994 -6.6713e-05
-0.000428676 -6.6713e-05 0.00539975
0.000378677 0.000304581 3.68285e-07
0.000304581 -0.000295625 9.60998e-07
3.68285e-07 9.60998e-07 -0.000520419
0.00176169 0.000582111 1.8575e-05
0.000582111 0.000123816 2.45793e-06
1.8575e-05 2.45793e-06 -0.000224735
0.00022718 0.000354596 2.14986e-05
0.000354596 -0.000371299 2.3406e-05
2.14986e-05 2.3406e-05 -0.000633366
0.00944974 0.00035539 1.07298e-05
0.00035539 0.00594745 4.33731e-06
1.07298e-05 4.33731e-06 0.00595471
0.0103342 0.000240809 0.000484907
0.000240809 0.00648576 5.51105e-05
0.000484907 5.51105e-05 0.00651389
0.00232908 0.000135495 -1.20504e-06
0.000135495 -5.05404e-05 -4.97871e-08
-1.20504e-06 -4.97871e-08 -7.3918e-06
0.00247324 0.000204213 -1.34027e-07
0.000204213 -9.06749e-05 5.76419e-08
-1.34027e-07 5.76419e-08 1.40435e-05
0.00250392 0.000351916 2.74275e-07
0.000351916 -0.000220023 7.44563e-08
2.74275e-07 7.44563e-08 -6.73147e-05
0.00229922 3.14917e-05 -6.36904e-06
3.14917e-05 2.9276e-05 -2.79114e-07
-6.36904e-06 -2.79114e-07 4.60396e-05
0.00233218 6.26981e-05 8.22558e-07
6.26981e-05 -7.45214e-05 2.20334e-08
8.22558e-07 2.20334e-08 -6.92302e-06
0.00250374 8.793e-05 -5.72393e-07
8.793e-05 -0.000139312 -5.75842e-08
-5.72393e-07 -5.75842e-08 6.10617e-06
0.0024043 -2.09468e-05 -4.32318e-07
-2.09468e-05 -8.39613e-05 6.94713e-08
-4.32318e-07 6.94713e-08 1.74128e-05
0.00231422 -5.91897e-05 -1.36064e-07
-5.91897e-05 -3.02388e-06 2.60933e-10
-1.36064e-07 2.60933e-10 3.37748e-05
0.00214156 -8.85115e-05 -3.6957e-06
-8.85115e-05 -0.000135685 3.03627e-07
-3.6957e-06 3.03627e-07 -0.000174492
0.00234641 -0.000169813 3.64862e-06
-0.000169813 9.73201e-06 -4.08255e-07
3.64862e-06 -4.08255e-07 3.29627e-05
0.00237721 -0.0001976 2.5713e-07
-0.0001976 3.37534e-05 1.55917e-08
2.5713e-07 1.55917e-08 -7.16882e-06
0.00185271 -0.000130179 -7.19569e-06
-0.000130179 9.46525e-05 6.89813e-07
-7.19569e-06 6.89813e-07 -8.36368e-06
0.00247828 -0.000291293 4.45214e-06
-0.000291293 0.00013029 -1.25887e-06
4.45214e-06 -1.25887e-06 7.27657e-05
0.00167773 -0.000191917 9.48258e-08
-0.000191917 -4.53066e-05 -1.86013e-08
9.48258e-08 -1.86013e-08 -0.000177789
0.000201238 -5.48007e-05 -1.3169e-05
-5.48007e-05 -0.000373528 3.81697e-06
-1.3169e-05 3.81697e-06 -0.000483652
0.00169225 -0.000262084 6.23746e-06
-0.000262084 -5.04225e-05 -1.39306e-06
6.23746e-06 -1.39306e-06 -0.000206136
0.000267733 -0.000112918 -2.81848e-07
-0.000112918 -0.000336643 4.48503e-07
-2.81848e-07 4.48503e-07 -0.000461024
0.00733809 -0.000104064 -0.000408321
-0.000104064 0.00456424 2.48723e-05
-0.000408321 2.48723e-05 0.00460717
0.000437824 -0.000136512 1.23353e-05
-0.000136512 -0.000241224 -8.80059e-06
1.23353e-05 -8.80059e-06 -0.000380362
0.00485675 -0.000141301 0.000169771
-0.000141301 0.00292255 -1.14962e-05
0.000169771 -1.14962e-05 0.00290788
0.0020278 -0.000111075 0.000107095
-0.000111075 0.0010466 -1.61881e-05
0.000107095 -1.61881e-05 0.000978273
0.00240703 0.000208431 -3.69181e-06
0.000208431 4.2454e-05 -5.93488e-07
-3.69181e-06 -5.93488e-07 7.20226e-05
0.00225176 0.000265721 -5.50725e-06
0.000265721 -5.22012e-06 -8.99524e-07
-5.50725e-06 -8.99524e-07 -2.17863e-05
0.00240875 0.000238167 -7.31349e-07
0.000238167 -2.48828e-05 -2.92741e-07
-7.31349e-07 -2.92741e-07 2.31164e-05
0.0024315 0.000399382 -1.77427e-06
0.000399382 0.000156325 -9.10032e-07
-1.77427e-06 -9.10032e-07 4.82856e-05
0.00231772 0.00037098 -4.20141e-08
0.00037098 8.29254e-06 -1.93632e-07
-4.20141e-08 -1.93632e-07 -2.01154e-05
0.00248755 0.000345279 1.24054e-07
0.000345279 -3.56248e-06 3.15613e-07
1.24054e-07 3.15613e-07 2.86428e-05
0.00181146 0.000364089 -3.62407e-06
0.000364089 7.28764e-05 -1.36782e-06
-3.62407e-06 -1.36782e-06 -0.00011269
0.00234229 0.000492048 8.63545e-07
0.000492048 0.000118418 6.66291e-08
8.63545e-07 6.66291e-08 -3.54582e-05
0.00240134 0.00050156 3.8659e-06
0.00050156 0.000101782 1.31053e-06
3.8659e-06 1.31053e-06 2.4817e-05
0.000323207 0.000168393 -1.4575e-05
0.000168393 -0.000316069 -9.18495e-06
-1.4575e-05 -9.18495e-06 -0.000473087
0.00179568 0.000441912 2.12811e-06
0.000441912 7.3912e-05 1.29843e-06
2.12811e-06 1.29843e-06 -0.000149909
0.0023498 0.00060599 -2.29066e-06
0.00060599 0.000146455 -1.28259e-06
-2.29066e-06 -1.28259e-06 -6.07456e-05
0.00804955 0.000385725 -0.000428864
0.000385725 0.00506259 -6.08323e-05
-0.000428864 -6.08323e-05 0.00506352
0.000379752 0.000233193 4.69672e-07
0.000233193 -0.000294769 4.42654e-07
4.69672e-07 4.42654e-07 -0.000482449
0.00166598 0.000501184 1.13764e-05
0.000501184 1.98044e-05 1.71383e-06
1.13764e-05 1.71383e-06 -0.000249874
0.00879317 0.000411502 1.13782e-05
0.000411502 0.00554223 6.50817e-06
1.13782e-05 6.50817e-06 0.00553931
0.000338917 0.000305033 1.79302e-05
0.000305033 -0.000329784 1.88706e-05
1.79302e-05 1.88706e-05 -0.000558492
0.00966608 0.000343598 0.000487696
0.000343598 0.00607109 6.56451e-05
0.000487696 6.56451e-05 0.00609089
0.00228598 0.000107867 -6.40171e-06
0.000107867 2.69689e-05 -1.41508e-07
-6.40171e-06 -1.41508e-07 3.22355e-05
0.00231805 0.000143549 -6.91996e-07
0.000143549 -5.05695e-05 -2.97982e-07
-6.91996e-07 -2.97982e-07 -7.03903e-06
0.00245926 0.000198521 -4.7847e-07
0.000198521 -0.000103673 3.19624e-07
-4.7847e-07 3.19624e-07 -2.27871e-06
0.00214326 5.26863e-06 -2.80199e-06
5.26863e-06 -0.000128482 -6.76187e-08
-2.80199e-06 -6.76187e-08 -0.00016767
0.00230275 3.52084e-05 -1.08161e-07
3.52084e-05 2.50185e-05 1.59692e-08
-1.08161e-07 1.59692e-08 4.69361e-05
0.00232995 7.22413e-05 4.59185e-07
7.22413e-05 -8.03843e-05 3.07669e-07
4.59185e-07 3.07669e-07 -7.00917e-06
0.00231811 -5.97714e-05 3.74938e-06
-5.97714e-05 -1.91687e-06 -1.29462e-07
3.74938e-06 -1.29462e-07 3.64193e-05
0.00219947 -8.73474e-05 -1.67794e-06
-8.73474e-05 -8.72553e-05 1.45763e-07
-1.67794e-06 1.45763e-07 -0.000123681
0.00170882 -5.59743e-05 -5.38628e-06
-5.59743e-05 5.73913e-06 3.26509e-07
-5.38628e-06 3.26509e-07 -8.98919e-05
0.00234745 -0.000200118 3.04559e-06
-0.000200118 2.47112e-05 -1.01999e-06
3.04559e-06 -1.01999e-06 -2.88531e-05
0.00177496 -0.000131873 3.00897e-06
-0.000131873 2.95783e-05 -1.86441e-07
3.00897e-06 -1.86441e-07 -8.08818e-05
0.000161937 -2.67186e-05 -1.31057e-05
-2.67186e-05 -0.000382249 2.43358e-06
-1.31057e-05 2.43358e-06 -0.000484044
0.00164341 -0.000190547 7.13598e-06
-0.000190547 -8.34928e-05 -1.42905e-06
7.13598e-06 -1.42905e-06 -0.000215296
0.000192683 -6.18035e-05 4.33742e-07
-6.18035e-05 -0.000372109 -3.95103e-07
4.33742e-07 -3.95103e-07 -0.000481151
0.00710358 -0.000186245 -0.00040557
-0.000186245 0.0044307 2.64365e-05
-0.00040557 2.64365e-05 0.00446574
0.000256434 -9.69273e-05 1.28776e-05
-9.69273e-05 -0.000337454 -5.27954e-06
1.28776e-05 -5.27954e-06 -0.000459287
0.00726002 -0.000137254 5.96369e-06
-0.000137254 0.00451917 4.2039e-07
5.96369e-06 4.2039e-07 0.00456012
0.00229464 -6.33287e-05 0.000308632
-6.33287e-05 0.0011905 -2.55724e-05
0.000308632 -2.55724e-05 0.0011858
0.00229819 0.000190733 -8.07152e-06
0.000190733 5.24091e-05 -7.99968e-07
-8.07152e-06 -7.99968e-07 4.43126e-05
0.00232472 0.000209933 -7.15154e-07
0.000209933 -2.78286e-05 -8.24183e-08
-7.15154e-07 -8.24183e-08 1.14196e-05
0.00245343 0.000299113 -9.77317e-07
0.000299113 0.000144563 -3.91484e-07
-9.77317e-07 -3.91484e-07 6.93912e-05
0.00226008 0.000266532 5.56516e-07
0.000266532 -2.60462e-06 2.10344e-08
5.56516e-07 2.10344e-08 -1.99956e-05
0.00239218 0.000226851 -1.61265e-07
0.000226851 -3.07673e-05 -2.779e-08
-1.61265e-07 -2.779e-08 1.86687e-05
0.00167169 0.000272283 -2.79366e-06
0.000272283 -2.57405e-05 -1.2975e-06
-2.79366e-06 -1.2975e-06 -0.000195339
0.00244539 0.000400613 3.83511e-07
0.000400613 0.000160072 -9.85034e-09
3.83511e-07 -9.85034e-09 5.21225e-05
0.00232436 0.000366476 3.64276e-06
0.000366476 1.42519e-05 1.39386e-06
3.64276e-06 1.39386e-06 -1.55354e-05
0.000306713 0.000127055 -1.36725e-05
0.000127055 -0.000313162 -6.71424e-06
-1.36725e-05 -6.71424e-06 -0.000451843
0.00174989 0.000356406 3.11076e-06
0.000356406 4.28246e-05 1.09561e-06
3.11076e-06 1.09561e-06 -0.000149003
0.00234568 0.000492938 8.68612e-07
0.000492938 0.000130913 7.38039e-07
8.68612e-07 7.38039e-07 -3.39615e-05
0.00766084 0.000355605 -0.000432111
0.000355605 0.00482088 -5.34935e-05
-0.000432111 -5.34935e-05 0.00482694
0.00035471 0.000178136 3.8757e-07
0.000178136 -0.000299214 2.12476e-07
3.8757e-07 2.12476e-07 -0.000460207
0.00176599 0.000431436 8.83008e-06
0.000431436 6.02022e-05 3.11879e-06
8.83008e-06 3.11879e-06 -0.000158626
0.00822338 0.000416816 8.67181e-06
0.000416816 0.00518722 6.33103e-06
8.67181e-06 6.33103e-06 0.00518266
0.000383702 0.000239524 1.58374e-05
0.000239524 -0.000298658 1.35525e-05
1.58374e-05 1.35525e-05 -0.000490679
0.00899345 0.000433161 0.000476005
0.000433161 0.0056714 7.39477e-05
0.000476005 7.39477e-05 0.00567156
0.00210321 0.000104321 -1.11695e-06
0.000104321 -0.000136683 -3.45315e-07
-1.11695e-06 -3.45315e-07 -0.000187038
0.00230527 0.00010832 -1.78446e-06
0.00010832 4.54025e-05 -7.72884e-08
-1.78446e-06 -7.72884e-08 4.93007e-05
0.00230779 0.000151599 1.97306e-06
0.000151599 -4.97246e-05 1.48222e-07
1.97306e-06 1.48222e-07 -5.93136e-06
0.00170184 -2.75509e-06 -3.98806e-06
-2.75509e-06 1.20224e-05 1.25732e-07
-3.98806e-06 1.25732e-07 -8.33864e-05
0.00218149 5.69005e-06 -1.75182e-06
5.69005e-06 -9.19812e-05 4.1886e-08
-1.75182e-06 4.1886e-08 -0.000130386
0.00230571 3.8494e-05 4.89302e-06
3.8494e-05 2.06009e-05 3.06211e-07
4.89302e-06 3.06211e-07 4.76441e-05
0.00225925 -8.66923e-05 -3.8412e-07
-8.66923e-05 -3.71219e-05 1.53082e-08
-3.8412e-07 1.53082e-08 -7.12687e-05
0.00181051 -6.02135e-05 2.43529e-06
-6.02135e-05 7.20825e-05 -4.16119e-08
2.43529e-06 -4.16119e-08 -2.25304e-05
0.000179966 -3.44462e-05 -1.3839e-05
-3.44462e-05 -0.000361125 1.65129e-06
-1.3839e-05 1.65129e-06 -0.000457185
0.00168564 -0.000132579 1.01041e-05
-0.000132579 -4.65666e-05 -1.4949e-06
1.01041e-05 -1.4949e-06 -0.000164526
0.000169535 -1.55275e-05 7.10933e-08
-1.55275e-05 -0.000376571 6.13998e-08
7.10933e-08 6.13998e-08 -0.000476502
0.00699327 -0.000148417 -0.000404696
-0.000148417 0.00435487 2.01942e-05
-0.000404696 2.01942e-05 0.00439519
0.000224388 -6.6278e-05 1.35288e-05
-6.6278e-05 -0.000343071 -3.83202e-06
1.35288e-05 -3.83202e-06 -0.000451989
0.00710237 -8.93706e-05 -2.81858e-06
-8.93706e-05 0.00441437 4.04892e-06
-2.81858e-06 4.04892e-06 0.00445929
0.00723837 -0.000150254 0.000405784
-0.000150254 0.00450835 -2.45387e-05
0.000405784 -2.45387e-05 0.00454879
0.00242206 0.00019845 -3.09164e-07
0.00019845 0.000119305 -5.01636e-07
-3.09164e-07 -5.01636e-07 6.32407e-05
0.00224987 0.000192818 -2.83348e-07
0.000192818 4.9636e-06 7.77042e-08
-2.83348e-07 7.77042e-08 1.30456e-06
0.00224106 0.000211508 1.58817e-06
0.000211508 -9.96551e-05 4.16355e-07
1.58817e-06 4.16355e-07 -5.07764e-05
0.00162947 0.000190945 -1.72773e-06
0.000190945 -5.3118e-05 -7.2792e-07
-1.72773e-06 -7.2792e-07 -0.00019865
0.00246739 0.000297437 2.98747e-07
0.000297437 0.000151108 -4.85461e-08
2.98747e-07 -4.85461e-08 7.65715e-05
0.00226989 0.00026759 5.03992e-06
0.00026759 1.18062e-06 6.82677e-07
5.03992e-06 6.82677e-07 -1.72068e-05
0.000259456 8.85537e-05 -1.24429e-05
8.85537e-05 -0.000328549 -4.85477e-06
-1.24429e-05 -4.85477e-06 -0.0004519
0.00171013 0.000272895 -7.32748e-08
0.000272895 1.93962e-05 2.20678e-07
-7.32748e-08 2.20678e-07 -0.000151056
0.00246356 0.000401888 1.817e-06
0.000401888 0.000167252 7.71282e-07
1.817e-06 7.71282e-07 5.93838e-05
0.00736061 0.00028851 -0.000432228
0.00028851 0.00461954 -4.30339e-05
-0.000432228 -4.30339e-05 0.0046393
0.000322483 0.000136654 3.11186e-07
0.000136654 -0.000305732 1.75665e-07
3.11186e-07 1.75665e-07 -0.000447787
0.00167561 0.000347539 6.47092e-06
0.000347539 3.95683e-06 2.90508e-06
6.47092e-06 2.90508e-06 -0.000193638
0.00778151 0.0003764 5.23438e-06
0.0003764 0.00490392 3.96139e-06
5.23438e-06 3.96139e-06 0.0049077
0.000384798 0.000189205 1.50259e-05
0.000189205 -0.000281911 1.01938e-05
1.50259e-05 1.01938e-05 -0.00044753
0.0084348 0.000463183 0.000469915
0.000463183 0.00534063 7.58373e-05
0.000469915 7.58373e-05 0.00532994
0.00153458 5.72416e-05 -4.47318e-06
5.72416e-05 -0.000100027 3.63112e-08
-4.47318e-06 3.63112e-08 -0.000218524
0.00224119 0.000102172 -3.21896e-06
0.000102172 -3.44562e-05 -2.13323e-07
-3.21896e-06 -2.13323e-07 -7.49877e-05
0.00232644 0.00010899 5.73874e-06
0.00010899 6.47477e-05 4.78089e-07
5.73874e-06 4.78089e-07 6.73509e-05
0.000209992 3.17726e-05 -1.45478e-05
3.17726e-05 -0.000341215 -4.30535e-07
-1.45478e-05 -4.30535e-07 -0.000429903
0.00178302 -1.36427e-06 2.70732e-06
-1.36427e-06 6.49072e-05 8.71787e-08
2.70732e-06 8.71787e-08 -2.96221e-05
0.00222504 8.03574e-06 -1.25454e-06
8.03574e-06 -5.17926e-05 2.33273e-08
-1.25454e-06 2.33273e-08 -8.93368e-05
0.00190403 -6.37515e-05 1.1467e-05
-6.37515e-05 0.000133023 -9.09502e-07
1.1467e-05 -9.09502e-07 3.94448e-05
0.000172555 -1.0033e-05 2.87836e-07
-1.0033e-05 -0.000364495 3.65325e-07
2.87836e-07 3.65325e-07 -0.000460324
0.00686899 -7.9179e-06 -0.000405237
-7.9179e-06 0.00426194 5.31333e-06
-0.000405237 5.31333e-06 0.00431215
0.00016491 -3.89509e-06 1.34048e-05
-3.89509e-06 -0.000378972 -1.48964e-06
1.34048e-05 -1.48964e-06 -0.000476966
0.0069422 -0.000144791 -6.97012e-06
-0.000144791 0.00432361 2.46566e-06
-6.97012e-06 2.46566e-06 0.00436338
0.00703909 -7.34257e-05 0.00039172
-7.34257e-05 0.0043725 -1.49598e-05
0.00039172 -1.49598e-05 0.0044179
0.00160969 0.00012037 -3.24225e-06
0.00012037 -4.68791e-05 -4.92705e-07
-3.24225e-06 -4.92705e-07 -0.000175979
0.00238458 0.00019388 -1.77027e-07
0.00019388 8.63381e-05 -2.07645e-07
-1.77027e-07 -2.07645e-07 3.38629e-05
0.00220133 0.000194822 3.96336e-06
0.000194822 -4.20641e-05 8.40542e-08
3.96336e-06 8.40542e-08 -4.12386e-05
0.00269969 9.99558e-05 -0.0001732
9.99558e-05 0.00130973 -8.49422e-06
-0.0001732 -8.49422e-06 0.00124946
0.00166693 0.000192398 -3.27673e-08
0.000192398 -1.1725e-05 6.61727e-08
-3.27673e-08 6.61727e-08 -0.00015817
0.00247743 0.000295286 1.75995e-06
0.000295286 0.000155905 3.7772e-07
1.75995e-06 3.7772e-07 8.20874e-05
0.00717649 0.000218951 -0.000428307
0.000218951 0.00448878 -3.20186e-05
-0.000428307 -3.20186e-05 0.00452149
0.000288528 0.000108789 3.8912e-07
0.000108789 -0.000311069 4.7017e-07
3.8912e-07 4.7017e-07 -0.000437976
0.00174898 0.000272927 2.59437e-06
0.000272927 6.50245e-05 1.505e-06
2.59437e-06 1.505e-06 -0.00010626
0.00747193 0.000306114 3.00111e-06
0.000306114 0.00469323 2.26341e-06
3.00111e-06 2.26341e-06 0.00471097
0.000348612 0.000148376 1.44092e-05
0.000148376 -0.000290856 7.82443e-06
1.44092e-05 7.82443e-06 -0.000436928
0.00789745 0.000410701 0.000453883
0.000410701 0.00499219 6.69419e-05
0.000453883 6.69419e-05 0.00499016
0.000331506 2.25676e-05 -1.17773e-05
2.25676e-05 -0.000251306 -1.48612e-06
-1.17773e-05 -1.48612e-06 -0.000349247
0.00166838 5.80417e-05 -9.90789e-07
5.80417e-05 -2.76211e-06 1.71494e-08
-9.90789e-07 1.71494e-08 -0.000112641
0.0023547 9.88752e-05 -9.69183e-07
9.88752e-05 4.84533e-05 1.31127e-07
-9.69183e-07 1.31127e-07 1.76051e-05
0.00674926 -9.68443e-05 -0.000389191
-9.68443e-05 0.00419896 6.96631e-06
-0.000389191 6.96631e-06 0.0042397
0.000171476 1.44333e-05 -5.85178e-07
1.44333e-05 -0.000363367 -3.32271e-07
-5.85178e-07 -3.32271e-07 -0.000454405
0.00186803 -1.57671e-06 1.03663e-05
-1.57671e-06 0.000119614 -4.52489e-07
1.03663e-05 -4.52489e-07 2.59879e-05
0.000152051 1.40264e-05 1.37154e-05
1.40264e-05 -0.000378659 -2.637e-07
1.37154e-05 -2.637e-07 -0.000473134
0.00681807 -3.85815e-05 1.34671e-06
-3.85815e-05 0.00423591 -2.19571e-06
1.34671e-06 -2.19571e-06 0.00428037
0.00690726 -7.60591e-05 0.000393212
-7.60591e-05 0.00428718 -1.10859e-05
0.000393212 -1.10859e-05 0.00433334
0.00283294 4.54195e-05 -0.000168526
4.54195e-05 0.00140321 -4.54425e-06
-0.000168526 -4.54425e-06 0.00135216
0.00162516 0.000123232 -2.41593e-07
0.000123232 -3.04278e-05 3.83754e-08
-2.41593e-07 3.83754e-08 -0.000160337
0.00234617 0.000189411 1.13303e-06
0.000189411 5.18111e-05 -1.6176e-07
1.13303e-06 -1.6176e-07 2.8132e-06
0.00672602 3.08302e-05 -0.000192928
3.08302e-05 0.00419804 -3.68465e-06
-0.000192928 -3.68465e-06 0.00419032
0.000238418 8.44595e-05 3.62694e-07
8.44595e-05 -0.000331073 2.09492e-07
3.62694e-07 2.09492e-07 -0.000443996
0.00170765 0.000195057 2.24167e-06
0.000195057 2.94792e-05 6.6793e-07
2.24167e-06 6.6793e-07 -0.000118023
0.00722376 0.000197354 -5.77553e-06
0.000197354 0.00451149 -1.52746e-06
-5.77553e-06 -1.52746e-06 0.00454577
0.000316982 0.000129587 1.54683e-05
0.000129587 -0.000295074 6.63443e-06
1.54683e-05 6.63443e-06 -0.000424892
0.00754184 0.000326229 0.000445298
0.000326229 0.00474262 5.38903e-05
0.000445298 5.38903e-05 0.00475909
0.00217052 -4.36317e-05 -0.000298134
-4.36317e-05 0.00110874 1.59448e-06
-0.000298134 1.59448e-06 0.00112076
0.001447 4.50065e-05 -7.6397e-05
4.50065e-05 0.000483625 -6.45124e-07
-7.6397e-05 -6.45124e-07 0.000414554
0.00181733 6.14383e-05 6.51769e-06
6.14383e-05 0.000107374 -2.04757e-08
6.51769e-06 -2.04757e-08 6.21429e-06
0.00679477 -4.42592e-05 6.20307e-06
-4.42592e-05 0.00422307 3.85055e-06
6.20307e-06 3.85055e-06 0.00426965
0.000165924 -1.11323e-06 1.44028e-05
-1.11323e-06 -0.00036101 2.19567e-07
1.44028e-05 2.19567e-07 -0.000455415
0.00682338 -9.4005e-05 0.00040479
-9.4005e-05 0.004245 -8.47881e-06
0.00040479 -8.47881e-06 0.0042892
0.00170813 3.75508e-05 -8.90645e-05
3.75508e-05 0.000841266 -2.86272e-06
-8.90645e-05 -2.86272e-06 0.000793479
0.00145972 4.5253e-05 -7.67322e-05
4.5253e-05 0.000486345 -2.81258e-06
-7.67322e-05 -2.81258e-06 0.000410157
0.00164352 0.000124233 3.51053e-06
0.000124233 -1.04726e-05 3.52663e-07
3.51053e-06 3.52663e-07 -0.000141059
0.00442209 0.000103875 0.000153229
0.000103875 0.00264227 6.69797e-06
0.000153229 6.69797e-06 0.00263838
0.000217562 9.55294e-05 1.52493e-05
9.55294e-05 -0.000349005 5.04539e-06
1.52493e-05 5.04539e-06 -0.000462676
0.00726554 0.000186136 0.00042186
0.000186136 0.00452953 3.42625e-05
0.00042186 3.42625e-05 0.00456753
0.00678808 9.30737e-07 -7.47222e-06
9.30737e-07 0.00422468 -4.2999e-06
-7.47222e-06 -4.2999e-06 0.00426854
0.00018858 5.94382e-05 1.65069e-05
5.94382e-05 -0.000358903 2.42952e-06
1.65069e-05 2.42952e-06 -0.000449273
0.00673344 3.60361e-05 0.000395403
3.60361e-05 0.0041791 1.25028e-06
0.000395403 1.25028e-06 0.00422828
0.00433297 6.32475e-05 0.000161978
6.32475e-05 0.00258251 8.25329e-06
0.000161978 8.25329e-06 0.002584
0.000217136 3.30313e-05 1.47232e-05
3.30313e-05 -0.00034288 2.55569e-06
1.47232e-05 2.55569e-06 -0.000443897
0.00703984 5.80634e-05 0.000406209
5.80634e-05 0.00437382 1.80864e-05
0.000406209 1.80864e-05 0.00441919
0.00678348 -8.40163e-05 0.000393808
-8.40163e-05 0.0042217 -2.70296e-06
0.000393808 -2.70296e-06 0.00426329
0.00682311 5.40499e-05 0.000397983
5.40499e-05 0.00423133 1.21189e-05
0.000397983 1.21189e-05 0.00428007
