# vtk DataFile Version 2.0
Wound Healing Simulation
ASCII
DATASET UNSTRUCTURED_GRID
POINTS 3012 float
69.9759 18.75 4
67.2507 60.3285 4
69.976 18.75 2
73.0099 25.446 4
71.1327 20.9142 4
68.6801 16.6661 4
67.8264 19.9137 3.99343
67.2507 60.3286 2
71.1327 54.0858 4
68.6801 58.3339 4
65.6939 62.2254 4
65.313 59.0111 3.99424
74.6784 42.3946 4
73.7221 47.2057 4
69.9759 18.75 0
73.0099 25.446 2
68.6801 16.6661 2
71.1327 20.9142 2
67.8264 19.9131 2
74.6792 32.6053 4
73.7222 27.7943 4
72.1454 23.1494 4
70.6165 26.2106 3.99194
68.8871 21.9459 3.993
67.2507 14.6715 4
66.6377 17.9601 3.99382
65.8042 21.0032 3.98945
67.2507 60.3285 0
71.1327 54.0858 2
68.6801 58.3339 2
65.694 62.2255 2
65.3129 59.0116 2
72.1454 51.8506 4
69.9759 56.25 4
68.8379 53.1251 3.99276
64.0165 64.0165 4
66.6114 57.1449 3.99395
63.8865 60.7742 3.99453
63.5045 57.7941 3.99048
60.3285 67.2507 4
74.6792 42.3947 2
73.7222 47.2057 2
74.9194 39.9526 4
74.2788 44.8158 4
72.1716 42.0914 3.99063
73.0099 49.554 4
71.2521 46.6076 3.99133
73.0099 25.446 0
71.1327 20.9142 0
68.6801 16.6661 0
67.8264 19.9137 0.00657331
74.6792 32.6053 2
73.7222 27.7943 2
67.2508 14.6715 2
72.1455 23.1494 2
70.6165 26.2101 2
66.6376 17.9596 2
68.887 21.9453 2
65.8042 21.0027 2
74.9197 35.0474 4
74.2794 30.1841 4
72.188 32.9377 3.99046
71.2809 28.4221 3.99133
69.8174 24.0482 3.99251
68.357 26.9356 3.98793
66.7709 22.913 3.98896
65.694 12.7746 4
65.3242 16.0931 3.99415
64.7192 19.1714 3.98993
63.9014 22.0059 3.98733
71.1327 54.0858 0
65.6939 62.2254 0
68.6801 58.3339 0
65.313 59.0111 0.00576006
72.1455 51.8506 2
69.9759 56.25 2
68.8378 53.1257 2
64.0165 64.0165 2
66.6114 57.1454 2
63.8864 60.7747 2
63.5045 57.7946 2
62.2254 65.694 4
58.8936 65.4193 3.99475
69.7709 51.0004 3.99216
67.7848 55.1793 3.99345
66.658 52.2292 3.9886
62.3366 62.4342 3.9947
64.6664 56.0539 3.99007
62.2053 59.4256 3.9909
61.8319 56.7115 3.98817
58.3339 68.6801 4
60.3285 67.2508 2
73.7221 47.2057 0
74.6784 42.3946 0
74.9197 39.9526 2
74.2794 44.8159 2
72.1717 42.0916 2
73.0099 49.554 2
71.2521 46.608 2
75 37.5 4
72.4092 39.8054 3.9909
71.7856 44.3608 3.99089
69.8162 41.7975 3.98725
70.5775 48.8242 3.99172
68.9234 46.0288 3.98762
74.6792 32.6053 0
73.7222 27.7943 0
67.2507 14.6715 0
72.1454 23.1494 0
70.6165 26.2106 0.00806286
68.8871 21.9459 0.00700133
66.6377 17.9601 0.0061802
65.8042 21.0032 0.0105516
74.9197 35.0474 2
74.2794 30.1841 2
72.1881 32.9375 2
71.2809 28.4218 2
65.694 12.7745 2
65.3241 16.0926 2
69.8174 24.0477 2
68.3571 26.9353 2
64.7192 19.1709 2
66.7709 22.9126 2
63.9014 22.0055 2
72.4169 35.2211 3.99058
71.8068 30.6686 3.99079
69.8516 33.2613 3.98701
68.9769 29.025 3.98741
67.6207 24.8939 3.98846
66.2137 27.6147 3.98635
64.0165 10.9835 4
64.773 23.8034 3.98704
63.8904 14.3187 3.99438
63.5167 17.4233 3.99038
62.9186 20.289 3.98762
62.1144 22.9073 3.98647
60.6839 11.0914 3.9946
57.6121 11.4325 3.99114
72.1454 51.8506 0
69.9759 56.25 0
68.8379 53.1251 0.00723788
64.0165 64.0165 0
63.8865 60.7742 0.00546717
66.6114 57.1449 0.00605181
63.5045 57.7941 0.0095218
62.2255 65.694 2
58.8935 65.4197 2
69.7709 51.001 2
67.7847 55.1798 2
66.6581 52.2296 2
62.3365 62.4347 2
64.6664 56.0544 2
62.2053 59.4261 2
61.832 56.7119 2
60.6686 63.9829 3.99473
57.0241 66.7394 3.99479
57.5575 63.7044 3.99131
67.5171 50.1949 3.98813
65.7092 54.1948 3.98934
64.5544 51.4118 3.98656
60.7742 60.9565 3.99121
62.8317 55.0978 3.9879
60.6644 58.1885 3.98847
60.3407 55.8222 3.98716
56.25 69.9759 4
58.3339 68.6801 2
60.3285 67.2507 0
58.9208 9.65031 3.99464
62.2254 9.30607 4
73.0099 49.554 0
74.2788 44.8158 0
71.2521 46.6076 0.00867132
72.1716 42.0914 0.0093669
74.9194 39.9526 0
75 37.5 2
72.4093 39.8055 2
71.7857 44.3611 2
69.8163 41.7976 2
70.5775 48.8247 2
68.9235 46.029 2
72.4926 37.5121 3.99057
70.054 39.6615 3.98779
69.4419 43.9186 3.98727
67.6195 41.5071 3.98621
68.2764 48.1234 3.98789
66.7305 45.4573 3.98626
74.9197 35.0474 0
74.2794 30.1841 0
72.188 32.9377 0.00954091
71.2809 28.4221 0.00866794
65.694 12.7746 0
65.3242 16.0931 0.00585114
69.8174 24.0482 0.00749066
68.357 26.9356 0.0120684
66.7709 22.913 0.0110377
64.7192 19.1714 0.0100727
63.9014 22.0059 0.0126705
72.417 35.221 2
71.8069 30.6683 2
69.8517 33.2611 2
68.977 29.0247 2
64.0165 10.9835 2
63.8903 14.3182 2
63.5167 17.4228 2
67.6208 24.8935 2
66.2139 27.6145 2
62.9187 20.2887 2
64.7731 23.8031 2
62.1145 22.9071 2
60.6838 11.091 2
57.6121 11.4321 2
70.0702 35.3883 3.98733
69.4782 31.1392 3.98708
67.6767 33.5825 3.98588
66.7922 29.6065 3.98592
65.5421 25.6758 3.98674
64.1747 28.2313 3.98565
62.3418 12.6479 3.99453
62.8814 24.6045 3.98629
62.2005 15.7628 3.99074
61.8217 18.6534 3.98802
61.2353 21.3039 3.98657
60.4542 23.6861 3.98617
59.2464 12.7618 3.99108
55.8738 10.2208 3.99121
56.4061 13.0917 3.98887
69.7709 51.0004 0.00783665
62.2254 65.694 0
58.8936 65.4193 0.00525027
67.7848 55.1793 0.00655327
66.658 52.2292 0.0114041
62.3366 62.4342 0.00529615
62.2053 59.4256 0.00909966
64.6664 56.0539 0.00992573
61.8319 56.7115 0.0118296
60.6685 63.9833 2
57.024 66.7398 2
57.5574 63.7048 2
67.5172 50.1953 2
65.7093 54.1953 2
64.5545 51.4121 2
60.7741 60.957 2
62.8317 55.0982 2
60.6645 58.1889 2
60.3408 55.8225 2
55.0696 67.9357 3.99485
59.2196 62.3819 3.99126
55.8036 64.9201 3.99138
56.328 62.1083 3.98906
65.3503 49.4321 3.98635
63.7204 53.321 3.98715
62.4668 50.6846 3.98563
59.3367 59.5826 3.98884
61.0934 54.3452 3.98693
59.2984 57.0477 3.98706
59.2575 55.2232 3.98692
48.102 68.5843 3.99157
50.9476 69.9344 3.9949
54.0858 71.1327 4
56.25 69.976 2
58.3339 68.6801 0
57.0579 8.33078 3.99468
60.3285 7.74928 4
58.9207 9.64989 2
62.2255 9.30602 2
70.5775 48.8242 0.00827734
71.7856 44.3608 0.00911261
68.9234 46.0288 0.0123763
69.8162 41.7975 0.0127496
72.4092 39.8054 0.00910011
75 37.5 0
72.4926 37.5121 2
70.0541 39.6616 2
69.442 43.9188 2
67.6196 41.5071 2
68.2765 48.1238 2
66.7307 45.4575 2
70.1419 37.5218 3.9876
67.8577 39.5175 3.98682
67.2449 43.4835 3.986
65.5883 41.221 3.98595
66.0886 47.4388 3.98641
64.6827 44.8693 3.98583
72.4169 35.2211 0.00941972
71.8068 30.6686 0.00920707
69.8516 33.2613 0.0129948
68.9769 29.025 0.0125856
64.0165 10.9835 0
63.8904 14.3187 0.00561718
63.5167 17.4233 0.00961749
67.6207 24.8939 0.0115374
66.2137 27.6147 0.0136463
64.773 23.8034 0.0129607
62.9186 20.289 0.0123751
62.1144 22.9073 0.0135257
60.6839 11.0914 0.00540296
57.6121 11.4325 0.00885779
70.0703 35.3883 2
69.4784 31.139 2
67.6768 33.5824 2
66.7924 29.6063 2
62.3417 12.6474 2
62.2005 15.7623 2
61.8218 18.653 2
65.5422 25.6755 2
64.1749 28.2311 2
61.2354 21.3036 2
62.8815 24.6043 2
60.4543 23.6859 2
59.2463 12.7613 2
56.4061 13.0913 2
55.8738 10.2204 2
67.8929 35.5433 3.98625
67.2859 31.6099 3.98575
65.7285 33.9178 3.98568
64.6926 30.1727 3.98509
63.5649 26.3854 3.98607
62.2946 28.7497 3.98566
60.7757 14.2041 3.99097
61.0774 25.2998 3.98599
60.6171 17.0986 3.98842
60.2349 19.7792 3.98684
59.6847 22.2152 3.98605
59.0125 24.2742 3.98637
54.0368 9.12532 3.99125
57.9116 14.3079 3.98884
54.7872 11.9935 3.98892
55.3142 14.6198 3.98751
67.5171 50.1949 0.0118703
57.0241 66.7394 0.00520534
60.6686 63.9829 0.00527078
57.5575 63.7044 0.00869262
65.7092 54.1948 0.0106601
64.5544 51.4118 0.0134429
60.7742 60.9565 0.00879136
60.6644 58.1885 0.011532
62.8317 55.0978 0.0120969
60.3407 55.8222 0.0128404
55.0695 67.9361 2
59.2196 62.3823 2
55.8035 64.9205 2
56.328 62.1088 2
65.3504 49.4324 2
63.7205 53.3214 2
62.467 50.6849 2
59.3368 59.583 2
61.0935 54.3455 2
59.2984 57.048 2
59.2576 55.2234 2
53.0416 69.0031 3.99488
53.9657 66.0211 3.99147
57.8827 60.8921 3.989
54.6839 63.2219 3.98916
55.2137 60.6388 3.98761
63.2221 48.6905 3.98568
61.7626 52.61 3.98602
60.3071 50.0577 3.98515
58.0237 58.2918 3.98732
59.3468 53.9882 3.98646
58.1392 55.8533 3.98591
50.1084 67.8629 3.99154
47.4628 66.5898 3.98937
46.056 69.1632 3.99155
48.102 68.5847 2
48.802 70.7254 3.99492
50.9476 69.9348 2
51.8506 72.1454 4
54.0858 71.1327 2
56.25 69.9759 0
55.1022 7.13583 3.99469
58.3339 6.31992 4
57.0578 8.33038 2
60.3286 7.74926 2
58.9208 9.65031 0.00535778
62.2254 9.30607 0
68.2764 48.1234 0.0121115
69.4419 43.9186 0.0127349
66.7305 45.4573 0.0137435
67.6195 41.5071 0.0137912
70.054 39.6615 0.0122086
72.4926 37.5121 0.00942748
70.1421 37.5218 2
67.8579 39.5175 2
67.2451 43.4836 2
65.5885 41.221 2
66.0887 47.439 2
64.683 44.8693 2
67.9538 37.5224 3.98685
65.8215 39.3763 3.98654
65.2072 43.0414 3.9856
63.7978 40.9421 3.98594
63.9952 46.7421 3.98595
62.8473 44.2405 3.98572
70.0702 35.3883 0.0126734
69.4782 31.1392 0.0129175
67.6767 33.5825 0.014125
66.7922 29.6065 0.0140787
62.3418 12.6479 0.00547278
62.2005 15.7628 0.00926175
61.8217 18.6534 0.0119752
65.5421 25.6758 0.0132576
64.1747 28.2313 0.0143541
62.8814 24.6045 0.0137142
61.2353 21.3039 0.0134336
60.4542 23.6861 0.0138316
59.2464 12.7618 0.00891602
56.4061 13.0917 0.0111314
55.8738 10.2208 0.00879168
67.893 35.5433 2
67.2861 31.6098 2
65.7287 33.9178 2
64.6928 30.1727 2
60.7757 14.2036 2
60.6171 17.0982 2
60.235 19.7789 2
63.5651 26.3852 2
62.2948 28.7496 2
59.6848 22.215 2
61.0776 25.2996 2
59.0127 24.2741 2
57.9116 14.3075 2
55.3142 14.6194 2
54.0368 9.1249 2
54.7872 11.9931 2
65.9086 35.6621 3.98575
65.2166 32.1401 3.98519
64.3224 34.2399 3.98496
62.6345 30.6131 3.98522
61.6868 27.0388 3.98589
60.8946 29.1098 3.98562
59.3127 15.6425 3.9887
59.3705 25.7536 3.98627
59.1304 18.3211 3.9872
58.7569 20.812 3.98609
58.314 23.0445 3.98593
58.006 24.6159 3.98687
52.1115 8.14482 3.99122
53.0581 11.0016 3.98897
56.6786 15.7137 3.98759
53.8107 13.6576 3.98745
54.3783 15.9685 3.98687
55.0696 67.9357 0.00515434
65.3503 49.4321 0.0136516
55.8036 64.9201 0.00861547
59.2196 62.3819 0.00873503
56.328 62.1083 0.0109393
63.7204 53.321 0.0128481
62.4668 50.6846 0.0143734
59.3367 59.5826 0.0111588
59.2984 57.0477 0.0129424
61.0934 54.3452 0.0130658
59.2575 55.2232 0.0130838
53.0415 69.0034 2
53.9656 66.0215 2
57.8827 60.8925 2
54.6839 63.2224 2
55.2137 60.6391 2
63.2223 48.6906 2
61.7627 52.6103 2
60.3073 50.0579 2
58.0238 58.2922 2
59.3469 53.9884 2
58.1393 55.8536 2
52.0692 67.0067 3.99151
52.9529 64.2306 3.98925
56.6518 59.5154 3.98763
53.6822 61.641 3.9877
54.2632 59.3477 3.98679
61.0317 47.9157 3.98563
59.7367 52.1457 3.98572
58.0665 49.6629 3.98634
56.7847 57.0239 3.98605
57.1405 54.168 3.98552
50.1083 67.8633 2
49.3364 65.9306 3.98932
47.4628 66.5902 2
46.8921 64.7481 3.9879
45.558 67.1068 3.98937
43.9733 69.5955 3.99149
46.0559 69.1636 2
46.6088 71.3697 3.9949
48.102 68.5843 0.00843171
48.8019 70.7257 2
49.554 73.0099 4
50.9476 69.9344 0.00509825
51.8506 72.1455 2
54.0858 71.1327 0
53.0633 6.06778 3.99467
55.1021 7.13546 2
56.25 5.02411 4
58.3339 6.3199 2
57.0579 8.33078 0.00531891
60.3285 7.74928 0
66.0886 47.4388 0.0135867
67.2449 43.4835 0.0140013
64.6827 44.8693 0.014165
65.5883 41.221 0.0140464
67.8577 39.5175 0.0131839
70.1419 37.5218 0.0123973
67.954 37.5224 2
65.8217 39.3763 2
65.2074 43.0415 2
63.798 40.9421 2
63.9954 46.7422 2
62.8476 44.2405 2
65.9242 37.5024 3.9868
63.9442 39.2736 3.98624
63.3701 42.5683 3.98542
62.4816 40.7109 3.98452
62.0075 45.9493 3.98634
61.5 43.7098 3.9855
67.8929 35.5433 0.0137495
67.2859 31.6099 0.0142474
65.7285 33.9178 0.0143221
64.6926 30.1727 0.0149075
60.7757 14.2041 0.00902889
60.6171 17.0986 0.0115842
60.2349 19.7792 0.0131645
63.5649 26.3854 0.0139321
62.2946 28.7497 0.0143435
61.0774 25.2998 0.0140078
59.6847 22.2152 0.0139489
59.0125 24.2742 0.013634
57.9116 14.3079 0.0111564
55.3142 14.6198 0.0124891
54.0368 9.12532 0.00874861
54.7872 11.9935 0.0110803
65.9088 35.6621 2
65.2168 32.14 2
64.3226 34.2399 2
62.6348 30.6131 2
59.3127 15.6421 2
59.1305 18.3208 2
58.757 20.8117 2
61.6871 27.0386 2
60.8949 29.1097 2
58.3141 23.0443 2
59.3707 25.7534 2
58.0062 24.6157 2
56.6786 15.7133 2
54.3784 15.9682 2
53.8107 13.6572 2
52.1114 8.14442 2
53.0581 11.0012 2
64.1321 35.6268 3.98521
62.9731 33.031 3.98497
60.6641 30.5859 3.98532
59.6189 27.8725 3.98596
57.9427 16.9521 3.98746
57.7836 25.6778 3.98686
57.7245 19.4376 3.98641
57.3925 21.7942 3.98553
57.2209 23.896 3.9862
50.1116 7.27755 3.99127
51.2325 10.1115 3.989
52.1727 12.7771 3.98737
55.54 16.9401 3.98689
52.9792 15.2361 3.98663
53.7606 16.9486 3.98648
53.0416 69.0031 0.00511519
53.9657 66.0211 0.00853339
63.2221 48.6905 0.0143186
54.6839 63.2219 0.0108446
57.8827 60.8921 0.011
55.2137 60.6388 0.0123854
61.7626 52.61 0.0139803
60.3071 50.0577 0.0148504
58.0237 58.2918 0.0126836
58.1392 55.8533 0.0140947
59.3468 53.9882 0.0135428
52.0692 67.0071 2
52.9529 64.231 2
56.6518 59.5157 2
53.6822 61.6414 2
54.2632 59.3481 2
61.0319 47.9159 2
59.7368 52.1459 2
58.0667 49.663 2
56.7848 57.0242 2
57.1407 54.1682 2
51.1673 65.1384 3.98928
52.0464 62.5542 3.98773
55.485 58.2802 3.98686
52.8364 60.1577 3.98691
53.6438 58.4999 3.98639
58.3581 46.8918 3.98707
57.5915 51.833 3.98554
56.2927 49.6045 3.98734
55.483 55.8346 3.98534
55.3807 53.4307 3.98424
50.1084 67.8629 0.00845897
49.3364 65.931 2
48.6178 64.1349 3.98784
47.4628 66.5898 0.0106261
45.558 67.1071 2
46.8921 64.7484 2
46.3816 63.0678 3.98692
45.1323 65.2092 3.98794
43.6313 67.4774 3.98932
41.8607 69.883 3.99141
43.9732 69.5958 2
44.3764 71.8644 3.99485
46.056 69.1632 0.00845303
46.6088 71.3699 2
47.2057 73.7222 4
48.802 70.7254 0.00508408
49.554 73.0099 2
51.8506 72.1454 0
50.9531 5.1285 3.99474
53.0632 6.06743 2
54.0858 3.86728 4
55.1022 7.13583 0.00530551
56.25 5.02406 2
58.3339 6.31992 0
63.9952 46.7421 0.0140524
65.2072 43.0414 0.0144017
62.8473 44.2405 0.0142797
63.7978 40.9421 0.0140597
65.8215 39.3763 0.0134601
67.9538 37.5224 0.013147
65.9244 37.5024 2
63.9444 39.2736 2
63.3703 42.5683 2
62.4818 40.7109 2
62.0077 45.9494 2
61.5002 43.7099 2
64.0047 37.4576 3.98698
62.2135 39.3624 3.98548
61.2727 41.9789 3.98486
60.3017 44.804 3.98693
65.9086 35.6621 0.0142522
65.2166 32.1401 0.0148104
64.3224 34.2399 0.0150424
62.6345 30.6131 0.0147807
59.3127 15.6425 0.0113023
59.1304 18.3211 0.0127952
58.7569 20.812 0.0139112
61.6868 27.0388 0.01411
60.8946 29.1098 0.0143757
59.3705 25.7536 0.0137299
58.314 23.0445 0.0140662
58.006 24.6159 0.0131266
56.6786 15.7137 0.0124146
54.3783 15.9685 0.0131333
53.8107 13.6576 0.0125502
52.1115 8.14482 0.0087776
53.0581 11.0016 0.01103
64.1323 35.6268 2
62.9733 33.031 2
60.6643 30.5858 2
57.9427 16.9518 2
57.7246 19.4373 2
57.3926 21.794 2
59.6191 27.8724 2
57.2211 23.8959 2
57.7838 25.6777 2
50.1115 7.27717 2
55.5401 16.9398 2
53.7607 16.9483 2
52.9792 15.2358 2
52.1728 12.7767 2
51.2325 10.1111 2
62.2425 35.3516 3.98545
60.348 32.7268 3.98476
58.6815 30.0425 3.98569
57.3468 27.3357 3.98653
56.6406 18.1214 3.9867
56.3363 25.0486 3.98691
56.3703 20.4801 3.98571
56.1369 22.8191 3.98519
48.0555 6.52134 3.99138
49.3243 9.32046 3.98892
50.4335 11.977 3.98751
51.3789 14.4746 3.98637
54.4183 17.8872 3.98631
52.3633 17.0048 3.986
52.0692 67.0067 0.00848617
52.9529 64.2306 0.0107498
61.0317 47.9157 0.0143699
53.6822 61.641 0.0122956
56.6518 59.5154 0.012365
54.2632 59.3477 0.0132092
59.7367 52.1457 0.0142847
58.0665 49.6629 0.013665
56.7847 57.0239 0.0139537
57.1405 54.168 0.0144782
51.1673 65.1387 2
52.0464 62.5545 2
55.4851 58.2806 2
52.8365 60.158 2
53.6439 58.5002 2
58.3584 46.8919 2
57.5917 51.8331 2
56.293 49.6045 2
55.4832 55.8348 2
55.3809 53.4309 2
50.3461 63.3941 3.98774
51.2451 60.9541 3.98668
54.2249 57.2973 3.98611
52.3155 58.6606 3.98628
56.7926 44.2237 3.98721
55.5511 47.9462 3.98724
55.1051 51.4411 3.98499
54.0206 54.5904 3.98477
49.3364 65.9306 0.0106787
48.6178 64.1353 2
47.962 62.4894 3.98686
45.558 67.1068 0.0106294
46.8921 64.7481 0.0120962
43.6313 67.4778 2
46.3816 63.0682 2
45.1323 65.2096 2
45.9872 61.6024 3.98626
44.7668 63.4686 3.987
43.3562 65.5187 3.98793
41.6635 67.6965 3.98922
39.7026 70.0303 3.99135
41.8607 69.8833 2
42.111 72.2092 3.9948
43.9733 69.5955 0.00851278
44.3764 71.8647 2
44.8159 74.2794 4
46.6088 71.3697 0.00510477
47.2057 73.7222 2
49.554 73.0099 0
48.7837 4.31984 3.9948
50.953 5.12817 2
51.8506 2.85458 4
53.0633 6.06778 0.00532517
54.0858 3.86728 2
56.25 5.02411 0
62.0075 45.9493 0.0136561
63.3701 42.5683 0.0145806
61.5 43.7098 0.014497
62.4816 40.7109 0.0154801
63.9442 39.2736 0.0137617
65.9242 37.5024 0.013197
64.0049 37.4576 2
62.2138 39.3624 2
61.273 41.9789 2
60.3019 44.8041 2
62.0543 37.4446 3.9873
60.3175 39.8589 3.98466
59.0617 42.9495 3.98641
64.1321 35.6268 0.0147888
62.9731 33.031 0.0150346
60.6641 30.5859 0.0146753
57.9427 16.9521 0.0125426
57.7245 19.4376 0.0135884
57.3925 21.7942 0.0144731
59.6189 27.8725 0.0140385
57.7836 25.6778 0.0131361
57.2209 23.896 0.0138037
55.54 16.9401 0.0131098
53.7606 16.9486 0.013519
52.9792 15.2361 0.0133665
50.1116 7.27755 0.00873355
52.1727 12.7771 0.0126258
51.2325 10.1115 0.0109974
62.2427 35.3516 2
60.3482 32.7268 2
58.6818 30.0424 2
56.6407 18.1211 2
56.3704 20.4798 2
56.137 22.819 2
57.3471 27.3356 2
56.3365 25.0484 2
48.0554 6.52096 2
49.3243 9.32009 2
54.4184 17.887 2
52.3633 17.0045 2
51.3789 14.4743 2
50.4335 11.9766 2
59.9627 35.1102 3.98568
58.066 32.2444 3.98484
56.6151 29.2982 3.98632
55.5057 26.5453 3.9874
55.3483 19.1537 3.98607
54.9676 24.0018 3.98557
55.0196 21.518 3.98513
45.9615 5.87707 3.99146
43.3735 7.46588 3.98918
47.3548 8.61503 3.98906
48.6002 11.28 3.98728
49.7147 13.7235 3.98656
50.6348 16.1059 3.98571
53.1288 18.6258 3.98584
51.3057 18.0171 3.98562
51.1673 65.1384 0.0107231
52.0464 62.5542 0.0122674
58.3581 46.8918 0.0129324
52.8364 60.1577 0.0130892
55.485 58.2802 0.0131416
53.6438 58.4999 0.0136085
57.5915 51.833 0.014459
56.2927 49.6045 0.012658
55.483 55.8346 0.0146583
55.3807 53.4307 0.0157635
50.3461 63.3944 2
51.2452 60.9544 2
54.2251 57.2976 2
52.3156 58.6609 2
56.7929 44.2238 2
55.5514 47.9462 2
55.1053 51.4411 2
54.0208 54.5907 2
49.5921 61.7604 3.98672
55.741 41.7371 3.98511
50.5687 59.3505 3.98579
52.1915 56.5225 3.98535
54.2693 45.6125 3.98802
53.3975 49.3857 3.9859
52.6943 52.9048 3.98409
48.6178 64.1349 0.0121633
47.962 62.4898 2
47.3294 61.026 3.98622
43.6313 67.4774 0.0106837
45.1323 65.2092 0.0120566
46.3816 63.0678 0.0130811
41.6635 67.6969 2
43.3562 65.5191 2
45.9872 61.6027 2
44.7668 63.469 2
45.7662 60.6478 3.98595
44.4829 61.8517 3.98622
43.146 63.741 3.98702
41.5457 65.6567 3.98786
39.6328 67.7766 3.9891
37.5263 70.0557 3.99131
39.7026 70.0306 2
39.8179 72.4063 3.99476
41.8607 69.883 0.00858875
42.1109 72.2094 2
42.3947 74.6792 4
44.3764 71.8644 0.00515196
44.8159 74.2794 2
47.2057 73.7222 0
43.851 5.35458 3.99145
46.5698 3.64471 3.99482
48.7836 4.31953 2
49.554 1.99015 4
50.9531 5.1285 0.00526474
51.8506 2.85453 2
54.0858 3.86728 0
60.3017 44.804 0.0130688
61.2727 41.9789 0.0151447
62.2135 39.3624 0.0145165
64.0047 37.4576 0.0130224
62.0545 37.4446 2
60.3178 39.8588 2
59.062 42.9496 2
59.8423 37.5672 3.98746
58.0884 40.6802 3.98525
55.2327 39.7404 3.9906
62.2425 35.3516 0.0145477
60.348 32.7268 0.0152416
58.6815 30.0425 0.0143055
56.6406 18.1214 0.0133018
56.3703 20.4801 0.01429
56.1369 22.8191 0.0148073
57.3468 27.3357 0.0134691
56.3363 25.0486 0.0130867
54.4183 17.8872 0.0136861
52.3633 17.0048 0.0139962
51.3789 14.4746 0.0136285
48.0555 6.52134 0.00862232
49.3243 9.32046 0.0110759
50.4335 11.977 0.0124929
59.9629 35.1102 2
45.9614 5.87671 2
43.3735 7.46552 2
58.0662 32.2444 2
56.6154 29.2981 2
55.3485 19.1534 2
55.0197 21.5178 2
54.9678 24.0018 2
55.506 26.5451 2
47.3548 8.61464 2
48.6002 11.2796 2
53.1289 18.6256 2
51.3058 18.0169 2
50.6349 16.1056 2
49.7147 13.7232 2
57.4866 34.7478 3.98387
55.8143 31.484 3.98558
54.5907 28.352 3.98798
53.8241 25.4378 3.98661
53.9768 20.0992 3.9856
53.6064 22.6592 3.98464
41.3986 7.07123 3.98944
45.3595 7.98713 3.98928
42.8653 9.40575 3.98765
46.6665 10.6415 3.98745
47.7456 13.0857 3.98637
48.932 15.3788 3.98554
50.0078 17.6714 3.9853
51.6577 19.2941 3.98571
50.3461 63.3941 0.0122611
51.2451 60.9541 0.013318
56.7926 44.2237 0.0127919
55.5511 47.9462 0.0127639
52.3155 58.6606 0.013717
54.2249 57.2973 0.0138947
55.1051 51.4411 0.0150111
54.0206 54.5904 0.0152348
49.5921 61.7607 2
55.7414 41.7371 2
50.5688 59.3509 2
52.1916 56.5229 2
54.2696 45.6124 2
53.3978 49.3856 2
52.6946 52.9049 2
48.8497 60.2202 3.98605
52.6587 42.6836 3.9896
49.7924 57.6538 3.98534
50.6098 54.4624 3.98443
51.906 47.3287 3.98692
51.2594 51.0057 3.98325
48.3708 43.7864 3.98155
47.962 62.4894 0.0131448
47.3294 61.0263 2
46.6189 59.8142 3.98584
41.6635 67.6965 0.0107835
43.3562 65.5187 0.0120694
44.7668 63.4686 0.012999
45.9872 61.6024 0.0137422
39.6328 67.777 2
41.5458 65.657 2
45.7662 60.6481 2
43.146 63.7413 2
44.483 61.852 2
44.6234 60.3105 3.98573
42.9501 62.1002 3.98625
41.5993 63.8345 3.98692
39.6474 65.6253 3.98768
37.5635 67.7594 3.98901
31.698 65.1442 3.98766
33.3926 67.497 3.98902
35.3337 69.9659 3.99127
37.5263 70.056 2
37.5097 72.4609 3.99474
39.7026 70.0303 0.00865151
39.8179 72.4066 2
39.9526 74.9197 4
42.111 72.2092 0.00520322
42.3947 74.6792 2
44.8159 74.2794 0
41.7358 4.96394 3.99162
43.851 5.35423 2
44.3253 3.10818 3.99486
46.5697 3.64442 2
47.2057 1.27793 4
48.7837 4.31984 0.0052025
49.554 1.99013 2
51.8506 2.85458 0
59.0617 42.9495 0.0135875
60.3175 39.8589 0.01534
62.0543 37.4446 0.0126962
59.8425 37.5672 2
58.0887 40.6802 2
55.233 39.7405 2
56.9372 37.904 3.98589
49.8367 41.3337 3.9906
53.2872 39.3281 3.99335
39.442 6.79492 3.98944
59.9627 35.1102 0.0143194
58.066 32.2444 0.0151613
56.6151 29.2982 0.0136753
55.3483 19.1537 0.0139273
55.0196 21.518 0.0148743
54.9676 24.0018 0.0144329
55.5057 26.5453 0.0126026
53.1288 18.6258 0.0141626
51.3057 18.0171 0.0143824
50.6348 16.1059 0.0142883
45.9615 5.87707 0.00853761
49.7147 13.7235 0.013445
47.3548 8.61503 0.0109429
48.6002 11.28 0.0127169
43.3735 7.46588 0.0108207
57.4868 34.7478 2
41.3986 7.07088 2
45.3595 7.98675 2
42.8653 9.4054 2
55.8145 31.4839 2
54.5911 28.3518 2
53.9769 20.0989 2
53.6066 22.6591 2
53.8243 25.4378 2
46.6665 10.6411 2
47.7456 13.0854 2
51.6578 19.2938 2
50.0079 17.6711 2
48.9321 15.3784 2
54.9992 33.9487 3.98261
53.5979 30.4394 3.98758
52.666 27.1367 3.98788
52.1827 24.0271 3.98519
52.4041 21.0334 3.98524
41.0133 9.03887 3.98778
44.7237 9.9849 3.98768
42.4681 10.8906 3.98724
46.0051 12.7142 3.98599
47.6818 14.5652 3.98589
48.114 16.9639 3.98454
49.8203 19.5625 3.98514
49.5921 61.7604 0.0132844
50.5687 59.3505 0.014205
55.741 41.7371 0.0148909
54.2693 45.6125 0.0119751
53.3975 49.3857 0.0140972
52.1915 56.5225 0.0146453
52.6943 52.9048 0.0159085
48.8497 60.2205 2
52.6591 42.6834 2
49.7925 57.6542 2
50.61 54.4628 2
51.9064 47.3286 2
51.2597 51.0058 2
48.3714 43.7856 2
47.9879 58.7645 3.98558
50.2427 45.3276 3.98612
48.6053 55.947 3.98515
49.1568 52.644 3.98328
49.7422 49.1139 3.98245
46.1886 39.8942 3.95654
46.6318 42.7391 3.99107
46.6581 45.7929 3.97784
44.0462 41.2449 4.01827
42.0775 41.9881 4.00707
47.3294 61.026 0.013778
46.619 59.8145 2
45.4687 58.8115 3.98566
39.6328 67.7766 0.0109028
41.5457 65.6567 0.0121381
43.146 63.741 0.0129791
44.4829 61.8517 0.0137783
45.7662 60.6478 0.0140539
41.5993 63.8348 2
37.5635 67.7598 2
39.6474 65.6256 2
44.6234 60.3108 2
42.9501 62.1005 2
41.753 62.5106 3.98631
42.481 60.0024 3.98565
39.8929 63.5698 3.98667
37.6423 65.5247 3.98751
35.4638 67.6688 3.98899
33.5761 65.3578 3.9876
31.9604 63.3184 3.98663
29.8842 64.7352 3.98763
31.698 65.1445 2
31.3774 67.2066 3.98905
33.3926 67.4973 2
33.1567 69.7592 3.99126
35.3337 69.9662 2
35.1952 72.3754 3.99471
37.5263 70.0557 0.00869269
37.5097 72.4612 2
37.5 75 4
39.8179 72.4063 0.00523828
39.9526 74.9197 2
42.3947 74.6792 0
39.6235 4.71124 3.99167
41.7358 4.9636 2
42.0618 2.71593 3.99494
43.851 5.35458 0.00855326
44.3252 3.10791 2
44.8158 0.721173 4
46.5698 3.64471 0.00518284
47.2057 1.27779 2
49.554 1.99015 0
58.0884 40.6802 0.0147511
59.8423 37.5672 0.0125405
55.2327 39.7404 0.00940237
49.837 41.3331 2
56.9374 37.9041 2
53.2875 39.3282 2
54.1361 36.6264 3.98414
47.764 40.4483 3.99665
50.7895 38.5007 3.99006
37.5158 6.66578 3.9898
39.442 6.79456 2
39.2107 8.68169 3.98798
35.941 8.48122 3.98842
57.4866 34.7478 0.0161328
55.8143 31.484 0.0144216
54.5907 28.352 0.012015
53.9768 20.0992 0.0144002
53.6064 22.6592 0.0153569
53.8241 25.4378 0.0133868
51.6577 19.2941 0.014288
50.0078 17.6714 0.0147
48.932 15.3788 0.0144641
45.3595 7.98713 0.0107224
47.7456 13.0857 0.0136321
46.6665 10.6415 0.0125467
41.3986 7.07123 0.0105582
42.8653 9.40575 0.0123484
54.9995 33.9488 2
41.0133 9.0385 2
44.7237 9.98452 2
42.4681 10.8902 2
53.5983 30.439 2
52.6663 27.1368 2
52.4043 21.0331 2
52.1829 24.027 2
46.0052 12.7139 2
47.6818 14.5649 2
49.8205 19.5622 2
48.1141 16.9636 2
52.5525 32.8355 3.98541
51.4512 29.0942 3.99093
50.8536 25.6577 3.98472
49.9538 22.1309 3.98533
40.5689 11.5932 3.98643
43.8578 11.9044 3.98614
45.8023 15.4007 3.98494
47.5054 19.1929 3.98416
46.5228 37.5058 3.96111
48.8497 60.2202 0.0139522
49.7924 57.6538 0.0146607
52.6587 42.6836 0.0104043
51.906 47.3287 0.0130762
51.2594 51.0057 0.016748
50.6098 54.4624 0.0155725
48.3708 43.7864 0.0184474
47.988 58.7648 2
50.2432 45.3274 2
48.6055 55.9474 2
49.1571 52.6445 2
49.7425 49.1139 2
46.188 39.8923 2
46.6325 42.7387 2
46.6589 45.7926 2
44.0437 41.2391 2
42.0754 41.9865 2
46.8407 57.3688 3.98567
44.8 39.4974 4.02277
42.4361 40.8586 4.00569
48.1989 47.3204 3.98258
47.1807 54.2836 3.98489
47.6322 50.8297 3.98014
44.9207 47.4232 3.97376
45.2748 42.0088 3.94318
45.1471 44.6422 3.99475
42.8622 42.748 4.01085
40.9245 42.3412 4.00489
46.6189 59.8142 0.0141551
45.4687 58.8117 2
43.8773 57.7362 3.98558
37.5635 67.7594 0.010991
39.6474 65.6253 0.0123246
41.5993 63.8345 0.0130777
42.9501 62.1002 0.0137547
44.6234 60.3105 0.0142705
35.4638 67.6692 2
41.753 62.5109 2
39.893 63.5701 2
37.6423 65.5251 2
42.481 60.0027 2
40.6227 61.6696 3.98591
40.4452 58.2354 3.98555
37.8366 63.2315 3.98643
35.5734 65.447 3.98754
33.5761 65.3581 2
31.9604 63.3187 2
33.6298 63.3583 3.98654
30.3794 62.8771 3.98663
32.1238 62.0258 3.98626
26.8686 61.5216 3.98623
28.063 64.1633 3.98751
29.8842 64.7355 2
29.407 66.7702 3.98906
31.698 65.1442 0.012342
31.3774 67.2069 2
31.0141 69.4241 3.99125
33.3926 67.497 0.0109806
33.1567 69.7595 2
32.8924 72.1496 3.99469
35.3337 69.9659 0.00873238
35.1952 72.3756 2
35.0474 74.9194 4
37.5097 72.4609 0.00525655
37.5 75 2
39.9526 74.9197 0
35.6203 6.71684 3.98962
37.5229 4.61075 3.99184
39.6235 4.71091 2
39.7884 2.47245 3.99502
41.7358 4.96394 0.00838137
42.0617 2.71567 2
42.3946 0.32156 4
44.3253 3.10818 0.00514467
44.8159 0.72056 2
47.2057 1.27793 0
49.8367 41.3337 0.00940233
56.9372 37.904 0.0141063
53.2872 39.3281 0.00664977
47.7645 40.4478 2
50.7898 38.5005 2
54.1363 36.6267 2
51.5653 35.5657 3.97924
48.4313 37.7568 3.99647
46.1841 35.1174 3.96164
44.0424 33.7601 4.01944
42.077 33.0091 4.00482
37.4574 8.5228 3.98835
37.5158 6.66542 2
39.442 6.79492 0.0105584
39.2107 8.68133 2
38.9758 10.1127 3.98762
35.8975 9.75937 3.98773
34.1493 8.81025 3.98824
35.941 8.48086 2
54.9992 33.9487 0.017385
53.5979 30.4394 0.0124179
52.666 27.1367 0.0121214
52.4041 21.0334 0.0147553
52.1827 24.0271 0.0148051
49.8203 19.5625 0.0148566
48.114 16.9639 0.0154639
47.6818 14.5652 0.0141091
44.7237 9.9849 0.0123221
46.0051 12.7142 0.0140112
41.0133 9.03887 0.012216
42.4681 10.8906 0.0127624
52.5529 32.8352 2
40.5689 11.5928 2
43.8579 11.9041 2
51.4515 29.0943 2
50.8539 25.6577 2
49.954 22.1306 2
45.8024 15.4003 2
47.5055 19.1926 2
50.171 31.3675 3.98965
49.3853 27.4034 3.98713
49.447 24.3372 3.9836
47.1936 21.8686 3.98415
38.3012 12.7167 3.98516
42.1003 14.2865 3.98506
44.8003 18.4336 3.98374
45.0838 37.5045 4.02328
46.522 37.5062 2
47.9879 58.7645 0.014415
48.6053 55.947 0.0148456
50.2427 45.3276 0.0138773
49.7422 49.1139 0.0175456
49.1568 52.644 0.0167188
46.1886 39.8942 0.0434589
46.6318 42.7391 0.00892798
46.6581 45.7929 0.0221563
44.0462 41.2449 -0.0182656
42.0775 41.9881 -0.00706578
46.8407 57.369 2
44.7977 39.4931 2
42.4337 40.8572 2
48.1994 47.3204 2
47.1809 54.2842 2
47.6326 50.8302 2
44.9215 47.4237 2
45.2747 42.0058 2
45.1489 44.6427 2
42.8607 42.7428 2
40.9226 42.3424 2
45.4018 55.9556 3.98565
42.7732 39.2577 3.9927
40.8757 40.8055 3.96623
46.167 49.0223 3.98168
45.5695 52.5756 3.98452
43.5475 48.5163 3.97293
43.5159 46.2115 3.99742
43.8456 43.8208 3.93474
41.327 43.9122 4.00177
39.3004 42.6651 3.97607
45.4687 58.8115 0.0143386
43.8774 57.7365 2
42.1087 56.3627 3.98539
35.4638 67.6688 0.0110113
37.6423 65.5247 0.0124891
39.8929 63.5698 0.0133324
41.753 62.5106 0.0136936
42.481 60.0024 0.0143507
35.5734 65.4473 2
40.6227 61.6699 2
37.8366 63.2318 2
40.4452 58.2356 2
38.9266 56.5313 3.98561
38.2503 60.3537 3.98558
35.6073 63.2251 3.98643
33.5761 65.3578 0.0124014
31.9604 63.3184 0.0133687
33.6298 63.3586 2
30.3794 62.8774 2
32.1238 62.0261 2
28.6817 62.2228 3.98651
33.3464 61.5387 3.98579
31.0668 61.2433 3.98581
27.5672 59.6216 3.98586
23.7882 59.1141 3.98677
25.0333 60.8963 3.98664
26.8686 61.522 2
26.2294 63.4961 3.98739
28.063 64.1637 2
27.4637 66.1943 3.98904
29.8842 64.7352 0.0123674
29.407 66.7706 2
28.9066 68.9497 3.99125
31.3774 67.2066 0.0109492
31.0142 69.4245 2
30.6149 71.7807 3.99468
33.1567 69.7592 0.00874062
32.8924 72.1499 2
32.6054 74.6784 4
35.1952 72.3754 0.00528828
35.0474 74.9197 2
37.5 75 0
33.7229 6.97106 3.98953
35.4344 4.68106 3.99176
35.6203 6.71649 2
37.5141 2.38512 3.99506
37.5229 4.61042 2
39.6235 4.71124 0.00832657
39.7884 2.47221 2
39.9526 0.0806499 4
42.0618 2.71593 0.00505621
42.3947 0.320817 2
44.8158 0.721173 0
44.8037 35.5092 4.02459
42.4336 34.1374 4.00872
47.764 40.4483 0.00335431
50.7895 38.5007 0.00994107
54.1361 36.6264 0.0158556
48.4317 37.7566 2
51.5654 35.5654 2
46.1835 35.1193 2
44.0398 33.7657 2
42.0749 33.0103 2
48.5896 34.2499 3.98969
45.2732 33.0008 3.94362
42.8638 32.2511 4.01287
40.9237 32.6533 4.00401
37.3096 10.6147 3.98684
37.4574 8.52242 2
37.5158 6.66578 0.0101991
39.2107 8.68169 0.0120155
38.9758 10.1124 2
34.7527 10.3645 3.98699
35.8975 9.759 2
32.3759 9.35629 3.9879
34.1493 8.8099 2
35.941 8.48122 0.011576
52.5525 32.8355 0.0145854
51.4512 29.0942 0.00907477
50.8536 25.6577 0.0152753
49.9538 22.1309 0.0146672
47.5054 19.1929 0.0158387
45.8023 15.4007 0.0150585
43.8578 11.9044 0.0138623
40.5689 11.5932 0.0135678
50.1714 31.3681 2
38.3012 12.7163 2
42.1003 14.2861 2
49.3857 27.4035 2
49.4473 24.337 2
47.1939 21.8683 2
44.8004 18.4332 2
47.9508 29.5021 3.98672
47.1506 25.0439 3.98379
44.2924 21.2821 3.98219
36.5807 12.9129 3.98534
38.6796 14.7855 3.98458
41.749 17.812 3.98409
42.9088 37.4906 3.98741
45.0826 37.5044 2
46.5228 37.5058 0.0388876
46.8407 57.3688 0.0143315
47.1807 54.2836 0.0151075
48.1989 47.3204 0.0174247
47.6322 50.8297 0.0198623
44.8 39.4974 -0.0227687
45.2748 42.0088 0.0568201
45.1471 44.6422 0.00525314
44.9207 47.4232 0.0262437
42.8622 42.748 -0.0108457
42.4361 40.8586 -0.00568672
40.9245 42.3412 -0.00489154
45.4019 55.956 2
42.7708 39.2567 2
40.8733 40.8065 2
46.1676 49.0229 2
45.5699 52.5763 2
43.5481 48.518 2
43.5168 46.2127 2
43.8465 43.817 2
41.3267 43.91 2
39.2993 42.6699 2
43.7441 54.4655 3.98613
40.9592 39.1746 3.95334
39.2236 40.8753 3.95488
43.7527 50.5567 3.98671
42.0683 47.7532 3.99514
42.0078 45.2198 3.93529
39.5363 44.6769 3.98223
37.5048 42.7852 3.96328
43.8773 57.7362 0.0144244
42.1087 56.363 2
40.4227 54.9718 3.98517
35.5734 65.447 0.0124633
37.8366 63.2315 0.0135677
40.6227 61.6696 0.014092
40.4452 58.2354 0.0144539
35.6073 63.2254 2
38.2503 60.354 2
38.9266 56.5315 2
38.0014 55.2869 3.98563
36.9348 57.6578 3.98518
35.3638 60.938 3.98557
33.6298 63.3583 0.0134598
30.3794 62.8771 0.0133658
32.1238 62.0258 0.0137363
33.3464 61.5391 2
28.6817 62.2231 2
31.0668 61.2436 2
29.4027 60.3138 3.98564
32.3562 59.7715 3.9857
28.0189 58.4021 3.98618
27.5671 59.6219 2
25.3757 58.6254 3.98601
22.75 58.2756 3.98597
23.3981 60.3781 3.9869
23.7881 59.1145 2
25.0333 60.8966 2
24.4315 62.7896 3.98756
26.8686 61.5216 0.0137743
26.2294 63.4964 2
25.5478 65.5047 3.98902
28.063 64.1633 0.0124854
27.4637 66.1946 2
26.8366 68.3384 3.99128
29.407 66.7702 0.0109437
28.9067 68.9501 2
28.3701 71.266 3.99468
31.0141 69.4241 0.00875263
30.6149 71.781 2
30.1842 74.2788 4
32.8924 72.1496 0.00530507
32.6053 74.6792 2
35.0474 74.9194 0
31.7872 7.41026 3.98936
33.3465 4.91992 3.99172
33.7229 6.97071 2
35.2444 2.46123 3.99503
35.4344 4.68074 2
35.6203 6.71684 0.0103846
37.5 0 4
37.5141 2.38488 2
37.5229 4.61075 0.00815872
39.7884 2.47245 0.00498327
39.9526 0.0802889 2
42.3946 0.32156 0
42.7766 35.7281 3.99281
44.8016 35.5135 2
40.8728 34.188 3.96666
42.431 34.1384 2
48.4313 37.7568 0.00352507
51.5653 35.5657 0.020761
46.1841 35.1174 0.0383621
44.0424 33.7601 -0.0194386
42.077 33.0091 -0.00481551
48.5898 34.2503 2
45.2729 33.0038 2
42.8625 32.2559 2
40.9219 32.6517 2
46.5672 31.5264 3.98953
43.8518 31.1836 3.9364
41.3337 31.0844 4.00408
39.2962 32.3381 3.97955
35.6911 11.7584 3.98589
37.3096 10.6143 2
37.4574 8.5228 0.0116481
38.9758 10.1127 0.0123793
33.0965 11.2001 3.98659
34.7526 10.3641 2
35.8975 9.75937 0.0122696
30.4806 10.0036 3.98769
32.3759 9.35592 2
34.1493 8.81025 0.0117559
50.171 31.3675 0.0103511
49.3853 27.4034 0.0128696
49.447 24.3372 0.0164025
47.1936 21.8686 0.015847
44.8003 18.4336 0.0162649
42.1003 14.2865 0.014944
38.3012 12.7167 0.0148444
36.5807 12.9126 2
47.9514 29.5025 2
38.6796 14.7851 2
41.7491 17.8116 2
47.1511 25.0436 2
44.2926 21.2817 2
45.6788 27.6881 3.98267
43.8267 23.9814 3.982
41.3432 20.687 3.98302
35.7699 14.7363 3.98495
38.68 17.5696 3.98422
41.0079 37.4797 3.94786
42.9068 37.4904 2
45.0838 37.5045 -0.0232821
45.4018 55.9556 0.0143522
45.5695 52.5756 0.0154785
46.167 49.0223 0.018316
42.7732 39.2577 0.0072962
43.8456 43.8208 0.0652626
43.5159 46.2115 0.00258351
43.5475 48.5163 0.0270693
41.327 43.9122 -0.00176618
40.8757 40.8055 0.0337676
39.3004 42.6651 0.023928
43.7442 54.4659 2
40.9569 39.1749 2
39.2223 40.8784 2
43.7531 50.5578 2
42.0689 47.7543 2
42.0074 45.2174 2
37.505 42.7903 2
39.5366 44.6813 2
41.8916 53.038 3.98374
39.2207 39.1649 3.94814
37.5045 40.9122 3.95577
35.7092 42.6591 3.983
40.9948 49.7783 3.99103
39.8797 46.1048 3.96252
37.4971 44.9564 3.96667
42.1087 56.3627 0.0146075
40.4228 54.9721 2
38.7331 53.9053 3.98582
35.6073 63.2251 0.013571
38.2503 60.3537 0.014417
38.9266 56.5313 0.0143936
35.3638 60.9383 2
36.9348 57.658 2
38.0015 55.287 2
36.3205 55.4176 3.98538
34.4874 58.5499 3.98509
33.3464 61.5387 0.0142131
28.6817 62.2228 0.0134907
31.0668 61.2433 0.0141924
32.3562 59.7719 2
29.4026 60.3141 2
30.295 57.8457 3.98535
28.0189 58.4025 2
26.936 56.857 3.98526
27.5672 59.6216 0.0141443
25.3756 58.6258 2
23.8275 56.8451 3.98531
21.3241 57.4382 3.98607
21.9894 59.6529 3.98707
22.7499 58.276 2
22.7346 62.0426 3.98762
23.3981 60.3785 2
23.7882 59.1141 0.0132279
25.0333 60.8963 0.0133622
24.4315 62.79 2
23.6816 64.7238 3.98905
26.2294 63.4961 0.0126105
25.5478 65.5051 2
24.8091 67.6 3.99131
27.4637 66.1943 0.0109596
26.8366 68.3387 2
26.1655 70.607 3.99472
28.9066 68.9497 0.00875296
28.3702 71.2663 2
27.7943 73.7221 4
30.6149 71.7807 0.00532107
30.1841 74.2794 2
32.6054 74.6784 0
29.8098 7.98289 3.98918
31.2518 5.32659 3.9916
31.7872 7.40989 2
32.9803 2.69922 3.99501
33.3466 4.91959 2
33.7229 6.97106 0.0104725
35.0474 0.080333 4
35.2445 2.46099 2
35.4344 4.68106 0.00824017
37.5 0 2
37.5141 2.38512 0.00493529
39.9526 0.0806499 0
40.9635 35.7962 3.95154
42.7743 35.7286 2
44.8037 35.5092 -0.0245908
28.5417 10.6783 3.98744
39.2187 34.1266 3.95833
40.8701 34.1864 2
42.4336 34.1374 -0.00871956
48.5896 34.2499 0.0103098
45.2732 33.0008 0.0563833
42.8638 32.2511 -0.0128711
40.9237 32.6533 -0.00400782
46.5679 31.5265 2
43.8512 31.1869 2
41.3336 31.086 2
39.2951 32.3339 2
44.621 29.6655 3.99193
42.0147 29.7793 3.93693
39.543 30.3262 3.97561
37.4993 32.2094 3.96181
34.0907 12.9147 3.98552
35.6911 11.758 2
37.3096 10.6147 0.0131565
31.1846 11.9674 3.98643
33.0964 11.1997 2
34.7527 10.3645 0.0130093
30.4806 10.0032 2
32.3759 9.35629 0.0120987
47.9508 29.5021 0.0132772
47.1506 25.0439 0.0162131
36.5807 12.9129 0.0146571
44.2924 21.2821 0.0178095
41.749 17.812 0.0159116
38.6796 14.7855 0.015421
35.7699 14.7359 2
45.6795 27.688 2
38.68 17.5692 2
41.3433 20.6865 2
43.8271 23.981 2
33.6057 15.8523 3.98453
43.1403 26.3801 3.98021
40.9277 23.2597 3.98337
38.4225 20.2965 3.98395
35.8465 17.4834 3.9842
39.2315 37.4812 3.94511
41.006 37.4793 2
42.9088 37.4906 0.0125934
43.7441 54.4655 0.0138686
43.7527 50.5567 0.0132851
40.9592 39.1746 0.0466581
42.0078 45.2198 0.0647064
42.0683 47.7532 0.00485569
39.5363 44.6769 0.0177739
39.2236 40.8753 0.0451215
37.5048 42.7852 0.0367152
41.8916 53.0383 2
39.2194 39.1662 2
37.5048 40.9153 2
40.9954 49.778 2
35.7107 42.6631 2
39.8798 46.1085 2
37.4974 44.9624 2
39.8313 51.9547 3.98377
37.5006 39.1738 3.95116
35.788 40.8798 3.95924
34.0817 42.3423 4.00631
35.4579 44.6592 3.98021
38.7469 48.915 4.00713
37.4964 46.3868 3.96541
40.4227 54.9718 0.0148323
38.7333 53.9053 2
36.7193 53.2478 3.98785
35.3638 60.938 0.0144318
36.9348 57.6578 0.0148183
38.0014 55.2869 0.0143729
34.4874 58.5502 2
36.3206 55.4179 2
33.2233 55.5336 3.98447
32.3562 59.7715 0.0142962
29.4027 60.3138 0.0143568
30.295 57.846 2
28.6729 55.343 3.98429
28.0189 58.4021 0.0138161
26.9358 56.8574 2
25.2898 55.1875 3.98467
21.7889 55.3918 3.98499
25.3757 58.6254 0.0139899
23.8274 56.8454 2
20.2068 57.0702 3.98642
20.6389 58.814 3.98695
21.324 57.4385 2
21.1639 61.195 3.98787
21.9893 59.6533 2
22.75 58.2756 0.0140342
21.8946 63.8531 3.98913
22.7346 62.043 2
23.3981 60.3781 0.0131018
24.4315 62.7896 0.012441
23.6816 64.7242 2
22.8375 66.7443 3.99132
25.5478 65.5047 0.0109818
24.8091 67.6004 2
24.0099 69.8084 3.99475
26.8366 68.3384 0.00871659
26.1656 70.6073 2
25.446 73.0099 4
28.3701 71.266 0.00531675
27.7943 73.7222 2
30.1842 74.2788 0
27.8197 8.64179 3.98903
29.1539 5.87183 3.99142
29.8098 7.98253 2
30.7257 3.09616 3.99495
31.2518 5.32624 2
31.7872 7.41026 0.0106352
32.6053 0.320823 4
32.9804 2.69897 2
33.3465 4.91992 0.00828095
35.0474 0.0802903 2
35.2444 2.46123 0.00496684
37.5 0 0
39.2249 35.8105 3.94864
40.9612 35.7952 2
42.7766 35.7281 0.00719049
28.5417 10.6779 2
26.6208 11.3724 3.98756
29.2236 12.6238 3.98644
37.4972 34.0873 3.9543
39.2171 34.1237 2
40.8728 34.188 0.0333427
46.5672 31.5264 0.0104747
43.8518 31.1836 0.0635984
41.3337 31.0844 -0.00408188
39.2962 32.3381 0.0204461
44.6218 29.6648 2
42.014 29.7807 2
39.5431 30.3226 2
37.4994 32.2045 2
42.4659 28.3186 3.99553
39.8876 28.89 3.95415
37.5026 30.0314 3.96348
35.7042 32.3332 3.97851
31.9124 14.4589 3.98538
34.0907 12.9144 2
35.6911 11.7584 0.0141098
31.1845 11.9671 2
33.0965 11.2001 0.0134076
30.4806 10.0036 0.0123138
45.6788 27.6881 0.0173307
43.8267 23.9814 0.0180045
35.7699 14.7363 0.0150453
41.3432 20.687 0.0169754
38.68 17.5696 0.0157799
33.6057 15.852 2
35.8464 17.483 2
43.1409 26.3796 2
38.4226 20.296 2
40.928 23.2591 2
33.5478 17.3609 3.98398
40.4945 25.5597 3.98011
38.0833 22.8275 3.98612
35.5831 20.0501 3.98294
37.5014 37.49 3.95029
39.2305 37.4811 2
41.0079 37.4797 0.052139
41.8916 53.038 0.0162625
40.9948 49.7783 0.0089663
39.2207 39.1649 0.0518628
39.8797 46.1048 0.0374833
37.4971 44.9564 0.033326
37.5045 40.9122 0.0442344
35.7092 42.6591 0.0169962
39.8316 51.9545 2
37.5006 39.175 2
35.7898 40.8825 2
38.7474 48.9165 2
34.0838 42.3434 2
35.4581 44.6623 2
37.4962 46.3903 2
37.6622 51.105 3.98502
35.7848 39.1786 3.95005
34.1413 40.8143 3.96784
32.9266 41.9872 4.00582
33.6665 43.9054 4.00525
35.1161 46.0903 3.95656
36.863 48.507 4.01066
38.7331 53.9053 0.0141824
36.7194 53.2482 2
34.3474 52.5207 3.98549
34.4874 58.5499 0.0149092
36.3205 55.4176 0.0146167
33.2234 55.5339 2
30.496 53.4538 3.98342
30.295 57.8457 0.0146493
28.6728 55.3435 2
26.8501 53.4955 3.98358
26.936 56.857 0.0147393
25.2896 55.1879 2
23.5385 53.5352 3.98401
20.4325 53.2798 3.98443
19.9152 55.8761 3.98597
21.7887 55.3921 2
23.8275 56.8451 0.0146945
19.4293 57.9294 3.98676
20.2067 57.0705 2
19.7024 60.2317 3.98774
20.6388 58.8143 2
21.3241 57.4382 0.0139299
20.2064 62.8764 3.98926
21.1639 61.1954 2
21.9894 59.6529 0.0129276
20.9389 65.7744 3.99136
21.8947 63.8535 2
22.7346 62.0426 0.0123831
23.6816 64.7238 0.0109468
22.8376 66.7447 2
21.9126 68.8758 3.99476
24.8091 67.6 0.00868819
24.01 69.8087 2
23.1494 72.1454 4
26.1655 70.607 0.0052776
25.446 73.0099 2
27.7943 73.7221 0
25.8591 9.36903 3.98909
27.0688 6.53523 3.99132
27.8197 8.64142 2
28.488 3.64185 3.99484
29.1539 5.87147 2
29.8098 7.98289 0.0108191
30.1841 0.720592 4
30.7257 3.09589 2
31.2518 5.32659 0.00840297
32.6053 0.320817 2
32.9803 2.69922 0.00498856
35.0474 0.080333 0
37.5013 35.812 3.94966
39.2236 35.8091 2
40.9635 35.7962 0.0484631
24.7758 12.0544 3.98766
23.7496 14.3357 3.98707
28.5417 10.6783 0.0125637
26.6208 11.3721 2
29.2236 12.6234 2
27.2898 13.3554 3.98639
29.7784 14.1813 3.98611
35.7799 34.1182 3.95729
37.497 34.0844 2
39.2187 34.1266 0.041671
37.4993 32.2094 0.0381863
44.621 29.6655 0.00807249
42.0147 29.7793 0.0630658
39.543 30.3262 0.0243855
42.4669 28.3178 2
39.8876 28.8878 2
37.5027 30.0258 2
35.7056 32.3289 2
40.1083 27.4652 4.00471
37.5019 28.5962 3.95718
35.4611 30.323 3.97572
34.0802 32.6509 4.0038
30.9239 16.8138 3.98525
31.9124 14.4586 2
34.0907 12.9147 0.0144765
31.1846 11.9674 0.0135684
43.1403 26.3801 0.0197892
40.9277 23.2597 0.0166278
33.6057 15.8523 0.0154685
35.8465 17.4834 0.0157962
38.4225 20.2965 0.0160542
33.5478 17.3605 2
35.5831 20.0497 2
40.4949 25.5586 2
38.0834 22.8266 2
32.8603 19.768 3.98275
37.7859 25.1426 3.9838
35.2042 22.6089 3.98227
35.7741 37.4956 3.94629
37.5014 37.4899 2
39.2315 37.4812 0.0548853
39.8313 51.9547 0.0162328
38.7469 48.915 -0.00712685
37.5006 39.1738 0.0488422
37.4964 46.3868 0.0345924
35.4579 44.6592 0.0197915
35.788 40.8798 0.0407602
34.0817 42.3423 -0.00631372
37.6623 51.1056 2
35.7859 39.1797 2
34.1441 40.8154 2
36.8634 48.5091 2
32.929 41.9855 2
33.667 43.9029 2
35.1161 46.0917 2
35.4046 50.2801 3.98331
34.0536 39.1906 3.95298
32.5717 40.86 4.01002
32.136 42.7447 4.01352
32.9901 45.2138 3.93629
34.2197 47.524 4.00149
36.7193 53.2478 0.0121547
34.3473 52.5214 2
31.9577 51.2962 3.98308
33.2233 55.5336 0.0155257
30.4958 53.4544 2
28.3811 51.7018 3.98182
28.6729 55.343 0.0157099
26.8498 53.4959 2
25.0285 51.8384 3.98318
25.2898 55.1875 0.0153264
23.5383 53.5355 2
21.9152 51.8729 3.98414
19.1556 51.6927 3.9849
18.8957 54.3562 3.98516
20.4323 53.2799 2
18.4345 56.7634 3.98665
19.9151 55.8764 2
21.7889 55.3918 0.0150089
18.3628 59.1424 3.98745
19.4292 57.9297 2
20.2068 57.0702 0.0135794
18.6165 61.7864 3.98917
19.7023 60.232 2
20.6389 58.814 0.0130471
19.1275 64.6865 3.99141
20.2064 62.8768 2
21.1639 61.195 0.0121287
19.8867 67.8129 3.99478
20.939 65.7748 2
21.8946 63.8531 0.0108746
22.8375 66.7443 0.00868215
21.9127 68.8762 2
20.9142 71.1327 4
24.0099 69.8084 0.0052458
23.1494 72.1455 2
25.446 73.0099 0
23.0952 12.768 3.98776
23.9719 10.1547 3.98914
25.0229 7.30468 3.99132
25.8591 9.36867 2
26.2798 4.32577 3.99477
27.0689 6.53486 2
27.8197 8.64179 0.0109746
27.7943 1.27781 4
28.4881 3.64156 2
29.1539 5.87183 0.0085804
30.1841 0.720551 2
30.7257 3.09616 0.00505239
32.6053 0.320823 0
35.7796 35.8148 3.94864
37.5012 35.8107 2
39.2249 35.8105 0.0513638
24.7758 12.054 2
23.7496 14.3354 2
22.4779 15.0106 3.98724
25.356 13.8862 3.98676
24.0223 15.5958 3.9867
26.6208 11.3724 0.0124414
29.2236 12.6238 0.0135647
27.2898 13.3551 2
29.7784 14.181 2
28.3546 15.9535 3.98593
34.1345 34.1837 3.96596
35.7811 34.1154 2
37.4972 34.0873 0.0457047
35.7042 32.3332 0.021491
37.5026 30.0314 0.0365182
42.4659 28.3186 0.00446718
39.8876 28.89 0.0458467
40.1089 27.4629 2
37.5021 28.5912 2
35.4613 30.3192 2
34.0823 32.6493 2
37.6002 27.1035 4.0144
35.1153 28.8856 3.95438
33.67 31.0841 4.00643
32.9271 33.0098 4.00829
30.2047 19.315 3.98551
30.9239 16.8135 2
31.9124 14.4589 0.0146164
40.4945 25.5597 0.0198921
38.0833 22.8275 0.0138772
33.5478 17.3609 0.0160219
35.5831 20.0501 0.0170574
32.8603 19.7677 2
35.2041 22.6084 2
37.7859 25.1411 2
32.3057 22.3818 3.9832
34.9312 25.1137 3.9783
34.0034 37.4979 3.9488
35.7751 37.4955 2
37.5014 37.49 0.0497093
37.6622 51.105 0.0149803
36.863 48.507 -0.0106573
35.7848 39.1786 0.0499468
35.1161 46.0903 0.0434396
33.6665 43.9054 -0.00525129
34.1413 40.8143 0.0321606
32.9266 41.9872 -0.00581719
35.4043 50.2812 2
34.0558 39.191 2
32.5745 40.8584 2
34.2194 47.526 2
32.1376 42.7393 2
32.9908 45.2117 2
33.1515 49.2733 3.98263
32.2296 39.2665 3.99405
30.9559 41.2391 4.01906
31.151 43.8157 3.93583
32.1115 46.4493 3.99598
34.3474 52.5207 0.0145104
31.9573 51.2971 2
29.7763 49.8254 3.98106
30.496 53.4538 0.0165839
28.3807 51.7023 2
26.4293 50.0894 3.98213
26.8501 53.4955 0.0164188
25.0281 51.8386 2
23.2711 50.2748 3.98461
23.5385 53.5352 0.0159932
21.9149 51.873 2
20.4057 50.3812 3.9855
17.9389 50.3846 3.98593
17.7998 52.8417 3.98513
19.1554 51.6928 2
17.4187 55.3822 3.986
18.8956 54.3565 2
20.4325 53.2798 0.0155701
17.1266 57.907 3.98742
18.4344 56.7637 2
19.9152 55.8761 0.0140343
17.133 60.5726 3.98885
18.3628 59.1428 2
19.4293 57.9294 0.0132372
17.4074 63.4808 3.99137
18.6165 61.7868 2
19.7024 60.2317 0.0122584
17.9429 66.6219 3.99479
19.1276 64.6869 2
20.2064 62.8764 0.0107419
18.75 69.9759 4
19.8868 67.8133 2
20.9389 65.7744 0.00863674
21.9126 68.8758 0.0052396
20.9142 71.1327 2
23.1494 72.1454 0
21.5858 13.5866 3.98789
22.1902 11.013 3.98917
23.0952 12.7676 2
23.0411 8.16937 3.99135
23.9719 10.1544 2
24.1175 5.14017 3.99474
25.0229 7.3043 2
25.8591 9.36903 0.0109077
25.446 1.99014 4
26.2799 4.32546 2
27.0688 6.53523 0.00868079
27.7943 1.27778 2
28.488 3.64185 0.00515875
30.1841 0.720592 0
34.0458 35.8056 3.95163
35.7807 35.8133 2
37.5013 35.812 0.0503357
21.3025 15.8044 3.98703
24.7758 12.0544 0.0123361
23.7496 14.3357 0.0129297
25.3559 13.8859 2
22.4779 15.0103 2
24.0223 15.5955 2
23.2612 16.2258 3.9865
25.3777 16.0637 3.98646
27.2898 13.3554 0.0136107
29.7784 14.1813 0.0138914
28.3545 15.9532 2
27.4359 18.7714 3.98583
32.5698 34.1384 4.00884
34.1365 34.1822 2
35.7799 34.1182 0.0427115
34.0802 32.6509 -0.0038024
35.4611 30.323 0.0242779
37.5019 28.5962 0.0428216
40.1083 27.4652 -0.00470778
37.6001 27.0999 2
32.9292 33.0112 2
35.1156 28.8832 2
33.6704 31.0858 2
34.9978 27.2681 4.00333
32.9891 29.7824 3.93825
32.141 32.2536 4.01477
29.5646 21.9093 3.98661
30.2046 19.3146 2
30.9239 16.8138 0.0147544
37.7859 25.1426 0.0162022
35.2042 22.6089 0.0177286
32.8603 19.768 0.0172451
32.3056 22.3815 2
34.9307 25.1129 2
31.6118 25.5543 3.98209
32.0954 37.5009 3.98784
34.0053 37.4976 2
35.7741 37.4956 0.0537129
35.4046 50.2801 0.0166936
34.2197 47.524 -0.00148599
34.0536 39.1906 0.047024
32.9901 45.2138 0.0637082
32.136 42.7447 -0.0135243
32.5717 40.86 -0.0100228
33.1508 49.2746 2
32.2319 39.2654 2
30.9589 41.233 2
32.1107 46.4506 2
31.1515 43.8119 2
31.0142 48.0178 3.9785
30.1935 39.492 4.02489
29.7262 42.0022 3.94195
30.1885 45.0238 3.99497
31.9577 51.2962 0.0169236
29.7757 49.8259 2
27.7552 48.2951 3.98324
28.3811 51.7018 0.0181804
26.4288 50.0896 2
24.5494 48.5599 3.986
25.0285 51.8384 0.01682
23.2708 50.2748 2
21.5705 48.8646 3.98696
21.9152 51.8729 0.0158628
20.4055 50.3812 2
18.9707 49.152 3.98691
16.845 49.3804 3.98649
16.7357 51.4554 3.98567
17.9387 50.3848 2
16.3655 53.9135 3.98572
17.7996 52.8418 2
19.1556 51.6927 0.015099
15.9652 56.5108 3.98703
17.4186 55.3825 2
18.8957 54.3562 0.0148424
15.7454 59.2361 3.98864
17.1266 57.9074 2
18.4345 56.7634 0.0133502
15.7874 62.1533 3.99119
17.133 60.573 2
18.3628 59.1424 0.0125491
16.0893 65.305 3.99478
17.4075 63.4812 2
18.6165 61.7864 0.0108311
16.6661 68.6801 4
17.943 66.6223 2
19.1275 64.6865 0.00858601
18.75 69.9759 2
19.8867 67.8129 0.00521964
20.9142 71.1327 0
20.2174 14.5734 3.98771
21.5858 13.5863 2
20.5295 11.9816 3.98922
21.1443 9.13843 3.99137
22.1902 11.0127 2
23.0952 12.768 0.01224
22.0167 6.07887 3.99475
23.0411 8.16898 2
23.9719 10.1547 0.0108616
23.1494 2.85457 4
24.1176 5.13985 2
25.0229 7.30468 0.00867739
25.446 1.99012 2
26.2798 4.32577 0.00522852
27.7943 1.27781 0
32.2278 35.7344 3.99144
34.0479 35.8047 2
35.7796 35.8148 0.051358
21.3025 15.804 2
20.2988 16.9354 3.98703
22.094 16.6085 3.98678
25.356 13.8862 0.0132372
22.4779 15.0106 0.0127632
24.0223 15.5958 0.0133031
25.3777 16.0635 2
23.2611 16.2255 2
24.1999 18.4215 3.98596
27.0025 21.4272 3.98614
28.3546 15.9535 0.0140747
27.4358 18.7712 2
30.9573 33.7617 4.01765
32.5717 34.1392 2
34.1345 34.1837 0.0340355
32.9271 33.0098 -0.00828664
33.67 31.0841 -0.00642992
35.1153 28.8856 0.0456234
37.6002 27.1035 -0.0144003
34.997 27.2663 2
32.1428 32.2588 2
32.9899 29.784 2
32.3909 28.0152 3.99809
31.1532 31.19 3.94179
28.7335 24.3787 3.98636
29.5646 21.9089 2
30.2047 19.315 0.0144919
34.9312 25.1137 0.0217046
32.3057 22.3818 0.0168001
31.611 25.554 2
29.5092 27.185 3.98818
29.9127 37.499 4.02362
32.0974 37.5005 2
34.0034 37.4979 0.0511997
33.1515 49.2733 0.0173697
32.1115 46.4493 0.00402249
32.2296 39.2665 0.00595176
31.151 43.8157 0.0641722
30.9559 41.2391 -0.0190623
31.0133 48.0183 2
30.1955 39.4879 2
29.7264 41.999 2
30.1873 45.0252 2
29.0105 46.5522 3.98109
28.8127 39.8854 3.96089
28.4159 43.2137 3.98993
29.7763 49.8254 0.0189448
27.7546 48.2953 2
25.7982 46.7517 3.98881
26.4293 50.0894 0.0178671
24.549 48.5598 2
22.6911 47.1621 3.98912
23.2711 50.2748 0.0153924
21.5702 48.8645 2
19.905 47.6815 3.98802
20.4057 50.3812 0.0144979
18.9704 49.1521 2
17.613 48.2291 3.9869
16.0961 48.7273 3.98647
16.8448 49.3806 2
15.811 50.2149 3.98618
15.351 52.4576 3.98585
16.7356 51.4556 2
17.9389 50.3846 0.014068
14.8534 55.0132 3.98656
16.3654 53.9137 2
17.7998 52.8417 0.0148682
14.4532 57.7668 3.98831
15.9651 56.5111 2
17.4187 55.3822 0.0139953
14.2651 60.7099 3.99098
15.7453 59.2365 2
17.1266 57.907 0.0125804
14.3333 63.8648 3.9947
15.7875 62.1538 2
17.133 60.5726 0.0111476
14.6715 67.2507 4
16.0894 65.3055 2
17.4074 63.4808 0.00862528
16.6661 68.6801 2
17.9429 66.6219 0.00520658
18.75 69.9759 0
18.9304 15.7576 3.98759
20.2173 14.573 2
18.979 13.0905 3.98909
21.5858 13.5866 0.0121147
20.5295 11.9812 2
19.3438 10.2254 3.99137
19.9914 7.14323 3.99477
21.1443 9.13803 2
22.1902 11.013 0.0108284
20.9142 3.86727 4
22.0168 6.07853 2
23.0411 8.16937 0.00864507
23.1494 2.85451 2
24.1175 5.14017 0.00526143
25.446 1.99014 0
30.1939 35.5081 4.02111
32.2299 35.7348 2
34.0458 35.8056 0.0483718
21.3025 15.8044 0.0129747
22.0939 16.6082 2
20.2987 16.9351 2
19.236 18.3789 3.98692
21.7775 17.8213 3.98662
25.3777 16.0637 0.0135353
23.2612 16.2258 0.0135044
24.1998 18.4212 2
22.2679 19.858 3.98624
24.5776 21.2853 3.9857
26.3671 23.6834 3.98681
27.0025 21.4269 2
27.4359 18.7714 0.0141662
29.7309 32.9993 3.94811
30.9591 33.7673 2
32.5698 34.1384 -0.00884176
32.141 32.2536 -0.0147729
32.9891 29.7824 0.0617534
34.9978 27.2681 -0.00333368
32.39 28.0139 2
31.1536 31.1942 2
29.8913 29.4727 3.99444
27.7633 26.4968 3.98191
28.733 24.3781 2
29.5646 21.9093 0.0133888
31.6118 25.5543 0.0179058
29.5083 27.1847 2
28.4724 37.4967 3.96081
29.9141 37.4992 2
32.0954 37.5009 0.0121574
31.0142 48.0178 0.0214976
30.1885 45.0238 0.00503182
30.1935 39.492 -0.0248924
29.7262 42.0022 0.0580524
29.0096 46.5522 2
28.8133 39.8832 2
28.415 43.2137 2
27.0673 44.902 3.98729
26.5326 40.6386 3.98987
27.7552 48.2951 0.0167561
25.7977 46.7515 2
23.8226 45.2889 3.99185
24.5494 48.5599 0.0139956
22.6906 47.162 2
20.8198 45.9605 3.98889
21.5705 48.8646 0.013036
19.9046 47.6816 2
18.249 46.7873 3.98709
18.9707 49.152 0.0130861
17.6127 48.2292 2
16.282 47.7558 3.98622
16.0958 48.7275 2
15.1556 49.056 3.9862
16.845 49.3804 0.0135116
15.8108 50.2151 2
14.462 51.0239 3.98608
13.8123 53.4693 3.98637
15.3508 52.4578 2
16.7357 51.4554 0.0143268
13.2463 56.1959 3.98782
14.8533 55.0135 2
16.3655 53.9135 0.0142841
12.847 59.1452 3.99071
14.4532 57.7672 2
15.9652 56.5108 0.012967
12.6785 62.308 3.99456
14.2651 60.7104 2
15.7454 59.2361 0.0113576
12.7746 65.6939 4
14.3334 63.8653 2
15.7874 62.1533 0.00881302
14.6714 67.2507 2
16.0893 65.305 0.00521714
16.6661 68.6801 0
17.6636 17.1301 3.9874
18.9303 15.7572 2
17.5099 14.3522 3.98891
20.2174 14.5734 0.0122935
18.979 13.0901 2
17.6393 11.443 3.99129
20.5295 11.9816 0.0107834
19.3438 10.2249 2
18.0517 8.33568 3.99476
18.75 5.0241 4
19.9915 7.14286 2
21.1443 9.13843 0.00862963
20.9142 3.86727 2
22.0167 6.07887 0.00524808
23.1494 2.85457 0
28.8042 35.1088 3.95676
30.1957 35.5121 2
32.2278 35.7344 0.00856085
22.094 16.6085 0.0132249
20.2988 16.9354 0.0129686
21.7775 17.821 2
19.2359 18.3786 2
17.9684 19.9074 3.98681
20.8675 19.3445 3.98655
24.1999 18.4215 0.0140354
22.2678 19.8577 2
24.5776 21.2849 2
22.3386 21.6781 3.9862
24.6547 23.1277 3.98667
25.3627 25.9081 3.98333
26.3667 23.6829 2
27.0025 21.4272 0.0138597
28.0861 32.2615 3.99735
29.7308 33.0023 2
30.9573 33.7617 -0.0176457
31.1532 31.19 0.0582075
32.3909 28.0152 0.00190623
29.8906 29.4719 2
26.8535 29.1019 3.97465
27.7624 26.4963 2
28.7335 24.3787 0.013638
29.5092 27.185 0.0118166
26.6398 37.3594 3.99434
28.4734 37.4962 2
29.9127 37.499 -0.023618
29.0105 46.5522 0.0189056
28.4159 43.2137 0.0100692
28.8127 39.8854 0.0391095
27.0666 44.9015 2
26.5324 40.638 2
25.0321 43.2197 3.98894
23.7857 39.4386 3.98036
25.7982 46.7517 0.0111928
23.8222 45.2887 2
21.7805 44.0058 3.98781
22.6911 47.1621 0.0108785
20.8193 45.9607 2
18.8975 45.0156 3.98697
19.905 47.6815 0.0119815
18.2486 46.7874 2
16.5647 46.2513 3.98588
17.613 48.2291 0.0130984
16.2817 47.7559 2
14.8815 47.7071 3.98583
16.0961 48.7273 0.0135267
15.1553 49.0562 2
13.7577 49.5817 3.98603
15.811 50.2149 0.0138187
14.4618 51.0241 2
12.8768 51.9067 3.98634
12.1317 54.5546 3.98746
13.8122 53.4696 2
15.351 52.4576 0.0141539
11.5307 57.4787 3.99027
13.2462 56.1963 2
14.8534 55.0132 0.0134427
11.1332 60.6351 3.99438
12.847 59.1457 2
14.4532 57.7668 0.0116939
10.9835 64.0165 4
12.6786 62.3085 2
14.2651 60.7099 0.00901559
12.7745 65.694 2
14.3333 63.8648 0.00530331
14.6715 67.2507 0
16.394 18.6207 3.98735
17.6635 17.1298 2
16.1003 15.7587 3.98869
18.9304 15.7576 0.0124085
17.5099 14.3518 2
16.0208 12.7946 3.99112
18.979 13.0905 0.0109086
17.6394 11.4425 2
16.2028 9.65823 3.99472
19.3438 10.2254 0.00862611
18.0518 8.33529 2
16.6661 6.31991 4
18.75 5.02404 2
19.9914 7.14323 0.00523325
20.9142 3.86727 0
27.1509 34.7317 4.00094
28.8049 35.1105 2
30.1939 35.5081 -0.0211129
16.6638 21.3388 3.98618
21.7775 17.8213 0.0133765
19.236 18.3789 0.0130785
20.8673 19.3442 2
17.9683 19.9071 2
19.7059 21.533 3.98661
22.2679 19.858 0.013756
24.5776 21.2853 0.0143049
22.3385 21.6777 2
24.6544 23.1273 2
22.7858 24.5579 3.9847
24.4088 28.4886 3.98047
25.3621 25.9077 2
26.3671 23.6834 0.0131889
25.9339 31.6844 3.97975
28.0853 32.2614 2
29.7309 32.9993 0.0518867
29.8913 29.4727 0.00555647
26.8529 29.1021 2
27.7633 26.4968 0.0180905
24.4619 36.8577 3.98732
26.6396 37.3594 2
28.4724 37.4967 0.0391883
27.0673 44.902 0.0127052
26.5326 40.6386 0.0101322
25.0316 43.2189 2
23.7856 39.439 2
22.8176 41.8384 3.98475
21.5493 38.5049 3.9855
23.8226 45.2889 0.00815298
21.78 44.0062 2
19.6363 42.925 3.98591
20.8198 45.9605 0.0111052
18.8971 45.0156 2
16.8851 44.4131 3.98576
18.249 46.7873 0.0129082
16.5644 46.2514 2
14.7968 46.1232 3.98534
16.282 47.7558 0.0137779
14.8812 47.7072 2
13.2618 48.0407 3.98567
15.1556 49.056 0.0137986
13.7575 49.5819 2
12.0938 50.2827 3.98621
14.462 51.0239 0.0139203
12.8766 51.907 2
11.1257 52.8625 3.98723
10.3202 55.7312 3.98978
12.1317 54.555 2
13.8123 53.4693 0.0136266
9.69983 58.8589 3.99412
11.5308 57.4792 2
13.2463 56.1959 0.0121799
9.30605 62.2254 4
11.1332 60.6356 2
12.847 59.1452 0.00928912
10.9835 64.0165 2
12.6785 62.308 0.00544484
12.7746 65.6939 0
15.1357 20.1523 3.98695
16.3939 18.6204 2
14.7449 17.2788 3.98838
17.6636 17.1301 0.012595
16.1003 15.7583 2
14.483 14.2742 3.99091
17.5099 14.3522 0.0110933
16.0208 12.7941 2
14.4454 11.1088 3.99462
17.6393 11.443 0.00870813
16.2029 9.65781 2
14.6715 7.74927 4
18.0517 8.33568 0.00523546
16.6661 6.31988 2
18.75 5.0241 0
25.103 34.2627 3.99245
27.1505 34.7318 2
28.8042 35.1088 0.0432417
17.8312 22.2821 3.98678
15.5031 22.8805 3.98559
16.6636 21.3385 2
20.8675 19.3445 0.0134521
17.9684 19.9074 0.0131861
19.7058 21.5326 2
19.6157 24.338 3.98556
22.3386 21.6781 0.0138023
24.6547 23.1277 0.0133341
22.7853 24.5575 2
21.8034 27.782 3.98078
23.5663 31.1527 3.98424
24.4083 28.4887 2
25.3627 25.9081 0.0166671
25.9333 31.6852 2
28.0861 32.2615 0.00265349
26.8535 29.1019 0.0253537
22.2503 36.2569 3.9915
24.4618 36.8581 2
26.6398 37.3594 0.00565896
25.0321 43.2197 0.0110618
23.7857 39.4386 0.0196352
22.817 41.8387 2
21.5493 38.5047 2
20.5455 40.6525 3.98319
19.918 37.7822 3.98788
21.7805 44.0058 0.0121926
19.636 42.925 2
17.2709 42.1248 3.98498
18.8975 45.0156 0.0130285
16.8848 44.4131 2
14.7924 44.2274 3.98482
16.5647 46.2513 0.0141175
14.7964 46.1233 2
12.9301 46.3237 3.98523
14.8815 47.7071 0.0141677
13.2616 48.0409 2
11.463 48.5768 3.98588
13.7577 49.5817 0.0139733
12.0936 50.2829 2
10.2499 51.1043 3.98698
12.8768 51.9067 0.0136568
11.1256 52.8629 2
9.22813 53.909 3.98933
8.38344 56.9929 3.99376
10.3202 55.7317 2
12.1317 54.5546 0.0125386
7.74927 60.3285 4
9.6999 58.8594 2
11.5307 57.4787 0.00972588
9.306 62.2255 2
11.1332 60.6351 0.00561997
10.9835 64.0165 0
13.9444 21.7173 3.98657
15.1356 20.1519 2
13.444 18.8737 3.988
16.394 18.6207 0.012646
14.7449 17.2784 2
13.028 15.8647 3.99064
16.1003 15.7587 0.0113128
14.483 14.2737 2
12.7826 12.6814 3.99447
16.0208 12.7946 0.00887955
14.4455 11.1083 2
12.7746 9.30605 4
16.2028 9.65823 0.00527643
14.6715 7.74924 2
16.6661 6.31991 0
22.8498 33.7708 3.99344
25.1027 34.2635 2
27.1509 34.7317 -0.000941629
17.5887 24.0002 3.986
17.831 22.2818 2
14.2812 24.413 3.98483
15.5029 22.8801 2
16.6638 21.3388 0.0138233
18.9536 27.1616 3.98204
19.7059 21.533 0.0133877
19.6153 24.3377 2
21.0275 30.6289 3.9821
22.7858 24.5579 0.0152957
21.803 27.7819 2
23.5658 31.1531 2
24.4088 28.4886 0.0195254
25.9339 31.6844 0.0202531
20.0271 35.9093 3.9904
22.2502 36.2569 2
24.4619 36.8577 0.0126753
22.8176 41.8384 0.0152508
21.5493 38.5049 0.0144952
20.5452 40.6522 2
19.9179 37.7821 2
17.9283 39.0093 3.98627
19.6363 42.925 0.014093
17.2707 42.1247 2
14.7332 41.9369 3.98465
16.8851 44.4131 0.0142445
14.7921 44.2274 2
12.6665 44.4151 3.98471
14.7968 46.1232 0.014664
12.9299 46.3238 2
10.9623 46.7573 3.98549
13.2618 48.0407 0.0143343
11.4628 48.577 2
9.51175 49.2619 3.98662
12.0938 50.2827 0.013791
10.2498 51.1046 2
8.26018 52.0209 3.98888
11.1257 52.8625 0.0127655
9.22811 53.9095 2
7.19236 55.044 3.99336
6.31991 58.3339 4
8.3835 56.9934 2
10.3202 55.7312 0.0102201
7.74924 60.3285 2
9.69983 58.8589 0.00588442
9.30605 62.2254 0
13.2009 25.3296 3.98582
12.8082 23.2469 3.98609
13.9442 21.717 2
12.2273 20.5215 3.98767
15.1357 20.1523 0.0130479
13.444 18.8732 2
11.6571 17.5439 3.99033
14.7449 17.2788 0.0116155
13.028 15.8642 2
11.22 14.3653 3.99428
14.483 14.2742 0.00908944
12.7827 12.6809 2
10.9835 10.9835 4
14.4454 11.1088 0.0053822
12.7745 9.306 2
14.6715 7.74927 0
20.4242 33.3686 3.98884
22.8494 33.7711 2
25.103 34.2627 0.00755108
15.8526 26.3626 3.98366
17.5884 23.9998 2
17.8312 22.2821 0.0132191
14.281 24.4128 2
15.5031 22.8805 0.0144079
18.2829 30.1402 3.98166
18.9533 27.1615 2
19.6157 24.338 0.0144433
21.0271 30.6292 2
21.8034 27.782 0.0192201
23.5663 31.1527 0.0157628
17.5433 35.9554 3.99094
20.0269 35.9094 2
22.2503 36.2569 0.00849649
20.5455 40.6525 0.0168081
19.918 37.7822 0.0121244
17.9281 39.0091 2
14.2319 39.1837 3.98687
17.2709 42.1248 0.01502
14.733 41.9368 2
12.3498 42.2939 3.98556
14.7924 44.2274 0.0151765
12.6663 44.4151 2
10.5371 44.8222 3.98504
12.9301 46.3237 0.0147688
10.962 46.7575 2
8.89273 47.3385 3.98621
11.463 48.5768 0.0141187
9.5116 49.2622 2
7.42624 50.0528 3.98836
10.2499 51.1043 0.0130194
8.26013 52.0214 2
6.13273 53.0191 3.99294
9.22813 53.909 0.0106694
7.19241 55.0446 2
5.0241 56.25 4
6.31988 58.3339 2
8.38344 56.9929 0.00624263
7.74927 60.3285 0
13.4322 26.7833 3.98405
11.9193 24.7577 3.98535
13.2007 25.3294 2
11.128 22.2065 3.98726
12.8081 23.2466 2
13.9444 21.7173 0.0134302
12.2272 20.5211 2
10.3863 19.2977 3.98998
13.444 18.8737 0.0120038
11.6572 17.5434 2
9.76088 16.1474 3.99407
13.028 15.8647 0.00935652
11.22 14.3648 2
9.30607 12.7746 4
12.7826 12.6814 0.00552752
10.9835 10.9835 2
12.7746 9.30605 0
17.7364 33.0892 3.98689
20.4239 33.369 2
22.8498 33.7708 0.00655587
15.4303 29.607 3.98281
15.8523 26.3624 2
17.5887 24.0002 0.0139996
14.2812 24.413 0.0151737
18.2827 30.1403 2
18.9536 27.1616 0.0179641
21.0275 30.6289 0.0178951
14.8144 36.012 3.98979
17.543 35.9555 2
20.0271 35.9093 0.00959903
12.534 37.8319 3.98672
17.9283 39.0093 0.0137286
14.2317 39.1836 2
11.8593 40.1523 3.98713
14.7332 41.9369 0.0153536
12.3496 42.2938 2
10.1341 42.7932 3.98538
12.6665 44.4151 0.0152875
10.5369 44.8223 2
8.3693 45.3375 3.98576
10.9623 46.7573 0.0145104
8.89255 47.3387 2
6.71674 48.0162 3.98781
9.51175 49.2619 0.0133823
7.42616 50.0532 2
5.20913 50.922 3.99242
8.26018 52.0209 0.0111172
6.13275 53.0196 2
3.86727 54.0858 4
7.19236 55.044 0.00663873
5.02404 56.25 2
6.31991 58.3339 0
12.8832 29.0074 3.98322
11.3467 26.4608 3.98467
13.432 26.7831 2
10.1854 23.9422 3.98644
11.9191 24.7575 2
13.2009 25.3296 0.0141788
9.23723 21.1168 3.98943
11.1279 22.2061 2
12.8082 23.2469 0.0139059
12.2273 20.5215 0.0123276
10.3863 19.2972 2
8.41674 18.017 3.99384
11.6571 17.5439 0.00967304
9.76095 16.1468 2
7.74928 14.6715 4
11.22 14.3653 0.00571613
9.30602 12.7745 2
10.9835 10.9835 0
14.4142 32.8427 3.98607
17.7361 33.0895 2
20.4242 33.3686 0.0111642
15.4301 29.607 2
15.8526 26.3626 0.0163404
18.2829 30.1402 0.0183354
12.8179 36.2052 3.98791
14.8141 36.0121 2
17.5433 35.9554 0.00906474
12.5338 37.8319 2
11.216 38.3156 3.98684
14.2319 39.1837 0.0131286
11.8592 40.1522 2
9.71695 40.7652 3.98657
12.3498 42.2939 0.0144389
10.1339 42.7932 2
7.91734 43.283 3.9857
10.5371 44.8222 0.0149569
8.36911 45.3377 2
6.1222 45.9192 3.98728
8.89273 47.3385 0.0137887
6.71663 48.0166 2
4.42028 48.762 3.9918
7.42624 50.0528 0.011635
5.20913 50.9225 2
2.85457 51.8506 4
6.13273 53.0191 0.00706256
3.86727 54.0858 2
5.0241 56.25 0
12.0207 31.2359 3.98638
10.757 28.3928 3.98375
12.883 29.0074 2
9.3989 25.7756 3.98572
11.3465 26.4606 2
13.4322 26.7833 0.0159539
8.22329 23.0033 3.9885
10.1853 23.9418 2
11.9193 24.7577 0.014651
7.1987 19.9661 3.99349
9.23719 21.1163 2
11.128 22.2065 0.0127366
10.3863 19.2977 0.010018
8.4168 18.0164 2
6.31992 16.6661 4
9.76088 16.1474 0.00592536
7.74926 14.6714 2
9.30607 12.7746 0
12.0302 34.2828 3.98486
14.414 32.8428 2
17.7364 33.0892 0.0131132
15.4303 29.607 0.0171898
10.7795 36.6111 3.98763
12.8176 36.2052 2
14.8144 36.012 0.0102061
12.534 37.8319 0.0132827
11.2158 38.3157 2
9.31024 38.8298 3.98717
11.8593 40.1523 0.0128689
9.71679 40.7652 2
7.52698 41.2208 3.98644
10.1341 42.7932 0.0146239
7.91718 43.2831 2
5.63356 43.7795 3.98688
8.3693 45.3375 0.0142413
6.12207 45.9195 2
3.76556 46.5467 3.99116
6.71674 48.0162 0.012187
4.42026 48.7625 2
1.99014 49.554 4
5.20913 50.922 0.00758223
2.85451 51.8506 2
3.86727 54.0858 0
10.8834 32.9038 3.98611
10.068 30.3642 3.98527
12.0205 31.2359 2
8.7059 27.713 3.98483
10.7569 28.3927 2
12.8832 29.0074 0.0167799
7.34795 24.9646 3.98771
9.39877 25.7753 2
11.3467 26.4608 0.0153307
6.11536 21.9897 3.99284
8.22323 23.0029 2
10.1854 23.9422 0.0135605
5.02411 18.75 4
7.19874 19.9655 2
9.23723 21.1168 0.0105707
8.41674 18.017 0.00615604
6.3199 16.6661 2
7.74928 14.6715 0
10.3954 34.9937 3.98516
12.0299 34.2829 2
14.4142 32.8427 0.013933
8.98288 36.9861 3.98762
10.7792 36.6112 2
12.8179 36.2052 0.0120859
11.216 38.3156 0.0131592
9.31003 38.8299 2
7.20611 39.1876 3.9872
9.71695 40.7652 0.0134293
7.52682 41.2208 2
5.24798 41.6221 3.98726
7.91734 43.283 0.0143017
5.63343 43.7797 2
3.24293 44.2901 3.99055
6.1222 45.9192 0.0127234
3.76551 46.5471 2
1.27781 47.2057 4
4.42028 48.762 0.00819832
1.99012 49.554 2
2.85457 51.8506 0
10.052 33.871 3.98491
9.35958 32.1405 3.98624
10.8832 32.9038 2
8.05404 29.6802 3.98525
10.0678 30.3642 2
12.0207 31.2359 0.013619
6.59102 26.9932 3.98689
8.70577 27.7128 2
10.757 28.3928 0.0162508
5.17026 24.0833 3.99211
7.34787 24.9642 2
9.3989 25.7756 0.0142778
3.86728 20.9142 4
6.11538 21.9891 2
8.22329 23.0033 0.0115017
5.02406 18.75 2
7.1987 19.9661 0.00651158
6.31992 16.6661 0
8.8113 35.275 3.98627
10.3951 34.9937 2
12.0302 34.2828 0.0151375
6.99035 37.2067 3.98776
8.98264 36.9861 2
10.7795 36.6111 0.0123697
9.31024 38.8298 0.0128251
7.20592 39.1876 2
4.97471 39.472 3.98805
7.52698 41.2208 0.0135613
5.24785 41.6222 2
2.85302 42.0084 3.99051
5.63356 43.7795 0.0131182
3.24287 44.2904 2
0.720592 44.8159 4
3.76556 46.5467 0.00883563
1.27778 47.2057 2
1.99014 49.554 0
8.85551 33.6883 3.986
10.0518 33.871 2
7.48993 31.5972 3.98634
9.35937 32.1404 2
10.8834 32.9038 0.0138947
5.93564 29.0569 3.98668
8.0539 29.6801 2
10.068 30.3642 0.0147338
4.35753 26.2369 3.99128
6.59094 26.9928 2
8.7059 27.713 0.0151688
2.85458 23.1494 4
5.17026 24.0827 2
7.34795 24.9646 0.0122907
3.86728 20.9142 2
6.11536 21.9897 0.00715685
5.02411 18.75 0
6.94158 35.3023 3.98721
8.81106 35.275 2
10.3954 34.9937 0.0148414
4.82506 37.3405 3.98845
6.99013 37.2068 2
8.98288 36.9861 0.0123757
7.20611 39.1876 0.0127957
4.97456 39.4721 2
2.60058 39.7174 3.99101
5.24798 41.6221 0.0127406
2.85295 42.0086 2
0.320823 42.3947 4
3.24293 44.2901 0.00944744
0.720551 44.8159 2
1.27781 47.2057 0
7.10295 33.4529 3.98657
8.8553 33.6883 2
10.052 33.871 0.0150939
5.40541 31.1235 3.98743
7.48975 31.5972 2
9.35958 32.1405 0.0137579
3.67894 28.4343 3.99066
5.93554 29.0566 2
8.05404 29.6802 0.01475
1.99015 25.446 4
4.35752 26.2365 2
6.59102 26.9932 0.0131096
2.85453 23.1494 2
5.17026 24.0833 0.00789382
3.86728 20.9142 0
4.8398 35.2483 3.98831
6.94137 35.3023 2
8.8113 35.275 0.0137276
2.492 37.4288 3.9912
4.82489 37.3405 2
6.99035 37.2067 0.0122364
4.97471 39.472 0.0119472
2.6005 39.7175 2
0.080333 39.9526 4
2.85302 42.0084 0.00949182
0.320817 42.3947 2
0.720592 44.8159 0
5.03409 33.1833 3.98772
7.10276 33.4529 2
8.85551 33.6883 0.0140033
3.14274 30.6586 3.99085
5.40527 31.1233 2
7.48993 31.5972 0.0136564
1.27793 27.7943 4
3.67891 28.4339 2
5.93564 29.0569 0.0133178
1.99013 25.446 2
4.35753 26.2369 0.00872345
2.85458 23.1494 0
2.5443 35.1563 3.99133
4.83963 35.2482 2
6.94158 35.3023 0.0127948
0 37.5 4
2.4919 37.4289 2
4.82506 37.3405 0.011546
2.60058 39.7174 0.0089872
0.0802903 39.9526 2
0.320823 42.3947 0
2.76233 32.9003 3.99098
5.03395 33.1832 2
7.10295 33.4529 0.01343
0.721173 30.1842 4
3.14268 30.6583 2
5.40541 31.1235 0.0125699
1.27779 27.7943 2
3.67894 28.4343 0.0093417
1.99015 25.446 0
0.0806499 35.0474 4
2.54421 35.1562 2
4.8398 35.2483 0.0116905
0 37.5 2
2.492 37.4288 0.00880292
0.080333 39.9526 0
0.32156 32.6054 4
2.76226 32.9001 2
5.03409 33.1833 0.0122765
0.72056 30.1841 2
3.14274 30.6586 0.0091544
1.27793 27.7943 0
0.0802889 35.0474 2
2.5443 35.1563 0.00866808
0 37.5 0
0.320817 32.6053 2
2.76233 32.9003 0.00901738
0.721173 30.1842 0
0.0806499 35.0474 0
0.32156 32.6054 0
CELLS 1910 17190
8 18 6 25 56 2 0 5 16
8 57 23 6 18 17 4 0 2
8 78 36 9 29 31 11 1 7
8 31 11 1 7 79 37 10 30
8 110 57 18 50 48 17 2 14
8 50 18 56 111 14 2 16 49
8 116 62 22 55 52 20 3 15
8 56 25 67 118 16 5 24 53
8 119 63 23 57 54 21 4 17
8 55 22 63 119 15 3 21 54
8 58 26 68 121 18 6 25 56
8 122 65 26 58 57 23 6 18
8 73 31 7 27 142 79 30 71
8 143 78 29 72 73 31 7 27
8 83 147 76 34 32 74 28 8
8 84 148 78 36 33 75 29 9
8 76 34 8 28 148 84 33 75
8 37 79 150 86 10 30 77 35
8 151 87 36 78 80 38 11 31
8 80 38 11 31 152 88 37 79
8 175 100 42 94 96 44 12 40
8 44 96 176 101 12 40 95 43
8 101 176 98 46 43 95 41 13
8 46 98 178 103 13 41 97 45
8 178 103 45 97 147 83 32 74
8 189 116 55 109 106 52 15 47
8 111 56 118 191 49 16 53 107
8 192 119 57 110 108 54 17 48
8 109 55 119 192 47 15 54 108
8 194 122 58 112 110 57 18 50
8 112 58 121 195 50 18 56 111
8 115 61 19 51 197 124 59 113
8 115 61 125 198 51 19 60 114
8 198 125 62 116 114 60 20 52
8 200 127 64 120 116 62 22 55
8 118 67 132 202 53 24 66 117
8 121 68 133 203 56 25 67 118
8 120 64 128 204 55 22 63 119
8 204 128 65 122 119 63 23 57
8 206 134 68 121 123 69 26 58
8 123 69 26 58 207 131 65 122
8 226 147 74 138 140 76 28 70
8 229 148 75 139 143 78 29 72
8 140 76 28 70 229 148 75 139
8 142 79 30 71 231 150 77 141
8 144 80 31 73 232 152 79 142
8 233 151 78 143 144 80 31 73
8 150 86 35 77 235 154 81 145
8 235 154 81 145 146 82 39 91
8 146 82 39 91 236 155 90 165
8 238 157 83 147 149 85 34 76
8 239 158 84 148 151 87 36 78
8 149 85 34 76 239 158 84 148
8 152 88 37 79 241 160 86 150
8 242 161 87 151 153 89 38 80
8 153 89 38 80 243 162 88 152
8 171 98 41 92 265 178 97 169
8 265 178 97 169 226 147 74 138
8 172 96 40 93 266 176 95 170
8 266 176 95 170 171 98 41 92
8 269 175 94 173 172 96 40 93
8 271 180 99 174 175 100 42 94
8 197 124 59 113 271 180 99 174
8 272 181 100 175 177 102 44 96
8 273 182 101 176 179 104 46 98
8 177 102 44 96 273 182 101 176
8 179 104 46 98 275 184 103 178
8 275 184 103 178 238 157 83 147
8 188 115 51 105 283 197 113 186
8 188 115 198 284 105 51 114 187
8 284 198 116 189 187 114 52 106
8 286 200 120 193 189 116 55 109
8 191 118 202 288 107 53 117 190
8 195 121 203 289 111 56 118 191
8 193 120 204 290 109 55 119 192
8 290 204 122 194 192 119 57 110
8 196 123 58 112 292 207 122 194
8 293 206 121 195 196 123 58 112
8 199 126 61 115 297 211 124 197
8 298 212 127 200 198 125 62 116
8 199 126 212 298 115 61 125 198
8 205 129 64 120 300 214 127 200
8 301 217 130 201 202 132 66 117
8 209 136 168 264 301 217 130 201
8 302 219 132 202 203 133 67 118
8 303 220 133 203 206 134 68 121
8 205 129 215 304 120 64 128 204
8 304 215 131 207 204 128 65 122
8 306 221 134 206 208 135 69 123
8 208 135 69 123 307 218 131 207
8 210 137 167 263 309 223 136 209
8 328 238 147 226 230 149 76 140
8 228 146 91 166 329 236 165 260
8 231 150 77 141 330 235 145 227
8 330 235 145 227 228 146 91 166
8 332 239 148 229 233 151 78 143
8 230 149 76 140 332 239 148 229
8 232 152 79 142 334 241 150 231
8 234 153 80 144 335 243 152 232
8 336 242 151 233 234 153 80 144
8 236 155 90 165 338 245 164 259
8 241 160 86 150 339 246 154 235
8 339 246 154 235 237 156 82 146
8 237 156 82 146 340 247 155 236
8 342 249 157 238 240 159 85 149
8 343 250 158 239 242 161 87 151
8 240 159 85 149 343 250 158 239
8 243 162 88 152 345 252 160 241
8 244 163 253 346 153 89 161 242
8 244 163 89 153 347 254 162 243
8 311 224 261 371 210 137 167 263
8 263 167 262 372 209 136 168 264
8 267 179 98 171 375 275 178 265
8 375 275 178 265 328 238 147 226
8 376 273 176 266 267 179 98 171
8 268 177 96 172 376 273 176 266
8 379 272 175 269 268 177 96 172
8 380 271 174 270 269 175 94 173
8 283 197 113 186 380 271 174 270
8 381 277 180 271 272 181 100 175
8 297 211 124 197 381 277 180 271
8 382 278 181 272 274 183 102 177
8 274 183 102 177 383 279 182 273
8 383 279 182 273 276 185 104 179
8 385 281 184 275 342 249 157 238
8 276 185 104 179 385 281 184 275
8 285 199 115 188 393 297 197 283
8 394 298 200 286 284 198 116 189
8 285 199 298 394 188 115 198 284
8 291 205 120 193 396 300 200 286
8 397 301 201 287 288 202 117 190
8 295 209 264 374 397 301 201 287
8 398 302 202 288 289 203 118 191
8 399 303 203 289 293 206 121 195
8 291 205 304 400 193 120 204 290
8 400 304 207 292 290 204 122 194
8 294 208 123 196 402 307 207 292
8 403 306 206 293 294 208 123 196
8 296 210 263 373 405 309 209 295
8 408 312 213 299 297 211 126 199
8 299 213 313 409 199 126 212 298
8 409 313 214 300 298 212 127 200
8 305 216 129 205 411 315 214 300
8 412 318 217 301 302 219 132 202
8 309 223 136 209 412 318 217 301
8 413 320 219 302 303 220 133 203
8 306 221 321 414 206 134 220 303
8 307 218 131 207 415 316 215 304
8 305 216 316 415 205 129 215 304
8 417 322 221 306 308 222 135 208
8 308 222 135 208 418 319 218 307
8 310 225 137 210 420 325 223 309
8 423 326 224 311 310 225 137 210
8 329 236 165 260 441 338 259 368
8 442 342 238 328 333 240 149 230
8 331 237 146 228 443 340 236 329
8 334 241 150 231 444 339 235 330
8 444 339 235 330 331 237 146 228
8 446 343 239 332 336 242 151 233
8 333 240 149 230 446 343 239 332
8 335 243 152 232 448 345 241 334
8 337 244 153 234 449 347 243 335
8 337 244 346 450 234 153 242 336
8 338 245 164 259 452 349 258 367
8 340 247 155 236 453 350 245 338
8 345 252 160 241 454 351 246 339
8 454 351 246 339 341 248 156 237
8 341 248 156 237 455 352 247 340
8 240 159 251 344 342 249 354 457
8 242 161 253 346 343 250 355 458
8 343 250 355 458 240 159 251 344
8 347 254 162 243 460 357 252 345
8 348 255 358 461 244 163 253 346
8 348 255 163 244 462 359 254 347
8 473 360 257 365 363 256 364 482
8 452 349 258 367 365 257 366 485
8 422 324 369 488 311 224 261 371
8 371 261 370 490 263 167 262 372
8 407 311 371 491 296 210 263 373
8 373 263 372 492 295 209 264 374
8 493 385 275 375 442 342 238 328
8 377 276 179 267 493 385 275 375
8 378 274 177 268 494 383 273 376
8 494 383 273 376 377 276 179 267
8 497 382 272 379 378 274 177 268
8 498 381 271 380 379 272 175 269
8 393 297 197 283 498 381 271 380
8 499 387 277 381 382 278 181 272
8 408 312 211 297 499 387 277 381
8 500 388 278 382 384 280 183 274
8 501 389 279 383 386 282 185 276
8 384 280 183 274 501 389 279 383
8 386 282 185 276 503 391 281 385
8 503 391 281 385 457 354 249 342
8 511 408 299 395 393 297 199 285
8 395 299 409 512 285 199 298 394
8 512 409 300 396 394 298 200 286
8 401 305 205 291 514 411 300 396
8 515 412 301 397 398 302 202 288
8 405 309 209 295 515 412 301 397
8 516 413 302 398 399 303 203 289
8 403 306 414 517 293 206 303 399
8 402 307 207 292 518 415 304 400
8 401 305 415 518 291 205 304 400
8 404 308 208 294 520 418 307 402
8 521 417 306 403 404 308 208 294
8 406 310 210 296 523 420 309 405
8 526 423 311 407 406 310 210 296
8 410 314 213 299 527 424 312 408
8 528 425 315 411 409 313 214 300
8 410 314 425 528 299 213 313 409
8 416 317 216 305 530 427 315 411
8 531 430 318 412 413 320 219 302
8 420 325 223 309 531 430 318 412
8 532 432 320 413 414 321 220 303
8 417 322 433 533 306 221 321 414
8 418 319 218 307 534 428 316 415
8 416 317 428 534 305 216 316 415
8 419 323 434 536 308 222 322 417
8 419 323 222 308 537 431 319 418
8 421 327 225 310 539 438 325 420
8 421 327 439 541 310 225 326 423
8 543 437 324 422 423 326 224 311
8 441 338 259 368 559 452 367 486
8 443 340 236 329 560 453 338 441
8 333 240 344 447 442 342 457 561
8 445 341 237 331 562 455 340 443
8 448 345 241 334 563 454 339 444
8 563 454 339 444 445 341 237 331
8 336 242 346 450 446 343 458 565
8 446 343 458 565 333 240 344 447
8 449 347 243 335 567 460 345 448
8 451 348 244 337 568 462 347 449
8 451 348 461 569 337 244 346 450
8 570 463 349 452 473 360 257 365
8 453 350 245 338 570 463 349 452
8 455 352 247 340 571 464 350 453
8 460 357 252 345 572 465 351 454
8 572 465 351 454 456 353 248 341
8 456 353 248 341 573 466 352 455
8 344 251 356 459 457 354 468 575
8 458 355 469 576 344 251 356 459
8 346 253 358 461 458 355 469 576
8 462 359 254 347 578 471 357 460
8 348 255 359 462 461 358 472 579
8 591 474 360 473 475 361 256 363
8 475 361 256 363 594 477 362 479
8 363 256 364 482 479 362 480 603
8 590 473 365 484 481 363 482 605
8 482 364 257 365 606 483 366 485
8 559 452 367 486 484 365 485 607
8 542 436 487 609 422 324 369 488
8 525 422 488 611 407 311 371 491
8 488 369 489 612 371 261 370 490
8 491 371 490 613 373 263 372 492
8 495 386 276 377 614 503 385 493
8 614 503 385 493 561 457 342 442
8 615 501 383 494 495 386 276 377
8 496 384 274 378 615 501 383 494
8 618 500 382 497 496 384 274 378
8 619 499 381 498 497 382 272 379
8 511 408 297 393 619 499 381 498
8 620 505 387 499 500 388 278 382
8 527 424 312 408 620 505 387 499
8 502 390 506 621 384 280 388 500
8 622 507 389 501 504 392 282 386
8 502 390 280 384 622 507 389 501
8 504 392 282 386 624 509 391 503
8 624 509 391 503 575 468 354 457
8 513 410 299 395 630 527 408 511
8 631 528 411 514 512 409 300 396
8 513 410 528 631 395 299 409 512
8 519 416 305 401 633 530 411 514
8 634 531 412 515 516 413 302 398
8 523 420 309 405 634 531 412 515
8 635 532 413 516 517 414 303 399
8 521 417 533 636 403 306 414 517
8 520 418 307 402 637 534 415 518
8 519 416 534 637 401 305 415 518
8 522 419 308 404 639 537 418 520
8 522 419 536 640 404 308 417 521
8 524 421 310 406 642 539 420 523
8 524 421 541 644 406 310 423 526
8 646 543 422 525 526 423 311 407
8 529 426 314 410 647 544 424 527
8 528 425 545 648 411 315 427 530
8 529 426 545 648 410 314 425 528
8 535 429 317 416 649 546 427 530
8 650 548 430 531 532 432 320 413
8 539 438 325 420 650 548 430 531
8 533 433 550 651 414 321 432 532
8 536 434 551 652 417 322 433 533
8 537 431 319 418 653 547 428 534
8 535 429 547 653 416 317 428 534
8 538 435 552 654 419 323 434 536
8 538 435 323 419 655 549 431 537
8 540 440 327 421 657 556 438 539
8 540 440 557 659 421 327 439 541
8 541 439 555 660 423 326 437 543
8 661 554 436 542 543 437 324 422
8 676 570 452 559 590 473 365 484
8 560 453 338 441 676 570 452 559
8 562 455 340 443 677 571 453 560
8 447 344 459 566 561 457 575 678
8 564 456 341 445 679 573 455 562
8 567 460 345 448 680 572 454 563
8 680 572 454 563 564 456 341 445
8 565 458 576 682 447 344 459 566
8 450 346 461 569 565 458 576 682
8 568 462 347 449 684 578 460 567
8 451 348 462 568 569 461 579 685
8 686 580 463 570 591 474 360 473
8 571 464 350 453 686 580 463 570
8 573 466 352 455 687 581 464 571
8 572 465 582 688 460 357 471 578
8 574 467 582 688 456 353 465 572
8 574 467 353 456 689 583 466 573
8 459 356 470 577 575 468 585 691
8 576 469 586 692 459 356 470 577
8 461 358 472 579 576 469 586 692
8 462 359 471 578 579 472 588 694
8 704 591 473 590 593 475 363 481
8 595 476 592 705 475 361 474 591
8 593 475 363 481 707 594 479 602
8 594 477 362 479 709 598 478 600
8 595 476 361 475 711 597 477 594
8 479 362 480 603 600 478 601 720
8 481 363 482 605 602 479 603 722
8 603 480 364 482 723 604 483 606
8 605 482 365 484 724 606 485 607
8 656 553 608 726 542 436 487 609
8 645 542 609 728 525 422 488 611
8 609 487 610 729 488 369 489 612
8 611 488 612 730 491 371 490 613
8 616 504 386 495 731 624 503 614
8 731 624 503 614 678 575 457 561
8 732 622 501 615 616 504 386 495
8 617 502 384 496 732 622 501 615
8 617 502 621 735 496 384 500 618
8 736 620 499 619 618 500 382 497
8 630 527 408 511 736 620 499 619
8 621 506 626 737 500 388 505 620
8 647 544 424 527 737 626 505 620
8 623 508 627 738 502 390 506 621
8 623 508 390 502 739 628 507 622
8 625 510 628 739 504 392 507 622
8 740 629 509 624 691 585 468 575
8 625 510 392 504 740 629 509 624
8 632 529 410 513 744 647 527 630
8 631 528 648 745 514 411 530 633
8 632 529 648 745 513 410 528 631
8 638 535 416 519 746 649 530 633
8 747 650 531 634 635 532 413 516
8 642 539 420 523 747 650 531 634
8 636 533 651 748 517 414 532 635
8 640 536 652 749 521 417 533 636
8 639 537 418 520 750 653 534 637
8 638 535 653 750 519 416 534 637
8 641 538 419 522 751 655 537 639
8 641 538 654 752 522 419 536 640
8 643 540 421 524 753 657 539 642
8 643 540 659 755 524 421 541 644
8 644 541 660 757 526 423 543 646
8 758 661 542 645 646 543 422 525
8 529 426 544 647 648 545 662 759
8 530 427 545 648 649 546 663 760
8 535 429 546 649 653 547 664 761
8 762 666 548 650 651 550 432 532
8 657 556 438 539 762 666 548 650
8 652 551 668 763 533 433 550 651
8 654 552 669 764 536 434 551 652
8 655 549 431 537 765 665 547 653
8 538 435 549 655 654 552 667 766
8 661 554 671 768 542 436 553 656
8 658 558 440 540 769 674 556 657
8 658 558 675 770 540 440 557 659
8 659 557 673 771 541 439 555 660
8 660 555 672 772 543 437 554 661
8 788 686 570 676 704 591 473 590
8 677 571 453 560 788 686 570 676
8 679 573 455 562 789 687 571 677
8 566 459 577 683 678 575 691 790
8 681 574 456 564 791 689 573 679
8 680 572 688 792 567 460 578 684
8 681 574 688 792 564 456 572 680
8 682 576 692 794 566 459 577 683
8 569 461 579 685 682 576 692 794
8 568 462 578 684 685 579 694 796
8 687 581 464 571 798 696 580 686
8 798 696 580 686 705 592 474 591
8 689 583 466 573 799 697 581 687
8 688 582 698 800 578 471 588 694
8 690 584 698 800 574 467 582 688
8 690 584 467 574 801 699 583 689
8 693 587 701 803 577 470 585 691
8 693 587 470 577 804 702 586 692
8 695 589 702 804 579 472 586 692
8 695 589 472 579 805 703 588 694
8 708 595 705 813 593 475 591 704
8 710 596 706 814 595 476 592 705
8 707 594 479 602 816 709 600 719
8 708 595 475 593 817 711 594 707
8 709 598 478 600 819 715 599 717
8 711 597 477 594 820 714 598 709
8 710 596 476 595 822 713 597 711
8 600 478 601 720 717 599 718 832
8 602 479 603 722 719 600 720 834
8 720 601 480 603 835 721 604 723
8 722 603 482 605 836 723 606 724
8 767 670 725 839 656 553 608 726
8 756 656 726 841 645 542 609 728
8 726 608 727 842 609 487 610 729
8 728 609 729 843 611 488 612 730
8 844 740 624 731 790 691 575 678
8 733 625 504 616 844 740 624 731
8 734 623 502 617 845 739 622 732
8 733 625 739 845 616 504 622 732
8 734 623 738 846 617 502 621 735
8 735 621 737 847 618 500 620 736
8 744 647 527 630 847 737 620 736
8 621 506 627 738 737 626 741 848
8 647 544 626 737 759 662 741 848
8 623 508 628 739 738 627 742 849
8 740 629 585 691 850 743 700 802
8 625 510 629 740 739 628 743 850
8 632 529 647 744 745 648 759 854
8 633 530 648 745 746 649 760 855
8 638 535 649 746 750 653 761 856
8 857 762 650 747 748 651 532 635
8 753 657 539 642 857 762 650 747
8 749 652 763 858 636 533 651 748
8 752 654 764 859 640 536 652 749
8 751 655 537 639 860 765 653 750
8 641 538 655 751 752 654 766 861
8 754 658 540 643 862 769 657 753
8 754 658 770 863 643 540 659 755
8 755 659 771 864 644 541 660 757
8 758 661 768 866 645 542 656 756
8 757 660 772 867 646 543 661 758
8 759 662 773 868 648 545 663 760
8 649 546 663 760 761 664 774 871
8 765 665 547 653 872 775 664 761
8 873 777 666 762 763 668 550 651
8 769 674 556 657 873 777 666 762
8 764 669 779 874 652 551 668 763
8 654 552 667 766 764 669 778 875
8 655 549 665 765 766 667 776 876
8 768 671 782 877 656 553 670 767
8 772 672 783 878 661 554 671 768
8 658 558 674 769 770 675 786 879
8 659 557 675 770 771 673 785 881
8 882 784 672 772 771 673 555 660
8 789 687 571 677 897 798 686 788
8 897 798 686 788 813 705 591 704
8 791 689 573 679 898 799 687 789
8 795 693 803 900 683 577 691 790
8 793 690 574 681 901 801 689 791
8 792 688 800 902 684 578 694 796
8 793 690 800 902 681 574 688 792
8 795 693 577 683 903 804 692 794
8 797 695 804 903 685 579 692 794
8 797 695 579 685 904 805 694 796
8 905 806 697 799 798 696 581 687
8 814 706 806 905 705 592 696 798
8 689 583 697 799 801 699 808 907
8 800 698 809 908 694 588 703 805
8 690 584 699 801 800 698 809 908
8 803 701 810 909 691 585 700 802
8 693 587 702 804 803 701 811 910
8 695 589 703 805 804 702 812 911
8 818 710 814 919 708 595 705 813
8 821 712 815 920 710 596 706 814
8 816 709 600 719 922 819 717 831
8 817 711 594 707 923 820 709 816
8 818 710 595 708 924 822 711 817
8 819 715 599 717 926 827 716 829
8 820 714 598 709 927 826 715 819
8 929 825 713 822 820 714 597 711
8 821 712 596 710 930 824 713 822
8 717 599 718 832 829 716 830 942
8 719 600 720 834 831 717 832 944
8 832 718 601 720 945 833 721 835
8 834 720 603 722 946 835 723 836
8 869 780 838 950 767 670 725 839
8 865 767 839 952 756 656 726 841
8 839 725 840 953 726 608 727 842
8 841 726 842 954 728 609 729 843
8 844 740 691 790 955 850 802 899
8 733 625 740 844 845 739 850 955
8 734 623 739 845 846 738 849 956
8 735 621 738 846 847 737 848 957
8 744 647 737 847 854 759 848 957
8 738 627 742 849 848 741 851 958
8 848 741 851 958 759 662 773 868
8 850 743 700 802 959 852 807 906
8 849 742 628 739 959 852 743 850
8 854 759 868 965 745 648 760 855
8 746 649 760 855 856 761 871 966
8 860 765 653 750 967 872 761 856
8 968 873 762 857 858 763 651 748
8 862 769 657 753 968 873 762 857
8 859 764 874 969 749 652 763 858
8 752 654 766 861 859 764 875 970
8 751 655 765 860 861 766 876 971
8 754 658 769 862 863 770 879 972
8 755 659 770 863 864 771 881 974
8 976 882 772 867 864 771 660 757
8 866 768 877 977 756 656 767 865
8 867 772 878 978 758 661 768 866
8 760 663 773 868 871 774 883 980
8 870 781 837 948 982 890 780 869
8 982 890 780 869 877 782 670 767
8 761 664 774 871 872 775 884 984
8 876 776 665 765 985 885 775 872
8 873 777 668 763 986 887 779 874
8 769 674 777 873 879 786 887 986
8 764 669 778 875 874 779 888 987
8 766 667 776 876 875 778 886 988
8 878 783 892 989 768 671 782 877
8 878 783 672 772 990 893 784 882
8 880 787 675 770 991 896 786 879
8 880 787 895 992 770 675 785 881
8 881 785 894 993 771 673 784 882
8 1006 905 799 898 897 798 687 789
8 919 814 905 1006 813 705 798 897
8 791 689 799 898 901 801 907 1007
8 900 803 909 1009 790 691 802 899
8 795 693 804 903 900 803 910 1010
8 902 800 908 1011 796 694 805 904
8 793 690 801 901 902 800 908 1011
8 797 695 805 904 903 804 911 1012
8 799 697 806 905 907 808 912 1013
8 920 815 912 1013 814 706 806 905
8 802 700 810 909 906 807 913 1014
8 801 699 808 907 908 809 914 1015
8 805 703 809 908 911 812 915 1016
8 803 701 811 910 909 810 916 1017
8 911 812 917 1018 804 702 811 910
8 925 821 920 1030 818 710 814 919
8 928 823 921 1031 821 712 815 920
8 922 819 717 831 1033 926 829 941
8 923 820 709 816 1034 927 819 922
8 1035 929 822 924 923 820 711 817
8 925 821 710 818 1036 930 822 924
8 1038 933 825 929 927 826 714 820
8 926 827 716 829 1039 935 828 939
8 927 826 715 819 1040 934 827 926
8 928 823 712 821 1041 931 824 930
8 1042 932 824 930 929 825 713 822
8 829 716 830 942 939 828 940 1058
8 831 717 832 944 941 829 942 1060
8 942 830 718 832 1061 943 833 945
8 944 832 720 834 1062 945 835 946
8 981 889 947 1064 870 781 837 948
8 948 837 949 1067 869 780 838 950
8 975 869 950 1069 865 767 839 952
8 950 838 951 1070 839 725 840 953
8 952 839 953 1071 841 726 842 954
8 955 850 802 899 1072 959 906 1008
8 956 849 739 845 1072 959 850 955
8 846 738 849 956 957 848 958 1073
8 957 848 958 1073 854 759 868 965
8 849 742 852 959 958 851 961 1076
8 960 853 961 1076 906 807 852 959
8 958 851 961 1076 868 773 883 980
8 960 853 807 906 1077 963 913 1014
8 855 760 868 965 966 871 980 1085
8 856 761 871 966 967 872 984 1086
8 971 876 765 860 1087 985 872 967
8 968 873 763 858 1088 986 874 969
8 862 769 873 968 972 879 986 1088
8 859 764 875 970 969 874 987 1089
8 861 766 876 971 970 875 988 1090
8 973 880 770 863 1091 991 879 972
8 973 880 992 1092 863 770 881 974
8 974 881 993 1093 864 771 882 976
8 979 870 948 1066 1094 982 869 975
8 1094 982 869 975 977 877 767 865
8 978 878 772 867 1095 990 882 976
8 978 878 989 1096 866 768 877 977
8 871 774 883 980 984 884 994 1099
8 983 891 999 1100 870 781 889 981
8 1101 1000 890 982 989 892 782 877
8 983 891 781 870 1101 1000 890 982
8 872 775 884 984 985 885 995 1103
8 876 776 885 985 988 886 996 1104
8 986 887 779 874 1105 998 888 987
8 879 786 887 986 991 896 998 1105
8 875 778 886 988 987 888 997 1106
8 990 893 1002 1107 878 783 892 989
8 1108 1003 893 990 993 894 784 882
8 880 787 896 991 992 895 1005 1109
8 993 894 785 881 1110 1004 895 992
8 898 799 905 1006 1007 907 1013 1120
8 1030 920 1013 1120 919 814 905 1006
8 901 801 907 1007 1011 908 1015 1121
8 899 802 909 1009 1008 906 1014 1122
8 900 803 910 1010 1009 909 1017 1123
8 1012 911 1018 1124 903 804 910 1010
8 904 805 908 1011 1012 911 1016 1125
8 1013 912 1020 1127 907 808 914 1015
8 1031 921 1020 1127 920 815 912 1013
8 1019 918 962 1075 1128 1021 913 1014
8 1128 1021 913 1014 1017 916 810 909
8 1015 914 1022 1129 908 809 915 1016
8 1016 915 1023 1130 911 812 917 1018
8 1018 917 1024 1131 910 811 916 1017
8 1037 928 1031 1148 925 821 920 1030
8 928 823 931 1041 1031 921 1032 1149
8 1033 926 829 941 1151 1039 939 1057
8 1034 927 819 922 1152 1040 926 1033
8 1153 1038 929 1035 1034 927 820 923
8 1154 1042 930 1036 1035 929 822 924
8 1037 928 821 925 1155 1041 930 1036
8 1039 935 828 939 1156 1047 938 1055
8 1157 1043 932 1042 1038 933 825 929
8 1038 933 826 927 1158 1045 934 1040
8 1040 934 827 926 1159 1046 935 1039
8 930 824 932 1042 1041 931 1044 1160
8 1051 936 1048 1165 1175 1052 937 1053
8 1156 1047 938 1055 1053 937 1054 1178
8 939 828 940 1058 1055 938 1056 1181
8 941 829 942 1060 1057 939 1058 1183
8 942 830 943 1061 1058 940 1059 1184
8 1060 942 832 944 1185 1061 945 1062
8 1082 964 1063 1188 981 889 947 1064
8 1097 981 1064 1190 979 870 948 1066
8 1064 947 1065 1191 948 837 949 1067
8 1066 948 1067 1193 975 869 950 1069
8 1067 949 1068 1194 950 838 951 1070
8 1069 950 1070 1195 952 839 953 1071
8 956 849 959 1072 1073 958 1076 1197
8 1074 960 1076 1197 1008 906 959 1072
8 1073 958 1076 1197 965 868 980 1085
8 1074 960 906 1008 1198 1077 1014 1122
8 1133 1026 1079 1199 1019 918 962 1075
8 1077 963 913 1014 1200 1080 962 1075
8 960 853 963 1077 1076 961 1078 1201
8 980 883 961 1076 1099 994 1078 1201
8 1210 1083 964 1082 1100 999 889 981
8 966 871 980 1085 1086 984 1099 1215
8 967 872 984 1086 1087 985 1103 1216
8 971 876 985 1087 1090 988 1104 1217
8 1088 986 874 969 1218 1105 987 1089
8 972 879 986 1088 1091 991 1105 1218
8 970 875 988 1090 1089 987 1106 1219
8 973 880 991 1091 1092 992 1109 1220
8 1093 993 881 974 1221 1110 992 1092
8 1222 1108 990 1095 1093 993 882 976
8 1223 1101 982 1094 1096 989 877 977
8 1098 983 870 979 1223 1101 982 1094
8 1095 990 1107 1224 978 878 989 1096
8 1098 983 1100 1225 979 870 981 1097
8 984 884 994 1099 1103 995 1111 1227
8 1102 1001 1115 1228 983 891 999 1100
8 1101 1000 892 989 1229 1116 1002 1107
8 1102 1001 891 983 1229 1116 1000 1101
8 985 885 995 1103 1104 996 1112 1230
8 988 886 996 1104 1106 997 1113 1231
8 1105 998 888 987 1232 1114 997 1106
8 991 896 998 1105 1109 1005 1114 1232
8 1108 1003 1117 1233 990 893 1002 1107
8 1108 1003 894 993 1233 1117 1004 1110
8 992 895 1005 1109 1110 1004 1118 1234
8 1120 1013 1127 1244 1007 907 1015 1121
8 1148 1031 1127 1244 1030 920 1013 1120
8 1121 1015 1129 1245 1011 908 1016 1125
8 1126 1019 1075 1196 1246 1128 1014 1122
8 1246 1128 1014 1122 1123 1017 909 1009
8 1124 1018 1131 1247 1010 910 1017 1123
8 1125 1016 1130 1248 1012 911 1018 1124
8 1127 1020 1137 1254 1015 914 1022 1129
8 1031 921 1032 1149 1127 1020 1137 1254
8 1134 1027 918 1019 1257 1140 1021 1128
8 1257 1140 1021 1128 1131 1024 916 1017
8 1129 1022 1141 1258 1016 915 1023 1130
8 1130 1023 1142 1259 1018 917 1024 1131
8 1261 1144 1025 1132 1133 1026 1079 1199
8 1255 1138 1025 1132 1135 1028 1144 1261
8 1133 1026 918 1019 1262 1145 1027 1134
8 1136 1029 1139 1256 1263 1146 1028 1135
8 1037 928 1041 1155 1148 1031 1149 1275
8 1041 931 1044 1160 1149 1032 1150 1276
8 1151 1039 939 1057 1278 1156 1055 1180
8 1152 1040 926 1033 1279 1159 1039 1151
8 1153 1038 927 1034 1280 1158 1040 1152
8 1281 1157 1042 1154 1153 1038 929 1035
8 1036 930 1042 1154 1155 1041 1160 1282
8 1283 1164 1046 1159 1156 1047 935 1039
8 1165 1048 1164 1283 1053 937 1047 1156
8 1157 1043 933 1038 1284 1161 1045 1158
8 1157 1043 1161 1284 1042 932 1044 1160
8 1040 934 1046 1159 1158 1045 1163 1285
8 1166 1049 1167 1292 1051 936 1048 1165
8 1166 1049 936 1051 1293 1168 1050 1172
8 1051 936 1052 1175 1172 1050 1173 1306
8 1174 1051 1165 1290 1308 1175 1053 1177
8 1053 937 1054 1178 1175 1052 1176 1309
8 1278 1156 1055 1180 1177 1053 1178 1311
8 1055 938 1056 1181 1178 1054 1179 1312
8 1057 939 1058 1183 1180 1055 1181 1314
8 1058 940 1059 1184 1181 1056 1182 1315
8 1060 942 1061 1185 1183 1058 1184 1316
8 1208 1081 1187 1321 1082 964 1063 1188
8 1209 1082 1188 1322 1097 981 1064 1190
8 1188 1063 1189 1323 1064 947 1065 1191
8 1190 1064 1191 1325 1066 948 1067 1193
8 1191 1065 1192 1326 1067 949 1068 1194
8 1067 1193 1069 950 1194 1327 1195 1070
8 1250 1133 1199 1330 1126 1019 1075 1196
8 1198 1077 1014 1122 1331 1200 1075 1196
8 1074 960 1077 1198 1197 1076 1201 1332
8 1085 980 1076 1197 1215 1099 1201 1332
8 1199 1079 1203 1333 1075 962 1080 1200
8 1132 1025 1119 1243 1199 1079 1203 1333
8 1201 1078 963 1077 1334 1202 1080 1200
8 1099 994 1078 1201 1227 1111 1202 1334
8 1343 1207 1081 1208 1210 1083 964 1082
8 1214 1084 1186 1319 1343 1207 1081 1208
8 1345 1210 1082 1209 1225 1100 981 1097
8 1346 1211 1083 1210 1228 1115 999 1100
8 1086 984 1099 1215 1216 1103 1227 1352
8 1087 985 1103 1216 1217 1104 1230 1353
8 1090 988 1104 1217 1219 1106 1231 1354
8 1218 1105 987 1089 1355 1232 1106 1219
8 1091 991 1105 1218 1220 1109 1232 1355
8 1092 992 1109 1220 1221 1110 1234 1356
8 1222 1108 1233 1357 1095 990 1107 1224
8 1222 1108 993 1093 1357 1233 1110 1221
8 1223 1101 989 1096 1358 1229 1107 1224
8 1226 1102 983 1098 1358 1229 1101 1223
8 1226 1102 1228 1359 1098 983 1100 1225
8 1103 995 1111 1227 1230 1112 1235 1360
8 1107 1002 1117 1233 1229 1116 1240 1362
8 1102 1001 1116 1229 1228 1115 1240 1362
8 1104 996 1112 1230 1231 1113 1236 1363
8 1364 1237 1114 1232 1231 1113 997 1106
8 1109 1005 1114 1232 1234 1118 1238 1365
8 1110 1004 1118 1234 1233 1117 1241 1366
8 1242 1374 1255 1138 1119 1243 1132 1025
8 1244 1127 1254 1376 1121 1015 1129 1245
8 1148 1031 1149 1275 1244 1127 1254 1376
8 1245 1129 1258 1377 1125 1016 1130 1248
8 1251 1134 1019 1126 1378 1257 1128 1246
8 1378 1257 1128 1246 1247 1131 1017 1123
8 1248 1130 1259 1379 1124 1018 1131 1247
8 1261 1381 1250 1133 1132 1249 1330 1199
8 1255 1380 1252 1135 1132 1249 1381 1261
8 1250 1133 1019 1126 1382 1262 1134 1251
8 1253 1136 1256 1385 1384 1263 1135 1252
8 1254 1137 1265 1387 1129 1022 1141 1258
8 1149 1032 1150 1276 1254 1137 1265 1387
8 1028 1135 1255 1138 1139 1256 1388 1266
8 1136 1029 1147 1264 1256 1139 1267 1389
8 1390 1268 1140 1257 1259 1142 1024 1131
8 1260 1143 1027 1134 1390 1268 1140 1257
8 1258 1141 1269 1391 1130 1023 1142 1259
8 1262 1145 1027 1134 1393 1271 1143 1260
8 1261 1144 1026 1133 1394 1272 1145 1262
8 1135 1028 1144 1261 1263 1146 1272 1394
8 1136 1029 1146 1263 1264 1147 1273 1395
8 1155 1041 1160 1282 1275 1149 1276 1405
8 1276 1150 1044 1160 1406 1277 1162 1286
8 1408 1283 1159 1279 1278 1156 1039 1151
8 1290 1165 1283 1408 1177 1053 1156 1278
8 1152 1040 1159 1279 1280 1158 1285 1409
8 1281 1157 1038 1153 1410 1284 1158 1280
8 1281 1157 1284 1410 1154 1042 1160 1282
8 1159 1046 1164 1283 1285 1163 1289 1412
8 1292 1167 1289 1412 1165 1048 1164 1283
8 1158 1045 1163 1285 1284 1161 1288 1413
8 1284 1161 1288 1413 1160 1044 1162 1286
8 1291 1166 1292 1418 1174 1051 1165 1290
8 1291 1166 1051 1174 1419 1293 1172 1305
8 1294 1169 1296 1421 1166 1049 1167 1292
8 1293 1168 1050 1172 1422 1295 1171 1303
8 1294 1169 1049 1166 1423 1297 1168 1293
8 1422 1295 1171 1303 1301 1170 1302 1435
8 1172 1050 1173 1306 1303 1171 1304 1438
8 1174 1051 1175 1308 1305 1172 1306 1440
8 1175 1052 1176 1309 1306 1173 1307 1441
8 1177 1053 1178 1311 1308 1175 1309 1443
8 1178 1054 1179 1312 1309 1176 1310 1444
8 1180 1055 1181 1314 1311 1178 1312 1446
8 1056 1181 1312 1179 1182 1315 1447 1313
8 1183 1058 1184 1316 1314 1181 1315 1448
8 1319 1186 1084 1214 1451 1317 1213 1350
8 1319 1186 1318 1453 1208 1081 1187 1321
8 1321 1187 1320 1456 1188 1063 1189 1323
8 1344 1208 1321 1457 1209 1082 1188 1322
8 1322 1188 1323 1458 1190 1064 1191 1325
8 1323 1189 1324 1459 1191 1065 1192 1326
8 1191 1325 1193 1067 1326 1460 1327 1194
8 1242 1374 1243 1119 1328 1462 1335 1204
8 1330 1199 1333 1465 1196 1075 1200 1331
8 1132 1249 1330 1199 1243 1375 1465 1333
8 1332 1201 1077 1198 1466 1334 1200 1331
8 1215 1099 1201 1332 1352 1227 1334 1466
8 1119 1243 1333 1203 1204 1335 1470 1338
8 1333 1203 1338 1470 1200 1080 1202 1334
8 1227 1111 1202 1334 1360 1235 1338 1470
8 1328 1462 1335 1204 1205 1336 1471 1339
8 1337 1206 1340 1472 1464 1329 1205 1336
8 1346 1211 1342 1479 1210 1083 1207 1343
8 1346 1211 1115 1228 1479 1342 1239 1361
8 1348 1212 1084 1214 1479 1342 1207 1343
8 1480 1343 1208 1344 1345 1210 1082 1209
8 1351 1214 1319 1454 1480 1343 1208 1344
8 1481 1346 1210 1345 1359 1228 1100 1225
8 1348 1212 1347 1483 1214 1084 1213 1350
8 1216 1103 1227 1352 1353 1230 1360 1488
8 1217 1104 1230 1353 1354 1231 1363 1489
8 1490 1364 1232 1355 1354 1231 1106 1219
8 1220 1109 1232 1355 1356 1234 1365 1491
8 1221 1110 1234 1356 1357 1233 1366 1492
8 1224 1107 1233 1357 1358 1229 1362 1493
8 1226 1102 1229 1358 1359 1228 1362 1493
8 1230 1112 1235 1360 1363 1236 1367 1496
8 1361 1239 1115 1228 1497 1371 1240 1362
8 1366 1241 1372 1498 1233 1117 1240 1362
8 1364 1237 1113 1231 1499 1368 1236 1363
8 1364 1237 1368 1499 1232 1114 1238 1365
8 1234 1118 1238 1365 1366 1241 1369 1500
8 1507 1373 1242 1374 1388 1266 1138 1255
8 1508 1374 1243 1375 1380 1255 1132 1249
8 1376 1254 1387 1509 1245 1129 1258 1377
8 1275 1149 1276 1405 1376 1254 1387 1509
8 1377 1258 1391 1510 1248 1130 1259 1379
8 1511 1390 1257 1378 1379 1259 1131 1247
8 1383 1260 1134 1251 1511 1390 1257 1378
8 1252 1135 1256 1385 1380 1255 1388 1512
8 1261 1381 1513 1394 1133 1250 1382 1262
8 1135 1252 1384 1263 1261 1381 1513 1394
8 1382 1262 1134 1251 1514 1393 1260 1383
8 1253 1136 1263 1384 1386 1264 1395 1516
8 1253 1136 1264 1386 1385 1256 1389 1517
8 1387 1265 1397 1519 1258 1141 1269 1391
8 1276 1150 1277 1406 1387 1265 1397 1519
8 1256 1139 1267 1389 1388 1266 1398 1520
8 1264 1147 1274 1396 1389 1267 1399 1521
8 1392 1270 1143 1260 1522 1400 1268 1390
8 1390 1268 1142 1259 1522 1400 1269 1391
8 1392 1270 1401 1523 1260 1143 1271 1393
8 1272 1394 1524 1402 1145 1262 1393 1271
8 1395 1273 1146 1263 1524 1402 1272 1394
8 1273 1395 1264 1147 1403 1526 1396 1274
8 1405 1276 1160 1282 1534 1406 1286 1411
8 1414 1287 1407 1535 1286 1162 1277 1406
8 1279 1159 1283 1408 1409 1285 1412 1537
8 1418 1292 1412 1537 1290 1165 1283 1408
8 1280 1158 1285 1409 1410 1284 1413 1538
8 1410 1284 1413 1538 1282 1160 1286 1411
8 1285 1163 1289 1412 1413 1288 1417 1540
8 1421 1296 1417 1540 1292 1167 1289 1412
8 1414 1287 1162 1286 1541 1416 1288 1413
8 1420 1294 1421 1545 1291 1166 1292 1418
8 1419 1293 1172 1305 1546 1422 1303 1437
8 1420 1294 1166 1291 1547 1423 1293 1419
8 1294 1169 1297 1423 1421 1296 1425 1548
8 1423 1297 1168 1293 1549 1424 1295 1422
8 1301 1170 1298 1427 1422 1295 1424 1549
8 1432 1300 1428 1554 1301 1170 1298 1427
8 1431 1299 1428 1554 1560 1430 1300 1432
8 1563 1433 1300 1432 1435 1302 1170 1301
8 1546 1422 1303 1437 1434 1301 1435 1565
8 1303 1171 1304 1438 1435 1302 1436 1566
8 1305 1172 1306 1440 1437 1303 1438 1568
8 1306 1173 1307 1441 1438 1304 1439 1569
8 1308 1175 1309 1443 1440 1306 1441 1571
8 1309 1176 1310 1444 1441 1307 1442 1572
8 1311 1178 1312 1446 1443 1309 1444 1574
8 1179 1312 1444 1310 1313 1447 1575 1445
8 1314 1181 1315 1448 1446 1312 1447 1576
8 1350 1213 1349 1486 1451 1317 1449 1579
8 1451 1317 1450 1581 1319 1186 1318 1453
8 1454 1319 1214 1351 1582 1451 1350 1487
8 1453 1318 1452 1584 1321 1187 1320 1456
8 1454 1319 1453 1585 1344 1208 1321 1457
8 1456 1320 1455 1586 1323 1189 1324 1459
8 1457 1321 1456 1587 1322 1188 1323 1458
8 1458 1323 1459 1588 1325 1191 1326 1460
8 1205 1336 1464 1329 1328 1462 1590 1461
8 1507 1373 1461 1590 1374 1242 1328 1462
8 1508 1374 1462 1591 1375 1243 1335 1467
8 1337 1206 1329 1464 1473 1341 1463 1594
8 1375 1243 1335 1467 1465 1333 1470 1596
8 1465 1333 1470 1596 1331 1200 1334 1466
8 1352 1227 1334 1466 1488 1360 1470 1596
8 1591 1462 1336 1468 1467 1335 1471 1597
8 1469 1337 1472 1598 1595 1464 1336 1468
8 1471 1339 1474 1600 1335 1204 1338 1470
8 1600 1474 1367 1496 1470 1338 1235 1360
8 1336 1205 1340 1472 1471 1339 1475 1601
8 1337 1206 1341 1473 1472 1340 1476 1602
8 1495 1370 1478 1609 1361 1239 1342 1479
8 1348 1212 1342 1479 1483 1347 1478 1609
8 1481 1346 1479 1610 1345 1210 1343 1480
8 1481 1346 1228 1359 1610 1479 1361 1494
8 1484 1348 1214 1351 1610 1479 1343 1480
8 1483 1347 1482 1612 1350 1213 1349 1486
8 1484 1348 1483 1613 1351 1214 1350 1487
8 1353 1230 1360 1488 1489 1363 1496 1616
8 1490 1364 1231 1354 1617 1499 1363 1489
8 1490 1364 1499 1617 1355 1232 1365 1491
8 1356 1234 1365 1491 1492 1366 1500 1619
8 1492 1366 1498 1620 1357 1233 1362 1493
8 1494 1361 1228 1359 1621 1497 1362 1493
8 1495 1370 1239 1361 1622 1504 1371 1497
8 1363 1236 1367 1496 1499 1368 1501 1623
8 1497 1371 1240 1362 1624 1505 1372 1498
8 1625 1503 1372 1498 1500 1369 1241 1366
8 1365 1238 1368 1499 1500 1369 1502 1626
8 1520 1398 1506 1633 1388 1266 1373 1507
8 1634 1507 1374 1508 1512 1388 1255 1380
8 1509 1387 1519 1635 1377 1258 1391 1510
8 1405 1276 1406 1534 1509 1387 1519 1635
8 1515 1392 1260 1383 1636 1522 1390 1511
8 1511 1390 1259 1379 1636 1522 1391 1510
8 1385 1256 1389 1517 1512 1388 1520 1637
8 1513 1394 1262 1382 1638 1524 1393 1514
8 1395 1516 1638 1524 1263 1384 1513 1394
8 1515 1392 1523 1639 1383 1260 1393 1514
8 1516 1395 1526 1640 1386 1264 1396 1518
8 1386 1264 1396 1518 1517 1389 1521 1641
8 1519 1397 1527 1643 1391 1269 1400 1522
8 1535 1407 1527 1643 1406 1277 1397 1519
8 1389 1267 1399 1521 1520 1398 1528 1644
8 1645 1529 1399 1521 1525 1404 1274 1396
8 1392 1270 1400 1522 1523 1401 1531 1646
8 1524 1402 1271 1393 1648 1532 1401 1523
8 1403 1526 1648 1532 1273 1395 1524 1402
8 1525 1404 1274 1396 1649 1533 1403 1526
8 1539 1414 1535 1657 1411 1286 1406 1534
8 1542 1415 1536 1658 1414 1287 1407 1535
8 1409 1285 1412 1537 1538 1413 1540 1660
8 1545 1421 1540 1660 1418 1292 1412 1537
8 1539 1414 1286 1411 1661 1541 1413 1538
8 1540 1417 1544 1663 1413 1288 1416 1541
8 1421 1296 1425 1548 1540 1417 1544 1663
8 1542 1415 1287 1414 1664 1543 1416 1541
8 1420 1294 1423 1547 1545 1421 1548 1666
8 1547 1423 1293 1419 1667 1549 1422 1546
8 1434 1301 1427 1553 1546 1422 1549 1667
8 1423 1297 1424 1549 1548 1425 1550 1668
8 1551 1426 1550 1668 1427 1298 1424 1549
8 1551 1426 1298 1427 1671 1552 1428 1554
8 1562 1432 1554 1674 1434 1301 1427 1553
8 1431 1299 1429 1558 1554 1428 1555 1675
8 1431 1299 1430 1560 1558 1429 1557 1680
8 1560 1430 1300 1432 1683 1559 1433 1563
8 1561 1431 1554 1674 1684 1560 1432 1562
8 1685 1563 1432 1562 1565 1435 1301 1434
8 1435 1302 1436 1566 1563 1433 1564 1686
8 1437 1303 1438 1568 1565 1435 1566 1688
8 1438 1304 1439 1569 1566 1436 1567 1689
8 1440 1306 1441 1571 1568 1438 1569 1691
8 1441 1307 1442 1572 1569 1439 1570 1692
8 1443 1309 1444 1574 1571 1441 1572 1694
8 1310 1444 1572 1442 1445 1575 1695 1573
8 1446 1312 1447 1576 1574 1444 1575 1696
8 1486 1349 1485 1614 1579 1449 1577 1699
8 1451 1317 1449 1579 1581 1450 1578 1701
8 1487 1350 1486 1615 1582 1451 1579 1702
8 1581 1450 1580 1704 1453 1318 1452 1584
8 1582 1451 1581 1705 1454 1319 1453 1585
8 1584 1452 1583 1706 1456 1320 1455 1586
8 1585 1453 1584 1707 1457 1321 1456 1587
8 1587 1456 1586 1708 1458 1323 1459 1588
8 1633 1506 1589 1710 1507 1373 1461 1590
8 1464 1329 1461 1590 1594 1463 1589 1710
8 1468 1336 1462 1591 1595 1464 1590 1711
8 1634 1507 1590 1711 1508 1374 1462 1591
8 1473 1341 1463 1594 1603 1477 1593 1716
8 1469 1337 1464 1595 1599 1473 1594 1717
8 1471 1597 1467 1335 1600 1718 1596 1470
8 1718 1600 1496 1616 1596 1470 1360 1488
8 1336 1468 1597 1471 1472 1598 1719 1601
8 1469 1337 1473 1599 1598 1472 1602 1720
8 1722 1604 1501 1623 1600 1474 1367 1496
8 1475 1601 1471 1339 1604 1722 1600 1474
8 1602 1476 1605 1723 1472 1340 1475 1601
8 1476 1602 1724 1606 1341 1473 1603 1477
8 1483 1347 1478 1609 1612 1482 1608 1731
8 1495 1370 1504 1622 1609 1478 1608 1731
8 1618 1495 1609 1732 1494 1361 1479 1610
8 1484 1348 1479 1610 1613 1483 1609 1732
8 1486 1349 1482 1612 1614 1485 1611 1733
8 1613 1483 1612 1734 1487 1350 1486 1615
8 1489 1363 1496 1616 1617 1499 1623 1736
8 1491 1365 1499 1617 1619 1500 1626 1737
8 1618 1495 1361 1494 1738 1622 1497 1621
8 1739 1625 1498 1620 1619 1500 1366 1492
8 1621 1497 1362 1493 1740 1624 1498 1620
8 1742 1631 1504 1622 1624 1505 1371 1497
8 1743 1628 1502 1626 1623 1501 1368 1499
8 1744 1630 1505 1624 1625 1503 1372 1498
8 1745 1629 1503 1625 1626 1502 1369 1500
8 1520 1398 1528 1644 1633 1506 1632 1751
8 1637 1520 1633 1752 1512 1388 1507 1634
8 1635 1519 1643 1753 1510 1391 1522 1636
8 1657 1535 1643 1753 1534 1406 1519 1635
8 1515 1392 1522 1636 1639 1523 1646 1754
8 1517 1389 1521 1641 1637 1520 1644 1755
8 1524 1638 1756 1648 1393 1514 1639 1523
8 1640 1526 1395 1516 1756 1648 1524 1638
8 1642 1525 1396 1518 1757 1649 1526 1640
8 1758 1645 1521 1641 1642 1525 1396 1518
8 1646 1531 1400 1522 1760 1650 1527 1643
8 1535 1407 1536 1658 1643 1527 1650 1760
8 1521 1399 1529 1645 1644 1528 1651 1761
8 1647 1530 1652 1762 1525 1404 1529 1645
8 1401 1523 1648 1532 1531 1646 1763 1655
8 1525 1404 1533 1649 1647 1530 1654 1765
8 1533 1649 1766 1656 1403 1526 1648 1532
8 1662 1542 1658 1774 1539 1414 1535 1657
8 1542 1415 1543 1664 1658 1536 1659 1775
8 1660 1540 1663 1777 1538 1413 1541 1661
8 1545 1421 1548 1666 1660 1540 1663 1777
8 1662 1542 1414 1539 1778 1664 1541 1661
8 1664 1543 1416 1541 1779 1665 1544 1663
8 1548 1425 1550 1668 1663 1544 1665 1779
8 1547 1423 1549 1667 1666 1548 1668 1781
8 1670 1551 1668 1781 1553 1427 1549 1667
8 1551 1426 1552 1671 1668 1550 1669 1782
8 1670 1551 1427 1553 1784 1671 1554 1674
8 1675 1555 1672 1785 1554 1428 1552 1671
8 1678 1556 1673 1789 1558 1429 1555 1675
8 1561 1431 1558 1681 1674 1554 1675 1790
8 1794 1677 1556 1678 1680 1557 1429 1558
8 1560 1430 1559 1683 1680 1557 1679 1797
8 1561 1431 1560 1684 1681 1558 1680 1798
8 1563 1433 1564 1686 1683 1559 1682 1800
8 1684 1560 1432 1562 1801 1683 1563 1685
8 1565 1435 1566 1688 1685 1563 1686 1802
8 1566 1436 1567 1689 1686 1564 1687 1803
8 1568 1438 1569 1691 1688 1566 1689 1805
8 1569 1439 1570 1692 1689 1567 1690 1806
8 1571 1441 1572 1694 1691 1569 1692 1808
8 1442 1572 1692 1570 1573 1695 1809 1693
8 1574 1444 1575 1696 1694 1572 1695 1810
8 1614 1485 1592 1712 1699 1577 1697 1813
8 1579 1449 1577 1699 1701 1578 1698 1815
8 1615 1486 1614 1735 1702 1579 1699 1816
8 1701 1578 1700 1818 1581 1450 1580 1704
8 1582 1451 1579 1702 1705 1581 1701 1819
8 1704 1580 1703 1820 1584 1452 1583 1706
8 1705 1581 1704 1821 1585 1453 1584 1707
8 1707 1584 1706 1822 1587 1456 1586 1708
8 1710 1589 1506 1633 1824 1709 1632 1751
8 1594 1463 1589 1710 1716 1593 1709 1824
8 1752 1633 1710 1825 1634 1507 1590 1711
8 1595 1464 1590 1711 1717 1594 1710 1825
8 1830 1714 1592 1712 1733 1611 1485 1614
8 1603 1477 1593 1716 1725 1607 1715 1834
8 1599 1473 1594 1717 1721 1603 1716 1835
8 1837 1722 1623 1736 1718 1600 1496 1616
8 1719 1601 1722 1837 1597 1471 1600 1718
8 1602 1720 1598 1472 1723 1838 1719 1601
8 1720 1602 1473 1599 1839 1724 1603 1721
8 1723 1605 1726 1840 1601 1475 1604 1722
8 1840 1726 1628 1743 1722 1604 1501 1623
8 1724 1606 1727 1841 1602 1476 1605 1723
8 1725 1607 1728 1842 1603 1477 1606 1724
8 1612 1482 1608 1731 1733 1611 1730 1849
8 1741 1627 1730 1849 1622 1504 1608 1731
8 1613 1483 1609 1732 1734 1612 1731 1850
8 1618 1495 1622 1738 1732 1609 1731 1850
8 1615 1486 1612 1734 1735 1614 1733 1851
8 1852 1743 1626 1737 1736 1623 1499 1617
8 1853 1745 1625 1739 1737 1626 1500 1619
8 1855 1742 1622 1738 1740 1624 1497 1621
8 1856 1744 1624 1740 1739 1625 1498 1620
8 1741 1627 1504 1622 1857 1746 1631 1742
8 1742 1631 1505 1624 1858 1749 1630 1744
8 1859 1747 1629 1745 1743 1628 1502 1626
8 1860 1748 1630 1744 1745 1629 1503 1625
8 1644 1528 1651 1761 1751 1632 1750 1865
8 1637 1520 1644 1755 1752 1633 1751 1866
8 1754 1646 1522 1636 1867 1760 1643 1753
8 1657 1535 1658 1774 1753 1643 1760 1867
8 1639 1523 1646 1754 1756 1648 1763 1868
8 1641 1521 1645 1758 1755 1644 1761 1869
8 1757 1649 1526 1640 1870 1766 1648 1756
8 1642 1525 1649 1757 1759 1647 1765 1871
8 1759 1647 1762 1872 1642 1525 1645 1758
8 1760 1650 1767 1874 1646 1531 1655 1763
8 1658 1536 1659 1775 1760 1650 1767 1874
8 1762 1652 1768 1875 1645 1529 1651 1761
8 1764 1653 1769 1876 1647 1530 1652 1762
8 1656 1766 1877 1773 1532 1648 1763 1655
8 1771 1879 1765 1654 1653 1764 1647 1530
8 1533 1649 1765 1654 1656 1766 1880 1772
8 1662 1542 1664 1778 1774 1658 1775 1887
8 1664 1543 1665 1779 1775 1659 1776 1888
8 1778 1664 1541 1661 1890 1779 1663 1777
8 1666 1548 1668 1781 1777 1663 1779 1890
8 1782 1669 1780 1891 1668 1550 1665 1779
8 1670 1551 1671 1784 1781 1668 1782 1893
8 1671 1552 1672 1785 1782 1669 1783 1894
8 1790 1675 1785 1896 1674 1554 1671 1784
8 1675 1555 1673 1789 1785 1672 1786 1897
8 1792 1676 1788 1903 1678 1556 1673 1789
8 1795 1678 1789 1904 1681 1558 1675 1790
8 1792 1676 1556 1678 1906 1791 1677 1794
8 1680 1557 1679 1797 1794 1677 1793 1909
8 1910 1794 1678 1795 1798 1680 1558 1681
8 1683 1559 1682 1800 1797 1679 1796 1912
8 1684 1560 1683 1801 1798 1680 1797 1913
8 1686 1564 1687 1803 1800 1682 1799 1915
8 1685 1563 1686 1802 1801 1683 1800 1916
8 1688 1566 1689 1805 1802 1686 1803 1917
8 1689 1567 1690 1806 1803 1687 1804 1918
8 1691 1569 1692 1808 1805 1689 1806 1920
8 1692 1570 1693 1809 1806 1690 1807 1921
8 1694 1572 1695 1810 1808 1692 1809 1922
8 1829 1713 1811 1926 1712 1592 1697 1813
8 1813 1697 1812 1928 1699 1577 1698 1815
8 1735 1614 1712 1828 1816 1699 1813 1929
8 1815 1698 1814 1931 1701 1578 1700 1818
8 1702 1579 1699 1816 1819 1701 1815 1932
8 1818 1700 1817 1933 1704 1580 1703 1820
8 1819 1701 1818 1934 1705 1581 1704 1821
8 1821 1704 1820 1935 1707 1584 1706 1822
8 1824 1709 1632 1751 1937 1823 1750 1865
8 1716 1593 1709 1824 1834 1715 1823 1937
8 1825 1710 1633 1752 1938 1824 1751 1866
8 1717 1594 1710 1825 1835 1716 1824 1938
8 1945 1830 1712 1828 1851 1733 1614 1735
8 1830 1714 1831 1946 1712 1592 1713 1829
8 1947 1832 1714 1830 1849 1730 1611 1733
8 1843 1729 1607 1725 1950 1833 1715 1834
8 1721 1603 1716 1835 1836 1725 1834 1951
8 1836 1725 1842 1953 1721 1603 1724 1839
8 1723 1838 1719 1601 1840 1954 1837 1722
8 1954 1840 1743 1852 1837 1722 1623 1736
8 1724 1839 1720 1602 1841 1955 1838 1723
8 1841 1727 1844 1956 1723 1605 1726 1840
8 1956 1844 1747 1859 1840 1726 1628 1743
8 1728 1842 1724 1606 1845 1957 1841 1727
8 1725 1607 1729 1843 1842 1728 1846 1958
8 1741 1627 1746 1857 1849 1730 1848 1965
8 1734 1612 1731 1850 1851 1733 1849 1966
8 1854 1741 1849 1966 1738 1622 1731 1850
8 1967 1859 1745 1853 1852 1743 1626 1737
8 1968 1860 1744 1856 1853 1745 1625 1739
8 1854 1741 1622 1738 1969 1857 1742 1855
8 1855 1742 1624 1740 1970 1858 1744 1856
8 1857 1746 1631 1742 1971 1861 1749 1858
8 1858 1749 1630 1744 1972 1863 1748 1860
8 1859 1747 1862 1973 1745 1629 1748 1860
8 1875 1768 1864 1977 1761 1651 1750 1865
8 1755 1644 1761 1869 1866 1751 1865 1978
8 1867 1760 1874 1979 1754 1646 1763 1868
8 1774 1658 1775 1887 1867 1760 1874 1979
8 1870 1766 1648 1756 1980 1877 1763 1868
8 1872 1762 1875 1981 1758 1645 1761 1869
8 1757 1649 1766 1870 1871 1765 1880 1982
8 1983 1879 1764 1873 1871 1765 1647 1759
8 1873 1764 1876 1984 1759 1647 1762 1872
8 1877 1773 1655 1763 1986 1881 1767 1874
8 1775 1659 1776 1888 1874 1767 1881 1986
8 1876 1769 1882 1987 1762 1652 1768 1875
8 1878 1770 1883 1988 1764 1653 1769 1876
8 1880 1772 1656 1766 1989 1886 1773 1877
8 1878 1770 1653 1764 1990 1884 1771 1879
8 1765 1654 1772 1880 1879 1771 1885 1991
8 1778 1664 1779 1890 1887 1775 1888 1997
8 1998 1889 1776 1888 1891 1780 1665 1779
8 1893 1782 1891 2000 1781 1668 1779 1890
8 1894 1783 1892 2001 1782 1669 1780 1891
8 1784 1671 1785 1896 1893 1782 1894 2003
8 1897 1786 1895 2004 1785 1672 1783 1894
8 1790 1675 1789 1904 1896 1785 1897 2006
8 1901 1787 1898 2007 1789 1673 1786 1897
8 1903 1788 1900 2013 1789 1673 1787 1901
8 1792 1676 1791 1906 1903 1788 1902 2016
8 1907 1792 1903 2017 1795 1678 1789 1904
8 1906 1791 1677 1794 2019 1905 1793 1909
8 1907 1792 1678 1795 2020 1906 1794 1910
8 1797 1679 1796 1912 1909 1793 1908 2022
8 1798 1680 1797 1913 1910 1794 1909 2023
8 1800 1682 1799 1915 1912 1796 1911 2025
8 1801 1683 1800 1916 1913 1797 1912 2026
8 1803 1687 1804 1918 1915 1799 1914 2028
8 1802 1686 1803 1917 1916 1800 1915 2029
8 1805 1689 1806 1920 1917 1803 1918 2030
8 1806 1690 1807 1921 1918 1804 1919 2031
8 1808 1692 1809 1922 1920 1806 1921 2032
8 1939 1826 1924 2037 1829 1713 1811 1926
8 1926 1811 1925 2039 1813 1697 1812 1928
8 1944 1829 1926 2040 1828 1712 1813 1929
8 1928 1812 1927 2042 1815 1698 1814 1931
8 1929 1813 1928 2043 1816 1699 1815 1932
8 1931 1814 1930 2044 1818 1700 1817 1933
8 1932 1815 1931 2045 1819 1701 1818 1934
8 1934 1818 1933 2046 1821 1704 1820 1935
8 2048 1936 1823 1937 1977 1864 1750 1865
8 1950 1833 1715 1834 2048 1936 1823 1937
8 1938 1824 1751 1866 2049 1937 1865 1978
8 1835 1716 1824 1938 1951 1834 1937 2049
8 1939 1826 1713 1829 2053 1942 1831 1946
8 1940 1827 1923 2035 2053 1942 1826 1939
8 1945 1830 1946 2058 1828 1712 1829 1944
8 2059 1947 1830 1945 1966 1849 1733 1851
8 1947 1832 1730 1849 2060 1948 1848 1965
8 1947 1832 1948 2060 1830 1714 1831 1946
8 1959 1847 1729 1843 2063 1949 1833 1950
8 1952 1843 1725 1836 2064 1950 1834 1951
8 1836 1725 1843 1952 1953 1842 1958 2066
8 1953 1842 1957 2067 1839 1724 1841 1955
8 1841 1955 1838 1723 1956 2068 1954 1840
8 2068 1956 1859 1967 1954 1840 1743 1852
8 1956 1844 1960 2069 1859 1747 1862 1973
8 1845 1957 1841 1727 1960 2069 1956 1844
8 1728 1842 1957 1845 1846 1958 2071 1961
8 1962 2072 1959 1847 1846 1958 1843 1729
8 1971 1861 1964 2077 1857 1746 1848 1965
8 1854 1741 1857 1969 1966 1849 1965 2078
8 1967 1859 1973 2079 1853 1745 1860 1968
8 1970 1858 1744 1856 2080 1972 1860 1968
8 1969 1857 1742 1855 2081 1971 1858 1970
8 1971 1861 1749 1858 2082 1974 1863 1972
8 1973 1862 1975 2083 1860 1748 1863 1972
8 1987 1882 1976 2086 1875 1768 1864 1977
8 1981 1875 1977 2087 1869 1761 1865 1978
8 1980 1877 1763 1868 2088 1986 1874 1979
8 1887 1775 1888 1997 1979 1874 1986 2088
8 1880 1982 2089 1989 1766 1870 1980 1877
8 1984 1876 1987 2090 1872 1762 1875 1981
8 1765 1871 1983 1879 1880 1982 2091 1991
8 1985 1878 1764 1873 2092 1990 1879 1983
8 1985 1878 1988 2093 1873 1764 1876 1984
8 2094 1992 1881 1986 1998 1889 1776 1888
8 1986 1881 1992 2094 1877 1773 1886 1989
8 1988 1883 1993 2095 1876 1769 1882 1987
8 1878 1770 1884 1990 1988 1883 1994 2096
8 1991 1885 1772 1880 2097 1996 1886 1989
8 1879 1771 1885 1991 1990 1884 1995 2098
8 2103 1998 1888 1997 2000 1891 1779 1890
8 2104 1999 1889 1998 2001 1892 1780 1891
8 2003 1894 2001 2106 1893 1782 1891 2000
8 2004 1895 2002 2107 1894 1783 1892 2001
8 2006 1897 2004 2109 1896 1785 1894 2003
8 2007 1898 2005 2110 1897 1786 1895 2004
8 2014 1901 2007 2112 1904 1789 1897 2006
8 2011 1899 2008 2113 1901 1787 1898 2007
8 2119 2010 1899 2011 2013 1900 1787 1901
8 2016 1902 2012 2122 1903 1788 1900 2013
8 2017 1903 2013 2123 1904 1789 1901 2014
8 1906 1791 1905 2019 2016 1902 2015 2125
8 1907 1792 1906 2020 2017 1903 2016 2126
8 1909 1793 1908 2022 2019 1905 2018 2128
8 2020 1906 1794 1910 2129 2019 1909 2023
8 1912 1796 1911 2025 2022 1908 2021 2131
8 1913 1797 1912 2026 2023 1909 2022 2132
8 1915 1799 1914 2028 2025 1911 2024 2134
8 1916 1800 1915 2029 2026 1912 2025 2135
8 1918 1804 1919 2031 2028 1914 2027 2136
8 1917 1803 1918 2030 2029 1915 2028 2137
8 1920 1806 1921 2032 2030 1918 2031 2138
8 1940 1827 1941 2054 2035 1923 2033 2140
8 2035 1923 2034 2143 1939 1826 1924 2037
8 2037 1924 2036 2146 1926 1811 1925 2039
8 2051 1939 2037 2147 1944 1829 1926 2040
8 2039 1925 2038 2149 1928 1812 1927 2042
8 2040 1926 2039 2150 1929 1813 1928 2043
8 2042 1927 2041 2151 1931 1814 1930 2044
8 2043 1928 2042 2152 1932 1815 1931 2045
8 2045 1931 2044 2153 1934 1818 1933 2046
8 2155 2047 1936 2048 2086 1976 1864 1977
8 2063 1949 1833 1950 2155 2047 1936 2048
8 2156 2048 1937 2049 2087 1977 1865 1978
8 2064 1950 1834 1951 2156 2048 1937 2049
8 2051 1939 1829 1944 2160 2053 1946 2058
8 2052 1940 2035 2144 2160 2053 1939 2051
8 2053 1942 1831 1946 2163 2057 1948 2060
8 2055 1943 1827 1940 2163 2057 1942 2053
8 2055 1943 2056 2164 1940 1827 1941 2054
8 2059 1947 1849 1966 2167 2060 1965 2078
8 2059 1947 2060 2167 1945 1830 1946 2058
8 2077 1964 2061 2168 1965 1848 1948 2060
8 2070 1963 1847 1959 2170 2062 1949 2063
8 2065 1959 1843 1952 2171 2063 1950 2064
8 2173 2072 1958 2066 2065 1959 1843 1952
8 1953 1842 1958 2066 2067 1957 2071 2174
8 2068 1956 2069 2175 1967 1859 1973 2079
8 2067 1957 2069 2175 1955 1841 1956 2068
8 1845 1957 2069 1960 1961 2071 2176 2073
8 2069 1960 2073 2176 1973 1862 1975 2083
8 2070 1963 2075 2177 1959 1847 1962 2072
8 1846 1958 2071 1961 1962 2072 2178 2074
8 2077 1964 1861 1971 2182 2076 1974 2082
8 2081 1971 2077 2183 1969 1857 1965 2078
8 2079 1973 2083 2184 1968 1860 1972 2080
8 2081 1971 1858 1970 2185 2082 1972 2080
8 2083 1975 2084 2186 1972 1863 1974 2082
8 2086 1976 1882 1987 2189 2085 1993 2095
8 2090 1987 2086 2190 1981 1875 1977 2087
8 2191 2094 1986 2088 2103 1998 1888 1997
8 2088 1986 2094 2191 1980 1877 1989 2089
8 1991 2091 2192 2097 1880 1982 2089 1989
8 2093 1988 2095 2193 1984 1876 1987 2090
8 1879 1983 2092 1990 1991 2091 2194 2098
8 1985 1878 1990 2092 2093 1988 2096 2195
8 2097 1996 1886 1989 2196 2099 1992 2094
8 2196 2099 1992 2094 2104 1999 1889 1998
8 1994 2096 1988 1883 2100 2197 2095 1993
8 2096 1994 1884 1990 2198 2101 1995 2098
8 1995 2098 2199 2102 1885 1991 2097 1996
8 2203 2104 1998 2103 2106 2001 1891 2000
8 2107 2002 2105 2204 2001 1892 1999 2104
8 2109 2004 2107 2206 2003 1894 2001 2106
8 2110 2005 2108 2207 2004 1895 2002 2107
8 2112 2007 2110 2209 2006 1897 2004 2109
8 2113 2008 2111 2210 2007 1898 2005 2110
8 2120 2011 2113 2212 2014 1901 2007 2112
8 2117 2009 2114 2213 2011 1899 2008 2113
8 2219 2116 2009 2117 2119 2010 1899 2011
8 2222 2118 2010 2119 2122 2012 1900 2013
8 2223 2119 2011 2120 2123 2013 1901 2014
8 2016 1902 2015 2125 2122 2012 2121 2225
8 2126 2016 2122 2226 2017 1903 2013 2123
8 2019 1905 2018 2128 2125 2015 2124 2228
8 2020 1906 2019 2129 2126 2016 2125 2229
8 2022 1908 2021 2131 2128 2018 2127 2231
8 2023 1909 2022 2132 2129 2019 2128 2232
8 2025 1911 2024 2134 2131 2021 2130 2234
8 2026 1912 2025 2135 2132 2022 2131 2235
8 1914 2028 2134 2024 2027 2136 2236 2133
8 2029 1915 2028 2137 2135 2025 2134 2237
8 2030 1918 2031 2138 2137 2028 2136 2238
8 2157 2050 2139 2240 2054 1941 2033 2140
8 2052 1940 2054 2161 2144 2035 2140 2242
8 2140 2033 2141 2243 2035 1923 2034 2143
8 2143 2034 2142 2246 2037 1924 2036 2146
8 2144 2035 2143 2247 2051 1939 2037 2147
8 2146 2036 2145 2249 2039 1925 2038 2149
8 2147 2037 2146 2250 2040 1926 2039 2150
8 2149 2038 2148 2251 2042 1927 2041 2151
8 2150 2039 2149 2252 2043 1928 2042 2152
8 2152 2042 2151 2253 2045 1931 2044 2153
8 2255 2154 2047 2155 2189 2085 1976 2086
8 2170 2062 1949 2063 2255 2154 2047 2155
8 2256 2155 2048 2156 2190 2086 1977 2087
8 2171 2063 1950 2064 2256 2155 2048 2156
8 2258 2159 2050 2157 2164 2056 1941 2054
8 2160 2053 1946 2058 2262 2163 2060 2167
8 2162 2055 1940 2052 2262 2163 2053 2160
8 2162 2055 2164 2263 2052 1940 2054 2161
8 2163 2057 1948 2060 2264 2165 2061 2168
8 2055 1943 2057 2163 2164 2056 2165 2264
8 2182 2076 2166 2268 2077 1964 2061 2168
8 2183 2077 2168 2269 2078 1965 2060 2167
8 2070 1963 2062 2170 2177 2075 2169 2271
8 2172 2070 1959 2065 2272 2170 2063 2171
8 2172 2070 2177 2273 2065 1959 2072 2173
8 2066 1958 2072 2173 2174 2071 2178 2274
8 2067 1957 2071 2174 2175 2069 2176 2275
8 2175 2069 2176 2275 2079 1973 2083 2184
8 2071 1961 2074 2178 2176 2073 2179 2276
8 2176 2073 2179 2276 2083 1975 2084 2186
8 2072 1962 2075 2177 2178 2074 2180 2277
8 2182 2076 1974 2082 2280 2181 2084 2186
8 2183 2077 1971 2081 2281 2182 2082 2185
8 2184 2083 2186 2282 2080 1972 2082 2185
8 2189 2085 1993 2095 2285 2188 2100 2197
8 2190 2086 1987 2090 2286 2189 2095 2193
8 2192 2097 1989 2089 2287 2196 2094 2191
8 2287 2196 2094 2191 2203 2104 1998 2103
8 2194 2098 1991 2091 2288 2199 2097 2192
8 2195 2096 2197 2289 2093 1988 2095 2193
8 2096 2195 2290 2198 1990 2092 2194 2098
8 2097 1996 2099 2196 2199 2102 2200 2291
8 2196 2099 1999 2104 2291 2200 2105 2204
8 2100 2197 2292 2201 1994 2096 2198 2101
8 1995 2098 2198 2101 2102 2199 2293 2202
8 2206 2107 2204 2296 2106 2001 2104 2203
8 2207 2108 2205 2297 2107 2002 2105 2204
8 2209 2110 2207 2299 2109 2004 2107 2206
8 2210 2111 2208 2300 2110 2005 2108 2207
8 2212 2113 2210 2302 2112 2007 2110 2209
8 2213 2114 2211 2303 2113 2008 2111 2210
8 2220 2117 2213 2305 2120 2011 2113 2212
8 2216 2115 2214 2306 2117 2009 2114 2213
8 2216 2115 2009 2117 2311 2217 2116 2219
8 2219 2116 2010 2119 2314 2218 2118 2222
8 2315 2219 2117 2220 2223 2119 2011 2120
8 2122 2012 2121 2225 2222 2118 2221 2317
8 2318 2222 2119 2223 2226 2122 2013 2123
8 2125 2015 2124 2228 2225 2121 2224 2320
8 2126 2016 2125 2229 2226 2122 2225 2321
8 2128 2018 2127 2231 2228 2124 2227 2323
8 2129 2019 2128 2232 2229 2125 2228 2324
8 2131 2021 2130 2234 2231 2127 2230 2326
8 2132 2022 2131 2235 2232 2128 2231 2327
8 2134 2024 2133 2236 2234 2130 2233 2328
8 2135 2025 2134 2237 2235 2131 2234 2329
8 2137 2028 2136 2238 2237 2134 2236 2330
8 2157 2050 2158 2259 2240 2139 2239 2332
8 2257 2157 2240 2334 2161 2054 2140 2242
8 2240 2139 2241 2335 2140 2033 2141 2243
8 2242 2140 2243 2337 2144 2035 2143 2247
8 2243 2141 2244 2338 2143 2034 2142 2246
8 2246 2142 2245 2341 2146 2036 2145 2249
8 2247 2143 2246 2342 2147 2037 2146 2250
8 2249 2145 2248 2343 2149 2038 2148 2251
8 2250 2146 2249 2344 2150 2039 2149 2252
8 2252 2149 2251 2345 2152 2042 2151 2253
8 2169 2271 2347 2254 2062 2170 2255 2154
8 2189 2085 2188 2285 2255 2154 2254 2347
8 2348 2255 2155 2256 2286 2189 2086 2190
8 2272 2170 2063 2171 2348 2255 2155 2256
8 2349 2258 2157 2257 2263 2164 2054 2161
8 2258 2159 2261 2351 2157 2050 2158 2259
8 2258 2159 2056 2164 2351 2261 2165 2264
8 2262 2163 2060 2167 2355 2264 2168 2269
8 2162 2055 2163 2262 2263 2164 2264 2355
8 2357 2266 2165 2264 2268 2166 2061 2168
8 2268 2166 2076 2182 2361 2267 2181 2280
8 2281 2182 2268 2362 2183 2077 2168 2269
8 2271 2169 2270 2364 2177 2075 2180 2277
8 2172 2070 2170 2272 2273 2177 2271 2365
8 2072 2173 2274 2178 2177 2273 2366 2277
8 2071 2174 2275 2176 2178 2274 2367 2276
8 2275 2176 2276 2367 2184 2083 2186 2282
8 2283 2187 2084 2186 2368 2278 2179 2276
8 2178 2074 2180 2277 2276 2179 2278 2368
8 2283 2187 2279 2370 2186 2084 2181 2280
8 2281 2182 2082 2185 2371 2280 2186 2282
8 2188 2285 2374 2284 2100 2197 2292 2201
8 2286 2189 2095 2193 2375 2285 2197 2289
8 2192 2097 2196 2287 2288 2199 2291 2376
8 2287 2196 2104 2203 2376 2291 2204 2296
8 2194 2098 2199 2288 2290 2198 2293 2377
8 2289 2197 2096 2195 2378 2292 2198 2290
8 2291 2200 2105 2204 2379 2294 2205 2297
8 2199 2102 2200 2291 2293 2202 2294 2379
8 2198 2101 2202 2293 2292 2201 2295 2380
8 2299 2207 2297 2383 2206 2107 2204 2296
8 2300 2208 2298 2384 2207 2108 2205 2297
8 2302 2210 2300 2386 2209 2110 2207 2299
8 2303 2211 2301 2387 2210 2111 2208 2300
8 2305 2213 2303 2389 2212 2113 2210 2302
8 2306 2214 2304 2390 2213 2114 2211 2303
8 2310 2216 2306 2392 2220 2117 2213 2305
8 2308 2215 2307 2393 2216 2115 2214 2306
8 2308 2215 2115 2216 2396 2309 2217 2311
8 2310 2216 2117 2220 2398 2311 2219 2315
8 2311 2217 2116 2219 2399 2312 2218 2314
8 2314 2218 2118 2222 2402 2313 2221 2317
8 2315 2219 2119 2223 2403 2314 2222 2318
8 2225 2121 2224 2320 2317 2221 2316 2405
8 2226 2122 2225 2321 2318 2222 2317 2406
8 2228 2124 2227 2323 2320 2224 2319 2408
8 2229 2125 2228 2324 2321 2225 2320 2409
8 2231 2127 2230 2326 2323 2227 2322 2411
8 2232 2128 2231 2327 2324 2228 2323 2412
8 2234 2130 2233 2328 2326 2230 2325 2413
8 2235 2131 2234 2329 2327 2231 2326 2414
8 2237 2134 2236 2330 2329 2234 2328 2415
8 2259 2158 2260 2352 2332 2239 2331 2417
8 2257 2157 2259 2350 2334 2240 2332 2419
8 2240 2139 2239 2332 2335 2241 2333 2420
8 2334 2240 2335 2422 2242 2140 2243 2337
8 2335 2241 2336 2423 2243 2141 2244 2338
8 2337 2243 2338 2425 2247 2143 2246 2342
8 2338 2244 2339 2426 2246 2142 2245 2341
8 2341 2245 2340 2428 2249 2145 2248 2343
8 2342 2246 2341 2429 2250 2146 2249 2344
8 2344 2249 2343 2430 2252 2149 2251 2345
8 2188 2285 2347 2254 2284 2374 2432 2346
8 2347 2254 2346 2432 2271 2169 2270 2364
8 2365 2271 2170 2272 2433 2347 2255 2348
8 2286 2189 2285 2375 2348 2255 2347 2433
8 2349 2258 2351 2435 2257 2157 2259 2350
8 2349 2258 2164 2263 2435 2351 2264 2355
8 2259 2158 2261 2351 2352 2260 2354 2437
8 2356 2265 2354 2437 2264 2165 2261 2351
8 2441 2357 2264 2355 2362 2268 2168 2269
8 2356 2265 2165 2264 2442 2358 2266 2357
8 2443 2359 2266 2357 2361 2267 2166 2268
8 2370 2279 2360 2446 2280 2181 2267 2361
8 2362 2268 2182 2281 2447 2361 2280 2371
8 2180 2277 2368 2278 2270 2364 2449 2363
8 2271 2365 2273 2177 2364 2450 2366 2277
8 2372 2283 2186 2282 2451 2368 2276 2367
8 2178 2274 2367 2276 2277 2366 2451 2368
8 2283 2187 2278 2368 2370 2279 2369 2452
8 2372 2283 2370 2453 2282 2186 2280 2371
8 2284 2374 2455 2373 2201 2292 2380 2295
8 2375 2285 2197 2289 2456 2374 2292 2378
8 2376 2291 2204 2296 2457 2379 2297 2383
8 2288 2199 2291 2376 2377 2293 2379 2457
8 2198 2290 2378 2292 2293 2377 2458 2380
8 2293 2202 2294 2379 2380 2295 2381 2459
8 2384 2298 2381 2459 2297 2205 2294 2379
8 2386 2300 2384 2463 2299 2207 2297 2383
8 2387 2301 2385 2464 2300 2208 2298 2384
8 2389 2303 2387 2466 2302 2210 2300 2386
8 2390 2304 2388 2467 2303 2211 2301 2387
8 2392 2306 2390 2469 2305 2213 2303 2389
8 2393 2307 2391 2470 2306 2214 2304 2390
8 2395 2308 2393 2472 2310 2216 2306 2392
8 2308 2215 2309 2396 2393 2307 2394 2473
8 2395 2308 2216 2310 2475 2396 2311 2398
8 2396 2309 2217 2311 2476 2397 2312 2399
8 2398 2311 2219 2315 2478 2399 2314 2403
8 2399 2312 2218 2314 2479 2400 2313 2402
8 2317 2221 2316 2405 2402 2313 2401 2482
8 2403 2314 2222 2318 2483 2402 2317 2406
8 2320 2224 2319 2408 2405 2316 2404 2485
8 2321 2225 2320 2409 2406 2317 2405 2486
8 2323 2227 2322 2411 2408 2319 2407 2488
8 2324 2228 2323 2412 2409 2320 2408 2489
8 2326 2230 2325 2413 2411 2322 2410 2490
8 2327 2231 2326 2414 2412 2323 2411 2491
8 2329 2234 2328 2415 2414 2326 2413 2492
8 2417 2331 2260 2352 2494 2416 2353 2438
8 2350 2259 2352 2436 2419 2332 2417 2496
8 2332 2239 2331 2417 2420 2333 2418 2497
8 2334 2240 2332 2419 2422 2335 2420 2499
8 2420 2333 2421 2500 2335 2241 2336 2423
8 2422 2335 2423 2502 2337 2243 2338 2425
8 2423 2336 2424 2503 2338 2244 2339 2426
8 2425 2338 2426 2505 2342 2246 2341 2429
8 2426 2339 2427 2506 2341 2245 2340 2428
8 2429 2341 2428 2507 2344 2249 2343 2430
8 2432 2346 2284 2374 2509 2431 2373 2455
8 2432 2346 2431 2509 2364 2270 2363 2449
8 2375 2285 2374 2456 2433 2347 2432 2510
8 2347 2433 2365 2271 2432 2510 2450 2364
8 2350 2259 2351 2435 2436 2352 2437 2514
8 2440 2356 2437 2514 2355 2264 2351 2435
8 2352 2260 2354 2437 2438 2353 2439 2516
8 2356 2265 2358 2442 2437 2354 2439 2516
8 2440 2356 2264 2355 2518 2442 2357 2441
8 2519 2443 2357 2441 2447 2361 2268 2362
8 2443 2359 2444 2520 2357 2266 2358 2442
8 2443 2359 2267 2361 2520 2444 2360 2446
8 2446 2360 2279 2370 2523 2445 2369 2452
8 2453 2370 2446 2524 2371 2280 2361 2447
8 2449 2363 2448 2525 2368 2278 2369 2452
8 2366 2277 2364 2450 2451 2368 2449 2526
8 2372 2283 2368 2451 2453 2370 2452 2527
8 2455 2373 2295 2380 2529 2454 2382 2460
8 2456 2374 2292 2378 2530 2455 2380 2458
8 2377 2293 2379 2457 2458 2380 2459 2531
8 2463 2384 2459 2531 2383 2297 2379 2457
8 2533 2461 2382 2460 2459 2381 2295 2380
8 2464 2385 2461 2533 2384 2298 2381 2459
8 2466 2387 2464 2537 2386 2300 2384 2463
8 2467 2388 2465 2538 2387 2301 2385 2464
8 2469 2390 2467 2540 2389 2303 2387 2466
8 2470 2391 2468 2541 2390 2304 2388 2467
8 2472 2393 2470 2543 2392 2306 2390 2469
8 2393 2307 2394 2473 2470 2391 2471 2544
8 2395 2308 2396 2475 2472 2393 2473 2546
8 2396 2309 2397 2476 2473 2394 2474 2547
8 2475 2396 2311 2398 2549 2476 2399 2478
8 2476 2397 2312 2399 2550 2477 2400 2479
8 2478 2399 2314 2403 2552 2479 2402 2483
8 2479 2400 2313 2402 2553 2480 2401 2482
8 2405 2316 2404 2485 2482 2401 2481 2556
8 2406 2317 2405 2486 2483 2402 2482 2557
8 2408 2319 2407 2488 2485 2404 2484 2559
8 2409 2320 2408 2489 2486 2405 2485 2560
8 2411 2322 2410 2490 2488 2407 2487 2561
8 2412 2323 2411 2491 2489 2408 2488 2562
8 2414 2326 2413 2492 2491 2411 2490 2563
8 2513 2434 2493 2565 2438 2353 2416 2494
8 2496 2417 2352 2436 2567 2494 2438 2515
8 2494 2416 2495 2568 2417 2331 2418 2497
8 2419 2332 2417 2496 2499 2420 2497 2570
8 2497 2418 2498 2571 2420 2333 2421 2500
8 2499 2420 2500 2573 2422 2335 2423 2502
8 2500 2421 2501 2574 2423 2336 2424 2503
8 2502 2423 2503 2576 2425 2338 2426 2505
8 2503 2424 2504 2577 2426 2339 2427 2506
8 2505 2426 2506 2578 2429 2341 2428 2507
8 2509 2431 2373 2455 2580 2508 2454 2529
8 2509 2431 2508 2580 2449 2363 2448 2525
8 2432 2510 2581 2509 2374 2456 2530 2455
8 2432 2510 2450 2364 2509 2581 2526 2449
8 2583 2511 2434 2513 2516 2439 2353 2438
8 2436 2352 2437 2514 2515 2438 2516 2588
8 2440 2356 2442 2518 2514 2437 2516 2588
8 2442 2358 2444 2520 2516 2439 2517 2589
8 2519 2443 2520 2591 2441 2357 2442 2518
8 2519 2443 2361 2447 2591 2520 2446 2524
8 2446 2360 2445 2523 2520 2444 2521 2592
8 2525 2448 2522 2593 2452 2369 2445 2523
8 2524 2446 2370 2453 2594 2523 2452 2527
8 2526 2449 2525 2595 2451 2368 2452 2527
8 2534 2462 2528 2597 2460 2382 2454 2529
8 2530 2455 2380 2458 2598 2529 2460 2532
8 2599 2533 2460 2532 2531 2459 2380 2458
8 2537 2464 2533 2599 2463 2384 2459 2531
8 2534 2462 2382 2460 2601 2535 2461 2533
8 2538 2465 2535 2601 2464 2385 2461 2533
8 2540 2467 2538 2604 2466 2387 2464 2537
8 2541 2468 2539 2605 2467 2388 2465 2538
8 2543 2470 2541 2607 2469 2390 2467 2540
8 2470 2391 2471 2544 2541 2468 2542 2608
8 2472 2393 2473 2546 2543 2470 2544 2610
8 2473 2394 2474 2547 2544 2471 2545 2611
8 2475 2396 2476 2549 2546 2473 2547 2613
8 2476 2397 2477 2550 2547 2474 2548 2614
8 2549 2476 2399 2478 2616 2550 2479 2552
8 2479 2400 2480 2553 2550 2477 2551 2617
8 2552 2479 2402 2483 2619 2553 2482 2557
8 2482 2401 2481 2556 2553 2480 2554 2620
8 2485 2404 2484 2559 2556 2481 2555 2623
8 2486 2405 2485 2560 2557 2482 2556 2624
8 2488 2407 2487 2561 2559 2484 2558 2625
8 2489 2408 2488 2562 2560 2485 2559 2626
8 2491 2411 2490 2563 2562 2488 2561 2627
8 2513 2434 2512 2585 2565 2493 2564 2630
8 2586 2513 2565 2632 2515 2438 2494 2567
8 2565 2493 2566 2633 2494 2416 2495 2568
8 2567 2494 2568 2635 2496 2417 2497 2570
8 2568 2495 2569 2636 2497 2418 2498 2571
8 2570 2497 2571 2638 2499 2420 2500 2573
8 2571 2498 2572 2639 2500 2421 2501 2574
8 2573 2500 2574 2641 2502 2423 2503 2576
8 2574 2501 2575 2642 2503 2424 2504 2577
8 2576 2503 2577 2643 2505 2426 2506 2578
8 2597 2528 2579 2645 2529 2454 2508 2580
8 2580 2508 2579 2645 2525 2448 2522 2593
8 2581 2509 2455 2530 2646 2580 2529 2598
8 2581 2509 2580 2646 2526 2449 2525 2595
8 2583 2511 2582 2648 2513 2434 2512 2585
8 2583 2511 2439 2516 2648 2582 2517 2589
8 2649 2583 2513 2586 2588 2516 2438 2515
8 2589 2517 2444 2520 2653 2587 2521 2592
8 2518 2442 2520 2591 2588 2516 2589 2654
8 2593 2522 2590 2655 2523 2445 2521 2592
8 2524 2446 2523 2594 2591 2520 2592 2656
8 2595 2525 2593 2657 2527 2452 2523 2594
8 2602 2536 2596 2659 2534 2462 2528 2597
8 2600 2534 2597 2660 2532 2460 2529 2598
8 2600 2534 2460 2532 2661 2601 2533 2599
8 2604 2538 2601 2661 2537 2464 2533 2599
8 2602 2536 2462 2534 2663 2603 2535 2601
8 2601 2535 2465 2538 2663 2603 2539 2605
8 2607 2541 2605 2665 2540 2467 2538 2604
8 2608 2542 2606 2666 2541 2468 2539 2605
8 2543 2470 2544 2610 2607 2541 2608 2668
8 2544 2471 2545 2611 2608 2542 2609 2669
8 2546 2473 2547 2613 2610 2544 2611 2671
8 2547 2474 2548 2614 2611 2545 2612 2672
8 2549 2476 2550 2616 2613 2547 2614 2674
8 2550 2477 2551 2617 2614 2548 2615 2675
8 2552 2479 2553 2619 2616 2550 2617 2677
8 2553 2480 2554 2620 2617 2551 2618 2678
8 2557 2482 2556 2624 2619 2553 2620 2680
8 2556 2481 2555 2623 2620 2554 2621 2681
8 2559 2484 2558 2625 2623 2555 2622 2683
8 2560 2485 2559 2626 2624 2556 2623 2684
8 2562 2488 2561 2627 2626 2559 2625 2685
8 2690 2629 2564 2630 2650 2584 2512 2585
8 2586 2513 2585 2651 2632 2565 2630 2691
8 2630 2564 2631 2692 2565 2493 2566 2633
8 2632 2565 2633 2694 2567 2494 2568 2635
8 2633 2566 2634 2695 2568 2495 2569 2636
8 2635 2568 2636 2697 2570 2497 2571 2638
8 2636 2569 2637 2698 2571 2498 2572 2639
8 2638 2571 2639 2700 2573 2500 2574 2641
8 2639 2572 2640 2701 2574 2501 2575 2642
8 2641 2574 2642 2702 2576 2503 2577 2643
8 2597 2528 2596 2659 2645 2579 2644 2704
8 2645 2579 2644 2704 2593 2522 2590 2655
8 2660 2597 2645 2705 2598 2529 2580 2646
8 2646 2580 2645 2705 2595 2525 2593 2657
8 2650 2584 2512 2585 2707 2647 2582 2648
8 2648 2582 2517 2589 2707 2647 2587 2653
8 2649 2583 2648 2708 2586 2513 2585 2651
8 2649 2583 2516 2588 2708 2648 2589 2654
8 2655 2590 2652 2710 2592 2521 2587 2653
8 2654 2589 2520 2591 2711 2653 2592 2656
8 2657 2593 2655 2712 2594 2523 2592 2656
8 2602 2536 2603 2663 2659 2596 2658 2714
8 2662 2602 2659 2715 2600 2534 2597 2660
8 2662 2602 2534 2600 2717 2663 2601 2661
8 2661 2601 2538 2604 2717 2663 2605 2665
8 2666 2606 2664 2718 2605 2539 2603 2663
8 2668 2608 2666 2720 2607 2541 2605 2665
8 2608 2542 2609 2669 2666 2606 2667 2721
8 2610 2544 2611 2671 2668 2608 2669 2723
8 2611 2545 2612 2672 2669 2609 2670 2724
8 2613 2547 2614 2674 2671 2611 2672 2726
8 2614 2548 2615 2675 2672 2612 2673 2727
8 2616 2550 2617 2677 2674 2614 2675 2729
8 2617 2551 2618 2678 2675 2615 2676 2730
8 2619 2553 2620 2680 2677 2617 2678 2732
8 2620 2554 2621 2681 2678 2618 2679 2733
8 2624 2556 2623 2684 2680 2620 2681 2735
8 2681 2621 2555 2623 2736 2682 2622 2683
8 2626 2559 2625 2685 2684 2623 2683 2737
8 2688 2628 2584 2650 2740 2686 2647 2707
8 2688 2628 2687 2742 2650 2584 2629 2690
8 2690 2629 2689 2745 2630 2564 2631 2692
8 2746 2690 2630 2691 2709 2650 2585 2651
8 2691 2630 2692 2747 2632 2565 2633 2694
8 2692 2631 2693 2748 2633 2566 2634 2695
8 2694 2633 2695 2750 2635 2568 2636 2697
8 2695 2634 2696 2751 2636 2569 2637 2698
8 2697 2636 2698 2753 2638 2571 2639 2700
8 2698 2637 2699 2754 2639 2572 2640 2701
8 2700 2639 2701 2755 2641 2574 2642 2702
8 2659 2596 2658 2714 2704 2644 2703 2757
8 2704 2644 2703 2757 2655 2590 2652 2710
8 2660 2597 2659 2715 2705 2645 2704 2758
8 2705 2645 2704 2758 2657 2593 2655 2712
8 2759 2706 2647 2707 2710 2652 2587 2653
8 2709 2650 2585 2651 2760 2707 2648 2708
8 2708 2648 2589 2654 2760 2707 2653 2711
8 2712 2655 2710 2761 2656 2592 2653 2711
8 2763 2713 2658 2714 2718 2664 2603 2663
8 2662 2602 2663 2717 2715 2659 2714 2764
8 2720 2666 2718 2767 2665 2605 2663 2717
8 2768 2719 2664 2718 2721 2667 2606 2666
8 2668 2608 2669 2723 2720 2666 2721 2770
8 2669 2609 2670 2724 2721 2667 2722 2771
8 2671 2611 2672 2726 2723 2669 2724 2773
8 2672 2612 2673 2727 2724 2670 2725 2774
8 2674 2614 2675 2729 2726 2672 2727 2776
8 2675 2615 2676 2730 2727 2673 2728 2777
8 2677 2617 2678 2732 2729 2675 2730 2779
8 2678 2618 2679 2733 2730 2676 2731 2780
8 2680 2620 2681 2735 2732 2678 2733 2782
8 2733 2679 2621 2681 2783 2734 2682 2736
8 2735 2681 2623 2684 2784 2736 2683 2737
8 2740 2686 2647 2707 2787 2738 2706 2759
8 2688 2628 2686 2740 2742 2687 2739 2789
8 2743 2688 2650 2709 2790 2740 2707 2760
8 2742 2687 2741 2792 2690 2629 2689 2745
8 2743 2688 2742 2793 2709 2650 2690 2746
8 2745 2689 2744 2795 2692 2631 2693 2748
8 2746 2690 2745 2796 2691 2630 2692 2747
8 2747 2692 2748 2797 2694 2633 2695 2750
8 2748 2693 2749 2798 2695 2634 2696 2751
8 2750 2695 2751 2800 2697 2636 2698 2753
8 2751 2696 2752 2801 2698 2637 2699 2754
8 2753 2698 2754 2802 2700 2639 2701 2755
8 2763 2713 2756 2804 2714 2658 2703 2757
8 2759 2706 2652 2710 2804 2756 2703 2757
8 2715 2659 2714 2764 2758 2704 2757 2805
8 2758 2704 2757 2805 2712 2655 2710 2761
8 2806 2759 2707 2760 2761 2710 2653 2711
8 2765 2716 2762 2808 2718 2664 2713 2763
8 2809 2763 2714 2764 2767 2718 2663 2717
8 2765 2716 2664 2718 2811 2766 2719 2768
8 2813 2768 2718 2767 2770 2721 2666 2720
8 2814 2769 2719 2768 2771 2722 2667 2721
8 2723 2669 2724 2773 2770 2721 2771 2816
8 2724 2670 2725 2774 2771 2722 2772 2817
8 2726 2672 2727 2776 2773 2724 2774 2819
8 2727 2673 2728 2777 2774 2725 2775 2820
8 2729 2675 2730 2779 2776 2727 2777 2822
8 2730 2676 2731 2780 2777 2728 2778 2823
8 2732 2678 2733 2782 2779 2730 2780 2825
8 2780 2731 2679 2733 2826 2781 2734 2783
8 2782 2733 2681 2735 2827 2783 2736 2784
8 2830 2785 2738 2787 2804 2756 2706 2759
8 2789 2739 2686 2740 2832 2786 2738 2787
8 2790 2740 2707 2760 2833 2787 2759 2806
8 2742 2687 2739 2789 2792 2741 2788 2835
8 2743 2688 2740 2790 2793 2742 2789 2836
8 2792 2741 2791 2838 2745 2689 2744 2795
8 2793 2742 2792 2839 2746 2690 2745 2796
8 2795 2744 2794 2841 2748 2693 2749 2798
8 2796 2745 2795 2842 2747 2692 2748 2797
8 2797 2748 2798 2843 2750 2695 2751 2800
8 2798 2749 2799 2844 2751 2696 2752 2801
8 2800 2751 2801 2845 2753 2698 2754 2802
8 2808 2762 2803 2847 2763 2713 2756 2804
8 2809 2763 2804 2848 2764 2714 2757 2805
8 2806 2759 2710 2761 2848 2804 2757 2805
8 2765 2716 2766 2811 2808 2762 2807 2850
8 2810 2765 2808 2851 2767 2718 2763 2809
8 2810 2765 2718 2767 2852 2811 2768 2813
8 2811 2766 2719 2768 2853 2812 2769 2814
8 2855 2814 2768 2813 2816 2771 2721 2770
8 2856 2815 2769 2814 2817 2772 2722 2771
8 2773 2724 2774 2819 2816 2771 2817 2858
8 2774 2725 2775 2820 2817 2772 2818 2859
8 2776 2727 2777 2822 2819 2774 2820 2861
8 2777 2728 2778 2823 2820 2775 2821 2862
8 2779 2730 2780 2825 2822 2777 2823 2864
8 2823 2778 2731 2780 2865 2824 2781 2826
8 2825 2780 2733 2782 2866 2826 2783 2827
8 2869 2828 2785 2830 2847 2803 2756 2804
8 2871 2829 2786 2832 2830 2785 2738 2787
8 2872 2830 2787 2833 2848 2804 2759 2806
8 2789 2739 2786 2832 2835 2788 2831 2874
8 2836 2789 2740 2790 2875 2832 2787 2833
8 2792 2741 2788 2835 2838 2791 2834 2877
8 2793 2742 2789 2836 2839 2792 2835 2878
8 2838 2791 2837 2880 2795 2744 2794 2841
8 2839 2792 2838 2881 2796 2745 2795 2842
8 2841 2794 2840 2882 2798 2749 2799 2844
8 2842 2795 2841 2883 2797 2748 2798 2843
8 2843 2798 2844 2884 2800 2751 2801 2845
8 2886 2846 2803 2847 2850 2807 2762 2808
8 2851 2808 2847 2887 2809 2763 2804 2848
8 2850 2807 2766 2811 2889 2849 2812 2853
8 2810 2765 2811 2852 2851 2808 2850 2890
8 2852 2811 2768 2813 2891 2853 2814 2855
8 2853 2812 2769 2814 2892 2854 2815 2856
8 2894 2856 2814 2855 2858 2817 2771 2816
8 2817 2772 2818 2859 2856 2815 2857 2895
8 2819 2774 2820 2861 2858 2817 2859 2897
8 2820 2775 2821 2862 2859 2818 2860 2898
8 2822 2777 2823 2864 2861 2820 2862 2900
8 2823 2778 2824 2865 2862 2821 2863 2901
8 2864 2823 2780 2825 2902 2865 2826 2866
8 2904 2867 2828 2869 2886 2846 2803 2847
8 2869 2828 2868 2906 2830 2785 2829 2871
8 2907 2869 2830 2872 2887 2847 2804 2848
8 2871 2829 2870 2909 2832 2786 2831 2874
8 2910 2871 2832 2875 2872 2830 2787 2833
8 2835 2788 2831 2874 2877 2834 2873 2912
8 2836 2789 2832 2875 2878 2835 2874 2913
8 2877 2834 2876 2915 2838 2791 2837 2880
8 2839 2792 2835 2878 2881 2838 2877 2916
8 2880 2837 2879 2917 2841 2794 2840 2882
8 2881 2838 2880 2918 2842 2795 2841 2883
8 2883 2841 2882 2919 2843 2798 2844 2884
8 2921 2885 2846 2886 2889 2849 2807 2850
8 2922 2886 2847 2887 2890 2850 2808 2851
8 2889 2849 2812 2853 2924 2888 2854 2892
8 2890 2850 2811 2852 2925 2889 2853 2891
8 2891 2853 2814 2855 2926 2892 2856 2894
8 2892 2854 2815 2856 2927 2893 2857 2895
8 2858 2817 2859 2897 2894 2856 2895 2929
8 2859 2818 2860 2898 2895 2857 2896 2930
8 2861 2820 2862 2900 2897 2859 2898 2932
8 2862 2821 2863 2901 2898 2860 2899 2933
8 2864 2823 2865 2902 2900 2862 2901 2934
8 2904 2867 2846 2886 2936 2903 2885 2921
8 2904 2867 2903 2936 2869 2828 2868 2906
8 2937 2904 2869 2907 2922 2886 2847 2887
8 2906 2868 2905 2939 2871 2829 2870 2909
8 2907 2869 2906 2940 2872 2830 2871 2910
8 2909 2870 2908 2942 2874 2831 2873 2912
8 2910 2871 2909 2943 2875 2832 2874 2913
8 2912 2873 2911 2945 2877 2834 2876 2915
8 2878 2835 2874 2913 2916 2877 2912 2946
8 2915 2876 2914 2947 2880 2837 2879 2917
8 2916 2877 2915 2948 2881 2838 2880 2918
8 2918 2880 2917 2949 2883 2841 2882 2919
8 2921 2885 2849 2889 2951 2920 2888 2924
8 2952 2921 2886 2922 2925 2889 2850 2890
8 2924 2888 2854 2892 2954 2923 2893 2927
8 2925 2889 2853 2891 2955 2924 2892 2926
8 2926 2892 2856 2894 2956 2927 2895 2929
8 2895 2857 2896 2930 2927 2893 2928 2957
8 2897 2859 2898 2932 2929 2895 2930 2959
8 2898 2860 2899 2933 2930 2896 2931 2960
8 2900 2862 2901 2934 2932 2898 2933 2961
8 2936 2903 2885 2921 2963 2935 2920 2951
8 2936 2903 2935 2963 2906 2868 2905 2939
8 2937 2904 2886 2922 2964 2936 2921 2952
8 2937 2904 2936 2964 2907 2869 2906 2940
8 2939 2905 2938 2966 2909 2870 2908 2942
8 2940 2906 2939 2967 2910 2871 2909 2943
8 2942 2908 2941 2969 2912 2873 2911 2945
8 2943 2909 2942 2970 2913 2874 2912 2946
8 2945 2911 2944 2971 2915 2876 2914 2947
8 2946 2912 2945 2972 2916 2877 2915 2948
8 2948 2915 2947 2973 2918 2880 2917 2949
8 2951 2920 2888 2924 2975 2950 2923 2954
8 2952 2921 2889 2925 2976 2951 2924 2955
8 2927 2893 2928 2957 2954 2923 2953 2978
8 2955 2924 2892 2926 2979 2954 2927 2956
8 2929 2895 2930 2959 2956 2927 2957 2980
8 2930 2896 2931 2960 2957 2928 2958 2981
8 2932 2898 2933 2961 2959 2930 2960 2982
8 2951 2920 2950 2975 2963 2935 2962 2984
8 2963 2935 2962 2984 2939 2905 2938 2966
8 2964 2936 2921 2952 2985 2963 2951 2976
8 2964 2936 2963 2985 2940 2906 2939 2967
8 2966 2938 2965 2987 2942 2908 2941 2969
8 2967 2939 2966 2988 2943 2909 2942 2970
8 2969 2941 2968 2989 2945 2911 2944 2971
8 2970 2942 2969 2990 2946 2912 2945 2972
8 2972 2945 2971 2991 2948 2915 2947 2973
8 2954 2923 2953 2978 2975 2950 2974 2993
8 2976 2951 2924 2955 2994 2975 2954 2979
8 2957 2928 2958 2981 2978 2953 2977 2995
8 2956 2927 2957 2980 2979 2954 2978 2996
8 2959 2930 2960 2982 2980 2957 2981 2997
8 2984 2962 2983 2999 2966 2938 2965 2987
8 2975 2950 2974 2993 2984 2962 2983 2999
8 2976 2951 2975 2994 2985 2963 2984 3000
8 2985 2963 2984 3000 2967 2939 2966 2988
8 2987 2965 2986 3001 2969 2941 2968 2989
8 2988 2966 2987 3002 2970 2942 2969 2990
8 2990 2969 2989 3003 2972 2945 2971 2991
8 2978 2953 2977 2995 2993 2974 2992 3004
8 2979 2954 2978 2996 2994 2975 2993 3005
8 2980 2957 2981 2997 2996 2978 2995 3006
8 2974 2993 2999 2983 2992 3004 3007 2998
8 2983 2999 2987 2965 2998 3007 3001 2986
8 3000 2984 2999 3008 2988 2966 2987 3002
8 2994 2975 2993 3005 3000 2984 2999 3008
8 3002 2987 3001 3009 2990 2969 2989 3003
8 2996 2978 2995 3006 3005 2993 3004 3010
8 3005 2993 3004 3010 3008 2999 3007 3011
8 3008 2999 3007 3011 3002 2987 3001 3009

CELL_TYPES 1910
12
12
12
12
12
12
12
12
12
12
12
12
12
12
12
12
12
12
12
12
12
12
12
12
12
12
12
12
12
12
12
12
12
12
12
12
12
12
12
12
12
12
12
12
12
12
12
12
12
12
12
12
12
12
12
12
12
12
12
12
12
12
12
12
12
12
12
12
12
12
12
12
12
12
12
12
12
12
12
12
12
12
12
12
12
12
12
12
12
12
12
12
12
12
12
12
12
12
12
12
12
12
12
12
12
12
12
12
12
12
12
12
12
12
12
12
12
12
12
12
12
12
12
12
12
12
12
12
12
12
12
12
12
12
12
12
12
12
12
12
12
12
12
12
12
12
12
12
12
12
12
12
12
12
12
12
12
12
12
12
12
12
12
12
12
12
12
12
12
12
12
12
12
12
12
12
12
12
12
12
12
12
12
12
12
12
12
12
12
12
12
12
12
12
12
12
12
12
12
12
12
12
12
12
12
12
12
12
12
12
12
12
12
12
12
12
12
12
12
12
12
12
12
12
12
12
12
12
12
12
12
12
12
12
12
12
12
12
12
12
12
12
12
12
12
12
12
12
12
12
12
12
12
12
12
12
12
12
12
12
12
12
12
12
12
12
12
12
12
12
12
12
12
12
12
12
12
12
12
12
12
12
12
12
12
12
12
12
12
12
12
12
12
12
12
12
12
12
12
12
12
12
12
12
12
12
12
12
12
12
12
12
12
12
12
12
12
12
12
12
12
12
12
12
12
12
12
12
12
12
12
12
12
12
12
12
12
12
12
12
12
12
12
12
12
12
12
12
12
12
12
12
12
12
12
12
12
12
12
12
12
12
12
12
12
12
12
12
12
12
12
12
12
12
12
12
12
12
12
12
12
12
12
12
12
12
12
12
12
12
12
12
12
12
12
12
12
12
12
12
12
12
12
12
12
12
12
12
12
12
12
12
12
12
12
12
12
12
12
12
12
12
12
12
12
12
12
12
12
12
12
12
12
12
12
12
12
12
12
12
12
12
12
12
12
12
12
12
12
12
12
12
12
12
12
12
12
12
12
12
12
12
12
12
12
12
12
12
12
12
12
12
12
12
12
12
12
12
12
12
12
12
12
12
12
12
12
12
12
12
12
12
12
12
12
12
12
12
12
12
12
12
12
12
12
12
12
12
12
12
12
12
12
12
12
12
12
12
12
12
12
12
12
12
12
12
12
12
12
12
12
12
12
12
12
12
12
12
12
12
12
12
12
12
12
12
12
12
12
12
12
12
12
12
12
12
12
12
12
12
12
12
12
12
12
12
12
12
12
12
12
12
12
12
12
12
12
12
12
12
12
12
12
12
12
12
12
12
12
12
12
12
12
12
12
12
12
12
12
12
12
12
12
12
12
12
12
12
12
12
12
12
12
12
12
12
12
12
12
12
12
12
12
12
12
12
12
12
12
12
12
12
12
12
12
12
12
12
12
12
12
12
12
12
12
12
12
12
12
12
12
12
12
12
12
12
12
12
12
12
12
12
12
12
12
12
12
12
12
12
12
12
12
12
12
12
12
12
12
12
12
12
12
12
12
12
12
12
12
12
12
12
12
12
12
12
12
12
12
12
12
12
12
12
12
12
12
12
12
12
12
12
12
12
12
12
12
12
12
12
12
12
12
12
12
12
12
12
12
12
12
12
12
12
12
12
12
12
12
12
12
12
12
12
12
12
12
12
12
12
12
12
12
12
12
12
12
12
12
12
12
12
12
12
12
12
12
12
12
12
12
12
12
12
12
12
12
12
12
12
12
12
12
12
12
12
12
12
12
12
12
12
12
12
12
12
12
12
12
12
12
12
12
12
12
12
12
12
12
12
12
12
12
12
12
12
12
12
12
12
12
12
12
12
12
12
12
12
12
12
12
12
12
12
12
12
12
12
12
12
12
12
12
12
12
12
12
12
12
12
12
12
12
12
12
12
12
12
12
12
12
12
12
12
12
12
12
12
12
12
12
12
12
12
12
12
12
12
12
12
12
12
12
12
12
12
12
12
12
12
12
12
12
12
12
12
12
12
12
12
12
12
12
12
12
12
12
12
12
12
12
12
12
12
12
12
12
12
12
12
12
12
12
12
12
12
12
12
12
12
12
12
12
12
12
12
12
12
12
12
12
12
12
12
12
12
12
12
12
12
12
12
12
12
12
12
12
12
12
12
12
12
12
12
12
12
12
12
12
12
12
12
12
12
12
12
12
12
12
12
12
12
12
12
12
12
12
12
12
12
12
12
12
12
12
12
12
12
12
12
12
12
12
12
12
12
12
12
12
12
12
12
12
12
12
12
12
12
12
12
12
12
12
12
12
12
12
12
12
12
12
12
12
12
12
12
12
12
12
12
12
12
12
12
12
12
12
12
12
12
12
12
12
12
12
12
12
12
12
12
12
12
12
12
12
12
12
12
12
12
12
12
12
12
12
12
12
12
12
12
12
12
12
12
12
12
12
12
12
12
12
12
12
12
12
12
12
12
12
12
12
12
12
12
12
12
12
12
12
12
12
12
12
12
12
12
12
12
12
12
12
12
12
12
12
12
12
12
12
12
12
12
12
12
12
12
12
12
12
12
12
12
12
12
12
12
12
12
12
12
12
12
12
12
12
12
12
12
12
12
12
12
12
12
12
12
12
12
12
12
12
12
12
12
12
12
12
12
12
12
12
12
12
12
12
12
12
12
12
12
12
12
12
12
12
12
12
12
12
12
12
12
12
12
12
12
12
12
12
12
12
12
12
12
12
12
12
12
12
12
12
12
12
12
12
12
12
12
12
12
12
12
12
12
12
12
12
12
12
12
12
12
12
12
12
12
12
12
12
12
12
12
12
12
12
12
12
12
12
12
12
12
12
12
12
12
12
12
12
12
12
12
12
12
12
12
12
12
12
12
12
12
12
12
12
12
12
12
12
12
12
12
12
12
12
12
12
12
12
12
12
12
12
12
12
12
12
12
12
12
12
12
12
12
12
12
12
12
12
12
12
12
12
12
12
12
12
12
12
12
12
12
12
12
12
12
12
12
12
12
12
12
12
12
12
12
12
12
12
12
12
12
12
12
12
12
12
12
12
12
12
12
12
12
12
12
12
12
12
12
12
12
12
12
12
12
12
12
12
12
12
12
12
12
12
12
12
12
12
12
12
12
12
12
12
12
12
12
12
12
12
12
12
12
12
12
12
12
12
12
12
12
12
12
12
12
12
12
12
12
12
12
12
12
12
12
12
12
12
12
12
12
12
12
12
12
12
12
12
12
12
12
12
12
12
12
12
12
12
12
12
12
12
12
12
12
12
12
12
12
12
12
12
12
12
12
12
12
12
12
12
12
12
12
12
12
12
12
12
12
12
12
12
12
12
12
12
12
12
12
12
12
12
12
12
12
12
12
12
12
12
12
12
12
12
12
12
12
12
12
12
12
12
12
12
12
12
12
12
12
12
12
12
12
12
12
12
12
12
12
12
12
12
12
12
12
12
12
12
12
12
12
12
12
12
12
12
12
12
12
12
12
12
12
12
12
12
12
12
12
12
12
12
12
12
12
12
12
12
12
12
12
12
12
12
12
12
12
12
12
12
12
12
12
12
12
12
12
12
12
12
12
12
12
12
12
12
12
12
12
12
12
12
12
12
12
12
12
12
12
12
12
12
12
12
12
12
12
12
12
12
12
12
12
12
12
12
12
12
12
12
12
12
12
12
12
12
12
12
12
12
12
12
12
12
12
12
12
12
12
12
12
12
12
12
12
12
12
12
12
12
12
12
12
12
12
12
12
12
12
12
12
12
12
12
12
12
12
12
12
12
12
12
12
12
12
12
12
12
12
12
12
12
12
12
12
12
12
12
12
12
12
12
12
12
12
12
12
12
12
12
12
12
12
12
12
12
12
12
12
12
12
12
12
12
12
12
12
12
12
12
12
12
12
12
12
12
12
12
12
12
12
12
12
12
12
12
12
12
12
12
12
12
12
12
12
12
12
12
12
12
12
12
12
12
12
12
12
12
12
12
12
12
12
12
12
12
12
12
12
12
12
12
12
12
12
12
12
12
12
12
12
12
12
12
12
12
12
12
12
12
12
12
12
12
12
12
12
12
12
12
12
12
12
12
12
12
12
12
12
12
12
12
12
12
12
12
12
12
12
12
12
12
12
12
12
12
12
12
12
12
12
12
12
12
12
12
12
12
12
12
12
12
12
12
12
12
12
12
12
12
12
12
12
12
12
12
12
12
12
12
12
12
12
12
12
12
12
12
12
12
12
12
12
12
12
12
12
12
12
12
12
12
12
12
12
12
12
12
12
12
12
12
12
12
12
12
12
12
12

POINT_DATA 3012
SCALARS Jp_lamdaP float 4
LOOKUP_TABLE default
1 1 1 1
1 1 1 1
1 1 1 1
1 1 1 1
1 1 1 1
1 1 1 1
1 1 1 1
1 1 1 1
1 1 1 1
1 1 1 1
1 1 1 1
1 1 1 1
1 1 1 1
1 1 1 1
1 1 1 1
1 1 1 1
1 1 1 1
1 1 1 1
1 1 1 1
1 1 1 1
1 1 1 1
1 1 1 1
0.999999 1 1 0.999999
1 1 1 1
1 1 1 1
1 1 1 1
0.999999 1 1 0.999999
1 1 1 1
1 1 1 1
1 1 1 1
1 1 1 1
1 1 1 1
1 1 1 1
1 1 1 1
1 1 1 1
1 1 1 1
1 1 1 1
1 1 1 1
1 1 1 1
1 1 1 1
1 1 1 1
1 1 1 1
1 1 1 1
1 1 1 1
1 1 1 1
1 1 1 1
1 1 1 1
1 1 1 1
1 1 1 1
1 1 1 1
1 1 1 1
1 1 1 1
1 1 1 1
1 1 1 1
1 1 1 1
0.999999 1 1 0.999999
1 1 1 1
1 1 1 1
0.999998 1 1 0.999998
1 1 1 1
1 1 1 1
1 1 1 1
0.999998 1 1 0.999998
0.999999 1 1 0.999999
0.999994 1 1 0.999994
0.999996 1 1 0.999996
1 1 1 1
1 1 1 1
1 1 1 1
0.999989 1 1 0.999989
1 1 1 1
1 1 1 1
1 1 1 1
1 1 1 1
1 1 1 1
1 1 1 1
1 1 1 1
1 1 1 1
1 1 1 1
1 1 1 1
1 1 1 1
1 1 1 1
1 1 1 1
1 1 1 1
1 1 1 1
0.999996 1 1 0.999996
1 1 1 1
0.999999 1 1 0.999999
1 1 1 1
0.999994 1 1 0.999994
1 1 1 1
1 1 1 1
1 1 1 1
1 1 1 1
1 1 1 1
1 1 1 1
1 1 1 1
1 1 1 1
1 1 1 1
1 1 1 1
1 1 1 1
1 1 1 1
0.999992 1 1 0.999992
1 1 1 1
0.999992 1 1 0.999992
1 1 1 1
1 1 1 1
1 1 1 1
1 1 1 1
0.999999 1 1 0.999999
1 1 1 1
1 1 1 1
0.999998 1 1 0.999998
1 1 1 1
1 1 1 1
0.999999 1 1 0.999999
0.999998 1 1 0.999998
1 1 1 1
1 1 1 1
1 1 1 1
0.999993 1 1 0.999993
0.999999 1 1 0.999999
0.999997 1 1 0.999997
0.999989 1 1 0.999989
1 1 1 1
0.999998 1 1 0.999998
0.999991 1 1 0.999991
0.999991 1 1 0.999991
0.999994 1 1 0.999994
0.999984 1 1 0.999984
1 1 1 1
0.999988 1 1 0.999988
1 1 1 1
1 1 1 1
0.999991 1 1 0.999991
0.999984 1 1 0.999984
1 1 1 1
1 1 1 1
1 1 1 1
1 1 1 1
1 1 1 1
1 1 1 1
1 1 1 1
1 1 1 1
1 1 1 1
1 1 1 1
1 1 1 1
1 1 1 1
1 1 1 1
0.999996 1 1 0.999996
1 1 1 1
1 1 1 1
1 1 1 1
0.999994 1 1 0.999994
1 1 1 1
1 1 1 1
1 1 1 1
0.999994 1 1 0.999994
0.999998 1 1 0.999998
0.999986 1 1 0.999986
1 1 1 1
0.999991 1 1 0.999991
0.999996 1 1 0.999996
0.999989 1 1 0.999989
1 1 1 1
1 1 1 1
1 1 1 1
1 1 1 1
1 1 1 1
1 1 1 1
1 1 1 1
1 1 1 1
1 1 1 1
1 1 1 1
1 1 1 1
1 1 1 1
1 1 1 1
0.999992 1 1 0.999992
1 1 1 1
0.999992 1 1 0.999992
1 1 1 1
0.999994 1 1 0.999994
0.999991 1 1 0.999991
0.999986 1 1 0.999986
0.999993 1 1 0.999993
0.999984 1 1 0.999984
1 1 1 1
1 1 1 1
0.999998 1 1 0.999998
0.999998 1 1 0.999998
1 1 1 1
1 1 1 1
1 1 1 1
0.999992 1 1 0.999992
0.999997 1 1 0.999997
0.999999 1 1 0.999999
0.999989 1 1 0.999989
1 1 1 1
0.999998 1 1 0.999998
0.99999 1 1 0.99999
0.999992 1 1 0.999992
1 1 1 1
1 1 1 1
1 1 1 1
0.999994 1 1 0.999994
0.999983 1 1 0.999983
0.99999 1 1 0.99999
0.999988 1 1 0.999988
0.999984 1 1 0.999984
1 1 1 1
1 1 1 1
0.999993 1 1 0.999993
0.99999 1 1 0.99999
0.999984 1 1 0.999984
0.999981 1 1 0.999981
0.999987 1 1 0.999987
0.99998 1 1 0.99998
1 1 1 1
0.999983 1 1 0.999983
1 1 1 1
0.999992 1 1 0.999992
0.999986 1 1 0.999986
0.999982 1 1 0.999982
1 1 1 1
1 1 1 1
0.999997 1 1 0.999997
1 1 1 1
1 1 1 1
1 1 1 1
1 1 1 1
0.999996 1 1 0.999996
1 1 1 1
1 1 1 1
1 1 1 1
0.999993 1 1 0.999993
1 1 1 1
1 1 1 1
1 1 1 1
0.999994 1 1 0.999994
0.999998 1 1 0.999998
0.999986 1 1 0.999986
1 1 1 1
0.999991 1 1 0.999991
0.999996 1 1 0.999996
0.999989 1 1 0.999989
1 1 1 1
1 1 1 1
1 1 1 1
0.999998 1 1 0.999998
0.999985 1 1 0.999985
0.999989 1 1 0.999989
0.999981 1 1 0.999981
0.999997 1 1 0.999997
0.999986 1 1 0.999986
0.999989 1 1 0.999989
0.999985 1 1 0.999985
1 1 1 1
1 1 1 1
1 1 1 1
1 1 1 1
1 1 1 1
1 1 1 1
1 1 1 1
1 1 1 1
1 1 1 1
1 1 1 1
1 1 1 1
0.999992 1 1 0.999992
0.999992 1 1 0.999992
1 1 1 1
1 1 1 1
1 1 1 1
0.999994 1 1 0.999994
0.999991 1 1 0.999991
0.999986 1 1 0.999986
0.999993 1 1 0.999993
0.999984 1 1 0.999984
0.999994 1 1 0.999994
0.999988 1 1 0.999988
0.999984 1 1 0.999984
0.999983 1 1 0.999983
0.999985 1 1 0.999985
0.999982 1 1 0.999982
1 1 1 1
0.999998 1 1 0.999998
0.999989 1 1 0.999989
0.999992 1 1 0.999992
1 1 1 1
1 1 1 1
1 1 1 1
0.999994 1 1 0.999994
0.999983 1 1 0.999983
0.999989 1 1 0.999989
0.99999 1 1 0.99999
0.999984 1 1 0.999984
1 1 1 1
1 1 1 1
0.999992 1 1 0.999992
0.99999 1 1 0.99999
0.999984 1 1 0.999984
0.999982 1 1 0.999982
1 1 1 1
1 1 1 1
0.999993 1 1 0.999993
0.999987 1 1 0.999987
0.99998 1 1 0.99998
0.999985 1 1 0.999985
0.999983 1 1 0.999983
0.999982 1 1 0.999982
1 1 1 1
0.999997 1 1 0.999997
1 1 1 1
0.999987 1 1 0.999987
0.999983 1 1 0.999983
0.999982 1 1 0.999982
0.999978 1 1 0.999978
0.999982 1 1 0.999982
0.999979 1 1 0.999979
1 1 1 1
0.999981 1 1 0.999981
0.999995 1 1 0.999995
0.999986 1 1 0.999986
0.999982 1 1 0.999982
0.999983 1 1 0.999983
1 1 1 1
0.999997 1 1 0.999997
0.999996 1 1 0.999996
0.999991 1 1 0.999991
0.999994 1 1 0.999994
1 1 1 1
1 1 1 1
1 1 1 1
0.999999 1 1 0.999999
0.999986 1 1 0.999986
1 1 1 1
0.999996 1 1 0.999996
0.999992 1 1 0.999992
0.999988 1 1 0.999988
1 1 1 1
1 1 1 1
1 1 1 1
0.999998 1 1 0.999998
0.999985 1 1 0.999985
0.999989 1 1 0.999989
0.999981 1 1 0.999981
0.999997 1 1 0.999997
0.999986 1 1 0.999986
0.999989 1 1 0.999989
0.999985 1 1 0.999985
1 1 1 1
1 1 1 1
0.999998 1 1 0.999998
0.999998 1 1 0.999998
0.999991 1 1 0.999991
0.999982 1 1 0.999982
0.999983 1 1 0.999983
0.99998 1 1 0.99998
0.999989 1 1 0.999989
0.999983 1 1 0.999983
0.999983 1 1 0.999983
1 1 1 1
0.999998 1 1 0.999998
1 1 1 1
1 1 1 1
1 1 1 1
1 1 1 1
1 1 1 1
1 1 1 1
1 1 1 1
1 1 1 1
1 1 1 1
1 1 1 1
1 1 1 1
1 1 1 1
1 1 1 1
0.999993 1 1 0.999993
0.999991 1 1 0.999991
0.999984 1 1 0.999984
0.999986 1 1 0.999986
0.999993 1 1 0.999993
1 1 1 1
0.999994 1 1 0.999994
0.999988 1 1 0.999988
0.999984 1 1 0.999984
0.999983 1 1 0.999983
0.999985 1 1 0.999985
0.999982 1 1 0.999982
0.999989 1 1 0.999989
0.999986 1 1 0.999986
0.999982 1 1 0.999982
0.999982 1 1 0.999982
0.999982 1 1 0.999982
0.999982 1 1 0.999982
0.999992 1 1 0.999992
0.99999 1 1 0.99999
0.999985 1 1 0.999985
0.999983 1 1 0.999983
1 1 1 1
1 1 1 1
0.999993 1 1 0.999993
0.999987 1 1 0.999987
0.999979 1 1 0.999979
0.999983 1 1 0.999983
0.999984 1 1 0.999984
0.999982 1 1 0.999982
1 1 1 1
0.999996 1 1 0.999996
1 1 1 1
0.999987 1 1 0.999987
0.999983 1 1 0.999983
0.999981 1 1 0.999981
0.999979 1 1 0.999979
1 1 1 1
0.999995 1 1 0.999995
0.999986 1 1 0.999986
0.999982 1 1 0.999982
0.999979 1 1 0.999979
0.999982 1 1 0.999982
0.999981 1 1 0.999981
0.999983 1 1 0.999983
0.999997 1 1 0.999997
0.999991 1 1 0.999991
1 1 1 1
0.999996 1 1 0.999996
0.999984 1 1 0.999984
0.999979 1 1 0.999979
0.99998 1 1 0.99998
0.999978 1 1 0.999978
0.99998 1 1 0.99998
0.999979 1 1 0.999979
0.999996 1 1 0.999996
0.999982 1 1 0.999982
0.999987 1 1 0.999987
0.999983 1 1 0.999983
0.999982 1 1 0.999982
0.999984 1 1 0.999984
1 1 1 1
0.999996 1 1 0.999996
0.99999 1 1 0.99999
0.99999 1 1 0.99999
0.999987 1 1 0.999987
1 1 1 1
0.999985 1 1 0.999985
1 1 1 1
1 1 1 1
0.999998 1 1 0.999998
0.999989 1 1 0.999989
0.999981 1 1 0.999981
0.999997 1 1 0.999997
0.999988 1 1 0.999988
0.999987 1 1 0.999987
0.999986 1 1 0.999986
1 1 1 1
1 1 1 1
0.999998 1 1 0.999998
0.999998 1 1 0.999998
0.999991 1 1 0.999991
0.999981 1 1 0.999981
0.999983 1 1 0.999983
0.99998 1 1 0.99998
0.999989 1 1 0.999989
0.999984 1 1 0.999984
0.999983 1 1 0.999983
1 1 1 1
0.999998 1 1 0.999998
0.99999 1 1 0.99999
0.999991 1 1 0.999991
0.999987 1 1 0.999987
0.999982 1 1 0.999982
0.999981 1 1 0.999981
0.999984 1 1 0.999984
0.999984 1 1 0.999984
0.99998 1 1 0.99998
1 1 1 1
0.999997 1 1 0.999997
0.999998 1 1 0.999998
0.999992 1 1 0.999992
0.999998 1 1 0.999998
1 1 1 1
1 1 1 1
1 1 1 1
1 1 1 1
1 1 1 1
1 1 1 1
1 1 1 1
1 1 1 1
1 1 1 1
1 1 1 1
1 1 1 1
1 1 1 1
1 1 1 1
1 1 1 1
1 1 1 1
0.999985 1 1 0.999985
0.999984 1 1 0.999984
0.999982 1 1 0.999982
0.999984 1 1 0.999984
0.999988 1 1 0.999988
0.999994 1 1 0.999994
0.999989 1 1 0.999989
0.999986 1 1 0.999986
0.999982 1 1 0.999982
0.999981 1 1 0.999981
0.999982 1 1 0.999982
0.999982 1 1 0.999982
0.999987 1 1 0.999987
0.999985 1 1 0.999985
0.99998 1 1 0.99998
0.999979 1 1 0.999979
0.999983 1 1 0.999983
0.999981 1 1 0.999981
0.999987 1 1 0.999987
0.999983 1 1 0.999983
0.999981 1 1 0.999981
0.999979 1 1 0.999979
1 1 1 1
0.999995 1 1 0.999995
0.999987 1 1 0.999987
0.999982 1 1 0.999982
0.999979 1 1 0.999979
0.999981 1 1 0.999981
0.999982 1 1 0.999982
0.999983 1 1 0.999983
0.999997 1 1 0.999997
0.99999 1 1 0.99999
1 1 1 1
0.999996 1 1 0.999996
0.999984 1 1 0.999984
0.999979 1 1 0.999979
0.999979 1 1 0.999979
0.999978 1 1 0.999978
0.999996 1 1 0.999996
0.999988 1 1 0.999988
0.999983 1 1 0.999983
0.999981 1 1 0.999981
0.999978 1 1 0.999978
0.999982 1 1 0.999982
0.999982 1 1 0.999982
0.999985 1 1 0.999985
0.99999 1 1 0.99999
0.999986 1 1 0.999986
0.99999 1 1 0.99999
1 1 1 1
0.999996 1 1 0.999996
0.999983 1 1 0.999983
0.999978 1 1 0.999978
0.999977 1 1 0.999977
0.999981 1 1 0.999981
0.999989 1 1 0.999989
0.999985 1 1 0.999985
0.999983 1 1 0.999983
0.99998 1 1 0.99998
0.999982 1 1 0.999982
1 1 1 1
0.999996 1 1 0.999996
0.99999 1 1 0.99999
0.999986 1 1 0.999986
0.999986 1 1 0.999986
0.999984 1 1 0.999984
1 1 1 1
1 1 1 1
0.999981 1 1 0.999981
0.999998 1 1 0.999998
0.999998 1 1 0.999998
0.999991 1 1 0.999991
0.999983 1 1 0.999983
0.99998 1 1 0.99998
0.999989 1 1 0.999989
0.999983 1 1 0.999983
0.999984 1 1 0.999984
1 1 1 1
0.999998 1 1 0.999998
0.99999 1 1 0.99999
0.999991 1 1 0.999991
0.999987 1 1 0.999987
0.999982 1 1 0.999982
0.999981 1 1 0.999981
0.999984 1 1 0.999984
0.999984 1 1 0.999984
0.99998 1 1 0.99998
0.999998 1 1 0.999998
0.999991 1 1 0.999991
0.999985 1 1 0.999985
0.999986 1 1 0.999986
0.999984 1 1 0.999984
0.999987 1 1 0.999987
0.999981 1 1 0.999981
0.999985 1 1 0.999985
0.999981 1 1 0.999981
0.999978 1 1 0.999978
1 1 1 1
0.999998 1 1 0.999998
0.999991 1 1 0.999991
0.999997 1 1 0.999997
0.999998 1 1 0.999998
0.999991 1 1 0.999991
0.999987 1 1 0.999987
0.999991 1 1 0.999991
0.999998 1 1 0.999998
1 1 1 1
1 1 1 1
1 1 1 1
1 1 1 1
1 1 1 1
1 1 1 1
1 1 1 1
1 1 1 1
1 1 1 1
1 1 1 1
1 1 1 1
1 1 1 1
1 1 1 1
1 1 1 1
1 1 1 1
0.999982 1 1 0.999982
0.999982 1 1 0.999982
0.999981 1 1 0.999981
0.999981 1 1 0.999981
0.999987 1 1 0.999987
0.999989 1 1 0.999989
0.999987 1 1 0.999987
0.999985 1 1 0.999985
0.99998 1 1 0.99998
0.999978 1 1 0.999978
0.999983 1 1 0.999983
0.999981 1 1 0.999981
0.999988 1 1 0.999988
0.999983 1 1 0.999983
0.999978 1 1 0.999978
0.999985 1 1 0.999985
0.999984 1 1 0.999984
0.99998 1 1 0.99998
0.999978 1 1 0.999978
0.999978 1 1 0.999978
0.999996 1 1 0.999996
0.999988 1 1 0.999988
0.999982 1 1 0.999982
0.999981 1 1 0.999981
0.999978 1 1 0.999978
0.999982 1 1 0.999982
0.999982 1 1 0.999982
0.999985 1 1 0.999985
0.99999 1 1 0.99999
0.999986 1 1 0.999986
0.99999 1 1 0.99999
1 1 1 1
0.999996 1 1 0.999996
0.999982 1 1 0.999982
0.999978 1 1 0.999978
0.999977 1 1 0.999977
0.999989 1 1 0.999989
0.999984 1 1 0.999984
0.99998 1 1 0.99998
0.99998 1 1 0.99998
0.999983 1 1 0.999983
0.999985 1 1 0.999985
1 1 1 1
0.999986 1 1 0.999986
0.999984 1 1 0.999984
0.999986 1 1 0.999986
0.99999 1 1 0.99999
0.999996 1 1 0.999996
0.999981 1 1 0.999981
0.999977 1 1 0.999977
0.999979 1 1 0.999979
0.999984 1 1 0.999984
0.999985 1 1 0.999985
0.999985 1 1 0.999985
0.99998 1 1 0.99998
0.999979 1 1 0.999979
1 1 1 1
0.999996 1 1 0.999996
0.999991 1 1 0.999991
0.999985 1 1 0.999985
0.999983 1 1 0.999983
0.999982 1 1 0.999982
1 1 1 1
0.999998 1 1 0.999998
0.999982 1 1 0.999982
0.999991 1 1 0.999991
0.999991 1 1 0.999991
0.999986 1 1 0.999986
0.999981 1 1 0.999981
0.999984 1 1 0.999984
0.999983 1 1 0.999983
0.99998 1 1 0.99998
0.999998 1 1 0.999998
0.999991 1 1 0.999991
0.999986 1 1 0.999986
0.999987 1 1 0.999987
0.999984 1 1 0.999984
0.999987 1 1 0.999987
0.999981 1 1 0.999981
0.999986 1 1 0.999986
0.999981 1 1 0.999981
0.999977 1 1 0.999977
0.99999 1 1 0.99999
0.999986 1 1 0.999986
0.999982 1 1 0.999982
0.999983 1 1 0.999983
0.999987 1 1 0.999987
0.999989 1 1 0.999989
0.999979 1 1 0.999979
0.999977 1 1 0.999977
0.999998 1 1 0.999998
0.999991 1 1 0.999991
0.999987 1 1 0.999987
0.999998 1 1 0.999998
0.999991 1 1 0.999991
0.999998 1 1 0.999998
0.999986 1 1 0.999986
0.999991 1 1 0.999991
0.999984 1 1 0.999984
0.999986 1 1 0.999986
0.999991 1 1 0.999991
0.999998 1 1 0.999998
1 1 1 1
1 1 1 1
1 1 1 1
1 1 1 1
1 1 1 1
1 1 1 1
1 1 1 1
1 1 1 1
1 1 1 1
1 1 1 1
1 1 1 1
1 1 1 1
1 1 1 1
1 1 1 1
1 1 1 1
0.999983 1 1 0.999983
0.99998 1 1 0.99998
0.99998 1 1 0.99998
0.999977 1 1 0.999977
0.999985 1 1 0.999985
0.999987 1 1 0.999987
0.999987 1 1 0.999987
0.999983 1 1 0.999983
0.999978 1 1 0.999978
0.999985 1 1 0.999985
0.999986 1 1 0.999986
0.999981 1 1 0.999981
0.999982 1 1 0.999982
0.999981 1 1 0.999981
0.999978 1 1 0.999978
0.999978 1 1 0.999978
0.999989 1 1 0.999989
0.999984 1 1 0.999984
0.99998 1 1 0.99998
0.99998 1 1 0.99998
0.999985 1 1 0.999985
0.999983 1 1 0.999983
0.999986 1 1 0.999986
0.999984 1 1 0.999984
0.999986 1 1 0.999986
1 1 1 1
0.999991 1 1 0.999991
0.999996 1 1 0.999996
0.999982 1 1 0.999982
0.999977 1 1 0.999977
0.999979 1 1 0.999979
0.999985 1 1 0.999985
0.99998 1 1 0.99998
0.999979 1 1 0.999979
0.999984 1 1 0.999984
0.999985 1 1 0.999985
1 1 1 1
0.999996 1 1 0.999996
0.999983 1 1 0.999983
0.999982 1 1 0.999982
0.999985 1 1 0.999985
0.999991 1 1 0.999991
0.999983 1 1 0.999983
0.999975 1 1 0.999975
0.999984 1 1 0.999984
0.999987 1 1 0.999987
0.999981 1 1 0.999981
0.999981 1 1 0.999981
0.999978 1 1 0.999978
1 1 1 1
0.999998 1 1 0.999998
0.999996 1 1 0.999996
0.99999 1 1 0.99999
0.999985 1 1 0.999985
0.999981 1 1 0.999981
0.999981 1 1 0.999981
0.99998 1 1 0.99998
0.999998 1 1 0.999998
0.999991 1 1 0.999991
0.999987 1 1 0.999987
0.999987 1 1 0.999987
0.999986 1 1 0.999986
0.999984 1 1 0.999984
0.999981 1 1 0.999981
0.999987 1 1 0.999987
0.99998 1 1 0.99998
0.999976 1 1 0.999976
0.99999 1 1 0.99999
0.999986 1 1 0.999986
0.999983 1 1 0.999983
0.999983 1 1 0.999983
0.999987 1 1 0.999987
0.999988 1 1 0.999988
0.999979 1 1 0.999979
0.999977 1 1 0.999977
0.999986 1 1 0.999986
0.999986 1 1 0.999986
0.999983 1 1 0.999983
0.99998 1 1 0.99998
0.999991 1 1 0.999991
0.99998 1 1 0.99998
0.999976 1 1 0.999976
0.999992 1 1 0.999992
0.999987 1 1 0.999987
0.999983 1 1 0.999983
0.999998 1 1 0.999998
0.999991 1 1 0.999991
0.999986 1 1 0.999986
0.999998 1 1 0.999998
0.999991 1 1 0.999991
0.999983 1 1 0.999983
0.999986 1 1 0.999986
0.999982 1 1 0.999982
0.999982 1 1 0.999982
0.999987 1 1 0.999987
0.999991 1 1 0.999991
0.999997 1 1 0.999997
1 1 1 1
1 1 1 1
1 1 1 1
1 1 1 1
1 1 1 1
1 1 1 1
1 1 1 1
1 1 1 1
1 1 1 1
1 1 1 1
1 1 1 1
1 1 1 1
1 1 1 1
1 1 1 1
1 1 1 1
1 1 1 1
0.999984 1 1 0.999984
0.999979 1 1 0.999979
0.999983 1 1 0.999983
0.999986 1 1 0.999986
0.999986 1 1 0.999986
0.999981 1 1 0.999981
0.999983 1 1 0.999983
0.999985 1 1 0.999985
0.999982 1 1 0.999982
0.99999 1 1 0.99999
0.999983 1 1 0.999983
0.999976 1 1 0.999976
0.999978 1 1 0.999978
0.999985 1 1 0.999985
0.999981 1 1 0.999981
0.99998 1 1 0.99998
0.999985 1 1 0.999985
0.999985 1 1 0.999985
0.999983 1 1 0.999983
0.999982 1 1 0.999982
0.999985 1 1 0.999985
1 1 1 1
0.999996 1 1 0.999996
0.99999 1 1 0.99999
0.999982 1 1 0.999982
1 1 1 1
0.999997 1 1 0.999997
0.999975 1 1 0.999975
0.999983 1 1 0.999983
0.999981 1 1 0.999981
0.999978 1 1 0.999978
0.999981 1 1 0.999981
0.999987 1 1 0.999987
0.999997 1 1 0.999997
0.999989 1 1 0.999989
0.999981 1 1 0.999981
0.99998 1 1 0.99998
0.999981 1 1 0.999981
0.999985 1 1 0.999985
0.999975 1 1 0.999975
0.999978 1 1 0.999978
0.99999 1 1 0.99999
0.999984 1 1 0.999984
0.99998 1 1 0.99998
0.999978 1 1 0.999978
0.999997 1 1 0.999997
0.999998 1 1 0.999998
0.999992 1 1 0.999992
0.999988 1 1 0.999988
0.999985 1 1 0.999985
0.999979 1 1 0.999979
0.999978 1 1 0.999978
0.99998 1 1 0.99998
0.99999 1 1 0.99999
0.999986 1 1 0.999986
0.999986 1 1 0.999986
0.999988 1 1 0.999988
0.999983 1 1 0.999983
0.999983 1 1 0.999983
0.99998 1 1 0.99998
0.999976 1 1 0.999976
0.999986 1 1 0.999986
0.999988 1 1 0.999988
0.999982 1 1 0.999982
0.999979 1 1 0.999979
0.999991 1 1 0.999991
0.99998 1 1 0.99998
0.999975 1 1 0.999975
0.999982 1 1 0.999982
0.999994 1 1 0.999994
0.99998 1 1 0.99998
0.999976 1 1 0.999976
0.99998 1 1 0.99998
0.999973 1 1 0.999973
0.998665 1 0.998695 0.999969
0.999987 1 1 0.999987
0.999983 1 1 0.999983
0.999981 1 1 0.999981
0.999998 1 1 0.999998
0.999991 1 1 0.999991
0.999987 1 1 0.999987
0.999983 1 1 0.999983
0.999997 1 1 0.999997
0.99999 1 1 0.99999
0.999982 1 1 0.999982
0.999987 1 1 0.999987
0.999983 1 1 0.999983
0.999981 1 1 0.999981
0.999983 1 1 0.999983
0.999987 1 1 0.999987
0.999989 1 1 0.999989
0.999996 1 1 0.999996
0.999991 1 1 0.999991
0.999996 1 1 0.999996
1 1 1 1
1 1 1 1
1 1 1 1
1 1 1 1
1 1 1 1
1 1 1 1
1 1 1 1
1 1 1 1
1 1 1 1
1 1 1 1
1 1 1 1
1 1 1 1
1 1 1 1
1 1 1 1
1 1 1 1
1 1 1 1
1 1 1 1
0.999984 1 1 0.999984
0.999981 1 1 0.999981
0.999987 1 1 0.999987
0.999985 1 1 0.999985
0.999982 1 1 0.999982
0.999995 1 1 0.999995
0.999983 1 1 0.999983
0.999999 1 1 0.999999
1 1 1 1
0.999999 1 1 0.999999
0.999981 1 1 0.999981
0.999976 1 1 0.999976
0.999982 1 1 0.999982
0.999982 1 1 0.999982
0.999978 1 1 0.999978
0.999981 1 1 0.999981
0.999988 1 1 0.999988
0.999981 1 1 0.999981
0.99998 1 1 0.99998
0.999981 1 1 0.999981
1 1 1 1
0.999985 1 1 0.999985
0.999998 1 1 0.999998
0.999989 1 1 0.999989
0.999997 1 1 0.999997
0.999974 1 1 0.999974
0.999998 1 1 0.999998
0.999998 1 1 0.999998
0.999991 1 1 0.999991
0.999978 1 1 0.999978
0.999989 1 1 0.999989
0.99998 1 1 0.99998
0.999978 1 1 0.999978
0.999984 1 1 0.999984
0.999989 1 1 0.999989
0.999985 1 1 0.999985
0.99998 1 1 0.99998
0.999979 1 1 0.999979
0.99998 1 1 0.99998
1.00001 1 1.00004 0.999968
0.999988 1 1 0.999988
0.999988 1 1 0.999988
0.999979 1 1 0.999979
0.999978 1 1 0.999978
0.99999 1 1 0.99999
0.999989 1 1 0.999989
0.999986 1 1 0.999986
0.999983 1 1 0.999983
0.99998 1 1 0.99998
0.999976 1 1 0.999976
0.999977 1 1 0.999977
0.999986 1 1 0.999986
0.999982 1 1 0.999982
0.999991 1 1 0.999991
0.99999 1 1 0.99999
0.999981 1 1 0.999981
0.999979 1 1 0.999979
0.999975 1 1 0.999975
0.999983 1 1 0.999983
0.999995 1 1 0.999995
0.99998 1 1 0.99998
0.999976 1 1 0.999976
0.999982 1 1 0.999982
0.999973 1 1 0.999973
0.999065 1.0001 0.998996 0.99997
0.99998 1 1 0.99998
0.999977 1 1 0.999977
0.999977 1 1 0.999977
0.999971 1 1 0.999971
0.999966 1 1 0.999966
0.983293 0.983684 0.999654 0.999948
0.999202 1.00047 0.99877 0.999959
0.99886 1 0.998908 0.999953
0.984428 0.98536 0.999044 1.00001
0.997952 0.999932 0.998018 1
0.999983 1 1 0.999983
0.999981 1 1 0.999981
0.99998 1 1 0.99998
0.999997 1 1 0.999997
0.99999 1 1 0.99999
0.999987 1 1 0.999987
0.999983 1 1 0.999983
0.999982 1 1 0.999982
0.999986 1 1 0.999986
0.999997 1 1 0.999997
0.99999 1 1 0.99999
0.999981 1 1 0.999981
0.999983 1 1 0.999983
0.999983 1 1 0.999983
0.99998 1 1 0.99998
0.999985 1 1 0.999985
0.999989 1 1 0.999989
0.999996 1 1 0.999996
0.99999 1 1 0.99999
0.999986 1 1 0.999986
0.99999 1 1 0.99999
0.99999 1 1 0.99999
0.999997 1 1 0.999997
0.999996 1 1 0.999996
1 1 1 1
1 1 1 1
1 1 1 1
1 1 1 1
1 1 1 1
1 1 1 1
1 1 1 1
1 1 1 1
1 1 1 1
1 1 1 1
1 1 1 1
1 1 1 1
1 1 1 1
1 1 1 1
1 1 1 1
1 1 1 1
1 1 1 1
1 1 1 1
0.999982 1 1 0.999982
0.999985 1 1 0.999985
0.999999 1 1 0.999999
0.999943 1 0.999944 0.999998
0.999983 1 1 0.999983
0.999998 1 1 0.999998
1.00002 1 1.00004 0.99998
0.999969 1 1 0.999969
1 1 1 1
0.999999 1 1 0.999999
0.999999 1 1 0.999999
0.999992 1 1 0.999992
0.999994 1 1 0.999994
0.999972 1 1 0.999972
0.999978 1 1 0.999978
0.999988 1 1 0.999988
0.99998 1 1 0.99998
0.999978 1 1 0.999978
0.999985 1 1 0.999985
0.99998 1 1 0.99998
0.999979 1 1 0.999979
0.99998 1 1 0.99998
0.999998 1 1 0.999998
0.999984 1 1 0.999984
0.999989 1 1 0.999989
0.999998 1 1 0.999998
0.99999 1 1 0.99999
1 1 1.00003 0.999969
0.999991 1 1 0.999991
0.999989 1 1 0.999989
0.999987 1 1 0.999987
0.999988 1 1 0.999988
0.999988 1 1 0.999988
0.999978 1 1 0.999978
0.999979 1 1 0.999979
0.999983 1 1 0.999983
0.999981 1 1 0.999981
0.999977 1 1 0.999977
0.999977 1 1 0.999977
1.00001 1 1.00003 0.999977
0.999994 1 1 0.999994
0.99998 1 1 0.99998
0.999977 1 1 0.999977
0.999984 1 1 0.999984
0.999983 1 1 0.999983
0.999977 1 1 0.999977
0.999973 1 1 0.999973
0.980942 0.982882 0.998061 0.999965
0.999983 1 1 0.999983
0.999979 1 1 0.999979
0.999996 1 1 0.999996
0.999984 1 1 0.999984
0.999972 1 1 0.999972
0.999976 1 1 0.999976
0.999539 1.00025 0.99932 0.99997
0.99998 1 1 0.99998
0.999977 1 1 0.999977
0.999978 1 1 0.999978
0.999971 1 1 0.999971
0.999968 1 1 0.999968
0.983056 0.984099 0.99899 0.99995
0.998843 1.00028 0.998624 0.999938
0.999224 1.00012 0.999149 0.999951
0.984504 0.985556 0.998934 1
0.998852 0.999946 0.998905 1
0.999979 1 1 0.999979
0.982937 0.983681 0.999245 0.999998
0.998917 0.999805 0.999111 1
0.99996 1 1 0.99996
0.999975 1 1 0.999975
0.999962 1 1 0.999962
1.00091 1 1.00097 0.999941
0.985 0.984953 1.00014 0.999905
1.00083 1.00055 1.00037 0.99992
0.985979 0.989109 0.99683 1.00001
0.999939 0.999975 0.999964 1
0.999981 1 1 0.999981
0.99998 1 1 0.99998
0.999979 1 1 0.999979
0.999997 1 1 0.999997
0.99999 1 1 0.99999
0.999985 1 1 0.999985
0.999983 1 1 0.999983
0.999981 1 1 0.999981
0.999996 1 1 0.999996
0.999983 1 1 0.999983
0.999985 1 1 0.999985
0.999989 1 1 0.999989
0.99998 1 1 0.99998
0.999981 1 1 0.999981
0.999979 1 1 0.999979
0.999984 1 1 0.999984
0.99999 1 1 0.99999
0.99999 1 1 0.99999
0.999986 1 1 0.999986
0.999985 1 1 0.999985
0.999986 1 1 0.999986
0.999983 1 1 0.999983
0.999985 1 1 0.999985
0.99999 1 1 0.99999
0.99999 1 1 0.99999
0.999997 1 1 0.999997
0.99999 1 1 0.99999
0.999997 1 1 0.999997
1 1 1 1
0.999996 1 1 0.999996
1 1 1 1
1 1 1 1
1 1 1 1
1 1 1 1
1 1 1 1
1 1 1 1
1 1 1 1
1 1 1 1
0.999999 1 1 0.999999
1 1 1 1
1 1 1 1
1 1 1 1
1 1 1 1
1 1 1 1
1 1 1 1
1 1 1 1
1 1 1 1
1 1 1 1
0.999879 1 0.999881 0.999998
0.999983 1 1 0.999983
0.999996 1 1 0.999996
0.999922 1 0.99994 0.999982
1.00004 1 1.00004 0.999999
1.00001 1 1.00003 0.999978
1.00013 1 1.00016 0.999974
0.999974 1 1 0.999974
0.98144 0.981901 0.999597 0.999933
0.982729 0.984906 0.997803 0.999986
0.997693 1.00001 0.997685 1
0.999992 1 1 0.999992
0.999999 1 1 0.999999
0.999999 1 1 0.999999
0.999992 1 1 0.999992
0.999987 1 1 0.999987
0.999989 1 1 0.999989
0.999993 1 1 0.999993
0.999993 1 1 0.999993
0.999996 1 1.00003 0.99997
0.999987 1 1 0.999987
0.999988 1 1 0.999988
0.999978 1 1 0.999978
0.99998 1 1 0.99998
0.999977 1 1 0.999977
0.999977 1 1 0.999977
0.999981 1 1 0.999981
0.99999 1 1 0.99999
0.999983 1 1 0.999983
0.999992 1 1 0.999992
0.999987 1 1 0.999987
1.00001 1 1.00004 0.999978
0.999984 1 1 0.999984
0.999984 1 1 0.999984
0.999993 1 1 0.999993
0.99998 1 1 0.99998
0.999976 1 1 0.999976
0.999977 1 1 0.999977
0.999974 1 1 0.999974
0.999988 1 1 0.999988
0.999982 1 1 0.999982
0.999974 1 1 0.999974
0.99997 1 1 0.99997
0.999979 1 1 0.999979
0.999978 1 1 0.999978
0.999972 1 1 0.999972
0.980388 0.98452 0.995784 1.00002
0.981661 0.982693 0.998987 0.999963
0.99998 1 1 0.99998
0.999978 1 1 0.999978
0.999978 1 1 0.999978
0.99997 1 1 0.99997
0.999971 1 1 0.999971
0.983252 0.98366 0.999654 0.999931
0.998573 1.00005 0.998566 0.999962
0.999513 1.0002 0.999368 0.999949
0.982774 0.984959 0.997798 0.999984
0.99964 0.99996 0.99968 1
0.999979 1 1 0.999979
0.982571 0.985245 0.99727 1.00002
0.999201 0.999815 0.999385 1
0.99996 1 1 0.99996
0.999975 1 1 0.999975
0.999963 1 1 0.999963
1.00082 1 1.00088 0.999941
0.984432 0.984514 1.00003 0.99989
0.999608 1.00026 0.999399 0.999949
0.986315 0.988747 0.997568 0.999972
0.999814 0.999965 0.99985 1
0.999978 1 1 0.999978
0.999728 0.999763 0.999965 1
1.00007 0.999959 1.00011 1
1.00051 1 1.00056 0.999953
0.999971 1 1 0.999971
1.00193 1 1.00198 0.999957
1.00365 1 1.00371 0.999948
0.98942 0.988429 1.00112 0.999883
0.992108 0.995864 0.996263 0.999965
0.999911 0.999915 0.999997 1
0.99998 1 1 0.99998
0.999979 1 1 0.999979
0.999977 1 1 0.999977
0.999996 1 1 0.999996
0.99999 1 1 0.99999
0.999986 1 1 0.999986
0.999983 1 1 0.999983
0.99998 1 1 0.99998
0.99999 1 1 0.99999
0.999982 1 1 0.999982
0.999984 1 1 0.999984
0.999978 1 1 0.999978
0.999977 1 1 0.999977
0.99998 1 1 0.99998
0.999984 1 1 0.999984
0.99999 1 1 0.99999
0.999985 1 1 0.999985
0.999985 1 1 0.999985
0.999986 1 1 0.999986
0.999983 1 1 0.999983
0.999985 1 1 0.999985
0.999982 1 1 0.999982
0.999982 1 1 0.999982
0.999982 1 1 0.999982
0.999984 1 1 0.999984
0.999985 1 1 0.999985
0.999985 1 1 0.999985
0.99999 1 1 0.99999
0.99999 1 1 0.99999
0.999997 1 1 0.999997
0.99999 1 1 0.99999
0.999997 1 1 0.999997
1 1 1 1
0.999996 1 1 0.999996
1 1 1 1
1 1 1 1
1 1 1 1
1 1 1 1
1 1 1 1
1 1 1 1
1 1 1 1
1 1 1 1
0.999999 1 1 0.999999
1 1 1 1
0.999999 1 1 0.999999
1 1 1 1
1 1 1 1
1 1 1 1
1 1 1 1
1 1 1 1
1 1 1 1
1 1 1 1
1 1 1 1
0.98152 0.984202 0.997256 1.00002
0.99993 0.999922 1.00001 1
0.999964 1 0.999979 0.999985
1.00008 1 1.00008 0.999999
1 1 1.00003 0.999975
1.00003 1 1.00004 0.999994
1.00006 1 1.00009 0.999975
0.981369 0.982465 0.998934 0.99995
0.984076 0.985676 0.998364 1.00001
0.998726 0.99998 0.998745 1
1.00014 1 1.00017 0.999972
0.984991 0.984132 1.00096 0.999916
0.986009 0.98891 0.997059 1.00001
0.999197 1.00036 0.998834 1
0.999986 1 1 0.999986
0.999993 1 1 0.999993
0.999999 1 1 0.999999
0.999992 1 1 0.999992
0.999988 1 1 0.999988
0.999987 1 1 0.999987
0.999989 1 1 0.999989
0.999991 1 1 0.999991
0.999992 1 1 0.999992
0.999993 1 1 0.999993
1.00002 1 1.00004 0.999978
0.999993 1 1 0.999993
0.999981 1 1 0.999981
0.999976 1 1 0.999976
0.999974 1 1 0.999974
0.999977 1 1 0.999977
0.999984 1 1 0.999984
0.999985 1 1 0.999985
0.999988 1 1 0.999988
0.999979 1 1 0.999979
0.999977 1 1 0.999977
0.999984 1 1 0.999984
0.999973 1 1 0.999973
0.99997 1 1 0.99997
0.999971 1 1 0.999971
0.99998 1 1 0.99998
0.999967 1 1 0.999967
0.999966 1 1 0.999966
0.999979 1 1 0.999979
0.999975 1 1 0.999975
0.999973 1 1 0.999973
0.999166 0.999855 0.99931 1
0.980679 0.983278 0.997354 1
0.981741 0.983633 0.998115 0.999962
0.999979 1 1 0.999979
0.999975 1 1 0.999975
0.99996 1 1 0.99996
0.999963 1 1 0.999963
0.981186 0.984533 0.996602 0.999998
0.984763 0.984823 1 0.999939
0.998503 1.00002 0.998565 0.999921
1.00078 1 1.00084 0.99994
0.987628 0.989193 0.998413 1
0.998709 0.999824 0.998884 1
0.999099 1.0003 0.998801 1
0.999978 1 1 0.999978
0.999426 0.999835 0.99959 1
1.00005 0.999938 1.00011 1
1.00053 1 1.00057 0.999952
0.999971 1 1 0.999971
1.00175 1 1.0018 0.999949
1.00368 1 1.00376 0.999923
0.98779 0.987207 1.00072 0.999875
0.994455 0.996274 0.998174 1
0.999848 1.00017 0.999678 1
0.999976 1 1 0.999976
0.999972 0.999972 1 1
0.999944 0.999912 1.00003 1
1.00066 1 1.00069 0.999971
1.0065 1 1.00654 0.99996
0.995827 0.992957 1.003 0.999888
0.990075 1.0004 0.989685 0.999995
0.999926 0.999981 0.999946 1
0.999979 1 1 0.999979
0.999977 1 1 0.999977
0.999975 1 1 0.999975
0.99999 1 1 0.99999
0.999984 1 1 0.999984
0.999982 1 1 0.999982
0.999978 1 1 0.999978
0.999984 1 1 0.999984
0.99998 1 1 0.99998
0.999977 1 1 0.999977
0.999977 1 1 0.999977
0.999977 1 1 0.999977
0.999981 1 1 0.999981
0.999985 1 1 0.999985
0.999985 1 1 0.999985
0.999984 1 1 0.999984
0.999982 1 1 0.999982
0.999985 1 1 0.999985
0.999982 1 1 0.999982
0.999981 1 1 0.999981
0.99998 1 1 0.99998
0.99998 1 1 0.99998
0.999982 1 1 0.999982
0.999982 1 1 0.999982
0.999982 1 1 0.999982
0.999988 1 1 0.999988
0.999985 1 1 0.999985
0.999986 1 1 0.999986
0.99999 1 1 0.99999
0.999985 1 1 0.999985
0.99999 1 1 0.99999
0.999998 1 1 0.999998
0.99999 1 1 0.99999
0.999997 1 1 0.999997
1 1 1 1
0.999997 1 1 0.999997
1 1 1 1
1 1 1 1
1 1 1 1
1 1 1 1
1 1 1 1
1 1 1 1
1 1 1 1
1 1 1 1
0.999997 1 1 0.999997
1 1 1 1
0.999998 1 1 0.999998
1 1 1 1
1 1 1 1
0.999999 1 1 0.999999
1 1 1 1
1 1 1 1
1 1 1 1
1 1 1 1
1 1 1 1
1 1 1 1
0.999848 0.99988 0.999968 1
0.980684 0.983124 0.997509 1.00001
1.0001 0.999955 1.00015 1
0.999812 0.999909 0.999903 1
1.00007 1 1.00009 0.999978
1.00002 1 1.00004 0.999975
0.982223 0.982658 0.999586 0.999972
0.982525 0.984664 0.997841 0.999987
0.999657 0.999948 0.99971 1
1.00002 1 1.00005 0.999971
0.985298 0.984747 1.00065 0.999909
0.9862 0.988416 0.997785 0.999973
0.999252 0.999944 0.999308 1
1.00127 1 1.00131 0.999957
0.991963 0.988467 1.00366 0.999876
0.994623 0.995803 0.998813 1
0.999817 0.999794 1.00002 1
0.999982 1 1 0.999982
0.999986 1 1 0.999986
0.999993 1 1 0.999993
0.999989 1 1 0.999989
0.999985 1 1 0.999985
0.999988 1 1 0.999988
0.99999 1 1 0.99999
0.999991 1 1 0.999991
0.999992 1 1 0.999992
0.999992 1 1 0.999992
0.999988 1 1 0.999988
0.999986 1 1 0.999986
0.999972 1 1 0.999972
0.999971 1 1 0.999971
0.999971 1 1 0.999971
0.999977 1 1 0.999977
0.999978 1 1 0.999978
0.999979 1 1 0.999979
0.99998 1 1 0.99998
0.999976 1 1 0.999976
0.999972 1 1 0.999972
0.999968 1 1 0.999968
0.999966 1 1 0.999966
0.999964 1 1 0.999964
0.999961 1 1 0.999961
0.999967 1 1 0.999967
0.999976 1 1 0.999976
0.999973 1 1 0.999973
0.999967 0.999967 1 1
0.999561 0.999858 0.999703 1
0.980981 0.98452 0.996387 1.00002
0.999978 1 1 0.999978
0.999971 1 1 0.999971
1.00052 1 1.00057 0.999951
0.999876 0.999901 0.999975 1
0.989481 0.988529 1.00109 0.999875
1.00329 1 1.00335 0.999948
1.00155 1 1.00161 0.999941
0.991526 0.994037 0.997504 0.99997
1.00004 0.999924 1.00011 1
0.999889 1.00012 0.999769 1
0.999977 1 1 0.999977
1.00002 1.00002 1 1
0.999935 0.999914 1.00002 1
1.00075 1 1.00078 0.999969
1.00694 1 1.00698 0.999959
0.997111 0.994663 1.00258 0.999884
0.999933 0.999938 0.999995 1
0.99389 0.999613 0.994289 0.999985
0.999974 1 1 0.999974
1.00003 1.00003 1 1
0.999952 0.999939 1.00001 1
0.999852 0.999789 1.00006 1
1.00332 1 1.00335 0.999976
1.00893 0.99787 1.01117 0.999914
0.984407 1.00051 0.983913 0.999992
0.999978 1 1 0.999978
0.999975 1 1 0.999975
0.999975 1 1 0.999975
0.999984 1 1 0.999984
0.99998 1 1 0.99998
0.999977 1 1 0.999977
0.999981 1 1 0.999981
0.999977 1 1 0.999977
0.999977 1 1 0.999977
0.999978 1 1 0.999978
0.999978 1 1 0.999978
0.999982 1 1 0.999982
0.999985 1 1 0.999985
0.999982 1 1 0.999982
0.99998 1 1 0.99998
0.999981 1 1 0.999981
0.999979 1 1 0.999979
0.999981 1 1 0.999981
0.999977 1 1 0.999977
0.999982 1 1 0.999982
0.999982 1 1 0.999982
0.999979 1 1 0.999979
0.999982 1 1 0.999982
0.999987 1 1 0.999987
0.999982 1 1 0.999982
0.999991 1 1 0.999991
0.999987 1 1 0.999987
0.999985 1 1 0.999985
0.999986 1 1 0.999986
0.99999 1 1 0.99999
0.999998 1 1 0.999998
0.99999 1 1 0.99999
0.999998 1 1 0.999998
1 1 1 1
0.999997 1 1 0.999997
1 1 1 1
1 1 1 1
1 1 1 1
1 1 1 1
1 1 1 1
1 1 1 1
1 1 1 1
1 1 1 1
0.999997 1 1 0.999997
1 1 1 1
0.999997 1 1 0.999997
1 1 1 1
1 1 1 1
0.999998 1 1 0.999998
1 1 1 1
1 1 1 1
1 1 1 1
1 1 1 1
1 1 1 1
1 1 1 1
0.999924 0.999915 1.00001 1
0.999055 0.999871 0.999183 1
0.98163 0.982618 0.998991 1
0.999989 1 1 0.999989
1.00007 1.00007 1 1
1.00006 0.999954 1.0001 1
0.998781 0.999896 0.998883 1
0.999962 1 1 0.999962
0.985653 0.984201 1.00158 0.999897
0.987558 0.988865 0.998673 1.00001
0.998801 0.999999 0.998802 1
1.00117 1 1.00123 0.999934
0.99086 0.98733 1.0037 0.999876
0.993633 0.995197 0.998446 0.999983
0.999798 1 0.999796 1
1.00387 1 1.00395 0.999922
0.998426 0.994011 1.00459 0.999847
0.996229 1 0.996259 0.99997
0.999977 1.00002 0.999952 1
0.999979 1 1 0.999979
0.999982 1 1 0.999982
0.999987 1 1 0.999987
0.999984 1 1 0.999984
0.999985 1 1 0.999985
0.999988 1 1 0.999988
0.999991 1 1 0.999991
0.999992 1 1 0.999992
0.99998 1 1 0.99998
0.999969 1 1 0.999969
0.999979 1 1 0.999979
0.999966 1 1 0.999966
0.999972 1 1 0.999972
0.999976 1 1 0.999976
0.999976 1 1 0.999976
0.999963 1 1 0.999963
0.999973 1 1 0.999973
0.999966 1 1 0.999966
0.999994 1 1.00003 0.999961
0.999975 1 1 0.999975
1.00103 1 1.00107 0.999956
0.999962 1 1 0.999962
0.99997 1 1 0.99997
0.999971 1 1 0.999971
1.00004 1.00004 1 1
0.999934 0.999934 1 1
0.999859 0.999861 0.999998 1
0.999978 1 1 0.999978
1.00085 1 1.00088 0.999966
1.00007 1.00007 1 1
0.996865 0.992976 1.00405 0.999871
1.0063 1 1.00636 0.99994
0.99348 0.999927 0.993575 0.999977
0.999924 0.999903 1.00002 1
0.999934 0.999883 1.00005 1
0.999974 1 1 0.999974
1.00003 1.00003 1 1
0.999986 0.999976 1.00001 1
1.00225 1 1.00227 0.999983
0.999772 1.00001 0.999766 1
1.00499 0.998963 1.00612 0.999918
0.98725 1.00039 0.986892 0.999974
0.999978 1 1 0.999978
1.00002 1.00002 0.999998 1
1.00007 1.00007 0.999999 1
0.999125 1.00038 0.998746 1
0.994745 0.999401 0.995367 0.999974
1.01116 1 1.01117 0.999989
1.00988 0.999214 1.01074 0.999928
0.999975 1 1 0.999975
0.999975 1 1 0.999975
0.999979 1 1 0.999979
0.999981 1 1 0.999981
0.999977 1 1 0.999977
0.999976 1 1 0.999976
0.999978 1 1 0.999978
0.999978 1 1 0.999978
0.999974 1 1 0.999974
0.99998 1 1 0.99998
0.999981 1 1 0.999981
0.999979 1 1 0.999979
0.999974 1 1 0.999974
0.999982 1 1 0.999982
0.999977 1 1 0.999977
0.999975 1 1 0.999975
0.999978 1 1 0.999978
0.999982 1 1 0.999982
0.999979 1 1 0.999979
0.999983 1 1 0.999983
0.999986 1 1 0.999986
0.999983 1 1 0.999983
0.999992 1 1 0.999992
0.999987 1 1 0.999987
0.999982 1 1 0.999982
0.999998 1 1 0.999998
0.999991 1 1 0.999991
0.999987 1 1 0.999987
0.999991 1 1 0.999991
0.999998 1 1 0.999998
1 1 1 1
0.999998 1 1 0.999998
1 1 1 1
1 1 1 1
1 1 1 1
1 1 1 1
1 1 1 1
1 1 1 1
1 1 1 1
1 1 1 1
0.999996 1 1 0.999996
1 1 1 1
0.999997 1 1 0.999997
1 1 1 1
1 1 1 1
0.999997 1 1 0.999997
1 1 1 1
1 1 1 1
1 1 1 1
1 1 1 1
1 1 1 1
1 1 1 1
1.00003 1.00003 1 1
0.999928 0.999921 1.00001 1
0.999191 0.999874 0.999316 1
0.99999 1 1 0.99999
0.999989 1 1 0.999989
0.999985 1 1 0.999985
0.999944 0.999936 1.00001 1
1.00008 1.00007 1 1
1.00001 0.999954 1.00005 1
1.00117 1 1.00122 0.999953
0.992147 0.988245 1.00407 0.999884
0.992855 0.995509 0.997368 0.999967
0.999874 0.999787 1.00009 1
1.00412 1 1.00417 0.999948
0.999404 0.99316 1.0064 0.999883
0.99626 1.00071 0.99556 0.999993
0.999946 0.999953 0.999993 1
1.0071 1 1.00713 0.999962
1.00285 0.998854 1.00411 0.999892
0.986426 1.00075 0.985701 0.999989
0.999925 0.999915 1.00001 1
0.999979 1 1 0.999979
0.999979 1 1 0.999979
0.999981 1 1 0.999981
0.999984 1 1 0.999984
0.999986 1 1 0.999986
0.999991 1 1 0.999991
0.999962 1 1 0.999962
1.00003 1 1.00006 0.999961
0.999976 1 1 0.999976
0.999966 1 1 0.999966
0.999972 1 1 0.999972
0.999975 1 1 0.999975
0.999971 1 1 0.999971
1.00068 1 1.00073 0.999955
0.99997 1 1 0.99997
0.999993 1 1.00003 0.999961
0.999971 1 1 0.999971
1.00244 1 1.00248 0.999959
0.999984 1 1.00002 0.999966
0.999966 1 1 0.999966
0.999964 0.999962 1 1
1.00002 1.00002 1 1
0.999899 0.999899 1 1
0.999975 1 1 0.999975
1.00455 1 1.00456 0.999985
1.00003 1.00003 1 1
1.0049 0.999747 1.0052 0.999949
0.984068 1.00028 0.983801 0.999993
1.00002 1.00002 1 1
0.999914 0.999781 1.00013 1
0.999977 1 1 0.999977
1 1 0.999999 1
1.00008 1.00008 1 1
1.01322 0.999981 1.01327 0.999971
0.999228 0.999941 0.999286 1
0.994673 1.00072 0.993964 0.999995
1.00214 0.999869 1.00235 0.999922
1.00004 1 1.00006 0.999983
1.00003 1.00003 1 1
1.00012 0.999949 1.00017 1
0.997549 0.999996 0.997552 1
0.994128 0.995463 0.998657 1
1.00686 0.998181 1.00879 0.999905
1.01935 0.99962 1.01978 0.99996
0.999975 1 1 0.999975
0.999979 1 1 0.999979
0.999989 1 1.00002 0.99997
0.999978 1 1 0.999978
0.999978 1 1 0.999978
0.999974 1 1 0.999974
0.999965 1 1 0.999965
0.999978 1 1 0.999978
0.999974 1 1 0.999974
0.99997 1 1 0.99997
0.999978 1 1 0.999978
0.999974 1 1 0.999974
0.999974 1 1 0.999974
0.999976 1 1 0.999976
0.999981 1 1 0.999981
0.999977 1 1 0.999977
0.999978 1 1 0.999978
0.999986 1 1 0.999986
0.999983 1 1 0.999983
0.999991 1 1 0.999991
0.999987 1 1 0.999987
0.999983 1 1 0.999983
0.999998 1 1 0.999998
0.999992 1 1 0.999992
0.999987 1 1 0.999987
1 1 1 1
0.999998 1 1 0.999998
0.999991 1 1 0.999991
0.999998 1 1 0.999998
1 1 1 1
1 1 1 1
1 1 1 1
1 1 1 1
1 1 1 1
1 1 1 1
1 1 1 1
1 1 1 1
0.999997 1 1 0.999997
1 1 1 1
0.999997 1 1 0.999997
1 1 1 1
1 1 1 1
0.999997 1 1 0.999997
1 1 1 1
1 1 1 1
1 1 1 1
1 1 1 1
1 1 1 1
1 1 1 1
1.00002 1.00002 0.999999 1
1.00003 1.00003 1 1
0.999916 0.999916 1 1
0.99999 1 1 0.99999
0.999988 1 1 0.999988
0.99999 1 1 0.99999
0.999989 1 1 0.999989
0.999984 1 1 0.999984
0.999985 1 1 0.999985
0.999981 1 1 0.999981
0.999957 0.999911 1.00005 1
0.999984 0.999983 1 1
1.00008 1.00008 1 1
0.99991 0.999886 1.00002 1
1.00334 1 1.00342 0.99992
1.0009 0.994903 1.00612 0.999909
0.98957 0.999741 0.989861 0.999964
1.0065 1 1.00656 0.999942
1.00256 0.998865 1.0038 0.999903
0.98947 1.00042 0.989091 0.999966
0.999903 1.00023 0.999672 1
1.01181 1 1.01184 0.999971
1.00833 1.0001 1.00832 0.999909
0.991524 1.00058 0.990957 0.999992
0.999935 0.99998 0.999955 1
0.999976 1 1 0.999976
0.999979 1 1 0.999979
0.99998 1 1 0.99998
0.999984 1 1 0.999984
1.00036 1 1.00041 0.999954
1.00003 1 1.00007 0.999961
0.999974 1 1 0.999974
0.99997 1 1 0.99997
0.999969 1 1 0.999969
0.999971 1 1 0.999971
0.999966 1 1 0.999966
1.00207 1 1.00211 0.99996
0.999993 1 1.00003 0.999967
0.999967 1 1 0.999967
1.0033 1 1.00333 0.999971
0.999959 1 1 0.999959
1.00004 1.00004 1 1
0.999983 0.999983 1 1
0.999998 0.999998 1 1
0.999977 1 1 0.999977
1.0111 1 1.01111 0.99999
0.999988 0.999989 1 1
1.01032 0.999116 1.01129 0.999924
0.987392 0.99941 0.988005 0.999969
1.00008 1.00008 1 1
0.998725 0.999997 0.998728 1
1.00002 1 1.00003 0.999984
1.00003 1.00003 1 1
1.00008 0.999948 1.00013 1
1.02417 1 1.02419 0.999974
0.998657 0.999971 0.998685 1
0.992699 0.9948 0.997904 0.999984
1.00552 0.998524 1.00709 0.999915
1.00138 1 1.00141 0.999972
0.999938 0.999911 1.00003 1
0.999935 0.999915 1.00002 1
0.985489 0.988578 0.996868 1.00001
0.99929 0.993533 1.00592 0.999877
1.01775 1 1.01781 0.999939
0.999979 1 1 0.999979
0.999982 1 1.00001 0.99997
1.00049 1 1.00053 0.999959
0.999975 1 1 0.999975
0.999966 1 1 0.999966
0.999961 1 1 0.999961
0.999973 1 1 0.999973
0.999969 1 1 0.999969
0.99997 1 1 0.99997
0.999974 1 1 0.999974
0.999973 1 1 0.999973
0.999975 1 1 0.999975
0.999978 1 1 0.999978
0.999979 1 1 0.999979
0.999976 1 1 0.999976
0.999984 1 1 0.999984
0.999981 1 1 0.999981
0.999977 1 1 0.999977
0.99999 1 1 0.99999
0.999986 1 1 0.999986
0.999984 1 1 0.999984
0.999998 1 1 0.999998
0.999991 1 1 0.999991
0.999988 1 1 0.999988
1 1 1 1
0.999998 1 1 0.999998
0.999992 1 1 0.999992
1 1 1 1
1 1 1 1
0.999998 1 1 0.999998
1 1 1 1
1 1 1 1
1 1 1 1
1 1 1 1
1 1 1 1
1 1 1 1
0.999991 1 1 0.999991
0.999998 1 1 0.999998
1 1 1 1
0.999997 1 1 0.999997
1 1 1 1
1 1 1 1
0.999997 1 1 0.999997
1 1 1 1
1 1 1 1
1 1 1 1
1 1 1 1
1 1 1 1
1 1 1 1
1.00003 1.00003 1 1
1 1 1 1
1.00003 1.00003 1 1
0.99999 1 1 0.99999
0.999987 1 1 0.999987
0.999987 1 1 0.999987
0.999986 1 1 0.999986
0.999985 1 1 0.999985
0.999989 1 1 0.999989
0.999984 1 1 0.999984
0.999985 1 1 0.999985
0.999981 1 1 0.999981
0.999981 1 1 0.999981
1.00007 0.999968 1.0001 1
0.999946 0.999912 1.00003 1
1.00002 1.00002 1 1
0.999968 1.00015 0.999815 1
0.986071 1.00049 0.985599 0.999989
1.00659 1 1.00666 0.999931
1.00711 0.998893 1.00832 0.999904
1.01327 1 1.01332 0.999947
0.99898 1 0.999074 0.999906
0.995696 0.999746 0.995969 0.999981
0.999813 0.999964 0.999849 1
1.01759 0.999999 1.01763 0.999955
1.00642 0.997616 1.00892 0.999904
0.992052 0.995525 0.996544 0.999967
0.998019 0.999938 0.998079 1
0.999977 1 1 0.999977
0.999976 1 1 0.999976
0.999978 1 1 0.999978
1.00169 1 1.00173 0.999961
1 1 1.00004 0.999967
0.999972 1 1 0.999972
0.999966 1 1 0.999966
0.999968 1 1 0.999968
0.999959 1 1 0.999959
1.0033 1 1.00333 0.999971
0.999964 1 1 0.999964
1.0011 1 1.00114 0.999964
0.999961 0.999961 1 1
1.00002 1.00002 1 1
1 1 1 1
0.999984 1 1 0.999984
1.02396 0.999941 1.02407 0.999955
1.00003 1.00003 1 1
1.00776 0.997834 1.01006 0.999891
0.992247 0.995151 0.997114 0.999967
1.00003 0.999949 1.00008 1
0.999659 0.999942 0.999717 1
1.00141 1 1.00144 0.999972
0.999935 0.999918 1.00002 1
0.999815 0.999903 0.999912 1
1.01909 0.999906 1.01923 0.999951
0.985789 0.988141 0.997647 0.999973
0.999539 0.992635 1.00709 0.999865
1.00268 1 1.00272 0.999959
0.999853 0.999875 0.999977 1
0.982638 0.985008 0.997608 0.999986
0.991325 0.988079 1.00341 0.999876
1.00868 1 1.00873 0.999945
0.999971 1 1 0.999971
1.00051 1 1.00055 0.999959
1.00045 1 1.00049 0.999956
0.999967 1 1 0.999967
0.999962 1 1 0.999962
0.999967 1 1 0.999967
0.999969 1 1 0.999969
0.99997 1 1 0.99997
0.999977 1 1 0.999977
0.999973 1 1 0.999973
0.999975 1 1 0.999975
0.999981 1 1 0.999981
0.999981 1 1 0.999981
0.999978 1 1 0.999978
0.999978 1 1 0.999978
0.999982 1 1 0.999982
0.999978 1 1 0.999978
0.999976 1 1 0.999976
0.999989 1 1 0.999989
0.999984 1 1 0.999984
0.999981 1 1 0.999981
0.999997 1 1 0.999997
0.99999 1 1 0.99999
0.999986 1 1 0.999986
1 1 1 1
0.999998 1 1 0.999998
0.999991 1 1 0.999991
1 1 1 1
1 1 1 1
0.999998 1 1 0.999998
1 1 1 1
1 1 1 1
1 1 1 1
1 1 1 1
1 1 1 1
1 1 1 1
0.999991 1 1 0.999991
0.999998 1 1 0.999998
0.999991 1 1 0.999991
1 1 1 1
0.999998 1 1 0.999998
1 1 1 1
1 1 1 1
0.999997 1 1 0.999997
1 1 1 1
1 1 1 1
1 1 1 1
1 1 1 1
1 1 1 1
1 1 1 1
1.00008 1.00008 1 1
1.00003 1.00003 1 1
0.999989 0.999989 1 1
0.999988 1 1 0.999988
0.999991 1 1 0.999991
0.999987 1 1 0.999987
0.999986 1 1 0.999986
0.999988 1 1 0.999988
0.999985 1 1 0.999985
0.999984 1 1 0.999984
0.999983 1 1 0.999983
0.999985 1 1 0.999985
0.999982 1 1 0.999982
0.999981 1 1 0.999981
0.999981 1 1 0.999981
0.998765 0.999796 0.998967 1
1.00005 0.999943 1.00011 1
0.999934 0.999915 1.00002 1
0.999098 1.00038 0.998724 1
0.99574 1.00029 0.995483 0.999968
1.0083 1.00009 1.0083 0.999909
1.01233 1 1.01235 0.999977
1.02239 1 1.02241 0.999977
0.998907 0.999939 0.998967 1
1.00004 0.998749 1.0014 0.999892
0.994007 0.9958 0.998199 1
1.00928 1 1.0093 0.999975
0.999094 0.992648 1.00661 0.999883
0.985923 0.988882 0.997 1.00001
0.999978 1 1 0.999978
0.999977 1 1 0.999977
0.999977 1 1 0.999977
1.00331 1 1.00334 0.999971
0.999959 1 1 0.999959
0.999968 1 1 0.999968
0.999964 1 1 0.999964
1.00108 1 1.00111 0.999965
0.999968 1 1 0.999968
0.998963 0.999723 0.999239 1
0.999989 0.999989 1 1
0.999998 0.999998 1 1
1.00146 1 1.00149 0.999972
1.01724 1 1.01729 0.999955
0.999913 0.999913 1 1
1.00331 0.994476 1.00896 0.999917
0.987132 0.988542 0.998567 1.00001
0.998732 0.99989 0.998841 1
1.00294 1 1.00298 0.999959
0.99899 0.999867 0.999122 1
0.983944 0.985656 0.998251 1.00001
1.00894 1 1.00902 0.999921
0.99043 0.987047 1.00355 0.999875
1.00104 1 1.00109 0.999949
0.981523 0.984452 0.997006 1.00002
0.984849 0.984173 1.00077 0.999914
1.00372 1 1.0038 0.999919
1.00051 1 1.00055 0.999959
1.00054 1 1.00058 0.999955
0.999966 1 1 0.999966
0.999962 1 1 0.999962
0.999968 1 1 0.999968
0.999981 1 1 0.999981
0.999971 1 1 0.999971
0.999977 1 1 0.999977
0.999986 1 1 0.999986
0.999976 1 1 0.999976
0.999981 1 1 0.999981
0.999985 1 1 0.999985
0.999983 1 1 0.999983
0.99998 1 1 0.99998
0.999981 1 1 0.999981
0.999981 1 1 0.999981
0.999979 1 1 0.999979
0.999978 1 1 0.999978
0.999987 1 1 0.999987
0.999982 1 1 0.999982
0.999978 1 1 0.999978
0.999996 1 1 0.999996
0.999989 1 1 0.999989
0.999985 1 1 0.999985
1 1 1 1
0.999997 1 1 0.999997
0.99999 1 1 0.99999
1 1 1 1
1 1 1 1
0.999998 1 1 0.999998
1 1 1 1
1 1 1 1
1 1 1 1
1 1 1 1
1 1 1 1
1 1 1 1
0.999992 1 1 0.999992
0.999992 1 1 0.999992
0.999998 1 1 0.999998
1 1 1 1
0.999998 1 1 0.999998
0.999991 1 1 0.999991
1 1 1 1
1 1 1 1
0.999998 1 1 0.999998
1 1 1 1
1 1 1 1
1 1 1 1
1 1 1 1
1 1 1 1
1 1 1 1
0.999704 0.999739 0.999965 1
1.00008 1.00008 1 1
1.00003 1.00003 1 1
0.999988 1 1 0.999988
0.999987 1 1 0.999987
0.999985 1 1 0.999985
0.999987 1 1 0.999987
0.999988 1 1 0.999988
0.999985 1 1 0.999985
0.999983 1 1 0.999983
0.999985 1 1 0.999985
0.999982 1 1 0.999982
0.999981 1 1 0.999981
0.999981 1 1 0.999981
0.99998 1 1 0.99998
0.984695 0.98578 0.998888 1.00001
0.999211 0.999813 0.999397 1
1.00003 0.999925 1.00011 1
0.999667 0.999942 0.999725 1
0.991079 0.993653 0.997439 0.999971
1.00397 0.999997 1.00405 0.999923
1.01886 1 1.01891 0.999955
1.01152 1 1.01157 0.999948
0.985878 0.988257 0.997615 0.999978
1.00029 0.994468 1.00595 0.999906
1.00628 1 1.00635 0.999934
0.991693 0.987776 1.00406 0.999901
0.999975 1 1 0.999975
0.999979 1 1 0.999979
0.999977 1 1 0.999977
1.00105 1 1.00108 0.999965
0.999965 1 1 0.999965
0.999981 1 1.00001 0.999968
0.999969 1 1 0.999969
0.980254 0.984877 0.995286 1.00002
0.999456 0.999793 0.999662 1
1.00002 1.00002 1 1
1.0032 1 1.00324 0.999959
1.00868 1 1.00873 0.99995
0.999112 0.99987 0.99924 1
0.991371 0.988028 1.0035 0.999882
0.982305 0.984564 0.997719 0.999986
1.00107 1 1.00112 0.99995
0.98058 0.983271 0.997254 1.00001
0.985174 0.984746 1.00053 0.999907
1.00408 1.0001 1.00404 0.999945
0.999732 1 0.999774 0.999958
0.981524 0.982035 0.999551 0.999929
1.00114 1 1.00119 0.999957
1.00064 1 1.00069 0.999953
0.999966 1 1 0.999966
0.999985 1 1 0.999985
0.999968 1 1 0.999968
0.999981 1 1 0.999981
0.999992 1 1 0.999992
0.999978 1 1 0.999978
0.999986 1 1 0.999986
0.999989 1 1 0.999989
0.999981 1 1 0.999981
0.999985 1 1 0.999985
0.999985 1 1 0.999985
0.999982 1 1 0.999982
0.999983 1 1 0.999983
0.999982 1 1 0.999982
0.999982 1 1 0.999982
0.99998 1 1 0.99998
0.999981 1 1 0.999981
0.999985 1 1 0.999985
0.999981 1 1 0.999981
0.999979 1 1 0.999979
0.999994 1 1 0.999994
0.999987 1 1 0.999987
0.999982 1 1 0.999982
1 1 1 1
0.999996 1 1 0.999996
0.999989 1 1 0.999989
1 1 1 1
1 1 1 1
0.999997 1 1 0.999997
1 1 1 1
1 1 1 1
1 1 1 1
1 1 1 1
1 1 1 1
1 1 1 1
0.999991 1 1 0.999991
0.999992 1 1 0.999992
0.999998 1 1 0.999998
0.999992 1 1 0.999992
0.999998 1 1 0.999998
1 1 1 1
1 1 1 1
1 1 1 1
0.999998 1 1 0.999998
1 1 1 1
1 1 1 1
1 1 1 1
1 1 1 1
1 1 1 1
1 1 1 1
0.983074 0.983944 0.999117 0.999999
0.999275 0.999757 0.999517 1
1.00008 1.00008 1 1
0.999987 1 1 0.999987
0.999985 1 1 0.999985
0.999987 1 1 0.999987
0.999986 1 1 0.999986
0.999985 1 1 0.999985
0.999984 1 1 0.999984
0.999985 1 1 0.999985
0.999982 1 1 0.999982
0.999982 1 1 0.999982
0.999981 1 1 0.999981
0.999978 1 1 0.999978
0.999981 1 1 0.999981
0.99998 1 1 0.99998
0.985694 0.984943 1.00086 0.9999
0.984497 0.985658 0.998819 1
0.998753 0.999831 0.998921 1
0.987561 0.989054 0.998483 1.00001
0.999026 0.992618 1.0066 0.999853
1.00927 1 1.0093 0.999976
1.00643 1 1.00648 0.999948
0.99077 0.987212 1.00371 0.999895
1.00281 1 1.00287 0.999945
0.999966 1 1 0.999966
0.999975 1 1 0.999975
0.999979 1 1 0.999979
0.999992 1 1.00002 0.999969
0.999972 1 1 0.999972
0.981068 0.983172 0.997899 0.999961
0.980638 0.983541 0.997045 1
0.999849 0.999857 0.999992 1
1.00109 1 1.00114 0.999951
1.00361 1.00021 1.00348 0.999917
0.981727 0.982817 0.998887 1
0.985767 0.984268 1.00163 0.999895
0.999735 1 0.999778 0.999957
0.981504 0.982714 0.99882 0.999949
1.00091 1.00011 1.00087 0.999934
0.999777 1 0.9998 0.999977
1.0005 1 1.00053 0.999972
0.999966 1 1 0.999966
0.999985 1 1 0.999985
0.999995 1 1 0.999995
0.999982 1 1 0.999982
0.999992 1 1 0.999992
0.999992 1 1 0.999992
0.999986 1 1 0.999986
0.999989 1 1 0.999989
0.999986 1 1 0.999986
0.999985 1 1 0.999985
0.999985 1 1 0.999985
0.999982 1 1 0.999982
0.999983 1 1 0.999983
0.999981 1 1 0.999981
0.999983 1 1 0.999983
0.999982 1 1 0.999982
0.999982 1 1 0.999982
0.999984 1 1 0.999984
0.999981 1 1 0.999981
0.99998 1 1 0.99998
0.999992 1 1 0.999992
0.999985 1 1 0.999985
0.999982 1 1 0.999982
1 1 1 1
0.999994 1 1 0.999994
0.999987 1 1 0.999987
1 1 1 1
1 1 1 1
0.999996 1 1 0.999996
1 1 1 1
1 1 1 1
1 1 1 1
1 1 1 1
1 1 1 1
1 1 1 1
0.999989 1 1 0.999989
0.999991 1 1 0.999991
0.999996 1 1 0.999996
0.999991 1 1 0.999991
0.999997 1 1 0.999997
1 1 1 1
0.999998 1 1 0.999998
1 1 1 1
1 1 1 1
1 1 1 1
1 1 1 1
1 1 1 1
1 1 1 1
1 1 1 1
1 1 1 1
0.983654 0.984093 0.999606 0.999948
0.98248 0.985532 0.996886 1.00002
0.999755 0.999775 0.999981 1
0.999985 1 1 0.999985
0.999987 1 1 0.999987
0.999985 1 1 0.999985
0.999986 1 1 0.999986
0.999985 1 1 0.999985
0.999984 1 1 0.999984
0.999982 1 1 0.999982
0.999982 1 1 0.999982
0.999981 1 1 0.999981
0.999981 1 1 0.999981
0.999979 1 1 0.999979
0.999968 1 1 0.999968
0.999978 1 1 0.999978
0.999981 1 1 0.999981
1.00035 1 1.00037 0.999981
0.984642 0.984711 1 0.999925
0.982386 0.984739 0.997621 0.99999
0.991993 0.988505 1.00364 0.99989
1.00646 1 1.00649 0.999967
1.00339 1 1.00343 0.999963
0.999959 1 1 0.999959
0.999965 1 1 0.999965
0.999974 1 1 0.999974
0.999975 1 1 0.999975
1.00001 1 1.00004 0.99997
0.981977 0.983076 0.998921 0.99996
0.980905 0.984877 0.995949 1.00002
0.999714 1 0.999758 0.999956
1.00124 1.00019 1.00109 0.999952
0.982318 0.982854 0.999484 0.99997
0.999741 1 0.999764 0.999977
1.00012 1 1.00015 0.999971
0.999983 1 0.999997 0.999986
1.00031 1 1.00034 0.999976
0.999985 1 1 0.999985
0.999995 1 1 0.999995
0.999989 1 1 0.999989
0.999992 1 1 0.999992
0.999992 1 1 0.999992
0.999985 1 1 0.999985
0.999989 1 1 0.999989
0.999986 1 1 0.999986
0.999981 1 1 0.999981
0.999985 1 1 0.999985
0.999982 1 1 0.999982
0.999979 1 1 0.999979
0.999983 1 1 0.999983
0.999981 1 1 0.999981
0.999981 1 1 0.999981
0.999982 1 1 0.999982
0.999982 1 1 0.999982
0.999984 1 1 0.999984
0.999989 1 1 0.999989
0.999984 1 1 0.999984
0.999981 1 1 0.999981
1 1 1 1
0.999992 1 1 0.999992
0.999985 1 1 0.999985
1 1 1 1
1 1 1 1
0.999994 1 1 0.999994
1 1 1 1
1 1 1 1
1 1 1 1
1 1 1 1
1 1 1 1
1 1 1 1
0.999988 1 1 0.999988
0.99999 1 1 0.99999
0.999995 1 1 0.999995
0.999991 1 1 0.999991
0.999996 1 1 0.999996
1 1 1 1
0.999997 1 1 0.999997
1 1 1 1
1 1 1 1
1 1 1 1
1 1 1 1
1 1 1 1
1 1 1 1
1 1 1 1
1 1 1 1
0.999551 1 0.999557 0.999994
0.983343 0.98448 0.998896 0.99995
0.981275 0.985052 0.996165 1
0.999984 1 1 0.999984
0.999985 1 1 0.999985
0.999987 1 1 0.999987
0.999984 1 1 0.999984
0.999985 1 1 0.999985
0.999983 1 1 0.999983
0.999982 1 1 0.999982
0.999981 1 1 0.999981
0.999981 1 1 0.999981
0.99998 1 1 0.99998
0.999974 1 1 0.999974
0.999959 1 1 0.999959
0.999969 1 1 0.999969
0.999978 1 1 0.999978
0.99974 1 0.999771 0.999969
1.00019 1 1.00023 0.999964
0.985187 0.984616 1.00063 0.999948
1.00297 1 1.00303 0.99994
0.999955 1 1 0.999955
0.999965 1 1 0.999965
1.00002 1 1.00002 0.999997
1.00016 1 1.00017 0.999989
0.98181 0.983891 0.997925 0.999959
0.999726 1 0.999749 0.999976
0.999977 1 1.00002 0.999962
0.999984 1 0.999997 0.999986
1.00014 1 1.00017 0.999977
0.999978 1 1 0.999978
0.999979 1 1 0.999979
0.999995 1 1 0.999995
0.999989 1 1 0.999989
0.999979 1 1 0.999979
0.999991 1 1 0.999991
0.999985 1 1 0.999985
0.999979 1 1 0.999979
0.999986 1 1 0.999986
0.999981 1 1 0.999981
0.999977 1 1 0.999977
0.999982 1 1 0.999982
0.999979 1 1 0.999979
0.999979 1 1 0.999979
0.999981 1 1 0.999981
0.999981 1 1 0.999981
0.999982 1 1 0.999982
0.999982 1 1 0.999982
0.999984 1 1 0.999984
0.999989 1 1 0.999989
0.999999 1 1 0.999999
0.99999 1 1 0.99999
0.999985 1 1 0.999985
1 1 1 1
1 1 1 1
0.999992 1 1 0.999992
1 1 1 1
1 1 1 1
1 1 1 1
1 1 1 1
1 1 1 1
1 1 1 1
0.999987 1 1 0.999987
0.999988 1 1 0.999988
0.999995 1 1 0.999995
0.99999 1 1 0.99999
0.999996 1 1 0.999996
1 1 1 1
0.999996 1 1 0.999996
1 1 1 1
1 1 1 1
1 1 1 1
1 1 1 1
1 1 1 1
1 1 1 1
1 1 1 1
1 1 1 1
0.999751 1 0.999758 0.999993
0.999457 1 0.999487 0.999971
0.983726 0.984103 0.999659 0.999957
0.999982 1 1 0.999982
0.999981 1 1 0.999981
0.999984 1 1 0.999984
0.999984 1 1 0.999984
0.999985 1 1 0.999985
0.999983 1 1 0.999983
0.999975 1 1 0.999975
0.999981 1 1 0.999981
0.999981 1 1 0.999981
0.999974 1 1 0.999974
0.999964 1 1 0.999964
0.999976 1 1 0.999976
0.999961 1 1 0.999961
0.99997 1 1 0.99997
0.999799 1 0.99983 0.999969
1.00017 1 1.00021 0.999957
0.99995 1 1 0.99995
0.999999 1 1 0.999999
1.00016 1 1.00016 0.999997
1.00028 1 1.0003 0.999977
0.999986 1 1 0.999986
0.999992 1 1.00001 0.999979
0.999978 1 1 0.999978
0.999981 1 1 0.999981
0.999976 1 1 0.999976
0.999991 1 1 0.999991
0.999988 1 1 0.999988
0.99998 1 1 0.99998
0.999977 1 1 0.999977
0.999985 1 1 0.999985
0.999979 1 1 0.999979
0.999977 1 1 0.999977
0.999981 1 1 0.999981
0.999977 1 1 0.999977
0.999977 1 1 0.999977
0.999979 1 1 0.999979
0.999979 1 1 0.999979
0.999981 1 1 0.999981
0.999981 1 1 0.999981
0.999982 1 1 0.999982
0.999987 1 1 0.999987
0.999983 1 1 0.999983
0.999988 1 1 0.999988
0.999999 1 1 0.999999
1 1 1 1
0.999999 1 1 0.999999
0.999991 1 1 0.999991
1 1 1 1
1 1 1 1
1 1 1 1
1 1 1 1
1 1 1 1
1 1 1 1
0.999984 1 1 0.999984
0.999986 1 1 0.999986
0.999993 1 1 0.999993
0.999988 1 1 0.999988
0.999995 1 1 0.999995
1 1 1 1
0.999996 1 1 0.999996
1 1 1 1
1 1 1 1
1 1 1 1
1 1 1 1
1 1 1 1
1 1 1 1
1 1 1 1
1 1 1 1
0.999995 1 1 0.999995
0.999823 1 0.99983 0.999993
0.999411 1 0.999415 0.999996
0.999978 1 1 0.999978
0.999983 1 1 0.999983
0.999977 1 1 0.999977
0.999981 1 1 0.999981
0.999984 1 1 0.999984
0.999968 1 1 0.999968
0.999982 1 1 0.999982
0.999975 1 1 0.999975
0.999972 1 1 0.999972
0.999974 1 1 0.999974
0.999963 1 1 0.999963
0.999976 1 1 0.999976
0.999962 1 1 0.999962
0.999858 1 0.999888 0.99997
0.999999 1 1 0.999999
0.999999 1 1 0.999999
1.00028 1 1.00028 0.999997
0.999979 1 1 0.999979
0.999983 1 1 0.999983
0.999975 1 1 0.999975
0.999992 1 1 0.999992
0.999988 1 1 0.999988
0.99998 1 1 0.99998
0.999977 1 1 0.999977
0.999979 1 1 0.999979
0.999979 1 1 0.999979
0.999977 1 1 0.999977
0.999977 1 1 0.999977
0.999977 1 1 0.999977
0.999977 1 1 0.999977
0.999979 1 1 0.999979
0.999979 1 1 0.999979
0.999981 1 1 0.999981
0.999985 1 1 0.999985
0.999982 1 1 0.999982
0.999987 1 1 0.999987
0.999997 1 1 0.999997
0.999988 1 1 0.999988
0.999998 1 1 0.999998
1 1 1 1
1 1 1 1
1 1 1 1
0.999999 1 1 0.999999
1 1 1 1
1 1 1 1
1 1 1 1
0.999977 1 1 0.999977
0.999982 1 1 0.999982
0.999984 1 1 0.999984
0.999991 1 1 0.999991
0.999986 1 1 0.999986
0.999993 1 1 0.999993
1 1 1 1
0.999995 1 1 0.999995
1 1 1 1
1 1 1 1
1 1 1 1
1 1 1 1
1 1 1 1
1 1 1 1
1 1 1 1
1 1 1 1
0.99999 1 1 0.99999
0.999995 1 1 0.999995
0.999895 1 0.999901 0.999994
0.999972 1 1 0.999972
0.999979 1 1 0.999979
0.999984 1 1 0.999984
0.999977 1 1 0.999977
0.999981 1 1 0.999981
0.99997 1 1 0.99997
0.999968 1 1 0.999968
0.999975 1 1 0.999975
0.999972 1 1 0.999972
0.999962 1 1 0.999962
0.999975 1 1 0.999975
0.999998 1 1 0.999998
0.999999 1 1 0.999999
0.999998 1 1 0.999998
0.999975 1 1 0.999975
0.999993 1 1 0.999993
0.999988 1 1 0.999988
0.999988 1 1 0.999988
0.999978 1 1 0.999978
0.999978 1 1 0.999978
0.999982 1 1 0.999982
0.999976 1 1 0.999976
0.999977 1 1 0.999977
0.999978 1 1 0.999978
0.999977 1 1 0.999977
0.999979 1 1 0.999979
0.999983 1 1 0.999983
0.999981 1 1 0.999981
0.999985 1 1 0.999985
0.999995 1 1 0.999995
0.999987 1 1 0.999987
0.999997 1 1 0.999997
1 1 1 1
0.999998 1 1 0.999998
1 1 1 1
1 1 1 1
1 1 1 1
1 1 1 1
1 1 1 1
0.999973 1 1 0.999973
0.999981 1 1 0.999981
0.999978 1 1 0.999978
0.999989 1 1 0.999989
0.999982 1 1 0.999982
0.999984 1 1 0.999984
0.999991 1 1 0.999991
0.999999 1 1 0.999999
0.999993 1 1 0.999993
1 1 1 1
1 1 1 1
1 1 1 1
1 1 1 1
1 1 1 1
1 1 1 1
1 1 1 1
1 1 1 1
0.999985 1 1 0.999985
0.999991 1 1 0.999991
0.999995 1 1 0.999995
0.999972 1 1 0.999972
0.999972 1 1 0.999972
0.99998 1 1 0.99998
0.999977 1 1 0.999977
0.99997 1 1 0.99997
0.999967 1 1 0.999967
0.999971 1 1 0.999971
0.999995 1 1 0.999995
0.999997 1 1 0.999997
0.999999 1 1 0.999999
0.99999 1 1 0.99999
0.999987 1 1 0.999987
0.999988 1 1 0.999988
0.999987 1 1 0.999987
0.999978 1 1 0.999978
0.999982 1 1 0.999982
0.999981 1 1 0.999981
0.999977 1 1 0.999977
0.999978 1 1 0.999978
0.999981 1 1 0.999981
0.999979 1 1 0.999979
0.999983 1 1 0.999983
0.999992 1 1 0.999992
0.999985 1 1 0.999985
0.999995 1 1 0.999995
1 1 1 1
0.999997 1 1 0.999997
1 1 1 1
1 1 1 1
1 1 1 1
1 1 1 1
1 1 1 1
0.999972 1 1 0.999972
0.999976 1 1 0.999976
0.999973 1 1 0.999973
0.999987 1 1 0.999987
0.99998 1 1 0.99998
0.999979 1 1 0.999979
0.999998 1 1 0.999998
0.999989 1 1 0.999989
0.999982 1 1 0.999982
0.999991 1 1 0.999991
0.999999 1 1 0.999999
1 1 1 1
1 1 1 1
1 1 1 1
1 1 1 1
1 1 1 1
1 1 1 1
1 1 1 1
0.999984 1 1 0.999984
0.999985 1 1 0.999985
0.999991 1 1 0.999991
0.999971 1 1 0.999971
0.999972 1 1 0.999972
0.99997 1 1 0.99997
0.999991 1 1 0.999991
0.999996 1 1 0.999996
0.999996 1 1 0.999996
0.99999 1 1 0.99999
0.999989 1 1 0.999989
0.999988 1 1 0.999988
0.999987 1 1 0.999987
0.999986 1 1 0.999986
0.999982 1 1 0.999982
0.999981 1 1 0.999981
0.999983 1 1 0.999983
0.999978 1 1 0.999978
0.999981 1 1 0.999981
0.999989 1 1 0.999989
0.999983 1 1 0.999983
0.999992 1 1 0.999992
1 1 1 1
0.999995 1 1 0.999995
1 1 1 1
1 1 1 1
1 1 1 1
1 1 1 1
1 1 1 1
0.999983 1 1 0.999983
0.999973 1 1 0.999973
0.999972 1 1 0.999972
0.999982 1 1 0.999982
0.999976 1 1 0.999976
0.999974 1 1 0.999974
0.999996 1 1 0.999996
0.999986 1 1 0.999986
0.99998 1 1 0.99998
1 1 1 1
0.999998 1 1 0.999998
0.999988 1 1 0.999988
1 1 1 1
1 1 1 1
1 1 1 1
1 1 1 1
1 1 1 1
1 1 1 1
0.999981 1 1 0.999981
0.999983 1 1 0.999983
0.999984 1 1 0.999984
0.99997 1 1 0.99997
0.999988 1 1 0.999988
0.999991 1 1 0.999991
0.999997 1 1 0.999997
0.999989 1 1 0.999989
0.999989 1 1 0.999989
0.999989 1 1 0.999989
0.999987 1 1 0.999987
0.999986 1 1 0.999986
0.999986 1 1 0.999986
0.999981 1 1 0.999981
0.999983 1 1 0.999983
0.999989 1 1 0.999989
0.999982 1 1 0.999982
0.99999 1 1 0.99999
1 1 1 1
0.999992 1 1 0.999992
1 1 1 1
1 1 1 1
1 1 1 1
1 1 1 1
1 1 1 1
0.999982 1 1 0.999982
0.99998 1 1 0.99998
0.999983 1 1 0.999983
0.999978 1 1 0.999978
0.999975 1 1 0.999975
0.999972 1 1 0.999972
0.999991 1 1 0.999991
0.999982 1 1 0.999982
0.999976 1 1 0.999976
1 1 1 1
0.999995 1 1 0.999995
0.999985 1 1 0.999985
1 1 1 1
1 1 1 1
0.999999 1 1 0.999999
1 1 1 1
1 1 1 1
1 1 1 1
0.999983 1 1 0.999983
0.999983 1 1 0.999983
0.999983 1 1 0.999983
0.999991 1 1 0.999991
0.999988 1 1 0.999988
0.999992 1 1 0.999992
0.999989 1 1 0.999989
0.99999 1 1 0.99999
0.999991 1 1 0.999991
0.999986 1 1 0.999986
0.999986 1 1 0.999986
0.999991 1 1 0.999991
0.999983 1 1 0.999983
0.999989 1 1 0.999989
1 1 1 1
0.99999 1 1 0.99999
1 1 1 1
1 1 1 1
1 1 1 1
1 1 1 1
1 1 1 1
0.999981 1 1 0.999981
0.999983 1 1 0.999983
0.999982 1 1 0.999982
0.999981 1 1 0.999981
0.99998 1 1 0.99998
0.999982 1 1 0.999982
0.999987 1 1 0.999987
0.999979 1 1 0.999979
0.999976 1 1 0.999976
1 1 1 1
0.999991 1 1 0.999991
0.999982 1 1 0.999982
1 1 1 1
1 1 1 1
0.999995 1 1 0.999995
1 1 1 1
1 1 1 1
1 1 1 1
0.999986 1 1 0.999986
0.999983 1 1 0.999983
0.999984 1 1 0.999984
0.999993 1 1 0.999993
0.999991 1 1 0.999991
0.999988 1 1 0.999988
0.99999 1 1 0.99999
0.999991 1 1 0.999991
0.999995 1 1 0.999995
0.999986 1 1 0.999986
0.999991 1 1 0.999991
1 1 1 1
0.999989 1 1 0.999989
1 1 1 1
1 1 1 1
1 1 1 1
1 1 1 1
1 1 1 1
0.999984 1 1 0.999984
0.99998 1 1 0.99998
0.999985 1 1 0.999985
0.999983 1 1 0.999983
0.999981 1 1 0.999981
0.999989 1 1 0.999989
0.999981 1 1 0.999981
0.999981 1 1 0.999981
1 1 1 1
0.999988 1 1 0.999988
0.99998 1 1 0.99998
1 1 1 1
1 1 1 1
0.99999 1 1 0.99999
1 1 1 1
1 1 1 1
1 1 1 1
0.99999 1 1 0.99999
0.999986 1 1 0.999986
0.999983 1 1 0.999983
0.999996 1 1 0.999996
0.999993 1 1 0.999993
0.99999 1 1 0.99999
0.999991 1 1 0.999991
0.999994 1 1 0.999994
1 1 1 1
0.999991 1 1 0.999991
1 1 1 1
1 1 1 1
1 1 1 1
1 1 1 1
1 1 1 1
0.999987 1 1 0.999987
0.999983 1 1 0.999983
0.999979 1 1 0.999979
0.999991 1 1 0.999991
0.999985 1 1 0.999985
0.999983 1 1 0.999983
1 1 1 1
0.999989 1 1 0.999989
0.999981 1 1 0.999981
1 1 1 1
1 1 1 1
0.999988 1 1 0.999988
1 1 1 1
1 1 1 1
1 1 1 1
0.999996 1 1 0.999996
0.99999 1 1 0.99999
0.999986 1 1 0.999986
1 1 1 1
0.999996 1 1 0.999996
0.999993 1 1 0.999993
0.999994 1 1 0.999994
1 1 1 1
1 1 1 1
1 1 1 1
1 1 1 1
1 1 1 1
0.999994 1 1 0.999994
0.999987 1 1 0.999987
0.999983 1 1 0.999983
1 1 1 1
0.999991 1 1 0.999991
0.999985 1 1 0.999985
1 1 1 1
1 1 1 1
0.999988 1 1 0.999988
1 1 1 1
1 1 1 1
1 1 1 1
1 1 1 1
0.999995 1 1 0.999995
0.99999 1 1 0.99999
1 1 1 1
1 1 1 1
0.999996 1 1 0.999996
1 1 1 1
1 1 1 1
1 1 1 1
1 1 1 1
0.999994 1 1 0.999994
0.999987 1 1 0.999987
1 1 1 1
1 1 1 1
0.999991 1 1 0.999991
1 1 1 1
1 1 1 1
1 1 1 1
1 1 1 1
1 1 1 1
0.999995 1 1 0.999995
1 1 1 1
1 1 1 1
1 1 1 1
1 1 1 1
1 1 1 1
0.999993 1 1 0.999993
1 1 1 1
1 1 1 1
1 1 1 1
1 1 1 1
1 1 1 1
1 1 1 1
1 1 1 1
1 1 1 1
1 1 1 1
1 1 1 1
1 1 1 1

VECTORS lamdaE float
0.999374 0.997566 0.998341
0.999485 0.997029 0.999381
0.999376 0.997525 0.998355
0.99899 0.998808 0.997962
0.999267 0.997918 0.998232
0.999457 0.997273 0.99844
0.999571 0.998419 0.997029
0.999494 0.997045 0.99939
0.999293 0.997821 0.999236
0.999439 0.997227 0.999358
0.99955 0.996814 0.998627
0.999635 0.99793 0.997219
0.998403 1.00023 0.997677
0.998828 0.999212 0.997843
0.999379 0.997483 0.998368
0.998986 0.998767 0.997982
0.999462 0.997232 0.998452
0.999268 0.997876 0.998247
0.999564 0.99843 0.997036
0.998479 0.999898 0.998993
0.99883 0.999312 0.997814
0.999137 0.998336 0.998106
0.999325 0.99953 0.996468
0.999502 0.998745 0.99686
0.999528 0.997028 0.998524
0.99962 0.998142 0.997186
0.999861 0.999817 0.995141
0.999504 0.997061 0.999399
0.999292 0.997859 0.998705
0.99944 0.997244 0.99891
0.999545 0.996842 0.999415
0.999629 0.997909 0.997225
0.999148 0.998273 0.998045
0.99936 0.997519 0.998352
0.99955 0.998726 0.997077
0.999613 0.996637 0.999439
0.999602 0.998157 0.997499
0.999658 0.997755 0.997334
0.999836 0.999436 0.995318
0.999707 0.996402 0.999444
0.99842 0.999918 0.999017
0.998798 0.999208 0.998443
0.998274 1.00018 0.99902
0.998632 0.999738 0.997737
0.99893 1.00083 0.99568
0.99901 0.998612 0.999126
0.999232 0.999872 0.996524
0.998982 0.998723 0.998001
0.999269 0.997833 0.998262
0.999466 0.997191 0.998464
0.999557 0.998442 0.997043
0.998459 1.00005 0.998313
0.998824 0.999272 0.997833
0.999534 0.996986 0.998534
0.999136 0.998293 0.998124
0.999323 0.99953 0.996475
0.999613 0.998157 0.997193
0.999497 0.998751 0.996867
0.999865 0.999823 0.99511
0.998366 1.00013 0.998996
0.998663 0.999807 0.997686
0.99897 1.00069 0.996263
0.999232 0.999948 0.996259
0.999417 0.999121 0.996675
0.999841 1.00058 0.99439
0.99986 1.00006 0.994782
0.999603 0.996843 0.99859
0.999665 0.99789 0.997343
0.999855 0.999607 0.995358
1.0001 1.00049 0.993736
0.999306 0.997849 0.999255
0.999558 0.996868 0.999425
0.999445 0.997281 0.999366
0.999624 0.997887 0.997232
0.999156 0.998229 0.999165
0.999359 0.997533 0.999293
0.99955 0.99873 0.996572
0.999614 0.996651 0.999051
0.999601 0.998131 0.997078
0.999659 0.997738 0.997545
0.999832 0.999433 0.995318
0.999654 0.99652 0.999441
0.999801 0.997327 0.997472
0.999487 0.999106 0.996261
0.999571 0.998444 0.996794
0.999947 1.00005 0.994452
0.999707 0.997576 0.997811
0.999858 0.999625 0.995084
0.999831 0.999272 0.9955
0.999984 1.00028 0.994182
0.999755 0.996292 0.999448
0.999715 0.996419 0.999445
0.99887 0.999041 0.999093
0.998493 0.999857 0.999021
0.998302 1.00015 0.99902
0.998605 0.999689 0.998372
0.998946 1.00076 0.996026
0.999016 0.9987 0.998522
0.999257 0.999927 0.996242
0.998272 1.00025 0.999004
0.998811 1.0011 0.995701
0.999089 1.0003 0.996388
0.999648 1.00131 0.99383
0.99939 0.999424 0.996699
0.999855 1.00076 0.993936
0.998442 1.00021 0.99763
0.998818 0.999232 0.997852
0.99954 0.996945 0.998543
0.999135 0.998249 0.998141
0.99932 0.999531 0.996482
0.999492 0.998758 0.996874
0.999607 0.998172 0.9972
0.999869 0.99983 0.995079
0.998336 1.00015 0.998998
0.998655 0.999771 0.997701
0.99898 1.00077 0.995797
0.99923 0.999945 0.996265
0.9996 0.996803 0.998997
0.999657 0.997904 0.997475
0.999413 0.999123 0.996682
0.999848 1.00058 0.994314
0.999859 0.99962 0.995328
0.999861 1.00005 0.994834
1.0001 1.00048 0.993741
0.998861 1.0011 0.995598
0.999127 1.00035 0.996091
0.999718 1.00125 0.993847
0.999845 1.00081 0.994069
0.999847 1.00032 0.994528
1.00015 1.00088 0.993319
0.999657 0.996661 0.999422
1.00012 1.00058 0.993613
0.99971 0.997681 0.997303
0.999859 0.999416 0.995287
1.00007 1.00042 0.993868
1.00028 1.00061 0.993265
0.999794 0.997389 0.997396
0.999959 0.99885 0.995637
0.999205 0.998204 0.99919
0.999379 0.997541 0.999319
0.999529 0.998725 0.996564
0.999615 0.996701 0.999438
0.999658 0.997702 0.997355
0.999589 0.998109 0.997072
0.999829 0.99943 0.995318
0.999663 0.996541 0.999442
0.9998 0.997316 0.997473
0.999487 0.999088 0.996578
0.999565 0.998425 0.997066
0.999943 1.00006 0.994448
0.999711 0.997555 0.997434
0.999849 0.999628 0.995086
0.999828 0.999265 0.995502
0.999982 1.0003 0.994132
0.999759 0.997431 0.997458
0.999839 0.997229 0.997491
0.999927 0.998845 0.99572
0.999972 1.00022 0.994224
0.999892 0.999862 0.994771
1.00023 1.00054 0.993405
0.999863 0.999074 0.995632
1.00004 1.00038 0.993892
0.999954 1.00022 0.994307
1.00008 1.00067 0.993681
0.999798 0.996189 0.999453
0.999761 0.996306 0.999449
0.999722 0.996437 0.999446
0.999828 0.997299 0.997419
0.999707 0.996529 0.999429
0.999056 0.998606 0.999137
0.998678 0.999476 0.99905
0.999231 0.99999 0.995925
0.99894 1.00085 0.995687
0.998327 1.00013 0.999021
0.998264 1.00025 0.999011
0.998808 1.00111 0.995698
0.999114 1.00037 0.996088
0.99965 1.00131 0.993824
0.999398 0.999496 0.996111
0.999852 1.00077 0.993932
0.998781 1.00121 0.995656
0.999511 1.00149 0.993933
0.999767 1.00107 0.993813
0.99995 1.00133 0.993213
0.999932 1.00046 0.994077
1.00015 1.00093 0.993183
0.998305 1.00017 0.999001
0.998647 0.999735 0.997717
0.998988 1.00084 0.995332
0.999229 0.999943 0.99627
0.999596 0.996762 0.999405
0.99965 0.997918 0.997606
0.999409 0.999127 0.996689
0.999854 1.00058 0.994237
0.999863 1.00005 0.994886
0.999864 0.999633 0.995298
1.0001 1.00046 0.993747
0.998861 1.00109 0.995602
0.999127 1.00034 0.996093
0.999732 1.00126 0.993709
0.999847 1.00082 0.9941
0.999647 0.99664 0.999419
0.999708 0.997699 0.997496
0.999862 0.999418 0.995407
0.999849 1.00032 0.994525
1.00015 1.00088 0.993237
1.00006 1.0004 0.993847
1.00012 1.00057 0.993672
1.00028 1.0006 0.993269
0.999794 0.997402 0.997395
0.999959 0.998854 0.995637
0.999579 1.00147 0.9938
0.999823 1.00104 0.993868
1.00005 1.00131 0.993097
1.00018 1.00103 0.993007
1.00013 1.00071 0.993533
1.00032 1.00091 0.992887
0.999752 0.99751 0.997358
1.0003 1.00064 0.99318
0.999877 0.999223 0.995426
1.00002 1.00031 0.993996
1.00023 1.00063 0.993404
1.00036 1.0006 0.9931
0.99994 0.998921 0.995602
0.999973 0.998795 0.995664
1.00005 0.999841 0.994485
0.999477 0.999094 0.996306
0.999672 0.996561 0.999443
0.9998 0.997304 0.997474
0.999555 0.998395 0.996845
0.999939 1.00007 0.994444
0.999706 0.997534 0.997432
0.999825 0.999257 0.995503
0.99984 0.99963 0.995087
0.99998 1.00032 0.994082
0.999758 0.997418 0.997459
0.999838 0.997218 0.997493
0.999926 0.998839 0.995721
0.999971 1.00023 0.994218
0.999883 0.999869 0.994772
1.00023 1.00055 0.993399
0.99986 0.999067 0.995634
1.00004 1.00039 0.993918
0.999949 1.00024 0.994303
1.00007 1.00068 0.993624
0.999874 0.997132 0.997514
0.999902 0.998929 0.995692
0.999949 0.998764 0.995754
1.00001 0.999838 0.99458
1.00027 1.00055 0.993289
1.00012 1.0005 0.993666
1.00042 1.00063 0.992924
0.99997 1.00006 0.994443
1.00018 1.00066 0.99338
1.00002 1.00079 0.993617
1.00014 1.00082 0.993302
1.00004 0.998493 0.995839
0.999939 0.996961 0.997541
0.999838 0.996092 0.999457
0.999804 0.996199 0.999454
0.999768 0.996319 0.999451
0.999859 0.997221 0.997436
0.999749 0.996416 0.999434
0.999829 0.99731 0.997418
0.999699 0.996507 0.999427
0.999371 0.999519 0.996104
0.999089 1.00046 0.995759
0.999849 1.00078 0.993929
0.999652 1.00132 0.993818
0.998805 1.00112 0.995695
0.998257 1.00025 0.999014
0.998777 1.00121 0.995659
0.999514 1.0015 0.993927
0.999768 1.00108 0.993808
0.999953 1.00133 0.99321
0.999931 1.00046 0.994071
1.00015 1.00093 0.993181
0.999488 1.00157 0.99391
0.999785 1.0015 0.99339
1.00007 1.00117 0.993123
1.00011 1.00125 0.992993
1.00023 1.00068 0.993253
1.00029 1.0009 0.992938
0.998861 1.00108 0.995607
0.999126 1.00034 0.996095
0.999745 1.00128 0.993572
0.99985 1.00082 0.994132
0.999638 0.996619 0.999415
0.999705 0.997717 0.997689
0.999864 0.99942 0.995527
0.999851 1.00032 0.994522
1.00016 1.00089 0.993154
1.00012 1.00055 0.993731
1.00006 1.00039 0.993826
1.00027 1.0006 0.993273
0.999795 0.997416 0.997394
0.999959 0.998858 0.995637
0.999586 1.00146 0.993756
0.999823 1.00104 0.993862
1.00005 1.0013 0.993097
1.00018 1.00104 0.993087
0.999753 0.997526 0.997356
0.99988 0.999229 0.995424
1.00002 1.00029 0.994052
1.00013 1.00071 0.993545
1.00033 1.0009 0.99286
1.00023 1.00063 0.993348
1.0003 1.00064 0.993182
1.00036 1.00059 0.993103
0.99994 0.998927 0.995602
1.00005 0.999836 0.994438
0.999973 0.998799 0.995664
0.999893 1.00147 0.993277
1.00016 1.00115 0.993013
1.00018 1.00123 0.992844
1.00036 1.00104 0.992686
1.00031 1.00073 0.993073
1.00041 1.0008 0.992807
0.99991 0.999045 0.99554
1.00038 1.00062 0.993049
1.00001 1.00014 0.994258
1.00016 1.00065 0.993411
1.00032 1.0007 0.993114
1.0004 1.00048 0.993171
0.999991 0.998742 0.99568
1.00004 0.999873 0.994461
1.00005 0.999823 0.994398
1.0001 1.00041 0.993905
0.999971 1.00024 0.994211
0.999838 0.997208 0.997494
0.999757 0.997405 0.99746
0.999926 0.998833 0.995722
0.999873 0.999877 0.994773
1.00023 1.00055 0.993392
0.999857 0.999059 0.995637
0.999944 1.00025 0.994299
1.00004 1.00039 0.993944
1.00007 1.00068 0.993568
0.999874 0.997123 0.997515
0.9999 0.998922 0.995693
0.999949 0.998759 0.995755
1.00001 0.999835 0.99458
1.00028 1.00056 0.993281
1.00012 1.00051 0.993665
1.00043 1.00063 0.992919
0.999963 1.00007 0.994444
1.00018 1.00065 0.99343
1.00002 1.0008 0.993606
1.00013 1.0008 0.993349
0.999909 0.997042 0.997531
0.999974 0.998676 0.99579
0.999996 0.999911 0.994534
1.00002 0.99977 0.99462
1.00005 1.00046 0.993861
1.00046 1.00054 0.992929
1.0003 1.0007 0.993126
1.00052 1.00057 0.992805
1.00002 1.00073 0.993691
1.00024 1.00078 0.993166
1.00008 1.00113 0.993044
1.00002 0.998541 0.99583
1.00009 0.999528 0.994724
1.00006 0.998461 0.995831
1.00004 0.998491 0.995839
0.999964 0.99688 0.997914
0.999936 0.996959 0.997726
0.999884 0.996041 0.998725
0.999844 0.9961 0.999458
0.99981 0.996209 0.999456
0.999892 0.997151 0.997441
0.999789 0.996312 0.999437
0.99986 0.99723 0.997435
0.999743 0.996396 0.999433
0.999829 0.997321 0.997417
0.999691 0.996486 0.999426
0.99993 1.00047 0.994066
0.999768 1.00108 0.993804
1.00015 1.00093 0.993179
0.999956 1.00133 0.993207
0.999517 1.0015 0.993922
0.998773 1.00121 0.995663
0.999486 1.00157 0.993912
0.999789 1.0015 0.993387
1.00007 1.00117 0.993119
1.0001 1.00125 0.993009
1.00024 1.00069 0.993248
1.00029 1.0009 0.992942
0.999751 1.00157 0.993391
0.999908 1.00144 0.993208
1.0002 1.00111 0.992906
1.00017 1.00123 0.992883
1.0004 1.00063 0.99298
1.0004 1.00074 0.992927
0.999594 1.00145 0.993712
0.999823 1.00104 0.993855
1.00004 1.00129 0.993096
1.00017 1.00104 0.993166
0.999755 0.997542 0.997353
0.999884 0.999235 0.995422
1.00003 1.00027 0.994108
1.00014 1.00071 0.993556
1.00033 1.00088 0.992834
1.0003 1.00063 0.993185
1.00023 1.00062 0.993292
1.00036 1.00057 0.993106
0.999941 0.998932 0.995601
1.00005 0.999832 0.994392
0.999973 0.998803 0.995664
0.999878 1.00147 0.993256
1.00016 1.00116 0.993006
1.00019 1.00122 0.992812
1.00035 1.00103 0.992714
0.999911 0.999051 0.995539
1.00002 1.00013 0.994258
1.00015 1.00065 0.993463
1.00031 1.00074 0.993104
1.00041 1.00079 0.992807
1.00032 1.00071 0.993085
1.00038 1.00061 0.993049
1.0004 1.00044 0.993194
1.00005 0.999869 0.994461
1.00011 1.00041 0.993832
0.999992 0.998745 0.995679
1.00005 0.99982 0.9944
1.00002 1.00143 0.993
1.00037 1.00109 0.992672
1.00023 1.00124 0.99265
1.00043 1.00088 0.99266
1.00039 1.00067 0.992985
1.00044 1.00069 0.992839
1.00002 0.999983 0.994391
1.00042 1.00043 0.993146
1.00011 1.00058 0.993567
1.00024 1.00087 0.993108
1.00036 1.00068 0.993043
1.00043 1.00027 0.993278
1.00001 0.998714 0.995681
1.00006 0.999786 0.994408
1.00011 1.0004 0.993808
1.00009 1.00046 0.99382
1.00015 1.00069 0.993499
0.999874 0.997114 0.997516
1.00028 1.00057 0.993273
0.999948 0.998754 0.995756
0.999899 0.998916 0.995694
1 0.999832 0.99458
1.00012 1.00052 0.993664
1.00043 1.00064 0.992914
0.999955 1.00007 0.994446
1.00002 1.00081 0.993594
1.00019 1.00065 0.99348
1.00012 1.00078 0.993395
0.999908 0.997035 0.997532
0.999973 0.998673 0.99579
0.999993 0.999908 0.994536
1.00002 0.999767 0.99462
1.00005 1.00047 0.993833
1.00047 1.00055 0.992919
1.00029 1.0007 0.993126
1.00052 1.00059 0.992791
1.00001 1.00073 0.993694
1.00024 1.00077 0.99319
1.0001 1.00112 0.993069
0.999999 0.9986 0.995815
1.00004 0.999685 0.994657
1.00004 1.00057 0.993751
1.00006 1.00042 0.993887
1.00007 1.00084 0.993504
1.00059 1.00028 0.992928
1.00037 1.00074 0.992934
1.0005 1.00023 0.993127
1.00004 1.00121 0.993154
1.00024 1.00117 0.992803
1.00002 0.998539 0.995831
1.00008 0.999572 0.994595
1.00009 0.999531 0.99467
1.0001 1.00023 0.994092
1.0001 0.99951 0.99472
1.00007 0.998454 0.995805
1.00006 0.99846 0.995831
0.999989 0.996831 0.997909
1.00004 0.998489 0.99584
0.999964 0.996897 0.997914
0.999925 0.99597 0.998727
0.999934 0.996955 0.99791
0.999884 0.996008 0.999093
0.999849 0.996108 0.999459
0.999923 0.997085 0.997445
0.999893 0.997157 0.997441
0.999828 0.996216 0.999438
0.999783 0.996296 0.999436
0.999861 0.997239 0.997434
0.999737 0.996377 0.999431
1.00024 1.00069 0.993243
1.00008 1.00117 0.993116
1.00029 1.0009 0.992946
1.00009 1.00125 0.993026
0.999793 1.0015 0.993383
0.999484 1.00157 0.993914
0.999749 1.00157 0.993393
0.999886 1.00144 0.993238
1.00021 1.00111 0.992904
1.00018 1.00126 0.99284
1.0004 1.00064 0.992979
1.0004 1.00075 0.992917
0.999842 1.00154 0.993257
0.99988 1.00153 0.993151
1.0003 1.00105 0.992758
1.00018 1.00151 0.992659
1.00052 1.00032 0.993032
1.00044 1.00071 0.992927
0.999863 1.00146 0.993234
1.00016 1.00118 0.992998
1.0002 1.00122 0.992779
1.00035 1.00103 0.992743
0.999913 0.999057 0.995537
1.00003 1.00012 0.994258
1.00015 1.00065 0.993516
1.00031 1.00074 0.993134
1.0004 1.00077 0.992808
1.00039 1.0006 0.993049
1.00031 1.00072 0.993057
1.0004 1.00039 0.993216
1.00005 0.999865 0.994462
1.00011 1.0004 0.993758
0.999992 0.998748 0.995679
1.00005 0.999818 0.994402
1.00001 1.00143 0.993008
1.00035 1.00109 0.99268
1.00026 1.00127 0.992608
1.00043 1.00089 0.992667
1.00003 0.999975 0.994391
1.00011 1.00058 0.993608
1.00023 1.00089 0.993102
1.00039 1.00068 0.992987
1.00044 1.00069 0.992838
1.00036 1.00069 0.993031
1.00042 1.00043 0.993145
1.00043 1.00022 0.993326
1.00012 1.00039 0.993808
1.00016 1.00068 0.993458
1.0001 1.00046 0.993815
1.00001 0.998713 0.995602
1.00006 0.999787 0.994411
1.00005 1.00147 0.992875
1.00041 1.00107 0.992539
1.00046 1.00079 0.992708
1.00045 1.0005 0.993026
1.00011 1.00047 0.99375
1.00048 1.00006 0.993394
1.00015 1.00088 0.993199
1.00029 1.00102 0.992854
1.00043 1.00054 0.993031
1.00002 0.998679 0.995526
1.00006 0.999761 0.994588
1.00009 1.00048 0.993794
1.00016 1.00067 0.993443
1.00015 1.00082 0.993341
1.00019 1.00084 0.993225
0.999908 0.997029 0.997533
0.999973 0.99867 0.99579
1.00047 1.00057 0.992909
1.00002 0.999765 0.99462
0.999989 0.999904 0.994537
1.00005 1.00048 0.993804
1.00029 1.00071 0.993126
1.00051 1.0006 0.992776
1 1.00072 0.993697
1.00012 1.0011 0.993094
1.00025 1.00077 0.993214
0.999998 0.998597 0.995815
1.00004 0.999683 0.994656
1.00004 1.00056 0.993785
1.00006 1.00043 0.993885
1.00007 1.00085 0.993456
1.00058 1.00032 0.992926
1.00037 1.00074 0.992918
1.00051 1.00019 0.993159
1.00003 1.00122 0.993128
1.00025 1.00119 0.992767
1.00006 0.999616 0.99468
1.00009 1.00035 0.993828
1.00005 1.00104 0.993297
1.00008 1.00083 0.993394
1.00011 1.00101 0.993211
1.00068 0.999602 0.993452
1.00038 1.00086 0.992852
1.00054 0.99998 0.993203
1.00012 1.00145 0.992844
1.00024 1.00139 0.992488
1.00002 0.998537 0.995831
1.00008 0.999574 0.994647
1.00011 1.00027 0.993882
1.00009 0.999534 0.994616
1.0001 0.999509 0.99472
1.00011 1.00023 0.994005
1.00011 1.00072 0.993566
1.00011 1.00021 0.993931
1.0001 0.999515 0.994696
1.00008 0.998463 0.995771
1.00007 0.998455 0.995804
1.00001 0.996801 0.997893
1.00006 0.998459 0.995831
0.99999 0.996849 0.997907
0.999957 0.995907 0.998722
0.999963 0.996914 0.997913
0.999926 0.995935 0.998728
0.999885 0.995977 0.999461
0.999952 0.997005 0.997465
0.999924 0.99709 0.997445
0.999866 0.996118 0.999439
0.999894 0.997163 0.997441
0.999822 0.996203 0.999438
0.999778 0.99628 0.999436
1.0004 1.00065 0.992978
1.00021 1.00111 0.992902
1.0004 1.00076 0.992906
1.00019 1.00129 0.992797
0.999865 1.00144 0.993269
0.999746 1.00157 0.993395
0.999828 1.00154 0.99327
0.999903 1.0015 0.99315
1.0003 1.00104 0.992771
1.00018 1.00158 0.992557
1.00051 1.00033 0.993045
1.00045 1.0007 0.992883
0.999767 1.00155 0.993377
0.999896 1.00168 0.992956
1.00025 1.00138 0.992547
1.00057 1.00003 0.993326
1 1.00144 0.993016
1.00034 1.00109 0.992687
1.00029 1.00129 0.992566
1.00043 1.0009 0.992674
1.00004 0.999967 0.99439
1.00011 1.00057 0.993649
1.00023 1.0009 0.993095
1.00039 1.00069 0.99299
1.00044 1.0007 0.992837
1.00043 1.00043 0.993145
1.00036 1.00071 0.993019
1.00043 1.00017 0.993374
1.00012 1.00039 0.993808
1.00017 1.00067 0.993416
1.0001 1.00046 0.993811
1.00001 0.998712 0.995522
1.00006 0.999787 0.994413
1.00009 1.00146 0.992808
1.0004 1.00108 0.992565
1.00046 1.00079 0.99272
1.00011 1.00047 0.993749
1.00016 1.00088 0.99325
1.00028 1.00104 0.992843
1.00045 1.00052 0.993006
1.00042 1.0005 0.993082
1.00047 1.00008 0.993395
1.00002 0.998676 0.995531
1.00016 1.00068 0.99344
1.0002 1.00081 0.993233
1.00015 1.00082 0.993369
1.00009 1.00049 0.993823
1.00007 0.999758 0.994508
1.00018 1.00138 0.992758
1.00041 1.0011 0.992529
1.00049 1.00055 0.992892
1.00053 1.00007 0.993287
1.00015 1.00077 0.99336
1.00053 1.00003 0.993309
1.00019 1.00116 0.992853
1.00034 1.00106 0.992709
1.00004 0.998584 0.995579
1.00007 0.999776 0.994567
1.00009 1.00047 0.993884
1.00013 1.00094 0.99324
1.00019 1.00091 0.993124
1.0002 1.001 0.993031
0.999998 0.998595 0.995815
1.00004 0.999682 0.994656
1.00057 1.00035 0.992924
1.00006 1.00043 0.993883
1.00003 1.00056 0.993818
1.00007 1.00087 0.993409
1.00038 1.00074 0.992902
1.00052 1.00015 0.993191
1.00002 1.00123 0.993103
1.00025 1.00122 0.992731
1.00006 0.999615 0.99468
1.00009 1.00036 0.993862
1.00005 1.00102 0.993353
1.00008 1.00083 0.993423
1.0001 1.00103 0.993211
1.00068 0.999603 0.993471
1.0004 1.00082 0.99285
1.00051 0.99998 0.993334
1.0001 1.00146 0.992818
1.00026 1.00147 0.992395
1.00011 1.00031 0.993844
1.0001 1.00086 0.993318
1.00008 1.00129 0.992995
1.00011 1.00108 0.993069
1.00066 0.999738 0.993479
1.00075 0.999304 0.993623
1.0004 1.00101 0.992597
1.00014 1.00168 0.992408
1.00007 0.999576 0.994698
1.00011 1.00027 0.993931
1.00011 1.00077 0.993481
1.0001 0.999509 0.994721
1.00011 1.00023 0.993918
1.0001 0.999516 0.994696
1.00011 1.00072 0.993507
1.00011 1.00021 0.993966
1.00012 1.00102 0.993205
1.00011 1.0007 0.99346
1.00012 1.00021 0.993925
1.00011 0.999545 0.994652
1.00009 0.998477 0.99574
1.00008 0.998465 0.99577
1.00003 0.996784 0.997874
1.00007 0.998455 0.995804
1.00001 0.996819 0.99789
0.999985 0.995861 0.99871
0.99999 0.996867 0.997905
0.999958 0.995874 0.998723
0.999928 0.9959 0.998728
0.999983 0.996918 0.99749
0.999954 0.997011 0.997463
0.999901 0.996018 0.999445
0.999925 0.997095 0.997445
0.99986 0.996113 0.999439
0.999817 0.996191 0.999438
1.0005 1.00034 0.993058
1.00029 1.00102 0.992783
1.00045 1.0007 0.992839
1.00017 1.00165 0.992454
0.999926 1.00146 0.993149
0.999814 1.00154 0.993284
0.999817 1.00154 0.993293
0.999931 1.00165 0.992947
1.00023 1.00133 0.992614
1.00056 1.00003 0.993276
0.999857 1.00153 0.993195
0.999871 1.00188 0.992786
1.00039 1.00068 0.99299
1.00013 1.00146 0.99274
1.00039 1.00109 0.99259
1.00046 1.00079 0.992732
1.00011 1.00047 0.993749
1.00016 1.00087 0.993302
1.00027 1.00107 0.992833
1.00046 1.00054 0.992987
1.00047 1.00009 0.993396
1.00041 1.00047 0.993133
1.00016 1.00068 0.993438
1.0002 1.00078 0.993241
1.00014 1.00081 0.993396
1.00002 0.998673 0.995536
1.00009 1.0005 0.993852
1.00007 0.999755 0.994427
1.00013 1.00137 0.992842
1.00043 1.00106 0.992511
1.00049 1.00059 0.992862
1.00015 1.00078 0.993358
1.00019 1.00115 0.992888
1.00033 1.00103 0.99275
1.00052 1.00006 0.99333
1.00053 1.00006 0.993296
1.00004 0.998582 0.995665
1.00007 0.999782 0.994565
1.00019 1.0009 0.993137
1.0002 1.001 0.993039
1.00013 1.00093 0.993263
1.0001 1.00047 0.993845
1.00012 1.00128 0.992939
1.00046 1.00106 0.992483
1.00054 1 0.993329
1.00062 0.999648 0.993564
1.00017 1.00107 0.992995
1.00044 1.00069 0.992875
1.00024 1.00135 0.992662
1.00006 0.998506 0.99578
1.0001 0.999563 0.994654
1.00007 0.999695 0.994474
1.00009 1.00054 0.993758
1.00012 1.00094 0.993257
1.00017 1.00118 0.992937
1.00018 1.00109 0.992979
1.0002 1.00126 0.992842
1.00006 0.999614 0.99468
1.00009 1.00037 0.993897
1.00068 0.999606 0.993491
1.00008 1.00084 0.993452
1.00004 1.00101 0.993408
1.00009 1.00104 0.993211
1.00042 1.00078 0.992848
1.00048 0.999979 0.993465
1.00009 1.00146 0.992793
1.00028 1.00154 0.992302
1.00011 1.00031 0.99384
1.0001 1.00085 0.993362
1.00008 1.00128 0.993033
1.00012 1.00109 0.993097
1.00066 0.999709 0.993434
1.0007 0.999393 0.993588
1.00043 1.001 0.992646
1.00016 1.00169 0.992385
1.0001 1.00084 0.993421
1.00024 1.00064 0.993289
1.00013 1.00122 0.993031
1.00014 1.00143 0.992748
1.0009 0.998818 0.994007
1.00061 1.0004 0.992696
1.00022 1.00178 0.992246
1.0001 1.00028 0.993981
1.0001 1.00077 0.99348
1.00011 1.00109 0.993154
1.0001 0.999516 0.994697
1.00011 1.00021 0.994001
1.00011 1.00073 0.993448
1.00011 0.999549 0.994652
1.00012 1.00021 0.993929
1.00012 1.00103 0.993168
1.00011 1.0007 0.993521
1.00014 1.00118 0.992998
1.00014 1.00102 0.993115
1.00012 1.00067 0.993538
1.00012 1.00025 0.993944
1.00011 0.99959 0.994601
1.0001 0.998495 0.995715
1.00009 0.99848 0.995738
1.00004 0.996772 0.997857
1.00008 0.998467 0.995769
1.00003 0.996801 0.997871
1.00001 0.995825 0.998698
1.00001 0.996837 0.997887
0.999985 0.995829 0.998712
0.999958 0.995841 0.998724
1.00007 0.998456 0.995808
1.00001 0.99685 0.997506
0.999984 0.996924 0.997488
0.999935 0.995929 0.99945
0.999955 0.997017 0.997462
0.999896 0.996017 0.999443
0.999855 0.996107 0.999438
1.00055 1.00003 0.993227
1.0002 1.00129 0.992682
0.999965 1.00163 0.992938
0.999865 1.00154 0.993209
0.999842 1.00153 0.993256
0.999869 1.00193 0.992768
1.00036 1.00063 0.993081
0.999845 1.00166 0.993109
0.999955 1.0016 0.992859
0.999911 1.00071 0.994126
1.00008 1.00136 0.992926
1.00045 1.00102 0.992493
1.00048 1.00063 0.992831
1.00016 1.00078 0.993357
1.00018 1.00115 0.992924
1.00032 1.00099 0.992791
1.00052 1.00004 0.993373
1.00052 1.00008 0.993282
1.00018 1.0009 0.993149
1.0002 1.001 0.993046
1.00012 1.00092 0.993287
1.00004 0.998581 0.995751
1.00006 0.999788 0.994564
1.0001 1.00046 0.993805
1.00013 1.00129 0.99286
1.00006 0.998508 0.995779
1.0001 0.999557 0.994607
1.00046 1.00101 0.992514
1.00053 1.0001 0.99325
1.00017 1.00105 0.993017
1.00023 1.00135 0.992654
1.00044 1.00064 0.992883
1.00062 0.999637 0.993565
1.00007 0.999695 0.994614
1.00009 1.00055 0.993753
1.00019 1.00109 0.992982
1.0002 1.00123 0.992839
1.00017 1.00119 0.992896
1.00012 1.00093 0.993266
1.00017 1.00187 0.992289
1.00048 1.00061 0.99288
1.00066 0.999174 0.993919
1.00058 1.00004 0.993229
1.00017 1.00127 0.992822
1.00029 1.00136 0.99256
1.00011 0.999495 0.994608
1.00009 0.999594 0.994637
1.00012 1.00029 0.994006
1.00007 1.00055 0.993654
1.00012 1.00099 0.993283
1.00016 1.0013 0.992753
1.00017 1.0015 0.992645
1.00016 1.0013 0.9928
1.00011 1.00032 0.993836
1.0001 1.00085 0.993406
1.00066 0.999678 0.993389
1.00065 0.999479 0.993552
1.00013 1.0011 0.993125
1.00007 1.00127 0.99307
1.00045 1.00098 0.992695
1.00018 1.0017 0.992361
1.0001 1.00083 0.993419
1.00014 1.00051 0.993575
1.00012 1.0012 0.993021
1.00014 1.00143 0.99271
1.00081 0.998885 0.993943
1.00067 1.00041 0.992729
1.00022 1.00183 0.992223
1.00011 1.00122 0.993051
1.00043 0.999255 0.994299
1.00019 1.00139 0.992766
1.0002 1.00182 0.992333
1.00109 0.999279 0.992828
1.00031 1.00171 0.992011
1.00269 0.996318 0.99207
1.0001 1.00078 0.99348
1.0001 1.0011 0.993153
1.00013 1.00127 0.992958
1.00011 0.999552 0.994651
1.00012 1.0002 0.993932
1.00011 1.0007 0.993582
1.00013 1.00104 0.993131
1.00011 0.999595 0.994599
1.00012 1.00025 0.993912
1.00014 1.00117 0.992995
1.00012 1.00067 0.993537
1.00014 1.00102 0.993159
1.00016 1.0012 0.992908
1.00014 1.001 0.993208
1.00013 1.00071 0.993532
1.00012 1.00032 0.993801
1.00011 0.999631 0.994453
1.00011 1.00037 0.993952
1.00011 0.999651 0.994456
1.00009 0.998514 0.995699
1.0001 0.998496 0.995715
1.00006 0.996784 0.997467
1.00009 0.998484 0.995737
1.00005 0.996788 0.997667
1.00001 0.995769 0.999447
1.00003 0.996818 0.997868
1.00001 0.995795 0.9987
0.999984 0.995798 0.998713
1.00008 0.998394 0.995856
1.00007 0.998457 0.995808
1.00003 0.996792 0.997528
1.00001 0.996854 0.997692
0.999963 0.995857 0.999454
0.999985 0.996929 0.997487
0.99993 0.995928 0.999449
0.999891 0.996017 0.999441
1.00033 1.00058 0.993173
0.999868 1.00199 0.992751
0.999827 1.00152 0.993317
0.999849 1.00166 0.993119
0.999964 1.00163 0.992859
0.999605 1.00088 0.994459
0.999892 1.0018 0.99297
1.00094 0.997779 0.99562
0.999111 1.00052 0.995529
1.00011 0.999396 0.994804
1.00015 1.0013 0.992782
1.00046 1.00097 0.992544
1.00052 1.00018 0.993172
1.00016 1.00104 0.993038
1.00022 1.00135 0.992645
1.00044 1.0006 0.992892
1.00062 0.999627 0.993565
1.00019 1.00109 0.992984
1.0002 1.00119 0.992837
1.00018 1.00119 0.992854
1.00006 0.99851 0.995779
1.00012 1.00092 0.993275
1.00007 0.999695 0.994754
1.00009 1.00055 0.993749
1.0001 0.999552 0.99456
1.00022 1.00181 0.992188
1.00011 0.999484 0.994674
1.00009 0.999598 0.994636
1.00012 1.00031 0.99392
1.00046 1.00063 0.992886
1.00066 0.999275 0.993811
1.00018 1.00127 0.992825
1.00027 1.00134 0.99257
1.00058 1.00001 0.993236
1.00007 1.00054 0.993715
1.00012 1.00099 0.993261
1.00016 1.0013 0.992802
1.00017 1.00144 0.992682
1.00016 1.00131 0.992791
1.00023 1.00216 0.991879
1.00062 0.999284 0.993879
1.00076 0.999224 0.993655
1.00039 1.00104 0.992702
1.00014 1.00145 0.992694
1.00011 1.00023 0.993877
1.0001 1.00039 0.993735
1.00008 1.00086 0.993434
1.0001 1.00116 0.993112
1.00015 1.00123 0.992857
1.00016 1.00171 0.992467
1.00016 1.00157 0.992549
1.0001 1.00083 0.993416
1.00012 1.00118 0.99301
1.00003 1.00039 0.993862
1.00072 0.998954 0.993878
1.00072 1.00043 0.992762
1.00015 1.00142 0.992672
1.00022 1.00187 0.992201
1.00011 1.0012 0.993074
1.00033 0.999176 0.994417
1.00017 1.00137 0.992753
1.00017 1.00181 0.992323
1.00108 0.99923 0.99302
1.00033 1.0018 0.991964
1.00301 0.99643 0.992352
1.00013 1.00139 0.992817
1.00136 0.998563 0.992582
1.00015 1.00164 0.99255
1.00012 1.00243 0.991806
1.00078 1.00129 0.991328
0.996006 0.999192 0.986328
1.00147 0.999508 0.992491
1.00276 0.997554 0.990599
0.99652 0.993028 1.00299
1.0083 0.982051 1.00259
1.0001 1.0011 0.993152
1.00012 1.00126 0.992968
1.00013 1.00133 0.992866
1.00011 0.9996 0.994597
1.00012 1.00025 0.993881
1.00012 1.00067 0.993536
1.00013 1.00103 0.993202
1.00014 1.00116 0.992993
1.00013 1.00071 0.993474
1.00011 0.999633 0.994506
1.00012 1.00032 0.993842
1.00016 1.0012 0.992933
1.00014 1.00099 0.99319
1.00014 1.00098 0.993199
1.00017 1.0012 0.992919
1.00014 1.00079 0.993328
1.00011 1.00041 0.99372
1.00011 0.999652 0.994442
1.00011 1.00039 0.993855
1.00012 1.00084 0.993429
1.00011 1.00038 0.993838
1.00011 1.00037 0.993865
1.0001 0.999651 0.994569
1.00011 0.999651 0.994454
1.00009 0.998534 0.995692
1.00009 0.998514 0.995699
1.00006 0.99681 0.997457
1.0001 0.998498 0.995714
1.00006 0.996786 0.997467
1.00001 0.995758 0.999445
1.00005 0.996804 0.997476
1.00001 0.995768 0.999069
1.00001 0.995765 0.998701
1.00008 0.99832 0.995913
1.00008 0.998396 0.995855
1.00004 0.996735 0.997562
1.00007 0.998459 0.995807
1.00002 0.996789 0.997713
0.999984 0.995795 0.99946
1.00001 0.996856 0.997503
0.999956 0.995871 0.999452
0.999925 0.995927 0.999447
0.999973 1.00166 0.992859
0.999853 1.00165 0.993129
0.999301 1.00103 0.994791
1.0008 0.997925 0.995606
0.999816 1.00181 0.993013
0.999179 1.00089 0.995076
0.999503 1.0025 0.99274
0.999896 0.99891 0.992095
0.999184 1.0014 0.995725
1.00011 0.999333 0.994874
1.00011 0.9994 0.994802
1.00011 1.00014 0.994045
1.0001 1 0.994224
1.00028 1.00175 0.992086
1.00045 1.00065 0.992891
1.00066 0.999379 0.993703
1.00018 1.00126 0.992829
1.00024 1.00132 0.99258
1.00057 0.999985 0.993244
1.00017 1.00131 0.992804
1.00018 1.00138 0.99272
1.00016 1.00132 0.992829
1.00009 0.999603 0.994635
1.00013 1.00099 0.993238
1.00007 1.00053 0.993776
1.0001 0.999474 0.99474
1.00012 1.00032 0.993833
1.00027 1.00202 0.99195
1.00011 1.00025 0.993967
1.00011 1.00039 0.993789
1.00008 1.00079 0.993487
1.00059 0.999432 0.993838
1.00076 0.999192 0.993642
1.00015 1.00146 0.992688
1.00035 1.00101 0.992739
1.0001 1.00117 0.993135
1.00016 1.00121 0.992885
1.00016 1.00157 0.992549
1.00015 1.0017 0.992484
1.0003 1.00098 0.992881
1.0009 0.998232 0.994437
1.00058 1.00039 0.992831
1.00017 1.00154 0.992565
1.00008 1.00101 0.99326
1.0001 1.00105 0.993155
1.00013 1.00166 0.992518
1.00015 1.00201 0.992165
0.995032 0.996483 0.990095
1.0001 1.00118 0.993097
1.00016 1.00135 0.99274
1.00022 0.999098 0.994535
1.00108 0.999178 0.993212
1.00035 1.00189 0.991917
1.00015 1.00181 0.992314
1.00331 0.996553 0.992634
1.00012 1.00139 0.992842
1.00139 0.998692 0.992636
1.00014 1.0016 0.992567
1.00012 1.00239 0.991814
1.00082 1.00117 0.991521
0.995049 0.998624 0.989115
1.00177 0.998783 0.989566
1.00296 0.997798 0.990453
0.996885 0.9936 1.00098
1.00841 0.981973 1.00294
1.00009 1.00152 0.992786
0.996579 0.993766 0.998955
1.00627 0.988315 1.00131
1.00117 1.00085 0.990807
1.00001 1.00218 0.992306
1.00008 1.00339 0.99095
1.00169 1.00143 0.98946
0.996518 1.00226 0.982128
1.00183 0.999429 0.989027
0.998757 0.993183 1.00115
1.01164 0.985385 0.994765
1.00011 1.00125 0.992977
1.00013 1.00133 0.992863
1.00012 1.00139 0.992824
1.00011 0.999635 0.994559
1.00011 1.00032 0.993883
1.00013 1.0007 0.993416
1.00015 1.00099 0.993171
1.00016 1.00119 0.992957
1.00011 0.999651 0.994441
1.00015 1.00096 0.99319
1.00014 1.00079 0.993391
1.00011 1.0004 0.993779
1.00017 1.0012 0.992897
1.00017 1.00108 0.99299
1.00019 1.00126 0.992809
1.00013 1.00092 0.993272
1.00011 1.00041 0.993826
1.00011 1.00039 0.993854
1.00012 1.00084 0.993373
1.00012 1.00088 0.99333
1.00011 1.00088 0.993334
1.00012 1.00113 0.993088
1.00011 1.00096 0.993239
1.0001 1.00043 0.993794
1.00011 1.00038 0.993837
1.0001 0.999658 0.99457
1.00011 1.00037 0.993779
1.0001 0.999649 0.994518
1.00008 0.998556 0.99569
1.00011 0.99965 0.994452
1.00009 0.998533 0.995693
1.00004 0.996835 0.99783
1.00009 0.998513 0.9957
1.00006 0.996805 0.997646
1.00003 0.995764 0.998679
1.00006 0.996788 0.997466
1.00001 0.995757 0.999444
1.00002 0.995767 0.998691
1.00011 0.999345 0.994866
1.00009 0.998277 0.995951
1.00008 0.998325 0.995911
1.00004 0.996687 0.997596
1.00008 0.998398 0.995854
1.00004 0.996732 0.997563
0.999999 0.995741 0.999468
1.00002 0.996787 0.997892
0.999988 0.995812 0.999085
0.999969 0.995887 0.998705
1.00065 0.998065 0.995592
0.999738 1.00181 0.993055
0.999247 1.00126 0.994623
0.999981 0.999301 0.993696
0.999046 1.00146 0.995713
0.999685 1.00247 0.992432
0.999676 1.00359 0.992175
0.99883 1.0016 0.992164
0.996098 0.997941 0.983845
0.997064 0.993079 0.999702
1.006 0.985354 1.00297
1.0001 1.00006 0.994074
1.00011 0.999335 0.994872
1.00011 0.999404 0.9948
1.00011 1.00015 0.994027
1.00009 1.0007 0.993601
1.00011 1.00049 0.993753
1.00009 1.00013 0.99415
1.00009 1.00003 0.994181
1.0003 1.00188 0.992021
1.00057 0.999586 0.993796
1.00076 0.999162 0.993629
1.00016 1.00147 0.992683
1.00032 1.00098 0.992777
1.00016 1.00158 0.992549
1.00015 1.00169 0.9925
1.00017 1.00119 0.992914
1.00011 1.00039 0.993842
1.00009 1.00117 0.993159
1.00011 1.00026 0.994058
1.00008 1.00072 0.99354
1.00028 1.00106 0.99288
1.00008 1.00099 0.993277
1.0001 1.00106 0.993199
1.0009 0.998274 0.994402
1.00058 1.00032 0.992888
1.00019 1.00156 0.992488
1.00012 1.00166 0.992535
1.00016 1.00196 0.992186
1.00115 0.997945 0.994047
1.00078 0.999688 0.99333
1.00035 1.0013 0.992322
1.00023 1.0021 0.991942
1.00008 1.00153 0.992753
1.00009 1.00164 0.992648
1.00011 1.00228 0.992058
0.995557 0.992611 1.00648
0.995946 0.998316 0.98786
1.00011 1.00138 0.992867
1.00013 1.00157 0.992583
1.00143 0.998813 0.992691
1.00087 1.00105 0.991715
1.00013 1.00234 0.991821
0.996185 0.997814 0.983741
1.00167 0.99944 0.992969
1.00317 0.998056 0.990306
0.997037 0.993398 0.998922
1.00847 0.981991 1.00329
1.00008 1.00151 0.992787
0.99566 0.993013 1.00607
1.00614 0.98872 1.00132
1.00128 1.00085 0.990815
1 1.00212 0.992342
1.00002 1.00326 0.991086
1.00158 1.00172 0.989393
0.995928 1.00165 0.980814
1.00172 0.999091 0.993314
0.999703 0.992329 0.995321
1.01125 0.982949 0.996986
1.00001 1.00171 0.99275
1.00592 0.99419 0.996201
1.01271 0.993272 0.987076
0.999862 1.00409 0.990292
0.999652 1.00323 0.992037
1.0002 1.00405 0.992026
1.00059 1.00126 0.994042
0.996325 1.00368 0.98094
1.0024 0.99108 0.992044
1.01329 0.991388 0.986681
1.00013 1.00134 0.99286
1.00012 1.00139 0.992822
1.00011 1.00148 0.992737
1.00011 0.99965 0.994441
1.00011 1.0004 0.993839
1.00013 1.00078 0.993454
1.00015 1.00094 0.993182
1.00018 1.00121 0.992875
1.00011 1.00041 0.993825
1.00017 1.00107 0.993031
1.00013 1.00092 0.993273
1.00019 1.00127 0.9928
1.00018 1.00134 0.992763
1.00017 1.00121 0.992894
1.00013 1.00093 0.993269
1.00011 1.00039 0.993853
1.00012 1.00084 0.993317
1.00013 1.00088 0.993326
1.00012 1.00088 0.993331
1.00011 1.00111 0.993103
1.0001 1.00097 0.993264
1.00013 1.00123 0.992989
1.00011 1.00122 0.992948
1.00016 1.00113 0.992989
1.0001 1.00099 0.993205
1.00013 1.00086 0.993282
1.00012 1.00096 0.993241
1.0001 1.00046 0.993767
1.0001 1.00043 0.993792
1.00009 0.999677 0.994562
1.00011 1.00039 0.993836
1.0001 0.999659 0.994568
1.00007 0.998576 0.995694
1.0001 0.999647 0.994467
1.00008 0.998556 0.99569
1.00003 0.996872 0.997825
1.00009 0.998532 0.995693
1.00005 0.99683 0.997637
1.00002 0.995761 0.998673
1.00006 0.996799 0.997455
1.00001 0.995765 0.999442
1.00001 0.995756 0.999444
1.0001 0.999407 0.994973
1.00009 0.998292 0.995943
1.00011 0.999341 0.994866
1.00005 0.996668 0.997612
1.00009 0.99828 0.99595
1.00008 0.998329 0.995909
1.00004 0.996692 0.997594
1.00001 0.995705 0.999475
1.00003 0.99673 0.997925
1 0.995744 0.999099
0.999996 0.99583 0.998717
0.995381 0.993435 1.00445
1.0055 0.989985 0.998145
0.999756 1.00071 0.994533
0.998907 1.00153 0.995702
0.999868 1.00245 0.992123
0.99873 1.00251 0.995177
0.999806 1.00317 0.992204
0.995649 0.998608 0.98775
0.996268 0.993682 1.00428
1.00705 0.984151 1.00291
0.999878 1.00289 0.992685
0.996364 1.00094 0.983242
0.998282 0.993117 1.00193
1.01119 0.98466 0.997554
1.00007 1.00083 0.993417
1.0001 1.00006 0.994125
1.00011 0.999337 0.994869
1.00011 1.00015 0.99401
1.00009 1.00062 0.993661
1.0001 1.0007 0.993595
1.00011 1.00045 0.993786
1.00008 1.00032 0.993972
1.00009 1.00014 0.994093
1.00009 1.00006 0.994139
1.00025 1.00111 0.992878
1.00089 0.998305 0.994368
1.00058 1.00024 0.992944
1.00021 1.00158 0.992411
1.00016 1.00191 0.992207
1.00012 1.00166 0.992553
1.00009 1.00108 0.993242
1.00008 1.00098 0.993295
1.00099 0.998238 0.993966
1.00007 1.00157 0.992717
1.00009 1.00166 0.992593
1.00076 0.999436 0.993522
1.0004 1.00139 0.99218
1.0002 1.0021 0.991935
1.00011 1.00226 0.992019
1.00192 0.996841 0.993551
1.00029 1.0021 0.991836
1.00014 1.00263 0.991526
1.00007 1.00157 0.992715
1.00007 1.00194 0.992393
1.00009 1.00216 0.992136
1.00599 0.995688 0.993979
0.996433 0.993227 1.00071
0.994962 0.996707 0.989723
1.00008 1.0015 0.992789
0.999992 1.00205 0.992378
1.00137 1.00084 0.990822
0.999954 1.00314 0.991221
0.996441 0.992872 1.00125
0.995479 1.00074 0.988125
1.00221 0.998895 0.989233
1.00149 1.00203 0.989327
0.999355 0.992187 1.0002
1.00608 0.989163 1.00184
1.01064 0.984465 0.997184
1 1.00172 0.992753
1.00577 0.994277 0.996386
1.01244 0.993278 0.98718
0.999938 1.004 0.99023
0.999632 1.00317 0.992035
1.00023 1.00433 0.990487
1.0008 1.00117 0.989914
0.996678 1.00326 0.979529
1.00151 0.993156 0.996644
1.01281 0.990661 0.987765
0.999786 1.00218 0.99263
1.01328 0.99856 0.982266
1.0159 0.994744 0.980191
0.998922 1.004 0.992549
0.998659 1.00396 0.994522
0.996972 1.00249 0.98154
1.00638 0.990576 0.990182
1.01287 0.99356 0.984574
1.00012 1.00139 0.992819
1.00012 1.0015 0.992746
1.00014 1.00157 0.99258
1.00011 1.00041 0.993824
1.00013 1.00092 0.993275
1.00016 1.00106 0.993071
1.00019 1.00129 0.99279
1.00013 1.00093 0.993268
1.00017 1.00122 0.992889
1.00018 1.00133 0.992767
1.00009 1.00139 0.992865
1.00019 1.00139 0.992678
1.00015 1.00128 0.992902
1.00013 1.00088 0.993322
1.00012 1.00088 0.993327
1.00011 1.00109 0.993117
1.00013 1.0012 0.99301
1.0001 1.00097 0.993266
1.00012 1.00121 0.992965
1.00014 1.00127 0.992888
1.00009 1.00146 0.992799
1.00017 1.00131 0.992807
1.00016 1.00114 0.992982
1.00015 1.0011 0.993019
1.00014 1.0011 0.993066
1.00012 1.00071 0.99355
1.0001 1.00095 0.993258
1.00013 1.00086 0.993332
1.0001 1.00042 0.99374
1.00012 1.00096 0.993244
1.0001 1.00046 0.993768
1.00008 0.999709 0.994556
1.0001 1.00044 0.993789
1.00009 0.999682 0.99456
1.00005 0.998597 0.995705
1.0001 0.99966 0.994567
1.00007 0.998578 0.995693
1.00001 0.996913 0.997826
1.00008 0.998556 0.99569
1.00003 0.996866 0.997633
1.00001 0.9958 0.99867
1.00005 0.996824 0.997446
1.00001 0.995775 0.999057
1.00001 0.995766 0.999441
1.00008 0.999532 0.994784
1.00008 0.998332 0.995916
1.0001 0.999408 0.994847
1.00005 0.99668 0.997607
1.00009 0.998288 0.995945
1.00011 0.999337 0.994865
1.00001 0.995693 0.999477
1.00005 0.996669 0.997612
1.00009 0.998283 0.995949
1.00004 0.996697 0.997592
1.00001 0.995707 0.999473
0.999997 0.995745 0.999466
1.00584 0.994516 0.993417
0.995934 0.993334 1.0031
1.01223 0.99266 0.98788
1.00588 0.989248 0.999119
0.998495 1.00114 0.992726
0.999941 1.00274 0.992233
0.995179 0.999114 0.991744
0.996683 0.99362 0.999257
1.00805 0.983163 1.00285
1.00004 1.00164 0.992178
0.99574 1.00137 0.984447
0.998955 0.992519 0.996503
1.01099 0.983176 0.998776
1.00093 1.00078 0.992446
0.99602 1.00318 0.980996
1.00227 0.991272 0.997997
1.01298 0.991096 0.987773
1.00009 1.00121 0.993081
1.00008 1.00079 0.993493
1.0001 1.00007 0.994175
1.00009 1.00054 0.993721
1.00011 1.00088 0.993325
1.0001 1.00066 0.993633
1.0001 1.0004 0.993818
1.00008 1.00041 0.993959
1.00008 1.00031 0.994024
1.00009 1.00015 0.994035
1.00083 0.998558 0.993884
1.00074 0.999184 0.993715
1.00045 1.00149 0.992039
1.00018 1.0021 0.991928
1.00012 1.00224 0.991979
1.00009 1.00169 0.992537
1.00006 1.00161 0.99268
1.00007 1.00159 0.992707
1.00162 0.997212 0.99348
1.00007 1.00194 0.992407
1.0001 1.00221 0.992116
1.00028 1.00201 0.991939
1.00015 1.00261 0.991528
1.0014 0.999479 0.992197
0.999887 1.00341 0.991322
1.00011 1.0025 0.991671
1.00008 1.00181 0.992481
1.00011 1.00209 0.992129
1.01361 1.00057 0.979233
1.00594 0.996417 0.992555
0.995551 0.993515 1.00401
0.999988 1.00173 0.992755
0.999612 1.0031 0.992032
1.00001 1.0039 0.990169
1.00566 0.994822 0.993999
0.996088 1.0032 0.980397
1.00076 1.00074 0.994092
1.00026 1.00455 0.988951
1.00134 0.992307 0.99356
1.01214 0.993288 0.987283
1.01243 0.991739 0.986608
0.999798 1.00215 0.992693
1.01319 0.999071 0.980976
1.01596 0.994592 0.979891
0.999028 1.00413 0.992228
0.998913 1.00392 0.993638
0.996918 1.00285 0.980772
1.01346 0.994219 0.983978
1.00458 0.994146 0.988964
0.999735 1.00223 0.992526
1.01757 0.996628 0.975116
1.0168 0.993338 0.979554
1.01315 0.989315 0.989168
0.998802 1.00267 0.994076
0.996004 1.00123 0.985613
1.00682 0.994228 0.98443
1.00012 1.00151 0.992755
1.00013 1.00159 0.992599
1.00009 1.00154 0.992718
1.00013 1.00093 0.993267
1.00018 1.00123 0.992885
1.00017 1.00134 0.99277
1.00015 1.00127 0.992911
1.00018 1.00141 0.992669
1.00011 1.00138 0.992854
1.00008 1.00143 0.992885
1.00012 1.00155 0.992657
1.00013 1.00118 0.993031
1.0001 1.00097 0.993268
1.00012 1.0012 0.992982
1.0001 1.00144 0.992803
1.00013 1.00126 0.992886
1.0001 1.00158 0.99269
1.00015 1.00124 0.992891
1.00016 1.00153 0.992537
1.00016 1.00114 0.992975
1.00016 1.00111 0.993028
1.00017 1.00135 0.992727
1.00009 1.00119 0.993058
1.00009 1.00074 0.993517
1.00012 1.0011 0.993062
1.0001 1.00034 0.993883
1.00012 1.00072 0.993506
1.0001 1.00091 0.993311
1.00013 1.00086 0.993382
1.0001 1.00042 0.993772
1.00007 0.99971 0.994571
1.0001 1.00046 0.993769
1.00008 0.999709 0.994556
1.00003 0.998629 0.995715
1.00009 0.999687 0.994557
1.00005 0.998599 0.995704
0.999984 0.996933 0.997838
1.00007 0.998579 0.995693
1.00001 0.996903 0.997636
0.999983 0.995845 0.998672
1.00004 0.99686 0.997441
0.999998 0.995815 0.999054
1 0.995791 0.999439
1.00007 0.999644 0.994527
1.00007 0.998419 0.995702
1.00008 0.999534 0.994782
1.00004 0.996713 0.997589
1.00008 0.998334 0.995833
1.00009 0.999409 0.994722
1.00001 0.9957 0.999475
1.00005 0.996677 0.997608
1.00009 0.998283 0.995947
1.00001 0.995693 0.999476
1.00005 0.99667 0.997611
1 0.99571 0.999471
1.01334 0.998099 0.98115
1.0058 0.994062 0.995975
0.99644 0.992849 1.00042
1.00011 1.00043 0.993776
1.01588 0.993406 0.980646
1.0123 0.99288 0.988024
1.00642 0.988681 1.00036
1.00028 1.00122 0.991018
0.996703 1.00219 0.981463
0.998353 0.992177 1.00189
1.0106 0.985814 0.998117
1.00142 1.00019 0.98938
0.996603 1.00313 0.979782
1.00255 0.990679 0.993863
1.0129 0.990387 0.989272
1.00108 1.00073 0.988988
0.996434 1.00252 0.976335
1.00294 0.995525 0.986854
1.01272 0.995001 0.983458
1.00013 1.00139 0.992791
1.00009 1.00123 0.993041
1.00009 1.00075 0.993569
1.00011 1.00093 0.993278
1.00011 1.00086 0.993384
1.00011 1.00063 0.99367
1.00009 1.00039 0.993973
1.00009 1.00029 0.994076
1.00133 0.99759 0.993408
1.00026 1.00193 0.992041
1.00007 1.00161 0.992698
1.00016 1.00259 0.991531
1.0001 1.00225 0.992095
1.00006 1.00194 0.992422
1.00008 1.00182 0.99247
1.00118 0.999512 0.992113
1.00011 1.00212 0.992121
1.00012 1.00255 0.991644
0.999915 1.00339 0.991333
1.0001 1.0018 0.992409
1.00028 1.00248 0.9915
0.999811 1.00344 0.991521
1.00015 1.00213 0.991995
1.00012 1.00216 0.992065
1.01797 0.997997 0.973758
1.01363 1.00018 0.979297
1.00588 0.997081 0.991131
0.999811 1.00212 0.992755
0.999136 1.00426 0.991907
1.0131 0.999515 0.979685
0.996451 1.00269 0.979553
0.999512 1.00382 0.99084
1.00325 0.992878 0.988448
1.01603 0.994423 0.97959
1.01412 0.99478 0.983382
0.999773 1.00236 0.992584
1.01747 0.996648 0.975018
1.01715 0.993633 0.978837
0.998535 1.00271 0.994661
1.01307 0.988839 0.990586
0.996841 1.00047 0.985396
1.0044 0.995087 0.985175
1.00003 1.00097 0.993411
1.01884 0.993625 0.975923
1.0162 0.992256 0.981311
1.01141 0.983318 0.99861
1.00273 0.9947 0.988321
0.998114 1.00153 0.998339
0.997323 0.998043 0.985343
1.00012 1.00161 0.992618
1.00008 1.00158 0.992686
0.999756 1.00162 0.993125
1.00015 1.00126 0.99292
1.00018 1.00143 0.99266
1.00014 1.00134 0.992843
1.00012 1.00154 0.992656
1.00009 1.00139 0.992916
1.00003 1.00205 0.992387
1.00011 1.00142 0.992806
1.00013 1.00125 0.992885
1.00011 1.0016 0.992658
1.00005 1.00199 0.992333
1.00013 1.00118 0.992974
1.00014 1.00152 0.992585
1.00018 1.00177 0.992338
1.00019 1.00147 0.9926
1.00017 1.00112 0.993036
1.00017 1.00137 0.992712
1.0001 1.00116 0.993157
1.00003 1.0009 0.993432
1.00009 1.00116 0.993101
1.00008 1.00035 0.99393
1.00009 1.00075 0.993511
1.00011 1.00111 0.993058
1.00006 0.999683 0.99461
1.00011 1.00034 0.993854
1.00012 1.00073 0.993463
1.0001 1.00041 0.993804
1.00007 0.999709 0.994572
1.00001 0.998657 0.995725
1.00008 0.99971 0.994556
1.00003 0.99863 0.995715
0.999962 0.996981 0.997469
1.00005 0.998602 0.995703
0.999992 0.996933 0.997459
0.999941 0.995898 0.999442
1.00002 0.996897 0.997445
0.999976 0.995864 0.999055
0.999984 0.99583 0.999438
1.00008 0.999681 0.994468
1.00005 0.998531 0.995618
1.00007 0.999648 0.994602
1.00003 0.996773 0.997556
1.00007 0.998426 0.995692
1.00008 0.999536 0.99478
0.999996 0.995725 0.99947
1.00004 0.996708 0.99759
1.00008 0.998336 0.995751
1.00001 0.995701 0.999475
1.00005 0.996673 0.997608
1.00001 0.995694 0.999476
1.01758 0.996445 0.975306
1.01341 0.998083 0.981088
1.00583 0.99383 0.995733
1.00011 1.00042 0.993806
1.00014 1.00037 0.993721
1.00012 1.0009 0.993342
1.01659 0.994173 0.979027
1.01593 0.994218 0.980339
1.01237 0.993026 0.988169
1.00166 1.0007 0.992465
0.99633 1.00343 0.981467
1.00205 0.991976 0.992675
1.01285 0.99142 0.989168
1.00089 1.00103 0.992729
0.996486 1.00301 0.981008
1.00594 0.994435 0.987048
1.01335 0.995412 0.982994
0.999533 1.00171 0.994849
0.99582 1.00054 0.983119
1.00746 0.994923 0.982509
1.01323 0.991078 0.987159
1.00013 1.00142 0.992756
1.00012 1.00139 0.9928
1.00009 1.00126 0.993001
1.00011 1.00094 0.99327
1.00011 1.00084 0.993444
1.00009 1.00038 0.993986
1.00096 0.999517 0.992029
0.999941 1.00337 0.991344
1.00008 1.00182 0.992459
1.00013 1.0026 0.991616
1.00011 1.00214 0.992114
1.0001 1.00187 0.992375
1.00012 1.00216 0.992035
1.00026 1.00213 0.991401
1.00014 1.00217 0.992015
0.999803 1.00341 0.991503
1.0001 1.00219 0.99198
0.999633 1.00344 0.99194
0.999932 1.00233 0.992054
1.00015 1.0025 0.991681
1.01951 0.994578 0.974282
1.01793 0.997376 0.973777
1.01364 0.999755 0.979362
0.999814 1.00248 0.992642
0.998423 1.00271 0.995223
1.01737 0.996669 0.974919
0.997109 1.00081 0.990004
1.00766 0.99287 0.985213
1.01748 0.993961 0.97812
1.01303 0.989822 0.990472
1.00003 1.0011 0.993277
1.01887 0.993937 0.975636
1.01626 0.993038 0.980997
0.998133 1.00119 0.995265
1.01119 0.981828 0.999778
1.00545 0.993492 0.988909
0.995223 0.998887 0.98767
0.999829 1.00028 0.995493
1.01764 0.995689 0.975968
1.01253 0.991556 0.988507
1.00614 0.984419 1.00359
1.00227 0.990581 0.998726
0.99607 1.00016 0.984853
0.997801 1.0012 0.995544
1.00007 1.00162 0.992654
0.999825 1.00155 0.993119
0.999532 1.00282 0.992382
1.00013 1.00153 0.992654
1.00009 1.00136 0.992946
1.00003 1.00202 0.992431
0.999948 1.00291 0.99162
1.00012 1.00161 0.992626
1.00009 1.00206 0.992266
1.00013 1.00234 0.991917
1.00013 1.00152 0.992634
1.00018 1.00177 0.992325
1.00024 1.00188 0.992188
1.00028 1.0015 0.992428
1.00013 1.00124 0.992906
1.00019 1.00149 0.992571
1.00018 1.00138 0.992697
1.00008 1.0009 0.993458
1.00008 1.00112 0.993176
1.00002 1.0005 0.993838
1.00004 1.00089 0.993489
1.0001 1.00113 0.993145
1.00004 0.999698 0.994642
1.00008 1.00034 0.99393
1.0001 1.00076 0.993504
0.999994 0.998675 0.995744
1.00006 0.999682 0.994612
1.00011 1.00034 0.993825
1.00007 0.999708 0.994574
1.00001 0.998658 0.995726
0.999931 0.997037 0.997476
1.00003 0.998632 0.995715
0.999963 0.996984 0.997469
0.999911 0.996002 0.999444
0.999994 0.996936 0.997458
0.999946 0.995913 0.99906
0.999961 0.995874 0.999439
1.00008 0.999659 0.994585
1.00004 0.998588 0.995735
1.00008 0.999688 0.994519
1.00001 0.99685 0.997515
1.00005 0.998532 0.995694
1.00007 0.999651 0.994676
0.999981 0.995773 0.999462
1.00003 0.996765 0.997559
1.00006 0.998433 0.995682
0.999999 0.995727 0.999472
1.00004 0.996703 0.997591
1.00001 0.995703 0.999476
1.01881 0.99412 0.975411
1.01759 0.996724 0.975193
1.0135 0.998209 0.981027
1.00014 1.00029 0.993806
1.00016 1.00057 0.993586
1.00012 1.00041 0.993836
1.00014 1.00036 0.993729
1.00013 1.00091 0.993285
1.00015 1.00085 0.993318
1.00014 1.00116 0.993001
1.01591 0.994149 0.980839
1.01687 0.994613 0.97831
1.01598 0.99504 0.980032
1.01404 0.995759 0.98253
1.00121 1.00136 0.988795
0.996444 1.00355 0.984156
1.00534 0.991577 0.98666
0.999429 1.00245 0.992225
0.997548 1.00018 0.981982
1.0053 0.995695 0.982949
1.01296 0.990215 0.987755
0.998105 1.00249 0.995988
0.997618 0.998243 0.982526
1.00695 0.991164 0.989245
1.01159 0.985458 0.994856
1.00011 1.00167 0.992551
1.00013 1.00145 0.992743
1.00011 1.00139 0.992809
1.00011 1.00096 0.993262
1.00024 1.00181 0.991301
0.999804 1.00336 0.991486
1.00009 1.00193 0.992342
1.00012 1.00215 0.992005
1.00014 1.00221 0.992034
1.0001 1.00218 0.992055
1.00015 1.00251 0.991661
0.999396 1.00329 0.992702
0.999952 1.00217 0.99219
1.00011 1.00253 0.991723
0.998923 1.00233 0.99544
1.00005 1.00319 0.991027
1.01808 0.997411 0.974148
1.01935 0.994274 0.974511
1.01789 0.996795 0.973797
1.00002 1.00123 0.993142
0.998085 1.00123 0.998032
1.01891 0.994264 0.975349
0.997183 0.998092 0.984916
1.00512 0.990622 0.988218
1.01632 0.993831 0.980683
1.01076 0.984381 0.999134
0.999893 1.00003 0.99534
1.01766 0.995944 0.975864
1.0126 0.991743 0.988669
0.99801 1.00074 0.99906
1.00721 0.98325 1.0035
1.00247 0.989929 0.994766
0.996899 1.00015 0.984353
0.99968 1.00121 0.995224
1.01345 0.997244 0.981811
1.00571 0.989045 0.998706
0.998226 0.992946 1.00219
0.996366 1.00218 0.980634
0.998992 1.00154 0.992541
0.999893 1.00148 0.993114
0.999566 1.00277 0.992385
0.999443 1.00387 0.991507
1.00002 1.00198 0.992476
0.999933 1.00282 0.991722
1.00012 1.00315 0.991117
1.00012 1.00214 0.992198
1.00014 1.00238 0.991854
1.00026 1.00216 0.99181
1.00018 1.00178 0.992313
1.00023 1.00188 0.992149
1.00035 1.00152 0.992252
1.00043 1.00102 0.992562
1.00025 1.00131 0.992699
1.00027 1.00151 0.992396
1.00009 1.00095 0.993238
1.00013 1.00122 0.992948
1.00018 1.00151 0.992542
1.00004 1.00059 0.99378
1.00007 1.00091 0.993413
1.00007 1.00108 0.993196
1 0.999817 0.994603
1.00002 1.00049 0.993876
1.00004 1.00088 0.993546
0.999969 0.998709 0.995759
1.00004 0.999699 0.994643
1.00009 1.00034 0.99393
0.999899 0.997124 0.997483
0.999994 0.998674 0.995745
1.00006 0.999681 0.994613
1.00001 0.998658 0.995726
0.999932 0.997041 0.997477
0.999875 0.996081 0.999446
0.999964 0.996987 0.99747
0.999905 0.995996 0.999445
0.999933 0.995925 0.999443
1.00014 1.00024 0.993921
1.00008 0.999642 0.99461
1.00003 0.998614 0.995728
1.00009 0.999663 0.994584
0.99999 0.996922 0.997484
1.00004 0.998588 0.995734
1.00008 0.999695 0.994569
0.99996 0.995839 0.999453
1.00001 0.996842 0.997517
1.00005 0.998532 0.995769
0.999984 0.995773 0.999465
1.00003 0.996757 0.997561
1 0.995729 0.999473
1.01763 0.996152 0.975475
1.01888 0.994456 0.975143
1.01761 0.996999 0.975081
1.00013 1.00029 0.993841
1.00017 1.00057 0.993545
1.00014 1.00054 0.993556
1.00016 1.00066 0.99342
1.00019 1.00075 0.993353
1.00013 1.00035 0.993737
1.00013 1.00093 0.993227
1.00015 1.00084 0.993319
1.00014 1.00113 0.99302
1.00015 1.00116 0.993021
1.0126 0.993583 0.986936
1.01581 0.994146 0.980534
1.01714 0.995071 0.977593
1.01275 0.991206 0.986563
1.00811 0.993711 0.983417
0.999551 1.00283 0.990669
0.995571 0.999988 0.984572
0.99769 1.00286 0.993349
0.996077 0.998744 0.985507
1.00518 0.9944 0.987336
1.01115 0.983005 0.997121
0.996785 1.00238 0.994833
0.99553 1.00051 0.98416
1.00236 0.991122 0.992616
1.00785 0.982303 1.00346
1.00006 1.00157 0.992751
1.00011 1.00164 0.992596
1.00013 1.00148 0.99273
0.999159 1.00315 0.993465
0.999975 1.00202 0.992326
1.00009 1.00217 0.99213
1.00015 1.00253 0.991641
1.00009 1.00257 0.991748
1.00004 1.0032 0.991023
0.998927 1.00219 0.995438
0.999872 1.00303 0.991511
0.999216 1.0037 0.993296
1.01379 1.00002 0.979776
1.01803 0.996815 0.974151
1.0192 0.993963 0.974741
0.999963 0.999803 0.995189
0.997939 1.00045 0.99519
1.01768 0.996197 0.975761
0.995564 1.0001 0.982264
1.00202 0.991455 0.99324
1.01267 0.991844 0.98883
1.00822 0.982294 1.00341
0.999647 1.00104 0.995231
1.01353 0.997251 0.98174
1.00608 0.988337 0.999682
0.998498 1.00144 0.994776
0.998969 0.99237 0.996639
0.996575 1.00288 0.978442
0.999783 1.0021 0.993651
1.00597 0.99373 0.993978
0.997155 0.992995 0.99963
0.99597 1.00317 0.980977
1.00036 1.00089 0.992996
0.999597 1.00273 0.992388
0.999467 1.00384 0.991523
0.999929 1.00404 0.990878
0.999919 1.00273 0.991824
1.00009 1.00314 0.991163
1.00044 1.00199 0.991581
1.00014 1.00242 0.991791
1.00025 1.00211 0.991846
1.00049 1.00107 0.992432
1.00023 1.00188 0.99211
1.00034 1.00146 0.992281
1.00055 1.00054 0.992796
1.00054 1.00042 0.992915
1.00036 1.00109 0.99263
1.00043 1.00098 0.99258
1.00018 1.00106 0.993025
1.00023 1.00133 0.992648
1.00027 1.00152 0.992364
1.00007 1.0006 0.993703
1.00009 1.00094 0.993282
1.00013 1.0012 0.99299
0.999985 0.999963 0.994492
1.00003 1.00058 0.993766
1.00007 1.00092 0.993368
0.999935 0.998802 0.995735
1 0.999821 0.994601
1.00003 1.00047 0.993913
0.999856 0.997169 0.997865
0.99997 0.998711 0.995759
1.00004 0.9997 0.994644
0.999848 0.996161 0.998694
0.999894 0.997113 0.997673
0.999995 0.998674 0.995746
0.999933 0.997045 0.997477
0.999869 0.996073 0.999446
0.9999 0.99599 0.999445
1.00013 1.00023 0.993903
1.00008 0.999631 0.994632
1.00014 1.00024 0.993899
1.00002 0.998631 0.995738
1.00008 0.999644 0.994609
0.999965 0.996983 0.997472
1.00003 0.998616 0.995727
1.00009 0.999667 0.994582
0.999934 0.995911 0.999446
0.999988 0.996917 0.997484
1.00004 0.998589 0.995734
0.999964 0.995839 0.999456
1.00001 0.996834 0.997519
0.999987 0.995774 0.999467
1.01336 0.99931 0.979237
1.01755 0.996158 0.975375
1.01894 0.994807 0.974875
1.00012 1.00062 0.993616
1.00013 1.00029 0.993877
1.00017 1.00057 0.993503
1.00016 1.00067 0.993465
1.00014 1.00056 0.993599
1.00019 1.00072 0.993356
1.00017 1.00079 0.993299
1.00016 1.00089 0.993198
1.00015 1.00083 0.993319
1.00015 1.0011 0.993038
1.00015 1.00114 0.993021
1.00016 1.00121 0.992996
1.00631 0.987811 1.00175
1.01236 0.993596 0.987036
1.01573 0.994142 0.980229
1.01047 0.984767 0.997585
1.0038 0.993344 0.986464
0.997637 0.99822 0.98251
0.997413 1.003 0.998362
0.996892 1.0023 0.999514
1.00781 0.982321 1.00374
0.997083 1.00023 0.981232
1.00125 0.992017 0.997688
0.997562 1.00359 0.996331
0.996268 1.00266 0.980922
0.998203 0.992224 1.00294
0.999924 1.00163 0.99296
1.00009 1.00153 0.992759
1.00011 1.0016 0.992642
0.998926 1.00206 0.995437
1.00002 1.00322 0.991019
1.00007 1.00261 0.991773
0.999896 1.00306 0.991552
0.999282 1.00366 0.993194
0.99955 1.00238 0.993125
1.00641 0.994409 0.996862
1.01372 1.00009 0.978248
1.01798 0.996252 0.974153
0.999622 1.00084 0.995238
0.99883 1.00159 0.995518
1.01362 0.997402 0.98167
0.996512 1.00324 0.985603
0.998363 0.991947 1.00214
1.00662 0.987881 1.00082
0.999808 1.00212 0.99373
1.00593 0.993361 0.996461
0.996349 0.99356 1.00429
1.00042 1.0011 0.989761
0.996624 1.00304 0.979822
1.00105 1.0013 0.99102
0.995474 0.993085 1.00459
0.996335 1.00127 0.982913
1.00163 0.999611 0.989359
0.999494 1.00381 0.991539
0.999827 1.00399 0.990797
1.00058 1.00164 0.991876
1.00005 1.00314 0.99121
1.00043 1.00187 0.991632
1.00082 0.999837 0.992963
1.00024 1.00205 0.991881
1.00048 1.00097 0.992473
1.00071 0.999645 0.99336
1.00033 1.0014 0.99231
1.00055 1.00049 0.99281
1.00064 0.999807 0.993316
1.00052 1.00018 0.993183
1.00047 1.00066 0.992867
1.00054 1.0004 0.992927
1.00027 1.00095 0.992894
1.00034 1.00107 0.992676
1.00043 1.00093 0.992597
1.0001 1.0007 0.993537
1.00016 1.00107 0.99302
1.00021 1.00136 0.992597
0.99999 1.00008 0.994366
1.00007 1.0006 0.993701
1.00009 1.00092 0.993325
0.999904 0.998943 0.995657
0.999989 0.99996 0.994492
1.00003 1.00058 0.993752
0.999819 0.99726 0.997479
0.999937 0.998808 0.995732
1.00001 0.999825 0.9946
0.999793 0.996213 0.999449
0.99986 0.997169 0.99749
0.999971 0.998713 0.99576
0.999833 0.996165 0.999447
0.999899 0.997106 0.997485
0.999863 0.996064 0.999446
1.00009 1.00033 0.994013
1.00012 1.00024 0.993931
1.00006 0.999665 0.994632
1 0.998652 0.995748
1.00008 0.999632 0.994631
1.00014 1.00024 0.993876
0.999937 0.997037 0.997474
1.00002 0.99863 0.995738
1.00008 0.999646 0.994608
0.999904 0.995983 0.999444
0.999964 0.996979 0.997472
1.00003 0.998618 0.995726
0.999939 0.995915 0.999448
0.999987 0.996912 0.997485
0.999968 0.99584 0.999458
1.00658 0.993384 0.995571
1.01336 0.999368 0.97916
1.01746 0.996163 0.975275
1.00013 1.00063 0.993579
1.00012 1.00067 0.993537
1.00015 1.00075 0.99338
1.00015 1.00068 0.99351
1.00014 1.00057 0.993643
1.00019 1.00069 0.993359
1.00017 1.00088 0.993217
1.00017 1.00077 0.993322
1.00014 1.00109 0.993096
1.00012 1.00114 0.993112
1.00015 1.00112 0.993022
1.00016 1.00119 0.992973
0.996616 0.992028 1.00373
1.00606 0.988157 1.00198
1.0121 0.993614 0.987135
1.00775 0.982483 1.00403
1.0013 0.991369 0.994893
0.996749 1.00057 0.985476
0.996689 1.00248 0.994936
0.997603 1.00366 0.992632
0.999169 0.991528 0.997112
0.996574 1.00282 0.98425
0.998898 1.00304 0.990125
0.996219 1.00263 0.983326
0.999777 1.00241 0.992689
0.999949 1.00157 0.992973
1.00011 1.00149 0.992766
0.99934 1.00363 0.993093
0.999917 1.00309 0.991594
0.999806 1.0023 0.993144
1.00011 1.00115 0.993293
0.99574 0.992271 1.00653
1.00627 0.995443 0.994225
1.01363 1.00006 0.97672
0.999821 1.00215 0.993808
1.00032 1.00131 0.994294
1.00597 0.993091 0.99623
0.996246 1.00337 0.981364
0.996728 0.993727 0.999156
1.00082 1.00125 0.99156
0.996022 0.993141 1.00317
0.995658 1.00167 0.98406
1.00133 0.99968 0.993471
1.00222 0.997815 0.991887
0.996041 0.998274 0.98347
1.00114 1.0005 0.992608
0.999724 1.00394 0.990715
1.00056 1.00144 0.991911
1.00122 0.998301 0.993865
1.00042 1.00176 0.991683
1.00079 0.999741 0.993
1.00091 0.99835 0.994192
1.00047 1.00087 0.992515
1.00071 0.9996 0.993361
1.00072 0.999138 0.993798
1.00055 1.00044 0.992825
1.00063 0.999825 0.993305
1.00058 0.999834 0.993397
1.0005 1.00022 0.993184
1.00052 1.00017 0.993193
1.00047 1.00039 0.993112
1.00039 1.00067 0.993
1.00046 1.00066 0.992875
1.00053 1.00038 0.99294
1.00018 1.00071 0.993291
1.00027 1.00096 0.992943
1.00033 1.00106 0.992723
0.999998 1.00023 0.994202
1.0001 1.0007 0.993536
1.00014 1.00107 0.993016
0.999882 0.999094 0.99555
0.999997 1.00007 0.994366
1.00007 1.0006 0.993699
0.999773 0.997388 0.99744
0.999906 0.99895 0.995655
0.999993 0.999957 0.994493
0.999745 0.996379 0.999447
0.99982 0.997271 0.997477
0.999939 0.998814 0.99573
0.999794 0.996227 0.999073
0.999862 0.997179 0.99749
0.999823 0.996146 0.999448
1.00007 1.00044 0.993893
1.00009 1.00033 0.993941
1.00004 0.999759 0.994597
1.00011 1.00025 0.993959
1.00006 0.999663 0.994632
0.999984 0.998701 0.995741
0.999907 0.997095 0.997478
1 0.998651 0.995747
1.00008 0.999633 0.994629
0.99987 0.996056 0.999445
0.999937 0.997032 0.997474
1.00002 0.99863 0.995738
0.999909 0.995991 0.999445
0.999963 0.996976 0.997471
0.999943 0.995918 0.99945
0.99709 0.992989 0.998877
1.00637 0.993107 0.997596
1.01336 0.999427 0.979084
1.00013 1.00063 0.993543
1.00015 1.00075 0.993385
1.00012 1.00067 0.993555
1.0001 1.00076 0.993477
1.00014 1.00082 0.993321
1.00017 1.00086 0.993237
1.00017 1.00076 0.993345
1.00014 1.00107 0.993084
1.00009 1.00106 0.993143
1.0001 1.00125 0.993002
1.0001 1.0014 0.992917
1.00011 1.00117 0.99308
1.00015 1.00116 0.99295
0.996893 0.999735 0.980632
0.996966 0.993099 1.00149
1.00606 0.988596 1.00221
0.999004 0.990976 1.0019
0.996303 1.00268 0.976879
0.997743 1.00367 0.996109
0.999033 1.00301 0.991943
0.996362 1.0019 0.981694
1.00023 1.00095 0.991305
1.00015 1.00265 0.991589
0.999749 1.00247 0.99263
0.999976 1.0015 0.992985
1.00008 1.00223 0.993164
1.00009 1.00057 0.993515
0.994975 0.996616 0.989907
0.996664 0.992875 1.00061
1.00614 0.996481 0.991589
1.0006 1.00121 0.9921
1.00172 0.999981 0.989136
0.996525 0.992469 1.00054
0.996629 1.00248 0.98115
1.00199 0.998017 0.991783
0.995494 0.998969 0.987512
1.00157 0.999853 0.989549
1.00252 0.995411 0.993577
0.999763 1.00325 0.992692
1.00053 1.00123 0.991945
1.00117 0.998222 0.993871
1.00104 0.997546 0.994853
1.00075 0.999645 0.993036
1.0009 0.99838 0.994158
1.00077 0.998611 0.994233
1.00071 0.999554 0.993362
1.00072 0.999192 0.993771
1.0006 0.999651 0.993535
1.00063 0.999846 0.993294
1.00058 0.999881 0.993377
1.00052 1.00018 0.993169
1.0005 1.00021 0.993203
1.00047 1.00041 0.993068
1.00053 1.00016 0.993203
1.00047 1.00038 0.99311
1.00043 1.0005 0.993093
1.00029 1.00059 0.993206
1.00039 1.00069 0.99299
1.00044 1.00067 0.992884
1.00004 1.00036 0.993994
1.00018 1.00072 0.993328
1.00027 1.00097 0.992992
0.999863 0.999272 0.995406
1.00001 1.00022 0.9942
1.0001 1.0007 0.993535
0.99973 0.997537 0.997376
0.999885 0.9991 0.995548
1 1.00006 0.994367
0.999694 0.996513 0.999441
0.999776 0.997403 0.997437
0.999909 0.998956 0.995652
0.999737 0.996364 0.999446
0.999821 0.997283 0.997476
0.999778 0.996238 0.999448
1.00005 1.00058 0.99372
1.00007 1.00044 0.993895
1.00001 0.99991 0.99442
1.00009 1.00034 0.993869
1.00004 0.999769 0.994542
0.999956 0.998803 0.995699
1.00006 0.999662 0.994632
0.999984 0.998698 0.995741
0.999873 0.99717 0.997474
0.999832 0.996133 0.999446
0.999907 0.997089 0.997478
1 0.99865 0.995747
0.999875 0.996068 0.999445
0.999936 0.997028 0.997473
0.999914 0.996 0.999445
0.996282 0.998827 0.986377
0.996287 0.992461 1.00561
1.00632 0.993153 0.996861
1.00014 1.00075 0.993391
1.00012 1.00067 0.993574
1.00014 1.00082 0.99334
1.0001 1.00076 0.993497
1.00006 1.00095 0.993389
1.00011 1.00092 0.993303
1.00013 1.00105 0.993072
1.0001 1.00108 0.993141
1.00008 1.00127 0.993012
1.00006 1.00119 0.99302
1.00025 1.00121 0.992924
1.00043 1.00191 0.991732
1.00008 1.00138 0.992912
1.00009 1.00119 0.993048
1.00086 0.998919 0.995323
0.996067 0.999777 0.984805
0.997089 0.992508 0.999558
0.99601 1.00232 0.982631
0.999243 1.00279 0.99451
1.00011 1.0011 0.993578
1.00167 1.00013 0.991263
1.00011 1.00241 0.991618
0.999713 1.00252 0.992571
1.00006 1.00004 0.993737
0.998731 1.00222 0.991725
0.995817 0.998646 0.987692
0.995795 0.99312 1.00394
1.00176 0.99819 0.991679
1.00178 1.0002 0.992776
0.995053 0.999442 0.991545
1.00221 0.995956 0.993473
0.999949 1.002 0.992135
1.00125 0.997742 0.993957
0.999523 1.0036 0.992141
1.00112 0.998152 0.993878
1.00102 0.997626 0.994811
1.00065 0.99907 0.994061
1.00088 0.998411 0.994125
1.00075 0.998727 0.994187
1.00059 0.999724 0.993535
1.00071 0.999248 0.993745
1.0006 0.999699 0.993516
1.00055 1.00023 0.993075
1.00058 0.999928 0.993357
1.00052 1.0002 0.993183
1.00048 1.00051 0.992932
1.0005 1.00019 0.993222
1.00047 1.00038 0.993084
1.00043 1.00054 0.993024
1.00048 1.00038 0.993107
1.00043 1.00049 0.993088
1.00034 1.0005 0.993253
1.00011 1.00039 0.993741
1.00029 1.0006 0.993247
1.00038 1.0007 0.992981
0.99986 0.999474 0.995207
1.00004 1.00035 0.993996
1.00017 1.00072 0.993365
0.999688 0.997705 0.997287
0.999867 0.999279 0.995403
1.00002 1.0002 0.994199
0.99964 0.99667 0.999428
0.999733 0.997553 0.997372
0.999887 0.999106 0.995546
0.999685 0.996499 0.999437
0.999778 0.997418 0.997434
0.999729 0.996349 0.999444
1.00003 1.00072 0.993671
1.00005 1.00058 0.993783
0.999983 1.00009 0.9943
1.00006 1.00045 0.993898
1.00001 0.999928 0.994406
0.999923 0.998952 0.995622
1.00004 0.99978 0.994487
0.999955 0.998798 0.9957
0.999834 0.997278 0.997449
0.999984 0.998694 0.995741
0.999873 0.997161 0.997475
0.999789 0.996225 0.999444
0.999838 0.99615 0.999446
0.999906 0.997083 0.997478
0.999881 0.996082 0.999444
1.00015 0.999011 0.996142
0.995332 0.997154 0.988426
0.996844 0.992105 1.00114
1.00009 1.00105 0.993276
1.00014 1.00082 0.993358
1.00011 1.00075 0.993518
1.00011 1.00093 0.99329
1.00006 1.00096 0.993384
1.00004 1.00108 0.993247
1.00011 1.0011 0.99314
1.00005 1.00129 0.993023
1.00009 1.00121 0.993054
1.00015 1.0012 0.993044
1.00034 1.00145 0.992337
1.00117 1.00139 0.990652
1.00036 1.00188 0.991845
1.00006 1.00136 0.992906
1.00211 0.997685 0.991852
1.00094 0.998926 0.993391
0.99551 0.999789 0.988985
1.00053 1.00119 0.990096
1.00166 1.00053 0.990435
1.00008 1.00214 0.991646
0.99921 1.00213 0.995014
0.998749 1.00326 0.994548
0.994928 0.996772 0.989605
1.00189 0.99649 0.993369
1.00014 1.00155 0.990976
1.00112 0.99803 0.993892
0.99961 1.00334 0.992403
1.00028 1.00107 0.992581
0.999431 1.00283 0.992428
1.001 0.997695 0.99477
1.00061 0.999209 0.994034
1.00044 1.0006 0.993018
1.00072 0.998844 0.994141
1.00058 0.999755 0.99353
1.00054 1.00039 0.992966
1.0006 0.999746 0.993498
1.00055 1.00023 0.993091
1.00052 1.00066 0.99271
1.00051 1.00021 0.993197
1.00049 1.00051 0.992934
1.00045 1.00066 0.992865
1.00047 1.00035 0.993101
1.00043 1.00051 0.993022
1.00036 1.00057 0.993119
1.00043 1.00049 0.993083
1.00035 1.0005 0.993222
1.00016 1.00042 0.993669
0.99988 0.999658 0.994982
1.00011 1.00039 0.99379
1.00028 1.00061 0.993288
0.999651 0.997901 0.997162
0.999864 0.999479 0.995205
1.00005 1.00033 0.993998
0.999584 0.996846 0.999409
0.999693 0.997724 0.997282
0.999871 0.999286 0.9954
0.999631 0.996656 0.999423
0.999737 0.99757 0.997368
0.999676 0.996485 0.999434
1.00003 1.00083 0.993534
1.00002 1.00072 0.993672
0.999965 1.00026 0.99425
1.00005 1.00057 0.993845
0.999977 1.0001 0.994336
0.999887 0.999133 0.995517
1 0.999946 0.994393
0.999921 0.998947 0.995623
0.999787 0.997425 0.997401
0.999954 0.998793 0.995702
0.999833 0.997266 0.997451
0.999738 0.996341 0.999438
0.999873 0.997152 0.997475
0.999797 0.996243 0.999445
0.999845 0.996166 0.999446
1.00079 0.997415 0.995127
1.00008 0.998461 0.99319
0.996402 0.997416 0.987256
1.00008 1.00106 0.993169
1.00023 1.00105 0.992979
1.00005 1.00106 0.993262
1.00012 1.00094 0.993276
1.00005 1.00097 0.993379
1.00006 1.0011 0.993216
1.00035 1.00132 0.992414
1.00011 1.00122 0.993088
1.00005 1.00119 0.993165
1.00033 1.00144 0.992309
1.0009 1.00134 0.991121
1.00128 0.999296 0.992575
1.00117 1.00135 0.990778
1.00029 1.00185 0.991959
1.0021 0.997763 0.9919
1.00043 0.998469 0.99218
1.00167 1.00098 0.989608
0.999163 1.00088 0.995078
0.999169 1.00198 0.994991
0.998563 1.00164 0.99253
1.001 0.998343 0.993827
0.999703 1.00307 0.992665
1.00031 1.00107 0.992705
0.999518 1.00273 0.992617
1.00009 1.00192 0.992386
0.999482 1.00198 0.993841
1.00058 0.999352 0.994007
1.00043 1.00054 0.993053
1.00043 1.00102 0.992607
1.00056 0.999785 0.993525
1.00053 1.00041 0.992947
1.0005 1.00078 0.992588
1.00055 1.00024 0.993108
1.00052 1.00066 0.992714
1.00047 1.00082 0.99265
1.00049 1.00051 0.992935
1.00045 1.00066 0.992864
1.00037 1.0007 0.99298
1.00044 1.00048 0.993021
1.00036 1.00055 0.993117
1.00018 1.00051 0.993545
1.00035 1.0005 0.993192
1.00016 1.00041 0.993648
0.999901 0.999832 0.994766
0.999628 0.998124 0.997024
0.999884 0.999656 0.994984
1.0001 1.00038 0.99384
0.999526 0.997043 0.999384
0.999657 0.997921 0.997155
0.999868 0.999484 0.995204
0.999574 0.996831 0.999403
0.999698 0.997742 0.997276
0.999622 0.996641 0.999418
1.00009 1.00092 0.993261
1.00003 1.00083 0.993493
0.999982 1.0004 0.994078
1.00002 1.00072 0.993672
0.999958 1.00027 0.994249
0.999852 0.999337 0.995386
0.999972 1.0001 0.994373
0.999883 0.999129 0.995519
0.999734 0.997607 0.997331
0.999919 0.998942 0.995624
0.999786 0.997411 0.997404
0.999678 0.996491 0.999425
0.999833 0.997254 0.997453
0.999748 0.996358 0.99944
0.999805 0.99626 0.999446
1.00037 0.998633 0.995211
1.00082 0.997681 0.995405
0.999726 0.9996 0.997125
1.00038 1.00105 0.992705
1.00006 1.00106 0.993236
1.00035 1.00109 0.992469
1.00023 1.00105 0.992962
1.00002 1.00108 0.993249
1.0008 1.00123 0.991583
1.00008 1.00112 0.993185
1.00035 1.00129 0.992417
1.00112 1.00009 0.99191
1.00032 1.00144 0.992281
1.00099 1.00137 0.990971
1.00135 0.999253 0.992501
1.00117 1.0013 0.990904
1.00209 0.997835 0.991949
0.999486 1.00075 0.994895
0.99913 1.00099 0.995017
0.999129 1.00183 0.994967
1.00032 1.00106 0.992829
0.999606 1.00264 0.992807
1.00015 1.00189 0.992319
0.999516 1.00178 0.99386
0.999788 1.00139 0.993524
1.00042 1.00048 0.993088
1.00043 1.00094 0.992651
1.00037 1.00105 0.992686
1.00053 1.00044 0.992927
1.00052 1.00081 0.992561
1.00047 1.00093 0.992556
1.00052 1.00066 0.992718
1.00047 1.00082 0.992648
1.00039 1.00086 0.992784
1.00045 1.00065 0.992863
1.00037 1.0007 0.99298
1.00019 1.00066 0.993369
1.00036 1.00054 0.993116
1.00018 1.00051 0.993549
0.999904 1.00004 0.994546
1.00015 1.0004 0.993627
0.999905 0.999825 0.994769
0.999591 0.998362 0.99732
0.999472 0.997288 0.998436
0.999627 0.998143 0.997234
0.999887 0.999655 0.994985
0.999517 0.99703 0.999374
0.999664 0.99794 0.997148
0.999565 0.996817 0.999396
1.00045 1.001 0.992489
1.00016 1.00104 0.992975
1.00011 1.00091 0.993228
1.00001 1.00052 0.993897
1.00003 1.00084 0.993452
0.999971 1.00041 0.994079
0.999828 0.999541 0.995234
0.999951 1.00027 0.994248
0.999848 0.999333 0.995388
0.999677 0.997815 0.997244
0.99988 0.999125 0.99552
0.999731 0.997592 0.997335
0.999608 0.996673 0.999409
0.999784 0.997397 0.997407
0.99969 0.996504 0.999429
0.999758 0.996374 0.999442
1.00047 0.999651 0.993881
1.00039 0.998598 0.995063
1.00085 0.997959 0.995682
1.00071 1.00102 0.991995
1.00032 1.00104 0.992814
1.00003 1.00107 0.993303
1.00041 1.00106 0.992518
1.00022 1.00106 0.992945
1.00097 1.00072 0.991632
1.0008 1.00128 0.991541
1.00035 1.00127 0.992421
1.00119 1.00011 0.991848
1.00108 1.00138 0.990821
1.00142 0.999212 0.992427
0.999305 1.001 0.994654
0.999413 1.00087 0.994847
0.999092 1.00109 0.994956
1.00021 1.00186 0.992252
0.999542 1.00158 0.993879
0.999816 1.00137 0.993496
0.99987 1.00125 0.993462
1.00043 1.00084 0.992695
1.00042 1.001 0.992622
1.00037 1.00085 0.992851
1.00053 1.00084 0.992534
1.00047 1.00093 0.992552
1.00039 1.00098 0.992657
1.00048 1.00082 0.992647
1.00039 1.00086 0.992783
1.00021 1.00082 0.993162
1.00037 1.00069 0.992979
1.00019 1.00065 0.993372
0.999898 1.0003 0.994302
1.00018 1.0005 0.993552
0.99991 1.00003 0.994549
0.999532 0.998667 0.997157
0.999909 0.999819 0.994771
0.999585 0.998388 0.997295
0.999392 0.997547 0.998325
0.999468 0.997253 0.998887
0.999628 0.998162 0.997444
0.999507 0.997017 0.999365
1.00069 1.00096 0.992043
1.0003 1.00102 0.992897
1.00042 1.00095 0.992609
1.00004 1.00071 0.993648
1.00018 1.00105 0.992988
1.00013 1.00091 0.993194
1 1.00054 0.993897
0.999813 0.999757 0.995049
0.99996 1.00042 0.99408
0.999822 0.999538 0.995236
0.999617 0.99804 0.997144
0.999844 0.999329 0.995391
0.999672 0.997801 0.997249
0.99953 0.996886 0.999388
0.999728 0.997577 0.997338
0.999622 0.996682 0.999414
0.999702 0.996516 0.999433
1.00029 1.00059 0.993286
1.00043 0.99966 0.993896
1.0004 0.998562 0.994914
1.00084 1.00067 0.991883
1.00071 1.00102 0.991989
1.00026 1.00104 0.992923
1.00047 1.00103 0.992567
1.00101 1.00072 0.991651
1.00081 1.00134 0.991499
1.00126 1.00012 0.991787
0.999436 1.0013 0.994244
0.99943 1.00106 0.994487
0.999344 1.00099 0.994799
0.999696 1.00141 0.993654
0.999849 1.00134 0.993469
0.999862 1.00126 0.993477
1.00007 1.00102 0.993301
1.00048 1.00095 0.992557
1.00035 1.00087 0.992855
1.00031 1.00099 0.992825
1.00047 1.00093 0.992547
1.00038 1.00098 0.992663
1.00022 1.00099 0.992985
1.00039 1.00085 0.992783
1.00021 1.00082 0.993164
0.999896 1.00057 0.994038
1.00019 1.00065 0.993374
0.999905 1.00029 0.994304
0.999452 0.999038 0.996968
0.999916 1.00002 0.994551
0.999526 0.998685 0.99713
0.999295 0.997885 0.998215
0.999579 0.998414 0.997271
0.999395 0.997507 0.998338
0.999463 0.997217 0.99934
1.00089 1.00072 0.991921
1.00055 1.00096 0.992359
1.00066 1.00097 0.992115
1.00014 1.0008 0.993498
1.00029 1.00102 0.992853
1.00038 1.00091 0.992729
0.99982 1.00002 0.994768
1.00003 1.00072 0.993646
1.0002 1.00105 0.993001
0.999988 1.00056 0.993896
0.999805 0.99976 0.99505
0.999558 0.998286 0.997021
0.999817 0.999536 0.995238
0.99961 0.998026 0.997149
0.999445 0.997122 0.999365
0.999667 0.997786 0.997253
0.999546 0.99689 0.999394
0.999637 0.99669 0.999419
1.00034 1.00078 0.993013
1.00039 1.00055 0.993165
1.00039 0.999669 0.993911
1.00096 1.00063 0.991752
1.00071 1.00102 0.991982
1.00104 1.00071 0.99167
0.999476 1.00175 0.993732
0.999382 1.00138 0.994315
0.999556 1.00112 0.994319
0.999724 1.00146 0.993569
0.999769 1.00141 0.993505
0.999854 1.00127 0.993492
1.00006 1.00102 0.993304
1.00012 1.00105 0.993222
1.00033 1.00089 0.992859
1.0003 1.00099 0.992838
1.00017 1.0011 0.993001
1.00038 1.00098 0.99267
1.00021 1.00099 0.992991
0.999888 1.00084 0.993788
1.00021 1.00082 0.993166
0.999902 1.00056 0.994041
0.999339 0.999483 0.996712
0.999912 1.00028 0.994307
0.999449 0.999049 0.996935
0.999168 0.998302 0.998082
0.99952 0.998704 0.997102
0.999295 0.997841 0.99823
0.999397 0.997466 0.998352
1.00068 1.00022 0.992937
1.00075 1.00083 0.992061
1.00092 1.0007 0.9919
1.00032 1.00084 0.992988
1.00054 1.00096 0.992405
1.00064 1.00098 0.992187
0.999874 1.00024 0.994443
1.00013 1.00081 0.993385
1.00029 1.00102 0.99281
0.999513 0.998572 0.996828
0.999809 1.00003 0.99477
1.00003 1.00074 0.993644
0.999797 0.999764 0.995051
0.999548 0.998272 0.997028
0.999358 0.99738 0.999336
0.999603 0.998012 0.997154
0.999462 0.997124 0.999372
0.999562 0.996895 0.9994
0.999992 1.00168 0.99281
1.00038 1.00074 0.992966
1.00048 1.00051 0.993044
1.00109 1.00059 0.991621
0.999564 1.00188 0.993452
0.999452 1.00178 0.993789
0.999329 1.00147 0.994387
0.99975 1.00151 0.993484
0.999756 1.00143 0.993535
0.999772 1.00136 0.993561
1.00005 1.00102 0.993307
1.00011 1.00106 0.993212
1.00002 1.0012 0.993231
1.00028 1.00099 0.992852
1.00015 1.0011 0.993012
0.99984 1.00107 0.993667
1.00021 1.00099 0.992997
0.999889 1.00083 0.993793
0.99925 1.00001 0.995854
0.999908 1.00055 0.994044
0.999354 0.999512 0.996394
0.999001 0.998625 0.999131
0.999445 0.99906 0.996903
0.999167 0.998256 0.9981
0.999296 0.997795 0.998246
1.00034 1.00097 0.9929
1.00067 1.00042 0.992687
1.00062 1.00026 0.992903
1.00045 1.00084 0.99253
1.00074 1.00079 0.992171
1.00096 1.00068 0.991879
0.999981 1.00041 0.9939
1.00032 1.00084 0.992988
1.00054 1.00096 0.992452
0.999498 0.998873 0.996549
0.999867 1.00027 0.994343
1.00013 1.00083 0.993272
0.999281 0.997668 0.999287
0.999499 0.998556 0.99684
0.999798 1.00004 0.994771
0.999539 0.998259 0.997035
0.999374 0.99738 0.999345
0.999479 0.997126 0.999379
0.999692 1.0021 0.992949
0.999911 1.00163 0.992967
1.00041 1.0007 0.99292
0.999517 1.00171 0.993737
0.999572 1.00188 0.993468
0.999427 1.0018 0.993846
0.999743 1.00145 0.993565
0.999775 1.00135 0.993567
0.999668 1.00147 0.9937
1.0001 1.00107 0.993201
1 1.00122 0.993263
0.999686 1.00126 0.993748
1.00014 1.00111 0.993024
0.999833 1.00107 0.993677
0.999136 1.00047 0.995647
0.99989 1.00082 0.993799
0.999268 0.999998 0.995847
0.998877 0.99904 0.999084
0.999366 0.999539 0.996077
0.998987 0.998686 0.99854
0.999165 0.998209 0.998119
1.00005 1.00169 0.992828
1.00036 1.00074 0.992971
1.00031 1.00096 0.992869
1.00042 1.00071 0.992807
1.00062 1.00044 0.992716
1.00056 1.00031 0.992869
1.00008 1.00056 0.993521
1.00047 1.00083 0.992629
1.00072 1.00076 0.992281
0.9995 0.999187 0.996215
0.999989 1.00044 0.993842
1.00033 1.00084 0.992988
0.999213 0.997981 0.999218
0.999481 0.998859 0.996562
0.99986 1.00029 0.994243
0.999293 0.997663 0.999303
0.999485 0.99854 0.996851
0.999391 0.99738 0.999354
0.99966 1.00181 0.993287
0.999713 1.00205 0.992978
0.99983 1.00158 0.993124
0.999459 1.0017 0.993888
0.999562 1.00169 0.993685
0.999579 1.00188 0.993485
0.999778 1.00134 0.993573
0.999672 1.00145 0.993701
0.999395 1.0015 0.994091
0.999991 1.00124 0.993295
0.999695 1.00126 0.993757
0.998965 1.00085 0.995634
0.999826 1.00106 0.993687
0.999146 1.00045 0.995647
0.998708 0.999476 0.999024
0.999287 0.999981 0.99584
0.998836 0.999082 0.999064
0.998975 0.998751 0.997947
1.00003 1.00139 0.993076
1.00004 1.00173 0.992731
1.00019 1.0009 0.993129
1.00034 1.00074 0.992992
1.00027 1.00095 0.992837
1.00005 1.00064 0.993615
1.00044 1.00072 0.992793
1.00056 1.00046 0.992744
0.99948 0.999533 0.995888
1.00009 1.00057 0.993557
1.00049 1.00083 0.992727
0.999137 0.998325 0.999137
0.999481 0.999181 0.996228
0.999996 1.00047 0.993785
0.999223 0.997972 0.999239
0.999464 0.998845 0.996576
0.999305 0.997658 0.999318
0.999649 1.00164 0.993589
0.999701 1.00178 0.993273
0.999733 1.00201 0.993008
0.999259 1.00164 0.994247
0.999465 1.00168 0.993897
0.999607 1.00168 0.993633
0.999677 1.00144 0.993702
0.999423 1.00149 0.994051
0.99876 1.00114 0.995778
0.999704 1.00127 0.993766
0.998964 1.00083 0.995643
0.998516 0.999856 0.999001
0.999156 1.00043 0.995647
0.99866 0.999521 0.999014
0.998795 0.999125 0.999045
0.999913 1.00133 0.993333
1.00003 1.00142 0.993025
1.00003 1.00177 0.992635
0.999857 1.00088 0.993798
1.00019 1.00091 0.993132
1.00032 1.00073 0.993013
0.999377 0.999899 0.995708
1.00007 1.00064 0.993601
1.00046 1.00072 0.992778
0.999031 0.998707 0.999059
0.999464 0.999538 0.995896
1.0001 1.00058 0.993593
0.999153 0.998309 0.999161
0.999462 0.999174 0.99624
0.999234 0.997962 0.999261
0.999369 1.00154 0.9942
0.999628 1.00164 0.993578
0.999743 1.00176 0.993259
0.998645 1.00126 0.995904
0.999262 1.00164 0.99424
0.999471 1.00165 0.993905
0.999451 1.00148 0.994011
0.998756 1.00113 0.995788
0.99831 1.00013 0.999028
0.998964 1.00082 0.995652
0.998458 0.999894 0.999008
0.998612 0.999566 0.999003
0.99958 1.00126 0.994019
0.999893 1.00134 0.993336
1.00004 1.00146 0.992973
0.999156 1.00019 0.99638
0.999862 1.00089 0.99379
1.00019 1.00091 0.993134
0.998849 0.999116 0.999025
0.999372 0.999915 0.995704
1.00008 1.00065 0.993586
0.999058 0.998683 0.999081
0.999447 0.999543 0.995904
0.999168 0.998294 0.999185
0.998675 1.00113 0.995935
0.999367 1.00155 0.994165
0.999607 1.00164 0.993567
0.998184 1.00025 0.999061
0.998643 1.00125 0.995906
0.999266 1.00164 0.994232
0.998751 1.00112 0.995797
0.998269 1.00016 0.999039
0.9984 0.999933 0.999015
0.998869 1.00062 0.996478
0.999581 1.00126 0.994016
0.999871 1.00135 0.993339
0.998659 0.999487 0.999032
0.999179 1.00034 0.99571
0.999867 1.00089 0.993783
0.998902 0.999083 0.999031
0.999366 0.999932 0.9957
0.999084 0.998658 0.999104
0.998203 1.00053 0.997812
0.998705 1.00104 0.996225
0.999364 1.00155 0.994129
0.998179 1.00025 0.999067
0.998641 1.00125 0.995908
0.998228 1.00018 0.999051
0.998415 1.00015 0.997744
0.998918 1.00072 0.996136
0.999582 1.00126 0.994014
0.998673 0.999629 0.998371
0.99916 1.00037 0.995706
0.998955 0.99905 0.999038
0.998205 1.00017 0.999074
0.998704 1.00114 0.995905
0.998175 1.00025 0.999071
0.998383 1.00007 0.998408
0.998902 1.00081 0.995813
0.99874 0.999457 0.999023
0.998271 1.00013 0.999065
0.998484 0.999839 0.999042

TENSORS stress float
0.0011927 1.9726e-05 8.01473e-06
1.9726e-05 0.000129588 -3.44769e-06
8.01473e-06 -3.44769e-06 0.00013474
0.00229468 -1.93864e-05 5.32504e-06
-1.93864e-05 0.00064663 2.39407e-06
5.32504e-06 2.39407e-06 0.000662741
0.00116165 2.00519e-05 2.90333e-06
2.00519e-05 0.000114083 -1.43774e-06
2.90333e-06 -1.43774e-06 0.000119635
0.0012128 1.98516e-05 9.86913e-06
1.98516e-05 0.000185253 -2.73977e-06
9.86913e-06 -2.73977e-06 0.00017897
0.00120361 2.02879e-05 8.56346e-06
2.02879e-05 0.000147652 -3.22035e-06
8.56346e-06 -3.22035e-06 0.0001495
0.00117979 1.889e-05 7.48062e-06
1.889e-05 0.00011321 -3.657e-06
7.48062e-06 -3.657e-06 0.000121195
0.00116334 1.49913e-05 3.36244e-06
1.49913e-05 0.000102399 -1.27196e-06
3.36244e-06 -1.27196e-06 9.21553e-05
0.00236376 -1.93824e-05 7.86627e-08
-1.93824e-05 0.000679131 -7.15335e-08
7.86627e-08 -7.15335e-08 0.000695166
0.00262359 -2.28565e-05 2.76814e-06
-2.28565e-05 0.000829161 7.56553e-07
2.76814e-06 7.56553e-07 0.000838623
0.00240597 -2.09597e-05 2.40682e-06
-2.09597e-05 0.000706068 8.46726e-07
2.40682e-06 8.46726e-07 0.000720558
0.00108042 -1.68981e-05 4.7616e-06
-1.68981e-05 5.31352e-05 2.32604e-06
4.7616e-06 2.32604e-06 6.58648e-05
0.000932614 -1.33138e-05 3.47329e-06
-1.33138e-05 -1.86226e-05 1.56781e-06
3.47329e-06 1.56781e-06 -2.35599e-05
0.000978694 -1.23274e-05 7.82667e-06
-1.23274e-05 0.000139305 5.08633e-07
7.82667e-06 5.08633e-07 0.000121578
0.0011083 -1.95147e-05 2.85064e-06
-1.95147e-05 0.000153505 3.5172e-07
2.85064e-06 3.5172e-07 0.000143618
0.00112874 2.03808e-05 -2.2338e-06
2.03808e-05 9.77047e-05 5.70959e-07
-2.2338e-06 5.70959e-07 0.000103662
0.00116803 2.01908e-05 3.63181e-06
2.01908e-05 0.00016381 -1.14172e-06
3.63181e-06 -1.14172e-06 0.000157955
0.00115261 1.92088e-05 2.70191e-06
1.92088e-05 9.93818e-05 -1.50732e-06
2.70191e-06 -1.50732e-06 0.000107756
0.00116733 2.06202e-05 3.11884e-06
2.06202e-05 0.000129805 -1.3462e-06
3.11884e-06 -1.3462e-06 0.000132067
0.00116886 1.48855e-05 -6.52272e-07
1.48855e-05 0.000105765 1.90756e-07
-6.52272e-07 1.90756e-07 9.55019e-05
0.00267449 1.69839e-05 8.53964e-06
1.69839e-05 0.000946855 -8.74195e-07
8.53964e-06 -8.74195e-07 0.000940949
0.00121501 1.85243e-05 1.06674e-05
1.85243e-05 0.000205324 -2.38891e-06
1.06674e-05 -2.38891e-06 0.000194571
0.00120951 2.03897e-05 9.16161e-06
2.03897e-05 0.000166043 -2.99565e-06
9.16161e-06 -2.99565e-06 0.000164056
0.00117621 1.50548e-05 3.53966e-06
1.50548e-05 0.000140098 -9.38012e-07
3.53966e-06 -9.38012e-07 0.000118009
0.00117243 1.53347e-05 3.46229e-06
1.53347e-05 0.000115677 -1.13529e-06
3.46229e-06 -1.13529e-06 0.000101905
0.00117389 1.78961e-05 7.01076e-06
1.78961e-05 0.000101792 -3.83646e-06
7.01076e-06 -3.83646e-06 0.000112169
0.00114861 1.44955e-05 3.21701e-06
1.44955e-05 8.85808e-05 -1.40456e-06
3.21701e-06 -1.40456e-06 8.14562e-05
0.00139486 8.34121e-06 1.4076e-06
8.34121e-06 0.000195559 -1.58907e-07
1.4076e-06 -1.58907e-07 0.000161944
0.00243367 -1.93834e-05 -5.13731e-06
-1.93834e-05 0.000712 -2.41044e-06
-5.13731e-06 -2.41044e-06 0.000727959
0.00189534 -2.15265e-05 -1.96556e-06
-2.15265e-05 0.000478381 -8.10338e-07
-1.96556e-06 -8.10338e-07 0.000483898
0.00177373 -1.98823e-05 -1.67403e-06
-1.98823e-05 0.000401193 -8.59161e-07
-1.67403e-06 -8.59161e-07 0.00041255
0.00226775 -1.81961e-05 6.80645e-08
-1.81961e-05 0.000626518 -5.58746e-08
6.80645e-08 -5.58746e-08 0.000644217
0.00089288 -1.33871e-05 8.2801e-08
-1.33871e-05 -3.74167e-05 -3.02681e-08
8.2801e-08 -3.02681e-08 -4.21501e-05
0.00106421 -2.01642e-05 6.68343e-06
-2.01642e-05 9.45357e-05 1.63397e-06
6.68343e-06 1.63397e-06 9.25871e-05
0.00109587 -1.9651e-05 5.79693e-06
-1.9651e-05 8.39354e-05 1.97171e-06
5.79693e-06 1.97171e-06 8.95616e-05
0.00161985 -1.52187e-05 4.58802e-06
-1.52187e-05 0.000326471 1.25467e-06
4.58802e-06 1.25467e-06 0.000314681
0.00222309 -1.72798e-05 2.08892e-06
-1.72798e-05 0.000596992 1.02337e-06
2.08892e-06 1.02337e-06 0.000616347
0.00157232 -1.44471e-05 4.20051e-06
-1.44471e-05 0.000294629 1.50726e-06
4.20051e-06 1.50726e-06 0.000289883
0.000920126 -1.27815e-05 4.1813e-06
-1.27815e-05 -2.81752e-05 2.60413e-06
4.1813e-06 2.60413e-06 -3.10328e-05
0.00101273 -7.06871e-06 2.15199e-06
-7.06871e-06 1.12892e-05 8.63592e-07
2.15199e-06 8.63592e-07 -1.84473e-05
0.002191 -1.43184e-05 4.39927e-06
-1.43184e-05 0.000570775 2.92855e-06
4.39927e-06 2.92855e-06 0.000591932
0.0025465 -1.63467e-05 1.16744e-07
-1.63467e-05 0.00089106 -1.38204e-07
1.16744e-07 -1.38204e-07 0.000885178
0.00188408 -2.01515e-05 -2.35959e-06
-2.01515e-05 0.000530326 -5.58506e-07
-2.35959e-06 -5.58506e-07 0.000524794
0.00245963 -1.30071e-05 7.01031e-06
-1.30071e-05 0.00086516 2.79359e-07
7.01031e-06 2.79359e-07 0.000857663
0.00108596 -1.72875e-05 2.9879e-06
-1.72875e-05 0.000165493 3.00099e-07
2.9879e-06 3.00099e-07 0.000151352
0.000652008 -1.05037e-05 6.2366e-06
-1.05037e-05 -6.5658e-05 4.71462e-07
6.2366e-06 4.71462e-07 -0.0001017
0.00270239 -2.31606e-05 3.11108e-06
-2.31606e-05 0.000900078 5.94727e-07
3.11108e-06 5.94727e-07 0.000903388
0.0014578 -1.50497e-05 6.63505e-06
-1.50497e-05 0.000287097 1.32886e-06
6.63505e-06 1.32886e-06 0.000263443
0.00112144 2.05568e-05 -2.67405e-06
2.05568e-05 0.000141484 4.25712e-07
-2.67405e-06 4.25712e-07 0.000136065
0.00112843 2.09573e-05 -2.36438e-06
2.09573e-05 0.0001107 5.07311e-07
-2.36438e-06 5.07311e-07 0.000113389
0.00112449 1.95315e-05 -2.1049e-06
1.95315e-05 8.51213e-05 6.32631e-07
-2.1049e-06 6.32631e-07 9.38878e-05
0.00117503 1.47771e-05 -4.67298e-06
1.47771e-05 0.000109447 1.65822e-06
-4.67298e-06 1.65822e-06 9.91612e-05
0.00183611 1.49631e-05 -9.21136e-07
1.49631e-05 0.000545821 -1.83082e-07
-9.21136e-07 -1.83082e-07 0.000533898
0.00116526 1.88717e-05 3.94269e-06
1.88717e-05 0.000181753 -1.00503e-06
3.94269e-06 -1.00503e-06 0.000171399
0.00114693 1.82027e-05 2.52544e-06
1.82027e-05 8.79135e-05 -1.56344e-06
2.52544e-06 -1.56344e-06 9.8669e-05
0.00116877 2.07264e-05 3.3564e-06
2.07264e-05 0.000146273 -1.24701e-06
3.3564e-06 -1.24701e-06 0.000144715
0.00117835 1.49541e-05 -9.94755e-07
1.49541e-05 0.000141342 1.81846e-07
-9.94755e-07 1.81846e-07 0.000119327
0.00115894 1.44073e-05 -5.86851e-07
1.44073e-05 9.42887e-05 1.90409e-07
-5.86851e-07 1.90409e-07 8.71158e-05
0.00117444 1.52251e-05 -7.36663e-07
1.52251e-05 0.000117192 1.91995e-07
-7.36663e-07 1.91995e-07 0.00010344
0.00137116 8.08044e-06 -8.13356e-07
8.08044e-06 0.000183828 5.07376e-07
-8.13356e-07 5.07376e-07 0.000149918
0.00264607 1.46512e-05 8.51124e-06
1.46512e-05 0.000945714 -4.51912e-07
8.51124e-06 -4.51912e-07 0.000938399
0.0012147 1.63289e-05 1.14452e-05
1.63289e-05 0.000224742 -1.87788e-06
1.14452e-05 -1.87788e-06 0.00020981
0.00142827 1.15715e-05 2.81072e-06
1.15715e-05 0.000303735 -2.10646e-07
2.81072e-06 -2.10646e-07 0.00027287
0.0011792 1.4303e-05 3.58605e-06
1.4303e-05 0.000153444 -7.9154e-07
3.58605e-06 -7.9154e-07 0.000126996
0.00117492 1.53848e-05 3.50958e-06
1.53848e-05 0.000127815 -1.02991e-06
3.50958e-06 -1.02991e-06 0.00011006
0.00134921 6.47075e-06 1.02558e-06
6.47075e-06 0.000180333 -5.08158e-08
1.02558e-06 -5.08158e-08 0.000135803
0.00121995 8.15126e-06 1.64948e-06
8.15126e-06 0.000112954 -3.38923e-07
1.64948e-06 -3.38923e-07 7.47707e-05
0.00124525 1.67391e-05 6.67072e-06
1.67391e-05 0.000127615 -3.98772e-06
6.67072e-06 -3.98772e-06 0.000139808
0.0011563 1.39792e-05 3.04573e-06
1.39792e-05 8.61104e-05 -1.4933e-06
3.04573e-06 -1.4933e-06 8.19404e-05
0.00138371 8.00088e-06 1.43848e-06
8.00088e-06 0.000189449 -2.58622e-07
1.43848e-06 -2.58622e-07 0.00015892
0.00109799 -1.8945e-07 9.37948e-07
-1.8945e-07 3.36733e-05 -2.48295e-07
9.37948e-07 -2.48295e-07 -1.57946e-05
0.00273428 -2.25176e-05 -6.14699e-06
-2.25176e-05 0.000881445 -2.0344e-06
-6.14699e-06 -2.0344e-06 0.000890837
0.00236295 -1.81676e-05 -4.88893e-06
-1.81676e-05 0.000671374 -2.53539e-06
-4.88893e-06 -2.53539e-06 0.000688922
0.00251658 -2.05524e-05 -5.43289e-06
-2.05524e-05 0.000759165 -2.27298e-06
-5.43289e-06 -2.27298e-06 0.000773308
0.000853382 -1.34604e-05 -3.32609e-06
-1.34604e-05 -5.6093e-05 -1.67741e-06
-3.32609e-06 -1.67741e-06 -6.06239e-05
0.00267067 -2.26277e-05 9.15686e-08
-2.26277e-05 0.000867937 -9.69536e-08
9.15686e-08 -9.69536e-08 0.000874126
0.00249734 -2.15332e-05 7.33538e-08
-2.15332e-05 0.000759992 -6.81548e-08
7.33538e-08 -6.81548e-08 0.00077188
0.000881993 -1.44196e-05 1.07634e-07
-1.44196e-05 -2.91944e-05 -5.88894e-08
1.07634e-07 -5.88894e-08 -4.4498e-05
0.00167674 -1.64645e-05 -1.42456e-06
-1.64645e-05 0.000333426 -9.45744e-07
-1.42456e-06 -9.45744e-07 0.000350135
0.000911127 -1.38185e-05 3.87053e-08
-1.38185e-05 -2.42926e-05 -9.25416e-09
3.87053e-08 -9.25416e-09 -3.16796e-05
0.00120684 -1.31347e-05 8.03173e-07
-1.31347e-05 0.000109974 4.50368e-07
8.03173e-07 4.50368e-07 0.000108642
0.000995129 -7.02305e-06 6.50041e-08
-7.02305e-06 3.16233e-06 -4.38765e-08
6.50041e-08 -4.38765e-08 -2.65627e-05
0.00218671 -1.56494e-05 4.59028e-06
-1.56494e-05 0.00057469 2.77134e-06
4.59028e-06 2.77134e-06 0.00059495
0.000959878 -1.0518e-05 2.69974e-06
-1.0518e-05 -2.59505e-05 2.06887e-06
2.69974e-06 2.06887e-06 -2.47223e-05
0.000772999 -1.44188e-05 5.59242e-06
-1.44188e-05 -7.30197e-05 1.79822e-06
5.59242e-06 1.79822e-06 -9.3278e-05
0.00085403 -1.38547e-05 4.97732e-06
-1.38547e-05 -4.66897e-05 2.26125e-06
4.97732e-06 2.26125e-06 -5.83594e-05
0.00101128 -3.53458e-06 2.03194e-06
-3.53458e-06 3.87403e-06 5.33905e-07
2.03194e-06 5.33905e-07 -3.68925e-05
0.0015168 -1.27172e-05 3.62871e-06
-1.27172e-05 0.000253637 1.84492e-06
3.62871e-06 1.84492e-06 0.000255258
0.00101707 -5.83775e-06 2.09905e-06
-5.83775e-06 1.25782e-05 8.79031e-07
2.09905e-06 8.79031e-07 -2.02637e-05
0.00101863 -7.18113e-06 2.05297e-06
-7.18113e-06 1.35452e-05 1.04624e-06
2.05297e-06 1.04624e-06 -1.36598e-05
0.00106305 5.04515e-07 1.20102e-06
5.04515e-07 2.67819e-05 3.5949e-07
1.20102e-06 3.5949e-07 -1.76058e-05
0.00219114 -1.29984e-05 4.15738e-06
-1.29984e-05 0.000565468 3.06074e-06
4.15738e-06 3.06074e-06 0.000587469
0.00224289 -1.42827e-05 8.78213e-08
-1.42827e-05 0.000595196 -4.88433e-08
8.78213e-08 -4.88433e-08 0.000616216
0.00283176 -2.22428e-05 -7.46898e-06
-2.22428e-05 0.000978791 -1.42921e-06
-7.46898e-06 -1.42921e-06 0.000979046
0.00270107 -1.79688e-05 -8.20545e-06
-1.79688e-05 0.000957941 -8.21293e-07
-8.20545e-06 -8.21293e-07 0.000952473
0.00251338 -1.34869e-05 1.67254e-07
-1.34869e-05 0.000888186 -9.81229e-08
1.67254e-07 -9.81229e-08 0.00088085
0.00186311 -1.798e-05 -2.49292e-06
-1.798e-05 0.000542216 -4.57267e-07
-2.49292e-06 -4.57267e-07 0.000533045
0.00109913 -1.14588e-05 1.33683e-06
-1.14588e-05 0.000147757 -2.57441e-08
1.33683e-06 -2.57441e-08 0.000114798
0.00196397 -2.15941e-05 -2.23538e-06
-2.15941e-05 0.000544109 -6.70126e-07
-2.23538e-06 -6.70126e-07 0.000542528
0.00120567 -1.49303e-05 1.22688e-06
-1.49303e-05 0.000163467 2.12036e-07
1.22688e-06 2.12036e-07 0.000137464
0.00253167 5.1404e-07 8.07515e-06
5.1404e-07 0.000900537 -8.69825e-08
8.07515e-06 -8.69825e-08 0.000892535
0.000686674 -8.41289e-06 4.19653e-06
-8.41289e-06 -3.56539e-05 1.93909e-07
4.19653e-06 1.93909e-07 -7.31499e-05
0.00142237 -1.38057e-05 6.88717e-06
-1.38057e-05 0.000286661 1.04471e-06
6.88717e-06 1.04471e-06 0.000259221
0.000973524 -8.29281e-06 1.54982e-06
-8.29281e-06 2.24907e-05 -3.63165e-07
1.54982e-06 -3.63165e-07 -3.12911e-05
0.00157177 -1.58929e-05 4.85849e-06
-1.58929e-05 0.000323566 8.42824e-07
4.85849e-06 8.42824e-07 0.000304209
0.00100183 -8.23238e-06 1.63386e-06
-8.23238e-06 1.2781e-05 2.58783e-07
1.63386e-06 2.58783e-07 -3.68035e-05
0.00101277 1.22649e-05 -8.15707e-06
1.22649e-05 0.000151883 5.4675e-07
-8.15707e-06 5.4675e-07 0.000133915
0.00111431 1.92628e-05 -2.86901e-06
1.92628e-05 0.000157598 3.86858e-07
-2.86901e-06 3.86858e-07 0.000147648
0.00111967 1.85121e-05 -1.99024e-06
1.85121e-05 7.38958e-05 6.89224e-07
-1.99024e-06 6.89224e-07 8.50308e-05
0.00112574 2.10769e-05 -2.5054e-06
2.10769e-05 0.000125392 4.58434e-07
-2.5054e-06 4.58434e-07 0.000124275
0.00118206 1.48369e-05 -5.54346e-06
1.48369e-05 0.000143337 1.2935e-06
-5.54346e-06 1.2935e-06 0.000121389
0.0011778 1.51121e-05 -4.94202e-06
1.51121e-05 0.000119344 1.51724e-06
-4.94202e-06 1.51724e-06 0.000105607
0.00116944 1.43167e-05 -4.39748e-06
1.43167e-05 0.000100082 1.78744e-06
-4.39748e-06 1.78744e-06 9.28598e-05
0.00134822 7.77828e-06 -2.89395e-06
7.77828e-06 0.00017245 1.15066e-06
-2.89395e-06 1.15066e-06 0.000138244
0.00258536 1.35972e-05 -1.88266e-07
1.35972e-05 0.00091951 -1.20305e-07
-1.88266e-07 -1.20305e-07 0.000912071
0.00115878 1.66987e-05 4.24094e-06
1.66987e-05 0.000198431 -8.1663e-07
4.24094e-06 -8.1663e-07 0.000183828
0.000889276 1.02633e-05 -2.31239e-06
1.02633e-05 4.3563e-05 1.80275e-07
-2.31239e-06 1.80275e-07 8.57462e-06
0.00117806 1.41726e-05 -1.15201e-06
1.41726e-05 0.000152988 1.65603e-07
-1.15201e-06 1.65603e-07 0.000126617
0.00177518 1.75937e-05 2.92207e-06
1.75937e-05 0.000383253 -1.67146e-06
2.92207e-06 -1.67146e-06 0.000398453
0.00134446 1.40867e-05 -4.77304e-07
1.40867e-05 0.000177649 2.26283e-07
-4.77304e-07 2.26283e-07 0.000174423
0.00117674 1.52844e-05 -8.4931e-07
1.52844e-05 0.000129039 1.91031e-07
-8.4931e-07 1.91031e-07 0.000111339
0.00125955 6.30565e-06 -8.16959e-07
6.30565e-06 0.000136451 3.68288e-07
-8.16959e-07 3.68288e-07 9.12214e-05
0.00137225 7.95594e-06 -7.75157e-07
7.95594e-06 0.000183577 5.43697e-07
-7.75157e-07 5.43697e-07 0.000152724
0.00129458 8.07355e-06 -4.70363e-07
8.07355e-06 0.000148754 2.00095e-07
-4.70363e-07 2.00095e-07 0.000111083
0.00109014 -1.46152e-07 4.31055e-08
-1.46152e-07 2.97962e-05 -4.42741e-08
4.31055e-08 -4.42741e-08 -1.95659e-05
0.000703607 7.29474e-06 4.47944e-06
7.29474e-06 -3.23492e-05 -1.49217e-07
4.47944e-06 -1.49217e-07 -7.0643e-05
0.00118116 1.30951e-05 3.60947e-06
1.30951e-05 0.000167238 -5.6507e-07
3.60947e-06 -5.6507e-07 0.000136914
0.00114061 8.04621e-06 1.13609e-06
8.04621e-06 9.58708e-05 1.55043e-07
1.13609e-06 1.55043e-07 4.25947e-05
0.0012331 7.08669e-06 1.28945e-06
7.08669e-06 0.000125497 -2.02553e-07
1.28945e-06 -2.02553e-07 7.6751e-05
0.00118976 6.95851e-06 1.44432e-06
6.95851e-06 0.000101289 -2.75808e-07
1.44432e-06 -2.75808e-07 5.93646e-05
0.0012427 -6.87175e-08 1.92382e-07
-6.87175e-08 0.000100558 7.9371e-09
1.92382e-07 7.9371e-09 4.51689e-05
0.0023772 1.69228e-05 4.76277e-06
1.69228e-05 0.000667167 -2.70417e-06
4.76277e-06 -2.70417e-06 0.00068621
0.00112605 6.57476e-07 7.72157e-07
6.57476e-07 4.54919e-05 -1.39099e-07
7.72157e-07 -1.39099e-07 -5.57745e-06
0.000934878 1.29759e-05 3.12374e-06
1.29759e-05 -2.67022e-05 -1.7238e-06
3.12374e-06 -1.7238e-06 -2.9243e-05
0.0010106 7.2702e-06 2.03097e-06
7.2702e-06 7.89577e-06 -9.37102e-07
2.03097e-06 -9.37102e-07 -2.19523e-05
0.00108087 -8.51714e-07 1.00885e-06
-8.51714e-07 2.81777e-05 -4.30362e-07
1.00885e-06 -4.30362e-07 -1.97363e-05
0.00116564 -6.26297e-06 2.7291e-07
-6.26297e-06 4.96343e-05 1.02147e-07
2.7291e-07 1.02147e-07 -4.5999e-06
0.000917692 1.12113e-05 2.78032e-06
1.12113e-05 -4.52317e-05 -2.0025e-06
2.78032e-06 -2.0025e-06 -4.49784e-05
0.00101752 5.60694e-06 1.67375e-06
5.60694e-06 -2.4147e-06 -1.21859e-06
1.67375e-06 -1.21859e-06 -2.57158e-05
0.00283088 -2.30581e-05 -6.67659e-06
-2.30581e-05 0.000940219 -1.88481e-06
-6.67659e-06 -1.88481e-06 0.000946727
0.00261409 -2.16348e-05 -5.71598e-06
-2.16348e-05 0.00081436 -2.1433e-06
-5.71598e-06 -2.1433e-06 0.000826338
0.000796038 -1.43476e-05 -3.93005e-06
-1.43476e-05 -6.8604e-05 -1.45878e-06
-3.93005e-06 -1.45878e-06 -8.39327e-05
0.00232405 -1.68854e-05 -4.72843e-06
-1.68854e-05 0.000645919 -2.68221e-06
-4.72843e-06 -2.68221e-06 0.000664787
0.000871504 -1.29579e-05 -3.11515e-06
-1.29579e-05 -5.19621e-05 -1.76694e-06
-3.11515e-06 -1.76694e-06 -5.42734e-05
0.000831229 -1.38694e-05 -3.55186e-06
-1.38694e-05 -6.18178e-05 -1.52946e-06
-3.55186e-06 -1.52946e-06 -6.9081e-05
0.000977299 -6.97294e-06 -2.12868e-06
-6.97294e-06 -5.06309e-06 -1.01399e-06
-2.12868e-06 -1.01399e-06 -3.4777e-05
0.00224748 -1.56057e-05 8.33413e-08
-1.56057e-05 0.000603282 -5.329e-08
8.33413e-08 -5.329e-08 0.000623379
0.000942518 -1.05387e-05 6.85132e-08
-1.05387e-05 -3.43537e-05 -2.96714e-08
6.85132e-08 -2.96714e-08 -3.30279e-05
0.00121247 -1.5065e-05 1.16191e-06
-1.5065e-05 0.000138766 3.02967e-07
1.16191e-06 3.02967e-07 0.000120899
0.00120823 -1.44264e-05 9.81829e-07
-1.44264e-05 0.000124536 4.23752e-07
9.81829e-07 4.23752e-07 0.000114874
0.00100533 -3.65684e-06 1.38712e-08
-3.65684e-06 1.49062e-06 -1.01317e-07
1.38712e-08 -1.01317e-07 -3.9361e-05
0.000943548 -1.22343e-05 2.99947e-08
-1.22343e-05 -2.3406e-05 -2.11957e-08
2.99947e-08 -2.11957e-08 -2.41025e-05
0.000994446 -6.30381e-06 -4.18496e-09
-6.30381e-06 2.53786e-06 3.35868e-08
-4.18496e-09 3.35868e-08 -3.03152e-05
0.00100076 -7.16543e-06 4.53116e-08
-7.16543e-06 5.17662e-06 -6.56626e-09
4.53116e-08 -6.56626e-09 -2.19785e-05
0.00101264 3.02981e-07 -1.48066e-08
3.02981e-07 2.81664e-06 -6.42112e-08
-1.48066e-08 -6.42112e-08 -4.21521e-05
0.000953329 -1.1381e-05 2.92137e-06
-1.1381e-05 -2.42428e-05 1.90809e-06
2.92137e-06 1.90809e-06 -2.38691e-05
0.000966717 -9.65359e-06 2.44733e-06
-9.65359e-06 -2.70296e-05 2.21055e-06
2.44733e-06 2.21055e-06 -2.49411e-05
0.00102965 -6.23634e-06 1.78816e-06
-6.23634e-06 6.44453e-06 1.16077e-06
1.78816e-06 1.16077e-06 -1.61714e-05
0.00100691 -5.22888e-06 1.91926e-06
-5.22888e-06 4.6286e-07 2.65276e-07
1.91926e-06 2.65276e-07 -4.32796e-05
0.00101784 -3.97833e-06 2.07067e-06
-3.97833e-06 1.11586e-05 8.02313e-07
2.07067e-06 8.02313e-07 -2.57524e-05
0.00110085 3.30816e-06 8.48656e-07
3.30816e-06 2.30691e-05 2.12812e-07
8.48656e-07 2.12812e-07 -2.95556e-05
0.00102559 -6.95574e-06 1.9907e-06
-6.95574e-06 1.23737e-05 1.09449e-06
1.9907e-06 1.09449e-06 -1.24769e-05
0.000979119 1.63586e-06 1.00168e-06
1.63586e-06 -1.88136e-05 4.25771e-07
1.00168e-06 4.25771e-07 -6.63439e-05
0.00107257 -2.10008e-07 1.19127e-06
-2.10008e-07 3.40026e-05 5.57507e-07
1.19127e-06 5.57507e-07 -9.00355e-06
0.00121042 7.30939e-06 2.32575e-07
7.30939e-06 9.12295e-05 -2.51704e-07
2.32575e-07 -2.51704e-07 4.02052e-05
0.0021871 -1.16834e-05 3.87229e-06
-1.16834e-05 0.000558595 3.16312e-06
3.87229e-06 3.16312e-06 0.00058141
0.00223417 -1.2972e-05 8.98048e-08
-1.2972e-05 0.000585703 -4.31495e-08
8.98048e-08 -4.31495e-08 0.000607601
0.00229526 -1.42505e-05 -4.30877e-06
-1.42505e-05 0.000619836 -2.97635e-06
-4.30877e-06 -2.97635e-06 0.000640719
0.000929771 1.03045e-05 2.55236e-06
1.03045e-05 -4.33472e-05 -2.14738e-06
2.55236e-06 -2.14738e-06 -4.22662e-05
0.00235645 1.5543e-05 4.57437e-06
1.5543e-05 0.000651447 -2.85703e-06
4.57437e-06 -2.85703e-06 0.000671517
0.0028589 -2.30389e-05 -7.12078e-06
-2.30389e-05 0.000970914 -1.67338e-06
-7.12078e-06 -1.67338e-06 0.000974352
0.0027839 -2.05642e-05 -7.83533e-06
-2.05642e-05 0.000977325 -1.15957e-06
-7.83533e-06 -1.15957e-06 0.000974474
0.000746066 -1.38459e-05 -4.29222e-06
-1.38459e-05 -5.49444e-05 -8.98265e-07
-4.29222e-06 -8.98265e-07 -8.36586e-05
0.000715241 -1.03237e-05 -4.43278e-06
-1.03237e-05 -3.60277e-05 -4.707e-07
-4.43278e-06 -4.707e-07 -7.20603e-05
0.00256183 -1.44711e-05 -8.21379e-06
-1.44711e-05 0.000908925 -4.37731e-07
-8.21379e-06 -4.37731e-07 0.000901738
0.00251337 4.93826e-08 2.0433e-07
4.93826e-08 0.000892544 -1.3498e-07
2.0433e-07 -1.3498e-07 0.000884566
0.000690045 -7.89069e-06 -1.63644e-08
-7.89069e-06 -3.36676e-05 2.91847e-08
-1.63644e-08 2.91847e-08 -7.12455e-05
0.00116705 -1.37077e-05 1.32125e-06
-1.37077e-05 0.000161677 9.88903e-08
1.32125e-06 9.88903e-08 0.000131636
0.000978102 -8.19233e-06 -2.52051e-08
-8.19233e-06 2.4532e-05 -1.62954e-07
-2.52051e-08 -1.62954e-07 -2.93236e-05
0.000836029 -1.48912e-05 6.91061e-08
-1.48912e-05 -3.12826e-05 -7.50806e-08
6.91061e-08 -7.50806e-08 -5.52931e-05
0.000999753 -8.1579e-06 -2.27832e-08
-8.1579e-06 1.21044e-05 -1.36908e-08
-2.27832e-08 -1.36908e-08 -3.75487e-05
0.0006906 -4.49382e-07 4.31308e-06
-4.49382e-07 -3.01756e-05 -1.78448e-08
4.31308e-06 -1.78448e-08 -6.86941e-05
0.0009504 -7.32389e-06 1.30714e-06
-7.32389e-06 2.58542e-05 -7.04332e-09
1.30714e-06 -7.04332e-09 -2.81691e-05
0.000989411 -8.25776e-06 1.59472e-06
-8.25776e-06 1.71739e-05 4.88499e-08
1.59472e-06 4.88499e-08 -3.53236e-05
0.00108547 -8.154e-06 3.61827e-07
-8.154e-06 4.71285e-05 -4.98284e-07
3.61827e-07 -4.98284e-07 -1.19992e-05
0.00100531 -7.39263e-06 1.76357e-06
-7.39263e-06 4.9889e-06 2.0487e-07
1.76357e-06 2.0487e-07 -4.14696e-05
0.00111304 -6.74533e-06 3.34123e-07
-6.74533e-06 3.85208e-05 1.07329e-07
3.34123e-07 1.07329e-07 -1.84508e-05
0.00252202 1.30683e-05 -7.57794e-06
1.30683e-05 0.00089221 2.45424e-07
-7.57794e-06 2.45424e-07 0.000884634
0.00110196 1.71233e-05 -3.0503e-06
1.71233e-05 0.00017169 3.2104e-07
-3.0503e-06 3.2104e-07 0.000157418
0.000342295 9.26432e-06 -6.39096e-06
9.26432e-06 -0.000220402 5.92982e-07
-6.39096e-06 5.92982e-07 -0.000259496
0.00117854 1.40198e-05 -5.92109e-06
1.40198e-05 0.000153308 1.15452e-06
-5.92109e-06 1.15452e-06 0.000127009
0.00230098 1.86689e-05 -2.18335e-06
1.86689e-05 0.00063704 9.67475e-07
-2.18335e-06 9.67475e-07 0.000655241
0.00153241 1.42186e-05 -4.21278e-06
1.42186e-05 0.000269084 1.88198e-06
-4.21278e-06 1.88198e-06 0.000266803
0.00118012 1.51756e-05 -5.2198e-06
1.51756e-05 0.000131009 1.39704e-06
-5.2198e-06 1.39704e-06 0.000113357
0.0011678 6.10496e-06 -2.60003e-06
6.10496e-06 9.16068e-05 8.58021e-07
-2.60003e-06 8.58021e-07 4.56791e-05
0.00136855 8.03803e-06 -2.52639e-06
8.03803e-06 0.000184265 7.18613e-07
-2.52639e-06 7.18613e-07 0.000147105
0.00136176 7.92161e-06 -2.8848e-06
7.92161e-06 0.000178147 1.33149e-06
-2.8848e-06 1.33149e-06 0.00014697
0.00108194 -1.14073e-07 -8.74933e-07
-1.14073e-07 2.57563e-05 1.67449e-07
-8.74933e-07 1.67449e-07 -2.35003e-05
0.000694665 7.7884e-06 2.27429e-08
7.7884e-06 -3.67342e-05 -6.95562e-08
2.27429e-08 -6.95562e-08 -7.49375e-05
0.00117378 1.29253e-05 -1.31482e-06
1.29253e-05 0.0001636 1.5229e-07
-1.31482e-06 1.5229e-07 0.000133344
0.00100342 7.6719e-06 -4.54035e-07
7.6719e-06 2.84992e-05 1.11206e-07
-4.54035e-07 1.11206e-07 -2.60703e-05
0.0012957 6.86334e-06 -5.00318e-07
6.86334e-06 0.000155423 1.39233e-07
-5.00318e-07 1.39233e-07 0.000106975
0.00230943 1.69611e-05 -7.8515e-08
1.69611e-05 0.000635283 -5.52694e-08
-7.8515e-08 -5.52694e-08 0.000654476
0.00123719 1.32674e-05 2.675e-08
1.32674e-05 0.000119521 -7.97602e-08
2.675e-08 -7.97602e-08 0.000118117
0.00119797 7.4949e-06 9.62798e-09
7.4949e-06 9.79567e-05 -7.84125e-09
9.62798e-09 -7.84125e-09 6.90508e-05
0.00119247 7.06604e-06 -4.92243e-07
7.06604e-06 0.000102406 1.97081e-07
-4.92243e-07 1.97081e-07 6.04629e-05
0.00112768 -2.9195e-08 -3.18141e-07
-2.9195e-08 4.49946e-05 2.01335e-07
-3.18141e-07 2.01335e-07 -1.1186e-05
0.00102048 -6.45554e-07 9.44124e-09
-6.45554e-07 -6.52508e-07 -6.53954e-08
9.44124e-09 -6.53954e-08 -4.87109e-05
0.00119781 8.613e-07 3.24306e-08
8.613e-07 7.99256e-05 -2.52643e-08
3.24306e-08 -2.52643e-08 2.94661e-05
0.00115753 -6.1306e-06 4.97107e-08
-6.1306e-06 4.58628e-05 -2.91261e-09
4.97107e-08 -2.91261e-09 -8.307e-06
0.000935814 1.11854e-05 -5.50086e-08
1.11854e-05 -3.64102e-05 -2.98253e-08
-5.50086e-08 -2.98253e-08 -3.62722e-05
0.00102296 5.61543e-06 -5.58504e-08
5.61543e-06 2.4877e-07 -2.51538e-08
-5.58504e-08 -2.51538e-08 -2.30783e-05
0.000938569 6.9065e-06 1.50506e-06
6.9065e-06 1.33671e-05 1.97945e-07
1.50506e-06 1.97945e-07 -4.16221e-05
0.00120472 7.98894e-06 1.22865e-06
7.98894e-06 0.000115314 -6.08866e-08
1.22865e-06 -6.08866e-08 6.34873e-05
0.00122161 8.10467e-06 1.08499e-07
8.10467e-06 0.000102559 2.11432e-07
1.08499e-07 2.11432e-07 4.26437e-05
0.00110254 2.97697e-06 6.96697e-07
2.97697e-06 3.09746e-05 -2.93143e-07
6.96697e-07 -2.93143e-07 -2.81229e-05
0.00123218 8.71766e-07 3.97795e-07
8.71766e-07 9.65352e-05 -3.4628e-08
3.97795e-07 -3.4628e-08 4.40193e-05
0.0012123 -9.0078e-07 -3.10202e-07
-9.0078e-07 6.92798e-05 -1.59069e-08
-3.10202e-07 -1.59069e-08 9.93979e-06
0.000901359 1.21325e-05 2.96449e-06
1.21325e-05 -4.81152e-05 -1.85043e-06
2.96449e-06 -1.85043e-06 -4.90168e-05
0.00116568 -4.90162e-06 6.63981e-08
-4.90162e-06 4.75628e-05 7.92464e-08
6.63981e-08 7.92464e-08 -7.60136e-06
0.000990119 6.92197e-06 1.97272e-06
6.92197e-06 -5.07627e-06 -9.67561e-07
1.97272e-06 -9.67561e-07 -3.25482e-05
0.000954779 -4.88986e-07 1.28832e-06
-4.88986e-07 -2.88108e-05 -7.98813e-07
1.28832e-06 -7.98813e-07 -7.50289e-05
0.00126418 -7.63329e-06 1.46245e-07
-7.63329e-06 0.000101475 1.6416e-07
1.46245e-07 1.6416e-07 4.83357e-05
0.00117235 -7.49102e-06 -2.48168e-07
-7.49102e-06 4.51778e-05 4.26127e-07
-2.48168e-07 4.26127e-07 -1.04663e-05
0.00101061 6.02488e-06 1.83492e-06
6.02488e-06 -3.44161e-06 -1.10496e-06
1.83492e-06 -1.10496e-06 -2.74995e-05
0.00102247 5.24051e-06 1.50394e-06
5.24051e-06 -1.7757e-06 -1.29282e-06
1.50394e-06 -1.29282e-06 -2.44812e-05
0.00107121 4.31047e-07 1.04618e-06
4.31047e-07 2.17333e-05 -6.6496e-07
1.04618e-06 -6.6496e-07 -1.73451e-05
0.000787437 -1.4543e-05 -4.13828e-06
-1.4543e-05 -6.50633e-05 -1.25504e-06
-4.13828e-06 -1.25504e-06 -8.4869e-05
0.00230888 -1.55644e-05 -4.54825e-06
-1.55644e-05 0.000632154 -2.83991e-06
-4.54825e-06 -2.83991e-06 0.000652088
0.000925102 -1.05598e-05 -2.54653e-06
-1.05598e-05 -4.27794e-05 -2.14012e-06
-2.54653e-06 -2.14012e-06 -4.13563e-05
0.000808134 -1.41524e-05 -3.70668e-06
-1.41524e-05 -6.76352e-05 -1.50596e-06
-3.70668e-06 -1.50596e-06 -7.85775e-05
0.000999329 -3.772e-06 -2.05867e-06
-3.772e-06 -9.24274e-07 -7.61495e-07
-2.05867e-06 -7.61495e-07 -4.18603e-05
0.000893904 -1.22742e-05 -2.97313e-06
-1.22742e-05 -4.70125e-05 -1.84004e-06
-2.97313e-06 -1.84004e-06 -4.75647e-05
0.000983207 -7.14828e-06 -2.01595e-06
-7.14828e-06 -3.04318e-06 -1.09508e-06
-2.01595e-06 -1.09508e-06 -3.01487e-05
0.000971746 -6.86391e-06 -2.17991e-06
-6.86391e-06 -7.52745e-06 -8.62982e-07
-2.17991e-06 -8.62982e-07 -4.03946e-05
0.000961523 1.0587e-07 -1.20673e-06
1.0587e-07 -2.14862e-05 -5.25618e-07
-1.20673e-06 -5.25618e-07 -6.70346e-05
0.000933256 -1.14058e-05 5.72182e-08
-1.14058e-05 -3.3942e-05 -3.49159e-08
5.72182e-08 -3.49159e-08 -3.34625e-05
0.00095131 -9.67264e-06 6.84549e-08
-9.67264e-06 -3.44832e-05 -1.92666e-08
6.84549e-08 -1.92666e-08 -3.23035e-05
0.0010192 -6.23208e-06 5.92546e-08
-6.23208e-06 1.45703e-06 -2.30758e-08
5.92546e-08 -2.30758e-08 -2.11184e-05
0.00100794 -5.10628e-06 -1.99651e-08
-5.10628e-06 1.06795e-06 -9.46545e-08
-1.99651e-08 -9.46545e-08 -4.27765e-05
0.000998881 -4.63365e-06 3.81562e-08
-4.63365e-06 3.01264e-06 -3.32819e-08
3.81562e-08 -3.32819e-08 -3.39435e-05
0.00111384 3.67913e-06 2.24061e-08
3.67913e-06 2.89436e-05 2.07824e-09
2.24061e-08 2.07824e-09 -2.37632e-05
0.00100939 -6.95953e-06 5.10024e-09
-6.95953e-06 4.80349e-06 1.85719e-08
5.10024e-09 1.85719e-08 -1.99873e-05
0.00102903 2.0411e-06 -4.26578e-08
2.0411e-06 5.35156e-06 -4.81692e-08
-4.26578e-08 -4.81692e-08 -4.19862e-05
0.00107114 -6.61329e-07 4.314e-08
-6.61329e-07 3.38549e-05 -5.22603e-08
4.314e-08 -5.22603e-08 -9.27473e-06
0.00112957 7.26846e-06 -3.5348e-07
7.26846e-06 5.2529e-05 -1.26724e-07
-3.5348e-07 -1.26724e-07 9.41506e-07
0.000972857 -8.75736e-06 2.19806e-06
-8.75736e-06 -2.82457e-05 2.32426e-06
2.19806e-06 2.32426e-06 -2.52801e-05
0.00102759 -6.56219e-06 1.95536e-06
-6.56219e-06 8.52171e-06 1.07606e-06
1.95536e-06 1.07606e-06 -1.48861e-05
0.00103261 -5.88439e-06 1.59706e-06
-5.88439e-06 5.15021e-06 1.26269e-06
1.59706e-06 1.26269e-06 -1.66467e-05
0.00107638 -4.98501e-06 1.09119e-06
-4.98501e-06 2.8162e-05 6.29086e-07
1.09119e-06 6.29086e-07 -1.01187e-05
0.00110835 -5.38016e-07 8.1509e-07
-5.38016e-07 2.18881e-05 -6.26468e-08
8.1509e-07 -6.26468e-08 -3.17984e-05
0.00109333 3.47928e-06 9.55854e-07
3.47928e-06 2.92432e-05 5.08083e-07
9.55854e-07 5.08083e-07 -2.09306e-05
0.00116355 6.70162e-06 2.25049e-07
6.70162e-06 3.47253e-05 6.18229e-08
2.25049e-07 6.18229e-08 -2.25988e-05
0.00108512 -1.47079e-06 1.16434e-06
-1.47079e-06 3.74012e-05 7.16786e-07
1.16434e-06 7.16786e-07 -3.43123e-06
0.00108636 8.45585e-06 1.05837e-07
8.45585e-06 2.12465e-05 5.31817e-09
1.05837e-07 5.31817e-09 -3.23572e-05
0.00110913 5.69279e-06 7.49263e-07
5.69279e-06 4.89685e-05 1.8866e-08
7.49263e-07 1.8866e-08 -3.40535e-06
0.00108786 9.89064e-06 1.73312e-07
9.89064e-06 2.67608e-05 -3.54001e-07
1.73312e-07 -3.54001e-07 -2.85474e-05
0.00104841 -3.54159e-06 9.64252e-07
-3.54159e-06 2.13935e-06 1.54288e-06
9.64252e-07 1.54288e-06 -1.71322e-05
0.000972177 -6.83402e-06 1.72595e-06
-6.83402e-06 -3.60658e-05 2.51802e-06
1.72595e-06 2.51802e-06 -3.16412e-05
0.00218336 -1.03539e-05 3.56035e-06
-1.03539e-05 0.000552204 3.24746e-06
3.56035e-06 3.24746e-06 0.000575777
0.0022228 -1.16595e-05 9.04146e-08
-1.16595e-05 0.000575329 -3.72187e-08
9.04146e-08 -3.72187e-08 0.000598068
0.00227718 -1.29478e-05 -4.02643e-06
-1.29478e-05 0.000605912 -3.08626e-06
-4.02643e-06 -3.08626e-06 0.000627709
0.000940141 9.42522e-06 2.31853e-06
9.42522e-06 -4.19009e-05 -2.2601e-06
2.31853e-06 -2.2601e-06 -4.01304e-05
0.00233531 1.41832e-05 4.33811e-06
1.41832e-05 0.000636361 -2.99158e-06
4.33811e-06 -2.99158e-06 0.000657312
0.000945498 1.02841e-05 -6.56143e-08
1.02841e-05 -3.57144e-05 -2.81452e-08
-6.56143e-08 -2.81452e-08 -3.47284e-05
0.00229547 1.55853e-05 -8.34937e-08
1.55853e-05 0.000622645 -5.15951e-08
-8.34937e-08 -5.15951e-08 0.000642882
0.000770596 -1.45099e-05 -4.24486e-06
-1.45099e-05 -5.99514e-05 -1.02948e-06
-4.24486e-06 -1.02948e-06 -8.4172e-05
0.000726538 -1.24042e-05 -4.36983e-06
-1.24042e-05 -4.75203e-05 -7.87902e-07
-4.36983e-06 -7.87902e-07 -8.05209e-05
0.000997798 -8.08431e-06 -1.67009e-06
-8.08431e-06 1.14827e-05 -2.95061e-07
-1.67009e-06 -2.95061e-07 -3.82389e-05
0.000982691 -8.09262e-06 -1.554e-06
-8.09262e-06 2.65779e-05 2.64579e-08
-1.554e-06 2.64579e-08 -2.73514e-05
0.00069317 -7.36784e-06 -4.33659e-06
-7.36784e-06 -3.18094e-05 -1.23071e-07
-4.33659e-06 -1.23071e-07 -6.94672e-05
0.00249808 -3.94806e-07 -7.79395e-06
-3.94806e-07 0.000885774 -1.33522e-07
-7.79395e-06 -1.33522e-07 0.000877836
0.000682189 3.10242e-08 4.70349e-08
3.10242e-08 -3.38035e-05 -1.46065e-07
4.70349e-08 -1.46065e-07 -7.22975e-05
0.000956631 -7.21436e-06 -7.31944e-08
-7.21436e-06 2.85815e-05 1.35969e-07
-7.31944e-08 1.35969e-07 -2.54979e-05
0.000992491 -8.17095e-06 8.8118e-10
-8.17095e-06 1.8668e-05 -1.18175e-07
8.8118e-10 -1.18175e-07 -3.39003e-05
0.0010894 -8.16773e-06 -1.06062e-08
-8.16773e-06 4.87101e-05 -1.16023e-07
-1.06062e-08 -1.16023e-07 -1.0435e-05
0.00100535 -7.23226e-06 -3.86424e-08
-7.23226e-06 5.196e-06 -3.1117e-08
-3.86424e-08 -3.1117e-08 -4.13541e-05
0.00111279 -6.64627e-06 -2.50284e-08
-6.64627e-06 3.83462e-05 1.0954e-08
-2.50284e-08 1.0954e-08 -1.8644e-05
0.000956154 1.24522e-07 1.35022e-06
1.24522e-07 3.12361e-05 1.83013e-07
1.35022e-06 1.83013e-07 -2.34092e-05
0.00105555 -7.41787e-06 1.71057e-07
-7.41787e-06 4.97041e-05 -1.64031e-07
1.71057e-07 -1.64031e-07 -8.8879e-06
0.00109817 -7.376e-06 3.64344e-07
-7.376e-06 4.09244e-05 -1.58564e-07
3.64344e-07 -1.58564e-07 -1.80062e-05
0.00117572 -9.11579e-06 -5.26409e-08
-9.11579e-06 7.43956e-05 -5.22998e-07
-5.26409e-08 -5.22998e-07 1.38708e-05
0.00111413 -4.83743e-06 4.44064e-07
-4.83743e-06 2.95807e-05 -4.91805e-08
4.44064e-07 -4.91805e-08 -2.52411e-05
0.00115936 -7.22445e-06 -2.27972e-07
-7.22445e-06 4.68188e-05 1.0152e-07
-2.27972e-07 1.0152e-07 -1.20285e-05
0.000685543 8.28147e-06 -4.35142e-06
8.28147e-06 -4.12214e-05 2.31532e-08
-4.35142e-06 2.31532e-08 -7.93324e-05
0.0011678 1.2728e-05 -6.28373e-06
1.2728e-05 0.000160641 9.28709e-07
-6.28373e-06 9.28709e-07 0.000130448
0.000867438 7.30847e-06 -2.10552e-06
7.30847e-06 -3.82679e-05 2.0588e-08
-2.10552e-06 2.0588e-08 -9.41372e-05
0.00135893 6.71452e-06 -2.27171e-06
6.71452e-06 0.000185604 5.2676e-07
-2.27171e-06 5.2676e-07 0.000137458
0.00224177 1.69979e-05 -4.81099e-06
1.69979e-05 0.000603431 2.65191e-06
-4.81099e-06 2.65191e-06 0.000622776
0.00154109 1.3445e-05 -3.78369e-06
1.3445e-05 0.000266451 1.70492e-06
-3.78369e-06 1.70492e-06 0.000266187
0.00138621 7.70045e-06 -2.16151e-06
7.70045e-06 0.000188432 8.47493e-07
-2.16151e-06 8.47493e-07 0.000160466
0.00119533 7.14604e-06 -2.41539e-06
7.14604e-06 0.000103596 6.62543e-07
-2.41539e-06 6.62543e-07 6.16341e-05
0.001013 7.72836e-09 -8.31753e-07
7.72836e-09 -1.04029e-05 4.86682e-07
-8.31753e-07 4.86682e-07 -6.7376e-05
0.00126945 1.0354e-06 -7.11945e-07
1.0354e-06 0.000114299 9.35155e-08
-7.11945e-07 9.35155e-08 6.44499e-05
0.000960119 -3.98484e-07 -1.00209e-06
-3.98484e-07 -2.94749e-05 3.16312e-07
-1.00209e-06 3.16312e-07 -7.76768e-05
0.00114895 -5.99484e-06 -1.85304e-07
-5.99484e-06 4.18734e-05 -1.01828e-07
-1.85304e-07 -1.01828e-07 -1.22317e-05
0.00095407 1.11592e-05 -2.90235e-06
1.11592e-05 -2.75227e-05 1.92477e-06
-2.90235e-06 1.92477e-06 -2.75006e-05
0.00102835 5.62428e-06 -1.77348e-06
5.62428e-06 2.88549e-06 1.15528e-06
-1.77348e-06 1.15528e-06 -2.04663e-05
0.000890868 6.90216e-06 6.00003e-08
6.90216e-06 -1.03961e-05 -1.72595e-08
6.00003e-08 -1.72595e-08 -6.57675e-05
0.00119911 7.97343e-06 -4.84337e-07
7.97343e-06 0.00011261 1.30511e-07
-4.84337e-07 1.30511e-07 6.07152e-05
0.00117905 7.9993e-06 -2.7797e-07
7.9993e-06 8.2738e-05 6.29761e-09
-2.7797e-07 6.29761e-09 2.2853e-05
0.00120552 2.9315e-06 1.85103e-07
2.9315e-06 8.11595e-05 -1.49902e-07
1.85103e-07 -1.49902e-07 2.28016e-05
0.000925308 1.20932e-05 -4.53512e-08
1.20932e-05 -3.65921e-05 -2.26488e-08
-4.53512e-08 -2.26488e-08 -3.76349e-05
0.00100634 6.92658e-06 -2.36092e-08
6.92658e-06 2.46457e-06 -3.79181e-09
-2.36092e-08 -3.79181e-09 -2.50588e-05
0.00102155 -7.345e-07 2.53089e-07
-7.345e-07 3.07338e-06 -2.73348e-07
2.53089e-07 -2.73348e-07 -4.25383e-05
0.0012537 8.16413e-07 -1.88977e-07
8.16413e-07 0.000106726 1.13747e-07
-1.88977e-07 1.13747e-07 5.4335e-05
0.00116135 -2.43675e-07 -1.48953e-07
-2.43675e-07 4.43433e-05 1.8782e-07
-1.48953e-07 1.8782e-07 -1.51692e-05
0.00116075 -7.19766e-06 -2.18316e-07
-7.19766e-06 5.19793e-05 1.71088e-07
-2.18316e-07 1.71088e-07 -1.66443e-06
0.00116355 -4.78132e-06 2.56399e-08
-4.78132e-06 4.64944e-05 -1.38456e-08
2.56399e-08 -1.38456e-08 -8.6253e-06
0.00116158 -7.28533e-06 9.9184e-08
-7.28533e-06 3.9535e-05 1.07413e-07
9.9184e-08 1.07413e-07 -1.59802e-05
0.00101864 6.03489e-06 -3.31819e-08
6.03489e-06 4.44581e-07 -1.94886e-08
-3.31819e-08 -1.94886e-08 -2.36517e-05
0.00100924 8.62898e-07 -5.45674e-08
8.62898e-07 -8.54541e-06 -3.39654e-08
-5.45674e-08 -3.39654e-08 -4.80156e-05
0.00102731 5.24296e-06 -4.96391e-08
5.24296e-06 5.85331e-07 -1.15521e-08
-4.96391e-08 -1.15521e-08 -2.21474e-05
0.00120804 8.12558e-06 7.96117e-08
8.12558e-06 0.000112546 2.98302e-07
7.96117e-08 2.98302e-07 5.32088e-05
0.00121066 6.2418e-06 3.73417e-07
6.2418e-06 8.60767e-05 1.56151e-07
3.73417e-07 1.56151e-07 2.63675e-05
0.00113347 8.86805e-06 1.70464e-07
8.86805e-06 4.7545e-05 1.18024e-07
1.70464e-07 1.18024e-07 -1.41647e-05
0.00122754 4.13906e-06 -1.45166e-07
4.13906e-06 7.36841e-05 -2.37661e-07
-1.45166e-07 -2.37661e-07 1.1809e-05
0.00116113 -3.36541e-06 -3.59446e-08
-3.36541e-06 4.51468e-05 -6.07148e-08
-3.59446e-08 -6.07148e-08 -1.14796e-05
0.00120346 6.13789e-07 -4.97191e-07
6.13789e-07 5.63482e-05 -1.10185e-08
-4.97191e-07 -1.10185e-08 -3.03684e-06
0.00100053 6.5298e-06 1.91829e-06
6.5298e-06 -4.44441e-06 -1.01234e-06
1.91829e-06 -1.01234e-06 -2.98245e-05
0.00119371 -5.38675e-06 -4.52719e-07
-5.38675e-06 5.31383e-05 1.96337e-07
-4.52719e-07 1.96337e-07 -2.98965e-06
0.00107252 -4.28347e-07 1.05897e-06
-4.28347e-07 2.77926e-05 -5.39615e-07
1.05897e-06 -5.39615e-07 -1.51298e-05
0.00104828 -7.15469e-06 6.38591e-07
-7.15469e-06 4.87553e-06 -4.27011e-07
6.38591e-07 -4.27011e-07 -4.84132e-05
0.00120634 -8.99628e-06 -9.49063e-09
-8.99628e-06 6.58472e-05 4.68205e-07
-9.49063e-09 4.68205e-07 9.75436e-06
0.00122648 -7.79794e-06 -7.55078e-07
-7.79794e-06 6.64117e-05 7.76747e-07
-7.55078e-07 7.76747e-07 1.22002e-05
0.00102734 4.7629e-06 1.36717e-06
4.7629e-06 -1.60551e-06 -1.32101e-06
1.36717e-06 -1.32101e-06 -2.38239e-05
0.00107196 4.67687e-07 1.14247e-06
4.67687e-07 2.26692e-05 -5.65489e-07
1.14247e-06 -5.65489e-07 -1.6821e-05
0.00093613 1.11875e-06 1.18504e-06
1.11875e-06 -4.40516e-05 -1.10173e-06
1.18504e-06 -1.10173e-06 -8.37979e-05
0.00124539 -5.00231e-06 3.61425e-07
-5.00231e-06 0.000103993 1.42013e-07
3.61425e-07 1.42013e-07 5.64937e-05
0.00100848 -4.8942e-06 -1.99381e-06
-4.8942e-06 1.44374e-06 -4.71676e-07
-1.99381e-06 -4.71676e-07 -4.25015e-05
0.000935666 -9.69204e-06 -2.29878e-06
-9.69204e-06 -4.20456e-05 -2.26439e-06
-2.29878e-06 -2.26439e-06 -3.97745e-05
0.000913019 -1.14306e-05 -2.78401e-06
-1.14306e-05 -4.37118e-05 -1.98635e-06
-2.78401e-06 -1.98635e-06 -4.31269e-05
0.00100863 -6.2282e-06 -1.67274e-06
-6.2282e-06 -3.58103e-06 -1.20934e-06
-1.67274e-06 -1.20934e-06 -2.61157e-05
0.000980297 -5.25368e-06 -2.04116e-06
-5.25368e-06 -4.95958e-06 -9.06119e-07
-2.04116e-06 -9.06119e-07 -4.19604e-05
0.00112666 4.00662e-06 -8.29291e-07
4.00662e-06 3.4738e-05 -2.1276e-07
-8.29291e-07 -2.1276e-07 -1.80506e-05
0.000993039 -6.96043e-06 -1.96935e-06
-6.96043e-06 -2.83499e-06 -1.04557e-06
-1.96935e-06 -1.04557e-06 -2.75659e-05
0.00107017 -1.07486e-06 -1.16742e-06
-1.07486e-06 3.39379e-05 -7.29161e-07
-1.16742e-06 -7.29161e-07 -9.31669e-06
0.00107988 2.4272e-06 -1.01112e-06
2.4272e-06 2.99464e-05 -4.66035e-07
-1.01112e-06 -4.66035e-07 -1.71974e-05
0.00104839 7.22187e-06 -1.03183e-06
7.22187e-06 1.36866e-05 -2.52455e-07
-1.03183e-06 -2.52455e-07 -3.84655e-05
0.000960147 -8.77038e-06 6.12301e-08
-8.77038e-06 -3.44044e-05 -1.28423e-08
6.12301e-08 -1.28423e-08 -3.13622e-05
0.00101524 -6.56232e-06 4.40705e-08
-6.56232e-06 2.67282e-06 -2.0825e-08
4.40705e-08 -2.0825e-08 -2.06857e-05
0.00102416 -5.8828e-06 5.22798e-08
-5.8828e-06 1.11282e-06 -1.33378e-08
5.22798e-08 -1.33378e-08 -2.0649e-05
0.00106833 -4.89323e-06 5.29773e-08
-4.89323e-06 2.4352e-05 -1.91972e-08
5.29773e-08 -1.91972e-08 -1.39176e-05
0.00112499 -2.39138e-07 1.33214e-07
-2.39138e-07 2.95253e-05 1.31241e-08
1.33214e-07 1.31241e-08 -2.42728e-05
0.00109262 3.90069e-06 1.02976e-08
3.90069e-06 2.92453e-05 2.44299e-09
1.02976e-08 2.44299e-09 -2.09792e-05
0.00118082 6.80867e-06 9.08383e-09
6.80867e-06 4.24695e-05 1.34773e-07
9.08383e-09 1.34773e-07 -1.49127e-05
0.00107021 -2.43101e-06 8.35542e-09
-2.43101e-06 3.09629e-05 3.08623e-08
8.35542e-09 3.08623e-08 -9.8955e-06
0.00116959 8.74685e-06 -1.69457e-07
8.74685e-06 6.1005e-05 -3.47489e-07
-1.69457e-07 -3.47489e-07 7.88397e-06
0.00111326 6.17012e-06 7.25597e-08
6.17012e-06 5.06453e-05 -1.46663e-07
7.25597e-08 -1.46663e-07 -1.86774e-06
0.00109489 9.792e-06 -5.57301e-07
9.792e-06 3.10126e-05 -2.38227e-07
-5.57301e-07 -2.38227e-07 -2.37719e-05
0.000978907 -7.80282e-06 1.96505e-06
-7.80282e-06 -2.93403e-05 2.42333e-06
1.96505e-06 2.42333e-06 -2.55844e-05
0.00103514 -5.37026e-06 1.4336e-06
-5.37026e-06 3.38459e-06 1.34085e-06
1.4336e-06 1.34085e-06 -1.75375e-05
0.00108243 -3.39933e-06 1.17978e-06
-3.39933e-06 3.25512e-05 6.43907e-07
1.17978e-06 6.43907e-07 -6.56894e-06
0.00107743 -4.80549e-06 9.68546e-07
-4.80549e-06 2.69027e-05 7.2812e-07
9.68546e-07 7.2812e-07 -1.0607e-05
0.00109292 -4.6211e-07 6.89924e-07
-4.6211e-07 3.56414e-05 2.36029e-07
6.89924e-07 2.36029e-07 -1.25962e-05
0.00117346 1.54732e-07 1.83359e-07
1.54732e-07 3.47204e-05 -4.24927e-07
1.83359e-07 -4.24927e-07 -2.19568e-05
0.00115201 9.00297e-06 1.98411e-07
9.00297e-06 4.17876e-05 4.48199e-07
1.98411e-07 4.48199e-07 -1.42278e-05
0.0012319 5.99082e-06 -6.70295e-07
5.99082e-06 5.70518e-05 -1.74004e-07
-6.70295e-07 -1.74004e-07 -8.81206e-07
0.00112312 3.5359e-06 9.01605e-07
3.5359e-06 5.54446e-05 8.62801e-07
9.01605e-07 8.62801e-07 4.08752e-06
0.00113773 1.10415e-05 2.57522e-07
1.10415e-05 4.09651e-05 -1.66826e-08
2.57522e-07 -1.66826e-08 -1.52295e-05
0.000988274 9.49503e-06 6.35646e-07
9.49503e-06 -1.38645e-05 -3.16278e-07
6.35646e-07 -3.16278e-07 -7.33738e-05
0.00104434 -4.13224e-06 1.15043e-06
-4.13224e-06 2.41381e-06 1.48438e-06
1.15043e-06 1.48438e-06 -1.72596e-05
0.00108851 -2.2509e-06 5.98299e-07
-2.2509e-06 2.41786e-05 9.13637e-07
5.98299e-07 9.13637e-07 -1.09014e-05
0.00105118 -2.84077e-06 8.00773e-07
-2.84077e-06 1.41119e-06 1.58012e-06
8.00773e-07 1.58012e-06 -1.77012e-05
0.00104462 -3.5455e-06 4.11528e-08
-3.5455e-06 3.59747e-07 -3.51912e-09
4.11528e-08 -3.51912e-09 -1.88982e-05
0.00148195 -6.08428e-06 1.14161e-06
-6.08428e-06 0.000206921 1.601e-06
1.14161e-06 1.601e-06 0.000214374
0.00123317 -6.96964e-06 1.2238e-07
-6.96964e-06 9.00822e-05 1.75101e-08
1.2238e-07 1.75101e-08 9.57188e-05
0.00117936 -8.4622e-06 3.85863e-06
-8.4622e-06 6.28645e-05 5.33365e-06
3.85863e-06 5.33365e-06 8.20793e-05
0.00221375 -1.0326e-05 9.6429e-08
-1.0326e-05 0.000566397 -3.214e-08
9.6429e-08 -3.214e-08 0.000589908
0.00225896 -1.16343e-05 -3.72607e-06
-1.16343e-05 0.000592275 -3.1806e-06
-3.72607e-06 -3.1806e-06 0.000614937
0.00095094 8.51868e-06 2.10398e-06
8.51868e-06 -4.03701e-05 -2.36175e-06
2.10398e-06 -2.36175e-06 -3.8041e-05
0.00231544 1.28439e-05 4.0706e-06
1.28439e-05 0.000622256 -3.1092e-06
4.0706e-06 -3.1092e-06 0.000644008
0.00095462 9.40657e-06 -6.23991e-08
9.40657e-06 -3.49354e-05 -2.06623e-08
-6.23991e-08 -2.06623e-08 -3.32422e-05
0.00228469 1.42174e-05 -8.77437e-08
1.42174e-05 0.000612389 -4.72198e-08
-8.77437e-08 -4.72198e-08 0.000633491
0.00096115 1.02643e-05 -2.69529e-06
1.02643e-05 -2.8116e-05 2.07652e-06
-2.69529e-06 2.07652e-06 -2.72247e-05
0.00223543 1.56283e-05 -4.62342e-06
1.56283e-05 0.000594272 2.79639e-06
-4.62342e-06 2.79639e-06 0.000614675
0.00100534 -7.11718e-06 -1.84282e-06
-7.11718e-06 5.37092e-06 -2.78345e-07
-1.84282e-06 -2.78345e-07 -4.12703e-05
0.000995861 -8.08596e-06 -1.59211e-06
-8.08596e-06 2.02923e-05 -2.98716e-07
-1.59211e-06 -2.98716e-07 -3.23465e-05
0.00111272 -6.55207e-06 -3.51678e-07
-6.55207e-06 3.82487e-05 -8.39743e-08
-3.51678e-07 -8.39743e-08 -1.87596e-05
0.00109306 -8.18096e-06 -3.50748e-07
-8.18096e-06 5.01675e-05 2.5984e-07
-3.50748e-07 2.5984e-07 -8.99527e-06
0.00096284 -7.06855e-06 -1.43178e-06
-7.06855e-06 3.12992e-05 2.65306e-07
-1.43178e-06 2.65306e-07 -2.28361e-05
0.000674387 5.11402e-07 -4.25405e-06
5.11402e-07 -3.71698e-05 -2.62243e-07
-4.25405e-06 -2.62243e-07 -7.56374e-05
0.000951505 1.78887e-07 3.38848e-08
1.78887e-07 2.92231e-05 -2.67505e-09
3.38848e-08 -2.67505e-09 -2.54091e-05
0.00106188 -7.29189e-06 -6.36698e-08
-7.29189e-06 5.23839e-05 1.3572e-07
-6.36698e-08 1.3572e-07 -6.23278e-06
0.00110535 -7.39267e-06 1.01641e-08
-7.39267e-06 4.39691e-05 -1.37256e-07
1.01641e-08 -1.37256e-07 -1.49828e-05
0.00116475 -9.15569e-06 -1.26449e-08
-9.15569e-06 7.01176e-05 -2.99999e-08
-1.26449e-08 -2.99999e-08 9.72653e-06
0.00112047 -4.65313e-06 -6.72055e-08
-4.65313e-06 3.22813e-05 2.92558e-08
-6.72055e-08 2.92558e-08 -2.25841e-05
0.00116213 -7.26532e-06 -8.75459e-09
-7.26532e-06 4.82279e-05 1.8084e-08
-8.75459e-09 1.8084e-08 -1.05826e-05
0.00105831 7.70315e-07 2.66474e-07
7.70315e-07 5.48372e-05 4.22578e-07
2.66474e-07 4.22578e-07 -4.20015e-06
0.00111076 -8.14933e-06 -1.02007e-08
-8.14933e-06 6.39809e-05 -4.21815e-07
-1.02007e-08 -4.21815e-07 4.15906e-06
0.00114582 -7.94505e-06 -9.41181e-08
-7.94505e-06 5.02067e-05 -2.80606e-07
-9.41181e-08 -2.80606e-07 -1.02643e-05
0.00118976 -1.02857e-05 5.64128e-07
-1.02857e-05 7.48814e-05 -2.81464e-07
5.64128e-07 -2.81464e-07 1.35029e-05
0.00117688 -5.66476e-06 -2.36084e-07
-5.66476e-06 4.32889e-05 -1.32778e-07
-2.36084e-07 -1.32778e-07 -1.35402e-05
0.00128237 -8.74329e-06 -4.72106e-07
-8.74329e-06 9.41268e-05 2.70343e-07
-4.72106e-07 2.70343e-07 3.6194e-05
0.000842367 6.89233e-06 -1.41687e-06
6.89233e-06 -3.4564e-05 -2.71266e-07
-1.41687e-06 -2.71266e-07 -9.03129e-05
0.00119281 8.00499e-06 -2.20003e-06
8.00499e-06 0.000109575 3.57772e-07
-2.20003e-06 3.57772e-07 5.76145e-05
0.00113529 7.88944e-06 -7.4343e-07
7.88944e-06 6.23249e-05 -2.69168e-07
-7.4343e-07 -2.69168e-07 2.47563e-06
0.00130844 2.69855e-06 -3.83822e-07
2.69855e-06 0.00013131 1.19958e-08
-3.83822e-07 1.19958e-08 7.36932e-05
0.000948959 1.2053e-05 -3.06946e-06
1.2053e-05 -2.52e-05 1.78499e-06
-3.06946e-06 1.78499e-06 -2.63848e-05
0.00102245 6.9269e-06 -2.00415e-06
6.9269e-06 9.95941e-06 9.49419e-07
-2.00415e-06 9.49419e-07 -1.76156e-05
0.00108894 -1.0417e-06 -8.21974e-07
-1.0417e-06 3.52401e-05 2.29475e-07
-8.21974e-07 2.29475e-07 -9.76552e-06
0.00127495 7.91195e-07 -7.71146e-07
7.91195e-07 0.000116789 2.07003e-07
-7.71146e-07 2.07003e-07 6.45232e-05
0.0011099 4.43577e-07 1.06088e-07
4.43577e-07 1.91863e-05 4.07476e-07
1.06088e-07 4.07476e-07 -4.04996e-05
0.00116124 -4.65999e-06 -2.61038e-08
-4.65999e-06 4.53442e-05 -1.01547e-07
-2.61038e-08 -1.01547e-07 -9.73104e-06
0.00105785 -6.77214e-06 -5.80861e-07
-6.77214e-06 2.71649e-06 1.6791e-07
-5.80861e-07 1.6791e-07 -5.14302e-05
0.00115203 -7.07525e-06 3.35738e-07
-7.07525e-06 3.44406e-05 -2.8582e-07
3.35738e-07 -2.8582e-07 -2.09443e-05
0.00102651 6.04302e-06 -1.89365e-06
6.04302e-06 4.25908e-06 1.05892e-06
-1.89365e-06 1.05892e-06 -1.98753e-05
0.000948275 1.28765e-06 -1.11193e-06
1.28765e-06 -3.83632e-05 5.98178e-07
-1.11193e-06 5.98178e-07 -7.82258e-05
0.00103254 5.2448e-06 -1.59722e-06
5.2448e-06 3.12606e-06 1.26068e-06
-1.59722e-06 1.26068e-06 -1.96345e-05
0.00111778 7.87915e-06 -2.5719e-07
7.87915e-06 7.04512e-05 -1.55338e-07
-2.5719e-07 -1.55338e-07 1.09069e-05
0.00121338 6.73398e-06 -1.47725e-07
6.73398e-06 8.76178e-05 8.31502e-08
-1.47725e-07 8.31502e-08 2.77637e-05
0.00112248 8.91309e-06 -1.94668e-07
8.91309e-06 4.08778e-05 -1.22658e-07
-1.94668e-07 -1.22658e-07 -2.10987e-05
0.00123193 4.48237e-06 -2.80908e-08
4.48237e-06 7.65744e-05 -1.44345e-07
-2.80908e-08 -1.44345e-07 1.49916e-05
0.00101318 6.52654e-06 -2.12339e-08
6.52654e-06 1.50866e-06 -8.35158e-09
-2.12339e-08 -8.35158e-09 -2.39208e-05
0.00107758 -5.69573e-07 -9.04827e-10
-5.69573e-07 2.94666e-05 3.01398e-09
-9.04827e-10 3.01398e-09 -1.33822e-05
0.00111181 -7.14151e-06 1.44924e-07
-7.14151e-06 3.60346e-05 -2.04275e-07
1.44924e-07 -2.04275e-07 -1.67815e-05
0.00121413 -3.34013e-06 4.67541e-08
-3.34013e-06 7.0846e-05 -6.20004e-08
4.67541e-08 -6.20004e-08 1.44736e-05
0.00117911 2.97567e-07 2.73861e-08
2.97567e-07 4.46011e-05 1.12855e-07
2.73861e-08 1.12855e-07 -1.47009e-05
0.00117435 -8.99268e-06 -2.92394e-08
-8.99268e-06 5.06185e-05 1.30943e-07
-2.92394e-08 1.30943e-07 -5.80345e-06
0.00119416 -5.10878e-06 1.52281e-08
-5.10878e-06 5.29703e-05 -1.70967e-08
1.52281e-08 -1.70967e-08 -3.10968e-06
0.00120126 -7.55763e-06 1.69352e-07
-7.55763e-06 5.38086e-05 2.1491e-07
1.69352e-07 2.1491e-07 4.45961e-08
0.00107766 3.5546e-07 -2.90081e-09
3.5546e-07 2.50879e-05 -3.46582e-09
-2.90081e-09 -3.46582e-09 -1.43677e-05
0.0011435 -4.73471e-06 -2.62426e-07
-4.73471e-06 5.43736e-05 2.83968e-07
-2.62426e-07 2.83968e-07 6.24305e-06
0.00103163 4.7634e-06 -3.31383e-08
4.7634e-06 4.5749e-07 -5.50463e-09
-3.31383e-08 -5.50463e-09 -2.17856e-05
0.000938713 1.46321e-06 2.19196e-07
1.46321e-06 -4.29254e-05 -3.45806e-07
2.19196e-07 -3.45806e-07 -8.26386e-05
0.00114335 9.09941e-06 2.80045e-07
9.09941e-06 6.89663e-05 2.91318e-07
2.80045e-07 2.91318e-07 7.41599e-06
0.00130041 7.63293e-06 -1.18448e-07
7.63293e-06 0.000108554 7.96043e-08
-1.18448e-07 7.96043e-08 4.62781e-05
0.00104095 9.48645e-06 -1.64836e-07
9.48645e-06 -2.13378e-06 1.08971e-07
-1.64836e-07 1.08971e-07 -6.57172e-05
0.00117962 5.2565e-06 -4.9926e-07
5.2565e-06 4.28285e-05 -3.13628e-07
-4.9926e-07 -3.13628e-07 -1.8352e-05
0.00121252 -2.99551e-06 -5.71891e-07
-2.99551e-06 6.14207e-05 6.34908e-08
-5.71891e-07 6.34908e-08 4.4388e-06
0.00119444 1.1701e-06 -5.37995e-07
1.1701e-06 4.78197e-05 5.62492e-08
-5.37995e-07 5.62492e-08 -1.05758e-05
0.00106986 4.35288e-07 1.09772e-06
4.35288e-07 2.42249e-05 -5.32549e-07
1.09772e-06 -5.32549e-07 -1.65534e-05
0.0011864 -4.66298e-06 -1.06455e-06
-4.66298e-06 4.4582e-05 2.60326e-07
-1.06455e-06 2.60326e-07 -9.53827e-06
0.00102039 -6.74177e-06 6.1995e-07
-6.74177e-06 -3.97729e-06 -4.84142e-07
6.1995e-07 -4.84142e-07 -5.55581e-05
0.00119037 -9.57877e-06 2.84476e-07
-9.57877e-06 6.70224e-05 5.2482e-08
2.84476e-07 5.2482e-08 9.79978e-06
0.00121704 -9.85214e-06 -1.37927e-07
-9.85214e-06 6.65916e-05 1.06615e-06
-1.37927e-07 1.06615e-06 9.99627e-06
0.00120525 -7.43883e-06 -6.07511e-07
-7.43883e-06 5.10249e-05 5.83824e-07
-6.07511e-07 5.83824e-07 -9.79849e-07
0.00103297 4.41387e-06 1.18017e-06
4.41387e-06 -4.58812e-07 -1.39604e-06
1.18017e-06 -1.39604e-06 -2.24683e-05
0.000929067 8.5476e-07 1.07299e-06
8.5476e-07 -4.86882e-05 -1.19707e-06
1.07299e-06 -1.19707e-06 -8.81165e-05
0.00111121 -5.24951e-06 6.17264e-07
-5.24951e-06 3.82256e-05 -1.21654e-07
6.17264e-07 -1.21654e-07 -1.0056e-05
0.00116847 -3.90698e-06 5.83536e-07
-3.90698e-06 6.80431e-05 -1.39554e-07
5.83536e-07 -1.39554e-07 1.94591e-05
0.00121661 -8.32447e-06 2.21971e-07
-8.32447e-06 8.68898e-05 2.37397e-07
2.21971e-07 2.37397e-07 3.4209e-05
0.000947348 -8.78342e-06 -2.06977e-06
-8.78342e-06 -4.0602e-05 -2.37093e-06
-2.06977e-06 -2.37093e-06 -3.74833e-05
0.00114217 7.36821e-08 -5.22796e-07
7.36821e-08 3.7406e-05 9.53808e-08
-5.22796e-07 9.53808e-08 -1.65036e-05
0.00101554 -5.88045e-06 -1.49757e-06
-5.88045e-06 -3.00472e-06 -1.29504e-06
-1.49757e-06 -1.29504e-06 -2.47307e-05
0.00100291 -6.56065e-06 -1.85203e-06
-6.56065e-06 -3.16038e-06 -1.10291e-06
-1.85203e-06 -1.10291e-06 -2.64703e-05
0.00106018 -4.80186e-06 -1.02224e-06
-4.80186e-06 2.04816e-05 -6.94204e-07
-1.02224e-06 -6.94204e-07 -1.77751e-05
0.00109073 4.3678e-06 -9.26932e-07
4.3678e-06 2.87113e-05 -4.88754e-07
-9.26932e-07 -4.88754e-07 -2.1565e-05
0.00119849 6.90467e-06 -1.50397e-07
6.90467e-06 5.03901e-05 2.2846e-07
-1.50397e-07 2.2846e-07 -7.05004e-06
0.0010558 -3.405e-06 -1.12591e-06
-3.405e-06 2.47664e-05 -6.66238e-07
-1.12591e-06 -6.66238e-07 -1.61189e-05
0.00111841 6.60531e-06 -7.6387e-07
6.60531e-06 5.28026e-05 -4.38446e-07
-7.6387e-07 -4.38446e-07 1.48298e-07
0.00125229 9.07035e-06 -5.99987e-07
9.07035e-06 0.000100507 -6.19376e-07
-5.99987e-07 -6.19376e-07 4.78695e-05
0.00110309 9.69896e-06 -1.33239e-06
9.69896e-06 3.57874e-05 1.93488e-07
-1.33239e-06 1.93488e-07 -1.84719e-05
0.00096913 -7.81089e-06 6.1029e-08
-7.81089e-06 -3.40687e-05 -1.25108e-08
6.1029e-08 -1.25108e-08 -3.02568e-05
0.00102966 -5.36195e-06 3.22991e-08
-5.36195e-06 7.44676e-07 -7.18195e-09
3.22991e-08 -7.18195e-09 -2.01548e-05
0.00106786 -4.11639e-06 2.08364e-08
-4.11639e-06 2.5877e-05 1.38311e-08
2.08364e-08 1.38311e-08 -1.32209e-05
0.00107257 -4.71588e-06 3.25445e-08
-4.71588e-06 2.45662e-05 -7.34527e-09
3.25445e-08 -7.34527e-09 -1.29342e-05
0.00106092 -1.12422e-06 6.69722e-08
-1.12422e-06 2.04135e-05 -5.01195e-08
6.69722e-08 -5.01195e-08 -2.81524e-05
0.00119049 3.54401e-07 2.30647e-07
3.54401e-07 4.27084e-05 -1.53253e-08
2.30647e-07 -1.53253e-08 -1.41348e-05
0.00115645 9.23547e-06 -1.70379e-09
9.23547e-06 4.4202e-05 1.41191e-07
-1.70379e-09 1.41191e-07 -1.18664e-05
0.00121735 6.64914e-06 1.05448e-07
6.64914e-06 5.08267e-05 2.41307e-07
1.05448e-07 2.41307e-07 -7.36089e-06
0.00110276 3.82234e-06 2.27335e-07
3.82234e-06 4.62209e-05 2.95746e-07
2.27335e-07 2.95746e-07 -5.10092e-06
0.00118794 1.10153e-05 1.42066e-07
1.10153e-05 6.46059e-05 -2.5829e-07
1.42066e-07 -2.5829e-07 8.66512e-06
0.00105603 9.75475e-06 -2.84186e-07
9.75475e-06 1.70247e-05 -2.50164e-07
-2.84186e-07 -2.50164e-07 -4.21197e-05
0.00103908 -4.72482e-06 1.31136e-06
-4.72482e-06 2.32848e-06 1.40834e-06
1.31136e-06 1.40834e-06 -1.78722e-05
0.00107807 -3.96263e-06 8.93615e-07
-3.96263e-06 2.44648e-05 7.85705e-07
8.93615e-07 7.85705e-07 -1.2187e-05
0.00105891 1.89516e-06 5.86017e-07
1.89516e-06 2.08562e-05 2.84688e-07
5.86017e-07 2.84688e-07 -2.90161e-05
0.0011063 -2.96316e-06 5.38514e-07
-2.96316e-06 4.07603e-05 3.42853e-07
5.38514e-07 3.42853e-07 -6.98551e-06
0.00118238 3.90869e-06 2.36657e-07
3.90869e-06 7.93283e-05 -2.20071e-07
2.36657e-07 -2.20071e-07 2.57396e-05
0.00121701 -1.36185e-06 -6.64383e-07
-1.36185e-06 4.13728e-05 -1.06131e-06
-6.64383e-07 -1.06131e-06 -1.36812e-05
0.0011829 1.12361e-05 -1.29481e-07
1.12361e-05 4.95204e-05 2.51105e-07
-1.29481e-07 2.51105e-07 -8.46163e-06
0.0011228 9.00563e-06 -1.0115e-06
9.00563e-06 4.66652e-06 -7.26594e-07
-1.0115e-06 -7.26594e-07 -4.83968e-05
0.00110649 8.9167e-06 3.06742e-07
8.9167e-06 4.83995e-05 8.05043e-07
3.06742e-07 8.05043e-07 -1.05386e-05
0.00119962 1.188e-05 7.70017e-07
1.188e-05 7.25333e-05 -2.38837e-07
7.70017e-07 -2.38837e-07 1.08525e-05
0.00104006 -4.13221e-06 5.15664e-08
-4.13221e-06 3.97502e-07 -9.50905e-09
5.15664e-08 -9.50905e-09 -1.92591e-05
0.000939794 -2.41818e-06 8.50075e-07
-2.41818e-06 -4.65024e-05 1.28662e-06
8.50075e-07 1.28662e-06 -8.3003e-05
0.00101505 -2.2268e-06 2.13667e-08
-2.2268e-06 -1.12749e-05 8.27183e-09
2.13667e-08 8.27183e-09 -4.68526e-05
0.00125823 7.05833e-07 2.63229e-07
7.05833e-07 0.000108926 1.35497e-07
2.63229e-07 1.35497e-07 6.41499e-05
0.00108967 -1.72027e-06 4.93838e-07
-1.72027e-06 2.35821e-05 9.25369e-07
4.93838e-07 9.25369e-07 -1.14076e-05
0.00105251 -2.12898e-06 6.33227e-07
-2.12898e-06 5.18841e-07 1.60877e-06
6.33227e-07 1.60877e-06 -1.87416e-05
0.00104856 -2.84506e-06 3.90621e-08
-2.84506e-06 1.96631e-07 -3.16366e-09
3.90621e-08 -3.16366e-09 -1.89107e-05
0.00148691 -4.95965e-06 9.44281e-07
-4.95965e-06 0.000206443 1.64871e-06
9.44281e-07 1.64871e-06 0.000214222
0.0010408 -3.54983e-06 -8.8243e-07
-3.54983e-06 -1.43406e-06 -1.5451e-06
-8.8243e-07 -1.5451e-06 -2.06785e-05
0.00150648 -5.99627e-06 -5.83158e-07
-5.99627e-06 0.000218877 -1.04486e-06
-5.83158e-07 -1.04486e-06 0.000226193
0.00121162 -7.13927e-06 3.35378e-06
-7.13927e-06 7.39292e-05 5.42649e-06
3.35378e-06 5.42649e-06 9.37028e-05
0.00149162 -7.00041e-06 -2.08559e-06
-7.00041e-06 0.000215012 -2.5591e-06
-2.08559e-06 -2.5591e-06 0.000221873
0.00167285 -8.72012e-06 1.8798e-06
-8.72012e-06 0.000300774 2.0531e-06
1.8798e-06 2.0531e-06 0.000322627
0.00224443 -1.02966e-05 -3.40204e-06
-1.02966e-05 0.000580719 -3.26758e-06
-3.40204e-06 -3.26758e-06 0.000604168
0.000960389 7.65186e-06 1.81739e-06
7.65186e-06 -3.93016e-05 -2.48612e-06
1.81739e-06 -2.48612e-06 -3.64569e-05
0.000963065 8.50466e-06 -5.53169e-08
8.50466e-06 -3.45833e-05 -1.90276e-08
-5.53169e-08 -1.90276e-08 -3.23045e-05
0.00230168 1.14989e-05 3.78887e-06
1.14989e-05 0.000611161 -3.22318e-06
3.78887e-06 -3.22318e-06 0.000633643
0.00227372 1.2872e-05 -8.92998e-08
1.2872e-05 0.000602527 -4.13532e-08
-8.92998e-08 -4.13532e-08 0.000624404
0.000968893 9.38841e-06 -2.45959e-06
9.38841e-06 -2.80638e-05 2.21269e-06
-2.45959e-06 2.21269e-06 -2.64478e-05
0.0022342 1.42546e-05 -4.4244e-06
1.42546e-05 0.000588477 2.94282e-06
-4.4244e-06 2.94282e-06 0.000609729
0.00112676 -4.46475e-06 -5.36029e-07
-4.46475e-06 3.49603e-05 1.14628e-07
-5.36029e-07 1.14628e-07 -1.99487e-05
0.00111271 -7.41096e-06 -3.13104e-07
-7.41096e-06 4.70898e-05 -1.1773e-07
-3.13104e-07 -1.1773e-07 -1.18832e-05
0.00116586 -7.27308e-06 3.67474e-07
-7.27308e-06 5.00645e-05 -1.52187e-08
3.67474e-07 -1.52187e-08 -8.70737e-06
0.0011528 -9.19367e-06 6.19576e-08
-9.19367e-06 6.54108e-05 3.74632e-07
6.19576e-08 3.74632e-07 5.15117e-06
0.00106811 -7.22505e-06 -2.83739e-07
-7.22505e-06 5.50208e-05 4.2425e-07
-2.83739e-07 4.2425e-07 -3.62185e-06
0.000947073 1.96526e-07 -1.28912e-06
1.96526e-07 2.73099e-05 -2.07381e-07
-1.28912e-06 -2.07381e-07 -2.73094e-05
0.00105477 6.82394e-07 3.29192e-08
6.82394e-07 5.33593e-05 1.65083e-07
3.29192e-08 1.65083e-07 -5.65994e-06
0.00107867 -8.01813e-06 5.1915e-08
-8.01813e-06 5.06435e-05 -1.33055e-07
5.1915e-08 -1.33055e-07 -8.91858e-06
0.00115366 -7.98237e-06 4.20915e-08
-7.98237e-06 5.34744e-05 -1.74125e-07
4.20915e-08 -1.74125e-07 -6.98686e-06
0.00120431 -1.054e-05 -5.57193e-08
-1.054e-05 8.09463e-05 -1.22002e-07
-5.57193e-08 -1.22002e-07 1.90322e-05
0.00118204 -5.44009e-06 -8.61494e-08
-5.44009e-06 4.58989e-05 1.03696e-07
-8.61494e-08 1.03696e-07 -1.09782e-05
0.00126404 -8.70579e-06 1.38072e-07
-8.70579e-06 8.56589e-05 -2.20655e-08
1.38072e-07 -2.20655e-08 2.75818e-05
0.00111374 1.14388e-06 -2.44838e-08
1.14388e-06 7.24787e-05 5.55694e-07
-2.44838e-08 5.55694e-07 1.24878e-05
0.00106911 -7.58911e-06 1.03974e-07
-7.58911e-06 4.71226e-05 -6.24619e-07
1.03974e-07 -6.24619e-07 -1.37632e-05
0.0011591 -9.53916e-06 4.42629e-07
-9.53916e-06 4.64317e-05 7.43654e-08
4.42629e-07 7.43654e-08 -1.4969e-05
0.00129378 -1.18829e-05 -4.68509e-08
-1.18829e-05 0.000125608 -1.11772e-07
-4.68509e-08 -1.11772e-07 6.07009e-05
0.00118035 -5.98991e-06 -8.27768e-07
-5.98991e-06 3.13361e-05 1.22766e-07
-8.27768e-07 1.22766e-07 -2.31024e-05
0.00135727 -1.04053e-05 -7.7346e-07
-1.04053e-05 0.000126112 1.62294e-07
-7.7346e-07 1.62294e-07 6.8403e-05
0.00102823 7.63827e-06 -5.87528e-07
7.63827e-06 2.87272e-05 -5.90919e-07
-5.87528e-07 -5.90919e-07 -3.10293e-05
0.00121612 7.15469e-06 -6.6527e-07
7.15469e-06 8.91807e-05 6.02109e-08
-6.6527e-07 6.02109e-08 2.91818e-05
0.00111244 8.96578e-06 -2.64565e-07
8.96578e-06 3.46684e-05 -1.89356e-07
-2.64565e-07 -1.89356e-07 -2.75772e-05
0.00123771 4.91889e-06 5.88581e-08
4.91889e-06 8.00788e-05 1.10336e-08
5.88581e-08 1.10336e-08 1.87898e-05
0.00102558 6.52078e-06 -1.9572e-06
6.52078e-06 7.35638e-06 9.92344e-07
-1.9572e-06 9.92344e-07 -1.81229e-05
0.00108265 -9.12283e-07 -1.06146e-06
-9.12283e-07 3.1151e-05 5.31081e-07
-1.06146e-06 5.31081e-07 -1.16262e-05
0.00117402 -7.11562e-06 -3.17386e-07
-7.11562e-06 6.66217e-05 3.31493e-08
-3.17386e-07 3.31493e-08 1.42743e-05
0.00126726 -3.27579e-06 1.03685e-07
-3.27579e-06 9.66033e-05 -1.01562e-07
1.03685e-07 -1.01562e-07 4.04853e-05
0.00115648 -1.20698e-08 5.77804e-07
-1.20698e-08 3.36477e-05 2.70721e-07
5.77804e-07 2.70721e-07 -2.55717e-05
0.00119491 -4.83362e-06 3.92843e-07
-4.83362e-06 5.29414e-05 -2.0709e-07
3.92843e-07 -2.0709e-07 -3.09004e-06
0.00114129 -8.98883e-06 -1.64626e-07
-8.98883e-06 3.49098e-05 -2.18897e-07
-1.64626e-07 -2.18897e-07 -2.18421e-05
0.00117654 -7.34042e-06 8.88935e-07
-7.34042e-06 4.14634e-05 -6.71448e-07
8.88935e-07 -6.71448e-07 -1.18567e-05
0.00108255 2.50051e-07 -1.12277e-06
2.50051e-07 2.71287e-05 5.35847e-07
-1.12277e-06 5.35847e-07 -1.2291e-05
0.00104172 -4.46208e-06 -9.07083e-07
-4.46208e-06 4.82445e-06 4.71701e-07
-9.07083e-07 4.71701e-07 -4.39389e-05
0.00103619 4.76427e-06 -1.44124e-06
4.76427e-06 2.65056e-06 1.32447e-06
-1.44124e-06 1.32447e-06 -1.96185e-05
0.000941125 1.67397e-06 -7.45141e-07
1.67397e-06 -4.18624e-05 4.00716e-07
-7.45141e-07 4.00716e-07 -8.15452e-05
0.00113645 9.01466e-06 3.63748e-09
9.01466e-06 6.63256e-05 -2.74843e-07
3.63748e-09 -2.74843e-07 4.8246e-06
0.00127487 7.92014e-06 -6.50292e-08
7.92014e-06 9.74212e-05 3.35855e-08
-6.50292e-08 3.35855e-08 3.5186e-05
0.00112041 9.85434e-06 -2.3561e-07
9.85434e-06 3.31384e-05 -1.75633e-07
-2.3561e-07 -1.75633e-07 -3.09084e-05
0.00121282 4.9502e-06 -5.13952e-08
4.9502e-06 5.86902e-05 -5.91924e-08
-5.13952e-08 -5.91924e-08 -2.46924e-06
0.00107725 -4.19767e-08 -1.5221e-09
-4.19767e-08 2.71649e-05 4.95536e-09
-1.5221e-09 4.95536e-09 -1.35656e-05
0.00107272 -6.20322e-06 1.62544e-07
-6.20322e-06 2.12553e-05 -2.05525e-07
1.62544e-07 -2.05525e-07 -2.99057e-05
0.00118899 -9.58159e-06 -3.79437e-08
-9.58159e-06 6.69755e-05 4.45763e-08
-3.79437e-08 4.45763e-08 9.59109e-06
0.00123484 -2.8386e-06 4.03203e-09
-2.8386e-06 7.21932e-05 -2.96183e-08
4.03203e-09 -2.96183e-08 1.51789e-05
0.00120029 7.75293e-07 7.71592e-08
7.75293e-07 5.06348e-05 1.79805e-07
7.71592e-08 1.79805e-07 -7.79128e-06
0.00122423 -9.88852e-06 -1.65329e-08
-9.88852e-06 6.99775e-05 2.08581e-07
-1.65329e-08 2.08581e-07 1.31979e-05
0.00119688 -4.46942e-06 -2.90189e-08
-4.46942e-06 4.93526e-05 6.13821e-08
-2.90189e-08 6.13821e-08 -4.77061e-06
0.0011934 -7.62744e-06 2.68179e-07
-7.62744e-06 4.50813e-05 -3.94883e-07
2.68179e-07 -3.94883e-07 -6.18479e-06
0.0011186 -5.07726e-06 3.6843e-08
-5.07726e-06 4.14958e-05 6.42538e-09
3.6843e-08 6.42538e-09 -6.7721e-06
0.00116464 -8.17867e-06 -1.49227e-07
-8.17867e-06 6.11452e-05 1.72686e-07
-1.49227e-07 1.72686e-07 8.12674e-06
0.00116407 -4.25942e-06 -4.57602e-08
-4.25942e-06 6.58345e-05 1.51414e-07
-4.57602e-08 1.51414e-07 1.7211e-05
0.000918462 4.32085e-06 -6.47789e-08
4.32085e-06 -5.57835e-05 -2.88238e-08
-6.47789e-08 -2.88238e-08 -7.84626e-05
0.000933325 1.33754e-06 1.70747e-07
1.33754e-06 -4.66156e-05 -3.72775e-07
1.70747e-07 -3.72775e-07 -8.60282e-05
0.00111052 1.0447e-05 -1.23625e-07
1.0447e-05 5.03911e-05 4.77211e-07
-1.23625e-07 4.77211e-07 -1.25125e-05
0.00121845 9.49709e-06 -3.47959e-07
9.49709e-06 6.47366e-05 2.20862e-07
-3.47959e-07 2.20862e-07 1.31556e-06
0.00122112 5.6395e-06 -5.69902e-07
5.6395e-06 5.90215e-05 -3.19119e-07
-5.69902e-07 -3.19119e-07 -1.14857e-06
0.00121802 -1.67031e-07 -9.12478e-07
-1.67031e-07 5.6991e-05 -4.11326e-08
-9.12478e-07 -4.11326e-08 1.44797e-06
0.00111044 -6.04296e-06 5.1707e-07
-6.04296e-06 3.90624e-05 -1.91492e-07
5.1707e-07 -1.91492e-07 -1.01824e-05
0.00120732 -5.06311e-06 -9.54698e-07
-5.06311e-06 4.62503e-05 2.48128e-07
-9.54698e-07 2.48128e-07 -3.38561e-06
0.00105118 -8.82744e-06 3.72919e-07
-8.82744e-06 8.54718e-06 -4.01155e-07
3.72919e-07 -4.01155e-07 -4.80163e-05
0.0012117 -1.07422e-05 2.66438e-07
-1.07422e-05 7.29241e-05 3.77882e-07
2.66438e-07 3.77882e-07 1.25926e-05
0.00120737 -9.91231e-06 -2.14686e-07
-9.91231e-06 5.4554e-05 1.0214e-06
-2.14686e-07 1.0214e-06 -1.27752e-06
0.000804434 3.97695e-06 1.18164e-06
3.97695e-06 -0.000112369 -2.02698e-06
1.18164e-06 -2.02698e-06 -0.000135457
0.00116261 1.60572e-06 6.96596e-07
1.60572e-06 6.35603e-05 -6.63528e-07
6.96596e-07 -6.63528e-07 2.58178e-05
0.00115405 -3.97407e-06 4.99395e-07
-3.97407e-06 6.13905e-05 -2.89363e-07
4.99395e-07 -2.89363e-07 1.24492e-05
0.00113916 -8.2114e-06 3.24798e-07
-8.2114e-06 4.87297e-05 2.66981e-09
3.24798e-07 2.66981e-09 -4.39894e-06
0.0011849 -8.47269e-06 2.78045e-07
-8.47269e-06 7.25848e-05 1.99343e-07
2.78045e-07 1.99343e-07 1.7672e-05
0.00116131 -8.80995e-06 1.32835e-08
-8.80995e-06 5.73899e-05 3.14183e-07
1.32835e-08 3.14183e-07 1.38412e-06
0.000959237 -7.81959e-06 -1.83839e-06
-7.81959e-06 -3.88514e-05 -2.46758e-06
-1.83839e-06 -2.46758e-06 -3.49835e-05
0.00102433 -5.35268e-06 -1.37571e-06
-5.35268e-06 -1.81935e-06 -1.3635e-06
-1.37571e-06 -1.3635e-06 -2.26965e-05
0.00120704 6.47441e-07 1.96034e-07
6.47441e-07 5.04902e-05 3.55225e-07
1.96034e-07 3.55225e-07 -6.52081e-06
0.00106785 -4.62625e-06 -9.2918e-07
-4.62625e-06 2.23015e-05 -7.64429e-07
-9.2918e-07 -7.64429e-07 -1.51904e-05
0.00105244 -4.85661e-06 -1.13272e-06
-4.85661e-06 1.88002e-05 -6.25996e-07
-1.13272e-06 -6.25996e-07 -2.0276e-05
0.00102918 -1.94448e-06 -5.09856e-07
-1.94448e-06 5.30946e-06 -2.9205e-07
-5.09856e-07 -2.9205e-07 -4.35827e-05
0.00116065 9.4046e-06 -2.25275e-07
9.4046e-06 4.65061e-05 -1.68718e-07
-2.25275e-07 -1.68718e-07 -9.61439e-06
0.00120163 7.26662e-06 6.6449e-07
7.26662e-06 4.40481e-05 5.94966e-07
6.6449e-07 5.94966e-07 -1.43928e-05
0.00108007 4.32579e-06 -3.88831e-07
4.32579e-06 3.58452e-05 -2.02789e-07
-3.88831e-07 -2.02789e-07 -1.54303e-05
0.00112181 9.99931e-06 -6.94126e-07
9.99931e-06 4.6989e-05 -5.46552e-08
-6.94126e-07 -5.46552e-08 -1.17885e-05
0.00123783 1.09883e-05 -4.81306e-07
1.09883e-05 8.81169e-05 -3.7516e-07
-4.81306e-07 -3.7516e-07 3.24282e-05
0.001035 -4.71646e-06 4.20253e-08
-4.71646e-06 3.78614e-07 -1.25171e-08
4.20253e-08 -1.25171e-08 -1.98077e-05
0.00107747 -3.87274e-06 4.09332e-09
-3.87274e-06 2.40965e-05 -1.48836e-09
4.09332e-09 -1.48836e-09 -1.25538e-05
0.00107826 2.1323e-06 -3.05595e-08
2.1323e-06 3.07128e-05 -5.97983e-08
-3.05595e-08 -5.97983e-08 -1.88237e-05
0.00110617 -1.9481e-06 -2.22729e-08
-1.9481e-06 4.09226e-05 -1.18138e-09
-2.22729e-08 -1.18138e-09 -6.88834e-06
0.00112974 3.71263e-06 -1.13738e-07
3.71263e-06 5.40983e-05 -2.20781e-07
-1.13738e-07 -2.20781e-07 -7.97523e-09
0.00122486 -8.34468e-07 -2.34954e-07
-8.34468e-07 4.6474e-05 -3.58557e-07
-2.34954e-07 -3.58557e-07 -8.79993e-06
0.00117553 1.12265e-05 2.88016e-07
1.12265e-05 4.54877e-05 1.47023e-07
2.88016e-07 1.47023e-07 -1.26414e-05
0.00114416 8.62895e-06 2.8803e-08
8.62895e-06 1.38118e-05 2.38177e-07
2.8803e-08 2.38177e-07 -3.87248e-05
0.0010539 8.77719e-06 1.81518e-07
8.77719e-06 2.39571e-05 4.70219e-07
1.81518e-07 4.70219e-07 -3.52955e-05
0.00119136 1.18495e-05 4.42493e-08
1.18495e-05 6.84457e-05 -1.75819e-07
4.42493e-08 -1.75819e-07 6.29434e-06
0.00108067 -2.95745e-06 8.65595e-07
-2.95745e-06 2.31431e-05 8.3965e-07
8.65595e-07 8.3965e-07 -1.28726e-05
0.00101182 -2.87951e-07 7.16294e-07
-2.87951e-07 -7.97297e-06 6.6607e-07
7.16294e-07 6.6607e-07 -5.58613e-05
0.00111526 8.14184e-06 1.21668e-07
8.14184e-06 5.00697e-05 -5.73548e-08
1.21668e-07 -5.73548e-08 -6.57444e-06
0.00104535 3.4069e-06 2.56385e-07
3.4069e-06 1.19033e-05 8.52911e-08
2.56385e-07 8.52911e-08 -4.26282e-05
0.00115438 6.16765e-06 -3.30924e-08
6.16765e-06 6.26509e-05 -3.71023e-07
-3.30924e-08 -3.71023e-07 5.44707e-06
0.00128286 9.05896e-07 -1.27206e-06
9.05896e-07 5.95047e-05 -5.73873e-07
-1.27206e-06 -5.73873e-07 1.33773e-05
0.00127553 1.32154e-05 -1.37173e-07
1.32154e-05 9.32082e-05 -8.42269e-07
-1.37173e-07 -8.42269e-07 3.38887e-05
0.0010176 9.75194e-06 -4.0959e-07
9.75194e-06 -5.21105e-05 -4.85211e-07
-4.0959e-07 -4.85211e-07 -0.000103007
0.00128147 1.04011e-05 4.18179e-07
1.04011e-05 0.000125693 8.30503e-07
4.18179e-07 8.30503e-07 6.27447e-05
0.00104844 1.16666e-05 -1.34087e-07
1.16666e-05 1.63933e-06 -2.27139e-07
-1.34087e-07 -2.27139e-07 -6.42739e-05
0.00103574 -4.13256e-06 -1.04862e-06
-4.13256e-06 -1.6405e-06 -1.50172e-06
-1.04862e-06 -1.50172e-06 -2.12804e-05
0.00100992 -2.47287e-06 1.7786e-07
-2.47287e-06 -1.24048e-05 3.72726e-07
1.7786e-07 3.72726e-07 -4.8457e-05
0.00102081 8.59124e-07 5.23504e-07
8.59124e-07 -5.77722e-06 7.97701e-07
5.23504e-07 7.97701e-07 -5.26752e-05
0.000942061 -2.19458e-06 -5.29738e-07
-2.19458e-06 -4.65003e-05 -9.13636e-07
-5.29738e-07 -9.13636e-07 -8.25776e-05
0.00108853 -1.71224e-06 2.1282e-08
-1.71224e-06 2.30684e-05 3.10632e-09
2.1282e-08 3.10632e-09 -1.19108e-05
0.00114067 -2.03252e-07 -1.00652e-07
-2.03252e-07 5.18606e-05 -3.7626e-07
-1.00652e-07 -3.7626e-07 6.31046e-06
0.00121714 3.0066e-06 1.38756e-07
3.0066e-06 9.1935e-05 -1.70756e-08
1.38756e-07 -1.70756e-08 3.96249e-05
0.00102012 -1.16016e-06 2.76941e-07
-1.16016e-06 -6.86573e-06 8.02227e-07
2.76941e-07 8.02227e-07 -5.29704e-05
0.00108968 -1.05744e-06 4.01718e-07
-1.05744e-06 2.28047e-05 9.18378e-07
4.01718e-07 9.18378e-07 -1.24127e-05
0.00105258 -1.52392e-06 4.40663e-07
-1.52392e-06 -4.75356e-07 1.62802e-06
4.40663e-07 1.62802e-06 -2.00572e-05
0.00105159 -2.13376e-06 4.46009e-08
-2.13376e-06 1.25117e-07 -2.05038e-09
4.46009e-08 -2.05038e-09 -1.91431e-05
0.00149383 -3.8097e-06 7.37232e-07
-3.8097e-06 0.000207363 1.68817e-06
7.37232e-07 1.68817e-06 0.000215256
0.00104592 -2.84961e-06 -7.23439e-07
-2.84961e-06 -1.02641e-06 -1.58144e-06
-7.23439e-07 -1.58144e-06 -2.01288e-05
0.00151104 -4.87499e-06 -4.88898e-07
-4.87499e-06 0.000218174 -1.06037e-06
-4.88898e-07 -1.06037e-06 0.000225798
0.00121781 -5.82354e-06 2.79472e-06
-5.82354e-06 7.32876e-05 5.53116e-06
2.79472e-06 5.53116e-06 9.3497e-05
0.00153061 -5.9244e-06 -2.19875e-06
-5.9244e-06 0.000230652 -3.69256e-06
-2.19875e-06 -3.69256e-06 0.000237832
0.00116652 -7.20669e-06 1.12115e-06
-7.20669e-06 5.17728e-05 2.08208e-06
1.12115e-06 2.08208e-06 7.18215e-05
0.00217105 -9.19363e-06 -1.35134e-06
-9.19363e-06 0.000540938 -1.34279e-06
-1.35134e-06 -1.34279e-06 0.000565406
0.000968762 6.7848e-06 1.53116e-06
6.7848e-06 -3.87355e-05 -2.56259e-06
1.53116e-06 -2.56259e-06 -3.51639e-05
0.000971631 7.63498e-06 -8.5799e-08
7.63498e-06 -3.39728e-05 -1.99706e-08
-8.5799e-08 -1.99706e-08 -3.11682e-05
0.00228463 1.01684e-05 3.41214e-06
1.01684e-05 0.000598577 -3.30609e-06
3.41214e-06 -3.30609e-06 0.000621808
0.000974942 8.49098e-06 -2.23054e-06
8.49098e-06 -2.89103e-05 2.32134e-06
-2.23054e-06 2.32134e-06 -2.66816e-05
0.00226606 1.15299e-05 -9.12489e-08
1.15299e-05 0.00059441 -3.57595e-08
-9.12489e-08 -3.57595e-08 0.000616995
0.00223192 1.29017e-05 -4.18565e-06
1.29017e-05 0.000582754 3.07144e-06
-4.18565e-06 3.07144e-06 0.000604756
0.00118748 -5.29842e-06 1.47832e-07
-5.29842e-06 4.86352e-05 3.58081e-07
1.47832e-07 3.58081e-07 -8.29052e-06
0.00116145 -8.02067e-06 1.8819e-07
-8.02067e-06 5.67151e-05 -6.87517e-08
1.8819e-07 -6.87517e-08 -3.73573e-06
0.00124762 -8.67143e-06 8.74114e-07
-8.67143e-06 7.80833e-05 -3.32326e-07
8.74114e-07 -3.32326e-07 1.98596e-05
0.00122086 -1.08003e-05 -2.90583e-07
-1.08003e-05 8.80373e-05 5.46943e-07
-2.90583e-07 5.46943e-07 2.5576e-05
0.00104714 -7.95192e-06 1.5569e-07
-7.95192e-06 3.75197e-05 3.59914e-07
1.5569e-07 3.59914e-07 -2.17782e-05
0.00105183 6.53855e-07 -1.60386e-07
6.53855e-07 5.21532e-05 -1.06818e-07
-1.60386e-07 -1.06818e-07 -6.84702e-06
0.0010889 1.0318e-06 3.82131e-08
1.0318e-06 6.186e-05 2.95305e-07
3.82131e-08 2.95305e-07 1.97202e-06
0.00108977 -7.61961e-06 1.04468e-07
-7.61961e-06 5.46727e-05 1.84451e-07
1.04468e-07 1.84451e-07 -5.99905e-06
0.00114151 -9.51229e-06 1.53455e-07
-9.51229e-06 3.83516e-05 -7.99564e-08
1.53455e-07 -7.99564e-08 -2.28699e-05
0.00123964 -1.18249e-05 -5.24463e-07
-1.18249e-05 0.000100385 1.39784e-07
-5.24463e-07 1.39784e-07 3.40868e-05
0.00118872 -6.01733e-06 -1.86369e-07
-6.01733e-06 3.60522e-05 2.93602e-07
-1.86369e-07 2.93602e-07 -1.83168e-05
0.00129813 -1.00925e-05 4.39521e-07
-1.00925e-05 9.70891e-05 -3.96333e-07
4.39521e-07 -3.96333e-07 3.90086e-05
0.00105577 2.35839e-06 -3.51841e-07
2.35839e-06 5.18785e-05 3.59979e-07
-3.51841e-07 3.59979e-07 -7.16179e-06
0.00105791 -8.92463e-06 -9.44679e-08
-8.92463e-06 4.10819e-05 -7.92197e-07
-9.44679e-08 -7.92197e-07 -2.24216e-05
0.00117376 -1.19092e-05 -6.89194e-07
-1.19092e-05 5.98863e-05 4.95401e-07
-6.89194e-07 4.95401e-07 -5.3157e-06
0.0013691 -7.13839e-06 -1.26737e-06
-7.13839e-06 0.000114766 2.67562e-07
-1.26737e-06 2.67562e-07 6.47973e-05
0.00112994 8.92849e-06 -3.79183e-09
8.92849e-06 6.3858e-05 -8.57302e-07
-3.79183e-09 -8.57302e-07 2.40631e-06
0.00124692 8.22324e-06 -2.03642e-07
8.22324e-06 8.51845e-05 -1.17774e-07
-2.03642e-07 -1.17774e-07 2.29887e-05
0.0011993 1.02169e-05 -3.79055e-07
1.02169e-05 6.81337e-05 -1.29715e-07
-3.79055e-07 -1.29715e-07 3.62543e-06
0.00124258 4.66157e-06 4.62456e-07
4.66157e-06 7.29813e-05 6.23377e-08
4.62456e-07 6.23377e-08 1.1842e-05
0.00108468 -2.7387e-07 -1.08679e-06
-2.7387e-07 3.01212e-05 5.23197e-07
-1.08679e-06 5.23197e-07 -1.05606e-05
0.00112677 -5.65018e-06 -2.9984e-07
-5.65018e-06 4.72582e-05 4.9095e-08
-2.9984e-07 4.9095e-08 -3.48178e-06
0.00118756 -9.58529e-06 -2.69197e-07
-9.58529e-06 6.69281e-05 1.72289e-07
-2.69197e-07 1.72289e-07 9.37967e-06
0.00125649 -2.68086e-06 4.34431e-07
-2.68086e-06 8.26323e-05 -1.19583e-07
4.34431e-07 -1.19583e-07 2.55878e-05
0.00120362 3.28452e-07 6.77123e-07
3.28452e-07 5.22444e-05 3.9537e-07
6.77123e-07 3.9537e-07 -6.20693e-06
0.00120924 -4.24325e-06 9.12077e-07
-4.24325e-06 5.49758e-05 -1.32138e-07
9.12077e-07 -1.32138e-07 8.50635e-07
0.00123055 -9.923e-06 8.2576e-08
-9.923e-06 7.28966e-05 -6.49535e-07
8.2576e-08 -6.49535e-07 1.59411e-05
0.00117816 -7.79639e-06 7.48077e-07
-7.79639e-06 3.75276e-05 -1.28973e-06
7.48077e-07 -1.28973e-06 -1.2992e-05
0.00112611 -5.02898e-06 -5.82933e-07
-5.02898e-06 4.48135e-05 1.79609e-07
-5.82933e-07 1.79609e-07 -3.43972e-06
0.0011124 -8.03393e-06 -5.71911e-07
-8.03393e-06 3.52688e-05 1.20047e-07
-5.71911e-07 1.20047e-07 -1.80868e-05
0.00116013 -4.4791e-06 -6.86079e-07
-4.4791e-06 6.38243e-05 4.40366e-07
-6.86079e-07 4.40366e-07 1.51636e-05
0.000804183 4.21832e-06 -1.27979e-06
4.21832e-06 -0.00011101 1.3787e-06
-1.27979e-06 1.3787e-06 -0.000134358
0.000937202 2.00517e-06 -6.4224e-07
2.00517e-06 -4.47267e-05 4.50974e-07
-6.4224e-07 4.50974e-07 -8.41236e-05
0.00113937 1.05291e-05 2.46011e-07
1.05291e-05 6.02435e-05 -4.44808e-07
2.46011e-07 -4.44808e-07 -3.20519e-06
0.00123746 9.43949e-06 -1.0243e-07
9.43949e-06 7.47596e-05 1.5496e-07
-1.0243e-07 1.5496e-07 1.1543e-05
0.00122913 5.69307e-06 5.50263e-08
5.69307e-06 6.33225e-05 9.00447e-08
5.50263e-08 9.00447e-08 3.24852e-06
0.00112018 -5.45601e-06 1.27653e-08
-5.45601e-06 4.33588e-05 2.76124e-09
1.27653e-08 2.76124e-09 -5.87076e-06
0.00114585 -9.0983e-06 1.42868e-07
-9.0983e-06 5.34822e-05 -1.91927e-07
1.42868e-07 -1.91927e-07 -2.56456e-06
0.00120424 -1.07304e-05 -3.16988e-08
-1.07304e-05 7.03933e-05 8.31263e-08
-3.16988e-08 8.31263e-08 9.80235e-06
0.00122635 -8.60931e-08 -3.45107e-08
-8.60931e-08 6.09413e-05 -2.43423e-08
-3.45107e-08 -2.43423e-08 5.09943e-06
0.0012043 -9.61743e-06 -1.04863e-08
-9.61743e-06 5.33807e-05 -3.84146e-07
-1.04863e-08 -3.84146e-07 -1.75748e-06
0.00121445 -5.75621e-06 -1.92256e-08
-5.75621e-06 5.04195e-05 -2.10127e-08
-1.92256e-08 -2.10127e-08 6.79398e-07
0.000801475 4.03683e-06 1.60925e-07
4.03683e-06 -0.000113662 -5.30591e-07
1.60925e-07 -5.30591e-07 -0.000136693
0.00114612 -8.25608e-06 1.73226e-08
-8.25608e-06 5.20156e-05 3.75829e-08
1.73226e-08 3.75829e-08 -1.16399e-06
0.00114948 -8.75081e-06 -3.47468e-07
-8.75081e-06 5.09703e-05 2.81122e-07
-3.47468e-07 2.81122e-07 -4.79945e-06
0.00120131 -8.47384e-06 -1.88988e-07
-8.47384e-06 8.07861e-05 1.98023e-07
-1.88988e-07 1.98023e-07 2.61739e-05
0.00121043 -4.16945e-06 -7.01766e-08
-4.16945e-06 8.85764e-05 1.20441e-07
-7.01766e-08 1.20441e-07 3.98666e-05
0.00104915 1.82004e-06 -4.65347e-08
1.82004e-06 8.5476e-06 1.51913e-07
-4.65347e-08 1.51913e-07 -2.9859e-05
0.00122608 1.15509e-05 -6.16573e-07
1.15509e-05 9.285e-05 1.38416e-06
-6.16573e-07 1.38416e-06 2.95441e-05
0.00124899 9.86543e-06 -3.24873e-07
9.86543e-06 7.91583e-05 7.81308e-08
-3.24873e-07 7.81308e-08 1.55277e-05
0.00124426 5.32906e-06 -9.36797e-07
5.32906e-06 6.57746e-05 -4.93882e-07
-9.36797e-07 -4.93882e-07 8.68674e-06
0.00121809 -1.72503e-06 -1.03929e-06
-1.72503e-06 4.69433e-05 -3.50438e-08
-1.03929e-06 -3.50438e-08 -3.66652e-06
0.00113793 -8.63691e-06 2.56829e-07
-8.63691e-06 4.95842e-05 -1.40221e-07
2.56829e-07 -1.40221e-07 -4.88428e-06
0.00122282 -8.78866e-06 -5.53955e-07
-8.78866e-06 4.79897e-05 7.43728e-07
-5.53955e-07 7.43728e-07 -2.22213e-06
0.00109843 -1.0204e-05 1.40672e-07
-1.0204e-05 2.87506e-05 -1.68198e-07
1.40672e-07 -1.68198e-07 -3.25193e-05
0.00124244 -1.14028e-05 3.19178e-08
-1.14028e-05 8.26426e-05 7.91081e-07
3.19178e-08 7.91081e-07 2.07936e-05
0.000798365 3.48503e-06 9.37207e-07
3.48503e-06 -0.000117657 -2.04729e-06
9.37207e-07 -2.04729e-06 -0.00013968
0.0011676 2.62076e-06 5.96375e-07
2.62076e-06 6.56438e-05 -7.35755e-07
5.96375e-07 -7.35755e-07 2.76213e-05
0.00126214 -2.80883e-06 1.39751e-07
-2.80883e-06 0.000113644 2.05052e-07
1.39751e-07 2.05052e-07 6.5607e-05
0.00113065 -8.14914e-06 4.03896e-07
-8.14914e-06 4.93705e-05 -3.61467e-07
4.03896e-07 -3.61467e-07 -7.14593e-06
0.0011097 -9.07715e-06 7.5766e-08
-9.07715e-06 3.32929e-05 9.40408e-08
7.5766e-08 9.40408e-08 -2.40842e-05
0.00115812 -9.2762e-06 2.64786e-07
-9.2762e-06 5.55578e-05 1.70889e-07
2.64786e-07 1.70889e-07 -3.13231e-06
0.00103106 -4.70826e-06 -1.23185e-06
-4.70826e-06 -1.50041e-06 -1.43784e-06
-1.23185e-06 -1.43784e-06 -2.16732e-05
0.00107698 -3.78506e-06 -9.04671e-07
-3.78506e-06 2.37825e-05 -8.06555e-07
-9.04671e-07 -8.06555e-07 -1.28674e-05
0.00123239 -2.79209e-07 5.93396e-07
-2.79209e-07 5.14798e-05 4.89313e-07
5.93396e-07 4.89313e-07 -4.01933e-06
0.00110754 -1.5839e-06 -6.00807e-07
-1.5839e-06 4.18102e-05 -3.73964e-07
-6.00807e-07 -3.73964e-07 -6.07349e-06
0.00109832 2.20193e-06 -5.49287e-07
2.20193e-06 4.09491e-05 -3.30086e-07
-5.49287e-07 -3.30086e-07 -8.25847e-06
0.00107897 3.72068e-06 -4.25989e-07
3.72068e-06 2.97577e-05 -2.78978e-07
-4.25989e-07 -2.78978e-07 -2.48689e-05
0.00116892 1.12196e-05 1.57812e-07
1.12196e-05 4.17879e-05 -7.70223e-08
1.57812e-07 -7.70223e-08 -1.64855e-05
0.00116566 8.27434e-06 8.80275e-07
8.27434e-06 2.30228e-05 8.09415e-07
8.80275e-07 8.09415e-07 -2.89861e-05
0.00100218 8.64687e-06 -1.41971e-07
8.64687e-06 -5.09285e-08 1.61556e-08
-1.41971e-07 1.61556e-08 -5.96227e-05
0.00118664 1.18336e-05 -1.81243e-07
1.18336e-05 6.60663e-05 1.69567e-07
-1.81243e-07 1.69567e-07 3.43517e-06
0.0010809 -2.88617e-06 3.42504e-08
-2.88617e-06 2.3212e-05 -1.31826e-08
3.42504e-08 -1.31826e-08 -1.27968e-05
0.00106492 5.16333e-07 1.75999e-07
5.16333e-07 1.79751e-05 2.59793e-07
1.75999e-07 2.59793e-07 -2.96484e-05
0.00115743 8.27232e-06 -3.6346e-08
8.27232e-06 7.07643e-05 -3.2511e-07
-3.6346e-08 -3.2511e-07 1.47192e-05
0.00109034 2.79027e-06 -1.39252e-07
2.79027e-06 3.39204e-05 1.76572e-08
-1.39252e-07 1.76572e-08 -2.0375e-05
0.00113157 6.21522e-06 -2.76088e-07
6.21522e-06 5.29492e-05 -3.61929e-07
-2.76088e-07 -3.61929e-07 -4.33658e-06
0.00130896 4.89319e-07 -2.58204e-07
4.89319e-07 7.22307e-05 -2.26612e-07
-2.58204e-07 -2.26612e-07 2.62738e-05
0.0012766 1.31629e-05 1.63355e-07
1.31629e-05 9.1845e-05 -2.58963e-08
1.63355e-07 -2.58963e-08 3.27275e-05
0.00110154 9.83722e-06 -1.11451e-07
9.83722e-06 -8.52303e-06 5.3963e-07
-1.11451e-07 5.3963e-07 -5.82297e-05
0.00119835 1.01268e-05 2.25401e-07
1.01268e-05 8.73641e-05 4.00779e-07
2.25401e-07 4.00779e-07 2.40913e-05
0.00110207 1.19433e-05 -3.20233e-07
1.19433e-05 2.57076e-05 -6.18122e-08
-3.20233e-07 -6.18122e-08 -4.14662e-05
0.00102563 2.33684e-06 6.88645e-07
2.33684e-06 -3.31459e-06 7.7789e-07
6.88645e-07 7.7789e-07 -5.07831e-05
0.00104868 6.82361e-06 3.33967e-07
6.82361e-06 1.18564e-05 -4.32887e-08
3.33967e-07 -4.32887e-08 -4.35391e-05
0.00114448 8.67089e-06 1.88956e-09
8.67089e-06 6.23713e-05 -3.32882e-08
1.88956e-09 -3.32882e-08 1.62879e-06
0.00103256 7.01938e-06 2.86763e-07
7.01938e-06 4.4284e-06 1.16529e-09
2.86763e-07 1.16529e-09 -5.44617e-05
0.00145821 -5.01636e-06 -1.18928e-06
-5.01636e-06 0.000146396 2.07462e-07
-1.18928e-06 2.07462e-07 9.96726e-05
0.00132221 6.8643e-06 -1.98752e-07
6.8643e-06 6.91872e-05 -3.85123e-07
-1.98752e-07 -3.85123e-07 2.64849e-05
0.00119853 1.28583e-05 -4.68083e-09
1.28583e-05 5.50955e-05 -1.2401e-06
-4.68083e-09 -1.2401e-06 -7.44687e-06
0.00102854 1.05217e-05 -9.74134e-08
1.05217e-05 3.66131e-06 3.33978e-07
-9.74134e-08 3.33978e-07 -6.46918e-05
0.00107987 -2.53464e-06 -5.27406e-07
-2.53464e-06 2.16035e-05 -5.13675e-07
-5.27406e-07 -5.13675e-07 -1.39993e-05
0.00109135 6.00541e-07 1.21845e-07
6.00541e-07 2.85341e-05 2.83758e-07
1.21845e-07 2.83758e-07 -1.7947e-05
0.00116329 5.22686e-06 2.29331e-07
5.22686e-06 6.62862e-05 1.57747e-07
2.29331e-07 1.57747e-07 1.29049e-05
0.00108736 -1.70403e-06 -4.51385e-07
-1.70403e-06 2.25392e-05 -9.04154e-07
-4.51385e-07 -9.04154e-07 -1.24293e-05
0.00102315 -8.50323e-07 -4.08772e-07
-8.50323e-07 -5.18209e-06 -9.14369e-07
-4.08772e-07 -9.14369e-07 -5.15088e-05
0.00108982 -1.04655e-06 2.40848e-08
-1.04655e-06 2.29133e-05 2.09653e-09
2.40848e-08 2.09653e-09 -1.23036e-05
0.00114632 2.82016e-06 -4.41926e-08
2.82016e-06 5.73948e-05 -2.82949e-07
-4.41926e-08 -2.82949e-07 4.52599e-06
0.00106694 -4.09181e-07 7.32005e-08
-4.09181e-07 1.57479e-05 2.83048e-07
7.32005e-08 2.83048e-07 -3.00255e-05
0.00119268 6.21343e-06 9.41083e-08
6.21343e-06 8.01231e-05 -1.39273e-07
9.41083e-08 -1.39273e-07 2.28516e-05
0.00105526 -1.6657e-06 1.33491e-07
-1.6657e-06 1.29337e-05 5.48398e-07
1.33491e-07 5.48398e-07 -4.02198e-05
0.00102584 2.21842e-06 2.89835e-07
2.21842e-06 -4.7137e-06 7.48804e-07
2.89835e-07 7.48804e-07 -5.08574e-05
0.0010878 -9.23251e-07 2.97449e-07
-9.23251e-07 2.15694e-05 9.06146e-07
2.97449e-07 9.06146e-07 -1.41965e-05
0.00105304 -9.16744e-07 2.21423e-07
-9.16744e-07 -9.0858e-07 1.63599e-06
2.21423e-07 1.63599e-06 -2.08277e-05
0.00105365 -1.53023e-06 5.62611e-08
-1.53023e-06 8.22079e-08 1.72078e-10
5.62611e-08 1.72078e-10 -1.95221e-05
0.00150074 -2.65684e-06 5.0606e-07
-2.65684e-06 0.000208771 1.71449e-06
5.0606e-07 1.71449e-06 0.000216659
0.00105061 -2.13869e-06 -5.45957e-07
-2.13869e-06 -2.98999e-07 -1.61058e-06
-5.45957e-07 -1.61058e-06 -1.95748e-05
0.00151708 -3.73035e-06 -3.80035e-07
-3.73035e-06 0.000218663 -1.0747e-06
-3.80035e-07 -1.0747e-06 0.000226391
0.0012246 -4.47959e-06 2.18283e-06
-4.47959e-06 7.34716e-05 5.62408e-06
2.18283e-06 5.62408e-06 9.3956e-05
0.00153495 -4.80937e-06 -1.79022e-06
-4.80937e-06 0.000229813 -3.77023e-06
-1.79022e-06 -3.77023e-06 0.00023728
0.00117281 -5.875e-06 9.09047e-07
-5.875e-06 5.13183e-05 2.11369e-06
9.09047e-07 2.11369e-06 7.17956e-05
0.00112211 -7.24248e-06 -9.32969e-07
-7.24248e-06 2.99193e-05 -1.25435e-06
-9.32969e-07 -1.25435e-06 5.02446e-05
0.0009769 5.75073e-06 1.31129e-06
5.75073e-06 -3.84216e-05 -2.60944e-06
1.31129e-06 -2.60944e-06 -3.40254e-05
0.000980552 6.76428e-06 -7.45647e-08
6.76428e-06 -3.31443e-05 -4.03312e-09
-7.45647e-08 -4.03312e-09 -2.96271e-05
0.00226261 8.82208e-06 2.99071e-06
8.82208e-06 0.000583748 -3.36161e-06
2.99071e-06 -3.36161e-06 0.00060778
0.000982681 7.61877e-06 -1.99339e-06
7.61877e-06 -2.8729e-05 2.42539e-06
-1.99339e-06 2.42539e-06 -2.59647e-05
0.00225753 1.01911e-05 -1.12109e-07
1.01911e-05 0.000585986 -3.29065e-08
-1.12109e-07 -3.29065e-08 0.000609264
0.00223067 1.15598e-05 -3.91259e-06
1.15598e-05 0.000577764 3.17915e-06
-3.91259e-06 3.17915e-06 0.000600453
0.00119754 -6.03828e-06 8.27117e-07
-6.03828e-06 4.0943e-05 6.59293e-07
8.27117e-07 6.59293e-07 -1.33527e-05
0.00112315 -9.48495e-06 2.43726e-07
-9.48495e-06 2.98913e-05 -5.23004e-08
2.43726e-07 -5.23004e-08 -3.11483e-05
0.00123364 -9.77189e-06 1.51194e-06
-9.77189e-06 6.56383e-05 -1.37629e-06
1.51194e-06 -1.37629e-06 7.18373e-06
0.00118223 -1.1754e-05 -9.69159e-07
-1.1754e-05 7.34483e-05 4.06569e-07
-9.69159e-07 4.06569e-07 5.78101e-06
0.00111155 -7.74045e-06 -1.90876e-07
-7.74045e-06 6.26745e-05 8.51536e-07
-1.90876e-07 8.51536e-07 2.22271e-06
0.00106404 9.86951e-07 2.38644e-07
9.86951e-07 5.12645e-05 -9.96403e-08
2.38644e-07 -9.96403e-08 -8.52376e-06
0.00108593 2.55316e-06 2.32946e-07
2.55316e-06 6.14711e-05 -3.89967e-08
2.32946e-07 -3.89967e-08 1.76046e-06
0.00111378 -9.1818e-06 -4.1842e-07
-9.1818e-06 6.43661e-05 5.96385e-07
-4.1842e-07 5.96385e-07 9.96818e-07
0.0011159 -1.15839e-05 1.18255e-07
-1.15839e-05 3.44336e-05 1.34862e-07
1.18255e-07 1.34862e-07 -2.9953e-05
0.00125683 -7.19656e-06 2.9158e-07
-7.19656e-06 6.17181e-05 7.47739e-08
2.9158e-07 7.47739e-08 1.1273e-05
0.0010576 2.26319e-06 -2.04332e-07
2.26319e-06 4.38629e-05 -4.78266e-07
-2.04332e-07 -4.78266e-07 -1.66729e-05
0.00100722 -1.24544e-05 -4.59534e-07
-1.24544e-05 2.02599e-05 -3.21956e-07
-4.59534e-07 -3.21956e-07 -4.59382e-05
0.00123487 -1.03069e-05 -1.45402e-06
-1.03069e-05 7.17342e-05 8.7711e-07
-1.45402e-06 8.7711e-07 1.48037e-05
0.00116799 1.06151e-05 2.48574e-07
1.06151e-05 6.99731e-05 -1.44258e-06
2.48574e-07 -1.44258e-06 5.98103e-06
0.00125967 9.39499e-06 2.27494e-07
9.39499e-06 8.62513e-05 -8.55019e-09
2.27494e-07 -8.55019e-09 2.32381e-05
0.00123838 5.82538e-06 6.68228e-07
5.82538e-06 6.82106e-05 2.91099e-07
6.68228e-07 2.91099e-07 8.2304e-06
0.00112927 -4.76269e-06 -5.02562e-07
-4.76269e-06 4.73488e-05 2.26034e-07
-5.02562e-07 2.26034e-07 -1.86357e-06
0.00124039 -9.36817e-06 -1.02943e-07
-9.36817e-06 9.83483e-05 9.35776e-09
-1.02943e-07 9.35776e-09 4.28192e-05
0.00119687 -1.07193e-05 -1.8846e-07
-1.07193e-05 6.79308e-05 -2.01074e-08
-1.8846e-07 -2.01074e-08 7.07674e-06
0.00123769 -5.04387e-09 7.89324e-07
-5.04387e-09 6.62856e-05 1.68145e-08
7.89324e-07 1.68145e-08 1.01431e-05
0.0012169 -6.43581e-06 1.08619e-06
-6.43581e-06 5.23823e-05 -3.09288e-07
1.08619e-06 -3.09288e-07 2.54706e-06
0.00120918 -9.36388e-06 2.32167e-08
-9.36388e-06 5.60479e-05 -1.57681e-06
2.32167e-08 -1.57681e-06 1.57678e-06
0.00115339 -8.30138e-06 -2.88017e-07
-8.30138e-06 5.54539e-05 7.49144e-08
-2.88017e-07 7.49144e-08 2.22299e-06
0.00113679 -8.68538e-06 -6.96979e-07
-8.68538e-06 4.41687e-05 2.86741e-07
-6.96979e-07 2.86741e-07 -1.13659e-05
0.00121709 -8.4729e-06 -6.48366e-07
-8.4729e-06 8.86838e-05 1.86403e-07
-6.48366e-07 1.86403e-07 3.43738e-05
0.000798859 4.10144e-06 -8.25673e-07
4.10144e-06 -0.000114807 9.7148e-07
-8.25673e-07 9.7148e-07 -0.000137779
0.00126686 -4.55186e-06 -5.54765e-07
-4.55186e-06 0.000115819 5.73699e-07
-5.54765e-07 5.73699e-07 6.73379e-05
0.00093589 8.44097e-07 -8.25282e-07
8.44097e-07 -4.63517e-05 9.34958e-07
-8.25282e-07 9.34958e-07 -8.5422e-05
0.00118612 1.13713e-05 -9.15629e-08
1.13713e-05 7.81494e-05 4.4035e-07
-9.15629e-08 4.4035e-07 1.55857e-05
0.00122583 9.72877e-06 -6.6651e-09
9.72877e-06 6.5889e-05 1.96591e-07
-6.6651e-09 1.96591e-07 2.32415e-06
0.00123001 5.79712e-06 -7.28407e-08
5.79712e-06 5.98062e-05 -7.93319e-08
-7.28407e-08 -7.93319e-08 2.21681e-06
0.00114514 -8.68029e-06 1.33018e-09
-8.68029e-06 5.28753e-05 1.93126e-08
1.33018e-09 1.93126e-08 -1.61615e-06
0.00112874 -1.02505e-05 -5.11136e-09
-1.02505e-05 4.37499e-05 1.95199e-08
-5.11136e-09 1.95199e-08 -1.71594e-05
0.00122143 -1.11122e-05 -2.09912e-07
-1.11122e-05 7.33234e-05 1.72255e-07
-2.09912e-07 1.72255e-07 1.20194e-05
0.00124987 -2.02451e-06 1.76389e-07
-2.02451e-06 6.24039e-05 1.23017e-07
1.76389e-07 1.23017e-07 1.22803e-05
0.00121642 -8.80241e-06 -1.95265e-07
-8.80241e-06 4.56203e-05 -3.81796e-07
-1.95265e-07 -3.81796e-07 -4.8475e-06
0.000923458 3.55645e-06 1.46666e-07
3.55645e-06 -5.74083e-05 -5.17842e-07
1.46666e-07 -5.17842e-07 -7.86912e-05
0.0011639 2.43069e-06 -7.14046e-08
2.43069e-06 6.42151e-05 1.35001e-07
-7.14046e-08 1.35001e-07 2.61388e-05
0.00111281 -9.05172e-06 -1.36468e-07
-9.05172e-06 3.49171e-05 1.75188e-07
-1.36468e-07 1.75188e-07 -2.23047e-05
0.00116854 -9.33378e-06 -6.58507e-08
-9.33378e-06 6.05736e-05 3.77574e-08
-6.58507e-08 3.77574e-08 1.95651e-06
0.00114193 -8.12172e-06 1.04779e-07
-8.12172e-06 5.50752e-05 -1.76172e-07
1.04779e-07 -1.76172e-07 -1.1794e-06
0.00121599 -4.2847e-06 -3.23947e-07
-4.2847e-06 9.08671e-05 5.9933e-07
-3.23947e-07 5.9933e-07 4.2493e-05
0.00116088 1.18178e-05 2.53403e-07
1.18178e-05 6.66295e-05 1.19428e-06
2.53403e-07 1.19428e-06 5.40271e-06
0.00127813 9.66555e-06 -3.31612e-07
9.66555e-06 8.82467e-05 -5.55708e-07
-3.31612e-07 -5.55708e-07 2.44619e-05
0.00121958 2.02176e-06 -1.55994e-06
2.02176e-06 4.59552e-05 -4.33633e-07
-1.55994e-06 -4.33633e-07 -3.86819e-06
0.00129011 -6.45072e-06 -1.01694e-06
-6.45072e-06 7.00775e-05 3.11079e-07
-1.01694e-06 3.11079e-07 2.45942e-05
0.00109903 -9.6464e-06 -1.77726e-08
-9.6464e-06 3.07674e-05 1.47056e-08
-1.77726e-08 1.47056e-08 -2.87065e-05
0.00124856 -1.11072e-05 7.3386e-09
-1.11072e-05 7.3454e-05 1.57029e-06
7.3386e-09 1.57029e-06 1.53976e-05
0.00124713 -1.15894e-05 -3.69985e-09
-1.15894e-05 9.69044e-05 -3.41406e-08
-3.69985e-09 -3.41406e-08 3.29331e-05
0.00104484 2.65488e-06 7.75462e-07
2.65488e-06 -1.39786e-06 -1.54875e-06
7.75462e-07 -1.54875e-06 -2.1211e-05
0.00109171 1.19813e-06 1.96168e-07
1.19813e-06 2.42922e-05 -9.87332e-07
1.96168e-07 -9.87332e-07 -1.15778e-05
0.000908382 3.47119e-06 4.14464e-07
3.47119e-06 -5.98031e-05 -1.31114e-06
4.14464e-07 -1.31114e-06 -9.81209e-05
0.00118252 -9.26064e-07 1.96698e-07
-9.26064e-07 7.55915e-05 -5.09739e-08
1.96698e-07 -5.09739e-08 2.60107e-05
0.00113588 -7.94824e-06 4.96053e-07
-7.94824e-06 5.2651e-05 -3.82646e-07
4.96053e-07 -3.82646e-07 -3.74144e-06
0.00117872 -9.06754e-06 3.30572e-07
-9.06754e-06 6.99474e-05 1.16958e-07
3.30572e-07 1.16958e-07 9.34558e-06
0.00114197 -9.89112e-06 2.2608e-07
-9.89112e-06 5.02984e-05 -9.55691e-08
2.2608e-07 -9.55691e-08 -9.38929e-06
0.00125329 -1.02292e-05 -1.02334e-07
-1.02292e-05 0.000103612 4.30525e-07
-1.02334e-07 4.30525e-07 4.17244e-05
0.00108114 -2.81914e-06 -7.98969e-07
-2.81914e-06 2.32851e-05 -8.55066e-07
-7.98969e-07 -8.55066e-07 -1.2716e-05
0.00111644 2.01061e-06 -4.17566e-07
2.01061e-06 4.31794e-05 -1.75461e-07
-4.17566e-07 -1.75461e-07 -4.17444e-06
0.00133829 5.59176e-08 8.99781e-07
5.59176e-08 8.64829e-05 2.43013e-07
8.99781e-07 2.43013e-07 4.06893e-05
0.00113694 3.06478e-06 -4.75221e-07
3.06478e-06 5.66348e-05 -2.63076e-08
-4.75221e-07 -2.63076e-08 2.57333e-06
0.00119968 8.39735e-06 -3.9162e-07
8.39735e-06 9.146e-05 -6.97146e-07
-3.9162e-07 -6.97146e-07 3.60178e-05
0.0011021 5.97986e-06 -3.91768e-07
5.97986e-06 4.0154e-05 -3.7223e-07
-3.91768e-07 -3.7223e-07 -1.72055e-05
0.0012753 1.31055e-05 5.59358e-07
1.31055e-05 8.93237e-05 5.32589e-07
5.59358e-07 5.32589e-07 3.04149e-05
0.00118453 9.91495e-06 4.28093e-07
9.91495e-06 3.46098e-05 1.67288e-06
4.28093e-07 1.67288e-06 -1.39088e-05
0.00111445 9.84321e-06 1.37397e-07
9.84321e-06 4.86279e-05 1.92922e-07
1.37397e-07 1.92922e-07 -1.49651e-05
0.00114867 1.21902e-05 -4.25742e-07
1.21902e-05 4.6381e-05 8.93447e-08
-4.25742e-07 8.93447e-08 -2.20346e-05
0.00101964 2.10794e-06 1.70914e-07
2.10794e-06 -5.92026e-06 2.76489e-07
1.70914e-07 2.76489e-07 -5.34602e-05
0.00110364 6.79144e-06 -1.39031e-07
6.79144e-06 3.83102e-05 -2.77523e-07
-1.39031e-07 -2.77523e-07 -1.66391e-05
0.00116942 8.75683e-06 -8.66489e-08
8.75683e-06 7.48895e-05 -3.04142e-07
-8.66489e-08 -3.04142e-07 1.45388e-05
0.00111728 6.7406e-06 2.68971e-08
6.7406e-06 4.45778e-05 -2.10926e-08
2.68971e-08 -2.10926e-08 -1.40888e-05
0.00134275 -4.91889e-06 2.05459e-07
-4.91889e-06 9.08325e-05 -4.34704e-07
2.05459e-07 -4.34704e-07 4.38567e-05
0.00123087 6.57565e-06 3.27321e-07
6.57565e-06 3.10556e-05 -7.78303e-08
3.27321e-07 -7.78303e-08 -1.25727e-05
0.00131974 1.3176e-05 -3.36605e-07
1.3176e-05 0.00011107 -6.30525e-08
-3.36605e-07 -6.30525e-08 4.91543e-05
0.00108551 1.08974e-05 1.43455e-07
1.08974e-05 2.88025e-05 1.74988e-07
1.43455e-07 1.74988e-07 -3.9768e-05
0.00116761 6.69147e-06 1.42783e-07
6.69147e-06 6.89473e-05 -5.23358e-08
1.42783e-07 -5.23358e-08 1.46522e-05
0.00115325 -1.19162e-05 -2.62906e-06
-1.19162e-05 4.54751e-05 -4.37662e-07
-2.62906e-06 -4.37662e-07 -8.79516e-06
0.00123458 8.42017e-06 3.52841e-07
8.42017e-06 0.000101429 2.13591e-07
3.52841e-07 2.13591e-07 4.14554e-05
0.00117622 9.73336e-06 6.32658e-08
9.73336e-06 7.30402e-05 1.366e-07
6.32658e-08 1.366e-07 9.28733e-06
0.00163005 2.36294e-06 -3.43715e-07
2.36294e-06 0.000201394 -7.27026e-07
-3.43715e-07 -7.27026e-07 0.000165292
0.00110924 1.21852e-05 1.02678e-06
1.21852e-05 -1.17207e-05 -1.64663e-06
1.02678e-06 -1.64663e-06 -6.9662e-05
0.00122601 1.23726e-05 -1.72004e-07
1.23726e-05 9.09396e-05 2.38987e-07
-1.72004e-07 2.38987e-07 2.06852e-05
0.00116211 2.11943e-07 -2.99066e-07
2.11943e-07 6.29501e-05 -2.28816e-07
-2.99066e-07 -2.28816e-07 1.6886e-05
0.00115784 4.99005e-06 -2.95321e-08
4.99005e-06 6.39506e-05 -7.36373e-08
-2.95321e-08 -7.36373e-08 1.05484e-05
0.0011644 7.10765e-06 1.28764e-07
7.10765e-06 6.86452e-05 -3.30182e-08
1.28764e-07 -3.30182e-08 1.04734e-05
0.00108998 -1.03397e-06 -3.53985e-07
-1.03397e-06 2.30362e-05 -8.9171e-07
-3.53985e-07 -8.9171e-07 -1.21805e-05
0.0011135 3.02658e-07 -1.73232e-07
3.02658e-07 3.82488e-05 -2.37693e-07
-1.73232e-07 -2.37693e-07 -7.19271e-06
0.00107497 2.58934e-06 -2.38141e-07
2.58934e-06 2.26101e-05 -5.98368e-07
-2.38141e-07 -5.98368e-07 -3.08163e-05
0.00109094 -9.40802e-07 3.72959e-08
-9.40802e-07 2.31387e-05 -3.13781e-10
3.72959e-08 -3.13781e-10 -1.26553e-05
0.00102312 6.53906e-07 4.75218e-08
6.53906e-07 -5.93623e-06 2.8222e-07
4.75218e-08 2.8222e-07 -5.20298e-05
0.00114845 5.52653e-06 -5.32358e-08
5.52653e-06 5.88311e-05 -2.36476e-07
-5.32358e-08 -2.36476e-07 1.16899e-06
0.0011415 5.08563e-07 5.14857e-08
5.08563e-07 5.4655e-05 2.51899e-07
5.14857e-08 2.51899e-07 2.05759e-06
0.00117316 7.20551e-06 -6.85423e-09
7.20551e-06 6.98214e-05 -3.54607e-07
-6.85423e-09 -3.54607e-07 9.80656e-06
0.00110755 1.39826e-06 1.3341e-07
1.39826e-06 3.72952e-05 1.45492e-07
1.3341e-07 1.45492e-07 -2.07625e-05
0.0011557 4.98632e-06 1.73475e-07
4.98632e-06 6.04262e-05 2.76597e-07
1.73475e-07 2.76597e-07 8.14236e-06
0.00111262 -1.95351e-07 1.93581e-07
-1.95351e-07 3.75912e-05 4.70136e-07
1.93581e-07 4.70136e-07 -8.62223e-06
0.00108697 -9.6945e-07 1.62089e-07
-9.6945e-07 2.11835e-05 8.99187e-07
1.62089e-07 8.99187e-07 -1.52954e-05
0.00105488 -9.7157e-08 3.18983e-08
-9.7157e-08 -2.56503e-07 1.63679e-06
3.18983e-08 1.63679e-06 -2.04823e-05
0.00105545 -9.22467e-07 4.77742e-08
-9.22467e-07 2.87645e-07 2.34494e-09
4.77742e-08 2.34494e-09 -1.96606e-05
0.00150326 -1.43916e-06 2.55091e-07
-1.43916e-06 0.000208561 1.72301e-06
2.55091e-07 1.72301e-06 0.000216426
0.00105466 -1.53692e-06 -3.31199e-07
-1.53692e-06 6.10225e-07 -1.633e-06
-3.31199e-07 -1.633e-06 -1.90162e-05
0.00152286 -2.58782e-06 -2.54707e-07
-2.58782e-06 0.000219513 -1.08344e-06
-2.54707e-07 -1.08344e-06 0.000227245
0.00122939 -3.11427e-06 1.49426e-06
-3.11427e-06 7.32726e-05 5.68406e-06
1.49426e-06 5.68406e-06 9.39463e-05
0.00154015 -3.67421e-06 -1.33694e-06
-3.67421e-06 0.000229881 -3.83605e-06
-1.33694e-06 -3.83605e-06 0.000237443
0.00117905 -4.51498e-06 6.71431e-07
-4.51498e-06 5.13508e-05 2.14283e-06
6.71431e-07 2.14283e-06 7.20953e-05
0.00112832 -5.88833e-06 -7.5888e-07
-5.88833e-06 2.95694e-05 -1.2954e-06
-7.5888e-07 -1.2954e-06 5.03164e-05
0.00104838 2.17472e-06 4.49014e-07
2.17472e-06 -1.10711e-06 -1.63858e-06
4.49014e-07 -1.63858e-06 -2.03569e-05
0.000984843 4.60518e-06 1.09097e-06
4.60518e-06 -3.75894e-05 -2.6983e-06
1.09097e-06 -2.6983e-06 -3.25716e-05
0.000987464 5.73072e-06 -4.7607e-08
5.73072e-06 -3.34161e-05 -5.63913e-09
-4.7607e-08 -5.63913e-09 -2.90739e-05
0.00224879 7.39183e-06 2.60884e-06
7.39183e-06 0.000573177 -3.42637e-06
2.60884e-06 -3.42637e-06 0.000597919
0.00099238 6.74518e-06 -1.68273e-06
6.74518e-06 -2.75323e-05 2.53093e-06
-1.68273e-06 2.53093e-06 -2.40697e-05
0.00224163 8.84637e-06 -1.18351e-07
8.84637e-06 0.000574142 -2.6757e-08
-1.18351e-07 -2.6757e-08 0.000598173
0.00223043 1.02179e-05 -3.60513e-06
1.02179e-05 0.000573391 3.28084e-06
-3.60513e-06 3.28084e-06 0.000596717
0.00114406 -7.25463e-06 1.20181e-06
-7.25463e-06 8.45522e-06 -3.09504e-07
1.20181e-06 -3.09504e-07 -4.24675e-05
0.0010609 -1.12655e-05 4.38092e-07
-1.12655e-05 1.03385e-05 -5.11704e-07
4.38092e-07 -5.11704e-07 -5.32383e-05
0.00117113 -9.44609e-06 -1.20374e-07
-9.44609e-06 8.84358e-05 1.54557e-06
-1.20374e-07 1.54557e-06 2.51894e-05
0.0011133 2.84569e-06 3.44101e-07
2.84569e-06 6.98108e-05 -5.61193e-07
3.44101e-07 -5.61193e-07 9.42724e-06
0.00109324 2.14891e-06 5.46487e-08
2.14891e-06 6.23866e-05 -4.70546e-07
5.46487e-08 -4.70546e-07 2.42778e-06
0.00106109 -1.25402e-05 -4.34838e-08
-1.25402e-05 4.65004e-05 4.11496e-07
-4.34838e-08 4.11496e-07 -2.0139e-05
0.00120332 -1.02441e-05 -2.87249e-07
-1.02441e-05 5.90318e-05 2.11251e-07
-2.87249e-07 2.11251e-07 3.15693e-06
0.00108167 4.99011e-07 9.11712e-08
4.99011e-07 5.7319e-05 -1.26096e-06
9.11712e-08 -1.26096e-06 -4.73281e-06
0.000986592 -1.30963e-05 -1.98325e-06
-1.30963e-05 -1.26694e-07 6.83633e-07
-1.98325e-06 6.83633e-07 -6.40329e-05
0.00127826 -1.53909e-05 -1.4597e-06
-1.53909e-05 0.000145412 -3.55286e-07
-1.4597e-06 -3.55286e-07 9.77031e-05
0.00114512 1.11875e-05 4.51901e-07
1.11875e-05 6.29973e-05 -5.25574e-07
4.51901e-07 -5.25574e-07 1.17326e-06
0.00120537 9.59314e-06 2.59675e-07
9.59314e-06 5.39514e-05 2.38722e-08
2.59675e-07 2.38722e-08 -9.55939e-06
0.0012114 6.18101e-06 7.92969e-07
6.18101e-06 5.18679e-05 3.00705e-07
7.92969e-07 3.00705e-07 -6.22605e-06
0.00115166 -8.72142e-06 -2.44282e-07
-8.72142e-06 5.58527e-05 1.74573e-07
-2.44282e-07 1.74573e-07 1.33834e-06
0.0011577 -1.02922e-05 -7.21649e-08
-1.02922e-05 5.81044e-05 2.54407e-07
-7.21649e-08 2.54407e-07 -2.4404e-06
0.00119359 -1.07848e-05 -7.39902e-08
-1.07848e-05 6.06728e-05 -5.70076e-07
-7.39902e-08 -5.70076e-07 -6.02961e-08
0.00128791 -2.37624e-06 1.73771e-06
-2.37624e-06 8.07469e-05 1.05691e-07
1.73771e-06 1.05691e-07 3.11048e-05
0.00121423 -8.81832e-06 -1.11126e-08
-8.81832e-06 4.52588e-05 -1.31205e-06
-1.11126e-08 -1.31205e-06 -5.47758e-06
0.00111586 -9.02589e-06 -3.53631e-07
-9.02589e-06 3.65042e-05 1.9831e-07
-3.53631e-07 1.9831e-07 -2.05617e-05
0.00118014 -9.3958e-06 -3.12756e-07
-9.3958e-06 6.61315e-05 -8.3061e-08
-3.12756e-07 -8.3061e-08 7.58673e-06
0.0011538 -8.09259e-06 -2.32716e-07
-8.09259e-06 6.10331e-05 -5.19808e-08
-2.32716e-07 -5.19808e-08 5.04262e-06
0.00104757 3.63414e-06 -6.97001e-07
3.63414e-06 2.40624e-06 9.99876e-07
-6.97001e-07 9.99876e-07 -1.81382e-05
0.00115901 2.40703e-06 -6.90752e-07
2.40703e-06 6.22267e-05 1.02993e-06
-6.90752e-07 1.02993e-06 2.40994e-05
0.00116747 -4.55711e-06 -8.47068e-07
-4.55711e-06 6.69554e-05 1.00168e-06
-8.47068e-07 1.00168e-06 1.82477e-05
0.00110713 1.13847e-05 6.58673e-09
1.13847e-05 3.94867e-05 1.83953e-07
6.58673e-09 1.83953e-07 -2.25432e-05
0.00104925 2.65757e-06 4.17616e-09
2.65757e-06 6.76317e-07 -5.47658e-09
4.17616e-09 -5.47658e-09 -1.91525e-05
0.0010163 1.21507e-06 -1.47553e-07
1.21507e-06 -1.21404e-05 -3.5359e-08
-1.47553e-07 -3.5359e-08 -4.84008e-05
0.00124941 9.55521e-06 5.21359e-08
9.55521e-06 7.443e-05 4.21529e-07
5.21359e-08 4.21529e-07 1.11664e-05
0.00121612 2.06129e-06 -1.22057e-07
2.06129e-06 4.56424e-05 -1.39173e-07
-1.22057e-07 -1.39173e-07 -5.45157e-06
0.00109703 -9.57625e-06 -7.40095e-08
-9.57625e-06 3.00187e-05 2.0688e-07
-7.40095e-08 2.0688e-07 -2.91727e-05
0.00120686 -1.14424e-05 -8.22583e-08
-1.14424e-05 7.84075e-05 8.23443e-08
-8.22583e-08 8.23443e-08 1.43199e-05
0.00118936 -1.07938e-05 1.63249e-07
-1.07938e-05 4.47804e-05 7.91767e-08
1.63249e-07 7.91767e-08 -1.29588e-05
0.00128995 -6.759e-06 8.16091e-08
-6.759e-06 6.94268e-05 -2.38598e-07
8.16091e-08 -2.38598e-07 2.40236e-05
0.00111949 3.81513e-06 4.39832e-08
3.81513e-06 4.18349e-05 -3.74787e-07
4.39832e-08 -3.74787e-07 4.74436e-06
0.00117319 -1.05129e-06 -1.4626e-07
-1.05129e-06 7.14624e-05 3.75524e-07
-1.4626e-07 3.75524e-07 2.17994e-05
0.00116882 -9.97403e-06 1.50347e-07
-9.97403e-06 6.26965e-05 -9.54212e-08
1.50347e-07 -9.54212e-08 3.02662e-06
0.00119783 -1.00457e-05 -2.24952e-07
-1.00457e-05 7.65391e-05 6.71476e-08
-2.24952e-07 6.71476e-08 1.48113e-05
0.00114138 -8.98673e-06 6.42878e-08
-8.98673e-06 5.15615e-05 6.20808e-08
6.42878e-08 6.20808e-08 -9.46389e-06
0.00114066 -7.96502e-06 1.58338e-07
-7.96502e-06 5.47446e-05 -2.46564e-07
1.58338e-07 -2.46564e-07 -1.50613e-06
0.00128649 1.23967e-05 7.16514e-07
1.23967e-05 0.000123963 7.00246e-07
7.16514e-07 7.00246e-07 5.36165e-05
0.0012627 8.64736e-06 -9.00632e-07
8.64736e-06 7.60426e-05 -1.10928e-06
-9.00632e-07 -1.10928e-06 1.84938e-05
0.0012617 -3.425e-06 -2.08046e-06
-3.425e-06 4.86715e-05 2.77316e-08
-2.08046e-06 2.77316e-08 9.33231e-06
0.00127105 -1.07678e-05 -2.77294e-07
-1.07678e-05 6.66624e-05 1.21626e-06
-2.77294e-07 1.21626e-06 1.57506e-05
0.00115244 -1.06316e-05 -1.00583e-07
-1.06316e-05 5.74581e-05 -1.64586e-07
-1.00583e-07 -1.64586e-07 -4.74048e-06
0.00128469 -1.24653e-05 -2.23835e-07
-1.24653e-05 0.000109821 6.81749e-07
-2.23835e-07 6.81749e-07 4.49074e-05
0.000933781 1.29098e-06 2.75169e-07
1.29098e-06 -5.26139e-05 -1.43212e-06
2.75169e-07 -1.43212e-06 -8.85067e-05
0.00108497 1.20527e-06 5.66239e-07
1.20527e-06 2.20942e-05 -8.75108e-07
5.66239e-07 -8.75108e-07 -1.41208e-05
0.00126025 7.15524e-07 8.38506e-08
7.15524e-07 0.00010918 4.55757e-08
8.38506e-08 4.55757e-08 6.32818e-05
0.00098135 -6.08347e-10 2.89661e-07
-6.08347e-10 -1.95767e-05 -5.31279e-07
2.89661e-07 -5.31279e-07 -7.01833e-05
0.00122664 -6.08779e-06 3.89577e-07
-6.08779e-06 9.70559e-05 -4.54663e-08
3.89577e-07 -4.54663e-08 4.06993e-05
0.0010663 -8.70443e-06 1.10565e-07
-8.70443e-06 1.69613e-05 -5.40155e-08
1.10565e-07 -5.40155e-08 -4.6042e-05
0.00122516 -9.98301e-06 3.05799e-07
-9.98301e-06 9.38532e-05 2.79527e-07
3.05799e-07 2.79527e-07 2.88367e-05
0.00113211 -1.07366e-05 -1.19361e-07
-1.07366e-05 4.88075e-05 2.70752e-07
-1.19361e-07 2.70752e-07 -1.3768e-05
0.00101419 2.23312e-06 -3.4515e-07
2.23312e-06 -8.27813e-06 -2.34149e-07
-3.4515e-07 -2.34149e-07 -5.58922e-05
0.00115869 5.79364e-06 -6.86042e-07
5.79364e-06 6.47822e-05 -3.91115e-07
-6.86042e-07 -3.91115e-07 1.02857e-05
0.00122678 -4.82998e-06 8.22954e-07
-4.82998e-06 3.49037e-05 -8.60658e-07
8.22954e-07 -8.60658e-07 -1.23092e-05
0.00113441 6.29556e-06 5.18709e-07
6.29556e-06 -9.48338e-06 8.26866e-07
5.18709e-07 8.26866e-07 -5.40231e-05
0.00120349 6.73763e-06 -3.54832e-07
6.73763e-06 8.54082e-05 -4.87547e-08
-3.54832e-07 -4.87547e-08 2.69625e-05
0.00119745 8.77915e-06 -2.31807e-07
8.77915e-06 8.88558e-05 -5.28364e-07
-2.31807e-07 -5.28364e-07 2.88929e-05
0.00144343 1.34972e-05 1.04873e-07
1.34972e-05 0.000168241 7.64646e-07
1.04873e-07 7.64646e-07 0.000106948
0.00114691 1.12899e-05 7.37937e-10
1.12899e-05 5.61276e-05 -1.0226e-07
7.37937e-10 -1.0226e-07 -1.26765e-05
0.00115533 7.00399e-06 -1.70224e-07
7.00399e-06 6.31247e-05 -2.78484e-07
-1.70224e-07 -2.78484e-07 8.81718e-06
0.00102927 -1.15132e-05 -3.97512e-07
-1.15132e-05 -4.00589e-06 6.54804e-07
-3.97512e-07 6.54804e-07 -5.51143e-05
0.00117923 8.28131e-06 1.07738e-07
8.28131e-06 7.4721e-05 2.44627e-07
1.07738e-07 2.44627e-07 1.47629e-05
0.0011317 9.57429e-06 8.53823e-08
9.57429e-06 5.11241e-05 5.8576e-09
8.53823e-08 5.8576e-09 -1.29857e-05
0.00133032 1.50614e-06 3.60788e-07
1.50614e-06 6.66127e-05 -2.5384e-07
3.60788e-07 -2.5384e-07 2.94064e-05
0.00136738 1.30005e-05 3.77332e-07
1.30005e-05 0.000106615 -3.01326e-07
3.77332e-07 -3.01326e-07 4.90572e-05
0.00126681 1.26353e-05 1.64112e-07
1.26353e-05 0.000110648 3.16713e-07
1.64112e-07 3.16713e-07 3.99507e-05
0.0011921 7.67328e-06 1.09347e-07
7.67328e-06 8.27984e-05 2.64634e-08
1.09347e-07 2.64634e-08 2.30041e-05
0.00140947 -7.48728e-06 -1.05137e-06
-7.48728e-06 0.000130757 -2.41151e-06
-1.05137e-06 -2.41151e-06 9.40339e-05
0.00129566 9.53905e-06 2.11261e-08
9.53905e-06 0.000125736 -1.27126e-07
2.11261e-08 -1.27126e-07 6.24664e-05
0.00133329 1.21799e-05 -3.57578e-07
1.21799e-05 0.000144813 2.96457e-07
-3.57578e-07 2.96457e-07 7.52307e-05
0.00114367 1.25488e-05 1.70815e-06
1.25488e-05 -4.67722e-05 -1.5916e-06
1.70815e-06 -1.5916e-06 -9.62163e-05
0.00105578 1.36312e-05 2.86939e-07
1.36312e-05 2.34636e-08 -6.71365e-08
2.86939e-07 -6.71365e-08 -7.19947e-05
0.00116988 -8.75244e-06 -2.96167e-06
-8.75244e-06 -0.000242082 -3.80599e-06
-2.96167e-06 -3.80599e-06 -0.000265343
0.00115272 4.89334e-06 -2.55701e-07
4.89334e-06 6.17699e-05 -3.16036e-07
-2.55701e-07 -3.16036e-07 8.34527e-06
0.00115439 7.05398e-06 -3.51599e-08
7.05398e-06 6.43354e-05 -5.59528e-08
-3.51599e-08 -5.59528e-08 6.11437e-06
0.00120958 7.50085e-06 -1.80758e-08
7.50085e-06 8.90473e-05 -3.2499e-07
-1.80758e-08 -3.2499e-07 2.81685e-05
0.00109389 -9.58228e-07 -2.24133e-07
-9.58228e-07 2.4615e-05 -8.9387e-07
-2.24133e-07 -8.9387e-07 -1.12065e-05
0.00102045 -1.00979e-06 -1.37735e-07
-1.00979e-06 -7.12686e-06 -2.18183e-07
-1.37735e-07 -2.18183e-07 -5.31716e-05
0.00122794 2.53545e-06 -1.07133e-07
2.53545e-06 9.64658e-05 -5.93071e-08
-1.07133e-07 -5.93071e-08 4.44265e-05
0.00110491 4.91274e-06 -2.34742e-07
4.91274e-06 3.78594e-05 -3.25807e-07
-2.34742e-07 -3.25807e-07 -2.01948e-05
0.00109151 -1.01655e-06 3.45218e-08
-1.01655e-06 2.34175e-05 -1.90006e-09
3.45218e-08 -1.90006e-09 -1.3107e-05
0.00106845 4.01427e-07 3.81818e-08
4.01427e-07 1.61947e-05 1.00443e-08
3.81818e-08 1.00443e-08 -3.03059e-05
0.00115091 7.08108e-06 -1.11165e-07
7.08108e-06 5.92938e-05 -2.63913e-07
-1.11165e-07 -2.63913e-07 -7.13912e-07
0.00115633 2.68199e-06 -1.45855e-08
2.68199e-06 6.06978e-05 -2.04021e-08
-1.45855e-08 -2.04021e-08 8.40383e-06
0.00115916 1.76303e-06 4.67231e-08
1.76303e-06 6.27772e-05 -1.06454e-08
4.67231e-08 -1.06454e-08 5.10778e-06
0.00113822 5.04057e-06 4.52752e-08
5.04057e-06 5.11319e-05 -4.17852e-08
4.52752e-08 -4.17852e-08 -9.81321e-06
0.00119952 4.97375e-06 6.3846e-08
4.97375e-06 8.214e-05 -1.2457e-07
6.3846e-08 -1.2457e-07 2.5037e-05
0.00122858 5.11439e-06 1.07809e-07
5.11439e-06 9.49181e-05 3.94702e-08
1.07809e-07 3.94702e-08 4.24056e-05
0.00100646 -1.14952e-06 1.08504e-07
-1.14952e-06 -1.30633e-05 4.70486e-07
1.08504e-07 4.70486e-07 -6.09903e-05
0.000929018 -1.50215e-07 1.06995e-08
-1.50215e-07 -5.46071e-05 1.25912e-06
1.06995e-08 1.25912e-06 -9.26589e-05
0.00126309 -3.01332e-08 -1.21653e-07
-3.01332e-08 0.000111719 1.17767e-07
-1.21653e-07 1.17767e-07 6.49336e-05
0.000943731 1.49544e-06 -2.4555e-07
1.49544e-06 -4.67909e-05 1.21693e-06
-2.4555e-07 1.21693e-06 -8.49376e-05
0.00105609 7.99075e-07 -1.29687e-07
7.99075e-07 5.73722e-07 1.62752e-06
-1.29687e-07 1.62752e-06 -1.99104e-05
0.00105659 -1.02698e-07 3.5224e-08
-1.02698e-07 5.74814e-07 2.22313e-09
3.5224e-08 2.22313e-09 -1.9664e-05
0.000999959 -1.56377e-07 5.25798e-08
-1.56377e-07 -3.58719e-05 2.78658e-06
5.25798e-08 2.78658e-06 -3.0631e-05
0.00105784 -9.28242e-07 -1.29156e-07
-9.28242e-07 1.47525e-06 -1.64149e-06
-1.29156e-07 -1.64149e-06 -1.85019e-05
0.00126218 -1.3843e-06 -1.27187e-07
-1.3843e-06 9.18517e-05 -1.10529e-06
-1.27187e-07 -1.10529e-06 9.83557e-05
0.00223734 -1.76242e-06 7.06215e-07
-1.76242e-06 0.000559689 3.55738e-06
7.06215e-07 3.55738e-06 0.000585632
0.00154493 -2.54595e-06 -8.28286e-07
-2.54595e-06 0.000230241 -3.87667e-06
-8.28286e-07 -3.87667e-06 0.000237816
0.00118307 -3.1332e-06 4.03826e-07
-3.1332e-06 5.08652e-05 2.16233e-06
4.03826e-07 2.16233e-06 7.1788e-05
0.00113383 -4.50392e-06 -5.69598e-07
-4.50392e-06 2.93738e-05 -1.3304e-06
-5.69598e-07 -1.3304e-06 5.03799e-05
0.00105011 1.68268e-06 3.3937e-07
1.68268e-06 -1.40532e-06 -1.68784e-06
3.3937e-07 -1.68784e-06 -1.9859e-05
0.00105161 2.16577e-06 -1.14428e-07
2.16577e-06 4.16395e-07 -2.15887e-08
-1.14428e-07 -2.15887e-08 -1.88429e-05
0.000989059 3.5356e-06 7.52399e-07
3.5356e-06 -3.76785e-05 -2.76917e-06
7.52399e-07 -2.76917e-06 -3.20757e-05
0.00125434 4.67611e-06 -9.47587e-08
4.67611e-06 9.27944e-05 1.55225e-08
-9.47587e-08 1.55225e-08 9.89837e-05
0.00224083 5.91057e-06 2.19662e-06
5.91057e-06 0.000566067 -3.49308e-06
2.19662e-06 -3.49308e-06 0.000591381
0.000997648 5.71143e-06 -1.41973e-06
5.71143e-06 -2.85944e-05 2.60053e-06
-1.41973e-06 2.60053e-06 -2.43048e-05
0.00222846 7.43761e-06 -1.12036e-07
7.43761e-06 0.000563858 -2.18276e-08
-1.12036e-07 -2.18276e-08 0.000588607
0.0022215 8.8703e-06 -3.22225e-06
8.8703e-06 0.000564938 3.36914e-06
-3.22225e-06 3.36914e-06 0.000588964
0.00117213 -1.01859e-05 7.09561e-07
-1.01859e-05 4.64971e-05 -4.94025e-07
7.09561e-07 -4.94025e-07 -8.32462e-06
0.0011145 -1.26229e-05 7.73876e-07
-1.26229e-05 7.2484e-05 1.22271e-06
7.73876e-07 1.22271e-06 5.40799e-06
0.00112861 2.02784e-06 3.55351e-07
2.02784e-06 8.07544e-05 -4.49456e-07
3.55351e-07 -4.49456e-07 2.13768e-05
0.00110175 1.39407e-07 -3.29158e-07
1.39407e-07 6.66046e-05 -9.07535e-07
-3.29158e-07 -9.07535e-07 4.69183e-06
0.00106463 -1.30451e-05 -2.5027e-08
-1.30451e-05 3.66501e-05 1.32044e-07
-2.5027e-08 1.32044e-07 -2.73723e-05
0.00110412 -1.52619e-05 9.93998e-07
-1.52619e-05 8.72504e-05 2.3375e-07
9.93998e-07 2.3375e-07 4.12304e-05
0.00125311 -3.43632e-06 -1.27683e-06
-3.43632e-06 0.000135179 1.24288e-06
-1.27683e-06 1.24288e-06 7.12276e-05
0.00102244 -2.29678e-05 -3.32429e-06
-2.29678e-05 -2.17147e-05 -3.30802e-06
-3.32429e-06 -3.30802e-06 -3.77474e-05
0.000693687 -8.20206e-06 -1.4949e-06
-8.20206e-06 -7.28687e-05 2.58674e-08
-1.4949e-06 2.58674e-08 -0.000107889
0.00109224 8.35512e-07 -1.57939e-07
8.35512e-07 2.26651e-05 -1.02747e-06
-1.57939e-07 -1.02747e-06 -1.0888e-05
0.00105043 1.09427e-05 -2.47883e-07
1.09427e-05 1.09038e-05 -4.65956e-07
-2.47883e-07 -4.65956e-07 -5.19173e-05
0.0012214 9.44742e-06 5.82497e-07
9.44742e-06 6.09799e-05 6.46295e-07
5.82497e-07 6.46295e-07 -1.76646e-06
0.00120249 2.12374e-06 1.37244e-06
2.12374e-06 4.05319e-05 3.60222e-07
1.37244e-06 3.60222e-07 -1.18117e-05
0.00109674 -9.51397e-06 -1.63762e-07
-9.51397e-06 3.00901e-05 3.25757e-07
-1.63762e-07 3.25757e-07 -2.88236e-05
0.00116728 -1.12988e-05 1.22068e-07
-1.12988e-05 6.02649e-05 1.82374e-07
1.22068e-07 1.82374e-07 -3.94443e-06
0.00112967 -1.04916e-05 -2.1377e-10
-1.04916e-05 1.58667e-05 -1.10759e-06
-2.1377e-10 -1.10759e-06 -4.15525e-05
0.00128196 -7.02818e-06 1.0588e-06
-7.02818e-06 6.5285e-05 -1.10499e-06
1.0588e-06 -1.10499e-06 1.9952e-05
0.00119665 -1.00569e-05 1.43696e-07
-1.00569e-05 7.55692e-05 -2.07828e-07
1.43696e-07 -2.07828e-07 1.59137e-05
0.0011391 -9.85358e-06 -5.27724e-07
-9.85358e-06 4.79357e-05 -2.97075e-07
-5.27724e-07 -2.97075e-07 -1.36274e-05
0.00110184 -8.90097e-06 -3.99286e-07
-8.90097e-06 3.21517e-05 -7.02726e-08
-3.99286e-07 -7.02726e-08 -2.92955e-05
0.00105341 2.65861e-06 -7.65753e-07
2.65861e-06 2.63399e-06 1.54586e-06
-7.65753e-07 1.54586e-06 -1.72097e-05
0.00114754 -7.98912e-06 -1.13132e-07
-7.98912e-06 5.78373e-05 2.47722e-08
-1.13132e-07 2.47722e-08 1.72314e-06
0.00133189 4.14135e-06 -3.92372e-07
4.14135e-06 0.00014406 4.93109e-07
-3.92372e-07 4.93109e-07 0.000108197
0.00116667 -1.22556e-06 -6.08111e-07
-1.22556e-06 6.86274e-05 7.54504e-07
-6.08111e-07 7.54504e-07 1.888e-05
0.000941889 1.22774e-06 -5.1939e-07
1.22774e-06 -4.81398e-05 9.26913e-07
-5.1939e-07 9.26913e-07 -8.47876e-05
0.00120485 1.23215e-05 1.38525e-07
1.23215e-05 7.94517e-05 4.00756e-08
1.38525e-07 4.00756e-08 8.48622e-06
0.00101318 1.30474e-06 5.39324e-08
1.30474e-06 -1.43608e-05 -4.31868e-07
5.39324e-08 -4.31868e-07 -4.95986e-05
0.00109075 1.34833e-06 8.73324e-08
1.34833e-06 2.48808e-05 1.52073e-08
8.73324e-08 1.52073e-08 -1.13652e-05
0.00116374 4.39461e-07 4.53974e-09
4.39461e-07 6.2482e-05 4.06272e-07
4.53974e-09 4.06272e-07 1.57179e-05
0.00125507 8.50875e-06 2.89339e-07
8.50875e-06 7.37341e-05 2.24157e-07
2.89339e-07 2.24157e-07 1.61044e-05
0.00125385 -3.83381e-06 6.23187e-09
-3.83381e-06 4.52737e-05 -5.13647e-07
6.23187e-09 -5.13647e-07 4.3353e-06
0.00116342 -1.06679e-05 6.11461e-08
-1.06679e-05 6.22005e-05 -7.06337e-09
6.11461e-08 -7.06337e-09 8.64268e-08
0.00118609 -1.21142e-05 2.05125e-07
-1.21142e-05 6.47309e-05 1.41844e-07
2.05125e-07 1.41844e-07 -3.68061e-08
0.00121446 -1.05626e-05 -2.00159e-07
-1.05626e-05 4.00183e-05 9.64715e-09
-2.00159e-07 9.64715e-09 -1.06674e-05
0.00105372 5.26579e-07 -1.80788e-08
5.26579e-07 1.53075e-05 1.05824e-08
-1.80788e-08 1.05824e-08 -3.46869e-05
0.00121465 -6.29803e-06 1.18925e-07
-6.29803e-06 9.07261e-05 2.8956e-08
1.18925e-07 2.8956e-08 3.41516e-05
0.00114757 -1.07288e-05 -4.09218e-08
-1.07288e-05 5.5959e-05 -8.03072e-08
-4.09218e-08 -8.03072e-08 -6.60301e-06
0.00120259 -9.87051e-06 3.62713e-09
-9.87051e-06 8.23908e-05 5.44824e-09
3.62713e-09 5.44824e-09 1.80325e-05
0.00112601 -8.8461e-06 -2.76284e-07
-8.8461e-06 4.61669e-05 2.69371e-07
-2.76284e-07 2.69371e-07 -1.65271e-05
0.0012827 1.47129e-05 1.74928e-08
1.47129e-05 0.000118699 -3.77834e-07
1.74928e-08 -3.77834e-07 4.27254e-05
0.0012319 3.11577e-06 -2.12204e-06
3.11577e-06 3.87956e-05 -1.2596e-06
-2.12204e-06 -1.2596e-06 -1.62823e-06
0.00128919 -9.8189e-06 -1.2408e-06
-9.8189e-06 5.09893e-05 1.31767e-06
-1.2408e-06 1.31767e-06 9.03697e-06
0.00134158 -1.32618e-05 2.8411e-07
-1.32618e-05 0.000125631 7.04704e-07
2.8411e-07 7.04704e-07 6.39596e-05
0.00113202 -1.17078e-05 -3.5716e-07
-1.17078e-05 5.14584e-05 -4.21392e-08
-3.5716e-07 -4.21392e-08 -1.29265e-05
0.000960422 3.92665e-06 1.15362e-07
3.92665e-06 -3.52286e-05 -6.67586e-07
1.15362e-07 -6.67586e-07 -8.19764e-05
0.000964223 -1.18792e-06 2.68644e-07
-1.18792e-06 -3.18148e-05 -4.15693e-07
2.68644e-07 -4.15693e-07 -8.07407e-05
0.00114827 2.98024e-06 1.02114e-08
2.98024e-06 6.20768e-05 2.21175e-07
1.02114e-08 2.21175e-07 7.71069e-06
0.00118999 -6.41368e-06 3.88984e-07
-6.41368e-06 8.17831e-05 -2.48279e-07
3.88984e-07 -2.48279e-07 2.28374e-05
0.00108818 -8.39384e-06 1.58767e-08
-8.39384e-06 2.81238e-05 2.62684e-07
1.58767e-08 2.62684e-07 -3.35642e-05
0.00123749 -1.00099e-05 6.33062e-07
-1.00099e-05 0.000102418 -1.6784e-07
6.33062e-07 -1.6784e-07 3.45547e-05
0.00114646 -1.13457e-05 2.22247e-07
-1.13457e-05 5.77251e-05 4.82951e-07
2.22247e-07 4.82951e-07 -8.66201e-06
0.00114107 6.95808e-06 -4.27731e-07
6.95808e-06 5.6432e-05 -5.25678e-07
-4.27731e-07 -5.25678e-07 2.11083e-06
0.00112678 8.15671e-06 -1.20694e-07
8.15671e-06 4.94214e-05 2.38319e-07
-1.20694e-07 2.38319e-07 -1.05309e-05
0.000903788 -1.10867e-05 2.51147e-06
-1.10867e-05 -5.37696e-05 1.11712e-06
2.51147e-06 1.11712e-06 -0.000101746
0.00103517 6.61375e-07 1.75039e-06
6.61375e-07 -6.58733e-05 -1.20475e-07
1.75039e-06 -1.20475e-07 -0.000104198
0.00162982 1.38222e-05 1.58756e-07
1.38222e-05 0.000226905 7.80889e-07
1.58756e-07 7.80889e-07 0.00016973
0.001082 9.40415e-06 8.69752e-08
9.40415e-06 2.673e-05 2.00444e-08
8.69752e-08 2.00444e-08 -3.77251e-05
0.00130072 1.28729e-05 -3.28486e-09
1.28729e-05 0.000127045 3.50883e-07
-3.28486e-09 3.50883e-07 5.59215e-05
0.00119883 7.68691e-06 1.31311e-08
7.68691e-06 8.60278e-05 1.92447e-08
1.31311e-08 1.92447e-08 2.65366e-05
0.00110025 -7.22404e-06 -9.02047e-07
-7.22404e-06 -6.98535e-06 1.63535e-08
-9.02047e-07 1.63535e-08 -4.2346e-05
0.00120489 9.20159e-06 -2.01422e-08
9.20159e-06 8.31724e-05 5.49736e-08
-2.01422e-08 5.49736e-08 1.98432e-05
0.00122695 1.17045e-05 -4.81606e-08
1.17045e-05 9.61318e-05 1.75355e-07
-4.81606e-08 1.75355e-07 2.64076e-05
0.00135949 1.17924e-05 9.63831e-07
1.17924e-05 5.64583e-05 -8.00811e-07
9.63831e-07 -8.00811e-07 9.07853e-06
0.0011863 1.43424e-05 -8.25176e-08
1.43424e-05 6.14288e-05 6.45023e-07
-8.25176e-08 6.45023e-07 -1.14492e-05
0.00188369 -7.22156e-06 -9.04758e-07
-7.22156e-06 0.000122567 9.33134e-09
-9.04758e-07 9.33134e-09 9.70874e-05
0.00119323 8.01267e-06 -2.02844e-07
8.01267e-06 8.1778e-05 -3.97264e-07
-2.02844e-07 -3.97264e-07 1.88884e-05
0.000987377 1.11776e-05 2.85725e-06
1.11776e-05 -0.000173787 3.76407e-07
2.85725e-06 3.76407e-07 -0.00022113
0.00122554 1.0308e-05 -5.39227e-07
1.0308e-05 9.68856e-05 -3.0606e-07
-5.39227e-07 -3.0606e-07 3.02009e-05
0.00119149 1.37709e-05 -4.98821e-07
1.37709e-05 8.83644e-05 7.73444e-07
-4.98821e-07 7.73444e-07 1.04228e-05
0.000910383 1.88396e-05 1.44367e-06
1.88396e-05 -0.000116795 -1.16366e-06
1.44367e-06 -1.16366e-06 -0.000192738
0.00551593 9.89753e-06 -2.32678e-05
9.89753e-06 0.00164814 -2.21841e-06
-2.32678e-05 -2.21841e-06 0.00151926
0.00156276 1.18656e-05 2.26402e-05
1.18656e-05 0.00014143 1.00941e-05
2.26402e-05 1.00941e-05 8.96729e-05
0.00113707 1.615e-05 -5.20638e-06
1.615e-05 -0.00025872 -4.88516e-06
-5.20638e-06 -4.88516e-06 -0.000305923
-0.00411661 -4.49034e-05 -3.69675e-05
-4.49034e-05 -0.00179164 -1.77546e-05
-3.69675e-05 -1.77546e-05 -0.0017572
0.00062954 -3.41606e-05 4.80254e-06
-3.41606e-05 0.000105175 2.58735e-06
4.80254e-06 2.58735e-06 0.000183509
0.00114488 7.00206e-06 -1.59342e-07
7.00206e-06 6.02508e-05 -9.77269e-08
-1.59342e-07 -9.77269e-08 1.98129e-06
0.00118769 7.36957e-06 1.10786e-08
7.36957e-06 7.92625e-05 -9.72687e-08
1.10786e-08 -9.72687e-08 1.8489e-05
0.00116287 7.40819e-06 4.39311e-08
7.40819e-06 6.71912e-05 -3.80259e-07
4.39311e-08 -3.80259e-07 5.06998e-06
0.00109608 -1.06611e-06 -9.40878e-08
-1.06611e-06 2.56653e-05 -9.06757e-07
-9.40878e-08 -9.06757e-07 -1.09049e-05
0.00102444 1.11135e-06 -1.4361e-07
1.11135e-06 -5.12901e-06 -4.64768e-07
-1.4361e-07 -4.64768e-07 -5.19198e-05
0.001157 6.96653e-07 -1.12492e-07
6.96653e-07 6.09897e-05 -3.21164e-07
-1.12492e-07 -3.21164e-07 8.68434e-06
0.00121116 1.97795e-06 -7.60331e-08
1.97795e-06 8.84247e-05 -1.37486e-07
-7.60331e-08 -1.37486e-07 3.11454e-05
0.00112761 6.9535e-06 -3.22001e-07
6.9535e-06 4.82669e-05 -1.98524e-07
-3.22001e-07 -1.98524e-07 -1.17311e-05
0.0011451 5.02964e-06 -5.04116e-08
5.02964e-06 5.45082e-05 -2.60988e-07
-5.04116e-08 -2.60988e-07 1.46266e-06
0.00101169 -1.97076e-07 2.12531e-08
-1.97076e-07 -1.48099e-05 3.49697e-07
2.12531e-08 3.49697e-07 -5.23857e-05
0.00105941 -1.80253e-06 2.25174e-08
-1.80253e-06 1.25257e-05 -3.9161e-09
2.25174e-08 -3.9161e-09 -3.5006e-05
0.00116002 5.03167e-06 -1.26855e-08
5.03167e-06 6.19835e-05 1.08215e-07
-1.26855e-08 1.08215e-07 1.27727e-06
0.00118141 4.52962e-06 -4.08769e-08
4.52962e-06 7.28625e-05 -2.28618e-07
-4.08769e-08 -2.28618e-07 1.56237e-05
0.00118514 7.34225e-06 4.00852e-09
7.34225e-06 7.43187e-05 -2.5596e-07
4.00852e-09 -2.5596e-07 1.72275e-05
0.0011855 4.57634e-06 4.65659e-08
4.57634e-06 7.30153e-05 -1.13028e-07
4.65659e-08 -1.13028e-07 1.22031e-05
0.00108749 4.34534e-06 1.38855e-07
4.34534e-06 2.63647e-05 5.46803e-07
1.38855e-07 5.46803e-07 -2.84914e-05
0.00100475 2.67704e-08 2.0101e-08
2.67704e-08 -1.31805e-05 1.98344e-07
2.0101e-08 1.98344e-07 -6.23153e-05
0.000936612 9.8061e-07 -1.10706e-07
9.8061e-07 -5.06009e-05 1.23415e-06
-1.10706e-07 1.23415e-06 -8.88743e-05
0.00117155 1.97151e-06 -1.18481e-07
1.97151e-06 6.72391e-05 3.97142e-07
-1.18481e-07 3.97142e-07 1.94264e-05
0.00123632 -6.47735e-08 -1.04216e-07
-6.47735e-08 0.000100622 -1.18066e-07
-1.04216e-07 -1.18066e-07 4.64271e-05
0.00110966 -3.25375e-06 -2.77816e-07
-3.25375e-06 3.7878e-05 4.59128e-07
-2.77816e-07 4.59128e-07 -1.00133e-05
0.00114269 -5.89565e-07 1.10273e-07
-5.89565e-07 5.3491e-05 -3.4409e-07
1.10273e-07 -3.4409e-07 5.90785e-06
0.00109328 1.40524e-06 -3.14904e-07
1.40524e-06 2.57871e-05 8.41437e-07
-3.14904e-07 8.41437e-07 -1.13454e-05
0.000939479 1.47469e-06 -2.16837e-08
1.47469e-06 -4.88297e-05 3.5245e-07
-2.16837e-08 3.5245e-07 -8.69914e-05
0.00105479 1.55028e-06 -3.08917e-07
1.55028e-06 6.8408e-07 1.60122e-06
-3.08917e-07 1.60122e-06 -1.99937e-05
0.00105655 7.94526e-07 4.21238e-08
7.94526e-07 7.74262e-07 2.80003e-09
4.21238e-08 2.80003e-09 -1.97021e-05
0.00102653 1.04754e-06 -3.13928e-07
1.04754e-06 -2.29871e-05 3.8891e-06
-3.13928e-07 3.8891e-06 -1.8027e-05
0.00105833 -1.08252e-07 3.54017e-08
-1.08252e-07 1.42247e-06 -1.63286e-06
3.54017e-08 -1.63286e-06 -1.88296e-05
0.00100192 -1.69593e-07 5.61468e-08
-1.69593e-07 -3.49122e-05 1.40148e-09
5.61468e-08 1.40148e-09 -2.96906e-05
0.00224198 -3.16289e-07 7.03797e-08
-3.16289e-07 0.000561161 3.55995e-06
7.03797e-08 3.55995e-06 0.000587174
0.00102345 -1.36284e-06 -2.99317e-07
-1.36284e-06 -2.37994e-05 -3.90318e-06
-2.99317e-07 -3.90318e-06 -1.86577e-05
0.00171046 -1.70636e-06 3.42947e-08
-1.70636e-06 0.000304478 1.32022e-08
3.42947e-08 1.32022e-08 0.00032799
0.00113696 -3.09809e-06 -3.64563e-07
-3.09809e-06 2.85475e-05 -1.35414e-06
-3.64563e-07 -1.35414e-06 4.97206e-05
0.0010504 9.973e-07 2.98694e-08
9.973e-07 -2.53204e-06 -1.69097e-06
2.98694e-08 -1.69097e-06 -2.00385e-05
0.00105378 1.67606e-06 -1.55074e-09
1.67606e-06 3.28476e-07 -2.1566e-09
-1.55074e-09 -2.1566e-09 -1.81419e-05
0.000992699 2.43603e-06 4.84509e-07
2.43603e-06 -3.7495e-05 -2.81478e-06
4.84509e-07 -2.81478e-06 -3.12238e-05
0.00105515 2.15808e-06 -6.72118e-07
2.15808e-06 2.0816e-06 1.59249e-06
-6.72118e-07 1.59249e-06 -1.71882e-05
0.00124917 3.55767e-06 2.1516e-08
3.55767e-06 8.80534e-05 -5.33117e-07
2.1516e-08 -5.33117e-07 9.48735e-05
0.00222687 4.45338e-06 1.62515e-06
4.45338e-06 0.000556828 -3.52972e-06
1.62515e-06 -3.52972e-06 0.000582663
0.000988233 4.60939e-06 -1.21107e-06
4.60939e-06 -3.58902e-05 2.65602e-06
-1.21107e-06 2.65602e-06 -3.09421e-05
0.00223633 5.93001e-06 -7.24123e-07
5.93001e-06 0.000564659 1.02433e-06
-7.24123e-07 1.02433e-06 0.000589861
0.00220789 7.47734e-06 -2.80106e-06
7.47734e-06 0.000554427 3.41367e-06
-2.80106e-06 3.41367e-06 0.000579185
0.00114369 -1.29863e-05 4.28005e-07
-1.29863e-05 7.38431e-05 3.39423e-07
4.28005e-07 3.39423e-07 9.7037e-06
0.00112222 -2.13901e-07 1.75419e-08
-2.13901e-07 7.60678e-05 -7.07779e-07
1.75419e-08 -7.07779e-07 1.42928e-05
0.000926289 -1.51231e-05 5.87467e-06
-1.51231e-05 2.65864e-05 1.45915e-06
5.87467e-06 1.45915e-06 -1.76819e-05
0.000829385 -2.18718e-05 -1.48847e-06
-2.18718e-05 -0.000104592 -7.03137e-07
-1.48847e-06 -7.03137e-07 -0.000120996
0.00105455 -3.35179e-06 3.60487e-08
-3.35179e-06 4.80208e-05 -1.81578e-07
3.60487e-08 -1.81578e-07 -1.5762e-05
0.000878846 -8.16256e-06 -8.41708e-08
-8.16256e-06 7.78993e-06 -2.15808e-06
-8.41708e-08 -2.15808e-06 -3.33133e-05
0.000865918 1.00983e-05 -1.08199e-06
1.00983e-05 -1.89913e-05 2.96368e-06
-1.08199e-06 2.96368e-06 -9.01623e-05
0.00075173 -4.75903e-06 4.47706e-05
-4.75903e-06 -0.000394612 1.04663e-05
4.47706e-05 1.04663e-05 -0.000465323
0.000970842 -3.03981e-06 -3.46095e-06
-3.03981e-06 0.000139655 3.92948e-06
-3.46095e-06 3.92948e-06 0.000101347
0.0010987 -7.28324e-08 9.18706e-08
-7.28324e-08 2.54149e-05 -9.44165e-07
9.18706e-08 -9.44165e-07 -7.15753e-06
0.00109468 8.74334e-07 -1.63476e-07
8.74334e-07 2.38494e-05 -2.93678e-09
-1.63476e-07 -2.93678e-09 -9.74541e-06
0.00109117 4.15056e-06 -1.84432e-07
4.15056e-06 2.68172e-05 -4.09027e-07
-1.84432e-07 -4.09027e-07 -1.78811e-05
0.00108948 -1.52349e-06 1.39964e-08
-1.52349e-06 2.67916e-05 -1.62777e-07
1.39964e-08 -1.62777e-07 -1.54965e-05
0.00113326 1.22657e-05 -5.37185e-07
1.22657e-05 3.95872e-05 9.1024e-08
-5.37185e-07 9.1024e-08 -3.20042e-05
0.00124375 8.36606e-06 1.53123e-06
8.36606e-06 6.95805e-05 1.2594e-06
1.53123e-06 1.2594e-06 1.18812e-05
0.00125765 -4.24857e-06 1.42522e-06
-4.24857e-06 4.72786e-05 -4.90332e-07
1.42522e-06 -4.90332e-07 4.73008e-06
0.00117379 -1.07037e-05 2.05522e-07
-1.07037e-05 6.66533e-05 1.3045e-07
2.05522e-07 1.3045e-07 4.62507e-06
0.00108577 -1.17582e-05 4.91154e-07
-1.17582e-05 1.88626e-05 -3.95065e-07
4.91154e-07 -3.95065e-07 -4.57593e-05
0.00115981 -1.037e-05 9.19815e-08
-1.037e-05 1.42174e-05 -1.46001e-06
9.19815e-08 -1.46001e-06 -3.62349e-05
0.00116221 -1.07186e-05 -1.05585e-07
-1.07186e-05 6.26999e-05 -2.22779e-07
-1.05585e-07 -2.22779e-07 1.55982e-07
0.00118346 -9.76906e-06 -3.99805e-07
-9.76906e-06 7.25329e-05 -3.2474e-07
-3.99805e-07 -3.2474e-07 8.82901e-06
0.00118549 -8.9867e-06 -4.28266e-07
-8.9867e-06 7.52477e-05 5.20092e-07
-4.28266e-07 5.20092e-07 1.2865e-05
0.00109674 1.5086e-06 -3.75266e-07
1.5086e-06 2.77726e-05 8.98404e-07
-3.75266e-07 8.98404e-07 -8.50624e-06
0.00120022 -6.62921e-06 -3.76331e-07
-6.62921e-06 8.32701e-05 1.57265e-07
-3.76331e-07 1.57265e-07 2.64792e-05
0.00112474 9.80767e-07 -2.71069e-07
9.80767e-07 4.95866e-05 5.78388e-07
-2.71069e-07 5.78388e-07 2.02242e-07
0.0010914 1.32152e-06 -1.37013e-07
1.32152e-06 2.338e-05 6.1146e-07
-1.37013e-07 6.1146e-07 -1.12057e-05
0.00106494 1.75457e-07 -4.23191e-07
1.75457e-07 1.47049e-05 9.54053e-07
-4.23191e-07 9.54053e-07 -3.2922e-05
0.00126548 1.44106e-05 3.14871e-07
1.44106e-05 0.000107521 8.28357e-07
3.14871e-07 8.28357e-07 3.30736e-05
0.00111657 3.54773e-06 -2.6489e-08
3.54773e-06 4.00296e-05 -2.64254e-07
-2.6489e-08 -2.64254e-07 -5.95744e-06
0.00104714 -2.8794e-06 6.04973e-08
-2.8794e-06 7.98653e-06 -7.48922e-09
6.04973e-08 -7.48922e-09 -4.04339e-05
0.00111414 3.13495e-07 -2.24476e-08
3.13495e-07 4.52546e-05 6.21173e-07
-2.24476e-08 6.21173e-07 -8.22108e-06
0.00128406 3.09005e-06 2.38286e-07
3.09005e-06 6.85939e-05 -2.22677e-08
2.38286e-07 -2.22677e-08 2.68478e-05
0.00125076 -9.77352e-06 -3.86877e-07
-9.77352e-06 3.11162e-05 -6.75119e-07
-3.86877e-07 -6.75119e-07 -1.0747e-05
0.00116376 -1.17757e-05 6.45157e-08
-1.17757e-05 6.61114e-05 -1.14052e-07
6.45157e-08 -1.14052e-07 1.63198e-06
0.00122104 -1.27249e-05 1.28018e-07
-1.27249e-05 7.13693e-05 4.03608e-07
1.28018e-07 4.03608e-07 1.015e-05
0.00121661 -6.29636e-06 3.42254e-08
-6.29636e-06 9.51277e-05 -1.77158e-08
3.42254e-08 -1.77158e-08 3.63786e-05
0.00111275 -8.63734e-06 -2.95326e-07
-8.63734e-06 3.92625e-05 5.18977e-07
-2.95326e-07 5.18977e-07 -2.20047e-05
0.00115755 -1.13958e-05 -1.00656e-07
-1.13958e-05 6.28749e-05 -9.77503e-08
-1.00656e-07 -9.77503e-08 -3.51613e-06
0.00122848 -9.86665e-06 2.27769e-07
-9.86665e-06 9.84717e-05 -1.80112e-07
2.27769e-07 -1.80112e-07 3.08208e-05
0.00124606 1.35553e-05 -1.56793e-06
1.35553e-05 8.61844e-05 -2.54128e-06
-1.56793e-06 -2.54128e-06 2.61937e-05
0.00133171 -7.59831e-06 -2.11626e-06
-7.59831e-06 5.65705e-05 -7.15915e-07
-2.11626e-06 -7.15915e-07 2.78994e-05
0.00126261 -1.35227e-05 5.1931e-07
-1.35227e-05 6.10533e-05 2.16821e-06
5.1931e-07 2.16821e-06 4.41993e-06
0.00117582 -1.39201e-05 -1.90029e-07
-1.39201e-05 7.00843e-05 -4.13652e-08
-1.90029e-07 -4.13652e-08 4.00919e-06
0.00108934 2.57067e-06 -3.75815e-08
2.57067e-06 3.49944e-05 -2.83035e-07
-3.75815e-08 -2.83035e-07 -2.17587e-05
0.00108648 -7.17068e-06 1.08534e-07
-7.17068e-06 3.1376e-05 -7.97411e-07
1.08534e-07 -7.97411e-07 -2.65702e-05
0.00113727 -8.80549e-06 1.77331e-07
-8.80549e-06 5.68475e-05 -1.84291e-07
1.77331e-07 -1.84291e-07 -1.03357e-05
0.00120646 -1.10439e-05 4.38987e-07
-1.10439e-05 8.99374e-05 4.82053e-07
4.38987e-07 4.82053e-07 1.76423e-05
-0.000291681 2.33874e-06 -4.01658e-05
2.33874e-06 -0.000988134 2.86095e-06
-4.01658e-05 2.86095e-06 -0.00101299
0.00120178 7.68432e-06 -7.29817e-08
7.68432e-06 8.74619e-05 -4.23119e-08
-7.29817e-08 -4.23119e-08 2.82819e-05
0.0011185 8.87732e-06 1.68446e-07
8.87732e-06 4.2661e-05 4.07855e-07
1.68446e-07 4.07855e-07 -2.07329e-05
0.000823453 -7.10672e-06 9.30355e-07
-7.10672e-06 -0.000130654 4.22707e-07
9.30355e-07 4.22707e-07 -0.000164662
0.00156167 1.10501e-05 1.08695e-07
1.10501e-05 0.000153408 3.85879e-07
1.08695e-07 3.85879e-07 0.000108108
0.00131628 1.50527e-05 -7.2618e-07
1.50527e-05 0.000122515 1.05065e-06
-7.2618e-07 1.05065e-06 4.87841e-05
0.0011272 1.125e-05 2.81599e-07
1.125e-05 5.06149e-05 1.73437e-07
2.81599e-07 1.73437e-07 -1.92673e-05
0.00263976 -5.75111e-06 2.61409e-06
-5.75111e-06 0.000504238 5.65986e-06
2.61409e-06 5.65986e-06 0.000476507
0.00118618 7.94869e-06 -1.37258e-08
7.94869e-06 7.94062e-05 -1.50388e-07
-1.37258e-08 -1.50388e-07 1.67667e-05
0.00136386 1.02675e-05 1.18802e-06
1.02675e-05 5.8607e-06 -1.69352e-07
1.18802e-06 -1.69352e-07 -4.1616e-05
0.00116625 1.00223e-05 -5.2043e-08
1.00223e-05 6.90743e-05 -1.19234e-07
-5.2043e-08 -1.19234e-07 2.6852e-06
0.00115309 1.35647e-05 -3.19562e-07
1.35647e-05 6.92306e-05 2.21795e-07
-3.19562e-07 2.21795e-07 -8.44278e-06
0.00116653 1.85198e-05 2.58545e-07
1.85198e-05 1.07378e-06 -1.821e-07
2.58545e-07 -1.821e-07 -7.20647e-05
-0.000309679 7.05913e-06 1.0951e-07
7.05913e-06 -0.000895996 1.80339e-06
1.0951e-07 1.80339e-06 -0.000980916
0.00216467 1.62592e-05 4.17253e-06
1.62592e-05 0.000141614 -1.73109e-06
4.17253e-06 -1.73109e-06 4.47444e-05
0.00193859 2.0758e-05 -1.87778e-06
2.0758e-05 0.000110732 -1.10836e-07
-1.87778e-06 -1.10836e-07 5.78723e-05
-0.000559488 -4.47752e-05 -7.9416e-06
-4.47752e-05 -0.000314002 -3.9086e-06
-7.9416e-06 -3.9086e-06 -0.000308502
0.000377218 -3.54223e-05 -4.8036e-06
-3.54223e-05 -3.27338e-05 -1.38397e-06
-4.8036e-06 -1.38397e-06 4.42179e-05
0.00118092 8.28457e-06 -1.78651e-07
8.28457e-06 8.10826e-05 -4.79081e-07
-1.78651e-07 -4.79081e-07 1.71724e-05
9.08373e-05 -6.11598e-06 -5.95032e-05
-6.11598e-06 -6.83775e-05 -5.71088e-06
-5.95032e-05 -5.71088e-06 -6.85009e-05
0.00106179 -2.48025e-05 1.08199e-05
-2.48025e-05 0.000466988 6.61377e-06
1.08199e-05 6.61377e-06 0.000510357
0.00120744 2.46497e-05 3.42419e-06
2.46497e-05 -3.78435e-05 8.4458e-07
3.42419e-06 8.4458e-07 -0.000116444
0.00122223 1.10748e-05 -7.04923e-07
1.10748e-05 0.000111937 -8.04499e-08
-7.04923e-07 -8.04499e-08 3.99284e-05
0.00127792 1.71099e-05 -1.21505e-06
1.71099e-05 0.000135703 -4.43647e-07
-1.21505e-06 -4.43647e-07 4.46402e-05
0.00174756 2.75699e-05 -1.21584e-05
2.75699e-05 0.000179105 -1.44218e-05
-1.21584e-05 -1.44218e-05 7.77613e-05
0.00628696 -1.64525e-05 -5.76452e-05
-1.64525e-05 0.00190347 -2.36745e-05
-5.76452e-05 -2.36745e-05 0.00167055
0.00115481 4.03292e-05 1.96625e-05
4.03292e-05 -0.000226162 2.25257e-05
1.96625e-05 2.25257e-05 -0.000389802
-0.000265359 -7.7074e-05 -3.43235e-05
-7.7074e-05 -9.48828e-06 -3.06877e-05
-3.43235e-05 -3.06877e-05 1.17669e-05
-0.00028763 -1.95029e-05 9.82644e-06
-1.95029e-05 -0.000449835 1.64574e-06
9.82644e-06 1.64574e-06 -0.000415416
0.00116415 7.23159e-06 -6.86237e-08
7.23159e-06 6.87142e-05 6.41654e-09
-6.86237e-08 6.41654e-09 8.04684e-06
0.00116612 7.42891e-06 9.67872e-09
7.42891e-06 6.86213e-05 1.59243e-08
9.67872e-09 1.59243e-08 6.46947e-06
0.00116376 7.01498e-06 -6.28509e-08
7.01498e-06 6.8472e-05 -5.09151e-07
-6.28509e-08 -5.09151e-07 5.65098e-06
0.00109346 -2.41986e-07 1.31795e-08
-2.41986e-07 2.45816e-05 -5.5921e-07
1.31795e-08 -5.5921e-07 -1.25192e-05
0.00111258 -2.18445e-06 -6.51862e-08
-2.18445e-06 3.82127e-05 -4.53397e-07
-6.51862e-08 -4.53397e-07 -8.9215e-06
0.00106179 4.4639e-06 -2.23876e-07
4.4639e-06 1.41757e-05 -5.67514e-07
-2.23876e-07 -5.67514e-07 -3.93993e-05
0.00116277 3.82718e-06 -1.29215e-07
3.82718e-06 6.33384e-05 -3.83906e-07
-1.29215e-07 -3.83906e-07 5.96589e-06
0.00118141 5.05958e-06 -6.17403e-08
5.05958e-06 7.26515e-05 3.01282e-07
-6.17403e-08 3.01282e-07 1.21841e-05
0.000934712 1.05766e-06 -4.64252e-10
1.05766e-06 -5.15326e-05 3.49495e-07
-4.64252e-10 3.49495e-07 -8.98046e-05
0.00115364 7.02439e-06 -1.18455e-07
7.02439e-06 5.86579e-05 -4.05981e-07
-1.18455e-07 -4.05981e-07 1.60335e-06
0.00115667 2.26642e-06 6.70082e-08
2.26642e-06 6.01565e-05 2.79976e-07
6.70082e-08 2.79976e-07 5.91553e-06
0.00108401 2.7574e-07 2.21368e-09
2.7574e-07 2.50118e-05 -2.52731e-07
2.21368e-09 -2.52731e-07 -2.35574e-05
0.00117039 4.19951e-06 2.41444e-08
4.19951e-06 6.5501e-05 1.35035e-07
2.41444e-08 1.35035e-07 4.45365e-06
0.00111018 5.64251e-06 3.06793e-08
5.64251e-06 3.61631e-05 1.08987e-07
3.06793e-08 1.08987e-07 -2.33773e-05
0.00117291 7.63674e-07 -8.07256e-09
7.63674e-07 6.53892e-05 -3.298e-07
-8.07256e-09 -3.298e-07 3.25745e-06
0.00115704 1.65665e-06 4.11054e-08
1.65665e-06 6.15629e-05 2.46704e-07
4.11054e-08 2.46704e-07 5.505e-06
0.00116236 5.87148e-07 -5.21609e-08
5.87148e-07 6.29942e-05 1.07519e-07
-5.21609e-08 1.07519e-07 1.4784e-05
0.00116775 1.7743e-06 1.66406e-08
1.7743e-06 6.55027e-05 -6.7961e-08
1.66406e-08 -6.7961e-08 1.76795e-05
0.00116303 -2.21242e-06 3.49086e-09
-2.21242e-06 6.50855e-05 -2.67699e-07
3.49086e-09 -2.67699e-07 1.03519e-05
0.00116203 8.28188e-07 -1.7878e-07
8.28188e-07 6.4697e-05 1.99661e-07
-1.7878e-07 1.99661e-07 9.34616e-06
0.00113584 -3.29753e-06 -1.68601e-07
-3.29753e-06 5.28789e-05 1.74069e-07
-1.68601e-07 1.74069e-07 -2.41788e-06
0.00115068 -3.76983e-06 -4.0296e-08
-3.76983e-06 6.15168e-05 -3.28886e-07
-4.0296e-08 -3.28886e-07 2.54761e-06
0.00112015 -5.85408e-06 -4.64601e-07
-5.85408e-06 4.57655e-05 2.4923e-07
-4.64601e-07 2.4923e-07 -1.08774e-05
0.00110267 -2.23493e-06 -2.82109e-07
-2.23493e-06 3.52633e-05 4.61665e-07
-2.82109e-07 4.61665e-07 -1.32983e-05
0.00111511 -3.33374e-06 2.34631e-09
-3.33374e-06 4.05326e-05 -1.29496e-08
2.34631e-09 -1.29496e-08 -7.38988e-06
0.00108751 1.22342e-06 -4.36032e-07
1.22342e-06 2.35162e-05 8.20336e-07
-4.36032e-07 8.20336e-07 -1.36575e-05
0.00102157 -1.20255e-06 3.27034e-07
-1.20255e-06 -5.05879e-06 -7.97772e-07
3.27034e-07 -7.97772e-07 -5.3441e-05
0.00101514 1.32326e-06 3.86834e-08
1.32326e-06 -1.18806e-05 1.08933e-08
3.86834e-08 1.08933e-08 -4.94637e-05
0.00105069 2.12006e-06 -4.97626e-07
2.12006e-06 -1.24659e-07 1.56491e-06
-4.97626e-07 1.56491e-06 -2.09759e-05
0.000935384 1.45414e-06 2.00984e-07
1.45414e-06 -5.07963e-05 -5.27531e-07
2.00984e-07 -5.27531e-07 -8.89731e-05
0.00105541 1.5431e-06 4.57503e-08
1.5431e-06 9.44518e-07 2.75036e-09
4.57503e-08 2.75036e-09 -1.972e-05
0.00155489 2.26772e-06 -8.58626e-07
2.26772e-06 0.000233951 3.85113e-06
-8.58626e-07 3.85113e-06 0.000241132
0.00105704 7.89972e-07 2.10335e-07
7.89972e-07 9.8638e-07 -1.61477e-06
2.10335e-07 -1.61477e-06 -1.94823e-05
0.00127822 1.07857e-06 -1.00008e-07
1.07857e-06 9.90398e-05 5.47118e-07
-1.00008e-07 5.47118e-07 0.00010527
0.00118609 1.11756e-06 -4.19239e-07
1.11756e-06 4.97301e-05 3.45434e-06
-4.19239e-07 3.45434e-06 7.07408e-05
0.00100375 -1.82847e-07 6.7863e-08
-1.82847e-07 -3.40234e-05 -2.78246e-06
6.7863e-08 -2.78246e-06 -2.88196e-05
0.00223936 -2.50212e-07 1.80027e-07
-2.50212e-07 0.00055989 -9.4827e-13
1.80027e-07 -9.4827e-13 0.000585907
0.00117903 -1.57726e-06 -2.77256e-07
-1.57726e-06 4.7211e-05 -3.4622e-06
-2.77256e-07 -3.4622e-06 6.82945e-05
0.001105 -1.28338e-06 -4.61343e-08
-1.28338e-06 2.85209e-05 -5.81896e-07
-4.61343e-08 -5.81896e-07 -4.19163e-06
0.00105181 8.37812e-08 2.1817e-08
8.37812e-08 -2.41466e-06 -1.69512e-06
2.1817e-08 -1.69512e-06 -1.93245e-05
0.0010551 9.85038e-07 -1.02435e-07
9.85038e-07 -2.58519e-07 -1.37751e-09
-1.02435e-07 -1.37751e-09 -1.78056e-05
0.000995741 1.27018e-06 1.81418e-07
1.27018e-06 -3.70793e-05 -2.81763e-06
1.81418e-07 -2.81763e-06 -3.02177e-05
0.00105736 1.66902e-06 -3.38371e-07
1.66902e-06 2.01903e-06 1.67878e-06
-3.38371e-07 1.67878e-06 -1.64677e-05
0.000992049 2.41004e-06 4.16935e-08
2.41004e-06 -3.78911e-05 -5.55972e-07
4.16935e-08 -5.55972e-07 -3.15889e-05
0.00220719 2.97749e-06 1.05962e-06
2.97749e-06 0.000545548 -3.54796e-06
1.05962e-06 -3.54796e-06 0.00057185
0.0014915 3.68803e-06 -7.44712e-07
3.68803e-06 0.000205555 1.68074e-06
-7.44712e-07 1.68074e-06 0.000213554
0.00171132 4.39963e-06 -2.03841e-07
4.39963e-06 0.000307796 1.0501e-06
-2.03841e-07 1.0501e-06 0.000331077
0.00120151 5.70549e-06 -2.80924e-06
5.70549e-06 6.41046e-05 5.55994e-06
-2.80924e-06 5.55994e-06 8.43574e-05
0.000588271 -2.06392e-05 1.00513e-06
-2.06392e-05 -0.000208749 1.17982e-06
1.00513e-06 1.17982e-06 -0.000225428
0.000847138 -3.30345e-06 3.58148e-07
-3.30345e-06 -4.30732e-05 -6.33687e-07
3.58148e-07 -6.33687e-07 -0.000106684
0.00106186 -8.04796e-06 3.67869e-07
-8.04796e-06 8.75982e-05 -3.70245e-06
3.67869e-07 -3.70245e-06 4.04063e-05
0.00100908 -1.00864e-05 1.28707e-05
-1.00864e-05 -0.000123272 2.23655e-06
1.28707e-05 2.23655e-06 -0.000171986
0.000691438 -4.26876e-06 -9.94634e-07
-4.26876e-06 1.38633e-05 8.69669e-07
-9.94634e-07 8.69669e-07 -2.47274e-05
0.000907249 9.69446e-06 -5.22547e-07
9.69446e-06 -1.42345e-05 -3.27992e-07
-5.22547e-07 -3.27992e-07 -8.77577e-05
0.00113881 2.00137e-05 -2.0351e-06
2.00137e-05 0.000157199 3.62377e-06
-2.0351e-06 3.62377e-06 7.60505e-05
0.00109986 -7.9498e-06 3.11727e-05
-7.9498e-06 -8.96793e-05 3.549e-06
3.11727e-05 3.549e-06 -0.000170582
0.00432757 1.17093e-05 -6.15778e-05
1.17093e-05 0.000930636 2.75111e-05
-6.15778e-05 2.75111e-05 0.000777979
0.00177454 6.86166e-05 -1.28716e-05
6.86166e-05 0.000892258 8.43308e-06
-1.28716e-05 8.43308e-06 0.00087129
0.000508253 3.54217e-05 4.3172e-06
3.54217e-05 8.83281e-05 -3.43555e-06
4.3172e-06 -3.43555e-06 0.000153109
0.000962025 2.21328e-07 9.21634e-08
2.21328e-07 -3.45709e-05 -9.04942e-07
9.21634e-08 -9.04942e-07 -7.85593e-05
0.00109738 -1.91125e-08 1.38368e-07
-1.91125e-08 2.47965e-05 7.03079e-09
1.38368e-07 7.03079e-09 -7.80836e-06
0.00109715 9.08488e-07 -1.67884e-07
9.08488e-07 2.50473e-05 1.03802e-06
-1.67884e-07 1.03802e-06 -8.58912e-06
0.00106093 3.27402e-06 6.64843e-08
3.27402e-06 1.24206e-05 8.32639e-09
6.64843e-08 8.32639e-09 -3.24418e-05
0.00118747 7.42648e-06 5.13653e-09
7.42648e-06 7.87836e-05 2.22606e-07
5.13653e-09 2.22606e-07 2.68893e-05
0.00116062 1.13848e-06 2.7605e-08
1.13848e-06 6.30255e-05 1.06239e-07
2.7605e-08 1.06239e-07 1.36976e-05
0.00114769 -2.61594e-07 5.77847e-08
-2.61594e-07 5.65354e-05 -1.08837e-06
5.77847e-08 -1.08837e-06 1.27902e-05
0.00105902 -2.71387e-06 9.72024e-08
-2.71387e-06 1.25846e-05 3.67525e-07
9.72024e-08 3.67525e-07 -3.02649e-05
0.00125127 1.40966e-05 1.1291e-06
1.40966e-05 9.78093e-05 1.0034e-06
1.1291e-06 1.0034e-06 2.48828e-05
0.00134047 3.07333e-06 2.92628e-06
3.07333e-06 0.000100697 7.42744e-07
2.92628e-06 7.42744e-07 5.75928e-05
0.00120915 -9.71338e-06 -1.93181e-07
-9.71338e-06 9.92745e-06 -1.93384e-06
-1.93181e-07 -1.93384e-06 -3.18653e-05
0.00119848 -1.18505e-05 4.97591e-07
-1.18505e-05 8.21761e-05 -2.05569e-07
4.97591e-07 -2.05569e-07 1.75958e-05
0.0011063 -1.22057e-05 3.69873e-07
-1.22057e-05 1.98233e-05 -4.26563e-07
3.69873e-07 -4.26563e-07 -4.09544e-05
0.0011688 -1.14475e-05 -4.01174e-07
-1.14475e-05 6.81398e-05 -4.46719e-07
-4.01174e-07 -4.46719e-07 1.74026e-06
0.00121819 -9.71586e-06 -1.68158e-09
-9.71586e-06 9.39196e-05 -2.13244e-07
-1.68158e-09 -2.13244e-07 2.64832e-05
0.00113901 -8.88478e-06 -5.34693e-07
-8.88478e-06 5.12229e-05 6.81037e-07
-5.34693e-07 6.81037e-07 -9.62837e-06
0.00113166 -3.45011e-06 -2.78813e-07
-3.45011e-06 4.85359e-05 6.51678e-07
-2.78813e-07 6.51678e-07 6.24423e-07
0.00124463 -6.10446e-06 -1.96407e-07
-6.10446e-06 0.000109077 2.26253e-07
-1.96407e-07 2.26253e-07 5.05295e-05
0.00127413 2.86545e-06 -3.5311e-08
2.86545e-06 0.000115932 2.6363e-07
-3.5311e-08 2.6363e-07 7.07064e-05
0.00108211 -2.33573e-06 -6.49986e-08
-2.33573e-06 2.94592e-05 8.97865e-07
-6.49986e-08 8.97865e-07 -2.31335e-05
0.00135943 1.37402e-05 4.58974e-07
1.37402e-05 0.000139697 3.59168e-07
4.58974e-07 3.59168e-07 7.9262e-05
0.00110697 1.86482e-06 -2.06888e-07
1.86482e-06 4.30735e-05 1.48782e-07
-2.06888e-07 1.48782e-07 -1.34594e-05
0.00114918 -6.80415e-06 4.92582e-08
-6.80415e-06 6.22362e-05 -2.07858e-07
4.92582e-08 -2.07858e-07 4.62554e-06
0.00128364 -7.62554e-06 -1.22772e-06
-7.62554e-06 3.64083e-05 -8.2992e-07
-1.22772e-06 -8.2992e-07 7.22672e-06
0.00117553 -1.3295e-05 7.52065e-07
-1.3295e-05 2.17312e-05 2.28518e-07
7.52065e-07 2.28518e-07 -3.3938e-05
0.001175 -1.39437e-05 -3.25033e-07
-1.39437e-05 6.71212e-05 -6.64779e-08
-3.25033e-07 -6.64779e-08 2.323e-07
0.00114697 -8.74578e-06 -4.538e-08
-8.74578e-06 6.1924e-05 -1.10653e-07
-4.538e-08 -1.10653e-07 -5.08193e-06
0.00117503 -1.09622e-05 7.12491e-08
-1.09622e-05 7.428e-05 1.62362e-07
7.12491e-08 1.62362e-07 2.42471e-06
0.00159162 -1.44238e-06 -2.45725e-06
-1.44238e-06 0.000130519 -1.42804e-06
-2.45725e-06 -1.42804e-06 0.000101166
0.00145727 -1.69459e-05 5.9533e-07
-1.69459e-05 0.000137925 2.53378e-06
5.9533e-07 2.53378e-06 9.04343e-05
0.000981964 -1.56092e-05 -4.16517e-07
-1.56092e-05 -3.9021e-05 4.38995e-07
-4.16517e-07 4.38995e-07 -0.000105951
0.00123412 -1.5399e-05 2.5039e-09
-1.5399e-05 9.77008e-05 4.43348e-07
2.5039e-09 4.43348e-07 2.2844e-05
0.00112247 -4.47303e-06 -2.66751e-08
-4.47303e-06 5.3985e-05 -5.90978e-07
-2.66751e-08 -5.90978e-07 -1.03224e-05
0.00114895 -7.96449e-06 6.27164e-08
-7.96449e-06 6.6574e-05 -4.63393e-07
6.27164e-08 -4.63393e-07 7.07647e-07
0.00130551 -9.74209e-06 1.82951e-07
-9.74209e-06 0.000143371 -8.51072e-08
1.82951e-07 -8.51072e-08 6.86743e-05
-0.00302536 1.41145e-06 -6.05536e-05
1.41145e-06 -0.000976799 -1.63637e-06
-6.05536e-05 -1.63637e-06 -0.000829589
0.00570179 7.78442e-06 -1.03061e-05
7.78442e-06 0.0017463 3.16069e-06
-1.03061e-05 3.16069e-06 0.00167424
0.00117975 7.88614e-06 1.29911e-07
7.88614e-06 7.73178e-05 9.51585e-08
1.29911e-07 9.51585e-08 1.49285e-05
0.00110908 9.74756e-06 4.52174e-07
9.74756e-06 4.22718e-05 7.2819e-08
4.52174e-07 7.2819e-08 -2.38255e-05
0.00173358 9.47046e-06 -1.85688e-06
9.47046e-06 0.000182054 6.01212e-07
-1.85688e-06 6.01212e-07 0.0001345
0.00142873 1.82352e-05 -4.27686e-07
1.82352e-05 0.000121815 1.20375e-06
-4.27686e-07 1.20375e-06 5.14727e-05
0.00111165 1.33406e-05 -1.50842e-07
1.33406e-05 4.86696e-05 -3.41863e-07
-1.50842e-07 -3.41863e-07 -2.87341e-05
0.0055464 8.44497e-06 4.26647e-05
8.44497e-06 0.00134473 1.86955e-05
4.26647e-05 1.86955e-05 0.00118984
0.00098935 6.70782e-06 -1.88873e-05
6.70782e-06 -6.00234e-05 -1.34226e-05
-1.88873e-05 -1.34226e-05 -0.00010711
0.00277085 2.4955e-05 5.53672e-06
2.4955e-05 0.000495014 7.72436e-06
5.53672e-06 7.72436e-06 0.000436293
0.00148962 -5.8115e-05 1.55457e-05
-5.8115e-05 0.000720587 8.35712e-06
1.55457e-05 8.35712e-06 0.000691527
0.000128969 -3.61087e-05 -8.608e-06
-3.61087e-05 -0.000165962 -5.86344e-06
-8.608e-06 -5.86344e-06 -9.02111e-05
0.00115416 8.14834e-06 7.11044e-08
8.14834e-06 6.85443e-05 -8.63331e-08
7.11044e-08 -8.63331e-08 4.68335e-06
-0.00257895 -7.54702e-06 -1.19071e-05
-7.54702e-06 -0.000750216 -1.1762e-06
-1.19071e-05 -1.1762e-06 -0.000655662
0.000685768 -2.44098e-05 -3.41925e-06
-2.44098e-05 0.00025593 -1.47948e-06
-3.41925e-06 -1.47948e-06 0.000298174
0.00153392 2.48833e-05 9.94177e-07
2.48833e-05 0.000109722 9.64381e-07
9.94177e-07 9.64381e-07 3.18051e-05
0.00113288 1.06049e-05 -1.36303e-07
1.06049e-05 6.98402e-05 -4.21834e-07
-1.36303e-07 -4.21834e-07 -1.54887e-06
0.00104014 1.63981e-05 -2.22841e-08
1.63981e-05 2.90004e-05 8.11422e-08
-2.22841e-08 8.11422e-08 -6.03331e-05
0.00174898 2.86725e-05 -6.61853e-06
2.86725e-05 0.00018984 -8.02842e-06
-6.61853e-06 -8.02842e-06 8.70249e-05
0.00260772 -1.87978e-06 7.33775e-06
-1.87978e-06 0.000119381 7.36714e-06
7.33775e-06 7.36714e-06 -0.000140375
0.000656542 3.07438e-05 -5.85778e-06
3.07438e-05 -0.000198183 -6.21958e-06
-5.85778e-06 -6.21958e-06 -0.000251414
0.00150305 -9.77282e-05 -1.1664e-06
-9.77282e-05 0.000363892 2.84444e-06
-1.1664e-06 2.84444e-06 0.00030958
-0.000769079 -2.29568e-05 6.04711e-07
-2.29568e-05 -0.000759547 -5.21334e-06
6.04711e-07 -5.21334e-06 -0.000705319
0.00116798 8.23625e-06 -3.00725e-07
8.23625e-06 8.33445e-05 -6.78611e-07
-3.00725e-07 -6.78611e-07 1.79657e-05
-4.01961e-05 -1.31173e-05 1.81538e-05
-1.31173e-05 -0.000145548 7.12075e-06
1.81538e-05 7.12075e-06 -0.000137251
0.000763828 -7.83655e-06 1.16222e-05
-7.83655e-06 0.000226262 1.46659e-05
1.16222e-05 1.46659e-05 0.000202413
0.00102319 2.11494e-05 2.92146e-06
2.11494e-05 2.3377e-05 3.38423e-06
2.92146e-06 3.38423e-06 -8.54031e-05
0.00123062 1.14645e-05 -2.54187e-06
1.14645e-05 0.000155168 -2.8927e-07
-2.54187e-06 -2.8927e-07 7.49694e-05
0.00248961 2.38767e-05 -4.71552e-06
2.38767e-05 0.000808452 -3.78406e-06
-4.71552e-06 -3.78406e-06 0.000716499
0.000596214 4.05115e-05 -4.77532e-06
4.05115e-05 -3.38419e-05 -4.05806e-06
-4.77532e-06 -4.05806e-06 -0.000119233
0.00352 -2.98749e-05 -1.00083e-05
-2.98749e-05 0.000481485 -5.93215e-06
-1.00083e-05 -5.93215e-06 0.000168778
0.00197999 -0.000126451 -6.26283e-06
-0.000126451 0.000332925 -1.89741e-05
-6.26283e-06 -1.89741e-05 0.00028782
4.14454e-05 -1.88e-06 5.06399e-06
-1.88e-06 -0.000245224 1.45091e-06
5.06399e-06 1.45091e-06 -0.000262269
0.00116961 7.45194e-06 6.3637e-08
7.45194e-06 7.01741e-05 4.80665e-07
6.3637e-08 4.80665e-07 7.98958e-06
0.00116719 7.15327e-06 1.71161e-08
7.15327e-06 7.00026e-05 4.05583e-08
1.71161e-08 4.05583e-08 7.15483e-06
0.00112228 2.13423e-06 1.74217e-07
2.13423e-06 5.06998e-05 -2.69243e-07
1.74217e-07 -2.69243e-07 -1.3452e-05
0.000932657 1.13678e-06 1.12491e-07
1.13678e-06 -5.25365e-05 -5.45642e-07
1.12491e-07 -5.45642e-07 -9.08069e-05
0.00116432 -2.59781e-08 4.43295e-09
-2.59781e-08 6.36745e-05 -6.88594e-07
4.43295e-09 -6.88594e-07 1.56752e-05
0.00122571 -3.93047e-08 -4.39192e-08
-3.93047e-08 9.38814e-05 2.92309e-08
-4.39192e-08 2.92309e-08 4.02556e-05
0.00112184 6.96664e-06 -2.7331e-07
6.96664e-06 4.28664e-05 -6.39526e-07
-2.7331e-07 -6.39526e-07 -1.41544e-05
0.00115642 4.00422e-06 4.57401e-09
4.00422e-06 5.85286e-05 3.39304e-07
4.57401e-09 3.39304e-07 -2.75809e-06
0.00116088 2.32988e-06 1.93665e-08
2.32988e-06 6.22877e-05 -3.40238e-07
1.93665e-08 -3.40238e-07 1.40626e-05
0.00114369 5.15059e-06 3.422e-09
5.15059e-06 5.25845e-05 1.14962e-07
3.422e-09 1.14962e-07 -6.51174e-06
0.00116145 2.08992e-06 -4.44795e-08
2.08992e-06 6.37279e-05 8.20995e-08
-4.44795e-08 8.20995e-08 7.67186e-06
0.00118827 6.84086e-07 -4.29985e-08
6.84086e-07 7.2785e-05 8.5317e-08
-4.29985e-08 8.5317e-08 1.04769e-05
0.00117818 -1.03665e-06 -1.38363e-07
-1.03665e-06 6.98775e-05 -3.7812e-07
-1.38363e-07 -3.7812e-07 6.85714e-06
0.00117155 2.35332e-06 9.09895e-08
2.35332e-06 6.61484e-05 -4.54894e-08
9.09895e-08 -4.54894e-08 5.04583e-06
0.0011657 1.94007e-06 -3.90086e-08
1.94007e-06 6.59815e-05 2.1397e-07
-3.90086e-08 2.1397e-07 9.82048e-06
0.0011638 1.54964e-06 1.56676e-07
1.54964e-06 6.36989e-05 -5.33152e-07
1.56676e-07 -5.33152e-07 1.58651e-05
0.00108995 -4.6791e-06 2.79785e-07
-4.6791e-06 2.96263e-05 -5.43711e-07
2.79785e-07 -5.43711e-07 -2.56466e-05
0.00116632 1.25786e-06 1.46248e-08
1.25786e-06 6.64588e-05 -6.53136e-08
1.46248e-08 -6.53136e-08 1.10813e-05
0.00113765 -3.89043e-06 -2.22227e-08
-3.89043e-06 5.36456e-05 2.02997e-08
-2.22227e-08 2.02997e-08 -1.6962e-06
0.00113289 -5.39552e-06 1.39151e-07
-5.39552e-06 5.29343e-05 -3.44896e-07
1.39151e-07 -3.44896e-07 -5.78211e-06
0.00111973 -3.33422e-06 -2.13273e-07
-3.33422e-06 4.6858e-05 4.47219e-07
-2.13273e-07 4.47219e-07 -9.58095e-06
0.00117552 -2.77624e-06 -1.92352e-07
-2.77624e-06 7.29954e-05 -2.12154e-07
-1.92352e-07 -2.12154e-07 1.26231e-05
0.00106771 -7.1329e-06 5.2022e-08
-7.1329e-06 2.19865e-05 -8.96228e-08
5.2022e-08 -8.96228e-08 -3.87704e-05
0.00114158 -7.24198e-06 -1.2621e-07
-7.24198e-06 5.28815e-05 -5.51858e-07
-1.2621e-07 -5.51858e-07 -6.95529e-06
0.00107362 -8.53522e-06 6.30431e-08
-8.53522e-06 2.44915e-05 -2.88586e-07
6.30431e-08 -2.88586e-07 -3.26625e-05
0.0010657 -6.97278e-06 -3.48009e-07
-6.97278e-06 1.79425e-05 -3.17301e-07
-3.48009e-07 -3.17301e-07 -3.77557e-05
0.00112661 -5.37135e-06 -1.74975e-07
-5.37135e-06 4.86477e-05 2.05962e-07
-1.74975e-07 2.05962e-07 -7.95366e-06
0.00110969 -2.14218e-06 -5.52022e-07
-2.14218e-06 3.89579e-05 7.05462e-07
-5.52022e-07 7.05462e-07 -1.00434e-05
0.00111171 -2.52343e-06 4.49004e-09
-2.52343e-06 3.96204e-05 -1.93195e-08
4.49004e-09 -1.93195e-08 -9.00788e-06
0.00108211 1.49947e-06 -5.37243e-07
1.49947e-06 2.17198e-05 8.22321e-07
-5.37243e-07 8.22321e-07 -1.56427e-05
0.00112067 -3.29048e-06 2.62797e-07
-3.29048e-06 4.32425e-05 -4.28449e-07
2.62797e-07 -4.28449e-07 -4.71042e-06
0.00108798 1.2523e-06 2.71411e-08
1.2523e-06 2.37269e-05 4.9036e-10
2.71411e-08 4.9036e-10 -1.34644e-05
0.00104525 2.6047e-06 -7.03562e-07
2.6047e-06 -1.40165e-06 1.51493e-06
-7.03562e-07 1.51493e-06 -2.23621e-05
0.000937932 1.23407e-06 3.81376e-07
1.23407e-06 -4.91226e-05 -8.4361e-07
3.81376e-07 -8.4361e-07 -8.71559e-05
0.00105283 2.11362e-06 5.39542e-08
2.11362e-06 8.56366e-07 4.4212e-09
5.39542e-08 4.4212e-09 -1.99902e-05
0.00155383 3.41443e-06 -1.34314e-06
3.41443e-06 0.000235105 3.81388e-06
-1.34314e-06 3.81388e-06 0.000241982
0.00105596 1.53616e-06 3.9573e-07
1.53616e-06 1.17306e-06 -1.58562e-06
3.9573e-07 -1.58562e-06 -1.94778e-05
0.00127517 2.29769e-06 -1.90797e-07
2.29769e-06 9.85769e-05 5.48012e-07
-1.90797e-07 5.48012e-07 0.000104557
0.00114086 2.71506e-06 -3.75407e-07
2.71506e-06 2.88616e-05 1.34213e-06
-3.75407e-07 1.34213e-06 4.98732e-05
0.00100408 1.05281e-06 3.34469e-07
1.05281e-06 -3.3772e-05 -2.76991e-06
3.34469e-07 -2.76991e-06 -2.87318e-05
0.00224803 1.26697e-06 1.77668e-07
1.26697e-06 0.000564091 3.22611e-09
1.77668e-07 3.22611e-09 0.000590034
0.00223682 -1.83907e-07 2.37228e-07
-1.83907e-07 0.00055866 -3.55377e-06
2.37228e-07 -3.55377e-06 0.00058468
0.00131406 -1.14234e-06 -1.28216e-07
-1.14234e-06 0.000130901 -7.50374e-07
-1.28216e-07 -7.50374e-07 9.86835e-05
0.00105994 -8.08729e-07 -2.11292e-07
-8.08729e-07 1.6996e-06 -1.70716e-06
-2.11292e-07 -1.70716e-06 -1.53761e-05
0.00109657 -1.29664e-06 -7.00653e-08
-1.29664e-06 2.44769e-05 3.43598e-07
-7.00653e-08 3.43598e-07 -8.21365e-06
0.000998808 4.68444e-08 -3.37082e-08
4.68444e-08 -3.59659e-05 -2.82341e-06
-3.37082e-08 -2.82341e-06 -2.88433e-05
0.0010552 8.40639e-08 3.65264e-08
8.40639e-08 -7.55843e-07 5.68409e-09
3.65264e-08 5.68409e-09 -1.7697e-05
0.00106009 9.72492e-07 -2.30033e-07
9.72492e-07 2.15334e-06 1.69752e-06
-2.30033e-07 1.69752e-06 -1.54355e-05
0.00100037 1.26502e-06 -7.7072e-08
1.26502e-06 -3.48131e-05 2.40699e-09
-7.7072e-08 2.40699e-09 -2.79987e-05
0.00219006 1.49529e-06 4.20084e-07
1.49529e-06 0.000536231 -3.55575e-06
4.20084e-07 -3.55575e-06 0.00056286
0.00149572 2.51972e-06 -4.73568e-07
2.51972e-06 0.000205971 1.73573e-06
-4.73568e-07 1.73573e-06 0.00021462
0.00168805 2.97626e-06 1.38406e-07
2.97626e-06 0.000294442 3.60472e-09
1.38406e-07 3.60472e-09 0.000318351
0.00122474 4.2626e-06 -2.2372e-06
4.2626e-06 7.22136e-05 5.65305e-06
-2.2372e-06 5.65305e-06 9.2989e-05
-0.00491592 3.35271e-05 -2.99628e-05
3.35271e-05 -0.0021015 1.35267e-05
-2.99628e-05 1.35267e-05 -0.00199383
-0.00159122 3.11083e-05 1.25175e-05
3.11083e-05 -0.00113857 -5.79638e-06
1.25175e-05 -5.79638e-06 -0.00111066
0.000869635 -3.53769e-06 -2.16739e-05
-3.53769e-06 -2.03128e-05 -5.11917e-06
-2.16739e-05 -5.11917e-06 -6.4357e-05
0.000406789 -5.13095e-06 1.32109e-06
-5.13095e-06 -0.000113942 -9.37895e-07
1.32109e-06 -9.37895e-07 -0.000152796
0.000960628 9.32986e-06 -1.25959e-06
9.32986e-06 -3.42917e-06 -2.2175e-06
-1.25959e-06 -2.2175e-06 -7.93312e-05
0.00107171 -6.66296e-08 5.74799e-06
-6.66296e-08 0.000196745 -7.63168e-08
5.74799e-06 -7.63168e-08 0.000147159
0.00119068 2.02731e-05 1.43868e-07
2.02731e-05 0.000156399 1.86817e-06
1.43868e-07 1.86817e-06 7.78099e-05
0.00281866 4.46347e-06 -2.02198e-05
4.46347e-06 0.000476814 8.75401e-06
-2.02198e-05 8.75401e-06 0.000387435
-0.00190033 4.6666e-05 1.58024e-05
4.6666e-05 -0.000654927 -6.44061e-06
1.58024e-05 -6.44061e-06 -0.000615097
0.000280447 3.60807e-05 -3.85863e-06
3.60807e-05 -5.73334e-05 3.48079e-06
-3.85863e-06 3.48079e-06 9.97932e-06
0.00141081 -5.12479e-06 1.08848e-05
-5.12479e-06 0.000266449 -7.40745e-06
1.08848e-05 -7.40745e-06 0.000193634
0.00384287 2.86849e-05 -5.37716e-05
2.86849e-05 0.000896978 3.19735e-05
-5.37716e-05 3.19735e-05 0.000682721
-0.000500164 7.61236e-05 -2.70232e-05
7.61236e-05 -9.68706e-05 3.38884e-05
-2.70232e-05 3.38884e-05 -7.20384e-05
0.00122163 2.17723e-05 6.99014e-06
2.17723e-05 0.000474885 -5.38175e-06
6.99014e-06 -5.38175e-06 0.000522054
0.00104874 1.05936e-06 6.62134e-08
1.05936e-06 1.44562e-05 -8.22411e-07
6.62134e-08 -8.22411e-07 -3.98649e-05
0.00104772 2.06475e-07 3.58346e-09
2.06475e-07 6.53289e-06 -3.35621e-07
3.58346e-09 -3.35621e-07 -3.7005e-05
0.00109583 3.81561e-08 1.95192e-07
3.81561e-08 2.40658e-05 9.97759e-07
1.95192e-07 9.97759e-07 -8.57089e-06
0.00103014 2.70282e-06 -3.66698e-08
2.70282e-06 -2.25302e-06 4.66127e-07
-3.66698e-08 4.66127e-07 -4.72771e-05
0.00114577 7.17037e-06 1.43035e-07
7.17037e-06 5.85578e-05 6.55302e-07
1.43035e-07 6.55302e-07 7.64608e-06
0.00119595 2.26215e-06 8.3553e-08
2.26215e-06 8.22904e-05 -4.06487e-07
8.3553e-08 -4.06487e-07 3.03893e-05
0.00113114 -1.85746e-07 3.54853e-08
-1.85746e-07 4.8872e-05 7.78232e-07
3.54853e-08 7.78232e-07 9.4411e-08
0.00113858 4.21487e-07 -6.1767e-08
4.21487e-07 5.3907e-05 -2.31623e-07
-6.1767e-08 -2.31623e-07 7.49689e-06
0.00107974 -8.74082e-07 -3.24375e-08
-8.74082e-07 2.37531e-05 -3.90547e-07
-3.24375e-08 -3.90547e-07 -2.05576e-05
0.00102694 -3.84519e-06 -7.18642e-08
-3.84519e-06 -2.40323e-06 9.50875e-07
-7.18642e-08 9.50875e-07 -4.58082e-05
0.00144616 1.39163e-05 2.74372e-06
1.39163e-05 0.00017991 2.64501e-06
2.74372e-06 2.64501e-06 0.000119143
0.00122737 -7.66276e-06 -1.64026e-07
-7.66276e-06 1.19157e-05 -1.30825e-06
-1.64026e-07 -1.30825e-06 -1.76927e-05
0.0010817 -1.30491e-05 2.61949e-07
-1.30491e-05 -2.07775e-05 -1.34286e-06
2.61949e-07 -1.34286e-06 -7.54504e-05
0.00115926 -1.39069e-05 1.37592e-07
-1.39069e-05 5.72591e-05 -1.68761e-07
1.37592e-07 -1.68761e-07 -1.04356e-05
0.00114395 -1.08859e-05 -2.52222e-07
-1.08859e-05 5.87594e-05 -3.10584e-07
-2.52222e-07 -3.10584e-07 -1.26537e-05
0.00115711 -8.68828e-06 -1.38731e-07
-8.68828e-06 6.72111e-05 -3.27201e-08
-1.38731e-07 -3.27201e-08 3.80978e-07
0.00120961 -7.56324e-06 8.74307e-08
-7.56324e-06 9.2059e-05 2.35986e-08
8.74307e-08 2.35986e-08 3.47788e-05
0.00112305 1.21716e-06 -8.65009e-08
1.21716e-06 5.04064e-05 5.96127e-07
-8.65009e-08 5.96127e-07 -5.90167e-06
0.00152054 -1.88452e-06 -8.08781e-07
-1.88452e-06 0.000106516 -9.10102e-07
-8.08781e-07 -9.10102e-07 7.43609e-05
0.00109906 -1.95133e-06 1.81187e-08
-1.95133e-06 4.36491e-05 -1.89147e-07
1.81187e-08 -1.89147e-07 -2.12129e-05
0.00111067 -7.88336e-06 5.93815e-08
-7.88336e-06 4.81956e-05 -3.05459e-07
5.93815e-08 -3.05459e-07 -1.83417e-05
0.00123899 -1.58137e-05 2.16793e-07
-1.58137e-05 3.66706e-05 7.67862e-07
2.16793e-07 7.67862e-07 -7.54052e-06
0.00112137 -1.63478e-05 -4.53245e-07
-1.63478e-05 2.07916e-05 -2.97924e-07
-4.53245e-07 -2.97924e-07 -4.7882e-05
0.00118153 -1.50974e-05 -4.94113e-08
-1.50974e-05 7.27271e-05 -5.65237e-08
-4.94113e-08 -5.65237e-08 -2.27015e-06
0.0012387 -9.47314e-06 1.02444e-07
-9.47314e-06 0.000110613 -1.32914e-07
1.02444e-07 -1.32914e-07 3.56107e-05
0.00200707 -2.16449e-05 -8.46503e-07
-2.16449e-05 0.00023193 2.51162e-06
-8.46503e-07 2.51162e-06 0.000205877
0.00117707 -1.95733e-05 4.70903e-07
-1.95733e-05 6.90867e-05 1.07097e-06
4.70903e-07 1.07097e-06 -6.57439e-06
0.00121112 -1.18848e-05 2.05197e-07
-1.18848e-05 9.38946e-05 3.62795e-07
2.05197e-07 3.62795e-07 1.21844e-05
0.00109222 9.49161e-07 -5.50766e-08
9.49161e-07 4.0263e-05 3.36668e-07
-5.50766e-08 3.36668e-07 -2.45833e-05
0.00118593 -4.61949e-06 -8.41899e-08
-4.61949e-06 8.72773e-05 2.60954e-08
-8.41899e-08 2.60954e-08 1.74278e-05
0.00119848 -7.19726e-06 -1.27741e-07
-7.19726e-06 9.26163e-05 2.84496e-07
-1.27741e-07 2.84496e-07 1.92168e-05
0.000802621 -2.99974e-06 1.67528e-05
-2.99974e-06 0.000338783 6.99332e-07
1.67528e-05 6.99332e-07 0.000328841
0.00116361 4.0547e-06 1.25029e-06
4.0547e-06 0.000546287 -4.75191e-06
1.25029e-06 -4.75191e-06 0.000609751
-0.000518944 1.68567e-05 2.55071e-05
1.68567e-05 -0.00112165 6.40479e-06
2.55071e-05 6.40479e-06 -0.00115783
0.00112571 8.00369e-06 3.54284e-07
8.00369e-06 5.52116e-05 3.26322e-07
3.54284e-07 3.26322e-07 -8.59861e-06
0.00104923 1.01628e-05 8.21318e-07
1.01628e-05 3.03709e-05 -3.69317e-07
8.21318e-07 -3.69317e-07 -4.0398e-05
0.00183574 2.51361e-05 -1.06311e-06
2.51361e-05 0.000246066 6.53176e-07
-1.06311e-06 6.53176e-07 0.000168818
0.000809842 1.56986e-05 1.41451e-06
1.56986e-05 -7.40089e-05 2.97163e-07
1.41451e-06 2.97163e-07 -0.000161649
0.00189222 -2.97092e-05 1.91583e-05
-2.97092e-05 0.000960675 4.69009e-06
1.91583e-05 4.69009e-06 0.00101522
0.000117142 -1.64367e-05 7.80758e-05
-1.64367e-05 -0.000603708 4.95978e-05
7.80758e-05 4.95978e-05 -0.000749278
0.00205353 3.73692e-05 -4.84592e-05
3.73692e-05 9.84982e-05 -3.95353e-05
-4.84592e-05 -3.95353e-05 -7.97766e-06
0.00187238 3.02044e-05 1.07946e-06
3.02044e-05 0.000257672 1.16433e-06
1.07946e-06 1.16433e-06 0.000152964
-0.00208401 -7.79227e-05 2.76705e-05
-7.79227e-05 -0.00109511 3.47567e-05
2.76705e-05 3.47567e-05 -0.00107127
0.00174483 -2.19668e-05 -1.39484e-05
-2.19668e-05 0.000901487 -8.50651e-06
-1.39484e-05 -8.50651e-06 0.000942406
0.000466291 -2.89897e-05 -1.59469e-05
-2.89897e-05 -6.88737e-07 -1.39289e-05
-1.59469e-05 -1.39289e-05 4.7211e-05
0.00114894 8.1521e-06 1.23009e-07
8.1521e-06 7.5365e-05 -1.55896e-07
1.23009e-07 -1.55896e-07 9.94298e-06
0.000623313 -1.28052e-05 6.95045e-06
-1.28052e-05 0.000248942 1.77571e-06
6.95045e-06 1.77571e-06 0.000253927
0.00051174 -8.59946e-06 2.38958e-06
-8.59946e-06 7.51587e-05 3.04978e-06
2.38958e-06 3.04978e-06 5.24223e-05
0.000980484 2.25854e-05 1.71505e-06
2.25854e-05 -2.74029e-06 1.87024e-06
1.71505e-06 1.87024e-06 -0.000110624
0.00107181 1.0618e-05 -9.40458e-08
1.0618e-05 7.99494e-05 1.81973e-07
-9.40458e-08 1.81973e-07 -1.28708e-07
0.00197416 2.17551e-05 4.32977e-06
2.17551e-05 0.000496681 3.36007e-06
4.32977e-06 3.36007e-06 0.000384969
0.00109888 4.81782e-05 -6.77486e-06
4.81782e-05 -9.66076e-05 -2.23855e-05
-6.77486e-06 -2.23855e-05 -0.000275728
0.00486231 -6.77289e-05 8.67108e-06
-6.77289e-05 0.00112382 2.29997e-06
8.67108e-06 2.29997e-06 0.000817971
-0.000430236 -9.79176e-05 3.09669e-06
-9.79176e-05 -0.000474735 1.16465e-05
3.09669e-06 1.16465e-05 -0.000477347
0.000442704 -4.91223e-06 -1.91047e-06
-4.91223e-06 -1.69116e-05 -7.06494e-07
-1.91047e-06 -7.06494e-07 -2.60767e-05
0.000974722 5.18912e-06 -2.31478e-08
5.18912e-06 1.37689e-05 -2.52693e-07
-2.31478e-08 -2.52693e-07 -5.55149e-05
0.00167482 -2.95911e-06 1.25003e-05
-2.95911e-06 0.000804236 6.32452e-06
1.25003e-05 6.32452e-06 0.000747995
0.000798584 7.68061e-06 7.2242e-06
7.68061e-06 0.000189508 3.56457e-06
7.2242e-06 3.56457e-06 0.000134421
0.000712468 5.91507e-06 -4.50311e-07
5.91507e-06 -1.35136e-05 2.38363e-06
-4.50311e-07 2.38363e-06 -9.88047e-05
-0.000488948 2.87235e-05 9.01031e-06
2.87235e-05 -0.000360679 1.49165e-05
9.01031e-06 1.49165e-05 -0.000478545
0.00595925 -8.82136e-05 -2.79086e-05
-8.82136e-05 0.00147986 -3.54138e-05
-2.79086e-05 -3.54138e-05 0.00117235
-0.000253139 -7.06226e-05 4.96031e-07
-7.06226e-05 -0.00102942 -2.81237e-05
4.96031e-07 -2.81237e-05 -0.000847786
0.000116389 3.75034e-06 -1.80226e-06
3.75034e-06 -0.000202517 -2.9179e-07
-1.80226e-06 -2.9179e-07 -0.000234867
0.00116815 7.48719e-06 -1.78299e-08
7.48719e-06 7.03299e-05 5.1974e-07
-1.78299e-08 5.1974e-07 7.46227e-06
0.001185 2.47135e-06 -8.35487e-08
2.47135e-06 8.01395e-05 2.33374e-07
-8.35487e-08 2.33374e-07 1.60228e-05
0.00115597 -3.5624e-06 -2.64278e-07
-3.5624e-06 6.29522e-05 -3.21625e-07
-2.64278e-07 -3.21625e-07 -3.09711e-06
0.00115922 4.10796e-06 6.40023e-08
4.10796e-06 6.15009e-05 -7.89113e-07
6.40023e-08 -7.89113e-07 1.32603e-05
0.00116546 3.02818e-06 -1.31958e-08
3.02818e-06 6.5709e-05 -6.85028e-08
-1.31958e-08 -6.85028e-08 9.65121e-06
0.00117698 4.6712e-06 -8.66677e-08
4.6712e-06 6.88886e-05 7.83864e-08
-8.66677e-08 7.83864e-08 1.0237e-05
0.00120257 5.02639e-07 -2.96547e-08
5.02639e-07 7.96773e-05 3.67762e-07
-2.96547e-08 3.67762e-07 1.7196e-05
0.00116646 3.70096e-06 7.165e-10
3.70096e-06 6.62599e-05 6.02688e-09
7.165e-10 6.02688e-09 1.00877e-05
0.00118799 3.60795e-06 2.44086e-08
3.60795e-06 7.40334e-05 1.59237e-07
2.44086e-08 1.59237e-07 1.28214e-05
0.00116992 -1.18342e-06 -9.26505e-08
-1.18342e-06 6.5987e-05 -4.33234e-09
-9.26505e-08 -4.33234e-09 3.01881e-06
0.00114657 -2.67957e-06 -3.06414e-07
-2.67957e-06 6.21333e-05 -5.04648e-07
-3.06414e-07 -5.04648e-07 -3.91367e-07
0.00115596 2.38105e-06 2.2747e-07
2.38105e-06 5.85788e-05 -4.04608e-07
2.2747e-07 -4.04608e-07 -5.47496e-06
0.00120996 2.68075e-06 -3.7371e-08
2.68075e-06 8.73729e-05 -4.07765e-08
-3.7371e-08 -4.07765e-08 2.59545e-05
0.00117041 1.5921e-06 9.62212e-08
1.5921e-06 6.81293e-05 -3.18838e-07
9.62212e-08 -3.18838e-07 1.27255e-05
0.00114019 -4.10644e-06 1.84232e-07
-4.10644e-06 5.47627e-05 -2.42806e-07
1.84232e-07 -2.42806e-07 -6.23924e-07
0.00111236 -7.00076e-06 2.24689e-07
-7.00076e-06 4.30928e-05 -4.82602e-07
2.24689e-07 -4.82602e-07 -1.53695e-05
0.00118763 -2.57208e-06 6.54811e-08
-2.57208e-06 7.83157e-05 -1.40232e-07
6.54811e-08 -1.40232e-07 1.82686e-05
0.00112774 -2.76879e-06 -4.44814e-08
-2.76879e-06 5.06998e-05 1.46745e-07
-4.44814e-08 1.46745e-07 -5.73074e-06
0.00109752 -7.17976e-06 2.08931e-08
-7.17976e-06 3.59438e-05 -1.40317e-07
2.08931e-08 -1.40317e-07 -2.46113e-05
0.00112853 -6.71739e-06 -3.69814e-07
-6.71739e-06 4.96644e-05 -1.47345e-07
-3.69814e-07 -1.47345e-07 -1.19025e-05
0.00113794 -7.59467e-06 8.46094e-08
-7.59467e-06 5.92515e-05 -2.19178e-07
8.46094e-08 -2.19178e-07 -4.2042e-06
0.00116236 -9.07762e-06 9.33685e-08
-9.07762e-06 6.32415e-05 -4.50612e-07
9.33685e-08 -4.50612e-07 7.51554e-07
0.00114595 -7.16443e-06 -1.63182e-07
-7.16443e-06 5.48221e-05 -4.45536e-08
-1.63182e-07 -4.45536e-08 -5.10985e-06
0.00109851 -9.11838e-06 -5.56694e-08
-9.11838e-06 3.31468e-05 -8.84362e-09
-5.56694e-08 -8.84362e-09 -2.62884e-05
0.00113941 -9.51108e-06 -2.58631e-07
-9.51108e-06 5.37161e-05 5.77016e-07
-2.58631e-07 5.77016e-07 -5.28519e-06
0.00121296 -6.95499e-06 -1.70999e-07
-6.95499e-06 8.88158e-05 -4.07218e-07
-1.70999e-07 -4.07218e-07 3.64223e-05
0.00109284 -8.70747e-06 2.30026e-07
-8.70747e-06 3.35991e-05 -5.17561e-07
2.30026e-07 -5.17561e-07 -2.28565e-05
0.00113662 -7.08126e-06 1.78172e-07
-7.08126e-06 5.20966e-05 -1.75141e-07
1.78172e-07 -1.75141e-07 -3.1186e-06
0.00102182 -1.87599e-06 -5.59603e-07
-1.87599e-06 -3.73709e-06 3.19035e-07
-5.59603e-07 3.19035e-07 -5.2812e-05
0.00113364 -5.00872e-06 8.02366e-08
-5.00872e-06 5.18004e-05 2.06557e-07
8.02366e-08 2.06557e-07 -4.76131e-06
0.00111073 -2.29657e-06 -9.50387e-08
-2.29657e-06 3.94303e-05 2.62215e-07
-9.50387e-08 2.62215e-07 -9.55758e-06
0.00108351 2.54579e-06 -6.60782e-07
2.54579e-06 2.37151e-05 8.28853e-07
-6.60782e-07 8.28853e-07 -1.39092e-05
0.001121 -2.789e-06 2.92249e-07
-2.789e-06 4.4087e-05 -4.79807e-07
2.92249e-07 -4.79807e-07 -4.60765e-06
0.00108619 1.6007e-06 2.90527e-08
1.6007e-06 2.3714e-05 -4.53745e-09
2.90527e-08 -4.53745e-09 -1.36973e-05
0.00104107 3.18122e-06 -8.97463e-07
3.18122e-06 -1.75772e-06 1.46156e-06
-8.97463e-07 1.46156e-06 -2.27734e-05
0.00108832 1.26117e-06 4.90755e-07
1.26117e-06 2.38761e-05 -8.36435e-07
4.90755e-07 -8.36435e-07 -1.33325e-05
0.00104951 2.59928e-06 5.29556e-08
2.59928e-06 5.85432e-07 8.83519e-09
5.29556e-08 8.83519e-09 -2.03874e-05
0.00155211 4.51411e-06 -1.8189e-06
4.51411e-06 0.000236462 3.74571e-06
-1.8189e-06 3.74571e-06 0.000243042
0.00105489 2.10771e-06 6.00543e-07
2.10771e-06 1.79541e-06 -1.54622e-06
6.00543e-07 -1.54622e-06 -1.90461e-05
0.00127208 3.43345e-06 -2.70432e-07
3.43345e-06 9.8796e-05 5.51515e-07
-2.70432e-07 5.51515e-07 0.000104481
0.00114081 4.15545e-06 -5.76481e-07
4.15545e-06 3.07036e-05 1.32355e-06
-5.76481e-07 1.32355e-06 5.139e-05
0.00100238 2.23822e-06 6.17358e-07
2.23822e-06 -3.36396e-05 -2.74734e-06
6.17358e-07 -2.74734e-06 -2.88479e-05
0.00170168 2.77379e-06 4.85565e-07
2.77379e-06 0.000300374 -1.09116e-06
4.85565e-07 -1.09116e-06 0.000323752
0.00224108 1.3704e-06 8.05461e-07
1.3704e-06 0.000560949 -3.54842e-06
8.05461e-07 -3.54842e-06 0.000586882
0.00115458 -1.95783e-06 -1.81235e-07
-1.95783e-06 5.68827e-05 -7.66423e-07
-1.81235e-07 -7.66423e-07 2.22212e-05
0.00105946 -1.39751e-06 -3.88514e-07
-1.39751e-06 2.34908e-06 -1.68227e-06
-3.88514e-07 -1.68227e-06 -1.52108e-05
0.00112337 -1.26574e-06 6.70731e-08
-1.26574e-06 3.92245e-05 1.8991e-07
6.70731e-08 1.8991e-07 5.91801e-06
0.00100297 -1.12562e-06 -3.50343e-07
-1.12562e-06 -3.36861e-05 -2.81404e-06
-3.50343e-07 -2.81404e-06 -2.66978e-05
0.00105512 -8.12509e-07 -8.26972e-08
-8.12509e-07 -6.4154e-07 3.12111e-10
-8.26972e-08 3.12111e-10 -1.76754e-05
0.00108884 -1.32164e-06 -9.14575e-08
-1.32164e-06 2.07846e-05 1.34245e-06
-9.14575e-08 1.34245e-06 -1.18882e-05
0.00218179 -1.20632e-08 -1.52348e-07
-1.20632e-08 0.000531942 -3.56779e-06
-1.52348e-07 -3.56779e-06 0.000558682
0.000999917 4.93895e-08 -3.77065e-08
4.93895e-08 -3.54115e-05 -2.72096e-10
-3.77065e-08 -2.72096e-10 -2.83047e-05
0.00105808 8.48325e-08 5.4237e-08
8.48325e-08 6.52045e-07 1.70552e-06
5.4237e-08 1.70552e-06 -1.63181e-05
0.00100493 1.26027e-06 -3.41182e-07
1.26027e-06 -3.25823e-05 2.81756e-06
-3.41182e-07 2.81756e-06 -2.58137e-05
0.00218735 1.53801e-06 -2.02819e-07
1.53801e-06 0.000535043 -3.80028e-09
-2.02819e-07 -3.80028e-09 0.000561644
0.00220254 3.0006e-06 -1.3808e-06
3.0006e-06 0.000543514 3.54324e-06
-1.3808e-06 3.54324e-06 0.00056978
-0.00148361 1.907e-05 1.36049e-05
1.907e-05 -0.00105432 -3.92348e-06
1.36049e-05 -3.92348e-06 -0.0010587
-0.00137113 2.35206e-05 2.45902e-05
2.35206e-05 -0.000411075 -6.33805e-06
2.45902e-05 -6.33805e-06 -0.000341392
0.000374365 8.15246e-06 1.77407e-05
8.15246e-06 -1.13287e-05 -8.16238e-06
1.77407e-05 -8.16238e-06 -3.08751e-05
-0.00101648 3.29077e-05 -3.55034e-06
3.29077e-05 -0.000790906 7.67132e-07
-3.55034e-06 7.67132e-07 -0.000757911
-0.000218323 4.09788e-06 -1.73007e-05
4.09788e-06 -0.000674753 -3.56121e-06
-1.73007e-05 -3.56121e-06 -0.000747482
0.00115953 2.01872e-05 2.3971e-06
2.01872e-05 0.000119681 2.77726e-07
2.3971e-06 2.77726e-07 4.35873e-05
0.000882068 -2.33627e-06 1.16653e-05
-2.33627e-06 -8.16159e-05 -2.40407e-06
1.16653e-05 -2.40407e-06 -0.000142796
0.00147361 5.49741e-05 6.56604e-05
5.49741e-05 0.000719211 -3.27032e-05
6.56604e-05 -3.27032e-05 0.000694542
0.000131559 3.62745e-05 -1.01687e-05
3.62745e-05 -0.000150742 5.34674e-06
-1.01687e-05 5.34674e-06 -8.1456e-05
0.0011665 6.27866e-07 -3.80187e-07
6.27866e-07 3.28833e-05 2.07193e-07
-3.80187e-07 2.07193e-07 -4.03771e-05
0.00140862 4.26047e-06 -3.40556e-06
4.26047e-06 -0.000230293 2.46203e-06
-3.40556e-06 2.46203e-06 -0.000452995
0.0016971 9.93884e-05 5.29958e-07
9.93884e-05 0.000491746 2.77342e-06
5.29958e-07 2.77342e-06 0.000443302
0.000511995 1.64051e-05 -3.29044e-06
1.64051e-05 3.74037e-05 4.03032e-07
-3.29044e-06 4.03032e-07 9.82924e-05
0.000399198 -2.81541e-05 5.32231e-06
-2.81541e-05 -0.000272626 -5.34587e-06
5.32231e-06 -5.34587e-06 -0.000348304
0.00174694 4.04818e-05 -1.11228e-05
4.04818e-05 -0.000268217 1.7011e-05
-1.11228e-05 1.7011e-05 -0.000661841
-0.000138785 9.78509e-05 -7.09784e-06
9.78509e-05 -0.000367529 4.18089e-05
-7.09784e-06 4.18089e-05 -0.00035894
7.35241e-05 8.05149e-07 1.04691e-05
8.05149e-07 -0.000214705 -2.60515e-07
1.04691e-05 -2.60515e-07 -0.000226075
0.00115329 -2.81126e-06 -5.10877e-09
-2.81126e-06 6.5944e-05 -4.88581e-07
-5.10877e-09 -4.88581e-07 6.48286e-06
0.00112839 2.0989e-06 -1.37168e-07
2.0989e-06 5.19344e-05 -1.63627e-07
-1.37168e-07 -1.63627e-07 -1.46159e-06
0.00113458 1.85185e-07 1.34301e-07
1.85185e-07 4.82163e-05 2.8094e-07
1.34301e-07 2.8094e-07 5.12244e-06
0.00110536 6.92906e-06 1.03128e-08
6.92906e-06 3.89764e-05 9.29138e-07
1.03128e-08 9.29138e-07 -1.09597e-05
0.0011046 3.01635e-06 -8.77296e-08
3.01635e-06 3.85979e-05 -1.05551e-07
-8.77296e-08 -1.05551e-07 -1.68438e-05
0.00121717 2.09504e-06 5.39641e-09
2.09504e-06 9.17681e-05 2.91294e-07
5.39641e-09 2.91294e-07 4.04087e-05
0.00110305 -1.1255e-06 -1.19934e-07
-1.1255e-06 3.53746e-05 1.47348e-06
-1.19934e-07 1.47348e-06 -1.28552e-05
0.00124544 2.81215e-06 -2.25126e-07
2.81215e-06 0.000106114 -4.3114e-07
-2.25126e-07 -4.3114e-07 5.911e-05
0.00120499 1.32541e-06 5.34094e-08
1.32541e-06 8.56239e-05 3.5183e-07
5.34094e-08 3.5183e-07 3.9758e-05
0.00101222 -1.05889e-06 1.0998e-09
-1.05889e-06 -8.81007e-06 2.72354e-07
1.0998e-09 2.72354e-07 -5.36931e-05
0.00150852 -2.41166e-06 2.80452e-07
-2.41166e-06 0.000110736 7.09554e-07
2.80452e-07 7.09554e-07 7.56044e-05
0.00101465 -1.4639e-05 -3.72326e-07
-1.4639e-05 -6.74267e-05 -8.01431e-07
-3.72326e-07 -8.01431e-07 -0.000108373
0.00129016 -1.72032e-05 -2.45829e-07
-1.72032e-05 9.39813e-05 -1.97316e-07
-2.45829e-07 -1.97316e-07 2.3552e-05
0.00113387 -1.4816e-05 -6.5621e-07
-1.4816e-05 5.00271e-05 -2.65848e-07
-6.5621e-07 -2.65848e-07 -2.51031e-05
0.00117241 -9.2008e-06 1.4625e-07
-9.2008e-06 7.8183e-05 -2.4571e-07
1.4625e-07 -2.4571e-07 2.86637e-06
0.00107123 -7.7993e-06 5.19017e-08
-7.7993e-06 2.92946e-05 -2.63302e-07
5.19017e-08 -2.63302e-07 -3.79145e-05
0.00107584 1.91574e-07 -1.17207e-07
1.91574e-07 3.34077e-05 6.70553e-08
-1.17207e-07 6.70553e-08 -3.20114e-05
0.00111462 -3.24704e-06 8.37248e-08
-3.24704e-06 5.12548e-05 4.92906e-07
8.37248e-08 4.92906e-07 -1.3807e-05
0.00155449 -2.10558e-05 -2.17228e-08
-2.10558e-05 4.25107e-05 3.28024e-09
-2.17228e-08 3.28024e-09 1.30759e-05
0.00118037 -2.47879e-06 4.27839e-08
-2.47879e-06 8.53043e-05 -1.72209e-07
4.27839e-08 -1.72209e-07 1.55893e-05
0.00125055 -8.00976e-06 -7.76712e-09
-8.00976e-06 0.000117573 1.17615e-08
-7.76712e-09 1.17615e-08 4.37629e-05
0.00118777 -1.90002e-05 3.12928e-07
-1.90002e-05 7.29657e-05 2.99267e-07
3.12928e-07 2.99267e-07 -1.29932e-06
0.00120218 -1.12437e-05 2.75946e-07
-1.12437e-05 8.88034e-05 -2.88419e-07
2.75946e-07 -2.88419e-07 7.25088e-06
0.00216315 -3.06304e-05 -2.321e-06
-3.06304e-05 0.000378468 5.88122e-06
-2.321e-06 5.88122e-06 0.000322637
0.00105014 -1.01819e-05 -5.23237e-07
-1.01819e-05 5.46035e-05 -2.34322e-07
-5.23237e-07 -2.34322e-07 -3.31416e-05
0.00113466 -5.99084e-06 -9.12823e-07
-5.99084e-06 5.9486e-05 1.00045e-06
-9.12823e-07 1.00045e-06 -2.01857e-05
0.00114294 1.25685e-06 -6.08678e-08
1.25685e-06 6.52259e-05 1.91911e-07
-6.08678e-08 1.91911e-07 -3.11099e-06
0.00114949 -1.12491e-06 -3.8314e-08
-1.12491e-06 6.70716e-05 4.27728e-07
-3.8314e-08 4.27728e-07 -6.03558e-06
0.00139609 -9.31193e-07 5.78519e-06
-9.31193e-07 0.000630283 1.10955e-06
5.78519e-06 1.10955e-06 0.000555711
-0.0002298 -1.19083e-06 1.78282e-06
-1.19083e-06 -0.000282506 -2.6461e-07
1.78282e-06 -2.6461e-07 -0.000298132
-0.00508652 3.22764e-07 6.04003e-05
3.22764e-07 -0.00222304 3.58219e-07
6.04003e-05 3.58219e-07 -0.00208358
0.00112875 8.06627e-06 5.18455e-07
8.06627e-06 6.69582e-05 3.48328e-07
5.18455e-07 3.48328e-07 1.48043e-06
0.000912017 9.77262e-06 1.07576e-06
9.77262e-06 4.20322e-06 -5.49098e-07
1.07576e-06 -5.49098e-07 -7.57486e-05
0.000938985 2.41314e-05 1.30034e-06
2.41314e-05 -2.83773e-05 -9.00562e-08
1.30034e-06 -9.00562e-08 -0.000135082
-0.00110207 -1.26567e-05 -7.65592e-06
-1.26567e-05 -0.000808704 -2.92512e-06
-7.65592e-06 -2.92512e-06 -0.0008128
0.00135192 -4.2234e-05 2.97967e-05
-4.2234e-05 -0.000538332 2.68161e-05
2.97967e-05 2.68161e-05 -0.000862566
0.000389564 3.80137e-05 -1.32867e-05
3.80137e-05 -0.000154177 -1.78029e-05
-1.32867e-05 -1.78029e-05 -0.000233526
0.00137365 1.95154e-05 1.78216e-05
1.95154e-05 0.000141946 3.84883e-06
1.78216e-05 3.84883e-06 1.02334e-05
0.00293634 -0.000117878 3.13717e-05
-0.000117878 0.00082117 5.02845e-05
3.13717e-05 5.02845e-05 0.000763547
0.000243671 -9.42927e-06 -1.53639e-05
-9.42927e-06 -8.45155e-05 -8.97458e-06
-1.53639e-05 -8.97458e-06 -0.000105993
-3.71801e-05 -2.83785e-06 -9.36107e-06
-2.83785e-06 -0.000304626 -3.18965e-06
-9.36107e-06 -3.18965e-06 -0.000322515
0.00106108 6.68628e-06 5.48261e-07
6.68628e-06 5.41682e-05 2.98792e-08
5.48261e-07 2.98792e-08 -1.43459e-05
0.00117645 -2.17641e-06 2.07938e-06
-2.17641e-06 0.000492508 1.31997e-06
2.07938e-06 1.31997e-06 0.000429935
0.000579462 8.10297e-06 5.19665e-07
8.10297e-06 5.06032e-05 -5.64856e-07
5.19665e-07 -5.64856e-07 -5.41431e-06
0.000893538 7.85142e-06 1.88811e-06
7.85142e-06 5.88098e-05 3.73194e-07
1.88811e-06 3.73194e-07 -3.17722e-05
0.000888219 2.86499e-05 -3.27037e-06
2.86499e-05 0.00019961 -4.13488e-07
-3.27037e-06 -4.13488e-07 5.2828e-05
0.003547 -5.79817e-05 2.81314e-06
-5.79817e-05 0.00028476 1.7921e-06
2.81314e-06 1.7921e-06 -4.18084e-05
0.000527381 4.94429e-06 -9.60682e-07
4.94429e-06 5.63923e-05 2.56592e-06
-9.60682e-07 2.56592e-06 1.99107e-05
0.00288101 -8.60309e-05 3.04307e-06
-8.60309e-05 0.000477046 1.20921e-06
3.04307e-06 1.20921e-06 0.0005465
0.000739204 -4.47727e-06 -7.46914e-07
-4.47727e-06 -9.50589e-05 -1.66807e-06
-7.46914e-07 -1.66807e-06 -0.000165768
0.00075468 7.42687e-06 2.81333e-06
7.42687e-06 0.00012685 2.25348e-06
2.81333e-06 2.25348e-06 4.30436e-05
0.000480744 5.08442e-06 -2.0957e-06
5.08442e-06 -3.29801e-05 3.06292e-06
-2.0957e-06 3.06292e-06 -8.59261e-05
1.37869e-05 1.47653e-06 -1.10897e-05
1.47653e-06 -0.000262303 1.02766e-06
-1.10897e-05 1.02766e-06 -0.000262347
0.000379023 2.70593e-06 -4.95553e-06
2.70593e-06 -0.000139458 -1.84052e-06
-4.95553e-06 -1.84052e-06 -0.000226295
0.0052196 -2.47599e-05 -2.4979e-05
-2.47599e-05 0.00118464 -1.63516e-05
-2.4979e-05 -1.63516e-05 0.000838124
0.00101274 1.43039e-05 3.07147e-06
1.43039e-05 -0.000781581 -1.80098e-05
3.07147e-06 -1.80098e-05 -0.000510058
0.00125333 2.4023e-06 4.70381e-08
2.4023e-06 0.000112306 5.98325e-07
4.70381e-08 5.98325e-07 4.82082e-05
0.00116807 -4.28113e-06 -5.42571e-08
-4.28113e-06 7.04e-05 -2.34909e-07
-5.42571e-08 -2.34909e-07 4.41442e-06
0.0011396 -5.6564e-06 -1.04674e-06
-5.6564e-06 6.01726e-05 -3.60319e-07
-1.04674e-06 -3.60319e-07 -4.54155e-06
0.00116721 5.56839e-06 -2.14725e-08
5.56839e-06 6.65334e-05 -2.06868e-07
-2.14725e-08 -2.06868e-07 1.03503e-05
0.00120272 4.86941e-06 2.71124e-09
4.86941e-06 8.11049e-05 3.43662e-07
2.71124e-09 3.43662e-07 1.97877e-05
0.00117918 -1.41021e-06 7.41478e-09
-1.41021e-06 7.05961e-05 4.29755e-07
7.41478e-09 4.29755e-07 7.62385e-06
0.00121143 1.8762e-06 -1.25671e-08
1.8762e-06 8.79649e-05 -1.80538e-08
-1.25671e-08 -1.80538e-08 2.66761e-05
0.00116245 2.35474e-06 5.98547e-08
2.35474e-06 6.22741e-05 -1.30851e-08
5.98547e-08 -1.30851e-08 -1.99547e-06
0.00116181 -1.23724e-06 2.99592e-07
-1.23724e-06 6.81235e-05 3.23297e-07
2.99592e-07 3.23297e-07 5.62484e-06
0.00113294 2.29087e-06 1.62297e-07
2.29087e-06 6.0575e-05 -9.84607e-07
1.62297e-07 -9.84607e-07 -1.93586e-06
0.00114485 -2.8933e-06 -1.85005e-07
-2.8933e-06 6.0831e-05 -2.12589e-07
-1.85005e-07 -2.12589e-07 -4.39036e-06
0.00120213 -2.64368e-06 1.2022e-07
-2.64368e-06 8.47853e-05 -1.8698e-07
1.2022e-07 -1.8698e-07 2.50553e-05
0.00113409 -2.20523e-06 2.93574e-08
-2.20523e-06 5.37593e-05 8.02614e-09
2.93574e-08 8.02614e-09 -2.6591e-06
0.001128 -7.22781e-06 4.37605e-08
-7.22781e-06 5.01891e-05 3.36765e-08
4.37605e-08 3.36765e-08 -1.01626e-05
0.0011498 -7.62138e-06 7.89938e-08
-7.62138e-06 6.404e-05 -5.67734e-08
7.89938e-08 -5.67734e-08 7.13644e-07
0.0010969 -6.17912e-06 -1.48301e-07
-6.17912e-06 3.47513e-05 1.92708e-07
-1.48301e-07 1.92708e-07 -2.67829e-05
0.00117907 -8.94417e-06 -1.25229e-07
-8.94417e-06 7.95272e-05 5.99622e-08
-1.25229e-07 5.99622e-08 1.43803e-05
0.00114687 -9.03928e-06 1.26335e-07
-9.03928e-06 5.66629e-05 -3.09268e-07
1.26335e-07 -3.09268e-07 -4.73337e-06
0.00106025 -1.02201e-05 2.59242e-07
-1.02201e-05 1.60567e-05 2.38617e-08
2.59242e-07 2.38617e-08 -5.02279e-05
0.00115661 -7.04505e-06 1.97615e-07
-7.04505e-06 5.95923e-05 2.27751e-07
1.97615e-07 2.27751e-07 -4.27649e-07
0.00117825 -9.37153e-06 5.79415e-08
-9.37153e-06 7.01676e-05 2.62576e-07
5.79415e-08 2.62576e-07 1.07838e-05
0.00111087 -1.03133e-05 1.24329e-07
-1.03133e-05 3.84459e-05 3.09369e-07
1.24329e-07 3.09369e-07 -2.50899e-05
0.00111768 -9.08046e-06 -3.087e-07
-9.08046e-06 4.79667e-05 -6.83492e-08
-3.087e-07 -6.83492e-08 -1.16521e-05
0.00113032 -6.59919e-06 -5.109e-07
-6.59919e-06 5.16303e-05 2.5945e-07
-5.109e-07 2.5945e-07 -1.29461e-06
0.00109691 -9.3274e-06 -1.44255e-07
-9.3274e-06 3.45361e-05 1.60057e-07
-1.44255e-07 1.60057e-07 -2.45595e-05
0.00111353 -2.06156e-06 -5.3277e-07
-2.06156e-06 3.98568e-05 2.42257e-07
-5.3277e-07 2.42257e-07 -7.42442e-06
0.00117501 -7.10872e-06 5.3904e-08
-7.10872e-06 7.01776e-05 -2.0756e-07
5.3904e-08 -2.0756e-07 1.73343e-05
0.00111311 -8.82663e-06 1.68492e-07
-8.82663e-06 4.32137e-05 -5.72735e-07
1.68492e-07 -5.72735e-07 -1.25461e-05
0.00120986 -7.17238e-06 6.43408e-07
-7.17238e-06 8.73042e-05 -1.73516e-07
6.43408e-07 -1.73516e-07 3.2573e-05
0.00106446 -1.93115e-06 2.91856e-08
-1.93115e-06 1.66837e-05 -1.76467e-08
2.91856e-08 -1.76467e-08 -3.20582e-05
0.00108214 3.26194e-06 -7.91062e-07
3.26194e-06 2.38377e-05 7.82517e-07
-7.91062e-07 7.82517e-07 -1.36768e-05
0.00111007 -2.59287e-06 3.61836e-07
-2.59287e-06 3.90996e-05 -1.68649e-07
3.61836e-07 -1.68649e-07 -9.87172e-06
0.00108331 2.54673e-06 3.60951e-08
2.54673e-06 2.36323e-05 8.26587e-09
3.60951e-08 8.26587e-09 -1.39919e-05
0.00103785 3.90487e-06 -1.05558e-06
3.90487e-06 -1.11058e-06 1.42024e-06
-1.05558e-06 1.42024e-06 -2.22721e-05
0.00109021 1.55588e-06 5.94972e-07
1.55588e-06 2.56769e-05 -8.5264e-07
5.94972e-07 -8.5264e-07 -1.17821e-05
0.00104607 3.1787e-06 4.05412e-08
3.1787e-06 5.92068e-07 8.55984e-09
4.05412e-08 8.55984e-09 -2.0446e-05
0.00151567 5.65986e-06 -1.79514e-06
5.65986e-06 0.000221556 2.58346e-06
-1.79514e-06 2.58346e-06 0.000228085
0.00105357 2.59391e-06 8.0928e-07
2.59391e-06 2.47374e-06 -1.50419e-06
8.0928e-07 -1.50419e-06 -1.85108e-05
0.00126738 4.52156e-06 -3.43597e-07
4.52156e-06 9.87505e-05 5.54212e-07
-3.43597e-07 5.54212e-07 0.00010418
0.00113846 5.56025e-06 -7.7117e-07
5.56025e-06 3.20767e-05 1.29086e-06
-7.7117e-07 1.29086e-06 5.24269e-05
0.000999856 3.35951e-06 9.19378e-07
3.35951e-06 -3.31759e-05 -2.7077e-06
9.19378e-07 -2.7077e-06 -2.86832e-05
0.0017063 4.25789e-06 6.6173e-07
4.25789e-06 0.000304395 -1.08533e-06
6.6173e-07 -1.08533e-06 0.000327445
0.00224504 2.90129e-06 1.38075e-06
2.90129e-06 0.000563978 -3.5356e-06
1.38075e-06 -3.5356e-06 0.0005897
0.000923669 -1.98736e-06 -4.20411e-07
-1.98736e-06 -5.3087e-05 -1.25558e-06
-4.20411e-07 -1.25558e-06 -9.06164e-05
0.000837901 -2.23286e-06 -5.86447e-07
-2.23286e-06 -0.000102801 -2.17067e-06
-5.86447e-07 -2.17067e-06 -0.000122705
0.00115716 -1.9087e-06 4.26432e-08
-1.9087e-06 5.80558e-05 1.63244e-07
4.26432e-08 1.63244e-07 2.33639e-05
0.00100454 -2.25163e-06 -6.27932e-07
-2.25163e-06 -3.20791e-05 -2.77147e-06
-6.27932e-07 -2.77147e-06 -2.54604e-05
0.000942121 -1.41392e-06 -2.94728e-08
-1.41392e-06 -5.42562e-05 4.72652e-09
-2.94728e-08 4.72652e-09 -7.25181e-05
0.000931122 -1.37808e-06 1.94629e-07
-1.37808e-06 -5.31922e-05 1.13424e-06
1.94629e-07 1.13424e-06 -8.75843e-05
0.00217851 -1.49322e-06 -8.10377e-07
-1.49322e-06 0.000530749 -3.55183e-06
-8.10377e-07 -3.55183e-06 0.000557419
0.000999345 -1.12881e-06 -8.53033e-08
-1.12881e-06 -3.54543e-05 3.26981e-09
-8.53033e-08 3.26981e-09 -2.84344e-05
0.0010504 -8.16118e-07 4.90868e-08
-8.16118e-07 -2.93376e-06 1.68286e-06
4.90868e-08 1.68286e-06 -1.99259e-05
0.0021826 3.77835e-08 -1.69227e-07
3.77835e-08 0.000532339 1.03917e-09
-1.69227e-07 1.03917e-09 0.000559072
0.00100069 5.20575e-08 -4.99713e-08
5.20575e-08 -3.50299e-05 2.83344e-06
-4.99713e-08 2.83344e-06 -2.79363e-05
0.00218489 1.58057e-06 -7.89021e-07
1.58057e-06 0.000533989 3.56555e-06
-7.89021e-07 3.56555e-06 0.00056056
0.000737405 2.40428e-06 1.01897e-05
2.40428e-06 0.000214531 -4.49905e-06
1.01897e-05 -4.49905e-06 0.000151733
0.00084695 1.79733e-05 -2.31094e-06
1.79733e-05 0.000362887 1.26681e-06
-2.31094e-06 1.26681e-06 0.000364659
0.000488549 2.88523e-05 8.46655e-05
2.88523e-05 0.000126238 -1.5624e-05
8.46655e-05 -1.5624e-05 0.000148496
0.00110815 3.7875e-06 -4.23567e-07
3.7875e-06 3.71325e-05 -4.11402e-07
-4.23567e-07 -4.11402e-07 -1.1622e-05
0.000363186 -6.68075e-06 6.61707e-06
-6.68075e-06 -9.3606e-05 -8.9219e-06
6.61707e-06 -8.9219e-06 -0.000142246
0.000655412 8.54693e-06 3.38127e-06
8.54693e-06 0.000165424 -6.62096e-07
3.38127e-06 -6.62096e-07 0.000146815
0.00100278 3.24434e-05 -1.7558e-05
3.24434e-05 0.000418802 1.23143e-05
-1.7558e-05 1.23143e-05 0.000455959
0.00166437 -6.86083e-06 -1.18279e-05
-6.86083e-06 0.000140514 4.68106e-07
-1.18279e-05 4.68106e-07 5.37455e-05
0.0053883 1.82703e-05 1.5944e-05
1.82703e-05 0.00158912 -4.71608e-06
1.5944e-05 -4.71608e-06 0.00130931
-0.00186292 8.00771e-05 3.40535e-05
8.00771e-05 -0.000946937 -3.07338e-05
3.40535e-05 -3.07338e-05 -0.000917585
0.00173741 1.49821e-05 -1.26197e-05
1.49821e-05 0.00080867 3.89146e-06
-1.26197e-05 3.89146e-06 0.00085433
0.00189889 -4.03345e-05 -1.19242e-05
-4.03345e-05 0.000128911 2.72106e-06
-1.19242e-05 2.72106e-06 2.99776e-06
0.00458355 6.86727e-05 8.48122e-06
6.86727e-05 0.00105288 -1.42945e-05
8.48122e-06 -1.42945e-05 0.000699884
-0.000676883 0.000104191 4.04647e-06
0.000104191 -0.000947828 5.97318e-06
4.04647e-06 5.97318e-06 -0.000961759
0.000848608 4.01874e-06 1.29974e-06
4.01874e-06 0.000254044 -1.93459e-06
1.29974e-06 -1.93459e-06 0.00025216
0.00110209 -5.48651e-05 2.10147e-05
-5.48651e-05 -0.000192477 -2.71284e-05
2.10147e-05 -2.71284e-05 -0.000374641
0.00465362 7.90407e-05 -6.85716e-06
7.90407e-05 0.000516514 -1.47021e-05
-6.85716e-06 -1.47021e-05 5.34074e-05
0.00155906 8.06358e-05 6.06087e-06
8.06358e-05 -0.000419327 3.18757e-05
6.06087e-06 3.18757e-05 -0.000320902
0.000168548 -1.27104e-06 2.46809e-06
-1.27104e-06 -0.000161872 1.86376e-06
2.46809e-06 1.86376e-06 -0.00020345
0.00113187 -2.56171e-06 -2.72336e-07
-2.56171e-06 5.26118e-05 -3.34917e-07
-2.72336e-07 -3.34917e-07 -1.04848e-05
0.001143 -3.32321e-06 1.22483e-08
-3.32321e-06 6.0994e-05 3.1915e-08
1.22483e-08 3.1915e-08 9.96134e-07
0.00120751 3.07739e-06 4.19443e-09
3.07739e-06 8.91348e-05 5.26493e-07
4.19443e-09 5.26493e-07 3.66676e-05
0.0011085 3.84982e-06 -3.98532e-07
3.84982e-06 4.05961e-05 -6.85458e-07
-3.98532e-07 -6.85458e-07 -1.55238e-05
0.00117401 5.34666e-06 6.39103e-08
5.34666e-06 7.15766e-05 2.71431e-07
6.39103e-08 2.71431e-07 1.6809e-05
0.00123774 1.46669e-06 1.62677e-07
1.46669e-06 0.000100969 1.0862e-06
1.62677e-07 1.0862e-06 5.01502e-05
0.00126106 2.85777e-06 -4.22049e-08
2.85777e-06 0.000113141 3.97081e-08
-4.22049e-08 3.97081e-08 6.63338e-05
0.00127137 3.12244e-06 2.27667e-07
3.12244e-06 0.000117316 9.57164e-07
2.27667e-07 9.57164e-07 7.20019e-05
0.00108786 -2.04759e-05 -6.61585e-07
-2.04759e-05 -0.000152839 -7.10124e-07
-6.61585e-07 -7.10124e-07 -0.000185691
0.00121124 -1.84861e-05 -2.5221e-08
-1.84861e-05 8.31224e-05 -4.47121e-07
-2.5221e-08 -4.47121e-07 1.02034e-05
0.00113919 -7.29791e-06 2.94087e-07
-7.29791e-06 6.32482e-05 3.79579e-07
2.94087e-07 3.79579e-07 -2.02973e-06
0.00120035 -1.04424e-05 2.44382e-07
-1.04424e-05 8.7115e-05 -5.55937e-07
2.44382e-07 -5.55937e-07 5.70465e-06
0.00130441 -8.71938e-06 1.3021e-07
-8.71938e-06 0.000143314 -2.74687e-08
1.3021e-07 -2.74687e-08 6.90979e-05
0.00117624 -6.05044e-08 -7.74283e-08
-6.05044e-08 8.39548e-05 -4.03721e-07
-7.74283e-08 -4.03721e-07 1.43781e-05
0.00113549 2.48023e-07 -1.59929e-08
2.48023e-07 6.17039e-05 1.54134e-08
-1.59929e-08 1.54134e-08 -6.76545e-06
0.00135546 -2.80745e-05 7.87226e-07
-2.80745e-05 1.23681e-05 7.48513e-08
7.87226e-07 7.48513e-08 -4.46862e-05
0.0011781 -2.80863e-06 2.92506e-08
-2.80863e-06 8.04014e-05 -3.13042e-08
2.92506e-08 -3.13042e-08 7.10675e-06
0.00119814 -5.59419e-06 -7.40424e-08
-5.59419e-06 8.93995e-05 9.86458e-08
-7.40424e-08 9.86458e-08 9.26951e-06
0.0011228 -1.06904e-05 -2.27425e-07
-1.06904e-05 8.68488e-05 -6.87957e-08
-2.27425e-07 -6.87957e-08 -8.28735e-07
0.00110634 -2.9864e-07 -1.20932e-08
-2.9864e-07 4.53583e-05 4.22639e-07
-1.20932e-08 4.22639e-07 -2.36214e-05
0.00185272 -2.2111e-05 -4.88945e-06
-2.2111e-05 0.000367787 9.30835e-06
-4.88945e-06 9.30835e-06 0.000279581
0.00114036 1.86328e-06 -1.8965e-06
1.86328e-06 0.000106029 1.88098e-08
-1.8965e-06 1.88098e-08 2.00301e-05
0.00115153 -3.26052e-06 -1.02229e-07
-3.26052e-06 6.32193e-05 9.74092e-07
-1.02229e-07 9.74092e-07 -1.13519e-05
0.00119176 6.27529e-08 1.65409e-07
6.27529e-08 8.58841e-05 3.05397e-07
1.65409e-07 3.05397e-07 1.18387e-05
0.00119786 7.08539e-07 1.4143e-06
7.08539e-07 0.000400754 3.72034e-07
1.4143e-06 3.72034e-07 0.000307854
0.00119389 -2.36401e-07 -4.52925e-06
-2.36401e-07 0.000501702 4.23885e-07
-4.52925e-06 4.23885e-07 0.000427555
-0.00131548 4.07963e-07 -1.52692e-05
4.07963e-07 -0.000937455 -1.20011e-07
-1.52692e-05 -1.20011e-07 -0.000958164
0.00113749 8.13654e-06 7.10588e-08
8.13654e-06 8.96153e-05 1.43564e-08
7.10588e-08 1.43564e-08 2.19107e-05
0.00108541 9.35859e-06 1.6303e-06
9.35859e-06 0.000136612 1.81759e-06
1.6303e-06 1.81759e-06 4.08428e-05
0.000635357 -1.27458e-06 -1.2753e-05
-1.27458e-06 0.000153788 -3.61105e-06
-1.2753e-05 -3.61105e-06 8.49666e-05
0.00332471 -9.43128e-05 7.41986e-06
-9.43128e-05 0.000217401 5.96755e-06
7.41986e-06 5.96755e-06 -0.000148342
0.00213509 4.32872e-05 1.57605e-06
4.32872e-05 0.000555226 -1.84106e-05
1.57605e-06 -1.84106e-05 0.00037254
0.00133555 -7.75664e-05 -6.18977e-06
-7.75664e-05 -0.000678806 4.16226e-05
-6.18977e-06 4.16226e-05 -0.000467992
0.000356576 8.53768e-06 -5.32876e-06
8.53768e-06 -9.10517e-05 -5.13903e-06
-5.32876e-06 -5.13903e-06 -0.000148035
0.000954577 5.97614e-06 1.91682e-06
5.97614e-06 0.000323776 1.56116e-06
1.91682e-06 1.56116e-06 0.000283617
0.00109101 -1.76066e-06 -3.90575e-07
-1.76066e-06 7.36678e-05 -4.96316e-07
-3.90575e-07 -4.96316e-07 3.10369e-06
0.000606803 7.33613e-06 3.81983e-07
7.33613e-06 3.61091e-05 6.54297e-07
3.81983e-07 6.54297e-07 -4.86156e-05
0.000638995 4.63629e-06 -1.6154e-06
4.63629e-06 5.81841e-05 3.82682e-07
-1.6154e-06 3.82682e-07 1.18957e-06
0.000698767 -3.79357e-06 2.96236e-07
-3.79357e-06 1.93751e-05 -1.54294e-06
2.96236e-07 -1.54294e-06 -5.39704e-05
0.000884407 4.39167e-06 -1.24185e-06
4.39167e-06 0.000267518 2.14948e-06
-1.24185e-06 2.14948e-06 0.000275607
0.0031371 -5.6421e-06 -2.31015e-06
-5.6421e-06 0.000103724 9.32623e-06
-2.31015e-06 9.32623e-06 -0.000106098
0.00395019 2.33303e-05 7.34311e-06
2.33303e-05 0.000275513 6.54642e-07
7.34311e-06 6.54642e-07 0.000692779
0.00109584 -1.04194e-05 -1.70037e-06
-1.04194e-05 4.217e-05 -2.12545e-06
-1.70037e-06 -2.12545e-06 -1.32593e-05
0.000691397 3.43804e-06 -2.97242e-07
3.43804e-06 5.20863e-05 1.86959e-06
-2.97242e-07 1.86959e-06 -1.89767e-05
0.00038879 -5.02502e-06 -6.87061e-06
-5.02502e-06 -8.78565e-05 9.51938e-06
-6.87061e-06 9.51938e-06 -0.000129804
0.00128002 2.0148e-05 -6.82402e-06
2.0148e-05 0.000502169 6.06959e-06
-6.82402e-06 6.06959e-06 0.000557602
0.00183029 8.42073e-05 -3.65561e-06
8.42073e-05 -0.000288951 -2.99134e-05
-3.65561e-06 -2.99134e-05 -0.000139505
0.00110063 6.08286e-06 -1.37533e-06
6.08286e-06 0.000403204 -5.72537e-06
-1.37533e-06 -5.72537e-06 0.000304154
0.00354126 1.45163e-05 2.83264e-06
1.45163e-05 0.000343444 -2.56604e-08
2.83264e-06 -2.56604e-08 -0.000104439
0.0011648 -4.76402e-06 5.38214e-07
-4.76402e-06 7.07308e-05 -3.08051e-07
5.38214e-07 -3.08051e-07 4.81627e-06
0.00107858 -4.17486e-06 5.10287e-07
-4.17486e-06 3.41279e-05 -4.07329e-07
5.10287e-07 -4.07329e-07 -3.1101e-05
0.00101967 5.95152e-06 2.93548e-07
5.95152e-06 2.16671e-05 -1.62761e-06
2.93548e-07 -1.62761e-06 -4.02305e-05
0.001214 1.32754e-06 -2.19772e-08
1.32754e-06 8.90659e-05 6.37536e-08
-2.19772e-08 6.37536e-08 2.79074e-05
0.00116235 2.3827e-06 -8.31709e-08
2.3827e-06 6.27531e-05 3.90332e-07
-8.31709e-08 3.90332e-07 -1.70873e-06
0.00115307 -1.82152e-07 2.31174e-07
-1.82152e-07 6.20499e-05 8.87878e-07
2.31174e-07 8.87878e-07 -2.97587e-07
0.00113672 -2.86756e-06 -5.9845e-08
-2.86756e-06 5.65373e-05 1.39315e-07
-5.9845e-08 1.39315e-07 -8.63446e-06
0.00113305 1.08807e-06 -3.19871e-07
1.08807e-06 5.98863e-05 4.07365e-07
-3.19871e-07 4.07365e-07 -2.12943e-06
0.00116391 -5.04127e-06 7.14538e-07
-5.04127e-06 8.36493e-05 -3.81634e-07
7.14538e-07 -3.81634e-07 1.31231e-05
0.00115785 -7.64035e-06 1.5628e-07
-7.64035e-06 6.69782e-05 1.5814e-07
1.5628e-07 1.5814e-07 3.79328e-06
0.00106471 -5.70585e-06 8.13145e-09
-5.70585e-06 1.96441e-05 3.36782e-07
8.13145e-09 3.36782e-07 -4.18656e-05
0.00118777 -9.06068e-06 6.5259e-08
-9.06068e-06 8.24762e-05 2.01212e-07
6.5259e-08 2.01212e-07 1.69823e-05
0.00109801 -1.09309e-05 -9.6219e-09
-1.09309e-05 4.72097e-05 4.65852e-07
-9.6219e-09 4.65852e-07 -2.35384e-05
0.0011182 -8.94679e-06 2.10357e-08
-8.94679e-06 4.40087e-05 1.47088e-07
2.10357e-08 1.47088e-07 -1.62905e-05
0.00108 -1.01475e-05 1.80704e-07
-1.01475e-05 2.69164e-05 -1.80287e-07
1.80704e-07 -1.80287e-07 -3.88927e-05
0.00119679 -1.17491e-05 1.97841e-07
-1.17491e-05 8.10657e-05 1.2568e-07
1.97841e-07 1.2568e-07 1.16742e-05
0.0011828 -1.10821e-05 -3.25526e-07
-1.10821e-05 7.11981e-05 3.6252e-07
-3.25526e-07 3.6252e-07 5.91335e-06
0.00125254 -9.63294e-06 1.32246e-07
-9.63294e-06 0.000104683 2.02215e-07
1.32246e-07 2.02215e-07 4.53516e-05
0.00113226 -1.04673e-05 -5.47129e-08
-1.04673e-05 4.8266e-05 -3.86926e-09
-5.47129e-08 -3.86926e-09 -1.54791e-05
0.00122824 -9.33047e-06 3.05351e-08
-9.33047e-06 0.000100887 -2.8088e-07
3.05351e-08 -2.8088e-07 4.23609e-05
0.00103476 -4.52375e-06 -3.61592e-07
-4.52375e-06 1.24572e-05 1.5469e-07
-3.61592e-07 1.5469e-07 -4.21939e-05
0.00114341 -9.12974e-06 1.51114e-07
-9.12974e-06 6.01113e-05 -1.78474e-07
1.51114e-07 -1.78474e-07 1.04881e-06
0.00110814 -4.67119e-07 -6.80021e-07
-4.67119e-07 3.98754e-05 1.61599e-07
-6.80021e-07 1.61599e-07 -7.0672e-06
0.00114238 -6.57865e-06 -2.51793e-07
-6.57865e-06 5.72065e-05 2.70878e-07
-2.51793e-07 2.70878e-07 4.18525e-06
0.00105337 -9.14587e-06 -7.3061e-08
-9.14587e-06 1.48743e-05 1.89287e-08
-7.3061e-08 1.89287e-08 -4.4314e-05
0.00108111 2.95513e-06 -9.23108e-07
2.95513e-06 2.37171e-05 6.92439e-07
-9.23108e-07 6.92439e-07 -1.33027e-05
0.00107881 -2.05635e-06 6.80482e-08
-2.05635e-06 2.27394e-05 3.41722e-08
6.80482e-08 3.41722e-08 -2.47915e-05
0.00113551 -7.28669e-06 6.25559e-07
-7.28669e-06 5.08449e-05 -2.17875e-07
6.25559e-07 -2.17875e-07 -2.45013e-06
0.0011064 -1.88636e-06 5.78618e-07
-1.88636e-06 3.68156e-05 -3.27342e-07
5.78618e-07 -3.27342e-07 -1.15974e-05
0.00108024 3.27505e-06 3.86909e-08
3.27505e-06 2.297e-05 1.1957e-08
3.86909e-08 1.1957e-08 -1.45269e-05
0.00103455 4.53521e-06 -1.20666e-06
4.53521e-06 -7.13511e-07 1.36772e-06
-1.20666e-06 1.36772e-06 -2.19969e-05
0.00108386 2.7959e-06 7.21123e-07
2.7959e-06 2.39126e-05 -8.00682e-07
7.21123e-07 -8.00682e-07 -1.37143e-05
0.00104195 3.90538e-06 3.50712e-08
3.90538e-06 7.96947e-07 8.09761e-09
3.50712e-08 8.09761e-09 -2.03737e-05
0.000972712 6.6253e-06 -1.58631e-06
6.6253e-06 -3.80265e-05 2.49311e-06
-1.58631e-06 2.49311e-06 -3.42389e-05
0.00105114 3.17654e-06 9.83643e-07
3.17654e-06 2.98007e-06 -1.46364e-06
9.83643e-07 -1.46364e-06 -1.80809e-05
0.000982103 5.53475e-06 5.90084e-08
5.53475e-06 -3.66981e-05 1.62259e-08
5.90084e-08 1.62259e-08 -3.26302e-05
0.002209 7.50222e-06 -1.16778e-06
7.50222e-06 0.000553231 1.36652e-06
-1.16778e-06 1.36652e-06 0.000578168
0.000996196 4.43058e-06 1.22058e-06
4.43058e-06 -3.27528e-05 -2.63995e-06
1.22058e-06 -2.63995e-06 -2.85141e-05
0.00170673 5.71101e-06 8.11362e-07
5.71101e-06 0.000307081 -1.07402e-06
8.11362e-07 -1.07402e-06 0.000329758
0.00224548 4.40619e-06 1.92643e-06
4.40619e-06 0.000566097 -3.50377e-06
1.92643e-06 -3.50377e-06 0.000591518
0.000918979 -1.22125e-06 -6.88372e-07
-1.22125e-06 -5.59137e-05 -1.21334e-06
-6.88372e-07 -1.21334e-06 -9.41749e-05
0.000827131 -2.77519e-06 -8.06075e-07
-2.77519e-06 -0.000105651 -2.09229e-06
-8.06075e-07 -2.09229e-06 -0.000126983
0.00104334 -2.25808e-06 -7.56329e-08
-2.25808e-06 4.47851e-06 -3.69142e-07
-7.56329e-08 -3.69142e-07 -3.24442e-05
0.00100629 -3.41834e-06 -8.67632e-07
-3.41834e-06 -2.96363e-05 -2.72248e-06
-8.67632e-07 -2.72248e-06 -2.36899e-05
0.0008232 -2.24555e-06 -1.16002e-07
-2.24555e-06 -0.000109551 -5.34966e-07
-1.16002e-07 -5.34966e-07 -0.000129586
0.00115974 -1.85304e-06 3.07189e-07
-1.85304e-06 5.92206e-05 1.0848e-06
3.07189e-07 1.0848e-06 2.44984e-05
0.00217831 -2.97934e-06 -1.38734e-06
-2.97934e-06 0.000531719 -3.51684e-06
-1.38734e-06 -3.51684e-06 0.000558175
0.000998916 -2.25696e-06 -5.96334e-08
-2.25696e-06 -3.48215e-05 7.43146e-09
-5.96334e-08 7.43146e-09 -2.81556e-05
0.000826012 -1.43082e-06 3.16281e-07
-1.43082e-06 -0.0001103 1.68201e-06
3.16281e-07 1.68201e-06 -0.000129264
0.00218503 -1.45206e-06 -2.12291e-07
-1.45206e-06 0.000533798 6.15734e-09
-2.12291e-07 6.15734e-09 0.000560462
0.000995743 -1.13218e-06 1.72031e-07
-1.13218e-06 -3.72174e-05 2.8163e-06
1.72031e-07 2.8163e-06 -3.01647e-05
0.00218343 8.75867e-08 -1.53353e-07
8.75867e-08 0.000532755 3.56478e-06
-1.53353e-07 3.56478e-06 0.000559478
0.000753157 -6.4752e-06 2.48172e-06
-6.4752e-06 0.000125643 -3.16116e-06
2.48172e-06 -3.16116e-06 4.35472e-05
0.00076508 2.46064e-06 -2.23072e-07
2.46064e-06 0.000230395 3.12651e-07
-2.23072e-07 3.12651e-07 0.000168087
0.000567813 1.79998e-05 -1.66919e-05
1.79998e-05 0.000187044 7.00753e-06
-1.66919e-05 7.00753e-06 0.000189461
0.00114365 4.0667e-06 -9.98058e-08
4.0667e-06 5.38745e-05 1.85746e-08
-9.98058e-08 1.85746e-08 5.45889e-06
0.00102956 4.82443e-06 -4.66882e-07
4.82443e-06 -4.00526e-06 -4.59132e-07
-4.66882e-07 -4.59132e-07 -5.28831e-05
0.0012041 3.98614e-06 -5.18607e-08
3.98614e-06 8.491e-05 2.44366e-07
-5.18607e-08 2.44366e-07 2.95977e-05
0.000457376 1.08409e-07 -3.7134e-07
1.08409e-07 -4.05036e-05 -4.14988e-06
-3.7134e-07 -4.14988e-06 -9.85687e-05
0.000738579 -7.00452e-06 7.19736e-07
-7.00452e-06 0.000144092 -6.75535e-07
7.19736e-07 -6.75535e-07 9.27811e-05
0.000890374 8.86759e-06 -1.00648e-05
8.86759e-06 0.00031429 9.70531e-06
-1.00648e-05 9.70531e-06 0.000296809
0.00227255 -3.12266e-05 -1.55031e-05
-3.12266e-05 0.00057686 1.05712e-05
-1.55031e-05 1.05712e-05 0.0005026
0.00339748 2.08013e-05 3.97121e-05
2.08013e-05 0.00054895 -3.80947e-05
3.97121e-05 -3.80947e-05 0.000158306
0.00287469 0.000124423 6.5936e-06
0.000124423 0.000816424 -2.14097e-05
6.5936e-06 -2.14097e-05 0.000748516
0.00100413 2.08481e-06 -6.8857e-06
2.08481e-06 0.000373882 1.27293e-06
-6.8857e-06 1.27293e-06 0.000366246
0.000729021 -4.03214e-05 -7.34774e-06
-4.03214e-05 -7.06503e-05 7.18695e-06
-7.34774e-06 7.18695e-06 -0.0001811
0.00467235 7.771e-05 1.09008e-05
7.771e-05 0.00091634 -2.46302e-05
1.09008e-05 -2.46302e-05 0.000503734
0.00105021 8.97914e-05 3.54727e-06
8.97914e-05 -0.00029014 5.66657e-06
3.54727e-06 5.66657e-06 -0.000276108
0.000545661 5.56219e-07 1.99369e-06
5.56219e-07 7.39811e-05 -1.17301e-06
1.99369e-06 -1.17301e-06 2.98257e-05
0.000417851 -3.86113e-05 5.99182e-06
-3.86113e-05 -7.09639e-05 -2.21768e-05
5.99182e-06 -2.21768e-05 -0.000178398
0.00421572 6.37739e-05 1.33955e-07
6.37739e-05 0.000219121 -1.88631e-05
1.33955e-07 -1.88631e-05 8.15257e-05
0.00106869 4.90115e-06 -2.00161e-06
4.90115e-06 -0.000758192 2.50187e-05
-2.00161e-06 2.50187e-05 -0.000542906
8.45683e-05 -2.2137e-06 -4.83735e-06
-2.2137e-06 -0.00021763 1.56478e-06
-4.83735e-06 1.56478e-06 -0.000231691
0.0011472 4.15834e-06 -4.57038e-07
4.15834e-06 5.95689e-05 -3.03447e-08
-4.57038e-07 -3.03447e-08 -4.02092e-06
0.00112391 -2.65482e-06 1.21692e-08
-2.65482e-06 4.94588e-05 -1.68238e-07
1.21692e-08 -1.68238e-07 -1.35668e-05
0.00113208 -3.8903e-06 1.14437e-07
-3.8903e-06 5.57372e-05 4.91799e-07
1.14437e-07 4.91799e-07 -4.7956e-06
0.00112423 4.00704e-06 -1.98877e-07
4.00704e-06 4.79856e-05 -5.15543e-07
-1.98877e-07 -5.15543e-07 -8.26919e-06
0.00124215 6.42023e-06 3.1337e-07
6.42023e-06 0.000103922 7.64387e-07
3.1337e-07 7.64387e-07 4.98337e-05
0.00127608 2.77969e-06 1.4555e-07
2.77969e-06 0.000119877 5.9825e-07
1.4555e-07 5.9825e-07 7.32677e-05
0.000509605 -2.53637e-05 1.4684e-06
-2.53637e-05 -0.00037266 -2.73141e-06
1.4684e-06 -2.73141e-06 -0.000430749
0.00119527 -1.0657e-05 2.89055e-07
-1.0657e-05 0.000119187 -5.50296e-07
2.89055e-07 -5.50296e-07 3.15805e-05
0.00112653 -7.49647e-07 1.33388e-08
-7.49647e-07 5.747e-05 -1.24683e-07
1.33388e-08 -1.24683e-07 -1.11295e-05
0.00126091 -5.38238e-06 7.18743e-07
-5.38238e-06 0.000119006 -5.01718e-07
7.18743e-07 -5.01718e-07 3.84118e-05
0.00120068 -4.30219e-06 -1.46295e-07
-4.30219e-06 9.09596e-05 -3.20731e-07
-1.46295e-07 -3.20731e-07 1.74765e-05
0.00113835 1.25566e-07 8.59716e-08
1.25566e-07 6.13133e-05 2.96595e-07
8.59716e-08 2.96595e-07 -8.28429e-06
0.00113505 7.10904e-07 -9.30353e-08
7.10904e-07 5.88368e-05 1.76217e-07
-9.30353e-08 1.76217e-07 -1.55035e-05
0.00113893 -1.98363e-05 -2.16997e-08
-1.98363e-05 2.282e-05 -3.20118e-07
-2.16997e-08 -3.20118e-07 -6.26853e-05
0.00119283 -4.53597e-06 2.0895e-07
-4.53597e-06 8.56086e-05 -2.69301e-07
2.0895e-07 -2.69301e-07 1.10198e-05
0.00121101 2.76944e-06 -4.38019e-07
2.76944e-06 0.000131841 2.56887e-07
-4.38019e-07 2.56887e-07 4.552e-05
0.00106533 3.61138e-06 -2.62413e-07
3.61138e-06 2.70491e-05 -1.03267e-07
-2.62413e-07 -1.03267e-07 -4.81058e-05
0.00146341 -5.69843e-06 -4.80387e-06
-5.69843e-06 0.000277767 1.22237e-05
-4.80387e-06 1.22237e-05 0.000177552
0.00111231 -4.58702e-07 2.84328e-07
-4.58702e-07 5.16518e-05 5.05582e-07
2.84328e-07 5.05582e-07 -2.40397e-05
0.00113531 -5.84445e-06 5.80948e-07
-5.84445e-06 6.22436e-05 1.72389e-07
5.80948e-07 1.72389e-07 -1.71998e-05
0.000948751 1.64662e-06 -5.76012e-07
1.64662e-06 0.000203816 4.88984e-07
-5.76012e-07 4.88984e-07 0.000122196
0.00076803 3.06528e-07 4.40616e-07
3.06528e-07 0.000130388 4.81626e-07
4.40616e-07 4.81626e-07 3.8001e-05
0.000963963 3.71966e-07 -1.51944e-05
3.71966e-07 0.000355706 4.47324e-07
-1.51944e-05 4.47324e-07 0.000282028
0.00144543 1.26689e-06 -2.66865e-07
1.26689e-06 0.00024327 1.11655e-06
-2.66865e-07 1.11655e-06 0.000172896
0.00124824 -5.47367e-06 5.79829e-06
-5.47367e-06 0.000302075 -1.74935e-06
5.79829e-06 -1.74935e-06 0.000219842
0.000451627 7.24804e-06 -1.43279e-06
7.24804e-06 -5.91014e-05 -9.39392e-07
-1.43279e-06 -9.39392e-07 -0.000144784
0.0024876 -2.38531e-05 1.1252e-06
-2.38531e-05 4.18301e-05 7.4892e-07
1.1252e-06 7.4892e-07 4.90891e-05
0.000943608 1.75204e-05 9.17512e-07
1.75204e-05 -0.000822517 1.86112e-05
9.17512e-07 1.86112e-05 -0.000541884
0.000803866 4.20866e-06 1.01747e-06
4.20866e-06 0.000153685 -1.626e-06
1.01747e-06 -1.626e-06 9.25846e-05
0.0010088 2.6196e-06 7.4627e-06
2.6196e-06 0.00036735 -1.94734e-06
7.4627e-06 -1.94734e-06 0.000369852
0.00118835 -9.62949e-06 5.81414e-07
-9.62949e-06 8.20397e-05 1.32612e-06
5.81414e-07 1.32612e-06 2.47004e-05
0.000736265 2.42985e-06 1.66205e-07
2.42985e-06 8.09457e-05 1.21814e-06
1.66205e-07 1.21814e-06 7.65163e-06
0.000749458 -5.53637e-06 -8.02869e-07
-5.53637e-06 0.000140515 6.61612e-07
-8.02869e-07 6.61612e-07 9.57947e-05
0.000348318 2.16517e-05 -6.16787e-07
2.16517e-05 -4.90344e-05 2.00354e-07
-6.16787e-07 2.00354e-07 -0.000317421
0.000510421 1.4997e-05 3.03759e-06
1.4997e-05 2.63628e-05 -5.18694e-07
3.03759e-06 -5.18694e-07 9.63555e-05
0.000734102 9.23853e-05 -3.35695e-06
9.23853e-05 -0.000424057 -5.57647e-06
-3.35695e-06 -5.57647e-06 -0.000359044
0.00501696 2.94298e-05 -5.06974e-07
2.94298e-05 0.000312702 -1.04306e-05
-5.06974e-07 -1.04306e-05 0.000657217
0.001148 3.41962e-06 3.03719e-07
3.41962e-06 0.000152636 -7.10557e-06
3.03719e-07 -7.10557e-06 0.000116444
0.000756681 -5.4992e-06 -2.46195e-06
-5.4992e-06 0.000124405 3.45053e-06
-2.46195e-06 3.45053e-06 4.7734e-05
0.000388763 7.96395e-06 -1.79349e-05
7.96395e-06 -1.17036e-05 8.53571e-06
-1.79349e-05 8.53571e-06 -2.52567e-05
0.000468382 3.27061e-05 -4.35074e-06
3.27061e-05 5.63646e-05 3.91914e-06
-4.35074e-06 3.91914e-06 0.000127414
-0.000178247 9.34733e-05 9.40005e-06
9.34733e-05 -0.00036831 -4.11621e-05
9.40005e-06 -4.11621e-05 -0.000352623
0.00644234 4.4419e-05 2.04749e-06
4.4419e-05 0.00131738 -2.52473e-06
2.04749e-06 -2.52473e-06 0.00121911
0.0010368 -1.03368e-05 1.40226e-06
-1.03368e-05 0.000412546 2.0579e-05
1.40226e-06 2.0579e-05 -2.53885e-05
0.00103045 -2.5527e-06 1.62758e-06
-2.5527e-06 1.39066e-05 -6.14855e-07
1.62758e-06 -6.14855e-07 -5.18214e-05
0.00109329 3.6927e-06 1.18746e-07
3.6927e-06 5.20861e-05 -1.03468e-06
1.18746e-07 -1.03468e-06 -9.34182e-06
0.00107154 4.10186e-06 8.76577e-07
4.10186e-06 7.01565e-05 -6.71932e-07
8.76577e-07 -6.71932e-07 -5.37943e-06
0.00113166 -2.84076e-06 -5.40942e-09
-2.84076e-06 5.36931e-05 3.17758e-07
-5.40942e-09 3.17758e-07 -1.14336e-05
0.00114945 1.3605e-07 -1.38153e-08
1.3605e-07 6.70577e-05 1.95143e-06
-1.38153e-08 1.95143e-06 5.49059e-06
0.00116351 -4.5696e-06 4.44236e-09
-4.5696e-06 8.34696e-05 2.09213e-07
4.44236e-09 2.09213e-07 1.35393e-05
0.00103239 -1.09958e-05 1.06172e-06
-1.09958e-05 3.32111e-05 1.49945e-07
1.06172e-06 1.49945e-07 -4.92667e-05
0.00119426 -9.15913e-06 8.30339e-08
-9.15913e-06 8.4475e-05 3.23646e-07
8.30339e-08 3.23646e-07 1.86256e-05
0.00122542 -1.1603e-05 -1.58039e-07
-1.1603e-05 0.000105654 3.37926e-07
-1.58039e-07 3.37926e-07 3.39561e-05
0.00126891 -1.36955e-05 -8.57615e-08
-1.36955e-05 0.000123718 4.49426e-07
-8.57615e-08 4.49426e-07 4.72931e-05
0.00110892 -1.01033e-05 -5.35635e-08
-1.01033e-05 4.20107e-05 -1.0421e-07
-5.35635e-08 -1.0421e-07 -2.33263e-05
0.00118334 -1.16897e-05 6.53694e-09
-1.16897e-05 7.46612e-05 -1.71459e-08
6.53694e-09 -1.71459e-08 5.12594e-06
0.0013373 -1.30879e-05 -5.19429e-08
-1.30879e-05 0.000143511 5.44883e-08
-5.19429e-08 5.44883e-08 7.22318e-05
0.00127127 -1.23088e-05 -2.22379e-07
-1.23088e-05 0.000105175 -5.35283e-08
-2.22379e-07 -5.35283e-08 3.82371e-05
0.00107632 -9.84069e-06 -1.67371e-07
-9.84069e-06 2.50476e-05 3.78247e-07
-1.67371e-07 3.78247e-07 -3.62525e-05
0.00115038 -1.10232e-05 -8.63156e-08
-1.10232e-05 5.62471e-05 1.04799e-07
-8.63156e-08 1.04799e-07 -9.44211e-06
0.00115643 -1.06205e-05 -1.48464e-07
-1.06205e-05 5.93773e-05 -5.84628e-08
-1.48464e-07 -5.84628e-08 -4.57853e-06
0.00122762 -7.57519e-06 -6.45989e-08
-7.57519e-06 0.000101042 -1.61115e-07
-6.45989e-08 -1.61115e-07 4.66722e-05
0.00115945 -9.00551e-06 3.3605e-07
-9.00551e-06 6.86512e-05 -4.25959e-07
3.3605e-07 -4.25959e-07 1.04918e-05
0.00100383 2.55941e-06 -4.7522e-07
2.55941e-06 -3.59326e-06 5.47966e-07
-4.7522e-07 5.47966e-07 -5.23395e-05
0.00112187 -4.63466e-06 3.03942e-08
-4.63466e-06 5.37627e-05 -4.12489e-08
3.03942e-08 -4.12489e-08 -2.79817e-07
0.00116955 -9.17967e-06 6.29706e-07
-9.17967e-06 7.24407e-05 -5.27079e-07
6.29706e-07 -5.27079e-07 1.39351e-05
0.0010738 3.80828e-06 -1.05087e-06
3.80828e-06 2.25898e-05 6.1097e-07
-1.05087e-06 6.1097e-07 -1.42753e-05
0.00111852 -8.34146e-07 -1.12192e-07
-8.34146e-07 4.42626e-05 -3.38824e-08
-1.12192e-07 -3.38824e-08 -2.63438e-06
0.00115631 -6.56251e-06 1.48178e-07
-6.56251e-06 6.37e-05 8.40636e-08
1.48178e-07 8.40636e-08 1.05756e-05
0.00103093 5.08202e-06 -1.39484e-06
5.08202e-06 -6.37928e-07 1.27147e-06
-1.39484e-06 1.27147e-06 -2.19028e-05
0.00108019 3.14242e-06 6.02301e-08
3.14242e-06 2.33089e-05 2.84791e-08
6.02301e-08 2.84791e-08 -1.3692e-05
0.00104628 -2.04956e-06 7.22977e-07
-2.04956e-06 6.61527e-06 -1.97173e-07
7.22977e-07 -1.97173e-07 -4.11647e-05
0.00107809 3.34653e-06 8.58546e-07
3.34653e-06 2.19793e-05 -7.49134e-07
8.58546e-07 -7.49134e-07 -1.54988e-05
0.00103729 4.5436e-06 5.43365e-08
4.5436e-06 5.59947e-07 1.70782e-08
5.43365e-08 1.70782e-08 -2.07203e-05
0.000964702 7.66555e-06 -1.81096e-06
7.66555e-06 -3.84207e-05 2.40167e-06
-1.81096e-06 2.40167e-06 -3.50053e-05
0.00104617 3.90634e-06 1.12531e-06
3.90634e-06 2.76085e-06 -1.40865e-06
1.12531e-06 -1.40865e-06 -1.84196e-05
0.000980547 6.61651e-06 5.22467e-08
6.61651e-06 -3.43129e-05 1.64548e-08
5.22467e-08 1.64548e-08 -3.05499e-05
0.00226771 8.71985e-06 -3.00543e-06
8.71985e-06 0.000585187 3.31723e-06
-3.00543e-06 3.31723e-06 0.00060933
0.000992352 5.51163e-06 1.47951e-06
5.51163e-06 -3.19167e-05 -2.55228e-06
1.47951e-06 -2.55228e-06 -2.78827e-05
0.00168951 7.17463e-06 9.31495e-07
7.17463e-06 0.000302042 -1.05814e-06
9.31495e-07 -1.05814e-06 0.000324389
0.00223773 5.89167e-06 2.40461e-06
5.89167e-06 0.000564911 -3.43874e-06
2.40461e-06 -3.43874e-06 0.000590006
0.00107435 -1.33154e-07 -7.36216e-07
-1.33154e-07 1.83371e-05 -7.79424e-07
-7.36216e-07 -7.79424e-07 -1.87327e-05
0.00104608 -3.11222e-06 -9.58936e-07
-3.11222e-06 1.37665e-06 -1.46896e-06
-9.58936e-07 -1.46896e-06 -1.9343e-05
0.0010012 -5.80525e-07 -1.97986e-07
-5.80525e-07 -1.61888e-05 -3.44287e-07
-1.97986e-07 -3.44287e-07 -5.40336e-05
0.00100428 -4.5071e-06 -1.15058e-06
-4.5071e-06 -2.84015e-05 -2.65871e-06
-1.15058e-06 -2.65871e-06 -2.33237e-05
0.000933968 -2.81476e-06 -1.65521e-07
-2.81476e-06 -5.39844e-05 -5.10124e-07
-1.65521e-07 -5.10124e-07 -7.4687e-05
0.00116455 -2.40309e-06 2.55597e-07
-2.40309e-06 6.27548e-05 5.22221e-07
2.55597e-07 5.22221e-07 2.64374e-05
0.0021871 -4.46592e-06 -1.89192e-06
-4.46592e-06 0.000537786 -3.48684e-06
-1.89192e-06 -3.48684e-06 0.00056382
0.000996841 -3.43261e-06 -5.44194e-08
-3.43261e-06 -3.42085e-05 2.70619e-09
-5.44194e-08 2.70619e-09 -2.81875e-05
0.000808757 -2.25976e-06 3.72007e-07
-2.25976e-06 -0.000116155 1.09595e-06
3.72007e-07 1.09595e-06 -0.000136326
0.00219045 -2.93245e-06 -1.72516e-07
-2.93245e-06 0.000537383 1.07046e-08
-1.72516e-07 1.07046e-08 0.000563827
0.000993209 -2.26261e-06 5.0087e-07
-2.26261e-06 -3.76115e-05 2.79198e-06
5.0087e-07 2.79198e-06 -3.08971e-05
0.00219209 -1.41153e-06 4.23926e-07
-1.41153e-06 0.000537121 3.55639e-06
4.23926e-07 3.55639e-06 0.000563774
0.000657082 2.78185e-07 -5.13846e-07
2.78185e-07 3.27e-05 -1.62635e-06
-5.13846e-07 -1.62635e-06 -4.25324e-05
0.00087856 -6.60422e-06 6.73513e-07
-6.60422e-06 0.00020463 -3.57275e-07
6.73513e-07 -3.57275e-07 0.000121825
0.000894442 2.59739e-06 -1.06816e-05
2.59739e-06 0.000309969 4.77722e-06
-1.06816e-05 4.77722e-06 0.000247988
0.00103173 3.73587e-06 -5.22336e-07
3.73587e-06 -3.39813e-06 -3.34169e-07
-5.22336e-07 -3.34169e-07 -5.10435e-05
0.00121065 7.15721e-06 -2.39551e-07
7.15721e-06 8.22843e-05 1.80914e-07
-2.39551e-07 1.80914e-07 3.1057e-05
0.0011811 4.49176e-06 2.79309e-07
4.49176e-06 7.15483e-05 5.11418e-07
2.79309e-07 5.11418e-07 2.3466e-05
0.00102185 4.64166e-06 5.67285e-09
4.64166e-06 -7.53903e-06 2.26856e-09
5.67285e-09 2.26856e-09 -5.63023e-05
0.0011529 4.55896e-06 1.35357e-07
4.55896e-06 6.00006e-05 2.72173e-07
1.35357e-07 2.72173e-07 4.07443e-06
0.00118129 7.84986e-06 -2.46866e-07
7.84986e-06 7.1192e-05 -1.94211e-08
-2.46866e-07 -1.94211e-08 1.59154e-05
0.00115137 7.91128e-06 -3.69814e-09
7.91128e-06 5.94734e-05 4.00054e-07
-3.69814e-09 4.00054e-07 -4.66838e-07
0.000833529 4.65362e-06 -7.65501e-06
4.65362e-06 0.000209694 -6.57836e-06
-7.65501e-06 -6.57836e-06 0.0001592
0.000638434 5.23225e-08 7.69824e-07
5.23225e-08 6.67451e-05 -1.82042e-06
7.69824e-07 -1.82042e-06 4.33147e-06
0.00112022 -7.36572e-06 -4.59888e-06
-7.36572e-06 0.000385447 3.58986e-06
-4.59888e-06 3.58986e-06 0.00033133
0.00095457 2.17823e-06 2.78262e-07
2.17823e-06 0.000328351 -7.79912e-07
2.78262e-07 -7.79912e-07 0.000281981
0.00224495 -4.84395e-05 -3.5174e-05
-4.84395e-05 0.000376683 4.4455e-05
-3.5174e-05 4.4455e-05 0.00015493
0.00231986 7.88887e-05 3.82901e-05
7.88887e-05 0.000129942 -6.5673e-05
3.82901e-05 -6.5673e-05 -0.000222456
0.00388083 8.80425e-05 9.22081e-07
8.80425e-05 0.00057395 -1.53133e-05
9.22081e-07 -1.53133e-05 0.000708273
0.000275752 -3.98835e-05 -1.33917e-05
-3.98835e-05 -0.000245497 1.67588e-05
-1.33917e-05 1.67588e-05 -0.000433422
0.00380903 3.57473e-05 -1.2219e-06
3.57473e-05 0.000193674 -2.05591e-05
-1.2219e-06 -2.05591e-05 -9.7026e-05
0.00440323 8.95515e-06 -8.26729e-06
8.95515e-06 0.000491056 -1.26249e-07
-8.26729e-06 -1.26249e-07 0.000810527
0.000333148 -5.97236e-06 3.23373e-06
-5.97236e-06 -9.11799e-05 2.58472e-06
3.23373e-06 2.58472e-06 -9.81814e-05
0.000345627 -2.38893e-05 -2.65966e-07
-2.38893e-05 8.88854e-06 -5.81127e-06
-2.65966e-07 -5.81127e-06 -0.00014759
0.00222053 2.26575e-06 8.05844e-07
2.26575e-06 -0.000444835 -4.80767e-05
8.05844e-07 -4.80767e-05 -0.000932208
0.000631942 -7.06589e-05 -6.42831e-06
-7.06589e-05 -0.000568449 3.19356e-05
-6.42831e-06 3.19356e-05 -0.000445694
-0.000243537 -1.95087e-05 -1.04157e-05
-1.95087e-05 -0.000421655 -1.42083e-06
-1.04157e-05 -1.42083e-06 -0.000387045
0.0011427 9.05756e-06 -1.21613e-06
9.05756e-06 6.12514e-05 3.46994e-08
-1.21613e-06 3.46994e-08 -5.68814e-06
0.00116623 3.27879e-06 -3.62846e-08
3.27879e-06 6.90983e-05 -5.49444e-08
-3.62846e-08 -5.49444e-08 5.23078e-06
0.00111871 -2.67188e-06 1.17401e-07
-2.67188e-06 4.76328e-05 -1.51497e-07
1.17401e-07 -1.51497e-07 -1.5331e-05
0.00114001 3.65516e-06 3.07614e-08
3.65516e-06 5.54055e-05 -2.62977e-07
3.07614e-08 -2.62977e-07 -9.79879e-07
0.000450273 -1.77492e-05 2.60543e-06
-1.77492e-05 -0.000310192 -5.70048e-06
2.60543e-06 -5.70048e-06 -0.000393111
0.00128412 3.34601e-06 1.31865e-06
3.34601e-06 0.000158135 -5.44939e-07
1.31865e-06 -5.44939e-07 7.15653e-05
0.00117292 6.52319e-07 2.47671e-07
6.52319e-07 7.85101e-05 3.91249e-07
2.47671e-07 3.91249e-07 8.28433e-06
0.00108204 1.19651e-06 -1.96958e-07
1.19651e-06 3.34437e-05 1.61703e-07
-1.96958e-07 1.61703e-07 -4.11863e-05
0.00122564 -5.9768e-06 -1.59755e-07
-5.9768e-06 0.00010406 -1.53053e-06
-1.59755e-07 -1.53053e-06 2.94642e-05
0.00113702 4.28177e-06 -1.72461e-07
4.28177e-06 6.20375e-05 -4.20368e-08
-1.72461e-07 -4.20368e-08 -1.23065e-05
0.00114119 -4.2361e-06 -3.48814e-07
-4.2361e-06 6.48817e-05 -2.50811e-07
-3.48814e-07 -2.50811e-07 -1.48358e-05
0.000900168 -3.74231e-06 7.29418e-07
-3.74231e-06 6.05034e-05 -1.62877e-07
7.29418e-07 -1.62877e-07 -2.83292e-05
0.00109456 -1.30137e-06 9.26458e-07
-1.30137e-06 4.29117e-05 -2.96228e-07
9.26458e-07 -2.96228e-07 -3.07247e-05
0.00113344 4.99493e-06 -1.62332e-07
4.99493e-06 6.48195e-05 1.98343e-07
-1.62332e-07 1.98343e-07 -1.44489e-05
0.00084019 4.39876e-07 -1.25446e-06
4.39876e-07 0.000129857 1.93877e-05
-1.25446e-06 1.93877e-05 6.63597e-05
0.00122249 -3.99916e-06 2.08194e-06
-3.99916e-06 9.96015e-05 -8.52393e-07
2.08194e-06 -8.52393e-07 9.93238e-06
0.00117828 5.1124e-07 -1.29554e-06
5.1124e-07 0.000384793 4.20265e-07
-1.29554e-06 4.20265e-07 0.000295361
0.000732503 5.25259e-07 -1.82063e-07
5.25259e-07 7.03434e-05 2.42513e-07
-1.82063e-07 2.42513e-07 -9.67575e-06
0.00035799 -7.95001e-09 -9.92665e-08
-7.95001e-09 -0.000127323 2.75522e-08
-9.92665e-08 2.75522e-08 -0.000219258
0.00125093 -8.7192e-06 7.53134e-07
-8.7192e-06 0.000108867 3.88912e-06
7.53134e-07 3.88912e-06 4.9608e-05
0.000659585 4.27957e-06 8.5503e-08
4.27957e-06 0.000161966 6.50349e-06
8.5503e-08 6.50349e-06 6.36066e-05
0.000794464 1.42781e-06 1.28117e-06
1.42781e-06 0.000118145 -4.89588e-08
1.28117e-06 -4.89588e-08 4.26073e-05
0.00274932 3.33628e-05 -2.43407e-06
3.33628e-05 -2.69977e-05 -1.49619e-05
-2.43407e-06 -1.49619e-05 -0.000488878
0.00407272 8.61363e-05 -1.18833e-06
8.61363e-05 0.000645801 1.36755e-05
-1.18833e-06 1.36755e-05 0.000849593
0.00111584 -6.09338e-06 4.68668e-06
-6.09338e-06 0.000372254 -3.91043e-06
4.68668e-06 -3.91043e-06 0.000324616
0.00165007 1.36215e-05 1.22779e-05
1.36215e-05 0.000744328 -4.57466e-06
1.22779e-05 -4.57466e-06 0.000799473
0.000996988 1.6673e-06 5.52867e-07
1.6673e-06 5.9608e-05 2.33076e-07
5.52867e-07 2.33076e-07 2.44123e-05
0.000874939 -5.46897e-06 -6.78041e-07
-5.46897e-06 0.000198783 2.49023e-07
-6.78041e-07 2.49023e-07 0.000121513
0.00066135 8.16764e-06 -3.33159e-06
8.16764e-06 0.000159576 6.89317e-07
-3.33159e-06 6.89317e-07 0.000147013
0.000587817 1.2574e-07 -7.52436e-07
1.2574e-07 0.000270901 3.93408e-06
-7.52436e-07 3.93408e-06 6.93618e-05
0.000267183 3.33705e-05 3.56144e-06
3.33705e-05 -7.23936e-05 -3.46942e-06
3.56144e-06 -3.46942e-06 4.96218e-07
-0.00078407 9.81194e-05 -3.30603e-06
9.81194e-05 -0.000983635 -6.49844e-06
-3.30603e-06 -6.49844e-06 -0.000975469
0.0017454 3.70505e-05 6.33448e-06
3.70505e-05 -0.000507591 -1.45882e-05
6.33448e-06 -1.45882e-05 -0.000809968
0.00123123 5.13104e-06 4.82984e-06
5.13104e-06 0.000235152 -1.04327e-05
4.82984e-06 -1.04327e-05 0.000189445
0.000732786 1.45582e-06 -1.01112e-05
1.45582e-06 0.000207102 4.92284e-06
-1.01112e-05 4.92284e-06 0.000149515
-0.001611 2.92063e-05 -1.22079e-05
2.92063e-05 -0.00115781 6.00862e-06
-1.22079e-05 6.00862e-06 -0.00112468
-0.000547354 7.07154e-05 2.73416e-05
7.07154e-05 -0.000103114 -3.33561e-05
2.73416e-05 -3.33561e-05 -7.60825e-05
0.00429985 7.48679e-05 1.60398e-05
7.48679e-05 0.000613264 -2.03708e-05
1.60398e-05 -2.03708e-05 0.000294443
0.00209115 -4.95453e-05 -5.59544e-06
-4.95453e-05 0.00060664 3.8631e-05
-5.59544e-06 3.8631e-05 0.00026144
0.00116686 1.40724e-06 4.51094e-07
1.40724e-06 8.2617e-05 -4.90624e-07
4.51094e-07 -4.90624e-07 2.16476e-05
0.00111292 3.97183e-06 -3.29841e-08
3.97183e-06 8.69518e-05 -1.21784e-07
-3.29841e-08 -1.21784e-07 1.18019e-05
0.00100799 -8.67255e-06 1.99045e-06
-8.67255e-06 6.0777e-05 -1.04562e-07
1.99045e-06 -1.04562e-07 -3.30625e-05
0.00115237 -4.2804e-06 -6.24303e-07
-4.2804e-06 7.85409e-05 7.79197e-07
-6.24303e-07 7.79197e-07 9.1944e-06
0.00100367 -1.05239e-05 2.51711e-07
-1.05239e-05 2.03706e-05 2.87001e-07
2.51711e-07 2.87001e-07 -6.07123e-05
0.00131374 -1.65932e-05 3.89307e-07
-1.65932e-05 0.000147377 5.72648e-09
3.89307e-07 5.72648e-09 5.91515e-05
0.00135615 -1.23082e-05 -2.1587e-07
-1.23082e-05 0.000165642 1.68323e-07
-2.1587e-07 1.68323e-07 9.2993e-05
0.00125307 -1.37224e-05 -1.46553e-07
-1.37224e-05 0.000115854 2.52677e-07
-1.46553e-07 2.52677e-07 3.86328e-05
0.00124574 -1.46633e-05 -3.13342e-07
-1.46633e-05 9.97273e-05 -7.68825e-07
-3.13342e-07 -7.68825e-07 2.33493e-05
0.00116704 -1.16373e-05 -1.77441e-07
-1.16373e-05 6.70128e-05 -1.35807e-07
-1.77441e-07 -1.35807e-07 -2.67228e-06
0.00126424 -1.28049e-05 -3.23061e-08
-1.28049e-05 0.000108741 6.72769e-09
-3.23061e-08 6.72769e-09 3.70551e-05
0.00126623 -1.28147e-05 -2.11082e-08
-1.28147e-05 9.60929e-05 -1.1044e-06
-2.11082e-08 -1.1044e-06 2.74609e-05
0.00124285 -1.1467e-05 -1.35336e-08
-1.1467e-05 7.41412e-05 -1.12266e-06
-1.35336e-08 -1.12266e-06 1.12643e-05
0.00128195 -1.15964e-05 -3.5812e-07
-1.15964e-05 0.000112222 3.99268e-07
-3.5812e-07 3.99268e-07 4.88428e-05
0.00121589 -1.21119e-05 -1.0823e-07
-1.21119e-05 7.93018e-05 -5.08032e-08
-1.0823e-07 -5.08032e-08 1.19713e-05
0.00103211 -8.85722e-06 -2.34497e-07
-8.85722e-06 5.51625e-06 1.09409e-07
-2.34497e-07 1.09409e-07 -5.11929e-05
0.00112003 -9.91872e-06 1.38951e-07
-9.91872e-06 4.57837e-05 -2.02391e-08
1.38951e-07 -2.02391e-08 -1.50135e-05
0.00111827 -1.09763e-05 -4.16467e-08
-1.09763e-05 4.14419e-05 -1.71189e-07
-4.16467e-08 -1.71189e-07 -2.46518e-05
0.00111793 -1.26442e-06 -3.59096e-07
-1.26442e-06 4.96583e-05 3.00501e-07
-3.59096e-07 3.00501e-07 -4.3168e-08
0.00116027 -7.31823e-06 9.4712e-08
-7.31823e-06 6.90912e-05 -2.21066e-07
9.4712e-08 -2.21066e-07 1.42395e-05
0.00108995 -8.68291e-06 7.03717e-07
-8.68291e-06 3.61113e-05 -4.36997e-07
7.03717e-07 -4.36997e-07 -2.16835e-05
0.00105922 5.30004e-06 -9.17031e-07
5.30004e-06 2.0304e-05 6.45661e-07
-9.17031e-07 6.45661e-07 -1.76747e-05
0.00105044 2.23399e-06 -1.07272e-07
2.23399e-06 1.82208e-05 2.1241e-07
-1.07272e-07 2.1241e-07 -3.00634e-05
0.00120704 -4.72203e-06 2.86864e-07
-4.72203e-06 9.41274e-05 -2.2606e-07
2.86864e-07 -2.2606e-07 4.06993e-05
0.00102271 5.77298e-06 -1.53966e-06
5.77298e-06 -1.92646e-06 1.16648e-06
-1.53966e-06 1.16648e-06 -2.33179e-05
0.00107918 3.948e-06 -4.18777e-08
3.948e-06 2.50989e-05 -1.36975e-08
-4.18777e-08 -1.36975e-08 -1.1762e-05
0.00112824 -1.15745e-06 4.84553e-07
-1.15745e-06 4.83386e-05 -2.61538e-07
4.84553e-07 -2.61538e-07 1.48862e-06
0.000996299 8.6273e-06 -2.72269e-06
8.6273e-06 -1.94048e-05 3.26004e-06
-2.72269e-06 3.26004e-06 -1.66029e-05
0.00103287 5.09465e-06 4.82151e-08
5.09465e-06 2.65037e-07 2.32431e-08
4.82151e-08 2.32431e-08 -2.09869e-05
0.00107937 3.22066e-06 1.03339e-06
3.22066e-06 2.29443e-05 -6.39838e-07
1.03339e-06 -6.39838e-07 -1.40371e-05
0.00104021 4.55175e-06 1.3118e-06
4.55175e-06 1.9221e-06 -1.33048e-06
1.3118e-06 -1.33048e-06 -1.93553e-05
0.000973213 7.65846e-06 6.71556e-08
7.65846e-06 -3.43592e-05 2.11488e-08
6.71556e-08 2.11488e-08 -3.0974e-05
0.00226983 1.01456e-05 -3.33603e-06
1.01456e-05 0.000590246 3.22265e-06
-3.33603e-06 3.22265e-06 0.000613801
0.000988126 6.60837e-06 1.70315e-06
6.60837e-06 -3.07224e-05 -2.46086e-06
1.70315e-06 -2.46086e-06 -2.69832e-05
0.00224111 8.7648e-06 1.00551e-07
8.7648e-06 0.000572852 2.4284e-08
1.00551e-07 2.4284e-08 0.000597054
0.00222481 7.36169e-06 2.80746e-06
7.36169e-06 0.000561816 -3.35547e-06
2.80746e-06 -3.35547e-06 0.000586548
0.00112611 3.09035e-06 -6.04002e-07
3.09035e-06 4.19139e-05 -2.41596e-07
-6.04002e-07 -2.41596e-07 -4.3897e-06
0.00107739 -1.40767e-06 -8.04985e-07
-1.40767e-06 1.99443e-05 -7.47495e-07
-8.04985e-07 -7.47495e-07 -1.68095e-05
0.00103813 -3.53281e-06 -1.12616e-06
-3.53281e-06 -1.15022e-06 -1.38728e-06
-1.12616e-06 -1.38728e-06 -2.21111e-05
0.00108097 8.9442e-08 -5.58757e-09
8.9442e-08 2.14628e-05 1.04285e-08
-5.58757e-09 1.04285e-08 -1.56397e-05
0.000997193 -5.50417e-06 -1.43624e-06
-5.50417e-06 -2.92873e-05 -2.56476e-06
-1.43624e-06 -2.56476e-06 -2.49658e-05
0.0010434 -3.12512e-06 -7.01297e-08
-3.12512e-06 1.89778e-07 2.39842e-08
-7.01297e-08 2.39842e-08 -2.05359e-05
0.00108303 -7.75889e-08 3.70974e-07
-7.75889e-08 2.33567e-05 4.99223e-07
3.70974e-07 4.99223e-07 -1.40708e-05
0.00220198 -5.92051e-06 -2.37522e-06
-5.92051e-06 0.000547481 -3.44194e-06
-2.37522e-06 -3.44194e-06 0.000572947
0.000992906 -4.52503e-06 -7.43835e-08
-4.52503e-06 -3.38749e-05 6.91323e-09
-7.43835e-08 6.91323e-09 -2.87202e-05
0.00103927 -2.85391e-06 5.03421e-07
-2.85391e-06 -3.04155e-06 1.06144e-06
5.03421e-07 1.06144e-06 -2.31115e-05
0.00220208 -4.42228e-06 -1.48903e-07
-4.42228e-06 0.000544718 1.52792e-08
-1.48903e-07 1.52792e-08 0.000570759
0.000987043 -3.44752e-06 7.5162e-07
-3.44752e-06 -3.89521e-05 2.74107e-06
7.5162e-07 2.74107e-06 -3.28546e-05
0.00220308 -2.88427e-06 1.09066e-06
-2.88427e-06 0.000543293 3.53922e-06
1.09066e-06 3.53922e-06 0.000569722
0.000742855 5.34271e-06 -2.6271e-06
5.34271e-06 0.000116888 -2.82331e-06
-2.6271e-06 -2.82331e-06 3.61604e-05
0.000759276 -5.03301e-07 -1.67126e-07
-5.03301e-07 9.70283e-05 -1.3404e-06
-1.67126e-07 -1.3404e-06 1.9727e-05
0.00100129 -6.71447e-06 -1.13226e-06
-6.71447e-06 0.000281914 1.48557e-06
-1.13226e-06 1.48557e-06 0.000198368
0.00107025 3.75962e-06 7.96355e-09
3.75962e-06 1.58019e-05 9.24302e-09
7.96355e-09 9.24302e-09 -3.15465e-05
0.00115346 6.94694e-06 2.30823e-07
6.94694e-06 5.44803e-05 1.57245e-07
2.30823e-07 1.57245e-07 2.88336e-06
0.00106103 3.32433e-06 -2.53661e-07
3.32433e-06 1.19687e-05 -3.2073e-07
-2.53661e-07 -3.2073e-07 -3.94348e-05
0.00108185 7.27732e-06 -5.84971e-07
7.27732e-06 2.10227e-05 -2.15676e-07
-5.84971e-07 -2.15676e-07 -3.22356e-05
0.00122174 8.15981e-06 5.00692e-08
8.15981e-06 8.6078e-05 3.60426e-07
5.00692e-08 3.60426e-07 3.17371e-05
0.00101237 4.4586e-06 5.54114e-07
4.4586e-06 -1.18849e-05 4.39265e-07
5.54114e-07 4.39265e-07 -6.05327e-05
0.00110213 5.76245e-06 3.00919e-07
5.76245e-06 3.53056e-05 3.66755e-07
3.00919e-07 3.66755e-07 -2.1243e-05
0.00116879 7.86251e-06 5.70427e-09
7.86251e-06 6.51279e-05 -4.54521e-09
5.70427e-09 -4.54521e-09 9.90725e-06
0.00113934 7.43749e-06 2.09072e-07
7.43749e-06 5.32478e-05 2.68097e-07
2.09072e-07 2.68097e-07 -6.3399e-06
0.00121167 8.72032e-06 -2.41324e-07
8.72032e-06 8.73976e-05 2.73289e-07
-2.41324e-07 2.73289e-07 2.76832e-05
0.000749803 -1.23613e-05 -1.13268e-05
-1.23613e-05 0.000219791 -1.42222e-05
-1.13268e-05 -1.42222e-05 0.000194476
0.000541601 4.3834e-06 -1.47485e-06
4.3834e-06 2.88024e-05 -1.69012e-06
-1.47485e-06 -1.69012e-06 -2.3136e-05
0.00082288 5.47668e-08 -6.07785e-07
5.47668e-08 0.0001761 2.33323e-07
-6.07785e-07 2.33323e-07 0.000109283
-5.63951e-05 -4.13728e-06 1.04996e-05
-4.13728e-06 -0.000325579 4.2778e-06
1.04996e-05 4.2778e-06 -0.000341871
0.000949365 8.29226e-06 -1.32712e-06
8.29226e-06 -0.000825487 -2.5451e-05
-1.32712e-06 -2.5451e-05 -0.000601075
0.00187939 -4.74831e-05 -2.08294e-05
-4.74831e-05 0.000395822 5.9535e-05
-2.08294e-05 5.9535e-05 0.000144108
0.00478747 5.23063e-05 1.14679e-05
5.23063e-05 0.000677045 -2.05639e-05
1.14679e-05 -2.05639e-05 0.000397559
0.000529793 -3.51858e-05 -1.80655e-06
-3.51858e-05 -1.01639e-05 7.87453e-06
-1.80655e-06 7.87453e-06 -0.000320547
0.00609656 1.19251e-05 1.47748e-06
1.19251e-05 0.000643089 1.96302e-06
1.47748e-06 1.96302e-06 0.000959876
0.00287212 -9.22855e-05 -1.21375e-06
-9.22855e-05 0.000454042 -1.00431e-06
-1.21375e-06 -1.00431e-06 0.000461671
-0.00075702 -2.27332e-05 -9.78633e-07
-2.27332e-05 -0.000750745 4.68719e-06
-9.78633e-07 4.68719e-06 -0.000695922
-0.000172903 -1.49584e-05 1.78845e-06
-1.49584e-05 -0.00015126 -2.16711e-05
1.78845e-06 -2.16711e-05 -0.000605297
0.00451347 -5.95336e-05 2.10588e-05
-5.95336e-05 0.000671411 4.27243e-05
2.10588e-05 4.27243e-05 0.000323155
0.00270636 -0.000128252 1.85209e-06
-0.000128252 0.000699814 1.90651e-05
1.85209e-06 1.90651e-05 0.000648644
0.000831064 -3.89579e-05 -5.19941e-06
-3.89579e-05 0.000242073 -2.77552e-06
-5.19941e-06 -2.77552e-06 0.000319761
0.00112488 1.13845e-05 -3.79208e-07
1.13845e-05 5.65852e-05 7.9584e-07
-3.79208e-07 7.9584e-07 -8.00684e-06
0.00116319 9.06827e-06 -3.4232e-07
9.06827e-06 7.07772e-05 -1.40605e-07
-3.4232e-07 -1.40605e-07 4.45638e-06
0.00118431 1.80258e-06 2.24002e-07
1.80258e-06 7.81678e-05 -2.30129e-07
2.24002e-07 -2.30129e-07 1.40301e-05
0.000367033 -1.81244e-06 4.53083e-06
-1.81244e-06 -0.00014359 -7.67577e-06
4.53083e-06 -7.67577e-06 -0.000221006
0.00108873 -2.48914e-06 3.74954e-07
-2.48914e-06 3.95518e-05 -1.81367e-06
3.74954e-07 -1.81367e-06 -3.20241e-05
0.0012054 5.11057e-06 2.77087e-07
5.11057e-06 9.55306e-05 5.64906e-08
2.77087e-07 5.64906e-08 2.20004e-05
0.00115062 -2.6032e-06 -3.59323e-07
-2.6032e-06 6.9108e-05 -4.83282e-07
-3.59323e-07 -4.83282e-07 -1.08756e-05
0.00116886 4.91751e-06 5.05822e-07
4.91751e-06 8.3767e-05 -4.45902e-09
5.05822e-07 -4.45902e-09 4.51681e-06
0.00118524 -3.52627e-06 4.54202e-08
-3.52627e-06 8.35329e-05 -8.16633e-07
4.54202e-08 -8.16633e-07 -6.29348e-06
0.00068532 -1.96397e-07 -3.58783e-07
-1.96397e-07 5.55391e-05 6.93503e-06
-3.58783e-07 6.93503e-06 -8.87613e-06
0.00105327 1.11997e-05 -1.5754e-06
1.11997e-05 3.75778e-05 -1.71702e-08
-1.5754e-06 -1.71702e-08 -4.68344e-05
0.000867442 9.90953e-06 3.86184e-06
9.90953e-06 0.000104181 1.4874e-05
3.86184e-06 1.4874e-05 2.53605e-05
0.00157012 -3.31097e-06 -1.1075e-05
-3.31097e-06 0.000733763 -6.41428e-07
-1.1075e-05 -6.41428e-07 0.000663191
0.000744933 2.7453e-08 -4.92985e-07
2.7453e-08 0.000112357 -3.43389e-07
-4.92985e-07 -3.43389e-07 2.33746e-05
0.000532856 -6.42765e-07 1.34543e-07
-6.42765e-07 -5.3062e-05 -2.22369e-07
1.34543e-07 -2.22369e-07 -0.000131472
0.00086863 2.97844e-07 1.01002e-06
2.97844e-07 -2.13927e-05 8.96368e-06
1.01002e-06 8.96368e-06 -5.57295e-05
-4.55928e-05 2.24754e-05 1.50474e-06
2.24754e-05 -5.81598e-05 -8.92185e-06
1.50474e-06 -8.92185e-06 -0.000585038
0.000992014 -5.41957e-06 1.08468e-06
-5.41957e-06 0.000272389 -1.7901e-06
1.08468e-06 -1.7901e-06 0.000194488
0.00651272 3.30216e-05 -9.34339e-06
3.30216e-05 0.00134005 -2.22821e-06
-9.34339e-06 -2.22821e-06 0.000970776
0.00286583 0.000119605 -7.41149e-06
0.000119605 0.000826216 2.03871e-05
-7.41149e-06 2.03871e-05 0.000763574
0.000881663 8.30443e-06 1.03897e-05
8.30443e-06 0.00029909 -1.06492e-05
1.03897e-05 -1.06492e-05 0.000287777
0.000133759 3.35871e-05 9.52239e-06
3.35871e-05 -0.000155682 -5.69662e-06
9.52239e-06 -5.69662e-06 -8.14499e-05
0.000877762 4.5735e-06 -1.21377e-06
4.5735e-06 6.97935e-05 -9.48349e-07
-1.21377e-06 -9.48349e-07 2.21027e-05
0.000770609 1.58472e-06 2.11133e-07
1.58472e-06 0.000229384 -4.07839e-07
2.11133e-07 -4.07839e-07 0.0001722
-0.00102427 3.0793e-05 3.67847e-06
3.0793e-05 -0.000802342 -7.48742e-07
3.67847e-06 -7.48742e-07 -0.000764359
0.000552157 -3.68659e-05 -3.29638e-07
-3.68659e-05 9.36024e-05 1.28103e-05
-3.29638e-07 1.28103e-05 -0.000233979
0.00169453 9.35521e-05 -5.21735e-07
9.35521e-05 0.00050539 -2.66434e-06
-5.21735e-07 -2.66434e-06 0.000457233
0.00387722 5.59237e-05 4.10729e-06
5.59237e-05 0.000463239 -2.93531e-06
4.10729e-06 -2.93531e-06 -5.78732e-05
0.000819464 -1.1997e-05 5.97427e-06
-1.1997e-05 3.34095e-05 -7.79402e-06
5.97427e-06 -7.79402e-06 -4.47849e-05
-0.00148644 1.67154e-05 -1.33666e-05
1.67154e-05 -0.00106082 4.455e-06
-1.33666e-05 4.455e-06 -0.00106065
0.00174531 6.42657e-05 1.37117e-05
6.42657e-05 0.000881554 -8.41183e-06
1.37117e-05 -8.41183e-06 0.000860343
0.00179899 3.44899e-05 5.13126e-06
3.44899e-05 -0.000245309 -9.95862e-06
5.13126e-06 -9.95862e-06 -0.000635674
0.00047396 -4.17961e-05 -1.09311e-05
-4.17961e-05 -0.000169485 2.73694e-05
-1.09311e-05 2.73694e-05 -0.00031917
0.00116403 4.00571e-06 -1.1386e-06
4.00571e-06 0.000108174 2.92152e-07
-1.1386e-06 2.92152e-07 3.34108e-05
0.00107039 -7.18905e-06 -6.82875e-08
-7.18905e-06 8.83e-05 8.30856e-08
-6.82875e-08 8.30856e-08 -5.17538e-06
0.00152021 -2.1249e-05 7.11261e-07
-2.1249e-05 0.000279819 -2.31246e-07
7.11261e-07 -2.31246e-07 0.000181399
0.000968727 -1.00356e-05 -6.74359e-07
-1.00356e-05 4.4275e-06 4.6435e-07
-6.74359e-07 4.6435e-07 -7.52353e-05
0.00120962 -1.56646e-05 2.20697e-08
-1.56646e-05 0.000103286 -8.49457e-08
2.20697e-08 -8.49457e-08 1.54819e-05
0.001329 -1.82061e-05 -6.25686e-07
-1.82061e-05 0.000116528 -2.29547e-06
-6.25686e-07 -2.29547e-06 3.91161e-05
0.00124158 -1.37581e-05 -2.30296e-07
-1.37581e-05 0.000109961 -5.28756e-08
-2.30296e-07 -5.28756e-08 3.19461e-05
0.00118473 -1.42656e-05 -5.65478e-08
-1.42656e-05 7.08805e-05 -5.339e-07
-5.65478e-08 -5.339e-07 -4.89125e-06
0.00131487 -1.37129e-05 -1.42353e-07
-1.37129e-05 0.000103386 -1.94338e-06
-1.42353e-07 -1.94338e-06 3.91471e-05
0.00119009 -1.25068e-05 -2.83315e-07
-1.25068e-05 7.34394e-05 1.34754e-08
-2.83315e-07 1.34754e-08 1.3494e-06
0.00119272 -1.23366e-05 8.84088e-09
-1.23366e-05 6.12137e-05 -4.13823e-07
8.84088e-09 -4.13823e-07 -6.86017e-06
0.00126341 -1.09427e-05 2.51498e-07
-1.09427e-05 6.90285e-05 -1.73672e-06
2.51498e-07 -1.73672e-06 1.12299e-05
0.00124597 -9.4903e-06 4.87519e-07
-9.4903e-06 6.06541e-05 -9.98363e-07
4.87519e-07 -9.98363e-07 4.59862e-06
0.00119983 -1.1253e-05 -1.18278e-07
-1.1253e-05 6.10035e-05 -4.5514e-07
-1.18278e-07 -4.5514e-07 -1.71875e-06
0.00119625 -1.11036e-05 3.49328e-08
-1.11036e-05 5.16042e-05 -2.54989e-07
3.49328e-08 -2.54989e-07 -1.08817e-05
0.00117374 -1.01005e-05 -2.97554e-07
-1.01005e-05 6.56341e-05 3.74351e-07
-2.97554e-07 3.74351e-07 6.49519e-06
0.00118854 -1.13248e-05 -1.38153e-07
-1.13248e-05 6.92501e-05 1.13582e-07
-1.38153e-07 1.13582e-07 5.17634e-06
0.00115848 -1.18983e-05 -1.6729e-07
-1.18983e-05 5.24821e-05 1.09466e-07
-1.6729e-07 1.09466e-07 -1.52396e-05
0.0010993 -5.11073e-06 -5.12502e-07
-5.11073e-06 3.82836e-05 1.39365e-07
-5.12502e-07 1.39365e-07 -1.21524e-05
0.00107302 -8.92467e-06 -4.69119e-08
-8.92467e-06 2.50165e-05 -1.50674e-07
-4.69119e-08 -1.50674e-07 -3.11769e-05
0.00116502 -9.99904e-06 3.74451e-07
-9.99904e-06 6.71083e-05 -4.20081e-07
3.74451e-07 -4.20081e-07 6.81369e-06
0.00106006 5.05312e-06 -8.99826e-07
5.05312e-06 2.31992e-05 6.89255e-07
-8.99826e-07 6.89255e-07 -1.66264e-05
0.00106993 -8.74215e-07 7.95712e-08
-8.74215e-07 2.70842e-05 8.59932e-08
7.95712e-08 8.59932e-08 -2.27335e-05
0.00109296 -7.08906e-06 4.03797e-07
-7.08906e-06 3.715e-05 -2.29603e-07
4.03797e-07 -2.29603e-07 -1.8182e-05
0.00101095 6.4929e-06 -1.5933e-06
6.4929e-06 -3.57535e-06 1.10946e-06
-1.5933e-06 1.10946e-06 -2.57995e-05
0.00107324 5.40896e-06 -1.03897e-08
5.40896e-06 2.6762e-05 -3.22195e-08
-1.03897e-08 -3.22195e-08 -1.12435e-05
0.00109772 1.85142e-06 2.8194e-07
1.85142e-06 4.0368e-05 -9.67158e-08
2.8194e-07 -9.67158e-08 -7.45623e-06
0.00148409 1.00016e-05 -2.82975e-06
1.00016e-05 0.000220505 2.17734e-06
-2.82975e-06 2.17734e-06 0.000225474
0.00102857 5.78359e-06 1.72548e-08
5.78359e-06 8.30496e-07 9.21751e-09
1.72548e-08 9.21751e-09 -2.05705e-05
0.00108404 4.05884e-06 9.51192e-07
4.05884e-06 2.73689e-05 -6.31499e-07
9.51192e-07 -6.31499e-07 -9.48728e-06
0.00119231 1.06904e-05 -3.38849e-06
1.06904e-05 7.35017e-05 2.9604e-06
-3.38849e-06 2.9604e-06 9.1577e-05
0.00124436 8.80764e-06 -5.47501e-07
8.80764e-06 0.000100651 5.22038e-07
-5.47501e-07 5.22038e-07 0.000104774
0.00103489 5.10809e-06 1.48457e-06
5.10809e-06 1.1983e-06 -1.21895e-06
1.48457e-06 -1.21895e-06 -2.00407e-05
0.000981651 7.65212e-06 1.95517e-06
7.65212e-06 -3.03315e-05 -2.35254e-06
1.95517e-06 -2.35254e-06 -2.69762e-05
0.00223799 1.01826e-05 1.00302e-07
1.01826e-05 0.000575408 2.96901e-08
1.00302e-07 2.96901e-08 0.000599041
0.00221439 8.80673e-06 3.15739e-06
8.80673e-06 0.000560455 -3.27364e-06
3.15739e-06 -3.27364e-06 0.000584718
0.00105447 1.40077e-06 -6.26523e-07
1.40077e-06 8.6124e-06 -4.47092e-07
-6.26523e-07 -4.47092e-07 -3.78707e-05
0.00107812 -2.37914e-06 -9.30423e-07
-2.37914e-06 2.06533e-05 -6.65597e-07
-9.30423e-07 -6.65597e-07 -1.58496e-05
0.00108924 2.89389e-06 -3.03204e-08
2.89389e-06 2.42894e-05 2.41628e-08
-3.03204e-08 2.41628e-08 -2.22305e-05
0.00103556 -4.13748e-06 -1.26892e-06
-4.13748e-06 -1.00348e-06 -1.32102e-06
-1.26892e-06 -1.32102e-06 -2.2009e-05
0.00108081 -1.21618e-06 -1.93304e-08
-1.21618e-06 2.1524e-05 4.34432e-09
-1.93304e-08 4.34432e-09 -1.52474e-05
0.000988231 -6.48932e-06 -1.70352e-06
-6.48932e-06 -3.07753e-05 -2.45737e-06
-1.70352e-06 -2.45737e-06 -2.69907e-05
0.0010386 -3.51666e-06 -3.73815e-08
-3.51666e-06 -8.94778e-07 1.95228e-08
-3.73815e-08 1.95228e-08 -2.18732e-05
0.00108743 3.12811e-07 7.33465e-07
3.12811e-07 2.45043e-05 7.98506e-07
7.33465e-07 7.98506e-07 -1.26299e-05
0.00221354 -7.34503e-06 -2.81172e-06
-7.34503e-06 0.000556106 -3.37501e-06
-2.81172e-06 -3.37501e-06 0.000580979
0.000987163 -5.52234e-06 -7.37904e-08
-5.52234e-06 -3.40528e-05 1.37186e-08
-7.37904e-08 1.37186e-08 -2.96852e-05
0.00104068 -3.14091e-06 8.1998e-07
-3.14091e-06 -1.01406e-06 1.51169e-06
8.1998e-07 1.51169e-06 -2.17459e-05
0.00221964 -5.88175e-06 -1.44851e-07
-5.88175e-06 0.00055562 2.0485e-08
-1.44851e-07 2.0485e-08 0.000581094
0.000981501 -4.54363e-06 9.95525e-07
-4.54363e-06 -3.9363e-05 2.69147e-06
9.95525e-07 2.69147e-06 -3.41311e-05
0.00221671 -4.37599e-06 1.63944e-06
-4.37599e-06 0.000551476 3.49186e-06
1.63944e-06 3.49186e-06 0.000577525
0.000507279 -7.68791e-06 -1.32056e-05
-7.68791e-06 6.55915e-05 -6.53958e-06
-1.32056e-05 -6.53958e-06 -5.85525e-06
0.000599742 4.65356e-06 -5.82031e-07
4.65356e-06 2.88263e-05 -1.09908e-06
-5.82031e-07 -1.09908e-06 -5.2758e-05
0.000872496 -1.26961e-06 -8.9633e-07
-1.26961e-06 0.000168256 -3.5276e-07
-8.9633e-07 -3.5276e-07 8.88812e-05
0.00119509 2.70116e-06 -1.02645e-07
2.70116e-06 7.90407e-05 2.76051e-07
-1.02645e-07 2.76051e-07 2.77729e-05
0.00110965 3.78539e-06 5.18494e-07
3.78539e-06 3.5388e-05 3.83499e-07
5.18494e-07 3.83499e-07 -1.16618e-05
0.00109613 6.73817e-06 5.35564e-07
6.73817e-06 2.6604e-05 9.07861e-08
5.35564e-07 9.07861e-08 -2.53615e-05
0.00114717 7.43611e-06 -1.75308e-07
7.43611e-06 5.30454e-05 -1.98558e-07
-1.75308e-07 -1.98558e-07 1.50137e-07
0.00113655 3.76032e-06 -1.19641e-07
3.76032e-06 4.85918e-05 -2.57238e-07
-1.19641e-07 -2.57238e-07 -2.46312e-06
0.001174 7.93832e-06 1.88525e-07
7.93832e-06 6.30733e-05 2.26863e-07
1.88525e-07 2.26863e-07 8.92084e-06
0.00112268 7.73384e-06 -1.94229e-07
7.73384e-06 4.06365e-05 -1.05145e-08
-1.94229e-07 -1.05145e-08 -1.44368e-05
0.00111178 8.32541e-06 -1.39345e-07
8.32541e-06 3.64151e-05 2.34412e-07
-1.39345e-07 2.34412e-07 -2.01844e-05
0.00115747 7.87435e-06 3.09752e-07
7.87435e-06 5.96096e-05 -4.3657e-09
3.09752e-07 -4.3657e-09 4.4436e-06
0.00112502 7.56169e-06 5.15734e-07
7.56169e-06 4.59267e-05 2.50501e-08
5.15734e-07 2.50501e-08 -1.33085e-05
0.00117689 8.56969e-06 -1.0874e-07
8.56969e-06 7.06211e-05 -3.89812e-08
-1.0874e-07 -3.89812e-08 1.10173e-05
0.00128529 9.49494e-06 8.77618e-08
9.49494e-06 0.000122087 5.56483e-07
8.77618e-08 5.56483e-07 6.18932e-05
0.00105419 -3.28625e-05 -1.07587e-05
-3.28625e-05 0.000457584 -6.12246e-06
-1.07587e-05 -6.12246e-06 0.000504515
0.000543282 -1.2953e-05 -2.34034e-06
-1.2953e-05 9.65387e-05 -2.52103e-06
-2.34034e-06 -2.52103e-06 7.22464e-05
0.000263128 4.08074e-06 4.04406e-06
4.08074e-06 -0.000144047 3.70765e-06
4.04406e-06 3.70765e-06 -0.000197406
0.000726773 -2.93768e-05 1.65996e-05
-2.93768e-05 0.000169404 1.34688e-05
1.65996e-05 1.34688e-05 0.000215262
0.000833383 -7.34968e-05 8.18231e-06
-7.34968e-05 -0.000901964 -4.72871e-05
8.18231e-06 -4.72871e-05 -0.000786923
0.00224934 1.46675e-05 -1.43437e-07
1.46675e-05 -0.000436054 4.80552e-05
-1.43437e-07 4.80552e-05 -0.000922052
0.000524086 -2.32879e-05 -1.02524e-07
-2.32879e-05 0.000243422 1.3642e-05
-1.02524e-07 1.3642e-05 0.00010816
0.00111801 -9.79774e-08 -1.7953e-07
-9.79774e-08 0.000565198 -5.89862e-06
-1.7953e-07 -5.89862e-06 0.000365907
0.000438603 -4.07182e-05 5.33754e-06
-4.07182e-05 1.86274e-05 2.15839e-06
5.33754e-06 2.15839e-06 9.51743e-05
0.00553759 -2.76004e-05 6.49265e-06
-2.76004e-05 0.00075966 2.19744e-05
6.49265e-06 2.19744e-05 0.00055848
-0.00108156 -0.000101686 -2.67657e-06
-0.000101686 -0.000799653 -1.26747e-05
-2.67657e-06 -1.26747e-05 -0.000786107
0.000775946 2.73231e-05 -3.44763e-06
2.73231e-05 0.000238657 -1.88213e-05
-3.44763e-06 -1.88213e-05 0.000104879
0.00440407 -0.000107429 3.73136e-05
-0.000107429 0.000815145 4.77601e-05
3.73136e-05 4.77601e-05 0.000416233
-0.000360253 -8.59347e-05 3.32471e-05
-8.59347e-05 -6.99162e-05 2.77016e-05
3.32471e-05 2.77016e-05 -3.08631e-05
0.00107673 1.60978e-05 -7.7374e-07
1.60978e-05 4.67482e-05 6.92852e-07
-7.7374e-07 6.92852e-07 -1.63947e-05
0.00116238 1.09737e-05 7.29735e-07
1.09737e-05 7.17032e-05 1.64903e-07
7.29735e-07 1.64903e-07 7.4336e-06
0.00118463 9.07842e-06 1.22337e-07
9.07842e-06 8.07318e-05 -4.8306e-07
1.22337e-07 -4.8306e-07 1.50298e-05
0.000512755 -1.52969e-07 -4.53123e-07
-1.52969e-07 -2.66834e-05 -5.88533e-06
-4.53123e-07 -5.88533e-06 -9.2087e-05
0.00112837 -2.93194e-06 -3.98774e-07
-2.93194e-06 5.86763e-05 -4.31954e-07
-3.98774e-07 -4.31954e-07 -3.13361e-05
0.00120825 4.77747e-06 1.38893e-06
4.77747e-06 0.000104424 -1.34006e-07
1.38893e-06 -1.34006e-07 2.5198e-05
0.00120066 1.16857e-05 -9.31909e-08
1.16857e-05 0.000108381 -7.17466e-09
-9.31909e-08 -7.17466e-09 2.43763e-05
0.000913579 1.07664e-05 1.21533e-06
1.07664e-05 0.000119797 5.77739e-06
1.21533e-06 5.77739e-06 3.97395e-05
0.000204606 2.95205e-05 1.14099e-06
2.95205e-05 -0.000283046 5.13156e-06
1.14099e-06 5.13156e-06 -0.000350445
0.00204292 -4.87055e-06 -1.42682e-05
-4.87055e-06 0.00111204 3.67006e-07
-1.42682e-05 3.67006e-07 0.00111921
0.000662056 -2.26156e-06 -1.139e-06
-2.26156e-06 0.000162894 -1.26867e-06
-1.139e-06 -1.26867e-06 8.40868e-05
0.000327975 -3.78383e-07 3.13376e-07
-3.78383e-07 -0.000149566 -6.36044e-07
3.13376e-07 -6.36044e-07 -0.000238156
0.000553995 2.79059e-06 -4.7973e-06
2.79059e-06 -8.43718e-05 1.05967e-05
-4.7973e-06 1.05967e-05 -0.000133831
0.000268168 -2.6189e-05 4.12685e-06
-2.6189e-05 -4.20449e-05 -2.12271e-05
4.12685e-06 -2.12271e-05 -0.000249133
0.000910638 1.81142e-06 1.05715e-05
1.81142e-06 0.000315715 -5.20232e-06
1.05715e-05 -5.20232e-06 0.000258737
0.00378322 5.80665e-05 -2.73227e-05
5.80665e-05 0.000889624 5.2979e-05
-2.73227e-05 5.2979e-05 0.000515068
-0.00188702 7.48326e-05 -3.47867e-05
7.48326e-05 -0.00094112 2.98955e-05
-3.47867e-05 2.98955e-05 -0.000909385
0.00100459 3.03114e-05 1.76576e-05
3.03114e-05 0.000413531 -1.28821e-05
1.76576e-05 -1.28821e-05 0.00045499
0.00107619 -1.00289e-05 -3.50228e-09
-1.00289e-05 0.000151546 8.84481e-08
-3.50228e-09 8.84481e-08 7.58074e-05
0.000856504 1.58204e-05 2.27272e-06
1.58204e-05 0.000364415 -1.27983e-06
2.27272e-06 -1.27983e-06 0.000369974
-0.00189137 4.19239e-05 -1.59595e-05
4.19239e-05 -0.000644521 6.52616e-06
-1.59595e-05 6.52616e-06 -0.000605082
0.00123305 -5.63665e-05 -5.62218e-06
-5.63665e-05 4.59551e-06 2.14986e-05
-5.62218e-06 2.14986e-05 -0.000273881
0.00459323 6.07093e-05 -2.11118e-06
6.07093e-05 0.00106133 5.33258e-06
-2.11118e-06 5.33258e-06 0.000707475
0.0016894 -2.86225e-05 7.08493e-06
-2.86225e-05 0.000218641 -7.49684e-06
7.08493e-06 -7.49684e-06 0.00013285
-0.00496149 3.24348e-05 3.08544e-05
3.24348e-05 -0.00214056 -1.40057e-05
3.08544e-05 -1.40057e-05 -0.00202507
0.00389137 2.38808e-05 5.34423e-05
2.38808e-05 0.00091267 -3.0099e-05
5.34423e-05 -3.0099e-05 0.000692045
0.00145304 -5.71149e-05 -2.2818e-05
-5.71149e-05 -7.33299e-05 2.54983e-05
-2.2818e-05 2.54983e-05 -0.000240767
0.00114174 -5.77989e-06 -1.59265e-06
-5.77989e-06 0.000119675 6.64542e-07
-1.59265e-06 6.64542e-07 2.6634e-05
0.00115325 -1.93045e-05 4.22836e-07
-1.93045e-05 0.00010662 1.53006e-07
4.22836e-07 1.53006e-07 5.45681e-06
0.00144155 -2.48269e-05 -1.21908e-06
-2.48269e-05 0.000166531 -1.83409e-06
-1.21908e-06 -1.83409e-06 9.45736e-05
0.00111943 -1.47615e-05 -8.12689e-07
-1.47615e-05 6.5613e-05 2.22343e-07
-8.12689e-07 2.22343e-07 -2.17769e-05
0.00120017 -1.75022e-05 -3.29562e-07
-1.75022e-05 5.4754e-05 -7.801e-07
-3.29562e-07 -7.801e-07 -2.15917e-05
0.00141707 -1.58313e-05 -7.23441e-08
-1.58313e-05 0.000108268 -2.86638e-06
-7.23441e-08 -2.86638e-06 5.64596e-05
0.00112362 -1.38662e-05 -5.18422e-08
-1.38662e-05 4.19488e-05 -5.46242e-08
-5.18422e-08 -5.46242e-08 -3.32138e-05
0.00119453 -1.30393e-05 8.15162e-08
-1.30393e-05 4.58546e-05 -4.36851e-07
8.15162e-08 -4.36851e-07 -1.74881e-05
0.0012832 -1.02733e-05 6.93421e-07
-1.02733e-05 5.74927e-05 -1.8142e-06
6.93421e-07 -1.8142e-06 1.02939e-05
0.00111978 -1.1858e-05 -1.09519e-07
-1.1858e-05 2.65766e-05 4.32645e-07
-1.09519e-07 4.32645e-07 -4.09361e-05
0.00120805 -1.0618e-05 1.85646e-08
-1.0618e-05 4.21324e-05 -1.06874e-07
1.85646e-08 -1.06874e-07 -1.52622e-05
0.00123126 -7.82369e-06 1.05785e-06
-7.82369e-06 4.05187e-05 -1.09314e-06
1.05785e-06 -1.09314e-06 -8.1561e-06
0.00120468 -7.10771e-06 8.15836e-07
-7.10771e-06 4.19778e-05 -5.88924e-07
8.15836e-07 -5.88924e-07 -1.02714e-05
0.00127461 -1.02211e-05 1.45629e-07
-1.02211e-05 8.36104e-05 -7.20465e-07
1.45629e-07 -7.20465e-07 2.56638e-05
0.00121444 -9.1911e-06 1.20873e-07
-9.1911e-06 4.5943e-05 3.03823e-07
1.20873e-07 3.03823e-07 -9.89287e-06
0.00111014 -1.00255e-05 -4.15763e-07
-1.00255e-05 2.50884e-05 -5.63793e-08
-4.15763e-07 -5.63793e-08 -3.45116e-05
0.00120412 -1.11525e-05 2.61521e-07
-1.11525e-05 6.42942e-05 -1.9949e-07
2.61521e-07 -1.9949e-07 2.07042e-06
0.00114898 -1.07328e-05 9.60645e-09
-1.07328e-05 2.8716e-05 6.95594e-07
9.60645e-09 6.95594e-07 -3.33718e-05
0.00111335 -7.66783e-06 -4.3815e-07
-7.66783e-06 4.24959e-05 3.53934e-07
-4.3815e-07 3.53934e-07 -9.99347e-06
0.00110666 -9.85999e-06 3.45106e-08
-9.85999e-06 3.52577e-05 -4.37907e-08
3.45106e-08 -4.37907e-08 -2.39838e-05
0.00109286 -1.10472e-05 3.45316e-08
-1.10472e-05 2.52273e-05 -1.10399e-07
3.45316e-08 -1.10399e-07 -3.95398e-05
0.00106707 2.84496e-06 -1.03469e-06
2.84496e-06 2.68699e-05 5.60261e-07
-1.03469e-06 5.60261e-07 -1.4746e-05
0.00111214 -4.49253e-06 -4.60493e-08
-4.49253e-06 4.40525e-05 -3.96381e-08
-4.60493e-08 -3.96381e-08 -6.39329e-06
0.00111574 -9.00069e-06 1.66857e-07
-9.00069e-06 4.53887e-05 -3.47674e-07
1.66857e-07 -3.47674e-07 -1.0294e-05
0.00100512 6.90806e-06 -1.67922e-06
6.90806e-06 -2.3984e-06 1.09717e-06
-1.67922e-06 1.09717e-06 -2.61873e-05
0.00106998 4.76893e-06 9.06805e-08
4.76893e-06 2.75621e-05 3.09295e-08
9.06805e-08 3.09295e-08 -1.2233e-05
0.00102189 -5.15053e-07 5.63994e-07
-5.15053e-07 4.47369e-06 -1.77521e-07
5.63994e-07 -1.77521e-07 -4.54577e-05
0.000928719 1.06938e-05 -2.47011e-06
1.06938e-05 -4.32239e-05 2.01671e-06
-2.47011e-06 2.01671e-06 -4.14396e-05
0.00102416 6.48614e-06 1.7098e-08
6.48614e-06 2.59222e-06 -6.15664e-09
1.7098e-08 -6.15664e-09 -1.96858e-05
0.00108709 5.52012e-06 8.56421e-07
5.52012e-06 3.31471e-05 -6.86624e-07
8.56421e-07 -6.86624e-07 -4.88551e-06
0.00219999 1.32571e-05 -1.75469e-06
1.32571e-05 0.000565489 1.174e-06
-1.75469e-06 1.174e-06 0.000588085
0.000945581 9.69179e-06 5.35567e-08
9.69179e-06 -3.97742e-05 2.48856e-08
5.35567e-08 2.48856e-08 -3.72456e-05
0.00103422 5.79218e-06 1.5725e-06
5.79218e-06 3.48308e-06 -1.14707e-06
1.5725e-06 -1.14707e-06 -1.79266e-05
0.00225712 1.1559e-05 8.62527e-08
1.1559e-05 0.000588813 3.40751e-08
8.62527e-08 3.40751e-08 0.000611751
0.000973578 8.6581e-06 2.19071e-06
8.6581e-06 -3.05261e-05 -2.22187e-06
2.19071e-06 -2.22187e-06 -2.75688e-05
0.00220655 1.02206e-05 3.48459e-06
1.02206e-05 0.000560761 -3.17825e-06
3.48459e-06 -3.17825e-06 0.000584469
0.0012346 -3.14401e-07 -3.07336e-07
-3.14401e-07 9.95213e-05 1.09813e-07
-3.07336e-07 1.09813e-07 5.34683e-05
0.00107968 1.80927e-07 -8.62679e-08
1.80927e-07 2.15118e-05 -1.86106e-07
-8.62679e-08 -1.86106e-07 -2.47538e-05
0.00108226 -3.43537e-06 -9.22725e-07
-3.43537e-06 2.42463e-05 -6.4748e-07
-9.22725e-07 -6.4748e-07 -1.24831e-05
0.0010328 -4.81081e-06 -1.4267e-06
-4.81081e-06 -7.63264e-07 -1.22983e-06
-1.4267e-06 -1.22983e-06 -2.18508e-05
0.00107991 -2.23003e-06 -3.94575e-08
-2.23003e-06 2.14642e-05 1.75612e-08
-3.94575e-08 1.75612e-08 -1.50573e-05
0.00105265 2.69922e-06 5.55213e-07
2.69922e-06 6.80109e-06 3.13767e-07
5.55213e-07 3.13767e-07 -3.99362e-05
0.000980145 -7.47873e-06 -1.94391e-06
-7.47873e-06 -3.15789e-05 -2.34453e-06
-1.94391e-06 -2.34453e-06 -2.81876e-05
0.00103455 -4.12147e-06 -3.63436e-08
-4.12147e-06 -1.51421e-06 1.22094e-08
-3.63436e-08 1.22094e-08 -2.25155e-05
0.00108446 -1.03485e-06 7.81205e-07
-1.03485e-06 2.32131e-05 7.6627e-07
7.81205e-07 7.6627e-07 -1.35761e-05
0.00221826 -8.75364e-06 -3.18476e-06
-8.75364e-06 0.000561858 -3.2833e-06
-3.18476e-06 -3.2833e-06 0.000586162
0.000979447 -6.49891e-06 -6.65583e-08
-6.49891e-06 -3.49378e-05 2.06037e-08
-6.65583e-08 2.06037e-08 -3.11245e-05
0.0010391 -3.49976e-06 1.05371e-06
-3.49976e-06 -6.27261e-07 1.42313e-06
1.05371e-06 1.42313e-06 -2.16231e-05
0.00223698 -7.30657e-06 -1.2796e-07
-7.30657e-06 0.000566995 2.46464e-08
-1.2796e-07 2.46464e-08 0.00059184
0.000976834 -5.54212e-06 1.28587e-06
-5.54212e-06 -3.89608e-05 2.61725e-06
1.28587e-06 2.61725e-06 -3.45463e-05
0.00223804 -5.84228e-06 2.12766e-06
-5.84228e-06 0.000564116 3.44669e-06
2.12766e-06 3.44669e-06 0.000589594
-0.000262605 -1.83774e-05 -1.46208e-05
-1.83774e-05 -0.000299895 -6.5754e-06
-1.46208e-05 -6.5754e-06 -0.000290521
0.000492236 -5.54088e-06 -7.04033e-07
-5.54088e-06 5.7458e-05 -1.89149e-06
-7.04033e-07 -1.89149e-06 -1.42203e-05
0.000447582 3.9617e-06 1.61047e-06
3.9617e-06 -6.47705e-05 6.40699e-07
1.61047e-06 6.40699e-07 -0.000147243
0.00115733 2.42995e-06 5.32049e-08
2.42995e-06 6.0665e-05 2.12054e-07
5.32049e-08 2.12054e-07 9.02123e-06
0.00115581 3.61387e-06 -8.71098e-08
3.61387e-06 6.04805e-05 3.39635e-07
-8.71098e-08 3.39635e-07 8.18069e-06
0.00113369 7.64223e-06 -1.6007e-08
7.64223e-06 4.73577e-05 3.86197e-07
-1.6007e-08 3.86197e-07 -6.7927e-06
0.00121174 7.59488e-06 1.88736e-07
7.59488e-06 8.47295e-05 -2.859e-07
1.88736e-07 -2.859e-07 3.21967e-05
0.00121323 4.13387e-06 2.30943e-07
4.13387e-06 8.57778e-05 -1.18894e-07
2.30943e-07 -1.18894e-07 3.50675e-05
0.00112558 7.71552e-06 2.09901e-07
7.71552e-06 3.97626e-05 2.79027e-07
2.09901e-07 2.79027e-07 -1.42019e-05
0.00113501 8.32042e-06 -7.01826e-08
8.32042e-06 4.71794e-05 1.98135e-08
-7.01826e-08 1.98135e-08 -9.15641e-06
0.00114053 7.7671e-06 4.93958e-08
7.7671e-06 4.91977e-05 4.06849e-08
4.93958e-08 4.06849e-08 -5.60104e-06
0.00117329 8.82071e-06 -1.80959e-07
8.82071e-06 6.97475e-05 1.81092e-07
-1.80959e-07 1.81092e-07 1.10924e-05
0.00121328 1.07181e-05 5.16274e-07
1.07181e-05 9.10414e-05 1.14392e-06
5.16274e-07 1.14392e-06 3.22037e-05
0.00114286 8.42313e-06 3.56527e-08
8.42313e-06 5.41853e-05 -3.29819e-07
3.56527e-08 -3.29819e-07 -5.30842e-06
0.00119448 9.20985e-06 -1.61051e-08
9.20985e-06 7.87764e-05 5.64585e-08
-1.61051e-08 5.64585e-08 1.84691e-05
-0.00413256 -5.9539e-05 3.5957e-05
-5.9539e-05 -0.00183821 1.6396e-05
3.5957e-05 1.6396e-05 -0.00179078
0.000645338 -3.25705e-05 2.91076e-06
-3.25705e-05 0.000227871 1.79201e-06
2.91076e-06 1.79201e-06 0.000274199
0.000319881 -1.35659e-05 1.49742e-05
-1.35659e-05 -3.57092e-05 9.3846e-06
1.49742e-05 9.3846e-06 -5.88094e-05
0.000124468 -4.15864e-05 1.0728e-05
-4.15864e-05 -0.000153751 6.33072e-06
1.0728e-05 6.33072e-06 -7.87923e-05
0.00317631 -0.000125375 -2.29201e-05
-0.000125375 0.000959074 -5.41511e-05
-2.29201e-05 -5.41511e-05 0.000915899
0.000769503 -4.90731e-05 1.89331e-06
-4.90731e-05 -0.00102275 1.48218e-05
1.89331e-06 1.48218e-05 -0.00116096
-0.000254009 1.84773e-05 7.08441e-07
1.84773e-05 -0.000170272 1.1302e-05
7.08441e-07 1.1302e-05 -0.000636778
0.00107934 4.04327e-05 -4.08821e-06
4.04327e-05 0.000195657 -1.60722e-05
-4.08821e-06 -1.60722e-05 -8.82256e-05
0.00154636 -0.00010658 -1.0833e-07
-0.00010658 0.000387636 -4.12563e-06
-1.0833e-07 -4.12563e-06 0.000360759
0.00401416 -6.58264e-05 1.13734e-05
-6.58264e-05 0.000763502 2.2726e-05
1.13734e-05 2.2726e-05 0.000443546
0.000564729 5.13156e-05 -1.66186e-05
5.13156e-05 -0.000232029 -4.82169e-05
-1.66186e-05 -4.82169e-05 -0.000492172
0.00336493 -2.22094e-05 4.41027e-05
-2.22094e-05 0.000612858 4.17475e-05
4.41027e-05 4.17475e-05 0.000267424
0.0012588 2.32605e-05 1.62162e-06
2.32605e-05 0.000156498 -8.04502e-07
1.62162e-06 -8.04502e-07 8.67359e-05
0.00106009 1.52603e-05 5.91634e-08
1.52603e-05 3.70651e-05 8.43576e-08
5.91634e-08 8.43576e-08 -2.56e-05
0.00119689 1.0566e-05 1.1807e-06
1.0566e-05 8.55341e-05 -6.37277e-07
1.1807e-06 -6.37277e-07 2.15804e-05
0.000940023 1.16092e-05 -2.09294e-06
1.16092e-05 0.000126403 -3.42319e-06
-2.09294e-06 -3.42319e-06 4.51065e-05
0.00135697 1.2233e-05 8.433e-07
1.2233e-05 0.000182922 -9.20402e-08
8.433e-07 -9.20402e-08 9.93083e-05
0.00103105 3.15322e-05 1.02183e-07
3.15322e-05 8.56301e-05 1.27907e-06
1.02183e-07 1.27907e-06 1.92882e-05
1.53408e-05 3.41258e-05 3.06065e-06
3.41258e-05 -0.000412281 1.73694e-06
3.06065e-06 1.73694e-06 -0.000470985
-0.00295738 3.82582e-06 6.09414e-05
3.82582e-06 -0.000973456 2.08529e-06
6.09414e-05 2.08529e-06 -0.000815084
0.000455151 -3.63974e-06 -2.06115e-06
-3.63974e-06 0.000141313 3.19714e-07
-2.06115e-06 3.19714e-07 0.000135999
-0.000318099 -1.17816e-06 1.17679e-05
-1.17816e-06 -0.000453295 -2.077e-06
1.17679e-05 -2.077e-06 -0.00054023
0.00123111 -7.71257e-06 -6.29394e-06
-7.71257e-06 0.000226201 7.37009e-06
-6.29394e-06 7.37009e-06 0.000152184
0.000888884 -4.41086e-05 -1.15307e-06
-4.41086e-05 0.000145308 -2.0721e-06
-1.15307e-06 -2.0721e-06 7.85224e-06
0.000563777 1.59621e-05 1.64591e-05
1.59621e-05 0.000179783 -7.24644e-06
1.64591e-05 -7.24644e-06 0.000186263
0.00331155 1.49881e-05 -1.65685e-05
1.49881e-05 0.000478019 7.40398e-06
-1.65685e-05 7.40398e-06 9.6533e-05
0.00158696 4.98033e-05 -6.65729e-05
4.98033e-05 0.00077809 3.29153e-05
-6.65729e-05 3.29153e-05 0.000749497
0.000884845 -2.6104e-05 1.50103e-07
-2.6104e-05 -0.000105942 2.72452e-07
1.50103e-07 2.72452e-07 -0.000187317
-0.00131474 2.08168e-05 -2.4961e-05
2.08168e-05 -0.000396881 6.51208e-06
-2.4961e-05 6.51208e-06 -0.000322865
0.0013901 3.17524e-07 2.53589e-06
3.17524e-07 -0.000249857 -1.66573e-06
2.53589e-06 -1.66573e-06 -0.000478461
0.000716491 -4.18138e-05 1.84446e-06
-4.18138e-05 -9.77413e-05 2.06593e-07
1.84446e-06 2.06593e-07 -0.000193677
0.00210484 -3.36569e-05 4.52077e-06
-3.36569e-05 0.000245432 -7.19266e-06
4.52077e-06 -7.19266e-06 0.000199665
0.00441705 1.45599e-05 6.07847e-05
1.45599e-05 0.000955762 -2.75681e-05
6.07847e-05 -2.75681e-05 0.000795829
0.000539833 -2.64865e-05 -5.14088e-06
-2.64865e-05 -0.000209001 6.05397e-06
-5.14088e-06 6.05397e-06 -0.000280954
0.000757586 -1.72055e-05 -4.38971e-07
-1.72055e-05 -7.9505e-05 -5.12285e-08
-4.38971e-07 -5.12285e-08 -0.000183472
0.00112761 -2.34788e-05 3.22674e-08
-2.34788e-05 1.61334e-05 -1.61575e-09
3.22674e-08 -1.61575e-09 -5.45784e-05
0.00154356 -1.89576e-05 -2.50507e-06
-1.89576e-05 0.000131495 -1.86878e-06
-2.50507e-06 -1.86878e-06 9.77036e-05
0.00107194 -1.67918e-05 -6.78284e-08
-1.67918e-05 -6.7573e-06 8.07894e-07
-6.78284e-08 8.07894e-07 -8.20363e-05
0.00121523 -1.50583e-05 1.84447e-07
-1.50583e-05 1.37654e-05 -7.45658e-08
1.84447e-07 -7.45658e-08 -3.71841e-05
0.00130146 -9.21421e-06 1.75636e-06
-9.21421e-06 3.53327e-05 -1.28872e-06
1.75636e-06 -1.28872e-06 3.80527e-06
0.00107623 -1.2377e-05 2.10576e-07
-1.2377e-05 -1.07672e-05 1.22289e-06
2.10576e-07 1.22289e-06 -7.32097e-05
0.00122414 -1.01096e-05 1.82431e-07
-1.01096e-05 2.86297e-05 2.13615e-07
1.82431e-07 2.13615e-07 -1.82872e-05
0.00123199 -5.81481e-06 1.82736e-06
-5.81481e-06 2.78647e-05 -5.75583e-07
1.82736e-06 -5.75583e-07 -1.22992e-05
0.0011521 -1.03055e-05 -5.12111e-08
-1.03055e-05 1.49219e-05 1.41075e-06
-5.12111e-08 1.41075e-06 -4.20614e-05
0.00122861 -7.87594e-06 1.93545e-07
-7.87594e-06 3.9721e-05 3.53217e-07
1.93545e-07 3.53217e-07 -9.15865e-06
0.00119755 -4.80698e-06 1.5395e-06
-4.80698e-06 3.03301e-05 -1.14622e-07
1.5395e-06 -1.14622e-07 -1.78251e-05
0.00118377 -5.375e-06 8.07427e-07
-5.375e-06 3.43244e-05 -2.85809e-07
8.07427e-07 -2.85809e-07 -1.81412e-05
0.00121819 -7.14077e-06 -1.04089e-07
-7.14077e-06 4.78965e-05 3.81399e-07
-1.04089e-07 3.81399e-07 -4.17947e-06
0.00123685 -8.26263e-06 5.95411e-07
-8.26263e-06 6.40102e-05 -7.90432e-07
5.95411e-07 -7.90432e-07 9.83993e-06
0.00124112 -9.53978e-06 -1.26176e-07
-9.53978e-06 7.52342e-05 -5.28419e-07
-1.26176e-07 -5.28419e-07 1.83207e-05
0.00125492 -1.01009e-05 1.89214e-07
-1.01009e-05 7.53656e-05 4.9321e-09
1.89214e-07 4.9321e-09 1.74432e-05
0.00118804 -8.91344e-06 -9.69417e-08
-8.91344e-06 3.36899e-05 1.45539e-06
-9.69417e-08 1.45539e-06 -2.19409e-05
0.00104425 -8.37736e-06 -7.44305e-07
-8.37736e-06 1.0216e-06 4.64918e-07
-7.44305e-07 4.64918e-07 -5.37146e-05
0.00118285 -1.02081e-05 1.93093e-08
-1.02081e-05 6.06298e-05 -1.05196e-08
1.93093e-08 -1.05196e-08 1.44103e-06
0.00120508 -1.10345e-05 3.71938e-07
-1.10345e-05 6.60045e-05 1.22865e-07
3.71938e-07 1.22865e-07 4.28646e-06
0.00107159 -2.26825e-07 -9.90916e-07
-2.26825e-07 2.93344e-05 5.60896e-07
-9.90916e-07 5.60896e-07 -1.46186e-05
0.0011212 -7.23907e-06 2.4471e-08
-7.23907e-06 4.60152e-05 1.92881e-09
2.4471e-08 1.92881e-09 -6.47589e-06
0.00104007 -9.62266e-06 2.5082e-07
-9.62266e-06 5.08235e-06 -4.34453e-07
2.5082e-07 -4.34453e-07 -5.42597e-05
0.000998379 7.01075e-06 -1.84437e-06
7.01075e-06 -2.46421e-06 1.02179e-06
-1.84437e-06 1.02179e-06 -2.81086e-05
0.00107397 1.92203e-06 1.57249e-08
1.92203e-06 2.94543e-05 -3.98401e-09
1.57249e-08 -3.98401e-09 -1.20871e-05
0.00112423 -3.81315e-06 5.05742e-07
-3.81315e-06 4.94682e-05 -3.0377e-07
5.05742e-07 -3.0377e-07 -9.86966e-07
0.000912705 1.15837e-05 -2.6466e-06
1.15837e-05 -4.56122e-05 1.91474e-06
-2.6466e-06 1.91474e-06 -4.50441e-05
0.00101862 6.89767e-06 5.66716e-08
6.89767e-06 3.91016e-06 1.76066e-08
5.66716e-08 1.76066e-08 -1.99305e-05
0.00108005 4.52151e-06 1.01389e-06
4.52151e-06 3.20006e-05 -5.66316e-07
1.01389e-06 -5.66316e-07 -7.76515e-06
0.00228673 1.43324e-05 -4.14987e-06
1.43324e-05 0.000613051 2.87058e-06
-4.14987e-06 2.87058e-06 0.000634376
0.000947222 1.0671e-05 4.33976e-08
1.0671e-05 -3.43411e-05 1.73432e-08
4.33976e-08 1.73432e-08 -3.26592e-05
0.00103711 6.47752e-06 1.64102e-06
6.47752e-06 8.6425e-06 -1.13803e-06
1.64102e-06 -1.13803e-06 -1.3689e-05
0.00167263 1.26856e-05 1.28498e-06
1.26856e-05 0.000310944 -9.63607e-07
1.28498e-06 -9.63607e-07 0.000330988
0.00096766 9.67148e-06 2.40022e-06
9.67148e-06 -2.92571e-05 -2.08987e-06
2.40022e-06 -2.08987e-06 -2.68176e-05
0.00219708 1.16218e-05 3.76612e-06
1.16218e-05 0.000560673 -3.06587e-06
3.76612e-06 -3.06587e-06 0.000583778
0.00115607 -2.85503e-06 -3.82867e-07
-2.85503e-06 6.44515e-05 8.02221e-08
-3.82867e-07 8.02221e-08 1.66382e-05
0.00114326 -2.22293e-06 1.66808e-07
-2.22293e-06 5.53993e-05 3.47279e-07
1.66808e-07 3.47279e-07 8.65623e-06
0.00108957 -4.62157e-06 -9.78439e-07
-4.62157e-06 3.07834e-05 -5.92336e-07
-9.78439e-07 -5.92336e-07 -6.85019e-06
0.00110429 -1.03566e-06 4.10453e-07
-1.03566e-06 3.41287e-05 4.52089e-08
4.10453e-07 4.52089e-08 -1.19186e-05
0.0010784 -3.34413e-06 1.70601e-08
-3.34413e-06 2.2415e-05 -6.4376e-09
1.70601e-08 -6.4376e-09 -1.43072e-05
0.00103195 -5.54643e-06 -1.53506e-06
-5.54643e-06 1.01466e-06 -1.15406e-06
-1.53506e-06 -1.15406e-06 -2.04664e-05
0.000972678 -8.49218e-06 -2.17009e-06
-8.49218e-06 -3.17795e-05 -2.21647e-06
-2.17009e-06 -2.21647e-06 -2.87925e-05
0.00103104 -4.79132e-06 -4.5056e-08
-4.79132e-06 -1.65249e-06 1.70689e-08
-4.5056e-08 1.70689e-08 -2.27315e-05
0.00108157 -2.08517e-06 8.67904e-07
-2.08517e-06 2.22104e-05 7.14574e-07
8.67904e-07 7.14574e-07 -1.43292e-05
0.00221442 -1.01546e-05 -3.49817e-06
-1.01546e-05 0.000563828 -3.17612e-06
-3.49817e-06 -3.17612e-06 0.000587591
0.000971286 -7.48666e-06 -5.74209e-08
-7.48666e-06 -3.58182e-05 2.28232e-08
-5.74209e-08 2.28232e-08 -3.23914e-05
0.00103362 -4.10526e-06 1.1961e-06
-4.10526e-06 -1.9834e-06 1.34107e-06
1.1961e-06 1.34107e-06 -2.29808e-05
0.00224762 -8.71338e-06 -1.1037e-07
-8.71338e-06 0.00057558 2.90788e-08
-1.1037e-07 2.90788e-08 0.000599816
0.000970605 -6.50889e-06 1.56487e-06
-6.50889e-06 -3.91276e-05 2.51681e-06
1.56487e-06 2.51681e-06 -3.5285e-05
0.00225991 -7.26909e-06 2.60389e-06
-7.26909e-06 0.000577636 3.39839e-06
2.60389e-06 3.39839e-06 0.000602454
0.00016282 -1.02731e-05 5.8458e-05
-1.02731e-05 -6.59024e-05 4.87427e-06
5.8458e-05 4.87427e-06 -6.08143e-05
0.00116751 -1.77524e-05 -2.31766e-06
-1.77524e-05 0.000577777 -1.1178e-06
-2.31766e-06 -1.1178e-06 0.000592031
0.00048019 -3.4396e-06 1.22513e-05
-3.4396e-06 5.09897e-05 2.52665e-06
1.22513e-05 2.52665e-06 -2.09076e-05
0.0011178 2.05592e-06 3.38568e-07
2.05592e-06 4.14288e-05 2.82095e-07
3.38568e-07 2.82095e-07 -1.05833e-05
0.00112693 7.56245e-06 3.00533e-07
7.56245e-06 4.45706e-05 2.60481e-07
3.00533e-07 2.60481e-07 -9.5326e-06
0.00116935 4.09717e-06 8.80062e-08
4.09717e-06 6.72889e-05 1.31127e-07
8.80062e-08 1.31127e-07 1.51708e-05
0.00113844 6.19351e-06 3.37008e-08
6.19351e-06 5.45845e-05 3.5945e-07
3.37008e-08 3.5945e-07 1.19142e-06
0.00112613 7.86117e-06 -2.08999e-07
7.86117e-06 4.501e-05 2.90144e-07
-2.08999e-07 2.90144e-07 -1.00988e-05
0.00115831 8.31674e-06 8.27021e-08
8.31674e-06 5.79732e-05 -1.19265e-07
8.27021e-08 -1.19265e-07 1.9013e-06
0.00115814 7.79385e-06 3.42013e-07
7.79385e-06 5.76432e-05 -7.54112e-08
3.42013e-07 -7.54112e-08 3.1201e-06
0.00112015 8.68954e-06 -9.57859e-08
8.68954e-06 4.43109e-05 -8.87175e-08
-9.57859e-08 -8.87175e-08 -1.43778e-05
0.00104614 8.717e-06 7.48755e-08
8.717e-06 1.28426e-05 5.61731e-07
7.48755e-08 5.61731e-07 -4.5324e-05
0.00116224 1.10828e-05 2.00682e-07
1.10828e-05 6.87646e-05 8.43468e-07
2.00682e-07 8.43468e-07 8.27794e-06
0.00127632 1.61642e-05 7.39566e-07
1.61642e-05 0.000122364 -3.07572e-07
7.39566e-07 -3.07572e-07 6.02476e-05
0.00116762 1.06974e-05 4.26897e-08
1.06974e-05 7.0415e-05 -5.73259e-08
4.26897e-08 -5.73259e-08 1.10937e-05
0.00110341 8.92288e-06 2.14301e-08
8.92288e-06 3.53728e-05 -5.17442e-07
2.14301e-08 -5.17442e-07 -2.50512e-05
0.00628047 -1.59746e-05 3.22532e-05
-1.59746e-05 0.00162232 1.51399e-05
3.22532e-05 1.51399e-05 0.00136882
-0.000348311 -5.70281e-05 7.5967e-06
-5.70281e-05 -0.000236657 3.57474e-06
7.5967e-06 3.57474e-06 -0.00022113
0.00158142 -3.03994e-05 1.36205e-05
-3.03994e-05 0.000795132 9.952e-06
1.36205e-05 9.952e-06 0.000839704
-0.0021413 -8.74214e-05 -2.56208e-05
-8.74214e-05 -0.00114012 -3.30553e-05
-2.56208e-05 -3.30553e-05 -0.00109719
0.00393166 -0.000103238 -2.40308e-06
-0.000103238 0.000382055 1.99146e-05
-2.40308e-06 1.99146e-05 -0.000146809
0.00116065 2.90113e-05 -3.6529e-06
2.90113e-05 0.00041022 -5.84644e-06
-3.6529e-06 -5.84644e-06 0.000274385
0.000808928 4.90508e-05 -1.04404e-05
4.90508e-05 -1.7385e-05 -1.23323e-05
-1.04404e-05 -1.23323e-05 -0.00021048
0.00439773 -7.2959e-05 5.9818e-06
-7.2959e-05 0.000999597 8.08001e-06
5.9818e-06 8.08001e-06 0.000693681
0.000705594 3.59202e-05 -2.19675e-05
3.59202e-05 -0.000206107 -2.30415e-05
-2.19675e-05 -2.30415e-05 -0.000379482
0.00120583 2.75023e-05 5.31558e-06
2.75023e-05 9.56746e-05 -4.84788e-07
5.31558e-06 -4.84788e-07 1.44001e-05
0.00112612 2.27919e-05 -7.39497e-07
2.27919e-05 9.81749e-05 -1.12229e-06
-7.39497e-07 -1.12229e-06 2.74974e-05
0.00104668 1.4442e-05 7.74069e-07
1.4442e-05 2.89172e-05 -5.63298e-07
7.74069e-07 -5.63298e-07 -3.32744e-05
0.00179937 3.33453e-05 -2.89329e-06
3.33453e-05 0.000430429 -4.31628e-06
-2.89329e-06 -4.31628e-06 0.000365181
0.00056948 3.69617e-05 -2.0159e-06
3.69617e-05 -0.000208131 -6.1967e-07
-2.0159e-06 -6.1967e-07 -0.000260843
-0.000327163 1.36099e-05 4.05455e-05
1.36099e-05 -0.00102484 -2.65296e-06
4.05455e-05 -2.65296e-06 -0.00104898
0.00115398 6.88317e-06 -8.82064e-07
6.88317e-06 0.000512643 4.59446e-06
-8.82064e-07 4.59446e-06 0.000582665
-0.00113128 -2.68589e-06 1.51621e-05
-2.68589e-06 -0.000828943 -7.59611e-07
1.51621e-05 -7.59611e-07 -0.000846175
0.000229455 -2.42033e-05 -5.09695e-06
-2.42033e-05 -0.000363946 6.30263e-06
-5.09695e-06 6.30263e-06 -0.000440654
0.00189935 -5.21967e-05 1.77932e-05
-5.21967e-05 0.000193285 -2.21386e-05
1.77932e-05 -2.21386e-05 -2.91091e-05
0.000364552 2.6921e-05 -8.63246e-05
2.6921e-05 5.47172e-05 1.64309e-05
-8.63246e-05 1.64309e-05 7.96033e-05
0.0052463 1.42042e-05 -1.54749e-05
1.42042e-05 0.0015186 3.43001e-06
-1.54749e-05 3.43001e-06 0.00123371
0.00152654 -3.23496e-05 3.64961e-07
-3.23496e-05 -1.02386e-05 3.0891e-07
3.64961e-07 3.0891e-07 -5.7867e-05
0.00276988 7.2993e-06 1.96388e-05
7.2993e-06 0.000443002 -8.87164e-06
1.96388e-05 -8.87164e-06 0.000350503
0.00195296 -3.76592e-05 1.3506e-05
-3.76592e-05 0.000144452 -3.14606e-06
1.3506e-05 -3.14606e-06 2.38413e-05
0.00206835 -2.01224e-05 4.72205e-07
-2.01224e-05 0.000180807 -4.08707e-06
4.72205e-07 -4.08707e-06 0.000166815
0.00134697 -1.04411e-06 -1.18495e-05
-1.04411e-06 0.000263156 8.20809e-06
-1.18495e-05 8.20809e-06 0.000186106
0.000802138 -2.21021e-05 1.69042e-06
-2.21021e-05 -0.000139415 1.3606e-06
1.69042e-06 1.3606e-06 -0.000208871
0.00124951 -1.81483e-05 -1.01197e-06
-1.81483e-05 -4.87617e-06 3.86645e-08
-1.01197e-06 3.86645e-08 -3.80757e-05
0.00138437 -5.27216e-06 2.34439e-06
-5.27216e-06 6.30402e-05 1.75647e-06
2.34439e-06 1.75647e-06 4.2599e-05
0.0010178 -1.43103e-05 7.95032e-07
-1.43103e-05 -7.87395e-05 2.4126e-06
7.95032e-07 2.4126e-06 -0.000128827
0.001262 -9.36622e-06 4.25959e-07
-9.36622e-06 1.72827e-05 8.22147e-07
4.25959e-07 8.22147e-07 -1.47026e-05
0.00124146 -1.58461e-06 2.40698e-06
-1.58461e-06 2.42792e-05 4.38909e-07
2.40698e-06 4.38909e-07 -8.65673e-06
0.00116418 -9.94431e-06 -7.82449e-08
-9.94431e-06 -7.21567e-07 2.02198e-06
-7.82449e-08 2.02198e-06 -4.73458e-05
0.00125255 -5.91502e-06 2.94209e-07
-5.91502e-06 3.87583e-05 4.88837e-07
2.94209e-07 4.88837e-07 -1.96816e-06
0.00121447 -6.93216e-07 2.07346e-06
-6.93216e-07 3.47375e-05 2.04403e-07
2.07346e-06 2.04403e-07 -1.10421e-05
0.00123086 -7.93318e-06 -4.46358e-07
-7.93318e-06 4.1286e-05 1.55562e-06
-4.46358e-07 1.55562e-06 -7.81597e-06
0.00123908 -5.0231e-06 1.02108e-07
-5.0231e-06 5.06345e-05 2.73673e-07
1.02108e-07 2.73673e-07 2.02322e-06
0.00118978 -2.80063e-06 1.15628e-06
-2.80063e-06 3.44053e-05 1.02578e-07
1.15628e-06 1.02578e-07 -1.79309e-05
0.00119699 -5.8755e-06 -3.33591e-07
-5.8755e-06 4.05388e-05 1.26613e-08
-3.33591e-07 1.26613e-08 -1.16833e-05
0.00121196 -6.74459e-06 8.3778e-07
-6.74459e-06 5.20266e-05 -3.73522e-07
8.3778e-07 -3.73522e-07 -2.69251e-06
0.00122968 -7.18077e-06 -7.14623e-07
-7.18077e-06 5.28183e-05 1.01402e-06
-7.14623e-07 1.01402e-06 9.25191e-07
0.00124183 -8.21918e-06 4.21825e-08
-8.21918e-06 6.57602e-05 -1.06785e-07
4.21825e-08 -1.06785e-07 1.16168e-05
0.00123788 -8.32433e-06 3.14013e-07
-8.32433e-06 6.90176e-05 -5.34622e-07
3.14013e-07 -5.34622e-07 1.40183e-05
0.00109961 -8.00083e-06 -6.12425e-07
-8.00083e-06 1.61174e-05 4.21307e-08
-6.12425e-07 4.21307e-08 -3.85494e-05
0.00123494 -9.55117e-06 3.44172e-08
-9.55117e-06 7.26137e-05 -1.36261e-07
3.44172e-08 -1.36261e-07 1.5538e-05
0.00123886 -9.99924e-06 8.90398e-08
-9.99924e-06 6.88242e-05 8.37081e-07
8.90398e-08 8.37081e-07 1.09212e-05
0.00108555 -1.97322e-06 -1.03217e-06
-1.97322e-06 3.30183e-05 5.87359e-07
-1.03217e-06 5.87359e-07 -1.34875e-05
0.00109314 -8.46369e-06 -1.67193e-07
-8.46369e-06 2.50929e-05 2.40903e-07
-1.67193e-07 2.40903e-07 -2.93308e-05
0.0012532 -1.03802e-05 3.35076e-07
-1.03802e-05 9.50808e-05 -5.99367e-08
3.35076e-07 -5.99367e-08 3.63038e-05
0.000986835 7.03164e-06 -1.92851e-06
7.03164e-06 -4.93742e-06 9.66971e-07
-1.92851e-06 9.66971e-07 -3.29011e-05
0.00107881 -7.67267e-07 4.70689e-09
-7.67267e-07 3.18282e-05 -1.18174e-08
4.70689e-09 -1.18174e-08 -1.20443e-05
0.00112999 -6.78698e-06 4.72799e-07
-6.78698e-06 4.99747e-05 -3.57859e-07
4.72799e-07 -3.57859e-07 -2.51865e-06
0.000895612 1.23181e-05 -2.85248e-06
1.23181e-05 -4.8574e-05 1.8057e-06
-2.85248e-06 1.8057e-06 -4.95476e-05
0.00101202 7.00463e-06 3.76319e-08
7.00463e-06 3.91364e-06 1.49212e-08
3.76319e-08 1.49212e-08 -2.17751e-05
0.00108075 1.06907e-06 1.05989e-06
1.06907e-06 3.19878e-05 -5.34472e-07
1.05989e-06 -5.34472e-07 -9.47962e-06
0.00230539 1.56894e-05 -4.3561e-06
1.56894e-05 0.000628011 2.74045e-06
-4.3561e-06 2.74045e-06 0.000648288
0.000937361 1.15477e-05 5.7019e-08
1.15477e-05 -3.38346e-05 1.65241e-08
5.7019e-08 1.65241e-08 -3.34003e-05
0.00103238 6.88772e-06 1.7921e-06
6.88772e-06 1.03436e-05 -1.06414e-06
1.7921e-06 -1.06414e-06 -1.35499e-05
0.00223572 1.43666e-05 7.8607e-08
1.43666e-05 0.000589155 4.23174e-08
7.8607e-08 4.23174e-08 0.000610592
0.000965496 1.06475e-05 2.58326e-06
1.06475e-05 -2.55613e-05 -1.98119e-06
2.58326e-06 -1.98119e-06 -2.39821e-05
0.00218737 1.30205e-05 4.00494e-06
1.30205e-05 0.000560971 -2.94132e-06
4.00494e-06 -2.94132e-06 0.000583386
0.00105315 -3.13978e-07 -3.90202e-07
-3.13978e-07 1.76737e-05 3.93534e-08
-3.90202e-07 3.93534e-08 -3.25711e-05
0.00115537 -2.53168e-06 9.81807e-08
-2.53168e-06 6.44212e-05 1.46545e-07
9.81807e-08 1.46545e-07 1.66009e-05
0.000969594 -5.3731e-06 -1.19064e-06
-5.3731e-06 -2.35758e-05 -7.89047e-07
-1.19064e-06 -7.89047e-07 -6.37158e-05
0.00105209 -3.98128e-06 6.34272e-07
-3.98128e-06 1.13519e-05 5.71023e-07
6.34272e-07 5.71023e-07 -3.60814e-05
0.00102106 -4.5367e-06 -2.0576e-08
-4.5367e-06 -2.07436e-06 1.53225e-08
-2.0576e-08 1.53225e-08 -4.02634e-05
0.00103137 -6.31696e-06 -1.62464e-06
-6.31696e-06 4.1567e-06 -1.07531e-06
-1.62464e-06 -1.07531e-06 -1.83468e-05
0.00107439 -3.24832e-06 9.63675e-07
-3.24832e-06 2.052e-05 6.37285e-07
9.63675e-07 6.37285e-07 -1.61952e-05
0.00102711 -5.53107e-06 -2.44565e-08
-5.53107e-06 -1.33781e-06 1.04198e-08
-2.44565e-08 1.04198e-08 -2.27919e-05
0.000966127 -9.52494e-06 -2.37399e-06
-9.52494e-06 -3.11165e-05 -2.08337e-06
-2.37399e-06 -2.08337e-06 -2.87206e-05
0.00220626 -1.15589e-05 -3.76402e-06
-1.15589e-05 0.000564109 -3.05762e-06
-3.76402e-06 -3.05762e-06 0.000587292
0.000962985 -8.49893e-06 -5.65639e-08
-8.49893e-06 -3.6481e-05 2.49762e-08
-5.65639e-08 2.49762e-08 -3.34421e-05
0.00102935 -4.77209e-06 1.34179e-06
-4.77209e-06 -2.51192e-06 1.26938e-06
1.34179e-06 1.26938e-06 -2.35827e-05
0.00225149 -1.01129e-05 -9.68705e-08
-1.01129e-05 0.00058125 3.25522e-08
-9.68705e-08 3.25522e-08 0.000604902
0.000962338 -7.49516e-06 1.81472e-06
-7.49516e-06 -4.00979e-05 2.39372e-06
1.81472e-06 2.39372e-06 -3.66354e-05
0.00227767 -8.67309e-06 3.02269e-06
-8.67309e-06 0.000589635 3.32545e-06
3.02269e-06 3.32545e-06 0.000613799
0.00574333 1.23971e-05 2.31142e-05
1.23971e-05 0.00171656 8.54062e-07
2.31142e-05 8.54062e-07 0.00159327
-0.0024209 -1.07939e-05 1.16515e-05
-1.07939e-05 -0.000714545 1.32772e-06
1.16515e-05 1.32772e-06 -0.000615619
0.00015511 -1.76921e-05 1.06465e-05
-1.76921e-05 -3.3722e-05 3.45227e-06
1.06465e-05 3.45227e-06 -2.02611e-05
0.0011224 7.49433e-06 5.39066e-07
7.49433e-06 4.28582e-05 -5.48714e-08
5.39066e-07 -5.48714e-08 -1.12042e-05
0.00118302 4.5806e-06 2.90589e-07
4.5806e-06 7.41756e-05 -5.66685e-08
2.90589e-07 -5.66685e-08 2.22358e-05
0.00115475 7.93196e-06 -5.12963e-08
7.93196e-06 5.87621e-05 -5.98686e-09
-5.12963e-08 -5.98686e-09 3.83336e-06
0.00116064 6.63739e-06 5.26035e-08
6.63739e-06 6.50988e-05 7.7117e-08
5.26035e-08 7.7117e-08 1.19442e-05
0.00115778 6.83762e-06 2.85016e-07
6.83762e-06 6.87036e-05 6.24989e-08
2.85016e-07 6.24989e-08 1.34444e-05
0.00112645 8.16144e-06 -1.08016e-07
8.16144e-06 4.93125e-05 3.99515e-07
-1.08016e-07 3.99515e-07 -6.55212e-06
0.00106357 8.54336e-06 1.0125e-08
8.54336e-06 1.72633e-05 -4.71599e-07
1.0125e-08 -4.71599e-07 -4.14547e-05
0.00110365 8.78512e-06 2.53482e-07
8.78512e-06 3.96609e-05 8.17547e-08
2.53482e-07 8.17547e-08 -1.8579e-05
0.00110925 1.09606e-05 2.04943e-07
1.09606e-05 4.60606e-05 -1.33491e-07
2.04943e-07 -1.33491e-07 -1.44676e-05
0.000971921 1.09129e-05 5.29051e-07
1.09129e-05 -1.93358e-05 2.75985e-07
5.29051e-07 2.75985e-07 -7.94648e-05
0.00149502 1.51243e-05 7.15196e-07
1.51243e-05 0.00021286 5.64124e-07
7.15196e-07 5.64124e-07 0.000152085
0.0013664 2.19148e-05 9.61103e-07
2.19148e-05 0.000136281 -1.37016e-06
9.61103e-07 -1.37016e-06 6.05285e-05
0.00116553 1.56363e-05 -9.17837e-08
1.56363e-05 7.12085e-05 1.00251e-07
-9.17837e-08 1.00251e-07 9.0891e-06
0.00110634 1.06189e-05 -2.66428e-07
1.06189e-05 4.25049e-05 -9.67998e-07
-2.66428e-07 -9.67998e-07 -1.72824e-05
0.00139927 -1.11862e-06 -1.73207e-05
-1.11862e-06 0.000207911 -4.48436e-06
-1.73207e-05 -4.48436e-06 0.000172753
0.0027681 -2.65951e-05 -9.94654e-06
-2.65951e-05 0.000326197 -4.14173e-06
-9.94654e-06 -4.14173e-06 0.000145586
0.00128685 -6.80034e-05 -1.56093e-05
-6.80034e-05 0.000612899 -6.90144e-06
-1.56093e-05 -6.90144e-06 0.000602064
0.00160795 -4.62453e-05 -2.15411e-05
-4.62453e-05 -0.000279766 -3.16706e-05
-2.15411e-05 -3.16706e-05 -0.000630107
0.00230864 4.9876e-05 6.03711e-06
4.9876e-05 0.000778353 1.69881e-05
6.03711e-06 1.69881e-05 0.000666783
0.000709491 3.39101e-05 -4.78477e-06
3.39101e-05 -6.58004e-05 -1.37784e-06
-4.78477e-06 -1.37784e-06 -0.000162566
0.00141605 9.96174e-06 8.62448e-06
9.96174e-06 6.17499e-05 3.33674e-06
8.62448e-06 3.33674e-06 -7.79204e-06
0.000964056 2.89159e-05 2.93711e-07
2.89159e-05 -2.82953e-05 1.40077e-06
2.93711e-07 1.40077e-06 -0.000108331
0.000964965 2.21896e-05 -6.15475e-07
2.21896e-05 2.66482e-05 -9.5453e-08
-6.15475e-07 -9.5453e-08 -4.49477e-05
0.00122805 3.99431e-05 -7.53249e-06
3.99431e-05 4.35424e-05 -8.31173e-06
-7.53249e-06 -8.31173e-06 -3.47104e-06
0.000990611 -1.7529e-06 -3.16981e-05
-1.7529e-06 -0.000125304 -3.59729e-06
-3.16981e-05 -3.59729e-06 -0.000214101
0.00555702 2.04377e-05 1.07778e-05
2.04377e-05 0.00167236 -3.23512e-06
1.07778e-05 -3.23512e-06 0.00159979
-0.0050699 2.25637e-06 -6.07285e-05
2.25637e-06 -0.00225317 -1.09492e-06
-6.07285e-05 -1.09492e-06 -0.00210216
0.000878485 -3.0705e-05 -4.59056e-07
-3.0705e-05 -0.000299016 4.34022e-06
-4.59056e-07 4.34022e-06 -0.000348161
0.00197629 -2.81237e-05 1.65271e-05
-2.81237e-05 0.000440029 -1.14394e-05
1.65271e-05 -1.14394e-05 0.000371046
0.000828049 4.05095e-08 -1.11158e-05
4.05095e-08 -0.000110342 1.81534e-06
-1.11158e-05 1.81534e-06 -0.000172409
0.00173752 -2.0013e-05 -1.46164e-06
-2.0013e-05 5.41618e-05 -3.23223e-07
-1.46164e-06 -3.23223e-07 3.57876e-05
0.00118245 6.00962e-06 5.52715e-07
6.00962e-06 5.98344e-05 -3.54232e-07
5.52715e-07 -3.54232e-07 -1.61892e-05
0.0015206 3.96788e-06 2.99186e-06
3.96788e-06 8.28427e-05 2.09575e-06
2.99186e-06 2.09575e-06 5.44598e-05
0.000771521 2.14683e-05 1.88401e-06
2.14683e-05 -1.30193e-05 -2.62407e-06
1.88401e-06 -2.62407e-06 -9.53355e-05
0.000979774 -1.74038e-05 7.57247e-07
-1.74038e-05 -0.000129786 1.48754e-06
7.57247e-07 1.48754e-06 -0.000162484
0.00132422 -5.38323e-06 1.37702e-06
-5.38323e-06 3.917e-05 8.584e-07
1.37702e-06 8.584e-07 1.78949e-05
0.00127353 6.7549e-06 2.01158e-06
6.7549e-06 5.44147e-05 1.87599e-06
2.01158e-06 1.87599e-06 1.69697e-05
0.00121724 -9.49978e-06 -3.7345e-07
-9.49978e-06 -3.10318e-06 2.28559e-06
-3.7345e-07 2.28559e-06 -3.55587e-05
0.00128089 -1.64183e-06 8.36887e-08
-1.64183e-06 4.58676e-05 5.18416e-07
8.36887e-08 5.18416e-07 1.17675e-05
0.00126935 5.38261e-06 1.95448e-06
5.38261e-06 6.31252e-05 6.43119e-07
1.95448e-06 6.43119e-07 1.68708e-05
0.00127637 -6.00489e-06 -1.09102e-06
-6.00489e-06 5.12802e-05 1.35807e-06
-1.09102e-06 1.35807e-06 9.9716e-06
0.00125637 -7.36699e-07 2.40113e-08
-7.36699e-07 5.52883e-05 1.14433e-07
2.40113e-08 1.14433e-07 9.05699e-06
0.00121117 2.42243e-06 1.31262e-06
2.42243e-06 4.23233e-05 2.17998e-07
1.31262e-06 2.17998e-07 -1.11281e-05
0.00127825 -5.22778e-06 -1.32777e-06
-5.22778e-06 6.98304e-05 6.43872e-07
-1.32777e-06 6.43872e-07 2.07676e-05
0.00122318 -3.33517e-06 -2.57485e-07
-3.33517e-06 5.10213e-05 -1.1318e-07
-2.57485e-07 -1.1318e-07 -1.2866e-06
0.00120923 -4.4512e-06 1.02067e-06
-4.4512e-06 4.9607e-05 1.6346e-07
1.02067e-06 1.6346e-07 -6.8721e-06
0.00120649 -6.36091e-06 -1.30387e-06
-6.36091e-06 4.50885e-05 6.57478e-08
-1.30387e-06 6.57478e-08 -6.89422e-06
0.00119476 -6.5466e-06 -9.06958e-08
-6.5466e-06 4.3306e-05 -1.62738e-07
-9.06958e-08 -1.62738e-07 -1.10718e-05
0.00121659 -7.30271e-06 5.35182e-07
-7.30271e-06 5.87627e-05 -3.16397e-07
5.35182e-07 -3.16397e-07 2.85828e-06
0.00124772 -8.17091e-06 -4.52585e-07
-8.17091e-06 6.79389e-05 6.528e-07
-4.52585e-07 6.528e-07 1.38212e-05
0.00123365 -8.28485e-06 6.3497e-08
-8.28485e-06 6.66951e-05 -1.30657e-07
6.3497e-08 -1.30657e-07 1.16699e-05
0.00120881 -7.24554e-06 -6.62694e-08
-7.24554e-06 6.33875e-05 -2.77137e-07
-6.62694e-08 -2.77137e-07 9.70339e-06
0.000989558 -1.67047e-06 -1.32066e-06
-1.67047e-06 -1.98078e-05 5.81406e-07
-1.32066e-06 5.81406e-07 -6.87338e-05
0.00114969 -8.15624e-06 -1.68404e-07
-8.15624e-06 4.10303e-05 1.04196e-07
-1.68404e-07 1.04196e-07 -1.33159e-05
0.00122895 -9.56361e-06 2.15327e-07
-9.56361e-06 7.00614e-05 2.7567e-07
2.15327e-07 2.7567e-07 1.28262e-05
0.000983343 7.00589e-06 -1.98513e-06
7.00589e-06 -4.9558e-06 9.72225e-07
-1.98513e-06 9.72225e-07 -3.58318e-05
0.00108247 -1.92601e-06 1.85585e-08
-1.92601e-06 3.09764e-05 5.41209e-08
1.85585e-08 5.41209e-08 -1.54228e-05
0.001141 -8.57129e-06 3.673e-07
-8.57129e-06 4.87096e-05 -9.42949e-09
3.673e-07 -9.42949e-09 -5.40354e-06
0.000876453 1.29441e-05 -3.0465e-06
1.29441e-05 -5.25244e-05 1.68368e-06
-3.0465e-06 1.68368e-06 -5.53482e-05
0.00100557 7.0374e-06 2.15588e-08
7.0374e-06 3.75218e-06 -7.93576e-09
2.15588e-08 -7.93576e-09 -2.42704e-05
0.0010861 -1.41566e-06 1.02876e-06
-1.41566e-06 3.43554e-05 -5.81915e-07
1.02876e-06 -5.81915e-07 -9.43743e-06
0.00234121 1.69906e-05 -4.58477e-06
1.69906e-05 0.000651589 2.61753e-06
-4.58477e-06 2.61753e-06 0.000670613
0.000925151 1.22737e-05 6.20601e-08
1.22737e-05 -3.45308e-05 2.06836e-08
6.20601e-08 2.06836e-08 -3.56542e-05
0.00102546 6.99421e-06 1.90716e-06
6.99421e-06 1.01994e-05 -9.82746e-07
1.90716e-06 -9.82746e-07 -1.55335e-05
0.00225176 1.57106e-05 7.97649e-08
1.57106e-05 0.000602882 4.81174e-08
7.97649e-08 4.81174e-08 0.000623252
0.00096194 1.15121e-05 2.77632e-06
1.15121e-05 -2.20866e-05 -1.86463e-06
2.77632e-06 -1.86463e-06 -2.17868e-05
0.0021849 1.43987e-05 4.22772e-06
1.43987e-05 0.000565335 -2.82453e-06
4.22772e-06 -2.82453e-06 0.000586887
0.00111573 1.47167e-06 -3.69527e-07
1.47167e-06 5.06987e-05 -2.1364e-07
-3.69527e-07 -2.1364e-07 -7.78519e-07
0.00113634 -3.07186e-07 1.88482e-08
-3.07186e-07 5.76749e-05 3.63915e-08
1.88482e-08 3.63915e-08 8.04442e-06
0.000963556 -5.98834e-06 -1.08908e-06
-5.98834e-06 -2.22425e-05 -6.5398e-07
-1.08908e-06 -6.5398e-07 -6.45609e-05
0.00115398 -2.20684e-06 5.59133e-07
-2.20684e-06 6.40563e-05 2.30689e-07
5.59133e-07 2.30689e-07 1.6232e-05
0.000955793 -5.35234e-06 -1.99081e-07
-5.35234e-06 -2.94885e-05 -2.70927e-07
-1.99081e-07 -2.70927e-07 -6.9863e-05
0.0010271 -6.98136e-06 -1.72059e-06
-6.98136e-06 6.39062e-06 -9.71543e-07
-1.72059e-06 -9.71543e-07 -1.77208e-05
0.000953173 -4.44271e-06 9.22834e-07
-4.44271e-06 -3.4631e-05 6.26066e-07
9.22834e-07 6.26066e-07 -7.33775e-05
0.00102212 -6.31072e-06 -2.76801e-08
-6.31072e-06 -2.24166e-07 1.03241e-08
-2.76801e-08 1.03241e-08 -2.26857e-05
0.000960901 -1.05613e-05 -2.55089e-06
-1.05613e-05 -2.90199e-05 -1.95464e-06
-2.55089e-06 -1.95464e-06 -2.75965e-05
0.00102228 -5.51399e-06 1.48836e-06
-5.51399e-06 -3.68359e-06 1.17848e-06
1.48836e-06 1.17848e-06 -2.51109e-05
0.000954196 -9.5351e-06 -4.9794e-08
-9.5351e-06 -3.69445e-05 2.4445e-08
-4.9794e-08 2.4445e-08 -3.44698e-05
0.00219749 -1.29702e-05 -3.98916e-06
-1.29702e-05 0.000564701 -2.93125e-06
-3.98916e-06 -2.93125e-06 0.000587184
0.00225115 -1.15152e-05 -8.99519e-08
-1.15152e-05 0.000585255 3.69497e-08
-8.99519e-08 3.69497e-08 0.0006083
0.000953119 -8.50648e-06 2.04229e-06
-8.50648e-06 -4.12635e-05 2.27169e-06
2.04229e-06 2.27169e-06 -3.81722e-05
0.00228889 -1.00708e-05 3.37678e-06
-1.00708e-05 0.000598835 3.23013e-06
3.37678e-06 3.23013e-06 0.000622375
0.00185857 -1.23823e-05 -1.90957e-05
-1.23823e-05 0.000415742 -5.2787e-06
-1.90957e-05 -5.2787e-06 0.000395484
-0.000154044 6.2796e-06 -1.4492e-05
6.2796e-06 -0.00100422 -5.76355e-06
-1.4492e-05 -5.76355e-06 -0.00107978
0.00174429 -3.70769e-05 -2.01199e-05
-3.70769e-05 0.000833304 -4.42075e-06
-2.01199e-05 -4.42075e-06 0.000900105
0.00120347 8.32737e-06 6.81879e-07
8.32737e-06 8.92056e-05 3.54394e-07
6.81879e-07 3.54394e-07 3.2385e-05
0.0011829 8.00329e-06 1.65963e-07
8.00329e-06 7.23247e-05 -2.87469e-07
1.65963e-07 -2.87469e-07 1.75727e-05
0.0011825 7.00876e-06 1.65941e-07
7.00876e-06 7.54197e-05 -1.35183e-07
1.65941e-07 -1.35183e-07 2.25084e-05
0.00114441 8.23448e-06 1.1986e-08
8.23448e-06 5.74034e-05 1.596e-08
1.1986e-08 1.596e-08 1.36383e-06
0.00113769 7.22291e-06 -1.29418e-07
7.22291e-06 5.98261e-05 -2.94074e-07
-1.29418e-07 -2.94074e-07 4.45261e-06
0.0010808 9.43712e-06 -2.62695e-08
9.43712e-06 3.43458e-05 2.74998e-07
-2.62695e-08 2.74998e-07 -2.30578e-05
0.00117231 8.8951e-06 3.47956e-07
8.8951e-06 7.17171e-05 -4.55788e-07
3.47956e-07 -4.55788e-07 1.33873e-05
0.00106377 1.08713e-05 -6.40589e-07
1.08713e-05 2.69829e-05 -8.98132e-07
-6.40589e-07 -8.98132e-07 -3.36095e-05
0.0011235 1.1359e-05 -8.25006e-08
1.1359e-05 5.13103e-05 2.1185e-09
-8.25006e-08 2.1185e-09 -8.50137e-06
0.00131498 1.43805e-05 5.56551e-08
1.43805e-05 0.000136731 2.68837e-07
5.56551e-08 2.68837e-07 7.69632e-05
0.00124192 1.6951e-05 9.32336e-07
1.6951e-05 8.48648e-05 -1.06094e-06
9.32336e-07 -1.06094e-06 1.73479e-05
0.00129668 1.69789e-05 -2.10425e-06
1.69789e-05 3.47098e-05 -5.21468e-07
-2.10425e-06 -5.21468e-07 -4.7694e-05
0.00126666 2.13887e-05 6.98282e-07
2.13887e-05 9.48005e-05 1.04622e-06
6.98282e-07 1.04622e-06 2.01934e-05
0.00107689 1.51851e-05 -9.09628e-07
1.51851e-05 3.02223e-05 4.3632e-07
-9.09628e-07 4.3632e-07 -3.19069e-05
0.0014816 -2.78167e-05 2.52791e-06
-2.78167e-05 -4.35254e-05 7.52932e-06
2.52791e-06 7.52932e-06 -8.96138e-05
0.00143288 8.32536e-06 4.83696e-07
8.32536e-06 7.71931e-05 1.19276e-06
4.83696e-07 1.19276e-06 1.8223e-05
-0.000149182 -2.42023e-05 -6.30383e-05
-2.42023e-05 -0.00071348 -3.78216e-05
-6.30383e-05 -3.78216e-05 -0.000846353
0.00208756 4.82828e-05 9.1373e-06
4.82828e-05 0.00029405 1.78202e-05
9.1373e-06 1.78202e-05 0.000152334
0.00146604 1.1412e-05 2.47433e-06
1.1412e-05 5.35312e-05 3.47216e-07
2.47433e-06 3.47216e-07 -2.64014e-05
0.000689073 3.0338e-05 -8.80416e-07
3.0338e-05 -0.000169203 3.68016e-06
-8.80416e-07 3.68016e-06 -0.000247792
0.00102987 -2.6236e-06 3.47348e-06
-2.6236e-06 0.000172224 -5.85189e-06
3.47348e-06 -5.85189e-06 0.000124066
0.00105993 4.50903e-06 -5.99087e-06
4.50903e-06 0.000206963 4.88577e-07
-5.99087e-06 4.88577e-07 0.000147752
-0.000473566 3.0845e-05 -2.39423e-05
3.0845e-05 -0.00112453 -6.14015e-06
-2.39423e-05 -6.14015e-06 -0.00115771
0.00135487 -1.9864e-05 -5.74852e-07
-1.9864e-05 -9.65204e-05 3.87952e-07
-5.74852e-07 3.87952e-07 -0.000119279
0.0016026 -1.19146e-06 1.31659e-05
-1.19146e-06 0.000128558 -1.35311e-06
1.31659e-05 -1.35311e-06 3.88171e-05
0.00158383 3.2536e-06 9.91299e-07
3.2536e-06 0.000119776 7.83045e-07
9.91299e-07 7.83045e-07 8.86723e-05
0.00103838 2.23142e-05 8.3047e-07
2.23142e-05 0.000105943 -1.77454e-06
8.3047e-07 -1.77454e-06 2.81536e-05
0.00114211 1.74012e-05 -2.07561e-08
1.74012e-05 2.45334e-05 1.95071e-06
-2.07561e-08 1.95071e-06 -3.88945e-05
0.000625594 1.58409e-05 -1.77298e-07
1.58409e-05 -0.00012455 -2.51193e-06
-1.77298e-07 -2.51193e-06 -0.000199958
0.00125199 -5.49137e-06 -1.34562e-08
-5.49137e-06 9.25908e-06 5.30419e-07
-1.34562e-08 5.30419e-07 -1.2768e-05
0.00130393 6.71512e-06 -3.29939e-07
6.71512e-06 7.46345e-05 -2.35525e-07
-3.29939e-07 -2.35525e-07 3.60043e-05
0.00131509 1.29179e-05 1.04732e-06
1.29179e-05 0.000104883 7.61067e-07
1.04732e-06 7.61067e-07 4.86312e-05
0.0013213 -1.66866e-06 -2.01372e-06
-1.66866e-06 6.79813e-05 3.32864e-07
-2.01372e-06 3.32864e-07 3.27074e-05
0.00126984 5.32899e-06 -1.29665e-07
5.32899e-06 6.47586e-05 -1.22228e-07
-1.29665e-07 -1.22228e-07 1.82449e-05
0.00125654 7.86388e-06 1.51971e-06
7.86388e-06 6.59037e-05 4.95171e-07
1.51971e-06 4.95171e-07 1.04925e-05
0.00129428 -7.6889e-07 -2.08342e-06
-7.6889e-07 7.39692e-05 1.58679e-07
-2.08342e-06 1.58679e-07 2.72937e-05
0.00123593 1.90309e-06 -4.18844e-07
1.90309e-06 5.44804e-05 -1.54962e-07
-4.18844e-07 -1.54962e-07 1.15971e-06
0.00121688 4.91892e-07 9.60439e-07
4.91892e-07 5.0671e-05 3.58669e-07
9.60439e-07 3.58669e-07 -8.65484e-06
0.00125456 -3.84052e-06 -1.71537e-06
-3.84052e-06 6.66841e-05 -2.11627e-07
-1.71537e-06 -2.11627e-07 1.44083e-05
0.00121918 -4.20557e-06 3.08786e-08
-4.20557e-06 5.41712e-05 -3.75288e-08
3.08786e-08 -3.75288e-08 -2.28613e-06
0.00121204 -5.65442e-06 5.88792e-07
-5.65442e-06 5.57983e-05 8.72796e-08
5.88792e-07 8.72796e-08 -2.23308e-06
0.00117758 -6.39295e-06 -1.01567e-06
-6.39295e-06 3.45944e-05 7.67562e-08
-1.01567e-06 7.67562e-08 -1.94421e-05
0.00118206 -7.01132e-06 3.27844e-08
-7.01132e-06 4.14931e-05 -1.52084e-07
3.27844e-08 -1.52084e-07 -1.425e-05
0.00115182 -6.16561e-06 -1.69527e-08
-6.16561e-06 3.49015e-05 -1.11539e-07
-1.69527e-08 -1.11539e-07 -2.03553e-05
0.00123012 -8.24749e-06 -1.12241e-07
-8.24749e-06 6.47059e-05 3.85604e-07
-1.12241e-07 3.85604e-07 9.65323e-06
0.00116722 -7.0852e-06 1.06401e-07
-7.0852e-06 4.30588e-05 -1.20681e-07
1.06401e-07 -1.20681e-07 -1.08845e-05
0.00109094 -1.77876e-06 -9.16091e-07
-1.77876e-06 2.42452e-05 1.94235e-07
-9.16091e-07 1.94235e-07 -2.53863e-05
0.000989171 7.00846e-06 -2.06896e-06
7.00846e-06 -2.8342e-06 8.89353e-07
-2.06896e-06 8.89353e-07 -3.67095e-05
0.0010463 -1.74012e-06 -2.74874e-07
-1.74012e-06 7.6198e-06 2.49958e-07
-2.74874e-07 2.49958e-07 -4.0802e-05
0.0012003 -8.30627e-06 3.24922e-07
-8.30627e-06 6.61759e-05 1.5146e-07
3.24922e-07 1.5146e-07 1.21515e-05
0.000858644 1.34722e-05 -3.22686e-06
1.34722e-05 -5.60645e-05 1.60723e-06
-3.22686e-06 1.60723e-06 -6.11904e-05
0.00100071 7.05932e-06 4.73435e-08
7.05932e-06 3.05993e-06 9.50795e-09
4.73435e-08 9.50795e-09 -2.78522e-05
0.00108032 -1.88729e-06 1.06687e-06
-1.88729e-06 2.93531e-05 -4.70457e-07
1.06687e-06 -4.70457e-07 -1.6939e-05
0.00239097 1.82526e-05 -4.82002e-06
1.82526e-05 0.000682223 2.48964e-06
-4.82002e-06 2.48964e-06 0.000699824
0.000911959 1.28879e-05 5.19664e-08
1.28879e-05 -3.57603e-05 8.63179e-09
5.19664e-08 8.63179e-09 -3.87598e-05
0.00102405 7.03441e-06 1.9477e-06
7.03441e-06 1.23286e-05 -9.6893e-07
1.9477e-06 -9.6893e-07 -1.57529e-05
0.00228365 1.70049e-05 8.04207e-08
1.70049e-05 0.000624604 5.47531e-08
8.04207e-08 5.47531e-08 0.000643714
0.000954407 1.22285e-05 2.98141e-06
1.22285e-05 -2.06114e-05 -1.73411e-06
2.98141e-06 -1.73411e-06 -2.18853e-05
0.00219844 1.57318e-05 4.46317e-06
1.57318e-05 0.000577885 -2.71345e-06
4.46317e-06 -2.71345e-06 0.000598349
0.00109072 4.41137e-06 -2.67668e-07
4.41137e-06 3.87712e-05 -1.50898e-07
-2.67668e-07 -1.50898e-07 -1.45666e-05
0.001103 1.60561e-06 -3.61465e-08
1.60561e-06 4.4871e-05 -1.45887e-07
-3.61465e-08 -1.45887e-07 -6.59613e-06
0.00107596 -4.62404e-06 -8.59649e-07
-4.62404e-06 3.47738e-05 -3.65492e-07
-8.59649e-07 -3.65492e-07 -8.94315e-06
0.00121998 -1.83566e-07 3.80444e-07
-1.83566e-07 9.79309e-05 -3.43043e-08
3.80444e-07 -3.43043e-08 4.89086e-05
0.00100613 -6.0273e-06 -1.82412e-07
-6.0273e-06 -1.15091e-06 -2.5318e-07
-1.82412e-07 -2.5318e-07 -4.31684e-05
0.00102161 -7.49503e-06 -1.78938e-06
-7.49503e-06 8.53406e-06 -8.80434e-07
-1.78938e-06 -8.80434e-07 -1.76175e-05
0.000942347 -5.33484e-06 7.66815e-07
-5.33484e-06 -3.52345e-05 2.42849e-07
7.66815e-07 2.42849e-07 -7.5844e-05
0.00101552 -6.97118e-06 -3.35317e-08
-6.97118e-06 9.71599e-07 1.86744e-08
-3.35317e-08 1.86744e-08 -2.31033e-05
0.000954482 -1.15403e-05 -2.7305e-06
-1.15403e-05 -2.65498e-05 -1.81677e-06
-2.7305e-06 -1.81677e-06 -2.65464e-05
0.00101286 -6.30435e-06 1.57472e-06
-6.30435e-06 -4.6104e-06 1.10273e-06
1.57472e-06 1.10273e-06 -2.70299e-05
0.000944722 -1.05807e-05 -4.48595e-08
-1.05807e-05 -3.68709e-05 1.94209e-08
-4.48595e-08 1.94209e-08 -3.53372e-05
0.00219353 -1.43711e-05 -4.19499e-06
-1.43711e-05 0.000568529 -2.80879e-06
-4.19499e-06 -2.80879e-06 0.000590095
0.00094212 -9.54515e-06 2.25894e-06
-9.54515e-06 -4.2839e-05 2.14152e-06
2.25894e-06 2.14152e-06 -4.02855e-05
0.00225046 -1.29246e-05 -8.40193e-08
-1.29246e-05 0.000589622 4.1422e-08
-8.40193e-08 4.1422e-08 0.000611961
0.00229629 -1.14721e-05 3.67223e-06
-1.14721e-05 0.000606521 3.11442e-06
3.67223e-06 3.11442e-06 0.000629428
0.00117231 -3.95053e-05 3.84883e-06
-3.95053e-05 -4.37004e-05 -6.49058e-07
3.84883e-06 -6.49058e-07 -5.93213e-05
0.00109182 -1.00178e-05 -2.56699e-06
-1.00178e-05 -0.000188724 1.40563e-06
-2.56699e-06 1.40563e-06 -0.000244047
0.00520854 5.49019e-06 -6.57967e-05
5.49019e-06 0.00143677 -2.22868e-05
-6.57967e-05 -2.22868e-05 0.00133178
0.00105586 9.14691e-06 5.03557e-07
9.14691e-06 1.85319e-05 4.54689e-07
5.03557e-07 4.54689e-07 -3.94111e-05
0.00124923 1.0674e-05 5.31158e-07
1.0674e-05 9.6833e-05 -2.0321e-07
5.31158e-07 -2.0321e-07 3.74352e-05
0.0010979 8.47118e-06 1.58193e-07
8.47118e-06 4.16868e-05 1.01535e-07
1.58193e-07 1.01535e-07 -1.54175e-05
0.0011597 8.29813e-06 7.98088e-08
8.29813e-06 6.41495e-05 -4.17418e-07
7.98088e-08 -4.17418e-07 7.94974e-06
0.00112094 7.62444e-06 -2.14709e-07
7.62444e-06 5.24844e-05 -3.77474e-07
-2.14709e-07 -3.77474e-07 -3.00448e-06
0.00111665 9.69832e-06 4.06955e-08
9.69832e-06 4.99433e-05 3.12611e-08
4.06955e-08 3.12611e-08 -7.80097e-06
0.00119734 1.43356e-05 1.65561e-07
1.43356e-05 6.17202e-05 -5.88811e-07
1.65561e-07 -5.88811e-07 -4.40933e-06
0.00127024 1.18033e-05 -1.29574e-08
1.18033e-05 0.00011975 -2.27358e-07
-1.29574e-08 -2.27358e-07 6.0255e-05
0.00113995 1.36652e-05 -1.75083e-06
1.36652e-05 6.28628e-05 -2.82732e-07
-1.75083e-06 -2.82732e-07 4.10831e-06
0.00117064 1.67614e-05 -1.97031e-08
1.67614e-05 5.09482e-05 -3.67477e-08
-1.97031e-08 -3.67477e-08 -1.69084e-05
0.00111103 1.48078e-05 8.39107e-07
1.48078e-05 -3.22928e-05 -9.51987e-07
8.39107e-07 -9.51987e-07 -0.000110352
0.00134723 -9.28923e-06 -7.57491e-07
-9.28923e-06 3.60112e-05 4.79253e-06
-7.57491e-07 4.79253e-06 -1.59808e-05
0.00142842 1.64327e-05 -7.07613e-07
1.64327e-05 9.7173e-05 5.595e-07
-7.07613e-07 5.595e-07 1.63128e-05
0.00116955 2.0901e-05 -7.85595e-07
2.0901e-05 5.44424e-05 2.77226e-06
-7.85595e-07 2.77226e-06 -1.9001e-05
0.00168197 -2.59713e-05 2.39807e-07
-2.59713e-05 5.2966e-05 1.45369e-06
2.39807e-07 1.45369e-06 6.53984e-06
4.56766e-05 2.03831e-06 2.99087e-05
2.03831e-06 -0.000684901 8.51948e-06
2.99087e-05 8.51948e-06 -0.000759962
0.00155106 1.29421e-05 -3.16888e-06
1.29421e-05 6.41326e-05 -1.75672e-07
-3.16888e-06 -1.75672e-07 -2.63596e-05
0.000921169 -7.59537e-06 7.09719e-07
-7.59537e-06 2.31856e-05 -2.41921e-06
7.09719e-07 -2.41921e-06 -1.75109e-05
0.000734825 -5.18917e-06 1.24871e-06
-5.18917e-06 2.84017e-05 -1.59731e-06
1.24871e-06 -1.59731e-06 -1.91576e-05
0.000345356 9.61321e-06 1.68433e-05
9.61321e-06 -0.000402821 4.81747e-06
1.68433e-05 4.81747e-06 -0.00048042
0.00171871 2.36295e-06 -4.16779e-07
2.36295e-06 0.000190571 -1.50327e-06
-4.16779e-07 -1.50327e-06 0.00015654
0.00121275 2.2847e-05 -2.28971e-06
2.2847e-05 0.000184702 -9.59383e-07
-2.28971e-06 -9.59383e-07 0.000111471
0.00135026 1.77715e-05 -6.76154e-07
1.77715e-05 0.000125322 -1.21013e-08
-6.76154e-07 -1.21013e-08 6.32944e-05
0.000962469 1.65243e-05 1.57477e-07
1.65243e-05 3.284e-05 9.25987e-07
1.57477e-07 9.25987e-07 -3.99274e-05
0.00112277 1.71042e-05 -6.62205e-08
1.71042e-05 5.81596e-05 -8.25117e-07
-6.62205e-08 -8.25117e-07 -1.16947e-05
0.00134135 1.42251e-05 6.61539e-08
1.42251e-05 0.000224379 -1.20697e-06
6.61539e-08 -1.20697e-06 0.000166938
0.00133962 6.67202e-06 -3.19261e-06
6.67202e-06 9.74518e-05 -1.4996e-06
-3.19261e-06 -1.4996e-06 5.76239e-05
0.00125123 1.26945e-05 -8.32978e-08
1.26945e-05 7.43687e-05 -6.69444e-07
-8.32978e-08 -6.69444e-07 1.87543e-05
0.00132506 1.41937e-05 5.35622e-07
1.41937e-05 0.000112792 4.39474e-07
5.35622e-07 4.39474e-07 5.03204e-05
0.00126735 5.25019e-06 -2.34715e-06
5.25019e-06 6.4983e-05 -6.1786e-07
-2.34715e-06 -6.1786e-07 1.82177e-05
0.00124797 7.6281e-06 -1.06561e-07
7.6281e-06 6.25458e-05 -1.64154e-07
-1.06561e-07 -1.64154e-07 6.79016e-06
0.00116709 6.40068e-06 8.81475e-07
6.40068e-06 2.88107e-05 4.13863e-07
8.81475e-07 4.13863e-07 -3.24017e-05
0.00126146 1.45456e-06 -2.08292e-06
1.45456e-06 6.6991e-05 -2.87982e-07
-2.08292e-06 -2.87982e-07 1.38003e-05
0.00122555 8.90285e-07 1.96933e-08
8.90285e-07 5.48079e-05 1.85589e-08
1.96933e-08 1.85589e-08 -4.4879e-06
0.0012181 -1.51963e-06 5.45161e-07
-1.51963e-06 5.69796e-05 2.74205e-07
5.45161e-07 2.74205e-07 -3.90012e-06
0.00122991 -3.91981e-06 -9.96928e-07
-3.91981e-06 5.90869e-05 -2.30871e-07
-9.96928e-07 -2.30871e-07 2.65224e-06
0.00121041 -5.42781e-06 1.08873e-08
-5.42781e-06 5.47644e-05 -2.01969e-08
1.08873e-08 -2.01969e-08 -3.24568e-06
0.0011879 -5.3103e-06 9.06612e-08
-5.3103e-06 5.19683e-05 7.60077e-08
9.06612e-08 7.60077e-08 -5.31611e-06
0.00114724 -6.78424e-06 -4.86841e-07
-6.78424e-06 2.40894e-05 1.87877e-08
-4.86841e-07 1.87877e-08 -3.14923e-05
0.00113999 -6.01555e-06 -4.29329e-08
-6.01555e-06 2.8832e-05 -3.68574e-08
-4.29329e-08 -3.68574e-08 -2.63635e-05
0.00111845 -1.60573e-06 -7.65133e-07
-1.60573e-06 3.57882e-05 1.39077e-07
-7.65133e-07 1.39077e-07 -1.54524e-05
0.00112395 -6.9311e-06 3.65847e-07
-6.9311e-06 2.19827e-05 8.41482e-08
3.65847e-07 8.41482e-08 -3.22221e-05
0.00103815 -1.27765e-06 -5.11351e-08
-1.27765e-06 -1.09281e-06 3.35281e-08
-5.11351e-08 3.35281e-08 -5.08749e-05
0.000993637 6.80761e-06 -2.08432e-06
6.80761e-06 -1.51278e-06 7.16729e-07
-2.08432e-06 7.16729e-07 -3.82738e-05
0.000908862 1.39827e-05 -3.44772e-06
1.39827e-05 -2.80339e-05 1.52807e-06
-3.44772e-06 1.52807e-06 -3.57525e-05
0.000999919 6.76825e-06 5.65238e-08
6.76825e-06 2.01387e-06 3.80675e-08
5.65238e-08 3.80675e-08 -3.18368e-05
0.00110161 -1.81827e-06 8.27613e-07
-1.81827e-06 3.43928e-05 -9.83806e-08
8.27613e-07 -9.83806e-08 -1.35247e-05
0.00245636 1.94792e-05 -5.0551e-06
1.94792e-05 0.00072065 2.36374e-06
-5.0551e-06 2.36374e-06 0.000736641
0.000897863 1.34044e-05 6.78163e-08
1.34044e-05 -3.76414e-05 2.22228e-09
6.78163e-08 2.22228e-09 -4.29624e-05
0.00101861 7.131e-06 1.99282e-06
7.131e-06 1.13243e-05 -9.09058e-07
1.99282e-06 -9.09058e-07 -1.96247e-05
0.00232924 1.82613e-05 7.36975e-08
1.82613e-05 0.000653247 5.78503e-08
7.36975e-08 5.78503e-08 0.000670925
0.000947143 1.28302e-05 3.16207e-06
1.28302e-05 -1.91396e-05 -1.63955e-06
3.16207e-06 -1.63955e-06 -2.23153e-05
0.00222624 1.70211e-05 4.70175e-06
1.70211e-05 0.000597669 -2.58963e-06
4.70175e-06 -2.58963e-06 0.000616869
0.00100422 7.29295e-06 -2.26625e-07
7.29295e-06 -8.02348e-06 -2.80749e-07
-2.26625e-07 -2.80749e-07 -6.42965e-05
0.00103152 4.77707e-06 -1.60454e-08
4.77707e-06 1.03742e-05 -2.2401e-08
-1.60454e-08 -2.2401e-08 -4.33683e-05
0.00109015 -1.32021e-06 -8.95032e-07
-1.32021e-06 4.08554e-05 -3.19131e-07
-8.95032e-07 -3.19131e-07 -5.18254e-06
0.0010905 1.70654e-06 1.81929e-07
1.70654e-06 3.91269e-05 -1.7444e-07
1.81929e-07 -1.7444e-07 -1.23275e-05
0.00106111 -5.21216e-06 -4.76077e-09
-5.21216e-06 2.83398e-05 -1.55109e-08
-4.76077e-09 -1.55109e-08 -1.54364e-05
0.00101788 -7.85293e-06 -1.85416e-06
-7.85293e-06 1.15174e-05 -8.13746e-07
-1.85416e-06 -8.13746e-07 -1.7029e-05
0.00104791 -6.07814e-06 7.86619e-07
-6.07814e-06 1.95641e-05 1.65984e-07
7.86619e-07 1.65984e-07 -2.21507e-05
0.00100791 -7.47851e-06 -2.36259e-08
-7.47851e-06 2.20736e-06 1.3611e-08
-2.36259e-08 1.3611e-08 -2.39122e-05
0.000946181 -1.24025e-05 -2.90232e-06
-1.24025e-05 -2.4099e-05 -1.68032e-06
-2.90232e-06 -1.68032e-06 -2.59095e-05
0.00100398 -6.96034e-06 1.67048e-06
-6.96034e-06 -4.42451e-06 1.02566e-06
1.67048e-06 1.02566e-06 -2.84628e-05
0.000933598 -1.15675e-05 -5.18841e-08
-1.15675e-05 -3.65875e-05 2.00945e-08
-5.18841e-08 2.00945e-08 -3.64541e-05
0.0021991 -1.57263e-05 -4.40459e-06
-1.57263e-05 0.000578088 -2.68469e-06
-4.40459e-06 -2.68469e-06 0.00059846
0.000928316 -1.06003e-05 2.44657e-06
-1.06003e-05 -4.4826e-05 2.00854e-06
2.44657e-06 2.00854e-06 -4.3182e-05
0.00225327 -1.43317e-05 -7.86388e-08
-1.43317e-05 0.000596511 4.52495e-08
-7.86388e-08 4.52495e-08 0.000617952
0.00230386 -1.28789e-05 3.92558e-06
-1.28789e-05 0.000614735 2.98817e-06
3.92558e-06 2.98817e-06 0.00063693
0.00125392 -2.51284e-05 1.63647e-06
-2.51284e-05 7.61629e-05 3.89715e-07
1.63647e-06 3.89715e-07 5.07203e-05
0.00135226 -3.81783e-05 1.02643e-06
-3.81783e-05 7.9974e-05 -3.42818e-06
1.02643e-06 -3.42818e-06 6.42571e-05
0.000807187 -1.08039e-05 1.7985e-05
-1.08039e-05 5.6076e-05 5.31049e-06
1.7985e-05 5.31049e-06 4.11124e-05
0.00133575 1.18958e-05 6.12291e-07
1.18958e-05 0.000123716 -3.85785e-07
6.12291e-07 -3.85785e-07 6.19501e-05
0.00107143 9.42455e-06 -6.44041e-08
9.42455e-06 2.8703e-05 2.12078e-07
-6.44041e-08 2.12078e-07 -2.86787e-05
0.000960535 1.11119e-05 -3.74006e-07
1.11119e-05 -5.37972e-05 -2.3959e-07
-3.74006e-07 -2.3959e-07 -0.000118193
0.00121942 1.06008e-05 2.19364e-08
1.06008e-05 8.2929e-05 1.82907e-08
2.19364e-08 1.82907e-08 2.33203e-05
0.000993543 8.61079e-06 -2.93032e-07
8.61079e-06 -5.17376e-06 2.95539e-07
-2.93032e-07 2.95539e-07 -6.25737e-05
0.00131571 1.42167e-05 -1.71023e-08
1.42167e-05 7.42202e-05 -1.87361e-06
-1.71023e-08 -1.87361e-06 1.20437e-06
0.00115486 9.9505e-06 -2.31064e-07
9.9505e-06 6.66192e-05 -3.56626e-07
-2.31064e-07 -3.56626e-07 8.53466e-06
0.00117293 1.41458e-05 -9.36558e-09
1.41458e-05 4.95084e-05 4.51689e-07
-9.36558e-09 4.51689e-07 -1.64397e-05
0.00121059 -7.10527e-06 1.38784e-06
-7.10527e-06 -1.84069e-05 3.69078e-06
1.38784e-06 3.69078e-06 -8.15675e-05
0.00109345 1.65134e-05 -4.38704e-07
1.65134e-05 1.43016e-05 9.75462e-07
-4.38704e-07 9.75462e-07 -5.38934e-05
0.00125372 1.53674e-05 -1.09182e-07
1.53674e-05 2.57586e-05 -4.37856e-07
-1.09182e-07 -4.37856e-07 -5.37282e-05
0.00139679 -9.76877e-06 1.911e-07
-9.76877e-06 5.29619e-05 1.30102e-06
1.911e-07 1.30102e-06 5.95107e-07
0.00154805 1.57351e-05 -5.30916e-07
1.57351e-05 0.000154071 8.6052e-07
-5.30916e-07 8.6052e-07 7.47431e-05
0.00184293 -2.42433e-05 -5.25234e-06
-2.42433e-05 0.000131357 -5.50587e-06
-5.25234e-06 -5.50587e-06 8.45843e-05
0.00122844 -1.04969e-05 5.44405e-07
-1.04969e-05 0.000153776 -1.27706e-06
5.44405e-07 -1.27706e-06 0.000112354
0.000815736 -6.94309e-06 6.79506e-08
-6.94309e-06 -2.04973e-05 7.84359e-07
6.79506e-08 7.84359e-07 -6.24705e-05
0.000439993 -7.27928e-06 -1.21178e-06
-7.27928e-06 -0.000115137 1.65414e-06
-1.21178e-06 1.65414e-06 -0.000162056
0.00153207 1.81102e-05 -2.64417e-06
1.81102e-05 0.000212938 -3.16298e-06
-2.64417e-06 -3.16298e-06 0.000152373
0.0012843 1.71148e-05 2.03211e-06
1.71148e-05 0.000183871 3.80006e-06
2.03211e-06 3.80006e-06 0.000113746
0.00117532 1.74031e-05 -4.45587e-07
1.74031e-05 7.70426e-05 -8.90358e-07
-4.45587e-07 -8.90358e-07 6.8391e-06
0.00125359 1.35987e-05 3.20603e-07
1.35987e-05 0.000174046 1.88556e-06
3.20603e-07 1.88556e-06 0.00011787
0.00111032 1.49549e-05 -4.58677e-07
1.49549e-05 7.4645e-05 -2.33146e-06
-4.58677e-07 -2.33146e-06 1.77019e-05
0.00119747 1.24851e-05 -1.44007e-06
1.24851e-05 4.8788e-05 -1.44334e-06
-1.44007e-06 -1.44334e-06 -6.23467e-06
0.0012496 1.38028e-05 6.50742e-09
1.38028e-05 7.63668e-05 -3.40675e-07
6.50742e-09 -3.40675e-07 1.47593e-05
0.0012661 1.2411e-05 -1.79752e-07
1.2411e-05 9.12945e-05 -4.66885e-07
-1.79752e-07 -4.66885e-07 2.92903e-05
0.00124092 7.29091e-06 -1.64005e-06
7.29091e-06 5.98621e-05 -5.35548e-07
-1.64005e-06 -5.35548e-07 3.76532e-06
0.00122209 6.80517e-06 1.65839e-07
6.80517e-06 5.40801e-05 1.96277e-08
1.65839e-07 1.96277e-08 -7.53321e-06
0.00123122 5.02103e-06 4.1857e-07
5.02103e-06 6.39707e-05 2.22201e-07
4.1857e-07 2.22201e-07 1.62321e-06
0.00123498 1.27887e-06 -1.06202e-06
1.27887e-06 5.92924e-05 -3.1709e-07
-1.06202e-06 -3.1709e-07 2.72197e-08
0.00121765 -1.14061e-06 1.08871e-08
-1.14061e-06 5.65719e-05 -9.90401e-09
1.08871e-08 -9.90401e-09 -4.30252e-06
0.0011928 -2.69166e-06 1.05337e-07
-2.69166e-06 5.32957e-05 2.21114e-07
1.05337e-07 2.21114e-07 -6.63328e-06
0.00120925 -5.23879e-06 -5.39981e-07
-5.23879e-06 5.39416e-05 -1.29128e-07
-5.39981e-07 -1.29128e-07 -4.04666e-06
0.00118445 -5.14119e-06 -1.00178e-08
-5.14119e-06 5.0129e-05 -1.97916e-09
-1.00178e-08 -1.97916e-09 -7.1263e-06
0.00112244 -1.35891e-06 -5.86898e-07
-1.35891e-06 3.71879e-05 1.79438e-07
-5.86898e-07 1.79438e-07 -1.64629e-05
0.00112992 -5.83499e-06 -2.35173e-09
-5.83499e-06 2.35526e-05 2.04484e-08
-2.35173e-09 2.04484e-08 -3.15791e-05
0.00110956 -1.0555e-06 -4.51802e-08
-1.0555e-06 3.15765e-05 1.44314e-08
-4.51802e-08 1.44314e-08 -1.95983e-05
0.000993116 6.40689e-06 -2.0137e-06
6.40689e-06 -6.57698e-07 5.86261e-07
-2.0137e-06 5.86261e-07 -4.05879e-05
0.000986382 -7.40989e-07 8.87593e-07
-7.40989e-07 -2.59745e-05 -1.49898e-07
8.87593e-07 -1.49898e-07 -7.59058e-05
0.00100186 6.23632e-06 2.52853e-08
6.23632e-06 1.99996e-06 3.65203e-08
2.52853e-08 3.65203e-08 -3.46957e-05
0.00157441 1.54712e-05 -2.64563e-06
1.54712e-05 0.000298125 7.19057e-07
-2.64563e-06 7.19057e-07 0.000290639
0.00124444 1.87442e-05 -7.37759e-06
1.87442e-05 0.000143062 3.56378e-06
-7.37759e-06 3.56378e-06 0.000150886
0.00124471 1.43202e-05 -1.92766e-09
1.43202e-05 0.00013409 8.62472e-08
-1.92766e-09 8.62472e-08 0.000127638
0.0010108 6.49216e-06 2.06751e-06
6.49216e-06 6.92334e-06 -7.5279e-07
2.06751e-06 -7.5279e-07 -2.69031e-05
0.00239107 1.94706e-05 7.24897e-08
1.94706e-05 0.000690014 6.32602e-08
7.24897e-08 6.32602e-08 0.000706051
0.000937249 1.33367e-05 3.352e-06
1.33367e-05 -1.91356e-05 -1.56086e-06
3.352e-06 -1.56086e-06 -2.46525e-05
0.00226705 1.82675e-05 4.9564e-06
1.82675e-05 0.00062405 -2.47507e-06
4.9564e-06 -2.47507e-06 0.000641808
0.00115288 1.10879e-05 1.82674e-07
1.10879e-05 2.92072e-05 3.88595e-08
1.82674e-07 3.88595e-08 -3.4278e-05
0.000988543 8.70301e-06 9.71666e-08
8.70301e-06 -2.14482e-05 -2.62682e-07
9.71666e-08 -2.62682e-07 -8.09897e-05
0.00100978 7.64168e-06 -1.43407e-08
7.64168e-06 -7.04611e-06 -1.49163e-08
-1.43407e-08 -1.49163e-08 -6.36032e-05
0.0010971 6.46637e-07 -8.78475e-07
6.46637e-07 4.21427e-05 -3.55554e-07
-8.78475e-07 -3.55554e-07 -6.19113e-06
0.000971705 5.13261e-06 1.18614e-07
5.13261e-06 -1.83178e-05 1.37907e-07
1.18614e-07 1.37907e-07 -7.24623e-05
0.00107108 -2.30238e-06 -4.14834e-08
-2.30238e-06 3.28145e-05 1.73008e-08
-4.14834e-08 1.73008e-08 -1.32933e-05
0.00101639 -8.05893e-06 -1.92248e-06
-8.05893e-06 1.45401e-05 -7.32173e-07
-1.92248e-06 -7.32173e-07 -1.65556e-05
0.0010463 -5.83376e-06 9.09795e-07
-5.83376e-06 2.19323e-05 3.88097e-07
9.09795e-07 3.88097e-07 -2.19041e-05
0.00100073 -7.82661e-06 -2.67731e-08
-7.82661e-06 3.64823e-06 7.78942e-09
-2.67731e-08 7.78942e-09 -2.48601e-05
0.000936776 -1.31148e-05 -3.08573e-06
-1.31148e-05 -2.15294e-05 -1.54888e-06
-3.08573e-06 -1.54888e-06 -2.5463e-05
0.00099423 -7.46109e-06 1.75855e-06
-7.46109e-06 -4.1167e-06 9.20378e-07
1.75855e-06 9.20378e-07 -3.0204e-05
0.000920307 -1.24353e-05 -5.12355e-08
-1.24353e-05 -3.63962e-05 1.67024e-08
-5.12355e-08 1.67024e-08 -3.80689e-05
0.0022153 -1.70007e-05 -4.62832e-06
-1.70007e-05 0.000593955 -2.56024e-06
-4.62832e-06 -2.56024e-06 0.000612862
0.000912613 -1.15946e-05 2.62118e-06
-1.15946e-05 -4.66688e-05 1.88477e-06
2.62118e-06 1.88477e-06 -4.64057e-05
0.0022633 -1.57006e-05 -7.82814e-08
-1.57006e-05 0.000607976 5.04651e-08
-7.82814e-08 5.04651e-08 0.00062826
0.00231308 -1.42905e-05 4.13714e-06
-1.42905e-05 0.000624517 2.85393e-06
4.13714e-06 2.85393e-06 0.000645835
0.00134635 -2.59479e-05 1.66719e-06
-2.59479e-05 0.000106227 1.47803e-06
1.66719e-06 1.47803e-06 6.31085e-05
0.00120379 -2.54053e-05 6.6652e-07
-2.54053e-05 4.08604e-05 -1.73603e-06
6.6652e-07 -1.73603e-06 1.44033e-05
0.00162432 -3.69884e-05 -4.56743e-06
-3.69884e-05 0.000244269 -6.5579e-06
-4.56743e-06 -6.5579e-06 0.00022839
0.0013121 1.23999e-05 -1.28639e-07
1.23999e-05 8.01304e-05 -1.00484e-06
-1.28639e-07 -1.00484e-06 1.22177e-05
0.00128302 1.15609e-05 -3.5574e-09
1.15609e-05 0.000104524 1.45514e-07
-3.5574e-09 1.45514e-07 4.37123e-05
0.00107487 9.68644e-06 -8.57274e-07
9.68644e-06 3.32608e-05 -1.37857e-07
-8.57274e-07 -1.37857e-07 -2.35524e-05
0.00117678 1.15683e-05 6.56049e-08
1.15683e-05 4.45612e-05 2.45239e-07
6.56049e-08 2.45239e-07 -1.9068e-05
0.00118907 1.05253e-05 -5.43486e-07
1.05253e-05 6.87162e-05 3.25885e-07
-5.43486e-07 3.25885e-07 8.90391e-06
0.00118806 -2.26491e-06 3.64245e-07
-2.26491e-06 -7.03019e-06 1.31239e-06
3.64245e-07 1.31239e-06 -7.66103e-05
0.00134457 1.44226e-05 -3.9231e-07
1.44226e-05 8.81303e-05 -7.39583e-07
-3.9231e-07 -7.39583e-07 1.44503e-05
0.00114367 1.39705e-05 -1.97453e-07
1.39705e-05 3.52215e-05 1.51219e-06
-1.97453e-07 1.51219e-06 -3.05615e-05
0.00136623 -6.71486e-06 7.22886e-08
-6.71486e-06 4.97746e-05 1.11485e-06
7.22886e-08 1.11485e-06 -1.39008e-05
0.00139202 1.59149e-05 -7.51842e-07
1.59149e-05 8.17061e-05 3.40352e-07
-7.51842e-07 3.40352e-07 8.11382e-07
0.00144668 -1.01427e-05 1.16958e-06
-1.01427e-05 7.01713e-05 -2.24317e-06
1.16958e-06 -2.24317e-06 1.74262e-05
0.000606721 -3.5412e-06 5.40822e-07
-3.5412e-06 -0.000122831 -2.29572e-07
5.40822e-07 -2.29572e-07 -0.000168213
0.00105081 -9.42458e-06 -4.80059e-07
-9.42458e-06 7.89292e-05 -3.04669e-07
-4.80059e-07 -3.04669e-07 3.63176e-05
0.000692864 -6.41746e-06 5.61994e-07
-6.41746e-06 -7.22564e-05 3.89793e-06
5.61994e-07 3.89793e-06 -0.000115513
0.0012338 1.77318e-05 5.81576e-07
1.77318e-05 9.87444e-05 -9.93382e-07
5.81576e-07 -9.93382e-07 2.82027e-05
0.00115436 1.29471e-05 1.01526e-06
1.29471e-05 0.000118679 4.44776e-06
1.01526e-06 4.44776e-06 6.37133e-05
0.00112637 1.48355e-05 -5.17484e-07
1.48355e-05 7.91913e-05 -3.12618e-07
-5.17484e-07 -3.12618e-07 2.21421e-05
0.0010753 1.16072e-05 4.93876e-07
1.16072e-05 4.91224e-05 -1.13848e-06
4.93876e-07 -1.13848e-06 -7.41352e-06
0.00116233 1.33889e-05 -7.73801e-07
1.33889e-05 3.42441e-05 -3.98834e-07
-7.73801e-07 -3.98834e-07 -2.64658e-05
0.0012807 1.23299e-05 -1.83091e-07
1.23299e-05 9.24984e-05 -1.19459e-07
-1.83091e-07 -1.19459e-07 3.0258e-05
0.00121363 1.01169e-05 -2.0458e-07
1.01169e-05 6.52141e-05 -1.39259e-06
-2.0458e-07 -1.39259e-06 5.85333e-06
0.00127818 7.22058e-06 -8.97462e-07
7.22058e-06 7.98241e-05 -1.46549e-07
-8.97462e-07 -1.46549e-07 1.78129e-05
0.00122596 5.23171e-06 1.83675e-08
5.23171e-06 6.15263e-05 3.1683e-07
1.83675e-08 3.1683e-07 -8.79058e-07
0.00120052 3.53737e-06 6.93823e-08
3.53737e-06 5.74362e-05 2.23171e-07
6.93823e-08 2.23171e-07 -4.37397e-06
0.00121725 -6.85805e-07 -5.17591e-07
-6.85805e-07 5.61896e-05 -2.93739e-07
-5.17591e-07 -2.93739e-07 -4.67918e-06
0.00119051 -2.52196e-06 -9.85956e-09
-2.52196e-06 5.20864e-05 -2.18131e-09
-9.85956e-09 -2.18131e-09 -7.8344e-06
0.00112665 -4.05087e-07 -4.89427e-07
-4.05087e-07 3.82903e-05 2.48391e-07
-4.89427e-07 2.48391e-07 -1.81576e-05
0.00118121 -5.00263e-06 -6.76969e-08
-5.00263e-06 4.83812e-05 -9.24373e-08
-6.76969e-08 -9.24373e-08 -8.84492e-06
0.00111717 -1.00867e-06 -3.3585e-08
-1.00867e-06 3.47148e-05 2.29861e-08
-3.3585e-08 2.29861e-08 -1.88962e-05
0.000993925 6.03785e-06 -1.88699e-06
6.03785e-06 1.88232e-06 5.28487e-07
-1.88699e-06 5.28487e-07 -4.16996e-05
0.00110035 -5.57999e-07 7.16783e-07
-5.57999e-07 2.72135e-05 -1.29131e-07
7.16783e-07 -1.29131e-07 -2.38945e-05
0.00100335 5.97789e-06 1.40817e-09
5.97789e-06 3.57526e-06 2.87e-08
1.40817e-09 2.87e-08 -3.62696e-05
0.00159149 1.60272e-05 -2.72504e-06
1.60272e-05 0.000314202 6.22182e-07
-2.72504e-06 6.22182e-07 0.000303413
0.00101005 5.70372e-06 2.04744e-06
5.70372e-06 5.50149e-06 -5.93832e-07
2.04744e-06 -5.93832e-07 -3.11294e-05
0.00155606 1.52076e-05 1.46435e-06
1.52076e-05 0.000290052 -6.92793e-07
1.46435e-06 -6.92793e-07 0.000282204
0.0012027 1.96713e-05 -7.98956e-06
1.96713e-05 0.000132444 3.42297e-06
-7.98956e-06 3.42297e-06 0.000137614
0.00184436 1.97699e-05 -3.24863e-06
1.97699e-05 0.000432543 1.53027e-06
-3.24863e-06 1.53027e-06 0.000443678
0.00158348 1.45424e-05 4.14156e-06
1.45424e-05 0.000297517 -1.45995e-06
4.14156e-06 -1.45995e-06 0.000292334
0.00232601 1.94591e-05 5.26824e-06
1.94591e-05 0.000659479 -2.3754e-06
5.26824e-06 -2.3754e-06 0.000675564
0.0012274 1.02914e-05 -9.82714e-08
1.02914e-05 4.10898e-05 -7.76952e-07
-9.82714e-08 -7.76952e-07 -2.60695e-05
0.00128999 9.91568e-06 4.5955e-07
9.91568e-06 0.000110154 -9.60226e-08
4.5955e-07 -9.60226e-08 5.027e-05
0.00116411 1.11909e-05 3.42736e-07
1.11909e-05 3.73082e-05 5.06685e-07
3.42736e-07 5.06685e-07 -2.48354e-05
0.00109239 2.11052e-06 -7.39151e-07
2.11052e-06 3.85831e-05 -6.01038e-07
-7.39151e-07 -6.01038e-07 -1.30418e-05
0.00109288 9.26327e-06 -7.3838e-08
9.26327e-06 2.65598e-05 -7.8349e-09
-7.3838e-08 -7.8349e-09 -3.28326e-05
0.00101732 7.97858e-06 2.05355e-07
7.97858e-06 -5.17352e-06 3.37315e-07
2.05355e-07 3.37315e-07 -6.20126e-05
0.00108641 1.6639e-07 1.46988e-08
1.6639e-07 3.81874e-05 1.24591e-09
1.46988e-08 1.24591e-09 -1.0261e-05
0.00101542 -8.17644e-06 -1.88601e-06
-8.17644e-06 1.69673e-05 -7.33405e-07
-1.88601e-06 -7.33405e-07 -1.70199e-05
0.00105249 -3.27903e-06 7.95523e-07
-3.27903e-06 2.49962e-05 3.52295e-07
7.95523e-07 3.52295e-07 -2.11818e-05
0.000997032 -8.00787e-06 -4.14722e-08
-8.00787e-06 5.7445e-06 1.1356e-08
-4.14722e-08 1.1356e-08 -2.53268e-05
0.00092531 -1.36596e-05 -3.27813e-06
-1.36596e-05 -1.96202e-05 -1.41978e-06
-3.27813e-06 -1.41978e-06 -2.58758e-05
0.000983797 -7.79931e-06 1.81404e-06
-7.79931e-06 -4.1234e-06 8.3641e-07
1.81404e-06 8.3641e-07 -3.25939e-05
0.000905708 -1.31509e-05 -5.75825e-08
-1.31509e-05 -3.61259e-05 1.64732e-08
-5.75825e-08 1.64732e-08 -3.99203e-05
0.00224165 -1.81663e-05 -4.87526e-06
-1.81663e-05 0.000615758 -2.43283e-06
-4.87526e-06 -2.43283e-06 0.000632968
0.000894435 -1.24675e-05 2.80194e-06
-1.24675e-05 -4.86868e-05 1.75045e-06
2.80194e-06 1.75045e-06 -5.02226e-05
0.00228237 -1.69953e-05 -7.52837e-08
-1.69953e-05 0.000624977 5.44568e-08
-7.52837e-08 5.44568e-08 0.000643836
0.00232778 -1.56739e-05 4.32782e-06
-1.56739e-05 0.000637982 2.71967e-06
4.32782e-06 2.71967e-06 0.00065818
0.00121577 -1.73123e-05 1.48083e-07
-1.73123e-05 7.08673e-05 2.93414e-06
1.48083e-07 2.93414e-06 1.6722e-05
0.00124754 -2.52531e-05 1.89383e-07
-2.52531e-05 6.27433e-05 -1.08114e-06
1.89383e-07 -1.08114e-06 1.96474e-05
0.00118632 -2.57682e-05 5.90463e-07
-2.57682e-05 1.98499e-05 -2.96274e-06
5.90463e-07 -2.96274e-06 -7.61855e-06
0.00104935 1.31851e-06 -2.38528e-07
1.31851e-06 -6.12881e-05 7.52296e-07
-2.38528e-07 7.52296e-07 -0.000128261
0.00131318 1.21081e-05 6.88152e-08
1.21081e-05 8.05405e-05 -3.29664e-07
6.88152e-08 -3.29664e-07 1.25303e-05
0.00124178 1.12534e-05 -6.48408e-07
1.12534e-05 9.06315e-05 5.71926e-07
-6.48408e-07 5.71926e-07 3.07701e-05
0.00139176 1.20254e-05 -7.44291e-08
1.20254e-05 0.000142323 3.32505e-07
-7.44291e-08 3.32505e-07 7.94628e-05
0.00134209 -1.67037e-06 -1.84298e-08
-1.67037e-06 6.31286e-05 7.13993e-08
-1.84298e-08 7.13993e-08 -6.12251e-06
0.0013765 1.46183e-05 -3.8531e-07
1.46183e-05 0.000103443 3.11978e-07
-3.8531e-07 3.11978e-07 2.90999e-05
0.00151708 -6.29416e-06 -8.12589e-07
-6.29416e-06 0.000115792 -1.322e-06
-8.12589e-07 -1.322e-06 5.1595e-05
0.000873061 -2.05894e-06 1.76987e-06
-2.05894e-06 -5.43511e-06 2.46707e-07
1.76987e-06 2.46707e-07 -5.58081e-05
0.000856274 -2.87621e-06 -2.46981e-08
-2.87621e-06 -1.4659e-05 -6.21289e-08
-2.46981e-08 -6.21289e-08 -6.16254e-05
0.000877412 -8.09794e-06 -1.80388e-06
-8.09794e-06 5.98193e-06 9.66483e-07
-1.80388e-06 9.66483e-07 -3.77998e-05
0.00101858 8.88736e-06 5.56205e-07
8.88736e-06 4.00456e-05 -3.5316e-07
5.56205e-07 -3.5316e-07 -1.58007e-05
0.00116273 1.47527e-05 1.93357e-07
1.47527e-05 9.31264e-05 1.14977e-06
1.93357e-07 1.14977e-06 3.59632e-05
0.00108304 1.16918e-05 3.61845e-07
1.16918e-05 5.38554e-05 -7.3223e-08
3.61845e-07 -7.3223e-08 -2.64188e-06
0.00115671 1.10206e-05 2.43103e-07
1.10206e-05 6.74389e-05 -8.11509e-08
2.43103e-07 -8.11509e-08 1.09698e-05
0.00129606 1.22525e-05 -4.63669e-07
1.22525e-05 9.4181e-05 3.51345e-07
-4.63669e-07 3.51345e-07 3.16893e-05
0.00119336 9.85999e-06 -3.70969e-07
9.85999e-06 5.70936e-05 -5.0877e-07
-3.70969e-07 -5.0877e-07 -2.34734e-06
0.00119623 8.96562e-06 -1.24904e-07
8.96562e-06 6.29094e-05 -1.02627e-06
-1.24904e-07 -1.02627e-06 2.52958e-06
0.00121936 5.43833e-06 -2.31089e-08
5.43833e-06 5.84713e-05 3.65142e-07
-2.31089e-08 3.65142e-07 -3.99196e-06
0.00118716 3.5925e-06 6.89291e-09
3.5925e-06 5.16557e-05 2.18744e-07
6.89291e-09 2.18744e-07 -1.01061e-05
0.00113805 3.77088e-06 -4.52006e-07
3.77088e-06 4.41119e-05 2.77269e-07
-4.52006e-07 2.77269e-07 -1.49178e-05
0.00118751 -2.28185e-06 -8.50789e-08
-2.28185e-06 5.05573e-05 -2.3499e-07
-8.50789e-08 -2.3499e-07 -9.35544e-06
0.00112421 -1.98481e-07 -2.75588e-08
-1.98481e-07 3.72113e-05 1.52597e-08
-2.75588e-08 1.52597e-08 -1.92193e-05
0.000997445 5.81857e-06 -1.76716e-06
5.81857e-06 5.49132e-06 5.0365e-07
-1.76716e-06 5.0365e-07 -4.19853e-05
0.00111188 -5.93658e-07 5.84354e-07
-5.93658e-07 3.22265e-05 -1.54994e-07
5.84354e-07 -1.54994e-07 -2.13451e-05
0.00100474 5.83348e-06 -9.26097e-09
5.83348e-06 6.32607e-06 3.6096e-08
-9.26097e-09 3.6096e-08 -3.71632e-05
0.00159972 1.63606e-05 -2.75818e-06
1.63606e-05 0.00032848 5.59764e-07
-2.75818e-06 5.59764e-07 0.000313751
0.0010134 5.58372e-06 1.95572e-06
5.58372e-06 7.72624e-06 -4.96273e-07
1.95572e-06 -4.96273e-07 -3.20338e-05
0.00155863 1.57188e-05 1.56198e-06
1.57188e-05 0.000299042 -6.5515e-07
1.56198e-06 -6.5515e-07 0.000287918
0.001219 2.03916e-05 -8.53655e-06
2.03916e-05 0.000152158 3.207e-06
-8.53655e-06 3.207e-06 0.000154121
0.00153944 1.49452e-05 5.53958e-06
1.49452e-05 0.000282779 -2.11344e-06
5.53958e-06 -2.11344e-06 0.000274566
0.00117151 1.99948e-05 -2.89072e-06
1.99948e-05 0.000116925 1.43383e-06
-2.89072e-06 1.43383e-06 0.000122487
0.00243963 2.10344e-05 2.39594e-06
2.10344e-05 0.000719957 -8.43364e-07
2.39594e-06 -8.43364e-07 0.000734396
0.00136444 1.5322e-06 -3.43286e-07
1.5322e-06 8.53408e-05 3.53831e-07
-3.43286e-07 3.53831e-07 1.87023e-05
0.00122932 9.75912e-06 9.9109e-08
9.75912e-06 5.60437e-05 -7.31819e-07
9.9109e-08 -7.31819e-07 -8.29012e-06
0.00127135 1.0567e-05 -2.60385e-07
1.0567e-05 6.47917e-05 3.86565e-07
-2.60385e-07 3.86565e-07 -1.7723e-06
0.00132534 4.0488e-06 -4.18073e-07
4.0488e-06 0.000141598 -1.53199e-07
-4.18073e-07 -1.53199e-07 8.82839e-05
0.00121558 9.91911e-06 2.72976e-07
9.91911e-06 7.46537e-05 -2.00113e-08
2.72976e-07 -2.00113e-08 1.43264e-05
0.00117515 1.12866e-05 4.02168e-07
1.12866e-05 4.53464e-05 8.7417e-07
4.02168e-07 8.7417e-07 -1.54602e-05
0.00101831 -6.43754e-06 -1.83709e-06
-6.43754e-06 1.94139e-05 -9.05691e-07
-1.83709e-06 -9.05691e-07 -1.85551e-05
0.00109459 2.22103e-06 4.39635e-08
2.22103e-06 4.01124e-05 -5.61437e-08
4.39635e-08 -5.61437e-08 -1.15986e-05
0.00119616 9.84513e-06 3.49697e-07
9.84513e-06 7.41407e-05 4.83094e-07
3.49697e-07 4.83094e-07 1.4891e-05
0.00107437 -2.49142e-07 8.18436e-07
-2.49142e-07 3.36028e-05 3.11681e-07
8.18436e-07 3.11681e-07 -1.49592e-05
0.00099561 -8.07777e-06 -2.6227e-08
-8.07777e-06 8.23779e-06 -2.38527e-08
-2.6227e-08 -2.38527e-08 -2.57729e-05
0.000914131 -1.40054e-05 -3.45591e-06
-1.40054e-05 -1.75254e-05 -1.35766e-06
-3.45591e-06 -1.35766e-06 -2.64195e-05
0.00097779 -7.96009e-06 1.875e-06
-7.96009e-06 -2.99573e-06 7.73082e-07
1.875e-06 7.73082e-07 -3.40425e-05
0.000890332 -1.36959e-05 -6.39523e-08
-1.36959e-05 -3.59183e-05 1.80415e-08
-6.39523e-08 1.80415e-08 -4.20383e-05
0.00227778 -1.92108e-05 -5.14781e-06
-1.92108e-05 0.000643079 -2.29911e-06
-5.14781e-06 -2.29911e-06 0.000658417
0.000874807 -1.31861e-05 2.97268e-06
-1.31861e-05 -5.06405e-05 1.61879e-06
2.97268e-06 1.61879e-06 -5.42963e-05
0.00231026 -1.81857e-05 -7.429e-08
-1.81857e-05 0.000647327 5.9098e-08
-7.429e-08 5.9098e-08 0.000664524
0.00234972 -1.69878e-05 4.52959e-06
-1.69878e-05 0.000656116 2.58802e-06
4.52959e-06 2.58802e-06 0.000674928
0.00124833 -1.19491e-05 6.63962e-07
-1.19491e-05 8.36301e-05 1.64363e-06
6.63962e-07 1.64363e-06 2.62471e-05
0.00129313 -1.74388e-05 6.01162e-08
-1.74388e-05 9.87303e-05 5.76351e-07
6.01162e-08 5.76351e-07 4.38368e-05
0.00114851 -2.45651e-05 -1.3855e-06
-2.45651e-05 1.91552e-05 -3.60855e-06
-1.3855e-06 -3.60855e-06 -2.3912e-05
0.00121547 8.09116e-07 -1.04708e-07
8.09116e-07 5.96946e-06 -1.26007e-07
-1.04708e-07 -1.26007e-07 -6.18265e-05
0.00131107 1.18076e-05 -6.61159e-08
1.18076e-05 7.94028e-05 3.64424e-07
-6.61159e-08 3.64424e-07 1.13042e-05
0.0014865 -1.06641e-06 -1.3048e-07
-1.06641e-06 0.000128878 -1.25998e-06
-1.3048e-07 -1.25998e-06 5.99571e-05
0.000923811 -2.3327e-06 1.00902e-06
-2.3327e-06 1.76157e-05 4.93514e-07
1.00902e-06 4.93514e-07 -3.97108e-05
0.000932728 -1.55366e-06 4.81508e-07
-1.55366e-06 2.89444e-05 -5.56235e-09
4.81508e-07 -5.56235e-09 -2.13137e-05
0.00110843 -2.24595e-06 -5.44987e-07
-2.24595e-06 9.47477e-05 2.4576e-07
-5.44987e-07 2.4576e-07 4.6192e-05
0.001064 8.79698e-06 -2.22908e-07
8.79698e-06 5.95642e-05 4.44536e-07
-2.22908e-07 4.44536e-07 2.70342e-06
0.00104985 9.30392e-06 2.51392e-07
9.30392e-06 4.80143e-05 -1.34059e-07
2.51392e-07 -1.34059e-07 -9.13392e-06
0.00109193 1.17896e-05 -5.06108e-08
1.17896e-05 5.91161e-05 8.06861e-07
-5.06108e-08 8.06861e-07 2.65794e-06
0.0011263 1.07685e-05 9.5248e-08
1.07685e-05 5.3894e-05 3.7892e-07
9.5248e-08 3.7892e-07 -2.57576e-06
0.00123748 1.0752e-05 4.05863e-07
1.0752e-05 0.000102112 -2.5833e-07
4.05863e-07 -2.5833e-07 4.48146e-05
0.00117255 9.59873e-06 -1.54306e-07
9.59873e-06 4.87424e-05 3.24186e-07
-1.54306e-07 3.24186e-07 -1.07805e-05
0.0011709 8.91536e-06 -1.85114e-07
8.91536e-06 5.22426e-05 -3.72999e-07
-1.85114e-07 -3.72999e-07 -8.06262e-06
0.00113612 7.90855e-06 -5.57442e-07
7.90855e-06 4.91464e-05 -2.80592e-07
-5.57442e-07 -2.80592e-07 -1.04053e-05
0.00117413 3.60926e-06 -5.51392e-08
3.60926e-06 4.60264e-05 2.14011e-07
-5.51392e-08 2.14011e-07 -1.5687e-05
0.00112483 3.7988e-06 -1.62055e-08
3.7988e-06 3.84241e-05 1.21875e-07
-1.62055e-08 1.21875e-07 -2.05655e-05
0.00100645 6.84093e-06 -1.6835e-06
6.84093e-06 1.22719e-05 4.72199e-07
-1.6835e-06 4.72199e-07 -3.90127e-05
0.00112138 3.83846e-08 4.87636e-07
3.83846e-08 3.59555e-05 -2.32206e-07
4.87636e-07 -2.32206e-07 -2.04579e-05
0.00100696 5.77336e-06 -1.53999e-08
5.77336e-06 9.40871e-06 4.39656e-08
-1.53999e-08 4.39656e-08 -3.79829e-05
0.00151018 1.58659e-05 -2.785e-06
1.58659e-05 0.000299392 5.36487e-07
-2.785e-06 5.36487e-07 0.000279743
0.00101537 5.58247e-06 1.84147e-06
5.58247e-06 1.0676e-05 -4.41057e-07
1.84147e-06 -4.41057e-07 -3.27199e-05
0.00155586 1.60173e-05 1.67476e-06
1.60173e-05 0.000307728 -6.06431e-07
1.67476e-06 -6.06431e-07 0.000292677
0.00122611 2.06341e-05 -9.14094e-06
2.06341e-05 0.000170743 2.99229e-06
-9.14094e-06 2.99229e-06 0.00016881
0.00152694 1.54108e-05 5.79156e-06
1.54108e-05 0.000284456 -1.93787e-06
5.79156e-06 -1.93787e-06 0.00027299
0.00117989 2.07142e-05 -3.10616e-06
2.07142e-05 0.000132962 1.34249e-06
-3.10616e-06 1.34249e-06 0.000135357
0.00113831 2.03194e-05 2.22711e-06
2.03194e-05 0.000100467 -5.59292e-07
2.22711e-06 -5.59292e-07 0.000106428
0.00142812 -1.00203e-05 3.82502e-07
-1.00203e-05 0.000133568 1.13779e-06
3.82502e-07 1.13779e-06 7.90714e-05
0.00128533 2.43923e-06 -4.25567e-07
2.43923e-06 6.1859e-05 2.14157e-07
-4.25567e-07 2.14157e-07 -4.29358e-06
0.00140728 1.37407e-06 -8.06575e-08
1.37407e-06 0.000102699 -2.21016e-07
-8.06575e-08 -2.21016e-07 3.60225e-05
0.00125427 6.33672e-06 -6.14798e-07
6.33672e-06 8.92725e-05 -5.65211e-07
-6.14798e-07 -5.65211e-07 3.12162e-05
0.00128589 9.77266e-06 2.11179e-07
9.77266e-06 8.37533e-05 3.30986e-07
2.11179e-07 3.30986e-07 1.98631e-05
0.00131449 1.08481e-05 2.33887e-07
1.08481e-05 8.81303e-05 8.7367e-07
2.33887e-07 8.7367e-07 2.21613e-05
0.00103028 -4.02504e-06 -1.97294e-06
-4.02504e-06 2.14061e-05 -8.37793e-07
-1.97294e-06 -8.37793e-07 -2.059e-05
0.00116349 4.20997e-06 3.60845e-07
4.20997e-06 6.4153e-05 4.11401e-07
3.60845e-07 4.11401e-07 9.688e-06
0.00114008 9.95441e-06 3.70886e-07
9.95441e-06 3.86219e-05 9.30725e-07
3.70886e-07 9.30725e-07 -2.21447e-05
0.000906059 -1.40635e-05 -3.64112e-06
-1.40635e-05 -1.50479e-05 -1.42757e-06
-3.64112e-06 -1.42757e-06 -2.7346e-05
0.000996206 -6.99281e-06 -2.72019e-08
-6.99281e-06 9.93892e-06 -6.82277e-08
-2.72019e-08 -6.82277e-08 -2.8085e-05
0.00109689 2.27108e-06 7.46901e-07
2.27108e-06 4.16883e-05 4.40318e-07
7.46901e-07 4.40318e-07 -1.01072e-05
0.000974727 -7.98047e-06 1.93544e-06
-7.98047e-06 -9.80727e-07 7.37152e-07
1.93544e-06 7.37152e-07 -3.50149e-05
0.000873323 -1.40442e-05 -6.41428e-08
-1.40442e-05 -3.63774e-05 -1.91743e-09
-6.41428e-08 -1.91743e-09 -4.51257e-05
0.00233266 -2.01198e-05 -5.48561e-06
-2.01198e-05 0.000679732 -2.18751e-06
-5.48561e-06 -2.18751e-06 0.00069301
0.000855441 -1.37313e-05 3.15384e-06
-1.37313e-05 -5.21682e-05 1.48986e-06
3.15384e-06 1.48986e-06 -5.81537e-05
0.00234671 -1.92555e-05 -7.30914e-08
-1.92555e-05 0.000674681 6.42183e-08
-7.30914e-08 6.42183e-08 0.000690032
0.00237931 -1.82038e-05 4.74064e-06
-1.82038e-05 0.000679085 2.45462e-06
4.74064e-06 2.45462e-06 0.000696271
0.00114996 -1.24195e-05 9.85615e-07
-1.24195e-05 7.57276e-05 -6.91626e-07
9.85615e-07 -6.91626e-07 1.1065e-05
0.00124357 -1.21212e-05 -8.39881e-08
-1.21212e-05 7.75077e-05 3.0951e-07
-8.39881e-08 3.0951e-07 1.99075e-05
0.00136894 -1.75425e-05 -5.54825e-07
-1.75425e-05 0.00012581 -1.87889e-06
-5.54825e-07 -1.87889e-06 7.01768e-05
0.00138848 2.99194e-07 3.65331e-07
2.99194e-07 7.64486e-05 -6.23677e-07
3.65331e-07 -6.23677e-07 7.82011e-06
0.00100019 -7.99134e-07 1.82335e-07
-7.99134e-07 4.66782e-05 1.50293e-06
1.82335e-07 1.50293e-06 -1.37275e-05
0.000966137 -1.91828e-06 -4.92639e-07
-1.91828e-06 4.05648e-05 7.92184e-08
-4.92639e-07 7.92184e-08 -1.63901e-05
0.000990246 -1.06072e-06 -1.15175e-06
-1.06072e-06 6.22521e-05 -8.5743e-08
-1.15175e-06 -8.5743e-08 1.212e-05
0.0011008 8.68033e-06 -6.93339e-07
8.68033e-06 7.50859e-05 1.17653e-06
-6.93339e-07 1.17653e-06 1.72194e-05
0.00107406 9.39296e-06 2.00965e-07
9.39296e-06 6.10647e-05 3.41504e-07
2.00965e-07 3.41504e-07 4.09317e-06
0.00105734 9.90404e-06 3.26504e-08
9.90404e-06 5.09821e-05 -5.49749e-07
3.26504e-08 -5.49749e-07 -5.34448e-06
0.00109436 1.05105e-05 4.86366e-08
1.05105e-05 3.95741e-05 1.06795e-06
4.86366e-08 1.06795e-06 -1.68872e-05
0.00119879 1.06055e-05 8.90361e-08
1.06055e-05 8.46153e-05 2.88603e-07
8.90361e-08 2.88603e-07 2.7152e-05
0.00114429 9.32746e-06 -2.24927e-07
9.32746e-06 6.8002e-05 -5.85931e-07
-2.24927e-07 -5.85931e-07 9.82531e-06
0.00114546 8.86397e-06 -2.27761e-07
8.86397e-06 4.15264e-05 2.82901e-07
-2.27761e-07 2.82901e-07 -1.87043e-05
0.00111217 7.82301e-06 -1.13568e-07
7.82301e-06 3.91185e-05 1.41679e-08
-1.13568e-07 1.41679e-08 -2.03818e-05
0.00101317 8.12977e-06 -1.62359e-06
8.12977e-06 2.15987e-05 2.59075e-07
-1.62359e-06 2.59075e-07 -3.21314e-05
0.00111143 3.76248e-06 4.24793e-07
3.76248e-06 3.26513e-05 -3.29126e-08
4.24793e-07 -3.29126e-08 -2.62981e-05
0.00100577 6.8407e-06 -1.61538e-08
6.8407e-06 1.1775e-05 7.42305e-08
-1.61538e-08 7.42305e-08 -3.94188e-05
0.000741227 1.3751e-05 -4.28447e-06
1.3751e-05 -5.89816e-05 1.0345e-06
-4.28447e-06 1.0345e-06 -8.83951e-05
0.00101607 5.71743e-06 1.74379e-06
5.71743e-06 1.31361e-05 -4.12417e-07
1.74379e-06 -4.12417e-07 -3.41699e-05
0.00113164 1.51384e-05 1.93878e-06
1.51384e-05 0.000115671 -6.00553e-07
1.93878e-06 -6.00553e-07 9.35495e-05
0.00269907 2.2728e-05 -6.99686e-06
2.2728e-05 0.000899341 1.7112e-06
-6.99686e-06 1.7112e-06 0.000902622
0.00151265 1.56692e-05 6.03173e-06
1.56692e-05 0.00028731 -1.7892e-06
6.03173e-06 -1.7892e-06 0.00027193
0.00118155 2.09566e-05 -3.34615e-06
2.09566e-05 0.000149134 1.25001e-06
-3.34615e-06 1.25001e-06 0.000147662
0.00113795 2.10388e-05 2.35646e-06
2.10388e-05 0.000112404 -4.95231e-07
2.35646e-06 -4.95231e-07 0.000115243
0.00138172 -1.19473e-05 7.61569e-07
-1.19473e-05 0.000148919 -8.37739e-07
7.61569e-07 -8.37739e-07 8.94445e-05
0.00132054 -7.51812e-06 -8.18036e-08
-7.51812e-06 8.43039e-05 1.05511e-06
-8.18036e-08 1.05511e-06 2.63011e-05
0.00124837 -9.68329e-06 1.97974e-07
-9.68329e-06 5.31878e-05 6.73462e-08
1.97974e-07 6.73462e-08 -2.00615e-06
0.000987296 2.59455e-06 -9.73989e-07
2.59455e-06 -5.16055e-05 -1.65018e-07
-9.73989e-07 -1.65018e-07 -0.000113831
0.00133206 2.16146e-06 6.55002e-08
2.16146e-06 8.58614e-05 7.79311e-10
6.55002e-08 7.79311e-10 2.09676e-05
0.00144855 1.23851e-06 2.05816e-07
1.23851e-06 0.000119303 -8.56577e-07
2.05816e-07 -8.56577e-07 5.25937e-05
0.000841813 -1.93102e-06 -2.4249e-06
-1.93102e-06 -7.88741e-05 -1.22294e-06
-2.4249e-06 -1.22294e-06 -0.000126649
0.00126139 6.32484e-06 1.73149e-07
6.32484e-06 9.24936e-05 5.85276e-08
1.73149e-07 5.85276e-08 3.44345e-05
0.00134365 9.80039e-06 4.54647e-07
9.80039e-06 0.000112009 9.32042e-07
4.54647e-07 9.32042e-07 4.85623e-05
0.000891572 -1.38976e-05 -3.93229e-06
-1.38976e-05 -1.84861e-05 -1.41734e-06
-3.93229e-06 -1.41734e-06 -3.49403e-05
0.000901089 -4.51292e-06 -8.19448e-08
-4.51292e-06 -4.00054e-05 2.60583e-08
-8.19448e-08 2.60583e-08 -8.30882e-05
0.0010018 4.30689e-06 1.07291e-06
4.30689e-06 -1.32361e-05 1.06018e-06
1.07291e-06 1.06018e-06 -6.88505e-05
0.00243191 -2.08646e-05 -5.99611e-06
-2.08646e-05 0.000737036 -2.13891e-06
-5.99611e-06 -2.13891e-06 0.000747948
0.000853751 -1.41115e-05 -8.37056e-08
-1.41115e-05 -3.90193e-05 -4.23767e-08
-8.37056e-08 -4.23767e-08 -5.11264e-05
0.000974123 -7.58358e-06 1.89733e-06
-7.58358e-06 4.87904e-07 8.42934e-07
1.89733e-06 8.42934e-07 -3.75934e-05
0.000831953 -1.408e-05 3.34039e-06
-1.408e-05 -5.54749e-05 1.38775e-06
3.34039e-06 1.38775e-06 -6.40791e-05
0.0023993 -2.01958e-05 -6.78032e-08
-2.01958e-05 0.000710278 6.6815e-08
-6.78032e-08 6.6815e-08 0.000723601
0.00241674 -1.92994e-05 4.97735e-06
-1.92994e-05 0.00070677 2.31978e-06
4.97735e-06 2.31978e-06 0.000722135
0.000992899 -1.06822e-05 3.18993e-07
-1.06822e-05 3.18401e-05 4.75741e-07
3.18993e-07 4.75741e-07 -3.4194e-05
0.00103948 -1.21111e-05 -5.44949e-07
-1.21111e-05 3.01321e-05 -8.81759e-07
-5.44949e-07 -8.81759e-07 -3.29398e-05
0.00123554 -1.22933e-05 -5.35314e-07
-1.22933e-05 6.99426e-05 -9.98054e-07
-5.35314e-07 -9.98054e-07 1.21199e-05
0.00100996 1.15015e-06 2.47522e-07
1.15015e-06 5.50938e-05 4.68666e-07
2.47522e-07 4.68666e-07 -1.84758e-06
0.00104566 -7.79755e-07 1.57461e-07
-7.79755e-07 6.78603e-05 6.14199e-07
1.57461e-07 6.14199e-07 7.63198e-06
0.00100969 -1.48967e-06 -1.73094e-06
-1.48967e-06 6.40701e-05 -3.01319e-07
-1.73094e-06 -3.01319e-07 7.48759e-06
0.00110294 9.50188e-06 -1.50444e-07
9.50188e-06 7.62777e-05 5.13795e-07
-1.50444e-07 5.13795e-07 1.94789e-05
0.00106366 9.95135e-06 -8.06389e-09
9.95135e-06 5.36595e-05 1.48798e-07
-8.06389e-09 1.48798e-07 -2.55576e-06
0.00108524 8.95675e-06 1.95013e-08
8.95675e-06 7.533e-05 -5.85173e-07
1.95013e-08 -5.85173e-07 1.95433e-05
0.00115991 1.04584e-05 -7.73677e-08
1.04584e-05 6.70174e-05 1.10696e-06
-7.73677e-08 1.10696e-06 9.38968e-06
0.00117676 9.32136e-06 5.40683e-09
9.32136e-06 8.50641e-05 8.31188e-09
5.40683e-09 8.31188e-09 2.70693e-05
0.000903779 8.41135e-06 -1.75124e-06
8.41135e-06 -1.50297e-05 -4.42104e-07
-1.75124e-06 -4.42104e-07 -6.92769e-05
0.00109051 7.7486e-06 2.95637e-07
7.7486e-06 3.0107e-05 3.25301e-07
2.95637e-07 3.25301e-07 -2.93382e-05
0.000996974 8.17901e-06 -9.53131e-09
8.17901e-06 1.44424e-05 2.10583e-07
-9.53131e-09 2.10583e-07 -3.91839e-05
0.000734536 1.23938e-05 -4.43506e-06
1.23938e-05 -4.8171e-05 8.35834e-07
-4.43506e-06 8.35834e-07 -8.21176e-05
0.00100507 6.8527e-06 1.64204e-06
6.8527e-06 1.12617e-05 -3.15346e-07
1.64204e-06 -3.15346e-07 -3.98411e-05
0.000766735 1.40354e-05 1.27534e-07
1.40354e-05 -4.86757e-05 5.6695e-08
1.27534e-07 5.6695e-08 -7.80424e-05
0.0028383 2.23264e-05 -7.38344e-06
2.23264e-05 0.000981247 1.44272e-06
-7.38344e-06 1.44272e-06 0.000981453
0.000747007 1.45513e-05 5.66353e-06
1.45513e-05 -7.0828e-05 -1.67145e-06
5.66353e-06 -1.67145e-06 -9.54165e-05
0.00187384 2.13915e-05 7.11561e-07
2.13915e-05 0.000503379 1.28384e-07
7.11561e-07 1.28384e-07 0.000502047
0.00113447 2.12907e-05 2.49806e-06
2.12907e-05 0.000126305 -4.50054e-07
2.49806e-06 -4.50054e-07 0.000125306
0.00139051 -1.28985e-05 2.71081e-07
-1.28985e-05 0.000185881 -1.7588e-07
2.71081e-07 -1.7588e-07 0.000121443
0.00119083 -9.95684e-06 -1.25665e-07
-9.95684e-06 5.44229e-05 -2.39606e-07
-1.25665e-07 -2.39606e-07 -3.17146e-06
0.00120574 -1.14997e-05 -4.08015e-07
-1.14997e-05 6.75228e-05 2.16974e-08
-4.08015e-07 2.16974e-08 7.7199e-06
0.00111779 -4.73191e-06 -7.2573e-07
-4.73191e-06 1.29997e-05 8.58746e-07
-7.2573e-07 8.58746e-07 -4.58897e-05
0.00121981 -7.81494e-06 2.98765e-07
-7.81494e-06 4.11048e-05 -2.0624e-07
2.98765e-07 -2.0624e-07 -1.68416e-05
0.00106944 -9.36239e-06 6.59933e-08
-9.36239e-06 -2.68641e-05 -5.67914e-07
6.59933e-08 -5.67914e-07 -8.27514e-05
0.000813308 -2.24e-06 -2.47985e-06
-2.24e-06 -0.000101065 -8.32274e-07
-2.47985e-06 -8.32274e-07 -0.000153014
0.00118314 3.22758e-06 -2.51663e-07
3.22758e-06 4.083e-05 8.43251e-08
-2.51663e-07 8.43251e-08 -2.03445e-05
0.00137865 1.84815e-06 4.95235e-07
1.84815e-06 0.000109816 -6.34086e-07
4.95235e-07 -6.34086e-07 4.61782e-05
0.000869445 -1.37523e-05 -4.2195e-06
-1.37523e-05 -2.71793e-05 -1.38839e-06
-4.2195e-06 -1.38839e-06 -4.82991e-05
0.000823816 -1.68128e-06 -4.06959e-07
-1.68128e-06 -8.80821e-05 -3.74195e-07
-4.06959e-07 -3.74195e-07 -0.000136525
0.00126882 6.35158e-06 9.53715e-07
6.35158e-06 9.58568e-05 7.27506e-07
9.53715e-07 7.27506e-07 3.77945e-05
0.00256972 -2.14379e-05 -6.66355e-06
-2.14379e-05 0.000812195 -2.07335e-06
-6.66355e-06 -2.07335e-06 0.00082045
0.000834231 -1.39322e-05 -1.54899e-07
-1.39322e-05 -4.45467e-05 -4.44001e-09
-1.54899e-07 -4.44001e-09 -6.08102e-05
0.000773513 -4.91548e-06 1.82691e-06
-4.91548e-06 -0.000100656 1.03301e-06
1.82691e-06 1.03301e-06 -0.000144828
0.00248835 -2.09885e-05 -6.03692e-08
-2.09885e-05 0.000763035 6.91336e-08
-6.03692e-08 6.91336e-08 0.000774066
0.000801185 -1.41533e-05 3.52449e-06
-1.41533e-05 -6.30917e-05 1.39382e-06
3.52449e-06 1.39382e-06 -7.50098e-05
0.00246544 -2.02683e-05 5.23756e-06
-2.02683e-05 0.000740559 2.18374e-06
5.23756e-06 2.18374e-06 0.000753933
0.000955905 -8.2287e-06 -2.83266e-07
-8.2287e-06 1.57012e-05 4.95885e-07
-2.83266e-07 4.95885e-07 -4.57378e-05
0.00103867 -1.06781e-05 4.87287e-07
-1.06781e-05 5.15843e-05 -9.44492e-07
4.87287e-07 -9.44492e-07 -1.39012e-05
0.00093211 -1.18015e-05 -1.41947e-06
-1.18015e-05 -1.40331e-05 -1.44457e-06
-1.41947e-06 -1.44457e-06 -7.55165e-05
0.00102133 1.02106e-06 1.85342e-08
1.02106e-06 6.62022e-05 2.6431e-07
1.85342e-08 2.6431e-07 1.06268e-05
0.00105452 9.89651e-07 -1.32637e-07
9.89651e-07 7.207e-05 1.69417e-08
-1.32637e-07 1.69417e-08 1.48109e-05
0.00109091 -7.65817e-07 -3.99467e-07
-7.65817e-07 8.89594e-05 -3.44001e-08
-3.99467e-07 -3.44001e-08 2.89058e-05
0.00106902 9.99448e-06 -1.77316e-07
9.99448e-06 5.58766e-05 4.88717e-07
-1.77316e-07 4.88717e-07 -2.2489e-07
0.00107901 8.99682e-06 1.82606e-07
8.99682e-06 7.17551e-05 -2.72946e-09
1.82606e-07 -2.72946e-09 1.60681e-05
0.00081391 7.51229e-06 -1.52638e-06
7.51229e-06 -2.86587e-05 -6.04753e-07
-1.52638e-06 -6.04753e-07 -8.14846e-05
0.00120723 9.30501e-06 2.64738e-07
9.30501e-06 0.000101242 7.01869e-07
2.64738e-07 7.01869e-07 4.34264e-05
0.000957388 8.59284e-06 -3.14364e-07
8.59284e-06 9.91299e-06 -5.55338e-08
-3.14364e-07 -5.55338e-08 -4.42552e-05
0.000726319 1.05081e-05 -4.45469e-06
1.05081e-05 -3.30807e-05 3.15826e-07
-4.45469e-06 3.15826e-07 -6.95586e-05
0.000981254 8.23082e-06 1.59372e-06
8.23082e-06 7.49855e-06 1.77711e-07
1.59372e-06 1.77711e-07 -4.60237e-05
0.00073804 1.27547e-05 1.04133e-07
1.27547e-05 -4.76329e-05 1.80072e-07
1.04133e-07 1.80072e-07 -8.14674e-05
0.0028425 2.06907e-05 -7.937e-06
2.06907e-05 0.00100266 1.18211e-06
-7.937e-06 1.18211e-06 0.000999643
0.000792201 1.43151e-05 4.25331e-06
1.43151e-05 -3.83828e-05 -8.56021e-07
4.25331e-06 -8.56021e-07 -6.77034e-05
0.00273956 2.15993e-05 7.35643e-08
2.15993e-05 0.00093795 1.15641e-07
7.35643e-08 1.15641e-07 0.000937754
0.00106011 1.97215e-05 6.99467e-06
1.97215e-05 0.000112688 -1.42564e-06
6.99467e-06 -1.42564e-06 0.000106733
0.00123147 -1.06762e-05 -4.74976e-07
-1.06762e-05 0.000110057 1.10163e-07
-4.74976e-07 1.10163e-07 4.94602e-05
0.00126643 -1.24234e-05 2.43582e-07
-1.24234e-05 0.00012762 1.79074e-07
2.43582e-07 1.79074e-07 6.20049e-05
0.00111819 -8.61746e-06 -4.94507e-07
-8.61746e-06 3.68973e-05 3.36031e-07
-4.94507e-07 3.36031e-07 -2.03684e-05
0.00116283 -9.94111e-06 9.07235e-08
-9.94111e-06 4.24947e-05 -3.36452e-07
9.07235e-08 -3.36452e-07 -1.49119e-05
0.0010297 -1.10464e-05 -1.54001e-07
-1.10464e-05 -1.37845e-05 9.3013e-07
-1.54001e-07 9.3013e-07 -7.39276e-05
0.00099657 -5.71772e-06 -2.06692e-06
-5.71772e-06 -9.97348e-06 3.60786e-07
-2.06692e-06 3.60786e-07 -6.14888e-05
0.00115705 -4.5175e-06 4.56878e-08
-4.5175e-06 3.02544e-05 1.90587e-07
4.56878e-08 1.90587e-07 -2.87578e-05
0.00111743 -8.04973e-06 -1.41736e-08
-8.04973e-06 -2.8408e-06 -1.36516e-06
-1.41736e-08 -1.36516e-06 -6.07306e-05
0.000831776 -1.37053e-05 -4.49911e-06
-1.37053e-05 -4.10384e-05 -1.15885e-06
-4.49911e-06 -1.15885e-06 -6.70086e-05
0.000919002 -1.79076e-06 -4.47751e-07
-1.79076e-06 -5.12245e-05 -1.57045e-07
-4.47751e-07 -1.57045e-07 -0.000102836
0.0013794 3.79997e-06 6.39111e-07
3.79997e-06 0.000133464 2.25547e-07
6.39111e-07 2.25547e-07 7.33402e-05
0.00271106 -2.17559e-05 -7.43478e-06
-2.17559e-05 0.000889944 -1.97476e-06
-7.43478e-06 -1.97476e-06 0.000895297
0.000816087 -1.3717e-05 -1.65881e-07
-1.3717e-05 -5.1073e-05 -3.86327e-09
-1.65881e-07 -3.86327e-09 -7.20568e-05
0.00080592 -1.47612e-06 1.60932e-06
-1.47612e-06 -9.7253e-05 5.90925e-07
1.60932e-06 5.90925e-07 -0.000146363
0.00262324 -2.16181e-05 -6.93757e-08
-2.16181e-05 0.00083689 8.79616e-08
-6.93757e-08 8.79616e-08 0.000845337
0.000776913 -1.3965e-05 3.78119e-06
-1.3965e-05 -7.05796e-05 1.49953e-06
3.78119e-06 1.49953e-06 -8.66546e-05
0.0025445 -2.11006e-05 5.54634e-06
-2.11006e-05 0.000788862 2.06778e-06
5.54634e-06 2.06778e-06 0.000800017
0.00111575 -8.01926e-06 -5.25661e-07
-8.01926e-06 9.27886e-05 5.21902e-07
-5.25661e-07 5.21902e-07 3.50578e-05
0.00103267 -8.53208e-06 1.15673e-08
-8.53208e-06 4.84828e-05 -3.08812e-07
1.15673e-08 -3.08812e-07 -1.28587e-05
0.00108511 -1.06798e-05 -2.74539e-07
-1.06798e-05 7.1741e-05 -1.94723e-06
-2.74539e-07 -1.94723e-06 6.79248e-06
0.00081292 6.36323e-07 -1.33275e-06
6.36323e-07 -1.50232e-05 -8.9777e-09
-1.33275e-06 -8.9777e-09 -6.738e-05
0.00101823 8.99842e-07 1.23008e-07
8.99842e-07 6.39942e-05 -1.71526e-08
1.23008e-07 -1.71526e-08 8.63144e-06
0.00109926 8.39243e-07 -1.01374e-07
8.39243e-07 8.91602e-05 -1.48322e-07
-1.01374e-07 -1.48322e-07 3.15802e-05
0.00107223 9.03466e-06 3.34794e-07
9.03466e-06 6.79192e-05 5.08323e-07
3.34794e-07 5.08323e-07 1.23336e-05
0.000836334 7.7179e-06 -3.01603e-07
7.7179e-06 -2.06113e-05 -1.54834e-07
-3.01603e-07 -1.54834e-07 -7.37202e-05
0.000701454 7.69468e-06 -4.22798e-06
7.69468e-06 -2.33607e-05 -7.18635e-08
-4.22798e-06 -7.18635e-08 -6.05077e-05
0.00101221 8.78387e-06 1.25154e-06
8.78387e-06 3.54809e-05 3.97024e-07
1.25154e-06 3.97024e-07 -1.86163e-05
0.000708278 1.09262e-05 -1.84155e-08
1.09262e-05 -4.18078e-05 1.8758e-07
-1.84155e-08 1.8758e-07 -7.81112e-05
0.00274349 1.80892e-05 -8.33276e-06
1.80892e-05 0.000976218 8.06414e-07
-8.33276e-06 8.06414e-07 0.000970625
0.000742396 1.31147e-05 4.39524e-06
1.31147e-05 -4.67207e-05 -4.36341e-07
4.39524e-06 -4.36341e-07 -8.04422e-05
0.00273671 1.97398e-05 8.72195e-08
1.97398e-05 0.000956698 1.43168e-07
8.72195e-08 1.43168e-07 0.000953322
0.00263856 2.08521e-05 7.94651e-06
2.08521e-05 0.000893635 -1.36036e-06
7.94651e-06 -1.36036e-06 0.000893038
0.00114726 -9.08872e-06 -5.89888e-07
-9.08872e-06 8.04254e-05 4.9402e-07
-5.89888e-07 4.9402e-07 2.23553e-05
0.00121941 -1.08635e-05 6.55422e-08
-1.08635e-05 0.000104001 2.25228e-07
6.55422e-08 2.25228e-07 4.27515e-05
0.00113997 -1.19436e-05 1.63001e-07
-1.19436e-05 6.80739e-05 1.0757e-06
1.63001e-07 1.0757e-06 1.30326e-06
0.000984493 -8.38138e-06 -1.75523e-06
-8.38138e-06 4.90254e-06 2.85548e-07
-1.75523e-06 2.85548e-07 -4.65956e-05
0.00111886 -8.55142e-06 1.26654e-07
-8.55142e-06 3.7461e-05 -2.00338e-07
1.26654e-07 -2.00338e-07 -1.98031e-05
0.00113726 -9.93726e-06 -3.04459e-07
-9.93726e-06 3.16365e-05 -6.92564e-07
-3.04459e-07 -6.92564e-07 -2.55775e-05
0.000771152 -1.36318e-05 -4.71929e-06
-1.36318e-05 -5.77888e-05 -5.23346e-07
-4.71929e-06 -5.23346e-07 -8.7599e-05
0.0010247 -5.60845e-06 1.2371e-08
-5.60845e-06 2.37991e-06 2.75483e-07
1.2371e-08 2.75483e-07 -4.92734e-05
0.00119595 -4.3123e-06 8.10657e-07
-4.3123e-06 4.73433e-05 -4.59161e-07
8.10657e-07 -4.59161e-07 -1.17923e-05
0.0028137 -2.16255e-05 -8.16673e-06
-2.16255e-05 0.000952287 -1.76734e-06
-8.16673e-06 -1.76734e-06 0.000954544
0.000795879 -1.35654e-05 -1.91959e-07
-1.35654e-05 -5.66288e-05 7.76702e-08
-1.91959e-07 7.76702e-08 -8.25659e-05
0.00102347 -1.28325e-06 1.67034e-06
-1.28325e-06 -1.96628e-06 4.79034e-07
1.67034e-06 4.79034e-07 -5.3238e-05
0.0027744 -2.2036e-05 -6.86771e-08
-2.2036e-05 0.000918873 9.86067e-08
-6.86771e-08 9.86067e-08 0.000924479
0.000762795 -1.3681e-05 4.16202e-06
-1.3681e-05 -7.49207e-05 1.4982e-06
4.16202e-06 1.4982e-06 -9.57698e-05
0.00267539 -2.17935e-05 6.00323e-06
-2.17935e-05 0.000860939 1.99248e-06
6.00323e-06 1.99248e-06 0.000869581
0.000954465 -7.21794e-06 -1.38398e-06
-7.21794e-06 4.18398e-05 2.76515e-07
-1.38398e-06 2.76515e-07 -1.02322e-05
0.00103074 -7.76751e-06 5.26016e-08
-7.76751e-06 5.39214e-05 1.92823e-07
5.26016e-08 1.92823e-07 -3.95058e-06
0.00110883 -8.83528e-06 7.45144e-07
-8.83528e-06 8.09254e-05 -1.38826e-06
7.45144e-07 -1.38826e-06 1.96878e-05
0.000673377 -2.03515e-07 -4.01035e-06
-2.03515e-07 -2.50032e-05 -1.24613e-08
-4.01035e-06 -1.24613e-08 -6.18498e-05
0.000807952 6.15198e-07 -1.87369e-07
6.15198e-07 -1.77464e-05 -8.91756e-08
-1.87369e-07 -8.91756e-08 -7.01536e-05
0.001014 7.87258e-07 2.2092e-07
7.87258e-07 6.12332e-05 8.73845e-08
2.2092e-07 8.73845e-08 6.08725e-06
0.000858991 7.92556e-06 1.05832e-06
7.92556e-06 -1.24539e-05 2.95325e-07
1.05832e-06 2.95325e-07 -6.5846e-05
0.000680936 8.17517e-06 -7.60353e-08
8.17517e-06 -3.28848e-05 2.13494e-08
-7.60353e-08 2.13494e-08 -6.98923e-05
0.00252141 1.44312e-05 -8.15544e-06
1.44312e-05 0.000891085 4.00027e-07
-8.15544e-06 4.00027e-07 0.000883925
0.000691351 1.13441e-05 4.35697e-06
1.13441e-05 -5.00494e-05 5.91091e-08
4.35697e-06 5.91091e-08 -8.61771e-05
0.0026214 1.6946e-05 1.11825e-07
1.6946e-05 0.000923309 1.42713e-07
1.11825e-07 1.42713e-07 0.000917517
0.00263157 1.87992e-05 8.29725e-06
1.87992e-05 0.00091106 -9.86578e-07
8.29725e-06 -9.86578e-07 0.000907327
0.000960922 -8.28533e-06 -1.6049e-06
-8.28533e-06 2.2757e-05 4.50025e-07
-1.6049e-06 4.50025e-07 -2.91595e-05
0.00110053 -9.01702e-06 -1.78269e-08
-9.01702e-06 6.00028e-05 1.02543e-07
-1.78269e-08 1.02543e-07 1.86211e-06
0.0012086 -1.10523e-05 2.76565e-07
-1.10523e-05 9.86287e-05 1.19766e-07
2.76565e-07 1.19766e-07 3.67151e-05
0.00147583 -1.41801e-05 -5.32507e-06
-1.41801e-05 0.000305233 -3.13242e-07
-5.32507e-06 -3.13242e-07 0.000278407
0.000997622 -8.35522e-06 1.2561e-07
-8.35522e-06 1.07657e-05 -5.60945e-08
1.2561e-07 -5.60945e-08 -4.08168e-05
0.00111989 -8.49412e-06 5.13068e-07
-8.49412e-06 3.81721e-05 -7.82543e-07
5.13068e-07 -7.82543e-07 -1.90887e-05
0.0027736 -2.07772e-05 -8.40362e-06
-2.07772e-05 0.000953385 -1.34358e-06
-8.40362e-06 -1.34358e-06 0.000952711
0.000770255 -1.3408e-05 -1.29702e-07
-1.3408e-05 -5.74972e-05 2.31833e-07
-1.29702e-07 2.31833e-07 -8.74321e-05
0.00105267 -5.5127e-06 2.09799e-06
-5.5127e-06 1.46519e-05 2.07484e-07
2.09799e-06 2.07484e-07 -3.71388e-05
0.00289723 -2.2059e-05 -8.03076e-08
-2.2059e-05 0.000989775 1.22442e-07
-8.03076e-08 1.22442e-07 0.000992336
0.000760581 -1.34344e-05 4.48625e-06
-1.34344e-05 -7.19281e-05 1.43505e-06
4.48625e-06 1.43505e-06 -9.78338e-05
0.00283736 -2.23044e-05 6.67524e-06
-2.23044e-05 0.00094762 1.91499e-06
6.67524e-06 1.91499e-06 0.000953482
0.000631724 -7.53979e-06 -5.79981e-06
-7.53979e-06 -4.88313e-05 -1.59071e-07
-5.79981e-06 -1.59071e-07 -8.47016e-05
0.00090016 -6.94881e-06 1.05326e-07
-6.94881e-06 1.59568e-05 -2.46237e-08
1.05326e-07 -2.46237e-08 -3.64712e-05
0.000947785 -7.51843e-06 5.83641e-07
-7.51843e-06 1.60291e-05 -5.6615e-07
5.83641e-07 -5.6615e-07 -4.19871e-05
0.00233629 7.22997e-07 -7.48259e-06
7.22997e-07 0.000814918 8.02687e-08
-7.48259e-06 8.02687e-08 0.000807229
0.000668036 2.46039e-07 -2.2349e-08
2.46039e-07 -2.7407e-05 6.59762e-08
-2.2349e-08 6.59762e-08 -6.4228e-05
0.000803499 5.83769e-07 9.30571e-07
5.83769e-07 -2.02503e-05 5.07061e-08
9.30571e-07 5.07061e-08 -7.27058e-05
0.000660456 8.65408e-06 4.08963e-06
8.65408e-06 -4.24085e-05 9.82776e-08
4.08963e-06 9.82776e-08 -7.92748e-05
0.00244081 1.33477e-05 1.46963e-07
1.33477e-05 0.000856351 1.04323e-07
1.46963e-07 1.04323e-07 0.000849112
0.00250105 1.5886e-05 8.12349e-06
1.5886e-05 0.000871218 -5.43491e-07
8.12349e-06 -5.43491e-07 0.000865225
0.00131527 -1.18112e-05 -6.96701e-06
-1.18112e-05 0.000258575 -3.67734e-07
-6.96701e-06 -3.67734e-07 0.000229768
0.000962744 -8.21625e-06 3.48407e-08
-8.21625e-06 2.35849e-05 1.18495e-07
3.48407e-08 1.18495e-07 -2.83662e-05
0.00105332 -8.94675e-06 3.42913e-07
-8.94675e-06 3.93902e-05 -2.05398e-07
3.42913e-07 -2.05398e-07 -1.88245e-05
0.0027124 -2.05241e-05 -3.56482e-06
-2.05241e-05 0.000944932 -3.84704e-07
-3.56482e-06 -3.84704e-07 0.000941866
0.000773547 -1.29535e-05 1.93143e-08
-1.29535e-05 -3.44708e-05 9.04516e-08
1.93143e-08 9.04516e-08 -6.70851e-05
0.0010107 -8.32845e-06 1.90442e-06
-8.32845e-06 1.66024e-05 -4.01864e-07
1.90442e-06 -4.01864e-07 -3.5064e-05
0.0029055 -2.13965e-05 -9.8237e-08
-2.13965e-05 0.0010116 1.55991e-07
-9.8237e-08 1.55991e-07 0.00101118
0.000769973 -1.31816e-05 4.76079e-06
-1.31816e-05 -5.69177e-05 1.0621e-06
4.76079e-06 1.0621e-06 -8.69795e-05
0.00298095 -2.24961e-05 7.42541e-06
-2.24961e-05 0.00102735 1.79382e-06
7.42541e-06 1.79382e-06 0.00103022
0.000966471 -9.10766e-06 -6.38641e-06
-9.10766e-06 0.000154776 -1.4701e-07
-6.38641e-06 -1.4701e-07 0.000136186
0.00102004 -8.531e-06 -1.19195e-06
-8.531e-06 0.000134799 -9.16718e-08
-1.19195e-06 -9.16718e-08 0.000101647
0.000843875 -6.67726e-06 1.45291e-06
-6.67726e-06 -1.08885e-05 -3.89589e-07
1.45291e-06 -3.89589e-07 -6.3666e-05
0.00232941 1.46672e-08 -4.45792e-08
1.46672e-08 0.000812122 1.142e-07
-4.45792e-08 1.142e-07 0.000804454
0.00066307 6.93206e-07 4.02513e-06
6.93206e-07 -2.96544e-05 1.31264e-07
4.02513e-06 1.31264e-07 -6.64478e-05
0.00235761 1.26873e-05 6.85187e-06
1.26873e-05 0.000820526 -2.13147e-07
6.85187e-06 -2.13147e-07 0.000813198
0.00100347 -1.4355e-05 -3.01543e-06
-1.4355e-05 0.000149559 -1.33677e-07
-3.01543e-06 -1.33677e-07 0.000132787
0.00110963 -1.17865e-05 -1.30034e-06
-1.17865e-05 0.00015527 -1.16111e-08
-1.30034e-06 -1.16111e-08 0.000123409
0.000964906 -8.1498e-06 1.57701e-06
-8.1498e-06 2.45665e-05 -2.10482e-07
1.57701e-06 -2.10482e-07 -2.74191e-05
0.00199404 -1.85601e-05 2.58007e-06
-1.85601e-05 0.000598294 4.70783e-07
2.58007e-06 4.70783e-07 0.000589512
0.000752199 -1.22995e-05 4.7467e-06
-1.22995e-05 -4.26023e-05 4.31964e-07
4.7467e-06 4.31964e-07 -7.54526e-05
0.00304006 -2.20791e-05 8.18615e-06
-2.20791e-05 0.00107104 1.55921e-06
8.18615e-06 1.55921e-06 0.00107088
0.00229731 -1.26684e-05 -6.93505e-08
-1.26684e-05 0.000793496 9.78578e-08
-6.93505e-08 9.78578e-08 0.000786418
0.00069272 -7.30814e-06 4.22007e-06
-7.30814e-06 -2.21999e-05 1.4033e-08
4.22007e-06 1.4033e-08 -5.83115e-05
0.00232308 -7.17953e-07 7.37935e-06
-7.17953e-07 0.000809448 1.02408e-07
7.37935e-06 1.02408e-07 0.000801813
0.00176087 -1.50513e-05 2.54313e-06
-1.50513e-05 0.000517054 3.38067e-07
2.54313e-06 3.38067e-07 0.000505691
0.000720539 -1.0359e-05 4.4428e-06
-1.0359e-05 -2.99738e-05 2.44672e-07
4.4428e-06 2.44672e-07 -6.47941e-05
0.00291744 -2.0632e-05 8.57459e-06
-2.0632e-05 0.00103557 1.1732e-06
8.57459e-06 1.1732e-06 0.00103267
0.00243924 -1.43649e-05 8.01324e-06
-1.43649e-05 0.000855217 4.06367e-07
8.01324e-06 4.06367e-07 0.000848333
0.0026755 -1.80376e-05 8.36471e-06
-1.80376e-05 0.000946396 7.88891e-07
8.36471e-06 7.88891e-07 0.000941179
