# vtk DataFile Version 2.0
Wound Healing Simulation
ASCII
DATASET UNSTRUCTURED_GRID
POINTS 3012 float
69.9759 18.75 4
67.2507 60.3285 4
69.976 18.75 2
73.0099 25.446 4
71.1327 20.9142 4
68.6801 16.6661 4
67.8216 19.9261 3.97393
67.2507 60.3286 2
71.1327 54.0858 4
68.6801 58.3339 4
65.6939 62.2254 4
65.3084 58.9989 3.97264
74.6784 42.3946 4
73.7221 47.2057 4
69.9759 18.75 0
73.0099 25.446 2
68.6801 16.6661 2
71.1327 20.9142 2
67.8223 19.93 2
74.6792 32.6053 4
73.7222 27.7943 4
72.1454 23.1494 4
70.6114 26.2216 3.97383
68.882 21.9577 3.97419
67.2507 14.6715 4
66.6329 17.973 3.97276
65.7639 21.0366 3.96264
67.2507 60.3285 0
71.1327 54.0858 2
68.6801 58.3339 2
65.694 62.2255 2
65.3096 58.9944 2
72.1454 51.8506 4
69.9759 56.25 4
68.8325 53.1141 3.97396
64.0165 64.0165 4
66.6067 57.1328 3.97375
63.8816 60.7623 3.97067
63.4895 57.763 3.96271
60.3285 67.2507 4
74.6792 42.3947 2
73.7222 47.2057 2
74.9194 39.9526 4
74.2788 44.8158 4
72.166 42.0857 3.97527
73.0099 49.554 4
71.2466 46.5984 3.97382
73.0099 25.446 0
71.1327 20.9142 0
68.6801 16.6661 0
67.8216 19.9261 0.0260746
74.6792 32.6053 2
73.7222 27.7943 2
67.2508 14.6715 2
72.1455 23.1494 2
70.6108 26.2224 2
66.6342 17.9776 2
68.8823 21.9605 2
65.7616 21.0387 2
74.9197 35.0474 4
74.2794 30.1841 4
72.1828 32.9447 3.97578
71.2758 28.4326 3.97397
69.8123 24.0596 3.97395
68.33 26.9579 3.96402
66.7335 22.9428 3.96312
65.694 12.7746 4
65.3192 16.1063 3.97153
64.6828 19.2076 3.96198
63.757 22.086 3.96423
71.1327 54.0858 0
65.6939 62.2254 0
68.6801 58.3339 0
65.3084 58.9989 0.0273627
72.1455 51.8506 2
69.9759 56.25 2
68.8327 53.1112 2
64.0165 64.0165 2
66.6079 57.1284 2
63.8827 60.7573 2
63.4839 57.7615 2
62.2254 65.694 4
58.8912 65.4123 3.98103
69.7653 50.99 3.97364
67.7796 55.1677 3.97406
66.6129 52.2007 3.96317
62.332 62.4243 3.97551
64.6367 56.0232 3.96302
62.1933 59.3891 3.96379
61.7347 56.6384 3.96065
58.3339 68.6801 4
60.3285 67.2508 2
73.7221 47.2057 0
74.6784 42.3946 0
74.9197 39.9526 2
74.2794 44.8159 2
72.1652 42.0855 2
73.0099 49.554 2
71.2458 46.5977 2
75 37.5 4
72.4034 39.8027 3.97652
71.7801 44.353 3.97474
69.7977 41.7894 3.96617
70.572 48.8143 3.97355
68.8965 46.0117 3.96536
74.6792 32.6053 0
73.7222 27.7943 0
67.2507 14.6715 0
72.1454 23.1494 0
70.6114 26.2216 0.0261693
68.882 21.9577 0.0258128
66.6329 17.973 0.0272357
65.7639 21.0366 0.0373592
74.9197 35.0474 2
74.2794 30.1841 2
72.182 32.9447 2
71.275 28.4329 2
65.694 12.7745 2
65.3206 16.1111 2
69.812 24.0613 2
68.3334 26.9588 2
64.6766 19.2101 2
66.7338 22.9445 2
63.7558 22.0869 2
72.4113 35.2253 3.97663
71.8017 30.6778 3.97507
69.8341 33.2722 3.96632
68.9573 29.0433 3.96483
67.5878 24.92 3.96351
66.0504 27.6735 3.96964
64.0165 10.9835 4
64.6194 23.8776 3.9663
63.8849 14.3319 3.96922
63.4968 17.46 3.9609
62.7818 20.3749 3.96219
61.8551 23.0354 3.96951
60.6803 11.1023 3.97632
57.6046 11.4787 3.96797
72.1454 51.8506 0
69.9759 56.25 0
68.8325 53.1141 0.0260441
64.0165 64.0165 0
63.8816 60.7623 0.0293339
66.6067 57.1328 0.0262484
63.4895 57.763 0.0372929
62.2255 65.694 2
58.8934 65.4076 2
69.7651 50.988 2
67.7804 55.1638 2
66.613 52.1992 2
62.3341 62.4189 2
64.6295 56.021 2
62.1902 59.3892 2
61.7314 56.6383 2
60.6653 63.9728 3.97811
57.0216 66.7333 3.98369
57.5502 63.6678 3.97132
67.4735 50.1693 3.96376
65.6697 54.1649 3.96291
64.3788 51.3382 3.96627
60.7667 60.9156 3.96694
62.7043 55.0231 3.96339
60.5921 58.1161 3.95876
60.1637 55.7106 3.9652
56.25 69.9759 4
58.3339 68.6801 2
60.3285 67.2507 0
58.9176 9.66018 3.97813
62.2254 9.30607 4
73.0099 49.554 0
74.2788 44.8158 0
71.2466 46.5984 0.0261764
72.166 42.0857 0.0247308
74.9194 39.9526 0
75 37.5 2
72.4032 39.8025 2
71.7797 44.3526 2
69.7968 41.7891 2
70.5715 48.8131 2
68.9004 46.0113 2
72.4869 37.5128 3.97617
70.0354 39.6581 3.96681
69.4235 43.9062 3.96605
67.478 41.4862 3.97462
68.2382 48.1015 3.96446
66.5534 45.4105 3.97227
74.9197 35.0474 0
74.2794 30.1841 0
72.1828 32.9447 0.0242201
71.2758 28.4326 0.026027
65.694 12.7746 0
65.3192 16.1063 0.0284706
69.8123 24.0596 0.0260456
68.33 26.9579 0.0359762
66.7335 22.9428 0.0368779
64.6828 19.2076 0.0380207
63.757 22.086 0.0357714
72.4111 35.2251 2
71.8013 30.678 2
69.8334 33.2727 2
68.9591 29.044 2
64.0165 10.9835 2
63.8865 14.3373 2
63.4913 17.4617 2
67.5897 24.9213 2
66.0481 27.6746 2
62.7816 20.3753 2
64.6173 23.8788 2
61.8536 23.0362 2
60.6829 11.1074 2
57.6049 11.4715 2
70.0523 35.3949 3.96692
69.4608 31.1538 3.96542
67.5422 33.6067 3.97395
66.6362 29.6542 3.97145
65.3817 25.7431 3.96807
63.8654 28.3286 3.97603
62.3371 12.6592 3.97435
62.6002 24.7246 3.97213
62.1874 15.8035 3.96385
61.7042 18.7416 3.95963
60.9916 21.4398 3.96589
60.0877 23.8586 3.97319
59.238 12.8129 3.96384
55.8672 10.265 3.97299
56.3921 13.1782 3.9678
69.7653 50.99 0.0263599
62.2254 65.694 0
58.8912 65.4123 0.018974
67.7796 55.1677 0.0259399
66.6129 52.2007 0.0368273
62.332 62.4243 0.0244868
62.1933 59.3891 0.0362085
64.6367 56.0232 0.0369755
61.7347 56.6384 0.0393538
60.6676 63.9696 2
57.0246 66.7297 2
57.5509 63.6718 2
67.475 50.1681 2
65.6671 54.163 2
64.3774 51.3375 2
60.7641 60.9168 2
62.7038 55.0232 2
60.5904 58.1172 2
60.1621 55.7104 2
55.0676 67.9305 3.98638
59.2122 62.3333 3.96728
55.7982 64.8926 3.973
56.3145 62.0386 3.97435
65.1632 49.3641 3.96825
63.5627 53.2448 3.96472
62.1475 50.5657 3.97082
59.3011 59.5166 3.95959
60.8646 54.2283 3.96779
59.1309 56.931 3.96082
59.0132 55.0852 3.96828
48.0993 68.5725 3.98218
50.9454 69.9307 3.98857
54.0858 71.1327 4
56.25 69.976 2
58.3339 68.6801 0
57.055 8.33921 3.97972
60.3285 7.74928 4
58.9207 9.66434 2
62.2255 9.30602 2
70.572 48.8143 0.026445
71.7801 44.353 0.0252553
68.8965 46.0117 0.0346396
69.7977 41.7894 0.0338303
72.4034 39.8027 0.0234774
75 37.5 0
72.4861 37.5126 2
70.0352 39.6581 2
69.4233 43.9059 2
67.4754 41.4858 2
68.2404 48.1007 2
66.5507 45.4095 2
70.1235 37.5234 3.96696
67.7227 39.5084 3.97456
67.0863 43.4501 3.97402
65.2749 41.1847 3.97638
65.9008 47.38 3.97034
64.3406 44.7887 3.97631
72.4113 35.2253 0.0233739
71.8017 30.6778 0.0249275
69.8341 33.2722 0.0336769
68.9573 29.0433 0.0351683
64.0165 10.9835 0
63.8849 14.3319 0.030776
63.4968 17.46 0.0391013
67.5878 24.92 0.0364921
66.0504 27.6735 0.0303593
64.6194 23.8776 0.0336978
62.7818 20.3749 0.0378105
61.8551 23.0354 0.0304949
60.6803 11.1023 0.0236786
57.6046 11.4787 0.0320341
70.0521 35.3951 2
69.4603 31.1544 2
67.5399 33.6072 2
66.6347 29.655 2
62.3394 12.6647 2
62.185 15.8046 2
61.7032 18.7418 2
65.3793 25.7444 2
63.8625 28.3299 2
60.9913 21.4399 2
62.5982 24.7256 2
60.0865 23.8597 2
59.2375 12.8131 2
56.3928 13.1752 2
55.869 10.2658 2
67.7612 35.5566 3.97421
67.1464 31.6456 3.9733
65.4335 33.9571 3.9764
64.3762 30.2553 3.97599
63.2695 26.495 3.97453
61.854 28.8834 3.97576
60.7665 14.2494 3.96464
60.6789 25.4652 3.97495
60.5432 17.1811 3.95802
60.003 19.9216 3.96202
59.3343 22.3971 3.96876
58.5601 24.4866 3.97422
54.0323 9.15509 3.9709
57.8905 14.3861 3.96154
54.774 12.0752 3.96936
55.2843 14.7297 3.96083
67.4735 50.1693 0.0362373
57.0216 66.7333 0.0163138
60.6653 63.9728 0.0218896
57.5502 63.6678 0.0286797
65.6697 54.1649 0.037089
64.3788 51.3382 0.0337257
60.7667 60.9156 0.0330645
60.5921 58.1161 0.0412403
62.7043 55.0231 0.036612
60.1637 55.7106 0.0348036
55.0707 67.928 2
59.2115 62.337 2
55.7996 64.8921 2
56.3127 62.0385 2
65.1611 49.3632 2
63.5623 53.2446 2
62.1464 50.5651 2
59.3076 59.5222 2
60.8653 54.2284 2
59.1382 56.9331 2
59.0192 55.0864 2
53.0396 68.9989 3.98745
53.9625 66.0023 3.97539
57.8626 60.827 3.96678
54.6687 63.1591 3.96963
55.189 60.5582 3.97516
62.8836 48.5804 3.97324
61.485 52.4898 3.96925
59.8545 49.8947 3.97302
57.9155 58.1931 3.95976
59.0438 53.8387 3.97024
57.8607 55.698 3.96308
50.1055 67.8491 3.98041
47.4594 66.5668 3.97632
46.0534 69.1521 3.9841
48.1008 68.5718 2
48.7995 70.7224 3.98953
50.948 69.9297 2
51.8506 72.1454 4
54.0858 71.1327 2
56.25 69.9759 0
55.0997 7.14332 3.98383
58.3339 6.31992 4
57.0582 8.34371 2
60.3286 7.74926 2
58.9176 9.66018 0.0218746
62.2254 9.30607 0
68.2382 48.1015 0.0355356
69.4235 43.9062 0.0339532
66.5534 45.4105 0.0277272
67.478 41.4862 0.0253795
70.0354 39.6581 0.0331949
72.4869 37.5128 0.0238265
70.1228 37.5235 2
67.7197 39.5083 2
67.0849 43.4494 2
65.2723 41.1844 2
65.8986 47.379 2
64.3384 44.7877 2
67.8232 37.5247 3.97439
65.5161 39.3599 3.97651
64.8835 42.9815 3.97617
63.3562 40.8937 3.97664
63.6462 46.6449 3.97528
62.3669 44.136 3.97599
70.0523 35.3949 0.0330826
69.4608 31.1538 0.0345806
67.5422 33.6067 0.0260525
66.6362 29.6542 0.0285511
62.3371 12.6592 0.0256458
62.1874 15.8035 0.0361499
61.7042 18.7416 0.0403658
65.3817 25.7431 0.0319324
63.8654 28.3286 0.0239746
62.6002 24.7246 0.0278654
60.9916 21.4398 0.0341115
60.0877 23.8586 0.0268143
59.238 12.8129 0.036161
56.3921 13.1782 0.0321981
55.8672 10.265 0.027007
67.7586 35.557 2
67.1449 31.6462 2
65.4297 33.9576 2
64.3739 30.2563 2
60.7653 14.2501 2
60.535 17.1825 2
60.0008 19.9218 2
63.2673 26.4962 2
61.8522 28.8838 2
59.3367 22.3975 2
60.6775 25.4666 2
58.557 24.4889 2
57.89 14.3861 2
55.2851 14.7263 2
54.0351 9.15267 2
54.7732 12.075 2
65.6147 35.6838 3.97638
64.9031 32.1995 3.97584
63.93 34.2861 3.97629
62.1726 30.7187 3.97578
61.2634 27.1913 3.97541
60.3603 29.2654 3.9759
59.2711 15.7212 3.95802
58.8704 25.965 3.97564
58.9609 18.455 3.95933
58.4333 20.9986 3.96362
57.883 23.2651 3.97016
57.5107 24.854 3.97564
52.1089 8.16487 3.97404
53.0451 11.072 3.9677
56.6284 15.8237 3.9576
53.7897 13.761 3.97343
54.3153 16.1022 3.95939
55.0676 67.9305 0.0136234
65.1632 49.3641 0.0317523
55.7982 64.8926 0.0269973
59.2122 62.3333 0.032723
56.3145 62.0386 0.0256512
63.5627 53.2448 0.0352824
62.1475 50.5657 0.0291781
59.3011 59.5166 0.0404055
59.1309 56.931 0.0391786
60.8646 54.2283 0.0322089
59.0132 55.0852 0.0317224
53.0425 68.9971 2
53.9641 66.001 2
57.863 60.829 2
54.6682 63.1605 2
55.1865 60.5577 2
62.882 48.5796 2
61.4852 52.4896 2
59.8558 49.8943 2
57.9168 58.1951 2
59.0488 53.8394 2
57.8572 55.6966 2
52.0664 66.9906 3.97855
52.9433 64.1899 3.97404
56.6046 59.4324 3.96149
53.6536 61.5541 3.97298
54.2137 59.2559 3.96813
60.5279 47.7583 3.97422
59.3486 51.9849 3.97111
57.5062 49.4551 3.97431
56.614 56.8914 3.96189
56.7586 53.9804 3.96645
50.1072 67.849 2
49.332 65.9049 3.97569
47.4604 66.5657 2
46.8864 64.7098 3.97639
45.556 67.0852 3.97921
43.9713 69.5845 3.98516
46.0551 69.1527 2
46.6062 71.3666 3.99044
48.0993 68.5725 0.0178225
48.8017 70.7215 2
49.554 73.0099 4
50.9454 69.9307 0.0114325
51.8506 72.1455 2
54.0858 71.1327 0
53.0623 6.0741 3.98774
55.1033 7.14543 2
56.25 5.02411 4
58.3339 6.3199 2
57.055 8.33921 0.0202796
60.3285 7.74928 0
65.9008 47.38 0.0296622
67.0863 43.4501 0.0259796
64.3406 44.7887 0.0236863
65.2749 41.1847 0.0236217
67.7227 39.5084 0.0254373
70.1235 37.5234 0.0330419
67.8205 37.5249 2
65.513 39.3597 2
64.8803 42.9808 2
63.3562 40.8932 2
63.6443 46.644 2
62.3661 44.1359 2
65.6253 37.5055 3.97643
63.5075 39.2518 3.97661
62.9072 42.4981 3.97614
61.9397 40.6553 3.97656
61.5094 45.8133 3.97569
60.9068 43.5943 3.97586
67.7612 35.5566 0.0257935
67.1464 31.6456 0.0267039
65.4335 33.9571 0.0236022
64.3762 30.2553 0.0240095
60.7665 14.2494 0.0353582
60.5432 17.1811 0.0419777
60.003 19.9216 0.0379827
63.2695 26.495 0.0254747
61.854 28.8834 0.0242381
60.6789 25.4652 0.0250482
59.3343 22.3971 0.0312434
58.5601 24.4866 0.025783
57.8905 14.3861 0.0384617
55.2843 14.7297 0.0391697
54.0323 9.15509 0.0291029
54.774 12.0752 0.0306404
65.6114 35.6839 2
64.8999 32.2001 2
63.9291 34.2863 2
62.1718 30.7187 2
59.273 15.7187 2
58.9677 18.4525 2
58.433 20.9997 2
61.2615 27.1922 2
60.3602 29.2658 2
57.873 23.2692 2
58.8691 25.9656 2
57.5119 24.8559 2
56.6182 15.8253 2
54.3176 16.0967 2
53.7859 13.7553 2
52.1111 8.16554 2
53.0468 11.0677 2
63.7181 35.6548 3.97637
62.4973 33.1058 3.97609
60.072 30.7291 3.97567
59.05 28.0662 3.97567
57.8377 17.0736 3.95754
57.2123 25.9314 3.97566
57.4622 19.6163 3.95896
56.9751 22.0243 3.96427
56.7056 24.1525 3.97177
50.1095 7.29401 3.98027
51.2231 10.1552 3.97125
52.1494 12.8814 3.96455
55.4417 17.0809 3.95671
52.9351 15.3632 3.96011
53.667 17.1031 3.95908
53.0396 68.9989 0.0125507
53.9625 66.0023 0.0246067
62.8836 48.5804 0.0267607
54.6687 63.1591 0.0303693
57.8626 60.827 0.0332188
55.189 60.5582 0.0248414
61.485 52.4898 0.0307538
59.8545 49.8947 0.0269784
57.9155 58.1931 0.040236
57.8607 55.698 0.0369183
59.0438 53.8387 0.0297634
52.0681 66.9899 2
52.9433 64.1933 2
56.6034 59.433 2
53.652 61.5548 2
54.2085 59.2576 2
60.5276 47.7576 2
59.3507 51.9848 2
57.5069 49.4547 2
56.6098 56.8946 2
56.7557 53.9793 2
51.1618 65.1113 3.97607
52.0248 62.4915 3.97084
55.386 58.1737 3.96077
52.7869 60.0501 3.96876
53.5671 58.3937 3.96326
57.67 46.6737 3.97581
57.1162 51.6327 3.9712
55.6423 49.3616 3.97334
55.2504 55.6733 3.96204
54.9376 53.2214 3.9622
50.1055 67.8491 0.0195896
49.3328 65.9051 2
48.6093 64.0992 3.97819
47.4594 66.5668 0.0236814
45.5566 67.0873 2
46.8864 64.71 2
46.3715 63.0182 3.98176
45.1286 65.1773 3.97814
43.6301 67.4581 3.98091
41.8591 69.8714 3.98487
43.9723 69.5848 2
44.3738 71.8613 3.99082
46.0534 69.1521 0.0159011
46.608 71.3665 2
47.2057 73.7222 4
48.7995 70.7224 0.0104742
49.554 73.0099 2
51.8506 72.1454 0
50.9535 5.13431 3.98984
53.0651 6.07514 2
54.0858 3.86728 4
55.0997 7.14332 0.0161745
56.25 5.02406 2
58.3339 6.31992 0
63.6462 46.6449 0.0247172
64.8835 42.9815 0.02383
62.3669 44.136 0.0240071
63.3562 40.8937 0.0233624
65.5161 39.3599 0.0234948
67.8232 37.5247 0.0256081
65.622 37.5054 2
63.5076 39.2517 2
62.9074 42.4976 2
61.9414 40.6551 2
61.5086 45.8128 2
60.9073 43.5945 2
63.572 37.4605 3.9765
61.6456 39.331 3.97682
60.6505 41.8864 3.97669
59.6525 44.6421 3.97581
65.6147 35.6838 0.023622
64.9031 32.1995 0.024164
63.93 34.2861 0.0237127
62.1726 30.7187 0.024224
59.2711 15.7212 0.0419802
58.9609 18.455 0.0406722
58.4333 20.9986 0.0363759
61.2634 27.1913 0.0245918
60.3603 29.2654 0.024096
58.8704 25.965 0.0243646
57.883 23.2651 0.0298429
57.5107 24.854 0.0243631
56.6284 15.8237 0.0423955
54.3153 16.1022 0.0406103
53.7897 13.761 0.0265678
52.1089 8.16487 0.0259564
53.0451 11.072 0.0322978
63.7181 35.6549 2
62.4981 33.1061 2
60.0728 30.729 2
57.8433 17.0711 2
57.4759 19.613 2
56.9718 22.0273 2
59.0497 28.0663 2
56.7132 24.1541 2
57.2153 25.9329 2
50.112 7.29146 2
55.4422 17.0838 2
53.6742 17.0967 2
52.9285 15.3602 2
52.1507 12.8836 2
51.225 10.1517 2
61.6892 35.3916 3.97655
59.6853 32.8336 3.976
57.9721 30.2294 3.97554
56.6818 27.5881 3.97602
56.4784 18.2792 3.95873
55.7322 25.3366 3.97505
56.0445 20.6965 3.95984
55.6424 23.0876 3.96463
48.0554 6.53343 3.98501
49.3189 9.35034 3.97519
50.4154 12.0561 3.9696
51.3323 14.5966 3.96266
54.2793 18.0601 3.95996
52.286 17.1751 3.95613
52.0664 66.9906 0.0214477
52.9433 64.1899 0.0259569
60.5279 47.7583 0.0257787
53.6536 61.5541 0.0270214
56.6046 59.4324 0.038513
54.2137 59.2559 0.0318746
59.3486 51.9849 0.0288862
57.5062 49.4551 0.025686
56.614 56.8914 0.0381061
56.7586 53.9804 0.0335464
51.1619 65.1103 2
52.0241 62.4931 2
55.3827 58.174 2
52.7851 60.0523 2
53.5637 58.3962 2
57.6701 46.673 2
57.1139 51.6318 2
55.6395 49.3606 2
55.2477 55.6734 2
54.9366 53.2214 2
50.3327 63.3571 3.97601
51.2021 60.8621 3.9733
54.0904 57.1759 3.96589
52.2053 58.5398 3.96471
55.8755 44.006 3.9761
54.7786 47.6802 3.97535
54.5072 51.1964 3.96547
53.7082 54.4038 3.96434
49.332 65.9049 0.0243121
48.6084 64.0986 2
47.9446 62.4459 3.9837
45.556 67.0852 0.0207898
46.8864 64.7098 0.0236094
43.6303 67.4585 2
46.3711 63.0207 2
45.1296 65.1743 2
45.9695 61.5463 3.99119
44.7605 63.4183 3.9766
43.3559 65.4897 3.97834
41.6627 67.6764 3.98036
39.7015 70.0176 3.98422
41.86 69.872 2
42.1086 72.2054 3.99119
43.9713 69.5845 0.0148422
44.3752 71.861 2
44.8159 74.2794 4
46.6062 71.3666 0.0095568
47.2057 73.7222 2
49.554 73.0099 0
48.785 4.32457 3.99068
50.9555 5.13399 2
51.8506 2.85458 4
53.0623 6.0741 0.0122575
54.0858 3.86728 2
56.25 5.02411 0
61.5094 45.8133 0.0243063
62.9072 42.4981 0.0238555
60.9068 43.5943 0.024138
61.9397 40.6553 0.0234416
63.5075 39.2518 0.0233901
65.6253 37.5055 0.0235731
63.572 37.4606 2
61.6471 39.331 2
60.6527 41.8865 2
59.6534 44.6422 2
61.4727 37.4472 3.97689
59.5936 39.8033 3.97675
58.2641 42.8072 3.97588
63.7181 35.6548 0.023633
62.4973 33.1058 0.023915
60.072 30.7291 0.0243263
57.8377 17.0736 0.0424582
57.4622 19.6163 0.0410365
56.9751 22.0243 0.0357292
59.05 28.0662 0.0243334
57.2123 25.9314 0.0243376
56.7056 24.1525 0.0282283
55.4417 17.0809 0.0432932
53.667 17.1031 0.0409202
52.9351 15.3632 0.0398885
50.1095 7.29401 0.019732
52.1494 12.8814 0.0354452
51.2231 10.1552 0.0287505
61.6908 35.3918 2
59.6859 32.8327 2
57.9732 30.2287 2
56.4795 18.2789 2
56.0687 20.6908 2
55.651 23.0907 2
56.6831 27.5899 2
55.7414 25.3415 2
48.0564 6.53303 2
49.3204 9.34871 2
54.2901 18.0623 2
52.2761 17.1732 2
51.3301 14.5981 2
50.4175 12.0558 2
59.2258 35.1643 3.97652
57.2337 32.3918 3.97547
55.8164 29.5408 3.9757
54.7756 26.8685 3.97518
55.1444 19.3411 3.96211
54.4195 24.3044 3.97272
54.629 21.7714 3.96072
45.9622 5.88715 3.98704
43.3742 7.48191 3.9825
47.3527 8.63592 3.97946
48.5875 11.3318 3.97181
49.6756 13.8122 3.96756
50.563 16.2521 3.96034
52.9747 18.8365 3.96524
51.204 18.2471 3.95842
51.1618 65.1113 0.0239293
52.0248 62.4915 0.029156
57.67 46.6737 0.0241882
52.7869 60.0501 0.0312429
55.386 58.1737 0.0392295
53.5671 58.3937 0.0367353
57.1162 51.6327 0.0287979
55.6423 49.3616 0.0266627
55.2504 55.6733 0.0379562
54.9376 53.2214 0.0377996
50.3318 63.3565 2
51.2007 60.8617 2
54.0886 57.1771 2
52.1993 58.5414 2
55.8773 44.0072 2
54.7774 47.6792 2
54.5033 51.1953 2
53.7032 54.4047 2
49.5635 61.7154 3.97445
54.5885 41.6087 3.97385
50.4869 59.2476 3.96665
51.9891 56.3778 3.9633
53.2664 45.3106 3.97414
52.6231 49.1012 3.96977
52.2178 52.6777 3.95932
48.6093 64.0992 0.021812
47.9443 62.4434 2
47.3004 60.9751 3.99372
43.6301 67.4581 0.0190922
45.1286 65.1773 0.0218586
46.3715 63.0182 0.018238
41.6635 67.6758 2
43.3579 65.4902 2
45.9697 61.5491 2
44.7605 63.4165 2
45.7354 60.592 3.99262
44.4713 61.791 3.97861
43.1429 63.6959 3.9783
41.5464 65.6279 3.97537
39.6325 67.7538 3.97937
37.526 70.0419 3.98365
39.7022 70.0178 2
39.8161 72.4022 3.99135
41.8591 69.8714 0.0151346
42.1096 72.2057 2
42.3947 74.6792 4
44.3738 71.8613 0.00918466
44.8159 74.2794 2
47.2057 73.7222 0
43.8516 5.36346 3.98648
46.5713 3.64904 3.99131
48.7859 4.32462 2
49.554 1.99015 4
50.9535 5.13431 0.0101627
51.8506 2.85453 2
54.0858 3.86728 0
59.6525 44.6421 0.0241943
60.6505 41.8864 0.0233065
61.6456 39.331 0.0231796
63.572 37.4605 0.0234987
61.4737 37.4472 2
59.5961 39.8026 2
58.266 42.808 2
59.0819 37.5667 3.97738
57.1819 40.5806 3.97733
53.9873 39.6302 3.97545
61.6892 35.3916 0.0234519
59.6853 32.8336 0.0240046
57.9721 30.2294 0.0244625
56.4784 18.2792 0.0412682
56.0445 20.6965 0.040165
55.6424 23.0876 0.0353681
56.6818 27.5881 0.0239795
55.7322 25.3366 0.0249543
54.2793 18.0601 0.0400373
52.286 17.1751 0.0438691
51.3323 14.5966 0.0373378
48.0554 6.53343 0.0149856
49.3189 9.35034 0.0248123
50.4154 12.0561 0.0303983
59.2275 35.1639 2
45.9628 5.88608 2
43.3745 7.47976 2
57.2339 32.3919 2
55.8155 29.5398 2
55.1333 19.3463 2
54.6674 21.77 2
54.421 24.3119 2
54.7772 26.8681 2
47.3537 8.63398 2
48.5895 11.3286 2
52.9763 18.8032 2
51.2028 18.2392 2
50.5653 16.2539 2
49.6749 13.8167 2
56.5468 34.8273 3.97703
54.8602 31.6889 3.97536
53.7239 28.6556 3.97671
53.1547 25.7857 3.97429
53.7326 20.3207 3.96284
53.1625 22.9624 3.96131
41.4003 7.0852 3.98301
45.3595 8.00156 3.98654
42.8665 9.43029 3.97375
46.6609 10.675 3.97746
47.7144 13.1451 3.97158
48.8725 15.4856 3.96707
49.9063 17.8163 3.95693
51.4909 19.5344 3.98136
50.3327 63.3571 0.023988
51.2021 60.8621 0.0266997
55.8755 44.006 0.0238958
54.7786 47.6802 0.0246454
52.2053 58.5398 0.0352883
54.0904 57.1759 0.0341142
54.5072 51.1964 0.0345269
53.7082 54.4038 0.0356589
49.5628 61.7137 2
54.584 41.6052 2
50.4834 59.2507 2
51.9944 56.3821 2
53.2612 45.308 2
52.6202 49.0991 2
52.2209 52.678 2
48.795 60.1647 3.98437
51.314 42.4779 3.98339
49.6558 57.5414 3.96427
50.2848 54.2934 3.96063
50.9352 47.0075 3.97592
50.642 50.7455 3.9541
47.0223 43.4915 3.97069
47.9446 62.4459 0.0163028
47.3007 60.9736 2
46.5741 59.7626 3.99332
41.6627 67.6764 0.0196449
43.3559 65.4897 0.0216596
44.7605 63.4183 0.0233966
45.9695 61.5463 0.00880657
39.6335 67.7544 2
41.5477 65.6255 2
45.7354 60.5948 2
43.1419 63.6942 2
44.4699 61.7921 2
44.5924 60.2463 3.99469
42.9407 62.0469 3.97525
41.5983 63.796 3.97763
39.6472 65.5927 3.97486
37.5637 67.7349 3.97772
31.699 65.111 3.97408
33.3938 67.4735 3.97796
35.3343 69.9528 3.98405
37.526 70.0437 2
37.5091 72.4564 3.99188
39.7015 70.0176 0.015778
39.8169 72.4022 2
39.9526 74.9197 4
42.1086 72.2054 0.00880907
42.3947 74.6792 2
44.8159 74.2794 0
41.7366 4.97139 3.98772
43.852 5.36182 2
44.3269 3.11185 3.99215
46.5719 3.64874 2
47.2057 1.27793 4
48.785 4.32457 0.00932056
49.554 1.99013 2
51.8506 2.85458 0
58.2641 42.8072 0.0241218
59.5936 39.8033 0.0232528
61.4727 37.4472 0.0231063
59.0833 37.5667 2
57.1858 40.5823 2
53.9823 39.639 2
55.8998 37.8729 3.97694
48.3379 41.193 3.96853
51.8945 39.2568 3.98024
39.4439 6.80844 3.98291
59.2258 35.1643 0.0234802
57.2337 32.3918 0.0245297
55.8164 29.5408 0.0243008
55.1444 19.3411 0.0378889
54.629 21.7714 0.0392755
54.4195 24.3044 0.0272762
54.7756 26.8685 0.0248191
52.9747 18.8365 0.0347561
51.204 18.2471 0.0415774
50.563 16.2521 0.0396626
45.9622 5.88715 0.0129626
49.6756 13.8122 0.0324417
47.3527 8.63592 0.0205361
48.5875 11.3318 0.0281877
43.3742 7.48191 0.0174964
56.5491 34.825 2
41.4005 7.08517 2
45.3599 8.00022 2
42.8663 9.42878 2
54.862 31.6887 2
53.7226 28.6588 2
53.7354 20.3311 2
53.1463 22.9687 2
53.1534 25.7848 2
46.6622 10.6701 2
47.7156 13.1417 2
51.5014 19.5301 2
49.9038 17.8206 2
48.8685 15.505 2
53.8076 34.034 3.97491
52.5451 30.7557 3.97505
51.8391 27.5203 3.97488
51.6594 24.4135 3.97674
52.1209 21.2859 3.97916
41.0134 9.05912 3.97657
44.7267 10.0037 3.98632
42.4564 10.9147 4.00719
45.9768 12.749 3.96613
47.6343 14.6651 3.96607
48.0152 17.0676 3.96489
49.7101 19.9312 3.98363
49.5635 61.7154 0.0255545
50.4869 59.2476 0.0333471
54.5885 41.6087 0.0261458
53.2664 45.3106 0.0258626
52.6231 49.1012 0.0302301
51.9891 56.3778 0.0366993
52.2178 52.6777 0.0406751
48.7925 60.1614 2
51.3263 42.4935 2
49.6535 57.5406 2
50.2869 54.2968 2
50.9371 47.0072 2
50.6467 50.7453 2
47.0314 43.5303 2
47.9034 58.673 3.99055
49.0183 45.0394 3.98156
48.3961 55.8195 3.95585
48.7259 52.4388 3.97674
48.9866 48.8162 3.96993
44.7334 39.7471 3.8389
45.2529 42.4237 3.88205
45.5517 45.4766 3.98251
42.5887 40.975 3.6343
41.4334 41.6863 3.43271
47.3004 60.9751 0.00627671
46.5717 59.7625 2
45.4101 58.7569 3.99532
39.6325 67.7538 0.0206336
41.5464 65.6279 0.0246326
43.1429 63.6959 0.0216961
44.4713 61.791 0.0213899
45.7354 60.592 0.00737669
41.5987 63.7925 2
37.5644 67.7372 2
39.6491 65.5933 2
44.5938 60.2479 2
42.9386 62.0477 2
41.7451 62.4535 3.97706
42.4559 59.9416 3.98481
39.8939 63.5287 3.9767
37.6419 65.4889 3.97413
35.4643 67.6449 3.9777
33.577 65.3217 3.97422
31.962 63.2665 3.97747
29.8874 64.6993 3.97898
31.6983 65.1104 2
31.3791 67.1841 3.97827
33.3931 67.4751 2
33.1581 69.7464 3.98404
35.3337 69.9544 2
35.1962 72.3712 3.992
37.526 70.0419 0.0163539
37.5095 72.457 2
37.5 75 4
39.8161 72.4022 0.00864962
39.9526 74.9197 2
42.3947 74.6792 0
39.6248 4.71891 3.98876
41.7366 4.97105 2
42.0635 2.71887 3.99253
43.8516 5.36346 0.013525
44.3271 3.11102 2
44.8158 0.721173 4
46.5713 3.64904 0.00869424
47.2057 1.27779 2
49.554 1.99015 0
57.1819 40.5806 0.0226689
59.0819 37.5667 0.0226189
53.9873 39.6302 0.0245535
48.3613 41.2053 2
55.9044 37.8716 2
51.8886 39.227 2
52.7487 36.6152 3.9772
46.2686 40.2709 3.89012
49.2691 38.4968 3.98083
37.5179 6.67729 3.98496
39.4445 6.80714 2
39.2113 8.70196 3.98086
35.9439 8.49872 3.98271
56.5468 34.8273 0.0229672
54.8602 31.6889 0.0246359
53.7239 28.6556 0.0232928
53.7326 20.3207 0.0371629
53.1625 22.9624 0.0386854
53.1547 25.7857 0.0257057
51.4909 19.5344 0.0186439
49.9063 17.8163 0.0430689
48.8725 15.4856 0.0329347
45.3595 8.00156 0.0134627
47.7144 13.1451 0.0284192
46.6609 10.675 0.0225371
41.4003 7.0852 0.0169911
42.8665 9.43029 0.0262461
53.8037 34.0256 2
41.0142 9.06107 2
44.7255 10.0018 2
42.4577 10.9178 2
52.5356 30.7533 2
51.8518 27.5212 2
52.1221 21.2935 2
51.6408 24.4147 2
45.9785 12.743 2
47.6268 14.6368 2
49.7271 19.9422 2
48.0117 17.0754 2
51.2852 32.9742 3.9811
50.3785 29.4835 3.97647
50.1482 26.0108 3.97028
49.6854 22.5398 3.98448
40.5604 11.6206 3.98512
43.8317 11.9155 3.97184
45.7531 15.5226 3.99095
47.4165 19.5527 3.98199
45.1812 37.4849 3.83974
48.795 60.1647 0.015634
49.6558 57.5414 0.035733
51.314 42.4779 0.0166145
50.9352 47.0075 0.0240829
50.642 50.7455 0.0458987
50.2848 54.2934 0.0393747
47.0223 43.4915 0.0293071
47.899 58.6778 2
49.0332 45.0523 2
48.3923 55.8218 2
48.7279 52.4443 2
48.9917 48.819 2
44.8462 39.7739 2
45.2821 42.4437 2
45.5609 45.4967 2
42.6526 41.0319 2
41.475 41.7116 2
46.719 57.2773 3.98227
43.2823 39.3478 3.62959
41.8166 40.6455 3.42826
47.2352 47.0587 3.98338
46.8992 54.1172 3.95853
47.0881 50.5764 3.97712
44.1364 47.1067 3.98712
43.9064 41.7705 3.83888
44.0566 44.2133 3.87225
41.7034 42.3343 3.68418
40.5015 41.9715 3.38994
46.5741 59.7626 0.00668352
45.4093 58.7557 2
43.8173 57.6305 3.98292
37.5637 67.7349 0.0222843
39.6472 65.5927 0.0251419
41.5983 63.796 0.0223733
42.9407 62.0469 0.0247518
44.5924 60.2463 0.00531242
35.4642 67.6473 2
41.7429 62.4563 2
39.893 63.5294 2
37.6431 65.4917 2
42.4584 59.9406 2
40.6153 61.5941 3.98409
40.4196 58.1139 3.98586
37.8374 63.185 3.97248
35.5732 65.4123 3.9764
33.5767 65.3215 2
31.9645 63.2697 2
33.6303 63.3128 3.97653
30.3825 62.8302 3.98158
32.1331 61.9695 3.988
26.888 61.4398 3.98444
28.0695 64.1286 3.98118
29.8872 64.6991 2
29.4093 66.7473 3.97767
31.699 65.111 0.0259177
31.3785 67.1843 2
31.0161 69.4119 3.98365
33.3938 67.4735 0.0220421
33.1571 69.7477 2
32.8944 72.1456 3.99134
35.3343 69.9528 0.0159501
35.1957 72.372 2
35.0474 74.9194 4
37.5091 72.4564 0.00812157
37.5 75 2
39.9526 74.9197 0
35.6223 6.72904 3.98368
37.5247 4.61783 3.98929
39.6247 4.71766 2
39.7901 2.47542 3.99272
41.7366 4.97139 0.0122795
42.0633 2.71858 2
42.3946 0.32156 4
44.3269 3.11185 0.00784782
44.8159 0.72056 2
47.2057 1.27793 0
48.3379 41.193 0.0314697
55.8998 37.8729 0.0230557
51.8945 39.2568 0.0197569
46.29 40.2784 2
49.2683 38.4857 2
52.7699 36.6392 2
50.0791 35.5511 3.97519
46.9154 37.7416 3.8904
44.763 35.2115 3.83913
42.6398 33.9693 3.63408
41.4721 33.2569 3.43173
37.4593 8.53767 3.98425
37.5184 6.67709 2
39.4439 6.80844 0.0170905
39.2129 8.70032 2
38.9746 10.1385 3.98763
35.8998 9.78175 3.98032
34.154 8.83101 3.98053
35.945 8.49692 2
53.8076 34.034 0.0250866
52.5451 30.7557 0.0249465
51.8391 27.5203 0.0251163
52.1209 21.2859 0.0208363
51.6594 24.4135 0.0232598
49.7101 19.9312 0.0163743
48.0152 17.0676 0.0351143
47.6343 14.6651 0.0339344
44.7267 10.0037 0.013679
45.9768 12.749 0.033871
41.0134 9.05912 0.0234263
42.4564 10.9147 -0.00719097
51.298 32.9641 2
40.5644 11.6261 2
43.8315 11.9079 2
50.3922 29.4855 2
50.1466 26.023 2
49.6675 22.5061 2
45.7382 15.4567 2
47.4242 19.5886 2
48.8784 31.571 3.9841
48.5013 27.7816 3.97499
48.926 24.6471 3.9802
47.0234 22.3299 3.99181
38.298 12.7577 3.97776
42.0761 14.3453 3.9828
44.7348 18.6492 3.97387
43.6906 37.4803 3.6447
45.2827 37.4836 2
47.9034 58.673 0.00945109
48.3961 55.8195 0.0441479
49.0183 45.0394 0.0184416
48.9866 48.8162 0.0300738
48.7259 52.4388 0.0232639
44.7334 39.7471 0.161104
45.2529 42.4237 0.117951
45.5517 45.4766 0.0174947
42.5887 40.975 0.365695
41.4334 41.6863 0.567293
46.7155 57.2829 2
43.3633 39.3727 2
41.8297 40.658 2
47.2429 47.06 2
46.8939 54.1217 2
47.0901 50.5875 2
44.1755 47.1093 2
43.9757 41.8115 2
44.1134 44.2433 2
41.7545 42.4057 2
40.5397 41.9909 2
45.2436 55.8469 4.0011
42.1577 39.1592 3.43873
40.3886 40.5347 3.53236
45.4868 48.7039 4.00172
45.1657 52.372 3.98733
42.9179 48.0941 3.99153
42.7873 45.7327 3.87091
42.8731 43.5331 3.82664
40.6637 43.2923 3.65236
39.1544 42.2328 3.45563
45.4101 58.7569 0.00467758
43.8144 57.6408 2
42.0385 56.2002 3.99099
35.4643 67.6449 0.022299
37.6419 65.4889 0.0258729
39.8939 63.5287 0.0232965
41.7451 62.4535 0.0229432
42.4559 59.9416 0.0151873
35.5742 65.4161 2
40.6147 61.5921 2
37.8378 63.1831 2
40.4192 58.1198 2
38.9006 56.3368 3.99474
38.244 60.2756 3.9835
35.6075 63.1794 3.97198
33.577 65.3217 0.0257761
31.962 63.2665 0.0225328
33.633 63.3151 2
30.3841 62.8335 2
32.1357 61.972 2
28.6901 62.1707 3.98052
33.3517 61.4751 3.98059
31.0856 61.1984 3.99061
27.61 59.5361 3.97694
23.847 59.0056 3.9895
25.0619 60.8051 3.9775
26.8891 61.4419 2
26.2402 63.4588 3.97437
28.0687 64.1266 2
27.4665 66.1683 3.97722
29.8874 64.6993 0.0210156
29.4083 66.7451 2
28.9087 68.9373 3.98245
31.3791 67.1841 0.0217298
31.0148 69.4117 2
30.6175 71.7772 3.99055
33.1581 69.7464 0.0159601
32.8933 72.1461 2
32.6054 74.6784 4
35.1962 72.3712 0.00800433
35.0474 74.9197 2
37.5 75 0
33.7253 6.98536 3.9823
35.4368 4.68788 3.98871
35.6229 6.72814 2
37.5159 2.38783 3.99288
37.5246 4.61728 2
39.6248 4.71891 0.0112368
39.7896 2.47476 2
39.9526 0.0806499 4
42.0635 2.71887 0.00746536
42.3947 0.320817 2
44.8158 0.721173 0
43.307 35.6065 3.63563
41.8445 34.2928 3.41262
46.2686 40.2709 0.109881
49.2691 38.4968 0.019166
52.7487 36.6152 0.022801
46.9129 37.7236 2
50.0928 35.5558 2
44.8558 35.1937 2
42.6899 33.9122 2
41.4999 33.2322 2
47.1408 34.3884 3.93693
43.9629 33.1812 3.83275
41.7595 32.6113 3.68119
40.5297 32.9815 3.38915
37.3112 10.6351 3.98135
37.4608 8.5383 2
37.5179 6.67729 0.0150384
39.2113 8.70196 0.0191447
38.9789 10.1374 2
34.7571 10.3924 3.97854
35.9033 9.7775 2
32.3813 9.37822 3.97625
34.1534 8.82703 2
35.9439 8.49872 0.0172896
51.2852 32.9742 0.0189003
50.3785 29.4835 0.0235286
50.1482 26.0108 0.0297235
49.6854 22.5398 0.0155202
47.4165 19.5527 0.0180132
45.7531 15.5226 0.00904757
43.8317 11.9155 0.0281637
40.5604 11.6206 0.0148823
48.8966 31.5535 2
38.3005 12.7534 2
42.0831 14.3599 2
48.4981 27.7816 2
48.9219 24.6538 2
47.0126 22.3369 2
44.7452 18.7218 2
46.8254 29.7836 3.98208
46.6108 25.3611 3.97594
44.1843 21.6611 3.98312
36.587 12.9731 3.97534
38.6747 14.8766 3.97672
41.7089 17.9785 3.97794
42.3308 37.4568 3.47347
43.7593 37.4818 2
45.1812 37.4849 0.160258
46.719 57.2773 0.0177272
46.8992 54.1172 0.0414747
47.2352 47.0587 0.0166186
47.0881 50.5764 0.0228841
43.2823 39.3478 0.370414
43.9064 41.7705 0.161123
44.0566 44.2133 0.127754
44.1364 47.1067 0.0128759
41.7034 42.3343 0.315816
41.8166 40.6455 0.571741
40.5015 41.9715 0.610062
45.2393 55.8508 2
42.1675 39.1671 2
40.4408 40.5237 2
45.4882 48.7251 2
45.161 52.3751 2
42.954 48.1112 2
42.851 45.7925 2
42.9133 43.5664 2
40.7161 43.3685 2
39.1445 42.2563 2
43.5621 54.296 3.99989
40.4808 39.0028 3.55739
39.0497 40.6166 3.50374
43.2355 50.1889 4.00303
41.5751 47.2323 3.92099
41.4833 44.8283 3.83241
39.357 43.942 3.62254
37.5083 42.3646 3.50746
43.8173 57.6305 0.0170791
42.0447 56.1893 2
40.3509 54.757 3.99441
35.5732 65.4123 0.0235993
37.8374 63.185 0.0275223
40.6153 61.5941 0.0159061
40.4196 58.1139 0.0141405
35.6094 63.1756 2
38.2413 60.2742 2
38.9033 56.3184 2
37.9741 55.0163 3.99499
36.9235 57.5377 3.99187
35.3657 60.8743 3.98243
33.6303 63.3128 0.0234691
30.3825 62.8302 0.0184181
32.1331 61.9695 0.011999
33.3534 61.4743 2
28.6913 62.1753 2
31.088 61.2047 2
29.4337 60.2595 3.97973
32.3697 59.6746 3.99577
28.0867 58.3251 4.01647
27.6109 59.5343 2
25.4367 58.528 3.97798
22.8398 58.1612 3.96986
23.4338 60.2718 3.97567
23.8489 59.0059 2
25.0635 60.8051 2
24.4477 62.7325 3.97628
26.888 61.4398 0.0155617
26.2403 63.4569 2
25.5515 65.4781 3.97647
28.0695 64.1286 0.0188176
27.4661 66.1692 2
26.8387 68.3237 3.98168
29.4093 66.7473 0.0223343
28.9077 68.936 2
28.3728 71.2626 3.98966
31.0161 69.4119 0.0163482
30.616 71.7768 2
30.1842 74.2788 4
32.8944 72.1456 0.00866246
32.6053 74.6792 2
35.0474 74.9194 0
31.7898 7.42528 3.98043
33.3494 4.92773 3.98758
33.7252 6.98312 2
35.2464 2.46363 3.99293
35.4366 4.68746 2
35.6223 6.72904 0.0163202
37.5 0 4
37.5151 2.38749 2
37.5247 4.61783 0.0107053
39.7901 2.47542 0.00727542
39.9526 0.0802889 2
42.3946 0.32156 0
42.153 35.7521 3.41427
43.3968 35.5796 2
40.4394 34.401 3.53462
41.8479 34.2754 2
46.9154 37.7416 0.109598
50.0791 35.5511 0.0248118
44.763 35.2115 0.160873
42.6398 33.9693 0.365918
41.4721 33.2569 0.568273
47.1738 34.4005 2
44.0159 33.1366 2
41.8099 32.5425 2
40.5635 32.9629 2
45.2825 31.8264 3.89306
42.9302 31.4176 3.81892
40.7113 31.6567 3.6533
39.1684 32.7387 3.45169
35.6974 11.7911 3.97533
37.3169 10.6355 2
37.4593 8.53767 0.0157491
38.9746 10.1385 0.0123732
33.1029 11.232 3.97204
34.7577 10.3847 2
35.8998 9.78175 0.0196837
30.4873 10.0304 3.97639
32.3806 9.377 2
34.154 8.83101 0.0194722
48.8784 31.571 0.0159006
48.5013 27.7816 0.0250053
48.926 24.6471 0.0198032
47.0234 22.3299 0.00818959
44.7348 18.6492 0.0261313
42.0761 14.3453 0.0171985
38.298 12.7577 0.022242
36.5841 12.9515 2
46.8203 29.7264 2
38.6738 14.8578 2
41.7035 17.9807 2
46.6113 25.3503 2
44.164 21.6371 2
44.8359 27.9225 3.99273
43.4973 24.2976 4.02392
41.2649 21.0038 3.99259
35.7709 14.8136 3.98165
38.6518 17.7082 3.98517
40.5367 37.4318 3.57788
42.3466 37.4618 2
43.6906 37.4803 0.355305
45.2436 55.8469 -0.00109634
45.1657 52.372 0.0126675
45.4868 48.7039 -0.00171562
42.1577 39.1592 0.561273
42.8731 43.5331 0.173358
42.7873 45.7327 0.12909
42.9179 48.0941 0.00846735
40.6637 43.2923 0.347641
40.3886 40.5347 0.467636
39.1544 42.2328 0.544369
43.5579 54.2895 2
40.503 39.0045 2
39.0442 40.6166 2
43.2272 50.2055 2
41.5709 47.2629 2
41.5127 44.8722 2
37.5043 42.3885 2
39.3771 44.0178 2
41.7127 52.7486 4.00023
39.0591 39.0529 3.50384
37.5084 40.668 3.54895
35.8675 42.2428 3.4517
40.7376 49.3241 3.99284
39.6729 45.5272 3.79494
37.5035 44.2181 3.66486
42.0385 56.2002 0.00900983
40.3518 54.7654 2
38.7127 53.531 3.99685
35.6075 63.1794 0.0280159
38.244 60.2756 0.0165018
38.9006 56.3368 0.00526048
35.3644 60.8602 2
36.925 57.5481 2
37.971 55.0092 2
36.3118 55.1061 3.9979
34.4945 58.4599 3.9938
33.3517 61.4751 0.0194099
28.6901 62.1707 0.0194808
31.0856 61.1984 0.0093861
32.3682 59.6776 2
29.435 60.2602 2
30.3518 57.7631 3.9904
28.0888 58.3223 2
27.0679 56.7667 3.96967
27.61 59.5361 0.0230577
25.4386 58.5276 2
23.9835 56.7133 3.96001
21.4779 57.2965 3.95796
22.0366 59.548 3.97806
22.842 58.162 2
22.7565 61.9664 3.97272
23.4353 60.2721 2
23.847 59.0056 0.0104959
25.0619 60.8051 0.0224994
24.4483 62.7329 2
23.6881 64.6909 3.97389
26.2402 63.4588 0.0256264
25.5517 65.4795 2
24.811 67.5853 3.98073
27.4665 66.1683 0.0227799
26.8374 68.3255 2
26.1682 70.6029 3.98906
28.9087 68.9373 0.0175461
28.3712 71.2618 2
27.7943 73.7221 4
30.6175 71.7772 0.0094506
30.1841 74.2794 2
32.6054 74.6784 0
29.8128 8.00202 3.97847
31.2548 5.33471 3.98639
31.7893 7.42391 2
32.9824 2.70186 3.99243
33.3487 4.92653 2
33.7253 6.98536 0.0177049
35.0474 0.080333 4
35.2454 2.46355 2
35.4368 4.68788 0.0112897
37.5 0 2
37.5159 2.38783 0.00711606
39.9526 0.0806499 0
40.553 35.8954 3.5688
42.1686 35.7516 2
43.307 35.6065 0.364372
28.5477 10.7047 3.97661
39.0624 34.3557 3.49773
40.4529 34.4036 2
41.8445 34.2928 0.587377
47.1408 34.3884 0.0630729
43.9629 33.1812 0.167249
41.7595 32.6113 0.318806
40.5297 32.9815 0.610853
45.3141 31.8086 2
42.974 31.3785 2
40.7594 31.58 2
39.1664 32.7115 2
43.7058 30.0744 3.88008
41.5122 30.1129 3.8326
39.3813 31.016 3.62307
37.5315 32.6174 3.50501
34.102 12.956 3.97508
35.6981 11.7785 2
37.3112 10.6351 0.018646
31.1934 12.0031 3.97752
33.1043 11.2299 2
34.7571 10.3924 0.0214636
30.4847 10.0251 2
32.3813 9.37822 0.0237495
46.8254 29.7836 0.0179165
46.6108 25.3611 0.0240573
36.587 12.9731 0.0246619
44.1843 21.6611 0.016882
41.7089 17.9785 0.0220586
38.6747 14.8766 0.023284
35.7741 14.8182 2
44.8311 27.9247 2
38.6537 17.7082 2
41.2484 20.9853 2
43.4859 24.2765 2
33.6204 15.9145 3.98974
42.6391 26.7512 3.97851
40.7698 23.6235 3.99361
38.3763 20.4979 3.99395
35.8446 17.5865 3.98735
39.0807 37.4846 3.50975
40.5492 37.4382 2
42.3308 37.4568 0.526531
43.5621 54.296 0.000108786
43.2355 50.1889 -0.0030288
40.4808 39.0028 0.442614
41.4833 44.8283 0.167588
41.5751 47.2323 0.0790089
39.357 43.942 0.377461
39.0497 40.6166 0.496262
37.5083 42.3646 0.492541
41.6998 52.7457 2
39.0482 39.042 2
37.5017 40.663 2
40.7188 49.3341 2
35.8727 42.2641 2
39.695 45.5926 2
37.5 44.2927 2
39.7024 51.525 4.00143
37.513 39.052 3.54945
35.9766 40.633 3.50482
34.5133 41.9912 3.39151
35.6504 43.96 3.61853
38.6408 48.185 3.92914
37.5313 45.8233 3.82963
40.3509 54.757 0.00559092
38.7104 53.5396 2
36.7771 52.8734 3.99698
35.3657 60.8743 0.0175653
36.9235 57.5377 0.00813078
37.9741 55.0163 0.00500759
34.4928 58.466 2
36.3149 55.0955 2
33.2824 55.3007 3.99307
32.3697 59.6746 0.00423224
29.4337 60.2595 0.0202706
30.3536 57.7583 2
28.8719 55.273 3.99142
28.0867 58.3251 -0.0164739
27.0704 56.7639 2
25.534 55.0424 3.95419
22.0608 55.2179 3.96068
25.4367 58.528 0.0220237
23.9864 56.7141 2
20.3575 56.9268 3.96251
20.7046 58.7004 3.96279
21.4808 57.298 2
21.1927 61.0979 3.97297
22.0382 59.5485 2
22.8398 58.1612 0.0301415
21.9054 63.8045 3.97353
22.7576 61.9677 2
23.4338 60.2718 0.0243284
24.4477 62.7325 0.0237207
23.6883 64.6923 2
22.8397 66.7276 3.97768
25.5515 65.4781 0.023532
24.8098 67.5858 2
24.0125 69.8048 3.98892
26.8387 68.3237 0.0183192
26.166 70.6031 2
25.446 73.0099 4
28.3728 71.2626 0.0103382
27.7943 73.7222 2
30.1842 74.2788 0
27.8227 8.66179 3.97919
29.157 5.88188 3.98429
29.8111 7.99811 2
30.728 3.09873 3.99204
31.2539 5.33339 2
31.7898 7.42528 0.0195711
32.6053 0.320823 4
32.9811 2.70152 2
33.3494 4.92773 0.0124245
35.0474 0.0802903 2
35.2464 2.46363 0.00706787
37.5 0 0
39.0263 35.9222 3.51639
40.5341 35.8927 2
42.153 35.7521 0.585732
28.5451 10.7016 2
26.6277 11.4039 3.9764
29.2345 12.6535 3.98096
37.5329 34.319 3.5491
39.0853 34.37 2
40.4394 34.401 0.465376
45.2825 31.8264 0.106936
42.9302 31.4176 0.18108
40.7113 31.6567 0.346704
39.1684 32.7387 0.548305
43.7333 30.0447 2
41.5467 30.0709 2
39.3948 30.9416 2
37.5365 32.5887 2
41.9295 28.783 3.85961
39.6749 29.4178 3.81559
37.5277 30.7597 3.66852
35.8832 32.7411 3.45823
31.9335 14.5008 3.98221
34.1026 12.9609 2
35.6974 11.7911 0.0246742
31.1923 11.9938 2
33.1029 11.232 0.0279563
30.4873 10.0304 0.0236093
44.8359 27.9225 0.00727436
43.4973 24.2976 -0.0239217
35.7709 14.8136 0.0183544
41.2649 21.0038 0.0074067
38.6518 17.7082 0.0148284
33.6119 15.8979 2
35.8389 17.5739 2
42.6992 26.7253 2
38.3627 20.5444 2
40.7571 23.614 2
33.5559 17.4586 3.98666
40.211 26.0941 3.96631
38.0239 23.3649 3.99716
35.5427 20.2736 3.99639
37.523 37.4811 3.56562
39.0608 37.4748 2
40.5367 37.4318 0.422117
41.7127 52.7486 -0.000229476
40.7376 49.3241 0.00715711
39.0591 39.0529 0.496159
39.6729 45.5272 0.205062
37.5035 44.2181 0.335137
37.5084 40.668 0.45105
35.8675 42.2428 0.548296
39.6847 51.5227 2
37.5127 39.0512 2
35.9717 40.6195 2
38.661 48.2479 2
34.4811 42.0098 2
35.6351 44.0285 2
37.5183 45.8833 2
37.6836 50.4997 3.99164
35.9992 39.0635 3.51708
34.6241 40.5635 3.53748
33.5743 41.7098 3.43525
34.364 43.3106 3.64447
35.2926 45.5642 3.81839
36.9185 47.798 3.8921
38.7127 53.531 0.00315324
36.7697 52.8283 2
34.4851 52.1905 4.00024
34.4945 58.4599 0.00620095
36.3118 55.1061 0.00209792
33.2868 55.3089 2
30.7192 53.2302 3.99969
30.3518 57.7631 0.00960181
28.8737 55.2687 2
27.1857 53.3205 3.95645
27.0679 56.7667 0.0303348
25.537 55.0424 2
23.9284 53.3222 3.95407
20.9033 53.049 3.95854
20.161 55.7078 3.96123
22.0605 55.2198 2
23.9835 56.7133 0.0399879
19.5306 57.8015 3.96126
20.3545 56.9292 2
19.7331 60.1316 3.97255
20.7025 58.7027 2
21.4779 57.2965 0.0420381
20.2222 62.8056 3.97199
21.1942 61.0996 2
22.0366 59.548 0.0219371
20.9418 65.753 3.97451
21.9057 63.8084 2
22.7565 61.9664 0.0272795
23.6881 64.6909 0.0261111
22.8386 66.7272 2
21.9152 68.872 3.98803
24.811 67.5853 0.0192727
24.0097 69.8036 2
23.1494 72.1454 4
26.1682 70.6029 0.0109444
25.446 73.0099 2
27.7943 73.7221 0
25.8624 9.392 3.97727
27.0718 6.54639 3.98278
27.82 8.65969 2
28.4905 3.64471 3.99105
29.1554 5.87977 2
29.8128 8.00202 0.0215317
30.1841 0.720592 4
30.726 3.09853 2
31.2548 5.33471 0.0136061
32.6053 0.320817 2
32.9824 2.70186 0.00757407
35.0474 0.080333 0
37.5178 35.9159 3.5421
39.008 35.9065 2
40.553 35.8954 0.431202
24.7864 12.0872 3.97608
23.7736 14.4197 3.97911
28.5477 10.7047 0.0233891
26.6237 11.3996 2
29.2329 12.6517 2
27.3018 13.3923 3.97539
29.8013 14.2114 3.98533
35.9817 34.3559 3.50765
37.5422 34.3205 2
39.0624 34.3557 0.50227
37.5315 32.6174 0.494992
43.7058 30.0744 0.119921
41.5122 30.1129 0.167404
39.3813 31.016 0.376934
41.9684 28.7127 2
39.6999 29.3557 2
37.5286 30.686 2
35.8901 32.7197 2
39.8414 28.0447 3.86432
37.4944 29.1458 3.82096
35.6806 31.0356 3.62573
34.5273 32.9968 3.39379
30.9546 16.8553 3.99641
31.9264 14.4865 2
34.102 12.956 0.024921
31.1934 12.0031 0.0224795
42.6391 26.7512 0.0214917
40.7698 23.6235 0.00638541
33.6204 15.9145 0.0102553
35.8446 17.5865 0.0126466
38.3763 20.4979 0.00605211
33.5468 17.4662 2
35.548 20.2863 2
40.2667 26.0622 2
38.0185 23.3415 2
32.9146 19.887 3.99614
37.684 25.7241 3.96207
35.2894 23.0229 4.00642
35.975 37.4759 3.51289
37.5106 37.4803 2
39.0807 37.4846 0.490245
39.7024 51.525 -0.00142764
38.6408 48.185 0.0708627
37.513 39.052 0.450549
37.5313 45.8233 0.170369
35.6504 43.96 0.381472
35.9766 40.633 0.495175
34.5133 41.9912 0.608487
37.6617 50.5417 2
36.0275 39.0507 2
34.5762 40.5657 2
36.9156 47.8617 2
33.5334 41.737 2
34.3069 43.3833 2
35.2724 45.6211 2
35.5692 49.7012 3.98295
34.5182 39.0531 3.56495
33.1971 40.6766 3.41861
33.3032 42.3558 3.6884
33.5684 44.8389 3.82091
34.5523 46.9583 3.86502
36.7771 52.8734 0.00302444
34.4672 52.2062 2
32.2927 51.0133 4.0012
33.2824 55.3007 0.00692929
30.724 53.2305 2
28.8018 51.4139 3.97998
28.8719 55.273 0.00857514
27.1882 53.3187 2
25.5229 51.5556 3.95323
25.534 55.0424 0.0458138
23.9315 53.3299 2
22.4807 51.6073 3.95382
19.7855 51.4338 3.96261
19.2788 54.1564 3.96171
20.9084 53.0467 2
18.6233 56.6161 3.9626
20.1599 55.7092 2
22.0608 55.2179 0.0393162
18.4104 59.0407 3.96196
19.5292 57.8033 2
20.3575 56.9268 0.0374859
18.636 61.7031 3.97197
19.7338 60.1345 2
20.7046 58.7004 0.0372078
19.1327 64.6586 3.97331
20.2229 62.8094 2
21.1927 61.0979 0.0270272
19.8895 67.8077 3.98534
20.9409 65.752 2
21.9054 63.8045 0.0264651
22.8397 66.7276 0.0223183
21.9119 68.8701 2
20.9142 71.1327 4
24.0125 69.8048 0.01108
23.1494 72.1455 2
25.446 73.0099 0
23.1092 12.8329 3.97698
23.9751 10.1803 3.97474
25.0253 7.31777 3.98079
25.8588 9.39004 2
26.2823 4.32891 3.99003
27.0694 6.54556 2
27.8227 8.66179 0.020806
27.7943 1.27781 4
28.4877 3.64479 2
29.157 5.88188 0.0157126
30.1841 0.720551 2
30.728 3.09873 0.00796238
32.6053 0.320823 0
35.9743 35.9047 3.50563
37.5456 35.9251 2
39.0263 35.9222 0.483613
24.7812 12.1003 2
23.7732 14.4251 2
22.5117 15.1119 3.97704
25.3731 13.9633 3.97226
24.0673 15.6777 3.98884
26.6277 11.4039 0.0236018
29.2345 12.6535 0.0190355
27.3046 13.3857 2
29.7928 14.2108 2
28.3935 15.9768 3.9883
34.6444 34.4289 3.53146
35.9851 34.3557 2
37.5329 34.319 0.450903
35.8832 32.7411 0.541773
37.5277 30.7597 0.331482
41.9295 28.783 0.140389
39.6749 29.4178 0.184411
39.8758 27.9965 2
37.4946 29.0893 2
35.664 30.9569 2
34.4893 32.9799 2
37.6234 27.7793 3.86824
35.3565 29.437 3.81465
34.36 31.6766 3.65108
33.5879 33.2778 3.43312
30.2574 19.4906 3.9786
30.9432 16.8437 2
31.9335 14.5008 0.017792
40.211 26.0941 0.033692
38.0239 23.3649 0.00284185
33.5559 17.4586 0.0133366
35.5427 20.2736 0.00360607
32.9181 19.9099 2
35.2687 23.0092 2
37.7156 25.7066 2
32.4944 22.6312 3.99823
35.166 25.6195 3.98658
34.4854 37.5042 3.58489
35.9727 37.4902 2
37.523 37.4811 0.434377
37.6836 50.4997 0.00835946
36.9185 47.798 0.107896
35.9992 39.0635 0.482916
35.2926 45.5642 0.181609
34.364 43.3106 0.355531
34.6241 40.5635 0.46252
33.5743 41.7098 0.56475
35.5544 49.714 2
34.5058 39.0542 2
33.1859 40.6882 2
34.5066 47.0219 2
33.2564 42.4263 2
33.5288 44.8852 2
33.4702 48.8155 3.97304
32.8722 39.2057 3.41974
32.402 40.9994 3.6353
32.1299 43.5527 3.82507
32.7746 45.9538 3.8641
34.4851 52.1905 -0.000240536
32.3153 51.0171 2
30.3623 49.5499 4.00329
30.7192 53.2302 0.00031047
28.8057 51.4143 2
27.0599 49.777 3.97437
27.1857 53.3205 0.0435541
25.5253 51.5583 2
23.9459 49.9611 3.96656
23.9284 53.3222 0.0459282
22.4863 51.6043 2
21.126 50.0896 3.96529
18.551 50.1423 3.97134
18.3163 52.6187 3.96498
19.7797 51.4335 2
17.7291 55.2098 3.9625
19.2786 54.1559 2
20.9033 53.049 0.0414592
17.2467 57.7904 3.96099
18.621 56.6173 2
20.161 55.7078 0.0387656
17.1497 60.4961 3.96459
18.4104 59.0419 2
19.5306 57.8015 0.0387433
17.4168 63.4317 3.96811
18.6374 61.705 2
19.7331 60.1316 0.027446
17.9456 66.6155 3.98279
19.1321 64.6585 2
20.2222 62.8056 0.0280081
18.75 69.9759 4
19.8861 67.8048 2
20.9418 65.753 0.0254936
21.9152 68.872 0.0119728
20.9142 71.1327 2
23.1494 72.1454 0
21.6065 13.6695 3.97234
22.1961 11.053 3.97162
23.1076 12.8331 2
23.0424 8.18498 3.97742
23.9735 10.1844 2
24.1202 5.14375 3.98967
25.022 7.31672 2
25.8624 9.392 0.0227274
25.446 1.99014 4
26.2788 4.32987 2
27.0718 6.54639 0.0172242
27.7943 1.27778 2
28.4905 3.64471 0.00894935
30.1841 0.720592 0
34.5579 35.9448 3.5571
35.9897 35.9195 2
37.5178 35.9159 0.457902
21.3488 15.9142 3.97023
24.7864 12.0872 0.0239187
23.7736 14.4197 0.0208879
25.3719 13.9375 2
22.5115 15.1036 2
24.0713 15.684 2
23.3217 16.32 3.96491
25.425 16.1488 3.98728
27.3018 13.3923 0.0246118
29.8013 14.2114 0.0146653
28.384 15.996 2
27.4958 18.9265 3.98248
33.2079 34.3184 3.43129
34.5923 34.4398 2
35.9817 34.3559 0.492354
34.5273 32.9968 0.606208
35.6806 31.0356 0.374274
37.4944 29.1458 0.179036
39.8414 28.0447 0.135684
37.5949 27.7404 2
33.5529 33.2525 2
35.3506 29.3723 2
34.3149 31.602 2
35.2407 27.8666 3.87938
33.5526 30.1364 3.82534
33.3153 32.629 3.68658
29.8125 22.0983 4.00789
30.2598 19.5026 2
30.9546 16.8553 0.00358546
37.684 25.7241 0.0379296
35.2894 23.0229 -0.00641578
32.9146 19.887 0.00386264
32.4917 22.6111 2
35.1942 25.6115 2
32.0968 25.9128 4.0095
32.6931 37.4997 3.47025
34.491 37.4969 2
35.975 37.4759 0.487114
35.5692 49.7012 0.0170548
34.5523 46.9583 0.134977
34.5182 39.0531 0.435045
33.5684 44.8389 0.179095
33.3032 42.3558 0.3116
33.1971 40.6766 0.581392
33.46 48.8109 2
32.8771 39.2152 2
32.3478 41.0548 2
32.7528 46.0097 2
32.082 43.5878 2
31.7219 47.6525 3.98534
31.7301 39.3681 3.63586
31.0855 41.7966 3.8344
31.2262 44.5928 3.87283
32.2927 51.0133 -0.00120206
30.368 49.5846 2
28.5568 47.9485 3.97229
28.8018 51.4139 0.0200172
27.058 49.7784 2
25.3823 48.2151 3.96802
25.5229 51.5556 0.0467714
23.9518 49.9591 2
22.429 48.5311 3.97153
22.4807 51.6073 0.046176
21.128 50.0881 2
19.6843 48.8797 3.9742
17.4222 49.1603 3.97574
17.2501 51.2441 3.97041
18.5527 50.1405 2
16.7501 53.7312 3.96615
18.3121 52.6189 2
19.7855 51.4338 0.0373894
16.1653 56.3792 3.962
17.7288 55.2101 2
19.2788 54.1564 0.0382872
15.7781 59.1616 3.96071
17.2409 57.7927 2
18.6233 56.6161 0.0374018
15.7935 62.0985 3.96999
17.1521 60.4976 2
18.4104 59.0407 0.0380366
16.092 65.2964 3.97973
17.4158 63.4359 2
18.636 61.7031 0.0280315
16.6661 68.6801 4
17.9424 66.6116 2
19.1327 64.6586 0.0266938
18.75 69.9759 2
19.8895 67.8077 0.0146604
20.9142 71.1327 0
20.2433 14.6709 3.96996
21.605 13.6762 2
20.5399 12.0469 3.97334
21.1455 9.15834 3.9758
22.1933 11.0553 2
23.1092 12.8329 0.0230218
22.0194 6.08226 3.98856
23.0397 8.18673 2
23.9751 10.1803 0.0252551
23.1494 2.85457 4
24.1157 5.14504 2
25.0253 7.31777 0.0192131
25.446 1.99012 2
26.2823 4.32891 0.00996613
27.7943 1.27781 0
32.8611 35.8013 3.43938
34.5301 35.9444 2
35.9743 35.9047 0.494375
21.3528 15.9071 2
20.3726 17.0419 3.96461
22.1556 16.7153 3.96164
25.3731 13.9633 0.0277408
22.5117 15.1119 0.0229558
24.0673 15.6777 0.0111589
25.4268 16.1492 2
23.3269 16.3155 2
24.2811 18.6034 3.97433
27.2476 21.7231 3.99369
28.3935 15.9768 0.0117002
27.4947 18.9623 2
32.4357 33.9857 3.63003
33.1985 34.3037 2
34.6444 34.4289 0.468543
33.5879 33.2778 0.566881
34.36 31.6766 0.348922
35.3565 29.437 0.185354
37.6234 27.7793 0.131763
35.2384 27.8205 2
33.2447 32.5594 2
33.5178 30.0919 2
33.0105 28.5075 3.8871
32.1306 31.4309 3.81573
29.237 24.5853 4.01252
29.7919 22.122 2
30.2574 19.4906 0.0214017
35.166 25.6195 0.013424
32.4944 22.6312 0.00176832
32.0828 25.8855 2
30.2808 27.5814 3.97645
31.3376 37.4871 3.64128
32.6932 37.4994 2
34.4854 37.5042 0.415115
33.4702 48.8155 0.0269593
32.7746 45.9538 0.1359
32.8722 39.2057 0.580263
32.1299 43.5527 0.174927
32.402 40.9994 0.364701
31.6658 47.6845 2
31.6448 39.3858 2
31.026 41.8436 2
31.179 44.6326 2
29.9996 46.2638 3.98834
30.268 39.7678 3.84173
29.7658 42.8977 3.88815
30.3623 49.5499 -0.00328566
28.555 47.9522 2
26.8163 46.3786 3.98092
27.0599 49.777 0.0256268
25.3827 48.2124 2
23.698 46.7935 3.97343
23.9459 49.9611 0.0334401
22.4301 48.5317 2
20.7102 47.3831 3.97628
21.126 50.0896 0.0347083
19.6847 48.8781 2
18.2743 47.9875 3.97663
16.6559 48.5224 3.97656
17.4213 49.1593 2
16.3081 50.0204 3.97443
15.7524 52.2829 3.97037
17.2514 51.243 2
18.551 50.1423 0.0286584
15.1251 54.8723 3.96441
16.7503 53.731 2
18.3163 52.6187 0.0350166
14.5361 57.686 3.95999
16.1652 56.3796 2
17.7291 55.2098 0.037498
14.2738 60.6649 3.96569
15.7815 59.162 2
17.2467 57.7904 0.0390102
14.337 63.8537 3.97678
15.7947 62.1 2
17.1497 60.4961 0.0354143
14.6715 67.2507 4
16.0894 65.2923 2
17.4168 63.4317 0.0318853
16.6661 68.6801 2
17.9456 66.6155 0.0172122
18.75 69.9759 0
18.9681 15.8523 3.9714
20.2455 14.6668 2
18.9939 13.1693 3.97144
21.6065 13.6695 0.0276591
20.5379 12.0457 2
19.3468 10.2511 3.97277
19.9943 7.14785 3.9864
21.1427 9.1599 2
22.1961 11.053 0.02838
20.9142 3.86727 4
22.0145 6.08539 2
23.0424 8.18498 0.0225837
23.1494 2.85451 2
24.1202 5.14375 0.0103274
25.446 1.99014 0
31.7573 35.6216 3.62929
32.8607 35.7922 2
34.5579 35.9448 0.442896
21.3488 15.9142 0.0297716
22.159 16.7083 2
20.3752 17.0384 2
19.4048 18.5205 3.95813
21.858 17.9741 3.97808
25.425 16.1488 0.012721
23.3217 16.32 0.0350879
24.2703 18.6231 2
22.4941 20.0532 3.97693
24.8319 21.5742 3.98839
26.8664 23.8689 3.98507
27.2487 21.631 2
27.4958 18.9265 0.0175178
31.1332 33.1943 3.83459
32.385 33.9299 2
33.2079 34.3184 0.568705
33.3153 32.629 0.313415
33.5526 30.1364 0.174663
35.2407 27.8666 0.120617
32.9741 28.4737 2
32.0775 31.3827 2
30.9126 29.8824 3.91164
28.5526 26.7589 3.9997
29.2247 24.5822 2
29.8125 22.0983 -0.00788623
32.0968 25.9128 -0.00949525
30.2721 27.5576 2
29.8381 37.4825 3.84059
31.262 37.4849 2
32.6931 37.4997 0.52975
31.7219 47.6525 0.0146612
31.2262 44.5928 0.127173
31.7301 39.3681 0.364136
31.0855 41.7966 0.165595
30.0012 46.2713 2
30.1819 39.784 2
29.7348 42.9219 2
28.3075 44.5935 3.96707
28.0194 40.4764 3.92757
28.5568 47.9485 0.0277101
26.8154 46.3793 2
25.0217 44.9066 3.98007
25.3823 48.2151 0.0319844
23.6963 46.792 2
21.7531 45.6789 3.97778
22.429 48.5311 0.0284683
20.7106 47.3822 2
19.0247 46.5456 3.97617
19.6843 48.8797 0.0258024
18.2747 47.9864 2
16.9066 47.5488 3.976
16.6569 48.5214 2
15.66 48.8723 3.97549
17.4222 49.1603 0.0242582
16.3098 50.0194 2
14.8623 50.8626 3.9737
14.0911 53.3369 3.96765
15.7537 52.2822 2
17.2501 51.2441 0.0295946
13.3888 56.1072 3.96119
15.1251 54.8722 2
16.7501 53.7312 0.0338549
12.8631 59.105 3.96341
14.5388 57.6858 2
16.1653 56.3792 0.0380008
12.683 62.2962 3.97413
14.2755 60.6652 2
15.7781 59.1616 0.0392852
12.7746 65.6939 4
14.3346 63.8495 2
15.7935 62.0985 0.030013
14.6714 67.2507 2
16.092 65.2964 0.02027
16.6661 68.6801 0
17.7622 17.2415 3.96125
18.9688 15.8496 2
17.5309 14.4324 3.96835
20.2433 14.6709 0.0300426
18.9941 13.1718 2
17.646 11.4831 3.97283
20.5399 12.0469 0.0266613
19.3435 10.2523 2
18.0543 8.34111 3.98381
18.75 5.0241 4
19.9889 7.15138 2
21.1455 9.15834 0.0242025
20.9142 3.86727 2
22.0194 6.08226 0.0114401
23.1494 2.85457 0
30.2929 35.2247 3.83969
31.6725 35.5983 2
32.8611 35.8013 0.560624
22.1556 16.7153 0.038365
20.3726 17.0419 0.0353931
21.8576 17.9708 2
19.3985 18.5141 2
18.2651 20.0807 3.96187
21.0729 19.5233 3.96695
24.2811 18.6034 0.0256708
22.4867 20.0565 2
24.8421 21.555 2
22.6981 21.9042 3.98026
25.1523 23.2899 3.97506
26.1645 26.1341 3.97954
26.8656 23.8624 2
27.2476 21.7231 0.00630694
29.53 32.5462 3.88804
31.0552 33.1574 2
32.4357 33.9857 0.369969
32.1306 31.4309 0.184271
33.0105 28.5075 0.112896
30.8913 29.8715 2
27.9462 29.3499 4.0125
28.5402 26.7625 2
29.237 24.5853 -0.0125224
30.2808 27.5814 0.0235473
28.1897 37.3791 3.88577
29.7598 37.4811 2
31.3376 37.4871 0.358719
29.9996 46.2638 0.0116595
29.7658 42.8977 0.111847
30.268 39.7678 0.158272
28.3041 44.6463 2
27.986 40.4795 2
26.4147 43.0031 3.98222
25.3073 39.4328 3.97373
26.8163 46.3786 0.0190766
25.0117 44.9082 2
22.9472 43.7141 3.9751
23.698 46.7935 0.0265658
21.7499 45.6798 2
19.8181 44.7848 3.97575
20.7102 47.3831 0.0237244
19.0243 46.5461 2
17.2741 46.0497 3.97579
18.2743 47.9875 0.0233655
16.9073 47.5483 2
15.4328 47.5298 3.97568
16.6559 48.5224 0.0234408
15.6615 48.8714 2
14.1756 49.4303 3.97514
16.3081 50.0204 0.0255651
14.8636 50.8618 2
13.1596 51.7851 3.97046
12.2914 54.4696 3.96332
14.0918 53.3364 2
15.7524 52.2829 0.0296274
11.5585 57.442 3.96189
13.3894 56.1069 2
15.1251 54.8723 0.0355948
11.1388 60.6212 3.9689
12.8653 59.1043 2
14.5361 57.686 0.0400149
10.9835 64.0165 4
12.6811 62.2913 2
14.2738 60.6649 0.0343085
12.7745 65.694 2
14.337 63.8537 0.0232232
14.6715 67.2507 0
16.5805 18.752 3.96129
17.7552 17.2367 2
16.1294 15.8348 3.96177
18.9681 15.8523 0.0285982
17.5315 14.4288 2
16.0294 12.8494 3.96789
18.9939 13.1693 0.0285612
17.6433 11.4916 2
16.2053 9.66596 3.98077
19.3468 10.2511 0.0272285
18.0492 8.34724 2
16.6661 6.31991 4
18.75 5.02404 2
19.9943 7.14785 0.0136049
20.9142 3.86727 0
28.6884 34.8658 3.89256
30.1952 35.185 2
31.7573 35.6216 0.370712
17.0122 21.5172 3.9684
21.858 17.9741 0.0219247
19.4048 18.5205 0.0418708
21.0634 19.5187 2
18.266 20.0783 2
20.1114 21.7501 3.97217
22.4941 20.0532 0.0230726
24.8319 21.5742 0.0116101
22.6983 21.907 2
25.14 23.3122 2
23.4759 24.7984 3.97181
25.5046 28.7279 3.98394
26.1565 26.1416 2
26.8664 23.8689 0.0149318
27.3895 31.9045 3.98128
29.4902 32.5227 2
31.1332 33.1943 0.165405
30.9126 29.8824 0.0883558
27.9597 29.3233 2
28.5526 26.7589 0.000296711
26.0118 36.8518 3.97253
28.1658 37.3798 2
29.8381 37.4825 0.159414
28.3075 44.5935 0.0329318
28.0194 40.4764 0.0724308
26.3929 43.0274 2
25.2785 39.4365 2
24.1743 41.7279 3.98079
23.0227 38.5152 3.97731
25.0217 44.9066 0.0199303
22.9459 43.715 2
20.71 42.7421 3.97524
21.7531 45.6789 0.0222246
19.8192 44.7851 2
17.6917 44.2351 3.97535
19.0247 46.5456 0.0238341
17.2744 46.0501 2
15.3999 45.9602 3.97541
16.9066 47.5488 0.0240029
15.4338 47.5292 2
13.7079 47.8968 3.97565
15.66 48.8723 0.0245108
14.1771 49.4295 2
12.3946 50.1697 3.97269
14.8623 50.8626 0.0263033
13.1608 51.7842 2
11.2856 52.7853 3.96519
10.3669 55.6954 3.96262
12.2914 54.469 2
14.0911 53.3369 0.0323536
9.70492 58.8453 3.97179
11.5627 57.4401 2
13.3888 56.1072 0.0388142
9.30605 62.2254 4
11.1375 60.6163 2
12.8631 59.105 0.0365889
10.9835 64.0165 2
12.683 62.2962 0.0258682
12.7746 65.6939 0
15.3837 20.2922 3.96421
16.5866 18.7514 2
14.8211 17.3628 3.96091
17.7622 17.2415 0.038745
16.1318 15.8326 2
14.4905 14.327 3.96808
17.5309 14.4324 0.0316531
16.0295 12.8461 2
14.4481 11.1188 3.97803
17.646 11.4831 0.0271678
16.2009 9.6724 2
14.6715 7.74927 4
18.0543 8.34111 0.0161865
16.6661 6.31988 2
18.75 5.0241 0
26.6457 34.3861 3.97318
28.6699 34.8733 2
30.2929 35.2247 0.160309
18.2878 22.4918 3.97531
15.9167 23.0593 3.97216
17.0145 21.5164 2
21.0729 19.5233 0.0330462
18.2651 20.0807 0.0381326
20.1095 21.7474 2
20.251 24.5951 3.97193
22.6981 21.9042 0.01974
25.1523 23.2899 0.024944
23.4692 24.7987 2
22.8665 28.0772 3.97117
24.9552 31.4206 3.98223
25.511 28.7121 2
26.1645 26.1341 0.0204598
27.3595 31.8654 2
29.53 32.5462 0.111959
27.9462 29.3499 -0.0124957
23.7575 36.3154 3.97769
25.9884 36.8463 2
28.1897 37.3791 0.114232
26.4147 43.0031 0.0177815
25.3073 39.4328 0.02627
24.1523 41.7267 2
23.0102 38.5153 2
21.841 40.5671 3.9748
21.172 37.7971 3.97709
22.9472 43.7141 0.0249028
20.711 42.7417 2
18.1744 41.995 3.97569
19.8181 44.7848 0.0242472
17.6921 44.2354 2
15.4495 44.0861 3.97528
17.2741 46.0497 0.0242096
15.4 45.9602 2
13.4073 46.1934 3.97544
15.4328 47.5298 0.0243239
13.7092 47.8961 2
11.7843 48.4723 3.97454
14.1756 49.4303 0.0248573
12.3963 50.1686 2
10.4169 51.0335 3.96693
13.1596 51.7851 0.0295354
11.2864 52.7843 2
9.27668 53.8768 3.96309
8.38871 56.9802 3.97322
10.3697 55.6935 2
12.2914 54.4696 0.0366845
7.74927 60.3285 4
9.70366 58.8409 2
11.5585 57.442 0.0381078
9.306 62.2255 2
11.1388 60.6212 0.0311024
10.9835 64.0165 0
14.2227 21.8539 3.96808
15.3827 20.2906 2
13.5585 18.9612 3.96138
16.5805 18.752 0.0387099
14.8223 17.3612 2
13.0386 15.9116 3.96731
16.1294 15.8348 0.0382318
14.4941 14.3251 2
12.7859 12.6935 3.97542
16.0294 12.8494 0.0321084
14.445 11.126 2
12.7746 9.30605 4
16.2053 9.66596 0.0192285
14.6715 7.74924 2
16.6661 6.31991 0
24.3191 33.8949 3.98088
26.6246 34.3865 2
28.6884 34.8658 0.107438
18.1653 24.2267 3.97323
18.2963 22.4922 2
14.7447 24.5854 3.97423
15.9174 23.0586 2
17.0122 21.5172 0.0315996
19.807 27.4279 3.97364
20.1114 21.7501 0.027834
20.2457 24.5924 2
22.2528 30.8739 3.97426
23.4759 24.7984 0.0281867
22.8672 28.0795 2
24.9155 31.4254 2
25.5046 28.7279 0.0160636
27.3895 31.9045 0.0187235
21.2796 35.9667 3.97677
23.753 36.3103 2
26.0118 36.8518 0.0274718
24.1743 41.7279 0.0192085
23.0227 38.5152 0.0226859
21.8456 40.5704 2
21.1745 37.7971 2
18.9441 38.975 3.97707
20.71 42.7421 0.0247606
18.1743 41.995 2
15.4346 41.8458 3.97596
17.6917 44.2351 0.0246498
15.4489 44.0862 2
13.169 44.309 3.9754
15.3999 45.9602 0.0245855
13.4082 46.1931 2
11.2992 46.663 3.97578
13.7079 47.8968 0.0243466
11.7865 48.4712 2
9.68814 49.1974 3.96874
12.3946 50.1697 0.0273085
10.4182 51.0324 2
8.30487 51.9926 3.96358
11.2856 52.7853 0.0348092
9.2772 53.875 2
7.19777 55.0325 3.97416
6.31991 58.3339 4
8.38746 56.9759 2
10.3669 55.6954 0.0373768
7.74924 60.3285 2
9.70492 58.8453 0.0282117
9.30605 62.2254 0
13.6018 25.4745 3.97635
13.1232 23.3776 3.97161
14.2221 21.8528 2
12.3839 20.6105 3.96373
15.3837 20.2922 0.0357871
13.558 18.9597 2
11.6737 17.5834 3.96293
14.8211 17.3628 0.0390933
13.043 15.9099 2
11.2243 14.3804 3.97025
14.4905 14.327 0.0319205
12.7842 12.7004 2
10.9835 10.9835 4
14.4481 11.1188 0.0219703
12.7745 9.306 2
14.6715 7.74927 0
21.6333 33.5237 3.97623
24.3228 33.8748 2
26.6457 34.3861 0.0268189
16.4894 26.5714 3.97438
18.1688 24.2262 2
18.2878 22.4918 0.0246856
14.7437 24.5849 2
15.9167 23.0593 0.0278443
19.2094 30.3556 3.9745
19.8072 27.4293 2
20.251 24.5951 0.0280693
22.2745 30.8739 2
22.8665 28.0772 0.0288331
24.9552 31.4206 0.0177671
18.5343 36.0074 3.97789
21.2816 35.9682 2
23.7575 36.3154 0.0223061
21.841 40.5671 0.0251991
21.172 37.7971 0.0229128
18.9437 38.9735 2
14.9245 39.1533 3.97697
18.1744 41.995 0.0243063
15.4338 41.8454 2
12.8627 42.2219 3.976
15.4495 44.0861 0.0247152
13.1692 44.3088 2
10.8856 44.7418 3.97592
13.4073 46.1934 0.0245595
11.302 46.6618 2
9.07394 47.2819 3.9705
11.7843 48.4723 0.0254567
9.69001 49.1963 2
7.46597 50.0281 3.96388
10.4169 51.0335 0.0330726
8.30375 51.9911 2
6.13832 53.0084 3.97425
9.27668 53.8768 0.0369075
7.19697 55.0287 2
5.0241 56.25 4
6.31988 58.3339 2
8.38871 56.9802 0.0267823
7.74927 60.3285 0
13.8926 26.9317 3.97543
12.2297 24.8733 3.97453
13.601 25.4741 2
11.3105 22.2919 3.96594
13.1238 23.3773 2
14.2227 21.8539 0.0319215
12.3843 20.6097 2
10.4252 19.3362 3.96305
13.5585 18.9612 0.0386181
11.6801 17.5832 2
9.76544 16.1628 3.97112
13.0386 15.9116 0.0326902
11.2236 14.3858 2
9.30607 12.7746 4
12.7859 12.6935 0.0245839
10.9835 10.9835 2
12.7746 9.30605 0
18.6983 33.2037 3.97585
21.6296 33.5271 2
24.3191 33.8949 0.0191168
16.117 29.7766 3.97516
16.4885 26.5711 2
18.1653 24.2267 0.0267668
14.7447 24.5854 0.0257744
19.2079 30.3555 2
19.807 27.4279 0.0263607
22.2528 30.8739 0.0257386
15.5622 36.0426 3.97749
18.5338 36.0082 2
21.2796 35.9667 0.0232255
13.0927 37.8285 3.97708
18.9441 38.975 0.0229258
14.9244 39.1534 2
12.3578 40.1114 3.97654
15.4346 41.8458 0.0240379
12.8624 42.2214 2
10.4826 42.7354 3.97569
13.169 44.309 0.0245954
10.8878 44.7408 2
8.54272 45.2919 3.97242
11.2992 46.663 0.0242213
9.07588 47.2809 2
6.74899 47.9953 3.96428
9.68814 49.1974 0.0312605
7.46385 50.027 2
5.21479 50.9118 3.97386
8.30487 51.9926 0.0364187
6.138 53.0055 2
3.86727 54.0858 4
7.19777 55.0325 0.025839
5.02404 56.25 2
6.31991 58.3339 0
13.371 29.1291 3.97474
11.6785 26.5672 3.97539
13.892 26.9317 2
10.3606 24.0164 3.96846
12.2326 24.8735 2
13.6018 25.4745 0.0236458
9.29123 21.153 3.96366
11.3102 22.2915 2
13.1232 23.3776 0.028389
12.3839 20.6105 0.0362716
10.4378 19.3383 2
8.4213 18.0317 3.97282
11.6737 17.5834 0.0370682
9.76476 16.1671 2
7.74928 14.6715 4
11.2243 14.3804 0.0297479
9.30602 12.7745 2
10.9835 10.9835 0
15.0985 32.9323 3.97623
18.6973 33.2031 2
21.6333 33.5237 0.0237653
16.117 29.7764 2
16.4894 26.5714 0.0256155
19.2094 30.3556 0.0254989
13.3985 36.224 3.97674
15.5617 36.0427 2
18.5343 36.0074 0.0221107
13.0922 37.8285 2
11.6764 38.3039 3.97671
14.9245 39.1533 0.0230315
12.3579 40.1112 2
10.0556 40.7306 3.97627
12.8627 42.2219 0.0239968
10.4854 42.735 2
8.07626 43.2496 3.97396
10.8856 44.7418 0.0240754
8.54499 45.291 2
6.14539 45.9022 3.96484
9.07394 47.2819 0.0295023
6.7463 47.9945 2
4.42575 48.7521 3.97362
7.46597 50.0281 0.0361202
5.21487 50.9098 2
2.85457 51.8506 4
6.13832 53.0084 0.0257549
3.86727 54.0858 2
5.0241 56.25 0
12.4982 31.3202 3.97581
11.0878 28.4834 3.97554
13.3711 29.1289 2
9.57622 25.8404 3.96975
11.6809 26.5675 2
13.8926 26.9317 0.0245726
8.27046 23.0335 3.96417
10.3629 24.0168 2
12.2297 24.8733 0.0254671
7.20359 19.9794 3.97408
9.29746 21.1546 2
11.3105 22.2919 0.0340619
10.4252 19.3362 0.0369542
8.42035 18.0358 2
6.31992 16.6661 4
9.76544 16.1628 0.0288751
7.74926 14.6714 2
9.30607 12.7746 0
12.5333 34.3319 3.97655
15.098 32.9329 2
18.6983 33.2037 0.0241451
16.117 29.7766 0.0248437
11.2077 36.6224 3.97653
13.3979 36.224 2
15.5622 36.0426 0.0225121
13.0927 37.8285 0.0229186
11.6768 38.3036 2
9.63191 38.8157 3.97647
12.3578 40.1114 0.023462
10.0583 40.7302 2
7.67767 41.1993 3.97407
10.4826 42.7354 0.0243117
8.07723 43.249 2
5.65295 43.7661 3.96516
8.54272 45.2919 0.027578
6.1426 45.9017 2
3.77097 46.5371 3.97362
6.74899 47.9953 0.0357198
4.42628 48.7508 2
1.99014 49.554 4
5.21479 50.9118 0.0261365
2.85451 51.8506 2
3.86727 54.0858 0
11.2939 32.9642 3.9764
10.3902 30.4331 3.97558
12.498 31.3208 2
8.87709 27.7668 3.97078
11.0903 28.484 2
13.371 29.1291 0.025259
7.38679 24.9894 3.96443
9.57874 25.8411 2
11.6785 26.5672 0.0246071
6.12047 22.0014 3.97462
8.27235 23.0348 2
10.3606 24.0164 0.0315388
5.02411 18.75 4
7.20306 19.983 2
9.29123 21.153 0.0363375
8.4213 18.0317 0.0271808
6.3199 16.6661 2
7.74928 14.6715 0
10.7875 35.022 3.97637
12.5324 34.3319 2
15.0985 32.9323 0.023769
9.28597 36.9899 3.97655
11.2082 36.6225 2
13.3985 36.224 0.0232592
11.6764 38.3039 0.0232944
9.63475 38.8153 2
7.35176 39.1774 3.97392
10.0556 40.7306 0.0237343
7.6803 41.1989 2
5.2668 41.6125 3.96546
8.07626 43.2496 0.0260381
5.65246 43.7656 2
3.24847 44.2815 3.97426
6.14539 45.9022 0.0351642
3.77173 46.5364 2
1.27781 47.2057 4
4.42575 48.7521 0.0263849
1.99012 49.554 2
2.85457 51.8506 0
10.4165 33.9108 3.97608
9.65918 32.1902 3.97617
11.2948 32.9646 2
8.2089 29.722 3.97207
10.3925 30.434 2
12.4982 31.3202 0.0241947
6.61928 27.0129 3.96478
8.87996 27.7675 2
11.0878 28.4834 0.0244573
5.17542 24.0938 3.9744
7.38539 24.9902 2
9.57622 25.8404 0.0302546
3.86728 20.9142 4
6.12029 22.004 2
8.27046 23.0335 0.0358293
5.02406 18.75 2
7.20359 19.9794 0.0259177
6.31992 16.6661 0
9.09745 35.2947 3.97667
10.7884 35.022 2
12.5333 34.3319 0.0234505
7.12922 37.2074 3.97349
9.28902 36.9896 2
11.2077 36.6224 0.0234711
9.63191 38.8157 0.0235317
7.35463 39.1771 2
4.99387 39.4666 3.96635
7.67767 41.1993 0.0259298
5.26762 41.6121 2
2.85871 42.0017 3.97489
5.65295 43.7661 0.0348433
3.24897 44.2812 2
0.720592 44.8159 4
3.77097 46.5371 0.0263802
1.27778 47.2057 2
1.99014 49.554 0
9.13555 33.7217 3.9767
10.4183 33.911 2
7.63483 31.6281 3.97259
9.66231 32.1908 2
11.2939 32.9642 0.0236046
5.9567 29.0725 3.96504
8.21041 29.7225 2
10.3902 30.4331 0.0244238
4.36255 26.2467 3.97404
6.61633 27.0134 2
8.87709 27.7668 0.0292245
2.85458 23.1494 4
5.17567 24.0954 2
7.38679 24.9894 0.0355653
3.86728 20.9142 2
6.12047 22.0014 0.0253837
5.02411 18.75 0
7.07828 35.313 3.97305
9.10109 35.2946 2
10.7875 35.022 0.0236305
4.84387 37.34 3.96686
7.13235 37.2073 2
9.28597 36.9899 0.0234494
7.35176 39.1774 0.0260787
4.99462 39.4665 2
2.60649 39.7134 3.97553
5.2668 41.6125 0.0345397
2.85936 42.0017 2
0.320823 42.3947 4
3.24847 44.2815 0.0257391
0.720551 44.8159 2
1.27781 47.2057 0
7.24159 33.4734 3.9729
9.13907 33.722 2
10.4165 33.9108 0.0239219
5.42295 31.1358 3.96545
7.63711 31.6284 2
9.65918 32.1902 0.0238301
3.68379 28.4433 3.97409
5.9539 29.0728 2
8.2089 29.722 0.0279292
1.99015 25.446 4
4.36309 26.2476 2
6.61928 27.0129 0.0352222
2.85453 23.1494 2
5.17542 24.0938 0.0256003
3.86728 20.9142 0
4.85805 35.2526 3.96676
7.08053 35.3131 2
9.09745 35.2947 0.0233347
2.49789 37.4282 3.97652
4.84408 37.3401 2
7.12922 37.2074 0.026505
4.99387 39.4666 0.0336529
2.60726 39.7138 2
0.080333 39.9526 4
2.85871 42.0017 0.0251086
0.320817 42.3947 2
0.720592 44.8159 0
5.05168 33.1919 3.96624
7.24395 33.4736 2
9.13555 33.7217 0.0233036
3.14785 30.6665 3.97478
5.42318 31.136 2
7.63483 31.6281 0.0274057
1.27793 27.7943 4
3.68463 28.4438 2
5.9567 29.0725 0.0349573
1.99013 25.446 2
4.36255 26.2467 0.0259552
2.85458 23.1494 0
2.54993 35.159 3.97631
4.8589 35.2529 2
7.07828 35.313 0.0269476
0 37.5 4
2.49813 37.4287 2
4.84387 37.34 0.0331365
2.60649 39.7134 0.0244672
0.0802903 39.9526 2
0.320823 42.3947 0
2.76769 32.906 3.9761
5.05203 33.1922 2
7.24159 33.4734 0.027096
0.721173 30.1842 4
3.14851 30.6667 2
5.42295 31.1358 0.0345529
1.27779 27.7943 2
3.68379 28.4433 0.0259051
1.99015 25.446 0
0.0806499 35.0474 4
2.55078 35.1595 2
4.85805 35.2526 0.0332432
0 37.5 2
2.49789 37.4282 0.0234753
0.080333 39.9526 0
0.32156 32.6054 4
2.76799 32.9065 2
5.05168 33.1919 0.0337618
0.72056 30.1841 2
3.14785 30.6665 0.0252179
1.27793 27.7943 0
0.0802889 35.0474 2
2.54993 35.159 0.0236947
0 37.5 0
0.320817 32.6053 2
2.76769 32.906 0.0238976
0.721173 30.1842 0
0.0806499 35.0474 0
0.32156 32.6054 0
CELLS 1910 17190
8 18 6 25 56 2 0 5 16
8 57 23 6 18 17 4 0 2
8 78 36 9 29 31 11 1 7
8 31 11 1 7 79 37 10 30
8 110 57 18 50 48 17 2 14
8 50 18 56 111 14 2 16 49
8 116 62 22 55 52 20 3 15
8 56 25 67 118 16 5 24 53
8 119 63 23 57 54 21 4 17
8 55 22 63 119 15 3 21 54
8 58 26 68 121 18 6 25 56
8 122 65 26 58 57 23 6 18
8 73 31 7 27 142 79 30 71
8 143 78 29 72 73 31 7 27
8 83 147 76 34 32 74 28 8
8 84 148 78 36 33 75 29 9
8 76 34 8 28 148 84 33 75
8 37 79 150 86 10 30 77 35
8 151 87 36 78 80 38 11 31
8 80 38 11 31 152 88 37 79
8 175 100 42 94 96 44 12 40
8 44 96 176 101 12 40 95 43
8 101 176 98 46 43 95 41 13
8 46 98 178 103 13 41 97 45
8 178 103 45 97 147 83 32 74
8 189 116 55 109 106 52 15 47
8 111 56 118 191 49 16 53 107
8 192 119 57 110 108 54 17 48
8 109 55 119 192 47 15 54 108
8 194 122 58 112 110 57 18 50
8 112 58 121 195 50 18 56 111
8 115 61 19 51 197 124 59 113
8 115 61 125 198 51 19 60 114
8 198 125 62 116 114 60 20 52
8 200 127 64 120 116 62 22 55
8 118 67 132 202 53 24 66 117
8 121 68 133 203 56 25 67 118
8 120 64 128 204 55 22 63 119
8 204 128 65 122 119 63 23 57
8 206 134 68 121 123 69 26 58
8 123 69 26 58 207 131 65 122
8 226 147 74 138 140 76 28 70
8 229 148 75 139 143 78 29 72
8 140 76 28 70 229 148 75 139
8 142 79 30 71 231 150 77 141
8 144 80 31 73 232 152 79 142
8 233 151 78 143 144 80 31 73
8 150 86 35 77 235 154 81 145
8 235 154 81 145 146 82 39 91
8 146 82 39 91 236 155 90 165
8 238 157 83 147 149 85 34 76
8 239 158 84 148 151 87 36 78
8 149 85 34 76 239 158 84 148
8 152 88 37 79 241 160 86 150
8 242 161 87 151 153 89 38 80
8 153 89 38 80 243 162 88 152
8 171 98 41 92 265 178 97 169
8 265 178 97 169 226 147 74 138
8 172 96 40 93 266 176 95 170
8 266 176 95 170 171 98 41 92
8 269 175 94 173 172 96 40 93
8 271 180 99 174 175 100 42 94
8 197 124 59 113 271 180 99 174
8 272 181 100 175 177 102 44 96
8 273 182 101 176 179 104 46 98
8 177 102 44 96 273 182 101 176
8 179 104 46 98 275 184 103 178
8 275 184 103 178 238 157 83 147
8 188 115 51 105 283 197 113 186
8 188 115 198 284 105 51 114 187
8 284 198 116 189 187 114 52 106
8 286 200 120 193 189 116 55 109
8 191 118 202 288 107 53 117 190
8 195 121 203 289 111 56 118 191
8 193 120 204 290 109 55 119 192
8 290 204 122 194 192 119 57 110
8 196 123 58 112 292 207 122 194
8 293 206 121 195 196 123 58 112
8 199 126 61 115 297 211 124 197
8 298 212 127 200 198 125 62 116
8 199 126 212 298 115 61 125 198
8 205 129 64 120 300 214 127 200
8 301 217 130 201 202 132 66 117
8 209 136 168 264 301 217 130 201
8 302 219 132 202 203 133 67 118
8 303 220 133 203 206 134 68 121
8 205 129 215 304 120 64 128 204
8 304 215 131 207 204 128 65 122
8 306 221 134 206 208 135 69 123
8 208 135 69 123 307 218 131 207
8 210 137 167 263 309 223 136 209
8 328 238 147 226 230 149 76 140
8 228 146 91 166 329 236 165 260
8 231 150 77 141 330 235 145 227
8 330 235 145 227 228 146 91 166
8 332 239 148 229 233 151 78 143
8 230 149 76 140 332 239 148 229
8 232 152 79 142 334 241 150 231
8 234 153 80 144 335 243 152 232
8 336 242 151 233 234 153 80 144
8 236 155 90 165 338 245 164 259
8 241 160 86 150 339 246 154 235
8 339 246 154 235 237 156 82 146
8 237 156 82 146 340 247 155 236
8 342 249 157 238 240 159 85 149
8 343 250 158 239 242 161 87 151
8 240 159 85 149 343 250 158 239
8 243 162 88 152 345 252 160 241
8 244 163 253 346 153 89 161 242
8 244 163 89 153 347 254 162 243
8 311 224 261 371 210 137 167 263
8 263 167 262 372 209 136 168 264
8 267 179 98 171 375 275 178 265
8 375 275 178 265 328 238 147 226
8 376 273 176 266 267 179 98 171
8 268 177 96 172 376 273 176 266
8 379 272 175 269 268 177 96 172
8 380 271 174 270 269 175 94 173
8 283 197 113 186 380 271 174 270
8 381 277 180 271 272 181 100 175
8 297 211 124 197 381 277 180 271
8 382 278 181 272 274 183 102 177
8 274 183 102 177 383 279 182 273
8 383 279 182 273 276 185 104 179
8 385 281 184 275 342 249 157 238
8 276 185 104 179 385 281 184 275
8 285 199 115 188 393 297 197 283
8 394 298 200 286 284 198 116 189
8 285 199 298 394 188 115 198 284
8 291 205 120 193 396 300 200 286
8 397 301 201 287 288 202 117 190
8 295 209 264 374 397 301 201 287
8 398 302 202 288 289 203 118 191
8 399 303 203 289 293 206 121 195
8 291 205 304 400 193 120 204 290
8 400 304 207 292 290 204 122 194
8 294 208 123 196 402 307 207 292
8 403 306 206 293 294 208 123 196
8 296 210 263 373 405 309 209 295
8 408 312 213 299 297 211 126 199
8 299 213 313 409 199 126 212 298
8 409 313 214 300 298 212 127 200
8 305 216 129 205 411 315 214 300
8 412 318 217 301 302 219 132 202
8 309 223 136 209 412 318 217 301
8 413 320 219 302 303 220 133 203
8 306 221 321 414 206 134 220 303
8 307 218 131 207 415 316 215 304
8 305 216 316 415 205 129 215 304
8 417 322 221 306 308 222 135 208
8 308 222 135 208 418 319 218 307
8 310 225 137 210 420 325 223 309
8 423 326 224 311 310 225 137 210
8 329 236 165 260 441 338 259 368
8 442 342 238 328 333 240 149 230
8 331 237 146 228 443 340 236 329
8 334 241 150 231 444 339 235 330
8 444 339 235 330 331 237 146 228
8 446 343 239 332 336 242 151 233
8 333 240 149 230 446 343 239 332
8 335 243 152 232 448 345 241 334
8 337 244 153 234 449 347 243 335
8 337 244 346 450 234 153 242 336
8 338 245 164 259 452 349 258 367
8 340 247 155 236 453 350 245 338
8 345 252 160 241 454 351 246 339
8 454 351 246 339 341 248 156 237
8 341 248 156 237 455 352 247 340
8 240 159 251 344 342 249 354 457
8 242 161 253 346 343 250 355 458
8 343 250 355 458 240 159 251 344
8 347 254 162 243 460 357 252 345
8 348 255 358 461 244 163 253 346
8 348 255 163 244 462 359 254 347
8 473 360 257 365 363 256 364 482
8 452 349 258 367 365 257 366 485
8 422 324 369 488 311 224 261 371
8 371 261 370 490 263 167 262 372
8 407 311 371 491 296 210 263 373
8 373 263 372 492 295 209 264 374
8 493 385 275 375 442 342 238 328
8 377 276 179 267 493 385 275 375
8 378 274 177 268 494 383 273 376
8 494 383 273 376 377 276 179 267
8 497 382 272 379 378 274 177 268
8 498 381 271 380 379 272 175 269
8 393 297 197 283 498 381 271 380
8 499 387 277 381 382 278 181 272
8 408 312 211 297 499 387 277 381
8 500 388 278 382 384 280 183 274
8 501 389 279 383 386 282 185 276
8 384 280 183 274 501 389 279 383
8 386 282 185 276 503 391 281 385
8 503 391 281 385 457 354 249 342
8 511 408 299 395 393 297 199 285
8 395 299 409 512 285 199 298 394
8 512 409 300 396 394 298 200 286
8 401 305 205 291 514 411 300 396
8 515 412 301 397 398 302 202 288
8 405 309 209 295 515 412 301 397
8 516 413 302 398 399 303 203 289
8 403 306 414 517 293 206 303 399
8 402 307 207 292 518 415 304 400
8 401 305 415 518 291 205 304 400
8 404 308 208 294 520 418 307 402
8 521 417 306 403 404 308 208 294
8 406 310 210 296 523 420 309 405
8 526 423 311 407 406 310 210 296
8 410 314 213 299 527 424 312 408
8 528 425 315 411 409 313 214 300
8 410 314 425 528 299 213 313 409
8 416 317 216 305 530 427 315 411
8 531 430 318 412 413 320 219 302
8 420 325 223 309 531 430 318 412
8 532 432 320 413 414 321 220 303
8 417 322 433 533 306 221 321 414
8 418 319 218 307 534 428 316 415
8 416 317 428 534 305 216 316 415
8 419 323 434 536 308 222 322 417
8 419 323 222 308 537 431 319 418
8 421 327 225 310 539 438 325 420
8 421 327 439 541 310 225 326 423
8 543 437 324 422 423 326 224 311
8 441 338 259 368 559 452 367 486
8 443 340 236 329 560 453 338 441
8 333 240 344 447 442 342 457 561
8 445 341 237 331 562 455 340 443
8 448 345 241 334 563 454 339 444
8 563 454 339 444 445 341 237 331
8 336 242 346 450 446 343 458 565
8 446 343 458 565 333 240 344 447
8 449 347 243 335 567 460 345 448
8 451 348 244 337 568 462 347 449
8 451 348 461 569 337 244 346 450
8 570 463 349 452 473 360 257 365
8 453 350 245 338 570 463 349 452
8 455 352 247 340 571 464 350 453
8 460 357 252 345 572 465 351 454
8 572 465 351 454 456 353 248 341
8 456 353 248 341 573 466 352 455
8 344 251 356 459 457 354 468 575
8 458 355 469 576 344 251 356 459
8 346 253 358 461 458 355 469 576
8 462 359 254 347 578 471 357 460
8 348 255 359 462 461 358 472 579
8 591 474 360 473 475 361 256 363
8 475 361 256 363 594 477 362 479
8 363 256 364 482 479 362 480 603
8 590 473 365 484 481 363 482 605
8 482 364 257 365 606 483 366 485
8 559 452 367 486 484 365 485 607
8 542 436 487 609 422 324 369 488
8 525 422 488 611 407 311 371 491
8 488 369 489 612 371 261 370 490
8 491 371 490 613 373 263 372 492
8 495 386 276 377 614 503 385 493
8 614 503 385 493 561 457 342 442
8 615 501 383 494 495 386 276 377
8 496 384 274 378 615 501 383 494
8 618 500 382 497 496 384 274 378
8 619 499 381 498 497 382 272 379
8 511 408 297 393 619 499 381 498
8 620 505 387 499 500 388 278 382
8 527 424 312 408 620 505 387 499
8 502 390 506 621 384 280 388 500
8 622 507 389 501 504 392 282 386
8 502 390 280 384 622 507 389 501
8 504 392 282 386 624 509 391 503
8 624 509 391 503 575 468 354 457
8 513 410 299 395 630 527 408 511
8 631 528 411 514 512 409 300 396
8 513 410 528 631 395 299 409 512
8 519 416 305 401 633 530 411 514
8 634 531 412 515 516 413 302 398
8 523 420 309 405 634 531 412 515
8 635 532 413 516 517 414 303 399
8 521 417 533 636 403 306 414 517
8 520 418 307 402 637 534 415 518
8 519 416 534 637 401 305 415 518
8 522 419 308 404 639 537 418 520
8 522 419 536 640 404 308 417 521
8 524 421 310 406 642 539 420 523
8 524 421 541 644 406 310 423 526
8 646 543 422 525 526 423 311 407
8 529 426 314 410 647 544 424 527
8 528 425 545 648 411 315 427 530
8 529 426 545 648 410 314 425 528
8 535 429 317 416 649 546 427 530
8 650 548 430 531 532 432 320 413
8 539 438 325 420 650 548 430 531
8 533 433 550 651 414 321 432 532
8 536 434 551 652 417 322 433 533
8 537 431 319 418 653 547 428 534
8 535 429 547 653 416 317 428 534
8 538 435 552 654 419 323 434 536
8 538 435 323 419 655 549 431 537
8 540 440 327 421 657 556 438 539
8 540 440 557 659 421 327 439 541
8 541 439 555 660 423 326 437 543
8 661 554 436 542 543 437 324 422
8 676 570 452 559 590 473 365 484
8 560 453 338 441 676 570 452 559
8 562 455 340 443 677 571 453 560
8 447 344 459 566 561 457 575 678
8 564 456 341 445 679 573 455 562
8 567 460 345 448 680 572 454 563
8 680 572 454 563 564 456 341 445
8 565 458 576 682 447 344 459 566
8 450 346 461 569 565 458 576 682
8 568 462 347 449 684 578 460 567
8 451 348 462 568 569 461 579 685
8 686 580 463 570 591 474 360 473
8 571 464 350 453 686 580 463 570
8 573 466 352 455 687 581 464 571
8 572 465 582 688 460 357 471 578
8 574 467 582 688 456 353 465 572
8 574 467 353 456 689 583 466 573
8 459 356 470 577 575 468 585 691
8 576 469 586 692 459 356 470 577
8 461 358 472 579 576 469 586 692
8 462 359 471 578 579 472 588 694
8 704 591 473 590 593 475 363 481
8 595 476 592 705 475 361 474 591
8 593 475 363 481 707 594 479 602
8 594 477 362 479 709 598 478 600
8 595 476 361 475 711 597 477 594
8 479 362 480 603 600 478 601 720
8 481 363 482 605 602 479 603 722
8 603 480 364 482 723 604 483 606
8 605 482 365 484 724 606 485 607
8 656 553 608 726 542 436 487 609
8 645 542 609 728 525 422 488 611
8 609 487 610 729 488 369 489 612
8 611 488 612 730 491 371 490 613
8 616 504 386 495 731 624 503 614
8 731 624 503 614 678 575 457 561
8 732 622 501 615 616 504 386 495
8 617 502 384 496 732 622 501 615
8 617 502 621 735 496 384 500 618
8 736 620 499 619 618 500 382 497
8 630 527 408 511 736 620 499 619
8 621 506 626 737 500 388 505 620
8 647 544 424 527 737 626 505 620
8 623 508 627 738 502 390 506 621
8 623 508 390 502 739 628 507 622
8 625 510 628 739 504 392 507 622
8 740 629 509 624 691 585 468 575
8 625 510 392 504 740 629 509 624
8 632 529 410 513 744 647 527 630
8 631 528 648 745 514 411 530 633
8 632 529 648 745 513 410 528 631
8 638 535 416 519 746 649 530 633
8 747 650 531 634 635 532 413 516
8 642 539 420 523 747 650 531 634
8 636 533 651 748 517 414 532 635
8 640 536 652 749 521 417 533 636
8 639 537 418 520 750 653 534 637
8 638 535 653 750 519 416 534 637
8 641 538 419 522 751 655 537 639
8 641 538 654 752 522 419 536 640
8 643 540 421 524 753 657 539 642
8 643 540 659 755 524 421 541 644
8 644 541 660 757 526 423 543 646
8 758 661 542 645 646 543 422 525
8 529 426 544 647 648 545 662 759
8 530 427 545 648 649 546 663 760
8 535 429 546 649 653 547 664 761
8 762 666 548 650 651 550 432 532
8 657 556 438 539 762 666 548 650
8 652 551 668 763 533 433 550 651
8 654 552 669 764 536 434 551 652
8 655 549 431 537 765 665 547 653
8 538 435 549 655 654 552 667 766
8 661 554 671 768 542 436 553 656
8 658 558 440 540 769 674 556 657
8 658 558 675 770 540 440 557 659
8 659 557 673 771 541 439 555 660
8 660 555 672 772 543 437 554 661
8 788 686 570 676 704 591 473 590
8 677 571 453 560 788 686 570 676
8 679 573 455 562 789 687 571 677
8 566 459 577 683 678 575 691 790
8 681 574 456 564 791 689 573 679
8 680 572 688 792 567 460 578 684
8 681 574 688 792 564 456 572 680
8 682 576 692 794 566 459 577 683
8 569 461 579 685 682 576 692 794
8 568 462 578 684 685 579 694 796
8 687 581 464 571 798 696 580 686
8 798 696 580 686 705 592 474 591
8 689 583 466 573 799 697 581 687
8 688 582 698 800 578 471 588 694
8 690 584 698 800 574 467 582 688
8 690 584 467 574 801 699 583 689
8 693 587 701 803 577 470 585 691
8 693 587 470 577 804 702 586 692
8 695 589 702 804 579 472 586 692
8 695 589 472 579 805 703 588 694
8 708 595 705 813 593 475 591 704
8 710 596 706 814 595 476 592 705
8 707 594 479 602 816 709 600 719
8 708 595 475 593 817 711 594 707
8 709 598 478 600 819 715 599 717
8 711 597 477 594 820 714 598 709
8 710 596 476 595 822 713 597 711
8 600 478 601 720 717 599 718 832
8 602 479 603 722 719 600 720 834
8 720 601 480 603 835 721 604 723
8 722 603 482 605 836 723 606 724
8 767 670 725 839 656 553 608 726
8 756 656 726 841 645 542 609 728
8 726 608 727 842 609 487 610 729
8 728 609 729 843 611 488 612 730
8 844 740 624 731 790 691 575 678
8 733 625 504 616 844 740 624 731
8 734 623 502 617 845 739 622 732
8 733 625 739 845 616 504 622 732
8 734 623 738 846 617 502 621 735
8 735 621 737 847 618 500 620 736
8 744 647 527 630 847 737 620 736
8 621 506 627 738 737 626 741 848
8 647 544 626 737 759 662 741 848
8 623 508 628 739 738 627 742 849
8 740 629 585 691 850 743 700 802
8 625 510 629 740 739 628 743 850
8 632 529 647 744 745 648 759 854
8 633 530 648 745 746 649 760 855
8 638 535 649 746 750 653 761 856
8 857 762 650 747 748 651 532 635
8 753 657 539 642 857 762 650 747
8 749 652 763 858 636 533 651 748
8 752 654 764 859 640 536 652 749
8 751 655 537 639 860 765 653 750
8 641 538 655 751 752 654 766 861
8 754 658 540 643 862 769 657 753
8 754 658 770 863 643 540 659 755
8 755 659 771 864 644 541 660 757
8 758 661 768 866 645 542 656 756
8 757 660 772 867 646 543 661 758
8 759 662 773 868 648 545 663 760
8 649 546 663 760 761 664 774 871
8 765 665 547 653 872 775 664 761
8 873 777 666 762 763 668 550 651
8 769 674 556 657 873 777 666 762
8 764 669 779 874 652 551 668 763
8 654 552 667 766 764 669 778 875
8 655 549 665 765 766 667 776 876
8 768 671 782 877 656 553 670 767
8 772 672 783 878 661 554 671 768
8 658 558 674 769 770 675 786 879
8 659 557 675 770 771 673 785 881
8 882 784 672 772 771 673 555 660
8 789 687 571 677 897 798 686 788
8 897 798 686 788 813 705 591 704
8 791 689 573 679 898 799 687 789
8 795 693 803 900 683 577 691 790
8 793 690 574 681 901 801 689 791
8 792 688 800 902 684 578 694 796
8 793 690 800 902 681 574 688 792
8 795 693 577 683 903 804 692 794
8 797 695 804 903 685 579 692 794
8 797 695 579 685 904 805 694 796
8 905 806 697 799 798 696 581 687
8 814 706 806 905 705 592 696 798
8 689 583 697 799 801 699 808 907
8 800 698 809 908 694 588 703 805
8 690 584 699 801 800 698 809 908
8 803 701 810 909 691 585 700 802
8 693 587 702 804 803 701 811 910
8 695 589 703 805 804 702 812 911
8 818 710 814 919 708 595 705 813
8 821 712 815 920 710 596 706 814
8 816 709 600 719 922 819 717 831
8 817 711 594 707 923 820 709 816
8 818 710 595 708 924 822 711 817
8 819 715 599 717 926 827 716 829
8 820 714 598 709 927 826 715 819
8 929 825 713 822 820 714 597 711
8 821 712 596 710 930 824 713 822
8 717 599 718 832 829 716 830 942
8 719 600 720 834 831 717 832 944
8 832 718 601 720 945 833 721 835
8 834 720 603 722 946 835 723 836
8 869 780 838 950 767 670 725 839
8 865 767 839 952 756 656 726 841
8 839 725 840 953 726 608 727 842
8 841 726 842 954 728 609 729 843
8 844 740 691 790 955 850 802 899
8 733 625 740 844 845 739 850 955
8 734 623 739 845 846 738 849 956
8 735 621 738 846 847 737 848 957
8 744 647 737 847 854 759 848 957
8 738 627 742 849 848 741 851 958
8 848 741 851 958 759 662 773 868
8 850 743 700 802 959 852 807 906
8 849 742 628 739 959 852 743 850
8 854 759 868 965 745 648 760 855
8 746 649 760 855 856 761 871 966
8 860 765 653 750 967 872 761 856
8 968 873 762 857 858 763 651 748
8 862 769 657 753 968 873 762 857
8 859 764 874 969 749 652 763 858
8 752 654 766 861 859 764 875 970
8 751 655 765 860 861 766 876 971
8 754 658 769 862 863 770 879 972
8 755 659 770 863 864 771 881 974
8 976 882 772 867 864 771 660 757
8 866 768 877 977 756 656 767 865
8 867 772 878 978 758 661 768 866
8 760 663 773 868 871 774 883 980
8 870 781 837 948 982 890 780 869
8 982 890 780 869 877 782 670 767
8 761 664 774 871 872 775 884 984
8 876 776 665 765 985 885 775 872
8 873 777 668 763 986 887 779 874
8 769 674 777 873 879 786 887 986
8 764 669 778 875 874 779 888 987
8 766 667 776 876 875 778 886 988
8 878 783 892 989 768 671 782 877
8 878 783 672 772 990 893 784 882
8 880 787 675 770 991 896 786 879
8 880 787 895 992 770 675 785 881
8 881 785 894 993 771 673 784 882
8 1006 905 799 898 897 798 687 789
8 919 814 905 1006 813 705 798 897
8 791 689 799 898 901 801 907 1007
8 900 803 909 1009 790 691 802 899
8 795 693 804 903 900 803 910 1010
8 902 800 908 1011 796 694 805 904
8 793 690 801 901 902 800 908 1011
8 797 695 805 904 903 804 911 1012
8 799 697 806 905 907 808 912 1013
8 920 815 912 1013 814 706 806 905
8 802 700 810 909 906 807 913 1014
8 801 699 808 907 908 809 914 1015
8 805 703 809 908 911 812 915 1016
8 803 701 811 910 909 810 916 1017
8 911 812 917 1018 804 702 811 910
8 925 821 920 1030 818 710 814 919
8 928 823 921 1031 821 712 815 920
8 922 819 717 831 1033 926 829 941
8 923 820 709 816 1034 927 819 922
8 1035 929 822 924 923 820 711 817
8 925 821 710 818 1036 930 822 924
8 1038 933 825 929 927 826 714 820
8 926 827 716 829 1039 935 828 939
8 927 826 715 819 1040 934 827 926
8 928 823 712 821 1041 931 824 930
8 1042 932 824 930 929 825 713 822
8 829 716 830 942 939 828 940 1058
8 831 717 832 944 941 829 942 1060
8 942 830 718 832 1061 943 833 945
8 944 832 720 834 1062 945 835 946
8 981 889 947 1064 870 781 837 948
8 948 837 949 1067 869 780 838 950
8 975 869 950 1069 865 767 839 952
8 950 838 951 1070 839 725 840 953
8 952 839 953 1071 841 726 842 954
8 955 850 802 899 1072 959 906 1008
8 956 849 739 845 1072 959 850 955
8 846 738 849 956 957 848 958 1073
8 957 848 958 1073 854 759 868 965
8 849 742 852 959 958 851 961 1076
8 960 853 961 1076 906 807 852 959
8 958 851 961 1076 868 773 883 980
8 960 853 807 906 1077 963 913 1014
8 855 760 868 965 966 871 980 1085
8 856 761 871 966 967 872 984 1086
8 971 876 765 860 1087 985 872 967
8 968 873 763 858 1088 986 874 969
8 862 769 873 968 972 879 986 1088
8 859 764 875 970 969 874 987 1089
8 861 766 876 971 970 875 988 1090
8 973 880 770 863 1091 991 879 972
8 973 880 992 1092 863 770 881 974
8 974 881 993 1093 864 771 882 976
8 979 870 948 1066 1094 982 869 975
8 1094 982 869 975 977 877 767 865
8 978 878 772 867 1095 990 882 976
8 978 878 989 1096 866 768 877 977
8 871 774 883 980 984 884 994 1099
8 983 891 999 1100 870 781 889 981
8 1101 1000 890 982 989 892 782 877
8 983 891 781 870 1101 1000 890 982
8 872 775 884 984 985 885 995 1103
8 876 776 885 985 988 886 996 1104
8 986 887 779 874 1105 998 888 987
8 879 786 887 986 991 896 998 1105
8 875 778 886 988 987 888 997 1106
8 990 893 1002 1107 878 783 892 989
8 1108 1003 893 990 993 894 784 882
8 880 787 896 991 992 895 1005 1109
8 993 894 785 881 1110 1004 895 992
8 898 799 905 1006 1007 907 1013 1120
8 1030 920 1013 1120 919 814 905 1006
8 901 801 907 1007 1011 908 1015 1121
8 899 802 909 1009 1008 906 1014 1122
8 900 803 910 1010 1009 909 1017 1123
8 1012 911 1018 1124 903 804 910 1010
8 904 805 908 1011 1012 911 1016 1125
8 1013 912 1020 1127 907 808 914 1015
8 1031 921 1020 1127 920 815 912 1013
8 1019 918 962 1075 1128 1021 913 1014
8 1128 1021 913 1014 1017 916 810 909
8 1015 914 1022 1129 908 809 915 1016
8 1016 915 1023 1130 911 812 917 1018
8 1018 917 1024 1131 910 811 916 1017
8 1037 928 1031 1148 925 821 920 1030
8 928 823 931 1041 1031 921 1032 1149
8 1033 926 829 941 1151 1039 939 1057
8 1034 927 819 922 1152 1040 926 1033
8 1153 1038 929 1035 1034 927 820 923
8 1154 1042 930 1036 1035 929 822 924
8 1037 928 821 925 1155 1041 930 1036
8 1039 935 828 939 1156 1047 938 1055
8 1157 1043 932 1042 1038 933 825 929
8 1038 933 826 927 1158 1045 934 1040
8 1040 934 827 926 1159 1046 935 1039
8 930 824 932 1042 1041 931 1044 1160
8 1051 936 1048 1165 1175 1052 937 1053
8 1156 1047 938 1055 1053 937 1054 1178
8 939 828 940 1058 1055 938 1056 1181
8 941 829 942 1060 1057 939 1058 1183
8 942 830 943 1061 1058 940 1059 1184
8 1060 942 832 944 1185 1061 945 1062
8 1082 964 1063 1188 981 889 947 1064
8 1097 981 1064 1190 979 870 948 1066
8 1064 947 1065 1191 948 837 949 1067
8 1066 948 1067 1193 975 869 950 1069
8 1067 949 1068 1194 950 838 951 1070
8 1069 950 1070 1195 952 839 953 1071
8 956 849 959 1072 1073 958 1076 1197
8 1074 960 1076 1197 1008 906 959 1072
8 1073 958 1076 1197 965 868 980 1085
8 1074 960 906 1008 1198 1077 1014 1122
8 1133 1026 1079 1199 1019 918 962 1075
8 1077 963 913 1014 1200 1080 962 1075
8 960 853 963 1077 1076 961 1078 1201
8 980 883 961 1076 1099 994 1078 1201
8 1210 1083 964 1082 1100 999 889 981
8 966 871 980 1085 1086 984 1099 1215
8 967 872 984 1086 1087 985 1103 1216
8 971 876 985 1087 1090 988 1104 1217
8 1088 986 874 969 1218 1105 987 1089
8 972 879 986 1088 1091 991 1105 1218
8 970 875 988 1090 1089 987 1106 1219
8 973 880 991 1091 1092 992 1109 1220
8 1093 993 881 974 1221 1110 992 1092
8 1222 1108 990 1095 1093 993 882 976
8 1223 1101 982 1094 1096 989 877 977
8 1098 983 870 979 1223 1101 982 1094
8 1095 990 1107 1224 978 878 989 1096
8 1098 983 1100 1225 979 870 981 1097
8 984 884 994 1099 1103 995 1111 1227
8 1102 1001 1115 1228 983 891 999 1100
8 1101 1000 892 989 1229 1116 1002 1107
8 1102 1001 891 983 1229 1116 1000 1101
8 985 885 995 1103 1104 996 1112 1230
8 988 886 996 1104 1106 997 1113 1231
8 1105 998 888 987 1232 1114 997 1106
8 991 896 998 1105 1109 1005 1114 1232
8 1108 1003 1117 1233 990 893 1002 1107
8 1108 1003 894 993 1233 1117 1004 1110
8 992 895 1005 1109 1110 1004 1118 1234
8 1120 1013 1127 1244 1007 907 1015 1121
8 1148 1031 1127 1244 1030 920 1013 1120
8 1121 1015 1129 1245 1011 908 1016 1125
8 1126 1019 1075 1196 1246 1128 1014 1122
8 1246 1128 1014 1122 1123 1017 909 1009
8 1124 1018 1131 1247 1010 910 1017 1123
8 1125 1016 1130 1248 1012 911 1018 1124
8 1127 1020 1137 1254 1015 914 1022 1129
8 1031 921 1032 1149 1127 1020 1137 1254
8 1134 1027 918 1019 1257 1140 1021 1128
8 1257 1140 1021 1128 1131 1024 916 1017
8 1129 1022 1141 1258 1016 915 1023 1130
8 1130 1023 1142 1259 1018 917 1024 1131
8 1261 1144 1025 1132 1133 1026 1079 1199
8 1255 1138 1025 1132 1135 1028 1144 1261
8 1133 1026 918 1019 1262 1145 1027 1134
8 1136 1029 1139 1256 1263 1146 1028 1135
8 1037 928 1041 1155 1148 1031 1149 1275
8 1041 931 1044 1160 1149 1032 1150 1276
8 1151 1039 939 1057 1278 1156 1055 1180
8 1152 1040 926 1033 1279 1159 1039 1151
8 1153 1038 927 1034 1280 1158 1040 1152
8 1281 1157 1042 1154 1153 1038 929 1035
8 1036 930 1042 1154 1155 1041 1160 1282
8 1283 1164 1046 1159 1156 1047 935 1039
8 1165 1048 1164 1283 1053 937 1047 1156
8 1157 1043 933 1038 1284 1161 1045 1158
8 1157 1043 1161 1284 1042 932 1044 1160
8 1040 934 1046 1159 1158 1045 1163 1285
8 1166 1049 1167 1292 1051 936 1048 1165
8 1166 1049 936 1051 1293 1168 1050 1172
8 1051 936 1052 1175 1172 1050 1173 1306
8 1174 1051 1165 1290 1308 1175 1053 1177
8 1053 937 1054 1178 1175 1052 1176 1309
8 1278 1156 1055 1180 1177 1053 1178 1311
8 1055 938 1056 1181 1178 1054 1179 1312
8 1057 939 1058 1183 1180 1055 1181 1314
8 1058 940 1059 1184 1181 1056 1182 1315
8 1060 942 1061 1185 1183 1058 1184 1316
8 1208 1081 1187 1321 1082 964 1063 1188
8 1209 1082 1188 1322 1097 981 1064 1190
8 1188 1063 1189 1323 1064 947 1065 1191
8 1190 1064 1191 1325 1066 948 1067 1193
8 1191 1065 1192 1326 1067 949 1068 1194
8 1067 1193 1069 950 1194 1327 1195 1070
8 1250 1133 1199 1330 1126 1019 1075 1196
8 1198 1077 1014 1122 1331 1200 1075 1196
8 1074 960 1077 1198 1197 1076 1201 1332
8 1085 980 1076 1197 1215 1099 1201 1332
8 1199 1079 1203 1333 1075 962 1080 1200
8 1132 1025 1119 1243 1199 1079 1203 1333
8 1201 1078 963 1077 1334 1202 1080 1200
8 1099 994 1078 1201 1227 1111 1202 1334
8 1343 1207 1081 1208 1210 1083 964 1082
8 1214 1084 1186 1319 1343 1207 1081 1208
8 1345 1210 1082 1209 1225 1100 981 1097
8 1346 1211 1083 1210 1228 1115 999 1100
8 1086 984 1099 1215 1216 1103 1227 1352
8 1087 985 1103 1216 1217 1104 1230 1353
8 1090 988 1104 1217 1219 1106 1231 1354
8 1218 1105 987 1089 1355 1232 1106 1219
8 1091 991 1105 1218 1220 1109 1232 1355
8 1092 992 1109 1220 1221 1110 1234 1356
8 1222 1108 1233 1357 1095 990 1107 1224
8 1222 1108 993 1093 1357 1233 1110 1221
8 1223 1101 989 1096 1358 1229 1107 1224
8 1226 1102 983 1098 1358 1229 1101 1223
8 1226 1102 1228 1359 1098 983 1100 1225
8 1103 995 1111 1227 1230 1112 1235 1360
8 1107 1002 1117 1233 1229 1116 1240 1362
8 1102 1001 1116 1229 1228 1115 1240 1362
8 1104 996 1112 1230 1231 1113 1236 1363
8 1364 1237 1114 1232 1231 1113 997 1106
8 1109 1005 1114 1232 1234 1118 1238 1365
8 1110 1004 1118 1234 1233 1117 1241 1366
8 1242 1374 1255 1138 1119 1243 1132 1025
8 1244 1127 1254 1376 1121 1015 1129 1245
8 1148 1031 1149 1275 1244 1127 1254 1376
8 1245 1129 1258 1377 1125 1016 1130 1248
8 1251 1134 1019 1126 1378 1257 1128 1246
8 1378 1257 1128 1246 1247 1131 1017 1123
8 1248 1130 1259 1379 1124 1018 1131 1247
8 1261 1381 1250 1133 1132 1249 1330 1199
8 1255 1380 1252 1135 1132 1249 1381 1261
8 1250 1133 1019 1126 1382 1262 1134 1251
8 1253 1136 1256 1385 1384 1263 1135 1252
8 1254 1137 1265 1387 1129 1022 1141 1258
8 1149 1032 1150 1276 1254 1137 1265 1387
8 1028 1135 1255 1138 1139 1256 1388 1266
8 1136 1029 1147 1264 1256 1139 1267 1389
8 1390 1268 1140 1257 1259 1142 1024 1131
8 1260 1143 1027 1134 1390 1268 1140 1257
8 1258 1141 1269 1391 1130 1023 1142 1259
8 1262 1145 1027 1134 1393 1271 1143 1260
8 1261 1144 1026 1133 1394 1272 1145 1262
8 1135 1028 1144 1261 1263 1146 1272 1394
8 1136 1029 1146 1263 1264 1147 1273 1395
8 1155 1041 1160 1282 1275 1149 1276 1405
8 1276 1150 1044 1160 1406 1277 1162 1286
8 1408 1283 1159 1279 1278 1156 1039 1151
8 1290 1165 1283 1408 1177 1053 1156 1278
8 1152 1040 1159 1279 1280 1158 1285 1409
8 1281 1157 1038 1153 1410 1284 1158 1280
8 1281 1157 1284 1410 1154 1042 1160 1282
8 1159 1046 1164 1283 1285 1163 1289 1412
8 1292 1167 1289 1412 1165 1048 1164 1283
8 1158 1045 1163 1285 1284 1161 1288 1413
8 1284 1161 1288 1413 1160 1044 1162 1286
8 1291 1166 1292 1418 1174 1051 1165 1290
8 1291 1166 1051 1174 1419 1293 1172 1305
8 1294 1169 1296 1421 1166 1049 1167 1292
8 1293 1168 1050 1172 1422 1295 1171 1303
8 1294 1169 1049 1166 1423 1297 1168 1293
8 1422 1295 1171 1303 1301 1170 1302 1435
8 1172 1050 1173 1306 1303 1171 1304 1438
8 1174 1051 1175 1308 1305 1172 1306 1440
8 1175 1052 1176 1309 1306 1173 1307 1441
8 1177 1053 1178 1311 1308 1175 1309 1443
8 1178 1054 1179 1312 1309 1176 1310 1444
8 1180 1055 1181 1314 1311 1178 1312 1446
8 1056 1181 1312 1179 1182 1315 1447 1313
8 1183 1058 1184 1316 1314 1181 1315 1448
8 1319 1186 1084 1214 1451 1317 1213 1350
8 1319 1186 1318 1453 1208 1081 1187 1321
8 1321 1187 1320 1456 1188 1063 1189 1323
8 1344 1208 1321 1457 1209 1082 1188 1322
8 1322 1188 1323 1458 1190 1064 1191 1325
8 1323 1189 1324 1459 1191 1065 1192 1326
8 1191 1325 1193 1067 1326 1460 1327 1194
8 1242 1374 1243 1119 1328 1462 1335 1204
8 1330 1199 1333 1465 1196 1075 1200 1331
8 1132 1249 1330 1199 1243 1375 1465 1333
8 1332 1201 1077 1198 1466 1334 1200 1331
8 1215 1099 1201 1332 1352 1227 1334 1466
8 1119 1243 1333 1203 1204 1335 1470 1338
8 1333 1203 1338 1470 1200 1080 1202 1334
8 1227 1111 1202 1334 1360 1235 1338 1470
8 1328 1462 1335 1204 1205 1336 1471 1339
8 1337 1206 1340 1472 1464 1329 1205 1336
8 1346 1211 1342 1479 1210 1083 1207 1343
8 1346 1211 1115 1228 1479 1342 1239 1361
8 1348 1212 1084 1214 1479 1342 1207 1343
8 1480 1343 1208 1344 1345 1210 1082 1209
8 1351 1214 1319 1454 1480 1343 1208 1344
8 1481 1346 1210 1345 1359 1228 1100 1225
8 1348 1212 1347 1483 1214 1084 1213 1350
8 1216 1103 1227 1352 1353 1230 1360 1488
8 1217 1104 1230 1353 1354 1231 1363 1489
8 1490 1364 1232 1355 1354 1231 1106 1219
8 1220 1109 1232 1355 1356 1234 1365 1491
8 1221 1110 1234 1356 1357 1233 1366 1492
8 1224 1107 1233 1357 1358 1229 1362 1493
8 1226 1102 1229 1358 1359 1228 1362 1493
8 1230 1112 1235 1360 1363 1236 1367 1496
8 1361 1239 1115 1228 1497 1371 1240 1362
8 1366 1241 1372 1498 1233 1117 1240 1362
8 1364 1237 1113 1231 1499 1368 1236 1363
8 1364 1237 1368 1499 1232 1114 1238 1365
8 1234 1118 1238 1365 1366 1241 1369 1500
8 1507 1373 1242 1374 1388 1266 1138 1255
8 1508 1374 1243 1375 1380 1255 1132 1249
8 1376 1254 1387 1509 1245 1129 1258 1377
8 1275 1149 1276 1405 1376 1254 1387 1509
8 1377 1258 1391 1510 1248 1130 1259 1379
8 1511 1390 1257 1378 1379 1259 1131 1247
8 1383 1260 1134 1251 1511 1390 1257 1378
8 1252 1135 1256 1385 1380 1255 1388 1512
8 1261 1381 1513 1394 1133 1250 1382 1262
8 1135 1252 1384 1263 1261 1381 1513 1394
8 1382 1262 1134 1251 1514 1393 1260 1383
8 1253 1136 1263 1384 1386 1264 1395 1516
8 1253 1136 1264 1386 1385 1256 1389 1517
8 1387 1265 1397 1519 1258 1141 1269 1391
8 1276 1150 1277 1406 1387 1265 1397 1519
8 1256 1139 1267 1389 1388 1266 1398 1520
8 1264 1147 1274 1396 1389 1267 1399 1521
8 1392 1270 1143 1260 1522 1400 1268 1390
8 1390 1268 1142 1259 1522 1400 1269 1391
8 1392 1270 1401 1523 1260 1143 1271 1393
8 1272 1394 1524 1402 1145 1262 1393 1271
8 1395 1273 1146 1263 1524 1402 1272 1394
8 1273 1395 1264 1147 1403 1526 1396 1274
8 1405 1276 1160 1282 1534 1406 1286 1411
8 1414 1287 1407 1535 1286 1162 1277 1406
8 1279 1159 1283 1408 1409 1285 1412 1537
8 1418 1292 1412 1537 1290 1165 1283 1408
8 1280 1158 1285 1409 1410 1284 1413 1538
8 1410 1284 1413 1538 1282 1160 1286 1411
8 1285 1163 1289 1412 1413 1288 1417 1540
8 1421 1296 1417 1540 1292 1167 1289 1412
8 1414 1287 1162 1286 1541 1416 1288 1413
8 1420 1294 1421 1545 1291 1166 1292 1418
8 1419 1293 1172 1305 1546 1422 1303 1437
8 1420 1294 1166 1291 1547 1423 1293 1419
8 1294 1169 1297 1423 1421 1296 1425 1548
8 1423 1297 1168 1293 1549 1424 1295 1422
8 1301 1170 1298 1427 1422 1295 1424 1549
8 1432 1300 1428 1554 1301 1170 1298 1427
8 1431 1299 1428 1554 1560 1430 1300 1432
8 1563 1433 1300 1432 1435 1302 1170 1301
8 1546 1422 1303 1437 1434 1301 1435 1565
8 1303 1171 1304 1438 1435 1302 1436 1566
8 1305 1172 1306 1440 1437 1303 1438 1568
8 1306 1173 1307 1441 1438 1304 1439 1569
8 1308 1175 1309 1443 1440 1306 1441 1571
8 1309 1176 1310 1444 1441 1307 1442 1572
8 1311 1178 1312 1446 1443 1309 1444 1574
8 1179 1312 1444 1310 1313 1447 1575 1445
8 1314 1181 1315 1448 1446 1312 1447 1576
8 1350 1213 1349 1486 1451 1317 1449 1579
8 1451 1317 1450 1581 1319 1186 1318 1453
8 1454 1319 1214 1351 1582 1451 1350 1487
8 1453 1318 1452 1584 1321 1187 1320 1456
8 1454 1319 1453 1585 1344 1208 1321 1457
8 1456 1320 1455 1586 1323 1189 1324 1459
8 1457 1321 1456 1587 1322 1188 1323 1458
8 1458 1323 1459 1588 1325 1191 1326 1460
8 1205 1336 1464 1329 1328 1462 1590 1461
8 1507 1373 1461 1590 1374 1242 1328 1462
8 1508 1374 1462 1591 1375 1243 1335 1467
8 1337 1206 1329 1464 1473 1341 1463 1594
8 1375 1243 1335 1467 1465 1333 1470 1596
8 1465 1333 1470 1596 1331 1200 1334 1466
8 1352 1227 1334 1466 1488 1360 1470 1596
8 1591 1462 1336 1468 1467 1335 1471 1597
8 1469 1337 1472 1598 1595 1464 1336 1468
8 1471 1339 1474 1600 1335 1204 1338 1470
8 1600 1474 1367 1496 1470 1338 1235 1360
8 1336 1205 1340 1472 1471 1339 1475 1601
8 1337 1206 1341 1473 1472 1340 1476 1602
8 1495 1370 1478 1609 1361 1239 1342 1479
8 1348 1212 1342 1479 1483 1347 1478 1609
8 1481 1346 1479 1610 1345 1210 1343 1480
8 1481 1346 1228 1359 1610 1479 1361 1494
8 1484 1348 1214 1351 1610 1479 1343 1480
8 1483 1347 1482 1612 1350 1213 1349 1486
8 1484 1348 1483 1613 1351 1214 1350 1487
8 1353 1230 1360 1488 1489 1363 1496 1616
8 1490 1364 1231 1354 1617 1499 1363 1489
8 1490 1364 1499 1617 1355 1232 1365 1491
8 1356 1234 1365 1491 1492 1366 1500 1619
8 1492 1366 1498 1620 1357 1233 1362 1493
8 1494 1361 1228 1359 1621 1497 1362 1493
8 1495 1370 1239 1361 1622 1504 1371 1497
8 1363 1236 1367 1496 1499 1368 1501 1623
8 1497 1371 1240 1362 1624 1505 1372 1498
8 1625 1503 1372 1498 1500 1369 1241 1366
8 1365 1238 1368 1499 1500 1369 1502 1626
8 1520 1398 1506 1633 1388 1266 1373 1507
8 1634 1507 1374 1508 1512 1388 1255 1380
8 1509 1387 1519 1635 1377 1258 1391 1510
8 1405 1276 1406 1534 1509 1387 1519 1635
8 1515 1392 1260 1383 1636 1522 1390 1511
8 1511 1390 1259 1379 1636 1522 1391 1510
8 1385 1256 1389 1517 1512 1388 1520 1637
8 1513 1394 1262 1382 1638 1524 1393 1514
8 1395 1516 1638 1524 1263 1384 1513 1394
8 1515 1392 1523 1639 1383 1260 1393 1514
8 1516 1395 1526 1640 1386 1264 1396 1518
8 1386 1264 1396 1518 1517 1389 1521 1641
8 1519 1397 1527 1643 1391 1269 1400 1522
8 1535 1407 1527 1643 1406 1277 1397 1519
8 1389 1267 1399 1521 1520 1398 1528 1644
8 1645 1529 1399 1521 1525 1404 1274 1396
8 1392 1270 1400 1522 1523 1401 1531 1646
8 1524 1402 1271 1393 1648 1532 1401 1523
8 1403 1526 1648 1532 1273 1395 1524 1402
8 1525 1404 1274 1396 1649 1533 1403 1526
8 1539 1414 1535 1657 1411 1286 1406 1534
8 1542 1415 1536 1658 1414 1287 1407 1535
8 1409 1285 1412 1537 1538 1413 1540 1660
8 1545 1421 1540 1660 1418 1292 1412 1537
8 1539 1414 1286 1411 1661 1541 1413 1538
8 1540 1417 1544 1663 1413 1288 1416 1541
8 1421 1296 1425 1548 1540 1417 1544 1663
8 1542 1415 1287 1414 1664 1543 1416 1541
8 1420 1294 1423 1547 1545 1421 1548 1666
8 1547 1423 1293 1419 1667 1549 1422 1546
8 1434 1301 1427 1553 1546 1422 1549 1667
8 1423 1297 1424 1549 1548 1425 1550 1668
8 1551 1426 1550 1668 1427 1298 1424 1549
8 1551 1426 1298 1427 1671 1552 1428 1554
8 1562 1432 1554 1674 1434 1301 1427 1553
8 1431 1299 1429 1558 1554 1428 1555 1675
8 1431 1299 1430 1560 1558 1429 1557 1680
8 1560 1430 1300 1432 1683 1559 1433 1563
8 1561 1431 1554 1674 1684 1560 1432 1562
8 1685 1563 1432 1562 1565 1435 1301 1434
8 1435 1302 1436 1566 1563 1433 1564 1686
8 1437 1303 1438 1568 1565 1435 1566 1688
8 1438 1304 1439 1569 1566 1436 1567 1689
8 1440 1306 1441 1571 1568 1438 1569 1691
8 1441 1307 1442 1572 1569 1439 1570 1692
8 1443 1309 1444 1574 1571 1441 1572 1694
8 1310 1444 1572 1442 1445 1575 1695 1573
8 1446 1312 1447 1576 1574 1444 1575 1696
8 1486 1349 1485 1614 1579 1449 1577 1699
8 1451 1317 1449 1579 1581 1450 1578 1701
8 1487 1350 1486 1615 1582 1451 1579 1702
8 1581 1450 1580 1704 1453 1318 1452 1584
8 1582 1451 1581 1705 1454 1319 1453 1585
8 1584 1452 1583 1706 1456 1320 1455 1586
8 1585 1453 1584 1707 1457 1321 1456 1587
8 1587 1456 1586 1708 1458 1323 1459 1588
8 1633 1506 1589 1710 1507 1373 1461 1590
8 1464 1329 1461 1590 1594 1463 1589 1710
8 1468 1336 1462 1591 1595 1464 1590 1711
8 1634 1507 1590 1711 1508 1374 1462 1591
8 1473 1341 1463 1594 1603 1477 1593 1716
8 1469 1337 1464 1595 1599 1473 1594 1717
8 1471 1597 1467 1335 1600 1718 1596 1470
8 1718 1600 1496 1616 1596 1470 1360 1488
8 1336 1468 1597 1471 1472 1598 1719 1601
8 1469 1337 1473 1599 1598 1472 1602 1720
8 1722 1604 1501 1623 1600 1474 1367 1496
8 1475 1601 1471 1339 1604 1722 1600 1474
8 1602 1476 1605 1723 1472 1340 1475 1601
8 1476 1602 1724 1606 1341 1473 1603 1477
8 1483 1347 1478 1609 1612 1482 1608 1731
8 1495 1370 1504 1622 1609 1478 1608 1731
8 1618 1495 1609 1732 1494 1361 1479 1610
8 1484 1348 1479 1610 1613 1483 1609 1732
8 1486 1349 1482 1612 1614 1485 1611 1733
8 1613 1483 1612 1734 1487 1350 1486 1615
8 1489 1363 1496 1616 1617 1499 1623 1736
8 1491 1365 1499 1617 1619 1500 1626 1737
8 1618 1495 1361 1494 1738 1622 1497 1621
8 1739 1625 1498 1620 1619 1500 1366 1492
8 1621 1497 1362 1493 1740 1624 1498 1620
8 1742 1631 1504 1622 1624 1505 1371 1497
8 1743 1628 1502 1626 1623 1501 1368 1499
8 1744 1630 1505 1624 1625 1503 1372 1498
8 1745 1629 1503 1625 1626 1502 1369 1500
8 1520 1398 1528 1644 1633 1506 1632 1751
8 1637 1520 1633 1752 1512 1388 1507 1634
8 1635 1519 1643 1753 1510 1391 1522 1636
8 1657 1535 1643 1753 1534 1406 1519 1635
8 1515 1392 1522 1636 1639 1523 1646 1754
8 1517 1389 1521 1641 1637 1520 1644 1755
8 1524 1638 1756 1648 1393 1514 1639 1523
8 1640 1526 1395 1516 1756 1648 1524 1638
8 1642 1525 1396 1518 1757 1649 1526 1640
8 1758 1645 1521 1641 1642 1525 1396 1518
8 1646 1531 1400 1522 1760 1650 1527 1643
8 1535 1407 1536 1658 1643 1527 1650 1760
8 1521 1399 1529 1645 1644 1528 1651 1761
8 1647 1530 1652 1762 1525 1404 1529 1645
8 1401 1523 1648 1532 1531 1646 1763 1655
8 1525 1404 1533 1649 1647 1530 1654 1765
8 1533 1649 1766 1656 1403 1526 1648 1532
8 1662 1542 1658 1774 1539 1414 1535 1657
8 1542 1415 1543 1664 1658 1536 1659 1775
8 1660 1540 1663 1777 1538 1413 1541 1661
8 1545 1421 1548 1666 1660 1540 1663 1777
8 1662 1542 1414 1539 1778 1664 1541 1661
8 1664 1543 1416 1541 1779 1665 1544 1663
8 1548 1425 1550 1668 1663 1544 1665 1779
8 1547 1423 1549 1667 1666 1548 1668 1781
8 1670 1551 1668 1781 1553 1427 1549 1667
8 1551 1426 1552 1671 1668 1550 1669 1782
8 1670 1551 1427 1553 1784 1671 1554 1674
8 1675 1555 1672 1785 1554 1428 1552 1671
8 1678 1556 1673 1789 1558 1429 1555 1675
8 1561 1431 1558 1681 1674 1554 1675 1790
8 1794 1677 1556 1678 1680 1557 1429 1558
8 1560 1430 1559 1683 1680 1557 1679 1797
8 1561 1431 1560 1684 1681 1558 1680 1798
8 1563 1433 1564 1686 1683 1559 1682 1800
8 1684 1560 1432 1562 1801 1683 1563 1685
8 1565 1435 1566 1688 1685 1563 1686 1802
8 1566 1436 1567 1689 1686 1564 1687 1803
8 1568 1438 1569 1691 1688 1566 1689 1805
8 1569 1439 1570 1692 1689 1567 1690 1806
8 1571 1441 1572 1694 1691 1569 1692 1808
8 1442 1572 1692 1570 1573 1695 1809 1693
8 1574 1444 1575 1696 1694 1572 1695 1810
8 1614 1485 1592 1712 1699 1577 1697 1813
8 1579 1449 1577 1699 1701 1578 1698 1815
8 1615 1486 1614 1735 1702 1579 1699 1816
8 1701 1578 1700 1818 1581 1450 1580 1704
8 1582 1451 1579 1702 1705 1581 1701 1819
8 1704 1580 1703 1820 1584 1452 1583 1706
8 1705 1581 1704 1821 1585 1453 1584 1707
8 1707 1584 1706 1822 1587 1456 1586 1708
8 1710 1589 1506 1633 1824 1709 1632 1751
8 1594 1463 1589 1710 1716 1593 1709 1824
8 1752 1633 1710 1825 1634 1507 1590 1711
8 1595 1464 1590 1711 1717 1594 1710 1825
8 1830 1714 1592 1712 1733 1611 1485 1614
8 1603 1477 1593 1716 1725 1607 1715 1834
8 1599 1473 1594 1717 1721 1603 1716 1835
8 1837 1722 1623 1736 1718 1600 1496 1616
8 1719 1601 1722 1837 1597 1471 1600 1718
8 1602 1720 1598 1472 1723 1838 1719 1601
8 1720 1602 1473 1599 1839 1724 1603 1721
8 1723 1605 1726 1840 1601 1475 1604 1722
8 1840 1726 1628 1743 1722 1604 1501 1623
8 1724 1606 1727 1841 1602 1476 1605 1723
8 1725 1607 1728 1842 1603 1477 1606 1724
8 1612 1482 1608 1731 1733 1611 1730 1849
8 1741 1627 1730 1849 1622 1504 1608 1731
8 1613 1483 1609 1732 1734 1612 1731 1850
8 1618 1495 1622 1738 1732 1609 1731 1850
8 1615 1486 1612 1734 1735 1614 1733 1851
8 1852 1743 1626 1737 1736 1623 1499 1617
8 1853 1745 1625 1739 1737 1626 1500 1619
8 1855 1742 1622 1738 1740 1624 1497 1621
8 1856 1744 1624 1740 1739 1625 1498 1620
8 1741 1627 1504 1622 1857 1746 1631 1742
8 1742 1631 1505 1624 1858 1749 1630 1744
8 1859 1747 1629 1745 1743 1628 1502 1626
8 1860 1748 1630 1744 1745 1629 1503 1625
8 1644 1528 1651 1761 1751 1632 1750 1865
8 1637 1520 1644 1755 1752 1633 1751 1866
8 1754 1646 1522 1636 1867 1760 1643 1753
8 1657 1535 1658 1774 1753 1643 1760 1867
8 1639 1523 1646 1754 1756 1648 1763 1868
8 1641 1521 1645 1758 1755 1644 1761 1869
8 1757 1649 1526 1640 1870 1766 1648 1756
8 1642 1525 1649 1757 1759 1647 1765 1871
8 1759 1647 1762 1872 1642 1525 1645 1758
8 1760 1650 1767 1874 1646 1531 1655 1763
8 1658 1536 1659 1775 1760 1650 1767 1874
8 1762 1652 1768 1875 1645 1529 1651 1761
8 1764 1653 1769 1876 1647 1530 1652 1762
8 1656 1766 1877 1773 1532 1648 1763 1655
8 1771 1879 1765 1654 1653 1764 1647 1530
8 1533 1649 1765 1654 1656 1766 1880 1772
8 1662 1542 1664 1778 1774 1658 1775 1887
8 1664 1543 1665 1779 1775 1659 1776 1888
8 1778 1664 1541 1661 1890 1779 1663 1777
8 1666 1548 1668 1781 1777 1663 1779 1890
8 1782 1669 1780 1891 1668 1550 1665 1779
8 1670 1551 1671 1784 1781 1668 1782 1893
8 1671 1552 1672 1785 1782 1669 1783 1894
8 1790 1675 1785 1896 1674 1554 1671 1784
8 1675 1555 1673 1789 1785 1672 1786 1897
8 1792 1676 1788 1903 1678 1556 1673 1789
8 1795 1678 1789 1904 1681 1558 1675 1790
8 1792 1676 1556 1678 1906 1791 1677 1794
8 1680 1557 1679 1797 1794 1677 1793 1909
8 1910 1794 1678 1795 1798 1680 1558 1681
8 1683 1559 1682 1800 1797 1679 1796 1912
8 1684 1560 1683 1801 1798 1680 1797 1913
8 1686 1564 1687 1803 1800 1682 1799 1915
8 1685 1563 1686 1802 1801 1683 1800 1916
8 1688 1566 1689 1805 1802 1686 1803 1917
8 1689 1567 1690 1806 1803 1687 1804 1918
8 1691 1569 1692 1808 1805 1689 1806 1920
8 1692 1570 1693 1809 1806 1690 1807 1921
8 1694 1572 1695 1810 1808 1692 1809 1922
8 1829 1713 1811 1926 1712 1592 1697 1813
8 1813 1697 1812 1928 1699 1577 1698 1815
8 1735 1614 1712 1828 1816 1699 1813 1929
8 1815 1698 1814 1931 1701 1578 1700 1818
8 1702 1579 1699 1816 1819 1701 1815 1932
8 1818 1700 1817 1933 1704 1580 1703 1820
8 1819 1701 1818 1934 1705 1581 1704 1821
8 1821 1704 1820 1935 1707 1584 1706 1822
8 1824 1709 1632 1751 1937 1823 1750 1865
8 1716 1593 1709 1824 1834 1715 1823 1937
8 1825 1710 1633 1752 1938 1824 1751 1866
8 1717 1594 1710 1825 1835 1716 1824 1938
8 1945 1830 1712 1828 1851 1733 1614 1735
8 1830 1714 1831 1946 1712 1592 1713 1829
8 1947 1832 1714 1830 1849 1730 1611 1733
8 1843 1729 1607 1725 1950 1833 1715 1834
8 1721 1603 1716 1835 1836 1725 1834 1951
8 1836 1725 1842 1953 1721 1603 1724 1839
8 1723 1838 1719 1601 1840 1954 1837 1722
8 1954 1840 1743 1852 1837 1722 1623 1736
8 1724 1839 1720 1602 1841 1955 1838 1723
8 1841 1727 1844 1956 1723 1605 1726 1840
8 1956 1844 1747 1859 1840 1726 1628 1743
8 1728 1842 1724 1606 1845 1957 1841 1727
8 1725 1607 1729 1843 1842 1728 1846 1958
8 1741 1627 1746 1857 1849 1730 1848 1965
8 1734 1612 1731 1850 1851 1733 1849 1966
8 1854 1741 1849 1966 1738 1622 1731 1850
8 1967 1859 1745 1853 1852 1743 1626 1737
8 1968 1860 1744 1856 1853 1745 1625 1739
8 1854 1741 1622 1738 1969 1857 1742 1855
8 1855 1742 1624 1740 1970 1858 1744 1856
8 1857 1746 1631 1742 1971 1861 1749 1858
8 1858 1749 1630 1744 1972 1863 1748 1860
8 1859 1747 1862 1973 1745 1629 1748 1860
8 1875 1768 1864 1977 1761 1651 1750 1865
8 1755 1644 1761 1869 1866 1751 1865 1978
8 1867 1760 1874 1979 1754 1646 1763 1868
8 1774 1658 1775 1887 1867 1760 1874 1979
8 1870 1766 1648 1756 1980 1877 1763 1868
8 1872 1762 1875 1981 1758 1645 1761 1869
8 1757 1649 1766 1870 1871 1765 1880 1982
8 1983 1879 1764 1873 1871 1765 1647 1759
8 1873 1764 1876 1984 1759 1647 1762 1872
8 1877 1773 1655 1763 1986 1881 1767 1874
8 1775 1659 1776 1888 1874 1767 1881 1986
8 1876 1769 1882 1987 1762 1652 1768 1875
8 1878 1770 1883 1988 1764 1653 1769 1876
8 1880 1772 1656 1766 1989 1886 1773 1877
8 1878 1770 1653 1764 1990 1884 1771 1879
8 1765 1654 1772 1880 1879 1771 1885 1991
8 1778 1664 1779 1890 1887 1775 1888 1997
8 1998 1889 1776 1888 1891 1780 1665 1779
8 1893 1782 1891 2000 1781 1668 1779 1890
8 1894 1783 1892 2001 1782 1669 1780 1891
8 1784 1671 1785 1896 1893 1782 1894 2003
8 1897 1786 1895 2004 1785 1672 1783 1894
8 1790 1675 1789 1904 1896 1785 1897 2006
8 1901 1787 1898 2007 1789 1673 1786 1897
8 1903 1788 1900 2013 1789 1673 1787 1901
8 1792 1676 1791 1906 1903 1788 1902 2016
8 1907 1792 1903 2017 1795 1678 1789 1904
8 1906 1791 1677 1794 2019 1905 1793 1909
8 1907 1792 1678 1795 2020 1906 1794 1910
8 1797 1679 1796 1912 1909 1793 1908 2022
8 1798 1680 1797 1913 1910 1794 1909 2023
8 1800 1682 1799 1915 1912 1796 1911 2025
8 1801 1683 1800 1916 1913 1797 1912 2026
8 1803 1687 1804 1918 1915 1799 1914 2028
8 1802 1686 1803 1917 1916 1800 1915 2029
8 1805 1689 1806 1920 1917 1803 1918 2030
8 1806 1690 1807 1921 1918 1804 1919 2031
8 1808 1692 1809 1922 1920 1806 1921 2032
8 1939 1826 1924 2037 1829 1713 1811 1926
8 1926 1811 1925 2039 1813 1697 1812 1928
8 1944 1829 1926 2040 1828 1712 1813 1929
8 1928 1812 1927 2042 1815 1698 1814 1931
8 1929 1813 1928 2043 1816 1699 1815 1932
8 1931 1814 1930 2044 1818 1700 1817 1933
8 1932 1815 1931 2045 1819 1701 1818 1934
8 1934 1818 1933 2046 1821 1704 1820 1935
8 2048 1936 1823 1937 1977 1864 1750 1865
8 1950 1833 1715 1834 2048 1936 1823 1937
8 1938 1824 1751 1866 2049 1937 1865 1978
8 1835 1716 1824 1938 1951 1834 1937 2049
8 1939 1826 1713 1829 2053 1942 1831 1946
8 1940 1827 1923 2035 2053 1942 1826 1939
8 1945 1830 1946 2058 1828 1712 1829 1944
8 2059 1947 1830 1945 1966 1849 1733 1851
8 1947 1832 1730 1849 2060 1948 1848 1965
8 1947 1832 1948 2060 1830 1714 1831 1946
8 1959 1847 1729 1843 2063 1949 1833 1950
8 1952 1843 1725 1836 2064 1950 1834 1951
8 1836 1725 1843 1952 1953 1842 1958 2066
8 1953 1842 1957 2067 1839 1724 1841 1955
8 1841 1955 1838 1723 1956 2068 1954 1840
8 2068 1956 1859 1967 1954 1840 1743 1852
8 1956 1844 1960 2069 1859 1747 1862 1973
8 1845 1957 1841 1727 1960 2069 1956 1844
8 1728 1842 1957 1845 1846 1958 2071 1961
8 1962 2072 1959 1847 1846 1958 1843 1729
8 1971 1861 1964 2077 1857 1746 1848 1965
8 1854 1741 1857 1969 1966 1849 1965 2078
8 1967 1859 1973 2079 1853 1745 1860 1968
8 1970 1858 1744 1856 2080 1972 1860 1968
8 1969 1857 1742 1855 2081 1971 1858 1970
8 1971 1861 1749 1858 2082 1974 1863 1972
8 1973 1862 1975 2083 1860 1748 1863 1972
8 1987 1882 1976 2086 1875 1768 1864 1977
8 1981 1875 1977 2087 1869 1761 1865 1978
8 1980 1877 1763 1868 2088 1986 1874 1979
8 1887 1775 1888 1997 1979 1874 1986 2088
8 1880 1982 2089 1989 1766 1870 1980 1877
8 1984 1876 1987 2090 1872 1762 1875 1981
8 1765 1871 1983 1879 1880 1982 2091 1991
8 1985 1878 1764 1873 2092 1990 1879 1983
8 1985 1878 1988 2093 1873 1764 1876 1984
8 2094 1992 1881 1986 1998 1889 1776 1888
8 1986 1881 1992 2094 1877 1773 1886 1989
8 1988 1883 1993 2095 1876 1769 1882 1987
8 1878 1770 1884 1990 1988 1883 1994 2096
8 1991 1885 1772 1880 2097 1996 1886 1989
8 1879 1771 1885 1991 1990 1884 1995 2098
8 2103 1998 1888 1997 2000 1891 1779 1890
8 2104 1999 1889 1998 2001 1892 1780 1891
8 2003 1894 2001 2106 1893 1782 1891 2000
8 2004 1895 2002 2107 1894 1783 1892 2001
8 2006 1897 2004 2109 1896 1785 1894 2003
8 2007 1898 2005 2110 1897 1786 1895 2004
8 2014 1901 2007 2112 1904 1789 1897 2006
8 2011 1899 2008 2113 1901 1787 1898 2007
8 2119 2010 1899 2011 2013 1900 1787 1901
8 2016 1902 2012 2122 1903 1788 1900 2013
8 2017 1903 2013 2123 1904 1789 1901 2014
8 1906 1791 1905 2019 2016 1902 2015 2125
8 1907 1792 1906 2020 2017 1903 2016 2126
8 1909 1793 1908 2022 2019 1905 2018 2128
8 2020 1906 1794 1910 2129 2019 1909 2023
8 1912 1796 1911 2025 2022 1908 2021 2131
8 1913 1797 1912 2026 2023 1909 2022 2132
8 1915 1799 1914 2028 2025 1911 2024 2134
8 1916 1800 1915 2029 2026 1912 2025 2135
8 1918 1804 1919 2031 2028 1914 2027 2136
8 1917 1803 1918 2030 2029 1915 2028 2137
8 1920 1806 1921 2032 2030 1918 2031 2138
8 1940 1827 1941 2054 2035 1923 2033 2140
8 2035 1923 2034 2143 1939 1826 1924 2037
8 2037 1924 2036 2146 1926 1811 1925 2039
8 2051 1939 2037 2147 1944 1829 1926 2040
8 2039 1925 2038 2149 1928 1812 1927 2042
8 2040 1926 2039 2150 1929 1813 1928 2043
8 2042 1927 2041 2151 1931 1814 1930 2044
8 2043 1928 2042 2152 1932 1815 1931 2045
8 2045 1931 2044 2153 1934 1818 1933 2046
8 2155 2047 1936 2048 2086 1976 1864 1977
8 2063 1949 1833 1950 2155 2047 1936 2048
8 2156 2048 1937 2049 2087 1977 1865 1978
8 2064 1950 1834 1951 2156 2048 1937 2049
8 2051 1939 1829 1944 2160 2053 1946 2058
8 2052 1940 2035 2144 2160 2053 1939 2051
8 2053 1942 1831 1946 2163 2057 1948 2060
8 2055 1943 1827 1940 2163 2057 1942 2053
8 2055 1943 2056 2164 1940 1827 1941 2054
8 2059 1947 1849 1966 2167 2060 1965 2078
8 2059 1947 2060 2167 1945 1830 1946 2058
8 2077 1964 2061 2168 1965 1848 1948 2060
8 2070 1963 1847 1959 2170 2062 1949 2063
8 2065 1959 1843 1952 2171 2063 1950 2064
8 2173 2072 1958 2066 2065 1959 1843 1952
8 1953 1842 1958 2066 2067 1957 2071 2174
8 2068 1956 2069 2175 1967 1859 1973 2079
8 2067 1957 2069 2175 1955 1841 1956 2068
8 1845 1957 2069 1960 1961 2071 2176 2073
8 2069 1960 2073 2176 1973 1862 1975 2083
8 2070 1963 2075 2177 1959 1847 1962 2072
8 1846 1958 2071 1961 1962 2072 2178 2074
8 2077 1964 1861 1971 2182 2076 1974 2082
8 2081 1971 2077 2183 1969 1857 1965 2078
8 2079 1973 2083 2184 1968 1860 1972 2080
8 2081 1971 1858 1970 2185 2082 1972 2080
8 2083 1975 2084 2186 1972 1863 1974 2082
8 2086 1976 1882 1987 2189 2085 1993 2095
8 2090 1987 2086 2190 1981 1875 1977 2087
8 2191 2094 1986 2088 2103 1998 1888 1997
8 2088 1986 2094 2191 1980 1877 1989 2089
8 1991 2091 2192 2097 1880 1982 2089 1989
8 2093 1988 2095 2193 1984 1876 1987 2090
8 1879 1983 2092 1990 1991 2091 2194 2098
8 1985 1878 1990 2092 2093 1988 2096 2195
8 2097 1996 1886 1989 2196 2099 1992 2094
8 2196 2099 1992 2094 2104 1999 1889 1998
8 1994 2096 1988 1883 2100 2197 2095 1993
8 2096 1994 1884 1990 2198 2101 1995 2098
8 1995 2098 2199 2102 1885 1991 2097 1996
8 2203 2104 1998 2103 2106 2001 1891 2000
8 2107 2002 2105 2204 2001 1892 1999 2104
8 2109 2004 2107 2206 2003 1894 2001 2106
8 2110 2005 2108 2207 2004 1895 2002 2107
8 2112 2007 2110 2209 2006 1897 2004 2109
8 2113 2008 2111 2210 2007 1898 2005 2110
8 2120 2011 2113 2212 2014 1901 2007 2112
8 2117 2009 2114 2213 2011 1899 2008 2113
8 2219 2116 2009 2117 2119 2010 1899 2011
8 2222 2118 2010 2119 2122 2012 1900 2013
8 2223 2119 2011 2120 2123 2013 1901 2014
8 2016 1902 2015 2125 2122 2012 2121 2225
8 2126 2016 2122 2226 2017 1903 2013 2123
8 2019 1905 2018 2128 2125 2015 2124 2228
8 2020 1906 2019 2129 2126 2016 2125 2229
8 2022 1908 2021 2131 2128 2018 2127 2231
8 2023 1909 2022 2132 2129 2019 2128 2232
8 2025 1911 2024 2134 2131 2021 2130 2234
8 2026 1912 2025 2135 2132 2022 2131 2235
8 1914 2028 2134 2024 2027 2136 2236 2133
8 2029 1915 2028 2137 2135 2025 2134 2237
8 2030 1918 2031 2138 2137 2028 2136 2238
8 2157 2050 2139 2240 2054 1941 2033 2140
8 2052 1940 2054 2161 2144 2035 2140 2242
8 2140 2033 2141 2243 2035 1923 2034 2143
8 2143 2034 2142 2246 2037 1924 2036 2146
8 2144 2035 2143 2247 2051 1939 2037 2147
8 2146 2036 2145 2249 2039 1925 2038 2149
8 2147 2037 2146 2250 2040 1926 2039 2150
8 2149 2038 2148 2251 2042 1927 2041 2151
8 2150 2039 2149 2252 2043 1928 2042 2152
8 2152 2042 2151 2253 2045 1931 2044 2153
8 2255 2154 2047 2155 2189 2085 1976 2086
8 2170 2062 1949 2063 2255 2154 2047 2155
8 2256 2155 2048 2156 2190 2086 1977 2087
8 2171 2063 1950 2064 2256 2155 2048 2156
8 2258 2159 2050 2157 2164 2056 1941 2054
8 2160 2053 1946 2058 2262 2163 2060 2167
8 2162 2055 1940 2052 2262 2163 2053 2160
8 2162 2055 2164 2263 2052 1940 2054 2161
8 2163 2057 1948 2060 2264 2165 2061 2168
8 2055 1943 2057 2163 2164 2056 2165 2264
8 2182 2076 2166 2268 2077 1964 2061 2168
8 2183 2077 2168 2269 2078 1965 2060 2167
8 2070 1963 2062 2170 2177 2075 2169 2271
8 2172 2070 1959 2065 2272 2170 2063 2171
8 2172 2070 2177 2273 2065 1959 2072 2173
8 2066 1958 2072 2173 2174 2071 2178 2274
8 2067 1957 2071 2174 2175 2069 2176 2275
8 2175 2069 2176 2275 2079 1973 2083 2184
8 2071 1961 2074 2178 2176 2073 2179 2276
8 2176 2073 2179 2276 2083 1975 2084 2186
8 2072 1962 2075 2177 2178 2074 2180 2277
8 2182 2076 1974 2082 2280 2181 2084 2186
8 2183 2077 1971 2081 2281 2182 2082 2185
8 2184 2083 2186 2282 2080 1972 2082 2185
8 2189 2085 1993 2095 2285 2188 2100 2197
8 2190 2086 1987 2090 2286 2189 2095 2193
8 2192 2097 1989 2089 2287 2196 2094 2191
8 2287 2196 2094 2191 2203 2104 1998 2103
8 2194 2098 1991 2091 2288 2199 2097 2192
8 2195 2096 2197 2289 2093 1988 2095 2193
8 2096 2195 2290 2198 1990 2092 2194 2098
8 2097 1996 2099 2196 2199 2102 2200 2291
8 2196 2099 1999 2104 2291 2200 2105 2204
8 2100 2197 2292 2201 1994 2096 2198 2101
8 1995 2098 2198 2101 2102 2199 2293 2202
8 2206 2107 2204 2296 2106 2001 2104 2203
8 2207 2108 2205 2297 2107 2002 2105 2204
8 2209 2110 2207 2299 2109 2004 2107 2206
8 2210 2111 2208 2300 2110 2005 2108 2207
8 2212 2113 2210 2302 2112 2007 2110 2209
8 2213 2114 2211 2303 2113 2008 2111 2210
8 2220 2117 2213 2305 2120 2011 2113 2212
8 2216 2115 2214 2306 2117 2009 2114 2213
8 2216 2115 2009 2117 2311 2217 2116 2219
8 2219 2116 2010 2119 2314 2218 2118 2222
8 2315 2219 2117 2220 2223 2119 2011 2120
8 2122 2012 2121 2225 2222 2118 2221 2317
8 2318 2222 2119 2223 2226 2122 2013 2123
8 2125 2015 2124 2228 2225 2121 2224 2320
8 2126 2016 2125 2229 2226 2122 2225 2321
8 2128 2018 2127 2231 2228 2124 2227 2323
8 2129 2019 2128 2232 2229 2125 2228 2324
8 2131 2021 2130 2234 2231 2127 2230 2326
8 2132 2022 2131 2235 2232 2128 2231 2327
8 2134 2024 2133 2236 2234 2130 2233 2328
8 2135 2025 2134 2237 2235 2131 2234 2329
8 2137 2028 2136 2238 2237 2134 2236 2330
8 2157 2050 2158 2259 2240 2139 2239 2332
8 2257 2157 2240 2334 2161 2054 2140 2242
8 2240 2139 2241 2335 2140 2033 2141 2243
8 2242 2140 2243 2337 2144 2035 2143 2247
8 2243 2141 2244 2338 2143 2034 2142 2246
8 2246 2142 2245 2341 2146 2036 2145 2249
8 2247 2143 2246 2342 2147 2037 2146 2250
8 2249 2145 2248 2343 2149 2038 2148 2251
8 2250 2146 2249 2344 2150 2039 2149 2252
8 2252 2149 2251 2345 2152 2042 2151 2253
8 2169 2271 2347 2254 2062 2170 2255 2154
8 2189 2085 2188 2285 2255 2154 2254 2347
8 2348 2255 2155 2256 2286 2189 2086 2190
8 2272 2170 2063 2171 2348 2255 2155 2256
8 2349 2258 2157 2257 2263 2164 2054 2161
8 2258 2159 2261 2351 2157 2050 2158 2259
8 2258 2159 2056 2164 2351 2261 2165 2264
8 2262 2163 2060 2167 2355 2264 2168 2269
8 2162 2055 2163 2262 2263 2164 2264 2355
8 2357 2266 2165 2264 2268 2166 2061 2168
8 2268 2166 2076 2182 2361 2267 2181 2280
8 2281 2182 2268 2362 2183 2077 2168 2269
8 2271 2169 2270 2364 2177 2075 2180 2277
8 2172 2070 2170 2272 2273 2177 2271 2365
8 2072 2173 2274 2178 2177 2273 2366 2277
8 2071 2174 2275 2176 2178 2274 2367 2276
8 2275 2176 2276 2367 2184 2083 2186 2282
8 2283 2187 2084 2186 2368 2278 2179 2276
8 2178 2074 2180 2277 2276 2179 2278 2368
8 2283 2187 2279 2370 2186 2084 2181 2280
8 2281 2182 2082 2185 2371 2280 2186 2282
8 2188 2285 2374 2284 2100 2197 2292 2201
8 2286 2189 2095 2193 2375 2285 2197 2289
8 2192 2097 2196 2287 2288 2199 2291 2376
8 2287 2196 2104 2203 2376 2291 2204 2296
8 2194 2098 2199 2288 2290 2198 2293 2377
8 2289 2197 2096 2195 2378 2292 2198 2290
8 2291 2200 2105 2204 2379 2294 2205 2297
8 2199 2102 2200 2291 2293 2202 2294 2379
8 2198 2101 2202 2293 2292 2201 2295 2380
8 2299 2207 2297 2383 2206 2107 2204 2296
8 2300 2208 2298 2384 2207 2108 2205 2297
8 2302 2210 2300 2386 2209 2110 2207 2299
8 2303 2211 2301 2387 2210 2111 2208 2300
8 2305 2213 2303 2389 2212 2113 2210 2302
8 2306 2214 2304 2390 2213 2114 2211 2303
8 2310 2216 2306 2392 2220 2117 2213 2305
8 2308 2215 2307 2393 2216 2115 2214 2306
8 2308 2215 2115 2216 2396 2309 2217 2311
8 2310 2216 2117 2220 2398 2311 2219 2315
8 2311 2217 2116 2219 2399 2312 2218 2314
8 2314 2218 2118 2222 2402 2313 2221 2317
8 2315 2219 2119 2223 2403 2314 2222 2318
8 2225 2121 2224 2320 2317 2221 2316 2405
8 2226 2122 2225 2321 2318 2222 2317 2406
8 2228 2124 2227 2323 2320 2224 2319 2408
8 2229 2125 2228 2324 2321 2225 2320 2409
8 2231 2127 2230 2326 2323 2227 2322 2411
8 2232 2128 2231 2327 2324 2228 2323 2412
8 2234 2130 2233 2328 2326 2230 2325 2413
8 2235 2131 2234 2329 2327 2231 2326 2414
8 2237 2134 2236 2330 2329 2234 2328 2415
8 2259 2158 2260 2352 2332 2239 2331 2417
8 2257 2157 2259 2350 2334 2240 2332 2419
8 2240 2139 2239 2332 2335 2241 2333 2420
8 2334 2240 2335 2422 2242 2140 2243 2337
8 2335 2241 2336 2423 2243 2141 2244 2338
8 2337 2243 2338 2425 2247 2143 2246 2342
8 2338 2244 2339 2426 2246 2142 2245 2341
8 2341 2245 2340 2428 2249 2145 2248 2343
8 2342 2246 2341 2429 2250 2146 2249 2344
8 2344 2249 2343 2430 2252 2149 2251 2345
8 2188 2285 2347 2254 2284 2374 2432 2346
8 2347 2254 2346 2432 2271 2169 2270 2364
8 2365 2271 2170 2272 2433 2347 2255 2348
8 2286 2189 2285 2375 2348 2255 2347 2433
8 2349 2258 2351 2435 2257 2157 2259 2350
8 2349 2258 2164 2263 2435 2351 2264 2355
8 2259 2158 2261 2351 2352 2260 2354 2437
8 2356 2265 2354 2437 2264 2165 2261 2351
8 2441 2357 2264 2355 2362 2268 2168 2269
8 2356 2265 2165 2264 2442 2358 2266 2357
8 2443 2359 2266 2357 2361 2267 2166 2268
8 2370 2279 2360 2446 2280 2181 2267 2361
8 2362 2268 2182 2281 2447 2361 2280 2371
8 2180 2277 2368 2278 2270 2364 2449 2363
8 2271 2365 2273 2177 2364 2450 2366 2277
8 2372 2283 2186 2282 2451 2368 2276 2367
8 2178 2274 2367 2276 2277 2366 2451 2368
8 2283 2187 2278 2368 2370 2279 2369 2452
8 2372 2283 2370 2453 2282 2186 2280 2371
8 2284 2374 2455 2373 2201 2292 2380 2295
8 2375 2285 2197 2289 2456 2374 2292 2378
8 2376 2291 2204 2296 2457 2379 2297 2383
8 2288 2199 2291 2376 2377 2293 2379 2457
8 2198 2290 2378 2292 2293 2377 2458 2380
8 2293 2202 2294 2379 2380 2295 2381 2459
8 2384 2298 2381 2459 2297 2205 2294 2379
8 2386 2300 2384 2463 2299 2207 2297 2383
8 2387 2301 2385 2464 2300 2208 2298 2384
8 2389 2303 2387 2466 2302 2210 2300 2386
8 2390 2304 2388 2467 2303 2211 2301 2387
8 2392 2306 2390 2469 2305 2213 2303 2389
8 2393 2307 2391 2470 2306 2214 2304 2390
8 2395 2308 2393 2472 2310 2216 2306 2392
8 2308 2215 2309 2396 2393 2307 2394 2473
8 2395 2308 2216 2310 2475 2396 2311 2398
8 2396 2309 2217 2311 2476 2397 2312 2399
8 2398 2311 2219 2315 2478 2399 2314 2403
8 2399 2312 2218 2314 2479 2400 2313 2402
8 2317 2221 2316 2405 2402 2313 2401 2482
8 2403 2314 2222 2318 2483 2402 2317 2406
8 2320 2224 2319 2408 2405 2316 2404 2485
8 2321 2225 2320 2409 2406 2317 2405 2486
8 2323 2227 2322 2411 2408 2319 2407 2488
8 2324 2228 2323 2412 2409 2320 2408 2489
8 2326 2230 2325 2413 2411 2322 2410 2490
8 2327 2231 2326 2414 2412 2323 2411 2491
8 2329 2234 2328 2415 2414 2326 2413 2492
8 2417 2331 2260 2352 2494 2416 2353 2438
8 2350 2259 2352 2436 2419 2332 2417 2496
8 2332 2239 2331 2417 2420 2333 2418 2497
8 2334 2240 2332 2419 2422 2335 2420 2499
8 2420 2333 2421 2500 2335 2241 2336 2423
8 2422 2335 2423 2502 2337 2243 2338 2425
8 2423 2336 2424 2503 2338 2244 2339 2426
8 2425 2338 2426 2505 2342 2246 2341 2429
8 2426 2339 2427 2506 2341 2245 2340 2428
8 2429 2341 2428 2507 2344 2249 2343 2430
8 2432 2346 2284 2374 2509 2431 2373 2455
8 2432 2346 2431 2509 2364 2270 2363 2449
8 2375 2285 2374 2456 2433 2347 2432 2510
8 2347 2433 2365 2271 2432 2510 2450 2364
8 2350 2259 2351 2435 2436 2352 2437 2514
8 2440 2356 2437 2514 2355 2264 2351 2435
8 2352 2260 2354 2437 2438 2353 2439 2516
8 2356 2265 2358 2442 2437 2354 2439 2516
8 2440 2356 2264 2355 2518 2442 2357 2441
8 2519 2443 2357 2441 2447 2361 2268 2362
8 2443 2359 2444 2520 2357 2266 2358 2442
8 2443 2359 2267 2361 2520 2444 2360 2446
8 2446 2360 2279 2370 2523 2445 2369 2452
8 2453 2370 2446 2524 2371 2280 2361 2447
8 2449 2363 2448 2525 2368 2278 2369 2452
8 2366 2277 2364 2450 2451 2368 2449 2526
8 2372 2283 2368 2451 2453 2370 2452 2527
8 2455 2373 2295 2380 2529 2454 2382 2460
8 2456 2374 2292 2378 2530 2455 2380 2458
8 2377 2293 2379 2457 2458 2380 2459 2531
8 2463 2384 2459 2531 2383 2297 2379 2457
8 2533 2461 2382 2460 2459 2381 2295 2380
8 2464 2385 2461 2533 2384 2298 2381 2459
8 2466 2387 2464 2537 2386 2300 2384 2463
8 2467 2388 2465 2538 2387 2301 2385 2464
8 2469 2390 2467 2540 2389 2303 2387 2466
8 2470 2391 2468 2541 2390 2304 2388 2467
8 2472 2393 2470 2543 2392 2306 2390 2469
8 2393 2307 2394 2473 2470 2391 2471 2544
8 2395 2308 2396 2475 2472 2393 2473 2546
8 2396 2309 2397 2476 2473 2394 2474 2547
8 2475 2396 2311 2398 2549 2476 2399 2478
8 2476 2397 2312 2399 2550 2477 2400 2479
8 2478 2399 2314 2403 2552 2479 2402 2483
8 2479 2400 2313 2402 2553 2480 2401 2482
8 2405 2316 2404 2485 2482 2401 2481 2556
8 2406 2317 2405 2486 2483 2402 2482 2557
8 2408 2319 2407 2488 2485 2404 2484 2559
8 2409 2320 2408 2489 2486 2405 2485 2560
8 2411 2322 2410 2490 2488 2407 2487 2561
8 2412 2323 2411 2491 2489 2408 2488 2562
8 2414 2326 2413 2492 2491 2411 2490 2563
8 2513 2434 2493 2565 2438 2353 2416 2494
8 2496 2417 2352 2436 2567 2494 2438 2515
8 2494 2416 2495 2568 2417 2331 2418 2497
8 2419 2332 2417 2496 2499 2420 2497 2570
8 2497 2418 2498 2571 2420 2333 2421 2500
8 2499 2420 2500 2573 2422 2335 2423 2502
8 2500 2421 2501 2574 2423 2336 2424 2503
8 2502 2423 2503 2576 2425 2338 2426 2505
8 2503 2424 2504 2577 2426 2339 2427 2506
8 2505 2426 2506 2578 2429 2341 2428 2507
8 2509 2431 2373 2455 2580 2508 2454 2529
8 2509 2431 2508 2580 2449 2363 2448 2525
8 2432 2510 2581 2509 2374 2456 2530 2455
8 2432 2510 2450 2364 2509 2581 2526 2449
8 2583 2511 2434 2513 2516 2439 2353 2438
8 2436 2352 2437 2514 2515 2438 2516 2588
8 2440 2356 2442 2518 2514 2437 2516 2588
8 2442 2358 2444 2520 2516 2439 2517 2589
8 2519 2443 2520 2591 2441 2357 2442 2518
8 2519 2443 2361 2447 2591 2520 2446 2524
8 2446 2360 2445 2523 2520 2444 2521 2592
8 2525 2448 2522 2593 2452 2369 2445 2523
8 2524 2446 2370 2453 2594 2523 2452 2527
8 2526 2449 2525 2595 2451 2368 2452 2527
8 2534 2462 2528 2597 2460 2382 2454 2529
8 2530 2455 2380 2458 2598 2529 2460 2532
8 2599 2533 2460 2532 2531 2459 2380 2458
8 2537 2464 2533 2599 2463 2384 2459 2531
8 2534 2462 2382 2460 2601 2535 2461 2533
8 2538 2465 2535 2601 2464 2385 2461 2533
8 2540 2467 2538 2604 2466 2387 2464 2537
8 2541 2468 2539 2605 2467 2388 2465 2538
8 2543 2470 2541 2607 2469 2390 2467 2540
8 2470 2391 2471 2544 2541 2468 2542 2608
8 2472 2393 2473 2546 2543 2470 2544 2610
8 2473 2394 2474 2547 2544 2471 2545 2611
8 2475 2396 2476 2549 2546 2473 2547 2613
8 2476 2397 2477 2550 2547 2474 2548 2614
8 2549 2476 2399 2478 2616 2550 2479 2552
8 2479 2400 2480 2553 2550 2477 2551 2617
8 2552 2479 2402 2483 2619 2553 2482 2557
8 2482 2401 2481 2556 2553 2480 2554 2620
8 2485 2404 2484 2559 2556 2481 2555 2623
8 2486 2405 2485 2560 2557 2482 2556 2624
8 2488 2407 2487 2561 2559 2484 2558 2625
8 2489 2408 2488 2562 2560 2485 2559 2626
8 2491 2411 2490 2563 2562 2488 2561 2627
8 2513 2434 2512 2585 2565 2493 2564 2630
8 2586 2513 2565 2632 2515 2438 2494 2567
8 2565 2493 2566 2633 2494 2416 2495 2568
8 2567 2494 2568 2635 2496 2417 2497 2570
8 2568 2495 2569 2636 2497 2418 2498 2571
8 2570 2497 2571 2638 2499 2420 2500 2573
8 2571 2498 2572 2639 2500 2421 2501 2574
8 2573 2500 2574 2641 2502 2423 2503 2576
8 2574 2501 2575 2642 2503 2424 2504 2577
8 2576 2503 2577 2643 2505 2426 2506 2578
8 2597 2528 2579 2645 2529 2454 2508 2580
8 2580 2508 2579 2645 2525 2448 2522 2593
8 2581 2509 2455 2530 2646 2580 2529 2598
8 2581 2509 2580 2646 2526 2449 2525 2595
8 2583 2511 2582 2648 2513 2434 2512 2585
8 2583 2511 2439 2516 2648 2582 2517 2589
8 2649 2583 2513 2586 2588 2516 2438 2515
8 2589 2517 2444 2520 2653 2587 2521 2592
8 2518 2442 2520 2591 2588 2516 2589 2654
8 2593 2522 2590 2655 2523 2445 2521 2592
8 2524 2446 2523 2594 2591 2520 2592 2656
8 2595 2525 2593 2657 2527 2452 2523 2594
8 2602 2536 2596 2659 2534 2462 2528 2597
8 2600 2534 2597 2660 2532 2460 2529 2598
8 2600 2534 2460 2532 2661 2601 2533 2599
8 2604 2538 2601 2661 2537 2464 2533 2599
8 2602 2536 2462 2534 2663 2603 2535 2601
8 2601 2535 2465 2538 2663 2603 2539 2605
8 2607 2541 2605 2665 2540 2467 2538 2604
8 2608 2542 2606 2666 2541 2468 2539 2605
8 2543 2470 2544 2610 2607 2541 2608 2668
8 2544 2471 2545 2611 2608 2542 2609 2669
8 2546 2473 2547 2613 2610 2544 2611 2671
8 2547 2474 2548 2614 2611 2545 2612 2672
8 2549 2476 2550 2616 2613 2547 2614 2674
8 2550 2477 2551 2617 2614 2548 2615 2675
8 2552 2479 2553 2619 2616 2550 2617 2677
8 2553 2480 2554 2620 2617 2551 2618 2678
8 2557 2482 2556 2624 2619 2553 2620 2680
8 2556 2481 2555 2623 2620 2554 2621 2681
8 2559 2484 2558 2625 2623 2555 2622 2683
8 2560 2485 2559 2626 2624 2556 2623 2684
8 2562 2488 2561 2627 2626 2559 2625 2685
8 2690 2629 2564 2630 2650 2584 2512 2585
8 2586 2513 2585 2651 2632 2565 2630 2691
8 2630 2564 2631 2692 2565 2493 2566 2633
8 2632 2565 2633 2694 2567 2494 2568 2635
8 2633 2566 2634 2695 2568 2495 2569 2636
8 2635 2568 2636 2697 2570 2497 2571 2638
8 2636 2569 2637 2698 2571 2498 2572 2639
8 2638 2571 2639 2700 2573 2500 2574 2641
8 2639 2572 2640 2701 2574 2501 2575 2642
8 2641 2574 2642 2702 2576 2503 2577 2643
8 2597 2528 2596 2659 2645 2579 2644 2704
8 2645 2579 2644 2704 2593 2522 2590 2655
8 2660 2597 2645 2705 2598 2529 2580 2646
8 2646 2580 2645 2705 2595 2525 2593 2657
8 2650 2584 2512 2585 2707 2647 2582 2648
8 2648 2582 2517 2589 2707 2647 2587 2653
8 2649 2583 2648 2708 2586 2513 2585 2651
8 2649 2583 2516 2588 2708 2648 2589 2654
8 2655 2590 2652 2710 2592 2521 2587 2653
8 2654 2589 2520 2591 2711 2653 2592 2656
8 2657 2593 2655 2712 2594 2523 2592 2656
8 2602 2536 2603 2663 2659 2596 2658 2714
8 2662 2602 2659 2715 2600 2534 2597 2660
8 2662 2602 2534 2600 2717 2663 2601 2661
8 2661 2601 2538 2604 2717 2663 2605 2665
8 2666 2606 2664 2718 2605 2539 2603 2663
8 2668 2608 2666 2720 2607 2541 2605 2665
8 2608 2542 2609 2669 2666 2606 2667 2721
8 2610 2544 2611 2671 2668 2608 2669 2723
8 2611 2545 2612 2672 2669 2609 2670 2724
8 2613 2547 2614 2674 2671 2611 2672 2726
8 2614 2548 2615 2675 2672 2612 2673 2727
8 2616 2550 2617 2677 2674 2614 2675 2729
8 2617 2551 2618 2678 2675 2615 2676 2730
8 2619 2553 2620 2680 2677 2617 2678 2732
8 2620 2554 2621 2681 2678 2618 2679 2733
8 2624 2556 2623 2684 2680 2620 2681 2735
8 2681 2621 2555 2623 2736 2682 2622 2683
8 2626 2559 2625 2685 2684 2623 2683 2737
8 2688 2628 2584 2650 2740 2686 2647 2707
8 2688 2628 2687 2742 2650 2584 2629 2690
8 2690 2629 2689 2745 2630 2564 2631 2692
8 2746 2690 2630 2691 2709 2650 2585 2651
8 2691 2630 2692 2747 2632 2565 2633 2694
8 2692 2631 2693 2748 2633 2566 2634 2695
8 2694 2633 2695 2750 2635 2568 2636 2697
8 2695 2634 2696 2751 2636 2569 2637 2698
8 2697 2636 2698 2753 2638 2571 2639 2700
8 2698 2637 2699 2754 2639 2572 2640 2701
8 2700 2639 2701 2755 2641 2574 2642 2702
8 2659 2596 2658 2714 2704 2644 2703 2757
8 2704 2644 2703 2757 2655 2590 2652 2710
8 2660 2597 2659 2715 2705 2645 2704 2758
8 2705 2645 2704 2758 2657 2593 2655 2712
8 2759 2706 2647 2707 2710 2652 2587 2653
8 2709 2650 2585 2651 2760 2707 2648 2708
8 2708 2648 2589 2654 2760 2707 2653 2711
8 2712 2655 2710 2761 2656 2592 2653 2711
8 2763 2713 2658 2714 2718 2664 2603 2663
8 2662 2602 2663 2717 2715 2659 2714 2764
8 2720 2666 2718 2767 2665 2605 2663 2717
8 2768 2719 2664 2718 2721 2667 2606 2666
8 2668 2608 2669 2723 2720 2666 2721 2770
8 2669 2609 2670 2724 2721 2667 2722 2771
8 2671 2611 2672 2726 2723 2669 2724 2773
8 2672 2612 2673 2727 2724 2670 2725 2774
8 2674 2614 2675 2729 2726 2672 2727 2776
8 2675 2615 2676 2730 2727 2673 2728 2777
8 2677 2617 2678 2732 2729 2675 2730 2779
8 2678 2618 2679 2733 2730 2676 2731 2780
8 2680 2620 2681 2735 2732 2678 2733 2782
8 2733 2679 2621 2681 2783 2734 2682 2736
8 2735 2681 2623 2684 2784 2736 2683 2737
8 2740 2686 2647 2707 2787 2738 2706 2759
8 2688 2628 2686 2740 2742 2687 2739 2789
8 2743 2688 2650 2709 2790 2740 2707 2760
8 2742 2687 2741 2792 2690 2629 2689 2745
8 2743 2688 2742 2793 2709 2650 2690 2746
8 2745 2689 2744 2795 2692 2631 2693 2748
8 2746 2690 2745 2796 2691 2630 2692 2747
8 2747 2692 2748 2797 2694 2633 2695 2750
8 2748 2693 2749 2798 2695 2634 2696 2751
8 2750 2695 2751 2800 2697 2636 2698 2753
8 2751 2696 2752 2801 2698 2637 2699 2754
8 2753 2698 2754 2802 2700 2639 2701 2755
8 2763 2713 2756 2804 2714 2658 2703 2757
8 2759 2706 2652 2710 2804 2756 2703 2757
8 2715 2659 2714 2764 2758 2704 2757 2805
8 2758 2704 2757 2805 2712 2655 2710 2761
8 2806 2759 2707 2760 2761 2710 2653 2711
8 2765 2716 2762 2808 2718 2664 2713 2763
8 2809 2763 2714 2764 2767 2718 2663 2717
8 2765 2716 2664 2718 2811 2766 2719 2768
8 2813 2768 2718 2767 2770 2721 2666 2720
8 2814 2769 2719 2768 2771 2722 2667 2721
8 2723 2669 2724 2773 2770 2721 2771 2816
8 2724 2670 2725 2774 2771 2722 2772 2817
8 2726 2672 2727 2776 2773 2724 2774 2819
8 2727 2673 2728 2777 2774 2725 2775 2820
8 2729 2675 2730 2779 2776 2727 2777 2822
8 2730 2676 2731 2780 2777 2728 2778 2823
8 2732 2678 2733 2782 2779 2730 2780 2825
8 2780 2731 2679 2733 2826 2781 2734 2783
8 2782 2733 2681 2735 2827 2783 2736 2784
8 2830 2785 2738 2787 2804 2756 2706 2759
8 2789 2739 2686 2740 2832 2786 2738 2787
8 2790 2740 2707 2760 2833 2787 2759 2806
8 2742 2687 2739 2789 2792 2741 2788 2835
8 2743 2688 2740 2790 2793 2742 2789 2836
8 2792 2741 2791 2838 2745 2689 2744 2795
8 2793 2742 2792 2839 2746 2690 2745 2796
8 2795 2744 2794 2841 2748 2693 2749 2798
8 2796 2745 2795 2842 2747 2692 2748 2797
8 2797 2748 2798 2843 2750 2695 2751 2800
8 2798 2749 2799 2844 2751 2696 2752 2801
8 2800 2751 2801 2845 2753 2698 2754 2802
8 2808 2762 2803 2847 2763 2713 2756 2804
8 2809 2763 2804 2848 2764 2714 2757 2805
8 2806 2759 2710 2761 2848 2804 2757 2805
8 2765 2716 2766 2811 2808 2762 2807 2850
8 2810 2765 2808 2851 2767 2718 2763 2809
8 2810 2765 2718 2767 2852 2811 2768 2813
8 2811 2766 2719 2768 2853 2812 2769 2814
8 2855 2814 2768 2813 2816 2771 2721 2770
8 2856 2815 2769 2814 2817 2772 2722 2771
8 2773 2724 2774 2819 2816 2771 2817 2858
8 2774 2725 2775 2820 2817 2772 2818 2859
8 2776 2727 2777 2822 2819 2774 2820 2861
8 2777 2728 2778 2823 2820 2775 2821 2862
8 2779 2730 2780 2825 2822 2777 2823 2864
8 2823 2778 2731 2780 2865 2824 2781 2826
8 2825 2780 2733 2782 2866 2826 2783 2827
8 2869 2828 2785 2830 2847 2803 2756 2804
8 2871 2829 2786 2832 2830 2785 2738 2787
8 2872 2830 2787 2833 2848 2804 2759 2806
8 2789 2739 2786 2832 2835 2788 2831 2874
8 2836 2789 2740 2790 2875 2832 2787 2833
8 2792 2741 2788 2835 2838 2791 2834 2877
8 2793 2742 2789 2836 2839 2792 2835 2878
8 2838 2791 2837 2880 2795 2744 2794 2841
8 2839 2792 2838 2881 2796 2745 2795 2842
8 2841 2794 2840 2882 2798 2749 2799 2844
8 2842 2795 2841 2883 2797 2748 2798 2843
8 2843 2798 2844 2884 2800 2751 2801 2845
8 2886 2846 2803 2847 2850 2807 2762 2808
8 2851 2808 2847 2887 2809 2763 2804 2848
8 2850 2807 2766 2811 2889 2849 2812 2853
8 2810 2765 2811 2852 2851 2808 2850 2890
8 2852 2811 2768 2813 2891 2853 2814 2855
8 2853 2812 2769 2814 2892 2854 2815 2856
8 2894 2856 2814 2855 2858 2817 2771 2816
8 2817 2772 2818 2859 2856 2815 2857 2895
8 2819 2774 2820 2861 2858 2817 2859 2897
8 2820 2775 2821 2862 2859 2818 2860 2898
8 2822 2777 2823 2864 2861 2820 2862 2900
8 2823 2778 2824 2865 2862 2821 2863 2901
8 2864 2823 2780 2825 2902 2865 2826 2866
8 2904 2867 2828 2869 2886 2846 2803 2847
8 2869 2828 2868 2906 2830 2785 2829 2871
8 2907 2869 2830 2872 2887 2847 2804 2848
8 2871 2829 2870 2909 2832 2786 2831 2874
8 2910 2871 2832 2875 2872 2830 2787 2833
8 2835 2788 2831 2874 2877 2834 2873 2912
8 2836 2789 2832 2875 2878 2835 2874 2913
8 2877 2834 2876 2915 2838 2791 2837 2880
8 2839 2792 2835 2878 2881 2838 2877 2916
8 2880 2837 2879 2917 2841 2794 2840 2882
8 2881 2838 2880 2918 2842 2795 2841 2883
8 2883 2841 2882 2919 2843 2798 2844 2884
8 2921 2885 2846 2886 2889 2849 2807 2850
8 2922 2886 2847 2887 2890 2850 2808 2851
8 2889 2849 2812 2853 2924 2888 2854 2892
8 2890 2850 2811 2852 2925 2889 2853 2891
8 2891 2853 2814 2855 2926 2892 2856 2894
8 2892 2854 2815 2856 2927 2893 2857 2895
8 2858 2817 2859 2897 2894 2856 2895 2929
8 2859 2818 2860 2898 2895 2857 2896 2930
8 2861 2820 2862 2900 2897 2859 2898 2932
8 2862 2821 2863 2901 2898 2860 2899 2933
8 2864 2823 2865 2902 2900 2862 2901 2934
8 2904 2867 2846 2886 2936 2903 2885 2921
8 2904 2867 2903 2936 2869 2828 2868 2906
8 2937 2904 2869 2907 2922 2886 2847 2887
8 2906 2868 2905 2939 2871 2829 2870 2909
8 2907 2869 2906 2940 2872 2830 2871 2910
8 2909 2870 2908 2942 2874 2831 2873 2912
8 2910 2871 2909 2943 2875 2832 2874 2913
8 2912 2873 2911 2945 2877 2834 2876 2915
8 2878 2835 2874 2913 2916 2877 2912 2946
8 2915 2876 2914 2947 2880 2837 2879 2917
8 2916 2877 2915 2948 2881 2838 2880 2918
8 2918 2880 2917 2949 2883 2841 2882 2919
8 2921 2885 2849 2889 2951 2920 2888 2924
8 2952 2921 2886 2922 2925 2889 2850 2890
8 2924 2888 2854 2892 2954 2923 2893 2927
8 2925 2889 2853 2891 2955 2924 2892 2926
8 2926 2892 2856 2894 2956 2927 2895 2929
8 2895 2857 2896 2930 2927 2893 2928 2957
8 2897 2859 2898 2932 2929 2895 2930 2959
8 2898 2860 2899 2933 2930 2896 2931 2960
8 2900 2862 2901 2934 2932 2898 2933 2961
8 2936 2903 2885 2921 2963 2935 2920 2951
8 2936 2903 2935 2963 2906 2868 2905 2939
8 2937 2904 2886 2922 2964 2936 2921 2952
8 2937 2904 2936 2964 2907 2869 2906 2940
8 2939 2905 2938 2966 2909 2870 2908 2942
8 2940 2906 2939 2967 2910 2871 2909 2943
8 2942 2908 2941 2969 2912 2873 2911 2945
8 2943 2909 2942 2970 2913 2874 2912 2946
8 2945 2911 2944 2971 2915 2876 2914 2947
8 2946 2912 2945 2972 2916 2877 2915 2948
8 2948 2915 2947 2973 2918 2880 2917 2949
8 2951 2920 2888 2924 2975 2950 2923 2954
8 2952 2921 2889 2925 2976 2951 2924 2955
8 2927 2893 2928 2957 2954 2923 2953 2978
8 2955 2924 2892 2926 2979 2954 2927 2956
8 2929 2895 2930 2959 2956 2927 2957 2980
8 2930 2896 2931 2960 2957 2928 2958 2981
8 2932 2898 2933 2961 2959 2930 2960 2982
8 2951 2920 2950 2975 2963 2935 2962 2984
8 2963 2935 2962 2984 2939 2905 2938 2966
8 2964 2936 2921 2952 2985 2963 2951 2976
8 2964 2936 2963 2985 2940 2906 2939 2967
8 2966 2938 2965 2987 2942 2908 2941 2969
8 2967 2939 2966 2988 2943 2909 2942 2970
8 2969 2941 2968 2989 2945 2911 2944 2971
8 2970 2942 2969 2990 2946 2912 2945 2972
8 2972 2945 2971 2991 2948 2915 2947 2973
8 2954 2923 2953 2978 2975 2950 2974 2993
8 2976 2951 2924 2955 2994 2975 2954 2979
8 2957 2928 2958 2981 2978 2953 2977 2995
8 2956 2927 2957 2980 2979 2954 2978 2996
8 2959 2930 2960 2982 2980 2957 2981 2997
8 2984 2962 2983 2999 2966 2938 2965 2987
8 2975 2950 2974 2993 2984 2962 2983 2999
8 2976 2951 2975 2994 2985 2963 2984 3000
8 2985 2963 2984 3000 2967 2939 2966 2988
8 2987 2965 2986 3001 2969 2941 2968 2989
8 2988 2966 2987 3002 2970 2942 2969 2990
8 2990 2969 2989 3003 2972 2945 2971 2991
8 2978 2953 2977 2995 2993 2974 2992 3004
8 2979 2954 2978 2996 2994 2975 2993 3005
8 2980 2957 2981 2997 2996 2978 2995 3006
8 2974 2993 2999 2983 2992 3004 3007 2998
8 2983 2999 2987 2965 2998 3007 3001 2986
8 3000 2984 2999 3008 2988 2966 2987 3002
8 2994 2975 2993 3005 3000 2984 2999 3008
8 3002 2987 3001 3009 2990 2969 2989 3003
8 2996 2978 2995 3006 3005 2993 3004 3010
8 3005 2993 3004 3010 3008 2999 3007 3011
8 3008 2999 3007 3011 3002 2987 3001 3009

CELL_TYPES 1910
12
12
12
12
12
12
12
12
12
12
12
12
12
12
12
12
12
12
12
12
12
12
12
12
12
12
12
12
12
12
12
12
12
12
12
12
12
12
12
12
12
12
12
12
12
12
12
12
12
12
12
12
12
12
12
12
12
12
12
12
12
12
12
12
12
12
12
12
12
12
12
12
12
12
12
12
12
12
12
12
12
12
12
12
12
12
12
12
12
12
12
12
12
12
12
12
12
12
12
12
12
12
12
12
12
12
12
12
12
12
12
12
12
12
12
12
12
12
12
12
12
12
12
12
12
12
12
12
12
12
12
12
12
12
12
12
12
12
12
12
12
12
12
12
12
12
12
12
12
12
12
12
12
12
12
12
12
12
12
12
12
12
12
12
12
12
12
12
12
12
12
12
12
12
12
12
12
12
12
12
12
12
12
12
12
12
12
12
12
12
12
12
12
12
12
12
12
12
12
12
12
12
12
12
12
12
12
12
12
12
12
12
12
12
12
12
12
12
12
12
12
12
12
12
12
12
12
12
12
12
12
12
12
12
12
12
12
12
12
12
12
12
12
12
12
12
12
12
12
12
12
12
12
12
12
12
12
12
12
12
12
12
12
12
12
12
12
12
12
12
12
12
12
12
12
12
12
12
12
12
12
12
12
12
12
12
12
12
12
12
12
12
12
12
12
12
12
12
12
12
12
12
12
12
12
12
12
12
12
12
12
12
12
12
12
12
12
12
12
12
12
12
12
12
12
12
12
12
12
12
12
12
12
12
12
12
12
12
12
12
12
12
12
12
12
12
12
12
12
12
12
12
12
12
12
12
12
12
12
12
12
12
12
12
12
12
12
12
12
12
12
12
12
12
12
12
12
12
12
12
12
12
12
12
12
12
12
12
12
12
12
12
12
12
12
12
12
12
12
12
12
12
12
12
12
12
12
12
12
12
12
12
12
12
12
12
12
12
12
12
12
12
12
12
12
12
12
12
12
12
12
12
12
12
12
12
12
12
12
12
12
12
12
12
12
12
12
12
12
12
12
12
12
12
12
12
12
12
12
12
12
12
12
12
12
12
12
12
12
12
12
12
12
12
12
12
12
12
12
12
12
12
12
12
12
12
12
12
12
12
12
12
12
12
12
12
12
12
12
12
12
12
12
12
12
12
12
12
12
12
12
12
12
12
12
12
12
12
12
12
12
12
12
12
12
12
12
12
12
12
12
12
12
12
12
12
12
12
12
12
12
12
12
12
12
12
12
12
12
12
12
12
12
12
12
12
12
12
12
12
12
12
12
12
12
12
12
12
12
12
12
12
12
12
12
12
12
12
12
12
12
12
12
12
12
12
12
12
12
12
12
12
12
12
12
12
12
12
12
12
12
12
12
12
12
12
12
12
12
12
12
12
12
12
12
12
12
12
12
12
12
12
12
12
12
12
12
12
12
12
12
12
12
12
12
12
12
12
12
12
12
12
12
12
12
12
12
12
12
12
12
12
12
12
12
12
12
12
12
12
12
12
12
12
12
12
12
12
12
12
12
12
12
12
12
12
12
12
12
12
12
12
12
12
12
12
12
12
12
12
12
12
12
12
12
12
12
12
12
12
12
12
12
12
12
12
12
12
12
12
12
12
12
12
12
12
12
12
12
12
12
12
12
12
12
12
12
12
12
12
12
12
12
12
12
12
12
12
12
12
12
12
12
12
12
12
12
12
12
12
12
12
12
12
12
12
12
12
12
12
12
12
12
12
12
12
12
12
12
12
12
12
12
12
12
12
12
12
12
12
12
12
12
12
12
12
12
12
12
12
12
12
12
12
12
12
12
12
12
12
12
12
12
12
12
12
12
12
12
12
12
12
12
12
12
12
12
12
12
12
12
12
12
12
12
12
12
12
12
12
12
12
12
12
12
12
12
12
12
12
12
12
12
12
12
12
12
12
12
12
12
12
12
12
12
12
12
12
12
12
12
12
12
12
12
12
12
12
12
12
12
12
12
12
12
12
12
12
12
12
12
12
12
12
12
12
12
12
12
12
12
12
12
12
12
12
12
12
12
12
12
12
12
12
12
12
12
12
12
12
12
12
12
12
12
12
12
12
12
12
12
12
12
12
12
12
12
12
12
12
12
12
12
12
12
12
12
12
12
12
12
12
12
12
12
12
12
12
12
12
12
12
12
12
12
12
12
12
12
12
12
12
12
12
12
12
12
12
12
12
12
12
12
12
12
12
12
12
12
12
12
12
12
12
12
12
12
12
12
12
12
12
12
12
12
12
12
12
12
12
12
12
12
12
12
12
12
12
12
12
12
12
12
12
12
12
12
12
12
12
12
12
12
12
12
12
12
12
12
12
12
12
12
12
12
12
12
12
12
12
12
12
12
12
12
12
12
12
12
12
12
12
12
12
12
12
12
12
12
12
12
12
12
12
12
12
12
12
12
12
12
12
12
12
12
12
12
12
12
12
12
12
12
12
12
12
12
12
12
12
12
12
12
12
12
12
12
12
12
12
12
12
12
12
12
12
12
12
12
12
12
12
12
12
12
12
12
12
12
12
12
12
12
12
12
12
12
12
12
12
12
12
12
12
12
12
12
12
12
12
12
12
12
12
12
12
12
12
12
12
12
12
12
12
12
12
12
12
12
12
12
12
12
12
12
12
12
12
12
12
12
12
12
12
12
12
12
12
12
12
12
12
12
12
12
12
12
12
12
12
12
12
12
12
12
12
12
12
12
12
12
12
12
12
12
12
12
12
12
12
12
12
12
12
12
12
12
12
12
12
12
12
12
12
12
12
12
12
12
12
12
12
12
12
12
12
12
12
12
12
12
12
12
12
12
12
12
12
12
12
12
12
12
12
12
12
12
12
12
12
12
12
12
12
12
12
12
12
12
12
12
12
12
12
12
12
12
12
12
12
12
12
12
12
12
12
12
12
12
12
12
12
12
12
12
12
12
12
12
12
12
12
12
12
12
12
12
12
12
12
12
12
12
12
12
12
12
12
12
12
12
12
12
12
12
12
12
12
12
12
12
12
12
12
12
12
12
12
12
12
12
12
12
12
12
12
12
12
12
12
12
12
12
12
12
12
12
12
12
12
12
12
12
12
12
12
12
12
12
12
12
12
12
12
12
12
12
12
12
12
12
12
12
12
12
12
12
12
12
12
12
12
12
12
12
12
12
12
12
12
12
12
12
12
12
12
12
12
12
12
12
12
12
12
12
12
12
12
12
12
12
12
12
12
12
12
12
12
12
12
12
12
12
12
12
12
12
12
12
12
12
12
12
12
12
12
12
12
12
12
12
12
12
12
12
12
12
12
12
12
12
12
12
12
12
12
12
12
12
12
12
12
12
12
12
12
12
12
12
12
12
12
12
12
12
12
12
12
12
12
12
12
12
12
12
12
12
12
12
12
12
12
12
12
12
12
12
12
12
12
12
12
12
12
12
12
12
12
12
12
12
12
12
12
12
12
12
12
12
12
12
12
12
12
12
12
12
12
12
12
12
12
12
12
12
12
12
12
12
12
12
12
12
12
12
12
12
12
12
12
12
12
12
12
12
12
12
12
12
12
12
12
12
12
12
12
12
12
12
12
12
12
12
12
12
12
12
12
12
12
12
12
12
12
12
12
12
12
12
12
12
12
12
12
12
12
12
12
12
12
12
12
12
12
12
12
12
12
12
12
12
12
12
12
12
12
12
12
12
12
12
12
12
12
12
12
12
12
12
12
12
12
12
12
12
12
12
12
12
12
12
12
12
12
12
12
12
12
12
12
12
12
12
12
12
12
12
12
12
12
12
12
12
12
12
12
12
12
12
12
12
12
12
12
12
12
12
12
12
12
12
12
12
12
12
12
12
12
12
12
12
12
12
12
12
12
12
12
12
12
12
12
12
12
12
12
12
12
12
12
12
12
12
12
12
12
12
12
12
12
12
12
12
12
12
12
12
12
12
12
12
12
12
12
12
12
12
12
12
12
12
12
12
12
12
12
12
12
12
12
12
12
12
12
12
12
12
12
12
12
12
12
12
12
12
12
12
12
12
12
12
12
12
12
12
12
12
12
12
12
12
12
12
12
12
12
12
12
12
12
12
12
12
12
12
12
12
12
12
12
12
12
12
12
12
12
12
12
12
12
12
12
12
12
12
12
12
12
12
12
12
12
12
12
12
12
12
12
12
12
12
12
12
12
12
12
12
12
12
12
12
12
12
12
12
12
12
12
12
12
12
12
12
12
12
12
12
12
12
12
12
12
12
12
12
12
12
12
12
12
12
12
12
12
12
12
12
12
12
12
12
12
12
12
12
12
12
12
12
12
12
12
12
12
12
12
12
12
12
12

POINT_DATA 3012
SCALARS Jp_lamdaP float 4
LOOKUP_TABLE default
0.999571 1 1 0.999571
1 1 1 1
0.999584 1 1 0.999584
0.999514 1 1 0.999514
0.999573 1 1 0.999573
0.999546 1 1 0.999546
1.00377 1.00516 1 0.998612
1 1 1 1
1 1 1 1
1 1 1 1
0.999641 1 1 0.999641
1.00028 1.0016 1 0.99868
0.999532 1 1 0.999532
0.999528 1 1 0.999528
0.999588 1 1 0.999588
0.999545 1 1 0.999545
0.999554 1 1 0.999554
0.999595 1 1 0.999595
1.00383 1.00523 1 0.998612
1 1 1 1
0.999499 1 1 0.999499
0.999548 1 1 0.999548
1.00045 1.00196 1 0.998498
1.00301 1.00443 1 0.998595
0.999541 1 1 0.999541
1.00282 1.00421 1 0.998614
1.02457 1.02748 1 0.997171
1 1 1 1
0.99978 1 1 0.99978
0.999793 1 1 0.999793
1 1 1 1
0.99979 1.0011 1 0.99869
0.999552 1 1 0.999552
0.999581 1 1 0.999581
1.00419 1.00541 1 0.99879
1 1 1 1
1.0027 1.00384 1 0.998865
0.998909 1.00013 1 0.998775
1.01454 1.01746 1 0.997132
1 1 1 1
1 1 1 1
0.999765 1 1 0.999765
1 1 1 1
0.999542 1 1 0.999542
0.998431 1 1 0.998431
1 1 1 1
0.999684 1.00099 1 0.998696
0.999573 1 1 0.999573
0.99961 1 1 0.99961
0.999556 1 1 0.999556
1.00392 1.00531 1 0.998616
0.999751 1 1 0.999751
0.999528 1 1 0.999528
0.999556 1 1 0.999556
0.999576 1 1 0.999576
1.0002 1.00171 1 0.998492
1.00299 1.00438 1 0.998616
1.00297 1.00438 1 0.998594
1.02467 1.02759 1 0.997159
1 1 1 1
0.999508 1 1 0.999508
0.998754 1 1 0.998754
0.998971 1.0005 1 0.998477
1.00183 1.00329 1 0.998549
1.02686 1.03001 1 0.996942
1.02518 1.02822 1 0.997044
0.999602 1 1 0.999602
0.999178 1.00048 1 0.998701
1.02219 1.02501 1 0.997245
1.04485 1.04875 1 0.996285
1 1 1 1
1 1 1 1
1 1 1 1
0.999409 1.00071 1 0.998698
1 1 1 1
1 1 1 1
1.00394 1.00538 1 0.998562
0.999862 1 1 0.999862
1.00173 1.00308 1 0.998657
0.999188 1.00018 1.00008 0.998926
1.01387 1.01679 1 0.997128
1 1 1 1
1.00178 1 1.00216 0.999625
1.00316 1.00469 1 0.998479
1.00377 1.00518 1 0.998593
1.02957 1.03295 1 0.996725
0.999672 1 1.00044 0.999232
1.01989 1.02293 1 0.997033
1.0097 1.01242 1.00002 0.997292
1.02948 1.03323 1 0.996371
1 1 1 1
1 1 1 1
1 1 1 1
1 1 1 1
1 1 1 1
0.99977 1 1 0.99977
0.998582 1 1 0.998582
0.999765 1 1 0.999765
1.00028 1.00171 1 0.998578
1 1 1 1
0.99846 1 1 0.99846
0.998789 1.00009 1 0.998701
1.02149 1.02496 1 0.996615
1.00177 1.00305 1 0.998728
1.02955 1.03305 1 0.996618
0.999556 1 1 0.999556
0.999553 1 1 0.999553
0.999566 1 1 0.999566
0.999601 1 1 0.999601
0.999976 1.00149 1 0.998489
1.00293 1.00434 1 0.998597
1.00308 1.00446 1 0.998621
1.0248 1.02773 1 0.997147
1 1 1 1
0.999535 1 1 0.999535
0.998493 1 1 0.998493
0.998828 1.00036 1 0.998468
0.999803 1 1 0.999803
0.999848 1.00106 1 0.998787
1.00168 1.00314 1 0.998546
1.02694 1.03012 1 0.996914
1.02182 1.02465 1 0.99723
1.0257 1.02872 1 0.997065
1.04475 1.04864 1 0.996294
0.998483 1 1 0.998483
0.99851 1.00002 1 0.998486
1.02083 1.02401 1 0.996896
1.025 1.02821 1 0.996883
1.02656 1.02969 1 0.996958
1.05711 1.06102 1 0.996311
1 1 1 1
1.04865 1.05255 1 0.996294
0.99929 1 1.00041 0.998878
1.01404 1.01689 1 0.997194
1.04136 1.04525 1 0.996275
1.04967 1.05362 1 0.996254
1.0015 1 1.00223 0.999276
1.00647 1 1.00844 0.998052
1 1 1 1
1 1 1 1
1.00387 1.00531 1 0.998568
1 1 1 1
0.999211 1.00004 1.00031 0.998856
1.00123 1.00257 1 0.998665
1.01328 1.0162 1 0.997124
1 1 1 1
1.00152 1 1.00187 0.999649
1.00357 1.00495 1 0.998619
1.00355 1.00483 1 0.998722
1.02891 1.03229 1 0.996725
0.999971 1 1.00084 0.999136
1.01989 1.02292 1 0.997035
1.00771 1.01038 1.00006 0.997289
1.03081 1.03457 1 0.996367
1.00118 1 1.0018 0.999383
1.00086 1 1.00106 0.999797
1.00462 1.00013 1.00612 0.998383
1.03156 1.03504 1 0.996637
1.02605 1.02927 1 0.996876
1.05216 1.0562 1 0.996176
1.00416 1.00577 1.0008 0.997598
1.03865 1.04243 1 0.996373
1.0205 1.02356 1.00057 0.996444
1.038 1.0419 1 0.996251
1 1 1 1
1 1 1 1
1 1 1 1
1.00175 1 1.0023 0.999449
1 1 1 1
1 1 1 1
1 1 1 1
1.00065 1.0022 1 0.998463
0.998474 1.00001 1 0.998467
1 1 1 1
1 1 1 1
0.99846 1 1 0.99846
0.998881 1.0003 1 0.998585
1.02229 1.02576 1 0.996615
1.00201 1.00355 1 0.99847
1.02903 1.03252 1 0.996617
0.998461 1 1 0.998461
1.02012 1.02361 1 0.996592
1.0247 1.02816 1 0.99663
1.06143 1.06552 0.99982 0.996339
1.03175 1.03526 1 0.996608
1.06392 1.06787 1 0.996299
1 1 1 1
0.999562 1 1 0.999562
0.998203 1 1 0.998203
0.998695 1.00023 1 0.998461
1 1 1 1
1.00076 1.00189 1 0.998876
1.00153 1.00299 1 0.998546
1.02706 1.03027 1 0.996886
1.02635 1.02935 1 0.997087
1.02129 1.02414 1 0.997215
1.04464 1.04851 1 0.996303
0.998481 1 1 0.998481
0.998496 1.00002 1 0.998478
1.02077 1.02409 1 0.996758
1.0253 1.02849 1 0.996897
1 1 1 1
0.999515 1.00035 1.00021 0.998953
1.01554 1.01831 1 0.997284
1.02694 1.03008 1 0.996952
1.05719 1.0611 1 0.996313
1.04133 1.04523 1 0.996272
1.04883 1.0527 1 0.996327
1.04924 1.05318 1 0.996263
1.00133 1 1.00206 0.999263
1.00534 1.00002 1.00728 0.998054
1.02003 1.0235 1 0.996613
1.02186 1.02504 1 0.996899
1.0585 1.06235 1 0.996372
1.05771 1.06232 0.999335 0.996326
1.05319 1.05703 1 0.996368
1.05954 1.06429 0.999031 0.996503
1.00045 1 1.00137 0.999078
1.05264 1.05646 1 0.996386
1.00748 1.01001 1.00011 0.997394
1.03582 1.03966 1 0.996312
1.04716 1.05122 1 0.996134
1.04899 1.05265 1 0.996525
1.0034 1.0009 1.00472 0.997782
1.00643 1 1.00807 0.998377
1.00437 1.00152 1.00552 0.997343
1.0037 1.0052 1 0.998511
1 1 1 1
1.00103 1 1.00135 0.999673
1.00303 1.00441 1 0.998628
1.02835 1.03173 1 0.996724
1.00018 1 1.00105 0.999135
1.00612 1.00882 1.00004 0.997287
1.01928 1.02231 1 0.997037
1.03229 1.03606 1 0.996363
1.00129 1 1.00189 0.999405
1.0005 1 1.00068 0.999816
1.00548 1 1.0071 0.998383
1.03075 1.03423 1 0.996634
1.02538 1.02859 1 0.996879
1.05229 1.05633 1 0.996171
1.00259 1.00441 1.00059 0.997603
1.0393 1.04308 1 0.996373
1.02262 1.02579 1.00047 0.996437
1.03923 1.04314 1 0.996255
1.0002 1 1.0003 0.999893
1.00308 1.00157 1.00355 0.997959
1.00452 1 1.00571 0.99882
1.0061 1.00162 1.0068 0.997696
1.05666 1.06071 1 0.996178
1.04622 1.05015 1 0.996264
1.05422 1.05824 1 0.996199
1.01247 1.01523 1.00049 0.996796
1.04163 1.04545 1 0.99635
1.03499 1.03735 1.00158 0.996154
1.04773 1.05171 1 0.996217
0.99955 1 1 0.99955
0.999966 1 1 0.999966
1 1 1 1
1 1 1 1
1 1 1 1
1.00133 1 1.00171 0.99962
1 1 1 1
1.00193 1 1.0025 0.999433
1 1 1 1
1.00256 1.00409 1 0.998471
0.999121 1.00065 1 0.998469
1.029 1.0325 1 0.996615
1.02305 1.02652 1 0.996616
0.998462 1 1 0.998462
1 1 1 1
0.998461 1 1 0.998461
1.02042 1.02391 1 0.996592
1.02565 1.02912 1 0.996629
1.06061 1.06463 0.999884 0.996337
1.03104 1.03455 1 0.996605
1.06343 1.06738 1 0.996296
1.01975 1.02324 1 0.996592
1.05901 1.06301 0.999912 0.996318
1.06412 1.06814 0.999903 0.996334
1.06294 1.07121 0.995577 0.996679
1.0612 1.06521 1 0.996237
1.06324 1.06941 0.997648 0.996569
0.998479 1 1 0.998479
0.998469 1 1 0.998469
1.02073 1.02419 1 0.996621
1.0255 1.02868 1 0.996911
1 1 1 1
0.999541 1.00048 1.00003 0.999028
1.01673 1.0194 1 0.997374
1.02732 1.03047 1 0.996945
1.05718 1.06109 1 0.996316
1.04885 1.05268 1 0.99636
1.04155 1.04545 1 0.996268
1.0489 1.05282 1 0.996273
1.00132 1 1.00207 0.999251
1.00502 1.00027 1.00671 0.998056
1.01993 1.0234 1 0.996604
1.02199 1.02517 1 0.996893
1.05807 1.06221 0.999704 0.9964
1.05854 1.06282 0.999651 0.996319
1.00009 1 1.00102 0.999067
1.00912 1.01162 1.00013 0.997393
1.0352 1.03901 1 0.996339
1.05305 1.05691 1 0.996345
1.05884 1.06387 0.998717 0.996553
1.04691 1.05098 1 0.996124
1.05261 1.05643 1 0.996391
1.04904 1.05271 1 0.996519
1.00388 1.00158 1.00452 0.997782
1.00518 1.00191 1.00594 0.997338
1.00682 1 1.00846 0.998377
1.05775 1.06162 1 0.996351
1.05886 1.06322 0.999497 0.996402
1.0625 1.06923 0.99709 0.996609
1.0602 1.06672 0.997305 0.996568
1.05493 1.05942 0.999246 0.996508
1.05135 1.06141 0.993649 0.996858
1.00205 1.0038 1.00066 0.997598
1.05043 1.05526 0.998734 0.996688
1.02264 1.02615 1 0.996585
1.0391 1.04332 1 0.995954
1.04488 1.04891 1 0.996159
1.04227 1.04618 0.999464 0.996796
1.00584 1 1.00717 0.998677
1.00265 1.00481 1.00067 0.997175
1.00848 1.00001 1.01098 0.997518
1.00455 1.00487 1.00266 0.997029
1.03001 1.03349 1 0.99663
1.00013 1 1.0003 0.999834
1.00152 1 1.0021 0.999428
1.00706 1 1.00869 0.998382
1.02483 1.02803 1 0.996881
1.05234 1.05639 1 0.996165
1.00042 1.0024 1.00041 0.997608
1.02345 1.02678 1.00033 0.996428
1.04035 1.04413 1 0.996373
1.03917 1.04308 1 0.996258
0.999983 1 1.00008 0.999906
1.00322 1.00093 1.00434 0.997962
1.00454 1 1.00572 0.998828
1.00574 1.00103 1.00703 0.997691
1.05671 1.06077 1 0.996171
1.04643 1.05036 1 0.996262
1.05371 1.05774 1 0.996196
1.01019 1.01297 1.00045 0.996802
1.04123 1.04505 1 0.996341
1.03297 1.03518 1.00173 0.996141
1.04721 1.05109 1 0.996305
0.999942 1 1 0.999942
1.00207 1 1.00292 0.999155
1.00589 1.0067 1.00191 0.997288
1.008 1.00037 1.00956 0.998076
1.00382 1.00317 1.00322 0.997438
1.05927 1.06321 1 0.996291
1.04749 1.05145 1 0.996238
1.04874 1.05257 1 0.996365
1.01461 1.01625 1.00199 0.996407
1.04103 1.04482 1 0.996381
1.0281 1.03138 1.00086 0.995968
0.999484 1 1 0.999484
0.999562 1 1.00065 0.998911
0.999606 1 1 0.999606
0.999552 1 1 0.999552
0.999978 1 1 0.999978
0.999969 1 1 0.999969
1 1 1 1
1 1 1 1
1 1 1 1
1.00035 1 1.00056 0.999791
1 1 1 1
1.00165 1 1.00204 0.999603
1 1 1 1
1.0017 1 1.00229 0.999417
1 1 1 1
1.03023 1.03375 1 0.996601
1.02625 1.02972 1 0.996628
1.06253 1.06649 1 0.996293
1.05974 1.06369 0.999947 0.996336
1.02079 1.02428 1 0.996593
0.998459 1 1 0.998459
1.01982 1.02331 1 0.996592
1.05887 1.06285 0.999937 0.996319
1.06262 1.06661 0.999931 0.996332
1.06279 1.07154 0.995127 0.996697
1.06078 1.06479 1 0.996232
1.06363 1.06966 0.997786 0.996568
1.0578 1.06175 0.999969 0.996309
1.06261 1.071 0.995453 0.996703
1.06271 1.07081 0.995781 0.996647
1.05703 1.0677 0.99307 0.996913
1.06143 1.06584 0.999421 0.996442
1.0561 1.06948 0.990546 0.996914
1.01984 1.02333 1 0.996595
1.02215 1.02534 1 0.996887
1.05766 1.0621 0.999395 0.996427
1.05951 1.06343 1 0.996312
0.999736 1 1.00068 0.999057
1.01142 1.01393 1.00013 0.997392
1.03555 1.03932 1 0.996366
1.05292 1.0568 1 0.996322
1.05814 1.06347 0.998382 0.996604
1.0526 1.05641 1 0.996395
1.04656 1.05064 1 0.996114
1.04922 1.05289 1 0.996512
1.00398 1.00217 1.00403 0.997782
1.00574 1.00213 1.00629 0.997334
1.00686 1 1.0085 0.998377
1.05776 1.06165 1 0.996337
1.05875 1.06326 0.999352 0.9964
1.06191 1.06919 0.996527 0.996655
1.06 1.06625 0.997592 0.996544
1.00406 1.00562 1.00085 0.997596
1.02285 1.02636 1 0.996582
1.03791 1.04206 1.00003 0.995988
1.05534 1.05959 0.999518 0.996466
1.05107 1.06179 0.992974 0.996907
1.04596 1.05003 1 0.99612
1.0507 1.05548 0.998772 0.99669
1.04341 1.04717 0.999576 0.996832
1.0041 1.00574 1.0012 0.997175
1.00435 1.00456 1.00281 0.996987
1.00547 1 1.0068 0.998674
1.00816 1.00001 1.01061 0.997558
1.06189 1.0692 0.996501 0.996654
1.06304 1.07017 0.996733 0.996593
1.05189 1.06302 0.992678 0.99683
1.04972 1.06357 0.990018 0.996935
1.05115 1.05858 0.996133 0.996835
1.04959 1.06265 0.990598 0.997084
1.00962 1.01275 1 0.996903
1.04273 1.05078 0.995272 0.997058
1.0254 1.02935 1 0.996161
1.03542 1.03962 1.00018 0.995789
1.04554 1.04957 1 0.996164
1.04545 1.04908 0.999682 0.996861
1.0014 1 1.00246 0.998945
1.01105 1 1.01327 0.997814
1.00594 1.00914 1 0.996829
1.00616 1.00251 1.00645 0.997209
1.00657 1.00584 1.0039 0.996839
0.999919 1 1 0.999919
1.0567 1.06077 1 0.996164
1.0043 1 1.00547 0.998836
1.00348 1.00048 1.00504 0.997965
1.00515 1.00045 1.00703 0.997685
1.04658 1.05051 1 0.996259
1.05328 1.0573 1 0.996193
1.00971 1.01243 1.00051 0.996808
1.03313 1.03514 1.00193 0.996128
1.04092 1.04475 1 0.996331
1.04753 1.05132 1 0.996393
0.99995 1 1 0.99995
1.00176 1 1.0026 0.999166
1.00379 1.00516 1.00134 0.997294
1.00919 1.00026 1.01088 0.998072
1.00357 1.00254 1.00363 0.997403
1.05905 1.063 1 0.996285
1.04726 1.05122 1 0.996236
1.04869 1.05255 0.999979 0.996354
1.01586 1.01736 1.00213 0.996407
1.04402 1.04783 1 0.996368
1.02838 1.03152 1.00096 0.995998
1.00005 1 1.00068 0.999369
1.00484 1 1.00639 0.998463
1.00215 1.00477 1.00048 0.996922
1.00991 1.00236 1.00984 0.997717
1.00472 1.00536 1.00203 0.997333
1.05601 1.06087 0.998892 0.996519
1.04279 1.04662 1 0.99634
1.04773 1.05164 0.999699 0.996582
1.00552 1.00549 1.00379 0.996249
1.02559 1.02974 1 0.995969
0.999486 1 1 0.999486
0.998825 1 1 0.998825
0.999679 1 1.00079 0.998886
0.999569 1 1.00094 0.998629
0.999578 1 1.00062 0.998957
0.999642 1 1 0.999642
0.999609 1 1 0.999609
0.999989 1 1 0.999989
0.999554 1 1 0.999554
0.999982 1 1 0.999982
1 1 1 1
0.999973 1 1 0.999973
1 1 1 1
1 1 1 1
0.999921 1 1 0.999921
1.00091 1 1.00114 0.999771
1 1 1 1
1 1 1 1
1.00219 1 1.00261 0.999586
1 1 1 1
1.06045 1.06446 1 0.996227
1.06151 1.06546 0.99996 0.99633
1.06417 1.07008 0.997907 0.996566
1.06274 1.07196 0.994667 0.996715
1.05865 1.0626 0.999968 0.996319
1.01984 1.02332 1 0.996592
1.05787 1.0618 0.999988 0.99631
1.06236 1.07064 0.995551 0.996698
1.06338 1.07148 0.995782 0.996647
1.0565 1.06771 0.992539 0.996943
1.0623 1.06664 0.999494 0.996436
1.0564 1.06954 0.990745 0.996936
1.06225 1.0701 0.995979 0.996673
1.05463 1.06657 0.99189 0.996892
1.05707 1.06905 0.991783 0.996981
1.05687 1.07167 0.989091 0.997064
1.05777 1.06683 0.994745 0.996749
1.05668 1.07329 0.987344 0.997139
1.05772 1.06162 1 0.996322
1.0586 1.06327 0.999199 0.996399
1.06129 1.06911 0.995974 0.996702
1.05969 1.06568 0.997848 0.99652
1.00562 1.00697 1.00107 0.997594
1.02123 1.02473 1 0.99658
1.03606 1.04002 1.00018 0.996022
1.05576 1.05975 0.999812 0.996424
1.05083 1.06216 0.992359 0.996956
1.05087 1.05562 0.998803 0.996691
1.04681 1.05093 1 0.996082
1.04404 1.04765 0.999683 0.99687
1.00602 1.00699 1.00186 0.997174
1.00418 1.00434 1.0029 0.996945
1.00545 1 1.00679 0.998672
1.00764 1.00012 1.00995 0.997599
1.06193 1.06923 0.996503 0.996654
1.06266 1.06971 0.996819 0.996574
1.05201 1.06328 0.992511 0.996861
1.05072 1.06375 0.9908 0.996918
1.01018 1.01328 1.00004 0.996896
1.02388 1.02776 1.00003 0.996198
1.03531 1.0393 1.00039 0.995778
1.05171 1.05859 0.996713 0.996784
1.04823 1.0617 0.990149 0.99714
1.04214 1.04617 1 0.996149
1.04378 1.05189 0.995217 0.997058
1.04614 1.04978 0.999613 0.996926
1.00526 1.00845 1 0.996831
1.0053 1.00587 1.00261 0.996829
1.00667 1.00211 1.00737 0.997204
1.00219 1 1.00328 0.998911
1.01067 1 1.01284 0.997858
1.05327 1.06528 0.991817 0.996876
1.05329 1.06621 0.990949 0.996898
1.04896 1.06703 0.985894 0.997124
1.04397 1.05824 0.989343 0.997146
1.01247 1.01598 1 0.996547
1.04789 1.05639 0.994704 0.997231
1.01445 1.0183 1.00029 0.995926
1.02962 1.03363 1.00051 0.99561
1.03871 1.04272 1 0.996158
0.99974 1 1.00055 0.999189
1.00843 1 1.01022 0.99823
1.00758 1 1.01006 0.997545
1.00502 1.00791 1.00044 0.996689
1.00664 1.00338 1.00641 0.996867
1.00759 1.00683 1.0041 0.996671
0.999957 1 1 0.999957
1.00107 1 1.00189 0.999176
1.05879 1.06274 1 0.99628
1.01039 1.00011 1.01224 0.998068
1.00089 1.00285 1.00074 0.9973
1.00328 1.00201 1.0039 0.997368
1.04692 1.05088 1 0.996234
1.04869 1.05258 0.999959 0.996342
1.01596 1.01729 1.00229 0.996407
1.02741 1.03071 1.00077 0.996027
1.0471 1.05093 1 0.996355
0.99967 1 1.0003 0.999374
1.00548 1 1.00703 0.998466
1.00439 1.00709 1.00041 0.996907
1.01028 1.00185 1.01073 0.997711
1.00497 1.00592 1.00174 0.997325
1.05529 1.06004 0.999002 0.996514
1.04408 1.04793 1 0.996327
1.04824 1.05214 0.999687 0.996606
1.00691 1.00747 1.00324 0.996215
1.024 1.02812 1.00006 0.995938
1.0007 1 1.00197 0.998739
1.01019 1 1.01219 0.998027
1.00487 1.00613 1.002 0.996757
1.01072 1.006 1.00726 0.997456
1.01526 1.01714 1.001 0.997157
1.04884 1.05942 0.99298 0.997012
1.04503 1.049 1 0.996218
1.04833 1.05219 0.999754 0.996574
1.00835 1.00789 1.00433 0.996136
1.01217 1.0165 1 0.995742
0.999489 1 1 0.999489
0.998842 1 1 0.998842
0.998619 1 1.00004 0.998578
0.999353 1 1.00049 0.99886
0.999338 1 1.00038 0.998956
0.999983 1 1.00138 0.998605
0.999314 1 1.00075 0.998568
1.00059 1 1.00205 0.998547
0.999087 1 1.00009 0.998997
0.999637 1 1 0.999637
0.999642 1 1 0.999642
0.999996 1 1 0.999996
0.999611 1 1 0.999611
0.999991 1 1 0.999991
1 1 1 1
0.999985 1 1 0.999985
1 1 1 1
1 1 1 1
0.999981 1 1 0.999981
0.999935 1 1.00003 0.9999
1 1 1 1
1.00126 1 1.0015 0.999751
1 1 1 1
1 1 1 1
1.06316 1.06743 0.99957 0.99643
1.0638 1.07189 0.995796 0.996648
1.05664 1.06954 0.990957 0.996958
1.05596 1.06767 0.992035 0.996973
1.06213 1.0703 0.995662 0.996693
1.05799 1.06191 1 0.996311
1.06223 1.06986 0.996193 0.996655
1.05523 1.06676 0.992278 0.996885
1.05641 1.06849 0.991711 0.996966
1.05552 1.07107 0.988368 0.997074
1.05738 1.06615 0.995009 0.996751
1.05436 1.07176 0.98655 0.997176
1.05539 1.06645 0.992744 0.996866
1.05655 1.07275 0.987795 0.997063
1.0574 1.07412 0.987247 0.997156
1.04983 1.06907 0.984767 0.997196
1.06201 1.06932 0.996505 0.996653
1.06236 1.06933 0.996912 0.996556
1.05217 1.06359 0.992346 0.996893
1.05178 1.06405 0.991544 0.996901
1.01149 1.01464 1.00001 0.996888
1.02306 1.02692 1 0.996236
1.03524 1.03903 1.00058 0.995766
1.05219 1.05856 0.997249 0.996733
1.04685 1.06077 0.989653 0.997196
1.04487 1.05305 0.995162 0.997059
1.03949 1.04352 1 0.996134
1.04755 1.05115 0.999583 0.99699
1.00318 1.00629 1.00008 0.996833
1.00468 1.0064 1.00148 0.996818
1.00753 1.00165 1.00871 0.997199
1.00257 1 1.0037 0.998879
1.01051 1 1.01264 0.997903
1.05345 1.0654 0.991873 0.996878
1.05381 1.0668 0.990904 0.996894
1.04915 1.06628 0.986785 0.997116
1.01249 1.016 1 0.996544
1.01475 1.0186 1.00026 0.995964
1.02794 1.0317 1.00076 0.995599
1.04431 1.05814 0.989764 0.997132
1.04188 1.04583 0.999954 0.996276
1.04418 1.05295 0.994454 0.997198
0.999882 1 1.00065 0.999234
1.00506 1.00709 1.00131 0.996683
1.00683 1.00536 1.0047 0.996784
1.00926 1.00472 1.00768 0.996861
1.00858 1.00053 1.01049 0.997568
1.00857 1 1.0104 0.998196
1.05519 1.07079 0.988445 0.996951
1.05315 1.07416 0.983333 0.997057
1.04258 1.0648 0.981884 0.997203
1.04009 1.06024 0.983616 0.997343
1.00888 1.01245 1.00011 0.996361
1.03924 1.04506 0.997625 0.996794
1.0062 1.00904 1.00165 0.995547
1.01714 1.02072 1.00104 0.995455
0.999541 1 1 0.999541
1.00243 1 1.00384 0.9986
1.00809 1 1.01024 0.997876
1.00873 1.00115 1.01054 0.997065
1.0054 1.00491 1.00396 0.996548
1.01133 1.00435 1.01048 0.996503
0.99945 1 1.00007 0.99938
1.0065 1 1.00805 0.99847
1.05472 1.05935 0.999111 0.996508
1.01052 1.0012 1.01163 0.997705
1.00665 1.00951 1.00027 0.996892
1.00443 1.0056 1.00152 0.997318
1.04551 1.04938 1 0.996314
1.0487 1.05259 0.999677 0.996631
1.00866 1.00977 1.00273 0.996181
1.02233 1.02625 1.00027 0.995908
1.00067 1 1.00193 0.998743
1.01068 1 1.01269 0.998007
1.00523 1.0065 1.00198 0.996764
1.01048 1.00637 1.00664 0.997462
1.01657 1.01892 1.00048 0.99722
1.05095 1.06135 0.99313 0.997059
1.04444 1.04837 1 0.99625
1.04917 1.05304 0.999675 0.996652
1.0088 1.00812 1.00458 0.996103
1.01187 1.01625 1.00003 0.995662
1.00192 1 1.00349 0.998427
1.01115 1.00179 1.01172 0.997645
1.01146 1.01099 1.00378 0.996692
1.01395 1.01533 1.00161 0.997037
1.04807 1.07886 0.974078 0.997309
1.04693 1.05404 0.996173 0.997074
1.03116 1.03544 1 0.995869
1.01469 1.01472 1.00426 0.995726
0.998858 1 1 0.998858
0.998711 1 1.00012 0.998587
0.998606 1 1 0.998606
0.999564 1 1.00061 0.998954
1.0007 1 1.00212 0.998582
0.999162 1 1.00017 0.998995
0.999153 1 1.00057 0.998585
1.001 1 1.00244 0.998555
0.998691 1 1 0.998691
1.00111 1 1.00269 0.998417
1.00046 1 1.00195 0.998513
0.998976 1 1 0.998976
0.999599 1 1 0.999599
0.999635 1 1 0.999635
0.999999 1 1 0.999999
0.999642 1 1 0.999642
0.999997 1 1 0.999997
1 1 1 1
0.999994 1 1 0.999994
1 1 1 1
1 1 1 1
0.999998 1 1 0.999998
0.999969 1 1 0.999969
1 1 1 1
1.00014 1 1.00026 0.999879
1 1 1 1
1 1 1 1
1.05691 1.06539 0.995268 0.996753
1.05587 1.06804 0.991633 0.996951
1.05214 1.07031 0.985774 0.997213
1.05414 1.07049 0.987606 0.997085
1.05582 1.06698 0.99264 0.996878
1.06219 1.06962 0.996405 0.996636
1.05516 1.06633 0.992637 0.996866
1.05634 1.0724 0.987935 0.997054
1.05588 1.07327 0.986611 0.997155
1.05079 1.06983 0.984957 0.997206
1.05754 1.07267 0.988851 0.997009
1.05773 1.07923 0.982819 0.997213
1.057 1.08095 0.980521 0.997267
1.05361 1.06551 0.991929 0.996879
1.05428 1.0673 0.990881 0.99689
1.04943 1.0655 0.987769 0.997108
1.01363 1.01715 1 0.996541
1.01453 1.01842 1.00018 0.996001
1.02599 1.02966 1.00085 0.995586
1.04471 1.05813 0.99017 0.997118
1.04017 1.04959 0.993849 0.997164
1.04469 1.04861 0.999861 0.996393
1.00433 1.00582 1.00185 0.996677
1.00254 1.00202 1.00363 0.996897
1.01108 1.00567 1.00855 0.996856
0.999955 1 1.00068 0.999279
1.00839 1.00102 1.00979 0.997591
1.00895 1 1.01081 0.998161
1.05594 1.07123 0.988738 0.996959
1.05238 1.07387 0.982877 0.997063
1.04287 1.06466 0.982295 0.997195
1.00639 1.01005 1.00002 0.996354
1.006 1.00902 1.0014 0.995621
1.01728 1.02091 1.0009 0.995547
1.04047 1.05997 0.984218 0.997346
1.03541 1.04197 0.996925 0.996772
0.999612 1 1 0.999612
1.00237 1 1.00378 0.998597
1.00247 1.00345 1.00244 0.99659
1.0137 1.00356 1.01349 0.996662
1.00885 1.00203 1.00972 0.997115
1.00801 1.00002 1.01018 0.997833
1.05538 1.07743 0.98235 0.997133
1.04333 1.07604 0.972365 0.997157
1.03953 1.06465 0.978958 0.997388
1.02967 1.04651 0.986523 0.997343
1.00225 1.00484 1.00133 0.996094
1.01876 1.02174 1.0012 0.995883
1.0069 1.00895 1.00264 0.995347
0.999798 1 1 0.999798
0.999255 1 1 0.999255
0.999436 1 1.00049 0.998946
1.00298 1 1.00489 0.998097
1.00899 1 1.01156 0.997469
1.01221 1.00207 1.01333 0.996832
1.0027 1.00192 1.00406 0.996734
1.03837 1.00195 1.0395 0.996968
1.00043 1 1.00169 0.998747
1.01113 1 1.01316 0.997987
1.05318 1.06333 0.993324 0.997106
1.01206 1.00827 1.0063 0.997468
1.00578 1.00686 1.00215 0.996773
1.01756 1.0203 1.00004 0.997284
1.04372 1.04761 1 0.996281
1.04996 1.05383 0.999593 0.996729
1.00912 1.00824 1.00482 0.99607
1.01132 1.01581 1 0.995582
1.00227 1 1.00389 0.998385
1.00966 1.00086 1.01117 0.997645
1.01449 1.01362 1.00415 0.996713
1.01403 1.01557 1.00142 0.997077
1.04957 1.08127 0.973276 0.997329
1.04917 1.05549 0.996979 0.99702
1.03011 1.03432 1 0.995922
1.01655 1.01713 1.00377 0.995675
1.00325 1 1.00505 0.998204
1.05476 1.08678 0.973129 0.997335
1.00484 1.00177 1.0058 0.997273
1.01439 1.01526 1.00268 0.996473
1.03737 1.06559 0.976006 0.997444
1.02619 1.03064 0.999674 0.99601
1.01199 1.01333 1.00323 0.995456
0.998596 1 1 0.998596
0.998428 0.99976 1.00007 0.998596
0.999114 0.999704 1.00068 0.998732
0.999054 1 1.00006 0.998992
1.00102 1 1.00246 0.998563
0.999258 1 1.00066 0.998602
0.998973 1 1 0.998973
1.00056 1 1.00205 0.998519
0.998742 1 1.00003 0.998715
1.00054 1 1.00211 0.99843
0.998815 1 1 0.998815
0.998901 1 1.00034 0.998564
1.00106 1 1.00278 0.998281
0.998791 1 1.00036 0.998435
0.998895 1 1 0.998895
0.999554 1 1 0.999554
0.999595 1 1 0.999595
1 1 1 1
0.999633 1 1 0.999633
0.999999 1 1 0.999999
1 1 1 1
0.999998 1 1 0.999998
1 1 1 1
1 1 1 1
0.999828 1 1 0.999828
1 1 1 1
0.999995 1 1 0.999995
1 1 1 1
0.999956 1 1 0.999956
1 1 1 1
1 1 1 1
1.05175 1.07059 0.985149 0.997217
1.05437 1.07238 0.986014 0.997153
1.05615 1.07204 0.988102 0.997045
1.05489 1.06617 0.992532 0.996866
1.05715 1.07262 0.988512 0.997028
1.05761 1.07878 0.983119 0.997204
1.05435 1.07823 0.980524 0.997274
1.05726 1.07933 0.982306 0.997195
1.06879 1.09303 0.980473 0.997299
1.06727 1.0946 0.977406 0.997566
1.05668 1.07165 0.989036 0.996968
1.05142 1.07357 0.982251 0.997068
1.0432 1.06455 0.982708 0.997187
1.0054 1.00903 1.00006 0.996348
1.00675 1.00982 1.00126 0.995698
1.01936 1.02303 1.00078 0.995639
1.04104 1.05943 0.985252 0.997349
1.03117 1.0381 0.996569 0.99675
1.00352 1.00369 1.00321 0.996632
1.01782 1.00408 1.01691 0.996818
1.01015 1.00275 1.01024 0.997165
0.999682 1 1 0.999682
1.00226 1 1.00367 0.998594
1.00808 1 1.01031 0.99779
1.05518 1.07777 0.981847 0.997143
0.999793 1 1 0.999793
0.999216 1 1 0.999216
1.04443 1.0751 0.974246 0.997159
1.03763 1.06314 0.978585 0.997358
1.00312 1.00503 1.00192 0.996177
1.00672 1.00808 1.00332 0.995349
1.01809 1.02224 1.00007 0.995871
1.02865 1.04632 0.98576 0.997316
0.999569 1 1.00054 0.999034
1.00313 1 1.00505 0.998088
1.00318 1.00183 1.00474 0.996625
1.03277 1.00188 1.03383 0.997105
1.00953 1.00145 1.01126 0.996848
1.00816 1 1.0107 0.997484
1.06585 1.09341 0.977488 0.99725
1.02467 1.07366 0.956965 0.997291
1.02505 1.05426 0.974703 0.997537
1.01093 1.02661 0.987648 0.997036
1.00552 1.0028 1.00643 0.996316
1.00676 1.00589 1.0055 0.995391
0.999167 1 1 0.999167
0.999225 1 1 0.999225
0.998909 1 1 0.998909
0.998854 1 1.00053 0.998323
1.00748 1 1.00968 0.99782
1.00624 1.00036 1.00878 0.99712
1.0542 1.00014 1.05734 0.99689
0.998238 1.00049 1.00032 0.997431
1.00305 1 1.00471 0.998345
1.00767 1 1.01005 0.997644
1.05045 1.08273 0.972771 0.997348
1.05099 1.05656 0.997756 0.996966
1.01423 1.01599 1.00115 0.997117
1.01802 1.01686 1.00441 0.996734
1.02942 1.03355 1.00004 0.995975
1.01899 1.02005 1.00335 0.995623
1.00332 1 1.00514 0.998182
1.05774 1.09046 0.97253 0.997398
1.00502 1.00099 1.00674 0.997309
1.01257 1.01349 1.00269 0.996409
1.03686 1.06497 0.976122 0.997419
1.02505 1.02941 0.999668 0.996098
1.0132 1.01428 1.00348 0.995471
1.00646 0.999691 1.00888 0.997907
1.01124 1.05238 0.96301 0.997821
1.00449 1.00291 1.00459 0.99701
1.00504 1.00533 1.00379 0.995937
1.0176 1.03244 0.98863 0.996967
1.00283 1.00493 1.00221 0.995697
0.967938 1.00312 0.967836 0.996993
0.998053 0.999251 1.00021 0.998587
0.999032 0.998813 1.00149 0.998735
1.00012 0.99991 1.00155 0.998668
0.99897 1 1 0.99897
1.00125 1 1.00273 0.998525
0.999638 1 1.0012 0.998443
0.998829 1 1.00009 0.998741
0.998894 1 1 0.998894
0.998917 1 1.00049 0.998431
0.998781 1 1 0.998781
1.00096 1 1.00269 0.998282
0.998843 1 1.0003 0.998539
0.999343 1 1.00057 0.99877
0.99877 1 1.00067 0.998103
1.00188 1 1.00363 0.99825
0.998494 1 1.00019 0.998307
0.998737 1 1 0.998737
0.999771 1 1.00128 0.998495
0.999007 1 1.0003 0.998703
0.999533 1 1 0.999533
0.99955 1 1 0.99955
1 1 1 1
0.999591 1 1 0.999591
1 1 1 1
1 1 1 1
1 1 1 1
1 1 1 1
1 1 1 1
0.999861 1 1 0.999861
0.999829 1 1 0.999829
1 1 1 1
1 1 1 1
1 1 1 1
0.999991 1 1 0.999991
1 1 1 1
1 1 1 1
1.05185 1.0758 0.980406 0.997281
1.05729 1.07826 0.983317 0.997195
1.05679 1.0726 0.988174 0.997047
1.05713 1.07914 0.982365 0.997193
1.06597 1.09039 0.980257 0.997295
1.06608 1.09277 0.978035 0.997485
1.07226 1.10147 0.976056 0.997364
0.966117 1.01605 0.955562 0.995071
1.01945 1.05467 0.968266 0.998281
0.999329 1 1 0.999329
1.05502 1.07806 0.981419 0.997153
1.04565 1.07431 0.976097 0.997161
1.03548 1.06184 0.977791 0.997327
1.00005 1.00298 1.00082 0.996257
1.00521 1.00586 1.00402 0.995349
1.0168 1.0216 0.999442 0.995859
1.02724 1.04609 0.984656 0.997289
0.99883 1.00199 1.00033 0.996521
1.02656 1.00088 1.02849 0.997246
1.00633 1.00042 1.00907 0.996865
0.999788 1 1 0.999788
1.00882 1 1.01135 0.9975
0.999585 1 1.00047 0.999119
1.00334 1 1.00527 0.998077
0.999177 1 1 0.999177
1.06227 1.0936 0.974023 0.997257
0.999217 1 1 0.999217
0.999226 1 1 0.999226
0.99862 1.00022 0.999526 0.998872
1.02922 1.07419 0.960741 0.997289
1.0248 1.05409 0.974666 0.997488
1.00191 1.00217 1.0034 0.996348
1.01127 1.01034 1.00541 0.995526
1.00963 1.02432 0.988609 0.997018
0.99898 1 1.0006 0.998385
1.00724 1 1.00949 0.997767
1.00829 1.00031 1.01071 0.997295
1.04363 1.0003 1.04655 0.996909
1.00626 1.00059 1.00851 0.997173
1.03967 1.08203 0.963388 0.997367
1.00447 1.0612 0.948956 0.997449
1.01688 1.03589 0.984421 0.997179
0.992228 1.01098 0.984623 0.996781
1.0038 1 1.00676 0.997055
0.998738 1 1 0.998738
0.99868 1.00002 1 0.998665
0.999751 1 1.00112 0.998635
1.00782 1 1.00973 0.998114
1.00975 1 1.01209 0.997683
1.03999 0.999903 1.04295 0.997257
1.03237 1.00169 1.03329 0.997415
1.00328 1 1.00513 0.99816
1.0048 1 1.00747 0.997346
1.05963 1.09486 0.970284 0.997459
1.03688 1.06515 0.975996 0.997393
1.02422 1.02854 0.999616 0.996186
1.00977 1.01077 1.00268 0.996345
1.01386 1.0148 1.0036 0.995487
1.00655 0.999916 1.0087 0.997956
1.01175 1.05317 0.962728 0.997865
1.00154 1.00184 1.00268 0.997018
1.004 1.004 1.00408 0.995938
1.01626 1.03207 0.987554 0.997092
1.00346 1.00506 1.00273 0.995692
0.968675 1.00304 0.969695 0.995917
1.00679 0.999987 1.00899 0.997831
0.999095 1.02497 0.976895 0.997811
1.00071 1.00137 1.00252 0.996828
1.00423 1.00157 1.00644 0.996245
0.991905 1.00618 0.98893 0.99685
0.906675 0.975444 0.955441 0.972848
0.899536 0.965537 0.944947 0.985921
0.964904 0.983011 0.984342 0.997194
0.709352 0.828107 0.907004 0.944423
0.624419 0.781801 0.861627 0.92696
0.99904 0.998059 1.00225 0.998737
1.00098 0.99871 1.00356 0.998721
1.00113 1 1.00243 0.998703
0.998893 1 1 0.998893
0.998819 1 1.00039 0.998427
1.00037 1 1.00209 0.998284
0.998807 1 1.00029 0.998513
0.998747 1 1 0.998747
1.00255 1 1.00433 0.998228
0.998774 1 1 0.998774
0.998482 1 1.00015 0.998327
0.99918 1 1.00046 0.998718
0.999153 1 1.001 0.998156
1.00373 1 1.00557 0.998172
1.00457 1 1.00624 0.998339
1.00317 1 1.005 0.998172
0.999015 1 1.0008 0.998219
0.998703 1 1 0.998703
0.999181 1 1.00086 0.99832
0.999533 1 1.00117 0.998361
0.999432 1 1.00089 0.998541
0.99975 1 1.0013 0.998456
0.998888 1 1.00006 0.998827
0.99911 1 1.00041 0.9987
0.999527 1 1 0.999527
0.999533 1 1 0.999533
1 1 1 1
0.999547 1 1 0.999547
1 1 1 1
1 1 1 1
1 1 1 1
1 1 1 1
1 1 1 1
0.999901 1 1 0.999901
0.999858 1 1 0.999858
1 1 1 1
0.99983 1 1 0.99983
1 1 1 1
1 1 1 1
1 1 1 1
1 1 1 1
1 1 1 1
1.06285 1.0875 0.979991 0.997291
1.05715 1.07905 0.982467 0.997191
1.06509 1.09058 0.979176 0.997405
0.967267 1.01583 0.956829 0.995154
1.06934 1.0989 0.975675 0.997364
1.03084 1.05785 0.976272 0.998149
1.05059 1.07227 0.982239 0.997496
0.921317 0.978349 0.956002 0.985045
0.987926 1.01935 0.97304 0.996023
0.999359 1 1 0.999359
0.999324 1 1 0.999324
0.998848 1 1 0.998848
0.998959 1 1 0.998959
1.05949 1.09354 0.971521 0.997265
1.03352 1.07396 0.964966 0.997286
1.02517 1.05392 0.975221 0.99744
1.00057 1.00114 1.00306 0.99638
1.01613 1.01576 1.00472 0.995661
1.00862 1.02231 0.989576 0.996999
1.01916 1 1.02206 0.997156
1.03434 1.00075 1.03674 0.996926
1.00447 1.00037 1.0069 0.997226
0.999329 1 1.0001 0.999226
1.0053 1 1.00761 0.997714
0.999003 1 1.00056 0.998446
0.999266 1 1 0.999266
0.99874 1.00051 0.999391 0.998835
1.03814 1.0819 0.962075 0.997382
0.998769 1 1 0.998769
0.998688 1.00026 0.999695 0.998735
0.999428 0.99973 1.00088 0.998818
1.01077 1.06433 0.952113 0.997438
1.01729 1.03589 0.984822 0.997179
1.00254 1.00076 1.00475 0.997038
0.995595 1.01055 0.988306 0.996858
1.00598 1 1.00796 0.998036
1.00922 1 1.0117 0.997549
1.03772 1.00202 1.03834 0.997393
1.03973 1.00029 1.04238 0.997163
0.995349 1.05012 0.950148 0.997573
0.996169 1.03921 0.961038 0.997443
1.00691 1.01437 0.99579 0.996839
0.97937 1.00095 0.980566 0.997832
1.00165 1 1.00314 0.998511
1.00234 1 1.00403 0.998317
1.01586 0.999516 1.01819 0.998195
1.06171 1.0005 1.06392 0.997424
0.885819 0.96798 0.944278 0.969122
1.00714 1 1.00915 0.998005
0.999365 1.00091 1.00144 0.997025
1.01323 1.05375 0.963554 0.997913
1.01479 1.03121 0.986818 0.997216
1.00402 1.00506 1.0033 0.995684
1.00355 1.00316 1.00447 0.995936
0.969015 1.00421 0.969993 0.994809
1.00511 0.999531 1.00771 0.997887
0.997387 1.02588 0.974378 0.997793
1.00054 1.00148 1.00223 0.996843
1.00467 1.00233 1.00611 0.996253
0.995304 1.00732 0.991203 0.99684
0.902421 0.980974 0.949182 0.969176
0.893054 0.9613 0.945115 0.982956
0.969193 0.983694 0.987996 0.997231
0.704723 0.822695 0.905749 0.94574
0.610877 0.772448 0.857804 0.921927
1.0021 0.999287 1.0048 0.998029
0.735841 0.841727 0.921593 0.948578
0.659817 0.790256 0.899955 0.927758
0.987126 1.00595 0.983407 0.99784
1.0083 1.00153 1.00937 0.997419
1.01404 1.00527 1.01149 0.997259
0.957629 0.973679 0.985915 0.997567
0.881341 0.953449 0.952044 0.970932
0.862514 0.932895 0.94238 0.981086
0.69506 0.817729 0.895119 0.949581
0.679449 0.837911 0.877158 0.924446
1.00201 0.997742 1.00551 0.998773
1.00131 0.999129 1.00351 0.998676
1.0078 1 1.00897 0.998837
0.998811 1 1 0.998811
0.998348 1 1 0.998348
1.00318 1 1.00499 0.998206
0.999963 1 1.00176 0.998209
0.998665 1 1 0.998665
0.998706 1 1 0.998704
1.00414 1 1.006 0.998153
1.00349 1 1.00532 0.998175
0.998559 1 1.0003 0.998262
1.00509 1 1.00672 0.998374
1.00615 1 1.00788 0.998283
1.01717 1 1.01869 0.998505
1.00176 1 1.00369 0.998082
0.999043 1 1.00076 0.998286
0.998784 1 1.00047 0.998315
1.00006 1 1.00168 0.998379
1.0003 1 1.00214 0.998163
0.999397 1 1.00097 0.998432
1.00286 1 1.00442 0.998452
1.00707 1 1.00888 0.998212
0.999962 1 1.00146 0.998508
0.999128 1 1.00059 0.998543
0.998883 1 1.00002 0.998864
0.999502 1 1.00109 0.998417
0.998818 1 1.00002 0.998796
0.99951 1 1 0.99951
0.999203 1 1.00051 0.998697
0.999529 1 1 0.999529
0.999998 1 1 0.999998
0.999533 1 1 0.999533
1 1 1 1
1 1 1 1
1 1 1 1
1 1 1 1
1 1 1 1
0.999307 1 1 0.999307
0.999911 1 1 0.999911
0.999897 1 1 0.999897
1 1 1 1
0.999854 1 1 0.999854
1 1 1 1
1 1 1 1
1 1 1 1
1 1 1 1
1 1 1 1
0.969381 1.0155 0.959148 0.995241
1.06753 1.09667 0.976005 0.997363
1.03943 1.06147 0.98119 0.998015
0.91281 0.973292 0.950962 0.986221
0.987909 1.0195 0.972691 0.996219
1.04851 1.07592 0.977017 0.99745
0.996511 1.02911 0.971756 0.996467
0.928314 0.975191 0.96376 0.987726
0.905087 0.976686 0.954786 0.970576
0.709067 0.826123 0.903837 0.949627
0.58576 0.736701 0.858634 0.926019
0.998906 1 1 0.998906
0.999357 1 1 0.999357
0.999318 1 1 0.999318
0.998848 1 1 0.998848
0.998712 1 1.00007 0.998638
0.998628 1 1 0.998628
0.998808 1 1 0.998808
0.998915 1 1 0.998915
1.0359 1.08285 0.959142 0.997396
1.01731 1.06863 0.954432 0.997428
1.01652 1.03562 0.984337 0.997178
1.00285 1.00189 1.00395 0.997021
0.998419 1.00988 0.991688 0.996936
1.04576 1.00209 1.04633 0.99737
1.04088 1.0011 1.04279 0.99707
1.00967 1 1.01229 0.997417
0.998286 1.00043 0.999053 0.998805
1.0061 1 1.00816 0.997954
0.998801 1 1 0.998801
0.998738 0.999736 1 0.999002
0.993827 1.051 0.947875 0.9976
1.00123 0.999921 1.0028 0.998512
1.00334 1 1.00496 0.998386
0.99349 1.0372 0.96034 0.997417
1.00392 1.01497 0.992101 0.996989
0.982806 1.00131 0.983788 0.997697
1.02581 0.999925 1.02801 0.997935
1.0576 1.00189 1.05829 0.997463
0.974356 1.02869 0.949558 0.997501
0.989291 1.01217 0.979916 0.997428
0.974286 1.00166 0.975116 0.997494
0.983051 1.0008 0.984223 0.998007
1.00598 1 1.00796 0.998037
1.01377 1 1.01565 0.99815
1.05359 1 1.05594 0.997778
0.744263 0.851262 0.919512 0.950837
0.903139 0.97609 0.950066 0.973893
1.00275 0.999176 1.00564 0.997944
1.00019 1.00132 1.00202 0.99686
0.997153 1.02707 0.973034 0.997774
0.998396 1.00876 0.99287 0.996831
1.00524 1.00328 1.00571 0.996264
0.901537 0.97411 0.953172 0.970966
0.897326 0.969383 0.941131 0.983569
0.97104 0.982784 0.99076 0.997265
0.713284 0.824729 0.90996 0.950448
0.59852 0.763965 0.854605 0.916726
1.00171 0.999524 1.00417 0.998031
0.739707 0.850216 0.916327 0.949467
0.642474 0.77432 0.897223 0.924772
0.987208 1.00701 0.982466 0.997834
1.00822 1.00209 1.00871 0.997432
1.01225 1.00352 1.01132 0.99741
0.951045 0.96763 0.985055 0.997772
0.893029 0.966073 0.954991 0.967957
0.858279 0.928582 0.939655 0.983648
0.702685 0.817279 0.907377 0.947552
0.679648 0.845224 0.870828 0.923379
1.00386 0.999893 1.00539 0.998582
0.688219 0.802631 0.923769 0.928213
0.758527 0.878177 0.922783 0.936029
0.98588 0.993153 0.994018 0.998651
1.01545 1.0026 1.01427 0.99857
0.960254 0.959515 1.00352 0.997261
0.873057 0.919261 0.964189 0.985012
0.840417 0.914997 0.950625 0.966197
0.708583 0.810897 0.921176 0.948598
0.735042 0.894553 0.885382 0.928058
1.00203 0.998896 1.00449 0.99865
1.00621 1 1.00743 0.998792
1.00795 0.999085 1.00981 0.999074
0.998705 1 1 0.998705
0.998305 1 1 0.998305
1.00428 1 1.00611 0.998177
1.00489 1 1.00677 0.998135
1.00519 0.99995 1.00684 0.99841
0.99889 1 1.00061 0.998284
1.00481 1 1.00658 0.998248
1.00177 1 1.0037 0.998085
1.01626 0.999685 1.01804 0.998567
1.03539 0.998315 1.03808 0.999094
1.00999 1 1.01171 0.998295
1.00098 1 1.00295 0.998039
0.998584 1 1.00027 0.99831
1.00059 1 1.00219 0.998397
1.0009 1 1.00275 0.998154
0.999851 1 1.00144 0.998417
1.00098 1 1.00243 0.998556
1.00396 1 1.00561 0.998363
1.00481 1 1.00649 0.998322
1.00337 0.999124 1.00567 0.998586
0.9996 1 1.00131 0.998293
0.999341 1.00078 1.00093 0.997634
1.00534 1 1.00726 0.9981
1.00593 1 1.00773 0.998213
1.00606 1 1.0077 0.998371
1.00107 1 1.00257 0.998506
0.999017 1 1.00018 0.998841
0.999165 1 1.00062 0.998545
0.99902 1 1.00015 0.998867
0.999492 1 1 0.999492
0.998832 1 1.00007 0.998765
0.999513 1 1 0.999513
0.999991 1 1 0.999991
0.99953 1 1 0.99953
0.999997 1 1 0.999997
1 1 1 1
1 1 1 1
1 1 1 1
1 1 1 1
0.999308 1 1 0.999308
0.999883 1 1 0.999883
0.999309 1 1 0.999309
1 1 1 1
0.999911 1 1 0.999911
0.999893 1 1 0.999893
1 1 1 1
1 1 1 1
1 1 1 1
1 1 1 1
1 1 1 1
0.731755 0.84125 0.920074 0.945404
0.647766 0.783739 0.892318 0.926248
0.912296 0.9745 0.948706 0.986785
0.989599 1.01957 0.974088 0.996424
1.04819 1.0785 0.974428 0.997406
0.91211 0.957996 0.962591 0.989103
0.99761 1.02859 0.973144 0.996647
0.917441 0.988795 0.955101 0.971454
0.703485 0.826887 0.899642 0.945669
0.591069 0.750708 0.85492 0.920963
0.940581 0.995763 0.952315 0.99188
0.899966 0.966298 0.958721 0.971456
0.697513 0.8209 0.89547 0.94888
0.669256 0.832134 0.870426 0.923989
1.00048 1 1.00202 0.998457
0.998945 1 1 0.998945
0.999355 1 1 0.999355
0.998848 1 1 0.998848
0.998834 1 1.00012 0.99871
0.999464 1 1.00109 0.998379
0.998603 1 1 0.998603
0.998522 1 1.00008 0.998447
0.998764 1 1 0.998764
0.99887 1 1 0.99887
0.992258 1.05081 0.94653 0.997625
0.990182 1.03446 0.959697 0.997393
1.0028 1.01623 0.989608 0.99714
0.984578 1.00174 0.98527 0.997563
1.04909 1.00329 1.04827 0.997502
1.03629 1.00027 1.03842 0.997676
1.00287 1 1.00442 0.998456
1.00075 0.999676 1.00256 0.998511
0.974396 1.02902 0.949203 0.99759
1.00715 1 1.00918 0.997993
1.01362 1 1.01555 0.998101
0.984536 1.01033 0.977036 0.99737
0.972451 1.00157 0.973264 0.997596
0.981721 1.00145 0.982317 0.997948
1.04647 0.999877 1.04899 0.99772
0.971285 1.0034 0.970163 0.997768
0.964686 0.998685 0.967593 0.998309
1.01302 1.00006 1.01482 0.998173
1.00927 1 1.01136 0.997928
1.01151 1 1.01368 0.997859
1.02885 1 1.03103 0.997889
0.716486 0.818468 0.933197 0.938064
0.7488 0.849876 0.926293 0.951179
0.891545 0.972768 0.945563 0.969267
1.00101 0.999107 1.00389 0.99803
1.00805 1.00223 1.00838 0.997443
0.989576 1.00815 0.983714 0.997828
1.01083 1.00222 1.01106 0.997556
0.738606 0.845475 0.917935 0.951699
0.887369 0.962401 0.951354 0.969184
0.856811 0.925502 0.943523 0.981194
0.949202 0.963802 0.98686 0.997966
0.698684 0.820622 0.902114 0.943793
0.640106 0.772814 0.894418 0.926055
0.676866 0.840619 0.868512 0.927103
1.00395 0.999609 1.00579 0.998561
0.690263 0.80395 0.921524 0.931706
0.771723 0.890831 0.925809 0.935719
0.985215 0.991075 0.995333 0.998749
1.01595 1.0019 1.01552 0.998522
0.957428 0.957563 1.00203 0.99783
0.864049 0.924035 0.951694 0.982545
0.868441 0.928775 0.964031 0.969928
0.722733 0.828337 0.923457 0.944831
0.725935 0.885505 0.880543 0.931013
1.00756 0.998463 1.00969 0.999431
0.792734 0.897799 0.936289 0.943059
0.764251 0.891624 0.911934 0.93992
0.981909 0.966595 1.01613 0.999715
0.901272 0.921791 0.987954 0.989661
0.869968 0.911327 0.985795 0.968372
0.784709 0.88012 0.946262 0.942227
0.769944 0.928679 0.890332 0.931197
1.00583 1 1.0071 0.998747
1.00904 0.998604 1.01139 0.999063
1.02434 0.99319 1.03203 0.999354
0.999085 1 1.0008 0.998282
1.00179 1 1.00371 0.998088
1.00297 1 1.00476 0.998214
1.0157 0.99945 1.01765 0.998629
1.00161 1 1.00357 0.998039
1.00933 1 1.01106 0.998284
1.04067 0.999386 1.04217 0.999173
1.04483 0.994908 1.05076 0.999446
1.0393 0.998942 1.04138 0.999068
1.00366 1 1.00546 0.998209
1.00114 1 1.003 0.998144
1.00007 1 1.00167 0.998402
0.999242 1 1.00058 0.998658
1.0044 1 1.00606 0.998344
1.00286 1 1.0045 0.998363
1.00507 0.99965 1.00682 0.99861
1.00358 0.999877 1.00531 0.998397
1.01054 0.99827 1.01334 0.998962
0.996567 1.00079 0.997339 0.998433
1.00015 1.00068 1.00117 0.998305
0.998593 1.00003 1.00069 0.997872
1.00321 1.005 1.00153 0.996697
1.00322 1.00055 1.0047 0.997975
0.999088 1.00037 1.00079 0.997924
1.00532 1 1.00723 0.998106
1.01029 1 1.01212 0.998191
1.0044 1 1.00619 0.998215
1.00542 1 1.00706 0.998371
0.999652 1 1.00093 0.998721
1.00172 1 1.00322 0.998504
0.998837 1 1 0.998837
0.999465 1 1 0.999465
0.998897 1 1.00003 0.99887
0.999493 1 1 0.999493
0.999978 1 1 0.999978
0.999516 1 1 0.999516
0.999987 1 1 0.999987
1 1 1 1
0.999996 1 1 0.999996
1 1 1 1
1 1 1 1
0.999041 1 1 0.999041
0.999832 1 1 0.999832
0.999229 1 1 0.999229
1 1 1 1
0.999888 1 1 0.999888
0.99931 1 1 0.99931
1 1 1 1
1 1 1 1
0.999912 1 1 0.999912
1 1 1 1
1 1 1 1
1 1 1 1
0.679501 0.798982 0.913183 0.931312
0.738981 0.848211 0.918896 0.948119
0.764572 0.888803 0.919899 0.935131
0.64455 0.781981 0.891284 0.924792
0.91206 0.966968 0.956122 0.986502
0.996657 1.02869 0.971933 0.996837
0.920223 0.986057 0.960067 0.972053
0.716312 0.829748 0.908991 0.949721
0.599242 0.767784 0.852227 0.915815
0.941136 0.989982 0.959352 0.99094
0.890635 0.964221 0.956031 0.966165
0.711401 0.828541 0.906756 0.946914
0.665242 0.831255 0.868779 0.921162
0.910599 0.971944 0.948272 0.987991
0.853189 0.91567 0.965117 0.965443
0.739381 0.853667 0.919178 0.942281
0.730343 0.891582 0.885393 0.925187
1.00238 1 1.00426 0.998129
0.999625 1 1.00112 0.998507
0.998984 1 1 0.998984
0.998781 1 1 0.998781
0.998411 1 1.00042 0.997994
0.998781 1 1.00035 0.998431
0.998578 1 1 0.998578
0.998417 1 1 0.998417
0.998504 1 1.00002 0.998488
0.998719 1 1 0.998719
0.974971 1.03008 0.948704 0.997679
0.981844 1.00888 0.97582 0.997315
0.968449 1.00129 0.969435 0.997698
0.983825 1.00253 0.98342 0.99789
1.03834 1 1.04078 0.997661
1.01357 1 1.01555 0.998054
1.00773 1 1.00981 0.997948
1.00876 1 1.0109 0.997879
0.969601 1.00363 0.968218 0.997806
1.01049 1 1.01268 0.997838
1.02885 1 1.03105 0.997867
0.964118 0.999207 0.966518 0.998307
1.00845 1.00146 1.00886 0.99813
0.949827 0.979373 0.971643 0.998136
0.974338 0.980995 0.993977 0.999233
1.04173 0.999532 1.0439 0.998383
1.00491 1 1.00704 0.997885
1.02174 1 1.02377 0.998017
0.804694 0.906692 0.937014 0.947163
0.715388 0.817216 0.934152 0.937103
0.738993 0.845269 0.922688 0.947525
1.00339 0.999528 1.00533 0.998541
1.01656 1.00081 1.01728 0.998473
0.981267 0.988802 0.993522 0.998849
0.689938 0.8037 0.920716 0.932375
0.854837 0.918842 0.963261 0.965825
0.869255 0.921505 0.958572 0.984068
0.947681 0.95212 0.996927 0.998406
0.728812 0.83679 0.917743 0.949026
0.779317 0.896944 0.92871 0.935554
0.72931 0.886969 0.882917 0.931288
1.00587 0.998505 1.008 0.999377
0.790922 0.897585 0.932678 0.94477
0.763585 0.890556 0.912103 0.940053
0.983738 0.970226 1.0144 0.999535
0.914489 0.933044 0.990525 0.989489
0.839076 0.903395 0.963221 0.964268
0.768079 0.927141 0.889339 0.931521
0.800432 0.886567 0.956297 0.944104
0.999357 0.974279 1.02604 0.999711
0.776437 0.885282 0.922641 0.950586
0.795127 0.919812 0.917293 0.942387
0.728666 0.889865 0.884828 0.925433
0.951907 0.941578 1.01372 0.997284
0.90476 0.929871 1.00333 0.969762
0.852095 0.931821 0.966031 0.946596
1.01049 0.998067 1.01341 0.999051
1.02439 0.994369 1.03094 0.99927
1.02655 0.983292 1.04444 0.999566
1.00172 1 1.00369 0.998039
1.00769 1 1.00943 0.998274
1.04505 0.999432 1.04643 0.999251
1.00405 1 1.00584 0.998215
1.03925 0.999027 1.04122 0.999079
1.04721 0.994902 1.05319 0.999421
1.03773 0.989806 1.04895 0.999489
1.02452 0.997946 1.0276 0.999058
1.00359 1 1.00524 0.998367
1.00208 1 1.00373 0.998364
1.00664 1 1.00802 0.998635
1.0098 0.998827 1.01206 0.998933
1.00327 0.999936 1.00494 0.9984
1.00333 0.999898 1.0046 0.998831
0.997535 1.00023 0.998578 0.998731
1.003 1.00039 1.00524 0.997387
1.00063 1.0014 1.00091 0.998323
0.999611 1.00125 1.00059 0.99777
0.999718 1.00203 1.0013 0.996397
1.01513 1.0176 1.00129 0.996288
1.00372 1.00337 1.00276 0.997592
1.00152 1.00339 1.00138 0.99676
1.01021 1 1.01228 0.99796
1.00454 1.00117 1.0054 0.997982
0.998855 1 1.00065 0.998211
1.00563 1 1.00753 0.998113
1.00931 1 1.01111 0.998226
1.00293 1 1.00438 0.998562
1.00501 1 1.00665 0.99837
0.999814 1 1.00109 0.998721
0.999387 1 1 0.999387
0.998834 1 1 0.998834
0.999462 1 1 0.999462
0.999968 1 1 0.999968
0.999493 1 1 0.999493
0.999975 1 1 0.999975
1 1 1 1
0.999983 1 1 0.999983
1 1 1 1
1 1 1 1
0.998767 1 1 0.998767
0.999617 1 1 0.999617
0.999039 1 1 0.999039
1 1 1 1
0.999777 1 1 0.999777
0.999151 1 1 0.999151
1 1 1 1
1 1 1 1
0.999893 1 1 0.999893
1 1 1 1
1 1 1 1
1 1 1 1
0.792724 0.905331 0.928121 0.94343
0.681727 0.799374 0.912647 0.934454
0.732249 0.843159 0.916593 0.947486
0.998298 1 1 0.998298
0.770666 0.889762 0.918664 0.942835
0.763581 0.888508 0.91917 0.93497
0.652484 0.792267 0.887544 0.927915
0.950346 0.99352 0.966427 0.989773
0.883181 0.952858 0.954813 0.970741
0.713862 0.842037 0.899053 0.94297
0.658279 0.81649 0.873222 0.923283
0.907442 0.966972 0.952856 0.984868
0.86468 0.923894 0.965328 0.969524
0.739655 0.84486 0.928501 0.942893
0.727378 0.887477 0.884943 0.926165
0.857632 0.919908 0.949968 0.981404
0.849737 0.901486 0.975203 0.966564
0.812849 0.896225 0.960011 0.944749
0.770924 0.927481 0.892658 0.931154
1.00131 1 1.00339 0.997923
1.00357 1 1.00549 0.998084
0.99909 1 1.00053 0.998557
0.998207 1 1.0001 0.998108
0.998712 1 1.00064 0.99807
0.998482 1 1 0.998482
0.998421 1 1 0.998421
0.998553 1 1.00003 0.998528
0.967725 1.00424 0.965733 0.997831
0.96376 1.00076 0.964655 0.998314
1.00864 1 1.01083 0.997829
1.00311 1.00267 1.00236 0.998086
1.03027 1 1.03249 0.997845
1.01025 1 1.01246 0.997817
1.0057 1 1.00782 0.997895
0.952732 0.978748 0.975111 0.998265
1.01969 1 1.0217 0.998034
1.03118 1.00018 1.03262 0.998425
0.972788 0.983646 0.98967 0.999283
1.00729 1 1.00923 0.998079
0.9394 0.957386 0.983345 0.997833
1.00133 0.980259 1.02203 0.999477
1.05598 0.997064 1.06064 0.998536
1.02281 0.999513 1.02513 0.998218
0.784519 0.886903 0.927313 0.953896
0.804424 0.907002 0.936662 0.946877
0.715764 0.815551 0.937534 0.93612
1.00374 0.998647 1.00578 0.999325
0.986671 0.973372 1.01431 0.999359
0.791986 0.90005 0.929743 0.946429
0.863803 0.901873 0.988158 0.969266
0.903425 0.931515 0.983659 0.985957
0.795971 0.882317 0.95716 0.942515
0.764631 0.891782 0.912003 0.94015
0.767936 0.927239 0.888767 0.931848
1.00423 0.982022 1.02296 0.999669
0.77803 0.886898 0.922876 0.950559
0.795732 0.917781 0.917863 0.944604
0.962737 0.948523 1.01574 0.999258
0.725304 0.885676 0.884078 0.926307
0.878249 0.911795 0.996073 0.967007
0.854479 0.934245 0.966673 0.946152
0.996106 0.968218 1.02908 0.999727
0.805752 0.911313 0.927303 0.953481
0.767824 0.885685 0.919148 0.943185
0.666184 0.830017 0.868453 0.924189
0.811198 0.895362 0.959589 0.944155
0.942792 0.942948 1.00609 0.993786
0.912823 0.92844 1.02114 0.962825
1.02263 0.996037 1.02753 0.999188
1.02744 0.982221 1.04653 0.999534
1.01594 0.969912 1.0479 0.999582
1.00532 1 1.00712 0.99822
1.04277 0.999074 1.04469 0.999091
1.05291 0.995821 1.05797 0.999396
1.02012 0.998249 1.02289 0.999045
1.03637 0.991634 1.04565 0.999488
1.00958 0.987064 1.0236 0.999235
1.00971 0.999512 1.01131 0.998903
1.00317 1 1.00477 0.998404
1.0067 0.999951 1.00795 0.998809
1.01201 0.999197 1.01476 0.998097
0.998685 0.999657 1 0.999028
0.999947 1.00025 1.0021 0.997599
1.00373 1.00139 1.0064 0.995961
1.00521 1.00749 1.00212 0.995625
1.00056 1.0025 1.0004 0.997662
1.00027 1.00268 1.00141 0.996192
1.01655 1.01972 1.00053 0.996368
1.01033 1.01076 1.00261 0.996972
1.01393 1.01633 1.00125 0.99639
1.00782 1.00045 1.00962 0.997765
1.0064 1.0055 1.00335 0.997559
0.999446 1.00135 1.00128 0.996826
1.00866 1 1.01032 0.998351
1.00955 1 1.01159 0.997985
1.00588 1.00177 1.00613 0.997989
1.00827 1 1.01003 0.998261
1.00305 1 1.00449 0.998562
0.999749 1 1.00051 0.999238
0.999968 1 1.00125 0.998722
0.999426 1 1.00004 0.999382
0.999959 1 1 0.999959
0.99946 1 1 0.99946
0.999966 1 1 0.999966
1 1 1 1
0.999972 1 1 0.999972
1 1 1 1
1 1 1 1
0.998677 1 1 0.998677
0.999447 1 1 0.999447
0.998817 1 1 0.998817
1 1 1 1
0.999599 1 1 0.999599
0.999036 1 1 0.999036
1 1 1 1
1 1 1 1
0.999722 1 1 0.999722
1 1 1 1
1 1 1 1
1 1 1 1
0.783394 0.888702 0.925771 0.952182
0.794831 0.904527 0.931413 0.943432
0.682719 0.798821 0.914451 0.934614
0.998338 1 1 0.998338
0.998478 1 1.00022 0.998257
0.998241 1 1 0.998241
0.795752 0.922002 0.916142 0.94207
0.767332 0.889285 0.915059 0.942961
0.76198 0.887919 0.917991 0.934828
0.914003 0.973852 0.950973 0.986931
0.838093 0.912385 0.951562 0.965333
0.736783 0.831878 0.93367 0.948607
0.735926 0.89544 0.889125 0.924347
0.861247 0.925367 0.94555 0.984304
0.863067 0.909411 0.981727 0.966703
0.795994 0.878137 0.958682 0.945525
0.768564 0.927489 0.889692 0.93139
0.868892 0.918224 0.963766 0.981851
0.88283 0.915561 0.996144 0.967983
0.851935 0.929165 0.968233 0.946964
0.739482 0.898093 0.887163 0.928117
0.998698 1 1.00064 0.998056
1.00171 1 1.00384 0.997886
1.00334 1 1.00531 0.99804
0.998107 1 1.00001 0.998096
0.998484 1 1.00034 0.998147
0.998425 1 1 0.998425
0.952344 0.974358 0.978987 0.998386
0.970166 0.983119 0.987504 0.999312
1.00626 1 1.00837 0.997905
1.02291 1.00046 1.02401 0.998466
1.0201 1 1.02209 0.998051
1.00942 1 1.01135 0.99809
1.01926 0.997592 1.0235 0.998254
0.946874 0.957295 0.991168 0.997928
1.05265 0.995792 1.05849 0.998678
1.00507 0.975452 1.03105 0.999336
1.01259 0.996401 1.01786 0.998418
0.971222 0.954599 1.01988 0.997583
1.012 0.97431 1.03941 0.999301
1.03636 0.981786 1.05686 0.998792
0.819534 0.917982 0.933935 0.955908
0.787305 0.888081 0.928911 0.954369
0.803741 0.907194 0.935949 0.946594
1.00985 0.98955 1.0209 0.999627
0.951971 0.946161 1.00834 0.997815
0.779071 0.887601 0.923404 0.950533
0.874859 0.899796 1.00116 0.971156
0.850566 0.933606 0.965855 0.943262
0.796487 0.916522 0.917847 0.946816
0.736167 0.894347 0.890235 0.924625
0.991506 0.964665 1.02806 0.99977
0.806026 0.910007 0.928125 0.954328
0.769791 0.889807 0.917104 0.943319
0.938171 0.938618 1.00989 0.989737
0.662597 0.828521 0.867849 0.921514
0.792103 0.87627 0.95697 0.944594
0.920679 0.934678 1.01708 0.968478
1.00366 0.954991 1.05244 0.998592
0.784175 0.887218 0.928055 0.952378
0.774348 0.895685 0.924021 0.935618
0.585967 0.734811 0.860503 0.926712
0.728396 0.843484 0.916599 0.942131
0.886348 0.913869 1.00277 0.967204
0.915464 0.932697 0.994789 0.986665
1.02572 0.981614 1.04545 0.999501
1.02142 0.977954 1.04487 0.999586
1.00938 0.980237 1.03025 0.999496
1.01415 0.998637 1.01652 0.999032
1.03209 0.992993 1.03991 0.999487
1.01303 0.983722 1.03049 0.999319
1.00599 0.997649 1.0096 0.998781
1.01002 1 1.01125 0.998786
1.00939 0.999631 1.01191 0.997873
1.02205 1.00091 1.02494 0.996274
0.996782 1.00005 0.998913 0.997815
1.00486 1.00152 1.00737 0.99599
1.00514 1.00252 1.00756 0.995089
1.00782 1.01072 1.00191 0.995224
1.00921 1.01218 1.00108 0.995994
1.00524 1.00735 1.00234 0.995569
1.00053 1.00323 1.00132 0.99599
1.01051 1.01275 1.0011 0.996693
1.01733 1.02046 1.00048 0.996457
1.0039 1.00197 1.00464 0.99731
1.01249 1.01271 1.00274 0.99705
1.01356 1.01593 1.00117 0.996493
1.01091 1 1.0129 0.998032
1.00786 1.00117 1.00894 0.99776
1.00921 1.00785 1.00383 0.997525
1.00154 1 1.00249 0.999055
1.00751 1 1.00917 0.998349
1.00879 1 1.0108 0.998009
1.00293 1 1.00438 0.998562
1.00011 1 1.00088 0.999234
0.999931 1 1 0.999931
0.999525 1 1.00015 0.999377
0.999953 1 1 0.999953
1 1 1 1
0.999965 1 1 0.999965
1 1 1 1
1 1 1 1
0.998628 1 1 0.998628
0.999417 1 1 0.999417
0.998706 1 1 0.998706
0.999995 1 1 0.999995
0.999492 1 1 0.999492
0.998868 1 1 0.998868
1 1 1 1
1 1 1 1
0.999581 1 1 0.999581
1 1 1 1
1 1 1 1
1 1 1 1
0.804408 0.910824 0.926523 0.953204
0.786944 0.889694 0.928947 0.952165
0.796804 0.903315 0.934941 0.943471
1.0045 1 1.00638 0.998129
1.00207 1 1.00406 0.998018
0.998379 1 1 0.998379
0.998904 1 1.00066 0.998241
0.998242 1 1 0.998242
0.999837 1 1.00162 0.998217
0.998259 1 1 0.998259
0.767209 0.896272 0.910884 0.939747
0.798871 0.920481 0.919057 0.94432
0.767534 0.887326 0.917194 0.943091
0.767352 0.927732 0.887814 0.931644
0.860755 0.92605 0.946767 0.981752
0.86323 0.905304 0.98637 0.966702
0.80551 0.891855 0.952975 0.947753
0.85507 0.919038 0.948558 0.980854
0.884377 0.909506 1.009 0.963702
0.852348 0.931636 0.966229 0.946871
0.727952 0.887825 0.880637 0.931061
0.894145 0.927816 0.979628 0.983751
0.898595 0.919471 1.01439 0.963433
0.788741 0.882913 0.947665 0.942675
0.681097 0.841044 0.876186 0.92426
1.02307 1 1.02472 0.998388
1.00029 1 1.00221 0.998082
1.0027 1 1.00486 0.997849
0.998084 1 1 0.998084
0.956853 0.959417 0.99927 0.998056
1.00673 0.973306 1.03519 0.999189
1.00881 1 1.01073 0.998101
1.01502 0.997114 1.0197 0.99829
1.04287 0.991688 1.05285 0.998821
1.01214 0.998718 1.01505 0.99842
1.03854 0.981555 1.05934 0.998779
0.970161 0.954091 1.02083 0.996093
1.01046 0.965225 1.04743 0.999456
1.01232 0.984259 1.02963 0.998906
0.954136 0.927696 1.03314 0.995512
1.00648 0.957873 1.05149 0.999289
0.786305 0.886493 0.929693 0.95406
0.817241 0.916414 0.931485 0.957376
0.790508 0.88922 0.931039 0.954837
0.987182 0.959597 1.02895 0.999805
0.944104 0.942664 1.00739 0.99418
0.804308 0.907945 0.927417 0.955186
0.92171 0.938885 1.0188 0.963595
0.796574 0.884695 0.950863 0.946924
0.772795 0.89232 0.917971 0.943441
0.657186 0.814216 0.873921 0.923584
1.00461 0.957498 1.05047 0.998798
0.786586 0.891218 0.926741 0.952366
0.767715 0.890003 0.922106 0.935466
0.917638 0.932987 0.994203 0.989284
0.592041 0.750305 0.85608 0.921721
0.728609 0.835539 0.925295 0.942427
0.883748 0.91086 1.0064 0.964063
0.993381 0.962243 1.03564 0.996835
0.794928 0.908167 0.927498 0.943732
0.647471 0.781458 0.893803 0.926985
0.700507 0.823644 0.89569 0.949545
0.840796 0.886956 0.97939 0.967906
0.87442 0.908947 0.979142 0.982509
1.02897 0.982566 1.04765 0.99959
1.01246 0.978119 1.03563 0.9995
0.980692 0.97559 1.00595 0.99928
1.01784 0.981168 1.03799 0.999402
1.00368 0.989864 1.01509 0.998882
1.00269 1.0008 1.0042 0.997695
1.00691 1.00003 1.00926 0.997649
1.02018 1.00088 1.02323 0.99614
1.01047 1.00082 1.01445 0.995254
1.00647 1.00186 1.00861 0.996019
1.00596 1.00234 1.00865 0.994997
1.00176 1.00249 1.00448 0.994818
1.02891 1.03362 1 0.995438
1.01736 1.02113 1.00077 0.995539
1.00822 1.01091 1.00218 0.995165
1.00882 1.01244 1.00013 0.996297
1.00795 1.01119 1.00074 0.996058
1.00538 1.00716 1.00273 0.995512
1.00827 1.01041 1.00112 0.996766
1.00994 1.01223 1.00108 0.996665
1.01777 1.02086 1.00043 0.996545
1.00634 1.00081 1.00793 0.997618
1.00489 1.00287 1.00463 0.997392
1.01417 1.01417 1.00288 0.99713
1.00643 1 1.00768 0.998761
1.00973 1 1.01171 0.998039
1.00793 1.00194 1.00825 0.997756
0.999878 1 1 0.999878
1.0023 1 1.00325 0.999049
1.00663 1 1.0083 0.998348
1.00051 1 1.00128 0.99923
0.99992 1 1 0.99992
1 1 1 1
0.999947 1 1 0.999947
1 1 1 1
1 1 1 1
1.00654 1 1.00843 0.998125
1.00079 1 1.00234 0.998453
0.999272 1 1 0.999272
0.998807 1 1.00018 0.998623
0.999976 1 1 0.999976
0.999419 1 1 0.999419
0.998735 1 1 0.998735
1 1 1 1
0.999997 1 1 0.999997
0.999537 1 1 0.999537
1 1 1 1
1 1 1 1
1 1 1 1
0.777231 0.886092 0.922828 0.950498
0.801565 0.907644 0.925641 0.954071
0.787678 0.892614 0.926794 0.952141
1.00577 1 1.00765 0.99814
1.00429 1 1.00627 0.998028
1.00043 1 1.00243 0.998008
1.00702 1 1.009 0.998037
1.00773 1 1.00975 0.998
1.00012 1 1.0019 0.998225
0.998243 1 1 0.998243
0.999518 1 1.0013 0.99822
0.998269 1 1 0.998269
1.01442 1 1.01612 0.99833
0.759356 0.880659 0.92146 0.935753
0.766655 0.893935 0.912438 0.939919
0.800112 0.919965 0.918825 0.946557
0.729621 0.889172 0.881054 0.931341
0.851329 0.931861 0.968089 0.943694
0.850263 0.914932 0.948886 0.979378
0.890968 0.914703 1.00674 0.967531
0.88565 0.929199 0.972196 0.980391
0.905989 0.930148 1.00657 0.967673
0.803826 0.886732 0.959178 0.945083
0.681968 0.848728 0.870451 0.923105
0.901014 0.918993 0.9975 0.982893
0.890146 0.910068 1.01008 0.968346
0.715475 0.815601 0.925089 0.948273
0.624357 0.781369 0.862677 0.926251
1.02206 0.999732 1.0234 0.998961
1.02418 0.999866 1.02596 0.998402
1.0031 1 1.005 0.998109
0.970406 0.954808 1.02192 0.994533
1.01184 0.958844 1.05568 0.999617
1.01281 1 1.01441 0.998422
1.04337 0.981158 1.06472 0.998767
1.01507 0.988279 1.02823 0.998912
1.01262 0.965689 1.04935 0.99928
0.957514 0.935672 1.02802 0.995454
1.01494 0.989985 1.02588 0.999345
0.968168 0.953542 1.01922 0.996195
0.804559 0.907106 0.936883 0.946703
0.791146 0.88962 0.931677 0.954524
0.814474 0.91446 0.92888 0.958856
1.0057 0.964705 1.04357 0.998972
0.912285 0.929246 0.996883 0.984816
0.791737 0.895245 0.928634 0.952346
0.886181 0.915822 1.00292 0.964822
0.724173 0.820459 0.931028 0.948032
0.75954 0.88454 0.918031 0.935354
0.598796 0.766064 0.85275 0.916627
0.990632 0.960674 1.03419 0.997092
0.794867 0.904119 0.931596 0.943716
0.645238 0.781332 0.892238 0.925558
0.886159 0.920406 0.978378 0.984068
0.712509 0.829796 0.906286 0.947445
0.839171 0.897005 0.969175 0.96528
0.947428 0.946599 1.00567 0.995228
0.680698 0.800065 0.913003 0.931873
0.710165 0.826269 0.904453 0.950281
0.851461 0.917048 0.961611 0.965547
0.852327 0.90931 0.951643 0.984964
1.01174 0.975559 1.0376 0.999505
0.982864 0.971831 1.01211 0.999255
0.993651 0.990102 1.00517 0.998424
1.00001 0.980077 1.02138 0.998979
1.0022 1.00059 1.00383 0.997787
0.998211 1.00241 0.999119 0.99669
1.01812 1.00071 1.02148 0.996004
1.0092 1.00117 1.01283 0.995255
0.999336 1.00241 1.00137 0.99557
1.00606 1.002 1.0092 0.994905
1.00206 1.00353 1.0037 0.994854
1.02564 1.0301 1 0.995673
1.05322 1.05734 1 0.996109
1.03959 1.04424 1.00002 0.995533
1.02915 1.03384 1 0.995469
1.02131 1.02559 1 0.99583
1.01608 1.01959 1.00107 0.995483
1.00921 1.01171 1.00244 0.995107
1.01435 1.01796 1 0.996447
1.0071 1.01074 1.00002 0.996372
1.00642 1.01002 1.00032 0.996122
1.0031 1.00386 1.00208 0.997171
1.0062 1.00812 1.0013 0.996809
1.00975 1.01205 1.0011 0.996637
1.00953 1 1.01126 0.99829
1.00767 1.0015 1.00856 0.997621
1.0059 1.00363 1.0048 0.997473
1.00037 1 1.00057 0.999795
1.00613 1 1.00738 0.998754
1.00895 1 1.01092 0.998047
0.999985 1 1 0.999985
0.999893 1 1.00003 0.999864
1.00287 1 1.00383 0.999043
0.99991 1 1 0.99991
1 1 1 1
1 1 1 1
1.00661 1.0004 1.00823 0.997991
1.0046 1 1.00633 0.998279
1.00745 1 1.00937 0.998103
0.999775 1 1.00066 0.999114
1.00056 1 1.00211 0.99845
0.999946 1 1 0.999946
0.999276 1 1 0.999276
0.998619 1 1 0.998619
1 1 1 1
0.999983 1 1 0.999983
0.999422 1 1 0.999422
1 1 1 1
0.999999 1 1 0.999999
1 1 1 1
0.789651 0.89903 0.927595 0.946897
0.781035 0.889121 0.924201 0.95048
0.802096 0.904185 0.928953 0.954938
0.999504 1.00113 1.00039 0.997983
1.00477 1 1.00664 0.998151
1.00311 1 1.00508 0.998039
1.00339 1 1.00538 0.998018
1.00044 1 1.00241 0.998035
1.00446 1 1.00634 0.998135
1.01264 1.00017 1.01493 0.997579
1.01726 1 1.01918 0.998115
0.99937 1 1.00115 0.998223
0.998279 1 1 0.998279
1.01544 1 1.01716 0.998313
1.03031 1.00028 1.03154 0.998524
0.65976 0.789561 0.901141 0.927273
0.77168 0.892772 0.924006 0.935453
0.767511 0.89356 0.913712 0.940051
0.679317 0.844439 0.868025 0.926769
0.801553 0.886259 0.958103 0.943973
0.90094 0.922398 1.01372 0.963517
0.885452 0.922535 0.978268 0.981124
0.900505 0.919816 0.993978 0.984937
0.612498 0.774334 0.858566 0.921302
0.882063 0.910284 1.00448 0.964671
0.728593 0.832577 0.926662 0.944363
0.900565 0.928723 0.983002 0.986449
0.86784 0.908265 0.985308 0.969739
0.69995 0.82218 0.8979 0.948138
0.992538 1 0.993004 0.999532
1.02154 1 1.0226 0.998966
1.02451 1 1.02614 0.998414
0.958003 0.938253 1.02569 0.99548
1.01963 0.97434 1.04724 0.999273
1.01716 0.993136 1.02529 0.998919
1.01386 0.989784 1.025 0.999344
0.964578 0.952479 1.01652 0.99624
0.989366 0.983757 1.00821 0.997508
0.716051 0.81733 0.937514 0.934477
0.801298 0.906053 0.932208 0.948697
0.792317 0.891472 0.930682 0.954971
0.991909 0.960305 1.03575 0.997258
0.876436 0.91681 0.970566 0.984953
0.792933 0.900221 0.933313 0.943757
0.850723 0.891935 0.987334 0.96603
0.717392 0.845482 0.899177 0.943641
0.654974 0.792803 0.889663 0.92861
0.947374 0.942058 1.0104 0.995295
0.683138 0.800199 0.913104 0.934954
0.705526 0.827411 0.90104 0.946342
0.849236 0.910932 0.949945 0.981395
0.865487 0.927941 0.961934 0.969605
0.943033 0.958422 0.986175 0.997737
0.729702 0.838119 0.92055 0.945786
0.90166 0.968627 0.958257 0.971413
0.854826 0.922636 0.944328 0.981126
0.98663 0.969797 1.01814 0.999235
0.984882 0.990247 0.996067 0.998509
0.995235 1.00097 0.996791 0.997474
1.00233 1.00059 1.00387 0.997878
1.00094 1.00258 1.00171 0.996662
1.00098 1.00496 0.999428 0.99661
1.00815 1.00161 1.01133 0.995256
0.999218 1.00199 1.00167 0.995575
1.02822 1.03397 0.997873 0.996566
1.00237 1.00431 1.00319 0.994891
1.02418 1.02862 1 0.995683
1.05331 1.05811 0.998719 0.996743
1.05432 1.05828 0.999439 0.99682
1.05473 1.05894 1 0.996024
1.05392 1.05799 1 0.996157
1.04141 1.04585 1 0.995761
1.0377 1.04229 1 0.995599
1.02838 1.03303 1 0.9955
1.02983 1.03382 1 0.996147
1.02188 1.02599 1.00014 0.995855
1.01484 1.018 1.00148 0.995426
1.00976 1.01302 1 0.996784
1.01334 1.01696 1 0.996443
1.00523 1.00882 1 0.996446
1.00369 1.00064 1.00523 0.997826
1.00545 1.00596 1.00234 0.997164
1.00367 1.00539 1.00145 0.996852
1.00193 1 1.00232 0.999612
1.00771 1.00031 1.00913 0.998287
1.00821 1.00224 1.00836 0.997622
1 1 1 1
1.00095 1 1.00119 0.99976
1.00551 1 1.00678 0.998747
1 1 1 1
1.00007 1 1.00022 0.999848
1 1 1 1
1.00115 1.00148 1.00185 0.997831
1.00548 1.00027 1.00725 0.997971
1.00752 1 1.00942 0.998122
1.00202 1 1.00307 0.998948
1.00561 1 1.00734 0.998276
1.00936 1 1.0113 0.998081
0.999902 1 1 0.999902
0.999512 1 1.00039 0.999119
1.00078 1 1.00234 0.998447
1 1 1 1
0.999955 1 1 0.999955
0.999281 1 1 0.999281
1 1 1 1
0.999989 1 1 0.999989
1 1 1 1
0.688266 0.802822 0.922895 0.928934
0.792397 0.901726 0.928001 0.946935
0.78502 0.892435 0.92548 0.950468
1.00202 1.00052 1.00354 0.997957
1.00677 1.00369 1.0055 0.997579
1.01058 1.00069 1.01214 0.997775
1.00445 1 1.00646 0.997998
1.0008 1.00055 1.00219 0.998061
1.00525 1 1.007 0.998266
1.0166 1 1.01858 0.998061
1.01278 1.00049 1.01465 0.997671
1.01713 1.00148 1.01805 0.997621
0.983098 1.00139 0.982748 0.998966
1.01423 1 1.01596 0.998295
1.02584 1.0001 1.02727 0.998504
0.707755 0.82438 0.909919 0.943523
0.641964 0.773339 0.898098 0.924309
0.779626 0.899518 0.926669 0.935303
0.601141 0.766742 0.855727 0.916202
0.734932 0.839433 0.923026 0.948522
0.868696 0.903447 0.994949 0.966416
0.905725 0.924617 0.997338 0.982182
0.888028 0.920387 0.980525 0.984005
0.704104 0.817656 0.909766 0.946534
0.848127 0.898464 0.977068 0.96613
0.87148 0.925525 0.955415 0.985547
0.842693 0.922662 0.945359 0.966118
1.00013 1 1.0011 0.999022
0.993768 1 0.994285 0.999479
1.02132 1 1.02237 0.998971
0.958805 0.949384 1.01368 0.996292
1.01225 0.988409 1.02479 0.999344
0.990561 0.985495 1.0077 0.997456
0.976001 0.989709 0.989661 0.996451
0.7463 0.853395 0.919852 0.950705
0.713896 0.814995 0.936921 0.934925
0.803224 0.908078 0.930461 0.950638
0.950675 0.948827 1.0065 0.995475
0.852463 0.909427 0.954692 0.981849
0.68435 0.80037 0.914415 0.93507
0.836901 0.913832 0.948293 0.965752
0.720077 0.832715 0.909844 0.950419
0.945369 0.961467 0.986694 0.996516
0.740165 0.848101 0.92011 0.948509
0.892928 0.966149 0.956273 0.966474
0.856592 0.9244 0.941898 0.983807
0.955258 0.982111 0.975023 0.997574
0.909819 0.978122 0.95824 0.970706
0.905401 0.969799 0.946341 0.986532
0.975687 0.989359 0.987585 0.998577
0.990563 1.00112 0.991989 0.997445
0.982262 1.00837 0.97674 0.997302
1.00264 1.00288 1.00313 0.996635
1.00038 1.00515 0.998648 0.996604
1.02455 1.04164 0.986272 0.997287
0.999103 1.00167 1.00186 0.995582
1.02657 1.03344 0.9968 0.996545
1.04254 1.05864 0.987404 0.99735
1.02345 1.02787 1 0.995693
1.05189 1.05756 0.997897 0.996735
1.04872 1.05903 0.992922 0.99733
1.04939 1.0556 0.996897 0.99721
1.05512 1.05944 0.999024 0.996895
1.05268 1.05622 0.999988 0.99667
1.05594 1.06009 1 0.996087
1.05481 1.059 1 0.996046
1.05526 1.0593 0.999984 0.996205
1.04379 1.048 1 0.995989
1.04318 1.04759 1 0.99579
1.03592 1.04043 1 0.995665
1.02538 1.02901 1 0.996475
1.0296 1.03358 1 0.996144
1.02234 1.02639 1.00017 0.995879
1.00029 1.00253 1.00026 0.997504
1.01132 1.01459 1 0.996781
1.0133 1.01692 1 0.996439
1.00213 1 1.0028 0.999333
1.00404 1.00115 1.00507 0.997825
1.00846 1.00831 1.003 0.997158
1 1 1 1
1.00247 1 1.00288 0.999587
1.00664 1.00047 1.00789 0.998285
0.999985 1 1 0.999985
1.00153 1 1.00178 0.999747
1 1 1 1
1.00021 1.00251 1 0.997705
1.00151 1.00077 1.00289 0.99785
1.0054 1 1.00745 0.997967
1.00345 1 1.00551 0.997951
1.00791 1 1.00981 0.998124
1.00493 1 1.00618 0.998758
0.999905 1 1.00007 0.999839
1.00129 1 1.00234 0.998949
1.00621 1 1.00795 0.998273
1 1 1 1
0.999915 1 1 0.999915
0.999299 1 1.00018 0.999124
1 1 1 1
0.999965 1 1 0.999965
1 1 1 1
0.735339 0.841763 0.921182 0.948315
0.690568 0.803689 0.923935 0.929987
0.793049 0.90289 0.927533 0.94697
1.00448 1 1.00656 0.997932
1.01299 1.00018 1.01524 0.997592
1.00417 1.0026 1.00392 0.997651
1.00505 1.00718 1.00122 0.996676
1.01319 1.00185 1.0137 0.997648
1.01501 1 1.01704 0.99801
1.0107 1.00011 1.01285 0.997762
1.01879 1.0012 1.01989 0.997723
0.999581 1.00345 0.998747 0.997393
0.974479 1.00136 0.97462 0.998497
0.971779 1.00035 0.973689 0.997688
0.983785 1.00084 0.983947 0.998999
1.0206 1.00009 1.02205 0.998485
0.882409 0.955793 0.952504 0.969258
0.701624 0.818914 0.906542 0.945101
0.638843 0.77131 0.894886 0.925544
0.701798 0.823462 0.904031 0.942725
0.857567 0.908594 0.976351 0.966701
0.893013 0.917011 0.987151 0.986507
0.871833 0.924041 0.955574 0.987365
0.873306 0.932341 0.96498 0.970675
0.896382 0.962848 0.943725 0.986483
0.993456 1.00132 0.993919 0.998218
0.999005 1 1.00001 0.999
0.994766 1 0.995337 0.999427
0.993423 0.989077 1.00696 0.997451
0.981477 0.992209 0.992371 0.996789
0.887821 0.965959 0.94838 0.969135
0.750718 0.851861 0.926484 0.951197
0.71049 0.81079 0.936793 0.935418
0.948774 0.967029 0.985836 0.995219
0.864003 0.933908 0.942748 0.981331
0.734994 0.844128 0.918588 0.947883
0.883985 0.953732 0.954792 0.970754
0.962144 0.981945 0.982128 0.997665
0.919292 0.988589 0.957351 0.97133
0.903087 0.966035 0.950179 0.983854
0.967429 1.00329 0.967121 0.997039
0.937459 0.992292 0.953639 0.990668
0.990241 1.00315 0.989664 0.997441
0.980186 1.00813 0.974961 0.997256
0.993751 1.03849 0.959207 0.997612
0.999459 1.00476 0.998123 0.996597
1.02669 1.04289 0.98718 0.997256
1.03889 1.06628 0.976619 0.997643
1.02465 1.03275 0.995612 0.996524
1.04244 1.05882 0.987168 0.997325
1.03584 1.05783 0.981596 0.997572
1.04991 1.05648 0.99704 0.996727
1.04852 1.05908 0.9927 0.997308
1.04539 1.05895 0.989759 0.997411
1.04889 1.05573 0.996246 0.997266
1.04811 1.05362 0.997745 0.997021
1.05554 1.06024 0.998594 0.99697
1.05251 1.05604 0.999993 0.996661
1.05386 1.05762 1 0.996447
1.05312 1.05725 1 0.996095
1.05569 1.05985 1 0.996075
1.0548 1.05896 1 0.996068
1.03984 1.04373 1 0.996276
1.04389 1.04809 1 0.995993
1.04519 1.04958 1 0.995818
1.00647 1.00924 1 0.997254
1.02399 1.02762 1 0.996475
1.02899 1.03298 1 0.996142
1.00031 1 1.00129 0.999022
1.0023 1.00426 1.00055 0.997505
1.01229 1.01556 1 0.996778
1 1 1 1
1.00175 1 1.00245 0.999308
1.00406 1.00178 1.00446 0.997825
1 1 1 1
1.00276 1 1.0032 0.999561
1 1 1 1
1.01034 1.01337 1.00018 0.996823
1.00074 1.00306 1 0.99769
1.0011 1.00113 1.00226 0.997723
1.00247 1 1.00461 0.99787
1.00469 1 1.00678 0.997929
1.00634 1 1.00785 0.998498
1.0093 1 1.0112 0.998125
1.00504 1 1.00629 0.998757
1.00095 1 1.0012 0.999751
1 1 1 1
0.999853 1 1 0.999853
1.00041 1 1.00146 0.998951
1 1 1 1
0.999928 1 1 0.999928
1 1 1 1
0.909676 0.977994 0.956211 0.97274
0.739486 0.849701 0.916771 0.949298
0.692207 0.804941 0.926481 0.928186
1.01524 1 1.01788 0.997408
1.00211 1.00226 1.00213 0.997725
1.0111 1.00198 1.01156 0.997578
1.00618 1.00803 1.00139 0.996772
1.02037 1.02394 1.00016 0.996345
1.00051 1.00334 1 0.997186
1.02164 1.00129 1.02255 0.997822
1.00048 1.00419 0.999097 0.997205
0.981236 1.00226 0.980516 0.99848
0.995601 1.00252 0.995629 0.997455
0.970507 1.00345 0.969394 0.997706
0.993576 1.00151 0.994824 0.997235
0.973856 1.00082 0.975206 0.997799
0.987939 1.00039 0.988514 0.999033
0.9073 0.972301 0.945981 0.986434
0.891665 0.964834 0.953635 0.969096
0.710705 0.819853 0.912863 0.949616
0.861887 0.927854 0.962033 0.965563
0.882016 0.925674 0.964032 0.988387
0.897406 0.955342 0.948586 0.990269
0.976018 1.00377 0.975153 0.997131
0.99122 1.00054 0.992517 0.998156
0.997482 0.999737 0.998765 0.998978
0.982996 0.993655 0.992141 0.997109
0.926468 0.973189 0.964631 0.986897
0.902886 0.973324 0.952563 0.973827
0.739881 0.846717 0.922257 0.947484
0.960438 0.977548 0.984707 0.997757
0.908677 0.972482 0.948069 0.985571
0.920538 0.986161 0.960516 0.971828
0.961368 1.00143 0.962775 0.997111
0.938073 0.988445 0.958796 0.989823
0.963063 1.02477 0.942424 0.9972
0.982482 1.01827 0.968863 0.995867
0.976748 1.00789 0.971819 0.997202
0.990876 1.03625 0.95851 0.997608
1.00664 1.06612 0.94648 0.9976
1.02951 1.04479 0.988119 0.997226
1.03833 1.06593 0.976433 0.997621
1.03809 1.06378 0.978269 0.997522
1.04281 1.05926 0.987133 0.997299
1.03645 1.05738 0.982607 0.997553
1.04788 1.06552 0.986026 0.997375
1.04862 1.05934 0.99258 0.997286
1.04372 1.05665 0.990335 0.997404
1.04805 1.05828 0.993183 0.997133
1.04865 1.05607 0.995645 0.997322
1.04833 1.05374 0.997792 0.997067
1.05277 1.05669 0.999602 0.996687
1.05248 1.05601 1 0.996653
1.05404 1.05781 1 0.996436
1.05438 1.05828 1 0.996316
1.04647 1.05043 1 0.996225
1.05335 1.05749 1 0.996088
1.05538 1.05955 1 0.996063
1.01733 1.02035 1 0.997046
1.03841 1.04229 1 0.996281
1.04397 1.04817 1 0.995997
0.999283 1.00024 1.00027 0.998769
1.00894 1.0117 1.00001 0.997253
1.02267 1.02628 1 0.996474
1 1 1 1
0.999928 1 1.00092 0.999004
1.00434 1.00604 1.0008 0.997505
1 1 1 1
1.00152 1 1.00224 0.999284
1 1 1 1
1.02314 1.02681 1 0.996426
1.01216 1.01529 1.00006 0.996856
1.00842 1.01061 1.00066 0.997169
1.00037 1.0027 1 0.997675
1.00064 1.00078 1.0022 0.997671
1.00409 1.00109 1.00484 0.998158
1.00386 1 1.00598 0.997892
1.00689 1 1.0084 0.9985
1.0028 1 1.00317 0.999627
1.00566 1 1.00691 0.998756
1.0007 1 1.00094 0.999762
1 1 1 1
1 1 1 1
0.999868 1 1 0.999868
1 1 1 1
0.91693 0.972864 0.954639 0.987291
0.899271 0.976706 0.950662 0.968502
0.735699 0.842692 0.917575 0.951458
1.0392 1.04307 1.00007 0.99623
1.00889 1.00172 1.00967 0.99751
1.00737 1.00905 1.00146 0.996869
1.00086 1.00368 1 0.997186
1.01913 1.02246 1.00042 0.996325
1.00645 1.00954 0.999783 0.99716
1.00081 1.00389 0.999915 0.997018
0.983674 1.00228 0.982953 0.998462
0.993568 1.00297 0.993142 0.997467
0.963912 1.00246 0.963898 0.997561
1.0083 1.0152 0.996424 0.996767
0.995551 1.0072 0.991123 0.997292
0.993786 1.00212 0.994466 0.997206
0.975737 1.00134 0.976476 0.997909
0.972419 1.00613 0.968781 0.997644
0.900847 0.967888 0.944891 0.985017
0.889699 0.966157 0.950006 0.969324
0.893413 0.948591 0.953339 0.987929
0.97891 1.00496 0.976039 0.997989
0.991093 1.0002 0.992795 0.998086
0.978142 1.0073 0.975668 0.995271
0.911647 0.95715 0.963698 0.988339
0.890421 0.970519 0.946554 0.969273
0.959788 0.999172 0.963297 0.997183
0.94604 0.990527 0.965961 0.988743
0.966914 1.02638 0.944575 0.997337
0.986322 1.01827 0.972342 0.996178
0.991794 1.04493 0.951596 0.997423
1.04966 1.07266 0.981221 0.997287
0.987415 1.03335 0.95784 0.997604
1.01202 1.06759 0.950247 0.997582
1.02898 1.07759 0.957406 0.997375
1.03708 1.06509 0.976041 0.9976
1.03501 1.0619 0.977094 0.997519
1.04819 1.07315 0.979425 0.997257
1.03674 1.05675 0.983488 0.997533
1.04579 1.06393 0.985524 0.997389
1.05061 1.06444 0.989892 0.997082
1.0419 1.05428 0.99084 0.997396
1.04848 1.05869 0.993205 0.99713
1.05411 1.06031 0.99734 0.996809
1.04846 1.05378 0.997835 0.997114
1.05321 1.05708 0.999603 0.996733
1.05652 1.06031 1 0.996421
1.05421 1.05799 1 0.996425
1.05408 1.05799 1 0.996303
1.04869 1.05261 1 0.996279
1.02488 1.02804 1 0.996929
1.04619 1.05015 1 0.996234
1.05352 1.05767 1 0.99608
1.00066 1.00204 1 0.998621
1.01802 1.02104 1 0.997046
1.0372 1.04107 1 0.996287
1 1 1 1
0.99957 1.00071 1.0001 0.998755
1.01158 1.01437 1 0.997252
1 1 1 1
0.999441 1 1.00045 0.998987
1 1 1 1
1.03782 1.04181 1 0.996169
1.02486 1.02854 1 0.99642
1.02129 1.02462 1 0.996753
1.01451 1.01767 1.00001 0.996888
1.00897 1.01128 1.00056 0.997158
1.00527 1.00515 1.00231 0.997813
1.00006 1.00048 1.00196 0.997619
1.00439 1.00058 1.00566 0.99816
1.00218 1 1.00273 0.999453
1.00668 1 1.00819 0.998501
1.0019 1 1.00226 0.999639
1 1 1 1
1.00019 1 1.00042 0.999773
1 1 1 1
1 1 1 1
0.973588 1.01057 0.96603 0.997287
0.911486 0.970729 0.953724 0.984531
0.898429 0.969164 0.952646 0.973094
1.02956 1.03293 1.00001 0.996723
1.0489 1.05275 0.999963 0.996382
1.03719 1.04089 1.00013 0.996309
1.00162 1.00445 1 0.997186
1.01772 1.02075 1.00073 0.996304
1.00847 1.01247 0.998905 0.997144
1.02954 1.03631 0.996743 0.99671
0.992963 1.00415 0.991354 0.99748
0.960929 1.00189 0.961603 0.997415
1.00953 1.01732 0.995454 0.996875
1.0244 1.03952 0.988787 0.996628
0.998274 1.02671 0.974752 0.997486
1.00016 1.00934 0.993644 0.997239
0.994778 1.00264 0.994966 0.997176
0.976473 1.0077 0.971015 0.997935
0.905724 0.97165 0.947769 0.98352
0.979215 1.00494 0.9755 0.998876
1.02923 1.05672 0.976061 0.997878
0.976291 1.00608 0.974869 0.99541
0.91489 0.967668 0.958873 0.98601
0.969794 1.0284 0.945412 0.997466
0.990366 1.01879 0.975512 0.996506
0.987591 1.04546 0.946931 0.997588
1.04849 1.07318 0.979627 0.997308
1.0448 1.08539 0.965212 0.997298
1.08364 1.10799 0.98053 0.997442
1.01734 1.06991 0.953182 0.997565
1.03513 1.07958 0.961354 0.997374
1.05145 1.08299 0.973635 0.997166
1.03215 1.06018 0.975989 0.997515
1.04798 1.07226 0.980038 0.997257
1.05129 1.07034 0.985112 0.997048
1.04378 1.06237 0.985063 0.997402
1.05125 1.06507 0.989923 0.997078
1.05436 1.06431 0.993813 0.99682
1.0489 1.05909 0.993228 0.997128
1.05467 1.06085 0.99736 0.996808
1.05965 1.06362 0.999792 0.996475
1.05365 1.05747 0.999603 0.996778
1.05609 1.05987 1 0.996435
1.05243 1.05635 1 0.996288
1.05378 1.05771 1 0.996289
1.04864 1.05255 1 0.996282
1.02672 1.02994 1 0.996872
1.0034 1.00483 1 0.998578
1.02431 1.02747 1 0.996929
1.04604 1.04999 1 0.996243
1 1 1 1
1.00133 1.00273 1 0.998609
1.0184 1.02142 1 0.997046
1 1 1 1
0.999702 1.00096 1 0.998741
1 1 1 1
1.04637 1.05038 1 0.996181
1.03734 1.04133 1 0.996168
1.03266 1.03633 1 0.996462
1.02573 1.02942 1 0.996415
1.02116 1.02448 1 0.996759
1.01001 1.01217 1.00036 0.997514
1.00887 1.01129 1.00046 0.997149
1.00395 1.00351 1.00263 0.997815
1.00049 1 1.0013 0.999197
1.00533 1.00008 1.0071 0.998163
1.00233 1 1.00286 0.99947
1 1 1 1
1.00151 1 1.00186 0.999651
1 1 1 1
1 1 1 1
1.00214 1.0448 0.96119 0.997904
0.970697 1.00952 0.965049 0.996367
0.913385 0.972726 0.953044 0.985259
1.04409 1.04833 0.999349 0.996601
1.03074 1.03393 0.99998 0.996931
1.06256 1.0671 0.999243 0.996496
1.04926 1.05328 0.999822 0.996364
1.0353 1.03889 1.00015 0.99639
1.05329 1.06593 0.991615 0.996497
1.01049 1.0155 0.997929 0.997128
1.02948 1.03574 0.997294 0.996648
1.04501 1.07441 0.975775 0.99679
1.00841 1.01926 0.99235 0.996982
1.02532 1.04028 0.98902 0.996557
0.999195 1.02979 0.972693 0.997525
1.00192 1.00964 0.995156 0.997184
0.981252 1.00934 0.973921 0.998199
1.07015 1.09887 0.976324 0.997477
1.03336 1.05714 0.979563 0.997903
0.975134 1.0049 0.974716 0.995548
0.984242 1.04522 0.943777 0.997752
1.04551 1.07251 0.977436 0.997331
1.03962 1.0834 0.962168 0.997322
1.08672 1.11135 0.980354 0.997434
1.06927 1.09774 0.976681 0.99732
1.04097 1.08117 0.965356 0.997374
1.05214 1.08221 0.974959 0.997176
1.05206 1.07517 0.981378 0.997081
1.04773 1.07134 0.980648 0.997257
1.05146 1.07026 0.985367 0.997028
1.05365 1.0668 0.990834 0.996808
1.05192 1.06571 0.989958 0.997075
1.05482 1.06477 0.993825 0.996816
1.06241 1.06726 0.998944 0.996514
1.05522 1.06138 0.99738 0.996806
1.05959 1.06356 0.999787 0.996478
1.05736 1.06131 1 0.996276
1.05569 1.05945 1 0.99645
1.05226 1.05618 1 0.996294
1.02744 1.03073 1 0.996811
1.04855 1.05246 1 0.996284
1.02712 1.03034 1 0.996872
1.00517 1.00634 1 0.998837
0.999532 1 1 0.999532
1.00403 1.00535 1 0.998687
1.02361 1.02677 1 0.996928
1 1 1 1
1.00228 1.00369 1 0.998596
1 1 1 1
1.06712 1.07162 0.999197 0.996599
1.05481 1.05867 1 0.996356
1.04706 1.05106 1 0.996194
1.04013 1.04395 1 0.996345
1.03741 1.0414 1 0.996167
1.03363 1.0373 1 0.996458
1.01483 1.01762 1 0.997254
1.02168 1.025 1 0.996764
1.00781 1.0098 1.00052 0.997515
0.999166 1.00015 1.00012 0.998895
1.00256 1.00193 1.00282 0.997816
1.00088 1 1.00167 0.999216
1 1 1 1
1.00209 1 1.0026 0.999488
1 1 1 1
1 1 1 1
1.05911 1.09555 0.969426 0.997223
1.0081 1.05302 0.959313 0.99794
0.967648 1.00962 0.962798 0.995463
1.05813 1.06702 0.995125 0.996534
1.04006 1.04439 0.9992 0.996648
1.03163 1.0346 0.999993 0.997136
1.06107 1.06549 0.999338 0.996511
1.0496 1.0538 0.99967 0.996347
1.05998 1.08627 0.978964 0.996769
1.04968 1.06269 0.991272 0.996456
1.02942 1.03501 0.998001 0.996585
1.04245 1.07162 0.975921 0.996788
1.02959 1.04367 0.989983 0.996487
1.00438 1.03773 0.970218 0.997572
1.06811 1.09212 0.98054 0.997423
1.07282 1.10139 0.976491 0.997514
1.03728 1.058 0.98245 0.997929
1.03587 1.08271 0.959289 0.997343
1.09113 1.11554 0.980645 0.997426
1.06967 1.09899 0.975929 0.997325
1.05866 1.0767 0.98602 0.997188
1.05286 1.08138 0.976372 0.997186
1.05254 1.07497 0.982012 0.997066
1.05559 1.06906 0.990521 0.996848
1.05168 1.07022 0.98562 0.997008
1.0543 1.06745 0.99084 0.996807
1.0636 1.0707 0.996819 0.996535
1.05531 1.06525 0.993839 0.996811
1.06215 1.06701 0.998928 0.996514
1.06079 1.06477 1 0.996255
1.05956 1.06353 0.999784 0.99648
1.05712 1.06106 1 0.996281
1.02867 1.03205 1 0.996726
1.05207 1.05598 1 0.996301
1.02845 1.03174 1 0.996811
1.00461 1.00576 1 0.998852
1.02758 1.0308 1 0.996871
1.00506 1.00624 1 0.998831
0.999559 1 1 0.999559
0.999776 1 1 0.999776
1.00471 1.00591 1 0.998807
1 1 1 1
1.05983 1.06803 0.995695 0.996613
1.05952 1.06341 0.999894 0.996439
1.06575 1.07044 0.998887 0.996727
1.05053 1.05441 1 0.996319
1.05688 1.06076 1 0.996344
1.04776 1.05175 1 0.996207
1.04083 1.04465 1 0.996336
1.02105 1.02408 1 0.997047
1.03437 1.03805 1 0.996453
1.01378 1.01657 1 0.997255
1.00087 1.0022 1 0.998679
1.00554 1.00751 1.00052 0.997518
0.999526 1.00015 1.00046 0.998915
1 1 1 1
1.00136 1 1.00212 0.999236
1 1 1 1
1 1 1 1
1.05916 1.0863 0.977844 0.99711
1.0538 1.08977 0.969682 0.997221
1.01205 1.05788 0.958623 0.997968
1.05814 1.07584 0.986811 0.996694
1.05533 1.06433 0.994996 0.996533
1.03631 1.04069 0.99909 0.996697
1.05943 1.06372 0.999434 0.996526
1.05837 1.0842 0.979365 0.996745
1.04578 1.05916 0.990922 0.996416
1.03482 1.06327 0.976379 0.996786
1.06256 1.07946 0.987053 0.997252
1.06644 1.09017 0.980799 0.997383
1.07471 1.10329 0.976493 0.997551
1.05737 1.07087 0.990269 0.997091
1.06954 1.09986 0.975036 0.997331
1.0585 1.07665 0.985927 0.997174
1.05739 1.06981 0.99141 0.996955
1.05305 1.07476 0.982699 0.997052
1.05556 1.06907 0.990481 0.996851
1.06412 1.07253 0.995592 0.996557
1.05489 1.06804 0.990851 0.996806
1.06293 1.06999 0.996856 0.996535
1.062 1.066 1 0.996248
1.0618 1.06667 0.998913 0.996513
1.06112 1.0651 1 0.996259
1.02907 1.03253 1 0.996647
1.05682 1.06076 1 0.996286
1.02971 1.03309 1 0.996727
1.00339 1.00457 1 0.998825
1.0295 1.03279 1 0.996811
1.00428 1.00545 1 0.99884
0.999562 1 1 0.999562
1.00492 1.0061 1 0.998828
0.99957 1 1 0.99957
1 1 1 1
1.05718 1.0684 0.99296 0.99652
1.06113 1.06605 0.998956 0.996427
1.06148 1.06952 0.995855 0.99661
1.05695 1.0608 1 0.996368
1.06065 1.06474 0.999668 0.996483
1.06458 1.06947 0.998573 0.996855
1.0296 1.0328 1 0.996899
1.05032 1.05422 1 0.996308
1.05906 1.06295 1 0.996332
1.0418 1.04564 1 0.996326
1.02172 1.02474 1 0.997048
1.00454 1.00596 1 0.998593
1.01304 1.01582 1 0.997257
1.00028 1.00159 1 0.998695
1 1 1 1
0.999706 1 1.00077 0.998933
1 1 1 1
1 1 1 1
1.05746 1.07536 0.986323 0.99699
1.05941 1.0869 0.977559 0.997091
1.05161 1.08754 0.969657 0.997219
1.05783 1.07551 0.986806 0.996711
1.05219 1.0613 0.994868 0.996531
1.05812 1.08351 0.979782 0.996721
1.05927 1.0725 0.990548 0.997089
1.06258 1.07948 0.987054 0.997246
1.06485 1.08836 0.981006 0.997342
1.05787 1.07108 0.990527 0.997111
1.05617 1.06695 0.992958 0.99691
1.05833 1.07663 0.985799 0.99716
1.05772 1.06978 0.991785 0.996916
1.06421 1.07265 0.995471 0.996646
1.05558 1.06913 0.990439 0.996853
1.06369 1.07213 0.995555 0.99656
1.06192 1.06592 1 0.996249
1.0624 1.06943 0.996878 0.996536
1.06339 1.06739 1 0.996249
1.02782 1.03133 1 0.996601
1.06149 1.06547 1 0.996262
1.02976 1.03322 1 0.996648
1.00182 1.00306 1 0.99877
1.03079 1.03418 1 0.996729
1.00296 1.00416 1 0.998807
0.999538 1 1 0.999538
1.00394 1.00511 1 0.99883
0.999584 1 1 0.999584
0.999575 1 1 0.999575
1.0579 1.06998 0.991912 0.99678
1.06215 1.06834 0.997826 0.996367
1.05703 1.06933 0.99192 0.996547
1.06116 1.06506 1 0.99634
1.06078 1.06546 0.999193 0.996413
1.06312 1.071 0.996021 0.996607
1.03203 1.03534 1 0.996804
1.05688 1.06074 1 0.996353
1.06163 1.06591 0.999455 0.996527
1.00588 1.00731 1 0.998585
1.0291 1.0323 1 0.996901
1.05026 1.05416 1 0.996297
1.02153 1.02455 1 0.997049
1.00334 1.00475 1 0.998604
1 1 1 1
0.999609 1.0009 1 0.998711
1 1 1 1
1 1 1 1
1.05634 1.06962 0.990571 0.996982
1.05785 1.07556 0.986521 0.99698
1.05887 1.08661 0.977329 0.997072
1.05751 1.07521 0.986763 0.996728
1.05676 1.06556 0.994863 0.996869
1.05932 1.0726 0.990491 0.9971
1.06266 1.07951 0.987117 0.99724
1.05837 1.07127 0.990803 0.997132
1.05634 1.06732 0.992766 0.99692
1.0642 1.07127 0.996759 0.996629
1.05807 1.06976 0.99217 0.996877
1.06478 1.0726 0.996095 0.996593
1.06078 1.06536 0.999381 0.996319
1.06324 1.0717 0.995527 0.996562
1.06289 1.06692 0.99997 0.996251
1.02511 1.02863 1 0.996571
1.06452 1.06853 1 0.996251
1.02757 1.03107 1 0.996602
0.999858 1.00138 1 0.998483
1.03048 1.03395 1 0.99665
1.00119 1.00255 1 0.998641
1 1 1 1
1.00252 1.00374 1 0.99879
0.999566 1 1 0.999566
0.999599 1 1 0.999599
1.05675 1.06664 0.993839 0.996876
1.06179 1.06915 0.996602 0.996502
1.05831 1.06957 0.992681 0.996771
1.06251 1.06658 0.999946 0.996239
1.06141 1.06798 0.997461 0.996373
1.05692 1.0703 0.990897 0.996574
1.03153 1.03499 1 0.996657
1.06103 1.06493 0.999992 0.996341
1.06045 1.06492 0.999404 0.996399
1.00458 1.00599 1 0.998595
1.03112 1.03446 1 0.996771
1.05659 1.06047 1 0.996338
1 1 1 1
1.00573 1.00715 1 0.998596
1.0286 1.0318 1 0.996902
1.00259 1.00398 1 0.998617
1 1 1 1
1 1 1 1
1.05507 1.06356 0.99512 0.996878
1.05675 1.06972 0.990854 0.996988
1.0582 1.07575 0.986672 0.996971
1.06364 1.0697 0.997756 0.996569
1.05619 1.06538 0.994477 0.99688
1.05936 1.07271 0.990424 0.997111
1.05648 1.0677 0.992541 0.99693
1.06384 1.07108 0.9966 0.996629
1.05944 1.06382 0.999511 0.996365
1.06526 1.07248 0.996718 0.99654
1.06116 1.06546 0.999659 0.996301
1.02277 1.02635 1 0.996519
1.06401 1.06809 0.99993 0.996253
1.02458 1.0281 1 0.996572
0.99881 1.00035 1 0.998456
1.02754 1.03105 1 0.996603
0.999504 1.00102 1 0.998481
1 1 1 1
1.00051 1.00202 1 0.99849
0.999759 1 1 0.999759
0.99959 1 1 0.99959
1.05423 1.06268 0.995192 0.996836
1.06313 1.06916 0.997765 0.996579
1.05647 1.06618 0.99399 0.996883
1.06253 1.06655 1 0.996229
1.06277 1.06993 0.996811 0.996488
1.05867 1.06912 0.99344 0.996762
1.02912 1.03265 1 0.996577
1.062 1.06603 0.999978 0.996243
1.06069 1.06765 0.997099 0.996378
1.00237 1.00381 1 0.998572
1.031 1.03447 1 0.996645
1.06088 1.06479 0.999993 0.996341
1 1 1 1
1.00508 1.00649 1 0.998604
1.03045 1.03382 1 0.996736
1 1 1 1
1.00551 1.00691 1 0.998607
1 1 1 1
1.06273 1.0686 0.997888 0.996611
1.05471 1.06324 0.995093 0.996863
1.0571 1.06974 0.991158 0.996995
1.05877 1.06308 0.999579 0.996361
1.06296 1.06938 0.997398 0.996589
1.05563 1.0652 0.994101 0.996892
1.06348 1.07089 0.996435 0.99663
1.05919 1.0637 0.999397 0.996365
1.02164 1.02521 1 0.996518
1.06159 1.06561 0.999949 0.996282
1.02265 1.02621 1 0.996531
0.998477 1.00006 1 0.998421
1.02387 1.02739 1 0.996573
0.998634 1.00018 1 0.998454
1 1 1 1
0.999053 1.00057 1 0.998479
1 1 1 1
0.999562 1 1 0.999562
1.06349 1.06917 0.998089 0.996587
1.05355 1.06261 0.994594 0.996856
1.06105 1.06502 1 0.99628
1.06348 1.06955 0.997737 0.996578
1.05623 1.06579 0.994124 0.996891
1.02605 1.02955 1 0.996597
1.06168 1.0657 1 0.996226
1.06371 1.07066 0.997029 0.996474
1.00028 1.00176 1 0.998518
1.02912 1.03264 1 0.996592
1.06135 1.06535 1 0.996247
1 1 1 1
1.00299 1.00442 1 0.998577
1.03055 1.03403 1 0.996633
1 1 1 1
1.00556 1.00696 1 0.998613
1 1 1 1
1.0589 1.06309 0.999678 0.996383
1.06259 1.06836 0.997987 0.996599
1.05436 1.06293 0.995071 0.996849
1.02128 1.02483 1 0.996535
1.05852 1.06291 0.999505 0.996361
1.06224 1.06903 0.997024 0.99661
1.05897 1.06357 0.999305 0.996365
1.02178 1.02535 1 0.996516
0.998407 1 1 0.998407
1.02249 1.02603 1 0.996543
0.998421 1 1 0.998419
1 1 1 1
0.998495 1.00004 1 0.998452
1 1 1 1
1 1 1 1
1.06013 1.06406 1 0.996308
1.06301 1.06902 0.997743 0.996635
1.05288 1.06257 0.993993 0.996875
1.02366 1.02715 1 0.996608
1.06072 1.06469 1 0.996277
1.06383 1.06994 0.997711 0.996577
0.998895 1.00042 1 0.998474
1.02614 1.02965 1 0.996594
1.06087 1.06489 1 0.996222
1 1 1 1
1.00085 1.00233 1 0.998521
1.02924 1.03275 1 0.996607
1 1 1 1
1.00356 1.00498 1 0.998583
1 1 1 1
1.0219 1.0254 1 0.996583
1.05859 1.06289 0.999587 0.996365
1.06245 1.06815 0.998068 0.996588
0.998433 1 1 0.998433
1.02146 1.02502 1 0.996532
1.05828 1.06275 0.999436 0.996362
1.02191 1.02549 1 0.996514
0.998407 1 1 0.998407
1 1 1 1
0.998417 1 1 0.998417
1 1 1 1
1 1 1 1
1.02258 1.02607 1 0.996606
1.0597 1.06377 0.999834 0.996336
1.06256 1.06884 0.997432 0.996683
0.998728 1 1 0.998724
1.02408 1.02756 1 0.996606
1.06044 1.06441 1 0.996273
1 1 1 1
0.9993 1.00083 1 0.998475
1.02636 1.02987 1 0.996592
1 1 1 1
1.00137 1.00285 1 0.998525
1 1 1 1
0.998418 1 1 0.998418
1.02205 1.02557 1 0.996569
1.05832 1.06272 0.999507 0.996347
1 1 1 1
0.998431 1 1 0.998431
1.02164 1.0252 1 0.996529
0.998407 1 1 0.998407
1 1 1 1
1 1 1 1
0.998694 1 1 0.998694
1.02288 1.02636 1 0.996607
1.05922 1.06347 0.99964 0.996365
1 1 1 1
0.998565 1.0001 1 0.998461
1.0243 1.02779 1 0.996605
1 1 1 1
0.999592 1.00112 1 0.998476
1 1 1 1
0.999532 1 1 0.999532
0.998571 1 1 0.998571
1.02218 1.02572 1 0.996555
1 1 1 1
0.998433 1 1 0.998433
1 1 1 1
0.999544 1 1 0.999544
0.998579 1 1 0.998579
1.0232 1.02668 1 0.996607
0.999767 1 1 0.999767
0.998777 1.00032 1 0.998462
1 1 1 1
1 1 1 1
0.998454 1 1 0.998454
1 1 1 1
0.999771 1 1 0.999771
0.998466 1 1 0.998464
1 1 1 1
1 1 1 1
1 1 1 1

VECTORS lamdaE float
1.00193 1.00001 0.993111
1.00148 1.00078 0.996546
1.0014 1.00022 0.993466
1.00189 1.0001 0.993019
1.00198 0.999919 0.993119
1.00189 1.00024 0.992931
1.00311 1.00056 0.99009
1.00153 1.00079 0.99649
1.0013 1.00007 0.997147
1.0008 1.00087 0.997163
1.00127 1.00122 0.992738
1.00308 1.00119 0.988364
1.00137 1 0.993687
1.00116 1 0.993853
1.00093 1.00045 0.993793
1.00153 1.00007 0.993408
1.0013 1.0006 0.993254
1.00155 0.999974 0.99349
1.00335 1.00042 0.989916
1.00138 1.00002 0.99677
1.0018 1.00014 0.993082
1.00199 0.999981 0.993048
1.00316 1.00021 0.990392
1.0032 1.00028 0.990241
1.00191 1.00051 0.99267
1.00302 1.00103 0.989739
1.00527 1.00117 0.985503
1.00155 1.00078 0.996436
1.00155 0.999951 0.995229
1.00118 1.00058 0.995202
1.00143 1.00098 0.996447
1.00303 1.00133 0.988376
1.00182 0.999756 0.993235
1.00163 1.00006 0.993329
1.00352 1.00013 0.990534
1.00025 1.00133 0.997375
1.00336 1.00071 0.990307
1.00279 1.00204 0.988016
1.00504 1.00162 0.984704
1.00044 1.00005 0.997607
1.00142 0.999989 0.99674
1.0014 0.999993 0.995241
1.00131 0.999966 0.996828
1.00098 1.00003 0.994043
1.00309 0.999935 0.989788
1.00133 0.999937 0.99708
1.0035 1.00012 0.990612
1.00118 0.99999 0.993797
1.00113 1.00003 0.993849
1.00075 1.00099 0.993558
1.00357 1.00027 0.989756
1.00118 1.00004 0.995429
1.00142 1.00016 0.993474
1.00131 1.00098 0.992944
1.0016 0.999951 0.993429
1.00334 1.00016 0.990191
1.0033 1.00083 0.989569
1.0034 1.0002 0.99006
1.00528 1.00115 0.985563
1.00127 1 0.996827
1.00165 1.00009 0.99334
1.00277 0.999991 0.991654
1.00306 1.00019 0.990563
1.00323 1.00019 0.990296
1.00527 1.00011 0.986582
1.00527 1.00041 0.986214
1.00166 1.00067 0.992484
1.00292 1.00192 0.989149
1.0053 1.00171 0.984921
1.00528 1.00002 0.985921
1.00188 0.999965 0.99662
1.00129 1.00086 0.99667
1.00157 1.00051 0.996576
1.00296 1.00144 0.988387
1.00189 0.999872 0.996561
1.00176 1.00013 0.996642
1.00338 1.00007 0.989046
1.00053 1.0011 0.995451
1.00313 1.00069 0.988812
1.00265 1.00223 0.989127
1.00517 1.00146 0.984697
1.00073 1.00041 0.997227
1.00069 1.00244 0.991288
1.00352 1.00004 0.988913
1.00343 1.00015 0.988957
1.00531 1.00044 0.985596
1.00195 1.00281 0.99069
1.00528 1.00111 0.984926
1.00416 1.0028 0.984994
1.00537 1.00153 0.984183
1.00022 0.999273 0.998011
1.00028 0.999793 0.997774
1.00174 0.999963 0.996563
1.00149 0.999986 0.996703
1.00135 0.999973 0.996818
1.00125 1.00001 0.995376
1.00313 0.999925 0.990501
1.00155 0.999937 0.995171
1.00339 1.00014 0.989903
1.0013 0.999982 0.99685
1.00289 0.999805 0.99017
1.00338 1.00006 0.990869
1.00512 0.999092 0.987377
1.00351 1.00008 0.990568
1.00524 0.999434 0.986834
1.00133 0.999996 0.99377
1.00103 1.00015 0.993869
1.00071 1.00144 0.993207
1.00122 0.999909 0.993806
1.00352 1.00015 0.98999
1.0036 1.00013 0.989886
1.00356 1.00063 0.989409
1.00529 1.00112 0.98562
1.00132 0.999982 0.996839
1.00126 1.0001 0.993721
1.00297 0.999937 0.990489
1.00323 1.00016 0.990358
1.00146 1.0012 0.994382
1.0032 1.00169 0.989314
1.00341 1.00015 0.990105
1.00527 0.999924 0.986816
1.00528 1.0017 0.985004
1.00528 1.0006 0.986071
1.00528 1.00002 0.985951
1.00286 0.999844 0.99021
1.00292 1.00006 0.99087
1.00498 0.998877 0.988396
1.00519 0.999482 0.987421
1.00528 0.999981 0.986667
1.00536 0.997886 0.988237
1.00087 1.00101 0.996941
1.00528 0.999153 0.986777
1.0024 1.00299 0.987632
1.00523 1.00207 0.983981
1.00528 1.00097 0.985048
1.00526 0.997541 0.988223
1.00127 1.00311 0.989541
1.00249 1.00423 0.986492
1.00192 0.999888 0.99658
1.00174 1.00019 0.996628
1.00339 1.00004 0.989024
1.00079 1.00074 0.99711
1.00225 1.00255 0.988351
1.00315 1.00064 0.988818
1.00529 1.0013 0.984689
1.00057 1.00043 0.997371
1.00062 1.00257 0.991304
1.00354 1.00008 0.989718
1.00346 1.00021 0.989702
1.00531 1.00046 0.985566
1.00148 1.00295 0.989314
1.00529 1.00111 0.984904
1.00439 1.00243 0.984967
1.00537 1.00139 0.984389
1.00107 1.00271 0.990277
1.00037 1.00209 0.992326
1.0021 1.00433 0.987559
1.00531 1.00009 0.985998
1.00532 1.00077 0.985243
1.00531 0.998923 0.98707
1.00335 1.00344 0.98566
1.00533 1.0003 0.985671
1.0053 1.00232 0.98366
1.00531 1.00005 0.985522
1.00011 0.998718 0.998365
1.00014 0.999187 0.99816
1.00019 0.999654 0.997936
1.00096 1.003 0.990297
1.00051 1.00082 0.997253
1.00187 0.999909 0.996546
1.00158 0.999992 0.996618
1.00322 1.00018 0.989239
1.003 0.999929 0.989862
1.00134 0.999971 0.996796
1.00128 0.999971 0.996844
1.00288 0.99982 0.990159
1.00325 1.00006 0.990166
1.0051 0.999092 0.987387
1.00336 1.00013 0.989059
1.00523 0.999449 0.986812
1.00282 0.999803 0.990272
1.00506 0.998968 0.987593
1.00518 0.999203 0.987149
1.00531 0.995855 0.990524
1.00529 0.999749 0.986417
1.00535 0.996632 0.989608
1.00129 0.99998 0.996839
1.00085 1.00015 0.994099
1.003 0.999917 0.989482
1.00342 1.00015 0.990151
1.00065 1.00188 0.996806
1.00353 1.00126 0.989487
1.00359 1.00011 0.989918
1.00526 0.999723 0.987051
1.00529 1.00077 0.985924
1.00527 1.00168 0.985088
1.00527 1.00002 0.985982
1.00284 0.999839 0.990214
1.00309 1.00007 0.990671
1.00501 0.99883 0.988146
1.0052 0.999678 0.987175
1.00101 1.00109 0.996789
1.00254 1.00272 0.988678
1.00504 1.00234 0.984327
1.00529 1.00004 0.986625
1.00536 0.997494 0.988658
1.00529 1.00086 0.985117
1.00528 0.999318 0.986704
1.00526 0.997591 0.988229
1.00132 1.00305 0.989515
1.0026 1.00414 0.986454
1.00498 0.999051 0.987646
1.00507 0.999173 0.987959
1.00531 0.996535 0.989717
1.00536 0.99674 0.989448
1.0053 0.998257 0.98773
1.00526 0.995498 0.990625
1.00167 1.00325 0.988569
1.00525 0.996399 0.989451
1.00456 1.00293 0.984323
1.0053 1.00189 0.98392
1.00528 0.999214 0.986688
1.00525 0.996015 0.989903
1.0033 1.00401 0.985207
1.00201 1.00434 0.98751
1.00397 1.00292 0.985603
1.0034 1.00007 0.989008
1.00035 1.00027 0.997529
1.00052 1.0026 0.991324
1.00331 1.00019 0.988999
1.00531 1.00048 0.985535
1.00144 1.00308 0.989199
1.0046 1.00214 0.984945
1.00531 1.00111 0.984877
1.00538 1.00123 0.984595
1.00102 1.00281 0.990305
1.00021 1.00211 0.992339
1.00185 1.00435 0.987539
1.0053 1.00012 0.985966
1.00532 1.00078 0.985217
1.00531 0.998924 0.987052
1.00353 1.00323 0.985661
1.00532 1.00041 0.985578
1.00535 1.00231 0.983599
1.00533 0.999735 0.985764
1.00015 1.0014 0.993243
1.00301 1.00368 0.986493
1.00124 1.0048 0.988291
1.0031 1.00167 0.987839
1.00529 0.998132 0.987961
1.0053 0.999717 0.98624
1.00527 0.996688 0.989123
1.00484 1.00262 0.983999
1.00526 0.99833 0.987618
1.00534 1.0013 0.984665
1.00537 0.998685 0.986899
1.00016 1.00302 0.991649
1.00028 1.00003 0.994393
1.00011 0.998188 0.998589
1.00006 0.99863 0.998454
1.00005 0.999091 0.998285
1.00057 1.00272 0.991136
1.00032 1.00044 0.997504
1.00103 1.00288 0.990237
1.00065 1.00083 0.997148
1.00334 1.00016 0.989056
1.0031 1.00009 0.989526
1.00522 0.999463 0.986798
1.00508 0.999095 0.987396
1.00289 0.999837 0.990156
1.00133 0.999958 0.996841
1.00284 0.999795 0.990275
1.00504 0.998981 0.987601
1.00516 0.999239 0.987145
1.00532 0.995818 0.990528
1.00528 0.999766 0.986391
1.00533 0.996616 0.989616
1.00499 0.998965 0.987693
1.00531 0.995805 0.990598
1.00534 0.996082 0.990214
1.00529 0.994958 0.991371
1.0053 0.997372 0.988828
1.00526 0.994944 0.991182
1.00284 0.999841 0.990225
1.00327 1.00004 0.990471
1.00504 0.99877 0.987899
1.00522 0.99986 0.986929
1.00121 1.00116 0.996596
1.00291 1.00256 0.989475
1.00485 1.00253 0.984668
1.0053 1.00009 0.986582
1.00536 0.997103 0.989076
1.00527 0.999485 0.986633
1.00531 1.00077 0.985186
1.00526 0.997636 0.988236
1.00139 1.00297 0.98949
1.00259 1.00401 0.986419
1.00499 0.998811 0.987903
1.00509 0.999151 0.987937
1.00531 0.996493 0.989793
1.00537 0.997067 0.98905
1.00175 1.00322 0.98858
1.00433 1.0031 0.98435
1.00531 1.00203 0.98376
1.0053 0.998491 0.987573
1.00525 0.995283 0.990792
1.00528 0.998986 0.986935
1.00526 0.996427 0.989435
1.00525 0.995982 0.989787
1.00327 1.00414 0.985158
1.00373 1.00313 0.985529
1.00183 1.00432 0.987553
1.00531 0.996408 0.989905
1.00534 0.996712 0.989516
1.0053 0.994978 0.991221
1.00529 0.994935 0.991145
1.00525 0.995583 0.990292
1.00524 0.99493 0.990992
1.00378 1.00375 0.984659
1.00527 0.995155 0.990521
1.0053 1.0031 0.982815
1.00528 1.0005 0.985146
1.00523 0.997605 0.988272
1.00526 0.995633 0.990188
1.00113 1.00505 0.987806
1.00471 1.00358 0.98384
1.00288 1.00234 0.987202
1.00495 1.00316 0.984043
1.00529 1.00014 0.985936
1.00011 1.00222 0.992347
1.00086 1.00304 0.990337
1.00156 1.00434 0.987518
1.00532 1.00078 0.985191
1.00531 0.998926 0.987034
1.00369 1.00285 0.985665
1.00538 1.00229 0.983535
1.0053 1.00053 0.985486
1.00533 0.99944 0.986006
1.0001 1.00141 0.993271
1.00284 1.00353 0.98657
1.00105 1.0049 0.988239
1.00329 1.00156 0.98789
1.0053 0.998128 0.987943
1.0053 0.999709 0.98622
1.00527 0.996667 0.989129
1.00503 1.0026 0.983973
1.00525 0.998531 0.987377
1.00531 1.00117 0.98464
1.00535 0.998553 0.987087
1.00025 1.00056 0.993925
1.00096 1.00461 0.989044
1.00382 1.00238 0.985981
1.00253 1.00316 0.98805
1.00391 0.999716 0.988739
1.00527 0.995835 0.990038
1.00525 0.99753 0.988229
1.00527 0.995604 0.989985
1.0052 1.00223 0.983967
1.00529 0.997235 0.988445
1.00524 0.99987 0.985868
1.00045 1.00323 0.990917
1.00027 1.0047 0.989858
1.00009 1.0024 0.992388
1.00015 1.00297 0.991661
1.00019 0.999622 0.995639
1.00024 0.999964 0.99485
1.00027 0.997677 0.997103
1.0001 0.998096 0.998634
1.00003 0.998507 0.998525
0.999987 1.00238 0.992349
1.00012 0.999981 0.997888
1.00065 1.00266 0.991129
1.00042 1.00056 0.99741
1.00111 1.00279 0.990176
1.00077 1.00089 0.997046
1.00527 0.999785 0.986365
1.00514 0.99927 0.987138
1.00531 0.996622 0.989624
1.00533 0.995783 0.990533
1.00502 0.998995 0.98761
1.00284 0.999781 0.990272
1.00499 0.998968 0.987696
1.00531 0.995786 0.990603
1.00533 0.996074 0.990221
1.00528 0.994954 0.991365
1.0053 0.997351 0.988822
1.00527 0.994934 0.991208
1.00531 0.995848 0.990564
1.00527 0.994964 0.991418
1.0053 0.994924 0.991305
1.00525 0.994955 0.991293
1.00524 0.995205 0.990793
1.00527 0.994901 0.991024
1.00499 0.998571 0.988161
1.00512 0.999135 0.987916
1.00531 0.99648 0.989869
1.00538 0.997379 0.988653
1.00182 1.00318 0.988599
1.00408 1.00344 0.984391
1.00533 1.00216 0.983603
1.00529 0.998721 0.987416
1.00525 0.995063 0.99096
1.00526 0.996462 0.989418
1.00527 0.99874 0.987181
1.00525 0.995949 0.98967
1.00335 1.0044 0.985105
1.00355 1.00319 0.985455
1.00169 1.00431 0.987594
1.0053 0.996163 0.990196
1.00534 0.996705 0.989528
1.00531 0.994976 0.991262
1.0053 0.995031 0.991003
1.0037 1.00391 0.984686
1.00527 1.00314 0.982882
1.00528 1.00068 0.984903
1.00525 0.995807 0.990067
1.00524 0.994926 0.990948
1.00525 0.99746 0.988246
1.00526 0.995172 0.990493
1.00526 0.995522 0.990229
1.00432 1.00376 0.98384
1.0047 1.00327 0.9838
1.00133 1.00493 0.987857
1.0029 1.00245 0.987217
1.00529 0.994964 0.991398
1.00533 0.995026 0.990998
1.00527 0.99495 0.991281
1.00526 0.994925 0.990957
1.00528 0.994919 0.99079
1.00532 0.994913 0.990746
1.00518 1.0036 0.982714
1.00528 0.994923 0.990564
1.00527 1.00217 0.983511
1.00524 0.999664 0.985919
1.00518 0.996893 0.988809
1.00531 0.995366 0.990174
1.00091 1.00479 0.988521
1.00269 1.004 0.986341
1.00513 1.00384 0.98242
1.00392 1.00173 0.986686
1.00459 1.00438 0.982901
1.00004 1.00136 0.9933
1.0053 0.998122 0.987926
1.00094 1.00495 0.988186
1.00261 1.00354 0.986648
1.00339 1.00132 0.987941
1.0053 0.999704 0.986201
1.00527 0.996646 0.989135
1.00523 1.00235 0.983947
1.0053 1.00108 0.984615
1.00525 0.998709 0.987137
1.00535 0.998429 0.987274
1.00023 1.00052 0.993956
1.0007 1.00471 0.989054
1.00406 1.00204 0.986054
1.00223 1.00315 0.987987
1.00399 0.999739 0.988158
1.00526 0.995817 0.990054
1.00526 0.997504 0.988232
1.00526 0.995581 0.989992
1.0052 1.0023 0.983883
1.0053 0.997331 0.988259
1.00523 0.999919 0.986074
1.00069 1.0038 0.990087
1.00148 1.00504 0.988333
1.00453 1.00206 0.985229
1.00335 1.00096 0.988482
1.00499 1.00093 0.986886
1.00532 0.995038 0.99057
1.00525 0.996285 0.989203
1.00522 0.995298 0.990112
1.00499 1.00141 0.984561
1.00522 0.998558 0.986901
1.00038 1.00339 0.990901
1.00055 1.00434 0.989604
0.999953 1.00476 0.989876
1.00053 1.00453 0.990076
1.0001 1.00429 0.990704
0.999967 1.00211 0.992847
0.999995 1.00248 0.992411
1.00016 0.99923 0.995999
1.00013 1.00299 0.991673
1.00022 0.999491 0.995698
1.00028 0.997283 0.997387
1.00023 0.999912 0.995296
1.00018 0.997748 0.997935
1.00009 0.99801 0.998675
0.999744 1.00133 0.993797
1.00012 1.00223 0.992364
0.999881 0.999262 0.998382
1.00026 1.00001 0.997723
1.00073 1.00252 0.991125
1.00052 1.0006 0.997312
1.0053 0.997328 0.988815
1.00533 0.996043 0.990228
1.00528 0.994921 0.991234
1.00528 0.99495 0.99136
1.00531 0.995761 0.990608
1.00499 0.998971 0.9877
1.0053 0.99584 0.990565
1.00527 0.994965 0.991421
1.0053 0.994922 0.991317
1.00525 0.994954 0.991274
1.00525 0.995187 0.990816
1.00528 0.994894 0.991013
1.00528 0.994966 0.991417
1.00525 0.994947 0.991385
1.00526 0.994958 0.991154
1.00527 0.994941 0.991239
1.0053 0.994854 0.990902
1.00533 0.99493 0.990871
1.0053 0.995917 0.990486
1.00534 0.996708 0.98954
1.00531 0.994951 0.991304
1.0053 0.995143 0.990862
1.00363 1.00397 0.984712
1.00523 1.00314 0.982943
1.00529 1.00081 0.984659
1.00525 0.996031 0.989841
1.00524 0.994923 0.990904
1.00526 0.995177 0.990464
1.00526 0.997335 0.988221
1.00527 0.995378 0.990275
1.00394 1.00426 0.983843
1.00459 1.00351 0.983559
1.00148 1.00469 0.987907
1.00292 1.00219 0.987225
1.00529 0.994965 0.991397
1.00534 0.995025 0.991025
1.00527 0.994947 0.991252
1.00526 0.994929 0.990968
1.005 1.00384 0.982732
1.00527 1.0023 0.983379
1.00525 0.999606 0.985902
1.00528 0.994922 0.990791
1.00531 0.994912 0.990718
1.00522 0.996805 0.988815
1.00529 0.994918 0.990549
1.0053 0.995247 0.990319
1.00512 1.00392 0.98249
1.00451 1.00462 0.982759
1.00402 1.0016 0.986722
1.00081 1.00464 0.988626
1.00236 1.00427 0.986315
1.00526 0.994951 0.991318
1.00528 0.994936 0.99112
1.00532 0.994895 0.990694
1.0053 0.994905 0.990659
1.00517 1.00367 0.982414
1.00529 0.994913 0.990505
1.00518 1.00153 0.983884
1.0052 0.998992 0.98653
1.00526 0.996281 0.989077
1.00006 1.00407 0.990386
1.00175 1.0051 0.987297
1.00352 1.00444 0.985644
1.00494 1.00472 0.982294
1.00489 1.00246 0.984407
1.0044 1.00457 0.982749
1.00021 1.00049 0.993987
1.00047 1.00481 0.989065
1.00525 0.995803 0.99007
1.00191 1.00325 0.987922
1.00442 1.002 0.98613
1.00416 0.999929 0.987583
1.00526 0.99748 0.988233
1.00525 0.995562 0.989999
1.00521 1.00228 0.983804
1.0052 0.999992 0.986283
1.00532 0.997417 0.988072
1.00058 1.0039 0.990076
1.00095 1.00509 0.988309
1.00476 1.00206 0.984811
1.00326 1.00087 0.988533
1.00467 1.00044 0.986619
1.0053 0.995017 0.990598
1.00527 0.996307 0.989178
1.00525 0.995301 0.990062
1.00503 1.00143 0.984686
1.00519 0.998694 0.986838
1.00097 1.00471 0.989097
1.001 1.00411 0.988439
1.00478 1.00236 0.984496
1.004 1.00052 0.986909
1.00501 1.00169 0.985517
1.00528 0.994844 0.99061
1.00529 0.996603 0.988617
1.00532 0.995599 0.989427
1.00504 1.00053 0.985629
1.00512 0.999163 0.986542
1.00032 1.0035 0.990886
1.00061 1.00443 0.989486
0.999812 1.00409 0.990836
0.999829 1.00472 0.989888
0.999899 1.00437 0.990694
0.999832 1.00477 0.990255
0.999982 1.00322 0.991685
0.999652 1.00492 0.99038
0.99986 1.00391 0.991285
0.999979 1.00207 0.992863
0.999988 1.00204 0.992847
1.00006 0.999146 0.996223
0.999966 1.0024 0.99243
1.00016 0.999214 0.996043
1.00022 0.997154 0.997603
1.00024 0.999407 0.995762
1.00023 0.997368 0.997373
1.00004 0.997766 0.99879
0.999812 1.00015 0.994904
0.999811 1.00136 0.993752
0.999754 0.998571 0.998749
1.00028 1.00215 0.99238
1.00003 0.999418 0.998196
1.00037 1.00021 0.997584
1.00526 0.995166 0.990839
1.0053 0.99492 0.99133
1.00529 0.994887 0.991003
1.00525 0.994954 0.991255
1.00527 0.994967 0.991424
1.0053 0.99584 0.990566
1.00528 0.994967 0.991428
1.00525 0.994949 0.991388
1.00526 0.994962 0.991161
1.00527 0.99494 0.991217
1.0053 0.99485 0.990923
1.00533 0.994931 0.990808
1.00526 0.994949 0.991371
1.00527 0.994932 0.991316
1.00529 0.994941 0.991086
1.00535 0.994859 0.990668
1.0053 0.994965 0.991396
1.00534 0.995021 0.991051
1.00528 0.994945 0.991223
1.00525 0.994933 0.990979
1.00483 1.00387 0.98275
1.00526 1.00248 0.983249
1.00525 0.999601 0.985885
1.00528 0.994925 0.990791
1.00531 0.99491 0.99069
1.00529 0.994914 0.990533
1.00525 0.996698 0.988817
1.00525 0.995257 0.990462
1.00479 1.0042 0.982556
1.00439 1.00473 0.982618
1.0043 1.00151 0.986752
1.00078 1.00448 0.988744
1.00202 1.00469 0.986295
1.00526 0.994951 0.991305
1.00528 0.994937 0.991127
1.00532 0.994902 0.990714
1.00519 1.00371 0.982463
1.00516 1.00175 0.983776
1.0052 0.998911 0.986534
1.0053 0.994903 0.990667
1.00525 0.996182 0.989289
1.00528 0.994909 0.990492
1.00002 1.00376 0.99065
1.00459 1.00472 0.982352
1.00413 1.00517 0.982631
1.00462 1.00307 0.984415
1.00371 1.00373 0.985548
1.00143 1.00511 0.987337
1.00528 0.994935 0.991242
1.00531 0.99491 0.990931
1.00532 0.994892 0.990593
1.00528 0.994885 0.990539
1.00486 1.00387 0.982861
1.00523 0.995151 0.990397
1.00502 1.00101 0.984743
1.00518 0.998432 0.986878
0.999924 1.00212 0.992409
1.00054 1.00508 0.989254
1.00243 1.005 0.986899
1.00364 1.0043 0.984386
1.0043 1.00458 0.983966
1.0048 1.0046 0.982453
1.00047 1.00407 0.990066
1.00046 1.00509 0.988287
1.00528 0.994994 0.990626
1.00319 1.0007 0.988578
1.00511 1.00199 0.984386
1.00401 1.00073 0.986346
1.00529 0.99633 0.989153
1.00526 0.995303 0.990012
1.00509 1.00152 0.984808
1.00519 0.998832 0.986776
1.00074 1.00475 0.989112
1.00145 1.00406 0.988236
1.00474 1.0024 0.984467
1.00436 1.00088 0.986979
1.00491 1.00198 0.985175
1.00529 0.99485 0.990615
1.00529 0.99648 0.988878
1.00532 0.995683 0.989519
1.00507 1.00044 0.985584
1.00509 0.999454 0.986288
0.999603 1.00467 0.989506
1.00111 1.00324 0.988256
1.00482 1.00143 0.985385
1.00513 1.00102 0.98536
1.00537 0.994811 0.99044
1.00531 0.995077 0.990253
1.00525 0.99803 0.987133
1.00511 0.999946 0.985629
1.00088 1.00441 0.989369
0.999976 1.00419 0.990643
0.998877 1.00383 0.993325
0.999679 1.00461 0.990689
0.99912 1.00502 0.990434
0.999878 1.0039 0.991259
0.999615 1.00343 0.992102
0.999713 1.005 0.990336
0.99976 1.00075 0.994569
0.999674 1.00457 0.990943
0.999581 1.0047 0.990472
1.00005 1.00373 0.991171
0.999947 1.00227 0.992658
0.999942 1.00208 0.992849
0.99995 0.999164 0.996342
0.999965 1.00203 0.99285
1.00008 0.999117 0.99624
1.00013 0.997171 0.997706
1.00016 0.999162 0.996087
1.00021 0.997172 0.997592
1.00019 0.997445 0.99735
0.999973 0.999311 0.995528
0.999816 1.0003 0.994833
0.999741 0.998 0.998935
0.999842 1.00145 0.993706
0.99982 0.998689 0.998642
1.00019 0.999461 0.997991
1.0053 0.994846 0.990944
1.00526 0.994966 0.991167
1.00533 0.994932 0.990744
1.00527 0.994937 0.991194
1.00525 0.994949 0.991391
1.00528 0.994969 0.991439
1.00526 0.994948 0.991379
1.00527 0.994931 0.991306
1.00529 0.994941 0.991044
1.00534 0.994855 0.990676
1.00527 0.994928 0.991331
1.00527 0.99492 0.991228
1.00534 0.994903 0.990812
1.00526 0.994951 0.991292
1.00528 0.994938 0.991135
1.00532 0.994909 0.990734
1.00525 1.00362 0.982517
1.00517 1.00193 0.983666
1.00522 0.998759 0.986536
1.0053 0.994901 0.990674
1.0053 0.994898 0.990478
1.00526 0.996014 0.989503
1.00435 1.00487 0.982407
1.0045 1.00501 0.98253
1.00445 1.00371 0.98443
1.0001 1.00359 0.990921
1.00409 1.00337 0.985455
1.00108 1.00511 0.987365
1.00528 0.994934 0.991262
1.00531 0.994909 0.990899
1.00532 0.994889 0.990593
1.00498 1.00367 0.98286
1.005 1.00095 0.984694
1.00517 0.998289 0.98721
1.00528 0.994889 0.99051
1.00512 0.995133 0.990346
0.999928 1.00216 0.99263
1.0004 1.00507 0.98923
1.0041 1.00383 0.983823
1.00458 1.0045 0.982919
1.00397 1.00395 0.984498
1.00223 1.00504 0.986701
1.0053 0.994914 0.991189
1.00535 0.994839 0.990635
1.00532 0.994894 0.99051
1.00522 0.994891 0.990331
1.00413 1.00264 0.984501
1.00518 0.99596 0.98939
1.00498 1.00062 0.985385
1.00012 1.0012 0.993532
1.00022 1.00248 0.99226
0.999531 1.00396 0.991449
1.00116 1.00506 0.988224
1.00175 1.00505 0.986177
1.00435 1.00462 0.983104
1.00274 1.00455 0.98587
1.0035 1.00448 0.985262
1.00042 1.00474 0.989127
1.002 1.00403 0.988033
1.00531 0.994858 0.990619
1.00467 0.999839 0.987052
1.00467 1.00247 0.984441
1.00491 1.00225 0.984842
1.00529 0.996341 0.98914
1.00531 0.995751 0.989613
1.00509 1.0003 0.985539
1.00503 0.999711 0.986035
1.00039 1.00442 0.989298
1.002 1.0033 0.987982
1.00485 1.00142 0.985194
1.00521 1.0011 0.985483
1.00537 0.994799 0.990428
1.00534 0.995084 0.990196
1.0052 0.997944 0.987264
1.00511 1.0001 0.985694
0.999255 1.00462 0.990659
1.00542 0.994878 0.990439
1.00347 1.00259 0.987475
1.00504 1.00096 0.985229
1.00531 0.994715 0.990814
1.00515 0.997132 0.98721
1.00506 1.0008 0.985462
1.00003 1.00439 0.990452
0.998804 1.00351 0.993294
0.997659 1.0024 0.996273
0.999862 1.00378 0.991233
0.999682 1.00507 0.990291
0.998294 1.00438 0.992519
1.00007 1.0036 0.991155
0.999628 1.00478 0.990507
0.998573 1.00186 0.994985
0.999807 1.00447 0.990829
0.999232 0.999668 0.997357
0.998658 1.00316 0.993581
0.999564 1.00505 0.990449
1.00034 1.00463 0.989668
1.00022 1.00378 0.99073
0.999948 1.00243 0.992518
0.999892 1.00239 0.992636
0.999824 0.999328 0.99643
0.999892 1.00219 0.992835
0.999965 0.9992 0.996344
1.00001 0.997322 0.997796
1.00009 0.999089 0.99626
1.00014 0.997196 0.997702
1.0002 0.997203 0.997575
1.0001 1.0011 0.993695
1.00002 0.998881 0.995885
0.999948 0.999422 0.995479
0.999818 0.997664 0.999027
0.999818 1.00035 0.994763
0.999779 0.998156 0.998895
0.999927 0.998814 0.998509
1.00533 0.994853 0.990685
1.00529 0.99494 0.991003
1.00527 0.994931 0.991296
1.00526 0.994948 0.991387
1.00528 0.994926 0.991335
1.00528 0.99492 0.991234
1.00533 0.994896 0.990766
1.00528 0.994911 0.991275
1.00536 0.994889 0.99108
1.00556 0.995077 0.990986
1.00528 0.994934 0.991283
1.00531 0.994904 0.990867
1.00533 0.99489 0.990593
1.00481 1.00349 0.982862
1.00501 1.00116 0.984668
1.00505 0.99818 0.98753
1.00528 0.994898 0.990479
1.00518 0.995153 0.990297
1.00359 1.00458 0.983681
1.0041 1.00479 0.983338
1.00391 1.00333 0.984605
0.999959 1.00205 0.99285
1.00025 1.00506 0.989202
1.00207 1.00506 0.986501
1.0053 0.994908 0.991168
1.00012 1.00115 0.993523
1.00014 1.00247 0.992112
1.00534 0.99486 0.990646
1.00531 0.994901 0.990524
1.00445 1.00284 0.984451
1.00488 1.00031 0.985724
1.00514 0.996097 0.989311
1.00523 0.994887 0.990283
0.999663 1.00387 0.991598
1.00109 1.00507 0.988159
1.00283 1.00446 0.985734
1.00375 1.00423 0.984237
1.00434 1.00452 0.983124
1.00195 1.00499 0.986206
1.00539 0.99486 0.990922
1.00536 0.994855 0.990483
1.00527 0.994899 0.990434
1.0052 0.994987 0.990256
1.00332 1.00209 0.986605
1.00485 0.998948 0.987782
1.00012 1.00276 0.991729
0.99986 1.00248 0.992592
1.00182 1.0007 0.99189
1.00075 1.004 0.989457
1.00144 1.00509 0.987622
1.00294 1.00452 0.985886
1.00231 1.00498 0.984166
1.0014 1.00111 0.991323
1.00084 1.00421 0.989094
1.00296 1.00355 0.987703
1.00538 0.994791 0.990416
1.00537 0.995102 0.990139
1.00522 1.00152 0.985601
1.00489 1.00147 0.984998
1.00516 0.997869 0.987395
1.00512 1.00028 0.985763
0.999916 1.0042 0.990532
1.00543 0.994878 0.990664
1.00268 1.00289 0.987948
1.00502 1.00099 0.985224
1.00533 0.994728 0.990833
1.00517 0.997278 0.987426
1.00492 1.0007 0.985401
0.99912 1.00505 0.992105
1.00496 0.994827 0.990638
1.00236 1.00254 0.988014
1.00449 1.00226 0.984383
1.00509 0.995577 0.990158
1.0037 1.00099 0.986378
0.998903 0.994738 0.985225
0.998696 1.00351 0.993264
0.997599 1.0025 0.996302
0.997598 1.00178 0.997401
1 1.00364 0.991138
0.999542 1.0049 0.990544
1.00031 1.00425 0.990717
0.99798 1.00209 0.995418
1.00015 1.00388 0.99073
1.00022 1.00459 0.989828
0.999014 0.999308 0.997462
0.999572 1.00499 0.990438
0.999134 1.00321 0.993111
0.99773 1.00189 0.997251
1.00029 1.00397 0.990563
0.999996 1.0049 0.990242
1.00076 1.00439 0.989466
1.0002 1.00412 0.990207
1.00042 1.00501 0.989719
1.00006 1.00432 0.990134
0.999907 1.00244 0.992519
0.999914 1.00247 0.992503
0.999703 0.999366 0.995907
0.999884 1.00237 0.992614
0.999807 0.999358 0.99611
0.999983 0.997417 0.999088
0.999974 0.999242 0.996349
1.00003 0.997292 0.997791
1.00016 0.997213 0.997692
1.00001 1.00087 0.993972
1.00013 1.00098 0.99373
1.00008 0.998569 0.996174
1.00002 0.998899 0.996181
0.999863 0.997383 0.999107
0.999914 0.999587 0.99543
0.999816 0.997724 0.999008
0.999818 0.998207 0.998847
1.00531 0.994891 0.99072
1.00528 0.994921 0.991239
1.00528 0.994923 0.99134
1.00528 0.99491 0.991277
1.00535 0.994891 0.991042
1.00558 0.995092 0.990813
1.00544 0.994878 0.991074
1.00116 0.994845 0.980864
1.00499 0.99523 0.991338
1.00017 1.00205 0.992558
1.0053 0.994904 0.991147
1.00534 0.994875 0.990657
1.0053 0.994899 0.990537
1.00459 1.00247 0.984379
1.00499 0.99986 0.986043
1.00495 0.995983 0.989221
1.00524 0.994881 0.990239
1.0033 1.00358 0.985656
1.0047 1.00408 0.983295
1.00459 1.00425 0.98314
1.00011 1.00117 0.993516
1.00247 1.00502 0.98623
0.999742 1.00387 0.991731
1.00097 1.00507 0.988094
1.00005 1.00247 0.991968
1.00539 0.994863 0.990919
1.0001 1.00267 0.991933
0.999864 1.00256 0.992634
1.00108 1.00112 0.992357
1.00536 0.994845 0.990462
1.00526 0.99488 0.990397
1.00278 1.0029 0.986714
1.00485 0.998032 0.988173
1.00519 0.994969 0.990223
1.00063 1.00392 0.989678
1.00161 1.00507 0.987529
1.00207 1.00178 0.990201
1.00349 1.00492 0.983922
1.00321 1.0037 0.986089
1.00542 0.994707 0.990983
1.00528 0.994851 0.990608
1.00521 0.994907 0.990008
1.00512 0.996467 0.990556
1.00184 1.00001 0.990592
0.999539 1.00342 0.991813
1.00197 1.00085 0.991139
1.0002 1.00058 0.992749
1.00121 1.00425 0.989557
1.00088 1.00477 0.98893
1.00098 1.00395 0.987986
1.00134 0.999637 0.992858
1.00102 1.00362 0.990377
1.00171 1.00316 0.988431
1.00542 0.994989 0.990881
1.00534 0.994747 0.990843
1.00518 0.997386 0.987643
1.00502 1.00098 0.985218
1.00479 1.00057 0.985348
0.999344 1.00471 0.992454
1.00464 0.994842 0.990848
1.00253 1.0025 0.988
1.00466 1.0022 0.984336
1.00498 0.995475 0.990467
1.00395 1.00092 0.986457
0.998686 0.995256 0.983339
0.997928 1.00452 0.993664
1.00337 0.994779 0.991077
1.00296 1.00296 0.985872
1.00304 1.00121 0.987013
1.00355 0.99751 0.990661
0.999962 0.99489 0.940972
0.994995 0.994787 0.962779
0.995899 0.998638 0.987577
0.99823 0.994778 0.852612
0.994705 0.994873 0.812901
0.997777 1.00237 0.996329
0.997408 1.00197 0.997534
0.997062 1.0032 0.997187
1.00014 1.00391 0.990731
1.00016 1.00451 0.989986
0.999682 1.00502 0.990429
0.999476 1.00344 0.992615
0.998825 0.999035 0.997556
0.999834 1.00496 0.990345
1.00026 1.00408 0.990282
1.00066 1.00446 0.989439
0.998162 1.00096 0.996809
0.999808 1.0043 0.990975
1.00043 1.00409 0.991225
0.998281 1.00415 0.993378
0.999729 1.00474 0.990808
1.0006 1.00466 0.988923
1.00015 1.00419 0.99027
1.00015 1.00493 0.989573
1.00044 1.00372 0.990963
0.999735 1.0049 0.990642
1.00019 1.00495 0.989761
1.0002 1.00429 0.990293
1.00011 1.0043 0.990147
0.999899 1.00253 0.992502
0.99992 1.00247 0.992526
0.999681 0.999392 0.995954
0.999865 1.00258 0.992489
0.999686 0.999409 0.995907
0.999936 0.997407 0.999122
0.99978 0.999408 0.995794
0.999944 0.997417 0.998472
1.00006 0.997268 0.997783
0.999893 1.00062 0.99437
0.999989 1.00093 0.993977
1.00009 0.998339 0.996403
1.00017 1.00084 0.993764
1.00007 0.998517 0.996473
0.999917 0.99705 0.999177
1.00004 0.998976 0.995815
0.999867 0.997518 0.999072
0.999827 0.997837 0.99899
1.00533 0.994893 0.991004
1.00528 0.994908 0.991279
1.00556 0.99491 0.990643
1.00039 0.994867 0.981038
1.00545 0.994881 0.991048
1.00494 0.994967 0.991281
1.00547 0.994994 0.991112
0.995921 0.994898 0.963151
1.00215 0.994856 0.982168
1.00023 1.00166 0.992915
1.00014 1.0022 0.99252
0.999407 1.00395 0.991718
0.999876 1.00258 0.992388
1.00538 0.994865 0.990917
1.00535 0.994857 0.990441
1.00525 0.994875 0.990361
1.00375 1.00323 0.986823
1.00473 0.99657 0.988602
1.00518 0.994953 0.990203
1.00188 1.00189 0.989023
1.00479 1.00473 0.98367
1.00319 1.00279 0.986285
0.999837 1.00259 0.992679
1.00145 1.00499 0.987459
1.00056 1.00403 0.989901
1.00002 1.00275 0.992134
1.00034 1.00156 0.992813
1.0054 0.994755 0.99098
0.99988 1.00351 0.9915
1.00178 1.00056 0.991584
0.998032 1.00117 0.995849
1.0053 0.994871 0.990542
1.00521 0.994946 0.99002
1.00297 0.999393 0.990626
1.00479 0.995823 0.990619
1.00139 1.00447 0.988774
1.00095 1.00442 0.988118
1.00126 1.00052 0.992825
1.00265 1.00374 0.987377
1.00421 0.995524 0.991195
1.00519 0.995152 0.990719
1.00509 0.995767 0.989736
1.00355 0.995834 0.993591
0.997345 1.00482 0.994068
1.00178 1.00173 0.990101
0.997933 1.00452 0.993686
0.999191 1.00391 0.992332
1.00001 0.994905 0.926641
0.999284 1.00452 0.992822
1.00239 1.0028 0.98797
1.00424 0.994788 0.991091
1.00489 0.99539 0.990771
1.00417 1.00085 0.986511
1.00464 1.00222 0.984277
0.998608 0.996022 0.981281
0.99842 1.00427 0.993676
1.00316 0.995386 0.990953
1.00296 1.00353 0.985826
1.00366 1.00098 0.987149
1.00381 0.997726 0.990447
0.9999 0.994871 0.927163
0.995449 0.994821 0.959426
0.995943 0.998361 0.987911
0.997559 0.99476 0.857251
0.994723 0.994923 0.8054
0.998811 1.00436 0.992114
0.999574 0.994805 0.863011
0.994736 0.994825 0.803827
1.00075 0.99847 0.992613
1.0015 1.00199 0.989588
1.00157 0.999739 0.992593
0.99489 0.997293 0.991027
0.997429 0.994786 0.940375
0.994889 0.994786 0.955479
0.995795 0.994799 0.877726
0.994736 0.994834 0.792533
0.997073 1.00218 0.997675
0.996974 1.00283 0.997078
0.996874 1.00482 0.996227
1.00035 1.004 0.990352
1.00062 1.00449 0.989414
0.999322 1.00503 0.990449
0.999485 1.00449 0.991387
0.998681 1.00013 0.996381
1.00024 1.00408 0.99026
1.00012 1.00425 0.990989
0.999633 1.00488 0.990529
1.00079 1.00468 0.989072
0.998233 1.00383 0.993666
0.999154 1.00388 0.99309
0.996883 1.00503 0.994573
0.999848 1.00502 0.989829
1.00049 1.00472 0.989485
1.00035 1.00494 0.989541
1.00019 1.0032 0.991375
0.999972 1.00491 0.990419
1.00039 1.00239 0.99208
0.999105 1.00171 0.993563
0.998513 1.00471 0.992136
0.99931 1.00477 0.990968
0.9998 1.00473 0.990672
1.00014 1.00439 0.990198
1.00003 1.00488 0.989804
1.00026 1.00425 0.990217
0.999973 1.00262 0.99229
1.00018 1.00427 0.990158
0.999918 1.00246 0.992515
0.999891 0.999346 0.996389
0.999862 1.00252 0.992532
0.99974 0.999349 0.996213
0.999894 0.997366 0.997966
0.999675 0.999408 0.995904
0.999928 0.997425 0.999131
0.999929 0.997456 0.997853
1.00032 1.00171 0.9927
0.999918 1.00043 0.994547
0.999893 1.00067 0.994362
1.00005 0.998242 0.99654
0.999966 1.001 0.993982
1.00009 0.998312 0.996397
0.999965 0.996907 0.999215
1.00007 0.998524 0.996721
0.999915 0.997227 0.998574
0.999883 0.997561 0.997835
0.999878 0.994838 0.981178
1.00549 0.994866 0.991017
1.00489 0.994881 0.991215
0.996208 0.994837 0.963642
1.0022 0.994897 0.982563
1.00543 0.995359 0.991106
1.00351 0.99583 0.98613
0.997633 0.994829 0.965798
0.999901 0.994858 0.940091
0.997019 0.994794 0.878867
0.994667 0.99483 0.811255
0.99962 1.00268 0.99251
1.00023 1.00164 0.9929
1.00024 1.00211 0.992478
0.999731 1.00334 0.991981
0.998686 1.00464 0.992766
1.00051 1.00241 0.991686
1.00021 1.00332 0.991479
1.00017 1.00234 0.992276
1.00543 0.994791 0.990968
1.00531 0.994873 0.990483
1.0052 0.995135 0.990029
1.00289 1.00016 0.990664
1.00457 0.995896 0.990666
1.00122 1.00031 0.992782
1.00408 1.00351 0.986782
1.00215 1.00471 0.987313
1.00152 1.00028 0.992018
1.00163 1.00461 0.98794
1.00036 1.00338 0.991203
0.996422 1.00198 0.998821
1.00425 0.994979 0.991492
0.997766 1.0045 0.993945
1.00131 1.00187 0.991418
1.00493 0.994977 0.990692
1.0047 0.996095 0.990058
1.00299 0.995789 0.993348
0.999508 1.00487 0.991658
1.00013 1.00261 0.992564
1.00332 0.995218 0.990407
1.00351 0.998672 0.990579
1.00431 0.996059 0.991594
1.00087 0.997354 0.995063
0.998944 1.00495 0.991647
0.998311 1.0049 0.992683
0.998934 1.005 0.992507
0.999801 0.994926 0.864822
1.00013 0.994871 0.941672
0.999417 1.00371 0.993699
1.00316 1.00397 0.985796
1.00293 0.99577 0.99082
1.00411 0.997934 0.990248
1.0041 1.00092 0.987318
0.999992 0.994856 0.939088
0.995786 0.994795 0.958988
0.995984 0.998429 0.988312
0.997103 0.994806 0.876382
0.994744 0.994855 0.797443
0.999135 1.00436 0.992088
0.99982 0.994851 0.86136
0.994706 0.994808 0.797144
1.00078 0.998632 0.992508
1.0015 1.0023 0.989616
1.0014 0.999866 0.993031
0.994888 0.998486 0.991846
0.997787 0.994794 0.933627
0.994955 0.994802 0.956031
0.995143 0.994809 0.877455
0.994752 0.994837 0.790646
0.997924 1.00457 0.994762
0.99473 0.994786 0.792542
0.994743 0.994774 0.797891
0.996897 1.00149 0.997084
0.999755 1.00193 0.995499
0.994905 0.999246 0.988519
0.995013 0.994833 0.958602
0.994986 0.99476 0.929131
0.994749 0.994886 0.881347
0.99484 0.994864 0.800336
0.997119 1.00225 0.996975
0.997497 1.00437 0.995833
0.996352 1.00383 0.996789
1.00031 1.00398 0.990249
1.00085 1.00464 0.989222
0.99975 1.00504 0.990247
0.999688 1.00446 0.990756
0.997879 1.00356 0.993955
1.00049 1.00476 0.989463
0.999222 1.00364 0.992602
1.00015 1.00498 0.989849
0.996463 1.00493 0.99487
0.996006 1.00511 0.996973
0.998338 1.00477 0.992984
1.00047 1.00501 0.989839
1.00057 1.00465 0.98951
1.00001 1.00277 0.991776
0.99986 1.00478 0.990372
1.00055 1.00212 0.991976
0.998764 1.00233 0.994002
0.998799 1.00383 0.992425
0.998124 1.00508 0.992574
0.998664 1.00137 0.995625
1.0003 1.00243 0.992263
1.00325 0.99946 0.990622
0.998823 1.00476 0.991456
0.998795 1.00468 0.992159
0.999344 1.00497 0.990131
0.999421 1.00485 0.991001
1.0002 1.00439 0.990073
0.999597 1.00487 0.9907
1.00015 1.00439 0.990264
1.00003 1.00281 0.991905
1.00031 1.00428 0.99014
0.999976 1.00261 0.992298
1.00003 0.999369 0.996128
0.999936 1.00243 0.992529
0.999873 0.999331 0.996026
1.00001 0.997269 0.997808
0.999732 0.99934 0.995924
0.999951 0.997345 0.999143
0.999923 0.997413 0.999141
1.00039 1.00215 0.992477
0.999961 1.0006 0.99435
1.00021 1.00186 0.992714
1.00005 0.998176 0.996602
0.999899 1.00046 0.99454
0.99987 1.00074 0.994354
1.00005 0.998245 0.996527
0.999993 0.996813 0.999236
1.00007 0.998337 0.996913
0.999973 0.996919 0.998662
0.999932 0.997216 0.998043
0.999621 0.994842 0.848639
0.994717 0.994799 0.791715
0.996286 0.994851 0.96412
1.00175 0.994941 0.983085
1.00534 0.994781 0.991118
0.997426 0.994874 0.964807
1.00346 0.99483 0.986678
1.00009 0.994861 0.935865
0.997348 0.994744 0.85807
0.994714 0.994839 0.804114
0.997697 0.994764 0.972215
0.997364 0.994819 0.941279
0.996203 0.994809 0.877414
0.99479 0.994852 0.80104
0.999907 1.0036 0.991832
0.999817 1.00242 0.992615
1.00015 1.00179 0.99289
0.999876 1.00297 0.992245
0.998408 1.00429 0.993369
1.00034 1.00387 0.990436
1.00009 1.00319 0.99167
1.0007 1.00365 0.989998
1.00018 1.00332 0.991352
0.999892 1.00283 0.992159
1.00405 0.994757 0.991773
1.00479 0.994921 0.990659
1.00407 0.996239 0.990383
1.0024 0.996049 0.993102
1.00056 1.00244 0.992777
0.999524 1.00498 0.98968
1.00044 1.00179 0.992882
0.998063 1.00417 0.993787
1.00232 0.995157 0.99093
0.999026 1.00506 0.991391
0.998017 1.00501 0.99275
1.00324 0.998227 0.990593
1.00398 0.995873 0.991727
1.00077 0.997686 0.995333
0.99891 1.00497 0.992122
0.999912 0.995535 0.989219
1.00092 0.999077 0.994513
0.997348 1.00257 0.996267
0.998521 1.00477 0.990888
0.997873 1.00507 0.992128
0.99844 1.00496 0.992781
0.994715 0.994816 0.815434
0.999796 0.994873 0.870652
1.00005 0.99487 0.927014
0.999121 1.00452 0.99204
1.00178 1.00246 0.989605
1.00078 0.998268 0.992394
1.0011 0.999805 0.993473
0.999825 0.994898 0.875385
0.997455 0.994811 0.927502
0.994875 0.994823 0.955509
0.994894 0.999395 0.99253
0.99579 0.994804 0.861701
0.994682 0.994798 0.803411
0.994803 0.994928 0.806207
0.997873 1.00397 0.994456
0.994715 0.994797 0.802479
0.994764 0.994779 0.79724
0.997046 0.999937 0.99772
0.999193 1.00161 0.995388
0.994898 0.997914 0.990519
0.995207 0.994803 0.957309
0.995703 0.994803 0.940726
0.9947 0.996571 0.862494
0.995115 0.994863 0.810454
0.996755 1.00352 0.997994
0.994767 0.994818 0.806006
0.994811 0.99481 0.795516
0.994824 1.00256 0.999887
0.995054 0.996728 0.966691
0.994801 0.995242 0.93859
0.994894 0.994907 0.856195
0.995744 0.994898 0.822803
0.998064 1.00327 0.995404
0.996758 1.0041 0.9969
0.995532 1.00402 0.998445
1.00034 1.00482 0.989437
1.00031 1.00503 0.989871
0.999312 1.00333 0.992114
0.996295 1.00474 0.995172
0.999962 1.00501 0.989859
0.998195 1.00488 0.992955
0.995607 1.00493 0.997234
0.994938 1.00453 0.998506
0.995773 1.00507 0.997125
0.998944 1.00511 0.992315
0.999891 1.00496 0.990319
1.00066 1.00157 0.991875
0.998291 1.00285 0.99443
0.998156 1.00507 0.992674
0.999263 1.00366 0.992358
0.998118 1.00202 0.995672
0.998315 1.00361 0.993745
0.995721 1.00512 0.997284
1.00152 0.998804 0.994511
0.999832 1.00184 0.993254
1.00194 1.00043 0.991028
1.00477 1.00009 0.987549
1.00239 1.00139 0.990392
1.00224 0.999015 0.992118
0.99939 1.00455 0.991263
0.999572 1.00509 0.989585
0.999137 1.0046 0.992183
0.999857 1.00504 0.990132
1.00037 1.00452 0.989529
0.999898 1.0047 0.99103
1.00044 1.00422 0.990056
1.00012 1.00315 0.991515
1.00032 1.0042 0.990331
1.00013 1.0028 0.991908
1.00017 0.999464 0.99583
1.00007 1.00248 0.992306
1.00002 0.999385 0.995726
1.0001 0.997362 0.997608
0.999879 0.999297 0.995727
1.00001 0.997279 0.998476
0.999965 0.997307 0.999125
1.00032 1.00288 0.991436
1.00011 1.00077 0.994001
1.00028 1.00219 0.992283
1.00005 0.998225 0.996541
0.999979 1.00054 0.994362
1.00021 1.00179 0.992727
1.00002 0.996756 0.999249
1.00004 0.998181 0.996602
0.9999 1.0005 0.994536
1.00006 0.998236 0.996515
0.999993 0.99685 0.999231
0.99996 0.99692 0.999208
0.994703 0.994764 0.7936
0.999686 0.99484 0.861616
0.994761 0.994773 0.795366
0.994732 0.994794 0.791749
0.997633 0.994881 0.963289
1.00332 0.994778 0.987224
0.999718 0.994829 0.930888
0.998643 0.994794 0.878593
0.994759 0.994837 0.796845
0.998336 0.994805 0.971159
0.997672 0.994798 0.926927
0.995276 0.99481 0.876369
0.994729 0.994849 0.793459
0.994904 0.994786 0.963429
0.995988 0.994733 0.927662
0.994835 0.997134 0.854871
0.994832 0.994874 0.80145
1.00065 1.00472 0.990319
0.999436 1.00363 0.99197
1.00002 1.00216 0.992716
0.997927 1.00386 0.993981
1.00104 1.0037 0.989374
1.00023 1.00379 0.99066
0.999576 1.0036 0.991659
1.00122 1.00298 0.990159
1.00075 1.00386 0.99005
1.00029 1.00302 0.991226
1.00197 0.994773 0.991423
1.00297 0.997729 0.990619
1.00385 0.995752 0.991861
1.00037 0.997309 0.995608
1.00025 1.00495 0.991712
0.99831 1.00505 0.992825
0.999089 1.0051 0.991132
0.999724 1.00473 0.990628
0.999612 0.996338 0.989834
0.99881 1.0051 0.991851
0.999115 1.00494 0.992609
1.00062 0.998978 0.994911
0.998626 1.00126 0.996081
0.996208 1.00078 0.98871
0.996646 0.999817 1.00052
0.995339 1.00515 0.996677
0.99842 1.00466 0.992786
0.997101 1.0051 0.994428
0.994794 0.994806 0.812515
0.994712 0.994797 0.810977
0.999818 0.994905 0.852103
0.997966 1.00401 0.994215
0.999048 1.00098 0.995279
0.997276 0.999495 0.998353
0.994688 0.994781 0.800414
0.995879 0.994755 0.928896
0.995332 0.994815 0.956716
0.994873 0.996124 0.992901
0.99476 0.995946 0.8821
0.994772 0.994782 0.797455
0.995466 0.994863 0.812076
0.997007 1.00347 0.998045
0.994779 0.994821 0.808626
0.994799 0.994811 0.796619
0.995077 1.00189 0.998923
0.995139 0.995899 0.968483
0.994803 0.995532 0.926541
0.995392 0.994883 0.818138
0.995211 0.998407 0.864876
0.994854 1.00481 1.00023
0.994791 0.994832 0.797053
0.994868 0.994829 0.807413
0.99483 0.994863 0.801513
0.994763 0.998953 0.989282
0.994892 0.997174 0.941769
0.997691 0.995534 0.875577
0.997165 1.00473 0.997035
0.995699 1.0047 0.998173
0.995008 1.00524 0.999079
0.999862 1.005 0.989882
0.998132 1.00504 0.992923
0.995339 1.00507 0.997488
0.99845 1.0051 0.992311
0.995878 1.0051 0.997119
0.994974 1.00501 0.998409
0.994938 1.00505 0.998662
0.995557 1.00511 0.99727
0.997938 1.00505 0.992799
0.999652 1.00368 0.992288
0.997797 1.0028 0.995722
0.995814 1.00484 0.997181
0.998137 1.0039 0.99381
0.998395 1.00146 0.996492
0.998687 0.998752 0.998312
1.00215 0.999901 0.99013
0.999408 1.00132 0.994179
1.00233 1.00032 0.990693
1.00447 1.00155 0.986104
1.00479 1.00259 0.984458
1.00421 0.999105 0.989308
1.00386 1.00013 0.987748
1.00134 1.00421 0.988742
1.00157 1.00174 0.990731
1.00123 0.998595 0.993583
0.999964 1.00438 0.99107
0.999939 1.00509 0.989564
1.00035 1.00508 0.988805
1.00037 1.00504 0.990137
1.00053 1.00457 0.989522
1.00021 1.00349 0.990955
1.0006 1.00404 0.990037
1.00018 1.00302 0.991512
1.0002 0.999671 0.995579
1.00009 1.00286 0.99191
1.00014 0.99952 0.995405
1.00021 0.997435 0.997399
1.00003 0.999398 0.995396
1.0001 0.997328 0.998338
1.00005 0.997272 0.999056
1.00069 1.00298 0.990589
1.00014 1.00119 0.99317
1.00047 1.00274 0.991436
1.00012 0.998305 0.99635
1.00009 1.00078 0.993829
1.00021 1.00225 0.992091
1.00005 0.996769 0.999231
1.00006 0.998194 0.996554
0.999996 1.00046 0.994372
1.00002 0.996786 0.999246
1.00003 0.998201 0.996602
0.999994 0.996837 0.999226
0.994817 0.994815 0.802586
0.99471 0.994808 0.80762
0.999601 0.994804 0.860329
1.00113 1.00284 0.990269
0.994806 0.9948 0.801682
0.994762 0.994775 0.795317
0.994766 0.994807 0.805833
0.998775 0.994819 0.970511
0.997144 0.994782 0.940895
0.995989 0.994809 0.859187
0.994699 0.994842 0.803693
0.995959 0.994808 0.961158
0.995791 0.99522 0.939562
0.994745 0.995448 0.858373
0.994852 0.99487 0.804616
0.99483 0.99478 0.955501
0.994774 0.994796 0.936482
0.995873 0.999197 0.868483
0.995291 0.994893 0.823031
0.999354 1.00459 0.991169
0.999966 1.0046 0.990362
0.999646 1.00345 0.992109
1.00108 1.00242 0.990647
1.00089 1.00403 0.989569
1.00015 1.00412 0.990883
1.00128 1.0031 0.990089
1.00077 1.00391 0.990097
0.998536 0.997354 0.990301
0.999928 0.99885 0.995227
0.999966 1.00466 0.99036
1.00002 0.999923 0.995908
0.99934 1.00486 0.992444
0.999392 1.00511 0.991577
0.998463 1.00434 0.992699
0.995796 1.00004 0.989154
0.997723 1.00501 0.994428
0.996527 1.00379 0.996971
0.995975 1.00038 1.00056
0.997897 1.00407 0.994413
0.994775 1.00079 0.986903
0.99524 1.00271 0.998904
0.995683 1.00506 0.997431
0.99703 1.00517 0.995685
0.99477 0.994811 0.802052
0.994795 0.994808 0.809563
0.994704 0.994776 0.806365
0.997036 1.00365 0.998072
0.995324 1.0008 0.997932
0.994794 0.994826 0.811046
0.994752 0.995226 0.939922
0.995379 0.995958 0.96557
0.995356 0.997079 0.863155
0.994795 0.994814 0.797481
0.994894 0.994864 0.813452
0.995157 1.00488 1.00001
0.994791 0.994828 0.79726
0.994868 0.994847 0.8074
0.99481 0.99954 0.993036
0.994853 0.994861 0.80468
0.994854 0.99661 0.933935
0.996349 0.997434 0.877429
0.99491 1.00348 0.997929
0.99484 0.99484 0.806098
0.994802 0.994806 0.803272
0.994787 0.994849 0.800804
0.996093 0.999144 0.867823
0.994878 1.00113 0.972769
0.995351 0.997529 0.926864
0.996087 1.00504 0.997917
0.995178 1.00519 0.999079
0.994849 1.0053 0.998272
0.99784 1.00511 0.992305
0.995372 1.00509 0.997117
0.994958 1.00508 0.998342
0.99546 1.00493 0.997241
0.994937 1.00501 0.998661
0.997485 1.00224 0.99848
0.995646 1.00469 0.997068
0.99773 1.00417 0.993909
0.997986 1.00167 0.996912
0.998367 1.00069 0.994408
0.996141 0.998721 1.00185
1.0018 0.999669 0.991417
1.0044 1.00452 0.982414
1.00438 1.00294 0.984337
1.00275 1.00019 0.990292
1.0043 1.00187 0.985584
1.00506 1.00241 0.984001
1.00508 1.0007 0.986046
1.00439 1.0024 0.984747
1.00291 1.00145 0.988721
1.00365 0.999742 0.989104
1.00305 1.00017 0.987976
1.00055 1.00512 0.988358
1.00084 1.00432 0.988946
1.00071 1.00207 0.991057
1.00032 1.00507 0.989541
1.00064 1.00506 0.988838
1.00029 1.00437 0.989926
1.00068 1.00475 0.989513
1.00029 1.00349 0.990943
1.00018 0.99992 0.994578
1.00037 1.00291 0.991512
1.00022 0.999703 0.994777
1.00014 0.997456 0.998849
1.00011 0.99964 0.995045
1.00017 0.997407 0.998183
1.00012 0.997305 0.998965
1.00058 1.0032 0.990541
1.00033 1.0017 0.992419
1.00063 1.00305 0.99077
1.0002 0.998503 0.996046
1.00024 1.00117 0.993079
1.00051 1.00272 0.99143
1.00008 0.996782 0.999187
1.00013 0.998272 0.996367
1.0001 1.00077 0.993658
1.00005 0.996755 0.999238
1.00007 0.99816 0.996567
1.00001 0.996821 0.999243
0.994794 0.994826 0.805577
0.994812 0.994812 0.80296
0.994702 0.994821 0.807204
1.00117 1.00282 0.990379
1.00037 1.0041 0.989971
1.00153 1.00151 0.991403
0.994875 0.994847 0.806426
0.99481 0.994799 0.802643
0.994763 0.994767 0.795399
0.996954 0.994796 0.96129
0.994961 0.994756 0.927534
0.994776 0.996726 0.880561
0.994836 0.994854 0.798879
0.994982 0.994808 0.956946
0.9948 0.996528 0.932372
0.995882 0.997444 0.865373
0.995202 0.994887 0.818146
0.994978 0.995381 0.954662
0.994851 0.996911 0.936212
0.996878 0.995228 0.87642
0.994839 0.994867 0.801774
0.999426 1.00239 0.993049
1.00003 1.00395 0.990952
0.99995 1.00431 0.990403
1.00116 1.00244 0.990577
1.00054 1.00441 0.989763
1.00128 1.00325 0.99002
0.995701 0.999719 0.989847
0.995785 1.0011 1.00073
0.999069 1.00356 0.992614
0.998171 1.00258 0.997165
0.998227 1.0046 0.994425
0.997335 1.00376 0.995011
0.99642 1.00485 0.995892
0.994771 1.00226 0.986824
0.995456 1.00516 0.997758
0.995007 1.00338 0.99829
0.996359 1.00478 0.996512
0.995649 0.999504 0.985353
0.99524 1.00526 0.99488
0.9948 1.0038 0.999131
0.99486 0.99484 0.801106
0.994776 0.99482 0.801105
0.994796 0.994807 0.80666
0.995416 1.00458 0.99974
0.994841 0.999714 0.988709
0.994786 0.994824 0.797478
0.99484 0.99734 0.933475
0.996487 0.995543 0.862359
0.994876 0.994846 0.807361
0.994831 0.994851 0.799144
0.994869 1.00331 0.998431
0.994826 0.994838 0.805852
0.994818 0.9948 0.804316
0.994894 1.00044 0.970142
0.994715 0.994846 0.793648
0.99579 0.998363 0.86424
0.994852 0.995811 0.940761
0.994925 1.00519 0.989368
0.994787 0.994832 0.80634
0.994772 0.994788 0.796817
0.994663 0.994846 0.812731
0.994815 0.997037 0.853736
0.99489 0.997315 0.936605
0.994849 1.0013 0.964387
0.995182 1.00517 0.999028
0.994924 1.00526 0.99819
0.995828 1.0045 0.997363
0.995762 1.0046 0.997215
0.994938 1.00501 0.998697
0.996136 1.00378 0.998364
0.998959 0.999789 0.998273
0.997602 1.00194 0.997309
1.00097 1.00037 0.993345
1.00219 1.00487 0.986134
1.00116 0.999502 0.993053
1.00423 1.00431 0.983384
1.00431 1.00404 0.982709
1.00498 1.00108 0.984825
1.00506 1.00171 0.984565
1.00432 1.00303 0.984203
1.00431 1.00219 0.985078
1.00517 1.00181 0.984376
1.00508 1.00224 0.984124
1.00458 1.00051 0.986971
1.00465 1.00076 0.986297
1.00388 1.00224 0.985039
1.00128 1.0043 0.988104
1.00263 1.00201 0.988639
1.00298 1.00045 0.988888
1.00055 1.00496 0.988862
1.00093 1.0051 0.988368
1.00042 1.00441 0.989151
1.00093 1.00507 0.988874
1.00052 1.00415 0.989937
1.00012 1.00055 0.994033
1.00046 1.00333 0.990931
1.00021 0.999948 0.994556
1.00017 0.997624 0.998801
1.00024 0.999693 0.994784
1.00021 0.997494 0.998063
1.00017 0.997447 0.998878
1.00096 1.00342 0.990098
1.00048 1.00202 0.992089
1.00076 1.00298 0.990593
1.00028 0.998784 0.995625
1.00033 1.0017 0.992505
1.00061 1.00305 0.990955
1.00012 0.99687 0.999118
1.00021 0.998441 0.996067
1.0003 1.00114 0.992989
1.00008 0.996789 0.999201
1.00014 0.99824 0.996383
1.00005 0.996777 0.999246
0.994832 0.994837 0.804753
0.994795 0.994842 0.805817
0.994811 0.994819 0.803334
0.999676 1.00519 0.989707
1.0011 1.00386 0.990778
1.00101 1.00283 0.990497
1.0004 1.00406 0.989879
1.00075 1.00169 0.991721
1.00037 1.00278 0.991196
0.999679 1.00133 0.993696
0.994828 0.994814 0.796697
0.994876 0.99485 0.806472
0.994808 0.994826 0.803614
0.994895 0.994884 0.813278
0.995501 0.995023 0.955571
0.994811 0.997094 0.926934
0.995889 0.994913 0.879297
0.994898 0.995456 0.954184
0.994891 0.998459 0.922979
0.996095 0.997421 0.877447
0.99495 0.994862 0.811764
0.995542 0.996247 0.958347
0.994867 0.9983 0.925475
0.994897 0.994916 0.856952
0.994745 0.994836 0.793799
0.99698 1.00447 0.995361
0.999106 1.00296 0.993531
1.00005 1.00419 0.990735
1.00112 1.00277 0.990516
0.994848 1.00172 0.98671
0.994804 1.00382 0.997597
0.996908 1.00457 0.995609
0.996609 1.00486 0.996111
0.995233 1.00516 0.998202
0.995952 1.0049 0.996577
0.995432 1.00396 0.999189
0.99556 1.00033 0.982146
0.995213 1.00525 0.995016
0.995691 1.00383 0.998233
0.995296 1.00258 0.978784
0.994789 1.00325 0.999226
0.99477 0.994822 0.803162
0.994847 0.994839 0.804849
0.994785 0.994835 0.800135
0.994809 1.00343 0.99892
0.994878 1.00062 0.973538
0.994816 0.994836 0.805647
0.994865 0.997893 0.928066
0.996206 0.994938 0.878438
0.994821 0.994832 0.805225
0.994691 0.994847 0.803613
0.994907 1.00495 0.990311
0.994802 0.994837 0.806611
0.99476 0.99479 0.796829
0.994843 0.999967 0.964523
0.994721 0.99486 0.805611
0.994726 0.996426 0.856703
0.994876 0.997718 0.924043
0.994862 1.00446 0.984425
0.994831 0.994814 0.802783
0.994705 0.994808 0.793328
0.995606 0.994823 0.879264
0.994744 0.995501 0.936357
0.994821 0.999959 0.958419
0.994947 1.00528 0.998513
0.995382 1.00465 0.997443
0.996805 1.00165 0.997806
0.995079 1.00504 0.998241
0.996981 1.00198 0.998628
1.00153 1.00132 0.992424
1.00352 0.99985 0.992292
1.00303 1.00494 0.985312
1.00431 1.00253 0.984156
1.00388 1.00408 0.984354
1.00443 1.00411 0.982662
1.00457 1.00283 0.983942
1.00525 0.998866 0.986438
1.00511 1.00046 0.985606
1.005 1.00122 0.984787
1.00513 1.00154 0.98461
1.005 1.00156 0.984562
1.00422 1.00315 0.984067
1.00519 1.00171 0.984592
1.00516 1.00198 0.984308
1.00509 1.00208 0.984252
1.00335 1.00221 0.987456
1.00392 1.00092 0.987419
1.00434 1.00074 0.986552
1.00087 1.00513 0.9879
1.00163 1.00414 0.988144
1.0022 1.00265 0.988557
1.0002 1.00121 0.993216
1.00073 1.00484 0.988895
1.00124 1.00508 0.988377
1.00066 1.00404 0.989946
1.00014 1.00061 0.994001
1.00013 0.997857 0.998714
1.00024 0.999979 0.994534
1.00018 0.997589 0.998785
1.0002 0.997436 0.998825
1.00023 1.00515 0.989928
1.00087 1.00498 0.989136
1.00071 1.00253 0.991219
1.00069 1.00378 0.990066
1.00027 0.99919 0.995212
1.00047 1.00204 0.992084
1.00083 1.00294 0.990646
1.00013 0.997071 0.999014
1.00027 0.998782 0.995646
1.00035 1.00172 0.992587
1.00011 0.996861 0.999139
1.00022 0.998408 0.996092
1.00008 0.996769 0.999216
0.994801 0.994841 0.79805
0.994823 0.994831 0.804535
0.994802 0.99483 0.806051
1.00003 1.00517 0.989709
1.00018 1.00319 0.99103
1.00124 1.00257 0.988545
0.998897 1.00423 0.990981
1.00159 1.00237 0.991306
1.00068 1.00413 0.989785
1.00038 1.00205 0.99204
1.00028 1.00353 0.991215
1.00009 1.00117 0.993873
0.998955 1.00381 0.993873
0.994754 0.994769 0.798581
0.994811 0.994819 0.797901
0.994879 0.994837 0.806467
0.995143 0.994861 0.813303
0.995695 0.995228 0.862902
0.994862 0.994928 0.95328
0.994806 0.997002 0.935454
0.995548 0.996017 0.954445
0.994851 0.996508 0.937769
0.995027 0.998525 0.865974
0.994761 0.994833 0.79193
0.994913 0.997937 0.957511
0.994839 0.99879 0.937371
0.99476 0.994888 0.881765
0.994708 0.994874 0.814545
0.998916 1.00079 0.996307
0.996616 1.00432 0.995891
0.999107 1.00276 0.994032
0.995196 1.00254 0.97863
0.995061 1.00522 0.994939
0.995694 1.00487 0.996625
0.994777 1.00439 0.999258
0.995841 1.00376 0.998153
0.994857 1.00249 0.999678
0.9949 1.00195 0.978588
0.996081 1.00125 1.00054
0.995131 1.0005 0.985112
0.994806 0.994818 0.811912
0.994791 0.994832 0.802203
0.994834 0.994833 0.808679
0.994945 1.00483 0.99059
0.99486 0.999948 0.962172
0.99482 0.994841 0.806884
0.994841 0.997962 0.936183
0.994758 0.9966 0.87778
0.994754 0.994766 0.797088
0.994765 0.994833 0.798289
0.995288 1.0048 0.985062
0.994815 0.994817 0.803005
0.994727 0.994802 0.793388
0.995011 0.998535 0.959502
0.995114 0.994803 0.877253
0.994795 0.996824 0.930232
0.995268 1.00252 0.981948
0.994703 0.994775 0.794461
0.997276 0.994801 0.879777
0.995691 0.994745 0.927977
0.994872 0.995549 0.960102
0.995592 1.00514 0.997558
0.995753 1.00345 0.997682
0.998468 1.0017 0.996516
0.995004 1.00464 0.999033
1.00009 1.00162 0.993663
1.00413 0.998046 0.990151
1.0039 1.00503 0.984474
1.00412 1.00277 0.98406
1.00461 0.999588 0.986639
1.00468 1.00423 0.982613
1.00469 1.00232 0.984024
1.00504 0.998819 0.986939
1.00535 0.996247 0.988763
1.00527 0.998404 0.986707
1.00525 0.998794 0.986496
1.00515 1.00044 0.985717
1.00512 1.00049 0.985536
1.00499 1.0013 0.984749
1.00519 1.00204 0.984236
1.00514 1.00144 0.984576
1.00496 1.00146 0.984557
1.00482 1.00154 0.985693
1.00476 1.00207 0.98485
1.00517 1.00221 0.984239
1.00186 1.00417 0.987176
1.0031 1.00228 0.987396
1.00348 1.0012 0.987863
1.00029 1.00231 0.993107
1.00115 1.00509 0.987936
1.00197 1.00393 0.988185
1.00016 0.998495 0.996308
1.00023 1.00146 0.993579
1.00093 1.00471 0.988928
1.00018 1.00067 0.993965
1.00015 0.997955 0.998653
1.00019 0.997592 0.998766
1.00126 1.00404 0.988801
1.0013 1.00515 0.988408
0.999491 1.00515 0.989846
1.00065 1.00374 0.990164
1.00068 1.00477 0.989102
1.00021 0.99966 0.994835
1.00058 1.00273 0.991239
1.00055 1.00407 0.990027
1.00012 0.997367 0.998928
1.00028 0.999145 0.995234
1.00046 1.00205 0.992079
1.00012 0.997058 0.999047
1.00025 0.998747 0.995666
1.00011 0.996845 0.99916
0.994781 0.994819 0.81246
0.994804 0.994841 0.798302
0.99481 0.99485 0.804305
1.00307 1.0015 0.987323
0.999827 1.00506 0.989708
0.999711 1.00332 0.991323
0.999987 1.00505 0.990583
1.00237 1.00225 0.988651
1.00052 1.00265 0.992605
1.00349 1.0024 0.986934
0.997082 1.00491 0.993362
0.999862 1.00377 0.99123
0.999977 1.00027 0.99405
0.998025 1.00354 0.993823
0.998217 1.00364 0.994315
0.994739 0.994828 0.804511
0.994772 0.994775 0.797981
0.994802 0.994823 0.798861
0.994803 0.995183 0.8072
0.995015 0.99724 0.864408
0.994836 0.998445 0.925568
0.995708 0.995171 0.953617
0.995078 0.997691 0.957867
0.994729 0.995096 0.806806
0.994864 0.996702 0.928754
0.994715 0.997082 0.863033
0.994868 0.996525 0.96248
0.994791 0.996295 0.939395
0.995339 0.994822 0.879309
1.00007 0.994932 1.0007
0.9986 1.00114 0.996188
0.996207 1.00419 0.996388
0.994919 1.00177 0.978482
0.995294 1.00141 1.00006
0.996326 1.00362 0.998105
0.996803 1.00041 1.00087
0.994994 0.999543 0.985238
0.995839 0.998808 0.992383
0.994711 0.994817 0.810183
0.994802 0.994814 0.812743
0.994804 0.994834 0.801114
0.994964 1.00447 0.985272
0.994868 0.999936 0.958881
0.994798 0.994827 0.803455
0.994847 0.997025 0.924743
0.995685 0.994819 0.860723
0.994762 0.994814 0.807065
0.994982 1.00492 0.981763
0.994711 0.994816 0.808181
0.997184 0.994767 0.858986
0.994875 0.995597 0.955784
0.995506 0.995135 0.939901
0.994872 1.00119 0.989977
0.999713 0.994852 0.848711
0.99733 0.994836 0.94154
0.994868 0.994806 0.954592
0.994869 1.00463 0.997517
0.997703 1.00179 0.996391
1.00072 1.00038 0.993198
0.999186 1.00137 0.994888
1.00366 0.998402 0.989913
1.00467 0.997938 0.988971
1.00395 1.00298 0.983963
1.00457 0.999582 0.986538
1.00509 0.996271 0.988945
1.00471 1.00175 0.984113
1.00493 0.998765 0.986904
1.00535 0.995482 0.989587
1.00528 0.995155 0.990439
1.00531 0.996435 0.988741
1.00536 0.99619 0.988849
1.00527 0.998384 0.986821
1.00526 0.998389 0.986899
1.00523 0.998758 0.986553
1.00523 1.00099 0.984906
1.00517 1.00033 0.985661
1.00512 1.00047 0.985466
1.00516 1.00224 0.984108
1.00511 1.00205 0.984284
1.00514 1.00132 0.984543
1.00303 1.00309 0.986713
1.00434 1.00203 0.985624
1.0042 1.00247 0.985108
1.00065 1.00285 0.990844
1.00216 1.00419 0.987175
1.00289 1.00262 0.987332
0.999899 0.999583 0.998177
1.00041 1.00224 0.99187
1.00142 1.00508 0.987974
1.00017 0.998455 0.998428
1.00026 1.0015 0.99303
1.00018 0.998037 0.998581
1.00385 1.00201 0.987582
1.00154 1.00375 0.988595
1.00152 1.00476 0.98812
1.00082 1.00455 0.989221
1.00091 1.00516 0.988404
0.999756 1.00518 0.989769
1.00008 1.0005 0.994274
1.00059 1.00376 0.990177
1.00061 1.00449 0.989066
1.0001 0.997568 0.998841
1.0002 0.999642 0.994855
1.00043 1.0029 0.991256
1.00011 0.997304 0.998951
1.00029 0.999119 0.995251
1.00012 0.997008 0.999079
0.994733 0.994787 0.794845
0.994799 0.994821 0.812829
0.994812 0.994837 0.798596
1.00308 1.00227 0.987167
1.00471 1.00255 0.986034
1.00248 1.00328 0.987023
0.99967 1.00506 0.990179
1.00359 1.00188 0.988763
0.998703 1.00182 0.993844
0.998393 1.00424 0.992841
1.0021 1.00288 0.988142
1.00185 1.00118 0.990743
0.998723 0.999632 0.996506
0.998801 1.00363 0.993748
0.998737 1.00385 0.994095
0.998127 0.994791 0.852577
0.994707 0.99481 0.798116
0.994779 0.994779 0.798193
0.994755 0.994849 0.798565
0.994767 0.996636 0.882422
0.994831 0.996721 0.924726
0.994871 0.996879 0.956123
0.994891 0.99674 0.960059
0.995509 0.99539 0.877396
0.994797 0.99588 0.926597
0.99485 0.997421 0.963844
0.995459 0.994743 0.928231
0.999327 0.995411 1.00335
0.999764 0.995551 1.00068
0.998279 1.00089 0.996184
0.99485 0.999274 0.985524
0.997251 0.999619 1.0012
0.996331 0.998944 0.991951
0.995894 0.996632 0.990134
0.9998 0.994969 0.863675
0.994703 0.994798 0.807149
0.994808 0.994816 0.813346
0.994848 1.0046 0.982192
0.994825 0.99488 0.953819
0.994703 0.994825 0.807584
0.995015 0.994764 0.92871
0.998048 0.994812 0.879709
0.994915 0.999093 0.986514
0.99971 0.99485 0.861769
0.997508 0.99481 0.927512
0.994838 0.994784 0.955687
0.996214 0.998187 0.987242
0.999892 0.994846 0.94035
0.995056 0.994825 0.961909
0.996362 1.00147 0.996285
0.999912 1.00006 0.993161
1.00343 0.999062 0.991444
1.00275 0.999321 0.989699
1.00434 0.997907 0.988898
1.00515 0.995937 0.989608
1.00459 0.99963 0.986439
1.00495 0.99674 0.988885
1.0053 0.994848 0.990152
1.00485 0.998733 0.986865
1.00534 0.995499 0.989531
1.0053 0.994865 0.990579
1.0053 0.994966 0.99069
1.00529 0.995128 0.990527
1.00524 0.995416 0.990441
1.00529 0.996878 0.988695
1.00531 0.996468 0.98889
1.00539 0.996124 0.988938
1.00529 0.999353 0.986289
1.00528 0.998441 0.98676
1.00526 0.998349 0.987091
1.00529 1.00202 0.983907
1.00524 1.00102 0.984932
1.00518 1.00024 0.985604
1.00377 1.0029 0.985663
1.00507 1.00223 0.984162
1.00499 1.00208 0.984335
1.00105 1.00314 0.989905
1.00299 1.00314 0.986658
1.00402 1.0021 0.985561
1.00018 0.999861 0.997819
1.00081 1.0027 0.990846
1.0024 1.00411 0.987169
1.00008 0.99948 0.996908
1.0006 1.00215 0.991905
1.0002 0.998698 0.998275
1.00474 1.00131 0.986392
1.0031 1.00206 0.987534
1.00181 1.00387 0.987774
1.00156 1.00385 0.988385
1.0012 1.00492 0.988156
1.00105 1.00495 0.988519
1.00015 1.00132 0.993426
1.00068 1.00461 0.989194
1.00027 1.00512 0.988404
1.00008 0.998026 0.998665
1.00009 1.00036 0.994301
1.0006 1.00381 0.990191
1.00008 0.997609 0.998869
1.00018 0.999601 0.99489
1.00011 0.997281 0.998976
0.999531 0.994818 0.862368
0.994718 0.994796 0.800855
0.994808 0.994821 0.813269
1.00291 1.00246 0.987018
1.00296 1.00356 0.98609
1.00439 1.00294 0.985897
1.00475 1.0035 0.983836
1.00201 1.00288 0.988693
0.999424 1.00455 0.992372
1.002 1.00337 0.98934
1.00139 1.00131 0.991297
1.00456 0.995953 0.990247
1.00208 0.998526 0.9939
1.00182 0.99692 0.995336
1.00027 0.998822 0.99616
0.999968 1.00202 0.993869
0.997413 0.994825 0.938098
0.998139 0.994765 0.857045
0.994683 0.994799 0.804139
0.99572 0.994828 0.862652
0.994787 0.996242 0.937396
0.995044 0.996115 0.961526
0.994836 0.996742 0.965482
0.996247 0.995081 0.940853
0.995739 0.994788 0.964055
0.998525 0.9968 1.00112
0.998397 0.9961 1.00342
0.999394 0.996766 1.00056
0.996663 0.998276 0.991631
0.99706 0.99707 0.990329
1.00001 0.994907 0.92639
0.9998 0.994891 0.869844
0.994691 0.994781 0.804233
0.995056 0.998538 0.98268
0.995028 0.994776 0.955021
0.9997 0.994825 0.860703
0.997336 0.994818 0.941184
0.996055 0.99776 0.98748
0.999999 0.994861 0.935802
0.995692 0.99482 0.959757
1.00026 0.995007 0.986204
0.997787 0.994738 0.970615
0.999323 0.999073 0.993142
1.00249 0.997608 0.991461
1.00508 0.994955 0.991463
1.00434 0.997619 0.988812
1.00512 0.99578 0.98952
1.00528 0.99482 0.99045
1.00472 0.997132 0.988827
1.0053 0.99489 0.99011
1.0053 0.994811 0.990478
1.00533 0.995509 0.989475
1.00529 0.994873 0.990558
1.00532 0.994833 0.990611
1.00529 0.994932 0.990733
1.0053 0.995062 0.990673
1.00529 0.995087 0.990615
1.00524 0.995394 0.990446
1.00522 0.9959 0.989958
1.00529 0.998018 0.987776
1.00529 0.996934 0.988682
1.00531 0.996502 0.989038
1.00533 1.00126 0.984547
1.00531 0.99946 0.986125
1.00528 0.998502 0.986701
1.00464 1.00237 0.98469
1.00527 1.00203 0.983963
1.00525 1.00107 0.984956
1.00153 1.00325 0.988761
1.00351 1.00316 0.985686
1.00478 1.00243 0.984215
1.00038 1.00058 0.997398
1.00116 1.00299 0.989892
1.003 1.00324 0.986608
1.00029 1.00008 0.997655
1.00092 1.00254 0.990851
1.00026 0.99946 0.997906
1.00513 1.00319 0.983912
1.00435 1.00115 0.986387
1.00319 1.0027 0.986779
1.0027 1.00192 0.987488
1.00181 1.00394 0.987684
1.00151 1.00486 0.987738
1.00086 1.00494 0.988186
1.00085 1.0051 0.988475
1.00033 1.00203 0.992405
1.00008 0.998551 0.998384
1.00005 1.00128 0.993443
1.00047 1.00482 0.989168
1.00005 0.997915 0.998732
1.0001 1.00027 0.994305
1.00006 0.997552 0.998894
0.999967 0.994892 0.940823
0.999823 0.994861 0.860986
0.994695 0.99478 0.794725
1.00278 1.00464 0.985149
1.00375 1.00314 0.985758
1.00319 1.00283 0.987814
1.00431 1.00333 0.984111
1.00519 1.00036 0.985376
1.00364 0.999559 0.987792
1.00067 1.00198 0.991817
1.00448 0.995582 0.990601
1.00203 0.998146 0.99392
1.00427 0.995431 0.990826
1.00318 0.998021 0.992835
1.00199 0.997971 0.993926
1.00137 0.997327 0.99522
0.999934 0.99945 0.995828
0.99544 0.994794 0.962496
0.998151 0.995382 0.933294
0.997056 0.994823 0.875354
0.995389 0.994728 0.928041
0.994845 0.996721 0.96576
0.995575 0.995686 0.969686
0.99917 0.994813 0.991528
0.9996 0.996088 1.00035
0.997816 0.996663 1.00351
0.998612 0.998828 0.990582
0.997384 0.994874 0.964602
1.00003 0.994881 0.941302
0.999818 0.994946 0.85123
0.995703 0.997929 0.987868
0.99621 0.994811 0.959886
0.99968 0.994824 0.930762
0.999532 0.996164 0.986674
0.998047 0.994789 0.96965
1.00287 0.99603 0.988535
1.00343 0.995221 0.984958
1.00148 0.996864 0.991467
1.00454 0.994936 0.9915
1.00526 0.994808 0.990776
1.00506 0.995731 0.989434
1.00528 0.994819 0.990399
1.00534 0.994871 0.990478
1.0053 0.994953 0.990065
1.0053 0.994824 0.990465
1.00535 0.994874 0.990487
1.00528 0.994878 0.990537
1.00532 0.994839 0.990632
1.00534 0.994865 0.990654
1.00527 0.994902 0.990775
1.00529 0.99504 0.990676
1.00525 0.995368 0.990565
1.00524 0.995379 0.99045
1.00522 0.995888 0.989968
1.00526 0.9972 0.988739
1.0053 1.00004 0.985828
1.00529 0.998227 0.987499
1.00529 0.996993 0.988668
1.00529 1.00144 0.984534
1.00532 1.00128 0.984592
1.00533 0.99957 0.98596
1.00245 1.00272 0.987817
1.00441 1.00262 0.984708
1.00525 1.00204 0.984019
1.00083 1.001 0.996968
1.0017 1.00315 0.988716
1.00327 1.00345 0.985707
1.00059 1.00068 0.99724
1.00122 1.00286 0.989881
1.00046 1.00026 0.997484
1.00527 1.00146 0.984593
1.00506 1.00273 0.983974
1.00463 1.00254 0.984608
1.00434 1.00155 0.986384
1.00331 1.00267 0.986526
1.00267 1.00371 0.986752
1.00175 1.00417 0.987598
1.00139 1.00486 0.987746
1.00068 1.00257 0.991285
1.00055 1.00513 0.98844
1.00019 1.00215 0.992417
1.00008 0.999426 0.998033
1.00004 0.998526 0.998491
0.999998 1.00129 0.993468
1.00003 0.997897 0.998789
0.99633 0.994927 0.965234
0.999852 0.994893 0.925876
0.999829 0.994908 0.874829
1.00527 0.998143 0.987215
1.00456 1.00278 0.986953
1.00387 1.00319 0.984383
1.00425 0.999434 0.988244
1.00518 1.00057 0.985352
1.00509 0.996836 0.988876
1.00484 0.996059 0.990957
1.00175 0.99748 0.993958
1.00473 0.995797 0.990876
1.00284 0.998343 0.992147
1.00428 0.997183 0.989936
1.00325 0.994858 0.994312
1.00189 0.997206 0.994092
1.00123 0.997563 0.995098
0.998566 0.99474 0.990234
0.995718 0.994797 0.960984
0.997945 0.994798 0.92725
0.995329 0.996132 0.96997
0.99886 0.994822 0.994237
0.999843 0.995529 0.999515
1.00223 0.994894 0.980933
0.99743 0.994879 0.964021
1.00005 0.994886 0.926519
0.998457 0.996603 0.987135
0.998277 0.994808 0.969048
1.00201 0.995336 0.989116
1.00319 0.995045 0.985632
1.00378 0.995951 0.990452
1.0055 0.995476 0.9907
1.00403 0.994857 0.991535
1.00524 0.994837 0.990724
1.00539 0.994872 0.990393
1.00527 0.994817 0.99035
1.00532 0.994857 0.990489
1.00537 0.994861 0.990462
1.00531 0.994838 0.990452
1.00534 0.994868 0.990497
1.00535 0.994888 0.990635
1.00532 0.994848 0.990652
1.00533 0.994865 0.990648
1.00527 0.994905 0.99087
1.00528 0.995018 0.990679
1.00525 0.99527 0.990618
1.00527 0.996201 0.989827
1.00523 0.995872 0.989978
1.00526 0.99707 0.988862
1.00529 0.999517 0.986533
1.00532 1.00108 0.984855
1.00531 1.00024 0.985617
1.00529 0.998436 0.987222
1.00313 1.00143 0.98804
1.00517 1.00159 0.98453
1.00531 1.0013 0.984637
1.00135 1.00115 0.996517
1.00263 1.0025 0.987793
1.00421 1.00282 0.984733
1.00101 1.00107 0.996784
1.00193 1.00306 0.988682
1.00074 1.0008 0.997089
1.00528 0.999816 0.985817
1.00525 1.00148 0.984521
1.00527 1.00181 0.984189
1.00501 1.00222 0.98404
1.00498 1.00233 0.984416
1.0033 1.00326 0.98619
1.00365 1.00229 0.986272
1.00253 1.00388 0.986778
1.00094 1.00298 0.990237
1.0013 1.00493 0.987732
1.00049 1.00272 0.991315
1.00013 1.00025 0.99765
1.00002 1.00219 0.99243
1.00003 0.999199 0.998166
1 0.99836 0.998586
0.99991 0.995296 0.986143
0.99636 0.994909 0.961117
0.99999 0.994853 0.940571
1.0053 0.99636 0.988996
1.00529 0.996028 0.989341
1.00528 0.997828 0.98749
1.00486 0.998926 0.988693
1.00517 1.00081 0.985333
1.00514 0.996813 0.98908
1.00532 0.995196 0.989678
1.0049 0.995587 0.99093
1.00261 0.998304 0.991471
1.00419 0.997239 0.990421
1.0052 0.994832 0.990856
1.0037 0.994802 0.992999
1.00287 0.994894 0.994032
1.00218 0.996702 0.994267
0.999191 0.994723 0.990246
0.995969 0.994804 0.959771
0.998936 0.994806 0.997091
1.00497 0.99493 0.990382
1.00225 0.994941 0.981082
0.997634 0.994892 0.962911
1.00169 0.994756 0.989633
1.0028 0.994699 0.986317
1.00388 0.99539 0.991035
1.00539 0.995043 0.990766
1.00548 0.994763 0.990829
1.00556 0.994824 0.991033
1.00526 0.994862 0.990669
1.00541 0.994862 0.990383
1.00536 0.994865 0.990644
1.00531 0.994841 0.9905
1.00538 0.994865 0.990482
1.00534 0.99489 0.99068
1.00534 0.994861 0.990506
1.00535 0.994889 0.990635
1.00529 0.994897 0.990907
1.00533 0.994865 0.990642
1.00528 0.994905 0.990848
1.00527 0.9955 0.990469
1.00526 0.995167 0.99067
1.00527 0.996156 0.98982
1.00531 0.998798 0.987234
1.00526 0.996939 0.988985
1.00529 0.999394 0.986671
1.0053 1.00075 0.985272
1.00323 1.00065 0.988656
1.00531 1.00108 0.98487
1.00532 1.00044 0.985406
1.0017 1.00092 0.99633
1.00316 1.00141 0.988036
1.00498 1.00181 0.984519
1.0015 1.00115 0.996386
1.00281 1.00236 0.987754
1.00122 1.00116 0.996577
1.00529 0.997703 0.987813
1.00528 0.999626 0.986049
1.00536 1.00117 0.984746
1.00523 1.00146 0.984443
1.00531 1.00187 0.984121
1.00395 1.00261 0.985681
1.00524 1.00216 0.984226
1.00341 1.00289 0.98619
1.00134 1.00337 0.989149
1.00249 1.00388 0.986815
1.00088 1.00312 0.990254
1.00032 1.00101 0.997274
1.00032 1.00288 0.991339
1.00004 1.00008 0.997798
0.999982 0.999097 0.998291
1.00415 0.995343 0.991823
0.999806 0.995169 0.983858
0.996438 0.994921 0.961096
1.00532 0.995291 0.990018
1.00528 0.995943 0.989332
1.00524 0.995242 0.990477
1.00529 0.996159 0.989295
1.00528 0.997491 0.987761
1.0054 0.994845 0.990215
1.00516 0.996963 0.989275
1.00531 0.995466 0.989672
1.00534 0.994781 0.990591
1.00412 0.99742 0.990901
1.00518 0.99493 0.990513
1.00326 0.994976 0.99326
1.00217 0.99532 0.993762
0.999477 0.994706 0.99
1.00556 0.994852 0.990924
1.00509 0.99504 0.990341
1.00204 0.994942 0.981339
1.00386 0.99472 0.991611
1.00544 0.994779 0.990842
1.00545 0.994775 0.990845
1.0056 0.994841 0.991058
1.00539 0.994868 0.991126
1.00543 0.994853 0.990375
1.00536 0.99487 0.990654
1.00531 0.994904 0.990933
1.00538 0.99487 0.990502
1.00534 0.994893 0.990673
1.0053 0.994925 0.99095
1.00535 0.994889 0.990635
1.00529 0.994896 0.990897
1.00529 0.995064 0.990975
1.00529 0.994905 0.990825
1.00527 0.995525 0.990442
1.00533 0.998004 0.988072
1.00527 0.996112 0.989814
1.0053 0.998806 0.987252
1.00529 1.00045 0.98561
1.00529 0.999271 0.986808
1.0053 1.00073 0.985295
1.00321 1.00037 0.990749
1.00196 1.00011 0.99302
1.00324 1.00069 0.989531
1.00531 1.00108 0.984885
1.00164 1.00089 0.996413
1.00318 1.00126 0.988035
1.00152 1.00125 0.996335
1.00519 0.995156 0.990792
1.00524 0.996468 0.989403
1.00529 0.997693 0.988034
1.00533 1.00019 0.985699
1.00529 0.999442 0.986283
1.00535 1.00121 0.984664
1.00474 1.00168 0.984963
1.00533 1.0019 0.984051
1.00415 1.00209 0.985645
1.00227 1.00289 0.9881
1.00354 1.00251 0.98619
1.0013 1.00344 0.989133
1.00074 1.00159 0.996765
1.00078 1.00322 0.990284
1.00019 1.0008 0.99742
0.999964 0.999851 0.997938
1.00549 0.994824 0.990868
1.00404 0.995132 0.991439
1.00008 0.994916 0.981646
1.00532 0.994881 0.990611
1.00532 0.99535 0.989931
1.00527 0.995532 0.989674
1.00524 0.99535 0.990425
1.00529 0.996307 0.989248
1.0054 0.994844 0.990595
1.00539 0.994844 0.990194
1.00531 0.99563 0.989666
1.00532 0.994785 0.990639
1.00518 0.995028 0.990169
1.00304 0.994752 0.993515
1.0053 0.994884 0.991247
1.00554 0.994837 0.990957
1.00523 0.995184 0.990295
1.00541 0.994775 0.990842
1.00562 0.994862 0.991083
1.0054 0.994866 0.991077
1.0053 0.994912 0.99124
1.00535 0.994873 0.990664
1.00531 0.994902 0.99089
1.00529 0.994926 0.991105
1.00535 0.994895 0.990665
1.00529 0.994926 0.990956
1.00532 0.994914 0.991172
1.00529 0.994895 0.990888
1.00528 0.995067 0.990945
1.00534 0.997227 0.988906
1.00527 0.995549 0.990415
1.00533 0.998021 0.988085
1.00529 1.00017 0.985927
1.0053 0.998814 0.987271
1.0053 1.00043 0.98564
1.00328 1.00019 0.990829
1.00531 1.00071 0.985316
1.00343 1.00025 0.990604
1.00204 0.999762 0.99321
1.00163 1.00044 0.994879
1.00343 1.00069 0.990219
1.0016 1.00084 0.996483
1.00524 0.994901 0.990996
1.00523 0.996145 0.989822
1.00519 0.995134 0.990879
1.00527 0.99912 0.986844
1.00523 0.996484 0.989428
1.00528 0.997683 0.988256
1.00531 1.00019 0.985658
1.00524 1.00106 0.984986
1.00534 1.00124 0.984584
1.005 1.00147 0.984965
1.00293 1.00174 0.987988
1.00442 1.00176 0.985618
1.00205 1.00306 0.988145
1.00118 1.0017 0.996411
1.00119 1.0035 0.989128
1.00054 1.00138 0.996978
1.00005 1.00067 0.997563
1.00534 0.99489 0.990898
1.00541 0.99483 0.990933
1.00373 0.995045 0.991058
1.00531 0.994882 0.990792
1.00532 0.99488 0.990556
1.00529 0.995392 0.989851
1.00524 0.995462 0.990372
1.00539 0.994849 0.990589
1.00537 0.994844 0.990173
1.00526 0.994794 0.990686
1.00527 0.99492 0.991295
1.00531 0.994886 0.991211
1.00554 0.994812 0.990986
1.00528 0.994928 0.991314
1.00542 0.994871 0.991028
1.00529 0.994914 0.991231
1.00527 0.994933 0.991257
1.00532 0.994902 0.990847
1.00529 0.994927 0.991113
1.00533 0.994933 0.991247
1.00528 0.994927 0.990962
1.00531 0.994916 0.991149
1.00533 0.996565 0.989673
1.00527 0.99507 0.990915
1.00535 0.997253 0.988906
1.00527 0.999924 0.986259
1.00532 0.998038 0.988099
1.00531 1.00015 0.985957
1.00329 1.0002 0.99079
1.00531 1.0004 0.98567
1.00348 1.0001 0.990654
1.0021 0.999707 0.993166
1.00365 1.00013 0.990467
1.00155 0.999942 0.993548
1.00095 1.00081 0.997107
1.00524 0.994906 0.991036
1.00525 0.995464 0.990543
1.00522 0.994906 0.991005
1.00529 0.998662 0.98737
1.00522 0.995867 0.99005
1.00519 0.995109 0.990968
1.00533 1.00043 0.985523
1.00528 0.999105 0.986814
1.00522 0.996495 0.989455
1.00529 1.00019 0.985615
1.00525 1.00103 0.984975
1.00307 1.00097 0.988587
1.00515 1.00125 0.984966
1.00284 1.00192 0.988022
1.00136 1.00135 0.99645
1.00199 1.00316 0.988172
1.00105 1.0016 0.996524
1.00037 1.00123 0.997163
1.0053 0.994928 0.991069
1.00535 0.994888 0.99084
1.00536 0.994834 0.991004
1.00531 0.994885 0.99079
1.00533 0.994879 0.990502
1.0054 0.994853 0.990582
1.00527 0.994939 0.991305
1.00527 0.994919 0.991315
1.00531 0.994888 0.991174
1.00528 0.99493 0.991323
1.00525 0.994952 0.991387
1.00529 0.994916 0.991223
1.00527 0.994935 0.991275
1.0053 0.994956 0.991313
1.00528 0.994927 0.991121
1.00533 0.994933 0.99124
1.00533 0.9961 0.990196
1.00531 0.994918 0.991127
1.00535 0.996563 0.989664
1.00521 0.999718 0.986593
1.00536 0.997279 0.988906
1.00528 0.999903 0.986287
1.0032 1.00028 0.990786
1.00532 1.00012 0.985989
1.00347 1.00013 0.990607
1.00209 0.999821 0.99306
1.00367 1.00002 0.990487
1.00167 0.999764 0.993532
1.00107 1.00015 0.993871
1.00525 0.994938 0.991114
1.00527 0.994938 0.991083
1.00523 0.994906 0.990999
1.00534 0.997525 0.988516
1.00525 0.99546 0.990533
1.00521 0.994912 0.991012
1.00531 1.0001 0.985931
1.00529 0.998233 0.987748
1.00522 0.995592 0.990277
1.00316 1.00035 0.989064
1.00531 1.00045 0.985496
1.00528 0.999093 0.986784
1.0053 1.00099 0.984957
1.00306 1.00098 0.988574
1.00144 1.0009 0.996593
1.00267 1.00214 0.988057
1.00136 1.00137 0.996412
1.00089 1.00151 0.996691
1.00528 0.994945 0.991233
1.0053 0.994928 0.991035
1.00535 0.994887 0.990783
1.00532 0.994886 0.990789
1.00524 0.994961 0.991388
1.00527 0.994937 0.991313
1.00526 0.994919 0.991335
1.00527 0.994931 0.991333
1.00525 0.99495 0.991387
1.00529 0.994967 0.99128
1.00527 0.994936 0.991293
1.0053 0.994974 0.991279
1.00533 0.995938 0.990484
1.00533 0.994933 0.991233
1.00533 0.996102 0.990192
1.00514 0.999541 0.986875
1.00536 0.996573 0.989655
1.00521 0.999692 0.986611
1.0032 1.00034 0.989116
1.00528 0.999882 0.986315
1.00338 1.00025 0.989767
1.00178 0.999921 0.99656
1.00365 1.00007 0.990423
1.0017 0.999809 0.993432
1.00125 0.999817 0.993882
1.00525 0.994949 0.991223
1.00529 0.994952 0.99112
1.00525 0.994939 0.991142
1.00535 0.996574 0.989488
1.00527 0.995124 0.99089
1.00522 0.994905 0.990961
1.0053 0.999427 0.986672
1.00534 0.997506 0.988521
1.00525 0.995455 0.990523
1.00328 0.999987 0.989257
1.0053 0.99989 0.986118
1.00529 0.9978 0.988125
1.00157 1.00042 0.996684
1.0032 1.00029 0.989051
1.00531 1.00047 0.985467
1.00305 1.00099 0.988569
1.00148 1.00092 0.996541
1.00133 1.00138 0.996395
1.00524 0.994962 0.991311
1.00528 0.994945 0.991229
1.0053 0.994927 0.991001
1.00527 0.995021 0.991302
1.00524 0.99496 0.991368
1.00527 0.994934 0.991322
1.00525 0.994948 0.991386
1.00529 0.995017 0.991275
1.00531 0.996421 0.98991
1.00531 0.995007 0.991244
1.00532 0.996233 0.990118
1.00509 0.998873 0.987776
1.00533 0.996104 0.990188
1.00516 0.999507 0.986876
1.00313 1.00022 0.98935
1.00521 0.999668 0.986633
1.00322 1.0003 0.989123
1.00171 1 0.996557
1.00342 1.00023 0.988908
1.00162 0.999951 0.995045
1.00131 0.999788 0.993803
1.00522 0.994951 0.991342
1.00528 0.994963 0.991274
1.00524 0.99495 0.99123
1.00533 0.996656 0.989516
1.00529 0.994948 0.991144
1.00524 0.994941 0.991169
1.00523 0.999197 0.987016
1.00534 0.997006 0.989095
1.00528 0.995308 0.990696
1.00332 0.999953 0.989254
1.00529 0.999376 0.986706
1.00533 0.997488 0.988526
1.00172 1.00005 0.996683
1.00331 0.999949 0.98925
1.00529 0.99968 0.986303
1.00159 1.00044 0.996654
1.00325 1.00022 0.989037
1.00145 1.00097 0.996494
1.00527 0.995082 0.991199
1.00524 0.994961 0.991326
1.00528 0.994947 0.991224
1.00531 0.996461 0.989894
1.00527 0.99507 0.991277
1.00524 0.994958 0.991348
1.00529 0.995076 0.991271
1.00531 0.99646 0.989919
1.00501 0.998721 0.988043
1.00531 0.996501 0.989753
1.00512 0.999097 0.987424
1.00305 1.00005 0.989651
1.00518 0.999472 0.986877
1.00312 1.00021 0.989355
1.0016 1.00003 0.996583
1.00323 1.00028 0.989125
1.00167 1.00002 0.996558
1.00171 0.99993 0.99321
1.00526 0.99514 0.991171
1.00522 0.994951 0.991278
1.00532 0.996481 0.989776
1.00528 0.994963 0.991279
1.00524 0.994951 0.991238
1.0052 0.999534 0.986743
1.00534 0.99668 0.98952
1.0053 0.994942 0.991168
1.00329 1.00006 0.989221
1.00523 0.999417 0.986784
1.00533 0.997446 0.988704
1.00177 0.999915 0.996619
1.00333 0.999955 0.989248
1.00529 0.999323 0.986742
1.00173 1.00009 0.996688
1.00333 0.999921 0.98924
1.00163 1.00047 0.99662
1.00531 0.996567 0.989763
1.00527 0.995118 0.991221
1.00524 0.99496 0.991342
1.00498 0.998669 0.988129
1.00531 0.996502 0.989897
1.00527 0.995122 0.991252
1.00531 0.996492 0.989928
1.00504 0.998684 0.988005
1.00291 0.999947 0.989981
1.00514 0.999322 0.98707
1.00304 1.00005 0.98966
1.00152 1.00002 0.996652
1.00314 1.0002 0.989361
1.00156 1.00005 0.996612
1.00164 1.00004 0.99657
1.00531 0.996434 0.989916
1.00526 0.995059 0.991244
1.00523 0.994951 0.991213
1.00517 0.999407 0.98696
1.00532 0.996499 0.98978
1.00528 0.994961 0.991284
1.00322 1.00011 0.98931
1.00519 0.999558 0.986737
1.00533 0.996711 0.989524
1.00173 0.999939 0.996564
1.00328 1.00008 0.989218
1.00523 0.999629 0.986553
1.00178 0.999937 0.996645
1.00333 0.999964 0.989241
1.00176 1.0001 0.996683
1.005 0.999154 0.98752
1.00531 0.996378 0.990015
1.00527 0.995155 0.991242
1.00284 0.999858 0.990233
1.00499 0.99864 0.988122
1.0053 0.99654 0.989899
1.00507 0.998643 0.987968
1.00293 0.999922 0.989993
1.00142 1.00001 0.99672
1.00302 1.00006 0.98967
1.00148 1.00003 0.996672
1.00151 1.00007 0.996637
1.00505 0.999316 0.98727
1.00531 0.996341 0.990035
1.00526 0.994964 0.991319
1.00324 1.00004 0.991011
1.00512 0.999454 0.986973
1.00533 0.996514 0.989783
1.00164 0.999988 0.996581
1.00321 1.00013 0.989314
1.00518 0.999584 0.986733
1.00176 0.99994 0.996585
1.00328 1.00011 0.989214
1.00181 0.999946 0.996667
1.00294 0.999848 0.990135
1.00499 0.998935 0.98777
1.00531 0.996189 0.990267
1.0013 0.999981 0.99681
1.00282 0.99985 0.990229
1.005 0.998614 0.988115
1.00292 0.999898 0.990002
1.00137 1 0.996753
1.00144 1.00004 0.996699
1.00315 0.999963 0.991279
1.00505 0.999312 0.987278
1.00531 0.99626 0.990152
1.00099 1.00002 0.99723
1.00308 1.00008 0.989581
1.00509 0.999498 0.986983
1.00166 0.999984 0.996577
1.00319 1.00016 0.989312
1.00179 0.999938 0.996606
1.00127 0.999934 0.993912
1.00297 0.999861 0.990827
1.00499 0.998713 0.988019
1.00132 0.999981 0.996823
1.00283 0.999845 0.990233
1.00137 0.999993 0.99678
1.00076 1.00002 0.994358
1.00305 0.999938 0.990601
1.00502 0.999312 0.987286
1.00123 1.00002 0.995397
1.00303 1.00012 0.989612
1.00171 0.999976 0.99658
1.0013 0.999968 0.996821
1.00283 0.999855 0.990228
1.00128 0.99998 0.996825
1.00107 0.999969 0.995591
1.00294 0.999928 0.989992
1.00155 1.00001 0.996622
1.00133 0.999974 0.996817
1.00139 0.999985 0.99673

TENSORS stress float
0.0024178 -0.000169206 0.000280896
-0.000169206 0.00120817 -4.99054e-05
0.000280896 -4.99054e-05 0.00118125
0.00745612 0.000105759 0.000333688
0.000105759 0.00442263 3.98244e-05
0.000333688 3.98244e-05 0.00443335
0.0020198 -9.92679e-05 0.000115297
-9.92679e-05 0.00095161 -1.93598e-05
0.000115297 -1.93598e-05 0.000911726
0.00232166 -9.47706e-05 0.000267808
-9.47706e-05 0.00112548 -2.83747e-05
0.000267808 -2.83747e-05 0.00110872
0.00242753 -0.000148308 0.000274431
-0.000148308 0.00120421 -4.39136e-05
0.000274431 -4.39136e-05 0.00118088
0.00241231 -0.00017433 0.000291985
-0.00017433 0.00120615 -5.18683e-05
0.000291985 -5.18683e-05 0.00117935
0.00196493 -0.000173247 5.61358e-05
-0.000173247 0.000801505 -1.52692e-05
5.61358e-05 -1.52692e-05 0.000674126
0.00749089 9.88837e-05 -8.31564e-06
9.88837e-05 0.00443597 -2.26902e-06
-8.31564e-06 -2.26902e-06 0.00445138
0.00684807 0.000243981 0.000164994
0.000243981 0.00403955 1.7582e-05
0.000164994 1.7582e-05 0.0040099
0.00690531 2.26037e-05 0.000101002
2.26037e-05 0.00404827 5.87086e-06
0.000101002 5.87086e-06 0.00402895
0.00209043 0.000227254 0.00030877
0.000227254 0.00101332 4.34597e-05
0.00030877 4.34597e-05 0.00099777
0.000261169 0.000267333 2.71637e-05
0.000267333 -0.000231662 2.10762e-05
2.71637e-05 2.10762e-05 -0.000386974
0.00189605 -3.21731e-05 0.000261746
-3.21731e-05 0.000852666 4.40783e-06
0.000261746 4.40783e-06 0.000855506
0.00161946 4.32838e-06 7.15972e-05
4.32838e-06 0.000698531 2.39433e-06
7.15972e-05 2.39433e-06 0.00064926
0.00170535 -9.81513e-05 -6.53664e-05
-9.81513e-05 0.000764049 1.21395e-05
-6.53664e-05 1.21395e-05 0.000703922
0.00196252 -9.34836e-05 8.6556e-05
-9.34836e-05 0.000914894 -5.56668e-06
8.6556e-05 -5.56668e-06 0.000878162
0.00203636 -8.87719e-05 0.000125348
-8.87719e-05 0.000966871 -2.12417e-05
0.000125348 -2.12417e-05 0.000923598
0.0020172 -0.00010422 0.000103129
-0.00010422 0.000945212 -1.47408e-05
0.000103129 -1.47408e-05 0.000907752
0.00206992 -0.000209992 -4.38957e-05
-0.000209992 0.000867661 6.91529e-06
-4.38957e-05 6.91529e-06 0.000749517
0.0064039 -0.000156393 0.000343144
-0.000156393 0.00376538 -1.60101e-05
0.000343144 -1.60101e-05 0.00378761
0.00223124 -7.08009e-05 0.000264642
-7.08009e-05 0.00106785 -2.09362e-05
0.000264642 -2.09362e-05 0.00105441
0.00241699 -0.000122612 0.000272129
-0.000122612 0.00118894 -3.64012e-05
0.000272129 -3.64012e-05 0.00116937
0.00191781 -0.000150511 7.36618e-05
-0.000150511 0.000784331 -1.16176e-05
7.36618e-05 -1.16176e-05 0.000679035
0.00196894 -0.000173052 6.42687e-05
-0.000173052 0.000800971 -1.48681e-05
6.42687e-05 -1.48681e-05 0.000683674
0.00248231 -0.000156546 0.000301423
-0.000156546 0.00124148 -4.88824e-05
0.000301423 -4.88824e-05 0.0012184
0.00197118 -0.000174774 5.08381e-05
-0.000174774 0.000824071 -1.58144e-05
5.08381e-05 -1.58144e-05 0.000682313
0.00207245 -0.00037851 1.96667e-05
-0.00037851 0.000600449 -8.18748e-06
1.96667e-05 -8.18748e-06 0.000355419
0.00745556 8.58874e-05 -0.000342475
8.58874e-05 0.00440228 -3.09401e-05
-0.000342475 -3.09401e-05 0.00442272
0.004496 0.000178902 -0.000156365
0.000178902 0.00253072 -1.85311e-05
-0.000156365 -1.85311e-05 0.00250727
0.00452848 0.000103287 -0.000159547
0.000103287 0.00255567 -1.75715e-05
-0.000159547 -1.75715e-05 0.00253444
0.00749284 2.68485e-05 -3.37587e-06
2.68485e-05 0.00444492 -1.07643e-06
-3.37587e-06 -1.07643e-06 0.00445748
0.000356809 0.000255626 -7.78843e-07
0.000255626 -0.00016927 -1.41353e-06
-7.78843e-07 -1.41353e-06 -0.000325069
0.00196411 7.39517e-05 0.000271386
7.39517e-05 0.000894365 2.67305e-05
0.000271386 2.67305e-05 0.000883423
0.00211208 0.000166309 0.000281032
0.000166309 0.00102209 4.14948e-05
0.000281032 4.14948e-05 0.00099825
0.00290696 0.00023236 0.000166578
0.00023236 0.00139077 2.54227e-05
0.000166578 2.54227e-05 0.00129925
0.00654123 -0.000256206 3.13273e-05
-0.000256206 0.00389826 3.8976e-06
3.13273e-05 3.8976e-06 0.00385025
0.00302682 0.000314856 0.000176394
0.000314856 0.00151592 3.19178e-05
0.000176394 3.19178e-05 0.00140415
0.000307104 0.000244155 2.57204e-05
0.000244155 -0.000193084 2.94014e-05
2.57204e-05 2.94014e-05 -0.00035225
0.000927134 0.00032696 2.16429e-05
0.00032696 -1.15485e-05 7.22543e-06
2.16429e-05 7.22543e-06 -0.000276045
0.00539975 -0.000119718 0.000202033
-0.000119718 0.00319965 2.34482e-05
0.000202033 2.34482e-05 0.00319124
0.00641643 8.71781e-05 3.19739e-06
8.71781e-05 0.00375721 -2.048e-06
3.19739e-06 -2.048e-06 0.00378799
0.00419595 9.77964e-05 -0.000130658
9.77964e-05 0.00233709 -6.21098e-06
-0.000130658 -6.21098e-06 0.00232629
0.00622967 5.73819e-05 0.000333275
5.73819e-05 0.00364205 4.72762e-06
0.000333275 4.72762e-06 0.00367358
0.00151329 9.21819e-05 7.35096e-05
9.21819e-05 0.000634919 4.96624e-06
7.35096e-05 4.96624e-06 0.000590029
0.0004567 1.27119e-05 1.43454e-05
1.27119e-05 -0.000166049 1.63912e-06
1.43454e-05 1.63912e-06 -0.000258141
0.00660472 0.000243186 0.000193098
0.000243186 0.00390722 1.92494e-05
0.000193098 1.92494e-05 0.00388138
0.0028972 8.34143e-05 0.000154917
8.34143e-05 0.00137419 1.05119e-05
0.000154917 1.05119e-05 0.00131237
0.00156884 -9.36561e-05 -8.60398e-05
-9.36561e-05 0.00068306 1.13297e-05
-8.60398e-05 1.13297e-05 0.000625851
0.00161756 -0.000122652 -7.86518e-05
-0.000122652 0.000716715 1.4499e-05
-7.86518e-05 1.4499e-05 0.000654015
0.00176755 -5.84954e-05 -5.31518e-05
-5.84954e-05 0.000797282 1.00581e-05
-5.31518e-05 1.00581e-05 0.000737861
0.00213854 -0.000212528 -0.000151551
-0.000212528 0.000901815 2.91386e-05
-0.000151551 2.91386e-05 0.000796448
0.00402001 -3.04268e-05 -0.000133004
-3.04268e-05 0.00223731 -1.25165e-06
-0.000133004 -1.25165e-06 0.0022268
0.00193358 -7.39482e-05 9.15343e-05
-7.39482e-05 0.00089327 -4.51076e-06
9.15343e-05 -4.51076e-06 0.000860979
0.0021496 -6.59477e-05 0.000132589
-6.59477e-05 0.00103739 -2.00458e-05
0.000132589 -2.00458e-05 0.000992191
0.00200359 -9.94585e-05 9.34465e-05
-9.94585e-05 0.000936599 -9.6004e-06
9.34465e-05 -9.6004e-06 0.000899831
0.00199779 -0.000128361 -3.5507e-05
-0.000128361 0.000823602 2.78162e-06
-3.5507e-05 2.78162e-06 0.000731425
0.00207607 -0.000219873 -5.07364e-05
-0.000219873 0.00088733 7.96817e-06
-5.07364e-05 7.96817e-06 0.000757607
0.00206035 -0.000189143 -3.84566e-05
-0.000189143 0.000857353 5.0273e-06
-3.84566e-05 5.0273e-06 0.000749308
0.00215232 -0.000384836 -1.04218e-05
-0.000384836 0.000649891 2.7705e-06
-1.04218e-05 2.7705e-06 0.000405263
0.00620341 -5.63771e-06 0.000328875
-5.63771e-06 0.00362337 -3.40227e-06
0.000328875 -3.40227e-06 0.00365606
0.0021989 -4.58611e-05 0.000261295
-4.58611e-05 0.00105035 -1.43878e-05
0.000261295 -1.43878e-05 0.00104192
0.00246084 -1.71901e-05 5.61144e-05
-1.71901e-05 0.00112981 -7.52898e-07
5.61144e-05 -7.52898e-07 0.00105806
0.00188641 -0.000121726 6.7075e-05
-0.000121726 0.000768066 -7.51881e-06
6.7075e-05 -7.51881e-06 0.000672722
0.00195597 -0.000163889 7.06585e-05
-0.000163889 0.000797839 -1.38336e-05
7.06585e-05 -1.38336e-05 0.000686748
0.00198963 -0.000244239 5.72735e-06
-0.000244239 0.000465871 -2.42405e-06
5.72735e-06 -2.42405e-06 0.000287257
0.0019921 -0.000334674 1.60361e-05
-0.000334674 0.000509715 -5.67846e-06
1.60361e-05 -5.67846e-06 0.000293972
0.00182906 -0.000117733 0.000272068
-0.000117733 0.000829313 -4.08163e-05
0.000272068 -4.08163e-05 0.000805071
0.00218622 -0.000151981 4.4616e-05
-0.000151981 0.000983008 -1.43153e-05
4.4616e-05 -1.43153e-05 0.000834722
0.00206367 -0.00042249 2.37596e-05
-0.00042249 0.000639793 -9.07027e-06
2.37596e-05 -9.07027e-06 0.000364095
0.00188594 -0.00050573 7.03462e-06
-0.00050573 0.000239653 5.85772e-08
7.03462e-06 5.85772e-08 -5.02233e-05
0.00729328 0.000299569 -0.000378908
0.000299569 0.00431976 -4.53845e-05
-0.000378908 -4.53845e-05 0.00432738
0.00728282 -6.74973e-06 -0.000301787
-6.74973e-06 0.00431428 -2.46329e-05
-0.000301787 -2.46329e-05 0.00432799
0.0073348 0.000160938 -0.000352244
0.000160938 0.00432564 -3.59183e-05
-0.000352244 -3.59183e-05 0.00434635
0.000394262 0.000247093 -2.62882e-05
0.000247093 -0.000138984 -2.09971e-05
-2.62882e-05 -2.09971e-05 -0.000297458
0.00710347 0.000259393 -1.88605e-06
0.000259393 0.00419314 -2.53512e-06
-1.88605e-06 -2.53512e-06 0.0042069
0.00730163 0.000257194 -8.52753e-06
0.000257194 0.00431573 -3.41607e-06
-8.52753e-06 -3.41607e-06 0.00432645
0.000345098 0.000147515 3.21195e-07
0.000147515 -0.000245702 -2.53817e-07
3.21195e-07 -2.53817e-07 -0.000372723
0.00408027 -6.60868e-05 -0.000132657
-6.60868e-05 0.0023163 -7.16322e-06
-0.000132657 -7.16322e-06 0.00228474
0.000299429 0.000223013 7.22586e-07
0.000223013 -0.0002196 -4.51988e-07
7.22586e-07 -4.51988e-07 -0.000368395
0.00184752 0.00026221 6.82106e-05
0.00026221 0.000791039 4.2714e-06
6.82106e-05 4.2714e-06 0.000659243
0.000962009 0.000328968 1.54646e-06
0.000328968 1.14661e-05 1.58043e-08
1.54646e-06 1.58043e-08 -0.000252168
0.0060705 -0.000117305 0.000232198
-0.000117305 0.00362015 2.87308e-05
0.000232198 2.87308e-05 0.00360813
0.000538311 0.000107207 2.33081e-05
0.000107207 5.32392e-06 1.48858e-05
2.33081e-05 1.48858e-05 -8.19175e-05
0.000451052 0.000115195 1.44861e-05
0.000115195 -0.000194111 1.15447e-05
1.44861e-05 1.15447e-05 -0.000313027
0.000458183 0.000178072 1.91513e-05
0.000178072 -0.000160595 1.95018e-05
1.91513e-05 1.95018e-05 -0.000296653
0.00131362 0.000306921 1.5118e-05
0.000306921 3.46259e-05 6.00462e-06
1.5118e-05 6.00462e-06 -0.000190336
0.00326027 0.000263867 0.000163124
0.000263867 0.00170198 2.46935e-05
0.000163124 2.46935e-05 0.00160944
0.00116214 0.000351818 2.41993e-05
0.000351818 6.86067e-05 8.54684e-06
2.41993e-05 8.54684e-06 -0.000192602
0.00081759 0.00030713 1.59561e-05
0.00030713 1.92589e-05 6.47528e-06
1.59561e-05 6.47528e-06 -0.000244943
0.00152647 0.000542626 8.78783e-06
0.000542626 0.000214459 -2.72826e-06
8.78783e-06 -2.72826e-06 -0.000145509
0.00434029 -0.000134764 0.000134975
-0.000134764 0.00250371 1.14268e-05
0.000134975 1.14268e-05 0.00249766
0.00488717 -0.000168424 2.08585e-05
-0.000168424 0.00287035 5.16261e-07
2.08585e-05 5.16261e-07 0.00285367
0.00688559 7.20535e-05 -0.000353602
7.20535e-05 0.0040381 -1.87657e-05
-0.000353602 -1.87657e-05 0.00406707
0.00651759 7.87772e-05 -0.000347143
7.87772e-05 0.0038168 -1.14686e-05
-0.000347143 -1.14686e-05 0.0038488
0.00632639 8.35594e-05 -9.81903e-08
8.35594e-05 0.00370796 -4.15092e-06
-9.81903e-08 -4.15092e-06 0.00373663
0.00407255 3.93782e-05 -0.000143006
3.93782e-05 0.00225896 -8.09737e-06
-0.000143006 -8.09737e-06 0.0022537
0.00156761 4.06887e-05 6.83495e-05
4.06887e-05 0.000542812 2.01726e-06
6.83495e-05 2.01726e-06 0.000470295
0.0043812 0.000159686 -0.000134123
0.000159686 0.00246057 -8.26211e-06
-0.000134123 -8.26211e-06 0.00244136
0.00164717 9.86309e-05 6.85724e-05
9.86309e-05 0.000580413 3.71499e-06
6.85724e-05 3.71499e-06 0.000495256
0.00626142 0.000114882 0.000335612
0.000114882 0.00367555 7.38518e-06
0.000335612 7.38518e-06 0.00369955
0.000344274 1.03219e-05 1.77864e-05
1.03219e-05 -0.000231655 9.30589e-07
1.77864e-05 9.30589e-07 -0.000319221
0.00288087 4.54087e-05 0.000154176
4.54087e-05 0.00137 6.90737e-06
0.000154176 6.90737e-06 0.00131487
0.00113719 7.69343e-05 1.05781e-05
7.69343e-05 -5.96146e-05 4.60035e-07
1.05781e-05 4.60035e-07 -0.000195564
0.00282332 0.00013299 0.000160026
0.00013299 0.00132265 1.42376e-05
0.000160026 1.42376e-05 0.00125249
0.00127392 0.00016245 5.95996e-06
0.00016245 -3.36752e-05 1.27889e-06
5.95996e-06 1.27889e-06 -0.000193483
0.00191086 4.0261e-05 -0.000260302
4.0261e-05 0.000859969 3.52283e-06
-0.000260302 3.52283e-06 0.000865866
0.00156136 -2.46134e-05 -7.25971e-05
-2.46134e-05 0.000669006 3.46425e-06
-7.25971e-05 3.46425e-06 0.000618604
0.00180871 -2.60345e-05 -4.70039e-05
-2.60345e-05 0.000820928 8.83737e-06
-4.70039e-05 8.83737e-06 0.000759816
0.00157344 -0.000111552 -8.73111e-05
-0.000111552 0.000687973 1.40774e-05
-8.73111e-05 1.40774e-05 0.000628043
0.00211217 -0.000106177 -0.00013971
-0.000106177 0.000884854 1.38235e-05
-0.00013971 1.38235e-05 0.000805879
0.00216015 -0.000174822 -0.000146342
-0.000174822 0.000907194 2.44875e-05
-0.000146342 2.44875e-05 0.000813686
0.00214737 -0.00023952 -0.00015774
-0.00023952 0.000928763 3.1368e-05
-0.00015774 3.1368e-05 0.000810369
0.00222873 -0.000391293 -3.67214e-05
-0.000391293 0.000697838 1.25702e-05
-3.67214e-05 1.25702e-05 0.000453621
0.00630353 -0.00011426 2.47872e-06
-0.00011426 0.00370068 -2.02378e-06
2.47872e-06 -2.02378e-06 0.00372506
0.00183017 2.23955e-05 9.89503e-05
2.23955e-05 0.000819242 -5.23161e-06
9.89503e-05 -5.23161e-06 0.000797504
0.00117975 -1.514e-05 -7.07241e-05
-1.514e-05 0.000302826 2.47722e-06
-7.07241e-05 2.47722e-06 0.000230566
0.00195206 -8.5367e-05 -3.85381e-05
-8.5367e-05 0.000800623 3.42948e-06
-3.85381e-05 3.42948e-06 0.000716759
0.00488493 -8.39507e-05 0.000287792
-8.39507e-05 0.00278446 -2.38997e-05
0.000287792 -2.38997e-05 0.00277854
0.00271972 -0.000224726 -4.94594e-05
-0.000224726 0.00131334 5.18178e-06
-4.94594e-05 5.18178e-06 0.00118239
0.00204478 -0.000160057 -3.57223e-05
-0.000160057 0.000847487 3.62792e-06
-3.57223e-05 3.62792e-06 0.000747965
0.00204927 -0.000244844 -9.16992e-06
-0.000244844 0.000500417 1.78011e-06
-9.16992e-06 1.78011e-06 0.000326449
0.00216359 -0.000433492 -9.19476e-06
-0.000433492 0.000708438 2.70053e-06
-9.19476e-06 2.70053e-06 0.000431552
0.00207177 -0.000338262 -9.80055e-06
-0.000338262 0.000560566 2.63981e-06
-9.80055e-06 2.63981e-06 0.000342766
0.00191671 -0.000507734 9.27483e-07
-0.000507734 0.00026073 -2.4338e-07
9.27483e-07 -2.4338e-07 -2.88811e-05
0.000377393 7.72782e-06 1.86339e-05
7.72782e-06 -0.000213496 -2.21113e-07
1.86339e-05 -2.21113e-07 -0.000297215
0.00180458 -1.29986e-05 5.85977e-05
-1.29986e-05 0.000706235 -2.52125e-06
5.85977e-05 -2.52125e-06 0.000625951
0.00194036 -8.41614e-05 7.96497e-06
-8.41614e-05 0.000460328 3.63134e-08
7.96497e-06 3.63134e-08 0.000341822
0.00201776 -0.000193932 6.54751e-06
-0.000193932 0.000489059 -5.72016e-07
6.54751e-06 -5.72016e-07 0.000336983
0.00201753 -0.000292489 1.08143e-05
-0.000292489 0.000495333 -3.58832e-06
1.08143e-05 -3.58832e-06 0.000303442
0.0020567 -0.000349185 -3.00709e-07
-0.000349185 0.00019354 -1.27327e-07
-3.00709e-07 -1.27327e-07 1.46938e-05
0.00688646 5.81024e-05 0.000258762
5.81024e-05 0.00408698 -2.20911e-05
0.000258762 -2.20911e-05 0.00409011
0.00183945 -0.000462181 5.86938e-06
-0.000462181 0.000150858 2.89995e-08
5.86938e-06 2.89995e-08 -0.000101834
0.000258274 -0.000211491 2.09038e-05
-0.000211491 -0.000248286 -2.41794e-05
2.09038e-05 -2.41794e-05 -0.000392882
0.00104665 -0.000356294 2.28374e-05
-0.000356294 6.73531e-05 -1.10594e-05
2.28374e-05 -1.10594e-05 -0.000218425
0.00201597 -0.000570063 9.15273e-06
-0.000570063 0.000389804 2.00688e-07
9.15273e-06 2.00688e-07 5.14603e-05
0.00202059 -0.000575313 2.40287e-06
-0.000575313 0.000220526 3.65167e-06
2.40287e-06 3.65167e-06 -4.91041e-05
0.000423259 -0.000174667 2.31033e-05
-0.000174667 -9.65119e-05 -1.97132e-05
2.31033e-05 -1.97132e-05 -0.000215049
0.000697763 -0.000155261 -9.44265e-07
-0.000155261 0.000127006 -2.0578e-06
-9.44265e-07 -2.0578e-06 -0.000131301
0.00721196 0.000285498 -0.000383949
0.000285498 0.00426809 -4.19843e-05
-0.000383949 -4.19843e-05 0.00427848
0.00731955 0.000247872 -0.000366356
0.000247872 0.00432541 -4.23956e-05
-0.000366356 -4.23956e-05 0.00433972
0.000317679 0.000145751 -1.79192e-05
0.000145751 -0.000264559 -1.42093e-05
-1.79192e-05 -1.42093e-05 -0.000392152
0.00653415 -8.48597e-05 -0.000245914
-8.48597e-05 0.00387585 -1.92404e-05
-0.000245914 -1.92404e-05 0.00387903
0.000251661 0.000218468 -2.23851e-05
0.000218468 -0.000227427 -2.29003e-05
-2.23851e-05 -2.29003e-05 -0.00037004
0.000281181 0.000209356 -2.12295e-05
0.000209356 -0.000230158 -1.96681e-05
-2.12295e-05 -1.96681e-05 -0.000379137
0.00100767 0.000331045 -2.35471e-05
0.000331045 3.87817e-05 -9.1282e-06
-2.35471e-05 -9.1282e-06 -0.000223782
0.00593332 -0.000110133 -1.0941e-05
-0.000110133 0.00352463 2.18202e-06
-1.0941e-05 2.18202e-06 0.00351855
0.000577145 8.66425e-05 1.0838e-06
8.66425e-05 3.35291e-05 4.51216e-07
1.0838e-06 4.51216e-07 -5.07163e-05
0.00170508 0.000160783 7.18183e-05
0.000160783 0.000608781 6.59495e-06
7.18183e-05 6.59495e-06 0.000506688
0.00168999 0.000227637 7.44679e-05
0.000227637 0.000633363 7.92992e-06
7.44679e-05 7.92992e-06 0.000512764
0.001284 0.000305622 -5.49183e-08
0.000305622 2.11524e-05 -3.61427e-07
-5.49183e-08 -3.61427e-07 -0.000204861
0.000379853 0.000193326 -7.84763e-07
0.000193326 -0.000126506 -2.57988e-07
-7.84763e-07 -2.57988e-07 -0.000250714
0.00111867 0.000347273 9.45101e-07
0.000347273 4.07804e-05 1.97513e-07
9.45101e-07 1.97513e-07 -0.000219967
0.000771238 0.000293344 9.33495e-07
0.000293344 -8.21477e-06 -7.29677e-07
9.33495e-07 -7.29677e-07 -0.000266268
0.00165889 0.000563402 -1.36457e-06
0.000563402 0.000286204 -5.93079e-07
-1.36457e-06 -5.93079e-07 -7.62504e-05
0.000408941 0.000161625 2.09343e-05
0.000161625 -9.14747e-05 1.82585e-05
2.09343e-05 1.82585e-05 -0.000201112
0.000729727 4.68e-05 1.36962e-05
4.68e-05 0.000148389 1.40083e-05
1.36962e-05 1.40083e-05 7.85431e-05
0.00138782 0.000275441 3.73803e-06
0.000275441 0.000590505 2.93883e-06
3.73803e-06 2.93883e-06 0.000354697
0.00133659 0.000265227 1.08884e-05
0.000265227 1.28558e-05 4.19544e-06
1.08884e-05 4.19544e-06 -0.000189485
0.00127386 0.000339228 2.05398e-05
0.000339228 6.2818e-05 7.7964e-06
2.05398e-05 7.7964e-06 -0.000182973
0.00205745 0.000494212 4.67297e-06
0.000494212 0.000265598 -4.14205e-07
4.67297e-06 -4.14205e-07 7.71655e-06
0.000574001 0.000250584 1.09553e-05
0.000250584 -3.42174e-05 5.75308e-06
1.09553e-05 5.75308e-06 -0.000283194
0.00204872 0.000596067 5.58042e-06
0.000596067 0.000424497 -1.74352e-06
5.58042e-06 -1.74352e-06 8.82661e-05
0.00148558 0.000538559 4.12847e-06
0.000538559 0.000324285 -3.9571e-06
4.12847e-06 -3.9571e-06 -6.28019e-05
0.00164791 0.00062186 -5.94888e-06
0.00062186 0.000181106 -6.00371e-06
-5.94888e-06 -6.00371e-06 -0.000186073
0.0038033 -0.000139316 9.07564e-05
-0.000139316 0.00215114 6.4452e-06
9.07564e-05 6.4452e-06 0.00214461
0.00422947 -0.000178226 1.97039e-05
-0.000178226 0.00244154 -1.39871e-06
1.97039e-05 -1.39871e-06 0.00242398
0.00471211 -0.000229014 -0.000102019
-0.000229014 0.00277384 -1.08073e-05
-0.000102019 -1.08073e-05 0.00274071
0.000550993 -0.000162421 2.29721e-05
-0.000162421 7.16308e-06 -1.6676e-05
2.29721e-05 -1.6676e-05 -9.70824e-05
0.00619493 0.000107565 0.000216748
0.000107565 0.00368344 -2.14039e-05
0.000216748 -2.14039e-05 0.00367569
0.00709227 0.000235017 -0.000380573
0.000235017 0.00418514 -3.43177e-05
-0.000380573 -3.43177e-05 0.00420323
0.00662922 0.000104782 -0.000348463
0.000104782 0.00388396 -1.61588e-05
-0.000348463 -1.61588e-05 0.00391357
0.000335432 0.00010327 -1.78774e-05
0.00010327 -0.000254543 -6.25194e-06
-1.78774e-05 -6.25194e-06 -0.000359067
0.000332402 4.43876e-05 -1.81582e-05
4.43876e-05 -0.000239946 -2.6444e-06
-1.81582e-05 -2.6444e-06 -0.000332807
0.00628479 -3.63042e-06 -0.000332662
-3.63042e-06 0.0036724 -3.13564e-06
-0.000332662 -3.13564e-06 0.00370545
0.00620227 8.83004e-07 4.05126e-08
8.83004e-07 0.00362211 -1.19218e-06
4.05126e-08 -1.19218e-06 0.0036552
0.000327446 9.49227e-07 2.04245e-09
9.49227e-07 -0.000245188 2.48986e-07
2.04245e-09 2.48986e-07 -0.000331034
0.00157331 4.40763e-05 6.86337e-05
4.40763e-05 0.000539496 3.26576e-06
6.86337e-05 3.26576e-06 0.000463449
0.00111062 8.04548e-05 -3.85822e-08
8.04548e-05 -8.23912e-05 -1.7451e-07
-3.85822e-08 -1.7451e-07 -0.000219263
0.000369012 9.39136e-05 -6.78368e-07
9.39136e-05 -0.000239747 -3.5218e-07
-6.78368e-07 -3.5218e-07 -0.000351803
0.00123765 0.000164223 -1.86185e-07
0.000164223 -5.05928e-05 -1.08894e-07
-1.86185e-07 -1.08894e-07 -0.000211899
0.000319172 -3.27664e-05 1.83638e-05
-3.27664e-05 -0.000250886 -6.66965e-07
1.83638e-05 -6.66965e-07 -0.00033362
0.00108223 3.41298e-05 1.04548e-05
3.41298e-05 -8.38164e-05 2.19836e-07
1.04548e-05 2.19836e-07 -0.00021322
0.0011725 0.000120503 8.35344e-06
0.000120503 -6.27726e-05 1.09917e-06
8.35344e-06 1.09917e-06 -0.000208749
0.00200186 0.000127601 1.65035e-06
0.000127601 7.56056e-05 1.6656e-07
1.65035e-06 1.6656e-07 -1.161e-05
0.00132969 0.000214292 7.21969e-06
0.000214292 -7.17936e-06 2.46711e-06
7.21969e-06 2.46711e-06 -0.000186835
0.00213008 0.00028574 1.57232e-06
0.00028574 0.000164858 -7.00062e-07
1.57232e-06 -7.00062e-07 2.92276e-05
0.00622317 -7.61445e-05 -0.000334818
-7.61445e-05 0.00364368 4.27207e-06
-0.000334818 4.27207e-06 0.00367211
0.00145394 -0.000163529 -7.23137e-05
-0.000163529 0.00062176 8.90089e-06
-7.23137e-05 8.90089e-06 0.000564948
-0.00022935 -9.01605e-06 -1.13943e-05
-9.01605e-06 -0.000589972 1.15417e-06
-1.13943e-05 1.15417e-06 -0.00068998
0.00207629 -7.61501e-05 -0.000138544
-7.61501e-05 0.000872009 9.51857e-06
-0.000138544 9.51857e-06 0.000799105
0.00750993 0.000219906 -5.30925e-05
0.000219906 0.00446727 3.34668e-06
-5.30925e-05 3.34668e-06 0.00442238
0.00306849 -0.000293503 -0.00016364
-0.000293503 0.00154067 3.16407e-05
-0.00016364 3.16407e-05 0.00141802
0.00215367 -0.000139711 -0.00014304
-0.000139711 0.000903192 1.90821e-05
-0.00014304 1.90821e-05 0.000817913
0.0020942 -0.000245278 -2.69883e-05
-0.000245278 0.000524967 5.12631e-06
-2.69883e-05 5.12631e-06 0.000355674
0.00212889 -0.000340506 -3.24819e-05
-0.000340506 0.000595446 1.08505e-05
-3.24819e-05 1.08505e-05 0.000375921
0.00223749 -0.000441121 -3.96459e-05
-0.000441121 0.000761529 1.37029e-05
-3.96459e-05 1.37029e-05 0.000484354
0.00193945 -0.00050895 -5.65189e-06
-0.00050895 0.000276914 -3.68384e-07
-5.65189e-06 -3.68384e-07 -1.23036e-05
0.000321085 3.03614e-06 -2.17677e-08
3.03614e-06 -0.00024727 3.92531e-07
-2.17677e-08 3.92531e-07 -0.000331992
0.00192112 -9.50707e-05 -3.76003e-05
-9.50707e-05 0.000788405 6.31278e-07
-3.76003e-05 6.31278e-07 0.000709654
0.00160047 -7.99917e-05 -1.22794e-05
-7.99917e-05 0.000242455 7.73833e-07
-1.22794e-05 7.73833e-07 0.000120051
0.00198417 -0.000191378 -1.07105e-05
-0.000191378 0.000462338 1.82392e-06
-1.07105e-05 1.82392e-06 0.000307158
0.00713078 5.63238e-05 3.28336e-06
5.63238e-05 0.00424374 3.8614e-07
3.28336e-06 3.8614e-07 0.00424492
0.00171776 -0.000213008 6.94002e-06
-0.000213008 0.000699966 4.97137e-07
6.94002e-06 4.97137e-07 0.000547695
0.00147881 -0.000382569 -1.20658e-06
-0.000382569 0.00033978 -1.1381e-06
-1.20658e-06 -1.1381e-06 5.5171e-05
0.00206777 -0.000296863 -9.92477e-06
-0.000296863 0.000523991 2.6527e-06
-9.92477e-06 2.6527e-06 0.00033104
0.00212778 -0.000357477 9.34692e-07
-0.000357477 0.000234108 -5.7397e-07
9.34692e-07 -5.7397e-07 6.11852e-05
0.00200036 -0.000568341 1.46862e-06
-0.000568341 0.000378289 -3.40656e-08
1.46862e-06 -3.40656e-08 4.16503e-05
0.00194071 -0.000465028 2.77323e-07
-0.000465028 0.000219872 -1.71689e-07
2.77323e-07 -1.71689e-07 -3.36739e-05
0.00208608 -0.000579547 8.84373e-07
-0.000579547 0.000267588 2.28965e-07
8.84373e-07 2.28965e-07 -2.84805e-06
0.000429505 -0.000187974 1.82195e-06
-0.000187974 -9.80201e-05 2.48647e-07
1.82195e-06 2.48647e-07 -0.000216111
0.00081243 -0.000222159 1.08374e-06
-0.000222159 0.000191988 7.64742e-07
1.08374e-06 7.64742e-07 -6.45638e-05
0.00108822 -3.94816e-05 1.06396e-05
-3.94816e-05 -7.45789e-05 -2.64953e-07
1.06396e-05 -2.64953e-07 -0.000203855
0.00199413 -0.000135095 6.93195e-06
-0.000135095 0.000488406 -1.05074e-07
6.93195e-06 -1.05074e-07 0.000356757
0.00182701 -0.000138023 2.62713e-06
-0.000138023 -1.0397e-05 -2.56951e-07
2.62713e-06 -2.56951e-07 -0.000114277
0.00208708 -0.000288143 -6.21253e-07
-0.000288143 0.000172525 1.12181e-06
-6.21253e-07 1.12181e-06 4.02829e-05
0.00188461 -0.000413843 4.03828e-07
-0.000413843 0.000124026 4.04616e-07
4.03828e-07 4.04616e-07 -8.85246e-05
0.00218304 -0.000398356 5.15302e-06
-0.000398356 0.000181597 -1.38453e-06
5.15302e-06 -1.38453e-06 4.41586e-05
0.000213902 -0.000189001 2.04721e-05
-0.000189001 -0.00024479 -2.32708e-05
2.04721e-05 -2.32708e-05 -0.000381112
0.00206755 -0.000527579 1.93624e-06
-0.000527579 0.000198282 2.03139e-06
1.93624e-06 2.03139e-06 -2.2539e-05
0.00100645 -0.00030974 1.53129e-05
-0.00030974 0.000135874 -9.32148e-06
1.53129e-05 -9.32148e-06 -0.000134325
0.00170815 -0.000610394 1.58383e-05
-0.000610394 0.000281328 -3.42643e-07
1.58383e-05 -3.42643e-07 -0.000113075
0.00231399 -0.000648272 2.31531e-06
-0.000648272 0.000477204 2.8823e-06
2.31531e-06 2.8823e-06 0.000143204
0.00235343 -0.000618379 -3.39814e-07
-0.000618379 0.000402048 3.70291e-06
-3.39814e-07 3.70291e-06 0.000157101
0.000572203 -0.000215375 2.07314e-06
-0.000215375 1.42303e-05 -4.92097e-06
2.07314e-06 -4.92097e-06 -0.000257973
0.00111783 -0.00017326 1.8698e-06
-0.00017326 0.000408896 -1.61825e-06
1.8698e-06 -1.61825e-06 0.000177033
0.0012028 -0.000316133 -2.2048e-06
-0.000316133 0.000437937 -1.26538e-07
-2.2048e-06 -1.26538e-07 0.000117566
0.000336817 0.00012213 -1.6853e-05
0.00012213 -0.000262459 -1.10927e-05
-1.6853e-05 -1.10927e-05 -0.000383266
0.00540743 -0.000148971 -0.000175336
-0.000148971 0.00319151 -1.39251e-05
-0.000175336 -1.39251e-05 0.00318062
0.000377642 7.63629e-05 -1.75506e-05
7.63629e-05 -9.21144e-05 -1.44065e-05
-1.75506e-05 -1.44065e-05 -0.00016979
0.000298688 0.000177577 -1.97483e-05
0.000177577 -0.000252086 -1.74887e-05
-1.97483e-05 -1.74887e-05 -0.000389388
0.00125111 0.000304541 -1.64209e-05
0.000304541 4.79991e-06 -6.62837e-06
-1.64209e-05 -6.62837e-06 -0.000222343
0.000308262 0.000188044 -2.29587e-05
0.000188044 -0.000177899 -2.11833e-05
-2.29587e-05 -2.11833e-05 -0.000300488
0.000786557 0.000286073 -1.52556e-05
0.000286073 3.66888e-06 -8.39605e-06
-1.52556e-05 -8.39605e-06 -0.000249855
0.00112549 0.000344841 -2.49917e-05
0.000344841 4.94473e-05 -8.90044e-06
-2.49917e-05 -8.90044e-06 -0.000210782
0.00180927 0.000586913 -9.40606e-06
0.000586913 0.00036763 1.44978e-06
-9.40606e-06 1.44978e-06 2.06762e-06
0.000464052 0.000162114 -3.45971e-06
0.000162114 -6.58204e-05 1.64594e-06
-3.45971e-06 1.64594e-06 -0.000167083
0.000385662 2.46368e-05 1.49788e-06
2.46368e-05 -5.9813e-05 3.87442e-07
1.49788e-06 3.87442e-07 -0.000128965
0.000785686 0.000187008 1.45904e-06
0.000187008 0.000186446 7.17948e-08
1.45904e-06 7.17948e-08 -2.80177e-05
0.00130205 0.000264073 -2.26262e-07
0.000264073 -2.51078e-06 -3.08652e-07
-2.26262e-07 -3.08652e-07 -0.000205992
0.00123442 0.000335893 2.22594e-07
0.000335893 4.30621e-05 -2.8215e-07
2.22594e-07 -2.8215e-07 -0.000202997
0.00203669 0.000492497 -3.75347e-07
0.000492497 0.000251194 -1.60926e-07
-3.75347e-07 -1.60926e-07 -6.66801e-06
0.000684125 0.000246173 -4.38335e-07
0.000246173 3.24034e-05 -9.18342e-09
-4.38335e-07 -9.18342e-09 -0.000209831
0.00203047 0.000590243 -8.10815e-07
0.000590243 0.000412951 -4.51235e-07
-8.10815e-07 -4.51235e-07 7.69071e-05
0.00153297 0.000552401 -4.1208e-07
0.000552401 0.000337459 -1.42217e-06
-4.1208e-07 -1.42217e-06 -5.47327e-05
0.00164808 0.000632663 -1.19911e-06
0.000632663 0.000159412 2.40774e-06
-1.19911e-06 2.40774e-06 -0.000206805
0.00050851 5.91802e-06 4.56241e-06
5.91802e-06 2.23885e-05 1.26238e-05
4.56241e-06 1.26238e-05 -3.49863e-05
0.00115908 0.00023239 5.51765e-06
0.00023239 0.000392101 2.12155e-06
5.51765e-06 2.12155e-06 0.000150724
0.0010119 0.000127806 3.57059e-06
0.000127806 0.000342402 3.63625e-06
3.57059e-06 3.63625e-06 0.000160923
0.000410689 0.000209153 -1.67357e-06
0.000209153 -3.5229e-05 2.62798e-06
-1.67357e-06 2.62798e-06 -0.00030793
0.00209173 0.000434664 2.18775e-06
0.000434664 0.000224962 -1.89076e-06
2.18775e-06 -1.89076e-06 1.01168e-05
0.00200823 0.000546386 5.10065e-06
0.000546386 0.000312859 -4.74368e-07
5.10065e-06 -4.74368e-07 1.23504e-05
0.00218548 0.000559623 5.79728e-07
0.000559623 0.000261435 -1.41261e-06
5.79728e-07 -1.41261e-06 2.08817e-05
0.000988982 0.000421744 -2.80982e-07
0.000421744 9.83942e-05 -2.49937e-06
-2.80982e-07 -2.49937e-06 -0.000245694
0.00239944 0.000698336 -5.48794e-06
0.000698336 0.000546989 -3.27201e-06
-5.48794e-06 -3.27201e-06 0.000211989
0.00206068 0.000719255 -8.35878e-06
0.000719255 0.000559147 -1.01896e-05
-8.35878e-06 -1.01896e-05 0.000108051
0.0020859 0.00067774 -2.65155e-06
0.00067774 0.000335366 -2.92423e-06
-2.65155e-06 -2.92423e-06 -1.3842e-05
0.000590302 6.74516e-05 9.75905e-07
6.74516e-05 0.000102592 6.18591e-06
9.75905e-07 6.18591e-06 7.27794e-06
0.000470542 1.48775e-06 2.38216e-06
1.48775e-06 -1.07949e-05 9.25398e-06
2.38216e-06 9.25398e-06 -5.01175e-05
0.00333811 -0.000127116 6.28005e-05
-0.000127116 0.00184441 5.07825e-06
6.28005e-05 5.07825e-06 0.00184085
0.00368052 -0.000159786 1.05351e-05
-0.000159786 0.00207774 -1.00995e-06
1.05351e-05 -1.00995e-06 0.00206526
0.00408421 -0.000201286 -7.13883e-05
-0.000201286 0.00235345 -6.42436e-06
-7.13883e-05 -6.42436e-06 0.0023289
0.000419622 -0.000157697 2.3867e-05
-0.000157697 -5.60009e-05 -1.59474e-05
2.3867e-05 -1.59474e-05 -0.00014547
0.00553932 0.000138398 0.000175751
0.000138398 0.00328322 -1.95659e-05
0.000175751 -1.95659e-05 0.00326838
0.000480666 -0.000169993 2.26033e-06
-0.000169993 -4.36514e-05 7.44072e-07
2.26033e-06 7.44072e-07 -0.000149976
0.0063904 8.53198e-05 6.2974e-06
8.53198e-05 0.00380067 3.57929e-07
6.2974e-06 3.57929e-07 0.0037958
0.000357068 0.000119188 -1.7763e-05
0.000119188 -0.000246674 -8.69949e-06
-1.7763e-05 -8.69949e-06 -0.000361429
0.000328155 3.61108e-05 -1.66799e-05
3.61108e-05 -0.000250871 -3.43534e-06
-1.66799e-05 -3.43534e-06 -0.000347472
0.00122904 0.000166462 -6.65153e-06
0.000166462 -5.49662e-05 -1.44952e-06
-6.65153e-06 -1.44952e-06 -0.000217659
0.00107776 8.28207e-05 -1.04603e-05
8.28207e-05 -0.000108572 -7.8335e-07
-1.04603e-05 -7.8335e-07 -0.000246221
0.000378527 -7.43865e-06 -1.84992e-05
-7.43865e-06 -0.000215636 -7.19151e-07
-1.84992e-05 -7.19151e-07 -0.000299841
0.00629778 -0.000102583 -0.000341861
-0.000102583 0.00369535 6.12563e-06
-0.000341861 6.12563e-06 0.00372209
0.000367795 -3.11952e-06 6.94479e-08
-3.11952e-06 -0.000221121 -7.25323e-07
6.94479e-08 -7.25323e-07 -0.000303664
0.00106783 3.93757e-05 -9.59112e-08
3.93757e-05 -9.42492e-05 1.21439e-07
-9.59112e-08 1.21439e-07 -0.000224156
0.00117503 0.000122678 -1.03034e-07
0.000122678 -6.67997e-05 9.73667e-08
-1.03034e-07 9.73667e-08 -0.00021394
0.00197711 0.0001254 -1.10814e-07
0.0001254 6.55468e-05 2.29631e-07
-1.10814e-07 2.29631e-07 -2.1944e-05
0.00129646 0.000214397 -3.64664e-07
0.000214397 -2.183e-05 -2.76249e-07
-3.64664e-07 -2.76249e-07 -0.000202848
0.0020675 0.000281548 -3.38392e-07
0.000281548 0.000127662 3.6162e-08
-3.38392e-07 3.6162e-08 -7.60377e-06
0.00105359 -4.50008e-06 1.047e-05
-4.50008e-06 -9.63784e-05 -2.44488e-07
1.047e-05 -2.44488e-07 -0.000224031
0.00198822 6.34361e-05 2.78826e-06
6.34361e-05 8.24827e-05 1.2407e-07
2.78826e-06 1.2407e-07 1.60252e-06
0.00203712 0.000199267 8.83436e-07
0.000199267 8.84111e-05 -1.27078e-07
8.83436e-07 -1.27078e-07 -1.64462e-05
0.00219172 0.000154814 5.61227e-06
0.000154814 8.46407e-05 7.36249e-07
5.61227e-06 7.36249e-07 5.15361e-05
0.00213686 0.000367256 2.22486e-06
0.000367256 0.000204083 -8.65979e-07
2.22486e-06 -8.65979e-07 3.02685e-05
0.00208781 0.000305817 3.84561e-06
0.000305817 5.10021e-05 1.13426e-06
3.84561e-06 1.13426e-06 -3.6916e-05
0.000357805 -4.11012e-06 -1.76346e-05
-4.11012e-06 -0.000220611 5.00809e-07
-1.76346e-05 5.00809e-07 -0.000307583
0.00201911 -5.05919e-05 -0.000137232
-5.05919e-05 0.000840004 6.24436e-06
-0.000137232 6.24436e-06 0.000773466
0.00123784 -7.55047e-05 -1.9173e-05
-7.55047e-05 1.05023e-05 1.33629e-06
-1.9173e-05 1.33629e-06 -0.000116217
0.00193272 -0.000188412 -2.52625e-05
-0.000188412 0.000424395 3.6849e-06
-2.52625e-05 3.6849e-06 0.000266218
0.00742752 2.48162e-05 -0.000306122
2.48162e-05 0.00442474 3.18795e-05
-0.000306122 3.18795e-05 0.00442927
0.00349425 -0.000294408 -0.000178842
-0.000294408 0.00182684 2.86384e-05
-0.000178842 2.86384e-05 0.00170913
0.00178281 -0.000419873 -3.17884e-05
-0.000419873 0.000541649 1.17388e-05
-3.17884e-05 1.17388e-05 0.000252125
0.00210717 -0.000300318 -3.02394e-05
-0.000300318 0.000545401 8.26098e-06
-3.02394e-05 8.26098e-06 0.000351628
0.00219662 -0.000365464 -2.22051e-06
-0.000365464 0.000273668 -8.29378e-07
-2.22051e-06 -8.29378e-07 0.00010669
0.00204832 -0.000468176 -4.02475e-06
-0.000468176 0.000294729 4.96148e-07
-4.02475e-06 4.96148e-07 4.0299e-05
0.0020088 -0.000569269 -7.27687e-06
-0.000569269 0.000380144 -8.6188e-07
-7.27687e-06 -8.6188e-07 4.46672e-05
0.00214553 -0.000583631 -8.05312e-07
-0.000583631 0.000309739 -3.03343e-06
-8.05312e-07 -3.03343e-06 3.84962e-05
0.000445848 -0.000200081 -2.29467e-05
-0.000200081 -8.57538e-05 2.06551e-05
-2.29467e-05 2.06551e-05 -0.000209026
0.000527159 -0.000222181 2.68673e-07
-0.000222181 2.16173e-05 2.06508e-06
2.68673e-07 2.06508e-06 -0.00023986
0.0011389 -3.48986e-05 5.17277e-07
-3.48986e-05 -4.28912e-05 2.65453e-08
5.17277e-07 2.65453e-08 -0.000167382
0.00199138 -0.000135555 -1.09389e-05
-0.000135555 0.000484649 1.45946e-06
-1.09389e-05 1.45946e-06 0.000353272
0.00188753 -0.000135636 1.41246e-06
-0.000135636 2.68228e-05 -2.16819e-07
1.41246e-06 -2.16819e-07 -7.20911e-05
0.00199314 -0.000285982 -2.43188e-06
-0.000285982 0.000113344 8.68407e-07
-2.43188e-06 8.68407e-07 -2.88744e-05
0.000393182 -0.000212601 5.0583e-07
-0.000212601 -0.000131644 5.53121e-07
5.0583e-07 5.53121e-07 -0.000269492
0.000759868 -0.000308863 -1.59922e-06
-0.000308863 -1.78464e-05 3.29426e-07
-1.59922e-06 3.29426e-07 -0.000293351
0.00169274 -0.000606296 2.14656e-06
-0.000606296 0.000277518 -2.04592e-07
2.14656e-06 -2.04592e-07 -0.000117905
0.00195672 -0.000415579 -2.6254e-06
-0.000415579 0.000177315 8.08215e-07
-2.6254e-06 8.08215e-07 -3.83817e-05
0.00214695 -0.00039812 2.1135e-06
-0.00039812 0.000150292 -6.65246e-07
2.1135e-06 -6.65246e-07 1.94248e-05
0.00235643 -0.000655609 -4.26748e-07
-0.000655609 0.000499822 -1.05566e-06
-4.26748e-07 -1.05566e-06 0.000167862
0.002099 -0.000530381 5.08687e-07
-0.000530381 0.000218304 1.09611e-07
5.08687e-07 1.09611e-07 -3.39541e-06
0.00216867 -0.000609458 6.85809e-07
-0.000609458 0.000277804 9.56415e-07
6.85809e-07 9.56415e-07 3.18378e-05
0.000589856 -0.000218043 -1.22835e-07
-0.000218043 3.14554e-05 -8.57218e-07
-1.22835e-07 -8.57218e-07 -0.000244043
0.000835954 -0.000239915 -2.65095e-07
-0.000239915 0.00017643 -3.75464e-07
-2.65095e-07 -3.75464e-07 -0.000119209
0.000706345 -0.00017065 1.79413e-06
-0.00017065 0.000165768 5.72575e-07
1.79413e-06 5.72575e-07 -7.48025e-05
0.00183931 -6.46189e-05 2.83807e-06
-6.46189e-05 1.90248e-06 -3.15956e-07
2.83807e-06 -3.15956e-07 -9.17244e-05
0.00198254 -0.000206019 3.63816e-07
-0.000206019 8.52601e-05 5.54325e-07
3.63816e-07 5.54325e-07 -2.74145e-05
0.00201614 -0.000144572 8.11453e-06
-0.000144572 -9.12579e-06 -5.6043e-07
8.11453e-06 -5.6043e-07 -5.78509e-05
0.00215907 -0.000327205 2.74896e-06
-0.000327205 0.000109518 -1.2292e-06
2.74896e-06 -1.2292e-06 2.03754e-05
0.00202892 -0.00047278 1.13066e-06
-0.00047278 0.00011981 1.43319e-06
1.13066e-06 1.43319e-06 -5.35134e-05
0.00222104 -0.000416342 4.17938e-06
-0.000416342 0.000128438 -9.20446e-07
4.17938e-06 -9.20446e-07 4.80944e-05
0.000648041 -0.000254944 9.0934e-06
-0.000254944 8.04816e-06 -7.2745e-06
9.0934e-06 -7.2745e-06 -0.000253272
0.0021171 -0.000565051 9.51078e-07
-0.000565051 0.000178767 2.81998e-07
9.51078e-07 2.81998e-07 -1.72273e-05
0.00152452 -0.00057997 1.40936e-05
-0.00057997 0.000331635 -2.70091e-06
1.40936e-05 -2.70091e-06 -8.40751e-05
0.00205111 -0.000745847 8.215e-06
-0.000745847 0.000394917 4.46152e-06
8.215e-06 4.46152e-06 -3.23974e-05
0.00241251 -0.00068061 5.4284e-06
-0.00068061 0.000501309 3.74361e-06
5.4284e-06 3.74361e-06 0.00018775
0.00242052 -0.000645502 5.93673e-07
-0.000645502 0.000446542 1.18562e-06
5.93673e-07 1.18562e-06 0.000207201
0.000382885 -0.000137543 5.21066e-08
-0.000137543 -2.5953e-06 -4.79664e-06
5.21066e-08 -4.79664e-06 -0.000225059
0.00163477 -0.000386882 9.4602e-08
-0.000386882 0.000602095 -4.39661e-06
9.4602e-08 -4.39661e-06 0.000286916
-0.000127193 -0.000172915 -4.49035e-07
-0.000172915 -0.000312089 3.31477e-06
-4.49035e-07 3.31477e-06 -0.000635504
0.00188872 -0.000469332 -3.00907e-06
-0.000469332 0.00081996 -1.39388e-07
-3.00907e-06 -1.39388e-07 0.000448814
0.00126426 0.000263098 -1.23373e-05
0.000263098 -2.05271e-05 -4.7361e-06
-1.23373e-05 -4.7361e-06 -0.00022519
0.000296847 -2.03335e-06 -2.04531e-06
-2.03335e-06 -0.000101696 -1.53503e-05
-2.04531e-06 -1.53503e-05 -0.000174633
0.000443047 0.000127776 -2.3729e-05
0.000127776 -7.15297e-05 -1.5579e-05
-2.3729e-05 -1.5579e-05 -0.000170514
2.16736e-05 0.000135382 -4.716e-06
0.000135382 -0.000283905 -1.3835e-07
-4.716e-06 -1.3835e-07 -0.000502788
0.00118406 0.000332333 -2.12309e-05
0.000332333 1.54149e-05 -8.37e-06
-2.12309e-05 -8.37e-06 -0.000230987
0.00201471 0.000490434 -4.47809e-06
0.000490434 0.000236516 4.86998e-07
-4.47809e-06 4.86998e-07 -2.12263e-05
0.000485308 0.000217149 -7.76115e-06
0.000217149 -9.59006e-05 -3.28996e-06
-7.76115e-06 -3.28996e-06 -0.000325596
0.00149675 0.000551402 -7.07277e-06
0.000551402 0.000305012 5.99582e-07
-7.07277e-06 5.99582e-07 -8.71552e-05
0.00202046 0.000586171 -5.61279e-06
0.000586171 0.000404156 1.44973e-06
-5.61279e-06 1.44973e-06 6.77598e-05
0.00164202 0.00063836 5.33953e-06
0.00063836 0.000143636 9.76923e-06
5.33953e-06 9.76923e-06 -0.000219818
0.000431611 -9.56994e-06 -3.84267e-06
-9.56994e-06 -1.83824e-05 9.25606e-07
-3.84267e-06 9.25606e-07 -7.74568e-05
0.000619232 0.000219254 -7.46295e-07
0.000219254 7.1791e-05 -9.06167e-07
-7.46295e-07 -9.06167e-07 -0.000175908
0.000607884 0.00011464 1.84738e-06
0.00011464 8.82398e-05 -9.98731e-07
1.84738e-06 -9.98731e-07 -8.87797e-05
0.000783825 0.000214384 -1.95752e-06
0.000214384 0.000174732 1.53613e-06
-1.95752e-06 1.53613e-06 -8.68345e-05
0.00207142 0.000432796 -1.66873e-06
0.000432796 0.00021119 -1.27513e-06
-1.66873e-06 -1.27513e-06 -3.58463e-06
0.00197335 0.000544521 -5.9262e-07
0.000544521 0.000289449 -2.64649e-07
-5.9262e-07 -2.64649e-07 -1.13794e-05
0.0021536 0.00055526 1.61077e-07
0.00055526 0.000245527 2.10599e-07
1.61077e-07 2.10599e-07 6.12938e-06
0.00134778 0.000446076 3.39933e-06
0.000446076 0.000344868 -2.11904e-09
3.39933e-06 -2.11904e-09 -1.27079e-06
0.00229326 0.00068163 8.65187e-07
0.00068163 0.000490251 7.03308e-07
8.65187e-07 7.03308e-07 0.000155592
0.00181743 0.000689785 -9.26717e-07
0.000689785 0.00041333 -2.0716e-06
-9.26717e-07 -2.0716e-06 -3.23201e-05
0.00209323 0.000663655 -5.71928e-06
0.000663655 0.000347563 2.38736e-06
-5.71928e-06 2.38736e-06 9.18375e-06
0.000507096 -2.75003e-06 2.97083e-06
-2.75003e-06 1.57945e-05 1.08411e-05
2.97083e-06 1.08411e-05 -3.0423e-05
0.00108814 8.8369e-05 6.32779e-07
8.8369e-05 0.000408048 7.81331e-06
6.32779e-07 7.81331e-06 0.000254283
0.000693396 0.00028008 -4.15985e-06
0.00028008 2.063e-05 1.13289e-06
-4.15985e-06 1.13289e-06 -0.000250427
0.00141997 0.000193464 2.9141e-06
0.000193464 0.000662257 -2.94378e-06
2.9141e-06 -2.94378e-06 0.000374868
0.000946727 0.000250073 -1.98523e-06
0.000250073 0.000216997 8.34157e-06
-1.98523e-06 8.34157e-06 -2.74976e-05
0.00220096 0.000490654 5.78425e-07
0.000490654 0.000200713 -3.07461e-06
5.78425e-07 -3.07461e-06 1.00039e-05
0.00216079 0.000627348 -1.62285e-06
0.000627348 0.000320704 -2.04568e-06
-1.62285e-06 -2.04568e-06 2.88716e-05
0.00215697 0.00060661 -3.27026e-06
0.00060661 0.000230223 -1.47827e-06
-3.27026e-06 -1.47827e-06 -8.62707e-06
0.00172843 0.000670242 9.90011e-07
0.000670242 0.000561902 -3.429e-06
9.90011e-07 -3.429e-06 9.42679e-05
0.00247672 0.00074153 -5.09039e-06
0.00074153 0.000537489 -2.97609e-06
-5.09039e-06 -2.97609e-06 0.000205959
0.00178749 0.000733231 6.40959e-06
0.000733231 0.000320343 -5.50412e-06
6.40959e-06 -5.50412e-06 -0.000112366
0.000529104 6.32473e-05 5.81025e-07
6.32473e-05 5.37817e-05 6.22055e-06
5.81025e-07 6.22055e-06 -5.00738e-05
0.000699799 0.000132463 -1.89641e-06
0.000132463 0.000227155 2.61642e-06
-1.89641e-06 2.61642e-06 6.36622e-05
0.00060185 6.74867e-05 7.21332e-07
6.74867e-05 0.000110697 5.156e-06
7.21332e-07 5.156e-06 2.47044e-05
0.000518484 2.09564e-05 -7.80134e-07
2.09564e-05 5.55872e-05 -1.8361e-08
-7.80134e-07 -1.8361e-08 -3.8653e-05
0.00146614 -2.28577e-05 1.80649e-06
-2.28577e-05 0.000628075 5.48574e-06
1.80649e-06 5.48574e-06 0.000598043
0.000948122 -1.25063e-05 1.93614e-07
-1.25063e-05 0.000296704 -6.55666e-08
1.93614e-07 -6.55666e-08 0.000259858
0.000879699 -4.20641e-05 4.52257e-05
-4.20641e-05 0.000252104 1.11404e-05
4.52257e-05 1.11404e-05 0.000247375
0.00324948 -0.000133936 9.90112e-06
-0.000133936 0.00178887 -9.43683e-07
9.90112e-06 -9.43683e-07 0.0017833
0.00352309 -0.000163774 -5.79554e-05
-0.000163774 0.00197858 -5.35321e-06
-5.79554e-05 -5.35321e-06 0.00196466
0.000263223 -9.38872e-05 1.37593e-05
-9.38872e-05 -0.000124909 -1.38125e-05
1.37593e-05 -1.38125e-05 -0.000197147
0.00495176 0.000186268 0.00011992
0.000186268 0.00292633 -1.56713e-05
0.00011992 -1.56713e-05 0.00289871
0.000501985 -0.000141297 2.39459e-07
-0.000141297 7.74951e-07 9.06444e-07
2.39459e-07 9.06444e-07 -9.56779e-05
0.00582606 0.000129323 -1.07031e-06
0.000129323 0.00346964 9.62455e-07
-1.07031e-06 9.62455e-07 0.00345388
0.000471416 -0.00016931 -2.25812e-05
-0.00016931 -5.19877e-05 1.81685e-05
-2.25812e-05 1.81685e-05 -0.000160938
0.00663071 9.10772e-05 -0.000247737
9.10772e-05 0.00395706 2.86532e-05
-0.000247737 2.86532e-05 0.00394941
0.00125134 0.000213637 -8.30755e-06
0.000213637 -4.32372e-05 -2.94732e-06
-8.30755e-06 -2.94732e-06 -0.000225485
0.00116076 0.000125875 -8.88683e-06
0.000125875 -7.79677e-05 -9.00409e-07
-8.88683e-06 -9.00409e-07 -0.00022654
0.00203676 0.000274763 -1.77385e-06
0.000274763 0.000113331 1.14973e-06
-1.77385e-06 1.14973e-06 -2.07797e-05
0.00194732 0.00012323 -1.81487e-06
0.00012323 5.25214e-05 3.5111e-07
-1.81487e-06 3.5111e-07 -3.52821e-05
0.00106306 4.44745e-05 -1.04012e-05
4.44745e-05 -9.91435e-05 -2.04693e-08
-1.04012e-05 -2.04693e-08 -0.000229531
0.000332802 2.866e-05 -1.84195e-05
2.866e-05 -0.000245853 -9.1151e-07
-1.84195e-05 -9.1151e-07 -0.000326759
0.00105151 -3.86914e-07 -4.86298e-08
-3.86914e-07 -9.74353e-05 -1.54199e-08
-4.86298e-08 -1.54199e-08 -0.000225109
0.00196426 6.32964e-05 -1.01583e-09
6.32964e-05 6.81867e-05 1.40952e-07
-1.01583e-09 1.40952e-07 -1.29351e-05
0.00202524 0.000195144 -1.59942e-07
0.000195144 9.05551e-05 3.20124e-07
-1.59942e-07 3.20124e-07 -1.38195e-05
0.00217884 0.00015003 -3.60994e-07
0.00015003 6.70895e-05 1.29796e-07
-3.60994e-07 1.29796e-07 3.89819e-05
0.00208854 0.000362851 -6.96508e-07
0.000362851 0.000174245 -1.02989e-07
-6.96508e-07 -1.02989e-07 1.09001e-06
0.00214463 0.000310636 -3.57368e-09
0.000310636 8.84538e-05 4.19362e-07
-3.57368e-09 4.19362e-07 -9.70965e-07
0.00197561 -1.07829e-06 2.96197e-06
-1.07829e-06 8.39768e-05 -6.50999e-08
2.96197e-06 -6.50999e-08 3.91871e-06
0.00214256 7.2249e-05 4.58422e-06
7.2249e-05 5.18599e-05 4.89994e-07
4.58422e-06 4.89994e-07 2.95794e-05
0.00215672 0.000224815 5.2531e-06
0.000224815 6.98466e-05 1.03457e-06
5.2531e-06 1.03457e-06 2.17409e-05
0.00209094 0.000132261 4.35719e-06
0.000132261 2.54786e-06 8.74922e-07
4.35719e-06 8.74922e-07 -2.43327e-06
0.00214218 0.000407036 2.35811e-06
0.000407036 0.000122203 -1.28872e-07
2.35811e-06 -1.28872e-07 -1.86521e-05
0.00219927 0.000327596 2.39743e-06
0.000327596 1.65433e-05 4.04828e-07
2.39743e-06 4.04828e-07 -6.97393e-06
0.0011739 -3.10454e-05 -1.13353e-05
-3.10454e-05 -2.08438e-05 5.69616e-07
-1.13353e-05 5.69616e-07 -0.000140704
0.00200026 -0.000135688 -2.80762e-05
-0.000135688 0.000488136 2.61276e-06
-2.80762e-05 2.61276e-06 0.000357121
0.00199508 -0.000132325 -1.63179e-06
-0.000132325 9.46998e-05 -4.25663e-07
-1.63179e-06 -4.25663e-07 1.21873e-06
0.00187826 -0.000282522 -1.43295e-06
-0.000282522 3.91192e-05 4.22454e-07
-1.43295e-06 4.22454e-07 -0.000113153
0.000525276 -0.000244952 -2.64032e-05
-0.000244952 -4.75145e-05 2.3346e-05
-2.64032e-05 2.3346e-05 -0.000186597
0.000738298 -0.000316492 -1.4197e-05
-0.000316492 -3.6631e-05 8.914e-06
-1.4197e-05 8.914e-06 -0.000317163
0.00168449 -0.000607422 -1.16992e-05
-0.000607422 0.000270483 1.07978e-06
-1.16992e-05 1.07978e-06 -0.000127904
0.00201972 -0.000416504 -4.6655e-06
-0.000416504 0.00022438 8.76492e-07
-4.6655e-06 8.76492e-07 5.71337e-06
0.00210657 -0.000397309 -9.56478e-07
-0.000397309 0.000115683 2.64633e-08
-9.56478e-07 2.64633e-08 -8.23453e-06
0.00213742 -0.00053384 -2.18882e-06
-0.00053384 0.000242847 -1.41914e-06
-2.18882e-06 -1.41914e-06 2.00976e-05
0.00236106 -0.000658696 -1.38251e-06
-0.000658696 0.00049952 -6.02391e-06
-1.38251e-06 -6.02391e-06 0.00017063
0.00197723 -0.000596789 8.70999e-07
-0.000596789 0.00014922 -1.4883e-06
8.70999e-07 -1.4883e-06 -9.64105e-05
0.00108253 -0.000269952 -7.35761e-06
-0.000269952 0.000339875 5.19498e-06
-7.35761e-06 5.19498e-06 6.15135e-05
0.000371042 -0.000180329 2.42314e-06
-0.000180329 -0.000122838 2.31073e-06
2.42314e-06 2.31073e-06 -0.000409286
0.000438777 -0.000204291 1.56301e-07
-0.000204291 2.14033e-06 2.17906e-06
1.56301e-07 2.17906e-06 -0.000240561
0.00190015 -6.12138e-05 1.66745e-06
-6.12138e-05 3.88524e-05 -1.58991e-07
1.66745e-06 -1.58991e-07 -4.95714e-05
0.00198392 -0.000214085 -7.08723e-07
-0.000214085 8.77273e-05 -1.89163e-07
-7.08723e-07 -1.89163e-07 -2.51748e-05
0.00210489 -0.000143598 1.5582e-06
-0.000143598 4.28794e-05 -1.87643e-07
1.5582e-06 -1.87643e-07 1.27761e-06
0.00207164 -0.000313984 -1.37722e-06
-0.000313984 5.83361e-05 3.38345e-07
-1.37722e-06 3.38345e-07 -3.35988e-05
0.000746499 -0.000274908 1.08143e-06
-0.000274908 6.86066e-05 -5.99861e-07
1.08143e-06 -5.99861e-07 -0.000201442
0.00161713 -0.000595013 -5.84573e-07
-0.000595013 0.000389651 -6.35581e-07
-5.84573e-07 -6.35581e-07 -2.94663e-05
0.00193965 -0.000732938 1.06811e-06
-0.000732938 0.000336804 1.10843e-06
1.06811e-06 1.10843e-06 -9.28185e-05
0.00200187 -0.000468144 -6.16654e-07
-0.000468144 0.000108924 8.52257e-07
-6.16654e-07 8.52257e-07 -7.06476e-05
0.00218051 -0.000419588 2.45438e-07
-0.000419588 8.91021e-05 -1.05671e-07
2.45438e-07 -1.05671e-07 1.43618e-05
0.00224427 -0.000672744 -5.30145e-07
-0.000672744 0.000379135 3.83093e-07
-5.30145e-07 3.83093e-07 6.54167e-05
0.00208972 -0.000561881 -6.08236e-07
-0.000561881 0.000158871 7.78571e-07
-6.08236e-07 7.78571e-07 -3.70569e-05
0.00229743 -0.000626478 9.82268e-07
-0.000626478 0.000361369 -4.44425e-07
9.82268e-07 -4.44425e-07 0.000128404
0.000933602 -0.000347565 -2.03718e-06
-0.000347565 0.000183199 4.24835e-07
-2.03718e-06 4.24835e-07 -0.000141162
0.00108493 -0.000378225 -6.29405e-07
-0.000378225 0.000306462 1.8931e-06
-6.29405e-07 1.8931e-06 -4.99738e-05
0.000757662 -0.000156952 -1.05218e-06
-0.000156952 0.000225069 -1.4439e-06
-1.05218e-06 -1.4439e-06 4.81077e-06
9.78082e-05 -0.000155739 2.83567e-06
-0.000155739 -0.000220874 7.09792e-07
2.83567e-06 7.09792e-07 -0.000508826
0.00214803 -7.77119e-05 7.38627e-06
-7.77119e-05 7.90638e-05 -2.23299e-07
7.38627e-06 -2.23299e-07 4.58396e-05
0.00201922 -0.000227545 4.73374e-06
-0.000227545 -2.41329e-05 -7.78466e-07
4.73374e-06 -7.78466e-07 -8.65366e-05
0.00208137 -0.00013348 5.96944e-06
-0.00013348 3.09039e-05 -6.54525e-07
5.96944e-06 -6.54525e-07 2.86265e-05
0.00218321 -0.000339638 7.76687e-07
-0.000339638 3.8227e-05 -1.93359e-07
7.76687e-07 -1.93359e-07 1.52052e-05
0.00213349 -0.000504111 4.78082e-07
-0.000504111 0.000121158 -2.91861e-07
4.78082e-07 -2.91861e-07 -1.67454e-05
0.00224447 -0.000443563 3.33338e-06
-0.000443563 7.51722e-05 -6.50991e-07
3.33338e-06 -6.50991e-07 1.73939e-05
0.00140719 -0.000494653 7.40965e-06
-0.000494653 0.000405759 -3.97798e-06
7.40965e-06 -3.97798e-06 1.89872e-05
0.00211672 -0.000601174 -1.80645e-06
-0.000601174 0.000137637 2.62583e-07
-1.80645e-06 2.62583e-07 -3.13766e-05
0.00177464 -0.000765232 -4.95803e-06
-0.000765232 0.000409732 6.42294e-06
-4.95803e-06 6.42294e-06 -8.16764e-05
0.00223345 -0.000800256 5.58009e-06
-0.000800256 0.000468261 3.72635e-06
5.58009e-06 3.72635e-06 3.58828e-05
0.00221396 -0.000680018 5.79399e-06
-0.000680018 0.000331291 3.01651e-06
5.79399e-06 3.01651e-06 2.68241e-05
0.00223292 -0.000659787 -5.3025e-06
-0.000659787 0.000274555 -2.27928e-06
-5.3025e-06 -2.27928e-06 3.20178e-05
0.000449898 -0.000150992 -9.89806e-07
-0.000150992 2.07021e-05 -7.32838e-06
-9.89806e-07 -7.32838e-06 -0.000151465
0.00051165 -0.000146163 4.98741e-07
-0.000146163 0.000114732 6.76422e-07
4.98741e-07 6.76422e-07 -0.000228126
0.00128766 -0.000505912 3.87567e-06
-0.000505912 0.000372662 -2.32723e-06
3.87567e-06 -2.32723e-06 -3.69262e-05
0.000918559 -0.000291467 7.49329e-06
-0.000291467 0.000259041 -5.04868e-07
7.49329e-06 -5.04868e-07 -5.05645e-05
0.00134375 -0.000473777 -8.87747e-06
-0.000473777 0.000488744 6.08726e-06
-8.87747e-06 6.08726e-06 5.9313e-05
0.000250667 -1.67846e-05 -3.08952e-06
-1.67846e-05 -0.000130425 -1.21869e-05
-3.08952e-06 -1.21869e-05 -0.000188023
0.00205062 0.000430623 -4.87405e-06
0.000430623 0.000197605 -3.21773e-07
-4.87405e-06 -3.21773e-07 -1.70095e-05
0.000318398 6.13267e-05 -4.43832e-07
6.13267e-05 -7.8039e-05 -5.13275e-06
-4.43832e-07 -5.13275e-06 -0.000260108
0.000209832 0.000222394 -7.05723e-06
0.000222394 -0.000217006 9.70831e-07
-7.05723e-06 9.70831e-07 -0.000440413
0.000724419 0.000212907 -1.08917e-06
0.000212907 0.00012103 4.58949e-06
-1.08917e-06 4.58949e-06 -0.000129688
0.00194003 0.000542652 -4.77402e-06
0.000542652 0.000267612 4.48057e-07
-4.77402e-06 4.48057e-07 -3.35316e-05
0.0021208 0.000550945 6.05546e-07
0.000550945 0.000228582 2.0294e-06
6.05546e-07 2.0294e-06 -9.69045e-06
0.00137351 0.000471816 1.0502e-06
0.000471816 0.000384804 -1.51346e-06
1.0502e-06 -1.51346e-06 2.47019e-05
0.00170162 0.000685105 3.05954e-06
0.000685105 0.000335551 5.70236e-06
3.05954e-06 5.70236e-06 -0.00011293
0.00215293 0.000660732 3.43251e-06
0.000660732 0.000410682 4.74889e-06
3.43251e-06 4.74889e-06 7.75014e-05
0.00215201 0.000660632 7.88372e-06
0.000660632 0.000389017 1.26409e-05
7.88372e-06 1.26409e-05 5.76298e-05
0.000446453 3.4848e-07 -7.01687e-07
3.4848e-07 -2.10443e-05 1.48108e-07
-7.01687e-07 1.48108e-07 -6.68029e-05
0.000618245 7.5e-05 -4.65103e-07
7.5e-05 0.000115356 9.77882e-08
-4.65103e-07 9.77882e-08 -3.42414e-05
0.000847212 0.000315077 2.79278e-06
0.000315077 0.000136603 1.29138e-06
2.79278e-06 1.29138e-06 -0.000139072
0.000558634 0.000145954 8.55604e-07
0.000145954 0.000105953 -2.24762e-06
8.55604e-07 -2.24762e-06 -0.000170366
0.00036429 0.000179978 -4.11455e-07
0.000179978 -0.000172899 3.25218e-06
-4.11455e-07 3.25218e-06 -0.000404071
0.00218521 0.000489218 -1.9637e-06
0.000489218 0.000192402 -1.94697e-06
-1.9637e-06 -1.94697e-06 2.15268e-06
0.0021306 0.000623509 4.81646e-07
0.000623509 0.000304701 1.42993e-07
4.81646e-07 1.42993e-07 1.39537e-05
0.0021197 0.000604453 1.61279e-06
0.000604453 0.000209904 1.2881e-07
1.61279e-06 1.2881e-07 -2.88911e-05
0.00169493 0.000668583 1.42749e-06
0.000668583 0.000544722 -9.17641e-07
1.42749e-06 -9.17641e-07 7.30717e-05
0.0023654 0.000729694 2.86343e-06
0.000729694 0.000449765 5.03421e-07
2.86343e-06 5.03421e-07 0.000118406
0.00213423 0.00076829 -4.4009e-06
0.00076829 0.000549257 9.14029e-08
-4.4009e-06 9.14029e-08 0.000112475
0.000728196 8.10854e-05 7.99093e-07
8.10854e-05 0.000175579 6.67506e-06
7.99093e-07 6.67506e-06 5.56532e-05
0.0019645 0.000260943 -8.29501e-07
0.000260943 0.00103953 1.53458e-07
-8.29501e-07 1.53458e-07 0.000784373
0.00116273 0.000475241 -3.79219e-07
0.000475241 0.000335702 4.87983e-06
-3.79219e-07 4.87983e-06 -2.52447e-05
0.000965439 0.00014913 5.00007e-06
0.00014913 0.000255038 -4.11517e-07
5.00007e-06 -4.11517e-07 3.63644e-06
0.00295714 0.000486384 -1.50042e-06
0.000486384 0.00137871 7.44886e-07
-1.50042e-06 7.44886e-07 0.00107552
0.00217136 0.000516857 -3.91282e-06
0.000516857 0.000139647 -1.93404e-06
-3.91282e-06 -1.93404e-06 -3.45593e-05
0.00214373 0.000677454 -3.91146e-06
0.000677454 0.000278646 -1.47602e-06
-3.91146e-06 -1.47602e-06 -1.21175e-05
0.00211294 0.000663201 1.87643e-06
0.000663201 0.000165251 -7.38805e-07
1.87643e-06 -7.38805e-07 -8.65354e-05
0.00123118 0.000691909 1.10076e-05
0.000691909 0.000282603 -4.91536e-06
1.10076e-05 -4.91536e-06 -0.000219243
0.00184531 0.000757774 1.33206e-05
0.000757774 0.000253655 -2.66521e-06
1.33206e-05 -2.66521e-06 -0.000142788
0.000576619 5.85926e-05 -2.17904e-07
5.85926e-05 8.43415e-05 1.41024e-07
-2.17904e-07 1.41024e-07 -1.84285e-05
0.000510101 0.000112745 1.43313e-06
0.000112745 6.37484e-05 2.10604e-06
1.43313e-06 2.10604e-06 -8.10497e-05
8.16878e-05 8.04672e-05 2.90666e-07
8.04672e-05 -0.000185154 -7.47954e-07
2.90666e-07 -7.47954e-07 -0.000329869
0.00142591 0.000223341 -2.32409e-06
0.000223341 0.000706014 -2.03173e-06
-2.32409e-06 -2.03173e-06 0.000515814
0.000919437 0.000154682 -6.29091e-07
0.000154682 0.000371623 2.38406e-06
-6.29091e-07 2.38406e-06 0.000218167
0.000536659 7.57362e-05 1.69827e-06
7.57362e-05 7.66779e-05 4.08624e-06
1.69827e-06 4.08624e-06 -5.89804e-06
0.000513085 2.38143e-05 -9.93173e-07
2.38143e-05 5.72353e-05 4.87123e-08
-9.93173e-07 4.87123e-08 -2.82256e-05
0.00133341 -7.14879e-06 1.66553e-06
-7.14879e-06 0.000541443 4.50821e-06
1.66553e-06 4.50821e-06 0.000517339
0.000511954 4.35758e-05 3.88281e-07
4.35758e-05 4.46098e-05 -5.9484e-06
3.88281e-07 -5.9484e-06 -4.49069e-05
0.00141366 -1.77186e-05 -1.03483e-05
-1.77186e-05 0.000592971 -1.7709e-06
-1.03483e-05 -1.7709e-06 0.000565821
0.000740435 -2.90882e-05 4.02161e-05
-2.90882e-05 0.00015696 1.04917e-05
4.02161e-05 1.04917e-05 0.000158123
0.00146398 -1.85119e-05 -2.01053e-05
-1.85119e-05 0.000629537 -7.227e-06
-2.01053e-05 -7.227e-06 0.000597144
0.00194899 -7.6628e-05 4.39033e-05
-7.6628e-05 0.000943004 1.33054e-06
4.39033e-05 1.33054e-06 0.000940156
0.00316951 -0.000132273 -4.84617e-05
-0.000132273 0.00173704 -5.31226e-06
-4.84617e-05 -5.31226e-06 0.0017316
0.00023128 5.47438e-05 -3.81598e-06
5.47438e-05 -0.000118571 -1.04107e-05
-3.81598e-06 -1.04107e-05 -0.000180073
0.000384947 -7.68969e-05 -9.78239e-07
-7.68969e-05 -4.52859e-05 4.72278e-07
-9.78239e-07 4.72278e-07 -0.000124709
0.00407558 0.000201927 2.47392e-05
0.000201927 0.00234992 -8.43877e-06
2.47392e-05 -8.43877e-06 0.00232018
0.00507998 0.000137264 -1.54467e-05
0.000137264 0.00299789 -1.55648e-06
-1.54467e-05 -1.55648e-06 0.0029817
0.000500661 -0.000145175 -2.08167e-05
-0.000145175 -3.68093e-06 1.566e-05
-2.08167e-05 1.566e-05 -0.000103711
0.00597614 0.00013021 -0.000208051
0.00013021 0.0035747 2.93563e-05
-0.000208051 2.93563e-05 0.0035544
0.00204223 0.000358895 -2.74474e-06
0.000358895 0.000145128 1.06475e-06
-2.74474e-06 1.06475e-06 -2.74665e-05
0.00198298 0.000193328 -1.16576e-06
0.000193328 7.07277e-05 9.70241e-07
-1.16576e-06 9.70241e-07 -3.38691e-05
0.00218834 0.000315795 -3.83439e-06
0.000315795 0.000116234 -3.42693e-07
-3.83439e-06 -3.42693e-07 2.52874e-05
0.00217111 0.000145399 -5.01942e-06
0.000145399 5.21831e-05 -4.76257e-07
-5.01942e-06 -4.76257e-07 2.91445e-05
0.00192563 6.42358e-05 -2.80339e-06
6.42358e-05 4.45548e-05 2.05685e-07
-2.80339e-06 2.05685e-07 -3.69261e-05
0.00106039 4.21608e-06 -1.01547e-05
4.21608e-06 -9.15063e-05 9.23191e-08
-1.01547e-05 9.23191e-08 -0.000219089
0.00195124 1.45536e-06 9.75748e-08
1.45536e-06 6.78433e-05 1.03689e-07
9.75748e-08 1.03689e-07 -1.25232e-05
0.00213965 6.35676e-05 -6.56485e-07
6.35676e-05 5.37393e-05 -1.61143e-08
-6.56485e-07 -1.61143e-08 3.10111e-05
0.00217884 0.000224565 1.23076e-07
0.000224565 7.86155e-05 1.65491e-08
1.23076e-07 1.65491e-08 3.08757e-05
0.00207893 0.000132862 -7.02592e-08
0.000132862 -1.265e-05 1.04515e-07
-7.02592e-08 1.04515e-07 -1.25557e-05
0.00217176 0.00041203 -3.07033e-07
0.00041203 0.000136475 2.91905e-07
-3.07033e-07 2.91905e-07 -5.67591e-06
0.00217043 0.000317932 -2.56776e-08
0.000317932 -2.96002e-06 -7.07256e-09
-2.56776e-08 -7.07256e-09 -2.55713e-05
0.00212077 -6.64904e-06 5.63661e-06
-6.64904e-06 4.96302e-05 2.10294e-07
5.63661e-06 2.10294e-07 2.45378e-05
0.00209593 5.68829e-05 3.91446e-06
5.68829e-05 1.07722e-05 2.21064e-07
3.91446e-06 2.21064e-07 2.43389e-05
0.00213167 0.000209041 7.88566e-07
0.000209041 -4.54103e-06 -1.12519e-08
7.88566e-07 -1.12519e-08 -1.13382e-05
0.00218639 0.000137734 -5.41216e-07
0.000137734 -1.48407e-05 4.44064e-07
-5.41216e-07 4.44064e-07 1.72389e-05
0.00216258 0.000413394 9.53224e-07
0.000413394 4.90992e-05 2.21001e-07
9.53224e-07 2.21001e-07 -4.07125e-05
0.00234784 0.000321172 6.33906e-07
0.000321172 2.98357e-05 -1.14614e-07
6.33906e-07 -1.14614e-07 3.81256e-05
0.00196542 -5.78411e-05 -1.83482e-06
-5.78411e-05 7.92379e-05 5.14008e-08
-1.83482e-06 5.14008e-08 -3.91827e-06
0.00200858 -0.00022137 -1.79016e-06
-0.00022137 0.000103951 -6.22744e-07
-1.79016e-06 -6.22744e-07 -8.78994e-06
0.00216046 -0.000142444 -4.14624e-06
-0.000142444 7.28305e-05 5.86678e-08
-4.14624e-06 5.86678e-08 3.81266e-05
0.00200173 -0.000302067 -4.35147e-06
-0.000302067 2.04456e-05 8.79778e-07
-4.35147e-06 8.79778e-07 -7.42765e-05
0.00071338 -0.000279305 -1.19285e-05
-0.000279305 4.39605e-05 8.8886e-06
-1.19285e-05 8.8886e-06 -0.000230433
0.00157633 -0.00058831 -1.46203e-05
-0.00058831 0.000374805 1.67592e-06
-1.46203e-05 1.67592e-06 -4.1186e-05
0.00174643 -0.000709131 4.78571e-07
-0.000709131 0.00023372 -3.53341e-06
4.78571e-07 -3.53341e-06 -0.000195989
0.00198077 -0.000463993 -3.32812e-06
-0.000463993 0.000102141 3.56898e-07
-3.32812e-06 3.56898e-07 -8.39147e-05
0.00214144 -0.000422592 -2.16692e-06
-0.000422592 5.15979e-05 4.44029e-07
-2.16692e-06 4.44029e-07 -1.80597e-05
0.00205303 -0.000557298 -9.95695e-07
-0.000557298 0.000133449 6.62585e-07
-9.95695e-07 6.62585e-07 -6.19807e-05
0.00211993 -0.000675005 -3.38805e-06
-0.000675005 0.000285313 -3.84228e-06
-3.38805e-06 -3.84228e-06 -3.19193e-05
0.00218524 -0.000614743 3.4783e-06
-0.000614743 0.000283746 -2.71019e-06
3.4783e-06 -2.71019e-06 5.4818e-05
0.000747761 -0.000335039 -2.9235e-07
-0.000335039 7.73223e-05 1.55427e-06
-2.9235e-07 1.55427e-06 -0.000254408
0.000866389 -0.00033246 -1.14821e-07
-0.00033246 0.000141859 4.05237e-06
-1.14821e-07 4.05237e-06 -0.000198978
0.000854316 -0.000167539 -2.0493e-06
-0.000167539 0.000276578 4.10116e-06
-2.0493e-06 4.10116e-06 5.80336e-05
-0.000211409 -0.000144303 6.99397e-07
-0.000144303 -0.000455947 -3.75109e-06
6.99397e-07 -3.75109e-06 -0.000715962
0.0021524 -7.78245e-05 -1.61892e-07
-7.78245e-05 8.17248e-05 4.87715e-08
-1.61892e-07 4.87715e-08 4.84484e-05
0.0020646 -0.000231206 2.40887e-06
-0.000231206 1.11935e-05 -5.92642e-07
2.40887e-06 -5.92642e-07 -5.23459e-05
0.00205637 -0.000132465 7.32985e-07
-0.000132465 8.4007e-06 -2.55396e-07
7.32985e-07 -2.55396e-07 8.0098e-06
0.00215703 -0.000337863 -4.90372e-07
-0.000337863 2.99721e-05 6.19136e-08
-4.90372e-07 6.19136e-08 -8.69938e-09
0.00137538 -0.000470151 -3.12165e-06
-0.000470151 0.000366445 2.47379e-07
-3.12165e-06 2.47379e-07 -6.98518e-06
0.00171321 -0.00075161 2.00615e-06
-0.00075161 0.000383867 3.87098e-08
2.00615e-06 3.87098e-08 -0.000105065
0.00215928 -0.000808403 -7.42429e-07
-0.000808403 0.000418152 5.42537e-07
-7.42429e-07 5.42537e-07 -2.16321e-05
0.00212028 -0.000498801 -1.16124e-06
-0.000498801 0.000120831 3.76908e-07
-1.16124e-06 3.76908e-07 -2.18303e-05
0.00219968 -0.000441316 1.00927e-06
-0.000441316 4.81254e-05 -3.77414e-07
1.00927e-06 -3.77414e-07 -4.79142e-06
0.00222183 -0.000685722 -6.75986e-07
-0.000685722 0.000353131 6.53499e-07
-6.75986e-07 6.53499e-07 4.65521e-05
0.00213148 -0.00060448 -1.04543e-06
-0.00060448 0.000136919 7.86051e-07
-1.04543e-06 7.86051e-07 -3.2311e-05
0.00220402 -0.000659076 4.79333e-06
-0.000659076 0.00024812 -3.93094e-06
4.79333e-06 -3.93094e-06 1.0419e-05
0.00145599 -0.000529199 -6.24266e-07
-0.000529199 0.000488007 -1.55505e-06
-6.24266e-07 -1.55505e-06 7.19706e-05
0.00132448 -0.00047504 2.33527e-06
-0.00047504 0.000464625 2.46204e-06
2.33527e-06 2.46204e-06 4.53508e-05
0.00101406 -0.000267702 7.9875e-07
-0.000267702 0.000311551 -3.84173e-06
7.9875e-07 -3.84173e-06 1.29728e-06
0.000183548 -0.000111668 -2.78894e-06
-0.000111668 -0.000146655 1.08014e-06
-2.78894e-06 1.08014e-06 -0.000320591
9.99592e-05 -0.000153288 -1.57477e-06
-0.000153288 -0.00015409 -1.27469e-06
-1.57477e-06 -1.27469e-06 -0.000483866
0.00205445 -7.79171e-05 2.93472e-06
-7.79171e-05 -1.04892e-05 -2.5753e-07
2.93472e-06 -2.5753e-07 1.86296e-06
0.00211086 -0.000203609 1.77314e-06
-0.000203609 -8.61795e-06 -2.13987e-07
1.77314e-06 -2.13987e-07 -6.59121e-06
0.00224747 -0.000404984 -1.86173e-07
-0.000404984 -1.63613e-05 2.96204e-07
-1.86173e-07 2.96204e-07 -1.70821e-05
0.00221164 -0.000525116 1.17526e-06
-0.000525116 7.60521e-05 -5.86974e-07
1.17526e-06 -5.86974e-07 1.04684e-07
0.00148449 -0.000642821 -2.04038e-06
-0.000642821 0.000415429 2.117e-06
-2.04038e-06 2.117e-06 -5.55177e-05
0.00240105 -0.000727073 -8.95343e-06
-0.000727073 0.000205521 -4.23023e-06
-8.95343e-06 -4.23023e-06 6.3523e-06
0.00150187 -0.000818345 -1.88932e-05
-0.000818345 0.000249552 7.55564e-06
-1.88932e-05 7.55564e-06 -0.000271315
0.00235612 -0.000878254 6.38241e-07
-0.000878254 0.000506643 2.12417e-06
6.38241e-07 2.12417e-06 5.36449e-05
0.0020354 -0.000661265 -7.85635e-06
-0.000661265 0.000226199 -1.10802e-07
-7.85635e-06 -1.10802e-07 -6.38627e-05
6.31989e-05 -4.24758e-05 -2.19435e-06
-4.24758e-05 -0.000208406 -6.61908e-06
-2.19435e-06 -6.61908e-06 -0.000339066
0.00117565 -0.000212639 -3.83918e-06
-0.000212639 0.000592539 -6.66999e-07
-3.83918e-06 -6.66999e-07 0.000269223
0.0022387 -0.000252103 -1.02206e-06
-0.000252103 0.00115171 -2.71827e-06
-1.02206e-06 -2.71827e-06 0.000818928
0.0021464 -0.000675744 -1.096e-05
-0.000675744 0.000914893 9.73916e-07
-1.096e-05 9.73916e-07 0.000434589
0.00131704 -0.000378525 7.54528e-06
-0.000378525 0.000443634 2.61713e-06
7.54528e-06 2.61713e-06 7.66664e-05
0.00118682 -0.000511316 -8.64885e-06
-0.000511316 0.000364348 1.21554e-05
-8.64885e-06 1.21554e-05 -8.756e-05
0.000382462 2.92393e-06 -3.21588e-06
2.92393e-06 -6.08631e-05 -1.03533e-05
-3.21588e-06 -1.03533e-05 -0.000106002
0.000229219 6.34881e-05 -6.80183e-07
6.34881e-05 -0.000128401 -7.69971e-06
-6.80183e-07 -7.69971e-06 -0.000271732
0.00217277 0.00048789 -3.6106e-06
0.00048789 0.000186772 -5.95682e-07
-3.6106e-06 -5.95682e-07 -3.04914e-06
-0.000187538 5.41211e-05 -2.87662e-07
5.41211e-05 -0.000372728 8.24457e-07
-2.87662e-07 8.24457e-07 -0.000640305
0.00175848 0.000375692 5.69958e-06
0.000375692 0.000715462 -1.45547e-06
5.69958e-06 -1.45547e-06 0.000441597
0.000258957 0.000159371 -4.74095e-06
0.000159371 -0.000257224 -1.76172e-06
-4.74095e-06 -1.76172e-06 -0.000489017
0.0021065 0.000619823 2.55545e-06
0.000619823 0.000293389 2.26895e-06
2.55545e-06 2.26895e-06 3.78559e-06
0.00209358 0.000603209 3.27318e-06
0.000603209 0.000195988 1.02874e-06
3.27318e-06 1.02874e-06 -4.28756e-05
0.00153211 0.000646961 2.78129e-06
0.000646961 0.000449031 2.74933e-06
2.78129e-06 2.74933e-06 -2.07103e-05
0.00240996 0.000787595 -5.23879e-06
0.000787595 0.000738256 5.39192e-06
-5.23879e-06 5.39192e-06 0.000304301
0.00224881 0.000719138 3.54051e-06
0.000719138 0.000356888 3.69506e-06
3.54051e-06 3.69506e-06 2.51097e-05
0.000611599 7.4347e-05 3.42907e-07
7.4347e-05 0.000103037 5.13986e-07
3.42907e-07 5.13986e-07 -1.40657e-05
0.000716702 0.000118977 -1.06819e-06
0.000118977 0.00024199 -4.71873e-08
-1.06819e-06 -4.71873e-08 3.974e-06
0.00111699 0.000477968 4.0387e-07
0.000477968 0.000284137 1.37181e-06
4.0387e-07 1.37181e-06 -8.27005e-05
0.000664698 9.88852e-05 -3.06107e-08
9.88852e-05 6.53318e-05 -4.84244e-07
-3.06107e-08 -4.84244e-07 -0.000182424
0.0011214 0.000309322 3.59536e-06
0.000309322 0.000191715 -4.22018e-06
3.59536e-06 -4.22018e-06 -7.47971e-05
0.0021371 0.00051652 -2.2666e-06
0.00051652 0.000128842 -1.2697e-06
-2.2666e-06 -1.2697e-06 -4.70228e-05
0.00220177 0.000683341 2.30902e-06
0.000683341 0.000306293 6.68199e-07
2.30902e-06 6.68199e-07 1.43068e-05
0.00212524 0.000662015 1.26116e-06
0.000662015 0.000163822 1.7805e-07
1.26116e-06 1.7805e-07 -8.66534e-05
0.00156497 0.000746422 2.21151e-06
0.000746422 0.000464851 9.97219e-07
2.21151e-06 9.97219e-07 -4.5016e-05
0.00187992 0.000764912 -1.91409e-06
0.000764912 0.000299713 -2.18272e-06
-1.91409e-06 -2.18272e-06 -0.000103478
0.00131364 0.000181141 9.77815e-07
0.000181141 0.000599004 2.86159e-06
9.77815e-07 2.86159e-06 0.000411572
-0.000340981 2.11191e-05 3.84335e-07
2.11191e-05 -0.000400209 1.65363e-07
3.84335e-07 1.65363e-07 -0.000686913
0.00148755 0.000590015 1.25131e-06
0.000590015 0.000517135 -4.03783e-06
1.25131e-06 -4.03783e-06 8.34243e-05
-7.7779e-05 0.000170586 7.07604e-06
0.000170586 -0.000565026 3.26414e-06
7.07604e-06 3.26414e-06 -0.000803315
0.00249005 0.000629249 2.07051e-06
0.000629249 0.000999249 -3.7567e-06
2.07051e-06 -3.7567e-06 0.000626698
0.00224361 0.000581902 -2.02582e-06
0.000581902 8.74942e-05 -5.84401e-07
-2.02582e-06 -5.84401e-07 -4.26213e-05
0.00224031 0.000743729 9.17777e-06
0.000743729 0.000285923 -3.1491e-06
9.17777e-06 -3.1491e-06 -4.07405e-05
0.00219936 0.000695469 8.08349e-06
0.000695469 0.000156176 9.99696e-07
8.08349e-06 9.99696e-07 -0.0001142
0.00182504 0.00079919 1.52364e-05
0.00079919 0.000567583 4.99814e-07
1.52364e-05 4.99814e-07 5.72489e-05
0.0021606 0.000885445 7.12941e-06
0.000885445 0.000496338 -4.66941e-07
7.12941e-06 -4.66941e-07 3.98996e-05
0.000566173 4.82479e-05 -2.89232e-07
4.82479e-05 7.76619e-05 -6.805e-06
-2.89232e-07 -6.805e-06 -2.38869e-05
0.000581421 0.000114579 9.30842e-07
0.000114579 0.000111993 -8.40673e-07
9.30842e-07 -8.40673e-07 -3.68248e-05
0.000204578 8.91952e-05 -1.38231e-06
8.91952e-05 -0.000126862 -2.48958e-06
-1.38231e-06 -2.48958e-06 -0.000251883
-0.000243883 -2.24234e-05 2.88924e-06
-2.24234e-05 -0.00039689 -3.2917e-06
2.88924e-06 -3.2917e-06 -0.000534729
0.000559863 8.10951e-05 -1.1551e-06
8.10951e-05 0.000134553 3.71335e-07
-1.1551e-06 3.71335e-07 -8.2294e-06
0.00038891 0.000103771 1.09556e-06
0.000103771 2.40878e-05 -2.30722e-07
1.09556e-06 -2.30722e-07 -0.000132059
0.000558201 0.000155648 -1.54539e-06
0.000155648 0.000132062 -7.73769e-06
-1.54539e-06 -7.73769e-06 -1.67137e-05
0.00034438 4.2677e-05 -3.57193e-06
4.2677e-05 1.77074e-05 1.36694e-06
-3.57193e-06 1.36694e-06 -0.000150255
0.000657944 0.00010937 -3.05655e-08
0.00010937 0.000180619 2.41133e-06
-3.05655e-08 2.41133e-06 5.65768e-05
0.000526322 8.1505e-05 2.72924e-06
8.1505e-05 7.12712e-05 4.23822e-06
2.72924e-06 4.23822e-06 -1.24263e-05
0.000486777 2.96807e-05 -2.77502e-06
2.96807e-05 4.02577e-05 8.32621e-08
-2.77502e-06 8.32621e-08 -3.98135e-05
0.0013067 7.09181e-06 2.43813e-06
7.09181e-06 0.000528021 3.88483e-06
2.43813e-06 3.88483e-06 0.000506142
0.000346062 -7.36325e-05 4.58639e-06
-7.36325e-05 -4.03146e-05 -4.59741e-06
4.58639e-06 -4.59741e-06 -0.000130005
0.00138069 -3.57503e-06 -8.83437e-06
-3.57503e-06 0.00057136 -1.74364e-06
-8.83437e-06 -1.74364e-06 0.000548875
0.00073789 -2.11122e-05 3.44588e-05
-2.11122e-05 0.000154527 9.73909e-06
3.44588e-05 9.73909e-06 0.000158339
0.001438 -8.88661e-06 -1.64424e-05
-8.88661e-06 0.000607034 -8.73811e-06
-1.64424e-05 -8.73811e-06 0.000581603
0.000741461 -3.72674e-05 1.48663e-05
-3.72674e-05 0.000158136 3.8067e-06
1.48663e-05 3.8067e-06 0.000155649
0.0028715 -0.000126055 4.27756e-07
-0.000126055 0.0015383 -3.57974e-06
4.27756e-07 -3.57974e-06 0.00153328
0.000273695 7.0911e-05 -4.80448e-06
7.0911e-05 -9.34848e-05 -7.05316e-06
-4.80448e-06 -7.05316e-06 -0.00014299
0.000386821 -1.23282e-05 -3.68092e-06
-1.23282e-05 -3.22239e-05 5.15986e-07
-3.68092e-06 5.15986e-07 -9.03543e-05
0.00330089 0.000181512 -1.3353e-05
0.000181512 0.00185017 -8.95088e-06
-1.3353e-05 -8.95088e-06 0.00182911
0.000684683 -0.000111909 -1.52183e-05
-0.000111909 0.000137951 1.3342e-05
-1.52183e-05 1.3342e-05 5.63279e-05
0.00437009 0.000148978 -4.04079e-05
0.000148978 0.00253143 -4.94943e-08
-4.04079e-05 -4.94943e-08 0.00251535
0.00542656 0.000117341 -0.000182343
0.000117341 0.00321662 2.47223e-05
-0.000182343 2.47223e-05 0.00320374
0.00220172 0.000416936 -3.33064e-06
0.000416936 0.000151071 6.36617e-07
-3.33064e-06 6.36617e-07 7.64328e-06
0.00220201 0.000223383 -5.0172e-06
0.000223383 8.97219e-05 -1.00858e-06
-5.0172e-06 -1.00858e-06 4.24833e-05
0.00214559 0.000308287 -4.62994e-07
0.000308287 -1.92785e-05 2.61118e-09
-4.62994e-07 2.61118e-09 -4.1141e-05
0.00206774 0.000133671 -4.12658e-07
0.000133671 -2.67216e-05 -2.48432e-07
-4.12658e-07 -2.48432e-07 -2.1854e-05
0.00213789 5.62335e-05 -6.27039e-06
5.62335e-05 5.66e-05 -2.38636e-07
-6.27039e-06 -2.38636e-07 3.32495e-05
0.0019361 3.45899e-06 -2.86259e-06
3.45899e-06 5.74272e-05 3.17543e-07
-2.86259e-06 3.17543e-07 -2.31343e-05
0.00213407 -8.16874e-06 6.50347e-08
-8.16874e-06 6.35693e-05 5.70116e-08
6.50347e-08 5.70116e-08 3.64219e-05
0.00208848 5.82046e-05 1.18958e-06
5.82046e-05 9.00913e-06 1.77263e-08
1.18958e-06 1.77263e-08 1.88749e-05
0.00214678 0.000208836 -3.22578e-07
0.000208836 9.09763e-06 -1.21536e-07
-3.22578e-07 -1.21536e-07 2.90576e-06
0.00216601 0.000138518 5.64609e-07
0.000138518 -3.27241e-05 1.39414e-07
5.64609e-07 1.39414e-07 6.22026e-06
0.00217248 0.000413193 -4.30435e-07
0.000413193 6.45914e-05 3.25875e-07
-4.30435e-07 3.25875e-07 -2.7193e-05
0.00228657 0.000322773 2.46641e-06
0.000322773 -1.04838e-05 4.50752e-07
2.46641e-06 4.50752e-07 4.48757e-06
0.00205113 -1.41452e-05 2.98261e-06
-1.41452e-05 -7.90257e-06 6.86653e-08
2.98261e-06 6.86653e-08 -1.18661e-06
0.00217244 6.63838e-05 -1.53681e-06
6.63838e-05 -3.71607e-05 6.67935e-08
-1.53681e-06 6.67935e-08 1.45295e-05
0.00225579 0.000212789 -3.25181e-06
0.000212789 -2.20047e-05 -5.41305e-07
-3.25181e-06 -5.41305e-07 1.51037e-05
0.00236645 0.000451253 -2.24109e-06
0.000451253 3.12558e-05 -4.77683e-07
-2.24109e-06 -4.77683e-07 2.61823e-05
0.0021537 -7.807e-05 -7.57076e-06
-7.807e-05 8.18601e-05 3.15491e-07
-7.57076e-06 3.15491e-07 4.85041e-05
0.00210098 -0.000235444 -3.07539e-06
-0.000235444 4.08238e-05 2.51531e-07
-3.07539e-06 2.51531e-07 -2.40706e-05
0.00203096 -0.00013205 -3.79593e-06
-0.00013205 -1.44048e-05 2.97268e-07
-3.79593e-06 2.97268e-07 -1.30008e-05
0.00213459 -0.000336241 -4.44423e-06
-0.000336241 2.23432e-05 5.99087e-07
-4.44423e-06 5.99087e-07 -1.42527e-05
0.00104096 -0.000442877 -7.16102e-06
-0.000442877 0.000145404 1.39482e-06
-7.16102e-06 1.39482e-06 -0.000223257
0.00170484 -0.000744276 1.11647e-05
-0.000744276 0.000387723 -6.59189e-06
1.11647e-05 -6.59189e-06 -9.98235e-05
0.00214755 -0.000824925 -2.66609e-06
-0.000824925 0.000405509 -3.43697e-06
-2.66609e-06 -3.43697e-06 -4.40879e-05
0.00209504 -0.000492967 -4.34447e-06
-0.000492967 0.000112725 1.28474e-06
-4.34447e-06 1.28474e-06 -3.4238e-05
0.00215544 -0.000439676 3.73798e-09
-0.000439676 2.10666e-05 4.6474e-07
3.73798e-09 4.6474e-07 -2.67298e-05
0.00210995 -0.000605923 -5.91187e-07
-0.000605923 0.000113652 1.40582e-06
-5.91187e-07 1.40582e-06 -5.55994e-05
0.00215669 -0.000673228 -6.63504e-06
-0.000673228 0.000327663 -1.78787e-06
-6.63504e-06 -1.78787e-06 2.49323e-05
0.0022597 -0.000660939 1.0459e-05
-0.000660939 0.000278376 -4.48989e-06
1.0459e-05 -4.48989e-06 4.45951e-05
0.00113435 -0.000485155 -6.20668e-06
-0.000485155 0.000305622 7.01452e-07
-6.20668e-06 7.01452e-07 -0.000100043
0.00100144 -0.000445131 1.09042e-05
-0.000445131 0.000241443 -4.16007e-06
1.09042e-05 -4.16007e-06 -0.000163989
0.00155442 -0.000251564 -2.34163e-06
-0.000251564 0.000622437 -6.97916e-06
-2.34163e-06 -6.97916e-06 0.00032544
3.71132e-05 -8.64756e-05 1.45773e-06
-8.64756e-05 -0.000238544 5.15691e-06
1.45773e-06 5.15691e-06 -0.000413694
-0.000138358 -0.000163168 2.48889e-06
-0.000163168 -0.000305776 -3.02856e-06
2.48889e-06 -3.02856e-06 -0.000626004
0.00204137 -8.60047e-05 1.62962e-07
-8.60047e-05 -2.01322e-05 -1.16632e-07
1.62962e-07 -1.16632e-07 -9.09387e-06
0.00212536 -0.000204279 1.57973e-06
-0.000204279 -3.11707e-06 -1.90827e-08
1.57973e-06 -1.90827e-08 -1.36468e-06
0.00223811 -0.000397749 -6.49791e-07
-0.000397749 -4.52387e-06 9.01656e-08
-6.49791e-07 9.01656e-08 -1.20656e-05
0.00166794 -0.000658951 -1.53438e-06
-0.000658951 0.000526221 -4.57979e-07
-1.53438e-06 -4.57979e-07 5.40704e-05
0.00154737 -0.000803844 4.07003e-06
-0.000803844 0.00027933 -5.61475e-07
4.07003e-06 -5.61475e-07 -0.000234496
0.00226322 -0.000881254 -9.34079e-07
-0.000881254 0.00045489 -1.7886e-07
-9.34079e-07 -1.7886e-07 -3.93667e-06
0.0022061 -0.000521236 5.00373e-07
-0.000521236 7.75088e-05 -3.92613e-08
5.00373e-07 -3.92613e-08 -1.13124e-06
0.00217757 -0.000693474 2.92878e-06
-0.000693474 0.000286862 -4.23429e-06
2.92878e-06 -4.23429e-06 -6.50886e-06
0.00231621 -0.000704337 -1.01788e-06
-0.000704337 0.000186854 -3.22908e-07
-1.01788e-06 -3.22908e-07 -5.20478e-06
-9.93607e-05 3.57235e-05 -2.14517e-06
3.57235e-05 -0.000326541 -6.80741e-07
-2.14517e-06 -6.80741e-07 -0.000443368
0.00130366 -0.000563302 -9.57416e-08
-0.000563302 0.000406513 -1.80986e-06
-9.57416e-08 -1.80986e-06 -5.14254e-05
0.0012313 -0.000522763 -4.37898e-06
-0.000522763 0.00040936 -1.0033e-06
-4.37898e-06 -1.0033e-06 -6.25116e-05
0.00147604 -0.00036455 -3.64043e-06
-0.00036455 0.000570524 3.92009e-06
-3.64043e-06 3.92009e-06 0.000191477
0.0015145 -0.000367389 1.6018e-06
-0.000367389 0.000701619 -1.70754e-06
1.6018e-06 -1.70754e-06 0.000351975
0.000497079 -0.000107167 -5.58249e-07
-0.000107167 0.000149301 1.13501e-06
-5.58249e-07 1.13501e-06 -0.000157822
0.00213085 -0.000108355 -6.5437e-07
-0.000108355 -4.59364e-05 1.24411e-07
-6.5437e-07 1.24411e-07 -5.32704e-06
0.00229608 -0.00027574 -9.46191e-07
-0.00027574 -5.0365e-05 1.12081e-06
-9.46191e-07 1.12081e-06 8.65755e-06
0.00231445 -0.000490428 4.02831e-07
-0.000490428 -7.54552e-06 2.69109e-07
4.02831e-07 2.69109e-07 2.96546e-06
0.00234565 -0.000627149 -6.35307e-07
-0.000627149 5.60448e-05 -2.17248e-06
-6.35307e-07 -2.17248e-06 1.55964e-06
0.00193537 -0.00076872 -1.1445e-05
-0.00076872 0.000681045 3.86209e-06
-1.1445e-05 3.86209e-06 0.000165212
0.00253664 -0.000830282 -1.10481e-05
-0.000830282 0.000382798 -7.18044e-06
-1.10481e-05 -7.18044e-06 0.000104257
0.00189089 -0.000928911 -5.157e-05
-0.000928911 0.000473507 8.34684e-06
-5.157e-05 8.34684e-06 -8.39813e-05
0.00218567 -0.000921592 -2.79668e-05
-0.000921592 0.00042667 2.92918e-06
-2.79668e-05 2.92918e-06 -4.63635e-05
-0.000194848 4.62036e-05 -6.11208e-06
4.62036e-05 -0.00038846 -3.69361e-06
-6.11208e-06 -3.69361e-06 -0.000475048
0.0010702 -2.50339e-06 -3.29008e-06
-2.50339e-06 0.000490611 -7.71218e-07
-3.29008e-06 -7.71218e-07 0.000273736
0.00214054 -0.000385932 -7.72072e-06
-0.000385932 0.00120867 7.71487e-07
-7.72072e-06 7.71487e-07 0.000851652
0.000580215 -0.000226649 -7.69111e-07
-0.000226649 7.64968e-05 -8.09145e-06
-7.69111e-07 -8.09145e-06 -0.000276159
0.00301315 -0.000803356 -1.60291e-05
-0.000803356 0.00143961 1.38748e-05
-1.60291e-05 1.38748e-05 0.000923257
0.00178371 -0.000581127 3.29606e-06
-0.000581127 0.000763725 1.61322e-05
3.29606e-06 1.61322e-05 0.000233794
0.000570919 6.17671e-05 -5.79134e-07
6.17671e-05 7.84602e-05 -7.35712e-06
-5.79134e-07 -7.35712e-06 -3.61384e-05
-0.000489925 3.97478e-05 1.44043e-06
3.97478e-05 -0.000522448 2.28568e-07
1.44043e-06 2.28568e-07 -0.000750525
0.00209968 0.000516383 -1.41151e-06
0.000516383 0.000114812 -8.08108e-07
-1.41151e-06 -8.08108e-07 -6.28005e-05
0.000300904 8.24681e-05 -4.08112e-06
8.24681e-05 -0.00016729 2.79123e-06
-4.08112e-06 2.79123e-06 -0.000409801
0.00127446 0.000505784 2.15988e-06
0.000505784 0.000360526 -4.99496e-06
2.15988e-06 -4.99496e-06 -1.76924e-05
-0.000472372 0.00012138 -7.30754e-06
0.00012138 -0.000820664 -6.6479e-06
-7.30754e-06 -6.6479e-06 -0.00103414
0.00225309 0.000688887 4.51317e-06
0.000688887 0.000328728 1.97519e-06
4.51317e-06 1.97519e-06 3.55298e-05
0.00212008 0.0006586 -4.28561e-06
0.0006586 0.000152278 5.47339e-07
-4.28561e-06 5.47339e-07 -9.6478e-05
0.00205165 0.000818931 -6.26266e-06
0.000818931 0.000743025 4.54255e-06
-6.26266e-06 4.54255e-06 0.000220303
0.00197695 0.000778621 -8.52095e-06
0.000778621 0.000387395 2.03227e-06
-8.52095e-06 2.03227e-06 -2.51574e-05
0.000842189 0.000144078 -9.23802e-07
0.000144078 0.000290037 -1.15652e-07
-9.23802e-07 -1.15652e-07 0.000115039
0.000388927 0.000133557 2.28999e-06
0.000133557 5.17659e-05 -9.82958e-07
2.28999e-06 -9.82958e-07 -0.000247227
0.00134707 0.000563745 -3.51459e-06
0.000563745 0.000427085 -1.18003e-06
-3.51459e-06 -1.18003e-06 2.59939e-06
0.00139876 0.000237658 -1.29583e-06
0.000237658 0.000355131 8.1784e-07
-1.29583e-06 8.1784e-07 0.000116744
0.00215291 0.000544097 6.49989e-07
0.000544097 0.000768396 -2.8586e-06
6.49989e-07 -2.8586e-06 0.000421591
0.00231585 0.000593998 -2.44521e-06
0.000593998 0.000115428 -8.50043e-07
-2.44521e-06 -8.50043e-07 -1.78642e-05
0.00240286 0.000742701 2.91707e-06
0.000742701 0.000392874 -7.56433e-07
2.91707e-06 -7.56433e-07 7.48168e-05
0.00243284 0.000722276 1.19285e-06
0.000722276 0.000294925 2.73811e-06
1.19285e-06 2.73811e-06 2.04542e-05
0.00175108 0.000799603 4.83205e-06
0.000799603 0.000520317 1.31938e-06
4.83205e-06 1.31938e-06 4.70337e-06
0.00212514 0.000913777 -4.98915e-06
0.000913777 0.00047778 8.43055e-07
-4.98915e-06 8.43055e-07 1.98015e-06
-0.00138215 1.76218e-05 -6.09986e-06
1.76218e-05 -0.0010975 4.58745e-06
-6.09986e-06 4.58745e-06 -0.00126582
-0.00157173 0.000110513 3.32852e-07
0.000110513 -0.00113412 7.1256e-07
3.32852e-07 7.1256e-07 -0.00147078
0.00170092 0.00064503 6.89589e-06
0.00064503 0.000590019 -2.99055e-06
6.89589e-06 -2.99055e-06 0.000141843
0.0015608 0.000429394 6.41162e-06
0.000429394 0.000364487 5.18551e-07
6.41162e-06 5.18551e-07 6.45855e-05
0.0025693 0.000593666 2.19953e-06
0.000593666 -5.30468e-05 8.66856e-07
2.19953e-06 8.66856e-07 -2.45289e-06
0.00261172 0.000719784 7.36845e-06
0.000719784 0.000313813 8.17784e-07
7.36845e-06 8.17784e-07 0.000106481
0.00240023 0.000876787 8.77622e-06
0.000876787 0.000402083 -4.19598e-06
8.77622e-06 -4.19598e-06 -8.91073e-06
0.00165602 0.000886076 5.19862e-06
0.000886076 0.00031381 -1.0977e-06
5.19862e-06 -1.0977e-06 -0.000228798
0.00102506 0.000163162 3.65824e-07
0.000163162 0.000408976 -2.16406e-06
3.65824e-07 -2.16406e-06 0.000243929
0.000444174 0.000160748 -2.61487e-06
0.000160748 4.52019e-05 -4.2613e-07
-2.61487e-06 -4.2613e-07 -9.79484e-05
0.00119759 0.000134195 -9.35277e-06
0.000134195 0.000531042 -5.36265e-06
-9.35277e-06 -5.36265e-06 0.000423726
0.000407411 5.24565e-05 3.38894e-07
5.24565e-05 1.26651e-05 -2.55848e-06
3.38894e-07 -2.55848e-06 -0.000110609
-0.000687456 5.15168e-05 2.84314e-07
5.15168e-05 -0.000643622 -5.89562e-08
2.84314e-07 -5.89562e-08 -0.000792468
0.000655907 6.43758e-05 -7.9298e-07
6.43758e-05 0.000181586 6.58346e-08
-7.9298e-07 6.58346e-08 5.53927e-05
0.000578873 0.000172667 1.38163e-06
0.000172667 0.000175811 1.12483e-06
1.38163e-06 1.12483e-06 2.18224e-05
0.000538373 8.58744e-05 6.37651e-07
8.58744e-05 0.000160224 9.81373e-07
6.37651e-07 9.81373e-07 -2.39768e-05
0.000643267 0.000141924 3.50378e-06
0.000141924 0.000136857 -6.97966e-06
3.50378e-06 -6.97966e-06 4.87164e-05
0.000717454 4.43365e-05 1.54518e-06
4.43365e-05 0.000261643 -5.0236e-06
1.54518e-06 -5.0236e-06 8.47065e-05
-1.20659e-05 7.54314e-05 -4.16737e-07
7.54314e-05 -0.000212997 3.08336e-06
-4.16737e-07 3.08336e-06 -0.000374328
0.000677504 0.000123122 2.24098e-06
0.000123122 0.00019269 4.03804e-06
2.24098e-06 4.03804e-06 6.38168e-05
0.000447722 8.62305e-05 2.76703e-06
8.62305e-05 2.7715e-05 4.09796e-06
2.76703e-06 4.09796e-06 -6.21015e-05
0.000436517 2.01828e-05 -1.55055e-06
2.01828e-05 1.11118e-05 -4.06082e-07
-1.55055e-06 -4.06082e-07 -7.0048e-05
0.00124689 1.29656e-05 1.19781e-06
1.29656e-05 0.000495266 3.32598e-06
1.19781e-06 3.32598e-06 0.000473819
0.000424717 -4.10455e-05 1.03595e-06
-4.10455e-05 -2.82511e-06 -3.56213e-06
1.03595e-06 -3.56213e-06 -8.00391e-05
0.00132861 -1.12455e-06 -8.62208e-06
-1.12455e-06 0.000541281 -1.74094e-06
-8.62208e-06 -1.74094e-06 0.000520621
0.000696449 -1.11728e-05 3.15662e-05
-1.11728e-05 0.000130851 9.78238e-06
3.15662e-05 9.78238e-06 0.000135572
0.00136914 -2.22576e-05 -1.1461e-05
-2.22576e-05 0.000564441 -7.57947e-06
-1.1461e-05 -7.57947e-06 0.000542806
0.000735061 -2.66384e-05 1.29188e-05
-2.66384e-05 0.000150866 3.69341e-06
1.29188e-05 3.69341e-06 0.000152514
0.000733286 -4.07181e-05 1.41984e-06
-4.07181e-05 0.000152762 -3.9626e-06
1.41984e-06 -3.9626e-06 0.000148559
0.000349687 4.98566e-05 -2.24213e-06
4.98566e-05 -7.01616e-05 -5.13645e-06
-2.24213e-06 -5.13645e-06 -0.000102609
0.000398243 6.81821e-05 -1.10889e-06
6.81821e-05 -1.80919e-05 1.55264e-07
-1.10889e-06 1.55264e-07 -6.69152e-05
0.0027101 0.000134736 -1.73368e-06
0.000134736 0.00145731 -6.57022e-06
-1.73368e-06 -6.57022e-06 0.0014492
0.000521056 -1.58818e-05 -9.38599e-06
-1.58818e-05 5.2826e-05 1.14067e-05
-9.38599e-06 1.14067e-05 -8.22891e-06
0.00347739 0.000164702 -2.37235e-05
0.000164702 0.00195575 -2.20043e-06
-2.37235e-05 -2.20043e-06 0.00193798
0.00450971 8.23578e-05 -0.000155184
8.23578e-05 0.0026139 1.85374e-05
-0.000155184 1.85374e-05 0.0026134
0.0021779 0.000412513 -6.80241e-07
0.000412513 7.78655e-05 5.27528e-07
-6.80241e-07 5.27528e-07 -1.57436e-05
0.00216206 0.000208937 -2.47637e-06
0.000208937 2.18199e-05 -8.44313e-07
-2.47637e-06 -8.44313e-07 1.62715e-05
0.00222264 0.000323973 2.16475e-06
0.000323973 -5.30677e-05 1.47534e-06
2.16475e-06 1.47534e-06 -3.1406e-05
0.00214112 0.000139449 2.44876e-06
0.000139449 -5.41288e-05 -6.94224e-08
2.44876e-06 -6.94224e-08 -7.8825e-06
0.0020815 5.95868e-05 -2.95674e-06
5.95868e-05 7.06409e-06 -3.55378e-07
-2.95674e-06 -3.55378e-07 1.35117e-05
0.00215094 -1.14757e-05 -8.05787e-06
-1.14757e-05 7.97109e-05 -7.42716e-08
-8.05787e-06 -7.42716e-08 5.05764e-05
0.00206045 -1.27187e-05 2.37477e-07
-1.27187e-05 -9.64658e-07 1.31111e-08
2.37477e-07 1.31111e-08 6.5959e-06
0.00215312 6.91988e-05 1.04606e-06
6.91988e-05 -4.56461e-05 8.24477e-08
1.04606e-06 8.24477e-08 4.45464e-06
0.00223607 0.000218967 1.04931e-06
0.000218967 -3.76748e-05 1.74694e-07
1.04931e-06 1.74694e-07 3.52735e-06
0.00233922 0.000437973 5.58783e-07
0.000437973 7.08596e-06 1.88432e-07
5.58783e-07 1.88432e-07 5.00414e-06
0.00212158 -1.6944e-05 -1.95468e-06
-1.6944e-05 -5.56298e-05 1.07029e-09
-1.95468e-06 1.07029e-09 -1.16722e-05
0.00227973 0.000119918 -5.40771e-06
0.000119918 -8.15358e-05 -3.73161e-07
-5.40771e-06 -3.73161e-07 1.17808e-05
0.00250002 0.000332299 -2.09572e-06
0.000332299 -1.1592e-05 -1.32906e-06
-2.09572e-06 -1.32906e-06 5.61109e-05
0.00202883 -9.39808e-05 -2.49666e-06
-9.39808e-05 -2.9337e-05 1.83511e-07
-2.49666e-06 1.83511e-07 -1.9606e-05
0.00213576 -0.000204272 -2.28215e-06
-0.000204272 5.66696e-07 -1.33044e-07
-2.28215e-06 -1.33044e-07 1.96687e-06
0.00222617 -0.000390044 -1.25885e-06
-0.000390044 6.61144e-06 -1.40047e-07
-1.25885e-06 -1.40047e-07 -8.44493e-06
0.00181414 -0.000677129 1.1461e-06
-0.000677129 0.000600503 -3.18416e-06
1.1461e-06 -3.18416e-06 0.000126262
0.00164285 -0.00078973 2.18752e-05
-0.00078973 0.00034212 -7.75187e-06
2.18752e-05 -7.75187e-06 -0.000162913
0.00209252 -0.000873558 1.63329e-06
-0.000873558 0.000364278 -1.12581e-06
1.63329e-06 -1.12581e-06 -9.64388e-05
0.00220702 -0.000517975 -1.43419e-06
-0.000517975 8.21098e-05 6.29759e-07
-1.43419e-06 6.29759e-07 7.98721e-07
0.00227649 -0.000685382 8.8535e-06
-0.000685382 0.000190447 2.59061e-06
8.8535e-06 2.59061e-06 7.94792e-06
0.00230601 -0.000732143 7.31531e-06
-0.000732143 0.000335033 -6.66339e-06
7.31531e-06 -6.66339e-06 3.66402e-05
0.000993986 -0.000511786 2.45373e-06
-0.000511786 0.000225985 -1.79e-06
2.45373e-06 -1.79e-06 -0.000221712
0.00183392 -0.00061459 8.71412e-06
-0.00061459 0.000781797 -1.33747e-05
8.71412e-06 -1.33747e-05 0.000297824
0.00199037 -0.000407864 -7.55398e-06
-0.000407864 0.000942997 5.28823e-06
-7.55398e-06 5.28823e-06 0.00052561
0.000239395 3.9399e-05 4.7843e-06
3.9399e-05 -0.000113019 2.83789e-06
4.7843e-06 2.83789e-06 -0.000227301
0.00177817 -0.000440526 -1.27387e-07
-0.000440526 0.000854389 2.21359e-06
-1.27387e-07 2.21359e-06 0.000500847
-0.000302187 1.08069e-05 7.25347e-06
1.08069e-05 -0.000371905 -7.17612e-07
7.25347e-06 -7.17612e-07 -0.000661533
0.00214092 -0.000104804 -5.78057e-07
-0.000104804 -3.88274e-05 8.2562e-08
-5.78057e-07 8.2562e-08 -3.71273e-07
0.00227351 -0.000285336 3.11199e-07
-0.000285336 -6.82582e-05 -1.17599e-08
3.11199e-07 -1.17599e-08 -7.28563e-06
0.00231416 -0.000482514 -7.16408e-07
-0.000482514 -3.7786e-06 3.24059e-07
-7.16408e-07 3.24059e-07 5.17206e-06
0.00198427 -0.000776262 -1.15813e-06
-0.000776262 0.000711239 1.10728e-06
-1.15813e-06 1.10728e-06 0.000195362
0.00164808 -0.000888805 7.72529e-06
-0.000888805 0.000335579 -2.03569e-06
7.72529e-06 -2.03569e-06 -0.000208764
0.00241628 -0.000921657 -1.99616e-06
-0.000921657 0.000566914 -1.2791e-06
-1.99616e-06 -1.2791e-06 0.000107923
0.00234741 -0.00063847 2.64736e-08
-0.00063847 5.99612e-05 -1.6685e-07
2.64736e-08 -1.6685e-07 -4.44396e-06
0.00212123 -0.000773953 2.16033e-06
-0.000773953 0.000159486 -1.22417e-06
2.16033e-06 -1.22417e-06 -0.000100619
0.000193651 6.17726e-05 -2.30877e-06
6.17726e-05 -0.000140674 -1.50554e-06
-2.30877e-06 -1.50554e-06 -0.000225067
0.000705689 -4.70887e-05 -1.19171e-06
-4.70887e-05 0.000245713 6.62552e-07
-1.19171e-06 6.62552e-07 4.15545e-05
0.00115719 -0.000579978 -3.22255e-06
-0.000579978 0.000315554 1.25491e-06
-3.22255e-06 1.25491e-06 -0.000142609
0.00164317 -0.000531032 -4.89894e-06
-0.000531032 0.000708819 1.55689e-06
-4.89894e-06 1.55689e-06 0.000186057
0.00109652 -0.000200754 -1.26553e-07
-0.000200754 0.000382513 -1.85268e-06
-1.26553e-07 -1.85268e-06 2.83607e-05
0.00143073 -0.000291828 -1.90588e-07
-0.000291828 0.000752553 2.08561e-06
-1.90588e-07 2.08561e-06 0.000402489
0.00226551 -0.000141742 -4.07821e-06
-0.000141742 -7.85309e-05 1.55706e-06
-4.07821e-06 1.55706e-06 1.57941e-05
0.00243124 -0.000414247 -1.72528e-06
-0.000414247 -0.000116233 2.24249e-06
-1.72528e-06 2.24249e-06 9.50238e-06
0.00239645 -0.000601259 2.79207e-06
-0.000601259 -1.21238e-05 -1.33343e-06
2.79207e-06 -1.33343e-06 -3.77389e-06
0.00248921 -0.000812538 2.30134e-06
-0.000812538 0.000169874 -2.68303e-06
2.30134e-06 -2.68303e-06 1.40898e-05
0.000948071 -0.000679284 -9.63824e-06
-0.000679284 9.42078e-05 -4.78609e-06
-9.63824e-06 -4.78609e-06 -0.000393364
0.00245522 -0.000986999 -5.09399e-06
-0.000986999 0.000494694 -3.30945e-06
-5.09399e-06 -3.30945e-06 6.83659e-05
0.00244407 -0.00108458 -5.96538e-05
-0.00108458 0.000719519 1.97392e-06
-5.96538e-05 1.97392e-06 0.000114401
0.000549947 4.47981e-05 -1.7044e-07
4.47981e-05 6.79983e-05 -1.01825e-06
-1.7044e-07 -1.01825e-06 4.05358e-06
0.000784888 -0.000165371 4.02853e-06
-0.000165371 0.000291806 -2.86746e-06
4.02853e-06 -2.86746e-06 0.000158706
0.000189312 8.56232e-05 -8.43068e-06
8.56232e-05 -9.36663e-05 -1.14265e-06
-8.43068e-06 -1.14265e-06 -0.000227275
0.00106874 -8.55319e-05 -4.63898e-06
-8.55319e-05 0.000504395 3.07873e-06
-4.63898e-06 3.07873e-06 0.000236576
-0.000390164 -0.000185086 4.25502e-07
-0.000185086 -0.000465294 -1.03464e-05
4.25502e-07 -1.03464e-05 -0.000777549
0.00102643 -0.00026586 3.70572e-06
-0.00026586 0.000407726 -8.01697e-06
3.70572e-06 -8.01697e-06 -3.9087e-05
0.00155098 -0.000654948 -2.83834e-05
-0.000654948 0.000558605 3.50588e-05
-2.83834e-05 3.50588e-05 9.35963e-05
0.00242727 -0.000568019 -2.08668e-05
-0.000568019 0.00138666 1.83339e-05
-2.08668e-05 1.83339e-05 0.000636268
9.95396e-05 6.97786e-05 2.65137e-07
6.97786e-05 -0.00020462 -4.97041e-07
2.65137e-07 -4.97041e-07 -0.000355472
0.00140269 0.000268396 -2.05805e-07
0.000268396 0.000669222 9.25149e-07
-2.05805e-07 9.25149e-07 0.000362234
0.00238987 0.000607067 -9.42705e-07
0.000607067 0.000144165 -8.36998e-07
-9.42705e-07 -8.36998e-07 7.13795e-06
0.0007468 0.000196701 -6.16481e-06
0.000196701 -6.22351e-05 -2.53566e-06
-6.16481e-06 -2.53566e-06 -0.000309109
0.00118724 0.00053556 -2.74047e-06
0.00053556 0.000328667 -1.2334e-06
-2.74047e-06 -1.2334e-06 -8.85942e-05
0.00210322 0.00049625 -7.36592e-06
0.00049625 0.000717343 4.22317e-07
-7.36592e-06 4.22317e-07 0.000386254
0.00254988 0.000738216 -6.08852e-06
0.000738216 0.000491781 1.86446e-07
-6.08852e-06 1.86446e-07 0.000183598
0.00264696 0.000747826 -8.20613e-06
0.000747826 0.000422564 6.28441e-06
-8.20613e-06 6.28441e-06 0.000144425
0.00160514 0.000793437 -5.89986e-06
0.000793437 0.000424196 1.70395e-06
-5.89986e-06 1.70395e-06 -9.45587e-05
0.00198449 0.000932057 -1.17522e-05
0.000932057 0.000396916 1.61235e-07
-1.17522e-05 1.61235e-07 -9.55307e-05
-0.000174259 7.73052e-05 1.46675e-06
7.73052e-05 -0.000316024 1.58172e-06
1.46675e-06 1.58172e-06 -0.000521227
0.000270699 0.000301482 3.46796e-06
0.000301482 2.75852e-05 -2.38877e-06
3.46796e-06 -2.38877e-06 -0.000329457
0.00152226 0.000636441 1.56526e-06
0.000636441 0.000453602 -7.52156e-08
1.56526e-06 -7.52156e-08 -3.0816e-07
0.0019986 0.000478585 -5.07926e-06
0.000478585 0.000671345 1.18396e-06
-5.07926e-06 1.18396e-06 0.000355079
0.00250914 0.000569748 3.31238e-07
0.000569748 -0.000120486 -9.61327e-07
3.31238e-07 -9.61327e-07 -4.97329e-05
0.00264252 0.000732332 3.21181e-06
0.000732332 0.000329518 -1.77456e-07
3.21181e-06 -1.77456e-07 0.000108645
0.00226152 0.000844559 -3.07671e-06
0.000844559 0.0003473 -3.1584e-08
-3.07671e-06 -3.1584e-08 -5.19994e-05
0.00200829 0.000917969 1.94913e-06
0.000917969 0.00050471 3.55125e-07
1.94913e-06 3.55125e-07 -3.50578e-05
-0.000637691 3.40669e-05 -4.89333e-06
3.40669e-05 -0.000588531 1.2295e-06
-4.89333e-06 1.2295e-06 -0.000771569
0.00241683 0.000416953 5.98417e-06
0.000416953 -0.000204352 5.43599e-07
5.98417e-06 5.43599e-07 -9.52416e-05
0.002326 0.000576386 1.26025e-06
0.000576386 0.00126268 9.94946e-06
1.26025e-06 9.94946e-06 0.000857624
0.00167602 0.000653342 2.05906e-06
0.000653342 0.000472229 -3.62479e-06
2.05906e-06 -3.62479e-06 3.20264e-05
0.00260152 0.000716922 -1.35345e-05
0.000716922 8.90353e-05 -9.14485e-06
-1.35345e-05 -9.14485e-06 6.30751e-05
0.00134451 0.000787895 4.33333e-06
0.000787895 -0.000289932 -9.87728e-06
4.33333e-06 -9.87728e-06 -0.000662115
0.00296059 0.00105828 2.93525e-06
0.00105828 0.000990906 3.10728e-06
2.93525e-06 3.10728e-06 0.000422809
0.000582952 0.000141654 -5.28165e-07
0.000141654 0.000142302 -6.69345e-07
-5.28165e-07 -6.69345e-07 -6.99666e-06
0.000485304 0.000127472 -3.06863e-06
0.000127472 0.000103857 -1.38942e-06
-3.06863e-06 -1.38942e-06 -9.24449e-06
0.000403 9.62679e-05 -3.27544e-06
9.62679e-05 7.78485e-05 8.42337e-07
-3.27544e-06 8.42337e-07 -5.92646e-07
0.000389317 9.25989e-06 1.36276e-06
9.25989e-06 9.2187e-06 -3.53258e-06
1.36276e-06 -3.53258e-06 -0.000113929
0.000496839 8.60072e-05 2.75808e-06
8.60072e-05 0.00013241 -3.50122e-06
2.75808e-06 -3.50122e-06 -5.04346e-05
-0.000612946 0.000126264 -4.31613e-06
0.000126264 -0.000532231 9.1958e-06
-4.31613e-06 9.1958e-06 -0.000674815
0.00051027 2.62651e-05 -1.66689e-06
2.62651e-05 8.94679e-05 -3.15766e-08
-1.66689e-06 -3.15766e-08 -4.13062e-05
0.00025845 -1.66212e-06 -6.96953e-07
-1.66212e-06 -2.17446e-05 -2.4519e-07
-6.96953e-07 -2.4519e-07 -0.000196807
1.0124e-05 7.80797e-05 -3.66642e-06
7.80797e-05 -0.000227925 2.76657e-06
-3.66642e-06 2.76657e-06 -0.000301201
0.000715745 0.000131303 1.41175e-06
0.000131303 0.000272437 -1.40686e-06
1.41175e-06 -1.40686e-06 8.65519e-05
0.00184192 0.000183914 -1.51395e-06
0.000183914 0.000882844 -5.41163e-06
-1.51395e-06 -5.41163e-06 0.000829446
5.91752e-05 2.6458e-05 1.15425e-05
2.6458e-05 -0.000190648 -9.93806e-06
1.15425e-05 -9.93806e-06 -0.000284834
0.000434554 0.000125142 7.98743e-07
0.000125142 0.000105627 3.35696e-06
7.98743e-07 3.35696e-06 -8.72154e-05
0.000511806 6.80281e-05 9.45254e-07
6.80281e-05 0.000119041 4.0179e-06
9.45254e-07 4.0179e-06 -6.26354e-05
0.000527887 2.52303e-05 2.2299e-06
2.52303e-05 8.74024e-05 3.42717e-06
2.2299e-06 3.42717e-06 -4.43526e-05
0.00048639 -6.97486e-05 -1.45542e-06
-6.97486e-05 4.54742e-05 3.11108e-06
-1.45542e-06 3.11108e-06 -4.28957e-05
0.000467631 1.55895e-05 6.94072e-07
1.55895e-05 2.82378e-05 -4.61577e-07
6.94072e-07 -4.61577e-07 -5.3706e-05
0.0013164 2.90935e-05 3.64422e-06
2.90935e-05 0.000546221 3.5827e-06
3.64422e-06 3.5827e-06 0.000523662
0.000467317 1.38922e-05 6.05139e-07
1.38922e-05 1.75866e-05 -3.83048e-06
6.05139e-07 -3.83048e-06 -5.50197e-05
0.00133466 1.88353e-05 -8.62666e-06
1.88353e-05 0.00055241 -1.87612e-06
-8.62666e-06 -1.87612e-06 0.000530442
0.00075018 -4.62537e-06 2.69217e-05
-4.62537e-06 0.000170705 9.3227e-06
2.69217e-05 9.3227e-06 0.000174715
0.00134401 -1.19135e-05 -9.45677e-06
-1.19135e-05 0.000550552 -7.32394e-06
-9.45677e-06 -7.32394e-06 0.000530783
0.000756823 -1.70193e-05 1.05239e-05
-1.70193e-05 0.000166435 3.67968e-06
1.05239e-05 3.67968e-06 0.000169321
0.000737595 -2.98309e-05 1.05816e-06
-2.98309e-05 0.000150464 -3.17546e-06
1.05816e-06 -3.17546e-06 0.000151052
0.000595956 -1.99525e-05 1.25616e-06
-1.99525e-05 9.14565e-05 -2.11145e-06
1.25616e-06 -2.11145e-06 3.31222e-05
0.000355538 3.00743e-05 -5.18946e-07
3.00743e-05 -7.87262e-05 -4.49689e-06
-5.18946e-07 -4.49689e-06 -0.000101999
0.00038329 4.66012e-05 5.75002e-07
4.66012e-05 -4.78234e-05 3.55917e-07
5.75002e-07 3.55917e-07 -8.08117e-05
0.00254 0.000106032 6.47827e-06
0.000106032 0.00133591 -5.45967e-06
6.47827e-06 -5.45967e-06 0.00133577
0.000389985 4.49688e-05 3.07739e-06
4.49688e-05 -3.47309e-05 8.43669e-06
3.07739e-06 8.43669e-06 -7.85375e-05
0.00296737 0.000149337 -4.71088e-06
0.000149337 0.00162515 -5.5161e-07
-4.71088e-06 -5.5161e-07 0.00161376
0.00372048 0.000116308 -6.56086e-05
0.000116308 0.00209832 7.81171e-06
-6.56086e-05 7.81171e-06 0.002091
0.00231735 0.000425467 2.42416e-06
0.000425467 -1.36188e-05 9.25149e-07
2.42416e-06 9.25149e-07 -1.29869e-05
0.00222103 0.000225584 2.23669e-06
0.000225584 -4.95104e-05 5.65877e-07
2.23669e-06 5.65877e-07 -4.77989e-06
0.00213773 7.2955e-05 1.67506e-06
7.2955e-05 -5.08274e-05 -1.42751e-07
1.67506e-06 -1.42751e-07 -2.6521e-06
0.00206596 -1.11088e-05 -3.34048e-06
-1.11088e-05 3.80019e-06 -1.63286e-07
-3.34048e-06 -1.63286e-07 1.22334e-05
0.00213375 -1.18475e-05 -8.4199e-07
-1.18475e-05 -4.98744e-05 -2.89394e-08
-8.4199e-07 -2.89394e-08 -2.62295e-06
0.00227365 0.000114105 3.03921e-07
0.000114105 -7.66548e-05 6.10846e-07
3.03921e-07 6.10846e-07 1.42358e-05
0.0024033 0.000340299 -1.01947e-06
0.000340299 -5.62701e-05 -2.70117e-07
-1.01947e-06 -2.70117e-07 1.06239e-05
0.00224344 -1.21338e-05 -4.67142e-06
-1.21338e-05 -0.00010489 5.08624e-07
-4.67142e-06 5.08624e-07 4.2895e-07
0.00255073 0.000169046 -3.04187e-06
0.000169046 -5.49988e-05 -2.87738e-06
-3.04187e-06 -2.87738e-06 5.49326e-05
0.0025318 0.000135711 6.69749e-06
0.000135711 -2.39639e-05 8.37693e-06
6.69749e-06 8.37693e-06 9.05516e-05
0.00215662 -0.000101627 6.3386e-07
-0.000101627 -2.77316e-05 3.07758e-10
6.3386e-07 3.07758e-10 8.43331e-06
0.00224922 -0.000295557 1.62601e-07
-0.000295557 -8.94145e-05 -1.37706e-06
1.62601e-07 -1.37706e-06 -2.49377e-05
0.00231435 -0.000473483 1.45941e-07
-0.000473483 1.15178e-06 -7.61028e-07
1.45941e-07 -7.61028e-07 8.66966e-06
0.00129534 -0.000700104 6.80452e-06
-0.000700104 0.000283284 -1.11784e-06
6.80452e-06 -1.11784e-06 -0.000215196
0.00192356 -0.000923511 3.64684e-05
-0.000923511 0.000489251 -3.79886e-06
3.64684e-05 -3.79886e-06 -6.27908e-05
0.0023193 -0.000883362 1.37294e-05
-0.000883362 0.000516719 -3.51204e-06
1.37294e-05 -3.51204e-06 7.83151e-05
0.00233097 -0.000645195 3.47402e-06
-0.000645195 5.90353e-05 1.87355e-06
3.47402e-06 1.87355e-06 -1.77387e-05
0.00220771 -0.000765768 1.42827e-05
-0.000765768 0.00023163 3.66496e-06
1.42827e-05 3.66496e-06 -2.14352e-05
0.000702795 -0.000513498 9.90237e-06
-0.000513498 6.11149e-05 -2.03304e-05
9.90237e-06 -2.03304e-05 -0.00039628
0.00132951 -0.000459406 7.60261e-06
-0.000459406 0.000580714 -2.05065e-05
7.60261e-06 -2.05065e-05 5.36891e-05
0.000168114 -0.000137183 -4.79718e-06
-0.000137183 -0.00023462 4.81925e-06
-4.79718e-06 4.81925e-06 -0.000569247
0.000426011 1.42369e-05 2.57166e-06
1.42369e-05 5.35001e-06 2.0494e-06
2.57166e-06 2.0494e-06 -7.52152e-05
0.000286333 1.00517e-05 7.6227e-06
1.00517e-05 -3.325e-05 8.52295e-07
7.6227e-06 8.52295e-07 -0.000224659
0.000818156 -0.00022457 4.7004e-07
-0.00022457 0.000352253 6.7524e-06
4.7004e-07 6.7524e-06 9.46697e-06
0.00226663 -0.000144539 4.76253e-07
-0.000144539 -8.86496e-05 2.50565e-07
4.76253e-07 2.50565e-07 9.15945e-06
0.000464552 3.38718e-06 1.87984e-06
3.38718e-06 1.31574e-05 3.6683e-07
1.87984e-06 3.6683e-07 -5.07141e-05
0.000372118 -8.40591e-05 -3.41215e-06
-8.40591e-05 -1.21692e-05 -9.08427e-07
-3.41215e-06 -9.08427e-07 -0.000119901
0.0024024 -0.000401821 -3.10346e-07
-0.000401821 -0.000106621 -1.18326e-07
-3.10346e-07 -1.18326e-07 4.20931e-06
0.00236476 -0.000585176 -1.89514e-06
-0.000585176 -1.56483e-05 6.18198e-07
-1.89514e-06 6.18198e-07 -3.34598e-07
0.00199443 -0.000830425 7.18603e-07
-0.000830425 0.000711747 1.97473e-06
7.18603e-07 1.97473e-06 0.000179954
0.00214188 -0.00104452 1.02893e-05
-0.00104452 0.00056098 -7.66512e-07
1.02893e-05 -7.66512e-07 -3.67882e-05
0.00242123 -0.000980639 2.02713e-06
-0.000980639 0.000463687 -4.47462e-06
2.02713e-06 -4.47462e-06 4.7882e-05
0.00243955 -0.000810502 2.5844e-06
-0.000810502 0.000138067 -4.71096e-07
2.5844e-06 -4.71096e-07 -1.15264e-05
0.000575712 8.98054e-06 -1.25352e-06
8.98054e-06 0.00016121 -1.38953e-06
-1.25352e-06 -1.38953e-06 2.18086e-05
0.000811869 -7.28102e-05 1.71606e-06
-7.28102e-05 0.000336726 2.24033e-06
1.71606e-06 2.24033e-06 7.40585e-05
0.00147089 -0.000630216 9.81679e-06
-0.000630216 0.000552318 9.90932e-06
9.81679e-06 9.90932e-06 8.69308e-05
0.0012009 -0.00045174 1.75175e-05
-0.00045174 0.000595286 -1.04952e-05
1.75175e-05 -1.04952e-05 -5.55251e-05
0.000850566 -0.000198694 -1.84596e-06
-0.000198694 0.000250531 -4.20777e-07
-1.84596e-06 -4.20777e-07 -0.000146136
3.11608e-05 -0.000161005 1.75518e-06
-0.000161005 -0.000187229 -2.61503e-06
1.75518e-06 -2.61503e-06 -0.000509835
0.00227802 -0.000169834 -3.14573e-06
-0.000169834 -0.000265056 4.22877e-06
-3.14573e-06 4.22877e-06 -0.000125399
0.00244246 -0.000523461 1.23194e-06
-0.000523461 -0.000242474 3.76419e-06
1.23194e-06 3.76419e-06 1.11865e-06
0.00271487 -0.000830238 -6.43149e-06
-0.000830238 0.000124789 -3.85077e-06
-6.43149e-06 -3.85077e-06 8.58119e-05
0.00268099 -0.00105352 1.16715e-05
-0.00105352 0.000369929 -2.33771e-06
1.16715e-05 -2.33771e-06 9.33759e-05
0.000909229 -0.000758062 -3.23917e-06
-0.000758062 0.000147058 -1.37099e-05
-3.23917e-06 -1.37099e-05 -0.000394845
0.0035136 -0.00131079 -1.27009e-05
-0.00131079 0.00120401 3.15298e-06
-1.27009e-05 3.15298e-06 0.000568312
0.000219407 6.41972e-05 -3.26774e-06
6.41972e-05 -0.000108672 -5.71534e-06
-3.26774e-06 -5.71534e-06 -0.00022138
0.00043999 -5.31956e-05 5.75675e-06
-5.31956e-05 3.4695e-05 -3.93492e-07
5.75675e-06 -3.93492e-07 -6.44074e-05
0.00156417 -0.000209981 -5.64566e-06
-0.000209981 0.000704842 1.75371e-05
-5.64566e-06 1.75371e-05 0.00056719
0.000323946 2.01042e-05 -4.42434e-06
2.01042e-05 -2.20665e-05 3.41998e-06
-4.42434e-06 3.41998e-06 -0.000207333
0.000970749 -0.000160759 -6.57281e-06
-0.000160759 0.000428897 9.87784e-06
-6.57281e-06 9.87784e-06 0.000132607
0.00126053 -9.85392e-05 1.07711e-05
-9.85392e-05 0.000488149 -1.89803e-05
1.07711e-05 -1.89803e-05 0.000207112
-0.00190072 -0.000287439 -2.58165e-06
-0.000287439 -0.000899692 -2.26775e-06
-2.58165e-06 -2.26775e-06 -0.00183404
0.000844489 -0.000766838 -5.07953e-05
-0.000766838 5.37334e-05 3.06505e-05
-5.07953e-05 3.06505e-05 -0.000329434
0.000278402 0.000155305 -3.09538e-07
0.000155305 8.87367e-06 -1.67189e-06
-3.09538e-07 -1.67189e-06 -0.000240783
0.00257662 0.000460655 -1.53873e-05
0.000460655 0.00144025 -8.16368e-06
-1.53873e-05 -8.16368e-06 0.00109077
0.00247315 0.000544689 -5.64232e-06
0.000544689 -0.000162231 -8.32779e-07
-5.64232e-06 -8.32779e-07 -7.54015e-05
0.00269034 0.000745571 -6.84461e-06
0.000745571 0.000358785 -8.30495e-07
-6.84461e-06 -8.30495e-07 0.000124351
0.00277943 0.000512545 -6.80083e-06
0.000512545 0.0011671 1.29252e-06
-6.80083e-06 1.29252e-06 0.000856353
0.00145074 0.000640609 -8.87282e-06
0.000640609 0.000386434 -2.14764e-06
-8.87282e-06 -2.14764e-06 -7.59065e-05
0.00218274 0.000818829 -6.2704e-06
0.000818829 0.000325644 2.5576e-06
-6.2704e-06 2.5576e-06 -6.36568e-05
0.00242644 0.000953269 -9.03606e-06
0.000953269 0.000735525 -3.78827e-07
-9.03606e-06 -3.78827e-07 0.000198015
0.000146722 0.00014911 1.81356e-06
0.00014911 -5.40192e-05 -6.69136e-07
1.81356e-06 -6.69136e-07 -0.000288784
0.00248354 0.000400548 -1.46405e-06
0.000400548 -0.000162171 -2.48968e-06
-1.46405e-06 -2.48968e-06 -4.36708e-05
0.00147781 0.000424325 2.712e-06
0.000424325 0.000731492 4.27889e-06
2.712e-06 4.27889e-06 0.000379487
0.00157933 0.000630913 2.75313e-06
0.000630913 0.000436972 1.91792e-06
2.75313e-06 1.91792e-06 3.25536e-06
0.00269146 0.000704001 9.62266e-07
0.000704001 0.000168825 -6.45975e-08
9.62266e-07 -6.45975e-08 0.000139011
0.00188317 0.000846723 -2.12266e-06
0.000846723 2.93894e-05 -5.31178e-06
-2.12266e-06 -5.31178e-06 -0.000351894
0.00234948 0.000959601 -5.92616e-07
0.000959601 0.000661918 -2.59651e-07
-5.92616e-07 -2.59651e-07 0.000115868
0.00174903 0.000390505 -3.81273e-06
0.000390505 0.00106105 -1.71975e-06
-3.81273e-06 -1.71975e-06 0.000743232
0.00384245 0.000644996 -8.8573e-05
0.000644996 0.000604595 -2.80396e-05
-8.8573e-05 -2.80396e-05 0.000825758
0.000600545 0.000503884 -1.06069e-05
0.000503884 0.000146236 7.49391e-06
-1.06069e-05 7.49391e-06 -0.00025422
0.00144274 0.000703858 -5.59852e-06
0.000703858 0.000307631 -1.00986e-05
-5.59852e-06 -1.00986e-05 -0.000184746
0.00279795 0.000957447 -3.63513e-05
0.000957447 0.000390809 -2.24372e-05
-3.63513e-05 -2.24372e-05 0.000138485
0.00121957 0.000833561 -2.7208e-05
0.000833561 -1.00738e-05 -4.32266e-06
-2.7208e-05 -4.32266e-06 -0.000501508
0.000990108 0.00114147 2.92546e-05
0.00114147 -0.00197701 -4.70082e-05
2.92546e-05 -4.70082e-05 -0.00128349
0.000137054 0.000160968 6.33359e-06
0.000160968 -7.20931e-05 2.03239e-06
6.33359e-06 2.03239e-06 -0.00020169
0.000423472 0.000127109 3.20983e-06
0.000127109 0.000128454 2.10224e-06
3.20983e-06 2.10224e-06 3.40047e-05
0.000945499 0.00014852 1.81848e-06
0.00014852 0.00042488 -1.19426e-06
1.81848e-06 -1.19426e-06 0.000341462
0.00037886 -6.60535e-05 1.36488e-06
-6.60535e-05 1.27453e-05 -4.73786e-06
1.36488e-06 -4.73786e-06 -0.000121024
0.000290392 -2.21305e-05 -4.75706e-07
-2.21305e-05 -3.59547e-06 -2.71331e-06
-4.75706e-07 -2.71331e-06 -0.000177101
0.00143997 0.000243607 -2.716e-07
0.000243607 0.000734338 -4.51569e-07
-2.716e-07 -4.51569e-07 0.000535817
-0.000480286 4.74312e-05 -7.47209e-06
4.74312e-05 -0.000508118 1.86985e-05
-7.47209e-06 1.86985e-05 -0.000577223
0.000492918 -1.73984e-05 -1.77409e-07
-1.73984e-05 8.36355e-05 -2.30854e-07
-1.77409e-07 -2.30854e-07 -5.80467e-05
0.000410998 8.26043e-05 2.0605e-07
8.26043e-05 3.00517e-05 -6.95972e-07
2.0605e-07 -6.95972e-07 -0.000131156
0.000930762 0.000143368 3.70852e-06
0.000143368 0.000315411 4.06853e-06
3.70852e-06 4.06853e-06 0.000269398
0.000356899 7.97555e-05 1.43462e-06
7.97555e-05 3.03318e-05 7.84133e-07
1.43462e-06 7.84133e-07 -0.000145993
0.000619511 7.82376e-05 -2.94984e-07
7.82376e-05 0.000154087 -2.13074e-06
-2.94984e-07 -2.13074e-06 4.5933e-05
0.00123953 0.000150661 -3.74441e-06
0.000150661 0.000566448 -1.47255e-05
-3.74441e-06 -1.47255e-05 0.000499257
0.000832337 0.000158497 -2.91396e-06
0.000158497 0.000261361 -4.1665e-06
-2.91396e-06 -4.1665e-06 0.000110708
0.000960915 0.000145492 1.87033e-06
0.000145492 0.000403216 2.94101e-06
1.87033e-06 2.94101e-06 0.000214835
0.00089192 0.000122879 -7.40758e-07
0.000122879 0.000352777 1.13657e-06
-7.40758e-07 1.13657e-06 0.000163304
0.000207203 -2.52027e-05 -1.81374e-06
-2.52027e-05 -0.000123288 1.55123e-06
-1.81374e-06 1.55123e-06 -0.000257285
0.00132431 -0.000119485 1.16138e-06
-0.000119485 0.000693602 -1.92535e-06
1.16138e-06 -1.92535e-06 0.000468098
8.4892e-05 -5.20499e-05 -5.10075e-07
-5.20499e-05 -0.000193152 3.47101e-06
-5.10075e-07 3.47101e-06 -0.000332116
0.000412267 2.44715e-06 -2.095e-06
2.44715e-06 4.86477e-06 2.91096e-06
-2.095e-06 2.91096e-06 -8.70628e-05
0.000437078 4.16319e-05 2.50768e-06
4.16319e-05 1.91354e-05 -1.09277e-07
2.50768e-06 -1.09277e-07 -7.17604e-05
0.000348457 2.0953e-05 -1.20107e-06
2.0953e-05 -6.52819e-05 4.83047e-06
-1.20107e-06 4.83047e-06 -9.22599e-05
0.000380197 2.49269e-06 -1.69779e-06
2.49269e-06 -1.59196e-05 -4.17823e-06
-1.69779e-06 -4.17823e-06 -0.000104973
0.000867235 1.69742e-05 -4.10336e-06
1.69742e-05 0.000260726 -1.51427e-06
-4.10336e-06 -1.51427e-06 0.000236522
0.0026636 5.2803e-07 2.51066e-05
5.2803e-07 0.0013928 5.81081e-06
2.51066e-05 5.81081e-06 0.00140506
0.00141739 3.93906e-05 -1.41167e-05
3.93906e-05 0.000606902 -7.52495e-06
-1.41167e-05 -7.52495e-06 0.000584172
0.000764539 -7.59292e-06 9.80835e-06
-7.59292e-06 0.000176183 3.62441e-06
9.80835e-06 3.62441e-06 0.000179377
0.000830453 -2.01609e-05 1.0741e-06
-2.01609e-05 0.000209276 -2.99758e-06
1.0741e-06 -2.99758e-06 0.000211545
0.000443172 1.23782e-05 -2.29981e-06
1.23782e-05 1.85425e-06 -3.06426e-06
-2.29981e-06 -3.06426e-06 -5.60853e-05
0.000537466 -3.54122e-05 6.48802e-07
-3.54122e-05 5.82689e-05 -3.45357e-07
6.48802e-07 -3.45357e-07 -2.38422e-06
0.000460724 2.34582e-05 2.02335e-07
2.34582e-05 -1.91567e-05 -3.91855e-06
2.02335e-07 -3.91855e-06 -3.72233e-05
0.00079209 4.45348e-05 1.34452e-08
4.45348e-05 0.000202467 1.63492e-07
1.34452e-08 1.63492e-07 0.000179909
0.00235265 8.17818e-05 5.29213e-06
8.17818e-05 0.00120728 -5.08481e-06
5.29213e-06 -5.08481e-06 0.00121308
0.000466506 6.50419e-05 5.91055e-06
6.50419e-05 1.50365e-05 6.92436e-06
5.91055e-06 6.92436e-06 -2.38552e-05
0.00259258 0.000112393 -2.6248e-06
0.000112393 0.00137162 -2.62224e-07
-2.6248e-06 -2.62224e-07 0.00136991
0.0030671 0.000143823 6.31937e-06
0.000143823 0.0016856 8.06837e-06
6.31937e-06 8.06837e-06 0.00167513
0.00229356 0.000347622 1.8226e-06
0.000347622 -0.000113075 1.53292e-06
1.8226e-06 1.53292e-06 -4.54763e-05
0.00226079 0.000109527 6.12456e-06
0.000109527 -7.66321e-05 -7.55912e-08
6.12456e-06 -7.55912e-08 1.29074e-05
0.00214162 -7.49734e-06 1.51053e-06
-7.49734e-06 -4.7608e-05 -2.00153e-07
1.51053e-06 -2.00153e-07 3.02865e-06
0.00223142 -6.83266e-06 2.41153e-08
-6.83266e-06 -0.00011055 -4.26098e-07
2.41153e-08 -4.26098e-07 -5.42481e-06
0.00247257 0.000176279 5.42848e-07
0.000176279 -9.06684e-05 4.05321e-07
5.42848e-07 4.05321e-07 1.85835e-05
0.0025817 0.000115197 7.67574e-06
0.000115197 4.81742e-06 -6.10734e-06
7.67574e-06 -6.10734e-06 0.000107474
0.00258828 1.1175e-05 -9.49768e-06
1.1175e-05 -0.000117374 -2.95907e-06
-9.49768e-06 -2.95907e-06 4.26929e-05
0.00494605 0.00116333 7.84151e-05
0.00116333 -0.000819549 1.05961e-05
7.84151e-05 1.05961e-05 0.000218656
0.00303166 0.000101697 -2.49371e-05
0.000101697 0.000420662 2.75803e-05
-2.49371e-05 2.75803e-05 0.000681331
0.000483452 0.000119098 -3.29819e-06
0.000119098 6.64198e-05 -2.01035e-06
-3.29819e-06 -2.01035e-06 -4.06749e-05
0.00226617 -0.0001468 3.6182e-06
-0.0001468 -9.84277e-05 -2.20786e-06
3.6182e-06 -2.20786e-06 2.0342e-06
0.00237984 -0.000390662 1.978e-06
-0.000390662 -9.5153e-05 -1.53241e-06
1.978e-06 -1.53241e-06 1.09171e-06
0.0023444 -0.000574073 -2.37859e-07
-0.000574073 -1.89109e-05 7.03039e-07
-2.37859e-07 7.03039e-07 5.95224e-06
0.00166115 -0.000808212 -8.68503e-07
-0.000808212 0.000522175 8.77212e-06
-8.68503e-07 8.77212e-06 -2.89668e-06
0.00228845 -0.00104114 3.59227e-05
-0.00104114 0.000655945 7.02934e-06
3.59227e-05 7.02934e-06 6.82657e-05
0.00158734 -0.000882368 1.48941e-06
-0.000882368 -7.12966e-06 1.19515e-06
1.48941e-06 1.19515e-06 -0.000396526
0.002396 -0.00080999 7.59266e-07
-0.00080999 0.000108172 -4.06277e-07
7.59266e-07 -4.06277e-07 -3.29287e-05
0.00137913 -0.000591323 3.31335e-05
-0.000591323 0.000407176 -4.51333e-05
3.31335e-05 -4.51333e-05 8.00598e-06
0.00209776 -0.000589601 1.35285e-05
-0.000589601 0.00104804 -5.21088e-05
1.35285e-05 -5.21088e-05 0.000431856
0.00102911 -0.000161436 4.88971e-06
-0.000161436 0.000324557 1.12292e-05
4.88971e-06 1.12292e-05 -3.66651e-05
0.000457495 9.32831e-06 2.97797e-06
9.32831e-06 1.0795e-05 1.85537e-06
2.97797e-06 1.85537e-06 -5.44695e-05
0.00140245 -0.000190696 1.74699e-06
-0.000190696 0.000682738 1.03335e-05
1.74699e-06 1.03335e-05 0.000339485
0.000938172 -3.70172e-05 7.94642e-06
-3.70172e-05 0.000412664 -5.4388e-07
7.94642e-06 -5.4388e-07 0.000262449
0.000454148 -5.76802e-05 3.18166e-06
-5.76802e-05 9.23111e-05 -2.19023e-06
3.18166e-06 -2.19023e-06 -0.00015759
-3.81049e-05 -4.14148e-05 -4.46019e-06
-4.14148e-05 -0.000286267 1.0352e-07
-4.46019e-06 1.0352e-07 -0.000385521
0.00238341 -0.000192199 9.01118e-08
-0.000192199 -0.000226963 8.98873e-07
9.01118e-08 8.98873e-07 -6.06156e-05
0.000327697 3.7407e-05 6.34524e-07
3.7407e-05 -2.75418e-05 -2.82597e-06
6.34524e-07 -2.82597e-06 -0.000144986
0.000619435 -7.75968e-05 3.19587e-06
-7.75968e-05 0.000174761 1.3074e-06
3.19587e-06 1.3074e-06 5.95254e-05
0.00109065 -0.000159476 6.93399e-06
-0.000159476 0.000406433 -7.85041e-07
6.93399e-06 -7.85041e-07 0.000286575
0.0024331 -0.000538836 2.16629e-06
-0.000538836 -0.000232897 -9.63561e-07
2.16629e-06 -9.63561e-07 -2.83152e-05
0.00259265 -0.000817537 8.08247e-08
-0.000817537 5.85742e-05 4.46419e-07
8.08247e-08 4.46419e-07 2.50504e-05
0.000753676 -0.000646621 6.59056e-06
-0.000646621 2.65436e-05 2.13374e-07
6.59056e-06 2.13374e-07 -0.000432301
0.00268302 -0.00121052 1.85951e-05
-0.00121052 0.00072754 1.41861e-06
1.85951e-05 1.41861e-06 0.000125642
0.00259261 -0.00105475 -2.27979e-07
-0.00105475 0.000332712 1.89801e-06
-2.27979e-07 1.89801e-06 4.64476e-05
0.000237125 -2.40726e-05 -2.61915e-07
-2.40726e-05 -7.90728e-05 4.70272e-07
-2.61915e-07 4.70272e-07 -0.000256409
0.00122191 -0.000168065 1.36828e-06
-0.000168065 0.000609858 3.73023e-06
1.36828e-06 3.73023e-06 0.000289891
0.00202743 -0.000921256 -1.35887e-06
-0.000921256 0.000756346 2.78487e-06
-1.35887e-06 2.78487e-06 0.00025356
0.000779966 -0.000340034 -4.79947e-07
-0.000340034 0.000430673 5.85713e-06
-4.79947e-07 5.85713e-06 -0.000276747
0.00102191 -0.000153233 1.71799e-06
-0.000153233 0.000341824 8.02969e-06
1.71799e-06 8.02969e-06 5.5251e-05
0.00280131 -0.000376092 -1.03939e-05
-0.000376092 -7.21639e-06 1.11889e-05
-1.03939e-05 1.11889e-05 0.000190322
0.00217926 -0.000604016 -1.17178e-05
-0.000604016 -0.000359485 7.12528e-06
-1.17178e-05 7.12528e-06 -7.6953e-05
0.00238798 -0.000956702 -1.33171e-05
-0.000956702 8.60854e-05 -6.00315e-06
-1.33171e-05 -6.00315e-06 -0.000115034
0.0046562 -0.00142857 3.17117e-06
-0.00142857 0.00163312 4.2235e-06
3.17117e-06 4.2235e-06 0.00120327
-0.00034833 -0.00072919 -1.43161e-05
-0.00072919 -0.000684789 8.38338e-06
-1.43161e-05 8.38338e-06 -0.00115718
-5.50011e-05 -2.72322e-05 6.79257e-07
-2.72322e-05 -0.000268737 2.76595e-06
6.79257e-07 2.76595e-06 -0.000385618
0.00106505 -1.83687e-05 -5.19082e-06
-1.83687e-05 0.000339729 1.64575e-05
-5.19082e-06 1.64575e-05 0.000219293
-0.00119773 -0.000187827 -7.83344e-06
-0.000187827 -0.00102742 6.6366e-07
-7.83344e-06 6.6366e-07 -0.00112452
0.00199237 -0.000323334 -3.64078e-05
-0.000323334 0.00104425 3.1976e-05
-3.64078e-05 3.1976e-05 0.00078283
0.00102935 -0.000156258 -5.00157e-06
-0.000156258 0.000465718 2.91445e-05
-5.00157e-06 2.91445e-05 0.000179076
-0.00191504 -0.000104604 7.48719e-06
-0.000104604 -0.000761429 3.73452e-07
7.48719e-06 3.73452e-07 -0.00157279
0.000804555 -0.000969269 -1.4638e-05
-0.000969269 0.000389443 -3.98972e-06
-1.4638e-05 -3.98972e-06 -0.000350736
0.00175929 0.000407047 -1.98937e-06
0.000407047 0.000961848 -4.1324e-06
-1.98937e-06 -4.1324e-06 0.000685566
0.000136384 0.000229638 -3.77868e-06
0.000229638 -8.74774e-05 -1.94204e-06
-3.77868e-06 -1.94204e-06 -0.000381628
0.00264939 0.000378901 6.73159e-06
0.000378901 -6.13968e-05 4.631e-06
6.73159e-06 4.631e-06 7.29467e-05
0.00277445 0.000691669 1.32772e-05
0.000691669 0.000235415 8.24425e-06
1.32772e-05 8.24425e-06 0.00020682
0.00233014 0.000895305 5.83176e-06
0.000895305 0.000295829 3.92226e-06
5.83176e-06 3.92226e-06 -9.17723e-05
0.00150459 0.000610613 -2.72102e-06
0.000610613 0.000424468 3.18802e-06
-2.72102e-06 3.18802e-06 -3.46659e-06
0.00174526 0.000865839 1.66537e-06
0.000865839 0.000336831 4.4841e-06
1.66537e-06 4.4841e-06 -0.000188128
0.00233289 0.000434287 4.02501e-07
0.000434287 0.00135313 -2.94796e-07
4.02501e-07 -2.94796e-07 0.001076
0.00296314 0.000516332 9.37002e-06
0.000516332 0.000132957 4.37573e-06
9.37002e-06 4.37573e-06 0.00040304
0.000924526 0.00046262 -5.48951e-06
0.00046262 0.000310828 5.2489e-06
-5.48951e-06 5.2489e-06 -4.63577e-05
0.00171822 0.000748327 3.20766e-06
0.000748327 0.00051002 -1.76775e-06
3.20766e-06 -1.76775e-06 -6.04906e-06
0.00261058 0.000922064 -2.73271e-06
0.000922064 0.000312953 -4.01509e-06
-2.73271e-06 -4.01509e-06 8.87522e-05
0.00195642 0.000932123 -4.87877e-06
0.000932123 0.000404286 6.05221e-06
-4.87877e-06 6.05221e-06 -0.000111834
0.00291245 0.00146085 3.80206e-05
0.00146085 -0.00125308 9.59583e-06
3.80206e-05 9.59583e-06 -0.000743631
0.000285629 0.000321908 2.08366e-06
0.000321908 0.00021052 1.21888e-06
2.08366e-06 1.21888e-06 -0.000106698
0.00298635 0.000958549 -8.95092e-05
0.000958549 0.000262988 -4.37358e-05
-8.95092e-05 -4.37358e-05 0.000243752
0.000296134 0.000451243 -1.31751e-05
0.000451243 -0.000268733 5.00054e-06
-1.31751e-05 5.00054e-06 -0.000646675
0.000105981 0.000604141 -5.07069e-06
0.000604141 -0.000455993 -2.02155e-05
-5.07069e-06 -2.02155e-05 -0.00092852
0.00182693 0.00104902 -4.50458e-05
0.00104902 8.22926e-05 -1.99843e-05
-4.50458e-05 -1.99843e-05 -0.000267596
0.015561 0.000621721 -0.000659335
0.000621721 0.00173464 -0.0001023
-0.000659335 -0.0001023 0.00172132
0.00297636 0.00223973 -8.7322e-05
0.00223973 -0.00317269 -8.19803e-05
-8.7322e-05 -8.19803e-05 -0.000964907
0.00128184 0.0017719 2.25011e-05
0.0017719 -0.000661148 -2.58634e-06
2.25011e-05 -2.58634e-06 -0.000888297
0.00464514 -0.00327035 0.00218538
-0.00327035 0.0027106 0.000332133
0.00218538 0.000332133 -0.00196951
0.0271304 -0.0116151 -4.64705e-05
-0.0116151 0.0127275 7.31038e-05
-4.64705e-05 7.31038e-05 0.00696328
0.000681762 0.000160321 6.87015e-06
0.000160321 0.000307376 5.75741e-06
6.87015e-06 5.75741e-06 0.000199928
0.00094648 0.000144639 -2.52219e-06
0.000144639 0.000463522 -2.33513e-06
-2.52219e-06 -2.33513e-06 0.00036456
0.00125536 0.000253119 5.48499e-06
0.000253119 0.000672407 -1.68892e-06
5.48499e-06 -1.68892e-06 0.000530071
0.000503256 -6.09493e-05 4.46431e-07
-6.09493e-05 0.000100961 -2.94715e-06
4.46431e-07 -2.94715e-06 -4.70065e-05
0.000384359 7.034e-05 -3.34286e-07
7.034e-05 1.85655e-05 -3.79993e-06
-3.34286e-07 -3.79993e-06 -0.000142223
0.00065857 -1.14811e-05 -6.82203e-07
-1.14811e-05 0.000220567 -2.0934e-06
-6.82203e-07 -2.0934e-06 4.37142e-05
0.00106139 0.000105972 -7.56127e-07
0.000105972 0.000417771 1.13719e-05
-7.56127e-07 1.13719e-05 0.000303444
0.000206821 0.000106806 3.83638e-06
0.000106806 -0.000135267 1.10766e-05
3.83638e-06 1.10766e-05 -0.000173762
0.00079772 0.000168306 -1.32123e-06
0.000168306 0.000341571 4.45125e-08
-1.32123e-06 4.45125e-08 0.00012923
0.000393864 -2.04837e-05 2.85922e-07
-2.04837e-05 6.01328e-06 1.14232e-06
2.85922e-07 1.14232e-06 -0.000135003
0.000695886 6.83904e-05 -8.69248e-07
6.83904e-05 0.000221775 1.15525e-07
-8.69248e-07 1.15525e-07 3.9792e-05
0.000292674 0.000108842 -2.11055e-06
0.000108842 -3.90445e-05 -3.43305e-06
-2.11055e-06 -3.43305e-06 -0.00010027
0.000733911 0.000137547 -1.50748e-06
0.000137547 0.000221635 -3.75755e-07
-1.50748e-06 -3.75755e-07 7.25539e-05
0.00227132 0.00028173 -1.31011e-06
0.00028173 0.00123759 -7.99929e-07
-1.31011e-06 -7.99929e-07 0.00102259
0.000181519 0.000106534 -1.08663e-06
0.000106534 -4.56663e-06 -6.41798e-06
-1.08663e-06 -6.41798e-06 -0.000189837
0.000896075 0.000105593 3.40801e-06
0.000105593 0.00038566 -3.75235e-07
3.40801e-06 -3.75235e-07 0.000191896
0.000133016 5.90419e-06 -2.91181e-07
5.90419e-06 -0.000161987 -5.15075e-07
-2.91181e-07 -5.15075e-07 -0.00033518
0.000296625 -7.37869e-05 -5.38272e-07
-7.37869e-05 -5.33422e-05 -1.45221e-07
-5.38272e-07 -1.45221e-07 -0.000194453
0.00037755 -2.29542e-05 -3.24041e-07
-2.29542e-05 1.64413e-05 -2.44685e-06
-3.24041e-07 -2.44685e-06 -0.000154133
0.00136416 -6.74978e-05 1.87404e-06
-6.74978e-05 0.000629532 -1.2018e-05
1.87404e-06 -1.2018e-05 0.000463215
0.000892958 -5.79459e-05 -1.93402e-06
-5.79459e-05 0.000396915 -1.64968e-06
-1.93402e-06 -1.64968e-06 0.000212347
0.000763661 -9.91946e-05 1.99838e-06
-9.91946e-05 0.000290388 -8.8509e-07
1.99838e-06 -8.8509e-07 0.000101043
0.000588301 -0.000128826 -1.4087e-06
-0.000128826 0.000142581 4.92201e-06
-1.4087e-06 4.92201e-06 -5.73564e-06
0.000188383 -2.83194e-05 1.86063e-07
-2.83194e-05 -0.000120008 1.00019e-06
1.86063e-07 1.00019e-06 -0.000264939
0.000496792 -6.71728e-05 -1.51558e-06
-6.71728e-05 4.90061e-05 3.84377e-06
-1.51558e-06 3.84377e-06 -3.72931e-05
0.000490604 -4.55641e-05 2.08907e-06
-4.55641e-05 5.24376e-05 1.2249e-07
2.08907e-06 1.2249e-07 -3.8494e-05
0.000397144 1.04379e-06 3.68635e-06
1.04379e-06 -3.03343e-05 6.66479e-06
3.68635e-06 6.66479e-06 -5.91118e-05
0.000471206 6.02426e-05 -1.49105e-06
6.02426e-05 3.38121e-05 -3.43119e-06
-1.49105e-06 -3.43119e-06 -5.21775e-05
0.000370725 3.14873e-05 4.63659e-07
3.14873e-05 -4.96889e-05 1.02037e-07
4.63659e-07 1.02037e-07 -7.72809e-05
0.00258793 9.10045e-06 1.10011e-05
9.10045e-06 0.00134627 5.53157e-06
1.10011e-05 5.53157e-06 0.00135795
0.000419374 5.3774e-05 -4.49154e-06
5.3774e-05 -1.96678e-05 -7.94821e-06
-4.49154e-06 -7.94821e-06 -4.98609e-05
0.00170523 -2.43686e-06 -6.88045e-06
-2.43686e-06 0.000780351 1.70923e-07
-6.88045e-06 1.70923e-07 0.000787311
0.000807186 -9.45837e-06 6.82824e-07
-9.45837e-06 0.000198388 -2.45195e-06
6.82824e-07 -2.45195e-06 0.000201454
0.000392686 1.58354e-05 -5.34479e-07
1.58354e-05 -3.88756e-05 -2.28445e-06
-5.34479e-07 -2.28445e-06 -8.51108e-05
0.000499275 -4.28689e-05 2.00355e-07
-4.28689e-05 4.15099e-05 1.07796e-07
2.00355e-07 1.07796e-07 -1.8787e-05
0.000494212 1.02845e-05 1.44414e-06
1.02845e-05 -1.87692e-06 -3.62506e-06
1.44414e-06 -3.62506e-06 -1.56957e-05
0.000473516 -4.856e-05 -1.05907e-06
-4.856e-05 1.86757e-05 6.32432e-07
-1.05907e-06 6.32432e-07 -4.29311e-05
0.000793923 2.93104e-05 -4.90608e-08
2.93104e-05 0.000194679 -7.90597e-07
-4.90608e-08 -7.90597e-07 0.000178819
0.00209424 5.90903e-05 3.2524e-06
5.90903e-05 0.00103423 -4.96009e-06
3.2524e-06 -4.96009e-06 0.00104538
0.000440561 3.56646e-05 1.33183e-06
3.56646e-05 -2.37236e-05 4.72772e-06
1.33183e-06 4.72772e-06 -4.86729e-05
0.00250548 8.99034e-05 -4.149e-06
8.99034e-05 0.00130901 1.35584e-06
-4.149e-06 1.35584e-06 0.00131277
0.00275606 0.000123718 1.09973e-05
0.000123718 0.00147987 7.51628e-06
1.09973e-05 7.51628e-06 0.00147573
0.00240614 0.000186636 3.92789e-06
0.000186636 -0.000115145 5.12013e-07
3.92789e-06 5.12013e-07 -6.63038e-06
0.00222714 -3.62833e-06 4.91342e-06
-3.62833e-06 -0.000111296 -9.14293e-07
4.91342e-06 -9.14293e-07 -6.79659e-06
0.00229502 8.20825e-05 -2.37677e-06
8.20825e-05 -0.000202622 7.31253e-06
-2.37677e-06 7.31253e-06 -9.91093e-05
0.00266721 0.000891153 0.00011501
0.000891153 -0.00200212 2.81547e-05
0.00011501 2.81547e-05 -0.000856871
0.00253696 -2.38026e-05 -3.34472e-07
-2.38026e-05 -0.000126126 -2.02277e-06
-3.34472e-07 -2.02277e-06 3.17508e-05
0.00250146 8.68515e-05 -4.28284e-06
8.68515e-05 8.78702e-05 -8.26861e-06
-4.28284e-06 -8.26861e-06 0.000286705
0.0025202 -5.22275e-05 -3.36172e-05
-5.22275e-05 0.000175142 -3.50619e-06
-3.36172e-05 -3.50619e-06 0.000262059
0.00332495 0.000437118 -5.51403e-05
0.000437118 -0.00236468 -4.86883e-05
-5.51403e-05 -4.86883e-05 -0.000811728
0.00267562 0.000295782 0.000151538
0.000295782 -0.00110016 6.20098e-05
0.000151538 6.20098e-05 -0.000423862
0.000575565 9.36118e-05 4.58206e-07
9.36118e-05 0.000127393 -1.78663e-06
4.58206e-07 -1.78663e-06 2.22258e-05
0.000570533 -4.00751e-06 -1.34556e-07
-4.00751e-06 0.000136543 -1.55706e-07
-1.34556e-07 -1.55706e-07 2.03152e-05
0.000283744 -9.46768e-05 -6.64924e-06
-9.46768e-05 -3.93217e-05 2.41558e-06
-6.64924e-06 2.41558e-06 -0.000163665
0.000329122 -5.1866e-05 -3.67863e-06
-5.1866e-05 -3.14149e-06 1.39376e-06
-3.67863e-06 1.39376e-06 -0.000130204
0.00243958 -0.000211451 -3.01596e-07
-0.000211451 -0.000214274 -6.58653e-06
-3.01596e-07 -6.58653e-06 -2.92641e-05
0.00240777 -0.00054629 -1.81385e-06
-0.00054629 -0.000219545 -2.52221e-06
-1.81385e-06 -2.52221e-06 -5.70779e-05
0.0024997 -0.000807175 3.25292e-07
-0.000807175 1.21492e-05 1.99635e-06
3.25292e-07 1.99635e-06 -2.20375e-05
0.00412704 -0.00104006 2.54715e-05
-0.00104006 0.0019553 7.61957e-06
2.54715e-05 7.61957e-06 0.00141892
0.000772905 -0.00100474 -6.99468e-06
-0.00100474 -0.000362563 4.17349e-06
-6.99468e-06 4.17349e-06 -0.000915267
0.00248865 -0.0010565 -2.02948e-06
-0.0010565 0.000286816 -3.94219e-06
-2.02948e-06 -3.94219e-06 -1.00179e-05
1.10158e-05 -0.000714753 8.9172e-06
-0.000714753 -0.000381407 -2.41649e-05
8.9172e-06 -2.41649e-05 -0.000939693
0.00369992 -0.000441034 1.26885e-05
-0.000441034 0.00182118 -5.8297e-06
1.26885e-05 -5.8297e-06 0.0013796
-1.7672e-05 -0.00010418 -6.15913e-06
-0.00010418 -0.000302049 9.24214e-06
-6.15913e-06 9.24214e-06 -0.000576323
0.000663862 -7.42015e-05 4.04644e-06
-7.42015e-05 0.000200544 5.48229e-08
4.04644e-06 5.48229e-08 8.61033e-05
0.000604377 -0.000137807 -8.55791e-06
-0.000137807 0.000245495 -1.30447e-05
-8.55791e-06 -1.30447e-05 -8.12727e-05
0.000550525 -3.16484e-05 5.41139e-06
-3.16484e-05 0.000123248 -3.75722e-07
5.41139e-06 -3.75722e-07 -5.26906e-05
0.000529329 -2.37608e-06 6.32555e-07
-2.37608e-06 0.00012584 2.44524e-06
6.32555e-07 2.44524e-06 -3.45333e-06
0.000671039 -8.24866e-05 -1.06681e-05
-8.24866e-05 0.00013857 2.12017e-06
-1.06681e-05 2.12017e-06 3.72096e-05
0.00272462 -0.000353756 2.25056e-06
-0.000353756 -3.75305e-05 1.2761e-06
2.25056e-06 1.2761e-06 0.000172958
0.000423238 -3.47219e-05 -9.11419e-07
-3.47219e-05 5.61249e-05 3.24904e-06
-9.11419e-07 3.24904e-06 -8.4147e-05
0.000830331 -6.74784e-05 8.78982e-06
-6.74784e-05 0.00021132 -1.10709e-06
8.78982e-06 -1.10709e-06 8.59849e-05
-0.00109252 -6.02991e-05 9.18017e-06
-6.02991e-05 -0.000885102 -1.08138e-06
9.18017e-06 -1.08138e-06 -0.000951926
0.00219791 -0.00062233 4.73281e-07
-0.00062233 -0.000362373 -1.13895e-06
4.73281e-07 -1.13895e-06 -0.000109314
0.00241966 -0.000967311 2.5848e-06
-0.000967311 9.91946e-05 -1.35482e-06
2.5848e-06 -1.35482e-06 -0.000103968
0.00196039 -0.00105791 -1.09742e-05
-0.00105791 0.000601856 4.67824e-07
-1.09742e-05 4.67824e-07 5.6693e-05
0.00292041 -0.00124469 -4.08744e-06
-0.00124469 0.00068534 7.18901e-07
-4.08744e-06 7.18901e-07 0.00027907
0.00159917 -0.000190926 8.93152e-06
-0.000190926 0.000805438 -5.09787e-06
8.93152e-06 -5.09787e-06 0.000536665
-0.000477446 -4.61657e-05 6.99525e-06
-4.61657e-05 -0.000485617 8.50292e-06
6.99525e-06 8.50292e-06 -0.000780429
0.00179427 -0.00121998 -3.76473e-07
-0.00121998 0.00102222 -1.48768e-06
-3.76473e-07 -1.48768e-06 0.000184664
0.00188524 -0.000544225 -1.06387e-05
-0.000544225 0.00101154 -1.3677e-06
-1.06387e-05 -1.3677e-06 0.000433477
0.00369969 -0.000523237 -5.06608e-05
-0.000523237 0.00049648 1.75395e-05
-5.06608e-05 1.75395e-05 0.000802296
0.00281094 -0.000810945 -3.64031e-05
-0.000810945 0.000217409 1.31272e-05
-3.64031e-05 1.31272e-05 0.000288242
0.00270586 -0.0011107 -1.20388e-06
-0.0011107 0.000489904 -1.87017e-05
-1.20388e-06 -1.87017e-05 0.000101228
0.00297166 -0.00125142 1.69763e-05
-0.00125142 0.000944647 3.21039e-05
1.69763e-05 3.21039e-05 0.000537989
-1.85924e-05 -0.000111343 -4.9133e-06
-0.000111343 -9.61486e-05 -9.2749e-06
-4.9133e-06 -9.2749e-06 -0.000252255
0.000431253 -0.000182598 -1.55547e-05
-0.000182598 5.53368e-05 -3.34034e-06
-1.55547e-05 -3.34034e-06 -0.000183749
0.000101251 -0.000218161 -7.57023e-06
-0.000218161 0.000182075 6.62815e-05
-7.57023e-06 6.62815e-05 -0.000185724
0.000153176 -0.001014 -5.76085e-06
-0.001014 0.000791433 -4.32217e-05
-5.76085e-06 -4.32217e-05 -0.000413056
0.00414883 -0.000454692 7.50065e-05
-0.000454692 -0.00596963 -1.21717e-05
7.50065e-05 -1.21717e-05 -0.00608873
0.00243007 0.000355677 8.0819e-06
0.000355677 0.00139489 -3.28031e-06
8.0819e-06 -3.28031e-06 0.00112493
0.000942716 0.000400569 -1.55635e-07
0.000400569 0.00030949 -2.25613e-06
-1.55635e-07 -2.25613e-06 -1.49133e-05
0.00184139 0.000407813 5.41771e-05
0.000407813 -0.000518171 2.1884e-05
5.41771e-05 2.1884e-05 -0.000197118
0.00249477 0.000896071 2.52634e-05
0.000896071 0.000272572 1.22488e-05
2.52634e-05 1.22488e-05 7.25919e-05
0.00257417 0.0010126 1.22924e-05
0.0010126 0.00075576 1.39902e-05
1.22924e-05 1.39902e-05 0.000218206
0.00162065 0.000744513 1.18714e-05
0.000744513 0.000483591 1.14448e-05
1.18714e-05 1.14448e-05 -4.43824e-05
0.005475 0.00188439 0.000107512
0.00188439 -0.000267506 3.66885e-05
0.000107512 3.66885e-05 2.18365e-05
0.00117006 0.000351744 4.10991e-06
0.000351744 0.000700165 -2.12505e-06
4.10991e-06 -2.12505e-06 0.000407066
0.00291131 0.000918629 -2.23101e-05
0.000918629 0.000194604 1.44465e-06
-2.23101e-05 1.44465e-06 0.000238164
0.000969329 0.000537198 -7.08125e-06
0.000537198 0.000189031 5.24738e-06
-7.08125e-06 5.24738e-06 -0.000221419
0.00164438 0.000828164 9.20537e-07
0.000828164 0.000421296 -7.80132e-06
9.20537e-07 -7.80132e-06 -0.000100335
0.00261136 0.0011091 -1.20508e-05
0.0011091 0.000518703 -1.53713e-07
-1.20508e-05 -1.53713e-07 0.000142665
0.00535071 -0.000534887 -0.000196094
-0.000534887 -0.00569612 -0.000124401
-0.000196094 -0.000124401 -0.00620461
0.00681464 0.00240864 -0.000174675
0.00240864 -0.00105394 -7.28183e-05
-0.000174675 -7.28183e-05 0.000767534
0.00130926 0.00169597 -3.44789e-06
0.00169597 -0.000591601 1.94247e-06
-3.44789e-06 1.94247e-06 -0.000923382
0.00385268 -0.00295979 0.000721996
-0.00295979 0.00386235 0.000254745
0.000721996 0.000254745 0.000198367
0.0202382 -0.0122288 -0.000580922
-0.0122288 0.0112696 -0.000516472
-0.000580922 -0.000516472 0.00527587
0.000283714 0.000267305 -1.22058e-05
0.000267305 -1.40602e-05 -2.37217e-06
-1.22058e-05 -2.37217e-06 -0.000266229
0.00223462 0.000425849 0.00109581
0.000425849 0.00481418 8.59442e-05
0.00109581 8.59442e-05 0.00261423
0.00622465 -0.0049688 -0.0001335
-0.0049688 0.00783187 -0.000213884
-0.0001335 -0.000213884 0.000665688
0.00356328 0.00148559 -7.51044e-05
0.00148559 0.000705647 -2.61291e-05
-7.51044e-05 -2.61291e-05 0.000432536
0.00052147 0.000444861 -3.22744e-05
0.000444861 -0.000113452 -7.46882e-06
-3.22744e-05 -7.46882e-06 -0.000474479
0.00143648 0.00085468 -4.43594e-05
0.00085468 0.00033494 -3.65192e-05
-4.43594e-05 -3.65192e-05 -0.000108692
-0.000229676 0.00158541 0.000104491
0.00158541 -0.00105515 0.000113606
0.000104491 0.000113606 -0.00141494
0.0137103 0.00331047 0.000124066
0.00331047 0.00076881 -7.21176e-06
0.000124066 -7.21176e-06 0.000792584
0.00600419 0.00362487 -7.08034e-05
0.00362487 -0.000511445 -7.72204e-05
-7.08034e-05 -7.72204e-05 0.000901097
0.0208334 -0.00765684 0.00128713
-0.00765684 0.00784499 0.00048453
0.00128713 0.00048453 0.00189399
0.0158807 -0.00330276 -0.000201253
-0.00330276 0.00610478 0.000706055
-0.000201253 0.000706055 0.003086
0.00062808 0.000114808 1.61796e-06
0.000114808 0.000306206 2.88251e-07
1.61796e-06 2.88251e-07 0.000192241
0.000328051 0.000173477 6.5653e-06
0.000173477 0.000121506 1.11399e-06
6.5653e-06 1.11399e-06 -1.7327e-05
0.00153205 0.00030765 3.76798e-06
0.00030765 0.000885217 -3.57303e-06
3.76798e-06 -3.57303e-06 0.000660561
0.000595868 -1.99566e-06 1.9232e-06
-1.99566e-06 0.000162984 7.67817e-07
1.9232e-06 7.67817e-07 3.07415e-06
0.000626939 7.5805e-05 5.31534e-07
7.5805e-05 0.000168674 -1.89516e-06
5.31534e-07 -1.89516e-06 -6.24674e-06
-0.000152634 3.71866e-05 -1.5097e-06
3.71866e-05 -0.000288505 1.46401e-06
-1.5097e-06 1.46401e-06 -0.000470054
0.000825955 0.000138045 -6.02882e-06
0.000138045 0.000303595 3.19357e-06
-6.02882e-06 3.19357e-06 0.000148282
-0.000276683 7.95134e-05 -3.04366e-06
7.95134e-05 -0.000417268 3.52997e-06
-3.04366e-06 3.52997e-06 -0.000471329
0.000340134 -1.32171e-05 -4.22696e-07
-1.32171e-05 -2.05645e-05 6.71221e-07
-4.22696e-07 6.71221e-07 -0.000166969
0.00146139 0.000179274 2.97358e-06
0.000179274 0.000703553 1.13624e-06
2.97358e-06 1.13624e-06 0.000506559
0.000453771 6.35457e-05 -5.35353e-07
6.35457e-05 0.000117457 -6.91177e-07
-5.35353e-07 -6.91177e-07 -8.6166e-05
0.000796145 4.3019e-05 1.60041e-06
4.3019e-05 0.000299633 -1.00113e-07
1.60041e-06 -1.00113e-07 9.98077e-05
1.86091e-05 9.15288e-05 -8.23587e-07
9.15288e-05 -0.000102039 -3.42652e-06
-8.23587e-07 -3.42652e-06 -0.000288357
0.00161443 0.000165615 -2.0584e-06
0.000165615 0.000829671 -4.48308e-06
-2.0584e-06 -4.48308e-06 0.000648178
-0.000344868 7.89782e-05 -7.34317e-06
7.89782e-05 -0.000136382 -5.41448e-06
-7.34317e-06 -5.41448e-06 -0.000440949
0.000174687 -5.16601e-05 2.5509e-07
-5.16601e-05 -8.4887e-05 1.77309e-06
2.5509e-07 1.77309e-06 -0.000277969
0.000743386 -8.73105e-05 -2.98027e-06
-8.73105e-05 0.000274775 -1.53404e-06
-2.98027e-06 -1.53404e-06 7.96048e-05
0.000820228 -6.5577e-05 -4.45143e-07
-6.5577e-05 0.000325684 -1.09506e-06
-4.45143e-07 -1.09506e-06 0.000133163
0.000614719 -5.98573e-05 -4.69077e-06
-5.98573e-05 0.000145029 1.24806e-06
-4.69077e-06 1.24806e-06 -3.13812e-06
0.00112606 8.76837e-06 -8.19327e-06
8.76837e-06 0.000570542 -6.14529e-06
-8.19327e-06 -6.14529e-06 0.000351808
0.00092853 -0.000131064 3.99182e-06
-0.000131064 0.000318201 -1.44564e-05
3.99182e-06 -1.44564e-05 0.000190061
-0.00102898 -1.35908e-05 -5.54929e-06
-1.35908e-05 -0.000845458 -9.53724e-06
-5.54929e-06 -9.53724e-06 -0.000976462
-0.000148833 -3.3208e-05 2.24123e-06
-3.3208e-05 -0.000211389 -3.56092e-06
2.24123e-06 -3.56092e-06 -0.000431234
0.000186523 -7.61734e-05 6.7394e-07
-7.61734e-05 -9.62024e-05 -4.34301e-07
6.7394e-07 -4.34301e-07 -0.000241481
0.000844054 -0.000138018 -9.84349e-07
-0.000138018 0.000341308 8.94708e-07
-9.84349e-07 8.94708e-07 0.000170926
0.000472166 -9.4697e-05 -3.46338e-07
-9.4697e-05 4.60447e-05 4.2961e-06
-3.46338e-07 4.2961e-06 -8.76186e-05
0.000378589 -9.84204e-05 3.62815e-06
-9.84204e-05 4.41547e-06 3.39495e-07
3.62815e-06 3.39495e-07 -0.000153736
0.000551796 -0.000128299 -3.93193e-08
-0.000128299 0.000117188 8.22746e-08
-3.93193e-08 8.22746e-08 -3.20095e-05
0.000503634 -6.61572e-05 -1.70927e-06
-6.61572e-05 5.18045e-05 5.58841e-06
-1.70927e-06 5.58841e-06 -3.72532e-05
0.000318922 -1.85901e-06 2.32684e-07
-1.85901e-06 -1.90336e-05 -5.58565e-07
2.32684e-07 -5.58565e-07 -0.000177019
0.000457138 -1.79284e-07 2.4845e-06
-1.79284e-07 3.23321e-05 1.33077e-07
2.4845e-06 1.33077e-07 -5.92921e-05
0.00143323 -4.09714e-05 -1.25168e-05
-4.09714e-05 0.00062116 7.12067e-06
-1.25168e-05 7.12067e-06 0.000597524
0.000435113 7.5255e-05 -2.33659e-06
7.5255e-05 1.77818e-05 -3.02907e-06
-2.33659e-06 -3.02907e-06 -7.21647e-05
0.00083749 -2.38025e-05 -4.95663e-06
-2.38025e-05 0.000249471 7.4502e-07
-4.95663e-06 7.4502e-07 0.000222911
0.000811691 2.36509e-06 -4.52429e-06
2.36509e-06 0.000213905 4.75782e-06
-4.52429e-06 4.75782e-06 0.000217792
0.000339594 -3.17406e-05 4.77404e-06
-3.17406e-05 -6.98172e-05 -5.25932e-06
4.77404e-06 -5.25932e-06 -9.68009e-05
0.00260833 4.63231e-06 9.70573e-06
4.63231e-06 0.00135974 1.29251e-08
9.70573e-06 1.29251e-08 0.00137129
0.000860774 5.40044e-06 -1.24619e-05
5.40044e-06 0.000244361 -5.5607e-06
-1.24619e-05 -5.5607e-06 0.000246954
0.000524849 7.56539e-05 2.69034e-06
7.56539e-05 9.91523e-05 2.22869e-08
2.69034e-06 2.22869e-08 -1.30915e-05
0.000430323 6.03265e-05 -2.34182e-06
6.03265e-05 -1.79606e-06 -2.97763e-06
-2.34182e-06 -2.97763e-06 -5.47116e-05
0.000451529 1.35531e-06 1.47792e-06
1.35531e-06 1.25712e-05 2.40341e-07
1.47792e-06 2.40341e-07 -4.23969e-05
0.000446626 1.02513e-05 1.35226e-06
1.02513e-05 -3.13595e-05 -3.40156e-06
1.35226e-06 -3.40156e-06 -4.33949e-05
0.000548103 -7.28228e-05 -1.92157e-06
-7.28228e-05 8.27821e-05 2.68761e-06
-1.92157e-06 2.68761e-06 1.66548e-05
0.00045806 1.20473e-05 1.64809e-07
1.20473e-05 -2.52657e-05 -7.45999e-07
1.64809e-07 -7.45999e-07 -3.90119e-05
0.002056 4.12486e-05 2.00609e-06
4.12486e-05 0.00100469 -4.94208e-06
2.00609e-06 -4.94208e-06 0.00101877
0.0011403 3.98892e-05 4.73256e-07
3.98892e-05 0.000417685 2.07433e-06
4.73256e-07 2.07433e-06 0.00040263
0.00150194 5.06271e-05 -6.83664e-07
5.06271e-05 0.00065639 1.50907e-06
-6.83664e-07 1.50907e-06 0.000662396
0.000862227 5.43324e-05 -6.62798e-07
5.43324e-05 0.00025421 9.53556e-06
-6.62798e-07 9.53556e-06 0.000251056
0.000967693 0.000651157 7.88641e-05
0.000651157 -0.00279985 2.45424e-05
7.88641e-05 2.45424e-05 -0.00162843
0.00252165 -5.2171e-05 6.68705e-06
-5.2171e-05 -0.000103957 6.04114e-06
6.68705e-06 6.04114e-06 4.56003e-05
0.00215771 8.10152e-05 3.85526e-05
8.10152e-05 -0.000108236 -1.2244e-05
3.85526e-05 -1.2244e-05 4.76067e-05
0.00331049 0.000606411 -7.63005e-05
0.000606411 -0.00244888 -4.4183e-05
-7.63005e-05 -4.4183e-05 -0.000377937
0.00307041 0.000118906 6.90923e-05
0.000118906 -0.000734983 -2.707e-06
6.90923e-05 -2.707e-06 -8.46902e-05
0.00294749 -5.47117e-05 -3.1995e-06
-5.47117e-05 0.00039096 -8.5549e-06
-3.1995e-06 -8.5549e-06 0.000515566
0.00524507 -0.00051446 -7.10008e-05
-0.00051446 0.000958154 -2.1762e-05
-7.10008e-05 -2.1762e-05 0.00139126
0.00427213 -0.000560237 3.9701e-05
-0.000560237 -0.000804869 -8.03048e-07
3.9701e-05 -8.03048e-07 0.000507715
0.0196978 -0.00108242 9.72169e-05
-0.00108242 0.00312236 -6.54864e-05
9.72169e-05 -6.54864e-05 0.00253924
0.0172732 0.00766938 0.00192482
0.00766938 0.00687024 -0.000459958
0.00192482 -0.000459958 0.00223498
0.0259374 0.00885037 0.000117812
0.00885037 0.0166968 4.12317e-05
0.000117812 4.12317e-05 0.0113391
5.58779e-05 -0.000104483 9.76031e-07
-0.000104483 -0.000177183 -1.32081e-06
9.76031e-07 -1.32081e-06 -0.000298179
0.00052465 -5.68239e-06 1.93444e-06
-5.68239e-06 9.41284e-05 1.17417e-08
1.93444e-06 1.17417e-08 -1.05281e-05
0.0006041 -9.33163e-05 -1.01964e-06
-9.33163e-05 0.000165106 4.25396e-06
-1.01964e-06 4.25396e-06 4.20356e-05
0.000533459 -3.67948e-05 1.76901e-06
-3.67948e-05 0.000107703 1.45044e-07
1.76901e-06 1.45044e-07 -1.39122e-05
0.00108232 0.000148443 -5.72476e-06
0.000148443 0.000535906 -2.14539e-07
-5.72476e-06 -2.14539e-07 0.000385002
0.000587702 0.000149565 1.71967e-08
0.000149565 0.000134107 6.28019e-06
1.71967e-08 6.28019e-06 -2.10882e-06
0.000913275 1.22756e-05 2.59382e-06
1.22756e-05 0.000373494 3.00571e-06
2.59382e-06 3.00571e-06 0.00022075
0.000522926 -2.47578e-05 -1.5217e-06
-2.47578e-05 0.00010307 1.28458e-06
-1.5217e-06 1.28458e-06 -2.27151e-05
0.00273253 -0.000343568 1.42837e-05
-0.000343568 -3.70095e-05 -1.16403e-05
1.42837e-05 -1.16403e-05 0.000200446
0.002231 -0.000650219 1.06181e-05
-0.000650219 -0.000373343 -6.24808e-06
1.06181e-05 -6.24808e-06 -0.000145036
0.0026407 -0.000988779 5.49757e-06
-0.000988779 0.000219056 7.64462e-06
5.49757e-06 7.64462e-06 1.88391e-05
0.00295276 -0.00114865 1.30773e-05
-0.00114865 0.00111576 -1.34201e-06
1.30773e-05 -1.34201e-06 0.000581076
0.00252141 -0.00120704 -3.18919e-05
-0.00120704 0.00048127 -2.43e-06
-3.18919e-05 -2.43e-06 5.73413e-05
0.0012715 -0.00121549 3.11318e-05
-0.00121549 0.000759372 3.6707e-06
3.11318e-05 3.6707e-06 -0.000141762
0.00477747 -0.00087248 8.57611e-06
-0.00087248 0.00240564 7.68642e-06
8.57611e-06 7.68642e-06 0.00193163
0.00168849 -0.000370134 1.95892e-05
-0.000370134 0.000956945 -5.32682e-05
1.95892e-05 -5.32682e-05 0.00054885
0.000476511 -0.000124197 6.96931e-07
-0.000124197 -3.06086e-05 2.79486e-06
6.96931e-07 2.79486e-06 -0.000133296
0.00116181 -9.53618e-05 1.3546e-05
-9.53618e-05 0.000493663 -2.40428e-05
1.3546e-05 -2.40428e-05 0.000239323
0.000946869 -5.93131e-05 4.4554e-06
-5.93131e-05 0.000381459 2.29872e-06
4.4554e-06 2.29872e-06 0.000229682
0.000566694 -2.06487e-06 7.61857e-06
-2.06487e-06 0.000182238 -6.54141e-06
7.61857e-06 -6.54141e-06 0.000156974
0.00255893 -0.000461647 -8.83984e-07
-0.000461647 -0.000154233 3.05293e-06
-8.83984e-07 3.05293e-06 0.000215699
0.00035531 -0.000107323 -5.19508e-06
-0.000107323 0.00011068 -1.02589e-06
-5.19508e-06 -1.02589e-06 -4.09934e-05
0.00141164 -0.000245175 -8.79265e-06
-0.000245175 0.00065521 5.11713e-06
-8.79265e-06 5.11713e-06 0.000449873
0.00172839 -0.000730237 8.69716e-06
-0.000730237 -0.000412478 -4.42745e-06
8.69716e-06 -4.42745e-06 -0.00027498
0.00230508 -0.00102204 2.16405e-06
-0.00102204 0.0002756 4.4014e-06
2.16405e-06 4.4014e-06 -4.2947e-05
0.00108537 -0.00100839 -4.53292e-06
-0.00100839 -0.000158998 -1.53679e-05
-4.53292e-06 -1.53679e-05 -0.00049353
0.00180468 -0.000425784 -2.2318e-06
-0.000425784 0.00110621 -3.23489e-05
-2.2318e-06 -3.23489e-05 0.000643125
0.00126335 -0.000757542 1.17283e-05
-0.000757542 0.00119969 3.643e-06
1.17283e-05 3.643e-06 0.000234793
0.00598819 -0.00106114 -5.37027e-05
-0.00106114 0.00153615 3.47674e-05
-5.37027e-05 3.47674e-05 0.00179339
0.00353606 -0.00109212 -4.09581e-05
-0.00109212 0.0009552 1.24401e-05
-4.09581e-05 1.24401e-05 0.000717778
0.00260218 -0.00121415 1.34708e-05
-0.00121415 0.00055982 1.0984e-05
1.34708e-05 1.0984e-05 0.000218393
-0.000483848 -0.000625235 -6.18404e-06
-0.000625235 -0.000698156 2.05302e-05
-6.18404e-06 2.05302e-05 -0.000845921
0.000503576 -0.00017018 1.27668e-06
-0.00017018 0.000253942 6.02677e-06
1.27668e-06 6.02677e-06 -9.76993e-06
0.000317577 -0.00018635 4.34214e-06
-0.00018635 0.000217949 1.46592e-06
4.34214e-06 1.46592e-06 -0.000108643
0.00150521 -0.000307441 -1.58917e-05
-0.000307441 0.00131134 -2.35044e-05
-1.58917e-05 -2.35044e-05 0.000515274
-0.00756205 -0.000546732 0.000778282
-0.000546732 -0.00362696 -4.41222e-05
0.000778282 -4.41222e-05 -0.00458717
0.0120753 -0.00044453 8.06813e-05
-0.00044453 9.36599e-06 4.02051e-05
8.06813e-05 4.02051e-05 0.000716361
0.00290899 0.000443844 1.07535e-05
0.000443844 0.00167416 -1.08607e-05
1.07535e-05 -1.08607e-05 0.00141849
0.0020215 0.000671792 -8.50835e-07
0.000671792 0.000876898 7.60736e-06
-8.50835e-07 7.60736e-06 0.000421285
0.00242174 0.000807322 0.000108961
0.000807322 -6.08059e-05 5.08568e-05
0.000108961 5.08568e-05 3.2425e-05
0.00351563 0.00119094 3.07402e-05
0.00119094 0.00101534 1.66063e-05
3.07402e-05 1.66063e-05 0.000608951
0.00299805 0.00102055 2.3543e-05
0.00102055 0.00118975 8.70064e-06
2.3543e-05 8.70064e-06 0.000629092
0.0175826 0.000831485 0.000107972
0.000831485 0.00237558 -8.1832e-05
0.000107972 -8.1832e-05 0.0021706
0.00855822 0.00298804 -0.00026917
0.00298804 -0.00147426 -3.72502e-05
-0.00026917 -3.72502e-05 0.000803971
0.00180251 0.00165828 1.22341e-05
0.00165828 -0.000171164 -3.24268e-05
1.22341e-05 -3.24268e-05 -0.000633245
0.0158942 -0.00595778 -0.000706489
-0.00595778 0.00699267 3.52176e-05
-0.000706489 3.52176e-05 0.00267293
0.0114792 -0.0132147 -0.00300603
-0.0132147 0.00975108 -0.00172942
-0.00300603 -0.00172942 0.00333831
0.000880875 0.000367547 4.76013e-06
0.000367547 0.000421286 -2.69681e-06
4.76013e-06 -2.69681e-06 0.000124586
-0.000514778 -0.00349504 0.000698345
-0.00349504 -0.00216937 9.42492e-05
0.000698345 9.42492e-05 -0.00526321
-0.000420356 -0.00390097 -0.000731244
-0.00390097 0.00812314 -0.000198041
-0.000731244 -0.000198041 0.00111282
0.0039014 0.00140846 -1.92672e-05
0.00140846 0.00084114 1.88929e-06
-1.92672e-05 1.88929e-06 0.000623491
0.000893431 0.000550598 -1.0738e-05
0.000550598 0.00016666 8.95129e-06
-1.0738e-05 8.95129e-06 -0.000247981
0.00176356 0.000983191 5.68952e-06
0.000983191 0.000515118 1.89663e-06
5.68952e-06 1.89663e-06 1.09531e-05
0.00162377 0.00159134 6.41363e-05
0.00159134 0.000252499 4.68409e-05
6.41363e-05 4.68409e-05 -7.6751e-05
0.0142646 0.00365622 -0.000159855
0.00365622 -5.77624e-06 -0.000113912
-0.000159855 -0.000113912 -0.00114388
0.003587 0.00354934 -1.54092e-05
0.00354934 -0.00112306 -4.04829e-05
-1.54092e-05 -4.04829e-05 0.000437458
0.0210047 -0.00639468 0.00070992
-0.00639468 0.00912486 -2.83386e-05
0.00070992 -2.83386e-05 0.00318321
0.0209221 -0.00530655 2.90736e-05
-0.00530655 0.00575883 0.00084415
2.90736e-05 0.00084415 0.00171829
0.00168513 0.000442052 -1.84774e-05
0.000442052 0.000850329 -1.75027e-05
-1.84774e-05 -1.75027e-05 0.000582378
-0.00941666 0.0013305 -0.000107801
0.0013305 0.00490535 -0.000153997
-0.000107801 -0.000153997 -0.00300141
0.00625438 0.00138174 -0.000502516
0.00138174 0.00508418 -0.0005807
-0.000502516 -0.0005807 -0.000138423
0.00260662 0.001038 -4.05704e-05
0.001038 0.000590005 -1.75922e-05
-4.05704e-05 -1.75922e-05 0.000495506
0.00322393 0.0010653 -8.99329e-05
0.0010653 0.00146117 -3.30787e-05
-8.99329e-05 -3.30787e-05 0.000982747
0.00206546 0.00122695 -9.98243e-05
0.00122695 0.00130461 -2.99126e-05
-9.98243e-05 -2.99126e-05 0.0005237
-0.00295069 0.0023341 3.45098e-05
0.0023341 -0.00106924 -3.44474e-05
3.45098e-05 -3.44474e-05 -0.00120865
0.0032339 0.00491366 0.000623178
0.00491366 -0.00192464 0.000123793
0.000623178 0.000123793 -0.00350102
0.0224454 -0.00810872 -1.15058e-05
-0.00810872 0.012393 0.000857682
-1.15058e-05 0.000857682 0.00574683
0.00927599 -8.84278e-05 -0.000204893
-8.84278e-05 -0.00188227 -0.000197292
-0.000204893 -0.000197292 -0.00130884
-0.000345822 0.000163335 -4.56489e-07
0.000163335 -0.000256066 -4.07783e-06
-4.56489e-07 -4.07783e-06 -0.000418255
0.00188665 0.000371343 9.8653e-06
0.000371343 0.00108588 2.67196e-06
9.8653e-06 2.67196e-06 0.000849447
-0.000656823 0.000101764 -4.37818e-06
0.000101764 -0.000398272 2.0871e-06
-4.37818e-06 2.0871e-06 -0.000588467
0.000337846 5.2623e-05 2.2661e-06
5.2623e-05 -2.43091e-05 2.05638e-06
2.2661e-06 2.05638e-06 -0.00017069
0.00109273 8.75793e-05 3.21443e-07
8.75793e-05 0.000501736 -9.10227e-07
3.21443e-07 -9.10227e-07 0.000294924
0.00055728 3.67284e-05 -2.48676e-06
3.67284e-05 0.000188775 2.131e-06
-2.48676e-06 2.131e-06 -2.70055e-05
0.000364088 0.00011108 7.31474e-06
0.00011108 3.69603e-05 7.04989e-06
7.31474e-06 7.04989e-06 -0.000168455
-0.000866425 2.5812e-05 -4.87053e-06
2.5812e-05 -0.000630895 2.30855e-06
-4.87053e-06 2.30855e-06 -0.000811877
0.000770836 3.44268e-05 4.03035e-07
3.44268e-05 0.000295994 -6.61452e-07
4.03035e-07 -6.61452e-07 9.81605e-05
0.000701504 9.94108e-05 5.94972e-07
9.94108e-05 0.000252323 -1.30314e-07
5.94972e-07 -1.30314e-07 7.74922e-05
0.000847511 -4.04038e-05 -1.29204e-06
-4.04038e-05 0.000360492 2.30101e-06
-1.29204e-06 2.30101e-06 0.000147861
-0.00111811 4.34835e-05 1.64591e-06
4.34835e-05 -0.00059075 7.82595e-07
1.64591e-06 7.82595e-07 -0.000891097
0.00094487 8.71752e-05 -1.55573e-06
8.71752e-05 0.000779392 6.40476e-06
-1.55573e-06 6.40476e-06 0.000391453
0.000709278 -1.75959e-05 -9.36657e-08
-1.75959e-05 0.000388453 -6.33504e-06
-9.36657e-08 -6.33504e-06 0.000147279
0.00160842 -1.64364e-05 -2.46717e-06
-1.64364e-05 0.000895636 3.5491e-06
-2.46717e-06 3.5491e-06 0.000643869
0.000859833 -9.34489e-05 -6.76147e-07
-9.34489e-05 0.000352486 -1.06058e-06
-6.76147e-07 -1.06058e-06 0.000154511
0.000133299 -0.00011616 4.24061e-06
-0.00011616 -0.000167116 1.40145e-05
4.24061e-06 1.40145e-05 -0.000304574
0.000623481 -9.47434e-05 5.21397e-07
-9.47434e-05 0.000225751 -5.84694e-07
5.21397e-07 -5.84694e-07 2.39248e-05
0.000795152 -0.000120685 -2.80185e-06
-0.000120685 0.000223547 -1.08374e-06
-2.80185e-06 -1.08374e-06 9.42399e-05
-0.000314682 -7.36345e-05 1.52773e-06
-7.36345e-05 -0.000390957 6.25098e-06
1.52773e-06 6.25098e-06 -0.000511364
-0.000318056 -5.56403e-05 2.50506e-07
-5.56403e-05 -0.000364154 -7.70526e-06
2.50506e-07 -7.70526e-06 -0.0005343
4.9583e-05 -5.15394e-05 -8.51292e-06
-5.15394e-05 -4.40477e-05 -2.01879e-06
-8.51292e-06 -2.01879e-06 -0.000255866
0.000308949 -0.000131506 2.32093e-06
-0.000131506 1.4647e-05 -1.16318e-05
2.32093e-06 -1.16318e-05 -0.000113997
0.00118245 -0.000141326 2.31795e-05
-0.000141326 0.000436425 -1.64065e-05
2.31795e-05 -1.64065e-05 0.000312573
0.00199227 -0.000382375 -1.66392e-06
-0.000382375 0.000877933 3.81401e-06
-1.66392e-06 3.81401e-06 0.000651472
-0.00028742 -8.26817e-05 -5.36928e-06
-8.26817e-05 -0.000339748 -2.01159e-06
-5.36928e-06 -2.01159e-06 -0.000541064
0.000543987 -4.44715e-05 2.29953e-06
-4.44715e-05 0.000204347 -7.70946e-07
2.29953e-06 -7.70946e-07 -5.5125e-06
-0.000678042 -1.42484e-05 4.29755e-06
-1.42484e-05 -0.000589109 -7.0387e-07
4.29755e-06 -7.0387e-07 -0.000803357
0.00062428 -0.000150025 -1.4559e-06
-0.000150025 0.000205237 -8.53237e-07
-1.4559e-06 -8.53237e-07 3.34738e-05
0.000422205 -4.38339e-05 7.69787e-07
-4.38339e-05 1.41251e-05 8.98797e-07
7.69787e-07 8.98797e-07 -0.000123765
0.00061659 -0.000154604 8.17774e-07
-0.000154604 0.000179749 6.09757e-07
8.17774e-07 6.09757e-07 2.38549e-05
0.000588268 -9.54547e-05 -3.57141e-07
-9.54547e-05 0.000137983 2.13376e-07
-3.57141e-07 2.13376e-07 -7.10873e-06
0.000358675 3.23183e-05 6.62315e-07
3.23183e-05 -4.27017e-05 5.45805e-06
6.62315e-07 5.45805e-06 -0.000135398
0.000614267 -0.000128851 -1.02776e-09
-0.000128851 0.000150428 -3.01982e-06
-1.02776e-09 -3.01982e-06 2.52558e-06
0.000505394 -5.035e-05 -5.93149e-07
-5.035e-05 4.7386e-05 1.53535e-07
-5.93149e-07 1.53535e-07 -3.81445e-05
0.00141217 2.27545e-05 -8.23643e-06
2.27545e-05 0.000598745 7.80113e-06
-8.23643e-06 7.80113e-06 0.000575516
0.000480182 -7.30191e-05 9.33783e-07
-7.30191e-05 4.04324e-05 -3.48675e-06
9.33783e-07 -3.48675e-06 -4.7405e-05
0.000855719 -2.49723e-05 -9.42955e-06
-2.49723e-05 0.000253065 8.71205e-07
-9.42955e-06 8.71205e-07 0.000227027
0.000736511 1.09722e-05 1.55201e-06
1.09722e-05 0.000155724 2.20695e-06
1.55201e-06 2.20695e-06 0.000158895
0.00040721 -3.00552e-05 3.52809e-06
-3.00552e-05 -3.09657e-05 -4.80209e-06
3.52809e-06 -4.80209e-06 -5.68235e-05
0.00256482 9.57741e-06 7.14544e-06
9.57741e-06 0.00133052 6.50524e-09
7.14544e-06 6.50524e-09 0.0013428
0.00259485 -7.168e-07 5.24896e-06
-7.168e-07 0.00135094 -5.06837e-06
5.24896e-06 -5.06837e-06 0.00136257
0.00104525 8.28863e-05 -4.62762e-07
8.28863e-05 0.000431085 1.11319e-07
-4.62762e-07 1.11319e-07 0.000312745
0.000496706 6.99365e-05 -1.596e-06
6.99365e-05 4.46443e-05 -3.33148e-06
-1.596e-06 -3.33148e-06 -1.44644e-05
0.000528689 -1.64691e-05 -6.3152e-07
-1.64691e-05 0.00010507 8.05093e-07
-6.3152e-07 8.05093e-07 -7.32873e-06
0.000442752 9.70955e-06 1.47784e-06
9.70955e-06 -3.4362e-05 -3.69413e-06
1.47784e-06 -3.69413e-06 -4.54027e-05
0.000420441 -1.0101e-05 1.48855e-06
-1.0101e-05 -9.79527e-06 -2.27213e-07
1.48855e-06 -2.27213e-07 -6.13752e-05
0.00049045 -6.55596e-05 -2.16759e-06
-6.55596e-05 4.34582e-05 2.81011e-06
-2.16759e-06 2.81011e-06 -1.50608e-05
0.000453528 6.99311e-06 -5.89569e-07
6.99311e-06 -2.73703e-05 1.47519e-08
-5.89569e-07 1.47519e-08 -3.93867e-05
0.00201453 2.64045e-05 -3.3643e-06
2.64045e-05 0.000975115 -4.98959e-06
-3.3643e-06 -4.98959e-06 0.000991035
0.00115838 2.49684e-05 -7.40856e-07
2.49684e-05 0.000424989 2.36523e-06
-7.40856e-07 2.36523e-06 0.000414078
0.00131824 3.22961e-05 -2.89557e-06
3.22961e-05 0.000530768 -1.60309e-08
-2.89557e-06 -1.60309e-08 0.000541303
0.000780126 3.85465e-05 -5.31109e-06
3.85465e-05 0.000192912 8.00574e-06
-5.31109e-06 8.00574e-06 0.00019603
-0.00747332 0.0019624 0.000783196
0.0019624 -0.0023754 -9.62473e-05
0.000783196 -9.62473e-05 -0.00621134
0.00107814 0.00119949 0.00174044
0.00119949 0.00841889 -0.000371624
0.00174044 -0.000371624 0.00330281
0.00225432 0.000594173 -0.000164675
0.000594173 -0.00293375 -3.44407e-05
-0.000164675 -3.44407e-05 -0.000606531
0.00228115 -3.66264e-05 1.55896e-05
-3.66264e-05 -0.00114816 -3.36758e-05
1.55896e-05 -3.36758e-05 -0.000421234
0.00195879 -8.08045e-05 3.41858e-05
-8.08045e-05 -0.000311733 2.10978e-05
3.41858e-05 2.10978e-05 -0.000163588
-0.00163849 -3.91446e-05 -0.000122635
-3.91446e-05 -0.00253503 -3.39253e-05
-0.000122635 -3.39253e-05 -0.000858192
0.00392244 -0.000565788 2.3271e-06
-0.000565788 6.10157e-05 4.60913e-06
2.3271e-06 4.60913e-06 0.00042992
0.0123576 -0.000257459 0.000242651
-0.000257459 -0.00204646 -0.000107795
0.000242651 -0.000107795 -0.00237458
0.00402843 0.00505713 -3.76641e-06
0.00505713 0.00161485 -7.9185e-05
-3.76641e-06 -7.9185e-05 -0.00274424
0.0205647 0.0105958 -0.000709585
0.0105958 0.0135905 0.000300739
-0.000709585 0.000300739 0.00794129
0.00192116 -0.0011567 1.53024e-05
-0.0011567 -0.00313264 -3.33891e-05
1.53024e-05 -3.33891e-05 -0.00124127
0.0156578 -0.00342831 0.000268457
-0.00342831 0.00092427 -7.25021e-05
0.000268457 -7.25021e-05 -0.00011706
0.0233433 0.00729994 0.000454294
0.00729994 0.00822251 -0.00053458
0.000454294 -0.00053458 0.0022405
0.0254298 0.0054321 -0.000348317
0.0054321 0.00892903 0.000337856
-0.000348317 0.000337856 0.00517394
0.00111657 0.000181107 -4.27606e-06
0.000181107 0.000559982 1.68445e-06
-4.27606e-06 1.68445e-06 0.000359594
0.000309159 4.06857e-05 7.22844e-07
4.06857e-05 -3.72352e-05 -9.18221e-07
7.22844e-07 -9.18221e-07 -0.000148777
0.000530217 -0.00010062 2.40583e-06
-0.00010062 0.000110952 2.26769e-06
2.40583e-06 2.26769e-06 -5.30698e-07
0.000713787 2.05445e-06 6.94202e-06
2.05445e-06 0.000233344 -1.0471e-06
6.94202e-06 -1.0471e-06 0.000104809
0.000781869 8.5235e-05 3.31473e-06
8.5235e-05 0.000344304 5.6419e-07
3.31473e-06 5.6419e-07 0.000208685
0.000546477 5.32668e-05 -1.32667e-07
5.32668e-05 0.000143614 7.84612e-06
-1.32667e-07 7.84612e-06 -3.68761e-05
0.000698455 9.13452e-05 -2.0091e-07
9.13452e-05 0.000231677 3.14069e-06
-2.0091e-07 3.14069e-06 8.56739e-05
0.000424048 8.71493e-05 5.16564e-06
8.71493e-05 1.39244e-05 3.13365e-06
5.16564e-06 3.13365e-06 -0.000137954
0.000637278 -1.26279e-05 2.27382e-06
-1.26279e-05 0.00019559 -1.19241e-06
2.27382e-06 -1.19241e-06 4.48292e-05
0.00042446 -2.34699e-05 2.41777e-06
-2.34699e-05 3.18741e-05 -1.83611e-06
2.41777e-06 -1.83611e-06 -8.40063e-05
0.00121143 -0.000375854 3.87959e-05
-0.000375854 -0.000919286 -1.77093e-05
3.87959e-05 -1.77093e-05 -0.00047973
0.00107778 -0.000672269 2.26621e-05
-0.000672269 -0.000762391 -8.61263e-06
2.26621e-05 -8.61263e-06 -0.000586133
0.000950831 -0.000833987 5.11078e-06
-0.000833987 -0.000472805 7.21576e-06
5.11078e-06 7.21576e-06 -0.000694178
-0.000492785 -0.00078671 -1.91305e-05
-0.00078671 -0.00103041 -6.09586e-06
-1.91305e-05 -6.09586e-06 -0.00130978
0.00266281 -0.000599083 9.302e-06
-0.000599083 0.00178761 5.15661e-05
9.302e-06 5.15661e-05 0.00103181
-0.000720531 -0.000652082 -9.33748e-06
-0.000652082 -0.000398961 -1.07287e-05
-9.33748e-06 -1.07287e-05 -0.00104362
0.00130333 -0.000310761 8.68401e-06
-0.000310761 0.000604688 -5.07423e-06
8.68401e-06 -5.07423e-06 0.000429593
0.000345671 -6.2267e-05 1.93641e-06
-6.2267e-05 7.76683e-05 4.06486e-06
1.93641e-06 4.06486e-06 -6.31045e-05
0.00265779 -0.000752685 1.538e-05
-0.000752685 -0.00032259 -1.02657e-05
1.538e-05 -1.02657e-05 9.31521e-05
0.000487052 -9.26796e-05 4.82418e-07
-9.26796e-05 0.000236785 2.21052e-06
4.82418e-07 2.21052e-06 -3.33754e-05
-0.000151111 -0.000232542 -3.97604e-06
-0.000232542 -6.16928e-05 -5.80336e-06
-3.97604e-06 -5.80336e-06 -0.000388951
0.00189625 -0.000906477 1.97478e-05
-0.000906477 2.85665e-05 -1.29876e-06
1.97478e-05 -1.29876e-06 -8.23707e-05
0.00184501 -0.00110747 -2.44641e-06
-0.00110747 7.55364e-05 -2.59954e-06
-2.44641e-06 -2.59954e-06 -0.000156543
0.000100153 -0.000795081 1.56531e-05
-0.000795081 -0.000331092 -2.10202e-05
1.56531e-05 -2.10202e-05 -0.000586363
0.000904664 -0.000403617 1.51705e-05
-0.000403617 0.00094478 -2.3831e-05
1.51705e-05 -2.3831e-05 0.000166911
0.00180432 -0.00113073 -5.98517e-05
-0.00113073 -0.000281447 4.72714e-05
-5.98517e-05 4.72714e-05 -0.000467229
0.0017545 -0.000952866 -3.28234e-05
-0.000952866 0.000180312 1.70859e-05
-3.28234e-05 1.70859e-05 0.000133762
-0.000651975 -0.00059824 -5.10444e-05
-0.00059824 -0.000277933 3.69177e-05
-5.10444e-05 3.69177e-05 -0.000704724
-0.00189805 -0.000178596 -9.72996e-06
-0.000178596 -0.00127919 1.21979e-05
-9.72996e-06 1.21979e-05 -0.00153391
-0.00127327 -7.2259e-06 -7.79492e-07
-7.2259e-06 -0.000771357 1.2091e-05
-7.79492e-07 1.2091e-05 -0.00108267
0.00089957 -7.73794e-05 4.03519e-06
-7.73794e-05 0.000609167 -1.44561e-05
4.03519e-06 -1.44561e-05 0.000207657
-0.00286321 0.00149149 -0.000547517
0.00149149 0.00785695 2.51528e-05
-0.000547517 2.51528e-05 0.00179631
-0.000196304 -0.00200665 -2.18407e-05
-0.00200665 0.00321163 -1.48518e-05
-2.18407e-05 -1.48518e-05 0.00162311
0.00429335 0.000934145 -0.00016386
0.000934145 -0.00617016 -3.09461e-05
-0.00016386 -3.09461e-05 -0.00627623
0.000872173 0.000382175 1.56801e-05
0.000382175 0.000468735 -5.54723e-06
1.56801e-05 -5.54723e-06 0.000155023
0.00179469 0.000734577 1.69704e-05
0.000734577 0.000749438 2.57831e-05
1.69704e-05 2.57831e-05 0.000260233
0.00341312 0.00122956 8.10539e-05
0.00122956 0.000554333 3.49302e-05
8.10539e-05 3.49302e-05 0.000402346
0.00137482 0.00102224 1.84196e-05
0.00102224 0.000346405 2.78628e-05
1.84196e-05 2.78628e-05 -0.000208298
0.0145505 -0.00411778 0.000316048
-0.00411778 0.00623223 9.53272e-05
0.000316048 9.53272e-05 0.0035058
0.00363228 0.00233549 -0.00045885
0.00233549 -0.005743 -0.000114172
-0.00045885 -0.000114172 -0.00675972
0.00575311 0.0035336 4.90969e-05
0.0035336 0.000468921 3.12718e-05
4.90969e-05 3.12718e-05 0.00142814
0.0030339 0.00153738 7.61088e-05
0.00153738 0.00127057 8.78588e-07
7.61088e-05 8.78588e-07 0.000966122
0.01309 -0.00372993 -0.000609112
-0.00372993 0.00550837 -0.000331227
-0.000609112 -0.000331227 0.000220292
0.00139815 -0.00518615 -0.00106959
-0.00518615 0.00895861 -0.000274631
-0.00106959 -0.000274631 0.00189248
0.0307702 -0.00732706 0.00102586
-0.00732706 0.00966267 0.00045907
0.00102586 0.00045907 0.00496833
0.000194216 0.000310613 1.64406e-05
0.000310613 -1.59625e-05 -5.33208e-06
1.64406e-05 -5.33208e-06 -0.000277087
-0.003512 0.000375596 -0.000198142
0.000375596 0.00708513 -3.03346e-05
-0.000198142 -3.03346e-05 0.000242405
0.00692312 0.00185769 -0.000204229
0.00185769 0.0039635 -0.000196163
-0.000204229 -0.000196163 -0.00193746
0.00181966 0.00106851 9.01582e-06
0.00106851 0.000282002 2.99243e-06
9.01582e-06 2.99243e-06 0.00010779
0.000747093 0.000782223 1.89205e-05
0.000782223 0.000232299 7.22726e-06
1.89205e-05 7.22726e-06 -0.000249754
0.00107973 0.00128938 -8.56469e-05
0.00128938 0.000685592 -7.52526e-05
-8.56469e-05 -7.52526e-05 4.31033e-05
0.00381735 0.00404185 5.15162e-05
0.00404185 0.000971354 4.56824e-05
5.15162e-05 4.56824e-05 0.00103855
0.014557 0.00596441 -2.17889e-06
0.00596441 0.00197771 2.27547e-06
-2.17889e-06 2.27547e-06 -0.000265441
0.0106816 -0.00445051 9.83319e-05
-0.00445051 0.0066094 -0.000127672
9.83319e-05 -0.000127672 -0.000366449
0.017335 -0.00218413 -2.94837e-05
-0.00218413 0.00253057 -6.93637e-05
-2.94837e-05 -6.93637e-05 0.00325296
0.00091808 0.000647567 -1.66011e-05
0.000647567 0.000386572 -7.9602e-06
-1.66011e-05 -7.9602e-06 1.91478e-05
0.00156646 0.000323609 -0.000460151
0.000323609 0.00285891 -0.000122995
-0.000460151 -0.000122995 -0.00305197
0.00173105 0.00126048 -0.000169061
0.00126048 5.46594e-05 -0.000196244
-0.000169061 -0.000196244 -0.00183284
-0.000803041 0.00041115 -6.15332e-06
0.00041115 -0.000143857 -2.28434e-05
-6.15332e-06 -2.28434e-05 -0.000477993
-0.00165227 0.000890515 -0.000184459
0.000890515 0.000779408 -5.16643e-06
-0.000184459 -5.16643e-06 1.33646e-05
0.0102345 0.00612696 0.000143914
0.00612696 0.00357416 -2.67932e-05
0.000143914 -2.67932e-05 -0.00136836
0.00115317 -0.00652109 -3.16376e-05
-0.00652109 0.000621986 0.000233402
-3.16376e-05 0.000233402 -0.00557988
0.0139605 -0.000179097 6.88172e-05
-0.000179097 -0.0013489 -0.0003432
6.88172e-05 -0.0003432 0.000773906
0.00114115 0.000264785 -4.83323e-07
0.000264785 0.000577911 2.04561e-05
-4.83323e-07 2.04561e-05 0.000386194
0.000968174 0.000282589 -9.13516e-06
0.000282589 0.000608189 -5.99288e-06
-9.13516e-06 -5.99288e-06 0.000362773
-0.000529948 0.000142241 1.90654e-06
0.000142241 -8.53901e-05 -1.3213e-06
1.90654e-06 -1.3213e-06 -0.000458435
0.000456013 8.56543e-05 -1.67161e-07
8.56543e-05 7.12987e-05 -5.82727e-07
-1.67161e-07 -5.82727e-07 -0.00010781
0.00133023 -2.89358e-05 -3.36331e-06
-2.89358e-05 0.000688578 4.08497e-06
-3.36331e-06 4.08497e-06 0.000458025
-0.000247979 7.78157e-05 3.01556e-06
7.78157e-05 -0.000349328 3.3786e-06
3.01556e-06 3.3786e-06 -0.000519355
-0.00139873 5.94982e-05 2.10929e-06
5.94982e-05 -0.000744443 1.45006e-06
2.10929e-06 1.45006e-06 -0.00104969
0.000459587 -2.08374e-05 1.50727e-06
-2.08374e-05 0.000117797 5.50287e-07
1.50727e-06 5.50287e-07 -9.20261e-05
0.000479368 7.78337e-05 8.69422e-07
7.78337e-05 0.000237785 -2.26858e-06
8.69422e-07 -2.26858e-06 3.59134e-06
9.0986e-06 5.15438e-05 3.54783e-06
5.15438e-05 0.000314415 2.86532e-06
3.54783e-06 2.86532e-06 -0.000152199
-0.00115533 1.87265e-05 -1.10809e-06
1.87265e-05 -0.00022175 1.13853e-05
-1.10809e-06 1.13853e-05 -0.000779504
0.000723659 2.16386e-05 -1.73638e-06
2.16386e-05 0.000693391 -5.92057e-06
-1.73638e-06 -5.92057e-06 0.000274181
0.0017027 4.90957e-05 -1.48886e-06
4.90957e-05 0.000992118 1.56949e-06
-1.48886e-06 1.56949e-06 0.000766204
0.000881154 -0.000176021 4.14964e-06
-0.000176021 0.000392682 2.48641e-06
4.14964e-06 2.48641e-06 0.000186789
0.000127215 -7.65117e-05 1.27658e-06
-7.65117e-05 -0.000217543 8.23945e-06
1.27658e-06 8.23945e-06 -0.000336454
-7.76104e-05 -8.77933e-05 1.06318e-05
-8.77933e-05 -0.000242178 1.89671e-05
1.06318e-05 1.89671e-05 -0.000341857
0.000258057 -3.3261e-05 9.86419e-07
-3.3261e-05 7.15192e-05 1.32864e-06
9.86419e-07 1.32864e-06 -0.000126877
0.000460352 -3.79613e-05 -4.7204e-07
-3.79613e-05 0.000101076 1.9894e-06
-4.7204e-07 1.9894e-06 -6.28046e-05
2.07438e-05 -6.37276e-05 -3.26415e-06
-6.37276e-05 -0.000134933 -1.51525e-06
-3.26415e-06 -1.51525e-06 -0.000270847
9.74428e-05 -7.89754e-05 -4.29796e-06
-7.89754e-05 -9.92048e-05 -4.60137e-06
-4.29796e-06 -4.60137e-06 -0.000248149
0.00101109 -0.000113509 9.04757e-06
-0.000113509 0.000668244 -1.03009e-05
9.04757e-06 -1.03009e-05 0.000471599
0.00231543 -0.000364879 5.83073e-06
-0.000364879 0.00107382 5.07429e-06
5.83073e-06 5.07429e-06 0.000958372
0.000676335 -0.000137209 -1.68531e-05
-0.000137209 0.000135242 -9.23117e-09
-1.68531e-05 -9.23117e-09 1.54522e-05
0.000765176 -0.000295141 7.56252e-06
-0.000295141 0.000136293 5.45874e-06
7.56252e-06 5.45874e-06 -6.30233e-05
0.00257079 -0.000703538 -6.07436e-06
-0.000703538 0.00118689 2.18781e-05
-6.07436e-06 2.18781e-05 0.00078059
0.00210602 -0.000295316 7.08454e-06
-0.000295316 0.000999874 -9.09879e-06
7.08454e-06 -9.09879e-06 0.000786371
0.000931942 -0.000281284 -4.31974e-06
-0.000281284 0.000243869 -6.52432e-06
-4.31974e-06 -6.52432e-06 6.2717e-05
0.000519079 -0.000110547 -5.57114e-07
-0.000110547 0.000139676 -1.34353e-06
-5.57114e-07 -1.34353e-06 -6.23658e-05
-0.000743823 -5.0502e-05 -1.75149e-07
-5.0502e-05 -0.000600765 -2.06241e-06
-1.75149e-07 -2.06241e-06 -0.000866011
0.00129465 -4.18373e-05 2.02834e-06
-4.18373e-05 0.000660248 1.78191e-06
2.02834e-06 1.78191e-06 0.00045759
0.000692486 -0.000155984 1.29058e-06
-0.000155984 0.000262894 -7.01204e-07
1.29058e-06 -7.01204e-07 4.21e-05
0.000265822 -6.62451e-05 5.39863e-07
-6.62451e-05 -0.000101749 -1.36102e-07
5.39863e-07 -1.36102e-07 -0.000244153
0.00157856 -0.000258806 -4.58113e-06
-0.000258806 0.000825995 7.94574e-07
-4.58113e-06 7.94574e-07 0.00062596
0.000726655 -0.000133204 -4.25808e-07
-0.000133204 0.00021195 1.50722e-07
-4.25808e-07 1.50722e-07 6.51001e-05
0.000501857 -5.02113e-06 -1.0123e-06
-5.02113e-06 3.91998e-05 4.01818e-06
-1.0123e-06 4.01818e-06 -5.42608e-05
0.000793126 -0.000148436 3.85729e-08
-0.000148436 0.000273357 -2.6491e-06
3.85729e-08 -2.6491e-06 0.000122488
0.000579214 -6.71386e-05 -1.14939e-07
-6.71386e-05 9.49099e-05 9.04043e-08
-1.14939e-07 9.04043e-08 1.71352e-06
0.00145731 6.43544e-06 -1.36569e-05
6.43544e-06 0.000623315 8.5435e-06
-1.36569e-05 8.5435e-06 0.000597009
0.000532231 -7.63462e-05 1.1817e-06
-7.63462e-05 7.25935e-05 -5.433e-06
1.1817e-06 -5.433e-06 -1.95443e-05
0.00084861 -1.75986e-05 -1.09422e-05
-1.75986e-05 0.000240945 8.07685e-07
-1.09422e-05 8.07685e-07 0.000213766
0.000791333 1.97937e-05 1.54612e-06
1.97937e-05 0.000188468 3.11991e-06
1.54612e-06 3.11991e-06 0.000189035
0.000407284 -4.23556e-05 3.03245e-06
-4.23556e-05 -3.5365e-05 -5.37099e-06
3.03245e-06 -5.37099e-06 -6.35995e-05
0.00166525 1.80418e-05 1.35446e-05
1.80418e-05 0.000752406 -1.55573e-06
1.35446e-05 -1.55573e-06 0.000760465
0.00251465 7.32574e-06 1.61359e-05
7.32574e-06 0.00129765 -5.19683e-06
1.61359e-05 -5.19683e-06 0.0013103
0.000466167 6.83628e-05 1.78031e-06
6.83628e-05 3.40883e-05 -1.26819e-06
1.78031e-06 -1.26819e-06 -7.93498e-05
0.00057571 7.20428e-05 -8.96468e-07
7.20428e-05 8.93967e-05 -2.85936e-06
-8.96468e-07 -2.85936e-06 2.64826e-05
0.000556463 1.02404e-05 5.84733e-07
1.02404e-05 0.000109284 8.7352e-07
5.84733e-07 8.7352e-07 -2.26147e-06
0.000439946 8.1225e-06 2.31987e-06
8.1225e-06 -3.57146e-05 -4.11031e-06
2.31987e-06 -4.11031e-06 -4.74643e-05
0.000469821 6.09308e-05 -6.74462e-08
6.09308e-05 2.19606e-05 -2.16376e-07
-6.74462e-08 -2.16376e-07 -3.36774e-05
0.000450119 -0.000115743 -3.08455e-06
-0.000115743 4.05717e-05 1.79322e-06
-3.08455e-06 1.79322e-06 -6.28653e-05
0.0020196 1.20814e-05 -8.45896e-06
1.20814e-05 0.000976017 -5.01851e-06
-8.45896e-06 -5.01851e-06 0.000993108
0.00042693 7.4904e-06 -2.64293e-07
7.4904e-06 -4.40845e-05 3.22516e-08
-2.64293e-07 3.22516e-08 -5.50975e-05
0.000483291 -3.84608e-07 -1.26977e-06
-3.84608e-07 2.27541e-05 2.75216e-06
-1.26977e-06 2.75216e-06 -2.43202e-05
0.000446912 3.93276e-06 -2.11674e-06
3.93276e-06 -3.23247e-05 3.67283e-06
-2.11674e-06 3.67283e-06 -4.43377e-05
0.00206209 2.79018e-05 -5.71861e-06
2.79018e-05 0.00100589 -1.32879e-07
-5.71861e-06 -1.32879e-07 0.00102143
0.00205328 4.27131e-05 -2.60823e-06
4.27131e-05 0.00100337 5.00522e-06
-2.60823e-06 5.00522e-06 0.00101723
-0.00502783 -0.00213072 -0.000269775
-0.00213072 0.00731254 6.84527e-05
-0.000269775 6.84527e-05 0.00255392
0.00381168 0.00214236 -0.000360956
0.00214236 0.00173599 0.000117757
-0.000360956 0.000117757 -0.00149361
0.00295234 -0.00114846 -0.00067611
-0.00114846 0.00136859 0.000294177
-0.00067611 0.000294177 -0.00357348
0.00275877 0.00187338 0.00138074
0.00187338 0.00822411 -0.000326455
0.00138074 -0.000326455 0.00253276
0.0043487 0.000824643 -5.68936e-05
0.000824643 -0.000663977 7.71087e-06
-5.68936e-05 7.71087e-06 0.000628704
0.00353894 -0.000628875 0.000103888
-0.000628875 -0.000142104 7.64899e-06
0.000103888 7.64899e-06 0.000147003
0.00149067 -0.000451798 0.000375212
-0.000451798 -0.00636145 -5.15817e-05
0.000375212 -5.15817e-05 -0.00725079
0.0270366 0.00436982 -0.00130299
0.00436982 0.0120719 5.79281e-05
-0.00130299 5.79281e-05 0.00757422
0.0131314 0.0126233 -0.0028606
0.0126233 0.00945633 0.00173336
-0.0028606 0.00173336 0.00327174
0.00540987 -0.00094958 4.80165e-05
-0.00094958 -0.000812465 5.06928e-06
4.80165e-05 5.06928e-06 0.000436379
0.00788705 -0.00330119 0.00021244
-0.00330119 -0.00353962 -0.000177101
0.00021244 -0.000177101 -0.0052865
0.0225225 0.00701865 -0.000414518
0.00701865 0.00816164 -0.000141412
-0.000414518 -0.000141412 0.0021038
0.0187988 0.00525339 0.000116656
0.00525339 0.00575919 0.000466643
0.000116656 0.000466643 0.00192841
0.00150497 -0.00225723 -0.000108424
-0.00225723 -0.0040794 4.75584e-05
-0.000108424 4.75584e-05 -0.00207129
0.0072527 -0.00526036 0.000609936
-0.00526036 -0.000251812 -0.000259781
0.000609936 -0.000259781 -0.00352579
0.0128017 0.00391573 -1.01446e-05
0.00391573 0.00401439 -0.000997306
-1.01446e-05 -0.000997306 -0.00213005
0.00959965 0.000152294 -0.000378106
0.000152294 -0.0013449 4.65185e-05
-0.000378106 4.65185e-05 -0.0012454
0.00238191 -6.35177e-05 1.11616e-06
-6.35177e-05 0.00140681 1.72946e-05
1.11616e-06 1.72946e-05 0.00111575
0.000235257 8.5492e-05 -1.68887e-06
8.5492e-05 -3.92964e-05 -2.24188e-06
-1.68887e-06 -2.24188e-06 -0.000191998
0.00054541 0.000113586 3.37156e-06
0.000113586 0.000102025 3.80679e-07
3.37156e-06 3.80679e-07 -5.77639e-06
-8.49836e-05 -4.02085e-05 4.66369e-06
-4.02085e-05 -0.000246129 -3.40784e-06
4.66369e-06 -3.40784e-06 -0.000332532
0.000464273 0.000127171 3.0401e-06
0.000127171 6.04873e-05 7.98141e-06
3.0401e-06 7.98141e-06 -0.000133227
0.000476249 6.58635e-05 -1.42003e-07
6.58635e-05 9.13242e-05 1.55908e-06
-1.42003e-07 1.55908e-06 -7.60886e-05
8.17398e-05 1.91966e-05 1.95897e-06
1.91966e-05 -0.000163227 -2.09513e-06
1.95897e-06 -2.09513e-06 -0.000296632
0.000889203 0.000186999 6.26999e-06
0.000186999 0.000350409 1.00333e-05
6.26999e-06 1.00333e-05 0.0001621
0.000926345 0.000154664 -1.23607e-07
0.000154664 0.000387633 -6.17514e-07
-1.23607e-07 -6.17514e-07 0.000198443
0.000301001 2.6861e-06 -3.51904e-06
2.6861e-06 -3.5274e-05 -6.15297e-06
-3.51904e-06 -6.15297e-06 -0.000178952
0.00058231 -0.000596675 9.50921e-05
-0.000596675 -0.00147051 -5.83994e-05
9.50921e-05 -5.83994e-05 -0.000978683
0.000190874 -0.000739148 1.95112e-06
-0.000739148 -0.000957126 -8.66844e-06
1.95112e-06 -8.66844e-06 -0.000955657
0.00162794 -0.00108284 -6.69056e-06
-0.00108284 -0.000105626 1.54191e-05
-6.69056e-06 1.54191e-05 -0.000239075
-0.00117807 -0.00078493 5.19866e-06
-0.00078493 -0.00103972 5.11231e-07
5.19866e-06 5.11231e-07 -0.00135415
0.00388967 -0.000572377 -3.78909e-05
-0.000572377 0.00247245 8.1241e-05
-3.78909e-05 8.1241e-05 0.00190672
0.000746632 -0.000249577 -2.70344e-06
-0.000249577 0.000512758 7.90035e-06
-2.70344e-06 7.90035e-06 0.000161395
0.000338366 0.000107215 -1.89517e-06
0.000107215 0.000118803 -1.54001e-05
-1.89517e-06 -1.54001e-05 -0.000140531
0.000631371 -2.46774e-05 -4.2481e-06
-2.46774e-05 0.00030004 8.59916e-06
-4.2481e-06 8.59916e-06 7.42954e-06
0.00240009 -0.00110555 -2.02049e-05
-0.00110555 -4.14429e-05 -8.4632e-08
-2.02049e-05 -8.4632e-08 -3.69253e-05
0.000690776 -4.98435e-05 1.9482e-06
-4.98435e-05 0.000393365 3.92263e-06
1.9482e-06 3.92263e-06 9.54866e-05
0.00233074 -0.0003754 5.51414e-06
-0.0003754 0.0014645 -3.26892e-06
5.51414e-06 -3.26892e-06 0.00104291
0.00146826 -0.000923134 1.43835e-05
-0.000923134 2.34221e-05 -3.91002e-06
1.43835e-05 -3.91002e-06 -3.34521e-05
0.000523513 -0.000718406 -3.77956e-05
-0.000718406 0.000322636 1.10759e-05
-3.77956e-05 1.10759e-05 -7.7096e-05
0.00231546 -0.00187838 5.99166e-05
-0.00187838 0.000156017 -3.0694e-05
5.99166e-05 -3.0694e-05 -0.000147238
0.000450409 -0.000686689 -1.04251e-05
-0.000686689 7.67798e-05 3.19006e-05
-1.04251e-05 3.19006e-05 -5.71827e-05
-0.00169038 -0.000128968 1.43199e-05
-0.000128968 -0.000675017 4.13742e-06
1.43199e-05 4.13742e-06 -0.00119307
0.000463953 5.83761e-05 -3.94632e-06
5.83761e-05 0.000189839 7.51375e-06
-3.94632e-06 7.51375e-06 -2.34555e-05
0.000202122 -8.39959e-05 1.63067e-06
-8.39959e-05 0.00021213 1.07869e-06
1.63067e-06 1.07869e-06 -0.000140811
0.00148625 0.000233246 -7.92843e-05
0.000233246 0.00216651 -2.94308e-05
-7.92843e-05 -2.94308e-05 -0.00256497
-0.00756401 0.000447907 -0.000511428
0.000447907 0.0072787 -2.20607e-05
-0.000511428 -2.20607e-05 0.00141499
-0.0138825 -0.00339026 -0.000985407
-0.00339026 -0.00458141 -6.98239e-06
-0.000985407 -6.98239e-06 -0.00653239
5.76968e-05 0.000346143 1.53202e-05
0.000346143 -1.82082e-05 -3.33281e-06
1.53202e-05 -3.33281e-06 -0.000325001
-0.000907472 0.00061753 -1.78463e-06
0.00061753 -0.000590982 1.00832e-05
-1.78463e-06 1.00832e-05 -0.00108421
0.00290563 0.00129719 4.6896e-05
0.00129719 0.000875688 3.99731e-05
4.6896e-05 3.99731e-05 0.00061816
-0.00480425 0.00237407 0.00013044
0.00237407 0.00795623 6.63626e-05
0.00013044 6.63626e-05 0.00262789
0.00711711 0.00521758 -0.000480553
0.00521758 -0.000556001 -0.000205592
-0.000480553 -0.000205592 -0.00343664
0.00063647 0.00260084 0.000485803
0.00260084 -0.000177811 0.000196639
0.000485803 0.000196639 -0.000121607
-0.000202485 0.00114804 -6.57128e-06
0.00114804 -3.74108e-05 -4.78443e-05
-6.57128e-06 -4.78443e-05 -0.000345877
0.0301038 -0.00431459 -0.000104145
-0.00431459 0.0107908 -0.000470132
-0.000104145 -0.000470132 0.00553705
0.00753557 0.00240694 0.000775081
0.00240694 0.00373954 0.00027446
0.000775081 0.00027446 -0.00272615
0.0140229 -0.00146847 0.000183313
-0.00146847 0.0026186 5.84427e-05
0.000183313 5.84427e-05 0.00385863
0.00150618 0.000706219 8.20603e-06
0.000706219 0.000808088 -1.07596e-06
8.20603e-06 -1.07596e-06 0.000429876
0.00388163 0.000953174 -3.75893e-05
0.000953174 0.00386569 6.85205e-06
-3.75893e-05 6.85205e-06 -0.000680146
0.00206434 0.00108374 9.92542e-05
0.00108374 0.000381793 -8.13918e-06
9.92542e-05 -8.13918e-06 -0.00148549
-0.000349329 0.000645279 -3.85306e-06
0.000645279 -6.29441e-06 -5.86589e-06
-3.85306e-06 -5.86589e-06 -0.00042229
-0.000338628 0.00173124 -0.000142144
0.00173124 0.000624766 -7.69093e-05
-0.000142144 -7.69093e-05 -0.000715029
0.00252572 0.00615466 0.000303738
0.00615466 0.00135229 0.000126873
0.000303738 0.000126873 -0.00317314
0.0113527 -0.000368556 1.16216e-05
-0.000368556 -0.00330887 -0.000230024
1.16216e-05 -0.000230024 -0.000836125
0.00804468 -0.00281952 -0.000103984
-0.00281952 0.00455705 -0.000200336
-0.000103984 -0.000200336 -0.00148746
0.000908129 0.000550544 -3.19896e-06
0.000550544 0.000814346 -1.23475e-05
-3.19896e-06 -1.23475e-05 0.000369081
-0.0038211 0.000498473 3.19725e-05
0.000498473 0.000506861 5.07862e-05
3.19725e-05 5.07862e-05 -0.000648618
0.00645634 -0.000572119 0.000192965
-0.000572119 -4.64983e-05 -0.000142921
0.000192965 -0.000142921 -0.00159507
0.00935458 0.000302473 0.000343111
0.000302473 -0.00124669 -1.43676e-05
0.000343111 -1.43676e-05 -0.00105521
-0.00290409 0.000242414 5.6943e-05
0.000242414 3.19667e-05 -1.78367e-05
5.6943e-05 -1.78367e-05 -0.000926505
0.0112015 0.004052 0.000392227
0.004052 0.00618325 0.000136224
0.000392227 0.000136224 3.77874e-05
0.00473769 -0.000718101 -2.78679e-05
-0.000718101 0.00321193 0.000401469
-2.78679e-05 0.000401469 -0.00108543
0.00313563 0.00052028 2.67439e-05
0.00052028 0.00196204 1.04587e-05
2.67439e-05 1.04587e-05 0.00164935
0.000378717 0.000270247 -8.67497e-06
0.000270247 0.000470605 -2.366e-06
-8.67497e-06 -2.366e-06 5.38656e-05
0.000182669 0.000251716 2.93451e-06
0.000251716 0.000524332 -9.91119e-06
2.93451e-06 -9.91119e-06 -2.53088e-05
0.000231405 0.000119593 1.66531e-06
0.000119593 -1.8465e-05 -3.99167e-06
1.66531e-06 -3.99167e-06 -0.000230895
0.000518504 0.000119611 2.49149e-07
0.000119611 0.000239874 1.54896e-07
2.49149e-07 1.54896e-07 2.62395e-05
2.01207e-07 7.8413e-06 5.97788e-06
7.8413e-06 0.000333378 -4.29171e-06
5.97788e-06 -4.29171e-06 -0.000144453
0.000511219 3.83178e-05 4.98529e-07
3.83178e-05 0.00021901 -6.6432e-07
4.98529e-07 -6.6432e-07 1.86499e-05
0.000967616 -3.97884e-05 -6.26105e-07
-3.97884e-05 0.000865766 -2.83479e-06
-6.26105e-07 -2.83479e-06 0.000431855
-0.000201455 2.64291e-05 1.46074e-06
2.64291e-05 0.000334202 5.74381e-07
1.46074e-06 5.74381e-07 -0.000204057
-6.11206e-05 -4.96109e-05 2.06145e-06
-4.96109e-05 0.00038665 1.61409e-05
2.06145e-06 1.61409e-05 -8.99114e-05
0.000543588 -4.16533e-05 5.55794e-07
-4.16533e-05 0.000545704 -1.15671e-05
5.55794e-07 -1.15671e-05 0.000205992
-9.01842e-05 -4.81571e-05 5.29622e-06
-4.81571e-05 -0.000182121 8.59145e-06
5.29622e-06 8.59145e-06 -0.000350123
0.00135372 -3.29631e-05 1.20197e-06
-3.29631e-05 0.000641543 5.45569e-06
1.20197e-06 5.45569e-06 0.000482371
0.000497144 -7.08492e-05 -1.14854e-05
-7.08492e-05 0.000180392 1.31034e-05
-1.14854e-05 1.31034e-05 3.70027e-05
0.00069686 -9.5105e-05 2.05052e-06
-9.5105e-05 0.000459105 5.36199e-07
2.05052e-06 5.36199e-07 0.000272538
0.000157917 -4.47135e-05 -1.80174e-06
-4.47135e-05 -5.01738e-05 -1.96382e-06
-1.80174e-06 -1.96382e-06 -0.000197926
0.00104468 -0.000276199 1.78814e-06
-0.000276199 0.000483146 4.1375e-06
1.78814e-06 4.1375e-06 0.000333831
0.000617803 -0.000217398 -2.00931e-05
-0.000217398 0.000144114 1.24148e-07
-2.00931e-05 1.24148e-07 8.03661e-05
-0.000804535 -0.000305774 1.43809e-05
-0.000305774 -0.000679605 2.29629e-05
1.43809e-05 2.29629e-05 -0.00100399
0.000248003 -0.000118842 1.84022e-06
-0.000118842 -0.000107308 -9.00405e-08
1.84022e-06 -9.00405e-08 -0.000224099
0.00112738 -0.000335068 -5.85051e-06
-0.000335068 0.000344653 1.08352e-05
-5.85051e-06 1.08352e-05 0.000131699
0.0021685 -0.00068374 -7.26041e-06
-0.00068374 0.000927846 1.37449e-05
-7.26041e-06 1.37449e-05 0.000494357
0.0019653 -0.000694004 -6.97763e-06
-0.000694004 0.000709709 -1.06752e-06
-6.97763e-06 -1.06752e-06 0.000242506
0.00179163 -0.000451773 5.79534e-07
-0.000451773 0.000761249 1.87612e-06
5.79534e-07 1.87612e-06 0.000478655
0.000598659 -0.000438374 1.04561e-05
-0.000438374 -3.42765e-05 -4.14459e-06
1.04561e-05 -4.14459e-06 -0.000366013
0.00110284 -0.000201977 3.11065e-06
-0.000201977 0.000499266 -3.60094e-06
3.11065e-06 -3.60094e-06 0.000203136
0.00108444 -0.000239714 -8.22755e-06
-0.000239714 0.00040998 1.7859e-06
-8.22755e-06 1.7859e-06 0.000184619
-9.28883e-05 -0.00018337 2.1605e-05
-0.00018337 -0.000378365 -1.68847e-05
2.1605e-05 -1.68847e-05 -0.000514298
0.00139878 -0.000141786 -4.42646e-06
-0.000141786 0.000664866 2.59862e-06
-4.42646e-06 2.59862e-06 0.000459706
0.000122125 -0.000104095 7.34903e-07
-0.000104095 -7.34021e-05 1.0847e-06
7.34903e-07 1.0847e-06 -0.000334337
-1.46688e-05 -4.786e-05 1.0872e-06
-4.786e-05 -0.000249432 -6.65964e-07
1.0872e-06 -6.65964e-07 -0.000435133
0.00196144 -0.000301074 -2.79336e-06
-0.000301074 0.0010581 -4.51978e-07
-2.79336e-06 -4.51978e-07 0.000823555
0.000695065 -0.000128768 -4.9844e-07
-0.000128768 0.0001923 -3.45831e-08
-4.9844e-07 -3.45831e-08 2.99382e-05
0.000395618 1.97178e-06 2.89299e-06
1.97178e-06 -1.47332e-05 4.63123e-06
2.89299e-06 4.63123e-06 -0.000125965
0.000818434 -0.000165497 -4.70622e-08
-0.000165497 0.000282615 -2.28591e-06
-4.70622e-08 -2.28591e-06 0.00012356
0.000444071 3.44031e-06 -2.17735e-06
3.44031e-06 1.69335e-05 -1.97694e-07
-2.17735e-06 -1.97694e-07 -8.6672e-05
0.00147503 -6.49572e-06 -2.09891e-05
-6.49572e-06 0.000634849 6.09553e-06
-2.09891e-05 6.09553e-06 0.000605845
0.000582297 -7.74509e-05 1.65766e-06
-7.74509e-05 0.00010522 -5.6199e-06
1.65766e-06 -5.6199e-06 7.81699e-06
0.000853563 -1.60599e-05 -1.03044e-05
-1.60599e-05 0.00023893 5.29292e-07
-1.03044e-05 5.29292e-07 0.000209548
0.000856049 3.05026e-05 7.75321e-07
3.05026e-05 0.000226724 3.53317e-06
7.75321e-07 3.53317e-06 0.000224378
0.000437972 -3.61065e-05 3.25104e-06
-3.61065e-05 -2.33006e-05 -6.73631e-06
3.25104e-06 -6.73631e-06 -5.3615e-05
0.00175281 3.02974e-05 1.67567e-05
3.02974e-05 0.000805683 -1.28202e-06
1.67567e-05 -1.28202e-06 0.00081206
0.00255289 2.06254e-05 2.14232e-05
2.06254e-05 0.00131901 -5.58733e-06
2.14232e-05 -5.58733e-06 0.00133148
0.000241483 2.56271e-05 2.02539e-06
2.56271e-05 -9.26655e-05 2.58996e-06
2.02539e-06 2.58996e-06 -0.000236527
7.92295e-05 2.42398e-05 5.20862e-07
2.42398e-05 -0.000233049 -4.62658e-06
5.20862e-07 -4.62658e-06 -0.000303923
0.000592025 6.60356e-05 -1.56532e-08
6.60356e-05 0.000127129 3.74518e-07
-1.56532e-08 3.74518e-07 2.31253e-06
0.000444358 9.0572e-06 2.13537e-06
9.0572e-06 -3.48154e-05 -4.37266e-06
2.13537e-06 -4.37266e-06 -4.85792e-05
0.000304458 8.82316e-06 1.74765e-06
8.82316e-06 -9.16708e-05 4.77165e-08
1.74765e-06 4.77165e-08 -0.000151118
0.000207205 -9.79849e-05 -8.62897e-07
-9.79849e-05 -0.000115538 2.85851e-07
-8.62897e-07 2.85851e-07 -0.000226689
0.0020716 -2.15436e-06 -1.30675e-05
-2.15436e-06 0.00100823 -5.08758e-06
-1.30675e-05 -5.08758e-06 0.00102541
0.000434803 6.32203e-06 4.81211e-08
6.32203e-06 -3.98349e-05 -7.35811e-08
4.81211e-08 -7.35811e-08 -5.1254e-05
0.000405205 -1.1981e-05 -3.48769e-06
-1.1981e-05 -2.53647e-05 3.06592e-06
-3.48769e-06 3.06592e-06 -7.70321e-05
0.00204819 1.34473e-05 -4.88034e-06
1.34473e-05 0.000994833 -2.91853e-10
-4.88034e-06 -2.91853e-10 0.0010116
0.000432178 6.41374e-06 -1.91259e-06
6.41374e-06 -4.01493e-05 3.59303e-06
-1.91259e-06 3.59303e-06 -5.12537e-05
0.00203819 2.89372e-05 3.47502e-06
2.89372e-05 0.000990634 5.15866e-06
3.47502e-06 5.15866e-06 0.00100608
-0.00066271 -0.00118273 -0.000308726
-0.00118273 -0.000118304 0.000131027
-0.000308726 0.000131027 -0.00400796
0.00288792 0.001189 -0.000174692
0.001189 0.00932596 4.33062e-05
-0.000174692 4.33062e-05 0.00388598
0.00359564 0.000370452 -0.00120821
0.000370452 0.00441644 0.000273861
-0.00120821 0.000273861 0.00227391
0.000628957 0.000127336 8.30659e-06
0.000127336 0.000156363 7.57527e-06
8.30659e-06 7.57527e-06 -1.00978e-05
0.00593008 -0.001246 -0.000161754
-0.001246 0.00365441 0.000299434
-0.000161754 0.000299434 0.00110607
0.00438699 -0.00151802 -0.000314651
-0.00151802 0.0020082 3.45892e-05
-0.000314651 3.45892e-05 -0.00298955
0.0157385 0.005465 0.000331921
0.005465 0.00987159 -0.000443646
0.000331921 -0.000443646 0.00375582
0.00782987 -0.00147841 0.000145274
-0.00147841 0.000344148 -2.7959e-05
0.000145274 -2.7959e-05 0.00111169
0.0144586 -0.00313355 0.000324607
-0.00313355 0.000857664 -0.000194137
0.000324607 -0.000194137 0.000516933
0.0152313 0.00551236 -0.000910121
0.00551236 0.00347968 0.000445923
-0.000910121 0.000445923 -0.00221419
0.0154595 0.00473292 0.000202222
0.00473292 0.00745083 0.000268035
0.000202222 0.000268035 0.00393104
0.00778648 -0.00298666 -0.000106674
-0.00298666 -0.000356613 -4.99111e-06
-0.000106674 -4.99111e-06 0.000664547
0.0149873 -0.00566544 8.49851e-06
-0.00566544 0.00236238 -4.12851e-05
8.49851e-06 -4.12851e-05 -0.000110828
0.0102262 0.00305193 0.000128924
0.00305193 0.00527324 -0.000414713
0.000128924 -0.000414713 -0.000698869
0.0141827 0.00132919 -2.10293e-06
0.00132919 0.000691243 5.59743e-05
-2.10293e-06 5.59743e-05 -6.22178e-05
0.0033439 -0.00307342 -6.42339e-05
-0.00307342 0.000288875 7.72445e-05
-6.42339e-05 7.72445e-05 0.000825844
0.010665 -0.00563721 0.000239035
-0.00563721 0.00443774 -0.000143193
0.000239035 -0.000143193 0.000378086
0.0100909 -0.000288849 8.98102e-05
-0.000288849 0.00590139 -0.00049252
8.98102e-05 -0.00049252 0.00193727
0.0136625 -6.41858e-05 -0.000185714
-6.41858e-05 -0.00102851 0.00031144
-0.000185714 0.00031144 0.000611404
0.000290097 0.000127431 8.12673e-06
0.000127431 4.86228e-05 1.57649e-05
8.12673e-06 1.57649e-05 -0.000169866
0.000600817 -0.000118038 4.09543e-07
-0.000118038 0.000265623 1.08044e-07
4.09543e-07 1.08044e-07 8.70163e-06
0.000666591 9.28674e-05 3.63824e-06
9.28674e-05 0.000244017 -3.23133e-06
3.63824e-06 -3.23133e-06 8.51704e-05
0.000520933 0.000172 3.93224e-06
0.000172 4.83158e-05 1.62345e-05
3.93224e-06 1.62345e-05 -9.9645e-05
0.000853736 0.000231849 3.42574e-07
0.000231849 0.000338691 -2.02598e-07
3.42574e-07 -2.02598e-07 0.000128418
0.00108684 0.000129376 -3.38215e-06
0.000129376 0.000502411 -4.58851e-06
-3.38215e-06 -4.58851e-06 0.000324901
0.00110029 0.000195878 -1.75472e-06
0.000195878 0.000490655 -5.9258e-08
-1.75472e-06 -5.9258e-08 0.000295979
0.00110241 0.000212942 1.65008e-06
0.000212942 0.00052006 1.60597e-06
1.65008e-06 1.60597e-06 0.00031775
0.000820362 -0.000856769 0.000129055
-0.000856769 -0.001008 -8.09522e-05
0.000129055 -8.09522e-05 -0.000727044
-6.02425e-05 -0.000764935 -3.31043e-05
-0.000764935 -0.000875851 -6.89511e-06
-3.31043e-05 -6.89511e-06 -0.000838781
0.000718284 -0.000203156 5.08008e-06
-0.000203156 0.000367353 -3.28801e-05
5.08008e-06 -3.28801e-05 5.97432e-05
0.00190497 -0.000809644 2.55277e-05
-0.000809644 0.00105493 -2.34224e-05
2.55277e-05 -2.34224e-05 0.000678121
0.00265205 -0.000551495 -2.25273e-05
-0.000551495 0.00159163 2.36014e-05
-2.25273e-05 2.36014e-05 0.00117706
0.00173935 -0.000183318 8.21557e-06
-0.000183318 0.00103875 -2.11555e-05
8.21557e-06 -2.11555e-05 0.00071594
6.66212e-06 2.10755e-05 3.95342e-06
2.10755e-05 -0.000109091 7.04538e-06
3.95342e-06 7.04538e-06 -0.000322002
0.000494545 -0.00157134 -9.44964e-06
-0.00157134 -0.000679433 -7.0652e-06
-9.44964e-06 -7.0652e-06 -0.000909558
0.00154053 -4.40286e-05 -1.33269e-06
-4.40286e-05 0.00103911 -9.91589e-07
-1.33269e-06 -9.91589e-07 0.000674795
-0.000125809 -0.000255178 -7.56726e-06
-0.000255178 0.000148209 7.87754e-06
-7.56726e-06 7.87754e-06 -0.000326592
-0.000593181 -0.000508753 2.79305e-05
-0.000508753 -0.000585158 -2.07866e-06
2.79305e-05 -2.07866e-06 -0.00057529
0.00071048 0.000118434 3.37347e-06
0.000118434 0.000344951 8.43429e-06
3.37347e-06 8.43429e-06 0.000156171
-0.000779049 -0.00153067 -0.000103591
-0.00153067 -0.000421563 -2.66113e-05
-0.000103591 -2.66113e-05 -0.000915432
-0.00110492 -0.000469353 -1.31403e-05
-0.000469353 -0.000415976 2.67256e-05
-1.31403e-05 2.67256e-05 -0.000811748
0.0002937 0.00014587 7.40304e-06
0.00014587 0.000558806 -1.71704e-05
7.40304e-06 -1.71704e-05 2.46017e-05
0.00181898 0.000291626 -2.86548e-06
0.000291626 0.00129837 9.3613e-07
-2.86548e-06 9.3613e-07 0.000910306
-0.00110857 0.000119179 0.000189123
0.000119179 0.00244884 4.54228e-05
0.000189123 4.54228e-05 0.000949671
0.000154256 1.26293e-05 0.000192895
1.26293e-05 0.0012921 -3.70014e-05
0.000192895 -3.70014e-05 -0.00356612
-0.0133162 -0.000467668 -0.00037793
-0.000467668 0.00671675 2.90341e-05
-0.00037793 2.90341e-05 0.000777652
0.00171205 0.000695104 2.1404e-05
0.000695104 0.00103347 -3.44175e-07
2.1404e-05 -3.44175e-07 0.000659115
-0.000637541 0.000875423 1.33911e-05
0.000875423 -0.00018503 1.02943e-05
1.33911e-05 1.02943e-05 -0.000739364
0.00585267 0.00129997 0.0004496
0.00129997 0.00435817 0.000103143
0.0004496 0.000103143 0.00104349
0.00732989 0.00468003 0.000267379
0.00468003 0.00298634 0.000215742
0.000267379 0.000215742 -0.00109796
0.0037804 0.00314331 -0.000148817
0.00314331 0.0021746 -0.000134054
-0.000148817 -0.000134054 0.000596954
0.00438024 -0.00237224 -0.000170521
-0.00237224 0.00499634 -0.000499865
-0.000170521 -0.000499865 0.000340941
0.00320161 0.000753669 0.000142863
0.000753669 0.000658492 0.000178116
0.000142863 0.000178116 -0.00118358
0.00900937 -0.000425331 -4.89062e-05
-0.000425331 -0.00550008 -0.000263958
-4.89062e-05 -0.000263958 -0.00254992
0.00103196 0.000664123 3.50424e-06
0.000664123 0.000832526 -1.06988e-07
3.50424e-06 -1.06988e-07 0.000339017
-0.00302315 0.000257706 -2.15802e-06
0.000257706 0.00066454 6.37189e-06
-2.15802e-06 6.37189e-06 -0.00065573
0.00543846 -0.000315281 0.000155335
-0.000315281 -0.000106819 1.71693e-05
0.000155335 1.71693e-05 -0.00116633
-0.00190607 0.00060649 -1.87305e-05
0.00060649 -0.000112924 -1.22793e-05
-1.87305e-05 -1.22793e-05 -0.000991759
0.0141956 0.00155587 3.86673e-06
0.00155587 0.000668997 -6.03967e-05
3.86673e-06 -6.03967e-05 -6.41408e-05
0.00349299 0.00241147 0.000288596
0.00241147 0.00468378 0.000173055
0.000288596 0.000173055 -0.00149762
0.00986831 0.000709398 -0.000196907
0.000709398 0.00390437 9.27484e-06
-0.000196907 9.27484e-06 -0.000401605
0.000369245 0.000575176 5.39765e-06
0.000575176 0.000653214 -2.23965e-05
5.39765e-06 -2.23965e-05 3.62261e-06
0.00217881 -3.42895e-05 8.80861e-07
-3.42895e-05 0.000957176 1.44254e-06
8.80861e-07 1.44254e-06 -6.96337e-05
0.00409142 -0.00181516 0.000158225
-0.00181516 0.00358932 -0.000273258
0.000158225 -0.000273258 0.00143089
0.02548 0.00608504 0.000360202
0.00608504 0.00880346 -0.000331022
0.000360202 -0.000331022 0.00491522
0.0102137 -0.000380838 -0.00014033
-0.000380838 0.00634383 0.000548957
-0.00014033 0.000548957 0.00212522
-0.000799256 0.000581832 -7.45763e-05
0.000581832 0.00073626 -0.000137943
-7.45763e-05 -0.000137943 -0.000169277
0.00409512 0.00133869 0.000275406
0.00133869 0.00667606 2.5053e-05
0.000275406 2.5053e-05 -0.00246374
0.00142195 0.000439054 1.02514e-05
0.000439054 0.00106003 1.15844e-05
1.02514e-05 1.15844e-05 0.000616355
0.000797101 0.000307863 4.39209e-06
0.000307863 0.000890272 5.77811e-06
4.39209e-06 5.77811e-06 0.00036871
0.000597381 -6.73849e-05 -5.51724e-06
-6.73849e-05 0.00098817 1.27833e-05
-5.51724e-06 1.27833e-05 0.000511412
-0.000945505 -1.30898e-05 2.01798e-06
-1.30898e-05 -0.000702751 -3.0789e-06
2.01798e-06 -3.0789e-06 -0.000892155
-0.000383232 -2.89629e-05 2.33825e-06
-2.89629e-05 0.000137291 3.65677e-06
2.33825e-06 3.65677e-06 -0.00037142
-5.75684e-05 3.48569e-05 -3.36222e-07
3.48569e-05 0.000443573 -9.17444e-06
-3.36222e-07 -9.17444e-06 -0.000113922
-5.36044e-06 -2.00814e-05 3.13001e-07
-2.00814e-05 0.000159693 3.85865e-07
3.13001e-07 3.85865e-07 -0.000133324
-0.000159967 -6.30794e-05 2.40166e-06
-6.30794e-05 0.000314051 1.77627e-06
2.40166e-06 1.77627e-06 -0.000159577
0.00207232 -0.000470411 8.30321e-06
-0.000470411 0.00136361 -1.19426e-05
8.30321e-06 -1.19426e-05 0.00101118
-9.11848e-05 -5.48143e-05 -4.25843e-06
-5.48143e-05 -2.45474e-05 7.97916e-06
-4.25843e-06 7.97916e-06 -0.00020965
-0.000307785 2.36458e-05 4.11169e-07
2.36458e-05 -0.000323346 3.64341e-06
4.11169e-07 3.64341e-06 -0.000466391
0.00101204 -0.000317364 -2.71872e-07
-0.000317364 0.000470008 5.71899e-06
-2.71872e-07 5.71899e-06 0.000270612
-0.00388757 -1.8311e-06 2.3114e-05
-1.8311e-06 -0.00227802 2.36963e-05
2.3114e-05 2.36963e-05 -0.00263258
-0.00069584 -9.79242e-05 1.14346e-05
-9.79242e-05 -0.000575784 -8.03457e-07
1.14346e-05 -8.03457e-07 -0.000593952
-5.38693e-05 -0.000367576 -3.37058e-06
-0.000367576 -0.000279153 -5.91349e-06
-3.37058e-06 -5.91349e-06 -0.000566326
0.00157649 -0.000679639 -2.15345e-07
-0.000679639 0.000536326 1.50859e-06
-2.15345e-07 1.50859e-06 -1.92181e-05
0.00189869 -0.00080715 -1.06125e-05
-0.00080715 0.000610485 7.48969e-07
-1.06125e-05 7.48969e-07 8.62036e-05
0.00143011 -0.00037657 5.91932e-06
-0.00037657 0.000513461 -6.66855e-06
5.91932e-06 -6.66855e-06 0.000286324
0.00148615 -0.000599651 8.20136e-07
-0.000599651 0.000500681 1.0138e-06
8.20136e-07 1.0138e-06 7.80691e-05
0.00172922 -0.000699431 3.46814e-06
-0.000699431 0.000511292 -4.95248e-06
3.46814e-06 -4.95248e-06 4.60049e-05
0.00177568 -0.000535862 -2.00878e-06
-0.000535862 0.000675419 6.85531e-06
-2.00878e-06 6.85531e-06 0.000302146
0.00104977 -0.000573878 2.4938e-06
-0.000573878 0.000152157 -4.95158e-06
2.4938e-06 -4.95158e-06 -0.000279163
0.000913397 -0.000216915 2.81042e-07
-0.000216915 0.000280239 -5.47602e-06
2.81042e-07 -5.47602e-06 1.12184e-05
0.00108095 -0.000391966 -4.43053e-06
-0.000391966 0.000319638 2.20285e-06
-4.43053e-06 2.20285e-06 3.34614e-05
-0.00108439 -0.000206732 2.219e-06
-0.000206732 -0.00106893 -9.96942e-06
2.219e-06 -9.96942e-06 -0.00133322
-0.000117588 -7.97705e-05 5.17298e-07
-7.97705e-05 -0.000271171 -4.46593e-06
5.17298e-07 -4.46593e-06 -0.00052303
0.000312243 -0.000174977 5.8309e-07
-0.000174977 3.53597e-05 3.3236e-07
5.8309e-07 3.3236e-07 -0.000261925
-7.72727e-05 -0.000178387 1.02378e-05
-0.000178387 -0.000264295 6.13521e-07
1.02378e-05 6.13521e-07 -0.00050153
0.000999698 -0.000164768 -6.5162e-07
-0.000164768 0.000452284 1.2783e-06
-6.5162e-07 1.2783e-06 0.000202605
0.000712539 -0.00013665 2.45098e-07
-0.00013665 0.000218737 4.19114e-07
2.45098e-07 4.19114e-07 1.90696e-05
0.00041507 -2.55692e-05 1.29785e-06
-2.55692e-05 -1.65445e-05 6.57993e-06
1.29785e-06 6.57993e-06 -0.000136813
0.0013047 -0.000198394 -1.33887e-06
-0.000198394 0.000600774 -1.19403e-07
-1.33887e-06 -1.19403e-07 0.0004178
0.000585476 -2.84427e-05 -1.24086e-06
-2.84427e-05 8.93597e-05 -3.3626e-07
-1.24086e-06 -3.3626e-07 -1.4278e-05
0.000343673 4.88124e-05 3.1061e-06
4.88124e-05 -7.80703e-05 8.12901e-06
3.1061e-06 8.12901e-06 -0.000121772
0.000721911 -8.16103e-05 1.31452e-06
-8.16103e-05 0.000181616 -3.88967e-06
1.31452e-06 -3.88967e-06 8.09877e-05
0.000435406 -1.12587e-05 -1.61664e-06
-1.12587e-05 -3.13454e-05 -9.18308e-08
-1.61664e-06 -9.18308e-08 -6.72064e-05
0.00273824 9.43285e-05 -1.25093e-06
9.43285e-05 0.00143919 2.84268e-06
-1.25093e-06 2.84268e-06 0.00144168
0.000472512 -2.97799e-05 3.27864e-06
-2.97799e-05 -4.43954e-06 -7.13067e-06
3.27864e-06 -7.13067e-06 -3.79898e-05
0.00180732 4.41859e-05 1.99125e-05
4.41859e-05 0.0008401 -9.97832e-07
1.99125e-05 -9.97832e-07 0.000844064
0.00264886 3.66203e-05 2.84277e-05
3.66203e-05 0.00137855 -5.96144e-06
2.84277e-05 -5.96144e-06 0.00139
0.00025398 3.33812e-05 3.77475e-06
3.33812e-05 -0.000101604 1.61091e-06
3.77475e-06 1.61091e-06 -0.000234082
0.000163364 1.25081e-05 2.48664e-06
1.25081e-05 -0.000180476 -3.29623e-06
2.48664e-06 -3.29623e-06 -0.000264431
0.000458667 4.31322e-05 -4.18361e-07
4.31322e-05 4.27647e-05 -1.19122e-06
-4.18361e-07 -1.19122e-06 -9.54245e-05
0.000469979 1.19797e-05 1.74562e-06
1.19797e-05 -1.8721e-05 -5.01352e-06
1.74562e-06 -5.01352e-06 -3.6353e-05
0.000147872 2.17778e-05 -7.39805e-07
2.17778e-05 -0.0001897 -1.98347e-06
-7.39805e-07 -1.98347e-06 -0.000263302
0.000638824 6.88717e-05 -2.64154e-07
6.88717e-05 0.000172476 1.98072e-06
-2.64154e-07 1.98072e-06 3.71619e-05
0.00211348 -1.60655e-05 -1.84322e-05
-1.60655e-05 0.00103383 -5.05551e-06
-1.84322e-05 -5.05551e-06 0.0010507
0.00044564 6.39357e-06 -8.15282e-07
6.39357e-06 -3.47449e-05 -1.07377e-07
-8.15282e-07 -1.07377e-07 -4.80339e-05
6.34015e-05 1.8025e-05 1.38433e-06
1.8025e-05 -0.000242244 2.67407e-06
1.38433e-06 2.67407e-06 -0.000305897
0.0020597 -1.16126e-06 -4.1049e-06
-1.16126e-06 0.00100056 6.02057e-08
-4.1049e-06 6.02057e-08 0.00101782
0.000424761 5.65472e-06 -2.2947e-06
5.65472e-06 -4.67766e-05 3.86371e-06
-2.2947e-06 3.86371e-06 -5.78119e-05
0.00208589 1.48964e-05 8.99847e-06
1.48964e-05 0.00101947 5.17698e-06
8.99847e-06 5.17698e-06 0.00103581
0.00060732 -8.12213e-05 0.000192725
-8.12213e-05 0.00326133 9.87902e-05
0.000192725 9.87902e-05 0.002039
-0.000465279 -0.000505711 -6.8245e-05
-0.000505711 0.000507318 -3.81088e-06
-6.8245e-05 -3.81088e-06 -0.00408532
0.000433875 0.00119004 -0.000140695
0.00119004 0.00887027 -7.03986e-05
-0.000140695 -7.03986e-05 0.00310041
0.000856661 0.000153115 1.04322e-06
0.000153115 0.000286256 1.28051e-07
1.04322e-06 1.28051e-07 0.00012911
0.000244422 0.000113044 8.18747e-06
0.000113044 -8.80884e-05 4.9143e-06
8.18747e-06 4.9143e-06 -0.000242176
0.00131769 0.000232641 1.31506e-05
0.000232641 0.000578101 1.1433e-05
1.31506e-05 1.1433e-05 0.000417208
0.00756617 -0.000753574 -0.000187114
-0.000753574 -0.000162975 0.000207434
-0.000187114 0.000207434 -0.00172135
0.00602523 -0.00166637 0.000129147
-0.00166637 0.00325131 2.19369e-05
0.000129147 2.19369e-05 0.00151781
0.00466124 -0.00256085 0.000277587
-0.00256085 0.00195086 -0.00031312
0.000277587 -0.00031312 -0.00300198
0.00992597 -0.00364382 -1.96159e-05
-0.00364382 8.59442e-06 -4.71807e-05
-1.96159e-05 -4.71807e-05 0.00120187
0.00206895 -0.00475461 -0.000619055
-0.00475461 -0.00224805 7.72778e-05
-0.000619055 7.72778e-05 -0.00410025
0.0285457 0.00534335 0.000396202
0.00534335 0.0127691 0.000237006
0.000396202 0.000237006 0.00579498
0.0081334 -0.000562424 0.000384938
-0.000562424 -0.00214962 -0.000303592
0.000384938 -0.000303592 -0.00297549
0.0029053 -0.00326669 -2.5598e-05
-0.00326669 -0.000729737 1.75916e-05
-2.5598e-05 1.75916e-05 0.000348442
0.00730049 -0.00569925 -0.000178982
-0.00569925 0.00264079 1.85611e-05
-0.000178982 1.85611e-05 -0.00229189
0.00194468 0.00429198 -0.000108717
0.00429198 0.00568519 -0.00035801
-0.000108717 -0.00035801 -0.000158602
0.0116205 -0.000175023 -0.000112469
-0.000175023 -0.00327004 0.00016621
-0.000112469 0.00016621 -0.000888922
-0.000795896 -0.00215406 -0.000154956
-0.00215406 0.000288094 7.34248e-05
-0.000154956 7.34248e-05 -0.000163872
0.00987984 -0.00353023 -0.000402557
-0.00353023 0.00603391 0.000228694
-0.000402557 0.000228694 0.000408572
0.00191909 -0.000233141 6.65657e-05
-0.000233141 0.00284987 -0.000339542
6.65657e-05 -0.000339542 -0.00159568
0.00969212 -0.000152189 0.000122625
-0.000152189 -0.00175607 0.000118655
0.000122625 0.000118655 -0.00145483
-1.84398e-05 0.000107898 1.15037e-05
0.000107898 -0.000213594 2.43362e-05
1.15037e-05 2.43362e-05 -0.000352211
0.000687852 1.56036e-05 2.14894e-06
1.56036e-05 0.000278381 -2.82173e-06
2.14894e-06 -2.82173e-06 5.01629e-05
0.000254099 -0.000180088 4.55196e-06
-0.000180088 -2.99939e-05 -1.20255e-05
4.55196e-06 -1.20255e-05 -0.000247154
0.000650441 0.000155653 -2.06637e-06
0.000155653 0.000141719 2.28336e-06
-2.06637e-06 2.28336e-06 -1.52758e-05
0.000855166 0.000170552 2.84607e-06
0.000170552 0.000348236 -8.40079e-06
2.84607e-06 -8.40079e-06 0.000145935
0.00122112 0.000220886 -5.85013e-06
0.000220886 0.000567226 -6.35403e-06
-5.85013e-06 -6.35403e-06 0.000371143
0.000637298 -0.00142151 5.64749e-05
-0.00142151 -0.000419236 -1.85435e-05
5.64749e-05 -1.85435e-05 -0.000635978
0.000313631 -0.000449769 1.42354e-05
-0.000449769 -0.000116795 -2.6924e-05
1.42354e-05 -2.6924e-05 -6.60302e-05
0.000216536 0.000123382 -2.88741e-06
0.000123382 3.97425e-05 -2.04497e-05
-2.88741e-06 -2.04497e-05 -0.000198904
0.00275298 -0.000559615 7.8969e-05
-0.000559615 0.00173301 -3.81113e-05
7.8969e-05 -3.81113e-05 0.0012929
0.00216793 -0.000164456 4.90001e-06
-0.000164456 0.00135693 -1.47147e-06
4.90001e-06 -1.47147e-06 0.00103144
-0.000295153 0.000101801 6.458e-06
0.000101801 -0.000212961 3.29135e-06
6.458e-06 3.29135e-06 -0.000428619
0.000189639 6.42604e-05 2.66504e-06
6.42604e-05 0.000276958 6.78346e-07
2.66504e-06 6.78346e-07 -6.22548e-05
0.00160512 -0.00165325 -5.18339e-05
-0.00165325 0.000717109 2.06913e-06
-5.18339e-05 2.06913e-06 0.00013656
0.000153104 -3.76339e-05 -5.71066e-06
-3.76339e-05 0.000541378 2.34345e-06
-5.71066e-06 2.34345e-06 -3.90664e-05
0.00027802 -0.000416332 -1.48391e-05
-0.000416332 0.000511586 -3.94874e-06
-1.48391e-05 -3.94874e-06 -9.78295e-06
0.000815415 0.000201738 4.3607e-06
0.000201738 0.000636575 -9.69086e-06
4.3607e-06 -9.69086e-06 0.00034212
-0.00231681 -0.000449957 -1.29993e-05
-0.000449957 -0.000103026 -2.58538e-05
-1.29993e-05 -2.58538e-05 -0.00110436
0.000520321 -0.000213431 -1.78738e-05
-0.000213431 0.000999974 -2.67562e-06
-1.78738e-05 -2.67562e-06 0.000392047
-0.00165265 -3.6522e-05 -1.67211e-05
-3.6522e-05 -0.000331045 -9.95625e-07
-1.67211e-05 -9.95625e-07 -0.000913109
0.000105327 0.000344417 -1.21269e-05
0.000344417 -0.000476573 2.71168e-06
-1.21269e-05 2.71168e-06 -0.00254349
-0.00205265 0.000403797 0.000103443
0.000403797 0.00218259 -7.6778e-06
0.000103443 -7.6778e-06 0.000621929
-0.000896827 -0.00012886 0.000400046
-0.00012886 0.000555284 4.14555e-05
0.000400046 4.14555e-05 -0.00427137
0.000424995 0.000674615 8.76602e-06
0.000674615 0.000446055 1.85761e-05
8.76602e-06 1.85761e-05 -7.89907e-05
0.000117468 0.000999952 -2.09319e-05
0.000999952 0.000533083 -2.21439e-05
-2.09319e-05 -2.21439e-05 -0.000285012
-0.00267221 0.000214326 -9.62778e-05
0.000214326 0.000831721 -3.70818e-05
-9.62778e-05 -3.70818e-05 -0.00064002
-0.00456256 0.000813581 0.000116342
0.000813581 0.00327955 0.000217214
0.000116342 0.000217214 -0.0025713
0.00105954 0.000844046 -0.000156903
0.000844046 -0.00159126 -0.000503604
-0.000156903 -0.000503604 -0.00704531
0.00463065 -5.83968e-05 0.000103251
-5.83968e-05 -0.000249564 7.12595e-05
0.000103251 7.12595e-05 -0.000750341
0.00734759 -0.000337973 -0.000365301
-0.000337973 -0.00210374 0.000281354
-0.000365301 0.000281354 -0.00306751
0.000216137 0.00046732 -3.37675e-06
0.00046732 0.000615983 -5.49571e-07
-3.37675e-06 -5.49571e-07 4.98222e-05
0.00133269 0.000120448 4.20296e-05
0.000120448 0.00087213 6.54388e-06
4.20296e-05 6.54388e-06 -0.000125239
0.00497016 -0.00125464 -0.000121126
-0.00125464 0.003209 -8.66256e-06
-0.000121126 -8.66256e-06 0.00146436
-0.000470748 0.000813708 -0.000151004
0.000813708 0.00164003 -1.22806e-05
-0.000151004 -1.22806e-05 -0.000102043
0.0180679 0.00597359 -9.60552e-05
0.00597359 0.00582477 -0.000458549
-9.60552e-05 -0.000458549 0.0019139
0.00339565 0.00371859 9.65917e-05
0.00371859 0.00591891 0.000379535
9.65917e-05 0.000379535 -0.000350033
0.00531305 0.00120039 7.27147e-05
0.00120039 0.00633274 -1.37974e-05
7.27147e-05 -1.37974e-05 -0.00135187
0.000206963 2.20432e-05 3.15224e-05
2.20432e-05 0.00143786 -2.28314e-05
3.15224e-05 -2.28314e-05 0.000173424
8.06486e-05 -0.000144962 -0.000179117
-0.000144962 0.00359494 1.77495e-06
-0.000179117 1.77495e-06 0.00213205
0.0013804 -0.00096448 0.00082722
-0.00096448 0.000552017 -0.000275864
0.00082722 -0.000275864 -0.00479472
0.0248879 0.00959241 -9.77899e-05
0.00959241 0.0169504 -3.33448e-05
-9.77899e-05 -3.33448e-05 0.0112319
0.011373 0.00446379 4.69571e-05
0.00446379 0.00421491 0.000971577
4.69571e-05 0.000971577 -0.00185824
0.0121353 -0.00442171 0.000381787
-0.00442171 0.00677746 -0.000285923
0.000381787 -0.000285923 0.000120582
0.00251445 -0.000819058 -7.60333e-05
-0.000819058 0.00332057 3.92997e-05
-7.60333e-05 3.92997e-05 0.00215517
0.00096972 0.000284405 -5.13362e-06
0.000284405 0.00099868 3.20171e-06
-5.13362e-06 3.20171e-06 0.000516194
7.9307e-06 -7.40957e-05 -3.22751e-06
-7.40957e-05 0.00055489 -5.23618e-06
-3.22751e-06 -5.23618e-06 2.14744e-05
0.00109486 -0.000586247 4.90407e-05
-0.000586247 0.000924706 -1.26861e-05
4.90407e-05 -1.26861e-05 0.000310618
0.000201021 -7.17983e-05 -3.55679e-06
-7.17983e-05 0.000236849 1.00104e-05
-3.55679e-06 1.00104e-05 -7.5866e-06
-9.76727e-05 -8.90203e-05 -4.96898e-06
-8.90203e-05 0.000300977 -1.93285e-05
-4.96898e-06 -1.93285e-05 -0.000137725
0.000659683 -0.00032687 -5.18234e-06
-0.00032687 0.000673608 9.3542e-07
-5.18234e-06 9.3542e-07 0.000302884
0.00131378 -0.000737742 3.02443e-05
-0.000737742 0.000637228 -1.81146e-05
3.02443e-05 -1.81146e-05 0.000241778
0.00107876 -0.000379993 2.45334e-06
-0.000379993 0.000541266 3.8511e-07
2.45334e-06 3.8511e-07 0.000264665
0.00145117 -0.000682837 1.714e-05
-0.000682837 0.000651788 -3.13204e-06
1.714e-05 -3.13204e-06 0.000206209
0.00140774 -0.00072066 1.0293e-05
-0.00072066 0.0006117 1.0888e-06
1.0293e-05 1.0888e-06 -0.000115977
0.00055733 -0.00038883 -8.163e-06
-0.00038883 5.09141e-05 -8.16959e-06
-8.163e-06 -8.16959e-06 -0.000182965
0.00228283 -0.000771046 -3.7708e-06
-0.000771046 0.00091125 -2.56068e-06
-3.7708e-06 -2.56068e-06 0.000359608
0.00179095 -0.000896344 -1.45284e-05
-0.000896344 0.000484954 -1.93935e-06
-1.45284e-05 -1.93935e-06 -0.00016349
0.00227551 -0.00102855 -1.4603e-05
-0.00102855 0.000599689 1.61817e-06
-1.4603e-05 1.61817e-06 2.12479e-05
0.00207413 -0.000890826 -5.04984e-06
-0.000890826 0.000662648 -2.43809e-07
-5.04984e-06 -2.43809e-07 0.000128092
0.00169399 -0.000779587 -5.0884e-06
-0.000779587 0.00048566 9.06055e-07
-5.0884e-06 9.06055e-07 -3.65084e-05
0.00127204 -0.000579664 2.04574e-06
-0.000579664 0.000342456 -8.27093e-06
2.04574e-06 -8.27093e-06 -8.17884e-05
0.00149983 -0.000641043 8.23469e-06
-0.000641043 0.00043328 -4.11467e-06
8.23469e-06 -4.11467e-06 -6.8291e-06
0.00171323 -0.000709378 7.25737e-06
-0.000709378 0.000504375 -1.4958e-06
7.25737e-06 -1.4958e-06 3.70346e-05
0.00128142 -0.000325961 1.56068e-06
-0.000325961 0.000411313 9.26461e-07
1.56068e-06 9.26461e-07 0.00012758
0.00119429 -0.000484196 6.16719e-06
-0.000484196 0.000302968 -4.21155e-06
6.16719e-06 -4.21155e-06 -5.92361e-05
-0.000101583 -0.000425907 -6.98849e-06
-0.000425907 -0.000555879 -5.97222e-06
-6.98849e-06 -5.97222e-06 -0.000945462
0.000118614 -0.000113096 -1.76913e-07
-0.000113096 -0.000146954 -5.08647e-06
-1.76913e-07 -5.08647e-06 -0.00042182
0.000927163 -0.00025563 -9.99942e-07
-0.00025563 0.000310818 -2.65375e-07
-9.99942e-07 -2.65375e-07 3.30893e-05
0.000197684 -0.00031915 -4.13546e-06
-0.00031915 -0.00023002 -2.3629e-06
-4.13546e-06 -2.3629e-06 -0.000518186
0.000366685 -7.61001e-05 -3.95065e-07
-7.61001e-05 -4.26028e-05 6.85293e-06
-3.95065e-07 6.85293e-06 -0.000193964
0.000795812 -0.000143359 -3.93317e-08
-0.000143359 0.00029352 3.72521e-07
-3.93317e-08 3.72521e-07 4.31493e-05
-0.000281139 -0.000169047 2.05087e-07
-0.000169047 -0.000321784 4.25658e-06
2.05087e-07 4.25658e-06 -0.000610267
0.00146914 -0.000194106 2.93297e-07
-0.000194106 0.000706765 1.12463e-06
2.93297e-07 1.12463e-06 0.000494752
0.000646087 -7.74736e-05 -4.14982e-07
-7.74736e-05 0.000130686 -3.46468e-07
-4.14982e-07 -3.46468e-07 3.67624e-06
0.000334543 1.81498e-05 2.67721e-06
1.81498e-05 -8.01399e-05 1.09173e-05
2.67721e-06 1.09173e-05 -0.0001309
0.000710672 -7.99726e-05 6.34008e-07
-7.99726e-05 0.000169431 -4.62883e-06
6.34008e-07 -4.62883e-06 6.12259e-05
0.000451022 4.00421e-06 -3.98295e-06
4.00421e-06 -1.73554e-05 -3.11215e-07
-3.98295e-06 -3.11215e-07 -5.81132e-05
0.00299431 9.95986e-05 -4.46881e-05
9.95986e-05 0.00161028 5.17186e-06
-4.46881e-05 5.17186e-06 0.00161296
0.000473748 -2.18764e-05 3.08389e-06
-2.18764e-05 -9.62961e-06 -7.0714e-06
3.08389e-06 -7.0714e-06 -4.47497e-05
0.00185748 6.25249e-05 2.4425e-05
6.25249e-05 0.000874536 -7.41695e-07
2.4425e-05 -7.41695e-07 0.000875205
0.00284383 5.76605e-05 3.58825e-05
5.76605e-05 0.00150438 -5.64474e-06
3.58825e-05 -5.64474e-06 0.00151334
0.000821727 0.0001129 6.40345e-06
0.0001129 0.000270676 -1.46489e-06
6.40345e-06 -1.46489e-06 0.000115661
0.000500341 5.61351e-05 3.88859e-06
5.61351e-05 3.63185e-05 -2.98331e-06
3.88859e-06 -2.98331e-06 -5.57682e-05
0.000408789 5.61091e-05 -5.29227e-07
5.61091e-05 1.23623e-05 -1.38319e-06
-5.29227e-07 -1.38319e-06 -0.000132562
0.00045873 1.25272e-05 1.45332e-06
1.25272e-05 -2.5329e-05 -6.2514e-06
1.45332e-06 -6.2514e-06 -4.85091e-05
0.000287842 4.41034e-05 -2.45592e-06
4.41034e-05 -9.89035e-05 -2.11421e-06
-2.45592e-06 -2.11421e-06 -0.000182788
0.000670688 9.11676e-05 -2.28441e-06
9.11676e-05 0.000184269 -3.3146e-06
-2.28441e-06 -3.3146e-06 4.48298e-05
0.00221742 -3.21865e-05 -2.19024e-05
-3.21865e-05 0.00110056 -5.21503e-06
-2.19024e-05 -5.21503e-06 0.00111589
0.000438028 -9.5225e-07 4.38445e-07
-9.5225e-07 -4.02868e-05 -1.82124e-07
4.38445e-07 -1.82124e-07 -5.70648e-05
0.000107968 1.86161e-05 -2.25132e-06
1.86161e-05 -0.000215461 7.26546e-07
-2.25132e-06 7.26546e-07 -0.00029087
0.0021384 -1.55593e-05 -5.78672e-06
-1.55593e-05 0.00104997 1.30843e-07
-5.78672e-06 1.30843e-07 0.00106678
0.00043838 1.7854e-06 -3.49125e-06
1.7854e-06 -3.99751e-05 4.14751e-06
-3.49125e-06 4.14751e-06 -5.28467e-05
0.00210526 3.32862e-07 1.38916e-05
3.32862e-07 0.00102992 5.14044e-06
1.38916e-05 5.14044e-06 0.00104694
0.00199213 -0.00034133 -9.60105e-05
-0.00034133 0.000752681 3.1481e-05
-9.60105e-05 3.1481e-05 -0.000294561
-0.0012541 -0.000178173 9.71223e-05
-0.000178173 0.00279137 -5.03533e-06
9.71223e-05 -5.03533e-06 0.00118846
-0.000983784 -0.000389586 0.000169215
-0.000389586 0.0010101 -0.000209463
0.000169215 -0.000209463 -0.00424816
-0.00015793 2.51721e-05 5.24785e-06
2.51721e-05 -0.000296968 3.14205e-06
5.24785e-06 3.14205e-06 -0.000496169
0.00290172 0.000153569 4.8254e-06
0.000153569 0.001602 7.06819e-06
4.8254e-06 7.06819e-06 0.00139743
0.000663306 0.00015974 -5.52915e-06
0.00015974 0.000168859 -7.10893e-06
-5.52915e-06 -7.10893e-06 1.34918e-05
0.000158739 7.85797e-05 1.3481e-06
7.85797e-05 -0.00015866 -4.59866e-08
1.3481e-06 -4.59866e-08 -0.000306966
0.000220711 8.9965e-05 2.52111e-07
8.9965e-05 -0.000144182 -1.55147e-06
2.52111e-07 -1.55147e-06 -0.000265687
0.000136566 9.5539e-05 7.94296e-06
9.5539e-05 -0.000162697 4.02086e-06
7.94296e-06 4.02086e-06 -0.000309614
-1.75041e-05 0.000100493 1.74298e-05
0.000100493 -0.000239091 5.9614e-06
1.74298e-05 5.9614e-06 -0.000350025
0.00281877 0.00155881 0.0002731
0.00155881 -0.000278053 0.000263341
0.0002731 0.000263341 -0.00193108
0.00621977 -0.000432226 -7.65635e-05
-0.000432226 -1.45578e-05 5.07935e-05
-7.65635e-05 5.07935e-05 -0.00152741
0.00460916 -0.000912184 0.000325377
-0.000912184 0.00343403 -0.000128797
0.000325377 -0.000128797 0.00155475
0.00940893 -0.000180598 -3.75649e-06
-0.000180598 -0.00563022 0.000184718
-3.75649e-06 0.000184718 -0.00250417
0.00693647 -0.00411049 -0.000148784
-0.00411049 0.00116143 3.15136e-05
-0.000148784 3.15136e-05 0.00167533
0.00118816 -0.00504866 -0.000356212
-0.00504866 0.00170262 0.000128334
-0.000356212 0.000128334 -0.00445939
0.019107 0.00480412 0.000183318
0.00480412 0.00814915 -0.00021382
0.000183318 -0.00021382 0.00254117
0.0024029 -0.00309555 -6.30134e-05
-0.00309555 0.000187642 3.11591e-05
-6.30134e-05 3.11591e-05 0.000707672
-0.00138628 -0.00109701 -7.16726e-05
-0.00109701 0.00469486 5.37456e-05
-7.16726e-05 5.37456e-05 -0.00316413
0.0113494 0.00048946 0.000263254
0.00048946 0.00437421 -3.56008e-05
0.000263254 -3.56008e-05 0.000196883
0.0172658 -0.00195772 -8.48489e-05
-0.00195772 0.00229867 -1.12403e-05
-8.48489e-05 -1.12403e-05 0.00318384
-0.00309994 -0.000551444 -0.000174609
-0.000551444 -6.8704e-05 0.000179674
-0.000174609 0.000179674 -0.000453825
0.00221161 0.00209526 -0.000246246
0.00209526 0.00556063 -0.00013935
-0.000246246 -0.00013935 -0.00238526
0.00115942 -0.00621547 1.09716e-05
-0.00621547 0.000572119 -0.000247148
1.09716e-05 -0.000247148 -0.00557236
0.0163511 -0.00308641 0.000222934
-0.00308641 0.00586194 -0.000712174
0.000222934 -0.000712174 0.00312959
0.000375265 5.81253e-06 2.19735e-05
5.81253e-06 0.00029222 -6.59569e-07
2.19735e-05 -6.59569e-07 -9.83535e-06
0.000743581 0.000196246 -2.26236e-06
0.000196246 0.000295706 -4.15461e-06
-2.26236e-06 -4.15461e-06 0.000138549
0.000796467 -5.47348e-06 -9.78188e-07
-5.47348e-06 0.000363327 -7.00509e-06
-9.78188e-07 -7.00509e-06 0.000112057
0.000938112 0.000172012 -4.91697e-06
0.000172012 0.000348962 -1.28524e-05
-4.91697e-06 -1.28524e-05 0.000174012
0.00103044 -0.00135855 8.05502e-05
-0.00135855 0.000405604 3.04803e-05
8.05502e-05 3.04803e-05 -0.000182727
0.00120585 -0.000398174 5.75251e-06
-0.000398174 0.00114397 -2.63255e-05
5.75251e-06 -2.63255e-05 0.00051058
0.000740986 0.000110029 -1.95117e-05
0.000110029 0.000421483 -2.4038e-05
-1.95117e-05 -2.4038e-05 0.000227137
0.000992575 9.20155e-06 -1.36706e-07
9.20155e-06 0.000721484 -9.87314e-06
-1.36706e-07 -9.87314e-06 0.00042923
0.000205841 -3.60051e-05 -1.18902e-06
-3.60051e-05 0.000582557 1.1195e-05
-1.18902e-06 1.1195e-05 7.35816e-05
0.000159066 8.61578e-05 2.24993e-06
8.61578e-05 0.000166461 3.8052e-06
2.24993e-06 3.8052e-06 -7.96011e-05
0.000347239 -1.86923e-05 6.4387e-07
-1.86923e-05 0.000756866 1.47006e-06
6.4387e-07 1.47006e-06 0.000219297
0.000374218 -0.000780462 -3.25485e-06
-0.000780462 0.00120075 2.65995e-07
-3.25485e-06 2.65995e-07 -0.000149678
0.000428325 -0.000135076 -3.16784e-06
-0.000135076 0.00110352 -8.24472e-06
-3.16784e-06 -8.24472e-06 0.000513153
-0.000301177 0.0001156 3.10333e-06
0.0001156 6.05125e-05 -8.74372e-06
3.10333e-06 -8.74372e-06 -0.000240679
-3.20837e-05 0.000290897 -0.000172251
0.000290897 0.00291606 -1.78271e-05
-0.000172251 -1.78271e-05 0.000801375
0.000490371 0.000346965 -1.9751e-05
0.000346965 0.00104567 5.45933e-06
-1.9751e-05 5.45933e-06 0.000441313
-0.00256071 1.62762e-05 -9.56511e-05
1.62762e-05 0.00241242 -5.07128e-05
-9.56511e-05 -5.07128e-05 0.000868195
0.00131901 0.000130529 2.4471e-05
0.000130529 0.000277634 1.12848e-05
2.4471e-05 1.12848e-05 -0.000839987
-0.00361538 0.000609208 -4.78556e-05
0.000609208 0.00164426 -8.09967e-05
-4.78556e-05 -8.09967e-05 -9.13473e-05
0.000383608 0.000380046 -2.27827e-05
0.000380046 0.000807355 3.83446e-06
-2.27827e-05 3.83446e-06 0.000330681
-0.00135546 0.000975996 0.000188728
0.000975996 0.000457171 0.000116705
0.000188728 0.000116705 -0.000502186
0.000904087 6.10704e-05 8.61381e-05
6.10704e-05 0.000871407 -8.93832e-06
8.61381e-05 -8.93832e-06 0.000151577
0.00644727 -0.00241508 0.00032014
-0.00241508 0.00642291 -0.000197685
0.00032014 -0.000197685 -0.00253088
0.0206678 0.00425693 -0.00021508
0.00425693 0.00861741 0.000193704
-0.00021508 0.000193704 0.00287687
0.00321895 -0.000829315 -0.000291011
-0.000829315 0.00239307 0.000108893
-0.000291011 0.000108893 0.000703681
0.0144117 0.00518485 -0.000157627
0.00518485 0.00765387 -0.000266108
-0.000157627 -0.000266108 0.00381123
0.000468098 0.000259158 -5.67621e-05
0.000259158 0.00140321 1.18448e-05
-5.67621e-05 1.18448e-05 0.000201807
-0.000131259 -0.000336305 -0.000103903
-0.000336305 0.00277584 1.28557e-06
-0.000103903 1.28557e-06 0.00162035
0.00288271 -0.00177865 0.000302541
-0.00177865 0.00173491 -5.16151e-05
0.000302541 -5.16151e-05 -0.00345114
-0.00343212 -7.53875e-05 5.81438e-05
-7.53875e-05 -0.000286405 3.49163e-05
5.81438e-05 3.49163e-05 -0.000900071
0.0195698 0.0112139 0.000780572
0.0112139 0.0136998 -0.000297543
0.000780572 -0.000297543 0.00776378
0.0102541 0.00333819 -0.000169159
0.00333819 0.00562276 0.000417709
-0.000169159 0.000417709 -0.000337242
-0.00271973 -0.00140815 0.000214998
-0.00140815 0.00330573 -0.000165806
0.000214998 -0.000165806 -0.00491396
-0.00153199 -0.000477701 -1.10514e-05
-0.000477701 0.000447812 -3.05862e-05
-1.10514e-05 -3.05862e-05 -0.000781753
0.000744754 -0.00102336 0.000358878
-0.00102336 -6.49569e-05 -9.33206e-05
0.000358878 -9.33206e-05 -0.00392439
0.000730367 0.00149464 -0.00163906
0.00149464 0.00883143 0.000378652
-0.00163906 0.000378652 0.00360674
0.0225081 0.00801213 -0.000635142
0.00801213 0.00782333 0.000513228
-0.000635142 0.000513228 0.00174768
0.00644824 -0.00414927 -0.000210372
-0.00414927 0.00331218 8.90738e-05
-0.000210372 8.90738e-05 -0.000243952
0.0032595 -0.00205243 5.05943e-05
-0.00205243 0.00351917 8.42638e-06
5.05943e-05 8.42638e-06 0.00234204
9.35131e-05 -5.34453e-05 1.99375e-06
-5.34453e-05 0.000558767 -1.48119e-05
1.99375e-06 -1.48119e-05 -2.39604e-05
3.40718e-05 -0.000425659 5.32743e-06
-0.000425659 0.000430195 -2.38614e-06
5.32743e-06 -2.38614e-06 -0.000215285
0.000775423 -0.000955171 -6.34529e-06
-0.000955171 0.000534876 -2.35694e-06
-6.34529e-06 -2.35694e-06 6.64059e-05
-0.00036515 -0.000207146 -1.85034e-06
-0.000207146 0.000194567 7.68339e-06
-1.85034e-06 7.68339e-06 -0.000186203
-0.000280199 -0.000491222 -1.10958e-06
-0.000491222 -0.000101767 5.32141e-06
-1.10958e-06 5.32141e-06 -0.000442545
0.00299216 -0.00102097 4.36648e-05
-0.00102097 0.00127792 -2.23953e-05
4.36648e-05 -2.23953e-05 0.000789805
0.00635682 -0.00132417 -1.36558e-05
-0.00132417 0.00333262 -1.63491e-06
-1.36558e-05 -1.63491e-06 0.00279586
0.00282997 -0.000923243 1.0284e-05
-0.000923243 0.00130715 -3.2872e-06
1.0284e-05 -3.2872e-06 0.000586329
0.00215263 -0.001044 3.06497e-06
-0.001044 0.000607546 -1.8707e-05
3.06497e-06 -1.8707e-05 -0.000106858
0.00244659 -0.000787871 -1.16877e-05
-0.000787871 0.000975349 -7.87425e-06
-1.16877e-05 -7.87425e-06 0.000439546
0.00216541 -0.000949238 5.75109e-07
-0.000949238 0.000688526 -2.48236e-06
5.75109e-07 -2.48236e-06 2.30566e-05
0.00274214 -0.00111592 -8.71024e-06
-0.00111592 0.000879769 -1.13083e-05
-8.71024e-06 -1.13083e-05 0.000228659
0.002343 -0.000860744 -3.62299e-06
-0.000860744 0.000431602 -4.98319e-06
-3.62299e-06 -4.98319e-06 -1.94035e-06
0.00270637 -0.00106761 -1.07167e-05
-0.00106761 0.000809159 1.21924e-06
-1.07167e-05 1.21924e-06 0.000252376
0.00254115 -0.00106449 -3.71595e-06
-0.00106449 0.000740254 1.2699e-07
-3.71595e-06 1.2699e-07 0.000150556
0.00185187 -0.000847417 6.64111e-06
-0.000847417 0.000547495 -4.95874e-06
6.64111e-06 -4.95874e-06 3.86213e-05
0.00165215 -0.000821775 3.23785e-06
-0.000821775 0.000420115 -1.31599e-06
3.23785e-06 -1.31599e-06 -9.0094e-05
0.00144484 -0.00074462 8.14635e-06
-0.00074462 0.000328341 -7.70143e-07
8.14635e-06 -7.70143e-07 -0.000189808
0.00151604 -0.000555951 8.2728e-06
-0.000555951 0.000485077 4.14935e-06
8.2728e-06 4.14935e-06 8.78016e-05
0.00164588 -0.000656167 -1.14342e-06
-0.000656167 0.000533319 -2.14414e-06
-1.14342e-06 -2.14414e-06 8.80249e-05
0.00169078 -0.000718392 5.23937e-06
-0.000718392 0.000491932 4.39959e-06
5.23937e-06 4.39959e-06 2.32698e-05
0.00127692 -0.000223304 8.65385e-07
-0.000223304 0.000459476 -4.71279e-06
8.65385e-07 -4.71279e-06 0.000202883
0.000889941 -0.000295026 -3.06869e-06
-0.000295026 0.000189071 2.57022e-06
-3.06869e-06 2.57022e-06 -8.52061e-05
0.000775415 -0.000442693 -1.64009e-06
-0.000442693 2.9415e-05 -1.06904e-05
-1.64009e-06 -1.06904e-05 -0.000321662
3.30379e-06 -8.94854e-05 -2.09821e-06
-8.94854e-05 -0.000250557 3.32711e-06
-2.09821e-06 3.32711e-06 -0.00046189
0.000818596 -0.000207392 -1.26831e-08
-0.000207392 0.000300155 7.24914e-07
-1.26831e-08 7.24914e-07 1.46902e-05
0.000673983 -0.000280086 2.18038e-06
-0.000280086 0.000191206 8.46662e-07
2.18038e-06 8.46662e-07 -0.000103586
0.000317759 -3.06207e-05 -7.70661e-06
-3.06207e-05 -0.000105743 1.61862e-05
-7.70661e-06 1.61862e-05 -0.000159834
0.000676915 -9.70237e-05 7.95597e-07
-9.70237e-05 0.000144937 3.52576e-07
7.95597e-07 3.52576e-07 -7.7406e-06
0.00154916 -0.000227469 -5.62385e-07
-0.000227469 0.000757639 3.92465e-06
-5.62385e-07 3.92465e-06 0.000508017
0.000831345 -8.992e-05 2.06018e-07
-8.992e-05 0.000245049 -5.91006e-06
2.06018e-07 -5.91006e-06 0.000115185
0.000430071 1.28342e-06 -8.53452e-07
1.28342e-06 -2.70307e-05 -5.32348e-07
-8.53452e-07 -5.32348e-07 -7.49516e-05
0.00310765 0.000127297 -4.40973e-05
0.000127297 0.00169274 5.26175e-06
-4.40973e-05 5.26175e-06 0.00168902
0.000520206 -1.24175e-05 2.86299e-06
-1.24175e-05 2.02966e-05 -8.64543e-06
2.86299e-06 -8.64543e-06 -1.77997e-05
0.00293145 0.00010108 5.53977e-06
0.00010108 0.00156973 6.96313e-07
5.53977e-06 6.96313e-07 0.00157235
0.00281144 7.7753e-05 3.88323e-05
7.7753e-05 0.00148601 -5.16003e-06
3.88323e-05 -5.16003e-06 0.00149292
0.00138523 0.000108827 5.72757e-06
0.000108827 0.000764193 -5.59421e-06
5.72757e-06 -5.59421e-06 0.000488738
0.00148554 0.000184459 7.63189e-06
0.000184459 0.000780586 -5.64768e-06
7.63189e-06 -5.64768e-06 0.000548683
0.000544648 4.44477e-05 5.88138e-06
4.44477e-05 5.83062e-05 -5.70539e-06
5.88138e-06 -5.70539e-06 -4.61135e-05
0.000654947 0.000126393 -5.5677e-08
0.000126393 0.000180146 2.62297e-07
-5.5677e-08 2.62297e-07 2.07851e-05
0.000432445 -4.94567e-06 3.42918e-06
-4.94567e-06 -3.87402e-05 -7.55322e-06
3.42918e-06 -7.55322e-06 -6.71347e-05
0.000523987 5.95509e-05 2.043e-07
5.95509e-05 5.18337e-05 -2.69602e-07
2.043e-07 -2.69602e-07 -4.03585e-05
0.000594631 5.99735e-05 -6.50671e-06
5.99735e-05 0.000118301 -2.51638e-06
-6.50671e-06 -2.51638e-06 -1.95074e-05
0.00240099 -4.942e-05 -2.83326e-05
-4.942e-05 0.00122033 -5.49816e-06
-2.83326e-05 -5.49816e-06 0.00123296
0.000450579 5.74247e-06 -9.534e-07
5.74247e-06 -2.97359e-05 -1.64301e-07
-9.534e-07 -1.64301e-07 -5.23654e-05
0.000479019 6.37089e-05 -4.98786e-06
6.37089e-05 2.54523e-05 5.82173e-07
-4.98786e-06 5.82173e-07 -5.86856e-05
0.00222487 -3.19025e-05 -5.04563e-06
-3.19025e-05 0.00110534 2.69039e-07
-5.04563e-06 2.69039e-07 0.00112073
0.000450117 2.24743e-06 -3.56178e-06
2.24743e-06 -3.34077e-05 4.60287e-06
-3.56178e-06 4.60287e-06 -4.96979e-05
0.00213165 -1.5199e-05 1.74619e-05
-1.5199e-05 0.00104547 5.02595e-06
1.74619e-05 5.02595e-06 0.0010623
-0.0026951 0.00049346 -1.65334e-05
0.00049346 0.000994603 -8.14712e-05
-1.65334e-05 -8.14712e-05 -0.000177329
0.00226868 -0.000284665 -1.77502e-05
-0.000284665 0.00120765 -2.17993e-05
-1.77502e-05 -2.17993e-05 0.000364983
-3.73363e-05 -0.000292114 1.78578e-05
-0.000292114 0.00259885 -5.00694e-05
1.78578e-05 -5.00694e-05 0.00130836
0.000629438 9.22055e-05 1.75827e-06
9.22055e-05 0.000266772 -4.26977e-06
1.75827e-06 -4.26977e-06 1.19415e-05
8.70607e-05 0.000129612 6.74851e-06
0.000129612 -0.000156094 -2.97134e-06
6.74851e-06 -2.97134e-06 -0.000355652
-0.00185662 -3.75854e-07 7.40246e-06
-3.75854e-07 -0.00146217 -9.87851e-06
7.40246e-06 -9.87851e-06 -0.00163602
-0.00162474 -1.95798e-06 -2.76344e-06
-1.95798e-06 -0.00115195 1.88268e-05
-2.76344e-06 1.88268e-05 -0.00138169
0.00284402 0.000401028 3.0366e-06
0.000401028 0.00156575 -1.22677e-06
3.0366e-06 -1.22677e-06 0.00127652
0.000793467 4.51157e-05 -6.74272e-06
4.51157e-05 0.000236248 -2.90377e-06
-6.74272e-06 -2.90377e-06 7.84105e-05
0.000315007 0.000120441 -1.1858e-05
0.000120441 -6.5457e-05 -1.15135e-05
-1.1858e-05 -1.15135e-05 -0.000188076
0.00106028 3.18371e-05 2.54936e-06
3.18371e-05 0.000409754 1.44765e-07
2.54936e-06 1.44765e-07 0.000271701
0.00101414 0.000187056 -1.59948e-06
0.000187056 0.000408637 -4.54599e-06
-1.59948e-06 -4.54599e-06 0.000286676
0.00205264 0.000170272 4.423e-06
0.000170272 0.00124346 -1.84476e-05
4.423e-06 -1.84476e-05 0.000967469
0.00690559 0.00151713 0.00053407
0.00151713 0.00485446 0.000563394
0.00053407 0.000563394 -0.000170766
0.00300277 0.00119918 2.38775e-05
0.00119918 0.000404865 9.0455e-05
2.38775e-05 9.0455e-05 -0.00147407
0.00557524 -0.000321671 8.98949e-05
-0.000321671 -0.000217488 -1.86729e-05
8.98949e-05 -1.86729e-05 -0.00113179
0.014389 -0.0012803 -0.000302795
-0.0012803 0.00210703 -0.00014487
-0.000302795 -0.00014487 0.00385788
-0.00210846 0.00102163 9.4416e-05
0.00102163 -0.00237366 0.000421766
9.4416e-05 0.000421766 -0.00779947
0.00263982 -0.00322832 -4.24935e-05
-0.00322832 0.000723908 -2.95911e-05
-4.24935e-05 -2.95911e-05 0.00100543
0.00605915 -0.00213036 -0.000225603
-0.00213036 0.00538582 5.62e-05
-0.000225603 5.62e-05 -0.000524097
0.000937231 -0.00140119 -0.000141145
-0.00140119 0.00125185 0.000136782
-0.000141145 0.000136782 0.000748143
0.0106363 -9.38283e-05 -0.00023611
-9.38283e-05 0.00767253 -2.63313e-06
-0.00023611 -2.63313e-06 0.000520647
0.00769432 -0.0028115 0.000108869
-0.0028115 0.00468143 0.000219726
0.000108869 0.000219726 -0.00118085
0.021204 -0.0050411 -2.90764e-05
-0.0050411 0.00550297 -0.000837991
-2.90764e-05 -0.000837991 0.00167059
0.000868033 0.000328344 -0.000143835
0.000328344 0.00292626 0.000103583
-0.000143835 0.000103583 0.00143511
0.0103788 0.00275082 -0.000288628
0.00275082 0.00704893 -4.26821e-05
-0.000288628 -4.26821e-05 0.00111766
0.0220873 -0.00836917 6.19715e-05
-0.00836917 0.0120895 -0.000858794
6.19715e-05 -0.000858794 0.00526783
0.0276195 -0.0111024 0.000104718
-0.0111024 0.0129364 -7.66643e-05
0.000104718 -7.66643e-05 0.00728757
0.00103608 0.000329024 2.53842e-05
0.000329024 0.000669403 -5.89443e-06
2.53842e-05 -5.89443e-06 0.00026816
-4.37676e-05 4.62953e-05 5.7278e-06
4.62953e-05 0.00011769 1.83839e-06
5.7278e-06 1.83839e-06 -0.000240132
0.0011822 0.000210585 -2.2065e-05
0.000210585 0.000592772 -1.96705e-05
-2.2065e-05 -1.96705e-05 0.000418282
0.00412733 -0.00128591 0.000111209
-0.00128591 0.0028037 -7.56437e-06
0.000111209 -7.56437e-06 0.00114513
-0.000457532 -0.000144284 6.69847e-05
-0.000144284 0.000811586 -1.36822e-05
6.69847e-05 -1.36822e-05 0.000149544
-0.00035961 6.84687e-05 -5.92697e-06
6.84687e-05 -0.000162889 -2.75882e-06
-5.92697e-06 -2.75882e-06 -0.000399781
-0.000454912 -0.000118058 1.99017e-05
-0.000118058 0.000341406 -5.72887e-06
1.99017e-05 -5.72887e-06 -0.000260557
-0.000150257 0.000134673 -2.3746e-06
0.000134673 0.000121791 -7.49863e-07
-2.3746e-06 -7.49863e-07 -0.000183784
8.25925e-05 0.000329181 1.72101e-05
0.000329181 0.000638294 4.30341e-06
1.72101e-05 4.30341e-06 6.23043e-06
-0.00235349 8.48381e-05 0.0002014
8.48381e-05 0.0011984 -3.66722e-05
0.0002014 -3.66722e-05 -0.000884134
0.00021814 0.000600767 1.71713e-05
0.000600767 0.000152632 2.67508e-05
1.71713e-05 2.67508e-05 -0.000283521
0.00170317 0.000949045 -0.000138129
0.000949045 0.00188017 -0.000102302
-0.000138129 -0.000102302 0.000245205
0.000844649 8.32323e-05 0.000236829
8.32323e-05 0.00179052 8.44167e-05
0.000236829 8.44167e-05 -0.00305336
-0.00277244 0.000330957 -0.000112999
0.000330957 0.0021632 8.81507e-06
-0.000112999 8.81507e-06 0.000316872
0.00318634 -0.000322834 -5.8508e-05
-0.000322834 0.00141413 -2.98452e-06
-5.8508e-05 -2.98452e-06 0.00115161
9.68024e-05 0.000601839 0.000102542
0.000601839 0.000955543 1.80726e-05
0.000102542 1.80726e-05 -0.000300286
0.00120461 0.000310722 -0.000113958
0.000310722 0.00302644 0.000111912
-0.000113958 0.000111912 0.00134908
-0.000697144 -0.000275672 -7.52418e-06
-0.000275672 0.0022365 -3.23131e-05
-7.52418e-06 -3.23131e-05 0.000802446
0.0161229 -0.00504366 0.000292667
-0.00504366 0.00901447 -0.000159724
0.000292667 -0.000159724 0.00192446
0.0252299 0.00606989 -0.000367639
0.00606989 0.0124766 -0.000226905
-0.000367639 -0.000226905 0.00545543
0.00555152 -0.00213497 -0.000394008
-0.00213497 0.00298195 0.000305431
-0.000394008 0.000305431 -0.00168304
0.0121463 0.0131634 0.00295871
0.0131634 0.00952387 -0.00176832
0.00295871 -0.00176832 0.00326322
0.00094227 -0.000653578 4.49142e-05
-0.000653578 0.00165267 -1.38243e-05
4.49142e-05 -1.38243e-05 0.000350427
-0.00035195 -0.000706348 6.37849e-05
-0.000706348 0.000683026 1.0163e-05
6.37849e-05 1.0163e-05 -0.00386635
0.00255458 0.00203553 -0.00142481
0.00203553 0.00835612 0.000323321
-0.00142481 0.000323321 0.00268085
5.137e-06 -0.0010646 3.38888e-05
-0.0010646 0.00149081 2.69667e-05
3.38888e-05 2.69667e-05 0.000492757
0.0225209 0.00765739 0.000424441
0.00765739 0.0080821 0.000124932
0.000424441 0.000124932 0.00197819
0.00796282 -0.00645643 0.000282552
-0.00645643 0.00284574 -8.81554e-05
0.000282552 -8.81554e-05 -0.00134788
0.000239696 -0.00159771 -4.11347e-06
-0.00159771 0.000537734 3.54982e-05
-4.11347e-06 3.54982e-05 -0.000585802
-0.00491686 -0.00202377 0.000187998
-0.00202377 0.00715365 -0.000101597
0.000187998 -0.000101597 0.00254664
0.018334 0.00785346 -0.00192487
0.00785346 0.00739664 0.000517341
-0.00192487 0.000517341 0.00267567
0.00687527 -0.00497754 -0.000551392
-0.00497754 -0.000711384 0.000219338
-0.000551392 0.000219338 -0.00352785
-0.000146187 -0.00224878 0.000197688
-0.00224878 -0.000219951 -0.000142575
0.000197688 -0.000142575 0.000743023
0.00142191 -0.00063908 -0.000116643
-0.00063908 0.00104754 3.69013e-05
-0.000116643 3.69013e-05 0.000454586
0.000558864 -0.000741981 -1.82455e-05
-0.000741981 0.000489769 1.28694e-05
-1.82455e-05 1.28694e-05 -7.67317e-06
0.00278297 -0.00105538 2.08874e-05
-0.00105538 0.00129047 -3.04038e-05
2.08874e-05 -3.04038e-05 0.000800415
-0.00102701 -0.000230423 1.48978e-05
-0.000230423 -0.000370441 5.41124e-06
1.48978e-05 5.41124e-06 -0.000665646
0.00103125 -0.000762743 -2.6167e-06
-0.000762743 0.000251187 -3.90014e-06
-2.6167e-06 -3.90014e-06 -0.000185394
0.00320223 -0.00120007 1.09941e-05
-0.00120007 0.000983834 -7.75372e-06
1.09941e-05 -7.75372e-06 0.000499688
0.00435727 -0.00113988 -3.15863e-05
-0.00113988 0.00206703 2.08208e-06
-3.15863e-05 2.08208e-06 0.00135402
0.0017589 -0.000956938 -2.32251e-06
-0.000956938 0.000392341 -1.45419e-06
-2.32251e-06 -1.45419e-06 -0.000295708
0.00249793 -0.001174 -2.38572e-06
-0.001174 0.00053424 -1.10776e-05
-2.38572e-06 -1.10776e-05 -2.70923e-05
0.00301453 -0.00106671 7.63567e-06
-0.00106671 0.00114569 8.25399e-06
7.63567e-06 8.25399e-06 0.000458546
0.00245481 -0.00108073 2.39921e-06
-0.00108073 0.000693816 -3.94144e-06
2.39921e-06 -3.94144e-06 6.44906e-05
0.00270726 -0.000926692 -5.2654e-06
-0.000926692 0.00059116 -8.27251e-06
-5.2654e-06 -8.27251e-06 0.000157656
0.00189158 -0.000578238 -2.3992e-06
-0.000578238 8.62069e-06 -2.08285e-06
-2.3992e-06 -2.08285e-06 -0.000248756
0.0019971 -0.000845571 1.00645e-06
-0.000845571 0.000174303 -2.36526e-06
1.00645e-06 -2.36526e-06 -0.000255375
0.00232766 -0.000867557 3.37778e-06
-0.000867557 0.00041046 -2.57018e-06
3.37778e-06 -2.57018e-06 -2.39402e-05
0.0025448 -0.000944988 -4.79961e-06
-0.000944988 0.00077869 -1.26615e-06
-4.79961e-06 -1.26615e-06 0.000276667
0.00269156 -0.00106476 -3.49733e-06
-0.00106476 0.000808539 -8.73724e-08
-3.49733e-06 -8.73724e-08 0.000247135
0.00260357 -0.00107598 1.11236e-05
-0.00107598 0.000764339 -5.33973e-06
1.11236e-05 -5.33973e-06 0.000167891
0.00182904 -0.000738161 6.99711e-06
-0.000738161 0.000582746 -2.92141e-06
6.99711e-06 -2.92141e-06 0.000114063
0.00165362 -0.000813989 2.33073e-06
-0.000813989 0.000442204 -8.13029e-07
2.33073e-06 -8.13029e-07 -5.57453e-05
0.00133057 -0.000768109 3.95203e-06
-0.000768109 0.000237435 2.42191e-06
3.95203e-06 2.42191e-06 -0.000252244
0.00154242 -0.000351755 4.59501e-07
-0.000351755 0.000546668 2.70636e-06
4.59501e-07 2.70636e-06 0.00025699
0.00132993 -0.000517524 1.59404e-06
-0.000517524 0.000394899 8.36547e-07
1.59404e-06 8.36547e-07 1.11983e-05
0.00189818 -0.000681216 -4.58624e-06
-0.000681216 0.000702543 3.00179e-06
-4.58624e-06 3.00179e-06 0.000249779
1.51102e-06 -0.000135587 -2.90326e-06
-0.000135587 -0.000299681 4.49173e-07
-2.90326e-06 4.49173e-07 -0.000539545
0.000658453 -0.000253989 -2.04652e-06
-0.000253989 0.000103042 -1.72882e-06
-2.04652e-06 -1.72882e-06 -0.000175424
0.000861032 -0.000297055 -3.74623e-06
-0.000297055 0.000192348 2.35032e-07
-3.74623e-06 2.35032e-07 -8.12263e-05
0.00197681 -7.21164e-06 -5.71627e-05
-7.21164e-06 0.000958604 1.07528e-05
-5.71627e-05 1.07528e-05 0.000898776
0.000714261 -0.000153064 3.90071e-07
-0.000153064 0.000172341 -6.83371e-08
3.90071e-07 -6.83371e-08 -3.06834e-05
0.00140723 -0.00029977 1.04691e-06
-0.00029977 0.000675821 5.37754e-06
1.04691e-06 5.37754e-06 0.000378763
0.00065343 1.91881e-05 -6.25012e-05
1.91881e-05 0.000117965 7.01038e-06
-6.25012e-05 7.01038e-06 0.000106283
0.00125645 -1.21699e-05 -2.06065e-05
-1.21699e-05 0.000495856 -7.69528e-07
-2.06065e-05 -7.69528e-07 0.000443856
0.00100381 -0.000116898 3.44353e-06
-0.000116898 0.000343588 -5.50274e-06
3.44353e-06 -5.50274e-06 0.000189647
0.000565662 -1.34517e-05 3.91069e-06
-1.34517e-05 5.30814e-05 -1.11564e-05
3.91069e-06 -1.11564e-05 6.75388e-06
0.00319873 0.000126609 1.00861e-05
0.000126609 0.00175109 8.44163e-07
1.00861e-05 8.44163e-07 0.00174774
0.00292076 9.98407e-05 4.32363e-05
9.98407e-05 0.00156255 -5.17057e-06
4.32363e-05 -5.17057e-06 0.00156574
0.000674503 0.000179648 1.12095e-05
0.000179648 0.000230005 1.74725e-06
1.12095e-05 1.74725e-06 -3.54054e-05
0.00173201 0.000194589 5.17962e-06
0.000194589 0.000952671 -5.49e-06
5.17962e-06 -5.49e-06 0.00067099
-0.00048105 3.52069e-05 2.1526e-06
3.52069e-05 -0.000445881 -3.54937e-07
2.1526e-06 -3.54937e-07 -0.00068864
0.000646017 6.94981e-05 2.35659e-06
6.94981e-05 0.000131396 -8.7502e-06
2.35659e-06 -8.7502e-06 5.19387e-06
0.000704988 0.000129822 8.92293e-07
0.000129822 0.000240889 -5.25367e-09
8.92293e-07 -5.25367e-09 3.99815e-05
0.000428093 1.1557e-05 -8.56836e-07
1.1557e-05 -3.33795e-05 -1.03128e-05
-8.56836e-07 -1.03128e-05 -6.95096e-05
0.000558526 5.85665e-05 -6.76126e-08
5.85665e-05 7.60505e-05 -5.04932e-07
-6.76126e-08 -5.04932e-07 -3.09001e-05
0.000691573 6.03693e-05 -6.09926e-06
6.03693e-05 0.000228447 1.88207e-06
-6.09926e-06 1.88207e-06 5.73232e-05
0.00267938 -6.94269e-05 -3.73103e-05
-6.94269e-05 0.00140361 -5.36057e-06
-3.73103e-05 -5.36057e-06 0.00141275
0.000419133 4.66003e-06 -2.34345e-07
4.66003e-06 -4.59438e-05 -2.60305e-08
-2.34345e-07 -2.60305e-08 -7.4722e-05
0.000496139 6.52806e-05 -2.70946e-06
6.52806e-05 3.52201e-05 3.37284e-06
-2.70946e-06 3.37284e-06 -5.73803e-05
0.00241007 -5.04697e-05 -6.71395e-06
-5.04697e-05 0.00122629 4.32795e-07
-6.71395e-06 4.32795e-07 0.00123874
0.000400175 -1.36936e-05 -6.65082e-06
-1.36936e-05 -6.15467e-05 5.81538e-06
-6.65082e-06 5.81538e-06 -8.36525e-05
0.00223291 -3.05176e-05 2.29388e-05
-3.05176e-05 0.00111043 5.07268e-06
2.29388e-05 5.07268e-06 0.00112605
0.00682832 0.00100252 0.000451304
0.00100252 0.0045239 0.000108427
0.000451304 0.000108427 0.0016336
-0.00234677 0.000366697 -7.74228e-06
0.000366697 0.000886212 -1.14943e-05
-7.74228e-06 -1.14943e-05 -0.000609392
0.000462597 0.000430197 -8.66595e-06
0.000430197 0.00131284 -1.6118e-05
-8.66595e-06 -1.6118e-05 0.00018642
-0.000634157 0.000154077 -9.29657e-06
0.000154077 -0.000758235 6.84181e-06
-9.29657e-06 6.84181e-06 -0.000962523
4.84291e-06 3.86629e-05 -7.49563e-06
3.86629e-05 -0.000195818 8.95271e-06
-7.49563e-06 8.95271e-06 -0.000398154
-0.0004201 5.46773e-05 -8.33206e-06
5.46773e-05 -0.000470243 -1.0561e-05
-8.33206e-06 -1.0561e-05 -0.000649957
0.00167966 9.3107e-05 4.83273e-06
9.3107e-05 0.000854104 3.92547e-07
4.83273e-06 3.92547e-07 0.000656223
0.000602458 0.000166634 -3.68057e-06
0.000166634 5.94575e-05 -6.32567e-06
-3.68057e-06 -6.32567e-06 -0.000129127
0.00248494 0.000376415 -1.33576e-05
0.000376415 0.00134915 -5.00162e-06
-1.33576e-05 -5.00162e-06 0.00112534
0.00121976 0.000301504 2.44844e-07
0.000301504 0.000468156 -1.2441e-05
2.44844e-07 -1.2441e-05 0.000129343
-0.00175496 0.000155335 -1.92468e-06
0.000155335 -0.000931388 -5.04233e-07
-1.92468e-06 -5.04233e-07 -0.00133211
0.000407682 0.000102568 -7.73025e-06
0.000102568 3.53155e-05 -6.58006e-06
-7.73025e-06 -6.58006e-06 -0.00011455
-0.000302266 5.61909e-05 -1.51272e-05
5.61909e-05 -0.000486412 -8.78154e-06
-1.51272e-05 -8.78154e-06 -0.000560101
-0.000696333 1.77187e-05 -2.51158e-06
1.77187e-05 -0.000437878 2.12968e-06
-2.51158e-06 2.12968e-06 -0.000723882
0.000646179 0.000342609 1.79158e-05
0.000342609 0.000536742 3.43251e-06
1.79158e-05 3.43251e-06 1.37705e-05
0.00594829 -0.0048706 5.03014e-05
-0.0048706 0.0079065 0.000237216
5.03014e-05 0.000237216 0.000586151
0.00762782 0.00203473 0.000205111
0.00203473 0.00376325 0.000192402
0.000205111 0.000192402 -0.00186211
0.00383502 0.000642313 -1.70015e-05
0.000642313 0.00105956 -8.49552e-05
-1.70015e-05 -8.49552e-05 -0.00109249
0.0310627 -0.00694104 -0.00101311
-0.00694104 0.00942655 -0.000450335
-0.00101311 -0.000450335 0.00495662
0.00520246 -0.00169237 0.00030806
-0.00169237 0.00443701 0.000557633
0.00030806 0.000557633 0.000123324
0.00255924 -0.0016846 -0.000271097
-0.0016846 0.0055301 0.00013248
-0.000271097 0.00013248 -0.0023758
-0.000672474 -0.00120478 8.34004e-05
-0.00120478 0.00151075 5.09831e-05
8.34004e-05 5.09831e-05 0.00033036
-0.00138312 -4.31945e-05 0.000165979
-4.31945e-05 0.00138092 5.21947e-05
0.000165979 5.21947e-05 0.000400293
0.0212585 -0.0120168 0.000531495
-0.0120168 0.0114035 0.000506451
0.000531495 0.000506451 0.00536052
0.00277552 0.00198673 -0.000141125
0.00198673 0.00502043 -0.000103598
-0.000141125 -0.000103598 -0.00206464
0.0112006 -0.00446487 -0.000148993
-0.00446487 0.00669557 0.000143108
-0.000148993 0.000143108 -0.000466396
-0.00011866 0.0008441 -1.48343e-05
0.0008441 0.00132063 4.03756e-05
-1.48343e-05 4.03756e-05 0.000654894
0.00914044 0.00506721 -0.000149822
0.00506721 0.00326729 -2.61824e-06
-0.000149822 -2.61824e-06 -0.000822321
0.0209282 -0.00776048 -0.000978555
-0.00776048 0.00748206 -0.000484559
-0.000978555 -0.000484559 0.00114078
0.000944717 0.000713073 1.18761e-05
0.000713073 0.000174365 -4.86032e-06
1.18761e-05 -4.86032e-06 -1.70335e-05
0.000557144 0.000250656 7.52172e-06
0.000250656 0.000387027 6.41992e-06
7.52172e-06 6.41992e-06 1.25374e-05
-0.000567109 2.05283e-05 -2.04046e-05
2.05283e-05 -0.000191339 -2.65765e-06
-2.04046e-05 -2.65765e-06 -0.000558703
-0.00308086 -0.000281134 -0.000123906
-0.000281134 0.000595769 -5.52734e-05
-0.000123906 -5.52734e-05 -0.00138589
8.04707e-05 0.000277766 -6.27301e-07
0.000277766 0.000324204 -1.61596e-05
-6.27301e-07 -1.61596e-05 -0.000245317
0.000736999 0.000241376 -5.34591e-06
0.000241376 0.000611946 7.70233e-06
-5.34591e-06 7.70233e-06 0.000275004
0.00114721 0.000757156 1.46561e-05
0.000757156 0.00061656 3.78889e-06
1.46561e-05 3.78889e-06 0.000160075
-0.000323549 0.000686786 2.41465e-05
0.000686786 0.000923114 -3.85017e-05
2.41465e-05 -3.85017e-05 -0.000489918
0.00131598 0.00176763 8.66937e-05
0.00176763 0.000358881 5.68948e-06
8.66937e-05 5.68948e-06 -0.000711556
-0.00673537 0.00125767 0.000460595
0.00125767 0.00601585 -1.14497e-05
0.000460595 -1.14497e-05 -0.00220288
0.00224268 -0.000374338 -1.61574e-05
-0.000374338 0.00223472 8.2578e-05
-1.61574e-05 8.2578e-05 -0.00101642
-0.00309133 -2.24836e-05 -2.33355e-05
-2.24836e-05 0.00153882 7.84203e-05
-2.33355e-05 7.84203e-05 -6.94791e-05
-0.000830389 -0.000369003 -5.69687e-05
-0.000369003 0.000793402 1.44833e-05
-5.69687e-05 1.44833e-05 -0.00056564
-0.00163506 -0.00071284 -6.86118e-05
-0.00071284 1.47845e-05 5.44801e-05
-6.86118e-05 5.44801e-05 0.000109876
-0.000801971 -0.000699703 -0.00023697
-0.000699703 0.00120065 0.000157756
-0.00023697 0.000157756 -0.00374478
-0.00127254 -0.00487005 0.000250806
-0.00487005 0.00219454 -0.000133678
0.000250806 -0.000133678 -0.00435701
0.0158989 0.00612675 0.000862261
0.00612675 0.00340624 -0.00047232
0.000862261 -0.00047232 -0.0023208
0.0148255 0.0053792 -0.000460954
0.0053792 0.009791 0.000423726
-0.000460954 0.000423726 0.00343837
0.00103943 -0.00114251 -2.9644e-05
-0.00114251 0.00153448 4.89315e-06
-2.9644e-05 4.89315e-06 0.000468845
0.00305201 0.0010165 0.000202001
0.0010165 0.00915501 -4.1859e-05
0.000202001 -4.1859e-05 0.00371257
0.00358775 0.00541138 1.46341e-05
0.00541138 0.00167593 8.851e-05
1.46341e-05 8.851e-05 -0.00288424
0.00257016 -0.00347825 9.12877e-05
-0.00347825 0.000886716 -5.62603e-05
9.12877e-05 -5.62603e-05 0.00113949
0.0148599 -0.00548871 1.66612e-06
-0.00548871 0.00164584 8.69153e-06
1.66612e-06 8.69153e-06 -0.000246487
0.00332081 -0.00210783 4.27254e-06
-0.00210783 0.00142258 1.47204e-05
4.27254e-06 1.47204e-05 0.000858087
-0.00694584 0.00178792 -0.000816595
0.00178792 -0.00154277 0.000140756
-0.000816595 0.000140756 -0.00541843
0.0158357 -0.00353425 -0.000231457
-0.00353425 0.0010675 6.57445e-05
-0.000231457 6.57445e-05 6.69317e-05
0.00431292 -0.00333032 0.000131703
-0.00333032 5.70541e-05 -7.7745e-05
0.000131703 -7.7745e-05 0.00107648
-0.000247716 -0.000557461 8.70767e-06
-0.000557461 0.000163046 4.50441e-06
8.70767e-06 4.50441e-06 -0.000365941
0.00201785 -0.00110799 9.80648e-06
-0.00110799 0.000733052 -7.61539e-06
9.80648e-06 -7.61539e-06 0.000349372
0.00335188 -0.00110006 2.14041e-05
-0.00110006 0.00109517 -2.08332e-05
2.14041e-05 -2.08332e-05 0.000709352
-0.000206254 -0.000608202 -9.01138e-06
-0.000608202 -0.000380976 1.25584e-05
-9.01138e-06 1.25584e-05 -0.000807136
0.00194463 -0.00105833 -4.01084e-06
-0.00105833 0.000328792 1.73215e-06
-4.01084e-06 1.73215e-06 -0.000158186
0.00344701 -0.00126486 6.2132e-06
-0.00126486 0.000907669 -5.83373e-06
6.2132e-06 -5.83373e-06 0.000428673
0.00138687 -0.000874604 -8.49596e-06
-0.000874604 0.000177402 1.08701e-05
-8.49596e-06 1.08701e-05 -0.000485244
0.00223002 -0.00113231 -8.4941e-07
-0.00113231 0.000396237 2.60275e-06
-8.4941e-07 2.60275e-06 -0.000162594
0.00218762 -0.00089213 -4.58369e-06
-0.00089213 0.000126973 -5.06758e-06
-4.58369e-06 -5.06758e-06 -0.000210837
0.00180569 -0.000996961 8.7686e-06
-0.000996961 0.000321602 4.49493e-06
8.7686e-06 4.49493e-06 -0.000280079
0.0022199 -0.000856116 -1.77769e-06
-0.000856116 0.000329265 1.75142e-06
-1.77769e-06 1.75142e-06 -8.69185e-05
0.00224356 -0.000623661 -2.16846e-06
-0.000623661 0.00014372 -2.40053e-06
-2.16846e-06 -2.40053e-06 -8.29442e-05
0.00204696 -0.000534384 -2.94712e-06
-0.000534384 0.00010489 6.60299e-07
-2.94712e-06 6.60299e-07 -8.47105e-05
0.00184046 -0.000592251 -3.64113e-06
-0.000592251 3.63396e-06 -1.78808e-06
-3.64113e-06 -1.78808e-06 -0.000266278
0.00192991 -0.000576426 1.65782e-06
-0.000576426 2.91849e-05 2.84355e-06
1.65782e-06 2.84355e-06 -0.000224502
0.00181367 -0.000733665 -4.30923e-06
-0.000733665 0.000134244 -3.68256e-06
-4.30923e-06 -3.68256e-06 -0.000250469
0.00219123 -0.000857028 2.77185e-06
-0.000857028 0.000314772 -1.31389e-08
2.77185e-06 -1.31389e-08 -0.000112372
0.00230141 -0.000867857 4.22008e-06
-0.000867857 0.000391631 1.77754e-06
4.22008e-06 1.77754e-06 -4.16043e-05
0.0019493 -0.000808153 9.46475e-08
-0.000808153 0.000455123 -2.75546e-06
9.46475e-08 -2.75546e-06 -1.6144e-05
0.00235355 -0.00092975 2.02047e-06
-0.00092975 0.000656193 -6.21042e-07
2.02047e-06 -6.21042e-07 0.000154324
0.00259269 -0.00104967 3.91545e-06
-0.00104967 0.000760032 -2.48136e-06
3.91545e-06 -2.48136e-06 0.000196658
0.00143301 -0.000498001 -8.00402e-06
-0.000498001 0.000387333 4.02176e-06
-8.00402e-06 4.02176e-06 2.82801e-05
0.00174117 -0.000716052 9.63261e-07
-0.000716052 0.000529593 6.1054e-07
9.63261e-07 6.1054e-07 7.049e-05
0.00141274 -0.000773262 -2.05331e-06
-0.000773262 0.000313518 2.63045e-06
-2.05331e-06 2.63045e-06 -0.000171728
0.000721699 -0.000242521 -6.93675e-06
-0.000242521 8.45939e-05 -8.17468e-07
-6.93675e-06 -8.17468e-07 -0.000143646
0.00102013 -0.000327921 2.32298e-06
-0.000327921 0.000215729 -6.69816e-07
2.32298e-06 -6.69816e-07 -7.31849e-05
0.000838738 -0.000452911 -6.43882e-06
-0.000452911 0.000120066 2.29956e-06
-6.43882e-06 2.29956e-06 -0.000245784
0.000378958 -9.23674e-05 -1.66583e-05
-9.23674e-05 -9.39124e-05 1.47792e-05
-1.66583e-05 1.47792e-05 -0.000183312
0.000767963 -0.000199122 1.92573e-06
-0.000199122 0.000199411 1.85571e-06
1.92573e-06 1.85571e-06 -5.43669e-05
0.000567058 -0.000293444 -2.12949e-06
-0.000293444 7.62632e-05 9.71849e-07
-2.12949e-06 9.71849e-07 -0.000221796
0.00428633 0.000271326 1.37976e-05
0.000271326 0.0025018 7.59033e-06
1.37976e-05 7.59033e-06 0.00245252
0.000392121 -5.98207e-05 2.54092e-07
-5.98207e-05 -6.50743e-05 -2.24924e-07
2.54092e-07 -2.24924e-07 -0.000141053
0.00141247 -0.000158646 5.92175e-07
-0.000158646 0.000609672 -4.32113e-06
5.92175e-07 -4.32113e-06 0.000404928
0.00363493 0.00014374 9.89195e-06
0.00014374 0.00203878 6.4233e-07
9.89195e-06 6.4233e-07 0.00203102
0.000612776 -3.168e-05 7.11177e-06
-3.168e-05 8.12374e-05 -1.29739e-05
7.11177e-06 -1.29739e-05 2.20255e-05
0.00327265 0.000115178 6.59953e-05
0.000115178 0.00179612 -5.72695e-06
6.59953e-05 -5.72695e-06 0.00179581
0.00231077 0.000400683 3.49856e-06
0.000400683 0.00114574 2.43589e-06
3.49856e-06 2.43589e-06 0.000877116
0.000618085 0.00019835 -8.28412e-08
0.00019835 0.000197053 -2.85436e-06
-8.28412e-08 -2.85436e-06 -7.69287e-05
0.0013399 0.000314289 -2.67711e-06
0.000314289 0.000679924 -3.21054e-06
-2.67711e-06 -3.21054e-06 0.000380945
0.000923554 0.000109979 1.541e-06
0.000109979 0.000310622 -8.58222e-06
1.541e-06 -8.58222e-06 0.000154216
0.000805785 0.000127205 3.10165e-07
0.000127205 0.000356106 1.20934e-06
3.10165e-07 1.20934e-06 8.45909e-05
6.63624e-05 0.000115509 -3.69307e-06
0.000115509 -5.40752e-05 5.55777e-06
-3.69307e-06 5.55777e-06 -0.000337791
0.000519148 1.64966e-06 -1.54524e-06
1.64966e-06 3.4855e-05 -1.27278e-05
-1.54524e-06 -1.27278e-05 -1.18353e-05
0.000555077 5.53198e-05 -4.55984e-07
5.53198e-05 7.83234e-05 -1.3015e-08
-4.55984e-07 -1.3015e-08 -4.8105e-05
8.19545e-05 8.73742e-05 -5.21283e-06
8.73742e-05 -0.000182287 6.75862e-06
-5.21283e-06 6.75862e-06 -0.000364471
0.00278831 -8.57789e-05 -4.64331e-05
-8.57789e-05 0.00147926 -5.6384e-06
-4.64331e-05 -5.6384e-06 0.00148574
0.000394878 -2.56024e-05 2.65877e-06
-2.56024e-05 -5.12033e-05 -3.21184e-07
2.65877e-06 -3.21184e-07 -8.80427e-05
0.000468637 5.16746e-05 -4.44284e-06
5.16746e-05 2.6407e-05 5.4821e-06
-4.44284e-06 5.4821e-06 -8.16181e-05
0.00260117 -6.93924e-05 -7.46546e-06
-6.93924e-05 0.00135344 5.73109e-07
-7.46546e-06 5.73109e-07 0.00136243
0.000420159 6.01048e-06 -2.52643e-06
6.01048e-06 -4.57468e-05 7.29294e-06
-2.52643e-06 7.29294e-06 -7.37672e-05
0.00236258 -4.97734e-05 2.43411e-05
-4.97734e-05 0.00119581 5.19037e-06
2.43411e-05 5.19037e-06 0.00120853
-0.00868751 0.00107589 -0.000209107
0.00107589 0.00478769 7.65982e-05
-0.000209107 7.65982e-05 -0.00277237
0.00643317 0.000804119 2.66422e-05
0.000804119 0.00407568 -1.89334e-07
2.66422e-05 -1.89334e-07 0.00131489
-0.0017527 0.000330042 9.97113e-05
0.000330042 0.000905448 5.21665e-05
9.97113e-05 5.21665e-05 -0.000854509
0.000254472 0.000196654 -1.89999e-06
0.000196654 -0.000162005 6.31294e-06
-1.89999e-06 6.31294e-06 -0.000413004
0.00348351 0.000819342 1.95176e-05
0.000819342 0.00183301 1.7733e-05
1.95176e-05 1.7733e-05 0.00138889
-8.70731e-05 0.000181014 -8.87743e-06
0.000181014 -0.000180139 7.00796e-06
-8.87743e-06 7.00796e-06 -0.000573899
0.000321845 8.03656e-05 -8.64371e-06
8.03656e-05 2.14037e-05 -1.94276e-05
-8.64371e-06 -1.94276e-05 -0.000187032
0.00322846 0.000386343 7.48629e-07
0.000386343 0.00167348 -3.73312e-06
7.48629e-07 -3.73312e-06 0.00146133
-0.00147905 2.89353e-06 -1.4834e-05
2.89353e-06 -0.0010967 1.44113e-05
-1.4834e-05 1.44113e-05 -0.00125092
-0.000174748 0.000196487 -4.54787e-07
0.000196487 -0.00010633 7.91369e-06
-4.54787e-07 7.91369e-06 -0.00043109
0.000113823 0.000141675 -4.48983e-06
0.000141675 -0.000129681 -5.86403e-06
-4.48983e-06 -5.86403e-06 -0.00046812
0.00127254 0.000685429 4.09688e-06
0.000685429 0.000622805 -2.04379e-05
4.09688e-06 -2.04379e-05 9.31553e-05
-0.000950458 0.000537393 -2.5648e-05
0.000537393 -0.000889541 6.45432e-05
-2.5648e-05 6.45432e-05 -0.00105306
0.0012538 5.84654e-05 -1.72248e-05
5.84654e-05 0.000689427 1.74547e-05
-1.72248e-05 1.74547e-05 0.000451499
0.00176683 0.000399027 9.2619e-06
0.000399027 0.00116731 -8.88346e-06
9.2619e-06 -8.88346e-06 0.000721186
0.00339147 -0.00330011 -0.00219726
-0.00330011 0.00278319 -0.000277902
-0.00219726 -0.000277902 -0.00238801
-0.000204956 -0.00377771 0.0007269
-0.00377771 0.00824005 0.000192783
0.0007269 0.000192783 0.00109554
0.00837878 0.00256446 -0.000789428
0.00256446 0.00343716 -0.000263997
-0.000789428 -0.000263997 -0.00270533
0.012252 -0.0130264 0.00292494
-0.0130264 0.00973541 0.00169631
0.00292494 0.00169631 0.00312775
0.0301577 -0.00446423 1.55771e-05
-0.00446423 0.0109812 0.000454314
1.55771e-05 0.000454314 0.00564128
-0.00328923 0.00148109 -5.81604e-05
0.00148109 0.00307535 -0.000206663
-5.81604e-05 -0.000206663 -0.00315843
-0.00241941 0.000244018 -0.000269339
0.000244018 0.00160849 -5.22428e-05
-0.000269339 -5.22428e-05 -0.000315781
0.000236269 0.000881941 7.46384e-05
0.000881941 0.00170916 5.83086e-05
7.46384e-05 5.83086e-05 0.00116091
0.0226886 -0.00619693 -0.000818669
-0.00619693 0.00973957 3.00718e-05
-0.000818669 3.00718e-05 0.00357484
-0.00191237 0.00420277 -0.000182625
0.00420277 0.000629012 -4.97613e-05
-0.000182625 -4.97613e-05 -0.00424949
0.00360163 0.00290325 4.0013e-05
0.00290325 0.00120784 -8.21382e-05
4.0013e-05 -8.21382e-05 0.0020024
0.00547794 0.00684228 -0.000613997
0.00684228 -0.00176512 -0.000112729
-0.000613997 -0.000112729 -0.00404785
0.00362331 0.00143597 2.91658e-05
0.00143597 0.00143851 -6.17614e-06
2.91658e-05 -6.17614e-06 0.00100626
0.00109918 0.000690861 -5.72952e-06
0.000690861 0.000289723 -3.54065e-06
-5.72952e-06 -3.54065e-06 0.000116536
-0.000601635 0.000172267 -1.95741e-05
0.000172267 -0.000322594 9.23234e-06
-1.95741e-05 9.23234e-06 -0.000681888
-0.00124296 0.000566289 -0.000111704
0.000566289 0.000535977 -7.39714e-05
-0.000111704 -7.39714e-05 -0.00068803
0.00147149 0.000840636 -5.26335e-05
0.000840636 0.000715907 -3.50366e-05
-5.26335e-05 -3.50366e-05 0.000257853
0.00242997 0.00193301 6.9222e-06
0.00193301 0.00080083 -1.07194e-05
6.9222e-06 -1.07194e-05 -0.0002551
-0.0013673 0.00191573 0.000106797
0.00191573 -0.00203168 5.59749e-05
0.000106797 5.59749e-05 -0.00248969
-0.00689234 -0.000648386 -0.00079399
-0.000648386 -0.00355615 6.29358e-05
-0.00079399 6.29358e-05 -0.00476908
-0.00991602 0.000518378 0.000543102
0.000518378 0.00645394 1.82367e-05
0.000543102 1.82367e-05 -0.000746814
0.00279023 -1.63622e-06 -0.000166792
-1.63622e-06 0.00217301 3.49477e-05
-0.000166792 3.49477e-05 0.000115764
0.00105036 -0.00119637 -5.83372e-05
-0.00119637 0.00108649 -4.87519e-05
-5.83372e-05 -4.87519e-05 6.73615e-05
-0.00120007 -0.00240328 0.000134461
-0.00240328 -0.000497568 3.00359e-05
0.000134461 3.00359e-05 -0.000262004
0.00113764 0.00116051 0.000174839
0.00116051 0.00877938 7.03046e-05
0.000174839 7.03046e-05 0.00307547
0.00437394 -0.00494324 0.000656393
-0.00494324 -0.00179312 -8.31665e-05
0.000656393 -8.31665e-05 -0.00322918
0.0255252 0.00473969 0.00124254
0.00473969 0.0115061 -8.30072e-05
0.00124254 -8.30072e-05 0.00692729
0.00180621 -0.00226924 -2.16727e-05
-0.00226924 0.00045651 3.87682e-06
-2.16727e-05 3.87682e-06 -0.000364159
0.00380742 0.00219341 0.000368413
0.00219341 0.00178637 -0.000109084
0.000368413 -0.000109084 -0.00159147
0.00758332 -0.00314213 -0.000205587
-0.00314213 -0.0036267 0.000178351
-0.000205587 0.000178351 -0.00531538
0.00274352 -0.00314515 -5.30893e-06
-0.00314515 -0.00109418 2.58001e-05
-5.30893e-06 2.58001e-05 0.000445696
0.00268082 -0.00183941 7.70284e-05
-0.00183941 0.000197405 -1.8148e-05
7.70284e-05 -1.8148e-05 -3.7408e-05
0.0191904 -0.0011055 -0.000112019
-0.0011055 0.003315 7.04153e-05
-0.000112019 7.04153e-05 0.00246767
0.00276904 -0.00231156 0.000134147
-0.00231156 -0.00370999 -8.9013e-05
0.000134147 -8.9013e-05 -0.00150242
-0.000937139 -0.000854952 -2.65814e-05
-0.000854952 -0.00096591 4.52682e-05
-2.65814e-05 4.52682e-05 -0.00113909
0.000386305 -0.000777279 -3.87411e-05
-0.000777279 -0.000524666 4.7196e-06
-3.87411e-05 4.7196e-06 -0.000722799
0.00639536 -0.00137202 6.36661e-05
-0.00137202 0.00238303 -2.4873e-05
6.36661e-05 -2.4873e-05 0.00209969
0.000154897 -0.000825896 -1.31517e-05
-0.000825896 -0.000572727 6.65978e-06
-1.31517e-05 6.65978e-06 -0.00103811
0.00223678 -0.00110422 -2.18281e-06
-0.00110422 0.000289421 -2.20321e-06
-2.18281e-06 -2.20321e-06 -0.000149082
0.00293462 -0.000972559 2.17509e-06
-0.000972559 0.000347612 -3.33994e-06
2.17509e-06 -3.33994e-06 0.000132466
0.00224606 -0.00112885 1.01886e-05
-0.00112885 0.000403582 1.07292e-05
1.01886e-05 1.07292e-05 -0.000159904
0.00240179 -0.000905328 -2.29201e-06
-0.000905328 0.000249688 6.626e-07
-2.29201e-06 6.626e-07 -8.58144e-05
0.0022706 -0.000646742 -3.89453e-07
-0.000646742 2.1785e-06 -1.0171e-06
-3.89453e-07 -1.0171e-06 -0.000102163
0.00185635 -0.000803251 1.00578e-05
-0.000803251 0.000129441 6.65627e-06
1.00578e-05 6.65627e-06 -0.000273614
0.00214639 -0.000608978 -2.2082e-07
-0.000608978 8.218e-05 2.55452e-06
-2.2082e-07 2.55452e-06 -0.000134055
0.0022547 -0.000601157 -2.15213e-06
-0.000601157 0.000101397 2.3624e-06
-2.15213e-06 2.3624e-06 -3.20715e-05
0.00220966 -0.000573328 -3.31002e-06
-0.000573328 0.000175401 1.77639e-06
-3.31002e-06 1.77639e-06 1.2673e-05
0.00214257 -0.000543329 -3.12578e-06
-0.000543329 0.000153725 2.919e-06
-3.12578e-06 2.919e-06 -3.08009e-05
0.00218452 -0.000542542 -1.56034e-06
-0.000542542 0.000248362 -2.39259e-06
-1.56034e-06 -2.39259e-06 4.54514e-05
0.00216925 -0.000629046 -6.50754e-06
-0.000629046 0.000240188 -2.80491e-06
-6.50754e-06 -2.80491e-06 -4.22361e-05
0.00207728 -0.000609748 1.29928e-06
-0.000609748 0.000158321 1.2117e-06
1.29928e-06 1.2117e-06 -0.000112057
0.00199633 -0.000579023 3.36453e-06
-0.000579023 6.12045e-05 7.3569e-06
3.36453e-06 7.3569e-06 -0.000189652
0.00207247 -0.000737726 -6.56082e-06
-0.000737726 0.000354101 -3.82663e-06
-6.56082e-06 -3.82663e-06 -4.03136e-05
0.00180983 -0.000743156 -7.16649e-07
-0.000743156 0.000116084 1.70585e-07
-7.16649e-07 1.70585e-07 -0.000273308
0.00235631 -0.000867389 7.07023e-06
-0.000867389 0.000434855 2.3114e-06
7.07023e-06 2.3114e-06 1.02132e-05
0.00155068 -0.000623535 -1.08011e-05
-0.000623535 0.000296426 2.52566e-06
-1.08011e-05 2.52566e-06 -0.000113425
0.00205694 -0.000822018 -3.78572e-07
-0.000822018 0.000518286 8.7085e-07
-3.78572e-07 8.7085e-07 4.39459e-05
0.0022106 -0.000921602 4.71787e-06
-0.000921602 0.000561253 1.29163e-06
4.71787e-06 1.29163e-06 5.79761e-05
0.000849778 -0.000264198 -8.50677e-06
-0.000264198 0.000128076 7.72436e-06
-8.50677e-06 7.72436e-06 -0.000112444
0.00130179 -0.000492964 1.48762e-06
-0.000492964 0.000293322 5.89756e-07
1.48762e-06 5.89756e-07 -6.61856e-05
0.00154248 -0.00068587 -3.3239e-06
-0.00068587 0.000400201 3.28127e-06
-3.3239e-06 3.28127e-06 -4.85871e-05
0.000463154 -0.000165103 -2.79319e-05
-0.000165103 -7.24672e-05 1.57569e-05
-2.79319e-05 1.57569e-05 -0.000180485
0.000608004 -0.000230065 -2.77466e-06
-0.000230065 3.60511e-05 -3.68922e-07
-2.77466e-06 -3.68922e-07 -0.000207297
0.000255388 -0.000323746 2.62219e-06
-0.000323746 -0.000269017 -1.83813e-06
2.62219e-06 -1.83813e-06 -0.000565566
0.00481333 0.000230239 -0.000101109
0.000230239 0.00283711 1.08805e-05
-0.000101109 1.08805e-05 0.00280188
0.000552987 -0.000114697 2.32256e-06
-0.000114697 9.82929e-06 7.3701e-08
2.32256e-06 7.3701e-08 -8.45887e-05
0.00125899 -0.000273563 6.89577e-06
-0.000273563 0.000502816 -1.69841e-06
6.89577e-06 -1.69841e-06 0.000247119
0.00275304 0.000140403 6.44317e-05
0.000140403 0.00149384 1.58868e-06
6.44317e-05 1.58868e-06 0.00146296
0.000773039 -6.59053e-05 1.39954e-05
-6.59053e-05 0.000169733 -1.49421e-05
1.39954e-05 -1.49421e-05 9.00341e-05
0.00385145 0.000131913 9.49161e-05
0.000131913 0.00217594 -7.22522e-06
9.49161e-05 -7.22522e-06 0.00217093
0.00196977 0.000417416 1.26595e-06
0.000417416 0.000814631 -1.07757e-06
1.26595e-06 -1.07757e-06 0.000546158
0.000524147 0.000197922 -4.72626e-06
0.000197922 -1.85142e-05 2.08107e-07
-4.72626e-06 2.08107e-07 -0.000234288
0.000304398 0.000198064 3.62048e-07
0.000198064 -4.13528e-05 -4.26576e-06
3.62048e-07 -4.26576e-06 -0.000308513
0.000512794 0.000186369 -1.39314e-06
0.000186369 0.0001143 4.86367e-06
-1.39314e-06 4.86367e-06 -0.000141417
0.000846366 0.000121783 4.06116e-08
0.000121783 0.000357355 1.89697e-07
4.06116e-08 1.89697e-07 7.50079e-05
0.00108594 0.000152089 -1.52369e-06
0.000152089 0.000412643 -9.86001e-06
-1.52369e-06 -9.86001e-06 0.000223605
0.000657928 5.65699e-05 -8.59858e-06
5.65699e-05 0.00011901 -1.52919e-05
-8.59858e-06 -1.52919e-05 6.12327e-05
0.000645334 0.000103954 1.17541e-07
0.000103954 0.000137617 -3.30031e-08
1.17541e-07 -3.30031e-08 -1.52722e-05
-0.000743784 1.32589e-05 -6.65657e-06
1.32589e-05 -0.000663168 5.17458e-06
-6.65657e-06 5.17458e-06 -0.000899815
0.00314772 -0.000100285 -6.88004e-05
-0.000100285 0.00171846 -6.59476e-06
-6.88004e-05 -6.59476e-06 0.00172204
0.000375877 2.62383e-05 1.381e-06
2.62383e-05 -5.52928e-05 -3.14798e-07
1.381e-06 -3.14798e-07 -0.000101591
0.000670669 7.05792e-05 -3.86881e-06
7.05792e-05 0.000157653 9.07083e-06
-3.86881e-06 9.07083e-06 2.85324e-05
0.00284561 -9.01425e-05 -8.26324e-06
-9.01425e-05 0.00151729 7.34915e-07
-8.26324e-06 7.34915e-07 0.00152222
0.000326739 -1.22879e-05 -1.32813e-06
-1.22879e-05 -9.2068e-05 9.14829e-06
-1.32813e-06 9.14829e-06 -0.000128974
0.0025952 -6.98877e-05 3.03436e-05
-6.98877e-05 0.00134938 5.5069e-06
3.03436e-05 5.5069e-06 0.00135806
0.00223951 -0.000185299 -0.00122127
-0.000185299 0.00441354 -7.60828e-05
-0.00122127 -7.60828e-05 0.0020068
-0.00549549 -2.50006e-05 1.7563e-05
-2.50006e-05 0.00603637 -2.04942e-05
1.7563e-05 -2.04942e-05 -0.00185686
0.00631924 0.000406491 -0.000377045
0.000406491 0.00387026 -0.000102103
-0.000377045 -0.000102103 0.00128332
-0.000110693 9.51634e-05 5.95337e-06
9.51634e-05 -0.00039038 -3.39862e-06
5.95337e-06 -3.39862e-06 -0.000639609
0.000232648 0.000135378 6.99622e-06
0.000135378 -8.10559e-05 4.8179e-06
6.99622e-06 4.8179e-06 -0.000442424
0.00298784 0.000730627 -3.59227e-06
0.000730627 0.0015499 3.1069e-06
-3.59227e-06 3.1069e-06 0.00111855
0.00236359 0.000858934 1.83733e-05
0.000858934 0.00101162 1.12456e-05
1.83733e-05 1.12456e-05 0.000464482
0.000990994 0.000597006 1.10924e-05
0.000597006 0.000500098 1.26633e-05
1.10924e-05 1.26633e-05 1.74006e-05
0.00213125 0.000296413 -7.47079e-06
0.000296413 0.00127211 6.60507e-06
-7.47079e-06 6.60507e-06 0.00096571
0.00223896 0.000311271 1.11982e-05
0.000311271 0.00123115 8.60476e-06
1.11982e-05 8.60476e-06 0.000902671
0.00101246 0.000610167 -4.84694e-06
0.000610167 0.000507699 8.39742e-07
-4.84694e-06 8.39742e-07 -4.66044e-06
0.000267143 0.000800475 1.62999e-05
0.000800475 -0.000367492 -5.73656e-06
1.62999e-05 -5.73656e-06 -0.000779577
0.00296159 0.00105867 -8.26264e-06
0.00105867 0.00119644 3.28477e-05
-8.26264e-06 3.28477e-05 0.000887141
0.00167681 0.00108884 3.46932e-05
0.00108884 0.000159516 1.22664e-05
3.46932e-05 1.22664e-05 -2.73449e-05
0.00157645 0.000794893 -9.23426e-07
0.000794893 0.00060904 -1.54618e-06
-9.23426e-07 -1.54618e-06 0.000321969
0.00210649 0.000547662 -3.31176e-06
0.000547662 0.00126414 2.89213e-05
-3.31176e-06 2.89213e-05 0.000789813
0.0145717 0.00352462 -0.000150317
0.00352462 0.00135095 5.53382e-05
-0.000150317 5.53382e-05 0.000472325
0.0053367 -0.0028625 -0.000732766
-0.0028625 0.00469342 -0.00024188
-0.000732766 -0.00024188 0.000808839
0.00169331 -0.00521114 0.00115071
-0.00521114 0.0091398 0.000255858
0.00115071 0.000255858 0.00190587
0.0140127 -0.0034234 0.000460672
-0.0034234 0.00553668 0.000297555
0.000460672 0.000297555 3.74317e-05
0.0132225 0.00642214 -0.000118973
0.00642214 0.00452906 -5.76724e-05
-0.000118973 -5.76724e-05 0.000322456
-0.00255635 0.000505808 -9.98048e-06
0.000505808 0.000717293 -2.00479e-05
-9.98048e-06 -2.00479e-05 1.89542e-05
0.0020776 0.00245574 -8.99624e-05
0.00245574 0.00052882 -3.54636e-05
-8.99624e-05 -3.54636e-05 0.00152273
0.0154164 0.006393 1.91961e-05
0.006393 0.00216561 4.14062e-05
1.91961e-05 4.14062e-05 -0.000476146
0.00710282 0.00463238 -0.000143636
0.00463238 -0.000475419 -0.000133496
-0.000143636 -0.000133496 0.000412301
0.00171319 0.00144519 5.88619e-06
0.00144519 0.000155359 4.19183e-06
5.88619e-06 4.19183e-06 -0.000189091
0.00153149 0.0011023 1.29844e-05
0.0011023 0.000424573 -3.93414e-06
1.29844e-05 -3.93414e-06 7.73881e-05
0.00169238 0.000686176 -3.45253e-05
0.000686176 0.000749833 -1.37917e-06
-3.45253e-05 -1.37917e-06 0.000576643
0.00222096 0.00199573 -7.90441e-05
0.00199573 0.00052501 -2.90745e-05
-7.90441e-05 -2.90745e-05 -0.00049726
0.00166047 0.0022932 9.78864e-05
0.0022932 -0.000699696 5.21073e-05
9.78864e-05 5.21073e-05 -0.00130655
0.00385061 -0.000301806 -0.000147564
-0.000301806 -0.00556385 4.6119e-05
-0.000147564 4.6119e-05 -0.00587293
0.000273789 -0.0021927 1.57795e-05
-0.0021927 0.00301434 3.63044e-05
1.57795e-05 3.63044e-05 0.0012555
-0.0134855 -0.000405115 0.000442634
-0.000405115 0.00726364 -1.89265e-05
0.000442634 -1.89265e-05 0.00121073
0.00184012 -0.00271572 -9.23828e-05
-0.00271572 0.000106965 4.66611e-05
-9.23828e-05 4.66611e-05 -0.000971402
0.00655569 -0.00421132 2.64294e-05
-0.00421132 9.21501e-05 5.50874e-05
2.64294e-05 5.50874e-05 0.00107372
0.00391965 0.000391967 0.00129037
0.000391967 0.00464989 -0.000304766
0.00129037 -0.000304766 0.00235011
0.0153546 -0.00330608 -0.000376819
-0.00330608 0.00125608 0.000209192
-0.000376819 0.000209192 0.000964516
0.0018208 -0.00180469 -2.98675e-05
-0.00180469 -0.000205511 5.15716e-06
-2.98675e-05 5.15716e-06 -0.000559044
0.0121143 -0.000252677 -0.000247955
-0.000252677 -0.00198978 8.83622e-05
-0.000247955 8.83622e-05 -0.00248615
0.00727489 -0.00267097 9.83912e-05
-0.00267097 -0.000925059 1.08662e-05
9.83912e-05 1.08662e-05 0.0004875
0.00371827 -0.00153492 6.38096e-05
-0.00153492 9.72646e-05 -4.06558e-05
6.38096e-05 -4.06558e-05 4.16933e-05
0.00254714 -0.00103133 1.81748e-05
-0.00103133 -0.0028269 2.96141e-07
1.81748e-05 2.96141e-07 -0.000937737
-0.00288348 -0.000458182 2.97409e-07
-0.000458182 -0.00232128 2.17485e-05
2.97409e-07 2.17485e-05 -0.00236183
0.00136346 -0.00088709 -2.19794e-05
-0.00088709 -0.000416957 4.04173e-06
-2.19794e-05 4.04173e-06 -0.000421656
0.00391151 -0.000924954 4.1329e-05
-0.000924954 0.000747243 -1.33416e-05
4.1329e-05 -1.33416e-05 0.000804693
0.00166441 -0.00103274 -1.37002e-05
-0.00103274 -7.70889e-06 6.7048e-06
-1.37002e-05 6.7048e-06 -0.000425641
0.00244378 -0.000929514 -4.45826e-06
-0.000929514 7.86915e-05 2.96621e-06
-4.45826e-06 2.96621e-06 -0.000133957
0.00260391 -0.000740391 5.95452e-06
-0.000740391 -7.22936e-06 -3.38184e-08
5.95452e-06 -3.38184e-08 -1.48195e-05
0.00224472 -0.000869833 -1.84778e-06
-0.000869833 0.000177343 9.36961e-06
-1.84778e-06 9.36961e-06 -0.000143801
0.00224353 -0.000644096 3.23359e-07
-0.000644096 -1.51555e-05 1.33861e-06
3.23359e-07 1.33861e-06 -0.00011788
0.00241319 -0.000645293 -2.58239e-07
-0.000645293 5.59747e-05 4.29583e-07
-2.58239e-07 4.29583e-07 1.87902e-05
0.00199933 -0.000586685 4.6204e-06
-0.000586685 -4.33218e-06 5.52506e-06
4.6204e-06 5.52506e-06 -0.000208092
0.00220381 -0.000595625 -5.91097e-08
-0.000595625 7.16843e-05 1.083e-06
-5.91097e-08 1.083e-06 -5.98985e-05
0.00235157 -0.000631643 -1.77103e-06
-0.000631643 0.00012059 1.84938e-06
-1.77103e-06 1.84938e-06 1.11629e-05
0.00219385 -0.000579598 -4.70042e-06
-0.000579598 0.00015568 1.55907e-06
-4.70042e-06 1.55907e-06 -2.05257e-06
0.00224163 -0.000562494 -8.17967e-07
-0.000562494 0.000240853 1.18923e-07
-8.17967e-07 1.18923e-07 6.77035e-05
0.00220487 -0.000550164 1.05997e-06
-0.000550164 0.000184134 3.66058e-06
1.05997e-06 3.66058e-06 5.02568e-06
0.00218131 -0.000541563 7.42147e-07
-0.000541563 0.000245098 -5.39755e-07
7.42147e-07 -5.39755e-07 4.26106e-05
0.00211213 -0.000559475 -3.05754e-06
-0.000559475 0.000210443 -1.6328e-06
-3.05754e-06 -1.6328e-06 -1.28487e-05
0.00220831 -0.000617666 -3.43447e-06
-0.000617666 0.000338716 -4.78449e-06
-3.43447e-06 -4.78449e-06 4.05829e-05
0.00223469 -0.00063812 -5.97361e-07
-0.00063812 0.000284663 6.76103e-08
-5.97361e-07 6.76103e-08 -1.00196e-06
0.00230886 -0.000626033 7.54862e-06
-0.000626033 0.000312342 4.38831e-06
7.54862e-06 4.38831e-06 4.18083e-05
0.0018105 -0.000642429 -1.04045e-05
-0.000642429 0.000292992 1.16472e-06
-1.04045e-05 1.16472e-06 -9.68063e-05
0.00201411 -0.000732469 -1.90754e-06
-0.000732469 0.000315537 -5.58838e-07
-1.90754e-06 -5.58838e-07 -8.1028e-05
0.00182618 -0.000754547 4.91862e-06
-0.000754547 0.000108893 3.01361e-06
4.91862e-06 3.01361e-06 -0.000285568
0.000924883 -0.000313649 -1.33506e-05
-0.000313649 7.75594e-05 8.46917e-06
-1.33506e-05 8.46917e-06 -0.000186845
0.00159114 -0.000623142 5.84075e-07
-0.000623142 0.000332594 6.74875e-07
5.84075e-07 6.74875e-07 -7.55012e-05
0.00215721 -0.000832802 1.53812e-06
-0.000832802 0.00058018 3.53963e-06
1.53812e-06 3.53963e-06 0.000103938
0.000131258 -0.000200551 -1.93035e-05
-0.000200551 -0.000281113 2.10271e-05
-1.93035e-05 2.10271e-05 -0.000420832
0.000642456 -0.000260566 4.35714e-07
-0.000260566 9.25828e-07 5.01753e-07
4.35714e-07 5.01753e-07 -0.000245644
0.000984301 -0.000460773 8.60648e-06
-0.000460773 8.86036e-05 -1.75469e-06
8.60648e-06 -1.75469e-06 -0.000263463
0.00576478 0.00014017 -0.000179877
0.00014017 0.00340793 1.20552e-05
-0.000179877 1.20552e-05 0.00339779
0.000491565 -0.000188442 -6.73632e-06
-0.000188442 -5.19258e-05 -1.18368e-06
-6.73632e-06 -1.18368e-06 -0.000165776
0.000705303 -0.000263818 4.91238e-06
-0.000263818 0.000121492 -4.33981e-06
4.91238e-06 -4.33981e-06 -0.000139425
0.0051603 0.000173004 1.72209e-05
0.000173004 0.00304058 -6.61372e-07
1.72209e-05 -6.61372e-07 0.00302205
0.000614961 -0.000144163 2.73919e-05
-0.000144163 4.53549e-05 -1.4714e-05
2.73919e-05 -1.4714e-05 -5.36302e-05
0.00456864 0.000142029 0.000137692
0.000142029 0.00264719 -1.05486e-05
0.000137692 -1.05486e-05 0.00263897
0.00263995 0.000775568 4.45102e-06
0.000775568 0.001186 3.08882e-06
4.45102e-06 3.08882e-06 0.000705013
0.000762268 0.00033263 -2.51288e-06
0.00033263 7.23649e-05 -2.06221e-06
-2.51288e-06 -2.06221e-06 -0.000193406
0.000642722 0.000202912 6.05655e-06
0.000202912 2.87572e-05 1.1789e-06
6.05655e-06 1.1789e-06 -0.000192997
-0.000726087 7.73693e-05 -1.66607e-06
7.73693e-05 -0.000802189 -3.29779e-06
-1.66607e-06 -3.29779e-06 -0.00101512
0.000298113 0.000184756 1.99594e-06
0.000184756 -8.99485e-05 1.29395e-06
1.99594e-06 1.29395e-06 -0.000327189
0.000962834 0.000178101 -3.30407e-06
0.000178101 0.000319842 -1.08559e-05
-3.30407e-06 -1.08559e-05 0.000103102
9.89093e-05 7.63317e-05 -2.97829e-06
7.63317e-05 -0.000123479 1.44567e-06
-2.97829e-06 1.44567e-06 -0.000398258
0.000732807 0.000109197 2.03817e-07
0.000109197 0.000209134 7.5437e-07
2.03817e-07 7.5437e-07 1.24977e-05
0.000661309 7.23499e-05 -1.2732e-05
7.23499e-05 0.000115493 -1.77902e-05
-1.2732e-05 -1.77902e-05 4.01306e-05
0.00349768 -0.000107973 -9.60801e-05
-0.000107973 0.00195249 -9.34905e-06
-9.60801e-05 -9.34905e-06 0.00195361
0.000393238 2.8797e-05 1.81619e-06
2.8797e-05 -4.11283e-05 -5.29659e-07
1.81619e-06 -5.29659e-07 -9.96635e-05
0.000384656 6.83232e-05 -2.68701e-06
6.83232e-05 -1.85135e-05 9.85001e-06
-2.68701e-06 9.85001e-06 -0.00016884
0.00301586 -0.000110427 -9.90773e-06
-0.000110427 0.00163517 9.6526e-07
-9.90773e-06 9.6526e-07 0.00163546
0.000255079 -5.87742e-05 -8.9008e-06
-5.87742e-05 -0.000121879 1.23639e-05
-8.9008e-06 1.23639e-05 -0.000172919
0.00274954 -8.92419e-05 3.79933e-05
-8.92419e-05 0.00145601 5.63475e-06
3.79933e-05 5.63475e-06 0.00146067
0.0158399 0.000761757 0.000599244
0.000761757 0.00148509 0.000143129
0.000599244 0.000143129 0.00156101
0.000124507 -0.00387607 -0.000727931
-0.00387607 -0.00183318 -9.47688e-05
-0.000727931 -9.47688e-05 -0.00524439
-0.00926399 0.00172667 -0.000261706
0.00172667 0.00564855 -0.000129417
-0.000261706 -0.000129417 -0.00224422
4.70534e-06 7.04796e-05 1.19353e-05
7.04796e-05 -0.000228403 -1.89305e-05
1.19353e-05 -1.89305e-05 -0.00060729
0.00138699 0.000530095 -8.30389e-06
0.000530095 0.000572769 -3.91177e-06
-8.30389e-06 -3.91177e-06 0.00017467
0.00272165 0.000772218 -1.1527e-05
0.000772218 0.00147939 -3.91601e-06
-1.1527e-05 -3.91601e-06 0.000954503
0.00134994 0.000725028 1.2326e-06
0.000725028 0.000396201 -7.26155e-07
1.2326e-06 -7.26155e-07 -0.000116595
0.00164328 0.00080613 1.25504e-05
0.00080613 0.000333595 2.16528e-05
1.25504e-05 2.16528e-05 -0.000149406
-0.000467035 0.000611033 3.44477e-05
0.000611033 -0.000739829 1.13707e-05
3.44477e-05 1.13707e-05 -0.00116151
0.000726499 0.000502431 -1.29937e-05
0.000502431 0.000394905 5.92984e-06
-1.29937e-05 5.92984e-06 -0.000114001
4.84304e-05 0.000747263 7.31857e-06
0.000747263 -0.000496972 -2.96153e-07
7.31857e-06 -2.96153e-07 -0.000886413
0.00227905 0.000981009 1.55413e-05
0.000981009 0.000859781 5.71358e-06
1.55413e-05 5.71358e-06 0.00050752
0.000188018 0.000760332 7.17843e-06
0.000760332 -0.000553425 -4.08557e-06
7.17843e-06 -4.08557e-06 -0.000873952
0.00390121 0.00124166 8.08092e-06
0.00124166 0.00137977 1.2264e-05
8.08092e-06 1.2264e-05 0.00112814
0.00191136 0.00111365 2.36011e-05
0.00111365 0.000309009 6.43494e-06
2.36011e-05 6.43494e-06 -6.56844e-05
0.000781243 0.000969737 6.78572e-06
0.000969737 -0.000357758 -7.24224e-07
6.78572e-06 -7.24224e-07 -0.00046337
0.00115285 0.000683812 -1.03189e-05
0.000683812 0.000363757 -7.10968e-05
-1.03189e-05 -7.10968e-05 0.00010345
0.00427527 0.00224067 2.62008e-05
0.00224067 -0.00275913 3.92076e-05
2.62008e-05 3.92076e-05 -0.000499458
0.0139716 0.00428978 0.000344506
0.00428978 -0.000102473 0.00019615
0.000344506 0.00019615 -0.00138815
0.0136202 -0.00578435 0.000778405
-0.00578435 0.00671244 -7.04629e-05
0.000778405 -7.04629e-05 0.00197311
0.00584368 0.00673886 0.000741777
0.00673886 -0.0013259 0.000392062
0.000741777 0.000392062 -0.00536078
-0.000564329 0.00162988 -5.00149e-05
0.00162988 -5.21214e-05 1.79566e-05
-5.00149e-05 1.79566e-05 0.000647749
0.00358646 0.00294417 -9.47093e-05
0.00294417 -0.00107129 -5.51557e-05
-9.47093e-05 -5.51557e-05 0.000310808
0.00663973 0.00266187 5.74784e-05
0.00266187 0.00110251 3.31954e-05
5.74784e-05 3.31954e-05 0.000891312
0.00518986 0.00199896 2.41172e-05
0.00199896 0.00171539 9.83162e-06
2.41172e-05 9.83162e-06 0.00124079
0.000606446 0.000943296 -3.34633e-05
0.000943296 -7.71404e-05 2.7645e-06
-3.34633e-05 2.7645e-06 -0.000350048
0.00823316 0.00317554 -0.000204111
0.00317554 0.00235328 -1.3648e-05
-0.000204111 -1.3648e-05 0.00147962
0.00376309 -0.000735526 -1.78246e-06
-0.000735526 -0.00128073 2.3419e-05
-1.78246e-06 2.3419e-05 5.95779e-05
0.0118254 -0.000620114 -5.87993e-05
-0.000620114 0.000233259 -3.16758e-05
-5.87993e-05 -3.16758e-05 0.000705329
-0.0131922 -0.00363691 0.00102978
-0.00363691 -0.00444312 -4.5706e-06
0.00102978 -4.5706e-06 -0.00665453
0.00136582 -0.00161197 -0.000136717
-0.00161197 -0.000326979 4.20702e-05
-0.000136717 4.20702e-05 -0.000609276
0.00833073 -0.00322588 -3.879e-05
-0.00322588 -0.00114973 8.97069e-05
-3.879e-05 8.97069e-05 0.000491371
0.00155059 -0.00036425 -0.000369701
-0.00036425 -0.0062123 4.15227e-05
-0.000369701 4.15227e-05 -0.00721198
0.00333152 -0.00135148 3.73343e-05
-0.00135148 -0.000113767 1.50093e-06
3.73343e-05 1.50093e-06 0.00012885
0.00527043 -0.000998272 -6.45549e-05
-0.000998272 -0.00110233 2.10503e-06
-6.45549e-05 2.10503e-06 0.000258329
0.00670544 -0.00112215 5.89388e-05
-0.00112215 0.00158522 -3.71685e-05
5.89388e-05 -3.71685e-05 0.00202515
0.00586078 -0.000635398 0.000121349
-0.000635398 0.000930651 -2.23537e-06
0.000121349 -2.23537e-06 0.00150063
-0.0027573 -0.000510314 1.15497e-05
-0.000510314 -0.00279389 1.17513e-05
1.15497e-05 1.17513e-05 -0.00249989
0.00220679 -0.000779268 -8.97801e-06
-0.000779268 -0.000246038 2.5224e-06
-8.97801e-06 2.5224e-06 -4.72401e-05
0.00246634 -0.000588297 2.54714e-05
-0.000588297 -0.00028346 -6.00398e-06
2.54714e-05 -6.00398e-06 3.03114e-05
0.00203567 -0.000900591 -1.4491e-06
-0.000900591 -0.000150944 3.9866e-06
-1.4491e-06 3.9866e-06 -0.00036576
0.00253043 -0.00073356 1.15899e-06
-0.00073356 -4.27509e-05 1.64362e-06
1.15899e-06 1.64362e-06 -4.97453e-05
0.00257101 -0.000640681 1.05847e-06
-0.000640681 9.84472e-06 -1.46858e-07
1.05847e-06 -1.46858e-07 2.51882e-05
0.00225078 -0.00064673 2.74206e-06
-0.00064673 -1.3165e-05 4.94753e-06
2.74206e-06 4.94753e-06 -0.000117202
0.00237775 -0.0006405 1.47593e-07
-0.0006405 4.88245e-05 3.90302e-07
1.47593e-07 3.90302e-07 4.31812e-06
0.00236875 -0.000562451 -1.79866e-06
-0.000562451 3.6428e-05 4.26724e-08
-1.79866e-06 4.26724e-08 -1.23626e-05
0.00215932 -0.000592053 2.77776e-06
-0.000592053 4.36301e-05 3.78553e-07
2.77776e-06 3.78553e-07 -8.72195e-05
0.00235017 -0.000628108 4.00475e-08
-0.000628108 0.000147945 5.72239e-09
4.00475e-08 5.72239e-09 3.35485e-05
0.00223429 -0.000550776 5.99047e-07
-0.000550776 0.000126983 6.26109e-07
5.99047e-07 6.26109e-07 5.51923e-06
0.00219192 -0.000586615 -2.8748e-06
-0.000586615 0.000143634 -2.67372e-07
-2.8748e-06 -2.67372e-07 -9.64131e-06
0.0021848 -0.000554346 -1.57695e-06
-0.000554346 0.000202606 1.9443e-07
-1.57695e-06 1.9443e-07 3.22647e-05
0.00227252 -0.000546519 -2.36161e-06
-0.000546519 0.000289608 2.97297e-07
-2.36161e-06 2.97297e-07 9.60764e-05
0.0021866 -0.000539518 3.71075e-06
-0.000539518 0.00024686 1.63439e-06
3.71075e-06 1.63439e-06 4.52496e-05
0.00213615 -0.000560149 -3.62626e-07
-0.000560149 0.000223267 -2.47053e-09
-3.62626e-07 -2.47053e-09 1.487e-07
0.00217782 -0.000558997 -1.01419e-06
-0.000558997 0.00028596 -2.31928e-06
-1.01419e-06 -2.31928e-06 3.83365e-05
0.00188756 -0.000554964 -7.51255e-06
-0.000554964 0.000244743 -1.46367e-06
-7.51255e-06 -1.46367e-06 -7.17826e-05
0.0021176 -0.000616236 -4.95096e-07
-0.000616236 0.000279036 -1.41214e-06
-4.95096e-07 -1.41214e-06 -2.56556e-05
0.00230056 -0.000647607 4.6087e-06
-0.000647607 0.000329854 3.13114e-06
4.6087e-06 3.13114e-06 4.07778e-05
0.00110934 -0.000370906 -1.99215e-05
-0.000370906 6.16593e-05 9.42946e-06
-1.99215e-05 9.42946e-06 -0.000217208
0.00187426 -0.000640696 -7.02337e-07
-0.000640696 0.000344623 7.58773e-07
-7.02337e-07 7.58773e-07 -4.20932e-05
0.00196494 -0.000727973 1.92285e-06
-0.000727973 0.000282896 2.67522e-06
1.92285e-06 2.67522e-06 -0.000115927
0.00023959 -0.00021329 -1.76129e-05
-0.00021329 -0.000246779 2.30623e-05
-1.76129e-05 2.30623e-05 -0.000397987
0.00079315 -0.00031585 2.18431e-06
-0.00031585 -1.32644e-05 3.65403e-08
2.18431e-06 3.65403e-08 -0.000282589
0.00165184 -0.000625123 1.15402e-05
-0.000625123 0.000380846 -1.19954e-06
1.15402e-05 -1.19954e-06 -2.60372e-05
0.00682307 5.33273e-05 -0.000258509
5.33273e-05 0.00404608 1.81201e-05
-0.000258509 1.81201e-05 0.00405128
0.000341519 -0.000218992 -2.53349e-06
-0.000218992 -0.000152148 -4.5828e-07
-2.53349e-06 -4.5828e-07 -0.000293646
0.000521912 -0.000259591 9.28414e-06
-0.000259591 -7.42844e-05 -6.97383e-06
9.28414e-06 -6.97383e-06 -0.000326314
0.0061644 0.00010346 -1.2111e-05
0.00010346 0.00366459 -2.6294e-06
-1.2111e-05 -2.6294e-06 0.00365637
0.000439485 -0.000192508 2.24354e-05
-0.000192508 -7.86163e-05 -1.85387e-05
2.24354e-05 -1.85387e-05 -0.000198344
0.00556614 0.000124756 0.000198216
0.000124756 0.00330125 -2.20593e-05
0.000198216 -2.20593e-05 0.00328909
0.00198654 0.000763238 -7.16787e-06
0.000763238 0.000584294 6.72433e-06
-7.16787e-06 6.72433e-06 0.000119111
0.00188578 0.000680292 -1.48514e-06
0.000680292 0.000688202 -1.13746e-06
-1.48514e-06 -1.13746e-06 0.000238123
0.00108931 0.000431705 -3.25634e-06
0.000431705 0.00022554 -9.00063e-07
-3.25634e-06 -9.00063e-07 -0.000111863
0.00129154 0.000428339 -6.66081e-06
0.000428339 0.000450288 -3.67474e-06
-6.66081e-06 -3.67474e-06 0.000144324
0.000499466 0.000219896 7.24219e-07
0.000219896 -3.86104e-05 -1.10037e-06
7.24219e-07 -1.10037e-06 -0.000275828
0.000697869 0.000239843 -3.84581e-06
0.000239843 0.000131078 -6.41206e-06
-3.84581e-06 -6.41206e-06 -0.000118198
0.000384149 0.00011903 5.27578e-07
0.00011903 -4.48693e-05 1.08626e-06
5.27578e-07 1.08626e-06 -0.000268988
0.000688242 0.000161256 1.3251e-06
0.000161256 0.00017851 -8.22514e-07
1.3251e-06 -8.22514e-07 -5.99134e-05
0.000705729 0.000114774 -2.07728e-05
0.000114774 0.000121835 -1.93011e-05
-2.07728e-05 -1.93011e-05 2.74418e-05
4.70818e-07 9.17753e-05 -1.3268e-06
9.17753e-05 -0.000231534 1.12316e-05
-1.3268e-06 1.12316e-05 -0.000438529
0.000516975 7.58662e-05 3.96593e-07
7.58662e-05 2.9147e-05 -2.17313e-07
3.96593e-07 -2.17313e-07 -4.45606e-05
0.00425802 -0.00013505 -0.000123161
-0.00013505 0.00245574 -1.29664e-05
-0.000123161 -1.29664e-05 0.00244788
0.00353528 -0.000135309 -1.28288e-05
-0.000135309 0.00198124 1.15222e-06
-1.28288e-05 1.15222e-06 0.0019752
0.000320114 6.02568e-05 8.22254e-06
6.02568e-05 -8.62579e-05 1.54235e-05
8.22254e-06 1.54235e-05 -0.000143456
0.00302469 -0.000113666 4.60261e-05
-0.000113666 0.00164153 5.96238e-06
4.60261e-05 5.96238e-06 0.00164072
0.0035096 0.000273623 9.93942e-05
0.000273623 -0.00171923 3.48819e-05
9.93942e-05 3.48819e-05 0.000136647
0.0058994 -0.000846693 0.000228636
-0.000846693 -0.00513265 0.000113205
0.000228636 0.000113205 -0.00585848
0.01462 -0.00425744 -0.00028249
-0.00425744 0.00667342 -0.000121994
-0.00028249 -0.000121994 0.00382382
0.00165398 0.000751858 6.60058e-06
0.000751858 0.000122178 1.0438e-05
6.60058e-06 1.0438e-05 -0.000274105
0.00497952 0.00100416 -1.47093e-05
0.00100416 0.00274189 -6.75176e-06
-1.47093e-05 -6.75176e-06 0.00219152
0.000341556 0.000589171 -9.62549e-06
0.000589171 -0.000212646 -9.71151e-06
-9.62549e-06 -9.71151e-06 -0.000689488
0.00160855 0.000872607 1.76672e-06
0.000872607 0.000506714 -2.79151e-06
1.76672e-06 -2.79151e-06 2.30769e-05
0.00188381 0.000834793 -1.45478e-06
0.000834793 0.000505214 4.11018e-06
-1.45478e-06 4.11018e-06 8.93561e-06
0.00180748 0.000910769 2.45426e-05
0.000910769 0.000389265 1.54783e-05
2.45426e-05 1.54783e-05 -4.37093e-05
0.00227377 0.000991301 -4.30438e-05
0.000991301 0.00083866 -5.16461e-06
-4.30438e-05 -5.16461e-06 0.000377538
0.000563261 0.000763567 1.25885e-05
0.000763567 -8.53181e-05 -3.90241e-05
1.25885e-05 -3.90241e-05 -0.000415261
0.00200362 0.00103852 -8.93505e-07
0.00103852 0.000466044 -1.4007e-06
-8.93505e-07 -1.4007e-06 8.32943e-05
0.00239262 0.00107794 1.22448e-05
0.00107794 0.000468513 -1.23383e-05
1.22448e-05 -1.23383e-05 0.000363194
0.00241587 0.0010726 2.14619e-05
0.0010726 0.000429844 -4.12203e-06
2.14619e-05 -4.12203e-06 3.63898e-05
0.00199023 0.00088759 2.90114e-05
0.00088759 0.00025525 2.49865e-05
2.90114e-05 2.49865e-05 4.80893e-05
0.000674844 0.000958011 -8.52318e-06
0.000958011 -0.000352469 -6.68708e-06
-8.52318e-06 -6.68708e-06 -0.000665494
0.000470392 0.000914746 -2.74657e-05
0.000914746 -0.000482434 -2.32821e-05
-2.74657e-05 -2.32821e-05 -0.000585571
0.00200412 0.00103023 5.58199e-05
0.00103023 -0.00113817 3.95154e-05
5.58199e-05 3.95154e-05 -0.000503727
0.00622177 0.00239189 -0.000103354
0.00239189 -0.00181755 -3.3477e-05
-0.000103354 -3.3477e-05 0.000281411
0.00441365 0.00299362 0.000680161
0.00299362 -0.00574623 0.000176938
0.000680161 0.000176938 -0.00695028
0.00303494 0.00252179 -0.000236358
0.00252179 -0.000375253 -9.96591e-05
-0.000236358 -9.96591e-05 0.000691634
0.00517271 0.00218704 -3.18901e-05
0.00218704 0.000811658 -9.72758e-06
-3.18901e-05 -9.72758e-06 0.000707052
0.00608418 0.00215574 -0.000178366
0.00215574 0.00204659 -5.22596e-05
-0.000178366 -5.22596e-05 0.00154014
0.00318262 -0.000237737 -5.15494e-05
-0.000237737 -0.00058619 -1.98957e-05
-5.15494e-05 -1.98957e-05 -8.42286e-05
-0.000683851 -0.000415233 0.000110179
-0.000415233 -0.00190615 2.61282e-05
0.000110179 2.61282e-05 -0.000431329
0.00505408 0.000614462 0.000284411
0.000614462 -0.0056156 -1.83452e-05
0.000284411 -1.83452e-05 -0.00580527
0.000881331 -0.00103829 -6.30327e-05
-0.00103829 -0.00131907 8.01012e-05
-6.30327e-05 8.01012e-05 -0.000865202
0.00691854 -0.00111696 -0.000195074
-0.00111696 -0.000222077 5.76697e-05
-0.000195074 5.76697e-05 0.000664151
0.0029592 -0.000843913 -2.69422e-05
-0.000843913 -0.000543126 1.16056e-05
-2.69422e-05 1.16056e-05 4.94246e-05
0.00468271 -0.000611893 -1.39374e-05
-0.000611893 0.000372636 -2.15214e-06
-1.39374e-05 -2.15214e-06 0.000806107
0.00366415 -0.000461226 7.8305e-05
-0.000461226 0.00034282 -1.32738e-05
7.8305e-05 -1.32738e-05 0.000708331
0.00351522 -0.00012126 5.34852e-05
-0.00012126 0.000757645 -2.82916e-06
5.34852e-05 -2.82916e-06 0.000834961
0.000470307 -0.000611842 -2.06015e-05
-0.000611842 -0.00121046 1.1143e-05
-2.06015e-05 1.1143e-05 -0.000882119
0.00241936 -0.000614226 -3.05191e-06
-0.000614226 -0.00031512 7.22661e-07
-3.05191e-06 7.22661e-07 -2.80332e-05
0.00256323 -0.000491363 3.25446e-06
-0.000491363 -0.000215543 -1.03687e-06
3.25446e-06 -1.03687e-06 2.6926e-05
0.00244939 -0.000721195 -2.14706e-06
-0.000721195 -7.63892e-05 2.40276e-06
-2.14706e-06 2.40276e-06 -8.00207e-05
0.00255503 -0.000620495 -4.84368e-08
-0.000620495 2.67617e-05 -5.87755e-07
-4.84368e-08 -5.87755e-07 5.19322e-05
0.00241745 -0.000479035 -1.31301e-06
-0.000479035 -5.29876e-05 -3.43736e-07
-1.31301e-06 -3.43736e-07 -1.35602e-05
0.00233793 -0.000633673 -6.65852e-07
-0.000633673 4.12325e-05 5.77564e-07
-6.65852e-07 5.77564e-07 -9.20185e-06
0.00235918 -0.000566097 -7.59854e-07
-0.000566097 4.26779e-05 8.39567e-08
-7.59854e-07 8.39567e-08 -4.09526e-06
0.00225255 -0.000473449 -7.85435e-07
-0.000473449 5.58646e-05 6.861e-07
-7.85435e-07 6.861e-07 -7.41008e-06
0.00234702 -0.000623794 -5.66147e-08
-0.000623794 0.000174786 -1.67795e-06
-5.66147e-08 -1.67795e-06 5.61225e-05
0.00221781 -0.000550918 9.67401e-07
-0.000550918 0.000114083 -3.9962e-07
9.67401e-07 -3.9962e-07 -7.70369e-06
0.00215205 -0.000499443 -1.3216e-06
-0.000499443 0.000140282 4.23555e-07
-1.3216e-06 4.23555e-07 -6.82095e-06
0.00212646 -0.000546772 -1.89386e-06
-0.000546772 0.000164018 3.08869e-07
-1.89386e-06 3.08869e-07 -3.67558e-06
0.00221393 -0.000540605 -1.41677e-06
-0.000540605 0.000244842 7.43917e-07
-1.41677e-06 7.43917e-07 5.48039e-05
0.00228009 -0.000532842 -1.38758e-06
-0.000532842 0.000308205 -1.6831e-06
-1.38758e-06 -1.6831e-06 9.7905e-05
0.00215694 -0.000560945 2.86872e-06
-0.000560945 0.000233625 2.39598e-06
2.86872e-06 2.39598e-06 1.06116e-05
0.00217852 -0.000560671 9.54392e-08
-0.000560671 0.000286584 -2.48041e-07
9.54392e-08 -2.48041e-07 4.02572e-05
0.00201004 -0.000497604 -5.50449e-06
-0.000497604 0.000284163 -9.33356e-08
-5.50449e-06 -9.33356e-08 1.31785e-05
0.00120065 -0.00036593 -2.00009e-05
-0.00036593 3.67227e-05 8.41878e-06
-2.00009e-05 8.41878e-06 -0.000229215
0.00189097 -0.000554363 -7.86625e-07
-0.000554363 0.000252547 -8.20226e-07
-7.86625e-07 -8.20226e-07 -6.75403e-05
0.00203031 -0.00061521 1.95713e-06
-0.00061521 0.000221689 1.81215e-06
1.95713e-06 1.81215e-06 -8.96966e-05
0.000316487 -0.00024474 -2.27223e-05
-0.00024474 -0.000206852 1.96333e-05
-2.27223e-05 1.96333e-05 -0.000369488
0.00105686 -0.000368631 2.01808e-06
-0.000368631 2.72508e-05 -7.59126e-08
2.01808e-06 -7.59126e-08 -0.000252663
0.00194198 -0.000640132 8.78621e-06
-0.000640132 0.000397387 1.92485e-07
8.78621e-06 1.92485e-07 1.33565e-05
0.007629 7.50016e-06 -0.000303937
7.50016e-06 0.00452825 2.40632e-05
-0.000303937 2.40632e-05 0.00453803
0.000304057 -0.000263767 -1.1573e-06
-0.000263767 -0.000193993 1.99407e-06
-1.1573e-06 1.99407e-06 -0.000357411
0.000693935 -0.000321288 1.38518e-05
-0.000321288 -8.70411e-05 -7.22817e-06
1.38518e-05 -7.22817e-06 -0.000361562
0.0070831 3.80365e-05 -5.6098e-06
3.80365e-05 0.00421221 3.23885e-08
-5.6098e-06 3.23885e-08 0.00421564
0.000725294 -0.000274105 2.61131e-05
-0.000274105 8.71645e-05 -2.29562e-05
2.61131e-05 -2.29562e-05 -5.91614e-05
0.00645175 0.000103812 0.000239527
0.000103812 0.00385669 -2.90928e-05
0.000239527 -2.90928e-05 0.00384356
0.00171785 0.000694088 -3.04531e-06
0.000694088 0.000233201 8.01949e-06
-3.04531e-06 8.01949e-06 -0.000167001
0.00185463 0.000751256 -1.63703e-06
0.000751256 0.00049362 8.52076e-07
-1.63703e-06 8.52076e-07 2.95007e-05
0.00139931 0.000552141 -8.83617e-06
0.000552141 0.000264658 1.54168e-06
-8.83617e-06 1.54168e-06 -0.00011407
0.00108606 0.000582573 -4.83114e-06
0.000582573 0.000149468 -3.55375e-06
-4.83114e-06 -3.55375e-06 -0.000269012
0.00134993 0.000425119 -4.19719e-06
0.000425119 0.000356821 -2.16758e-06
-4.19719e-06 -2.16758e-06 2.91924e-05
0.000865342 0.000258014 -1.13114e-05
0.000258014 0.00017252 -2.89946e-06
-1.13114e-05 -2.89946e-06 -7.70557e-05
0.000426154 0.000193207 -2.18045e-06
0.000193207 -0.0001042 -3.1333e-06
-2.18045e-06 -3.1333e-06 -0.000337203
0.000670669 0.000194592 8.74598e-07
0.000194592 8.81662e-05 -2.18526e-07
8.74598e-07 -2.18526e-07 -0.000139293
0.000445325 0.000165728 -2.87697e-05
0.000165728 -7.4444e-05 -1.86809e-05
-2.87697e-05 -1.86809e-05 -0.000176191
0.000544922 0.00012936 1.24491e-06
0.00012936 7.55828e-05 1.04338e-05
1.24491e-06 1.04338e-05 -0.000151161
0.000484836 0.000106715 -9.96865e-07
0.000106715 -1.12396e-05 -2.9497e-07
-9.96865e-07 -2.9497e-07 -0.000100161
0.00502964 -0.000159061 -0.000157012
-0.000159061 0.002967 -1.71081e-05
-0.000157012 -1.71081e-05 0.00294919
0.00017683 7.9966e-05 1.27812e-05
7.9966e-05 -0.000181528 1.78344e-05
1.27812e-05 1.78344e-05 -0.000251369
0.0040006 -0.0001555 -1.26349e-05
-0.0001555 0.00229599 1.38936e-06
-1.26349e-05 1.38936e-06 0.00228259
0.00334709 -0.000143099 5.59489e-05
-0.000143099 0.00186077 6.87307e-06
5.59489e-05 6.87307e-06 0.00185192
0.000964573 0.00025331 -1.51947e-06
0.00025331 -0.00189044 1.10776e-05
-1.51947e-06 1.10776e-05 -0.000948296
0.00489635 0.000167155 7.05934e-05
0.000167155 -0.00122692 2.6073e-05
7.05934e-05 2.6073e-05 0.000574678
0.0157201 0.000859107 1.37237e-05
0.000859107 0.00170066 4.34591e-05
1.37237e-05 4.34591e-05 0.00196491
0.00208808 0.000867465 4.49007e-07
0.000867465 0.000344834 6.55547e-06
4.49007e-07 6.55547e-06 -4.41877e-05
0.00221568 0.000806165 1.02548e-06
0.000806165 0.000265823 5.13929e-06
1.02548e-06 5.13929e-06 -7.25509e-05
0.00165326 0.000753295 -6.0389e-07
0.000753295 0.000132299 -4.47639e-06
-6.0389e-07 -4.47639e-06 -0.00025967
0.00315292 0.00107103 -1.59246e-05
0.00107103 0.00142169 -1.34967e-06
-1.59246e-05 -1.34967e-06 0.00089632
0.00218445 0.000868751 -5.74899e-06
0.000868751 0.000715628 -1.12571e-05
-5.74899e-06 -1.12571e-05 0.000204617
0.00219629 0.000987076 7.92025e-06
0.000987076 0.000571226 3.85807e-06
7.92025e-06 3.85807e-06 0.000129159
0.00226687 0.000978818 -1.50228e-06
0.000978818 0.00021597 -2.38496e-06
-1.50228e-06 -2.38496e-06 -0.00013735
0.00221799 0.00110182 -1.53031e-05
0.00110182 0.000530683 1.97344e-06
-1.53031e-05 1.97344e-06 0.000142743
0.000701573 0.00090053 -2.34652e-05
0.00090053 -0.000547503 4.02274e-05
-2.34652e-05 4.02274e-05 -0.000511324
0.00281039 0.00112889 -3.70043e-07
0.00112889 0.000652245 1.95623e-06
-3.70043e-07 1.95623e-06 0.000247914
0.00288581 0.000959552 -4.72809e-06
0.000959552 0.000432122 5.85831e-06
-4.72809e-06 5.85831e-06 0.000193242
0.00150936 0.000452241 4.86536e-05
0.000452241 -0.000232508 1.60529e-05
4.86536e-05 1.60529e-05 -0.000117196
0.00037671 0.000730343 8.08942e-06
0.000730343 -0.000590413 -5.90657e-06
8.08942e-06 -5.90657e-06 -0.000778859
0.000961718 0.00098683 -3.89865e-05
0.00098683 -0.000195745 -3.73221e-06
-3.89865e-05 -3.73221e-06 -0.000514705
0.00353467 0.00117531 1.75124e-05
0.00117531 -0.000269252 1.06809e-05
1.75124e-05 1.06809e-05 0.000202514
0.00834216 0.00216621 -5.35616e-05
0.00216621 -0.000756341 -4.70287e-05
-5.35616e-05 -4.70287e-05 0.000906547
0.00498937 0.00184235 -5.93859e-05
0.00184235 0.0011856 -7.127e-05
-5.93859e-05 -7.127e-05 0.00115919
0.0028707 -9.0921e-05 5.54984e-05
-9.0921e-05 0.000222742 8.31217e-06
5.54984e-05 8.31217e-06 0.000462919
0.00314286 -0.000240071 -7.87894e-05
-0.000240071 -0.000652253 6.0313e-06
-7.87894e-05 6.0313e-06 -1.0668e-05
0.00492967 0.000476825 2.06441e-05
0.000476825 -0.000144325 -2.18325e-05
2.06441e-05 -2.18325e-05 0.000910343
0.000704385 -0.000707936 -7.74505e-05
-0.000707936 -0.00182398 5.73673e-05
-7.74505e-05 5.73673e-05 -0.00115041
0.00281343 -0.000635846 -0.000101365
-0.000635846 -0.000596193 5.22347e-06
-0.000101365 5.22347e-06 -0.000294039
0.00292323 -0.000435253 5.80872e-06
-0.000435253 -7.02773e-05 -2.62449e-06
5.80872e-06 -2.62449e-06 0.000364776
0.00239497 -0.000107073 -1.63051e-05
-0.000107073 3.17761e-05 2.98453e-07
-1.63051e-05 2.98453e-07 0.00013688
0.00256879 -0.000281008 1.36214e-05
-0.000281008 -0.000122798 -3.11957e-06
1.36214e-05 -3.11957e-06 8.08811e-05
0.00232517 3.96208e-05 9.22312e-06
3.96208e-05 -0.000255366 -3.05897e-08
9.22312e-06 -3.05897e-08 -0.000135918
0.00246614 -0.000648748 -1.92242e-05
-0.000648748 -0.000299388 4.60433e-06
-1.92242e-05 4.60433e-06 -4.08715e-05
0.00259522 -0.000513761 -2.71539e-06
-0.000513761 -0.000200855 8.32449e-07
-2.71539e-06 8.32449e-07 2.0615e-06
0.00248508 -0.000352678 -5.61438e-07
-0.000352678 -0.000126813 -6.20498e-07
-5.61438e-07 -6.20498e-07 3.84064e-06
0.0025374 -0.000601472 -3.3672e-06
-0.000601472 3.8468e-05 4.6298e-07
-3.3672e-06 4.6298e-07 7.35652e-05
0.00243019 -0.000478461 1.9227e-07
-0.000478461 -3.23381e-05 -1.5232e-07
1.9227e-07 -1.5232e-07 1.25112e-06
0.00231945 -0.000393012 -5.46704e-08
-0.000393012 -8.36406e-06 1.36877e-07
-5.46704e-08 1.36877e-07 -1.193e-07
0.0023507 -0.000570089 -7.63235e-07
-0.000570089 4.87659e-05 -4.14121e-07
-7.63235e-07 -4.14121e-07 3.7034e-06
0.00226012 -0.00047252 3.92018e-07
-0.00047252 5.58083e-05 -4.11168e-08
3.92018e-07 -4.11168e-08 -7.21194e-06
0.00219129 -0.000425102 -2.30864e-06
-0.000425102 9.10965e-05 1.03904e-06
-2.30864e-06 1.03904e-06 4.3649e-06
0.00220372 -0.000551174 1.93591e-06
-0.000551174 0.000102578 -1.38041e-06
1.93591e-06 -1.38041e-06 -1.95379e-05
0.00214706 -0.000498885 7.60453e-07
-0.000498885 0.000132078 -4.96777e-07
7.60453e-07 -4.96777e-07 -1.51854e-05
0.00214883 -0.000471881 -1.9782e-06
-0.000471881 0.000180423 -6.53409e-07
-1.9782e-06 -6.53409e-07 6.69982e-06
0.00215111 -0.00053451 -3.68428e-07
-0.00053451 0.000197146 1.02088e-06
-3.68428e-07 1.02088e-06 1.06302e-05
0.00221422 -0.00052967 -2.53486e-07
-0.00052967 0.000266242 -1.59041e-07
-2.53486e-07 -1.59041e-07 5.63263e-05
0.00199138 -0.000462142 -4.46882e-06
-0.000462142 0.000218045 -1.1729e-07
-4.46882e-06 -1.1729e-07 -2.22446e-05
0.00217436 -0.00056195 1.92909e-06
-0.00056195 0.000284181 2.60962e-06
1.92909e-06 2.60962e-06 3.92166e-05
0.00203557 -0.000502122 -7.31122e-07
-0.000502122 0.00029976 -3.0578e-08
-7.31122e-07 -3.0578e-08 2.98175e-05
0.00122746 -0.00031803 -1.67602e-05
-0.00031803 1.66508e-05 7.6703e-06
-1.67602e-05 7.6703e-06 -0.000220361
0.000281303 -0.000218191 -1.93315e-05
-0.000218191 -0.000251398 1.91004e-05
-1.93315e-05 1.91004e-05 -0.000403046
0.00119551 -0.000363257 3.11815e-07
-0.000363257 3.70104e-05 3.86582e-09
3.11815e-07 3.86582e-09 -0.000227578
0.0018785 -0.000552818 5.61358e-06
-0.000552818 0.000249193 -6.1695e-07
5.61358e-06 -6.1695e-07 -7.43721e-05
0.00789075 -8.72982e-05 -0.000353234
-8.72982e-05 0.00466966 2.97207e-05
-0.000353234 2.97207e-05 0.00468903
0.00033267 -0.000247124 -9.61458e-07
-0.000247124 -0.000207218 1.27755e-06
-9.61458e-07 1.27755e-06 -0.000365593
0.000921345 -0.00036008 1.86258e-05
-0.00036008 -5.48187e-05 -7.63851e-06
1.86258e-05 -7.63851e-06 -0.000334985
0.00780807 -3.26955e-05 3.81465e-07
-3.26955e-05 0.00463864 1.15225e-06
3.81465e-07 1.15225e-06 0.0046511
0.000473868 -0.000273021 2.54488e-05
-0.000273021 -9.38082e-05 -2.21322e-05
2.54488e-05 -2.21322e-05 -0.000257832
0.00743424 -7.98221e-06 0.00031675
-7.98221e-06 0.00442421 -3.13744e-05
0.00031675 -3.13744e-05 0.00443276
0.00194262 0.000728572 1.09963e-06
0.000728572 0.000218763 8.24921e-06
1.09963e-06 8.24921e-06 -0.000136742
0.00179812 0.00070897 3.68286e-07
0.00070897 0.000288183 5.29922e-07
3.68286e-07 5.29922e-07 -0.00011284
0.0018277 0.000620443 -7.36601e-06
0.000620443 0.000392982 3.69218e-06
-7.36601e-06 3.69218e-06 1.34201e-05
0.00166555 0.000728979 3.62447e-06
0.000728979 0.000374321 -5.02977e-06
3.62447e-06 -5.02977e-06 -8.55726e-05
0.00145198 0.000554466 -6.49506e-07
0.000554466 0.000300753 4.83634e-07
-6.49506e-07 4.83634e-07 -7.87858e-05
0.000978938 0.00029418 -1.37006e-05
0.00029418 0.000125618 -4.08629e-06
-1.37006e-05 -4.08629e-06 -0.000125426
0.00145844 0.000415376 2.65652e-06
0.000415376 0.000409163 -1.31177e-06
2.65652e-06 -1.31177e-06 8.89601e-05
0.000591572 0.000220365 1.08679e-06
0.000220365 -8.29685e-06 7.03365e-07
1.08679e-06 7.03365e-07 -0.000247129
0.000446889 0.000229157 -3.06848e-05
0.000229157 -8.79615e-05 -2.10494e-05
-3.06848e-05 -2.10494e-05 -0.000209534
0.000591093 0.000148855 2.46015e-06
0.000148855 4.6995e-05 6.66525e-06
2.46015e-06 6.66525e-06 -0.000187079
0.000510778 0.000149002 6.19057e-07
0.000149002 -2.85283e-05 -8.60949e-07
6.19057e-07 -8.60949e-07 -0.000129338
0.00601782 -0.000182894 -0.00019494
-0.000182894 0.00361555 -2.39365e-05
-0.00019494 -2.39365e-05 0.00358461
0.000349454 0.000100702 1.77992e-05
0.000100702 -8.90985e-05 1.96184e-05
1.77992e-05 1.96184e-05 -0.00017651
0.00477952 -0.000190954 -1.2742e-05
-0.000190954 0.0028159 1.54452e-06
-1.2742e-05 1.54452e-06 0.00278961
0.003929 -0.000175839 7.95737e-05
-0.000175839 0.00225356 9.18242e-06
7.95737e-05 9.18242e-06 0.00223484
0.00164008 0.000245855 3.90956e-05
0.000245855 -0.000376153 2.25161e-05
3.90956e-05 2.25161e-05 -6.53408e-05
0.00239781 0.000319048 -2.78123e-05
0.000319048 -0.00146141 -3.04581e-06
-2.78123e-05 -3.04581e-06 -0.000453512
0.00477962 0.000511408 0.000252806
0.000511408 -0.00168093 7.72004e-05
0.000252806 7.72004e-05 0.000516742
0.0025693 0.000861029 -8.28028e-06
0.000861029 0.000417611 4.79171e-07
-8.28028e-06 4.79171e-07 9.43714e-05
0.00200106 0.000882519 -7.97448e-06
0.000882519 0.000273147 -5.55148e-06
-7.97448e-06 -5.55148e-06 -0.00011359
0.00234708 0.000657961 2.20975e-06
0.000657961 0.000232666 5.1671e-06
2.20975e-06 5.1671e-06 -8.06369e-06
0.00230837 0.000804389 1.57099e-06
0.000804389 0.00032801 5.09161e-07
1.57099e-06 5.09161e-07 -8.29729e-06
0.00162597 0.000752039 2.9347e-06
0.000752039 0.000124636 -1.34945e-05
2.9347e-06 -1.34945e-05 -0.000262308
0.00248621 0.000757552 -3.49602e-06
0.000757552 0.000139205 9.60527e-07
-3.49602e-06 9.60527e-07 -5.72748e-05
0.00273475 0.0010811 -8.51132e-06
0.0010811 0.00084394 -6.3096e-06
-8.51132e-06 -6.3096e-06 0.000386458
0.002604 0.000986502 5.65225e-07
0.000986502 0.000429328 1.8644e-07
5.65225e-07 1.8644e-07 7.08399e-05
0.00215968 0.000476319 -1.71443e-05
0.000476319 -0.000236471 4.55175e-08
-1.71443e-05 4.55175e-08 -0.000180383
0.00345513 0.00122537 -7.89104e-06
0.00122537 0.00099116 1.10447e-05
-7.89104e-06 1.10447e-05 0.000587559
0.00261518 0.000932862 -3.18305e-07
0.000932862 0.000282882 -8.66429e-07
-3.18305e-07 -8.66429e-07 4.36771e-05
0.000668486 0.000443837 -5.96345e-06
0.000443837 -0.000740358 1.61096e-06
-5.96345e-06 1.61096e-06 -0.000586051
-0.00156531 0.000536186 -2.6485e-05
0.000536186 -0.00159824 -1.08062e-05
-2.6485e-05 -1.08062e-05 -0.00174736
0.00379091 0.00126992 -0.000142141
0.00126992 -0.000130695 -5.01733e-05
-0.000142141 -5.01733e-05 0.000215441
0.00246529 0.000147985 -4.8413e-07
0.000147985 -0.000150506 -1.77419e-06
-4.8413e-07 -1.77419e-06 -9.20918e-06
0.00282452 -6.70599e-05 -2.75413e-06
-6.70599e-05 0.000293825 4.92079e-07
-2.75413e-06 4.92079e-07 0.000455843
0.00266461 -0.000274494 -0.000105575
-0.000274494 -0.000981568 -1.66442e-06
-0.000105575 -1.66442e-06 -0.000212171
0.00177213 -0.000393529 -7.74637e-05
-0.000393529 -0.000728807 1.09794e-05
-7.74637e-05 1.09794e-05 -0.000227421
0.00195115 -0.000114055 -2.02664e-05
-0.000114055 -0.000273933 3.73276e-06
-2.02664e-05 3.73276e-06 -0.000142824
0.00253338 -0.000285129 2.73329e-06
-0.000285129 -0.000160139 -1.30271e-06
2.73329e-06 -1.30271e-06 7.18118e-05
0.00254822 4.84394e-05 -3.33531e-06
4.84394e-05 -0.000131076 2.6469e-07
-3.33531e-06 2.6469e-07 -1.39863e-05
0.00252214 -7.30265e-05 -9.85419e-07
-7.30265e-05 -0.00013064 -6.5774e-07
-9.85419e-07 -6.5774e-07 2.27766e-05
0.00261684 -0.000532328 -3.59491e-06
-0.000532328 -0.000185102 3.99008e-07
-3.59491e-06 3.99008e-07 -2.17504e-05
0.00243394 -0.000338871 3.36041e-07
-0.000338871 -0.000139871 -2.04304e-07
3.36041e-07 -2.04304e-07 -1.80163e-05
0.00236334 -0.000258651 7.04016e-07
-0.000258651 -4.27438e-05 -1.71868e-07
7.04016e-07 -1.71868e-07 3.66807e-05
0.00244622 -0.000478335 5.05742e-08
-0.000478335 -8.64927e-06 3.1616e-07
5.05742e-08 3.1616e-07 1.87485e-05
0.00231453 -0.000390038 1.42099e-07
-0.000390038 -8.26592e-06 1.57442e-07
1.42099e-07 1.57442e-07 -1.63408e-06
0.00221045 -0.000329575 -2.13092e-06
-0.000329575 4.39965e-05 7.63175e-07
-2.13092e-06 7.63175e-07 1.48643e-05
0.00226652 -0.000471432 1.47571e-06
-0.000471432 5.48743e-05 -6.65738e-07
1.47571e-06 -6.65738e-07 -7.86865e-06
0.00218839 -0.000426014 5.58594e-07
-0.000426014 8.4964e-05 -1.0458e-07
5.58594e-07 -1.0458e-07 -1.99027e-06
0.00218585 -0.000401756 -3.08545e-06
-0.000401756 0.00015523 5.67169e-07
-3.08545e-06 5.67169e-07 2.41523e-05
0.00214149 -0.000498324 2.17988e-06
-0.000498324 0.000123583 -1.17847e-06
2.17988e-06 -1.17847e-06 -2.38341e-05
0.00214423 -0.000471431 -1.13946e-07
-0.000471431 0.000176724 -3.09731e-07
-1.13946e-07 -3.09731e-07 2.63606e-06
0.002026 -0.000416249 -2.96834e-06
-0.000416249 0.000186228 -3.70218e-07
-2.96834e-06 -3.70218e-07 -1.96255e-05
0.00215115 -0.00052658 1.10066e-06
-0.00052658 0.000225844 1.15854e-06
1.10066e-06 1.15854e-06 1.63515e-05
0.00201233 -0.000463339 -6.59898e-07
-0.000463339 0.000233682 1.31373e-07
-6.59898e-07 1.31373e-07 -6.45709e-06
0.00121713 -0.000278558 -1.3359e-05
-0.000278558 -1.22381e-05 6.31344e-06
-1.3359e-05 6.31344e-06 -0.000227849
0.00206613 -0.000506848 4.51184e-06
-0.000506848 0.000318674 3.36629e-07
4.51184e-06 3.36629e-07 4.97912e-05
0.00125233 -0.0003194 1.02313e-07
-0.0003194 2.81637e-05 1.71684e-07
1.02313e-07 1.71684e-07 -0.000208077
0.00285101 -0.000217036 -5.44415e-05
-0.000217036 0.00136051 1.40025e-05
-5.44415e-05 1.40025e-05 0.00124182
0.00252724 -0.000124086 -0.000287467
-0.000124086 0.00125822 4.18482e-05
-0.000287467 4.18482e-05 0.00124035
0.00162567 -0.000235798 -1.58533e-05
-0.000235798 0.000598338 9.94462e-08
-1.58533e-05 9.94462e-08 0.000457264
0.00121701 -0.000362213 1.88415e-05
-0.000362213 5.57908e-05 -7.89907e-06
1.88415e-05 -7.89907e-06 -0.000207633
0.0078168 -9.63107e-05 -1.03916e-05
-9.63107e-05 0.00463324 2.16297e-06
-1.03916e-05 2.16297e-06 0.00464725
0.000152253 -0.000269338 2.45441e-05
-0.000269338 -0.000318206 -2.05447e-05
2.45441e-05 -2.05447e-05 -0.000479999
0.00793679 -4.75253e-05 0.000335459
-4.75253e-05 0.00472632 -3.4699e-05
0.000335459 -3.4699e-05 0.00473394
0.00212162 0.000503163 9.72946e-09
0.000503163 9.21365e-05 1.24451e-06
9.72946e-09 1.24451e-06 -8.18192e-05
0.00228191 0.000662109 3.89967e-06
0.000662109 0.00033651 6.97078e-06
3.89967e-06 6.97078e-06 5.49607e-05
0.00226057 0.000753549 5.58384e-07
0.000753549 0.000416503 1.2922e-07
5.58384e-07 1.2922e-07 6.08033e-05
0.00200163 0.000631857 -6.00407e-06
0.000631857 0.000384006 4.07003e-06
-6.00407e-06 4.07003e-06 3.0501e-05
0.00190891 0.000729423 6.32646e-06
0.000729423 0.000357736 -6.20974e-06
6.32646e-06 -6.20974e-06 -4.5874e-05
0.00173948 0.000617081 -2.6539e-07
0.000617081 0.000327231 9.9484e-07
-2.6539e-07 9.9484e-07 -5.40216e-05
0.000691676 0.000327812 -2.25163e-05
0.000327812 -0.000154328 -4.54503e-06
-2.25163e-05 -4.54503e-06 -0.000420227
0.00145478 0.00055484 9.29544e-06
0.00055484 0.000298748 -3.99297e-07
9.29544e-06 -3.99297e-07 -8.16857e-05
0.000620297 0.000276943 -2.59731e-08
0.000276943 -8.77461e-05 -3.7975e-07
-2.59731e-08 -3.7975e-07 -0.00033424
0.000468518 0.000292171 -3.03141e-05
0.000292171 -8.39175e-05 -2.2068e-05
-3.03141e-05 -2.2068e-05 -0.000236173
0.000345726 0.000194699 7.62447e-06
0.000194699 -0.000168198 6.92137e-07
7.62447e-06 6.92137e-07 -0.000398013
0.000401761 0.00020258 3.62596e-06
0.00020258 -0.000117479 -1.44687e-06
3.62596e-06 -1.44687e-06 -0.000236801
0.00716597 -9.07257e-05 -0.000272171
-9.07257e-05 0.00429767 -2.86746e-05
-0.000272171 -2.86746e-05 0.00428591
0.000455817 0.000135144 2.49484e-05
0.000135144 -5.83366e-05 1.91536e-05
2.49484e-05 1.91536e-05 -0.000155425
0.00564896 -0.000174576 1.30529e-06
-0.000174576 0.00335995 -1.68488e-06
1.30529e-06 -1.68488e-06 0.0033378
0.00446505 -0.000206257 0.000103237
-0.000206257 0.00261952 1.28258e-05
0.000103237 1.28258e-05 0.00258896
0.00244132 0.000236158 -7.25791e-06
0.000236158 -0.000217837 -5.7636e-07
-7.25791e-06 -5.7636e-07 -2.62887e-05
0.0018657 0.00019495 1.44904e-05
0.00019495 -0.000446465 -3.65976e-06
1.44904e-05 -3.65976e-06 -4.33843e-05
0.00471662 0.000441808 -0.000129555
0.000441808 -0.000507606 -4.42689e-06
-0.000129555 -4.42689e-06 0.000553558
0.00238132 0.000609497 -2.39791e-06
0.000609497 0.000164221 1.21978e-06
-2.39791e-06 1.21978e-06 -6.85063e-06
0.002407 0.000830982 -4.47619e-06
0.000830982 0.000364855 -4.7314e-07
-4.47619e-06 -4.7314e-07 4.82114e-05
0.00194572 0.000898695 -2.43744e-06
0.000898695 0.000221602 -1.09478e-05
-2.43744e-06 -1.09478e-05 -0.000162286
0.0023774 0.000646371 2.511e-06
0.000646371 0.000268249 1.53337e-06
2.511e-06 1.53337e-06 3.07651e-05
0.002417 0.000804778 -8.95134e-07
0.000804778 0.000400451 -6.33849e-06
-8.95134e-07 -6.33849e-06 6.56047e-05
0.00258763 0.000482992 -5.8222e-07
0.000482992 -3.33769e-06 6.76635e-07
-5.8222e-07 6.76635e-07 3.14668e-05
0.002467 0.000760527 -6.23574e-07
0.000760527 0.000144236 -1.68609e-07
-6.23574e-07 -1.68609e-07 -5.14909e-05
0.0028467 0.000985134 -6.57768e-06
0.000985134 0.000588051 -3.66069e-06
-6.57768e-06 -3.66069e-06 0.000225727
0.00215824 0.000459317 1.02699e-07
0.000459317 -0.000200448 -3.62668e-07
1.02699e-07 -3.62668e-07 -0.000142286
0.00239712 0.000903183 1.63686e-05
0.000903183 0.000153247 1.43249e-06
1.63686e-05 1.43249e-06 -8.57204e-05
-0.000183646 0.000397885 -4.33639e-05
0.000397885 -0.00125734 -1.81747e-05
-4.33639e-05 -1.81747e-05 -0.00105992
0.0024666 0.000101969 2.2919e-07
0.000101969 -8.70289e-05 4.39463e-08
2.2919e-07 4.39463e-08 3.11071e-05
0.00235529 0.000151113 -7.81171e-07
0.000151113 -0.000229441 1.42487e-06
-7.81171e-07 1.42487e-06 -8.65711e-05
0.00290547 -5.12179e-05 -5.57667e-05
-5.12179e-05 0.000433223 -6.11011e-06
-5.57667e-05 -6.11011e-06 0.000525874
0.00242221 -0.000283472 -2.43786e-05
-0.000283472 -0.000253915 5.5153e-06
-2.43786e-05 5.5153e-06 9.10175e-06
0.00273386 6.21024e-05 -2.52577e-06
6.21024e-05 -3.66593e-05 2.71931e-07
-2.52577e-06 2.71931e-07 7.63666e-05
0.00248857 -8.2709e-05 -4.77013e-07
-8.2709e-05 -0.000167345 -6.54335e-07
-4.77013e-07 -6.54335e-07 -8.75467e-06
0.00221828 -7.53804e-05 2.40788e-07
-7.53804e-05 -6.68891e-05 -8.02431e-08
2.40788e-07 -8.02431e-08 4.41192e-07
0.00237657 -0.00032425 7.06451e-07
-0.00032425 -0.000155696 -2.52817e-07
7.06451e-07 -2.52817e-07 -4.30862e-05
0.00231256 -0.000265083 -6.6097e-08
-0.000265083 -6.97025e-05 -1.09037e-08
-6.6097e-08 -1.09037e-08 2.35872e-06
0.0021574 -0.000221441 -6.34755e-07
-0.000221441 -7.39194e-06 -1.12712e-07
-6.34755e-07 -1.12712e-07 -5.81372e-06
0.00231008 -0.000387061 5.92931e-08
-0.000387061 -8.05178e-06 3.69258e-07
5.92931e-08 3.69258e-07 -2.99961e-06
0.00219928 -0.000329793 5.46415e-08
-0.000329793 3.2392e-05 1.83257e-07
5.46415e-08 1.83257e-07 3.30553e-06
0.00223874 -0.00031954 -4.36425e-06
-0.00031954 0.000127554 1.31954e-06
-4.36425e-06 1.31954e-06 4.53193e-05
0.00218892 -0.000427102 2.94449e-06
-0.000427102 8.07946e-05 -1.11514e-06
2.94449e-06 -1.11514e-06 -6.41307e-06
0.0021301 -0.000397287 1.1042e-07
-0.000397287 0.000118741 -3.80469e-07
1.1042e-07 -3.80469e-07 -1.19635e-05
0.00200723 -0.000346731 -1.88619e-06
-0.000346731 0.000129858 -5.35377e-07
-1.88619e-06 -5.35377e-07 -3.79269e-05
0.00213513 -0.000470828 2.52541e-06
-0.000470828 0.000169826 -1.51201e-07
2.52541e-06 -1.51201e-07 -4.63431e-06
0.00205402 -0.000417907 -6.21657e-07
-0.000417907 0.000207257 6.41921e-08
-6.21657e-07 6.41921e-08 1.38923e-06
0.00121694 -0.000243474 -1.0292e-05
-0.000243474 -3.41878e-05 4.8358e-06
-1.0292e-05 4.8358e-06 -0.000232424
0.00203189 -0.000464358 3.52213e-06
-0.000464358 0.000248633 1.1678e-07
3.52213e-06 1.1678e-07 8.68335e-06
0.00125963 -0.000281625 -1.04293e-07
-0.000281625 6.07004e-06 2.04206e-07
-1.04293e-07 2.04206e-07 -0.000208951
0.00284383 -0.000204657 -6.21281e-05
-0.000204657 0.0013507 1.36037e-05
-6.21281e-05 1.36037e-05 0.00124222
0.00126801 -0.000320611 1.59254e-05
-0.000320611 3.34753e-05 -7.20594e-06
1.59254e-05 -7.20594e-06 -0.000202087
0.00298979 -0.000253139 5.3178e-05
-0.000253139 0.00145091 -8.78533e-06
5.3178e-05 -8.78533e-06 0.00134123
0.00246973 -0.000154399 -0.000281572
-0.000154399 0.00122867 4.63321e-05
-0.000281572 4.63321e-05 0.00120813
0.00490245 -0.000149732 -0.000276219
-0.000149732 0.00278886 3.16268e-05
-0.000276219 3.16268e-05 0.0027856
0.0030659 -0.000313927 0.000175492
-0.000313927 0.00152012 -3.01635e-05
0.000175492 -3.01635e-05 0.00140756
0.00773858 -0.000109249 0.00033773
-0.000109249 0.00459302 -3.84596e-05
0.00033773 -3.84596e-05 0.00460324
0.00230808 0.000492145 -1.83292e-06
0.000492145 0.000171467 -4.02918e-07
-1.83292e-06 -4.02918e-07 4.33635e-05
0.00209368 0.000520741 4.43552e-08
0.000520741 0.000181443 2.20573e-06
4.43552e-08 2.20573e-06 -2.9985e-05
0.00217704 0.000497551 3.23812e-07
0.000497551 0.000135774 -1.06502e-06
3.23812e-07 -1.06502e-06 -3.01932e-05
0.00201397 0.000560892 -4.57125e-06
0.000560892 0.000276949 3.79101e-06
-4.57125e-06 3.79101e-06 -1.82197e-05
0.00232582 0.000668263 6.34962e-07
0.000668263 0.000349203 2.30057e-07
6.34962e-07 2.30057e-07 6.73221e-05
0.00256732 0.000778614 -1.02349e-06
0.000778614 0.000607282 -7.34132e-06
-1.02349e-06 -7.34132e-06 0.000251184
0.00189893 0.000624492 7.08329e-07
0.000624492 0.000313052 3.33741e-07
7.08329e-07 3.33741e-07 -4.04232e-05
0.00119133 0.000389643 -2.9877e-05
0.000389643 7.29661e-05 -6.4792e-06
-2.9877e-05 -6.4792e-06 -0.000201706
0.00167722 0.00061527 9.47289e-06
0.00061527 0.000280147 -1.41576e-06
9.47289e-06 -1.41576e-06 -0.000102934
0.00100782 0.000347087 -2.86865e-06
0.000347087 4.46762e-05 1.60991e-07
-2.86865e-06 1.60991e-07 -0.000221416
0.000224751 0.000278144 -2.77629e-05
0.000278144 -0.000256311 -2.03401e-05
-2.77629e-05 -2.03401e-05 -0.000417259
0.000715905 0.000273957 1.36641e-05
0.000273957 -2.114e-05 3.52297e-06
1.36641e-05 3.52297e-06 -0.000262825
0.00024763 0.000242064 2.59667e-06
0.000242064 -0.000226054 9.73028e-07
2.59667e-06 9.73028e-07 -0.000370549
0.00788514 2.97554e-06 -0.000317134
2.97554e-06 0.00471708 -3.49622e-05
-0.000317134 -3.49622e-05 0.00471429
0.000210471 0.000162679 2.57396e-05
0.000162679 -0.000238417 2.00534e-05
2.57396e-05 2.00534e-05 -0.000353091
0.00668909 -0.000129154 6.65731e-06
-0.000129154 0.00399652 -2.63426e-06
6.65731e-06 -2.63426e-06 0.00398221
0.00531153 -0.000211935 0.00014002
-0.000211935 0.00315837 1.38337e-05
0.00014002 1.38337e-05 0.00312647
0.0024977 0.000280405 5.48298e-07
0.000280405 -7.47165e-05 8.05523e-07
5.48298e-07 8.05523e-07 3.26341e-05
0.00231463 0.000239334 2.11625e-06
0.000239334 -0.000249332 -6.23531e-07
2.11625e-06 -6.23531e-07 -5.83858e-05
0.00177408 0.000144136 -6.78281e-05
0.000144136 -0.000696553 -1.2541e-05
-6.78281e-05 -1.2541e-05 -0.000196254
0.00232689 0.000429464 1.32815e-06
0.000429464 3.50265e-06 7.2378e-07
1.32815e-06 7.2378e-07 -1.95695e-05
0.00231511 0.000601967 -9.50755e-07
0.000601967 0.000142261 1.29091e-07
-9.50755e-07 1.29091e-07 -2.67066e-05
0.00219798 0.000795796 6.62897e-06
0.000795796 0.000283244 -3.12844e-06
6.62897e-06 -3.12844e-06 -2.5878e-05
0.00241682 0.000634885 -1.12786e-06
0.000634885 0.00030956 -3.21605e-06
-1.12786e-06 -3.21605e-06 7.54693e-05
0.00251939 0.000464213 -1.06136e-06
0.000464213 -2.84194e-05 -2.43692e-07
-1.06136e-06 -2.43692e-07 8.07961e-06
0.00239492 0.000759208 -2.63803e-06
0.000759208 0.000119328 9.25488e-08
-2.63803e-06 9.25488e-08 -7.44155e-05
0.00202531 0.000440104 1.57374e-05
0.000440104 -0.000204481 -6.71343e-07
1.57374e-05 -6.71343e-07 -0.000144821
0.00226468 7.69759e-05 2.24426e-06
7.69759e-05 -4.78868e-05 2.79787e-07
2.24426e-06 2.79787e-07 1.04663e-05
0.00241612 9.74005e-05 2.6063e-07
9.74005e-05 -0.000103033 8.78346e-08
2.6063e-07 8.78346e-08 1.19031e-05
0.00224897 0.000159875 -7.80808e-06
0.000159875 -0.000302147 -1.94263e-06
-7.80808e-06 -1.94263e-06 -0.000157481
0.00211624 -1.29675e-05 -1.63845e-06
-1.29675e-05 -3.57467e-05 1.37649e-07
-1.63845e-06 1.37649e-07 -4.15205e-06
0.00248533 -9.88202e-05 1.54846e-06
-9.88202e-05 -0.000180696 5.47916e-07
1.54846e-06 5.47916e-07 -1.66894e-05
0.00222832 -7.91232e-05 -4.26001e-07
-7.91232e-05 -6.29366e-05 4.09782e-07
-4.26001e-07 4.09782e-07 3.75754e-06
0.0020903 -0.000117783 -2.17864e-06
-0.000117783 -3.64565e-05 3.21812e-07
-2.17864e-06 3.21812e-07 -2.44656e-05
0.00226235 -0.000271362 -2.95879e-07
-0.000271362 -9.56718e-05 2.0373e-07
-2.95879e-07 2.0373e-07 -3.15e-05
0.0021576 -0.000218127 9.54035e-07
-0.000218127 -6.77234e-06 -3.90059e-07
9.54035e-07 -3.90059e-07 -4.27281e-06
0.00224193 -0.000224552 -3.60558e-06
-0.000224552 9.7954e-05 3.89206e-07
-3.60558e-06 3.89206e-07 5.08445e-05
0.00218918 -0.000329725 2.3699e-06
-0.000329725 2.15684e-05 -5.94273e-07
2.3699e-06 -5.94273e-07 -7.43127e-06
0.00218896 -0.000314148 3.73511e-07
-0.000314148 9.94261e-05 -1.88301e-07
3.73511e-07 -1.88301e-07 1.74896e-05
0.00201251 -0.000266379 -9.59222e-07
-0.000266379 0.000106054 -7.22396e-07
-9.59222e-07 -7.22396e-07 -2.54889e-05
0.00207612 -0.000392622 3.5432e-06
-0.000392622 8.41694e-05 -1.35684e-06
3.5432e-06 -1.35684e-06 -4.60792e-05
0.00206821 -0.000350257 -5.41222e-07
-0.000350257 0.000169128 8.03911e-08
-5.41222e-07 8.03911e-08 1.04582e-06
0.00123981 -0.000203863 -7.89006e-06
-0.000203863 -3.28525e-05 3.27327e-06
-7.89006e-06 3.27327e-06 -0.00021383
0.00208347 -0.000419428 2.37773e-06
-0.000419428 0.000229701 1.43597e-07
2.37773e-06 1.43597e-07 2.38801e-05
0.00126704 -0.000245569 -3.02871e-07
-0.000245569 -1.16644e-05 2.59107e-07
-3.02871e-07 2.59107e-07 -0.000208901
0.00278768 -0.000189624 -6.87033e-05
-0.000189624 0.0013189 1.29183e-05
-6.87033e-05 1.29183e-05 0.0012165
0.00129575 -0.000284534 1.25312e-05
-0.000284534 1.98576e-05 -5.97996e-06
1.25312e-05 -5.97996e-06 -0.000194547
0.00293096 -0.000224153 4.87466e-05
-0.000224153 0.00140649 -6.90839e-06
4.87466e-05 -6.90839e-06 0.00130725
0.00246579 -0.00013085 -0.000274833
-0.00013085 0.00121684 4.04863e-05
-0.000274833 4.04863e-05 0.00119899
0.00310735 -0.000258863 0.000167476
-0.000258863 0.00152046 -3.07599e-05
0.000167476 -3.07599e-05 0.00142292
0.00206337 -9.07542e-05 -0.000111814
-9.07542e-05 0.000971019 1.72183e-05
-0.000111814 1.72183e-05 0.000935763
0.00709448 -4.60419e-05 0.000111728
-4.60419e-05 0.00416689 -6.69038e-06
0.000111728 -6.69038e-06 0.00414774
0.0022901 0.000417877 -1.32241e-06
0.000417877 0.000118483 -2.83428e-07
-1.32241e-06 -2.83428e-07 4.1023e-05
0.00223692 0.000468636 -3.60602e-06
0.000468636 0.000202702 -6.38497e-07
-3.60602e-06 -6.38497e-07 3.86293e-05
0.0022824 0.000491002 -3.23542e-06
0.000491002 0.000149401 -3.52874e-08
-3.23542e-06 -3.52874e-08 1.99388e-05
0.00199646 0.000478498 -2.92721e-06
0.000478498 0.00020059 1.24838e-06
-2.92721e-06 1.24838e-06 -4.54756e-05
0.00206054 0.000526682 -1.30499e-06
0.000526682 0.000139709 -2.43387e-06
-1.30499e-06 -2.43387e-06 -6.70415e-05
0.0022209 0.000491081 -3.49739e-06
0.000491081 0.000171804 -3.54276e-06
-3.49739e-06 -3.54276e-06 1.40776e-05
0.00132328 0.000361584 -2.60422e-05
0.000361584 5.56503e-05 -6.56687e-06
-2.60422e-05 -6.56687e-06 -0.000192152
0.00197254 0.00055812 1.42559e-06
0.00055812 0.000251264 4.6307e-07
1.42559e-06 4.6307e-07 -4.40833e-05
0.0023665 0.000673907 1.24193e-06
0.000673907 0.0003595 -6.16879e-06
1.24193e-06 -6.16879e-06 7.74264e-05
0.00181141 0.000619647 7.7696e-06
0.000619647 0.000249725 -3.32515e-06
7.7696e-06 -3.32515e-06 -0.000104428
0.00114352 0.000384578 -1.33517e-06
0.000384578 3.70708e-05 -1.20302e-07
-1.33517e-06 -1.20302e-07 -0.000236626
0.000299537 0.000259968 -2.56095e-05
0.000259968 -0.000227233 -1.87645e-05
-2.56095e-05 -1.87645e-05 -0.000385963
0.00101119 0.000348344 2.30307e-05
0.000348344 4.92384e-05 7.45668e-06
2.30307e-05 7.45668e-06 -0.000215701
0.000317338 0.000270466 1.68886e-06
0.000270466 -0.000193776 1.61169e-06
1.68886e-06 1.61169e-06 -0.000355289
0.00786978 9.3173e-05 -0.000326905
9.3173e-05 0.00469179 -4.1398e-05
-0.000326905 -4.1398e-05 0.00468987
0.000300091 0.000218807 2.40498e-05
0.000218807 -0.000197851 2.18321e-05
2.40498e-05 2.18321e-05 -0.000338738
0.00759268 -4.21861e-05 6.20355e-06
-4.21861e-05 0.00452872 -1.81837e-07
6.20355e-06 -1.81837e-07 0.0045279
0.00634551 -0.00015997 0.000198142
-0.00015997 0.00377718 1.34923e-05
0.000198142 1.34923e-05 0.00376155
0.00226252 0.000225714 7.13242e-07
0.000225714 -3.55495e-05 1.71803e-07
7.13242e-07 1.71803e-07 3.82812e-06
0.00246638 0.000286319 -4.66406e-07
0.000286319 -0.00010601 7.32843e-07
-4.66406e-07 7.32843e-07 3.89371e-06
0.00227161 0.000240043 2.88089e-06
0.000240043 -0.000258746 2.18961e-07
2.88089e-06 2.18961e-07 -6.69458e-05
0.00232873 0.000424182 -1.15266e-09
0.000424182 6.234e-06 1.75035e-07
-1.15266e-09 1.75035e-07 -1.43823e-05
0.00225829 0.000594475 -4.43704e-08
0.000594475 0.000128855 -1.05551e-06
-4.43704e-08 -1.05551e-06 -3.81072e-05
0.00249144 0.000448084 2.56647e-06
0.000448084 -3.56995e-05 -3.40252e-07
2.56647e-06 -3.40252e-07 1.30538e-06
0.00216052 7.03153e-05 6.05762e-07
7.03153e-05 -1.99194e-05 1.75772e-07
6.05762e-07 1.75772e-07 5.71953e-06
0.00225061 7.41461e-05 3.98274e-07
7.41461e-05 -5.4098e-05 -2.22456e-07
3.98274e-07 -2.22456e-07 5.1547e-06
0.00234543 9.27664e-05 -8.94323e-07
9.27664e-05 -0.000135043 -1.82096e-07
-8.94323e-07 -1.82096e-07 -2.20703e-05
0.00212735 -1.05736e-05 -8.15785e-07
-1.05736e-05 -2.80459e-05 2.38221e-08
-8.15785e-07 2.38221e-08 1.46775e-06
0.00208773 -3.60382e-05 -4.75085e-06
-3.60382e-05 1.16022e-05 4.95442e-07
-4.75085e-06 4.95442e-07 1.63695e-05
0.00223653 -8.25024e-05 -5.90743e-07
-8.25024e-05 -6.08875e-05 1.08059e-07
-5.90743e-07 1.08059e-07 5.55758e-06
0.00210927 -0.000118054 -1.50129e-06
-0.000118054 -1.79034e-05 2.67924e-07
-1.50129e-06 2.67924e-07 -9.61117e-06
0.00215433 -0.000143042 -6.32606e-06
-0.000143042 4.01193e-05 5.94564e-07
-6.32606e-06 5.94564e-07 9.21426e-06
0.0021569 -0.000215048 2.82078e-06
-0.000215048 -6.59445e-06 -7.84203e-07
2.82078e-06 -7.84203e-07 -3.23113e-06
0.00222147 -0.000225089 2.26518e-06
-0.000225089 8.85751e-05 -4.46702e-07
2.26518e-06 -4.46702e-07 4.13823e-05
0.00203121 -0.000197742 3.71468e-07
-0.000197742 9.99467e-05 -7.18086e-07
3.71468e-07 -7.18086e-07 -6.38713e-06
0.00213395 -0.000309652 4.26915e-06
-0.000309652 6.7661e-05 -1.58074e-06
4.26915e-06 -1.58074e-06 -1.4133e-05
0.00205101 -0.000270396 -3.58159e-07
-0.000270396 0.000119978 -8.11254e-08
-3.58159e-07 -8.11254e-08 -1.20768e-05
0.00122525 -0.000162632 -7.40207e-06
-0.000162632 -4.12153e-05 2.00586e-06
-7.40207e-06 2.00586e-06 -0.000206342
0.002129 -0.000353869 1.74085e-06
-0.000353869 0.000207895 2.9245e-07
1.74085e-06 2.9245e-07 3.94886e-05
0.00126657 -0.000203046 -3.72621e-07
-0.000203046 -2.32232e-05 2.52312e-07
-3.72621e-07 2.52312e-07 -0.000202831
0.00268353 -0.000181922 -7.03041e-05
-0.000181922 0.00126061 1.08686e-05
-7.03041e-05 1.08686e-05 0.00116325
0.00131746 -0.000247832 9.55624e-06
-0.000247832 1.0663e-05 -4.42093e-06
9.55624e-06 -4.42093e-06 -0.000185569
0.00286373 -0.000188351 4.64999e-05
-0.000188351 0.00136217 -5.30073e-06
4.64999e-05 -5.30073e-06 0.00127086
0.00244265 -0.0001077 -0.000271368
-0.0001077 0.00119621 3.3751e-05
-0.000271368 3.3751e-05 0.00117983
0.00301831 -0.000214868 0.000163151
-0.000214868 0.00145336 -2.61595e-05
0.000163151 -2.61595e-05 0.00136738
0.00204686 -8.97439e-05 -0.000101722
-8.97439e-05 0.000955837 1.36062e-05
-0.000101722 1.36062e-05 0.000922681
0.00171818 -8.6743e-05 6.95664e-05
-8.6743e-05 0.000765914 -1.16619e-05
6.95664e-05 -1.16619e-05 0.000710268
0.00216768 0.000261195 -9.09293e-07
0.000261195 5.95975e-06 -4.48167e-07
-9.09293e-07 -4.48167e-07 -1.53472e-05
0.00219755 0.00038118 -4.27852e-06
0.00038118 0.000128825 -5.16069e-07
-4.27852e-06 -5.16069e-07 1.53804e-05
0.00225057 0.000417561 -3.99283e-07
0.000417561 7.33602e-05 -1.84848e-07
-3.99283e-07 -1.84848e-07 5.58027e-06
0.00214273 0.000439182 -2.9923e-07
0.000439182 0.000221891 1.14789e-06
-2.9923e-07 1.14789e-06 1.81645e-05
0.00220979 0.000465277 -1.74967e-06
0.000465277 0.000192235 -6.41539e-07
-1.74967e-06 -6.41539e-07 2.65831e-05
0.00226142 0.000491015 2.31645e-06
0.000491015 0.000130196 1.36489e-07
2.31645e-06 1.36489e-07 -1.05121e-06
0.00132486 0.000308287 -1.91175e-05
0.000308287 1.7574e-05 -5.66623e-06
-1.91175e-05 -5.66623e-06 -0.000201347
0.00196699 0.000482794 1.54137e-06
0.000482794 0.000173327 -5.48979e-07
1.54137e-06 -5.48979e-07 -6.76985e-05
0.00204688 0.000534605 -2.10956e-06
0.000534605 0.000110521 -5.74867e-06
-2.10956e-06 -5.74867e-06 -9.20927e-05
0.000295318 0.000208619 -2.23275e-05
0.000208619 -0.000256589 -1.60809e-05
-2.23275e-05 -1.60809e-05 -0.00039896
0.00126839 0.000356403 -3.9431e-07
0.000356403 2.53497e-05 9.49591e-08
-3.9431e-07 9.49591e-08 -0.000222325
0.00192307 0.000554897 6.26797e-06
0.000554897 0.000219773 -3.08792e-06
6.26797e-06 -3.08792e-06 -7.57363e-05
0.00116861 0.000382795 3.08982e-05
0.000382795 5.26577e-05 7.32241e-06
3.08982e-05 7.32241e-06 -0.000219969
0.000267224 0.000246337 5.58222e-07
0.000246337 -0.000242694 1.01407e-06
5.58222e-07 1.01407e-06 -0.000401322
0.00760924 0.000191777 -0.00033025
0.000191777 0.00451712 -4.57277e-05
-0.00033025 -4.57277e-05 0.00451571
0.00027807 0.000247026 2.35669e-05
0.000247026 -0.000214486 1.911e-05
2.35669e-05 1.911e-05 -0.000373181
0.00785104 6.94946e-05 7.7219e-06
6.94946e-05 0.00466776 9.04569e-07
7.7219e-06 9.04569e-07 0.0046746
0.00731751 -7.64786e-05 0.000263836
-7.64786e-05 0.00435129 1.79892e-05
0.000263836 1.79892e-05 0.00435077
0.00218013 0.000136572 -1.34026e-06
0.000136572 9.52524e-06 -2.94138e-07
-1.34026e-06 -2.94138e-07 2.73365e-05
0.00224372 0.00023018 6.69717e-07
0.00023018 -5.14024e-05 4.21615e-07
6.69717e-07 4.21615e-07 -1.46807e-05
0.00241588 0.000292135 -8.73746e-08
0.000292135 -0.000143796 -9.16688e-07
-8.73746e-08 -9.16688e-07 -3.15933e-05
0.00232485 0.000417784 1.01554e-06
0.000417784 4.81841e-06 -7.8776e-07
1.01554e-06 -7.8776e-07 -1.26056e-05
0.0020563 2.62714e-05 -4.69017e-06
2.62714e-05 2.08804e-05 3.95611e-07
-4.69017e-06 3.95611e-07 7.67381e-06
0.00215853 6.14675e-05 -1.82393e-08
6.14675e-05 -2.14954e-05 -7.44175e-08
-1.82393e-08 -7.44175e-08 5.55866e-06
0.002242 7.1207e-05 -1.51596e-06
7.1207e-05 -5.58652e-05 -2.38249e-09
-1.51596e-06 -2.38249e-09 3.56642e-06
0.00213346 -7.52064e-06 -1.31697e-06
-7.52064e-06 -2.32039e-05 -1.23702e-07
-1.31697e-06 -1.23702e-07 4.06918e-06
0.00209533 -3.03965e-05 -7.31985e-07
-3.03965e-05 1.14234e-05 -1.88948e-07
-7.31985e-07 -1.88948e-07 1.81935e-05
0.00195481 -6.17566e-05 -5.57104e-06
-6.17566e-05 -6.80217e-05 6.17496e-07
-5.57104e-06 6.17496e-07 -0.000104738
0.00212551 -0.000118439 2.48766e-06
-0.000118439 -1.11495e-06 -4.79268e-08
2.48766e-06 -4.79268e-08 3.40114e-06
0.00212673 -0.000144682 -1.81147e-06
-0.000144682 2.91553e-05 3.73754e-07
-1.81147e-06 3.73754e-07 -9.18672e-06
0.00218065 -0.00013902 -1.98788e-06
-0.00013902 0.000187603 8.86879e-08
-1.98788e-06 8.86879e-08 0.00010312
0.00221085 -0.000224908 7.67319e-06
-0.000224908 8.49444e-05 -1.23034e-06
7.67319e-06 -1.23034e-06 3.78321e-05
0.00203457 -0.000196456 1.03127e-06
-0.000196456 9.21993e-05 -5.27813e-07
1.03127e-06 -5.27813e-07 -1.34187e-05
0.00116537 -0.000122039 -8.93249e-06
-0.000122039 -6.64123e-05 1.35075e-06
-8.93249e-06 1.35075e-06 -0.000218855
0.00210835 -0.000272915 1.44859e-06
-0.000272915 0.000147649 2.25918e-07
1.44859e-06 2.25918e-07 1.554e-05
0.00121234 -0.000159965 -1.33683e-07
-0.000159965 -4.90464e-05 6.64031e-08
-1.33683e-07 6.64031e-08 -0.000212977
0.000326836 -9.3804e-05 -1.85946e-05
-9.3804e-05 -0.00025184 6.2394e-06
-1.85946e-05 6.2394e-06 -0.000357598
0.0012866 -0.000201923 7.14858e-06
-0.000201923 -1.81692e-05 -2.86014e-06
7.14858e-06 -2.86014e-06 -0.00019638
0.00157502 -0.000120975 6.8378e-05
-0.000120975 0.000539978 -5.54774e-06
6.8378e-05 -5.54774e-06 0.000447296
0.00691192 -0.00017791 -0.000358852
-0.00017791 0.00406388 2.82638e-05
-0.000358852 2.82638e-05 0.00408666
0.00294519 -0.000170055 0.000159187
-0.000170055 0.00140325 -2.05408e-05
0.000159187 -2.05408e-05 0.00132546
0.00202796 -8.41928e-05 -9.21052e-05
-8.41928e-05 0.000943944 8.85256e-06
-9.21052e-05 8.85256e-06 0.000910577
0.00163916 -0.000106494 8.15967e-05
-0.000106494 0.000720305 -1.3512e-05
8.15967e-05 -1.3512e-05 0.000663559
0.00211026 0.000173742 -2.57873e-06
0.000173742 1.8407e-05 -9.19102e-07
-2.57873e-06 -9.19102e-07 -9.02477e-07
0.00217555 0.000293361 -2.78514e-06
0.000293361 8.27659e-05 -1.90344e-07
-2.78514e-06 -1.90344e-07 8.15213e-06
0.00217152 0.000254218 -2.31383e-07
0.000254218 2.01999e-05 -1.03053e-07
-2.31383e-07 -1.03053e-07 -6.80665e-06
0.00206206 0.000348164 -6.28997e-07
0.000348164 0.000128949 1.34258e-06
-6.28997e-07 1.34258e-06 -2.67152e-05
0.00219488 0.00038109 7.31178e-07
0.00038109 0.000128343 1.3389e-07
7.31178e-07 1.3389e-07 1.51683e-05
0.00220877 0.000417181 5.53088e-07
0.000417181 2.68871e-05 -3.67804e-07
5.53088e-07 -3.67804e-07 -3.14134e-05
0.00137182 0.00027009 -1.36869e-05
0.00027009 2.79207e-05 -3.33237e-06
-1.36869e-05 -3.33237e-06 -0.000164059
0.00210747 0.000433463 1.8978e-06
0.000433463 0.000199598 3.05266e-07
1.8978e-06 3.05266e-07 -2.42985e-06
0.00217147 0.00046055 1.25618e-06
0.00046055 0.000174989 -1.32231e-06
1.25618e-06 -1.32231e-06 8.26981e-06
0.000330217 0.000148678 -1.93114e-05
0.000148678 -0.000255468 -1.24549e-05
-1.93114e-05 -1.24549e-05 -0.000379754
0.00127226 0.000305047 5.44603e-07
0.000305047 -1.21413e-05 4.86586e-07
5.44603e-07 4.86586e-07 -0.000228035
0.00192356 0.000484624 5.99683e-06
0.000484624 0.000138107 -3.23395e-06
5.99683e-06 -3.23395e-06 -9.71967e-05
0.00737564 0.000259343 -0.000336447
0.000259343 0.004362 -4.52161e-05
-0.000336447 -4.52161e-05 0.00436343
0.000302551 0.000202331 -8.3647e-08
0.000202331 -0.000254493 7.04046e-07
-8.3647e-08 7.04046e-07 -0.000397445
0.0012188 0.000351859 2.73023e-05
0.000351859 -1.35336e-06 7.10769e-06
2.73023e-05 7.10769e-06 -0.000249021
0.0002618 0.000232856 2.24752e-05
0.000232856 -0.000243802 1.82465e-05
2.24752e-05 1.82465e-05 -0.000402626
0.00766313 0.000184323 1.12478e-05
0.000184323 0.00454536 2.17478e-06
1.12478e-05 2.17478e-06 0.00455014
0.00777799 3.19334e-05 0.000320305
3.19334e-05 0.00460885 2.51986e-05
0.000320305 2.51986e-05 0.0046208
0.00204019 8.16801e-05 -6.25533e-06
8.16801e-05 1.72763e-05 -2.13483e-08
-6.25533e-06 -2.13483e-08 -1.86978e-06
0.00216975 0.000132042 2.66459e-08
0.000132042 4.25441e-06 -1.3832e-08
2.66459e-08 -1.3832e-08 2.01137e-05
0.00222499 0.000234561 -2.13416e-07
0.000234561 -6.78042e-05 -1.65124e-07
-2.13416e-07 -1.65124e-07 -3.33177e-05
0.00197679 6.97933e-06 -7.12848e-06
6.97933e-06 -2.66544e-05 3.32764e-07
-7.12848e-06 3.32764e-07 -7.15512e-05
0.00204247 3.1693e-05 6.83957e-07
3.1693e-05 7.81286e-06 6.26552e-09
6.83957e-07 6.26552e-09 -2.08291e-06
0.00215823 5.16302e-05 -1.10375e-06
5.16302e-05 -2.24017e-05 -2.52029e-08
-1.10375e-06 -2.52029e-08 6.21466e-06
0.00210717 -2.51131e-05 2.71027e-06
-2.51131e-05 1.35976e-05 -3.16137e-07
2.71027e-06 -3.16137e-07 2.26575e-05
0.00202076 -6.08447e-05 -8.84481e-07
-6.08447e-05 -2.12273e-05 6.39545e-08
-8.84481e-07 6.39545e-08 -5.645e-05
0.00192029 -6.84218e-05 -2.01354e-06
-6.84218e-05 3.17419e-05 7.00631e-08
-2.01354e-06 7.00631e-08 -5.6937e-05
0.00211209 -0.000146448 4.11079e-06
-0.000146448 2.8261e-05 -1.14767e-07
4.11079e-06 -1.14767e-07 -1.74788e-05
0.00203661 -0.000139281 7.41877e-07
-0.000139281 9.64424e-05 -1.6035e-08
7.41877e-07 -1.6035e-08 2.54174e-06
0.00135177 -7.84846e-05 -1.02372e-05
-7.84846e-05 6.63667e-05 4.35802e-07
-1.02372e-05 4.35802e-07 -6.40929e-05
0.00202212 -0.000196872 2.08331e-06
-0.000196872 7.40865e-05 -4.62001e-07
2.08331e-06 -4.62001e-07 -3.12586e-05
0.00115533 -0.000117005 3.21245e-08
-0.000117005 -7.08009e-05 4.78961e-08
3.21245e-08 4.78961e-08 -0.000221938
0.000320858 -2.55493e-05 -1.72923e-05
-2.55493e-05 -0.000255189 3.11782e-06
-1.72923e-05 3.11782e-06 -0.00035297
0.00120568 -0.000156282 6.49762e-06
-0.000156282 -5.54796e-05 -1.84535e-06
6.49762e-06 -1.84535e-06 -0.000217997
0.000339659 -7.80558e-05 -4.29761e-07
-7.80558e-05 -0.000241641 4.97605e-07
-4.29761e-07 4.97605e-07 -0.000347433
0.00685176 -6.82034e-05 -0.000348775
-6.82034e-05 0.00401902 1.77851e-05
-0.000348775 1.77851e-05 0.00404758
0.000418394 -8.25976e-05 1.33804e-05
-8.25976e-05 -0.000199409 -8.60424e-06
1.33804e-05 -8.60424e-06 -0.000311198
0.00437208 -0.000116205 0.000151258
-0.000116205 0.0024474 -8.49731e-06
0.000151258 -8.49731e-06 0.00243166
0.0016019 -9.51001e-05 8.72596e-05
-9.51001e-05 0.000696021 -1.28897e-05
8.72596e-05 -1.28897e-05 0.000640519
0.00210088 0.000139353 -7.61235e-06
0.000139353 6.37491e-05 -7.13486e-07
-7.61235e-06 -7.13486e-07 3.74194e-05
0.00219155 0.000214707 -4.52778e-06
0.000214707 0.000106939 -2.6866e-07
-4.52778e-06 -2.6866e-07 4.22212e-05
0.00209912 0.000167812 -7.24142e-07
0.000167812 1.60338e-05 -2.04032e-07
-7.24142e-07 -2.04032e-07 -3.42825e-06
0.00202372 0.000273949 -5.38082e-07
0.000273949 9.25879e-05 7.91463e-07
-5.38082e-07 7.91463e-07 -4.19502e-05
0.00220548 0.000292912 -1.17532e-07
0.000292912 9.85299e-05 -1.14091e-07
-1.17532e-07 -1.14091e-07 2.26797e-05
0.00217631 0.000247408 2.35556e-06
0.000247408 3.53324e-05 6.24833e-07
2.35556e-06 6.24833e-07 2.72957e-06
0.00128837 0.000211569 -9.15845e-06
0.000211569 -2.11759e-05 -1.84854e-06
-9.15845e-06 -1.84854e-06 -0.000190721
0.00206466 0.000345568 2.59144e-06
0.000345568 0.000142946 8.8693e-07
2.59144e-06 8.8693e-07 -1.97365e-05
0.00219043 0.000381102 3.0709e-06
0.000381102 0.000126165 -2.34308e-07
3.0709e-06 -2.34308e-07 1.32413e-05
0.000331847 0.000104919 -1.75126e-05
0.000104919 -0.000260059 -9.15953e-06
-1.75126e-05 -9.15953e-06 -0.000372969
0.00132249 0.000263633 2.28985e-07
0.000263633 7.84265e-07 7.50982e-07
2.28985e-07 7.50982e-07 -0.000189399
0.00207445 0.000428395 4.60675e-06
0.000428395 0.000178999 -2.06614e-07
4.60675e-06 -2.06614e-07 -2.16298e-05
0.0071524 0.000301831 -0.000350357
0.000301831 0.00422662 -4.31048e-05
-0.000350357 -4.31048e-05 0.00422871
0.00032382 0.000149227 2.14628e-07
0.000149227 -0.000263538 4.24246e-07
2.14628e-07 4.24246e-07 -0.000388935
0.00121436 0.000303082 1.89154e-05
0.000303082 -4.69603e-05 5.31318e-06
1.89154e-05 5.31318e-06 -0.000260284
0.00739358 0.000278992 1.32931e-05
0.000278992 0.00438307 4.50986e-06
1.32931e-05 4.50986e-06 0.00438168
0.000298379 0.000195622 2.04109e-05
0.000195622 -0.000259786 1.61636e-05
2.04109e-05 1.61636e-05 -0.000403184
0.0076152 0.000155877 0.000344656
0.000155877 0.00450089 3.47131e-05
0.000344656 3.47131e-05 0.0045156
0.00196143 6.31456e-05 -7.22873e-06
6.31456e-05 -3.24292e-05 2.11515e-07
-7.22873e-06 2.11515e-07 -8.11841e-05
0.00205284 8.81506e-05 -1.01665e-06
8.81506e-05 3.03608e-05 -1.92942e-07
-1.01665e-06 -1.92942e-07 1.08437e-05
0.00216024 0.000127944 1.18464e-06
0.000127944 5.85645e-07 2.12417e-07
1.18464e-06 2.12417e-07 1.42224e-05
0.00190187 -9.91238e-06 -1.30212e-06
-9.91238e-06 2.77222e-05 -1.04491e-09
-1.30212e-06 -1.04491e-09 -5.97104e-05
0.00201799 8.53151e-06 -1.15877e-06
8.53151e-06 1.40533e-06 1.48647e-08
-1.15877e-06 1.48647e-08 -4.02411e-05
0.00202742 3.8082e-05 4.93903e-06
3.8082e-05 -5.85695e-06 -9.79341e-08
4.93903e-06 -9.79341e-08 -1.25775e-05
0.00209767 -6.01451e-05 3.58691e-06
-6.01451e-05 3.34968e-05 -4.49431e-07
3.58691e-06 -4.49431e-07 -1.84516e-07
0.00197199 -6.86556e-05 6.29455e-07
-6.86556e-05 6.88573e-05 1.57169e-07
6.29455e-07 1.57169e-07 -1.85984e-05
0.00128878 -3.55672e-05 -1.05338e-05
-3.55672e-05 3.6675e-05 -3.747e-07
-1.05338e-05 -3.747e-07 -8.61137e-05
0.00186778 -0.000139255 9.7613e-07
-0.000139255 -1.29532e-05 1.74331e-08
9.7613e-07 1.74331e-08 -0.000116339
0.00122386 -7.73523e-05 1.70015e-06
-7.73523e-05 -1.65141e-05 -2.29008e-07
1.70015e-06 -2.29008e-07 -0.000152487
0.000318767 -9.41902e-06 -1.77138e-05
-9.41902e-06 -0.000254675 1.57145e-06
-1.77138e-05 1.57145e-06 -0.000347736
0.00113784 -0.000113474 8.21607e-06
-0.000113474 -7.74174e-05 -1.20865e-06
8.21607e-06 -1.20865e-06 -0.000227493
0.000303305 -3.81727e-05 6.10272e-07
-3.81727e-05 -0.000265889 -2.60404e-07
6.10272e-07 -2.60404e-07 -0.000363068
0.0066603 -0.000164361 -0.000350661
-0.000164361 0.00391651 1.93929e-05
-0.000350661 1.93929e-05 0.0039381
0.000328771 -6.16467e-05 1.69019e-05
-6.16467e-05 -0.000247365 -4.71767e-06
1.69019e-05 -4.71767e-06 -0.000352191
0.00678197 -0.000105101 7.58543e-06
-0.000105101 0.00397901 4.57746e-08
7.58543e-06 4.57746e-08 0.00400656
0.00191732 -4.18211e-05 0.000268159
-4.18211e-05 0.000864931 -1.92967e-05
0.000268159 -1.92967e-05 0.000856325
0.00207719 0.000144387 -7.55374e-06
0.000144387 4.34073e-05 -5.34826e-07
-7.55374e-06 -5.34826e-07 -1.62015e-05
0.00205225 0.000140431 -1.60326e-06
0.000140431 2.15757e-05 -1.51617e-07
-1.60326e-06 -1.51617e-07 2.91726e-07
0.00202388 0.000204314 -2.27552e-08
0.000204314 9.16842e-05 8.04407e-07
-2.27552e-08 8.04407e-07 -2.17959e-05
0.00219464 0.000214025 7.80644e-07
0.000214025 0.00010529 6.49564e-09
7.80644e-07 6.49564e-09 4.12021e-05
0.00208609 0.000161657 3.41678e-06
0.000161657 1.17163e-05 3.76196e-07
3.41678e-06 3.76196e-07 -7.72046e-06
0.00122177 0.000159145 -7.39727e-06
0.000159145 -4.25729e-05 -1.2862e-06
-7.39727e-06 -1.2862e-06 -0.000203546
0.00207964 0.000274598 3.1436e-07
0.000274598 0.000137611 -7.7517e-08
3.1436e-07 -7.7517e-08 3.20794e-06
0.00223866 0.000292296 4.06675e-06
0.000292296 0.000116899 7.55123e-07
4.06675e-06 7.55123e-07 3.97936e-05
0.000344027 7.54979e-05 -1.68993e-05
7.54979e-05 -0.000248476 -6.53257e-06
-1.68993e-05 -6.53257e-06 -0.000355095
0.00126561 0.000210157 1.22274e-06
0.000210157 -3.06317e-05 6.95898e-07
1.22274e-06 6.95898e-07 -0.000204126
0.00209042 0.000343981 1.98075e-06
0.000343981 0.000173687 1.42699e-08
1.98075e-06 1.42699e-08 4.04924e-06
0.0069724 0.000301415 -0.000364996
0.000301415 0.00412403 -3.94054e-05
-0.000364996 -3.94054e-05 0.00412694
0.00035338 0.000109969 4.45481e-07
0.000109969 -0.000249812 2.12429e-07
4.45481e-07 2.12429e-07 -0.000364149
0.00127208 0.000256827 1.10996e-05
0.000256827 -2.77494e-05 4.1303e-06
1.10996e-05 4.1303e-06 -0.000215934
0.00722774 0.000328012 9.75251e-06
0.000328012 0.00428674 5.29157e-06
9.75251e-06 5.29157e-06 0.00428312
0.000339867 0.000149714 1.80702e-05
0.000149714 -0.00025774 1.29608e-05
1.80702e-05 1.29608e-05 -0.000384088
0.00746825 0.000285517 0.00035799
0.000285517 0.00442318 4.49465e-05
0.00035799 4.49465e-05 0.00442694
0.00188821 5.9778e-05 3.03878e-07
5.9778e-05 2.12167e-05 2.51346e-08
3.03878e-07 2.51346e-08 -7.09296e-05
0.00202313 6.46312e-05 -3.13967e-06
6.46312e-05 1.63399e-05 -1.13972e-07
-3.13967e-06 -1.13972e-07 -3.333e-05
0.0020663 9.41805e-05 6.29355e-06
9.41805e-05 4.39633e-05 1.21846e-07
6.29355e-06 1.21846e-07 2.40857e-05
0.00123454 -1.24216e-05 -1.09586e-05
-1.24216e-05 7.1694e-06 -3.65212e-07
-1.09586e-05 -3.65212e-07 -0.000113475
0.00195404 -6.46398e-06 1.18867e-06
-6.46398e-06 6.59246e-05 5.27974e-08
1.18867e-06 5.27974e-08 -2.07886e-05
0.00206154 9.52681e-06 3.54676e-06
9.52681e-06 3.12429e-05 -1.82597e-07
3.54676e-06 -1.82597e-07 -6.99848e-06
0.00201452 -6.91878e-05 2.86689e-06
-6.91878e-05 9.96434e-05 1.84818e-07
2.86689e-06 1.84818e-07 1.32074e-05
0.00125124 -3.71946e-05 1.38862e-06
-3.71946e-05 8.61906e-06 -1.22083e-07
1.38862e-06 -1.22083e-07 -0.000114536
0.00033558 -3.24956e-05 -1.85386e-05
-3.24956e-05 -0.00024101 5.58676e-07
-1.85386e-05 5.58676e-07 -0.000329496
0.00109037 -7.53339e-05 1.18072e-05
-7.53339e-05 -0.000102811 -8.43239e-07
1.18072e-05 -8.43239e-07 -0.00024426
0.000317993 1.81042e-06 3.30709e-07
1.81042e-06 -0.000256794 9.52123e-08
3.30709e-07 9.52123e-08 -0.000348417
0.00655093 -0.000132578 -0.000351204
-0.000132578 0.00384618 1.45774e-05
-0.000351204 1.45774e-05 0.00387159
0.000346451 -4.64651e-05 1.80906e-05
-4.64651e-05 -0.000236747 -2.8385e-06
1.80906e-05 -2.8385e-06 -0.000334879
0.00666441 -5.88993e-05 -2.72184e-06
-5.88993e-05 0.00390512 3.25445e-06
-2.72184e-06 3.25445e-06 0.00393547
0.00676704 -0.000119467 0.000350661
-0.000119467 0.00397119 -1.74476e-05
0.000350661 -1.74476e-05 0.0039989
0.00199925 0.000130722 -5.70476e-07
0.000130722 8.75794e-05 2.785e-07
-5.70476e-07 2.785e-07 -1.21817e-05
0.00209432 0.000143024 -2.62537e-06
0.000143024 4.82003e-05 -3.32608e-07
-2.62537e-06 -3.32608e-07 -5.77512e-06
0.0020021 0.000141853 5.62528e-06
0.000141853 -2.17391e-05 5.45986e-07
5.62528e-06 5.45986e-07 -3.80052e-05
0.00119011 0.000111124 -9.70898e-06
0.000111124 -4.67677e-05 -4.13821e-07
-9.70898e-06 -4.13821e-07 -0.000194468
0.00205831 0.00020338 2.17727e-07
0.00020338 0.000118594 -1.27301e-07
2.17727e-07 -1.27301e-07 5.24229e-06
0.00219501 0.000213193 4.61589e-06
0.000213193 0.000101811 8.47864e-09
4.61589e-06 8.47864e-09 3.83297e-05
0.000337828 5.10672e-05 -1.65373e-05
5.10672e-05 -0.000246332 -4.26727e-06
-1.65373e-05 -4.26727e-06 -0.000347837
0.00120547 0.000161392 2.22911e-07
0.000161392 -5.04822e-05 2.09112e-07
2.22911e-07 2.09112e-07 -0.000212862
0.00211574 0.000274647 9.96655e-07
0.000274647 0.000169346 -1.22537e-06
9.96655e-07 -1.22537e-06 3.49427e-05
0.00681694 0.000248429 -0.000373353
0.000248429 0.00402355 -3.19586e-05
-0.000373353 -3.19586e-05 0.00403593
0.000354241 8.28444e-05 8.09581e-07
8.28444e-05 -0.000243564 2.02771e-07
8.09581e-07 2.02771e-07 -0.000352042
0.00121695 0.000207299 7.04824e-06
0.000207299 -5.85872e-05 2.94538e-06
7.04824e-06 2.94538e-06 -0.000235875
0.00705985 0.000319771 5.11763e-06
0.000319771 0.00418427 3.49088e-06
5.11763e-06 3.49088e-06 0.00418498
0.000373285 0.00011671 1.69951e-05
0.00011671 -0.000239206 1.00457e-05
1.69951e-05 1.00457e-05 -0.000355549
0.00731253 0.000365762 0.000370955
0.000365762 0.00435153 5.14166e-05
0.000370955 5.14166e-05 0.00434233
0.00110156 3.18617e-05 -1.14859e-05
3.18617e-05 -7.99738e-05 -4.56192e-07
-1.14859e-05 -4.56192e-07 -0.000211577
0.00198472 5.74509e-05 1.27346e-06
5.74509e-05 8.46726e-05 -6.50886e-09
1.27346e-06 -6.50886e-09 -2.17315e-06
0.00208668 6.66271e-05 3.02779e-06
6.66271e-05 6.57448e-05 -5.27047e-08
3.02779e-06 -5.27047e-08 1.5282e-05
0.000384191 3.20699e-05 -1.90574e-05
3.20699e-05 -0.000217128 -1.14737e-06
-1.90574e-05 -1.14737e-06 -0.000296362
0.00121229 -7.422e-06 1.04757e-06
-7.422e-06 -1.05597e-05 3.15676e-09
1.04757e-06 3.15676e-09 -0.000131228
0.00200146 -1.4695e-06 3.45569e-06
-1.4695e-06 0.000100696 -4.59028e-08
3.45569e-06 -4.59028e-08 1.46386e-05
0.00121902 -3.84614e-05 1.31195e-05
-3.84614e-05 -1.67444e-05 -2.57918e-07
1.31195e-05 -2.57918e-07 -0.000140192
0.000342362 -6.04642e-06 4.48808e-07
-6.04642e-06 -0.000237215 3.9224e-07
4.48808e-07 3.9224e-07 -0.000325472
0.00641135 5.62752e-06 -0.000351543
5.62752e-06 0.00374982 2.63207e-06
-0.000351543 2.63207e-06 0.00378347
0.000300652 1.3202e-05 1.7645e-05
1.3202e-05 -0.000269613 -5.12048e-07
1.7645e-05 -5.12048e-07 -0.000359725
0.00651288 -0.000130296 -7.49508e-06
-0.000130296 0.00382423 2.17817e-06
-7.49508e-06 2.17817e-06 0.00384907
0.00660266 -4.11641e-05 0.000337232
-4.11641e-05 0.00386601 -9.62733e-06
0.000337232 -9.62733e-06 0.00389661
0.00114646 6.78873e-05 -1.12393e-05
6.78873e-05 -5.79769e-05 -5.13212e-07
-1.12393e-05 -5.13212e-07 -0.000195578
0.00204375 0.000127555 -2.9855e-07
0.000127555 0.000116043 -3.47021e-07
-2.9855e-07 -3.47021e-07 2.04825e-05
0.00209363 0.000141029 1.39142e-06
0.000141029 4.08817e-05 -4.42548e-07
1.39142e-06 -4.42548e-07 -7.74331e-06
0.00273851 6.99621e-05 -0.000159029
6.99621e-05 0.00128488 -5.68087e-06
-0.000159029 -5.68087e-06 0.0012297
0.00116625 0.000112229 2.08612e-07
0.000112229 -6.20175e-05 2.15932e-07
2.08612e-07 2.15932e-07 -0.00021081
0.00210034 0.000202765 1.2637e-06
0.000202765 0.000149977 -9.48929e-07
1.2637e-06 -9.48929e-07 3.67652e-05
0.006697 0.000181345 -0.000372599
0.000181345 0.00394056 -2.28471e-05
-0.000372599 -2.28471e-05 0.00396332
0.000365573 7.11251e-05 1.16489e-06
7.11251e-05 -0.000227751 5.22165e-07
1.16489e-06 5.22165e-07 -0.00033161
0.00122657 0.000164422 7.84795e-06
0.000164422 -3.6051e-05 1.61969e-06
7.84795e-06 1.61969e-06 -0.00019967
0.00692371 0.000265492 1.29793e-06
0.000265492 0.00409238 1.64021e-06
1.29793e-06 1.64021e-06 0.00410313
0.000378011 9.28869e-05 1.69946e-05
9.28869e-05 -0.000228802 7.72721e-06
1.69946e-05 7.72721e-06 -0.00033977
0.00715324 0.000356333 0.000378256
0.000356333 0.00425718 4.94737e-05
0.000378256 4.94737e-05 0.00425096
0.000474653 1.33808e-05 -1.48754e-05
1.33808e-05 -0.000148875 -1.99296e-06
-1.48754e-05 -1.99296e-06 -0.000237269
0.00114316 3.13496e-05 -9.15028e-08
3.13496e-05 -5.72391e-05 1.09376e-07
-9.15028e-08 1.09376e-07 -0.000184862
0.00207467 5.36531e-05 3.66045e-06
5.36531e-05 0.000143702 -2.36219e-07
3.66045e-06 -2.36219e-07 6.20657e-05
0.00620421 -0.000104733 -0.000331678
-0.000104733 0.00363843 5.05412e-06
-0.000331678 5.05412e-06 0.00366055
0.000336798 1.043e-05 -5.53325e-07
1.043e-05 -0.000242918 -1.94973e-07
-5.53325e-07 -1.94973e-07 -0.000324782
0.00120384 -3.72898e-06 1.30006e-05
-3.72898e-06 -1.95674e-05 9.35233e-08
1.30006e-05 9.35233e-08 -0.000140209
0.000296958 2.07229e-05 1.77058e-05
2.07229e-05 -0.000267778 7.79995e-07
1.77058e-05 7.79995e-07 -0.000354622
0.00633419 -2.94222e-05 1.75977e-06
-2.94222e-05 0.00370826 -1.80039e-06
1.75977e-06 -1.80039e-06 0.00373657
0.00647705 -5.38255e-05 0.000339866
-5.38255e-05 0.00378897 -6.98194e-06
0.000339866 -6.98194e-06 0.00382017
0.00280198 2.07387e-05 -0.000151835
2.07387e-05 0.00132729 -3.00107e-06
-0.000151835 -3.00107e-06 0.00127688
0.00114767 7.13294e-05 3.91233e-08
7.13294e-05 -6.09303e-05 -7.35791e-08
3.91233e-08 -7.35791e-08 -0.00019918
0.00211604 0.000125069 2.11335e-06
0.000125069 0.000163586 -7.12881e-07
2.11335e-06 -7.12881e-07 7.25143e-05
0.00613856 -2.46308e-05 -0.00015292
-2.46308e-05 0.00359946 3.00758e-08
-0.00015292 3.00758e-08 0.00358921
0.0003472 6.14996e-05 4.4153e-07
6.14996e-05 -0.000234727 3.28099e-07
4.4153e-07 3.28099e-07 -0.000331368
0.00116447 0.000113786 9.80368e-06
0.000113786 -6.24975e-05 7.75396e-07
9.80368e-06 7.75396e-07 -0.000212285
0.00674003 0.000157436 -1.03387e-05
0.000157436 0.0039619 -1.88475e-06
-1.03387e-05 -1.88475e-06 0.00398574
0.000353931 9.38477e-05 1.82457e-05
9.38477e-05 -0.00023452 6.10224e-06
1.82457e-05 6.10224e-06 -0.000339861
0.00700538 0.00028895 0.000382333
0.00028895 0.00414948 4.10661e-05
0.000382333 4.10661e-05 0.00415816
0.00189098 -5.3383e-05 -0.000258945
-5.3383e-05 0.000855189 1.67468e-06
-0.000258945 1.67468e-06 0.00085776
0.00155628 3.35856e-05 -6.59212e-05
3.35856e-05 0.000532874 -6.14436e-08
-6.59212e-05 -6.14436e-08 0.000468976
0.00118565 3.35076e-05 1.21925e-05
3.35076e-05 -3.34162e-05 3.73176e-07
1.21925e-05 3.73176e-07 -0.000157084
0.00627569 -5.14175e-05 6.62568e-06
-5.14175e-05 0.00367704 3.04819e-06
6.62568e-06 3.04819e-06 0.003705
0.000354153 -1.03009e-05 1.8364e-05
-1.03009e-05 -0.000225312 1.00926e-06
1.8364e-05 1.00926e-06 -0.000311129
0.00636017 -9.07812e-05 0.000349893
-9.07812e-05 0.00372997 -6.23706e-06
0.000349893 -6.23706e-06 0.00375752
0.00143937 2.48452e-05 -7.07694e-05
2.48452e-05 0.000597229 -1.17679e-06
-7.07694e-05 -1.17679e-06 0.00055541
0.00153678 2.21358e-05 -6.72364e-05
2.21358e-05 0.000522378 -1.75437e-06
-6.72364e-05 -1.75437e-06 0.000452931
0.00109834 7.26113e-05 1.12272e-05
7.26113e-05 -9.51652e-05 3.38678e-07
1.12272e-05 3.38678e-07 -0.000234266
0.00406534 7.54197e-05 0.000131259
7.54197e-05 0.00225778 4.44784e-06
0.000131259 4.44784e-06 0.00225155
0.0003405 7.09093e-05 1.88897e-05
7.09093e-05 -0.000237721 4.18148e-06
1.88897e-05 4.18148e-06 -0.000334613
0.00684475 0.000144946 0.000365118
0.000144946 0.00401944 2.47833e-05
0.000365118 2.47833e-05 0.00404712
0.00621458 -1.88065e-05 -8.56696e-06
-1.88065e-05 0.00364238 -3.56408e-06
-8.56696e-06 -3.56408e-06 0.00366875
0.00034573 5.23829e-05 2.00315e-05
5.23829e-05 -0.000241619 2.532e-06
2.00315e-05 2.532e-06 -0.000320383
0.00617872 3.22615e-05 0.000336864
3.22615e-05 0.00361093 1.65889e-07
0.000336864 1.65889e-07 0.00364265
0.00388125 3.58352e-05 0.000142301
3.58352e-05 0.00214702 5.99254e-06
0.000142301 5.99254e-06 0.00214376
0.000378678 1.20057e-05 1.84012e-05
1.20057e-05 -0.000212876 2.24149e-06
1.84012e-05 2.24149e-06 -0.000301691
0.00658536 1.24415e-05 0.00035083
1.24415e-05 0.00385637 1.12858e-05
0.00035083 1.12858e-05 0.00388681
0.00627658 -0.000113404 0.000336392
-0.000113404 0.0036849 -4.50776e-06
0.000336392 -4.50776e-06 0.00370732
0.00633419 1.76802e-05 0.000341577
1.76802e-05 0.00369926 6.68184e-06
0.000341577 6.68184e-06 0.00373283
