# vtk DataFile Version 2.0
Wound Healing Simulation
ASCII
DATASET UNSTRUCTURED_GRID
POINTS 3012 float
69.9759 18.75 4
67.2507 60.3285 4
69.976 18.75 2
73.0099 25.446 4
71.1327 20.9142 4
68.6801 16.6661 4
67.8208 19.9258 3.97209
67.2507 60.3286 2
71.1327 54.0858 4
68.6801 58.3339 4
65.6939 62.2254 4
65.3076 58.9988 3.97086
74.6784 42.3946 4
73.7221 47.2057 4
69.9759 18.75 0
73.0099 25.446 2
68.6801 16.6661 2
71.1327 20.9142 2
67.8213 19.9298 2
74.6792 32.6053 4
73.7222 27.7943 4
72.1454 23.1494 4
70.6109 26.2217 3.97228
68.8813 21.9576 3.9724
67.2507 14.6715 4
66.6319 17.973 3.97089
65.7331 21.0478 3.96151
67.2507 60.3285 0
71.1327 54.0858 2
68.6801 58.3339 2
65.694 62.2255 2
65.309 58.9939 2
72.1454 51.8506 4
69.9759 56.25 4
68.8317 53.1144 3.97224
64.0165 64.0165 4
66.6056 57.133 3.97202
63.8801 60.7615 3.96746
63.4632 57.7526 3.96008
60.3285 67.2507 4
74.6792 42.3947 2
73.7222 47.2057 2
74.9194 39.9526 4
74.2788 44.8158 4
72.1657 42.086 3.97415
73.0099 49.554 4
71.2461 46.5985 3.97255
73.0099 25.446 0
71.1327 20.9142 0
68.6801 16.6661 0
67.8208 19.9258 0.0279149
74.6792 32.6053 2
73.7222 27.7943 2
67.2508 14.6715 2
72.1455 23.1494 2
70.6102 26.2229 2
66.633 17.9775 2
68.8814 21.9605 2
65.7327 21.0489 2
74.9197 35.0474 4
74.2794 30.1841 4
72.1824 32.945 3.9743
71.2754 28.4328 3.97258
69.8118 24.0596 3.97246
68.3119 26.9639 3.96426
66.704 22.9527 3.96253
65.694 12.7746 4
65.3186 16.1062 3.96981
64.6489 19.22 3.96007
63.7012 22.1087 3.96475
71.1327 54.0858 0
65.6939 62.2254 0
68.6801 58.3339 0
65.3076 58.9988 0.029138
72.1455 51.8506 2
69.9759 56.25 2
68.8319 53.1112 2
64.0165 64.0165 2
66.6068 57.128 2
63.8811 60.7562 2
63.4536 57.751 2
62.2254 65.694 4
58.89 65.411 3.97796
69.7648 50.9902 3.97226
67.7787 55.168 3.97236
66.5799 52.1902 3.9627
62.3312 62.4231 3.97194
64.5999 56.011 3.96114
62.1878 59.3843 3.95851
61.673 56.6113 3.96038
58.3339 68.6801 4
60.3285 67.2508 2
73.7221 47.2057 0
74.6784 42.3946 0
74.9197 39.9526 2
74.2794 44.8159 2
72.1646 42.0851 2
73.0099 49.554 2
71.2453 46.5971 2
75 37.5 4
72.403 39.8029 3.97507
71.7797 44.3532 3.97363
69.788 41.7876 3.96626
70.5715 48.8144 3.97224
68.8765 46.0067 3.96548
74.6792 32.6053 0
73.7222 27.7943 0
67.2507 14.6715 0
72.1454 23.1494 0
70.6109 26.2217 0.0277153
68.8813 21.9576 0.0276004
66.6319 17.973 0.0291089
65.7331 21.0478 0.0384885
74.9197 35.0474 2
74.2794 30.1841 2
72.1812 32.945 2
71.2744 28.4336 2
65.694 12.7745 2
65.3195 16.1112 2
69.8114 24.0615 2
68.3157 26.9646 2
64.6428 19.2216 2
66.7057 22.9538 2
63.7014 22.1092 2
72.4109 35.2255 3.97511
71.8014 30.678 3.97381
69.8274 33.2744 3.96578
68.9401 29.0481 3.96456
67.5627 24.9281 3.96343
66.0033 27.6879 3.97261
64.0165 10.9835 4
64.5616 23.8988 3.96726
63.8835 14.3322 3.96617
63.466 17.4719 3.95772
62.7263 20.3993 3.96213
61.7763 23.0696 3.97094
60.6794 11.1033 3.97343
57.6034 11.4872 3.96355
72.1454 51.8506 0
69.9759 56.25 0
68.8317 53.1144 0.0277631
64.0165 64.0165 0
63.8801 60.7615 0.0325408
66.6056 57.133 0.0279809
63.4632 57.7526 0.0399204
62.2255 65.694 2
58.8928 65.4054 2
69.7646 50.9878 2
67.7794 55.1638 2
66.5812 52.1892 2
62.3328 62.4158 2
64.5945 56.0095 2
62.1825 59.3842 2
61.6706 56.6117 2
60.6644 63.9724 3.97565
57.0208 66.7318 3.98077
57.5473 63.6574 3.96948
67.4445 50.1606 3.96381
65.6348 54.1533 3.96186
64.3167 51.3161 3.96795
60.765 60.9096 3.96578
62.6436 54.9976 3.96359
60.5389 58.0898 3.95624
60.0853 55.6726 3.96617
56.25 69.9759 4
58.3339 68.6801 2
60.3285 67.2507 0
58.917 9.66057 3.97591
62.2254 9.30607 4
73.0099 49.554 0
74.2788 44.8158 0
71.2461 46.5985 0.0274519
72.1657 42.086 0.0258482
74.9194 39.9526 0
75 37.5 2
72.4024 39.8023 2
71.7791 44.352 2
69.7904 41.7872 2
70.571 48.8127 2
68.8812 46.0062 2
72.4865 37.513 3.97489
70.0305 39.6576 3.96639
69.409 43.903 3.96604
67.4266 41.4808 3.97621
68.2158 48.095 3.96488
66.5113 45.3998 3.97509
74.9197 35.0474 0
74.2794 30.1841 0
72.1824 32.945 0.0256963
71.2754 28.4328 0.0274201
65.694 12.7746 0
65.3186 16.1062 0.0301906
69.8118 24.0596 0.0275392
68.3119 26.9639 0.0357365
66.704 22.9527 0.0374698
64.6489 19.22 0.03993
63.7012 22.1087 0.035251
72.4103 35.2252 2
71.8007 30.6786 2
69.8298 33.2747 2
68.9449 29.0485 2
64.0165 10.9835 2
63.8848 14.3386 2
63.4631 17.4714 2
67.5656 24.9289 2
66.0013 27.6891 2
62.7297 20.3988 2
64.5606 23.8998 2
61.7745 23.0705 2
60.6822 11.1086 2
57.6029 11.4793 2
70.0483 35.3961 3.96619
69.4488 31.1574 3.9649
67.4987 33.6122 3.97559
66.5969 29.6653 3.97449
65.3244 25.7618 3.96977
63.7867 28.3541 3.97535
62.3358 12.6606 3.97026
62.5221 24.7565 3.97368
62.1802 15.8091 3.95817
61.6411 18.7693 3.95927
60.9174 21.4753 3.96714
59.9935 23.9037 3.97396
59.2364 12.8211 3.96222
55.8656 10.2754 3.97305
56.3888 13.1919 3.96451
69.7648 50.9902 0.0277351
62.2254 65.694 0
58.89 65.411 0.0220431
67.7787 55.168 0.0276424
66.5799 52.1902 0.0373002
62.3312 62.4231 0.0280641
62.1878 59.3843 0.0414928
64.5999 56.011 0.0388603
61.673 56.6113 0.0396173
60.6676 63.9676 2
57.0243 66.7276 2
57.5496 63.6652 2
67.4465 50.1596 2
65.6333 54.152 2
64.3145 51.3153 2
60.7604 60.9107 2
62.6436 54.9981 2
60.5305 58.0895 2
60.0849 55.6732 2
55.0668 67.9298 3.98413
59.2118 62.3252 3.96617
55.7931 64.874 3.97143
56.3143 62.0267 3.97932
65.1018 49.3451 3.97032
63.4999 53.2204 3.96562
62.0591 50.5311 3.97281
59.269 59.4958 3.95603
60.7827 54.1911 3.96939
59.0441 56.8884 3.96058
58.9182 55.0389 3.97009
48.0983 68.5694 3.98034
50.9447 69.9306 3.98717
54.0858 71.1327 4
56.25 69.976 2
58.3339 68.6801 0
57.0539 8.34044 3.97568
60.3285 7.74928 4
58.9197 9.66622 2
62.2255 9.30602 2
70.5715 48.8144 0.0277625
71.7797 44.3532 0.0263733
68.8765 46.0067 0.0345234
69.788 41.7876 0.0337388
72.403 39.8029 0.0249287
75 37.5 0
72.4853 37.5126 2
70.0325 39.6574 2
69.4113 43.9025 2
67.4232 41.4801 2
68.2176 48.0941 2
66.5077 45.3987 2
70.119 37.5238 3.96643
67.6746 39.5059 3.97608
67.0386 43.4418 3.97586
65.2096 41.1804 3.97678
65.8497 47.3657 3.97325
64.2685 44.776 3.97598
72.4109 35.2255 0.0248912
71.8014 30.678 0.0261902
69.8274 33.2744 0.0342193
68.9401 29.0481 0.0354353
64.0165 10.9835 0
63.8835 14.3322 0.0338333
63.466 17.4719 0.0422776
67.5627 24.9281 0.0365658
66.0033 27.6879 0.0273923
64.5616 23.8988 0.0327441
62.7263 20.3993 0.0378746
61.7763 23.0696 0.0290645
60.6794 11.1033 0.0265739
57.6034 11.4872 0.0364475
70.0498 35.3963 2
69.452 31.1577 2
67.4964 33.6128 2
66.5949 29.6664 2
62.3382 12.6673 2
62.1772 15.8089 2
61.6474 18.7679 2
65.3226 25.7629 2
63.7848 28.3547 2
60.9158 21.4759 2
62.5206 24.7574 2
59.9928 23.9042 2
59.2354 12.8191 2
56.3885 13.1877 2
55.8662 10.2813 2
67.7194 35.5594 3.97574
67.1028 31.6539 3.97529
65.3702 33.963 3.97685
64.302 30.2722 3.97561
63.1912 26.5249 3.9752
61.7579 28.9105 3.97525
60.7639 14.2555 3.96231
60.5826 25.5099 3.97509
60.4956 17.2062 3.956
59.9232 19.9608 3.96241
59.2399 22.4442 3.97012
58.4508 24.5418 3.97422
54.0294 9.17168 3.96823
57.8794 14.4011 3.9558
54.7746 12.0853 3.96793
55.2721 14.7546 3.95602
67.4445 50.1606 0.0361893
57.0208 66.7318 0.0192266
60.6644 63.9724 0.0243542
57.5473 63.6574 0.0305231
65.6348 54.1533 0.0381354
64.3167 51.3161 0.032048
60.765 60.9096 0.0342186
60.5389 58.0898 0.0437649
62.6436 54.9976 0.0364144
60.0853 55.6726 0.0338292
55.0705 67.9263 2
59.2096 62.3291 2
55.7958 64.8716 2
56.3131 62.0288 2
65.0992 49.344 2
63.4985 53.2202 2
62.0577 50.5308 2
59.2847 59.5047 2
60.7826 54.1915 2
59.0533 56.8915 2
58.927 55.0412 2
53.0385 68.9974 3.98442
53.9592 65.9992 3.97151
57.8523 60.8128 3.96044
54.662 63.1339 3.96395
55.1825 60.5413 3.97683
62.7993 48.5489 3.97454
61.3981 52.4532 3.97119
59.7395 49.8444 3.97327
57.8477 58.1551 3.95724
58.9454 53.7915 3.97217
57.7491 55.6437 3.96314
50.104 67.8472 3.97735
47.4562 66.564 3.97556
46.0528 69.1507 3.98273
48.1009 68.5697 2
48.7987 70.7216 3.9885
50.9479 69.9282 2
51.8506 72.1454 4
54.0858 71.1327 2
56.25 69.9759 0
55.0986 7.14385 3.98172
58.3339 6.31992 4
57.0575 8.34685 2
60.3286 7.74926 2
58.917 9.66057 0.0240933
62.2254 9.30607 0
68.2158 48.095 0.0351202
69.409 43.903 0.033961
66.5113 45.3998 0.0249135
67.4266 41.4808 0.0237892
70.0305 39.6576 0.0336145
72.4865 37.513 0.025112
70.121 37.5237 2
67.6714 39.5055 2
67.0362 43.4409 2
65.2079 41.1797 2
65.8471 47.3645 2
64.2665 44.7754 2
67.7787 37.525 3.97587
65.4522 39.357 3.97692
64.8143 42.9739 3.97656
63.2776 40.8869 3.97665
63.5669 46.6198 3.97502
62.2736 44.1221 3.97588
70.0483 35.3961 0.033812
69.4488 31.1574 0.0350995
67.4987 33.6122 0.0244106
66.5969 29.6653 0.0255129
62.3358 12.6606 0.0297418
62.1802 15.8091 0.0418347
61.6411 18.7693 0.040726
65.3244 25.7618 0.0302254
63.7867 28.3541 0.0246524
62.5221 24.7565 0.0263151
60.9174 21.4753 0.0328568
59.9935 23.9037 0.0260445
59.2364 12.8211 0.0377767
56.3888 13.1919 0.0354922
55.8656 10.2754 0.02695
67.7167 35.5597 2
67.1011 31.6548 2
65.3681 33.9637 2
64.3004 30.2729 2
60.7611 14.2553 2
60.4899 17.2075 2
59.9191 19.9617 2
63.19 26.5258 2
61.7576 28.9106 2
59.2428 22.4438 2
60.582 25.5104 2
58.4487 24.544 2
57.883 14.3991 2
55.2678 14.7435 2
54.0328 9.16613 2
54.7687 12.0903 2
65.5522 35.6869 3.97687
64.8337 32.2092 3.97628
63.8556 34.2929 3.97652
62.0765 30.7404 3.9757
61.1646 27.2259 3.97502
60.2448 29.2988 3.97583
59.2388 15.7422 3.95526
58.7537 26.0151 3.97539
58.8853 18.4945 3.95902
58.3342 21.0488 3.96439
57.7751 23.3209 3.97079
57.3908 24.9139 3.97574
52.1068 8.16626 3.96966
53.0393 11.0917 3.96468
56.6078 15.8503 3.95552
53.7905 13.7778 3.9739
54.2849 16.1347 3.95544
55.0668 67.9298 0.0158694
65.1018 49.3451 0.0296753
55.7931 64.874 0.028566
59.2118 62.3252 0.0338321
56.3143 62.0267 0.0206845
63.4999 53.2204 0.0343849
62.0591 50.5311 0.0271921
59.269 59.4958 0.0439654
59.0441 56.8884 0.0394178
60.7827 54.1911 0.030606
58.9182 55.0389 0.0299058
53.0421 68.9952 2
53.9619 65.9967 2
57.8546 60.8159 2
54.6599 63.1342 2
55.1815 60.542 2
62.798 48.5484 2
61.3976 52.4533 2
59.7403 49.8442 2
57.8553 58.1592 2
58.9507 53.7926 2
57.7468 55.6427 2
52.0637 66.9856 3.9744
52.9366 64.1705 3.97085
56.5677 59.4038 3.95549
53.635 61.5163 3.96773
54.1962 59.2221 3.96371
60.4211 47.7174 3.97423
59.2414 51.9359 3.97258
57.373 49.3909 3.97464
56.5341 56.8442 3.96146
56.6252 53.9159 3.96751
50.1066 67.8445 2
49.3272 65.8914 3.97527
47.4589 66.5575 2
46.8816 64.693 3.97683
45.5546 67.0822 3.97846
43.9708 69.5832 3.98384
46.0555 69.1506 2
46.6058 71.3663 3.98996
48.0983 68.5694 0.019661
48.8019 70.7209 2
49.554 73.0099 4
50.9447 69.9306 0.0128328
51.8506 72.1455 2
54.0858 71.1327 0
53.0615 6.07446 3.98645
55.103 7.14594 2
56.25 5.02411 4
58.3339 6.3199 2
57.0539 8.34044 0.0243215
60.3285 7.74928 0
65.8497 47.3657 0.0267493
67.0386 43.4418 0.0241431
64.2685 44.776 0.0240166
65.2096 41.1804 0.0232244
67.6746 39.5059 0.0239182
70.119 37.5238 0.0335652
67.7761 37.5249 2
65.4505 39.3568 2
64.8122 42.973 2
63.2775 40.8864 2
63.5653 46.6191 2
62.2733 44.122 2
65.5625 37.5055 3.97685
63.4286 39.2491 3.97653
62.8232 42.4871 3.97629
61.8466 40.6479 3.97658
61.4079 45.7892 3.97534
60.7988 43.5764 3.97609
67.7194 35.5594 0.0242604
67.1028 31.6539 0.0247138
65.3702 33.963 0.0231486
64.302 30.2722 0.024391
60.7639 14.2555 0.0376891
60.4956 17.2062 0.0440016
59.9232 19.9608 0.0375914
63.1912 26.5249 0.0247999
61.7579 28.9105 0.0247473
60.5826 25.5099 0.0249119
59.2399 22.4442 0.0298817
58.4508 24.5418 0.0257849
57.8794 14.4011 0.0441959
55.2721 14.7546 0.0439838
54.0294 9.17168 0.0317693
54.7746 12.0853 0.0320702
65.5503 35.6871 2
64.8319 32.2102 2
63.8558 34.2932 2
62.0764 30.7407 2
59.2556 15.7372 2
58.884 18.494 2
58.3324 21.0497 2
61.1639 27.2262 2
60.2458 29.299 2
57.7728 23.3235 2
58.7516 26.016 2
57.3902 24.9173 2
56.5781 15.8548 2
54.2857 16.1222 2
53.7763 13.7716 2
52.1091 8.1691 2
53.0423 11.0848 2
63.6399 35.6596 3.97639
62.4074 33.1189 3.97611
59.9506 30.7569 3.97557
58.9218 28.1093 3.9753
57.7814 17.1083 3.9564
57.079 25.9929 3.97546
57.3631 19.6678 3.95938
56.8591 22.0836 3.96462
56.5879 24.2137 3.97283
50.1077 7.29576 3.97976
51.2183 10.1739 3.96884
52.1376 12.9049 3.9659
55.3908 17.1202 3.95641
52.9185 15.3794 3.95748
53.6255 17.1391 3.95584
53.0385 68.9974 0.0155842
53.9592 65.9992 0.0284909
62.7993 48.5489 0.0254629
54.662 63.1339 0.0360539
57.8523 60.8128 0.0395605
55.1825 60.5413 0.0231731
61.3981 52.4532 0.0288136
59.7395 49.8444 0.0267347
57.8477 58.1551 0.0427585
57.7491 55.6437 0.0368576
58.9454 53.7915 0.0278334
52.0664 66.9841 2
52.9364 64.1708 2
56.5659 59.4049 2
53.6333 61.5155 2
54.1917 59.224 2
60.421 47.717 2
59.244 51.9362 2
57.3742 49.3908 2
56.5308 56.848 2
56.6236 53.9149 2
51.1553 65.0986 3.97163
52.0118 62.4614 3.96697
55.3388 58.1327 3.96144
52.7489 60.006 3.96548
53.538 58.3532 3.96237
57.516 46.6247 3.97514
56.9819 51.5679 3.97212
55.5051 49.2909 3.97404
55.1593 55.618 3.96256
54.7969 53.1523 3.96243
50.104 67.8472 0.0226483
49.3283 65.8963 2
48.6022 64.0827 3.97854
47.4562 66.564 0.0244398
45.5561 67.0851 2
46.8823 64.6946 2
46.3642 62.9974 3.98239
45.1245 65.1707 3.97929
43.6293 67.4558 3.98023
41.8587 69.8703 3.98385
43.9725 69.5832 2
44.3736 71.861 3.99037
46.0528 69.1507 0.0172722
46.6081 71.3658 2
47.2057 73.7222 4
48.7987 70.7216 0.0114991
49.554 73.0099 2
51.8506 72.1454 0
50.9527 5.13462 3.98875
53.0644 6.07603 2
54.0858 3.86728 4
55.0986 7.14385 0.0182767
56.25 5.02406 2
58.3339 6.31992 0
63.5669 46.6198 0.0249756
64.8143 42.9739 0.0234447
62.2736 44.1221 0.0241178
63.2776 40.8869 0.0233544
65.4522 39.357 0.0230805
67.7787 37.525 0.0241256
65.5611 37.5056 2
63.4287 39.2492 2
62.8237 42.4864 2
61.8468 40.6475 2
61.4075 45.7889 2
60.7991 43.5763 2
63.493 37.4612 3.97649
61.5484 39.3268 3.97681
60.544 41.8727 3.97676
59.5246 44.6165 3.97558
65.5522 35.6869 0.0231319
64.8337 32.2092 0.02372
63.8556 34.2929 0.0234846
62.0765 30.7404 0.0243021
59.2388 15.7422 0.0447368
58.8853 18.4945 0.0409833
58.3342 21.0488 0.0356109
61.1646 27.2259 0.0249818
60.2448 29.2988 0.0241742
58.7537 26.0151 0.024611
57.7751 23.3209 0.0292133
57.3908 24.9139 0.0242626
56.6078 15.8503 0.0444776
54.2849 16.1347 0.0445649
53.7905 13.7778 0.0261027
52.1068 8.16626 0.0303366
53.0393 11.0917 0.0353155
63.6403 35.6596 2
62.4086 33.1196 2
59.9518 30.7574 2
57.7887 17.1046 2
57.3722 19.6645 2
56.8588 22.0864 2
58.9227 28.1085 2
56.5973 24.216 2
57.0791 25.9915 2
50.1111 7.2926 2
55.3879 17.1228 2
53.6294 17.13 2
52.9106 15.384 2
52.1474 12.8993 2
51.2199 10.1708 2
61.591 35.3994 3.97651
59.5624 32.8543 3.97591
57.8237 30.2701 3.97523
56.5327 27.6437 3.97567
56.4054 18.3239 3.95774
55.5926 25.4066 3.97471
55.9286 20.755 3.95756
55.5153 23.1525 3.96557
48.0546 6.53529 3.9829
49.3155 9.36188 3.97349
50.4069 12.0788 3.96678
51.3178 14.6236 3.96661
54.2227 18.1042 3.96059
52.2517 17.2118 3.95492
52.0637 66.9856 0.0255969
52.9366 64.1705 0.0291546
60.4211 47.7174 0.0257739
53.635 61.5163 0.0322697
56.5677 59.4038 0.044508
54.1962 59.2221 0.0362859
59.2414 51.9359 0.0274152
57.373 49.3909 0.0253585
56.5341 56.8442 0.0385364
56.6252 53.9159 0.032492
51.1559 65.097 2
52.0109 62.4644 2
55.3345 58.1328 2
52.7488 60.0085 2
53.5345 58.3561 2
57.516 46.6238 2
56.9808 51.567 2
55.504 49.2901 2
55.1586 55.6188 2
54.7955 53.1521 2
50.323 63.3393 3.97341
51.178 60.831 3.97273
54.0351 57.1284 3.96677
52.1531 58.4889 3.96743
55.7013 43.9688 3.97568
54.608 47.6039 3.97545
54.3316 51.1167 3.96564
53.6032 54.3429 3.96449
49.3272 65.8914 0.0247298
48.6009 64.0883 2
47.9338 62.4307 3.98818
45.5546 67.0822 0.0215381
46.8816 64.693 0.0231677
43.63 67.4559 2
46.3641 63.0022 2
45.1267 65.1662 2
45.9588 61.525 3.99421
44.755 63.4021 3.97513
43.3539 65.4858 3.97802
41.6624 67.674 3.97915
39.7012 70.017 3.98343
41.86 69.871 2
42.1085 72.2049 3.99082
43.9708 69.5832 0.0161603
44.3754 71.8603 2
44.8159 74.2794 4
46.6058 71.3663 0.0100428
47.2057 73.7222 2
49.554 73.0099 0
48.7843 4.32462 3.98952
50.9549 5.13433 2
51.8506 2.85458 4
53.0615 6.07446 0.0135533
54.0858 3.86728 2
56.25 5.02411 0
61.4079 45.7892 0.0246593
62.8232 42.4871 0.0237106
60.7988 43.5764 0.0239134
61.8466 40.6479 0.0234197
63.4286 39.2491 0.0234716
65.5625 37.5055 0.023151
63.4939 37.4613 2
61.5481 39.3268 2
60.5448 41.8723 2
59.5255 44.6163 2
61.3701 37.4491 3.97667
59.4748 39.7975 3.9768
58.1255 42.7849 3.97584
63.6399 35.6596 0.0236055
62.4074 33.1189 0.023886
59.9506 30.7569 0.0244294
57.7814 17.1083 0.0435966
57.3631 19.6678 0.0406196
56.8591 22.0836 0.0353758
58.9218 28.1093 0.0247044
57.079 25.9929 0.0245417
56.5879 24.2137 0.0271704
55.3908 17.1202 0.0435923
53.6255 17.1391 0.0441641
52.9185 15.3794 0.0425221
50.1077 7.29576 0.0202358
52.1376 12.9049 0.0340959
51.2183 10.1739 0.0311584
61.5913 35.3997 2
59.5617 32.8543 2
57.8257 30.2703 2
56.4052 18.3227 2
55.9543 20.749 2
55.5238 23.1563 2
56.5349 27.6439 2
55.5978 25.41 2
48.0552 6.53643 2
49.3159 9.36026 2
54.2264 18.1067 2
52.241 17.212 2
51.3196 14.6191 2
50.4109 12.0795 2
59.0995 35.1762 3.97657
57.0763 32.4217 3.97524
55.6431 29.593 3.97537
54.6167 26.9388 3.97474
55.0636 19.3887 3.96299
54.2836 24.3736 3.97167
54.5046 21.8368 3.96174
45.9614 5.88934 3.98502
43.3731 7.483 3.98151
47.3508 8.64059 3.9754
48.5804 11.3534 3.9695
49.665 13.8378 3.96737
50.5333 16.2814 3.95355
52.9154 18.886 3.96328
51.166 18.2955 3.95776
51.1553 65.0986 0.0283673
52.0118 62.4614 0.033029
57.516 46.6247 0.0248587
52.7489 60.006 0.0345219
55.3388 58.1327 0.0385617
53.538 58.3532 0.0376335
56.9819 51.5679 0.0278794
55.5051 49.2909 0.0259648
55.1593 55.618 0.0374442
54.7969 53.1523 0.0375724
50.3209 63.3377 2
51.1772 60.8329 2
54.0302 57.1295 2
52.1458 58.4905 2
55.7033 43.9702 2
54.6076 47.604 2
54.327 51.1153 2
53.5975 54.3436 2
49.5467 61.6961 3.97451
54.3882 41.5847 3.97384
50.4498 59.209 3.96459
51.9056 56.3214 3.96521
53.0581 45.2409 3.97312
52.4237 49.0121 3.97001
52.0836 52.607 3.95948
48.6022 64.0827 0.0214584
47.9336 62.43 2
47.2863 60.9552 3.99097
43.6293 67.4558 0.0197719
45.1245 65.1707 0.0207123
46.3642 62.9974 0.0176108
41.6636 67.674 2
43.3577 65.4866 2
45.9595 61.5302 2
44.7554 63.3999 2
45.7235 60.5699 3.99668
44.4632 61.7706 3.97945
43.1387 63.6842 3.97818
41.5454 65.624 3.97353
39.6323 67.7527 3.97854
37.5257 70.0414 3.98335
39.7021 70.0171 2
39.8162 72.4021 3.99117
41.8587 69.8703 0.016148
42.1099 72.2053 2
42.3947 74.6792 4
44.3736 71.861 0.00962618
44.8159 74.2794 2
47.2057 73.7222 0
43.851 5.36406 3.98544
46.5705 3.64944 3.99033
48.785 4.32552 2
49.554 1.99015 4
50.9527 5.13462 0.0112518
51.8506 2.85453 2
54.0858 3.86728 0
59.5246 44.6165 0.0244244
60.544 41.8727 0.02324
61.5484 39.3268 0.0231859
63.493 37.4612 0.0235138
61.3699 37.4492 2
59.4738 39.7957 2
58.126 42.7849 2
58.9532 37.5677 3.97709
57.0357 40.5647 3.97748
53.7884 39.6178 3.97589
61.591 35.3994 0.0234857
59.5624 32.8543 0.0240885
57.8237 30.2701 0.0247717
56.4054 18.3239 0.0422647
55.9286 20.755 0.0424448
55.5153 23.1525 0.0344335
56.5327 27.6437 0.0243324
55.5926 25.4066 0.0252851
54.2227 18.1042 0.0394089
52.2517 17.2118 0.0450811
51.3178 14.6236 0.0333936
48.0546 6.53529 0.0171007
49.3155 9.36188 0.0265144
50.4069 12.0788 0.033219
59.0992 35.1772 2
45.9617 5.88873 2
43.3726 7.48266 2
57.0752 32.4234 2
55.6443 29.591 2
55.0518 19.3932 2
54.5428 21.8338 2
54.2817 24.3793 2
54.6193 26.9391 2
47.3503 8.63912 2
48.5834 11.3468 2
52.9104 18.8505 2
51.1606 18.2941 2
50.5439 16.2806 2
49.6629 13.847 2
56.3863 34.8443 3.97716
54.6663 31.7374 3.97456
53.5335 28.7227 3.97624
52.9968 25.8587 3.97388
53.6476 20.3753 3.96415
53.0264 23.0298 3.96371
41.3991 7.08403 3.98303
45.3578 8.00508 3.98543
42.8649 9.43117 3.97133
46.656 10.6929 3.97594
47.7033 13.1686 3.9676
48.8471 15.5018 3.97169
49.8741 17.885 3.96794
51.4305 19.5901 3.98662
50.323 63.3393 0.0265934
51.178 60.831 0.0272662
55.7013 43.9688 0.0243191
54.608 47.6039 0.0245485
52.1531 58.4889 0.0325674
54.0351 57.1284 0.033228
54.3316 51.1167 0.0343619
53.6032 54.3429 0.0355107
49.5462 61.6923 2
54.3877 41.582 2
50.4473 59.2164 2
51.9112 56.3255 2
53.0519 45.237 2
52.4203 49.0098 2
52.0867 52.6072 2
48.7695 60.1457 3.9954
51.0557 42.4449 3.98346
49.6017 57.4962 3.96449
50.1818 54.2311 3.95936
50.7196 46.9131 3.97605
50.4782 50.6671 3.9528
46.7896 43.4136 3.96317
47.9338 62.4307 0.011822
47.289 60.9571 2
46.5588 59.7386 3.9934
41.6624 67.674 0.0208538
43.3539 65.4858 0.0219784
44.755 63.4021 0.0248711
45.9588 61.525 0.00579342
39.6336 67.7534 2
41.5478 65.6221 2
45.723 60.5754 2
43.1377 63.6824 2
44.4623 61.7726 2
44.5819 60.2227 3.99341
42.9341 62.0273 3.97634
41.5939 63.7909 3.97844
39.6462 65.5919 3.97504
37.5633 67.7343 3.97706
31.6986 65.1084 3.97355
33.3931 67.4725 3.97755
35.3341 69.9526 3.98366
37.5257 70.0434 2
37.5093 72.4561 3.99173
39.7012 70.017 0.0165661
39.8171 72.4021 2
39.9526 74.9197 4
42.1085 72.2049 0.00917609
42.3947 74.6792 2
44.8159 74.2794 0
41.7359 4.97137 3.9878
43.8511 5.36337 2
44.3263 3.11189 3.99175
46.5713 3.6495 2
47.2057 1.27793 4
48.7843 4.32462 0.0104811
49.554 1.99013 2
51.8506 2.85458 0
58.1255 42.7849 0.0241604
59.4748 39.7975 0.0231982
61.3701 37.4491 0.0233264
58.9506 37.569 2
57.0398 40.5636 2
53.7917 39.6193 2
55.7429 37.8783 3.97738
48.0768 41.1551 3.96717
51.6215 39.2278 3.97972
39.442 6.80895 3.98143
59.0995 35.1762 0.0234258
57.0763 32.4217 0.0247618
55.6431 29.593 0.0246318
55.0636 19.3887 0.037007
54.5046 21.8368 0.0382643
54.2836 24.3736 0.0283298
54.6167 26.9388 0.0252607
52.9154 18.886 0.0367233
51.166 18.2955 0.0422379
50.5333 16.2814 0.046447
45.9614 5.88934 0.0149766
49.665 13.8378 0.0326291
47.3508 8.64059 0.0245958
48.5804 11.3534 0.0304994
43.3731 7.483 0.0184875
56.3887 34.8474 2
41.3992 7.08577 2
45.3568 8.00452 2
42.863 9.43348 2
54.6688 31.7404 2
53.5313 28.7225 2
53.65 20.3826 2
53.0091 23.0327 2
53.0004 25.858 2
46.6563 10.6862 2
47.7066 13.1667 2
51.4363 19.5888 2
49.8728 17.8819 2
48.8523 15.5325 2
53.5955 34.0683 3.97523
52.3222 30.8089 3.97486
51.6602 27.5875 3.97496
51.5004 24.4781 3.97314
52.0279 21.341 3.98408
41.0119 9.05579 3.97755
44.7255 10.0101 3.98021
42.4533 10.9173 4.00432
45.9661 12.7658 3.9658
47.6191 14.6954 3.96685
47.9951 17.1033 3.97064
49.6622 19.9944 3.98673
49.5467 61.6961 0.0254947
50.4498 59.209 0.0354122
54.3882 41.5847 0.0261641
53.0581 45.2409 0.0268796
52.4237 49.0121 0.0299933
51.9056 56.3214 0.0347909
52.0836 52.607 0.0405249
48.7677 60.1403 2
51.0723 42.4627 2
49.6008 57.4952 2
50.1836 54.233 2
50.721 46.9125 2
50.4824 50.6667 2
46.7982 43.4587 2
47.8737 58.6378 3.99034
48.7912 44.9603 3.98155
48.325 55.7689 3.95362
48.6066 52.373 3.98135
48.7993 48.7329 3.96948
44.4802 39.703 3.8246
45.0196 42.3422 3.87093
45.3444 45.3664 3.9812
42.3611 40.9502 3.60181
41.3106 41.5691 3.40006
47.2863 60.9552 0.00902992
46.5543 59.746 2
45.3956 58.7305 3.99509
39.6323 67.7527 0.0214627
41.5454 65.624 0.0264741
43.1387 63.6842 0.0218186
44.4632 61.7706 0.0205537
45.7235 60.5699 0.00331677
41.5958 63.785 2
37.5641 67.737 2
39.649 65.5926 2
44.5831 60.2256 2
42.9325 62.029 2
41.7409 62.4393 3.97918
42.4486 59.921 3.98852
39.8897 63.5273 3.97781
37.6409 65.4885 3.97405
35.4636 67.6444 3.97667
33.576 65.3203 3.97403
31.9635 63.2636 3.98027
29.8883 64.6951 3.97936
31.6969 65.1083 2
31.3789 67.1826 3.97808
33.3923 67.4739 2
33.158 69.7458 3.98354
35.3333 69.9539 2
35.1964 72.3712 3.99191
37.5257 70.0414 0.0166463
37.5096 72.4568 2
37.5 75 4
39.8162 72.4021 0.00882821
39.9526 74.9197 2
42.3947 74.6792 0
39.6242 4.71899 3.98823
41.7359 4.9717 2
42.063 2.71886 3.99236
43.851 5.36406 0.0145596
44.3267 3.11155 2
44.8158 0.721173 4
46.5705 3.64944 0.00966545
47.2057 1.27779 2
49.554 1.99015 0
57.0357 40.5647 0.0225247
58.9532 37.5677 0.0229108
53.7884 39.6178 0.024106
48.107 41.1726 2
55.7379 37.8743 2
51.6258 39.2192 2
52.511 36.6212 3.97718
46.0064 40.2404 3.88511
48.9875 38.4893 3.9739
37.5159 6.67796 3.98466
39.4429 6.80927 2
39.2093 8.70332 3.98006
35.9423 8.50054 3.98146
56.3863 34.8443 0.0228425
54.6663 31.7374 0.0254377
53.5335 28.7227 0.0237601
53.6476 20.3753 0.0358461
53.0264 23.0298 0.0362863
52.9968 25.8587 0.0261246
51.4305 19.5901 0.0133837
49.8741 17.885 0.0320551
48.8471 15.5018 0.0283108
45.3578 8.00508 0.0145699
47.7033 13.1686 0.0324018
46.656 10.6929 0.0240609
41.3991 7.08403 0.0169691
42.8649 9.43117 0.0286741
53.5916 34.0648 2
41.0115 9.06006 2
44.7226 10.0094 2
42.4545 10.9264 2
52.3194 30.8055 2
51.669 27.5867 2
52.0307 21.3458 2
51.4871 24.4812 2
45.9703 12.762 2
47.613 14.6725 2
49.6775 20.0106 2
47.9936 17.1056 2
51.0311 33.0392 3.97735
50.1479 29.563 3.9766
49.9678 26.0835 3.97063
49.5855 22.5762 3.98092
40.5573 11.6142 3.98459
43.8239 11.9275 3.96331
45.7424 15.5773 3.98962
47.3738 19.6019 3.98017
44.8764 37.4892 3.83039
48.7695 60.1457 0.00459934
49.6017 57.4962 0.0355114
51.0557 42.4449 0.0165377
50.7196 46.9131 0.0239491
50.4782 50.6671 0.0472041
50.1818 54.2311 0.0406445
46.7896 43.4136 0.0368284
47.8687 58.6425 2
48.8054 44.9742 2
48.3222 55.7715 2
48.6071 52.3778 2
48.8041 48.7353 2
44.6057 39.7278 2
45.0527 42.3673 2
45.3531 45.3881 2
42.4272 41.012 2
41.3541 41.595 2
46.6779 57.2398 3.98941
43.017 39.3544 3.59289
41.695 40.5498 3.38316
47.0299 46.968 3.98712
46.8152 54.0564 3.96135
46.9459 50.5088 3.97578
43.9807 46.9964 3.98743
43.6815 41.709 3.82762
43.8709 44.1219 3.85758
41.564 42.2326 3.65235
40.4203 41.8489 3.33583
46.5588 59.7386 0.00660488
45.3915 58.729 2
43.8029 57.5936 3.98633
37.5633 67.7343 0.0229376
39.6462 65.5919 0.0249596
41.5939 63.7909 0.0215644
42.9341 62.0273 0.023656
44.5819 60.2227 0.00659003
35.4635 67.6464 2
41.7387 62.4423 2
39.8899 63.5292 2
37.6427 65.4924 2
42.4496 59.9224 2
40.6114 61.583 3.9843
40.4165 58.1023 3.99075
37.835 63.1826 3.97297
35.5724 65.4114 3.97522
33.5753 65.3193 2
31.9663 63.2633 2
33.6307 63.3123 3.98004
30.3865 62.8216 3.98149
32.1359 61.9668 3.98908
26.8972 61.4162 3.98619
28.0729 64.1195 3.98249
29.8877 64.693 2
29.4094 66.745 3.97772
31.6986 65.1084 0.0264531
31.378 67.1835 2
31.0161 69.4109 3.98313
33.3931 67.4725 0.0224534
33.1568 69.747 2
32.8946 72.1454 3.99112
35.3341 69.9526 0.0163436
35.1958 72.3719 2
35.0474 74.9194 4
37.5093 72.4561 0.00827264
37.5 75 2
39.9526 74.9197 0
35.6204 6.73009 3.98268
37.5241 4.61836 3.98892
39.6242 4.71878 2
39.7895 2.47532 3.99259
41.7359 4.97137 0.0122019
42.0629 2.71886 2
42.3946 0.32156 4
44.3263 3.11189 0.00825294
44.8159 0.72056 2
47.2057 1.27793 0
48.0768 41.1551 0.0328324
55.7429 37.8783 0.0226155
51.6215 39.2278 0.0202787
46.0392 40.2429 2
49 38.4578 2
52.5314 36.6244 2
49.8073 35.5517 3.97778
46.6293 37.7176 3.86717
44.5062 35.239 3.82751
42.4118 33.9799 3.60307
41.3504 33.3599 3.40074
37.4575 8.53844 3.98387
37.5169 6.67822 2
39.442 6.80895 0.018573
39.2105 8.7045 2
38.971 10.1389 3.99064
35.8979 9.78398 3.98115
34.1525 8.83293 3.97911
35.9434 8.50016 2
53.5955 34.0683 0.0247716
52.3222 30.8089 0.0251432
51.6602 27.5875 0.0250421
52.0279 21.341 0.0159216
51.5004 24.4781 0.0268573
49.6622 19.9944 0.0132658
47.9951 17.1033 0.0293597
47.6191 14.6954 0.0331472
44.7255 10.0101 0.0197924
45.9661 12.7658 0.0342018
41.0119 9.05579 0.0224473
42.4533 10.9173 -0.00432253
51.0464 33.0248 2
40.5635 11.6255 2
43.8261 11.9219 2
50.1617 29.5638 2
49.9718 26.0974 2
49.5713 22.5431 2
45.7257 15.508 2
47.3835 19.6364 2
48.6247 31.6063 3.98199
48.2979 27.858 3.97464
48.7853 24.705 3.97705
46.9522 22.3975 3.99289
38.2976 12.7626 3.97811
42.0678 14.3914 3.98432
44.7034 18.6936 3.98608
43.3718 37.4743 3.60674
44.9842 37.4769 2
47.8737 58.6378 0.0096626
48.325 55.7689 0.0463823
48.7912 44.9603 0.018446
48.7993 48.7329 0.0305195
48.6066 52.373 0.0186504
44.4802 39.703 0.175398
45.0196 42.3422 0.129065
45.3444 45.3664 0.018801
42.3611 40.9502 0.398192
41.3106 41.5691 0.599937
46.6754 57.2441 2
43.1069 39.3761 2
41.7143 40.5619 2
47.0369 46.9701 2
46.8103 54.06 2
46.9469 50.5204 2
44.0241 47.0061 2
43.7523 41.7618 2
43.9278 44.1565 2
41.622 42.3204 2
40.4726 41.8698 2
45.1974 55.7956 4.00118
42.027 39.1042 3.39238
40.2958 40.4615 3.46449
45.3319 48.6118 4.00363
45.0598 52.2956 3.99197
42.7864 47.9737 3.98971
42.6451 45.6212 3.864
42.709 43.4454 3.8147
40.6474 43.1576 3.61373
39.1325 42.1233 3.41608
45.3956 58.7305 0.0049119
43.7969 57.6095 2
42.026 56.145 3.9933
35.4636 67.6444 0.023334
37.6409 65.4885 0.0259526
39.8897 63.5273 0.0221928
41.7409 62.4393 0.0208245
42.4486 59.921 0.0114819
35.5734 65.4149 2
40.6101 61.5811 2
37.836 63.1825 2
40.4136 58.1084 2
38.9059 56.2892 3.99595
38.2413 60.2682 3.98496
35.6065 63.1783 3.97297
33.576 65.3203 0.0259724
31.9635 63.2636 0.0197327
33.6333 63.3145 2
30.3889 62.8209 2
32.1393 61.9664 2
28.6968 62.1546 3.9783
33.3543 61.4754 3.98392
31.0904 61.1886 3.99229
27.6274 59.5132 3.97958
23.8725 58.972 3.98424
25.0752 60.7755 3.97956
26.898 61.4178 2
26.2462 63.4439 3.97446
28.0726 64.1145 2
27.4684 66.1611 3.97697
29.8883 64.6951 0.0206355
29.408 66.7452 2
28.9092 68.9357 3.98228
31.3789 67.1826 0.0219188
31.0144 69.4113 2
30.6179 71.777 3.99044
33.158 69.7458 0.0164618
32.8933 72.1458 2
32.6054 74.6784 4
35.1964 72.3712 0.00809091
35.0474 74.9197 2
37.5 75 0
33.7234 6.98671 3.98109
35.4362 4.68832 3.98825
35.6216 6.73003 2
37.5154 2.38796 3.99276
37.5241 4.61789 2
39.6242 4.71899 0.011774
39.7893 2.47511 2
39.9526 0.0806499 4
42.063 2.71886 0.00763517
42.3947 0.320817 2
44.8158 0.721173 0
43.0465 35.5879 3.60055
41.7291 34.3716 3.36674
46.0064 40.2404 0.114892
48.9875 38.4893 0.0261027
52.511 36.6212 0.0228217
46.6367 37.7081 2
49.8316 35.5875 2
44.614 35.2249 2
42.4684 33.9171 2
41.3765 33.3346 2
46.8894 34.438 3.93064
43.7379 33.229 3.82073
41.6111 32.7004 3.65531
40.4439 33.0887 3.33509
37.3083 10.6369 3.98123
37.4591 8.53962 2
37.5159 6.67796 0.0153447
39.2093 8.70332 0.0199432
38.9768 10.1421 2
34.756 10.3955 3.97664
35.903 9.78178 2
32.3805 9.38236 3.974
34.1526 8.83175 2
35.9423 8.50054 0.0185358
51.0311 33.0392 0.0226538
50.1479 29.563 0.0233973
49.9678 26.0835 0.0293741
49.5855 22.5762 0.0190789
47.3738 19.6019 0.0198284
45.7424 15.5773 0.0103817
43.8239 11.9275 0.0366928
40.5573 11.6142 0.0154067
48.6444 31.5909 2
38.2998 12.7624 2
42.0761 14.3936 2
48.2966 27.8562 2
48.787 24.7113 2
46.9434 22.387 2
44.7137 18.7557 2
46.5913 29.874 3.97968
46.4743 25.4114 3.97943
44.1416 21.698 3.98367
36.5882 12.9782 3.9773
38.6658 14.8986 3.97815
41.6864 18.0186 3.98562
42.1976 37.4471 3.41971
43.4526 37.4756 2
44.8764 37.4892 0.169606
46.6779 57.2398 0.0105947
46.8152 54.0564 0.0386513
47.0299 46.968 0.0128788
46.9459 50.5088 0.0242176
43.017 39.3544 0.407108
43.6815 41.709 0.172376
43.8709 44.1219 0.142423
43.9807 46.9964 0.0125712
41.564 42.2326 0.34765
41.695 40.5498 0.616842
40.4203 41.8489 0.664165
45.1944 55.8 2
42.0454 39.1121 2
40.3684 40.4532 2
45.332 48.6347 2
45.0547 52.2986 2
42.8331 47.9976 2
42.7169 45.6871 2
42.7532 43.4781 2
40.7114 43.2439 2
39.11 42.155 2
43.5167 54.2291 4.00594
40.3721 38.9565 3.49446
39.0303 40.5535 3.44509
43.116 50.0773 4.00309
41.4654 47.106 3.91509
41.3855 44.7081 3.81262
39.367 43.811 3.59328
37.511 42.2685 3.47793
43.8029 57.5936 0.0136735
42.0301 56.1328 2
40.329 54.7073 3.99621
35.5724 65.4114 0.0247782
37.835 63.1826 0.0270295
40.6114 61.583 0.0157019
40.4165 58.1023 0.00925015
35.6087 63.1745 2
38.2371 60.2647 2
38.9067 56.2705 2
37.9791 54.9679 3.99535
36.9263 57.5071 3.9922
35.3655 60.8714 3.9856
33.6307 63.3123 0.0199566
30.3865 62.8216 0.0185142
32.1359 61.9668 0.0109181
33.3578 61.474 2
28.6969 62.1632 2
31.0936 61.1896 2
29.4452 60.2421 3.98436
32.3722 59.6503 3.99601
28.113 58.3046 4.0182
27.6293 59.5116 2
25.4633 58.4991 3.97826
22.8756 58.1233 3.97225
23.4507 60.2411 3.97455
23.8739 58.973 2
25.0768 60.7765 2
24.4562 62.7145 3.97401
26.8972 61.4162 0.0138085
26.2462 63.4438 2
25.5555 65.4694 3.97386
28.0729 64.1195 0.0175054
27.4672 66.1625 2
26.84 68.3229 3.98043
29.4094 66.745 0.0222847
28.9071 68.9353 2
28.3734 71.2623 3.98921
31.0161 69.4109 0.0168677
30.6159 71.7766 2
30.1842 74.2788 4
32.8946 72.1454 0.00888445
32.6053 74.6792 2
35.0474 74.9194 0
31.7881 7.42801 3.97851
33.3487 4.92825 3.98679
33.7244 6.98588 2
35.246 2.46378 3.99275
35.436 4.68835 2
35.6204 6.73009 0.0173244
37.5 0 4
37.5148 2.38774 2
37.5241 4.61836 0.0110794
39.7895 2.47532 0.00741222
39.9526 0.0802889 2
42.3946 0.32156 0
42.0237 35.7872 3.35469
43.1462 35.5651 2
40.351 34.4496 3.47275
41.7384 34.3542 2
46.6293 37.7176 0.132832
49.8073 35.5517 0.0222208
44.5062 35.239 0.172487
42.4118 33.9799 0.396926
41.3504 33.3599 0.599263
46.9269 34.4445 2
43.7972 33.172 2
41.6622 32.6164 2
40.4856 33.0682 2
45.0486 31.899 3.88427
42.7586 31.4855 3.80561
40.6932 31.776 3.61586
39.1378 32.8265 3.41371
35.6972 11.7961 3.97477
37.3164 10.6381 2
37.4575 8.53844 0.0161314
38.971 10.1389 0.00936004
33.1035 11.2379 3.97294
34.7589 10.3905 2
35.8979 9.78398 0.0188461
30.4876 10.0356 3.97516
32.3806 9.38245 2
34.1525 8.83293 0.0208895
48.6247 31.6063 0.0180052
48.2979 27.858 0.0253595
48.7853 24.705 0.0229485
46.9522 22.3975 0.00710877
44.7034 18.6936 0.0139211
42.0678 14.3914 0.0156827
38.2976 12.7626 0.0218871
36.5854 12.9654 2
46.5807 29.8142 2
38.6697 14.8763 2
41.6828 18.0159 2
46.4807 25.3987 2
44.1281 21.6863 2
44.6602 28.0227 3.99538
43.4027 24.3448 4.01769
41.2378 21.0435 3.99579
35.7733 14.8149 3.98775
38.6352 17.7561 3.98854
40.427 37.4111 3.52105
42.2211 37.453 2
43.3718 37.4743 0.39326
45.1974 55.7956 -0.00117507
45.0598 52.2956 0.00803381
45.3319 48.6118 -0.00362639
42.027 39.1042 0.607617
42.709 43.4454 0.185298
42.6451 45.6212 0.136002
42.7864 47.9737 0.0102876
40.6474 43.1576 0.386271
40.2958 40.4615 0.535509
39.1325 42.1233 0.583922
43.5121 54.2249 2
40.4102 38.9598 2
39.0163 40.5568 2
43.1057 50.1004 2
41.4589 47.1339 2
41.4088 44.7482 2
37.5049 42.2939 2
39.3858 43.8926 2
41.6675 52.679 4.00141
39.0421 39.0169 3.4367
37.5081 40.5968 3.50517
35.89 42.1399 3.41183
40.6718 49.22 3.99074
39.6183 45.3873 3.77769
37.5078 44.1041 3.64077
42.026 56.145 0.00669792
40.3288 54.7143 2
38.6983 53.448 3.99706
35.6065 63.1783 0.0270256
38.2413 60.2682 0.0150373
38.9059 56.2892 0.00405386
35.3655 60.8551 2
36.9266 57.5139 2
37.9709 54.9611 2
36.3282 55.0694 3.99701
34.4974 58.4281 3.99467
33.3543 61.4754 0.0160775
28.6968 62.1546 0.0217016
31.0904 61.1886 0.00771027
32.3712 59.6554 2
29.4472 60.2468 2
30.3725 57.7406 3.99002
28.1149 58.3025 2
27.1115 56.7372 3.96633
27.6274 59.5132 0.0204206
25.4653 58.5003 2
24.0388 56.6744 3.96004
21.5386 57.2527 3.95782
22.0584 59.5184 3.97366
22.8758 58.1253 2
22.7669 61.9356 3.97286
23.4525 60.2418 2
23.8725 58.972 0.0157599
25.0752 60.7755 0.0204425
24.4565 62.7149 2
23.6924 64.6803 3.97092
26.2462 63.4439 0.0255397
25.5549 65.4728 2
24.8125 67.5837 3.97715
27.4684 66.1611 0.0230283
26.8376 68.3243 2
26.1689 70.603 3.98858
28.9092 68.9357 0.0177244
28.371 71.2616 2
27.7943 73.7221 4
30.6179 71.777 0.00956372
30.1841 74.2794 2
32.6054 74.6784 0
29.8113 8.00609 3.97621
31.254 5.3361 3.98529
31.7888 7.42714 2
32.9821 2.70196 3.99212
33.3481 4.92793 2
33.7234 6.98671 0.0189087
35.0474 0.080333 4
35.2451 2.46391 2
35.4362 4.68832 0.0117467
37.5 0 2
37.5154 2.38796 0.00724006
39.9526 0.0806499 0
40.474 35.9127 3.51783
42.0532 35.7863 2
43.0465 35.5879 0.39945
28.5495 10.7118 3.97589
39.0356 34.4059 3.43398
40.3651 34.447 2
41.7291 34.3716 0.63326
46.8894 34.438 0.0693608
43.7379 33.229 0.179265
41.6111 32.7004 0.344686
40.4439 33.0887 0.664909
45.0801 31.881 2
42.8061 31.4443 2
40.7517 31.6918 2
39.127 32.7909 2
43.5236 30.1726 3.86766
41.4138 30.2184 3.81416
39.3825 31.1291 3.59636
37.5252 32.6981 3.47573
34.1029 12.9608 3.97785
35.7005 11.7858 2
37.3083 10.6369 0.0187675
31.1946 12.0099 3.97611
33.1064 11.2362 2
34.756 10.3955 0.0233562
30.4853 10.0312 2
32.3805 9.38236 0.0259999
46.5913 29.874 0.0203179
46.4743 25.4114 0.0205731
36.5882 12.9782 0.0227045
44.1416 21.698 0.0163327
41.6864 18.0186 0.0143817
38.6658 14.8986 0.0218537
35.7706 14.8265 2
44.659 28.0245 2
38.6408 17.7421 2
41.2236 21.02 2
43.3995 24.3217 2
33.6294 15.9189 3.99014
42.5483 26.8218 3.97207
40.7518 23.6935 3.99552
38.3659 20.5606 3.99243
35.8347 17.6405 3.98398
39.061 37.4795 3.4332
40.4507 37.4192 2
42.1976 37.4471 0.580294
43.5167 54.2291 -0.00594272
43.116 50.0773 -0.0030877
40.3721 38.9565 0.50554
41.3855 44.7081 0.18738
41.4654 47.106 0.0849139
39.367 43.811 0.406716
39.0303 40.5535 0.554908
37.511 42.2685 0.522067
41.6566 52.6726 2
39.0233 39.0094 2
37.5 40.5985 2
40.652 49.2252 2
35.9072 42.1689 2
39.6535 45.4593 2
37.5022 44.186 2
39.6881 51.4334 3.99892
37.5125 39.014 3.49134
36.0067 40.5742 3.44401
34.6005 41.8758 3.33628
35.6491 43.8276 3.59257
38.6098 48.0523 3.9231
37.5107 45.6809 3.81134
40.329 54.7073 0.00379426
38.6944 53.4646 2
36.7672 52.8128 3.9975
35.3655 60.8714 0.0144018
36.9263 57.5071 0.00780196
37.9791 54.9679 0.00465045
34.4956 58.4416 2
36.333 55.0605 2
33.3121 55.2669 3.99654
32.3722 59.6503 0.00398504
29.4452 60.2421 0.0156352
30.3748 57.735 2
28.9246 55.242 3.99562
28.113 58.3046 -0.018199
27.1142 56.7347 2
25.6076 55.001 3.95455
22.1525 55.1643 3.95904
25.4633 58.4991 0.0217372
24.0396 56.6767 2
20.4271 56.8818 3.96209
20.7429 58.6654 3.95953
21.54 57.2543 2
21.2041 61.0725 3.96979
22.0587 59.5188 2
22.8756 58.1233 0.0277543
21.9113 63.784 3.97158
22.7678 61.9369 2
23.4507 60.2411 0.0254542
24.4562 62.7145 0.0259855
23.6919 64.6817 2
22.8407 66.7243 3.9742
25.5555 65.4694 0.0261362
24.8102 67.5815 2
24.0132 69.8045 3.98765
26.84 68.3229 0.0195738
26.1655 70.6025 2
25.446 73.0099 4
28.3734 71.2623 0.0107866
27.7943 73.7222 2
30.1842 74.2788 0
27.8218 8.66744 3.9765
29.1563 5.88389 3.98252
29.811 8.0024 2
30.7277 3.09924 3.99148
31.2533 5.33497 2
31.7881 7.42801 0.0214908
32.6053 0.320823 4
32.9808 2.70202 2
33.3487 4.92825 0.0132121
35.0474 0.0802903 2
35.246 2.46378 0.00725204
37.5 0 0
38.9793 35.9467 3.44739
40.4535 35.9086 2
42.0237 35.7872 0.645313
28.5467 10.7079 2
26.6322 11.4109 3.9749
29.2362 12.6621 3.97908
37.5312 34.3744 3.50559
39.0599 34.4176 2
40.351 34.4496 0.527248
45.0486 31.899 0.115734
42.7586 31.4855 0.194388
40.6932 31.776 0.384141
39.1378 32.8265 0.586293
43.5515 30.1431 2
41.4525 30.1741 2
39.397 31.0491 2
37.5327 32.6699 2
41.8267 28.8895 3.85403
39.6266 29.5408 3.79956
37.521 30.8521 3.64193
35.9028 32.836 3.41903
31.9388 14.5075 3.98358
34.106 12.9659 2
35.6972 11.7961 0.0252334
31.1955 12.0003 2
33.1035 11.2379 0.0270596
30.4876 10.0356 0.0248444
44.6602 28.0227 0.00462026
43.4027 24.3448 -0.0176887
35.7733 14.8149 0.0122533
41.2378 21.0435 0.00421463
38.6352 17.7561 0.0114558
33.6145 15.9114 2
35.8389 17.5837 2
42.619 26.7911 2
38.3469 20.5937 2
40.7371 23.6967 2
33.5671 17.4616 3.99099
40.2011 26.1897 3.9655
38.0148 23.4534 3.997
35.5256 20.358 3.99576
37.5292 37.4726 3.50921
39.0309 37.4701 2
40.427 37.4111 0.478952
41.6675 52.679 -0.00141087
40.6718 49.22 0.00926437
39.0421 39.0169 0.563298
39.6183 45.3873 0.22231
37.5078 44.1041 0.359234
37.5081 40.5968 0.49483
35.89 42.1399 0.588168
39.6699 51.4264 2
37.5063 39.0152 2
35.9964 40.5558 2
38.6304 48.1178 2
34.5554 41.8962 2
35.6299 43.9075 2
37.5018 45.7418 2
37.6773 50.3913 3.98975
36.0441 39.0332 3.45077
34.7084 40.4975 3.47478
33.697 41.6022 3.40301
34.378 43.1853 3.60809
35.3458 45.4443 3.80442
36.9256 47.6728 3.88118
38.6983 53.448 0.00294373
36.7772 52.7587 2
34.5101 52.1346 4.00142
34.4974 58.4281 0.00533204
36.3282 55.0694 0.00298998
33.3166 55.2749 2
30.7836 53.2143 3.99845
30.3725 57.7406 0.00997832
28.9265 55.2405 2
27.2717 53.2612 3.95467
27.1115 56.7372 0.0336703
25.6109 55.0042 2
24.0384 53.2606 3.95356
21.0378 52.9819 3.95904
20.258 55.6548 3.96077
22.1518 55.1649 2
24.0388 56.6744 0.0399602
19.5853 57.7629 3.96111
20.4218 56.8851 2
19.743 60.1125 3.96936
20.7346 58.6695 2
21.5386 57.2527 0.0421772
20.2298 62.7805 3.9711
21.2077 61.0743 2
22.0584 59.5184 0.0263441
20.9438 65.7469 3.97202
21.9112 63.7879 2
22.7669 61.9356 0.0271357
23.6924 64.6803 0.0290777
22.839 66.7227 2
21.9161 68.871 3.98605
24.8125 67.5837 0.0228497
24.0096 69.8021 2
23.1494 72.1454 4
26.1689 70.603 0.0114198
25.446 73.0099 2
27.7943 73.7221 0
25.862 9.39803 3.97451
27.0712 6.54931 3.98071
27.82 8.66399 2
28.4902 3.6452 3.99027
29.1549 5.88216 2
29.8113 8.00609 0.0237863
30.1841 0.720592 4
30.7257 3.09906 2
31.254 5.3361 0.0147067
32.6053 0.320817 2
32.9821 2.70196 0.00787631
35.0474 0.080333 0
37.5208 35.9374 3.48132
38.9586 35.9196 2
40.474 35.9127 0.482168
24.7926 12.0882 3.9714
23.7835 14.4622 3.97952
28.5495 10.7118 0.024112
26.6274 11.4067 2
29.2368 12.6592 2
27.3032 13.4139 3.97255
29.809 14.2181 3.99134
35.9997 34.405 3.45142
37.5458 34.3694 2
39.0356 34.4059 0.566021
37.5252 32.6981 0.524273
43.5236 30.1726 0.132338
41.4138 30.2184 0.18584
39.3825 31.1291 0.403637
41.8591 28.815 2
39.6575 29.473 2
37.5238 30.7749 2
35.9219 32.8059 2
39.8113 28.1665 3.85386
37.4925 29.2636 3.79982
35.6683 31.152 3.59504
34.6034 33.1081 3.34032
30.9715 16.8651 3.99673
31.9337 14.4936 2
34.1029 12.9608 0.0221451
31.1946 12.0099 0.0238915
42.5483 26.8218 0.02793
40.7518 23.6935 0.00447681
33.6294 15.9189 0.00985621
35.8347 17.6405 0.0160235
38.3659 20.5606 0.00756951
33.5465 17.4809 2
35.5146 20.3938 2
40.231 26.1584 2
38.0256 23.4449 2
32.9594 19.9437 3.99765
37.7269 25.8409 3.96066
35.3445 23.11 4.00957
36.0128 37.4691 3.43835
37.5103 37.4721 2
39.061 37.4795 0.566803
39.6881 51.4334 0.00107697
38.6098 48.0523 0.0769002
37.5125 39.014 0.508657
37.5107 45.6809 0.188655
35.6491 43.8276 0.407429
36.0067 40.5742 0.555995
34.6005 41.8758 0.663722
37.6498 50.429 2
36.0839 39.0195 2
34.6526 40.5081 2
36.9282 47.7372 2
33.6544 41.6301 2
34.3142 43.2637 2
35.3166 45.5036 2
35.5752 49.598 3.98107
34.6024 39.0181 3.51266
33.316 40.5916 3.37088
33.4453 42.2631 3.65508
33.6689 44.7239 3.80321
34.6274 46.8434 3.85677
36.7672 52.8128 0.00249898
34.4903 52.1662 2
32.3502 50.954 4.00055
33.3121 55.2669 0.00345866
30.7865 53.2096 2
28.8988 51.3295 3.98896
28.9246 55.242 0.0043765
27.2745 53.2609 2
25.6501 51.489 3.9534
25.6076 55.001 0.0454549
24.0416 53.2646 2
22.6252 51.5361 3.95585
19.9436 51.3611 3.96391
19.4069 54.0948 3.96139
21.0422 52.9804 2
18.7059 56.5702 3.9619
20.256 55.6571 2
22.1525 55.1643 0.0409642
18.4406 59.0138 3.95791
19.5839 57.7652 2
20.4271 56.8818 0.0379085
18.6385 61.6894 3.97613
19.7456 60.116 2
20.7429 58.6654 0.0404733
19.137 64.6397 3.97176
20.2308 62.7836 2
21.2041 61.0725 0.0302063
19.8902 67.8072 3.98342
20.9419 65.7467 2
21.9113 63.784 0.0284224
22.8407 66.7243 0.0257967
21.9118 68.8686 2
20.9142 71.1327 4
24.0132 69.8045 0.0123538
23.1494 72.1455 2
25.446 73.0099 0
23.114 12.8707 3.9772
23.9757 10.1834 3.97439
25.0248 7.32076 3.97799
25.8593 9.39627 2
26.2822 4.32981 3.98906
27.0687 6.54815 2
27.8218 8.66744 0.0235012
27.7943 1.27781 4
28.4872 3.64573 2
29.1563 5.88389 0.0174819
30.1841 0.720551 2
30.7277 3.09924 0.00851716
32.6053 0.320823 0
35.9962 35.9307 3.44093
37.5564 35.949 2
38.9793 35.9467 0.552611
24.783 12.1207 2
23.7826 14.468 2
22.5265 15.1485 3.9812
25.3787 14.0071 3.97328
24.0882 15.7172 3.99733
26.6322 11.4109 0.0250971
29.2362 12.6621 0.0209225
27.3123 13.396 2
29.8027 14.2177 2
28.4126 15.9834 3.99241
34.7304 34.4879 3.46553
36.016 34.4035 2
37.5312 34.3744 0.494413
35.9028 32.836 0.580972
37.521 30.8521 0.358071
41.8267 28.8895 0.14597
39.6266 29.5408 0.200439
39.8629 28.1097 2
37.4962 29.2124 2
35.6507 31.0692 2
34.5555 33.0885 2
37.6289 27.8903 3.85534
35.4084 29.5632 3.7982
34.37 31.7978 3.61424
33.7047 33.385 3.40209
30.3014 19.5721 3.97995
30.946 16.8639 2
31.9388 14.5075 0.0164192
40.2011 26.1897 0.0345003
38.0148 23.4534 0.003002
33.5671 17.4616 0.00901451
35.5256 20.358 0.00423522
32.9705 19.9674 2
35.3035 23.0949 2
37.7166 25.824 2
32.5762 22.6931 4.00249
35.2137 25.719 3.98414
34.5841 37.5047 3.53428
36.0082 37.4886 2
37.5292 37.4726 0.490795
37.6773 50.3913 0.010255
36.9256 47.6728 0.118821
36.0441 39.0332 0.549234
35.3458 45.4443 0.195579
34.378 43.1853 0.391909
34.7084 40.4975 0.525217
33.697 41.6022 0.596989
35.5533 49.6102 2
34.582 39.0243 2
33.2997 40.6014 2
34.5625 46.9172 2
33.3891 42.3501 2
33.6239 44.7723 2
33.5423 48.7302 3.97196
33.0001 39.1613 3.36029
32.6269 40.9825 3.60185
32.296 43.478 3.81086
32.8918 45.8479 3.85317
34.5101 52.1346 -0.0014199
32.3652 50.9492 2
30.4888 49.4694 4.00491
30.7836 53.2143 0.00154619
28.9068 51.3427 2
27.2087 49.6976 3.97473
27.2717 53.2612 0.0453251
25.6529 51.4871 2
24.1073 49.8864 3.9676
24.0384 53.2606 0.0464444
22.6307 51.5334 2
21.3048 50.0119 3.96724
18.6847 50.0778 3.97266
18.4544 52.5545 3.96605
19.9366 51.3614 2
17.8458 55.1555 3.96243
19.4054 54.0952 2
21.0378 52.9819 0.0409644
17.3067 57.7553 3.95882
18.7065 56.5711 2
20.258 55.6548 0.0392292
17.158 60.4821 3.95842
18.4399 59.0161 2
19.5853 57.7629 0.038889
17.4197 63.4181 3.96801
18.6396 61.6922 2
19.743 60.1125 0.0306372
17.946 66.6146 3.9803
19.1351 64.6375 2
20.2298 62.7805 0.0289041
18.75 69.9759 4
19.8863 67.8027 2
20.9438 65.7469 0.0279819
21.9161 68.871 0.0139498
20.9142 71.1327 2
23.1494 72.1454 0
21.6152 13.704 3.96912
22.1991 11.0666 3.96933
23.1136 12.867 2
23.0418 8.18833 3.97506
23.9747 10.1939 2
24.1202 5.14438 3.98876
25.0212 7.32018 2
25.862 9.39803 0.0254901
25.446 1.99014 4
26.2782 4.33079 2
27.0712 6.54931 0.0192948
27.7943 1.27778 2
28.4902 3.6452 0.00972681
30.1841 0.720592 0
34.6619 35.9751 3.49724
36.0199 35.9423 2
37.5208 35.9374 0.518681
21.3721 15.9486 3.96127
24.7926 12.0882 0.0286044
23.7835 14.4622 0.0204756
25.3784 13.9823 2
22.5246 15.1363 2
24.0933 15.7258 2
23.3525 16.357 3.96353
25.4468 16.1956 3.98748
27.3032 13.4139 0.0274498
29.809 14.2181 0.00865985
28.4052 16.0048 2
27.5394 18.989 3.97947
33.3221 34.4017 3.38751
34.6585 34.4963 2
35.9997 34.405 0.548582
34.6034 33.1081 0.659681
35.6683 31.152 0.404961
37.4925 29.2636 0.200181
39.8113 28.1665 0.146145
37.5911 27.8558 2
33.6678 33.3611 2
35.3934 29.4951 2
34.3173 31.7167 2
35.2874 27.9836 3.87016
33.6505 30.2456 3.80662
33.4431 32.7174 3.65743
29.898 22.1846 4.0091
30.3038 19.5637 2
30.9715 16.8651 0.00326511
37.7269 25.8409 0.0393376
35.3445 23.11 -0.00956944
32.9594 19.9437 0.00234682
32.5616 22.6587 2
35.2296 25.7094 2
32.2022 25.9958 4.00954
32.8232 37.4971 3.41325
34.5819 37.4961 2
36.0128 37.4691 0.561653
35.5752 49.598 0.0189256
34.6274 46.8434 0.143227
34.6024 39.0181 0.487339
33.6689 44.7239 0.196789
33.4453 42.2631 0.344924
33.316 40.5916 0.629116
33.5375 48.7192 2
32.9995 39.1696 2
32.5704 41.0437 2
32.8809 45.9066 2
32.2518 43.5095 2
31.8603 47.5504 3.98749
31.9933 39.3784 3.60175
31.3058 41.7426 3.82277
31.41 44.4951 3.85944
32.3502 50.954 -0.000549345
30.4941 49.4982 2
28.7331 47.8857 3.97497
28.8988 51.3295 0.0110373
27.2074 49.7004 2
25.5683 48.1353 3.97369
25.6501 51.489 0.0466024
24.111 49.8838 2
22.6231 48.4474 3.97156
22.6252 51.5361 0.0441544
21.3058 50.0095 2
19.8345 48.8098 3.97518
17.5508 49.1019 3.97622
17.3688 51.1873 3.9718
18.6862 50.0764 2
16.8674 53.6776 3.96691
18.4509 52.5547 2
19.9436 51.3611 0.0360887
16.2672 56.3338 3.96151
17.8438 55.1562 2
19.4069 54.0948 0.0386137
15.8147 59.1391 3.9571
17.3031 57.7577 2
18.7059 56.5702 0.0380962
15.7933 62.0909 3.9708
17.1615 60.484 2
18.4406 59.0138 0.0420867
16.0933 65.2938 3.97593
17.4176 63.4256 2
18.6385 61.6894 0.0238708
16.6661 68.6801 4
17.9426 66.6101 2
19.137 64.6397 0.028237
18.75 69.9759 2
19.8902 67.8072 0.016585
20.9142 71.1327 0
20.2544 14.6967 3.9713
21.6158 13.7036 2
20.5457 12.0742 3.97223
21.1457 9.16232 3.97383
22.1944 11.0795 2
23.114 12.8707 0.0228001
22.0197 6.08323 3.9872
23.0391 8.19132 2
23.9757 10.1834 0.0256128
23.1494 2.85457 4
24.1151 5.14645 2
25.0248 7.32076 0.0220085
25.446 1.99012 2
26.2822 4.32981 0.0109415
27.7943 1.27781 0
32.9834 35.8442 3.39335
34.6162 35.9753 2
35.9962 35.9307 0.559069
21.3772 15.9406 2
20.4194 17.082 3.96147
22.1895 16.7529 3.95728
25.3787 14.0071 0.0267217
22.5265 15.1485 0.0187998
24.0882 15.7172 0.00267011
25.4489 16.1947 2
23.3593 16.3544 2
24.3222 18.6504 3.98236
27.3427 21.783 3.99371
28.4126 15.9834 0.00758801
27.5325 19.0107 2
32.6519 33.994 3.59942
33.3046 34.3917 2
34.7304 34.4879 0.534472
33.7047 33.385 0.597914
34.37 31.7978 0.385762
35.4084 29.5632 0.201804
37.6289 27.8903 0.144662
35.2751 27.9357 2
33.3892 32.6356 2
33.6071 30.1962 2
33.1224 28.6169 3.87865
32.2939 31.4935 3.80692
29.3561 24.6525 4.01547
29.872 22.1856 2
30.3014 19.5721 0.020046
35.2137 25.719 0.0158637
32.5762 22.6931 -0.00249011
32.1925 25.9623 2
30.4421 27.6738 3.98084
31.653 37.4824 3.60121
32.8167 37.4973 2
34.5841 37.5047 0.465715
33.5423 48.7302 0.0280398
32.8918 45.8479 0.14683
33.0001 39.1613 0.639715
32.296 43.478 0.189135
32.6269 40.9825 0.398147
31.8053 47.5796 2
31.8987 39.392 2
31.2423 41.7986 2
31.3494 44.5449 2
30.1856 46.1668 3.98413
30.5283 39.7378 3.83052
29.9945 42.8239 3.87827
30.4888 49.4694 -0.00490642
28.7324 47.8919 2
27.0258 46.3029 3.97872
27.2087 49.6976 0.0252702
25.5701 48.1324 2
23.9106 46.7087 3.97513
24.1073 49.8864 0.0323999
22.6231 48.4461 2
20.8904 47.3117 3.97587
21.3048 50.0119 0.0327567
19.8332 48.8084 2
18.4282 47.9283 3.97642
16.7911 48.4683 3.97611
17.5501 49.1018 2
16.4177 49.9683 3.97504
15.8548 52.2353 3.97177
17.3705 51.1864 2
18.6847 50.0778 0.027341
15.2165 54.8304 3.96472
16.8678 53.6772 2
18.4544 52.5545 0.0339549
14.5991 57.6564 3.95803
16.2668 56.3346 2
17.8458 55.1555 0.0375725
14.2767 60.6576 3.96371
15.8131 59.1413 2
17.3067 57.7553 0.0411769
14.3381 63.8536 3.97428
15.7959 62.0926 2
17.158 60.4821 0.0415781
14.6715 67.2507 4
16.0898 65.2894 2
17.4197 63.4181 0.0319876
16.6661 68.6801 2
17.946 66.6146 0.0197026
18.75 69.9759 0
18.9944 15.8831 3.95998
20.2582 14.6889 2
19.0009 13.1943 3.97033
21.6152 13.704 0.0308757
20.5416 12.0748 2
19.3489 10.26 3.97143
19.9946 7.14835 3.98501
21.1422 9.16259 2
22.1991 11.0666 0.0306665
20.9142 3.86727 4
22.014 6.08671 2
23.0418 8.18833 0.0249403
23.1494 2.85451 2
24.1202 5.14438 0.0112361
25.446 1.99014 0
32.0143 35.5999 3.59175
32.9782 35.8365 2
34.6619 35.9751 0.502758
21.3721 15.9486 0.0387312
22.1962 16.7462 2
20.4276 17.081 2
19.4836 18.5729 3.95821
21.9025 18.0305 3.9849
25.4468 16.1956 0.0125246
23.3525 16.357 0.0364683
24.3159 18.6703 2
22.583 20.1096 3.97243
24.9324 21.6322 3.99003
26.9892 23.9445 3.98441
27.3387 21.6956 2
27.5394 18.989 0.0205254
31.344 33.2402 3.82206
32.5934 33.9424 2
33.3221 34.4017 0.612486
33.4431 32.7174 0.342567
33.6505 30.2456 0.193383
35.2874 27.9836 0.129844
33.081 28.5769 2
32.2359 31.4392 2
31.0958 29.9846 3.89825
28.7257 26.8425 4.00677
29.3437 24.6639 2
29.898 22.1846 -0.00909854
32.2022 25.9958 -0.00954009
30.4307 27.651 2
30.1419 37.4705 3.8299
31.5624 37.4808 2
32.8232 37.4971 0.586747
31.8603 47.5504 0.012515
31.41 44.4951 0.140558
31.9933 39.3784 0.398246
31.3058 41.7426 0.177234
30.1911 46.1744 2
30.4287 39.7456 2
29.9637 42.8535 2
28.5294 44.503 3.96511
28.2738 40.4246 3.92238
28.7331 47.8857 0.0250288
27.0263 46.3015 2
25.2489 44.8202 3.98021
25.5683 48.1353 0.0263127
23.9096 46.707 2
21.9585 45.6196 3.97736
22.6231 48.4474 0.0284385
20.8907 47.3107 2
19.1969 46.4895 3.97587
19.8345 48.8098 0.0248161
18.4284 47.9279 2
17.0521 47.4985 3.9756
16.7924 48.4684 2
15.7799 48.8214 3.97543
17.5508 49.1019 0.0237757
16.4193 49.9674 2
14.9597 50.8186 3.97442
14.1739 53.2998 3.96915
15.8561 52.2347 2
17.3688 51.1873 0.0282039
13.4583 56.0777 3.96096
15.2164 54.8305 2
16.8674 53.6776 0.0330898
12.8718 59.0992 3.95711
14.5977 57.6578 2
16.2672 56.3338 0.0384857
12.6838 62.2941 3.969
14.28 60.659 2
15.8147 59.1391 0.0428992
12.7746 65.6939 4
14.3349 63.8474 2
15.7933 62.0909 0.0292042
14.6714 67.2507 2
16.0933 65.2938 0.0240688
16.6661 68.6801 0
17.8311 17.2838 3.95993
18.9955 15.876 2
17.5404 14.4491 3.96862
20.2544 14.6967 0.0286977
18.9998 13.1908 2
17.6512 11.5046 3.97173
20.5457 12.0742 0.0277659
19.345 10.2707 2
18.0543 8.34164 3.98253
18.75 5.0241 4
19.9884 7.15356 2
21.1457 9.16232 0.0261727
20.9142 3.86727 2
22.0197 6.08323 0.012804
23.1494 2.85457 0
30.5366 35.2596 3.82544
31.9195 35.5781 2
32.9834 35.8442 0.606647
22.1895 16.7529 0.0427236
20.4194 17.082 0.0385291
21.9075 18.0279 2
19.4757 18.5684 2
18.3778 20.1409 3.96329
21.1521 19.5843 3.97275
24.3222 18.6504 0.017637
22.5783 20.1084 2
24.9449 21.6021 2
22.8234 21.9734 3.97905
25.2997 23.3029 3.98285
26.3471 26.2232 3.98099
26.9926 23.9396 2
27.3427 21.783 0.00628821
29.7563 32.6064 3.87827
31.2615 33.1941 2
32.6519 33.994 0.400577
32.2939 31.4935 0.193081
33.1224 28.6169 0.121346
31.075 29.9649 2
28.1545 29.4525 4.00987
28.7067 26.8557 2
29.3561 24.6525 -0.0154731
30.4421 27.6738 0.0191608
28.4783 37.3943 3.86435
30.0538 37.4821 2
31.653 37.4824 0.398793
30.1856 46.1668 0.0158683
29.9945 42.8239 0.121729
30.5283 39.7378 0.169477
28.5307 44.5592 2
28.2329 40.4328 2
26.6637 42.962 3.97964
25.5817 39.4154 3.97716
27.0258 46.3029 0.0212789
25.2395 44.8248 2
23.187 43.6535 3.97525
23.9106 46.7087 0.0248663
21.9559 45.6205 2
20.0143 44.7316 3.97518
20.8904 47.3117 0.0241259
19.1966 46.4902 2
17.4298 46.0034 3.97555
18.4282 47.9283 0.0235763
17.0526 47.4986 2
15.5594 47.4887 3.97522
16.7911 48.4683 0.0238877
15.7818 48.821 2
14.2765 49.3871 3.97521
16.4177 49.9683 0.0249632
14.9608 50.8179 2
13.2413 51.7512 3.97221
12.3515 54.4442 3.96357
14.1747 53.2994 2
15.8548 52.2353 0.0282326
11.5984 57.4284 3.95917
13.457 56.0783 2
15.2165 54.8304 0.0352769
11.1399 60.6206 3.96769
12.8757 59.0985 2
14.5991 57.6564 0.041971
10.9835 64.0165 4
12.6821 62.2876 2
14.2767 60.6576 0.036289
12.7745 65.694 2
14.3381 63.8536 0.0257155
14.6715 67.2507 0
16.6678 18.7976 3.96089
17.8263 17.2774 2
16.165 15.8568 3.95616
18.9944 15.8831 0.0400248
17.5418 14.4444 2
16.0316 12.8595 3.96609
19.0009 13.1943 0.0296738
17.6458 11.5089 2
16.206 9.66772 3.97708
19.3489 10.26 0.0285672
18.0492 8.34855 2
16.6661 6.31991 4
18.75 5.02404 2
19.9946 7.14835 0.0149905
20.9142 3.86727 0
28.9379 34.8894 3.88709
30.4246 35.2204 2
32.0143 35.5999 0.408254
17.1221 21.5735 3.96972
21.9025 18.0305 0.0151006
19.4836 18.5729 0.0417877
21.1412 19.579 2
18.373 20.1377 2
20.2513 21.8237 3.97366
22.583 20.1096 0.0275699
24.9324 21.6322 0.00997189
22.8251 21.9719 2
25.2795 23.3649 2
23.6563 24.8814 3.97154
25.7219 28.8199 3.98432
26.3352 26.2315 2
26.9892 23.9445 0.0155881
27.6233 31.9615 3.97897
29.7116 32.5835 2
31.344 33.2402 0.177945
31.0958 29.9846 0.101752
28.1693 29.4144 2
28.7257 26.8425 -0.00676836
26.2912 36.8777 3.96391
28.4458 37.3909 2
30.1419 37.4705 0.170104
28.5294 44.503 0.0348884
28.2738 40.4246 0.0776205
26.6403 42.9907 2
25.5434 39.4129 2
24.4302 41.6587 3.97798
23.2758 38.5128 3.97591
25.2489 44.8202 0.0197878
23.1861 43.6572 2
20.9125 42.6952 3.97483
21.9585 45.6196 0.0226412
20.0157 44.7322 2
17.8531 44.1946 3.97509
19.1969 46.4895 0.0241304
17.4301 46.0041 2
15.5307 45.924 3.97533
17.0521 47.4985 0.0244037
15.56 47.4888 2
13.8111 47.8615 3.97514
15.7799 48.8214 0.024566
14.2779 49.3865 2
12.478 50.138 3.97428
14.9597 50.8186 0.0255778
13.2424 51.7506 2
11.343 52.7628 3.96597
10.4035 55.6828 3.96091
12.3515 54.4441 2
14.1739 53.2998 0.0308464
9.70592 58.8456 3.97026
11.6031 57.4271 2
13.4583 56.0777 0.0390388
9.30605 62.2254 4
11.1385 60.6146 2
12.8718 59.0992 0.0428921
10.9835 64.0165 2
12.6838 62.2941 0.0309964
12.7746 65.6939 0
15.4766 20.3367 3.96487
16.6789 18.7967 2
14.8837 17.3925 3.95784
17.8311 17.2838 0.0400667
16.1633 15.8524 2
14.4931 14.3326 3.96724
17.5404 14.4491 0.0313782
16.0325 12.8542 2
14.4498 11.1207 3.97494
17.6512 11.5046 0.0282735
16.2016 9.6756 2
14.6715 7.74927 4
18.0543 8.34164 0.0174745
16.6661 6.31988 2
18.75 5.0241 0
26.8931 34.4104 3.97198
28.9133 34.8982 2
30.5366 35.2596 0.174565
18.4134 22.5581 3.97469
16.0257 23.113 3.97257
17.1216 21.5718 2
21.1521 19.5843 0.0272455
18.3778 20.1409 0.0367051
20.2482 21.8214 2
20.4079 24.6742 3.97208
22.8234 21.9734 0.0209546
25.2997 23.3029 0.0171486
23.6482 24.8764 2
23.0881 28.1723 3.97116
25.1907 31.488 3.98313
25.731 28.7822 2
26.3471 26.2232 0.0190138
27.5902 31.9291 2
29.7563 32.6064 0.121727
28.1545 29.4525 -0.00986934
24.0274 36.3347 3.97793
26.2604 36.8682 2
28.4783 37.3943 0.135645
26.6637 42.962 0.0203572
25.5817 39.4154 0.0228429
24.4034 41.6624 2
23.2743 38.5105 2
22.0656 40.5341 3.9754
21.3703 37.7877 3.97791
23.187 43.6535 0.0247495
20.9141 42.6946 2
18.3368 41.9668 3.97568
20.0143 44.7316 0.024819
17.8534 44.1948 2
15.5796 44.0574 3.97529
17.4298 46.0034 0.0244509
15.5305 45.9243 2
13.5116 46.1666 3.97516
15.5594 47.4887 0.0247772
13.8119 47.8612 2
11.8674 48.4424 3.9753
14.2765 49.3871 0.0247939
12.4795 50.1371 2
10.4769 51.0128 3.96822
13.2413 51.7512 0.0277946
11.3438 52.7621 2
9.30934 53.8657 3.96211
8.39005 56.9808 3.97131
10.4052 55.6815 2
12.3515 54.4442 0.0364311
7.74927 60.3285 4
9.7049 58.8407 2
11.5984 57.4284 0.0408285
9.306 62.2255 2
11.1399 60.6206 0.032312
10.9835 64.0165 0
14.3087 21.8932 3.96941
15.4769 20.3341 2
13.6284 18.9912 3.96125
16.6678 18.7976 0.0391139
14.8833 17.3898 2
13.0447 15.9164 3.96211
16.165 15.8568 0.0438388
14.4993 14.33 2
12.7875 12.6942 3.97171
16.0316 12.8595 0.033905
14.446 11.1285 2
12.7746 9.30605 4
16.206 9.66772 0.0229219
14.6715 7.74924 2
16.6661 6.31991 0
24.5658 33.9168 3.98151
26.869 34.401 2
28.9379 34.8894 0.112908
18.2969 24.297 3.97291
18.4205 22.5585 2
14.842 24.6291 3.97401
16.0256 23.1114 2
17.1221 21.5735 0.0302804
19.973 27.491 3.97331
20.2513 21.8237 0.0263371
20.409 24.6732 2
22.4753 30.9258 3.97395
23.6563 24.8814 0.0284637
23.0855 28.1756 2
25.1455 31.5121 2
25.7219 28.8199 0.0156791
27.6233 31.9615 0.0210253
21.4703 35.977 3.97746
24.0181 36.3339 2
26.2912 36.8777 0.0360875
24.4302 41.6587 0.0220186
23.2758 38.5128 0.0240886
22.0698 40.5338 2
21.374 37.7892 2
19.113 38.9638 3.9771
20.9125 42.6952 0.0251663
18.3367 41.9669 2
15.5611 41.8273 3.97588
17.8531 44.1946 0.0249107
15.5787 44.0577 2
13.2723 44.2873 3.97547
15.5307 45.924 0.0246658
13.5116 46.1667 2
11.3814 46.6379 3.97531
13.8111 47.8615 0.024859
11.8694 48.4415 2
9.74811 49.1792 3.97071
12.478 50.138 0.0257187
10.4782 51.0118 2
8.33572 51.983 3.96308
11.343 52.7628 0.034032
9.3083 53.8645 2
7.19881 55.0332 3.97221
6.31991 58.3339 4
8.38884 56.9763 2
10.4035 55.6828 0.0390885
7.74924 60.3285 2
9.70592 58.8456 0.0297362
9.30605 62.2254 0
13.6901 25.5132 3.97595
13.201 23.4122 3.97343
14.3096 21.8914 2
12.4467 20.6366 3.96411
15.4766 20.3367 0.0351327
13.6249 18.9882 2
11.6963 17.5921 3.95937
14.8837 17.3925 0.0421612
13.0534 15.9142 2
11.2263 14.3811 3.96575
14.4931 14.3326 0.0327627
12.786 12.7028 2
10.9835 10.9835 4
14.4498 11.1207 0.0250648
12.7745 9.306 2
14.6715 7.74927 0
21.8379 33.5598 3.97649
24.5678 33.8963 2
26.8931 34.4104 0.0280164
16.6118 26.6164 3.97424
18.3008 24.2969 2
18.4134 22.5581 0.0253077
14.839 24.6285 2
16.0257 23.113 0.0274333
19.3742 30.3955 3.9747
19.9768 27.4909 2
20.4079 24.6742 0.0279203
22.4939 30.9236 2
23.0881 28.1723 0.0288443
25.1907 31.488 0.0168671
18.6916 36.0157 3.97782
21.4708 35.978 2
24.0274 36.3347 0.0220651
22.0656 40.5341 0.0245957
21.3703 37.7877 0.0220941
19.1136 38.9627 2
15.0436 39.1455 3.97687
18.3368 41.9668 0.0243238
15.5604 41.827 2
12.9594 42.2073 3.97596
15.5796 44.0574 0.0247111
13.2718 44.2872 2
10.9652 44.7262 3.9758
13.5116 46.1666 0.0248449
11.3836 46.6373 2
9.12363 47.2678 3.97333
11.8674 48.4424 0.0246974
9.75005 49.1781 2
7.49266 50.0202 3.96394
10.4769 51.0128 0.0317817
8.33376 51.9818 2
6.13917 53.0089 3.97234
9.30934 53.8657 0.0378947
7.19818 55.0292 2
5.0241 56.25 4
6.31988 58.3339 2
8.39005 56.9808 0.0286912
7.74927 60.3285 0
13.9888 26.9644 3.97491
12.3081 24.905 3.97523
13.6882 25.5123 2
11.3696 22.3147 3.96722
13.2033 23.4112 2
14.3087 21.8932 0.0305916
12.4441 20.6345 2
10.4701 19.3497 3.96093
13.6284 18.9912 0.0387531
11.7127 17.5932 2
9.7666 16.1624 3.96968
13.0447 15.9164 0.0378909
11.2259 14.387 2
9.30607 12.7746 4
12.7875 12.6942 0.0282867
10.9835 10.9835 2
12.7746 9.30605 0
18.8619 33.2261 3.97566
21.835 33.5626 2
24.5658 33.9168 0.0184896
16.2416 29.8079 3.9752
16.6115 26.6162 2
18.2969 24.297 0.0270893
14.842 24.6291 0.0259863
19.3678 30.3952 2
19.973 27.491 0.0266926
22.4753 30.9258 0.0260513
15.6891 36.0493 3.97727
18.6911 36.0164 2
21.4703 35.977 0.0225356
13.1905 37.8271 3.977
19.113 38.9638 0.0229015
15.0433 39.1454 2
12.4477 40.1042 3.97647
15.5611 41.8273 0.0241191
12.9584 42.207 2
10.5587 42.7257 3.97611
13.2723 44.2873 0.0245316
10.9668 44.7257 2
8.58919 45.2803 3.97486
11.3814 46.6379 0.0246937
9.12577 47.2667 2
6.7704 47.9893 3.96455
9.74811 49.1792 0.0292939
7.49017 50.0193 2
5.21537 50.9121 3.97232
8.33572 51.983 0.0369163
6.13899 53.0058 2
3.86727 54.0858 4
7.19881 55.0332 0.0277894
5.02404 56.25 2
6.31991 58.3339 0
13.4649 29.1523 3.9745
11.7542 26.5927 3.97473
13.9879 26.9645 2
10.4164 24.0354 3.97019
12.3106 24.9044 2
13.6901 25.5132 0.0240475
9.32828 21.1645 3.96261
11.3692 22.3138 2
13.201 23.4122 0.026571
12.4467 20.6366 0.0358931
10.4792 19.3506 2
8.42253 18.0308 3.9713
11.6963 17.5921 0.0406271
9.76549 16.1671 2
7.74928 14.6715 4
11.2263 14.3811 0.0342465
9.30602 12.7745 2
10.9835 10.9835 0
15.2149 32.9472 3.97624
18.8627 33.227 2
21.8379 33.5598 0.0235114
16.2404 29.807 2
16.6118 26.6164 0.025763
19.3742 30.3955 0.0253019
13.5008 36.2275 3.97665
15.689 36.0493 2
18.6916 36.0157 0.022182
13.1894 37.8269 2
11.7596 38.3012 3.97664
15.0436 39.1455 0.0231333
12.4468 40.1043 2
10.1269 40.7243 3.97655
12.9594 42.2073 0.0240386
10.5603 42.7251 2
8.1307 43.2404 3.97557
10.9652 44.7262 0.0241957
8.59231 45.2792 2
6.16752 45.8973 3.96476
9.12363 47.2678 0.0266668
6.7679 47.9885 2
4.42637 48.7521 3.97206
7.49266 50.0202 0.036061
5.21555 50.9098 2
2.85457 51.8506 4
6.13917 53.0089 0.0276638
3.86727 54.0858 2
5.0241 56.25 0
12.5857 31.3342 3.97575
11.1612 28.5022 3.97497
13.4643 29.1519 2
9.62367 25.8554 3.97269
11.7553 26.5928 2
13.9888 26.9644 0.0250884
8.29908 23.0423 3.96407
10.4186 24.0357 2
12.3081 24.905 0.0247742
7.20473 19.9784 3.97245
9.33357 21.1658 2
11.3696 22.3147 0.0327849
10.4701 19.3497 0.0390709
8.42173 18.0355 2
6.31992 16.6661 4
9.7666 16.1624 0.0303193
7.74926 14.6714 2
9.30607 12.7746 0
12.6229 34.3398 3.97666
15.2145 32.9482 2
18.8619 33.2261 0.0243357
16.2416 29.8079 0.0247967
11.2853 36.6237 3.97657
13.5 36.2275 2
15.6891 36.0493 0.0227328
13.1905 37.8271 0.0229999
11.7588 38.3009 2
9.69859 38.8126 3.97683
12.4477 40.1042 0.0235349
10.1281 40.7238 2
7.73134 41.1934 3.97573
10.5587 42.7257 0.0238903
8.13302 43.2395 2
5.67036 43.7627 3.96512
8.58919 45.2803 0.025136
6.16375 45.8968 2
3.7715 46.5372 3.97231
6.7704 47.9893 0.0354499
4.42693 48.7505 2
1.99014 49.554 4
5.21537 50.9121 0.0276823
2.85451 51.8506 2
3.86727 54.0858 0
11.3685 32.9735 3.97647
10.4585 30.445 3.97566
12.5847 31.3348 2
8.91745 27.7781 3.97396
11.1625 28.5026 2
13.4649 29.1523 0.0255004
7.40884 24.9959 3.96468
9.62643 25.856 2
11.7542 26.5927 0.0252713
6.12131 22.0005 3.973
8.29987 23.0433 2
10.4164 24.0354 0.0298058
5.02411 18.75 4
7.20418 19.9822 2
9.32828 21.1645 0.0373923
8.42253 18.0308 0.0287001
6.3199 16.6661 2
7.74928 14.6715 0
10.861 35.0259 3.97638
12.6214 34.3397 2
15.2149 32.9472 0.0237595
9.34729 36.9898 3.9768
11.2843 36.6238 2
13.5008 36.2275 0.023346
11.7596 38.3012 0.023356
9.6999 38.8122 2
7.39667 39.1748 3.97565
10.1269 40.7243 0.0234549
7.73469 41.1926 2
5.27922 41.6106 3.96554
8.1307 43.2404 0.0244293
5.66766 43.7622 2
3.24886 44.2817 3.97323
6.16752 45.8973 0.0352428
3.77232 46.536 2
1.27781 47.2057 4
4.42637 48.7521 0.0279415
1.99012 49.554 2
2.85457 51.8506 0
10.4832 33.9163 3.97615
9.7198 32.198 3.97623
11.3682 32.974 2
8.24727 29.7301 3.97438
10.46 30.4458 2
12.5857 31.3342 0.0242514
6.6387 27.0181 3.96462
8.92066 27.7789 2
11.1612 28.5022 0.0250296
5.17609 24.0933 3.97274
7.40692 24.9966 2
9.62367 25.8554 0.02731
3.86728 20.9142 4
6.12121 22.0033 2
8.29908 23.0423 0.0359293
5.02406 18.75 2
7.20473 19.9784 0.0275478
6.31992 16.6661 0
9.1548 35.2972 3.97666
10.8605 35.0259 2
12.6229 34.3398 0.0233419
7.16583 37.2074 3.97518
9.34871 36.9897 2
11.2853 36.6237 0.0234276
9.69859 38.8126 0.0231652
7.39965 39.1743 2
5.00135 39.466 3.96595
7.73134 41.1934 0.0242716
5.27721 41.6102 2
2.85908 42.0019 3.97375
5.67036 43.7627 0.0348834
3.24951 44.2809 2
0.720592 44.8159 4
3.7715 46.5372 0.0276869
1.27778 47.2057 2
1.99014 49.554 0
9.19097 33.7265 3.97666
10.4835 33.9166 2
7.67188 31.6336 3.97465
9.72218 32.1989 2
11.3685 32.9735 0.0235347
5.97351 29.0767 3.96466
8.25001 29.7309 2
10.4585 30.445 0.0243412
4.36307 26.2465 3.97254
6.63523 27.0186 2
8.91745 27.7781 0.026039
2.85458 23.1494 4
5.17637 24.0952 2
7.40884 24.9959 0.0353226
3.86728 20.9142 2
6.12131 22.0005 0.0269962
5.02411 18.75 0
7.10968 35.3149 3.97483
9.15704 35.2974 2
10.861 35.0259 0.0236154
4.84736 37.3403 3.96615
7.16848 37.2072 2
9.34729 36.9898 0.0231987
7.39667 39.1748 0.0243548
4.99953 39.4658 2
2.60694 39.7136 3.97415
5.27922 41.6106 0.0344613
2.86002 42.0015 2
0.320823 42.3947 4
3.24886 44.2817 0.0267665
0.720551 44.8159 2
1.27781 47.2057 0
7.27356 33.4769 3.97475
9.19329 33.7269 2
10.4832 33.9163 0.0238531
5.43333 31.1385 3.96523
7.67398 31.6343 2
9.7198 32.198 0.0237706
3.68418 28.4433 3.97286
5.96912 29.0771 2
8.24727 29.7301 0.0256195
1.99015 25.446 4
4.36365 26.2479 2
6.6387 27.0181 0.0353824
2.85453 23.1494 2
5.17609 24.0933 0.0272572
3.86728 20.9142 0
4.8601 35.2536 3.96609
7.11149 35.315 2
9.1548 35.2972 0.0233369
2.49838 37.4284 3.97503
4.84594 37.3404 2
7.16583 37.2074 0.0248173
5.00135 39.466 0.034046
2.60803 39.7138 2
0.080333 39.9526 4
2.85908 42.0019 0.0262484
0.320817 42.3947 2
0.720592 44.8159 0
5.05507 33.1936 3.96576
7.27503 33.4773 2
9.19097 33.7265 0.0233449
3.14814 30.6665 3.9735
5.42922 31.1389 2
7.67188 31.6336 0.0253494
1.27793 27.7943 4
3.68505 28.4443 2
5.97351 29.0767 0.0353379
1.99013 25.446 2
4.36307 26.2465 0.0274646
2.85458 23.1494 0
2.55037 35.1593 3.97492
4.86027 35.2539 2
7.10968 35.3149 0.0251733
0 37.5 4
2.49894 37.4288 2
4.84736 37.3403 0.0338474
2.60694 39.7136 0.0258525
0.0802903 39.9526 2
0.320823 42.3947 0
2.7681 32.9062 3.97462
5.05377 33.194 2
7.27356 33.4769 0.0252537
0.721173 30.1842 4
3.14917 30.6674 2
5.43333 31.1385 0.0347694
1.27779 27.7943 2
3.68418 28.4433 0.0271438
1.99015 25.446 0
0.0806499 35.0474 4
2.55149 35.1598 2
4.8601 35.2536 0.0339077
0 37.5 2
2.49838 37.4284 0.0249709
0.080333 39.9526 0
0.32156 32.6054 4
2.76876 32.907 2
5.05507 33.1936 0.0342358
0.72056 30.1841 2
3.14814 30.6665 0.026499
1.27793 27.7943 0
0.0802889 35.0474 2
2.55037 35.1593 0.0250794
0 37.5 0
0.320817 32.6053 2
2.7681 32.9062 0.0253792
0.721173 30.1842 0
0.0806499 35.0474 0
0.32156 32.6054 0
CELLS 1910 17190
8 18 6 25 56 2 0 5 16
8 57 23 6 18 17 4 0 2
8 78 36 9 29 31 11 1 7
8 31 11 1 7 79 37 10 30
8 110 57 18 50 48 17 2 14
8 50 18 56 111 14 2 16 49
8 116 62 22 55 52 20 3 15
8 56 25 67 118 16 5 24 53
8 119 63 23 57 54 21 4 17
8 55 22 63 119 15 3 21 54
8 58 26 68 121 18 6 25 56
8 122 65 26 58 57 23 6 18
8 73 31 7 27 142 79 30 71
8 143 78 29 72 73 31 7 27
8 83 147 76 34 32 74 28 8
8 84 148 78 36 33 75 29 9
8 76 34 8 28 148 84 33 75
8 37 79 150 86 10 30 77 35
8 151 87 36 78 80 38 11 31
8 80 38 11 31 152 88 37 79
8 175 100 42 94 96 44 12 40
8 44 96 176 101 12 40 95 43
8 101 176 98 46 43 95 41 13
8 46 98 178 103 13 41 97 45
8 178 103 45 97 147 83 32 74
8 189 116 55 109 106 52 15 47
8 111 56 118 191 49 16 53 107
8 192 119 57 110 108 54 17 48
8 109 55 119 192 47 15 54 108
8 194 122 58 112 110 57 18 50
8 112 58 121 195 50 18 56 111
8 115 61 19 51 197 124 59 113
8 115 61 125 198 51 19 60 114
8 198 125 62 116 114 60 20 52
8 200 127 64 120 116 62 22 55
8 118 67 132 202 53 24 66 117
8 121 68 133 203 56 25 67 118
8 120 64 128 204 55 22 63 119
8 204 128 65 122 119 63 23 57
8 206 134 68 121 123 69 26 58
8 123 69 26 58 207 131 65 122
8 226 147 74 138 140 76 28 70
8 229 148 75 139 143 78 29 72
8 140 76 28 70 229 148 75 139
8 142 79 30 71 231 150 77 141
8 144 80 31 73 232 152 79 142
8 233 151 78 143 144 80 31 73
8 150 86 35 77 235 154 81 145
8 235 154 81 145 146 82 39 91
8 146 82 39 91 236 155 90 165
8 238 157 83 147 149 85 34 76
8 239 158 84 148 151 87 36 78
8 149 85 34 76 239 158 84 148
8 152 88 37 79 241 160 86 150
8 242 161 87 151 153 89 38 80
8 153 89 38 80 243 162 88 152
8 171 98 41 92 265 178 97 169
8 265 178 97 169 226 147 74 138
8 172 96 40 93 266 176 95 170
8 266 176 95 170 171 98 41 92
8 269 175 94 173 172 96 40 93
8 271 180 99 174 175 100 42 94
8 197 124 59 113 271 180 99 174
8 272 181 100 175 177 102 44 96
8 273 182 101 176 179 104 46 98
8 177 102 44 96 273 182 101 176
8 179 104 46 98 275 184 103 178
8 275 184 103 178 238 157 83 147
8 188 115 51 105 283 197 113 186
8 188 115 198 284 105 51 114 187
8 284 198 116 189 187 114 52 106
8 286 200 120 193 189 116 55 109
8 191 118 202 288 107 53 117 190
8 195 121 203 289 111 56 118 191
8 193 120 204 290 109 55 119 192
8 290 204 122 194 192 119 57 110
8 196 123 58 112 292 207 122 194
8 293 206 121 195 196 123 58 112
8 199 126 61 115 297 211 124 197
8 298 212 127 200 198 125 62 116
8 199 126 212 298 115 61 125 198
8 205 129 64 120 300 214 127 200
8 301 217 130 201 202 132 66 117
8 209 136 168 264 301 217 130 201
8 302 219 132 202 203 133 67 118
8 303 220 133 203 206 134 68 121
8 205 129 215 304 120 64 128 204
8 304 215 131 207 204 128 65 122
8 306 221 134 206 208 135 69 123
8 208 135 69 123 307 218 131 207
8 210 137 167 263 309 223 136 209
8 328 238 147 226 230 149 76 140
8 228 146 91 166 329 236 165 260
8 231 150 77 141 330 235 145 227
8 330 235 145 227 228 146 91 166
8 332 239 148 229 233 151 78 143
8 230 149 76 140 332 239 148 229
8 232 152 79 142 334 241 150 231
8 234 153 80 144 335 243 152 232
8 336 242 151 233 234 153 80 144
8 236 155 90 165 338 245 164 259
8 241 160 86 150 339 246 154 235
8 339 246 154 235 237 156 82 146
8 237 156 82 146 340 247 155 236
8 342 249 157 238 240 159 85 149
8 343 250 158 239 242 161 87 151
8 240 159 85 149 343 250 158 239
8 243 162 88 152 345 252 160 241
8 244 163 253 346 153 89 161 242
8 244 163 89 153 347 254 162 243
8 311 224 261 371 210 137 167 263
8 263 167 262 372 209 136 168 264
8 267 179 98 171 375 275 178 265
8 375 275 178 265 328 238 147 226
8 376 273 176 266 267 179 98 171
8 268 177 96 172 376 273 176 266
8 379 272 175 269 268 177 96 172
8 380 271 174 270 269 175 94 173
8 283 197 113 186 380 271 174 270
8 381 277 180 271 272 181 100 175
8 297 211 124 197 381 277 180 271
8 382 278 181 272 274 183 102 177
8 274 183 102 177 383 279 182 273
8 383 279 182 273 276 185 104 179
8 385 281 184 275 342 249 157 238
8 276 185 104 179 385 281 184 275
8 285 199 115 188 393 297 197 283
8 394 298 200 286 284 198 116 189
8 285 199 298 394 188 115 198 284
8 291 205 120 193 396 300 200 286
8 397 301 201 287 288 202 117 190
8 295 209 264 374 397 301 201 287
8 398 302 202 288 289 203 118 191
8 399 303 203 289 293 206 121 195
8 291 205 304 400 193 120 204 290
8 400 304 207 292 290 204 122 194
8 294 208 123 196 402 307 207 292
8 403 306 206 293 294 208 123 196
8 296 210 263 373 405 309 209 295
8 408 312 213 299 297 211 126 199
8 299 213 313 409 199 126 212 298
8 409 313 214 300 298 212 127 200
8 305 216 129 205 411 315 214 300
8 412 318 217 301 302 219 132 202
8 309 223 136 209 412 318 217 301
8 413 320 219 302 303 220 133 203
8 306 221 321 414 206 134 220 303
8 307 218 131 207 415 316 215 304
8 305 216 316 415 205 129 215 304
8 417 322 221 306 308 222 135 208
8 308 222 135 208 418 319 218 307
8 310 225 137 210 420 325 223 309
8 423 326 224 311 310 225 137 210
8 329 236 165 260 441 338 259 368
8 442 342 238 328 333 240 149 230
8 331 237 146 228 443 340 236 329
8 334 241 150 231 444 339 235 330
8 444 339 235 330 331 237 146 228
8 446 343 239 332 336 242 151 233
8 333 240 149 230 446 343 239 332
8 335 243 152 232 448 345 241 334
8 337 244 153 234 449 347 243 335
8 337 244 346 450 234 153 242 336
8 338 245 164 259 452 349 258 367
8 340 247 155 236 453 350 245 338
8 345 252 160 241 454 351 246 339
8 454 351 246 339 341 248 156 237
8 341 248 156 237 455 352 247 340
8 240 159 251 344 342 249 354 457
8 242 161 253 346 343 250 355 458
8 343 250 355 458 240 159 251 344
8 347 254 162 243 460 357 252 345
8 348 255 358 461 244 163 253 346
8 348 255 163 244 462 359 254 347
8 473 360 257 365 363 256 364 482
8 452 349 258 367 365 257 366 485
8 422 324 369 488 311 224 261 371
8 371 261 370 490 263 167 262 372
8 407 311 371 491 296 210 263 373
8 373 263 372 492 295 209 264 374
8 493 385 275 375 442 342 238 328
8 377 276 179 267 493 385 275 375
8 378 274 177 268 494 383 273 376
8 494 383 273 376 377 276 179 267
8 497 382 272 379 378 274 177 268
8 498 381 271 380 379 272 175 269
8 393 297 197 283 498 381 271 380
8 499 387 277 381 382 278 181 272
8 408 312 211 297 499 387 277 381
8 500 388 278 382 384 280 183 274
8 501 389 279 383 386 282 185 276
8 384 280 183 274 501 389 279 383
8 386 282 185 276 503 391 281 385
8 503 391 281 385 457 354 249 342
8 511 408 299 395 393 297 199 285
8 395 299 409 512 285 199 298 394
8 512 409 300 396 394 298 200 286
8 401 305 205 291 514 411 300 396
8 515 412 301 397 398 302 202 288
8 405 309 209 295 515 412 301 397
8 516 413 302 398 399 303 203 289
8 403 306 414 517 293 206 303 399
8 402 307 207 292 518 415 304 400
8 401 305 415 518 291 205 304 400
8 404 308 208 294 520 418 307 402
8 521 417 306 403 404 308 208 294
8 406 310 210 296 523 420 309 405
8 526 423 311 407 406 310 210 296
8 410 314 213 299 527 424 312 408
8 528 425 315 411 409 313 214 300
8 410 314 425 528 299 213 313 409
8 416 317 216 305 530 427 315 411
8 531 430 318 412 413 320 219 302
8 420 325 223 309 531 430 318 412
8 532 432 320 413 414 321 220 303
8 417 322 433 533 306 221 321 414
8 418 319 218 307 534 428 316 415
8 416 317 428 534 305 216 316 415
8 419 323 434 536 308 222 322 417
8 419 323 222 308 537 431 319 418
8 421 327 225 310 539 438 325 420
8 421 327 439 541 310 225 326 423
8 543 437 324 422 423 326 224 311
8 441 338 259 368 559 452 367 486
8 443 340 236 329 560 453 338 441
8 333 240 344 447 442 342 457 561
8 445 341 237 331 562 455 340 443
8 448 345 241 334 563 454 339 444
8 563 454 339 444 445 341 237 331
8 336 242 346 450 446 343 458 565
8 446 343 458 565 333 240 344 447
8 449 347 243 335 567 460 345 448
8 451 348 244 337 568 462 347 449
8 451 348 461 569 337 244 346 450
8 570 463 349 452 473 360 257 365
8 453 350 245 338 570 463 349 452
8 455 352 247 340 571 464 350 453
8 460 357 252 345 572 465 351 454
8 572 465 351 454 456 353 248 341
8 456 353 248 341 573 466 352 455
8 344 251 356 459 457 354 468 575
8 458 355 469 576 344 251 356 459
8 346 253 358 461 458 355 469 576
8 462 359 254 347 578 471 357 460
8 348 255 359 462 461 358 472 579
8 591 474 360 473 475 361 256 363
8 475 361 256 363 594 477 362 479
8 363 256 364 482 479 362 480 603
8 590 473 365 484 481 363 482 605
8 482 364 257 365 606 483 366 485
8 559 452 367 486 484 365 485 607
8 542 436 487 609 422 324 369 488
8 525 422 488 611 407 311 371 491
8 488 369 489 612 371 261 370 490
8 491 371 490 613 373 263 372 492
8 495 386 276 377 614 503 385 493
8 614 503 385 493 561 457 342 442
8 615 501 383 494 495 386 276 377
8 496 384 274 378 615 501 383 494
8 618 500 382 497 496 384 274 378
8 619 499 381 498 497 382 272 379
8 511 408 297 393 619 499 381 498
8 620 505 387 499 500 388 278 382
8 527 424 312 408 620 505 387 499
8 502 390 506 621 384 280 388 500
8 622 507 389 501 504 392 282 386
8 502 390 280 384 622 507 389 501
8 504 392 282 386 624 509 391 503
8 624 509 391 503 575 468 354 457
8 513 410 299 395 630 527 408 511
8 631 528 411 514 512 409 300 396
8 513 410 528 631 395 299 409 512
8 519 416 305 401 633 530 411 514
8 634 531 412 515 516 413 302 398
8 523 420 309 405 634 531 412 515
8 635 532 413 516 517 414 303 399
8 521 417 533 636 403 306 414 517
8 520 418 307 402 637 534 415 518
8 519 416 534 637 401 305 415 518
8 522 419 308 404 639 537 418 520
8 522 419 536 640 404 308 417 521
8 524 421 310 406 642 539 420 523
8 524 421 541 644 406 310 423 526
8 646 543 422 525 526 423 311 407
8 529 426 314 410 647 544 424 527
8 528 425 545 648 411 315 427 530
8 529 426 545 648 410 314 425 528
8 535 429 317 416 649 546 427 530
8 650 548 430 531 532 432 320 413
8 539 438 325 420 650 548 430 531
8 533 433 550 651 414 321 432 532
8 536 434 551 652 417 322 433 533
8 537 431 319 418 653 547 428 534
8 535 429 547 653 416 317 428 534
8 538 435 552 654 419 323 434 536
8 538 435 323 419 655 549 431 537
8 540 440 327 421 657 556 438 539
8 540 440 557 659 421 327 439 541
8 541 439 555 660 423 326 437 543
8 661 554 436 542 543 437 324 422
8 676 570 452 559 590 473 365 484
8 560 453 338 441 676 570 452 559
8 562 455 340 443 677 571 453 560
8 447 344 459 566 561 457 575 678
8 564 456 341 445 679 573 455 562
8 567 460 345 448 680 572 454 563
8 680 572 454 563 564 456 341 445
8 565 458 576 682 447 344 459 566
8 450 346 461 569 565 458 576 682
8 568 462 347 449 684 578 460 567
8 451 348 462 568 569 461 579 685
8 686 580 463 570 591 474 360 473
8 571 464 350 453 686 580 463 570
8 573 466 352 455 687 581 464 571
8 572 465 582 688 460 357 471 578
8 574 467 582 688 456 353 465 572
8 574 467 353 456 689 583 466 573
8 459 356 470 577 575 468 585 691
8 576 469 586 692 459 356 470 577
8 461 358 472 579 576 469 586 692
8 462 359 471 578 579 472 588 694
8 704 591 473 590 593 475 363 481
8 595 476 592 705 475 361 474 591
8 593 475 363 481 707 594 479 602
8 594 477 362 479 709 598 478 600
8 595 476 361 475 711 597 477 594
8 479 362 480 603 600 478 601 720
8 481 363 482 605 602 479 603 722
8 603 480 364 482 723 604 483 606
8 605 482 365 484 724 606 485 607
8 656 553 608 726 542 436 487 609
8 645 542 609 728 525 422 488 611
8 609 487 610 729 488 369 489 612
8 611 488 612 730 491 371 490 613
8 616 504 386 495 731 624 503 614
8 731 624 503 614 678 575 457 561
8 732 622 501 615 616 504 386 495
8 617 502 384 496 732 622 501 615
8 617 502 621 735 496 384 500 618
8 736 620 499 619 618 500 382 497
8 630 527 408 511 736 620 499 619
8 621 506 626 737 500 388 505 620
8 647 544 424 527 737 626 505 620
8 623 508 627 738 502 390 506 621
8 623 508 390 502 739 628 507 622
8 625 510 628 739 504 392 507 622
8 740 629 509 624 691 585 468 575
8 625 510 392 504 740 629 509 624
8 632 529 410 513 744 647 527 630
8 631 528 648 745 514 411 530 633
8 632 529 648 745 513 410 528 631
8 638 535 416 519 746 649 530 633
8 747 650 531 634 635 532 413 516
8 642 539 420 523 747 650 531 634
8 636 533 651 748 517 414 532 635
8 640 536 652 749 521 417 533 636
8 639 537 418 520 750 653 534 637
8 638 535 653 750 519 416 534 637
8 641 538 419 522 751 655 537 639
8 641 538 654 752 522 419 536 640
8 643 540 421 524 753 657 539 642
8 643 540 659 755 524 421 541 644
8 644 541 660 757 526 423 543 646
8 758 661 542 645 646 543 422 525
8 529 426 544 647 648 545 662 759
8 530 427 545 648 649 546 663 760
8 535 429 546 649 653 547 664 761
8 762 666 548 650 651 550 432 532
8 657 556 438 539 762 666 548 650
8 652 551 668 763 533 433 550 651
8 654 552 669 764 536 434 551 652
8 655 549 431 537 765 665 547 653
8 538 435 549 655 654 552 667 766
8 661 554 671 768 542 436 553 656
8 658 558 440 540 769 674 556 657
8 658 558 675 770 540 440 557 659
8 659 557 673 771 541 439 555 660
8 660 555 672 772 543 437 554 661
8 788 686 570 676 704 591 473 590
8 677 571 453 560 788 686 570 676
8 679 573 455 562 789 687 571 677
8 566 459 577 683 678 575 691 790
8 681 574 456 564 791 689 573 679
8 680 572 688 792 567 460 578 684
8 681 574 688 792 564 456 572 680
8 682 576 692 794 566 459 577 683
8 569 461 579 685 682 576 692 794
8 568 462 578 684 685 579 694 796
8 687 581 464 571 798 696 580 686
8 798 696 580 686 705 592 474 591
8 689 583 466 573 799 697 581 687
8 688 582 698 800 578 471 588 694
8 690 584 698 800 574 467 582 688
8 690 584 467 574 801 699 583 689
8 693 587 701 803 577 470 585 691
8 693 587 470 577 804 702 586 692
8 695 589 702 804 579 472 586 692
8 695 589 472 579 805 703 588 694
8 708 595 705 813 593 475 591 704
8 710 596 706 814 595 476 592 705
8 707 594 479 602 816 709 600 719
8 708 595 475 593 817 711 594 707
8 709 598 478 600 819 715 599 717
8 711 597 477 594 820 714 598 709
8 710 596 476 595 822 713 597 711
8 600 478 601 720 717 599 718 832
8 602 479 603 722 719 600 720 834
8 720 601 480 603 835 721 604 723
8 722 603 482 605 836 723 606 724
8 767 670 725 839 656 553 608 726
8 756 656 726 841 645 542 609 728
8 726 608 727 842 609 487 610 729
8 728 609 729 843 611 488 612 730
8 844 740 624 731 790 691 575 678
8 733 625 504 616 844 740 624 731
8 734 623 502 617 845 739 622 732
8 733 625 739 845 616 504 622 732
8 734 623 738 846 617 502 621 735
8 735 621 737 847 618 500 620 736
8 744 647 527 630 847 737 620 736
8 621 506 627 738 737 626 741 848
8 647 544 626 737 759 662 741 848
8 623 508 628 739 738 627 742 849
8 740 629 585 691 850 743 700 802
8 625 510 629 740 739 628 743 850
8 632 529 647 744 745 648 759 854
8 633 530 648 745 746 649 760 855
8 638 535 649 746 750 653 761 856
8 857 762 650 747 748 651 532 635
8 753 657 539 642 857 762 650 747
8 749 652 763 858 636 533 651 748
8 752 654 764 859 640 536 652 749
8 751 655 537 639 860 765 653 750
8 641 538 655 751 752 654 766 861
8 754 658 540 643 862 769 657 753
8 754 658 770 863 643 540 659 755
8 755 659 771 864 644 541 660 757
8 758 661 768 866 645 542 656 756
8 757 660 772 867 646 543 661 758
8 759 662 773 868 648 545 663 760
8 649 546 663 760 761 664 774 871
8 765 665 547 653 872 775 664 761
8 873 777 666 762 763 668 550 651
8 769 674 556 657 873 777 666 762
8 764 669 779 874 652 551 668 763
8 654 552 667 766 764 669 778 875
8 655 549 665 765 766 667 776 876
8 768 671 782 877 656 553 670 767
8 772 672 783 878 661 554 671 768
8 658 558 674 769 770 675 786 879
8 659 557 675 770 771 673 785 881
8 882 784 672 772 771 673 555 660
8 789 687 571 677 897 798 686 788
8 897 798 686 788 813 705 591 704
8 791 689 573 679 898 799 687 789
8 795 693 803 900 683 577 691 790
8 793 690 574 681 901 801 689 791
8 792 688 800 902 684 578 694 796
8 793 690 800 902 681 574 688 792
8 795 693 577 683 903 804 692 794
8 797 695 804 903 685 579 692 794
8 797 695 579 685 904 805 694 796
8 905 806 697 799 798 696 581 687
8 814 706 806 905 705 592 696 798
8 689 583 697 799 801 699 808 907
8 800 698 809 908 694 588 703 805
8 690 584 699 801 800 698 809 908
8 803 701 810 909 691 585 700 802
8 693 587 702 804 803 701 811 910
8 695 589 703 805 804 702 812 911
8 818 710 814 919 708 595 705 813
8 821 712 815 920 710 596 706 814
8 816 709 600 719 922 819 717 831
8 817 711 594 707 923 820 709 816
8 818 710 595 708 924 822 711 817
8 819 715 599 717 926 827 716 829
8 820 714 598 709 927 826 715 819
8 929 825 713 822 820 714 597 711
8 821 712 596 710 930 824 713 822
8 717 599 718 832 829 716 830 942
8 719 600 720 834 831 717 832 944
8 832 718 601 720 945 833 721 835
8 834 720 603 722 946 835 723 836
8 869 780 838 950 767 670 725 839
8 865 767 839 952 756 656 726 841
8 839 725 840 953 726 608 727 842
8 841 726 842 954 728 609 729 843
8 844 740 691 790 955 850 802 899
8 733 625 740 844 845 739 850 955
8 734 623 739 845 846 738 849 956
8 735 621 738 846 847 737 848 957
8 744 647 737 847 854 759 848 957
8 738 627 742 849 848 741 851 958
8 848 741 851 958 759 662 773 868
8 850 743 700 802 959 852 807 906
8 849 742 628 739 959 852 743 850
8 854 759 868 965 745 648 760 855
8 746 649 760 855 856 761 871 966
8 860 765 653 750 967 872 761 856
8 968 873 762 857 858 763 651 748
8 862 769 657 753 968 873 762 857
8 859 764 874 969 749 652 763 858
8 752 654 766 861 859 764 875 970
8 751 655 765 860 861 766 876 971
8 754 658 769 862 863 770 879 972
8 755 659 770 863 864 771 881 974
8 976 882 772 867 864 771 660 757
8 866 768 877 977 756 656 767 865
8 867 772 878 978 758 661 768 866
8 760 663 773 868 871 774 883 980
8 870 781 837 948 982 890 780 869
8 982 890 780 869 877 782 670 767
8 761 664 774 871 872 775 884 984
8 876 776 665 765 985 885 775 872
8 873 777 668 763 986 887 779 874
8 769 674 777 873 879 786 887 986
8 764 669 778 875 874 779 888 987
8 766 667 776 876 875 778 886 988
8 878 783 892 989 768 671 782 877
8 878 783 672 772 990 893 784 882
8 880 787 675 770 991 896 786 879
8 880 787 895 992 770 675 785 881
8 881 785 894 993 771 673 784 882
8 1006 905 799 898 897 798 687 789
8 919 814 905 1006 813 705 798 897
8 791 689 799 898 901 801 907 1007
8 900 803 909 1009 790 691 802 899
8 795 693 804 903 900 803 910 1010
8 902 800 908 1011 796 694 805 904
8 793 690 801 901 902 800 908 1011
8 797 695 805 904 903 804 911 1012
8 799 697 806 905 907 808 912 1013
8 920 815 912 1013 814 706 806 905
8 802 700 810 909 906 807 913 1014
8 801 699 808 907 908 809 914 1015
8 805 703 809 908 911 812 915 1016
8 803 701 811 910 909 810 916 1017
8 911 812 917 1018 804 702 811 910
8 925 821 920 1030 818 710 814 919
8 928 823 921 1031 821 712 815 920
8 922 819 717 831 1033 926 829 941
8 923 820 709 816 1034 927 819 922
8 1035 929 822 924 923 820 711 817
8 925 821 710 818 1036 930 822 924
8 1038 933 825 929 927 826 714 820
8 926 827 716 829 1039 935 828 939
8 927 826 715 819 1040 934 827 926
8 928 823 712 821 1041 931 824 930
8 1042 932 824 930 929 825 713 822
8 829 716 830 942 939 828 940 1058
8 831 717 832 944 941 829 942 1060
8 942 830 718 832 1061 943 833 945
8 944 832 720 834 1062 945 835 946
8 981 889 947 1064 870 781 837 948
8 948 837 949 1067 869 780 838 950
8 975 869 950 1069 865 767 839 952
8 950 838 951 1070 839 725 840 953
8 952 839 953 1071 841 726 842 954
8 955 850 802 899 1072 959 906 1008
8 956 849 739 845 1072 959 850 955
8 846 738 849 956 957 848 958 1073
8 957 848 958 1073 854 759 868 965
8 849 742 852 959 958 851 961 1076
8 960 853 961 1076 906 807 852 959
8 958 851 961 1076 868 773 883 980
8 960 853 807 906 1077 963 913 1014
8 855 760 868 965 966 871 980 1085
8 856 761 871 966 967 872 984 1086
8 971 876 765 860 1087 985 872 967
8 968 873 763 858 1088 986 874 969
8 862 769 873 968 972 879 986 1088
8 859 764 875 970 969 874 987 1089
8 861 766 876 971 970 875 988 1090
8 973 880 770 863 1091 991 879 972
8 973 880 992 1092 863 770 881 974
8 974 881 993 1093 864 771 882 976
8 979 870 948 1066 1094 982 869 975
8 1094 982 869 975 977 877 767 865
8 978 878 772 867 1095 990 882 976
8 978 878 989 1096 866 768 877 977
8 871 774 883 980 984 884 994 1099
8 983 891 999 1100 870 781 889 981
8 1101 1000 890 982 989 892 782 877
8 983 891 781 870 1101 1000 890 982
8 872 775 884 984 985 885 995 1103
8 876 776 885 985 988 886 996 1104
8 986 887 779 874 1105 998 888 987
8 879 786 887 986 991 896 998 1105
8 875 778 886 988 987 888 997 1106
8 990 893 1002 1107 878 783 892 989
8 1108 1003 893 990 993 894 784 882
8 880 787 896 991 992 895 1005 1109
8 993 894 785 881 1110 1004 895 992
8 898 799 905 1006 1007 907 1013 1120
8 1030 920 1013 1120 919 814 905 1006
8 901 801 907 1007 1011 908 1015 1121
8 899 802 909 1009 1008 906 1014 1122
8 900 803 910 1010 1009 909 1017 1123
8 1012 911 1018 1124 903 804 910 1010
8 904 805 908 1011 1012 911 1016 1125
8 1013 912 1020 1127 907 808 914 1015
8 1031 921 1020 1127 920 815 912 1013
8 1019 918 962 1075 1128 1021 913 1014
8 1128 1021 913 1014 1017 916 810 909
8 1015 914 1022 1129 908 809 915 1016
8 1016 915 1023 1130 911 812 917 1018
8 1018 917 1024 1131 910 811 916 1017
8 1037 928 1031 1148 925 821 920 1030
8 928 823 931 1041 1031 921 1032 1149
8 1033 926 829 941 1151 1039 939 1057
8 1034 927 819 922 1152 1040 926 1033
8 1153 1038 929 1035 1034 927 820 923
8 1154 1042 930 1036 1035 929 822 924
8 1037 928 821 925 1155 1041 930 1036
8 1039 935 828 939 1156 1047 938 1055
8 1157 1043 932 1042 1038 933 825 929
8 1038 933 826 927 1158 1045 934 1040
8 1040 934 827 926 1159 1046 935 1039
8 930 824 932 1042 1041 931 1044 1160
8 1051 936 1048 1165 1175 1052 937 1053
8 1156 1047 938 1055 1053 937 1054 1178
8 939 828 940 1058 1055 938 1056 1181
8 941 829 942 1060 1057 939 1058 1183
8 942 830 943 1061 1058 940 1059 1184
8 1060 942 832 944 1185 1061 945 1062
8 1082 964 1063 1188 981 889 947 1064
8 1097 981 1064 1190 979 870 948 1066
8 1064 947 1065 1191 948 837 949 1067
8 1066 948 1067 1193 975 869 950 1069
8 1067 949 1068 1194 950 838 951 1070
8 1069 950 1070 1195 952 839 953 1071
8 956 849 959 1072 1073 958 1076 1197
8 1074 960 1076 1197 1008 906 959 1072
8 1073 958 1076 1197 965 868 980 1085
8 1074 960 906 1008 1198 1077 1014 1122
8 1133 1026 1079 1199 1019 918 962 1075
8 1077 963 913 1014 1200 1080 962 1075
8 960 853 963 1077 1076 961 1078 1201
8 980 883 961 1076 1099 994 1078 1201
8 1210 1083 964 1082 1100 999 889 981
8 966 871 980 1085 1086 984 1099 1215
8 967 872 984 1086 1087 985 1103 1216
8 971 876 985 1087 1090 988 1104 1217
8 1088 986 874 969 1218 1105 987 1089
8 972 879 986 1088 1091 991 1105 1218
8 970 875 988 1090 1089 987 1106 1219
8 973 880 991 1091 1092 992 1109 1220
8 1093 993 881 974 1221 1110 992 1092
8 1222 1108 990 1095 1093 993 882 976
8 1223 1101 982 1094 1096 989 877 977
8 1098 983 870 979 1223 1101 982 1094
8 1095 990 1107 1224 978 878 989 1096
8 1098 983 1100 1225 979 870 981 1097
8 984 884 994 1099 1103 995 1111 1227
8 1102 1001 1115 1228 983 891 999 1100
8 1101 1000 892 989 1229 1116 1002 1107
8 1102 1001 891 983 1229 1116 1000 1101
8 985 885 995 1103 1104 996 1112 1230
8 988 886 996 1104 1106 997 1113 1231
8 1105 998 888 987 1232 1114 997 1106
8 991 896 998 1105 1109 1005 1114 1232
8 1108 1003 1117 1233 990 893 1002 1107
8 1108 1003 894 993 1233 1117 1004 1110
8 992 895 1005 1109 1110 1004 1118 1234
8 1120 1013 1127 1244 1007 907 1015 1121
8 1148 1031 1127 1244 1030 920 1013 1120
8 1121 1015 1129 1245 1011 908 1016 1125
8 1126 1019 1075 1196 1246 1128 1014 1122
8 1246 1128 1014 1122 1123 1017 909 1009
8 1124 1018 1131 1247 1010 910 1017 1123
8 1125 1016 1130 1248 1012 911 1018 1124
8 1127 1020 1137 1254 1015 914 1022 1129
8 1031 921 1032 1149 1127 1020 1137 1254
8 1134 1027 918 1019 1257 1140 1021 1128
8 1257 1140 1021 1128 1131 1024 916 1017
8 1129 1022 1141 1258 1016 915 1023 1130
8 1130 1023 1142 1259 1018 917 1024 1131
8 1261 1144 1025 1132 1133 1026 1079 1199
8 1255 1138 1025 1132 1135 1028 1144 1261
8 1133 1026 918 1019 1262 1145 1027 1134
8 1136 1029 1139 1256 1263 1146 1028 1135
8 1037 928 1041 1155 1148 1031 1149 1275
8 1041 931 1044 1160 1149 1032 1150 1276
8 1151 1039 939 1057 1278 1156 1055 1180
8 1152 1040 926 1033 1279 1159 1039 1151
8 1153 1038 927 1034 1280 1158 1040 1152
8 1281 1157 1042 1154 1153 1038 929 1035
8 1036 930 1042 1154 1155 1041 1160 1282
8 1283 1164 1046 1159 1156 1047 935 1039
8 1165 1048 1164 1283 1053 937 1047 1156
8 1157 1043 933 1038 1284 1161 1045 1158
8 1157 1043 1161 1284 1042 932 1044 1160
8 1040 934 1046 1159 1158 1045 1163 1285
8 1166 1049 1167 1292 1051 936 1048 1165
8 1166 1049 936 1051 1293 1168 1050 1172
8 1051 936 1052 1175 1172 1050 1173 1306
8 1174 1051 1165 1290 1308 1175 1053 1177
8 1053 937 1054 1178 1175 1052 1176 1309
8 1278 1156 1055 1180 1177 1053 1178 1311
8 1055 938 1056 1181 1178 1054 1179 1312
8 1057 939 1058 1183 1180 1055 1181 1314
8 1058 940 1059 1184 1181 1056 1182 1315
8 1060 942 1061 1185 1183 1058 1184 1316
8 1208 1081 1187 1321 1082 964 1063 1188
8 1209 1082 1188 1322 1097 981 1064 1190
8 1188 1063 1189 1323 1064 947 1065 1191
8 1190 1064 1191 1325 1066 948 1067 1193
8 1191 1065 1192 1326 1067 949 1068 1194
8 1067 1193 1069 950 1194 1327 1195 1070
8 1250 1133 1199 1330 1126 1019 1075 1196
8 1198 1077 1014 1122 1331 1200 1075 1196
8 1074 960 1077 1198 1197 1076 1201 1332
8 1085 980 1076 1197 1215 1099 1201 1332
8 1199 1079 1203 1333 1075 962 1080 1200
8 1132 1025 1119 1243 1199 1079 1203 1333
8 1201 1078 963 1077 1334 1202 1080 1200
8 1099 994 1078 1201 1227 1111 1202 1334
8 1343 1207 1081 1208 1210 1083 964 1082
8 1214 1084 1186 1319 1343 1207 1081 1208
8 1345 1210 1082 1209 1225 1100 981 1097
8 1346 1211 1083 1210 1228 1115 999 1100
8 1086 984 1099 1215 1216 1103 1227 1352
8 1087 985 1103 1216 1217 1104 1230 1353
8 1090 988 1104 1217 1219 1106 1231 1354
8 1218 1105 987 1089 1355 1232 1106 1219
8 1091 991 1105 1218 1220 1109 1232 1355
8 1092 992 1109 1220 1221 1110 1234 1356
8 1222 1108 1233 1357 1095 990 1107 1224
8 1222 1108 993 1093 1357 1233 1110 1221
8 1223 1101 989 1096 1358 1229 1107 1224
8 1226 1102 983 1098 1358 1229 1101 1223
8 1226 1102 1228 1359 1098 983 1100 1225
8 1103 995 1111 1227 1230 1112 1235 1360
8 1107 1002 1117 1233 1229 1116 1240 1362
8 1102 1001 1116 1229 1228 1115 1240 1362
8 1104 996 1112 1230 1231 1113 1236 1363
8 1364 1237 1114 1232 1231 1113 997 1106
8 1109 1005 1114 1232 1234 1118 1238 1365
8 1110 1004 1118 1234 1233 1117 1241 1366
8 1242 1374 1255 1138 1119 1243 1132 1025
8 1244 1127 1254 1376 1121 1015 1129 1245
8 1148 1031 1149 1275 1244 1127 1254 1376
8 1245 1129 1258 1377 1125 1016 1130 1248
8 1251 1134 1019 1126 1378 1257 1128 1246
8 1378 1257 1128 1246 1247 1131 1017 1123
8 1248 1130 1259 1379 1124 1018 1131 1247
8 1261 1381 1250 1133 1132 1249 1330 1199
8 1255 1380 1252 1135 1132 1249 1381 1261
8 1250 1133 1019 1126 1382 1262 1134 1251
8 1253 1136 1256 1385 1384 1263 1135 1252
8 1254 1137 1265 1387 1129 1022 1141 1258
8 1149 1032 1150 1276 1254 1137 1265 1387
8 1028 1135 1255 1138 1139 1256 1388 1266
8 1136 1029 1147 1264 1256 1139 1267 1389
8 1390 1268 1140 1257 1259 1142 1024 1131
8 1260 1143 1027 1134 1390 1268 1140 1257
8 1258 1141 1269 1391 1130 1023 1142 1259
8 1262 1145 1027 1134 1393 1271 1143 1260
8 1261 1144 1026 1133 1394 1272 1145 1262
8 1135 1028 1144 1261 1263 1146 1272 1394
8 1136 1029 1146 1263 1264 1147 1273 1395
8 1155 1041 1160 1282 1275 1149 1276 1405
8 1276 1150 1044 1160 1406 1277 1162 1286
8 1408 1283 1159 1279 1278 1156 1039 1151
8 1290 1165 1283 1408 1177 1053 1156 1278
8 1152 1040 1159 1279 1280 1158 1285 1409
8 1281 1157 1038 1153 1410 1284 1158 1280
8 1281 1157 1284 1410 1154 1042 1160 1282
8 1159 1046 1164 1283 1285 1163 1289 1412
8 1292 1167 1289 1412 1165 1048 1164 1283
8 1158 1045 1163 1285 1284 1161 1288 1413
8 1284 1161 1288 1413 1160 1044 1162 1286
8 1291 1166 1292 1418 1174 1051 1165 1290
8 1291 1166 1051 1174 1419 1293 1172 1305
8 1294 1169 1296 1421 1166 1049 1167 1292
8 1293 1168 1050 1172 1422 1295 1171 1303
8 1294 1169 1049 1166 1423 1297 1168 1293
8 1422 1295 1171 1303 1301 1170 1302 1435
8 1172 1050 1173 1306 1303 1171 1304 1438
8 1174 1051 1175 1308 1305 1172 1306 1440
8 1175 1052 1176 1309 1306 1173 1307 1441
8 1177 1053 1178 1311 1308 1175 1309 1443
8 1178 1054 1179 1312 1309 1176 1310 1444
8 1180 1055 1181 1314 1311 1178 1312 1446
8 1056 1181 1312 1179 1182 1315 1447 1313
8 1183 1058 1184 1316 1314 1181 1315 1448
8 1319 1186 1084 1214 1451 1317 1213 1350
8 1319 1186 1318 1453 1208 1081 1187 1321
8 1321 1187 1320 1456 1188 1063 1189 1323
8 1344 1208 1321 1457 1209 1082 1188 1322
8 1322 1188 1323 1458 1190 1064 1191 1325
8 1323 1189 1324 1459 1191 1065 1192 1326
8 1191 1325 1193 1067 1326 1460 1327 1194
8 1242 1374 1243 1119 1328 1462 1335 1204
8 1330 1199 1333 1465 1196 1075 1200 1331
8 1132 1249 1330 1199 1243 1375 1465 1333
8 1332 1201 1077 1198 1466 1334 1200 1331
8 1215 1099 1201 1332 1352 1227 1334 1466
8 1119 1243 1333 1203 1204 1335 1470 1338
8 1333 1203 1338 1470 1200 1080 1202 1334
8 1227 1111 1202 1334 1360 1235 1338 1470
8 1328 1462 1335 1204 1205 1336 1471 1339
8 1337 1206 1340 1472 1464 1329 1205 1336
8 1346 1211 1342 1479 1210 1083 1207 1343
8 1346 1211 1115 1228 1479 1342 1239 1361
8 1348 1212 1084 1214 1479 1342 1207 1343
8 1480 1343 1208 1344 1345 1210 1082 1209
8 1351 1214 1319 1454 1480 1343 1208 1344
8 1481 1346 1210 1345 1359 1228 1100 1225
8 1348 1212 1347 1483 1214 1084 1213 1350
8 1216 1103 1227 1352 1353 1230 1360 1488
8 1217 1104 1230 1353 1354 1231 1363 1489
8 1490 1364 1232 1355 1354 1231 1106 1219
8 1220 1109 1232 1355 1356 1234 1365 1491
8 1221 1110 1234 1356 1357 1233 1366 1492
8 1224 1107 1233 1357 1358 1229 1362 1493
8 1226 1102 1229 1358 1359 1228 1362 1493
8 1230 1112 1235 1360 1363 1236 1367 1496
8 1361 1239 1115 1228 1497 1371 1240 1362
8 1366 1241 1372 1498 1233 1117 1240 1362
8 1364 1237 1113 1231 1499 1368 1236 1363
8 1364 1237 1368 1499 1232 1114 1238 1365
8 1234 1118 1238 1365 1366 1241 1369 1500
8 1507 1373 1242 1374 1388 1266 1138 1255
8 1508 1374 1243 1375 1380 1255 1132 1249
8 1376 1254 1387 1509 1245 1129 1258 1377
8 1275 1149 1276 1405 1376 1254 1387 1509
8 1377 1258 1391 1510 1248 1130 1259 1379
8 1511 1390 1257 1378 1379 1259 1131 1247
8 1383 1260 1134 1251 1511 1390 1257 1378
8 1252 1135 1256 1385 1380 1255 1388 1512
8 1261 1381 1513 1394 1133 1250 1382 1262
8 1135 1252 1384 1263 1261 1381 1513 1394
8 1382 1262 1134 1251 1514 1393 1260 1383
8 1253 1136 1263 1384 1386 1264 1395 1516
8 1253 1136 1264 1386 1385 1256 1389 1517
8 1387 1265 1397 1519 1258 1141 1269 1391
8 1276 1150 1277 1406 1387 1265 1397 1519
8 1256 1139 1267 1389 1388 1266 1398 1520
8 1264 1147 1274 1396 1389 1267 1399 1521
8 1392 1270 1143 1260 1522 1400 1268 1390
8 1390 1268 1142 1259 1522 1400 1269 1391
8 1392 1270 1401 1523 1260 1143 1271 1393
8 1272 1394 1524 1402 1145 1262 1393 1271
8 1395 1273 1146 1263 1524 1402 1272 1394
8 1273 1395 1264 1147 1403 1526 1396 1274
8 1405 1276 1160 1282 1534 1406 1286 1411
8 1414 1287 1407 1535 1286 1162 1277 1406
8 1279 1159 1283 1408 1409 1285 1412 1537
8 1418 1292 1412 1537 1290 1165 1283 1408
8 1280 1158 1285 1409 1410 1284 1413 1538
8 1410 1284 1413 1538 1282 1160 1286 1411
8 1285 1163 1289 1412 1413 1288 1417 1540
8 1421 1296 1417 1540 1292 1167 1289 1412
8 1414 1287 1162 1286 1541 1416 1288 1413
8 1420 1294 1421 1545 1291 1166 1292 1418
8 1419 1293 1172 1305 1546 1422 1303 1437
8 1420 1294 1166 1291 1547 1423 1293 1419
8 1294 1169 1297 1423 1421 1296 1425 1548
8 1423 1297 1168 1293 1549 1424 1295 1422
8 1301 1170 1298 1427 1422 1295 1424 1549
8 1432 1300 1428 1554 1301 1170 1298 1427
8 1431 1299 1428 1554 1560 1430 1300 1432
8 1563 1433 1300 1432 1435 1302 1170 1301
8 1546 1422 1303 1437 1434 1301 1435 1565
8 1303 1171 1304 1438 1435 1302 1436 1566
8 1305 1172 1306 1440 1437 1303 1438 1568
8 1306 1173 1307 1441 1438 1304 1439 1569
8 1308 1175 1309 1443 1440 1306 1441 1571
8 1309 1176 1310 1444 1441 1307 1442 1572
8 1311 1178 1312 1446 1443 1309 1444 1574
8 1179 1312 1444 1310 1313 1447 1575 1445
8 1314 1181 1315 1448 1446 1312 1447 1576
8 1350 1213 1349 1486 1451 1317 1449 1579
8 1451 1317 1450 1581 1319 1186 1318 1453
8 1454 1319 1214 1351 1582 1451 1350 1487
8 1453 1318 1452 1584 1321 1187 1320 1456
8 1454 1319 1453 1585 1344 1208 1321 1457
8 1456 1320 1455 1586 1323 1189 1324 1459
8 1457 1321 1456 1587 1322 1188 1323 1458
8 1458 1323 1459 1588 1325 1191 1326 1460
8 1205 1336 1464 1329 1328 1462 1590 1461
8 1507 1373 1461 1590 1374 1242 1328 1462
8 1508 1374 1462 1591 1375 1243 1335 1467
8 1337 1206 1329 1464 1473 1341 1463 1594
8 1375 1243 1335 1467 1465 1333 1470 1596
8 1465 1333 1470 1596 1331 1200 1334 1466
8 1352 1227 1334 1466 1488 1360 1470 1596
8 1591 1462 1336 1468 1467 1335 1471 1597
8 1469 1337 1472 1598 1595 1464 1336 1468
8 1471 1339 1474 1600 1335 1204 1338 1470
8 1600 1474 1367 1496 1470 1338 1235 1360
8 1336 1205 1340 1472 1471 1339 1475 1601
8 1337 1206 1341 1473 1472 1340 1476 1602
8 1495 1370 1478 1609 1361 1239 1342 1479
8 1348 1212 1342 1479 1483 1347 1478 1609
8 1481 1346 1479 1610 1345 1210 1343 1480
8 1481 1346 1228 1359 1610 1479 1361 1494
8 1484 1348 1214 1351 1610 1479 1343 1480
8 1483 1347 1482 1612 1350 1213 1349 1486
8 1484 1348 1483 1613 1351 1214 1350 1487
8 1353 1230 1360 1488 1489 1363 1496 1616
8 1490 1364 1231 1354 1617 1499 1363 1489
8 1490 1364 1499 1617 1355 1232 1365 1491
8 1356 1234 1365 1491 1492 1366 1500 1619
8 1492 1366 1498 1620 1357 1233 1362 1493
8 1494 1361 1228 1359 1621 1497 1362 1493
8 1495 1370 1239 1361 1622 1504 1371 1497
8 1363 1236 1367 1496 1499 1368 1501 1623
8 1497 1371 1240 1362 1624 1505 1372 1498
8 1625 1503 1372 1498 1500 1369 1241 1366
8 1365 1238 1368 1499 1500 1369 1502 1626
8 1520 1398 1506 1633 1388 1266 1373 1507
8 1634 1507 1374 1508 1512 1388 1255 1380
8 1509 1387 1519 1635 1377 1258 1391 1510
8 1405 1276 1406 1534 1509 1387 1519 1635
8 1515 1392 1260 1383 1636 1522 1390 1511
8 1511 1390 1259 1379 1636 1522 1391 1510
8 1385 1256 1389 1517 1512 1388 1520 1637
8 1513 1394 1262 1382 1638 1524 1393 1514
8 1395 1516 1638 1524 1263 1384 1513 1394
8 1515 1392 1523 1639 1383 1260 1393 1514
8 1516 1395 1526 1640 1386 1264 1396 1518
8 1386 1264 1396 1518 1517 1389 1521 1641
8 1519 1397 1527 1643 1391 1269 1400 1522
8 1535 1407 1527 1643 1406 1277 1397 1519
8 1389 1267 1399 1521 1520 1398 1528 1644
8 1645 1529 1399 1521 1525 1404 1274 1396
8 1392 1270 1400 1522 1523 1401 1531 1646
8 1524 1402 1271 1393 1648 1532 1401 1523
8 1403 1526 1648 1532 1273 1395 1524 1402
8 1525 1404 1274 1396 1649 1533 1403 1526
8 1539 1414 1535 1657 1411 1286 1406 1534
8 1542 1415 1536 1658 1414 1287 1407 1535
8 1409 1285 1412 1537 1538 1413 1540 1660
8 1545 1421 1540 1660 1418 1292 1412 1537
8 1539 1414 1286 1411 1661 1541 1413 1538
8 1540 1417 1544 1663 1413 1288 1416 1541
8 1421 1296 1425 1548 1540 1417 1544 1663
8 1542 1415 1287 1414 1664 1543 1416 1541
8 1420 1294 1423 1547 1545 1421 1548 1666
8 1547 1423 1293 1419 1667 1549 1422 1546
8 1434 1301 1427 1553 1546 1422 1549 1667
8 1423 1297 1424 1549 1548 1425 1550 1668
8 1551 1426 1550 1668 1427 1298 1424 1549
8 1551 1426 1298 1427 1671 1552 1428 1554
8 1562 1432 1554 1674 1434 1301 1427 1553
8 1431 1299 1429 1558 1554 1428 1555 1675
8 1431 1299 1430 1560 1558 1429 1557 1680
8 1560 1430 1300 1432 1683 1559 1433 1563
8 1561 1431 1554 1674 1684 1560 1432 1562
8 1685 1563 1432 1562 1565 1435 1301 1434
8 1435 1302 1436 1566 1563 1433 1564 1686
8 1437 1303 1438 1568 1565 1435 1566 1688
8 1438 1304 1439 1569 1566 1436 1567 1689
8 1440 1306 1441 1571 1568 1438 1569 1691
8 1441 1307 1442 1572 1569 1439 1570 1692
8 1443 1309 1444 1574 1571 1441 1572 1694
8 1310 1444 1572 1442 1445 1575 1695 1573
8 1446 1312 1447 1576 1574 1444 1575 1696
8 1486 1349 1485 1614 1579 1449 1577 1699
8 1451 1317 1449 1579 1581 1450 1578 1701
8 1487 1350 1486 1615 1582 1451 1579 1702
8 1581 1450 1580 1704 1453 1318 1452 1584
8 1582 1451 1581 1705 1454 1319 1453 1585
8 1584 1452 1583 1706 1456 1320 1455 1586
8 1585 1453 1584 1707 1457 1321 1456 1587
8 1587 1456 1586 1708 1458 1323 1459 1588
8 1633 1506 1589 1710 1507 1373 1461 1590
8 1464 1329 1461 1590 1594 1463 1589 1710
8 1468 1336 1462 1591 1595 1464 1590 1711
8 1634 1507 1590 1711 1508 1374 1462 1591
8 1473 1341 1463 1594 1603 1477 1593 1716
8 1469 1337 1464 1595 1599 1473 1594 1717
8 1471 1597 1467 1335 1600 1718 1596 1470
8 1718 1600 1496 1616 1596 1470 1360 1488
8 1336 1468 1597 1471 1472 1598 1719 1601
8 1469 1337 1473 1599 1598 1472 1602 1720
8 1722 1604 1501 1623 1600 1474 1367 1496
8 1475 1601 1471 1339 1604 1722 1600 1474
8 1602 1476 1605 1723 1472 1340 1475 1601
8 1476 1602 1724 1606 1341 1473 1603 1477
8 1483 1347 1478 1609 1612 1482 1608 1731
8 1495 1370 1504 1622 1609 1478 1608 1731
8 1618 1495 1609 1732 1494 1361 1479 1610
8 1484 1348 1479 1610 1613 1483 1609 1732
8 1486 1349 1482 1612 1614 1485 1611 1733
8 1613 1483 1612 1734 1487 1350 1486 1615
8 1489 1363 1496 1616 1617 1499 1623 1736
8 1491 1365 1499 1617 1619 1500 1626 1737
8 1618 1495 1361 1494 1738 1622 1497 1621
8 1739 1625 1498 1620 1619 1500 1366 1492
8 1621 1497 1362 1493 1740 1624 1498 1620
8 1742 1631 1504 1622 1624 1505 1371 1497
8 1743 1628 1502 1626 1623 1501 1368 1499
8 1744 1630 1505 1624 1625 1503 1372 1498
8 1745 1629 1503 1625 1626 1502 1369 1500
8 1520 1398 1528 1644 1633 1506 1632 1751
8 1637 1520 1633 1752 1512 1388 1507 1634
8 1635 1519 1643 1753 1510 1391 1522 1636
8 1657 1535 1643 1753 1534 1406 1519 1635
8 1515 1392 1522 1636 1639 1523 1646 1754
8 1517 1389 1521 1641 1637 1520 1644 1755
8 1524 1638 1756 1648 1393 1514 1639 1523
8 1640 1526 1395 1516 1756 1648 1524 1638
8 1642 1525 1396 1518 1757 1649 1526 1640
8 1758 1645 1521 1641 1642 1525 1396 1518
8 1646 1531 1400 1522 1760 1650 1527 1643
8 1535 1407 1536 1658 1643 1527 1650 1760
8 1521 1399 1529 1645 1644 1528 1651 1761
8 1647 1530 1652 1762 1525 1404 1529 1645
8 1401 1523 1648 1532 1531 1646 1763 1655
8 1525 1404 1533 1649 1647 1530 1654 1765
8 1533 1649 1766 1656 1403 1526 1648 1532
8 1662 1542 1658 1774 1539 1414 1535 1657
8 1542 1415 1543 1664 1658 1536 1659 1775
8 1660 1540 1663 1777 1538 1413 1541 1661
8 1545 1421 1548 1666 1660 1540 1663 1777
8 1662 1542 1414 1539 1778 1664 1541 1661
8 1664 1543 1416 1541 1779 1665 1544 1663
8 1548 1425 1550 1668 1663 1544 1665 1779
8 1547 1423 1549 1667 1666 1548 1668 1781
8 1670 1551 1668 1781 1553 1427 1549 1667
8 1551 1426 1552 1671 1668 1550 1669 1782
8 1670 1551 1427 1553 1784 1671 1554 1674
8 1675 1555 1672 1785 1554 1428 1552 1671
8 1678 1556 1673 1789 1558 1429 1555 1675
8 1561 1431 1558 1681 1674 1554 1675 1790
8 1794 1677 1556 1678 1680 1557 1429 1558
8 1560 1430 1559 1683 1680 1557 1679 1797
8 1561 1431 1560 1684 1681 1558 1680 1798
8 1563 1433 1564 1686 1683 1559 1682 1800
8 1684 1560 1432 1562 1801 1683 1563 1685
8 1565 1435 1566 1688 1685 1563 1686 1802
8 1566 1436 1567 1689 1686 1564 1687 1803
8 1568 1438 1569 1691 1688 1566 1689 1805
8 1569 1439 1570 1692 1689 1567 1690 1806
8 1571 1441 1572 1694 1691 1569 1692 1808
8 1442 1572 1692 1570 1573 1695 1809 1693
8 1574 1444 1575 1696 1694 1572 1695 1810
8 1614 1485 1592 1712 1699 1577 1697 1813
8 1579 1449 1577 1699 1701 1578 1698 1815
8 1615 1486 1614 1735 1702 1579 1699 1816
8 1701 1578 1700 1818 1581 1450 1580 1704
8 1582 1451 1579 1702 1705 1581 1701 1819
8 1704 1580 1703 1820 1584 1452 1583 1706
8 1705 1581 1704 1821 1585 1453 1584 1707
8 1707 1584 1706 1822 1587 1456 1586 1708
8 1710 1589 1506 1633 1824 1709 1632 1751
8 1594 1463 1589 1710 1716 1593 1709 1824
8 1752 1633 1710 1825 1634 1507 1590 1711
8 1595 1464 1590 1711 1717 1594 1710 1825
8 1830 1714 1592 1712 1733 1611 1485 1614
8 1603 1477 1593 1716 1725 1607 1715 1834
8 1599 1473 1594 1717 1721 1603 1716 1835
8 1837 1722 1623 1736 1718 1600 1496 1616
8 1719 1601 1722 1837 1597 1471 1600 1718
8 1602 1720 1598 1472 1723 1838 1719 1601
8 1720 1602 1473 1599 1839 1724 1603 1721
8 1723 1605 1726 1840 1601 1475 1604 1722
8 1840 1726 1628 1743 1722 1604 1501 1623
8 1724 1606 1727 1841 1602 1476 1605 1723
8 1725 1607 1728 1842 1603 1477 1606 1724
8 1612 1482 1608 1731 1733 1611 1730 1849
8 1741 1627 1730 1849 1622 1504 1608 1731
8 1613 1483 1609 1732 1734 1612 1731 1850
8 1618 1495 1622 1738 1732 1609 1731 1850
8 1615 1486 1612 1734 1735 1614 1733 1851
8 1852 1743 1626 1737 1736 1623 1499 1617
8 1853 1745 1625 1739 1737 1626 1500 1619
8 1855 1742 1622 1738 1740 1624 1497 1621
8 1856 1744 1624 1740 1739 1625 1498 1620
8 1741 1627 1504 1622 1857 1746 1631 1742
8 1742 1631 1505 1624 1858 1749 1630 1744
8 1859 1747 1629 1745 1743 1628 1502 1626
8 1860 1748 1630 1744 1745 1629 1503 1625
8 1644 1528 1651 1761 1751 1632 1750 1865
8 1637 1520 1644 1755 1752 1633 1751 1866
8 1754 1646 1522 1636 1867 1760 1643 1753
8 1657 1535 1658 1774 1753 1643 1760 1867
8 1639 1523 1646 1754 1756 1648 1763 1868
8 1641 1521 1645 1758 1755 1644 1761 1869
8 1757 1649 1526 1640 1870 1766 1648 1756
8 1642 1525 1649 1757 1759 1647 1765 1871
8 1759 1647 1762 1872 1642 1525 1645 1758
8 1760 1650 1767 1874 1646 1531 1655 1763
8 1658 1536 1659 1775 1760 1650 1767 1874
8 1762 1652 1768 1875 1645 1529 1651 1761
8 1764 1653 1769 1876 1647 1530 1652 1762
8 1656 1766 1877 1773 1532 1648 1763 1655
8 1771 1879 1765 1654 1653 1764 1647 1530
8 1533 1649 1765 1654 1656 1766 1880 1772
8 1662 1542 1664 1778 1774 1658 1775 1887
8 1664 1543 1665 1779 1775 1659 1776 1888
8 1778 1664 1541 1661 1890 1779 1663 1777
8 1666 1548 1668 1781 1777 1663 1779 1890
8 1782 1669 1780 1891 1668 1550 1665 1779
8 1670 1551 1671 1784 1781 1668 1782 1893
8 1671 1552 1672 1785 1782 1669 1783 1894
8 1790 1675 1785 1896 1674 1554 1671 1784
8 1675 1555 1673 1789 1785 1672 1786 1897
8 1792 1676 1788 1903 1678 1556 1673 1789
8 1795 1678 1789 1904 1681 1558 1675 1790
8 1792 1676 1556 1678 1906 1791 1677 1794
8 1680 1557 1679 1797 1794 1677 1793 1909
8 1910 1794 1678 1795 1798 1680 1558 1681
8 1683 1559 1682 1800 1797 1679 1796 1912
8 1684 1560 1683 1801 1798 1680 1797 1913
8 1686 1564 1687 1803 1800 1682 1799 1915
8 1685 1563 1686 1802 1801 1683 1800 1916
8 1688 1566 1689 1805 1802 1686 1803 1917
8 1689 1567 1690 1806 1803 1687 1804 1918
8 1691 1569 1692 1808 1805 1689 1806 1920
8 1692 1570 1693 1809 1806 1690 1807 1921
8 1694 1572 1695 1810 1808 1692 1809 1922
8 1829 1713 1811 1926 1712 1592 1697 1813
8 1813 1697 1812 1928 1699 1577 1698 1815
8 1735 1614 1712 1828 1816 1699 1813 1929
8 1815 1698 1814 1931 1701 1578 1700 1818
8 1702 1579 1699 1816 1819 1701 1815 1932
8 1818 1700 1817 1933 1704 1580 1703 1820
8 1819 1701 1818 1934 1705 1581 1704 1821
8 1821 1704 1820 1935 1707 1584 1706 1822
8 1824 1709 1632 1751 1937 1823 1750 1865
8 1716 1593 1709 1824 1834 1715 1823 1937
8 1825 1710 1633 1752 1938 1824 1751 1866
8 1717 1594 1710 1825 1835 1716 1824 1938
8 1945 1830 1712 1828 1851 1733 1614 1735
8 1830 1714 1831 1946 1712 1592 1713 1829
8 1947 1832 1714 1830 1849 1730 1611 1733
8 1843 1729 1607 1725 1950 1833 1715 1834
8 1721 1603 1716 1835 1836 1725 1834 1951
8 1836 1725 1842 1953 1721 1603 1724 1839
8 1723 1838 1719 1601 1840 1954 1837 1722
8 1954 1840 1743 1852 1837 1722 1623 1736
8 1724 1839 1720 1602 1841 1955 1838 1723
8 1841 1727 1844 1956 1723 1605 1726 1840
8 1956 1844 1747 1859 1840 1726 1628 1743
8 1728 1842 1724 1606 1845 1957 1841 1727
8 1725 1607 1729 1843 1842 1728 1846 1958
8 1741 1627 1746 1857 1849 1730 1848 1965
8 1734 1612 1731 1850 1851 1733 1849 1966
8 1854 1741 1849 1966 1738 1622 1731 1850
8 1967 1859 1745 1853 1852 1743 1626 1737
8 1968 1860 1744 1856 1853 1745 1625 1739
8 1854 1741 1622 1738 1969 1857 1742 1855
8 1855 1742 1624 1740 1970 1858 1744 1856
8 1857 1746 1631 1742 1971 1861 1749 1858
8 1858 1749 1630 1744 1972 1863 1748 1860
8 1859 1747 1862 1973 1745 1629 1748 1860
8 1875 1768 1864 1977 1761 1651 1750 1865
8 1755 1644 1761 1869 1866 1751 1865 1978
8 1867 1760 1874 1979 1754 1646 1763 1868
8 1774 1658 1775 1887 1867 1760 1874 1979
8 1870 1766 1648 1756 1980 1877 1763 1868
8 1872 1762 1875 1981 1758 1645 1761 1869
8 1757 1649 1766 1870 1871 1765 1880 1982
8 1983 1879 1764 1873 1871 1765 1647 1759
8 1873 1764 1876 1984 1759 1647 1762 1872
8 1877 1773 1655 1763 1986 1881 1767 1874
8 1775 1659 1776 1888 1874 1767 1881 1986
8 1876 1769 1882 1987 1762 1652 1768 1875
8 1878 1770 1883 1988 1764 1653 1769 1876
8 1880 1772 1656 1766 1989 1886 1773 1877
8 1878 1770 1653 1764 1990 1884 1771 1879
8 1765 1654 1772 1880 1879 1771 1885 1991
8 1778 1664 1779 1890 1887 1775 1888 1997
8 1998 1889 1776 1888 1891 1780 1665 1779
8 1893 1782 1891 2000 1781 1668 1779 1890
8 1894 1783 1892 2001 1782 1669 1780 1891
8 1784 1671 1785 1896 1893 1782 1894 2003
8 1897 1786 1895 2004 1785 1672 1783 1894
8 1790 1675 1789 1904 1896 1785 1897 2006
8 1901 1787 1898 2007 1789 1673 1786 1897
8 1903 1788 1900 2013 1789 1673 1787 1901
8 1792 1676 1791 1906 1903 1788 1902 2016
8 1907 1792 1903 2017 1795 1678 1789 1904
8 1906 1791 1677 1794 2019 1905 1793 1909
8 1907 1792 1678 1795 2020 1906 1794 1910
8 1797 1679 1796 1912 1909 1793 1908 2022
8 1798 1680 1797 1913 1910 1794 1909 2023
8 1800 1682 1799 1915 1912 1796 1911 2025
8 1801 1683 1800 1916 1913 1797 1912 2026
8 1803 1687 1804 1918 1915 1799 1914 2028
8 1802 1686 1803 1917 1916 1800 1915 2029
8 1805 1689 1806 1920 1917 1803 1918 2030
8 1806 1690 1807 1921 1918 1804 1919 2031
8 1808 1692 1809 1922 1920 1806 1921 2032
8 1939 1826 1924 2037 1829 1713 1811 1926
8 1926 1811 1925 2039 1813 1697 1812 1928
8 1944 1829 1926 2040 1828 1712 1813 1929
8 1928 1812 1927 2042 1815 1698 1814 1931
8 1929 1813 1928 2043 1816 1699 1815 1932
8 1931 1814 1930 2044 1818 1700 1817 1933
8 1932 1815 1931 2045 1819 1701 1818 1934
8 1934 1818 1933 2046 1821 1704 1820 1935
8 2048 1936 1823 1937 1977 1864 1750 1865
8 1950 1833 1715 1834 2048 1936 1823 1937
8 1938 1824 1751 1866 2049 1937 1865 1978
8 1835 1716 1824 1938 1951 1834 1937 2049
8 1939 1826 1713 1829 2053 1942 1831 1946
8 1940 1827 1923 2035 2053 1942 1826 1939
8 1945 1830 1946 2058 1828 1712 1829 1944
8 2059 1947 1830 1945 1966 1849 1733 1851
8 1947 1832 1730 1849 2060 1948 1848 1965
8 1947 1832 1948 2060 1830 1714 1831 1946
8 1959 1847 1729 1843 2063 1949 1833 1950
8 1952 1843 1725 1836 2064 1950 1834 1951
8 1836 1725 1843 1952 1953 1842 1958 2066
8 1953 1842 1957 2067 1839 1724 1841 1955
8 1841 1955 1838 1723 1956 2068 1954 1840
8 2068 1956 1859 1967 1954 1840 1743 1852
8 1956 1844 1960 2069 1859 1747 1862 1973
8 1845 1957 1841 1727 1960 2069 1956 1844
8 1728 1842 1957 1845 1846 1958 2071 1961
8 1962 2072 1959 1847 1846 1958 1843 1729
8 1971 1861 1964 2077 1857 1746 1848 1965
8 1854 1741 1857 1969 1966 1849 1965 2078
8 1967 1859 1973 2079 1853 1745 1860 1968
8 1970 1858 1744 1856 2080 1972 1860 1968
8 1969 1857 1742 1855 2081 1971 1858 1970
8 1971 1861 1749 1858 2082 1974 1863 1972
8 1973 1862 1975 2083 1860 1748 1863 1972
8 1987 1882 1976 2086 1875 1768 1864 1977
8 1981 1875 1977 2087 1869 1761 1865 1978
8 1980 1877 1763 1868 2088 1986 1874 1979
8 1887 1775 1888 1997 1979 1874 1986 2088
8 1880 1982 2089 1989 1766 1870 1980 1877
8 1984 1876 1987 2090 1872 1762 1875 1981
8 1765 1871 1983 1879 1880 1982 2091 1991
8 1985 1878 1764 1873 2092 1990 1879 1983
8 1985 1878 1988 2093 1873 1764 1876 1984
8 2094 1992 1881 1986 1998 1889 1776 1888
8 1986 1881 1992 2094 1877 1773 1886 1989
8 1988 1883 1993 2095 1876 1769 1882 1987
8 1878 1770 1884 1990 1988 1883 1994 2096
8 1991 1885 1772 1880 2097 1996 1886 1989
8 1879 1771 1885 1991 1990 1884 1995 2098
8 2103 1998 1888 1997 2000 1891 1779 1890
8 2104 1999 1889 1998 2001 1892 1780 1891
8 2003 1894 2001 2106 1893 1782 1891 2000
8 2004 1895 2002 2107 1894 1783 1892 2001
8 2006 1897 2004 2109 1896 1785 1894 2003
8 2007 1898 2005 2110 1897 1786 1895 2004
8 2014 1901 2007 2112 1904 1789 1897 2006
8 2011 1899 2008 2113 1901 1787 1898 2007
8 2119 2010 1899 2011 2013 1900 1787 1901
8 2016 1902 2012 2122 1903 1788 1900 2013
8 2017 1903 2013 2123 1904 1789 1901 2014
8 1906 1791 1905 2019 2016 1902 2015 2125
8 1907 1792 1906 2020 2017 1903 2016 2126
8 1909 1793 1908 2022 2019 1905 2018 2128
8 2020 1906 1794 1910 2129 2019 1909 2023
8 1912 1796 1911 2025 2022 1908 2021 2131
8 1913 1797 1912 2026 2023 1909 2022 2132
8 1915 1799 1914 2028 2025 1911 2024 2134
8 1916 1800 1915 2029 2026 1912 2025 2135
8 1918 1804 1919 2031 2028 1914 2027 2136
8 1917 1803 1918 2030 2029 1915 2028 2137
8 1920 1806 1921 2032 2030 1918 2031 2138
8 1940 1827 1941 2054 2035 1923 2033 2140
8 2035 1923 2034 2143 1939 1826 1924 2037
8 2037 1924 2036 2146 1926 1811 1925 2039
8 2051 1939 2037 2147 1944 1829 1926 2040
8 2039 1925 2038 2149 1928 1812 1927 2042
8 2040 1926 2039 2150 1929 1813 1928 2043
8 2042 1927 2041 2151 1931 1814 1930 2044
8 2043 1928 2042 2152 1932 1815 1931 2045
8 2045 1931 2044 2153 1934 1818 1933 2046
8 2155 2047 1936 2048 2086 1976 1864 1977
8 2063 1949 1833 1950 2155 2047 1936 2048
8 2156 2048 1937 2049 2087 1977 1865 1978
8 2064 1950 1834 1951 2156 2048 1937 2049
8 2051 1939 1829 1944 2160 2053 1946 2058
8 2052 1940 2035 2144 2160 2053 1939 2051
8 2053 1942 1831 1946 2163 2057 1948 2060
8 2055 1943 1827 1940 2163 2057 1942 2053
8 2055 1943 2056 2164 1940 1827 1941 2054
8 2059 1947 1849 1966 2167 2060 1965 2078
8 2059 1947 2060 2167 1945 1830 1946 2058
8 2077 1964 2061 2168 1965 1848 1948 2060
8 2070 1963 1847 1959 2170 2062 1949 2063
8 2065 1959 1843 1952 2171 2063 1950 2064
8 2173 2072 1958 2066 2065 1959 1843 1952
8 1953 1842 1958 2066 2067 1957 2071 2174
8 2068 1956 2069 2175 1967 1859 1973 2079
8 2067 1957 2069 2175 1955 1841 1956 2068
8 1845 1957 2069 1960 1961 2071 2176 2073
8 2069 1960 2073 2176 1973 1862 1975 2083
8 2070 1963 2075 2177 1959 1847 1962 2072
8 1846 1958 2071 1961 1962 2072 2178 2074
8 2077 1964 1861 1971 2182 2076 1974 2082
8 2081 1971 2077 2183 1969 1857 1965 2078
8 2079 1973 2083 2184 1968 1860 1972 2080
8 2081 1971 1858 1970 2185 2082 1972 2080
8 2083 1975 2084 2186 1972 1863 1974 2082
8 2086 1976 1882 1987 2189 2085 1993 2095
8 2090 1987 2086 2190 1981 1875 1977 2087
8 2191 2094 1986 2088 2103 1998 1888 1997
8 2088 1986 2094 2191 1980 1877 1989 2089
8 1991 2091 2192 2097 1880 1982 2089 1989
8 2093 1988 2095 2193 1984 1876 1987 2090
8 1879 1983 2092 1990 1991 2091 2194 2098
8 1985 1878 1990 2092 2093 1988 2096 2195
8 2097 1996 1886 1989 2196 2099 1992 2094
8 2196 2099 1992 2094 2104 1999 1889 1998
8 1994 2096 1988 1883 2100 2197 2095 1993
8 2096 1994 1884 1990 2198 2101 1995 2098
8 1995 2098 2199 2102 1885 1991 2097 1996
8 2203 2104 1998 2103 2106 2001 1891 2000
8 2107 2002 2105 2204 2001 1892 1999 2104
8 2109 2004 2107 2206 2003 1894 2001 2106
8 2110 2005 2108 2207 2004 1895 2002 2107
8 2112 2007 2110 2209 2006 1897 2004 2109
8 2113 2008 2111 2210 2007 1898 2005 2110
8 2120 2011 2113 2212 2014 1901 2007 2112
8 2117 2009 2114 2213 2011 1899 2008 2113
8 2219 2116 2009 2117 2119 2010 1899 2011
8 2222 2118 2010 2119 2122 2012 1900 2013
8 2223 2119 2011 2120 2123 2013 1901 2014
8 2016 1902 2015 2125 2122 2012 2121 2225
8 2126 2016 2122 2226 2017 1903 2013 2123
8 2019 1905 2018 2128 2125 2015 2124 2228
8 2020 1906 2019 2129 2126 2016 2125 2229
8 2022 1908 2021 2131 2128 2018 2127 2231
8 2023 1909 2022 2132 2129 2019 2128 2232
8 2025 1911 2024 2134 2131 2021 2130 2234
8 2026 1912 2025 2135 2132 2022 2131 2235
8 1914 2028 2134 2024 2027 2136 2236 2133
8 2029 1915 2028 2137 2135 2025 2134 2237
8 2030 1918 2031 2138 2137 2028 2136 2238
8 2157 2050 2139 2240 2054 1941 2033 2140
8 2052 1940 2054 2161 2144 2035 2140 2242
8 2140 2033 2141 2243 2035 1923 2034 2143
8 2143 2034 2142 2246 2037 1924 2036 2146
8 2144 2035 2143 2247 2051 1939 2037 2147
8 2146 2036 2145 2249 2039 1925 2038 2149
8 2147 2037 2146 2250 2040 1926 2039 2150
8 2149 2038 2148 2251 2042 1927 2041 2151
8 2150 2039 2149 2252 2043 1928 2042 2152
8 2152 2042 2151 2253 2045 1931 2044 2153
8 2255 2154 2047 2155 2189 2085 1976 2086
8 2170 2062 1949 2063 2255 2154 2047 2155
8 2256 2155 2048 2156 2190 2086 1977 2087
8 2171 2063 1950 2064 2256 2155 2048 2156
8 2258 2159 2050 2157 2164 2056 1941 2054
8 2160 2053 1946 2058 2262 2163 2060 2167
8 2162 2055 1940 2052 2262 2163 2053 2160
8 2162 2055 2164 2263 2052 1940 2054 2161
8 2163 2057 1948 2060 2264 2165 2061 2168
8 2055 1943 2057 2163 2164 2056 2165 2264
8 2182 2076 2166 2268 2077 1964 2061 2168
8 2183 2077 2168 2269 2078 1965 2060 2167
8 2070 1963 2062 2170 2177 2075 2169 2271
8 2172 2070 1959 2065 2272 2170 2063 2171
8 2172 2070 2177 2273 2065 1959 2072 2173
8 2066 1958 2072 2173 2174 2071 2178 2274
8 2067 1957 2071 2174 2175 2069 2176 2275
8 2175 2069 2176 2275 2079 1973 2083 2184
8 2071 1961 2074 2178 2176 2073 2179 2276
8 2176 2073 2179 2276 2083 1975 2084 2186
8 2072 1962 2075 2177 2178 2074 2180 2277
8 2182 2076 1974 2082 2280 2181 2084 2186
8 2183 2077 1971 2081 2281 2182 2082 2185
8 2184 2083 2186 2282 2080 1972 2082 2185
8 2189 2085 1993 2095 2285 2188 2100 2197
8 2190 2086 1987 2090 2286 2189 2095 2193
8 2192 2097 1989 2089 2287 2196 2094 2191
8 2287 2196 2094 2191 2203 2104 1998 2103
8 2194 2098 1991 2091 2288 2199 2097 2192
8 2195 2096 2197 2289 2093 1988 2095 2193
8 2096 2195 2290 2198 1990 2092 2194 2098
8 2097 1996 2099 2196 2199 2102 2200 2291
8 2196 2099 1999 2104 2291 2200 2105 2204
8 2100 2197 2292 2201 1994 2096 2198 2101
8 1995 2098 2198 2101 2102 2199 2293 2202
8 2206 2107 2204 2296 2106 2001 2104 2203
8 2207 2108 2205 2297 2107 2002 2105 2204
8 2209 2110 2207 2299 2109 2004 2107 2206
8 2210 2111 2208 2300 2110 2005 2108 2207
8 2212 2113 2210 2302 2112 2007 2110 2209
8 2213 2114 2211 2303 2113 2008 2111 2210
8 2220 2117 2213 2305 2120 2011 2113 2212
8 2216 2115 2214 2306 2117 2009 2114 2213
8 2216 2115 2009 2117 2311 2217 2116 2219
8 2219 2116 2010 2119 2314 2218 2118 2222
8 2315 2219 2117 2220 2223 2119 2011 2120
8 2122 2012 2121 2225 2222 2118 2221 2317
8 2318 2222 2119 2223 2226 2122 2013 2123
8 2125 2015 2124 2228 2225 2121 2224 2320
8 2126 2016 2125 2229 2226 2122 2225 2321
8 2128 2018 2127 2231 2228 2124 2227 2323
8 2129 2019 2128 2232 2229 2125 2228 2324
8 2131 2021 2130 2234 2231 2127 2230 2326
8 2132 2022 2131 2235 2232 2128 2231 2327
8 2134 2024 2133 2236 2234 2130 2233 2328
8 2135 2025 2134 2237 2235 2131 2234 2329
8 2137 2028 2136 2238 2237 2134 2236 2330
8 2157 2050 2158 2259 2240 2139 2239 2332
8 2257 2157 2240 2334 2161 2054 2140 2242
8 2240 2139 2241 2335 2140 2033 2141 2243
8 2242 2140 2243 2337 2144 2035 2143 2247
8 2243 2141 2244 2338 2143 2034 2142 2246
8 2246 2142 2245 2341 2146 2036 2145 2249
8 2247 2143 2246 2342 2147 2037 2146 2250
8 2249 2145 2248 2343 2149 2038 2148 2251
8 2250 2146 2249 2344 2150 2039 2149 2252
8 2252 2149 2251 2345 2152 2042 2151 2253
8 2169 2271 2347 2254 2062 2170 2255 2154
8 2189 2085 2188 2285 2255 2154 2254 2347
8 2348 2255 2155 2256 2286 2189 2086 2190
8 2272 2170 2063 2171 2348 2255 2155 2256
8 2349 2258 2157 2257 2263 2164 2054 2161
8 2258 2159 2261 2351 2157 2050 2158 2259
8 2258 2159 2056 2164 2351 2261 2165 2264
8 2262 2163 2060 2167 2355 2264 2168 2269
8 2162 2055 2163 2262 2263 2164 2264 2355
8 2357 2266 2165 2264 2268 2166 2061 2168
8 2268 2166 2076 2182 2361 2267 2181 2280
8 2281 2182 2268 2362 2183 2077 2168 2269
8 2271 2169 2270 2364 2177 2075 2180 2277
8 2172 2070 2170 2272 2273 2177 2271 2365
8 2072 2173 2274 2178 2177 2273 2366 2277
8 2071 2174 2275 2176 2178 2274 2367 2276
8 2275 2176 2276 2367 2184 2083 2186 2282
8 2283 2187 2084 2186 2368 2278 2179 2276
8 2178 2074 2180 2277 2276 2179 2278 2368
8 2283 2187 2279 2370 2186 2084 2181 2280
8 2281 2182 2082 2185 2371 2280 2186 2282
8 2188 2285 2374 2284 2100 2197 2292 2201
8 2286 2189 2095 2193 2375 2285 2197 2289
8 2192 2097 2196 2287 2288 2199 2291 2376
8 2287 2196 2104 2203 2376 2291 2204 2296
8 2194 2098 2199 2288 2290 2198 2293 2377
8 2289 2197 2096 2195 2378 2292 2198 2290
8 2291 2200 2105 2204 2379 2294 2205 2297
8 2199 2102 2200 2291 2293 2202 2294 2379
8 2198 2101 2202 2293 2292 2201 2295 2380
8 2299 2207 2297 2383 2206 2107 2204 2296
8 2300 2208 2298 2384 2207 2108 2205 2297
8 2302 2210 2300 2386 2209 2110 2207 2299
8 2303 2211 2301 2387 2210 2111 2208 2300
8 2305 2213 2303 2389 2212 2113 2210 2302
8 2306 2214 2304 2390 2213 2114 2211 2303
8 2310 2216 2306 2392 2220 2117 2213 2305
8 2308 2215 2307 2393 2216 2115 2214 2306
8 2308 2215 2115 2216 2396 2309 2217 2311
8 2310 2216 2117 2220 2398 2311 2219 2315
8 2311 2217 2116 2219 2399 2312 2218 2314
8 2314 2218 2118 2222 2402 2313 2221 2317
8 2315 2219 2119 2223 2403 2314 2222 2318
8 2225 2121 2224 2320 2317 2221 2316 2405
8 2226 2122 2225 2321 2318 2222 2317 2406
8 2228 2124 2227 2323 2320 2224 2319 2408
8 2229 2125 2228 2324 2321 2225 2320 2409
8 2231 2127 2230 2326 2323 2227 2322 2411
8 2232 2128 2231 2327 2324 2228 2323 2412
8 2234 2130 2233 2328 2326 2230 2325 2413
8 2235 2131 2234 2329 2327 2231 2326 2414
8 2237 2134 2236 2330 2329 2234 2328 2415
8 2259 2158 2260 2352 2332 2239 2331 2417
8 2257 2157 2259 2350 2334 2240 2332 2419
8 2240 2139 2239 2332 2335 2241 2333 2420
8 2334 2240 2335 2422 2242 2140 2243 2337
8 2335 2241 2336 2423 2243 2141 2244 2338
8 2337 2243 2338 2425 2247 2143 2246 2342
8 2338 2244 2339 2426 2246 2142 2245 2341
8 2341 2245 2340 2428 2249 2145 2248 2343
8 2342 2246 2341 2429 2250 2146 2249 2344
8 2344 2249 2343 2430 2252 2149 2251 2345
8 2188 2285 2347 2254 2284 2374 2432 2346
8 2347 2254 2346 2432 2271 2169 2270 2364
8 2365 2271 2170 2272 2433 2347 2255 2348
8 2286 2189 2285 2375 2348 2255 2347 2433
8 2349 2258 2351 2435 2257 2157 2259 2350
8 2349 2258 2164 2263 2435 2351 2264 2355
8 2259 2158 2261 2351 2352 2260 2354 2437
8 2356 2265 2354 2437 2264 2165 2261 2351
8 2441 2357 2264 2355 2362 2268 2168 2269
8 2356 2265 2165 2264 2442 2358 2266 2357
8 2443 2359 2266 2357 2361 2267 2166 2268
8 2370 2279 2360 2446 2280 2181 2267 2361
8 2362 2268 2182 2281 2447 2361 2280 2371
8 2180 2277 2368 2278 2270 2364 2449 2363
8 2271 2365 2273 2177 2364 2450 2366 2277
8 2372 2283 2186 2282 2451 2368 2276 2367
8 2178 2274 2367 2276 2277 2366 2451 2368
8 2283 2187 2278 2368 2370 2279 2369 2452
8 2372 2283 2370 2453 2282 2186 2280 2371
8 2284 2374 2455 2373 2201 2292 2380 2295
8 2375 2285 2197 2289 2456 2374 2292 2378
8 2376 2291 2204 2296 2457 2379 2297 2383
8 2288 2199 2291 2376 2377 2293 2379 2457
8 2198 2290 2378 2292 2293 2377 2458 2380
8 2293 2202 2294 2379 2380 2295 2381 2459
8 2384 2298 2381 2459 2297 2205 2294 2379
8 2386 2300 2384 2463 2299 2207 2297 2383
8 2387 2301 2385 2464 2300 2208 2298 2384
8 2389 2303 2387 2466 2302 2210 2300 2386
8 2390 2304 2388 2467 2303 2211 2301 2387
8 2392 2306 2390 2469 2305 2213 2303 2389
8 2393 2307 2391 2470 2306 2214 2304 2390
8 2395 2308 2393 2472 2310 2216 2306 2392
8 2308 2215 2309 2396 2393 2307 2394 2473
8 2395 2308 2216 2310 2475 2396 2311 2398
8 2396 2309 2217 2311 2476 2397 2312 2399
8 2398 2311 2219 2315 2478 2399 2314 2403
8 2399 2312 2218 2314 2479 2400 2313 2402
8 2317 2221 2316 2405 2402 2313 2401 2482
8 2403 2314 2222 2318 2483 2402 2317 2406
8 2320 2224 2319 2408 2405 2316 2404 2485
8 2321 2225 2320 2409 2406 2317 2405 2486
8 2323 2227 2322 2411 2408 2319 2407 2488
8 2324 2228 2323 2412 2409 2320 2408 2489
8 2326 2230 2325 2413 2411 2322 2410 2490
8 2327 2231 2326 2414 2412 2323 2411 2491
8 2329 2234 2328 2415 2414 2326 2413 2492
8 2417 2331 2260 2352 2494 2416 2353 2438
8 2350 2259 2352 2436 2419 2332 2417 2496
8 2332 2239 2331 2417 2420 2333 2418 2497
8 2334 2240 2332 2419 2422 2335 2420 2499
8 2420 2333 2421 2500 2335 2241 2336 2423
8 2422 2335 2423 2502 2337 2243 2338 2425
8 2423 2336 2424 2503 2338 2244 2339 2426
8 2425 2338 2426 2505 2342 2246 2341 2429
8 2426 2339 2427 2506 2341 2245 2340 2428
8 2429 2341 2428 2507 2344 2249 2343 2430
8 2432 2346 2284 2374 2509 2431 2373 2455
8 2432 2346 2431 2509 2364 2270 2363 2449
8 2375 2285 2374 2456 2433 2347 2432 2510
8 2347 2433 2365 2271 2432 2510 2450 2364
8 2350 2259 2351 2435 2436 2352 2437 2514
8 2440 2356 2437 2514 2355 2264 2351 2435
8 2352 2260 2354 2437 2438 2353 2439 2516
8 2356 2265 2358 2442 2437 2354 2439 2516
8 2440 2356 2264 2355 2518 2442 2357 2441
8 2519 2443 2357 2441 2447 2361 2268 2362
8 2443 2359 2444 2520 2357 2266 2358 2442
8 2443 2359 2267 2361 2520 2444 2360 2446
8 2446 2360 2279 2370 2523 2445 2369 2452
8 2453 2370 2446 2524 2371 2280 2361 2447
8 2449 2363 2448 2525 2368 2278 2369 2452
8 2366 2277 2364 2450 2451 2368 2449 2526
8 2372 2283 2368 2451 2453 2370 2452 2527
8 2455 2373 2295 2380 2529 2454 2382 2460
8 2456 2374 2292 2378 2530 2455 2380 2458
8 2377 2293 2379 2457 2458 2380 2459 2531
8 2463 2384 2459 2531 2383 2297 2379 2457
8 2533 2461 2382 2460 2459 2381 2295 2380
8 2464 2385 2461 2533 2384 2298 2381 2459
8 2466 2387 2464 2537 2386 2300 2384 2463
8 2467 2388 2465 2538 2387 2301 2385 2464
8 2469 2390 2467 2540 2389 2303 2387 2466
8 2470 2391 2468 2541 2390 2304 2388 2467
8 2472 2393 2470 2543 2392 2306 2390 2469
8 2393 2307 2394 2473 2470 2391 2471 2544
8 2395 2308 2396 2475 2472 2393 2473 2546
8 2396 2309 2397 2476 2473 2394 2474 2547
8 2475 2396 2311 2398 2549 2476 2399 2478
8 2476 2397 2312 2399 2550 2477 2400 2479
8 2478 2399 2314 2403 2552 2479 2402 2483
8 2479 2400 2313 2402 2553 2480 2401 2482
8 2405 2316 2404 2485 2482 2401 2481 2556
8 2406 2317 2405 2486 2483 2402 2482 2557
8 2408 2319 2407 2488 2485 2404 2484 2559
8 2409 2320 2408 2489 2486 2405 2485 2560
8 2411 2322 2410 2490 2488 2407 2487 2561
8 2412 2323 2411 2491 2489 2408 2488 2562
8 2414 2326 2413 2492 2491 2411 2490 2563
8 2513 2434 2493 2565 2438 2353 2416 2494
8 2496 2417 2352 2436 2567 2494 2438 2515
8 2494 2416 2495 2568 2417 2331 2418 2497
8 2419 2332 2417 2496 2499 2420 2497 2570
8 2497 2418 2498 2571 2420 2333 2421 2500
8 2499 2420 2500 2573 2422 2335 2423 2502
8 2500 2421 2501 2574 2423 2336 2424 2503
8 2502 2423 2503 2576 2425 2338 2426 2505
8 2503 2424 2504 2577 2426 2339 2427 2506
8 2505 2426 2506 2578 2429 2341 2428 2507
8 2509 2431 2373 2455 2580 2508 2454 2529
8 2509 2431 2508 2580 2449 2363 2448 2525
8 2432 2510 2581 2509 2374 2456 2530 2455
8 2432 2510 2450 2364 2509 2581 2526 2449
8 2583 2511 2434 2513 2516 2439 2353 2438
8 2436 2352 2437 2514 2515 2438 2516 2588
8 2440 2356 2442 2518 2514 2437 2516 2588
8 2442 2358 2444 2520 2516 2439 2517 2589
8 2519 2443 2520 2591 2441 2357 2442 2518
8 2519 2443 2361 2447 2591 2520 2446 2524
8 2446 2360 2445 2523 2520 2444 2521 2592
8 2525 2448 2522 2593 2452 2369 2445 2523
8 2524 2446 2370 2453 2594 2523 2452 2527
8 2526 2449 2525 2595 2451 2368 2452 2527
8 2534 2462 2528 2597 2460 2382 2454 2529
8 2530 2455 2380 2458 2598 2529 2460 2532
8 2599 2533 2460 2532 2531 2459 2380 2458
8 2537 2464 2533 2599 2463 2384 2459 2531
8 2534 2462 2382 2460 2601 2535 2461 2533
8 2538 2465 2535 2601 2464 2385 2461 2533
8 2540 2467 2538 2604 2466 2387 2464 2537
8 2541 2468 2539 2605 2467 2388 2465 2538
8 2543 2470 2541 2607 2469 2390 2467 2540
8 2470 2391 2471 2544 2541 2468 2542 2608
8 2472 2393 2473 2546 2543 2470 2544 2610
8 2473 2394 2474 2547 2544 2471 2545 2611
8 2475 2396 2476 2549 2546 2473 2547 2613
8 2476 2397 2477 2550 2547 2474 2548 2614
8 2549 2476 2399 2478 2616 2550 2479 2552
8 2479 2400 2480 2553 2550 2477 2551 2617
8 2552 2479 2402 2483 2619 2553 2482 2557
8 2482 2401 2481 2556 2553 2480 2554 2620
8 2485 2404 2484 2559 2556 2481 2555 2623
8 2486 2405 2485 2560 2557 2482 2556 2624
8 2488 2407 2487 2561 2559 2484 2558 2625
8 2489 2408 2488 2562 2560 2485 2559 2626
8 2491 2411 2490 2563 2562 2488 2561 2627
8 2513 2434 2512 2585 2565 2493 2564 2630
8 2586 2513 2565 2632 2515 2438 2494 2567
8 2565 2493 2566 2633 2494 2416 2495 2568
8 2567 2494 2568 2635 2496 2417 2497 2570
8 2568 2495 2569 2636 2497 2418 2498 2571
8 2570 2497 2571 2638 2499 2420 2500 2573
8 2571 2498 2572 2639 2500 2421 2501 2574
8 2573 2500 2574 2641 2502 2423 2503 2576
8 2574 2501 2575 2642 2503 2424 2504 2577
8 2576 2503 2577 2643 2505 2426 2506 2578
8 2597 2528 2579 2645 2529 2454 2508 2580
8 2580 2508 2579 2645 2525 2448 2522 2593
8 2581 2509 2455 2530 2646 2580 2529 2598
8 2581 2509 2580 2646 2526 2449 2525 2595
8 2583 2511 2582 2648 2513 2434 2512 2585
8 2583 2511 2439 2516 2648 2582 2517 2589
8 2649 2583 2513 2586 2588 2516 2438 2515
8 2589 2517 2444 2520 2653 2587 2521 2592
8 2518 2442 2520 2591 2588 2516 2589 2654
8 2593 2522 2590 2655 2523 2445 2521 2592
8 2524 2446 2523 2594 2591 2520 2592 2656
8 2595 2525 2593 2657 2527 2452 2523 2594
8 2602 2536 2596 2659 2534 2462 2528 2597
8 2600 2534 2597 2660 2532 2460 2529 2598
8 2600 2534 2460 2532 2661 2601 2533 2599
8 2604 2538 2601 2661 2537 2464 2533 2599
8 2602 2536 2462 2534 2663 2603 2535 2601
8 2601 2535 2465 2538 2663 2603 2539 2605
8 2607 2541 2605 2665 2540 2467 2538 2604
8 2608 2542 2606 2666 2541 2468 2539 2605
8 2543 2470 2544 2610 2607 2541 2608 2668
8 2544 2471 2545 2611 2608 2542 2609 2669
8 2546 2473 2547 2613 2610 2544 2611 2671
8 2547 2474 2548 2614 2611 2545 2612 2672
8 2549 2476 2550 2616 2613 2547 2614 2674
8 2550 2477 2551 2617 2614 2548 2615 2675
8 2552 2479 2553 2619 2616 2550 2617 2677
8 2553 2480 2554 2620 2617 2551 2618 2678
8 2557 2482 2556 2624 2619 2553 2620 2680
8 2556 2481 2555 2623 2620 2554 2621 2681
8 2559 2484 2558 2625 2623 2555 2622 2683
8 2560 2485 2559 2626 2624 2556 2623 2684
8 2562 2488 2561 2627 2626 2559 2625 2685
8 2690 2629 2564 2630 2650 2584 2512 2585
8 2586 2513 2585 2651 2632 2565 2630 2691
8 2630 2564 2631 2692 2565 2493 2566 2633
8 2632 2565 2633 2694 2567 2494 2568 2635
8 2633 2566 2634 2695 2568 2495 2569 2636
8 2635 2568 2636 2697 2570 2497 2571 2638
8 2636 2569 2637 2698 2571 2498 2572 2639
8 2638 2571 2639 2700 2573 2500 2574 2641
8 2639 2572 2640 2701 2574 2501 2575 2642
8 2641 2574 2642 2702 2576 2503 2577 2643
8 2597 2528 2596 2659 2645 2579 2644 2704
8 2645 2579 2644 2704 2593 2522 2590 2655
8 2660 2597 2645 2705 2598 2529 2580 2646
8 2646 2580 2645 2705 2595 2525 2593 2657
8 2650 2584 2512 2585 2707 2647 2582 2648
8 2648 2582 2517 2589 2707 2647 2587 2653
8 2649 2583 2648 2708 2586 2513 2585 2651
8 2649 2583 2516 2588 2708 2648 2589 2654
8 2655 2590 2652 2710 2592 2521 2587 2653
8 2654 2589 2520 2591 2711 2653 2592 2656
8 2657 2593 2655 2712 2594 2523 2592 2656
8 2602 2536 2603 2663 2659 2596 2658 2714
8 2662 2602 2659 2715 2600 2534 2597 2660
8 2662 2602 2534 2600 2717 2663 2601 2661
8 2661 2601 2538 2604 2717 2663 2605 2665
8 2666 2606 2664 2718 2605 2539 2603 2663
8 2668 2608 2666 2720 2607 2541 2605 2665
8 2608 2542 2609 2669 2666 2606 2667 2721
8 2610 2544 2611 2671 2668 2608 2669 2723
8 2611 2545 2612 2672 2669 2609 2670 2724
8 2613 2547 2614 2674 2671 2611 2672 2726
8 2614 2548 2615 2675 2672 2612 2673 2727
8 2616 2550 2617 2677 2674 2614 2675 2729
8 2617 2551 2618 2678 2675 2615 2676 2730
8 2619 2553 2620 2680 2677 2617 2678 2732
8 2620 2554 2621 2681 2678 2618 2679 2733
8 2624 2556 2623 2684 2680 2620 2681 2735
8 2681 2621 2555 2623 2736 2682 2622 2683
8 2626 2559 2625 2685 2684 2623 2683 2737
8 2688 2628 2584 2650 2740 2686 2647 2707
8 2688 2628 2687 2742 2650 2584 2629 2690
8 2690 2629 2689 2745 2630 2564 2631 2692
8 2746 2690 2630 2691 2709 2650 2585 2651
8 2691 2630 2692 2747 2632 2565 2633 2694
8 2692 2631 2693 2748 2633 2566 2634 2695
8 2694 2633 2695 2750 2635 2568 2636 2697
8 2695 2634 2696 2751 2636 2569 2637 2698
8 2697 2636 2698 2753 2638 2571 2639 2700
8 2698 2637 2699 2754 2639 2572 2640 2701
8 2700 2639 2701 2755 2641 2574 2642 2702
8 2659 2596 2658 2714 2704 2644 2703 2757
8 2704 2644 2703 2757 2655 2590 2652 2710
8 2660 2597 2659 2715 2705 2645 2704 2758
8 2705 2645 2704 2758 2657 2593 2655 2712
8 2759 2706 2647 2707 2710 2652 2587 2653
8 2709 2650 2585 2651 2760 2707 2648 2708
8 2708 2648 2589 2654 2760 2707 2653 2711
8 2712 2655 2710 2761 2656 2592 2653 2711
8 2763 2713 2658 2714 2718 2664 2603 2663
8 2662 2602 2663 2717 2715 2659 2714 2764
8 2720 2666 2718 2767 2665 2605 2663 2717
8 2768 2719 2664 2718 2721 2667 2606 2666
8 2668 2608 2669 2723 2720 2666 2721 2770
8 2669 2609 2670 2724 2721 2667 2722 2771
8 2671 2611 2672 2726 2723 2669 2724 2773
8 2672 2612 2673 2727 2724 2670 2725 2774
8 2674 2614 2675 2729 2726 2672 2727 2776
8 2675 2615 2676 2730 2727 2673 2728 2777
8 2677 2617 2678 2732 2729 2675 2730 2779
8 2678 2618 2679 2733 2730 2676 2731 2780
8 2680 2620 2681 2735 2732 2678 2733 2782
8 2733 2679 2621 2681 2783 2734 2682 2736
8 2735 2681 2623 2684 2784 2736 2683 2737
8 2740 2686 2647 2707 2787 2738 2706 2759
8 2688 2628 2686 2740 2742 2687 2739 2789
8 2743 2688 2650 2709 2790 2740 2707 2760
8 2742 2687 2741 2792 2690 2629 2689 2745
8 2743 2688 2742 2793 2709 2650 2690 2746
8 2745 2689 2744 2795 2692 2631 2693 2748
8 2746 2690 2745 2796 2691 2630 2692 2747
8 2747 2692 2748 2797 2694 2633 2695 2750
8 2748 2693 2749 2798 2695 2634 2696 2751
8 2750 2695 2751 2800 2697 2636 2698 2753
8 2751 2696 2752 2801 2698 2637 2699 2754
8 2753 2698 2754 2802 2700 2639 2701 2755
8 2763 2713 2756 2804 2714 2658 2703 2757
8 2759 2706 2652 2710 2804 2756 2703 2757
8 2715 2659 2714 2764 2758 2704 2757 2805
8 2758 2704 2757 2805 2712 2655 2710 2761
8 2806 2759 2707 2760 2761 2710 2653 2711
8 2765 2716 2762 2808 2718 2664 2713 2763
8 2809 2763 2714 2764 2767 2718 2663 2717
8 2765 2716 2664 2718 2811 2766 2719 2768
8 2813 2768 2718 2767 2770 2721 2666 2720
8 2814 2769 2719 2768 2771 2722 2667 2721
8 2723 2669 2724 2773 2770 2721 2771 2816
8 2724 2670 2725 2774 2771 2722 2772 2817
8 2726 2672 2727 2776 2773 2724 2774 2819
8 2727 2673 2728 2777 2774 2725 2775 2820
8 2729 2675 2730 2779 2776 2727 2777 2822
8 2730 2676 2731 2780 2777 2728 2778 2823
8 2732 2678 2733 2782 2779 2730 2780 2825
8 2780 2731 2679 2733 2826 2781 2734 2783
8 2782 2733 2681 2735 2827 2783 2736 2784
8 2830 2785 2738 2787 2804 2756 2706 2759
8 2789 2739 2686 2740 2832 2786 2738 2787
8 2790 2740 2707 2760 2833 2787 2759 2806
8 2742 2687 2739 2789 2792 2741 2788 2835
8 2743 2688 2740 2790 2793 2742 2789 2836
8 2792 2741 2791 2838 2745 2689 2744 2795
8 2793 2742 2792 2839 2746 2690 2745 2796
8 2795 2744 2794 2841 2748 2693 2749 2798
8 2796 2745 2795 2842 2747 2692 2748 2797
8 2797 2748 2798 2843 2750 2695 2751 2800
8 2798 2749 2799 2844 2751 2696 2752 2801
8 2800 2751 2801 2845 2753 2698 2754 2802
8 2808 2762 2803 2847 2763 2713 2756 2804
8 2809 2763 2804 2848 2764 2714 2757 2805
8 2806 2759 2710 2761 2848 2804 2757 2805
8 2765 2716 2766 2811 2808 2762 2807 2850
8 2810 2765 2808 2851 2767 2718 2763 2809
8 2810 2765 2718 2767 2852 2811 2768 2813
8 2811 2766 2719 2768 2853 2812 2769 2814
8 2855 2814 2768 2813 2816 2771 2721 2770
8 2856 2815 2769 2814 2817 2772 2722 2771
8 2773 2724 2774 2819 2816 2771 2817 2858
8 2774 2725 2775 2820 2817 2772 2818 2859
8 2776 2727 2777 2822 2819 2774 2820 2861
8 2777 2728 2778 2823 2820 2775 2821 2862
8 2779 2730 2780 2825 2822 2777 2823 2864
8 2823 2778 2731 2780 2865 2824 2781 2826
8 2825 2780 2733 2782 2866 2826 2783 2827
8 2869 2828 2785 2830 2847 2803 2756 2804
8 2871 2829 2786 2832 2830 2785 2738 2787
8 2872 2830 2787 2833 2848 2804 2759 2806
8 2789 2739 2786 2832 2835 2788 2831 2874
8 2836 2789 2740 2790 2875 2832 2787 2833
8 2792 2741 2788 2835 2838 2791 2834 2877
8 2793 2742 2789 2836 2839 2792 2835 2878
8 2838 2791 2837 2880 2795 2744 2794 2841
8 2839 2792 2838 2881 2796 2745 2795 2842
8 2841 2794 2840 2882 2798 2749 2799 2844
8 2842 2795 2841 2883 2797 2748 2798 2843
8 2843 2798 2844 2884 2800 2751 2801 2845
8 2886 2846 2803 2847 2850 2807 2762 2808
8 2851 2808 2847 2887 2809 2763 2804 2848
8 2850 2807 2766 2811 2889 2849 2812 2853
8 2810 2765 2811 2852 2851 2808 2850 2890
8 2852 2811 2768 2813 2891 2853 2814 2855
8 2853 2812 2769 2814 2892 2854 2815 2856
8 2894 2856 2814 2855 2858 2817 2771 2816
8 2817 2772 2818 2859 2856 2815 2857 2895
8 2819 2774 2820 2861 2858 2817 2859 2897
8 2820 2775 2821 2862 2859 2818 2860 2898
8 2822 2777 2823 2864 2861 2820 2862 2900
8 2823 2778 2824 2865 2862 2821 2863 2901
8 2864 2823 2780 2825 2902 2865 2826 2866
8 2904 2867 2828 2869 2886 2846 2803 2847
8 2869 2828 2868 2906 2830 2785 2829 2871
8 2907 2869 2830 2872 2887 2847 2804 2848
8 2871 2829 2870 2909 2832 2786 2831 2874
8 2910 2871 2832 2875 2872 2830 2787 2833
8 2835 2788 2831 2874 2877 2834 2873 2912
8 2836 2789 2832 2875 2878 2835 2874 2913
8 2877 2834 2876 2915 2838 2791 2837 2880
8 2839 2792 2835 2878 2881 2838 2877 2916
8 2880 2837 2879 2917 2841 2794 2840 2882
8 2881 2838 2880 2918 2842 2795 2841 2883
8 2883 2841 2882 2919 2843 2798 2844 2884
8 2921 2885 2846 2886 2889 2849 2807 2850
8 2922 2886 2847 2887 2890 2850 2808 2851
8 2889 2849 2812 2853 2924 2888 2854 2892
8 2890 2850 2811 2852 2925 2889 2853 2891
8 2891 2853 2814 2855 2926 2892 2856 2894
8 2892 2854 2815 2856 2927 2893 2857 2895
8 2858 2817 2859 2897 2894 2856 2895 2929
8 2859 2818 2860 2898 2895 2857 2896 2930
8 2861 2820 2862 2900 2897 2859 2898 2932
8 2862 2821 2863 2901 2898 2860 2899 2933
8 2864 2823 2865 2902 2900 2862 2901 2934
8 2904 2867 2846 2886 2936 2903 2885 2921
8 2904 2867 2903 2936 2869 2828 2868 2906
8 2937 2904 2869 2907 2922 2886 2847 2887
8 2906 2868 2905 2939 2871 2829 2870 2909
8 2907 2869 2906 2940 2872 2830 2871 2910
8 2909 2870 2908 2942 2874 2831 2873 2912
8 2910 2871 2909 2943 2875 2832 2874 2913
8 2912 2873 2911 2945 2877 2834 2876 2915
8 2878 2835 2874 2913 2916 2877 2912 2946
8 2915 2876 2914 2947 2880 2837 2879 2917
8 2916 2877 2915 2948 2881 2838 2880 2918
8 2918 2880 2917 2949 2883 2841 2882 2919
8 2921 2885 2849 2889 2951 2920 2888 2924
8 2952 2921 2886 2922 2925 2889 2850 2890
8 2924 2888 2854 2892 2954 2923 2893 2927
8 2925 2889 2853 2891 2955 2924 2892 2926
8 2926 2892 2856 2894 2956 2927 2895 2929
8 2895 2857 2896 2930 2927 2893 2928 2957
8 2897 2859 2898 2932 2929 2895 2930 2959
8 2898 2860 2899 2933 2930 2896 2931 2960
8 2900 2862 2901 2934 2932 2898 2933 2961
8 2936 2903 2885 2921 2963 2935 2920 2951
8 2936 2903 2935 2963 2906 2868 2905 2939
8 2937 2904 2886 2922 2964 2936 2921 2952
8 2937 2904 2936 2964 2907 2869 2906 2940
8 2939 2905 2938 2966 2909 2870 2908 2942
8 2940 2906 2939 2967 2910 2871 2909 2943
8 2942 2908 2941 2969 2912 2873 2911 2945
8 2943 2909 2942 2970 2913 2874 2912 2946
8 2945 2911 2944 2971 2915 2876 2914 2947
8 2946 2912 2945 2972 2916 2877 2915 2948
8 2948 2915 2947 2973 2918 2880 2917 2949
8 2951 2920 2888 2924 2975 2950 2923 2954
8 2952 2921 2889 2925 2976 2951 2924 2955
8 2927 2893 2928 2957 2954 2923 2953 2978
8 2955 2924 2892 2926 2979 2954 2927 2956
8 2929 2895 2930 2959 2956 2927 2957 2980
8 2930 2896 2931 2960 2957 2928 2958 2981
8 2932 2898 2933 2961 2959 2930 2960 2982
8 2951 2920 2950 2975 2963 2935 2962 2984
8 2963 2935 2962 2984 2939 2905 2938 2966
8 2964 2936 2921 2952 2985 2963 2951 2976
8 2964 2936 2963 2985 2940 2906 2939 2967
8 2966 2938 2965 2987 2942 2908 2941 2969
8 2967 2939 2966 2988 2943 2909 2942 2970
8 2969 2941 2968 2989 2945 2911 2944 2971
8 2970 2942 2969 2990 2946 2912 2945 2972
8 2972 2945 2971 2991 2948 2915 2947 2973
8 2954 2923 2953 2978 2975 2950 2974 2993
8 2976 2951 2924 2955 2994 2975 2954 2979
8 2957 2928 2958 2981 2978 2953 2977 2995
8 2956 2927 2957 2980 2979 2954 2978 2996
8 2959 2930 2960 2982 2980 2957 2981 2997
8 2984 2962 2983 2999 2966 2938 2965 2987
8 2975 2950 2974 2993 2984 2962 2983 2999
8 2976 2951 2975 2994 2985 2963 2984 3000
8 2985 2963 2984 3000 2967 2939 2966 2988
8 2987 2965 2986 3001 2969 2941 2968 2989
8 2988 2966 2987 3002 2970 2942 2969 2990
8 2990 2969 2989 3003 2972 2945 2971 2991
8 2978 2953 2977 2995 2993 2974 2992 3004
8 2979 2954 2978 2996 2994 2975 2993 3005
8 2980 2957 2981 2997 2996 2978 2995 3006
8 2974 2993 2999 2983 2992 3004 3007 2998
8 2983 2999 2987 2965 2998 3007 3001 2986
8 3000 2984 2999 3008 2988 2966 2987 3002
8 2994 2975 2993 3005 3000 2984 2999 3008
8 3002 2987 3001 3009 2990 2969 2989 3003
8 2996 2978 2995 3006 3005 2993 3004 3010
8 3005 2993 3004 3010 3008 2999 3007 3011
8 3008 2999 3007 3011 3002 2987 3001 3009

CELL_TYPES 1910
12
12
12
12
12
12
12
12
12
12
12
12
12
12
12
12
12
12
12
12
12
12
12
12
12
12
12
12
12
12
12
12
12
12
12
12
12
12
12
12
12
12
12
12
12
12
12
12
12
12
12
12
12
12
12
12
12
12
12
12
12
12
12
12
12
12
12
12
12
12
12
12
12
12
12
12
12
12
12
12
12
12
12
12
12
12
12
12
12
12
12
12
12
12
12
12
12
12
12
12
12
12
12
12
12
12
12
12
12
12
12
12
12
12
12
12
12
12
12
12
12
12
12
12
12
12
12
12
12
12
12
12
12
12
12
12
12
12
12
12
12
12
12
12
12
12
12
12
12
12
12
12
12
12
12
12
12
12
12
12
12
12
12
12
12
12
12
12
12
12
12
12
12
12
12
12
12
12
12
12
12
12
12
12
12
12
12
12
12
12
12
12
12
12
12
12
12
12
12
12
12
12
12
12
12
12
12
12
12
12
12
12
12
12
12
12
12
12
12
12
12
12
12
12
12
12
12
12
12
12
12
12
12
12
12
12
12
12
12
12
12
12
12
12
12
12
12
12
12
12
12
12
12
12
12
12
12
12
12
12
12
12
12
12
12
12
12
12
12
12
12
12
12
12
12
12
12
12
12
12
12
12
12
12
12
12
12
12
12
12
12
12
12
12
12
12
12
12
12
12
12
12
12
12
12
12
12
12
12
12
12
12
12
12
12
12
12
12
12
12
12
12
12
12
12
12
12
12
12
12
12
12
12
12
12
12
12
12
12
12
12
12
12
12
12
12
12
12
12
12
12
12
12
12
12
12
12
12
12
12
12
12
12
12
12
12
12
12
12
12
12
12
12
12
12
12
12
12
12
12
12
12
12
12
12
12
12
12
12
12
12
12
12
12
12
12
12
12
12
12
12
12
12
12
12
12
12
12
12
12
12
12
12
12
12
12
12
12
12
12
12
12
12
12
12
12
12
12
12
12
12
12
12
12
12
12
12
12
12
12
12
12
12
12
12
12
12
12
12
12
12
12
12
12
12
12
12
12
12
12
12
12
12
12
12
12
12
12
12
12
12
12
12
12
12
12
12
12
12
12
12
12
12
12
12
12
12
12
12
12
12
12
12
12
12
12
12
12
12
12
12
12
12
12
12
12
12
12
12
12
12
12
12
12
12
12
12
12
12
12
12
12
12
12
12
12
12
12
12
12
12
12
12
12
12
12
12
12
12
12
12
12
12
12
12
12
12
12
12
12
12
12
12
12
12
12
12
12
12
12
12
12
12
12
12
12
12
12
12
12
12
12
12
12
12
12
12
12
12
12
12
12
12
12
12
12
12
12
12
12
12
12
12
12
12
12
12
12
12
12
12
12
12
12
12
12
12
12
12
12
12
12
12
12
12
12
12
12
12
12
12
12
12
12
12
12
12
12
12
12
12
12
12
12
12
12
12
12
12
12
12
12
12
12
12
12
12
12
12
12
12
12
12
12
12
12
12
12
12
12
12
12
12
12
12
12
12
12
12
12
12
12
12
12
12
12
12
12
12
12
12
12
12
12
12
12
12
12
12
12
12
12
12
12
12
12
12
12
12
12
12
12
12
12
12
12
12
12
12
12
12
12
12
12
12
12
12
12
12
12
12
12
12
12
12
12
12
12
12
12
12
12
12
12
12
12
12
12
12
12
12
12
12
12
12
12
12
12
12
12
12
12
12
12
12
12
12
12
12
12
12
12
12
12
12
12
12
12
12
12
12
12
12
12
12
12
12
12
12
12
12
12
12
12
12
12
12
12
12
12
12
12
12
12
12
12
12
12
12
12
12
12
12
12
12
12
12
12
12
12
12
12
12
12
12
12
12
12
12
12
12
12
12
12
12
12
12
12
12
12
12
12
12
12
12
12
12
12
12
12
12
12
12
12
12
12
12
12
12
12
12
12
12
12
12
12
12
12
12
12
12
12
12
12
12
12
12
12
12
12
12
12
12
12
12
12
12
12
12
12
12
12
12
12
12
12
12
12
12
12
12
12
12
12
12
12
12
12
12
12
12
12
12
12
12
12
12
12
12
12
12
12
12
12
12
12
12
12
12
12
12
12
12
12
12
12
12
12
12
12
12
12
12
12
12
12
12
12
12
12
12
12
12
12
12
12
12
12
12
12
12
12
12
12
12
12
12
12
12
12
12
12
12
12
12
12
12
12
12
12
12
12
12
12
12
12
12
12
12
12
12
12
12
12
12
12
12
12
12
12
12
12
12
12
12
12
12
12
12
12
12
12
12
12
12
12
12
12
12
12
12
12
12
12
12
12
12
12
12
12
12
12
12
12
12
12
12
12
12
12
12
12
12
12
12
12
12
12
12
12
12
12
12
12
12
12
12
12
12
12
12
12
12
12
12
12
12
12
12
12
12
12
12
12
12
12
12
12
12
12
12
12
12
12
12
12
12
12
12
12
12
12
12
12
12
12
12
12
12
12
12
12
12
12
12
12
12
12
12
12
12
12
12
12
12
12
12
12
12
12
12
12
12
12
12
12
12
12
12
12
12
12
12
12
12
12
12
12
12
12
12
12
12
12
12
12
12
12
12
12
12
12
12
12
12
12
12
12
12
12
12
12
12
12
12
12
12
12
12
12
12
12
12
12
12
12
12
12
12
12
12
12
12
12
12
12
12
12
12
12
12
12
12
12
12
12
12
12
12
12
12
12
12
12
12
12
12
12
12
12
12
12
12
12
12
12
12
12
12
12
12
12
12
12
12
12
12
12
12
12
12
12
12
12
12
12
12
12
12
12
12
12
12
12
12
12
12
12
12
12
12
12
12
12
12
12
12
12
12
12
12
12
12
12
12
12
12
12
12
12
12
12
12
12
12
12
12
12
12
12
12
12
12
12
12
12
12
12
12
12
12
12
12
12
12
12
12
12
12
12
12
12
12
12
12
12
12
12
12
12
12
12
12
12
12
12
12
12
12
12
12
12
12
12
12
12
12
12
12
12
12
12
12
12
12
12
12
12
12
12
12
12
12
12
12
12
12
12
12
12
12
12
12
12
12
12
12
12
12
12
12
12
12
12
12
12
12
12
12
12
12
12
12
12
12
12
12
12
12
12
12
12
12
12
12
12
12
12
12
12
12
12
12
12
12
12
12
12
12
12
12
12
12
12
12
12
12
12
12
12
12
12
12
12
12
12
12
12
12
12
12
12
12
12
12
12
12
12
12
12
12
12
12
12
12
12
12
12
12
12
12
12
12
12
12
12
12
12
12
12
12
12
12
12
12
12
12
12
12
12
12
12
12
12
12
12
12
12
12
12
12
12
12
12
12
12
12
12
12
12
12
12
12
12
12
12
12
12
12
12
12
12
12
12
12
12
12
12
12
12
12
12
12
12
12
12
12
12
12
12
12
12
12
12
12
12
12
12
12
12
12
12
12
12
12
12
12
12
12
12
12
12
12
12
12
12
12
12
12
12
12
12
12
12
12
12
12
12
12
12
12
12
12
12
12
12
12
12
12
12
12
12
12
12
12
12
12
12
12
12
12
12
12
12
12
12
12
12
12
12
12
12
12
12
12
12
12
12
12
12
12
12
12
12
12
12
12
12
12
12
12
12
12
12
12
12
12
12
12
12
12
12
12
12
12
12
12
12
12
12
12
12
12
12
12
12
12
12
12
12
12
12
12
12
12
12
12
12
12
12
12
12
12
12
12
12
12
12
12
12
12
12
12
12
12
12
12
12
12
12
12
12
12
12
12
12
12
12
12
12
12
12
12
12
12
12
12
12
12
12
12
12
12
12
12
12
12
12
12
12
12
12
12
12
12
12
12
12
12
12
12
12
12
12
12
12
12
12
12
12
12
12
12
12
12
12
12
12
12
12
12
12
12
12
12
12
12
12
12
12
12
12
12
12
12
12
12
12
12
12
12
12
12
12
12
12
12
12
12
12
12
12
12
12
12
12
12
12
12
12
12
12
12
12
12
12
12
12
12
12
12
12
12
12
12
12
12
12
12
12
12
12
12
12
12
12
12
12
12
12
12
12
12
12
12
12
12
12
12
12
12
12
12
12
12
12
12
12
12
12
12
12
12
12
12
12
12
12
12
12
12
12
12
12
12
12
12
12
12
12
12
12
12
12
12
12
12
12
12
12
12
12
12
12
12
12
12
12
12
12
12
12
12
12
12
12
12
12
12
12
12
12
12
12
12
12
12
12
12
12
12
12
12
12
12
12
12
12
12
12
12
12
12
12
12
12
12
12
12
12
12
12
12
12
12
12
12
12
12
12
12
12
12
12
12
12
12
12
12
12
12
12
12
12
12
12
12
12
12
12

POINT_DATA 3012
SCALARS Jp_lamdaP float 4
LOOKUP_TABLE default
0.999467 1 1 0.999467
1 1 1 1
0.999483 1 1 0.999483
0.999408 1 1 0.999408
0.999469 1 1 0.999469
0.999437 1 1 0.999437
1.01009 1.01172 1 0.998384
1 1 1 1
1 1 1 1
1 1 1 1
0.999518 1 1 0.999518
1.006 1.00762 1 0.998395
0.99945 1 1 0.99945
0.999434 1 1 0.999434
0.99949 1 1 0.99949
0.999445 1 1 0.999445
0.999447 1 1 0.999447
0.999495 1 1 0.999495
1.01005 1.01168 1 0.998382
1 1 1 1
0.999397 1 1 0.999397
0.999442 1 1 0.999442
1.0041 1.00582 1 0.998288
1.00897 1.01061 1 0.998375
0.999424 1 1 0.999424
1.00967 1.01132 1 0.998371
1.03658 1.03993 1 0.99678
1 1 1 1
0.999733 1 1 0.999733
0.999745 1 1 0.999745
1 1 1 1
1.0044 1.00601 1 0.998404
0.999456 1 1 0.999456
0.999486 1 1 0.999486
1.01045 1.01188 1 0.998592
1 1 1 1
1.00978 1.01114 1 0.998655
1.00106 1.0026 1 0.998467
1.02412 1.02752 1 0.996695
1 1 1 1
1 1 1 1
0.99972 1 1 0.99972
1 1 1 1
0.999454 1 1 0.999454
0.999395 1.00119 1 0.998212
1 1 1 1
1.00301 1.00451 1 0.998504
0.999477 1 1 0.999477
0.999514 1 1 0.999514
0.99945 1 1 0.99945
1.01005 1.01169 1 0.998385
0.999705 1 1 0.999705
0.999429 1 1 0.999429
0.999438 1 1 0.999438
0.999476 1 1 0.999476
1.00384 1.00557 1 0.998279
1.00969 1.01134 1 0.998371
1.00878 1.01043 1 0.998372
1.03694 1.0403 1 0.996771
1 1 1 1
0.999414 1 1 0.999414
0.999467 1.00088 1 0.998588
1.00207 1.00381 1 0.998272
1.00692 1.0086 1 0.998333
1.03721 1.04074 1 0.996607
1.0375 1.04095 1 0.996687
0.999461 1 1 0.999461
1.00307 1.00465 1 0.998429
1.03515 1.03845 1 0.996825
1.05689 1.06122 1 0.995926
1 1 1 1
1 1 1 1
1 1 1 1
1.00318 1.00477 1 0.998413
1 1 1 1
1 1 1 1
1.01038 1.01209 1 0.998312
0.999811 1 1 0.999811
1.00864 1.01026 1 0.998395
1.00062 1.00187 1.00009 0.998662
1.02582 1.02922 1 0.996691
1 1 1 1
1.00256 1 1.0031 0.999457
1.00839 1.01019 1 0.998225
1.0106 1.01228 1 0.998338
1.04349 1.04731 1 0.996346
0.999853 1.00014 1.00069 0.999026
1.03329 1.0368 1 0.996615
1.0185 1.02164 1.00007 0.996862
1.04487 1.04914 1 0.99593
1 1 1 1
1 1 1 1
1 1 1 1
1 1 1 1
1 1 1 1
0.999728 1 1 0.999728
0.99992 1.00153 1 0.998388
0.999717 1 1 0.999717
1.00383 1.00548 1 0.998361
1 1 1 1
0.998806 1.00055 1 0.998255
1.00095 1.00243 1 0.998518
1.0327 1.03653 1 0.996309
1.00609 1.00756 1 0.998534
1.03974 1.04361 1 0.996295
0.999475 1 1 0.999475
0.999459 1 1 0.999459
0.999447 1 1 0.999447
0.999505 1 1 0.999505
1.00359 1.00532 1 0.998273
1.00861 1.01025 1 0.998372
1.00957 1.01121 1 0.998375
1.03746 1.04083 1 0.996762
1 1 1 1
0.999444 1 1 0.999444
0.999118 1.00082 1 0.998296
1.00173 1.00347 1 0.998261
0.999735 1 1 0.999735
1.0043 1.00578 1 0.998529
1.00667 1.00836 1 0.998328
1.03718 1.04073 1 0.996589
1.03445 1.03776 1 0.996814
1.03821 1.04165 1 0.996702
1.05661 1.06092 1 0.995936
0.998822 1.00054 1 0.998279
1.00055 1.00226 1 0.998291
1.02938 1.03286 1 0.996629
1.03365 1.03719 1 0.996585
1.03902 1.04254 1 0.996626
1.0711 1.07534 1 0.996059
1 1 1 1
1.06101 1.0653 1 0.995974
0.999827 1.0008 1.00048 0.998552
1.0252 1.02857 1 0.996723
1.05332 1.05768 1 0.995877
1.06065 1.06491 1 0.995996
1.0021 1 1.00307 0.999033
1.0069 1.00006 1.00918 0.997688
1 1 1 1
1 1 1 1
1.01052 1.01222 1 0.998316
1 1 1 1
0.999977 1.001 1.00041 0.998563
1.00777 1.00938 1 0.998403
1.02668 1.0301 1 0.996686
1 1 1 1
1.00278 1 1.0033 0.999482
1.00918 1.0108 1 0.998393
1.01057 1.0121 1 0.998492
1.04253 1.04636 1 0.996344
1.00023 1.00011 1.00123 0.998884
1.03338 1.03689 1 0.996616
1.01656 1.01966 1.00011 0.996859
1.04527 1.04954 1 0.995935
1.00171 1 1.00253 0.999175
1.00305 1 1.00339 0.999667
1.00715 1.001 1.00808 0.99808
1.04463 1.04854 1 0.996277
1.04022 1.0439 1 0.996477
1.0652 1.06961 1 0.995872
1.01125 1.01289 1.00118 0.997203
1.0519 1.05612 1 0.996003
1.03294 1.03653 1.00057 0.995971
1.05189 1.05625 1 0.995875
1 1 1 1
1 1 1 1
1 1 1 1
1.00252 1 1.00328 0.999239
1 1 1 1
1 1 1 1
1 1 1 1
1.00445 1.00624 1 0.998223
1.00008 1.00183 1 0.998252
1 1 1 1
1 1 1 1
0.998951 1.0007 1 0.998255
1.00134 1.00297 1 0.998378
1.03279 1.03662 1 0.99631
1.00653 1.00833 1 0.998223
1.03879 1.04266 1 0.996293
0.998598 1.00034 1 0.99826
1.03028 1.03411 1 0.996292
1.0358 1.03963 1 0.996317
1.07302 1.07814 0.999078 0.996173
1.04276 1.04666 1 0.996269
1.07526 1.08011 0.999407 0.996105
1 1 1 1
0.999475 1 1 0.999475
0.998693 1.00072 1 0.997971
1.0014 1.00316 1 0.998251
1 1 1 1
1.00582 1.00719 1 0.998632
1.00642 1.00811 1 0.998326
1.03711 1.04068 1 0.996572
1.03906 1.04248 1 0.996717
1.03357 1.03688 1 0.996803
1.05607 1.06037 1 0.995946
0.998708 1.00043 1 0.998277
1.00029 1.00201 1 0.99828
1.02976 1.0334 1 0.996482
1.03408 1.03763 1 0.996586
1 1 1 1
1.00103 1.00214 1.00023 0.998663
1.02545 1.02871 1 0.996829
1.03944 1.04297 1 0.996617
1.07109 1.07553 0.999793 0.996079
1.05345 1.05781 1 0.995877
1.06101 1.06527 1 0.996003
1.06021 1.06446 1 0.996006
1.00178 1 1.00277 0.99902
1.00633 1.00049 1.00817 0.997687
1.02879 1.0326 1 0.996313
1.03042 1.03391 1 0.996617
1.07131 1.07617 0.999307 0.99617
1.0704 1.07608 0.9986 0.996123
1.06598 1.07052 0.999678 0.996087
1.06903 1.07671 0.996524 0.996332
1.00052 1 1.00173 0.998792
1.06286 1.06729 0.999664 0.996178
1.01519 1.01821 1.00011 0.996931
1.04811 1.05246 1 0.995863
1.05942 1.06388 1 0.99581
1.05919 1.06342 0.999688 0.996329
1.00471 1.00203 1.00532 0.997363
1.00727 1 1.00922 0.998065
1.00649 1.00367 1.0059 0.996929
1.00963 1.01139 1 0.998261
1 1 1 1
1.00254 1 1.00303 0.999506
1.01022 1.01186 1 0.998375
1.04174 1.04557 1 0.996341
1.00036 1 1.00149 0.998879
1.01606 1.01922 1.00004 0.996855
1.03332 1.03683 1 0.996616
1.04677 1.05104 1 0.99594
1.00187 1 1.00267 0.999199
1.00236 1 1.00267 0.999685
1.00683 1.00031 1.00846 0.99808
1.04359 1.04749 1 0.996273
1.03933 1.043 1 0.996478
1.06548 1.0699 1 0.995865
1.00859 1.01055 1.00086 0.997207
1.05256 1.05679 1 0.995999
1.03761 1.04133 1.00047 0.99596
1.05325 1.05759 1 0.99589
1.00173 1 1.00194 0.999796
1.00666 1.00458 1.00448 0.997606
1.00834 1 1.00982 0.998537
1.00946 1.00552 1.00652 0.997412
1.07005 1.07444 1 0.995912
1.05919 1.06353 1 0.995921
1.06632 1.0708 0.999832 0.99598
1.02208 1.02529 1.00055 0.996321
1.05345 1.05761 1 0.996068
1.04875 1.05158 1.00158 0.995731
1.06439 1.06877 1 0.995902
1.00038 1 1.00098 0.999398
0.999919 1 1 0.999919
1 1 1 1
1 1 1 1
1 1 1 1
1.00298 1 1.00354 0.999442
1 1 1 1
1.00271 1 1.00349 0.99922
1 1 1 1
1.00742 1.00921 1 0.998224
1.00185 1.00362 1 0.998241
1.03829 1.04216 1 0.996291
1.033 1.03682 1 0.99631
0.999145 1.00089 1 0.998257
1 1 1 1
0.998657 1.0004 1 0.998259
1.03053 1.03437 1 0.996292
1.0357 1.03953 1 0.996316
1.0727 1.07776 0.999132 0.996172
1.04217 1.04608 1 0.996264
1.07529 1.08003 0.999512 0.996103
1.02891 1.03273 1 0.996294
1.07189 1.07686 0.999228 0.996154
1.07429 1.07939 0.999112 0.996161
1.06929 1.07924 0.994217 0.996541
1.07463 1.07917 0.999778 0.99601
1.07091 1.08126 0.993984 0.996418
0.998681 1.00041 1 0.998275
1.00002 1.00176 1 0.998269
1.0302 1.03399 1 0.996335
1.03452 1.03806 1 0.996588
1 1 1 1
1.00199 1.00318 1.00004 0.998778
1.02553 1.02868 1 0.996933
1.03986 1.04339 1 0.996609
1.07111 1.07577 0.999567 0.996098
1.06085 1.06508 1 0.996032
1.0541 1.05847 1 0.995876
1.05996 1.0642 1 0.996015
1.00162 1 1.00262 0.999007
1.00685 1.00129 1.00788 0.997686
1.02888 1.03269 1 0.996316
1.03102 1.03452 1 0.99661
1.07065 1.07587 0.99894 0.9962
1.07165 1.07677 0.999137 0.996101
1.00024 1.00012 1.00134 0.998781
1.01612 1.01906 1.00018 0.996931
1.0485 1.05283 1 0.995882
1.06595 1.07036 0.999827 0.996058
1.06812 1.07642 0.995887 0.996387
1.05874 1.06319 1 0.995811
1.06305 1.06755 0.999606 0.996182
1.05933 1.0636 0.999674 0.996317
1.00595 1.00347 1.00513 0.997361
1.00765 1.00425 1.00648 0.996926
1.00852 1.00011 1.01037 0.998066
1.07083 1.07565 0.999364 0.996155
1.07151 1.0771 0.998615 0.996195
1.06978 1.07857 0.995365 0.996465
1.06934 1.07968 0.993993 0.996414
1.06404 1.07053 0.997602 0.996328
1.0596 1.07347 0.990355 0.996695
1.00535 1.00738 1.00083 0.997155
1.05872 1.06687 0.995832 0.996512
1.03618 1.04026 1 0.996079
1.05155 1.05624 1 0.995563
1.05512 1.05946 1 0.995899
1.05144 1.05798 0.997198 0.996605
1.01034 1 1.01199 0.998369
1.008 1.00986 1.00148 0.99669
1.0094 1.00102 1.0112 0.997211
1.0094 1.00906 1.0038 0.996557
1.04261 1.04651 1 0.996268
1.0019 1 1.0022 0.999703
1.00225 1 1.00303 0.999224
1.0082 1.00011 1.01003 0.998079
1.03858 1.04225 1 0.996479
1.06565 1.07008 1 0.995859
1.00446 1.00666 1.00061 0.997211
1.03919 1.04307 1.00033 0.995949
1.05335 1.05758 1 0.995994
1.05283 1.05716 1 0.995904
1.00106 1 1.00125 0.999809
1.00586 1.00299 1.00526 0.997613
1.00889 1.00009 1.01027 0.998542
1.00865 1.00423 1.00702 0.997409
1.0699 1.0743 1 0.995905
1.0595 1.06384 1 0.995917
1.06576 1.07021 0.999859 0.995977
1.01971 1.02295 1.00052 0.996325
1.05292 1.0571 1 0.996048
1.04548 1.04816 1.00173 0.995717
1.06373 1.068 1 0.995999
0.999873 1 1 0.999873
1.00598 1 1.0071 0.998883
1.01093 1.01194 1.00211 0.996903
1.01296 1.0027 1.01246 0.997788
1.0081 1.00797 1.00297 0.997173
1.06924 1.07498 0.998546 0.996105
1.05971 1.06399 1 0.995982
1.05966 1.06562 0.998225 0.996171
1.02253 1.02466 1.00199 0.995933
1.05498 1.05908 1 0.996134
1.03823 1.04192 1.00086 0.995602
1.00039 1 1.00109 0.999292
1.00219 1 1.00349 0.998699
0.99949 1 1 0.99949
0.999731 1 1.00033 0.999401
0.999949 1 1 0.999949
0.999926 1 1 0.999926
1 1 1 1
1 1 1 1
1 1 1 1
1.00186 1 1.0022 0.999664
1 1 1 1
1.003 1 1.00358 0.999425
1 1 1 1
1.00233 1 1.00313 0.999201
1 1 1 1
1.04134 1.04525 1 0.996259
1.03531 1.03914 1 0.996316
1.07496 1.07958 0.99962 0.9961
1.07225 1.07725 0.999188 0.996171
1.03075 1.03458 1 0.996293
0.99866 1.0004 1 0.998258
1.02908 1.03291 1 0.996294
1.07146 1.0764 0.999257 0.996154
1.07408 1.0791 0.999182 0.996159
1.06886 1.07944 0.993621 0.996558
1.07368 1.07816 0.999839 0.996005
1.07119 1.08147 0.994052 0.996417
1.0709 1.07581 0.999285 0.996143
1.06846 1.07876 0.993858 0.996565
1.07035 1.08072 0.993875 0.996503
1.06436 1.07752 0.990992 0.996768
1.06909 1.07782 0.995612 0.996278
1.06411 1.08112 0.987479 0.996753
1.02888 1.03268 1 0.996318
1.03164 1.03515 1 0.996604
1.07002 1.07559 0.998581 0.99623
1.07284 1.07744 0.999654 0.996078
1.00001 1.0003 1.00094 0.998771
1.01792 1.02089 1.00015 0.996932
1.04986 1.05418 1 0.995901
1.06592 1.07016 1 0.99603
1.06723 1.07612 0.995285 0.996442
1.06327 1.06782 0.999548 0.996185
1.05775 1.06219 1 0.995812
1.05939 1.06366 0.999671 0.996305
1.00735 1.00523 1.00476 0.99736
1.00694 1.00371 1.00632 0.996922
1.00873 1.00007 1.01062 0.998068
1.07052 1.07535 0.999348 0.996154
1.07095 1.0768 0.998367 0.996193
1.06928 1.07876 0.994678 0.996513
1.06935 1.07911 0.994545 0.996387
1.00895 1.01075 1.00107 0.997155
1.03547 1.03955 1 0.99608
1.05092 1.05555 1.00003 0.995586
1.06472 1.07071 0.99812 0.996278
1.05903 1.07372 0.98955 0.996742
1.05602 1.06041 1 0.99586
1.05898 1.06709 0.995882 0.996512
1.05247 1.0588 0.997368 0.996643
1.0087 1.0103 1.00173 0.99669
1.00798 1.00765 1.00383 0.996507
1.00883 1 1.01048 0.998369
1.00856 1.00067 1.01067 0.997254
1.06911 1.07838 0.994871 0.996516
1.07154 1.08133 0.99449 0.99644
1.0593 1.07313 0.990397 0.996684
1.05764 1.07546 0.986608 0.996772
1.05817 1.07076 0.99155 0.996665
1.0592 1.077 0.986523 0.996911
1.01828 1.02197 1.00001 0.996383
1.05027 1.06383 0.990353 0.996879
1.03694 1.04142 1 0.995697
1.04722 1.05185 1.00018 0.995429
1.05372 1.05803 1 0.995924
1.05594 1.06269 0.996969 0.99667
1.00555 1 1.0069 0.998655
1.01284 1.00125 1.01415 0.997465
1.01312 1.01677 1.00011 0.9963
1.00876 1.005 1.00686 0.996901
1.01085 1.00753 1.00698 0.996338
1.00044 1 1.00061 0.999823
1.0697 1.07411 1 0.995898
1.00857 1.00021 1.00983 0.998546
1.00498 1.0015 1.00587 0.997621
1.00748 1.00285 1.00723 0.997406
1.05978 1.06412 1 0.995914
1.06521 1.06964 0.999888 0.995975
1.02084 1.02409 1.00051 0.996328
1.04516 1.04765 1.00193 0.995704
1.05254 1.05674 1 0.996028
1.06391 1.06807 1 0.996096
0.999882 1 1 0.999882
1.00611 1 1.00723 0.998894
1.00862 1.01026 1.00147 0.996912
1.01377 1.00253 1.01347 0.997781
1.00806 1.00757 1.00339 0.997107
1.06928 1.07494 0.998627 0.9961
1.05931 1.06359 1 0.995981
1.05921 1.06525 0.998167 0.99616
1.02356 1.02556 1.00213 0.995931
1.05856 1.06269 1 0.996113
1.0384 1.04194 1.00096 0.995642
1.00174 1 1.00261 0.999135
1.01058 1.00048 1.01196 0.998166
1.00448 1.0075 1.0005 0.996504
1.01624 1.00764 1.01113 0.997428
1.01244 1.01346 1.00203 0.996963
1.06412 1.07477 0.993718 0.996344
1.05495 1.05906 1 0.99612
1.05345 1.0615 0.996012 0.996391
1.0059 1.0063 1.00379 0.995825
1.03503 1.03955 1 0.99565
1.0006 1 1.0013 0.999294
1.0005 1 1.00191 0.998595
1.00251 1 1.00384 0.998675
1.00196 1 1.00353 0.998437
1.00102 1 1.00224 0.99878
0.999546 1 1 0.999546
0.999618 1 1.00012 0.999493
0.999973 1 1 0.999973
0.9998 1 1.0004 0.999403
0.999956 1 1 0.999956
1 1 1 1
0.999933 1 1 0.999933
1 1 1 1
1 1 1 1
1.00028 1 1.00042 0.999857
1.00277 1 1.00312 0.999645
1 1 1 1
1 1 1 1
1.00363 1 1.00422 0.999407
1 1 1 1
1.07292 1.07733 0.9999 0.996001
1.07416 1.07911 0.999247 0.996157
1.07157 1.08179 0.994114 0.996416
1.06853 1.07974 0.993018 0.996575
1.07102 1.07592 0.999286 0.996155
1.02929 1.03312 1 0.996294
1.0706 1.0755 0.9993 0.996143
1.06855 1.07865 0.994053 0.99656
1.07065 1.08108 0.993825 0.996504
1.06358 1.0774 0.990351 0.996796
1.07009 1.0788 0.995637 0.996273
1.06431 1.08125 0.987511 0.996775
1.06882 1.07869 0.994289 0.996535
1.06214 1.07668 0.989719 0.996749
1.06513 1.07953 0.9898 0.996828
1.06517 1.08344 0.98618 0.996914
1.06372 1.07935 0.988898 0.996584
1.06713 1.08691 0.984783 0.996973
1.0702 1.07505 0.999332 0.996153
1.07038 1.07647 0.998139 0.996191
1.0687 1.07891 0.993962 0.99656
1.06934 1.07852 0.99511 0.99636
1.01126 1.01272 1.00141 0.997154
1.03233 1.03639 1 0.99608
1.04969 1.05413 1.00018 0.995609
1.06542 1.07095 0.998605 0.996229
1.05851 1.07395 0.9888 0.996789
1.05936 1.06741 0.995923 0.996513
1.0569 1.06134 1 0.99582
1.05335 1.05948 0.997521 0.996682
1.01093 1.01168 1.00258 0.99669
1.00799 1.00792 1.00363 0.996457
1.00819 1 1.00984 0.998369
1.00786 1.00037 1.01022 0.997298
1.06928 1.07855 0.994865 0.996515
1.07114 1.08091 0.99452 0.996423
1.05921 1.07319 0.99022 0.996714
1.05866 1.07556 0.987485 0.996755
1.01903 1.02214 1.00058 0.996377
1.03553 1.03994 1.00003 0.995728
1.04683 1.05124 1.00039 0.995417
1.05909 1.07091 0.992322 0.996615
1.0575 1.07594 0.985845 0.996966
1.0517 1.05602 1 0.995909
1.05144 1.06508 0.990284 0.996879
1.0555 1.06226 0.996886 0.99674
1.01195 1.01528 1.00041 0.996304
1.0084 1.00765 1.00444 0.996322
1.00782 1.00346 1.00747 0.996898
1.00608 1 1.00746 0.99863
1.01241 1.00055 1.01439 0.997504
1.06093 1.07561 0.989594 0.99673
1.06118 1.07771 0.987882 0.996744
1.05728 1.08103 0.981024 0.99695
1.05235 1.07203 0.98463 0.996969
1.02035 1.02441 1 0.996031
1.05481 1.06936 0.989309 0.997049
1.02239 1.02674 1.00029 0.995474
1.03931 1.04371 1.00051 0.995273
1.04994 1.05454 0.999712 0.995928
1.00161 1 1.00263 0.998989
1.0115 1 1.01363 0.9979
1.00759 1.00012 1.01033 0.997177
1.0094 1.01213 1.00114 0.99617
1.00923 1.00517 1.00761 0.996452
1.0098 1.00751 1.00613 0.996167
0.999891 1 1 0.999891
1.00606 1 1.00716 0.998904
1.06929 1.07487 0.998708 0.996095
1.01504 1.00218 1.0151 0.997774
1.00504 1.00725 1.00089 0.996921
1.00825 1.00748 1.00373 0.997041
1.05877 1.06304 1 0.995979
1.05894 1.06505 0.99811 0.996148
1.02295 1.02478 1.00229 0.995928
1.03744 1.04113 1.00077 0.995681
1.06241 1.06657 1 0.996092
1.00116 1 1.00203 0.99914
1.01123 1.00019 1.01289 0.99817
1.00749 1.01057 1.00048 0.996464
1.01652 1.00677 1.01228 0.997426
1.01273 1.01404 1.00177 0.996945
1.06276 1.07339 0.993733 0.99634
1.05712 1.06126 0.999993 0.996106
1.05576 1.06351 0.996289 0.996413
1.00817 1.00915 1.00324 0.995797
1.03304 1.03753 1.00006 0.995616
1.0041 1 1.00563 0.998477
1.0139 1.00058 1.01561 0.997738
1.00487 1.00645 1.00211 0.996325
1.01987 1.01428 1.00844 0.997098
1.02622 1.02846 1.00107 0.996756
1.05388 1.073 0.985297 0.996834
1.05843 1.06287 0.999853 0.995969
1.0602 1.06759 0.996713 0.996354
1.01023 1.01016 1.00433 0.995762
1.01598 1.02067 1 0.995405
1.00003 1 1.00073 0.999296
1.00025 1 1.00165 0.998606
0.998915 1 1.0005 0.998419
1.00102 1 1.00237 0.998651
1.00037 1 1.00159 0.998777
1.00305 1 1.00464 0.998422
1.00024 1 1.0018 0.998442
1.00358 1 1.00522 0.998364
0.999295 1 1.00045 0.998842
0.999543 1 1 0.999543
0.999546 1 1 0.999546
0.999989 1 1 0.999989
0.999497 1 1 0.999497
0.999978 1 1 0.999978
1 1 1 1
0.999964 1 1 0.999964
1 1 1 1
1 1 1 1
0.999957 1 1 0.999957
1.00063 1 1.0008 0.999831
1 1 1 1
1.00311 1 1.00348 0.999626
1 1 1 1
1 1 1 1
1.07107 1.07977 0.995662 0.996268
1.07076 1.08124 0.99378 0.996505
1.06448 1.08138 0.987536 0.996798
1.06277 1.07723 0.989719 0.996825
1.06868 1.07856 0.994266 0.996555
1.07032 1.0752 0.999313 0.996144
1.06905 1.07869 0.994528 0.996517
1.06268 1.07668 0.990222 0.996742
1.06447 1.07882 0.989849 0.996814
1.06349 1.08261 0.985374 0.996924
1.06365 1.07912 0.989043 0.996587
1.06431 1.08504 0.983844 0.997009
1.0633 1.07691 0.990603 0.996722
1.06486 1.08467 0.98477 0.996916
1.06594 1.0865 0.984027 0.997001
1.05892 1.08399 0.979798 0.99702
1.06947 1.07876 0.994859 0.996514
1.07078 1.08054 0.994544 0.996406
1.05921 1.07332 0.990072 0.996745
1.05969 1.07574 0.988311 0.996738
1.02092 1.02399 1.00063 0.996371
1.03455 1.03895 1 0.99576
1.04646 1.05068 1.00058 0.995404
1.05982 1.07091 0.993054 0.996565
1.05573 1.0749 0.985102 0.997021
1.05241 1.0661 0.990255 0.996878
1.05016 1.05449 1 0.995895
1.05626 1.0626 0.997213 0.99681
1.0065 1.00933 1.00089 0.996309
1.00715 1.00768 1.00318 0.996305
1.00901 1.00305 1.00907 0.996895
1.00596 1 1.00736 0.998606
1.01188 1.00011 1.01426 0.997544
1.06086 1.07549 0.989628 0.996732
1.06187 1.07837 0.987916 0.996741
1.05782 1.08037 0.982127 0.996943
1.02013 1.0242 1 0.99603
1.02231 1.02666 1.00026 0.995509
1.03816 1.0423 1.00076 0.995262
1.05262 1.0719 0.985011 0.996955
1.05291 1.05773 0.999381 0.996054
1.05122 1.06601 0.989074 0.997016
1.00199 1 1.00294 0.999045
1.00824 1.00943 1.00267 0.996167
1.00961 1.00546 1.00789 0.996272
1.0132 1.00726 1.00948 0.996446
1.01064 1.00245 1.01099 0.997199
1.01202 1 1.01419 0.997868
1.06363 1.08274 0.985506 0.996802
1.0618 1.08767 0.979256 0.996894
1.05089 1.07917 0.976702 0.997024
1.04573 1.07314 0.977229 0.997161
1.01182 1.01574 1.00027 0.995869
1.04741 1.05628 0.994977 0.996606
1.01061 1.01389 1.00165 0.995124
1.02664 1.03058 1.00104 0.995135
0.99968 1 1.00026 0.999417
1.00662 1 1.00828 0.998356
1.0104 1.00066 1.01222 0.997538
1.01198 1.00328 1.01206 0.996658
1.00697 1.00523 1.00565 0.996104
1.01551 1.00607 1.01346 0.99598
1.00099 1 1.00185 0.999146
1.01159 1 1.01344 0.998173
1.06148 1.07209 0.993747 0.996335
1.0162 1.00564 1.01311 0.997424
1.01052 1.01387 1.00028 0.996423
1.01202 1.0136 1.00152 0.996927
1.05938 1.06355 0.99999 0.996092
1.05781 1.06531 0.996518 0.996435
1.011 1.01253 1.00273 0.995769
1.03089 1.03519 1.00027 0.995582
1.00425 1 1.00578 0.998482
1.01409 1.0003 1.01612 0.997709
1.0053 1.00699 1.002 0.996329
1.01932 1.01455 1.00762 0.997102
1.02914 1.03194 1.00048 0.996804
1.05635 1.07531 0.985436 0.996881
1.05816 1.06255 0.999859 0.996011
1.06137 1.0682 0.997158 0.996436
1.01152 1.01122 1.00458 0.995726
1.01552 1.02027 1.00003 0.995314
1.00415 1 1.00597 0.998193
1.01319 1.00193 1.01392 0.997365
1.01662 1.01655 1.00378 0.996305
1.02437 1.02558 1.00217 0.996649
1.05528 1.0957 0.965891 0.997123
1.05556 1.06987 0.989715 0.996882
1.04204 1.04679 0.999905 0.995555
1.01936 1.01978 1.00426 0.995353
1.00069 1 1.00208 0.998618
0.999372 1 1.00096 0.998418
0.999252 1 1.00072 0.998538
1.00097 1 1.0022 0.998775
1.00484 1 1.00644 0.998407
0.999354 1 1.00052 0.998838
1.00001 1 1.00154 0.998469
1.00459 1 1.00623 0.998373
0.998768 1 1.00012 0.998648
1.00402 1 1.00577 0.998256
1.00231 1 1.00399 0.998329
0.998828 1 1.00001 0.998814
0.999499 1 1 0.999499
0.99954 1 1 0.99954
0.999995 1 1 0.999995
0.999546 1 1 0.999546
0.99999 1 1 0.99999
1 1 1 1
0.999983 1 1 0.999983
1 1 1 1
1 1 1 1
0.999988 1 1 0.999988
0.999938 1 1 0.999938
1 1 1 1
1.00133 1 1.00153 0.999805
1 1 1 1
1 1 1 1
1.06349 1.0788 0.989184 0.996589
1.0639 1.07821 0.989902 0.9968
1.06157 1.0832 0.98293 0.997045
1.06183 1.08183 0.984531 0.996934
1.06321 1.0767 0.990706 0.996735
1.06927 1.07868 0.994755 0.996499
1.06296 1.07673 0.990457 0.996723
1.06456 1.08423 0.984906 0.996907
1.0645 1.08559 0.983524 0.996998
1.05931 1.08423 0.979929 0.997031
1.06587 1.08461 0.985817 0.996862
1.06462 1.09098 0.978713 0.997063
1.06673 1.09564 0.97645 0.997099
1.06074 1.07535 0.989644 0.996733
1.06246 1.07893 0.987958 0.996737
1.05845 1.0797 0.983337 0.996936
1.02263 1.02671 1 0.996029
1.02176 1.02615 1.00018 0.995542
1.03685 1.04091 1.00085 0.99525
1.05297 1.07191 0.985345 0.996942
1.04694 1.06263 0.988215 0.996982
1.05503 1.06031 0.998841 0.996179
1.00804 1.008 1.00389 0.996162
1.00457 1.00224 1.00597 0.996378
1.01434 1.00858 1.00931 0.996439
1.00212 1 1.00302 0.999102
1.01137 1.00388 1.01026 0.997221
1.01287 1 1.01507 0.997834
1.06436 1.08317 0.985784 0.996811
1.06094 1.08754 0.978576 0.996898
1.05132 1.07911 0.977169 0.997016
1.01035 1.01445 1.00009 0.995861
1.01014 1.0136 1.0014 0.9952
1.02719 1.03117 1.0009 0.995241
1.04646 1.07309 0.977952 0.997163
1.04256 1.05249 0.993962 0.996582
0.999695 1 1.0002 0.999496
1.00632 1 1.00798 0.998353
1.0037 1.00385 1.00373 0.996138
1.01775 1.00532 1.01626 0.996164
1.01209 1.00451 1.01087 0.996708
1.00995 1.00055 1.01194 0.99749
1.06311 1.09012 0.978177 0.996981
1.05171 1.09175 0.96625 0.99698
1.04693 1.07929 0.97274 0.997206
1.03379 1.05732 0.980541 0.997153
1.00213 1.00515 1.00133 0.995673
1.02727 1.03096 1.00076 0.995658
1.01024 1.01267 1.00264 0.994966
0.999721 1 1 0.999721
0.999129 1 1 0.999129
1.00117 1 1.00239 0.99878
1.00566 1 1.00787 0.997806
1.01015 1 1.01307 0.997118
1.0222 1.00471 1.02111 0.996371
1.00384 1.00192 1.00556 0.996376
1.0422 1.00307 1.04254 0.99661
1.00406 1 1.00558 0.998486
1.01471 1 1.01707 0.99768
1.05909 1.07779 0.985686 0.996928
1.02036 1.01656 1.00665 0.997107
1.00563 1.00713 1.00219 0.996334
1.03145 1.03467 1.00004 0.996852
1.0579 1.06224 0.999864 0.996054
1.06258 1.06885 0.997614 0.996518
1.01228 1.01179 1.00482 0.995692
1.01483 1.0197 1 0.995224
1.00472 1 1.00659 0.998142
1.01177 1.00095 1.0135 0.997348
1.02105 1.02059 1.00415 0.996316
1.02338 1.02501 1.00172 0.996688
1.0567 1.0982 0.964972 0.997142
1.05926 1.0727 0.990618 0.996827
1.03934 1.04412 0.999808 0.995614
1.02117 1.02213 1.00377 0.995304
1.00466 1 1.00663 0.998039
1.06659 1.10586 0.967245 0.997152
1.00757 1.00204 1.00858 0.996965
1.02133 1.0226 1.00268 0.996087
1.03763 1.08006 0.963345 0.997273
1.03428 1.04032 0.998491 0.995698
1.01448 1.01622 1.00323 0.995074
1.00025 1 1.00184 0.998416
0.998381 0.999294 1.00056 0.99853
0.998967 0.998694 1.00155 0.998724
0.999128 1 1.00029 0.998834
1.00474 1 1.00637 0.998382
0.99998 0.999969 1.00152 0.998496
0.99881 1 1 0.99881
1.0025 1 1.00417 0.998337
0.998976 0.999984 1.00031 0.998686
1.00308 1 1.00482 0.998264
0.998815 1 1 0.998815
0.999887 1 1.0014 0.998491
1.00486 1 1.00677 0.998104
0.99908 1 1.00087 0.998212
0.998715 1 1 0.998715
0.99945 1 1 0.99945
0.999494 1 1 0.999494
0.999997 1 1 0.999997
0.999537 1 1 0.999537
0.999995 1 1 0.999995
1 1 1 1
0.999993 1 1 0.999993
1 1 1 1
1 1 1 1
0.999765 1 1 0.999765
0.999998 1 1 0.999998
0.999982 1 1 0.999982
1 1 1 1
0.999919 1 1 0.999919
1 1 1 1
1 1 1 1
1.0597 1.08443 0.980088 0.997043
1.06308 1.08469 0.983028 0.996994
1.0643 1.08379 0.985078 0.996897
1.06262 1.07651 0.990342 0.996723
1.06575 1.08486 0.985455 0.996881
1.0646 1.09065 0.979004 0.997054
1.06344 1.09245 0.976273 0.997104
1.06431 1.09133 0.978132 0.997047
1.07726 1.10846 0.974632 0.997145
1.08631 1.11941 0.972955 0.997406
1.06523 1.0837 0.986097 0.99682
1.06 1.08742 0.97781 0.996902
1.05185 1.07899 0.977771 0.997008
1.00893 1.01307 1.00006 0.995854
1.01105 1.01457 1.00126 0.995279
1.02958 1.03359 1.00078 0.995346
1.04734 1.07277 0.979075 0.997165
1.03784 1.04833 0.99341 0.996558
1.0049 1.00369 1.00505 0.996173
1.02268 1.0056 1.02072 0.996343
1.01429 1.00544 1.01209 0.996757
0.999683 1 1.00011 0.999575
1.00617 1 1.00783 0.998349
1.00967 1.00024 1.01201 0.997443
1.06264 1.09035 0.977527 0.99699
0.999715 1 1 0.999715
0.999084 1 1 0.999084
1.05332 1.09088 0.968491 0.996982
1.04511 1.07758 0.972614 0.997176
1.00321 1.00555 1.00192 0.995754
1.00995 1.01169 1.00332 0.994983
1.02598 1.03083 0.999644 0.995644
1.03291 1.05712 0.979921 0.997123
1.00145 1 1.00258 0.998873
1.00598 1 1.0082 0.997793
1.00416 1.00198 1.00595 0.996258
1.03618 1.00356 1.03594 0.996695
1.0197 1.00315 1.02019 0.996386
1.00978 1.00015 1.01253 0.997136
1.0736 1.10984 0.97017 0.997089
1.0348 1.09001 0.952105 0.997105
1.03119 1.06779 0.968295 0.997351
1.0174 1.03567 0.98548 0.996835
1.00526 1.0028 1.00649 0.996
1.01076 1.01016 1.0055 0.995115
0.999027 1 1 0.999027
0.999373 1 1.00027 0.999107
0.998959 1.00021 1 0.998753
1.00115 1 1.00307 0.998088
1.01078 1 1.01332 0.997499
1.00892 1.00036 1.0118 0.996792
1.0641 1.00057 1.06722 0.996501
0.993658 1.00049 0.995828 0.997328
1.00529 1 1.00721 0.998091
1.00989 1 1.01259 0.997331
1.05744 1.0997 0.964313 0.997161
1.0625 1.07511 0.99147 0.996772
1.023 1.02481 1.00151 0.996727
1.02664 1.0259 1.00441 0.996327
1.037 1.04173 0.999777 0.995673
1.0238 1.02525 1.00335 0.995255
1.00468 0.999899 1.00678 0.998016
1.06913 1.10966 0.966157 0.997224
1.00809 1.00121 1.00987 0.997027
1.01833 1.01966 1.00269 0.996021
1.03844 1.07995 0.964216 0.997249
1.03194 1.03824 0.998135 0.995794
1.01572 1.01719 1.00348 0.995087
1.00962 0.998827 1.01305 0.997787
1.00818 1.06162 0.951922 0.99763
1.00501 1.00157 1.00673 0.99673
1.00638 1.0071 1.00379 0.995511
1.01677 1.0383 0.982434 0.996775
1.00316 1.00561 1.00221 0.995356
0.95155 1.00251 0.952597 0.996403
0.997354 0.998098 1.00073 0.998522
0.998894 0.997122 1.00305 0.998728
1.00153 0.999089 1.00378 0.998668
0.998819 1 1.00001 0.998806
1.00373 1 1.0054 0.998345
1.00184 1 1.00358 0.998272
0.999039 1 1.00031 0.998726
0.998721 1 1.00001 0.998714
0.999288 1 1.00107 0.998217
0.998781 1 1 0.998781
1.00485 1 1.00676 0.998104
0.999604 1 1.00115 0.998456
1.00002 1 1.00126 0.99877
1.00037 1 1.00243 0.997939
1.00476 1 1.00671 0.998065
0.998425 1 1.00034 0.998082
0.998539 1 1 0.998539
1.00072 1 1.00244 0.998283
0.998919 1 1.00041 0.998506
0.99943 1 1 0.99943
0.999446 1 1 0.999446
0.999999 1 1 0.999999
0.999489 1 1 0.999489
0.999997 1 1 0.999997
1 1 1 1
0.999996 1 1 0.999996
1 1 1 1
1 1 1 1
0.999814 1 1 0.999814
0.999767 1 1 0.999767
1 1 1 1
0.999996 1 1 0.999996
1 1 1 1
0.999975 1 1 0.999975
1 1 1 1
1 1 1 1
1.06027 1.08945 0.976034 0.997108
1.06457 1.09041 0.979199 0.997045
1.06548 1.085 0.985064 0.9969
1.0641 1.09123 0.978028 0.997045
1.07385 1.10505 0.974556 0.997138
1.08579 1.11858 0.973288 0.997319
1.08242 1.11991 0.969231 0.997211
0.953219 1.01605 0.943622 0.994208
1.03361 1.07255 0.965521 0.998111
0.999222 1 1 0.999222
1.06222 1.09063 0.976884 0.996999
1.05481 1.09025 0.970419 0.996985
1.04293 1.07603 0.972009 0.997146
1.00028 1.00365 1.00082 0.995833
1.00856 1.00957 1.00402 0.994998
1.02386 1.02956 0.998833 0.995629
1.0321 1.0572 0.979109 0.997094
0.998723 1.00199 1.0006 0.996147
1.02971 1.00395 1.02897 0.996788
1.01664 1.00165 1.01863 0.996402
0.999709 1 1 0.999709
1.01005 1.0001 1.01284 0.997154
1.00162 1 1.00266 0.998964
1.00627 1 1.00851 0.997781
0.999176 1 1.00014 0.999039
1.07115 1.11034 0.96751 0.997096
0.999085 1 1 0.999085
0.999719 1 1.00061 0.99911
0.998828 1.00057 0.999539 0.998715
1.03877 1.09056 0.955282 0.997102
1.02981 1.06651 0.968205 0.997301
1.00163 1.00217 1.00344 0.996036
1.01533 1.01477 1.00531 0.995262
1.01634 1.03386 0.986187 0.996816
1.0007 1 1.00255 0.998154
1.00985 1 1.01243 0.997448
1.00476 1.00031 1.00733 0.99714
1.05341 1.00118 1.05586 0.996508
1.00859 1.00066 1.01111 0.996847
1.0462 1.10066 0.953188 0.997201
1.0099 1.07519 0.94185 0.997268
1.0222 1.04654 0.979701 0.996979
0.997516 1.01656 0.984623 0.996591
1.00112 1 1.00423 0.9969
0.998606 1 1 0.998606
0.999721 1.00038 1.00088 0.99847
1.00173 1 1.00323 0.998504
1.01254 1 1.0147 0.997871
1.01199 1 1.01459 0.997443
1.04521 0.999932 1.04842 0.997014
1.02839 1.00181 1.02926 0.997358
1.00476 1 1.00678 0.997991
1.00778 1.00001 1.01071 0.99709
1.07088 1.11363 0.964223 0.997295
1.0398 1.08067 0.964855 0.997224
1.02982 1.0365 0.997655 0.995891
1.01395 1.01535 1.00268 0.995955
1.01635 1.01769 1.0036 0.995101
1.01031 0.999559 1.01291 0.997867
1.0103 1.06304 0.952598 0.997683
1.00196 1.00122 1.00402 0.996737
1.0048 1.00521 1.00411 0.995509
1.01424 1.03682 0.981258 0.996912
1.00402 1.00596 1.00273 0.995354
0.952091 1.0017 0.955079 0.995176
1.00977 0.99793 1.01415 0.997746
0.988372 1.02663 0.965026 0.997624
1.00095 1.00137 1.00312 0.99647
1.00429 1.00216 1.0062 0.995949
0.992146 1.00726 0.988276 0.996678
0.890883 0.972696 0.945731 0.968448
0.874363 0.958314 0.927706 0.983498
0.952985 0.978269 0.977325 0.996757
0.66391 0.804216 0.886803 0.930913
0.574347 0.743475 0.850613 0.908188
0.998913 0.996066 1.00413 0.998733
1.00224 0.997222 1.00632 0.998721
1.00387 0.999784 1.00539 0.998703
0.998714 1 1 0.998714
0.999204 1 1.00098 0.998222
1.00404 1 1.00594 0.998104
0.999541 1 1.00112 0.998421
0.998747 1 1 0.998747
1.00537 1 1.00733 0.998049
0.998578 1 1 0.998578
0.998421 1 1.00032 0.9981
0.99957 1 1.00087 0.998704
1.00102 1 1.00301 0.998009
1.00644 1 1.00842 0.998036
1.00606 0.999574 1.00821 0.998295
1.00532 1 1.00732 0.998015
0.998994 1 1.00102 0.997974
0.998534 1 1.00003 0.998507
0.999233 1 1.00113 0.998109
1.00051 1 1.00231 0.99821
1.00082 1 1.00245 0.998369
1.0005 1 1.00226 0.998247
0.998922 1 1.00029 0.998638
0.99907 1 1.00057 0.998503
0.999424 1 1 0.999424
0.99943 1 1 0.99943
1 1 1 1
0.999443 1 1 0.999443
0.999999 1 1 0.999999
1 1 1 1
0.999998 1 1 0.999998
1 1 1 1
1 1 1 1
0.999871 1 1 0.999871
0.999811 1 1 0.999811
1 1 1 1
0.999769 1 1 0.999769
1 1 1 1
1 1 1 1
0.999994 1 1 0.999994
1 1 1 1
1 1 1 1
1.07052 1.1017 0.974496 0.997132
1.06373 1.09092 0.97797 0.997043
1.08564 1.11772 0.973991 0.997234
0.955202 1.01578 0.945752 0.994299
1.0805 1.11803 0.969132 0.997209
1.0406 1.0751 0.969866 0.99798
1.0581 1.09277 0.970859 0.997341
0.907123 0.973979 0.947751 0.982702
0.980838 1.02123 0.965092 0.995185
0.999268 1 1 0.999268
0.999215 1 1 0.999215
0.998712 1 1 0.998712
0.998844 1 1 0.998844
1.06882 1.11026 0.965475 0.997103
1.0427 1.09048 0.958962 0.9971
1.02887 1.06523 0.968532 0.997251
1.00043 1.0013 1.00306 0.996072
1.01964 1.0197 1.00455 0.995411
1.0149 1.03166 0.986907 0.996797
1.01687 1 1.01999 0.996947
1.04392 1.00182 1.04568 0.996513
1.00842 1.00037 1.01118 0.996901
1.0002 1 1.00109 0.999113
1.00823 1.0003 1.01056 0.997399
1.0004 1 1.00218 0.99822
0.999144 1 1 0.999144
0.999095 1.00099 0.999428 0.998676
1.04485 1.101 0.951655 0.997215
0.998624 1 1 0.998624
0.999373 1.0006 1.00022 0.998559
1.00162 0.999574 1.0033 0.998752
1.01741 1.07884 0.945651 0.997256
1.02273 1.04641 0.980339 0.996978
0.999426 1.00085 1.0017 0.996886
0.999838 1.0155 0.987874 0.996666
1.01115 1 1.01341 0.997765
1.01195 1 1.01472 0.997277
1.03426 1.00245 1.03448 0.997337
1.04482 1.00144 1.04656 0.996899
0.998072 1.06086 0.943275 0.997393
0.997823 1.04878 0.954025 0.997267
1.00993 1.01955 0.99391 0.996628
0.974292 1.00137 0.975141 0.997766
1.00586 1 1.0074 0.998474
1.00577 1 1.00773 0.998054
1.01993 0.999516 1.02232 0.998145
1.06415 1.00092 1.06601 0.997345
0.874845 0.968734 0.937252 0.963542
1.01164 0.999951 1.01377 0.997949
1.00024 1.00091 1.0026 0.996742
1.01163 1.0643 0.952658 0.997743
1.01169 1.03494 0.980427 0.997048
1.00488 1.00626 1.0033 0.995349
1.00384 1.0038 1.00456 0.995505
0.952645 1.00229 0.956301 0.993906
1.00808 0.99781 1.01252 0.997803
0.987396 1.0272 0.963567 0.9976
1.0009 1.00148 1.00295 0.996482
1.00513 1.00332 1.00587 0.995962
0.995271 1.00838 0.990308 0.996659
0.882221 0.975931 0.938124 0.963603
0.869904 0.953745 0.93049 0.980228
0.956268 0.978692 0.980211 0.996814
0.657735 0.798158 0.883547 0.932679
0.56338 0.738368 0.845399 0.90254
1.00339 0.998064 1.00745 0.997895
0.691769 0.817542 0.903886 0.936133
0.609089 0.757818 0.884865 0.90832
0.986 1.00557 0.982752 0.997747
1.00901 1.00152 1.01029 0.997219
1.01443 1.00589 1.01135 0.997173
0.943463 0.966077 0.97928 0.997254
0.850441 0.945755 0.930468 0.966416
0.834948 0.922383 0.925561 0.978009
0.644302 0.786928 0.872546 0.938353
0.625552 0.806672 0.858592 0.903191
1.00246 0.995246 1.00849 0.998773
1.00255 0.998109 1.00579 0.998676
1.01439 0.999696 1.01588 0.998837
0.998617 1 1 0.998617
0.998299 1 1.00018 0.998119
1.00579 1 1.00777 0.998033
1.00209 1 1.00401 0.998079
0.998637 1 1 0.998637
0.998551 1 1.00004 0.998507
1.0071 1 1.00911 0.998007
1.00551 1 1.00752 0.998005
0.998556 1 1.00054 0.998022
1.00719 0.999426 1.00944 0.998342
1.00797 1 1.00976 0.998227
1.0243 0.999397 1.02646 0.998495
1.003 1 1.00513 0.997881
0.998916 1 1.00086 0.998063
0.998782 1 1.00068 0.998103
1.00077 1 1.00253 0.998246
1.00034 1 1.00234 0.998002
0.999985 1 1.00167 0.99832
1.00572 1 1.00733 0.998404
1.01003 1 1.01194 0.998108
1.00179 1 1.00345 0.998349
1.00044 1 1.00207 0.998372
0.999932 1 1.00127 0.998668
1.00028 1 1.00207 0.998211
0.998958 1 1.00035 0.998603
0.999399 1 1 0.999399
0.999203 1 1.0007 0.9985
0.999426 1 1 0.999426
0.999996 1 1 0.999996
0.999431 1 1 0.999431
0.999999 1 1 0.999999
1 1 1 1
1 1 1 1
1 1 1 1
1 1 1 1
0.999207 1 1 0.999207
0.999888 1 1 0.999888
0.999867 1 1 0.999867
1 1 1 1
0.999808 1 1 0.999808
1 1 1 1
1 1 1 1
0.999999 1 1 0.999999
1 1 1 1
1 1 1 1
0.95793 1.01533 0.948783 0.994392
1.07931 1.11684 0.969097 0.997206
1.04979 1.07838 0.975593 0.997846
0.895469 0.970615 0.937636 0.983941
0.980153 1.02111 0.964311 0.995413
1.05898 1.09603 0.968814 0.997297
0.989943 1.03552 0.959841 0.995989
0.9124 0.975191 0.949292 0.985589
0.888162 0.976357 0.941615 0.966073
0.667645 0.804266 0.884401 0.938636
0.53144 0.695875 0.841898 0.907116
0.9988 1 1 0.9988
0.999265 1 1 0.999265
0.999208 1 1 0.999208
0.998726 1 1 0.998726
0.99898 1 1.00043 0.998552
0.998486 1 1 0.998486
0.998706 1 1.00005 0.998652
0.998796 1 1 0.998796
1.04503 1.10257 0.95045 0.997229
1.02521 1.0833 0.948996 0.997243
1.0227 1.04657 0.980155 0.996978
0.998929 1.00189 1.00017 0.996873
1.00244 1.0149 0.990955 0.996741
1.04268 1.00286 1.04251 0.997314
1.04506 1.00318 1.0451 0.996785
1.01143 1.0002 1.01415 0.997112
0.998361 1.00077 0.99894 0.998648
1.01161 1 1.01399 0.997653
0.998644 1 1 0.998644
1.00045 0.999376 1.00207 0.999002
0.996256 1.06154 0.94091 0.997435
1.00497 0.999813 1.00671 0.998455
1.00777 1 1.0096 0.998188
0.995456 1.04662 0.953744 0.99724
1.00776 1.02074 0.990468 0.996791
0.97786 1.00146 0.978767 0.99762
1.03094 1.00082 1.03236 0.997811
1.05798 1.00219 1.05843 0.997391
0.967774 1.0316 0.940713 0.997258
0.994084 1.01631 0.980822 0.997256
0.973965 1.00213 0.974464 0.997359
0.975069 0.998808 0.97821 0.997979
1.00842 1 1.01053 0.997913
1.02067 1 1.02265 0.998062
1.05444 0.999715 1.05716 0.997714
0.708394 0.826539 0.912798 0.938938
0.889558 0.976145 0.939871 0.969598
1.00589 0.998272 1.00979 0.997863
1.00061 1.00132 1.0028 0.996497
0.987802 1.0279 0.963325 0.997575
0.998047 1.00979 0.991706 0.996641
1.00634 1.00466 1.00571 0.995981
0.884241 0.973557 0.93987 0.966365
0.874352 0.96416 0.924565 0.980844
0.95713 0.977592 0.982138 0.996876
0.670359 0.799747 0.89247 0.939206
0.552801 0.734122 0.839767 0.896689
1.00347 0.998956 1.00663 0.9979
0.701444 0.82789 0.904134 0.937104
0.586429 0.737083 0.879459 0.904655
0.98537 1.00667 0.98107 0.997732
1.00907 1.00218 1.00968 0.997225
1.0122 1.00393 1.01095 0.997319
0.938244 0.96043 0.979343 0.997505
0.861427 0.959144 0.9328 0.962822
0.831827 0.917935 0.924074 0.98065
0.654133 0.788001 0.886723 0.936162
0.628677 0.816811 0.853319 0.901976
1.00593 0.999302 1.00812 0.998525
0.629797 0.770132 0.900908 0.907725
0.69472 0.847257 0.895895 0.915245
0.983761 0.990247 0.994813 0.99863
1.01569 1.00247 1.01466 0.998546
0.950129 0.953311 0.999903 0.996759
0.850314 0.910424 0.950808 0.982297
0.801338 0.900033 0.92688 0.960581
0.668491 0.78388 0.909799 0.937346
0.69269 0.877 0.87031 0.907538
1.00256 0.997975 1.00595 0.99865
1.01162 0.999994 1.01285 0.998787
1.01164 0.998837 1.01375 0.999074
0.998508 1 1 0.998508
0.998208 1 1.00014 0.998071
1.00646 1 1.00849 0.997994
1.00825 1 1.01029 0.997978
1.00775 0.999201 1.01018 0.998389
0.998689 1 1.00063 0.998059
1.00684 1 1.00869 0.998173
1.00277 1 1.00489 0.997884
1.02198 0.998034 1.02547 0.99856
1.04136 0.996206 1.04628 0.999094
1.01435 1 1.01615 0.998228
1.0012 1 1.00336 0.997845
0.99849 1 1.00039 0.998096
1.00094 1 1.00267 0.998282
1.00087 1 1.00289 0.997992
1.00087 1 1.00257 0.998301
1.00366 1 1.00514 0.998525
1.00617 1 1.00792 0.998262
1.0096 1 1.01137 0.998254
1.00484 0.998349 1.00795 0.99857
0.9998 1 1.00159 0.998215
1.00033 1.00196 1.00093 0.997455
1.00773 1 1.00979 0.997966
1.0085 1 1.01041 0.998111
1.00929 1 1.01114 0.998171
1.00335 1 1.00501 0.998349
0.999887 1 1.00126 0.99863
1.00063 1 1.00226 0.998375
0.9997 1 1.00103 0.998675
0.999363 1 1 0.999363
0.998977 1 1.00041 0.998569
0.999403 1 1 0.999403
0.999983 1 1 0.999983
0.999428 1 1 0.999428
0.999993 1 1 0.999993
1 1 1 1
0.999999 1 1 0.999999
1 1 1 1
1 1 1 1
0.999196 1 1 0.999196
0.999852 1 1 0.999852
0.999209 1 1 0.999209
1 1 1 1
0.999888 1 1 0.999888
0.999862 1 1 0.999862
1 1 1 1
1 1 1 1
1 1 1 1
1 1 1 1
1 1 1 1
0.691455 0.818912 0.906297 0.931658
0.593138 0.750088 0.87335 0.905431
0.894792 0.970087 0.936846 0.984562
0.980133 1.0209 0.964254 0.995656
1.05626 1.09796 0.964669 0.997253
0.900887 0.958017 0.952852 0.986896
0.988381 1.03453 0.959025 0.996213
0.899189 0.986154 0.943278 0.966643
0.656187 0.80326 0.875794 0.932759
0.541263 0.71539 0.839293 0.901471
0.922376 0.994212 0.936791 0.990344
0.874138 0.961104 0.940509 0.967044
0.650257 0.792556 0.875 0.937663
0.623535 0.806404 0.855654 0.903671
1.00083 1 1.00251 0.99833
0.998843 1 1 0.998843
0.999262 1 1 0.999262
0.998741 1 1 0.998739
0.99896 1 1.00031 0.998656
0.999358 1 1.00118 0.998184
0.998524 1 1.00006 0.998465
0.998533 1 1.0003 0.998233
0.998628 1 1.00003 0.998602
0.998748 1 1 0.998748
0.991749 1.06125 0.936874 0.997476
0.992511 1.0439 0.95343 0.997215
1.00706 1.02215 0.988246 0.996954
0.980652 1.00177 0.981394 0.997474
1.04862 1.00359 1.04755 0.997437
1.04253 1.00181 1.04327 0.997482
1.00865 1 1.01035 0.998321
1.00419 0.999489 1.00627 0.998435
0.967366 1.03229 0.939569 0.997378
1.01062 1 1.01279 0.997859
1.02023 1 1.02226 0.998022
0.986386 1.01326 0.976215 0.997194
0.972048 1.00193 0.972638 0.997465
0.976054 0.999953 0.978124 0.99793
1.04745 0.999655 1.05028 0.997651
0.95839 1.00275 0.9582 0.997457
0.963407 0.997278 0.967745 0.998235
1.01203 0.996533 1.01741 0.998168
1.01023 1 1.01248 0.997778
1.01833 0.999988 1.02063 0.997767
1.02959 1 1.03182 0.99784
0.658447 0.78419 0.912795 0.91987
0.708923 0.824824 0.914772 0.939561
0.878943 0.9746 0.935802 0.963719
1.00263 0.998289 1.00646 0.997903
1.0089 1.00243 1.00925 0.997226
0.98668 1.0079 0.981185 0.997716
1.01036 1.00243 1.01048 0.997459
0.70518 0.823052 0.910992 0.940498
0.859478 0.956294 0.932729 0.963581
0.829529 0.914769 0.927101 0.978121
0.938547 0.957475 0.982454 0.997737
0.651916 0.794141 0.881831 0.930913
0.580656 0.732414 0.874484 0.90659
0.632204 0.817375 0.852448 0.907335
1.00531 0.99882 1.00802 0.998489
0.632224 0.769915 0.90025 0.912147
0.709891 0.862576 0.899584 0.914855
0.98216 0.987763 0.995585 0.998738
1.01535 1.00156 1.0153 0.998495
0.947446 0.95164 0.99811 0.997479
0.839186 0.915291 0.935941 0.979603
0.834174 0.916257 0.943111 0.965331
0.677218 0.795923 0.91317 0.931763
0.686228 0.869467 0.865836 0.911548
1.00755 0.997355 1.0108 0.999431
0.734395 0.869599 0.914606 0.923372
0.711258 0.868907 0.890808 0.918903
0.976533 0.959052 1.01852 0.999715
0.885215 0.912951 0.981742 0.987651
0.831193 0.888747 0.970829 0.963344
0.756943 0.869053 0.938129 0.928442
0.736394 0.918581 0.877973 0.913086
1.0094 1 1.01068 0.998736
1.01367 0.998416 1.01623 0.999059
1.02738 0.98991 1.03852 0.999354
0.99889 1 1.00084 0.998055
1.00263 1 1.00475 0.997888
1.00503 1 1.00692 0.998119
1.02037 0.997085 1.02476 0.998624
1.00184 1 1.004 0.997845
1.01359 0.99989 1.01551 0.998218
1.04605 0.996507 1.05058 0.999173
1.04253 0.988228 1.05554 0.999446
1.04491 0.998713 1.04723 0.999068
1.00863 1 1.01053 0.998126
1.00098 1 1.003 0.99798
1.00116 1 1.00288 0.998282
1.00145 1 1.00282 0.998643
1.00895 1 1.0107 0.998277
1.00432 1 1.00607 0.998261
1.00723 0.999 1.00965 0.998601
1.00373 0.999306 1.00609 0.998349
1.01487 0.997038 1.01894 0.998962
0.99681 1.00126 0.99717 0.998383
1.00037 1.00066 1.00149 0.998218
0.998634 1.00022 1.00069 0.997719
1.0053 1.00739 1.00153 0.996406
1.00455 1.00136 1.00542 0.997779
0.999583 1.00107 1.00072 0.997791
1.00785 1 1.0099 0.997963
1.0151 1 1.01717 0.997969
1.00623 1 1.00813 0.998113
1.0084 1 1.01024 0.998171
1.00126 1 1.00278 0.998479
1.00351 1 1.00517 0.998349
0.999902 1 1.00128 0.998627
0.999771 1 1.00046 0.99931
0.99942 1 1.00074 0.998681
0.999455 1 1.00009 0.999364
0.999962 1 1 0.999962
0.999406 1 1 0.999406
0.999977 1 1 0.999977
1 1 1 1
0.999991 1 1 0.999991
1 1 1 1
1 1 1 1
0.99888 1 1 0.99888
0.999785 1 1 0.999785
0.999109 1 1 0.999109
1 1 1 1
0.999857 1 1 0.999857
0.999211 1 1 0.999211
1 1 1 1
1 1 1 1
0.999889 1 1 0.999889
1 1 1 1
1 1 1 1
1 1 1 1
0.617115 0.762955 0.888118 0.910745
0.698983 0.825567 0.904958 0.93559
0.703994 0.861349 0.894006 0.914218
0.590054 0.749456 0.870942 0.903974
0.899567 0.964861 0.947334 0.98416
0.989108 1.03401 0.959985 0.99645
0.899729 0.985334 0.944432 0.966846
0.673118 0.805815 0.889955 0.938616
0.552914 0.738127 0.836269 0.895737
0.926255 0.988878 0.9468 0.989303
0.858753 0.956098 0.935155 0.960466
0.662871 0.798989 0.88685 0.935489
0.613729 0.799325 0.853008 0.900119
0.886184 0.964046 0.932556 0.985715
0.806976 0.895471 0.939082 0.959634
0.704757 0.832772 0.911461 0.928485
0.68699 0.871517 0.871168 0.904841
1.00325 1 1.00533 0.997938
1.00006 1 1.00168 0.998386
0.998885 1 1 0.998885
0.99876 1 1 0.99876
0.998566 1 1.0008 0.997768
0.998626 1 1.00038 0.998245
0.998449 1 1.00001 0.998444
0.99821 1 1 0.99821
0.998434 1 1.00016 0.998274
0.998552 1 1 0.998552
0.968232 1.03352 0.939184 0.997495
0.980653 1.01063 0.973126 0.997137
0.968045 1.00129 0.969154 0.99757
0.977598 1.0013 0.978398 0.997884
1.03897 1 1.04148 0.997587
1.0195 1 1.02156 0.997984
1.01208 1 1.01431 0.997805
1.00976 1 1.01206 0.99772
0.958459 1.00303 0.957927 0.99753
1.01564 1 1.01795 0.997732
1.0296 1 1.03186 0.997817
0.962901 0.998468 0.966081 0.998238
1.00642 0.998715 1.00961 0.998124
0.944072 0.973801 0.971627 0.997781
0.963529 0.970141 0.993944 0.999235
1.04422 0.996677 1.04941 0.998377
1.00636 1 1.00855 0.997828
1.02823 0.999968 1.03032 0.998004
0.748358 0.881638 0.914365 0.928323
0.654485 0.782572 0.910595 0.918439
0.70094 0.821422 0.913377 0.934252
1.00478 0.998788 1.00755 0.998456
1.01542 1.00031 1.01669 0.998444
0.977647 0.985186 0.993491 0.998849
0.628135 0.766878 0.897573 0.91255
0.811366 0.900294 0.938665 0.960112
0.844323 0.912384 0.943148 0.981186
0.936687 0.945667 0.992266 0.998224
0.688787 0.809515 0.907332 0.937766
0.719175 0.870631 0.903064 0.914708
0.687008 0.868419 0.867452 0.911983
1.00609 0.997548 1.00919 0.999376
0.734468 0.870719 0.91164 0.925277
0.709455 0.866325 0.890966 0.919142
0.978214 0.963233 1.01605 0.999515
0.898688 0.925538 0.983241 0.98754
0.801847 0.884105 0.946595 0.958128
0.73208 0.915155 0.876258 0.912919
0.774481 0.87438 0.951244 0.931148
0.997087 0.966959 1.03146 0.999711
0.722791 0.86015 0.903652 0.929902
0.748903 0.903707 0.898157 0.922668
0.684623 0.869819 0.869638 0.905075
0.93926 0.929967 1.0133 0.996739
0.884911 0.918034 0.998951 0.964932
0.830564 0.92958 0.95575 0.93485
1.01625 0.997921 1.01934 0.999043
1.02871 0.99255 1.03719 0.99927
1.03498 0.98156 1.05488 0.999566
1.00221 1 1.00437 0.997846
1.01151 0.999707 1.01363 0.998208
1.05039 0.995874 1.05554 0.999251
1.00909 1 1.01098 0.998132
1.04476 0.998459 1.04734 0.999079
1.04813 0.98848 1.06096 0.999421
1.03792 0.983881 1.05547 0.999489
1.02884 0.997288 1.03261 0.999058
1.00799 1 1.00971 0.998303
1.00376 1 1.00551 0.998259
1.00999 0.999521 1.01185 0.998633
1.01438 0.997834 1.01767 0.998933
1.00392 0.999547 1.00602 0.998359
1.00344 0.999473 1.00514 0.998827
0.997209 0.999974 0.998527 0.998706
1.00446 1.00018 1.00711 0.997198
1.00079 1.00137 1.0012 0.99823
0.999977 1.00183 1.00055 0.997603
1.00154 1.00329 1.00222 0.996042
1.01781 1.02072 1.00129 0.995865
1.00604 1.00595 1.00276 0.997341
1.00297 1.00513 1.00138 0.996472
1.01257 1.00009 1.0148 0.997702
1.00586 1.00216 1.00592 0.997798
0.998843 1.00023 1.00049 0.998122
1.00816 1 1.01022 0.997961
1.0139 1 1.01594 0.998
1.00711 1 1.00884 0.998289
1.00816 1 1.01001 0.998171
1.00142 1 1.00295 0.998479
0.99995 1 1.00075 0.999198
0.999815 1 1.00119 0.998623
0.999748 1 1.00044 0.999307
0.999943 1 1 0.999943
0.99962 1 1.00025 0.999365
0.999956 1 1 0.999956
1 1 1 1
0.999971 1 1 0.999971
1 1 1 1
1 1 1 1
0.998571 1 1 0.998571
0.999532 1 1 0.999532
0.998879 1 1 0.998879
1 1 1 1
0.999723 1 1 0.999723
0.999022 1 1 0.999022
1 1 1 1
1 1 1 1
0.999863 1 1 0.999863
1 1 1 1
1 1 1 1
1 1 1 1
0.740015 0.883898 0.906567 0.923504
0.624401 0.764202 0.892629 0.915344
0.688989 0.81908 0.899936 0.934704
0.998102 1 1 0.998102
0.71435 0.864844 0.895498 0.922377
0.703396 0.861007 0.893777 0.914038
0.602321 0.764053 0.867697 0.908524
0.936137 0.992943 0.954174 0.988069
0.852959 0.944296 0.934802 0.966274
0.665328 0.814062 0.878848 0.92996
0.603511 0.780551 0.855915 0.903345
0.883605 0.959704 0.937255 0.982342
0.828965 0.909232 0.94496 0.964825
0.694489 0.814017 0.91803 0.929341
0.686308 0.869619 0.870951 0.906142
0.827092 0.905913 0.933202 0.978344
0.807925 0.877903 0.957295 0.961344
0.785663 0.881453 0.956274 0.932083
0.736247 0.915821 0.880466 0.913062
1.00147 1 1.0037 0.997784
1.00422 1 1.00634 0.997899
0.999637 1 1.0012 0.998442
0.998257 1 1.00033 0.997931
0.998761 1 1.00092 0.997848
0.998447 1 1.00014 0.998305
0.998243 1 1.00003 0.998211
0.998403 1 1.00009 0.998314
0.958796 1.0037 0.957573 0.997583
0.963597 1.00104 0.964285 0.99825
1.00931 1 1.01168 0.997661
1.00023 1.00055 1.00161 0.998079
1.03057 1 1.03285 0.997794
1.01533 1 1.01768 0.997698
1.00843 1 1.01063 0.997824
0.944664 0.971636 0.974254 0.997933
1.02544 0.999994 1.02749 0.998009
1.03314 0.998118 1.03673 0.998422
0.965237 0.974466 0.991239 0.999283
1.00839 1 1.01035 0.998065
0.930581 0.945851 0.986478 0.997342
0.996299 0.97222 1.02531 0.999476
1.06343 0.996458 1.06877 0.998536
1.03847 0.998373 1.04203 0.998211
0.727303 0.859341 0.90628 0.933873
0.747973 0.881715 0.914412 0.927719
0.651733 0.780114 0.911083 0.916968
1.00349 0.997866 1.00632 0.999322
0.981131 0.966645 1.01568 0.999319
0.737748 0.874907 0.909528 0.927108
0.822821 0.876068 0.973838 0.964453
0.887152 0.923911 0.976188 0.983636
0.765826 0.866582 0.951016 0.92925
0.710065 0.866882 0.890982 0.919325
0.730728 0.914212 0.875706 0.912747
1.00398 0.976895 1.02807 0.999669
0.724236 0.861933 0.903589 0.929899
0.75152 0.902366 0.900449 0.924909
0.953394 0.939659 1.0156 0.999029
0.684205 0.86808 0.86969 0.906279
0.852111 0.89615 0.988956 0.961477
0.829592 0.925861 0.958929 0.934399
0.994874 0.963777 1.03259 0.999683
0.758175 0.892904 0.909222 0.933887
0.71347 0.861644 0.897194 0.922914
0.621077 0.804658 0.853979 0.903831
0.781865 0.879233 0.954718 0.931436
0.932861 0.934215 1.00632 0.992276
0.892262 0.918044 1.01609 0.956523
1.02854 0.995887 1.03363 0.999188
1.03308 0.978469 1.0563 0.999534
1.01993 0.96198 1.06068 0.999582
1.01079 1 1.01267 0.998139
1.04793 0.997737 1.05126 0.999091
1.05663 0.989542 1.06844 0.999396
1.02455 0.997675 1.02792 0.999045
1.03624 0.986197 1.05128 0.999488
1.0066 0.984603 1.02313 0.999235
1.0144 0.99869 1.01684 0.998903
1.004 0.999531 1.00611 0.99837
1.00642 0.999535 1.0081 0.998803
1.01363 0.997932 1.0177 0.998061
0.997891 0.998862 1 0.999028
1.0006 1.00023 1.00295 0.997427
1.0066 1.00205 1.00913 0.995457
1.00576 1.00779 1.00281 0.995192
1.00135 1.00356 1.00032 0.997478
1.00175 1.00396 1.00199 0.995818
1.01976 1.0234 1.00053 0.995922
1.01492 1.01574 1.00261 0.99659
1.01616 1.01898 1.00125 0.995977
1.00946 1.00236 1.00962 0.997493
1.00881 1.00817 1.00335 0.997302
0.999919 1.00211 1.00128 0.996541
1.01352 1 1.01548 0.998065
1.01193 1.00019 1.01403 0.997733
1.00722 1.00295 1.00646 0.997817
1.01268 1 1.01468 0.99803
1.00698 1 1.0087 0.998291
1.00125 1 1.00225 0.999007
1.00187 1 1.0034 0.998479
1.00021 1 1.00102 0.999193
0.999924 1 1 0.999924
0.999779 1 1.00048 0.999304
0.999939 1 1 0.999939
1 1 1 1
0.999951 1 1 0.999951
1 1 1 1
1 1 1 1
0.99848 1 1 0.99848
0.999327 1 1 0.999327
0.998629 1 1 0.998629
0.999997 1 1 0.999997
0.99951 1 1 0.99951
0.998876 1 1 0.998876
1 1 1 1
1 1 1 1
0.99966 1 1 0.99966
1 1 1 1
1 1 1 1
1 1 1 1
0.729749 0.863993 0.905806 0.932456
0.741319 0.882398 0.909681 0.923531
0.625547 0.762925 0.895654 0.915457
0.99832 1 1.00018 0.998143
1.00116 1 1.00313 0.998038
0.998092 1 1 0.998092
0.751345 0.906386 0.898852 0.922228
0.712081 0.865304 0.891962 0.922603
0.7013 0.860884 0.891381 0.913894
0.89059 0.967798 0.934739 0.984471
0.79561 0.894403 0.927023 0.95957
0.697978 0.803226 0.927186 0.93721
0.691392 0.876411 0.87293 0.903727
0.831651 0.912425 0.928739 0.98141
0.825723 0.888163 0.967253 0.961173
0.773133 0.870044 0.952587 0.932842
0.73276 0.914672 0.877661 0.912787
0.847107 0.906729 0.954548 0.97873
0.858182 0.901212 0.989163 0.962686
0.83072 0.926372 0.95882 0.935259
0.696905 0.879883 0.872538 0.907746
0.999003 1 1.00101 0.997993
1.00168 1 1.00395 0.997738
1.00367 1 1.00582 0.997859
0.998115 1 1.0002 0.997915
0.998553 1 1.00063 0.997929
0.998212 1 1 0.998212
0.941374 0.965114 0.977264 0.998093
0.965545 0.974834 0.991157 0.999308
1.00896 1 1.01117 0.99782
1.02538 0.999627 1.02734 0.998466
1.0232 1 1.02523 0.998014
1.00946 0.999724 1.01167 0.998083
1.02847 0.994503 1.03597 0.998248
0.936418 0.944612 0.993865 0.997444
1.05805 0.994046 1.06579 0.998678
0.999355 0.965024 1.03631 0.99929
1.01715 0.992263 1.02671 0.998418
0.962814 0.946375 1.02043 0.996998
1.01272 0.968086 1.04696 0.999189
1.03283 0.971013 1.06494 0.998792
0.774283 0.902652 0.916554 0.935883
0.731592 0.861563 0.908885 0.934271
0.746907 0.881811 0.913597 0.927121
1.01117 0.986353 1.02554 0.999627
0.942522 0.937981 1.00757 0.997288
0.724702 0.862278 0.90381 0.929897
0.849574 0.883067 0.996197 0.965744
0.824516 0.92815 0.955058 0.930147
0.752985 0.902208 0.900189 0.927141
0.691433 0.875534 0.873577 0.904016
0.989845 0.959432 1.03196 0.999749
0.757104 0.889993 0.91007 0.934747
0.716166 0.867591 0.894173 0.92316
0.928318 0.930301 1.01017 0.987819
0.611354 0.796353 0.852548 0.900468
0.771249 0.868977 0.952469 0.931828
0.891913 0.919017 1.00725 0.963518
1.0074 0.951481 1.06069 0.998189
0.730694 0.862101 0.90866 0.932773
0.715374 0.868957 0.899891 0.914839
0.533885 0.695443 0.845553 0.907915
0.692519 0.82204 0.907595 0.928212
0.863793 0.900032 0.997685 0.961963
0.901373 0.919947 0.995447 0.984292
1.0285 0.976653 1.05361 0.999501
1.02841 0.974021 1.05628 0.999581
1.01008 0.975173 1.03634 0.999467
1.01802 0.998178 1.02087 0.999032
1.03274 0.988747 1.04503 0.999487
1.01025 0.980414 1.03113 0.999319
1.00753 0.995005 1.01384 0.998762
1.00977 0.999803 1.01121 0.998778
1.01092 0.999026 1.01416 0.997781
1.02375 1.00075 1.02718 0.995918
0.996601 0.999866 0.999072 0.99766
1.00778 1.00177 1.01052 0.995523
1.0071 1.00283 1.00971 0.994599
1.00992 1.01324 1.00191 0.994821
1.01175 1.01516 1.00108 0.995572
1.00576 1.0076 1.00306 0.995133
1.00173 1.00448 1.00167 0.995596
1.01598 1.01868 1.0011 0.996255
1.02127 1.02486 1.00048 0.996017
1.00838 1.00679 1.00464 0.996957
1.01707 1.01768 1.00274 0.996675
1.01591 1.01871 1.00117 0.996091
1.01371 1.0008 1.01518 0.997753
1.01054 1.00361 1.00944 0.997484
1.01173 1.01064 1.00383 0.997261
1.00657 1 1.00779 0.998787
1.01211 1 1.01407 0.998064
1.01157 1.00041 1.01343 0.997763
1.00656 1 1.00828 0.998292
1.00165 1 1.00264 0.999004
0.999873 1 1 0.999873
1.0001 1 1.00091 0.999187
0.999916 1 1 0.999916
1 1 1 1
0.999935 1 1 0.999935
1 1 1 1
1 1 1 1
0.998411 1 1 0.998411
0.99928 1 1 0.99928
0.998509 1 1 0.998509
0.999983 1 1 0.999983
0.999376 1 1 0.999376
0.998688 1 1 0.998688
1 1 1 1
0.999998 1 1 0.999998
0.999488 1 1 0.999488
1 1 1 1
1 1 1 1
1 1 1 1
0.755781 0.891241 0.908486 0.933431
0.734752 0.865188 0.910747 0.932465
0.743628 0.881212 0.913674 0.9236
1.01415 1 1.01628 0.997906
1.005 1.00004 1.00712 0.997862
0.998185 1 1 0.998185
1.00145 1 1.00344 0.998018
0.998109 1 1 0.998109
1.00261 1 1.00456 0.998059
0.997932 0.999734 1 0.998197
0.71636 0.875461 0.890514 0.91887
0.75472 0.904982 0.902064 0.924504
0.715022 0.863435 0.89736 0.922833
0.731127 0.914461 0.876159 0.912525
0.833784 0.91607 0.929975 0.978709
0.828145 0.884647 0.9744 0.960725
0.781024 0.884365 0.943342 0.93619
0.831355 0.907176 0.937353 0.977669
0.859476 0.895041 1.00325 0.957158
0.827765 0.923748 0.958278 0.935108
0.688694 0.872346 0.865912 0.911725
0.881966 0.91973 0.977632 0.980881
0.875068 0.905049 1.01033 0.956989
0.760883 0.872251 0.939015 0.928974
0.628645 0.811282 0.857994 0.90313
1.03297 0.999205 1.03548 0.998376
1.00045 0.999877 1.00256 0.998023
1.00254 1 1.00486 0.997693
0.9979 1 1 0.9979
0.946116 0.947419 1.00105 0.997573
1.00041 0.961208 1.04172 0.999097
1.00925 0.999335 1.01185 0.998101
1.02097 0.993897 1.029 0.998286
1.04589 0.986847 1.06109 0.998821
1.01873 0.996831 1.02359 0.99842
1.03836 0.971033 1.07064 0.998779
0.962085 0.945474 1.02241 0.995261
1.01238 0.959693 1.05559 0.999351
1.012 0.976606 1.03738 0.998906
0.948304 0.922671 1.0336 0.994375
0.996219 0.945397 1.05453 0.999267
0.730731 0.859276 0.910293 0.934209
0.770948 0.899359 0.914052 0.937823
0.737172 0.863988 0.912865 0.934662
0.984428 0.952603 1.03361 0.999805
0.9344 0.93414 1.00759 0.992744
0.754448 0.886475 0.909627 0.93562
0.898773 0.925633 1.01414 0.957444
0.773883 0.878669 0.941679 0.935292
0.721568 0.869749 0.898472 0.923376
0.602469 0.777558 0.85747 0.903614
1.00751 0.952974 1.05888 0.998439
0.734932 0.867527 0.908196 0.932792
0.708246 0.861914 0.898367 0.914674
0.903361 0.920182 0.994592 0.987057
0.544353 0.716683 0.841749 0.902343
0.684692 0.805191 0.915613 0.928719
0.859789 0.897446 1.00035 0.957704
0.991762 0.954639 1.04295 0.996102
0.743963 0.888464 0.906398 0.923831
0.592006 0.745981 0.875641 0.906301
0.650808 0.792714 0.874849 0.938434
0.804294 0.863751 0.967189 0.962754
0.855514 0.894468 0.976338 0.97963
1.0369 0.97936 1.05919 0.99959
1.01291 0.971689 1.04297 0.999477
0.979945 0.971532 1.00943 0.999237
1.01441 0.97609 1.03988 0.999402
1.00514 0.985261 1.02133 0.998873
1.00674 1.0008 1.00834 0.997617
1.00751 1.00003 1.01 0.997503
1.02311 1.00089 1.02656 0.995754
1.01123 1.00165 1.01482 0.994827
1.00926 1.00186 1.01185 0.995589
1.00781 1.00272 1.01063 0.994504
1.00246 1.00362 1.00448 0.994389
1.03934 1.04444 1 0.99511
1.02186 1.02603 1.00077 0.995167
1.01017 1.01328 1.00218 0.994763
1.01326 1.01732 1.00013 0.995878
1.00983 1.01351 1.00074 0.995636
1.00579 1.00731 1.00344 0.995074
1.01436 1.01698 1.00112 0.996318
1.0154 1.01814 1.00108 0.996227
1.02212 1.02567 1.00043 0.996111
1.00775 1.00233 1.00811 0.997318
1.00919 1.0074 1.00473 0.997056
1.01819 1.01857 1.00288 0.996762
1.01092 1 1.01248 0.998461
1.01298 1.00112 1.01412 0.99776
1.01155 1.00509 1.00898 0.997474
1.00039 1 1.0006 0.999788
1.00637 1 1.0076 0.998783
1.01091 1 1.01287 0.998063
1.00217 1 1.00318 0.999
0.999898 1 1.00004 0.999861
1 1 1 1
0.999907 1 1 0.999907
1 1 1 1
1 1 1 1
1.01156 1 1.01368 0.997916
1.00466 1 1.00647 0.998203
0.999098 1 1 0.999098
0.999099 1 1.00069 0.998406
0.999955 1 1 0.999955
0.999282 1 1 0.999282
0.998538 1 1 0.998538
1 1 1 1
0.999988 1 1 0.999988
0.999424 1 1 0.999424
1 1 1 1
1 1 1 1
1 1 1 1
0.725832 0.862152 0.905296 0.929954
0.751836 0.887336 0.906863 0.934316
0.735098 0.868671 0.907521 0.932467
1.01608 1 1.01821 0.997912
1.00744 1.00055 1.00902 0.997885
1.00072 1.00056 1.00243 0.997737
1.01616 1 1.01831 0.997888
1.00853 1.00146 1.00921 0.997873
1.00349 1 1.0055 0.997997
0.998478 1 1.00035 0.998125
1.00258 0.999936 1.00459 0.998063
0.998312 1 1.00008 0.998232
1.01976 1 1.02152 0.998277
0.697045 0.851506 0.894595 0.915054
0.714486 0.870886 0.892565 0.919163
0.754826 0.904666 0.900301 0.926767
0.688336 0.872085 0.86531 0.912157
0.825565 0.925813 0.95822 0.9306
0.827328 0.901851 0.939867 0.976061
0.864891 0.897023 1.00216 0.9621
0.871671 0.920991 0.968641 0.97709
0.87979 0.916957 0.996996 0.962358
0.777555 0.874206 0.954058 0.932272
0.63161 0.820883 0.853186 0.901828
0.889618 0.911512 0.996091 0.979811
0.866334 0.892076 1.00834 0.963109
0.677088 0.789424 0.915277 0.937093
0.575784 0.74461 0.851961 0.907635
1.02898 0.999589 1.0305 0.998933
1.033 0.998923 1.03578 0.998385
1.00325 1 1.0052 0.998056
0.96163 0.944666 1.02469 0.993431
1.01371 0.953982 1.06314 0.999505
1.01982 0.999202 1.02224 0.998422
1.04663 0.969963 1.08038 0.998767
1.0158 0.98121 1.03638 0.998912
1.00262 0.954032 1.0517 0.999269
0.948815 0.926602 1.0298 0.99434
1.01078 0.985789 1.02602 0.999345
0.961964 0.947429 1.02004 0.995395
0.751549 0.884089 0.916214 0.927823
0.738571 0.865176 0.913409 0.934593
0.766561 0.89572 0.910635 0.939788
1.00987 0.962427 1.05073 0.998638
0.898754 0.918934 0.995744 0.982219
0.742104 0.873658 0.910614 0.932802
0.863295 0.900089 0.999706 0.959404
0.685484 0.792181 0.924107 0.936377
0.698428 0.85644 0.891667 0.91458
0.554122 0.73798 0.837397 0.896663
0.98931 0.95381 1.04096 0.996407
0.742674 0.882762 0.91068 0.923823
0.590872 0.747746 0.87328 0.90487
0.868691 0.907984 0.974919 0.981337
0.662576 0.799126 0.885756 0.936066
0.80364 0.876121 0.955972 0.959516
0.941398 0.940083 1.00712 0.994316
0.619249 0.763927 0.889433 0.911381
0.669521 0.805343 0.885024 0.939353
0.805677 0.896654 0.936231 0.959739
0.830485 0.896675 0.942908 0.982262
1.01405 0.970286 1.04564 0.999488
0.983531 0.966441 1.01849 0.999209
0.992209 0.98773 1.00614 0.998405
1.00273 0.973874 1.03069 0.998979
1.00424 0.99943 1.00712 0.997712
0.996812 1.00308 0.997211 0.996527
1.02265 1.00083 1.02633 0.995586
1.01007 1.00206 1.01324 0.994823
1.00033 1.00374 1.00137 0.995247
1.00796 1.00243 1.01117 0.994411
1.00248 1.00438 1.0037 0.994428
1.03509 1.04009 0.999824 0.995368
1.06613 1.07172 0.998907 0.995876
1.05125 1.05629 1.00002 0.995211
1.03964 1.04471 1 0.995143
1.02834 1.03302 1 0.995462
1.02072 1.02464 1.00107 0.995108
1.01119 1.0141 1.00244 0.994705
1.02142 1.02552 1 0.995998
1.01176 1.01585 1.00002 0.99595
1.0077 1.01173 1.00032 0.995699
1.00616 1.00732 1.00208 0.996776
1.01112 1.01349 1.0013 0.996375
1.01564 1.0184 1.0011 0.996197
1.01132 1.00024 1.01313 0.997972
1.00997 1.00376 1.00889 0.997317
1.00981 1.00786 1.0048 0.997154
1.00246 1 1.00279 0.99967
1.01059 1.00008 1.01207 0.998457
1.01259 1.00139 1.01344 0.997768
0.999957 1 1 0.999957
1.00111 1 1.00133 0.999774
1.00641 1 1.00764 0.998778
1.00009 1 1.00024 0.999848
1 1 1 1
1 1 1 1
1.00837 1.00176 1.00887 0.997741
1.01073 1 1.01275 0.998
1.01329 1 1.01543 0.997889
1.00086 1 1.00196 0.998898
1.00383 1 1.00565 0.998199
0.999914 1 1 0.999914
0.999257 1 1.00015 0.999103
0.999129 1 1.00073 0.998401
1 1 1 1
0.999964 1 1 0.999964
0.999285 1 1 0.999285
1 1 1 1
0.999993 1 1 0.999993
1 1 1 1
0.734651 0.872873 0.90713 0.927812
0.729776 0.865718 0.906455 0.929966
0.752801 0.882406 0.912243 0.935194
1.00108 1.003 1.00045 0.997633
1.01371 1 1.01582 0.997918
1.00473 1 1.00683 0.997911
1.01012 1 1.0123 0.997849
1.00152 1.00131 1.00244 0.997767
1.00434 1.00003 1.00626 0.998063
1.01432 1.00124 1.01585 0.997259
1.01826 0.99904 1.02119 0.998082
1.00286 0.999895 1.00491 0.998068
0.998267 1 1 0.998267
1.02127 0.999694 1.02336 0.998261
1.03789 1.00163 1.03778 0.998482
0.609027 0.75801 0.884959 0.907902
0.711189 0.86588 0.897963 0.914678
0.715019 0.869596 0.894336 0.919389
0.634354 0.821275 0.851507 0.907098
0.77065 0.869701 0.951895 0.930889
0.878094 0.908346 1.01004 0.957083
0.87334 0.917224 0.973753 0.97782
0.889039 0.912567 0.992077 0.981999
0.565487 0.740477 0.846608 0.902047
0.855841 0.894716 0.997863 0.9586
0.684775 0.800744 0.918205 0.931354
0.887413 0.919396 0.981002 0.983905
0.831576 0.886 0.972769 0.964847
0.651381 0.791134 0.878669 0.937043
0.991747 1.0011 0.991131 0.999526
1.03014 1.00031 1.03092 0.998939
1.03238 0.99954 1.03452 0.998392
0.951609 0.930994 1.02793 0.994374
1.01017 0.964122 1.04853 0.999273
1.02093 0.988527 1.03389 0.998919
1.00857 0.984263 1.02536 0.999344
0.957989 0.946468 1.0168 0.995448
0.983764 0.979362 1.00747 0.997043
0.65654 0.782226 0.916492 0.9158
0.747593 0.882227 0.911299 0.929873
0.741476 0.869133 0.912485 0.934942
0.990342 0.953877 1.04177 0.996596
0.862063 0.906166 0.968548 0.982224
0.739796 0.876842 0.913193 0.923906
0.819236 0.874198 0.976353 0.959826
0.666826 0.816018 0.877996 0.930721
0.605953 0.764364 0.871825 0.909305
0.939172 0.932922 1.0124 0.994368
0.626676 0.765055 0.89435 0.915889
0.658459 0.803518 0.87786 0.933487
0.826538 0.900096 0.938677 0.978268
0.83006 0.913716 0.941477 0.964913
0.93331 0.950781 0.984205 0.997379
0.690398 0.816071 0.907693 0.932037
0.876361 0.963907 0.940193 0.967009
0.828032 0.912205 0.928196 0.977946
0.986668 0.962444 1.026 0.999186
0.981756 0.987368 0.995819 0.998491
0.993652 1.00049 0.995779 0.99738
1.00178 0.998447 1.00554 0.997808
0.998575 1.00313 0.998968 0.996489
1.00092 1.00662 0.997934 0.996396
1.00949 1.00294 1.01177 0.99482
1.00018 1.00328 1.00167 0.995248
1.03352 1.04246 0.995081 0.996331
1.00258 1.00495 1.00319 0.994468
1.03355 1.03877 0.999596 0.995376
1.06454 1.07333 0.995264 0.996536
1.06248 1.07049 0.995863 0.996646
1.06774 1.07256 0.999709 0.995788
1.06738 1.073 0.998828 0.995926
1.05498 1.05982 1 0.995442
1.04923 1.0542 1 0.995285
1.03864 1.04367 1 0.995176
1.04044 1.04489 1 0.995737
1.0292 1.03373 1.00014 0.995483
1.01944 1.023 1.00148 0.995049
1.01864 1.02241 1 0.996312
1.01915 1.02324 1 0.995995
1.00998 1.01401 1 0.996022
1.00531 1.00204 1.00579 0.99749
1.00864 1.00955 1.00234 0.996767
1.00779 1.00973 1.00165 0.996432
1.00362 1 1.0042 0.999421
1.00988 1.00092 1.01101 0.997969
1.01164 1.00545 1.00887 0.997315
1 1 1 1
1.003 1 1.00339 0.999613
1.00936 1 1.01093 0.998453
1 1 1 1
1.00159 1 1.00184 0.999751
1 1 1 1
1.00328 1.00392 1.00185 0.997521
1.00683 1.00099 1.00814 0.997709
1.01121 1.00005 1.01336 0.997833
1.00575 1 1.00707 0.998698
1.01238 1 1.01441 0.997997
1.0177 1 1.01988 0.997863
0.999853 1 1 0.999853
1.00032 1 1.00142 0.998903
1.00463 1 1.00644 0.998194
1 1 1 1
0.999926 1 1 0.999926
0.999212 1 1.0001 0.999108
1 1 1 1
0.999973 1 1 0.999973
1 1 1 1
0.62929 0.769739 0.899716 0.908661
0.738885 0.877419 0.907565 0.92788
0.733941 0.869941 0.907181 0.929989
1.00457 1.00173 1.00524 0.997602
1.01102 1.006 1.00783 0.997195
1.01505 1.00199 1.01563 0.997442
1.00968 1 1.01189 0.997809
1.00322 1.00327 1.00216 0.997798
1.00533 1 1.0071 0.998246
1.01791 0.99973 1.02022 0.998003
1.01515 1.00202 1.01574 0.997407
1.01869 1.00224 1.01897 0.997493
0.978833 1.00172 0.978164 0.998965
1.02035 0.999897 1.02225 0.998244
1.03266 1.0005 1.03375 0.998451
0.666663 0.804067 0.891518 0.930003
0.58703 0.737642 0.880054 0.904285
0.720401 0.873945 0.901333 0.914544
0.556336 0.737307 0.841881 0.896269
0.696907 0.81207 0.915585 0.937309
0.843654 0.887701 0.989837 0.960139
0.889923 0.913036 0.995564 0.979029
0.874138 0.910815 0.978145 0.981175
0.659787 0.790623 0.892393 0.935143
0.811474 0.878678 0.961908 0.960089
0.852087 0.914069 0.948238 0.983078
0.80191 0.907974 0.919564 0.96044
0.997028 1 0.997992 0.999034
0.991761 1.00058 0.991708 0.999474
1.03131 0.999717 1.03269 0.998945
0.949427 0.941071 1.01343 0.995514
1.00456 0.981117 1.02457 0.999344
0.985496 0.981859 1.00673 0.996999
0.968243 0.98709 0.984985 0.99586
0.711141 0.828678 0.914225 0.938678
0.652092 0.779414 0.913476 0.915892
0.750094 0.884539 0.910032 0.931842
0.941529 0.939243 1.0079 0.994581
0.829421 0.89712 0.944715 0.978642
0.627818 0.764659 0.896398 0.915937
0.796017 0.897613 0.923704 0.960064
0.674552 0.805786 0.891161 0.939376
0.934801 0.954744 0.983121 0.995922
0.701031 0.825833 0.906924 0.935997
0.860969 0.957906 0.935464 0.96081
0.828336 0.912605 0.92546 0.980768
0.944547 0.976985 0.969588 0.997123
0.891665 0.976891 0.94467 0.966219
0.883968 0.963216 0.932543 0.984111
0.971313 0.985911 0.986618 0.998557
0.98781 1.00041 0.990031 0.997348
0.984186 1.00911 0.978088 0.997154
0.999785 1.00294 1.0004 0.996454
1.00059 1.00642 0.997814 0.996386
1.02503 1.04831 0.980651 0.997085
0.999667 1.00257 1.00186 0.99525
1.03096 1.04123 0.993806 0.996306
1.04824 1.07282 0.979872 0.997154
1.03282 1.03826 0.999373 0.995384
1.06292 1.07269 0.994354 0.996526
1.05332 1.07122 0.986104 0.997154
1.05672 1.06924 0.991231 0.997038
1.06316 1.07167 0.995326 0.996723
1.06204 1.06736 0.998508 0.996495
1.06878 1.07323 1 0.995849
1.06797 1.0727 0.999778 0.995816
1.06941 1.07512 0.998712 0.995977
1.05814 1.06277 1 0.995645
1.05658 1.06139 1 0.995468
1.04747 1.05235 1 0.995358
1.0398 1.04397 1 0.996007
1.04068 1.04513 1 0.995736
1.03019 1.03466 1.00017 0.995505
1.00461 1.007 1.00052 0.997105
1.01934 1.02311 1 0.996313
1.01741 1.0215 1 0.995993
1.00276 1 1.00366 0.999105
1.00684 1.00347 1.00589 0.997486
1.01116 1.01141 1.003 0.996759
1 1 1 1
1.00384 1 1.00444 0.999396
1.0096 1.0016 1.01004 0.997965
0.999966 1 1 0.999966
1.0039 1 1.00431 0.999601
1 1 1 1
1.00255 1.00526 1 0.997303
1.00236 1.00194 1.00289 0.997535
1.00588 1.00036 1.00787 0.997667
1.00389 1 1.00623 0.997677
1.01119 1.00014 1.01324 0.997836
1.00973 1 1.01126 0.998487
1.00065 1 1.00089 0.999762
1.00456 1 1.00587 0.998698
1.01183 1 1.01387 0.997994
1 1 1 1
0.99987 1 1 0.99987
0.999777 1 1.00087 0.998909
1 1 1 1
0.999939 1 1 0.999939
1 1 1 1
0.691533 0.818005 0.903395 0.935792
0.631372 0.76943 0.901433 0.910296
0.740191 0.879499 0.906946 0.927956
1.00744 1.00067 1.00921 0.997572
1.01885 1.00131 1.02037 0.997214
1.00819 1.0051 1.00584 0.997255
1.00805 1.00955 1.00228 0.996239
1.01844 1.00313 1.01787 0.997435
1.01585 1 1.01795 0.997931
1.01374 1.00171 1.0145 0.997554
1.01954 1.00197 1.01998 0.997608
0.99977 1.00597 0.996598 0.997229
0.970349 1.00116 0.970718 0.99846
0.970879 1.00035 0.972805 0.99767
0.983551 1.00152 0.983058 0.998988
1.0284 1.00101 1.02899 0.998421
0.855282 0.948586 0.934817 0.96451
0.658153 0.797454 0.885525 0.93201
0.58047 0.731946 0.875189 0.906147
0.659477 0.799785 0.886709 0.929919
0.817522 0.886082 0.959472 0.961597
0.880808 0.909002 0.984801 0.983938
0.850551 0.911867 0.946874 0.985092
0.839273 0.919623 0.94463 0.966121
0.871498 0.955581 0.926682 0.984165
0.991872 1.00132 0.992334 0.998218
0.99721 0.999962 0.998237 0.999009
0.991541 1.00026 0.99186 0.999424
0.988935 0.986131 1.00585 0.997013
0.976152 0.989716 0.98988 0.996377
0.876844 0.966453 0.941625 0.963526
0.712228 0.827199 0.916477 0.93948
0.646232 0.774325 0.911067 0.916042
0.937639 0.961568 0.980636 0.994369
0.836073 0.924162 0.924844 0.978201
0.693231 0.820835 0.903119 0.93514
0.856461 0.947479 0.935463 0.966298
0.952772 0.978197 0.97672 0.997224
0.901226 0.986294 0.94541 0.966512
0.881314 0.959913 0.935711 0.981199
0.953448 1.00235 0.954514 0.996538
0.919378 0.990459 0.938542 0.989018
0.986097 1.00218 0.98657 0.997344
0.979442 1.00898 0.973537 0.997109
0.98927 1.04209 0.951731 0.997462
0.999991 1.00606 0.997578 0.996375
1.02774 1.04983 0.981855 0.997052
1.04227 1.07876 0.968636 0.99746
1.02821 1.03988 0.992468 0.996282
1.04844 1.07291 0.980006 0.997127
1.04096 1.07134 0.974188 0.997387
1.06052 1.07127 0.993428 0.996516
1.05298 1.07074 0.986239 0.997132
1.05209 1.07324 0.983012 0.997232
1.05514 1.06866 0.990225 0.997095
1.05677 1.06777 0.992832 0.996848
1.06347 1.07244 0.99482 0.9968
1.06213 1.06732 0.998641 0.996487
1.06289 1.06725 0.999653 0.996257
1.06604 1.07052 1 0.995819
1.06862 1.07309 1 0.995837
1.06812 1.07271 0.999876 0.995845
1.05481 1.05921 1 0.995849
1.05923 1.06387 1 0.995641
1.05837 1.06316 1 0.995494
1.01586 1.01911 1 0.996803
1.03833 1.04249 1 0.99601
1.04044 1.04489 1 0.995734
1.0005 1 1.00176 0.998745
1.00819 1.01031 1.0008 0.997107
1.02006 1.02383 1 0.996314
1 1 1 1
1.00223 1 1.00316 0.999078
1.0082 1.00524 1.00548 0.997483
1 1 1 1
1.00364 1 1.00428 0.999371
1 1 1 1
1.01739 1.02036 1.00072 0.996365
1.00415 1.00664 1.00023 0.997291
1.00223 1.00236 1.00251 0.997369
1.00231 1.00003 1.00474 0.997549
1.00536 1.00017 1.00758 0.997628
1.00964 1.00055 1.01091 0.998196
1.01356 1 1.01576 0.997839
1.01068 1 1.01222 0.998484
1.00348 1 1.00385 0.999632
1 1 1 1
1.00046 1 1.00068 0.999777
1.0045 1 1.00581 0.998699
1 1 1 1
0.999883 1 1 0.999883
1 1 1 1
0.892556 0.975355 0.945059 0.96831
0.701355 0.827672 0.90448 0.936872
0.629345 0.76872 0.901774 0.907869
1.02246 1.00068 1.02485 0.996986
1.0056 1.00463 1.00366 0.997316
1.01528 1.00295 1.01501 0.997319
1.00836 1.00991 1.00213 0.996342
1.02832 1.0323 1.00016 0.995974
1.00224 1.00593 0.99939 0.996937
1.0222 1.00218 1.02231 0.997719
1.00096 1.00714 0.996815 0.997036
0.977959 1.00256 0.976984 0.998443
0.996318 1.00356 0.995484 0.997285
0.972746 1.00345 0.971707 0.997628
0.992877 1.00156 0.994141 0.997173
0.971372 1.00082 0.972746 0.997771
0.987722 1.00022 0.988479 0.999011
0.885383 0.967589 0.929869 0.984054
0.864593 0.959306 0.934977 0.963949
0.6715 0.798055 0.896776 0.938273
0.815209 0.909064 0.934305 0.959811
0.863295 0.91441 0.957349 0.986162
0.874122 0.945742 0.9351 0.988421
0.965396 1.00377 0.964935 0.996723
0.989237 1.00038 0.990716 0.998124
0.996844 0.999428 0.998428 0.998985
0.978463 0.99063 0.990811 0.996878
0.910927 0.973146 0.950633 0.984675
0.889556 0.973058 0.942953 0.969493
0.702382 0.822882 0.913778 0.934104
0.9506 0.973529 0.979057 0.997335
0.884749 0.964794 0.932928 0.982963
0.900589 0.985165 0.945726 0.966613
0.948594 1.00005 0.951737 0.996645
0.922506 0.987362 0.945584 0.988081
0.953255 1.02543 0.93255 0.996854
0.968226 1.022 0.951828 0.995331
0.973065 1.00882 0.967402 0.997056
0.986181 1.03932 0.951287 0.997461
1.00791 1.07708 0.938193 0.997427
1.03128 1.05202 0.983217 0.997018
1.0414 1.07814 0.968401 0.997436
1.04704 1.07916 0.972822 0.997337
1.04914 1.07336 0.980278 0.997099
1.04213 1.07108 0.975536 0.997367
1.05682 1.08068 0.980677 0.997192
1.05296 1.07057 0.986401 0.997109
1.0506 1.071 0.983682 0.997226
1.05643 1.07375 0.986871 0.996956
1.05381 1.06833 0.989227 0.997152
1.05637 1.06763 0.992542 0.996894
1.06171 1.06875 0.996892 0.996514
1.06229 1.06739 0.998737 0.996479
1.06341 1.06771 0.999731 0.996246
1.06555 1.06977 0.999973 0.996079
1.05951 1.06392 1 0.995861
1.06633 1.07083 1 0.995799
1.06839 1.07287 1 0.995824
1.03093 1.03445 1 0.996598
1.05356 1.05795 1 0.995856
1.0604 1.06505 1 0.995637
1.00014 1.00141 1.00027 0.998458
1.01738 1.02064 1.00001 0.996802
1.037 1.04115 1 0.996012
1 1 1 1
1.00032 1.00031 1.00129 0.998725
1.01166 1.01351 1.00108 0.997109
1 1 1 1
1.00191 1 1.00286 0.999054
1 1 1 1
1.03396 1.03811 1 0.996006
1.01902 1.02227 1.00042 0.996397
1.0153 1.01777 1.00085 0.996725
1.00567 1.00792 1.00049 0.997278
1.00258 1.00291 1.00237 0.997304
1.00788 1.00444 1.00562 0.997812
1.00399 1 1.00642 0.997589
1.00962 1.00034 1.01109 0.998198
1.00448 1 1.00503 0.999456
1.01031 1 1.01185 0.998482
1.00237 1 1.00273 0.999643
1 1 1 1
1 1 1 1
1.00004 1 1.00024 0.999793
1 1 1 1
0.903754 0.968004 0.947696 0.985154
0.88122 0.972158 0.941495 0.962786
0.702655 0.820649 0.910687 0.94019
1.05052 1.05475 1.00007 0.995931
1.01169 1.00214 1.01236 0.997206
1.00934 1.01099 1.00193 0.996445
1.00287 1.0063 0.999643 0.99695
1.02671 1.03044 1.00042 0.995955
1.01263 1.01612 0.999645 0.996926
1.00186 1.00702 0.998028 0.996843
0.982869 1.00279 0.981679 0.998425
0.994474 1.0042 0.993001 0.997299
0.965998 1.00246 0.966064 0.997478
1.01628 1.01924 1.00053 0.996569
0.988261 1.00748 0.983621 0.997253
0.991546 1.00217 0.992225 0.997153
0.973551 1.00134 0.974326 0.997871
0.957346 1.00589 0.954329 0.997285
0.87668 0.961505 0.928031 0.982488
0.861368 0.96085 0.930233 0.963699
0.872976 0.93894 0.942952 0.985995
0.968283 1.00438 0.966228 0.997758
0.989319 1.00012 0.991161 0.998019
0.97042 1.00874 0.967466 0.994366
0.899886 0.956776 0.95383 0.986066
0.877571 0.97194 0.93694 0.963676
0.948958 0.997957 0.954003 0.996748
0.930265 0.989556 0.952527 0.986937
0.956625 1.02728 0.933998 0.997027
0.973839 1.02262 0.956422 0.995686
0.990829 1.05234 0.944179 0.997217
1.05619 1.09385 0.968368 0.997112
0.98221 1.03584 0.950637 0.997459
1.01442 1.07868 0.942869 0.997409
1.03909 1.09448 0.952067 0.997188
1.04001 1.07706 0.96811 0.997412
1.04323 1.07689 0.971336 0.997334
1.0579 1.08927 0.974051 0.997073
1.04299 1.0706 0.976795 0.997348
1.0544 1.07882 0.980104 0.997206
1.06022 1.07927 0.9854 0.996905
1.04904 1.06869 0.984354 0.99722
1.05677 1.07408 0.986895 0.996953
1.06139 1.0732 0.992329 0.996642
1.05587 1.06738 0.99225 0.99694
1.06205 1.0691 0.996829 0.99656
1.06764 1.07201 0.999692 0.996229
1.06396 1.06817 0.999828 0.996236
1.06538 1.0696 0.999983 0.996071
1.0614 1.06572 1 0.995948
1.03877 1.04241 1 0.996507
1.05942 1.06382 1 0.99586
1.06663 1.07115 1 0.995779
1.00563 1.00732 1 0.998325
1.02973 1.03324 1 0.996598
1.05249 1.05687 1 0.995863
1 1 1 1
1.0017 1.00316 1.0001 0.998442
1.01885 1.02212 1 0.996802
1 1 1 1
0.999987 1.00059 1.00069 0.998705
1 1 1 1
1.04967 1.05409 1 0.995807
1.03473 1.03889 1 0.995999
1.0345 1.03835 1 0.996294
1.02068 1.02414 1.00019 0.996429
1.01766 1.0203 1.00072 0.996702
1.01259 1.01256 1.00261 0.997437
1.00238 1.00299 1.00216 0.99724
1.00666 1.00247 1.00638 0.997815
1.00247 1 1.00323 0.999236
1.01005 1 1.01188 0.998198
1.00389 1 1.00442 0.999469
1 1 1 1
1.00169 1 1.00204 0.999654
1 1 1 1
1 1 1 1
0.96372 1.01057 0.956697 0.996808
0.897013 0.967026 0.944601 0.982002
0.88074 0.968222 0.939076 0.968661
1.04382 1.04749 1.00001 0.99649
1.06068 1.06583 0.998998 0.996161
1.0488 1.05291 1.00008 0.99602
1.00372 1.0071 0.999681 0.996961
1.02472 1.02815 1.00073 0.995934
1.01546 1.01978 0.998842 0.996916
1.04001 1.05088 0.993136 0.996498
0.993854 1.00565 0.990933 0.997313
0.96174 1.00189 0.962499 0.997328
1.01797 1.02222 0.99914 0.996699
1.02574 1.04956 0.980769 0.996464
0.990459 1.02908 0.964976 0.997408
0.995923 1.01028 0.988571 0.99719
0.992973 1.0027 0.99315 0.997131
0.959278 1.00736 0.954535 0.997622
0.883225 0.965785 0.932351 0.98087
0.96849 1.00393 0.965828 0.998831
1.03612 1.07085 0.969823 0.997669
0.967759 1.00719 0.96614 0.994521
0.902892 0.965237 0.950975 0.983632
0.959582 1.02958 0.934642 0.997188
0.978347 1.02292 0.960209 0.996061
0.984943 1.05263 0.938134 0.997405
1.05319 1.09301 0.966337 0.997138
1.05195 1.10558 0.954226 0.99713
1.09543 1.13112 0.971077 0.997285
1.02104 1.08131 0.946735 0.99739
1.04544 1.09722 0.955495 0.997188
1.05979 1.09885 0.967362 0.996991
1.03948 1.07474 0.969783 0.99733
1.05783 1.08857 0.974614 0.997074
1.05968 1.08433 0.980331 0.996874
1.05202 1.077 0.979534 0.99722
1.06108 1.08009 0.985455 0.996902
1.06275 1.07732 0.989784 0.996654
1.05714 1.07443 0.986915 0.996951
1.06209 1.07388 0.992353 0.996639
1.07022 1.07608 0.99825 0.996304
1.06235 1.06945 0.996743 0.996607
1.06724 1.07163 0.999661 0.996242
1.06562 1.06992 1 0.995989
1.0652 1.06941 1 0.996063
1.0612 1.06551 1 0.995956
1.03939 1.04306 1 0.996474
1.01079 1.0125 1 0.998308
1.03822 1.04186 1 0.996508
1.05928 1.06368 1 0.995859
1 1 1 1
1.00706 1.00876 1 0.998313
1.02825 1.03176 1 0.996598
1 1 1 1
1.00307 1.00465 1 0.998427
1 1 1 1
1.05993 1.06429 1 0.995903
1.04905 1.05346 1 0.995816
1.0488 1.05296 1 0.996043
1.0346 1.03876 1 0.995991
1.0352 1.03905 1 0.996296
1.01908 1.0216 1.00042 0.997109
1.01968 1.02243 1.00063 0.996679
1.00967 1.00945 1.00278 0.997439
1.00047 1.00004 1.0015 0.998932
1.006 1.0009 1.00728 0.99782
1.00297 1 1.00372 0.999254
1 1 1 1
1.00332 1 1.00384 0.999483
1 1 1 1
1 1 1 1
0.996955 1.05174 0.950022 0.997776
0.960976 1.00933 0.95619 0.995711
0.899305 0.969206 0.944114 0.982803
1.05461 1.06244 0.996211 0.996402
1.0442 1.04778 0.999876 0.996708
1.07173 1.08003 0.995986 0.996317
1.06053 1.06642 0.998328 0.996142
1.04696 1.05099 1.00005 0.996111
1.06294 1.08357 0.984604 0.996305
1.01824 1.02352 0.997929 0.996905
1.03902 1.04921 0.993823 0.996436
1.04881 1.08962 0.96582 0.996614
1.01572 1.02493 0.994166 0.996829
1.02689 1.05038 0.981187 0.996379
0.990057 1.03349 0.960423 0.997451
1.00042 1.01122 0.992179 0.997122
0.961363 1.00843 0.95532 0.997915
1.08288 1.12207 0.967672 0.99732
1.04198 1.07293 0.9734 0.997695
0.966592 1.00581 0.966152 0.99468
0.979871 1.05244 0.933294 0.99759
1.05061 1.09234 0.964532 0.997165
1.04618 1.10286 0.951314 0.997153
1.10104 1.13579 0.972053 0.997281
1.07775 1.11386 0.970333 0.997167
1.05151 1.09947 0.959076 0.997188
1.06073 1.09793 0.969022 0.997002
1.06002 1.0885 0.976847 0.996918
1.0578 1.08785 0.975231 0.997075
1.06021 1.08446 0.980723 0.996855
1.06219 1.07904 0.987694 0.996646
1.06196 1.08091 0.985519 0.996898
1.06308 1.07765 0.989791 0.996649
1.07181 1.0804 0.995684 0.996355
1.06276 1.07454 0.992377 0.996637
1.06996 1.07583 0.998235 0.996305
1.07092 1.0752 1 0.996016
1.06688 1.07129 0.999625 0.996254
1.06519 1.06947 1 0.995996
1.04003 1.04375 1 0.996431
1.06093 1.06523 1 0.995964
1.04008 1.04376 1 0.996475
1.01192 1.0133 1 0.998634
0.999426 1 1 0.999426
1.01123 1.01281 1 0.998444
1.03769 1.04132 1 0.996508
1 1 1 1
1.00884 1.01056 1 0.998302
1 1 1 1
1.07446 1.0823 0.996313 0.996432
1.06605 1.07064 0.999567 0.996141
1.06044 1.06494 0.999848 0.995925
1.05338 1.05764 1 0.995975
1.04928 1.05368 1 0.995825
1.04857 1.05274 1 0.996035
1.02278 1.02604 1 0.996823
1.03637 1.04022 1 0.996299
1.01675 1.01911 1.00059 0.997109
1.00095 1.00225 1.00012 0.998586
1.00638 1.00612 1.00282 0.997442
1.001 1.00011 1.00193 0.998951
1 1 1 1
1.00318 1 1.00391 0.999274
1 1 1 1
1 1 1 1
1.06995 1.11564 0.96187 0.997061
1.00579 1.06188 0.949279 0.99779
0.958205 1.0096 0.954208 0.994636
1.06539 1.08078 0.989362 0.996357
1.05026 1.05844 0.995813 0.996446
1.04452 1.04798 0.999775 0.996924
1.0703 1.07792 0.996586 0.99633
1.06051 1.06701 0.997784 0.996122
1.06861 1.10281 0.972308 0.996593
1.05828 1.07947 0.984047 0.996263
1.03841 1.0478 0.994643 0.996373
1.04464 1.0852 0.965896 0.996614
1.03244 1.05412 0.983074 0.996294
0.993074 1.04263 0.954855 0.997503
1.07431 1.10515 0.974756 0.997274
1.08433 1.12354 0.967652 0.997358
1.04693 1.07517 0.975961 0.997721
1.04098 1.10071 0.948419 0.997172
1.10685 1.14053 0.973117 0.997276
1.07887 1.11572 0.96971 0.997171
1.06686 1.08959 0.98205 0.997038
1.06158 1.09696 0.970649 0.997012
1.06064 1.08836 0.977558 0.996902
1.06314 1.08021 0.987463 0.996694
1.06078 1.08465 0.9811 0.996835
1.06278 1.07962 0.987721 0.996645
1.07174 1.08263 0.99354 0.996384
1.06345 1.07803 0.989799 0.996645
1.07139 1.07999 0.995671 0.996354
1.07412 1.0785 0.999905 0.996033
1.06969 1.07557 0.998215 0.996306
1.071 1.07528 1 0.996021
1.04109 1.04489 1 0.996364
1.06474 1.06901 1 0.996003
1.04142 1.04515 1 0.996433
1.01081 1.01217 1 0.998653
1.04091 1.0446 1 0.996475
1.01163 1.01302 1 0.998627
0.999457 1 1 0.999457
0.999727 1 1 0.999727
1.01171 1.01313 1 0.998593
1 1 1 1
1.06585 1.07947 0.990908 0.996448
1.06914 1.07428 0.998963 0.996243
1.0724 1.08084 0.995614 0.996563
1.06214 1.0664 1 0.996
1.06838 1.07285 0.999707 0.996132
1.06077 1.06551 0.99961 0.995947
1.05387 1.05814 1 0.995964
1.03338 1.03688 1 0.996629
1.04871 1.05289 1 0.996028
1.02507 1.02833 1 0.996824
1.00665 1.00829 1 0.998378
1.01493 1.01734 1.00052 0.997109
1.00074 1.00159 1.00054 0.998608
1 1 1 1
1.00145 1 1.00248 0.998971
1 1 1 1
1 1 1 1
1.06765 1.10082 0.97284 0.996947
1.06225 1.10701 0.962395 0.997062
1.01279 1.06873 0.949756 0.997796
1.06566 1.08903 0.98195 0.996525
1.06265 1.07823 0.989162 0.996354
1.04578 1.05433 0.995389 0.996492
1.06859 1.07569 0.997038 0.996344
1.06761 1.10105 0.972964 0.996569
1.05297 1.07462 0.98357 0.996221
1.03541 1.07497 0.966478 0.996614
1.07026 1.09189 0.983038 0.997103
1.07305 1.10345 0.975149 0.997232
1.08549 1.12457 0.967766 0.997396
1.06575 1.08311 0.986991 0.996944
1.07978 1.11752 0.968969 0.997175
1.06654 1.08938 0.981962 0.997024
1.06499 1.08061 0.988703 0.996807
1.06129 1.0882 0.978317 0.996886
1.06333 1.08043 0.987438 0.996696
1.07153 1.08246 0.993469 0.996412
1.06333 1.08015 0.987749 0.996644
1.07145 1.0823 0.993567 0.996383
1.07515 1.07988 0.999556 0.996056
1.07088 1.07948 0.995661 0.996353
1.07491 1.07932 0.999878 0.996036
1.04018 1.04404 1 0.996301
1.07105 1.07532 1 0.996026
1.04233 1.04613 1 0.996367
1.00893 1.01032 1 0.998627
1.04285 1.04658 1 0.996435
1.01026 1.01164 1 0.998639
0.999458 1 1 0.999458
1.01127 1.01266 1 0.998624
0.999471 1 1 0.999471
1 1 1 1
1.06392 1.07949 0.989175 0.996358
1.07019 1.07829 0.996223 0.996253
1.06772 1.08084 0.991388 0.996446
1.06991 1.07413 1 0.996073
1.06993 1.07581 0.998234 0.996294
1.07056 1.07952 0.994996 0.996692
1.04363 1.04728 1 0.996512
1.06224 1.06652 1 0.995989
1.07083 1.07508 0.999927 0.996122
1.05431 1.0586 1 0.995953
1.03414 1.03764 1 0.996629
1.01206 1.01376 1 0.998324
1.0261 1.02937 1 0.996825
1.00458 1.0062 1 0.998395
1 1 1 1
1.00043 1.00087 1.00093 0.998628
1 1 1 1
1 1 1 1
1.06619 1.08826 0.982832 0.996832
1.06827 1.10201 0.972379 0.996925
1.05756 1.10199 0.96251 0.997063
1.06535 1.08866 0.981987 0.996542
1.05979 1.07553 0.988966 0.99635
1.06801 1.10084 0.973537 0.996544
1.06781 1.08458 0.987554 0.996942
1.07022 1.09176 0.983123 0.997098
1.07175 1.10174 0.975522 0.997189
1.06605 1.08313 0.987226 0.996965
1.06379 1.07726 0.990702 0.996767
1.06619 1.08916 0.981844 0.997009
1.06545 1.08057 0.9892 0.996768
1.07078 1.0813 0.993746 0.996505
1.06357 1.08069 0.987415 0.996699
1.07134 1.08227 0.993463 0.996414
1.07484 1.07989 0.999248 0.996074
1.07125 1.08208 0.993587 0.996383
1.07572 1.08054 0.999482 0.996057
1.03757 1.04146 1 0.996267
1.07582 1.08026 0.99985 0.996039
1.04077 1.04463 1 0.996304
1.00641 1.00785 1 0.998573
1.04362 1.04742 1 0.99637
1.00817 1.00958 1 0.998606
0.999432 1 1 0.999432
1.00971 1.0111 1 0.998628
0.999485 1 1 0.999485
0.99948 1 1 0.99948
1.0656 1.08096 0.989131 0.996624
1.07132 1.08092 0.994892 0.996209
1.0636 1.0804 0.988026 0.996384
1.07408 1.07888 0.99945 0.996094
1.07016 1.07785 0.99661 0.996238
1.06947 1.08212 0.991835 0.996445
1.04527 1.04901 1 0.996439
1.06958 1.07406 0.999755 0.996074
1.07066 1.07737 0.997422 0.996346
1.01271 1.0144 1 0.998335
1.04258 1.04623 1 0.996512
1.06246 1.06676 1 0.995977
1.0351 1.0386 1 0.996629
1.01068 1.01236 1 0.998335
1 1 1 1
1.00299 1.00458 1 0.998412
1 1 1 1
1 1 1 1
1.06508 1.08151 0.987937 0.996832
1.06654 1.08845 0.982994 0.996822
1.06816 1.1024 0.971952 0.996903
1.06524 1.08841 0.982087 0.996559
1.06497 1.07621 0.99281 0.996725
1.06783 1.08473 0.987429 0.996953
1.07026 1.09166 0.983256 0.997093
1.06638 1.08316 0.987487 0.996985
1.06395 1.07771 0.990422 0.996777
1.07167 1.08082 0.99503 0.996486
1.06592 1.08052 0.989724 0.99673
1.07165 1.08148 0.994438 0.996451
1.07318 1.07884 0.998594 0.996152
1.07117 1.0821 0.993461 0.996417
1.07461 1.07973 0.999175 0.996076
1.03506 1.03896 1 0.996246
1.07606 1.08096 0.999411 0.996059
1.03772 1.04161 1 0.996269
1.00374 1.00551 1 0.998237
1.04125 1.04511 1 0.996307
1.00553 1.00712 1 0.998417
1 1 1 1
1.00741 1.00884 1 0.998588
0.999465 1 1 0.999465
0.999504 1 1 0.999504
1.06498 1.07748 0.991653 0.996725
1.07125 1.08133 0.994311 0.996349
1.06598 1.08045 0.989958 0.996616
1.07406 1.0794 0.999007 0.996038
1.07084 1.08053 0.994802 0.99621
1.06335 1.08137 0.986882 0.996409
1.04266 1.0465 1 0.99633
1.07379 1.07861 0.999429 0.996095
1.07019 1.07743 0.997046 0.996224
1.00991 1.01158 1 0.998354
1.04377 1.04752 1 0.996415
1.069 1.07368 0.999564 0.996075
1 1 1 1
1.01299 1.01467 1 0.998345
1.04145 1.04509 1 0.996512
1.00918 1.01085 1 0.998347
1 1 1 1
1 1 1 1
1.06374 1.07453 0.993201 0.99673
1.06566 1.08172 0.988286 0.996838
1.06673 1.08854 0.983106 0.996811
1.07255 1.08047 0.996231 0.996426
1.06426 1.07596 0.992367 0.996736
1.06784 1.08489 0.987283 0.996964
1.06406 1.07816 0.990102 0.996787
1.07152 1.08077 0.994942 0.996487
1.07241 1.07786 0.998768 0.996169
1.07243 1.08159 0.995118 0.996398
1.07335 1.07871 0.998906 0.996118
1.03294 1.03684 1 0.996232
1.07444 1.07965 0.9991 0.996078
1.03534 1.03924 1 0.996247
1.00203 1.00382 1 0.99822
1.0381 1.04199 1 0.996271
1.00324 1.00501 1 0.998236
1 1 1 1
1.00468 1.00645 1 0.998236
0.999706 1 1 0.999706
0.999494 1 1 0.999494
1.06196 1.07278 0.993205 0.996689
1.0725 1.08053 0.996128 0.996431
1.06459 1.07689 0.991816 0.996733
1.07376 1.07854 0.999534 0.996032
1.07201 1.08187 0.994528 0.996335
1.06629 1.07986 0.990791 0.996609
1.03821 1.04211 1 0.996265
1.07394 1.07883 0.999437 0.996027
1.07037 1.08016 0.994702 0.996211
1.00659 1.00827 1 0.99833
1.04192 1.04577 1 0.99632
1.07342 1.07832 0.999356 0.996096
1 1 1 1
1.0109 1.01256 1 0.998362
1.04255 1.04632 1 0.99639
1 1 1 1
1.01331 1.01498 1 0.998356
1 1 1 1
1.07276 1.08029 0.996553 0.996463
1.06321 1.07406 0.993155 0.996716
1.06621 1.08184 0.988672 0.996844
1.07182 1.07708 0.998952 0.996164
1.07204 1.08031 0.995881 0.996445
1.06355 1.07571 0.991923 0.996747
1.07139 1.08072 0.994867 0.996487
1.07195 1.07746 0.998714 0.99617
1.03059 1.03448 1 0.99624
1.07356 1.07863 0.999214 0.996084
1.03344 1.03736 1 0.996229
1.00063 1.00244 1 0.998197
1.03552 1.03942 1 0.996248
1.00157 1.00336 1 0.998218
1 1 1 1
1.00265 1.00443 1 0.998234
1 1 1 1
0.999466 1 1 0.999466
1.07304 1.08037 0.996769 0.996437
1.06122 1.07278 0.992492 0.996706
1.07317 1.07776 0.999653 0.996089
1.07286 1.08094 0.996083 0.996431
1.06423 1.07636 0.991958 0.996741
1.0351 1.03897 1 0.996267
1.07364 1.07831 0.999634 0.996029
1.07285 1.08248 0.99476 0.996322
1.0038 1.00554 1 0.998276
1.03809 1.04198 1 0.996268
1.07378 1.07822 0.999864 0.996015
1 1 1 1
1.00751 1.00919 1 0.998336
1.04122 1.04508 1 0.99631
1 1 1 1
1.01184 1.01349 1 0.99837
1 1 1 1
1.07193 1.07691 0.999185 0.996181
1.07278 1.08016 0.99671 0.996452
1.06267 1.07359 0.993111 0.996702
1.02884 1.0327 1 0.996259
1.07147 1.07675 0.998921 0.996164
1.0715 1.08012 0.995543 0.996465
1.07151 1.07706 0.99867 0.99617
1.03113 1.03503 1 0.996236
0.999542 1.00135 1 0.998194
1.03395 1.03787 1 0.996225
1.00028 1.00209 1 0.998195
1 1 1 1
1.00113 1.00292 1 0.998217
1 1 1 1
1 1 1 1
1.07329 1.0777 0.999787 0.996121
1.07251 1.08029 0.9963 0.996487
1.06052 1.07282 0.991783 0.996723
1.03255 1.0364 1 0.996286
1.07324 1.07776 0.999718 0.996086
1.07316 1.0813 0.996034 0.99643
1.00145 1.00322 1 0.998236
1.03464 1.03852 1 0.996264
1.07343 1.078 0.999737 0.996025
1 1 1 1
1.00453 1.00626 1 0.998279
1.03798 1.04186 1 0.996271
1 1 1 1
1.00839 1.01007 1 0.998341
1 1 1 1
1.02866 1.0325 1 0.996281
1.07155 1.07662 0.999115 0.996175
1.07283 1.08006 0.996857 0.996441
0.998772 1.00054 1 0.99823
1.02921 1.03307 1 0.996256
1.07111 1.07644 0.998878 0.996165
1.0317 1.03561 1 0.996233
0.999275 1.00108 1 0.998195
1 1 1 1
0.999943 1.00175 1 0.998194
1 1 1 1
1 1 1 1
1.02993 1.03376 1 0.996296
1.07257 1.07723 0.999517 0.996152
1.07195 1.08017 0.995833 0.996537
0.999804 1.00126 1 0.998547
1.03201 1.03586 1 0.996285
1.07325 1.0777 0.999784 0.996083
1 1 1 1
1.0021 1.00387 1 0.998237
1.03428 1.03816 1 0.996262
1 1 1 1
1.00524 1.00697 1 0.998282
1 1 1 1
0.99838 1.00017 1 0.998212
1.02887 1.03272 1 0.996278
1.07122 1.07636 0.999053 0.996169
1 1 1 1
0.99861 1.00038 1 0.998229
1.02958 1.03345 1 0.996253
0.998975 1.00078 1 0.998195
1 1 1 1
1 1 1 1
0.998812 1.00029 1 0.998525
1.03009 1.03392 1 0.996296
1.07196 1.07688 0.999246 0.996183
1 1 1 1
1.00011 1.00188 1 0.998234
1.03169 1.03553 1 0.996285
1 1 1 1
1.00271 1.00448 1 0.998238
1 1 1 1
0.999458 1 1 0.999458
0.998525 1.00014 1 0.998388
1.02896 1.03281 1 0.996276
1 1 1 1
0.998444 1.00021 1 0.99823
1 1 1 1
0.999466 1 1 0.999466
0.998931 1.00054 1 0.998388
1.03009 1.03392 1 0.996297
0.999726 1 1 0.999726
1.00063 1.0024 1 0.998237
1 1 1 1
1 1 1 1
0.998438 1.00019 1 0.998252
1 1 1 1
0.999733 1 1 0.999733
0.999121 1.00087 1 0.998253
1 1 1 1
1 1 1 1
1 1 1 1

VECTORS lamdaE float
1.00238 0.999958 0.992646
1.00192 1.00078 0.996274
1.00183 1.00015 0.993045
1.00221 1.00014 0.992638
1.00239 0.999918 0.992676
1.00239 1.00016 0.992468
1.00333 1.00072 0.98973
1.002 1.00082 0.996189
1.00163 1.00005 0.996955
1.0012 1.00086 0.996967
1.00168 1.00126 0.992026
1.00339 1.00145 0.987654
1.00166 0.999962 0.993405
1.00136 1.00007 0.993617
1.00133 1.00037 0.993417
1.00181 1.00013 0.993068
1.00175 1.00053 0.992839
1.00192 0.999974 0.993087
1.00359 1.00061 0.989516
1.00171 1.00002 0.99654
1.00209 1.00016 0.992731
1.0023 1.00002 0.992669
1.00332 1.00028 0.990247
1.00339 1.00042 0.989964
1.00232 1.00045 0.99222
1.00328 1.00123 0.989283
1.00531 1.00138 0.985276
1.00207 1.00084 0.996091
1.0019 0.999938 0.994944
1.00158 1.00054 0.994902
1.00201 1.00113 0.996043
1.00333 1.00157 0.98763
1.00212 0.999783 0.992912
1.00206 0.99996 0.992927
1.00372 1.0003 0.990164
1.00051 1.00211 0.997004
1.00359 1.00094 0.989841
1.00341 1.00217 0.986932
1.00524 1.00243 0.983756
1.00065 1.00055 0.997254
1.0017 0.999981 0.996546
1.00164 1.00003 0.995027
1.00161 0.999961 0.996612
1.00119 1.00006 0.993833
1.00336 0.999882 0.989492
1.00156 0.999974 0.996928
1.00371 1.00018 0.990368
1.00143 1.00008 0.993497
1.00147 1.00002 0.993485
1.00117 1.0009 0.993191
1.00382 1.00049 0.989317
1.00149 1.00004 0.995152
1.00168 1.0002 0.993162
1.00176 1.0009 0.992531
1.00189 0.999998 0.993087
1.00352 1.00023 0.990019
1.00357 1.00106 0.989074
1.00361 1.00035 0.989744
1.00532 1.00135 0.985375
1.0016 0.999996 0.996593
1.00193 1.0001 0.993002
1.00309 0.999952 0.991314
1.00326 1.00021 0.990395
1.00336 1.00031 0.990131
1.00523 0.999924 0.986922
1.00532 1.00029 0.986297
1.00238 1.00076 0.991731
1.00319 1.00219 0.988436
1.00532 1.00214 0.984417
1.00531 0.999449 0.986492
1.00227 0.999931 0.99637
1.00186 1.0011 0.996228
1.00201 1.00048 0.996319
1.00329 1.00165 0.98761
1.00219 0.99988 0.996346
1.00218 1.00007 0.996389
1.00357 1.00027 0.988604
1.00081 1.00158 0.994866
1.00338 1.00088 0.988273
1.00327 1.00242 0.988107
1.00528 1.00232 0.983739
1.00101 1.00094 0.996832
1.00112 1.0028 0.990242
1.00368 1.0002 0.988594
1.00367 1.00032 0.98846
1.00534 1.00032 0.985796
1.00255 1.00315 0.989682
1.00535 1.00148 0.984538
1.00443 1.00353 0.983722
1.00539 1.00156 0.984169
1.0004 0.999898 0.997658
1.00048 1.00036 0.997416
1.00201 0.999983 0.996363
1.00176 0.999979 0.996516
1.00165 0.999966 0.996604
1.0015 0.999995 0.995179
1.00339 0.99988 0.990229
1.0018 0.999976 0.994946
1.00357 1.00019 0.989651
1.00162 0.999972 0.996626
1.0032 0.999744 0.989809
1.0036 1.00006 0.990646
1.00536 0.998562 0.987694
1.00367 1.0002 0.990322
1.0053 0.999046 0.987284
1.00167 0.999958 0.993415
1.00126 1.00023 0.993597
1.00116 1.00131 0.992828
1.00148 0.999963 0.993503
1.00372 1.00022 0.989791
1.00382 1.00031 0.989533
1.00383 1.00093 0.988875
1.00533 1.00132 0.985469
1.00165 0.999974 0.996609
1.00154 1.00009 0.993426
1.00331 0.999854 0.990137
1.00345 1.00018 0.990166
1.00208 1.00135 0.99382
1.00351 1.00196 0.988656
1.00357 1.00026 0.989907
1.00524 0.999651 0.987233
1.00532 1.00214 0.984543
1.00532 1.00055 0.986122
1.0053 0.999462 0.986513
1.0032 0.999781 0.989787
1.00316 1 0.990687
1.00532 0.998338 0.988537
1.00525 0.999066 0.987869
1.0053 0.999727 0.987019
1.00533 0.99688 0.989406
1.00128 1.00145 0.996496
1.00533 0.998368 0.987506
1.00305 1.00314 0.986465
1.00532 1.00302 0.982847
1.00529 1.00059 0.985442
1.00528 0.996632 0.989122
1.00171 1.00349 0.98843
1.00321 1.00432 0.985536
1.00224 0.999887 0.996349
1.00219 1.00013 0.996375
1.00358 1.00026 0.988584
1.00114 1.00121 0.996719
1.00272 1.00271 0.987283
1.00343 1.0008 0.988262
1.00535 1.00222 0.983714
1.00083 1.00096 0.997004
1.00114 1.00292 0.990251
1.0037 1.00025 0.989398
1.00371 1.0004 0.989229
1.00533 1.00034 0.98576
1.00197 1.00326 0.988165
1.00535 1.0015 0.984506
1.00473 1.00319 0.98369
1.00536 1.00136 0.98444
1.00155 1.00303 0.989275
1.00081 1.00245 0.991257
1.00255 1.00367 0.98704
1.0053 0.999824 0.986411
1.00535 1.00088 0.985178
1.00532 0.997969 0.988056
1.00358 1.00372 0.984845
1.00531 0.999786 0.986218
1.00534 1.00303 0.983067
1.00538 0.999336 0.98612
1.00024 0.999309 0.998061
1.00026 0.999824 0.997829
1.00035 1.00029 0.997581
1.00148 1.00319 0.989258
1.00078 1.0012 0.996904
1.00215 0.999924 0.996339
1.00186 0.999986 0.996427
1.00338 1.00024 0.988985
1.00323 0.999889 0.989588
1.00164 0.999963 0.99659
1.00159 0.999962 0.996625
1.00318 0.999757 0.989805
1.00347 1.00004 0.989932
1.00534 0.99857 0.987703
1.0035 1.00026 0.988783
1.00528 0.999059 0.987274
1.00316 0.999719 0.989874
1.00535 0.998471 0.987788
1.00535 0.998742 0.987525
1.00528 0.995262 0.991356
1.00526 0.999413 0.986932
1.00523 0.995682 0.990836
1.00161 0.999972 0.996615
1.0011 1.00017 0.993849
1.00334 0.99982 0.989129
1.00366 1.00015 0.989936
1.00117 1.00211 0.996474
1.00384 1.00146 0.988884
1.00377 1.00023 0.989685
1.00524 0.999366 0.987544
1.00532 1.00079 0.985943
1.00532 1.00209 0.984672
1.00529 0.999477 0.986534
1.00318 0.999773 0.98979
1.00335 1.00003 0.990461
1.00533 0.998262 0.988343
1.00526 0.99934 0.987525
1.0015 1.00146 0.996321
1.00312 1.00289 0.987599
1.00515 1.00332 0.983262
1.00529 0.999796 0.986973
1.00531 0.996503 0.989796
1.00529 1.00048 0.985528
1.00533 0.998602 0.987391
1.00528 0.996692 0.989112
1.0018 1.00335 0.988423
1.00319 1.00421 0.985456
1.00533 0.998589 0.9877
1.00532 0.998675 0.988204
1.00532 0.995999 0.990409
1.00531 0.995867 0.990548
1.00534 0.997517 0.988464
1.00532 0.99514 0.990964
1.00235 1.00344 0.987321
1.00528 0.995578 0.990255
1.00498 1.00397 0.982861
1.00533 1.0017 0.984018
1.0053 0.998408 0.987473
1.00525 0.995471 0.990444
1.00373 1.00445 0.98422
1.00296 1.00381 0.986848
1.00435 1.004 0.984186
1.00354 1.00027 0.988668
1.00057 1.0008 0.997169
1.00099 1.00294 0.990266
1.00354 1.00038 0.988491
1.00533 1.00036 0.985725
1.002 1.00329 0.988098
1.00497 1.00294 0.983662
1.00534 1.00152 0.984471
1.00535 1.00113 0.984712
1.0014 1.00316 0.989297
1.00062 1.00255 0.991253
1.00247 1.00407 0.987031
1.0053 0.999847 0.986375
1.00534 1.0009 0.985143
1.00532 0.997947 0.988051
1.00386 1.00346 0.984808
1.00532 0.99991 0.986102
1.00538 1.00301 0.982977
1.00538 0.998943 0.986428
1.00051 1.0019 0.992154
1.00317 1.00411 0.98596
1.00198 1.00427 0.987486
1.0029 1.00158 0.987716
1.00534 0.996978 0.989124
1.00531 0.998982 0.986976
1.00531 0.995625 0.990144
1.00495 1.00394 0.982705
1.00531 0.997193 0.988673
1.00531 1.00131 0.984776
1.00546 0.997569 0.987761
1.00028 1.00369 0.990926
1.00027 1.00094 0.993568
1.00021 0.998719 0.998297
1.00018 0.999188 0.998156
1.00015 0.999688 0.997982
1.00113 1.00309 0.990017
1.00064 1.00091 0.997112
1.00154 1.00315 0.989184
1.00098 1.0013 0.996761
1.00346 1.0003 0.988782
1.00332 1.00004 0.989285
1.00526 0.999072 0.987271
1.00533 0.998583 0.987712
1.00319 0.999775 0.989807
1.00165 0.999948 0.996621
1.00318 0.999715 0.989878
1.00534 0.99848 0.987796
1.00532 0.99876 0.987531
1.00529 0.995221 0.991357
1.00526 0.99943 0.986904
1.00527 0.995616 0.990836
1.00534 0.998484 0.987789
1.00531 0.995223 0.991375
1.00524 0.995397 0.991203
1.00511 0.99497 0.991755
1.00529 0.996181 0.99012
1.00524 0.994921 0.991423
1.00319 0.999772 0.989801
1.00355 0.999994 0.990235
1.00535 0.998162 0.988159
1.00527 0.999604 0.987179
1.00171 1.00157 0.996125
1.00348 1.00278 0.988466
1.00495 1.0034 0.983669
1.00529 0.999851 0.986925
1.0053 0.996124 0.990185
1.00533 0.998836 0.987277
1.0053 1.00039 0.985613
1.00528 0.996751 0.989101
1.00191 1.00325 0.988417
1.00306 1.00397 0.98538
1.00534 0.998287 0.988031
1.00532 0.998647 0.988201
1.00531 0.995994 0.990436
1.00529 0.996184 0.990167
1.00239 1.00345 0.987298
1.00466 1.00393 0.982888
1.00536 1.00191 0.9838
1.00534 0.99768 0.988376
1.00533 0.995033 0.991014
1.0053 0.998165 0.98775
1.00528 0.995626 0.990221
1.00526 0.995457 0.990318
1.00371 1.00452 0.984192
1.00395 1.00385 0.984171
1.00235 1.004 0.986888
1.00534 0.995886 0.990542
1.0053 0.996164 0.990232
1.00512 0.994964 0.991735
1.00527 0.994933 0.991294
1.00529 0.995047 0.990792
1.0053 0.994907 0.99098
1.00433 1.00402 0.983519
1.00526 0.994913 0.990815
1.00538 1.00344 0.982363
1.00535 0.999794 0.985731
1.00526 0.996864 0.989012
1.00528 0.995288 0.990472
1.00182 1.00513 0.986875
1.00508 1.00461 0.982314
1.00289 1.00239 0.986674
1.00514 1.00386 0.982777
1.0053 0.999868 0.98634
1.00052 1.00269 0.991246
1.00126 1.00343 0.989324
1.00196 1.00445 0.987012
1.00534 1.00092 0.985107
1.00533 0.997927 0.988047
1.00417 1.00301 0.984775
1.00538 1.00297 0.982881
1.00532 1.00005 0.985988
1.00536 0.99857 0.986736
1.00041 1.00203 0.99216
1.00299 1.00379 0.986094
1.00178 1.00444 0.98737
1.00327 1.00162 0.987776
1.00532 0.996961 0.989131
1.00532 0.998959 0.986965
1.0053 0.9956 0.99017
1.00515 1.004 0.982605
1.00531 0.997456 0.988386
1.00529 1.00113 0.984763
1.00546 0.997396 0.988039
1.00043 1.00146 0.992829
1.00168 1.00502 0.987616
1.00346 1.00397 0.984976
1.00349 1.00263 0.987134
1.00336 1.00112 0.988437
1.00529 0.99507 0.990751
1.00531 0.996366 0.989314
1.00533 0.994983 0.990473
1.00517 1.0032 0.98308
1.00539 0.995987 0.989534
1.00524 0.999423 0.986353
1.00063 1.00421 0.989732
1.0002 1.00509 0.989716
1.00014 1.00288 0.991858
1.00015 1.00369 0.990929
1.0002 1.00014 0.995212
1.00025 1.00077 0.994097
1.00036 0.998047 0.996689
1.00019 0.998658 0.99836
1.00015 0.99909 0.998224
1.00031 1.00286 0.99137
1.00028 1.0006 0.997538
1.00114 1.00303 0.989992
1.00067 1.00101 0.997049
1.00154 1.00313 0.989113
1.00116 1.00132 0.996613
1.00526 0.999449 0.986875
1.0053 0.998775 0.987534
1.00531 0.995568 0.990836
1.0053 0.995179 0.991358
1.00534 0.998489 0.987803
1.00317 0.999703 0.989879
1.00534 0.998489 0.987791
1.00531 0.995193 0.991376
1.00527 0.995354 0.991206
1.00511 0.994969 0.991734
1.00529 0.99614 0.990127
1.00523 0.994919 0.991437
1.00533 0.995243 0.991321
1.00511 0.994959 0.991762
1.00516 0.994965 0.99165
1.00523 0.994949 0.991503
1.00529 0.994874 0.991126
1.00526 0.994936 0.991123
1.00534 0.997978 0.98836
1.00533 0.998638 0.988198
1.0053 0.995996 0.990463
1.00527 0.996511 0.989787
1.00244 1.00342 0.987278
1.00439 1.0043 0.982924
1.00538 1.0021 0.983586
1.00534 0.997838 0.988288
1.00533 0.994918 0.991065
1.00528 0.995672 0.990187
1.00529 0.997897 0.988025
1.00526 0.99543 0.990191
1.00359 1.00471 0.984164
1.00388 1.00397 0.984156
1.00213 1.00433 0.986925
1.00533 0.995595 0.990895
1.0053 0.996173 0.990235
1.00513 0.994962 0.991719
1.00527 0.994935 0.991292
1.00415 1.0043 0.983577
1.00537 1.00346 0.982444
1.00537 0.999986 0.98544
1.00529 0.995198 0.990651
1.0053 0.994911 0.990943
1.00525 0.996734 0.989012
1.00527 0.994902 0.990791
1.00527 0.995246 0.990495
1.00464 1.00464 0.982329
1.00509 1.00417 0.982559
1.00204 1.00481 0.986951
1.00325 1.0028 0.986757
1.00512 0.994964 0.991806
1.00516 0.994951 0.991468
1.00521 0.994954 0.991528
1.00527 0.994911 0.991044
1.00529 0.99487 0.990876
1.00533 0.994912 0.990781
1.00529 1.00451 0.981666
1.00532 0.994849 0.990651
1.00529 1.00189 0.983791
1.00534 0.998848 0.986549
1.00524 0.996237 0.989446
1.00531 0.995092 0.990468
1.00173 1.00498 0.987193
1.00355 1.00365 0.985907
1.00516 1.00457 0.981637
1.00387 1.0012 0.986447
1.00505 1.00442 0.98195
1.00028 1.00211 0.992169
1.0053 0.996944 0.989138
1.00199 1.00451 0.987255
1.00283 1.00366 0.986235
1.00344 1.00148 0.987834
1.00533 0.998936 0.986954
1.0053 0.995573 0.990196
1.00527 1.00366 0.982508
1.00529 1.00102 0.984747
1.00531 0.997702 0.9881
1.00547 0.997233 0.988315
1.00037 1.00143 0.992867
1.00142 1.00506 0.987636
1.00379 1.00347 0.985082
1.00317 1.0026 0.987042
1.00376 1.0007 0.987547
1.0053 0.995063 0.99078
1.0053 0.996333 0.98934
1.00533 0.99499 0.990487
1.00516 1.00338 0.983026
1.0054 0.99612 0.989333
1.00524 0.999465 0.986634
1.00118 1.00471 0.988508
1.00285 1.0052 0.986568
1.00355 1.00376 0.984558
1.00386 1.00184 0.987137
1.00478 1.00208 0.985958
1.00534 0.994819 0.990788
1.00533 0.995284 0.99006
1.00528 0.994843 0.990515
1.00494 1.00141 0.984781
1.00523 0.997904 0.987636
1.00054 1.00437 0.989731
1.00041 1.0051 0.989113
0.999689 1.00504 0.98978
1.00047 1.00449 0.990431
1.00025 1.00453 0.990558
1.00002 1.00253 0.992387
0.999987 1.00309 0.991876
1.00009 0.999709 0.995736
1.00004 1.00389 0.99093
1.00018 1.00007 0.995298
1.00029 0.997572 0.997146
1.00024 1.00068 0.994613
1.00022 0.998164 0.997646
1.00016 0.998494 0.998426
0.999893 1.00172 0.993147
1.00053 1.00254 0.991422
0.999993 0.999596 0.99816
1.00051 1.00052 0.997338
1.00125 1.00282 0.98997
1.00077 1.00108 0.996969
1.0053 0.996097 0.990133
1.0053 0.995295 0.991207
1.00521 0.994917 0.99145
1.00511 0.994968 0.991714
1.00531 0.995162 0.991376
1.00534 0.998493 0.987794
1.00533 0.995234 0.99132
1.00512 0.994963 0.991765
1.00515 0.994965 0.991652
1.00522 0.994946 0.991471
1.00529 0.99487 0.991154
1.00526 0.994933 0.99113
1.00512 0.994958 0.991774
1.00524 0.994953 0.991562
1.00523 0.994948 0.991334
1.00528 0.994927 0.991399
1.00529 0.994879 0.990998
1.00531 0.994935 0.991017
1.00532 0.995311 0.991248
1.00529 0.996183 0.990237
1.00513 0.994959 0.991704
1.00528 0.994937 0.991291
1.00391 1.00446 0.983635
1.00536 1.00348 0.982517
1.00539 1.00013 0.985152
1.00529 0.995355 0.99051
1.0053 0.994914 0.990907
1.00529 0.994896 0.990765
1.00524 0.996607 0.989012
1.00527 0.995195 0.99052
1.00437 1.00491 0.982345
1.00449 1.00493 0.982341
1.00205 1.0044 0.987024
1.00315 1.00225 0.986828
1.00513 0.994962 0.991804
1.00517 0.994949 0.991514
1.0052 0.994952 0.991502
1.00528 0.994912 0.991045
1.0052 1.00456 0.981729
1.00529 1.00205 0.983618
1.00532 0.998868 0.986522
1.00529 0.994867 0.990907
1.00532 0.994906 0.990779
1.00524 0.996172 0.989458
1.00531 0.994851 0.990642
1.00529 0.995039 0.990595
1.00509 1.00469 0.981723
1.005 1.0049 0.981853
1.00389 1.00212 0.986549
1.0014 1.00491 0.987451
1.00285 1.00369 0.985802
1.00523 0.994953 0.991493
1.00526 0.994928 0.991298
1.00533 0.994882 0.990791
1.00533 0.994889 0.990676
1.00522 1.00384 0.982289
1.00531 0.99482 0.990568
1.00521 1.00105 0.984144
1.00528 0.998291 0.987104
1.0053 0.995583 0.989635
1.00023 1.00453 0.989723
1.00223 1.00509 0.986293
1.00391 1.00414 0.985887
1.00502 1.00453 0.982112
1.00447 1.00324 0.98441
1.00485 1.00478 0.982339
1.00031 1.00143 0.992903
1.00117 1.00512 0.987657
1.00531 0.995058 0.99081
1.00258 1.0027 0.986951
1.00448 1.00347 0.985191
1.00429 1.00035 0.986665
1.0053 0.996302 0.989366
1.00533 0.995002 0.990501
1.00514 1.00344 0.982986
1.00522 0.999522 0.986919
1.00542 0.996241 0.989131
1.00106 1.00482 0.988513
1.00202 1.00521 0.986586
1.00411 1.00404 0.983751
1.00383 1.00124 0.987278
1.00455 1.00172 0.985759
1.00533 0.994818 0.990802
1.00535 0.995327 0.990045
1.00532 0.994847 0.990441
1.00502 1.00133 0.984992
1.00522 0.99804 0.987529
1.00173 1.00513 0.98778
1.00125 1.00507 0.987121
1.00453 1.00275 0.984707
1.00282 1.00167 0.98627
1.00531 1.0013 0.98573
1.00534 0.994794 0.990656
1.00538 0.995797 0.989228
1.00539 0.995094 0.989783
1.00506 1.00003 0.986246
1.00511 0.998794 0.987091
1.00045 1.00443 0.989733
1.00067 1.00508 0.988985
0.999461 1.00388 0.991395
0.999533 1.00503 0.989832
0.99983 1.00465 0.990538
0.999586 1.0047 0.990664
0.999976 1.00283 0.992091
0.99946 1.00508 0.990588
0.999831 1.00427 0.991055
1.00003 1.0024 0.992485
1.00003 1.00245 0.992382
1.00004 0.999472 0.99602
0.999911 1.003 0.991887
1.00012 0.999604 0.995792
1.00021 0.997345 0.997477
1.0002 0.999927 0.995389
1.00025 0.997645 0.99712
1.00005 0.998266 0.998628
0.999846 1.00062 0.994389
1.00001 1.0017 0.993091
0.999852 0.998799 0.998614
1.00077 1.00237 0.991472
1.00018 0.999859 0.997925
1.00061 1.0008 0.997192
1.00529 0.994866 0.991182
1.00514 0.994966 0.991654
1.00526 0.994931 0.991137
1.00522 0.994941 0.99144
1.00512 0.994967 0.991768
1.00532 0.995227 0.991318
1.00512 0.994959 0.991801
1.00524 0.994953 0.991562
1.00523 0.99495 0.991353
1.00528 0.994923 0.991377
1.0053 0.994879 0.991
1.0053 0.994931 0.99099
1.00524 0.994954 0.991521
1.0053 0.994932 0.991431
1.00529 0.994915 0.991273
1.00535 0.994883 0.990728
1.00513 0.994961 0.991802
1.00517 0.994948 0.99156
1.0052 0.99495 0.991476
1.00528 0.994914 0.991046
1.00506 1.0045 0.981793
1.0053 1.00223 0.983443
1.0053 0.998925 0.986495
1.0053 0.994865 0.990939
1.00532 0.994901 0.990778
1.0053 0.994854 0.990632
1.00525 0.996129 0.989468
1.00528 0.995012 0.990722
1.0051 1.00477 0.981803
1.00486 1.00475 0.981758
1.00431 1.00271 0.986638
1.00125 1.00467 0.987729
1.0026 1.00438 0.985712
1.00523 0.994951 0.991488
1.00526 0.99493 0.99131
1.00533 0.99489 0.990809
1.00521 1.00395 0.982311
1.00521 1.00128 0.984065
1.00528 0.998171 0.987114
1.00533 0.994891 0.990692
1.0053 0.995549 0.989824
1.00532 0.994826 0.990579
1.00007 1.0041 0.990013
1.00495 1.00443 0.98217
1.00476 1.00482 0.982033
1.00452 1.00308 0.984234
1.00397 1.00325 0.985888
1.00204 1.00509 0.986345
1.00529 0.994929 0.991382
1.00533 0.994895 0.991061
1.00535 0.994883 0.990626
1.00532 0.994833 0.990547
1.00508 1.00338 0.983135
1.00529 0.994904 0.990403
1.00509 1.00102 0.984752
1.00527 0.997431 0.987518
0.999943 1.00288 0.991541
1.00098 1.00513 0.988572
1.00311 1.00482 0.986213
1.00298 1.00358 0.985679
1.00452 1.00359 0.98425
1.00487 1.00483 0.982153
1.0009 1.00496 0.988517
1.00136 1.0052 0.986604
1.00533 0.994817 0.990816
1.00383 1.00066 0.98741
1.00476 1.00439 0.982932
1.00393 1.00212 0.985557
1.00536 0.995366 0.99003
1.00535 0.994846 0.990366
1.00504 1.00131 0.985204
1.00521 0.998175 0.987422
1.00129 1.00512 0.98782
1.00187 1.00503 0.986787
1.00441 1.00298 0.984535
1.00354 1.00263 0.986175
1.00521 1.00159 0.985329
1.00535 0.994794 0.990646
1.00539 0.995652 0.989485
1.00538 0.995174 0.989929
1.00507 0.999926 0.986227
1.00505 0.999147 0.986819
0.999573 1.00492 0.989048
0.999782 1.00477 0.988089
1.00495 1.00068 0.986078
1.00437 1.00104 0.98638
1.00542 0.994784 0.990421
1.00538 0.994794 0.990344
1.00526 0.99765 0.987573
1.00518 0.999468 0.986224
1.00103 1.00499 0.988859
0.99959 1.00443 0.991086
0.998073 1.00417 0.994119
0.999509 1.00485 0.990525
0.998586 1.00504 0.990895
0.999872 1.00425 0.991005
0.999491 1.00334 0.992517
0.999511 1.0051 0.990643
0.999345 1.0005 0.995497
0.999389 1.00481 0.991075
0.99939 1.00499 0.990436
1.00002 1.00418 0.99084
0.99998 1.0025 0.992414
0.999985 1.00242 0.992467
0.999949 0.999405 0.996171
0.999982 1.00251 0.99238
1.00005 0.999424 0.99604
1.00012 0.997322 0.997598
1.00012 0.999527 0.995847
1.00018 0.997394 0.997456
1.00017 0.997746 0.997081
1.00003 0.999765 0.995005
0.999886 1.00076 0.994308
0.999826 0.998152 0.998821
1.00006 1.0018 0.993035
0.999927 0.998899 0.998479
1.00041 0.999824 0.997654
1.00531 0.994879 0.991001
1.00523 0.994952 0.991371
1.00529 0.994926 0.990964
1.00527 0.994922 0.991356
1.00523 0.994954 0.991561
1.00513 0.99496 0.991828
1.00524 0.994953 0.99154
1.00529 0.994929 0.991424
1.00529 0.994921 0.991231
1.00533 0.994883 0.990757
1.0053 0.99493 0.991434
1.00529 0.994904 0.991381
1.00534 0.994895 0.990958
1.00522 0.994949 0.991483
1.00526 0.994931 0.991323
1.00533 0.994895 0.990826
1.00517 1.00398 0.982341
1.0052 1.00153 0.983986
1.00528 0.99803 0.987122
1.00532 0.994893 0.990708
1.00532 0.994831 0.99059
1.00529 0.995482 0.990014
1.00488 1.00433 0.982226
1.00497 1.00502 0.981744
1.00462 1.00429 0.984075
1.00021 1.00396 0.990303
1.00375 1.00298 0.98587
1.00178 1.00506 0.986381
1.0053 0.994934 0.991393
1.00533 0.994884 0.991021
1.00535 0.994883 0.990632
1.00506 1.00325 0.983097
1.00504 1.00093 0.984865
1.0053 0.997221 0.987839
1.00533 0.994831 0.99052
1.00529 0.994924 0.990362
0.999904 1.00309 0.991748
1.00085 1.00513 0.988543
1.00449 1.00296 0.983981
1.00459 1.00482 0.982573
1.00365 1.00384 0.985179
1.00272 1.00485 0.986196
1.00531 0.99489 0.991323
1.00538 0.994866 0.990676
1.00536 0.99485 0.990502
1.00528 0.994815 0.990325
1.00422 1.00205 0.985046
1.00527 0.995578 0.989572
1.00492 1.00007 0.985993
1.00011 1.002 0.992776
1.00013 1.00311 0.991825
0.999575 1.00487 0.99025
1.0016 1.0051 0.987278
1.00243 1.00485 0.986486
1.00433 1.00439 0.983995
1.00341 1.00262 0.986401
1.00409 1.00276 0.987084
1.00094 1.00517 0.987864
1.00267 1.00498 0.986454
1.00536 0.994794 0.990635
1.00423 1.00255 0.986083
1.00436 1.00314 0.984365
1.00534 1.00184 0.984937
1.00541 0.995494 0.989744
1.00537 0.995251 0.990075
1.00507 0.999802 0.986206
1.00497 0.999475 0.986548
1.00045 1.00473 0.988698
1.00122 1.00496 0.987597
1.00497 1.00074 0.985825
1.00459 1.00148 0.986227
1.00542 0.99479 0.990423
1.00542 0.994801 0.99033
1.0052 0.997523 0.987718
1.00516 0.999664 0.986263
0.998405 1.0048 0.991619
1.00547 0.99481 0.990596
1.00256 1.00449 0.9877
1.00491 1.00012 0.986293
1.00537 0.994725 0.990711
1.00504 0.997032 0.98747
1.00505 1.00056 0.985857
0.999511 1.00461 0.990778
0.99828 1.00349 0.994188
0.996824 1.00324 0.996647
0.999779 1.00408 0.990954
0.999429 1.00512 0.990695
0.997926 1.00478 0.992963
1.00004 1.00401 0.990826
0.999488 1.00499 0.990516
0.997968 1.00187 0.99594
0.999602 1.00476 0.990942
0.998675 1.00023 0.997842
0.997839 1.00361 0.994147
0.999409 1.00514 0.990724
1.00042 1.00484 0.989412
1.00029 1.00396 0.990496
0.999996 1.00249 0.992399
0.999941 1.00257 0.992394
0.999832 0.999476 0.99632
0.999918 1.00255 0.99245
0.999959 0.99943 0.996183
0.999991 0.997479 0.997711
1.00006 0.999364 0.996064
1.00012 0.997384 0.997592
1.00019 0.997449 0.99743
1.00009 1.0015 0.993299
0.999998 0.999325 0.995454
0.999984 0.999884 0.994972
0.999901 0.997884 0.998916
0.999928 1.00071 0.994228
0.999865 0.998371 0.998777
1.00007 0.99906 0.998325
1.00531 0.994884 0.990787
1.00529 0.994927 0.99119
1.00529 0.994924 0.991416
1.00524 0.994951 0.991558
1.00531 0.994932 0.991427
1.00529 0.994896 0.99138
1.00533 0.994896 0.9909
1.0053 0.994898 0.991386
1.00534 0.994865 0.991317
1.0056 0.99481 0.991185
1.0053 0.994938 0.991405
1.00534 0.994883 0.990982
1.00535 0.994889 0.990638
1.00514 1.00312 0.983063
1.00489 1.00098 0.984995
1.00532 0.997007 0.988149
1.00533 0.994826 0.990492
1.00528 0.994955 0.990322
1.00434 1.00336 0.983708
1.00435 1.00465 0.982957
1.00395 1.00299 0.984678
0.999981 1.00297 0.991958
1.00048 1.00513 0.988513
1.0026 1.00488 0.986181
1.0053 0.994895 0.991304
1.00015 1.00189 0.99275
1.00003 1.00311 0.991664
1.00539 0.994867 0.990683
1.00536 0.994851 0.990518
1.0045 1.00224 0.98503
1.00497 0.999696 0.986357
1.00525 0.9955 0.98952
1.00527 0.994823 0.990267
0.99995 1.00462 0.990428
1.00167 1.0051 0.987224
1.00326 1.00321 0.986072
1.00438 1.00228 0.985664
1.00392 1.00465 0.983658
1.00243 1.00396 0.98653
1.00539 0.994801 0.991153
1.00539 0.995011 0.99038
1.00534 0.994849 0.990461
1.00523 0.995129 0.989958
1.00336 1.00118 0.987805
1.00501 0.997925 0.988512
1.00032 1.00267 0.991629
0.999704 1.00351 0.991662
1.00158 1.00241 0.990708
1.00085 1.00474 0.988643
1.0022 1.00505 0.986673
1.00207 1.00218 0.988031
1.00233 1.00315 0.986686
1.00154 0.999438 0.993057
1.00077 1.00485 0.988355
1.0028 1.00514 0.987094
1.0054 0.994794 0.990426
1.00544 0.994806 0.990316
1.00478 1.00199 0.986066
1.00497 1.00082 0.985566
1.00515 0.9974 0.987863
1.00514 0.999854 0.986307
0.999119 1.00453 0.991537
1.00547 0.99479 0.990811
1.00162 1.00431 0.988525
1.00484 1.00035 0.986125
1.00538 0.994731 0.990779
1.00512 0.997193 0.987659
1.00506 1.00027 0.985813
0.998351 1.00507 0.993543
1.00504 0.994704 0.990452
1.00195 1.00354 0.988531
1.00441 1.00191 0.98469
1.00514 0.995555 0.99037
1.00353 1.00077 0.986891
0.999078 0.994757 0.983253
0.99842 1.00315 0.994234
0.997318 1.00246 0.996642
0.996936 1.00196 0.997683
1.00002 1.00396 0.990807
0.999308 1.00504 0.990601
1.0002 1.00454 0.99081
0.997227 1.00208 0.996397
1.00024 1.00399 0.990502
1.00018 1.00482 0.989689
0.998029 0.999692 0.998395
0.999299 1.00515 0.990682
0.998396 1.00379 0.993629
0.996722 1.00299 0.997318
0.99952 1.00461 0.991223
0.999705 1.0051 0.990632
1.00072 1.00427 0.989605
1.00029 1.00409 0.990097
1.0003 1.00498 0.989968
1.00006 1.00436 0.990125
0.999928 1.00253 0.992415
0.999958 1.00254 0.992384
0.999707 0.999455 0.995825
0.999949 1.00251 0.992377
0.99981 0.999487 0.996002
0.999979 0.997493 0.999067
0.999966 0.999444 0.996198
1.00002 0.997449 0.997702
1.00012 0.997436 0.997579
0.99998 1.00106 0.993829
1.00012 1.00141 0.99333
1.00007 0.998807 0.995945
1.00001 0.999366 0.995775
0.999904 0.997575 0.999028
0.999921 1.00009 0.994938
0.999887 0.997898 0.998897
0.999914 0.998398 0.998714
1.00532 0.994896 0.990842
1.0053 0.994887 0.99138
1.00531 0.994935 0.99142
1.0053 0.994897 0.991388
1.00534 0.994857 0.991266
1.00562 0.994823 0.991059
1.00542 0.994824 0.991366
1.00092 0.994724 0.980214
1.00527 0.994867 0.990647
1.00015 1.00236 0.992301
1.0053 0.994893 0.991285
1.00539 0.994861 0.990689
1.00535 0.994853 0.990534
1.00463 1.00187 0.984998
1.005 0.999365 0.986707
1.00527 0.995403 0.989454
1.00529 0.994838 0.99021
1.00369 1.0029 0.985815
1.00464 1.00276 0.984318
1.00387 1.00483 0.983294
1.00013 1.00196 0.992725
1.00301 1.00375 0.986555
1.00014 1.00446 0.990594
1.00156 1.0051 0.987177
0.999825 1.00319 0.991509
1.00539 0.994834 0.991143
1.00029 1.00252 0.991857
0.99987 1.00348 0.991721
1.00078 1.00286 0.991055
1.00539 0.994909 0.990388
1.00531 0.994842 0.990424
1.00274 1.0019 0.987907
1.00488 0.99749 0.988748
1.00525 0.995028 0.989939
1.00074 1.00483 0.988676
1.00234 1.00484 0.986836
1.00248 0.999636 0.991768
1.00299 1.00421 0.986305
1.00331 1.00223 0.987877
1.00544 0.994806 0.990873
1.00535 0.99486 0.990516
1.00527 0.99486 0.990164
1.00472 0.997761 0.99012
1.00184 0.999547 0.991599
1.00021 1.00235 0.991931
1.0017 1.0029 0.989195
1.00022 1.00286 0.991257
1.00155 1.0047 0.988567
1.00175 1.00284 0.989313
1.0009 1.00196 0.990381
1.00152 0.998628 0.994122
1.00054 1.00387 0.991394
1.00045 1.00429 0.989371
1.00547 0.994788 0.991017
1.0054 0.994733 0.990835
1.00519 0.997337 0.987848
1.00476 1.00059 0.985959
1.0051 0.999964 0.985779
0.998161 1.00483 0.994555
1.00465 0.994721 0.990644
1.00184 1.00352 0.988493
1.00467 1.00198 0.984561
1.00495 0.995489 0.990663
1.00394 1.00066 0.986974
0.998899 0.994743 0.981566
0.997496 1.00488 0.994297
1.00374 0.994738 0.990604
1.00235 1.00321 0.986547
1.00316 1.00003 0.988272
1.0034 0.99739 0.991102
0.999972 0.994875 0.937739
0.994906 0.99473 0.960014
0.996204 0.996984 0.986835
0.996351 0.994763 0.846905
0.994699 0.995393 0.806452
0.998095 1.00195 0.996657
0.996935 1.00243 0.997783
0.995933 1.00363 0.997928
1.00026 1.00397 0.990512
1.00005 1.00481 0.989964
0.999409 1.00515 0.990638
0.998834 1.00403 0.993076
0.997649 0.99979 0.998935
0.999489 1.00508 0.990822
1.00039 1.00402 0.990159
1.0006 1.00452 0.989556
0.997288 1.00221 0.997062
0.999043 1.00481 0.991689
0.999602 1.00455 0.991902
0.997274 1.00445 0.994644
0.999403 1.00477 0.991365
1.00051 1.0046 0.989161
1.00022 1.00431 0.990055
0.999957 1.00475 0.990046
0.999742 1.0039 0.991783
0.999443 1.00503 0.991003
0.999996 1.00498 0.990099
1.00007 1.00439 0.99038
1.00009 1.00437 0.990117
0.999875 1.00269 0.992374
0.999915 1.00259 0.992423
0.999676 0.999467 0.995889
0.99991 1.00265 0.992367
0.999695 0.999493 0.995828
0.999937 0.997477 0.999106
0.999784 0.999513 0.995688
0.999935 0.997497 0.998436
1.00005 0.997428 0.99769
0.999891 1.0008 0.994211
1.00001 1.00105 0.993839
1.00009 0.998467 0.996301
1.00015 1.00132 0.993361
1.00006 0.998799 0.996257
0.999944 0.997167 0.999138
1.00004 0.99947 0.99534
0.999918 0.997727 0.998974
0.999893 0.998056 0.998879
1.00535 0.994852 0.991215
1.00529 0.994895 0.99139
1.00568 0.994836 0.990942
1.00006 0.994753 0.980249
1.00545 0.994822 0.991312
1.00528 0.99479 0.990665
1.00548 0.994677 0.991324
0.995638 0.994871 0.961602
1.00321 0.99481 0.979088
1.00026 1.00189 0.992636
1.00029 1.00224 0.992274
0.999756 1.00334 0.99181
0.999944 1.00285 0.992073
1.0054 0.99485 0.991133
1.00542 0.99487 0.990396
1.00528 0.994829 0.990388
1.0038 1.00197 0.988003
1.00502 0.996233 0.989018
1.00524 0.994907 0.989936
1.00257 0.998889 0.990399
1.00347 1.00451 0.985946
1.00315 1.00176 0.98776
0.999974 1.00338 0.991779
1.00218 1.00397 0.987023
1.00086 1.0049 0.988708
1.0003 1.00239 0.99208
1.0002 1.00309 0.991435
1.00547 0.994772 0.990856
1.00018 1.00291 0.991631
1.00161 1.00278 0.989545
0.997871 1.00313 0.994324
1.00536 0.994902 0.990477
1.00526 0.994865 0.990153
1.00321 0.99789 0.991702
1.00454 0.997231 0.989998
1.00177 1.00493 0.988009
1.00137 1.00281 0.988567
1.00123 0.998744 0.994171
1.00203 1.00226 0.989933
1.00406 0.996402 0.990349
1.00523 0.99481 0.99073
1.00453 0.997162 0.989796
1.00344 0.996525 0.993076
0.997484 1.00484 0.994003
1.00237 1.00379 0.987338
0.999016 1.00276 0.993996
0.998326 1.00351 0.99389
1 0.995306 0.922516
0.997509 1.00463 0.995616
1.0014 1.0036 0.988438
1.00416 0.994713 0.990874
1.00473 0.995461 0.990949
1.00422 1.00056 0.987027
1.00478 1.00218 0.984416
0.998787 0.994747 0.979641
0.997639 1.00457 0.994529
1.00333 0.994759 0.99048
1.00245 1.00388 0.98648
1.00368 0.999899 0.988452
1.0036 0.997919 0.99088
0.999573 0.994873 0.923363
0.995393 0.994777 0.956801
0.996269 0.996809 0.987313
0.99693 0.994751 0.851698
0.994759 0.995121 0.80103
0.997825 1.00446 0.993491
0.998661 0.994819 0.856531
0.994774 0.994885 0.79723
1.00087 0.996833 0.993287
1.00131 1.00135 0.991014
1.00122 1.00035 0.993038
0.994884 0.996375 0.990873
0.997422 0.994726 0.937273
0.9949 0.994797 0.952854
0.994724 0.994946 0.872109
0.994762 0.994833 0.783384
0.996689 1.00254 0.99788
0.996032 1.00369 0.997809
0.995506 1.00515 0.997456
1.00055 1.00386 0.990218
1.00048 1.00461 0.989506
0.998919 1.00512 0.991014
0.998736 1.005 0.992153
0.997718 1.00138 0.996825
1.00035 1.00414 0.990043
0.99922 1.0048 0.991812
0.999265 1.0049 0.991054
1.00073 1.00459 0.989286
0.997334 1.00417 0.99496
0.998294 1.00416 0.993852
0.995733 1.00511 0.996213
0.999457 1.00503 0.990382
1.00055 1.00463 0.98952
1.00022 1.00469 0.990008
0.999414 1.00356 0.992246
0.999295 1.00457 0.991693
0.99972 1.00307 0.992355
0.998213 1.00279 0.994675
0.997954 1.00487 0.9927
0.998788 1.00506 0.99132
0.999426 1.00505 0.990995
0.99971 1.0048 0.990332
0.999754 1.005 0.990232
1.00017 1.00439 0.990297
0.999935 1.00282 0.992205
1.00017 1.00436 0.990107
0.999916 1.00262 0.992393
0.999876 0.999463 0.996312
0.999901 1.0026 0.992431
0.999739 0.999437 0.996144
0.999903 0.997427 0.997936
0.999678 0.999487 0.995828
0.999928 0.997492 0.999116
0.999926 0.997541 0.997801
1.00028 1.00216 0.992366
0.999875 1.00071 0.994353
0.999919 1.00081 0.994206
1.00003 0.998373 0.996462
1 1.0011 0.99385
1.00009 0.99845 0.996298
0.999982 0.996967 0.999196
1.00006 0.998887 0.996485
0.999937 0.997349 0.998482
0.999918 0.99772 0.997611
0.999486 0.994763 0.980249
1.00546 0.994815 0.991258
1.0052 0.994798 0.990679
0.996346 0.994796 0.961787
1.00343 0.99478 0.979438
1.00547 0.994776 0.991348
1.00363 0.994711 0.985694
0.998597 0.994742 0.962194
0.999304 0.994857 0.937301
0.996719 0.994765 0.87463
0.994768 0.994898 0.80585
0.999515 1.00297 0.992399
1.00025 1.00193 0.992623
1.00041 1.00212 0.99224
0.999848 1.00301 0.992149
0.99838 1.00484 0.992969
1.00022 1.00317 0.991474
1.00012 1.00396 0.990946
1.00008 1.00278 0.992001
1.00547 0.994813 0.990832
1.00535 0.994882 0.99044
1.00527 0.994868 0.990143
1.00325 0.998101 0.991816
1.00427 0.997458 0.989857
1.00105 0.998649 0.994219
1.00355 1.00218 0.989481
1.00286 1.00313 0.987817
1.00139 1.00288 0.989873
1.00172 1.00512 0.987406
1.00014 1.00351 0.991338
0.996404 1.00362 0.997158
1.0042 0.995538 0.99069
0.997566 1.00476 0.993955
1.00146 1.00372 0.989332
1.005 0.994821 0.990697
1.00413 0.997581 0.990014
1.00297 0.996696 0.992987
1.00006 1.0027 0.992487
0.999471 1.00222 0.993999
1.00303 0.996122 0.989271
1.0031 0.99884 0.990939
1.00358 0.998165 0.991416
1.00112 0.997493 0.995146
0.998904 1.00481 0.992135
0.99789 1.0049 0.993101
0.997937 1.00376 0.994794
0.999824 0.995797 0.856387
1.00058 0.994882 0.938141
0.998333 1.00414 0.994771
1.0027 1.00431 0.986435
1.00296 0.994762 0.99034
1.00388 0.998464 0.990677
1.00412 0.999635 0.988676
1 0.994845 0.935555
0.995843 0.994777 0.956323
0.996318 0.996986 0.987951
0.996121 0.994791 0.871488
0.994822 0.994867 0.795222
0.998217 1.00455 0.993464
0.999849 0.994879 0.853969
0.994723 0.994861 0.790867
1.00086 0.997288 0.993112
1.00132 1.00135 0.991047
1.00118 1.0002 0.99359
0.994924 0.997654 0.991774
0.996873 0.994711 0.93036
0.994903 0.994812 0.953065
0.994779 0.994876 0.872408
0.994796 0.995025 0.781132
0.996713 1.00504 0.995878
0.994761 0.994796 0.784093
0.994743 0.994755 0.783079
0.996688 1.00148 0.997453
0.99921 1.00165 0.997044
0.994856 0.998861 0.988068
0.994925 0.994821 0.957073
0.994871 0.994692 0.925251
0.994805 0.994857 0.875482
0.994876 0.994884 0.794587
0.996323 1.00372 0.997695
0.99618 1.0051 0.997111
0.995291 1.00451 0.998146
1.00048 1.00401 0.99003
1.00083 1.00465 0.989411
0.99939 1.00507 0.990743
0.998699 1.00507 0.991723
0.997203 1.00399 0.995277
1.00058 1.00467 0.98948
0.998379 1.00415 0.993421
0.999867 1.00499 0.990368
0.995725 1.00488 0.996443
0.995193 1.00524 0.997789
0.997773 1.00475 0.993985
1.00021 1.00487 0.990604
1.00058 1.00429 0.989971
0.999261 1.00321 0.992699
0.999343 1.00432 0.991671
0.999893 1.00287 0.992268
0.997877 1.00303 0.994966
0.998099 1.00451 0.99246
0.99717 1.00502 0.994027
0.997789 1.00217 0.996408
0.999782 1.0021 0.993352
1.00399 0.999587 0.990469
0.998278 1.00472 0.992013
0.9984 1.00471 0.992715
0.999065 1.00514 0.990131
0.999071 1.00507 0.991386
1.00001 1.00504 0.989916
0.999382 1.00504 0.990984
0.999865 1.00475 0.990414
0.999851 1.00315 0.991797
1.00024 1.0044 0.990213
0.999922 1.00279 0.992217
1.00001 0.999495 0.996051
0.999888 1.00264 0.992414
0.99986 0.999455 0.995944
1.00002 0.997352 0.997758
0.999732 0.999443 0.99585
0.999957 0.997387 0.999131
0.999924 0.997464 0.999127
1.00039 1.00264 0.992023
0.99992 1.00094 0.994113
1.00026 1.00214 0.992382
1.00002 0.998307 0.996524
0.999915 1.00066 0.994342
0.999946 1.00079 0.994199
1.00005 0.998356 0.996453
0.999997 0.996892 0.999222
1.00007 0.998492 0.996819
0.999989 0.997 0.998623
0.999959 0.997292 0.997946
0.99933 0.995221 0.840749
0.994765 0.994849 0.782845
0.99604 0.994807 0.962477
1.00321 0.994734 0.979961
1.00552 0.994779 0.991377
0.99958 0.994833 0.959903
1.00333 0.994687 0.986351
0.999867 0.994865 0.932763
0.996086 0.994735 0.852932
0.994792 0.994939 0.800745
0.997828 0.994774 0.970408
0.996478 0.994751 0.938563
0.994743 0.994716 0.873906
0.994806 0.995291 0.794088
0.999718 1.00388 0.992014
0.999773 1.00268 0.992471
1.00022 1.002 0.992618
0.999898 1.00269 0.9925
0.998058 1.00416 0.99391
1.00031 1.00423 0.990214
0.99969 1.0038 0.991662
1.00073 1.00413 0.98952
1.00013 1.00391 0.990817
0.999662 1.00338 0.991924
1.00414 0.994816 0.99101
1.00487 0.994838 0.99066
1.00342 0.99799 0.990233
1.0023 0.996407 0.992897
1.00002 1.00218 0.994094
0.999897 1.00286 0.99102
1.00027 1.00345 0.991535
0.997589 1.00465 0.993856
1.00219 0.995566 0.98987
0.998817 1.005 0.991946
0.997632 1.00484 0.993397
1.0029 0.99868 0.990833
1.00314 0.998378 0.991206
1.00076 0.997507 0.99563
0.998124 1.00365 0.994916
0.999561 0.99545 0.988548
1.00054 0.999985 0.994831
0.99698 1.00249 0.996955
0.998493 1.00443 0.991972
0.997067 1.0052 0.993408
0.996979 1.00471 0.995362
0.994732 0.9948 0.804453
0.999824 0.994885 0.863306
1.00011 0.995265 0.922798
0.99852 1.00476 0.993417
1.00159 1.00151 0.991032
1.00082 0.997443 0.992927
1.00106 0.999824 0.994146
0.999844 0.995299 0.869154
0.996516 0.994751 0.923626
0.994915 0.994779 0.95292
0.994963 0.99857 0.992469
0.99478 0.994723 0.856241
0.994678 0.99484 0.797443
0.994825 0.995196 0.797356
0.996897 1.00495 0.995568
0.99475 0.99481 0.793258
0.994766 0.994762 0.782451
0.996733 0.999943 0.998177
0.998773 1.00154 0.996966
0.994875 0.997503 0.98988
0.994952 0.9948 0.954877
0.99484 0.994711 0.937097
0.994769 0.994973 0.855342
0.995153 0.994888 0.804237
0.995984 1.0042 0.999728
0.994751 0.994797 0.790878
0.994815 0.994827 0.783381
0.994824 1.00229 1.0001
0.994914 0.996645 0.965109
0.994791 0.99482 0.934029
0.994905 0.994923 0.851835
0.99579 0.994898 0.821087
0.996768 1.00481 0.996752
0.995665 1.00467 0.99835
0.995081 1.00427 0.99919
1.00038 1.00475 0.989435
1.00011 1.00494 0.990355
0.998428 1.00412 0.992987
0.995764 1.00459 0.99667
0.999636 1.00492 0.990608
0.99756 1.0048 0.993989
0.995025 1.00528 0.997927
0.994778 1.00529 0.998666
0.995417 1.00513 0.997527
0.998211 1.00508 0.993443
0.999468 1.00441 0.991641
0.999934 1.00262 0.992185
0.997411 1.00333 0.995249
0.997338 1.00492 0.994102
0.998967 1.00416 0.992406
0.997055 1.00299 0.996442
0.99745 1.00412 0.994983
0.995386 1.00512 0.997808
1.00118 0.999111 0.994838
0.999298 1.00154 0.994287
1.0022 0.999856 0.991321
1.00481 0.999722 0.988025
1.00308 1.00139 0.989673
1.00299 0.999215 0.991305
0.999071 1.00441 0.991797
0.999351 1.00513 0.989557
0.999006 1.00452 0.992734
0.999806 1.00512 0.990184
1.00053 1.00508 0.988783
0.999552 1.00508 0.991444
0.999963 1.00507 0.989924
0.99993 1.00386 0.990994
0.999981 1.00472 0.990498
0.999959 1.00323 0.991805
1.00016 0.999657 0.995706
0.999992 1.00268 0.992231
0.99999 0.999553 0.995635
1.00011 0.997449 0.997563
0.999857 0.999443 0.995644
1.00002 0.997351 0.998443
0.999972 0.997359 0.99911
1.00035 1.0036 0.990715
1.00003 1.00123 0.993675
1.00025 1.00274 0.991811
1.00005 0.998376 0.996432
0.999927 1.00088 0.99413
1.00027 1.00204 0.992399
1.00002 0.996842 0.999233
1.00002 0.998318 0.996523
0.999913 1.00071 0.994335
1.00006 0.998341 0.996445
0.999999 0.996903 0.999216
0.999979 0.996984 0.999189
0.994726 0.994784 0.781958
0.999287 0.994865 0.854418
0.994779 0.994774 0.782553
0.994786 0.994832 0.784064
0.998806 0.994859 0.959719
1.00283 0.994742 0.987008
0.999524 0.994793 0.927395
0.996538 0.994772 0.874315
0.99482 0.994856 0.795648
0.998175 0.994808 0.969219
0.996629 0.994722 0.923763
0.994748 0.994756 0.872758
0.994785 0.994975 0.786526
0.994916 0.994795 0.961446
0.994753 0.994701 0.923858
0.994803 0.995626 0.848643
0.994849 0.994883 0.79828
1.00051 1.00455 0.99056
0.999104 1.00395 0.992172
0.999887 1.00258 0.992538
0.997434 1.0036 0.994849
1.00094 1.00363 0.989597
1.00007 1.00437 0.990415
0.999082 1.00412 0.991851
1.00126 1.00358 0.989603
1.00084 1.00438 0.989479
1.00023 1.00372 0.990689
1.00203 0.994814 0.990422
1.00257 0.998484 0.990755
1.00313 0.998486 0.990997
1.00022 0.99742 0.996122
0.999183 1.00382 0.99502
0.997904 1.00479 0.993696
0.998772 1.0051 0.991768
0.999547 1.00397 0.991731
0.999347 0.996454 0.989239
0.998091 1.00514 0.992986
0.997991 1.00428 0.99537
1.00031 0.999788 0.994957
0.99814 1.00126 0.99688
0.996031 1.00088 0.98828
0.996705 1.00145 0.999671
0.994844 1.0051 0.997677
0.997115 1.0045 0.994894
0.996136 1.00522 0.99575
0.994771 0.994789 0.797558
0.994733 0.994767 0.799585
0.999827 0.995772 0.843385
0.997153 1.005 0.995308
0.998688 1.001 0.996897
0.996956 0.999272 0.998893
0.994725 0.994795 0.790235
0.994788 0.994709 0.924331
0.994924 0.994795 0.954843
0.994881 0.995874 0.992166
0.994778 0.995128 0.875081
0.994795 0.99477 0.782837
0.99558 0.994877 0.806215
0.996141 1.0037 1.00002
0.994765 0.994806 0.79281
0.9948 0.994826 0.784626
0.99487 1.00242 0.999012
0.994893 0.995743 0.966949
0.99486 0.994802 0.921281
0.995486 0.994897 0.815834
0.995238 0.997285 0.860932
0.9948 1.00501 1.00079
0.994781 0.994833 0.779404
0.994866 0.994844 0.799177
0.994848 0.994886 0.797867
0.994793 0.999487 0.988224
0.994854 0.995219 0.937907
0.997371 0.994891 0.873452
0.996172 1.00505 0.998566
0.995313 1.00477 0.999002
0.995281 1.00519 0.998965
0.999362 1.0049 0.990617
0.997541 1.00491 0.993996
0.994829 1.00533 0.998071
0.997657 1.00509 0.993503
0.995562 1.00507 0.997564
0.9948 1.00531 0.99857
0.994833 1.00518 0.998896
0.995509 1.00503 0.997728
0.997177 1.00484 0.994206
0.999659 1.00389 0.992347
0.996594 1.00365 0.996477
0.995399 1.00488 0.997726
0.997052 1.00431 0.994989
0.998389 1.00093 0.997101
0.998275 0.998993 0.998732
1.00195 1.00039 0.99016
0.998934 1.00096 0.995137
1.00247 0.999847 0.990953
1.0045 1.00132 0.986375
1.00481 1.00223 0.984853
1.00474 0.999628 0.988064
1.00393 0.999921 0.987978
1.00207 1.00337 0.988479
1.002 1.00181 0.989948
1.00185 0.998905 0.992111
0.999845 1.00413 0.99158
0.999954 1.00512 0.989355
1.00084 1.00515 0.987818
1.00041 1.00511 0.990242
1.00079 1.00508 0.988762
1.00041 1.00431 0.989795
1.00011 1.00506 0.989925
1.00011 1.00369 0.990973
1.00017 1.00004 0.99532
0.999998 1.0032 0.991811
1.00013 0.999715 0.995258
1.00024 0.997537 0.997288
0.999988 0.999584 0.995303
1.00011 0.997415 0.998309
1.00005 0.997349 0.999039
1.00071 1.00372 0.989782
1.00012 1.00173 0.992645
1.00044 1.0035 0.990725
1.0001 0.998554 0.996171
1.00006 1.0012 0.993482
1.00022 1.00275 0.991599
1.00004 0.996868 0.999207
1.00005 0.99835 0.996448
0.99999 1.00073 0.994145
1.00001 0.996873 0.999231
1.00002 0.998325 0.996523
1 0.996901 0.999211
0.994812 0.99481 0.788239
0.994735 0.994823 0.797004
0.999317 0.994837 0.85314
1.00093 1.00366 0.989879
0.994784 0.994801 0.788372
0.994777 0.994785 0.782461
0.99483 0.994835 0.798837
0.998328 0.994793 0.968862
0.996442 0.994744 0.938311
0.994696 0.99483 0.855654
0.994759 0.994854 0.797985
0.995669 0.994785 0.959025
0.994804 0.994714 0.936423
0.994749 0.995027 0.852328
0.994865 0.994888 0.800308
0.994884 0.994767 0.953486
0.994775 0.994804 0.932452
0.996256 0.996219 0.864336
0.995539 0.994902 0.821293
0.999049 1.00395 0.99231
0.999699 1.00454 0.990774
0.999259 1.00354 0.992337
1.0013 1.00229 0.990539
1.00095 1.00398 0.989617
0.999982 1.00464 0.990614
1.00138 1.00359 0.989533
1.00092 1.0044 0.989439
0.99841 0.997311 0.989752
0.999648 0.9996 0.994992
0.999349 1.00413 0.991472
0.99949 1.00002 0.996807
0.998563 1.00365 0.995377
0.998829 1.00514 0.992536
0.997518 1.00441 0.994223
0.995596 1.00036 0.988555
0.997026 1.00506 0.995545
0.996091 1.0035 0.997846
0.995898 1.00121 0.99975
0.996384 1.00508 0.995764
0.994816 1.00208 0.985679
0.995222 1.00319 0.998779
0.995741 1.00464 0.997835
0.996538 1.00554 0.99612
0.994754 0.994811 0.783167
0.994766 0.994793 0.794123
0.994731 0.994736 0.794499
0.995958 1.00372 1.0003
0.994826 1.00178 0.997879
0.99478 0.994817 0.794548
0.99475 0.994842 0.935677
0.994885 0.995694 0.963861
0.995424 0.995898 0.85939
0.994788 0.994826 0.785618
0.994892 0.994907 0.810488
0.994851 1.00498 1.00074
0.994781 0.994831 0.779766
0.994874 0.994856 0.798102
0.99483 1.00012 0.99197
0.994864 0.994892 0.800055
0.994834 0.996827 0.930491
0.996544 0.997415 0.87514
0.995248 1.004 0.997193
0.994839 0.994842 0.791821
0.994797 0.994815 0.790348
0.994803 0.995164 0.793486
0.996338 0.996716 0.864188
0.994892 1.00116 0.970986
0.99497 0.996272 0.923238
0.995675 1.00508 0.998831
0.995212 1.00519 0.999023
0.994818 1.00526 0.998065
0.99705 1.00513 0.993557
0.99512 1.00482 0.997601
0.994804 1.00531 0.998514
0.995264 1.00465 0.997691
0.994846 1.00511 0.998874
0.997274 1.00223 0.999138
0.99528 1.00472 0.997635
0.996408 1.00466 0.995039
0.997713 1.00141 0.997692
0.998153 1.00053 0.994963
0.995488 0.999091 1.00227
1.00159 1.00008 0.991426
1.00433 1.00427 0.982807
1.00431 1.00315 0.984298
1.0028 0.999778 0.990501
1.0043 1.00156 0.985923
1.00508 1.00223 0.984166
1.00507 1.00175 0.985201
1.00438 1.00219 0.985031
1.00416 1.00042 0.987956
1.00401 1.00018 0.987932
1.00331 1.00007 0.987958
1.00097 1.00506 0.987693
1.00152 1.00376 0.988563
1.00084 1.00227 0.990222
1.00065 1.00511 0.989154
1.00123 1.00513 0.987841
1.00067 1.00487 0.988625
1.00097 1.00509 0.988743
1.00057 1.00422 0.989781
1.0002 1.00051 0.993978
1.00038 1.00371 0.990962
1.00023 1.00005 0.994459
1.00011 0.997653 0.99879
1.00013 0.999821 0.99489
1.00019 0.9975 0.998116
1.00013 0.997404 0.998939
1.0007 1.00393 0.989672
1.00031 1.00247 0.991673
1.00065 1.00383 0.989978
1.00018 0.99886 0.995761
1.00022 1.00176 0.992526
1.00048 1.00349 0.990729
1.00007 0.996954 0.999145
1.00012 0.998498 0.996192
1.00006 1.00118 0.99329
1.00004 0.996859 0.999217
1.00005 0.998325 0.996464
1.00001 0.996879 0.999229
0.994776 0.99482 0.788892
0.994805 0.994805 0.788634
0.994729 0.994835 0.79609
1.00105 1.00352 0.989848
1.00025 1.00477 0.989197
1.00184 1.00157 0.99112
0.994871 0.994859 0.798014
0.994794 0.994801 0.78952
0.994787 0.994772 0.782542
0.996431 0.994778 0.95922
0.994833 0.994685 0.924146
0.994765 0.995434 0.874051
0.994865 0.994868 0.794508
0.994909 0.994807 0.954652
0.994797 0.9948 0.928129
0.996102 0.996838 0.862404
0.995357 0.994907 0.815916
0.994919 0.994882 0.953285
0.994857 0.994871 0.932837
0.997188 0.994891 0.873125
0.994863 0.994885 0.796281
0.998465 1.00296 0.993947
0.999493 1.00368 0.992137
0.999643 1.00458 0.990989
1.00128 1.00236 0.990463
1.00059 1.00445 0.989635
1.00145 1.00363 0.989462
0.995442 1.00024 0.989176
0.995595 1.00137 0.999929
0.998631 1.00341 0.993576
0.997772 1.00253 0.99787
0.997912 1.00479 0.99535
0.996296 1.00435 0.996036
0.995996 1.00538 0.995963
0.994801 1.00292 0.985633
0.995334 1.00521 0.998077
0.994779 1.0038 0.99791
0.995656 1.00493 0.997766
0.994835 1.00042 0.984055
0.995006 1.00514 0.994626
0.994785 1.00286 0.999114
0.994867 0.994849 0.783211
0.994764 0.99482 0.782246
0.994763 0.994793 0.790721
0.994893 1.00486 1.00065
0.994851 1.00031 0.987504
0.994781 0.99483 0.78014
0.994804 0.996368 0.930312
0.996143 0.994883 0.860475
0.994884 0.994853 0.796998
0.994865 0.994866 0.794368
0.995059 1.0037 0.997701
0.994824 0.994843 0.791057
0.994813 0.994804 0.791632
0.994926 1.00135 0.968074
0.99478 0.995028 0.786148
0.995942 0.997383 0.861906
0.994857 0.996521 0.937197
0.995005 1.00513 0.988361
0.994777 0.994824 0.790492
0.994779 0.994793 0.783718
0.994773 0.995031 0.805852
0.994809 0.995094 0.847015
0.99483 0.995825 0.934012
0.994838 1.00135 0.96194
0.995101 1.00517 0.999018
0.994907 1.00524 0.998022
0.995038 1.00516 0.997707
0.99565 1.00434 0.997657
0.994897 1.00525 0.998792
0.995902 1.00373 0.999089
0.998175 1.00087 0.998943
0.996907 1.00194 0.998254
1.00066 1.00023 0.993955
1.00188 1.00507 0.986759
1.00108 0.999687 0.993151
1.0043 1.00416 0.983604
1.00421 1.00358 0.983197
1.00504 1.00066 0.985324
1.00505 1.0017 0.984654
1.00433 1.00303 0.984311
1.00426 1.00188 0.985481
1.005 1.00253 0.984154
1.00508 1.00207 0.984315
1.00511 1.00099 0.985833
1.00465 1.00192 0.985315
1.00375 1.00215 0.985219
1.00205 1.00306 0.988266
1.0036 1.00111 0.987815
1.00329 1.00078 0.987776
1.00089 1.00519 0.987908
1.00145 1.00505 0.987682
1.0008 1.00405 0.988648
1.00165 1.00511 0.987868
1.00102 1.00476 0.988646
1.00016 1.00135 0.993201
1.0009 1.00404 0.989759
1.00025 1.00054 0.993943
1.0002 0.997903 0.998693
1.0003 0.999988 0.994446
1.00023 0.997686 0.997958
1.00019 0.997507 0.998834
1.00142 1.00367 0.989195
1.00056 1.00285 0.991176
1.00092 1.00372 0.989646
1.00024 0.999271 0.995237
1.00033 1.00246 0.991755
1.00057 1.00388 0.990178
1.00009 0.997082 0.999052
1.00019 0.998772 0.995788
1.0003 1.00176 0.992409
1.00007 0.996918 0.999165
1.00013 0.998447 0.996213
1.00003 0.996881 0.999227
0.994831 0.994846 0.78983
0.994778 0.994835 0.789296
0.994808 0.994803 0.788942
0.999895 1.00535 0.989134
1.00226 1.00206 0.991415
1.00085 1.00359 0.989825
1.00044 1.00467 0.989073
1.00071 1.00183 0.991628
1.00059 1.00278 0.991054
0.999025 1.00118 0.99456
0.994831 0.994833 0.785352
0.994871 0.994859 0.796918
0.994796 0.994829 0.790641
0.994891 0.994916 0.810459
0.995382 0.994807 0.953462
0.994809 0.9956 0.922401
0.995958 0.994944 0.875279
0.994919 0.995187 0.95249
0.994833 0.998115 0.919045
0.996461 0.997212 0.874303
0.995103 0.994897 0.805716
0.994935 0.995952 0.956613
0.99487 0.998037 0.920846
0.994906 0.994955 0.852218
0.994773 0.99498 0.785135
0.996095 1.00476 0.996291
0.998274 1.0033 0.994504
0.999213 1.00423 0.991962
1.00117 1.00285 0.990393
0.994793 1.00247 0.985453
0.994624 1.00403 0.99705
0.996281 1.00462 0.996313
0.996723 1.0053 0.995808
0.994865 1.00528 0.998503
0.995195 1.00513 0.997659
0.995892 1.00362 0.999249
0.995164 1.00121 0.981008
0.995319 1.00514 0.994716
0.995997 1.00287 0.999489
0.995534 1.00172 0.976913
0.994686 1.00308 0.9996
0.994756 0.99483 0.78544
0.994848 0.994848 0.787953
0.994773 0.994838 0.781307
0.99484 1.00379 0.998203
0.994888 1.00121 0.971854
0.994807 0.994846 0.790313
0.994895 0.99709 0.924452
0.995854 0.994916 0.875146
0.994805 0.994833 0.792708
0.994747 0.994901 0.797265
0.994934 1.00513 0.989425
0.994786 0.994835 0.790953
0.994767 0.9948 0.783688
0.994828 1.00084 0.962022
0.994798 0.994918 0.800885
0.994765 0.99516 0.850678
0.994862 0.996246 0.920843
0.994887 1.00406 0.983325
0.994828 0.994817 0.788654
0.994741 0.994854 0.783663
0.994718 0.994712 0.873068
0.994817 0.994884 0.932817
0.994814 0.999811 0.95706
0.994929 1.00525 0.998529
0.995119 1.00489 0.99775
0.995777 1.00368 0.997674
0.995066 1.00455 0.999039
0.996457 1.00311 0.99922
1.00047 1.00075 0.994851
1.00311 0.999937 0.992965
1.00275 1.00503 0.98582
1.00437 1.00222 0.984799
1.00401 1.004 0.984399
1.00446 1.00353 0.983166
1.00479 1.00144 0.98497
1.00525 0.998048 0.987354
1.00512 1.00019 0.986017
1.00499 1.00084 0.985369
1.00506 1.00178 0.984761
1.00503 1.00156 0.984646
1.00435 1.00293 0.984321
1.00509 1.00308 0.983412
1.005 1.00254 0.984197
1.00507 1.00199 0.984469
1.00384 1.00156 0.987713
1.00418 1.00164 0.986307
1.00437 1.00193 0.98543
1.00185 1.0043 0.987437
1.00226 1.0029 0.988263
1.00307 1.00201 0.987676
1.00034 1.00185 0.992374
1.00116 1.00515 0.987958
1.00182 1.00502 0.987669
1.00117 1.00468 0.988665
1.00019 1.00136 0.993183
1.00017 0.998276 0.998531
1.00023 1.00062 0.993909
1.0002 0.997897 0.99865
1.00023 0.997605 0.99874
1.00089 1.00502 0.989573
1.00146 1.00511 0.98856
1.00085 1.00333 0.990254
1.00112 1.00409 0.989191
1.00024 0.999751 0.994748
1.00053 1.00293 0.991173
1.00099 1.00383 0.98962
1.0001 0.99739 0.998925
1.00024 0.999249 0.99526
1.0004 1.00247 0.991835
1.00009 0.99708 0.999081
1.0002 0.99874 0.995819
1.00007 0.996896 0.999186
0.994789 0.994847 0.781386
0.994823 0.994836 0.789103
0.994783 0.994828 0.789692
1.00043 1.00533 0.98891
1.00046 1.00174 0.991853
1.00208 1.00101 0.988629
0.998611 1.0037 0.991366
1.00194 0.999495 0.992429
1.00085 1.00464 0.988942
0.999985 1.00251 0.992143
1.00042 1.00365 0.991058
0.999381 1.00085 0.995326
0.99906 1.00345 0.994662
0.994761 0.99476 0.784743
0.994808 0.994836 0.786735
0.994869 0.994844 0.795829
0.995388 0.994873 0.807588
0.995985 0.994883 0.860212
0.99491 0.994976 0.95143
0.994832 0.995477 0.931828
0.99494 0.996412 0.952306
0.994902 0.997264 0.933364
0.995136 0.997511 0.86163
0.994794 0.995005 0.782996
0.994958 0.99824 0.954504
0.994804 0.995933 0.93316
0.994818 0.994888 0.876447
0.994725 0.995273 0.808727
0.998465 1.00018 0.996894
0.995802 1.00492 0.996613
0.998417 1.00276 0.995077
0.994851 1.00285 0.977541
0.99497 1.00513 0.994297
0.995036 1.00521 0.997496
0.994718 1.00448 0.999415
0.995415 1.00344 0.999334
0.994724 1.00175 1.00008
0.994802 1.00192 0.977439
0.995971 1.00152 1.00162
0.994911 1.0003 0.984535
0.994792 0.994812 0.798044
0.994781 0.99484 0.784413
0.994832 0.994839 0.792867
0.994959 1.00512 0.989749
0.994846 0.999957 0.959879
0.994804 0.994841 0.79142
0.994856 0.995837 0.933096
0.994771 0.995132 0.871566
0.994773 0.994775 0.78399
0.994833 0.994863 0.795932
0.995195 1.00469 0.984091
0.994815 0.994814 0.788821
0.994769 0.994845 0.784743
0.994873 0.99853 0.958169
0.994736 0.994793 0.872104
0.994822 0.995186 0.925613
0.994973 1.00258 0.981519
0.994721 0.994795 0.782524
0.996612 0.994763 0.874508
0.994784 0.994722 0.923286
0.994858 0.994853 0.958048
0.995416 1.0052 0.997841
0.995326 1.00426 0.997578
0.997605 1.00055 0.997879
0.994828 1.00503 0.99951
0.999339 1.00128 0.995612
1.00434 0.995857 0.991947
1.0037 1.00512 0.984852
1.00433 1.00205 0.984665
1.0049 0.998424 0.987441
1.00479 1.00353 0.983134
1.00475 1.00131 0.985026
1.00498 0.997892 0.98801
1.00532 0.99555 0.989613
1.00529 0.997633 0.987414
1.00525 0.997941 0.98739
1.00521 1.00014 0.986081
1.00511 1.00024 0.985959
1.00485 1.00094 0.985414
1.00522 1.00272 0.983608
1.00506 1.00168 0.98468
1.00501 1.00138 0.984639
1.00504 1.0027 0.984711
1.0046 1.00344 0.983844
1.00504 1.00261 0.984238
1.00225 1.00367 0.987284
1.00329 1.00172 0.98763
1.00345 1.0023 0.986778
1.00064 1.00276 0.992241
1.00175 1.00446 0.987532
1.00246 1.00284 0.988261
1.00024 0.998988 0.995813
1.00043 1.00198 0.992786
1.00138 1.00509 0.98801
1.00028 1.00136 0.993158
1.00021 0.998442 0.998454
1.00022 0.998015 0.998604
1.00167 1.00275 0.988837
1.00179 1.00519 0.987896
0.999696 1.00514 0.989462
1.00086 1.0043 0.989307
1.00098 1.0048 0.988525
1.00014 1.00031 0.994321
1.00069 1.00357 0.990252
1.00087 1.00449 0.989181
1.00009 0.997689 0.998827
1.00024 0.999695 0.994777
1.00047 1.00295 0.991172
1.00009 0.997322 0.998964
1.00024 0.999162 0.995282
1.00009 0.997015 0.999109
0.994772 0.994819 0.797594
0.994794 0.994844 0.781824
0.994807 0.994854 0.788299
1.00322 1.00276 0.985887
1.00035 1.00509 0.988694
1.00007 1.00215 0.992397
1.00015 1.00478 0.990795
1.00328 1.00095 0.988656
1.00147 0.999466 0.994532
1.00398 1.00109 0.987505
0.996306 1.00466 0.99468
0.999485 1.00399 0.991061
0.999252 0.999379 0.996091
0.997541 1.00332 0.994642
0.998321 1.00237 0.995074
0.994786 0.994861 0.798575
0.994782 0.99477 0.784129
0.994797 0.99484 0.787825
0.994833 0.996069 0.798971
0.995304 0.996049 0.86009
0.994894 0.997881 0.920996
0.99582 0.995138 0.951855
0.995249 0.998095 0.955079
0.994757 0.995768 0.803155
0.994829 0.996647 0.924641
0.99475 0.995569 0.856447
0.994879 0.996435 0.960538
0.994775 0.994827 0.935029
0.994729 0.995189 0.874588
0.999836 0.99509 1.00141
0.998841 1.00058 0.996729
0.995356 1.00531 0.996914
0.994846 1.00186 0.977529
0.995932 1.00029 1.00048
0.995867 1.00278 0.999254
0.996609 0.999945 1.00199
0.994914 0.99939 0.984633
0.995743 0.998927 0.992543
0.994721 0.994791 0.799397
0.994784 0.994812 0.798326
0.994802 0.994839 0.783191
0.994951 1.00452 0.984232
0.994856 0.999809 0.957239
0.994797 0.994817 0.789263
0.994835 0.995029 0.920341
0.99468 0.99477 0.85515
0.994823 0.994854 0.799059
0.994894 1.00491 0.981174
0.994734 0.994833 0.79729
0.996214 0.99474 0.852609
0.994911 0.995229 0.953393
0.994823 0.99472 0.936071
0.995029 1.00039 0.989754
0.999416 0.995218 0.840306
0.996488 0.994755 0.938646
0.99492 0.994776 0.951767
0.99478 1.00532 0.997462
0.997182 1.0017 0.997584
1.00059 0.998616 0.993859
0.998475 1.00153 0.996374
1.00392 0.996357 0.991664
1.00495 0.995772 0.990536
1.00422 1.00185 0.984536
1.00484 0.998507 0.987336
1.00505 0.996103 0.989492
1.0047 1.00107 0.985089
1.00493 0.99782 0.987959
1.00534 0.994914 0.9902
1.00529 0.99487 0.9909
1.00532 0.995598 0.989582
1.00534 0.995509 0.989657
1.00537 0.99755 0.987448
1.00529 0.997598 0.987599
1.00527 0.997834 0.987424
1.00533 1.00087 0.984943
1.00521 1.00002 0.985996
1.00511 1.00029 0.985899
1.00534 1.00339 0.982732
1.00522 1.00274 0.983623
1.00505 1.00156 0.984596
1.0031 1.00299 0.986708
1.00428 1.00317 0.984662
1.00396 1.00369 0.984281
1.00109 1.0033 0.989769
1.00268 1.0033 0.987245
1.00283 1.00188 0.987535
0.999912 1.0002 0.997908
1.00078 1.0027 0.990874
1.00204 1.00448 0.987625
1.00024 0.998913 0.998198
1.00051 1.00204 0.992191
1.00024 0.998459 0.998366
1.00464 1.00131 0.987059
1.00253 1.0021 0.988437
1.00207 1.00431 0.987712
1.00123 1.00486 0.988556
1.00128 1.00521 0.987892
1.00001 1.0051 0.989349
1.00002 1.00123 0.993705
1.00077 1.00442 0.989312
1.00098 1.00427 0.988484
1.00007 0.997978 0.99872
1.00013 1.00032 0.994334
1.00051 1.00389 0.990248
1.00008 0.99766 0.998852
1.00023 0.999693 0.994799
1.00008 0.997275 0.999003
0.994748 0.994792 0.785926
0.994786 0.994817 0.797925
0.994801 0.994838 0.78233
1.00339 1.00327 0.98578
1.0047 1.00405 0.985193
1.00207 1.00455 0.986851
0.999982 1.00491 0.990215
1.0044 1.00082 0.988703
0.998704 0.998821 0.996487
0.998056 1.00321 0.994362
1.00206 1.00197 0.989138
1.00117 1.00001 0.992744
0.998658 0.999705 0.996759
0.998057 1.0036 0.994591
0.999381 1.00273 0.994523
0.996579 0.994779 0.847632
0.994749 0.994849 0.792503
0.994797 0.99478 0.784456
0.99481 0.994895 0.797126
0.994771 0.995095 0.876219
0.994859 0.995278 0.920736
0.994823 0.997459 0.954188
0.994877 0.997068 0.9578
0.994833 0.994888 0.873329
0.994839 0.994984 0.922331
0.994892 0.997328 0.961719
0.995197 0.994648 0.925318
0.99903 0.995348 1.00484
0.999726 0.995002 1.00142
0.998558 1.00024 0.996719
0.994827 0.999188 0.984896
0.996341 0.999513 1.00236
0.995979 0.999002 0.992167
0.995461 0.996228 0.990142
0.999812 0.996592 0.854525
0.994725 0.994769 0.795979
0.994783 0.994819 0.798305
0.994849 1.0045 0.981701
0.994938 0.994858 0.951588
0.994729 0.994842 0.796178
0.99487 0.994694 0.924343
0.996583 0.994774 0.874014
0.995067 0.998385 0.986137
0.999352 0.994869 0.854446
0.996632 0.994718 0.923899
0.994913 0.994806 0.952806
0.995913 0.99824 0.986207
0.999348 0.994857 0.937488
0.994925 0.994808 0.95982
0.996462 1.00187 0.997309
0.999828 0.999318 0.99383
1.00322 0.998314 0.991482
1.00325 0.997051 0.991399
1.00486 0.995594 0.990448
1.00513 0.995123 0.99062
1.00484 0.998521 0.987233
1.00499 0.996314 0.989396
1.00533 0.994756 0.990295
1.00489 0.997782 0.987906
1.00534 0.994942 0.99015
1.00527 0.994809 0.990764
1.00533 0.994839 0.990825
1.00528 0.99486 0.990928
1.00528 0.994962 0.990915
1.00532 0.996018 0.989569
1.00532 0.995648 0.98974
1.00535 0.995458 0.989704
1.00541 0.998559 0.986834
1.00536 0.997609 0.987375
1.00529 0.997547 0.987784
1.00544 1.00242 0.98332
1.00535 1.00092 0.984953
1.00521 0.999947 0.985912
1.00439 1.00313 0.98471
1.00526 1.00327 0.982866
1.0052 1.00276 0.98364
1.00146 1.00352 0.988771
1.00302 1.00322 0.986603
1.00371 1.0032 0.984624
1.00027 1.00058 0.997449
1.00126 1.00307 0.989787
1.00279 1.00315 0.987196
1.00014 1.00015 0.996455
1.00099 1.00252 0.990944
1.00029 0.9992 0.998019
1.00516 1.00319 0.983943
1.00372 1.00195 0.986876
1.00289 1.00219 0.987599
1.00293 1.00252 0.988041
1.00196 1.00439 0.987748
1.00126 1.00516 0.988067
1.00029 1.00166 0.992874
1.00092 1.0049 0.988537
1.00031 1.00521 0.987896
1.00007 0.998411 0.998514
1.00003 1.001 0.993724
1.00079 1.00438 0.989317
1.00004 0.997971 0.998756
1.00011 1.00022 0.994371
1.00006 0.997593 0.99888
0.99877 0.994814 0.855746
0.994745 0.994792 0.792039
0.994792 0.994814 0.798396
1.00347 1.00337 0.985687
1.00291 1.00431 0.98548
1.00431 1.00404 0.984756
1.0047 1.00314 0.984393
1.00139 1.00196 0.990967
0.999545 1.00331 0.99408
1.00201 1.00191 0.990753
1.00128 1.00045 0.992936
1.00469 0.995124 0.991711
1.00202 0.997491 0.995047
1.00135 0.997955 0.995869
1.0003 0.998488 0.996353
0.999961 1.0016 0.993958
0.997438 0.994774 0.935315
0.997156 0.994761 0.851938
0.994701 0.994841 0.79875
0.994832 0.994844 0.858093
0.994773 0.994787 0.9334
0.994909 0.996526 0.959813
0.994894 0.996584 0.963508
0.994812 0.994701 0.938195
0.995793 0.994784 0.961363
0.997683 0.996313 1.00323
0.997839 0.996012 1.00493
0.999971 0.995608 1.00129
0.995981 0.998395 0.991935
0.996624 0.996367 0.990924
1.00013 0.99558 0.921967
0.999818 0.994898 0.861882
0.994726 0.994746 0.792641
0.995182 0.997999 0.982094
0.994915 0.994789 0.952323
0.9994 0.994836 0.853381
0.996482 0.994742 0.938298
0.995873 0.997715 0.986469
0.999802 0.994865 0.932732
0.995448 0.994806 0.957536
0.999738 0.995167 0.984992
0.997585 0.994802 0.969187
0.999375 0.999423 0.993801
1.00234 0.997316 0.991495
1.00505 0.994702 0.991384
1.00483 0.995491 0.99035
1.00511 0.995011 0.990564
1.00529 0.994717 0.990649
1.00486 0.996505 0.9893
1.00533 0.994768 0.990253
1.00532 0.994797 0.990506
1.00534 0.994975 0.9901
1.00526 0.994823 0.990758
1.00533 0.994857 0.990632
1.00531 0.994842 0.990816
1.00535 0.994852 0.990798
1.00528 0.994853 0.990955
1.00528 0.994954 0.990924
1.00524 0.995285 0.990608
1.00533 0.997113 0.988665
1.00533 0.996037 0.98957
1.00531 0.995703 0.989898
1.00539 1.00099 0.984626
1.00543 0.998684 0.98662
1.00535 0.997658 0.987302
1.00523 1.00309 0.983199
1.00544 1.00241 0.983396
1.00537 1.00096 0.984963
1.00218 1.0035 0.987587
1.00394 1.00339 0.984755
1.00494 1.00346 0.982999
1.00066 1.00124 0.996983
1.00157 1.00342 0.988744
1.00294 1.00334 0.986513
1.00049 1.00076 0.997268
1.00133 1.00291 0.989809
1.00041 1.00016 0.99755
1.0052 1.00383 0.983481
1.0051 1.00253 0.984037
1.00328 1.00373 0.985676
1.00296 1.00209 0.986676
1.00252 1.00286 0.98749
1.00178 1.00426 0.987328
1.00165 1.00385 0.987777
1.00112 1.00518 0.987998
1.00061 1.00241 0.991702
1.00008 0.998986 0.998219
1.00008 1.00189 0.992882
1.00057 1.00513 0.988519
1.00002 0.998369 0.998591
1.00003 1.00105 0.99371
1.00001 0.99794 0.998786
0.999963 0.994848 0.937585
0.999846 0.994868 0.853314
0.994728 0.994771 0.78577
1.00305 1.00534 0.98409
1.00387 1.0038 0.984312
1.00275 1.00176 0.989533
1.00417 1.00322 0.984515
1.00521 0.999631 0.986179
1.00368 0.99759 0.990046
1.00119 1.00063 0.9931
1.00476 0.995246 0.991097
1.00187 0.997228 0.995143
1.00408 0.99706 0.990978
1.00212 0.998274 0.993645
1.00162 0.998853 0.994463
1.00103 0.99817 0.99594
1.00106 0.998333 0.995964
0.995087 0.994782 0.960172
0.997112 0.994748 0.930342
0.99631 0.994801 0.871041
0.994775 0.99467 0.924755
0.9949 0.996493 0.963989
0.995719 0.995527 0.967086
0.998962 0.994792 0.990707
0.999111 0.995801 1.00202
0.997301 0.996552 1.00504
0.998359 0.997953 0.991801
0.998426 0.994771 0.96118
1.00048 0.994891 0.937566
0.999817 0.996565 0.841805
0.995654 0.99756 0.986926
0.996045 0.994794 0.95751
0.999277 0.994826 0.927462
0.999117 0.99653 0.985564
0.997648 0.994815 0.968095
1.00253 0.996789 0.98756
1.00328 0.994685 0.984928
1.00141 0.997315 0.991497
1.00451 0.994745 0.991456
1.00523 0.994773 0.990814
1.00505 0.994917 0.990508
1.00528 0.994727 0.990598
1.00538 0.994847 0.990459
1.00533 0.994773 0.99021
1.00532 0.994804 0.990505
1.00535 0.994858 0.990536
1.00526 0.994831 0.990751
1.00533 0.994853 0.990654
1.00536 0.994862 0.990687
1.0053 0.994842 0.990808
1.00534 0.994843 0.990788
1.00529 0.995001 0.990902
1.00528 0.994949 0.990931
1.00525 0.99526 0.99063
1.00528 0.996397 0.989571
1.00533 0.999485 0.986358
1.00534 0.997342 0.988331
1.00534 0.996057 0.989571
1.00535 1.00238 0.983507
1.00541 1.00108 0.984649
1.00546 0.998817 0.986407
1.00304 1.00279 0.986981
1.00484 1.0034 0.983217
1.00543 1.00244 0.983475
1.00119 1.00153 0.99652
1.00227 1.00344 0.987482
1.00349 1.00374 0.984805
1.00087 1.00128 0.996814
1.00172 1.00329 0.988722
1.00068 1.00083 0.997096
1.00531 1.00128 0.984728
1.00507 1.00338 0.983415
1.0044 1.004 0.983531
1.005 1.00217 0.984136
1.0038 1.00334 0.985322
1.00308 1.00305 0.98625
1.00244 1.00419 0.98739
1.00214 1.00427 0.987322
1.00104 1.00297 0.990229
1.00094 1.00513 0.987945
1.00037 1.00257 0.991707
1.00014 0.999962 0.997753
1.00004 0.998909 0.998334
0.999914 1.00193 0.9929
0.999988 0.998308 0.99866
0.995641 0.994991 0.96365
0.999581 0.994888 0.921714
0.999849 0.995584 0.868463
1.00529 0.997353 0.987975
1.00442 1.00155 0.98813
1.00372 1.00329 0.984635
1.00423 0.997707 0.990173
1.0052 0.999759 0.98622
1.00517 0.996247 0.989666
1.00508 0.995912 0.990479
1.00141 0.997422 0.995253
1.00462 0.995977 0.99098
1.00173 0.998323 0.993902
1.00367 0.997914 0.990333
1.00318 0.994789 0.994535
1.00133 0.998381 0.994669
1.00078 0.998809 0.996015
0.998424 0.994714 0.98929
0.995557 0.994773 0.958677
0.996984 0.994739 0.923789
0.995412 0.995626 0.968478
0.998811 0.994812 0.993277
0.999496 0.995505 1.00077
1.00302 0.995366 0.977888
0.999179 0.99486 0.959278
1.00026 0.995259 0.922035
0.998152 0.997265 0.986114
0.997504 0.994798 0.96769
1.00173 0.995762 0.988202
1.00277 0.994696 0.985437
1.00351 0.996839 0.990154
1.00546 0.994682 0.99074
1.00401 0.994746 0.991533
1.00523 0.994785 0.990804
1.00539 0.994886 0.990446
1.00527 0.994739 0.990549
1.00537 0.994838 0.990468
1.00539 0.994866 0.990501
1.00532 0.994813 0.990504
1.00535 0.994861 0.990542
1.00533 0.9949 0.990725
1.00533 0.994851 0.990675
1.00536 0.994863 0.990685
1.00531 0.994866 0.990919
1.00534 0.994834 0.990779
1.00529 0.994937 0.990902
1.00528 0.995394 0.990654
1.00525 0.995234 0.990651
1.00528 0.996204 0.989737
1.00532 0.998821 0.987243
1.00533 1.00148 0.98448
1.00532 0.999748 0.986094
1.00534 0.997561 0.987997
1.00339 1.0015 0.987484
1.00529 1.00248 0.983527
1.00542 1.00116 0.984671
1.00184 1.00144 0.996098
1.00309 1.00254 0.986946
1.0046 1.00355 0.983229
1.0014 1.00161 0.996307
1.0024 1.00333 0.98737
1.00103 1.00143 0.996611
1.00534 0.999115 0.986358
1.00528 1.0013 0.984692
1.00541 1.00258 0.98329
1.00485 1.00301 0.983357
1.00486 1.00394 0.983119
1.00352 1.0035 0.985304
1.00463 1.00263 0.984968
1.00307 1.00334 0.986306
1.00142 1.00336 0.989039
1.00213 1.00435 0.987276
1.00094 1.00317 0.990259
1.00036 1.00104 0.997254
1.00018 1.00274 0.991714
1.00003 0.999751 0.997942
0.999973 0.998823 0.998432
0.999394 0.995145 0.985527
0.996513 0.994856 0.958826
1.00012 0.994836 0.937285
1.00541 0.995672 0.989505
1.00533 0.995445 0.989798
1.00531 0.997034 0.988216
1.00479 0.997667 0.990295
1.00518 0.999821 0.986268
1.00519 0.996112 0.989759
1.00539 0.99486 0.989932
1.00486 0.995466 0.990993
1.00163 0.99818 0.994187
1.00364 0.998009 0.990997
1.00518 0.994794 0.99105
1.00364 0.994722 0.993222
1.00265 0.994855 0.99433
1.00157 0.997506 0.994878
0.998966 0.994658 0.989204
0.996275 0.994793 0.957641
0.999028 0.994805 0.995993
1.00478 0.995549 0.989827
1.00319 0.99527 0.978016
0.998768 0.994887 0.959306
1.00154 0.994776 0.988747
1.00235 0.994703 0.985964
1.0037 0.995845 0.990538
1.00544 0.994675 0.990852
1.00546 0.99475 0.990898
1.00551 0.994805 0.991217
1.00524 0.994806 0.990791
1.00541 0.994869 0.990457
1.00539 0.994858 0.990768
1.00537 0.994826 0.990475
1.00539 0.994864 0.990529
1.00533 0.994883 0.99081
1.00534 0.994863 0.990547
1.00534 0.994901 0.990722
1.0053 0.994916 0.990949
1.00536 0.994863 0.990682
1.00531 0.994867 0.990913
1.00531 0.994982 0.991005
1.00528 0.994873 0.990901
1.00528 0.99537 0.990589
1.00534 0.997905 0.988123
1.00528 0.996014 0.989902
1.00532 0.998688 0.987387
1.00532 1.00089 0.985196
1.00351 1.00084 0.988082
1.00535 1.00146 0.984506
1.00532 1.00002 0.98583
1.0022 1.00089 0.996123
1.0034 1.00158 0.987522
1.0051 1.0027 0.983542
1.00194 1.00137 0.996077
1.00313 1.00249 0.986914
1.0016 1.00174 0.996146
1.00536 0.996817 0.988564
1.00533 0.998925 0.986639
1.00544 1.00115 0.9847
1.00525 1.00134 0.984648
1.00542 1.00269 0.983189
1.00423 1.00336 0.984281
1.00534 1.00385 0.982706
1.00376 1.00317 0.985315
1.00208 1.00362 0.987781
1.00343 1.00339 0.986381
1.00135 1.00347 0.989059
1.00068 1.00159 0.996843
1.00069 1.00332 0.990286
1.00018 1.00077 0.997433
0.999998 0.999539 0.998109
1.00379 0.995343 0.992082
0.999107 0.995308 0.98305
0.996379 0.994842 0.959626
1.00537 0.995045 0.990162
1.00538 0.995463 0.989667
1.00535 0.994887 0.990659
1.00534 0.995636 0.989749
1.00532 0.996768 0.988449
1.00544 0.99478 0.990363
1.00522 0.996127 0.989841
1.00535 0.995098 0.989918
1.00537 0.994719 0.990765
1.00368 0.99729 0.991653
1.0052 0.994787 0.990697
1.00307 0.994641 0.993473
1.00179 0.994916 0.994148
0.999392 0.9946 0.98885
1.00552 0.994781 0.991315
1.00498 0.995304 0.989816
1.00315 0.995237 0.97826
1.00374 0.994823 0.990908
1.00543 0.994682 0.990964
1.00543 0.994753 0.990867
1.00555 0.994814 0.991338
1.00539 0.994846 0.991308
1.00542 0.994856 0.99047
1.00538 0.99486 0.990769
1.00533 0.994886 0.991065
1.0054 0.99486 0.990558
1.00533 0.994886 0.99081
1.00528 0.994923 0.991092
1.00535 0.994902 0.990719
1.0053 0.994917 0.99095
1.0053 0.994899 0.991221
1.0053 0.994868 0.990906
1.00531 0.994989 0.990965
1.00533 0.996946 0.989183
1.00528 0.995345 0.990524
1.00534 0.997936 0.988126
1.00532 1.00037 0.985775
1.00531 0.99855 0.98753
1.00532 1.00086 0.985224
1.00344 1.00063 0.990262
1.00252 0.999954 0.992569
1.0035 1.00088 0.989015
1.00535 1.00143 0.984532
1.00211 1.00084 0.996188
1.00338 1.00144 0.987561
1.00194 1.00138 0.996091
1.00532 0.9949 0.990949
1.00531 0.995631 0.990086
1.00534 0.996785 0.9888
1.00529 0.999735 0.986198
1.00532 0.998686 0.98692
1.0054 1.00116 0.984631
1.00502 1.00256 0.98379
1.00543 1.00276 0.983089
1.00458 1.00293 0.984226
1.00295 1.00301 0.986757
1.00407 1.00282 0.985331
1.00194 1.00366 0.987796
1.00133 1.00201 0.996248
1.00133 1.00362 0.98909
1.00054 1.00149 0.997002
0.999986 1.00055 0.997634
1.00543 0.994815 0.991142
1.00361 0.995115 0.991565
0.999105 0.995221 0.980635
1.00533 0.994834 0.990696
1.00538 0.995095 0.990096
1.00536 0.995238 0.989846
1.00535 0.994907 0.990664
1.00534 0.995761 0.989699
1.00537 0.994825 0.990787
1.00541 0.994771 0.990326
1.00532 0.995256 0.989909
1.00531 0.994722 0.990811
1.0052 0.99486 0.990344
1.00279 0.994554 0.993698
1.00532 0.994856 0.991399
1.00549 0.994791 0.991324
1.00527 0.995041 0.9898
1.0054 0.99475 0.990828
1.00557 0.994817 0.991457
1.0054 0.994855 0.991281
1.00533 0.994902 0.991342
1.00538 0.994863 0.990769
1.00533 0.994888 0.991025
1.00527 0.994927 0.991263
1.00534 0.994889 0.99081
1.00528 0.994923 0.991091
1.00523 0.994929 0.991403
1.0053 0.994917 0.99095
1.0053 0.9949 0.991193
1.00532 0.996151 0.990133
1.00531 0.994997 0.990924
1.00534 0.996971 0.989174
1.0053 0.999948 0.986294
1.00534 0.997966 0.988129
1.00532 1.00035 0.985809
1.00347 1.00045 0.990391
1.00534 1.00083 0.985253
1.00368 1.00049 0.990106
1.00255 0.999658 0.99272
1.00217 1.00029 0.99453
1.0037 1.0009 0.989742
1.00209 1.00074 0.996243
1.0053 0.994875 0.990956
1.00527 0.995425 0.990528
1.00531 0.994912 0.990979
1.00526 0.998417 0.98762
1.00531 0.995585 0.990199
1.00532 0.996821 0.989036
1.0053 0.999685 0.986168
1.00534 1.00146 0.984484
1.00537 1.00119 0.984564
1.00516 1.00241 0.983791
1.00334 1.00186 0.987222
1.00478 1.00275 0.98418
1.00284 1.00313 0.986836
1.0018 1.00178 0.995994
1.00186 1.00362 0.987818
1.00108 1.00177 0.9965
1.0003 1.00138 0.997137
1.00534 0.994877 0.991064
1.00538 0.994819 0.991207
1.0031 0.995029 0.991068
1.0053 0.994872 0.990926
1.00534 0.994829 0.990648
1.00537 0.995127 0.990032
1.00534 0.994951 0.990667
1.00539 0.994834 0.99076
1.00537 0.994763 0.990289
1.00529 0.994731 0.990852
1.00532 0.994899 0.991384
1.00533 0.994858 0.991354
1.00546 0.994808 0.991331
1.00531 0.994921 0.991419
1.00542 0.994864 0.991254
1.00533 0.994902 0.991336
1.00527 0.994932 0.99139
1.00533 0.994889 0.990985
1.00527 0.994927 0.991268
1.00517 0.994961 0.991581
1.00528 0.994924 0.99109
1.00524 0.994929 0.991393
1.00533 0.995643 0.990774
1.00531 0.994901 0.991165
1.00531 0.996184 0.990128
1.00528 0.999614 0.986712
1.00536 0.996999 0.989166
1.0053 0.999931 0.986331
1.00343 1.00041 0.990453
1.00533 1.00032 0.985843
1.00369 1.00035 0.990211
1.00254 0.999685 0.992697
1.00391 1.00034 0.989956
1.00204 0.999817 0.993102
1.00145 1.00066 0.996896
1.00527 0.994916 0.991038
1.00532 0.994973 0.990904
1.0053 0.994883 0.990971
1.00529 0.997866 0.988221
1.00529 0.99522 0.990666
1.00531 0.994914 0.991011
1.00535 1.00052 0.985475
1.00527 0.998366 0.987612
1.00531 0.99551 0.990314
1.00531 0.999639 0.986139
1.00534 1.00148 0.984455
1.00331 1.00108 0.988141
1.00537 1.00222 0.98378
1.00326 1.00197 0.987218
1.00187 1.00119 0.9962
1.00267 1.00319 0.98689
1.00173 1.00174 0.996044
1.0009 1.00171 0.996725
1.00531 0.994906 0.99122
1.00535 0.994873 0.990993
1.00532 0.99482 0.991277
1.00529 0.994875 0.990941
1.00535 0.994825 0.990601
1.0054 0.994843 0.990734
1.0053 0.994927 0.991419
1.00532 0.994903 0.991397
1.00533 0.994862 0.99131
1.00531 0.99492 0.991428
1.00525 0.994945 0.991554
1.00532 0.994903 0.991331
1.00527 0.994936 0.991421
1.00515 0.994962 0.991642
1.00528 0.994927 0.991272
1.00518 0.99496 0.991579
1.00532 0.995364 0.991104
1.00526 0.99493 0.991382
1.00529 0.995686 0.990775
1.00529 0.999318 0.987006
1.00531 0.996214 0.990122
1.00528 0.999598 0.98674
1.00336 1.00042 0.990516
1.00529 0.999913 0.98637
1.00364 1.00033 0.990262
1.00243 0.999841 0.992672
1.00389 1.00025 0.990038
1.00207 0.999743 0.993102
1.00154 1 0.99347
1.00525 0.994924 0.991255
1.00528 0.994939 0.991187
1.00527 0.994911 0.991019
1.00529 0.9967 0.989438
1.00533 0.995032 0.990873
1.0053 0.994891 0.990983
1.0053 0.999989 0.986194
1.00529 0.997428 0.988615
1.0053 0.995048 0.990804
1.00342 1.00046 0.988629
1.00533 1.00058 0.98544
1.00527 0.99832 0.987604
1.00535 1.0015 0.984425
1.00334 1.00105 0.988106
1.00192 1.00072 0.996365
1.00322 1.00217 0.987228
1.00194 1.00128 0.99611
1.00161 1.00167 0.996191
1.00527 0.994933 0.991414
1.0053 0.994904 0.991183
1.00538 0.994867 0.990923
1.00529 0.99488 0.990958
1.00524 0.994951 0.99156
1.0053 0.994926 0.991422
1.00532 0.994905 0.99141
1.00531 0.994919 0.991437
1.00525 0.99494 0.991554
1.00515 0.994955 0.991717
1.00527 0.99494 0.991453
1.00515 0.994964 0.991669
1.0053 0.995329 0.991223
1.00519 0.994959 0.991578
1.00529 0.995427 0.991102
1.00532 0.999047 0.987244
1.00525 0.995741 0.990775
1.00531 0.999298 0.98701
1.00339 1.00037 0.988837
1.00527 0.999584 0.986768
1.00357 1.00037 0.989444
1.00209 0.999943 0.996327
1.00384 1.00026 0.990071
1.00201 0.999845 0.993079
1.00163 0.999792 0.99349
1.00523 0.994945 0.991399
1.00524 0.994938 0.991374
1.00525 0.994927 0.991284
1.00525 0.995895 0.990558
1.00528 0.99494 0.991149
1.00527 0.994906 0.990998
1.00522 0.999103 0.987298
1.00529 0.996739 0.989434
1.00534 0.995078 0.990843
1.00348 1.00017 0.98884
1.00529 0.999719 0.98645
1.00529 0.996978 0.989008
1.00202 1.00024 0.996446
1.00345 1.0004 0.9886
1.00531 1.00062 0.985403
1.00337 1.00099 0.988074
1.00195 1.00073 0.996318
1.00197 1.00132 0.996003
1.00524 0.994951 0.991473
1.00528 0.994934 0.9914
1.0053 0.994902 0.991145
1.00518 0.994953 0.991732
1.00524 0.994949 0.991538
1.00531 0.994925 0.991425
1.00525 0.994935 0.991554
1.00515 0.994955 0.991712
1.00532 0.995983 0.990536
1.00515 0.994967 0.991697
1.0053 0.995664 0.99086
1.00534 0.998221 0.988191
1.00526 0.995478 0.991098
1.00534 0.999024 0.987238
1.00334 1.00018 0.989124
1.00533 0.999279 0.987017
1.00342 1.00034 0.988841
1.002 1.00001 0.996341
1.00363 1.00035 0.988547
1.00191 0.999988 0.994771
1.00159 0.999834 0.993486
1.00521 0.994952 0.991505
1.0052 0.994956 0.991552
1.00523 0.994944 0.991408
1.00525 0.995841 0.990673
1.00522 0.994941 0.991407
1.00524 0.994929 0.991314
1.00525 0.998832 0.987588
1.00527 0.996138 0.990192
1.00527 0.994939 0.99111
1.0035 1.00015 0.988848
1.00522 0.999044 0.987341
1.00528 0.996787 0.989431
1.0021 0.99996 0.996438
1.00349 1.00016 0.988823
1.00528 0.999441 0.986708
1.00207 1.00027 0.99642
1.00349 1.00036 0.988571
1.00196 1.00079 0.996278
1.00522 0.994955 0.991591
1.00523 0.994951 0.991491
1.00528 0.994936 0.991386
1.00535 0.996016 0.990462
1.00518 0.994953 0.991695
1.00523 0.994947 0.991516
1.00516 0.994953 0.991707
1.00531 0.995961 0.990538
1.00531 0.998114 0.988337
1.00529 0.995995 0.990496
1.00535 0.998511 0.987809
1.00328 0.999991 0.989394
1.00536 0.999 0.987231
1.00333 1.00019 0.989129
1.00187 1.00002 0.996395
1.00344 1.00032 0.98884
1.00195 1.00003 0.996353
1.00201 0.999989 0.992863
1.0052 0.994961 0.991554
1.00521 0.994948 0.991447
1.00528 0.995756 0.990768
1.0052 0.994958 0.991553
1.00523 0.994944 0.991417
1.00528 0.999257 0.987018
1.00527 0.995763 0.990672
1.00521 0.994946 0.991441
1.00347 1.00022 0.988852
1.00524 0.999116 0.987251
1.00529 0.996388 0.989827
1.00209 0.999907 0.996378
1.00349 1.00018 0.988844
1.00522 0.998987 0.987386
1.00212 0.99999 0.996446
1.00351 1.00015 0.988803
1.00212 1.00029 0.996389
1.00535 0.996103 0.990333
1.00522 0.994956 0.991607
1.00522 0.994952 0.991509
1.00528 0.998161 0.988335
1.00534 0.996011 0.990464
1.00519 0.994952 0.991659
1.0053 0.995941 0.990541
1.00533 0.998074 0.98832
1.00321 0.999883 0.989629
1.00536 0.998806 0.987428
1.00328 0.999993 0.9894
1.00178 1.00001 0.99647
1.00334 1.00019 0.989137
1.00182 1.00005 0.99643
1.00191 1.00005 0.996378
1.00531 0.995697 0.990828
1.0052 0.994959 0.991561
1.00521 0.994943 0.99139
1.00528 0.999093 0.987206
1.00529 0.995692 0.990772
1.0052 0.994959 0.991553
1.0034 1.00022 0.988997
1.00527 0.999288 0.987023
1.00529 0.995684 0.99067
1.002 0.999963 0.996344
1.00345 1.00025 0.988855
1.00523 0.999395 0.986913
1.00212 0.999917 0.996402
1.00348 1.00021 0.988838
1.00218 0.99999 0.996444
1.00527 0.998781 0.987596
1.00534 0.995842 0.99066
1.00522 0.994958 0.991622
1.00316 0.999811 0.989815
1.0053 0.998114 0.988334
1.00533 0.996002 0.990467
1.00534 0.99803 0.988304
1.00323 0.999853 0.989633
1.00172 1 0.996514
1.00328 0.999997 0.989406
1.00175 1.00002 0.996481
1.00176 1.00007 0.996456
1.00528 0.998929 0.987431
1.00532 0.995665 0.990871
1.00521 0.994958 0.991568
1.00346 1.00011 0.990713
1.00527 0.999109 0.987217
1.0053 0.995628 0.990776
1.00189 1.00002 0.996372
1.00338 1.00025 0.988999
1.00525 0.999318 0.987029
1.00205 0.999955 0.996356
1.00344 1.00028 0.988857
1.00215 0.999914 0.996424
1.00328 0.999802 0.989702
1.00526 0.998514 0.987924
1.00534 0.995589 0.990988
1.00162 0.99998 0.996583
1.00316 0.999792 0.989808
1.00532 0.998071 0.988333
1.00324 0.999825 0.989633
1.00168 0.999993 0.996537
1.00172 1.00003 0.996498
1.00348 0.999953 0.990903
1.00526 0.998935 0.987441
1.00532 0.995631 0.990914
1.00123 1.00006 0.997076
1.00329 1.00013 0.989258
1.00526 0.999123 0.987231
1.00192 1.00001 0.996367
1.00336 1.00028 0.989
1.00209 0.999944 0.996369
1.0016 0.999911 0.993557
1.0033 0.999824 0.99042
1.00525 0.998237 0.988247
1.00164 0.999978 0.996594
1.00318 0.999778 0.989808
1.0017 0.999983 0.996556
1.00104 1.00002 0.994061
1.00335 0.999926 0.990223
1.00524 0.998945 0.987449
1.00148 1.00004 0.99516
1.00326 1.00015 0.989282
1.00197 0.999999 0.996365
1.00162 0.99997 0.996594
1.00314 0.999825 0.989809
1.00161 0.999972 0.996596
1.00138 0.999965 0.995325
1.00321 0.999926 0.989606
1.00182 1.00003 0.996415
1.00164 0.999982 0.996587
1.00169 0.999997 0.996507

TENSORS stress float
0.00259419 -0.000185067 0.000303332
-0.000185067 0.0013471 -5.60775e-05
0.000303332 -5.60775e-05 0.00131884
0.0079688 0.000156247 0.000370526
0.000156247 0.00482259 4.70174e-05
0.000370526 4.70174e-05 0.00483791
0.00220388 -0.000115164 0.000120939
-0.000115164 0.00108929 -2.13959e-05
0.000120939 -2.13959e-05 0.00104648
0.00243283 -0.000102992 0.000285299
-0.000102992 0.00122369 -3.18056e-05
0.000285299 -3.18056e-05 0.00120722
0.00258963 -0.000161584 0.00029535
-0.000161584 0.001335 -4.89296e-05
0.00029535 -4.89296e-05 0.00131083
0.0026599 -0.000193602 0.000317078
-0.000193602 0.0013894 -5.8898e-05
0.000317078 -5.8898e-05 0.0013611
0.0021158 -0.000213865 6.07993e-05
-0.000213865 0.000882669 -1.56591e-05
6.07993e-05 -1.56591e-05 0.000736756
0.00810265 0.000148595 -1.06072e-05
0.000148595 0.00489867 -3.23507e-06
-1.06072e-05 -3.23507e-06 0.00491815
0.0072005 0.000273439 0.000182795
0.000273439 0.00434246 2.08272e-05
0.000182795 2.08272e-05 0.00430895
0.00744205 7.57877e-05 0.00012227
7.57877e-05 0.00445809 8.37054e-06
0.00012227 8.37054e-06 0.00443752
0.0019635 0.000260194 0.000338042
0.000260194 0.000959156 5.20429e-05
0.000338042 5.20429e-05 0.000937835
0.000245434 0.000288302 2.59054e-05
0.000288302 -0.000257025 2.27897e-05
2.59054e-05 2.27897e-05 -0.000440608
0.00198081 -3.01087e-05 0.000277486
-3.01087e-05 0.000928298 5.47143e-06
0.000277486 5.47143e-06 0.000933778
0.00173773 7.34646e-06 7.8381e-05
7.34646e-06 0.000797273 3.30129e-06
7.8381e-05 3.30129e-06 0.000745039
0.00189427 -0.000113497 -7.44254e-05
-0.000113497 0.00090342 1.39781e-05
-7.44254e-05 1.39781e-05 0.000837009
0.00208759 -0.000100891 9.16513e-05
-0.000100891 0.00102043 -6.18523e-06
9.16513e-05 -6.18523e-06 0.000981512
0.00226578 -0.000107274 0.000133077
-0.000107274 0.00113233 -2.41961e-05
0.000133077 -2.41961e-05 0.00108647
0.00218266 -0.000117556 0.000108219
-0.000117556 0.00107431 -1.59967e-05
0.000108219 -1.59967e-05 0.00103366
0.00223891 -0.000250552 -4.69166e-05
-0.000250552 0.000963084 7.99744e-06
-4.69166e-05 7.99744e-06 0.000826985
0.00670075 -0.000170284 0.000368406
-0.000170284 0.00402505 -1.88322e-05
0.000368406 -1.88322e-05 0.00405141
0.00231627 -7.7862e-05 0.00028047
-7.7862e-05 0.00114865 -2.38323e-05
0.00028047 -2.38323e-05 0.00113594
0.00252248 -0.000131787 0.000289246
-0.000131787 0.0012852 -4.03674e-05
0.000289246 -4.03674e-05 0.00126539
0.00203757 -0.000168621 7.61888e-05
-0.000168621 0.000864488 -1.25719e-05
7.61888e-05 -1.25719e-05 0.000751813
0.00211367 -0.000207473 6.83318e-05
-0.000207473 0.000882065 -1.53827e-05
6.83318e-05 -1.53827e-05 0.00074984
0.00257025 -0.000176187 0.0003241
-0.000176187 0.00132582 -5.63583e-05
0.0003241 -5.63583e-05 0.00130087
0.00214879 -0.000220871 5.70923e-05
-0.000220871 0.000916128 -1.63025e-05
5.70923e-05 -1.63025e-05 0.000751723
0.00214431 -0.000444297 1.76064e-05
-0.000444297 0.000590648 -6.33323e-06
1.76064e-05 -6.33323e-06 0.000311779
0.00813392 0.000146151 -0.000397436
0.000146151 0.00490662 -3.9774e-05
-0.000397436 -3.9774e-05 0.00493362
0.00476366 0.000199682 -0.000165726
0.000199682 0.00275192 -2.05595e-05
-0.000165726 -2.05595e-05 0.00272695
0.00485794 0.000136643 -0.00017336
0.000136643 0.00281212 -2.09305e-05
-0.00017336 -2.09305e-05 0.00279004
0.00834838 8.64471e-05 -1.93521e-06
8.64471e-05 0.00505838 -1.77528e-06
-1.93521e-06 -1.77528e-06 0.00507843
0.000245164 0.000272985 -1.41483e-06
0.000272985 -0.000250588 -1.27486e-06
-1.41483e-06 -1.27486e-06 -0.000432345
0.00210432 8.00629e-05 0.000288148
8.00629e-05 0.00100696 2.95715e-05
0.000288148 2.95715e-05 0.000997184
0.0022511 0.000173363 0.000301341
0.000173363 0.00113219 4.65043e-05
0.000301341 4.65043e-05 0.00110872
0.00299502 0.000261179 0.000176099
0.000261179 0.00144882 2.76458e-05
0.000176099 2.76458e-05 0.00134495
0.00768958 -0.000220685 5.45668e-05
-0.000220685 0.00468954 3.75467e-06
5.45668e-05 3.75467e-06 0.00464463
0.00312546 0.000358696 0.000190045
0.000358696 0.00158591 3.60838e-05
0.000190045 3.60838e-05 0.00145368
0.000303792 0.0002734 2.58624e-05
0.0002734 -0.000207479 3.21885e-05
2.58624e-05 3.21885e-05 -0.000394582
0.0012762 0.000445287 2.83619e-05
0.000445287 0.000158832 6.54799e-06
2.83619e-05 6.54799e-06 -0.000171209
0.00600687 -0.000104691 0.000229446
-0.000104691 0.00365918 2.97969e-05
0.000229446 2.97969e-05 0.00365071
0.0066339 9.10302e-05 3.14523e-06
9.10302e-05 0.00396544 -2.17023e-06
3.14523e-06 -2.17023e-06 0.00400125
0.00436835 0.000104655 -0.00013936
0.000104655 0.00249578 -6.81105e-06
-0.00013936 -6.81105e-06 0.00248572
0.00649784 5.73276e-05 0.000357235
5.73276e-05 0.00387996 5.18177e-06
0.000357235 5.18177e-06 0.003917
0.00163111 9.27923e-05 8.02662e-05
9.27923e-05 0.000732954 6.29497e-06
8.02662e-05 6.29497e-06 0.000684999
0.00043391 1.5059e-05 1.28239e-05
1.5059e-05 -0.000181676 2.72777e-06
1.28239e-05 2.72777e-06 -0.000278463
0.00683075 0.000250849 0.000206532
0.000250849 0.0041268 2.11547e-05
0.000206532 2.11547e-05 0.00410044
0.00296244 9.6261e-05 0.000162015
9.6261e-05 0.00143107 1.21449e-05
0.000162015 1.21449e-05 0.00136614
0.0017254 -0.000101895 -9.36577e-05
-0.000101895 0.000806959 1.29021e-05
-9.36577e-05 1.29021e-05 0.00074497
0.00177896 -0.000133848 -8.70385e-05
-0.000133848 0.000841097 1.63529e-05
-8.70385e-05 1.63529e-05 0.000772352
0.00198568 -7.66804e-05 -6.25853e-05
-7.66804e-05 0.000953139 1.15983e-05
-6.25853e-05 1.15983e-05 0.000887914
0.00232207 -0.000252571 -0.000162013
-0.000252571 0.00100628 3.15787e-05
-0.000162013 3.15787e-05 0.000884654
0.00422527 -4.04622e-05 -0.000142347
-4.04622e-05 0.00241266 -9.51021e-07
-0.000142347 -9.51021e-07 0.0024031
0.00203484 -8.05427e-05 9.53516e-05
-8.05427e-05 0.000983131 -4.89925e-06
9.53516e-05 -4.89925e-06 0.000949041
0.00237786 -8.20677e-05 0.000137582
-8.20677e-05 0.00120065 -2.27573e-05
0.000137582 -2.27573e-05 0.00115288
0.00213247 -0.000108938 9.80099e-05
-0.000108938 0.00104499 -1.0302e-05
9.80099e-05 -1.0302e-05 0.00100558
0.00212361 -0.000146048 -3.82007e-05
-0.000146048 0.000906084 3.34899e-06
-3.82007e-05 3.34899e-06 0.000808214
0.00226104 -0.000267898 -5.42477e-05
-0.000267898 0.000988093 9.34691e-06
-5.42477e-05 9.34691e-06 0.00083547
0.00220264 -0.000222146 -4.16674e-05
-0.000222146 0.000937778 5.91499e-06
-4.16674e-05 5.91499e-06 0.00081612
0.00226973 -0.000454331 -1.03566e-05
-0.000454331 0.000670934 2.74445e-06
-1.03566e-05 2.74445e-06 0.00039238
0.0065037 -1.61915e-05 0.000354604
-1.61915e-05 0.00388078 -4.75622e-06
0.000354604 -4.75622e-06 0.00391906
0.00223506 -5.14398e-05 0.000274527
-5.14398e-05 0.00109935 -1.66962e-05
0.000274527 -1.66962e-05 0.00109184
0.00252598 -2.6628e-05 5.99694e-05
-2.6628e-05 0.00119029 -1.07549e-06
5.99694e-05 -1.07549e-06 0.00111465
0.00199087 -0.000134862 6.90553e-05
-0.000134862 0.0008385 -8.46192e-06
6.90553e-05 -8.46192e-06 0.000737314
0.00207028 -0.000187988 7.36235e-05
-0.000187988 0.00086628 -1.43955e-05
7.36235e-05 -1.43955e-05 0.000744945
0.00200738 -0.000274469 2.51128e-06
-0.000274469 0.000425227 -1.73793e-06
2.51128e-06 -1.73793e-06 0.000238876
0.00205722 -0.000393674 1.3013e-05
-0.000393674 0.000485353 -3.85593e-06
1.3013e-05 -3.85593e-06 0.000246509
0.00244781 -0.000140375 0.000316661
-0.000140375 0.00123857 -5.00406e-05
0.000316661 -5.00406e-05 0.00121234
0.00213144 -0.000179819 4.9301e-05
-0.000179819 0.000941229 -1.43702e-05
4.9301e-05 -1.43702e-05 0.000770333
0.00210402 -0.000497916 2.18501e-05
-0.000497916 0.000601077 -6.43818e-06
2.18501e-05 -6.43818e-06 0.000279228
0.00206139 -0.000595249 2.75825e-06
-0.000595249 0.000282827 2.19804e-06
2.75825e-06 2.19804e-06 -3.7031e-05
0.00766568 0.00032805 -0.000410735
0.00032805 0.00463738 -5.19818e-05
-0.000410735 -5.19818e-05 0.00464691
0.00821911 4.73907e-05 -0.000354952
4.73907e-05 0.00497867 -3.25085e-05
-0.000354952 -3.25085e-05 0.00499912
0.00780646 0.000208505 -0.000386343
0.000208505 0.00470192 -4.33101e-05
-0.000386343 -4.33101e-05 0.00472483
0.000236328 0.000257919 -2.56114e-05
0.000257919 -0.000249607 -2.21138e-05
-2.56114e-05 -2.21138e-05 -0.000431289
0.00734505 0.000273678 -2.10008e-06
0.000273678 0.00442501 -2.71709e-06
-2.10008e-06 -2.71709e-06 0.00444203
0.0076973 0.000294073 -8.26297e-06
0.000294073 0.00464681 -3.83592e-06
-8.26297e-06 -3.83592e-06 0.00465906
0.000356049 0.000172254 3.14512e-07
0.000172254 -0.000263513 -3.24091e-07
3.14512e-07 -3.24091e-07 -0.000407456
0.00449488 -2.5046e-05 -0.000154893
-2.5046e-05 0.00262182 -1.02975e-05
-0.000154893 -1.02975e-05 0.00259064
0.000298081 0.000252525 1.65961e-06
0.000252525 -0.000244188 -4.1119e-07
1.65961e-06 -4.1119e-07 -0.000416686
0.00202301 0.000300505 7.81008e-05
0.000300505 0.000907803 4.71027e-06
7.81008e-05 4.71027e-06 0.000752232
0.00117826 0.000446082 1.21e-06
0.000446082 8.25783e-05 3.67918e-07
1.21e-06 3.67918e-07 -0.000249661
0.00680923 -6.95845e-05 0.000281
-6.95845e-05 0.00415494 3.53434e-05
0.000281 3.53434e-05 0.00415216
0.000504161 0.000158158 2.87208e-05
0.000158158 -2.78112e-05 1.653e-05
2.87208e-05 1.653e-05 -0.00013012
0.000448353 0.000134678 1.3855e-05
0.000134678 -0.000212353 1.21331e-05
1.3855e-05 1.21331e-05 -0.000343866
0.000453052 0.000205345 1.83197e-05
0.000205345 -0.000189772 2.05203e-05
1.83197e-05 2.05203e-05 -0.000345371
0.00150312 0.000374314 1.33146e-05
0.000374314 6.77842e-05 4.77709e-06
1.33146e-05 4.77709e-06 -0.000180491
0.00365202 0.000330839 0.000188932
0.000330839 0.0019813 3.24449e-05
0.000188932 3.24449e-05 0.00186525
0.00139766 0.000448036 2.55265e-05
0.000448036 0.000135956 7.30251e-06
2.55265e-05 7.30251e-06 -0.000173231
0.0007377 0.000392625 2.31713e-05
0.000392625 -7.75009e-05 5.83746e-06
2.31713e-05 5.83746e-06 -0.000408371
0.00180994 0.000678876 1.02006e-05
0.000678876 0.000305871 -4.95857e-06
1.02006e-05 -4.95857e-06 -0.000120158
0.00505548 -0.000149667 0.000157298
-0.000149667 0.0030352 1.70608e-05
0.000157298 1.70608e-05 0.00302215
0.0055672 -0.000157887 1.36841e-05
-0.000157887 0.0033721 2.76417e-06
1.36841e-05 2.76417e-06 0.00335587
0.00711479 8.23326e-05 -0.000377472
8.23326e-05 0.0042582 -2.11844e-05
-0.000377472 -2.11844e-05 0.00429218
0.00673503 8.29513e-05 -0.000368944
8.29513e-05 0.00402592 -1.30349e-05
-0.000368944 -1.30349e-05 0.00406307
0.00658941 8.39488e-05 -1.86594e-07
8.39488e-05 0.00394322 -4.49111e-06
-1.86594e-07 -4.49111e-06 0.00397779
0.00422581 4.58509e-05 -0.000150391
4.58509e-05 0.00240312 -8.7116e-06
-0.000150391 -8.7116e-06 0.00239912
0.00155802 4.42226e-05 7.13738e-05
4.42226e-05 0.000545445 2.25897e-06
7.13738e-05 2.25897e-06 0.000469912
0.004555 0.000167619 -0.000143024
0.000167619 0.00262244 -9.16915e-06
-0.000143024 -9.16915e-06 0.00260339
0.00164475 0.000109927 7.26296e-05
0.000109927 0.000581084 4.03494e-06
7.26296e-05 4.03494e-06 0.000490259
0.00654696 0.000109758 0.000361127
0.000109758 0.00392361 7.42354e-06
0.000361127 7.42354e-06 0.00395397
0.00030523 1.03204e-05 1.64761e-05
1.03204e-05 -0.000257157 1.57476e-06
1.64761e-05 1.57476e-06 -0.000349642
0.00291912 5.31714e-05 0.000160219
5.31714e-05 0.00141406 8.35244e-06
0.000160219 8.35244e-06 0.00135757
0.00126477 8.8876e-05 4.64129e-06
8.8876e-05 -6.7062e-05 1.05849e-06
4.64129e-06 1.05849e-06 -0.00020151
0.00288093 0.000150627 0.000167421
0.000150627 0.00137093 1.58333e-05
0.000167421 1.58333e-05 0.00129504
0.00138418 0.000186181 2.65255e-06
0.000186181 -3.14838e-05 1.41924e-06
2.65255e-06 1.41924e-06 -0.00019267
0.00200762 3.69235e-05 -0.000277837
3.69235e-05 0.000940892 4.57439e-06
-0.000277837 4.57439e-06 0.000949548
0.00171057 -3.14216e-05 -8.01627e-05
-3.14216e-05 0.000786531 4.57757e-06
-8.01627e-05 4.57757e-06 0.000732544
0.00206131 -4.2329e-05 -5.62444e-05
-4.2329e-05 0.000994616 1.02675e-05
-5.62444e-05 1.02675e-05 0.000928489
0.00171916 -0.000119525 -9.46523e-05
-0.000119525 0.000804184 1.56214e-05
-9.46523e-05 1.56214e-05 0.000739402
0.00223643 -0.000123084 -0.000147963
-0.000123084 0.000965526 1.53242e-05
-0.000147963 1.53242e-05 0.000882526
0.00231199 -0.00020789 -0.000155654
-0.00020789 0.00099442 2.63304e-05
-0.000155654 2.63304e-05 0.000888849
0.00237589 -0.00029267 -0.000171178
-0.00029267 0.00106202 3.4516e-05
-0.000171178 3.4516e-05 0.000920749
0.00239804 -0.000465846 -3.50973e-05
-0.000465846 0.000753295 1.09129e-05
-3.50973e-05 1.09129e-05 0.000474638
0.00660587 -0.000123737 2.57222e-06
-0.000123737 0.00396193 -2.14195e-06
2.57222e-06 -2.14195e-06 0.0039913
0.00192246 1.4701e-05 0.000101994
1.4701e-05 0.000899949 -5.77917e-06
0.000101994 -5.77917e-06 0.000877737
0.00120591 -1.99103e-05 -7.48964e-05
-1.99103e-05 0.000323639 2.97607e-06
-7.48964e-05 2.97607e-06 0.000248251
0.00206714 -9.87589e-05 -4.07048e-05
-9.87589e-05 0.000877691 3.84283e-06
-4.07048e-05 3.84283e-06 0.000789708
0.00562946 -0.000120737 0.000324076
-0.000120737 0.00330097 -3.12592e-05
0.000324076 -3.12592e-05 0.00329682
0.00280762 -0.000269357 -5.16422e-05
-0.000269357 0.00137536 6.07299e-06
-5.16422e-05 6.07299e-06 0.00122066
0.00215876 -0.00018357 -3.84472e-05
-0.00018357 0.000915153 4.32618e-06
-3.84472e-05 4.32618e-06 0.000806819
0.00208339 -0.000275839 -8.87115e-06
-0.000275839 0.000472316 2.00521e-06
-8.87115e-06 2.00521e-06 0.000292232
0.00230462 -0.000518624 -8.9959e-06
-0.000518624 0.000742837 2.68173e-06
-8.9959e-06 2.68173e-06 0.000418305
0.00216344 -0.000399736 -1.02979e-05
-0.000399736 0.000557172 2.953e-06
-1.02979e-05 2.953e-06 0.000314898
0.00209067 -0.000597508 9.6316e-07
-0.000597508 0.000305069 -1.42888e-07
9.6316e-07 -1.42888e-07 -1.49292e-05
0.000317783 4.874e-06 1.73472e-05
4.874e-06 -0.000253108 3.94119e-08
1.73472e-05 3.94119e-08 -0.000342422
0.00188189 -2.32762e-05 6.07038e-05
-2.32762e-05 0.000761535 -3.01063e-06
6.07038e-05 -3.01063e-06 0.000677753
0.00204307 -9.92992e-05 2.96391e-06
-9.92992e-05 0.000465879 2.44732e-07
2.96391e-06 2.44732e-07 0.000348064
0.00207041 -0.000221369 9.92952e-07
-0.000221369 0.000479654 -5.76468e-07
9.92952e-07 -5.76468e-07 0.000325431
0.00213764 -0.000338985 7.93396e-06
-0.000338985 0.000507235 -2.00448e-06
7.93396e-06 -2.00448e-06 0.000303308
0.00218277 -0.000391949 -3.66685e-07
-0.000391949 0.000189873 4.17217e-08
-3.66685e-07 4.17217e-08 1.52579e-05
0.00776402 6.98602e-06 0.000304252
6.98602e-06 0.00471233 -2.89946e-05
0.000304252 -2.89946e-05 0.00472123
0.00197169 -0.000540722 2.74073e-06
-0.000540722 0.000156937 1.59724e-06
2.74073e-06 1.59724e-06 -0.000115737
0.000273049 -0.000240141 2.14499e-05
-0.000240141 -0.000253958 -2.73933e-05
2.14499e-05 -2.73933e-05 -0.00042584
0.00110932 -0.000462567 2.16947e-05
-0.000462567 4.31817e-05 -6.33277e-06
2.16947e-05 -6.33277e-06 -0.000315175
0.00222808 -0.00066497 2.31797e-06
-0.00066497 0.000461468 3.00444e-06
2.31797e-06 3.00444e-06 8.45277e-05
0.0021486 -0.000662251 1.90199e-06
-0.000662251 0.000242142 4.11412e-06
1.90199e-06 4.11412e-06 -5.08364e-05
0.000359648 -0.000194969 2.2827e-05
-0.000194969 -0.0001378 -2.32068e-05
2.2827e-05 -2.32068e-05 -0.000283626
0.00112644 -0.000205077 -1.47815e-06
-0.000205077 0.000387188 -4.61488e-06
-1.47815e-06 -4.61488e-06 0.000100086
0.00749493 0.000301807 -0.000411543
0.000301807 0.00452697 -4.69232e-05
-0.000411543 -4.69232e-05 0.00454089
0.00779389 0.000290268 -0.000404309
0.000290268 0.00470731 -5.03345e-05
-0.000404309 -5.03345e-05 0.00472341
0.000325328 0.000171972 -1.73726e-05
0.000171972 -0.000284255 -1.49558e-05
-1.73726e-05 -1.49558e-05 -0.000429397
0.00738421 -4.21748e-05 -0.000286834
-4.21748e-05 0.00448373 -2.52798e-05
-0.000286834 -2.52798e-05 0.00449292
-3.91305e-05 0.000224319 -2.07186e-05
0.000224319 -0.000418233 -2.57367e-05
-2.07186e-05 -2.57367e-05 -0.000585248
0.000280696 0.000240943 -2.13869e-05
0.000240943 -0.000254302 -2.14161e-05
-2.13869e-05 -2.14161e-05 -0.000426829
0.00116449 0.000447996 -3.10335e-05
0.000447996 6.39075e-05 -7.47115e-06
-3.10335e-05 -7.47115e-06 -0.000269506
0.00669027 -7.24727e-05 -1.19109e-05
-7.24727e-05 0.004072 1.59917e-06
-1.19109e-05 1.59917e-06 0.00407199
0.000727326 0.000134055 1.2472e-06
0.000134055 0.00011624 4.03761e-07
1.2472e-06 4.03761e-07 1.61031e-05
0.00173385 0.000183676 7.60098e-05
0.000183676 0.000621737 7.38574e-06
7.60098e-05 7.38574e-06 0.000508075
0.00175193 0.000260306 8.02636e-05
0.000260306 0.000659937 9.27405e-06
8.02636e-05 9.27405e-06 0.000521023
0.00145761 0.000371325 -1.534e-07
0.000371325 4.51718e-05 -3.94483e-07
-1.534e-07 -3.94483e-07 -0.000204093
0.000263545 0.000226275 -1.09562e-06
0.000226275 -0.000203606 -8.40163e-08
-1.09562e-06 -8.40163e-08 -0.000354635
0.00134707 0.000444423 7.34608e-07
0.000444423 0.000102478 5.8101e-08
7.34608e-07 5.8101e-08 -0.000207182
0.000892512 0.000388892 3.18509e-06
0.000388892 1.94278e-05 -1.69277e-06
3.18509e-06 -1.69277e-06 -0.000305336
0.00186507 0.000691305 -2.04355e-06
0.000691305 0.000335984 -1.29735e-07
-2.04355e-06 -1.29735e-07 -8.97839e-05
0.000498315 0.000195231 2.11393e-05
0.000195231 -4.4365e-05 2.15532e-05
2.11393e-05 2.15532e-05 -0.000173179
0.000684333 8.8483e-05 1.65451e-05
8.8483e-05 0.000121517 1.62314e-05
1.65451e-05 1.62314e-05 2.85804e-05
0.000696651 0.000344122 2.43677e-06
0.000344122 0.000154024 1.54634e-07
2.43677e-06 1.54634e-07 -0.000112639
0.0014748 0.000314373 9.0765e-06
0.000314373 1.71727e-05 3.22838e-06
9.0765e-06 3.22838e-06 -0.0001977
0.00147454 0.000419533 1.90927e-05
0.000419533 0.000103226 6.39031e-06
1.90927e-05 6.39031e-06 -0.000177334
0.00220909 0.000570945 4.70526e-06
0.000570945 0.000286101 -1.34418e-06
4.70526e-06 -1.34418e-06 1.2901e-05
0.000385488 0.000296016 1.03507e-05
0.000296016 -0.000186695 7.04106e-06
1.03507e-05 7.04106e-06 -0.000483076
0.00222079 0.000702877 4.36581e-06
0.000702877 0.000458814 -4.01331e-06
4.36581e-06 -4.01331e-06 8.0361e-05
0.00188442 0.000733719 5.87926e-06
0.000733719 0.000526199 -7.75048e-06
5.87926e-06 -7.75048e-06 3.06609e-05
0.00182988 0.000728205 -9.27466e-06
0.000728205 0.000211799 -9.01834e-06
-9.27466e-06 -9.01834e-06 -0.000197726
0.00443746 -0.000146035 0.000111691
-0.000146035 0.00261705 9.54159e-06
0.000111691 9.54159e-06 0.00260665
0.00489401 -0.000181816 1.73184e-05
-0.000181816 0.00293068 -5.8353e-07
1.73184e-05 -5.8353e-07 0.00291005
0.00541683 -0.000205675 -0.000136583
-0.000205675 0.00327667 -1.20331e-05
-0.000136583 -1.20331e-05 0.00325013
0.000501687 -0.000200672 2.49585e-05
-0.000200672 -3.06281e-05 -1.98952e-05
2.49585e-05 -1.98952e-05 -0.000156655
0.00678898 6.18581e-05 0.000252321
6.18581e-05 0.00412374 -2.67956e-05
0.000252321 -2.67956e-05 0.00412311
0.00731709 0.000244709 -0.000403856
0.000244709 0.00440553 -3.78492e-05
-0.000403856 -3.78492e-05 0.00442777
0.00684958 0.000112528 -0.000371487
0.000112528 0.0040961 -1.83379e-05
-0.000371487 -1.83379e-05 0.00413071
0.000296363 0.000112299 -1.61788e-05
0.000112299 -0.000290879 -7.35299e-06
-1.61788e-05 -7.35299e-06 -0.000403573
0.000265893 4.71354e-05 -1.63716e-05
4.71354e-05 -0.000286782 -3.65849e-06
-1.63716e-05 -3.65849e-06 -0.000384635
0.00653141 -2.24856e-06 -0.000355173
-2.24856e-06 0.00389732 -3.73808e-06
-0.000355173 -3.73808e-06 0.00393557
0.0064777 -3.6247e-06 1.28741e-07
-3.6247e-06 0.00386401 -1.32912e-06
1.28741e-07 -1.32912e-06 0.00390262
0.000275449 1.6031e-06 -2.23512e-07
1.6031e-06 -0.000279554 1.82064e-07
-2.23512e-07 1.82064e-07 -0.00037038
0.0015728 5.16239e-05 7.21923e-05
5.16239e-05 0.000543684 3.57042e-06
7.21923e-05 3.57042e-06 0.000464018
0.0012556 9.23263e-05 4.18906e-08
9.23263e-05 -7.12814e-05 -3.95643e-08
4.18906e-08 -3.95643e-08 -0.000206604
0.000356367 0.000109379 -8.29808e-07
0.000109379 -0.000261169 -3.77003e-07
-8.29808e-07 -3.77003e-07 -0.000383349
0.00133431 0.00018657 -1.97508e-07
0.00018657 -5.41479e-05 -8.84227e-08
-1.97508e-07 -8.84227e-08 -0.00021675
0.000264494 -3.38896e-05 1.72344e-05
-3.38896e-05 -0.00028681 -1.91812e-07
1.72344e-05 -1.91812e-07 -0.000374754
0.00121123 3.95633e-05 5.02557e-06
3.95633e-05 -8.4395e-05 6.91044e-07
5.02557e-06 6.91044e-07 -0.000212529
0.00131859 0.000140128 3.30674e-06
0.000140128 -5.12779e-05 1.32346e-06
3.30674e-06 1.32346e-06 -0.000197091
0.00215271 0.00014559 1.74065e-06
0.00014559 9.84388e-05 8.31131e-07
1.74065e-06 8.31131e-07 2.65882e-05
0.0014154 0.0002465 5.17545e-06
0.0002465 -2.2893e-05 2.20357e-06
5.17545e-06 2.20357e-06 -0.00020729
0.00216006 0.000315822 2.3775e-06
0.000315822 0.000111488 2.58461e-07
2.3775e-06 2.58461e-07 -8.82756e-06
0.00651342 -8.56783e-05 -0.000359424
-8.56783e-05 0.00389654 5.51779e-06
-0.000359424 5.51779e-06 0.00392972
0.00159487 -0.000168722 -7.98976e-05
-0.000168722 0.00073524 1.05518e-05
-7.98976e-05 1.05518e-05 0.000673419
-0.000231412 -1.06117e-05 -8.65976e-06
-1.06117e-05 -0.000600585 1.12762e-06
-8.65976e-06 1.12762e-06 -0.000705643
0.00217432 -8.86647e-05 -0.000144778
-8.86647e-05 0.00093891 1.08245e-05
-0.000144778 1.08245e-05 0.000863345
0.00849587 0.000171271 -7.69026e-05
0.000171271 0.00514712 3.67186e-06
-7.69026e-05 3.67186e-06 0.00510748
0.00311833 -0.000330827 -0.000174326
-0.000330827 0.00158303 3.50263e-05
-0.000174326 3.50263e-05 0.00143884
0.00227512 -0.000163684 -0.00015095
-0.000163684 0.000975604 2.05016e-05
-0.00015095 2.05016e-05 0.000882851
0.00214149 -0.000276196 -2.27239e-05
-0.000276196 0.000507545 4.51147e-06
-2.27239e-05 4.51147e-06 0.000333915
0.00224397 -0.000404244 -3.02875e-05
-0.000404244 0.000610687 9.53225e-06
-3.02875e-05 9.53225e-06 0.000365349
0.00242167 -0.000530677 -3.95894e-05
-0.000530677 0.000829194 1.17943e-05
-3.95894e-05 1.17943e-05 0.000504128
0.00210178 -0.00059723 -1.28001e-06
-0.00059723 0.000317575 -2.38186e-06
-1.28001e-06 -2.38186e-06 -1.96305e-06
0.000268356 8.60477e-07 4.3673e-08
8.60477e-07 -0.000282846 3.85782e-07
4.3673e-08 3.85782e-07 -0.000373017
0.00200853 -0.000103372 -3.91136e-05
-0.000103372 0.000853317 7.47275e-07
-3.91136e-05 7.47275e-07 0.000771293
0.00171098 -9.54997e-05 -1.40428e-05
-9.54997e-05 0.000245871 9.02319e-07
-1.40428e-05 9.02319e-07 0.000124608
0.00199851 -0.000216758 -1.26603e-05
-0.000216758 0.000426131 2.0974e-06
-1.26603e-05 2.0974e-06 0.000267195
0.00804547 -9.11997e-07 4.95024e-06
-9.11997e-07 0.00489163 -1.8423e-07
4.95024e-06 -1.8423e-07 0.00490077
0.00170343 -0.000242372 9.99772e-06
-0.000242372 0.000687814 -1.81683e-09
9.99772e-06 -1.81683e-09 0.000510959
0.0017278 -0.000490873 -3.25086e-08
-0.000490873 0.000449253 -1.5545e-06
-3.25086e-08 -1.5545e-06 9.75986e-05
0.002176 -0.000345101 -1.04193e-05
-0.000345101 0.000529845 2.92423e-06
-1.04193e-05 2.92423e-06 0.000323934
0.00220075 -0.000398697 1.99961e-06
-0.000398697 0.000192422 -1.062e-06
1.99961e-06 -1.062e-06 2.51362e-05
0.0021778 -0.000661436 1.79056e-06
-0.000661436 0.000427015 -1.26948e-08
1.79056e-06 -1.26948e-08 5.1962e-05
0.00210229 -0.000544299 2.20239e-07
-0.000544299 0.000250335 -1.4862e-07
2.20239e-07 -1.4862e-07 -2.39945e-05
0.00219892 -0.000665875 7.37181e-07
-0.000665875 0.000279982 3.2481e-07
7.37181e-07 3.2481e-07 -1.4183e-05
0.000373678 -0.000217349 1.92269e-06
-0.000217349 -0.000139227 3.67059e-07
1.92269e-06 3.67059e-07 -0.000282419
0.00083957 -0.000255557 -9.51234e-07
-0.000255557 0.000211171 2.95718e-07
-9.51234e-07 2.95718e-07 -8.36115e-05
0.00120127 -4.73714e-05 6.04827e-06
-4.73714e-05 -7.57223e-05 -1.00644e-08
6.04827e-06 -1.00644e-08 -0.000205484
0.00210614 -0.000158001 5.93972e-07
-0.000158001 0.000507583 -1.04058e-08
5.93972e-07 -1.04058e-08 0.000375313
0.00198624 -0.000159442 1.20761e-06
-0.000159442 3.33387e-07 -6.0809e-07
1.20761e-06 -6.0809e-07 -9.14734e-05
0.00223202 -0.000328012 -9.3336e-07
-0.000328012 0.000182695 8.92265e-07
-9.3336e-07 8.92265e-07 6.33154e-05
0.00200321 -0.000475205 -1.71296e-06
-0.000475205 0.000115083 1.05793e-06
-1.71296e-06 1.05793e-06 -0.000105622
0.0023336 -0.000444482 4.7419e-06
-0.000444482 0.000189303 -1.22673e-06
4.7419e-06 -1.22673e-06 6.55351e-05
0.000260041 -0.000224792 2.02608e-05
-0.000224792 -0.000234528 -2.69012e-05
2.02608e-05 -2.69012e-05 -0.000397467
0.00217684 -0.000600842 8.28673e-07
-0.000600842 0.00020693 2.33452e-06
8.28673e-07 2.33452e-06 -2.72766e-05
0.00149096 -0.000419413 1.64058e-05
-0.000419413 0.000389898 -8.7427e-06
1.64058e-05 -8.7427e-06 5.22432e-05
0.00185689 -0.000734597 1.03008e-05
-0.000734597 0.000304181 3.50086e-06
1.03008e-05 3.50086e-06 -0.000154476
0.00245417 -0.000742354 1.22768e-06
-0.000742354 0.000505503 3.72091e-06
1.22768e-06 3.72091e-06 0.00013943
0.00240388 -0.000698934 -1.28501e-06
-0.000698934 0.000381301 4.20088e-06
-1.28501e-06 4.20088e-06 0.000111224
0.000786273 -0.000257672 3.83583e-06
-0.000257672 0.000154018 -1.41672e-06
3.83583e-06 -1.41672e-06 -0.000157702
0.00163534 -0.000277584 7.36353e-06
-0.000277584 0.000710582 -3.52961e-06
7.36353e-06 -3.52961e-06 0.000458792
0.00164672 -0.00039552 -9.60652e-07
-0.00039552 0.000736369 6.32802e-07
-9.60652e-07 6.32802e-07 0.000359504
0.00033749 0.000143864 -1.62009e-05
0.000143864 -0.000281991 -1.16023e-05
-1.62009e-05 -1.16023e-05 -0.000416836
0.00609424 -0.00010842 -0.000217686
-0.00010842 0.0036889 -1.80937e-05
-0.000217686 -1.80937e-05 0.00368642
0.000409775 0.000115002 -1.96771e-05
0.000115002 -8.16862e-05 -1.65307e-05
-1.96771e-05 -1.65307e-05 -0.000177158
0.000278752 0.000204622 -1.89642e-05
0.000204622 -0.000293225 -1.85432e-05
-1.89642e-05 -1.85432e-05 -0.000450733
0.00140933 0.000368792 -1.49066e-05
0.000368792 1.94898e-05 -5.39221e-06
-1.49066e-05 -5.39221e-06 -0.000230899
0.000273534 0.000222329 -2.27166e-05
0.000222329 -0.000210452 -2.55408e-05
-2.27166e-05 -2.55408e-05 -0.000357658
0.00103988 0.000397451 -2.15899e-05
0.000397451 0.000108231 -1.11445e-05
-2.15899e-05 -1.11445e-05 -0.000214785
0.0013008 0.000440683 -2.67864e-05
0.000440683 7.27511e-05 -7.6285e-06
-2.67864e-05 -7.6285e-06 -0.000237283
0.00193307 0.000710779 -1.16442e-05
0.000710779 0.000365066 4.9667e-06
-1.16442e-05 4.9667e-06 -6.30201e-05
0.000370454 0.000196575 -5.57897e-06
0.000196575 -0.000129722 1.65769e-06
-5.57897e-06 1.65769e-06 -0.000251353
0.000349672 6.32194e-05 5.87327e-07
6.32194e-05 -8.49938e-05 8.76069e-07
5.87327e-07 8.76069e-07 -0.000174731
0.00105602 0.000276522 8.93145e-07
0.000276522 0.000343258 6.17242e-07
8.93145e-07 6.17242e-07 0.000108699
0.00145804 0.000313552 -2.78454e-07
0.000313552 1.5077e-05 -3.02038e-07
-2.78454e-07 -3.02038e-07 -0.000201016
0.00142895 0.000414409 1.34762e-07
0.000414409 7.99963e-05 -3.08502e-07
1.34762e-07 -3.08502e-07 -0.000200628
0.00218624 0.000569171 -5.98426e-07
0.000569171 0.000268437 -2.64401e-07
-5.98426e-07 -2.64401e-07 -4.34628e-06
0.000595734 0.000293119 -4.35917e-08
0.000293119 -5.49008e-05 1.02275e-06
-4.35917e-08 1.02275e-06 -0.000340681
0.00223251 0.000698709 -1.13877e-06
0.000698709 0.000467132 -4.76176e-07
-1.13877e-06 -4.76176e-07 8.85354e-05
0.00188472 0.000746659 -1.13805e-06
0.000746659 0.00049129 -2.55759e-06
-1.13805e-06 -2.55759e-06 -1.06667e-05
0.00178095 0.00073575 -1.37168e-06
0.00073575 0.00015554 3.41861e-06
-1.37168e-06 3.41861e-06 -0.000251285
0.000457378 4.03246e-05 8.19516e-06
4.03246e-05 -3.07742e-06 1.47445e-05
8.19516e-06 1.47445e-05 -8.13392e-05
0.00134354 0.000336166 5.89608e-06
0.000336166 0.000522773 8.26627e-07
5.89608e-06 8.26627e-07 0.000242441
0.000765501 0.00016881 3.11881e-06
0.00016881 0.000203204 1.69424e-06
3.11881e-06 1.69424e-06 -2.94892e-05
-0.000458791 0.000117501 -6.05214e-06
0.000117501 -0.00058782 3.94071e-06
-6.05214e-06 3.94071e-06 -0.000876568
0.00226156 0.00049697 2.7805e-06
0.00049697 0.000250622 -2.30513e-06
2.7805e-06 -2.30513e-06 3.26458e-05
0.00216749 0.000636995 4.63731e-06
0.000636995 0.000339874 -2.08249e-06
4.63731e-06 -2.08249e-06 1.06017e-05
0.002264 0.000630418 1.20565e-06
0.000630418 0.000240025 -1.7528e-06
1.20565e-06 -1.7528e-06 -1.2007e-05
0.00140249 0.000595293 -5.79072e-06
0.000595293 0.000327317 -6.40084e-06
-5.79072e-06 -6.40084e-06 -0.000126142
0.00254926 0.000803546 -6.39534e-06
0.000803546 0.000577755 -4.74747e-06
-6.39534e-06 -4.74747e-06 0.000210828
0.00229738 0.000894447 -1.58067e-05
0.000894447 0.000641547 -1.6302e-05
-1.58067e-05 -1.6302e-05 9.74358e-05
0.00215053 0.000774458 -5.73118e-06
0.000774458 0.00026991 -5.12341e-06
-5.73118e-06 -5.12341e-06 -0.000111365
0.000747033 0.00010141 -4.29327e-07
0.00010141 0.000233931 6.99934e-06
-4.29327e-07 6.99934e-06 0.000113234
0.000541688 2.42599e-05 3.91775e-06
2.42599e-05 5.46217e-05 1.24314e-05
3.91775e-06 1.24314e-05 3.62228e-06
0.00385665 -0.000130763 7.88684e-05
-0.000130763 0.00222746 7.0151e-06
7.88684e-05 7.0151e-06 0.00222065
0.00424629 -0.000174186 1.45184e-05
-0.000174186 0.00250061 -1.49396e-06
1.45184e-05 -1.49396e-06 0.00248188
0.00465087 -0.000225147 -8.28979e-05
-0.000225147 0.00278924 -1.01818e-05
-8.28979e-05 -1.01818e-05 0.00275458
0.000610368 -0.000222478 3.26146e-05
-0.000222478 5.43513e-05 -1.93759e-05
3.26146e-05 -1.93759e-05 -5.74297e-05
0.00632062 9.88727e-05 0.000217999
9.88727e-05 0.00383867 -2.47624e-05
0.000217999 -2.47624e-05 0.00383161
0.000520924 -0.00021184 3.14431e-06
-0.00021184 -2.77157e-05 8.06791e-07
3.14431e-06 8.06791e-07 -0.000155701
0.00720006 4.033e-05 5.54609e-06
4.033e-05 0.00438154 2.11803e-08
5.54609e-06 2.11803e-08 0.00438291
0.000327204 0.000133798 -1.65724e-05
0.000133798 -0.0002802 -9.52669e-06
-1.65724e-05 -9.52669e-06 -0.000405697
0.00028105 4.26279e-05 -1.49451e-05
4.26279e-05 -0.000290966 -4.47851e-06
-1.49451e-05 -4.47851e-06 -0.000393233
0.00130343 0.000187146 -3.31735e-06
0.000187146 -6.87849e-05 -1.54646e-06
-3.31735e-06 -1.54646e-06 -0.000232716
0.00125097 9.52315e-05 -4.74257e-06
9.52315e-05 -7.36876e-05 -1.01531e-06
-4.74257e-06 -1.01531e-06 -0.000209748
0.000320249 -6.05111e-06 -1.69294e-05
-6.05111e-06 -0.000254094 -1.52527e-06
-1.69294e-05 -1.52527e-06 -0.000343448
0.00657656 -0.0001061 -0.000366727
-0.0001061 0.00394124 6.76607e-06
-0.000366727 6.76607e-06 0.0039733
0.000314039 -3.86834e-06 9.95909e-10
-3.86834e-06 -0.000256186 -6.80728e-07
9.95909e-10 -6.80728e-07 -0.000343886
0.00121536 4.47457e-05 2.32454e-08
4.47457e-05 -8.17292e-05 3.97678e-08
2.32454e-08 3.97678e-08 -0.000210267
0.00130248 0.000140373 -8.63079e-08
0.000140373 -5.89807e-05 4.93528e-08
-8.63079e-08 4.93528e-08 -0.000205622
0.002126 0.000143534 -8.64142e-08
0.000143534 8.16419e-05 2.23304e-07
-8.64142e-08 2.23304e-07 9.63919e-06
0.00140611 0.000247138 -3.7809e-07
0.000247138 -2.2774e-05 -9.94636e-08
-3.7809e-07 -9.94636e-08 -0.000208616
0.00215209 0.000315286 -5.10313e-07
0.000315286 0.000106481 2.19583e-07
-5.10313e-07 2.19583e-07 -1.43879e-05
0.00118172 -6.37963e-06 5.47668e-06
-6.37963e-06 -9.165e-05 2.56901e-07
5.47668e-06 2.56901e-07 -0.000218862
0.00215325 6.73e-05 2.0997e-06
6.73e-05 0.00010275 7.15007e-07
2.0997e-06 7.15007e-07 3.79308e-05
0.002129 0.000229342 1.38045e-06
0.000229342 8.50288e-05 6.11784e-07
1.38045e-06 6.11784e-07 -4.93363e-06
0.002197 0.000161893 5.92235e-06
0.000161893 4.7253e-05 1.39458e-06
5.92235e-06 1.39458e-06 2.76865e-05
0.00223609 0.000406005 3.38096e-06
0.000406005 0.000179547 -5.1624e-07
3.38096e-06 -5.1624e-07 1.58491e-05
0.00228468 0.000340057 5.49966e-06
0.000340057 9.30829e-05 9.63416e-07
5.49966e-06 9.63416e-07 3.23546e-05
0.000311281 -6.06636e-06 -1.64188e-05
-6.06636e-06 -0.000251784 1.54398e-07
-1.64188e-05 1.54398e-07 -0.000344189
0.00211528 -5.89542e-05 -0.000142669
-5.89542e-05 0.000910199 7.25724e-06
-0.000142669 7.25724e-06 0.000842231
0.00135284 -9.12267e-05 -1.53433e-05
-9.12267e-05 7.91492e-06 1.29255e-06
-1.53433e-05 1.29255e-06 -0.000117191
0.00192221 -0.000212773 -2.01467e-05
-0.000212773 0.000368907 3.64256e-06
-2.01467e-05 3.64256e-06 0.00020518
0.00842019 -2.89753e-05 -0.000357848
-2.89753e-05 0.00512463 4.00972e-05
-0.000357848 4.00972e-05 0.00513556
0.00361344 -0.000350159 -0.000201555
-0.000350159 0.00192069 3.42251e-05
-0.000201555 3.42251e-05 0.00178018
0.00192975 -0.000516601 -3.16705e-05
-0.000516601 0.000610725 9.30089e-06
-3.16705e-05 9.30089e-06 0.000257869
0.00219662 -0.000350082 -2.80319e-05
-0.000350082 0.000540115 7.40863e-06
-2.80319e-05 7.40863e-06 0.000332469
0.00222451 -0.000405812 -7.47427e-07
-0.000405812 0.000198181 -1.53966e-06
-7.47427e-07 -1.53966e-06 3.83688e-05
0.00223219 -0.000547811 -1.03759e-06
-0.000547811 0.000344808 -1.01695e-06
-1.03759e-06 -1.01695e-06 6.88052e-05
0.00219182 -0.000664247 -1.08096e-06
-0.000664247 0.000431226 -3.5221e-06
-1.08096e-06 -3.5221e-06 5.68226e-05
0.00226138 -0.000671385 -5.91097e-07
-0.000671385 0.000323686 -3.27923e-06
-5.91097e-07 -3.27923e-06 2.78643e-05
0.000495698 -0.00023071 -2.24993e-05
-0.00023071 -6.36324e-05 2.34978e-05
-2.24993e-05 2.34978e-05 -0.00020998
6.01869e-05 -0.000211766 -1.49743e-06
-0.000211766 -0.000262661 3.19931e-06
-1.49743e-06 3.19931e-06 -0.000568024
0.00126461 -4.36819e-05 6.49639e-07
-4.36819e-05 -3.59233e-05 -4.47295e-08
6.49639e-07 -4.47295e-08 -0.00015944
0.00207234 -0.00015814 -1.19974e-05
-0.00015814 0.000480486 1.49525e-06
-1.19974e-05 1.49525e-06 0.00034848
0.00201089 -0.000155867 2.34541e-06
-0.000155867 1.44477e-05 -3.42455e-07
2.34541e-06 -3.42455e-07 -7.25199e-05
0.00208402 -0.000322847 -1.87862e-06
-0.000322847 8.52401e-05 6.73464e-07
-1.87862e-06 6.73464e-07 -4.58624e-05
0.000334952 -0.000247533 -1.34457e-07
-0.000247533 -0.000179958 4.33328e-07
-1.34457e-07 4.33328e-07 -0.000346753
0.000729403 -0.00039084 -4.12806e-06
-0.00039084 -7.75744e-05 -2.60459e-07
-4.12806e-06 -2.60459e-07 -0.000420927
0.0019209 -0.000740232 4.07124e-07
-0.000740232 0.000344705 8.7207e-07
4.07124e-07 8.7207e-07 -0.000118367
0.00209113 -0.000477589 -1.73452e-06
-0.000477589 0.000180331 4.74874e-07
-1.73452e-06 4.74874e-07 -4.37441e-05
0.00230305 -0.000446888 1.18175e-06
-0.000446888 0.000158579 -7.14376e-07
1.18175e-06 -7.14376e-07 4.17606e-05
0.00251727 -0.000749513 6.22897e-07
-0.000749513 0.000545455 -1.26785e-06
6.22897e-07 -1.26785e-06 0.000182445
0.00219081 -0.000601966 3.17311e-07
-0.000601966 0.00021377 4.45695e-07
3.17311e-07 4.45695e-07 -2.09233e-05
0.00225655 -0.000693074 2.4729e-07
-0.000693074 0.000277749 9.39243e-07
2.4729e-07 9.39243e-07 5.9172e-06
0.000772638 -0.000266961 2.99206e-07
-0.000266961 0.000146166 -9.64159e-07
2.99206e-07 -9.64159e-07 -0.000169834
0.000465986 -0.00025552 1.3366e-07
-0.00025552 -5.38181e-05 -7.2979e-07
1.3366e-07 -7.2979e-07 -0.000400312
0.000497144 -0.000228282 5.36936e-06
-0.000228282 3.60956e-05 2.0194e-06
5.36936e-06 2.0194e-06 -0.000236515
0.00197229 -7.75876e-05 1.99303e-06
-7.75876e-05 -8.0125e-06 -2.73756e-07
1.99303e-06 -2.73756e-07 -8.89872e-05
0.00206819 -0.000237246 -1.31677e-06
-0.000237246 4.76851e-05 -3.92476e-07
-1.31677e-06 -3.92476e-07 -5.39608e-05
0.00216151 -0.000158709 7.20157e-06
-0.000158709 3.6604e-05 -1.15688e-06
7.20157e-06 -1.15688e-06 5.84326e-06
0.00229042 -0.000363534 3.43573e-06
-0.000363534 9.99286e-05 -6.62485e-07
3.43573e-06 -6.62485e-07 3.22722e-05
0.00212665 -0.000535711 -4.65849e-09
-0.000535711 0.000108051 9.58203e-07
-4.65849e-09 9.58203e-07 -6.53739e-05
0.00230936 -0.000466511 1.85315e-06
-0.000466511 9.54361e-05 -4.24007e-07
1.85315e-06 -4.24007e-07 2.85581e-05
0.000746613 -0.000297561 9.7005e-06
-0.000297561 4.2014e-05 -6.19563e-06
9.7005e-06 -6.19563e-06 -0.000260686
0.00223876 -0.000644869 2.15147e-07
-0.000644869 0.000177076 6.94233e-07
2.15147e-07 6.94233e-07 -2.09102e-05
0.00177167 -0.000753334 3.04714e-06
-0.000753334 0.000417294 7.90379e-07
3.04714e-06 7.90379e-07 -9.83644e-05
0.00226237 -0.000868102 1.13591e-05
-0.000868102 0.000453857 5.24211e-06
1.13591e-05 5.24211e-06 -2.63991e-05
0.0025711 -0.000766638 2.73853e-06
-0.000766638 0.000557594 4.54896e-06
2.73853e-06 4.54896e-06 0.000215363
0.0024752 -0.00074003 -3.64049e-07
-0.00074003 0.000404473 8.62965e-07
-3.64049e-07 8.62965e-07 0.000148069
0.000710069 -0.00017277 -1.82948e-06
-0.00017277 0.000243875 -4.55072e-06
-1.82948e-06 -4.55072e-06 -4.79189e-05
0.00189563 -0.000480749 -6.01405e-06
-0.000480749 0.000750504 -1.73573e-06
-6.01405e-06 -1.73573e-06 0.000358509
-0.000882555 -9.15671e-05 7.61328e-06
-9.15671e-05 -0.000798558 9.81025e-07
7.61328e-06 9.81025e-07 -0.00112499
0.0015878 -0.000535573 1.09949e-05
-0.000535573 0.000645003 5.76822e-06
1.09949e-05 5.76822e-06 0.000184853
0.00143828 0.000312831 -1.09463e-05
0.000312831 1.04757e-05 -3.78594e-06
-1.09463e-05 -3.78594e-06 -0.000206849
0.000318542 4.42997e-05 -8.03359e-06
4.42997e-05 -9.88043e-05 -1.70264e-05
-8.03359e-06 -1.70264e-05 -0.000187433
0.000447289 0.000156491 -2.50355e-05
0.000156491 -7.07107e-05 -1.89191e-05
-2.50355e-05 -1.89191e-05 -0.00019158
0.000351716 0.000208833 -6.64287e-06
0.000208833 -9.02937e-05 3.31318e-06
-6.64287e-06 3.31318e-06 -0.000325588
0.00137177 0.000409286 -2.0338e-05
0.000409286 4.80056e-05 -6.86425e-06
-2.0338e-05 -6.86425e-06 -0.000232844
0.00216462 0.000567201 -4.66825e-06
0.000567201 0.000252277 1.33539e-06
-4.66825e-06 1.33539e-06 -2.00046e-05
0.000580525 0.000257065 -1.12454e-05
0.000257065 -6.80156e-05 -4.55534e-06
-1.12454e-05 -4.55534e-06 -0.000333025
0.00173068 0.000727769 -9.12926e-06
0.000727769 0.000375184 3.19151e-06
-9.12926e-06 3.19151e-06 -0.000121743
0.00226001 0.00069566 -4.02448e-06
0.00069566 0.000485465 3.64023e-06
-4.02448e-06 3.64023e-06 0.000106594
0.00171525 0.000735067 9.81213e-06
0.000735067 0.000101482 1.4433e-05
9.81213e-06 1.4433e-05 -0.000299596
0.000388044 2.32111e-05 -3.46518e-06
2.32111e-05 -4.26305e-05 6.12883e-07
-3.46518e-06 6.12883e-07 -0.000118707
0.000615318 0.00024571 -7.62075e-07
0.00024571 7.60099e-05 -9.31534e-07
-7.62075e-07 -9.31534e-07 -0.000200747
0.000367377 0.000152641 3.96645e-06
0.000152641 -4.73992e-05 -1.50881e-06
3.96645e-06 -1.50881e-06 -0.000281854
0.0005537 0.000213472 -3.63318e-06
0.000213472 5.61954e-05 5.00617e-06
-3.63318e-06 5.00617e-06 -0.00024836
0.00220409 0.000491843 -1.89319e-06
0.000491843 0.000213343 -1.4395e-06
-1.89319e-06 -1.4395e-06 -3.70131e-06
0.0021458 0.000636084 -7.30375e-07
0.000636084 0.000323959 -3.17659e-07
-7.30375e-07 -3.17659e-07 -5.50449e-06
0.0022493 0.000627391 6.81949e-08
0.000627391 0.000236071 3.00118e-08
6.81949e-08 3.00118e-08 -1.49353e-05
0.0017593 0.000625681 2.52274e-06
0.000625681 0.000573548 -2.42453e-07
2.52274e-06 -2.42453e-07 0.000113981
0.00247201 0.000788898 1.45908e-06
0.000788898 0.000539675 9.88887e-07
1.45908e-06 9.88887e-07 0.000171906
0.00202996 0.00085128 -1.06225e-06
0.00085128 0.000485914 -2.02288e-06
-1.06225e-06 -2.02288e-06 -4.61915e-05
0.0022436 0.000761153 -7.13651e-06
0.000761153 0.000343267 3.03008e-06
-7.13651e-06 3.03008e-06 -2.36524e-05
0.000586258 2.46541e-05 6.32563e-06
2.46541e-05 7.68833e-05 1.36167e-05
6.32563e-06 1.36167e-05 1.78528e-05
0.00124133 0.000115003 -7.70909e-07
0.000115003 0.00054202 1.14568e-05
-7.70909e-07 1.14568e-05 0.000326897
0.000675296 0.000404944 -9.07507e-06
0.000404944 5.3531e-05 -1.98505e-06
-9.07507e-06 -1.98505e-06 -0.000305598
0.00156807 0.000214345 6.94265e-06
0.000214345 0.000726588 -4.60464e-06
6.94265e-06 -4.60464e-06 0.000406122
0.00118168 0.000146136 -3.65876e-06
0.000146136 0.000321578 1.22125e-05
-3.65876e-06 1.22125e-05 6.44918e-05
0.00221114 0.000539397 7.01589e-07
0.000539397 0.000129581 -1.92192e-06
7.01589e-07 -1.92192e-06 -5.61038e-05
0.0022792 0.000720202 -1.30278e-06
0.000720202 0.00032625 -3.10178e-06
-1.30278e-06 -3.10178e-06 1.10175e-05
0.00223532 0.000683627 -3.3728e-06
0.000683627 0.000194607 -1.0546e-06
-3.3728e-06 -1.0546e-06 -5.34547e-05
0.00186217 0.000868128 -6.06655e-06
0.000868128 0.000619234 -1.11191e-05
-6.06655e-06 -1.11191e-05 1.97501e-05
0.00264358 0.000850598 -7.21398e-06
0.000850598 0.000564297 -4.45035e-06
-7.21398e-06 -4.45035e-06 0.00020165
0.00192315 0.000898682 3.35821e-06
0.000898682 0.000325793 -8.73573e-06
3.35821e-06 -8.73573e-06 -0.000187514
0.000588387 9.85812e-05 -1.00811e-06
9.85812e-05 0.000121109 8.76472e-06
-1.00811e-06 8.76472e-06 -1.51037e-05
0.000834803 0.000141777 -5.01457e-06
0.000141777 0.000382772 5.35242e-06
-5.01457e-06 5.35242e-06 0.000172069
0.000565432 7.62289e-05 -9.55627e-07
7.62289e-05 0.000109296 6.03801e-06
-9.55627e-07 6.03801e-06 1.09416e-05
0.000445378 3.1937e-05 -1.41694e-06
3.1937e-05 3.5339e-05 2.44144e-07
-1.41694e-06 2.44144e-07 -7.81316e-05
0.00155349 -7.77025e-06 2.22387e-06
-7.77025e-06 0.000713591 6.77915e-06
2.22387e-06 6.77915e-06 0.000676282
0.000979276 7.9378e-06 -2.89203e-07
7.9378e-06 0.000340703 -1.41472e-07
-2.89203e-07 -1.41472e-07 0.000293086
0.000947769 -2.85908e-05 6.28609e-05
-2.85908e-05 0.000316328 1.38971e-05
6.28609e-05 1.38971e-05 0.000309716
0.00381646 -0.00014258 1.28594e-05
-0.00014258 0.00220466 -1.21691e-06
1.28594e-05 -1.21691e-06 0.00219457
0.00413932 -0.000182199 -7.26781e-05
-0.000182199 0.00243347 -7.75643e-06
-7.26781e-05 -7.75643e-06 0.00241241
0.00025909 -0.000131385 1.90147e-05
-0.000131385 -0.000121598 -1.60656e-05
1.90147e-05 -1.60656e-05 -0.000216144
0.00564226 0.000163149 0.000148836
0.000163149 0.00342506 -1.89509e-05
0.000148836 -1.89509e-05 0.00340157
0.000515705 -0.000187578 2.24039e-06
-0.000187578 6.6657e-06 1.09428e-06
2.24039e-06 1.09428e-06 -0.000114209
0.00645044 9.11776e-05 7.55449e-07
9.11776e-05 0.00392908 1.02195e-06
7.55449e-07 1.02195e-06 0.00391965
0.000399617 -0.000216082 -2.58047e-05
-0.000216082 -0.000106405 2.14921e-05
-2.58047e-05 2.14921e-05 -0.000236051
0.00742105 3.40134e-05 -0.000300794
3.40134e-05 0.00452393 3.61304e-05
-0.000300794 3.61304e-05 0.00452563
0.00138773 0.000246844 -6.84755e-06
0.000246844 -2.6463e-05 -2.44643e-06
-6.84755e-06 -2.44643e-06 -0.000213558
0.00126793 0.000141449 -3.58907e-06
0.000141449 -7.58825e-05 -1.07661e-06
-3.58907e-06 -1.07661e-06 -0.000223626
0.00217235 0.000312223 -2.70001e-06
0.000312223 0.000121503 5.04725e-07
-2.70001e-06 5.04725e-07 9.27321e-07
0.00209833 0.000141493 -1.98485e-06
0.000141493 6.52094e-05 -3.73458e-07
-1.98485e-06 -3.73458e-07 -6.95271e-06
0.00122238 4.9895e-05 -5.03731e-06
4.9895e-05 -7.67626e-05 -6.21391e-07
-5.03731e-06 -6.21391e-07 -0.000205688
0.000280013 2.83446e-05 -1.71952e-05
2.83446e-05 -0.000281039 -1.36569e-06
-1.71952e-05 -1.36569e-06 -0.000366801
0.00118695 -1.83538e-06 -3.76846e-08
-1.83538e-06 -8.80738e-05 3.6869e-08
-3.76846e-08 3.6869e-08 -0.000215273
0.00211487 6.62799e-05 1.84899e-08
6.62799e-05 7.93562e-05 1.49072e-07
1.84899e-08 1.49072e-07 1.43323e-05
0.00215104 0.000228411 -1.30367e-07
0.000228411 9.89963e-05 1.80563e-07
-1.30367e-07 1.80563e-07 9.15516e-06
0.00217201 0.000156741 -3.92854e-07
0.000156741 2.08027e-05 2.72389e-08
-3.92854e-07 2.72389e-08 7.72939e-06
0.00218843 0.000401072 -9.60888e-07
0.000401072 0.00015444 5.44134e-08
-9.60888e-07 5.44134e-08 -8.70852e-06
0.00227278 0.000340169 -3.02843e-09
0.000340169 8.37818e-05 1.84946e-07
-3.02843e-09 1.84946e-07 2.26748e-05
0.00213222 -7.33208e-06 1.74509e-06
-7.33208e-06 9.39591e-05 3.36057e-07
1.74509e-06 3.36057e-07 3.01059e-05
0.00210106 7.23027e-05 4.60644e-06
7.23027e-05 -2.16221e-05 6.462e-07
4.60644e-06 6.462e-07 -2.7084e-05
0.00224469 0.000240328 6.12239e-06
0.000240328 7.15365e-05 1.48046e-06
6.12239e-06 1.48046e-06 3.97106e-05
0.00218863 0.000141376 4.03171e-06
0.000141376 1.96258e-06 1.19543e-06
4.03171e-06 1.19543e-06 1.64046e-05
0.00226544 0.000451279 3.44964e-06
0.000451279 0.000106707 1.90178e-07
3.44964e-06 1.90178e-07 -8.5954e-06
0.00228165 0.000349222 1.92045e-06
0.000349222 -1.44241e-05 1.8628e-07
1.92045e-06 1.8628e-07 -1.51719e-05
0.00131026 -4.03421e-05 -7.29055e-06
-4.03421e-05 -7.11394e-06 2.02615e-07
-7.29055e-06 2.02615e-07 -0.000124456
0.00206012 -0.000158383 -2.38465e-05
-0.000158383 0.000468077 2.81684e-06
-2.38465e-05 2.81684e-06 0.000336339
0.00205347 -0.00015095 2.37318e-06
-0.00015095 3.91138e-05 -2.36149e-07
2.37318e-06 -2.36149e-07 -4.26941e-05
0.00193411 -0.000316901 1.00688e-06
-0.000316901 -1.28555e-05 6.40836e-07
1.00688e-06 6.40836e-07 -0.000155406
0.000378889 -0.000280225 -2.63377e-05
-0.000280225 -0.000146901 2.75404e-05
-2.63377e-05 2.75404e-05 -0.000316793
0.000708068 -0.000396488 -1.51587e-05
-0.000396488 -9.73717e-05 5.58019e-06
-1.51587e-05 5.58019e-06 -0.000444427
0.00194621 -0.000747632 -1.65511e-06
-0.000747632 0.000353138 -2.26683e-06
-1.65511e-06 -2.26683e-06 -0.000116019
0.00217289 -0.000479142 -1.86825e-06
-0.000479142 0.000241772 -5.67487e-07
-1.86825e-06 -5.67487e-07 1.43471e-05
0.00225678 -0.000448087 -1.30616e-06
-0.000448087 0.000117196 -6.09002e-08
-1.30616e-06 -6.09002e-08 7.25159e-06
0.00220372 -0.000603135 -1.10627e-06
-0.000603135 0.000219684 -1.17425e-06
-1.10627e-06 -1.17425e-06 -1.55468e-05
0.00252748 -0.000750728 -6.29379e-07
-0.000750728 0.000553519 -7.26034e-06
-6.29379e-07 -7.26034e-06 0.000195012
0.0020719 -0.000682312 2.00585e-06
-0.000682312 0.000151772 -1.8292e-06
2.00585e-06 -1.8292e-06 -0.000120491
0.000713245 -0.000300279 -7.94189e-06
-0.000300279 0.000115877 2.88329e-06
-7.94189e-06 2.88329e-06 -0.000210306
0.000412123 -0.000236428 -3.83683e-07
-0.000236428 -9.04626e-05 7.56402e-07
-3.83683e-07 7.56402e-07 -0.000423193
0.000523314 -0.00029315 1.20329e-06
-0.00029315 6.27289e-05 5.63074e-06
1.20329e-06 5.63074e-06 -0.00021824
0.00204091 -7.40967e-05 3.17378e-06
-7.40967e-05 3.83568e-05 -1.83617e-07
3.17378e-06 -1.83617e-07 -3.59448e-05
0.00205722 -0.000243907 9.26168e-07
-0.000243907 4.51426e-05 -2.92704e-07
9.26168e-07 -2.92704e-07 -5.59125e-05
0.00218202 -0.00015502 9.60207e-07
-0.00015502 3.81814e-05 -8.92859e-08
9.60207e-07 -8.92859e-08 1.52266e-05
0.00225005 -0.000353792 -1.12296e-06
-0.000353792 8.26568e-05 2.21632e-07
-1.12296e-06 2.21632e-07 1.15111e-05
0.000830129 -0.000330341 2.96404e-07
-0.000330341 9.21067e-05 2.51017e-07
2.96404e-07 2.51017e-07 -0.000226451
0.00188618 -0.000775584 6.13448e-09
-0.000775584 0.000495728 -1.44418e-06
6.13448e-09 -1.44418e-06 -2.61654e-05
0.00215237 -0.000853854 5.92047e-07
-0.000853854 0.000391124 1.6194e-06
5.92047e-07 1.6194e-06 -9.16341e-05
0.00211275 -0.000528642 -6.15591e-07
-0.000528642 0.000106802 5.86122e-07
-6.15591e-07 5.86122e-07 -7.30726e-05
0.0023021 -0.000470061 1.73721e-07
-0.000470061 7.74901e-05 3.58588e-08
1.73721e-07 3.58588e-08 1.73129e-05
0.00240103 -0.000756613 -7.69309e-07
-0.000756613 0.000434926 3.75903e-07
-7.69309e-07 3.75903e-07 9.35323e-05
0.00221809 -0.000642233 -6.81693e-07
-0.000642233 0.000160908 8.10963e-07
-6.81693e-07 8.10963e-07 -3.68708e-05
0.00239264 -0.000727554 1.14889e-06
-0.000727554 0.000347864 -5.96446e-07
1.14889e-06 -5.96446e-07 9.54492e-05
0.000879449 -0.000422656 -3.92967e-06
-0.000422656 0.000143486 -2.05163e-07
-3.92967e-06 -2.05163e-07 -0.000258359
0.00160514 -0.000515889 -1.93107e-06
-0.000515889 0.000661414 1.41612e-06
-1.93107e-06 1.41612e-06 0.000209377
0.000894002 -0.00021906 -3.32532e-06
-0.00021906 0.0003305 -2.64598e-06
-3.32532e-06 -2.64598e-06 5.83314e-05
0.000708264 -0.000188952 8.48153e-07
-0.000188952 0.000170019 1.20595e-06
8.48153e-07 1.20595e-06 -0.000135475
0.00219163 -8.59344e-05 6.29462e-06
-8.59344e-05 5.508e-05 -6.41355e-07
6.29462e-06 -6.41355e-07 3.85251e-05
0.00207714 -0.000248667 4.24833e-06
-0.000248667 -5.89524e-05 -1.49648e-06
4.24833e-06 -1.49648e-06 -0.000100744
0.00217045 -0.000146584 4.34439e-06
-0.000146584 2.13777e-05 -1.13964e-06
4.34439e-06 -1.13964e-06 4.01496e-05
0.00226193 -0.000374134 -7.09432e-07
-0.000374134 -9.30751e-07 -2.98735e-07
-7.09432e-07 -2.98735e-07 -1.56667e-06
0.00226107 -0.000570186 -9.33858e-07
-0.000570186 0.000106066 3.82819e-07
-9.33858e-07 3.82819e-07 -1.40573e-05
0.00234259 -0.000501525 9.13214e-07
-0.000501525 2.76475e-05 -3.77802e-07
9.13214e-07 -3.77802e-07 -1.15619e-05
0.00160878 -0.000659524 -5.16649e-06
-0.000659524 0.000508191 1.25055e-06
-5.16649e-06 1.25055e-06 1.09362e-05
0.00232862 -0.000700965 -1.56077e-06
-0.000700965 0.000163913 4.43948e-07
-1.56077e-06 4.43948e-07 1.58522e-06
0.00202302 -0.000939697 1.73012e-07
-0.000939697 0.000505961 7.90822e-06
1.73012e-07 7.90822e-06 -7.7389e-05
0.00243753 -0.00090998 7.76173e-06
-0.00090998 0.000524728 4.19734e-06
7.76173e-06 4.19734e-06 4.65476e-05
0.00240604 -0.000764858 -2.66366e-06
-0.000764858 0.00042082 3.90088e-06
-2.66366e-06 3.90088e-06 8.75716e-05
0.00233627 -0.000784595 -5.05554e-06
-0.000784595 0.00024396 -1.92069e-06
-5.05554e-06 -1.92069e-06 -2.13645e-05
0.000683885 -0.000220127 8.42467e-07
-0.000220127 0.000198178 -9.18251e-06
8.42467e-07 -9.18251e-06 -3.721e-05
0.00137023 -0.000290792 -1.811e-06
-0.000290792 0.000663311 6.25559e-06
-1.811e-06 6.25559e-06 0.000282265
0.0014 -0.000646005 2.32174e-05
-0.000646005 0.000431357 3.45655e-06
2.32174e-05 3.45655e-06 -7.9719e-05
-0.000352232 -0.000186397 1.76285e-05
-0.000186397 -0.000576222 -5.04084e-06
1.76285e-05 -5.04084e-06 -0.000887936
0.00126926 -0.000576944 -2.01331e-06
-0.000576944 0.000463996 1.59178e-05
-2.01331e-06 1.59178e-05 -7.96354e-05
0.000221471 1.23065e-05 -7.02974e-06
1.23065e-05 -0.000147046 -1.44288e-05
-7.02974e-06 -1.44288e-05 -0.000218802
0.00214691 0.000486475 -5.01699e-06
0.000486475 0.000176794 9.84698e-08
-5.01699e-06 9.84698e-08 -3.92384e-05
0.000761139 5.20333e-05 2.70513e-06
5.20333e-05 0.00021535 -5.87715e-06
2.70513e-06 -5.87715e-06 -2.75138e-05
0.000267455 0.000258903 -7.75841e-06
0.000258903 -0.000190619 4.34749e-06
-7.75841e-06 4.34749e-06 -0.000430933
0.000824592 0.000289301 -2.43522e-06
0.000289301 0.000245547 1.07309e-05
-2.43522e-06 1.07309e-05 -7.54984e-05
0.00212306 0.000635049 -4.47918e-06
0.000635049 0.000307706 2.01215e-06
-4.47918e-06 2.01215e-06 -2.19485e-05
0.00222865 0.000623874 -2.50423e-07
0.000623874 0.000228158 1.91096e-06
-2.50423e-07 1.91096e-06 -2.17374e-05
0.00136854 0.000635091 6.02189e-06
0.000635091 0.000344451 2.86112e-06
6.02189e-06 2.86112e-06 -0.00013643
0.00191962 0.000840875 8.46073e-06
0.000840875 0.000415622 1.15547e-05
8.46073e-06 1.15547e-05 -0.000116129
0.00237947 0.000771693 4.74509e-06
0.000771693 0.000490171 6.80646e-06
4.74509e-06 6.80646e-06 0.000122435
0.00237875 0.000759027 1.35672e-05
0.000759027 0.000439928 1.78408e-05
1.35672e-05 1.78408e-05 8.30367e-05
0.000449397 3.00198e-05 -2.45335e-07
3.00198e-05 -7.66702e-06 7.50482e-09
-2.45335e-07 7.50482e-09 -6.60527e-05
0.000684658 9.84658e-05 -2.36597e-06
9.84658e-05 0.000195119 -1.17879e-07
-2.36597e-06 -1.17879e-07 -2.15225e-05
0.00086808 0.000439554 6.11852e-06
0.000439554 0.000198234 -1.5178e-07
6.11852e-06 -1.5178e-07 -0.000167183
0.000578187 0.000139213 1.42069e-06
0.000139213 9.52345e-05 -5.03885e-06
1.42069e-06 -5.03885e-06 -0.00022163
0.00025264 0.000120971 -3.96699e-07
0.000120971 -0.000272036 4.32112e-06
-3.96699e-07 4.32112e-06 -0.000541447
0.00227304 0.000544813 -1.58726e-06
0.000544813 0.000172278 -1.21336e-06
-1.58726e-06 -1.21336e-06 -1.47626e-05
0.00225297 0.000715906 2.33586e-07
0.000715906 0.000313848 -2.76779e-08
2.33586e-07 -2.76779e-08 2.79065e-07
0.00225639 0.00068699 1.45596e-06
0.00068699 0.00021304 3.09734e-07
1.45596e-06 3.09734e-07 -3.58178e-05
0.00198503 0.000884275 1.19611e-06
0.000884275 0.000715307 -2.55704e-06
1.19611e-06 -2.55704e-06 0.000106087
0.00256619 0.000842494 3.5166e-06
0.000842494 0.000493523 2.98122e-07
3.5166e-06 2.98122e-07 0.000130049
0.00235659 0.000942779 -4.60658e-06
0.000942779 0.000621705 4.77845e-07
-4.60658e-06 4.77845e-07 0.000103535
0.00087852 0.000141597 1.32763e-06
0.000141597 0.000287702 9.48851e-06
1.32763e-06 9.48851e-06 0.000130114
0.00285075 0.000437245 -5.28696e-07
0.000437245 0.00164166 4.1823e-06
-5.28696e-07 4.1823e-06 0.00129648
0.000255215 0.000493199 -3.03003e-06
0.000493199 -0.000201663 1.66724e-08
-3.03003e-06 1.66724e-08 -0.00063742
0.00156327 0.000206526 6.71151e-06
0.000206526 0.000535413 -9.60716e-07
6.71151e-06 -9.60716e-07 0.00026953
0.00284984 0.000638106 -2.27801e-06
0.000638106 0.00128179 -2.80733e-06
-2.27801e-06 -2.80733e-06 0.000886027
0.00229346 0.000580941 -3.14572e-06
0.000580941 0.000103092 -1.41333e-06
-3.14572e-06 -1.41333e-06 -4.44629e-05
0.00224304 0.00077768 -5.07714e-06
0.00077768 0.000271666 -1.73999e-06
-5.07714e-06 -1.73999e-06 -4.98504e-05
0.00228706 0.00075492 2.37372e-07
0.00075492 0.000196611 -5.40094e-07
2.37372e-07 -5.40094e-07 -5.37363e-05
0.00140624 0.00090175 6.63962e-06
0.00090175 0.000403974 -9.09719e-06
6.63962e-06 -9.09719e-06 -0.000216851
0.00207099 0.000921994 1.21716e-05
0.000921994 0.000315385 -4.06924e-06
1.21716e-05 -4.06924e-06 -0.000149137
0.000615431 8.54043e-05 -5.50571e-07
8.54043e-05 0.000140237 3.16405e-07
-5.50571e-07 3.16405e-07 4.20365e-06
0.000506975 0.000211185 -6.23024e-07
0.000211185 0.000112401 -9.10968e-07
-6.23024e-07 -9.10968e-07 -7.37751e-05
-0.000325866 9.70532e-05 4.79391e-07
9.70532e-05 -0.000380087 -2.81277e-06
4.79391e-07 -2.81277e-06 -0.000572511
0.00165333 0.000279387 -5.27902e-06
0.000279387 0.000931899 -3.29801e-06
-5.27902e-06 -3.29801e-06 0.000692488
0.00134884 0.00022108 -2.34375e-06
0.00022108 0.000704372 3.25281e-06
-2.34375e-06 3.25281e-06 0.000512792
0.000546669 8.91159e-05 8.72213e-07
8.91159e-05 0.000105402 4.69592e-06
8.72213e-07 4.69592e-06 1.08301e-05
0.000561571 3.51972e-05 -1.24007e-06
3.51972e-05 0.000113603 -1.65671e-07
-1.24007e-06 -1.65671e-07 1.36645e-05
0.00144131 6.06525e-06 2.14152e-06
6.06525e-06 0.000642218 5.30127e-06
2.14152e-06 5.30127e-06 0.000612018
0.000483317 5.52861e-05 2.30432e-06
5.52861e-05 5.51167e-05 -7.19844e-06
2.30432e-06 -7.19844e-06 -5.35721e-05
0.00153736 -7.20276e-06 -1.34035e-05
-7.20276e-06 0.000703591 -2.04571e-06
-1.34035e-05 -2.04571e-06 0.000669647
0.000749685 -2.14794e-05 4.95821e-05
-2.14794e-05 0.000184909 1.14576e-05
4.95821e-05 1.14576e-05 0.000183992
0.00155539 7.06647e-06 -2.67539e-05
7.06647e-06 0.000717863 -9.22306e-06
-2.67539e-05 -9.22306e-06 0.000676683
0.00215506 -7.50387e-05 5.60901e-05
-7.50387e-05 0.00111066 1.31046e-06
5.60901e-05 1.31046e-06 0.00110423
0.00360663 -0.000142431 -5.78869e-05
-0.000142431 0.00206842 -7.05227e-06
-5.78869e-05 -7.05227e-06 0.00205782
0.000172584 2.84285e-05 -1.85873e-07
2.84285e-05 -0.000157859 -1.1011e-05
-1.85873e-07 -1.1011e-05 -0.000223769
0.000389978 -0.000120327 -3.14229e-06
-0.000120327 -4.08446e-05 4.97328e-07
-3.14229e-06 4.97328e-07 -0.000141683
0.00442551 0.000215686 3.29308e-05
0.000215686 0.00263759 -1.0916e-05
3.29308e-05 -1.0916e-05 0.00260025
0.0057563 0.000120346 -8.9564e-06
0.000120346 0.00349677 -2.01101e-08
-8.9564e-06 -2.01101e-08 0.00348104
0.000436803 -0.000186949 -2.41652e-05
-0.000186949 -4.69781e-05 1.99054e-05
-2.41652e-05 1.99054e-05 -0.000173283
0.00666381 9.09665e-05 -0.000244902
9.09665e-05 0.00407567 3.49374e-05
-0.000244902 3.49374e-05 0.00406249
0.00214263 0.000396824 -3.10225e-06
0.000396824 0.000129283 1.34683e-06
-3.10225e-06 1.34683e-06 -3.3481e-05
0.00214489 0.000229511 -1.91171e-06
0.000229511 9.31415e-05 -1.44073e-07
-1.91171e-06 -1.44073e-07 2.6978e-06
0.00225886 0.000341111 -5.22429e-06
0.000341111 7.30148e-05 -5.12771e-07
-5.22429e-06 -5.12771e-07 1.13587e-05
0.00214806 0.000151567 -5.22516e-06
0.000151567 -5.8634e-06 -1.03581e-06
-5.22516e-06 -1.03581e-06 -1.24043e-05
0.00207664 6.62087e-05 -2.30023e-06
6.62087e-05 5.62917e-05 -4.41985e-07
-2.30023e-06 -4.41985e-07 -8.9547e-06
0.0012031 3.0318e-06 -5.21469e-06
3.0318e-06 -7.79347e-05 -2.81599e-07
-5.21469e-06 -2.81599e-07 -0.000205017
0.00211069 -5.3075e-06 1.02758e-07
-5.3075e-06 8.19063e-05 1.07415e-07
1.02758e-07 1.07415e-07 1.78203e-05
0.00211516 6.44089e-05 -5.93305e-07
6.44089e-05 -9.15189e-06 -7.80549e-08
-5.93305e-07 -7.80549e-08 -1.6109e-05
0.00222789 0.000238339 -1.00272e-07
0.000238339 5.56995e-05 1.1374e-07
-1.00272e-07 1.1374e-07 2.49161e-05
0.00215123 0.000142109 -3.11656e-08
0.000142109 -3.11621e-05 5.23236e-08
-3.11656e-08 5.23236e-08 -1.05773e-05
0.00231041 0.000457627 2.12951e-07
0.000457627 0.000130141 8.1027e-08
2.12951e-07 8.1027e-08 1.35826e-05
0.00226207 0.000339364 1.01777e-07
0.000339364 -2.96801e-05 1.74033e-07
1.01777e-07 1.74033e-07 -2.77387e-05
0.00210629 -1.02786e-05 4.77532e-06
-1.02786e-05 -1.30285e-05 -4.50244e-08
4.77532e-06 -4.50244e-08 -2.04094e-05
0.00220277 5.98155e-05 3.62664e-06
5.98155e-05 1.17175e-05 8.94258e-08
3.62664e-06 8.94258e-08 4.58518e-05
0.00217968 0.000213683 8.75489e-07
0.000213683 -4.36602e-05 4.77065e-07
8.75489e-07 4.77065e-07 -3.13028e-05
0.00228883 0.000149473 1.09862e-06
0.000149473 -3.39641e-05 8.78989e-07
1.09862e-06 8.78989e-07 2.48276e-05
0.00231713 0.000463528 6.69093e-07
0.000463528 4.01156e-05 -5.6816e-08
6.69093e-07 -5.6816e-08 -1.13384e-05
0.00240004 0.000335934 6.09953e-07
0.000335934 -2.88601e-05 3.85991e-07
6.09953e-07 3.85991e-07 4.86081e-07
0.00212256 -7.09066e-05 5.7803e-07
-7.09066e-05 9.39867e-05 -1.27187e-07
5.7803e-07 -1.27187e-07 2.63773e-05
0.00206031 -0.000249557 3.05412e-06
-0.000249557 4.99911e-05 -3.10173e-07
3.05412e-06 -3.10173e-07 -5.03045e-05
0.0021974 -0.000151809 -3.53808e-06
-0.000151809 3.72548e-05 7.63866e-07
-3.53808e-06 7.63866e-07 2.21765e-05
0.00221694 -0.000344941 -4.97669e-06
-0.000344941 7.1132e-05 1.33296e-06
-4.97669e-06 1.33296e-06 -3.78002e-06
0.000569255 -0.000337571 -8.24209e-06
-0.000337571 -6.10071e-05 7.24519e-06
-8.24209e-06 7.24519e-06 -0.000391918
0.00195968 -0.000782645 -4.82539e-06
-0.000782645 0.000564643 -2.12511e-06
-4.82539e-06 -2.12511e-06 4.23429e-05
0.00198486 -0.000831518 -1.22422e-06
-0.000831518 0.000296443 -4.00055e-06
-1.22422e-06 -4.00055e-06 -0.000187117
0.00210221 -0.000522198 -2.43229e-06
-0.000522198 0.000107339 1.91256e-08
-2.43229e-06 1.91256e-08 -7.88506e-05
0.00229161 -0.000473246 5.59413e-08
-0.000473246 5.80727e-05 -1.47212e-07
5.59413e-08 -1.47212e-07 4.19665e-06
0.00220908 -0.000640489 -1.97806e-07
-0.000640489 0.000151623 1.48844e-07
-1.97806e-07 1.48844e-07 -4.59837e-05
0.00225629 -0.000753661 6.1569e-07
-0.000753661 0.000326627 -5.52488e-06
6.1569e-07 -5.52488e-06 -1.64931e-05
0.00232453 -0.000723057 3.58822e-06
-0.000723057 0.000298619 -1.6404e-06
3.58822e-06 -1.6404e-06 4.75719e-05
0.000681948 -0.000416397 5.12093e-06
-0.000416397 1.9203e-05 -3.02275e-06
5.12093e-06 -3.02275e-06 -0.000393279
0.000967171 -0.000429232 -1.48072e-05
-0.000429232 0.00023573 -3.70731e-06
-1.48072e-05 -3.70731e-06 -0.00019165
0.000432302 -0.00022351 -7.99547e-06
-0.00022351 1.78356e-05 3.37241e-06
-7.99547e-06 3.37241e-06 -0.000242226
-0.000234698 -0.000211567 -4.46225e-06
-0.000211567 -0.000467305 -1.05169e-06
-4.46225e-06 -1.05169e-06 -0.000747595
0.002197 -8.618e-05 -1.36478e-07
-8.618e-05 5.72623e-05 3.46559e-08
-1.36478e-07 3.46559e-08 4.07093e-05
0.0021464 -0.000253105 2.01446e-06
-0.000253105 -6.96525e-06 -5.07215e-07
2.01446e-06 -5.07215e-07 -4.96578e-05
0.002122 -0.000144981 1.85014e-07
-0.000144981 -1.59191e-05 -1.43742e-07
1.85014e-07 -1.43742e-07 5.08685e-06
0.00225171 -0.000372271 -4.60713e-07
-0.000372271 1.67571e-06 3.06633e-07
-4.60713e-07 3.06633e-07 -6.93032e-06
0.00157832 -0.000624579 -2.54593e-06
-0.000624579 0.000466101 1.12756e-07
-2.54593e-06 1.12756e-07 -1.23289e-05
0.00195846 -0.000933289 3.23709e-06
-0.000933289 0.00047342 -9.52474e-09
3.23709e-06 -9.52474e-09 -0.000111847
0.00239869 -0.000923461 -2.44424e-07
-0.000923461 0.000497571 7.11182e-07
-2.44424e-07 7.11182e-07 9.39196e-06
0.00228564 -0.000569052 -1.13937e-06
-0.000569052 0.000131868 1.8342e-07
-1.13937e-06 1.8342e-07 4.7392e-06
0.00233052 -0.000500643 8.62793e-07
-0.000500643 2.07265e-05 -3.98159e-07
8.62793e-07 -3.98159e-07 -1.15538e-05
0.00237925 -0.000768079 -1.29494e-06
-0.000768079 0.000411264 9.10685e-07
-1.29494e-06 9.10685e-07 7.59827e-05
0.00230551 -0.000704576 -1.04833e-06
-0.000704576 0.000139584 8.42635e-07
-1.04833e-06 8.42635e-07 -2.33359e-05
0.00235485 -0.000783025 6.12482e-06
-0.000783025 0.000254757 -4.57137e-06
6.12482e-06 -4.57137e-06 -5.44806e-06
0.00150367 -0.000673841 2.4219e-07
-0.000673841 0.000514883 -1.80716e-06
2.4219e-07 -1.80716e-06 -1.05752e-05
0.00171495 -0.000637906 -6.52873e-07
-0.000637906 0.000731164 1.63421e-06
-6.52873e-07 1.63421e-06 0.000195933
0.00116678 -0.000304287 -2.77891e-07
-0.000304287 0.000439726 -5.33944e-06
-2.77891e-07 -5.33944e-06 9.62314e-05
0.000181373 -0.000121226 -2.66524e-06
-0.000121226 -0.000109955 1.58617e-06
-2.66524e-06 1.58617e-06 -0.000348826
-0.000369172 -0.000200879 -1.66369e-06
-0.000200879 -0.000467832 9.58044e-07
-1.66369e-06 9.58044e-07 -0.000819053
0.0021153 -8.93903e-05 2.23144e-06
-8.93903e-05 -4.38801e-05 -4.51527e-07
2.23144e-06 -4.51527e-07 -1.09098e-05
0.00219129 -0.000220065 7.03805e-07
-0.000220065 -4.24297e-05 -1.17674e-06
7.03805e-07 -1.17674e-06 -1.37132e-05
0.0023741 -0.000451025 -1.49787e-06
-0.000451025 -4.83965e-05 -9.766e-07
-1.49787e-06 -9.766e-07 -1.69705e-05
0.00235206 -0.000603099 -2.47285e-07
-0.000603099 5.44511e-05 6.67018e-07
-2.47285e-07 6.67018e-07 -6.48516e-06
0.00174823 -0.000864222 7.083e-06
-0.000864222 0.000555465 3.94178e-06
7.083e-06 3.94178e-06 -4.35827e-05
0.00254912 -0.000843279 -4.87386e-06
-0.000843279 0.000186354 -8.81457e-07
-4.87386e-06 -8.81457e-07 -1.17282e-05
0.00148503 -0.000964109 -1.29311e-05
-0.000964109 0.000184655 1.01629e-05
-1.29311e-05 1.01629e-05 -0.000422191
0.00263977 -0.000990065 -2.44334e-06
-0.000990065 0.000620459 3.94748e-06
-2.44334e-06 3.94748e-06 0.000120067
0.00203968 -0.000742026 -1.24462e-05
-0.000742026 0.000168328 -1.37246e-06
-1.24462e-05 -1.37246e-06 -0.00014875
0.000119025 -8.14923e-05 -1.92786e-07
-8.14923e-05 -0.000142197 -8.14241e-06
-1.92786e-07 -8.14241e-06 -0.000307925
0.000779356 -0.000351428 -4.13102e-06
-0.000351428 0.000369012 7.50454e-07
-4.13102e-06 7.50454e-07 -3.98894e-06
0.00301243 -0.000311798 -8.25387e-06
-0.000311798 0.00167338 4.83938e-06
-8.25387e-06 4.83938e-06 0.00131889
0.00194075 -0.00080026 -6.09967e-07
-0.00080026 0.000781027 8.71559e-06
-6.09967e-07 8.71559e-06 0.00020239
0.00144926 -0.00044624 1.04556e-05
-0.00044624 0.000572604 2.05004e-07
1.04556e-05 2.05004e-07 0.000150164
0.00209238 -0.000760223 -3.36599e-06
-0.000760223 0.000945479 1.68443e-05
-3.36599e-06 1.68443e-05 0.000359388
0.000374977 3.03532e-05 -5.5254e-06
3.03532e-05 -5.30651e-05 -1.35923e-05
-5.5254e-06 -1.35923e-05 -0.000111405
0.000208575 8.44681e-05 -1.0766e-06
8.44681e-05 -0.000101501 -1.04293e-05
-1.0766e-06 -1.04293e-05 -0.000317664
0.00233599 0.000550364 -4.18943e-06
0.000550364 0.000215947 -7.53344e-07
-4.18943e-06 -7.53344e-07 2.74875e-05
-0.000883683 7.10681e-06 -2.6015e-06
7.10681e-06 -0.000807359 -3.50365e-07
-2.6015e-06 -3.50365e-07 -0.00113683
0.00265048 0.000545084 1.37862e-05
0.000545084 0.00132265 -4.30327e-06
1.37862e-05 -4.30327e-06 0.00096002
-0.000180112 0.000156373 -8.79738e-06
0.000156373 -0.000555558 5.07204e-07
-8.79738e-06 5.07204e-07 -0.000854865
0.00222624 0.000711019 2.00114e-06
0.000711019 0.00030239 2.9942e-06
2.00114e-06 2.9942e-06 -9.29791e-06
0.00228807 0.000691629 3.27283e-06
0.000691629 0.000237019 9.78068e-07
3.27283e-06 9.78068e-07 -1.29003e-05
0.00194787 0.000874889 9.36883e-06
0.000874889 0.000710358 8.73801e-06
9.36883e-06 8.73801e-06 9.97801e-05
0.00275025 0.000974581 -2.25977e-06
0.000974581 0.00089439 8.85542e-06
-2.25977e-06 8.85542e-06 0.000377445
0.00247914 0.000835888 5.6504e-06
0.000835888 0.000413277 5.10717e-06
5.6504e-06 5.10717e-06 4.82378e-05
0.000756226 0.000134027 1.18475e-06
0.000134027 0.000211196 2.36054e-08
1.18475e-06 2.36054e-08 5.73472e-05
0.000890906 0.000234296 -2.04851e-06
0.000234296 0.000382036 7.72889e-07
-2.04851e-06 7.72889e-07 5.90332e-05
0.000880536 0.000584486 6.90116e-07
0.000584486 0.000178521 7.29598e-07
6.90116e-07 7.29598e-07 -0.000295584
0.00080197 0.0001462 -1.24876e-07
0.0001462 5.87928e-05 -1.36583e-06
-1.24876e-07 -1.36583e-06 -0.000208582
0.00154563 0.00043245 3.50471e-06
0.00043245 0.000388968 -5.18068e-06
3.50471e-06 -5.18068e-06 4.58236e-05
0.00229784 0.000581888 -2.23504e-06
0.000581888 0.000119469 -1.0487e-06
-2.23504e-06 -1.0487e-06 -2.94643e-05
0.00233963 0.000788757 2.56416e-06
0.000788757 0.000318403 5.54256e-07
2.56416e-06 5.54256e-07 -5.4628e-06
0.00230478 0.000759811 1.20147e-06
0.000759811 0.000188883 3.63556e-07
1.20147e-06 3.63556e-07 -6.46638e-05
0.00182505 0.000975625 2.25213e-06
0.000975625 0.000628943 1.2032e-06
2.25213e-06 1.2032e-06 -4.32321e-06
0.00207143 0.000929924 -2.10064e-06
0.000929924 0.000347763 -2.80665e-06
-2.10064e-06 -2.80665e-06 -0.000126205
0.00175158 0.000331908 2.50607e-06
0.000331908 0.000917919 2.77612e-06
2.50607e-06 2.77612e-06 0.000667492
-0.000286811 0.000167208 7.84047e-07
0.000167208 -0.00035267 -1.77878e-06
7.84047e-07 -1.77878e-06 -0.000696719
0.00170334 0.000776939 2.02661e-06
0.000776939 0.000689847 -7.1936e-06
2.02661e-06 -7.1936e-06 0.000146721
-0.00209284 0.000234397 4.73412e-06
0.000234397 -0.00186959 -1.27353e-06
4.73412e-06 -1.27353e-06 -0.0021616
0.00309425 0.000802418 3.35353e-06
0.000802418 0.0012966 -6.21233e-06
3.35353e-06 -6.21233e-06 0.000848929
0.00249829 0.000683075 -2.6539e-06
0.000683075 0.000113992 -2.55084e-07
-2.6539e-06 -2.55084e-07 1.75803e-05
0.002345 0.000840312 8.87759e-06
0.000840312 0.000269616 -3.05513e-06
8.87759e-06 -3.05513e-06 -9.12489e-05
0.00233042 0.000775376 7.34364e-06
0.000775376 0.000127506 6.14698e-07
7.34364e-06 6.14698e-07 -0.000143008
0.00203896 0.00102578 1.60374e-05
0.00102578 0.000681191 2.74119e-07
1.60374e-05 2.74119e-07 5.91366e-05
0.00242009 0.00109929 7.88855e-06
0.00109929 0.000607423 -2.60333e-07
7.88855e-06 -2.60333e-07 5.35577e-05
0.000503899 7.32318e-05 2.56298e-06
7.32318e-05 6.37744e-05 -9.24394e-06
2.56298e-06 -9.24394e-06 -6.57496e-05
0.000906018 0.000166732 3.21813e-07
0.000166732 0.000367252 -1.37455e-06
3.21813e-07 -1.37455e-06 0.000179787
-0.000174682 0.000106346 -3.51708e-06
0.000106346 -0.000333823 -1.2222e-05
-3.51708e-06 -1.2222e-05 -0.000468578
-0.000624909 -1.2326e-05 5.15705e-06
-1.2326e-05 -0.000603138 -2.39396e-06
5.15705e-06 -2.39396e-06 -0.000766317
0.000537333 0.00010539 -1.48472e-06
0.00010539 0.000158316 2.79628e-07
-1.48472e-06 2.79628e-07 -7.1714e-06
0.000244341 0.000112181 2.54335e-06
0.000112181 -7.24055e-06 -4.84909e-07
2.54335e-06 -4.84909e-07 -0.000201639
0.000503774 0.000192181 -1.18834e-06
0.000192181 0.000147972 -1.15652e-05
-1.18834e-06 -1.15652e-05 -2.98098e-05
0.00038013 2.01865e-05 -6.19984e-06
2.01865e-05 9.91414e-05 1.91612e-06
-6.19984e-06 1.91612e-06 -0.000107651
0.000744811 0.000128748 -1.02438e-06
0.000128748 0.000268147 1.48731e-06
-1.02438e-06 1.48731e-06 0.000127655
0.000520088 9.15762e-05 2.10928e-06
9.15762e-05 8.85267e-05 4.38816e-06
2.10928e-06 4.38816e-06 -5.49083e-06
0.000443433 3.52758e-05 -2.86265e-06
3.52758e-05 3.20524e-05 1.15227e-07
-2.86265e-06 1.15227e-07 -5.84079e-05
0.00137527 6.97318e-06 2.44415e-06
6.97318e-06 0.000599325 4.78788e-06
2.44415e-06 4.78788e-06 0.000573553
0.000262838 -8.13005e-05 6.69759e-06
-8.13005e-05 -7.0316e-05 -5.14462e-06
6.69759e-06 -5.14462e-06 -0.000173137
0.00142779 1.8868e-06 -1.16808e-05
1.8868e-06 0.000631059 -1.86464e-06
-1.16808e-05 -1.86464e-06 0.000603948
0.000721433 -1.59852e-05 4.02061e-05
-1.59852e-05 0.000165447 1.06014e-05
4.02061e-05 1.06014e-05 0.000167937
0.00148984 -1.79675e-06 -1.90837e-05
-1.79675e-06 0.00067039 -9.78808e-06
-1.90837e-05 -9.78808e-06 0.00063943
0.000751232 -3.36144e-05 1.93444e-05
-3.36144e-05 0.000185366 4.21988e-06
1.93444e-05 4.21988e-06 0.000179598
0.0033111 -0.000143144 4.04243e-06
-0.000143144 0.00186886 -4.69604e-06
4.04243e-06 -4.69604e-06 0.00185713
0.000229037 7.77481e-05 -5.01062e-06
7.77481e-05 -0.000102361 -8.45577e-06
-5.01062e-06 -8.45577e-06 -0.000162585
0.000345845 -3.44798e-05 -4.22451e-06
-3.44798e-05 -4.95312e-05 6.82234e-07
-4.22451e-06 6.82234e-07 -0.000120408
0.00359841 0.000204257 -2.37051e-05
0.000204257 0.00209349 -1.12733e-05
-2.37051e-05 -1.12733e-05 0.00206536
0.000767472 -0.000152601 -1.86298e-05
-0.000152601 0.000196356 1.4927e-05
-1.86298e-05 1.4927e-05 9.1181e-05
0.00490389 0.000164337 -4.68399e-05
0.000164337 0.00294396 -8.53594e-08
-4.68399e-05 -8.53594e-08 0.00291952
0.00617009 0.000141665 -0.000198615
0.000141665 0.00378438 3.39998e-05
-0.000198615 3.39998e-05 0.00375796
0.00235329 0.000463716 -4.39372e-06
0.000463716 0.000152302 -4.67757e-07
-4.39372e-06 -4.67757e-07 3.45769e-05
0.00221415 0.000235515 -5.75494e-06
0.000235515 4.29371e-05 -1.11223e-06
-5.75494e-06 -1.11223e-06 1.33616e-05
0.00224509 0.000329628 -1.09433e-07
0.000329628 -4.31465e-05 4.34247e-08
-1.09433e-07 4.34247e-08 -3.85557e-05
0.00211352 0.000143223 -1.07945e-06
0.000143223 -6.41452e-05 -7.11107e-07
-1.07945e-06 -7.11107e-07 -3.75254e-05
0.0021276 5.75139e-05 -5.53563e-06
5.75139e-05 2.41421e-06 -2.65624e-07
-5.53563e-06 -2.65624e-07 -6.25243e-06
0.00208441 -3.85681e-06 -1.71762e-06
-3.85681e-06 6.62299e-05 -9.5951e-08
-1.71762e-06 -9.5951e-08 1.93748e-06
0.00214751 -1.19613e-05 1.17217e-07
-1.19613e-05 1.90907e-05 -1.38213e-08
1.17217e-07 -1.38213e-08 9.41356e-06
0.00218778 6.25486e-05 7.60648e-07
6.25486e-05 6.97717e-06 -7.91376e-09
7.60648e-07 -7.91376e-09 3.62643e-05
0.00220593 0.000214842 -4.32594e-07
0.000214842 -1.94182e-05 -4.49258e-08
-4.32594e-07 -4.49258e-08 -7.83887e-06
0.00225003 0.000149366 6.19112e-07
0.000149366 -6.42667e-05 1.04703e-07
6.19112e-07 1.04703e-07 2.69736e-06
0.00232815 0.000463488 -4.31924e-07
0.000463488 5.15958e-05 6.42367e-08
-4.31924e-07 6.42367e-08 -1.15064e-06
0.00237142 0.000338465 2.12752e-06
0.000338465 -4.61878e-05 6.53983e-07
2.12752e-06 6.53983e-07 -8.86157e-06
0.00212152 -1.59376e-05 1.63293e-06
-1.59376e-05 -3.67117e-05 -1.37648e-07
1.63293e-06 -1.37648e-07 -9.70322e-06
0.00227366 7.45879e-05 1.25467e-06
7.45879e-05 -6.20887e-05 5.7286e-08
1.25467e-06 5.7286e-08 1.7972e-05
0.00235514 0.000221746 -1.51602e-06
0.000221746 -4.83115e-05 5.86708e-07
-1.51602e-06 5.86708e-07 1.93064e-05
0.00248845 0.000488994 -1.81406e-06
0.000488994 -7.83525e-06 -6.32824e-08
-1.81406e-06 -6.32824e-08 2.05967e-05
0.00220505 -8.6517e-05 -6.49713e-06
-8.6517e-05 6.09151e-05 7.60779e-07
-6.49713e-06 7.60779e-07 4.43314e-05
0.00220778 -0.000258142 -3.44651e-06
-0.000258142 4.0339e-05 9.61026e-07
-3.44651e-06 9.61026e-07 -3.36002e-06
0.00207692 -0.000144128 -2.37969e-06
-0.000144128 -5.09136e-05 8.31026e-07
-2.37969e-06 8.31026e-07 -2.80672e-05
0.0022454 -0.00037101 -2.73595e-06
-0.00037101 5.26318e-06 8.5561e-07
-2.73595e-06 8.5561e-07 -1.10053e-05
0.0012916 -0.000596136 6.93604e-06
-0.000596136 0.000276048 -2.6523e-06
6.93604e-06 -2.6523e-06 -0.000196369
0.00193224 -0.000929663 4.41916e-06
-0.000929663 0.000462083 -6.79764e-06
4.41916e-06 -6.79764e-06 -0.000124528
0.00239459 -0.000942602 -4.07971e-06
-0.000942602 0.000491503 -4.59199e-06
-4.07971e-06 -4.59199e-06 -8.64291e-06
0.00231525 -0.00056791 -2.73602e-06
-0.00056791 0.000161614 8.6477e-07
-2.73602e-06 8.6477e-07 2.7862e-05
0.00232057 -0.00050035 2.6837e-06
-0.00050035 1.48863e-05 -2.70024e-07
2.6837e-06 -2.70024e-07 -1.00663e-05
0.0022821 -0.000706162 -1.10447e-06
-0.000706162 0.000117235 9.59121e-07
-1.10447e-06 9.59121e-07 -4.60712e-05
0.00235225 -0.000762862 1.04953e-06
-0.000762862 0.000402398 -2.46882e-06
1.04953e-06 -2.46882e-06 6.85288e-05
0.00243375 -0.000783533 9.46055e-06
-0.000783533 0.000304963 -1.41462e-06
9.46055e-06 -1.41462e-06 4.63975e-05
0.00172016 -0.000694978 -2.55375e-05
-0.000694978 0.000698372 -3.68243e-06
-2.55375e-05 -3.68243e-06 0.000163782
0.00104912 -0.000568846 4.03831e-06
-0.000568846 0.000291971 -1.52805e-05
4.03831e-06 -1.52805e-05 -0.00022123
0.00312641 -0.00039863 -9.6452e-06
-0.00039863 0.00164515 -4.81695e-06
-9.6452e-06 -4.81695e-06 0.00131589
-0.0001316 -5.86538e-05 3.94529e-06
-5.86538e-05 -0.000307956 5.58488e-06
3.94529e-06 5.58488e-06 -0.000543516
-0.000113807 -0.000135661 6.55523e-06
-0.000135661 -0.000290628 -8.04956e-06
6.55523e-06 -8.04956e-06 -0.000638046
0.00210212 -9.67895e-05 6.73782e-08
-9.67895e-05 -5.19196e-05 -9.45541e-08
6.73782e-08 -9.45541e-08 -1.99322e-05
0.00221721 -0.000221742 1.7224e-06
-0.000221742 -2.85538e-05 -1.69609e-08
1.7224e-06 -1.69609e-08 -9.82297e-07
0.00237057 -0.000444571 -9.24914e-07
-0.000444571 -3.22088e-05 3.15024e-07
-9.24914e-07 3.15024e-07 -9.97092e-06
0.00198263 -0.000870131 -1.87155e-06
-0.000870131 0.000700543 -1.21247e-07
-1.87155e-06 -1.21247e-07 0.000107026
0.00164908 -0.000966432 6.51597e-06
-0.000966432 0.000287064 -1.24476e-06
6.51597e-06 -1.24476e-06 -0.000316732
0.00247328 -0.000991328 -1.6372e-06
-0.000991328 0.000518226 2.19859e-07
-1.6372e-06 2.19859e-07 1.09489e-05
0.00235645 -0.000596722 4.56729e-07
-0.000596722 6.27742e-05 -4.62587e-07
4.56729e-07 -4.62587e-07 3.15792e-07
0.00227963 -0.000789 3.39859e-06
-0.000789 0.000284929 -4.31299e-06
3.39859e-06 -4.31299e-06 -3.77499e-05
0.00253243 -0.000827431 -1.11887e-06
-0.000827431 0.000208859 -6.25211e-07
-1.11887e-06 -6.25211e-07 1.65198e-05
-0.000438611 4.95872e-06 -1.938e-06
4.95872e-06 -0.000523078 -5.38054e-07
-1.938e-06 -5.38054e-07 -0.000668216
0.00166202 -0.000749055 1.20329e-06
-0.000749055 0.000631726 -3.8387e-07
1.20329e-06 -3.8387e-07 5.73976e-05
0.00155158 -0.000701414 -4.37109e-06
-0.000701414 0.000631826 -9.55943e-07
-4.37109e-06 -9.55943e-07 2.56506e-05
0.00105119 -0.000379897 -2.52243e-06
-0.000379897 0.000304737 4.44651e-06
-2.52243e-06 4.44651e-06 -0.000127616
0.00183864 -0.000475413 1.12195e-06
-0.000475413 0.000949109 -5.75804e-09
1.12195e-06 -5.75804e-09 0.000563036
0.000424054 -0.00019305 -7.28527e-07
-0.00019305 0.000124956 9.34523e-07
-7.28527e-07 9.34523e-07 -0.000235013
0.00222626 -0.000122771 -1.48352e-08
-0.000122771 -7.42272e-05 -6.88602e-07
-1.48352e-08 -6.88602e-07 -6.58999e-06
0.00240155 -0.00029688 4.23204e-07
-0.00029688 -8.76636e-05 -1.29381e-06
4.23204e-07 -1.29381e-06 6.25657e-06
0.00246427 -0.000554805 -1.72744e-06
-0.000554805 -2.91913e-05 -1.32568e-07
-1.72744e-06 -1.32568e-07 7.70028e-06
0.00248357 -0.000723772 -2.46612e-06
-0.000723772 2.62327e-05 5.85781e-07
-2.46612e-06 5.85781e-07 -6.11266e-06
0.00227424 -0.000992856 -6.89197e-06
-0.000992856 0.000873566 5.8655e-06
-6.89197e-06 5.8655e-06 0.000239355
0.00252187 -0.000947296 -5.01635e-06
-0.000947296 0.000286956 -4.39583e-06
-5.01635e-06 -4.39583e-06 -2.23266e-05
0.00228848 -0.0011468 -5.93675e-05
-0.0011468 0.000667118 1.06843e-05
-5.93675e-05 1.06843e-05 -4.66677e-06
0.00218053 -0.00100388 -3.04771e-05
-0.00100388 0.000364004 3.87835e-06
-3.04771e-05 3.87835e-06 -0.00014957
-0.000344358 3.92235e-05 -4.4496e-06
3.92235e-05 -0.000469987 -5.30457e-06
-4.4496e-06 -5.30457e-06 -0.00057355
0.00112286 -5.65528e-05 -1.87584e-06
-5.65528e-05 0.000580491 3.29189e-08
-1.87584e-06 3.29189e-08 0.00030158
0.00242068 -0.00047663 -1.0787e-05
-0.00047663 0.00142659 1.5613e-06
-1.0787e-05 1.5613e-06 0.00102223
-0.000271756 -0.000285909 -5.31816e-06
-0.000285909 -0.000419024 -6.52755e-06
-5.31816e-06 -6.52755e-06 -0.000792098
0.00265907 -0.000907404 -5.75323e-06
-0.000907404 0.0012286 2.04877e-05
-5.75323e-06 2.04877e-05 0.000622408
0.00192925 -0.000736448 5.23224e-06
-0.000736448 0.000888572 1.63816e-05
5.23224e-06 1.63816e-05 0.000230175
0.000564038 0.000106091 1.34156e-06
0.000106091 9.27144e-05 -9.68123e-06
1.34156e-06 -9.68123e-06 -6.00042e-05
-0.000704192 0.00010238 3.83047e-07
0.00010238 -0.000651808 -2.3527e-06
3.83047e-07 -2.3527e-06 -0.000951172
0.00230056 0.000583041 -1.32326e-06
0.000583041 0.000133972 -6.39637e-07
-1.32326e-06 -6.39637e-07 -1.64058e-05
0.000115095 9.83555e-05 -4.80075e-06
9.83555e-05 -0.000361981 4.51424e-06
-4.80075e-06 4.51424e-06 -0.000633591
0.00178809 0.000709884 9.31637e-06
0.000709884 0.000745956 -2.44959e-06
9.31637e-06 -2.44959e-06 0.000225248
0.000282319 0.000219961 -6.91203e-06
0.000219961 -0.000406822 -4.49833e-06
-6.91203e-06 -4.49833e-06 -0.000682631
0.00242896 0.000799234 5.27128e-06
0.000799234 0.000359903 1.71228e-06
5.27128e-06 1.71228e-06 3.37869e-05
0.00230944 0.00076261 -3.29059e-06
0.00076261 0.000174258 1.93014e-07
-3.29059e-06 1.93014e-07 -8.15332e-05
0.00216182 0.00103672 -3.87598e-06
0.00103672 0.000805887 6.69348e-06
-3.87598e-06 6.69348e-06 0.000162604
0.00210808 0.000941001 -7.43737e-06
0.000941001 0.00040793 2.73743e-06
-7.43737e-06 2.73743e-06 -7.7279e-05
0.00074061 0.000241477 -5.90146e-07
0.000241477 0.000264764 -4.44606e-07
-5.90146e-07 -4.44606e-07 2.55896e-05
0.000671568 0.000278208 2.09649e-06
0.000278208 0.00024985 -1.68252e-06
2.09649e-06 -1.68252e-06 -0.000109939
0.00142386 0.000727209 -2.77027e-06
0.000727209 0.000521908 -4.57723e-07
-2.77027e-06 -4.57723e-07 -8.05555e-06
0.000895028 0.000327744 -3.47786e-06
0.000327744 7.45324e-06 2.36407e-06
-3.47786e-06 2.36407e-06 -0.00027868
0.00268659 0.000725242 1.51469e-07
0.000725242 0.00102776 -3.53045e-07
1.51469e-07 -3.53045e-07 0.000600889
0.00252162 0.000689982 -2.41889e-06
0.000689982 0.000109745 -5.15282e-07
-2.41889e-06 -5.15282e-07 1.07054e-05
0.00249998 0.000832213 2.94329e-06
0.000832213 0.000373707 -7.38906e-07
2.94329e-06 -7.38906e-07 2.49504e-05
0.00261366 0.000803434 6.12268e-07
0.000803434 0.000307639 2.61947e-06
6.12268e-07 2.61947e-06 2.92705e-05
0.00194885 0.00102599 4.84029e-06
0.00102599 0.000619546 1.3067e-06
4.84029e-06 1.3067e-06 -7.78059e-06
0.00236674 0.00114044 -5.03188e-06
0.00114044 0.000579299 8.23483e-07
-5.03188e-06 8.23483e-07 -1.56277e-06
-0.00178627 2.49993e-05 -9.28383e-06
2.49993e-05 -0.00132307 1.79671e-06
-9.28383e-06 1.79671e-06 -0.00153493
-0.00290328 0.00023247 -1.25661e-06
0.00023247 -0.0018377 -4.20157e-06
-1.25661e-06 -4.20157e-06 -0.00226484
0.00197496 0.000847397 9.32903e-06
0.000847397 0.000745905 -4.49845e-06
9.32903e-06 -4.49845e-06 0.000200146
0.00129663 0.000460056 5.38047e-06
0.000460056 0.000155122 -4.5594e-06
5.38047e-06 -4.5594e-06 -0.000168032
0.00267376 0.000650681 4.81607e-07
0.000650681 -0.00013143 8.0326e-07
4.81607e-07 8.0326e-07 -2.77783e-05
0.00265514 0.000831016 7.27695e-06
0.000831016 0.000203999 9.74045e-07
7.27695e-06 9.74045e-07 1.14786e-05
0.00263289 0.00102332 1.03568e-05
0.00102332 0.0004596 -3.97254e-06
1.03568e-05 -3.97254e-06 -1.46094e-05
0.00204987 0.00114937 6.71255e-06
0.00114937 0.000499987 -1.01144e-07
6.71255e-06 -1.01144e-07 -0.000162135
0.00138743 0.000222593 2.94729e-06
0.000222593 0.000712282 2.54497e-06
2.94729e-06 2.54497e-06 0.000492633
0.000466928 0.00020881 -4.34307e-06
0.00020881 0.000116893 8.45475e-08
-4.34307e-06 8.45475e-08 -5.06271e-05
0.000880137 0.000142675 -9.42434e-06
0.000142675 0.000395764 -6.52914e-06
-9.42434e-06 -6.52914e-06 0.000277482
8.40459e-05 4.54754e-05 2.36779e-06
4.54754e-05 -0.000157558 -3.47004e-06
2.36779e-06 -3.47004e-06 -0.000304008
-0.00130221 5.71788e-05 5.88819e-07
5.71788e-05 -0.000959861 1.36764e-06
5.88819e-07 1.36764e-06 -0.00116023
0.000725226 7.97484e-05 -1.02986e-06
7.97484e-05 0.000257332 -4.85953e-08
-1.02986e-06 -4.85953e-08 0.000114615
0.000694526 0.000225152 2.73601e-06
0.000225152 0.000312444 2.08015e-06
2.73601e-06 2.08015e-06 0.000124097
0.000607044 0.000102096 1.08353e-06
0.000102096 0.000270971 2.1899e-06
1.08353e-06 2.1899e-06 4.22647e-05
0.000599043 0.000152154 -7.05135e-07
0.000152154 0.000140344 -1.13005e-05
-7.05135e-07 -1.13005e-05 5.25847e-05
0.000532456 7.08148e-05 -1.41286e-06
7.08148e-05 0.000218681 -7.64177e-06
-1.41286e-06 -7.64177e-06 -7.33922e-06
-0.000125292 7.09053e-05 -1.66883e-06
7.09053e-05 -0.000247421 2.68826e-06
-1.66883e-06 2.68826e-06 -0.000435089
0.000738698 0.000139941 2.08924e-06
0.000139941 0.000262926 3.75108e-06
2.08924e-06 3.75108e-06 0.000118815
0.00044707 9.48373e-05 2.53259e-06
9.48373e-05 4.75858e-05 4.25979e-06
2.53259e-06 4.25979e-06 -5.08011e-05
0.000427185 2.13149e-05 -1.83424e-06
2.13149e-05 2.45669e-05 -4.2859e-07
-1.83424e-06 -4.2859e-07 -6.62923e-05
0.00128715 1.60436e-05 4.53688e-07
1.60436e-05 0.000547537 3.75071e-06
4.53688e-07 3.75071e-06 0.000522146
0.000429208 -4.68941e-05 2.49159e-06
-4.68941e-05 1.9572e-05 -4.27096e-06
2.49159e-06 -4.27096e-06 -6.78397e-05
0.00135233 2.48469e-06 -1.03457e-05
2.48469e-06 0.000585719 -1.85732e-06
-1.03457e-05 -1.85732e-06 0.000560706
0.000647366 -6.48505e-06 3.66611e-05
-6.48505e-06 0.000119886 1.06158e-05
3.66611e-05 1.06158e-05 0.000123469
0.00137931 -3.14688e-05 -1.21608e-05
-3.14688e-05 0.000601623 -8.70206e-06
-1.21608e-05 -8.70206e-06 0.000575239
0.000713392 -2.34115e-05 1.60162e-05
-2.34115e-05 0.000159146 3.90957e-06
1.60162e-05 3.90957e-06 0.00015857
0.000656619 -3.74011e-05 2.70058e-06
-3.74011e-05 0.000126026 -4.4084e-06
2.70058e-06 -4.4084e-06 0.000117838
0.000318682 4.19796e-05 -1.70226e-06
4.19796e-05 -7.65846e-05 -6.77303e-06
-1.70226e-06 -6.77303e-06 -0.000114521
0.000432345 5.28166e-05 -1.56478e-06
5.28166e-05 1.08602e-05 9.46297e-08
-1.56478e-06 9.46297e-08 -4.12347e-05
0.00290026 0.000153112 -1.48634e-05
0.000153112 0.00162282 -8.92891e-06
-1.48634e-05 -8.92891e-06 0.00160936
0.000533758 -4.2225e-05 -1.3342e-05
-4.2225e-05 7.09651e-05 1.28283e-05
-1.3342e-05 1.28283e-05 -4.85025e-06
0.00372744 0.000164911 -2.62643e-05
0.000164911 0.00216348 -2.06521e-06
-2.62643e-05 -2.06521e-06 0.00214322
0.00498186 7.3178e-05 -0.000181824
7.3178e-05 0.00298334 2.61097e-05
-0.000181824 2.61097e-05 0.00298012
0.00233957 0.000463172 -3.51267e-07
0.000463172 6.41661e-05 3.303e-07
-3.51267e-07 3.303e-07 1.02359e-05
0.00222942 0.000216058 -2.06699e-06
0.000216058 2.14402e-06 -1.06571e-06
-2.06699e-06 -1.06571e-06 1.29842e-05
0.00234153 0.000340268 1.89466e-06
0.000340268 -6.44934e-05 1.16883e-06
1.89466e-06 1.16883e-06 -1.91616e-05
0.00221676 0.00014947 4.4369e-07
0.00014947 -9.11591e-05 -6.38505e-07
4.4369e-07 -6.38505e-07 -1.57375e-05
0.00216937 6.52448e-05 -2.87135e-06
6.52448e-05 -4.10708e-07 -1.72029e-07
-2.87135e-06 -1.72029e-07 2.42574e-05
0.00218799 -1.4901e-05 -6.54132e-06
-1.4901e-05 5.03752e-05 1.89177e-07
-6.54132e-06 1.89177e-07 3.85752e-05
0.00213549 -1.51167e-05 6.54333e-07
-1.51167e-05 -2.60499e-05 2.4414e-08
6.54333e-07 2.4414e-08 2.26926e-06
0.00224806 7.87296e-05 5.36034e-07
7.87296e-05 -7.45872e-05 9.63376e-08
5.36034e-07 9.63376e-08 3.94344e-06
0.00234316 0.000227483 9.64904e-07
0.000227483 -5.7857e-05 1.91739e-07
9.64904e-07 1.91739e-07 1.25498e-05
0.00246188 0.000473861 4.85785e-07
0.000473861 -2.86682e-05 2.17466e-07
4.85785e-07 2.17466e-07 4.27601e-06
0.00223096 -1.6578e-05 -1.44638e-07
-1.6578e-05 -7.7182e-05 -2.97279e-07
-1.44638e-07 -2.97279e-07 -4.91721e-06
0.00239076 0.000128245 -1.12903e-06
0.000128245 -0.000104277 1.28326e-06
-1.12903e-06 1.28326e-06 2.81409e-05
0.00260699 0.000340115 -1.97655e-06
0.000340115 -5.22079e-05 1.49897e-07
-1.97655e-06 1.49897e-07 5.17754e-05
0.00208277 -0.000104067 -1.76606e-06
-0.000104067 -6.4146e-05 3.79325e-07
-1.76606e-06 3.79325e-07 -3.29044e-05
0.00224173 -0.000222674 -1.89051e-06
-0.000222674 -1.47065e-05 6.80468e-07
-1.89051e-06 6.80468e-07 1.18078e-05
0.00236045 -0.000437377 3.84839e-07
-0.000437377 -1.95835e-05 6.57214e-07
3.84839e-07 6.57214e-07 -7.16747e-06
0.00201775 -0.0008657 -7.64608e-06
-0.0008657 0.000696876 -4.82819e-06
-7.64608e-06 -4.82819e-06 0.000109078
0.00180272 -0.000960793 1.56062e-05
-0.000960793 0.000387312 -8.95829e-06
1.56062e-05 -8.95829e-06 -0.000209645
0.00231064 -0.000991113 3.97622e-06
-0.000991113 0.000421583 -2.6661e-06
3.97622e-06 -2.6661e-06 -9.05123e-05
0.00236239 -0.000591552 1.83716e-07
-0.000591552 7.04599e-05 7.92776e-09
1.83716e-07 7.92776e-09 6.55811e-06
0.00250157 -0.000811122 4.362e-06
-0.000811122 0.00021728 4.50256e-07
4.362e-06 4.50256e-07 3.60454e-05
0.00246817 -0.000833074 1.18592e-05
-0.000833074 0.000370441 -6.07785e-06
1.18592e-05 -6.07785e-06 4.41583e-05
0.00138854 -0.000703508 -4.20959e-06
-0.000703508 0.000475695 -8.06874e-06
-4.20959e-06 -8.06874e-06 -9.22147e-05
0.0020431 -0.000782412 2.08742e-06
-0.000782412 0.000927997 -2.53706e-05
2.08742e-06 -2.53706e-05 0.000314896
0.00276988 -0.000538448 -1.10727e-05
-0.000538448 0.00146262 1.54963e-05
-1.10727e-05 1.54963e-05 0.000965959
8.3283e-05 2.18582e-05 6.11629e-06
2.18582e-05 -0.000184415 4.05187e-06
6.11629e-06 4.05187e-06 -0.000329662
0.000917394 -0.000440982 8.06335e-06
-0.000440982 0.000328078 -1.10724e-05
8.06335e-06 -1.10724e-05 -4.00403e-05
-0.000190092 -8.07586e-05 8.65737e-06
-8.07586e-05 -0.000280902 -1.89875e-06
8.65737e-06 -1.89875e-06 -0.000631968
0.00224738 -0.000117033 -3.03813e-07
-0.000117033 -5.92784e-05 7.0801e-08
-3.03813e-07 7.0801e-08 6.23854e-06
0.00237791 -0.000308452 4.68045e-07
-0.000308452 -0.000110547 8.13002e-08
4.68045e-07 8.13002e-08 -1.28022e-05
0.00245841 -0.00054411 -5.35581e-07
-0.00054411 -2.87854e-05 7.33752e-08
-5.35581e-07 7.33752e-08 7.0307e-06
0.00202269 -0.000962864 -1.91212e-06
-0.000962864 0.000711244 1.03847e-06
-1.91212e-06 1.03847e-06 8.63387e-05
0.00211711 -0.00111173 9.97059e-06
-0.00111173 0.000577336 -1.76199e-06
9.97059e-06 -1.76199e-06 -7.95558e-05
0.00240361 -0.00101086 -1.49338e-06
-0.00101086 0.000493038 -2.50289e-06
-1.49338e-06 -2.50289e-06 -8.04511e-06
0.00249559 -0.000736404 5.99274e-07
-0.000736404 3.60218e-05 -2.05938e-07
5.99274e-07 -2.05938e-07 -8.52424e-06
0.002468 -0.000920561 2.29987e-06
-0.000920561 0.000276121 -1.63857e-06
2.29987e-06 -1.63857e-06 -1.66424e-05
0.000177195 6.65308e-05 -2.58503e-06
6.65308e-05 -0.000127571 -2.54905e-06
-2.58503e-06 -2.54905e-06 -0.000230965
0.000794026 -8.82237e-05 -1.77946e-06
-8.82237e-05 0.000348595 1.00235e-06
-1.77946e-06 1.00235e-06 8.66856e-05
0.00126785 -0.000734607 -2.9941e-06
-0.000734607 0.000381445 6.17792e-07
-2.9941e-06 6.17792e-07 -0.000170444
0.00169067 -0.000664657 -7.38362e-06
-0.000664657 0.000773315 2.78477e-06
-7.38362e-06 2.78477e-06 0.000131371
0.00110408 -0.000238102 5.87535e-07
-0.000238102 0.00039839 -6.23952e-06
5.87535e-07 -6.23952e-06 2.68414e-05
0.00150114 -0.000398285 -2.78747e-06
-0.000398285 0.000830901 1.86857e-06
-2.78747e-06 1.86857e-06 0.000439585
0.00235282 -0.00015175 -3.5143e-07
-0.00015175 -0.000127013 -1.84828e-06
-3.5143e-07 -1.84828e-06 7.1385e-06
0.00257413 -0.000456309 -7.24745e-07
-0.000456309 -0.000153487 -1.97168e-06
-7.24745e-07 -1.97168e-06 1.65246e-05
0.00253326 -0.000688108 1.98496e-07
-0.000688108 -5.49976e-05 9.34994e-07
1.98496e-07 9.34994e-07 -2.08126e-05
0.00265767 -0.000933815 2.78977e-07
-0.000933815 0.000172112 -6.09684e-07
2.78977e-07 -6.09684e-07 1.66311e-05
0.001068 -0.000861029 -9.27942e-06
-0.000861029 0.000175889 -1.86179e-06
-9.27942e-06 -1.86179e-06 -0.000408963
0.00264667 -0.00111922 4.74024e-07
-0.00111922 0.000548528 -6.24484e-07
4.74024e-07 -6.24484e-07 6.24345e-05
0.00246023 -0.00126365 -6.97662e-05
-0.00126365 0.000701864 6.48081e-06
-6.97662e-05 6.48081e-06 -5.61595e-07
0.00053921 4.96162e-05 -2.23999e-07
4.96162e-05 8.54757e-05 -2.99227e-06
-2.23999e-07 -2.99227e-06 7.42614e-06
0.000803134 -0.000169303 4.91075e-06
-0.000169303 0.00033572 -6.6377e-06
4.91075e-06 -6.6377e-06 0.000188659
-0.000146514 7.18353e-05 -6.67835e-06
7.18353e-05 -0.000279561 -2.51337e-06
-6.67835e-06 -2.51337e-06 -0.000449293
0.000735383 -0.00012319 -6.65014e-06
-0.00012319 0.00032634 4.04536e-06
-6.65014e-06 4.04536e-06 1.1165e-05
0.00131758 -0.000204528 -9.27462e-06
-0.000204528 0.000621603 -1.15365e-05
-9.27462e-06 -1.15365e-05 0.000287777
0.00180473 -0.000383043 -8.14431e-06
-0.000383043 0.000977592 -1.75489e-07
-8.14431e-06 -1.75489e-07 0.000451347
0.00129757 -0.000812694 -1.58477e-05
-0.000812694 0.000384442 4.02317e-05
-1.58477e-05 4.02317e-05 -0.000175488
0.00425224 -0.00102279 -2.79583e-05
-0.00102279 0.00234827 2.1425e-05
-2.79583e-05 2.1425e-05 0.00154087
6.72744e-05 0.000113012 3.25438e-06
0.000113012 -0.000192646 -6.46343e-07
3.25438e-06 -6.46343e-07 -0.000404857
0.00206452 0.000446408 1.40062e-06
0.000446408 0.00110723 1.68927e-06
1.40062e-06 1.68927e-06 0.000735648
0.00254994 0.000698595 -7.53995e-07
0.000698595 0.000107829 -9.01225e-07
-7.53995e-07 -9.01225e-07 4.87441e-06
0.00237372 0.000276242 -1.14987e-06
0.000276242 0.000892794 7.26482e-07
-1.14987e-06 7.26482e-07 0.000615467
0.00129062 0.000697844 1.41305e-06
0.000697844 0.000442835 5.99151e-07
1.41305e-06 5.99151e-07 -8.09712e-05
0.00282739 0.000719684 -1.51808e-06
0.000719684 0.00110164 8.55532e-06
-1.51808e-06 8.55532e-06 0.000676345
0.00263821 0.000820931 -4.72602e-06
0.000820931 0.000467653 -2.71706e-09
-4.72602e-06 -2.71706e-09 0.00013227
0.00290191 0.000832589 -5.63389e-06
0.000832589 0.000490873 6.68469e-06
-5.63389e-06 6.68469e-06 0.000204222
0.00182298 0.00102277 -4.80115e-06
0.00102277 0.000534561 2.77134e-06
-4.80115e-06 2.77134e-06 -9.61424e-05
0.0022048 0.00117156 -1.51829e-05
0.00117156 0.000485921 -7.33337e-07
-1.51829e-05 -7.33337e-07 -0.000119194
-0.000512173 0.000110917 2.06161e-06
0.000110917 -0.000475538 1.71443e-06
2.06161e-06 1.71443e-06 -0.000736945
0.000129424 0.000415947 5.5248e-06
0.000415947 7.29915e-05 -2.46687e-06
5.5248e-06 -2.46687e-06 -0.000369566
0.00179837 0.000847815 1.31439e-08
0.000847815 0.000597101 -5.23704e-07
1.31439e-08 -5.23704e-07 4.12492e-05
0.00219298 0.00056624 -5.76139e-06
0.00056624 0.000775517 -4.4938e-08
-5.76139e-06 -4.4938e-08 0.000417309
0.00263197 0.00062481 1.38431e-07
0.00062481 -0.000193356 -1.01918e-06
1.38431e-07 -1.01918e-06 -6.59262e-05
0.00278238 0.000844443 3.17216e-06
0.000844443 0.000274273 -6.7651e-07
3.17216e-06 -6.7651e-07 6.76045e-05
0.00242417 0.000978358 -3.69216e-06
0.000978358 0.000377428 -9.66182e-08
-3.69216e-06 -9.66182e-08 -8.00249e-05
0.00237105 0.00117213 1.97164e-06
0.00117213 0.000675562 7.41872e-07
1.97164e-06 7.41872e-07 1.9165e-05
-0.00107939 7.5423e-06 -4.4832e-06
7.5423e-06 -0.000805974 -2.32905e-06
-4.4832e-06 -2.32905e-06 -0.00100538
0.00257461 0.000435083 -1.90975e-06
0.000435083 -0.000248718 -2.42151e-07
-1.90975e-06 -2.42151e-07 -9.21027e-05
0.0030853 0.000743456 -7.74969e-06
0.000743456 0.0018904 8.38607e-06
-7.74969e-06 8.38607e-06 0.0013707
0.00177124 0.000796584 9.60337e-07
0.000796584 0.000482999 -2.78391e-06
9.60337e-07 -2.78391e-06 -2.01683e-05
0.00273823 0.000821744 -1.60106e-05
0.000821744 1.7582e-05 -9.13743e-06
-1.60106e-05 -9.13743e-06 5.15869e-05
0.00138797 0.000896136 7.46647e-06
0.000896136 -0.000332932 -1.02493e-05
7.46647e-06 -1.02493e-05 -0.000749641
0.00316627 0.00129856 4.93698e-06
0.00129856 0.00107877 4.12435e-06
4.93698e-06 4.12435e-06 0.000391714
7.17391e-05 0.000140826 1.29931e-06
0.000140826 -0.000113696 4.77925e-06
1.29931e-06 4.77925e-06 -0.000293589
0.000457901 0.000149674 -1.85408e-06
0.000149674 0.000139371 -4.89535e-07
-1.85408e-06 -4.89535e-07 1.59801e-05
0.000134936 9.25642e-05 -4.06569e-06
9.25642e-05 -2.33433e-05 -5.5139e-06
-4.06569e-06 -5.5139e-06 -0.000116757
0.000195736 2.68552e-06 2.32055e-06
2.68552e-06 -9.34605e-05 -3.19212e-06
2.32055e-06 -3.19212e-06 -0.000226677
0.000517813 0.000120549 3.60963e-06
0.000120549 0.000208554 -4.24037e-06
3.60963e-06 -4.24037e-06 -1.49652e-05
-0.000289633 0.000193512 -5.89712e-06
0.000193512 -0.000259721 1.40582e-05
-5.89712e-06 1.40582e-05 -0.000439471
0.000498296 3.08872e-05 -1.64801e-06
3.08872e-05 0.000107701 -1.4423e-07
-1.64801e-06 -1.4423e-07 -3.56647e-05
0.000213455 8.99701e-06 -2.10487e-07
8.99701e-06 -8.15061e-06 -5.5126e-07
-2.10487e-07 -5.5126e-07 -0.000211937
-5.79308e-05 9.63883e-05 -6.83381e-06
9.63883e-05 -0.000234574 3.54831e-06
-6.83381e-06 3.54831e-06 -0.000310132
0.000751526 0.00016983 2.23306e-06
0.00016983 0.000375974 -2.30304e-06
2.23306e-06 -2.30304e-06 0.000137301
0.00198929 0.000221897 -1.65572e-06
0.000221897 0.00102679 -1.00238e-05
-1.65572e-06 -1.00238e-05 0.000961994
-0.000439555 3.07894e-05 1.35521e-05
3.07894e-05 -0.000451278 -1.37455e-05
1.35521e-05 -1.37455e-05 -0.000559108
0.000545269 0.000131951 -1.38692e-06
0.000131951 0.000252204 2.2534e-06
-1.38692e-06 2.2534e-06 6.35165e-06
0.000579654 6.26755e-05 -8.09352e-07
6.26755e-05 0.000200274 2.81958e-06
-8.09352e-07 2.81958e-06 -6.10502e-06
0.000542149 2.76785e-05 1.65357e-06
2.76785e-05 0.000118036 3.12741e-06
1.65357e-06 3.12741e-06 -2.42334e-05
0.000464639 -7.48624e-05 -1.74154e-06
-7.48624e-05 4.95141e-05 3.23662e-06
-1.74154e-06 3.23662e-06 -4.4902e-05
0.00045094 1.69422e-05 5.64161e-07
1.69422e-05 3.45968e-05 -4.65732e-07
5.64161e-07 -4.65732e-07 -5.43116e-05
0.00133403 2.79982e-05 3.81613e-06
2.79982e-05 0.000582339 3.97613e-06
3.81613e-06 3.97613e-06 0.000557416
0.00044379 1.60595e-05 1.70955e-06
1.60595e-05 1.95728e-05 -4.03304e-06
1.70955e-06 -4.03304e-06 -6.10559e-05
0.00135646 2.01424e-05 -1.06214e-05
2.01424e-05 0.000594519 -2.03982e-06
-1.06214e-05 -2.03982e-06 0.000568663
0.000750719 -5.32309e-07 3.24406e-05
-5.32309e-07 0.000192053 9.84409e-06
3.24406e-05 9.84409e-06 0.000194902
0.00132406 -1.56629e-05 -1.07259e-05
-1.56629e-05 0.000566296 -8.2528e-06
-1.07259e-05 -8.2528e-06 0.000542953
0.000749631 -1.42584e-05 1.34291e-05
-1.42584e-05 0.000183247 3.92844e-06
1.34291e-05 3.92844e-06 0.000184244
0.000799255 -2.98492e-05 2.07058e-06
-2.98492e-05 0.000211037 -3.58405e-06
2.07058e-06 -3.58405e-06 0.000208779
0.000523156 -1.61067e-05 9.42476e-08
-1.61067e-05 6.14915e-05 -3.83752e-06
9.42476e-08 -3.83752e-06 -2.25145e-06
0.000263737 3.23521e-05 -9.7661e-07
3.23521e-05 -0.000117535 -6.11213e-06
-9.7661e-07 -6.11213e-06 -0.0001477
0.000342911 4.07138e-05 1.37326e-06
4.07138e-05 -5.79612e-05 5.35537e-07
1.37326e-06 5.35537e-07 -9.76274e-05
0.0028267 0.000122503 -1.58972e-06
0.000122503 0.00156081 -6.95774e-06
-1.58972e-06 -6.95774e-06 0.00155588
0.000348608 2.49616e-05 4.47145e-07
2.49616e-05 -5.65485e-05 9.85848e-06
4.47145e-07 9.85848e-06 -0.000103655
0.00324613 0.000169249 -9.64132e-06
0.000169249 0.00185153 -1.25908e-06
-9.64132e-06 -1.25908e-06 0.00183449
0.00406436 0.00011427 -7.84179e-05
0.00011427 0.00236986 1.05058e-05
-7.84179e-05 1.05058e-05 0.00236055
0.00243279 0.000459249 1.97603e-06
0.000459249 -5.09263e-05 4.95576e-07
1.97603e-06 4.95576e-07 -1.387e-05
0.00233101 0.000234136 7.1101e-07
0.000234136 -6.7414e-05 -4.97665e-07
7.1101e-07 -4.97665e-07 5.50179e-06
0.0022158 8.29656e-05 -3.46487e-07
8.29656e-05 -9.1381e-05 -4.42424e-07
-3.46487e-07 -4.42424e-07 -1.45983e-05
0.00215812 -1.40504e-05 -2.8787e-06
-1.40504e-05 -8.8395e-06 7.37062e-08
-2.8787e-06 7.37062e-08 2.04499e-05
0.00223123 -1.20568e-05 -4.19218e-07
-1.20568e-05 -8.22894e-05 1.37671e-07
-4.19218e-07 1.37671e-07 -6.39716e-06
0.00235445 0.000123418 8.96536e-07
0.000123418 -0.000122543 4.01556e-07
8.96536e-07 4.01556e-07 8.18612e-06
0.00250901 0.000352665 -6.71123e-07
0.000352665 -9.73878e-05 -4.28607e-07
-6.71123e-07 -4.28607e-07 6.79239e-06
0.00232364 -1.48522e-05 1.63237e-06
-1.48522e-05 -0.00015564 -6.91424e-07
1.63237e-06 -6.91424e-07 -9.42276e-06
0.00266813 0.000166121 -1.59981e-06
0.000166121 -0.000109311 2.03654e-06
-1.59981e-06 2.03654e-06 5.92285e-05
0.00243381 0.000151383 -5.16017e-07
0.000151383 -0.000270654 4.96734e-06
-5.16017e-07 4.96734e-06 -0.000105064
0.0022665 -0.000111334 -4.15083e-07
-0.000111334 -4.64442e-05 5.75231e-07
-4.15083e-07 5.75231e-07 1.67233e-05
0.00237027 -0.000320757 -1.60805e-06
-0.000320757 -0.000123038 7.4801e-07
-1.60805e-06 7.4801e-07 -2.14619e-05
0.00245455 -0.000532023 2.08834e-06
-0.000532023 -2.42779e-05 3.76019e-07
2.08834e-06 3.76019e-07 9.28983e-06
0.00200728 -0.000964845 -3.44831e-07
-0.000964845 0.000692386 -2.8162e-06
-3.44831e-07 -2.8162e-06 6.75287e-05
0.00193978 -0.00108534 3.96601e-05
-0.00108534 0.000470294 -6.53523e-06
3.96601e-05 -6.53523e-06 -0.000176762
0.0025448 -0.00101258 1.76868e-05
-0.00101258 0.000563112 -4.05087e-06
1.76868e-05 -4.05087e-06 7.43941e-05
0.00247757 -0.000744121 3.90404e-06
-0.000744121 3.17223e-05 -9.58084e-07
3.90404e-06 -9.58084e-07 -2.6339e-05
0.00239518 -0.000888744 7.74091e-06
-0.000888744 0.000262246 5.8339e-07
7.74091e-06 5.8339e-07 -1.60124e-05
0.00100181 -0.000698021 -1.98296e-06
-0.000698021 0.000239691 -2.5279e-05
-1.98296e-06 -2.5279e-05 -0.000330228
0.00120173 -0.000563849 9.21474e-06
-0.000563849 0.000526779 -2.06099e-05
9.21474e-06 -2.06099e-05 -0.00011198
-0.000121956 -0.000194891 3.80693e-06
-0.000194891 -0.000429288 5.22619e-06
3.80693e-06 5.22619e-06 -0.000796816
0.00047708 8.70668e-06 2.7482e-07
8.70668e-06 6.37027e-05 3.90935e-06
2.7482e-07 3.90935e-06 -3.5775e-05
-0.000116236 -1.24156e-05 6.51789e-06
-1.24156e-05 -0.000251504 9.38066e-08
6.51789e-06 9.38066e-08 -0.000494684
0.00125765 -0.000331806 1.63484e-06
-0.000331806 0.000668419 3.30521e-06
1.63484e-06 3.30521e-06 0.000282259
0.00234971 -0.000155267 2.79717e-07
-0.000155267 -0.00014004 -6.42394e-08
2.79717e-07 -6.42394e-08 -9.83548e-07
0.000430726 -5.49224e-06 1.75797e-06
-5.49224e-06 1.31034e-05 4.29182e-07
1.75797e-06 4.29182e-07 -6.46308e-05
0.000368283 -8.62529e-05 -4.05274e-06
-8.62529e-05 1.24819e-05 -1.21721e-06
-4.05274e-06 -1.21721e-06 -0.000108595
0.00254294 -0.000443723 -2.97594e-07
-0.000443723 -0.000146176 -9.15989e-08
-2.97594e-07 -9.15989e-08 6.76572e-06
0.00251576 -0.000671874 -1.84159e-06
-0.000671874 -4.74579e-05 1.89484e-07
-1.84159e-06 1.89484e-07 -8.10681e-06
0.00207835 -0.00102685 1.93479e-06
-0.00102685 0.000762296 2.73084e-06
1.93479e-06 2.73084e-06 0.000125702
0.00255898 -0.00128089 1.20196e-05
-0.00128089 0.000762641 -1.64582e-06
1.20196e-05 -1.64582e-06 5.65748e-05
0.00241073 -0.00108387 1.5835e-06
-0.00108387 0.00040348 -2.75152e-06
1.5835e-06 -2.75152e-06 -6.33322e-05
0.0025741 -0.000930885 2.30461e-06
-0.000930885 0.000120312 -1.38866e-06
2.30461e-06 -1.38866e-06 -2.97161e-05
0.000612295 -6.61805e-06 -1.90648e-06
-6.61805e-06 0.000224404 -1.16863e-06
-1.90648e-06 -1.16863e-06 3.93197e-05
0.000817671 -0.000135994 2.02885e-08
-0.000135994 0.000386021 1.95921e-06
2.02885e-08 1.95921e-06 6.4481e-05
0.00128361 -0.000772123 9.49411e-06
-0.000772123 0.000417152 1.18548e-05
9.49411e-06 1.18548e-05 -0.000136441
0.00213079 -0.000731231 3.06291e-05
-0.000731231 0.00112402 -1.7301e-05
3.06291e-05 -1.7301e-05 0.000369078
0.00061012 -0.000278652 -3.00461e-06
-0.000278652 0.000261322 1.35467e-06
-3.00461e-06 1.35467e-06 -0.000271616
5.49212e-05 -0.000268238 4.46569e-06
-0.000268238 -0.00017616 -4.0935e-06
4.46569e-06 -4.0935e-06 -0.000511665
0.00237681 -0.000176544 -3.90373e-08
-0.000176544 -0.000356595 8.3647e-07
-3.90373e-08 8.3647e-07 -0.000141565
0.00264798 -0.000587044 -1.98938e-06
-0.000587044 -0.000222825 5.42925e-07
-1.98938e-06 5.42925e-07 3.47861e-05
0.00296422 -0.000976139 -5.19595e-06
-0.000976139 0.000151836 1.51354e-06
-5.19595e-06 1.51354e-06 0.000110789
0.00280014 -0.00117777 4.9344e-06
-0.00117777 0.000373471 -2.71379e-06
4.9344e-06 -2.71379e-06 4.99613e-05
0.00130489 -0.0010002 -2.01662e-06
-0.0010002 0.000374882 -8.83411e-06
-2.01662e-06 -8.83411e-06 -0.000269838
0.00367952 -0.00154156 -1.03446e-05
-0.00154156 0.00124119 3.41011e-06
-1.03446e-05 3.41011e-06 0.000498814
0.000327934 6.55289e-05 -3.0729e-06
6.55289e-05 -2.47585e-05 -9.30151e-06
-3.0729e-06 -9.30151e-06 -0.000145107
0.000192877 -5.50575e-05 7.23825e-06
-5.50575e-05 -0.000100313 -3.52736e-06
7.23825e-06 -3.52736e-06 -0.000216039
0.00167716 -0.00023827 -7.94636e-06
-0.00023827 0.000832246 1.14588e-05
-7.94636e-06 1.14588e-05 0.000662296
0.000385239 2.82986e-05 -3.95035e-06
2.82986e-05 6.91518e-05 5.14335e-06
-3.95035e-06 5.14335e-06 -0.000165948
0.00125073 -0.000262658 -1.13664e-05
-0.000262658 0.000652914 1.07121e-05
-1.13664e-05 1.07121e-05 0.000289964
-0.00125171 -0.000143914 -1.82151e-06
-0.000143914 -0.00104335 -2.5106e-05
-1.82151e-06 -2.5106e-05 -0.00132741
-0.000812854 -0.00030661 -1.87927e-05
-0.00030661 -0.000185154 7.86588e-06
-1.87927e-05 7.86588e-06 -0.00117772
0.00101702 -0.000990151 -6.28582e-05
-0.000990151 0.000110942 3.29391e-05
-6.28582e-05 3.29391e-05 -0.000318592
-0.000129543 0.000273454 2.53692e-08
0.000273454 -0.00016277 -1.34799e-06
2.53692e-08 -1.34799e-06 -0.000486372
0.00354711 0.000608845 -1.54883e-05
0.000608845 0.0021747 -5.2879e-06
-1.54883e-05 -5.2879e-06 0.00175421
0.00257268 0.000595661 -3.10919e-06
0.000595661 -0.000259221 -2.58642e-07
-3.10919e-06 -2.58642e-07 -0.000109066
0.00289343 0.000854989 -6.19509e-06
0.000854989 0.000338022 -1.26257e-06
-6.19509e-06 -1.26257e-06 0.000118142
0.00314841 0.000632944 -7.90125e-06
0.000632944 0.00139249 2.60519e-06
-7.90125e-06 2.60519e-06 0.00102775
0.00158564 0.000845456 -1.14916e-05
0.000845456 0.000424265 1.33164e-07
-1.14916e-05 1.33164e-07 -0.000141134
0.00225198 0.000936647 -6.57624e-06
0.000936647 0.000316454 2.41729e-06
-6.57624e-06 2.41729e-06 -0.000125488
0.00269132 0.00118994 -1.07524e-05
0.00118994 0.000849737 -1.45228e-06
-1.07524e-05 -1.45228e-06 0.000200156
9.75287e-05 0.000215328 2.76765e-06
0.000215328 1.98481e-06 -5.14639e-08
2.76765e-06 -5.14639e-08 -0.000267983
0.00258386 0.000422444 -1.53782e-06
0.000422444 -0.000245228 -2.44548e-06
-1.53782e-06 -2.44548e-06 -7.34164e-05
0.00167162 0.000531108 3.50066e-06
0.000531108 0.00102101 8.05478e-06
3.50066e-06 8.05478e-06 0.000572643
0.00159709 0.000756416 3.98916e-06
0.000756416 0.000423185 1.79898e-06
3.98916e-06 1.79898e-06 -7.28796e-05
0.00287308 0.000797106 4.18146e-07
0.000797106 0.000142013 -3.37881e-07
4.18146e-07 -3.37881e-07 0.000167592
0.00206269 0.00098613 -2.55804e-06
0.00098613 6.04269e-05 -6.05691e-06
-2.55804e-06 -6.05691e-06 -0.000372478
0.00276021 0.00121704 -2.3684e-06
0.00121704 0.000861322 -7.4826e-07
-2.3684e-06 -7.4826e-07 0.000198067
0.00195599 0.000452528 -6.39613e-06
0.000452528 0.00127765 -3.5698e-06
-6.39613e-06 -3.5698e-06 0.000916542
0.00422523 0.000785933 -0.000109119
0.000785933 0.000637963 -3.91628e-05
-0.000109119 -3.91628e-05 0.000949398
0.00168936 0.000670758 -9.0809e-06
0.000670758 0.000917721 9.49066e-06
-9.0809e-06 9.49066e-06 0.000419496
0.0012376 0.000812495 -6.29107e-06
0.000812495 0.000189206 -9.98428e-06
-6.29107e-06 -9.98428e-06 -0.000378366
0.00344432 0.00113571 -4.38551e-05
0.00113571 0.000683057 -2.45248e-05
-4.38551e-05 -2.45248e-05 0.000402079
0.0010896 0.00098892 -3.11331e-05
0.00098892 -9.1456e-05 -2.96691e-06
-3.11331e-05 -2.96691e-06 -0.000669397
0.00150064 0.00156289 9.71372e-06
0.00156289 -0.00238274 -6.87745e-05
9.71372e-06 -6.87745e-05 -0.00119895
0.000327059 0.000187136 8.6665e-06
0.000187136 9.59407e-05 8.63278e-06
8.6665e-06 8.63278e-06 -4.3559e-05
0.000140231 0.000133086 2.05689e-06
0.000133086 1.16272e-05 3.2822e-07
2.05689e-06 3.2822e-07 -0.000104693
-4.8474e-05 9.34813e-05 2.26409e-06
9.34813e-05 -0.000128188 -6.99731e-06
2.26409e-06 -6.99731e-06 -0.000234084
0.000354263 -6.76031e-05 2.51295e-06
-6.76031e-05 1.85404e-05 -4.32451e-06
2.51295e-06 -4.32451e-06 -0.000126819
-1.63633e-05 -1.61147e-06 8.7706e-07
-1.61147e-06 -0.000154995 -2.74201e-06
8.7706e-07 -2.74201e-06 -0.000358131
0.00165923 0.000297325 -2.68315e-07
0.000297325 0.000955682 -3.16557e-07
-2.68315e-07 -3.16557e-07 0.00070784
-0.000880923 5.81316e-05 -8.05071e-06
5.81316e-05 -0.000723912 2.2715e-05
-8.05071e-06 2.2715e-05 -0.000791857
0.000474701 -1.19016e-05 -3.13464e-07
-1.19016e-05 9.11966e-05 -2.93438e-07
-3.13464e-07 -2.93438e-07 -6.01959e-05
0.000399467 9.263e-05 4.75886e-07
9.263e-05 4.90543e-05 -3.25938e-07
4.75886e-07 -3.25938e-07 -0.000126489
0.000432808 0.000141364 5.49948e-06
0.000141364 6.13656e-05 3.09598e-06
5.49948e-06 3.09598e-06 1.36224e-05
0.000256384 9.30856e-05 1.2242e-06
9.30856e-05 3.46798e-05 4.35801e-07
1.2242e-06 4.35801e-07 -0.000188025
0.000426996 9.85915e-05 1.0998e-07
9.85915e-05 8.35952e-05 -1.86498e-06
1.0998e-07 -1.86498e-06 -3.55936e-05
0.000483251 0.000133786 4.90045e-07
0.000133786 0.000167015 -1.57267e-05
4.90045e-07 -1.57267e-05 8.07967e-05
0.000819793 0.000175663 -4.24473e-06
0.000175663 0.000335514 -6.41385e-06
-4.24473e-06 -6.41385e-06 0.000157971
0.00108456 0.000155766 -1.17766e-07
0.000155766 0.000540306 2.93476e-06
-1.17766e-07 2.93476e-06 0.000322397
0.000717782 0.000126046 -3.40973e-06
0.000126046 0.000265271 -1.16721e-06
-3.40973e-06 -1.16721e-06 7.14641e-05
0.000167707 -1.73046e-05 -1.82197e-06
-1.73046e-05 -0.000135942 8.33337e-07
-1.82197e-06 8.33337e-07 -0.000276026
0.00127499 -0.000136484 2.1722e-06
-0.000136484 0.000709978 -2.95806e-06
2.1722e-06 -2.95806e-06 0.000464781
7.36905e-05 -5.48963e-05 -4.38915e-07
-5.48963e-05 -0.000184301 3.56084e-06
-4.38915e-07 3.56084e-06 -0.000329925
0.000388003 5.02723e-06 -1.93743e-06
5.02723e-06 8.24917e-06 3.4022e-06
-1.93743e-06 3.4022e-06 -9.02169e-05
0.000414534 4.65241e-05 2.37806e-06
4.65241e-05 2.26511e-05 -8.7217e-08
2.37806e-06 -8.7217e-08 -7.45813e-05
0.000317553 2.05948e-05 -2.05494e-06
2.05948e-05 -6.8784e-05 5.17686e-06
-2.05494e-06 5.17686e-06 -9.88221e-05
0.000337552 -1.10589e-06 -1.01662e-06
-1.10589e-06 -2.62356e-05 -4.3207e-06
-1.01662e-06 -4.3207e-06 -0.000123051
0.00084761 1.78188e-05 -4.52411e-06
1.78188e-05 0.000270301 -1.52925e-06
-4.52411e-06 -1.52925e-06 0.000242923
0.00266697 4.77669e-06 2.96341e-05
4.77669e-06 0.00143427 6.16675e-06
2.96341e-05 6.16675e-06 0.00144629
0.00140805 5.35704e-05 -1.7834e-05
5.35704e-05 0.000631356 -8.29658e-06
-1.7834e-05 -8.29658e-06 0.000604188
0.000764748 -5.12881e-06 1.27647e-05
-5.12881e-06 0.000197147 3.87219e-06
1.27647e-05 3.87219e-06 0.000198767
0.000838551 -1.89935e-05 1.67649e-06
-1.89935e-05 0.000237445 -3.42376e-06
1.67649e-06 -3.42376e-06 0.000237334
0.000395392 9.88632e-06 -2.19134e-06
9.88632e-06 -9.27949e-06 -5.02722e-06
-2.19134e-06 -5.02722e-06 -7.21734e-05
0.000514287 -4.10022e-05 5.53793e-07
-4.10022e-05 6.57509e-05 -1.98983e-07
5.53793e-07 -1.98983e-07 -3.93765e-06
0.000392808 2.5313e-05 -4.37996e-07
2.5313e-05 -4.37907e-05 -4.92381e-06
-4.37996e-07 -4.92381e-06 -6.55645e-05
0.000801946 4.79846e-05 6.97417e-08
4.79846e-05 0.000232892 1.7637e-07
6.97417e-08 1.7637e-07 0.000203574
0.00254802 9.21215e-05 4.7702e-09
9.21215e-05 0.0013705 -5.99108e-06
4.7702e-09 -5.99108e-06 0.00137303
0.000455835 5.67668e-05 4.84484e-06
5.67668e-05 2.36182e-05 7.99605e-06
4.84484e-06 7.99605e-06 -2.07206e-05
0.00278466 0.000127331 -2.15407e-06
0.000127331 0.00153629 -1.74296e-07
-2.15407e-06 -1.74296e-07 0.00153015
0.00331234 0.000139619 -6.05007e-06
0.000139619 0.0018822 7.84497e-06
-6.05007e-06 7.84497e-06 0.00187083
0.00241329 0.000364109 1.30471e-06
0.000364109 -0.00014349 1.2007e-07
1.30471e-06 1.2007e-07 -3.83651e-05
0.0023361 0.000119814 7.75934e-07
0.000119814 -0.000129316 -1.59286e-06
7.75934e-07 -1.59286e-06 2.77037e-07
0.00223396 -7.77958e-06 -8.07032e-07
-7.77958e-06 -8.52225e-05 8.82412e-08
-8.07032e-07 8.82412e-08 -5.52115e-06
0.00232666 -5.73385e-06 -1.85624e-08
-5.73385e-06 -0.000152801 -1.56021e-08
-1.85624e-08 -1.56021e-08 -5.52273e-06
0.0026129 0.000177059 1.83102e-06
0.000177059 -0.000122655 -4.82823e-07
1.83102e-06 -4.82823e-07 4.23667e-05
0.00252381 0.000131975 3.15577e-06
0.000131975 -0.000232069 -1.46652e-06
3.15577e-06 -1.46652e-06 -6.98108e-05
0.0027541 2.82997e-05 -2.01937e-06
2.82997e-05 -0.000158208 4.20114e-06
-2.01937e-06 4.20114e-06 6.85957e-05
0.00564736 0.00161309 7.33318e-05
0.00161309 -0.00114544 1.57818e-05
7.33318e-05 1.57818e-05 0.000397174
0.00287618 0.000135285 -4.27168e-05
0.000135285 8.33679e-05 1.8494e-05
-4.27168e-05 1.8494e-05 0.000411133
0.000455501 0.000122152 -4.16503e-06
0.000122152 7.18001e-05 -4.70796e-06
-4.16503e-06 -4.70796e-06 -4.43097e-05
0.00235247 -0.00015765 1.60541e-07
-0.00015765 -0.000148803 1.34707e-06
1.60541e-07 1.34707e-06 -4.90836e-06
0.00249498 -0.000432473 7.68367e-07
-0.000432473 -0.000155639 2.38535e-06
7.68367e-07 2.38535e-06 -1.65874e-05
0.00250166 -0.000657416 2.37728e-06
-0.000657416 -4.32008e-05 -6.36665e-07
2.37728e-06 -6.36665e-07 5.00428e-06
0.00179459 -0.00101591 -5.95848e-06
-0.00101591 0.000593496 7.9448e-06
-5.95848e-06 7.9448e-06 -4.15051e-05
0.0026612 -0.00126763 4.10492e-05
-0.00126763 0.000839585 2.62592e-06
4.10492e-05 2.62592e-06 0.000146446
0.00224204 -0.00105458 -2.00943e-06
-0.00105458 0.000305605 -8.8525e-07
-2.00943e-06 -8.8525e-07 -0.000145449
0.00256201 -0.00093707 3.80896e-06
-0.00093707 0.000108021 -1.29674e-06
3.80896e-06 -1.29674e-06 -3.89918e-05
0.00167113 -0.00078367 3.26679e-05
-0.00078367 0.000557582 -5.44103e-05
3.26679e-05 -5.44103e-05 6.56222e-05
0.00145411 -0.000671265 2.15664e-05
-0.000671265 0.00067824 -5.40089e-05
2.15664e-05 -5.40089e-05 -2.60928e-05
0.000260007 -0.000222779 1.84601e-05
-0.000222779 -7.06197e-06 3.54844e-06
1.84601e-05 3.54844e-06 -0.000504175
0.000464449 6.64666e-06 3.015e-06
6.64666e-06 3.91749e-05 4.19764e-06
3.015e-06 4.19764e-06 -4.1397e-05
0.00125735 -0.000363284 -1.91939e-06
-0.000363284 0.000595417 1.46004e-05
-1.91939e-06 1.46004e-05 0.000232539
0.00105791 -6.07331e-05 6.18778e-06
-6.07331e-05 0.000539385 1.31005e-07
6.18778e-06 1.31005e-07 0.000337331
0.000507166 -0.000143235 4.53997e-06
-0.000143235 0.000165679 -3.47381e-06
4.53997e-06 -3.47381e-06 -0.000141858
-0.000214735 -2.40404e-05 -5.7399e-06
-2.40404e-05 -0.000377893 5.12077e-06
-5.7399e-06 5.12077e-06 -0.000488224
0.0025117 -0.000203376 -1.26089e-06
-0.000203376 -0.000284523 -1.32777e-06
-1.26089e-06 -1.32777e-06 -5.49213e-05
0.000388423 5.47994e-05 8.47617e-07
5.47994e-05 2.91505e-05 -2.67687e-06
8.47617e-07 -2.67687e-06 -9.7215e-05
0.000596383 -9.40608e-05 3.11289e-06
-9.40608e-05 0.000201809 1.86519e-06
3.11289e-06 1.86519e-06 5.61753e-05
0.000987708 -0.000129633 8.23887e-06
-0.000129633 0.000377915 -1.38637e-07
8.23887e-06 -1.38637e-07 0.000234431
0.0025819 -0.000599722 2.24523e-06
-0.000599722 -0.000263797 -6.95975e-07
2.24523e-06 -6.95975e-07 -3.19988e-05
0.00280932 -0.000951641 -4.69309e-07
-0.000951641 7.43807e-05 -5.35507e-07
-4.69309e-07 -5.35507e-07 4.35248e-05
0.000767732 -0.000829664 7.68871e-06
-0.000829664 3.27673e-05 -8.26027e-07
7.68871e-06 -8.26027e-07 -0.000507122
0.00291898 -0.00142754 1.6375e-05
-0.00142754 0.000823227 9.44739e-07
1.6375e-05 9.44739e-07 0.000115832
0.00270208 -0.00117643 2.38634e-08
-0.00117643 0.000327389 1.14118e-06
2.38634e-08 1.14118e-06 -6.91673e-06
0.000289744 -2.66641e-05 -6.87949e-07
-2.66641e-05 -4.61033e-07 -1.17577e-06
-6.87949e-07 -1.17577e-06 -0.00022313
0.00155693 -0.000284675 3.35827e-06
-0.000284675 0.000858713 2.55324e-06
3.35827e-06 2.55324e-06 0.000482413
0.00211291 -0.00115946 -1.37866e-06
-0.00115946 0.000755845 4.99852e-06
-1.37866e-06 4.99852e-06 0.000159575
0.0019572 -0.000457908 -3.77106e-07
-0.000457908 0.00115876 8.76228e-06
-3.77106e-07 8.76228e-06 0.000431968
0.0015917 -0.000285647 8.1134e-06
-0.000285647 0.00078499 1.04568e-05
8.1134e-06 1.04568e-05 0.000452552
0.00290004 -0.000413465 -1.51002e-05
-0.000413465 -0.00012601 6.71475e-06
-1.51002e-05 6.71475e-06 0.000154453
0.0023787 -0.000690071 -1.88514e-05
-0.000690071 -0.000373218 7.01494e-06
-1.88514e-05 7.01494e-06 -5.32315e-05
0.00277922 -0.00114267 -1.431e-05
-0.00114267 0.000215275 -3.22104e-06
-1.431e-05 -3.22104e-06 -2.22566e-05
0.00482481 -0.0016189 -2.13784e-06
-0.0016189 0.00174433 3.97209e-06
-2.13784e-06 3.97209e-06 0.00117939
0.0002896 -0.000975219 -1.77631e-05
-0.000975219 -0.000352221 1.34135e-05
-1.77631e-05 1.34135e-05 -0.000903281
8.25067e-05 -2.60617e-05 -6.2082e-07
-2.60617e-05 -0.00017641 -2.04364e-06
-6.2082e-07 -2.04364e-06 -0.000303959
0.000504533 -4.64274e-06 -3.51156e-06
-4.64274e-06 2.67328e-05 1.12354e-05
-3.51156e-06 1.12354e-05 -0.000132842
-2.34105e-05 -0.000180007 -1.09994e-05
-0.000180007 -0.000212344 -5.03196e-06
-1.09994e-05 -5.03196e-06 -0.000387147
0.00200438 -0.000353367 -4.56948e-05
-0.000353367 0.00108879 3.73434e-05
-4.56948e-05 3.73434e-05 0.000767634
0.000781614 -0.000192132 -3.88367e-06
-0.000192132 0.000322344 2.55734e-05
-3.88367e-06 2.55734e-05 7.42987e-06
-0.00132624 -6.69121e-05 5.13282e-06
-6.69121e-05 -0.000515938 5.84645e-06
5.13282e-06 5.84645e-06 -0.00125354
0.00163318 -0.00125306 -8.81081e-06
-0.00125306 0.00079481 -7.50479e-06
-8.81081e-06 -7.50479e-06 -3.69922e-06
0.00234294 0.000513824 4.79423e-06
0.000513824 0.00142445 -2.24472e-06
4.79423e-06 -2.24472e-06 0.00110115
-0.000100635 0.000278542 -3.00528e-06
0.000278542 -5.14545e-05 2.156e-07
-3.00528e-06 2.156e-07 -0.000419417
0.00259883 0.000404464 1.43755e-05
0.000404464 -0.000239023 4.55478e-06
1.43755e-05 4.55478e-06 -4.70346e-05
0.00300986 0.000774807 1.62596e-05
0.000774807 0.000257992 9.51011e-06
1.62596e-05 9.51011e-06 0.0002807
0.00267494 0.0010679 5.26314e-06
0.0010679 0.000418014 3.72633e-06
5.26314e-06 3.72633e-06 -2.79288e-05
0.00144025 0.000716904 -3.49947e-06
0.000716904 0.000386081 1.96676e-06
-3.49947e-06 1.96676e-06 -0.000102949
0.00239937 0.00114625 2.38548e-06
0.00114625 0.000670738 4.23012e-06
2.38548e-06 4.23012e-06 2.90566e-05
0.00258144 0.000475838 -5.38153e-07
0.000475838 0.00162216 1.72264e-06
-5.38153e-07 1.72264e-06 0.00130519
0.00311784 0.000620874 1.28036e-05
0.000620874 2.62069e-05 6.30434e-06
1.28036e-05 6.30434e-06 0.000411316
0.00132112 0.000561466 -7.0239e-06
0.000561466 0.000646443 4.35509e-06
-7.0239e-06 4.35509e-06 0.000215408
0.00186946 0.000914832 2.38503e-06
0.000914832 0.000595359 -2.2589e-06
2.38503e-06 -2.2589e-06 -1.33184e-05
0.00300508 0.0010711 -1.974e-06
0.0010711 0.000475356 -3.86676e-06
-1.974e-06 -3.86676e-06 0.000235448
0.00224918 0.00115715 -6.64235e-06
0.00115715 0.000546035 7.72775e-06
-6.64235e-06 7.72775e-06 -7.47748e-05
0.00313609 0.00192448 5.95052e-05
0.00192448 -0.00183858 1.26348e-05
5.95052e-05 1.26348e-05 -0.000827129
0.000595444 0.000361741 9.67707e-07
0.000361741 0.000500224 1.76669e-07
9.67707e-07 1.76669e-07 0.000106449
0.00454633 0.00129633 -0.000125832
0.00129633 0.000871966 -5.44108e-05
-0.000125832 -5.44108e-05 0.000911025
-1.49617e-05 0.000505144 -2.19814e-05
0.000505144 -0.000395434 6.32652e-06
-2.19814e-05 6.32652e-06 -0.00083301
0.000439413 0.000815628 -6.468e-06
0.000815628 -0.000275683 -2.10904e-05
-6.468e-06 -2.10904e-05 -0.000832349
0.00185423 0.00124873 -4.92509e-05
0.00124873 5.94469e-05 -2.33572e-05
-4.92509e-05 -2.33572e-05 -0.000365385
0.0157892 0.000940958 -0.000812323
0.000940958 0.000836166 -0.000102494
-0.000812323 -0.000102494 0.00140871
0.00252987 0.00284888 -0.000125503
0.00284888 -0.00440039 -0.000119959
-0.000125503 -0.000119959 -0.00105444
0.00106022 0.00227378 2.50782e-05
0.00227378 -0.00109629 -6.38431e-06
2.50782e-05 -6.38431e-06 -0.0011729
0.00453145 -0.00498281 0.00299422
-0.00498281 0.00294418 0.000202737
0.00299422 0.000202737 -0.00328011
0.0318521 -0.015104 -0.000105107
-0.015104 0.0181906 3.64279e-05
-0.000105107 3.64279e-05 0.00821145
0.0012881 0.000223102 6.72807e-06
0.000223102 0.000739916 1.07241e-05
6.72807e-06 1.07241e-05 0.000601475
0.000783898 0.00014188 -2.26362e-06
0.00014188 0.000437571 3.02856e-07
-2.26362e-06 3.02856e-07 0.000304616
5.60113e-05 0.000167496 1.22307e-05
0.000167496 6.16516e-06 -2.48179e-06
1.22307e-05 -2.48179e-06 -0.000157174
0.000507891 -6.04577e-05 9.84871e-07
-6.04577e-05 0.00012384 -2.27132e-06
9.84871e-07 -2.27132e-06 -3.47677e-05
0.000478881 7.21587e-05 2.4936e-06
7.21587e-05 0.00011434 -3.48377e-06
2.4936e-06 -3.48377e-06 -6.35384e-05
0.000450709 -7.06001e-06 3.74004e-07
-7.06001e-06 0.000148746 -1.44714e-06
3.74004e-07 -1.44714e-06 -6.67874e-05
0.00102214 0.000126561 3.35841e-06
0.000126561 0.000443344 1.38322e-05
3.35841e-06 1.38322e-05 0.000316731
0.000453811 0.00012918 4.29946e-06
0.00012918 8.18303e-05 1.32057e-05
4.29946e-06 1.32057e-05 4.16517e-05
0.000790595 0.000173944 -1.82037e-06
0.000173944 0.000401294 3.63983e-07
-1.82037e-06 3.63983e-07 0.000156443
0.000390022 -1.88234e-05 3.41334e-07
-1.88234e-05 1.92298e-05 9.50543e-07
3.41334e-07 9.50543e-07 -0.000129637
0.000738297 6.83608e-05 -1.22589e-06
6.83608e-05 0.000283893 3.58496e-07
-1.22589e-06 3.58496e-07 8.97362e-05
0.000357292 0.000124956 -3.49589e-06
0.000124956 5.97544e-05 -4.29823e-06
-3.49589e-06 -4.29823e-06 -1.76096e-05
0.000643799 0.00013788 -5.95055e-07
0.00013788 0.000235272 5.21771e-07
-5.95055e-07 5.21771e-07 6.38662e-05
0.00187785 0.000253453 -1.42271e-06
0.000253453 0.00107352 -8.94886e-07
-1.42271e-06 -8.94886e-07 0.000834059
-4.29151e-05 8.02158e-05 7.04967e-07
8.02158e-05 -6.38658e-05 -1.0497e-05
7.04967e-07 -1.0497e-05 -0.000262951
0.000926551 0.00010703 2.22821e-06
0.00010703 0.000461835 -1.6408e-06
2.22821e-06 -1.6408e-06 0.000244221
0.000103303 2.34939e-05 -1.08608e-06
2.34939e-05 -0.000162754 -2.57337e-06
-1.08608e-06 -2.57337e-06 -0.000339376
0.000265122 -7.19158e-05 -1.49775e-07
-7.19158e-05 -5.88033e-05 4.29528e-07
-1.49775e-07 4.29528e-07 -0.000207743
0.000303273 -2.82229e-05 8.68206e-08
-2.82229e-05 -7.45192e-06 -4.16378e-06
8.68206e-08 -4.16378e-06 -0.000179428
0.00110196 -6.20009e-05 2.84141e-06
-6.20009e-05 0.000520847 -7.09638e-06
2.84141e-06 -7.09638e-06 0.00034761
0.000870433 -7.17084e-05 -1.35825e-06
-7.17084e-05 0.000432331 -3.78648e-07
-1.35825e-06 -3.78648e-07 0.000226698
0.000788912 -0.000105816 2.0141e-06
-0.000105816 0.000348852 -3.60269e-07
2.0141e-06 -3.60269e-07 0.000143578
0.000496875 -0.000130342 -1.25585e-06
-0.000130342 0.000113271 3.34961e-06
-1.25585e-06 3.34961e-06 -4.41408e-05
0.000140592 -3.06509e-05 -8.00901e-08
-3.06509e-05 -0.000132199 1.24149e-06
-8.00901e-08 1.24149e-06 -0.00028468
0.00044343 -7.21513e-05 -1.09386e-06
-7.21513e-05 3.40998e-05 4.19756e-06
-1.09386e-06 4.19756e-06 -5.80001e-05
0.000452087 -4.68926e-05 2.19511e-06
-4.68926e-05 4.774e-05 1.41199e-07
2.19511e-06 1.41199e-07 -4.94035e-05
0.000348037 2.3774e-06 4.7132e-06
2.3774e-06 -4.44833e-05 7.17292e-06
4.7132e-06 7.17292e-06 -7.62653e-05
0.000458384 6.73747e-05 -1.62199e-06
6.73747e-05 4.21248e-05 -3.70869e-06
-1.62199e-06 -3.70869e-06 -4.92363e-05
0.000348663 2.99537e-05 5.69941e-07
2.99537e-05 -4.83067e-05 1.43344e-07
5.69941e-07 1.43344e-07 -7.84185e-05
0.00259911 1.24305e-05 1.56993e-05
1.24305e-05 0.00139172 5.78811e-06
1.56993e-05 5.78811e-06 0.00140299
0.000373661 6.55074e-05 -5.42602e-06
6.55074e-05 -2.98889e-05 -8.46356e-06
-5.42602e-06 -8.46356e-06 -6.44291e-05
0.00168177 -4.31417e-07 -9.67935e-06
-4.31417e-07 0.000794594 1.17119e-07
-9.67935e-06 1.17119e-07 0.000800815
0.000804964 -8.59573e-06 1.16892e-06
-8.59573e-06 0.00021797 -2.58052e-06
1.16892e-06 -2.58052e-06 0.000219215
0.000373152 2.30804e-05 -1.34992e-06
2.30804e-05 -3.51259e-05 -3.81898e-06
-1.34992e-06 -3.81898e-06 -8.48935e-05
0.000454869 -4.05358e-05 1.15649e-06
-4.05358e-05 3.00011e-05 8.22843e-08
1.15649e-06 8.22843e-08 -3.4078e-05
0.000460967 5.43354e-06 1.57391e-06
5.43354e-06 -5.93656e-06 -4.49406e-06
1.57391e-06 -4.49406e-06 -2.12874e-05
0.000478413 -5.67703e-05 -6.19916e-07
-5.67703e-05 4.60475e-05 2.21064e-06
-6.19916e-07 2.21064e-06 -2.57297e-05
0.000795423 2.86211e-05 5.28922e-07
2.86211e-05 0.000218105 -8.4496e-07
5.28922e-07 -8.4496e-07 0.000198491
0.0022057 6.49698e-05 -6.67478e-08
6.49698e-05 0.00113944 -5.44902e-06
-6.67478e-08 -5.44902e-06 0.0011488
0.000419502 3.12644e-05 4.36689e-07
3.12644e-05 -1.91318e-05 6.28412e-06
4.36689e-07 6.28412e-06 -5.04235e-05
0.00271728 0.000103345 -1.5706e-06
0.000103345 0.00148582 1.68825e-06
-1.5706e-06 1.68825e-06 0.00148565
0.00300062 0.000141853 2.4952e-05
0.000141853 0.00168235 1.01907e-05
2.4952e-05 1.01907e-05 0.0016732
0.00255544 0.000190013 3.22698e-07
0.000190013 -0.000136748 -3.00517e-06
3.22698e-07 -3.00517e-06 2.44439e-05
0.00229642 -1.12558e-08 -1.33813e-06
-1.12558e-08 -0.000172306 9.74466e-08
-1.33813e-06 9.74466e-08 -2.35316e-05
0.00271038 0.000104607 1.06436e-05
0.000104607 -0.000111419 1.2841e-06
1.06436e-05 1.2841e-06 3.81507e-05
0.00286269 0.00123979 0.00013829
0.00123979 -0.0025521 4.24966e-05
0.00013829 4.24966e-05 -0.000955675
0.0026951 -8.05753e-06 -4.18232e-06
-8.05753e-06 -0.000177144 -1.76731e-06
-4.18232e-06 -1.76731e-06 4.54705e-05
0.00278935 0.000110328 -3.55966e-06
0.000110328 3.6412e-05 -2.36803e-06
-3.55966e-06 -2.36803e-06 0.000314362
0.00275644 -5.67666e-05 -4.38767e-05
-5.67666e-05 7.59979e-05 -9.78844e-06
-4.38767e-05 -9.78844e-06 0.000272392
0.00331384 0.000918392 -0.000140139
0.000918392 -0.00276655 -2.59547e-05
-0.000140139 -2.59547e-05 -0.000725027
0.00280116 0.000367198 0.000151676
0.000367198 -0.00151116 8.48388e-05
0.000151676 8.48388e-05 -0.000598236
0.000510923 9.31923e-05 -1.52102e-08
9.31923e-05 0.00010936 -3.64608e-06
-1.52102e-08 -3.64608e-06 -5.11266e-06
0.000565642 -1.24972e-05 -6.57157e-07
-1.24972e-05 0.000153113 -2.62724e-07
-6.57157e-07 -2.62724e-07 2.73607e-05
0.000304118 -0.000109721 -6.50487e-06
-0.000109721 -2.07705e-05 -3.36351e-08
-6.50487e-06 -3.36351e-08 -0.000150086
0.000372791 -7.03045e-05 -3.64039e-06
-7.03045e-05 5.03166e-05 7.70373e-09
-3.64039e-06 7.70373e-09 -9.06462e-05
0.00263291 -0.000225305 -6.32731e-07
-0.000225305 -0.000214631 1.06611e-06
-6.32731e-07 1.06611e-06 2.43377e-05
0.00261031 -0.000609458 1.47548e-06
-0.000609458 -0.000221416 1.20896e-06
1.47548e-06 1.20896e-06 -2.89539e-05
0.00264002 -0.000927111 1.07233e-06
-0.000927111 -1.16805e-05 -1.31327e-06
1.07233e-06 -1.31327e-06 -3.4681e-05
0.00404984 -0.00125938 2.79706e-05
-0.00125938 0.00189675 2.54488e-06
2.79706e-05 2.54488e-06 0.00126124
0.00187941 -0.00133858 -4.58267e-06
-0.00133858 0.000192969 2.37179e-06
-4.58267e-06 2.37179e-06 -0.000486471
0.00250279 -0.00116418 1.63891e-06
-0.00116418 0.00022465 -3.71933e-06
1.63891e-06 -3.71933e-06 -0.000114031
-0.000653303 -0.000798993 4.6757e-06
-0.000798993 -0.000746012 -2.00938e-05
4.6757e-06 -2.00938e-05 -0.00141862
0.00322895 -0.000554957 1.99831e-05
-0.000554957 0.00169576 -1.72813e-05
1.99831e-05 -1.72813e-05 0.00114415
0.000387817 -0.000223933 4.31665e-06
-0.000223933 2.86694e-05 1.18267e-05
4.31665e-06 1.18267e-05 -0.000300453
0.000787885 -9.44284e-05 3.26721e-06
-9.44284e-05 0.000323257 2.2446e-06
3.26721e-06 2.2446e-06 0.000173502
0.000137522 -0.000119297 -8.42349e-06
-0.000119297 -1.41698e-05 -1.0964e-05
-8.42349e-06 -1.0964e-05 -0.000397507
0.000714452 -6.4251e-05 2.29018e-06
-6.4251e-05 0.000272282 -1.84949e-06
2.29018e-06 -1.84949e-06 4.88719e-05
0.000512926 -7.5254e-06 6.57076e-07
-7.5254e-06 0.000127361 5.78297e-06
6.57076e-07 5.78297e-06 -7.9491e-06
0.000521448 -7.4997e-05 -9.22524e-06
-7.4997e-05 6.88948e-05 1.12579e-05
-9.22524e-06 1.12579e-05 -5.69706e-05
0.00277063 -0.000389437 3.0961e-06
-0.000389437 -0.000206678 1.53485e-06
3.0961e-06 1.53485e-06 0.000100564
0.000394108 -4.54175e-05 -1.25623e-07
-4.54175e-05 4.47403e-05 3.65817e-06
-1.25623e-07 3.65817e-06 -9.86038e-05
0.000641599 -8.67959e-05 6.86862e-06
-8.67959e-05 0.000128466 -2.98168e-06
6.86862e-06 -2.98168e-06 -3.68742e-05
-0.000822009 -7.35059e-05 1.27447e-05
-7.35059e-05 -0.000659775 -2.0176e-06
1.27447e-05 -2.0176e-06 -0.000784339
0.00242778 -0.000721209 7.10775e-07
-0.000721209 -0.000350884 -7.74033e-07
7.10775e-07 -7.74033e-07 -7.33517e-05
0.00273099 -0.00114023 2.26095e-06
-0.00114023 0.000182317 -1.52879e-06
2.26095e-06 -1.52879e-06 -5.41249e-05
0.00195543 -0.00128822 -1.55329e-05
-0.00128822 0.00055968 1.95329e-06
-1.55329e-05 1.95329e-06 -6.69463e-05
0.00346571 -0.00148976 -5.2193e-06
-0.00148976 0.00096554 -2.33252e-07
-5.2193e-06 -2.33252e-07 0.000430949
0.00200161 -0.000256513 1.58898e-05
-0.000256513 0.00113336 -8.32623e-06
1.58898e-05 -8.32623e-06 0.000786374
-0.00126165 -6.04979e-05 9.91799e-06
-6.04979e-05 -0.000935471 5.22255e-06
9.91799e-06 5.22255e-06 -0.00128746
0.000928276 -0.00124393 -2.76397e-07
-0.00124393 0.00053859 -7.18078e-07
-2.76397e-07 -7.18078e-07 -0.000348978
0.00186067 -0.000539827 -1.16112e-05
-0.000539827 0.00103594 -2.89498e-06
-1.16112e-05 -2.89498e-06 0.000446338
0.0040016 -0.000591946 -6.37027e-05
-0.000591946 0.000558743 1.90799e-05
-6.37027e-05 1.90799e-05 0.000897046
0.00273361 -0.00094912 -4.20614e-05
-0.00094912 3.47699e-05 1.63768e-05
-4.20614e-05 1.63768e-05 0.000132787
0.00305108 -0.00130501 -8.2752e-06
-0.00130501 0.000681009 -1.80248e-05
-8.2752e-06 -1.80248e-05 0.000201483
0.00275257 -0.00147079 1.14501e-05
-0.00147079 0.000783706 3.32448e-05
1.14501e-05 3.32448e-05 0.000305614
0.000235348 -0.000197253 -6.05945e-06
-0.000197253 0.000127471 -1.60412e-05
-6.05945e-06 -1.60412e-05 -8.98855e-05
0.000826369 -0.000301967 -1.80654e-05
-0.000301967 0.000336036 -2.5314e-06
-1.80654e-05 -2.5314e-06 9.44945e-06
0.000701528 -0.000324858 -1.78023e-05
-0.000324858 0.000541544 8.18911e-05
-1.78023e-05 8.18911e-05 0.000129215
-0.000374122 -0.000982391 7.16159e-06
-0.000982391 0.000462576 -3.9048e-05
7.16159e-06 -3.9048e-05 -0.000674462
0.00575084 -0.000512818 5.67062e-05
-0.000512818 -0.00653859 1.72822e-05
5.67062e-05 1.72822e-05 -0.00694158
0.00218733 0.000363501 1.40247e-05
0.000363501 0.0013972 -5.92695e-06
1.40247e-05 -5.92695e-06 0.00108133
0.000171593 0.00039034 6.64791e-07
0.00039034 -6.59216e-05 -2.26336e-06
6.64791e-07 -2.26336e-06 -0.000450015
0.00181259 0.000483217 6.47837e-05
0.000483217 -0.000756595 2.6247e-05
6.47837e-05 2.6247e-05 -0.000278509
0.00249216 0.000999261 2.71543e-05
0.000999261 0.000229165 1.30387e-05
2.71543e-05 1.30387e-05 3.23401e-05
0.00302216 0.0012655 1.31883e-05
0.0012655 0.000976081 1.46653e-05
1.31883e-05 1.46653e-05 0.000325835
0.00225535 0.000982375 1.71633e-05
0.000982375 0.000847976 1.2469e-05
1.71633e-05 1.2469e-05 0.000206855
0.00481339 0.00234388 0.00010137
0.00234388 -0.00135236 4.48539e-05
0.00010137 4.48539e-05 -0.000552481
0.000812677 0.000335426 3.2583e-06
0.000335426 0.000588862 -5.72316e-06
3.2583e-06 -5.72316e-06 0.000237844
0.00305265 0.00111251 -5.35548e-06
0.00111251 2.87512e-05 4.29659e-06
-5.35548e-06 4.29659e-06 0.000184451
0.00104171 0.00065187 -8.34795e-06
0.00065187 0.000286064 7.7568e-06
-8.34795e-06 7.7568e-06 -0.000202295
0.00192924 0.00104927 2.05138e-06
0.00104927 0.000570252 -9.47399e-06
2.05138e-06 -9.47399e-06 -4.1477e-05
0.00289632 0.0013277 -1.56457e-05
0.0013277 0.000652322 -8.05244e-07
-1.56457e-05 -8.05244e-07 0.000185455
0.00522198 -0.000178796 -0.000228555
-0.000178796 -0.00700989 -0.000164671
-0.000228555 -0.000164671 -0.00701113
0.00668201 0.00316061 -0.000200074
0.00316061 -0.00177287 -8.91634e-05
-0.000200074 -8.91634e-05 0.000835495
0.00147912 0.00222288 -1.21639e-05
0.00222288 -0.000823212 -1.03004e-06
-1.21639e-05 -1.03004e-06 -0.000994693
0.00815321 -0.00401782 0.000888876
-0.00401782 0.00551764 0.000271224
0.000888876 0.000271224 0.000894021
0.0269703 -0.0167601 -0.000599306
-0.0167601 0.0169381 -0.000564372
-0.000599306 -0.000564372 0.00656935
-0.000199034 0.000272079 -4.57152e-06
0.000272079 -0.000223833 -2.31827e-06
-4.57152e-06 -2.31827e-06 -0.000520721
0.00229167 -0.000281419 0.0016031
-0.000281419 0.00467513 6.28076e-05
0.0016031 6.28076e-05 0.00217544
0.0090379 -0.00759208 1.02579e-05
-0.00759208 0.0108267 -0.000207497
1.02579e-05 -0.000207497 0.000757342
0.00340146 0.00182266 -8.52535e-05
0.00182266 0.000491499 -3.01052e-05
-8.52535e-05 -3.01052e-05 0.000129697
0.000948828 0.000652389 -3.53924e-05
0.000652389 0.000150856 -7.52037e-06
-3.53924e-05 -7.52037e-06 -0.000291827
0.00164773 0.00107349 -5.48675e-05
0.00107349 0.000420515 -4.14468e-05
-5.48675e-05 -4.14468e-05 -0.000124821
0.000134642 0.00211381 0.00015473
0.00211381 -0.00100829 0.000130991
0.00015473 0.000130991 -0.00129091
0.015594 0.00458661 0.000202733
0.00458661 -0.000277893 -2.92739e-06
0.000202733 -2.92739e-06 0.00118275
0.0068404 0.00484538 -0.000124752
0.00484538 -0.000723525 -0.000120896
-0.000124752 -0.000120896 0.00117636
0.0236361 -0.00909294 0.00134721
-0.00909294 0.0101889 0.000352492
0.00134721 0.000352492 0.00194658
0.0187271 -0.00324347 -0.000409711
-0.00324347 0.00885102 0.000770383
-0.000409711 0.000770383 0.00428853
0.000499651 0.000123555 2.00102e-06
0.000123555 0.000304219 7.38944e-06
2.00102e-06 7.38944e-06 0.000156643
0.000226125 0.000195902 2.01016e-06
0.000195902 0.000149743 3.9486e-07
2.01016e-06 3.9486e-07 -2.87358e-05
7.73469e-05 0.000200421 7.23883e-06
0.000200421 0.000145061 -7.20534e-06
7.23883e-06 -7.20534e-06 -0.000151786
0.000604021 2.74963e-06 2.16647e-06
2.74963e-06 0.000186979 1.36925e-06
2.16647e-06 1.36925e-06 1.7402e-05
0.000543639 0.000102465 1.80198e-06
0.000102465 0.000140532 -5.37139e-07
1.80198e-06 -5.37139e-07 -3.95885e-05
-0.000205901 3.20268e-05 1.03856e-06
3.20268e-05 -0.000273021 2.1266e-06
1.03856e-06 2.1266e-06 -0.000480278
0.000847506 0.000143318 -4.05214e-06
0.000143318 0.000386907 5.4921e-06
-4.05214e-06 5.4921e-06 0.000209216
-0.00014532 9.40971e-05 -5.4028e-06
9.40971e-05 -0.000279446 6.82193e-06
-5.4028e-06 6.82193e-06 -0.000343205
0.000312176 -7.07611e-06 -4.34267e-07
-7.07611e-06 -2.21788e-05 6.85111e-07
-4.34267e-07 6.85111e-07 -0.000177865
0.00123202 0.000161598 2.7962e-06
0.000161598 0.000642815 1.44536e-06
2.7962e-06 1.44536e-06 0.00041887
0.000343362 6.60823e-05 -7.67515e-07
6.60823e-05 9.13629e-05 -1.1577e-06
-7.67515e-07 -1.1577e-06 -0.000130291
0.000764252 6.10418e-05 1.56242e-06
6.10418e-05 0.000312023 1.81218e-07
1.56242e-06 1.81218e-07 0.000102322
0.000179657 9.29116e-05 -8.515e-07
9.29116e-05 7.10158e-05 -3.85202e-06
-8.515e-07 -3.85202e-06 -0.000132207
0.00101133 0.000121398 4.92898e-08
0.000121398 0.000524173 -5.25523e-06
4.92898e-08 -5.25523e-06 0.000325892
-0.000762969 2.14911e-06 3.10431e-06
2.14911e-06 -0.000275117 -3.57191e-06
3.10431e-06 -3.57191e-06 -0.000636304
4.04865e-06 -4.44723e-05 -6.95021e-08
-4.44723e-05 -0.000154228 2.65778e-07
-6.95021e-08 2.65778e-07 -0.000360567
0.00072074 -7.37486e-05 -4.02596e-06
-7.37486e-05 0.000286785 -2.35289e-06
-4.02596e-06 -2.35289e-06 8.16452e-05
0.000754711 -6.51265e-05 -3.88152e-07
-6.51265e-05 0.000314088 -2.1982e-06
-3.88152e-07 -2.1982e-06 0.000117618
0.000505774 -6.71061e-05 -4.45345e-06
-6.71061e-05 0.000129475 1.93407e-06
-4.45345e-06 1.93407e-06 -2.37684e-05
0.000828664 2.0904e-06 -8.19674e-06
2.0904e-06 0.00041396 -5.71149e-06
-8.19674e-06 -5.71149e-06 0.000209867
0.000677747 -0.000151133 5.9979e-06
-0.000151133 0.000203564 -9.83965e-06
5.9979e-06 -9.83965e-06 6.96746e-05
-3.24379e-06 -4.54986e-05 -4.02099e-06
-4.54986e-05 -0.000129778 -4.28152e-06
-4.02099e-06 -4.28152e-06 -0.000288468
-0.00047196 -1.94991e-05 1.88266e-07
-1.94991e-05 -0.000342321 -7.53864e-06
1.88266e-07 -7.53864e-06 -0.000606399
-0.000145861 -5.82426e-05 6.50531e-07
-5.82426e-05 -0.000255954 1.25726e-06
6.50531e-07 1.25726e-06 -0.000423926
0.000848617 -0.000160576 -1.11285e-06
-0.000160576 0.000401923 8.90974e-07
-1.11285e-06 8.90974e-07 0.000206751
0.000203752 -7.49919e-05 3.16995e-07
-7.49919e-05 -8.46731e-05 2.18145e-06
3.16995e-07 2.18145e-06 -0.000232773
0.000459208 -0.000119261 2.9591e-06
-0.000119261 9.53291e-05 -8.06103e-07
2.9591e-06 -8.06103e-07 -7.60005e-05
0.000596173 -0.000141401 1.02942e-07
-0.000141401 0.000178159 3.63397e-07
1.02942e-07 3.63397e-07 1.66458e-05
0.00052964 -7.07481e-05 -1.01779e-06
-7.07481e-05 8.95412e-05 4.99945e-06
-1.01779e-06 4.99945e-06 -5.48219e-06
0.000276975 3.50132e-07 -1.13079e-07
3.50132e-07 -2.17214e-05 -8.69845e-07
-1.13079e-07 -8.69845e-07 -0.000190668
0.000451246 2.6141e-06 2.76997e-06
2.6141e-06 4.9571e-05 1.30181e-07
2.76997e-06 1.30181e-07 -4.93369e-05
0.00139649 -4.11857e-05 -1.51007e-05
-4.11857e-05 0.000624645 7.6993e-06
-1.51007e-05 7.6993e-06 0.000599229
0.000446518 8.82785e-05 -2.93886e-06
8.82785e-05 4.43275e-05 -3.47682e-06
-2.93886e-06 -3.47682e-06 -5.25443e-05
0.000807864 -2.80239e-05 -5.93115e-06
-2.80239e-05 0.000252844 7.43372e-07
-5.93115e-06 7.43372e-07 0.000223026
0.000817298 -5.52747e-07 -9.46985e-06
-5.52747e-07 0.000236962 4.95299e-06
-9.46985e-06 4.95299e-06 0.000240328
0.000301857 -4.24879e-05 5.56684e-06
-4.24879e-05 -7.81184e-05 -5.67086e-06
5.56684e-06 -5.67086e-06 -0.000107894
0.00261654 3.83513e-06 1.36271e-05
3.83513e-06 0.00140331 4.0394e-08
1.36271e-05 4.0394e-08 0.00141441
0.000840432 7.00963e-06 -1.48755e-05
7.00963e-06 0.000252272 -5.73829e-06
-1.48755e-05 -5.73829e-06 0.000253955
0.000552032 8.15575e-05 1.98533e-06
8.15575e-05 0.00014877 -1.85916e-06
1.98533e-06 -1.85916e-06 2.247e-05
0.000394164 6.5066e-05 -2.95e-06
6.5066e-05 -3.8505e-06 -4.16551e-06
-2.95e-06 -4.16551e-06 -6.24449e-05
0.000439765 1.21841e-06 1.58891e-06
1.21841e-06 2.31485e-05 1.90577e-07
1.58891e-06 1.90577e-07 -3.66265e-05
0.000425492 9.1279e-06 1.11929e-06
9.1279e-06 -2.75848e-05 -4.14658e-06
1.11929e-06 -4.14658e-06 -4.10163e-05
0.000534503 -8.01371e-05 -1.73717e-06
-8.01371e-05 9.49532e-05 4.52908e-06
-1.73717e-06 4.52908e-06 2.2716e-05
0.000440644 8.73364e-06 4.77443e-07
8.73364e-06 -1.93691e-05 -7.80592e-07
4.77443e-07 -7.80592e-07 -3.47194e-05
0.00208563 4.43041e-05 -3.59837e-07
4.43041e-05 0.00105597 -5.26102e-06
-3.59837e-07 -5.26102e-06 0.0010692
0.00123737 4.49755e-05 1.97927e-06
4.49755e-05 0.00050761 3.2374e-06
1.97927e-06 3.2374e-06 0.000487424
0.00152927 5.42528e-05 -1.24168e-06
5.42528e-05 0.000701553 1.72652e-06
-1.24168e-06 1.72652e-06 0.000705559
0.000784437 5.76157e-05 8.00318e-06
5.76157e-05 0.000226368 1.19338e-05
8.00318e-06 1.19338e-05 0.000219521
0.000818761 0.000916922 0.000109096
0.000916922 -0.00351974 2.86927e-05
0.000109096 2.86927e-05 -0.00189414
0.00257148 -3.92675e-05 6.77609e-06
-3.92675e-05 -0.000249403 -1.36952e-06
6.77609e-06 -1.36952e-06 -2.71557e-05
0.00256254 8.43422e-05 5.21922e-05
8.43422e-05 -5.45341e-05 -1.49008e-05
5.21922e-05 -1.49008e-05 0.00014435
0.00468646 0.000866182 -0.000102672
0.000866182 -0.00269093 -4.97935e-05
-0.000102672 -4.97935e-05 0.000217164
0.00345929 0.00012525 0.000100068
0.00012525 -0.00107565 -6.96295e-06
0.000100068 -6.96295e-06 -9.60384e-05
0.00282375 -7.90584e-05 -7.92061e-06
-7.90584e-05 8.93003e-05 -1.15171e-06
-7.92061e-06 -1.15171e-06 0.000283902
0.00497464 -0.00070877 -7.65317e-05
-0.00070877 0.000201845 -4.51722e-05
-7.65317e-05 -4.51722e-05 0.000992953
0.00496913 -0.000904985 3.32584e-06
-0.000904985 -0.00170297 -3.20802e-06
3.32584e-06 -3.20802e-06 0.000498057
0.0205245 -0.0012218 0.000103251
-0.0012218 0.00195007 -9.66966e-05
0.000103251 -9.66966e-05 0.00209652
0.0215902 0.00995057 0.00238988
0.00995057 0.00923223 -0.000366538
0.00238988 -0.000366538 0.00231262
0.0340563 0.0120211 0.000197635
0.0120211 0.022164 0.000112885
0.000197635 0.000112885 0.0132891
2.62594e-05 -0.000113718 1.7196e-06
-0.000113718 -0.000171072 -2.6273e-06
1.7196e-06 -2.6273e-06 -0.000302127
0.000511749 -1.34638e-05 2.39532e-06
-1.34638e-05 0.000112531 4.88933e-08
2.39532e-06 4.88933e-08 -3.25092e-06
0.000607289 -0.000101722 -1.49737e-06
-0.000101722 0.000188353 6.69919e-06
-1.49737e-06 6.69919e-06 5.50184e-05
0.000526513 -5.8373e-05 2.50697e-06
-5.8373e-05 0.000115381 -1.43467e-07
2.50697e-06 -1.43467e-07 -8.41888e-06
0.000940033 0.000152797 -7.69269e-06
0.000152797 0.000476783 -5.46666e-06
-7.69269e-06 -5.46666e-06 0.000319446
0.000625645 0.000158017 -1.99001e-06
0.000158017 0.000202529 3.40301e-06
-1.99001e-06 3.40301e-06 5.11555e-05
0.000801666 3.03052e-05 2.15865e-06
3.03052e-05 0.000331972 -8.87566e-07
2.15865e-06 -8.87566e-07 0.000165891
0.000488411 -2.27869e-05 -1.55151e-06
-2.27869e-05 0.000109137 1.02628e-06
-1.55151e-06 1.02628e-06 -2.77012e-05
0.00269288 -0.000382147 1.51188e-05
-0.000382147 -0.00025914 -9.25413e-06
1.51188e-05 -9.25413e-06 6.80903e-05
0.00239347 -0.000756945 1.77806e-05
-0.000756945 -0.00040306 -6.1185e-06
1.77806e-05 -6.1185e-06 -0.00015732
0.00273057 -0.0011389 6.80715e-06
-0.0011389 0.000172813 3.94952e-06
6.80715e-06 3.94952e-06 -5.6052e-05
0.00258738 -0.00137217 1.22125e-05
-0.00137217 0.000843002 2.67516e-07
1.22125e-05 2.67516e-07 0.000233862
0.00278918 -0.00140276 -2.48427e-05
-0.00140276 0.000618071 3.30391e-07
-2.48427e-05 3.30391e-07 7.39314e-05
0.000239024 -0.00123729 2.10014e-05
-0.00123729 0.000206155 1.15209e-05
2.10014e-05 1.15209e-05 -0.000764439
0.00520953 -0.000966633 1.11777e-05
-0.000966633 0.00284424 4.59401e-06
1.11777e-05 4.59401e-06 0.00230143
0.0017994 -0.000457582 2.27273e-05
-0.000457582 0.00105487 -5.49958e-05
2.27273e-05 -5.49958e-05 0.000589365
0.000775272 -9.91021e-05 -4.77517e-06
-9.91021e-05 0.000204345 7.22155e-06
-4.77517e-06 7.22155e-06 5.71368e-05
0.001256 -0.000129533 1.65599e-05
-0.000129533 0.000636874 -2.46497e-05
1.65599e-05 -2.46497e-05 0.00030634
0.000765336 -8.03715e-05 4.22361e-06
-8.03715e-05 0.00029157 7.44717e-06
4.22361e-06 7.44717e-06 0.000138159
0.000536095 1.4985e-05 7.50109e-06
1.4985e-05 0.000214959 3.59272e-06
7.50109e-06 3.59272e-06 0.000144568
0.00268862 -0.000516222 1.60736e-06
-0.000516222 -0.00024058 4.49633e-06
1.60736e-06 4.49633e-06 0.000198661
0.000261585 -9.81586e-05 -6.78173e-06
-9.81586e-05 0.000108061 1.61006e-06
-6.78173e-06 1.61006e-06 -8.66697e-05
0.0014125 -0.000284978 -5.44252e-06
-0.000284978 0.000715635 5.93872e-06
-5.44252e-06 5.93872e-06 0.000430724
0.001952 -0.000888082 8.81301e-06
-0.000888082 -0.000421274 -5.32859e-06
8.81301e-06 -5.32859e-06 -0.000266507
0.00256409 -0.00121063 2.20034e-06
-0.00121063 0.000422263 5.86522e-06
2.20034e-06 5.86522e-06 8.12378e-06
0.00161596 -0.00130345 -2.42076e-06
-0.00130345 0.000103172 -1.65112e-05
-2.42076e-06 -1.65112e-05 -0.000326692
0.0012089 -0.000433691 -1.61822e-06
-0.000433691 0.00077172 -3.2426e-05
-1.61822e-06 -3.2426e-05 0.000245931
0.000989708 -0.000866452 1.69477e-05
-0.000866452 0.00109941 1.63164e-06
1.69477e-05 1.63164e-06 0.000121542
0.00642316 -0.00126411 -5.93117e-05
-0.00126411 0.00159117 3.6647e-05
-5.93117e-05 3.6647e-05 0.00195004
0.00320906 -0.00128558 -4.88918e-05
-0.00128558 0.000723584 1.67661e-05
-4.88918e-05 1.67661e-05 0.000401227
0.0029147 -0.00149878 -1.93037e-07
-0.00149878 0.000736995 1.66449e-05
-1.93037e-07 1.66449e-05 0.000267472
0.000391344 -0.000869593 -1.93233e-05
-0.000869593 -0.000234456 2.63429e-05
-1.93233e-05 2.63429e-05 -0.000415362
0.000854238 -0.000229729 1.23236e-06
-0.000229729 0.000554644 9.56626e-07
1.23236e-06 9.56626e-07 0.000235191
-0.000185529 -0.000184071 4.04743e-06
-0.000184071 -1.51307e-06 1.06809e-05
4.04743e-06 1.06809e-05 -0.000400363
0.000338506 -0.000351812 -1.63779e-05
-0.000351812 0.000702313 -1.40401e-05
-1.63779e-05 -1.40401e-05 -0.000104606
-0.00801614 -0.000711339 0.00105502
-0.000711339 -0.00251279 -4.50118e-05
0.00105502 -4.50118e-05 -0.0053593
0.0129925 -0.000578798 7.52536e-05
-0.000578798 -0.000970663 5.68231e-05
7.52536e-05 5.68231e-05 0.000394232
0.00227691 0.000421931 7.70194e-06
0.000421931 0.00138962 -9.26281e-06
7.70194e-06 -9.26281e-06 0.00109067
0.00218325 0.000808841 2.11389e-06
0.000808841 0.0010199 6.99021e-06
2.11389e-06 6.99021e-06 0.000477582
0.00157128 0.000891908 0.000114087
0.000891908 -0.000776576 6.06085e-05
0.000114087 6.06085e-05 -0.000529884
0.00422209 0.00145433 3.61936e-05
0.00145433 0.00139237 1.93492e-05
3.61936e-05 1.93492e-05 0.000871716
0.00305449 0.00123107 2.61927e-05
0.00123107 0.00119432 5.62316e-06
2.61927e-05 5.62316e-06 0.000540979
0.0190923 0.000929743 0.000109163
0.000929743 0.00149101 -0.000163635
0.000109163 -0.000163635 0.00203439
0.00875497 0.00386532 -0.000311804
0.00386532 -0.00247989 -2.5139e-05
-0.000311804 -2.5139e-05 0.000796416
0.00247307 0.00228447 -8.82197e-06
0.00228447 -0.000190733 -4.04078e-05
-8.82197e-06 -4.04078e-05 -0.000507376
0.0179626 -0.00769092 -0.001063
-0.00769092 0.00853169 0.000150382
-0.001063 0.000150382 0.00222344
0.0201602 -0.018771 -0.00330157
-0.018771 0.0159103 -0.0018367
-0.00330157 -0.0018367 0.00510036
0.000666806 0.000402831 7.66339e-06
0.000402831 0.00037718 -4.49759e-06
7.66339e-06 -4.49759e-06 2.868e-05
0.00148013 -0.00490014 0.000981701
-0.00490014 -0.00091664 8.32651e-05
0.000981701 8.32651e-05 -0.00579476
0.00236409 -0.00594327 -0.000990042
-0.00594327 0.0115222 -0.000127039
-0.000990042 -0.000127039 0.00227227
0.00395305 0.00176398 -2.16014e-05
0.00176398 0.000725388 3.79277e-06
-2.16014e-05 3.79277e-06 0.000420802
0.000888458 0.000700212 -1.242e-05
0.000700212 0.000182278 8.39371e-06
-1.242e-05 8.39371e-06 -0.000304882
0.0021837 0.00124474 2.17948e-06
0.00124474 0.000701355 6.47011e-07
2.17948e-06 6.47011e-07 9.41103e-05
0.00224777 0.00216034 8.56864e-05
0.00216034 0.000439389 5.77126e-05
8.56864e-05 5.77126e-05 0.00013643
0.0145328 0.00497663 -0.000213079
0.00497663 -0.00189714 -0.000133418
-0.000213079 -0.000133418 -0.00161788
0.00284135 0.00443558 -1.98093e-05
0.00443558 -0.00163283 -5.61029e-05
-1.98093e-05 -5.61029e-05 0.000346953
0.0261534 -0.00783412 0.000886673
-0.00783412 0.012141 -9.80889e-05
0.000886673 -9.80889e-05 0.00399171
0.0260148 -0.0062451 -0.000143196
-0.0062451 0.00907045 0.000958312
-0.000143196 0.000958312 0.00248108
0.000501888 0.000406872 -8.45566e-06
0.000406872 0.000194451 -1.75971e-05
-8.45566e-06 -1.75971e-05 -0.000112182
-0.00641981 0.000915741 2.31171e-05
0.000915741 0.00627899 -0.00016851
2.31171e-05 -0.00016851 -0.00285518
0.00790408 0.00225524 -0.000728465
0.00225524 0.0062826 -0.000632481
-0.000728465 -0.000632481 0.000678722
0.00299343 0.00138465 -5.48088e-05
0.00138465 0.000695459 -2.91299e-05
-5.48088e-05 -2.91299e-05 0.000522879
0.00292835 0.00130647 -9.43531e-05
0.00130647 0.00131514 -3.72529e-05
-9.43531e-05 -3.72529e-05 0.000715424
0.00242977 0.00169176 -0.000115934
0.00169176 0.00146327 -4.47106e-05
-0.000115934 -4.47106e-05 0.000563641
-0.00257885 0.00329066 5.89075e-05
0.00329066 -0.000817913 -2.97733e-05
5.89075e-05 -2.97733e-05 -0.00086805
0.00581976 0.00741887 0.000921817
0.00741887 -0.00225033 0.000102557
0.000921817 0.000102557 -0.00283081
0.0280145 -0.00984293 -0.000409408
-0.00984293 0.016019 0.00104407
-0.000409408 0.00104407 0.00673766
0.00957747 0.000710344 -0.000194479
0.000710344 -0.00164126 -0.000234632
-0.000194479 -0.000234632 -0.00195449
0.000800502 0.000275394 -4.58473e-06
0.000275394 0.000540933 1.53425e-06
-4.58473e-06 1.53425e-06 0.000329296
0.00123669 0.000347373 2.48387e-06
0.000347373 0.000809301 1.01029e-08
2.48387e-06 1.01029e-08 0.000511541
-0.000667652 0.000163494 -8.9784e-07
0.000163494 -0.000286101 2.13657e-06
-8.9784e-07 2.13657e-06 -0.000561962
0.000380874 6.93286e-05 2.59395e-06
6.93286e-05 2.27911e-05 1.85647e-06
2.59395e-06 1.85647e-06 -0.00013586
0.00124016 0.000111477 3.0728e-07
0.000111477 0.00064366 1.09469e-06
3.0728e-07 1.09469e-06 0.000419222
0.000428061 2.4873e-05 -1.22007e-06
2.4873e-05 0.000149252 2.57192e-06
-1.22007e-06 2.57192e-06 -8.35208e-05
0.000219595 0.000101964 7.96843e-06
0.000101964 3.51195e-05 7.85012e-06
7.96843e-06 7.85012e-06 -0.000205387
4.617e-05 7.56947e-05 -4.79023e-06
7.56947e-05 -9.63612e-06 5.80374e-06
-4.79023e-06 5.80374e-06 -0.00020864
0.000799282 4.30266e-05 -3.21152e-08
4.30266e-05 0.000342894 -8.68951e-07
-3.21152e-08 -8.68951e-07 0.000133077
0.000569651 7.56321e-05 -1.47114e-08
7.56321e-05 0.000240205 -1.60351e-07
-1.47114e-08 -1.60351e-07 4.61241e-05
0.000881302 -3.83762e-05 -8.44001e-07
-3.83762e-05 0.000434128 2.42138e-06
-8.44001e-07 2.42138e-06 0.000202117
-0.000801345 4.90186e-05 -9.95159e-07
4.90186e-05 -0.000286581 8.23466e-07
-9.95159e-07 8.23466e-07 -0.000647035
0.000126895 8.20775e-06 2.94664e-06
8.20775e-06 0.000435795 8.62642e-06
2.94664e-06 8.62642e-06 -5.3081e-05
0.00075011 -3.23572e-05 2.59649e-06
-3.23572e-05 0.000492199 -5.10234e-06
2.59649e-06 -5.10234e-06 0.000211818
0.00183163 -4.49348e-05 -3.96429e-06
-4.49348e-05 0.00110262 3.13718e-06
-3.96429e-06 3.13718e-06 0.000832098
0.000951912 -0.000113949 -7.78661e-07
-0.000113949 0.000445506 -9.15875e-07
-7.78661e-07 -9.15875e-07 0.000238797
0.000276335 -0.000109614 1.44941e-06
-0.000109614 -2.53342e-05 1.05057e-05
1.44941e-06 1.05057e-05 -0.000167378
0.000563999 -0.000121324 6.08741e-07
-0.000121324 0.000220628 2.64497e-07
6.08741e-07 2.64497e-07 2.80859e-05
0.000690983 -0.000145581 -1.76398e-06
-0.000145581 0.000207404 -2.06515e-06
-1.76398e-06 -2.06515e-06 6.57082e-05
-4.97253e-05 -7.14944e-05 -1.01715e-06
-7.14944e-05 -0.000150121 5.9297e-06
-1.01715e-06 5.9297e-06 -0.000296464
-0.000988957 -4.12987e-05 1.61932e-06
-4.12987e-05 -0.000720328 -1.06705e-05
1.61932e-06 -1.06705e-05 -0.000929174
-0.00022066 -6.92909e-05 -8.36583e-06
-6.92909e-05 -0.000136921 -3.49286e-07
-8.36583e-06 -3.49286e-07 -0.000381254
0.000444198 -0.000135625 2.43419e-06
-0.000135625 0.000173978 -9.82469e-06
2.43419e-06 -9.82469e-06 2.47672e-05
0.000998282 -0.000161688 2.74529e-05
-0.000161688 0.000363632 -1.7362e-05
2.74529e-05 -1.7362e-05 0.000238011
0.00380188 -0.000650028 -2.35941e-06
-0.000650028 0.00204221 1.82513e-06
-2.35941e-06 1.82513e-06 0.00172445
-0.000895588 -0.000138402 -2.26314e-06
-0.000138402 -0.000670418 -2.42617e-06
-2.26314e-06 -2.42617e-06 -0.000901817
0.000405915 -4.68867e-05 1.95898e-06
-4.68867e-05 0.000189313 4.99359e-07
1.95898e-06 4.99359e-07 -6.37561e-05
-0.00113791 8.93143e-06 6.39864e-06
8.93143e-06 -0.000827134 -1.75962e-06
6.39864e-06 -1.75962e-06 -0.0010871
0.000646489 -0.000208947 -1.99821e-06
-0.000208947 0.000271878 -8.20095e-07
-1.99821e-06 -8.20095e-07 7.04036e-05
0.000648835 -6.33806e-05 3.20918e-06
-6.33806e-05 0.000206063 -9.58299e-07
3.20918e-06 -9.58299e-07 4.06908e-05
0.000739382 -0.000187074 1.3445e-06
-0.000187074 0.000307414 -2.00976e-06
1.3445e-06 -2.00976e-06 0.000126241
0.000595354 -0.000100119 -6.96026e-07
-0.000100119 0.000186931 3.36193e-07
-6.96026e-07 3.36193e-07 2.43666e-05
0.000223234 3.51368e-05 2.30866e-06
3.51368e-05 -0.000104784 4.53557e-06
2.30866e-06 4.53557e-06 -0.000204512
0.000666721 -0.000142341 -2.7635e-07
-0.000142341 0.000215518 -1.71362e-06
-2.7635e-07 -1.71362e-06 5.56308e-05
0.000472079 -5.61572e-05 -6.66833e-07
-5.61572e-05 4.65239e-05 2.23544e-07
-6.66833e-07 2.23544e-07 -4.43234e-05
0.00137184 3.19259e-05 -8.90177e-06
3.19259e-05 0.000601194 8.17514e-06
-8.90177e-06 8.17514e-06 0.000575556
0.000452001 -8.07339e-05 7.62641e-07
-8.07339e-05 4.40655e-05 -3.5773e-06
7.62641e-07 -3.5773e-06 -5.0403e-05
0.000830053 -3.00281e-05 -1.15114e-05
-3.00281e-05 0.000259653 9.52955e-07
-1.15114e-05 9.52955e-07 0.000230407
0.000741555 1.0026e-05 2.03297e-06
1.0026e-05 0.000177433 2.32852e-06
2.03297e-06 2.32852e-06 0.000179667
0.000397655 -4.1111e-05 4.10375e-06
-4.1111e-05 -2.0205e-05 -5.29791e-06
4.10375e-06 -5.29791e-06 -4.88807e-05
0.00255136 5.80035e-06 6.80278e-06
5.80035e-06 0.00135911 -1.14486e-08
6.80278e-06 -1.14486e-08 0.00137123
0.00258451 -4.26944e-06 1.06496e-05
-4.26944e-06 0.00138202 -5.1997e-06
1.06496e-05 -5.1997e-06 0.00139333
0.00101736 7.95595e-05 -1.34596e-06
7.95595e-05 0.000446465 -2.38881e-06
-1.34596e-06 -2.38881e-06 0.000314254
0.000491228 7.61737e-05 -1.98828e-06
7.61737e-05 6.50347e-05 -4.71637e-06
-1.98828e-06 -4.71637e-06 -1.51838e-06
0.00050562 -2.21156e-05 -8.58988e-07
-2.21156e-05 0.00011619 9.26385e-07
-8.58988e-07 9.26385e-07 -8.25856e-06
0.000400596 1.23047e-05 1.053e-06
1.23047e-05 -4.368e-05 -4.24185e-06
1.053e-06 -4.24185e-06 -5.63381e-05
0.000406865 -9.95101e-06 2.09267e-06
-9.95101e-06 7.66678e-07 -2.66032e-07
2.09267e-06 -2.66032e-07 -5.64261e-05
0.000448052 -7.17457e-05 -2.74414e-06
-7.17457e-05 3.28246e-05 4.49402e-06
-2.74414e-06 4.49402e-06 -3.01973e-05
0.000421778 3.61893e-06 -6.50611e-07
3.61893e-06 -3.07767e-05 7.83778e-09
-6.50611e-07 7.83778e-09 -4.40714e-05
0.00205038 2.89395e-05 -5.66593e-06
2.89395e-05 0.00103049 -5.25016e-06
-5.66593e-06 -5.25016e-06 0.00104563
0.0011783 1.84537e-05 -1.26171e-06
1.84537e-05 0.000461779 3.12627e-06
-1.26171e-06 3.12627e-06 0.000449339
0.00135043 3.42262e-05 -4.15043e-06
3.42262e-05 0.000576249 2.26003e-08
-4.15043e-06 2.26003e-08 0.000585733
0.000750031 4.05965e-05 -1.07497e-06
4.05965e-05 0.000193084 9.17251e-06
-1.07497e-06 9.17251e-06 0.000194479
-0.00546986 0.00318563 0.00112443
0.00318563 -0.00116498 -0.000120673
0.00112443 -0.000120673 -0.00673694
0.00353263 0.00298192 0.00243789
0.00298192 0.010973 -0.000338915
0.00243789 -0.000338915 0.00364512
0.00204365 0.00103653 -0.000137749
0.00103653 -0.00377942 -5.5996e-05
-0.000137749 -5.5996e-05 -0.000543803
0.00312096 -6.47542e-05 4.03676e-05
-6.47542e-05 -0.00127687 -3.91075e-05
4.03676e-05 -3.91075e-05 -0.000171358
0.00294116 -9.15818e-05 5.06337e-05
-9.15818e-05 0.000116105 1.2736e-05
5.06337e-05 1.2736e-05 0.000326876
-0.000232189 -0.000189777 -0.00013685
-0.000189777 -0.00271176 -4.08658e-05
-0.00013685 -4.08658e-05 -0.000449786
0.00450072 -0.000718963 5.12058e-06
-0.000718963 -3.53176e-05 2.35779e-06
5.12058e-06 2.35779e-06 0.000644843
0.0128628 -0.00063002 0.000330866
-0.00063002 -0.00307132 -0.000133959
0.000330866 -0.000133959 -0.00283531
0.00747782 0.00663701 -1.40481e-05
0.00663701 0.00276618 -0.000101165
-1.40481e-05 -0.000101165 -0.00274938
0.0291316 0.0150074 -0.000878416
0.0150074 0.0194783 0.000319548
-0.000878416 0.000319548 0.00985046
0.00252234 -0.00160892 -1.71375e-05
-0.00160892 -0.0037398 -4.33764e-05
-1.71375e-05 -4.33764e-05 -0.000965777
0.0158099 -0.0045909 0.000355669
-0.0045909 -0.000647631 -7.82211e-05
0.000355669 -7.82211e-05 -0.000830418
0.025697 0.00881645 0.000582994
0.00881645 0.0104321 -0.000483523
0.000582994 -0.000483523 0.00188895
0.0306613 0.00626415 -0.000403754
0.00626415 0.0123847 0.000398404
-0.000403754 0.000398404 0.00654367
0.00128765 0.000194114 -7.66528e-06
0.000194114 0.000722754 -1.16207e-06
-7.66528e-06 -1.16207e-06 0.000498385
0.000332178 3.35698e-05 1.16488e-06
3.35698e-05 -1.0656e-06 -6.47146e-07
1.16488e-06 -6.47146e-07 -0.000120868
0.000534093 -0.000111448 3.44805e-06
-0.000111448 0.000139043 3.94383e-06
3.44805e-06 3.94383e-06 1.61791e-05
0.000682818 -2.05827e-05 6.10993e-06
-2.05827e-05 0.00022527 2.37875e-06
6.10993e-06 2.37875e-06 9.79933e-05
0.000562359 7.38047e-05 4.20835e-06
7.38047e-05 0.000216519 1.3367e-07
4.20835e-06 1.3367e-07 9.06472e-05
0.000602862 8.62575e-05 -1.33e-06
8.62575e-05 0.000211746 4.05478e-06
-1.33e-06 4.05478e-06 1.55563e-05
0.000599947 8.36926e-05 -1.21274e-06
8.36926e-05 0.000208981 2.64747e-06
-1.21274e-06 2.64747e-06 5.37213e-05
0.000420499 0.000116887 3.36231e-06
0.000116887 3.779e-05 2.77408e-06
3.36231e-06 2.77408e-06 -0.000130486
0.000564806 7.53967e-06 1.55167e-06
7.53967e-06 0.000177581 -1.27744e-06
1.55167e-06 -1.27744e-06 1.17799e-05
0.000307958 -3.2807e-05 2.54172e-06
-3.2807e-05 -1.9124e-05 6.73514e-07
2.54172e-06 6.73514e-07 -0.000141102
0.00108113 -0.000417589 4.76697e-05
-0.000417589 -0.00127756 -1.87865e-05
4.76697e-05 -1.87865e-05 -0.000671569
0.00139094 -0.000829423 2.87513e-05
-0.000829423 -0.000715123 -1.15301e-05
2.87513e-05 -1.15301e-05 -0.000524455
0.00121842 -0.00101331 1.35939e-05
-0.00101331 -0.000325245 6.31801e-06
1.35939e-05 6.31801e-06 -0.000636822
-0.000818524 -0.000939789 -1.06205e-05
-0.000939789 -0.00124121 -1.20965e-05
-1.06205e-05 -1.20965e-05 -0.00158797
0.00264378 -0.000863162 -1.3363e-06
-0.000863162 0.0019015 4.72565e-05
-1.3363e-06 4.72565e-05 0.00106868
-0.000996292 -0.000724399 -7.50642e-06
-0.000724399 -0.000481875 -2.07344e-05
-7.50642e-06 -2.07344e-05 -0.00122691
0.00132102 -0.000318161 1.47877e-05
-0.000318161 0.000689035 -6.9181e-06
1.47877e-05 -6.9181e-06 0.00044448
9.09828e-06 -3.97149e-05 4.60791e-06
-3.97149e-05 -8.0373e-05 6.58729e-06
4.60791e-06 6.58729e-06 -0.00025256
0.00294198 -0.000936204 1.36731e-05
-0.000936204 -0.000456271 -1.13815e-05
1.36731e-05 -1.13815e-05 0.000138485
0.000656473 -0.00014146 2.22341e-07
-0.00014146 0.000417594 2.00296e-06
2.22341e-07 2.00296e-06 9.78689e-05
-0.000443362 -0.000274201 -9.90917e-06
-0.000274201 -0.000154265 -9.86718e-07
-9.90917e-06 -9.86718e-07 -0.000552825
0.00202799 -0.0011105 2.0787e-05
-0.0011105 5.35018e-05 -1.5447e-06
2.0787e-05 -1.5447e-06 -0.000131403
0.00189267 -0.00133008 -1.2404e-06
-0.00133008 0.000135342 -5.00148e-06
-1.2404e-06 -5.00148e-06 -0.000220672
5.08256e-05 -0.000889098 1.66456e-05
-0.000889098 -0.000370695 -1.58676e-05
1.66456e-05 -1.58676e-05 -0.000645145
0.000979546 -0.000554854 2.46935e-05
-0.000554854 0.00105041 -2.69875e-05
2.46935e-05 -2.69875e-05 0.000293413
0.0018581 -0.00151615 -4.28578e-05
-0.00151615 -0.000623462 4.52357e-05
-4.28578e-05 4.52357e-05 -0.000594993
0.00233863 -0.00123618 -5.2929e-05
-0.00123618 0.000516222 2.65667e-05
-5.2929e-05 2.65667e-05 0.000339784
-0.000818796 -0.000583272 -4.87757e-05
-0.000583272 -0.000319916 3.11708e-05
-4.87757e-05 3.11708e-05 -0.000749377
-0.000901208 -7.3619e-05 -8.49647e-06
-7.3619e-05 -0.000613379 5.81377e-06
-8.49647e-06 5.81377e-06 -0.000890513
-0.00121832 1.10843e-05 -3.30959e-06
1.10843e-05 -0.000632619 1.76799e-05
-3.30959e-06 1.76799e-05 -0.00101399
0.000589799 -8.32023e-05 2.6021e-06
-8.32023e-05 0.000511945 4.7511e-07
2.6021e-06 4.7511e-07 0.0001144
-0.00274891 0.00155763 -0.00069602
0.00155763 0.00844385 2.05256e-05
-0.00069602 2.05256e-05 0.00137134
-0.000141653 -0.00239712 -1.97089e-05
-0.00239712 0.00429915 -4.94595e-05
-1.97089e-05 -4.94595e-05 0.00182648
0.00604723 0.000670528 -0.000154669
0.000670528 -0.00709604 -4.66917e-05
-0.000154669 -4.66917e-05 -0.00714155
0.00152124 0.000518438 1.97375e-05
0.000518438 0.000967505 -8.80557e-06
1.97375e-05 -8.80557e-06 0.000577268
0.00174503 0.000882001 2.18486e-05
0.000882001 0.000737151 2.97534e-05
2.18486e-05 2.97534e-05 0.000171714
0.00402128 0.00160417 9.75679e-05
0.00160417 0.000714797 4.46524e-05
9.75679e-05 4.46524e-05 0.000493356
0.00204723 0.00130481 3.05579e-05
0.00130481 0.000655792 3.10372e-05
3.05579e-05 3.10372e-05 8.23265e-06
0.0162762 -0.00581575 0.000369178
-0.00581575 0.00844022 0.00011262
0.000369178 0.00011262 0.00315375
0.0033534 0.0035194 -0.000640616
0.0035194 -0.00792862 -0.000144996
-0.000640616 -0.000144996 -0.00784656
0.00641608 0.00470391 2.88866e-05
0.00470391 0.000414388 1.88235e-05
2.88866e-05 1.88235e-05 0.00173676
0.00364431 0.00207488 0.000102851
0.00207488 0.00148649 1.59605e-05
0.000102851 1.59605e-05 0.00116283
0.0169147 -0.00459664 -0.000773502
-0.00459664 0.00741 -0.000230652
-0.000773502 -0.000230652 0.0002423
0.00376222 -0.00741687 -0.00150234
-0.00741687 0.0126055 -0.000253686
-0.00150234 -0.000253686 0.00350346
0.0374083 -0.00939458 0.00139301
-0.00939458 0.0130853 0.000505574
0.00139301 0.000505574 0.00535445
0.000355513 0.000419239 1.02237e-05
0.000419239 0.000171353 -6.30836e-06
1.02237e-05 -6.30836e-06 -0.000168219
-0.00169411 -0.000221683 -0.000167526
-0.000221683 0.0087419 -1.73199e-05
-0.000167526 -1.73199e-05 0.000519901
0.00831203 0.00282044 -0.000279875
0.00282044 0.00464684 -0.00020929
-0.000279875 -0.00020929 -0.0018179
0.00214589 0.00140503 1.37315e-05
0.00140503 0.000396502 4.79091e-06
1.37315e-05 4.79091e-06 0.000128743
0.00115024 0.00103411 1.46988e-05
0.00103411 0.000457538 8.71592e-06
1.46988e-05 8.71592e-06 -0.000118261
0.00122516 0.00170854 -0.00013183
0.00170854 0.000747515 -9.51172e-05
-0.00013183 -9.51172e-05 3.19005e-05
0.0032211 0.005091 8.56461e-05
0.005091 0.000540708 5.56828e-05
8.56461e-05 5.56828e-05 0.000787622
0.0126505 0.00803573 -2.72123e-05
0.00803573 0.000179804 -6.58354e-06
-2.72123e-05 -6.58354e-06 -0.00155166
0.0120429 -0.00552242 0.000131018
-0.00552242 0.00968336 -0.000159764
0.000131018 -0.000159764 0.000410624
0.0189862 -0.00216478 -6.65702e-05
-0.00216478 0.0031813 -5.90562e-05
-6.65702e-05 -5.90562e-05 0.00294386
0.00166084 0.000919376 -2.16896e-05
0.000919376 0.00091153 -1.19775e-05
-2.16896e-05 -1.19775e-05 0.000419477
0.00149134 0.000574582 -0.000592827
0.000574582 0.00361831 -0.00016481
-0.000592827 -0.00016481 -0.00330193
0.00260021 0.00167489 -0.000183345
0.00167489 0.000645304 -0.000212797
-0.000183345 -0.000212797 -0.00200007
-0.000964783 0.000580913 -7.12235e-06
0.000580913 -0.000158266 -3.15794e-05
-7.12235e-06 -3.15794e-05 -0.000591203
-0.00214322 0.00129548 -0.000172052
0.00129548 0.000756818 1.08067e-05
-0.000172052 1.08067e-05 -7.67604e-05
0.00911235 0.00767387 0.000296741
0.00767387 0.00386206 1.46157e-05
0.000296741 1.46157e-05 -0.00140507
0.00749296 -0.00685192 -1.87425e-05
-0.00685192 0.00259648 0.000239765
-1.87425e-05 0.000239765 -0.00503161
0.0163184 -0.000613478 8.7916e-05
-0.000613478 -0.000719457 -0.000349215
8.7916e-05 -0.000349215 0.000568804
0.00181706 0.000399825 7.60643e-06
0.000399825 0.00112591 2.65415e-05
7.60643e-06 2.65415e-05 0.000845611
0.000887776 0.000328294 -7.47535e-06
0.000328294 0.000672224 -5.70071e-06
-7.47535e-06 -5.70071e-06 0.000354389
-0.000533514 0.000193109 4.698e-06
0.000193109 3.67272e-06 -1.13519e-06
4.698e-06 -1.13519e-06 -0.000451756
0.000406536 8.30629e-05 2.86297e-07
8.30629e-05 5.94983e-05 4.43497e-08
2.86297e-07 4.43497e-08 -0.000127322
0.00134893 -2.52534e-05 -3.61462e-06
-2.52534e-05 0.000753317 5.84203e-06
-3.61462e-06 5.84203e-06 0.000505146
1.6443e-05 8.21095e-05 2.49782e-06
8.21095e-05 -0.000117263 6.41801e-06
2.49782e-06 6.41801e-06 -0.00030834
-0.000826145 0.000104511 -6.05028e-07
0.000104511 -0.000294959 6.08432e-07
-6.05028e-07 6.08432e-07 -0.000659687
0.000577769 -4.57281e-05 2.36492e-06
-4.57281e-05 0.0002346 6.04446e-07
2.36492e-06 6.04446e-07 1.59202e-05
0.000322916 6.62827e-05 5.5019e-07
6.62827e-05 0.000217027 -2.20694e-06
5.5019e-07 -2.20694e-06 -5.57524e-05
-2.43651e-05 2.69376e-05 -9.48428e-07
2.69376e-05 0.000402864 1.26101e-06
-9.48428e-07 1.26101e-06 -0.000131292
-0.000439827 6.16068e-05 8.05965e-07
6.16068e-05 0.000278031 9.16695e-06
8.05965e-07 9.16695e-06 -0.000307659
0.000495503 -2.11608e-05 2.50207e-06
-2.11608e-05 0.000649647 -4.82471e-06
2.50207e-06 -4.82471e-06 0.000161538
0.00151202 -1.22912e-06 -4.86759e-06
-1.22912e-06 0.000975542 3.90392e-06
-4.86759e-06 3.90392e-06 0.000700339
0.00092801 -0.00018896 4.6447e-06
-0.00018896 0.00046374 4.05726e-06
4.6447e-06 4.05726e-06 0.000261609
0.0003066 -0.000102936 -1.73061e-06
-0.000102936 -4.25961e-05 6.45969e-06
-1.73061e-06 6.45969e-06 -0.000183486
-0.000313358 -6.0956e-05 1.11035e-05
-6.0956e-05 -0.000325282 1.24104e-05
1.11035e-05 1.24104e-05 -0.000442279
0.000149226 -3.20733e-05 1.33519e-06
-3.20733e-05 8.45573e-05 1.26443e-06
1.33519e-06 1.26443e-06 -0.000148743
0.00053326 -4.79174e-05 9.61957e-07
-4.79174e-05 0.000197434 1.13e-06
9.61957e-07 1.13e-06 5.04512e-06
-2.59951e-05 -8.6351e-05 -4.30332e-06
-8.6351e-05 -8.30636e-05 3.05345e-07
-4.30332e-06 3.05345e-07 -0.000243859
0.000543235 -0.000117999 -3.38135e-06
-0.000117999 0.000235609 -8.30115e-06
-3.38135e-06 -8.30115e-06 8.14156e-05
0.000947089 -0.00011663 6.94232e-06
-0.00011663 0.000699096 -1.11661e-05
6.94232e-06 -1.11661e-05 0.000459435
0.00235391 -0.00042877 6.38985e-06
-0.00042877 0.00114789 4.91651e-06
6.38985e-06 4.91651e-06 0.00100426
0.000439856 -0.000159643 -2.5117e-05
-0.000159643 2.76266e-05 3.50855e-07
-2.5117e-05 3.50855e-07 -9.71196e-05
0.00102505 -0.000394514 8.83749e-06
-0.000394514 0.000307916 5.04626e-06
8.83749e-06 5.04626e-06 7.08116e-05
0.00282344 -0.000858608 -5.35467e-06
-0.000858608 0.00137582 1.82012e-05
-5.35467e-06 1.82012e-05 0.000887581
0.00271654 -0.000358303 1.29205e-05
-0.000358303 0.00136931 -7.73857e-06
1.29205e-05 -7.73857e-06 0.00113632
0.00192684 -0.000452283 3.17217e-07
-0.000452283 0.000888692 -6.97908e-06
3.17217e-07 -6.97908e-06 0.000636844
0.000278383 -0.000157469 -5.10596e-07
-0.000157469 4.68418e-05 1.3697e-09
-5.10596e-07 1.3697e-09 -0.000191941
-0.0013047 -9.71405e-05 1.95058e-06
-9.71405e-05 -0.000897416 -4.46657e-06
1.95058e-06 -4.46657e-06 -0.00122109
0.00161499 -5.94017e-05 2.78965e-06
-5.94017e-05 0.000931391 4.41015e-06
2.78965e-06 4.41015e-06 0.000688111
0.000723648 -0.00021175 2.51285e-06
-0.00021175 0.000326671 -1.54923e-06
2.51285e-06 -1.54923e-06 6.71665e-05
0.000304198 -8.09047e-05 4.10361e-06
-8.09047e-05 -4.40598e-05 -1.96658e-06
4.10361e-06 -1.96658e-06 -0.00022297
0.00187867 -0.000349691 -6.01677e-06
-0.000349691 0.00108046 -9.31869e-08
-6.01677e-06 -9.31869e-08 0.000849105
0.000599296 -0.000158959 -5.36047e-07
-0.000158959 0.000188395 -2.23138e-07
-5.36047e-07 -2.23138e-07 1.40983e-05
0.000287677 -1.77805e-05 2.03587e-06
-1.77805e-05 -7.02414e-05 5.38676e-06
2.03587e-06 5.38676e-06 -0.000178545
0.000941559 -0.000173399 -1.6521e-06
-0.000173399 0.000423434 -1.67357e-07
-1.6521e-06 -1.67357e-07 0.000251914
0.000594338 -8.12565e-05 -3.91717e-07
-8.12565e-05 0.000135375 -3.58348e-08
-3.91717e-07 -3.58348e-08 3.23643e-05
0.00145215 1.93137e-06 -1.47537e-05
1.93137e-06 0.000649975 8.97877e-06
-1.47537e-05 8.97877e-06 0.000620144
0.000489453 -8.20622e-05 5.90708e-07
-8.20622e-05 6.93664e-05 -4.67808e-06
5.90708e-07 -4.67808e-06 -2.95835e-05
0.000827244 -1.8567e-05 -1.35689e-05
-1.8567e-05 0.000250105 8.57039e-07
-1.35689e-05 8.57039e-07 0.000220211
0.000808096 1.88815e-05 2.39027e-06
1.88815e-05 0.000218345 3.19398e-06
2.39027e-06 3.19398e-06 0.000218006
0.000387504 -5.02462e-05 3.60508e-06
-5.02462e-05 -2.96745e-05 -5.85289e-06
3.60508e-06 -5.85289e-06 -6.10212e-05
0.00167596 1.52908e-05 1.60227e-05
1.52908e-05 0.00078732 -1.62256e-06
1.60227e-05 -1.62256e-06 0.000794909
0.00251617 2.63267e-06 2.08564e-05
2.63267e-06 0.00133552 -5.43879e-06
2.08564e-05 -5.43879e-06 0.00134802
0.000461794 8.35571e-05 4.31164e-07
8.35571e-05 5.67573e-05 -3.01993e-06
4.31164e-07 -3.01993e-06 -7.36156e-05
0.000545268 7.829e-05 -1.24556e-06
7.829e-05 9.68497e-05 -4.68865e-06
-1.24556e-06 -4.68865e-06 2.47121e-05
0.000536312 1.75264e-05 5.90627e-07
1.75264e-05 0.00012573 6.77168e-07
5.90627e-07 6.77168e-07 -1.88359e-07
0.000414528 9.43443e-06 2.41177e-06
9.43443e-06 -3.48205e-05 -4.77978e-06
2.41177e-06 -4.77978e-06 -4.84656e-05
0.000436899 6.56947e-05 2.10606e-08
6.56947e-05 2.33147e-05 -2.22473e-07
2.10606e-08 -2.22473e-07 -3.88161e-05
0.000401725 -0.000119933 -2.82241e-06
-0.000119933 3.13358e-05 3.87944e-06
-2.82241e-06 3.87944e-06 -8.21376e-05
0.00203898 1.42176e-05 -1.06081e-05
1.42176e-05 0.00102112 -5.24989e-06
-1.06081e-05 -5.24989e-06 0.00103751
0.000405836 8.52885e-06 -3.57399e-07
8.52885e-06 -4.02911e-05 8.93882e-09
-3.57399e-07 8.93882e-09 -5.28535e-05
0.000471683 3.75632e-06 -7.11378e-07
3.75632e-06 3.2358e-05 3.93121e-06
-7.11378e-07 3.93121e-06 -1.87353e-05
0.000421385 5.67581e-07 -2.27955e-06
5.67581e-07 -3.19442e-05 4.35363e-06
-2.27955e-06 4.35363e-06 -4.51928e-05
0.00206293 2.99737e-05 -5.94929e-06
2.99737e-05 0.0010388 -1.65626e-07
-5.94929e-06 -1.65626e-07 0.00105374
0.00209409 4.59138e-05 2.74236e-07
4.59138e-05 0.00106196 5.38531e-06
2.74236e-07 5.38531e-06 0.00107487
-0.00206963 -0.00206269 -0.000373339
-0.00206269 0.00919789 7.49898e-05
-0.000373339 7.49898e-05 0.00373987
0.00562792 0.00346045 -0.000467125
0.00346045 0.00310815 0.000150661
-0.000467125 0.000150661 -0.0017989
0.00324547 -0.00134593 -0.000645922
-0.00134593 0.00151795 0.000320302
-0.000645922 0.000320302 -0.00374409
0.00643344 0.00379273 0.00164388
0.00379273 0.0107452 -0.00026325
0.00164388 -0.00026325 0.00286709
0.00524881 0.00107128 -1.92918e-05
0.00107128 -0.000726716 -1.64633e-05
-1.92918e-05 -1.64633e-05 0.000999794
0.00352382 -0.000778274 0.000113197
-0.000778274 -0.000555307 2.63629e-05
0.000113197 2.63629e-05 3.46104e-05
0.0025398 -0.00061198 0.000485592
-0.00061198 -0.00807964 -3.49519e-05
0.000485592 -3.49519e-05 -0.00782166
0.02547 0.00628441 -0.0018728
0.00628441 0.0124773 -2.7653e-05
-0.0018728 -2.7653e-05 0.0060876
0.0215752 0.0181954 -0.00329712
0.0181954 0.0153387 0.00190633
-0.00329712 0.00190633 0.00493386
0.00543743 -0.00127959 6.77437e-05
-0.00127959 -0.00168063 3.20766e-06
6.77437e-05 3.20766e-06 0.000283203
0.00794291 -0.00451773 0.000259614
-0.00451773 -0.00533335 -0.000218554
0.000259614 -0.000218554 -0.00585721
0.0271174 0.00861198 -0.000480953
0.00861198 0.0113072 -0.000194525
-0.000480953 -0.000194525 0.00277357
0.0222807 0.00576885 0.000271216
0.00576885 0.00902759 0.000525743
0.000271216 0.000525743 0.0032941
0.0021642 -0.00295347 -0.000110487
-0.00295347 -0.00443872 6.51748e-05
-0.000110487 6.51748e-05 -0.00157179
0.00513902 -0.00719337 0.000810178
-0.00719337 -0.00202402 -0.00029227
0.000810178 -0.00029227 -0.00408601
0.0161954 0.00409868 -0.000273634
0.00409868 0.00668593 -0.00115967
-0.000273634 -0.00115967 -0.00182885
0.0106382 -0.000625412 -0.000428601
-0.000625412 -1.35197e-05 4.9773e-05
-0.000428601 4.9773e-05 -0.000901703
0.00208564 -4.84082e-05 -2.04827e-06
-4.84082e-05 0.00125997 1.51356e-05
-2.04827e-06 1.51356e-05 0.000957268
0.000190239 6.28005e-05 -1.40464e-06
6.28005e-05 -3.3683e-05 -2.28918e-06
-1.40464e-06 -2.28918e-06 -0.000197326
0.00054272 0.000119188 4.48233e-06
0.000119188 0.000127359 2.13833e-06
4.48233e-06 2.13833e-06 1.06881e-05
-0.000334856 -6.75243e-05 3.15082e-06
-6.75243e-05 -0.000415317 1.25396e-06
3.15082e-06 1.25396e-06 -0.000474608
0.000373974 0.000162247 9.69307e-07
0.000162247 2.97934e-05 8.9946e-06
9.69307e-07 8.9946e-06 -0.000171613
0.000526473 8.70165e-05 -3.22275e-07
8.70165e-05 0.000163028 7.6446e-07
-3.22275e-07 7.6446e-07 -2.22347e-05
-6.08913e-05 7.47249e-06 2.83466e-06
7.47249e-06 -0.000227005 8.12754e-07
2.83466e-06 8.12754e-07 -0.000361642
0.000943479 0.000200758 5.79098e-06
0.000200758 0.000426767 1.02459e-05
5.79098e-06 1.02459e-05 0.000215841
0.000973372 0.000186493 4.1363e-08
0.000186493 0.000456338 -4.2621e-07
4.1363e-08 -4.2621e-07 0.000243631
0.000325888 1.57209e-05 -2.0254e-06
1.57209e-05 1.26446e-05 -2.05563e-06
-2.0254e-06 -2.05563e-06 -0.000149595
0.000903415 -0.000782694 0.000116853
-0.000782694 -0.00162524 -6.56931e-05
0.000116853 -6.56931e-05 -0.000942832
0.000482721 -0.000925289 1.01946e-05
-0.000925289 -0.000843131 -1.13872e-05
1.01946e-05 -1.13872e-05 -0.000890011
0.00185658 -0.00130595 1.13015e-05
-0.00130595 0.00010478 1.09632e-05
1.13015e-05 1.09632e-05 -0.000197248
-0.000904607 -0.00088466 7.83195e-06
-0.00088466 -0.000919963 -1.38657e-05
7.83195e-06 -1.38657e-05 -0.00124249
0.00426263 -0.000734496 -6.18775e-05
-0.000734496 0.0027908 7.03884e-05
-6.18775e-05 7.03884e-05 0.00224542
0.000596687 -0.000291565 -8.53575e-07
-0.000291565 0.000494603 -6.89659e-06
-8.53575e-07 -6.89659e-06 8.53095e-05
0.000448199 6.03513e-05 3.04293e-06
6.03513e-05 0.000262133 -1.17544e-05
3.04293e-06 -1.17544e-05 -4.74487e-05
0.000655545 2.98271e-06 -5.89935e-06
2.98271e-06 0.000357807 5.15788e-06
-5.89935e-06 5.15788e-06 5.21865e-05
0.00300384 -0.00153346 -2.80117e-05
-0.00153346 -3.803e-05 1.94732e-06
-2.80117e-05 1.94732e-06 0.000145053
0.000599323 -4.04965e-05 1.30434e-06
-4.04965e-05 0.000430977 3.69816e-06
1.30434e-06 3.69816e-06 8.11381e-05
0.00249239 -0.000482283 9.92302e-06
-0.000482283 0.00164153 -5.50915e-06
9.92302e-06 -5.50915e-06 0.00122912
0.00172091 -0.00117682 2.26742e-05
-0.00117682 0.00016292 -4.88658e-06
2.26742e-05 -4.88658e-06 -2.05559e-05
0.00030538 -0.000716909 -2.92985e-05
-0.000716909 0.000234323 9.79884e-06
-2.92985e-05 9.79884e-06 -0.000153109
0.00277905 -0.00255154 5.844e-05
-0.00255154 0.000419908 -2.748e-05
5.844e-05 -2.748e-05 -0.00012227
0.00180456 -0.000873586 -2.53522e-05
-0.000873586 0.000961201 3.08623e-05
-2.53522e-05 3.08623e-05 0.000683218
-0.00168404 -0.000176672 6.75429e-06
-0.000176672 -0.000581669 4.31997e-06
6.75429e-06 4.31997e-06 -0.00115513
0.000108201 0.000104348 2.1878e-06
0.000104348 3.63049e-05 3.30605e-06
2.1878e-06 3.30605e-06 -0.000170475
-0.000149912 -0.000197292 -1.57824e-06
-0.000197292 7.68371e-05 2.40403e-05
-1.57824e-06 2.40403e-05 -0.000321995
0.00211446 0.000354022 -0.000135833
0.000354022 0.00249437 -4.68579e-05
-0.000135833 -4.68579e-05 -0.00279063
-0.00782926 0.000372742 -0.000717658
0.000372742 0.00767561 -1.27146e-05
-0.000717658 -1.27146e-05 0.00141593
-0.0131799 -0.00416493 -0.00132411
-0.00416493 -0.00333286 7.54984e-06
-0.00132411 7.54984e-06 -0.00694458
0.000643629 0.000495864 2.07152e-05
0.000495864 0.000431473 5.31106e-07
2.07152e-05 5.31106e-07 3.23765e-05
-0.000118777 0.000861949 3.38429e-06
0.000861949 -0.000162749 1.00835e-05
3.38429e-06 1.00835e-05 -0.000725696
0.00311392 0.00166015 6.28073e-05
0.00166015 0.000939401 5.47844e-05
6.28073e-05 5.47844e-05 0.000564779
-0.00286478 0.00216957 0.000185407
0.00216957 0.0098276 7.75485e-05
0.000185407 7.75485e-05 0.00365369
0.00497411 0.00718653 -0.000715272
0.00718653 -0.00242765 -0.000229503
-0.000715272 -0.000229503 -0.00418556
0.000113786 0.00345001 0.000528468
0.00345001 -0.000641763 0.000226182
0.000528468 0.000226182 -0.00029085
0.000205663 0.00155866 -9.0204e-06
0.00155866 0.000178968 -4.16879e-05
-9.0204e-06 -4.16879e-05 -0.000145759
0.0324693 -0.00516631 8.16498e-05
-0.00516631 0.0132222 -0.000578237
8.16498e-05 -0.000578237 0.00565277
0.00897826 0.00356511 0.001079
0.00356511 0.00424903 0.000352283
0.001079 0.000352283 -0.00292404
0.014043 -0.00112308 0.000153224
-0.00112308 0.00292215 6.90397e-05
0.000153224 6.90397e-05 0.00379659
0.0017201 0.00090719 1.29274e-05
0.00090719 0.000994569 -5.31162e-07
1.29274e-05 -5.31162e-07 0.000515838
0.00401228 0.00151035 -8.29602e-05
0.00151035 0.0046655 -8.19585e-06
-8.29602e-05 -8.19585e-06 -0.000912469
0.00270353 0.00128469 0.000140668
0.00128469 0.00103371 -1.78172e-05
0.000140668 -1.78172e-05 -0.00141063
2.31995e-05 0.000946054 -1.18067e-05
0.000946054 0.000263298 -6.78007e-06
-1.18067e-05 -6.78007e-06 -0.000297946
-0.000957079 0.00229776 -0.000148399
0.00229776 0.000379651 -9.33176e-05
-0.000148399 -9.33176e-05 -0.00103876
0.00251022 0.00790963 0.000430129
0.00790963 0.00158593 0.000140902
0.000430129 0.000140902 -0.00313015
0.0130402 -0.000557365 1.69087e-05
-0.000557365 -0.00276548 -0.000230348
1.69087e-05 -0.000230348 -0.00111145
0.00978126 -0.00320581 -0.000144501
-0.00320581 0.00567354 -0.000243335
-0.000144501 -0.000243335 -0.00176646
0.00134037 0.000789552 -6.49424e-06
0.000789552 0.0011544 -1.26017e-05
-6.49424e-06 -1.26017e-05 0.000556516
-0.004193 0.000899311 6.05442e-05
0.000899311 0.00139216 7.55588e-05
6.05442e-05 7.55588e-05 -0.000960557
0.00789642 -0.0011065 0.000305399
-0.0011065 0.000365164 -0.000109733
0.000305399 -0.000109733 -0.00167219
0.0104458 -0.000457429 0.000386952
-0.000457429 -0.000111166 -1.47415e-05
0.000386952 -1.47415e-05 -0.000733946
-0.00301488 0.000452098 6.6916e-05
0.000452098 0.000362849 -1.41438e-05
6.6916e-05 -1.41438e-05 -0.000794228
0.00805217 0.00436817 0.00044048
0.00436817 0.00573851 0.000212628
0.00044048 0.000212628 -0.00142884
0.00751109 -0.000568877 -3.01359e-05
-0.000568877 0.00331347 0.000409587
-3.01359e-05 0.000409587 -0.00136517
0.00309285 0.000567466 2.38772e-05
0.000567466 0.0020254 1.28103e-05
2.38772e-05 1.28103e-05 0.00165789
0.000352868 0.000336622 -9.28735e-06
0.000336622 0.000533431 -2.18764e-06
-9.28735e-06 -2.18764e-06 2.91575e-05
0.000536005 0.000359898 8.25506e-07
0.000359898 0.000780264 -1.60162e-05
8.25506e-07 -1.60162e-05 8.63343e-05
-7.35343e-05 8.41642e-05 3.09056e-06
8.41642e-05 -0.000182937 -3.46649e-06
3.09056e-06 -3.46649e-06 -0.000394684
0.000443079 0.000122004 -1.27967e-06
0.000122004 0.000283153 -2.03202e-07
-1.27967e-06 -2.03202e-07 2.47018e-05
-0.000151261 3.34154e-05 3.8664e-08
3.34154e-05 0.000394288 -6.16602e-06
3.8664e-08 -6.16602e-06 -0.000181031
0.000298977 1.78899e-05 -3.75303e-07
1.78899e-05 0.000183017 -6.39558e-07
-3.75303e-07 -6.39558e-07 -6.67673e-05
0.000753268 -9.79953e-05 7.23661e-07
-9.79953e-05 0.000840771 -2.6173e-06
7.23661e-07 -2.6173e-06 0.000334746
-0.000119391 3.46839e-05 3.69386e-06
3.46839e-05 0.0004978 7.85262e-07
3.69386e-06 7.85262e-07 -9.98126e-05
7.79917e-05 -9.00209e-05 -5.01441e-06
-9.00209e-05 0.000552436 1.64391e-05
-5.01441e-06 1.64391e-05 3.98004e-05
0.000998164 -8.55821e-05 2.07668e-06
-8.55821e-05 0.000872347 -1.51432e-05
2.07668e-06 -1.51432e-05 0.000500928
-0.000188931 -3.09423e-05 6.92252e-06
-3.09423e-05 -0.000165469 5.6121e-06
6.92252e-06 5.6121e-06 -0.000368284
0.00173077 -8.64778e-05 5.7316e-07
-8.64778e-05 0.000913896 6.88661e-06
5.7316e-07 6.88661e-06 0.000733371
-8.7675e-05 -6.61028e-05 -6.94005e-06
-6.61028e-05 -8.67944e-05 9.33852e-06
-6.94005e-06 9.33852e-06 -0.000264896
0.000534826 -8.54505e-05 8.74737e-07
-8.54505e-05 0.000430827 7.40541e-07
8.74737e-07 7.40541e-07 0.000201544
-0.000159882 -5.3444e-05 -2.13018e-06
-5.3444e-05 -0.000182996 -2.05618e-06
-2.13018e-06 -2.05618e-06 -0.000338323
0.00115419 -0.000345685 1.20553e-07
-0.000345685 0.00056954 2.77621e-06
1.20553e-07 2.77621e-06 0.00039367
0.000536531 -0.000251432 -2.49804e-05
-0.000251432 0.000131106 1.13097e-07
-2.49804e-05 1.13097e-07 5.12989e-05
-0.000633687 -0.000348496 1.49701e-05
-0.000348496 -0.000517109 2.16127e-05
1.49701e-05 2.16127e-05 -0.000898506
-4.0197e-05 -0.000141411 2.20624e-06
-0.000141411 -0.000250764 1.98105e-06
2.20624e-06 1.98105e-06 -0.000372887
0.00116959 -0.000407359 -5.28854e-06
-0.000407359 0.000388106 9.16181e-06
-5.28854e-06 9.16181e-06 0.000143043
0.00234525 -0.000821754 -7.38811e-06
-0.000821754 0.00104474 1.09211e-05
-7.38811e-06 1.09211e-05 0.000528554
0.00209789 -0.000867413 -2.2835e-06
-0.000867413 0.000807219 -2.14366e-06
-2.2835e-06 -2.14366e-06 0.000241849
0.00206076 -0.000540828 6.56663e-06
-0.000540828 0.000921804 8.36356e-07
6.56663e-06 8.36356e-07 0.000584119
0.000767238 -0.000563172 1.10696e-05
-0.000563172 9.99397e-05 -3.50007e-06
1.10696e-05 -3.50007e-06 -0.000303448
0.00123929 -0.000251795 3.01562e-06
-0.000251795 0.00060276 -4.53608e-06
3.01562e-06 -4.53608e-06 0.000263949
0.00109284 -0.000261045 -7.77764e-06
-0.000261045 0.000405332 1.56537e-06
-7.77764e-06 1.56537e-06 0.000160094
-0.000248407 -0.000228197 1.87753e-05
-0.000228197 -0.00046527 -1.20773e-05
1.87753e-05 -1.20773e-05 -0.000645082
0.00143127 -0.000176633 -4.55565e-06
-0.000176633 0.000749604 4.74535e-06
-4.55565e-06 4.74535e-06 0.000502809
-0.000145588 -0.000162037 7.46429e-07
-0.000162037 -0.000190173 7.19826e-07
7.46429e-07 7.19826e-07 -0.000508335
-0.000250002 -4.38453e-05 2.69713e-06
-4.38453e-05 -0.00035769 -2.45246e-06
2.69713e-06 -2.45246e-06 -0.000608725
0.00228852 -0.000474612 -4.85028e-06
-0.000474612 0.00130243 1.37182e-06
-4.85028e-06 1.37182e-06 0.00103299
0.000881264 -0.000201728 -2.91003e-07
-0.000201728 0.000347196 -1.64628e-07
-2.91003e-07 -1.64628e-07 0.000145079
0.000315349 -2.67367e-05 5.39267e-06
-2.67367e-05 -4.68832e-05 7.88226e-06
5.39267e-06 7.88226e-06 -0.000184269
0.000927908 -0.000234389 -2.36312e-06
-0.000234389 0.000417519 2.90406e-07
-2.36312e-06 2.90406e-07 0.000227875
0.000426865 -1.39596e-05 -2.55193e-06
-1.39596e-05 3.61842e-05 -5.63971e-07
-2.55193e-06 -5.63971e-07 -8.6106e-05
0.00149762 -1.9409e-05 -2.3092e-05
-1.9409e-05 0.000679313 7.25501e-06
-2.3092e-05 7.25501e-06 0.000645887
0.000645594 -9.37889e-05 1.18625e-07
-9.37889e-05 0.000176337 -4.84291e-06
1.18625e-07 -4.84291e-06 6.73671e-05
0.000843577 -2.23664e-05 -1.25779e-05
-2.23664e-05 0.000254973 6.60694e-07
-1.25779e-05 6.60694e-07 0.000222415
0.000845444 2.9455e-05 1.90675e-06
2.9455e-05 0.000239044 3.70023e-06
1.90675e-06 3.70023e-06 0.000235186
0.000408867 -4.79949e-05 3.63306e-06
-4.79949e-05 -2.13185e-05 -6.96416e-06
3.63306e-06 -6.96416e-06 -5.55323e-05
0.00178369 2.73914e-05 1.93882e-05
2.73914e-05 0.00085468 -1.36527e-06
1.93882e-05 -1.36527e-06 0.000860634
0.00258481 1.53355e-05 2.61789e-05
1.53355e-05 0.001377 -5.80145e-06
2.61789e-05 -5.80145e-06 0.00138936
0.000128765 3.73493e-05 4.19607e-07
3.73493e-05 -0.000145366 2.68938e-06
4.19607e-07 2.68938e-06 -0.000305171
-2.3258e-05 2.69648e-05 -1.08342e-07
2.69648e-05 -0.000281188 -6.40994e-06
-1.08342e-07 -6.40994e-06 -0.000362464
0.000530957 8.56139e-05 -3.91925e-07
8.56139e-05 0.000114486 6.40479e-07
-3.91925e-07 6.40479e-07 -2.59393e-05
0.000423671 1.52023e-05 1.65278e-06
1.52023e-05 -2.89166e-05 -5.21268e-06
1.65278e-06 -5.21268e-06 -4.60352e-05
0.000286242 8.13753e-06 1.70505e-06
8.13753e-06 -8.30619e-05 5.46186e-08
1.70505e-06 5.46186e-08 -0.000150597
0.000174448 -0.000103488 2.61234e-07
-0.000103488 -0.000113095 3.2937e-06
2.61234e-07 3.2937e-06 -0.000238263
0.00208964 -2.29842e-07 -1.47455e-05
-2.29842e-07 0.00105313 -5.40053e-06
-1.47455e-05 -5.40053e-06 0.00106956
0.000405778 8.1932e-06 3.48602e-07
8.1932e-06 -4.08759e-05 -8.0171e-08
3.48602e-07 -8.0171e-08 -5.42551e-05
0.000385861 -1.10598e-05 -3.63975e-06
-1.10598e-05 -1.76582e-05 4.27518e-06
-3.63975e-06 4.27518e-06 -7.54144e-05
0.00207298 1.54257e-05 -5.12196e-06
1.54257e-05 0.00104373 -2.44564e-08
-5.12196e-06 -2.44564e-08 0.00105977
0.00040578 5.096e-06 -2.04541e-06
5.096e-06 -4.01785e-05 4.18752e-06
-2.04541e-06 4.18752e-06 -5.27388e-05
0.00205641 3.10594e-05 5.87251e-06
3.10594e-05 0.00103465 5.49998e-06
5.87251e-06 5.49998e-06 0.00104939
-0.000963012 -0.00174663 -0.000371216
-0.00174663 -0.000185193 0.000159083
-0.000371216 0.000159083 -0.00473162
0.00474304 0.00227805 -0.000278332
0.00227805 0.0115372 7.0884e-05
-0.000278332 7.0884e-05 0.00445609
0.00593828 0.00115045 -0.00164357
0.00115045 0.00552049 0.000350278
-0.00164357 0.000350278 0.00273725
0.00068192 0.000143721 9.63294e-06
0.000143721 0.000243378 9.6924e-06
9.63294e-06 9.6924e-06 5.22904e-05
0.00675023 -0.00153477 -0.000228102
-0.00153477 0.00446577 0.000348238
-0.000228102 0.000348238 0.00134571
0.00467363 -0.00171808 -0.000334704
-0.00171808 0.00242995 3.99906e-05
-0.000334704 3.99906e-05 -0.00291709
0.0209964 0.00866356 0.000225323
0.00866356 0.0128713 -0.000564281
0.000225323 -0.000564281 0.00384543
0.00767772 -0.00195056 0.000171465
-0.00195056 -0.000705668 -1.93469e-05
0.000171465 -1.93469e-05 0.00076912
0.0150749 -0.00420422 0.000397254
-0.00420422 -0.0005395 -0.000268804
0.000397254 -0.000268804 0.000292083
0.018807 0.00665299 -0.00106293
0.00665299 0.00587335 0.000393954
-0.00106293 0.000393954 -0.00217697
0.0168874 0.00500582 0.000301492
0.00500582 0.0104336 0.000304281
0.000301492 0.000304281 0.0058755
0.0077733 -0.00374552 -9.51552e-05
-0.00374552 -0.00103446 -6.02025e-06
-9.51552e-05 -6.02025e-06 0.00070447
0.0122971 -0.00755284 1.46068e-06
-0.00755284 0.000513429 -5.29878e-05
1.46068e-06 -5.29878e-05 -0.00149522
0.0123605 0.00264219 0.000131039
0.00264219 0.00817351 -0.000482709
0.000131039 -0.000482709 0.00045351
0.0162071 0.00138433 -1.70761e-05
0.00138433 0.00226204 7.57987e-05
-1.70761e-05 7.57987e-05 0.000102669
0.00404069 -0.00418493 -3.13173e-05
-0.00418493 0.000605906 5.95877e-05
-3.13173e-05 5.95877e-05 0.00150474
0.0110537 -0.00736408 0.000317214
-0.00736408 0.00485349 -0.000200098
0.000317214 -0.000200098 0.000936594
0.00794117 0.000134349 -9.68916e-06
0.000134349 0.00643068 -0.000527077
-9.68916e-06 -0.000527077 0.00113167
0.0157889 -0.000480267 -0.000242216
-0.000480267 -8.02374e-05 0.00032468
-0.000242216 0.00032468 0.000656022
0.000256588 0.000170784 1.0412e-05
0.000170784 5.07976e-05 1.48635e-05
1.0412e-05 1.48635e-05 -0.000164327
0.000432596 -9.60648e-05 3.69892e-07
-9.60648e-05 0.000183256 -8.14323e-07
3.69892e-07 -8.14323e-07 -7.6628e-05
0.000183419 4.81759e-05 6.781e-06
4.81759e-05 -5.2674e-05 5.92807e-07
6.781e-06 5.92807e-07 -0.000202621
0.000633343 0.000200621 5.73071e-06
0.000200621 0.000138494 2.10451e-05
5.73071e-06 2.10451e-05 -2.24273e-05
0.000923885 0.000264501 -7.06052e-07
0.000264501 0.000419286 -1.35457e-06
-7.06052e-07 -1.35457e-06 0.000192161
0.000996555 0.000149828 5.82797e-07
0.000149828 0.000487743 -1.80009e-06
5.82797e-07 -1.80009e-06 0.000292607
0.00112702 0.000220406 -2.03862e-06
0.000220406 0.000546364 -3.42914e-07
-2.03862e-06 -3.42914e-07 0.000330581
0.00112387 0.00025403 3.49036e-06
0.00025403 0.000571533 2.66236e-06
3.49036e-06 2.66236e-06 0.000344646
0.00159131 -0.00126345 0.000155475
-0.00126345 -0.000876265 -9.54431e-05
0.000155475 -9.54431e-05 -0.000407041
-0.000321515 -0.000944307 -2.03565e-05
-0.000944307 -0.00100996 -1.5473e-05
-2.03565e-05 -1.5473e-05 -0.00108227
2.30095e-05 -0.000105146 3.904e-06
-0.000105146 -5.68747e-05 -2.48832e-05
3.904e-06 -2.48832e-05 -0.000342861
0.00186201 -0.000888212 3.83312e-05
-0.000888212 0.00109211 -2.37499e-05
3.83312e-05 -2.37499e-05 0.000693859
0.00313452 -0.000716422 -2.78369e-05
-0.000716422 0.00193942 1.35005e-05
-2.78369e-05 1.35005e-05 0.00153638
0.0017465 -0.000192459 1.46451e-05
-0.000192459 0.00113878 -2.68392e-05
1.46451e-05 -2.68392e-05 0.000762071
-2.02176e-05 9.20128e-05 2.19856e-06
9.20128e-05 -4.83755e-05 1.16299e-05
2.19856e-06 1.16299e-05 -0.000281984
0.00096703 -0.00215604 -1.86829e-05
-0.00215604 -0.000372357 -4.36933e-06
-1.86829e-05 -4.36933e-06 -0.000775966
0.00144069 -0.00014321 -3.36449e-06
-0.00014321 0.0010601 -1.31743e-06
-3.36449e-06 -1.31743e-06 0.000649398
-0.000513951 -0.000273379 -1.11261e-05
-0.000273379 -8.29776e-06 9.59714e-06
-1.11261e-05 9.59714e-06 -0.000530039
-0.000791124 -0.000633553 2.91238e-05
-0.000633553 -0.000599053 -3.71526e-06
2.91238e-05 -3.71526e-06 -0.000674018
0.0004773 0.00010158 8.09965e-06
0.00010158 0.000293394 1.41851e-06
8.09965e-06 1.41851e-06 9.35032e-05
0.000370101 -0.00215619 -9.94609e-05
-0.00215619 0.000534509 -2.28999e-05
-9.94609e-05 -2.28999e-05 -0.000319932
-0.000434273 -0.000629195 -2.99341e-05
-0.000629195 6.76086e-05 1.67157e-05
-2.99341e-05 1.67157e-05 -0.000427508
0.000353885 0.000170646 2.38276e-06
0.000170646 0.000609395 -5.63235e-06
2.38276e-06 -5.63235e-06 5.22873e-05
0.00160826 0.000259138 8.46736e-08
0.000259138 0.00137136 1.42211e-05
8.46736e-08 1.42211e-05 0.000822554
-0.000416758 5.39663e-05 0.000280365
5.39663e-05 0.00395412 7.11154e-05
0.000280365 7.11154e-05 0.00135883
-8.68726e-05 7.02478e-05 0.000223243
7.02478e-05 0.00136341 -3.42104e-05
0.000223243 -3.42104e-05 -0.00419281
-0.0145722 -0.0005944 -0.000613478
-0.0005944 0.00675719 2.69429e-05
-0.000613478 2.69429e-05 0.000958043
0.00154445 0.000838637 2.12264e-05
0.000838637 0.000968527 4.94845e-07
2.12264e-05 4.94845e-07 0.000523538
-0.00057562 0.00117929 1.96011e-05
0.00117929 -4.67796e-05 1.428e-05
1.96011e-05 1.428e-05 -0.000769959
0.00599277 0.00203677 0.000634794
0.00203677 0.00497751 0.000160494
0.000634794 0.000160494 0.000550879
0.00624035 0.00564936 0.000253536
0.00564936 0.00343481 0.000224222
0.000253536 0.000224222 -0.000552236
0.00210146 0.00369835 -0.000166961
0.00369835 0.00159016 -0.000171523
-0.000166961 -0.000171523 -0.000200007
0.00557974 -0.00211623 -0.000161238
-0.00211623 0.0058959 -0.000545672
-0.000161238 -0.000545672 0.000323022
0.00373566 0.000703532 0.000136664
0.000703532 0.00141917 0.000152456
0.000136664 0.000152456 -0.000989158
0.0101946 -0.000262278 -4.5621e-05
-0.000262278 -0.00485012 -0.000276204
-4.5621e-05 -0.000276204 -0.00302655
0.000773606 0.000838769 5.19558e-06
0.000838769 0.000758803 -1.14586e-06
5.19558e-06 -1.14586e-06 0.000119288
-0.00307325 0.000505275 2.71514e-06
0.000505275 0.00167142 8.73423e-06
2.71514e-06 8.73423e-06 -0.00088378
0.00652794 -0.000504246 0.000216341
-0.000504246 0.000282965 1.16638e-05
0.000216341 1.16638e-05 -0.00158802
-0.00188428 0.000940148 -2.37387e-05
0.000940148 0.000127514 -1.36622e-05
-2.37387e-05 -1.36622e-05 -0.000987355
0.0166692 0.00172245 2.01872e-05
0.00172245 0.0021809 -8.20697e-05
2.01872e-05 -8.20697e-05 3.89198e-05
0.00445355 0.00298852 0.00036122
0.00298852 0.00568479 0.000224538
0.00036122 0.000224538 -0.00107295
0.0133744 0.000636937 -0.000209608
0.000636937 0.0050641 2.11943e-06
-0.000209608 2.11943e-06 8.92835e-05
0.00122741 0.000903064 -6.77076e-06
0.000903064 0.00117152 -2.41736e-05
-6.77076e-06 -2.41736e-05 0.000341169
0.00330535 -3.32698e-05 2.78565e-05
-3.32698e-05 0.0019734 2.83993e-05
2.78565e-05 2.83993e-05 1.45564e-05
0.00399255 -0.00272671 0.000274418
-0.00272671 0.0041488 -0.000288098
0.000274418 -0.000288098 0.0014826
0.0315898 0.00727129 0.00046126
0.00727129 0.0124976 -0.000379285
0.00046126 -0.000379285 0.00615435
0.00981067 -0.00039109 -0.000133099
-0.00039109 0.00741904 0.000618987
-0.000133099 0.000618987 0.0020531
-0.00177866 0.000886181 -0.000161108
0.000886181 0.000828677 -0.000129795
-0.000161108 -0.000129795 -0.000351445
0.00203899 0.000889703 0.000227153
0.000889703 0.00607443 1.89903e-05
0.000227153 1.89903e-05 -0.00375608
0.00133253 0.000515421 1.04778e-05
0.000515421 0.00107737 1.09965e-05
1.04778e-05 1.09965e-05 0.000538216
0.000648705 0.000361743 9.17421e-06
0.000361743 0.000901359 8.60671e-06
9.17421e-06 8.60671e-06 0.000248119
0.000465343 -0.000109717 -9.38207e-06
-0.000109717 0.00114783 1.92275e-05
-9.38207e-06 1.92275e-05 0.00051995
-0.00100456 -1.55936e-05 4.65918e-06
-1.55936e-05 -0.000648974 -4.64542e-06
4.65918e-06 -4.64542e-06 -0.000891866
-0.000697541 -2.17351e-06 2.38203e-06
-2.17351e-06 1.65304e-05 3.4934e-06
2.38203e-06 3.4934e-06 -0.000544481
4.8323e-05 3.83621e-05 -6.92681e-06
3.83621e-05 0.00064362 -8.05702e-06
-6.92681e-06 -8.05702e-06 1.17909e-05
-0.000222937 -6.81673e-06 -1.05603e-06
-6.81673e-06 8.29099e-05 4.05969e-07
-1.05603e-06 4.05969e-07 -0.000256602
-8.50332e-05 -7.9966e-05 3.04917e-06
-7.9966e-05 0.000445448 2.60106e-06
3.04917e-06 2.60106e-06 -7.19063e-05
0.00234509 -0.000553901 1.04332e-05
-0.000553901 0.00153933 -1.38608e-05
1.04332e-05 -1.38608e-05 0.00116885
-9.07495e-05 -4.83389e-05 -1.92527e-06
-4.83389e-05 4.04986e-05 8.93822e-06
-1.92527e-06 8.93822e-06 -0.000184885
-0.00114415 -1.5449e-07 2.50494e-06
-1.5449e-07 -0.000770132 4.21163e-06
2.50494e-06 4.21163e-06 -0.000924892
0.00105793 -0.000376034 -2.7674e-06
-0.000376034 0.00053286 5.89487e-06
-2.7674e-06 5.89487e-06 0.000307625
-0.0041203 4.66516e-05 2.73055e-05
4.66516e-05 -0.00233119 2.25317e-05
2.73055e-05 2.25317e-05 -0.00273323
-0.00119754 -9.84404e-05 3.36234e-05
-9.84404e-05 -0.000850486 -6.28726e-06
3.36234e-05 -6.28726e-06 -0.000877276
-3.70248e-07 -0.000420922 -1.05587e-05
-0.000420922 -0.000198263 -4.29014e-06
-1.05587e-05 -4.29014e-06 -0.000540396
0.00162222 -0.000822014 -9.63145e-07
-0.000822014 0.00058964 -2.52555e-06
-9.63145e-07 -2.52555e-06 -7.6267e-05
0.00198927 -0.000990849 -1.12627e-05
-0.000990849 0.000674187 1.69484e-06
-1.12627e-05 1.69484e-06 3.28979e-05
0.00125914 -0.000412322 3.34198e-06
-0.000412322 0.000422692 -4.95149e-06
3.34198e-06 -4.95149e-06 0.000174496
0.0015516 -0.000718905 1.42015e-06
-0.000718905 0.00055088 1.13998e-06
1.42015e-06 1.13998e-06 5.43481e-05
0.001798 -0.000886428 6.27762e-06
-0.000886428 0.000547934 -6.80108e-06
6.27762e-06 -6.80108e-06 -2.48252e-05
0.00208162 -0.000697137 3.57306e-06
-0.000697137 0.000898104 2.55919e-06
3.57306e-06 2.55919e-06 0.000420588
0.00114823 -0.000735203 2.43134e-06
-0.000735203 0.000226942 -5.36175e-06
2.43134e-06 -5.36175e-06 -0.000299109
0.00129439 -0.000271652 1.90343e-07
-0.000271652 0.000465382 -3.68713e-06
1.90343e-07 -3.68713e-06 0.000179962
0.000930284 -0.000441182 -1.34183e-06
-0.000441182 0.000215255 9.01246e-07
-1.34183e-06 9.01246e-07 -0.000120416
-0.00064209 -0.000351178 -1.22506e-06
-0.000351178 -0.00076052 -7.69392e-06
-1.22506e-06 -7.69392e-06 -0.00110114
-0.00024822 -0.000101124 1.19497e-06
-0.000101124 -0.000311043 -5.27547e-06
1.19497e-06 -5.27547e-06 -0.000629774
0.000563796 -0.000229269 -2.06809e-07
-0.000229269 0.000213927 -4.91907e-07
-2.06809e-07 -4.91907e-07 -0.000130548
-0.000660766 -0.000159884 4.22395e-06
-0.000159884 -0.000630117 1.45554e-06
4.22395e-06 1.45554e-06 -0.000891267
0.00123545 -0.000230542 -2.55861e-06
-0.000230542 0.000648608 4.28502e-06
-2.55861e-06 4.28502e-06 0.000342128
0.000694152 -0.000181949 6.80832e-07
-0.000181949 0.000243812 5.75207e-07
6.80832e-07 5.75207e-07 -1.63735e-05
8.37826e-05 -5.40812e-05 2.33229e-06
-5.40812e-05 -0.000215171 8.4121e-06
2.33229e-06 8.4121e-06 -0.000368151
0.00132876 -0.000318625 -3.67232e-06
-0.000318625 0.000657743 2.21403e-06
-3.67232e-06 2.21403e-06 0.000430295
0.000561454 -5.44403e-05 -1.30515e-06
-5.44403e-05 9.30375e-05 -1.71906e-07
-1.30515e-06 -1.71906e-07 -3.78709e-05
0.000321634 4.11403e-05 3.35474e-06
4.11403e-05 -7.63074e-05 1.07016e-05
3.35474e-06 1.07016e-05 -0.000127908
0.00106051 -0.000120601 -1.35169e-06
-0.000120601 0.000435754 -5.30839e-06
-1.35169e-06 -5.30839e-06 0.000312478
0.000433747 -2.80816e-05 -1.85065e-06
-2.80816e-05 -1.4623e-05 3.67412e-08
-1.85065e-06 3.67412e-08 -5.57932e-05
0.00281286 9.63901e-05 7.97417e-07
9.63901e-05 0.00152834 3.34753e-06
7.97417e-07 3.34753e-06 0.00152868
0.000481558 -4.41402e-05 3.30196e-06
-4.41402e-05 1.9616e-05 -7.78893e-06
3.30196e-06 -7.78893e-06 -1.81058e-05
0.00181672 4.07933e-05 2.31546e-05
4.07933e-05 0.000875814 -1.12692e-06
2.31546e-05 -1.12692e-06 0.000879193
0.00270428 3.10756e-05 3.35224e-05
3.10756e-05 0.00145272 -6.25516e-06
3.35224e-05 -6.25516e-06 0.00146411
0.000258691 4.78819e-05 3.49292e-06
4.78819e-05 -7.72894e-05 3.19932e-06
3.49292e-06 3.19932e-06 -0.000229429
0.000109127 1.69458e-05 1.75502e-06
1.69458e-05 -0.000193347 -4.41152e-06
1.75502e-06 -4.41152e-06 -0.000292798
0.000432236 5.79843e-05 -2.59558e-07
5.79843e-05 5.43344e-05 -8.30125e-07
-2.59558e-07 -8.30125e-07 -0.000103529
0.000460465 1.33673e-05 2.33543e-06
1.33673e-05 -5.63405e-06 -5.87927e-06
2.33543e-06 -5.87927e-06 -2.7695e-05
7.81552e-05 2.79985e-05 -9.73226e-07
2.79985e-05 -0.000214529 -2.24204e-06
-9.73226e-07 -2.24204e-06 -0.000299661
0.000616207 8.6284e-05 1.46492e-06
8.6284e-05 0.00019083 3.90146e-06
1.46492e-06 3.90146e-06 3.64011e-05
0.00219284 -1.46512e-05 -2.04907e-05
-1.46512e-05 0.00111977 -5.4656e-06
-2.04907e-05 -5.4656e-06 0.00113535
0.00042148 1.01216e-05 -1.27774e-06
1.01216e-05 -3.18739e-05 -1.79447e-07
-1.27774e-06 -1.79447e-07 -4.81616e-05
-2.70678e-05 1.76352e-05 1.85141e-06
1.76352e-05 -0.000283576 4.45474e-06
1.85141e-06 4.45474e-06 -0.000354783
0.00208504 4.51057e-07 -4.09434e-06
4.51057e-07 0.0010502 7.95358e-08
-4.09434e-06 7.95358e-08 0.00106666
0.000395897 8.22575e-06 -2.20199e-06
8.22575e-06 -4.74831e-05 4.43694e-06
-2.20199e-06 4.43694e-06 -6.04864e-05
0.00207175 1.64175e-05 1.09974e-05
1.64175e-05 0.00104323 5.46035e-06
1.09974e-05 5.46035e-06 0.00105905
0.000939976 -0.000137816 0.000269368
-0.000137816 0.00461148 0.000156457
0.000269368 0.000156457 0.00258072
-0.000698493 -0.000649563 -7.69658e-05
-0.000649563 0.000522985 4.45953e-06
-7.69658e-05 4.45953e-06 -0.00476821
0.00139016 0.00229096 -0.000347824
0.00229096 0.0108537 -0.000112613
-0.000347824 -0.000112613 0.00334706
0.000754343 0.000156297 1.05472e-06
0.000156297 0.000259165 1.2856e-07
1.05472e-06 1.2856e-07 8.37991e-05
-0.000239783 9.46159e-05 7.68231e-06
9.46159e-05 -0.000354111 5.57606e-06
7.68231e-06 5.57606e-06 -0.000548025
0.00164379 0.000277565 1.60759e-05
0.000277565 0.000822155 1.78519e-05
1.60759e-05 1.78519e-05 0.000640779
0.00892595 -0.00108577 -0.000311548
-0.00108577 0.000322371 0.000150848
-0.000311548 0.000150848 -0.00211612
0.00729601 -0.00247978 0.000170795
-0.00247978 0.00404307 3.89124e-05
0.000170795 3.89124e-05 0.00183999
0.00472149 -0.00364927 0.00035227
-0.00364927 0.00205982 -0.00035592
0.00035227 -0.00035592 -0.00307737
0.0090577 -0.00437583 -1.88101e-05
-0.00437583 -0.00119111 -5.17804e-05
-1.88101e-05 -5.17804e-05 0.000772975
0.00449144 -0.00712 -0.000918967
-0.00712 -0.00233788 3.11884e-05
-0.000918967 3.11884e-05 -0.0031092
0.0302737 0.00654361 0.000654952
0.00654361 0.0154551 0.000314205
0.000654952 0.000314205 0.00597474
0.00871334 -0.00111998 0.000458767
-0.00111998 -0.00139489 -0.000326855
0.000458767 -0.000326855 -0.00323562
0.0024874 -0.00417613 1.82756e-06
-0.00417613 -0.000997014 1.39242e-05
1.82756e-06 1.39242e-05 0.000579469
0.00534263 -0.00736632 -0.000289419
-0.00736632 0.00252141 4.47899e-06
-0.000289419 4.47899e-06 -0.00272117
0.0069653 0.00451735 -0.000129205
0.00451735 0.00736673 -0.00040767
-0.000129205 -0.00040767 0.000480121
0.0131763 -0.000367811 -0.000151562
-0.000367811 -0.00233951 0.000180864
-0.000151562 0.000180864 -0.00106275
-0.000901195 -0.00311256 -0.000175534
-0.00311256 0.000621743 9.20041e-05
-0.000175534 9.20041e-05 -9.0379e-05
0.00790882 -0.00387633 -0.000484226
-0.00387633 0.00583783 0.000270331
-0.000484226 0.000270331 -0.000426644
0.00618048 -0.000207964 5.40386e-05
-0.000207964 0.00353376 -0.000380768
5.40386e-05 -0.000380768 -0.00138289
0.00991313 0.000561412 6.72758e-05
0.000561412 -0.00133394 0.000173884
6.72758e-05 0.000173884 -0.0020251
-0.000215629 9.34348e-05 9.22201e-06
9.34348e-05 -0.000280115 2.24964e-05
9.22201e-06 2.24964e-05 -0.000422883
0.000673501 1.93283e-05 2.36849e-07
1.93283e-05 0.000309719 -9.22633e-07
2.36849e-07 -9.22633e-07 8.47087e-05
0.000702737 -0.000232878 1.1651e-05
-0.000232878 0.000313074 -9.82285e-06
1.1651e-05 -9.82285e-06 7.21608e-05
0.000568859 0.000187252 -1.70211e-06
0.000187252 0.000109199 2.42313e-06
-1.70211e-06 2.42313e-06 -5.7502e-05
0.000777844 0.000214783 2.72893e-06
0.000214783 0.000331816 -8.18899e-06
2.72893e-06 -8.18899e-06 0.000112702
0.00127462 0.00025531 -5.33265e-06
0.00025531 0.000643424 -6.68075e-06
-5.33265e-06 -6.68075e-06 0.000423145
0.00116662 -0.00192619 7.92936e-05
-0.00192619 -2.93142e-05 -2.63735e-05
7.92936e-05 -2.63735e-05 -0.000363699
-0.000985564 -0.000513955 6.66903e-06
-0.000513955 -0.000780437 -2.5683e-05
6.66903e-06 -2.5683e-05 -0.000774327
0.000276908 0.000217445 -5.72058e-06
0.000217445 0.000148313 -2.42405e-05
-5.72058e-06 -2.42405e-05 -0.000126988
0.00255597 -0.000579816 7.18991e-05
-0.000579816 0.00165254 -3.90493e-05
7.18991e-05 -3.90493e-05 0.00120363
0.00294074 -0.000154683 9.16194e-06
-0.000154683 0.00192877 -2.1239e-05
9.16194e-06 -2.1239e-05 0.00155164
-0.000463291 8.59956e-05 8.87865e-06
8.59956e-05 -0.000256463 7.053e-07
8.87865e-06 7.053e-07 -0.000477418
-0.000178221 3.72986e-05 3.08984e-06
3.72986e-05 0.000248014 7.77032e-06
3.08984e-06 7.77032e-06 -0.000245099
0.00198623 -0.00215199 -6.87779e-05
-0.00215199 0.0012912 1.41094e-06
-6.87779e-05 1.41094e-06 0.000358646
0.000324253 -5.90049e-05 -6.73654e-06
-5.90049e-05 0.000709547 -7.37989e-07
-6.73654e-06 -7.37989e-07 6.74181e-05
2.97899e-05 -0.000453637 -9.74089e-06
-0.000453637 0.000553672 1.32991e-06
-9.74089e-06 1.32991e-06 -0.000102047
0.000856845 0.000241238 1.27577e-05
0.000241238 0.000793885 -2.04413e-05
1.27577e-05 -2.04413e-05 0.00041222
-0.00396064 -0.000217487 -0.000134625
-0.000217487 -0.000636253 9.26888e-06
-0.000134625 9.26888e-06 -0.00174307
-0.000188605 -0.000205159 -7.23577e-06
-0.000205159 0.000912349 -1.47427e-05
-7.23577e-06 -1.47427e-05 0.000140914
-0.00344299 -0.000110594 -2.81492e-05
-0.000110594 -0.00111872 -3.05169e-06
-2.81492e-05 -3.05169e-06 -0.00186161
0.000972861 0.000583538 -4.87936e-06
0.000583538 -0.000175285 -2.46848e-06
-4.87936e-06 -2.46848e-06 -0.00378951
-0.0018542 0.000784993 0.00016918
0.000784993 0.00366519 4.10309e-06
0.00016918 4.10309e-06 0.0010568
-0.0016434 1.44459e-05 0.000473126
1.44459e-05 0.000492081 4.95099e-05
0.000473126 4.95099e-05 -0.00496099
-2.02051e-05 0.000848698 1.10855e-05
0.000848698 0.000241026 2.23136e-05
1.10855e-05 2.23136e-05 -0.000438012
0.000434123 0.00140984 -1.95431e-05
0.00140984 0.00087444 -3.40975e-05
-1.95431e-05 -3.40975e-05 -0.000198832
-0.00250507 0.00050096 -0.000186421
0.00050096 0.00200564 -5.90505e-05
-0.000186421 -5.90505e-05 -0.000681367
-0.00463156 0.00100055 0.000208566
0.00100055 0.00388574 0.000245783
0.000208566 0.000245783 -0.0025183
0.00370257 0.000687438 -0.000194166
0.000687438 -0.00134119 -0.000517581
-0.000194166 -0.000517581 -0.00736522
0.00601205 6.66755e-05 0.000119839
6.66755e-05 -4.85648e-05 3.68118e-05
0.000119839 3.68118e-05 -0.00126459
0.00787748 -0.0008623 -0.000444264
-0.0008623 -0.0015964 0.00030786
-0.000444264 0.00030786 -0.003385
0.000472556 0.000683999 -6.50357e-06
0.000683999 0.000838201 -1.54551e-07
-6.50357e-06 -1.54551e-07 0.000108241
0.00187946 0.000360069 6.28308e-05
0.000360069 0.00191085 3.41722e-05
6.28308e-05 3.41722e-05 4.66615e-06
0.00624822 -0.00178501 -0.000159644
-0.00178501 0.0038271 -2.39146e-05
-0.000159644 -2.39146e-05 0.0017509
-4.94982e-05 0.00101958 -0.000154414
0.00101958 0.0024991 -2.05883e-05
-0.000154414 -2.05883e-05 0.000307416
0.0220974 0.00692143 -0.000270862
0.00692143 0.00937624 -0.000521095
-0.000270862 -0.000521095 0.00328771
0.00922998 0.0039448 0.000103964
0.0039448 0.00793749 0.000440849
0.000103964 0.000440849 0.000346288
0.00656946 0.00181578 8.99107e-05
0.00181578 0.00741073 -3.6151e-06
8.99107e-05 -3.6151e-06 -0.000305488
2.90539e-06 7.24513e-05 2.40788e-05
7.24513e-05 0.00159184 -1.48766e-05
2.40788e-05 -1.48766e-05 3.79558e-05
0.000677583 -9.90516e-06 -0.000260885
-9.90516e-06 0.00543477 -4.88912e-06
-0.000260885 -4.88912e-06 0.00311842
0.000699582 -0.000931909 0.000873915
-0.000931909 0.000552232 -0.000282951
0.000873915 -0.000282951 -0.00532253
0.0324719 0.0129032 -0.000106937
0.0129032 0.0224638 -0.000101286
-0.000106937 -0.000101286 0.012973
0.0152125 0.00539696 0.000399553
0.00539696 0.00688781 0.00116373
0.000399553 0.00116373 -0.00168911
0.0121784 -0.00561086 0.00056274
-0.00561086 0.00746559 -0.000359677
0.00056274 -0.000359677 -0.000328488
0.0010049 -0.000800294 -8.18962e-05
-0.000800294 0.00344589 5.27888e-05
-8.18962e-05 5.27888e-05 0.00196803
0.000593722 0.000294397 -8.05677e-06
0.000294397 0.000899266 2.41365e-06
-8.05677e-06 2.41365e-06 0.000311431
-0.000173774 -0.000108824 2.65785e-06
-0.000108824 0.000619487 -6.55357e-06
2.65785e-06 -6.55357e-06 -8.37301e-05
0.000486719 -0.000623423 5.70656e-05
-0.000623423 0.000707873 -1.98565e-05
5.70656e-05 -1.98565e-05 -6.57528e-05
0.000196466 -8.2414e-05 -3.86078e-06
-8.2414e-05 0.000280708 1.38821e-05
-3.86078e-06 1.38821e-05 -9.5633e-07
0.000126254 -0.000107226 1.29676e-06
-0.000107226 0.000497751 -2.00698e-05
1.29676e-06 -2.00698e-05 2.21677e-05
0.000904758 -0.000371704 -4.10791e-06
-0.000371704 0.000828272 2.19785e-07
-4.10791e-06 2.19785e-07 0.00045222
0.00124964 -0.000867552 2.98654e-05
-0.000867552 0.000677405 -1.84663e-05
2.98654e-05 -1.84663e-05 0.000169131
0.000679999 -0.000399452 6.18469e-06
-0.000399452 0.000347277 5.46444e-07
6.18469e-06 5.46444e-07 4.4237e-05
0.00112238 -0.000704341 2.01202e-05
-0.000704341 0.000532585 -5.94477e-06
2.01202e-05 -5.94477e-06 2.01029e-05
0.00151135 -0.000884116 1.46581e-05
-0.000884116 0.000694496 -4.082e-06
1.46581e-05 -4.082e-06 -0.000153391
0.000756006 -0.000473751 -8.9809e-06
-0.000473751 0.000214674 -3.83248e-06
-8.9809e-06 -3.83248e-06 -7.68549e-05
0.00259291 -0.000957739 -2.85176e-06
-0.000957739 0.00112336 -8.32343e-08
-2.85176e-06 -8.32343e-08 0.000449653
0.0015759 -0.00104602 -1.68483e-05
-0.00104602 0.000373327 -1.33434e-06
-1.68483e-05 -1.33434e-06 -0.000396441
0.00264037 -0.00127293 -1.38552e-05
-0.00127293 0.000776028 -3.09651e-07
-1.38552e-05 -3.09651e-07 8.25653e-05
0.00219004 -0.0011199 -4.17023e-06
-0.0011199 0.000710755 -1.05576e-06
-4.17023e-06 -1.05576e-06 4.85918e-05
0.00189632 -0.000973857 -5.92026e-06
-0.000973857 0.000616262 2.62108e-07
-5.92026e-06 2.62108e-07 -2.10123e-05
0.00133252 -0.000698406 -6.91183e-07
-0.000698406 0.000393927 -6.20775e-06
-6.91183e-07 -6.20775e-06 -0.000102209
0.00182099 -0.000857304 8.80452e-06
-0.000857304 0.000628303 -7.55887e-06
8.80452e-06 -7.55887e-06 6.37303e-05
0.00179812 -0.000900436 9.38512e-06
-0.000900436 0.000548878 -1.75131e-06
9.38512e-06 -1.75131e-06 -2.72642e-05
0.00161925 -0.000420175 1.13366e-07
-0.000420175 0.000601633 7.15557e-07
1.13366e-07 7.15557e-07 0.000256533
0.00147295 -0.000634866 5.65208e-06
-0.000634866 0.000499006 -3.81087e-06
5.65208e-06 -3.81087e-06 3.60175e-05
-0.000297034 -0.000539781 -1.53622e-05
-0.000539781 -0.000669073 -1.06133e-06
-1.53622e-05 -1.06133e-06 -0.00114031
0.000319243 -0.000109642 -1.16771e-06
-0.000109642 -2.21187e-05 -6.43538e-06
-1.16771e-06 -6.43538e-06 -0.000323316
0.000753505 -0.000294115 1.82223e-07
-0.000294115 0.000150757 -1.12154e-06
1.82223e-07 -1.12154e-06 -0.000149498
-0.000141291 -0.000348001 -8.64707e-06
-0.000348001 -0.000462094 -7.60119e-07
-8.64707e-06 -7.60119e-07 -0.000794862
2.59774e-05 -0.000103659 -8.69473e-07
-0.000103659 -0.00021371 7.0422e-06
-8.69473e-07 7.0422e-06 -0.000430794
0.000886456 -0.000195462 3.40443e-07
-0.000195462 0.000395632 2.79318e-07
3.40443e-07 2.79318e-07 8.07985e-05
-0.000664583 -0.000269859 -1.89877e-06
-0.000269859 -0.00054421 4.00987e-06
-1.89877e-06 4.00987e-06 -0.000881022
0.00171168 -0.000269846 -1.65416e-06
-0.000269846 0.000896151 2.92906e-06
-1.65416e-06 2.92906e-06 0.000628151
0.000765933 -0.000124047 2.3521e-08
-0.000124047 0.000221564 2.28944e-07
2.3521e-08 2.28944e-07 6.11785e-05
0.000324186 9.06583e-06 3.11286e-06
9.06583e-06 -6.78825e-05 1.42172e-05
3.11286e-06 1.42172e-05 -0.000132467
0.00101439 -0.000113075 -4.70249e-07
-0.000113075 0.00038292 -7.85888e-06
-4.70249e-07 -7.85888e-06 0.000246441
0.000426045 -8.60261e-06 -5.14429e-06
-8.60261e-06 -1.36497e-05 -4.78858e-07
-5.14429e-06 -4.78858e-07 -6.46244e-05
0.00321731 0.00010198 -4.88868e-05
0.00010198 0.00179865 6.2508e-06
-4.88868e-05 6.2508e-06 0.00179896
0.000488781 -3.77889e-05 2.65416e-06
-3.77889e-05 1.67833e-05 -9.33944e-06
2.65416e-06 -9.33944e-06 -2.42442e-05
0.00195973 6.24596e-05 2.83766e-05
6.24596e-05 0.000971519 -5.88558e-07
2.83766e-05 -5.88558e-07 0.00097042
0.0028445 5.09631e-05 4.09313e-05
5.09631e-05 0.00154409 -6.09461e-06
4.09313e-05 -6.09461e-06 0.00155345
0.000868496 0.000144254 4.04463e-06
0.000144254 0.000322624 -5.39091e-06
4.04463e-06 -5.39091e-06 0.000142868
0.000510724 7.38278e-05 3.75132e-06
7.38278e-05 6.83281e-05 -3.73568e-06
3.75132e-06 -3.73568e-06 -4.28933e-05
0.000404529 7.15381e-05 -2.87487e-07
7.15381e-05 3.68032e-05 -7.35937e-07
-2.87487e-07 -7.35937e-07 -0.000131585
0.000439626 2.40094e-05 5.37237e-07
2.40094e-05 -1.49281e-05 -7.42281e-06
5.37237e-07 -7.42281e-06 -4.51345e-05
0.0002405 5.07036e-05 -2.50429e-06
5.07036e-05 -0.000106083 -2.47575e-06
-2.50429e-06 -2.47575e-06 -0.000205615
0.000600493 0.000105487 -1.26023e-06
0.000105487 0.000169413 -3.12801e-06
-1.26023e-06 -3.12801e-06 1.18382e-05
0.00230762 -3.13873e-05 -2.36722e-05
-3.13873e-05 0.00119512 -5.76053e-06
-2.36722e-05 -5.76053e-06 0.00120875
0.000403927 2.15588e-06 1.13224e-06
2.15588e-06 -4.22827e-05 -2.7915e-07
1.13224e-06 -2.7915e-07 -6.37651e-05
8.06328e-05 2.44536e-05 -1.52697e-06
2.44536e-05 -0.000212036 1.80128e-06
-1.52697e-06 1.80128e-06 -0.0003003
0.00216583 -1.4296e-05 -6.12862e-06
-1.4296e-05 0.00110214 1.2597e-07
-6.12862e-06 1.2597e-07 0.00111795
0.000409448 2.78616e-06 -4.13227e-06
2.78616e-06 -4.06634e-05 4.89317e-06
-4.13227e-06 4.89317e-06 -5.62281e-05
0.00212841 1.89587e-06 1.58609e-05
1.89587e-06 0.00107873 5.40088e-06
1.58609e-05 5.40088e-06 0.00109497
0.00260599 -0.000352664 -0.000160419
-0.000352664 0.00165316 1.70081e-05
-0.000160419 1.70081e-05 -0.000363594
-0.00173456 -4.52024e-05 0.000150117
-4.52024e-05 0.00410476 -5.27598e-06
0.000150117 -5.27598e-06 0.00141807
-0.000646091 -0.00040073 0.00016062
-0.00040073 0.00140577 -0.000273485
0.00016062 -0.000273485 -0.00471974
-0.000325565 -1.49004e-05 3.50643e-06
-1.49004e-05 -0.000311709 -5.21282e-06
3.50643e-06 -5.21282e-06 -0.000619665
0.00391267 0.000385875 1.0253e-05
0.000385875 0.00227157 1.08371e-05
1.0253e-05 1.08371e-05 0.00202399
0.000342437 0.000156376 -4.42211e-06
0.000156376 2.0044e-06 -9.35078e-06
-4.42211e-06 -9.35078e-06 -0.000172783
-9.21454e-05 7.01943e-05 7.69868e-07
7.01943e-05 -0.000272198 -2.96815e-06
7.69868e-07 -2.96815e-06 -0.000468778
0.000140941 0.000104766 -1.56453e-09
0.000104766 -0.000171199 -2.15732e-06
-1.56453e-09 -2.15732e-06 -0.000302798
0.000413546 0.000115551 5.82684e-06
0.000115551 4.95043e-05 1.1387e-05
5.82684e-06 1.1387e-05 -0.000133353
-0.000563535 3.82334e-05 1.63474e-05
3.82334e-05 -0.000574773 7.70843e-06
1.63474e-05 7.70843e-06 -0.000664939
0.00426747 0.00190881 0.000287735
0.00190881 0.000179119 0.000252028
0.000287735 0.000252028 -0.00214643
0.00735575 -0.000473648 -0.000116566
-0.000473648 0.000423016 4.44136e-05
-0.000116566 4.44136e-05 -0.00207837
0.00537433 -0.00102009 0.000460559
-0.00102009 0.00456541 -0.0001341
0.000460559 -0.0001341 0.00176926
0.0106076 -1.62905e-07 -2.55119e-05
-1.62905e-07 -0.00466386 0.000206548
-2.55119e-05 0.000206548 -0.00296309
0.00708707 -0.00543499 -0.000173819
-0.00543499 0.000894638 3.70663e-05
-0.000173819 3.70663e-05 0.00169937
0.000514767 -0.00626921 -0.000470088
-0.00626921 0.00212171 0.000180264
-0.000470088 0.000180264 -0.00466096
0.0238062 0.00481081 0.000283877
0.00481081 0.00943668 -0.000262395
0.000283877 -0.000262395 0.00276258
0.00251407 -0.00432362 -8.20424e-05
-0.00432362 0.000586811 4.85688e-05
-8.20424e-05 4.85688e-05 0.000879665
-0.000129737 -0.00166153 -0.000103383
-0.00166153 0.00574684 6.50768e-05
-0.000103383 6.50768e-05 -0.00284179
0.01417 0.000236658 0.00034096
0.000236658 0.00540436 -4.49045e-05
0.00034096 -4.49045e-05 0.000247805
0.019117 -0.00199013 -8.22824e-05
-0.00199013 0.00293197 -2.72785e-06
-8.22824e-05 -2.72785e-06 0.00291812
-0.00526382 -0.000641841 -0.000249372
-0.000641841 -0.000705926 0.000233463
-0.000249372 0.000233463 -0.00141086
0.00156259 0.00139549 -0.000262867
0.00139549 0.00600912 -0.000195014
-0.000262867 -0.000195014 -0.00260623
0.00747517 -0.0065465 -3.43209e-05
-0.0065465 0.00248132 -0.000273126
-3.43209e-05 -0.000273126 -0.00511108
0.019464 -0.00295285 0.000398719
-0.00295285 0.00855511 -0.000774754
0.000398719 -0.000774754 0.00428196
-5.34017e-05 2.44403e-05 2.96007e-05
2.44403e-05 0.000193532 -2.45846e-06
2.96007e-05 -2.45846e-06 -0.000222086
0.000638596 0.000200851 -5.84201e-07
0.000200851 0.000291762 -3.21382e-06
-5.84201e-07 -3.21382e-06 0.000127054
0.000552022 -3.19039e-05 1.49817e-06
-3.19039e-05 0.000253184 -6.12322e-06
1.49817e-06 -6.12322e-06 1.23287e-05
0.000923008 0.000196129 -3.22803e-06
0.000196129 0.00036543 -1.38817e-05
-3.22803e-06 -1.38817e-05 0.000179986
0.00127761 -0.00184446 0.000103058
-0.00184446 0.000892365 2.43109e-05
0.000103058 2.43109e-05 -3.69937e-05
0.000693684 -0.000461877 -1.29785e-06
-0.000461877 0.0010734 -1.62966e-05
-1.29785e-06 -1.62966e-05 0.000290257
0.000310502 9.27965e-05 -3.22354e-05
9.27965e-05 0.00021757 -1.29569e-05
-3.22354e-05 -1.29569e-05 6.95039e-06
0.00126289 -0.000162576 6.04485e-06
-0.000162576 0.000966576 -3.86626e-05
6.04485e-06 -3.86626e-05 0.000600286
-0.000121302 -6.18838e-05 -1.49247e-05
-6.18838e-05 0.000483049 6.01367e-06
-1.49247e-05 6.01367e-06 -7.99825e-05
5.10684e-05 0.000123024 1.61763e-06
0.000123024 0.000228163 5.48673e-06
1.61763e-06 5.48673e-06 -0.000110572
0.000949436 -0.000107757 4.1564e-07
-0.000107757 0.00117569 1.15064e-06
4.1564e-07 1.15064e-06 0.000586884
0.000620103 -0.00114909 1.79327e-05
-0.00114909 0.00158619 -1.14553e-05
1.79327e-05 -1.14553e-05 -8.06681e-05
0.000816541 -0.000171252 -1.34386e-07
-0.000171252 0.00154088 -1.65898e-05
-1.34386e-07 -1.65898e-05 0.000823761
0.000666427 0.000146945 2.91145e-06
0.000146945 0.000662372 -1.03179e-05
2.91145e-06 -1.03179e-05 0.000311709
-0.00113629 0.000264599 -0.000223619
0.000264599 0.00251125 -9.90191e-06
-0.000223619 -9.90191e-06 0.000137903
0.000872214 0.000476626 1.21463e-05
0.000476626 0.00136656 -2.65861e-07
1.21463e-05 -2.65861e-07 0.000699006
-0.00343449 -0.000101592 -8.96424e-05
-0.000101592 0.00374378 -9.64073e-05
-8.96424e-05 -9.64073e-05 0.00132398
0.0021728 0.000201927 3.5213e-05
0.000201927 0.000986541 1.87737e-05
3.5213e-05 1.87737e-05 -0.00129751
-0.00429097 0.00126603 -9.87882e-05
0.00126603 0.00303012 -0.000100486
-9.87882e-05 -0.000100486 5.91219e-06
0.000158757 0.00049916 -1.92462e-05
0.00049916 0.00081314 1.71212e-06
-1.92462e-05 1.71212e-06 0.000187148
-0.00122833 0.00123988 0.000260453
0.00123988 0.00109106 0.000119745
0.000260453 0.000119745 -0.000166219
0.00109645 7.9405e-05 0.00010291
7.9405e-05 0.00209973 -1.09765e-05
0.00010291 -1.09765e-05 0.000430837
0.00676782 -0.0022992 0.000385251
-0.0022992 0.00680232 -0.00022944
0.000385251 -0.00022944 -0.00282505
0.0251488 0.00444039 -0.000334272
0.00444039 0.0096804 0.000254846
-0.000334272 0.000254846 0.00258439
0.00318731 -0.000955443 -0.000427134
-0.000955443 0.00307324 8.34175e-05
-0.000427134 8.34175e-05 0.000534649
0.0160536 0.00573606 -0.00030238
0.00573606 0.0109906 -0.000312764
-0.00030238 -0.000312764 0.00581026
0.000636238 0.000236668 -5.0628e-05
0.000236668 0.00173852 5.34059e-06
-5.0628e-05 5.34059e-06 0.000252874
-0.000483989 -0.000562322 -0.000144871
-0.000562322 0.00404563 2.52109e-06
-0.000144871 2.52109e-06 0.00201303
0.00232076 -0.00217536 0.00031063
-0.00217536 0.00216411 -6.41554e-05
0.00031063 -6.41554e-05 -0.00357708
-0.00393747 2.17714e-05 8.14946e-05
2.17714e-05 0.000421763 4.26956e-05
8.14946e-05 4.26956e-05 -0.000482197
0.0279849 0.0155982 0.000933513
0.0155982 0.0196343 -0.000300866
0.000933513 -0.000300866 0.00942676
0.012749 0.00348611 -0.000155734
0.00348611 0.00862804 0.000480188
-0.000155734 0.000480188 0.000635505
-0.00163869 -0.00188663 0.000296069
-0.00188663 0.00416044 -0.000206986
0.000296069 -0.000206986 -0.00480338
-0.00260115 -0.000695199 -4.60468e-05
-0.000695199 0.000306124 -4.09272e-05
-4.60468e-05 -4.09272e-05 -0.00128602
0.0014861 -0.00133917 0.000435932
-0.00133917 0.000112905 -0.000112718
0.000435932 -0.000112718 -0.00456701
0.00311678 0.00334586 -0.00231159
0.00334586 0.0118146 0.000342141
-0.00231159 0.000342141 0.00423529
0.02509 0.00944728 -0.000645384
0.00944728 0.0104149 0.000461278
-0.000645384 0.000461278 0.00182102
0.00664765 -0.00548242 -0.000288196
-0.00548242 0.00393186 0.000139066
-0.000288196 0.000139066 0.000229692
0.00379931 -0.0028584 8.26491e-05
-0.0028584 0.00446606 3.01895e-05
8.26491e-05 3.01895e-05 0.00273467
2.99888e-05 -0.000102139 7.64949e-06
-0.000102139 0.000667556 -2.05057e-05
7.64949e-06 -2.05057e-05 -9.33836e-05
0.000203518 -0.000524746 7.22046e-06
-0.000524746 0.000659651 -2.89984e-06
7.22046e-06 -2.89984e-06 -0.000167982
0.000482517 -0.00124171 -5.84002e-06
-0.00124171 0.000479243 1.04706e-05
-5.84002e-06 1.04706e-05 -0.000237704
-0.00011588 -0.000220612 -2.59753e-06
-0.000220612 0.000364985 1.07502e-05
-2.59753e-06 1.07502e-05 -2.7468e-05
0.000387771 -0.000620014 -3.25813e-06
-0.000620014 0.000366564 4.65588e-06
-3.25813e-06 4.65588e-06 -8.7341e-05
0.00237833 -0.00110729 3.80628e-05
-0.00110729 0.000978762 -3.16073e-05
3.80628e-05 -3.16073e-05 0.00041372
0.00623901 -0.00144529 -1.24426e-05
-0.00144529 0.00332384 2.82795e-06
-1.24426e-05 2.82795e-06 0.00270365
0.00275259 -0.00108012 1.17501e-05
-0.00108012 0.00129798 -3.883e-06
1.17501e-05 -3.883e-06 0.00045064
0.0027341 -0.00135668 5.55244e-06
-0.00135668 0.000888296 -1.93084e-05
5.55244e-06 -1.93084e-05 3.74251e-05
0.00273717 -0.000972956 -1.15162e-05
-0.000972956 0.00117253 -8.39654e-06
-1.15162e-05 -8.39654e-06 0.000518691
0.00221424 -0.00114693 5.82273e-07
-0.00114693 0.000709517 -2.06813e-06
5.82273e-07 -2.06813e-06 -8.29551e-05
0.00295163 -0.00137306 -8.13238e-06
-0.00137306 0.000943301 -9.88547e-06
-8.13238e-06 -9.88547e-06 0.000179157
0.00256775 -0.000994451 -1.4594e-06
-0.000994451 0.000495276 -6.70132e-06
-1.4594e-06 -6.70132e-06 1.05658e-05
0.00305298 -0.00129501 -1.0986e-05
-0.00129501 0.000978638 -1.33726e-06
-1.0986e-05 -1.33726e-06 0.000311791
0.0028676 -0.00130154 -4.20269e-06
-0.00130154 0.000900331 -4.65983e-07
-4.20269e-06 -4.65983e-07 0.000197819
0.0022669 -0.00111541 7.94075e-06
-0.00111541 0.000773448 -6.85629e-06
7.94075e-06 -6.85629e-06 0.000126721
0.00187729 -0.00105418 3.80073e-06
-0.00105418 0.000539238 -1.24758e-06
3.80073e-06 -1.24758e-06 -9.61914e-05
0.00188408 -0.000965867 7.34816e-06
-0.000965867 0.000598294 -2.30201e-06
7.34816e-06 -2.30201e-06 -3.65777e-05
0.00157482 -0.000722179 1.07206e-05
-0.000722179 0.00052872 1.21401e-06
1.07206e-05 1.21401e-06 8.4917e-06
0.00191092 -0.000869328 -1.4349e-06
-0.000869328 0.000693799 -1.98291e-06
-1.4349e-06 -1.98291e-06 0.000125776
0.0018681 -0.000923277 1.88607e-06
-0.000923277 0.000597486 6.51272e-06
1.88607e-06 6.51272e-06 1.55528e-05
0.00179981 -0.000270075 -8.45006e-07
-0.000270075 0.000803522 -5.43631e-06
-8.45006e-07 -5.43631e-06 0.00052142
0.000932818 -0.000338464 -4.75676e-06
-0.000338464 0.00020569 2.94279e-06
-4.75676e-06 2.94279e-06 -0.000125771
0.000965838 -0.000577911 -7.45247e-06
-0.000577911 0.000164266 -6.65245e-06
-7.45247e-06 -6.65245e-06 -0.000283809
0.000368829 -0.000105894 5.60592e-07
-0.000105894 -1.08257e-05 2.45716e-06
5.60592e-07 2.45716e-06 -0.000273758
0.00062282 -0.000220949 -3.70518e-07
-0.000220949 0.00017012 1.53966e-06
-3.70518e-07 1.53966e-06 -0.000138025
0.000540144 -0.000269644 2.42359e-06
-0.000269644 6.8859e-05 4.85369e-07
2.42359e-06 4.85369e-07 -0.00026195
0.000293144 -6.06569e-05 -1.23538e-05
-6.06569e-05 -0.00011164 1.95178e-05
-1.23538e-05 1.95178e-05 -0.000179631
0.000719335 -0.000115336 3.4908e-08
-0.000115336 0.000212751 5.98467e-07
3.4908e-08 5.98467e-07 2.93043e-06
0.0017505 -0.000315405 -7.92947e-07
-0.000315405 0.000929677 4.28458e-06
-7.92947e-07 4.28458e-06 0.000618052
0.00105089 -0.000132315 3.07063e-07
-0.000132315 0.000401277 -7.76487e-06
3.07063e-07 -7.76487e-06 0.000237688
0.000399585 -1.95725e-05 -6.05541e-07
-1.95725e-05 -3.0953e-05 -5.89975e-07
-6.05541e-07 -5.89975e-07 -9.01954e-05
0.00345232 0.000134865 -5.09467e-05
0.000134865 0.00196348 6.65869e-06
-5.09467e-05 6.65869e-06 0.0019555
0.000471357 -3.33895e-05 3.8292e-06
-3.33895e-05 8.98441e-06 -1.15914e-05
3.8292e-06 -1.15914e-05 -3.8507e-05
0.00315431 0.000101341 7.21132e-06
0.000101341 0.00175733 8.48593e-07
7.21132e-06 8.48593e-07 0.00175785
0.00292233 7.30666e-05 4.59977e-05
7.30666e-05 0.00159758 -6.03452e-06
4.59977e-05 -6.03452e-06 0.00160413
0.00219221 8.48614e-05 9.00695e-06
8.48614e-05 0.00136371 -9.51462e-06
9.00695e-06 -9.51462e-06 0.000998754
0.00214548 0.000227292 9.11489e-06
0.000227292 0.0012918 -1.62982e-05
9.11489e-06 -1.62982e-05 0.000983776
0.000544337 6.42718e-05 5.57636e-06
6.42718e-05 8.21274e-05 -7.01524e-06
5.57636e-06 -7.01524e-06 -4.22088e-05
0.000756886 0.00016048 -2.71988e-07
0.00016048 0.000280648 1.25628e-06
-2.71988e-07 1.25628e-06 8.67482e-05
0.000427497 -1.51087e-05 5.19425e-06
-1.51087e-05 -2.04465e-05 -8.8933e-06
5.19425e-06 -8.8933e-06 -5.65152e-05
0.000538304 7.8781e-05 5.08673e-08
7.8781e-05 8.84385e-05 -3.58489e-07
5.08673e-08 -3.58489e-07 -2.32848e-05
0.0006935 7.33901e-05 -5.91696e-06
7.33901e-05 0.000214587 -4.09978e-06
-5.91696e-06 -4.09978e-06 5.04769e-05
0.00259426 -5.0162e-05 -3.15971e-05
-5.0162e-05 0.00138498 -6.15955e-06
-3.15971e-05 -6.15955e-06 0.00139519
0.00043113 6.29803e-06 -1.79567e-06
6.29803e-06 -2.08224e-05 -2.4912e-07
-1.79567e-06 -2.4912e-07 -4.99604e-05
0.000526725 7.85048e-05 -4.98757e-06
7.85048e-05 8.28253e-05 1.35902e-06
-4.98757e-06 1.35902e-06 -1.85841e-05
0.00233251 -3.20277e-05 -5.56486e-06
-3.20277e-05 0.00121139 3.17803e-07
-5.56486e-06 3.17803e-07 0.00122497
0.000425672 7.56506e-06 -3.40513e-06
7.56506e-06 -2.9265e-05 5.46097e-06
-3.40513e-06 5.46097e-06 -5.00519e-05
0.00216774 -1.42725e-05 1.87553e-05
-1.42725e-05 0.0011031 5.35845e-06
1.87553e-05 5.35845e-06 0.00111894
-0.00250401 0.000928929 -3.2659e-05
0.000928929 0.0023292 -0.000131565
-3.2659e-05 -0.000131565 -0.000223982
0.0037733 -0.000350928 -2.8811e-05
-0.000350928 0.00251795 -5.80631e-05
-2.8811e-05 -5.80631e-05 0.000738937
0.000240262 -0.000435374 4.97716e-05
-0.000435374 0.00399691 -6.85319e-05
4.97716e-05 -6.85319e-05 0.00175485
0.000554148 3.77078e-05 2.80883e-06
3.77078e-05 0.000340452 -8.07144e-06
2.80883e-06 -8.07144e-06 -4.9681e-05
-0.000243157 0.000203894 8.58886e-06
0.000203894 -0.000337223 -5.59424e-06
8.58886e-06 -5.59424e-06 -0.000569905
-0.00204517 4.39466e-05 2.27931e-05
4.39466e-05 -0.00162045 -1.47852e-05
2.27931e-05 -1.47852e-05 -0.00180608
-0.0026081 -2.86119e-05 -6.46986e-06
-2.86119e-05 -0.00164982 2.22819e-05
-6.46986e-06 2.22819e-05 -0.00201526
0.00112292 0.000318467 4.16488e-06
0.000318467 0.000474054 -1.15817e-06
4.16488e-06 -1.15817e-06 0.000191833
0.000628853 5.39421e-05 -6.86295e-06
5.39421e-05 0.000190424 -7.11959e-07
-6.86295e-06 -7.11959e-07 -2.87227e-05
0.000164143 0.000123266 -9.89151e-06
0.000123266 -0.000122991 -1.4776e-05
-9.89151e-06 -1.4776e-05 -0.000256699
0.00127312 -5.8945e-07 7.03171e-06
-5.8945e-07 0.0005849 2.03783e-06
7.03171e-06 2.03783e-06 0.000410023
0.000910416 0.000196195 -2.82391e-06
0.000196195 0.000395273 -6.2157e-06
-2.82391e-06 -6.2157e-06 0.000278249
0.00286704 0.000223494 -4.60328e-06
0.000223494 0.00183829 -1.46598e-05
-4.60328e-06 -1.46598e-05 0.00150253
0.0089577 0.00249708 0.0007588
0.00249708 0.0059801 0.000618109
0.0007588 0.000618109 0.000661462
0.00392875 0.00152219 2.64119e-05
0.00152219 0.00121849 8.28287e-05
2.64119e-05 8.28287e-05 -0.00139929
0.0072099 -0.000334267 0.000155889
-0.000334267 9.95788e-05 -4.71273e-06
0.000155889 -4.71273e-06 -0.00154368
0.0149084 -0.000833685 -0.000299574
-0.000833685 0.00232292 -0.000136009
-0.000299574 -0.000136009 0.00382967
0.00224443 0.000814292 0.000139855
0.000814292 -0.0013476 0.000468673
0.000139855 0.000468673 -0.00746943
0.00313731 -0.00445778 -7.55553e-05
-0.00445778 0.00149003 1.65433e-07
-7.55553e-05 1.65433e-07 0.00136275
0.00378652 -0.00212088 -0.000340038
-0.00212088 0.00554924 0.000112278
-0.000340038 0.000112278 -0.00104956
-0.000520989 -0.00168627 -0.000107942
-0.00168627 0.0010133 0.000138863
-0.000107942 0.000138863 9.77312e-05
0.0118583 -0.000298808 -0.00033194
-0.000298808 0.00873449 -1.01929e-06
-0.00033194 -1.01929e-06 0.000969116
0.00950922 -0.00315328 0.000154073
-0.00315328 0.00579348 0.000266374
0.000154073 0.000266374 -0.00134308
0.0263826 -0.0059295 0.000135168
-0.0059295 0.00880768 -0.00095861
0.000135168 -0.00095861 0.00248177
-5.3245e-05 0.000400944 -0.000182297
0.000400944 0.00303242 0.000115467
-0.000182297 0.000115467 0.00104916
0.00545141 0.0022659 -0.000285208
0.0022659 0.00660373 -9.88004e-05
-0.000285208 -9.88004e-05 -0.000242803
0.0279359 -0.00995437 0.000451824
-0.00995437 0.0157489 -0.00105651
0.000451824 -0.00105651 0.00628575
0.0323908 -0.0147609 9.10571e-05
-0.0147609 0.0183001 -7.95611e-05
9.10571e-05 -7.95611e-05 0.00849362
-0.000216634 0.000351751 3.02317e-05
0.000351751 7.52768e-06 1.84213e-05
3.02317e-05 1.84213e-05 -0.000479455
-0.000141635 7.80746e-05 1.17368e-05
7.80746e-05 0.000205842 1.65912e-06
1.17368e-05 1.65912e-06 -0.000255876
0.00102337 0.0001993 -2.66454e-05
0.0001993 0.000539315 -1.52339e-05
-2.66454e-05 -1.52339e-05 0.000367798
0.00382048 -0.00162413 0.000113527
-0.00162413 0.00293007 -8.53097e-06
0.000113527 -8.53097e-06 0.000876788
-0.00114243 -0.000198529 0.000109246
-0.000198529 0.000700846 1.09976e-05
0.000109246 1.09976e-05 -0.000130211
-0.00032075 9.90976e-05 -1.34798e-05
9.90976e-05 -2.68276e-05 4.77671e-06
-1.34798e-05 4.77671e-06 -0.000349467
-0.000400498 -0.000247886 1.4798e-05
-0.000247886 0.000512317 -1.02799e-05
1.4798e-05 -1.02799e-05 -0.000223274
-0.000270287 0.000144124 -7.41197e-06
0.000144124 0.000119136 1.20968e-06
-7.41197e-06 1.20968e-06 -0.000236166
-0.000472926 0.000338575 2.65525e-05
0.000338575 0.000450463 7.67148e-06
2.65525e-05 7.67148e-06 -0.000266815
-0.00238535 0.000109749 0.000171069
0.000109749 0.0015568 -7.40993e-05
0.000171069 -7.40993e-05 -0.000690298
0.00180857 0.000909963 4.94398e-05
0.000909963 0.000995157 4.99426e-05
4.94398e-05 4.99426e-05 0.00048124
0.00150531 0.00118292 -0.00012352
0.00118292 0.00196222 -0.000125964
-0.00012352 -0.000125964 4.74495e-05
0.000244397 -0.000279532 0.000303829
-0.000279532 0.00176907 0.000115529
0.000303829 0.000115529 -0.00379814
-0.00319459 0.00056671 -0.000181789
0.00056671 0.00353118 -2.10656e-06
-0.000181789 -2.10656e-06 0.00050203
0.00458265 -0.000466589 -0.000113841
-0.000466589 0.00267525 2.42581e-06
-0.000113841 2.42581e-06 0.00170198
0.00041777 0.000653958 7.1047e-05
0.000653958 0.00128882 2.04075e-05
7.1047e-05 2.04075e-05 -0.000274255
0.000570941 0.000330434 -0.000109599
0.000330434 0.00317833 0.000112921
-0.000109599 0.000112921 0.00112522
-0.0011605 -0.000248161 -2.80225e-05
-0.000248161 0.00313186 -6.25653e-05
-2.80225e-05 -6.25653e-05 0.00070912
0.0148179 -0.00600579 0.000389565
-0.00600579 0.00944437 -0.000240385
0.000389565 -0.000240385 0.00100919
0.0283974 0.00789769 -0.000654803
0.00789769 0.0154924 -0.000327735
-0.000654803 -0.000327735 0.00581814
0.00649808 -0.00277384 -0.000527727
-0.00277384 0.00365297 0.000351061
-0.000527727 0.000351061 -0.00119777
0.0207494 0.0187246 0.00319068
0.0187246 0.0154446 -0.00188869
0.00319068 -0.00188869 0.0047564
0.000213698 -0.000803116 4.6509e-05
-0.000803116 0.00161601 -1.2286e-05
4.6509e-05 -1.2286e-05 -2.37911e-05
-1.29532e-05 -0.000888661 8.80849e-05
-0.000888661 0.00106987 6.92139e-06
8.80849e-05 6.92139e-06 -0.00432786
0.00604268 0.00400613 -0.0016565
0.00400613 0.0111606 0.000242426
-0.0016565 0.000242426 0.00311017
0.000214741 -0.00160897 5.15215e-05
-0.00160897 0.00205477 2.84002e-05
5.15215e-05 2.84002e-05 0.000728967
0.0271491 0.00931059 0.00049931
0.00931059 0.0113316 0.000193266
0.00049931 0.000193266 0.00280904
0.00626177 -0.00812502 0.000396966
-0.00812502 0.0029689 -0.000104827
0.000396966 -0.000104827 -0.00171977
-0.000242414 -0.00211694 5.95432e-06
-0.00211694 0.000564907 4.88798e-05
5.95432e-06 4.88798e-05 -0.000904808
-0.00210156 -0.00181117 0.00021323
-0.00181117 0.00925847 -0.000122945
0.00021323 -0.000122945 0.00374806
0.0212961 0.0100759 -0.00232719
0.0100759 0.00924081 0.000414964
-0.00232719 0.000414964 0.00224908
0.00519193 -0.00682709 -0.000751033
-0.00682709 -0.00233489 0.000258703
-0.000751033 0.000258703 -0.00393077
-0.00108962 -0.00277052 0.000204965
-0.00277052 -0.000323258 -0.000162968
0.000204965 -0.000162968 0.000588178
0.00154809 -0.000728149 -0.000129774
-0.000728149 0.00124515 4.78049e-05
-0.000129774 4.78049e-05 0.000454218
0.000222847 -0.000994021 -1.50529e-05
-0.000994021 0.00041143 1.2046e-05
-1.50529e-05 1.2046e-05 -0.000301218
0.000691471 -0.00109538 1.48699e-05
-0.00109538 0.000169742 -3.16649e-05
1.48699e-05 -3.16649e-05 -0.000408061
-0.000656937 -0.000358656 8.69338e-06
-0.000358656 -3.06175e-05 3.76041e-06
8.69338e-06 3.76041e-06 -0.000440264
0.000837003 -0.000901317 6.46063e-06
-0.000901317 0.000187707 -6.55069e-07
6.46063e-06 -6.55069e-07 -0.000334207
0.00322029 -0.00145434 9.0478e-06
-0.00145434 0.000923587 -1.71419e-05
9.0478e-06 -1.71419e-05 0.000360532
0.00435159 -0.00133481 -3.59739e-05
-0.00133481 0.00209522 5.91009e-06
-3.59739e-05 5.91009e-06 0.00123768
0.00219608 -0.00125133 -4.9056e-06
-0.00125133 0.00058465 -4.9016e-07
-4.9056e-06 -4.9016e-07 -0.00023554
0.0028655 -0.00146088 2.84063e-06
-0.00146088 0.000663591 -8.48062e-06
2.84063e-06 -8.48062e-06 -1.22111e-05
0.00314723 -0.00128652 7.42548e-06
-0.00128652 0.00121324 4.55648e-06
7.42548e-06 4.55648e-06 0.000394553
0.00267182 -0.00132237 3.33892e-06
-0.00132237 0.000785022 -3.63631e-06
3.33892e-06 -3.63631e-06 4.53806e-05
0.00280672 -0.00106563 -3.18209e-06
-0.00106563 0.000580783 -6.34682e-06
-3.18209e-06 -6.34682e-06 9.53987e-05
0.00206796 -0.000645087 -9.63165e-07
-0.000645087 3.67936e-05 -2.46129e-06
-9.63165e-07 -2.46129e-06 -0.000223673
0.00212511 -0.000955572 1.25371e-06
-0.000955572 0.000171305 -3.83835e-06
1.25371e-06 -3.83835e-06 -0.000304563
0.00250067 -0.000998154 3.79961e-06
-0.000998154 0.000440076 -2.26726e-06
3.79961e-06 -2.26726e-06 -4.54172e-05
0.00291975 -0.00116137 -4.0494e-06
-0.00116137 0.000957187 -2.87875e-06
-4.0494e-06 -2.87875e-06 0.000352297
0.00302244 -0.00128925 -4.23521e-06
-0.00128925 0.000967317 -3.41101e-07
-4.23521e-06 -3.41101e-07 0.000296508
0.00271929 -0.0012812 1.01857e-05
-0.0012812 0.000811636 -3.07124e-06
1.01857e-05 -3.07124e-06 0.000110373
0.00202517 -0.000982465 7.23413e-06
-0.000982465 0.000676476 -8.00278e-06
7.23413e-06 -8.00278e-06 6.17324e-05
0.00197902 -0.0010746 1.96619e-06
-0.0010746 0.000611585 -8.47616e-07
1.96619e-06 -8.47616e-07 -2.38209e-05
0.00151235 -0.000985364 4.20028e-06
-0.000985364 0.000336142 2.56447e-06
4.20028e-06 2.56447e-06 -0.000272222
0.00233681 -0.000476028 3.51288e-06
-0.000476028 0.00106868 7.73655e-06
3.51288e-06 7.73655e-06 0.00070788
0.0014854 -0.000693776 7.8132e-07
-0.000693776 0.000510842 2.30072e-06
7.8132e-07 2.30072e-06 6.1399e-06
0.00218868 -0.00089778 -7.1237e-06
-0.00089778 0.000879 7.6081e-06
-7.1237e-06 7.6081e-06 0.000304995
0.000300218 -0.000206773 -4.83937e-06
-0.000206773 -0.000131237 -4.6143e-06
-4.83937e-06 -4.6143e-06 -0.000377633
0.000602684 -0.000258938 -3.74415e-06
-0.000258938 6.23162e-05 -4.57012e-06
-3.74415e-06 -4.57012e-06 -0.000229939
0.000765072 -0.000278468 -1.12287e-06
-0.000278468 0.000130489 -9.28914e-07
-1.12287e-06 -9.28914e-07 -0.000190782
0.00210591 -4.40895e-05 -6.80199e-05
-4.40895e-05 0.0010657 1.30868e-05
-6.80199e-05 1.30868e-05 0.000985943
0.000575523 -0.00021177 2.72394e-06
-0.00021177 0.000101358 1.09286e-06
2.72394e-06 1.09286e-06 -0.000151058
0.00103517 -0.000316464 3.6108e-06
-0.000316464 0.000434529 5.61768e-06
3.6108e-06 5.61768e-06 0.000116766
0.000782184 4.29586e-06 -8.00146e-05
4.29586e-06 0.000217936 8.93178e-06
-8.00146e-05 8.93178e-06 0.000203647
0.00127478 -4.46911e-05 -2.44644e-05
-4.46911e-05 0.000528158 -6.51833e-07
-2.44644e-05 -6.51833e-07 0.000460183
0.00123637 -0.000148665 1.86116e-06
-0.000148665 0.000527399 -6.05361e-06
1.86116e-06 -6.05361e-06 0.000323868
0.000576747 -3.88924e-05 6.6586e-06
-3.88924e-05 7.54311e-05 -1.36175e-05
6.6586e-06 -1.36175e-05 1.688e-05
0.0036719 0.000135182 1.30904e-05
0.000135182 0.00210652 1.06998e-06
1.30904e-05 1.06998e-06 0.00209904
0.00329484 0.000101159 5.45583e-05
0.000101159 0.00184855 -6.29573e-06
5.45583e-05 -6.29573e-06 0.00184929
-0.000204923 0.000140438 4.13483e-06
0.000140438 -0.000350788 8.99892e-06
4.13483e-06 8.99892e-06 -0.000624967
0.00213332 0.000219315 6.93197e-06
0.000219315 0.00129514 -1.65555e-05
6.93197e-06 -1.65555e-05 0.000931379
-0.000635446 6.1438e-05 4.45297e-06
6.1438e-05 -0.000455611 1.01777e-07
4.45297e-06 1.01777e-07 -0.000795304
0.000658431 0.000104045 7.39082e-07
0.000104045 0.00016354 -1.11306e-05
7.39082e-07 -1.11306e-05 1.09151e-05
0.000540669 0.000145521 2.98218e-06
0.000145521 0.000191919 -4.44432e-07
2.98218e-06 -4.44432e-07 -6.59735e-05
0.000384504 1.51132e-05 -1.78326e-06
1.51132e-05 -3.66461e-05 -1.22769e-05
-1.78326e-06 -1.22769e-05 -8.25735e-05
0.000537373 7.64136e-05 1.46532e-08
7.64136e-05 8.82598e-05 -1.96308e-07
1.46532e-08 -1.96308e-07 -4.04515e-05
0.000744538 8.96668e-05 -5.57654e-06
8.96668e-05 0.000296527 3.58611e-06
-5.57654e-06 3.58611e-06 9.33192e-05
0.00285688 -7.0209e-05 -4.15159e-05
-7.0209e-05 0.0015613 -6.15797e-06
-4.15159e-05 -6.15797e-06 0.0015682
0.000387397 1.02657e-05 -5.75576e-07
1.02657e-05 -4.33033e-05 2.35119e-08
-5.75576e-07 2.35119e-08 -8.01834e-05
0.000437005 7.84052e-05 -2.68375e-06
7.84052e-05 2.42351e-05 4.19615e-06
-2.68375e-06 4.19615e-06 -8.71462e-05
0.00252499 -5.15868e-05 -7.68736e-06
-5.15868e-05 0.00133988 5.04788e-07
-7.68736e-06 5.04788e-07 0.00135002
0.000343705 -1.64295e-05 -7.64199e-06
-1.64295e-05 -7.75418e-05 6.83714e-06
-7.64199e-06 6.83714e-06 -0.000105675
0.00227717 -3.03647e-05 2.38499e-05
-3.03647e-05 0.00117516 5.52971e-06
2.38499e-05 5.52971e-06 0.00118935
0.00695497 0.00144214 0.000600642
0.00144214 0.00533375 0.000149193
0.000600642 0.000149193 0.00167007
-0.0022952 0.000813774 -1.90181e-05
0.000813774 0.00200422 -1.4045e-05
-1.90181e-05 -1.4045e-05 -0.000865065
0.000521657 0.000985665 -7.60938e-06
0.000985665 0.00263449 -2.09408e-05
-7.60938e-06 -2.09408e-05 0.000247144
-0.000547206 0.000263331 -1.02972e-05
0.000263331 -0.00065843 1.32256e-05
-1.02972e-05 1.32256e-05 -0.000946028
-0.000259461 6.34514e-05 -1.21933e-05
6.34514e-05 -0.000264939 2.68826e-05
-1.21933e-05 2.68826e-05 -0.000591792
0.000254495 0.000137161 -1.52746e-05
0.000137161 -3.13103e-05 -1.30174e-05
-1.52746e-05 -1.30174e-05 -0.000234179
0.00192335 0.000166316 1.01261e-05
0.000166316 0.00108025 9.82791e-08
1.01261e-05 9.82791e-08 0.000816881
0.000868998 0.000253376 -2.70324e-07
0.000253376 0.000198565 -1.07945e-05
-2.70324e-07 -1.07945e-05 -1.06418e-05
0.00285834 0.0004807 -2.13623e-05
0.0004807 0.00157195 -8.72125e-06
-2.13623e-05 -8.72125e-06 0.00134055
0.00129754 0.000365342 6.8632e-06
0.000365342 0.000503464 -1.97752e-05
6.8632e-06 -1.97752e-05 0.000137179
-0.00209029 0.000176693 -1.19093e-05
0.000176693 -0.00108375 3.55393e-06
-1.19093e-05 3.55393e-06 -0.00149642
-0.000469677 2.37058e-05 -3.3815e-06
2.37058e-05 -0.000468863 -1.53612e-05
-3.3815e-06 -1.53612e-05 -0.000659117
-0.000409208 6.279e-05 -1.14011e-05
6.279e-05 -0.000522847 -1.37652e-05
-1.14011e-05 -1.37652e-05 -0.000578451
-0.00103845 4.18675e-05 -6.64893e-06
4.18675e-05 -0.000575442 2.19725e-06
-6.64893e-06 2.19725e-06 -0.000915223
6.41753e-06 0.00034237 -4.1643e-06
0.00034237 0.000199265 1.08116e-05
-4.1643e-06 1.08116e-05 -0.000387676
0.00948877 -0.00764008 -0.000104157
-0.00764008 0.0108747 0.000203373
-0.000104157 0.000203373 0.00080063
0.00932745 0.00306849 0.000274608
0.00306849 0.00441044 0.00020541
0.000274608 0.00020541 -0.00169462
0.00447453 0.000864836 4.66732e-05
0.000864836 0.00203799 -7.36207e-05
4.66732e-05 -7.36207e-05 -0.000922823
0.0381072 -0.00915499 -0.00133565
-0.00915499 0.0129509 -0.000492598
-0.00133565 -0.000492598 0.00549957
0.00626449 -0.00139509 0.000352651
-0.00139509 0.00535201 0.00063228
0.000352651 0.00063228 0.000164549
0.0016946 -0.00119121 -0.000242617
-0.00119121 0.00595908 0.000175006
-0.000242617 0.000175006 -0.00268754
0.000335791 -0.00215368 6.15561e-05
-0.00215368 0.00215338 7.41826e-05
6.15561e-05 7.41826e-05 0.000430823
-0.00143788 -9.43446e-05 0.000208401
-9.43446e-05 0.00184611 4.48769e-05
0.000208401 4.48769e-05 0.000457596
0.0283795 -0.0166496 0.0005455
-0.0166496 0.0172124 0.000557212
0.0005455 0.000557212 0.00679635
0.00414081 0.00256331 -0.000209039
0.00256331 0.00594567 -0.00013298
-0.000209039 -0.00013298 -0.00178202
0.0125175 -0.00529981 -0.00016972
-0.00529981 0.00975995 0.000180663
-0.00016972 0.000180663 0.000213806
-0.000392417 0.00113336 4.42178e-06
0.00113336 0.00163975 1.63073e-05
4.42178e-06 1.63073e-05 0.000565806
0.00637423 0.00608213 -0.000224367
0.00608213 0.0029185 -9.51562e-07
-0.000224367 -9.51562e-07 -0.00134895
0.0256765 -0.00881838 -0.00117382
-0.00881838 0.0106843 -0.000390298
-0.00117382 -0.000390298 0.00175343
0.00124708 0.000864548 2.00156e-05
0.000864548 0.000407385 1.92947e-05
2.00156e-05 1.92947e-05 0.000160483
0.00102938 0.00041101 8.92289e-06
0.00041101 0.000770178 5.07622e-06
8.92289e-06 5.07622e-06 0.000260077
-0.000275351 5.75554e-05 -3.51811e-05
5.75554e-05 0.000121677 -9.0029e-07
-3.51811e-05 -9.0029e-07 -0.000336759
-0.00248624 -0.000255479 -0.000152642
-0.000255479 0.00130828 -3.49185e-05
-0.000152642 -3.49185e-05 -0.000802167
0.00122116 0.000390843 -3.57229e-05
0.000390843 0.000914926 -1.20006e-05
-3.57229e-05 -1.20006e-05 0.000347387
-0.000310287 0.000215233 -6.38743e-06
0.000215233 0.000108269 2.76382e-06
-6.38743e-06 2.76382e-06 -0.00031172
0.00139953 0.000876368 8.51964e-06
0.000876368 0.000755914 6.15939e-07
8.51964e-06 6.15939e-07 0.000240237
-7.25904e-05 0.000980803 -7.73029e-07
0.000980803 0.00122426 -5.01271e-05
-7.73029e-07 -5.01271e-05 -0.000443465
0.00239444 0.00245152 0.000115545
0.00245152 0.0010116 2.71108e-05
0.000115545 2.71108e-05 -0.00039674
-0.00688551 0.00121943 0.000583203
0.00121943 0.00646906 -3.84335e-05
0.000583203 -3.84335e-05 -0.00282602
0.00200395 -0.000703518 -3.07836e-05
-0.000703518 0.00256933 9.85287e-05
-3.07836e-05 9.85287e-05 -0.00122465
-0.0031325 7.73436e-05 -4.06154e-05
7.73436e-05 0.0027288 0.00010808
-4.06154e-05 0.00010808 -0.000100257
-0.00117465 -0.000502523 -6.57057e-05
-0.000502523 0.000902299 1.20237e-05
-6.57057e-05 1.20237e-05 -0.000765432
-0.00179198 -0.00107558 -5.71818e-05
-0.00107558 0.000402 4.32164e-05
-5.71818e-05 4.32164e-05 0.000181817
-0.00160458 -0.00113855 -0.000287247
-0.00113855 0.00150022 0.000195632
-0.000287247 0.000195632 -0.00435072
-0.00190862 -0.00609676 0.000304352
-0.00609676 0.00253497 -0.000176868
0.000304352 -0.000176868 -0.00480208
0.0192355 0.00743493 0.000953301
0.00743493 0.00581766 -0.000430237
0.000953301 -0.000430237 -0.00227468
0.0200393 0.00848809 -0.00043323
0.00848809 0.0130871 0.000545911
-0.00043323 0.000545911 0.00346733
0.000711649 -0.0015509 -4.49609e-05
-0.0015509 0.00168958 1.09659e-05
-4.49609e-05 1.09659e-05 0.00029358
0.00506759 0.00202945 0.000331308
0.00202945 0.0115556 -6.82593e-05
0.000331308 -6.82593e-05 0.00426026
0.00725028 0.00690344 3.01413e-05
0.00690344 0.00309571 0.000111247
3.01413e-05 0.000111247 -0.00271653
0.00230633 -0.00461172 7.81187e-05
-0.00461172 0.000933074 -6.14532e-05
7.81187e-05 -6.14532e-05 0.000978827
0.0128554 -0.00743257 -1.46384e-06
-0.00743257 -3.70772e-05 1.53458e-05
-1.46384e-06 1.53458e-05 -0.00142362
0.00352863 -0.00273123 2.53634e-05
-0.00273123 0.00163437 2.17273e-05
2.53634e-05 2.17273e-05 0.00088295
-0.00512002 0.00288147 -0.00121294
0.00288147 -0.000223008 0.000175585
-0.00121294 0.000175585 -0.00594661
0.0159755 -0.00474298 -0.000324086
-0.00474298 -0.000517731 7.91063e-05
-0.000324086 7.91063e-05 -0.000673754
0.00451347 -0.00441168 0.000139124
-0.00441168 -0.000189979 -9.76791e-05
0.000139124 -9.76791e-05 0.00121777
0.000322029 -0.000796783 3.82999e-06
-0.000796783 0.000585445 -4.4073e-06
3.82999e-06 -4.4073e-06 -0.000142867
0.00233079 -0.00150457 3.0741e-05
-0.00150457 0.000859481 -1.17199e-05
3.0741e-05 -1.17199e-05 0.000308557
0.00197172 -0.00125726 1.01506e-05
-0.00125726 0.000273005 -1.5479e-05
1.01506e-05 -1.5479e-05 -0.000181752
-0.000247807 -0.000763168 -6.85979e-06
-0.000763168 -0.000372946 2.01096e-05
-6.85979e-06 2.01096e-05 -0.000866431
0.00220571 -0.00134604 -8.40565e-06
-0.00134604 0.000390298 -2.61008e-07
-8.40565e-06 -2.61008e-07 -0.000174135
0.00350846 -0.00149137 5.88742e-06
-0.00149137 0.000853152 -3.97578e-06
5.88742e-06 -3.97578e-06 0.000314915
0.00141311 -0.00111093 -1.02194e-05
-0.00111093 0.000139108 9.10426e-06
-1.02194e-05 9.10426e-06 -0.000647585
0.00267642 -0.00142775 -3.9943e-07
-0.00142775 0.000567957 3.47231e-06
-3.9943e-07 3.47231e-06 -0.000106966
0.00261546 -0.00108772 -1.47388e-06
-0.00108772 0.000286004 -2.45261e-06
-1.47388e-06 -2.45261e-06 -9.9638e-05
0.00221858 -0.00125098 9.97413e-06
-0.00125098 0.000527838 3.61974e-06
9.97413e-06 3.61974e-06 -0.000184426
0.0024415 -0.00100815 -2.06357e-06
-0.00100815 0.000379032 2.28592e-06
-2.06357e-06 2.28592e-06 -8.833e-05
0.00234315 -0.000711928 3.3473e-07
-0.000711928 9.89663e-05 -7.80941e-07
3.3473e-07 -7.80941e-07 -0.000120508
0.00232949 -0.000652464 -2.6134e-06
-0.000652464 0.000198069 4.94707e-07
-2.6134e-06 4.94707e-07 6.44173e-06
0.00193946 -0.000648812 -3.75555e-06
-0.000648812 -1.24235e-05 -1.84709e-06
-3.75555e-06 -1.84709e-06 -0.000290934
0.00208097 -0.000641061 1.27494e-06
-0.000641061 3.61174e-05 2.97443e-06
1.27494e-06 2.97443e-06 -0.000220034
0.00196989 -0.00082853 -3.90617e-06
-0.00082853 0.000144731 -4.87287e-06
-3.90617e-06 -4.87287e-06 -0.000276847
0.00229405 -0.000964293 3.13826e-06
-0.000964293 0.000300708 5.6303e-07
3.13826e-06 5.6303e-07 -0.000172029
0.00246188 -0.00099831 2.14911e-06
-0.00099831 0.000411245 4.26151e-06
2.14911e-06 4.26151e-06 -7.29507e-05
0.00222807 -0.00100682 5.92191e-08
-0.00100682 0.000568361 -6.01799e-06
5.92191e-08 -6.01799e-06 -6.14732e-06
0.00263952 -0.00113537 1.79901e-06
-0.00113537 0.000778283 -9.55829e-07
1.79901e-06 -9.55829e-07 0.000175316
0.00303732 -0.00128761 3.69482e-06
-0.00128761 0.000983667 -4.59279e-07
3.69482e-06 -4.59279e-07 0.000308176
0.00167651 -0.000682122 -5.22177e-06
-0.000682122 0.000512092 1.57351e-07
-5.22177e-06 1.57351e-07 3.32366e-05
0.00207422 -0.000973509 1.00067e-06
-0.000973509 0.000712458 5.56196e-07
1.00067e-06 5.56196e-07 0.000105132
0.00162324 -0.00102406 5.32123e-07
-0.00102406 0.000411328 4.33485e-06
5.32123e-07 4.33485e-06 -0.000210356
0.000684199 -0.00025815 -5.05885e-06
-0.00025815 8.59022e-05 -2.9615e-06
-5.05885e-06 -2.9615e-06 -0.000171891
0.00114003 -0.000443169 4.79241e-06
-0.000443169 0.00031099 4.16856e-07
4.79241e-06 4.16856e-07 -4.65866e-05
0.000864208 -0.000617396 -5.78159e-06
-0.000617396 0.000159432 6.37746e-06
-5.78159e-06 6.37746e-06 -0.000322867
0.000466353 -0.000138332 -2.10277e-05
-0.000138332 -4.71041e-05 1.62524e-05
-2.10277e-05 1.62524e-05 -0.000157029
0.000764764 -0.000246706 -1.6917e-06
-0.000246706 0.000191978 1.06668e-06
-1.6917e-06 1.06668e-06 -8.02969e-05
-0.000392971 -0.000287809 -4.60838e-06
-0.000287809 -0.000560257 -1.50943e-06
-4.60838e-06 -1.50943e-06 -0.000859646
0.00474314 0.000324562 2.92097e-05
0.000324562 0.00288006 1.1332e-05
2.92097e-05 1.1332e-05 0.00281107
0.000424891 -0.000101887 5.76667e-07
-0.000101887 -4.19574e-05 -4.33358e-07
5.76667e-07 -4.33358e-07 -0.000140101
0.00145032 -0.000244695 2.18674e-06
-0.000244695 0.000648817 -1.27278e-06
2.18674e-06 -1.27278e-06 0.000401885
0.00406951 0.000150069 1.15549e-05
0.000150069 0.00237409 7.95912e-07
1.15549e-05 7.95912e-07 0.00236256
0.000704747 -6.67108e-05 1.11957e-05
-6.67108e-05 0.000153487 -1.53881e-05
1.11957e-05 -1.53881e-05 7.52991e-05
0.00365385 0.000113757 8.0056e-05
0.000113757 0.0020896 -7.66356e-06
8.0056e-05 -7.66356e-06 0.00208753
0.00240068 0.000466361 2.89164e-06
0.000466361 0.00118646 5.39742e-06
2.89164e-06 5.39742e-06 0.000883498
0.000299986 0.000219025 1.26552e-06
0.000219025 -2.49951e-05 9.13287e-07
1.26552e-06 9.13287e-07 -0.000322258
0.00133283 0.000586051 -5.95965e-06
0.000586051 0.000707454 -4.10374e-06
-5.95965e-06 -4.10374e-06 0.000348811
0.00131556 0.000195398 -8.70383e-07
0.000195398 0.000583807 -1.26757e-05
-8.70383e-07 -1.26757e-05 0.000391024
0.000926938 0.000169396 5.9333e-08
0.000169396 0.000537423 4.04674e-07
5.9333e-08 4.04674e-07 0.00016098
-0.000124962 0.000119473 -2.3169e-06
0.000119473 -0.000100838 6.79116e-06
-2.3169e-06 6.79116e-06 -0.000474173
0.000564127 8.17644e-06 -3.30075e-06
8.17644e-06 8.8124e-05 -1.48974e-05
-3.30075e-06 -1.48974e-05 3.02253e-05
0.000633735 7.8766e-05 4.79957e-07
7.8766e-05 0.000152846 3.89127e-07
4.79957e-07 3.89127e-07 1.71589e-06
-0.00031756 7.39651e-05 -5.03745e-06
7.39651e-05 -0.000382914 1.70964e-05
-5.03745e-06 1.70964e-05 -0.000629944
0.0030668 -8.77727e-05 -5.3786e-05
-8.77727e-05 0.00170502 -6.88017e-06
-5.3786e-05 -6.88017e-06 0.00170903
0.000387926 -2.92048e-05 1.93704e-06
-2.92048e-05 -3.15933e-05 -4.26348e-07
1.93704e-06 -4.26348e-07 -7.8147e-05
0.000557566 6.57699e-05 -4.29629e-06
6.57699e-05 0.000111811 7.18969e-06
-4.29629e-06 7.18969e-06 -1.95268e-05
0.00281571 -7.25833e-05 -9.04875e-06
-7.25833e-05 0.00153508 7.0642e-07
-9.04875e-06 7.0642e-07 0.00154108
0.00039975 1.99005e-05 -1.13065e-06
1.99005e-05 -3.62252e-05 8.54208e-06
-1.13065e-06 8.54208e-06 -7.20031e-05
0.00249299 -5.18402e-05 2.48883e-05
-5.18402e-05 0.00131895 5.81508e-06
2.48883e-05 5.81508e-06 0.00132921
-0.00609171 0.000524135 -0.00039901
0.000524135 0.00584923 7.4123e-05
-0.00039901 7.4123e-05 -0.00278229
0.00665294 0.00123587 6.44403e-05
0.00123587 0.0045439 1.44999e-06
6.44403e-05 1.44999e-06 0.00105104
-0.00135871 0.000831771 0.000188157
0.000831771 0.00201426 9.21302e-05
0.000188157 9.21302e-05 -0.00104474
0.000405868 0.000303087 -1.04007e-05
0.000303087 -1.42765e-05 1.13384e-05
-1.04007e-05 1.13384e-05 -0.000364313
0.00436502 0.0010972 2.53261e-05
0.0010972 0.00242379 2.87713e-05
2.53261e-05 2.87713e-05 0.00184456
0.000385479 0.000295365 -1.60448e-05
0.000295365 0.00027634 8.35525e-06
-1.60448e-05 8.35525e-06 -0.000254495
0.000820212 0.000174956 -1.13843e-05
0.000174956 0.000402241 -1.55185e-05
-1.13843e-05 -1.55185e-05 0.000130929
0.00349217 0.000494237 -3.87844e-06
0.000494237 0.00182816 -8.49191e-06
-3.87844e-06 -8.49191e-06 0.00158423
-0.00209992 2.02751e-05 -7.98832e-06
2.02751e-05 -0.00151964 1.74495e-05
-7.98832e-06 1.74495e-05 -0.00163892
-0.00033046 0.0002938 2.53503e-07
0.0002938 -0.000157177 7.4879e-06
2.53503e-07 7.4879e-06 -0.000503745
5.0786e-05 0.000171728 -7.8474e-06
0.000171728 -0.00014765 -5.19632e-06
-7.8474e-06 -5.19632e-06 -0.000509554
0.000740354 0.000854418 -1.10651e-05
0.000854418 0.000348363 -1.97501e-05
-1.10651e-05 -1.97501e-05 -0.000255334
-0.00105908 0.000679987 -3.24817e-05
0.000679987 -0.000947685 7.04721e-05
-3.24817e-05 7.04721e-05 -0.00118072
0.000546346 5.46526e-05 -1.4642e-05
5.46526e-05 0.000329614 1.11563e-05
-1.4642e-05 1.11563e-05 4.16163e-05
0.0023396 0.00060012 1.61839e-05
0.00060012 0.00150357 -4.10034e-06
1.61839e-05 -4.10034e-06 0.000976602
0.00545114 -0.00484479 -0.00297835
-0.00484479 0.00364449 -0.000176524
-0.00297835 -0.000176524 -0.00337703
0.00333243 -0.00599737 0.000967972
-0.00599737 0.0115777 0.000120751
0.000967972 0.000120751 0.00224753
0.00989465 0.00372669 -0.00108564
0.00372669 0.00390104 -0.000340214
-0.00108564 -0.000340214 -0.0028564
0.0214709 -0.0185142 0.00322924
-0.0185142 0.0160308 0.00182218
0.00322924 0.00182218 0.00503244
0.0314958 -0.00505748 -0.000153762
-0.00505748 0.0132696 0.000539927
-0.000153762 0.000539927 0.00551622
-0.00275572 0.00156961 -0.000140176
0.00156961 0.00374924 -0.000222289
-0.000140176 -0.000222289 -0.00312867
-0.00129407 0.000174195 -0.000193562
0.000174195 0.00275037 -4.63571e-06
-0.000193562 -4.63571e-06 0.00055959
0.000401098 0.00123213 8.0426e-05
0.00123213 0.0022724 6.02912e-05
8.0426e-05 6.02912e-05 0.00129049
0.0266223 -0.00763666 -0.00093298
-0.00763666 0.0122695 0.000104335
-0.00093298 0.000104335 0.00366701
-0.00116056 0.00578091 -0.000292579
0.00578091 0.00105967 -4.06661e-05
-0.000292579 -4.06661e-05 -0.00386692
0.00326716 0.00365574 8.68643e-05
0.00365574 0.00135161 -8.7599e-05
8.68643e-05 -8.7599e-05 0.00194384
0.00850523 0.00990755 -0.000947214
0.00990755 -0.00153767 -9.51168e-05
-0.000947214 -9.51168e-05 -0.00323532
0.00439079 0.00181409 4.04529e-05
0.00181409 0.00186354 -1.16852e-05
4.04529e-05 -1.16852e-05 0.00129611
0.000980559 0.00080083 -4.95213e-06
0.00080083 0.000213509 -4.11214e-06
-4.95213e-06 -4.11214e-06 5.5389e-06
-0.000205089 0.000285158 -3.37391e-05
0.000285158 2.70297e-05 -1.42316e-05
-3.37391e-05 -1.42316e-05 -0.000474369
-0.000843657 0.000891587 -0.000157645
0.000891587 0.000960468 -8.08876e-05
-0.000157645 -8.08876e-05 -0.000488359
0.000360184 0.000813534 -6.65132e-05
0.000813534 0.000129942 -5.31951e-05
-6.65132e-05 -5.31951e-05 -0.000334544
0.00275021 0.00250721 3.36466e-06
0.00250721 0.0010467 -1.41604e-05
3.36466e-06 -1.41604e-05 -0.000297686
-0.00172187 0.00241392 0.000127703
0.00241392 -0.00226813 7.27969e-05
0.000127703 7.27969e-05 -0.00280937
-0.00699973 -0.000796903 -0.0010661
-0.000796903 -0.00201201 7.3364e-05
-0.0010661 7.3364e-05 -0.00531382
-0.0105712 0.000506693 0.000757804
0.000506693 0.0069645 6.20891e-06
0.000757804 6.20891e-06 -0.000747343
0.00239085 0.000207476 -0.000228279
0.000207476 0.00242244 3.81268e-05
-0.000228279 3.81268e-05 -5.96601e-05
0.00107824 -0.00166766 -7.54767e-05
-0.00166766 0.00133566 -6.30698e-05
-7.54767e-05 -6.30698e-05 -2.76103e-05
-0.00087623 -0.00335334 0.000224181
-0.00335334 4.76621e-05 1.22086e-05
0.000224181 1.22086e-05 -1.22531e-06
0.00235572 0.0022199 0.000416793
0.0022199 0.0109856 0.000116044
0.000416793 0.000116044 0.0034265
0.00596202 -0.00723931 0.000936507
-0.00723931 -0.00239775 -8.25237e-05
0.000936507 -8.25237e-05 -0.00276449
0.0250024 0.00642957 0.00178774
0.00642957 0.0126222 -6.95526e-06
0.00178774 -6.95526e-06 0.00615917
0.00237423 -0.00307305 -2.4176e-05
-0.00307305 0.000760627 3.89513e-07
-2.4176e-05 3.89513e-07 -0.000272976
0.00576871 0.00354077 0.000477959
0.00354077 0.00328493 -0.000143829
0.000477959 -0.000143829 -0.00192657
0.00794882 -0.00441345 -0.00026121
-0.00441345 -0.00530801 0.00021594
-0.00026121 0.00021594 -0.00578148
0.00249884 -0.00400837 -1.85081e-05
-0.00400837 -0.00143524 3.76386e-05
-1.85081e-05 3.76386e-05 0.000651562
0.00274633 -0.0023942 6.02258e-05
-0.0023942 5.3502e-05 -9.2844e-06
6.02258e-05 -9.2844e-06 -0.000137862
0.019855 -0.00134522 -0.000138474
-0.00134522 0.00212495 0.000114456
-0.000138474 0.000114456 0.00207773
0.00285912 -0.00295336 0.000135645
-0.00295336 -0.00441142 -0.000128518
0.000135645 -0.000128518 -0.00142365
0.00169936 -0.00154719 -6.67783e-05
-0.00154719 0.000427864 5.05261e-05
-6.67783e-05 5.05261e-05 9.71128e-06
0.000627616 -0.00104805 -1.7874e-05
-0.00104805 -0.000445432 1.30683e-06
-1.7874e-05 1.30683e-06 -0.000738748
0.00558232 -0.00152623 4.98941e-05
-0.00152623 0.00185154 -2.31695e-05
4.98941e-05 -2.31695e-05 0.00152344
0.000686163 -0.00116171 -1.84692e-05
-0.00116171 -0.000394984 1.38303e-05
-1.84692e-05 1.38303e-05 -0.000937163
0.00277641 -0.00139665 2.61347e-07
-0.00139665 0.000480081 -5.62301e-07
2.61347e-07 -5.62301e-07 -3.44948e-05
0.00317949 -0.00113448 2.65255e-06
-0.00113448 0.000416271 -1.23848e-06
2.65255e-06 -1.23848e-06 0.000194632
0.00257546 -0.0014028 7.95807e-06
-0.0014028 0.000516633 9.05377e-06
7.95807e-06 9.05377e-06 -0.000156677
0.00265561 -0.0010817 -3.74819e-06
-0.0010817 0.000305602 1.42671e-06
-3.74819e-06 1.42671e-06 -7.02579e-05
0.00247484 -0.000755423 4.30945e-07
-0.000755423 2.98786e-06 5.4459e-09
4.30945e-07 5.4459e-09 -7.29822e-05
0.00215344 -0.000965607 8.61691e-06
-0.000965607 0.000213864 5.79305e-06
8.61691e-06 5.79305e-06 -0.000239991
0.00228225 -0.000699068 4.92665e-08
-0.000699068 6.06463e-05 2.34362e-06
4.92665e-08 2.34362e-06 -0.000147913
0.0024247 -0.000724757 -1.1436e-06
-0.000724757 9.47271e-05 1.74372e-06
-1.1436e-06 1.74372e-06 -2.03908e-05
0.00236362 -0.000697055 -3.72446e-06
-0.000697055 0.000148842 7.4624e-07
-3.72446e-06 7.4624e-07 -5.12697e-06
0.00233304 -0.000654571 -3.44892e-06
-0.000654571 0.000187357 2.39655e-06
-3.44892e-06 2.39655e-06 2.08856e-06
0.00233693 -0.000637891 -1.11503e-06
-0.000637891 0.000279953 -1.86905e-06
-1.11503e-06 -1.86905e-06 6.20999e-05
0.00234668 -0.000699913 -6.75416e-06
-0.000699913 0.000288554 -2.9321e-06
-6.75416e-06 -2.9321e-06 -1.049e-05
0.0021843 -0.000666221 1.13868e-06
-0.000666221 0.000153227 1.46852e-06
1.13868e-06 1.46852e-06 -0.000126409
0.00206918 -0.0006384 2.21107e-06
-0.0006384 1.17186e-05 7.98205e-06
2.21107e-06 7.98205e-06 -0.000240655
0.00225294 -0.000832303 -5.77615e-06
-0.000832303 0.000380393 -6.01261e-06
-5.77615e-06 -6.01261e-06 -5.19864e-05
0.00193072 -0.000837371 -5.99325e-07
-0.000837371 0.000102923 1.60523e-07
-5.99325e-07 1.60523e-07 -0.000324255
0.00244735 -0.000974531 7.65909e-06
-0.000974531 0.000415764 4.54201e-06
7.65909e-06 4.54201e-06 -5.47036e-05
0.00186463 -0.000823327 -5.59061e-06
-0.000823327 0.000406164 -2.15336e-06
-5.59061e-06 -2.15336e-06 -0.00011318
0.00237001 -0.00102672 -6.78824e-07
-0.00102672 0.000646043 6.59314e-07
-6.78824e-07 6.59314e-07 6.65287e-05
0.00244954 -0.00112147 5.20686e-06
-0.00112147 0.000651385 2.58979e-06
5.20686e-06 2.58979e-06 4.74127e-05
0.00129379 -0.000352373 -1.20391e-05
-0.000352373 0.00038591 9.88197e-06
-1.20391e-05 9.88197e-06 9.50651e-05
0.00150662 -0.000667428 8.92824e-07
-0.000667428 0.000396641 1.3016e-06
8.92824e-07 1.3016e-06 -7.76124e-05
0.00209902 -0.000965026 -2.51974e-06
-0.000965026 0.000729308 7.32923e-06
-2.51974e-06 7.32923e-06 0.000128339
0.000318771 -0.000204599 -3.02825e-05
-0.000204599 -0.000175073 1.85878e-05
-3.02825e-05 1.85878e-05 -0.000304771
0.000659698 -0.000250232 -1.76171e-06
-0.000250232 8.74136e-05 -9.30572e-07
-1.76171e-06 -9.30572e-07 -0.000186894
-0.000204359 -0.000409704 2.87085e-06
-0.000409704 -0.00053978 -9.84187e-07
2.87085e-06 -9.84187e-07 -0.000899373
0.00546213 0.000205729 -0.000130383
0.000205729 0.00330583 1.24248e-05
-0.000130383 1.24248e-05 0.00327621
0.000597875 -0.000171868 1.94368e-06
-0.000171868 2.40378e-05 -8.3387e-08
1.94368e-06 -8.3387e-08 -8.77483e-05
0.000760116 -0.000283865 3.4947e-06
-0.000283865 0.000194833 1.30119e-07
3.4947e-06 1.30119e-07 -8.94435e-05
0.0031204 0.000156245 7.66054e-05
0.000156245 0.00178448 1.18403e-06
7.66054e-05 1.18403e-06 0.00174237
0.000764489 -0.000110027 1.80981e-05
-0.000110027 0.000169385 -1.63892e-05
1.80981e-05 -1.63892e-05 6.64201e-05
0.00432358 0.000137513 0.000108103
0.000137513 0.00253809 -1.05215e-05
0.000108103 -1.05215e-05 0.00252933
0.00222709 0.000529855 4.71719e-08
0.000529855 0.000963845 8.07626e-06
4.71719e-08 8.07626e-06 0.0006041
0.000853189 0.000277499 -4.63879e-06
0.000277499 0.000186727 1.05781e-06
-4.63879e-06 1.05781e-06 -6.55412e-05
0.000158758 0.00023635 2.27486e-06
0.00023635 -0.000165621 1.69139e-06
2.27486e-06 1.69139e-06 -0.000446592
0.00127938 0.000292459 -7.34738e-07
0.000292459 0.000591446 -4.92311e-06
-7.34738e-07 -4.92311e-06 0.000296825
0.00122698 0.00015609 -8.6355e-07
0.00015609 0.000627992 3.8964e-07
-8.6355e-07 3.8964e-07 0.000294909
0.00116268 0.000157639 -5.07157e-07
0.000157639 0.000521054 -1.46358e-05
-5.07157e-07 -1.46358e-05 0.000270861
0.00062369 8.14857e-05 -1.26164e-05
8.14857e-05 0.000114601 -1.83118e-05
-1.26164e-05 -1.83118e-05 4.28315e-05
0.00060942 0.000135054 -8.23269e-07
0.000135054 0.00015404 2.4034e-07
-8.23269e-07 2.4034e-07 -4.38571e-05
-0.00135457 -6.14364e-06 -1.04852e-05
-6.14364e-06 -0.000976954 1.90497e-05
-1.04852e-05 1.90497e-05 -0.00130187
0.0033899 -9.85881e-05 -7.8553e-05
-9.85881e-05 0.00192461 -8.90541e-06
-7.8553e-05 -8.90541e-06 0.00192669
0.00025469 3.93269e-05 1.42605e-06
3.93269e-05 -0.000110902 -3.23339e-07
1.42605e-06 -3.23339e-07 -0.000167857
0.000622797 0.000110946 -3.011e-06
0.000110946 0.000149109 1.08342e-05
-3.011e-06 1.08342e-05 -2.15234e-06
0.00303525 -9.3434e-05 -9.73734e-06
-9.3434e-05 0.00168624 8.9673e-07
-9.73734e-06 8.9673e-07 0.00168816
0.000236542 -7.07004e-06 -2.88134e-07
-7.07004e-06 -0.000125782 1.08793e-05
-2.88134e-07 1.08793e-05 -0.000172537
0.00272503 -7.29803e-05 3.09671e-05
-7.29803e-05 0.00147593 6.33716e-06
3.09671e-05 6.33716e-06 0.00148161
0.00283633 -0.000926407 -0.00174069
-0.000926407 0.00452444 -6.91998e-05
-0.00174069 -6.91998e-05 0.0017838
-0.00374844 -0.000706255 -3.70578e-05
-0.000706255 0.00740778 -4.73052e-05
-3.70578e-05 -4.73052e-05 -0.00168546
0.00685971 0.000723979 -0.000549922
0.000723979 0.00426707 -0.000145611
-0.000549922 -0.000145611 0.000946468
0.000598085 0.000198603 4.38613e-06
0.000198603 8.05708e-05 3.94343e-06
4.38613e-06 3.94343e-06 -0.000245745
0.000240933 0.000204609 1.05286e-05
0.000204609 -1.40403e-06 3.21288e-06
1.05286e-05 3.21288e-06 -0.000463433
0.00268543 0.00084631 -6.63858e-06
0.00084631 0.00137139 2.89792e-07
-6.63858e-06 2.89792e-07 0.000833781
0.00250829 0.00107746 2.74643e-05
0.00107746 0.0011057 1.42853e-05
2.74643e-05 1.42853e-05 0.000430323
0.0012678 0.000791969 2.77159e-06
0.000791969 0.000758426 1.57382e-05
2.77159e-06 1.57382e-05 0.000172152
0.0030481 0.000432422 -1.71717e-06
0.000432422 0.00186954 3.55047e-06
-1.71717e-06 3.55047e-06 0.00156462
0.00205715 0.000388119 1.71666e-05
0.000388119 0.00116244 8.51819e-06
1.71666e-05 8.51819e-06 0.000795597
0.00186251 0.000842598 -4.08288e-06
0.000842598 0.00103265 2.54639e-06
-4.08288e-06 2.54639e-06 0.000449992
0.00149646 0.00116738 8.53413e-06
0.00116738 0.000353163 -3.01159e-06
8.53413e-06 -3.01159e-06 -0.000184268
0.00273324 0.00125294 2.15088e-08
0.00125294 0.00103997 3.91653e-05
2.15088e-08 3.91653e-05 0.000697333
0.00201866 0.00142256 3.9781e-05
0.00142256 0.000306914 1.47463e-06
3.9781e-05 1.47463e-06 4.44749e-07
0.00115787 0.000921867 1.54662e-05
0.000921867 0.00034761 3.48572e-06
1.54662e-05 3.48572e-06 -1.38971e-05
0.0015927 0.000772079 3.55753e-06
0.000772079 0.0010224 1.36302e-05
3.55753e-06 1.36302e-05 0.00039486
0.0173896 0.00505959 -0.000149705
0.00505959 0.00121396 6.532e-05
-0.000149705 6.532e-05 0.00104624
0.00918031 -0.00410672 -0.000884701
-0.00410672 0.00597541 -0.000262496
-0.000884701 -0.000262496 0.000894902
0.00456684 -0.00752927 0.00158881
-0.00752927 0.0127869 0.000258286
0.00158881 0.000258286 0.00349885
0.0187686 -0.00402089 0.0007393
-0.00402089 0.00775662 0.000208364
0.0007393 0.000208364 6.80124e-05
0.0115027 0.00802261 -0.000209089
0.00802261 0.00448107 -7.45179e-05
-0.000209089 -7.45179e-05 0.000126806
-0.00212295 0.000882747 -1.75621e-05
0.000882747 0.00138778 1.06607e-06
-1.75621e-05 1.06607e-06 0.000292511
0.00174386 0.00317365 -0.00011246
0.00317365 0.000586486 -5.23749e-05
-0.00011246 -5.23749e-05 0.00156998
0.0117205 0.00825849 1.88994e-05
0.00825849 -0.000107624 4.99691e-05
1.88994e-05 4.99691e-05 -0.00232239
0.00770588 0.00594514 -0.00019683
0.00594514 -0.000737853 -0.00014726
-0.00019683 -0.00014726 0.000522295
0.00144286 0.00168882 1.7865e-05
0.00168882 1.86052e-05 -1.86743e-05
1.7865e-05 -1.86743e-05 -0.000400359
0.00159143 0.00132753 1.5535e-05
0.00132753 0.000460417 -1.03423e-06
1.5535e-05 -1.03423e-06 3.64294e-05
0.00227868 0.00088162 -4.15056e-05
0.00088162 0.0010923 -2.37344e-05
-4.15056e-05 -2.37344e-05 0.000879463
0.00182975 0.00245369 -9.49891e-05
0.00245369 0.000388423 -4.47077e-05
-9.49891e-05 -4.47077e-05 -0.000884127
0.00180461 0.00286928 0.000122079
0.00286928 -0.000656087 6.41776e-05
0.000122079 6.41776e-05 -0.0014596
0.00603906 -0.000430168 -0.000121746
-0.000430168 -0.00576563 2.70688e-05
-0.000121746 2.70688e-05 -0.00641624
-0.000137945 -0.00263011 3.94026e-06
-0.00263011 0.00401767 7.80497e-05
3.94026e-06 7.80497e-05 0.00112622
-0.0145046 -0.000420835 0.000726209
-0.000420835 0.00805606 -3.89923e-06
0.000726209 -3.89923e-06 0.00204599
0.00262978 -0.00373847 -0.000118761
-0.00373847 0.000439492 5.55211e-05
-0.000118761 5.55211e-05 -0.000890111
0.00666503 -0.00543808 1.77933e-05
-0.00543808 -0.000370342 8.45384e-05
1.77933e-05 8.45384e-05 0.00111624
0.00623306 0.00120707 0.00179557
0.00120707 0.00581221 -0.00038684
0.00179557 -0.00038684 0.00268649
0.0151062 -0.00437747 -0.000432646
-0.00437747 -0.00064019 0.000273641
-0.000432646 0.000273641 0.000185479
0.00220711 -0.00237226 -2.97246e-05
-0.00237226 -0.000222657 1.03847e-05
-2.97246e-05 1.03847e-05 -0.000551842
0.0128923 -0.00056936 -0.000339309
-0.00056936 -0.00286193 0.000111281
-0.000339309 0.000111281 -0.00283215
0.00737782 -0.00344674 0.000104941
-0.00344674 -0.00162781 8.58187e-06
0.000104941 8.58187e-06 0.000501162
0.00335217 -0.00187708 5.45696e-05
-0.00187708 -0.000498619 -5.13547e-05
5.45696e-05 -5.13547e-05 -0.000288908
0.00287673 -0.00135875 6.61453e-05
-0.00135875 -0.00365495 -1.28964e-05
6.61453e-05 -1.28964e-05 -0.000806942
-0.000658384 -0.000903801 -1.51263e-05
-0.000903801 -0.00117207 2.34102e-05
-1.51263e-05 2.34102e-05 -0.00134066
0.00138851 -0.00106152 -2.10308e-05
-0.00106152 -0.000502754 4.52854e-06
-2.10308e-05 4.52854e-06 -0.000528941
0.0038391 -0.00106147 4.26435e-05
-0.00106147 0.000576372 -1.77825e-05
4.26435e-05 -1.77825e-05 0.000680085
0.00232447 -0.00133615 -1.26621e-05
-0.00133615 0.000251153 8.15591e-06
-1.26621e-05 8.15591e-06 -0.000246509
0.00280668 -0.00110954 -4.44683e-06
-0.00110954 0.00020058 1.63936e-06
-4.44683e-06 1.63936e-06 -2.06335e-05
0.00284421 -0.000857794 5.8512e-06
-0.000857794 2.63058e-05 -6.69513e-07
5.8512e-06 -6.69513e-07 4.4509e-05
0.00243181 -0.00103834 -7.31385e-06
-0.00103834 0.000190356 7.49813e-06
-7.31385e-06 7.49813e-06 -0.000166092
0.00240014 -0.000749697 8.95948e-08
-0.000749697 -4.48948e-05 1.59042e-06
8.95948e-08 1.59042e-06 -0.000120418
0.00258854 -0.000750599 -3.84714e-07
-0.000750599 3.8736e-05 -1.26271e-07
-3.84714e-07 -1.26271e-07 2.8527e-05
0.00223206 -0.000683089 1.90005e-06
-0.000683089 3.52199e-05 4.73389e-06
1.90005e-06 4.73389e-06 -0.000160995
0.00239717 -0.00071697 -8.3233e-08
-0.00071697 8.77347e-05 7.37212e-07
-8.3233e-08 7.37212e-07 -2.72219e-05
0.00254528 -0.000736167 -1.73735e-06
-0.000736167 0.000113599 5.52423e-07
-1.73735e-06 5.52423e-07 2.52215e-05
0.00233926 -0.000701804 -5.05352e-06
-0.000701804 0.000125555 7.1846e-07
-5.05352e-06 7.1846e-07 -2.07025e-05
0.00234379 -0.000663126 -1.39104e-06
-0.000663126 0.000186417 -9.85158e-08
-1.39104e-06 -9.85158e-08 2.15722e-05
0.00234181 -0.000656834 4.87333e-07
-0.000656834 0.000183773 3.67548e-06
4.87333e-07 3.67548e-06 4.38629e-06
0.00235194 -0.00063523 8.61748e-07
-0.00063523 0.000289498 -5.17412e-07
8.61748e-07 -5.17412e-07 7.14729e-05
0.00225932 -0.000643782 -3.00381e-06
-0.000643782 0.000258126 -1.02916e-06
-3.00381e-06 -1.02916e-06 1.43998e-05
0.00236871 -0.000698887 -2.84409e-06
-0.000698887 0.000373901 -6.2536e-06
-2.84409e-06 -6.2536e-06 5.41005e-05
0.00240483 -0.000708484 -5.75915e-07
-0.000708484 0.000327764 1.90542e-07
-5.75915e-07 1.90542e-07 2.59316e-05
0.00243832 -0.000682722 7.96356e-06
-0.000682722 0.000328527 4.64255e-06
7.96356e-06 4.64255e-06 4.79582e-05
0.00194871 -0.000764618 -6.86768e-06
-0.000764618 0.000281927 -3.07343e-06
-6.86768e-06 -3.07343e-06 -0.000168794
0.00218191 -0.000832765 -1.86082e-06
-0.000832765 0.000323214 -1.04982e-06
-1.86082e-06 -1.04982e-06 -0.000114796
0.00186158 -0.000842112 4.73685e-06
-0.000842112 4.11154e-05 4.45502e-06
4.73685e-06 4.45502e-06 -0.000390541
0.00132868 -0.000443821 -1.85509e-05
-0.000443821 0.000257817 1.03247e-05
-1.85509e-05 1.03247e-05 -8.19053e-05
0.00195333 -0.000827725 7.76343e-08
-0.000827725 0.000474283 1.33051e-06
7.76343e-08 1.33051e-06 -4.37784e-05
0.00251017 -0.00104379 3.9633e-07
-0.00104379 0.000725792 6.40361e-06
3.9633e-07 6.40361e-06 0.000142611
0.000299256 -0.000230511 -1.71942e-05
-0.000230511 -0.000184505 2.53555e-05
-1.71942e-05 2.53555e-05 -0.000353905
0.000703655 -0.000332632 2.90845e-06
-0.000332632 8.51408e-06 -5.40432e-07
2.90845e-06 -5.40432e-07 -0.000290072
0.00122199 -0.000634034 5.25182e-06
-0.000634034 0.000210631 1.75996e-06
5.25182e-06 1.75996e-06 -0.000252366
0.0066754 9.70709e-05 -0.000228535
9.70709e-05 0.00405055 1.66208e-05
-0.000228535 1.66208e-05 0.00404781
0.000388294 -0.0002221 -9.52425e-06
-0.0002221 -0.000122752 -1.25356e-06
-9.52425e-06 -1.25356e-06 -0.000260668
0.000496928 -0.000302158 4.79138e-06
-0.000302158 1.41077e-05 -4.02564e-06
4.79138e-06 -4.02564e-06 -0.000285877
0.00597202 0.000156905 9.2809e-06
0.000156905 0.00362832 -2.58734e-06
9.2809e-06 -2.58734e-06 0.00361079
0.00056216 -0.000200244 3.18303e-05
-0.000200244 1.53401e-06 -1.6237e-05
3.18303e-05 -1.6237e-05 -0.00011627
0.00532995 0.000144349 0.000170021
0.000144349 0.00320848 -1.60657e-05
0.000170021 -1.60657e-05 0.00319621
0.00321581 0.00103758 2.22938e-06
0.00103758 0.00153788 9.90311e-06
2.22938e-06 9.90311e-06 0.000909837
0.00126526 0.000513688 -2.39538e-06
0.000513688 0.0003706 1.04315e-06
-2.39538e-06 1.04315e-06 -1.70259e-05
0.000736931 0.000299601 8.40899e-06
0.000299601 0.000112323 -1.90959e-06
8.40899e-06 -1.90959e-06 -0.000166808
-0.00110242 0.00011074 -6.247e-07
0.00011074 -0.00102902 -1.08061e-05
-6.247e-07 -1.08061e-05 -0.00127096
0.000113079 0.000290157 5.43097e-06
0.000290157 -0.000233093 -1.16728e-06
5.43097e-06 -1.16728e-06 -0.000483732
0.000115037 0.000346412 -8.77013e-06
0.000346412 -0.000233774 -7.10193e-06
-8.77013e-06 -7.10193e-06 -0.00047519
-0.000260897 9.19896e-05 -5.846e-06
9.19896e-05 -0.000315914 3.39224e-06
-5.846e-06 3.39224e-06 -0.000660781
0.000750444 0.000195496 1.7077e-06
0.000195496 0.000257568 5.83185e-07
1.7077e-06 5.83185e-07 4.15011e-06
0.000792347 0.0001226 -1.943e-05
0.0001226 0.00021275 -2.07715e-05
-1.943e-05 -2.07715e-05 0.000114737
0.00383042 -0.000113499 -0.000102987
-0.000113499 0.00222394 -1.29846e-05
-0.000102987 -1.29846e-05 0.00222157
0.00046707 4.98894e-05 3.644e-06
4.98894e-05 2.72838e-05 -3.10519e-07
3.644e-06 -3.10519e-07 -4.60205e-05
5.30599e-05 5.42411e-05 -4.1629e-06
5.42411e-05 -0.000175129 1.43729e-05
-4.1629e-06 1.43729e-05 -0.000383404
0.00333959 -0.00011762 -1.23209e-05
-0.00011762 0.00189501 1.24859e-06
-1.23209e-05 1.24859e-06 0.00189145
0.00030762 -7.25467e-05 -1.12916e-05
-7.25467e-05 -6.20194e-05 1.50445e-05
-1.12916e-05 1.50445e-05 -0.000126974
0.0029673 -9.46082e-05 4.03891e-05
-9.46082e-05 0.00164281 6.72313e-06
4.03891e-05 6.72313e-06 0.00164382
0.0161374 0.000941056 0.00072814
0.000941056 0.000504663 0.000163741
0.00072814 0.000163741 0.00124864
0.00211555 -0.00527203 -0.00102026
-0.00527203 -0.000573731 -8.17217e-05
-0.00102026 -8.17217e-05 -0.00581287
-0.00742951 0.00149268 -0.000292729
0.00149268 0.0070271 -0.000111071
-0.000292729 -0.000111071 -0.00159805
3.66219e-05 0.000113949 1.31471e-05
0.000113949 -0.000143765 -3.37396e-05
1.31471e-05 -3.37396e-05 -0.000638748
0.000515397 0.000584482 -7.59203e-06
0.000584482 3.13485e-05 -8.74199e-06
-7.59203e-06 -8.74199e-06 -0.00047781
0.00245655 0.00089214 -1.38676e-05
0.00089214 0.00136648 -6.46787e-06
-1.38676e-05 -6.46787e-06 0.000761537
0.00136323 0.000916546 6.64458e-07
0.000916546 0.000418906 -1.00973e-07
6.64458e-07 -1.00973e-07 -0.000216069
0.00191292 0.000999553 2.27448e-05
0.000999553 0.000455984 2.46393e-05
2.27448e-05 2.46393e-05 -0.000117843
-8.51569e-05 0.000869899 3.63699e-05
0.000869899 -0.000537794 1.15766e-05
3.63699e-05 1.15766e-05 -0.00104581
0.00197651 0.00076781 -1.38088e-05
0.00076781 0.00110423 -1.04516e-06
-1.38088e-05 -1.04516e-06 0.000548949
0.00100773 0.00108677 8.02484e-06
0.00108677 4.45125e-05 4.93325e-06
8.02484e-06 4.93325e-06 -0.000470448
0.0020463 0.00113643 2.92978e-05
0.00113643 0.00071245 3.54583e-06
2.92978e-05 3.54583e-06 0.000318369
0.00217836 0.00112798 1.24079e-05
0.00112798 0.000635784 2.51883e-06
1.24079e-05 2.51883e-06 0.000147246
0.00202608 0.00125268 1.1501e-05
0.00125268 0.000329287 5.01152e-06
1.1501e-05 5.01152e-06 6.99871e-05
0.00243002 0.00146493 2.60322e-05
0.00146493 0.000549602 1.11869e-05
2.60322e-05 1.11869e-05 3.19001e-05
0.00136788 0.00132976 1.24135e-05
0.00132976 -3.25081e-05 -1.45077e-06
1.24135e-05 -1.45077e-06 -0.000293255
0.00245792 0.00100286 -3.50222e-05
0.00100286 0.00107668 -8.86878e-05
-3.50222e-05 -8.86878e-05 0.00069938
0.00385725 0.00284348 3.16999e-05
0.00284348 -0.00400879 5.65085e-05
3.16999e-05 5.65085e-05 -0.000703523
0.0131565 0.00579443 0.000416893
0.00579443 -0.00195655 0.000250783
0.000416893 0.000250783 -0.00238548
0.0174864 -0.00763866 0.00109989
-0.00763866 0.00878264 -0.000154355
0.00109989 -0.000154355 0.00187591
0.00692681 0.00948396 0.00105347
0.00948396 -0.00176601 0.000461937
0.00105347 0.000461937 -0.00489853
-0.000965208 0.00219551 -3.64041e-05
0.00219551 7.3353e-05 2.93855e-05
-3.64041e-05 2.93855e-05 0.000658426
0.00352078 0.00356571 -9.2152e-05
0.00356571 -0.00140532 -6.69187e-05
-9.2152e-05 -6.69187e-05 0.000479571
0.00722442 0.0032475 5.12055e-05
0.0032475 0.00105474 3.05011e-05
5.12055e-05 3.05011e-05 0.000872301
0.00604061 0.00250008 2.51477e-05
0.00250008 0.00210228 1.32107e-05
2.51477e-05 1.32107e-05 0.00147006
0.000837176 0.00117493 -4.57221e-05
0.00117493 3.22858e-05 7.67824e-06
-4.57221e-05 7.67824e-06 -0.00032098
0.00968786 0.00404137 -0.000221714
0.00404137 0.00302604 -3.59082e-06
-0.000221714 -3.59082e-06 0.00181217
0.00540325 -0.00111285 8.73333e-06
-0.00111285 -0.00185051 3.99534e-05
8.73333e-06 3.99534e-05 0.000314532
0.0124942 -0.000585571 -6.62455e-05
-0.000585571 -0.000811657 -4.92041e-05
-6.62455e-05 -4.92041e-05 0.000254053
-0.0121621 -0.00445757 0.00137694
-0.00445757 -0.00275833 -2.88767e-05
0.00137694 -2.88767e-05 -0.00685157
0.00182017 -0.00215738 -0.000146656
-0.00215738 -0.000307495 4.96337e-05
-0.000146656 4.96337e-05 -0.000524654
0.00812454 -0.00402316 -8.33899e-05
-0.00402316 -0.00195602 0.000135652
-8.33899e-05 0.000135652 0.000425943
0.00248164 -0.000494939 -0.000468761
-0.000494939 -0.00784753 1.59581e-05
-0.000468761 1.59581e-05 -0.00778522
0.00365266 -0.00173939 4.69704e-05
-0.00173939 -0.000321273 -4.31315e-07
4.69704e-05 -4.31315e-07 0.000178616
0.00511456 -0.00142167 -8.80946e-05
-0.00142167 -0.00209926 -1.85246e-06
-8.80946e-05 -1.85246e-06 7.16826e-05
0.00731914 -0.00138655 7.06821e-05
-0.00138655 0.00166694 -4.92799e-05
7.06821e-05 -4.92799e-05 0.00226107
0.00667736 -0.000872093 0.000149034
-0.000872093 0.000773645 6.81187e-06
0.000149034 6.81187e-06 0.00180493
-0.00145313 -0.000770851 1.32609e-05
-0.000770851 -0.00221367 1.17588e-05
1.32609e-05 1.17588e-05 -0.0019329
0.00224938 -0.000909578 -9.77544e-06
-0.000909578 -0.000355169 3.79257e-06
-9.77544e-06 3.79257e-06 -9.93415e-05
0.00257948 -0.000678664 2.69258e-05
-0.000678664 -0.000362352 -1.05311e-05
2.69258e-05 -1.05311e-05 1.45816e-05
0.00238819 -0.00108496 -4.73893e-06
-0.00108496 -3.92788e-05 3.11819e-06
-4.73893e-06 3.11819e-06 -0.000263164
0.00278696 -0.000850167 8.68437e-07
-0.000850167 1.5305e-06 1.37857e-06
8.68437e-07 1.37857e-06 2.17181e-05
0.00275006 -0.000723696 1.66797e-07
-0.000723696 -1.22313e-05 -9.78555e-07
1.66797e-07 -9.78555e-07 2.16918e-05
0.00233849 -0.000748415 1.70483e-06
-0.000748415 -8.85466e-05 3.2213e-06
1.70483e-06 3.2213e-06 -0.000165976
0.00255122 -0.000746891 1.04358e-07
-0.000746891 2.9493e-05 4.14211e-07
1.04358e-07 4.14211e-07 9.53343e-06
0.00250872 -0.000638955 -1.75397e-06
-0.000638955 1.91489e-06 -8.1458e-07
-1.75397e-06 -8.1458e-07 -2.51336e-05
0.00237064 -0.000711459 1.19456e-06
-0.000711459 7.7479e-05 5.58422e-07
1.19456e-06 5.58422e-07 -3.78632e-05
0.00253562 -0.000733207 -1.80334e-07
-0.000733207 0.000135313 -1.00422e-07
-1.80334e-07 -1.00422e-07 4.08793e-05
0.00242938 -0.00063748 7.38989e-07
-0.00063748 0.000119507 -1.92196e-07
7.38989e-07 -1.92196e-07 2.36524e-05
0.00231164 -0.000706672 -2.56257e-06
-0.000706672 9.84117e-05 2.14177e-07
-2.56257e-06 2.14177e-07 -4.01363e-05
0.00228707 -0.000661163 -1.53066e-06
-0.000661163 0.000145345 1.45323e-07
-1.53066e-06 1.45323e-07 -1.49564e-05
0.00238491 -0.000630667 -2.64922e-06
-0.000630667 0.000277616 5.10934e-07
-2.64922e-06 5.10934e-07 8.12381e-05
0.00236178 -0.000630788 3.48736e-06
-0.000630788 0.0002956 1.31828e-06
3.48736e-06 1.31828e-06 7.82997e-05
0.00227875 -0.000640131 -1.07361e-07
-0.000640131 0.000267001 7.43201e-08
-1.07361e-07 7.43201e-08 2.44145e-05
0.00232525 -0.000643936 -1.12033e-06
-0.000643936 0.000322447 -2.27056e-06
-1.12033e-06 -2.27056e-06 5.33672e-05
0.00207022 -0.00064139 -5.08352e-06
-0.00064139 0.000285408 -3.95867e-06
-5.08352e-06 -3.95867e-06 -6.20875e-05
0.00225999 -0.000696161 -4.69418e-07
-0.000696161 0.000299315 -1.70998e-06
-4.69418e-07 -1.70998e-06 -2.79514e-05
0.00246305 -0.000717889 4.92456e-06
-0.000717889 0.000367596 3.64452e-06
4.92456e-06 3.64452e-06 6.25916e-05
0.00128499 -0.000494425 -2.33898e-05
-0.000494425 8.94942e-05 6.64099e-06
-2.33898e-05 6.64099e-06 -0.000263786
0.00212316 -0.000775293 -1.36587e-06
-0.000775293 0.000406341 4.0377e-07
-1.36587e-06 4.0377e-07 -4.46515e-05
0.00212711 -0.000835317 6.8468e-07
-0.000835317 0.000276064 4.46957e-06
6.8468e-07 4.46957e-06 -0.000168172
0.00046654 -0.000261016 -2.18801e-05
-0.000261016 -0.000116554 2.53084e-05
-2.18801e-05 2.53084e-05 -0.000293423
0.000888817 -0.00042202 5.31543e-06
-0.00042202 -1.48122e-05 7.3088e-07
5.31543e-06 7.3088e-07 -0.000357507
0.00207606 -0.000835821 6.14802e-06
-0.000835821 0.00056442 3.87067e-06
6.14802e-06 3.87067e-06 4.66142e-05
0.00769533 5.25141e-07 -0.000304647
5.25141e-07 0.00467109 2.52229e-05
-0.000304647 2.52229e-05 0.00468136
0.000269897 -0.000248603 2.21681e-07
-0.000248603 -0.000203341 1.7119e-07
2.21681e-07 1.7119e-07 -0.000375014
0.00022196 -0.000315475 6.76162e-06
-0.000315475 -0.000301314 -6.84289e-06
6.76162e-06 -6.84289e-06 -0.000606859
0.0069774 6.15361e-05 -1.11111e-05
6.15361e-05 0.00424811 -2.2564e-06
-1.11111e-05 -2.2564e-06 0.00424512
0.000551234 -0.000232534 2.26844e-05
-0.000232534 -2.04245e-05 -2.20067e-05
2.26844e-05 -2.20067e-05 -0.000161257
0.00625745 0.000143388 0.000215373
0.000143388 0.00383309 -3.04492e-05
0.000215373 -3.04492e-05 0.00380877
0.00218345 0.000941104 -1.06613e-05
0.000941104 0.000649926 1.21111e-05
-1.06613e-05 1.21111e-05 8.86324e-05
0.00209598 0.000887078 -1.59531e-06
0.000887078 0.000805254 -3.80912e-07
-1.59531e-06 -3.80912e-07 0.000225027
0.00117015 0.000593453 -4.91561e-06
0.000593453 0.00027759 5.74854e-06
-4.91561e-06 5.74854e-06 -0.000170416
0.000607691 0.000497774 3.01878e-06
0.000497774 -2.88979e-05 -5.17993e-06
3.01878e-06 -5.17993e-06 -0.000434086
0.000920544 0.000308435 -3.16966e-06
0.000308435 0.000207646 -3.10074e-06
-3.16966e-06 -3.10074e-06 -8.07651e-05
-3.49692e-05 0.000217208 -4.23157e-06
0.000217208 -0.000359076 -2.78574e-06
-4.23157e-06 -2.78574e-06 -0.00063259
0.00170413 0.000197599 2.55393e-07
0.000197599 0.000769698 -3.34772e-06
2.55393e-07 -3.34772e-06 0.000535719
0.000943675 0.000193539 2.10755e-06
0.000193539 0.0003345 -1.13984e-06
2.10755e-06 -1.13984e-06 6.57802e-05
0.000547676 0.000172896 -2.91551e-05
0.000172896 1.39394e-05 -2.06467e-05
-2.91551e-05 -2.06467e-05 -0.000100464
0.000157519 0.000151251 -1.01968e-06
0.000151251 -0.000100205 1.65959e-05
-1.01968e-06 1.65959e-05 -0.000362595
0.000465342 0.000115098 -7.48612e-07
0.000115098 1.01879e-05 -4.52215e-07
-7.48612e-07 -4.52215e-07 -8.37362e-05
0.00470401 -0.000135015 -0.000144119
-0.000135015 0.00281066 -1.89024e-05
-0.000144119 -1.89024e-05 0.0027988
0.00378893 -0.000139708 -1.4005e-05
-0.000139708 0.00220214 1.43036e-06
-1.4005e-05 1.43036e-06 0.00219262
0.000169429 9.15562e-05 1.31851e-05
9.15562e-05 -0.000163223 1.79102e-05
1.31851e-05 1.79102e-05 -0.000231198
0.0032725 -0.000122307 4.82363e-05
-0.000122307 0.00185214 7.54038e-06
4.82363e-05 7.54038e-06 0.00184684
0.0018226 0.0005306 0.000129802
0.0005306 -0.00287711 2.97964e-05
0.000129802 2.97964e-05 -0.000440053
0.00566438 -0.000475967 0.00027822
-0.000475967 -0.00633078 0.000160477
0.00027822 0.000160477 -0.00684808
0.0170091 -0.0059551 -0.000347272
-0.0059551 0.00923918 -0.000137043
-0.000347272 -0.000137043 0.0037383
0.00183419 0.000868061 1.15617e-05
0.000868061 0.000172021 1.20889e-05
1.15617e-05 1.20889e-05 -0.00027196
0.00450614 0.00109847 -1.76797e-05
0.00109847 0.00245146 -1.41801e-05
-1.76797e-05 -1.41801e-05 0.00184562
0.000401427 0.000779054 -1.22356e-05
0.000779054 -0.000158291 -1.6668e-05
-1.22356e-05 -1.6668e-05 -0.000757617
0.00176993 0.0011114 7.04148e-07
0.0011114 0.000579051 5.63198e-07
7.04148e-07 5.63198e-07 2.27899e-06
0.00213542 0.00102938 -3.69069e-09
0.00102938 0.00061733 5.1836e-06
-3.69069e-09 5.1836e-06 3.00833e-05
0.00239911 0.00115499 3.09741e-05
0.00115499 0.000689987 1.84961e-05
3.09741e-05 1.84961e-05 0.00015651
0.00201553 0.00119168 -3.81052e-05
0.00119168 0.000645375 -3.0852e-06
-3.81052e-05 -3.0852e-06 7.97026e-05
0.00121799 0.000965825 3.31008e-07
0.000965825 0.000303222 -3.7523e-05
3.31008e-07 -3.7523e-05 -8.58933e-05
0.0020967 0.00123903 1.70466e-06
0.00123903 0.00050885 -1.01208e-06
1.70466e-06 -1.01208e-06 2.121e-05
0.0012372 0.00116626 1.65402e-05
0.00116626 -0.00013454 -3.68081e-05
1.65402e-05 -3.68081e-05 -0.000298904
0.00220721 0.00118563 2.86934e-05
0.00118563 0.000370119 -2.43713e-06
2.86934e-05 -2.43713e-06 -0.000149023
0.00234908 0.00104727 3.66101e-05
0.00104727 0.000388912 4.38057e-05
3.66101e-05 4.38057e-05 0.000179176
0.00120257 0.00124342 -1.05749e-05
0.00124342 -9.03122e-05 -1.00242e-05
-1.05749e-05 -1.00242e-05 -0.000495377
0.00168281 0.00131356 -4.29341e-05
0.00131356 0.000194499 -8.21199e-06
-4.29341e-05 -8.21199e-06 -6.06916e-05
0.00282474 0.00136141 4.13157e-05
0.00136141 -0.00128543 4.31045e-05
4.13157e-05 4.31045e-05 -0.00020848
0.00628246 0.00311308 -0.000122941
0.00311308 -0.00273449 -4.87084e-05
-0.000122941 -4.87084e-05 0.000390286
0.00459137 0.00421304 0.000848747
0.00421304 -0.00764248 0.000252106
0.000848747 0.000252106 -0.00782575
0.0035969 0.00322777 -0.000303555
0.00322777 -0.000196801 -0.000139211
-0.000303555 -0.000139211 0.00108785
0.00585344 0.0026954 -3.5433e-05
0.0026954 0.000854885 -9.54044e-06
-3.5433e-05 -9.54044e-06 0.000813345
0.00745907 0.00277731 -0.000220184
0.00277731 0.00266288 -5.67424e-05
-0.000220184 -5.67424e-05 0.00196548
0.00359223 -0.000243247 -4.5436e-05
-0.000243247 -0.000846297 -2.52234e-05
-4.5436e-05 -2.52234e-05 -0.000107461
0.000157904 -0.000745055 0.000141489
-0.000745055 -0.00241063 3.72629e-05
0.000141489 3.72629e-05 -0.000326191
0.00731898 0.000173008 0.000311015
0.000173008 -0.00623454 -1.44028e-05
0.000311015 -1.44028e-05 -0.0064572
0.00205714 -0.00145042 -7.96258e-05
-0.00145042 -0.00107191 9.94576e-05
-7.96258e-05 9.94576e-05 -0.000376418
0.00647954 -0.00145831 -0.00022749
-0.00145831 -0.00158949 6.37775e-05
-0.00022749 6.37775e-05 0.00016565
0.00336679 -0.00107471 -2.95855e-05
-0.00107471 -0.000668349 1.22493e-05
-2.95855e-05 1.22493e-05 0.000163269
0.0046401 -0.000781881 -3.06645e-05
-0.000781881 -0.00020073 1.52355e-07
-3.06645e-05 1.52355e-07 0.000641462
0.00468332 -0.000566759 0.000104023
-0.000566759 0.000851435 -1.98595e-05
0.000104023 -1.98595e-05 0.00123482
0.00284474 -0.000116794 4.79121e-05
-0.000116794 4.03672e-05 2.26082e-06
4.79121e-05 2.26082e-06 0.000246471
0.000667061 -0.000729175 -1.77119e-05
-0.000729175 -0.00122017 1.31894e-05
-1.77119e-05 1.31894e-05 -0.000828391
0.00259916 -0.000709473 -3.36487e-06
-0.000709473 -0.000330661 5.92961e-07
-3.36487e-06 5.92961e-07 -1.37238e-06
0.0026903 -0.000535431 2.88842e-06
-0.000535431 -0.000260686 -2.31403e-06
2.88842e-06 -2.31403e-06 2.00826e-05
0.00269484 -0.000835079 -3.34919e-06
-0.000835079 -3.8001e-05 2.65854e-06
-3.34919e-06 2.65854e-06 -1.32277e-05
0.00274378 -0.000698612 -1.68222e-07
-0.000698612 1.69683e-05 -4.83646e-07
-1.68222e-07 -4.83646e-07 6.3475e-05
0.00254066 -0.000522974 -1.6252e-06
-0.000522974 -0.000102025 -7.07754e-07
-1.6252e-06 -7.07754e-07 -2.67835e-05
0.00250962 -0.000740717 -5.69377e-07
-0.000740717 2.08688e-05 5.78338e-07
-5.69377e-07 5.78338e-07 -7.83156e-06
0.00250476 -0.000641339 -6.39898e-07
-0.000641339 1.45273e-05 -3.93789e-08
-6.39898e-07 -3.93789e-08 -1.01906e-05
0.00239314 -0.000530832 3.97314e-08
-0.000530832 3.41866e-05 -5.53812e-07
3.97314e-08 -5.53812e-07 -7.10204e-06
0.00252609 -0.000729051 -6.75476e-08
-0.000729051 0.000158404 -4.39406e-07
-6.75476e-08 -4.39406e-07 5.80678e-05
0.00242832 -0.000638522 1.00813e-06
-0.000638522 0.000116801 -7.66729e-08
1.00813e-06 -7.66729e-08 2.05213e-05
0.00231802 -0.000568438 -1.14141e-06
-0.000568438 0.000141678 4.55573e-07
-1.14141e-06 4.55573e-07 1.55033e-05
0.00223251 -0.000659732 -1.408e-06
-0.000659732 0.000106144 5.08996e-07
-1.408e-06 5.08996e-07 -4.97877e-05
0.00228584 -0.000625285 -1.1742e-06
-0.000625285 0.00020483 4.86799e-07
-1.1742e-06 4.86799e-07 1.15399e-05
0.00239076 -0.000611372 -1.52254e-06
-0.000611372 0.000314876 -1.5883e-06
-1.52254e-06 -1.5883e-06 9.00934e-05
0.00230223 -0.000636982 3.14966e-06
-0.000636982 0.000278274 1.80574e-06
3.14966e-06 1.80574e-06 3.65339e-05
0.00229823 -0.000642705 -3.23196e-07
-0.000642705 0.000303351 2.17948e-07
-3.23196e-07 2.17948e-07 3.70484e-05
0.00219879 -0.000585258 -4.0498e-06
-0.000585258 0.000332502 -1.77924e-06
-4.0498e-06 -1.77924e-06 3.68176e-05
0.00137313 -0.000447529 -1.99014e-05
-0.000447529 5.4907e-05 6.70616e-06
-1.99014e-05 6.70616e-06 -0.000254153
0.0020453 -0.000639597 -3.40033e-07
-0.000639597 0.000273776 -1.35787e-06
-3.40033e-07 -1.35787e-06 -7.86863e-05
0.00214659 -0.000693308 1.30014e-06
-0.000693308 0.00022082 2.98401e-06
1.30014e-06 2.98401e-06 -0.000113911
0.000131026 -0.000262659 -2.15344e-05
-0.000262659 -0.000342713 2.19445e-05
-2.15344e-05 2.19445e-05 -0.000527882
0.00130782 -0.000489556 7.82766e-07
-0.000489556 0.000113268 -8.74326e-08
7.82766e-07 -8.74326e-08 -0.000236883
0.00228134 -0.000785144 4.57338e-06
-0.000785144 0.000518691 3.69037e-06
4.57338e-06 3.69037e-06 6.75027e-05
0.00847783 -5.22136e-05 -0.000355013
-5.22136e-05 0.00513954 3.20947e-05
-0.000355013 3.20947e-05 0.00515541
0.000152419 -0.000286137 8.79795e-07
-0.000286137 -0.00030399 2.16009e-06
8.79795e-07 2.16009e-06 -0.000492786
0.000600026 -0.00041355 1.857e-05
-0.00041355 -0.00019835 -5.59552e-06
1.857e-05 -5.59552e-06 -0.00054492
0.0079966 -1.984e-05 -1.00491e-05
-1.984e-05 0.00486499 9.59378e-07
-1.00491e-05 9.59378e-07 0.00487435
0.000282891 -0.000286957 2.18527e-05
-0.000286957 -0.00019281 -2.7255e-05
2.18527e-05 -2.7255e-05 -0.000369699
0.00728659 4.88066e-05 0.000293093
4.88066e-05 0.00445543 -3.71502e-05
0.000293093 -3.71502e-05 0.00445046
0.00185948 0.000807005 -4.8863e-06
0.000807005 0.000249451 1.16699e-05
-4.8863e-06 1.16699e-05 -0.000201329
0.00208229 0.000924617 -1.96736e-06
0.000924617 0.000586818 1.06067e-06
-1.96736e-06 1.06067e-06 2.98921e-05
0.00171898 0.000738141 -7.41956e-06
0.000738141 0.000403322 7.39694e-06
-7.41956e-06 7.39694e-06 -8.53555e-05
0.000922368 0.000730724 -3.64507e-06
0.000730724 3.63098e-05 -8.19262e-06
-3.64507e-06 -8.19262e-06 -0.00049608
0.00160931 0.00060373 -3.28198e-06
0.00060373 0.000506208 -1.79785e-06
-3.28198e-06 -1.79785e-06 6.40442e-05
0.000480955 0.00030801 -1.26325e-05
0.00030801 -9.96089e-05 -2.5875e-06
-1.26325e-05 -2.5875e-06 -0.000397807
0.00141971 0.000308642 -1.24803e-06
0.000308642 0.000467824 -7.74395e-06
-1.24803e-06 -7.74395e-06 0.000183259
0.000447222 0.000265436 3.44377e-06
0.000265436 -8.21753e-05 -1.07933e-06
3.44377e-06 -1.07933e-06 -0.000329676
0.000353972 0.000217298 -3.25933e-05
0.000217298 -0.000151793 -2.1107e-05
-3.25933e-05 -2.1107e-05 -0.000270677
0.00100428 0.000205517 1.88689e-06
0.000205517 0.00035623 8.56889e-06
1.88689e-06 8.56889e-06 9.4025e-05
0.000632911 0.000163809 -9.83474e-07
0.000163809 7.43174e-05 -7.85324e-07
-9.83474e-07 -7.85324e-07 -3.52129e-05
0.00606158 -0.00018037 -0.000189829
-0.00018037 0.0037153 -2.53033e-05
-0.000189829 -2.53033e-05 0.00368657
0.000253349 0.000114493 1.84583e-05
0.000114493 -0.000118763 2.09705e-05
1.84583e-05 2.09705e-05 -0.000209251
0.00440808 -0.000173433 -1.59404e-05
-0.000173433 0.00262911 1.86322e-06
-1.59404e-05 1.86322e-06 0.00260681
0.00364784 -0.000153476 6.24434e-05
-0.000153476 0.00211239 9.26199e-06
6.24434e-05 9.26199e-06 0.00209827
0.000825609 0.000443425 1.67094e-05
0.000443425 -0.0025174 1.50158e-05
1.67094e-05 1.50158e-05 -0.00116174
0.0053034 0.000397652 7.43647e-05
0.000397652 -0.00171764 3.29161e-05
7.43647e-05 3.29161e-05 0.000729514
0.017382 0.000871978 3.1999e-05
0.000871978 0.000881807 0.000110909
3.1999e-05 0.000110909 0.00197977
0.00236001 0.0010104 3.67059e-06
0.0010104 0.000424331 6.57412e-06
3.67059e-06 6.57412e-06 -2.43043e-05
0.00232375 0.000908142 7.26344e-07
0.000908142 0.00025448 6.20271e-06
7.26344e-07 6.20271e-06 -0.000117931
0.00182635 0.000870949 -7.01547e-07
0.000870949 0.000172701 -4.81789e-06
-7.01547e-07 -4.81789e-06 -0.000267632
0.00341665 0.00132336 -1.88411e-05
0.00132336 0.00156274 -2.16102e-06
-1.88411e-05 -2.16102e-06 0.000929881
0.00224642 0.0010401 -1.49233e-05
0.0010401 0.000712564 -1.30619e-05
-1.49233e-05 -1.30619e-05 0.000117959
0.00239401 0.00119532 6.67673e-06
0.00119532 0.000635524 2.77562e-06
6.67673e-06 2.77562e-06 9.92952e-05
0.00256242 0.00114158 -5.76216e-06
0.00114158 0.000279347 -6.07395e-07
-5.76216e-06 -6.07395e-07 -0.000113668
0.00196871 0.00129818 -1.33709e-05
0.00129818 0.000362018 -4.32095e-06
-1.33709e-05 -4.32095e-06 -0.000128139
0.0008463 0.00115535 -3.77031e-05
0.00115535 -0.000369902 0.00010022
-3.77031e-05 0.00010022 -0.000512383
0.00301497 0.00131649 1.42644e-06
0.00131649 0.000800544 -5.22875e-06
1.42644e-06 -5.22875e-06 0.000256
0.00314845 0.00111179 -6.08271e-07
0.00111179 0.000482115 1.52583e-05
-6.08271e-07 1.52583e-05 0.000244486
0.00209048 0.000530208 6.35113e-05
0.000530208 2.01266e-05 1.03789e-05
6.35113e-05 1.03789e-05 0.000204045
0.000379822 0.000835284 6.72413e-06
0.000835284 -0.000637219 -1.2526e-05
6.72413e-06 -1.2526e-05 -0.000817561
0.000862271 0.00116901 -4.83527e-05
0.00116901 -0.000252426 -4.53108e-06
-4.83527e-05 -4.53108e-06 -0.000638953
0.00399247 0.00149764 3.03639e-05
0.00149764 -0.000632418 1.42091e-05
3.03639e-05 1.42091e-05 0.000315111
0.0100906 0.00315285 -8.37682e-05
0.00315285 -0.000610493 -5.92379e-05
-8.37682e-05 -5.92379e-05 0.00177726
0.00569365 0.00227564 -8.02848e-05
0.00227564 0.00129175 -9.59333e-05
-8.02848e-05 -9.59333e-05 0.00134932
0.00329815 -5.62982e-05 7.20361e-05
-5.62982e-05 0.000298288 7.96434e-06
7.20361e-05 7.96434e-06 0.000612643
0.00364413 -0.000269074 -0.000103708
-0.000269074 -0.000928335 9.90605e-06
-0.000103708 9.90605e-06 4.85345e-05
0.00547546 0.000547182 -2.17217e-05
0.000547182 -0.000294809 -1.7475e-05
-2.17217e-05 -1.7475e-05 0.00121066
0.00095252 -0.00093345 -9.89001e-05
-0.00093345 -0.0021061 7.58667e-05
-9.89001e-05 7.58667e-05 -0.00115864
0.00279895 -0.000776437 -0.00010977
-0.000776437 -0.00108264 8.36519e-06
-0.00010977 8.36519e-06 -0.000404681
0.00327573 -0.000510247 7.41931e-07
-0.000510247 -5.4424e-05 -5.40211e-06
7.41931e-07 -5.40211e-06 0.000484853
0.0024683 -0.00011211 -1.53421e-05
-0.00011211 -0.000204543 -1.77509e-06
-1.53421e-05 -1.77509e-06 3.26353e-05
0.0026302 -0.000313915 8.68284e-06
-0.000313915 -0.000300495 -1.81039e-07
8.68284e-06 -1.81039e-07 -9.89679e-07
0.0024099 8.34298e-05 3.80533e-06
8.34298e-05 -0.000419145 3.73505e-07
3.80533e-06 3.73505e-07 -0.000211257
0.002677 -0.000749771 -1.99196e-05
-0.000749771 -0.000279012 7.94198e-06
-1.99196e-05 7.94198e-06 5.88503e-06
0.00274282 -0.000563874 -3.00827e-06
-0.000563874 -0.000241376 6.97097e-07
-3.00827e-06 6.97097e-07 1.94379e-07
0.00261427 -0.000382663 -1.00174e-06
-0.000382663 -0.000172956 -6.51896e-07
-1.00174e-06 -6.51896e-07 1.07541e-05
0.00273918 -0.000674491 -3.05466e-06
-0.000674491 4.2188e-05 1.00317e-06
-3.05466e-06 1.00317e-06 0.000102635
0.00255959 -0.000525521 2.87063e-07
-0.000525521 -7.91522e-05 -2.0359e-07
2.87063e-07 -2.0359e-07 -1.04335e-05
0.00242562 -0.000426454 5.86279e-07
-0.000426454 -4.9837e-05 -3.76256e-07
5.86279e-07 -3.76256e-07 -5.90558e-06
0.00250097 -0.000644219 -6.90828e-07
-0.000644219 2.59858e-05 5.04039e-07
-6.90828e-07 5.04039e-07 3.62362e-06
0.00240792 -0.000530099 3.83225e-07
-0.000530099 3.77342e-05 -1.36327e-07
3.83225e-07 -1.36327e-07 -3.54499e-06
0.0023075 -0.000472953 -1.18616e-06
-0.000472953 6.78491e-05 1.77522e-07
-1.18616e-06 1.77522e-07 2.28421e-06
0.00242869 -0.000639953 1.91688e-06
-0.000639953 0.000114669 -3.7011e-08
1.91688e-06 -3.7011e-08 1.79145e-05
0.00230228 -0.000568515 6.82855e-07
-0.000568515 0.000126167 -1.67038e-07
6.82855e-07 -1.67038e-07 -1.05133e-07
0.00229951 -0.000537025 -2.57725e-06
-0.000537025 0.000197704 -3.2026e-08
-2.57725e-06 -3.2026e-08 2.33407e-05
0.00218674 -0.000620065 5.03532e-07
-0.000620065 0.00013168 1.8861e-07
5.03532e-07 1.8861e-07 -5.83692e-05
0.00227736 -0.000604662 1.62482e-08
-0.000604662 0.000239132 -3.61869e-07
1.62482e-08 -3.61869e-07 1.47109e-05
0.00214316 -0.000543283 -3.24687e-06
-0.000543283 0.000233202 -1.42055e-06
-3.24687e-06 -1.42055e-06 -2.39771e-05
0.00227414 -0.000641662 8.46902e-07
-0.000641662 0.000286653 3.38045e-06
8.46902e-07 3.38045e-06 2.30344e-05
0.00220814 -0.000588822 -6.85411e-07
-0.000588822 0.000339205 -8.83152e-08
-6.85411e-07 -8.83152e-08 4.46912e-05
0.00139687 -0.000388897 -1.52161e-05
-0.000388897 4.50762e-05 6.07626e-06
-1.52161e-05 6.07626e-06 -0.000223094
0.000329536 -0.000253577 -1.91538e-05
-0.000253577 -0.000250407 2.0645e-05
-1.91538e-05 2.0645e-05 -0.000427042
0.00141044 -0.00044845 -1.31085e-09
-0.00044845 8.30236e-05 1.48778e-07
-1.31085e-09 1.48778e-07 -0.000224807
0.00203249 -0.000638558 3.75886e-06
-0.000638558 0.000270944 1.39377e-06
3.75886e-06 1.39377e-06 -8.65822e-05
0.0085693 -0.000145775 -0.000399996
-0.000145775 0.00517637 3.76392e-05
-0.000399996 3.76392e-05 0.00520175
0.000324512 -0.000277537 -1.3264e-06
-0.000277537 -0.000230413 1.06831e-06
-1.3264e-06 1.06831e-06 -0.000413967
0.00118003 -0.000472222 2.1547e-05
-0.000472222 4.93456e-05 -6.29212e-06
2.1547e-05 -6.29212e-06 -0.000296204
0.00859905 -9.25271e-05 -8.04587e-08
-9.25271e-05 0.00521611 1.63443e-06
-8.04587e-08 1.63443e-06 0.00523466
0.000141466 -0.00029832 2.61837e-05
-0.00029832 -0.000313546 -2.5093e-05
2.61837e-05 -2.5093e-05 -0.0005045
0.00844187 -6.47108e-05 0.000367183
-6.47108e-05 0.0051415 -3.94401e-05
0.000367183 -3.94401e-05 0.00515437
0.00210953 0.000831795 1.20452e-06
0.000831795 0.000241436 1.08546e-05
1.20452e-06 1.08546e-05 -0.000151215
0.00196285 0.000825544 1.32347e-06
0.000825544 0.000325208 -6.37093e-08
1.32347e-06 -6.37093e-08 -0.000127233
0.00216315 0.000772687 -3.65568e-06
0.000772687 0.000514271 8.39835e-06
-3.65568e-06 8.39835e-06 6.12185e-05
0.00199538 0.000905705 7.65411e-06
0.000905705 0.000543636 -8.96288e-06
7.65411e-06 -8.96288e-06 -8.16391e-06
0.00175346 0.000740584 -2.75483e-07
0.000740584 0.000424032 1.41013e-06
-2.75483e-07 1.41013e-06 -6.67962e-05
0.000787174 0.000372732 -2.26949e-05
0.000372732 -4.92091e-05 -2.54586e-06
-2.26949e-05 -2.54586e-06 -0.000365088
0.00205555 0.000607349 -1.02926e-06
0.000607349 0.000741086 -3.58024e-06
-1.02926e-06 -3.58024e-06 0.000306917
0.000564793 0.000272549 9.32523e-07
0.000272549 -6.03042e-05 -2.51186e-07
9.32523e-07 -2.51186e-07 -0.000339402
0.00056125 0.000284882 -3.4325e-05
0.000284882 -3.38819e-05 -2.60555e-05
-3.4325e-05 -2.60555e-05 -0.000182822
0.00148433 0.000201863 2.55557e-06
0.000201863 0.000570389 2.52396e-06
2.55557e-06 2.52396e-06 0.00032814
0.000376889 0.000204227 3.42624e-06
0.000204227 -0.000133551 -1.2513e-06
3.42624e-06 -1.2513e-06 -0.00025194
0.00702606 -0.000165497 -0.000238647
-0.000165497 0.00432686 -3.06651e-05
-0.000238647 -3.06651e-05 0.00429863
0.000299472 0.000157757 2.52617e-05
0.000157757 -0.000128538 2.23531e-05
2.52617e-05 2.23531e-05 -0.000236204
0.00550785 -0.00019224 -1.0803e-05
-0.00019224 0.00335198 3.62077e-07
-1.0803e-05 3.62077e-07 0.00332235
0.00426856 -0.000192641 8.58062e-05
-0.000192641 0.00254058 1.32303e-05
8.58062e-05 1.32303e-05 0.00251393
0.00173521 0.00032853 4.94335e-05
0.00032853 -0.000484104 1.70537e-05
4.94335e-05 1.70537e-05 -5.26685e-05
0.00212202 0.000522267 -8.90774e-06
0.000522267 -0.00215495 -6.9813e-06
-8.90774e-06 -6.9813e-06 -0.000758342
0.00539631 0.000956048 0.00028129
0.000956048 -0.00188417 0.000109494
0.00028129 0.000109494 0.000924571
0.00273681 0.000972285 -9.30376e-06
0.000972285 0.000427932 5.1187e-08
-9.30376e-06 5.1187e-08 8.09711e-05
0.00230103 0.00102471 -9.05808e-06
0.00102471 0.000373133 -5.28816e-06
-9.05808e-06 -5.28816e-06 -7.51919e-05
0.00247087 0.000735588 3.91488e-06
0.000735588 0.000225093 4.35763e-06
3.91488e-06 4.35763e-06 -1.7031e-05
0.00249889 0.000914758 1.48832e-06
0.000914758 0.000369084 4.34549e-07
1.48832e-06 4.34549e-07 1.78292e-06
0.00185093 0.000874371 -4.02413e-06
0.000874371 0.000197851 -1.53495e-05
-4.02413e-06 -1.53495e-05 -0.000238813
0.00281189 0.000876157 -6.72088e-06
0.000876157 0.000203085 1.38036e-06
-6.72088e-06 1.38036e-06 2.22818e-05
0.00260616 0.00126363 -1.02387e-05
0.00126363 0.000708536 -7.70753e-06
-1.02387e-05 -7.70753e-06 0.0001604
0.00277452 0.00112367 -1.38173e-06
0.00112367 0.000432919 -1.18755e-06
-1.38173e-06 -1.18755e-06 4.12468e-05
0.00234099 0.000537754 -1.40184e-05
0.000537754 -0.000283419 2.76594e-07
-1.40184e-05 2.76594e-07 -0.000157531
0.00293686 0.00136151 -1.45681e-05
0.00136151 0.000679779 1.94435e-05
-1.45681e-05 1.94435e-05 0.00018663
0.00278209 0.00106955 1.14721e-06
0.00106955 0.000278255 -2.97833e-06
1.14721e-06 -2.97833e-06 4.3155e-05
0.000537318 0.000499458 -1.59025e-05
0.000499458 -0.000984654 8.51354e-07
-1.59025e-05 8.51354e-07 -0.00068932
-0.00254801 0.000541243 -2.74746e-05
0.000541243 -0.00219193 -1.69015e-05
-2.74746e-05 -1.69015e-05 -0.00230714
0.00453426 0.00161737 -0.000172687
0.00161737 -0.000336595 -6.49283e-05
-0.000172687 -6.49283e-05 0.000497103
0.00270714 0.000190607 1.22507e-06
0.000190607 -0.000172417 -2.02729e-06
1.22507e-06 -2.02729e-06 4.41177e-05
0.00307019 -3.01932e-05 -2.81472e-06
-3.01932e-05 0.000208617 4.61232e-07
-2.81472e-06 4.61232e-07 0.000449318
0.00338275 -0.00034126 -0.000134653
-0.00034126 -0.00109944 -9.1507e-06
-0.000134653 -9.1507e-06 4.14218e-05
0.00149022 -0.000431139 -9.17249e-05
-0.000431139 -0.00119355 2.0921e-05
-9.17249e-05 2.0921e-05 -0.000487969
0.00216872 -0.00012027 -1.65006e-05
-0.00012027 -0.000390848 -1.46912e-06
-1.65006e-05 -1.46912e-06 -0.000132977
0.00255914 -0.000323681 4.71645e-06
-0.000323681 -0.00036342 -7.87886e-07
4.71645e-06 -7.87886e-07 -2.49975e-05
0.00271781 9.71121e-05 -3.12596e-06
9.71121e-05 -0.000216291 -4.80018e-07
-3.12596e-06 -4.80018e-07 -2.44714e-05
0.0026211 -6.65398e-05 -2.29393e-06
-6.65398e-05 -0.000204962 -6.97712e-07
-2.29393e-06 -6.97712e-07 1.11124e-05
0.00277407 -0.000587211 -2.62492e-06
-0.000587211 -0.000227347 1.76469e-06
-2.62492e-06 1.76469e-06 -2.48985e-05
0.00254891 -0.000366919 3.06986e-07
-0.000366919 -0.000195224 -3.34217e-07
3.06986e-07 -3.34217e-07 -2.22503e-05
0.00246058 -0.000275022 1.10804e-06
-0.000275022 -8.57061e-05 -3.26952e-07
1.10804e-06 -3.26952e-07 3.43888e-05
0.00257874 -0.000528399 2.66349e-07
-0.000528399 -5.48654e-05 8.28929e-07
2.66349e-07 8.28929e-07 6.5764e-06
0.00242753 -0.000424874 2.70183e-07
-0.000424874 -4.53735e-05 1.07638e-07
2.70183e-07 1.07638e-07 -4.63794e-06
0.00228407 -0.000358904 -5.8216e-07
-0.000358904 4.09788e-06 3.74823e-08
-5.8216e-07 3.74823e-08 -3.06102e-06
0.00242345 -0.000529141 7.92139e-07
-0.000529141 4.17672e-05 3.34141e-07
7.92139e-07 3.34141e-07 4.84297e-07
0.00231224 -0.000474137 3.74625e-07
-0.000474137 6.77967e-05 2.25839e-08
3.74625e-07 2.25839e-08 1.96524e-06
0.00232055 -0.000448484 -4.16054e-06
-0.000448484 0.000146891 8.83949e-07
-4.16054e-06 8.83949e-07 3.38857e-05
0.00228816 -0.000568776 2.11714e-06
-0.000568776 0.000111919 -7.00376e-07
2.11714e-06 -7.00376e-07 -1.45154e-05
0.00225534 -0.000532505 4.13239e-07
-0.000532505 0.000168312 -5.10157e-07
4.13239e-07 -5.10157e-07 -5.47496e-06
0.00214597 -0.000473827 -2.18404e-06
-0.000473827 0.00017737 -1.36364e-06
-2.18404e-06 -1.36364e-06 -3.15116e-05
0.00216554 -0.000598069 1.17692e-06
-0.000598069 0.000163979 7.13681e-07
1.17692e-06 7.13681e-07 -6.00195e-05
0.0021852 -0.000545543 -7.22156e-07
-0.000545543 0.000265755 1.40201e-07
-7.22156e-07 1.40201e-07 8.30167e-06
0.00137963 -0.000339617 -1.16764e-05
-0.000339617 1.06671e-05 4.95011e-06
-1.16764e-05 4.95011e-06 -0.000226514
0.00220512 -0.0005911 3.064e-06
-0.0005911 0.000337769 1.87849e-06
3.064e-06 1.87849e-06 4.4737e-05
0.00142225 -0.000391243 4.44266e-08
-0.000391243 5.55815e-05 1.92999e-07
4.44266e-08 1.92999e-07 -0.000211916
0.00298028 -0.000257573 -5.93115e-05
-0.000257573 0.00144289 1.5173e-05
-5.93115e-05 1.5173e-05 0.00130415
0.00281019 -0.000144553 -0.00031419
-0.000144553 0.00146009 4.85972e-05
-0.00031419 4.85972e-05 0.00144256
0.00170754 -0.000275468 -1.79164e-05
-0.000275468 0.000635499 3.81979e-07
-1.79164e-05 3.81979e-07 0.000470858
0.00143217 -0.000448181 1.83652e-05
-0.000448181 0.000100722 -6.37599e-06
1.83652e-05 -6.37599e-06 -0.000205711
0.00839191 -0.000148152 -1.03926e-05
-0.000148152 0.0050734 2.84191e-06
-1.03926e-05 2.84191e-06 0.00509218
0.000147447 -0.000296694 2.32874e-05
-0.000296694 -0.000343578 -2.24962e-05
2.32874e-05 -2.24962e-05 -0.000532283
0.00864421 -0.000101811 0.000374089
-0.000101811 0.00525063 -4.17098e-05
0.000374089 -4.17098e-05 0.00526386
0.0023027 0.000569565 1.52778e-06
0.000569565 0.000134265 1.43012e-06
1.52778e-06 1.43012e-06 -3.44825e-05
0.00233888 0.0007405 3.94e-06
0.0007405 0.000306325 7.51113e-06
3.94e-06 7.51113e-06 3.19489e-06
0.0023668 0.000849478 5.93337e-07
0.000849478 0.000405585 6.76888e-08
5.93337e-07 6.76888e-08 1.62856e-05
0.00215747 0.000729377 -1.45169e-06
0.000729377 0.000407027 8.06597e-06
-1.45169e-06 8.06597e-06 1.26375e-05
0.00202568 0.000845236 6.92621e-06
0.000845236 0.000364794 -1.0137e-05
6.92621e-06 -1.0137e-05 -9.03419e-05
0.00199041 0.000755297 5.7576e-07
0.000755297 0.000399108 6.04958e-07
5.7576e-07 6.04958e-07 -5.13665e-05
0.00105309 0.000448998 -3.42699e-05
0.000448998 2.33249e-05 -3.92185e-06
-3.42699e-05 -3.92185e-06 -0.000312601
0.00173689 0.000740769 8.00374e-06
0.000740769 0.00040433 -6.1456e-06
8.00374e-06 -6.1456e-06 -8.84779e-05
0.000865602 0.00037875 -2.64416e-06
0.00037875 1.12012e-05 2.14549e-07
-2.64416e-06 2.14549e-07 -0.000302695
0.000257925 0.000317452 -3.17473e-05
0.000317452 -0.000235307 -2.43509e-05
-3.17473e-05 -2.43509e-05 -0.000416141
0.000810067 0.00025623 1.12733e-05
0.00025623 9.39098e-05 -1.16538e-06
1.12733e-05 -1.16538e-06 -0.000170751
0.00028121 0.000238896 4.87595e-06
0.000238896 -0.000208757 -1.53483e-06
4.87595e-06 -1.53483e-06 -0.000354299
0.0083352 -4.05409e-05 -0.000329549
-4.05409e-05 0.0051028 -3.70755e-05
-0.000329549 -3.70755e-05 0.00509926
0.000581003 0.000182834 3.03642e-05
0.000182834 3.42287e-06 2.13799e-05
3.03642e-05 2.13799e-05 -0.000113668
0.00677311 -0.000166591 9.00548e-06
-0.000166591 0.00415106 -3.69707e-06
9.00548e-06 -3.69707e-06 0.0041277
0.00501718 -0.000238517 0.000109061
-0.000238517 0.0030586 1.88581e-05
0.000109061 1.88581e-05 0.0030128
0.00253276 0.000249338 -5.76933e-06
0.000249338 -0.00031681 4.97099e-07
-5.76933e-06 4.97099e-07 -5.58675e-05
0.00173385 0.000268228 1.19904e-05
0.000268228 -0.000761314 -3.33753e-06
1.19904e-05 -3.33753e-06 -0.00020658
0.0037786 0.000629118 -0.000162326
0.000629118 -0.00159736 -1.23903e-05
-0.000162326 -1.23903e-05 -0.000129339
0.00252143 0.000682025 -2.36896e-06
0.000682025 0.000149814 1.39574e-06
-2.36896e-06 1.39574e-06 1.19367e-06
0.00262695 0.00095014 -4.09309e-06
0.00095014 0.000400181 -7.24964e-07
-4.09309e-06 -7.24964e-07 6.14243e-05
0.00225701 0.00103886 -5.16102e-06
0.00103886 0.000330166 -9.20261e-06
-5.16102e-06 -9.20261e-06 -0.000116733
0.00244278 0.000715686 1.3487e-06
0.000715686 0.000226566 1.36009e-06
1.3487e-06 1.36009e-06 -1.29346e-05
0.00256979 0.000912279 -1.07774e-06
0.000912279 0.000415744 -7.52469e-06
-1.07774e-06 -7.52469e-06 5.45861e-05
0.00271887 0.000537159 4.17025e-06
0.000537159 -4.29432e-05 8.3589e-07
4.17025e-06 8.3589e-07 3.88084e-05
0.00271047 0.00086869 -2.09463e-06
0.00086869 0.000158783 3.42916e-07
-2.09463e-06 3.42916e-07 -1.60475e-05
0.00291149 0.00110292 1.76449e-06
0.00110292 0.000538528 -3.30758e-06
1.76449e-06 -3.30758e-06 0.000148261
0.00224372 0.000504108 1.05512e-07
0.000504108 -0.000287137 3.98549e-07
1.05512e-07 3.98549e-07 -0.000152512
0.0025165 0.00102206 1.17039e-05
0.00102206 0.000121858 -3.28522e-06
1.17039e-05 -3.28522e-06 -0.000109464
-0.000358299 0.000459062 -4.42677e-05
0.000459062 -0.00159465 -1.27357e-05
-4.42677e-05 -1.27357e-05 -0.00118649
0.00255643 0.000108749 -7.46123e-08
0.000108749 -0.000143801 -2.89732e-07
-7.46123e-08 -2.89732e-07 3.0823e-05
0.00258791 0.000183598 -4.47905e-07
0.000183598 -0.000259484 8.02534e-07
-4.47905e-07 8.02534e-07 -3.72257e-05
0.00304487 -9.90768e-06 -6.19949e-05
-9.90768e-06 0.000231485 -5.19583e-06
-6.19949e-05 -5.19583e-06 0.000408085
0.00243916 -0.000333519 -2.28615e-05
-0.000333519 -0.000466834 2.71556e-06
-2.28615e-05 2.71556e-06 -8.62137e-05
0.00298359 0.000116264 3.81048e-06
0.000116264 -4.6307e-05 2.99132e-06
3.81048e-06 2.99132e-06 0.000130871
0.00262755 -7.44816e-05 -9.40505e-07
-7.44816e-05 -0.000212226 -7.09117e-07
-9.40505e-07 -7.09117e-07 5.87103e-06
0.00231603 -7.93364e-05 7.31199e-07
-7.93364e-05 -0.000110023 5.48389e-08
7.31199e-07 5.48389e-08 -4.75493e-06
0.00248072 -0.000350402 1.2584e-06
-0.000350402 -0.000219142 -1.30564e-07
1.2584e-06 -1.30564e-07 -5.62019e-05
0.00241501 -0.000282982 -2.18055e-08
-0.000282982 -0.000109835 -1.38813e-08
-2.18055e-08 -1.38813e-08 1.71079e-06
0.00222167 -0.000235352 8.07507e-07
-0.000235352 -4.80224e-05 -3.35426e-07
8.07507e-07 -3.35426e-07 -1.96564e-05
0.0024272 -0.000423189 -7.71047e-07
-0.000423189 -4.26732e-05 8.3577e-07
-7.71047e-07 8.3577e-07 -4.9313e-06
0.00229136 -0.000358716 8.26594e-08
-0.000358716 4.98381e-06 3.62006e-08
8.26594e-08 3.62006e-08 -2.31288e-06
0.002294 -0.000347685 -4.973e-06
-0.000347685 7.9635e-05 7.2022e-07
-4.973e-06 7.2022e-07 2.11637e-05
0.00231768 -0.000475366 1.88024e-06
-0.000475366 6.78807e-05 -1.68413e-07
1.88024e-06 -1.68413e-07 1.78227e-06
0.00229442 -0.000445905 5.09905e-07
-0.000445905 0.000131303 -5.98955e-08
5.09905e-07 -5.98955e-08 1.85973e-05
0.00215566 -0.000389466 -1.88149e-06
-0.000389466 0.000144171 -1.03154e-06
-1.88149e-06 -1.03154e-06 -1.62607e-05
0.00220482 -0.000527494 2.75486e-06
-0.000527494 0.000134688 -7.29606e-07
2.75486e-06 -7.29606e-07 -3.8417e-05
0.00220227 -0.000478154 -7.72476e-07
-0.000478154 0.000214866 1.0539e-07
-7.72476e-07 1.0539e-07 5.25308e-06
0.00139402 -0.000290771 -8.99098e-06
-0.000290771 -6.13246e-07 3.71225e-06
-8.99098e-06 3.71225e-06 -0.000210959
0.00222689 -0.000547769 2.66361e-06
-0.000547769 0.000298196 1.23127e-06
2.66361e-06 1.23127e-06 4.04751e-05
0.00142493 -0.000344324 -1.20721e-07
-0.000344324 2.91615e-05 2.50445e-07
-1.20721e-07 2.50445e-07 -0.000207765
0.00294147 -0.00023791 -6.62739e-05
-0.00023791 0.00141749 1.45373e-05
-6.62739e-05 1.45373e-05 0.00129212
0.0014501 -0.000394652 1.39555e-05
-0.000394652 6.67741e-05 -5.71272e-06
1.39555e-05 -5.71272e-06 -0.000200383
0.00309642 -0.000290904 5.6817e-05
-0.000290904 0.00152128 -9.83168e-06
5.6817e-05 -9.83168e-06 0.00139312
0.0026696 -0.000168932 -0.000304919
-0.000168932 0.00137962 5.22341e-05
-0.000304919 5.22341e-05 0.00135867
0.00532969 -0.000182509 -0.000298644
-0.000182509 0.0031066 3.72574e-05
-0.000298644 3.72574e-05 0.00310581
0.00321559 -0.0003551 0.000189427
-0.0003551 0.00161741 -3.38986e-05
0.000189427 -3.38986e-05 0.00148501
0.00826688 -0.000160827 0.000374358
-0.000160827 0.00500191 -4.56182e-05
0.000374358 -4.56182e-05 0.00501724
0.00237856 0.000544919 -2.606e-07
0.000544919 0.000125658 -4.28672e-07
-2.606e-07 -4.28672e-07 2.09252e-05
0.00220089 0.000586446 -4.9229e-07
0.000586446 0.000187114 2.61726e-06
-4.9229e-07 2.61726e-06 -3.12648e-05
0.00230632 0.000560575 6.26089e-07
0.000560575 0.000143901 -1.51105e-07
6.26089e-07 -1.51105e-07 -1.36732e-05
0.00218568 0.000643657 -1.72719e-06
0.000643657 0.00032732 6.14803e-06
-1.72719e-06 6.14803e-06 7.0196e-06
0.00243828 0.00075038 -1.00675e-07
0.00075038 0.000357544 -1.86686e-07
-1.00675e-07 -1.86686e-07 5.40569e-05
0.00272689 0.000877656 -7.01247e-07
0.000877656 0.000637778 -9.67091e-06
-7.01247e-07 -9.67091e-06 0.000249855
0.00208695 0.000725482 1.11611e-06
0.000725482 0.000355285 4.15171e-07
1.11611e-06 4.15171e-07 -3.92956e-05
0.00141505 0.000487168 -3.23215e-05
0.000487168 0.000132523 -5.10093e-06
-3.23215e-05 -5.10093e-06 -0.000193357
0.00187164 0.000744336 6.53415e-06
0.000744336 0.000318729 -7.31727e-06
6.53415e-06 -7.31727e-06 -0.000130838
0.00114766 0.000464559 -3.48591e-06
0.000464559 6.45334e-05 -1.11518e-07
-3.48591e-06 -1.11518e-07 -0.000274609
0.000166068 0.000300247 -2.77524e-05
0.000300247 -0.000317933 -2.2067e-05
-2.77524e-05 -2.2067e-05 -0.000507593
0.000995517 0.000381734 2.34673e-05
0.000381734 0.000104823 5.68027e-06
2.34673e-05 5.68027e-06 -0.00020595
0.00027872 0.000278291 2.74558e-06
0.000278291 -0.000230039 2.41658e-06
2.74558e-06 2.41658e-06 -0.000403007
0.00876145 5.78443e-05 -0.000360778
5.78443e-05 0.00533753 -4.24586e-05
-0.000360778 -4.24586e-05 0.00534122
4.86868e-05 0.000201948 2.67255e-05
0.000201948 -0.000365573 2.39376e-05
2.67255e-05 2.39376e-05 -0.000502575
0.00775837 -8.41499e-05 8.68455e-06
-8.41499e-05 0.00473441 -2.36008e-06
8.68455e-06 -2.36008e-06 0.00472893
0.00626317 -0.000187056 0.000179846
-0.000187056 0.00382011 1.70472e-05
0.000179846 1.70472e-05 0.00379502
0.0026005 0.000307823 2.28212e-06
0.000307823 -0.000118357 -2.48385e-08
2.28212e-06 -2.48385e-08 3.14414e-05
0.00243749 0.000251231 2.29106e-06
0.000251231 -0.000304265 -1.10465e-06
2.29106e-06 -1.10465e-06 -4.69323e-05
0.00116456 0.000211593 -6.65004e-05
0.000211593 -0.00138701 -4.92757e-06
-6.65004e-05 -4.92757e-06 -0.000687632
0.00244027 0.000474496 3.57123e-06
0.000474496 -2.35404e-05 9.87073e-07
3.57123e-06 9.87073e-07 -1.4245e-05
0.00246831 0.000675578 -9.60309e-07
0.000675578 0.000131133 1.67648e-07
-9.60309e-07 1.67648e-07 -1.41688e-05
0.00248138 0.000923154 7.02127e-06
0.000923154 0.000351268 -2.64868e-06
7.02127e-06 -2.64868e-06 2.23166e-05
0.00244893 0.000699666 -2.02914e-06
0.000699666 0.000249353 -3.5153e-06
-2.02914e-06 -3.5153e-06 1.27013e-05
0.00268736 0.000521172 -2.52362e-06
0.000521172 -4.52327e-05 -1.52704e-07
-2.52362e-06 -1.52704e-07 3.46073e-05
0.00259093 0.000855723 3.30776e-06
0.000855723 0.000112681 -1.45284e-06
3.30776e-06 -1.45284e-06 -5.57444e-05
0.00214931 0.000486654 1.18982e-05
0.000486654 -0.000240762 -2.19808e-06
1.18982e-05 -2.19808e-06 -0.000107792
0.00237195 8.30677e-05 2.07598e-06
8.30677e-05 -8.07716e-05 2.02263e-07
2.07598e-06 2.02263e-07 1.53554e-05
0.00249572 0.000108315 1.27683e-07
0.000108315 -0.000169684 -7.45523e-08
1.27683e-07 -7.45523e-08 4.38153e-07
0.00249312 0.000182024 -9.02665e-06
0.000182024 -0.000322269 -2.18477e-07
-9.02665e-06 -2.18477e-07 -9.79261e-05
0.00221023 -1.43645e-05 1.06014e-08
-1.43645e-05 -7.33773e-05 2.50398e-07
1.06014e-08 2.50398e-07 -1.06002e-05
0.0026489 -8.72611e-05 3.43288e-06
-8.72611e-05 -0.000209538 7.75467e-08
3.43288e-06 7.75467e-08 1.10854e-05
0.00232772 -8.34724e-05 -3.63124e-07
-8.34724e-05 -0.000102993 3.16928e-07
-3.63124e-07 3.16928e-07 1.40174e-06
0.00216778 -0.000123939 -2.14991e-07
-0.000123939 -6.69004e-05 1.17862e-07
-2.14991e-07 1.17862e-07 -2.97545e-05
0.00236872 -0.000290922 -8.96232e-07
-0.000290922 -0.000133983 4.8509e-07
-8.96232e-07 4.8509e-07 -3.14112e-05
0.00223126 -0.000231958 7.49285e-07
-0.000231958 -4.26668e-05 -3.657e-07
7.49285e-07 -3.657e-07 -1.35409e-05
0.00225533 -0.000239685 -3.77927e-06
-0.000239685 4.71697e-05 5.79114e-07
-3.77927e-06 5.79114e-07 1.81415e-05
0.00230129 -0.000358208 9.29664e-07
-0.000358208 7.54372e-06 -7.76986e-08
9.29664e-07 -7.76986e-08 1.58216e-07
0.00231532 -0.00034735 2.34968e-07
-0.00034735 9.66644e-05 -1.33062e-07
2.34968e-07 -1.33062e-07 3.78512e-05
0.00217592 -0.000310769 -1.74074e-06
-0.000310769 0.000130379 -1.14338e-07
-1.74074e-06 -1.14338e-07 9.51871e-06
0.00227044 -0.000443335 4.39748e-06
-0.000443335 0.000117869 -8.16061e-07
4.39748e-06 -8.16061e-07 5.47009e-06
0.00217491 -0.00039139 -7.87862e-07
-0.00039139 0.000151588 -1.67992e-07
-7.87862e-07 -1.67992e-07 -9.08762e-06
0.0013517 -0.000238299 -6.10425e-06
-0.000238299 -3.35701e-05 2.67007e-06
-6.10425e-06 2.67007e-06 -0.000220541
0.00226709 -0.000482817 2.4978e-06
-0.000482817 0.000258683 8.9788e-07
2.4978e-06 8.9788e-07 4.83343e-05
0.00141667 -0.000292264 -2.81677e-07
-0.000292264 3.25546e-06 1.84192e-07
-2.81677e-07 1.84192e-07 -0.000206063
0.00282651 -0.00021337 -7.14625e-05
-0.00021337 0.00135161 1.36023e-05
-7.14625e-05 1.36023e-05 0.00123638
0.00146394 -0.000348831 1.05415e-05
-0.000348831 4.32749e-05 -4.56356e-06
1.05415e-05 -4.56356e-06 -0.000193348
0.00301611 -0.000254483 5.19707e-05
-0.000254483 0.00146609 -7.62418e-06
5.19707e-05 -7.62418e-06 0.00135202
0.0026401 -0.000142302 -0.000296346
-0.000142302 0.00135341 4.50213e-05
-0.000296346 4.50213e-05 0.0013354
0.00319304 -0.000294157 0.000177962
-0.000294157 0.00157851 -3.35809e-05
0.000177962 -3.35809e-05 0.00146474
0.00225716 -0.000104615 -0.000117794
-0.000104615 0.00111267 1.90364e-05
-0.000117794 1.90364e-05 0.00107524
0.00763234 -9.73601e-05 0.000132912
-9.73601e-05 0.00457603 -9.3247e-06
0.000132912 -9.3247e-06 0.00455581
0.00235452 0.000458616 4.16891e-07
0.000458616 7.74917e-05 4.02165e-07
4.16891e-07 4.02165e-07 2.07801e-05
0.00223934 0.000517116 -3.18681e-06
0.000517116 0.000113185 -9.33812e-07
-3.18681e-06 -9.33812e-07 -3.83918e-05
0.00238868 0.000543634 -2.96223e-06
0.000543634 0.000131022 5.83955e-09
-2.96223e-06 5.83955e-09 2.24614e-05
0.00212093 0.000544384 -2.50025e-06
0.000544384 0.000208461 2.26188e-06
-2.50025e-06 2.26188e-06 -5.12151e-05
0.00220035 0.000598783 -1.18634e-06
0.000598783 0.000163188 -2.21482e-06
-1.18634e-06 -2.21482e-06 -4.89492e-05
0.00229599 0.000549029 -4.68254e-06
0.000549029 0.000144795 -3.20081e-06
-4.68254e-06 -3.20081e-06 -1.42291e-06
0.00149703 0.000433245 -2.40503e-05
0.000433245 7.66166e-05 -4.76489e-06
-2.40503e-05 -4.76489e-06 -0.0002029
0.00211243 0.000638155 1.47374e-06
0.000638155 0.000276189 2.64246e-07
1.47374e-06 2.64246e-07 -4.32656e-05
0.00250244 0.000756533 2.93863e-06
0.000756533 0.000385712 -7.56413e-06
2.93863e-06 -7.56413e-06 8.22095e-05
0.00200293 0.000719988 2.78307e-06
0.000719988 0.000295642 -7.27221e-06
2.78307e-06 -7.27221e-06 -9.88415e-05
0.001389 0.000488076 -8.63221e-07
0.000488076 0.000111731 6.08255e-08
-8.63221e-07 6.08255e-08 -0.000215985
0.000306088 0.000294355 -2.51905e-05
0.000294355 -0.000251463 -2.01959e-05
-2.51905e-05 -2.01959e-05 -0.000435301
0.00135105 0.000482207 3.61081e-05
0.000482207 0.000180276 6.73465e-06
3.61081e-05 6.73465e-06 -0.000160525
0.000145301 0.000286607 1.10592e-06
0.000286607 -0.000321408 1.33196e-06
1.10592e-06 1.33196e-06 -0.000509157
0.00835543 0.00014757 -0.000360063
0.00014757 0.00506999 -4.85826e-05
-0.000360063 -4.85826e-05 0.00507315
4.44851e-05 0.000230731 2.29641e-05
0.000230731 -0.000376655 2.50096e-05
2.29641e-05 2.50096e-05 -0.00054433
0.00859768 1.77156e-05 5.83303e-06
1.77156e-05 0.00522835 6.78725e-07
5.83303e-06 6.78725e-07 0.00523645
0.00757055 -0.000118802 0.000255628
-0.000118802 0.0046129 1.83777e-05
0.000255628 1.83777e-05 0.00460742
0.00236826 0.000250138 1.29281e-06
0.000250138 -6.26321e-05 -4.02616e-07
1.29281e-06 -4.02616e-07 5.51836e-06
0.00255263 0.000313836 -1.04703e-06
0.000313836 -0.000168928 4.22152e-07
-1.04703e-06 4.22152e-07 -1.34208e-05
0.00233881 0.000244269 5.38032e-07
0.000244269 -0.000333228 5.5705e-08
5.38032e-07 5.5705e-08 -7.27428e-05
0.00243684 0.000469611 4.34737e-07
0.000469611 -2.36147e-05 5.09712e-07
4.34737e-07 5.09712e-07 -1.20866e-05
0.0024208 0.000669949 1.67976e-07
0.000669949 0.000117159 -1.67504e-06
1.67976e-07 -1.67504e-06 -2.51805e-05
0.00262002 0.000504869 8.77088e-07
0.000504869 -8.54333e-05 -6.24855e-07
8.77088e-07 -6.24855e-07 -4.81639e-06
0.00225812 7.87267e-05 1.61193e-06
7.87267e-05 -4.87596e-05 1.66845e-07
1.61193e-06 1.66845e-07 4.46507e-06
0.00235771 8.25612e-05 3.07121e-07
8.25612e-05 -8.54725e-05 -2.11031e-07
3.07121e-07 -2.11031e-07 1.05181e-05
0.002426 0.000107766 -2.09562e-07
0.000107766 -0.000202193 2.98129e-07
-2.09562e-07 2.98129e-07 -3.59395e-05
0.00222197 -1.13415e-05 -6.14281e-07
-1.13415e-05 -6.37726e-05 7.85046e-08
-6.14281e-07 7.85046e-08 -2.98017e-06
0.00219811 -3.3925e-05 -2.10179e-06
-3.3925e-05 1.09269e-05 4.74825e-07
-2.10179e-06 4.74825e-07 3.7127e-05
0.00233922 -8.72619e-05 -1.06262e-06
-8.72619e-05 -9.64456e-05 2.15111e-07
-1.06262e-06 2.15111e-07 7.34398e-06
0.00219521 -0.000125165 -1.18215e-06
-0.000125165 -4.03041e-05 2.3665e-07
-1.18215e-06 2.3665e-07 -8.06537e-06
0.00214124 -0.000148615 -4.85671e-06
-0.000148615 -2.08742e-05 9.50508e-07
-4.85671e-06 9.50508e-07 -3.48339e-05
0.00223732 -0.000228872 9.60069e-07
-0.000228872 -3.94068e-05 -4.42644e-07
9.60069e-07 -4.42644e-07 -9.58479e-06
0.00226546 -0.000240627 1.57289e-06
-0.000240627 5.71257e-05 -4.09563e-07
1.57289e-06 -4.09563e-07 2.76473e-05
0.002148 -0.000232503 -6.19417e-07
-0.000232503 8.78986e-05 2.37761e-07
-6.19417e-07 2.37761e-07 -5.13463e-06
0.00233344 -0.00034799 5.05601e-06
-0.00034799 0.00011191 -9.82824e-07
5.05601e-06 -9.82824e-07 5.25439e-05
0.00215337 -0.000310487 -4.72302e-07
-0.000310487 0.000109988 -1.60751e-07
-4.72302e-07 -1.60751e-07 -1.06201e-05
0.00129843 -0.000188876 -3.92008e-06
-0.000188876 -6.22772e-05 1.93395e-06
-3.92008e-06 1.93395e-06 -0.000230479
0.002192 -0.000393358 2.19346e-06
-0.000393358 0.000156368 1.32908e-07
2.19346e-06 1.32908e-07 -4.55168e-06
0.00137106 -0.000237551 -3.54201e-07
-0.000237551 -2.72662e-05 7.15058e-08
-3.54201e-07 7.15058e-08 -0.000212836
0.00271476 -0.000197839 -7.26508e-05
-0.000197839 0.00129103 1.16924e-05
-7.26508e-05 1.16924e-05 0.00118435
0.00143727 -0.000293755 7.56927e-06
-0.000293755 5.24523e-06 -3.36575e-06
7.56927e-06 -3.36575e-06 -0.000203015
0.00291462 -0.000210751 4.89635e-05
-0.000210751 0.00140349 -5.89856e-06
4.89635e-05 -5.89856e-06 0.00130137
0.00256085 -0.000115315 -0.000289062
-0.000115315 0.00129935 3.72149e-05
-0.000289062 3.72149e-05 0.00128327
0.00309627 -0.00024354 0.000172562
-0.00024354 0.00150871 -2.81218e-05
0.000172562 -2.81218e-05 0.00141005
0.00221972 -9.9996e-05 -0.000107253
-9.9996e-05 0.00108761 1.47978e-05
-0.000107253 1.47978e-05 0.00105202
0.001896 -9.87428e-05 7.86562e-05
-9.87428e-05 0.000895408 -1.34985e-05
7.86562e-05 -1.34985e-05 0.000834612
0.00225105 0.000285279 5.48502e-07
0.000285279 -1.78362e-05 -4.91998e-07
5.48502e-07 -4.91998e-07 -1.86444e-05
0.00233093 0.000425088 -4.16487e-06
0.000425088 0.000130933 -5.07707e-07
-4.16487e-06 -5.07707e-07 3.17319e-05
0.00234422 0.00045944 -3.45344e-07
0.00045944 5.09603e-05 -9.01042e-08
-3.45344e-07 -9.01042e-08 5.1117e-06
0.00216866 0.000487194 -1.0929e-06
0.000487194 0.00015557 5.99475e-07
-1.0929e-06 5.99475e-07 -4.77835e-05
0.00228444 0.000517932 -1.09833e-06
0.000517932 0.000152578 -4.80351e-07
-1.09833e-06 -4.80351e-07 -3.06484e-06
0.00239859 0.000543848 3.74767e-07
0.000543848 0.000136364 2.01965e-07
3.74767e-07 2.01965e-07 2.36998e-05
0.00147537 0.000362354 -1.71543e-05
0.000362354 3.41129e-05 -4.38353e-06
-1.71543e-05 -4.38353e-06 -0.000203199
0.00209934 0.000549277 6.64991e-07
0.000549277 0.000183787 -1.13893e-06
6.64991e-07 -1.13893e-06 -6.82514e-05
0.00224884 0.000616355 -2.1776e-06
0.000616355 0.000171297 -5.30345e-06
-2.1776e-06 -5.30345e-06 -3.52937e-05
0.000354496 0.000232339 -2.20264e-05
0.000232339 -0.000249218 -1.68277e-05
-2.20264e-05 -1.68277e-05 -0.000410612
0.00146012 0.000426391 -1.66588e-07
0.000426391 6.21586e-05 2.22007e-07
-1.66588e-07 2.22007e-07 -0.00021674
0.00205328 0.000633904 3.65246e-06
0.000633904 0.000233928 -5.95441e-06
3.65246e-06 -5.95441e-06 -8.48773e-05
0.00136774 0.000491032 3.41291e-05
0.000491032 9.19832e-05 5.70637e-06
3.41291e-05 5.70637e-06 -0.000238314
0.000290229 0.000278631 -6.41946e-08
0.000278631 -0.000258736 9.35584e-07
-6.41946e-08 9.35584e-07 -0.000441828
0.00801454 0.000240729 -0.000360861
0.000240729 0.00484802 -5.28358e-05
-0.000360861 -5.28358e-05 0.00484929
0.000348474 0.000276305 2.60932e-05
0.000276305 -0.000189377 2.00452e-05
2.60932e-05 2.00452e-05 -0.0003744
0.00852191 0.000124486 1.06548e-05
0.000124486 0.00516232 1.86462e-06
1.06548e-05 1.86462e-06 0.00517414
0.00841042 -2.20143e-05 0.000319823
-2.20143e-05 0.00510327 2.51636e-05
0.000319823 2.51636e-05 0.0051116
0.00227397 0.000152016 6.46412e-07
0.000152016 -1.31233e-05 -3.51946e-07
6.46412e-07 -3.51946e-07 2.84383e-05
0.00233963 0.000254632 6.70556e-07
0.000254632 -8.68569e-05 4.37412e-07
6.70556e-07 4.37412e-07 -2.07646e-05
0.00253779 0.000321543 -4.37173e-07
0.000321543 -0.000189497 5.91484e-07
-4.37173e-07 5.91484e-07 -3.06116e-05
0.00244186 0.000463456 -1.94469e-06
0.000463456 -1.80779e-05 -1.63878e-06
-1.94469e-06 -1.63878e-06 -4.56142e-06
0.00216481 3.43634e-05 -2.03426e-06
3.43634e-05 1.69909e-05 2.92447e-07
-2.03426e-06 2.92447e-07 2.29723e-05
0.00225955 6.95847e-05 -1.85619e-08
6.95847e-05 -4.93573e-05 -4.4985e-08
-1.85619e-08 -4.4985e-08 5.95344e-06
0.00234303 8.1724e-05 -1.46169e-06
8.1724e-05 -9.03361e-05 -4.79862e-08
-1.46169e-06 -4.79862e-08 5.08977e-06
0.00223243 -7.82871e-06 -2.82739e-06
-7.82871e-06 -5.46527e-05 -3.574e-07
-2.82739e-06 -3.574e-07 3.9276e-06
0.0021984 -2.7927e-05 -6.20846e-07
-2.7927e-05 4.38634e-06 -1.6555e-07
-6.20846e-07 -1.6555e-07 3.35444e-05
0.00211037 -6.08723e-05 -4.6585e-06
-6.08723e-05 -2.11811e-05 8.5362e-07
-4.6585e-06 8.5362e-07 -3.84176e-05
0.00222326 -0.000126432 6.40959e-07
-0.000126432 -1.30331e-05 8.42767e-08
6.40959e-07 8.42767e-08 1.40339e-05
0.00217138 -0.000150002 -1.80001e-06
-0.000150002 7.65325e-06 3.50312e-07
-1.80001e-06 3.50312e-07 -1.36553e-05
0.00219933 -0.000154016 -1.50731e-06
-0.000154016 0.000110175 5.49028e-07
-1.50731e-06 5.49028e-07 4.0347e-05
0.00228141 -0.000240767 6.82957e-06
-0.000240767 6.95954e-05 -1.38121e-06
6.82957e-06 -1.38121e-06 3.9866e-05
0.00216826 -0.000230227 8.42518e-07
-0.000230227 0.000103397 -2.99932e-07
8.42518e-07 -2.99932e-07 1.14084e-05
0.00129898 -0.000141611 -4.1008e-06
-0.000141611 -5.48064e-05 1.25156e-06
-4.1008e-06 1.25156e-06 -0.000207394
0.00214581 -0.000308696 1.82791e-06
-0.000308696 0.000100541 -5.13248e-07
1.82791e-06 -5.13248e-07 -1.93352e-05
0.00131862 -0.000188108 -1.51972e-07
-0.000188108 -5.11788e-05 1.05342e-07
-1.51972e-07 1.05342e-07 -0.000218285
0.000288944 -0.000103318 -1.70869e-05
-0.000103318 -0.00028963 6.88849e-06
-1.70869e-05 6.88849e-06 -0.000403609
0.00138479 -0.000236448 4.87158e-06
-0.000236448 -2.3683e-05 -2.52487e-06
4.87158e-06 -2.52487e-06 -0.000207787
0.0015926 -0.000137536 7.29505e-05
-0.000137536 0.00054964 -6.09051e-06
7.29505e-05 -6.09051e-06 0.000448449
0.00719081 -0.000189187 -0.000384821
-0.000189187 0.00431636 3.15969e-05
-0.000384821 3.15969e-05 0.0043435
0.00301156 -0.000191981 0.000167261
-0.000191981 0.0014555 -2.20065e-05
0.000167261 -2.20065e-05 0.00136882
0.00216619 -9.1021e-05 -9.73195e-05
-9.1021e-05 0.00105681 9.54044e-06
-9.73195e-05 9.54044e-06 0.00102149
0.00179985 -0.000113197 8.98057e-05
-0.000113197 0.000841555 -1.5055e-05
8.98057e-05 -1.5055e-05 0.000779876
0.00219596 0.000187754 -5.6707e-07
0.000187754 1.22908e-06 -1.04518e-06
-5.6707e-07 -1.04518e-06 6.97543e-07
0.00231483 0.000326532 -2.87503e-06
0.000326532 9.5559e-05 -6.63994e-07
-2.87503e-06 -6.63994e-07 3.52588e-05
0.00226493 0.000277751 -4.30988e-07
0.000277751 4.70592e-06 -3.77443e-08
-4.30988e-07 -3.77443e-08 -2.18582e-06
0.00230877 0.000395627 -1.05842e-06
0.000395627 0.000223897 5.133e-07
-1.05842e-06 5.133e-07 7.89207e-05
0.00226863 0.00042125 5.49905e-07
0.00042125 8.91511e-05 3.10927e-08
5.49905e-07 3.10927e-08 -9.03764e-06
0.00233887 0.000460376 -1.21645e-06
0.000460376 2.75557e-05 -7.43658e-07
-1.21645e-06 -7.43658e-07 -7.60549e-06
0.00154 0.000313304 -1.06914e-05
0.000313304 7.36023e-05 -2.09626e-06
-1.06914e-05 -2.09626e-06 -0.000125556
0.0021955 0.000483447 2.59264e-07
0.000483447 0.000177739 -1.88939e-07
2.59264e-07 -1.88939e-07 -2.39785e-05
0.00230709 0.000515821 2.0681e-06
0.000515821 0.000177614 -1.05533e-06
2.0681e-06 -1.05533e-06 1.82761e-05
0.0003468 0.000167772 -1.86768e-05
0.000167772 -0.000264802 -1.29581e-05
-1.86768e-05 -1.29581e-05 -0.000404069
0.00143907 0.000357777 4.3521e-07
0.000357777 1.77461e-05 5.06017e-07
4.3521e-07 5.06017e-07 -0.000214563
0.00204471 0.00054967 3.84076e-06
0.00054967 0.000138895 -5.34889e-06
3.84076e-06 -5.34889e-06 -0.00010479
0.00768236 0.000297396 -0.000363451
0.000297396 0.00463256 -5.14543e-05
-0.000363451 -5.14543e-05 0.00463515
0.000316422 0.000228559 2.34887e-07
0.000228559 -0.000277189 7.36914e-07
2.34887e-07 7.36914e-07 -0.000439971
0.00139724 0.000417606 2.5748e-05
0.000417606 3.0925e-05 5.19334e-06
2.5748e-05 5.19334e-06 -0.000247043
0.000239907 0.000264064 2.29214e-05
0.000264064 -0.000287609 2.01798e-05
2.29214e-05 2.01798e-05 -0.000469919
0.00804598 0.000236708 1.0521e-05
0.000236708 0.00486405 2.69262e-06
1.0521e-05 2.69262e-06 0.00487133
0.0084962 9.90127e-05 0.000377475
9.90127e-05 0.00513117 3.38686e-05
0.000377475 3.38686e-05 0.00515126
0.00213679 9.50095e-05 -3.20766e-06
9.50095e-05 4.68554e-06 -1.45558e-07
-3.20766e-06 -1.45558e-07 2.60141e-06
0.00226191 0.000146556 -1.13654e-07
0.000146556 -2.06059e-05 1.09195e-08
-1.13654e-07 1.09195e-08 1.85102e-05
0.00230328 0.00025852 -1.00688e-06
0.00025852 -0.000116236 3.90635e-07
-1.00688e-06 3.90635e-07 -5.14865e-05
0.00214042 1.51381e-05 -5.94207e-06
1.51381e-05 1.53689e-05 3.29309e-07
-5.94207e-06 3.29309e-07 -1.20499e-05
0.00213627 4.02581e-05 7.90622e-07
4.02581e-05 -6.28002e-06 3.52035e-09
7.90622e-07 3.52035e-09 3.57823e-06
0.00226017 5.94612e-05 -2.04611e-06
5.94612e-05 -5.09484e-05 -1.15838e-07
-2.04611e-06 -1.15838e-07 6.72439e-06
0.00219991 -2.21322e-05 7.07991e-07
-2.21322e-05 -1.81784e-06 -3.90778e-07
7.07991e-07 -3.90778e-07 3.06767e-05
0.00210975 -5.96093e-05 -6.80981e-07
-5.96093e-05 -2.21142e-05 2.92052e-08
-6.80981e-07 2.92052e-08 -3.84789e-05
0.00208915 -7.23688e-05 -9.51596e-07
-7.23688e-05 4.9679e-05 5.98068e-07
-9.51596e-07 5.98068e-07 -2.5359e-05
0.00220159 -0.000151573 4.18241e-06
-0.000151573 3.68608e-05 -7.88629e-07
4.18241e-06 -7.88629e-07 8.34605e-06
0.00213294 -0.000155301 8.70336e-07
-0.000155301 7.3098e-05 -4.98281e-08
8.70336e-07 -4.98281e-08 -6.75735e-06
0.00147632 -8.94017e-05 -4.94751e-06
-8.94017e-05 7.02177e-05 4.28882e-07
-4.94751e-06 4.28882e-07 -5.64656e-05
0.00216777 -0.000229204 2.34849e-06
-0.000229204 0.000105279 -9.50551e-07
2.34849e-06 -9.50551e-07 1.38615e-05
0.00130041 -0.00013789 -6.37539e-09
-0.00013789 -5.8053e-05 8.61796e-08
-6.37539e-09 8.61796e-08 -0.000209524
0.000282187 -3.34945e-05 -1.58348e-05
-3.34945e-05 -0.000292589 3.74486e-06
-1.58348e-05 3.74486e-06 -0.000396021
0.00135614 -0.000186653 3.27172e-06
-0.000186653 -3.13335e-05 -1.73995e-06
3.27172e-06 -1.73995e-06 -0.000197082
0.000315996 -8.81544e-05 -5.03993e-07
-8.81544e-05 -0.000269894 5.51122e-07
-5.03993e-07 5.51122e-07 -0.000383454
0.00710589 -7.98169e-05 -0.000374258
-7.98169e-05 0.00425408 2.02228e-05
-0.000374258 2.02228e-05 0.00428786
0.000409011 -9.69584e-05 1.25452e-05
-9.69584e-05 -0.000218565 -9.21002e-06
1.25452e-05 -9.21002e-06 -0.000340596
0.00458236 -0.000124287 0.00016016
-0.000124287 0.00263107 -9.42324e-06
0.00016016 -9.42324e-06 0.00261554
0.00175223 -9.93308e-05 9.44057e-05
-9.93308e-05 0.000813292 -1.4021e-05
9.44057e-05 -1.4021e-05 0.000753813
0.00218888 0.000155814 -5.33458e-06
0.000155814 5.4751e-05 -9.24022e-07
-5.33458e-06 -9.24022e-07 4.5033e-05
0.00228177 0.000234083 -4.78963e-06
0.000234083 9.66349e-05 -1.04923e-06
-4.78963e-06 -1.04923e-06 4.44413e-05
0.00218917 0.000181053 -6.29478e-07
0.000181053 2.46599e-06 -2.11859e-07
-6.29478e-07 -2.11859e-07 1.88898e-06
0.00224989 0.000313616 -6.1236e-07
0.000313616 0.000176258 -3.40442e-08
-6.1236e-07 -3.40442e-08 5.3623e-05
0.00232656 0.000323741 -6.29377e-08
0.000323741 0.000102077 -1.68279e-07
-6.29377e-08 -1.68279e-07 4.09868e-05
0.00227427 0.000270394 1.00976e-06
0.000270394 2.47552e-05 6.63836e-07
1.00976e-06 6.63836e-07 1.17542e-05
0.00150394 0.000246519 -5.30426e-06
0.000246519 6.70401e-05 -1.35154e-06
-5.30426e-06 -1.35154e-06 -0.000105161
0.0021494 0.000385546 1.98543e-06
0.000385546 0.000124605 3.75801e-07
1.98543e-06 3.75801e-07 -2.93266e-05
0.00219875 0.000417318 3.60488e-06
0.000417318 4.1713e-05 -4.44013e-08
3.60488e-06 -4.44013e-08 -5.53125e-05
0.000330135 0.000120379 -1.66845e-05
0.000120379 -0.0002741 -9.72534e-06
-1.66845e-05 -9.72534e-06 -0.000399416
0.00149024 0.000304552 1.20675e-06
0.000304552 4.74895e-05 1.03761e-06
1.20675e-06 1.03761e-06 -0.000148956
0.0022327 0.000481209 2.26246e-06
0.000481209 0.000206866 -1.27648e-06
2.26246e-06 -1.27648e-06 6.78524e-06
0.00740586 0.000327748 -0.000376003
0.000327748 0.00446617 -4.86188e-05
-0.000376003 -4.86188e-05 0.00446918
0.000341837 0.000171192 5.14093e-07
0.000171192 -0.000273169 3.96819e-07
5.14093e-07 3.96819e-07 -0.000414619
0.00140392 0.000355197 1.771e-05
0.000355197 -6.71197e-08 3.78954e-06
1.771e-05 3.78954e-06 -0.000227962
0.00777951 0.000319547 1.18416e-05
0.000319547 0.00470521 5.07532e-06
1.18416e-05 5.07532e-06 0.00470475
0.00029994 0.000224882 1.96608e-05
0.000224882 -0.00029211 1.7192e-05
1.96608e-05 1.7192e-05 -0.000456273
0.00811592 0.000209915 0.000378978
0.000209915 0.0048922 4.24413e-05
0.000378978 4.24413e-05 0.00490942
0.00210906 7.65809e-05 -5.91271e-06
7.65809e-05 -1.05762e-05 -7.33987e-08
-5.91271e-06 -7.33987e-08 -4.44139e-05
0.00213152 0.00010209 -1.00447e-06
0.00010209 7.09531e-06 -2.42218e-07
-1.00447e-06 -2.42218e-07 4.75473e-06
0.00225199 0.000141624 -3.79719e-07
0.000141624 -2.54731e-05 4.43178e-07
-3.79719e-07 4.43178e-07 1.07386e-05
0.00206405 -4.86079e-06 -2.72579e-07
-4.86079e-06 3.96373e-05 2.95596e-07
-2.72579e-07 2.95596e-07 -3.55257e-05
0.0021097 1.64047e-05 -7.95268e-07
1.64047e-05 -9.66736e-06 -2.4158e-08
-7.95268e-07 -2.4158e-08 -3.3966e-05
0.00210715 4.69197e-05 2.01579e-06
4.69197e-05 -2.99366e-05 -1.65654e-08
2.01579e-06 -1.65654e-08 -1.62159e-05
0.00210731 -5.8459e-05 3.02399e-06
-5.8459e-05 -2.41401e-05 -7.53304e-07
3.02399e-06 -7.53304e-07 -3.97622e-05
0.00204155 -7.14171e-05 -8.59381e-07
-7.14171e-05 1.89137e-05 2.32283e-07
-8.59381e-07 2.32283e-07 -5.54792e-05
0.00141831 -3.68965e-05 -5.16151e-06
-3.68965e-05 5.13341e-05 1.18778e-08
-5.16151e-06 1.18778e-08 -6.77595e-05
0.00206051 -0.000156354 1.36182e-07
-0.000156354 3.15066e-05 -6.09561e-07
1.36182e-07 -6.09561e-07 -5.83311e-05
0.00136498 -8.95425e-05 3.22271e-06
-8.95425e-05 -8.81579e-06 -3.69861e-07
3.22271e-06 -3.69861e-07 -0.000142078
0.000272619 -1.35284e-05 -1.63362e-05
-1.35284e-05 -0.000292325 2.20932e-06
-1.63362e-05 2.20932e-06 -0.000390294
0.00129368 -0.000135606 3.50694e-06
-0.000135606 -6.52508e-05 -1.15445e-06
3.50694e-06 -1.15445e-06 -0.00021587
0.00028905 -4.50686e-05 4.529e-07
-4.50686e-05 -0.000285795 -3.51789e-07
4.529e-07 -3.51789e-07 -0.000388553
0.00687341 -0.000172874 -0.00037334
-0.000172874 0.00412504 2.19043e-05
-0.00037334 2.19043e-05 0.00415127
0.000319867 -7.23266e-05 1.5724e-05
-7.23266e-05 -0.000265836 -5.35174e-06
1.5724e-05 -5.35174e-06 -0.000378072
0.00702135 -0.000115973 7.04918e-06
-0.000115973 0.00420486 1.86313e-07
7.04918e-06 1.86313e-07 0.00423721
0.00206352 -4.92214e-05 0.000285245
-4.92214e-05 0.000981491 -2.17184e-05
0.000285245 -2.17184e-05 0.00097368
0.00211335 0.000158696 -6.90594e-06
0.000158696 -7.50554e-06 -1.05666e-06
-6.90594e-06 -1.05666e-06 -5.35961e-05
0.00213098 0.000157115 -1.25172e-06
0.000157115 4.06348e-06 -1.21641e-07
-1.25172e-06 -1.21641e-07 7.78042e-07
0.00225216 0.000232339 1.31371e-06
0.000232339 0.000165742 -6.35621e-08
1.31371e-06 -6.35621e-08 6.42585e-05
0.00229252 0.00023358 8.13375e-07
0.00023358 9.98649e-05 2.5964e-09
8.13375e-07 2.5964e-09 4.84288e-05
0.00218334 0.000174243 1.25344e-06
0.000174243 3.65506e-06 4.30496e-07
1.25344e-06 4.30496e-07 3.22858e-06
0.00127765 0.000178859 -2.02154e-06
0.000178859 -7.01205e-05 -1.22746e-06
-2.02154e-06 -1.22746e-06 -0.000234959
0.00218637 0.000310626 3.16899e-07
0.000310626 0.00013246 1.20441e-08
3.16899e-07 1.20441e-08 9.36005e-06
0.00234325 0.000321102 4.39874e-06
0.000321102 0.000111758 9.4362e-07
4.39874e-06 9.4362e-07 4.96831e-05
0.000327529 8.79417e-05 -1.58391e-05
8.79417e-05 -0.000268054 -7.22497e-06
-1.58391e-05 -7.22497e-06 -0.00038486
0.00139708 0.00024085 2.81005e-06
0.00024085 1.27255e-06 9.44964e-07
2.81005e-06 9.44964e-07 -0.00017656
0.00200764 0.000376406 1.16847e-06
0.000376406 3.80846e-05 1.73814e-07
1.16847e-06 1.73814e-07 -0.000124883
0.00721023 0.000317274 -0.000389333
0.000317274 0.0043528 -4.39102e-05
-0.000389333 -4.39102e-05 0.00435802
0.000344446 0.00012699 6.97918e-07
0.00012699 -0.000268194 2.49944e-07
6.97918e-07 2.49944e-07 -0.000395738
0.00144606 0.000295912 1.00065e-05
0.000295912 2.4887e-05 3.64574e-06
1.00065e-05 3.64574e-06 -0.000168695
0.00750884 0.000355075 8.57255e-06
0.000355075 0.00454427 5.51585e-06
8.57255e-06 5.51585e-06 0.00454159
0.000345282 0.000174019 1.73443e-05
0.000174019 -0.000276054 1.35677e-05
1.73443e-05 1.35677e-05 -0.000419574
0.00788054 0.000331596 0.000392542
0.000331596 0.00476514 5.33434e-05
0.000392542 5.33434e-05 0.00476898
0.00202871 7.25741e-05 7.669e-07
7.25741e-05 1.99456e-05 -1.7238e-07
7.669e-07 -1.7238e-07 -6.20205e-05
0.0021217 7.72499e-05 -2.72056e-06
7.72499e-05 3.10924e-06 -1.87144e-07
-2.72056e-06 -1.87144e-07 -3.22697e-05
0.00212605 0.000108825 3.67278e-06
0.000108825 9.34767e-06 2.55336e-07
3.67278e-06 2.55336e-07 6.79439e-06
0.00136742 -8.30554e-06 -6.53462e-06
-8.30554e-06 3.59055e-05 -1.66928e-07
-6.53462e-06 -1.66928e-07 -8.21063e-05
0.00203187 -1.77381e-06 -4.25907e-07
-1.77381e-06 2.04057e-05 1.13907e-07
-4.25907e-07 1.13907e-07 -5.4537e-05
0.00208032 1.71239e-05 2.86041e-06
1.71239e-05 -3.33831e-05 -1.82261e-07
2.86041e-06 -1.82261e-07 -5.46769e-05
0.00199614 -7.07607e-05 -1.01361e-06
-7.07607e-05 -9.98145e-06 -1.49e-07
-1.01361e-06 -1.49e-07 -8.38268e-05
0.00138076 -3.93413e-05 2.54123e-06
-3.93413e-05 1.78318e-05 -1.36949e-07
2.54123e-06 -1.36949e-07 -0.000101423
0.000282277 -3.37724e-05 -1.71032e-05
-3.37724e-05 -0.000279933 1.09829e-06
-1.71032e-05 1.09829e-06 -0.000373597
0.00125941 -8.91114e-05 7.21387e-06
-8.91114e-05 -8.40068e-05 -1.1525e-06
7.21387e-06 -1.1525e-06 -0.000223783
0.000286453 -2.42456e-06 9.4062e-09
-2.42456e-06 -0.000283715 6.19025e-08
9.4062e-09 6.19025e-08 -0.000380087
0.00676021 -0.000140057 -0.000372279
-0.000140057 0.00405115 1.66731e-05
-0.000372279 1.66731e-05 0.00408122
0.000332281 -5.27528e-05 1.68673e-05
-5.27528e-05 -0.000253782 -3.68131e-06
1.68673e-05 -3.68131e-06 -0.000357236
0.00686115 -6.90713e-05 -2.83172e-06
-6.90713e-05 0.00410286 3.55434e-06
-2.83172e-06 3.55434e-06 0.00413799
0.0069832 -0.000129763 0.000372086
-0.000129763 0.004183 -1.98439e-05
0.000372086 -1.98439e-05 0.00421496
0.00216024 0.000148773 1.59192e-06
0.000148773 0.000104366 -3.05304e-07
1.59192e-06 -3.05304e-07 1.6874e-05
0.00216889 0.000158894 -1.8532e-06
0.000158894 2.41243e-05 -1.77599e-07
-1.8532e-06 -1.77599e-07 -1.64252e-05
0.00207435 0.000158684 3.17545e-06
0.000158684 -4.6024e-05 7.88405e-07
3.17545e-06 7.88405e-07 -4.29473e-05
0.00123901 0.000120814 -2.90126e-06
0.000120814 -8.18319e-05 -7.19394e-07
-2.90126e-06 -7.19394e-07 -0.000231002
0.00218474 0.00022922 1.28307e-07
0.00022922 0.000117953 -1.50376e-07
1.28307e-07 -1.50376e-07 1.61766e-05
0.00230597 0.000232917 4.67096e-06
0.000232917 0.000105383 7.8252e-07
4.67096e-06 7.8252e-07 5.4778e-05
0.000321508 5.96697e-05 -1.52455e-05
5.96697e-05 -0.000261472 -5.22676e-06
-1.52455e-05 -5.22676e-06 -0.000370766
0.00129964 0.000181007 1.64099e-07
0.000181007 -4.70833e-05 2.97545e-07
1.64099e-07 2.97545e-07 -0.000213037
0.00212709 0.000307552 9.52431e-07
0.000307552 9.19646e-05 -8.36786e-08
9.52431e-07 -8.36786e-08 -3.15689e-05
0.00702666 0.000258607 -0.000395232
0.000258607 0.00423261 -3.53557e-05
-0.000395232 -3.53557e-05 0.00424858
0.000333558 9.60992e-05 8.95932e-07
9.60992e-05 -0.000265701 2.50422e-07
8.95932e-07 2.50422e-07 -0.000384811
0.00127835 0.000234097 4.67188e-06
0.000234097 -7.31822e-05 2.98555e-06
4.67188e-06 2.98555e-06 -0.00025642
0.00731458 0.000336936 4.56399e-06
0.000336936 0.00442449 3.55372e-06
4.56399e-06 3.55372e-06 0.00442741
0.000359274 0.00013518 1.59855e-05
0.00013518 -0.000260668 1.06618e-05
1.59855e-05 1.06618e-05 -0.000391055
0.00763454 0.000395883 0.000400897
0.000395883 0.00463786 5.87539e-05
0.000400897 5.87539e-05 0.00462899
0.00115792 3.88928e-05 -8.68927e-06
3.88928e-05 -9.89405e-05 -5.21747e-07
-8.68927e-06 -5.21747e-07 -0.000231353
0.00211295 6.98191e-05 -6.09236e-07
6.98191e-05 7.67565e-05 2.11045e-08
-6.09236e-07 2.11045e-08 1.43003e-06
0.00213407 7.82866e-05 3.08731e-06
7.82866e-05 1.61207e-05 1.24242e-07
3.08731e-06 1.24242e-07 -2.07288e-05
0.00032756 3.2734e-05 -1.78553e-05
3.2734e-05 -0.000254243 -1.05815e-06
-1.78553e-05 -1.05815e-06 -0.000339025
0.00135198 -4.21991e-06 2.39263e-06
-4.21991e-06 1.89617e-05 3.45359e-08
2.39263e-06 3.45359e-08 -9.88558e-05
0.00199504 2.72977e-06 -6.09487e-07
2.72977e-06 -2.37931e-06 -9.51806e-08
-6.09487e-07 -9.51806e-08 -7.70319e-05
0.00133484 -4.13244e-05 9.80595e-06
-4.13244e-05 -2.14977e-05 -6.6812e-07
9.80595e-06 -6.6812e-07 -0.000140926
0.000291356 -7.02048e-06 2.33282e-07
-7.02048e-06 -0.000273333 4.38382e-07
2.33282e-07 4.38382e-07 -0.000366721
0.00666166 3.44882e-07 -0.000374241
3.44882e-07 0.00397804 3.62972e-06
-0.000374241 3.62972e-06 0.00401711
0.000290475 8.93098e-06 1.64556e-05
8.93098e-06 -0.000281785 -1.21567e-06
1.64556e-05 -1.21567e-06 -0.000376464
0.00672168 -0.000137506 -7.6101e-06
-0.000137506 0.00402849 2.32725e-06
-7.6101e-06 2.32725e-06 0.00405801
0.00678933 -5.19008e-05 0.000358002
-5.19008e-05 0.00405685 -1.14545e-05
0.000358002 -1.14545e-05 0.00409227
0.00121881 7.70742e-05 -6.48331e-06
7.70742e-05 -7.06305e-05 -7.78932e-07
-6.48331e-06 -7.78932e-07 -0.000208877
0.00220065 0.000144997 -4.68369e-07
0.000144997 0.000131727 -2.35194e-07
-4.68369e-07 -2.35194e-07 4.83136e-05
0.00222262 0.000158846 1.5013e-06
0.000158846 5.47697e-05 2.68069e-07
1.5013e-06 2.68069e-07 1.97365e-05
0.00276227 7.5609e-05 -0.000165625
7.5609e-05 0.00132528 -7.02346e-06
-0.000165625 -7.02346e-06 0.00126777
0.00124979 0.000122358 8.29265e-08
0.000122358 -6.72171e-05 1.07258e-07
8.29265e-08 1.07258e-07 -0.00021711
0.00211131 0.000225755 -3.22399e-08
0.000225755 6.65409e-05 -1.26061e-07
-3.22399e-08 -1.26061e-07 -3.55407e-05
0.00687379 0.000189047 -0.000393147
0.000189047 0.00412735 -2.54933e-05
-0.000393147 -2.54933e-05 0.00415435
0.000329353 7.96035e-05 1.18577e-06
7.96035e-05 -0.000256207 5.06993e-07
1.18577e-06 5.06993e-07 -0.000368219
0.00131549 0.000182602 2.41659e-06
0.000182602 -2.90707e-05 1.62216e-06
2.41659e-06 1.62216e-06 -0.000196147
0.00714368 0.000276071 1.38073e-06
0.000276071 0.00430866 1.76551e-06
1.38073e-06 1.76551e-06 0.00432305
0.000346466 0.000106445 1.56911e-05
0.000106445 -0.000257834 8.4165e-06
1.56911e-05 8.4165e-06 -0.000379834
0.007411 0.000372719 0.000404113
0.000372719 0.00450002 5.50359e-05
0.000404113 5.50359e-05 0.00449626
0.000413133 1.54241e-05 -1.35138e-05
1.54241e-05 -0.000185525 -2.12085e-06
-1.35138e-05 -2.12085e-06 -0.000279694
0.00123738 3.84601e-05 -1.28913e-07
3.84601e-05 -4.95703e-05 8.68047e-08
-1.28913e-07 8.68047e-08 -0.000176502
0.00220668 6.57702e-05 1.46541e-07
6.57702e-05 0.000140011 -5.01996e-08
1.46541e-07 -5.01996e-08 7.13103e-05
0.0065012 -0.000106912 -0.000357307
-0.000106912 0.00389394 6.05892e-06
-0.000357307 6.05892e-06 0.0039219
0.000280382 1.14225e-05 -7.00956e-07
1.14225e-05 -0.000279608 -2.06839e-07
-7.00956e-07 -2.06839e-07 -0.000367021
0.00134167 -1.18443e-06 1.07006e-05
-1.18443e-06 5.68801e-06 -9.23411e-08
1.07006e-05 -9.23411e-08 -0.000111932
0.000270355 1.93678e-05 1.67335e-05
1.93678e-05 -0.000287755 3.71128e-07
1.67335e-05 3.71128e-07 -0.000379652
0.00660268 -3.42479e-05 1.72689e-06
-3.42479e-05 0.00394733 -1.97824e-06
1.72689e-06 -1.97824e-06 0.00398112
0.00670304 -6.2843e-05 0.000362925
-6.2843e-05 0.004003 -8.5565e-06
0.000362925 -8.5565e-06 0.00403932
0.00284618 2.52688e-05 -0.000160022
2.52688e-05 0.001382 -3.69863e-06
-0.000160022 -3.69863e-06 0.00133001
0.00120049 7.95836e-05 -4.58094e-08
7.95836e-05 -8.33076e-05 -8.33984e-08
-4.58094e-08 -8.33984e-08 -0.000222336
0.00223503 0.000141338 2.26359e-07
0.000141338 0.0001544 -1.24202e-07
2.26359e-07 -1.24202e-07 7.50207e-05
0.00642536 -1.4203e-05 -0.000169273
-1.4203e-05 0.00385127 -7.01097e-07
-0.000169273 -7.01097e-07 0.00384197
0.000305431 6.58467e-05 7.4351e-07
6.58467e-05 -0.000262781 2.53304e-07
7.4351e-07 2.53304e-07 -0.000365994
0.00126193 0.000124921 3.23562e-06
0.000124921 -5.36752e-05 7.69951e-07
3.23562e-06 7.69951e-07 -0.000204399
0.00695 0.000166406 -9.22336e-06
0.000166406 0.00416963 -1.85068e-06
-9.22336e-06 -1.85068e-06 0.00419784
0.000329802 0.000101907 1.68938e-05
0.000101907 -0.000256759 6.99193e-06
1.68938e-05 6.99193e-06 -0.000370637
0.00723636 0.000298969 0.000406638
0.000298969 0.00437287 4.52092e-05
0.000406638 4.52092e-05 0.0043855
0.00198378 -5.28272e-05 -0.000276159
-5.28272e-05 0.000934337 1.77385e-06
-0.000276159 1.77385e-06 0.000939302
0.00153614 3.66283e-05 -7.03115e-05
3.66283e-05 0.000533841 -2.01946e-07
-7.03115e-05 -2.01946e-07 0.000466356
0.00131137 4.05429e-05 9.37192e-06
4.05429e-05 -3.53351e-06 4.27161e-07
9.37192e-06 4.27161e-07 -0.00012499
0.00656644 -5.23259e-05 6.70544e-06
-5.23259e-05 0.00392911 3.44731e-06
6.70544e-06 3.44731e-06 0.0039632
0.000294721 -8.47551e-06 1.73639e-05
-8.47551e-06 -0.00026297 9.66923e-07
1.73639e-05 9.66923e-07 -0.00035429
0.00663855 -9.54911e-05 0.000375272
-9.54911e-05 0.00397586 -7.32295e-06
0.000375272 -7.32295e-06 0.00400897
0.00155088 2.83631e-05 -7.90428e-05
2.83631e-05 0.000686833 -1.76742e-06
-7.90428e-05 -1.76742e-06 0.000642239
0.00152608 2.65569e-05 -7.11417e-05
2.65569e-05 0.000528591 -1.97682e-06
-7.11417e-05 -1.97682e-06 0.000455268
0.00119271 8.05294e-05 6.52364e-06
8.05294e-05 -8.75337e-05 5.34878e-07
6.52364e-06 5.34878e-07 -0.000227188
0.00421173 8.17413e-05 0.000139567
8.17413e-05 0.0023978 4.89248e-06
0.000139567 4.89248e-06 0.00239239
0.000291033 7.67984e-05 1.73159e-05
7.67984e-05 -0.000273713 5.19849e-06
1.73159e-05 5.19849e-06 -0.000377249
0.00704289 0.000154258 0.000387979
0.000154258 0.00422027 2.76504e-05
0.000387979 2.76504e-05 0.00425243
0.00650706 -1.61778e-05 -8.37226e-06
-1.61778e-05 0.00389575 -3.92278e-06
-8.37226e-06 -3.92278e-06 0.00392796
0.000278555 5.47126e-05 1.9108e-05
5.47126e-05 -0.000282527 2.73857e-06
1.9108e-05 2.73857e-06 -0.000367114
0.00647802 3.20231e-05 0.00036261
3.20231e-05 0.00386762 3.18531e-07
0.00036261 3.18531e-07 0.00390534
0.00408771 4.1492e-05 0.000150794
4.1492e-05 0.00232189 6.69222e-06
0.000150794 6.69222e-06 0.00231997
0.000302831 1.54032e-05 1.69707e-05
1.54032e-05 -0.000260677 2.7984e-06
1.69707e-05 2.7984e-06 -0.000355592
0.00680788 2.16968e-05 0.000373148
2.16968e-05 0.00406907 1.30794e-05
0.000373148 1.30794e-05 0.00410471
0.00655067 -0.0001094 0.000361759
-0.0001094 0.0039265 -4.4831e-06
0.000361759 -4.4831e-06 0.00395501
0.00659183 2.50708e-05 0.000365039
2.50708e-05 0.00393172 8.06076e-06
0.000365039 8.06076e-06 0.00397048
