# vtk DataFile Version 2.0
Wound Healing Simulation
ASCII
DATASET UNSTRUCTURED_GRID
POINTS 3012 float
69.9759 18.75 4
67.2507 60.3285 4
69.976 18.75 2
73.0099 25.446 4
71.1327 20.9142 4
68.6801 16.6661 4
67.8277 19.9244 3.98792
67.2507 60.3286 2
71.1327 54.0858 4
68.6801 58.3339 4
65.6939 62.2254 4
65.3141 59.0043 3.98907
74.6784 42.3946 4
73.7221 47.2057 4
69.9759 18.75 0
73.0099 25.446 2
68.6801 16.6661 2
71.1327 20.9142 2
67.8282 19.9254 2
74.6792 32.6053 4
73.7222 27.7943 4
72.1454 23.1494 4
70.6159 26.2226 3.98653
68.888 21.9579 3.98761
67.2507 14.6715 4
66.6391 17.9689 3.98851
65.8036 21.0209 3.98307
67.2507 60.3285 0
71.1327 54.0858 2
68.6801 58.3339 2
65.694 62.2255 2
65.3144 59.0041 2
72.1454 51.8506 4
69.9759 56.25 4
68.8389 53.113 3.98737
64.0165 64.0165 4
66.6129 57.1362 3.98871
63.8874 60.7691 3.99032
63.5057 57.7793 3.98453
60.3285 67.2507 4
74.6792 42.3947 2
73.7222 47.2057 2
74.9194 39.9526 4
74.2788 44.8158 4
72.1693 42.0852 3.98512
73.0099 49.554 4
71.251 46.5969 3.98649
73.0099 25.446 0
71.1327 20.9142 0
68.6801 16.6661 0
67.8277 19.9244 0.0120836
74.6792 32.6053 2
73.7222 27.7943 2
67.2508 14.6715 2
72.1455 23.1494 2
70.616 26.2234 2
66.6396 17.9694 2
68.8884 21.9593 2
65.8038 21.0202 2
74.9197 35.0474 4
74.2794 30.1841 4
72.1858 32.9434 3.98531
71.2797 28.4326 3.98623
69.8177 24.0608 3.98717
68.3514 26.9518 3.979
66.7688 22.931 3.98197
65.694 12.7746 4
65.3255 16.0998 3.98951
64.7199 19.188 3.98416
63.8972 22.0275 3.98025
71.1327 54.0858 0
65.6939 62.2254 0
68.6801 58.3339 0
65.3141 59.0043 0.0109311
72.1455 51.8506 2
69.9759 56.25 2
68.8391 53.1118 2
64.0165 64.0165 2
66.6133 57.1356 2
63.8876 60.769 2
63.5057 57.78 2
62.2254 65.694 4
58.8946 65.4162 3.99264
69.7713 50.9877 3.98694
67.7862 55.1687 3.98815
66.6562 52.2114 3.98168
62.3374 62.4302 3.99151
64.6673 56.0378 3.98458
62.2067 59.4128 3.98487
61.8316 56.6927 3.98219
58.3339 68.6801 4
60.3285 67.2508 2
73.7221 47.2057 0
74.6784 42.3946 0
74.9197 39.9526 2
74.2794 44.8159 2
72.1693 42.0857 2
73.0099 49.554 2
71.251 46.5969 2
75 37.5 4
72.4061 39.802 3.98414
71.784 44.3522 3.98601
69.8075 41.7891 3.97785
70.5772 48.812 3.98676
68.9171 46.0143 3.97872
74.6792 32.6053 0
73.7222 27.7943 0
67.2507 14.6715 0
72.1454 23.1494 0
70.6159 26.2226 0.0134731
68.888 21.9579 0.012385
66.6391 17.9689 0.0114933
65.8036 21.0209 0.0169291
74.9197 35.0474 2
74.2794 30.1841 2
72.1858 32.9434 2
71.2797 28.433 2
65.694 12.7745 2
65.3258 16.0997 2
69.8179 24.062 2
68.3514 26.9518 2
64.7203 19.1871 2
66.7689 22.9305 2
63.8975 22.0267 2
72.4139 35.2241 3.98418
71.8052 30.6768 3.98605
69.8432 33.2687 3.97795
68.9703 29.0388 3.97852
67.6168 24.9113 3.98045
66.2012 27.6332 3.97606
64.0165 10.9835 4
64.7663 23.8248 3.97914
63.8914 14.3237 3.99056
63.5183 17.4381 3.98529
62.9168 20.3098 3.98121
62.1059 22.9324 3.97879
60.6847 11.0951 3.99196
57.6131 11.4397 3.98706
72.1454 51.8506 0
69.9759 56.25 0
68.8389 53.113 0.0126291
64.0165 64.0165 0
63.8874 60.7691 0.00967739
66.6129 57.1362 0.0112922
63.5057 57.7793 0.0154667
62.2255 65.694 2
58.8948 65.4163 2
69.7714 50.9867 2
67.7866 55.1677 2
66.6561 52.2119 2
62.3376 62.43 2
64.6674 56.0385 2
62.2066 59.4133 2
61.8316 56.6934 2
60.6695 63.9793 3.99213
57.0251 66.7369 3.99316
57.5586 63.6975 3.98747
67.5135 50.1775 3.98021
65.709 54.1775 3.98341
64.548 51.3905 3.9784
60.7756 60.9457 3.9857
62.8305 55.078 3.98242
60.6647 58.1714 3.98221
60.3389 55.8001 3.98122
56.25 69.9759 4
58.3339 68.6801 2
60.3285 67.2507 0
58.9217 9.65338 3.99246
62.2254 9.30607 4
73.0099 49.554 0
74.2788 44.8158 0
71.251 46.5969 0.0135088
72.1693 42.0852 0.0148762
74.9194 39.9526 0
75 37.5 2
72.4061 39.8024 2
71.7839 44.3525 2
69.8076 41.7892 2
70.5772 48.8115 2
68.917 46.0144 2
72.4893 37.5119 3.9836
70.0434 39.6569 3.97648
69.4346 43.9069 3.97855
67.6028 41.4979 3.97481
68.2713 48.1071 3.97931
66.7171 45.441 3.97596
74.9197 35.0474 0
74.2794 30.1841 0
72.1858 32.9434 0.0146893
71.2797 28.4326 0.0137715
65.694 12.7746 0
65.3255 16.0998 0.01049
69.8177 24.0608 0.0128304
68.3514 26.9518 0.0209996
66.7688 22.931 0.0180292
64.7199 19.188 0.0158363
63.8972 22.0275 0.0197454
72.414 35.2241 2
71.8052 30.6769 2
69.8434 33.2688 2
68.9703 29.0388 2
64.0165 10.9835 2
63.8916 14.3236 2
63.5186 17.4373 2
67.6168 24.9111 2
66.2012 27.6328 2
62.9172 20.309 2
64.7664 23.8241 2
62.1062 22.9317 2
60.6849 11.095 2
57.6131 11.439 2
70.0601 35.3921 3.9768
69.471 31.1499 3.97851
67.6605 33.5903 3.97486
66.7783 29.6218 3.97548
65.5323 25.6963 3.97743
64.1545 28.2518 3.97512
62.3426 12.652 3.99135
62.8691 24.6291 3.97786
62.2023 15.7757 3.9856
61.8219 18.6722 3.98253
61.2301 21.3282 3.97931
60.4409 23.714 3.97836
59.2475 12.7708 3.9859
55.8749 10.2263 3.98846
56.4065 13.102 3.98397
69.7713 50.9877 0.0130595
62.2254 65.694 0
58.8946 65.4162 0.0073562
67.7862 55.1687 0.0118476
66.6562 52.2114 0.0183152
62.3374 62.4302 0.00848862
62.2067 59.4128 0.015125
64.6673 56.0378 0.0154234
61.8316 56.6927 0.0178073
60.6697 63.9793 2
57.0253 66.737 2
57.5586 63.698 2
67.5133 50.1777 2
65.7091 54.1782 2
64.5479 51.3913 2
60.7755 60.9464 2
62.8306 55.0789 2
60.6646 58.1721 2
60.3389 55.8007 2
55.0705 67.9338 3.99344
59.2208 62.373 3.98629
55.8048 64.9147 3.98878
56.3285 62.0985 3.98444
65.3409 49.4115 3.97697
63.7171 53.3002 3.98056
62.4549 50.66 3.97676
59.3374 59.5682 3.98357
61.0902 54.3221 3.9815
59.2973 57.0271 3.98035
59.2545 55.1988 3.98161
48.1029 68.5818 3.99025
50.9483 69.9331 3.99386
54.0858 71.1327 4
56.25 69.976 2
58.3339 68.6801 0
57.0588 8.33328 3.99297
60.3285 7.74928 4
58.9219 9.6533 2
62.2255 9.30602 2
70.5772 48.812 0.0132431
71.784 44.3522 0.0139932
68.9171 46.0143 0.0212775
69.8075 41.7891 0.0221502
72.4061 39.802 0.0158574
75 37.5 0
72.4893 37.5122 2
70.0436 39.657 2
69.4347 43.907 2
67.603 41.4981 2
68.2712 48.1072 2
66.7171 45.4414 2
70.1309 37.5213 3.97589
67.838 39.5122 3.97346
67.2303 43.4707 3.97565
65.5631 41.2114 3.97392
66.0769 47.4199 3.97648
64.6616 44.8514 3.97508
72.4139 35.2241 0.0158221
71.8052 30.6768 0.0139529
69.8432 33.2687 0.0220507
68.9703 29.0388 0.0214842
64.0165 10.9835 0
63.8914 14.3237 0.00943912
63.5183 17.4381 0.0147125
67.6168 24.9113 0.0195527
66.2012 27.6332 0.0239386
64.7663 23.8248 0.0208597
62.9168 20.3098 0.0187921
62.1059 22.9324 0.0212104
60.6847 11.0951 0.00804454
57.6131 11.4397 0.0129352
70.0603 35.3922 2
69.4711 31.15 2
67.6608 33.5901 2
66.7784 29.6215 2
62.3428 12.6521 2
62.2024 15.7752 2
61.8222 18.6714 2
65.5323 25.6958 2
64.1546 28.2515 2
61.2306 21.3275 2
62.8693 24.6285 2
60.4413 23.7135 2
59.2475 12.7702 2
56.4065 13.1013 2
55.8749 10.2256 2
67.8742 35.5472 3.9739
67.2713 31.6214 3.97561
65.7043 33.9256 3.97366
64.6705 30.1891 3.9743
63.5483 26.4087 3.97608
62.2669 28.772 3.97563
60.7772 14.2152 3.9855
61.0592 25.3271 3.97741
60.6181 17.1153 3.98359
60.2329 19.8013 3.9808
59.6756 22.2427 3.978
58.9949 24.3049 3.97857
54.0379 9.12994 3.9891
57.9123 14.3206 3.98379
54.7876 12.0012 3.98509
55.3142 14.6324 3.98269
67.5135 50.1775 0.0197879
57.0251 66.7369 0.0068442
60.6695 63.9793 0.00786991
57.5586 63.6975 0.0125284
65.709 54.1775 0.0165865
64.548 51.3905 0.0216035
60.7756 60.9457 0.0142964
60.6647 58.1714 0.0177858
62.8305 55.078 0.0175814
60.3389 55.8001 0.0187764
55.0708 67.9338 2
59.2207 62.3738 2
55.8048 64.9152 2
56.3283 62.0991 2
65.3408 49.4121 2
63.7171 53.3011 2
62.4549 50.6608 2
59.3374 59.569 2
61.0903 54.3229 2
59.2973 57.0277 2
59.2545 55.1994 2
53.0424 69.0015 3.99367
53.9669 66.0167 3.98941
57.8833 60.8799 3.98398
54.6845 63.2145 3.98552
55.2136 60.6266 3.9829
63.2058 48.6668 3.97553
61.7556 52.5859 3.97912
60.289 50.03 3.97583
58.0237 58.2745 3.98164
59.3418 53.9624 3.98069
58.1367 55.8289 3.97855
50.1095 67.8598 3.99002
47.4635 66.5862 3.98798
46.0567 69.1614 3.99049
48.103 68.5822 2
48.8025 70.7244 3.99404
50.9485 69.9332 2
51.8506 72.1454 4
54.0858 71.1327 2
56.25 69.9759 0
55.103 7.13788 3.99322
58.3339 6.31992 4
57.059 8.33312 2
60.3286 7.74926 2
58.9217 9.65338 0.0075365
62.2254 9.30607 0
68.2713 48.1071 0.0206925
69.4346 43.9069 0.0214537
66.7171 45.441 0.0240393
67.6028 41.4979 0.0251871
70.0434 39.6569 0.02352
72.4893 37.5119 0.0163955
70.1311 37.5214 2
67.8383 39.5124 2
67.2304 43.471 2
65.5634 41.2117 2
66.0768 47.4204 2
64.6617 44.8519 2
67.9334 37.5218 3.97258
65.7925 39.3709 3.97258
65.1847 43.0277 3.97476
63.7645 40.9324 3.97357
63.976 46.7209 3.97544
62.8184 44.2215 3.97579
70.0601 35.3921 0.0232029
69.471 31.1499 0.0214909
67.6605 33.5903 0.0251361
66.7783 29.6218 0.0245197
62.3426 12.652 0.00865339
62.2023 15.7757 0.0144036
61.8219 18.6722 0.0174685
65.5323 25.6963 0.0225684
64.1545 28.2518 0.0248759
62.8691 24.6291 0.0221428
61.2301 21.3282 0.0206916
60.4409 23.714 0.0216357
59.2475 12.7708 0.0141022
56.4065 13.102 0.0160281
55.8749 10.2263 0.011543
67.8745 35.5471 2
67.2715 31.6212 2
65.7046 33.9253 2
64.6707 30.1888 2
60.7772 14.2146 2
60.6183 17.1145 2
60.2334 19.8004 2
63.5484 26.4082 2
62.267 28.7716 2
59.6761 22.2421 2
61.0595 25.3266 2
58.9953 24.3044 2
57.9122 14.3199 2
55.3142 14.6317 2
54.0378 9.12933 2
54.7876 12.0004 2
65.8814 35.666 3.97286
65.1939 32.1515 3.97439
64.2918 34.2479 3.97369
62.604 30.6309 3.97406
61.6628 27.0646 3.97542
60.8612 29.1325 3.97735
59.3137 15.6573 3.98387
59.3469 25.7835 3.97886
59.1305 18.3406 3.98257
58.7519 20.8369 3.97896
58.3004 23.0749 3.97675
57.9854 24.6484 3.97909
52.1124 8.14868 3.98948
53.0583 11.0078 3.9861
56.679 15.7287 3.98299
53.8106 13.6674 3.98338
54.3785 15.9833 3.98246
55.0705 67.9338 0.00655798
65.3409 49.4115 0.0230302
55.8048 64.9147 0.0112185
59.2208 62.373 0.0137103
56.3285 62.0985 0.0155634
63.7171 53.3002 0.0194436
62.4549 50.66 0.0232396
59.3374 59.5682 0.0164276
59.2973 57.0271 0.0196502
61.0902 54.3221 0.018497
59.2545 55.1988 0.0183855
53.0426 69.0015 2
53.9669 66.0171 2
57.8832 60.8805 2
54.6844 63.215 2
55.2135 60.6273 2
63.2057 48.6674 2
61.7557 52.5867 2
60.289 50.0308 2
58.0237 58.2752 2
59.3418 53.963 2
58.1366 55.8295 2
52.0705 67.0029 3.98978
52.9535 64.2245 3.98652
56.6519 59.5007 3.98278
53.6823 61.6315 3.98379
54.2631 59.3332 3.98171
61.0073 47.8887 3.97473
59.7262 52.1186 3.97884
58.0428 49.6312 3.97747
56.7837 57.0033 3.97896
57.1346 54.1392 3.97835
50.1095 67.8601 2
49.3371 65.9264 3.98771
47.4633 66.5867 2
46.8923 64.7436 3.98635
45.5586 67.1039 3.98791
43.9737 69.5938 3.99057
46.0567 69.1618 2
46.6092 71.3689 3.99425
48.1029 68.5818 0.00975276
48.8027 70.7245 2
49.554 73.0099 4
50.9483 69.9331 0.00614401
51.8506 72.1455 2
54.0858 71.1327 0
53.064 6.06949 3.99344
55.1032 7.13774 2
56.25 5.02411 4
58.3339 6.3199 2
57.0588 8.33328 0.00702603
60.3285 7.74928 0
66.0769 47.4199 0.0235151
67.2303 43.4707 0.0243456
64.6616 44.8514 0.0249215
65.5631 41.2114 0.0260774
67.838 39.5122 0.0265443
70.1309 37.5213 0.0241129
67.9337 37.5218 2
65.7928 39.3711 2
65.1848 43.0282 2
63.7648 40.9327 2
63.976 46.7214 2
62.8185 44.2219 2
65.894 37.5016 3.97115
63.9063 39.268 3.97247
63.3395 42.5543 3.97457
62.4419 40.7007 3.97411
61.9801 45.9256 3.97571
61.4648 43.6898 3.97591
67.8742 35.5472 0.0261016
67.2713 31.6214 0.0243919
65.7043 33.9256 0.0263436
64.6705 30.1891 0.0256977
60.7772 14.2152 0.0145037
60.6181 17.1153 0.0164051
60.2329 19.8013 0.019201
63.5483 26.4087 0.0239222
62.2669 28.772 0.0243733
61.0592 25.3271 0.0225881
59.6756 22.2427 0.0219978
58.9949 24.3049 0.0214348
57.9123 14.3206 0.0162139
55.3142 14.6324 0.0173056
54.0379 9.12994 0.0108957
54.7876 12.0012 0.0149103
65.8818 35.6659 2
65.1941 32.1512 2
64.2923 34.2476 2
62.6042 30.6304 2
59.3137 15.6565 2
59.1308 18.3397 2
58.7526 20.8361 2
61.663 27.0642 2
60.8613 29.1321 2
58.301 23.0744 2
59.3472 25.783 2
57.9858 24.648 2
56.6789 15.728 2
54.3783 15.9824 2
53.8106 13.6665 2
52.1124 8.14811 2
53.0583 11.0071 2
64.0971 35.6312 3.97258
62.9405 33.0427 3.97345
60.6258 30.6047 3.97387
59.5853 27.9002 3.97641
57.9433 16.9694 3.98311
57.7575 25.7107 3.98025
57.7229 19.4593 3.98126
57.3836 21.8219 3.97671
57.2025 23.9295 3.9763
50.1125 7.28089 3.98971
51.2326 10.1165 3.9868
52.1726 12.7848 3.98461
55.5403 16.9569 3.98296
52.9791 15.2483 3.98173
53.7607 16.9646 3.98278
53.0424 69.0015 0.00633054
53.9669 66.0167 0.0105901
63.2058 48.6668 0.0244726
54.6845 63.2145 0.0144821
57.8833 60.8799 0.0160247
55.2136 60.6266 0.0170972
61.7556 52.5859 0.0208777
60.289 50.03 0.0241681
58.0237 58.2745 0.0183622
58.1367 55.8289 0.0214472
59.3418 53.9624 0.0193072
52.0704 67.0033 2
52.9533 64.225 2
56.6518 59.5013 2
53.6821 61.632 2
54.2629 59.3339 2
61.0073 47.8894 2
59.7262 52.1193 2
58.0428 49.6319 2
56.7837 57.004 2
57.1346 54.1396 2
51.1679 65.1333 3.98723
52.0465 62.5464 3.9847
55.485 58.2633 3.98225
52.8364 60.1458 3.98243
53.6437 58.4836 3.98107
58.3229 46.8608 3.97767
57.5777 51.8024 3.97803
56.2661 49.5685 3.98096
55.4803 55.8101 3.97742
55.3713 53.3994 3.97419
50.1095 67.8598 0.00997577
49.3369 65.9268 2
48.618 64.1297 3.98593
47.4635 66.5862 0.0120198
45.5585 67.1043 2
46.8921 64.744 2
46.3817 63.0622 3.98508
45.1326 65.2052 3.98648
43.6318 67.4749 3.98809
41.8609 69.8814 3.99055
43.9738 69.5942 2
44.3766 71.8637 3.99426
46.0567 69.1614 0.00951437
46.6094 71.369 2
47.2057 73.7222 4
48.8025 70.7244 0.00596174
49.554 73.0099 2
51.8506 72.1454 0
50.9537 5.12997 3.99363
53.0642 6.06931 2
54.0858 3.86728 4
55.103 7.13788 0.00677931
56.25 5.02406 2
58.3339 6.31992 0
63.976 46.7209 0.0245645
65.1847 43.0277 0.0252402
62.8184 44.2215 0.0242066
63.7645 40.9324 0.0264283
65.7925 39.3709 0.0274234
67.9334 37.5218 0.0274153
65.8943 37.5017 2
63.9068 39.2682 2
63.3397 42.5548 2
62.4424 40.7011 2
61.9802 45.9262 2
61.465 43.6903 2
63.9645 37.4569 3.97083
62.1679 39.3568 3.97341
61.2324 41.9632 3.97441
60.2652 44.779 3.97652
65.8814 35.666 0.0271383
65.1939 32.1515 0.0256138
64.2918 34.2479 0.0263125
62.604 30.6309 0.0259449
59.3137 15.6573 0.0161255
59.1305 18.3406 0.0174268
58.7519 20.8369 0.0210355
61.6628 27.0646 0.0245834
60.8612 29.1325 0.0226502
59.3469 25.7835 0.0211383
58.3004 23.0749 0.0232544
57.9854 24.6484 0.0209103
56.679 15.7287 0.0170136
54.3785 15.9833 0.0175373
53.8106 13.6674 0.0166208
52.1124 8.14868 0.0105171
53.0583 11.0078 0.0139004
64.0978 35.631 2
62.9408 33.0423 2
60.626 30.6042 2
57.9434 16.9685 2
57.7235 19.4582 2
57.3844 21.8212 2
59.5854 27.8997 2
57.203 23.9291 2
57.7579 25.7104 2
50.1125 7.28039 2
55.5403 16.956 2
53.7607 16.9636 2
52.979 15.2473 2
52.1725 12.7841 2
51.2325 10.1159 2
62.1997 35.3575 3.97202
60.3052 32.741 3.97297
58.6363 30.0661 3.97372
57.3094 27.3666 3.97824
56.6406 18.1404 3.98297
56.3108 25.0857 3.97611
56.3661 20.5038 3.97881
56.1228 22.8505 3.97353
48.0562 6.52411 3.98998
49.3244 9.32482 3.98725
50.4332 11.9834 3.98495
51.3787 14.4838 3.98309
54.4183 17.905 3.9829
52.3633 17.0201 3.98164
52.0705 67.0029 0.010216
52.9535 64.2245 0.0134754
61.0073 47.8887 0.025268
53.6823 61.6315 0.0162141
56.6519 59.5007 0.017215
54.2631 59.3332 0.0182906
59.7262 52.1186 0.0211636
58.0428 49.6312 0.0225299
56.7837 57.0033 0.021039
57.1346 54.1392 0.0216466
51.1678 65.1337 2
52.0463 62.5469 2
55.4849 58.264 2
52.8361 60.1464 2
53.6436 58.4843 2
58.323 46.8616 2
57.5777 51.803 2
56.266 49.5692 2
55.4804 55.8108 2
55.3713 53.4 2
50.3463 63.3878 3.98546
51.245 60.9444 3.98302
54.225 57.2782 3.98098
52.3155 58.6459 3.98094
56.7412 44.1962 3.97415
55.514 47.911 3.98012
55.0873 51.4034 3.97481
54.0149 54.5619 3.97552
49.3371 65.9264 0.0122903
48.6178 64.1301 2
47.962 62.483 3.98474
45.5586 67.1039 0.0120876
46.8923 64.7436 0.0136503
43.6317 67.4753 2
46.3815 63.0626 2
45.1324 65.2056 2
45.987 61.5957 3.98403
44.767 63.4636 3.9856
43.3565 65.5152 3.98668
41.6638 67.6941 3.98806
39.7026 70.0285 3.99042
41.861 69.8818 2
42.1111 72.2085 3.99419
43.9737 69.5938 0.0094308
44.3768 71.8639 2
44.8159 74.2794 4
46.6092 71.3689 0.00574886
47.2057 73.7222 2
49.554 73.0099 0
48.7842 4.32105 3.99385
50.9539 5.12977 2
51.8506 2.85458 4
53.064 6.06949 0.0065581
54.0858 3.86728 2
56.25 5.02411 0
61.9801 45.9256 0.0242895
63.3395 42.5543 0.0254341
61.4648 43.6898 0.0240851
62.4419 40.7007 0.025886
63.9063 39.268 0.0275339
65.894 37.5016 0.0288477
63.9649 37.4569 2
62.1685 39.3571 2
61.2328 41.9637 2
60.2653 44.7796 2
62.0036 37.4447 3.97116
60.265 39.8507 3.97446
59.0149 42.9259 3.97421
64.0971 35.6312 0.027415
62.9405 33.0427 0.0265496
60.6258 30.6047 0.0261275
57.9433 16.9694 0.0168935
57.7229 19.4593 0.0187382
57.3836 21.8219 0.0232867
59.5853 27.9002 0.0235878
57.7575 25.7107 0.0197474
57.2025 23.9295 0.0236998
55.5403 16.9569 0.0170416
53.7607 16.9646 0.0172232
52.9791 15.2483 0.0182685
50.1125 7.28089 0.0102855
52.1726 12.7848 0.0153877
51.2326 10.1165 0.0131969
62.2005 35.3574 2
60.3056 32.7406 2
58.6365 30.0658 2
56.6408 18.1394 2
56.367 20.5027 2
56.1237 22.8502 2
57.3096 27.3661 2
56.3113 25.0856 2
48.0562 6.52366 2
49.3243 9.32429 2
54.4184 17.9039 2
52.3632 17.0191 2
51.3787 14.4829 2
50.4331 11.9827 2
59.9101 35.1178 3.97222
58.0146 32.264 3.97264
56.5637 29.3265 3.97191
55.4686 26.585 3.97862
55.3473 19.1735 3.98262
54.9462 24.0387 3.97241
55.0115 21.5445 3.97654
45.9621 5.87923 3.9903
43.3733 7.46836 3.98835
47.3547 8.61882 3.98748
48.5998 11.2852 3.98566
49.7143 13.7314 3.98384
50.635 16.1173 3.98122
53.1283 18.644 3.98129
51.3052 18.0328 3.98456
51.1679 65.1333 0.0127683
52.0465 62.5464 0.0153032
58.3229 46.8608 0.02233
52.8364 60.1458 0.0175697
55.485 58.2633 0.017749
53.6437 58.4836 0.0189339
57.5777 51.8024 0.0219676
56.2661 49.5685 0.0190354
55.4803 55.8101 0.0225819
55.3713 53.3994 0.0258126
50.346 63.3882 2
51.2448 60.945 2
54.2249 57.2789 2
52.3153 58.6465 2
56.7416 44.1969 2
55.5141 47.9118 2
55.0872 51.4039 2
54.0149 54.5627 2
49.592 61.7528 3.98417
55.6759 41.7151 3.97603
50.5686 59.3386 3.98104
52.1912 56.5023 3.97815
54.213 45.5828 3.97699
53.3642 49.3409 3.97572
52.6827 52.8655 3.97335
48.618 64.1297 0.0140697
47.9617 62.4833 2
47.3292 61.0185 3.98352
43.6318 67.4749 0.0119128
45.1326 65.2052 0.0135228
46.3817 63.0622 0.0149216
41.6637 67.6945 2
43.3564 65.5156 2
45.9868 61.596 2
44.7668 63.464 2
45.7662 60.6403 3.98324
44.4828 61.8457 3.98431
43.1462 63.7364 3.98543
41.546 65.6533 3.98672
39.6328 67.7739 3.98796
37.526 70.0538 3.99035
39.7026 70.029 2
39.8179 72.4056 3.9941
41.8609 69.8814 0.0094457
42.1112 72.2087 2
42.3947 74.6792 4
44.3766 71.8637 0.00574272
44.8159 74.2794 2
47.2057 73.7222 0
43.8514 5.35636 3.99053
46.5702 3.64566 3.99408
48.7844 4.32084 2
49.554 1.99015 4
50.9537 5.12997 0.00637225
51.8506 2.85453 2
54.0858 3.86728 0
60.2652 44.779 0.0234839
61.2324 41.9632 0.0255855
62.1679 39.3568 0.0265916
63.9645 37.4569 0.029172
62.0041 37.4449 2
60.2656 39.8509 2
59.0152 42.9263 2
59.7796 37.5682 3.97225
58.0283 40.6621 3.97405
55.1533 39.7277 3.97638
62.1997 35.3575 0.0279799
60.3052 32.741 0.0270324
58.6363 30.0661 0.0262784
56.6406 18.1404 0.0170288
56.3661 20.5038 0.0211854
56.1228 22.8505 0.02647
57.3094 27.3666 0.0217639
56.3108 25.0857 0.0238884
54.4183 17.905 0.0171014
52.3633 17.0201 0.0183573
51.3787 14.4838 0.0169116
48.0562 6.52411 0.0100224
49.3244 9.32482 0.0127484
50.4332 11.9834 0.0150488
59.9111 35.1177 2
45.9621 5.87876 2
43.3733 7.46788 2
58.0149 32.2636 2
56.564 29.326 2
55.3477 19.1724 2
55.0127 21.5434 2
54.9469 24.0392 2
55.4689 26.585 2
47.3547 8.61838 2
48.5997 11.2847 2
53.1285 18.6428 2
51.3053 18.0319 2
50.6348 16.1163 2
49.7142 13.7306 2
57.4238 34.7583 3.97503
55.7535 31.5105 3.97097
54.5347 28.389 3.97775
53.7923 25.4818 3.97453
53.9749 20.1205 3.98275
53.5931 22.6905 3.97296
41.3983 7.07356 3.98854
45.3594 7.99029 3.98779
42.8649 9.40888 3.98685
46.666 10.6463 3.98577
47.7452 13.0919 3.98412
48.9322 15.3882 3.98302
50.008 17.6862 3.97926
51.6556 19.3098 3.98612
50.3463 63.3878 0.0145358
51.245 60.9444 0.0169841
56.7412 44.1962 0.0258514
55.514 47.911 0.0198839
52.3155 58.6459 0.0190557
54.225 57.2782 0.0190224
55.0873 51.4034 0.0251897
54.0149 54.5619 0.0244809
49.5918 61.7532 2
55.6768 41.7151 2
50.5683 59.3391 2
52.1911 56.503 2
54.2135 45.5837 2
53.364 49.3412 2
52.6827 52.8657 2
48.8496 60.2112 3.98273
52.5859 42.6595 3.97527
49.7926 57.6385 3.98028
50.6038 54.4384 3.97602
51.8502 47.2851 3.97983
51.2354 50.9586 3.97169
48.242 43.802 3.98765
47.962 62.483 0.0152647
47.3289 61.0187 2
46.6191 59.8053 3.98267
41.6638 67.6941 0.0119354
43.3565 65.5152 0.0133186
44.767 63.4636 0.0144035
45.987 61.5957 0.0159742
39.6328 67.7744 2
41.546 65.6537 2
45.7658 60.6405 2
43.146 63.7367 2
44.4826 61.846 2
44.6235 60.303 3.98352
42.95 62.0946 3.98488
41.5996 63.8302 3.98538
39.6476 65.6218 3.98664
37.5633 67.7565 3.98792
31.6972 65.1406 3.98669
33.392 67.494 3.98785
35.3333 69.9639 3.99032
37.526 70.0542 2
37.5096 72.4601 3.99402
39.7026 70.0285 0.00958047
39.8179 72.4059 2
39.9526 74.9197 4
42.1111 72.2085 0.00581008
42.3947 74.6792 2
44.8159 74.2794 0
41.736 4.96547 3.99076
43.8514 5.35591 2
44.3255 3.109 3.99419
46.5704 3.64542 2
47.2057 1.27793 4
48.7842 4.32105 0.00614854
49.554 1.99013 2
51.8506 2.85458 0
59.0149 42.9259 0.0257867
60.265 39.8507 0.0255382
62.0036 37.4447 0.0288443
59.7801 37.5684 2
58.029 40.6621 2
55.154 39.7276 2
56.8584 37.898 3.97516
49.6886 41.3369 3.98019
53.1944 39.3127 3.97541
39.4416 6.79704 3.98873
59.9101 35.1178 0.0277848
58.0146 32.264 0.0273575
56.5637 29.3265 0.0280917
55.3473 19.1735 0.01738
55.0115 21.5445 0.023465
54.9462 24.0387 0.0275869
55.4686 26.585 0.0213849
53.1283 18.644 0.0187119
51.3052 18.0328 0.0154376
50.635 16.1173 0.0187816
45.9621 5.87923 0.00970424
49.7143 13.7314 0.0161608
47.3547 8.61882 0.0125154
48.5998 11.2852 0.0143449
43.3733 7.46836 0.0116471
57.425 34.7585 2
41.3984 7.07305 2
45.3594 7.98984 2
42.8649 9.40837 2
55.7537 31.5102 2
54.5348 28.3893 2
53.9756 20.119 2
53.5939 22.6868 2
53.7928 25.4823 2
46.6659 10.646 2
47.745 13.0913 2
51.656 19.3088 2
50.008 17.6853 2
48.932 15.3873 2
54.9292 33.9686 3.97617
53.5257 30.4722 3.97376
52.6144 27.1844 3.97573
52.1604 24.0747 3.97351
52.3987 21.0482 3.9804
41.0129 9.0421 3.9869
44.7231 9.98925 3.98619
42.4675 10.8945 3.98518
46.0046 12.7201 3.98453
47.6818 14.5731 3.98366
48.1149 16.9751 3.98146
49.8201 19.5856 3.9775
49.592 61.7528 0.0158295
50.5686 59.3386 0.0189557
55.6759 41.7151 0.0239677
54.213 45.5828 0.0230056
53.3642 49.3409 0.0242759
52.1912 56.5023 0.0218544
52.6827 52.8655 0.026654
48.8493 60.2116 2
52.5873 42.6592 2
49.7923 57.6389 2
50.6037 54.4391 2
51.8501 47.2852 2
51.2352 50.9581 2
48.2376 43.8043 2
47.9884 58.7536 3.9818
50.1591 45.3006 3.97573
48.6038 55.9305 3.98167
49.1434 52.612 3.97631
49.6992 49.0604 3.97297
46.1065 39.8911 3.91171
46.4952 42.7094 3.95823
46.5524 45.8464 3.98888
43.9474 41.1958 3.92747
42.0998 42.0089 3.90655
47.3292 61.0185 0.0164775
46.6187 59.8054 2
45.4689 58.8021 3.98257
39.6328 67.7739 0.0120384
41.546 65.6533 0.0132835
43.1462 63.7364 0.0145719
44.4828 61.8457 0.0156919
45.7662 60.6403 0.0167557
41.5994 63.8304 2
37.5633 67.7569 2
39.6476 65.6222 2
44.6232 60.3032 2
42.9498 62.0949 2
41.7532 62.5056 3.98536
42.4814 59.9956 3.98427
39.8931 63.5658 3.9854
37.6422 65.521 3.98617
35.4634 67.6658 3.98789
33.5754 65.3541 3.98652
31.9597 63.3143 3.98575
29.8833 64.7314 3.98669
31.6973 65.1409 2
31.3766 67.2037 3.98793
33.3921 67.4944 2
33.1561 69.7572 3.99032
35.3333 69.9644 2
35.195 72.3745 3.994
37.526 70.0538 0.00964748
37.5095 72.4604 2
37.5 75 4
39.8179 72.4056 0.00590255
39.9526 74.9197 2
42.3947 74.6792 0
39.6235 4.71262 3.9909
41.736 4.96502 2
42.0619 2.71663 3.99435
43.8514 5.35636 0.00947441
44.3257 3.10874 2
44.8158 0.721173 4
46.5702 3.64566 0.00592036
47.2057 1.27779 2
49.554 1.99015 0
58.0283 40.6621 0.025951
59.7796 37.5682 0.0277508
55.1533 39.7277 0.0236207
49.6906 41.3386 2
56.8589 37.8981 2
53.195 39.3124 2
54.0426 36.6265 3.97663
47.6218 40.4401 3.97116
50.6593 38.5088 3.97933
37.5153 6.66809 3.98873
39.4417 6.7965 2
39.2104 8.68459 3.9871
35.9408 8.48443 3.98735
57.4238 34.7583 0.0249739
55.7535 31.5105 0.0290349
54.5347 28.389 0.0222455
53.9749 20.1205 0.0172496
53.5931 22.6905 0.0270355
53.7923 25.4818 0.0254733
51.6556 19.3098 0.0138778
50.008 17.6862 0.0207351
48.9322 15.3882 0.0169772
45.3594 7.99029 0.012213
47.7452 13.0919 0.0158784
46.666 10.6463 0.0142331
41.3983 7.07356 0.0114582
42.8649 9.40888 0.0131518
54.9306 33.9688 2
41.0129 9.04151 2
44.723 9.98888 2
42.4674 10.894 2
53.5256 30.4707 2
52.615 27.1864 2
52.3996 21.047 2
52.1615 24.0751 2
46.0043 12.7198 2
47.6816 14.5724 2
49.8205 19.5843 2
48.1149 16.9741 2
52.4765 32.8652 3.97608
51.3709 29.1423 3.97342
50.814 25.7092 3.97217
49.9474 22.1645 3.97882
40.5682 11.5976 3.98484
43.8572 11.9095 3.98514
45.803 15.4081 3.98372
47.5061 19.2069 3.97995
46.4486 37.5058 3.91544
48.8496 60.2112 0.0172657
49.7926 57.6385 0.0197249
52.5859 42.6595 0.0247293
51.8502 47.2851 0.0201738
51.2354 50.9586 0.0283119
50.6038 54.4384 0.0239786
48.242 43.802 0.0123501
47.988 58.7539 2
50.1604 45.3032 2
48.6034 55.9309 2
49.1431 52.6154 2
49.6987 49.0602 2
46.1162 39.8958 2
46.5036 42.7187 2
46.5487 45.841 2
43.9581 41.2012 2
42.1049 42.0106 2
46.8409 57.357 3.98266
44.714 39.4763 3.91986
42.4822 40.8804 3.9198
48.1314 47.2573 3.97777
47.1767 54.2666 3.98152
47.6085 50.7676 3.97642
44.8458 47.4002 3.99492
45.1728 41.9866 3.91487
44.9707 44.6161 3.95893
42.7543 42.7131 3.92965
40.9548 42.3432 3.93117
46.6191 59.8053 0.0173266
45.4685 58.8021 2
43.8771 57.727 3.98322
37.5633 67.7565 0.0120845
39.6476 65.6218 0.0133634
41.5996 63.8302 0.0146172
42.95 62.0946 0.0151226
44.6235 60.303 0.016485
35.4634 67.6663 2
41.7529 62.5058 2
39.893 63.566 2
37.6423 65.5214 2
42.4811 59.9959 2
40.623 61.6646 3.98459
40.4455 58.2294 3.98362
37.8366 63.2274 3.98571
35.573 65.4433 3.98625
33.5755 65.3544 2
31.9598 63.3146 2
33.6292 63.3543 3.9856
30.3788 62.8728 3.98572
32.1234 62.0216 3.98494
26.8681 61.516 3.98458
28.0621 64.1592 3.98648
29.8834 64.7317 2
29.406 66.7671 3.98795
31.6972 65.1406 0.0133093
31.3766 67.2041 2
31.0133 69.4221 3.9903
33.392 67.494 0.0121538
33.156 69.7576 2
32.892 72.1488 3.99401
35.3333 69.9639 0.00968179
35.1949 72.3748 2
35.0474 74.9194 4
37.5096 72.4601 0.00597501
37.5 75 2
39.9526 74.9197 0
35.6198 6.71917 3.98875
37.5226 4.6121 3.99102
39.6235 4.71217 2
39.7884 2.47309 3.99446
41.736 4.96547 0.00923639
42.0621 2.71635 2
42.3946 0.32156 4
44.3255 3.109 0.0058106
44.8159 0.72056 2
47.2057 1.27793 0
49.6886 41.3369 0.0198141
56.8584 37.898 0.0248364
53.1944 39.3127 0.0245927
47.6245 40.4412 2
50.6585 38.5096 2
54.0431 36.6266 2
51.4451 35.5803 3.96626
48.2954 37.7721 3.97835
46.1096 35.1258 3.91492
43.9491 33.808 3.92503
42.0947 33.0003 3.90592
37.4571 8.52626 3.98727
37.5153 6.66758 2
39.4416 6.79704 0.0112698
39.2104 8.68395 2
38.9753 10.1165 3.98674
35.8973 9.76352 3.98626
34.1492 8.8139 3.98715
35.9407 8.48379 2
54.9292 33.9686 0.0238303
53.5257 30.4722 0.0262445
52.6144 27.1844 0.0242689
52.3987 21.0482 0.0196018
52.1604 24.0747 0.026491
49.8201 19.5856 0.0224959
48.1149 16.9751 0.0185399
47.6818 14.5731 0.0163431
44.7231 9.98925 0.0138062
46.0046 12.7201 0.0154706
41.0129 9.0421 0.0130953
42.4675 10.8945 0.0148193
52.4782 32.8647 2
40.568 11.597 2
43.8571 11.9091 2
51.3719 29.1445 2
50.8153 25.7108 2
49.9484 22.1629 2
45.8027 15.4076 2
47.5064 19.2058 2
50.0672 31.401 3.96688
49.3188 27.4587 3.97185
49.4226 24.3763 3.98185
47.1906 21.9071 3.97952
38.3006 12.722 3.98439
42.1006 14.2923 3.98323
44.802 18.4406 3.98317
45.0003 37.5088 3.92073
46.464 37.5089 2
47.9884 58.7536 0.0181992
48.6038 55.9305 0.0183291
50.1591 45.3006 0.0242746
49.6992 49.0604 0.0270323
49.1434 52.612 0.0236932
46.1065 39.8911 0.0882863
46.4952 42.7094 0.0417743
46.5524 45.8464 0.0111248
43.9474 41.1958 0.0725278
42.0998 42.0089 0.0934492
46.8406 57.3572 2
44.7266 39.4796 2
42.483 40.8799 2
48.1302 47.2565 2
47.1764 54.2663 2
47.6084 50.7692 2
44.8458 47.3966 2
45.1798 41.9934 2
44.9805 44.6277 2
42.7708 42.7197 2
40.9602 42.343 2
45.4008 55.9442 3.98237
42.8234 39.2672 3.93334
40.9279 40.8 3.96539
46.1257 48.9331 3.98202
45.5584 52.564 3.98319
43.4883 48.48 3.99023
43.3794 46.1871 3.96544
43.7325 43.8022 3.91057
41.2346 43.8762 3.93166
39.3204 42.6725 3.93679
45.4689 58.8021 0.017431
43.8768 57.727 2
42.108 56.3534 3.98383
35.4634 67.6658 0.0121126
37.6422 65.521 0.0138258
39.8931 63.5658 0.0146027
41.7532 62.5056 0.0146434
42.4814 59.9956 0.0157314
35.573 65.4436 2
40.6227 61.6648 2
37.8365 63.2276 2
40.4452 58.2296 2
38.9266 56.5241 3.98587
38.2505 60.35 3.98495
35.6071 63.221 3.98537
33.5754 65.3541 0.0134834
31.9597 63.3143 0.0142455
33.6293 63.3546 2
30.3789 62.873 2
32.1234 62.0217 2
28.6811 62.218 3.98544
33.3461 61.5347 3.9851
31.0662 61.2388 3.98474
27.5662 59.6144 3.98301
23.7878 59.1017 3.98321
25.033 60.8887 3.98367
26.8683 61.5162 2
26.2286 63.4913 3.98609
28.0623 64.1595 2
27.4626 66.1908 3.98793
29.8833 64.7314 0.013313
29.4061 66.7676 2
28.9055 68.9476 3.99027
31.3766 67.2037 0.0120686
31.0132 69.4225 2
30.6144 71.7799 3.99404
33.1561 69.7572 0.0096807
32.8919 72.149 2
32.6054 74.6784 4
35.195 72.3745 0.00599817
35.0474 74.9197 2
37.5 75 0
33.7223 6.97384 3.9885
35.4339 4.68252 3.99095
35.6197 6.71858 2
37.514 2.38572 3.99452
37.5226 4.61166 2
39.6235 4.71262 0.00909884
39.7885 2.4728 2
39.9526 0.0806499 4
42.0619 2.71663 0.00565477
42.3947 0.320817 2
44.8158 0.721173 0
44.7242 35.5273 3.91954
42.4831 34.1215 3.91894
47.6218 40.4401 0.0288353
50.6593 38.5088 0.0206708
54.0426 36.6265 0.0233734
48.2959 37.7702 2
51.4459 35.5795 2
46.1168 35.1226 2
43.9643 33.7981 2
42.0979 33.0008 2
48.4581 34.2735 3.99963
45.1695 33.0208 3.90633
42.7526 32.2962 3.92922
40.9469 32.6632 3.93074
37.3093 10.6194 3.98579
37.4571 8.52561 2
37.5153 6.66809 0.0112667
39.2104 8.68459 0.012896
38.9753 10.1157 2
34.7524 10.369 3.98572
35.8972 9.76281 2
32.3759 9.36053 3.9864
34.1491 8.81315 2
35.9408 8.48443 0.0126454
52.4765 32.8652 0.0239248
51.3709 29.1423 0.0265848
50.814 25.7092 0.0278255
49.9474 22.1645 0.0211773
47.5061 19.2069 0.0200511
45.803 15.4081 0.0162805
43.8572 11.9095 0.0148649
40.5682 11.5976 0.0151572
50.0669 31.4009 2
38.3003 12.7212 2
42.1001 14.2917 2
49.32 27.46 2
49.4238 24.3749 2
47.1915 21.9076 2
44.802 18.4399 2
47.8504 29.5838 3.97215
47.1251 25.0938 3.98536
44.2913 21.2895 3.98198
36.5803 12.9186 3.98397
38.68 14.7911 3.98286
41.7501 17.8202 3.9808
42.9636 37.4911 3.9294
45.0184 37.5084 2
46.4486 37.5058 0.084556
46.8409 57.357 0.0173402
47.1767 54.2666 0.0184813
48.1314 47.2573 0.0222326
47.6085 50.7676 0.0235845
44.714 39.4763 0.0801358
45.1728 41.9866 0.0851288
44.9707 44.6161 0.0410709
44.8458 47.4002 0.00508499
42.7543 42.7131 0.0703464
42.4822 40.8804 0.0801999
40.9548 42.3432 0.0688329
45.4007 55.9442 2
42.826 39.2659 2
40.9272 40.7978 2
46.1256 48.9318 2
45.5583 52.5629 2
43.4872 48.4876 2
43.4062 46.198 2
43.7448 43.8094 2
41.2461 43.8765 2
39.3235 42.6732 2
43.7404 54.4553 3.98764
41.0118 39.1709 3.97126
39.252 40.8806 3.97201
43.7313 50.5372 3.98891
41.9905 47.7199 3.99109
41.9046 45.1991 3.90475
39.4643 44.6283 3.93656
37.4977 42.8076 3.93502
43.8771 57.727 0.0167774
42.1075 56.3535 2
40.4213 54.9606 3.98358
35.573 65.4433 0.0137526
37.8366 63.2274 0.0142937
40.623 61.6646 0.0154098
40.4455 58.2294 0.0163772
35.607 63.2211 2
38.2502 60.3497 2
38.9261 56.5251 2
38.0003 55.2822 3.98545
36.9355 57.6552 3.98439
35.3637 60.934 3.98508
33.6292 63.3543 0.0143994
30.3788 62.8728 0.0142818
32.1234 62.0216 0.0150633
33.3461 61.5348 2
28.6813 62.2182 2
31.0663 61.2389 2
29.4019 60.3085 3.98419
32.3556 59.7675 3.98406
28.0176 58.3939 3.98331
27.5664 59.6145 2
25.3748 58.614 3.98194
22.7499 58.2605 3.9801
23.398 60.3681 3.98264
23.788 59.102 2
25.0332 60.889 2
24.4309 62.7838 3.98544
26.8681 61.516 0.0154194
26.2288 63.4916 2
25.5466 65.5008 3.9878
28.0621 64.1592 0.0135155
27.4627 66.1912 2
26.8352 68.3358 3.99021
29.406 66.7671 0.012045
28.9055 68.9479 2
28.3696 71.265 3.99404
31.0133 69.4221 0.00970445
30.6143 71.7801 2
30.1842 74.2788 4
32.892 72.1488 0.0059912
32.6053 74.6792 2
35.0474 74.9194 0
31.7866 7.41363 3.98823
33.3458 4.92171 3.99079
33.7222 6.97316 2
35.2442 2.46188 3.99448
35.4339 4.68201 2
35.6198 6.71917 0.0112515
37.5 0 4
37.514 2.38543 2
37.5226 4.6121 0.00898415
39.7884 2.47309 0.0055437
39.9526 0.0802889 2
42.3946 0.32156 0
42.8328 35.7233 3.931
44.7339 35.526 2
40.9293 34.2026 3.96448
42.4843 34.1222 2
48.2954 37.7721 0.0216499
51.4451 35.5803 0.0337439
46.1096 35.1258 0.0850772
43.9491 33.808 0.0749701
42.0947 33.0003 0.0940798
48.4623 34.2707 2
45.1791 33.0149 2
42.7667 32.2913 2
40.949 32.6617 2
46.3951 31.5402 3.9759
43.7247 31.2118 3.91378
41.2356 31.1247 3.92611
39.3101 32.3333 3.93695
35.6906 11.7637 3.98425
37.3093 10.6186 2
37.4571 8.52626 0.0127343
38.9753 10.1165 0.0132592
33.0962 11.2056 3.9845
34.7523 10.3682 2
35.8973 9.76352 0.0137443
30.4805 10.0087 3.98579
32.3758 9.35972 2
34.1492 8.8139 0.0128465
50.0672 31.401 0.0331183
49.3188 27.4587 0.0281538
49.4226 24.3763 0.0181501
47.1906 21.9071 0.0204825
44.802 18.4406 0.0168328
42.1006 14.2923 0.0167667
38.3006 12.722 0.0156084
36.5801 12.9179 2
47.8485 29.5801 2
38.6795 14.7903 2
41.7498 17.8194 2
47.1267 25.0938 2
44.2919 21.2881 2
45.6047 27.7541 3.97974
43.8163 24.0185 3.98549
41.3425 20.6974 3.98051
35.7701 14.7433 3.98317
38.6805 17.5772 3.98112
41.0609 37.4835 3.96938
42.9673 37.492 2
45.0003 37.5088 0.0792723
45.4008 55.9442 0.0176328
45.5584 52.564 0.016815
46.1257 48.9331 0.0179847
42.8234 39.2672 0.0666632
43.7325 43.8022 0.0894269
43.3794 46.1871 0.0345609
43.4883 48.48 0.00976762
41.2346 43.8762 0.0683383
40.9279 40.8 0.0346138
39.3204 42.6725 0.0632054
43.7404 54.4558 2
41.0124 39.1698 2
39.2508 40.8812 2
43.7301 50.5408 2
41.9929 47.7283 2
41.9222 45.2049 2
37.4992 42.8088 2
39.4783 44.6233 2
41.8881 53.0283 3.99184
39.2407 39.1689 3.95796
37.4981 40.9236 3.95875
35.6808 42.6762 3.93685
40.9682 49.7684 4.00032
39.8107 46.0834 3.90299
37.5016 44.8831 3.9387
42.108 56.3534 0.0161714
40.4205 54.9606 2
38.7296 53.8941 3.98629
35.6071 63.221 0.0146333
38.2505 60.35 0.01505
38.9266 56.5241 0.0141263
35.3635 60.9339 2
36.9349 57.6544 2
37.9995 55.2814 2
36.3191 55.4183 3.98736
34.4873 58.5466 3.98462
33.3461 61.5347 0.0148958
28.6811 62.218 0.0145555
31.0662 61.2388 0.0152616
32.3556 59.7673 2
29.4021 60.3085 2
30.2934 57.8402 3.98424
28.0178 58.3939 2
26.9352 56.8438 3.9812
27.5662 59.6144 0.0169871
25.375 58.6142 2
23.8285 56.8263 3.9775
21.3246 57.4198 3.9801
21.9893 59.6405 3.98254
22.7501 58.2609 2
22.7342 62.0348 3.9845
23.3982 60.3685 2
23.7878 59.1017 0.0167863
25.033 60.8887 0.0163293
24.4311 62.7842 2
23.6804 64.7192 3.98737
26.2286 63.4913 0.0139119
25.5468 65.5011 2
24.8075 67.597 3.99014
27.4626 66.1908 0.01207
26.8352 68.3362 2
26.1648 70.6058 3.99401
28.9055 68.9476 0.00972942
28.3693 71.2652 2
27.7943 73.7221 4
30.6144 71.7799 0.00596366
30.1841 74.2794 2
32.6054 74.6784 0
29.8092 7.98692 3.98771
31.2509 5.32886 3.99049
31.7866 7.41283 2
32.9799 2.7 3.99437
33.3458 4.92112 2
33.7223 6.97384 0.0115012
35.0474 0.080333 4
35.2442 2.46157 2
35.4339 4.68252 0.0090465
37.5 0 2
37.514 2.38572 0.00547758
39.9526 0.0806499 0
41.0208 35.8076 3.96975
42.8342 35.725 2
44.7242 35.5273 0.0804574
28.5414 10.6841 3.98561
39.2503 34.1242 3.97128
40.9281 34.2047 2
42.4831 34.1215 0.0810603
48.4581 34.2735 0.000372578
45.1695 33.0208 0.093675
42.7526 32.2962 0.0707808
40.9469 32.6632 0.0692588
46.4075 31.5369 2
43.73 31.2055 2
41.2481 31.12 2
39.3126 32.3332 2
44.4252 29.7156 3.9697
41.9033 29.8081 3.9056
39.4617 30.3786 3.93663
37.4855 32.1948 3.93671
34.0904 12.9217 3.9836
35.6905 11.7629 2
37.3093 10.6194 0.0142085
31.1842 11.9739 3.98469
33.0962 11.2048 2
34.7524 10.369 0.014277
30.4804 10.0079 2
32.3759 9.36053 0.0135992
47.8504 29.5838 0.0278544
47.1251 25.0938 0.0146449
36.5803 12.9186 0.0160318
44.2913 21.2895 0.0180159
41.7501 17.8202 0.0192027
38.68 14.7911 0.0171388
35.7696 14.7427 2
45.6031 27.7466 2
38.6801 17.5761 2
41.3424 20.6956 2
43.8179 24.0212 2
33.6053 15.8601 3.98303
43.0883 26.5041 3.99427
40.9235 23.271 3.98179
38.4216 20.3052 3.9828
35.8463 17.4906 3.98256
39.2492 37.4835 3.94656
41.0608 37.4833 2
42.9636 37.4911 0.0706002
43.7404 54.4553 0.0123567
43.7313 50.5372 0.01109
41.0118 39.1709 0.0287382
41.9046 45.1991 0.0952541
41.9905 47.7199 0.00891421
39.4643 44.6283 0.0634415
39.252 40.8806 0.0279899
37.4977 42.8076 0.0649845
41.8875 53.0298 2
39.241 39.1692 2
37.4977 40.9244 2
40.9668 49.7686 2
35.678 42.6775 2
39.8312 46.0992 2
37.4996 44.8797 2
39.8299 51.9527 3.99824
37.4964 39.1768 3.92657
35.7464 40.8889 3.97209
34.0441 42.3426 3.9317
35.5233 44.6297 3.93445
38.7584 48.7623 4.01467
37.5062 46.4003 3.90215
40.4213 54.9606 0.0164151
38.7288 53.8926 2
36.7164 53.2534 3.9961
35.3637 60.934 0.0149214
36.9355 57.6552 0.01561
38.0003 55.2822 0.014553
34.4871 58.5462 2
36.3186 55.4161 2
33.2217 55.5334 3.98584
32.3556 59.7675 0.0159441
29.4019 60.3085 0.0158059
30.2935 57.8399 2
28.6741 55.3335 3.98148
28.0176 58.3939 0.0166872
26.9355 56.8439 2
25.2934 55.1643 3.97829
21.7917 55.368 3.9771
25.3748 58.614 0.0180634
23.8287 56.8266 2
20.2078 57.0499 3.9821
20.6389 58.7985 3.9818
21.3247 57.4202 2
21.1637 61.1849 3.98406
21.9894 59.6409 2
22.7499 58.2605 0.0198963
21.8936 63.847 3.98661
22.7344 62.0353 2
23.398 60.3681 0.0173581
24.4309 62.7838 0.0145573
23.6806 64.7196 2
22.8358 66.7408 3.99004
25.5466 65.5008 0.0122045
24.8075 67.5973 2
24.0091 69.807 3.99393
26.8352 68.3358 0.00978725
26.1646 70.606 2
25.446 73.0099 4
28.3696 71.265 0.00596494
27.7943 73.7222 2
30.1842 74.2788 0
27.8191 8.6466 3.98738
29.1528 5.87464 3.99009
29.8091 7.9862 2
30.7252 3.09714 3.99417
31.2508 5.32822 2
31.7866 7.41363 0.0117695
32.6053 0.320823 4
32.9799 2.69967 2
33.3458 4.92171 0.00921478
35.0474 0.0802903 2
35.2442 2.46188 0.00552247
37.5 0 0
39.2475 35.8109 3.95733
41.021 35.8085 2
42.8328 35.7233 0.0689974
28.5413 10.6835 2
26.6203 11.3794 3.98529
29.2231 12.6306 3.98469
37.4937 34.0793 3.95679
39.2489 34.124 2
40.9293 34.2026 0.0355202
46.3951 31.5402 0.0241017
43.7247 31.2118 0.0862228
41.2356 31.1247 0.0738857
39.3101 32.3333 0.0630534
44.4377 29.7087 2
41.9214 29.7982 2
39.4735 30.382 2
37.4859 32.192 2
42.3474 28.3505 3.95679
39.8201 28.9222 3.90971
37.4891 30.1149 3.93915
35.6673 32.3223 3.93717
31.9118 14.4668 3.98365
34.0903 12.9208 2
35.6906 11.7637 0.0157539
31.1842 11.9732 2
33.0962 11.2056 0.0155049
30.4805 10.0087 0.0142094
45.6047 27.7541 0.0202584
43.8163 24.0185 0.0145086
35.7701 14.7433 0.0168347
41.3425 20.6974 0.0194931
38.6805 17.5772 0.0188814
33.605 15.8599 2
35.8459 17.4902 2
43.088 26.5052 2
38.4213 20.3042 2
40.9243 23.2672 2
33.5473 17.3679 3.98419
40.4652 25.6174 4.01133
38.0806 22.8323 3.99031
35.5821 20.0571 3.98368
37.498 37.4921 3.91852
39.2492 37.4838 2
41.0609 37.4835 0.0306236
41.8881 53.0283 0.0081562
40.9682 49.7684 -0.000319172
39.2407 39.1689 0.0420447
39.8107 46.0834 0.0970075
37.5016 44.8831 0.0613006
37.4981 40.9236 0.0412537
35.6808 42.6762 0.0631489
39.8297 51.9525 2
37.4966 39.1772 2
35.7465 40.8908 2
38.7537 48.7884 2
34.0402 42.3441 2
35.5151 44.6299 2
37.5019 46.4192 2
37.6701 51.054 4.00619
35.7568 39.1824 3.95781
34.0751 40.8075 3.96351
32.896 42.0055 3.90706
33.7513 43.8723 3.93026
35.1865 46.0859 3.90865
36.8878 48.4111 3.99821
38.7296 53.8941 0.0137108
36.7161 53.25 2
34.3508 52.5125 3.98923
34.4873 58.5466 0.0153785
36.3191 55.4183 0.0126443
33.2218 55.5322 2
30.4999 53.4358 3.98468
30.2934 57.8402 0.0157636
28.6744 55.333 2
26.8577 53.4674 3.9779
26.9352 56.8438 0.0187983
25.2936 55.1644 2
23.5475 53.5067 3.97504
20.4424 53.2494 3.97416
19.9172 55.8538 3.98113
21.7918 55.3684 2
23.8285 56.8263 0.0224963
19.4298 57.9107 3.98153
20.2078 57.0504 2
19.7022 60.2189 3.98306
20.639 58.799 2
21.3246 57.4198 0.0199024
20.2056 62.8683 3.98577
21.1638 61.1853 2
21.9893 59.6405 0.0174629
20.9372 65.7698 3.98961
21.8938 63.8475 2
22.7342 62.0348 0.0155012
23.6804 64.7192 0.0126301
22.8358 66.7411 2
21.9116 68.8742 3.99385
24.8075 67.597 0.00986356
24.0089 69.8071 2
23.1494 72.1454 4
26.1648 70.6058 0.00599242
25.446 73.0099 2
27.7943 73.7221 0
25.8584 9.37464 3.98694
27.0676 6.53875 3.9897
27.819 8.64595 2
28.4874 3.64304 3.99393
29.1527 5.87405 2
29.8092 7.98692 0.012293
30.1841 0.720592 4
30.725 3.09682 2
31.2509 5.32886 0.009514
32.6053 0.320817 2
32.9799 2.7 0.00563267
35.0474 0.080333 0
37.4989 35.8133 3.92482
39.2472 35.8111 2
41.0208 35.8076 0.030254
24.7751 12.0624 3.98528
23.7489 14.3464 3.98428
28.5414 10.6841 0.0143875
26.6203 11.379 2
29.2231 12.63 2
27.2892 13.3637 3.98457
29.7777 14.1892 3.98376
35.7425 34.1092 3.9713
37.4929 34.0777 2
39.2503 34.1242 0.0287208
37.4855 32.1948 0.0632886
44.4252 29.7156 0.0303045
41.9033 29.8081 0.0944009
39.4617 30.3786 0.0633741
42.3579 28.3379 2
39.8381 28.9097 2
37.4886 30.1207 2
35.6651 32.3218 2
40.0296 27.5241 3.97472
37.4958 28.5918 3.90513
35.508 30.3677 3.93538
34.0371 32.6478 3.92955
30.9229 16.8228 3.98335
31.9118 14.466 2
34.0904 12.9217 0.0164028
31.1842 11.9739 0.0153098
43.0883 26.5041 0.00573098
40.9235 23.271 0.0182085
33.6053 15.8601 0.016966
35.8463 17.4906 0.0174402
38.4216 20.3052 0.0172015
33.5469 17.368 2
35.5817 20.0563 2
40.4634 25.617 2
38.0805 22.8322 2
32.8599 19.7727 3.98417
37.7928 25.1296 4.02843
35.2023 22.6146 3.98164
35.7499 37.4959 3.94624
37.4982 37.4921 2
39.2492 37.4835 0.0534443
39.8299 51.9527 0.00175599
38.7584 48.7623 -0.0146715
37.4964 39.1768 0.0734282
37.5062 46.4003 0.0978548
35.5233 44.6297 0.0655538
35.7464 40.8889 0.0279112
34.0441 42.3426 0.0682985
37.6697 51.0605 2
35.7571 39.1836 2
34.0752 40.8049 2
36.8846 48.4204 2
32.8913 42.0053 2
33.7418 43.8787 2
35.1628 46.0964 2
35.428 50.192 4.00655
33.9911 39.1846 3.96775
32.5111 40.88 3.91913
32.2358 42.7054 3.92865
33.1067 45.1839 3.91361
34.2821 47.4745 3.97395
36.7164 53.2534 0.00390365
34.3508 52.5115 2
31.9704 51.2416 3.98883
33.2217 55.5334 0.0141632
30.5004 53.4363 2
28.3953 51.6531 3.97993
28.6741 55.3335 0.0185242
26.8582 53.4684 2
25.0442 51.7913 3.97344
25.2934 55.1643 0.0217069
23.5477 53.5072 2
21.9312 51.8341 3.97298
19.1717 51.6582 3.97346
18.9017 54.3304 3.97728
20.4425 53.2499 2
18.4355 56.743 3.98227
19.9172 55.8542 2
21.7917 55.368 0.0229043
18.3629 59.1264 3.98171
19.4299 57.9111 2
20.2078 57.0499 0.0178981
18.6159 61.7762 3.98474
19.7023 60.2194 2
20.6389 58.7985 0.0181986
19.126 64.6807 3.98889
20.2058 62.8689 2
21.1637 61.1849 0.0159445
19.8857 67.8108 3.99359
20.9373 65.7702 2
21.8936 63.847 0.0133942
22.8358 66.7408 0.00996299
21.9114 68.8742 2
20.9142 71.1327 4
24.0091 69.807 0.00606777
23.1494 72.1455 2
25.446 73.0099 0
23.0943 12.7771 3.98493
23.971 10.1612 3.9867
25.0215 7.30878 3.9895
25.8584 9.37405 2
26.2791 4.32725 3.99367
27.0675 6.53819 2
27.8191 8.6466 0.0126164
27.7943 1.27781 4
28.4871 3.64278 2
29.1528 5.87464 0.00991255
30.1841 0.720551 2
30.7252 3.09714 0.00582971
32.6053 0.320823 0
35.7529 35.8112 3.95706
37.4987 35.8127 2
39.2475 35.8109 0.0426732
24.7752 12.0619 2
23.7491 14.3462 2
22.4772 15.0226 3.98384
25.3552 13.8957 3.9842
24.0215 15.6079 3.98355
26.6203 11.3794 0.0147104
29.2231 12.6306 0.015308
27.2893 13.3633 2
29.7777 14.1885 2
28.3533 15.9631 3.98399
34.078 34.1915 3.96404
35.7428 34.1095 2
37.4937 34.0793 0.0432075
35.6673 32.3223 0.062829
37.4891 30.1149 0.0608535
42.3474 28.3505 0.0432075
39.8201 28.9222 0.0902929
40.035 27.5148 2
37.4957 28.576 2
35.4965 30.3701 2
34.0373 32.644 2
37.6227 27.2104 3.97901
35.1511 28.9062 3.90872
33.7329 31.1168 3.9287
32.8939 32.9872 3.90744
30.2034 19.3253 3.98466
30.9228 16.8222 2
31.9118 14.4668 0.0163547
40.4652 25.6174 -0.0113339
38.0806 22.8323 0.00968525
33.5473 17.3679 0.01581
35.5821 20.0571 0.0163151
32.8592 19.7732 2
35.2019 22.6122 2
37.7937 25.1324 2
32.3052 22.3852 3.98362
34.9494 25.1429 4.00381
33.9439 37.4969 3.96746
35.7503 37.4967 2
37.498 37.4921 0.0814762
37.6701 51.054 -0.00618594
36.8878 48.4111 0.00178815
35.7568 39.1824 0.042187
35.1865 46.0859 0.0913536
33.7513 43.8723 0.0697395
34.0751 40.8075 0.0364895
32.896 42.0055 0.092938
35.4268 50.196 2
33.9916 39.1829 2
32.509 40.8782 2
34.2764 47.5027 2
32.222 42.7068 2
33.0896 45.1996 2
33.1912 49.1821 4.00577
32.1675 39.2725 3.93271
31.0419 41.1863 3.92698
31.2669 43.7873 3.91154
32.2329 46.4011 3.97037
34.3508 52.5125 0.0107749
31.9706 51.2426 2
29.8041 49.7595 3.9829
30.4999 53.4358 0.0153236
28.3959 51.6508 2
26.4577 50.0327 3.97366
26.8577 53.4674 0.0220976
25.0446 51.7909 2
23.2972 50.2278 3.9723
23.5475 53.5067 0.024959
21.9315 51.8343 2
20.4291 50.3398 3.97314
17.9596 50.349 3.97536
17.8104 52.8123 3.97561
19.1721 51.6584 2
17.4217 55.3591 3.97969
18.9016 54.3309 2
20.4424 53.2494 0.0258387
17.1268 57.8889 3.98265
18.4355 56.7435 2
19.9172 55.8538 0.0188738
17.1326 60.5599 3.98345
18.363 59.1269 2
19.4298 57.9107 0.0184703
17.4061 63.4736 3.98778
18.6161 61.7767 2
19.7022 60.2189 0.0169412
17.9418 66.6193 3.99324
19.126 64.6811 2
20.2056 62.8683 0.014231
18.75 69.9759 4
19.8854 67.8109 2
20.9372 65.7698 0.010387
21.9116 68.8742 0.0061506
20.9142 71.1327 2
23.1494 72.1454 0
21.5848 13.5969 3.9846
22.189 11.0203 3.9862
23.0945 12.7769 2
23.0395 8.17413 3.98933
23.971 10.1607 2
24.1167 5.1419 3.99351
25.0213 7.30832 2
25.8584 9.37464 0.0130646
25.446 1.99014 4
26.2788 4.32704 2
27.0676 6.53875 0.0102959
27.7943 1.27778 2
28.4874 3.64304 0.0060734
30.1841 0.720592 0
33.9842 35.8107 3.96848
35.7527 35.8119 2
37.4989 35.8133 0.0751849
21.3019 15.8182 3.98324
24.7751 12.0624 0.0147192
23.7489 14.3464 0.0157229
25.3554 13.8953 2
22.4775 15.0226 2
24.0219 15.6078 2
23.2604 16.2392 3.98322
25.3768 16.0757 3.98406
27.2892 13.3637 0.0154254
29.7777 14.1892 0.0162438
28.3536 15.9628 2
27.435 18.7842 3.98446
32.5235 34.1126 3.92045
34.0793 34.1912 2
35.7425 34.1092 0.0287045
34.0371 32.6478 0.0704538
35.508 30.3677 0.0646229
37.4958 28.5918 0.0948727
40.0296 27.5241 0.0252798
37.6183 27.1794 2
32.8938 32.9879 2
35.1303 28.8912 2
33.7194 31.1057 2
35.0603 27.328 3.98131
33.0714 29.8031 3.91046
32.2219 32.2762 3.92626
29.5662 21.9196 3.99085
30.2033 19.3253 2
30.9229 16.8228 0.0166528
37.7928 25.1296 -0.0284273
35.2023 22.6146 0.0183609
32.8599 19.7727 0.0158262
32.3047 22.3863 2
34.9525 25.1482 2
31.6493 25.6012 3.99309
32.0365 37.4976 3.93056
33.945 37.496 2
35.7499 37.4959 0.0537592
35.428 50.192 -0.00655054
34.2821 47.4745 0.0260547
33.9911 39.1846 0.0322485
33.1067 45.1839 0.0863877
32.2358 42.7054 0.0713537
32.5111 40.88 0.0808729
33.191 49.1651 2
32.1657 39.2702 2
31.0266 41.1916 2
32.2175 46.4169 2
31.258 43.7945 2
31.0746 47.9941 4.00143
30.2698 39.463 3.91987
29.8223 41.9784 3.90872
30.362 44.9825 3.9708
31.9704 51.2416 0.0111722
29.8046 49.7547 2
27.802 48.2304 3.9782
28.3953 51.6531 0.0200743
26.4583 50.0311 2
24.5918 48.5047 3.97436
25.0442 51.7913 0.0265556
23.2977 50.2277 2
21.6055 48.8167 3.97472
21.9312 51.8341 0.0270187
20.4298 50.3397 2
18.9988 49.1121 3.97686
16.8683 49.3462 3.97816
16.7506 51.4241 3.976
17.9601 50.3493 2
16.3718 53.8875 3.97789
17.8106 52.8126 2
19.1717 51.6582 0.026539
15.9661 56.4905 3.98152
17.4216 55.3596 2
18.9017 54.3304 0.02272
15.7448 59.2209 3.98334
17.1268 57.8894 2
18.4355 56.743 0.0177321
15.7862 62.1442 3.98635
17.1327 60.5605 2
18.3629 59.1264 0.0182867
16.0883 65.3019 3.99288
17.4061 63.4741 2
18.6159 61.7762 0.0152587
16.6661 68.6801 4
17.9415 66.6193 2
19.126 64.6807 0.0111054
18.75 69.9759 2
19.8857 67.8108 0.00640902
20.9142 71.1327 0
20.2165 14.5855 3.98393
21.5851 13.5968 2
20.5281 11.9898 3.98572
21.1426 9.14371 3.98918
22.1892 11.02 2
23.0943 12.7771 0.0150694
22.0158 6.08087 3.99335
23.0395 8.17376 2
23.971 10.1612 0.0132951
23.1494 2.85457 4
24.1164 5.14178 2
25.0215 7.30878 0.0104995
25.446 1.99012 2
26.2791 4.32725 0.0063349
27.7943 1.27781 0
32.1713 35.7198 3.93237
33.9849 35.8104 2
35.7529 35.8112 0.0429442
21.3021 15.8179 2
20.2985 16.952 3.98363
22.0933 16.6235 3.98247
25.3552 13.8957 0.0158031
22.4772 15.0226 0.0161555
24.0215 15.6079 0.0164478
25.3771 16.0755 2
23.2607 16.2392 2
24.1992 18.4377 3.98202
27.0029 21.4422 3.98411
28.3533 15.9631 0.0160106
27.435 18.7842 2
31.0474 33.7989 3.92388
32.5219 34.1154 2
34.078 34.1915 0.035955
32.8939 32.9872 0.0925598
33.7329 31.1168 0.0712974
35.1511 28.9062 0.0912841
37.6227 27.2104 0.0209942
35.0505 27.3115 2
32.219 32.281 2
33.0563 29.7884 2
32.4871 28.052 3.98873
31.2381 31.2017 3.91193
28.765 24.3847 3.98702
29.5655 21.9205 2
30.2034 19.3253 0.0153431
34.9494 25.1429 -0.00381119
32.3052 22.3852 0.0163793
31.6508 25.5896 2
29.5835 27.29 3.97823
29.9891 37.4864 3.92008
32.0355 37.4972 2
33.9439 37.4969 0.0325352
33.1912 49.1821 -0.00577053
32.2329 46.4011 0.0296283
32.1675 39.2725 0.0672855
31.2669 43.7873 0.0884566
31.0419 41.1863 0.0730198
31.0763 47.9922 2
30.2581 39.47 2
29.8126 41.9856 2
30.348 44.9935 2
29.0933 46.5392 3.99063
28.882 39.8707 3.90964
28.5637 43.1964 3.9678
29.8041 49.7595 0.0171018
27.8028 48.2265 2
25.8672 46.6942 3.98132
26.4577 50.0327 0.0263391
24.5928 48.5044 2
22.7448 47.1116 3.97906
23.2972 50.2278 0.027697
21.6065 48.8164 2
19.945 47.6397 3.97917
20.4291 50.3398 0.0268554
18.9996 49.1122 2
17.6432 48.1936 3.97974
16.1207 48.6957 3.98012
16.8688 49.3467 2
15.8293 50.1835 3.97739
15.3609 52.4295 3.97726
16.751 51.4244 2
17.9596 50.349 0.0246387
14.8563 54.9904 3.97972
16.3718 53.8879 2
17.8104 52.8123 0.0243927
14.4527 57.7498 3.98289
15.9661 56.491 2
17.4217 55.3591 0.0203056
14.2638 60.6986 3.9854
15.745 59.2215 2
17.1268 57.8889 0.017349
14.3324 63.8611 3.99224
15.7862 62.1448 2
17.1326 60.5599 0.0165483
14.6715 67.2507 4
16.088 65.3019 2
17.4061 63.4736 0.0122227
16.6661 68.6801 2
17.9418 66.6193 0.00676309
18.75 69.9759 0
18.9299 15.7724 3.98341
20.2167 14.5853 2
18.9776 13.1006 3.98502
21.5848 13.5969 0.0153956
20.5284 11.9897 2
19.342 10.2312 3.98887
19.9904 7.14548 3.99329
21.1427 9.14339 2
22.189 11.0203 0.0137999
20.9142 3.86727 4
22.0154 6.08085 2
23.0395 8.17413 0.010668
23.1494 2.85451 2
24.1167 5.1419 0.00649405
25.446 1.99014 0
30.2776 35.5281 3.92308
32.169 35.7211 2
33.9842 35.8107 0.0315201
21.3019 15.8182 0.0167611
22.0936 16.6232 2
20.2986 16.9514 2
19.2366 18.3983 3.98297
21.777 17.8392 3.98276
25.3768 16.0757 0.0159351
23.2604 16.2392 0.0167766
24.1994 18.4378 2
22.2692 19.8798 3.98122
24.5793 21.3079 3.98289
26.3895 23.7076 3.981
27.0032 21.4428 2
27.435 18.7842 0.0155431
29.8194 33.0022 3.90977
31.0333 33.7847 2
32.5235 34.1126 0.0795532
32.2219 32.2762 0.0737437
33.0714 29.8031 0.0895387
35.0603 27.328 0.0186852
32.4736 28.0466 2
31.2429 31.2015 2
30.0349 29.5047 3.98017
27.8251 26.5272 3.97234
28.7655 24.3894 2
29.5662 21.9196 0.0091519
31.6493 25.6012 0.00691407
29.5758 27.2539 2
28.5393 37.4906 3.91686
29.9786 37.489 2
32.0365 37.4976 0.0694366
31.0746 47.9941 -0.00142519
30.362 44.9825 0.0291986
30.2698 39.463 0.0801286
29.8223 41.9784 0.0912769
29.0968 46.5581 2
28.8718 39.8741 2
28.5509 43.2071 2
27.1715 44.8362 3.97751
26.6619 40.6305 3.99808
27.802 48.2304 0.0218008
25.8684 46.6925 2
23.9082 45.2418 3.97273
24.5918 48.5047 0.0256434
22.746 47.1109 2
20.8782 45.9213 3.97847
21.6055 48.8167 0.0252798
19.9459 47.64 2
18.2901 46.7538 3.97968
18.9988 49.1121 0.0231442
17.6439 48.1941 2
16.3114 47.7253 3.9798
16.1212 48.6961 2
15.1769 49.0261 3.97862
16.8683 49.3462 0.0218417
15.8298 50.1839 2
14.4754 50.9953 3.97744
13.8179 53.4446 3.97868
15.3611 52.4299 2
16.7506 51.4241 0.0239973
13.2467 56.1768 3.9817
14.8563 54.9909 2
16.3718 53.8875 0.0221143
12.8454 59.1322 3.98528
14.4528 57.7503 2
15.9661 56.4905 0.0184839
12.6777 62.3038 3.99127
14.2638 60.699 2
15.7448 59.2209 0.0166562
12.7746 65.6939 4
14.3322 63.861 2
15.7862 62.1442 0.0136538
14.6714 67.2507 2
16.0883 65.3019 0.00711931
16.6661 68.6801 0
17.6633 17.1477 3.9829
18.9299 15.772 2
17.5088 14.3649 3.9843
20.2165 14.5855 0.0160659
18.9779 13.1002 2
17.6376 11.4501 3.98805
20.5281 11.9898 0.0142831
19.3422 10.231 2
18.0505 8.33828 3.9932
18.75 5.0241 4
19.9901 7.14553 2
21.1426 9.14371 0.0108224
20.9142 3.86727 2
22.0158 6.08087 0.00665048
23.1494 2.85457 0
28.881 35.1022 3.9109
30.2647 35.525 2
32.1713 35.7198 0.0676343
22.0933 16.6235 0.0175273
20.2985 16.952 0.0163652
21.7771 17.8386 2
19.2366 18.3976 2
17.9708 19.93 3.98211
20.8682 19.3665 3.98281
24.1992 18.4377 0.0179818
22.2695 19.879 2
24.5798 21.3084 2
22.3432 21.7042 3.98264
24.6722 23.1529 3.98105
25.4128 25.9356 3.9725
26.3905 23.7071 2
27.0029 21.4422 0.0158923
28.2043 32.2755 3.96094
29.8117 33.0011 2
31.0474 33.7989 0.076121
31.2381 31.2017 0.0880653
32.4871 28.052 0.011271
30.0105 29.495 2
26.936 29.1191 3.98291
27.8208 26.5244 2
28.765 24.3847 0.0129807
29.5835 27.29 0.0217664
26.7663 37.3502 3.97305
28.5307 37.489 2
29.9891 37.4864 0.0799173
29.0933 46.5392 0.00937457
28.5637 43.1964 0.0321981
28.882 39.8707 0.0903638
27.1758 44.8378 2
26.6573 40.636 2
25.1477 43.193 3.96764
23.9035 39.426 3.96711
25.8672 46.6942 0.0186765
23.9085 45.2425 2
21.849 43.9708 3.97588
22.7448 47.1116 0.0209445
20.8795 45.9219 2
18.9502 44.9855 3.97432
19.945 47.6397 0.0208298
18.2907 46.7547 2
16.6031 46.2241 3.97707
17.6432 48.1936 0.0202625
16.3119 47.7259 2
14.9077 47.679 3.97794
16.1207 48.6957 0.0198842
15.1774 49.0266 2
13.7744 49.554 3.97775
15.8293 50.1835 0.0226131
14.4757 50.9957 2
12.8853 51.8812 3.97816
12.1339 54.5336 3.98062
13.818 53.4451 2
15.3609 52.4295 0.022739
11.5294 57.4637 3.98459
13.2466 56.1773 2
14.8563 54.9904 0.0202759
11.1321 60.6299 3.99039
12.8455 59.1325 2
14.4527 57.7498 0.0171057
10.9835 64.0165 4
12.6776 62.3036 2
14.2638 60.6986 0.0146024
12.7745 65.694 2
14.3324 63.8611 0.00776294
14.6715 67.2507 0
16.3946 18.6414 3.98271
17.6633 17.1471 2
16.0994 15.7737 3.98408
18.9299 15.7724 0.0165887
17.509 14.3642 2
16.0191 12.8036 3.98664
18.9776 13.1006 0.0149842
17.6378 11.4496 2
16.2016 9.66139 3.9929
19.342 10.2312 0.0111323
18.0503 8.33839 2
16.6661 6.31991 4
18.75 5.02404 2
19.9904 7.14548 0.00671144
20.9142 3.86727 0
27.2759 34.7356 3.96043
28.8694 35.0994 2
30.2776 35.5281 0.0769166
16.6695 21.3656 3.97954
21.777 17.8392 0.0172382
19.2366 18.3983 0.0170313
20.8684 19.3657 2
17.9709 19.9294 2
19.7108 21.5588 3.98454
22.2692 19.8798 0.0187845
24.5793 21.3079 0.0171087
22.3436 21.7029 2
24.6723 23.1528 2
22.8163 24.5873 3.97651
24.4804 28.512 3.96913
25.4102 25.9335 2
26.3895 23.7076 0.019
26.0461 31.6901 3.98917
28.1951 32.2677 2
29.8194 33.0022 0.0902333
30.0349 29.5047 0.0198314
26.941 29.1193 2
27.8251 26.5272 0.0276633
24.5826 36.8501 3.98111
26.7635 37.3551 2
28.5393 37.4906 0.0831382
27.1715 44.8362 0.0224932
26.6619 40.6305 0.00191907
25.1462 43.1952 2
23.9019 39.428 2
22.8942 41.8094 3.97805
21.648 38.4955 3.97279
23.9082 45.2418 0.0272708
21.8497 43.9728 2
19.6958 42.8966 3.9725
20.8782 45.9213 0.0215305
18.9506 44.9865 2
16.9306 44.3893 3.97241
18.2901 46.7538 0.0203203
16.6036 46.2249 2
14.8298 46.0977 3.97499
16.3114 47.7253 0.0202012
14.9081 47.6796 2
13.2827 48.0145 3.9768
15.1769 49.0261 0.0213818
13.7748 49.5545 2
12.1052 50.2576 3.97783
14.4754 50.9953 0.0225567
12.8855 51.8818 2
11.1299 52.8406 3.97974
10.3197 55.7144 3.98357
12.1339 54.5343 2
13.8179 53.4446 0.0213181
9.69857 58.852 3.98928
11.5293 57.4643 2
13.2467 56.1768 0.0183017
9.30605 62.2254 4
11.1319 60.6298 2
12.8454 59.1322 0.0147223
10.9835 64.0165 2
12.6777 62.3038 0.00872778
12.7746 65.6939 0
15.1384 20.1756 3.9809
16.3947 18.6407 2
14.7444 17.2963 3.98327
17.6633 17.1477 0.0171035
16.0995 15.773 2
14.4814 14.2854 3.98573
17.5088 14.3649 0.0157003
16.0193 12.8029 2
14.4443 11.1126 3.99241
17.6376 11.4501 0.0119458
16.2015 9.66143 2
14.6715 7.74927 4
18.0505 8.33828 0.00680121
16.6661 6.31988 2
18.75 5.0241 0
25.2254 34.2526 3.9873
27.2701 34.7352 2
28.881 35.1022 0.0890962
17.8408 22.31 3.98533
15.5136 22.9096 3.97734
16.6694 21.3648 2
20.8682 19.3665 0.0171876
17.9708 19.93 0.0178927
19.711 21.5579 2
19.6401 24.3641 3.97878
22.3432 21.7042 0.0173619
24.6722 23.1529 0.0189548
22.8144 24.5853 2
21.8617 27.8059 3.97055
23.6435 31.1704 3.97149
24.4826 28.5115 2
25.4128 25.9356 0.0275017
26.0505 31.6858 2
28.2043 32.2755 0.0390578
26.936 29.1191 0.0170899
22.3602 36.2642 3.97925
24.5815 36.8507 2
26.7663 37.3502 0.0269545
25.1477 43.193 0.0323577
23.9035 39.426 0.0328948
22.8928 41.8108 2
21.6477 38.4961 2
20.6201 40.6307 3.97471
20.0069 37.776 3.97468
21.849 43.9708 0.0241213
19.6958 42.8976 2
17.3228 42.1049 3.97393
18.9502 44.9855 0.0256795
16.9309 44.3901 2
14.8298 44.2058 3.97314
16.6031 46.2241 0.0229319
14.8302 46.0985 2
12.9563 46.2998 3.97455
14.9077 47.679 0.0220621
13.283 48.0152 2
11.4779 48.5529 3.97672
13.7744 49.554 0.0222545
12.1056 50.2582 2
10.2563 51.0825 3.97897
12.8853 51.8812 0.0218387
11.13 52.8413 2
9.2287 53.8911 3.98272
8.38205 56.984 3.98826
10.3196 55.7151 2
12.1339 54.5336 0.0193833
7.74927 60.3285 4
9.69827 58.8519 2
11.5294 57.4637 0.0154053
9.306 62.2255 2
11.1321 60.6299 0.00960897
10.9835 64.0165 0
13.95 21.7425 3.97924
15.1384 20.1748 2
13.4443 18.8933 3.98215
16.3946 18.6414 0.0172884
14.7445 17.2956 2
13.0264 15.8781 3.98514
16.0994 15.7737 0.0159249
14.4815 14.2846 2
12.7816 12.6858 3.99163
16.0191 12.8036 0.0133584
14.4442 11.1125 2
12.7746 9.30605 4
16.2016 9.66139 0.00709635
14.6715 7.74924 2
16.6661 6.31991 0
22.9539 33.7868 3.97452
25.2207 34.2515 2
27.2759 34.7356 0.0395717
17.6079 24.0288 3.97911
17.8406 22.309 2
14.2964 24.4425 3.97563
15.513 22.9084 2
16.6695 21.3656 0.020462
18.9975 27.1862 3.96903
19.7108 21.5588 0.0154639
19.6386 24.3635 2
21.0923 30.6454 3.97221
22.8163 24.5873 0.0234943
21.8626 27.8053 2
23.6402 31.1702 2
24.4804 28.512 0.0308693
26.0461 31.6901 0.0108334
20.1259 35.9118 3.97716
22.3586 36.2654 2
24.5826 36.8501 0.0188857
22.8942 41.8094 0.021949
21.648 38.4955 0.027207
20.619 40.631 2
20.0055 37.7763 2
17.9997 38.9996 3.97418
19.6958 42.8966 0.0275028
17.3226 42.1057 2
14.7758 41.9209 3.97367
16.9306 44.3893 0.0275852
14.8299 44.2067 2
12.6955 44.3952 3.97383
14.8298 46.0977 0.0250089
12.9566 46.3005 2
10.981 46.7353 3.97488
13.2827 48.0145 0.0231978
11.4782 48.5535 2
9.52059 49.2408 3.97778
12.1052 50.2576 0.0221663
10.2566 51.0831 2
8.26203 52.0026 3.98187
11.1299 52.8406 0.0202561
9.2287 53.8916 2
7.19103 55.0332 3.98769
6.31991 58.3339 4
8.38164 56.9834 2
10.3197 55.7144 0.0164306
7.74924 60.3285 2
9.69857 58.852 0.0107234
9.30605 62.2254 0
13.2178 25.3561 3.98088
12.8173 23.2727 3.97777
13.9496 21.7413 2
12.2293 20.5427 3.98123
15.1384 20.1756 0.0191032
13.4444 18.8924 2
11.6557 17.559 3.98487
14.7444 17.2963 0.0167311
13.0265 15.8774 2
11.219 14.3705 3.99057
14.4814 14.2854 0.0142697
12.7815 12.6858 2
10.9835 10.9835 4
14.4443 11.1126 0.00759373
12.7745 9.306 2
14.6715 7.74927 0
20.5124 33.3798 3.97366
22.9515 33.7878 2
25.2254 34.2526 0.0126961
15.8815 26.3914 3.97282
17.6069 24.0278 2
17.8408 22.31 0.0146681
14.296 24.4419 2
15.5136 22.9096 0.0226576
18.3344 30.158 3.97134
18.9978 27.1856 2
19.6401 24.3641 0.0212199
21.0902 30.6447 2
21.8617 27.8059 0.0294529
23.6435 31.1704 0.0285149
17.6285 35.9565 3.97411
20.1246 35.9122 2
22.3602 36.2642 0.0207479
20.6201 40.6307 0.0252873
20.0069 37.776 0.0253196
17.9985 38.9997 2
14.2846 39.175 3.97314
17.3228 42.1049 0.0260724
14.7756 41.9217 2
12.3819 42.2788 3.97357
14.8298 44.2058 0.0268614
12.6956 44.3959 2
10.5578 44.8037 3.97458
12.9563 46.2998 0.0254483
10.9813 46.736 2
8.90425 47.3189 3.97619
11.4779 48.5529 0.0232783
9.5209 49.2414 2
7.42963 50.0348 3.98065
10.2563 51.0825 0.0210253
8.26221 52.003 2
6.13169 53.0068 3.98743
9.2287 53.8911 0.0172814
7.19063 55.0321 2
5.0241 56.25 4
6.31988 58.3339 2
8.38205 56.984 0.0117359
7.74927 60.3285 0
13.455 26.8071 3.97437
11.9318 24.783 3.97693
13.2176 25.3556 2
11.1324 22.2287 3.97978
12.817 23.2719 2
13.95 21.7425 0.0207627
12.229 20.5415 2
10.3856 19.3143 3.98428
13.4443 18.8933 0.0178482
11.6557 17.5582 2
9.75969 16.1539 3.98949
13.0264 15.8781 0.0148626
11.2188 14.3705 2
9.30607 12.7746 4
12.7816 12.6858 0.00837111
10.9835 10.9835 2
12.7746 9.30605 0
17.8046 33.0999 3.97269
20.5103 33.3801 2
22.9539 33.7868 0.0254755
15.4693 29.6275 3.97288
15.8814 26.3911 2
17.6079 24.0288 0.0208946
14.2964 24.4425 0.0243661
18.3335 30.1578 2
18.9975 27.1862 0.030973
21.0923 30.6454 0.027785
14.8829 36.0131 3.97235
17.6271 35.9564 2
20.1259 35.9118 0.0228387
12.5834 37.8272 3.97376
17.9997 38.9996 0.0258203
14.2838 39.1756 2
11.8971 40.1411 3.97294
14.7758 41.9209 0.0263293
12.3818 42.2795 2
10.1567 42.7789 3.9742
12.6955 44.3952 0.0261708
10.5579 44.8043 2
8.38233 45.3206 3.97584
10.981 46.7353 0.0251247
8.9045 47.3194 2
6.72177 47.9992 3.97922
9.52059 49.2408 0.0222192
7.42989 50.0351 2
5.20865 50.909 3.98717
8.26203 52.0026 0.0181319
6.13145 53.0055 2
3.86727 54.0858 4
7.19103 55.0332 0.0123113
5.02404 56.25 2
6.31991 58.3339 0
12.9109 29.0272 3.97125
11.3625 26.4837 3.9757
13.4549 26.8066 2
10.1927 23.9643 3.97798
11.9317 24.7823 2
13.2178 25.3561 0.0191183
9.23792 21.1345 3.98294
11.1323 22.2277 2
12.8173 23.2727 0.0222342
12.2293 20.5427 0.0187676
10.3855 19.3133 2
8.41543 18.0255 3.98863
11.6557 17.559 0.0151283
9.75944 16.1539 2
7.74928 14.6715 4
11.219 14.3705 0.00943322
9.30602 12.7745 2
10.9835 10.9835 0
14.4622 32.8551 3.97269
17.8051 33.0996 2
20.5124 33.3798 0.0263417
15.4688 29.6272 2
15.8815 26.3914 0.0271796
18.3344 30.158 0.0286639
12.8741 36.2063 3.97177
14.8818 36.0129 2
17.6285 35.9565 0.0258929
12.5828 37.8273 2
11.2574 38.3085 3.9726
14.2846 39.175 0.0268586
11.8966 40.1416 2
9.74363 40.7546 3.97351
12.3819 42.2788 0.0264343
10.1566 42.7795 2
7.93144 43.2696 3.97551
10.5578 44.8037 0.0254239
8.38246 45.3211 2
6.12828 45.9042 3.97876
8.90425 47.3189 0.0238142
6.72199 47.9994 2
4.42058 48.7494 3.98674
7.42963 50.0348 0.0193529
5.20858 50.908 2
2.85457 51.8506 4
6.13169 53.0068 0.0125722
3.86727 54.0858 2
5.0241 56.25 0
12.0521 31.2516 3.97296
10.7758 28.4119 3.97369
12.9105 29.0268 2
9.40832 25.796 3.97689
11.3624 26.4833 2
13.455 26.8071 0.0256298
8.22572 23.0213 3.98102
10.1926 23.9636 2
11.9318 24.783 0.0230681
7.19752 19.9764 3.98786
9.23782 21.1336 2
11.1324 22.2287 0.0202242
10.3856 19.3143 0.0157158
8.41501 18.0257 2
6.31992 16.6661 4
9.75969 16.1539 0.0105143
7.74926 14.6714 2
9.30607 12.7746 0
12.0736 34.2917 3.97195
14.4626 32.855 2
17.8046 33.0999 0.0273084
15.4693 29.6275 0.0271205
10.8227 36.6094 3.97128
12.8733 36.206 2
14.8829 36.0131 0.0276548
12.5834 37.8272 0.0262398
11.2569 38.3087 2
9.34117 38.8228 3.97236
11.8971 40.1411 0.0270617
9.74337 40.7551 2
7.54393 41.2106 3.97468
10.1567 42.7789 0.0257961
7.93144 43.2701 2
5.64033 43.7673 3.97882
8.38233 45.3206 0.0241559
6.12842 45.9043 2
3.7665 46.5356 3.98654
6.72177 47.9992 0.0207769
4.42058 48.7489 2
1.99014 49.554 4
5.20865 50.909 0.0128298
2.85451 51.8506 2
3.86727 54.0858 0
10.9163 32.9162 3.97303
10.0894 30.3793 3.97379
12.0522 31.2517 2
8.71716 27.7306 3.97566
10.7755 28.4115 2
12.9109 29.0272 0.0287538
7.35175 24.9816 3.97989
9.40832 25.7955 2
11.3625 26.4837 0.0243013
6.11461 22.0014 3.98698
8.22578 23.0208 2
10.1927 23.9643 0.0220216
5.02411 18.75 4
7.19708 19.9772 2
9.23792 21.1345 0.0170639
8.41543 18.0255 0.0113662
6.3199 16.6661 2
7.74928 14.6715 0
10.4328 34.998 3.972
12.0735 34.2912 2
14.4622 32.8551 0.0273124
9.0155 36.9837 3.97082
10.8224 36.6092 2
12.8741 36.2063 0.0282347
11.2574 38.3085 0.0274031
9.34081 38.823 2
7.22667 39.181 3.97351
9.74363 40.7546 0.0264949
7.54379 41.211 2
5.25646 41.6131 3.97791
7.93144 43.2696 0.0244938
5.64036 43.7674 2
3.24438 44.2812 3.98636
6.12828 45.9042 0.0212449
3.76655 46.5355 2
1.27781 47.2057 4
4.42058 48.7494 0.0132553
1.99012 49.554 2
2.85457 51.8506 0
10.0842 33.8793 3.97339
9.38397 32.1522 3.97379
10.9163 32.9159 2
8.06706 29.6945 3.97519
10.0894 30.3792 2
12.0521 31.2516 0.0270391
6.59597 27.0084 3.97894
8.71698 27.7302 2
10.7758 28.4119 0.0263136
5.17001 24.0955 3.9867
7.35186 24.9814 2
9.40832 25.796 0.0231139
3.86728 20.9142 4
6.11435 22.0026 2
8.22572 23.0213 0.0189829
5.02406 18.75 2
7.19752 19.9764 0.0121366
6.31992 16.6661 0
8.84149 35.2779 3.9722
10.4327 34.9978 2
12.0736 34.2917 0.0280459
7.01235 37.2049 3.97224
9.01534 36.9835 2
10.8227 36.6094 0.0287181
9.34117 38.8228 0.0276399
7.22646 39.1812 2
4.98567 39.4665 3.97644
7.54393 41.2106 0.0253244
5.25642 41.6132 2
2.85521 42.0019 3.98551
5.64033 43.7673 0.0211829
3.24441 44.2814 2
0.720592 44.8159 4
3.7665 46.5356 0.013457
1.27778 47.2057 2
1.99014 49.554 0
8.88182 33.696 3.97342
10.0841 33.8791 2
7.50574 31.6084 3.97484
9.38387 32.152 2
10.9163 32.9162 0.0269713
5.94165 29.0697 3.97832
8.06703 29.6943 2
10.0894 30.3793 0.0262077
4.35787 26.2485 3.9865
6.59592 27.0082 2
8.71716 27.7306 0.0243369
2.85458 23.1494 4
5.16989 24.0964 2
7.35175 24.9816 0.0201111
3.86728 20.9142 2
6.11461 22.0014 0.0130169
5.02411 18.75 0
6.96266 35.3053 3.97275
8.84138 35.2777 2
10.4328 34.998 0.0279973
4.83691 37.3392 3.97555
7.01227 37.2049 2
9.0155 36.9837 0.029176
7.22667 39.181 0.0264876
4.98556 39.4666 2
2.60381 39.7138 3.98405
5.25646 41.6131 0.022088
2.85524 42.0025 2
0.320823 42.3947 4
3.24438 44.2812 0.0136446
0.720551 44.8159 2
1.27781 47.2057 0
7.12115 33.4603 3.97406
8.88171 33.6958 2
10.0842 33.8793 0.0266125
5.41332 31.1338 3.97778
7.50562 31.6082 2
9.38397 32.1522 0.0262148
3.67988 28.4442 3.98614
5.94164 29.0698 2
8.06706 29.6945 0.0248061
1.99015 25.446 4
4.35776 26.2491 2
6.59597 27.0084 0.0210646
2.85453 23.1494 2
5.17001 24.0955 0.0133048
3.86728 20.9142 0
4.85137 35.2514 3.97567
6.96257 35.3052 2
8.84149 35.2779 0.0277979
2.49556 37.4284 3.9834
4.83688 37.3393 2
7.01235 37.2049 0.0277576
4.98567 39.4665 0.023558
2.6038 39.7144 2
0.080333 39.9526 4
2.85521 42.0019 0.0144871
0.320817 42.3947 2
0.720592 44.8159 0
5.04383 33.1904 3.97687
7.12104 33.4601 2
8.88182 33.696 0.0265824
3.14459 30.6666 3.98533
5.4132 31.1339 2
7.50574 31.6084 0.0251608
1.27793 27.7943 4
3.67985 28.4446 2
5.94165 29.0697 0.0216781
1.99013 25.446 2
4.35787 26.2485 0.0134957
2.85458 23.1494 0
2.54777 35.159 3.98334
4.8513 35.2515 2
6.96266 35.3053 0.0272467
0 37.5 4
2.49562 37.429 2
4.83691 37.3392 0.024455
2.60381 39.7138 0.0159529
0.0802903 39.9526 2
0.320823 42.3947 0
2.76505 32.9059 3.98422
5.04371 33.1905 2
7.12115 33.4603 0.0259438
0.721173 30.1842 4
3.14453 30.6667 2
5.41332 31.1338 0.0222197
1.27779 27.7943 2
3.67988 28.4442 0.0138556
1.99015 25.446 0
0.0806499 35.0474 4
2.54779 35.1595 2
4.85137 35.2514 0.0243271
0 37.5 2
2.49556 37.4284 0.0166028
0.080333 39.9526 0
0.32156 32.6054 4
2.76502 32.9061 2
5.04383 33.1904 0.0231313
0.72056 30.1841 2
3.14459 30.6666 0.0146674
1.27793 27.7943 0
0.0802889 35.0474 2
2.54777 35.159 0.0166615
0 37.5 0
0.320817 32.6053 2
2.76505 32.9059 0.0157783
0.721173 30.1842 0
0.0806499 35.0474 0
0.32156 32.6054 0
CELLS 1910 17190
8 18 6 25 56 2 0 5 16
8 57 23 6 18 17 4 0 2
8 78 36 9 29 31 11 1 7
8 31 11 1 7 79 37 10 30
8 110 57 18 50 48 17 2 14
8 50 18 56 111 14 2 16 49
8 116 62 22 55 52 20 3 15
8 56 25 67 118 16 5 24 53
8 119 63 23 57 54 21 4 17
8 55 22 63 119 15 3 21 54
8 58 26 68 121 18 6 25 56
8 122 65 26 58 57 23 6 18
8 73 31 7 27 142 79 30 71
8 143 78 29 72 73 31 7 27
8 83 147 76 34 32 74 28 8
8 84 148 78 36 33 75 29 9
8 76 34 8 28 148 84 33 75
8 37 79 150 86 10 30 77 35
8 151 87 36 78 80 38 11 31
8 80 38 11 31 152 88 37 79
8 175 100 42 94 96 44 12 40
8 44 96 176 101 12 40 95 43
8 101 176 98 46 43 95 41 13
8 46 98 178 103 13 41 97 45
8 178 103 45 97 147 83 32 74
8 189 116 55 109 106 52 15 47
8 111 56 118 191 49 16 53 107
8 192 119 57 110 108 54 17 48
8 109 55 119 192 47 15 54 108
8 194 122 58 112 110 57 18 50
8 112 58 121 195 50 18 56 111
8 115 61 19 51 197 124 59 113
8 115 61 125 198 51 19 60 114
8 198 125 62 116 114 60 20 52
8 200 127 64 120 116 62 22 55
8 118 67 132 202 53 24 66 117
8 121 68 133 203 56 25 67 118
8 120 64 128 204 55 22 63 119
8 204 128 65 122 119 63 23 57
8 206 134 68 121 123 69 26 58
8 123 69 26 58 207 131 65 122
8 226 147 74 138 140 76 28 70
8 229 148 75 139 143 78 29 72
8 140 76 28 70 229 148 75 139
8 142 79 30 71 231 150 77 141
8 144 80 31 73 232 152 79 142
8 233 151 78 143 144 80 31 73
8 150 86 35 77 235 154 81 145
8 235 154 81 145 146 82 39 91
8 146 82 39 91 236 155 90 165
8 238 157 83 147 149 85 34 76
8 239 158 84 148 151 87 36 78
8 149 85 34 76 239 158 84 148
8 152 88 37 79 241 160 86 150
8 242 161 87 151 153 89 38 80
8 153 89 38 80 243 162 88 152
8 171 98 41 92 265 178 97 169
8 265 178 97 169 226 147 74 138
8 172 96 40 93 266 176 95 170
8 266 176 95 170 171 98 41 92
8 269 175 94 173 172 96 40 93
8 271 180 99 174 175 100 42 94
8 197 124 59 113 271 180 99 174
8 272 181 100 175 177 102 44 96
8 273 182 101 176 179 104 46 98
8 177 102 44 96 273 182 101 176
8 179 104 46 98 275 184 103 178
8 275 184 103 178 238 157 83 147
8 188 115 51 105 283 197 113 186
8 188 115 198 284 105 51 114 187
8 284 198 116 189 187 114 52 106
8 286 200 120 193 189 116 55 109
8 191 118 202 288 107 53 117 190
8 195 121 203 289 111 56 118 191
8 193 120 204 290 109 55 119 192
8 290 204 122 194 192 119 57 110
8 196 123 58 112 292 207 122 194
8 293 206 121 195 196 123 58 112
8 199 126 61 115 297 211 124 197
8 298 212 127 200 198 125 62 116
8 199 126 212 298 115 61 125 198
8 205 129 64 120 300 214 127 200
8 301 217 130 201 202 132 66 117
8 209 136 168 264 301 217 130 201
8 302 219 132 202 203 133 67 118
8 303 220 133 203 206 134 68 121
8 205 129 215 304 120 64 128 204
8 304 215 131 207 204 128 65 122
8 306 221 134 206 208 135 69 123
8 208 135 69 123 307 218 131 207
8 210 137 167 263 309 223 136 209
8 328 238 147 226 230 149 76 140
8 228 146 91 166 329 236 165 260
8 231 150 77 141 330 235 145 227
8 330 235 145 227 228 146 91 166
8 332 239 148 229 233 151 78 143
8 230 149 76 140 332 239 148 229
8 232 152 79 142 334 241 150 231
8 234 153 80 144 335 243 152 232
8 336 242 151 233 234 153 80 144
8 236 155 90 165 338 245 164 259
8 241 160 86 150 339 246 154 235
8 339 246 154 235 237 156 82 146
8 237 156 82 146 340 247 155 236
8 342 249 157 238 240 159 85 149
8 343 250 158 239 242 161 87 151
8 240 159 85 149 343 250 158 239
8 243 162 88 152 345 252 160 241
8 244 163 253 346 153 89 161 242
8 244 163 89 153 347 254 162 243
8 311 224 261 371 210 137 167 263
8 263 167 262 372 209 136 168 264
8 267 179 98 171 375 275 178 265
8 375 275 178 265 328 238 147 226
8 376 273 176 266 267 179 98 171
8 268 177 96 172 376 273 176 266
8 379 272 175 269 268 177 96 172
8 380 271 174 270 269 175 94 173
8 283 197 113 186 380 271 174 270
8 381 277 180 271 272 181 100 175
8 297 211 124 197 381 277 180 271
8 382 278 181 272 274 183 102 177
8 274 183 102 177 383 279 182 273
8 383 279 182 273 276 185 104 179
8 385 281 184 275 342 249 157 238
8 276 185 104 179 385 281 184 275
8 285 199 115 188 393 297 197 283
8 394 298 200 286 284 198 116 189
8 285 199 298 394 188 115 198 284
8 291 205 120 193 396 300 200 286
8 397 301 201 287 288 202 117 190
8 295 209 264 374 397 301 201 287
8 398 302 202 288 289 203 118 191
8 399 303 203 289 293 206 121 195
8 291 205 304 400 193 120 204 290
8 400 304 207 292 290 204 122 194
8 294 208 123 196 402 307 207 292
8 403 306 206 293 294 208 123 196
8 296 210 263 373 405 309 209 295
8 408 312 213 299 297 211 126 199
8 299 213 313 409 199 126 212 298
8 409 313 214 300 298 212 127 200
8 305 216 129 205 411 315 214 300
8 412 318 217 301 302 219 132 202
8 309 223 136 209 412 318 217 301
8 413 320 219 302 303 220 133 203
8 306 221 321 414 206 134 220 303
8 307 218 131 207 415 316 215 304
8 305 216 316 415 205 129 215 304
8 417 322 221 306 308 222 135 208
8 308 222 135 208 418 319 218 307
8 310 225 137 210 420 325 223 309
8 423 326 224 311 310 225 137 210
8 329 236 165 260 441 338 259 368
8 442 342 238 328 333 240 149 230
8 331 237 146 228 443 340 236 329
8 334 241 150 231 444 339 235 330
8 444 339 235 330 331 237 146 228
8 446 343 239 332 336 242 151 233
8 333 240 149 230 446 343 239 332
8 335 243 152 232 448 345 241 334
8 337 244 153 234 449 347 243 335
8 337 244 346 450 234 153 242 336
8 338 245 164 259 452 349 258 367
8 340 247 155 236 453 350 245 338
8 345 252 160 241 454 351 246 339
8 454 351 246 339 341 248 156 237
8 341 248 156 237 455 352 247 340
8 240 159 251 344 342 249 354 457
8 242 161 253 346 343 250 355 458
8 343 250 355 458 240 159 251 344
8 347 254 162 243 460 357 252 345
8 348 255 358 461 244 163 253 346
8 348 255 163 244 462 359 254 347
8 473 360 257 365 363 256 364 482
8 452 349 258 367 365 257 366 485
8 422 324 369 488 311 224 261 371
8 371 261 370 490 263 167 262 372
8 407 311 371 491 296 210 263 373
8 373 263 372 492 295 209 264 374
8 493 385 275 375 442 342 238 328
8 377 276 179 267 493 385 275 375
8 378 274 177 268 494 383 273 376
8 494 383 273 376 377 276 179 267
8 497 382 272 379 378 274 177 268
8 498 381 271 380 379 272 175 269
8 393 297 197 283 498 381 271 380
8 499 387 277 381 382 278 181 272
8 408 312 211 297 499 387 277 381
8 500 388 278 382 384 280 183 274
8 501 389 279 383 386 282 185 276
8 384 280 183 274 501 389 279 383
8 386 282 185 276 503 391 281 385
8 503 391 281 385 457 354 249 342
8 511 408 299 395 393 297 199 285
8 395 299 409 512 285 199 298 394
8 512 409 300 396 394 298 200 286
8 401 305 205 291 514 411 300 396
8 515 412 301 397 398 302 202 288
8 405 309 209 295 515 412 301 397
8 516 413 302 398 399 303 203 289
8 403 306 414 517 293 206 303 399
8 402 307 207 292 518 415 304 400
8 401 305 415 518 291 205 304 400
8 404 308 208 294 520 418 307 402
8 521 417 306 403 404 308 208 294
8 406 310 210 296 523 420 309 405
8 526 423 311 407 406 310 210 296
8 410 314 213 299 527 424 312 408
8 528 425 315 411 409 313 214 300
8 410 314 425 528 299 213 313 409
8 416 317 216 305 530 427 315 411
8 531 430 318 412 413 320 219 302
8 420 325 223 309 531 430 318 412
8 532 432 320 413 414 321 220 303
8 417 322 433 533 306 221 321 414
8 418 319 218 307 534 428 316 415
8 416 317 428 534 305 216 316 415
8 419 323 434 536 308 222 322 417
8 419 323 222 308 537 431 319 418
8 421 327 225 310 539 438 325 420
8 421 327 439 541 310 225 326 423
8 543 437 324 422 423 326 224 311
8 441 338 259 368 559 452 367 486
8 443 340 236 329 560 453 338 441
8 333 240 344 447 442 342 457 561
8 445 341 237 331 562 455 340 443
8 448 345 241 334 563 454 339 444
8 563 454 339 444 445 341 237 331
8 336 242 346 450 446 343 458 565
8 446 343 458 565 333 240 344 447
8 449 347 243 335 567 460 345 448
8 451 348 244 337 568 462 347 449
8 451 348 461 569 337 244 346 450
8 570 463 349 452 473 360 257 365
8 453 350 245 338 570 463 349 452
8 455 352 247 340 571 464 350 453
8 460 357 252 345 572 465 351 454
8 572 465 351 454 456 353 248 341
8 456 353 248 341 573 466 352 455
8 344 251 356 459 457 354 468 575
8 458 355 469 576 344 251 356 459
8 346 253 358 461 458 355 469 576
8 462 359 254 347 578 471 357 460
8 348 255 359 462 461 358 472 579
8 591 474 360 473 475 361 256 363
8 475 361 256 363 594 477 362 479
8 363 256 364 482 479 362 480 603
8 590 473 365 484 481 363 482 605
8 482 364 257 365 606 483 366 485
8 559 452 367 486 484 365 485 607
8 542 436 487 609 422 324 369 488
8 525 422 488 611 407 311 371 491
8 488 369 489 612 371 261 370 490
8 491 371 490 613 373 263 372 492
8 495 386 276 377 614 503 385 493
8 614 503 385 493 561 457 342 442
8 615 501 383 494 495 386 276 377
8 496 384 274 378 615 501 383 494
8 618 500 382 497 496 384 274 378
8 619 499 381 498 497 382 272 379
8 511 408 297 393 619 499 381 498
8 620 505 387 499 500 388 278 382
8 527 424 312 408 620 505 387 499
8 502 390 506 621 384 280 388 500
8 622 507 389 501 504 392 282 386
8 502 390 280 384 622 507 389 501
8 504 392 282 386 624 509 391 503
8 624 509 391 503 575 468 354 457
8 513 410 299 395 630 527 408 511
8 631 528 411 514 512 409 300 396
8 513 410 528 631 395 299 409 512
8 519 416 305 401 633 530 411 514
8 634 531 412 515 516 413 302 398
8 523 420 309 405 634 531 412 515
8 635 532 413 516 517 414 303 399
8 521 417 533 636 403 306 414 517
8 520 418 307 402 637 534 415 518
8 519 416 534 637 401 305 415 518
8 522 419 308 404 639 537 418 520
8 522 419 536 640 404 308 417 521
8 524 421 310 406 642 539 420 523
8 524 421 541 644 406 310 423 526
8 646 543 422 525 526 423 311 407
8 529 426 314 410 647 544 424 527
8 528 425 545 648 411 315 427 530
8 529 426 545 648 410 314 425 528
8 535 429 317 416 649 546 427 530
8 650 548 430 531 532 432 320 413
8 539 438 325 420 650 548 430 531
8 533 433 550 651 414 321 432 532
8 536 434 551 652 417 322 433 533
8 537 431 319 418 653 547 428 534
8 535 429 547 653 416 317 428 534
8 538 435 552 654 419 323 434 536
8 538 435 323 419 655 549 431 537
8 540 440 327 421 657 556 438 539
8 540 440 557 659 421 327 439 541
8 541 439 555 660 423 326 437 543
8 661 554 436 542 543 437 324 422
8 676 570 452 559 590 473 365 484
8 560 453 338 441 676 570 452 559
8 562 455 340 443 677 571 453 560
8 447 344 459 566 561 457 575 678
8 564 456 341 445 679 573 455 562
8 567 460 345 448 680 572 454 563
8 680 572 454 563 564 456 341 445
8 565 458 576 682 447 344 459 566
8 450 346 461 569 565 458 576 682
8 568 462 347 449 684 578 460 567
8 451 348 462 568 569 461 579 685
8 686 580 463 570 591 474 360 473
8 571 464 350 453 686 580 463 570
8 573 466 352 455 687 581 464 571
8 572 465 582 688 460 357 471 578
8 574 467 582 688 456 353 465 572
8 574 467 353 456 689 583 466 573
8 459 356 470 577 575 468 585 691
8 576 469 586 692 459 356 470 577
8 461 358 472 579 576 469 586 692
8 462 359 471 578 579 472 588 694
8 704 591 473 590 593 475 363 481
8 595 476 592 705 475 361 474 591
8 593 475 363 481 707 594 479 602
8 594 477 362 479 709 598 478 600
8 595 476 361 475 711 597 477 594
8 479 362 480 603 600 478 601 720
8 481 363 482 605 602 479 603 722
8 603 480 364 482 723 604 483 606
8 605 482 365 484 724 606 485 607
8 656 553 608 726 542 436 487 609
8 645 542 609 728 525 422 488 611
8 609 487 610 729 488 369 489 612
8 611 488 612 730 491 371 490 613
8 616 504 386 495 731 624 503 614
8 731 624 503 614 678 575 457 561
8 732 622 501 615 616 504 386 495
8 617 502 384 496 732 622 501 615
8 617 502 621 735 496 384 500 618
8 736 620 499 619 618 500 382 497
8 630 527 408 511 736 620 499 619
8 621 506 626 737 500 388 505 620
8 647 544 424 527 737 626 505 620
8 623 508 627 738 502 390 506 621
8 623 508 390 502 739 628 507 622
8 625 510 628 739 504 392 507 622
8 740 629 509 624 691 585 468 575
8 625 510 392 504 740 629 509 624
8 632 529 410 513 744 647 527 630
8 631 528 648 745 514 411 530 633
8 632 529 648 745 513 410 528 631
8 638 535 416 519 746 649 530 633
8 747 650 531 634 635 532 413 516
8 642 539 420 523 747 650 531 634
8 636 533 651 748 517 414 532 635
8 640 536 652 749 521 417 533 636
8 639 537 418 520 750 653 534 637
8 638 535 653 750 519 416 534 637
8 641 538 419 522 751 655 537 639
8 641 538 654 752 522 419 536 640
8 643 540 421 524 753 657 539 642
8 643 540 659 755 524 421 541 644
8 644 541 660 757 526 423 543 646
8 758 661 542 645 646 543 422 525
8 529 426 544 647 648 545 662 759
8 530 427 545 648 649 546 663 760
8 535 429 546 649 653 547 664 761
8 762 666 548 650 651 550 432 532
8 657 556 438 539 762 666 548 650
8 652 551 668 763 533 433 550 651
8 654 552 669 764 536 434 551 652
8 655 549 431 537 765 665 547 653
8 538 435 549 655 654 552 667 766
8 661 554 671 768 542 436 553 656
8 658 558 440 540 769 674 556 657
8 658 558 675 770 540 440 557 659
8 659 557 673 771 541 439 555 660
8 660 555 672 772 543 437 554 661
8 788 686 570 676 704 591 473 590
8 677 571 453 560 788 686 570 676
8 679 573 455 562 789 687 571 677
8 566 459 577 683 678 575 691 790
8 681 574 456 564 791 689 573 679
8 680 572 688 792 567 460 578 684
8 681 574 688 792 564 456 572 680
8 682 576 692 794 566 459 577 683
8 569 461 579 685 682 576 692 794
8 568 462 578 684 685 579 694 796
8 687 581 464 571 798 696 580 686
8 798 696 580 686 705 592 474 591
8 689 583 466 573 799 697 581 687
8 688 582 698 800 578 471 588 694
8 690 584 698 800 574 467 582 688
8 690 584 467 574 801 699 583 689
8 693 587 701 803 577 470 585 691
8 693 587 470 577 804 702 586 692
8 695 589 702 804 579 472 586 692
8 695 589 472 579 805 703 588 694
8 708 595 705 813 593 475 591 704
8 710 596 706 814 595 476 592 705
8 707 594 479 602 816 709 600 719
8 708 595 475 593 817 711 594 707
8 709 598 478 600 819 715 599 717
8 711 597 477 594 820 714 598 709
8 710 596 476 595 822 713 597 711
8 600 478 601 720 717 599 718 832
8 602 479 603 722 719 600 720 834
8 720 601 480 603 835 721 604 723
8 722 603 482 605 836 723 606 724
8 767 670 725 839 656 553 608 726
8 756 656 726 841 645 542 609 728
8 726 608 727 842 609 487 610 729
8 728 609 729 843 611 488 612 730
8 844 740 624 731 790 691 575 678
8 733 625 504 616 844 740 624 731
8 734 623 502 617 845 739 622 732
8 733 625 739 845 616 504 622 732
8 734 623 738 846 617 502 621 735
8 735 621 737 847 618 500 620 736
8 744 647 527 630 847 737 620 736
8 621 506 627 738 737 626 741 848
8 647 544 626 737 759 662 741 848
8 623 508 628 739 738 627 742 849
8 740 629 585 691 850 743 700 802
8 625 510 629 740 739 628 743 850
8 632 529 647 744 745 648 759 854
8 633 530 648 745 746 649 760 855
8 638 535 649 746 750 653 761 856
8 857 762 650 747 748 651 532 635
8 753 657 539 642 857 762 650 747
8 749 652 763 858 636 533 651 748
8 752 654 764 859 640 536 652 749
8 751 655 537 639 860 765 653 750
8 641 538 655 751 752 654 766 861
8 754 658 540 643 862 769 657 753
8 754 658 770 863 643 540 659 755
8 755 659 771 864 644 541 660 757
8 758 661 768 866 645 542 656 756
8 757 660 772 867 646 543 661 758
8 759 662 773 868 648 545 663 760
8 649 546 663 760 761 664 774 871
8 765 665 547 653 872 775 664 761
8 873 777 666 762 763 668 550 651
8 769 674 556 657 873 777 666 762
8 764 669 779 874 652 551 668 763
8 654 552 667 766 764 669 778 875
8 655 549 665 765 766 667 776 876
8 768 671 782 877 656 553 670 767
8 772 672 783 878 661 554 671 768
8 658 558 674 769 770 675 786 879
8 659 557 675 770 771 673 785 881
8 882 784 672 772 771 673 555 660
8 789 687 571 677 897 798 686 788
8 897 798 686 788 813 705 591 704
8 791 689 573 679 898 799 687 789
8 795 693 803 900 683 577 691 790
8 793 690 574 681 901 801 689 791
8 792 688 800 902 684 578 694 796
8 793 690 800 902 681 574 688 792
8 795 693 577 683 903 804 692 794
8 797 695 804 903 685 579 692 794
8 797 695 579 685 904 805 694 796
8 905 806 697 799 798 696 581 687
8 814 706 806 905 705 592 696 798
8 689 583 697 799 801 699 808 907
8 800 698 809 908 694 588 703 805
8 690 584 699 801 800 698 809 908
8 803 701 810 909 691 585 700 802
8 693 587 702 804 803 701 811 910
8 695 589 703 805 804 702 812 911
8 818 710 814 919 708 595 705 813
8 821 712 815 920 710 596 706 814
8 816 709 600 719 922 819 717 831
8 817 711 594 707 923 820 709 816
8 818 710 595 708 924 822 711 817
8 819 715 599 717 926 827 716 829
8 820 714 598 709 927 826 715 819
8 929 825 713 822 820 714 597 711
8 821 712 596 710 930 824 713 822
8 717 599 718 832 829 716 830 942
8 719 600 720 834 831 717 832 944
8 832 718 601 720 945 833 721 835
8 834 720 603 722 946 835 723 836
8 869 780 838 950 767 670 725 839
8 865 767 839 952 756 656 726 841
8 839 725 840 953 726 608 727 842
8 841 726 842 954 728 609 729 843
8 844 740 691 790 955 850 802 899
8 733 625 740 844 845 739 850 955
8 734 623 739 845 846 738 849 956
8 735 621 738 846 847 737 848 957
8 744 647 737 847 854 759 848 957
8 738 627 742 849 848 741 851 958
8 848 741 851 958 759 662 773 868
8 850 743 700 802 959 852 807 906
8 849 742 628 739 959 852 743 850
8 854 759 868 965 745 648 760 855
8 746 649 760 855 856 761 871 966
8 860 765 653 750 967 872 761 856
8 968 873 762 857 858 763 651 748
8 862 769 657 753 968 873 762 857
8 859 764 874 969 749 652 763 858
8 752 654 766 861 859 764 875 970
8 751 655 765 860 861 766 876 971
8 754 658 769 862 863 770 879 972
8 755 659 770 863 864 771 881 974
8 976 882 772 867 864 771 660 757
8 866 768 877 977 756 656 767 865
8 867 772 878 978 758 661 768 866
8 760 663 773 868 871 774 883 980
8 870 781 837 948 982 890 780 869
8 982 890 780 869 877 782 670 767
8 761 664 774 871 872 775 884 984
8 876 776 665 765 985 885 775 872
8 873 777 668 763 986 887 779 874
8 769 674 777 873 879 786 887 986
8 764 669 778 875 874 779 888 987
8 766 667 776 876 875 778 886 988
8 878 783 892 989 768 671 782 877
8 878 783 672 772 990 893 784 882
8 880 787 675 770 991 896 786 879
8 880 787 895 992 770 675 785 881
8 881 785 894 993 771 673 784 882
8 1006 905 799 898 897 798 687 789
8 919 814 905 1006 813 705 798 897
8 791 689 799 898 901 801 907 1007
8 900 803 909 1009 790 691 802 899
8 795 693 804 903 900 803 910 1010
8 902 800 908 1011 796 694 805 904
8 793 690 801 901 902 800 908 1011
8 797 695 805 904 903 804 911 1012
8 799 697 806 905 907 808 912 1013
8 920 815 912 1013 814 706 806 905
8 802 700 810 909 906 807 913 1014
8 801 699 808 907 908 809 914 1015
8 805 703 809 908 911 812 915 1016
8 803 701 811 910 909 810 916 1017
8 911 812 917 1018 804 702 811 910
8 925 821 920 1030 818 710 814 919
8 928 823 921 1031 821 712 815 920
8 922 819 717 831 1033 926 829 941
8 923 820 709 816 1034 927 819 922
8 1035 929 822 924 923 820 711 817
8 925 821 710 818 1036 930 822 924
8 1038 933 825 929 927 826 714 820
8 926 827 716 829 1039 935 828 939
8 927 826 715 819 1040 934 827 926
8 928 823 712 821 1041 931 824 930
8 1042 932 824 930 929 825 713 822
8 829 716 830 942 939 828 940 1058
8 831 717 832 944 941 829 942 1060
8 942 830 718 832 1061 943 833 945
8 944 832 720 834 1062 945 835 946
8 981 889 947 1064 870 781 837 948
8 948 837 949 1067 869 780 838 950
8 975 869 950 1069 865 767 839 952
8 950 838 951 1070 839 725 840 953
8 952 839 953 1071 841 726 842 954
8 955 850 802 899 1072 959 906 1008
8 956 849 739 845 1072 959 850 955
8 846 738 849 956 957 848 958 1073
8 957 848 958 1073 854 759 868 965
8 849 742 852 959 958 851 961 1076
8 960 853 961 1076 906 807 852 959
8 958 851 961 1076 868 773 883 980
8 960 853 807 906 1077 963 913 1014
8 855 760 868 965 966 871 980 1085
8 856 761 871 966 967 872 984 1086
8 971 876 765 860 1087 985 872 967
8 968 873 763 858 1088 986 874 969
8 862 769 873 968 972 879 986 1088
8 859 764 875 970 969 874 987 1089
8 861 766 876 971 970 875 988 1090
8 973 880 770 863 1091 991 879 972
8 973 880 992 1092 863 770 881 974
8 974 881 993 1093 864 771 882 976
8 979 870 948 1066 1094 982 869 975
8 1094 982 869 975 977 877 767 865
8 978 878 772 867 1095 990 882 976
8 978 878 989 1096 866 768 877 977
8 871 774 883 980 984 884 994 1099
8 983 891 999 1100 870 781 889 981
8 1101 1000 890 982 989 892 782 877
8 983 891 781 870 1101 1000 890 982
8 872 775 884 984 985 885 995 1103
8 876 776 885 985 988 886 996 1104
8 986 887 779 874 1105 998 888 987
8 879 786 887 986 991 896 998 1105
8 875 778 886 988 987 888 997 1106
8 990 893 1002 1107 878 783 892 989
8 1108 1003 893 990 993 894 784 882
8 880 787 896 991 992 895 1005 1109
8 993 894 785 881 1110 1004 895 992
8 898 799 905 1006 1007 907 1013 1120
8 1030 920 1013 1120 919 814 905 1006
8 901 801 907 1007 1011 908 1015 1121
8 899 802 909 1009 1008 906 1014 1122
8 900 803 910 1010 1009 909 1017 1123
8 1012 911 1018 1124 903 804 910 1010
8 904 805 908 1011 1012 911 1016 1125
8 1013 912 1020 1127 907 808 914 1015
8 1031 921 1020 1127 920 815 912 1013
8 1019 918 962 1075 1128 1021 913 1014
8 1128 1021 913 1014 1017 916 810 909
8 1015 914 1022 1129 908 809 915 1016
8 1016 915 1023 1130 911 812 917 1018
8 1018 917 1024 1131 910 811 916 1017
8 1037 928 1031 1148 925 821 920 1030
8 928 823 931 1041 1031 921 1032 1149
8 1033 926 829 941 1151 1039 939 1057
8 1034 927 819 922 1152 1040 926 1033
8 1153 1038 929 1035 1034 927 820 923
8 1154 1042 930 1036 1035 929 822 924
8 1037 928 821 925 1155 1041 930 1036
8 1039 935 828 939 1156 1047 938 1055
8 1157 1043 932 1042 1038 933 825 929
8 1038 933 826 927 1158 1045 934 1040
8 1040 934 827 926 1159 1046 935 1039
8 930 824 932 1042 1041 931 1044 1160
8 1051 936 1048 1165 1175 1052 937 1053
8 1156 1047 938 1055 1053 937 1054 1178
8 939 828 940 1058 1055 938 1056 1181
8 941 829 942 1060 1057 939 1058 1183
8 942 830 943 1061 1058 940 1059 1184
8 1060 942 832 944 1185 1061 945 1062
8 1082 964 1063 1188 981 889 947 1064
8 1097 981 1064 1190 979 870 948 1066
8 1064 947 1065 1191 948 837 949 1067
8 1066 948 1067 1193 975 869 950 1069
8 1067 949 1068 1194 950 838 951 1070
8 1069 950 1070 1195 952 839 953 1071
8 956 849 959 1072 1073 958 1076 1197
8 1074 960 1076 1197 1008 906 959 1072
8 1073 958 1076 1197 965 868 980 1085
8 1074 960 906 1008 1198 1077 1014 1122
8 1133 1026 1079 1199 1019 918 962 1075
8 1077 963 913 1014 1200 1080 962 1075
8 960 853 963 1077 1076 961 1078 1201
8 980 883 961 1076 1099 994 1078 1201
8 1210 1083 964 1082 1100 999 889 981
8 966 871 980 1085 1086 984 1099 1215
8 967 872 984 1086 1087 985 1103 1216
8 971 876 985 1087 1090 988 1104 1217
8 1088 986 874 969 1218 1105 987 1089
8 972 879 986 1088 1091 991 1105 1218
8 970 875 988 1090 1089 987 1106 1219
8 973 880 991 1091 1092 992 1109 1220
8 1093 993 881 974 1221 1110 992 1092
8 1222 1108 990 1095 1093 993 882 976
8 1223 1101 982 1094 1096 989 877 977
8 1098 983 870 979 1223 1101 982 1094
8 1095 990 1107 1224 978 878 989 1096
8 1098 983 1100 1225 979 870 981 1097
8 984 884 994 1099 1103 995 1111 1227
8 1102 1001 1115 1228 983 891 999 1100
8 1101 1000 892 989 1229 1116 1002 1107
8 1102 1001 891 983 1229 1116 1000 1101
8 985 885 995 1103 1104 996 1112 1230
8 988 886 996 1104 1106 997 1113 1231
8 1105 998 888 987 1232 1114 997 1106
8 991 896 998 1105 1109 1005 1114 1232
8 1108 1003 1117 1233 990 893 1002 1107
8 1108 1003 894 993 1233 1117 1004 1110
8 992 895 1005 1109 1110 1004 1118 1234
8 1120 1013 1127 1244 1007 907 1015 1121
8 1148 1031 1127 1244 1030 920 1013 1120
8 1121 1015 1129 1245 1011 908 1016 1125
8 1126 1019 1075 1196 1246 1128 1014 1122
8 1246 1128 1014 1122 1123 1017 909 1009
8 1124 1018 1131 1247 1010 910 1017 1123
8 1125 1016 1130 1248 1012 911 1018 1124
8 1127 1020 1137 1254 1015 914 1022 1129
8 1031 921 1032 1149 1127 1020 1137 1254
8 1134 1027 918 1019 1257 1140 1021 1128
8 1257 1140 1021 1128 1131 1024 916 1017
8 1129 1022 1141 1258 1016 915 1023 1130
8 1130 1023 1142 1259 1018 917 1024 1131
8 1261 1144 1025 1132 1133 1026 1079 1199
8 1255 1138 1025 1132 1135 1028 1144 1261
8 1133 1026 918 1019 1262 1145 1027 1134
8 1136 1029 1139 1256 1263 1146 1028 1135
8 1037 928 1041 1155 1148 1031 1149 1275
8 1041 931 1044 1160 1149 1032 1150 1276
8 1151 1039 939 1057 1278 1156 1055 1180
8 1152 1040 926 1033 1279 1159 1039 1151
8 1153 1038 927 1034 1280 1158 1040 1152
8 1281 1157 1042 1154 1153 1038 929 1035
8 1036 930 1042 1154 1155 1041 1160 1282
8 1283 1164 1046 1159 1156 1047 935 1039
8 1165 1048 1164 1283 1053 937 1047 1156
8 1157 1043 933 1038 1284 1161 1045 1158
8 1157 1043 1161 1284 1042 932 1044 1160
8 1040 934 1046 1159 1158 1045 1163 1285
8 1166 1049 1167 1292 1051 936 1048 1165
8 1166 1049 936 1051 1293 1168 1050 1172
8 1051 936 1052 1175 1172 1050 1173 1306
8 1174 1051 1165 1290 1308 1175 1053 1177
8 1053 937 1054 1178 1175 1052 1176 1309
8 1278 1156 1055 1180 1177 1053 1178 1311
8 1055 938 1056 1181 1178 1054 1179 1312
8 1057 939 1058 1183 1180 1055 1181 1314
8 1058 940 1059 1184 1181 1056 1182 1315
8 1060 942 1061 1185 1183 1058 1184 1316
8 1208 1081 1187 1321 1082 964 1063 1188
8 1209 1082 1188 1322 1097 981 1064 1190
8 1188 1063 1189 1323 1064 947 1065 1191
8 1190 1064 1191 1325 1066 948 1067 1193
8 1191 1065 1192 1326 1067 949 1068 1194
8 1067 1193 1069 950 1194 1327 1195 1070
8 1250 1133 1199 1330 1126 1019 1075 1196
8 1198 1077 1014 1122 1331 1200 1075 1196
8 1074 960 1077 1198 1197 1076 1201 1332
8 1085 980 1076 1197 1215 1099 1201 1332
8 1199 1079 1203 1333 1075 962 1080 1200
8 1132 1025 1119 1243 1199 1079 1203 1333
8 1201 1078 963 1077 1334 1202 1080 1200
8 1099 994 1078 1201 1227 1111 1202 1334
8 1343 1207 1081 1208 1210 1083 964 1082
8 1214 1084 1186 1319 1343 1207 1081 1208
8 1345 1210 1082 1209 1225 1100 981 1097
8 1346 1211 1083 1210 1228 1115 999 1100
8 1086 984 1099 1215 1216 1103 1227 1352
8 1087 985 1103 1216 1217 1104 1230 1353
8 1090 988 1104 1217 1219 1106 1231 1354
8 1218 1105 987 1089 1355 1232 1106 1219
8 1091 991 1105 1218 1220 1109 1232 1355
8 1092 992 1109 1220 1221 1110 1234 1356
8 1222 1108 1233 1357 1095 990 1107 1224
8 1222 1108 993 1093 1357 1233 1110 1221
8 1223 1101 989 1096 1358 1229 1107 1224
8 1226 1102 983 1098 1358 1229 1101 1223
8 1226 1102 1228 1359 1098 983 1100 1225
8 1103 995 1111 1227 1230 1112 1235 1360
8 1107 1002 1117 1233 1229 1116 1240 1362
8 1102 1001 1116 1229 1228 1115 1240 1362
8 1104 996 1112 1230 1231 1113 1236 1363
8 1364 1237 1114 1232 1231 1113 997 1106
8 1109 1005 1114 1232 1234 1118 1238 1365
8 1110 1004 1118 1234 1233 1117 1241 1366
8 1242 1374 1255 1138 1119 1243 1132 1025
8 1244 1127 1254 1376 1121 1015 1129 1245
8 1148 1031 1149 1275 1244 1127 1254 1376
8 1245 1129 1258 1377 1125 1016 1130 1248
8 1251 1134 1019 1126 1378 1257 1128 1246
8 1378 1257 1128 1246 1247 1131 1017 1123
8 1248 1130 1259 1379 1124 1018 1131 1247
8 1261 1381 1250 1133 1132 1249 1330 1199
8 1255 1380 1252 1135 1132 1249 1381 1261
8 1250 1133 1019 1126 1382 1262 1134 1251
8 1253 1136 1256 1385 1384 1263 1135 1252
8 1254 1137 1265 1387 1129 1022 1141 1258
8 1149 1032 1150 1276 1254 1137 1265 1387
8 1028 1135 1255 1138 1139 1256 1388 1266
8 1136 1029 1147 1264 1256 1139 1267 1389
8 1390 1268 1140 1257 1259 1142 1024 1131
8 1260 1143 1027 1134 1390 1268 1140 1257
8 1258 1141 1269 1391 1130 1023 1142 1259
8 1262 1145 1027 1134 1393 1271 1143 1260
8 1261 1144 1026 1133 1394 1272 1145 1262
8 1135 1028 1144 1261 1263 1146 1272 1394
8 1136 1029 1146 1263 1264 1147 1273 1395
8 1155 1041 1160 1282 1275 1149 1276 1405
8 1276 1150 1044 1160 1406 1277 1162 1286
8 1408 1283 1159 1279 1278 1156 1039 1151
8 1290 1165 1283 1408 1177 1053 1156 1278
8 1152 1040 1159 1279 1280 1158 1285 1409
8 1281 1157 1038 1153 1410 1284 1158 1280
8 1281 1157 1284 1410 1154 1042 1160 1282
8 1159 1046 1164 1283 1285 1163 1289 1412
8 1292 1167 1289 1412 1165 1048 1164 1283
8 1158 1045 1163 1285 1284 1161 1288 1413
8 1284 1161 1288 1413 1160 1044 1162 1286
8 1291 1166 1292 1418 1174 1051 1165 1290
8 1291 1166 1051 1174 1419 1293 1172 1305
8 1294 1169 1296 1421 1166 1049 1167 1292
8 1293 1168 1050 1172 1422 1295 1171 1303
8 1294 1169 1049 1166 1423 1297 1168 1293
8 1422 1295 1171 1303 1301 1170 1302 1435
8 1172 1050 1173 1306 1303 1171 1304 1438
8 1174 1051 1175 1308 1305 1172 1306 1440
8 1175 1052 1176 1309 1306 1173 1307 1441
8 1177 1053 1178 1311 1308 1175 1309 1443
8 1178 1054 1179 1312 1309 1176 1310 1444
8 1180 1055 1181 1314 1311 1178 1312 1446
8 1056 1181 1312 1179 1182 1315 1447 1313
8 1183 1058 1184 1316 1314 1181 1315 1448
8 1319 1186 1084 1214 1451 1317 1213 1350
8 1319 1186 1318 1453 1208 1081 1187 1321
8 1321 1187 1320 1456 1188 1063 1189 1323
8 1344 1208 1321 1457 1209 1082 1188 1322
8 1322 1188 1323 1458 1190 1064 1191 1325
8 1323 1189 1324 1459 1191 1065 1192 1326
8 1191 1325 1193 1067 1326 1460 1327 1194
8 1242 1374 1243 1119 1328 1462 1335 1204
8 1330 1199 1333 1465 1196 1075 1200 1331
8 1132 1249 1330 1199 1243 1375 1465 1333
8 1332 1201 1077 1198 1466 1334 1200 1331
8 1215 1099 1201 1332 1352 1227 1334 1466
8 1119 1243 1333 1203 1204 1335 1470 1338
8 1333 1203 1338 1470 1200 1080 1202 1334
8 1227 1111 1202 1334 1360 1235 1338 1470
8 1328 1462 1335 1204 1205 1336 1471 1339
8 1337 1206 1340 1472 1464 1329 1205 1336
8 1346 1211 1342 1479 1210 1083 1207 1343
8 1346 1211 1115 1228 1479 1342 1239 1361
8 1348 1212 1084 1214 1479 1342 1207 1343
8 1480 1343 1208 1344 1345 1210 1082 1209
8 1351 1214 1319 1454 1480 1343 1208 1344
8 1481 1346 1210 1345 1359 1228 1100 1225
8 1348 1212 1347 1483 1214 1084 1213 1350
8 1216 1103 1227 1352 1353 1230 1360 1488
8 1217 1104 1230 1353 1354 1231 1363 1489
8 1490 1364 1232 1355 1354 1231 1106 1219
8 1220 1109 1232 1355 1356 1234 1365 1491
8 1221 1110 1234 1356 1357 1233 1366 1492
8 1224 1107 1233 1357 1358 1229 1362 1493
8 1226 1102 1229 1358 1359 1228 1362 1493
8 1230 1112 1235 1360 1363 1236 1367 1496
8 1361 1239 1115 1228 1497 1371 1240 1362
8 1366 1241 1372 1498 1233 1117 1240 1362
8 1364 1237 1113 1231 1499 1368 1236 1363
8 1364 1237 1368 1499 1232 1114 1238 1365
8 1234 1118 1238 1365 1366 1241 1369 1500
8 1507 1373 1242 1374 1388 1266 1138 1255
8 1508 1374 1243 1375 1380 1255 1132 1249
8 1376 1254 1387 1509 1245 1129 1258 1377
8 1275 1149 1276 1405 1376 1254 1387 1509
8 1377 1258 1391 1510 1248 1130 1259 1379
8 1511 1390 1257 1378 1379 1259 1131 1247
8 1383 1260 1134 1251 1511 1390 1257 1378
8 1252 1135 1256 1385 1380 1255 1388 1512
8 1261 1381 1513 1394 1133 1250 1382 1262
8 1135 1252 1384 1263 1261 1381 1513 1394
8 1382 1262 1134 1251 1514 1393 1260 1383
8 1253 1136 1263 1384 1386 1264 1395 1516
8 1253 1136 1264 1386 1385 1256 1389 1517
8 1387 1265 1397 1519 1258 1141 1269 1391
8 1276 1150 1277 1406 1387 1265 1397 1519
8 1256 1139 1267 1389 1388 1266 1398 1520
8 1264 1147 1274 1396 1389 1267 1399 1521
8 1392 1270 1143 1260 1522 1400 1268 1390
8 1390 1268 1142 1259 1522 1400 1269 1391
8 1392 1270 1401 1523 1260 1143 1271 1393
8 1272 1394 1524 1402 1145 1262 1393 1271
8 1395 1273 1146 1263 1524 1402 1272 1394
8 1273 1395 1264 1147 1403 1526 1396 1274
8 1405 1276 1160 1282 1534 1406 1286 1411
8 1414 1287 1407 1535 1286 1162 1277 1406
8 1279 1159 1283 1408 1409 1285 1412 1537
8 1418 1292 1412 1537 1290 1165 1283 1408
8 1280 1158 1285 1409 1410 1284 1413 1538
8 1410 1284 1413 1538 1282 1160 1286 1411
8 1285 1163 1289 1412 1413 1288 1417 1540
8 1421 1296 1417 1540 1292 1167 1289 1412
8 1414 1287 1162 1286 1541 1416 1288 1413
8 1420 1294 1421 1545 1291 1166 1292 1418
8 1419 1293 1172 1305 1546 1422 1303 1437
8 1420 1294 1166 1291 1547 1423 1293 1419
8 1294 1169 1297 1423 1421 1296 1425 1548
8 1423 1297 1168 1293 1549 1424 1295 1422
8 1301 1170 1298 1427 1422 1295 1424 1549
8 1432 1300 1428 1554 1301 1170 1298 1427
8 1431 1299 1428 1554 1560 1430 1300 1432
8 1563 1433 1300 1432 1435 1302 1170 1301
8 1546 1422 1303 1437 1434 1301 1435 1565
8 1303 1171 1304 1438 1435 1302 1436 1566
8 1305 1172 1306 1440 1437 1303 1438 1568
8 1306 1173 1307 1441 1438 1304 1439 1569
8 1308 1175 1309 1443 1440 1306 1441 1571
8 1309 1176 1310 1444 1441 1307 1442 1572
8 1311 1178 1312 1446 1443 1309 1444 1574
8 1179 1312 1444 1310 1313 1447 1575 1445
8 1314 1181 1315 1448 1446 1312 1447 1576
8 1350 1213 1349 1486 1451 1317 1449 1579
8 1451 1317 1450 1581 1319 1186 1318 1453
8 1454 1319 1214 1351 1582 1451 1350 1487
8 1453 1318 1452 1584 1321 1187 1320 1456
8 1454 1319 1453 1585 1344 1208 1321 1457
8 1456 1320 1455 1586 1323 1189 1324 1459
8 1457 1321 1456 1587 1322 1188 1323 1458
8 1458 1323 1459 1588 1325 1191 1326 1460
8 1205 1336 1464 1329 1328 1462 1590 1461
8 1507 1373 1461 1590 1374 1242 1328 1462
8 1508 1374 1462 1591 1375 1243 1335 1467
8 1337 1206 1329 1464 1473 1341 1463 1594
8 1375 1243 1335 1467 1465 1333 1470 1596
8 1465 1333 1470 1596 1331 1200 1334 1466
8 1352 1227 1334 1466 1488 1360 1470 1596
8 1591 1462 1336 1468 1467 1335 1471 1597
8 1469 1337 1472 1598 1595 1464 1336 1468
8 1471 1339 1474 1600 1335 1204 1338 1470
8 1600 1474 1367 1496 1470 1338 1235 1360
8 1336 1205 1340 1472 1471 1339 1475 1601
8 1337 1206 1341 1473 1472 1340 1476 1602
8 1495 1370 1478 1609 1361 1239 1342 1479
8 1348 1212 1342 1479 1483 1347 1478 1609
8 1481 1346 1479 1610 1345 1210 1343 1480
8 1481 1346 1228 1359 1610 1479 1361 1494
8 1484 1348 1214 1351 1610 1479 1343 1480
8 1483 1347 1482 1612 1350 1213 1349 1486
8 1484 1348 1483 1613 1351 1214 1350 1487
8 1353 1230 1360 1488 1489 1363 1496 1616
8 1490 1364 1231 1354 1617 1499 1363 1489
8 1490 1364 1499 1617 1355 1232 1365 1491
8 1356 1234 1365 1491 1492 1366 1500 1619
8 1492 1366 1498 1620 1357 1233 1362 1493
8 1494 1361 1228 1359 1621 1497 1362 1493
8 1495 1370 1239 1361 1622 1504 1371 1497
8 1363 1236 1367 1496 1499 1368 1501 1623
8 1497 1371 1240 1362 1624 1505 1372 1498
8 1625 1503 1372 1498 1500 1369 1241 1366
8 1365 1238 1368 1499 1500 1369 1502 1626
8 1520 1398 1506 1633 1388 1266 1373 1507
8 1634 1507 1374 1508 1512 1388 1255 1380
8 1509 1387 1519 1635 1377 1258 1391 1510
8 1405 1276 1406 1534 1509 1387 1519 1635
8 1515 1392 1260 1383 1636 1522 1390 1511
8 1511 1390 1259 1379 1636 1522 1391 1510
8 1385 1256 1389 1517 1512 1388 1520 1637
8 1513 1394 1262 1382 1638 1524 1393 1514
8 1395 1516 1638 1524 1263 1384 1513 1394
8 1515 1392 1523 1639 1383 1260 1393 1514
8 1516 1395 1526 1640 1386 1264 1396 1518
8 1386 1264 1396 1518 1517 1389 1521 1641
8 1519 1397 1527 1643 1391 1269 1400 1522
8 1535 1407 1527 1643 1406 1277 1397 1519
8 1389 1267 1399 1521 1520 1398 1528 1644
8 1645 1529 1399 1521 1525 1404 1274 1396
8 1392 1270 1400 1522 1523 1401 1531 1646
8 1524 1402 1271 1393 1648 1532 1401 1523
8 1403 1526 1648 1532 1273 1395 1524 1402
8 1525 1404 1274 1396 1649 1533 1403 1526
8 1539 1414 1535 1657 1411 1286 1406 1534
8 1542 1415 1536 1658 1414 1287 1407 1535
8 1409 1285 1412 1537 1538 1413 1540 1660
8 1545 1421 1540 1660 1418 1292 1412 1537
8 1539 1414 1286 1411 1661 1541 1413 1538
8 1540 1417 1544 1663 1413 1288 1416 1541
8 1421 1296 1425 1548 1540 1417 1544 1663
8 1542 1415 1287 1414 1664 1543 1416 1541
8 1420 1294 1423 1547 1545 1421 1548 1666
8 1547 1423 1293 1419 1667 1549 1422 1546
8 1434 1301 1427 1553 1546 1422 1549 1667
8 1423 1297 1424 1549 1548 1425 1550 1668
8 1551 1426 1550 1668 1427 1298 1424 1549
8 1551 1426 1298 1427 1671 1552 1428 1554
8 1562 1432 1554 1674 1434 1301 1427 1553
8 1431 1299 1429 1558 1554 1428 1555 1675
8 1431 1299 1430 1560 1558 1429 1557 1680
8 1560 1430 1300 1432 1683 1559 1433 1563
8 1561 1431 1554 1674 1684 1560 1432 1562
8 1685 1563 1432 1562 1565 1435 1301 1434
8 1435 1302 1436 1566 1563 1433 1564 1686
8 1437 1303 1438 1568 1565 1435 1566 1688
8 1438 1304 1439 1569 1566 1436 1567 1689
8 1440 1306 1441 1571 1568 1438 1569 1691
8 1441 1307 1442 1572 1569 1439 1570 1692
8 1443 1309 1444 1574 1571 1441 1572 1694
8 1310 1444 1572 1442 1445 1575 1695 1573
8 1446 1312 1447 1576 1574 1444 1575 1696
8 1486 1349 1485 1614 1579 1449 1577 1699
8 1451 1317 1449 1579 1581 1450 1578 1701
8 1487 1350 1486 1615 1582 1451 1579 1702
8 1581 1450 1580 1704 1453 1318 1452 1584
8 1582 1451 1581 1705 1454 1319 1453 1585
8 1584 1452 1583 1706 1456 1320 1455 1586
8 1585 1453 1584 1707 1457 1321 1456 1587
8 1587 1456 1586 1708 1458 1323 1459 1588
8 1633 1506 1589 1710 1507 1373 1461 1590
8 1464 1329 1461 1590 1594 1463 1589 1710
8 1468 1336 1462 1591 1595 1464 1590 1711
8 1634 1507 1590 1711 1508 1374 1462 1591
8 1473 1341 1463 1594 1603 1477 1593 1716
8 1469 1337 1464 1595 1599 1473 1594 1717
8 1471 1597 1467 1335 1600 1718 1596 1470
8 1718 1600 1496 1616 1596 1470 1360 1488
8 1336 1468 1597 1471 1472 1598 1719 1601
8 1469 1337 1473 1599 1598 1472 1602 1720
8 1722 1604 1501 1623 1600 1474 1367 1496
8 1475 1601 1471 1339 1604 1722 1600 1474
8 1602 1476 1605 1723 1472 1340 1475 1601
8 1476 1602 1724 1606 1341 1473 1603 1477
8 1483 1347 1478 1609 1612 1482 1608 1731
8 1495 1370 1504 1622 1609 1478 1608 1731
8 1618 1495 1609 1732 1494 1361 1479 1610
8 1484 1348 1479 1610 1613 1483 1609 1732
8 1486 1349 1482 1612 1614 1485 1611 1733
8 1613 1483 1612 1734 1487 1350 1486 1615
8 1489 1363 1496 1616 1617 1499 1623 1736
8 1491 1365 1499 1617 1619 1500 1626 1737
8 1618 1495 1361 1494 1738 1622 1497 1621
8 1739 1625 1498 1620 1619 1500 1366 1492
8 1621 1497 1362 1493 1740 1624 1498 1620
8 1742 1631 1504 1622 1624 1505 1371 1497
8 1743 1628 1502 1626 1623 1501 1368 1499
8 1744 1630 1505 1624 1625 1503 1372 1498
8 1745 1629 1503 1625 1626 1502 1369 1500
8 1520 1398 1528 1644 1633 1506 1632 1751
8 1637 1520 1633 1752 1512 1388 1507 1634
8 1635 1519 1643 1753 1510 1391 1522 1636
8 1657 1535 1643 1753 1534 1406 1519 1635
8 1515 1392 1522 1636 1639 1523 1646 1754
8 1517 1389 1521 1641 1637 1520 1644 1755
8 1524 1638 1756 1648 1393 1514 1639 1523
8 1640 1526 1395 1516 1756 1648 1524 1638
8 1642 1525 1396 1518 1757 1649 1526 1640
8 1758 1645 1521 1641 1642 1525 1396 1518
8 1646 1531 1400 1522 1760 1650 1527 1643
8 1535 1407 1536 1658 1643 1527 1650 1760
8 1521 1399 1529 1645 1644 1528 1651 1761
8 1647 1530 1652 1762 1525 1404 1529 1645
8 1401 1523 1648 1532 1531 1646 1763 1655
8 1525 1404 1533 1649 1647 1530 1654 1765
8 1533 1649 1766 1656 1403 1526 1648 1532
8 1662 1542 1658 1774 1539 1414 1535 1657
8 1542 1415 1543 1664 1658 1536 1659 1775
8 1660 1540 1663 1777 1538 1413 1541 1661
8 1545 1421 1548 1666 1660 1540 1663 1777
8 1662 1542 1414 1539 1778 1664 1541 1661
8 1664 1543 1416 1541 1779 1665 1544 1663
8 1548 1425 1550 1668 1663 1544 1665 1779
8 1547 1423 1549 1667 1666 1548 1668 1781
8 1670 1551 1668 1781 1553 1427 1549 1667
8 1551 1426 1552 1671 1668 1550 1669 1782
8 1670 1551 1427 1553 1784 1671 1554 1674
8 1675 1555 1672 1785 1554 1428 1552 1671
8 1678 1556 1673 1789 1558 1429 1555 1675
8 1561 1431 1558 1681 1674 1554 1675 1790
8 1794 1677 1556 1678 1680 1557 1429 1558
8 1560 1430 1559 1683 1680 1557 1679 1797
8 1561 1431 1560 1684 1681 1558 1680 1798
8 1563 1433 1564 1686 1683 1559 1682 1800
8 1684 1560 1432 1562 1801 1683 1563 1685
8 1565 1435 1566 1688 1685 1563 1686 1802
8 1566 1436 1567 1689 1686 1564 1687 1803
8 1568 1438 1569 1691 1688 1566 1689 1805
8 1569 1439 1570 1692 1689 1567 1690 1806
8 1571 1441 1572 1694 1691 1569 1692 1808
8 1442 1572 1692 1570 1573 1695 1809 1693
8 1574 1444 1575 1696 1694 1572 1695 1810
8 1614 1485 1592 1712 1699 1577 1697 1813
8 1579 1449 1577 1699 1701 1578 1698 1815
8 1615 1486 1614 1735 1702 1579 1699 1816
8 1701 1578 1700 1818 1581 1450 1580 1704
8 1582 1451 1579 1702 1705 1581 1701 1819
8 1704 1580 1703 1820 1584 1452 1583 1706
8 1705 1581 1704 1821 1585 1453 1584 1707
8 1707 1584 1706 1822 1587 1456 1586 1708
8 1710 1589 1506 1633 1824 1709 1632 1751
8 1594 1463 1589 1710 1716 1593 1709 1824
8 1752 1633 1710 1825 1634 1507 1590 1711
8 1595 1464 1590 1711 1717 1594 1710 1825
8 1830 1714 1592 1712 1733 1611 1485 1614
8 1603 1477 1593 1716 1725 1607 1715 1834
8 1599 1473 1594 1717 1721 1603 1716 1835
8 1837 1722 1623 1736 1718 1600 1496 1616
8 1719 1601 1722 1837 1597 1471 1600 1718
8 1602 1720 1598 1472 1723 1838 1719 1601
8 1720 1602 1473 1599 1839 1724 1603 1721
8 1723 1605 1726 1840 1601 1475 1604 1722
8 1840 1726 1628 1743 1722 1604 1501 1623
8 1724 1606 1727 1841 1602 1476 1605 1723
8 1725 1607 1728 1842 1603 1477 1606 1724
8 1612 1482 1608 1731 1733 1611 1730 1849
8 1741 1627 1730 1849 1622 1504 1608 1731
8 1613 1483 1609 1732 1734 1612 1731 1850
8 1618 1495 1622 1738 1732 1609 1731 1850
8 1615 1486 1612 1734 1735 1614 1733 1851
8 1852 1743 1626 1737 1736 1623 1499 1617
8 1853 1745 1625 1739 1737 1626 1500 1619
8 1855 1742 1622 1738 1740 1624 1497 1621
8 1856 1744 1624 1740 1739 1625 1498 1620
8 1741 1627 1504 1622 1857 1746 1631 1742
8 1742 1631 1505 1624 1858 1749 1630 1744
8 1859 1747 1629 1745 1743 1628 1502 1626
8 1860 1748 1630 1744 1745 1629 1503 1625
8 1644 1528 1651 1761 1751 1632 1750 1865
8 1637 1520 1644 1755 1752 1633 1751 1866
8 1754 1646 1522 1636 1867 1760 1643 1753
8 1657 1535 1658 1774 1753 1643 1760 1867
8 1639 1523 1646 1754 1756 1648 1763 1868
8 1641 1521 1645 1758 1755 1644 1761 1869
8 1757 1649 1526 1640 1870 1766 1648 1756
8 1642 1525 1649 1757 1759 1647 1765 1871
8 1759 1647 1762 1872 1642 1525 1645 1758
8 1760 1650 1767 1874 1646 1531 1655 1763
8 1658 1536 1659 1775 1760 1650 1767 1874
8 1762 1652 1768 1875 1645 1529 1651 1761
8 1764 1653 1769 1876 1647 1530 1652 1762
8 1656 1766 1877 1773 1532 1648 1763 1655
8 1771 1879 1765 1654 1653 1764 1647 1530
8 1533 1649 1765 1654 1656 1766 1880 1772
8 1662 1542 1664 1778 1774 1658 1775 1887
8 1664 1543 1665 1779 1775 1659 1776 1888
8 1778 1664 1541 1661 1890 1779 1663 1777
8 1666 1548 1668 1781 1777 1663 1779 1890
8 1782 1669 1780 1891 1668 1550 1665 1779
8 1670 1551 1671 1784 1781 1668 1782 1893
8 1671 1552 1672 1785 1782 1669 1783 1894
8 1790 1675 1785 1896 1674 1554 1671 1784
8 1675 1555 1673 1789 1785 1672 1786 1897
8 1792 1676 1788 1903 1678 1556 1673 1789
8 1795 1678 1789 1904 1681 1558 1675 1790
8 1792 1676 1556 1678 1906 1791 1677 1794
8 1680 1557 1679 1797 1794 1677 1793 1909
8 1910 1794 1678 1795 1798 1680 1558 1681
8 1683 1559 1682 1800 1797 1679 1796 1912
8 1684 1560 1683 1801 1798 1680 1797 1913
8 1686 1564 1687 1803 1800 1682 1799 1915
8 1685 1563 1686 1802 1801 1683 1800 1916
8 1688 1566 1689 1805 1802 1686 1803 1917
8 1689 1567 1690 1806 1803 1687 1804 1918
8 1691 1569 1692 1808 1805 1689 1806 1920
8 1692 1570 1693 1809 1806 1690 1807 1921
8 1694 1572 1695 1810 1808 1692 1809 1922
8 1829 1713 1811 1926 1712 1592 1697 1813
8 1813 1697 1812 1928 1699 1577 1698 1815
8 1735 1614 1712 1828 1816 1699 1813 1929
8 1815 1698 1814 1931 1701 1578 1700 1818
8 1702 1579 1699 1816 1819 1701 1815 1932
8 1818 1700 1817 1933 1704 1580 1703 1820
8 1819 1701 1818 1934 1705 1581 1704 1821
8 1821 1704 1820 1935 1707 1584 1706 1822
8 1824 1709 1632 1751 1937 1823 1750 1865
8 1716 1593 1709 1824 1834 1715 1823 1937
8 1825 1710 1633 1752 1938 1824 1751 1866
8 1717 1594 1710 1825 1835 1716 1824 1938
8 1945 1830 1712 1828 1851 1733 1614 1735
8 1830 1714 1831 1946 1712 1592 1713 1829
8 1947 1832 1714 1830 1849 1730 1611 1733
8 1843 1729 1607 1725 1950 1833 1715 1834
8 1721 1603 1716 1835 1836 1725 1834 1951
8 1836 1725 1842 1953 1721 1603 1724 1839
8 1723 1838 1719 1601 1840 1954 1837 1722
8 1954 1840 1743 1852 1837 1722 1623 1736
8 1724 1839 1720 1602 1841 1955 1838 1723
8 1841 1727 1844 1956 1723 1605 1726 1840
8 1956 1844 1747 1859 1840 1726 1628 1743
8 1728 1842 1724 1606 1845 1957 1841 1727
8 1725 1607 1729 1843 1842 1728 1846 1958
8 1741 1627 1746 1857 1849 1730 1848 1965
8 1734 1612 1731 1850 1851 1733 1849 1966
8 1854 1741 1849 1966 1738 1622 1731 1850
8 1967 1859 1745 1853 1852 1743 1626 1737
8 1968 1860 1744 1856 1853 1745 1625 1739
8 1854 1741 1622 1738 1969 1857 1742 1855
8 1855 1742 1624 1740 1970 1858 1744 1856
8 1857 1746 1631 1742 1971 1861 1749 1858
8 1858 1749 1630 1744 1972 1863 1748 1860
8 1859 1747 1862 1973 1745 1629 1748 1860
8 1875 1768 1864 1977 1761 1651 1750 1865
8 1755 1644 1761 1869 1866 1751 1865 1978
8 1867 1760 1874 1979 1754 1646 1763 1868
8 1774 1658 1775 1887 1867 1760 1874 1979
8 1870 1766 1648 1756 1980 1877 1763 1868
8 1872 1762 1875 1981 1758 1645 1761 1869
8 1757 1649 1766 1870 1871 1765 1880 1982
8 1983 1879 1764 1873 1871 1765 1647 1759
8 1873 1764 1876 1984 1759 1647 1762 1872
8 1877 1773 1655 1763 1986 1881 1767 1874
8 1775 1659 1776 1888 1874 1767 1881 1986
8 1876 1769 1882 1987 1762 1652 1768 1875
8 1878 1770 1883 1988 1764 1653 1769 1876
8 1880 1772 1656 1766 1989 1886 1773 1877
8 1878 1770 1653 1764 1990 1884 1771 1879
8 1765 1654 1772 1880 1879 1771 1885 1991
8 1778 1664 1779 1890 1887 1775 1888 1997
8 1998 1889 1776 1888 1891 1780 1665 1779
8 1893 1782 1891 2000 1781 1668 1779 1890
8 1894 1783 1892 2001 1782 1669 1780 1891
8 1784 1671 1785 1896 1893 1782 1894 2003
8 1897 1786 1895 2004 1785 1672 1783 1894
8 1790 1675 1789 1904 1896 1785 1897 2006
8 1901 1787 1898 2007 1789 1673 1786 1897
8 1903 1788 1900 2013 1789 1673 1787 1901
8 1792 1676 1791 1906 1903 1788 1902 2016
8 1907 1792 1903 2017 1795 1678 1789 1904
8 1906 1791 1677 1794 2019 1905 1793 1909
8 1907 1792 1678 1795 2020 1906 1794 1910
8 1797 1679 1796 1912 1909 1793 1908 2022
8 1798 1680 1797 1913 1910 1794 1909 2023
8 1800 1682 1799 1915 1912 1796 1911 2025
8 1801 1683 1800 1916 1913 1797 1912 2026
8 1803 1687 1804 1918 1915 1799 1914 2028
8 1802 1686 1803 1917 1916 1800 1915 2029
8 1805 1689 1806 1920 1917 1803 1918 2030
8 1806 1690 1807 1921 1918 1804 1919 2031
8 1808 1692 1809 1922 1920 1806 1921 2032
8 1939 1826 1924 2037 1829 1713 1811 1926
8 1926 1811 1925 2039 1813 1697 1812 1928
8 1944 1829 1926 2040 1828 1712 1813 1929
8 1928 1812 1927 2042 1815 1698 1814 1931
8 1929 1813 1928 2043 1816 1699 1815 1932
8 1931 1814 1930 2044 1818 1700 1817 1933
8 1932 1815 1931 2045 1819 1701 1818 1934
8 1934 1818 1933 2046 1821 1704 1820 1935
8 2048 1936 1823 1937 1977 1864 1750 1865
8 1950 1833 1715 1834 2048 1936 1823 1937
8 1938 1824 1751 1866 2049 1937 1865 1978
8 1835 1716 1824 1938 1951 1834 1937 2049
8 1939 1826 1713 1829 2053 1942 1831 1946
8 1940 1827 1923 2035 2053 1942 1826 1939
8 1945 1830 1946 2058 1828 1712 1829 1944
8 2059 1947 1830 1945 1966 1849 1733 1851
8 1947 1832 1730 1849 2060 1948 1848 1965
8 1947 1832 1948 2060 1830 1714 1831 1946
8 1959 1847 1729 1843 2063 1949 1833 1950
8 1952 1843 1725 1836 2064 1950 1834 1951
8 1836 1725 1843 1952 1953 1842 1958 2066
8 1953 1842 1957 2067 1839 1724 1841 1955
8 1841 1955 1838 1723 1956 2068 1954 1840
8 2068 1956 1859 1967 1954 1840 1743 1852
8 1956 1844 1960 2069 1859 1747 1862 1973
8 1845 1957 1841 1727 1960 2069 1956 1844
8 1728 1842 1957 1845 1846 1958 2071 1961
8 1962 2072 1959 1847 1846 1958 1843 1729
8 1971 1861 1964 2077 1857 1746 1848 1965
8 1854 1741 1857 1969 1966 1849 1965 2078
8 1967 1859 1973 2079 1853 1745 1860 1968
8 1970 1858 1744 1856 2080 1972 1860 1968
8 1969 1857 1742 1855 2081 1971 1858 1970
8 1971 1861 1749 1858 2082 1974 1863 1972
8 1973 1862 1975 2083 1860 1748 1863 1972
8 1987 1882 1976 2086 1875 1768 1864 1977
8 1981 1875 1977 2087 1869 1761 1865 1978
8 1980 1877 1763 1868 2088 1986 1874 1979
8 1887 1775 1888 1997 1979 1874 1986 2088
8 1880 1982 2089 1989 1766 1870 1980 1877
8 1984 1876 1987 2090 1872 1762 1875 1981
8 1765 1871 1983 1879 1880 1982 2091 1991
8 1985 1878 1764 1873 2092 1990 1879 1983
8 1985 1878 1988 2093 1873 1764 1876 1984
8 2094 1992 1881 1986 1998 1889 1776 1888
8 1986 1881 1992 2094 1877 1773 1886 1989
8 1988 1883 1993 2095 1876 1769 1882 1987
8 1878 1770 1884 1990 1988 1883 1994 2096
8 1991 1885 1772 1880 2097 1996 1886 1989
8 1879 1771 1885 1991 1990 1884 1995 2098
8 2103 1998 1888 1997 2000 1891 1779 1890
8 2104 1999 1889 1998 2001 1892 1780 1891
8 2003 1894 2001 2106 1893 1782 1891 2000
8 2004 1895 2002 2107 1894 1783 1892 2001
8 2006 1897 2004 2109 1896 1785 1894 2003
8 2007 1898 2005 2110 1897 1786 1895 2004
8 2014 1901 2007 2112 1904 1789 1897 2006
8 2011 1899 2008 2113 1901 1787 1898 2007
8 2119 2010 1899 2011 2013 1900 1787 1901
8 2016 1902 2012 2122 1903 1788 1900 2013
8 2017 1903 2013 2123 1904 1789 1901 2014
8 1906 1791 1905 2019 2016 1902 2015 2125
8 1907 1792 1906 2020 2017 1903 2016 2126
8 1909 1793 1908 2022 2019 1905 2018 2128
8 2020 1906 1794 1910 2129 2019 1909 2023
8 1912 1796 1911 2025 2022 1908 2021 2131
8 1913 1797 1912 2026 2023 1909 2022 2132
8 1915 1799 1914 2028 2025 1911 2024 2134
8 1916 1800 1915 2029 2026 1912 2025 2135
8 1918 1804 1919 2031 2028 1914 2027 2136
8 1917 1803 1918 2030 2029 1915 2028 2137
8 1920 1806 1921 2032 2030 1918 2031 2138
8 1940 1827 1941 2054 2035 1923 2033 2140
8 2035 1923 2034 2143 1939 1826 1924 2037
8 2037 1924 2036 2146 1926 1811 1925 2039
8 2051 1939 2037 2147 1944 1829 1926 2040
8 2039 1925 2038 2149 1928 1812 1927 2042
8 2040 1926 2039 2150 1929 1813 1928 2043
8 2042 1927 2041 2151 1931 1814 1930 2044
8 2043 1928 2042 2152 1932 1815 1931 2045
8 2045 1931 2044 2153 1934 1818 1933 2046
8 2155 2047 1936 2048 2086 1976 1864 1977
8 2063 1949 1833 1950 2155 2047 1936 2048
8 2156 2048 1937 2049 2087 1977 1865 1978
8 2064 1950 1834 1951 2156 2048 1937 2049
8 2051 1939 1829 1944 2160 2053 1946 2058
8 2052 1940 2035 2144 2160 2053 1939 2051
8 2053 1942 1831 1946 2163 2057 1948 2060
8 2055 1943 1827 1940 2163 2057 1942 2053
8 2055 1943 2056 2164 1940 1827 1941 2054
8 2059 1947 1849 1966 2167 2060 1965 2078
8 2059 1947 2060 2167 1945 1830 1946 2058
8 2077 1964 2061 2168 1965 1848 1948 2060
8 2070 1963 1847 1959 2170 2062 1949 2063
8 2065 1959 1843 1952 2171 2063 1950 2064
8 2173 2072 1958 2066 2065 1959 1843 1952
8 1953 1842 1958 2066 2067 1957 2071 2174
8 2068 1956 2069 2175 1967 1859 1973 2079
8 2067 1957 2069 2175 1955 1841 1956 2068
8 1845 1957 2069 1960 1961 2071 2176 2073
8 2069 1960 2073 2176 1973 1862 1975 2083
8 2070 1963 2075 2177 1959 1847 1962 2072
8 1846 1958 2071 1961 1962 2072 2178 2074
8 2077 1964 1861 1971 2182 2076 1974 2082
8 2081 1971 2077 2183 1969 1857 1965 2078
8 2079 1973 2083 2184 1968 1860 1972 2080
8 2081 1971 1858 1970 2185 2082 1972 2080
8 2083 1975 2084 2186 1972 1863 1974 2082
8 2086 1976 1882 1987 2189 2085 1993 2095
8 2090 1987 2086 2190 1981 1875 1977 2087
8 2191 2094 1986 2088 2103 1998 1888 1997
8 2088 1986 2094 2191 1980 1877 1989 2089
8 1991 2091 2192 2097 1880 1982 2089 1989
8 2093 1988 2095 2193 1984 1876 1987 2090
8 1879 1983 2092 1990 1991 2091 2194 2098
8 1985 1878 1990 2092 2093 1988 2096 2195
8 2097 1996 1886 1989 2196 2099 1992 2094
8 2196 2099 1992 2094 2104 1999 1889 1998
8 1994 2096 1988 1883 2100 2197 2095 1993
8 2096 1994 1884 1990 2198 2101 1995 2098
8 1995 2098 2199 2102 1885 1991 2097 1996
8 2203 2104 1998 2103 2106 2001 1891 2000
8 2107 2002 2105 2204 2001 1892 1999 2104
8 2109 2004 2107 2206 2003 1894 2001 2106
8 2110 2005 2108 2207 2004 1895 2002 2107
8 2112 2007 2110 2209 2006 1897 2004 2109
8 2113 2008 2111 2210 2007 1898 2005 2110
8 2120 2011 2113 2212 2014 1901 2007 2112
8 2117 2009 2114 2213 2011 1899 2008 2113
8 2219 2116 2009 2117 2119 2010 1899 2011
8 2222 2118 2010 2119 2122 2012 1900 2013
8 2223 2119 2011 2120 2123 2013 1901 2014
8 2016 1902 2015 2125 2122 2012 2121 2225
8 2126 2016 2122 2226 2017 1903 2013 2123
8 2019 1905 2018 2128 2125 2015 2124 2228
8 2020 1906 2019 2129 2126 2016 2125 2229
8 2022 1908 2021 2131 2128 2018 2127 2231
8 2023 1909 2022 2132 2129 2019 2128 2232
8 2025 1911 2024 2134 2131 2021 2130 2234
8 2026 1912 2025 2135 2132 2022 2131 2235
8 1914 2028 2134 2024 2027 2136 2236 2133
8 2029 1915 2028 2137 2135 2025 2134 2237
8 2030 1918 2031 2138 2137 2028 2136 2238
8 2157 2050 2139 2240 2054 1941 2033 2140
8 2052 1940 2054 2161 2144 2035 2140 2242
8 2140 2033 2141 2243 2035 1923 2034 2143
8 2143 2034 2142 2246 2037 1924 2036 2146
8 2144 2035 2143 2247 2051 1939 2037 2147
8 2146 2036 2145 2249 2039 1925 2038 2149
8 2147 2037 2146 2250 2040 1926 2039 2150
8 2149 2038 2148 2251 2042 1927 2041 2151
8 2150 2039 2149 2252 2043 1928 2042 2152
8 2152 2042 2151 2253 2045 1931 2044 2153
8 2255 2154 2047 2155 2189 2085 1976 2086
8 2170 2062 1949 2063 2255 2154 2047 2155
8 2256 2155 2048 2156 2190 2086 1977 2087
8 2171 2063 1950 2064 2256 2155 2048 2156
8 2258 2159 2050 2157 2164 2056 1941 2054
8 2160 2053 1946 2058 2262 2163 2060 2167
8 2162 2055 1940 2052 2262 2163 2053 2160
8 2162 2055 2164 2263 2052 1940 2054 2161
8 2163 2057 1948 2060 2264 2165 2061 2168
8 2055 1943 2057 2163 2164 2056 2165 2264
8 2182 2076 2166 2268 2077 1964 2061 2168
8 2183 2077 2168 2269 2078 1965 2060 2167
8 2070 1963 2062 2170 2177 2075 2169 2271
8 2172 2070 1959 2065 2272 2170 2063 2171
8 2172 2070 2177 2273 2065 1959 2072 2173
8 2066 1958 2072 2173 2174 2071 2178 2274
8 2067 1957 2071 2174 2175 2069 2176 2275
8 2175 2069 2176 2275 2079 1973 2083 2184
8 2071 1961 2074 2178 2176 2073 2179 2276
8 2176 2073 2179 2276 2083 1975 2084 2186
8 2072 1962 2075 2177 2178 2074 2180 2277
8 2182 2076 1974 2082 2280 2181 2084 2186
8 2183 2077 1971 2081 2281 2182 2082 2185
8 2184 2083 2186 2282 2080 1972 2082 2185
8 2189 2085 1993 2095 2285 2188 2100 2197
8 2190 2086 1987 2090 2286 2189 2095 2193
8 2192 2097 1989 2089 2287 2196 2094 2191
8 2287 2196 2094 2191 2203 2104 1998 2103
8 2194 2098 1991 2091 2288 2199 2097 2192
8 2195 2096 2197 2289 2093 1988 2095 2193
8 2096 2195 2290 2198 1990 2092 2194 2098
8 2097 1996 2099 2196 2199 2102 2200 2291
8 2196 2099 1999 2104 2291 2200 2105 2204
8 2100 2197 2292 2201 1994 2096 2198 2101
8 1995 2098 2198 2101 2102 2199 2293 2202
8 2206 2107 2204 2296 2106 2001 2104 2203
8 2207 2108 2205 2297 2107 2002 2105 2204
8 2209 2110 2207 2299 2109 2004 2107 2206
8 2210 2111 2208 2300 2110 2005 2108 2207
8 2212 2113 2210 2302 2112 2007 2110 2209
8 2213 2114 2211 2303 2113 2008 2111 2210
8 2220 2117 2213 2305 2120 2011 2113 2212
8 2216 2115 2214 2306 2117 2009 2114 2213
8 2216 2115 2009 2117 2311 2217 2116 2219
8 2219 2116 2010 2119 2314 2218 2118 2222
8 2315 2219 2117 2220 2223 2119 2011 2120
8 2122 2012 2121 2225 2222 2118 2221 2317
8 2318 2222 2119 2223 2226 2122 2013 2123
8 2125 2015 2124 2228 2225 2121 2224 2320
8 2126 2016 2125 2229 2226 2122 2225 2321
8 2128 2018 2127 2231 2228 2124 2227 2323
8 2129 2019 2128 2232 2229 2125 2228 2324
8 2131 2021 2130 2234 2231 2127 2230 2326
8 2132 2022 2131 2235 2232 2128 2231 2327
8 2134 2024 2133 2236 2234 2130 2233 2328
8 2135 2025 2134 2237 2235 2131 2234 2329
8 2137 2028 2136 2238 2237 2134 2236 2330
8 2157 2050 2158 2259 2240 2139 2239 2332
8 2257 2157 2240 2334 2161 2054 2140 2242
8 2240 2139 2241 2335 2140 2033 2141 2243
8 2242 2140 2243 2337 2144 2035 2143 2247
8 2243 2141 2244 2338 2143 2034 2142 2246
8 2246 2142 2245 2341 2146 2036 2145 2249
8 2247 2143 2246 2342 2147 2037 2146 2250
8 2249 2145 2248 2343 2149 2038 2148 2251
8 2250 2146 2249 2344 2150 2039 2149 2252
8 2252 2149 2251 2345 2152 2042 2151 2253
8 2169 2271 2347 2254 2062 2170 2255 2154
8 2189 2085 2188 2285 2255 2154 2254 2347
8 2348 2255 2155 2256 2286 2189 2086 2190
8 2272 2170 2063 2171 2348 2255 2155 2256
8 2349 2258 2157 2257 2263 2164 2054 2161
8 2258 2159 2261 2351 2157 2050 2158 2259
8 2258 2159 2056 2164 2351 2261 2165 2264
8 2262 2163 2060 2167 2355 2264 2168 2269
8 2162 2055 2163 2262 2263 2164 2264 2355
8 2357 2266 2165 2264 2268 2166 2061 2168
8 2268 2166 2076 2182 2361 2267 2181 2280
8 2281 2182 2268 2362 2183 2077 2168 2269
8 2271 2169 2270 2364 2177 2075 2180 2277
8 2172 2070 2170 2272 2273 2177 2271 2365
8 2072 2173 2274 2178 2177 2273 2366 2277
8 2071 2174 2275 2176 2178 2274 2367 2276
8 2275 2176 2276 2367 2184 2083 2186 2282
8 2283 2187 2084 2186 2368 2278 2179 2276
8 2178 2074 2180 2277 2276 2179 2278 2368
8 2283 2187 2279 2370 2186 2084 2181 2280
8 2281 2182 2082 2185 2371 2280 2186 2282
8 2188 2285 2374 2284 2100 2197 2292 2201
8 2286 2189 2095 2193 2375 2285 2197 2289
8 2192 2097 2196 2287 2288 2199 2291 2376
8 2287 2196 2104 2203 2376 2291 2204 2296
8 2194 2098 2199 2288 2290 2198 2293 2377
8 2289 2197 2096 2195 2378 2292 2198 2290
8 2291 2200 2105 2204 2379 2294 2205 2297
8 2199 2102 2200 2291 2293 2202 2294 2379
8 2198 2101 2202 2293 2292 2201 2295 2380
8 2299 2207 2297 2383 2206 2107 2204 2296
8 2300 2208 2298 2384 2207 2108 2205 2297
8 2302 2210 2300 2386 2209 2110 2207 2299
8 2303 2211 2301 2387 2210 2111 2208 2300
8 2305 2213 2303 2389 2212 2113 2210 2302
8 2306 2214 2304 2390 2213 2114 2211 2303
8 2310 2216 2306 2392 2220 2117 2213 2305
8 2308 2215 2307 2393 2216 2115 2214 2306
8 2308 2215 2115 2216 2396 2309 2217 2311
8 2310 2216 2117 2220 2398 2311 2219 2315
8 2311 2217 2116 2219 2399 2312 2218 2314
8 2314 2218 2118 2222 2402 2313 2221 2317
8 2315 2219 2119 2223 2403 2314 2222 2318
8 2225 2121 2224 2320 2317 2221 2316 2405
8 2226 2122 2225 2321 2318 2222 2317 2406
8 2228 2124 2227 2323 2320 2224 2319 2408
8 2229 2125 2228 2324 2321 2225 2320 2409
8 2231 2127 2230 2326 2323 2227 2322 2411
8 2232 2128 2231 2327 2324 2228 2323 2412
8 2234 2130 2233 2328 2326 2230 2325 2413
8 2235 2131 2234 2329 2327 2231 2326 2414
8 2237 2134 2236 2330 2329 2234 2328 2415
8 2259 2158 2260 2352 2332 2239 2331 2417
8 2257 2157 2259 2350 2334 2240 2332 2419
8 2240 2139 2239 2332 2335 2241 2333 2420
8 2334 2240 2335 2422 2242 2140 2243 2337
8 2335 2241 2336 2423 2243 2141 2244 2338
8 2337 2243 2338 2425 2247 2143 2246 2342
8 2338 2244 2339 2426 2246 2142 2245 2341
8 2341 2245 2340 2428 2249 2145 2248 2343
8 2342 2246 2341 2429 2250 2146 2249 2344
8 2344 2249 2343 2430 2252 2149 2251 2345
8 2188 2285 2347 2254 2284 2374 2432 2346
8 2347 2254 2346 2432 2271 2169 2270 2364
8 2365 2271 2170 2272 2433 2347 2255 2348
8 2286 2189 2285 2375 2348 2255 2347 2433
8 2349 2258 2351 2435 2257 2157 2259 2350
8 2349 2258 2164 2263 2435 2351 2264 2355
8 2259 2158 2261 2351 2352 2260 2354 2437
8 2356 2265 2354 2437 2264 2165 2261 2351
8 2441 2357 2264 2355 2362 2268 2168 2269
8 2356 2265 2165 2264 2442 2358 2266 2357
8 2443 2359 2266 2357 2361 2267 2166 2268
8 2370 2279 2360 2446 2280 2181 2267 2361
8 2362 2268 2182 2281 2447 2361 2280 2371
8 2180 2277 2368 2278 2270 2364 2449 2363
8 2271 2365 2273 2177 2364 2450 2366 2277
8 2372 2283 2186 2282 2451 2368 2276 2367
8 2178 2274 2367 2276 2277 2366 2451 2368
8 2283 2187 2278 2368 2370 2279 2369 2452
8 2372 2283 2370 2453 2282 2186 2280 2371
8 2284 2374 2455 2373 2201 2292 2380 2295
8 2375 2285 2197 2289 2456 2374 2292 2378
8 2376 2291 2204 2296 2457 2379 2297 2383
8 2288 2199 2291 2376 2377 2293 2379 2457
8 2198 2290 2378 2292 2293 2377 2458 2380
8 2293 2202 2294 2379 2380 2295 2381 2459
8 2384 2298 2381 2459 2297 2205 2294 2379
8 2386 2300 2384 2463 2299 2207 2297 2383
8 2387 2301 2385 2464 2300 2208 2298 2384
8 2389 2303 2387 2466 2302 2210 2300 2386
8 2390 2304 2388 2467 2303 2211 2301 2387
8 2392 2306 2390 2469 2305 2213 2303 2389
8 2393 2307 2391 2470 2306 2214 2304 2390
8 2395 2308 2393 2472 2310 2216 2306 2392
8 2308 2215 2309 2396 2393 2307 2394 2473
8 2395 2308 2216 2310 2475 2396 2311 2398
8 2396 2309 2217 2311 2476 2397 2312 2399
8 2398 2311 2219 2315 2478 2399 2314 2403
8 2399 2312 2218 2314 2479 2400 2313 2402
8 2317 2221 2316 2405 2402 2313 2401 2482
8 2403 2314 2222 2318 2483 2402 2317 2406
8 2320 2224 2319 2408 2405 2316 2404 2485
8 2321 2225 2320 2409 2406 2317 2405 2486
8 2323 2227 2322 2411 2408 2319 2407 2488
8 2324 2228 2323 2412 2409 2320 2408 2489
8 2326 2230 2325 2413 2411 2322 2410 2490
8 2327 2231 2326 2414 2412 2323 2411 2491
8 2329 2234 2328 2415 2414 2326 2413 2492
8 2417 2331 2260 2352 2494 2416 2353 2438
8 2350 2259 2352 2436 2419 2332 2417 2496
8 2332 2239 2331 2417 2420 2333 2418 2497
8 2334 2240 2332 2419 2422 2335 2420 2499
8 2420 2333 2421 2500 2335 2241 2336 2423
8 2422 2335 2423 2502 2337 2243 2338 2425
8 2423 2336 2424 2503 2338 2244 2339 2426
8 2425 2338 2426 2505 2342 2246 2341 2429
8 2426 2339 2427 2506 2341 2245 2340 2428
8 2429 2341 2428 2507 2344 2249 2343 2430
8 2432 2346 2284 2374 2509 2431 2373 2455
8 2432 2346 2431 2509 2364 2270 2363 2449
8 2375 2285 2374 2456 2433 2347 2432 2510
8 2347 2433 2365 2271 2432 2510 2450 2364
8 2350 2259 2351 2435 2436 2352 2437 2514
8 2440 2356 2437 2514 2355 2264 2351 2435
8 2352 2260 2354 2437 2438 2353 2439 2516
8 2356 2265 2358 2442 2437 2354 2439 2516
8 2440 2356 2264 2355 2518 2442 2357 2441
8 2519 2443 2357 2441 2447 2361 2268 2362
8 2443 2359 2444 2520 2357 2266 2358 2442
8 2443 2359 2267 2361 2520 2444 2360 2446
8 2446 2360 2279 2370 2523 2445 2369 2452
8 2453 2370 2446 2524 2371 2280 2361 2447
8 2449 2363 2448 2525 2368 2278 2369 2452
8 2366 2277 2364 2450 2451 2368 2449 2526
8 2372 2283 2368 2451 2453 2370 2452 2527
8 2455 2373 2295 2380 2529 2454 2382 2460
8 2456 2374 2292 2378 2530 2455 2380 2458
8 2377 2293 2379 2457 2458 2380 2459 2531
8 2463 2384 2459 2531 2383 2297 2379 2457
8 2533 2461 2382 2460 2459 2381 2295 2380
8 2464 2385 2461 2533 2384 2298 2381 2459
8 2466 2387 2464 2537 2386 2300 2384 2463
8 2467 2388 2465 2538 2387 2301 2385 2464
8 2469 2390 2467 2540 2389 2303 2387 2466
8 2470 2391 2468 2541 2390 2304 2388 2467
8 2472 2393 2470 2543 2392 2306 2390 2469
8 2393 2307 2394 2473 2470 2391 2471 2544
8 2395 2308 2396 2475 2472 2393 2473 2546
8 2396 2309 2397 2476 2473 2394 2474 2547
8 2475 2396 2311 2398 2549 2476 2399 2478
8 2476 2397 2312 2399 2550 2477 2400 2479
8 2478 2399 2314 2403 2552 2479 2402 2483
8 2479 2400 2313 2402 2553 2480 2401 2482
8 2405 2316 2404 2485 2482 2401 2481 2556
8 2406 2317 2405 2486 2483 2402 2482 2557
8 2408 2319 2407 2488 2485 2404 2484 2559
8 2409 2320 2408 2489 2486 2405 2485 2560
8 2411 2322 2410 2490 2488 2407 2487 2561
8 2412 2323 2411 2491 2489 2408 2488 2562
8 2414 2326 2413 2492 2491 2411 2490 2563
8 2513 2434 2493 2565 2438 2353 2416 2494
8 2496 2417 2352 2436 2567 2494 2438 2515
8 2494 2416 2495 2568 2417 2331 2418 2497
8 2419 2332 2417 2496 2499 2420 2497 2570
8 2497 2418 2498 2571 2420 2333 2421 2500
8 2499 2420 2500 2573 2422 2335 2423 2502
8 2500 2421 2501 2574 2423 2336 2424 2503
8 2502 2423 2503 2576 2425 2338 2426 2505
8 2503 2424 2504 2577 2426 2339 2427 2506
8 2505 2426 2506 2578 2429 2341 2428 2507
8 2509 2431 2373 2455 2580 2508 2454 2529
8 2509 2431 2508 2580 2449 2363 2448 2525
8 2432 2510 2581 2509 2374 2456 2530 2455
8 2432 2510 2450 2364 2509 2581 2526 2449
8 2583 2511 2434 2513 2516 2439 2353 2438
8 2436 2352 2437 2514 2515 2438 2516 2588
8 2440 2356 2442 2518 2514 2437 2516 2588
8 2442 2358 2444 2520 2516 2439 2517 2589
8 2519 2443 2520 2591 2441 2357 2442 2518
8 2519 2443 2361 2447 2591 2520 2446 2524
8 2446 2360 2445 2523 2520 2444 2521 2592
8 2525 2448 2522 2593 2452 2369 2445 2523
8 2524 2446 2370 2453 2594 2523 2452 2527
8 2526 2449 2525 2595 2451 2368 2452 2527
8 2534 2462 2528 2597 2460 2382 2454 2529
8 2530 2455 2380 2458 2598 2529 2460 2532
8 2599 2533 2460 2532 2531 2459 2380 2458
8 2537 2464 2533 2599 2463 2384 2459 2531
8 2534 2462 2382 2460 2601 2535 2461 2533
8 2538 2465 2535 2601 2464 2385 2461 2533
8 2540 2467 2538 2604 2466 2387 2464 2537
8 2541 2468 2539 2605 2467 2388 2465 2538
8 2543 2470 2541 2607 2469 2390 2467 2540
8 2470 2391 2471 2544 2541 2468 2542 2608
8 2472 2393 2473 2546 2543 2470 2544 2610
8 2473 2394 2474 2547 2544 2471 2545 2611
8 2475 2396 2476 2549 2546 2473 2547 2613
8 2476 2397 2477 2550 2547 2474 2548 2614
8 2549 2476 2399 2478 2616 2550 2479 2552
8 2479 2400 2480 2553 2550 2477 2551 2617
8 2552 2479 2402 2483 2619 2553 2482 2557
8 2482 2401 2481 2556 2553 2480 2554 2620
8 2485 2404 2484 2559 2556 2481 2555 2623
8 2486 2405 2485 2560 2557 2482 2556 2624
8 2488 2407 2487 2561 2559 2484 2558 2625
8 2489 2408 2488 2562 2560 2485 2559 2626
8 2491 2411 2490 2563 2562 2488 2561 2627
8 2513 2434 2512 2585 2565 2493 2564 2630
8 2586 2513 2565 2632 2515 2438 2494 2567
8 2565 2493 2566 2633 2494 2416 2495 2568
8 2567 2494 2568 2635 2496 2417 2497 2570
8 2568 2495 2569 2636 2497 2418 2498 2571
8 2570 2497 2571 2638 2499 2420 2500 2573
8 2571 2498 2572 2639 2500 2421 2501 2574
8 2573 2500 2574 2641 2502 2423 2503 2576
8 2574 2501 2575 2642 2503 2424 2504 2577
8 2576 2503 2577 2643 2505 2426 2506 2578
8 2597 2528 2579 2645 2529 2454 2508 2580
8 2580 2508 2579 2645 2525 2448 2522 2593
8 2581 2509 2455 2530 2646 2580 2529 2598
8 2581 2509 2580 2646 2526 2449 2525 2595
8 2583 2511 2582 2648 2513 2434 2512 2585
8 2583 2511 2439 2516 2648 2582 2517 2589
8 2649 2583 2513 2586 2588 2516 2438 2515
8 2589 2517 2444 2520 2653 2587 2521 2592
8 2518 2442 2520 2591 2588 2516 2589 2654
8 2593 2522 2590 2655 2523 2445 2521 2592
8 2524 2446 2523 2594 2591 2520 2592 2656
8 2595 2525 2593 2657 2527 2452 2523 2594
8 2602 2536 2596 2659 2534 2462 2528 2597
8 2600 2534 2597 2660 2532 2460 2529 2598
8 2600 2534 2460 2532 2661 2601 2533 2599
8 2604 2538 2601 2661 2537 2464 2533 2599
8 2602 2536 2462 2534 2663 2603 2535 2601
8 2601 2535 2465 2538 2663 2603 2539 2605
8 2607 2541 2605 2665 2540 2467 2538 2604
8 2608 2542 2606 2666 2541 2468 2539 2605
8 2543 2470 2544 2610 2607 2541 2608 2668
8 2544 2471 2545 2611 2608 2542 2609 2669
8 2546 2473 2547 2613 2610 2544 2611 2671
8 2547 2474 2548 2614 2611 2545 2612 2672
8 2549 2476 2550 2616 2613 2547 2614 2674
8 2550 2477 2551 2617 2614 2548 2615 2675
8 2552 2479 2553 2619 2616 2550 2617 2677
8 2553 2480 2554 2620 2617 2551 2618 2678
8 2557 2482 2556 2624 2619 2553 2620 2680
8 2556 2481 2555 2623 2620 2554 2621 2681
8 2559 2484 2558 2625 2623 2555 2622 2683
8 2560 2485 2559 2626 2624 2556 2623 2684
8 2562 2488 2561 2627 2626 2559 2625 2685
8 2690 2629 2564 2630 2650 2584 2512 2585
8 2586 2513 2585 2651 2632 2565 2630 2691
8 2630 2564 2631 2692 2565 2493 2566 2633
8 2632 2565 2633 2694 2567 2494 2568 2635
8 2633 2566 2634 2695 2568 2495 2569 2636
8 2635 2568 2636 2697 2570 2497 2571 2638
8 2636 2569 2637 2698 2571 2498 2572 2639
8 2638 2571 2639 2700 2573 2500 2574 2641
8 2639 2572 2640 2701 2574 2501 2575 2642
8 2641 2574 2642 2702 2576 2503 2577 2643
8 2597 2528 2596 2659 2645 2579 2644 2704
8 2645 2579 2644 2704 2593 2522 2590 2655
8 2660 2597 2645 2705 2598 2529 2580 2646
8 2646 2580 2645 2705 2595 2525 2593 2657
8 2650 2584 2512 2585 2707 2647 2582 2648
8 2648 2582 2517 2589 2707 2647 2587 2653
8 2649 2583 2648 2708 2586 2513 2585 2651
8 2649 2583 2516 2588 2708 2648 2589 2654
8 2655 2590 2652 2710 2592 2521 2587 2653
8 2654 2589 2520 2591 2711 2653 2592 2656
8 2657 2593 2655 2712 2594 2523 2592 2656
8 2602 2536 2603 2663 2659 2596 2658 2714
8 2662 2602 2659 2715 2600 2534 2597 2660
8 2662 2602 2534 2600 2717 2663 2601 2661
8 2661 2601 2538 2604 2717 2663 2605 2665
8 2666 2606 2664 2718 2605 2539 2603 2663
8 2668 2608 2666 2720 2607 2541 2605 2665
8 2608 2542 2609 2669 2666 2606 2667 2721
8 2610 2544 2611 2671 2668 2608 2669 2723
8 2611 2545 2612 2672 2669 2609 2670 2724
8 2613 2547 2614 2674 2671 2611 2672 2726
8 2614 2548 2615 2675 2672 2612 2673 2727
8 2616 2550 2617 2677 2674 2614 2675 2729
8 2617 2551 2618 2678 2675 2615 2676 2730
8 2619 2553 2620 2680 2677 2617 2678 2732
8 2620 2554 2621 2681 2678 2618 2679 2733
8 2624 2556 2623 2684 2680 2620 2681 2735
8 2681 2621 2555 2623 2736 2682 2622 2683
8 2626 2559 2625 2685 2684 2623 2683 2737
8 2688 2628 2584 2650 2740 2686 2647 2707
8 2688 2628 2687 2742 2650 2584 2629 2690
8 2690 2629 2689 2745 2630 2564 2631 2692
8 2746 2690 2630 2691 2709 2650 2585 2651
8 2691 2630 2692 2747 2632 2565 2633 2694
8 2692 2631 2693 2748 2633 2566 2634 2695
8 2694 2633 2695 2750 2635 2568 2636 2697
8 2695 2634 2696 2751 2636 2569 2637 2698
8 2697 2636 2698 2753 2638 2571 2639 2700
8 2698 2637 2699 2754 2639 2572 2640 2701
8 2700 2639 2701 2755 2641 2574 2642 2702
8 2659 2596 2658 2714 2704 2644 2703 2757
8 2704 2644 2703 2757 2655 2590 2652 2710
8 2660 2597 2659 2715 2705 2645 2704 2758
8 2705 2645 2704 2758 2657 2593 2655 2712
8 2759 2706 2647 2707 2710 2652 2587 2653
8 2709 2650 2585 2651 2760 2707 2648 2708
8 2708 2648 2589 2654 2760 2707 2653 2711
8 2712 2655 2710 2761 2656 2592 2653 2711
8 2763 2713 2658 2714 2718 2664 2603 2663
8 2662 2602 2663 2717 2715 2659 2714 2764
8 2720 2666 2718 2767 2665 2605 2663 2717
8 2768 2719 2664 2718 2721 2667 2606 2666
8 2668 2608 2669 2723 2720 2666 2721 2770
8 2669 2609 2670 2724 2721 2667 2722 2771
8 2671 2611 2672 2726 2723 2669 2724 2773
8 2672 2612 2673 2727 2724 2670 2725 2774
8 2674 2614 2675 2729 2726 2672 2727 2776
8 2675 2615 2676 2730 2727 2673 2728 2777
8 2677 2617 2678 2732 2729 2675 2730 2779
8 2678 2618 2679 2733 2730 2676 2731 2780
8 2680 2620 2681 2735 2732 2678 2733 2782
8 2733 2679 2621 2681 2783 2734 2682 2736
8 2735 2681 2623 2684 2784 2736 2683 2737
8 2740 2686 2647 2707 2787 2738 2706 2759
8 2688 2628 2686 2740 2742 2687 2739 2789
8 2743 2688 2650 2709 2790 2740 2707 2760
8 2742 2687 2741 2792 2690 2629 2689 2745
8 2743 2688 2742 2793 2709 2650 2690 2746
8 2745 2689 2744 2795 2692 2631 2693 2748
8 2746 2690 2745 2796 2691 2630 2692 2747
8 2747 2692 2748 2797 2694 2633 2695 2750
8 2748 2693 2749 2798 2695 2634 2696 2751
8 2750 2695 2751 2800 2697 2636 2698 2753
8 2751 2696 2752 2801 2698 2637 2699 2754
8 2753 2698 2754 2802 2700 2639 2701 2755
8 2763 2713 2756 2804 2714 2658 2703 2757
8 2759 2706 2652 2710 2804 2756 2703 2757
8 2715 2659 2714 2764 2758 2704 2757 2805
8 2758 2704 2757 2805 2712 2655 2710 2761
8 2806 2759 2707 2760 2761 2710 2653 2711
8 2765 2716 2762 2808 2718 2664 2713 2763
8 2809 2763 2714 2764 2767 2718 2663 2717
8 2765 2716 2664 2718 2811 2766 2719 2768
8 2813 2768 2718 2767 2770 2721 2666 2720
8 2814 2769 2719 2768 2771 2722 2667 2721
8 2723 2669 2724 2773 2770 2721 2771 2816
8 2724 2670 2725 2774 2771 2722 2772 2817
8 2726 2672 2727 2776 2773 2724 2774 2819
8 2727 2673 2728 2777 2774 2725 2775 2820
8 2729 2675 2730 2779 2776 2727 2777 2822
8 2730 2676 2731 2780 2777 2728 2778 2823
8 2732 2678 2733 2782 2779 2730 2780 2825
8 2780 2731 2679 2733 2826 2781 2734 2783
8 2782 2733 2681 2735 2827 2783 2736 2784
8 2830 2785 2738 2787 2804 2756 2706 2759
8 2789 2739 2686 2740 2832 2786 2738 2787
8 2790 2740 2707 2760 2833 2787 2759 2806
8 2742 2687 2739 2789 2792 2741 2788 2835
8 2743 2688 2740 2790 2793 2742 2789 2836
8 2792 2741 2791 2838 2745 2689 2744 2795
8 2793 2742 2792 2839 2746 2690 2745 2796
8 2795 2744 2794 2841 2748 2693 2749 2798
8 2796 2745 2795 2842 2747 2692 2748 2797
8 2797 2748 2798 2843 2750 2695 2751 2800
8 2798 2749 2799 2844 2751 2696 2752 2801
8 2800 2751 2801 2845 2753 2698 2754 2802
8 2808 2762 2803 2847 2763 2713 2756 2804
8 2809 2763 2804 2848 2764 2714 2757 2805
8 2806 2759 2710 2761 2848 2804 2757 2805
8 2765 2716 2766 2811 2808 2762 2807 2850
8 2810 2765 2808 2851 2767 2718 2763 2809
8 2810 2765 2718 2767 2852 2811 2768 2813
8 2811 2766 2719 2768 2853 2812 2769 2814
8 2855 2814 2768 2813 2816 2771 2721 2770
8 2856 2815 2769 2814 2817 2772 2722 2771
8 2773 2724 2774 2819 2816 2771 2817 2858
8 2774 2725 2775 2820 2817 2772 2818 2859
8 2776 2727 2777 2822 2819 2774 2820 2861
8 2777 2728 2778 2823 2820 2775 2821 2862
8 2779 2730 2780 2825 2822 2777 2823 2864
8 2823 2778 2731 2780 2865 2824 2781 2826
8 2825 2780 2733 2782 2866 2826 2783 2827
8 2869 2828 2785 2830 2847 2803 2756 2804
8 2871 2829 2786 2832 2830 2785 2738 2787
8 2872 2830 2787 2833 2848 2804 2759 2806
8 2789 2739 2786 2832 2835 2788 2831 2874
8 2836 2789 2740 2790 2875 2832 2787 2833
8 2792 2741 2788 2835 2838 2791 2834 2877
8 2793 2742 2789 2836 2839 2792 2835 2878
8 2838 2791 2837 2880 2795 2744 2794 2841
8 2839 2792 2838 2881 2796 2745 2795 2842
8 2841 2794 2840 2882 2798 2749 2799 2844
8 2842 2795 2841 2883 2797 2748 2798 2843
8 2843 2798 2844 2884 2800 2751 2801 2845
8 2886 2846 2803 2847 2850 2807 2762 2808
8 2851 2808 2847 2887 2809 2763 2804 2848
8 2850 2807 2766 2811 2889 2849 2812 2853
8 2810 2765 2811 2852 2851 2808 2850 2890
8 2852 2811 2768 2813 2891 2853 2814 2855
8 2853 2812 2769 2814 2892 2854 2815 2856
8 2894 2856 2814 2855 2858 2817 2771 2816
8 2817 2772 2818 2859 2856 2815 2857 2895
8 2819 2774 2820 2861 2858 2817 2859 2897
8 2820 2775 2821 2862 2859 2818 2860 2898
8 2822 2777 2823 2864 2861 2820 2862 2900
8 2823 2778 2824 2865 2862 2821 2863 2901
8 2864 2823 2780 2825 2902 2865 2826 2866
8 2904 2867 2828 2869 2886 2846 2803 2847
8 2869 2828 2868 2906 2830 2785 2829 2871
8 2907 2869 2830 2872 2887 2847 2804 2848
8 2871 2829 2870 2909 2832 2786 2831 2874
8 2910 2871 2832 2875 2872 2830 2787 2833
8 2835 2788 2831 2874 2877 2834 2873 2912
8 2836 2789 2832 2875 2878 2835 2874 2913
8 2877 2834 2876 2915 2838 2791 2837 2880
8 2839 2792 2835 2878 2881 2838 2877 2916
8 2880 2837 2879 2917 2841 2794 2840 2882
8 2881 2838 2880 2918 2842 2795 2841 2883
8 2883 2841 2882 2919 2843 2798 2844 2884
8 2921 2885 2846 2886 2889 2849 2807 2850
8 2922 2886 2847 2887 2890 2850 2808 2851
8 2889 2849 2812 2853 2924 2888 2854 2892
8 2890 2850 2811 2852 2925 2889 2853 2891
8 2891 2853 2814 2855 2926 2892 2856 2894
8 2892 2854 2815 2856 2927 2893 2857 2895
8 2858 2817 2859 2897 2894 2856 2895 2929
8 2859 2818 2860 2898 2895 2857 2896 2930
8 2861 2820 2862 2900 2897 2859 2898 2932
8 2862 2821 2863 2901 2898 2860 2899 2933
8 2864 2823 2865 2902 2900 2862 2901 2934
8 2904 2867 2846 2886 2936 2903 2885 2921
8 2904 2867 2903 2936 2869 2828 2868 2906
8 2937 2904 2869 2907 2922 2886 2847 2887
8 2906 2868 2905 2939 2871 2829 2870 2909
8 2907 2869 2906 2940 2872 2830 2871 2910
8 2909 2870 2908 2942 2874 2831 2873 2912
8 2910 2871 2909 2943 2875 2832 2874 2913
8 2912 2873 2911 2945 2877 2834 2876 2915
8 2878 2835 2874 2913 2916 2877 2912 2946
8 2915 2876 2914 2947 2880 2837 2879 2917
8 2916 2877 2915 2948 2881 2838 2880 2918
8 2918 2880 2917 2949 2883 2841 2882 2919
8 2921 2885 2849 2889 2951 2920 2888 2924
8 2952 2921 2886 2922 2925 2889 2850 2890
8 2924 2888 2854 2892 2954 2923 2893 2927
8 2925 2889 2853 2891 2955 2924 2892 2926
8 2926 2892 2856 2894 2956 2927 2895 2929
8 2895 2857 2896 2930 2927 2893 2928 2957
8 2897 2859 2898 2932 2929 2895 2930 2959
8 2898 2860 2899 2933 2930 2896 2931 2960
8 2900 2862 2901 2934 2932 2898 2933 2961
8 2936 2903 2885 2921 2963 2935 2920 2951
8 2936 2903 2935 2963 2906 2868 2905 2939
8 2937 2904 2886 2922 2964 2936 2921 2952
8 2937 2904 2936 2964 2907 2869 2906 2940
8 2939 2905 2938 2966 2909 2870 2908 2942
8 2940 2906 2939 2967 2910 2871 2909 2943
8 2942 2908 2941 2969 2912 2873 2911 2945
8 2943 2909 2942 2970 2913 2874 2912 2946
8 2945 2911 2944 2971 2915 2876 2914 2947
8 2946 2912 2945 2972 2916 2877 2915 2948
8 2948 2915 2947 2973 2918 2880 2917 2949
8 2951 2920 2888 2924 2975 2950 2923 2954
8 2952 2921 2889 2925 2976 2951 2924 2955
8 2927 2893 2928 2957 2954 2923 2953 2978
8 2955 2924 2892 2926 2979 2954 2927 2956
8 2929 2895 2930 2959 2956 2927 2957 2980
8 2930 2896 2931 2960 2957 2928 2958 2981
8 2932 2898 2933 2961 2959 2930 2960 2982
8 2951 2920 2950 2975 2963 2935 2962 2984
8 2963 2935 2962 2984 2939 2905 2938 2966
8 2964 2936 2921 2952 2985 2963 2951 2976
8 2964 2936 2963 2985 2940 2906 2939 2967
8 2966 2938 2965 2987 2942 2908 2941 2969
8 2967 2939 2966 2988 2943 2909 2942 2970
8 2969 2941 2968 2989 2945 2911 2944 2971
8 2970 2942 2969 2990 2946 2912 2945 2972
8 2972 2945 2971 2991 2948 2915 2947 2973
8 2954 2923 2953 2978 2975 2950 2974 2993
8 2976 2951 2924 2955 2994 2975 2954 2979
8 2957 2928 2958 2981 2978 2953 2977 2995
8 2956 2927 2957 2980 2979 2954 2978 2996
8 2959 2930 2960 2982 2980 2957 2981 2997
8 2984 2962 2983 2999 2966 2938 2965 2987
8 2975 2950 2974 2993 2984 2962 2983 2999
8 2976 2951 2975 2994 2985 2963 2984 3000
8 2985 2963 2984 3000 2967 2939 2966 2988
8 2987 2965 2986 3001 2969 2941 2968 2989
8 2988 2966 2987 3002 2970 2942 2969 2990
8 2990 2969 2989 3003 2972 2945 2971 2991
8 2978 2953 2977 2995 2993 2974 2992 3004
8 2979 2954 2978 2996 2994 2975 2993 3005
8 2980 2957 2981 2997 2996 2978 2995 3006
8 2974 2993 2999 2983 2992 3004 3007 2998
8 2983 2999 2987 2965 2998 3007 3001 2986
8 3000 2984 2999 3008 2988 2966 2987 3002
8 2994 2975 2993 3005 3000 2984 2999 3008
8 3002 2987 3001 3009 2990 2969 2989 3003
8 2996 2978 2995 3006 3005 2993 3004 3010
8 3005 2993 3004 3010 3008 2999 3007 3011
8 3008 2999 3007 3011 3002 2987 3001 3009

CELL_TYPES 1910
12
12
12
12
12
12
12
12
12
12
12
12
12
12
12
12
12
12
12
12
12
12
12
12
12
12
12
12
12
12
12
12
12
12
12
12
12
12
12
12
12
12
12
12
12
12
12
12
12
12
12
12
12
12
12
12
12
12
12
12
12
12
12
12
12
12
12
12
12
12
12
12
12
12
12
12
12
12
12
12
12
12
12
12
12
12
12
12
12
12
12
12
12
12
12
12
12
12
12
12
12
12
12
12
12
12
12
12
12
12
12
12
12
12
12
12
12
12
12
12
12
12
12
12
12
12
12
12
12
12
12
12
12
12
12
12
12
12
12
12
12
12
12
12
12
12
12
12
12
12
12
12
12
12
12
12
12
12
12
12
12
12
12
12
12
12
12
12
12
12
12
12
12
12
12
12
12
12
12
12
12
12
12
12
12
12
12
12
12
12
12
12
12
12
12
12
12
12
12
12
12
12
12
12
12
12
12
12
12
12
12
12
12
12
12
12
12
12
12
12
12
12
12
12
12
12
12
12
12
12
12
12
12
12
12
12
12
12
12
12
12
12
12
12
12
12
12
12
12
12
12
12
12
12
12
12
12
12
12
12
12
12
12
12
12
12
12
12
12
12
12
12
12
12
12
12
12
12
12
12
12
12
12
12
12
12
12
12
12
12
12
12
12
12
12
12
12
12
12
12
12
12
12
12
12
12
12
12
12
12
12
12
12
12
12
12
12
12
12
12
12
12
12
12
12
12
12
12
12
12
12
12
12
12
12
12
12
12
12
12
12
12
12
12
12
12
12
12
12
12
12
12
12
12
12
12
12
12
12
12
12
12
12
12
12
12
12
12
12
12
12
12
12
12
12
12
12
12
12
12
12
12
12
12
12
12
12
12
12
12
12
12
12
12
12
12
12
12
12
12
12
12
12
12
12
12
12
12
12
12
12
12
12
12
12
12
12
12
12
12
12
12
12
12
12
12
12
12
12
12
12
12
12
12
12
12
12
12
12
12
12
12
12
12
12
12
12
12
12
12
12
12
12
12
12
12
12
12
12
12
12
12
12
12
12
12
12
12
12
12
12
12
12
12
12
12
12
12
12
12
12
12
12
12
12
12
12
12
12
12
12
12
12
12
12
12
12
12
12
12
12
12
12
12
12
12
12
12
12
12
12
12
12
12
12
12
12
12
12
12
12
12
12
12
12
12
12
12
12
12
12
12
12
12
12
12
12
12
12
12
12
12
12
12
12
12
12
12
12
12
12
12
12
12
12
12
12
12
12
12
12
12
12
12
12
12
12
12
12
12
12
12
12
12
12
12
12
12
12
12
12
12
12
12
12
12
12
12
12
12
12
12
12
12
12
12
12
12
12
12
12
12
12
12
12
12
12
12
12
12
12
12
12
12
12
12
12
12
12
12
12
12
12
12
12
12
12
12
12
12
12
12
12
12
12
12
12
12
12
12
12
12
12
12
12
12
12
12
12
12
12
12
12
12
12
12
12
12
12
12
12
12
12
12
12
12
12
12
12
12
12
12
12
12
12
12
12
12
12
12
12
12
12
12
12
12
12
12
12
12
12
12
12
12
12
12
12
12
12
12
12
12
12
12
12
12
12
12
12
12
12
12
12
12
12
12
12
12
12
12
12
12
12
12
12
12
12
12
12
12
12
12
12
12
12
12
12
12
12
12
12
12
12
12
12
12
12
12
12
12
12
12
12
12
12
12
12
12
12
12
12
12
12
12
12
12
12
12
12
12
12
12
12
12
12
12
12
12
12
12
12
12
12
12
12
12
12
12
12
12
12
12
12
12
12
12
12
12
12
12
12
12
12
12
12
12
12
12
12
12
12
12
12
12
12
12
12
12
12
12
12
12
12
12
12
12
12
12
12
12
12
12
12
12
12
12
12
12
12
12
12
12
12
12
12
12
12
12
12
12
12
12
12
12
12
12
12
12
12
12
12
12
12
12
12
12
12
12
12
12
12
12
12
12
12
12
12
12
12
12
12
12
12
12
12
12
12
12
12
12
12
12
12
12
12
12
12
12
12
12
12
12
12
12
12
12
12
12
12
12
12
12
12
12
12
12
12
12
12
12
12
12
12
12
12
12
12
12
12
12
12
12
12
12
12
12
12
12
12
12
12
12
12
12
12
12
12
12
12
12
12
12
12
12
12
12
12
12
12
12
12
12
12
12
12
12
12
12
12
12
12
12
12
12
12
12
12
12
12
12
12
12
12
12
12
12
12
12
12
12
12
12
12
12
12
12
12
12
12
12
12
12
12
12
12
12
12
12
12
12
12
12
12
12
12
12
12
12
12
12
12
12
12
12
12
12
12
12
12
12
12
12
12
12
12
12
12
12
12
12
12
12
12
12
12
12
12
12
12
12
12
12
12
12
12
12
12
12
12
12
12
12
12
12
12
12
12
12
12
12
12
12
12
12
12
12
12
12
12
12
12
12
12
12
12
12
12
12
12
12
12
12
12
12
12
12
12
12
12
12
12
12
12
12
12
12
12
12
12
12
12
12
12
12
12
12
12
12
12
12
12
12
12
12
12
12
12
12
12
12
12
12
12
12
12
12
12
12
12
12
12
12
12
12
12
12
12
12
12
12
12
12
12
12
12
12
12
12
12
12
12
12
12
12
12
12
12
12
12
12
12
12
12
12
12
12
12
12
12
12
12
12
12
12
12
12
12
12
12
12
12
12
12
12
12
12
12
12
12
12
12
12
12
12
12
12
12
12
12
12
12
12
12
12
12
12
12
12
12
12
12
12
12
12
12
12
12
12
12
12
12
12
12
12
12
12
12
12
12
12
12
12
12
12
12
12
12
12
12
12
12
12
12
12
12
12
12
12
12
12
12
12
12
12
12
12
12
12
12
12
12
12
12
12
12
12
12
12
12
12
12
12
12
12
12
12
12
12
12
12
12
12
12
12
12
12
12
12
12
12
12
12
12
12
12
12
12
12
12
12
12
12
12
12
12
12
12
12
12
12
12
12
12
12
12
12
12
12
12
12
12
12
12
12
12
12
12
12
12
12
12
12
12
12
12
12
12
12
12
12
12
12
12
12
12
12
12
12
12
12
12
12
12
12
12
12
12
12
12
12
12
12
12
12
12
12
12
12
12
12
12
12
12
12
12
12
12
12
12
12
12
12
12
12
12
12
12
12
12
12
12
12
12
12
12
12
12
12
12
12
12
12
12
12
12
12
12
12
12
12
12
12
12
12
12
12
12
12
12
12
12
12
12
12
12
12
12
12
12
12
12
12
12
12
12
12
12
12
12
12
12
12
12
12
12
12
12
12
12
12
12
12
12
12
12
12
12
12
12
12
12
12
12
12
12
12
12
12
12
12
12
12
12
12
12
12
12
12
12
12
12
12
12
12
12
12
12
12
12
12
12
12
12
12
12
12
12
12
12
12
12
12
12
12
12
12
12
12
12
12
12
12
12
12
12
12
12
12
12
12
12
12
12
12
12
12
12
12
12
12
12
12
12
12
12
12
12
12
12
12
12
12
12
12
12
12
12
12
12
12
12
12
12
12
12
12
12
12
12
12
12
12
12
12
12
12
12
12
12
12
12
12
12
12
12
12
12
12
12
12
12
12
12
12
12
12
12
12
12
12
12
12
12
12
12
12
12
12
12
12
12
12
12
12
12
12
12
12
12
12
12
12
12
12
12
12
12
12
12
12
12
12
12
12
12
12
12
12
12
12
12
12
12
12
12
12
12
12
12
12
12
12
12
12
12
12
12
12
12
12
12
12
12
12
12
12
12
12
12
12
12
12
12
12
12
12
12
12
12
12
12
12
12
12
12
12
12
12
12
12
12
12
12
12
12
12
12
12
12
12
12
12
12
12
12
12
12
12
12
12
12
12
12
12
12
12
12
12
12
12
12
12
12
12
12
12
12
12
12
12
12
12
12
12
12
12
12
12
12
12
12
12
12
12
12
12
12
12
12
12
12
12
12
12
12
12
12
12
12
12
12
12
12
12
12
12
12
12
12
12
12
12
12
12
12
12
12
12
12
12
12
12
12
12
12
12
12
12
12
12
12
12
12
12
12
12
12
12
12
12
12
12
12
12
12
12
12
12
12
12
12
12
12
12
12
12
12
12
12
12
12
12
12
12
12
12
12
12
12
12
12
12
12
12
12
12
12
12
12
12
12
12
12
12
12
12
12
12
12
12
12
12
12
12
12
12
12
12
12
12
12
12
12
12
12
12
12
12
12
12
12
12
12
12
12
12
12
12
12
12
12
12
12
12
12
12
12
12
12
12
12
12
12
12
12
12
12
12
12
12
12
12
12
12
12
12
12
12
12
12

POINT_DATA 3012
SCALARS Jp_lamdaP float 4
LOOKUP_TABLE default
1 1 1 1
1 1 1 1
1 1 1 1
0.999997 1 1 0.999997
1 1 1 1
1 1 1 1
0.999925 1 1 0.999925
1 1 1 1
1 1 1 1
1 1 1 1
1 1 1 1
0.999984 1 1 0.999984
0.999989 1 1 0.999989
0.999998 1 1 0.999998
1 1 1 1
0.999998 1 1 0.999998
1 1 1 1
1 1 1 1
0.999926 1 1 0.999926
1 1 1 1
0.999996 1 1 0.999996
1 1 1 1
0.999868 1 1 0.999868
0.999909 1 1 0.999909
1 1 1 1
0.999943 1 1 0.999943
0.999777 1 1 0.999777
1 1 1 1
1 1 1 1
1 1 1 1
1 1 1 1
0.999986 1 1 0.999986
1 1 1 1
1 1 1 1
0.999945 1 1 0.999945
1 1 1 1
0.999975 1 1 0.999975
0.999993 1 1 0.999993
0.999811 1 1 0.999811
1 1 1 1
1 1 1 1
0.999999 1 1 0.999999
1 1 1 1
0.999996 1 1 0.999996
0.999874 1 1 0.999874
1 1 1 1
0.999915 1 1 0.999915
0.999999 1 1 0.999999
1 1 1 1
1 1 1 1
0.999927 1 1 0.999927
0.999995 1 1 0.999995
0.999996 1 1 0.999996
1 1 1 1
1 1 1 1
0.999869 1 1 0.999869
0.999944 1 1 0.999944
0.99991 1 1 0.99991
0.999772 1 1 0.999772
1 1 1 1
0.999993 1 1 0.999993
0.999887 1 1 0.999887
0.999854 1 1 0.999854
0.99989 1 1 0.99989
0.999636 1 1 0.999636
0.99972 1 1 0.99972
1 1 1 1
0.999963 1 1 0.999963
0.999817 1 1 0.999817
0.99958 1 1 0.99958
1 1 1 1
1 1 1 1
1 1 1 1
0.999989 1 1 0.999989
1 1 1 1
1 1 1 1
0.999949 1 1 0.999949
1 1 1 1
0.999977 1 1 0.999977
0.999995 1 1 0.999995
0.99981 1 1 0.99981
1 1 1 1
1 1 1 1
0.999932 1 1 0.999932
0.999961 1 1 0.999961
0.999697 1 1 0.999697
0.999999 1 1 0.999999
0.999793 1 1 0.999793
0.999831 1 1 0.999831
0.999666 1 1 0.999666
1 1 1 1
1 1 1 1
1 1 1 1
1 1 1 1
1 1 1 1
0.999997 1 1 0.999997
0.999882 1 1 0.999882
0.999999 1 1 0.999999
0.999916 1 1 0.999916
1 1 1 1
0.999854 1 1 0.999854
0.999901 1 1 0.999901
0.999517 1 1 0.999517
0.999924 1 1 0.999924
0.999572 1 1 0.999572
0.999991 1 1 0.999991
0.999997 1 1 0.999997
1 1 1 1
1 1 1 1
0.999871 1 1 0.999871
0.999912 1 1 0.999912
0.999944 1 1 0.999944
0.999766 1 1 0.999766
1 1 1 1
0.999995 1 1 0.999995
0.999856 1 1 0.999856
0.999855 1 1 0.999855
1 1 1 1
0.999977 1 1 0.999977
0.999892 1 1 0.999892
0.999623 1 1 0.999623
0.999811 1 1 0.999811
0.999728 1 1 0.999728
0.999581 1 1 0.999581
0.999862 1 1 0.999862
0.999849 1 1 0.999849
0.999549 1 1 0.999549
0.999587 1 1 0.999587
0.999667 1 1 0.999667
0.999443 1 1 0.999443
1 1 1 1
0.999551 1 1 0.999551
0.999999 1 1 0.999999
0.999826 1 1 0.999826
0.999611 1 1 0.999611
0.999502 1 1 0.999502
1 1 1 1
0.999886 1 1 0.999886
1 1 1 1
1 1 1 1
0.999954 1 1 0.999954
1 1 1 1
0.999997 1 1 0.999997
0.99998 1 1 0.99998
0.99981 1 1 0.99981
1 1 1 1
1 1 1 1
0.999935 1 1 0.999935
0.999965 1 1 0.999965
0.999698 1 1 0.999698
0.999999 1 1 0.999999
0.999793 1 1 0.999793
0.99983 1 1 0.99983
0.999662 1 1 0.999662
1 1 1 1
1 1 1 1
0.999897 1 1 0.999897
0.999644 1 1 0.999644
0.999754 1 1 0.999754
0.999532 1 1 0.999532
0.999856 1 1 0.999856
0.999645 1 1 0.999645
0.999676 1 1 0.999676
0.999603 1 1 0.999603
1 1 1 1
1 1 1 1
1 1 1 1
1 1 1 1
1 1 1 1
1 1 1 1
1 1 1 1
0.999917 1 1 0.999917
0.999882 1 1 0.999882
1 1 1 1
1 1 1 1
0.999856 1 1 0.999856
0.999903 1 1 0.999903
0.999517 1 1 0.999517
0.999925 1 1 0.999925
0.999573 1 1 0.999573
0.999848 1 1 0.999848
0.999486 1 1 0.999486
0.999547 1 1 0.999547
0.999355 1 1 0.999355
0.999603 1 1 0.999603
0.999416 1 1 0.999416
1 1 1 1
0.999996 1 1 0.999996
0.999825 1 1 0.999825
0.999855 1 1 0.999855
1 1 1 1
0.99999 1 1 0.99999
0.999893 1 1 0.999893
0.999611 1 1 0.999611
0.999737 1 1 0.999737
0.999805 1 1 0.999805
0.999582 1 1 0.999582
0.99986 1 1 0.99986
0.999849 1 1 0.999849
0.999524 1 1 0.999524
0.999595 1 1 0.999595
1 1 1 1
0.999997 1 1 0.999997
0.999837 1 1 0.999837
0.999669 1 1 0.999669
0.999428 1 1 0.999428
0.999608 1 1 0.999608
0.999557 1 1 0.999557
0.999504 1 1 0.999504
1 1 1 1
0.999886 1 1 0.999886
0.999491 1 1 0.999491
0.999571 1 1 0.999571
0.999376 1 1 0.999376
0.999379 1 1 0.999379
0.999512 1 1 0.999512
0.99937 1 1 0.99937
1 1 1 1
0.999477 1 1 0.999477
0.999843 1 1 0.999843
0.999651 1 1 0.999651
0.99953 1 1 0.99953
0.999481 1 1 0.999481
0.999863 1 1 0.999863
0.99992 1 1 0.99992
0.999701 1 1 0.999701
0.999938 1 1 0.999938
1 1 1 1
1 1 1 1
0.99997 1 1 0.99997
0.999699 1 1 0.999699
1 1 1 1
0.99983 1 1 0.99983
0.999794 1 1 0.999794
0.999657 1 1 0.999657
1 1 1 1
1 1 1 1
0.999897 1 1 0.999897
0.999645 1 1 0.999645
0.999755 1 1 0.999755
0.999532 1 1 0.999532
0.999856 1 1 0.999856
0.999651 1 1 0.999651
0.999676 1 1 0.999676
0.999597 1 1 0.999597
1 1 1 1
0.999876 1 1 0.999876
0.999923 1 1 0.999923
0.999725 1 1 0.999725
0.99948 1 1 0.99948
0.999601 1 1 0.999601
0.999449 1 1 0.999449
0.999699 1 1 0.999699
0.999583 1 1 0.999583
0.999582 1 1 0.999582
0.99955 1 1 0.99955
0.999979 1 1 0.999979
1 1 1 1
1 1 1 1
1 1 1 1
1 1 1 1
1 1 1 1
1 1 1 1
1 1 1 1
1 1 1 1
0.999927 1 1 0.999927
0.999904 1 1 0.999904
0.999573 1 1 0.999573
0.999517 1 1 0.999517
0.999858 1 1 0.999858
1 1 1 1
0.999847 1 1 0.999847
0.999486 1 1 0.999486
0.999547 1 1 0.999547
0.999355 1 1 0.999355
0.999604 1 1 0.999604
0.999416 1 1 0.999416
0.999476 1 1 0.999476
0.999323 1 1 0.999323
0.999386 1 1 0.999386
0.999307 1 1 0.999307
0.999445 1 1 0.999445
0.999361 1 1 0.999361
0.999858 1 1 0.999858
0.99985 1 1 0.99985
0.999499 1 1 0.999499
0.999603 1 1 0.999603
1 1 1 1
0.999996 1 1 0.999996
0.999847 1 1 0.999847
0.99967 1 1 0.99967
0.999413 1 1 0.999413
0.999564 1 1 0.999564
0.999605 1 1 0.999605
0.999505 1 1 0.999505
1 1 1 1
0.999886 1 1 0.999886
0.999482 1 1 0.999482
0.999571 1 1 0.999571
0.99937 1 1 0.99937
0.999395 1 1 0.999395
1 1 1 1
0.999843 1 1 0.999843
0.999661 1 1 0.999661
0.999512 1 1 0.999512
0.999367 1 1 0.999367
0.999519 1 1 0.999519
0.999478 1 1 0.999478
0.99948 1 1 0.99948
0.999864 1 1 0.999864
0.999698 1 1 0.999698
0.999919 1 1 0.999919
0.999352 1 1 0.999352
0.999382 1 1 0.999382
0.999293 1 1 0.999293
0.999321 1 1 0.999321
0.999436 1 1 0.999436
0.999373 1 1 0.999373
0.999853 1 1 0.999853
0.999465 1 1 0.999465
0.999699 1 1 0.999699
0.999556 1 1 0.999556
0.999462 1 1 0.999462
0.999503 1 1 0.999503
0.999951 1 1 0.999951
0.999704 1 1 0.999704
0.999702 1 1 0.999702
0.999628 1 1 0.999628
0.999645 1 1 0.999645
1 1 1 1
1 1 1 1
0.999897 1 1 0.999897
0.999756 1 1 0.999756
0.999532 1 1 0.999532
0.999856 1 1 0.999856
0.999675 1 1 0.999675
0.999656 1 1 0.999656
0.99959 1 1 0.99959
1 1 1 1
0.999876 1 1 0.999876
0.999924 1 1 0.999924
0.999724 1 1 0.999724
0.999479 1 1 0.999479
0.999602 1 1 0.999602
0.999449 1 1 0.999449
0.999699 1 1 0.999699
0.99959 1 1 0.99959
0.999579 1 1 0.999579
0.999565 1 1 0.999565
1 1 1 1
0.999946 1 1 0.999946
0.999715 1 1 0.999715
0.999744 1 1 0.999744
0.999625 1 1 0.999625
0.999407 1 1 0.999407
0.999524 1 1 0.999524
0.999419 1 1 0.999419
0.999597 1 1 0.999597
0.999542 1 1 0.999542
0.999483 1 1 0.999483
0.999971 1 1 0.999971
0.99984 1 1 0.99984
0.999986 1 1 0.999986
0.999981 1 1 0.999981
1 1 1 1
1 1 1 1
1 1 1 1
1 1 1 1
1 1 1 1
1 1 1 1
1 1 1 1
1 1 1 1
1 1 1 1
1 1 1 1
1 1 1 1
0.999604 1 1 0.999604
0.999547 1 1 0.999547
0.999416 1 1 0.999416
0.999355 1 1 0.999355
0.999486 1 1 0.999486
0.999847 1 1 0.999847
0.999476 1 1 0.999476
0.999323 1 1 0.999323
0.999387 1 1 0.999387
0.999304 1 1 0.999304
0.999445 1 1 0.999445
0.999361 1 1 0.999361
0.999312 1 1 0.999312
0.999278 1 1 0.999278
0.99933 1 1 0.99933
0.999296 1 1 0.999296
0.999386 1 1 0.999386
0.999382 1 1 0.999382
0.999473 1 1 0.999473
0.999571 1 1 0.999571
0.999365 1 1 0.999365
0.999411 1 1 0.999411
1 1 1 1
0.999843 1 1 0.999843
0.999671 1 1 0.999671
0.999512 1 1 0.999512
0.999364 1 1 0.999364
0.999478 1 1 0.999478
0.999508 1 1 0.999508
0.999479 1 1 0.999479
0.999864 1 1 0.999864
0.999694 1 1 0.999694
0.999919 1 1 0.999919
0.99934 1 1 0.99934
0.999382 1 1 0.999382
0.999286 1 1 0.999286
0.999325 1 1 0.999325
0.999853 1 1 0.999853
0.999698 1 1 0.999698
0.999567 1 1 0.999567
0.999441 1 1 0.999441
0.999379 1 1 0.999379
0.999453 1 1 0.999453
0.999465 1 1 0.999465
0.999508 1 1 0.999508
0.999705 1 1 0.999705
0.99962 1 1 0.99962
0.999949 1 1 0.999949
0.999706 1 1 0.999706
0.999267 1 1 0.999267
0.999299 1 1 0.999299
0.999251 1 1 0.999251
0.999314 1 1 0.999314
0.999438 1 1 0.999438
0.999402 1 1 0.999402
0.999709 1 1 0.999709
0.999512 1 1 0.999512
0.999611 1 1 0.999611
0.99948 1 1 0.99948
0.999416 1 1 0.999416
0.999507 1 1 0.999507
0.999968 1 1 0.999968
0.999735 1 1 0.999735
0.999634 1 1 0.999634
0.99961 1 1 0.99961
0.999591 1 1 0.999591
1 1 1 1
0.999478 1 1 0.999478
0.999924 1 1 0.999924
0.999876 1 1 0.999876
0.999723 1 1 0.999723
0.999603 1 1 0.999603
0.999449 1 1 0.999449
0.9997 1 1 0.9997
0.999577 1 1 0.999577
0.999597 1 1 0.999597
0.99958 1 1 0.99958
1 1 1 1
0.999947 1 1 0.999947
0.999715 1 1 0.999715
0.999744 1 1 0.999744
0.999622 1 1 0.999622
0.999406 1 1 0.999406
0.999525 1 1 0.999525
0.999416 1 1 0.999416
0.999598 1 1 0.999598
0.999547 1 1 0.999547
0.99949 1 1 0.99949
0.999961 1 1 0.999961
0.999769 1 1 0.999769
0.999614 1 1 0.999614
0.999635 1 1 0.999635
0.999578 1 1 0.999578
0.99939 1 1 0.99939
0.999486 1 1 0.999486
0.999452 1 1 0.999452
0.999506 1 1 0.999506
0.999434 1 1 0.999434
0.999973 1 1 0.999973
0.999799 1 1 0.999799
0.99983 1 1 0.99983
0.999733 1 1 0.999733
0.999851 1 1 0.999851
0.99999 1 1 0.99999
0.999987 1 1 0.999987
1 1 1 1
0.999983 1 1 0.999983
1 1 1 1
1 1 1 1
1 1 1 1
1 1 1 1
1 1 1 1
1 1 1 1
1 1 1 1
1 1 1 1
1 1 1 1
1 1 1 1
1 1 1 1
0.999444 1 1 0.999444
0.999387 1 1 0.999387
0.999362 1 1 0.999362
0.999302 1 1 0.999302
0.999324 1 1 0.999324
0.999476 1 1 0.999476
0.999313 1 1 0.999313
0.999274 1 1 0.999274
0.999331 1 1 0.999331
0.999295 1 1 0.999295
0.999385 1 1 0.999385
0.999382 1 1 0.999382
0.999257 1 1 0.999257
0.999265 1 1 0.999265
0.999328 1 1 0.999328
0.999287 1 1 0.999287
0.999391 1 1 0.999391
0.999404 1 1 0.999404
0.999328 1 1 0.999328
0.999382 1 1 0.999382
0.999278 1 1 0.999278
0.999328 1 1 0.999328
0.999854 1 1 0.999854
0.999697 1 1 0.999697
0.999579 1 1 0.999579
0.999445 1 1 0.999445
0.999385 1 1 0.999385
0.999466 1 1 0.999466
0.999444 1 1 0.999444
0.999512 1 1 0.999512
0.999707 1 1 0.999707
0.999612 1 1 0.999612
0.999947 1 1 0.999947
0.99971 1 1 0.99971
0.999268 1 1 0.999268
0.999301 1 1 0.999301
0.99925 1 1 0.99925
0.999315 1 1 0.999315
0.999709 1 1 0.999709
0.99962 1 1 0.99962
0.999479 1 1 0.999479
0.999434 1 1 0.999434
0.999424 1 1 0.999424
0.999411 1 1 0.999411
0.999514 1 1 0.999514
0.999522 1 1 0.999522
0.999634 1 1 0.999634
0.999588 1 1 0.999588
0.999608 1 1 0.999608
0.999952 1 1 0.999952
0.99974 1 1 0.99974
0.999236 1 1 0.999236
0.999241 1 1 0.999241
0.999337 1 1 0.999337
0.999473 1 1 0.999473
0.999643 1 1 0.999643
0.999562 1 1 0.999562
0.999552 1 1 0.999552
0.99938 1 1 0.99938
0.999377 1 1 0.999377
0.999953 1 1 0.999953
0.999795 1 1 0.999795
0.999636 1 1 0.999636
0.999608 1 1 0.999608
0.999539 1 1 0.999539
0.999561 1 1 0.999561
1 1 1 1
0.999948 1 1 0.999948
0.999405 1 1 0.999405
0.999743 1 1 0.999743
0.999714 1 1 0.999714
0.999619 1 1 0.999619
0.999525 1 1 0.999525
0.999413 1 1 0.999413
0.999599 1 1 0.999599
0.999498 1 1 0.999498
0.999551 1 1 0.999551
0.999963 1 1 0.999963
0.999769 1 1 0.999769
0.99962 1 1 0.99962
0.999634 1 1 0.999634
0.999571 1 1 0.999571
0.999389 1 1 0.999389
0.999484 1 1 0.999484
0.999456 1 1 0.999456
0.9995 1 1 0.9995
0.999421 1 1 0.999421
0.999793 1 1 0.999793
0.999637 1 1 0.999637
0.999548 1 1 0.999548
0.999558 1 1 0.999558
0.999532 1 1 0.999532
0.999491 1 1 0.999491
0.999414 1 1 0.999414
0.999441 1 1 0.999441
0.999437 1 1 0.999437
0.999312 1 1 0.999312
0.999976 1 1 0.999976
0.999807 1 1 0.999807
0.99968 1 1 0.99968
0.999819 1 1 0.999819
0.999851 1 1 0.999851
0.999718 1 1 0.999718
0.999638 1 1 0.999638
0.999714 1 1 0.999714
0.99986 1 1 0.99986
0.999992 1 1 0.999992
0.999991 1 1 0.999991
1 1 1 1
0.999988 1 1 0.999988
1 1 1 1
1 1 1 1
1 1 1 1
1 1 1 1
1 1 1 1
1 1 1 1
1 1 1 1
1 1 1 1
1 1 1 1
1 1 1 1
1 1 1 1
0.999384 1 1 0.999384
0.999331 1 1 0.999331
0.999382 1 1 0.999382
0.999293 1 1 0.999293
0.999269 1 1 0.999269
0.999313 1 1 0.999313
0.999255 1 1 0.999255
0.999267 1 1 0.999267
0.999323 1 1 0.999323
0.999281 1 1 0.999281
0.999391 1 1 0.999391
0.999418 1 1 0.999418
0.999247 1 1 0.999247
0.999273 1 1 0.999273
0.999327 1 1 0.999327
0.999466 1 1 0.999466
0.999269 1 1 0.999269
0.999303 1 1 0.999303
0.99925 1 1 0.99925
0.999316 1 1 0.999316
0.999709 1 1 0.999709
0.999629 1 1 0.999629
0.999478 1 1 0.999478
0.99943 1 1 0.99943
0.999446 1 1 0.999446
0.999515 1 1 0.999515
0.999407 1 1 0.999407
0.999537 1 1 0.999537
0.999635 1 1 0.999635
0.999585 1 1 0.999585
0.999606 1 1 0.999606
0.999937 1 1 0.999937
0.999745 1 1 0.999745
0.999236 1 1 0.999236
0.999246 1 1 0.999246
0.999345 1 1 0.999345
0.999643 1 1 0.999643
0.999563 1 1 0.999563
0.999378 1 1 0.999378
0.999464 1 1 0.999464
0.999399 1 1 0.999399
0.999558 1 1 0.999558
0.999953 1 1 0.999953
0.999607 1 1 0.999607
0.999568 1 1 0.999568
0.999539 1 1 0.999539
0.999641 1 1 0.999641
0.999784 1 1 0.999784
0.999229 1 1 0.999229
0.999233 1 1 0.999233
0.999388 1 1 0.999388
0.999545 1.00001 1 0.99954
0.999603 1 1 0.999603
0.999444 1 1 0.999444
0.999446 1 1 0.999446
0.999302 1 1 0.999302
0.999965 1 1 0.999965
0.999826 1 1 0.999826
0.999676 1 1 0.999676
0.999527 1 1 0.999527
0.99957 1 1 0.99957
0.999513 1 1 0.999513
0.999965 1 1 0.999965
0.999769 1 1 0.999769
0.999387 1 1 0.999387
0.999633 1 1 0.999633
0.999626 1 1 0.999626
0.999565 1 1 0.999565
0.999481 1 1 0.999481
0.99946 1 1 0.99946
0.999494 1 1 0.999494
0.999408 1 1 0.999408
0.999793 1 1 0.999793
0.999641 1 1 0.999641
0.999557 1 1 0.999557
0.999563 1 1 0.999563
0.999537 1 1 0.999537
0.999492 1 1 0.999492
0.999418 1 1 0.999418
0.999473 1 1 0.999473
0.999429 1 1 0.999429
0.999298 1 1 0.999298
0.999659 1 1 0.999659
0.999544 1 1 0.999544
0.999484 1 1 0.999484
0.999495 1 1 0.999495
0.999575 1.0001 1 0.999472
0.999496 1.00011 0.999872 0.999514
0.999302 1 1 0.999302
1.00019 1 1.00092 0.999279
0.999814 1 1 0.999814
0.999687 1 1 0.999687
0.999608 1 1 0.999608
0.999851 1 1 0.999851
0.999703 1 1 0.999703
0.99986 1 1 0.99986
0.999627 1 1 0.999627
0.99972 1 1 0.99972
0.999564 1 1 0.999564
0.999625 1 1 0.999625
0.999723 1 1 0.999723
0.999865 1 1 0.999865
0.999993 1 1 0.999993
0.999992 1 1 0.999992
1 1 1 1
0.999991 1 1 0.999991
1 1 1 1
1 1 1 1
1 1 1 1
1 1 1 1
1 1 1 1
1 1 1 1
1 1 1 1
1 1 1 1
1 1 1 1
1 1 1 1
1 1 1 1
0.999392 1 1 0.999392
0.999317 1 1 0.999317
0.999432 1 1 0.999432
0.999275 1 1 0.999275
0.999269 1 1 0.999269
0.999253 1 1 0.999253
0.999249 1 1 0.999249
0.999273 1 1 0.999272
0.999333 1 1 0.999333
0.999461 1 1 0.999461
0.999259 1 1 0.999258
0.99934 1.00004 1 0.999303
0.999392 1 1 0.999392
0.999236 1 1 0.999236
0.999252 1 1 0.999252
0.999354 1 1 0.999354
0.999642 1 1 0.999642
0.999574 1 1 0.999574
0.999376 1 1 0.999376
0.999456 1 1 0.999456
0.999554 1 1 0.999554
0.999422 1 1 0.999422
0.999606 1 1 0.999606
0.999575 1 1 0.999575
0.999539 1 1 0.999539
0.999954 1 1 0.999954
0.999645 1 1 0.999645
0.999772 1 1 0.999772
0.999233 1 1 0.999233
0.999231 1 1 0.999231
0.999376 1 1 0.999376
0.999601 1 1 0.999601
0.999462 1 1 0.999462
0.99935 1 1.00004 0.999308
0.999609 1.00006 1 0.999548
0.999442 1 1 0.999442
0.999976 1 1 0.999976
0.999827 1 1 0.999827
0.99957 1 1 0.99957
0.999517 1 1 0.999517
0.999532 1 1 0.999532
0.999667 1 1 0.999667
0.999251 1 1 0.999251
0.999287 1.00004 1 0.999249
0.999639 1.00023 0.999905 0.999504
0.999816 1.00026 1 0.999554
0.999543 1 1 0.999543
1.00053 1 1.00127 0.999261
0.999366 1 1 0.999366
0.999996 1 1 0.999996
0.999888 1 1 0.999888
0.99983 1 1 0.99983
0.999686 1 1 0.999686
0.999561 1 1 0.999561
0.999459 1 1 0.999459
0.999549 1 1 0.999549
0.999487 1 1 0.999487
0.999794 1 1 0.999794
0.999645 1 1 0.999645
0.999494 1 1 0.999494
0.999568 1 1 0.999568
0.999566 1 1 0.999566
0.999541 1 1 0.999541
0.999422 1 1 0.999422
0.999506 1 1 0.999506
0.999421 1 1 0.999421
0.999283 1 1 0.999283
0.999656 1 1 0.999656
0.999552 1 1 0.999552
0.999492 1 1 0.999492
0.999501 1 1 0.999501
0.999513 1.00004 1 0.999468
0.999509 1.00005 0.999949 0.99951
0.999318 1 1 0.999318
0.999911 1 1.00064 0.999273
0.999583 1 1 0.999583
0.999388 1 1 0.999388
0.999488 1 1 0.999488
0.999468 1 1.00006 0.99941
1.00009 1.00086 0.999722 0.999504
0.999362 1.00008 1 0.999284
1.00077 1 1.00156 0.999209
0.999694 1 1 0.999694
0.999608 1 1 0.999608
0.999541 1 1 0.999541
0.99986 1 1 0.99986
0.999726 1 1 0.999726
0.999615 1 1 0.999615
0.999865 1 1 0.999865
0.999722 1 1 0.999722
0.999555 1 1 0.999555
0.999636 1 1 0.999636
0.99951 1 1 0.99951
0.999551 1 1 0.999551
0.999646 1 1 0.999646
0.99974 1 1 0.99974
0.999865 1 1 0.999865
0.999992 1 1 0.999992
0.999992 1 1 0.999992
1 1 1 1
0.999992 1 1 0.999992
1 1 1 1
1 1 1 1
1 1 1 1
1 1 1 1
1 1 1 1
0.999999 1 1 0.999999
1 1 1 1
1 1 1 1
1 1 1 1
1 1 1 1
1 1 1 1
1 1 1 1
0.999456 1 1 0.999456
0.999339 1 1 0.999339
0.999272 1 1 0.999272
0.999251 1 1 0.999251
0.999263 1 1 0.999263
0.999314 1.00002 1 0.999296
0.999406 1 1 0.999406
0.999327 1.00004 1 0.999291
0.999325 1 1 0.999325
0.999405 1 1 0.999405
0.999237 1 1 0.999237
0.999229 1 1 0.999229
0.999364 1 1 0.999364
0.9996 1 1 0.9996
0.999479 1 1 0.999479
0.999313 1 1 0.999313
0.999657 1.0001 1 0.999556
0.999441 1 1 0.999441
0.999569 1 1 0.999569
0.999521 1 1 0.999521
0.999537 1 1 0.999537
0.999987 1 1 0.999987
0.999827 1 1 0.999827
0.999658 1 1 0.999658
0.999253 1 1 0.999253
0.999994 1 1 0.999994
0.99988 1 1 0.99988
0.999333 1.00008 1 0.99925
0.999665 1.00018 1 0.999482
0.999552 1 1 0.999552
0.999537 1 1.00019 0.999347
0.999844 1 1.00058 0.999267
0.999676 1.00012 1 0.999552
0.999852 1 1 0.999852
0.999686 1 1 0.999686
0.999546 1 1 0.999546
0.999508 1 1 0.999508
0.999446 1 1 0.999446
0.999563 1 1 0.999563
0.999382 1.00011 1 0.999275
0.999763 1.00043 1 0.999333
1.00004 1.00081 0.999601 0.999623
0.999369 1 1 0.999369
0.999579 1 1.00008 0.999501
1.00165 1 1.00242 0.99923
0.999888 1 1 0.999888
0.99987 1 1 0.99987
0.999781 1 1 0.999781
0.999692 1 1 0.999692
0.999594 1 1 0.999594
0.99947 1 1 0.99947
0.999391 1 1 0.999391
0.99951 1 1 0.99951
0.999652 1 1 0.999652
0.99956 1 1 0.99956
0.999464 1 1 0.999464
0.999507 1 1 0.999507
0.999508 1 1 0.999508
0.9995 1 1 0.9995
0.999334 1 1 0.999334
0.999676 1 1.00041 0.999266
0.999582 1 1 0.999582
0.999402 1 1 0.999402
0.999489 1 1 0.999489
0.99958 1 1.00018 0.999397
0.999742 1.00045 0.999793 0.999497
0.999484 1.0002 1 0.999288
1.00062 1 1.00141 0.999208
0.999507 1 1 0.999507
1.00497 1.00609 0.999451 0.999433
0.999438 1 1 0.999438
1.0003 1 1.00101 0.999292
0.997393 1.00087 0.997225 0.999303
1.00079 1 1.00163 0.999163
1.0057 1.00795 0.998469 0.999294
0.999608 1 1 0.999608
0.999541 1 1 0.999541
0.999495 1 1 0.999495
0.999865 1 1 0.999865
0.999721 1 1 0.999721
0.999648 1 1 0.999648
0.999546 1 1 0.999546
0.999865 1 1 0.999865
0.999732 1 1 0.999732
0.999508 1 1 0.999508
0.999646 1 1 0.999646
0.999561 1 1 0.999561
0.999488 1 1 0.999488
0.999583 1 1 0.999583
0.999655 1 1 0.999655
0.999723 1 1 0.999723
0.999844 1 1 0.999844
0.999757 1 1 0.999757
0.999844 1 1 0.999844
0.999991 1 1 0.999991
0.999992 1 1 0.999992
1 1 1 1
0.999992 1 1 0.999992
1 1 1 1
1 1 1 1
1 1 1 1
1 1 1 1
1 1 1 1
1 1 1 1
0.999998 1 1 0.999998
1 1 1 1
1 1 1 1
1 1 1 1
1 1 1 1
1 1 1 1
1 1 1 1
0.99942 1 1 0.99942
0.99929 1 1 0.99929
0.999268 1 1 0.999268
0.99931 1.00002 1 0.999291
0.999355 1.00002 1 0.999332
0.999411 1 1 0.999411
0.9996 1.00025 1 0.999347
1.00223 1.00744 0.995308 0.999519
1.00357 1.00436 0.999705 0.999503
0.999916 1 1 0.999916
0.999255 1 1 0.999255
0.999385 1.00013 1 0.999251
0.999612 1.00015 1 0.999461
0.99956 1 1 0.99956
0.999986 1 1.00066 0.999329
0.999391 1 1.00012 0.999273
0.99955 1 1 0.99955
0.999544 1 1 0.999544
0.999528 1 1 0.999528
0.999433 1 1 0.999433
0.999992 1 1 0.999992
0.999565 1 1 0.999565
0.999873 1 1 0.999873
0.999685 1 1 0.999685
0.999872 1 1 0.999872
0.999328 1.00006 1 0.99927
0.999897 1 1 0.999897
0.99987 1 1 0.99987
0.999764 1 1 0.999764
0.999926 1.00059 1 0.999337
0.999524 1.00046 0.999469 0.999595
0.999613 1 1.00011 0.999507
1.00187 1 1.00265 0.999222
0.999536 1 1.00016 0.999374
0.999704 1 1 0.999704
0.999589 1 1 0.999589
0.999501 1 1 0.999501
0.999442 1 1.00004 0.999404
0.999479 1 1 0.999479
1.00032 1.00101 1.00004 0.999262
0.998653 1.0018 0.997374 0.999481
0.999649 1.00049 0.999716 0.999446
1.00089 1 1.00164 0.999249
1.00132 1 1.0019 0.999419
0.999765 1 1 0.999765
0.999723 1 1 0.999723
0.999673 1 1 0.999673
0.999601 1 1 0.999601
0.999519 1 1 0.999519
0.999417 1 1 0.999417
1.00098 1 1.00161 0.999368
0.999582 1 1 0.999582
0.999489 1 1 0.999489
0.999417 1 1 0.999417
0.999351 1.00003 0.999829 0.99949
0.999597 1.00031 1 0.999292
0.99968 1 1.0003 0.999383
1.00034 1 1.00113 0.999207
0.999514 1 1 0.999514
1.00494 1.00619 0.999314 0.999439
0.99944 1 1 0.99944
1.00025 1 1.00096 0.999291
0.99845 1.00125 0.997874 0.999328
1.00136 1 1.00221 0.99916
1.00744 1.01024 0.997925 0.999302
0.999464 1 1 0.999464
0.998593 1.00533 0.99397 0.999319
0.999456 1 1.00005 0.999402
1.00363 1 1.0044 0.999228
1.00047 1.00021 1.00109 0.999171
0.959738 0.963823 0.99887 0.996888
1.0028 1.00115 1.00278 0.998862
0.988032 1.00968 0.9792 0.999348
0.933152 0.947075 0.986329 0.998955
0.942959 0.973656 0.969121 0.99933
0.999541 1 1 0.999541
0.999497 1 1 0.999497
0.999466 1 1 0.999466
0.999865 1 1 0.999865
0.999725 1 1 0.999725
0.999646 1 1 0.999646
0.999571 1 1 0.999571
0.999505 1 1 0.999505
0.999643 1 1 0.999643
0.999853 1 1 0.999853
0.999731 1 1 0.999731
0.999494 1 1 0.999494
0.999579 1 1 0.999579
0.99959 1 1 0.99959
0.999513 1 1 0.999513
0.999624 1 1 0.999624
0.999722 1 1 0.999722
0.999843 1 1 0.999843
0.999746 1 1 0.999746
0.99966 1 1 0.99966
0.99973 1 1 0.99973
0.999742 1 1 0.999742
0.999859 1 1 0.999859
0.999844 1 1 0.999844
0.999991 1 1 0.999991
0.999991 1 1 0.999991
1 1 1 1
0.999992 1 1 0.999992
1 1 1 1
1 1 1 1
1 1 1 1
1 1 1 1
1 1 1 1
1 1 1 1
1 1 1 1
1 1 1 1
0.999998 1 1 0.999998
1 1 1 1
1 1 1 1
1 1 1 1
1 1 1 1
1 1 1 1
0.999383 1.00004 1 0.999339
0.999291 1 1 0.999291
0.999418 1 1 0.999418
1.00354 1.00736 0.996686 0.999525
0.999652 1.00031 1 0.999343
1.00346 1.00413 0.999863 0.99947
1.00239 1.0031 1.00004 0.999253
0.979106 0.984914 0.995526 0.998571
1.00323 1.00429 0.999342 0.999605
0.999921 1 1 0.999921
0.999915 1 1 0.999915
0.999799 1 1 0.999799
0.999812 1 1 0.999812
0.999277 1.00001 1 0.999264
1.00011 1.00077 1 0.99934
0.999103 1.00005 0.999481 0.999567
0.999512 1 1 0.999512
1.00151 1 1.00229 0.999213
0.99951 1 1.00013 0.99938
0.999492 1 1 0.999492
0.999515 1 1.0001 0.999416
0.999488 1 1 0.999488
0.99987 1 1 0.99987
0.999584 1 1 0.999584
0.999716 1 1 0.999716
0.999907 1 1 0.999907
0.999747 1 1 0.999747
1.00009 1.00078 1.00003 0.999277
0.999782 1 1 0.999782
0.999734 1 1 0.999734
0.999672 1 1 0.999672
0.999655 1.00187 0.998305 0.999485
0.999225 1.00024 0.999541 0.999447
1.0011 1 1.00168 0.999418
1.00096 1 1.00172 0.999244
0.999605 1 1 0.999605
0.999522 1 1 0.999522
1.00038 1 1.00101 0.999368
0.999457 1 1.00005 0.999408
1.00311 1.00383 0.999954 0.999329
0.999298 1.00216 0.997704 0.999437
1.00003 1.00011 1.00073 0.999194
1.00098 1 1.00165 0.999336
0.99964 1 1 0.99964
0.999624 1 1 0.999624
0.999483 1 1 0.999483
1.00143 1 1.00212 0.99931
0.956294 0.963719 0.995504 0.996777
0.999521 1 1 0.999521
0.999442 1 1 0.999442
1.00494 1.00622 0.999285 0.999446
0.999587 1.00158 0.998651 0.999354
1.00208 1 1.00293 0.999156
1.00042 1 1.00113 0.999291
1.0094 1.01237 0.997751 0.99931
0.999468 1 1 0.999468
0.998696 1.00573 0.993695 0.999312
0.999494 1 1.00009 0.999403
1.00338 1 1.00415 0.999233
0.999836 1.00033 1.00033 0.999182
0.958981 0.964303 0.997368 0.997105
0.99703 0.997595 1.00116 0.99828
0.991654 1.01146 0.981031 0.999372
0.938923 0.949737 0.989947 0.998652
0.936873 0.969375 0.967147 0.999301
0.999465 1 1 0.999465
0.943028 0.950747 0.993552 0.998318
0.956374 0.973158 0.983322 0.999422
0.980741 1.00167 0.979797 0.999295
1.00184 1 1.00245 0.999386
1.00875 1 1.00949 0.999262
0.996974 1.01017 0.987563 0.999368
0.971008 0.971109 1.00325 0.996662
1.00422 1.00431 1.00176 0.99815
0.934829 0.954942 0.980046 0.998869
0.982349 1.00447 0.9784 0.999572
0.999499 1 1 0.999499
0.999467 1 1 0.999467
0.999448 1 1 0.999448
0.999862 1 1 0.999862
0.999739 1 1 0.999739
0.999632 1 1 0.999632
0.999576 1 1 0.999576
0.9995 1 1 0.9995
0.999843 1 1 0.999843
0.99959 1 1 0.99959
0.999637 1 1 0.999637
0.999731 1 1 0.999731
0.999503 1 1 0.999503
0.999552 1 1 0.999552
0.999661 1 1.0002 0.999464
0.999638 1 1 0.999638
0.99974 1 1 0.99974
0.999745 1 1 0.999745
0.999648 1 1 0.999648
0.99965 1 1 0.99965
0.999634 1 1 0.999634
0.999586 1 1 0.999586
0.999582 1 1 0.999582
0.99971 1 1 0.99971
0.99973 1 1 0.99973
0.999853 1 1 0.999853
0.999727 1 1 0.999727
0.999851 1 1 0.999851
0.999989 1 1 0.999989
0.999844 1 1 0.999844
0.99999 1 1 0.99999
1 1 1 1
0.999991 1 1 0.999991
1 1 1 1
1 1 1 1
1 1 1 1
1 1 1 1
1 1 1 1
0.999917 1 1 0.999917
1 1 1 1
1 1 1 1
1 1 1 1
1 1 1 1
1 1 1 1
1 1 1 1
1 1 1 1
1 1 1 1
1 1 1 1
1.00493 1.00763 0.997784 0.999531
0.999701 1.00036 1 0.999338
1.0033 1.00386 1 0.999437
0.980707 0.98446 0.997249 0.998935
1.00347 1.00411 0.999752 0.999612
1.00254 1.00328 1.00003 0.999238
1.0048 1.00388 1.00159 0.999333
0.986666 0.986526 1.00136 0.99878
0.963144 0.967083 0.999752 0.996174
0.92756 0.947371 0.980886 0.998169
0.938241 0.965343 0.972576 0.99933
0.999794 1 1 0.999794
0.999921 1 1 0.999921
0.999915 1 1 0.999915
0.999794 1 1 0.999794
0.999715 1 1 0.999715
0.999734 1 1 0.999734
0.999797 1 1 0.999797
0.999805 1 1 0.999805
0.999862 1.00054 1.00003 0.999293
1.00058 1.00197 0.999126 0.999488
0.998766 1 0.999317 0.999447
1.00117 1 1.00175 0.999417
1.00148 1 1.00225 0.999239
0.999814 1 1.00045 0.999369
0.999476 1 1.00008 0.999399
0.999526 1 1 0.999526
0.999744 1 1 0.999744
0.999609 1 1 0.999609
0.999799 1 1 0.999799
0.999672 1 1 0.999672
1.00299 1.00421 0.999465 0.999312
0.999646 1 1 0.999646
0.999626 1 1 0.999626
0.998509 1.0018 0.997283 0.999434
0.999668 1.00004 1.0004 0.99922
1.00149 1 1.00218 0.999317
0.999479 1 1 0.999479
1.0014 1 1.00209 0.999313
0.995579 1.00815 0.988236 0.999289
1.00229 1.00061 1.00244 0.999236
1.00027 1 1.00103 0.999236
1.00438 1 1.0051 0.999281
0.999572 1 1 0.999572
0.999515 1 1 0.999515
0.999912 1 1.00054 0.999369
0.940066 0.953685 0.986981 0.998721
0.961627 0.965575 0.998985 0.996923
0.999473 1 1 0.999473
0.999405 1 1 0.999405
0.998978 1.00635 0.99337 0.999305
0.999114 1.00048 0.999438 0.999194
1.00287 1 1.00363 0.999237
0.959825 0.964993 0.998484 0.996155
0.997458 0.998094 1.00046 0.998908
0.995518 1.01369 0.982671 0.999394
0.93361 0.949354 0.985108 0.998282
0.930096 0.964652 0.964879 0.999272
0.999464 1 1 0.999464
0.937753 0.952711 0.985486 0.998797
0.958098 0.971352 0.98691 0.999439
0.983308 1.00187 0.982174 0.999287
1.0012 1 1.00181 0.99939
1.00802 1 1.00875 0.999274
0.992869 1.0076 0.986019 0.99935
0.972237 0.972891 1.00295 0.996387
0.999217 0.999765 1.00068 0.998774
0.93658 0.955277 0.982164 0.998232
0.976074 1.00201 0.974565 0.999539
0.999439 1 1 0.999439
0.974745 0.977393 0.997691 0.999599
1.01533 1.01769 0.997914 0.99977
0.996725 1 0.99734 0.999383
1.00686 1 1.00737 0.999495
1.00801 1.00361 1.00476 0.999633
0.994559 0.996933 0.998344 0.999274
0.976442 0.973959 1.00604 0.996527
0.954038 0.975523 0.97974 0.998199
0.999323 1.01867 0.981335 0.999662
0.999468 1 1 0.999468
0.999442 1 1 0.999442
0.999858 1 1.00042 0.999437
0.999843 1 1 0.999843
0.99974 1 1 0.99974
0.99965 1 1 0.99965
0.99959 1 1 0.99959
0.999493 1 1 0.999493
0.99974 1 1 0.99974
0.999561 1 1 0.999561
0.999638 1 1 0.999638
0.999703 1 1.00024 0.999458
0.999987 1 1.00055 0.999433
0.999619 1 1.00009 0.999532
0.999644 1 1 0.999644
0.999745 1 1 0.999745
0.999635 1 1 0.999635
0.99965 1 1 0.99965
0.999633 1 1 0.999633
0.999584 1 1 0.999584
0.999608 1 1 0.999608
0.999578 1 1 0.999578
0.999544 1 1 0.999544
0.999521 1 1 0.999521
0.999535 1 1 0.999535
0.99957 1 1 0.99957
0.999582 1 1 0.999582
0.999686 1 1 0.999686
0.999709 1 1 0.999709
0.999839 1 1 0.999839
0.99973 1 1 0.99973
0.999852 1 1 0.999852
0.999987 1 1 0.999987
0.999843 1 1 0.999843
0.999989 1 1 0.999989
1 1 1 1
0.99999 1 1 0.99999
1 1 1 1
1 1 1 1
1 1 1 1
1 1 1 1
1 1 1 1
0.999924 1 1 0.999924
1 1 1 1
0.999918 1 1 0.999918
1 1 1 1
1 1 1 1
1 1 1 1
1 1 1 1
1 1 1 1
1 1 1 1
1 1 1 1
1 1 1 1
0.937174 0.94997 0.987613 0.998902
0.960768 0.973165 0.987713 0.999542
0.983611 0.98512 0.999241 0.999227
1.00357 1.00397 0.999984 0.999618
1.00272 1.00347 1.00003 0.999222
0.986183 0.985026 1.00172 0.999451
1.00401 1.00387 1.0008 0.999341
0.966219 0.969284 0.999952 0.996885
0.934524 0.948503 0.986349 0.998898
0.934762 0.965788 0.968546 0.999307
0.999876 0.996482 1.00384 0.999565
0.972345 0.972805 1.00274 0.996796
0.933561 0.95414 0.979547 0.998862
0.976043 0.998854 0.97769 0.999461
0.999685 1 1 0.999685
0.999801 1 1 0.999801
0.999921 1 1 0.999921
0.999788 1 1 0.999788
0.999724 1 1 0.999724
0.9997 1 1 0.9997
0.999737 1 1 0.999737
0.999752 1 1 0.999752
0.999787 1 1 0.999787
0.999797 1 1 0.999797
1.00279 1.00447 0.999025 0.999296
0.997926 1.00143 0.997063 0.999431
0.999379 1 1.00013 0.999247
1.00176 1 1.00247 0.999297
1.00129 1 1.00198 0.999317
0.999475 1 1 0.999475
0.999627 1 1 0.999627
0.999652 1 1 0.999652
0.997491 1.00747 0.990827 0.999261
0.999567 1 1 0.999567
0.999502 1 1 0.999502
1.00046 1.00045 1.0008 0.999213
1.0006 1 1.00133 0.999264
1.00343 1 1.00416 0.999268
1.00048 1 1.00112 0.999361
0.996337 1.01267 0.984736 0.999123
1.00816 1 1.00887 0.999296
1.00403 1 1.00476 0.999276
0.999561 1 1 0.999561
0.999487 1 1 0.999487
0.999399 1 1 0.999399
0.974757 0.978963 0.996183 0.999519
0.941885 0.952772 0.990342 0.998214
0.959089 0.965399 0.996689 0.996765
0.999463 1 1 0.999463
1.00067 1 1.00128 0.999394
0.985732 1.00196 0.984516 0.999278
1.00747 1 1.00819 0.999286
0.935036 0.951473 0.984495 0.998201
0.97029 0.97207 1.00081 0.997358
1.00046 1.00066 1.0016 0.998197
0.98918 1.00518 0.984732 0.99934
0.940011 0.955258 0.985079 0.998944
0.959498 0.972879 0.986842 0.999396
0.968122 0.995987 0.972534 0.999474
0.999437 1 1 0.999437
0.971328 0.97686 0.994786 0.999548
1.01478 1.01723 0.997815 0.999772
0.997063 1 0.99767 0.999392
1.00708 1 1.00759 0.999496
1.00883 1.00315 1.00642 0.999247
0.994886 0.996848 0.999624 0.998408
0.975182 0.975332 1.00342 0.996435
0.960743 0.97856 0.982756 0.999019
0.993317 1.0134 0.980571 0.999603
0.999782 1 1.00021 0.999573
1.02018 1.02056 0.999791 0.999838
1.02274 1.02555 0.997399 0.999865
1.00797 1 1.00825 0.999721
0.997563 0.992311 1.00561 0.999686
0.982475 0.98033 1.00571 0.996498
0.978912 0.993859 0.985881 0.999067
0.994377 1.01507 0.98003 0.999581
0.999436 1 1 0.999436
0.999805 1 1.00036 0.99945
1.00079 1 1.0013 0.999488
0.99974 1 1 0.99974
0.999638 1 1 0.999638
0.999569 1 1 0.999569
0.999734 1 1.00028 0.999452
0.999643 1 1 0.999643
0.999564 1 1.00003 0.999533
1.00036 1 1.00093 0.999433
1.00033 1 1.00086 0.999478
0.999663 1 1.00021 0.999451
0.999567 1 1 0.999567
0.99965 1 1 0.99965
0.999633 1 1 0.999633
0.999581 1 1 0.999581
0.99958 1 1 0.99958
0.999608 1 1 0.999608
0.999548 1 1 0.999548
0.999523 1 1 0.999523
0.999519 1 1 0.999519
0.999491 1 1 0.999491
0.999523 1 1 0.999523
0.999513 1 1 0.999513
0.999489 1 1 0.999489
0.999603 1 1 0.999603
0.999561 1 1 0.999561
0.999579 1 1 0.999579
0.999653 1 1 0.999653
0.999583 1 1 0.999583
0.999686 1 1 0.999686
0.99982 1 1 0.99982
0.999709 1 1 0.999709
0.999839 1 1 0.999839
0.999984 1 1 0.999984
0.999852 1 1 0.999852
0.999986 1 1 0.999986
1 1 1 1
0.999988 1 1 0.999988
1 1 1 1
1 1 1 1
1 1 1 1
1 1 1 1
1 1 1 1
0.999886 1 1 0.999886
1 1 1 1
0.999908 1 1 0.999908
1 1 1 1
1 1 1 1
0.999918 1 1 0.999918
1 1 1 1
1 1 1 1
1 1 1 1
1 1 1 1
1 1 1 1
1 1 1 1
0.974967 0.977664 0.997608 0.999633
0.938925 0.950655 0.989115 0.998531
1.01308 1.01784 0.995556 0.999767
0.957766 0.970681 0.987177 0.999511
0.982767 0.983685 1.00036 0.998705
1.00333 1.00394 1.00004 0.999352
0.966866 0.969125 1.00005 0.997622
0.931922 0.949076 0.983691 0.998205
0.931651 0.966412 0.964722 0.999284
0.997001 0.997835 0.999879 0.999285
0.971569 0.970836 1.00412 0.996652
0.935775 0.957481 0.979092 0.9982
0.975869 0.999528 0.976852 0.999466
0.99876 1.00424 0.995118 0.999427
0.972742 0.971324 1.00497 0.996504
0.963735 0.981383 0.983019 0.998981
0.997025 1.0171 0.980634 0.999625
0.999621 1 1 0.999621
0.999696 1 1 0.999696
0.999808 1 1 0.999808
0.999733 1 1 0.999733
0.999641 1 1 0.999641
0.999708 1 1 0.999708
0.99974 1 1 0.99974
0.99974 1 1 0.99974
0.999762 1 1 0.999762
0.999778 1 1 0.999778
0.999516 1.00715 0.993186 0.999232
0.998555 1.00022 0.999148 0.999192
1.00088 1 1.00159 0.999292
1.00274 1 1.00349 0.999256
1.00111 1 1.00176 0.999353
0.99949 1 1 0.99949
0.999562 1 1 0.999562
0.999563 1 1 0.999563
0.996092 1.01031 0.986783 0.999134
0.999494 1 1 0.999494
0.999486 1 1.00009 0.999396
1.00745 1 1.00819 0.999271
1.00389 1 1.00462 0.999276
0.996897 1.01062 0.987188 0.999225
1.01731 1 1.01794 0.999387
1.00012 1 1.00078 0.999341
0.999504 1 1 0.999504
0.999402 1 1 0.999402
1.02103 1.02142 0.999768 0.999858
0.9756 0.978594 0.997355 0.999585
0.941312 0.953437 0.988405 0.998865
0.999435 1 1 0.999435
1.00712 1 1.00763 0.999498
0.997041 1 0.997641 0.999399
0.975802 0.978393 0.99773 0.999621
0.974911 0.973083 1.0055 0.996398
0.996155 0.996574 1.00044 0.999142
1.00899 1.002 1.00815 0.998837
0.955837 0.974991 0.982121 0.998202
1.01446 1.01702 0.997703 0.999774
0.992641 1.01209 0.981168 0.999606
0.999721 1 1.00014 0.999585
1.0204 1.02063 0.999921 0.999858
1.02413 1.02726 0.997088 0.999866
1.00858 0.999985 1.00898 0.999618
0.998614 0.994302 1.00492 0.999416
0.985583 0.982351 1.00691 0.996408
0.997379 1.01842 0.979695 0.999634
0.972604 0.988689 0.985017 0.998694
0.999975 1 1.00026 0.999711
1.02192 1.02366 0.998346 0.999951
1.02635 1.0291 0.997446 0.999882
0.998089 1.016 0.982742 0.999627
1.006 0.994363 1.01185 0.999861
0.983083 0.980674 1.00572 0.99676
0.967819 0.985127 0.983463 0.998951
0.99973 1 1.00027 0.999463
1.00055 1 1.00109 0.999455
1.00313 1 1.00355 0.999576
0.999643 1 1 0.999643
0.999534 1 1 0.999534
1.00081 1 1.00138 0.999433
0.999569 1 1 0.999569
0.999775 1 1.00033 0.999449
1.00072 1 1.00126 0.999457
0.999874 1 1.00035 0.99952
0.999483 1 1 0.999483
0.999582 1 1 0.999582
0.999608 1 1 0.999608
0.999552 1 1 0.999552
0.999519 1 1 0.999519
0.999525 1 1 0.999525
0.999494 1 1 0.999494
0.999512 1 1 0.999512
0.999756 1 1.00036 0.999399
0.999525 1 1 0.999525
0.99951 1 1 0.99951
0.999408 1 1 0.999408
0.999504 1 1 0.999504
0.999595 1 1 0.999595
0.999491 1 1 0.999491
0.999658 1 1 0.999658
0.999597 1 1 0.999597
0.999588 1 1 0.999588
0.999588 1 1 0.999588
0.999661 1 1 0.999661
0.999797 1 1 0.999797
0.999686 1 1 0.999686
0.999819 1 1 0.999819
0.999978 1 1 0.999978
0.999838 1 1 0.999838
0.999982 1 1 0.999982
1 1 1 1
0.999985 1 1 0.999985
1 1 1 1
1 1 1 1
1 1 1 1
1 1 1 1
1 1 1 1
0.999836 1 1 0.999836
0.999977 1 1 0.999977
0.999884 1 1 0.999884
1 1 1 1
0.999991 1 1 0.999991
0.999891 1 1 0.999891
1 1 1 1
1 1 1 1
1 1 1 1
1 1 1 1
1 1 1 1
1 1 1 1
1.01981 1.02032 0.999662 0.999847
0.969869 0.976575 0.993623 0.999507
0.941728 0.950724 0.992251 0.998274
0.999699 1 1 0.999699
1.02585 1.02861 0.997425 0.999892
1.01437 1.01822 0.996449 0.999768
0.954218 0.971242 0.983047 0.999416
0.994474 0.998721 0.99677 0.998974
0.972981 0.971501 1.0048 0.996744
0.939404 0.960177 0.979433 0.99891
0.974165 0.997213 0.977457 0.999417
0.998755 1.00775 0.992422 0.998643
0.973741 0.972171 1.00505 0.996577
0.963166 0.981315 0.982843 0.998639
0.993937 1.01553 0.979149 0.999579
0.987784 0.998996 0.990355 0.998406
0.977865 0.975618 1.00652 0.995812
0.973298 0.991162 0.983638 0.99831
0.995214 1.01723 0.978783 0.999565
0.999557 1 1 0.999557
0.999614 1 1 0.999614
0.999706 1 1 0.999706
0.999626 1 1 0.999626
0.999653 1 1 0.999653
0.999716 1 1 0.999716
0.999743 1 1 0.999743
0.999772 1 1 0.999772
0.995677 1.00779 0.988829 0.999146
1.00621 1 1.00697 0.999245
0.999564 1 1 0.999564
1.00365 1 1.00438 0.999277
0.99956 1 1.00017 0.999393
0.9995 1 1 0.9995
0.999506 1 1 0.999506
0.998555 1.00979 0.989639 0.999232
0.999409 1 1 0.999409
1.00094 1 1.0016 0.999335
1.01681 1 1.01745 0.999372
0.999504 1 1 0.999504
1.0031 1.00289 1.00066 0.999558
1.0131 1 1.01363 0.999476
0.999404 1 1 0.999404
0.999446 1 1 0.999446
1.02125 1.022 0.999312 0.999956
1.02019 1.02061 0.999723 0.99986
0.976348 0.9781 0.998555 0.999653
0.999597 1 1 0.999597
1.00935 0.999979 1.00986 0.999517
1.02057 1.0207 0.999995 0.999879
0.981545 0.977187 1.00802 0.996467
1.00123 0.996737 1.00587 0.998647
0.971151 0.989269 0.983306 0.998351
1.02525 1.02867 0.996807 0.999868
1.00069 1.02222 0.979246 0.999687
1.00015 1 1.00047 0.999681
1.02289 1.02471 0.998278 0.999951
1.02593 1.02846 0.997638 0.999902
1.0069 0.995295 1.01173 0.999931
0.994656 1.01429 0.981054 0.999581
0.981174 0.982034 1.00219 0.996937
0.967767 0.986566 0.982664 0.99825
1.00647 0.998125 1.0086 0.999772
1.01633 1.01826 0.998144 0.999969
1.02673 1.02887 0.998035 0.999889
0.976048 0.998314 0.978216 0.999469
0.972213 0.989343 0.984339 0.99832
1.00418 0.992575 1.01154 1.00016
0.977427 0.976645 1.00413 0.996682
1.00031 1 1.00089 0.999421
1.00224 1 1.00268 0.999563
1.0122 1 1.01262 0.999581
0.999572 1 1 0.999572
0.999814 1 1.00037 0.999448
1.00097 1 1.00154 0.999435
0.999483 1 1 0.999483
0.99995 1 1.00043 0.999517
1.00284 1 1.00337 0.999472
0.99952 1 1 0.99952
0.999527 1 1 0.999527
0.999665 1 1.00018 0.999486
1.00129 1 1.00191 0.999388
0.999534 1 1 0.999534
0.999613 1 1.0002 0.999416
0.999938 1 1.00063 0.999313
0.999382 1 1 0.999382
0.999508 1 1 0.999508
0.999393 1 1 0.999393
0.999551 1 1 0.999551
0.999583 1 1 0.999583
0.999516 1 1 0.999516
0.999661 1 1 0.999661
0.999593 1 1 0.999593
0.999493 1 1 0.999493
0.999779 1 1 0.999779
0.999654 1 1 0.999654
0.999591 1 1 0.999591
0.99967 1 1 0.99967
0.999797 1 1 0.999797
0.99997 1 1 0.99997
0.999819 1 1 0.999819
0.999976 1 1 0.999976
1 1 1 1
0.999981 1 1 0.999981
1 1 1 1
1 1 1 1
1 1 1 1
1 1 1 1
1 1 1 1
0.999812 1 1 0.999812
0.999963 1 1 0.999963
0.999846 1 1 0.999846
1 1 1 1
0.999977 1 1 0.999977
0.999883 1 1 0.999883
1 1 1 1
1 1 1 1
0.999982 1 1 0.999982
1 1 1 1
1 1 1 1
1 1 1 1
1.02242 1.02338 0.999119 0.999949
1.01983 1.02052 0.999473 0.999849
0.971545 0.97698 0.994926 0.999508
0.999704 1 1 0.999704
0.999675 1 1 0.999675
0.999627 1 1 0.999627
1.02542 1.0283 0.997318 0.999883
1.02675 1.02915 0.997777 0.999892
1.01632 1.01862 0.997973 0.99977
1.00397 1.01157 0.993155 0.999332
0.974008 0.971302 1.00626 0.996547
0.959868 0.97787 0.983353 0.998208
0.995564 1.01756 0.978762 0.999609
0.98533 0.997412 0.988755 0.999122
0.979325 0.976108 1.00676 0.996563
0.975011 0.991687 0.98419 0.998977
0.997407 1.01991 0.978301 0.999624
0.979423 0.990843 0.989223 0.999243
0.980895 0.977923 1.00637 0.99669
0.973041 0.989243 0.98472 0.998884
0.997898 1.01748 0.981093 0.999659
0.999539 1 1 0.999539
0.999557 1 1 0.999557
0.999607 1 1 0.999607
0.999624 1 1 0.999624
0.999665 1 1 0.999665
0.999747 1 1 0.999747
1.00095 1.00883 0.992946 0.999239
1.01653 1 1.01718 0.999357
0.999507 1 1 0.999507
1.00164 1 1.00231 0.99933
0.999415 1 1 0.999415
0.999502 1 1 0.999502
0.999442 1 1 0.999442
1.00334 1.0039 0.999892 0.999549
0.999417 1 1 0.999417
1.01321 0.9996 1.01412 0.9995
0.999469 1 1 0.999469
1.01845 0.997475 1.02128 0.999754
0.999096 0.999031 1.00044 0.999628
0.999415 1 1 0.999415
1.01185 1.01284 0.99904 0.99998
1.01981 1.02065 0.99921 0.999961
1.01932 1.01982 0.99965 0.999863
1.00036 1 1.00071 0.999651
1.00332 0.995051 1.00832 0.999986
1.02384 1.02571 0.998226 0.99995
0.98771 0.985493 1.00413 0.998125
0.975536 0.991417 0.984943 0.999023
1.02578 1.0279 0.998015 0.999921
0.996416 1.01633 0.980791 0.999611
1.00554 0.998896 1.00687 0.999788
1.01517 1.01673 0.998493 0.999972
1.0278 1.02941 0.998548 0.99989
1.0056 0.991597 1.01478 0.999349
0.976438 0.999219 0.977718 0.999471
0.973548 0.98998 0.984401 0.998985
0.979673 0.978419 1.00446 0.996832
1.02562 1 1.02574 0.999889
1.0224 1.02314 0.999325 0.999948
1.01471 1.01821 0.996799 0.999763
0.937191 0.964145 0.97269 0.999335
0.961754 0.979437 0.982925 0.999004
0.987821 0.982179 1.00904 0.996738
0.985558 0.99024 0.996169 0.999099
1.00122 1 1.00167 0.99955
1.01332 1 1.01374 0.999586
1.01951 1 1.01998 0.999536
0.999484 1 1 0.999484
1.00007 1 1.00055 0.999514
1.00228 1 1.00281 0.999479
1.01004 1 1.01067 0.999367
0.999797 1 1.00032 0.999479
1.00153 1 1.00216 0.99937
1.00445 1 1.00521 0.99924
0.999433 1 1 0.999433
1.00035 1 1.00104 0.99931
1.00086 1 1.00162 0.999239
0.999307 1 1 0.999307
0.999496 1 1 0.999496
0.999414 1 1.00004 0.999369
0.999379 1 1 0.999379
0.9996 1 1 0.9996
0.999565 1 1 0.999565
0.99964 1 1 0.99964
0.999592 1 1 0.999592
0.999529 1 1 0.999529
0.999765 1 1 0.999765
0.999661 1 1 0.999661
0.999592 1 1 0.999592
0.999957 1 1 0.999957
0.999779 1 1 0.999779
0.999651 1 1 0.999651
0.999797 1 1 0.999797
0.999967 1 1 0.999967
1 1 1 1
0.999974 1 1 0.999974
1 1 1 1
1 1 1 1
1 1 1 1
1 1 1 1
1 1 1 1
0.999809 1 1 0.999809
0.999976 1 1 0.999976
0.99982 1 1 0.99982
1 1 1 1
0.999976 1 1 0.999976
0.999855 1 1 0.999855
1 1 1 1
1 1 1 1
0.999976 1 1 0.999976
1 1 1 1
1 1 1 1
1 1 1 1
1.01664 1.01824 0.998468 0.999968
1.02282 1.02386 0.999037 0.999949
1.01973 1.02072 0.999175 0.999851
0.999665 1 1 0.999665
0.999616 1 1 0.999616
0.999708 1 1 0.999708
0.999673 1 1 0.999673
0.999617 1 1 0.999617
0.999609 1 1 0.999609
0.999565 1 1 0.999565
1.02153 1.02395 0.997775 0.999865
1.02523 1.02798 0.997419 0.999902
1.02729 1.02969 0.997777 0.999893
1.00047 1.02316 0.978138 0.999683
0.988351 1.00193 0.988013 0.998416
0.981288 0.976887 1.00726 0.997264
0.973715 0.988309 0.986989 0.99822
0.982396 0.99116 0.992324 0.998825
0.983253 0.980638 1.00607 0.996618
0.97279 0.990682 0.983684 0.998228
0.993349 1.01388 0.980159 0.999581
0.980574 0.984802 0.996209 0.999497
0.97505 0.981686 0.996675 0.996554
0.98436 0.998169 0.987159 0.998993
0.983199 1.00357 0.980133 0.999564
0.99952 1 1 0.99952
0.999538 1 1 0.999538
0.999557 1 1 0.999557
0.999623 1 1 0.999623
1.00243 1.00489 0.998003 0.999541
1.01358 0.999102 1.01497 0.999523
0.999499 1 1 0.999499
0.999438 1 1 0.999438
0.999429 1 1 0.999429
0.999472 1 1 0.999472
0.999407 1 1 0.999407
1.00936 0.995413 1.01424 0.999766
0.999577 0.999473 1.00044 0.999666
0.999422 1 1 0.999422
1.02111 0.991118 1.03033 0.999935
1.00339 1 1.00395 0.999438
1.02165 1.02206 0.999645 0.999955
1.0094 1.01024 0.999185 0.999984
1.01843 1.01928 0.999198 0.999966
1.00453 0.999612 1.00511 0.999805
1.00672 0.99137 1.01537 1.00011
1.01398 1.01523 0.998793 0.999975
0.97752 0.976514 1.00437 0.996678
0.971304 0.986285 0.986551 0.998237
1.02842 1.02995 0.998619 0.99989
0.974929 0.996723 0.978695 0.999427
1.02767 0.999123 1.0287 0.999873
1.02271 1.02359 0.999189 0.999948
1.01588 1.01859 0.997571 0.999765
0.990247 0.992857 0.997368 1
0.933705 0.9645 0.96874 0.99931
0.96032 0.978444 0.982795 0.998658
0.989607 0.982044 1.01075 0.99698
1.01497 0.999258 1.01589 0.999835
1.02024 1.02036 1.00004 0.999843
0.961397 0.972607 0.988925 0.999544
0.931818 0.952358 0.979542 0.998867
0.981203 0.976898 1.00784 0.99659
0.98595 0.993664 0.993478 0.998751
1.01461 1 1.01502 0.99959
1.02019 1 1.02066 0.999534
1.0164 1 1.01696 0.999445
1.00178 1 1.0023 0.999485
1.0105 1 1.01112 0.999383
1.00769 1 1.00846 0.999228
1.00195 1 1.0026 0.999352
1.00445 1 1.00523 0.999224
1.00278 1 1.00364 0.999149
1.00083 1 1.00152 0.999307
1.00087 1 1.00165 0.999223
1.0006 1 1.0014 0.999206
0.999295 1 1 0.999295
0.999411 1 1 0.999411
0.999355 1 1.00006 0.999293
0.999571 1 1 0.999571
0.999506 1 1 0.999506
0.999456 1 1.0001 0.999356
0.999627 1 1 0.999627
0.999596 1 1 0.999596
0.999579 1 1 0.999579
0.999743 1 1 0.999743
0.999646 1 1 0.999646
0.999601 1 1 0.999601
0.99994 1 1 0.99994
0.999766 1 1 0.999766
0.999662 1 1 0.999662
1 1 1 1
0.999956 1 1 0.999956
0.99978 1 1 0.99978
0.999965 1 1 0.999965
1 1 1 1
1 1 1 1
1 1 1 1
1 1 1 1
1 1 1 1
0.999666 1 1 0.999666
0.999788 1 1 0.999788
0.999968 1 1 0.999968
0.999809 1 1 0.999809
1 1 1 1
0.999979 1 1 0.999979
0.999828 1 1 0.999828
1 1 1 1
1 1 1 1
0.999988 1 1 0.999988
1 1 1 1
1 1 1 1
1 1 1 1
1.02238 1.02311 0.999336 0.99995
1.01557 1.01677 0.998852 0.999971
1.02324 1.02434 0.998978 0.999949
0.999669 1 1 0.999669
0.99961 1 1 0.99961
0.999598 1 1 0.999598
0.999604 1 1 0.999604
0.99958 1 1 0.99958
0.999672 1 1 0.999672
0.999607 1 1 0.999607
0.999609 1 1 0.999609
0.999564 1 1 0.999564
0.999563 1 1 0.999563
1.01475 1.01583 0.999178 0.999765
1.02284 1.02555 0.997493 0.999866
1.02473 1.02742 0.997465 0.999921
0.99258 1.01249 0.980744 0.999587
0.978626 0.993593 0.985943 0.99898
0.983594 0.990197 0.994859 0.998464
0.978351 0.98106 1.00053 0.996708
0.984446 0.984803 1.00093 0.998709
0.978706 0.979941 1.00209 0.99666
0.977057 0.992985 0.985306 0.998633
0.977727 1.00124 0.976972 0.999533
1.00255 0.983279 1.02075 0.998876
0.979184 0.982353 1.00001 0.996768
0.954865 0.976528 0.979555 0.998225
0.944592 0.974337 0.970115 0.999336
0.999586 1 1 0.999586
0.999522 1 1 0.999522
0.999536 1 1 0.999536
1.00141 0.993845 1.00784 0.999778
1.00011 1 1.00041 0.999705
0.999475 1 1 0.999475
0.9994 1 1 0.9994
0.999463 1 1.00003 0.999429
1.00387 1 1.00444 0.999437
1.02127 0.992947 1.02859 0.999936
1.00381 1 1.00435 0.999457
1.01203 0.998305 1.01406 0.999694
1.02038 1.02053 1 0.999851
1.02014 1.0206 0.999593 0.99996
1.00692 1.00767 0.999277 0.999988
1.0297 0.998478 1.03142 0.999855
0.98906 0.991963 0.998097 0.998974
1.02307 1.02405 0.999098 0.999948
0.98189 0.980564 1.00546 0.995914
0.958223 0.976031 0.983483 0.998243
1.01767 1.01898 0.998948 0.999767
0.93101 0.965247 0.96522 0.999286
1.01525 0.999595 1.01583 0.999838
1.02036 1.02062 0.999899 0.999845
0.957791 0.969837 0.98806 0.999514
0.982327 0.992086 0.990957 0.999199
0.934496 0.95619 0.979057 0.998217
0.982288 0.978174 1.00808 0.996161
0.997852 0.999301 0.998878 0.999672
0.974994 0.977588 0.997713 0.999633
0.928025 0.946813 0.981948 0.998175
0.975411 0.973379 1.00558 0.996522
0.998549 0.998743 1.00062 0.999188
1.02043 1 1.02091 0.999531
1.01877 1 1.01934 0.999443
1.00107 1 1.00175 0.999317
1.01076 1 1.01137 0.999399
1.00724 1 1.00801 0.999239
1.0016 1 1.00243 0.999173
1.0042 1 1.005 0.999208
1.0023 1 1.00315 0.999152
0.999264 1 1.00003 0.99923
1.00082 1 1.00161 0.999207
1.00022 1 1.00101 0.999213
0.99931 1 1 0.99931
0.999372 1 1 0.999372
0.999364 1 1 0.999364
0.9993 1 1 0.9993
0.999503 1 1 0.999503
0.999394 1 1 0.999394
0.999391 1 1.00011 0.999279
0.999631 1 1 0.999631
0.999581 1 1 0.999581
0.999515 1 1 0.999515
0.999717 1 1 0.999717
0.999628 1 1 0.999628
0.999592 1 1 0.999592
0.999915 1 1 0.999915
0.999743 1 1 0.999743
0.999652 1 1 0.999652
1 1 1 1
0.99994 1 1 0.99994
0.999766 1 1 0.999766
1 1 1 1
1 1 1 1
0.999954 1 1 0.999954
1 1 1 1
1 1 1 1
1 1 1 1
0.999647 1 1 0.999647
0.999768 1 1 0.999768
0.999662 1 1 0.999662
0.99996 1 1 0.99996
0.999788 1 1 0.999788
1 1 1 1
0.99997 1 1 0.99997
0.999809 1 1 0.999809
1 1 1 1
1 1 1 1
0.999981 1 1 0.999981
1 1 1 1
1 1 1 1
1 1 1 1
1.01925 1.01939 1 0.999869
1.02358 1.02433 0.999312 0.999949
1.01448 1.01534 0.999182 0.999975
0.999607 1 1 0.999607
0.999673 1 1 0.999673
0.999604 1 1 0.999604
0.999611 1 1 0.999611
0.999604 1 1 0.999604
0.99958 1 1 0.99958
0.999564 1 1 0.999564
0.999564 1 1 0.999564
0.99961 1 1 0.99961
0.999563 1 1 0.999563
0.999562 1 1 0.999562
0.999551 1 1 0.999551
0.958993 0.973875 0.985296 0.999415
1.01379 1.01497 0.99907 0.999766
1.02448 1.02739 0.997295 0.999868
0.97158 0.996575 0.975452 0.999454
0.977547 0.994705 0.984423 0.998301
0.974022 0.98094 0.996371 0.996564
0.987311 0.981549 1.00629 0.999578
1.00154 0.982087 1.0201 0.999712
0.939277 0.969996 0.968996 0.999315
0.982309 0.981907 1.00415 0.996274
0.95723 0.97674 0.981033 0.998973
0.996579 0.990921 1.00604 0.999676
0.979152 0.976922 1.00544 0.996857
0.9326 0.952571 0.980116 0.998897
1.0001 1 1.00041 0.999691
0.999587 1 1 0.999587
0.999523 1 1 0.999523
1.02109 0.99463 1.02667 0.999935
1.0045 1 1.00506 0.999435
0.999487 1 1.00005 0.999437
1.0041 1 1.00465 0.999459
1.01127 0.999072 1.01251 0.999703
1.00908 1 1.00939 0.999696
0.974334 0.978401 0.996359 0.999481
1.01982 1.01996 0.999986 0.999873
1.01871 1.01914 0.999616 0.999965
1.01542 0.999846 1.01574 0.999843
0.983515 0.993847 0.990082 0.999517
1.02038 1.02088 0.999666 0.999846
0.985117 0.979332 1.00862 0.997308
0.937994 0.958804 0.979358 0.998916
0.953407 0.970318 0.983144 0.999418
0.997272 1.00002 0.997565 0.999684
0.969403 0.976366 0.993359 0.999506
0.935364 0.947581 0.988187 0.998906
0.999462 0.997823 1.00319 0.998461
0.977051 0.975677 1.00485 0.996576
0.996128 1.00758 0.989162 0.999466
0.937022 0.950138 0.987271 0.99891
0.973632 0.973214 1.00371 0.996734
0.999548 1.00429 0.996902 0.998374
1.02192 1 1.02249 0.999441
0.999277 1 0.99995 0.999327
0.994924 1.00012 0.99549 0.999317
1.00705 1 1.0078 0.99925
1.00157 1 1.0024 0.999176
0.999401 1.00005 1 0.999346
1.00193 1 1.00278 0.999154
0.999502 1 1.00026 0.999239
0.999437 1 1 0.999437
0.999871 1 1.00065 0.999219
0.999315 1 1 0.999315
0.999474 1 1 0.999474
0.999493 1 1 0.999493
0.999397 1 1 0.999397
0.999385 1 1 0.999385
0.999448 1 1 0.999448
0.999375 1 1 0.999375
0.999305 1 1 0.999305
0.9996 1 1 0.9996
0.999502 1 1 0.999502
0.999376 1 1 0.999376
0.999704 1 1 0.999704
0.99963 1 1 0.99963
0.999592 1 1 0.999592
0.999885 1 1 0.999885
0.999718 1 1 0.999718
0.999629 1 1 0.999629
1 1 1 1
0.999915 1 1 0.999915
0.999743 1 1 0.999743
1 1 1 1
1 1 1 1
0.999939 1 1 0.999939
1 1 1 1
1 1 1 1
1 1 1 1
0.999655 1 1 0.999655
0.999649 1 1 0.999649
0.999748 1 1 0.999748
0.999949 1 1 0.999949
0.999768 1 1 0.999768
0.999657 1 1 0.999657
1 1 1 1
0.999961 1 1 0.999961
0.999788 1 1 0.999788
1 1 1 1
1 1 1 1
0.999972 1 1 0.999972
1 1 1 1
1 1 1 1
1 1 1 1
0.974116 0.97696 0.997486 0.999601
1.01932 1.01945 1 0.99987
1.02474 1.0255 0.999304 0.999949
0.999602 1 1 0.999602
0.999617 1 1 0.999617
0.999578 1 1 0.999578
0.999618 1 1 0.999618
0.99961 1 1 0.99961
0.99958 1 1 0.99958
0.999566 1 1 0.999566
0.999566 1 1 0.999566
0.999535 1 1 0.999535
0.999558 1 1 0.999558
0.999562 1 1 0.999562
0.999552 1 1 0.999552
0.935282 0.948981 0.986614 0.998936
0.95888 0.972161 0.986892 0.99944
1.01308 1.01426 0.99907 0.999767
0.934049 0.966107 0.967501 0.999293
0.954164 0.973735 0.981636 0.998234
0.989362 0.986677 1.00524 0.997491
1.00802 0.982458 1.02721 0.99884
0.996938 0.991033 1.00712 0.998844
0.935386 0.954588 0.981586 0.998266
0.983372 0.980548 1.00575 0.997145
0.996333 0.991863 1.00565 0.998861
0.977387 0.975984 1.00466 0.99679
1.00773 1 1.00819 0.999545
0.999955 1 1.00027 0.999688
0.999588 1 1 0.999588
1.01026 0.999658 1.0109 0.999711
1.0044 1 1.00494 0.999461
1.00885 1 1.00918 0.999677
1.00164 1.00065 1.00146 0.999518
0.938843 0.954528 0.984799 0.998749
0.975235 0.978113 0.997493 0.999564
1.01915 1.01934 0.999918 0.999895
0.995839 1.00041 0.995733 0.999698
1.00059 0.99678 1.00463 0.9992
0.971128 0.976964 0.994516 0.999508
0.977395 0.974188 1.00675 0.996561
0.93173 0.947991 0.984611 0.998208
0.996845 1.00701 0.990428 0.999469
0.938816 0.950957 0.988694 0.998522
0.974026 0.972148 1.00532 0.996627
1.00053 1.00217 0.999273 0.999096
1.00962 1.0122 0.998179 0.999273
0.963565 0.967187 1.00011 0.996149
0.997416 1.00177 0.996336 0.999313
0.997564 1 0.998226 0.999337
0.996282 1.00007 0.996906 0.999305
0.996405 1.00055 0.996471 0.999387
1.00145 1 1.00227 0.999179
0.999336 1.00009 0.999906 0.999344
0.999805 1.0008 0.999403 0.999603
0.999733 1 1.00048 0.999249
0.999439 1 1 0.999439
0.999692 1.00008 1 0.999614
0.99932 1 1 0.99932
0.999474 1 1 0.999474
0.999581 1 1 0.999581
0.999556 1 1 0.999556
0.999507 1 1 0.999507
0.999482 1 1 0.999482
0.999446 1 1 0.999446
0.999399 1 1 0.999399
0.999397 1 1 0.999397
0.999533 1 1 0.999533
0.99946 1 1 0.99946
0.999386 1 1 0.999386
0.999685 1 1 0.999685
0.999599 1 1 0.999599
0.999501 1 1 0.999501
0.999858 1 1 0.999858
0.999705 1 1 0.999705
0.999629 1 1 0.999629
1 1 1 1
0.999885 1 1 0.999885
0.999719 1 1 0.999719
1 1 1 1
1 1 1 1
0.999914 1 1 0.999914
1 1 1 1
1 1 1 1
1 1 1 1
0.999651 1 1 0.999651
0.999646 1 1 0.999646
0.999732 1 1 0.999732
0.999652 1 1 0.999652
0.999748 1 1 0.999748
0.99993 1 1 0.99993
1 1 1 1
0.99995 1 1 0.99995
0.999768 1 1 0.999768
1 1 1 1
1 1 1 1
0.999963 1 1 0.999963
1 1 1 1
1 1 1 1
1 1 1 1
0.94436 0.952538 0.993057 0.998346
0.972037 0.976878 0.995509 0.999533
1.01942 1.01955 1 0.999871
0.999597 1 1 0.999597
0.999575 1 1 0.999575
0.999621 1 1 0.999621
0.999619 1 1 0.999619
0.999583 1 1 0.999583
0.999567 1 1 0.999567
0.999568 1 1 0.999568
0.999538 1 1 0.999538
0.999565 1 1 0.999565
0.999528 1 1 0.999528
0.999701 1 1.00026 0.999444
0.999554 1 1 0.999554
0.999553 1 1 0.999553
0.973406 0.97684 1.00033 0.996157
0.940051 0.951374 0.989452 0.998631
0.959066 0.97247 0.986817 0.999391
0.937385 0.955452 0.982115 0.998956
0.979555 0.97671 1.00694 0.995997
1.00007 0.991951 1.0085 0.999692
0.997875 0.993826 1.00479 0.999291
0.978016 0.977357 1.00379 0.996891
0.992165 0.999046 0.994196 0.998909
1.00617 1.00131 1.0057 0.999157
1.00619 1 1.00666 0.999534
0.999685 1 1 0.999685
1.0077 1 1.00804 0.999661
1.00066 1.00092 1.00017 0.999569
0.957504 0.965271 0.995127 0.99681
0.941737 0.953743 0.989127 0.998266
0.97649 0.977901 0.998909 0.999648
0.997348 1.00683 0.99111 0.999472
1.00574 1.00658 1.00078 0.998384
0.942172 0.950974 0.992473 0.998258
0.97477 0.971796 1.00636 0.996718
1.00364 1.01098 0.993474 0.999267
0.966288 0.96887 1.00048 0.996854
0.997717 1.00418 0.994968 0.998584
0.998682 1.01019 0.989456 0.999143
0.99802 0.994191 1.00432 0.999535
0.996516 1.00001 0.997214 0.999292
0.996308 1.00047 0.996459 0.999376
0.999236 1.00386 0.995909 0.99948
0.99916 1.00008 0.999738 0.999342
0.999159 1.00042 0.999144 0.999599
0.999756 1.00101 0.99908 0.999663
0.999441 1 1 0.999441
0.999656 1.00006 0.999994 0.999606
0.999728 1.00011 0.999987 0.999627
0.999474 1 1 0.999474
0.999575 1 1 0.999575
0.999571 1 1 0.999571
0.999571 1 1 0.999571
0.99952 1 1 0.99952
0.99952 1 1 0.99952
0.999479 1 1 0.999479
0.999474 1 1 0.999474
0.999498 1 1 0.999498
0.999444 1 1 0.999444
0.999401 1 1 0.999401
0.999645 1 1 0.999645
0.999541 1 1 0.999541
0.999473 1 1 0.999473
0.999836 1 1 0.999836
0.999684 1 1 0.999684
0.999597 1 1 0.999597
1 1 1 1
0.999859 1 1 0.999859
0.999705 1 1 0.999705
1 1 1 1
1 1 1 1
0.999884 1 1 0.999884
1 1 1 1
1 1 1 1
1 1 1 1
0.999636 1 1 0.999636
0.999651 1 1 0.999651
0.999707 1 1 0.999707
0.999638 1 1 0.999638
0.999724 1 1 0.999724
0.999904 1 1 0.999904
0.999748 1 1 0.999748
0.99993 1 1 0.99993
1 1 1 1
1 1 1 1
1 1 1 1
0.99995 1 1 0.99995
1 1 1 1
1 1 1 1
1 1 1 1
0.967517 0.970669 0.999884 0.996868
0.94076 0.954889 0.986345 0.998844
0.974897 0.977885 0.99736 0.999583
0.999573 1 1 0.999573
0.999626 1 1 0.999626
0.999585 1 1 0.999585
0.999619 1 1 0.999619
0.999599 1 1 0.999599
0.999599 1 1 0.999599
0.999541 1 1 0.999541
0.999555 1 1 0.999555
0.999527 1 1 0.999527
0.999543 1 1 0.999543
0.999469 1 1 0.999469
0.999289 1 1.00011 0.999175
0.999507 1 1.00006 0.99945
0.999549 1 1 0.999549
0.990388 0.994079 0.997086 0.999199
0.971488 0.973864 1.0008 0.996762
0.934629 0.950797 0.98474 0.998229
0.975923 0.975199 1.00404 0.996717
0.994643 0.99265 1.00229 0.999715
0.992919 0.997044 0.996317 0.999545
0.997181 1.00463 0.993324 0.999255
1.00322 1.00063 1.00337 0.999216
1.00515 1 1.00563 0.999524
0.998579 1.00103 0.997932 0.999617
0.987545 0.986386 1.00245 0.998731
0.963586 0.966874 0.99964 0.996959
0.940158 0.954 0.986577 0.998899
1.00012 1.00962 0.991326 0.999262
1.00371 1.00773 0.996801 0.999208
0.967228 0.96849 1.00112 0.997584
0.996712 1.00804 0.98959 0.999159
0.994545 0.994871 1.00042 0.999248
0.994181 1.00805 0.986957 0.999277
1.0049 1.00317 1.00249 0.999244
0.99686 1.0003 0.997195 0.999365
0.99901 1.00353 0.996015 0.99948
1.00002 1.00324 0.997308 0.999485
0.998741 1.00011 0.999038 0.999595
0.999651 1.00078 0.999214 0.999656
0.999708 1.00039 0.999799 0.999523
0.999597 1 1 0.999597
0.999659 1.00004 1 0.99962
0.999504 1 1 0.999504
0.999569 1 1 0.999569
0.999575 1 1 0.999575
0.999493 1 1 0.999493
0.999585 1 1 0.999585
0.999528 1 1 0.999528
0.999482 1 1 0.999482
0.999476 1 1 0.999476
0.999471 1 1 0.999471
0.999502 1 1 0.999502
0.99959 1 1 0.99959
0.999506 1 1 0.999506
0.999441 1 1 0.999441
0.999804 1 1 0.999804
0.999644 1 1 0.999644
0.99955 1 1 0.99955
0.999998 1 1 0.999998
0.999836 1 1 0.999836
0.999683 1 1 0.999683
1 1 1 1
1 1 1 1
0.999859 1 1 0.999859
1 1 1 1
1 1 1 1
1 1 1 1
0.99962 1 1 0.99962
0.999641 1 1 0.999641
0.999695 1 1 0.999695
0.999652 1 1 0.999652
0.999706 1 1 0.999706
0.999876 1 1 0.999876
0.999717 1 1 0.999717
0.999904 1 1 0.999904
1 1 1 1
0.999931 1 1 0.999931
1 1 1 1
1 1 1 1
1 1 1 1
1 1 1 1
1 1 1 1
0.984014 0.986272 0.998582 0.999128
0.961846 0.967849 0.99696 0.996828
0.938159 0.954041 0.985086 0.99824
0.999557 1 1 0.999557
0.999588 1 1 0.999588
0.99962 1 1 0.99962
0.999598 1 1 0.999598
0.999596 1 1 0.999596
0.999629 1 1 0.999629
0.999546 1 1 0.999546
0.999526 1 1 0.999526
0.999554 1 1 0.999554
0.999495 1 1 0.999495
0.999305 1 1 0.999305
1.00118 1.00221 1 0.998969
0.999307 1 1.00013 0.999179
0.999456 1 1 0.999456
0.998506 1.00315 0.996052 0.999319
0.991181 0.995444 0.996841 0.998873
0.973109 0.974818 1.00083 0.99742
0.995823 0.998544 0.998425 0.998849
1.00137 1.00552 0.996689 0.999182
1.00165 1.00006 1.00231 0.999276
0.999568 1.00002 1.00002 0.999533
0.988606 0.985341 1.00397 0.999342
0.96067 0.966694 0.996913 0.996846
0.993371 1.00583 0.988432 0.999174
0.991704 0.995098 0.99766 0.998926
0.996181 1.00786 0.989143 0.999256
1.00338 1.0027 1.00136 0.999323
1.00492 1.00619 0.999492 0.999243
1.00087 1.00168 1 0.999192
0.998718 1.0033 0.995951 0.999481
1.00109 1.00347 0.998138 0.999489
0.999553 1.00019 1 0.999366
0.999543 1.00051 0.999384 0.999649
0.999924 1.00045 0.999957 0.999521
0.999381 1 1 0.999379
0.999612 1 1 0.999612
0.99952 1 1 0.99952
0.999402 1 1 0.999402
0.999579 1 1 0.999579
0.999493 1 1 0.999493
0.999443 1 1 0.999443
0.999536 1 1 0.999536
0.999485 1 1 0.999485
0.999482 1 1 0.999482
0.999469 1 1 0.999469
0.999496 1 1 0.999496
0.999568 1 1 0.999568
0.999765 1 1 0.999765
0.999599 1 1 0.999599
0.999514 1 1 0.999514
0.999989 1 1 0.999989
0.999804 1 1 0.999804
0.999644 1 1 0.999644
1 1 1 1
0.999996 1 1 0.999996
0.999835 1 1 0.999835
1 1 1 1
0.999999 1 1 0.999999
1 1 1 1
0.999582 1 1 0.999582
0.999621 1 1 0.999621
0.999683 1 1 0.999683
0.999647 1 1 0.999647
0.999698 1 1 0.999698
0.999851 1 1 0.999851
0.999704 1 1 0.999704
0.999875 1 1 0.999875
1 1 1 1
0.999904 1 1 0.999904
1 1 1 1
1 1 1 1
1 1 1 1
1 1 1 1
1 1 1 1
0.999526 1.00289 0.997096 0.999553
0.983723 0.987573 0.997584 0.998514
0.964772 0.968098 0.999659 0.996904
0.99958 1 1 0.99958
0.999465 1 1 0.999465
0.999564 1 1 0.999564
0.999597 1 1 0.999597
0.999594 1 1 0.999594
0.999619 1 1 0.999619
0.999372 1 1 0.999372
0.999565 1 1 0.999565
0.99952 1 1 0.99952
0.999313 1 1 0.999313
0.99939 1.00033 1 0.999064
1.00202 1.00332 0.999519 0.99918
1.00074 1.00176 1 0.998981
0.999183 1 1 0.999183
1.00041 1.00483 0.996253 0.999344
0.989341 0.994916 0.995901 0.99849
1.00392 1.00613 0.998694 0.999109
0.999613 1.00007 1 0.999539
1.00072 1 1.00116 0.999556
0.986691 0.98512 1.00298 0.998619
0.998622 1.00799 0.991467 0.999237
1.00189 1.00222 1.00027 0.999405
1.00506 1.00662 0.999187 0.999257
1.00128 1.00205 1 0.999226
1.0003 1.00103 1 0.999268
0.999966 1.00055 1 0.999414
1.00212 1.00369 0.998947 0.999494
0.999661 1.00029 1 0.999372
0.999276 1 1 0.999276
1.00004 1.00052 1 0.999519
0.999425 1.00004 1 0.999388
0.999313 1 1 0.999313
0.999535 1 1 0.999535
0.999401 1 1 0.999401
0.999365 1 1 0.999365
0.999493 1 1 0.999493
0.999443 1 1 0.999443
0.999442 1 1 0.999442
0.999488 1 1 0.999488
0.999482 1 1 0.999482
0.999542 1 1 0.999542
0.99949 1 1 0.99949
0.999565 1 1 0.999565
0.99973 1 1 0.99973
0.999976 1 1 0.999976
0.999765 1 1 0.999765
0.999608 1 1 0.999608
1 1 1 1
0.999985 1 1 0.999985
0.999803 1 1 0.999803
1 1 1 1
0.999994 1 1 0.999994
1 1 1 1
0.999507 1 1 0.999507
0.999574 1 1 0.999574
0.999652 1 1 0.999652
0.999622 1 1 0.999622
0.999683 1 1 0.999683
0.999828 1 1 0.999828
0.999702 1 1 0.999702
0.99985 1 1 0.99985
1 1 1 1
0.999875 1 1 0.999875
1 1 1 1
1 1 1 1
1 1 1 1
1 1 1 1
1 1 1 1
0.999698 1.00085 0.999381 0.999464
0.998457 1.00183 0.997081 0.999549
0.983403 0.986214 0.998063 0.999085
0.999422 1 1 0.999422
0.99962 1 1 0.99962
0.999341 1 1 0.999341
0.999459 1 1 0.999459
0.999571 1 1 0.999571
0.999268 1.00011 1 0.999158
0.999609 1 1 0.999609
0.999367 1 1 0.999367
0.999584 1.00044 1 0.999146
0.999321 1 1 0.999321
0.999415 1.00037 1 0.999044
1.00179 1.00295 0.999671 0.999174
1.00007 1.00108 1 0.998994
1.002 1.00606 0.996589 0.999368
0.99975 1.00021 1 0.99954
0.999597 1.00006 1 0.999537
1.00182 1 1.00224 0.99958
1.00522 1.00705 0.998911 0.999272
1.0018 1.00254 1 0.99926
1.00055 1.00129 1 0.999262
1.00024 1.00083 1 0.999412
0.999452 1.00009 1 0.999367
0.999797 1.00042 1 0.999378
0.999282 1 1 0.999282
0.999276 1 1 0.999276
0.999461 1.00006 1 0.999397
0.999309 1 1 0.999309
0.999296 1 1 0.999296
0.9994 1 1 0.9994
0.999363 1 1 0.999363
0.999377 1 1 0.999377
0.999442 1 1 0.999442
0.999441 1 1 0.999441
0.999498 1 1 0.999498
0.999483 1 1 0.999483
0.999543 1 1 0.999543
0.999696 1 1 0.999696
0.999562 1 1 0.999562
0.99973 1 1 0.99973
0.999961 1 1 0.999961
1 1 1 1
0.999971 1 1 0.999971
0.999765 1 1 0.999765
1 1 1 1
0.999982 1 1 0.999982
1 1 1 1
0.999366 1 1 0.999366
0.999444 1 1 0.999444
0.999498 1 1 0.999498
0.999613 1 1 0.999613
0.999566 1 1 0.999566
0.999653 1 1 0.999653
0.999808 1 1 0.999808
0.999683 1 1 0.999683
0.999828 1 1 0.999828
0.999995 1 1 0.999995
0.99985 1 1 0.99985
1 1 1 1
1 1 1 1
1 1 1 1
1 1 1 1
1 1 1 1
0.999724 1.00034 1 0.999387
1.00074 1.0017 0.999567 0.999476
0.998062 1.00145 0.997073 0.999545
0.999252 1.00002 1 0.999231
0.999458 1 1 0.999458
0.999659 1 1 0.999659
0.999356 1 1 0.999356
0.999453 1 1 0.999453
0.999485 1.00037 1 0.999115
0.999295 1.00016 1 0.99914
0.999362 1 1 0.999362
0.999665 1.00053 1 0.999139
0.999473 1.00045 1 0.999024
1.00208 1.00313 0.99979 0.999168
0.999513 1.00005 1 0.999464
0.999706 1.00018 1 0.999529
0.999534 1 1 0.999534
1.00072 1.00146 1 0.999256
1.00045 1.00104 1 0.99941
0.999566 1.0002 1 0.999367
0.99934 1 1 0.99934
0.999287 1 1 0.999287
0.999272 1 1 0.999272
0.99929 1 1 0.99929
0.999305 1 1 0.999305
0.999295 1 1 0.999295
0.999322 1 1 0.999322
0.999361 1 1 0.999361
0.999376 1 1 0.999376
0.999441 1 1 0.999441
0.999441 1 1 0.999441
0.999497 1 1 0.999497
0.999652 1 1 0.999652
0.999543 1 1 0.999543
0.999695 1 1 0.999695
0.99995 1 1 0.99995
0.99973 1 1 0.99973
0.999958 1 1 0.999958
1 1 1 1
1 1 1 1
0.999967 1 1 0.999967
1 1 1 1
0.999257 1 1 0.999257
0.999433 1 1 0.999433
0.999417 1 1 0.999417
0.999556 1 1 0.999556
0.999443 1 1 0.999443
0.999489 1 1 0.999489
0.999614 1 1 0.999614
0.99978 1 1 0.99978
0.999654 1 1 0.999654
0.999808 1 1 0.999808
0.999986 1 1 0.999986
0.999828 1 1 0.999828
0.999997 1 1 0.999997
1 1 1 1
1 1 1 1
1 1 1 1
1 1 1 1
0.999663 1.00037 1 0.999295
0.999646 1.00026 1 0.999386
1.00156 1.00228 0.999796 0.999487
0.999313 1.00016 1 0.999158
0.999252 1.00002 1 0.999232
0.999494 1 1 0.999494
0.999371 1 1 0.999371
0.999501 1.00039 1 0.999116
0.999375 1.00025 1 0.999122
0.999664 1.00053 1 0.999133
0.999529 1.00014 1 0.999385
0.999584 1.00014 1 0.999441
0.999598 1.00008 1 0.999517
0.999322 1 1 0.999322
0.999708 1.00034 1 0.999368
0.999338 1 1 0.999338
0.999321 1 1 0.999321
0.999268 1 1 0.999268
0.99929 1 1 0.99929
0.999309 1 1 0.999309
0.999293 1 1 0.999293
0.999322 1 1 0.999322
0.999396 1 1 0.999396
0.999375 1 1 0.999375
0.99944 1 1 0.99944
0.999602 1 1 0.999602
0.999497 1 1 0.999497
0.999651 1 1 0.999651
0.999939 1 1 0.999939
0.999695 1 1 0.999695
0.999947 1 1 0.999947
1 1 1 1
0.999954 1 1 0.999954
1 1 1 1
1 1 1 1
0.999189 1 1 0.999189
0.999324 1 1 0.999324
0.999275 1 1 0.999275
0.999515 1 1 0.999515
0.999431 1 1 0.999431
0.999469 1 1 0.999469
0.999726 1 1 0.999726
0.999555 1 1 0.999555
0.999442 1 1 0.999442
0.999615 1 1 0.999615
0.99978 1 1 0.99978
0.999972 1 1 0.999972
0.999808 1 1 0.999808
0.999989 1 1 0.999989
1 1 1 1
0.999998 1 1 0.999998
1 1 1 1
1 1 1 1
0.999546 1.00028 1 0.999266
0.99983 1.00055 1 0.999277
0.999679 1.00029 1 0.999385
0.999254 1.0001 1 0.999152
0.999248 1.00001 1 0.999233
0.999499 1.00038 1 0.999116
0.999477 1.00016 1 0.999317
0.999519 1.00013 1 0.999386
0.999748 1.00033 1 0.999418
0.999334 1.00001 1 0.999322
0.999303 1 1 0.999303
0.999336 1 1 0.999336
0.999321 1 1 0.999321
0.999325 1 1 0.999325
0.999291 1 1 0.999291
0.99931 1 1 0.99931
0.999375 1 1 0.999375
0.999322 1 1 0.999322
0.999395 1 1 0.999395
0.999565 1 1 0.999565
0.99944 1 1 0.99944
0.999601 1 1 0.999601
0.999927 1 1 0.999927
0.99965 1 1 0.99965
0.999936 1 1 0.999936
1 1 1 1
0.999944 1 1 0.999944
1 1 1 1
1 1 1 1
0.999266 1 1 0.999266
0.999242 1 1 0.999242
0.999183 1 1 0.999183
0.999429 1 1 0.999429
0.999333 1 1 0.999333
0.999295 1 1 0.999295
0.999663 1 1 0.999663
0.999498 1 1 0.999498
0.999429 1 1 0.999429
0.999952 1 1 0.999952
0.999727 1 1 0.999727
0.999555 1 1 0.999555
0.999781 1 1 0.999781
0.999977 1 1 0.999977
1 1 1 1
0.999992 1 1 0.999992
1 1 1 1
1 1 1 1
0.99932 1.00006 1 0.999264
0.999504 1.00024 1 0.999261
0.999874 1.00061 1 0.999259
0.999208 1.00006 1 0.999146
0.999435 1.00016 1 0.999277
0.999527 1.0002 1 0.999322
0.999512 1.00012 1 0.999387
0.999322 1 1 0.999322
0.999305 1 1 0.999303
0.999321 1 1 0.999321
0.999321 1 1 0.999321
0.999328 1 1 0.999328
0.999369 1 1 0.999369
0.999312 1 1 0.999312
0.999376 1 1 0.999376
0.999546 1 1 0.999546
0.999395 1 1 0.999395
0.999564 1 1 0.999564
0.999916 1 1 0.999916
0.9996 1 1 0.9996
0.999924 1 1 0.999924
1 1 1 1
0.999932 1 1 0.999932
1 1 1 1
1 1 1 1
0.999283 1 1 0.999283
0.999279 1 1 0.999279
0.999268 1 1 0.999268
0.999337 1 1 0.999337
0.999254 1 1 0.999254
0.999177 1 1 0.999177
0.999575 1 1 0.999575
0.999428 1 1 0.999428
0.999343 1 1 0.999343
0.99993 1 1 0.99993
0.999648 1 1 0.999648
0.99948 1 1 0.99948
1 1 1 1
0.999958 1 1 0.999958
0.999728 1 1 0.999728
0.999981 1 1 0.999981
1 1 1 1
1 1 1 1
0.999404 1.00013 1 0.999274
0.999409 1.00014 1 0.999272
0.999447 1.00019 1 0.999256
0.99934 1.00006 1 0.999279
0.999398 1.00012 1 0.999274
0.999578 1.00025 1 0.999327
0.999334 1.00003 1 0.999303
0.999321 1 1 0.999321
0.999381 1 1 0.999381
0.999332 1 1 0.999332
0.999383 1 1 0.999383
0.999511 1 1 0.999511
0.999377 1 1 0.999377
0.999546 1 1 0.999546
0.999907 1 1 0.999907
0.999564 1 1 0.999564
0.999914 1 1 0.999914
1 1 1 1
0.999921 1 1 0.999921
0.999999 1 1 0.999999
1 1 1 1
0.999292 1 1 0.999292
0.999311 1 1 0.999311
0.999284 1 1 0.999284
0.999352 1 1 0.999352
0.999283 1 1 0.999283
0.999269 1 1 0.999269
0.999518 1 1 0.999518
0.999356 1 1 0.999356
0.999267 1 1 0.999267
0.999913 1 1 0.999913
0.999567 1 1 0.999567
0.999427 1 1 0.999427
1 1 1 1
0.999936 1 1 0.999936
0.999632 1 1 0.999632
1 1 1 1
0.999965 1 1 0.999965
1 1 1 1
0.999335 1.00005 1 0.999288
0.999387 1.00011 1 0.999275
0.999516 1.00024 1 0.99928
0.999342 1 1 0.999342
0.999305 1.00002 1 0.999281
0.999342 1.00007 1 0.99927
0.999322 1 1 0.999322
0.999382 1 1 0.999382
0.999492 1 1 0.999492
0.999396 1 1 0.999396
0.999524 1 1 0.999524
0.99989 1 1 0.99989
0.999547 1 1 0.999547
0.999905 1 1 0.999905
1 1 1 1
0.999913 1 1 0.999913
1 1 1 1
0.999999 1 1 0.999999
0.999318 1 1 0.999318
0.999289 1 1 0.999289
0.999361 1 1 0.999361
0.999311 1 1 0.999311
0.999285 1 1 0.999285
0.999522 1 1 0.999522
0.99935 1 1 0.99935
0.999288 1 1 0.999288
0.999902 1 1 0.999902
0.999527 1 1 0.999527
0.999375 1 1 0.999375
1 1 1 1
0.999917 1 1 0.999917
0.99956 1 1 0.99956
1 1 1 1
0.999942 1 1 0.999942
1 1 1 1
0.999353 1 1 0.999353
0.99932 1.00003 1 0.99929
0.999363 1.00009 1 0.999276
0.999467 1 1 0.999467
0.999342 1 1 0.999342
0.999283 1 1 0.999283
0.999382 1 1 0.999382
0.999496 1 1 0.999496
0.999869 1 1 0.999869
0.999536 1 1 0.999536
0.999889 1 1 0.999889
1 1 1 1
0.999904 1 1 0.999904
1 1 1 1
1 1 1 1
0.999359 1 1 0.999359
0.999313 1 1 0.999313
0.999287 1 1 0.999287
0.999518 1 1 0.999518
0.999361 1 1 0.999361
0.999311 1 1 0.999311
0.999895 1 1 0.999895
0.999522 1 1 0.999522
0.999348 1 1 0.999348
1 1 1 1
0.999904 1 1 0.999904
0.999536 1 1 0.999536
1 1 1 1
0.999921 1 1 0.999921
1 1 1 1
0.999491 1 1 0.999491
0.99934 1 1 0.99934
0.999293 1 1 0.999293
0.999853 1 1 0.999853
0.999469 1 1 0.999469
0.999342 1 1 0.999342
0.999499 1 1 0.999499
0.999867 1 1 0.999867
1 1 1 1
0.999887 1 1 0.999887
1 1 1 1
1 1 1 1
0.999507 1 1 0.999507
0.999354 1 1 0.999354
0.999309 1 1 0.999309
0.99989 1 1 0.99989
0.999517 1 1 0.999517
0.99936 1 1 0.99936
1 1 1 1
0.999895 1 1 0.999895
0.999521 1 1 0.999521
1 1 1 1
0.999906 1 1 0.999906
1 1 1 1
0.99985 1 1 0.99985
0.999481 1 1 0.999481
0.999327 1 1 0.999327
1 1 1 1
0.999853 1 1 0.999853
0.999472 1 1 0.999472
0.999866 1 1 0.999866
1 1 1 1
1 1 1 1
0.999874 1 1 0.999874
0.999507 1 1 0.999507
0.999349 1 1 0.999349
1 1 1 1
0.999885 1 1 0.999885
0.999517 1 1 0.999517
1 1 1 1
0.999895 1 1 0.999895
1 1 1 1
0.999977 1 1 0.999977
0.999859 1 1 0.999859
0.999471 1 1 0.999471
1 1 1 1
0.999852 1 1 0.999852
1 1 1 1
0.999984 1 1 0.999984
0.999873 1 1 0.999873
0.999507 1 1 0.999507
0.999994 1 1 0.999994
0.999884 1 1 0.999884
1 1 1 1
1 1 1 1
0.999854 1 1 0.999854
1 1 1 1
0.99999 1 1 0.99999
0.999869 1 1 0.999869
1 1 1 1
1 1 1 1
1 1 1 1

VECTORS lamdaE float
0.998942 1.00005 0.996895
0.999151 0.999071 0.998779
0.998875 1.00013 0.996944
0.999233 1.00008 0.996505
0.998921 1.00024 0.9968
0.999063 0.999622 0.997048
0.999587 1.00065 0.994924
0.999183 0.998952 0.998813
0.998824 1.00026 0.998669
0.998919 0.999506 0.9988
0.999331 0.998581 0.997527
0.999608 1.00031 0.994971
0.99953 0.999975 0.996151
0.999175 0.999942 0.996624
0.998804 1.00024 0.996999
0.999146 1.00012 0.996579
0.99901 0.999667 0.997099
0.998851 1.00032 0.996857
0.999637 1.00062 0.994922
0.999476 0.999986 0.998319
0.999365 0.999972 0.99642
0.999038 1.00022 0.996664
1.00035 1.00011 0.994134
0.999776 1.00055 0.994706
0.999248 0.999013 0.997295
0.999454 1.0006 0.995195
1.00076 1.00115 0.992283
0.999216 0.998824 0.998847
0.998872 1.00023 0.997715
0.998979 0.999599 0.997945
0.999317 0.998451 0.998914
0.999555 1.00039 0.994972
0.99907 1.00032 0.996652
0.998938 1.00023 0.996947
0.99996 1.00051 0.994992
0.999395 0.997979 0.999093
0.999649 1.00044 0.995501
0.999573 1.00002 0.995306
1.00019 1.00158 0.992635
0.999522 0.997523 0.99918
0.999506 1 0.998284
0.999245 0.999989 0.997526
0.999654 0.999997 0.998168
0.999254 0.999913 0.99651
1.00078 0.999998 0.992964
0.999082 1.00015 0.998592
1.00052 0.999992 0.994508
0.99906 1.00017 0.996651
0.99877 1.00045 0.996912
0.998958 0.999703 0.99716
0.999688 1.00056 0.994918
0.999454 0.999965 0.997298
0.999283 0.999972 0.996492
0.999214 0.998989 0.997349
0.998955 1.00029 0.996735
1.00039 1.0001 0.994122
0.999497 1.00057 0.995196
0.999829 1.00051 0.994705
1.00083 1.00117 0.992218
0.999565 0.999999 0.99824
0.999419 0.999951 0.996344
1.00071 0.999968 0.994113
1.00052 0.999932 0.994009
1.00005 1.00035 0.994423
1.00224 1.00008 0.990679
1.0012 1.00073 0.991657
0.999465 0.998341 0.997586
0.999383 1.0003 0.995617
1.00031 1.0015 0.992738
1.00145 1.00122 0.990587
0.998896 1.00012 0.998616
0.999351 0.998317 0.998976
0.999034 0.999365 0.998757
0.999499 1.00047 0.994973
0.999076 1.00023 0.998528
0.998901 0.999994 0.998658
0.999855 1.00057 0.994147
0.999415 0.99803 0.99844
0.999574 1.00058 0.994728
0.999548 0.99997 0.995715
1.00018 1.00158 0.992623
0.999476 0.997757 0.999116
0.999688 0.998708 0.996417
1.00019 1.00031 0.993841
0.999741 1.00065 0.9944
1.00131 1.00077 0.991287
0.999568 0.999486 0.996441
1.00043 1.00133 0.992442
1.00003 1.0017 0.992825
1.00062 1.00182 0.991515
0.999578 0.997254 0.999238
0.999522 0.997479 0.999199
0.999256 1.00005 0.998476
0.999443 1.00001 0.998336
0.999616 1 0.998196
0.999327 0.99998 0.997424
1.00076 0.999999 0.993539
0.999121 1.00009 0.997588
1.00048 0.999971 0.99407
0.999672 0.999995 0.998159
1.00094 0.999963 0.992662
1.00063 0.999987 0.994312
1.00272 0.999768 0.989544
1.00037 1.00009 0.99465
1.00235 0.999953 0.990084
0.999524 0.99994 0.996186
0.9992 0.999963 0.996564
0.999175 0.998937 0.997407
0.998872 1.00038 0.996802
1.00042 1.00009 0.99411
0.999885 1.00044 0.994705
0.999542 1.00053 0.995194
1.00089 1.0012 0.992153
0.999613 0.999996 0.998205
0.999338 0.99993 0.996425
1.00076 0.999938 0.993304
1.00055 0.999926 0.993984
0.999409 0.998293 0.998275
0.999449 1.00025 0.995728
1.00009 1.00032 0.994421
1.00223 1.00008 0.99057
1.00038 1.00154 0.992667
1.00123 1.00076 0.991724
1.00145 1.00122 0.990592
1.00089 0.99998 0.992721
1.00058 0.999898 0.993937
1.00273 0.999718 0.989848
1.00245 0.99978 0.99031
1.00177 1.00037 0.991003
1.00318 0.999873 0.988899
0.999497 0.997877 0.999071
1.0019 1.00076 0.990142
0.999557 0.999811 0.995545
0.999974 1.00163 0.992892
1.00099 1.00179 0.990995
1.00188 1.00112 0.989871
0.999699 0.998957 0.996092
1.00008 1.0006 0.993805
0.999009 1.0002 0.998547
0.998894 0.999827 0.998694
0.999815 1.00061 0.994158
0.999433 0.997958 0.999084
0.999513 1 0.995393
0.999499 1.00069 0.994719
1.00018 1.00157 0.99261
0.999477 0.997731 0.999137
0.999695 0.99866 0.996436
1.00016 1.00028 0.994335
0.999666 1.00064 0.994857
1.0013 1.00075 0.991305
0.999581 0.999449 0.99587
1.00041 1.00132 0.992447
1.00002 1.00171 0.992818
1.00062 1.00182 0.991482
0.999625 0.999079 0.996154
0.999762 0.998334 0.99666
1.00002 1.00051 0.993967
1.0018 1.00038 0.9907
1.00079 1.00111 0.991965
1.00204 1.00085 0.989836
1.00004 1.00135 0.993146
1.00093 1.00145 0.991295
1.00037 1.0023 0.991642
1.00076 1.0021 0.991051
0.999651 0.99699 0.999281
0.999584 0.997206 0.999252
0.999523 0.997432 0.999218
0.999747 0.998614 0.996365
0.999538 0.99764 0.999139
0.999144 1.00013 0.998509
0.999342 1.00001 0.998422
1.00046 0.999937 0.993601
1.00071 0.999997 0.993056
0.999572 1.00001 0.99823
0.999675 0.999997 0.998152
1.00092 0.999972 0.992677
1.00059 0.999984 0.993876
1.00272 0.999772 0.989547
1.00032 1.00006 0.993745
1.00235 0.999966 0.990084
1.00101 0.999952 0.992519
1.00301 0.999689 0.989072
1.00251 0.999838 0.989896
1.00366 0.999471 0.988089
1.00215 1.00012 0.990312
1.00326 0.999653 0.988685
0.99965 0.999992 0.998171
0.999256 0.999894 0.996509
1.00077 0.999913 0.992538
1.00058 0.99993 0.993959
0.999331 0.998226 0.998995
0.999512 1.00024 0.995837
1.00014 1.00028 0.994421
1.00223 1.00008 0.990461
1.00127 1.00081 0.991792
1.00045 1.00158 0.992596
1.00145 1.00122 0.990596
1.00091 0.999967 0.992707
1.00061 0.999888 0.99391
1.00271 0.999705 0.989644
1.00246 0.999827 0.990388
0.999478 0.997913 0.999047
0.999554 0.999794 0.995861
1.00004 1.00164 0.992993
1.00175 1.0004 0.991015
1.00316 0.999819 0.988767
1.00094 1.00178 0.990981
1.00196 1.00077 0.990178
1.00188 1.00112 0.989881
0.99968 0.999018 0.99608
1.00008 1.00058 0.993802
1.00301 0.999665 0.989085
1.00252 0.999719 0.990225
1.00365 0.999477 0.988355
1.00345 0.999394 0.988448
1.00251 1.0003 0.989554
1.00368 0.999407 0.988279
0.999627 0.999345 0.99581
1.00244 1.00052 0.989386
0.999975 1.00148 0.993053
1.00043 1.00204 0.99152
1.00141 1.00191 0.990292
1.0022 1.00089 0.989595
1.00009 1.00104 0.993364
1.00009 1.00008 0.994301
1.00025 1.00169 0.992396
1.0001 1.00031 0.993906
0.999476 0.997697 0.999157
0.999699 0.99862 0.996455
0.999579 1.00077 0.99447
1.00129 1.00075 0.991322
0.999579 0.999403 0.995845
0.999997 1.0017 0.992811
1.0004 1.00131 0.992452
1.00063 1.00181 0.99145
0.999635 0.999025 0.996167
0.999758 0.998313 0.996675
1.00003 1.00052 0.993972
1.0018 1.00039 0.990709
1.00077 1.0011 0.991984
1.00203 1.00085 0.989839
1.00001 1.00139 0.993145
1.00094 1.00145 0.991339
1.00037 1.00229 0.991637
1.00074 1.00211 0.991004
0.99983 0.998032 0.996836
1.00006 1.00091 0.993514
1.00002 1.00004 0.994445
1.0002 1.00155 0.992655
1.00263 1.00032 0.989217
1.00138 1.00126 0.990697
1.00245 1.00076 0.989104
1.00027 1.00215 0.991988
1.00118 1.00153 0.990838
1.00039 1.00298 0.9909
1.00089 1.00207 0.990639
1.00014 0.999078 0.995224
0.999936 0.997624 0.997035
0.999728 0.996764 0.999311
0.999661 0.996952 0.999291
0.999592 0.99716 0.999267
0.999799 0.998294 0.996597
0.999576 0.997392 0.999199
0.999742 0.998656 0.996345
0.999536 0.997669 0.999119
1.00032 1.00004 0.993748
1.00057 0.999959 0.993383
1.00234 0.999977 0.990084
1.00271 0.999778 0.98955
1.0009 0.999981 0.992691
0.999672 1 0.998154
1.00101 0.999957 0.992516
1.003 0.99969 0.989078
1.0025 0.999851 0.989894
1.00366 0.999479 0.98809
1.00214 1.00013 0.990316
1.00326 0.99965 0.988684
1.00313 0.999639 0.988885
1.00398 0.999382 0.98756
1.00345 0.999511 0.98847
1.00406 0.999106 0.98771
1.00301 0.999919 0.988888
1.00375 0.999154 0.988242
1.00093 0.999956 0.992692
1.00065 0.999892 0.993882
1.00269 0.999685 0.989441
1.00247 0.999868 0.990467
0.999461 0.997957 0.999022
0.999566 0.999792 0.996164
1.00012 1.00164 0.993092
1.00173 1.00044 0.991026
1.00315 0.999763 0.988635
1.00202 1.00077 0.990215
1.00087 1.00178 0.990967
1.00187 1.00111 0.989891
0.999664 0.999079 0.996068
1.00008 1.00057 0.9938
1.00299 0.999652 0.989023
1.00254 0.99972 0.99022
1.00367 0.999448 0.988282
1.00344 0.999463 0.988581
0.999618 0.999402 0.995808
1 1.00149 0.993056
1.00044 1.00201 0.991609
1.00256 1.00034 0.989537
1.00368 0.999329 0.988247
1.00136 1.00193 0.990194
1.00244 1.00052 0.989385
1.00215 1.00088 0.989595
1.0001 1.00099 0.993371
1.00026 1.00165 0.992403
1.00008 1.00009 0.994291
1.00393 0.99943 0.98786
1.00351 0.999399 0.988583
1.00412 0.999217 0.987608
1.00399 0.998957 0.987989
1.003 0.99989 0.988783
1.00397 0.998766 0.988279
1.00004 1.00133 0.993151
1.00269 1.00021 0.989181
1.00033 1.00189 0.992065
1.00065 1.00244 0.990727
1.00164 1.00196 0.989653
1.00236 1.00063 0.989722
1.00012 0.999678 0.994638
1.00032 1.0017 0.992276
1.00024 1.00132 0.992721
1.00025 1.00224 0.991928
1.00179 1.00039 0.990719
0.999753 0.998292 0.99669
0.999648 0.99897 0.99618
1.00003 1.00052 0.993976
1.00074 1.00109 0.992004
1.00202 1.00085 0.989842
0.999977 1.00144 0.993144
1.00036 1.00229 0.991632
1.00095 1.00146 0.991383
1.00072 1.00212 0.990958
0.999823 0.998023 0.996844
1.00005 1.00094 0.993512
1.00003 1.00003 0.994454
1.0002 1.00158 0.992644
1.00263 1.00033 0.98921
1.00136 1.00127 0.99071
1.00245 1.00076 0.989108
1.00025 1.00216 0.991995
1.0012 1.00154 0.990885
1.00041 1.00299 0.990872
1.00085 1.00206 0.990792
0.999887 0.997807 0.996952
1.00006 0.99965 0.994781
1.00027 1.00179 0.992333
1.00019 1.00114 0.993079
1.00017 1.00234 0.99195
1.0031 1.00007 0.98855
1.00169 1.00128 0.990069
1.00266 1.00063 0.988863
1.00024 1.00305 0.991176
1.00131 1.00154 0.990553
1.00052 1.00324 0.990045
1.00011 0.999231 0.995114
1.00017 1.00009 0.994167
1.00016 0.998958 0.995306
1.00013 0.999096 0.99522
0.999967 0.997425 0.997554
0.999926 0.997604 0.997264
0.999841 0.996586 0.998454
0.999739 0.996731 0.999319
0.999672 0.996914 0.999301
0.999858 0.998032 0.996751
0.999636 0.997138 0.999246
0.999804 0.998315 0.996582
0.999577 0.997432 0.99918
0.999736 0.998701 0.996326
0.999534 0.997698 0.999098
1.00213 1.00015 0.990319
1.00249 0.99986 0.989892
1.00326 0.999654 0.988683
1.00366 0.999485 0.988091
1.003 0.999689 0.989083
1.00101 0.999961 0.992515
1.00313 0.999637 0.988882
1.00398 0.999385 0.987566
1.00344 0.999523 0.988472
1.00409 0.999093 0.987654
1.00302 0.99992 0.988881
1.00375 0.999163 0.988244
1.00412 0.999324 0.987346
1.00436 0.999077 0.987124
1.00394 0.999021 0.988015
1.00429 0.998849 0.987609
1.00349 0.999525 0.988371
1.004 0.998497 0.988417
1.00297 0.999639 0.988962
1.00255 0.999711 0.990214
1.00369 0.999424 0.98821
1.00344 0.999534 0.988715
0.99961 0.999449 0.995804
1.00002 1.00149 0.993061
1.00045 1.00198 0.991698
1.0026 1.00038 0.989521
1.00367 0.999249 0.988215
1.00245 1.00052 0.989383
1.00131 1.00194 0.990096
1.0021 1.00086 0.989595
1.00011 1.00094 0.993378
1.00027 1.00162 0.992411
1.00008 1.0001 0.994281
1.00395 0.999404 0.987725
1.00352 0.999365 0.988583
1.00412 0.999174 0.987564
1.00399 0.998994 0.988019
1.00006 1.00128 0.99316
1.00037 1.00188 0.992049
1.00063 1.00244 0.990839
1.00301 0.999973 0.988837
1.00398 0.998646 0.988318
1.00157 1.00202 0.989586
1.0027 1.0002 0.989185
1.00232 1.00055 0.989741
1.00032 1.00171 0.99229
1.00026 1.00226 0.991873
1.00011 0.999697 0.99463
1.00025 1.00125 0.992792
1.00436 0.999145 0.987096
1.00403 0.999052 0.987906
1.00434 0.998942 0.987381
1.00426 0.998533 0.98786
1.00336 0.99937 0.9887
1.00423 0.998188 0.988338
1.00032 1.00175 0.992234
1.00279 0.999608 0.989568
1.00033 1.00236 0.991434
1.0009 1.00285 0.990021
1.00178 1.00203 0.989164
1.00248 1.00054 0.989639
1.00014 0.999487 0.994808
1.00025 1.00081 0.993196
1.00033 1.0021 0.991873
1.0002 1.00209 0.992137
1.00026 1.00241 0.991727
0.999816 0.998015 0.996852
1.00263 1.00034 0.989203
1.00004 1.00002 0.994464
1.00003 1.001 0.993511
1.00019 1.0016 0.992634
1.00134 1.00127 0.990723
1.00245 1.00076 0.989112
1.00022 1.00217 0.992003
1.00042 1.003 0.990843
1.00121 1.00156 0.990932
1.00082 1.00204 0.990945
0.999881 0.997798 0.996957
1.00006 0.999642 0.994788
1.00025 1.0018 0.99233
1.00018 1.00115 0.993079
1.00017 1.00236 0.991906
1.0031 1.00009 0.988538
1.00169 1.00128 0.990075
1.00265 1.00064 0.988841
1.00021 1.00304 0.99119
1.00133 1.00155 0.990581
1.0006 1.00323 0.990115
1.00009 0.999409 0.994979
1.00019 1.0007 0.993508
1.00026 1.00256 0.991595
1.00014 1.00207 0.992281
1.00012 1.00294 0.991489
1.00338 0.999688 0.98837
1.00187 1.00116 0.989812
1.00251 1.00013 0.989456
1.00015 1.00392 0.990379
1.00118 1.00271 0.989651
1.00011 0.999238 0.995114
1.00016 1.00023 0.993932
1.00017 1.00011 0.994107
1.00014 1.00089 0.993572
1.00018 1.00005 0.994187
1.00018 0.998874 0.995343
1.00016 0.998964 0.995304
1.00002 0.997251 0.997623
1.00012 0.999114 0.995217
0.999972 0.997414 0.997564
0.999912 0.996389 0.99851
0.999918 0.99759 0.99749
0.999821 0.996557 0.998899
0.99975 0.9967 0.999327
0.999906 0.997833 0.996857
0.999862 0.998043 0.996743
0.999708 0.996916 0.999278
0.999631 0.99718 0.999233
0.999808 0.998334 0.996566
0.999577 0.997471 0.999162
1.00303 0.999921 0.988874
1.00344 0.999528 0.988474
1.00375 0.999169 0.988246
1.00411 0.999081 0.987598
1.00398 0.999387 0.987572
1.00314 0.999636 0.988879
1.00413 0.999324 0.987346
1.00439 0.999097 0.987032
1.00394 0.999029 0.988023
1.00429 0.99879 0.987619
1.00349 0.999531 0.988357
1.00403 0.998468 0.988384
1.00456 0.999064 0.986728
1.00461 0.998872 0.986928
1.00419 0.998548 0.987969
1.00438 0.998598 0.987632
1.00379 0.998845 0.98839
1.00425 0.998215 0.988343
1.00398 0.999375 0.987591
1.00353 0.999335 0.988583
1.00412 0.999133 0.98752
1.00399 0.999029 0.988048
1.00009 1.00122 0.993169
1.0004 1.00188 0.992034
1.00059 1.00244 0.99095
1.00303 1.00006 0.988891
1.00398 0.998527 0.988359
1.0027 1.00019 0.989188
1.00149 1.00207 0.989519
1.00227 1.00047 0.98976
1.00032 1.0017 0.992303
1.00027 1.00227 0.991818
1.00011 0.999714 0.994623
1.00025 1.00118 0.992862
1.00437 0.999143 0.98709
1.00403 0.999039 0.987928
1.00431 0.99891 0.987438
1.00428 0.998523 0.987864
1.00034 1.00174 0.992233
1.00034 1.00231 0.991524
1.00088 1.0029 0.990013
1.00337 0.999468 0.988673
1.00413 0.998066 0.988577
1.00177 1.00209 0.989121
1.00278 0.999624 0.989582
1.00242 1.00032 0.98974
1.00035 1.00209 0.991877
1.00027 1.0024 0.991718
1.0002 1.00211 0.992127
1.00013 0.999482 0.994733
1.00026 1.00076 0.993246
1.00462 0.998875 0.986849
1.0044 0.998674 0.987467
1.00451 0.998192 0.987701
1.00365 0.998536 0.9889
1.00034 1.00209 0.99186
1.00307 0.999175 0.989753
1.00025 1.00278 0.990976
1.00115 1.00336 0.989026
1.00212 1.00203 0.988652
1.00015 0.999338 0.994784
1.00025 1.00051 0.993656
1.00021 1.00159 0.992655
1.00033 1.00217 0.991816
1.00019 1.00263 0.991687
1.00032 1.00236 0.991611
0.999876 0.99779 0.996962
1.00007 0.999635 0.994796
1.00311 1.0001 0.988525
1.00018 1.00117 0.993078
1.00024 1.00179 0.992327
1.00016 1.00239 0.991861
1.00169 1.00128 0.990081
1.00264 1.00065 0.98882
1.00019 1.00303 0.991204
1.00067 1.00322 0.990184
1.00134 1.00158 0.990609
1.00009 0.99941 0.994983
1.0002 1.00069 0.993513
1.00024 1.00256 0.991629
1.00014 1.00206 0.992276
1.00011 1.00297 0.991421
1.00337 0.999731 0.988369
1.0019 1.00115 0.989786
1.00258 1.00001 0.989498
1.00013 1.00391 0.990336
1.00118 1.00286 0.989521
1.00017 1.00041 0.99383
1.00016 1.00163 0.992591
1.00015 1.00338 0.991026
1.0001 1.00281 0.991536
1.00019 1.00323 0.991035
1.00365 0.998264 0.989297
1.00198 1.00161 0.989343
1.00266 0.999196 0.989551
1.00041 1.00432 0.989834
1.00099 1.00333 0.988627
1.00011 0.999244 0.995114
1.00017 1.00023 0.99398
1.00015 1.00101 0.993222
1.00017 1.00013 0.994047
1.00018 1.00006 0.994188
1.00014 1.00087 0.993487
1.0001 1.00146 0.993037
1.00012 1.00082 0.993483
1.0002 1.00001 0.994215
1.0002 0.998859 0.995332
1.00018 0.998872 0.995344
1.00006 0.99714 0.997646
1.00015 0.998971 0.995302
1.00002 0.997247 0.997629
0.999965 0.996228 0.998556
0.999978 0.997398 0.997575
0.999904 0.996368 0.998508
0.999799 0.996521 0.99935
0.999954 0.99765 0.996951
0.999911 0.997841 0.996852
0.999776 0.99672 0.999303
0.999867 0.998055 0.996735
0.999699 0.996947 0.999269
0.999627 0.997218 0.999218
1.0035 0.999538 0.988342
1.00393 0.999039 0.988031
1.00405 0.998442 0.988351
1.00429 0.99873 0.987628
1.00442 0.999115 0.986941
1.00413 0.999325 0.987346
1.00459 0.999088 0.986689
1.00458 0.9989 0.98696
1.0042 0.998553 0.987936
1.00439 0.9985 0.987673
1.0038 0.998853 0.9884
1.0042 0.99816 0.98839
1.00487 0.998893 0.986367
1.00465 0.99851 0.987186
1.0044 0.998205 0.987918
1.00416 0.99821 0.988507
1.00437 0.999141 0.987085
1.00404 0.999022 0.987951
1.00427 0.998875 0.987496
1.00429 0.998516 0.987868
1.00036 1.00174 0.992231
1.00035 1.00227 0.991615
1.00085 1.00295 0.990005
1.00337 0.999564 0.988646
1.00402 0.997949 0.988814
1.00278 0.99964 0.989597
1.00176 1.00214 0.989079
1.00237 1.00012 0.989841
1.00037 1.00208 0.991881
1.00029 1.00239 0.991708
1.00019 1.00213 0.992118
1.00013 0.99948 0.994657
1.00027 1.00071 0.993297
1.00457 0.998851 0.986945
1.00441 0.998715 0.987456
1.00449 0.998198 0.987808
1.00037 1.00209 0.991849
1.00034 1.00274 0.991077
1.00111 1.00345 0.989006
1.00372 0.998577 0.988798
1.00209 1.00186 0.98882
1.00296 0.999126 0.989773
1.00015 0.999314 0.994802
1.00034 1.00217 0.991813
1.00031 1.00233 0.991665
1.00018 1.00268 0.991642
1.00021 1.00157 0.99269
1.00025 1.0005 0.993594
1.00469 0.99871 0.986964
1.00468 0.998307 0.987261
1.00443 0.998208 0.987633
1.00413 0.997707 0.988895
1.00033 1.0023 0.991671
1.00275 1.00059 0.988747
1.00045 1.00366 0.989873
1.00137 1.00387 0.988235
1.00016 0.999184 0.994924
1.00023 1.00032 0.993891
1.00022 1.0013 0.992978
1.00016 1.00233 0.991978
1.00035 1.00229 0.991679
1.00028 1.00262 0.991442
1.00008 0.99941 0.994986
1.0002 1.00068 0.993519
1.00335 0.999776 0.988368
1.00014 1.00206 0.992271
1.00021 1.00255 0.991663
1.0001 1.003 0.991354
1.00192 1.00114 0.989759
1.00265 0.999884 0.989539
1.0001 1.0039 0.990293
1.00117 1.00301 0.989392
1.00018 1.0004 0.993834
1.00017 1.00163 0.992614
1.00012 1.00336 0.991101
1.0001 1.00283 0.991557
1.00015 1.00329 0.991022
1.00376 0.998268 0.989175
1.00204 1.00146 0.98937
1.00263 0.999203 0.989926
1.00034 1.00431 0.989776
1.00113 1.00366 0.988407
1.00017 1.00119 0.99302
1.00013 1.00243 0.991843
1.00011 1.00395 0.99051
1.00011 1.00342 0.990769
1.00455 0.997619 0.988511
1.00387 0.997112 0.989782
1.00209 1.00212 0.988409
1.00044 1.00473 0.988607
1.00017 1.00022 0.994028
1.00016 1.00102 0.993261
1.00013 1.00163 0.992748
1.00018 1.00006 0.994188
1.00014 1.00085 0.993401
1.0002 0.999998 0.994217
1.00011 1.00146 0.992965
1.00012 1.00081 0.993509
1.00009 1.00193 0.992552
1.00009 1.00135 0.993007
1.00012 1.00077 0.993527
1.00021 0.99998 0.994215
1.00019 0.998896 0.995289
1.0002 0.998857 0.995332
1.00008 0.997102 0.99763
1.00018 0.998867 0.995345
1.00006 0.997151 0.997645
1.00001 0.99614 0.998559
1.00002 0.997243 0.997636
0.999959 0.996207 0.998556
0.999895 0.99635 0.998504
0.999999 0.997466 0.997051
0.999958 0.997658 0.996947
0.999838 0.996536 0.999327
0.999916 0.997848 0.996847
0.999767 0.996749 0.999295
0.999691 0.996981 0.99926
1.00381 0.99886 0.98841
1.00421 0.998556 0.987904
1.00415 0.998098 0.988437
1.00441 0.998401 0.987714
1.00455 0.998927 0.986991
1.0046 0.999113 0.986651
1.0048 0.998896 0.986508
1.00464 0.998532 0.98718
1.00439 0.998207 0.987939
1.00414 0.998125 0.988485
1.00484 0.99867 0.986704
1.00471 0.997937 0.987619
1.00446 0.998023 0.988033
1.00454 0.998828 0.987041
1.00441 0.998757 0.987445
1.00447 0.998201 0.987915
1.0004 1.00208 0.991839
1.00044 1.0027 0.991179
1.00106 1.00356 0.988985
1.00379 0.998616 0.988696
1.00285 0.999079 0.989793
1.00207 1.0017 0.988989
1.00035 1.00218 0.991809
1.00028 1.00231 0.991719
1.00017 1.00273 0.991596
1.00015 0.999289 0.99482
1.00021 1.00155 0.992725
1.00025 1.00048 0.993533
1.00469 0.998726 0.986885
1.00467 0.998335 0.987257
1.00453 0.998183 0.987579
1.00036 1.00231 0.991645
1.00039 1.00362 0.99009
1.00142 1.00386 0.988233
1.00405 0.997828 0.988957
1.00277 1.00049 0.988734
1.00016 0.999167 0.995012
1.00023 1.00031 0.993893
1.00031 1.00228 0.991671
1.00029 1.00254 0.991528
1.00017 1.00232 0.991958
1.00021 1.00133 0.992927
1.0048 0.99838 0.986998
1.00488 0.998098 0.987113
1.00479 0.997449 0.987813
1.00398 0.998056 0.988976
1.00012 1.00291 0.991319
1.00188 1.0034 0.987603
1.00069 1.00442 0.989137
1.00017 0.999014 0.995217
1.00017 0.999979 0.994268
1.00021 1.00024 0.993859
1.00019 1.00113 0.99313
1.00014 1.002 0.992336
1.00009 1.00306 0.991329
1.00044 1.00183 0.991808
1.00023 1.00296 0.99167
1.00018 1.00039 0.993839
1.00017 1.00163 0.992637
1.00386 0.998267 0.989053
1.0001 1.00284 0.991578
1.00008 1.00335 0.991176
1.0001 1.00334 0.991009
1.0021 1.0013 0.989397
1.00262 0.99921 0.9903
1.00026 1.0043 0.989716
1.00125 1.00396 0.988187
1.00017 1.00123 0.992976
1.00013 1.00244 0.991868
1.00009 1.00395 0.990562
1.00014 1.00345 0.990823
1.00458 0.997649 0.988309
1.00377 0.997258 0.989855
1.00219 1.00198 0.988585
1.00058 1.00474 0.988502
1.00013 1.0019 0.992459
1.00455 0.99743 0.988326
1.00009 1.00324 0.991294
1.00028 1.0042 0.989903
1.0049 0.996396 0.98887
1.00346 0.9994 0.988433
1.00131 1.00443 0.987969
1.00016 1.00104 0.9933
1.00013 1.00163 0.992744
1.0001 1.00218 0.992251
1.0002 0.999996 0.994218
1.00012 1.00081 0.993535
1.00012 1.00146 0.992893
1.00021 0.999973 0.994216
1.00012 1.00078 0.993523
1.0001 1.00194 0.992492
1.00009 1.00135 0.993072
1.00009 1.00226 0.99218
1.00009 1.00181 0.992562
1.00009 1.0013 0.993159
1.00014 1.00072 0.993606
1.00022 1.00001 0.994179
1.00019 0.998942 0.995253
1.00019 0.998897 0.995289
1.0001 0.99711 0.997595
1.00019 0.998857 0.995332
1.00008 0.997124 0.997626
1.00004 0.996103 0.998543
1.00006 0.997162 0.997644
1.00001 0.996113 0.998562
0.999954 0.996187 0.998554
1.00018 0.998862 0.995343
1.00004 0.997294 0.997144
1 0.997476 0.997047
0.999893 0.996364 0.999353
0.999961 0.997667 0.996943
0.99983 0.996565 0.99932
0.999759 0.996776 0.999287
1.00413 0.998043 0.988463
1.00438 0.998208 0.987961
1.00463 0.998549 0.987173
1.00473 0.998901 0.986648
1.00483 0.998672 0.986684
1.00473 0.997914 0.987609
1.00444 0.998024 0.988017
1.00484 0.998131 0.987178
1.00471 0.997689 0.987919
1.00463 0.997022 0.988408
1.00471 0.998742 0.986807
1.00467 0.99837 0.987254
1.00462 0.998169 0.987526
1.00039 1.00233 0.991619
1.00033 1.00355 0.990308
1.00146 1.0038 0.988231
1.00396 0.997945 0.989018
1.00278 1.00037 0.988722
1.00028 1.00226 0.991662
1.00031 1.00247 0.991613
1.00017 1.00232 0.991937
1.00016 0.999148 0.995099
1.00023 1.00031 0.993895
1.0002 1.00135 0.992876
1.00479 0.998339 0.987113
1.00018 0.999008 0.995214
1.00017 0.999982 0.994225
1.00489 0.998136 0.987067
1.00475 0.997585 0.987725
1.00009 1.00286 0.991446
1.00068 1.00452 0.988972
1.00185 1.00331 0.987637
1.00391 0.998038 0.989017
1.00021 1.00024 0.993987
1.00019 1.00113 0.993131
1.00051 1.0019 0.991683
1.00016 1.00253 0.991972
1.00007 1.00314 0.991246
1.00015 1.00197 0.99234
1.00484 0.997236 0.987967
1.00501 0.998125 0.986968
1.00494 0.996242 0.988592
1.00302 1.00045 0.988159
1.0002 1.0031 0.991219
1.00109 1.0049 0.987964
1.00016 0.999879 0.994297
1.00018 1.00013 0.994103
1.00011 1.00084 0.993669
1.00016 1.00108 0.993135
1.00013 1.00183 0.992625
0.999998 1.00263 0.991828
0.999941 1.00391 0.990929
1.00017 1.00216 0.992043
1.00017 1.00127 0.992932
1.00012 1.00245 0.991894
1.00461 0.997686 0.988108
1.00367 0.997435 0.989928
1.00018 1.00347 0.990877
1.00007 1.00393 0.990614
1.00228 1.00187 0.988762
1.00072 1.00474 0.988397
1.00012 1.00192 0.99245
1.00454 0.997487 0.988312
1.00007 1.00319 0.99131
1.00027 1.00415 0.98986
1.00478 0.996293 0.98888
1.00354 0.999378 0.988501
1.00122 1.00451 0.988029
1.00007 1.00274 0.991764
1.00496 0.996732 0.98903
1.00036 1.00348 0.990758
1.00061 1.00468 0.989249
1.00471 0.996367 0.988978
1.00187 1.00277 0.987905
1.00158 0.999958 0.991404
1.00013 1.00164 0.992741
1.00009 1.00219 0.992247
1.00015 1.00247 0.991883
1.00021 0.999965 0.994216
1.00012 1.00079 0.99352
1.00009 1.00136 0.993137
1.00011 1.00196 0.992431
1.00022 0.999999 0.994176
1.00014 1.00071 0.993567
1.0001 1.00225 0.992162
1.0001 1.00129 0.993153
1.00009 1.00183 0.992619
1.00011 1.00217 0.992213
1.00005 1.00164 0.992896
1.00014 1.0012 0.993193
1.00019 1.00069 0.993484
1.00022 1.00003 0.994037
1.00018 1.00067 0.993685
1.00021 1.00004 0.994053
1.00019 0.998966 0.995238
1.00019 0.998942 0.995254
1.00012 0.997152 0.99714
1.00019 0.998899 0.99529
1.00011 0.997133 0.997379
1.00002 0.996057 0.999376
1.00008 0.997144 0.997621
1.00004 0.99607 0.998546
1 0.996087 0.998563
1.00019 0.998757 0.995444
1.00019 0.998862 0.99534
1.00008 0.997157 0.997216
1.00004 0.997302 0.997352
0.999941 0.996218 0.999374
1 0.997486 0.997042
0.999886 0.996391 0.999345
0.999822 0.996594 0.999312
1.00441 0.998024 0.988
1.00475 0.997894 0.987599
1.00481 0.998678 0.986664
1.00486 0.998123 0.98716
1.00471 0.997679 0.987896
1.00465 0.997087 0.988504
1.00485 0.997095 0.988147
1.00268 1.00002 0.98878
1.005 0.996222 0.98872
1.00017 0.999817 0.99446
1.00477 0.998294 0.987229
1.0049 0.99816 0.987021
1.0047 0.997742 0.987637
1.00007 1.00284 0.991572
1.00067 1.00456 0.988806
1.00183 1.00324 0.987671
1.00384 0.998067 0.989057
1.00058 1.00198 0.991559
1.00007 1.00208 0.992276
1.00004 1.00321 0.991163
1.00018 0.999005 0.995212
1.00017 1.00194 0.992343
1.0002 1.00024 0.994116
1.00018 1.00112 0.993132
1.00016 0.999981 0.994181
1.00482 0.997286 0.988021
1.00016 0.999868 0.994352
1.00018 1.00013 0.994099
1.00012 1.00082 0.993571
1.00504 0.99793 0.986987
1.00491 0.996597 0.988477
1.00027 1.00275 0.991283
1.0009 1.00489 0.987886
1.00301 1.00049 0.988172
1.00016 1.00108 0.993203
1.00012 1.00182 0.992597
1.00014 1.00235 0.991862
0.999933 1.00379 0.991018
1.00002 1.00264 0.991892
1.00481 0.997084 0.988268
1.00513 0.997757 0.987091
1.00445 0.99763 0.988124
1.0017 1.00321 0.988267
1.00021 1.0036 0.990645
1.00011 1.00069 0.993579
1.00012 1.00098 0.993338
1.00013 1.00139 0.99308
1.00008 1.0017 0.992751
1.00007 1.00229 0.992263
0.999894 1.00317 0.991577
0.999806 1.00411 0.990774
1.00011 1.00194 0.992441
1.00005 1.00314 0.991326
1.00455 0.997539 0.988298
1.00467 0.996177 0.98889
1.00364 0.99933 0.988569
1.00025 1.00411 0.989817
1.00112 1.00458 0.98809
1.00006 1.0027 0.991844
1.00494 0.99635 0.988987
1.00024 1.00346 0.990812
1.00041 1.00468 0.989307
1.0047 0.996039 0.989222
1.00187 1.00303 0.987873
1.00162 0.999966 0.990488
1.00015 1.00299 0.991387
1.00512 0.99487 0.990473
1.00012 1.00377 0.990803
1.0003 1.00494 0.989035
1.00267 0.999774 0.988605
1.0003 0.995063 0.967046
0.997026 1.00141 0.981621
1.00123 1.00018 0.992259
0.997536 0.997475 0.962613
0.995176 0.997489 0.963616
1.00009 1.0022 0.992243
1.00012 1.00247 0.991927
1.00022 1.0023 0.991951
1.00021 0.999993 0.994174
1.00015 1.0007 0.993527
1.0001 1.00128 0.993147
1.00008 1.00184 0.992675
1.0001 1.00224 0.992145
1.00014 1.0012 0.993147
1.00022 1.00004 0.994088
1.00019 1.00068 0.993529
1.0001 1.00217 0.992228
1.00006 1.00162 0.992882
1.00007 1.00152 0.992923
1.00009 1.00185 0.992623
1.00019 1.00112 0.993064
1.00023 1.00069 0.99341
1.00021 1.00004 0.994026
1.00021 1.00065 0.993563
1.00017 1.00107 0.993277
1.00013 1.00072 0.993606
1.00017 1.00067 0.99362
1.00021 1.00003 0.994162
1.00021 1.00005 0.994049
1.00019 0.998973 0.995233
1.00019 0.998963 0.995238
1.00011 0.997191 0.997126
1.00019 0.998942 0.995254
1.00012 0.997154 0.997139
1.00002 0.996059 0.999371
1.00011 0.997156 0.997162
1.00004 0.996058 0.998951
1.00004 0.996039 0.998549
1.00019 0.998678 0.995519
1.00019 0.998751 0.995443
1.0001 0.997053 0.997279
1.00019 0.998859 0.995336
1.00007 0.997152 0.997424
0.999979 0.996105 0.99939
1.00004 0.997319 0.997129
0.999933 0.996262 0.999365
0.999879 0.99642 0.999337
1.00471 0.997667 0.987873
1.00487 0.998115 0.987143
1.00466 0.997149 0.988601
1.0025 0.998849 0.988931
1.00486 0.997068 0.988193
1.005 0.9965 0.988697
1.00511 0.997056 0.987808
0.998723 0.999192 0.980126
1.00385 0.996874 0.98911
1.00016 0.999792 0.994488
1.00017 0.999812 0.994459
1.0001 1.00062 0.993786
1.00008 1.0006 0.993855
1.0048 0.997337 0.988076
1.00505 0.997816 0.987006
1.00493 0.996895 0.98836
1.00034 1.0024 0.991347
1.00071 1.00497 0.987809
1.00302 1.00053 0.988185
1.00011 1.00256 0.991679
0.999935 1.00367 0.991107
1.00004 1.00264 0.991957
1.00018 1.00014 0.994095
1.00011 1.00182 0.992569
1.00016 1.00107 0.99327
1.00017 0.99986 0.994408
1.00011 1.0008 0.993474
1.00473 0.997087 0.988329
1.00012 1.0007 0.993679
1.00012 1.00095 0.993386
1.00012 1.00136 0.993037
1.00512 0.997457 0.987187
1.00444 0.997723 0.988099
1.00026 1.00343 0.99064
1.0017 1.00347 0.988082
1.00009 1.00171 0.992763
1.00004 1.00228 0.992274
0.999825 1.00412 0.990758
0.999928 1.00336 0.991432
1.0051 0.996993 0.987854
1.00512 0.997395 0.987102
1.00271 1.0017 0.987829
1.00014 1.00416 0.990212
1.0001 1.0015 0.992869
1.00007 1.00158 0.992886
1.00004 1.00228 0.992263
0.999964 1.00385 0.990806
0.999395 0.99511 0.964552
1.00004 1.00265 0.991925
1.00013 1.00345 0.990865
1.00491 0.995916 0.988945
1.00468 0.995708 0.989466
1.00186 1.00329 0.987842
1.00022 1.00463 0.989365
1.00156 0.999976 0.98957
1.00009 1.00302 0.991434
1.00511 0.99487 0.990381
1.00006 1.00372 0.99082
1.00027 1.00499 0.989045
1.00287 0.999679 0.988612
1.00012 0.995566 0.965287
0.996843 1.00122 0.978432
1.00114 1.00013 0.9925
0.997084 0.997862 0.962388
0.995064 0.997581 0.960881
1.0001 1.00283 0.99169
0.998414 0.994955 0.962622
0.995831 0.998547 0.964192
1.00409 0.996254 0.990715
0.999903 1.00394 0.990907
1.00037 1.00415 0.989848
1.00093 0.999836 0.994192
0.998143 0.998802 0.966148
0.995735 1.00196 0.977289
0.996131 0.999533 0.963896
0.996681 0.996299 0.969716
1.00009 1.00248 0.991971
1.00019 1.00232 0.991954
1.00019 1.00209 0.992299
1.00021 1.00004 0.994139
1.00019 1.00067 0.993574
1.00014 1.00121 0.9931
1.00008 1.0016 0.992869
1.00009 1.00218 0.992244
1.00022 1.00005 0.994025
1.00006 1.00149 0.992966
1.00019 1.00114 0.993114
1.00023 1.00067 0.993473
1.00009 1.00185 0.992579
1.00017 1.00146 0.992775
1.00012 1.00179 0.992643
1.00022 1.00102 0.99317
1.00024 1.00069 0.993489
1.00022 1.00065 0.993561
1.00017 1.00106 0.993227
1.00023 1.00099 0.99319
1.00012 1.00116 0.993196
1.00021 1.00129 0.992983
1.00003 1.0018 0.992705
1.00012 1.00083 0.993531
1.00013 1.00073 0.993604
1.00019 1.00005 0.994173
1.00017 1.00067 0.993556
1.00021 1.00003 0.994123
1.00018 0.998986 0.995229
1.00021 1.00006 0.994045
1.00019 0.99897 0.995233
1.00008 0.997219 0.997559
1.00019 0.998962 0.995237
1.0001 0.997186 0.997343
1.00006 0.99608 0.998502
1.00012 0.997157 0.997139
1.00002 0.996062 0.99937
1.00006 0.99606 0.998525
1.00016 0.999809 0.994469
1.00019 0.998651 0.995554
1.00019 0.998676 0.995518
1.00011 0.996979 0.99733
1.00019 0.998746 0.995443
1.0001 0.997046 0.997281
1.00001 0.996016 0.999405
1.00006 0.997164 0.997621
0.999988 0.996145 0.998963
0.999964 0.996291 0.998511
1.00221 0.99775 0.989078
1.00488 0.997052 0.988239
1.00501 0.996758 0.988674
0.998277 0.99859 0.982178
1.00376 0.997476 0.989314
1.00512 0.996645 0.987866
1.00483 0.997402 0.989159
0.999288 0.997111 0.983395
0.999036 0.995657 0.964495
0.997542 0.997473 0.961561
0.995616 0.995897 0.963122
1.00007 1.0006 0.993756
1.00016 0.999795 0.994486
1.00017 0.999809 0.994459
1.0001 1.00062 0.993761
1.00004 1.00119 0.993331
1.00007 1.00108 0.9934
1.00009 1.00069 0.993768
1.00008 1.00061 0.993809
1.00464 0.997075 0.98839
1.00514 0.997044 0.987284
1.00442 0.997843 0.988074
1.00032 1.00324 0.990635
1.0017 1.00363 0.987896
0.999844 1.00412 0.990743
0.999961 1.00356 0.991286
1.00001 1.00227 0.992284
1.00012 1.00093 0.993433
1.00009 1.00172 0.992776
1.00013 1.0007 0.993778
1.00012 1.00132 0.992994
1.00504 0.997125 0.987711
1.00008 1.00149 0.992922
1.00007 1.00158 0.99286
1.00504 0.997447 0.987093
1.00237 1.00151 0.988138
1.00021 1.00418 0.990131
1.00007 1.0023 0.99219
0.999985 1.00386 0.990812
1.00457 0.999961 0.986949
1.00386 0.998893 0.988422
1.00008 1.00383 0.990086
0.999957 1.00351 0.991306
1.00004 1.00189 0.992544
1.00011 1.00219 0.992227
1.00012 1.00286 0.991599
0.998347 0.994799 0.961588
0.99992 0.995297 0.968448
1.00005 1.00304 0.991481
0.999992 1.00371 0.990837
1.0051 0.994882 0.990288
1.00311 0.999644 0.988619
1.00025 1.00506 0.989056
1.00014 0.995233 0.963597
0.996991 1.0013 0.979883
1.00098 1.00008 0.992744
0.997009 0.997466 0.963044
0.994946 0.997744 0.95814
1.00009 1.00279 0.991686
0.998547 0.994997 0.961616
0.995595 0.998913 0.963266
1.00425 0.996519 0.990639
0.999803 1.00407 0.990938
1.00021 1.00401 0.989913
1.00094 0.998663 0.994567
0.998089 0.998828 0.963969
0.995844 1.00326 0.980057
0.996018 0.999738 0.962641
0.996755 0.996371 0.968471
1.00018 1.00247 0.991912
0.995931 0.998647 0.967616
0.99986 0.997672 0.97737
1.00159 0.998902 0.992939
0.99958 1.00401 0.991938
0.99969 1.00241 0.995303
0.996888 1.00217 0.983946
0.995757 1.00146 0.963861
0.995615 0.999665 0.964117
1.00023 0.996168 0.972505
1.00016 1.00235 0.991956
1.00019 1.0021 0.992226
0.999924 1.00189 0.992659
1.00022 1.00006 0.994025
1.00023 1.00066 0.993537
1.00019 1.00116 0.993164
1.00005 1.00146 0.99301
1.0001 1.00187 0.992536
1.00024 1.00068 0.993489
1.00015 1.00149 0.992824
1.00023 1.00101 0.993164
1.00008 1.00179 0.992684
1.00017 1.00144 0.993037
1.00024 1.00124 0.9929
1.00024 1.00103 0.993126
1.00022 1.00065 0.993558
1.00017 1.00105 0.993178
1.00022 1.00099 0.993195
1.00012 1.00117 0.993192
1.00023 1.00124 0.992957
1.00008 1.00138 0.99304
1.00023 1.00122 0.99298
1.0002 1.00144 0.992755
1.00006 1.00245 0.992002
0.999885 1.00338 0.991352
0.999996 1.00226 0.992249
1.00003 1.00184 0.992695
1.00011 1.00102 0.993347
1.00011 1.00085 0.993524
1.00017 1.0001 0.994159
1.00013 1.00074 0.993602
1.00019 1.00005 0.994172
1.00016 0.99903 0.99522
1.0002 1.00003 0.994084
1.00018 0.998983 0.99523
1.00006 0.997259 0.997563
1.00019 0.998966 0.995233
1.00009 0.997214 0.997344
1.00004 0.996091 0.998503
1.00012 0.997177 0.997126
1.00002 0.99608 0.999367
1.00002 0.996065 0.999369
1.00016 0.999887 0.994551
1.00018 0.99869 0.995531
1.00016 0.999822 0.994468
1.00012 0.996956 0.997352
1.00019 0.99865 0.995554
1.00019 0.998672 0.995518
1.00011 0.996982 0.997328
1.00002 0.995957 0.999416
1.00008 0.997046 0.997684
1.00002 0.996029 0.998991
1.00001 0.996154 0.99855
0.998405 0.995447 0.962282
0.995979 0.99754 0.966217
0.998487 0.997655 0.983538
1.00368 0.9982 0.989514
1.00513 0.996282 0.987922
0.999251 0.996989 0.986247
1.00482 0.997688 0.98908
0.999749 0.995273 0.967199
0.997134 0.997427 0.962131
0.995427 0.996664 0.960447
1.00054 0.996794 0.98982
0.998162 0.998063 0.967265
0.996052 0.99972 0.963504
0.9972 0.996829 0.966703
1.00006 1.00133 0.993132
1.00008 1.00059 0.993795
1.00016 0.999792 0.994485
1.00009 1.00062 0.993736
1.00002 1.00115 0.993408
1.00006 1.00135 0.99316
1.00008 1.00106 0.993396
1.0001 1.00095 0.993426
1.00009 1.0007 0.993712
1.00008 1.00062 0.993763
1.00497 0.997259 0.987572
1.00492 0.997399 0.987082
1.00198 1.00129 0.98845
1.00026 1.00424 0.990051
1.00001 1.00384 0.990819
1.0001 1.00231 0.992118
1.00007 1.00159 0.992834
1.00006 1.00149 0.992975
1.0047 0.999302 0.986892
1.00005 1.00192 0.992511
1.00013 1.00219 0.992134
1.00347 0.999631 0.987951
0.99992 1.00382 0.990526
1.00007 1.00334 0.991191
1.00017 1.00269 0.99165
1.00248 1.00369 0.987465
1.00096 1.00085 0.992495
1.00001 1.00315 0.99141
1.00003 1.00209 0.992418
1.00017 1.00227 0.991965
1.0003 1.00263 0.991461
0.997144 0.997632 0.969446
0.998344 0.995206 0.961935
0.999663 0.995152 0.9642
1.00009 1.00276 0.991682
0.999708 1.00419 0.990969
1.00446 0.996664 0.990563
1.00004 1.0039 0.989975
0.99879 0.994886 0.9619
0.997788 0.998839 0.966687
0.996094 1.00303 0.97724
1.00096 0.998157 0.994922
0.996081 0.999874 0.962885
0.995332 0.999197 0.963284
0.997188 0.996352 0.967678
1.00011 1.00253 0.991913
0.996044 0.9985 0.967863
0.99982 0.997946 0.977412
1.00167 0.998936 0.992946
0.999343 1.00388 0.991966
1.00038 1.00094 0.995801
0.99702 1.00242 0.979895
0.995867 1.00275 0.965729
0.996192 0.999169 0.965315
0.999135 0.996392 0.972466
0.999569 1.00228 0.993515
1.00165 0.998633 0.979079
1.00514 0.99843 0.978747
0.998314 1.00289 0.995035
0.997618 1.00254 0.989508
0.995557 1.00216 0.965155
0.99598 0.999907 0.967005
1.00015 0.998294 0.969872
1.00018 1.00209 0.992155
1.00003 1.00182 0.992751
0.999913 1.00082 0.993728
1.00024 1.00067 0.99349
1.00023 1.001 0.993157
1.00013 1.00151 0.992872
1.00005 1.00178 0.992724
1.00024 1.00103 0.993128
1.00023 1.00127 0.992889
1.00013 1.00129 0.993112
1.00004 1.00092 0.99381
1.00034 1.00093 0.993043
1.00023 1.00116 0.992972
1.00021 1.001 0.993199
1.00011 1.00118 0.993189
1.00025 1.00119 0.992932
1.00023 1.00122 0.992979
1.00006 1.00143 0.993031
1.00022 1.0014 0.992776
1.00012 1.00182 0.992529
1.00029 1.00132 0.992723
1 1.00266 0.991931
1.00008 1.00244 0.99204
0.999845 1.00331 0.991487
1.00015 1.00366 0.990686
1.00005 1.00261 0.99198
0.999863 1.00326 0.991524
1 1.00225 0.992346
1.00011 1.00138 0.992915
1.00002 1.00188 0.992685
1.00011 1.00105 0.993338
1.00016 1.00018 0.994085
1.00011 1.00086 0.993517
1.00017 1.0001 0.994156
1.00013 0.999107 0.995199
1.00019 1.00005 0.994171
1.00017 0.999024 0.995221
1.00002 0.997326 0.997562
1.00018 0.99898 0.995231
1.00006 0.997259 0.997348
1 0.996152 0.998509
1.0001 0.997203 0.997127
1.00002 0.996101 0.998934
1.00002 0.996085 0.999367
1.00016 1.00005 0.994281
1.00017 0.998778 0.995467
1.00015 0.999893 0.994433
1.00011 0.996993 0.997335
1.00018 0.998688 0.995532
1.00016 0.999835 0.994467
1.00002 0.995943 0.999419
1.00012 0.996954 0.997352
1.00019 0.998648 0.995554
1.00011 0.996986 0.997327
1.00002 0.995965 0.999413
1 0.996026 0.999401
0.996577 0.997923 0.969547
0.998206 0.995129 0.961839
0.999797 0.998967 0.976183
0.996016 0.997526 0.965199
0.999588 0.996962 0.982117
1.00481 0.997957 0.988949
0.99923 0.995233 0.969902
0.997493 0.998048 0.962142
0.995211 0.997407 0.95777
0.999983 0.997857 0.98795
0.998877 0.997432 0.96346
0.996148 0.999537 0.961983
0.997053 0.997618 0.965732
0.998242 0.998232 0.986734
0.996801 1.00026 0.963932
0.995474 0.999574 0.963977
0.999764 0.997468 0.96997
1.00008 1.00181 0.99269
1.00005 1.00132 0.993192
1.00009 1.00059 0.993833
1.00001 1.00111 0.993486
1.0001 1.00164 0.992734
1.00006 1.00132 0.993213
1.00008 1.00104 0.993392
1.00014 1.00105 0.993341
1.00011 1.00094 0.993493
1.0001 1.0007 0.993656
1.00481 0.998827 0.98684
1.00309 1.00033 0.987482
0.999791 1.00381 0.990965
1.00019 1.00316 0.991076
1.00021 1.00255 0.991701
1.00014 1.0022 0.99204
1.00006 1.00196 0.992478
1.00005 1.0021 0.992416
1.00275 1.00275 0.987769
1.00014 1.00233 0.992014
1.00031 1.00259 0.991507
1.00095 1.00079 0.991863
1.00018 1.00289 0.991444
1.00086 1.00205 0.990582
1.00022 1.00113 0.993473
1.00021 1.00234 0.991611
1.00018 1.00215 0.992089
1.00031 1.00259 0.991376
1.00327 0.998505 0.97889
0.997113 0.998129 0.969606
0.99827 0.995559 0.962131
1.00004 1.00262 0.991913
0.999111 1.00382 0.991996
1.00169 0.999019 0.99296
0.995975 0.99838 0.969298
0.996226 1.00156 0.963298
0.996973 1.00223 0.982154
1.00113 0.998232 0.996346
0.995639 0.999539 0.964132
0.999606 0.998233 0.977454
0.998535 0.996498 0.972764
0.999533 1.00217 0.9935
1.00134 0.998233 0.980799
1.00455 0.998761 0.979115
0.998394 1.00248 0.995275
0.997494 1.00164 0.989159
0.995807 1.00233 0.962853
1.00096 0.997657 0.970796
0.995439 0.999563 0.966384
0.99865 1.00173 0.995622
1.00998 0.998535 0.978211
1.0064 1.00006 0.976911
1.00015 0.997249 0.969803
0.995499 1.00326 0.996355
0.995394 0.999493 0.968898
0.994555 0.999977 0.968041
1.00014 1.00174 0.992842
1.00007 1.00099 0.993376
0.999899 0.999519 0.995307
1.00024 1.00104 0.99313
1.00022 1.0013 0.992878
1.00011 1.0011 0.993187
1.00025 1.00118 0.992969
1.00033 1.00087 0.993036
1.00013 1.00075 0.993665
0.999734 1.00029 0.994701
1.0004 1.00095 0.992856
1.00022 1.00121 0.992978
1.00005 1.00147 0.993022
1.00023 1.00135 0.992796
1.00028 1.00133 0.992711
1.00014 1.00176 0.992577
0.999952 1.00211 0.992537
0.999961 1.00266 0.991975
0.999823 1.00395 0.99097
1.00009 1.00244 0.992078
0.999951 1.00331 0.991444
1.00007 1.00405 0.990155
1.00013 1.00374 0.990588
1.00006 1.0029 0.991605
1.0001 1.00367 0.990691
1.00012 1.00179 0.99259
1.00006 1.00263 0.991902
0.999841 1.00314 0.991696
1.00001 1.00225 0.992444
1.0001 1.00136 0.993
1.00015 1.0004 0.993893
1.00011 1.00107 0.993328
1.00016 1.0002 0.994079
1.0001 0.999202 0.995163
1.00017 1.00011 0.994153
1.00014 0.999098 0.9952
0.999968 0.997433 0.997546
1.00017 0.999017 0.995222
1.00003 0.997334 0.997345
0.999957 0.996239 0.998508
1.00007 0.997251 0.997132
0.99999 0.996159 0.998937
0.999996 0.996123 0.999367
1.00017 1.00024 0.993915
1.00014 0.998945 0.995192
1.00016 1.00006 0.994277
1.00009 0.997087 0.997278
1.00016 0.998788 0.995384
1.00014 0.999902 0.994316
1.00001 0.995975 0.999412
1.00011 0.996985 0.997337
1.00018 0.998685 0.995532
1.00002 0.995942 0.999418
1.00012 0.996954 0.997352
1.00002 0.995973 0.99941
1.00289 0.998654 0.978071
0.996687 0.997493 0.968737
0.998258 0.994995 0.962086
1.00021 1.00106 0.993142
1.00435 0.998465 0.980359
0.999623 0.998669 0.976218
0.996003 0.997523 0.965019
0.999898 0.998913 0.985842
0.998593 0.998016 0.967314
0.996033 0.999679 0.962146
0.997175 0.99733 0.965058
0.997542 0.999398 0.982266
0.996142 1.00104 0.966775
0.996437 1.0001 0.964071
0.999653 0.997369 0.969615
0.996693 1.00229 0.97863
0.995584 1.00101 0.962525
0.995161 0.999662 0.965697
0.999883 0.99812 0.97021
1.00015 1.00197 0.992331
1.00007 1.00182 0.992657
1.00005 1.00131 0.993251
1.00015 1.0016 0.992715
1.00009 1.00162 0.992821
1.00006 1.00128 0.993266
1.00015 1.00105 0.993359
1.00012 1.00094 0.99356
1.00304 1.00184 0.988068
1.00095 1.00112 0.99123
1.00006 1.00209 0.992413
1.00035 1.00271 0.991478
1.00034 1.00252 0.991552
1.00013 1.00237 0.992061
1.00017 1.0022 0.992101
1.00148 1.00195 0.990819
1.00029 1.00256 0.99151
1.00029 1.00253 0.991564
1.00028 1.00072 0.993251
1.00024 1.002 0.992231
0.999433 0.999092 0.995799
0.999121 1.00296 0.993681
1.00029 1.00188 0.991902
1.00027 1.0022 0.991944
1.01232 0.998024 0.976226
1.00371 0.998757 0.97829
0.997081 0.998613 0.969775
0.999477 1.00205 0.99349
0.998463 1.00219 0.995495
1.00106 0.997828 0.982512
0.99569 1.00086 0.965783
0.997506 1.00231 0.984435
0.995095 0.999782 0.965594
1.00405 0.999061 0.979483
1.00181 0.997212 0.97172
0.99873 1.00197 0.995158
1.00983 0.998617 0.978548
1.00731 1.00012 0.977038
0.995749 1.00405 0.998762
0.999989 0.99693 0.969512
0.995014 0.999666 0.966992
0.995279 0.999827 0.965882
0.99773 1.001 0.998386
1.01628 0.997507 0.971686
1.00435 0.998102 0.980665
0.997244 0.996424 0.967276
0.995084 0.999292 0.965811
0.995246 0.999717 0.999463
0.995079 1.00022 0.964034
1.0002 1.00122 0.993027
0.999928 0.999712 0.99514
0.998743 0.998804 0.998113
1.00026 1.0012 0.992967
1.00033 1.00085 0.993029
1.0002 1.00069 0.99352
1.00037 1.00107 0.992831
0.999877 1.00001 0.994684
0.999665 1.00151 0.993538
1.00027 1.00136 0.992699
1.00016 1.00171 0.992626
1.00005 1.00208 0.992486
0.999515 1.00384 0.991587
0.999923 1.00267 0.992019
0.999736 1.00383 0.991148
1.00003 1.00479 0.989768
1.0006 1.004 0.989471
1.00006 1.0033 0.991401
1.00017 1.00418 0.989942
1.00027 1.00334 0.990958
0.999942 1.00331 0.991273
1.00013 1.00362 0.990711
1.00012 1.00209 0.992302
1.00009 1.00289 0.991595
1.00006 1.00369 0.990698
1.00015 1.00074 0.993568
1.00012 1.00177 0.992565
1.00007 1.00266 0.991824
1.0001 1.00134 0.993086
1.00015 1.00041 0.993885
1.00006 0.999367 0.995077
1.00016 1.00021 0.994072
1.00011 0.999196 0.995162
0.999927 0.997573 0.997086
1.00014 0.99909 0.995201
0.999985 0.99744 0.997114
0.999864 0.99635 0.999366
1.00004 0.997328 0.99713
0.999946 0.996242 0.998937
0.999964 0.996185 0.999367
1.00021 1.00032 0.993767
1.00013 0.999158 0.994989
1.00018 1.00024 0.993979
1.00006 0.997234 0.997187
1.00014 0.998961 0.995169
1.00017 1.00006 0.994273
0.999991 0.996054 0.999397
1.00009 0.997076 0.997282
1.00016 0.998797 0.995302
1.00002 0.995966 0.999414
1.00011 0.996979 0.997338
1.00002 0.995942 0.999418
1.01183 0.9974 0.976221
1.00265 0.998774 0.978335
0.996655 0.997167 0.968959
1.0002 1.00108 0.993164
1.00023 1.00112 0.993
1.00015 1.0016 0.992776
1.0064 1.00038 0.976497
1.00396 0.998475 0.980745
0.999431 0.998273 0.976255
0.997022 1.00028 0.985141
0.996608 1.00016 0.963936
0.995616 0.99986 0.963095
0.999655 0.996851 0.969786
0.996108 1.00137 0.982642
0.995834 1.00177 0.9639
0.995044 0.999972 0.96758
1.00069 0.997903 0.971058
0.996333 1.00219 0.981319
0.995093 1.00085 0.966755
0.994552 0.999965 0.968521
0.99996 0.996412 0.9724
1.00022 1.0019 0.992292
1.00015 1.00199 0.992321
1.00007 1.00185 0.992624
1.00015 1.00161 0.992708
1.00009 1.00161 0.992909
1.00016 1.00105 0.993377
1.00213 1.00163 0.991057
1.00022 1.00015 0.993033
1.00016 1.00226 0.992114
1.00037 1.00258 0.991517
1.00026 1.00259 0.991645
1.00026 1.00195 0.992177
1.00025 1.0022 0.99197
0.999709 1.00006 0.995751
1.00027 1.00195 0.992082
0.998762 1.00254 0.994906
1.00021 1.00173 0.992477
0.997313 0.999311 0.999231
0.998404 1.00053 0.997891
1.00014 1.002 0.992234
1.01997 0.996494 0.968373
1.01392 0.997753 0.974479
1.00415 0.999048 0.97769
0.99884 1.00216 0.994692
0.996077 1.00163 0.998458
1.00968 0.998683 0.978885
0.995169 1.00077 0.974504
0.995799 0.999897 0.96755
1.00821 1.00007 0.977165
1.00011 0.996629 0.969661
0.997869 1.00101 0.998261
1.01728 0.997612 0.970455
1.00395 0.998229 0.981002
0.995029 1.00091 0.992935
0.997099 0.996868 0.966266
0.99521 0.999907 0.967055
0.995023 1.00019 0.968358
0.996613 1.00123 1.00206
1.01183 0.997401 0.976288
1.00002 0.998762 0.976112
0.99556 0.995665 0.963418
0.995333 0.999047 0.964903
0.995063 1.00007 0.96762
0.995124 0.999846 0.98976
0.999953 0.999929 0.994976
0.998862 0.998531 0.998046
0.998627 1.00047 0.996989
1.00033 1.00115 0.992806
1.00002 0.999695 0.994666
0.999552 1.00165 0.993676
0.999487 1.00277 0.992787
1.00016 1.00206 0.992434
0.999769 1.0038 0.991389
0.999958 1.0049 0.989775
0.999641 1.00372 0.991326
1.00007 1.00477 0.989745
1.00079 1.00484 0.988547
1.00106 1.00439 0.988357
1.00035 1.00325 0.990495
1.0006 1.00405 0.989379
1.00028 1.00431 0.989729
1.00024 1.00294 0.991325
1.0002 1.0032 0.991095
1.00002 1.00267 0.991793
0.999983 1.00326 0.991353
1.00013 1.0035 0.990833
1.00016 1.00113 0.993158
1.00012 1.00208 0.992309
1.00013 1.00287 0.991584
1.00002 0.999637 0.994876
1.00015 1.00073 0.993565
1.00012 1.00175 0.992541
1.00015 1.00042 0.993876
1.00006 0.999367 0.995073
0.999861 0.997754 0.99703
1.00011 0.99919 0.995161
0.999931 0.997576 0.997084
0.999817 0.996493 0.999355
0.99999 0.997439 0.997113
0.999886 0.996365 0.99893
0.99992 0.996271 0.999365
1.00022 1.00042 0.993733
1.00014 0.99931 0.994977
1.0002 1.00033 0.993812
1.00002 0.997423 0.997074
1.00013 0.999171 0.995049
1.00019 1.00025 0.994042
0.999957 0.996175 0.999374
1.00006 0.997223 0.997192
1.00014 0.99898 0.995146
0.999994 0.996038 0.999402
1.00009 0.997066 0.997285
1.00002 0.995957 0.999417
1.01641 0.99773 0.971074
1.0114 0.997906 0.97655
1.00242 0.998867 0.978604
1.00023 1.00122 0.99289
1.00017 1.00177 0.992545
1.00019 1.0011 0.993186
1.00023 1.00114 0.992986
1.00016 1.00159 0.992722
1.00017 1.00162 0.992682
1.00015 1.00186 0.992465
1.00516 0.998675 0.97839
1.00733 1.00048 0.976538
1.00357 0.998515 0.981132
1.00149 0.997482 0.971906
0.995472 1.00059 0.979321
0.995722 1.00254 0.965418
0.994847 1.00006 0.965767
0.995874 1.00058 0.979575
0.995204 1.00015 0.964192
0.995232 0.999807 0.966575
0.999014 0.99683 0.972229
0.995689 0.998267 0.98732
0.99492 1.00024 0.964387
0.996215 1.00001 0.966941
0.996843 0.996384 0.969211
1.00024 1.00181 0.992416
1.00022 1.00187 0.992284
1.00013 1.002 0.99231
1.00015 1.00162 0.992702
1.00001 1.00149 0.995691
0.998497 1.00211 0.996125
1.00028 1.00188 0.992122
1.00023 1.00217 0.991996
1.00025 1.00208 0.992262
1.00023 1.00174 0.992428
1.00011 1.00205 0.992167
0.99679 1.00077 0.998769
0.998433 1.00033 0.998236
1.00001 1.00193 0.992566
0.995818 0.997463 1.00189
0.999017 1.00254 0.995148
1.01252 0.99823 0.975831
1.02229 0.995714 0.965719
1.01553 0.997428 0.972732
0.998028 1.00098 0.998151
0.995274 0.999679 0.999682
1.0183 0.997731 0.969223
0.995074 1.00024 0.964396
0.994691 1 0.96577
1.00355 0.998387 0.98134
0.997365 0.997075 0.965539
0.996763 1.00092 1.00216
1.01139 0.997891 0.976624
0.999836 0.998462 0.976146
0.995047 0.999868 0.994679
0.995331 0.996485 0.960807
0.996074 0.99957 0.965113
0.99515 1.00011 0.966395
0.996578 1.00219 0.999882
1.00299 0.998842 0.977831
0.996142 0.99749 0.966367
0.996234 0.999378 0.963586
0.995594 1.00011 0.967712
0.994981 1.00003 0.984581
0.999079 0.998232 0.997973
0.998548 1.0007 0.996974
1.00022 0.999007 0.996333
0.999425 1.00182 0.993813
0.999202 1.0028 0.992992
1.00023 1.0039 0.990293
1.00003 1.00373 0.991191
1.00009 1.00492 0.989621
1.00087 1.00479 0.988096
1.00013 1.00476 0.989722
1.00085 1.00482 0.988397
1.0013 1.0045 0.98756
1.0017 1.00358 0.987815
1.00105 1.00359 0.989324
1.00109 1.00445 0.988166
1.00033 1.00269 0.991061
1.00037 1.00324 0.990566
1.00059 1.00411 0.989287
1.00023 1.00275 0.991468
1.00022 1.00298 0.991303
1.00012 1.00306 0.991231
1.00016 1.0016 0.992662
1.00005 1.0026 0.991875
1.00003 1.00322 0.991433
1.00001 0.999983 0.994538
1.00016 1.00111 0.99316
1.00013 1.00207 0.992316
0.999805 0.997969 0.996937
1.00002 0.999642 0.99487
1.00015 1.00073 0.993563
1.00006 0.999366 0.995068
0.999866 0.997761 0.997026
0.999744 0.996663 0.999342
0.999935 0.997579 0.997083
0.999807 0.996514 0.999352
0.999864 0.996388 0.999358
1.00022 1.00132 0.992855
1.00024 1.00052 0.993595
1.00012 0.999446 0.994862
1.00023 1.00041 0.993733
0.999976 0.997613 0.996965
1.00013 0.999322 0.994977
1.00019 1.00034 0.993858
0.999913 0.996332 0.999346
1.00002 0.997411 0.99708
1.00014 0.999181 0.995109
0.999961 0.996154 0.999381
1.00006 0.997212 0.997198
0.999998 0.996021 0.999407
1.01017 0.998683 0.977764
1.01741 0.997922 0.969895
1.01097 0.998418 0.976879
1.00023 1.00123 0.992916
1.00018 1.00177 0.992503
1.00014 1.00207 0.992224
1.00016 1.00171 0.992536
1.00014 1.00212 0.992277
1.00022 1.00115 0.992972
1.00017 1.00157 0.992667
1.00015 1.00163 0.992687
1.00018 1.00183 0.992423
1.00011 1.00195 0.992499
1.00025 0.997708 0.976677
1.00458 0.999014 0.978776
1.0083 1.00068 0.976579
0.998261 0.996768 0.972627
0.99575 0.999907 0.968178
0.995345 1.00027 0.977775
0.995076 1.00015 0.966805
0.995569 0.997064 0.982164
0.994947 1.00016 0.967219
0.995252 0.9998 0.966547
0.996872 0.996669 0.967897
0.994985 0.994896 0.987196
0.995037 1.00008 0.967858
0.995805 0.999942 0.963885
0.99535 0.997152 0.962973
0.999909 1.00157 0.993161
1.00019 1.00188 0.992392
1.00022 1.00185 0.992276
0.996226 1.00179 0.998313
0.998448 1 0.998608
1.00024 1.00174 0.992379
1.0001 1.00214 0.9921
0.999993 1.00188 0.992623
0.998865 1.0025 0.994864
0.995879 0.99707 1.00195
0.998777 1.0029 0.993934
0.997258 1.00145 0.997052
1.00298 0.999199 0.978457
1.01407 0.997843 0.97416
1.02455 0.995022 0.963065
0.9967 1.00067 1.00224
0.995038 0.999927 0.987596
1.01095 0.998409 0.976961
0.995242 1.0001 0.963201
0.995491 0.999091 0.964795
0.999651 0.998044 0.976182
0.995078 0.997264 0.958196
0.996614 1.00215 1.00011
1.00275 0.998933 0.978112
0.996181 0.997339 0.965322
0.994971 1.00003 0.986923
0.996089 0.999337 0.962404
0.995738 0.999354 0.964713
0.998024 1.0007 0.99709
0.996555 0.997941 0.969801
0.997155 0.997557 0.961892
0.996973 0.999907 0.964497
0.99489 1.00013 0.986781
0.998512 1.00087 0.996957
1.00002 0.998798 0.996329
1.00197 0.998679 0.992359
0.998923 1.00282 0.993196
0.999957 1.00391 0.990559
1.00137 1.00314 0.988679
1.0002 1.00496 0.989466
1.00091 1.00472 0.988091
1.00202 1.00343 0.987434
1.00091 1.0048 0.988248
1.0013 1.00449 0.98759
1.00224 1.00258 0.987722
1.00238 1.00172 0.988288
1.0014 1.00319 0.988652
1.0017 1.00346 0.987849
1.0008 1.00299 0.990218
1.00097 1.00367 0.989153
1.00113 1.00452 0.987975
1.00038 1.0024 0.991465
1.00033 1.00267 0.991169
1.00039 1.00323 0.990637
1.00021 1.00198 0.992206
1.00021 1.00273 0.991507
1.00019 1.00303 0.991281
1.00001 1.00047 0.994054
1.00016 1.00161 0.992663
1.00007 1.00254 0.991956
0.99973 0.99825 0.99723
1.00001 0.999994 0.99453
1.00016 1.0011 0.993163
0.999682 0.996901 0.998384
0.9998 0.998 0.99714
1.00002 0.999647 0.994864
0.999872 0.997767 0.997022
0.999733 0.996695 0.999336
0.999798 0.996537 0.999348
1.00019 1.00162 0.99258
1.00025 1.00068 0.99342
1.00022 1.00135 0.992818
1.0001 0.999586 0.994775
1.00024 1.00053 0.993596
0.999927 0.997788 0.996882
1.00012 0.99946 0.994862
1.00023 1.00042 0.993732
0.99986 0.996501 0.999321
0.999973 0.997605 0.99697
1.00013 0.999338 0.994977
0.999918 0.996306 0.999354
1.00002 0.9974 0.997086
0.999966 0.99613 0.999388
1.00218 0.998323 0.98091
1.01003 0.998731 0.978082
1.01841 0.998158 0.968715
1.00009 1.00232 0.992135
1.00022 1.00125 0.992942
1.00019 1.00178 0.99246
1.00016 1.00173 0.992575
1.00015 1.00205 0.992269
1.00014 1.00209 0.992258
1.00013 1.00237 0.99201
1.00007 1.00214 0.992253
1.00013 1.00164 0.992691
1.00021 1.00181 0.992381
1.0001 1.00195 0.992481
1.00008 1.00229 0.992486
0.996108 0.998138 0.963878
1.00011 0.998067 0.976711
1.00402 0.999276 0.979162
0.997127 0.996381 0.967093
0.995368 0.999891 0.966015
0.994912 1.00024 0.964438
0.995394 0.99578 0.985608
0.994904 0.994948 0.991442
0.995246 0.997222 0.960538
0.99489 1.00015 0.964175
0.995887 0.999771 0.964599
0.995619 0.997528 0.989867
0.995689 0.999457 0.968881
0.99623 0.999863 0.962613
0.999415 1.00139 0.994195
1.00001 1.00153 0.993165
1.00015 1.00196 0.992368
0.995952 0.996727 1.00198
0.998852 1.00237 0.994588
0.999953 1.00184 0.992679
0.999118 1.00282 0.9938
0.996868 1.00163 0.997176
0.998488 1.00119 0.994906
0.996878 0.998433 0.966727
1.0037 0.999032 0.979143
1.01563 0.997421 0.972489
0.996663 1.00215 1.00038
0.994903 0.999988 0.988636
1.00251 0.99907 0.978398
0.99584 0.998651 0.968233
0.996096 0.999568 0.962408
0.996154 0.997216 0.965256
0.99781 1.00057 0.997211
0.996672 0.997539 0.968898
0.996817 0.997665 0.962657
0.994915 1.00029 0.982361
0.996364 0.999915 0.967159
0.999077 0.999923 0.996395
0.998336 0.99543 0.962521
0.997537 1.00002 0.966572
0.995568 1.00064 0.979996
0.99976 0.998685 0.996327
1.00166 0.998576 0.993091
1.00294 0.997389 0.991166
0.999691 1.00389 0.990824
1.00142 1.00295 0.988708
1.00316 0.999955 0.988423
1.00095 1.00462 0.988087
1.002 1.0032 0.98748
1.0033 1.00007 0.988238
1.0013 1.00448 0.987621
1.00225 1.00245 0.98776
1.0031 0.9998 0.988868
1.0028 0.999948 0.989334
1.00204 1.00196 0.988711
1.00237 1.00161 0.988414
1.00108 1.00273 0.98951
1.00143 1.00316 0.988749
1.00171 1.00333 0.987883
1.00054 1.00248 0.991087
1.0007 1.003 0.990224
1.0009 1.00376 0.988981
1.00033 1.002 0.99198
1.00041 1.0024 0.991457
1.00032 1.00264 0.991276
1.00001 1.00107 0.993504
1.00022 1.00197 0.99222
1.00019 1.00271 0.991545
0.999684 0.998576 0.996531
1.00001 1.00047 0.994045
1.00017 1.0016 0.992665
0.999563 0.997156 0.999284
0.99974 0.998292 0.996729
1.00001 1 0.994522
0.99966 0.996897 0.999313
0.999807 0.998016 0.9969
0.999723 0.996728 0.999329
1.00013 1.00193 0.992466
1.0002 1.00161 0.992591
1.00022 1.00097 0.993185
1.00007 0.999735 0.994678
1.00024 1.00068 0.993422
1.00022 1.00137 0.992781
0.999878 0.997945 0.99682
1.0001 0.999585 0.994777
1.00024 1.00053 0.993596
0.999801 0.996668 0.9993
0.999923 0.997783 0.996885
1.00012 0.999469 0.994863
0.999866 0.996476 0.999328
0.999969 0.997597 0.996975
0.999923 0.996279 0.999363
0.996527 0.998465 0.967252
1.00193 0.998331 0.98118
1.00989 0.998762 0.9784
1.00008 1.00236 0.992094
1.00008 1.00258 0.991982
1.00008 1.00255 0.991913
1.00017 1.00174 0.992614
1.00016 1.00202 0.992314
1.00013 1.00206 0.992239
1.00009 1.00215 0.992239
1.00012 1.00237 0.991998
0.999973 1.00291 0.991802
1.00011 1.00201 0.992294
1.0001 1.00196 0.992462
1.00003 1.00218 0.992501
0.997501 0.997877 0.961739
0.995908 0.998546 0.963029
0.99989 0.998308 0.976749
0.995197 0.99731 0.958096
0.995191 0.999947 0.963726
0.99539 1.00017 0.969313
0.994942 0.994942 0.986876
0.99535 0.99762 0.98594
0.996132 0.99909 0.961824
0.995465 0.999895 0.96709
0.997102 0.996428 0.98531
0.996855 1.00074 0.963977
1.00061 1.00153 0.992548
0.999602 1.00121 0.994104
1.0001 1.00148 0.99317
0.996289 1.0019 0.997296
0.999415 1.00275 0.993663
0.999157 1.00145 0.99447
1.0017 0.999401 0.991409
0.998381 0.994812 0.961619
0.996789 0.998623 0.968336
1.00443 0.99882 0.979827
0.997649 1.00035 0.997342
0.994911 1.00015 0.984776
0.99664 0.997173 0.969139
0.996368 1.00024 0.964089
0.997385 0.998804 0.96253
0.999074 0.999934 0.995965
0.998208 0.995362 0.961869
0.998457 0.998556 0.96331
0.995348 1.00083 0.983866
1.00022 1.00081 0.994186
0.998995 0.997079 0.963682
0.997642 0.999001 0.984983
1.00134 0.998498 0.993822
1.00281 0.997726 0.99104
1.00442 0.995835 0.989861
1.00146 1.00282 0.988735
1.00318 0.999876 0.988371
1.00449 0.996558 0.98911
1.00197 1.003 0.987526
1.00328 0.999889 0.988237
1.00426 0.996873 0.989447
1.00225 1.00231 0.987798
1.00309 0.999702 0.98887
1.00346 0.99796 0.989919
1.00309 0.998947 0.989932
1.00279 0.999813 0.989462
1.00249 1.00051 0.989329
1.00181 1.0019 0.989265
1.00205 1.002 0.98873
1.00237 1.0015 0.988541
1.00088 1.00243 0.990298
1.00112 1.00274 0.989636
1.00145 1.00313 0.988847
1.00043 1.00201 0.991739
1.00056 1.00249 0.991068
1.00061 1.00301 0.99023
1.00004 1.00137 0.99311
1.00035 1.00197 0.991986
1.00044 1.0024 0.991448
0.999633 0.998967 0.996208
1.00002 1.00101 0.993505
1.00024 1.00195 0.992234
0.999525 0.99738 0.999237
0.999681 0.998614 0.996512
1.00001 1.00047 0.994035
0.999584 0.997173 0.998793
0.999748 0.998301 0.996725
0.999648 0.996961 0.999297
1.00013 1.0022 0.992179
1.00013 1.00196 0.992418
1.00015 1.00137 0.992927
1.00021 1.0016 0.992601
1.00022 1.00097 0.993184
1.00001 1 0.994504
0.999827 0.998091 0.996772
1.00007 0.999727 0.994683
1.00024 1.0007 0.993423
0.999735 0.99683 0.999285
0.999872 0.997941 0.996822
1.0001 0.999585 0.994779
0.999808 0.996647 0.999306
0.999918 0.997779 0.996888
0.999872 0.99645 0.999335
0.998134 0.995969 0.962324
0.996306 0.998809 0.96636
1.0017 0.998344 0.981447
1.00007 1.00241 0.992053
1.00006 1.00263 0.991845
1.00003 1.00255 0.992033
1.00015 1.00259 0.99183
0.999995 1.00288 0.991779
1.0001 1.00216 0.992226
1.00011 1.00238 0.991987
0.999945 1.00282 0.991835
0.999834 1.00288 0.991646
1.00007 1.00253 0.991828
1.00132 1.00215 0.990364
0.999952 1.00234 0.992359
1 1.00206 0.992516
0.998997 0.998807 0.962623
0.997098 0.998227 0.961671
0.995625 0.99897 0.962976
0.996467 0.99927 0.961924
0.995468 1.00055 0.964042
0.995099 0.99763 0.990679
0.997278 0.996674 0.987708
0.99692 0.998782 0.96763
1.00023 0.997461 0.982699
1.00291 0.999766 0.989454
1.00021 1.00137 0.992514
0.999746 1.00102 0.994011
0.999679 1.00167 0.994041
1.00238 0.999508 0.990806
0.999278 0.995806 0.96394
0.998401 0.995184 0.962186
0.996701 0.998887 0.96995
0.999085 0.999941 0.995518
0.995027 1.0013 0.980303
0.998324 0.995081 0.961868
0.997898 0.999334 0.966853
1.00059 1.00033 0.994185
0.999888 0.995997 0.96614
0.997185 0.999944 0.981499
1.00241 1.0024 0.989663
1.0005 0.996854 0.988729
1.0027 0.998027 0.99091
1.00413 0.996417 0.989652
1.00514 0.9962 0.988324
1.00321 0.999779 0.988323
1.00445 0.996833 0.98902
1.00499 0.995726 0.989018
1.00328 0.999697 0.988237
1.00417 0.997011 0.989369
1.00436 0.996474 0.989682
1.00308 0.999612 0.988871
1.00344 0.998034 0.989873
1.00358 0.997827 0.989936
1.00301 0.998794 0.990075
1.00294 0.999521 0.989616
1.00278 0.999689 0.989591
1.00249 1.00053 0.989299
1.00231 1.00084 0.989355
1.00144 1.00187 0.989801
1.0018 1.00193 0.989242
1.00206 1.00204 0.988749
1.00065 1.00206 0.991275
1.00086 1.00243 0.990386
1.00115 1.00274 0.989762
1.00006 1.00151 0.992875
1.00047 1.00201 0.991724
1.00059 1.00249 0.991049
0.999609 0.99938 0.995812
1.00006 1.00133 0.99312
1.00037 1.00195 0.991992
0.999482 0.997646 0.999174
0.999623 0.999025 0.99619
1.00003 1.00096 0.993507
0.999525 0.997423 0.99922
0.999678 0.998657 0.996493
0.999579 0.997209 0.999256
1.00021 1.00238 0.991869
1.00012 1.00219 0.992183
1.00014 1.00173 0.992536
1.00013 1.00197 0.992369
1.00015 1.00142 0.992865
0.999974 1.00043 0.994152
1.00022 1.00097 0.993184
1.00003 0.999984 0.99451
0.999758 0.998305 0.996692
0.99966 0.996997 0.999273
0.999821 0.99809 0.996775
1.00007 0.999717 0.994689
0.999744 0.996812 0.999289
0.999868 0.997937 0.996825
0.999814 0.996626 0.999312
1.0002 0.996768 0.965584
0.997956 0.99593 0.962224
0.99593 0.999139 0.966496
1.00004 1.00273 0.991776
0.999984 1.00252 0.992083
1 1.00288 0.991809
1.00012 1.00259 0.99183
1.00021 1.00286 0.991441
0.999928 1.00278 0.991816
0.999921 1.00271 0.991868
0.999949 1.00304 0.991482
0.999976 1.00278 0.991747
1.00031 1.00228 0.99128
1.00157 1.00198 0.990636
1.00292 1.00067 0.988388
1.00109 1.00203 0.990545
0.999791 1.00268 0.992424
1.00013 0.997467 0.981541
0.998556 0.998913 0.964026
0.997204 0.998083 0.961778
0.997487 1.00033 0.963981
0.997431 0.996682 0.990076
1.00033 0.997383 0.986814
1.00382 0.99705 0.990469
1.00296 0.999386 0.989868
1.00006 1.00123 0.992475
1.00348 0.999789 0.990191
0.999052 0.998964 0.982439
0.999863 0.996016 0.967683
0.9983 0.9955 0.962465
1.00082 1.00003 0.99418
0.996932 1.00081 0.983621
0.999448 0.995762 0.968718
1.00246 1.00138 0.989888
0.999985 0.998012 0.986847
1.00434 1.00017 0.987716
1.00468 0.997807 0.988603
1.0039 0.996939 0.989445
1.005 0.996236 0.988299
1.00508 0.997159 0.987736
1.00437 0.997063 0.988928
1.00493 0.99598 0.988984
1.00492 0.99705 0.98806
1.00411 0.997158 0.989291
1.00428 0.996698 0.989621
1.0043 0.99756 0.988833
1.00342 0.998111 0.989827
1.00346 0.997895 0.990011
1.00336 0.998885 0.989235
1.00293 0.998641 0.990218
1.0029 0.999413 0.989686
1.0028 1.00011 0.989315
1.0025 1.00054 0.989269
1.00231 1.00087 0.989331
1.00207 1.00108 0.989675
1.00104 1.00174 0.99066
1.00142 1.00188 0.989889
1.00179 1.00196 0.989219
1.00016 1.00167 0.992555
1.00068 1.00205 0.991266
1.00086 1.00243 0.990474
0.999556 0.999911 0.995407
1.00008 1.00153 0.992878
1.0005 1.00201 0.991708
0.99946 0.99792 0.999081
0.999604 0.999441 0.995804
1.00008 1.00128 0.993129
0.999488 0.997688 0.999146
0.999617 0.999079 0.996172
0.999526 0.997463 0.999202
1.00029 1.00259 0.991531
1.00022 1.00236 0.9919
1.00018 1.00201 0.992242
1.00011 1.00218 0.992188
1.00014 1.00178 0.992492
0.999975 1.00089 0.99368
1.00015 1.00147 0.992802
0.999978 1.00042 0.994157
0.999681 0.998619 0.996524
1.00004 0.999965 0.994516
0.999756 0.998288 0.996701
0.999582 0.997205 0.999252
0.999672 0.996979 0.999277
0.999815 0.998087 0.996779
0.999751 0.996796 0.999294
0.999685 0.997864 0.981891
0.999952 0.996483 0.962939
0.998248 0.995893 0.961804
1.00067 1.00256 0.990839
1 1.00288 0.991839
1.0001 1.00259 0.99183
0.99997 1.00285 0.991801
1.00016 1.00292 0.991412
1.00017 1.00208 0.991991
1.00007 1.00323 0.991319
0.999947 1.00305 0.991666
1.00045 1.00227 0.991405
1.0013 1.00195 0.990727
1.00253 1.0007 0.989059
1.0047 0.998373 0.986872
1.00286 1.0005 0.988353
1.00094 1.00182 0.990726
1.00354 0.996386 0.992096
0.999986 0.997944 0.979954
0.998618 0.99884 0.965846
1.0002 0.997159 0.983781
1.00388 0.996625 0.991037
1.00266 0.998879 0.990295
1.00336 0.998818 0.989298
0.998911 0.998131 0.985007
0.9996 0.995731 0.963845
1.00263 1.00013 0.990102
0.999999 0.999112 0.984814
1.00435 0.999257 0.987769
1.00465 0.997965 0.989
1.00503 0.997033 0.987659
1.00513 0.99764 0.987475
1.00481 0.996364 0.988275
1.00507 0.996887 0.987821
1.00479 0.997857 0.987613
1.00493 0.996216 0.988952
1.00493 0.997022 0.988064
1.0047 0.998241 0.987336
1.00416 0.996915 0.98956
1.00414 0.997593 0.98905
1.00394 0.998628 0.98831
1.00334 0.997956 0.990087
1.00335 0.998893 0.989236
1.00321 0.999593 0.988844
1.00286 0.999305 0.989755
1.00277 1.00003 0.989331
1.00251 1.00049 0.989362
1.00231 1.0009 0.989307
1.00203 1.00109 0.989626
1.00163 1.00123 0.990321
1.00047 1.00151 0.992137
1.00103 1.00174 0.99075
1.00139 1.0019 0.989977
0.999503 1.00045 0.994981
1.00017 1.00167 0.992555
1.0007 1.00204 0.991258
0.999381 0.998261 0.998974
0.999585 0.999885 0.995402
1.0001 1.00152 0.99288
0.999447 0.997965 0.999048
0.999599 0.999486 0.995794
0.999491 0.997725 0.999117
1.00052 1.00253 0.990987
1.00027 1.00256 0.991542
1.0003 1.00214 0.991962
1.00022 1.00235 0.991932
1.00017 1.00201 0.992263
0.999986 1.00131 0.993264
1.00014 1.00183 0.992449
0.999963 1.00093 0.993678
0.999603 0.99902 0.996259
0.99998 1.00042 0.994161
0.999683 0.998581 0.99654
0.999514 0.997447 0.999211
0.999755 0.998273 0.99671
0.999593 0.997172 0.99926
0.999682 0.996963 0.99928
1.00345 0.996907 0.991217
0.99967 0.9982 0.978544
0.999663 0.9969 0.966028
1.00076 1.00181 0.991165
1.0017 1.00168 0.989743
1.00049 1.0026 0.990938
1.00002 1.00289 0.991786
1.00012 1.003 0.99138
1.00036 1.00203 0.991863
1.00252 1.00055 0.98936
1.00055 1.00228 0.99153
1.00088 1.00193 0.990817
1.0025 1.00066 0.989125
1.00432 0.998961 0.986936
1.00508 0.996855 0.987497
1.00471 0.998441 0.986912
1.00287 1.00043 0.988318
1.00377 0.99634 0.992269
0.999877 0.998587 0.977691
1.0042 0.996352 0.991592
1.00478 0.996796 0.989416
1.00307 0.998537 0.989573
0.999274 0.99752 0.981007
1.00437 0.998446 0.987833
1.00463 0.998152 0.989348
1.00494 0.996989 0.987831
1.00514 0.997272 0.98754
1.00476 0.997467 0.987874
1.00492 0.996717 0.988042
1.00509 0.996527 0.987906
1.00483 0.99767 0.987623
1.00461 0.998201 0.987477
1.00493 0.997074 0.988067
1.00464 0.998171 0.987524
1.00434 0.998626 0.987548
1.00398 0.99763 0.989266
1.00399 0.99863 0.988277
1.0038 0.999119 0.98815
1.00334 0.998901 0.989237
1.00321 0.999589 0.988839
1.00294 1.00009 0.988881
1.00274 0.999958 0.989348
1.00247 1.00046 0.98937
1.00201 1.00077 0.98997
1.00198 1.0011 0.989577
1.00158 1.00122 0.990299
1.00088 1.00112 0.991742
0.99955 1.00068 0.994615
1.00047 1.00152 0.992134
1.00103 1.00174 0.990839
0.999226 0.998757 0.998861
0.999568 1.00036 0.994972
1.0002 1.00168 0.992554
0.999351 0.998354 0.99894
0.99961 0.999881 0.995397
0.999438 0.998027 0.999015
1.00101 1.00225 0.990099
1.00052 1.00251 0.990899
1.00058 1.00207 0.991496
1.00026 1.00253 0.991553
1.00027 1.00213 0.99197
1.00001 1.00161 0.992958
1.00016 1.002 0.992283
0.999959 1.00137 0.993258
0.999551 0.999463 0.995907
0.99995 1.00097 0.993676
0.999612 0.998966 0.996276
0.999462 0.99771 0.999144
0.999686 0.998544 0.996557
0.99952 0.997406 0.999225
0.999605 0.997145 0.999267
1.00498 0.996192 0.988284
1.00345 0.996876 0.99079
0.999831 0.997672 0.98024
1.00253 1.00066 0.989428
1.00057 1.0017 0.99166
1.00256 1.00058 0.988636
1.00172 1.00171 0.989678
1.00029 1.00265 0.991039
1.00429 0.999223 0.987254
1.00055 1.00198 0.991737
1.00257 1.00049 0.989231
1.00501 0.998002 0.986853
1.00251 1.00059 0.989191
1.00451 0.99896 0.986782
1.00502 0.997021 0.987488
1.00456 0.998552 0.98695
1.00386 0.996193 0.992439
1.0047 0.996962 0.988445
1.00457 0.996795 0.989487
1.00277 0.998205 0.989842
1.00484 0.996906 0.988005
1.00516 0.996977 0.987602
1.00471 0.997382 0.987916
1.00498 0.996868 0.988002
1.00483 0.997756 0.987631
1.00482 0.99753 0.987633
1.0046 0.998269 0.987468
1.00444 0.998508 0.987496
1.00459 0.998098 0.987711
1.00439 0.998612 0.987527
1.00419 0.998839 0.987694
1.00403 0.998633 0.988244
1.00382 0.999121 0.988131
1.00349 0.999588 0.988303
1.00322 0.999584 0.988835
1.00294 1.00008 0.988879
1.00248 1.00041 0.989433
1.00243 1.00044 0.989379
1.00201 1.00076 0.989975
1.00128 1.00076 0.991343
1.00152 1.00121 0.990278
1.00088 1.00114 0.991736
0.999624 1.00067 0.995207
0.999126 0.999467 0.997027
0.999615 1.00058 0.995016
1.00048 1.00154 0.992131
0.999199 0.99889 0.998822
0.99963 1.00029 0.994962
0.999326 0.998439 0.998903
1.0031 0.99958 0.988868
1.00168 1.0016 0.989478
1.00112 1.00224 0.989995
1.00092 1.00189 0.990985
1.00052 1.00249 0.990811
1.00054 1.00207 0.991515
1.00011 1.00171 0.992699
1.00025 1.00212 0.991979
0.999982 1.00163 0.992956
0.999544 0.999907 0.995491
0.999931 1.00144 0.993252
0.999555 0.999415 0.995919
0.999406 0.998011 0.999046
0.99962 0.998914 0.996294
0.999463 0.997669 0.999166
0.999529 0.997365 0.999239
1.00482 0.997424 0.987693
1.00497 0.996416 0.98884
1.0035 0.997043 0.99037
1.00397 0.999224 0.987676
1.00223 1.00071 0.9898
1.00038 1.00157 0.99215
1.00275 1.00051 0.988775
1.00175 1.00174 0.989613
1.00504 0.998237 0.986726
1.00425 0.999303 0.98707
1.00261 1.00046 0.989101
1.005 0.998034 0.986846
1.00472 0.998953 0.986628
1.00499 0.99716 0.987486
1.00491 0.997696 0.987536
1.00479 0.996901 0.988406
1.00437 0.996763 0.989558
1.00468 0.997292 0.987961
1.00505 0.996993 0.98796
1.00478 0.997765 0.987679
1.0046 0.998509 0.987264
1.0046 0.998325 0.98746
1.00442 0.998563 0.987493
1.00427 0.998928 0.987461
1.00443 0.998597 0.987506
1.0042 0.998837 0.98769
1.00386 0.999211 0.987986
1.00384 0.999123 0.988112
1.0035 0.999588 0.988296
1.00297 0.999998 0.988895
1.00295 1.00008 0.988876
1.00248 1.00041 0.98943
1.00167 1.00049 0.990846
1.00201 1.00076 0.989979
1.00128 1.00076 0.991332
0.999788 1.00056 0.995061
1.00088 1.00116 0.991729
0.99972 1.00065 0.99516
0.998982 1.00003 0.996839
0.999066 0.999499 0.997861
0.999698 1.0005 0.995388
0.999174 0.99901 0.998777
1.00404 0.998905 0.987882
1.00249 1.00056 0.989364
1.00296 0.999337 0.989418
1.00136 1.00163 0.990363
1.0018 1.00163 0.989448
1.00124 1.00222 0.989891
1.00088 1.00193 0.990994
1.00032 1.00165 0.992341
1.0005 1.00206 0.991533
1.00009 1.00169 0.9927
0.999563 1.0003 0.995075
0.999956 1.00164 0.992954
0.999525 0.999895 0.995497
0.999306 0.998419 0.998928
0.99956 0.99936 0.99593
0.999412 0.99796 0.999079
0.999466 0.997624 0.999188
1.00506 0.997733 0.987138
1.0049 0.997398 0.987656
1.00491 0.996561 0.989389
1.00484 0.998279 0.986934
1.00397 0.999261 0.987714
1.00196 1.00076 0.990174
1.00294 1.00042 0.988916
1.00504 0.998219 0.986707
1.0042 0.999383 0.986887
1.00498 0.998078 0.986839
1.00495 0.998021 0.987017
1.0049 0.99772 0.987466
1.00486 0.996853 0.988367
1.00474 0.998586 0.986999
1.00471 0.997791 0.987727
1.00459 0.998501 0.987287
1.00429 0.999069 0.98727
1.00441 0.998628 0.98749
1.00427 0.998936 0.987469
1.00396 0.999239 0.987774
1.00421 0.998837 0.987686
1.00386 0.999214 0.987984
1.0033 0.999649 0.988614
1.00351 0.999588 0.988289
1.00297 0.999997 0.988893
1.00206 1.00024 0.990362
1.00248 1.0004 0.989428
1.00169 1.00049 0.990831
0.999999 1.00035 0.994922
1.00129 1.00077 0.991321
0.999877 1.00055 0.995015
0.99894 1.00023 0.996761
0.99982 1.00061 0.995111
0.998923 1.0001 0.996888
0.998966 0.99949 0.998761
1.00451 0.998852 0.987211
1.00352 0.999446 0.988417
1.00393 0.999002 0.98806
1.00202 1.00098 0.989956
1.00248 1.00045 0.989376
1.00284 0.999106 0.989961
1.00072 1.00146 0.991757
1.00136 1.00165 0.990356
1.00191 1.00167 0.989417
1.00084 1.00197 0.991002
1.0003 1.00165 0.992347
0.999605 1.00062 0.994693
1.00007 1.00167 0.992701
0.999512 1.00036 0.995079
0.999152 0.998958 0.998811
0.999508 0.999881 0.995503
0.999327 0.998333 0.998967
0.999419 0.997909 0.99911
1.005 0.997959 0.987024
1.00507 0.997702 0.98709
1.00502 0.997368 0.98762
1.00485 0.998176 0.98703
1.00397 0.999304 0.987751
1.00502 0.998183 0.986689
1.00503 0.998182 0.986736
1.00497 0.998098 0.986933
1.00487 0.997738 0.987396
1.00471 0.998438 0.987152
1.00457 0.998917 0.986973
1.00458 0.998492 0.98731
1.0043 0.999105 0.98727
1.00401 0.99939 0.987453
1.00426 0.998943 0.987476
1.00395 0.999248 0.987775
1.00342 0.999621 0.988412
1.00386 0.999214 0.987982
1.0033 0.999649 0.988612
1.00232 0.999987 0.990116
1.00297 0.999996 0.988892
1.00208 1.00022 0.990353
1.00026 1.00011 0.994741
1.0017 1.00048 0.990816
1.00008 1.00036 0.994865
0.999013 1.00024 0.996675
0.999974 1.00052 0.99497
0.998883 1.00031 0.996814
0.998861 1.0002 0.996942
1.00468 0.998346 0.987172
1.00405 0.999122 0.987687
1.0045 0.998813 0.98717
1.00281 1.00008 0.989232
1.0035 0.999508 0.988489
1.00382 0.999094 0.988243
1.00125 1.00095 0.991157
1.00201 1.00091 0.989817
1.00247 1.00034 0.989389
0.999715 1.00078 0.994314
1.0007 1.00144 0.991768
1.00135 1.00166 0.990349
1.00028 1.00165 0.992352
0.999522 1.00072 0.994705
0.998993 0.999567 0.998703
0.999455 1.00044 0.995084
0.99918 0.998846 0.99885
0.999353 0.998252 0.999004
1.00495 0.998252 0.986867
1.005 0.997951 0.98704
1.0051 0.997681 0.987042
1.00488 0.998068 0.987126
1.00495 0.998567 0.986606
1.005 0.998234 0.986777
1.005 0.998188 0.986848
1.00468 0.998285 0.987304
1.00461 0.998872 0.986948
1.00437 0.999267 0.987005
1.00431 0.99914 0.987271
1.00402 0.999417 0.987507
1.00353 0.99967 0.988024
1.00394 0.999259 0.987776
1.00342 0.999623 0.98841
1.00243 0.999905 0.989967
1.0033 0.999652 0.988611
1.00233 0.999971 0.990114
1.00043 0.999953 0.993647
1.00209 1.0002 0.990344
1.00031 1.00012 0.994214
0.999155 1.00017 0.998507
1.00017 1.00036 0.994809
0.998948 1.0003 0.996738
0.998816 1.00042 0.996865
1.00468 0.998416 0.98715
1.00417 0.99891 0.987542
1.00466 0.998429 0.987194
1.00335 0.999493 0.988443
1.00403 0.999133 0.987744
1.00449 0.998792 0.987129
1.00184 1.00029 0.990419
1.00282 1.00007 0.989223
1.00347 0.999574 0.988561
0.999937 1.00066 0.99397
1.00127 1.00091 0.991035
1.00199 1.00085 0.989677
0.998944 1.00006 0.998603
0.99963 1.00087 0.994333
1.00069 1.00144 0.99178
0.99944 1.00082 0.994715
0.999013 0.999431 0.998742
0.999214 0.99872 0.998886
1.00492 0.998415 0.986713
1.00498 0.998195 0.986865
1.005 0.997943 0.987055
1.00482 0.999002 0.986463
1.00497 0.998537 0.986563
1.00497 0.998271 0.986817
1.00464 0.998829 0.986922
1.00436 0.999293 0.986999
1.00395 0.999542 0.987586
1.00403 0.999444 0.987562
1.00353 0.999699 0.988169
1.00262 0.999892 0.989365
1.00342 0.99962 0.988407
1.00244 0.999898 0.989966
1.00051 0.999952 0.993502
1.00234 0.999957 0.990112
1.00042 0.999962 0.993645
0.999228 1.00007 0.998485
1.00033 1.00013 0.993722
0.999126 1.00018 0.997588
0.998883 1.00038 0.996797
1.00468 0.998509 0.987141
1.00428 0.998807 0.987564
1.00468 0.998419 0.987151
1.00357 0.999349 0.988348
1.0042 0.998875 0.987576
1.00464 0.998493 0.987216
1.00231 0.999854 0.989966
1.00337 0.999566 0.988601
1.00401 0.999139 0.987802
1.0002 1.00031 0.993756
1.00189 1.00028 0.990363
1.00283 1.00007 0.989215
0.999013 1.00029 0.998529
0.999884 1.00069 0.99399
1.00128 1.00088 0.990914
0.99892 0.999943 0.998639
0.999554 1.00093 0.994351
0.999027 0.999289 0.998779
1.00475 0.998784 0.986776
1.00492 0.998424 0.986757
1.005 0.998153 0.986863
1.00434 0.999276 0.987109
1.00479 0.998976 0.986516
1.005 0.998512 0.986519
1.00436 0.999325 0.986992
1.00395 0.99956 0.987588
1.00303 0.999754 0.988715
1.00354 0.999731 0.988313
1.0026 0.99991 0.989521
1.00065 1.00001 0.993157
1.00245 0.999886 0.989965
1.00051 0.999952 0.993497
0.999299 1.00002 0.998452
1.00042 0.999976 0.993643
0.999251 1.00007 0.998475
0.99916 1.00016 0.996598
1.00441 0.998819 0.987445
1.00465 0.998451 0.987213
1.00376 0.999242 0.988106
1.00429 0.998805 0.987551
1.00468 0.998419 0.987151
1.00256 0.99974 0.989881
1.0036 0.999331 0.98834
1.00422 0.998846 0.98761
1.00042 1.00001 0.993615
1.00232 0.999901 0.990046
1.00339 0.99964 0.988758
0.999141 1.00026 0.998488
1.00018 1.00032 0.993772
1.00193 1.00027 0.990307
0.998966 1.00022 0.998551
0.999828 1.00072 0.994013
0.998896 0.999823 0.998677
1.00423 0.999159 0.987447
1.00472 0.998802 0.986818
1.00491 0.998427 0.986801
1.00331 0.999562 0.988364
1.00433 0.9993 0.987104
1.00475 0.998943 0.986569
1.00394 0.999573 0.987589
1.00298 0.99977 0.988796
1.00089 1.00002 0.992678
1.00257 0.999923 0.989678
1.00067 1.00001 0.99314
0.99939 1.00001 0.998376
1.00051 0.999955 0.993492
0.999328 1.00001 0.998432
0.999281 1.00005 0.998465
1.00396 0.999196 0.987806
1.00441 0.998759 0.987415
1.00462 0.998402 0.987286
1.00276 0.99967 0.989566
1.00377 0.999247 0.988098
1.00431 0.9988 0.987539
1.0006 0.999867 0.993417
1.00256 0.999749 0.98988
1.00362 0.999313 0.988332
0.99928 1.00012 0.998449
1.00041 1 0.993627
1.00234 0.999946 0.990126
0.999093 1.00024 0.998499
1.00015 1.00033 0.993786
0.998911 1.00016 0.998579
1.00325 0.999576 0.988721
1.00425 0.999145 0.987298
1.0047 0.99882 0.98686
1.00108 0.999959 0.992362
1.00329 0.999575 0.98839
1.00433 0.999331 0.987099
1.00292 0.999785 0.988877
1.00091 1.00001 0.992662
0.999554 1.00001 0.998245
1.00068 1.00001 0.993124
0.999445 1.00001 0.998332
0.99936 1 0.998407
1.00302 0.999623 0.989124
1.00398 0.999164 0.987738
1.00441 0.998698 0.987386
1.00081 0.999886 0.994113
1.00276 0.999684 0.98956
1.00378 0.999251 0.988091
0.999412 1 0.998382
1.00059 0.99986 0.993426
1.00256 0.999757 0.989877
0.999238 1.00013 0.998463
1.0004 1 0.993639
0.999046 1.00023 0.998509
1.00114 0.999942 0.992294
1.00325 0.999545 0.988623
1.00428 0.999124 0.98715
0.999707 1 0.998137
1.00109 0.999958 0.992355
1.00326 0.999591 0.988415
1.00093 1.00001 0.992644
0.999615 1.00001 0.998201
0.999507 0.999999 0.998285
1.00105 0.999935 0.993678
1.00302 0.999621 0.989125
1.004 0.999131 0.98767
0.999365 0.999974 0.998436
1.00074 0.999887 0.993127
1.00276 0.999692 0.989555
0.999366 1.00002 0.998408
1.00059 0.999856 0.993436
0.999192 1.00014 0.998474
0.999738 1.00001 0.99575
1.00113 0.999946 0.992925
1.00325 0.999519 0.988524
0.999727 0.999997 0.998117
1.0011 0.999954 0.992351
0.999666 1 0.998159
0.99948 0.999969 0.996104
1.00097 0.99995 0.993228
1.00302 0.999621 0.989126
0.999424 0.999971 0.997307
1.00074 0.999899 0.993107
0.999331 1.00003 0.998431
0.999746 0.999993 0.998104
1.00109 0.999945 0.99238
0.999748 0.999994 0.998103
0.999572 0.999994 0.997109
1.00093 0.999958 0.992693
0.999447 0.99999 0.998353
0.999704 0.999989 0.99814
0.99958 0.999988 0.998243

TENSORS stress float
0.00118354 1.02768e-05 5.8891e-05
1.02768e-05 0.000276304 -7.02956e-06
5.8891e-05 -7.02956e-06 0.000256593
0.00311978 -7.9116e-05 5.34217e-05
-7.9116e-05 0.00127572 3.25697e-06
5.34217e-05 3.25697e-06 0.00127242
0.00118735 3.58514e-05 2.71597e-05
3.58514e-05 0.00028583 -2.25808e-06
2.71597e-05 -2.25808e-06 0.000262465
0.00152551 -6.55951e-06 7.56157e-05
-6.55951e-06 0.00043387 -5.65586e-06
7.56157e-05 -5.65586e-06 0.000412174
0.00126149 -2.62637e-06 6.50293e-05
-2.62637e-06 0.000319419 -7.04138e-06
6.50293e-05 -7.04138e-06 0.000298583
0.00113886 3.26533e-05 4.87732e-05
3.26533e-05 0.000242484 -6.69802e-06
4.87732e-05 -6.69802e-06 0.000224611
0.00110242 4.76962e-07 8.5616e-06
4.76962e-07 0.000190948 -3.49882e-06
8.5616e-06 -3.49882e-06 0.000145369
0.00308849 -8.63996e-05 1.60589e-06
-8.63996e-05 0.00125656 -2.45132e-07
1.60589e-06 -2.45132e-07 0.00125323
0.00374333 -0.000157901 2.86284e-06
-0.000157901 0.00164403 1.91971e-06
2.86284e-06 1.91971e-06 0.00162216
0.00310725 -0.000115508 1.25852e-05
-0.000115508 0.00129236 1.41668e-06
1.25852e-05 1.41668e-06 0.00128057
0.00110654 -3.73651e-05 4.07093e-05
-3.73651e-05 0.000198255 4.0878e-06
4.07093e-05 4.0878e-06 0.000190566
0.000751447 1.07022e-05 7.04098e-06
1.07022e-05 -2.09003e-06 4.08875e-06
7.04098e-06 4.08875e-06 -4.11119e-05
0.0017212 -7.98667e-06 9.12245e-05
-7.98667e-06 0.000515766 5.1364e-07
9.12245e-05 5.1364e-07 0.000493418
0.00132446 -2.41487e-06 1.38541e-05
-2.41487e-06 0.000330446 1.07872e-06
1.38541e-05 1.07872e-06 0.00030663
0.0012174 6.80102e-05 -4.93886e-06
6.80102e-05 0.000310344 2.48958e-06
-4.93886e-06 2.48958e-06 0.000282447
0.00144152 1.41551e-05 3.37166e-05
1.41551e-05 0.000396259 -1.96755e-06
3.37166e-05 -1.96755e-06 0.000372444
0.00112866 4.34231e-05 2.2389e-05
4.34231e-05 0.000241948 -2.29071e-06
2.2389e-05 -2.29071e-06 0.000222263
0.00126341 3.15013e-05 3.11794e-05
3.15013e-05 0.000328793 -2.09635e-06
3.11794e-05 -2.09635e-06 0.000303736
0.00119832 -6.66346e-06 -1.1389e-05
-6.66346e-06 0.000236526 3.77052e-07
-1.1389e-05 3.77052e-07 0.000192686
0.00475767 3.13753e-06 9.2569e-05
3.13753e-06 0.00211386 -9.1154e-07
9.2569e-05 -9.1154e-07 0.00210807
0.00162386 -2.82956e-06 8.01213e-05
-2.82956e-06 0.000475 -4.29756e-06
8.01213e-05 -4.29756e-06 0.000453726
0.00137996 -5.77453e-06 6.99121e-05
-5.77453e-06 0.000372959 -6.65892e-06
6.99121e-05 -6.65892e-06 0.00035133
0.00141084 -1.38303e-05 1.47981e-05
-1.38303e-05 0.000288919 -3.31603e-06
1.47981e-05 -3.31603e-06 0.0002413
0.00119096 -7.89846e-07 8.80066e-06
-7.89846e-07 0.00022358 -4.01289e-06
8.80066e-06 -4.01289e-06 0.000176169
0.00115228 4.19574e-05 4.05305e-05
4.19574e-05 0.000231672 -6.66379e-06
4.05305e-05 -6.66379e-06 0.000218513
0.0010287 7.362e-06 8.03933e-06
7.362e-06 0.000160141 -2.99071e-06
8.03933e-06 -2.99071e-06 0.000118195
0.00146322 -7.38418e-05 3.31537e-06
-7.38418e-05 0.000294451 -1.11429e-06
3.31537e-06 -1.11429e-06 0.000222529
0.00304667 -8.94178e-05 -4.40611e-05
-8.94178e-05 0.00123136 -3.21052e-06
-4.40611e-05 -3.21052e-06 0.00122848
0.00245629 -6.48857e-05 -2.81615e-05
-6.48857e-05 0.000955587 -6.88969e-07
-2.81615e-05 -6.88969e-07 0.000935646
0.00217036 -7.3858e-05 -2.09988e-05
-7.3858e-05 0.000793531 -5.88012e-07
-2.09988e-05 -5.88012e-07 0.000778735
0.00289333 -8.01436e-05 9.17679e-07
-8.01436e-05 0.00114005 -1.32953e-07
9.17679e-07 -1.32953e-07 0.00114086
0.000700347 2.78559e-06 -9.12364e-08
2.78559e-06 -2.39396e-05 -1.26862e-07
-9.12364e-08 -1.26862e-07 -6.36343e-05
0.00161268 1.54782e-05 7.1103e-05
1.54782e-05 0.000492658 4.20857e-06
7.1103e-05 4.20857e-06 0.000471193
0.00152804 -4.31311e-06 6.04967e-05
-4.31311e-06 0.000458686 4.72171e-06
6.04967e-05 4.72171e-06 0.000438511
0.00209865 5.2835e-05 3.79175e-05
5.2835e-05 0.000685221 4.38332e-06
3.79175e-05 4.38332e-06 0.00064457
0.00269367 -8.23512e-05 1.36837e-05
-8.23512e-05 0.0010258 1.41354e-06
1.36837e-05 1.41354e-06 0.00102938
0.00182939 1.51247e-05 2.90401e-05
1.51247e-05 0.000564417 3.37893e-06
2.90401e-05 3.37893e-06 0.000528681
0.000695067 -2.43963e-05 7.12178e-06
-2.43963e-05 -2.85318e-05 6.18679e-06
7.12178e-06 6.18679e-06 -6.44506e-05
0.00090879 4.73258e-05 3.54017e-06
4.73258e-05 5.05194e-05 7.77998e-07
3.54017e-06 7.77998e-07 -2.0849e-05
0.00252386 -5.8405e-05 3.49166e-05
-5.8405e-05 0.000922858 3.4984e-06
3.49166e-05 3.4984e-06 0.00093307
0.00481964 -1.52488e-05 2.13068e-06
-1.52488e-05 0.00214469 -3.76676e-07
2.13068e-06 -3.76676e-07 0.00213876
0.00292233 -6.77785e-06 -3.57758e-05
-6.77785e-06 0.00116513 -7.46666e-07
-3.57758e-05 -7.46666e-07 0.00115007
0.00507877 -3.49048e-06 0.000100462
-3.49048e-06 0.00227062 2.34786e-07
0.000100462 2.34786e-07 0.00226476
0.00134741 3.74226e-06 1.30218e-05
3.74226e-06 0.00033688 6.42763e-07
1.30218e-05 6.42763e-07 0.000312272
0.000797524 -5.54282e-06 1.37867e-05
-5.54282e-06 -7.03569e-05 1.66107e-06
1.37867e-05 1.66107e-06 -0.000123823
0.00424794 -5.31133e-05 2.01741e-05
-5.31133e-05 0.00187321 9.28896e-07
2.01741e-05 9.28896e-07 0.00186227
0.00229088 3.65798e-06 4.7081e-05
3.65798e-06 0.000735372 2.70134e-06
4.7081e-05 2.70134e-06 0.00069689
0.00135764 1.44308e-05 -1.30816e-05
1.44308e-05 0.000357669 1.8983e-06
-1.30816e-05 1.8983e-06 0.000332498
0.00129388 7.31577e-05 -2.55206e-06
7.31577e-05 0.00035548 2.76378e-06
-2.55206e-06 2.76378e-06 0.000324934
0.00111671 6.21066e-05 -6.92576e-06
6.21066e-05 0.000241173 2.07432e-06
-6.92576e-06 2.07432e-06 0.000218744
0.00126097 -1.70362e-05 -3.14745e-05
-1.70362e-05 0.000264138 4.23071e-06
-3.14745e-05 4.23071e-06 0.000222508
0.00316467 4.18919e-05 -3.73753e-05
4.18919e-05 0.00128025 -1.01373e-06
-3.73753e-05 -1.01373e-06 0.00126254
0.00149033 8.7688e-06 3.3897e-05
8.7688e-06 0.000410406 -1.46013e-06
3.3897e-05 -1.46013e-06 0.000387451
0.00109855 4.86509e-05 1.70391e-05
4.86509e-05 0.000206087 -2.34535e-06
1.70391e-05 -2.34535e-06 0.000192203
0.00134908 2.78435e-05 3.39488e-05
2.78435e-05 0.000365272 -2.04292e-06
3.39488e-05 -2.04292e-06 0.000339954
0.00147238 -2.34323e-05 -1.21828e-05
-2.34323e-05 0.000318255 1.56286e-07
-1.21828e-05 1.56286e-07 0.000272327
0.00111203 5.40881e-06 -8.67535e-06
5.40881e-06 0.00020016 3.72039e-07
-8.67535e-06 3.72039e-07 0.000159393
0.00128572 -1.15088e-05 -1.31404e-05
-1.15088e-05 0.000268083 2.92624e-07
-1.31404e-05 2.92624e-07 0.000222793
0.0015811 -7.86508e-05 -1.98083e-06
-7.86508e-05 0.000352008 6.84516e-07
-1.98083e-06 6.84516e-07 0.000279187
0.00492547 3.94686e-05 9.16078e-05
3.94686e-05 0.00219678 1.42053e-07
9.16078e-05 1.42053e-07 0.00219011
0.00163904 4.87612e-06 8.31411e-05
4.87612e-06 0.00047921 -3.09952e-06
8.31411e-05 -3.09952e-06 0.000457709
0.00224742 3.64538e-05 1.18189e-05
3.64538e-05 0.000698847 -1.04503e-06
1.18189e-05 -1.04503e-06 0.00065329
0.00147582 -1.54461e-05 1.71498e-05
-1.54461e-05 0.000307405 -2.35624e-06
1.71498e-05 -2.35624e-06 0.000260707
0.00129482 -1.89102e-06 1.03939e-05
-1.89102e-06 0.000255708 -4.07763e-06
1.03939e-05 -4.07763e-06 0.00020732
0.00190069 -6.86861e-05 5.56064e-06
-6.86861e-05 0.000401182 -1.84487e-06
5.56064e-06 -1.84487e-06 0.000322334
0.0012038 -6.73385e-05 4.85785e-06
-6.73385e-05 0.000122329 -2.26596e-06
4.85785e-06 -2.26596e-06 4.70753e-05
0.00123349 4.32314e-05 3.79571e-05
4.32314e-05 0.000252766 -6.49658e-06
3.79571e-05 -6.49658e-06 0.000246256
0.00100138 3.2554e-05 6.23325e-06
3.2554e-05 0.000147975 -2.74069e-06
6.23325e-06 -2.74069e-06 0.000112233
0.00130312 -6.16302e-05 2.52144e-06
-6.16302e-05 0.000245853 -7.49192e-07
2.52144e-06 -7.49192e-07 0.000176684
0.00111786 -8.3604e-05 2.25294e-06
-8.3604e-05 6.08993e-05 -4.91907e-07
2.25294e-06 -4.91907e-07 -3.02863e-05
0.00367371 -9.45989e-05 -5.51112e-05
-9.45989e-05 0.00159569 -3.48602e-06
-5.51112e-05 -3.48602e-06 0.00158258
0.00288848 -8.12373e-05 -4.05075e-05
-8.12373e-05 0.001134 -3.25339e-06
-4.05075e-05 -3.25339e-06 0.00113585
0.00317534 -9.48969e-05 -4.82624e-05
-9.48969e-05 0.00131706 -3.02704e-06
-4.82624e-05 -3.02704e-06 0.00130981
0.000654257 3.10921e-06 -5.94902e-06
3.10921e-06 -4.43592e-05 -4.7053e-06
-5.94902e-06 -4.7053e-06 -8.38886e-05
0.00425141 -5.20591e-05 -2.79586e-06
-5.20591e-05 0.00188053 -1.14147e-07
-2.79586e-06 -1.14147e-07 0.00187047
0.00356529 -8.68625e-05 1.97275e-06
-8.68625e-05 0.00153634 -1.79321e-07
1.97275e-06 -1.79321e-07 0.00152527
0.000644977 5.51693e-05 -3.01924e-07
5.51693e-05 -7.14759e-05 -1.40599e-07
-3.01924e-07 -1.40599e-07 -0.000120112
0.00187621 -5.96646e-05 -1.55882e-05
-5.96646e-05 0.000593493 -7.98976e-07
-1.55882e-05 -7.98976e-07 0.000593836
0.000677359 2.51765e-05 -2.18264e-07
2.51765e-05 -3.55739e-05 -7.97905e-08
-2.18264e-07 -7.97905e-08 -7.86466e-05
0.00115333 -2.96218e-05 8.54472e-06
-2.96218e-05 0.000212814 4.95865e-07
8.54472e-06 4.95865e-07 0.000181428
0.000867269 4.71258e-05 1.43674e-07
4.71258e-05 2.788e-05 -2.26665e-07
1.43674e-07 -2.26665e-07 -4.28384e-05
0.00263614 -6.47739e-05 3.78703e-05
-6.47739e-05 0.000987276 3.45632e-06
3.78703e-05 3.45632e-06 0.000995138
0.000743194 -4.54233e-05 2.44077e-06
-4.54233e-05 -2.03967e-05 4.15668e-06
2.44077e-06 4.15668e-06 -3.8998e-05
0.000785925 5.28524e-05 1.32989e-05
5.28524e-05 -2.36021e-05 5.61245e-06
1.32989e-05 5.61245e-06 -7.34367e-05
0.000789099 4.59839e-05 1.11609e-05
4.59839e-05 1.28208e-05 6.50487e-06
1.11609e-05 6.50487e-06 -3.42933e-05
0.001038 6.80365e-05 5.49486e-06
6.80365e-05 2.66482e-05 2.1083e-06
5.49486e-06 2.1083e-06 -5.23967e-05
0.00156194 -5.26598e-05 1.85086e-05
-5.26598e-05 0.000424801 3.63216e-06
1.85086e-05 3.63216e-06 0.000401365
0.000954769 6.275e-05 3.7092e-06
6.275e-05 5.52475e-05 1.13916e-06
3.7092e-06 1.13916e-06 -1.64705e-05
0.000888481 3.27972e-05 3.42232e-06
3.27972e-05 5.18307e-05 1.66174e-06
3.42232e-06 1.66174e-06 -1.80967e-05
0.000898239 7.67632e-05 2.02999e-06
7.67632e-05 1.52748e-05 -4.91291e-07
2.02999e-06 -4.91291e-07 -7.06914e-05
0.00237478 -5.21692e-05 3.09487e-05
-5.21692e-05 0.000838228 3.56639e-06
3.09487e-05 3.56639e-06 0.000850921
0.00248403 -5.85367e-05 6.31911e-07
-5.85367e-05 0.000901685 -9.42142e-08
6.31911e-07 -9.42142e-08 0.000912172
0.00443975 -6.35392e-06 -8.25479e-05
-6.35392e-06 0.0019614 -2.32366e-06
-8.25479e-05 -2.32366e-06 0.00195534
0.0047186 -1.63194e-05 -8.81212e-05
-1.63194e-05 0.0020958 -8.41501e-07
-8.81212e-05 -8.41501e-07 0.00208976
0.00501427 4.52869e-06 3.65115e-06
4.52869e-06 0.00224038 -4.70258e-07
3.65115e-06 -4.70258e-07 0.00223387
0.00299971 -9.47844e-06 -3.65607e-05
-9.47844e-06 0.00120032 -5.30599e-07
-3.65607e-05 -5.30599e-07 0.0011847
0.00159562 6.10608e-06 2.0587e-05
6.10608e-06 0.000350947 1.65382e-07
2.0587e-05 1.65382e-07 0.00030329
0.00280012 -2.50151e-05 -3.62653e-05
-2.50151e-05 0.00111164 -7.711e-07
-3.62653e-05 -7.711e-07 0.00109531
0.00149055 2.11583e-05 1.80195e-05
2.11583e-05 0.000319165 2.89116e-07
1.80195e-05 2.89116e-07 0.000275547
0.0051141 6.59232e-05 9.38502e-05
6.59232e-05 0.00229025 1.21894e-06
9.38502e-05 1.21894e-06 0.00228246
0.000785736 -5.23378e-07 1.22776e-05
-5.23378e-07 -8.99133e-05 2.09774e-07
1.22776e-05 2.09774e-07 -0.000145764
0.00232841 -1.82444e-05 4.92997e-05
-1.82444e-05 0.00074636 1.77364e-06
4.92997e-05 1.77364e-06 0.000706267
0.00124594 1.34234e-05 7.25155e-06
1.34234e-05 1.05155e-05 1.32963e-06
7.25155e-06 1.32963e-06 -7.55817e-05
0.00220105 4.38761e-05 4.39748e-05
4.38761e-05 0.000702918 3.11209e-06
4.39748e-05 3.11209e-06 0.000663658
0.00119042 4.1271e-05 7.22779e-06
4.1271e-05 1.55375e-05 1.27423e-06
7.22779e-06 1.27423e-06 -6.73722e-05
0.00170371 1.72276e-05 -8.94879e-05
1.72276e-05 0.000506822 3.93709e-07
-8.94879e-05 3.93709e-07 0.000484636
0.00134155 1.70462e-06 -1.49579e-05
1.70462e-06 0.000337658 1.40781e-06
-1.49579e-05 1.40781e-06 0.000313268
0.000994274 5.59006e-05 -7.81805e-06
5.59006e-05 0.000154429 1.75581e-06
-7.81805e-06 1.75581e-06 0.000139721
0.00134275 3.70796e-05 -8.49246e-06
3.70796e-05 0.000366659 2.30356e-06
-8.49246e-06 2.30356e-06 0.000340099
0.00153594 -2.26404e-05 -4.14091e-05
-2.26404e-05 0.000349189 3.73075e-06
-4.14091e-05 3.73075e-06 0.000304543
0.00134189 -2.50845e-05 -3.4944e-05
-2.50845e-05 0.000291073 4.43241e-06
-3.4944e-05 4.43241e-06 0.000248661
0.00119287 -1.03506e-06 -2.70347e-05
-1.03506e-06 0.000238414 3.76663e-06
-2.70347e-05 3.76663e-06 0.000199301
0.00172544 -8.37683e-05 -7.75698e-06
-8.37683e-05 0.00042321 2.71186e-06
-7.75698e-06 2.71186e-06 0.000349446
0.00500862 2.00613e-05 -3.3096e-06
2.00613e-05 0.00223677 -4.35359e-07
-3.3096e-06 -4.35359e-07 0.00223048
0.00149344 7.73009e-06 3.51081e-05
7.73009e-06 0.000407992 -8.82619e-07
3.51081e-05 -8.82619e-07 0.000384952
0.0011628 9.22803e-06 -2.2572e-05
9.22803e-06 0.000123678 2.89773e-07
-2.2572e-05 2.89773e-07 7.36863e-05
0.00151542 -1.89237e-05 -1.2558e-05
-1.89237e-05 0.000325994 1.61324e-07
-1.2558e-05 1.61324e-07 0.000280499
0.00200571 6.05893e-05 2.93398e-05
6.05893e-05 0.000663788 -1.6518e-06
2.93398e-05 -1.6518e-06 0.000661801
0.00129335 3.01367e-05 -5.80022e-06
3.01367e-05 0.000297277 3.64268e-07
-5.80022e-06 3.64268e-07 0.000262647
0.0013794 -2.07542e-05 -1.23923e-05
-2.07542e-05 0.000294206 2.32649e-07
-1.23923e-05 2.32649e-07 0.000248838
0.00173155 -6.4006e-05 -3.88028e-06
-6.4006e-05 0.000312149 6.75912e-07
-3.88028e-06 6.75912e-07 0.000232164
0.00146501 -6.97119e-05 -1.60217e-06
-6.97119e-05 0.000326289 7.03044e-07
-1.60217e-06 7.03044e-07 0.000255854
0.00145601 -7.3775e-05 -9.05635e-07
-7.3775e-05 0.00025236 1.1041e-07
-9.05635e-07 1.1041e-07 0.000177648
0.00112502 -8.33034e-05 -3.21302e-08
-8.33034e-05 6.4329e-05 1.77792e-08
-3.21302e-08 1.77792e-08 -2.66963e-05
0.000759543 2.95018e-06 1.21538e-05
2.95018e-06 -9.93067e-05 -1.67212e-06
1.21538e-05 -1.67212e-06 -0.000154754
0.00147755 -9.30153e-06 1.69935e-05
-9.30153e-06 0.000303062 -1.82894e-06
1.69935e-05 -1.82894e-06 0.000256521
0.00162585 -1.06257e-06 6.67865e-06
-1.06257e-06 0.000210046 -1.2943e-06
6.67865e-06 -1.2943e-06 0.000127456
0.00155391 -4.71139e-05 6.83113e-06
-4.71139e-05 0.000198011 -1.2244e-06
6.83113e-06 -1.2244e-06 0.000118104
0.00141056 -6.86539e-05 6.01692e-06
-6.86539e-05 0.000183844 -2.64016e-06
6.01692e-06 -2.64016e-06 0.000105007
0.0018138 -7.83368e-05 1.94299e-06
-7.83368e-05 0.000276768 -5.5725e-07
1.94299e-06 -5.5725e-07 0.000180145
0.00281027 7.30706e-05 3.90152e-05
7.30706e-05 0.00107819 -3.19314e-06
3.90152e-05 -3.19314e-06 0.00108428
0.00113616 -7.98682e-05 2.23678e-06
-7.98682e-05 3.05734e-05 -7.4359e-07
2.23678e-06 -7.4359e-07 -6.13008e-05
0.000697605 6.12971e-05 2.14821e-06
6.12971e-05 -2.40035e-05 -4.23698e-06
2.14821e-06 -4.23698e-06 -5.88238e-05
0.000717984 -4.0578e-05 2.48078e-06
-4.0578e-05 -3.57612e-05 -9.03059e-07
2.48078e-06 -9.03059e-07 -0.00010365
0.00120496 -9.03271e-05 2.17902e-06
-9.03271e-05 0.000146719 -7.19953e-07
2.17902e-06 -7.19953e-07 5.52161e-05
0.00123341 -9.349e-05 9.58767e-07
-9.349e-05 8.42864e-05 9.14173e-08
9.58767e-07 9.14173e-08 -1.43972e-05
0.000661519 4.78202e-05 3.19428e-06
4.78202e-05 -6.11302e-05 -4.2035e-06
3.19428e-06 -4.2035e-06 -8.42972e-05
0.000840313 2.52095e-05 1.23025e-06
2.52095e-05 1.32098e-05 -2.3773e-06
1.23025e-06 -2.3773e-06 -3.82193e-05
0.00402968 -5.07973e-05 -6.76064e-05
-5.07973e-05 0.00176753 -3.16926e-06
-6.76064e-05 -3.16926e-06 0.00175843
0.00334809 -9.6496e-05 -5.15004e-05
-9.6496e-05 0.00142226 -3.06285e-06
-5.15004e-05 -3.06285e-06 0.00141163
0.000594756 4.86952e-05 -9.06599e-06
4.86952e-05 -9.54524e-05 -5.10371e-06
-9.06599e-06 -5.10371e-06 -0.00014391
0.00276079 -7.29024e-05 -3.83922e-05
-7.29024e-05 0.00105779 -3.24684e-06
-3.83922e-05 -3.24684e-06 0.00106337
0.000629836 -4.62849e-05 -2.12342e-06
-4.62849e-05 -5.73127e-05 -4.93752e-06
-2.12342e-06 -4.93752e-06 -9.29156e-05
0.000614995 2.21429e-05 -7.12227e-06
2.21429e-05 -6.23759e-05 -4.42189e-06
-7.12227e-06 -4.42189e-06 -0.000106066
0.00083768 4.66096e-05 -3.43824e-06
4.66096e-05 1.16015e-05 -1.17799e-06
-3.43824e-06 -1.17799e-06 -5.87679e-05
0.00263149 -6.515e-05 5.53412e-07
-6.515e-05 0.000984593 -1.1667e-07
5.53412e-07 -1.1667e-07 0.000992633
0.000719175 -4.28653e-05 1.44521e-07
-4.28653e-05 -3.41571e-05 5.75755e-08
1.44521e-07 5.75755e-08 -5.20718e-05
0.00137495 5.25116e-05 1.55478e-05
5.25116e-05 0.00028795 1.49373e-07
1.55478e-05 1.49373e-07 0.000243203
0.00122861 3.67587e-05 1.28414e-05
3.67587e-05 0.000249024 2.31982e-07
1.28414e-05 2.31982e-07 0.000206529
0.00101769 6.80158e-05 3.24761e-07
6.80158e-05 1.69885e-05 -2.6784e-08
3.24761e-07 -2.6784e-08 -6.19221e-05
0.000711073 -5.67865e-05 4.91129e-08
-5.67865e-05 -2.20049e-05 7.11441e-08
4.91129e-08 7.11441e-08 -5.12221e-05
0.000904039 6.00267e-05 4.87702e-08
6.00267e-05 2.91602e-05 2.51183e-07
4.87702e-08 2.51183e-07 -4.22175e-05
0.000848528 2.73421e-05 2.10563e-07
2.73421e-05 3.17136e-05 -2.75831e-07
2.10563e-07 -2.75831e-07 -3.81683e-05
0.000856518 7.50492e-05 -6.69789e-08
7.50492e-05 -7.07634e-06 -1.72982e-07
-6.69789e-08 -1.72982e-07 -9.32659e-05
0.000714715 -5.17851e-05 2.24225e-06
-5.17851e-05 -2.67892e-05 4.31867e-06
2.24225e-06 4.31867e-06 -5.06764e-05
0.000770635 -3.81784e-05 2.80814e-06
-3.81784e-05 -1.57362e-05 3.87587e-06
2.80814e-06 3.87587e-06 -2.91848e-05
0.000788158 -5.16427e-06 2.55198e-06
-5.16427e-06 -9.25422e-06 2.33903e-06
2.55198e-06 2.33903e-06 -5.98094e-05
0.0010856 6.15899e-05 6.31898e-06
6.15899e-05 9.5857e-06 1.95814e-06
6.31898e-06 1.95814e-06 -7.1827e-05
0.00100037 6.8787e-05 4.47795e-06
6.8787e-05 5.02048e-05 1.83395e-06
4.47795e-06 1.83395e-06 -2.4973e-05
0.00121888 8.67224e-05 3.06056e-06
8.67224e-05 6.43998e-05 9.95461e-07
3.06056e-06 9.95461e-07 -3.17333e-05
0.00086566 1.93637e-05 2.90192e-06
1.93637e-05 3.74837e-05 2.07649e-06
2.90192e-06 2.07649e-06 -2.72679e-05
0.00093455 7.98044e-05 1.61753e-06
7.98044e-05 7.8907e-06 -1.14574e-07
1.61753e-06 -1.14574e-07 -7.80828e-05
0.0010529 7.86452e-05 2.193e-06
7.86452e-05 0.000117942 1.75297e-07
2.193e-06 1.75297e-07 3.0515e-05
0.00105801 9.14083e-05 -6.42952e-08
9.14083e-05 8.9761e-05 -1.323e-06
-6.42952e-08 -1.323e-06 -4.21042e-06
0.00226383 -4.64335e-05 2.7315e-05
-4.64335e-05 0.000772352 3.61031e-06
2.7315e-05 3.61031e-06 0.000787407
0.00234539 -5.23721e-05 5.84616e-07
-5.23721e-05 0.000821966 -7.67612e-08
5.84616e-07 -7.67612e-08 0.000834954
0.00244673 -5.86396e-05 -3.12641e-05
-5.86396e-05 0.000881646 -3.37679e-06
-3.12641e-05 -3.37679e-06 0.000892439
0.000701917 3.95906e-05 3.19649e-06
3.95906e-05 -4.78486e-05 -3.86048e-06
3.19649e-06 -3.86048e-06 -6.56665e-05
0.00268128 6.59198e-05 3.58774e-05
6.59198e-05 0.00100541 -3.30135e-06
3.58774e-05 -3.30135e-06 0.00101397
0.00427983 -1.93743e-05 -7.70888e-05
-1.93743e-05 0.00188616 -2.83632e-06
-7.70888e-05 -2.83632e-06 0.00187917
0.00455601 -1.08822e-06 -8.56708e-05
-1.08822e-06 0.0020167 -1.65685e-06
-8.56708e-05 -1.65685e-06 0.00201089
0.000698365 2.87947e-05 -1.12672e-05
2.87947e-05 -9.57525e-05 -2.60928e-06
-1.12672e-05 -2.60928e-06 -0.000143897
0.000736109 1.75208e-05 -1.18598e-05
1.75208e-05 -9.68706e-05 -1.3231e-06
-1.18598e-05 -1.3231e-06 -0.000149768
0.00494142 -1.97976e-05 -9.11588e-05
-1.97976e-05 0.00220439 -9.58161e-08
-9.11588e-05 -9.58161e-08 0.00219815
0.00511704 1.67785e-05 -1.03943e-06
1.67785e-05 0.0022899 4.4469e-07
-1.03943e-06 4.4469e-07 0.00228354
0.000767487 1.27568e-06 -3.2352e-08
1.27568e-06 -9.79016e-05 -2.7683e-07
-3.2352e-08 -2.7683e-07 -0.000153725
0.00154725 5.05966e-06 1.93033e-05
5.05966e-06 0.000339484 3.16192e-07
1.93033e-05 3.16192e-07 0.000294694
0.00123689 1.70171e-05 1.33353e-07
1.70171e-05 6.50685e-06 7.49274e-08
1.33353e-07 7.49274e-08 -7.96426e-05
0.00066287 3.89382e-05 2.21443e-08
3.89382e-05 -0.000101211 -6.94601e-08
2.21443e-08 -6.94601e-08 -0.00014934
0.00118882 4.28438e-05 4.57338e-08
4.28438e-05 1.5525e-05 -1.8411e-07
4.57338e-08 -1.8411e-07 -6.75963e-05
0.000762249 -5.0935e-06 1.24657e-05
-5.0935e-06 -0.000107507 -9.30669e-07
1.24657e-05 -9.30669e-07 -0.000164621
0.00129252 6.59882e-06 7.48909e-06
6.59882e-06 1.10796e-05 6.44993e-07
7.48909e-06 6.44993e-07 -7.92077e-05
0.00121914 2.71776e-05 7.21397e-06
2.71776e-05 1.55452e-05 1.17205e-06
7.21397e-06 1.17205e-06 -6.7855e-05
0.0014886 1.55623e-05 3.044e-06
1.55623e-05 5.88181e-05 1.00572e-06
3.044e-06 1.00572e-06 -4.07273e-05
0.00114285 5.20077e-05 6.87616e-06
5.20077e-05 9.67088e-06 1.74106e-06
6.87616e-06 1.74106e-06 -7.28386e-05
0.0014221 4.73058e-05 3.07878e-06
4.73058e-05 6.05197e-05 6.52072e-08
3.07878e-06 6.52072e-08 -3.5325e-05
0.00506514 2.68183e-05 -0.000101789
2.68183e-05 0.00226407 -7.45642e-07
-0.000101789 -7.45642e-07 0.00225786
0.0013255 -4.41098e-06 -1.37363e-05
-4.41098e-06 0.000324958 9.81532e-07
-1.37363e-05 9.81532e-07 0.000300507
3.09212e-05 8.06954e-07 -1.25804e-05
8.06954e-07 -0.000472588 2.43416e-06
-1.25804e-05 2.43416e-06 -0.000530407
0.00157392 -1.37173e-05 -4.34495e-05
-1.37173e-05 0.000354636 2.65657e-06
-4.34495e-05 2.65657e-06 0.000310132
0.00272537 8.91064e-05 -1.42395e-05
8.91064e-05 0.00104926 1.30053e-06
-1.42395e-05 1.30053e-06 0.00104985
0.00161933 2.01373e-05 -2.19257e-05
2.01373e-05 0.000461298 3.66951e-06
-2.19257e-05 3.66951e-06 0.000429975
0.00144269 -2.69398e-05 -3.82703e-05
-2.69398e-05 0.000323357 4.34013e-06
-3.82703e-05 4.34013e-06 0.000279828
0.00156 -5.96369e-05 -1.23617e-05
-5.96369e-05 0.000221843 3.06957e-06
-1.23617e-05 3.06957e-06 0.000140741
0.00173011 -8.0991e-05 -7.65556e-06
-8.0991e-05 0.000394064 2.59859e-06
-7.65556e-06 2.59859e-06 0.000319776
0.00163366 -7.73347e-05 -6.47991e-06
-7.73347e-05 0.000410418 2.33414e-06
-6.47991e-06 2.33414e-06 0.000338691
0.001134 -8.31175e-05 -1.83076e-06
-8.31175e-05 6.87086e-05 4.0667e-07
-1.83076e-06 4.0667e-07 -2.21706e-05
0.000767009 4.66149e-06 -7.95586e-08
4.66149e-06 -9.68326e-05 -2.50659e-07
-7.95586e-08 -2.50659e-07 -0.000152301
0.00152589 -7.9596e-06 -1.36343e-05
-7.9596e-06 0.000326042 8.1791e-08
-1.36343e-05 8.1791e-08 0.000280602
0.00125235 -1.5743e-06 -2.51187e-06
-1.5743e-06 1.5248e-05 7.69621e-08
-2.51187e-06 7.69621e-08 -6.95526e-05
0.00177488 -4.91392e-05 -2.00824e-06
-4.91392e-05 0.000313158 2.32146e-07
-2.00824e-06 2.32146e-07 0.00023411
0.00277073 7.22165e-05 -5.46384e-07
7.22165e-05 0.00105908 -1.30392e-07
-5.46384e-07 -1.30392e-07 0.00106488
0.00112922 4.26792e-05 1.51219e-06
4.26792e-05 0.000199087 1.54479e-07
1.51219e-06 1.54479e-07 0.000169104
0.00109598 -4.0251e-05 8.10207e-08
-4.0251e-05 0.000158868 -7.89576e-08
8.10207e-08 -7.89576e-08 9.08943e-05
0.00141897 -6.80609e-05 -1.69232e-06
-6.80609e-05 0.000189568 1.801e-07
-1.69232e-06 1.801e-07 0.000110773
0.00150596 -7.19416e-05 -1.59385e-06
-7.19416e-05 0.000115396 5.10799e-07
-1.59385e-06 5.10799e-07 1.75192e-05
0.00100761 -8.25583e-05 -2.92113e-07
-8.25583e-05 4.68043e-05 -1.39606e-07
-2.92113e-07 -1.39606e-07 -4.44871e-05
0.00138031 -8.55219e-05 1.04072e-07
-8.55219e-05 0.000154194 8.4622e-08
1.04072e-07 8.4622e-08 6.27516e-05
0.00122543 -9.27348e-05 1.05499e-07
-9.27348e-05 8.03436e-05 8.0401e-08
1.05499e-07 8.0401e-08 -1.81343e-05
0.000679762 5.0321e-05 -1.79737e-07
5.0321e-05 -4.9566e-05 3.35534e-08
-1.79737e-07 3.35534e-08 -7.34923e-05
0.000815429 2.31592e-05 -3.09907e-07
2.31592e-05 -2.15231e-07 8.77335e-08
-3.09907e-07 8.77335e-08 -5.15394e-05
0.00127078 -8.13152e-07 7.1301e-06
-8.13152e-07 -3.52692e-08 -1.61508e-06
7.1301e-06 -1.61508e-06 -8.99002e-05
0.0015644 -1.86355e-05 6.57254e-06
-1.86355e-05 0.000194842 -1.07182e-06
6.57254e-06 -1.07182e-06 0.000115772
0.00186426 -5.42788e-06 2.04263e-06
-5.42788e-06 0.000256632 -5.26064e-07
2.04263e-06 -5.26064e-07 0.000160496
0.00126155 -4.87729e-05 3.83966e-06
-4.87729e-05 -4.0733e-05 -4.87164e-07
3.83966e-06 -4.87164e-07 -0.000138041
0.00140529 -8.27239e-05 2.15284e-06
-8.27239e-05 0.000120553 -1.04071e-06
2.15284e-06 -1.04071e-06 2.62554e-05
0.00176775 -7.73521e-05 9.34149e-08
-7.73521e-05 0.000204282 1.25121e-07
9.34149e-08 1.25121e-07 0.000104053
0.000607188 5.46582e-05 2.39465e-06
5.46582e-05 -8.02557e-05 -4.38658e-06
2.39465e-06 -4.38658e-06 -0.000109172
0.00130387 -8.98986e-05 5.28316e-07
-8.98986e-05 7.15977e-05 -3.77659e-07
5.28316e-07 -3.77659e-07 -2.71442e-05
0.000739151 -1.26867e-05 2.06564e-06
-1.26867e-05 -2.31614e-05 -9.36292e-07
2.06564e-06 -9.36292e-07 -8.98616e-05
0.000675723 -6.74844e-05 1.74951e-06
-6.74844e-05 -8.70142e-05 -1.06081e-06
1.74951e-06 -1.06081e-06 -0.000174048
0.00162759 -0.000114571 5.56732e-07
-0.000114571 0.000335691 1.02484e-07
5.56732e-07 1.02484e-07 0.000234519
0.0014657 -0.000103862 -5.02154e-07
-0.000103862 0.000175309 1.09657e-06
-5.02154e-07 1.09657e-06 7.49203e-05
0.000870533 1.55133e-06 2.07822e-06
1.55133e-06 3.33267e-05 -2.17997e-06
2.07822e-06 -2.17997e-06 -2.62431e-05
0.000829628 3.17707e-05 9.61178e-07
3.17707e-05 4.27026e-06 -1.92826e-06
9.61178e-07 -1.92826e-06 -3.96428e-05
0.000898181 -2.76841e-05 6.96076e-07
-2.76841e-05 4.11779e-05 -7.6863e-07
6.96076e-07 -7.6863e-07 -3.38443e-05
0.000624308 4.98471e-05 -1.01205e-05
4.98471e-05 -0.000102281 -4.59997e-06
-1.01205e-05 -4.59997e-06 -0.00015138
0.00260878 -6.53956e-05 -3.51593e-05
-6.53956e-05 0.000972526 -3.3039e-06
-3.51593e-05 -3.3039e-06 0.000980781
0.000700496 -4.01778e-05 -3.29392e-06
-4.01778e-05 -4.49474e-05 -3.9293e-06
-3.29392e-06 -3.9293e-06 -6.22189e-05
0.000589229 3.48052e-05 -7.53225e-06
3.48052e-05 -8.0545e-05 -4.83857e-06
-7.53225e-06 -4.83857e-06 -0.000127103
0.000994693 6.79949e-05 -5.3006e-06
6.79949e-05 6.17756e-06 -2.29714e-06
-5.3006e-06 -2.29714e-06 -7.26336e-05
0.000600499 -5.38729e-05 -2.38561e-06
-5.38729e-05 -7.98835e-05 -4.61781e-06
-2.38561e-06 -4.61781e-06 -0.000108876
0.00077103 2.27134e-05 -2.38662e-06
2.27134e-05 -8.30683e-06 -1.93055e-06
-2.38662e-06 -1.93055e-06 -7.7722e-05
0.000864236 5.72375e-05 -3.50728e-06
5.72375e-05 8.74054e-06 -6.93456e-07
-3.50728e-06 -6.93456e-07 -6.23066e-05
0.000810646 7.31992e-05 -2.44669e-06
7.31992e-05 -3.16732e-05 1.68806e-07
-2.44669e-06 1.68806e-07 -0.000118061
0.000683166 -5.00198e-05 1.62317e-07
-5.00198e-05 -4.44911e-05 5.31531e-08
1.62317e-07 5.31531e-08 -6.77958e-05
0.000748616 -3.63329e-05 3.42612e-08
-3.63329e-05 -2.73689e-05 7.51727e-08
3.42612e-08 7.51727e-08 -4.04455e-05
0.000815076 -2.36976e-05 1.26262e-07
-2.36976e-05 3.29928e-06 1.07189e-07
1.26262e-07 1.07189e-07 -4.61712e-05
0.00109187 6.26249e-05 3.45152e-07
6.26249e-05 1.356e-05 -1.35023e-07
3.45152e-07 -1.35023e-07 -6.79077e-05
0.000948352 6.66799e-05 2.2934e-07
6.66799e-05 2.43537e-05 1.67829e-07
2.2934e-07 1.67829e-07 -5.04918e-05
0.00120617 8.68784e-05 2.03171e-07
8.68784e-05 5.85587e-05 5.94109e-08
2.03171e-07 5.94109e-08 -3.76544e-05
0.000838052 1.6453e-05 -2.81704e-07
1.6453e-05 2.55612e-05 -1.31078e-09
-2.81704e-07 -1.31078e-09 -3.93866e-05
0.00104657 8.43543e-05 -8.88773e-08
8.43543e-05 6.64421e-05 -9.95195e-08
-8.88773e-08 -9.95195e-08 -1.93884e-05
0.00101682 7.7234e-05 2.17878e-07
7.7234e-05 9.94118e-05 -2.9676e-07
2.17878e-07 -2.9676e-07 1.20615e-05
0.000947188 8.74913e-05 -6.23984e-07
8.74913e-05 3.27628e-05 2.93701e-07
-6.23984e-07 2.93701e-07 -6.16081e-05
0.000785067 -3.25099e-05 2.84214e-06
-3.25099e-05 -1.65586e-05 3.58895e-06
2.84214e-06 3.58895e-06 -2.61081e-05
0.000809931 -1.03017e-06 2.85985e-06
-1.03017e-06 2.02533e-06 1.91513e-06
2.85985e-06 1.91513e-06 -5.51032e-05
0.000796885 -2.57576e-05 1.36435e-06
-2.57576e-05 -9.30059e-06 2.42492e-06
1.36435e-06 2.42492e-06 -5.15021e-05
0.000915749 1.94203e-05 1.165e-06
1.94203e-05 5.31555e-05 9.54989e-07
1.165e-06 9.54989e-07 -1.80754e-05
0.00129381 7.59511e-05 3.85035e-06
7.59511e-05 5.18913e-05 6.73266e-07
3.85035e-06 6.73266e-07 -4.54839e-05
0.00114561 8.92929e-05 2.35267e-06
8.92929e-05 8.14887e-05 1.00003e-06
2.35267e-06 1.00003e-06 -9.54115e-06
0.00130327 9.48483e-05 1.46075e-06
9.48483e-05 7.1626e-05 8.69319e-07
1.46075e-06 8.69319e-07 -3.23682e-05
0.00105726 5.42122e-05 2.00942e-06
5.42122e-05 0.000126352 9.84061e-07
2.00942e-06 9.84061e-07 4.40251e-05
0.00115369 9.49843e-05 4.11195e-07
9.49843e-05 0.000102324 -4.52284e-07
4.11195e-07 -4.52284e-07 9.82942e-06
0.00104754 9.07292e-05 1.18638e-06
9.07292e-05 0.000117045 -9.72971e-07
1.18638e-06 -9.72971e-07 1.6292e-05
0.000802211 8.3201e-05 7.1934e-07
8.3201e-05 -5.74294e-05 -1.25245e-06
7.1934e-07 -1.25245e-06 -0.000155266
0.000852962 -1.47647e-05 9.27709e-07
-1.47647e-05 4.12681e-06 1.79545e-06
9.27709e-07 1.79545e-06 -2.4289e-05
0.000793404 -2.47585e-05 1.9845e-06
-2.47585e-05 -2.45038e-05 3.45664e-06
1.9845e-06 3.45664e-06 -2.91909e-05
0.0022039 -4.11205e-05 2.41687e-05
-4.11205e-05 0.000733201 3.70037e-06
2.41687e-05 3.70037e-06 0.00075025
0.00225441 -4.66485e-05 7.32999e-07
-4.66485e-05 0.000766332 -7.43938e-08
7.32999e-07 -7.43938e-08 0.000781616
0.00231976 -5.23433e-05 -2.81113e-05
-5.23433e-05 0.000807624 -3.46299e-06
-2.81113e-05 -3.46299e-06 0.000820939
0.000728805 3.44564e-05 3.04616e-06
3.44564e-05 -4.12281e-05 -3.49893e-06
3.04616e-06 -3.49893e-06 -5.46205e-05
0.00251862 5.9495e-05 3.16205e-05
5.9495e-05 0.000915133 -3.37281e-06
3.16205e-05 -3.37281e-06 0.000926049
0.000720823 4.28079e-05 -2.47357e-07
4.28079e-05 -3.67638e-05 3.4189e-08
-2.47357e-07 3.4189e-08 -5.52981e-05
0.00268944 6.54818e-05 -4.95653e-07
6.54818e-05 0.00100999 -1.11452e-07
-4.95653e-07 -1.11452e-07 0.00101836
0.000658308 4.22664e-05 -1.07994e-05
4.22664e-05 -0.000103678 -3.62148e-06
-1.07994e-05 -3.62148e-06 -0.000152038
0.00073403 2.63587e-05 -1.16026e-05
2.63587e-05 -8.61344e-05 -1.80586e-06
-1.16026e-05 -1.80586e-06 -0.000136153
0.00117233 4.31693e-05 -7.10668e-06
4.31693e-05 7.93522e-06 -1.51797e-06
-7.10668e-06 -1.51797e-06 -7.53481e-05
0.00122826 1.85757e-05 -7.05882e-06
1.85757e-05 2.73639e-06 -1.14647e-06
-7.05882e-06 -1.14647e-06 -8.34428e-05
0.000747648 5.3474e-06 -1.23529e-05
5.3474e-06 -0.00010679 -8.10919e-07
-1.23529e-05 -8.10919e-07 -0.00016254
0.00511679 -9.88279e-06 -9.7712e-05
-9.88279e-06 0.00228975 7.1438e-07
-9.7712e-05 7.1438e-07 0.00228358
0.000773189 -2.26867e-07 6.95106e-08
-2.26867e-07 -0.000102072 -4.35752e-07
6.95106e-08 -4.35752e-07 -0.000159153
0.00128567 1.04471e-05 7.84022e-08
1.04471e-05 7.98273e-06 -2.69894e-07
7.84022e-08 -2.69894e-07 -8.22472e-05
0.00120373 2.71651e-05 -3.80802e-08
2.71651e-05 8.49382e-06 1.6628e-08
-3.80802e-08 1.6628e-08 -7.50474e-05
0.00150417 1.51064e-05 9.5554e-08
1.51064e-05 6.69143e-05 1.20824e-07
9.5554e-08 1.20824e-07 -3.26251e-05
0.00114723 5.37616e-05 2.07596e-07
5.37616e-05 1.305e-05 -1.11422e-07
2.07596e-07 -1.11422e-07 -6.96962e-05
0.00143178 4.96649e-05 3.0763e-08
4.96649e-05 6.54054e-05 -8.78498e-08
3.0763e-08 -8.78498e-08 -3.05724e-05
0.00130452 9.5848e-07 7.44956e-06
9.5848e-07 7.3371e-06 -9.19416e-07
7.44956e-06 -9.19416e-07 -8.43968e-05
0.00154819 1.35859e-05 3.25045e-06
1.35859e-05 6.30646e-05 8.13986e-07
3.25045e-06 8.13986e-07 -4.14445e-05
0.00146543 3.08752e-05 3.08656e-06
3.08752e-05 6.54203e-05 4.6332e-07
3.08656e-06 4.6332e-07 -3.08968e-05
0.0016176 1.10166e-05 8.54795e-07
1.10166e-05 8.8518e-05 6.94357e-07
8.54795e-07 6.94357e-07 -1.25789e-05
0.00135973 6.34843e-05 3.04044e-06
6.34843e-05 5.16705e-05 1.39768e-07
3.04044e-06 1.39768e-07 -4.50433e-05
0.00153844 5.1347e-05 7.62675e-07
5.1347e-05 7.47543e-05 -4.50291e-07
7.62675e-07 -4.50291e-07 -2.26586e-05
0.000782874 8.58835e-06 -1.20551e-05
8.58835e-06 -8.9932e-05 1.12376e-06
-1.20551e-05 1.12376e-06 -0.000145593
0.00159511 1.73505e-06 -4.47489e-05
1.73505e-06 0.000360195 1.72646e-06
-4.47489e-05 1.72646e-06 0.000315709
0.000867404 -5.88968e-07 -7.72337e-06
-5.88968e-07 -0.00018548 1.58696e-06
-7.72337e-06 1.58696e-06 -0.000272538
0.0019836 -5.0238e-05 -1.15364e-05
-5.0238e-05 0.000421804 1.92525e-06
-1.15364e-05 1.92525e-06 0.000343723
0.00274973 7.16669e-05 -3.98547e-05
7.16669e-05 0.0010496 3.34128e-06
-3.98547e-05 3.34128e-06 0.00105505
0.00160194 4.21792e-05 -1.99311e-05
4.21792e-05 0.000448032 3.00113e-06
-1.99311e-05 3.00113e-06 0.000420165
0.00146922 -5.18384e-05 -4.62811e-06
-5.18384e-05 0.000349637 1.4751e-06
-4.62811e-06 1.4751e-06 0.000282295
0.0014341 -6.79067e-05 -9.2443e-06
-6.79067e-05 0.00019887 3.01207e-06
-9.2443e-06 3.01207e-06 0.000120083
0.00119444 -6.54388e-05 -4.29128e-06
-6.54388e-05 -4.7859e-05 1.28365e-06
-4.29128e-06 1.28365e-06 -0.000146982
0.00162319 -9.11964e-05 -2.78919e-06
-9.11964e-05 0.000277158 1.06086e-06
-2.78919e-06 1.06086e-06 0.000186143
0.000803215 -7.43851e-05 -1.76992e-06
-7.43851e-05 -5.65875e-05 4.28303e-07
-1.76992e-06 4.28303e-07 -0.000147644
0.00121607 -9.19219e-05 -3.35811e-07
-9.19219e-05 7.56902e-05 -5.71318e-09
-3.35811e-07 -5.71318e-09 -2.25776e-05
0.000706272 5.22674e-05 -2.12838e-06
5.22674e-05 -3.39741e-05 4.23961e-06
-2.12838e-06 4.23961e-06 -5.85491e-05
0.000788403 1.77646e-05 -2.03351e-06
1.77646e-05 -1.46381e-05 2.01042e-06
-2.03351e-06 2.01042e-06 -6.59764e-05
0.00110014 2.73642e-06 -3.3295e-07
2.73642e-06 -8.80002e-05 -8.98034e-08
-3.3295e-07 -8.98034e-08 -0.00017873
0.00159905 -2.1126e-05 -2.19508e-06
-2.1126e-05 0.000212004 2.69724e-07
-2.19508e-06 2.69724e-07 0.00013285
0.00176961 -2.90408e-06 -1.63842e-06
-2.90408e-06 0.000205281 3.30959e-07
-1.63842e-06 3.30959e-07 0.00010844
0.00155076 -5.23536e-05 8.22806e-07
-5.23536e-05 0.000111646 -3.32051e-07
8.22806e-07 -3.32051e-07 1.56883e-05
0.000662656 5.61587e-05 -7.08195e-08
5.61587e-05 -5.03476e-05 5.1828e-08
-7.08195e-08 5.1828e-08 -7.97243e-05
0.000838088 -2.36822e-05 -1.05964e-08
-2.36822e-05 2.64903e-05 -1.11087e-07
-1.05964e-08 -1.11087e-07 -4.00004e-05
0.000782698 -7.17333e-05 6.86176e-07
-7.17333e-05 -3.10709e-05 -5.1007e-07
6.86176e-07 -5.1007e-07 -0.000117236
0.00158054 -8.61341e-05 -6.71525e-07
-8.61341e-05 0.000208847 9.10535e-08
-6.71525e-07 9.10535e-08 0.000114357
0.00158798 -7.25778e-05 -4.97326e-07
-7.25778e-05 0.000109594 5.74835e-07
-4.97326e-07 5.74835e-07 9.47539e-06
0.00135108 -0.000103891 -8.94423e-07
-0.000103891 0.000193936 3.75044e-07
-8.94423e-07 3.75044e-07 9.20864e-05
0.00131013 -8.96149e-05 3.44387e-08
-8.96149e-05 7.43985e-05 2.27293e-07
3.44387e-08 2.27293e-07 -2.42733e-05
0.00129666 -9.77922e-05 3.38794e-07
-9.77922e-05 9.02159e-05 5.17911e-07
3.38794e-07 5.17911e-07 -9.93582e-06
0.000833105 -3.41548e-07 -2.49258e-07
-3.41548e-07 1.24156e-05 -6.1219e-08
-2.49258e-07 -6.1219e-08 -4.67764e-05
0.000871343 -1.25656e-05 -3.63116e-07
-1.25656e-05 2.39269e-05 -2.33696e-07
-3.63116e-07 -2.33696e-07 -4.91466e-05
0.000814723 3.00382e-05 -3.86215e-08
3.00382e-05 -3.60879e-06 1.97512e-07
-3.86215e-08 1.97512e-07 -4.75481e-05
0.00188954 6.75222e-06 2.078e-06
6.75222e-06 0.000247021 -8.25093e-07
2.078e-06 -8.25093e-07 0.000146135
0.00164608 -2.37722e-05 2.89339e-06
-2.37722e-05 0.000154212 -3.50488e-07
2.89339e-06 -3.50488e-07 6.01314e-05
0.00180455 -9.36948e-07 5.83344e-07
-9.36948e-07 0.000183165 -1.04079e-07
5.83344e-07 -1.04079e-07 8.05234e-05
0.00160887 -4.62947e-05 1.00244e-06
-4.62947e-05 9.02035e-05 -1.52821e-07
1.00244e-06 -1.52821e-07 -8.54603e-06
0.00118514 -8.18431e-05 9.57486e-07
-8.18431e-05 -4.15715e-05 -9.55972e-07
9.57486e-07 -9.55972e-07 -0.000141669
0.00170094 -7.04143e-05 -1.83897e-06
-7.04143e-05 0.000136951 9.18306e-07
-1.83897e-06 9.18306e-07 4.1489e-05
0.00083594 -1.23323e-05 2.5752e-06
-1.23323e-05 2.26966e-05 -1.51337e-06
2.5752e-06 -1.51337e-06 -4.21266e-05
0.00134281 -9.36845e-05 -1.06249e-06
-9.36845e-05 6.50908e-05 -1.29019e-07
-1.06249e-06 -1.29019e-07 -3.39865e-05
0.000940571 -7.29348e-05 1.08589e-06
-7.29348e-05 6.06055e-05 3.06033e-07
1.08589e-06 3.06033e-07 -2.0113e-05
0.000773751 -8.23021e-05 1.36367e-06
-8.23021e-05 -5.00265e-05 -1.47369e-06
1.36367e-06 -1.47369e-06 -0.000149353
0.00147467 -0.000113508 1.165e-06
-0.000113508 0.000232932 7.40154e-07
1.165e-06 7.40154e-07 0.000124674
0.00177761 -0.000115326 -2.09386e-06
-0.000115326 0.000318981 2.40585e-06
-2.09386e-06 2.40585e-06 0.000221461
0.000831577 2.87568e-05 1.30589e-06
2.87568e-05 -8.81451e-08 -1.63949e-06
1.30589e-06 -1.63949e-06 -3.81583e-05
0.000931964 -3.77703e-05 1.32428e-06
-3.77703e-05 5.36484e-05 5.13368e-08
1.32428e-06 5.13368e-08 -2.19613e-05
0.000799071 -6.88354e-06 8.55804e-07
-6.88354e-06 -1.40478e-05 -1.44635e-06
8.55804e-07 -1.44635e-06 -8.27408e-05
0.00101874 -7.11668e-05 1.58124e-08
-7.11668e-05 0.00010893 9.57773e-07
1.58124e-08 9.57773e-07 2.45065e-05
0.00109146 6.3746e-05 -6.5079e-06
6.3746e-05 1.42172e-05 -2.3283e-06
-6.5079e-06 -2.3283e-06 -6.73312e-05
0.000724589 -3.48018e-05 -3.12639e-06
-3.48018e-05 -3.9986e-05 -3.65762e-06
-3.12639e-06 -3.65762e-06 -5.27216e-05
0.000658858 -4.76224e-05 -3.19172e-06
-4.76224e-05 -5.87876e-05 -4.24638e-06
-3.19172e-06 -4.24638e-06 -8.13931e-05
0.000828515 -2.99239e-05 -1.29502e-06
-2.99239e-05 1.06495e-05 -2.56161e-06
-1.29502e-06 -2.56161e-06 -3.89718e-05
0.00090328 6.48062e-05 -3.87637e-06
6.48062e-05 2.24646e-06 -1.58762e-06
-3.87637e-06 -1.58762e-06 -7.23107e-05
0.00119479 8.70669e-05 -3.01073e-06
8.70669e-05 5.34167e-05 -9.74786e-07
-3.01073e-06 -9.74786e-07 -4.28813e-05
0.000819324 1.24194e-05 -2.63418e-06
1.24194e-05 1.81935e-05 -1.96668e-06
-2.63418e-06 -1.96668e-06 -4.69733e-05
0.000983974 7.57598e-05 -2.17443e-06
7.57598e-05 8.26476e-05 -9.82001e-07
-2.17443e-06 -9.82001e-07 -4.64053e-06
0.00115458 8.87399e-05 -1.78709e-06
8.87399e-05 0.00012292 7.21184e-10
-1.78709e-06 7.21184e-10 3.725e-05
0.000831884 8.3372e-05 -2.27326e-06
8.3372e-05 -2.64581e-05 9.31753e-07
-2.27326e-06 9.31753e-07 -0.000121222
0.000763917 -3.16297e-05 1.02264e-07
-3.16297e-05 -2.73198e-05 3.08686e-08
1.02264e-07 3.08686e-08 -3.67252e-05
0.000827677 4.56681e-06 1.88576e-08
4.56681e-06 1.36548e-05 -3.16354e-08
1.88576e-08 -3.16354e-08 -4.44131e-05
0.000814411 -2.96085e-05 -6.02981e-08
-2.96085e-05 -2.29101e-07 1.8026e-07
-6.02981e-08 1.8026e-07 -4.24254e-05
0.00092758 1.30384e-05 2.18249e-07
1.30384e-05 5.87789e-05 -2.09591e-07
2.18249e-07 -2.09591e-07 -1.20331e-05
0.00130087 7.67045e-05 7.53008e-07
7.67045e-05 5.57022e-05 2.55666e-07
7.53008e-07 2.55666e-07 -4.18828e-05
0.00111025 8.85599e-05 8.80645e-08
8.85599e-05 6.47803e-05 4.88636e-08
8.80645e-08 4.88636e-08 -2.62164e-05
0.00130278 9.49579e-05 2.47304e-08
9.49579e-05 7.14291e-05 3.13229e-07
2.47304e-08 3.13229e-07 -3.25224e-05
0.000996789 5.48519e-05 2.06294e-07
5.48519e-05 9.57963e-05 1.96213e-07
2.06294e-07 1.96213e-07 1.40274e-05
0.00129573 0.000100455 -4.59159e-07
0.000100455 0.000176445 -7.77996e-07
-4.59159e-07 -7.77996e-07 8.4063e-05
0.00106537 9.18481e-05 2.29861e-07
9.18481e-05 0.000125629 -6.16429e-07
2.29861e-07 -6.16429e-07 2.44129e-05
0.000907358 8.74286e-05 -1.62211e-06
8.74286e-05 7.46207e-07 3.2567e-08
-1.62211e-06 3.2567e-08 -9.56577e-05
0.000794371 -2.8467e-05 2.43913e-06
-2.8467e-05 -1.83667e-05 3.49499e-06
2.43913e-06 3.49499e-06 -2.51778e-05
0.000816986 -2.78654e-05 1.16695e-06
-2.78654e-05 -3.79292e-06 2.19288e-06
1.16695e-06 2.19288e-06 -4.04906e-05
0.000999409 2.96902e-05 1.6047e-06
2.96902e-05 9.39035e-05 6.47606e-07
1.6047e-06 6.47606e-07 1.80157e-05
0.000892521 1.4055e-06 8.53491e-07
1.4055e-06 3.75152e-05 1.47746e-06
8.53491e-07 1.47746e-06 -2.59651e-05
0.000980206 5.95409e-05 1.19904e-06
5.95409e-05 9.32668e-05 1.06809e-07
1.19904e-06 1.06809e-07 9.27437e-06
0.00139791 8.01382e-05 2.08612e-06
8.01382e-05 6.30902e-05 7.67442e-08
2.08612e-06 7.67442e-08 -3.99166e-05
0.00118412 9.71111e-05 9.0572e-07
9.71111e-05 7.46142e-05 9.86789e-07
9.0572e-07 9.86789e-07 -2.3912e-05
0.00140032 0.000101305 -3.95193e-07
0.000101305 9.98673e-05 5.20162e-07
-3.95193e-07 5.20162e-07 -6.31063e-06
0.00109435 8.86786e-05 2.54887e-06
8.86786e-05 0.000154264 2.06457e-06
2.54887e-06 2.06457e-06 5.6231e-05
0.0011714 0.000100055 1.85481e-06
0.000100055 9.71939e-05 -3.76036e-07
1.85481e-06 -3.76036e-07 1.13067e-06
0.000574126 7.47834e-05 1.98817e-06
7.47834e-05 -0.000142598 -1.54974e-06
1.98817e-06 -1.54974e-06 -0.000253299
0.00084654 -1.85536e-05 1.08755e-06
-1.85536e-05 4.0409e-06 1.90812e-06
1.08755e-06 1.90812e-06 -2.64923e-05
0.000876669 6.49179e-06 3.55725e-07
6.49179e-06 2.46766e-05 9.17676e-07
3.55725e-07 9.17676e-07 -2.17582e-05
0.000864458 -1.00526e-05 7.29697e-07
-1.00526e-05 7.25221e-06 1.78997e-06
7.29697e-07 1.78997e-06 -1.952e-05
0.000853954 -1.30861e-05 1.25888e-07
-1.30861e-05 5.28389e-06 5.17476e-09
1.25888e-07 5.17476e-09 -2.32468e-05
0.00134622 -2.65986e-05 2.07247e-06
-2.65986e-05 0.000263062 2.07971e-06
2.07247e-06 2.07971e-06 0.000263372
0.00106642 -2.71419e-05 7.88851e-07
-2.71419e-05 0.000120223 -2.91572e-08
7.88851e-07 -2.91572e-08 0.000117153
0.00103772 -2.45916e-05 1.9944e-05
-2.45916e-05 0.000107672 6.41231e-06
1.9944e-05 6.41231e-06 0.000120703
0.00220009 -4.12772e-05 8.84222e-07
-4.12772e-05 0.00073016 -6.87499e-08
8.84222e-07 -6.87499e-08 0.000747406
0.00224443 -4.67313e-05 -2.52351e-05
-4.67313e-05 0.000760025 -3.5652e-06
-2.52351e-05 -3.5652e-06 0.000775556
0.000745921 3.09004e-05 2.64406e-06
3.09004e-05 -3.94986e-05 -3.367e-06
2.64406e-06 -3.367e-06 -4.96084e-05
0.00238948 5.34167e-05 2.82574e-05
5.34167e-05 0.000840801 -3.45892e-06
2.82574e-05 -3.45892e-06 0.000854074
0.000749969 3.58921e-05 -4.40431e-08
3.58921e-05 -3.0082e-05 7.17522e-08
-4.40431e-08 7.17522e-08 -4.38073e-05
0.00254996 5.91125e-05 -6.86983e-07
5.91125e-05 0.000931808 -9.85411e-08
-6.86983e-07 -9.85411e-08 0.000942499
0.000740507 4.5612e-05 -2.24594e-06
4.5612e-05 -2.5284e-05 4.11153e-06
-2.24594e-06 4.11153e-06 -4.4524e-05
0.00269488 6.52294e-05 -3.81732e-05
6.52294e-05 0.00101319 3.42485e-06
-3.81732e-05 3.42485e-06 0.00102134
0.00115671 5.56238e-05 -7.08806e-06
5.56238e-05 1.88867e-05 -1.95384e-06
-7.08806e-06 -1.95384e-06 -6.40772e-05
0.00119759 3.0159e-05 -7.01009e-06
3.0159e-05 5.9583e-06 -1.01961e-06
-7.01009e-06 -1.01961e-06 -7.77496e-05
0.00143422 4.79811e-05 -3.08637e-06
4.79811e-05 6.6732e-05 -2.43719e-07
-3.08637e-06 -2.43719e-07 -2.92395e-05
0.00152067 1.49116e-05 -3.06116e-06
1.49116e-05 7.5446e-05 -7.33958e-07
-3.06116e-06 -7.33958e-07 -2.40835e-05
0.00127618 1.29784e-05 -7.40965e-06
1.29784e-05 3.60535e-06 -1.21302e-06
-7.40965e-06 -1.21302e-06 -8.66046e-05
0.000777721 3.9561e-06 -1.24608e-05
3.9561e-06 -9.96606e-05 7.11081e-08
-1.24608e-05 7.11081e-08 -0.000156809
0.00130176 2.8012e-06 6.65979e-09
2.8012e-06 5.7972e-06 -5.03654e-07
6.65979e-09 -5.03654e-07 -8.60059e-05
0.00155429 1.52674e-05 3.507e-08
1.52674e-05 6.6525e-05 -1.67207e-07
3.507e-08 -1.67207e-07 -3.79487e-05
0.00146583 2.77459e-05 8.2882e-08
2.77459e-05 6.60455e-05 1.19909e-07
8.2882e-08 1.19909e-07 -3.02032e-05
0.0015958 1.02497e-05 -2.90254e-08
1.02497e-05 7.47678e-05 1.39743e-07
-2.90254e-08 1.39743e-07 -2.68702e-05
0.0013768 6.41452e-05 -7.40001e-08
6.41452e-05 5.99711e-05 -2.91095e-08
-7.40001e-08 -2.91095e-08 -3.68417e-05
0.00155209 5.105e-05 -1.89479e-08
5.105e-05 8.19619e-05 2.88822e-08
-1.89479e-08 2.88822e-08 -1.54508e-05
0.00157017 7.83365e-06 3.53131e-06
7.83365e-06 6.27954e-05 -1.04642e-06
3.53131e-06 -1.04642e-06 -4.34828e-05
0.00160304 1.19337e-05 6.51059e-07
1.19337e-05 5.7134e-05 1.47868e-06
6.51059e-07 1.47868e-06 -5.01427e-05
0.00156832 3.03217e-05 9.27076e-07
3.03217e-05 7.30327e-05 8.97447e-08
9.27076e-07 8.97447e-08 -2.49944e-05
0.00178884 5.06858e-06 -2.02169e-07
5.06858e-06 0.000155156 9.60932e-08
-2.02169e-07 9.60932e-08 5.49825e-05
0.00147989 6.38568e-05 5.56236e-07
6.38568e-05 6.93221e-05 -7.6864e-07
5.56236e-07 -7.6864e-07 -3.0126e-05
0.00162252 4.13017e-05 -1.67237e-06
4.13017e-05 8.78615e-05 -8.51398e-08
-1.67237e-06 -8.51398e-08 -2.53886e-06
0.000931632 4.24693e-06 -7.19664e-06
4.24693e-06 -0.000174771 1.23543e-06
-7.19664e-06 1.23543e-06 -0.000266397
0.00162536 -2.55349e-05 -1.1118e-05
-2.55349e-05 0.000224519 1.41034e-06
-1.1118e-05 1.41034e-06 0.000145375
0.00167601 3.44728e-06 -4.96989e-06
3.44728e-06 0.00015461 1.30126e-06
-4.96989e-06 1.30126e-06 5.70849e-05
0.00184244 -5.60806e-05 -3.30024e-06
-5.60806e-05 0.000265302 8.8093e-08
-3.30024e-06 8.8093e-08 0.000170685
0.000702878 4.4712e-05 -3.63525e-06
4.4712e-05 -3.0703e-05 3.9921e-06
-3.63525e-06 3.9921e-06 -5.89996e-05
0.00089486 -2.53169e-05 -2.72866e-06
-2.53169e-05 5.56328e-05 1.21514e-06
-2.72866e-06 1.21514e-06 -1.13149e-05
0.000899808 -7.65729e-05 -6.81655e-07
-7.65729e-05 2.97251e-05 -3.28479e-09
-6.81655e-07 -3.28479e-09 -5.55867e-05
0.0017609 -8.96841e-05 -3.84684e-06
-8.96841e-05 0.000299837 1.50585e-06
-3.84684e-06 1.50585e-06 0.000205135
0.00140813 -6.77547e-05 -1.22867e-06
-6.77547e-05 1.48185e-05 5.84092e-07
-1.22867e-06 5.84092e-07 -8.51806e-05
0.00131489 -8.93023e-05 -4.80942e-07
-8.93023e-05 7.64667e-05 8.44601e-07
-4.80942e-07 8.44601e-07 -2.21372e-05
0.0010727 -9.31677e-05 -1.27441e-06
-9.31677e-05 5.12197e-05 5.77296e-07
-1.27441e-06 5.77296e-07 -5.13034e-05
0.00111806 -9.13576e-05 1.49493e-06
-9.13576e-05 2.91186e-07 -6.562e-07
1.49493e-06 -6.562e-07 -9.95992e-05
0.00080382 1.07964e-06 -2.70475e-06
1.07964e-06 -4.31369e-06 1.64977e-06
-2.70475e-06 1.64977e-06 -6.30469e-05
0.000851914 -9.48783e-06 -1.253e-06
-9.48783e-06 1.30072e-05 2.6431e-07
-1.253e-06 2.6431e-07 -5.97232e-05
0.000799383 2.91237e-05 -1.09969e-06
2.91237e-05 -1.15345e-05 2.0717e-06
-1.09969e-06 2.0717e-06 -5.55838e-05
0.00174124 7.30508e-06 -1.68923e-06
7.30508e-06 0.000166749 4.52713e-07
-1.68923e-06 4.52713e-07 6.43564e-05
0.00164273 -2.88396e-05 -7.65947e-07
-2.88396e-05 0.000151019 1.02272e-07
-7.65947e-07 1.02272e-07 5.7092e-05
0.00167475 1.66645e-06 -6.6974e-07
1.66645e-06 0.000114878 4.83547e-07
-6.6974e-07 4.83547e-07 1.18274e-05
0.00169801 -4.48814e-05 1.82119e-07
-4.48814e-05 0.000137236 -3.17436e-07
1.82119e-07 -3.17436e-07 3.8795e-05
0.000837312 -1.50551e-05 1.63998e-07
-1.50551e-05 2.12109e-05 -1.9049e-07
1.63998e-07 -1.9049e-07 -4.31576e-05
0.00101492 -7.64628e-05 -1.0324e-07
-7.64628e-05 9.70511e-05 2.38684e-07
-1.0324e-07 2.38684e-07 1.60326e-05
0.000856148 -8.47649e-05 5.14522e-07
-8.47649e-05 -4.72992e-06 -7.37942e-07
5.14522e-07 -7.37942e-07 -0.000102951
0.00141776 -8.69098e-05 1.25458e-07
-8.69098e-05 8.02701e-05 -5.69412e-07
1.25458e-07 -5.69412e-07 -1.96522e-05
0.00161035 -6.85076e-05 3.31117e-07
-6.85076e-05 8.75505e-05 1.05418e-06
3.31117e-07 1.05418e-06 -6.71462e-06
0.0012283 -0.000104473 1.66611e-08
-0.000104473 0.000109568 1.52016e-07
1.66611e-08 1.52016e-07 5.04038e-07
0.00134834 -9.27298e-05 -7.08604e-08
-9.27298e-05 6.73064e-05 3.79712e-07
-7.08604e-08 3.79712e-07 -3.15185e-05
0.00155809 -0.000108001 7.03508e-07
-0.000108001 0.000206875 5.2404e-07
7.03508e-07 5.2404e-07 0.000110226
0.000966086 -4.23566e-05 -1.27809e-07
-4.23566e-05 7.23797e-05 -1.93876e-07
-1.27809e-07 -1.93876e-07 -3.705e-06
0.000991213 -7.49504e-05 -3.0828e-07
-7.49504e-05 9.47122e-05 3.48539e-07
-3.0828e-07 3.48539e-07 8.99562e-06
0.000824358 2.9578e-05 4.37289e-08
2.9578e-05 -3.26775e-06 8.51382e-08
4.37289e-08 8.51382e-08 -4.15606e-05
0.000813956 7.26671e-06 -4.05982e-08
7.26671e-06 -9.11126e-06 -5.27143e-07
-4.05982e-08 -5.27143e-07 -7.53025e-05
0.00167666 5.49734e-06 1.12026e-06
5.49734e-06 9.60048e-05 -9.79989e-07
1.12026e-06 -9.79989e-07 -1.18624e-05
0.00172355 -2.13781e-05 1.03723e-06
-2.13781e-05 0.000146875 3.27039e-07
1.03723e-06 3.27039e-07 4.79224e-05
0.00172833 3.72269e-06 3.99239e-08
3.72269e-06 0.000122003 1.47994e-07
3.99239e-08 1.47994e-07 1.84089e-05
0.00163109 -3.77505e-05 -9.64217e-07
-3.77505e-05 7.30505e-05 -8.1321e-07
-9.64217e-07 -8.1321e-07 -2.37518e-05
0.00139594 -8.63315e-05 -1.69902e-06
-8.63315e-05 3.15305e-05 4.44694e-09
-1.69902e-06 4.44694e-09 -6.56775e-05
0.00177362 -6.75106e-05 4.22114e-07
-6.75106e-05 0.000143037 1.79819e-07
4.22114e-07 1.79819e-07 5.278e-05
0.000943556 -6.96953e-05 1.27263e-06
-6.96953e-05 6.22873e-05 5.42641e-07
1.27263e-06 5.42641e-07 -1.55401e-05
0.00133925 -9.37581e-05 -2.93526e-06
-9.37581e-05 4.57102e-05 9.71418e-07
-2.93526e-06 9.71418e-07 -4.51209e-05
0.000732853 -7.62711e-05 3.6758e-08
-7.62711e-05 -4.60774e-05 -3.92042e-07
3.6758e-08 -3.92042e-07 -0.000137441
0.00110088 -0.000100356 1.52096e-06
-0.000100356 0.000102481 -1.07208e-06
1.52096e-06 -1.07208e-06 -7.68451e-06
0.00130313 -0.000112526 1.14883e-06
-0.000112526 0.000127745 2.2561e-06
1.14883e-06 2.2561e-06 1.36561e-05
0.00190074 -0.00011977 -7.26097e-07
-0.00011977 0.000368231 1.83844e-06
-7.26097e-07 1.83844e-06 0.000270433
0.000838581 2.01181e-05 1.50564e-06
2.01181e-05 5.50656e-07 -1.57772e-06
1.50564e-06 -1.57772e-06 -3.42869e-05
0.000762838 1.50728e-06 5.90672e-07
1.50728e-06 -3.6102e-05 -1.38812e-06
5.90672e-07 -1.38812e-06 -9.74628e-05
0.000983159 -8.24271e-05 4.00214e-07
-8.24271e-05 8.56781e-05 1.23676e-06
4.00214e-07 1.23676e-06 1.29246e-07
0.000986454 -6.00043e-05 8.98473e-07
-6.00043e-05 9.18552e-05 3.02075e-08
8.98473e-07 3.02075e-08 1.11064e-05
0.00100497 -8.37128e-05 -2.50621e-07
-8.37128e-05 0.000103341 1.98594e-06
-2.50621e-07 1.98594e-06 1.4214e-05
0.000743184 -3.0841e-05 -2.71352e-06
-3.0841e-05 -3.7875e-05 -3.54853e-06
-2.71352e-06 -3.54853e-06 -4.71415e-05
0.00131878 7.77639e-05 -2.56352e-06
7.77639e-05 6.49945e-05 -2.04849e-07
-2.56352e-06 -2.04849e-07 -3.28136e-05
0.000828607 -3.27493e-05 -1.14218e-06
-3.27493e-05 7.17384e-06 -2.27304e-06
-1.14218e-06 -2.27304e-06 -3.5063e-05
0.000868793 -3.37636e-06 -1.96258e-06
-3.37636e-06 3.58507e-05 -2.28469e-06
-1.96258e-06 -2.28469e-06 -2.1981e-05
0.000935709 7.87894e-06 -6.28632e-07
7.87894e-06 6.24988e-05 -1.25458e-06
-6.28632e-07 -1.25458e-06 -7.92264e-06
0.00107013 8.77284e-05 -2.40895e-06
8.77284e-05 4.57194e-05 -9.99418e-07
-2.40895e-06 -9.99418e-07 -4.52494e-05
0.00130113 9.50203e-05 -1.3599e-06
9.50203e-05 7.06722e-05 -2.45716e-07
-1.3599e-06 -2.45716e-07 -3.32394e-05
0.000946485 6.81404e-05 -1.72407e-06
6.81404e-05 7.2055e-05 -5.38161e-07
-1.72407e-06 -5.38161e-07 -1.00869e-05
0.00109397 9.34362e-05 -2.11098e-06
9.34362e-05 0.000139733 -9.13924e-07
-2.11098e-06 -9.13924e-07 3.80129e-05
0.00143793 0.000105936 -1.74735e-06
0.000105936 0.000250616 -7.73464e-07
-1.74735e-06 -7.73464e-07 0.000158349
0.00101554 9.17232e-05 -3.56849e-06
9.17232e-05 6.03191e-05 1.96924e-06
-3.56849e-06 1.96924e-06 -3.46325e-05
0.000773468 -2.78592e-05 1.0887e-07
-2.78592e-05 -2.90685e-05 2.31815e-08
1.0887e-07 2.31815e-08 -3.57783e-05
0.000825076 -2.83295e-05 -4.5728e-08
-2.83295e-05 3.55611e-07 7.17261e-08
-4.5728e-08 7.17261e-08 -3.62536e-05
0.000964353 3.56199e-05 2.47197e-07
3.56199e-05 7.65293e-05 -8.76498e-08
2.47197e-07 -8.76498e-08 4.75807e-07
0.000900546 -4.93956e-06 1.12006e-07
-4.93956e-06 4.11537e-05 3.75638e-08
1.12006e-07 3.75638e-08 -2.17876e-05
0.000934823 5.15915e-05 3.3634e-07
5.15915e-05 6.85384e-05 -2.77169e-07
3.3634e-07 -2.77169e-07 -1.50919e-05
0.00140624 8.07639e-05 9.18758e-07
8.07639e-05 6.73096e-05 5.45977e-07
9.18758e-07 5.45977e-07 -3.59418e-05
0.00118961 9.79259e-05 1.21948e-07
9.79259e-05 7.77887e-05 3.66397e-08
1.21948e-07 3.66397e-08 -2.0786e-05
0.00136091 0.000101324 9.10392e-07
0.000101324 8.00662e-05 5.9743e-07
9.10392e-07 5.9743e-07 -2.65688e-05
0.00103308 8.64056e-05 7.01371e-07
8.64056e-05 0.000124094 7.86176e-07
7.01371e-07 7.86176e-07 2.62584e-05
0.00127992 0.000103631 3.51003e-07
0.000103631 0.000153826 -6.75325e-07
3.51003e-07 -6.75325e-07 5.78366e-05
0.000892228 8.84268e-05 -1.26168e-06
8.84268e-05 1.89515e-05 -7.00891e-07
-1.26168e-06 -7.00891e-07 -9.15786e-05
0.000834664 -2.33376e-05 1.12272e-06
-2.33376e-05 1.42092e-06 2.03311e-06
1.12272e-06 2.03311e-06 -3.16855e-05
0.000884131 -1.24762e-05 4.87391e-07
-1.24762e-05 2.79377e-05 1.39513e-06
4.87391e-07 1.39513e-06 -2.73334e-05
0.00104963 8.25427e-05 8.85234e-07
8.25427e-05 0.000126955 -5.52874e-09
8.85234e-07 -5.52874e-09 3.64052e-05
0.000954952 2.30115e-05 7.15531e-07
2.30115e-05 7.6381e-05 7.39122e-07
7.15531e-07 7.39122e-07 2.48284e-07
0.00103821 5.33962e-05 7.01475e-07
5.33962e-05 0.000128485 -5.83875e-07
7.01475e-07 -5.83875e-07 3.74248e-05
0.00144822 7.99513e-05 -1.63687e-06
7.99513e-05 5.9212e-05 -1.4299e-06
-1.63687e-06 -1.4299e-06 -4.29712e-05
0.00122755 0.000105333 1.21925e-06
0.000105333 7.60756e-05 6.46714e-07
1.21925e-06 6.46714e-07 -2.53122e-05
0.00113578 0.000104099 -2.1065e-06
0.000104099 -3.67041e-05 -1.20487e-06
-2.1065e-06 -1.20487e-06 -0.000134797
0.000976102 8.83774e-05 1.19842e-06
8.83774e-05 0.000101263 2.33532e-06
1.19842e-06 2.33532e-06 -1.02899e-05
0.00121306 0.000108457 3.78517e-06
0.000108457 0.000135874 -9.20945e-07
3.78517e-06 -9.20945e-07 2.23502e-05
0.000844739 -1.72633e-05 7.8341e-08
-1.72633e-05 3.40539e-06 4.39593e-09
7.8341e-08 4.39593e-09 -2.71273e-05
0.000728889 -1.78131e-05 3.97515e-07
-1.78131e-05 -5.42098e-05 1.60598e-06
3.97515e-07 1.60598e-06 -0.000102562
0.000818396 -7.34283e-06 -6.07074e-07
-7.34283e-06 -6.67426e-06 2.33111e-09
-6.07074e-07 2.33111e-09 -5.33235e-05
0.00109511 1.28333e-05 8.4321e-07
1.28333e-05 0.000145643 2.44407e-07
8.4321e-07 2.44407e-07 8.80407e-05
0.000880622 8.37154e-06 1.39427e-06
8.37154e-06 2.59589e-05 1.00787e-06
1.39427e-06 1.00787e-06 -2.01021e-05
0.000873604 -3.65032e-06 6.79729e-07
-3.65032e-06 9.24978e-06 1.78169e-06
6.79729e-07 1.78169e-06 -1.65481e-05
0.000863847 -1.0621e-05 6.39862e-08
-1.0621e-05 7.16745e-06 2.06841e-08
6.39862e-08 2.06841e-08 -1.96726e-05
0.00133616 -2.17385e-05 1.52252e-06
-2.17385e-05 0.000252353 2.01791e-06
1.52252e-06 2.01791e-06 0.000254615
0.000855724 -1.19376e-05 -9.84833e-07
-1.19376e-05 6.79952e-06 -1.87454e-06
-9.84833e-07 -1.87454e-06 -2.18536e-05
0.00136006 -2.50471e-05 -3.51812e-06
-2.50471e-05 0.000269928 -1.19065e-06
-3.51812e-06 -1.19065e-06 0.00027053
0.00104045 -2.11649e-05 1.69419e-05
-2.11649e-05 0.000102062 6.28964e-06
1.69419e-05 6.28964e-06 0.000116992
0.00134964 -2.7742e-05 -8.73351e-06
-2.7742e-05 0.00027035 -3.24291e-06
-8.73351e-06 -3.24291e-06 0.000269072
0.00158113 -3.04781e-05 1.51964e-05
-3.04781e-05 0.000395806 2.12292e-06
1.51964e-05 2.12292e-06 0.00041179
0.00219706 -4.13565e-05 -2.23363e-05
-4.13565e-05 0.000727535 -3.66163e-06
-2.23363e-05 -3.66163e-06 0.000744983
0.000752585 2.79935e-05 2.23269e-06
2.79935e-05 -4.17246e-05 -3.31331e-06
2.23269e-06 -3.31331e-06 -4.94454e-05
0.000762935 3.1459e-05 -1.37662e-07
3.1459e-05 -3.06903e-05 2.58408e-08
-1.37662e-07 2.58408e-08 -4.09482e-05
0.00232168 4.80071e-05 2.51803e-05
4.80071e-05 0.000797951 -3.5608e-06
2.51803e-05 -3.5608e-06 0.000813233
0.00241708 5.33217e-05 -6.7089e-07
5.33217e-05 0.000855928 -7.93518e-08
-6.7089e-07 -7.93518e-08 0.000868926
0.00076815 3.77743e-05 -2.6652e-06
3.77743e-05 -2.04441e-05 3.75323e-06
-2.6652e-06 3.75323e-06 -3.45443e-05
0.00257956 5.87823e-05 -3.52684e-05
5.87823e-05 0.000947592 3.50023e-06
-3.52684e-05 3.50023e-06 0.000958053
0.00139454 6.49549e-05 -3.27637e-06
6.49549e-05 6.86147e-05 -2.11151e-07
-3.27637e-06 -2.11151e-07 -2.83096e-05
0.00147023 2.83125e-05 -3.05465e-06
2.83125e-05 6.8625e-05 -2.00627e-07
-3.05465e-06 -2.00627e-07 -2.76896e-05
0.0015658 5.19203e-05 -5.53015e-07
5.19203e-05 8.91804e-05 5.41257e-07
-5.53015e-07 5.41257e-07 -8.2695e-06
0.00157031 9.4225e-06 -7.41373e-07
9.4225e-06 5.92593e-05 -4.29673e-07
-7.41373e-07 -4.29673e-07 -4.29343e-05
0.00156534 1.86516e-05 -3.10292e-06
1.86516e-05 7.24662e-05 -1.11892e-06
-3.10292e-06 -1.11892e-06 -3.20054e-05
0.00130941 7.63746e-06 -7.44666e-06
7.63746e-06 9.37482e-06 -1.50621e-07
-7.44666e-06 -1.50621e-07 -8.24303e-05
0.00158363 1.22278e-05 6.5965e-08
1.22278e-05 6.96081e-05 -7.30769e-07
6.5965e-08 -7.30769e-07 -3.67502e-05
0.00159202 3.89371e-06 2.20725e-07
3.89371e-06 4.88871e-05 5.32669e-07
2.20725e-07 5.32669e-07 -5.94472e-05
0.00158901 2.96295e-05 1.70632e-08
2.96295e-05 8.38453e-05 1.32415e-07
1.70632e-08 1.32415e-07 -1.40535e-05
0.00172587 4.488e-06 -7.53477e-08
4.488e-06 0.000121343 -3.2053e-07
-7.53477e-08 -3.2053e-07 2.15443e-05
0.00149175 6.51829e-05 -1.24768e-07
6.51829e-05 7.50153e-05 5.894e-08
-1.24768e-07 5.894e-08 -2.47017e-05
0.00160909 4.10139e-05 -4.26178e-08
4.10139e-05 7.8213e-05 4.76897e-07
-4.26178e-08 4.76897e-07 -1.23047e-05
0.00163098 2.04529e-06 1.60561e-06
2.04529e-06 5.48906e-05 -7.14309e-07
1.60561e-06 -7.14309e-07 -5.64974e-05
0.0017788 1.21035e-05 -6.15083e-07
1.21035e-05 0.000126165 6.22125e-07
-6.15083e-07 6.22125e-07 1.82802e-05
0.0016054 2.12539e-05 -6.23451e-07
2.12539e-05 6.34356e-05 7.12099e-07
-6.23451e-07 7.12099e-07 -3.15015e-05
0.00174465 7.41196e-08 -4.63889e-07
7.41196e-08 0.000121035 -3.34626e-07
-4.63889e-07 -3.34626e-07 2.26711e-05
0.00145876 5.8102e-05 -1.28058e-06
5.8102e-05 2.3288e-05 -1.42622e-06
-1.28058e-06 -1.42622e-06 -7.10296e-05
0.00187582 3.39369e-05 -5.7953e-07
3.39369e-05 0.000192416 -5.80109e-07
-5.7953e-07 -5.80109e-07 0.000104199
0.00158058 7.17011e-06 -4.71955e-06
7.17011e-06 8.02069e-05 1.69392e-06
-4.71955e-06 1.69392e-06 -2.36924e-05
0.00163307 -3.06229e-05 -4.46044e-06
-3.06229e-05 0.00014487 4.20942e-07
-4.46044e-06 4.20942e-07 5.1097e-05
0.00155906 2.16092e-06 -1.72853e-06
2.16092e-06 5.3678e-05 7.60218e-07
-1.72853e-06 7.60218e-07 -4.97934e-05
0.0017845 -4.40796e-05 -1.3729e-06
-4.40796e-05 0.000182895 -3.69997e-07
-1.3729e-06 -3.69997e-07 8.47599e-05
0.00085343 -1.77434e-05 -2.73083e-06
-1.77434e-05 2.73332e-05 1.25538e-06
-2.73083e-06 1.25538e-06 -3.66362e-05
0.0010844 -7.97284e-05 -1.4317e-06
-7.97284e-05 0.000131243 1.99628e-07
-1.4317e-06 1.99628e-07 4.99115e-05
0.000931635 -8.67788e-05 -2.75834e-07
-8.67788e-05 3.72275e-05 -8.29541e-09
-2.75834e-07 -8.29541e-09 -5.98697e-05
0.00165413 -9.20038e-05 -8.59491e-07
-9.20038e-05 0.00020402 2.38808e-07
-8.59491e-07 2.38808e-07 0.000104273
0.00152174 -6.66495e-05 9.20944e-07
-6.66495e-05 3.91696e-05 3.25728e-07
9.20944e-07 3.25728e-07 -5.38966e-05
0.00135492 -9.18605e-05 1.58564e-06
-9.18605e-05 7.00946e-05 7.34827e-07
1.58564e-06 7.34827e-07 -2.84884e-05
0.000986874 -9.56289e-05 -7.66527e-07
-9.56289e-05 -1.13353e-05 -1.83269e-07
-7.66527e-07 -1.83269e-07 -0.000121215
0.00133422 -0.000100546 2.7415e-06
-0.000100546 9.23263e-05 -2.62724e-06
2.7415e-06 -2.62724e-06 -3.41553e-06
0.000986036 -3.57641e-05 -1.36675e-06
-3.57641e-05 8.21606e-05 -3.23951e-07
-1.36675e-06 -3.23951e-07 6.57368e-06
0.000973945 -6.55233e-05 -8.84535e-07
-6.55233e-05 8.26404e-05 -6.00872e-07
-8.84535e-07 -6.00872e-07 -2.48489e-06
0.00081412 2.97751e-05 -1.00383e-06
2.97751e-05 -8.03855e-06 1.82635e-06
-1.00383e-06 1.82635e-06 -4.65153e-05
0.000836284 1.55522e-05 -2.58335e-07
1.55522e-05 1.12726e-06 3.92231e-07
-2.58335e-07 3.92231e-07 -6.36185e-05
0.00168441 6.15997e-06 -1.55129e-07
6.15997e-06 9.9556e-05 2.34078e-07
-1.55129e-07 2.34078e-07 -8.33609e-06
0.00175626 -1.88533e-05 -5.25308e-07
-1.88533e-05 0.000163336 4.55522e-08
-5.25308e-07 4.55522e-08 6.48317e-05
0.001691 3.22412e-06 -8.21704e-07
3.22412e-06 0.000104221 6.62672e-07
-8.21704e-07 6.62672e-07 1.36933e-06
0.00165814 -3.85803e-05 -1.04284e-07
-3.85803e-05 8.62673e-05 -4.84499e-07
-1.04284e-07 -4.84499e-07 -1.04073e-05
0.000995391 -5.86832e-05 -1.44546e-07
-5.86832e-05 8.68836e-05 5.06759e-08
-1.44546e-07 5.06759e-08 9.70732e-06
0.0008067 -7.84989e-05 4.59608e-07
-7.84989e-05 -7.86935e-06 -3.60567e-07
4.59608e-07 -3.60567e-07 -9.8057e-05
0.0010964 -9.96997e-05 9.93529e-08
-9.96997e-05 0.000101814 -1.69488e-07
9.93529e-08 -1.69488e-07 -8.62464e-06
0.00151776 -8.85258e-05 -7.8479e-07
-8.85258e-05 9.58104e-05 -4.84015e-07
-7.8479e-07 -4.84015e-07 -2.22918e-06
0.00162567 -6.60635e-05 -1.98542e-07
-6.60635e-05 7.38654e-05 9.14437e-07
-1.98542e-07 9.14437e-07 -1.3188e-05
0.00129293 -0.000111126 -2.00423e-07
-0.000111126 0.000123429 5.73389e-07
-2.00423e-07 5.73389e-07 8.63161e-06
0.00136797 -9.35292e-05 -3.34494e-08
-9.35292e-05 6.10874e-05 8.05862e-07
-3.34494e-08 8.05862e-07 -2.96071e-05
0.00156543 -0.000108956 9.33687e-07
-0.000108956 0.000196116 -1.38578e-06
9.33687e-07 -1.38578e-06 0.000101084
0.00102902 -8.43684e-05 6.75513e-08
-8.43684e-05 0.000108418 -3.29546e-08
6.75513e-08 -3.29546e-08 2.28784e-05
0.00101623 -8.2835e-05 6.69411e-08
-8.2835e-05 0.000107959 1.90057e-07
6.69411e-08 1.90057e-07 1.89837e-05
0.000979769 -4.46402e-05 -3.24286e-07
-4.46402e-05 8.67311e-05 -6.1476e-09
-3.24286e-07 -6.1476e-09 7.14959e-06
0.000717269 2.54001e-05 -2.34019e-07
2.54001e-05 -6.27908e-05 8.70121e-09
-2.34019e-07 8.70121e-09 -9.87195e-05
0.000794629 1.61348e-05 7.52898e-08
1.61348e-05 -2.23343e-05 -3.6316e-07
7.52898e-08 -3.6316e-07 -8.15898e-05
0.00170495 9.77344e-06 6.52829e-08
9.77344e-06 8.60479e-05 -8.12532e-07
6.52829e-08 -8.12532e-07 -2.28533e-05
0.00167482 -3.26882e-06 1.01895e-06
-3.26882e-06 8.4914e-05 1.78229e-08
1.01895e-06 1.78229e-08 -1.62053e-05
0.0016618 -4.30471e-05 8.63364e-07
-4.30471e-05 6.18458e-05 -1.60906e-06
8.63364e-07 -1.60906e-06 -3.40855e-05
0.00139186 -7.77563e-05 -9.21729e-08
-7.77563e-05 -7.69465e-06 -1.25963e-06
-9.21729e-08 -1.25963e-06 -9.60235e-05
0.000960454 -8.28781e-05 1.00698e-08
-8.28781e-05 7.32859e-05 1.24196e-06
1.00698e-08 1.24196e-06 -1.24237e-05
0.00188861 -0.000110297 -1.22108e-06
-0.000110297 0.000296285 1.68515e-06
-1.22108e-06 1.68515e-06 0.000210428
0.000437388 -6.60569e-05 -1.08209e-07
-6.60569e-05 -0.000194749 -1.55435e-06
-1.08209e-07 -1.55435e-06 -0.00029307
0.0011788 -0.000109905 2.82949e-06
-0.000109905 0.000122679 -1.0057e-06
2.82949e-06 -1.0057e-06 -1.72261e-06
0.00159226 -0.000125085 1.60372e-06
-0.000125085 0.000246345 2.37656e-06
1.60372e-06 2.37656e-06 0.000126709
0.000629131 1.87165e-05 1.17768e-06
1.87165e-05 -0.000111943 -2.20484e-06
1.17768e-06 -2.20484e-06 -0.000146332
0.000988699 2.9472e-07 1.2424e-06
2.9472e-07 8.14396e-05 -7.06235e-07
1.2424e-06 -7.06235e-07 2.66033e-05
0.00100623 -2.76171e-05 1.75354e-07
-2.76171e-05 9.54161e-05 -2.44427e-07
1.75354e-07 -2.44427e-07 2.52049e-05
0.000992878 -8.34856e-05 -3.05115e-07
-8.34856e-05 9.05689e-05 2.04588e-06
-3.05115e-07 2.04588e-06 3.76718e-06
0.00108558 -6.4457e-05 4.91709e-07
-6.4457e-05 0.000145971 1.42814e-06
4.91709e-07 1.42814e-06 5.76941e-05
0.000944459 -8.11135e-05 -8.38707e-08
-8.11135e-05 6.57879e-05 1.86357e-06
-8.38707e-08 1.86357e-06 -2.41582e-05
0.000753394 -2.73065e-05 -2.24448e-06
-2.73065e-05 -3.93376e-05 -3.51256e-06
-2.24448e-06 -3.51256e-06 -4.595e-05
0.000834443 -2.82582e-05 -1.3794e-06
-2.82582e-05 5.20128e-06 -2.00024e-06
-1.3794e-06 -2.00024e-06 -3.13372e-05
0.00141779 8.15331e-05 -6.3077e-07
8.15331e-05 7.3087e-05 9.28682e-07
-6.3077e-07 9.28682e-07 -3.04083e-05
0.000918079 -1.34995e-05 -3.97335e-07
-1.34995e-05 4.96042e-05 -1.48191e-06
-3.97335e-07 -1.48191e-06 -1.27457e-05
0.000913544 2.9484e-05 -1.28762e-06
2.9484e-05 4.94129e-05 -5.79514e-07
-1.28762e-06 -5.79514e-07 -2.58542e-05
0.000892767 4.57586e-05 -4.255e-07
4.57586e-05 4.56657e-05 -3.85087e-07
-4.255e-07 -3.85087e-07 -3.7699e-05
0.00119318 9.86341e-05 -1.18439e-06
9.86341e-05 8.00167e-05 -1.05142e-06
-1.18439e-06 -1.05142e-06 -1.85994e-05
0.0013152 0.000101093 4.9105e-07
0.000101093 5.71293e-05 3.51504e-07
4.9105e-07 3.51504e-07 -4.99495e-05
0.000968155 8.393e-05 -7.69924e-07
8.393e-05 9.17353e-05 -3.36634e-07
-7.69924e-07 -3.36634e-07 -5.83967e-06
0.00120315 0.00010168 -2.209e-06
0.00010168 0.000176789 6.66086e-07
-2.209e-06 6.66086e-07 6.64682e-05
0.00138798 0.000107229 -2.69325e-06
0.000107229 0.000210349 -5.17484e-07
-2.69325e-06 -5.17484e-07 0.000114416
0.000836856 -2.25998e-05 4.83949e-08
-2.25998e-05 2.76806e-06 2.48905e-08
4.83949e-08 2.48905e-08 -3.03071e-05
0.000888146 -1.5975e-05 -5.00596e-08
-1.5975e-05 2.99587e-05 1.24983e-07
-5.00596e-08 1.24983e-07 -2.52592e-05
0.00101861 8.13464e-05 -3.58717e-07
8.13464e-05 0.000112571 -2.47327e-07
-3.58717e-07 -2.47327e-07 2.24298e-05
0.000945281 1.9976e-05 1.20138e-07
1.9976e-05 6.99978e-05 -1.52197e-08
1.20138e-07 -1.52197e-08 -5.47499e-06
0.000957333 5.79179e-05 6.32532e-08
5.79179e-05 8.78883e-05 -5.02753e-07
6.32532e-08 -5.02753e-07 -4.72735e-06
0.00145808 8.21861e-05 -7.3683e-07
8.21861e-05 6.61115e-05 -1.32244e-07
-7.3683e-07 -1.32244e-07 -3.66085e-05
0.00124913 0.00010596 9.1884e-07
0.00010596 8.58143e-05 -4.8978e-08
9.1884e-07 -4.8978e-08 -1.58019e-05
0.00123718 0.000106004 3.96402e-07
0.000106004 9.41467e-06 7.06054e-07
3.96402e-07 7.06054e-07 -8.72897e-05
0.000820222 8.18801e-05 5.18e-07
8.18801e-05 2.13608e-05 1.28067e-06
5.18e-07 1.28067e-06 -9.03794e-05
0.00122001 0.000108647 -2.9196e-07
0.000108647 0.000140806 -6.15827e-07
-2.9196e-07 -6.15827e-07 2.50081e-05
0.000878954 -1.33943e-05 5.63294e-07
-1.33943e-05 2.48115e-05 1.25626e-06
5.63294e-07 1.25626e-06 -2.54423e-05
0.000834627 3.20786e-06 3.54985e-07
3.20786e-06 6.70376e-06 1.47351e-06
3.54985e-07 1.47351e-06 -6.2573e-05
0.00112199 9.19129e-05 5.4661e-07
9.19129e-05 0.000176952 -3.45081e-07
5.4661e-07 -3.45081e-07 7.48152e-05
0.000869484 3.76467e-05 4.92606e-07
3.76467e-05 3.78313e-05 5.13893e-07
4.92606e-07 5.13893e-07 -5.06724e-05
0.00102138 6.70862e-05 4.22064e-07
6.70862e-05 0.000117444 -7.7803e-07
4.22064e-07 -7.7803e-07 1.87052e-05
0.00160057 8.22515e-05 -2.64886e-06
8.22515e-05 9.54996e-05 -3.26025e-07
-2.64886e-06 -3.26025e-07 1.29834e-05
0.00157883 0.000127917 1.33007e-06
0.000127917 0.000248499 -1.45145e-06
1.33007e-06 -1.45145e-06 0.000137677
0.000408892 8.6495e-05 6.82544e-07
8.6495e-05 -0.000439527 -2.10028e-06
6.82544e-07 -2.10028e-06 -0.000530714
0.00154691 0.000115534 3.95229e-06
0.000115534 0.000381786 3.16566e-06
3.95229e-06 3.16566e-06 0.000261005
9.37852e-05 6.90998e-05 1.01382e-06
6.90998e-05 -0.000435789 -7.069e-07
1.01382e-06 -7.069e-07 -0.00056342
0.000843461 -1.51353e-05 -1.25531e-06
-1.51353e-05 3.01734e-06 -1.86221e-06
-1.25531e-06 -1.86221e-06 -2.7494e-05
0.000811631 -1.17137e-05 1.33025e-07
-1.17137e-05 -1.08018e-05 5.44567e-07
1.33025e-07 5.44567e-07 -5.88016e-05
0.000811473 -1.29014e-05 3.17278e-07
-1.29014e-05 -7.18645e-06 1.20799e-06
3.17278e-07 1.20799e-06 -6.71815e-05
0.000771928 -2.16827e-05 -6.24297e-07
-2.16827e-05 -3.1972e-05 -8.87007e-07
-6.24297e-07 -8.87007e-07 -7.87708e-05
0.00089524 2.43696e-07 2.27348e-07
2.43696e-07 3.24345e-05 -3.87616e-08
2.27348e-07 -3.87616e-08 -1.28085e-05
0.000945208 -1.35938e-05 1.54672e-07
-1.35938e-05 6.44415e-05 -4.00947e-07
1.54672e-07 -4.00947e-07 7.55721e-06
0.0010526 5.35113e-06 3.31486e-07
5.35113e-06 0.000124954 2.60523e-07
3.31486e-07 2.60523e-07 6.01858e-05
0.000825328 -2.92064e-05 6.25158e-08
-2.92064e-05 3.16435e-06 8.20374e-07
6.25158e-08 8.20374e-07 -5.41077e-05
0.000906075 -1.92758e-05 1.88754e-08
-1.92758e-05 3.51868e-05 9.12439e-07
1.88754e-08 9.12439e-07 -8.58569e-06
0.000866965 2.39688e-06 7.35165e-07
2.39688e-06 4.75338e-06 1.65366e-06
7.35165e-07 1.65366e-06 -2.10072e-05
0.000867362 -8.03179e-06 -1.4067e-07
-8.03179e-06 6.17077e-06 2.2554e-08
-1.4067e-07 2.2554e-08 -1.9666e-05
0.00133127 -1.63038e-05 1.23695e-06
-1.63038e-05 0.000245413 1.95105e-06
1.23695e-06 1.95105e-06 0.000248817
0.00086342 -1.09429e-05 -5.86523e-07
-1.09429e-05 7.18115e-06 -1.84323e-06
-5.86523e-07 -1.84323e-06 -1.97155e-05
0.0013494 -2.0389e-05 -2.89693e-06
-2.0389e-05 0.000259095 -1.16236e-06
-2.89693e-06 -1.16236e-06 0.00026152
0.0010297 -1.75856e-05 1.36018e-05
-1.75856e-05 9.10101e-05 6.18014e-06
1.36018e-05 6.18014e-06 0.000107501
0.00137029 -2.38907e-05 -7.52873e-06
-2.38907e-05 0.000274869 -4.43057e-06
-7.52873e-06 -4.43057e-06 0.000275711
0.000986453 -2.24061e-05 5.56515e-06
-2.24061e-05 7.38121e-05 2.38548e-06
5.56515e-06 2.38548e-06 8.85737e-05
0.00211342 -3.99142e-05 -6.13272e-06
-3.99142e-05 0.000678033 -1.58568e-06
-6.13272e-06 -1.58568e-06 0.000696592
0.00076469 2.51245e-05 1.7418e-06
2.51245e-05 -4.09116e-05 -3.29324e-06
1.7418e-06 -3.29324e-06 -4.64435e-05
0.000770246 2.82967e-05 -1.13674e-07
2.82967e-05 -3.26888e-05 2.49899e-08
-1.13674e-07 2.49899e-08 -4.04894e-05
0.00226949 4.24858e-05 2.21997e-05
4.24858e-05 0.00076383 -3.65554e-06
2.21997e-05 -3.65554e-06 0.000780896
0.000781509 3.21362e-05 -2.87499e-06
3.21362e-05 -2.10627e-05 3.41582e-06
-2.87499e-06 3.41582e-06 -3.14769e-05
0.00232646 4.7746e-05 -8.83969e-07
4.7746e-05 0.000801367 -7.67956e-08
-8.83969e-07 -7.67956e-08 0.000816472
0.00243699 5.28158e-05 -3.12652e-05
5.28158e-05 0.000866986 3.55998e-06
-3.12652e-05 3.55998e-06 0.000879788
0.0015033 6.6431e-05 -1.35518e-06
6.6431e-05 8.05536e-05 7.62719e-07
-1.35518e-06 7.62719e-07 -1.94304e-05
0.00161311 2.80018e-05 -4.02984e-07
2.80018e-05 9.63895e-05 2.72875e-07
-4.02984e-07 2.72875e-07 -1.34688e-06
0.00159932 4.07515e-05 1.90072e-06
4.07515e-05 7.05177e-05 9.4721e-07
1.90072e-06 9.4721e-07 -2.01357e-05
0.00166135 3.82293e-06 1.48671e-08
3.82293e-06 8.66986e-05 -8.10569e-07
1.48671e-08 -8.10569e-07 -1.27188e-05
0.00158921 -7.77077e-07 -6.16221e-07
-7.77077e-07 4.4672e-05 -7.22335e-07
-6.16221e-07 -7.22335e-07 -6.47337e-05
0.00159449 1.57762e-05 -3.23702e-06
1.57762e-05 7.51336e-05 -3.73171e-07
-3.23702e-06 -3.73171e-07 -3.12748e-05
0.00167425 5.79618e-06 3.08472e-07
5.79618e-06 7.59573e-05 -5.12449e-07
3.08472e-07 -5.12449e-07 -3.59455e-05
0.00176945 8.07808e-06 -3.43747e-09
8.07808e-06 0.00012408 -5.65834e-07
-3.43747e-09 -5.65834e-07 1.64198e-05
0.00159535 1.94877e-05 8.68284e-08
1.94877e-05 5.73834e-05 4.18233e-07
8.68284e-08 4.18233e-07 -3.79159e-05
0.00170584 -1.03347e-07 1.6302e-07
-1.03347e-07 9.86932e-05 -5.9881e-07
1.6302e-07 -5.9881e-07 1.2973e-06
0.00151967 5.98088e-05 -5.06681e-07
5.98088e-05 5.42672e-05 7.22811e-08
-5.06681e-07 7.22811e-08 -3.99874e-05
0.00171678 3.3202e-05 1.16521e-06
3.3202e-05 0.000112866 -5.64504e-07
1.16521e-06 -5.64504e-07 2.54273e-05
0.00177728 1.3421e-05 -2.13538e-07
1.3421e-05 0.000104271 -7.38505e-08
-2.13538e-07 -7.38505e-08 -9.79367e-06
0.00176464 2.12546e-06 -9.07731e-07
2.12546e-06 0.000111255 5.29173e-07
-9.07731e-07 5.29173e-07 8.64519e-06
0.00168224 1.29049e-05 -1.53157e-07
1.29049e-05 7.97819e-05 4.03888e-08
-1.53157e-07 4.03888e-08 -1.29282e-05
0.00186089 5.37758e-05 -1.46106e-06
5.37758e-05 0.000189485 -9.05292e-07
-1.46106e-06 -9.05292e-07 0.0001023
0.00168787 6.7837e-06 -1.19058e-06
6.7837e-06 0.000100999 1.47703e-06
-1.19058e-06 1.47703e-06 -6.9258e-06
0.00178909 -1.80887e-05 -2.47584e-06
-1.80887e-05 0.000179709 4.56645e-08
-2.47584e-06 4.56645e-08 8.16405e-05
0.00161598 2.56632e-06 -1.50143e-06
2.56632e-06 6.76737e-05 8.54716e-07
-1.50143e-06 8.54716e-07 -3.44857e-05
0.00168772 -3.88452e-05 -1.56403e-07
-3.88452e-05 0.00010078 -1.75756e-07
-1.56403e-07 -1.75756e-07 4.23313e-06
0.0010474 -5.85035e-05 -1.3698e-06
-5.85035e-05 0.000113062 -4.32697e-07
-1.3698e-06 -4.32697e-07 3.56485e-05
0.000898191 -8.16578e-05 4.35336e-07
-8.16578e-05 3.91927e-05 -4.33284e-07
4.35336e-07 -4.33284e-07 -4.98839e-05
0.00109273 -9.9055e-05 -8.23784e-07
-9.9055e-05 0.000101666 1.18033e-06
-8.23784e-07 1.18033e-06 -9.05672e-06
0.0016367 -9.06281e-05 3.287e-07
-9.06281e-05 0.000158571 -2.19388e-07
3.287e-07 -2.19388e-07 5.97125e-05
0.00148715 -6.48554e-05 2.72006e-07
-6.48554e-05 9.47608e-06 1.87376e-06
2.72006e-07 1.87376e-06 -7.44064e-05
0.00138999 -9.31572e-05 2.66429e-06
-9.31572e-05 7.31917e-05 6.5776e-07
2.66429e-06 6.5776e-07 -1.73665e-05
0.00126212 -0.000108979 -1.06341e-06
-0.000108979 0.000108573 -9.22338e-07
-1.06341e-06 -9.22338e-07 -6.88138e-06
0.0012574 -9.89089e-05 -1.16745e-07
-9.89089e-05 3.82216e-05 -5.84038e-06
-1.16745e-07 -5.84038e-06 -5.41628e-05
0.0010725 -8.62754e-05 -3.4713e-07
-8.62754e-05 0.000130118 -1.22431e-06
-3.4713e-07 -1.22431e-06 4.45606e-05
0.00103833 -8.43645e-05 -4.72631e-07
-8.43645e-05 0.000118393 -1.92993e-06
-4.72631e-07 -1.92993e-06 2.92297e-05
0.000965864 -3.07286e-05 -1.3859e-07
-3.07286e-05 7.86668e-05 1.98124e-07
-1.3859e-07 1.98124e-07 -9.12508e-08
0.000601091 2.69666e-05 -9.85397e-07
2.69666e-05 -0.000123746 1.68054e-06
-9.85397e-07 1.68054e-06 -0.000160604
0.000829988 2.75124e-05 -1.18652e-07
2.75124e-05 -5.81964e-06 4.24208e-07
-1.18652e-07 4.24208e-07 -6.36062e-05
0.00167337 8.85829e-06 -4.74991e-07
8.85829e-06 7.30858e-05 4.62798e-07
-4.74991e-07 4.62798e-07 -3.46975e-05
0.00172857 -4.31216e-06 -2.05647e-07
-4.31216e-06 0.000113211 -1.93199e-07
-2.05647e-07 -1.93199e-07 1.18046e-05
0.00176969 -4.46246e-05 -1.41055e-06
-4.46246e-05 0.000119834 7.63851e-08
-1.41055e-06 7.63851e-08 2.50752e-05
0.00103841 -8.58304e-05 2.93253e-09
-8.58304e-05 0.00011174 1.77687e-07
2.93253e-09 1.77687e-07 2.58589e-05
0.000805131 -8.12062e-05 9.75112e-07
-8.12062e-05 -8.5579e-06 -8.65952e-07
9.75112e-07 -8.65952e-07 -0.00010624
0.00114229 -0.000107749 -7.2419e-08
-0.000107749 0.000107208 -2.47023e-07
-7.2419e-08 -2.47023e-07 -1.77489e-05
0.00150548 -7.949e-05 5.84097e-07
-7.949e-05 4.64903e-05 -7.54271e-07
5.84097e-07 -7.54271e-07 -4.30848e-05
0.00149203 -0.000118952 -1.93043e-07
-0.000118952 0.000195964 -2.4546e-07
-1.93043e-07 -2.4546e-07 7.95754e-05
0.00150318 -0.000102977 -9.11771e-07
-0.000102977 0.000104894 -4.98525e-07
-9.11771e-07 -4.98525e-07 1.92763e-05
0.000621145 2.20403e-05 5.35078e-08
2.20403e-05 -0.000116286 -5.85043e-07
5.35078e-08 -5.85043e-07 -0.000150407
0.00103483 -8.53082e-05 3.50118e-08
-8.53082e-05 0.00011165 9.47249e-08
3.50118e-08 9.47249e-08 2.46861e-05
0.000956297 -8.13624e-05 -6.02598e-07
-8.13624e-05 7.26184e-05 7.14562e-08
-6.02598e-07 7.14562e-08 -1.66266e-05
0.00107288 -6.58047e-05 -3.41478e-07
-6.58047e-05 0.000141321 7.90129e-07
-3.41478e-07 7.90129e-07 5.16437e-05
0.00103596 -2.69414e-05 3.40142e-09
-2.69414e-05 0.00011154 -3.56063e-09
3.40142e-09 -3.56063e-09 4.12113e-05
0.000884197 1.03972e-05 -1.77888e-07
1.03972e-05 2.45989e-05 1.82271e-07
-1.77888e-07 1.82271e-07 -2.96681e-05
0.0018429 1.05259e-05 4.09368e-07
1.05259e-05 0.000150085 -9.95457e-07
4.09368e-07 -9.95457e-07 4.36796e-05
0.00170414 -6.13414e-06 2.43975e-07
-6.13414e-06 7.12973e-05 1.62135e-07
2.43975e-07 1.62135e-07 -2.95585e-05
0.00140128 -5.17733e-05 2.28423e-06
-5.17733e-05 -7.23421e-05 -2.46563e-06
2.28423e-06 -2.46563e-06 -0.000169619
0.00168742 -9.57266e-05 2.24213e-07
-9.57266e-05 8.82268e-05 -1.38731e-06
2.24213e-07 -1.38731e-06 5.52782e-06
0.000979822 -8.4846e-05 -5.22765e-07
-8.4846e-05 8.37366e-05 1.28498e-06
-5.22765e-07 1.28498e-06 -5.4682e-06
0.00155319 -0.000119093 2.72092e-06
-0.000119093 0.000155898 3.28548e-06
2.72092e-06 3.28548e-06 4.78244e-05
0.000744794 -8.45392e-05 -5.10701e-07
-8.45392e-05 -4.62827e-05 -2.35259e-06
-5.10701e-07 -2.35259e-06 -0.000162192
0.00145676 -0.000125042 1.13019e-06
-0.000125042 0.00024889 1.00083e-06
1.13019e-06 1.00083e-06 0.000112581
0.000634655 1.81939e-05 8.19677e-07
1.81939e-05 -0.000111362 -2.28832e-06
8.19677e-07 -2.28832e-06 -0.000143331
0.00100332 -5.80791e-07 1.02085e-06
-5.80791e-07 8.82051e-05 -6.99879e-07
1.02085e-06 -6.99879e-07 3.75246e-05
0.00107376 -2.55778e-05 2.14402e-07
-2.55778e-05 0.000130684 6.29004e-07
2.14402e-07 6.29004e-07 6.43475e-05
0.00100045 -3.42004e-05 4.7367e-07
-3.42004e-05 9.83819e-05 -7.61028e-07
4.7367e-07 -7.61028e-07 1.61482e-05
0.00104927 -8.61957e-05 -1.80628e-07
-8.61957e-05 0.000117774 2.00763e-06
-1.80628e-07 2.00763e-06 2.8566e-05
0.000978453 -8.35919e-05 -3.75471e-07
-8.35919e-05 8.67735e-05 2.74822e-06
-3.75471e-07 2.74822e-06 -6.86356e-06
0.000836117 -2.15384e-05 -1.38365e-06
-2.15384e-05 2.49697e-06 -1.9057e-06
-1.38365e-06 -1.9057e-06 -3.04918e-05
0.000888573 -1.7854e-05 -4.5241e-07
-1.7854e-05 3.01826e-05 -1.32978e-06
-4.5241e-07 -1.32978e-06 -2.50031e-05
0.00147547 8.46477e-05 4.1327e-07
8.46477e-05 7.67862e-05 1.43176e-06
4.1327e-07 1.43176e-06 -2.64803e-05
0.000940714 1.41513e-05 -4.93107e-07
1.41513e-05 6.61473e-05 -8.13853e-07
-4.93107e-07 -8.13853e-07 -8.56122e-06
0.000979631 7.98814e-05 -6.69661e-07
7.98814e-05 9.43222e-05 -2.89574e-07
-6.69661e-07 -2.89574e-07 4.5782e-06
0.000889125 5.06062e-05 -9.22128e-07
5.06062e-05 5.13415e-05 -3.98137e-07
-9.22128e-07 -3.98137e-07 -4.11826e-05
0.00127105 0.000106599 -1.14619e-06
0.000106599 9.56928e-05 -1.06463e-06
-1.14619e-06 -1.06463e-06 -6.14831e-06
0.00133078 0.000107634 1.12397e-06
0.000107634 5.13763e-05 1.39035e-06
1.12397e-06 1.39035e-06 -4.38922e-05
0.000667031 7.55687e-05 -7.40756e-07
7.55687e-05 -5.70174e-05 4.94234e-08
-7.40756e-07 4.94234e-08 -0.000168986
0.00123802 0.00010939 -2.21985e-06
0.00010939 0.000151563 4.88889e-07
-2.21985e-06 4.88889e-07 3.34185e-05
0.000879384 -1.5915e-05 -7.60445e-08
-1.5915e-05 2.48388e-05 9.37731e-08
-7.60445e-08 9.37731e-08 -2.54108e-05
0.000879364 7.24005e-06 1.09767e-07
7.24005e-06 3.00886e-05 5.3788e-07
1.09767e-07 5.3788e-07 -3.90632e-05
0.0010913 9.03871e-05 -9.11711e-08
9.03871e-05 0.000163949 -8.22722e-07
-9.11711e-08 -8.22722e-07 6.26928e-05
0.00091901 2.48472e-05 -1.30199e-07
2.48472e-05 6.14901e-05 -1.74638e-08
-1.30199e-07 -1.74638e-08 -2.50602e-05
0.000951274 6.28446e-05 -1.08921e-06
6.28446e-05 8.3826e-05 -7.54643e-07
-1.08921e-06 -7.54643e-07 -1.49241e-05
0.00174725 8.40384e-05 -1.57001e-06
8.40384e-05 0.000162723 2.11309e-08
-1.57001e-06 2.11309e-08 7.92097e-05
0.00157051 0.000126983 1.26656e-06
0.000126983 0.000238587 7.04094e-08
1.26656e-06 7.04094e-08 0.000129064
0.000868837 0.000100343 -7.50529e-07
0.000100343 -0.000196643 9.87179e-07
-7.50529e-07 9.87179e-07 -0.000284195
0.0012328 0.000102662 1.26314e-06
0.000102662 0.000222377 1.40709e-06
1.26314e-06 1.40709e-06 0.000101434
0.000640735 9.19305e-05 -1.37308e-06
9.19305e-05 -0.000157258 -5.53305e-07
-1.37308e-06 -5.53305e-07 -0.000289822
0.000833571 -1.78138e-06 4.52477e-07
-1.78138e-06 3.73646e-06 1.32213e-06
4.52477e-07 1.32213e-06 -5.90737e-05
0.000841669 3.6547e-05 5.27769e-07
3.6547e-05 1.87572e-05 4.07601e-07
5.27769e-07 4.07601e-07 -6.49548e-05
0.00108448 9.10871e-05 1.23601e-06
9.10871e-05 0.000162283 9.17679e-08
1.23601e-06 9.17679e-08 5.16674e-05
0.000674697 4.90995e-05 7.19871e-07
4.90995e-05 -6.00357e-05 6.30155e-07
7.19871e-07 6.30155e-07 -0.000161174
0.00222312 6.04582e-05 -5.83183e-07
6.04582e-05 0.000330715 7.55869e-07
-5.83183e-07 7.55869e-07 0.00024789
0.00133223 0.000100664 2.1802e-06
0.000100664 -8.1865e-05 -1.48747e-06
2.1802e-06 -1.48747e-06 -0.000152358
0.00132566 0.000126912 2.13634e-06
0.000126912 0.000105866 -2.9298e-06
2.13634e-06 -2.9298e-06 -1.88769e-05
0.000467247 7.65566e-05 1.3892e-06
7.65566e-05 -0.000181931 1.71129e-06
1.3892e-06 1.71129e-06 -0.000325808
0.000886978 4.75724e-06 -4.73359e-07
4.75724e-06 3.07535e-05 -6.41718e-07
-4.73359e-07 -6.41718e-07 -1.81742e-05
0.000900863 4.85717e-07 -3.87424e-08
4.85717e-07 4.06436e-05 3.78917e-07
-3.87424e-08 3.78917e-07 -1.9672e-05
0.000974174 -6.98886e-07 3.6046e-07
-6.98886e-07 8.11048e-05 8.81276e-07
3.6046e-07 8.81276e-07 1.31421e-05
0.000893645 -8.58003e-06 -5.95162e-07
-8.58003e-06 3.03501e-05 -9.15469e-07
-5.95162e-07 -9.15469e-07 -1.40222e-05
0.000790155 -2.24159e-05 3.97715e-08
-2.24159e-05 -1.7298e-05 -1.04612e-06
3.97715e-08 -1.04612e-06 -7.49034e-05
0.000898625 -1.10876e-05 1.41999e-07
-1.10876e-05 3.10075e-05 3.00733e-08
1.41999e-07 3.00733e-08 -1.25735e-05
0.000973909 1.52595e-05 -9.5762e-08
1.52595e-05 8.5512e-05 -3.36647e-07
-9.5762e-08 -3.36647e-07 1.8287e-05
0.000851083 -1.13453e-05 1.64993e-07
-1.13453e-05 1.83729e-05 3.13519e-07
1.64993e-07 3.13519e-07 -3.97069e-05
0.00101333 5.81705e-06 4.22005e-07
5.81705e-06 0.000105827 4.57871e-07
4.22005e-07 4.57871e-07 3.38538e-05
0.000823731 -2.99385e-05 -2.10144e-07
-2.99385e-05 6.39938e-06 9.19396e-07
-2.10144e-07 9.19396e-07 -5.92144e-05
0.000799753 2.12912e-05 4.01581e-07
2.12912e-05 -7.85465e-06 9.99353e-07
4.01581e-07 9.99353e-07 -6.58315e-05
0.000913978 -4.69573e-06 6.92811e-08
-4.69573e-06 3.75148e-05 8.16919e-07
6.92811e-08 8.16919e-07 -5.69997e-06
0.00085672 5.90163e-06 6.39144e-07
5.90163e-06 -2.52712e-07 1.60306e-06
6.39144e-07 1.60306e-06 -2.66201e-05
0.000863524 -4.66316e-06 -2.67263e-07
-4.66316e-06 3.04418e-06 1.21953e-08
-2.67263e-07 1.21953e-08 -2.2758e-05
0.00133325 -1.07081e-05 1.01673e-06
-1.07081e-05 0.000243821 1.87287e-06
1.01673e-06 1.87287e-06 0.000247519
0.000858283 -1.31695e-05 -2.25899e-07
-1.31695e-05 1.55185e-06 -1.75516e-06
-2.25899e-07 -1.75516e-06 -2.43094e-05
0.00134912 -1.5145e-05 -2.28513e-06
-1.5145e-05 0.000254872 -1.18173e-06
-2.28513e-06 -1.18173e-06 0.000258245
0.00102775 -1.36256e-05 1.06314e-05
-1.36256e-05 8.60211e-05 6.20016e-06
1.06314e-05 6.20016e-06 0.000103222
0.00136464 -1.9454e-05 -5.69445e-06
-1.9454e-05 0.0002669 -4.32612e-06
-5.69445e-06 -4.32612e-06 0.000269421
0.000982809 -1.85031e-05 4.13006e-06
-1.85031e-05 6.63227e-05 2.36033e-06
4.13006e-06 2.36033e-06 8.27573e-05
0.000929573 -2.27872e-05 -2.33917e-06
-2.27872e-05 4.41301e-05 -1.62742e-06
-2.33917e-06 -1.62742e-06 5.88625e-05
0.000775351 2.18253e-05 1.29904e-06
2.18253e-05 -4.06218e-05 -3.24786e-06
1.29904e-06 -3.24786e-06 -4.3923e-05
0.000779415 2.52911e-05 -1.53777e-07
2.52911e-05 -3.33246e-05 2.14354e-08
-1.53777e-07 2.14354e-08 -3.89245e-05
0.00221689 3.67613e-05 1.8974e-05
3.67613e-05 0.000729969 -3.72737e-06
1.8974e-05 -3.72737e-06 0.000748718
0.000789206 2.86308e-05 -2.47775e-06
2.86308e-05 -2.30046e-05 3.3051e-06
-2.47775e-06 3.3051e-06 -3.08861e-05
0.00227492 4.24121e-05 -9.85376e-07
4.24121e-05 0.00076752 -7.08807e-08
-9.85376e-07 -7.08807e-08 0.000784405
0.00233784 4.74418e-05 -2.75424e-05
4.74418e-05 0.000808202 3.59606e-06
-2.75424e-05 3.59606e-06 0.000823125
0.00157814 6.15624e-05 1.52055e-06
6.15624e-05 8.39935e-05 2.07585e-06
1.52055e-06 2.07585e-06 -1.02011e-05
0.0015815 1.76661e-05 2.90111e-07
1.76661e-05 4.93575e-05 3.8084e-08
2.90111e-07 3.8084e-08 -4.62916e-05
0.00155225 3.24605e-05 2.06586e-06
3.24605e-05 3.0303e-05 -9.83316e-07
2.06586e-06 -9.83316e-07 -5.63209e-05
0.00166259 -2.14474e-07 7.90531e-07
-2.14474e-07 7.41355e-05 -4.53101e-07
7.90531e-07 -4.53101e-07 -2.22942e-05
0.00176521 5.22995e-06 7.10706e-07
5.22995e-06 0.000124597 -1.77653e-06
7.10706e-07 -1.77653e-06 1.7104e-05
0.00170847 4.47135e-06 -9.37648e-07
4.47135e-06 9.25328e-05 -3.10544e-07
-9.37648e-07 -3.10544e-07 -1.98551e-05
0.00178497 1.49465e-05 -1.33091e-07
1.49465e-05 0.000113897 1.76119e-09
-1.33091e-07 1.76119e-09 1.31993e-06
0.00173907 -2.04064e-06 3.77683e-07
-2.04064e-06 9.92987e-05 -8.07838e-07
3.77683e-07 -8.07838e-07 -3.5276e-06
0.00168568 1.3123e-05 4.25434e-07
1.3123e-05 8.25037e-05 2.03898e-08
4.25434e-07 2.03898e-08 -9.98192e-06
0.0016531 4.87966e-05 -2.82437e-08
4.87966e-05 8.19908e-05 -3.27844e-07
-2.82437e-08 -3.27844e-07 -4.90597e-06
0.00184447 8.79155e-06 -1.22836e-06
8.79155e-06 0.000139775 9.61661e-07
-1.22836e-06 9.61661e-07 3.0991e-05
0.00176775 -5.67509e-06 -6.74564e-07
-5.67509e-06 9.78287e-05 7.71269e-08
-6.74564e-07 7.71269e-08 3.91588e-06
0.00180141 3.01693e-05 3.19677e-07
3.01693e-05 0.000130648 7.35599e-07
3.19677e-07 7.35599e-07 4.05564e-05
0.00166965 8.14224e-06 -1.00127e-06
8.14224e-06 7.39364e-05 1.68867e-06
-1.00127e-06 1.68867e-06 -3.26818e-05
0.00177548 -5.43637e-06 -8.70658e-07
-5.43637e-06 0.000138138 1.74124e-07
-8.70658e-07 1.74124e-07 3.64332e-05
0.00187309 -4.62819e-05 -1.10666e-06
-4.62819e-05 0.000175448 9.73125e-07
-1.10666e-06 9.73125e-07 8.18847e-05
0.00110617 -8.8218e-05 -3.53401e-07
-8.8218e-05 0.000144877 -6.54093e-07
-3.53401e-07 -6.54093e-07 5.88919e-05
0.00118274 -9.68418e-05 2.40527e-07
-9.68418e-05 0.000182537 1.16479e-08
2.40527e-07 1.16479e-08 8.54675e-05
0.00112203 -0.000106112 -1.50773e-06
-0.000106112 0.00010055 1.62381e-06
-1.50773e-06 1.62381e-06 -2.5053e-05
0.00162497 -8.12808e-05 -3.12838e-07
-8.12808e-05 0.000103538 3.39246e-07
-3.12838e-07 3.39246e-07 1.27397e-05
0.00113446 -9.58958e-05 -2.38795e-06
-9.58958e-05 -7.84051e-05 -9.95786e-07
-2.38795e-06 -9.95786e-07 -0.000163787
0.00144845 -0.00011522 -2.1533e-06
-0.00011522 0.000174259 -3.23157e-06
-2.1533e-06 -3.23157e-06 6.09896e-05
0.0010687 -8.67672e-05 6.04852e-08
-8.67672e-05 0.000128535 -1.64687e-06
6.04852e-08 -1.64687e-06 4.1449e-05
0.000924622 -7.95824e-05 -1.61172e-06
-7.95824e-05 5.773e-05 -2.11304e-06
-1.61172e-06 -2.11304e-06 -3.07193e-05
0.00105042 -6.9895e-05 1.26872e-07
-6.9895e-05 0.000131887 -1.04588e-07
1.26872e-07 -1.04588e-07 4.06808e-05
0.0006055 2.34221e-05 -9.3188e-07
2.34221e-05 -0.000124488 1.02458e-06
-9.3188e-07 1.02458e-06 -0.000158357
0.00106227 -2.01456e-05 -1.09674e-07
-2.01456e-05 0.000124365 2.53526e-07
-1.09674e-07 2.53526e-07 5.49152e-05
0.000769875 2.23201e-05 -5.18455e-08
2.23201e-05 -3.68337e-05 1.03506e-06
-5.18455e-08 1.03506e-06 -9.08013e-05
0.00177235 1.046e-05 6.95889e-08
1.046e-05 0.000112824 -4.69628e-07
6.95889e-08 -4.69628e-07 5.39264e-06
0.00171376 -7.97888e-06 6.14207e-07
-7.97888e-06 7.70298e-05 -3.17333e-07
6.14207e-07 -3.17333e-07 -2.40769e-05
0.00157462 -5.34853e-05 3.66605e-07
-5.34853e-05 1.01435e-05 -7.24037e-07
3.66605e-07 -7.24037e-07 -8.73452e-05
0.00104599 -8.75971e-05 2.79189e-09
-8.75971e-05 0.000116194 5.64979e-07
2.79189e-09 5.64979e-07 2.65756e-05
0.000819756 -8.68896e-05 -1.2261e-07
-8.68896e-05 -2.92119e-06 2.10185e-07
-1.2261e-07 2.10185e-07 -0.000116381
0.00156798 -0.000129113 -1.7154e-06
-0.000129113 0.00030367 1.34558e-06
-1.7154e-06 1.34558e-06 0.000167123
0.00171657 -9.84793e-05 -1.4813e-06
-9.84793e-05 0.000109442 1.20779e-06
-1.4813e-06 1.20779e-06 2.6266e-05
0.00144212 -0.000115619 1.21078e-06
-0.000115619 9.64419e-05 -7.06199e-07
1.21078e-06 -7.06199e-07 -1.10281e-05
0.000739811 1.82426e-05 1.41507e-07
1.82426e-05 -5.62939e-05 -5.70155e-07
1.41507e-07 -5.70155e-07 -8.72522e-05
0.000987856 1.13178e-05 -3.20379e-07
1.13178e-05 7.98876e-05 1.50139e-07
-3.20379e-07 1.50139e-07 2.95684e-05
0.000896956 -7.97322e-05 -8.2639e-07
-7.97322e-05 4.01925e-05 1.86118e-07
-8.2639e-07 1.86118e-07 -4.86758e-05
0.00101635 -8.46986e-05 8.42698e-07
-8.46986e-05 0.000105706 4.66336e-07
8.42698e-07 4.66336e-07 1.33093e-05
0.000962477 -3.35132e-05 -7.75435e-08
-3.35132e-05 7.89033e-05 -2.75122e-07
-7.75435e-08 -2.75122e-07 -3.80299e-06
0.00101202 -2.32027e-05 -5.27425e-07
-2.32027e-05 9.85507e-05 8.76134e-07
-5.27425e-07 8.76134e-07 3.18561e-05
0.00176723 1.38521e-05 -2.36864e-06
1.38521e-05 9.68174e-05 -1.86317e-07
-2.36864e-06 -1.86317e-07 -7.04433e-06
0.00179434 -1.94569e-05 3.59508e-07
-1.94569e-05 9.66974e-05 1.20096e-06
3.59508e-07 1.20096e-06 -4.18372e-06
0.00175565 -7.54769e-05 2.85087e-06
-7.54769e-05 5.99931e-05 -4.00666e-06
2.85087e-06 -4.00666e-06 -2.91558e-05
0.00196459 -0.000126154 1.05797e-06
-0.000126154 0.000230282 -3.40061e-07
1.05797e-06 -3.40061e-07 0.000143657
0.000768841 -7.72566e-05 -1.36445e-06
-7.72566e-05 -1.03568e-05 1.00198e-06
-1.36445e-06 1.00198e-06 -0.000106598
0.0013963 -0.000127611 2.0972e-07
-0.000127611 0.000173867 3.51346e-06
2.0972e-07 3.51346e-06 2.34915e-05
0.00152545 -0.000121437 5.10937e-07
-0.000121437 0.000345274 -2.60687e-06
5.10937e-07 -2.60687e-06 0.000215702
0.000860824 1.46799e-05 6.23815e-07
1.46799e-05 4.49962e-06 -1.63196e-06
6.23815e-07 -1.63196e-06 -2.34054e-05
0.000876048 -3.84254e-05 8.68674e-07
-3.84254e-05 2.60883e-05 -8.55696e-07
8.68674e-07 -8.55696e-07 -2.00687e-05
0.000757292 1.15003e-05 3.72889e-07
1.15003e-05 -3.8698e-05 -1.44421e-06
3.72889e-07 -1.44421e-06 -8.96608e-05
0.000972203 -2.64669e-05 7.52375e-07
-2.64669e-05 7.89157e-05 -1.69609e-08
7.52375e-07 -1.69609e-08 1.47604e-05
0.000967115 2.84689e-06 -1.63661e-07
2.84689e-06 7.76333e-05 -1.82359e-07
-1.63661e-07 -1.82359e-07 3.35597e-06
0.000892261 -8.16926e-05 2.04052e-06
-8.16926e-05 5.76461e-05 1.66576e-06
2.04052e-06 1.66576e-06 -4.0266e-05
0.00080738 -7.60465e-05 -1.38692e-06
-7.60465e-05 -2.06405e-05 2.20991e-06
-1.38692e-06 2.20991e-06 -0.000105384
0.00168509 -0.000116307 -9.41076e-07
-0.000116307 0.000462349 2.64732e-06
-9.41076e-07 2.64732e-06 0.000366682
0.000887619 -1.87303e-05 -4.34592e-07
-1.87303e-05 2.89728e-05 -1.20447e-06
-4.34592e-07 -1.20447e-06 -2.12983e-05
0.000923704 1.20509e-05 -4.30699e-07
1.20509e-05 5.32799e-05 -3.96357e-07
-4.30699e-07 -3.96357e-07 -1.57683e-05
0.00187087 8.53462e-05 6.49452e-07
8.53462e-05 0.000218392 6.29142e-07
6.49452e-07 6.29142e-07 0.000133904
0.000959139 2.56864e-05 -6.55581e-07
2.56864e-05 8.2725e-05 -6.19355e-07
-6.55581e-07 -6.19355e-07 -3.6074e-06
0.00106606 8.911e-05 -9.99205e-07
8.911e-05 0.000153724 -1.95556e-06
-9.99205e-07 -1.95556e-06 5.33299e-05
0.000872417 5.90133e-05 -1.89296e-06
5.90133e-05 4.58728e-05 -4.24203e-07
-1.89296e-06 -4.24203e-07 -5.29304e-05
0.0015632 0.000126011 -3.26912e-07
0.000126011 0.000228971 8.20692e-07
-3.26912e-07 8.20692e-07 0.000120785
0.00136881 0.000115485 1.50025e-06
0.000115485 6.59605e-05 4.86504e-06
1.50025e-06 4.86504e-06 -1.79752e-05
0.000920691 8.97622e-05 -4.22281e-07
8.97622e-05 6.40455e-05 2.77361e-07
-4.22281e-07 2.77361e-07 -5.70552e-05
0.00114904 0.000113101 -4.42205e-06
0.000113101 0.000101154 -7.06025e-07
-4.42205e-06 -7.06025e-07 -3.61652e-05
0.000831216 7.77155e-06 2.20358e-07
7.77155e-06 4.12844e-06 4.78341e-07
2.20358e-07 4.78341e-07 -6.03598e-05
0.000882006 4.20041e-05 -1.56022e-07
4.20041e-05 4.07677e-05 -7.07842e-07
-1.56022e-07 -7.07842e-07 -4.30252e-05
0.00108288 9.10456e-05 -4.71134e-07
9.10456e-05 0.000163218 -1.00767e-06
-4.71134e-07 -1.00767e-06 5.31586e-05
0.000897907 5.57452e-05 -2.46828e-07
5.57452e-05 5.46091e-05 -2.19928e-07
-2.46828e-07 -2.19928e-07 -4.62514e-05
0.00207392 5.57523e-05 -2.42719e-07
5.57523e-05 0.000251547 1.07375e-06
-2.42719e-07 1.07375e-06 0.000166533
0.00136507 0.000100809 1.53846e-06
0.000100809 -5.3052e-05 -1.38099e-06
1.53846e-06 -1.38099e-06 -0.000124485
0.00167793 0.000138805 -1.84145e-06
0.000138805 0.000279952 -1.31276e-07
-1.84145e-06 -1.31276e-07 0.00015779
0.000755892 9.11099e-05 8.17551e-07
9.11099e-05 -4.36644e-05 4.47075e-07
8.17551e-07 4.47075e-07 -0.000186587
0.000969055 1.20667e-05 4.04502e-07
1.20667e-05 7.93506e-05 4.48587e-07
4.04502e-07 4.48587e-07 6.94021e-06
0.00159457 2.19275e-05 -1.54609e-06
2.19275e-05 1.02816e-05 -9.31184e-07
-1.54609e-06 -9.31184e-07 -7.2831e-05
0.00111701 7.83319e-05 4.75614e-07
7.83319e-05 0.000175183 1.45493e-06
4.75614e-07 1.45493e-06 7.74363e-05
0.00109184 9.35483e-05 9.64899e-07
9.35483e-05 0.000152105 1.34622e-06
9.64899e-07 1.34622e-06 3.31141e-05
0.00231105 8.81549e-05 1.53383e-06
8.81549e-05 0.000303463 3.02826e-07
1.53383e-06 3.02826e-07 0.000233518
0.0015559 0.000136559 4.49079e-06
0.000136559 8.22847e-05 -4.09145e-06
4.49079e-06 -4.09145e-06 -2.45813e-05
0.00172934 0.000138722 1.25787e-06
0.000138722 0.000408198 1.64761e-06
1.25787e-06 1.64761e-06 0.000252175
0.000989129 2.25908e-06 -9.30398e-07
2.25908e-06 8.58477e-05 -4.23751e-07
-9.30398e-07 -4.23751e-07 2.65171e-05
0.000977495 -1.1275e-06 -1.72779e-08
-1.1275e-06 8.27756e-05 5.3249e-08
-1.72779e-08 5.3249e-08 1.4805e-05
0.0009788 5.2192e-06 4.74115e-07
5.2192e-06 8.74271e-05 9.45607e-07
4.74115e-07 9.45607e-07 1.14218e-05
0.000895697 -9.52685e-06 -1.01183e-07
-9.52685e-06 3.00822e-05 -8.7792e-07
-1.01183e-07 -8.7792e-07 -1.38555e-05
0.000892323 -3.02296e-06 8.36724e-08
-3.02296e-06 4.07578e-05 -1.46327e-07
8.36724e-08 -1.46327e-07 -1.75601e-05
0.000891685 9.21041e-06 -3.94016e-07
9.21041e-06 4.23537e-05 -1.18829e-06
-3.94016e-07 -1.18829e-06 -2.60434e-05
0.000902854 -1.83206e-05 -7.57685e-08
-1.83206e-05 3.30182e-05 2.26687e-08
-7.57685e-08 2.26687e-08 -1.10317e-05
0.000809603 -1.22929e-05 -4.14906e-07
-1.22929e-05 -4.09464e-06 3.92289e-07
-4.14906e-07 3.92289e-07 -6.11976e-05
0.000979994 -5.03515e-06 1.99778e-07
-5.03515e-06 8.74606e-05 -3.93268e-07
1.99778e-07 -3.93268e-07 1.4778e-05
0.000931568 3.29559e-06 6.59135e-08
3.29559e-06 6.49787e-05 4.58663e-07
6.59135e-08 4.58663e-07 -1.35448e-06
0.000984469 1.06423e-05 4.58397e-07
1.06423e-05 9.10293e-05 7.61747e-08
4.58397e-07 7.61747e-08 1.35937e-05
0.000861668 -2.25346e-05 9.71167e-08
-2.25346e-05 2.64934e-05 7.7437e-07
9.71167e-08 7.7437e-07 -4.5506e-05
0.000976771 1.08998e-05 2.46967e-07
1.08998e-05 8.64498e-05 2.09087e-07
2.46967e-07 2.09087e-07 2.27353e-05
0.000908797 8.14554e-06 8.9963e-07
8.14554e-06 4.8196e-05 6.17961e-07
8.9963e-07 6.17961e-07 -9.13131e-06
0.000911832 1.13666e-06 1.31117e-07
1.13666e-06 3.62885e-05 7.62861e-07
1.31117e-07 7.62861e-07 -7.35411e-06
0.000852644 9.39954e-06 3.78724e-07
9.39954e-06 -1.46288e-06 1.57947e-06
3.78724e-07 1.57947e-06 -2.84781e-05
0.000858795 -1.21582e-06 -1.66515e-07
-1.21582e-06 8.501e-07 3.79625e-09
-1.66515e-07 3.79625e-09 -2.55245e-05
0.00133948 -5.24653e-06 7.56604e-07
-5.24653e-06 0.000245862 1.83437e-06
7.56604e-07 1.83437e-06 0.000249326
0.000863002 -1.15313e-05 -1.87769e-07
-1.15313e-05 2.85848e-06 -1.62904e-06
-1.87769e-07 -1.62904e-06 -2.29851e-05
0.00135647 -9.73421e-06 -1.67867e-06
-9.73421e-06 0.000256375 -1.19993e-06
-1.67867e-06 -1.19993e-06 0.000259908
0.00103353 -9.44466e-06 7.80684e-06
-9.44466e-06 8.65182e-05 6.26645e-06
7.80684e-06 6.26645e-06 0.000103913
0.00137023 -1.43686e-05 -4.19408e-06
-1.43686e-05 0.000266028 -4.25568e-06
-4.19408e-06 -4.25568e-06 0.000269316
0.000990587 -1.42194e-05 2.88422e-06
-1.42194e-05 6.60269e-05 2.37111e-06
2.88422e-06 2.37111e-06 8.33194e-05
0.000935607 -1.86344e-05 -1.72468e-06
-1.86344e-05 4.14333e-05 -1.57197e-06
-1.72468e-06 -1.57197e-06 5.79319e-05
0.000857849 1.10121e-05 3.50381e-07
1.10121e-05 4.21332e-07 -1.59143e-06
3.50381e-07 -1.59143e-06 -2.5324e-05
0.000786651 1.78636e-05 1.03488e-06
1.78636e-05 -3.97288e-05 -3.15635e-06
1.03488e-06 -3.15635e-06 -4.09373e-05
0.000791122 2.20685e-05 -1.27012e-07
2.20685e-05 -3.2428e-05 2.68925e-08
-1.27012e-07 2.68925e-08 -3.58233e-05
0.00216285 3.07358e-05 1.58003e-05
3.07358e-05 0.000695946 -3.76732e-06
1.58003e-05 -3.76732e-06 0.000716307
0.000795683 2.54966e-05 -2.06072e-06
2.54966e-05 -2.48903e-05 3.25272e-06
-2.06072e-06 3.25272e-06 -3.05698e-05
0.00222498 3.68032e-05 -1.19516e-06
3.68032e-05 0.000735045 -6.3757e-08
-1.19516e-06 -6.3757e-08 0.000753596
0.00227749 4.21914e-05 -2.41866e-05
4.21914e-05 0.000769722 3.69511e-06
-2.41866e-05 3.69511e-06 0.000786455
0.00145109 4.38387e-05 6.67741e-07
4.38387e-05 -2.24809e-05 -2.93262e-07
6.67741e-07 -2.93262e-07 -0.000109105
0.00169053 1.32629e-05 6.99952e-07
1.32629e-05 8.59122e-05 5.72368e-09
6.99952e-07 5.72368e-09 -6.3436e-06
0.00172765 -2.38544e-06 1.01004e-06
-2.38544e-06 9.41153e-05 -1.99053e-06
1.01004e-06 -1.99053e-06 -8.83546e-06
0.00178095 1.68949e-05 2.22382e-07
1.68949e-05 0.000117675 -1.02164e-07
2.22382e-07 -1.02164e-07 6.62066e-06
0.00179549 9.24763e-06 2.68313e-08
9.24763e-06 0.0001147 6.27126e-07
2.68313e-08 6.27126e-07 5.73651e-06
0.00178421 -5.17342e-06 -2.632e-08
-5.17342e-06 0.000104884 -4.94531e-07
-2.632e-08 -4.94531e-07 1.10238e-05
0.00171655 3.04076e-05 3.93884e-07
3.04076e-05 8.82088e-05 4.41443e-07
3.93884e-07 4.41443e-07 -2.08658e-06
0.00177503 1.76615e-06 -1.29558e-06
1.76615e-06 9.5769e-05 1.27795e-06
-1.29558e-06 1.27795e-06 -4.19771e-06
0.00184875 4.0956e-06 -1.77819e-06
4.0956e-06 0.000136567 -1.45395e-07
-1.77819e-06 -1.45395e-07 4.77944e-05
0.00165462 8.55532e-07 -7.41548e-07
8.55532e-07 1.90231e-05 1.89349e-07
-7.41548e-07 1.89349e-07 -6.00928e-05
0.00172791 1.06514e-05 5.66195e-07
1.06514e-05 8.84978e-05 6.54439e-07
5.66195e-07 6.54439e-07 -1.99156e-05
0.00174842 -9.95505e-06 -3.74503e-07
-9.95505e-06 9.54699e-05 -2.25067e-07
-3.74503e-07 -2.25067e-07 -5.89478e-06
0.00176287 -5.54495e-05 -2.03499e-06
-5.54495e-05 0.000100391 1.00377e-10
-2.03499e-06 1.00377e-10 2.63578e-06
0.00110897 -9.02124e-05 -1.2607e-07
-9.02124e-05 0.000147155 1.0026e-07
-1.2607e-07 1.0026e-07 5.71161e-05
0.000863195 -8.80817e-05 6.05815e-07
-8.80817e-05 2.36161e-05 2.62073e-06
6.05815e-07 2.62073e-06 -8.72331e-05
0.0016033 -0.000129989 -2.37266e-06
-0.000129989 0.000318493 2.66236e-06
-2.37266e-06 2.66236e-06 0.000182669
0.00173072 -0.000100899 2.41006e-06
-0.000100899 0.000123557 3.61885e-06
2.41006e-06 3.61885e-06 3.99426e-05
0.00127226 -0.00011003 -2.43187e-06
-0.00011003 7.03231e-06 -2.94239e-06
-2.43187e-06 -2.94239e-06 -9.96622e-05
0.000746567 -7.34446e-05 -1.13642e-06
-7.34446e-05 -3.66849e-05 -1.13676e-06
-1.13642e-06 -1.13676e-06 -0.000125192
0.00108753 -8.70649e-05 1.59133e-06
-8.70649e-05 0.000141372 -2.72775e-06
1.59133e-06 -2.72775e-06 5.016e-05
0.000926729 -3.90399e-06 -3.6024e-08
-3.90399e-06 5.61689e-05 -3.9254e-07
-3.6024e-08 -3.9254e-07 -2.39542e-05
0.000847749 1.7915e-05 -7.90882e-07
1.7915e-05 7.31152e-08 1.10497e-06
-7.90882e-07 1.10497e-06 -2.98539e-05
0.00097605 2.59835e-05 -5.54876e-07
2.59835e-05 7.38109e-05 9.37765e-07
-5.54876e-07 9.37765e-07 2.36121e-05
0.000954436 -1.34685e-05 -6.44494e-07
-1.34685e-05 6.88322e-05 1.17873e-06
-6.44494e-07 1.17873e-06 1.59756e-06
0.00184483 1.48055e-05 2.40678e-07
1.48055e-05 0.000137915 2.51058e-07
2.40678e-07 2.51058e-07 3.56394e-05
0.000860128 1.39541e-05 1.13617e-08
1.39541e-05 3.7763e-06 1.45116e-08
1.13617e-08 1.45116e-08 -2.40922e-05
0.000805185 -2.84013e-06 -3.75884e-07
-2.84013e-06 -1.37712e-05 6.13835e-08
-3.75884e-07 6.13835e-08 -5.85543e-05
0.00183726 -2.0042e-05 -7.04411e-08
-2.0042e-05 0.000116968 -7.81217e-07
-7.04411e-08 -7.81217e-07 1.53847e-05
0.00167813 -7.54098e-05 8.77915e-08
-7.54098e-05 2.70953e-05 -1.09644e-06
8.77915e-08 -1.09644e-06 -6.50954e-05
0.000798818 -7.81025e-05 1.65438e-07
-7.81025e-05 6.974e-06 1.50032e-06
1.65438e-07 1.50032e-06 -8.77506e-05
0.00140615 -0.0001166 -8.40178e-07
-0.0001166 0.000284504 4.68514e-07
-8.40178e-07 4.68514e-07 0.000151211
0.00124995 -0.000119699 8.71727e-07
-0.000119699 9.45609e-05 1.16962e-06
8.71727e-07 1.16962e-06 -4.89639e-05
0.00180277 -0.000122805 3.99818e-07
-0.000122805 0.000154057 -4.79352e-08
3.99818e-07 -4.79352e-08 6.79399e-05
0.000939378 -8.636e-06 9.15106e-07
-8.636e-06 5.70307e-05 -4.79254e-07
9.15106e-07 -4.79254e-07 7.4921e-06
0.000953076 -1.40178e-05 -4.63132e-07
-1.40178e-05 7.01462e-05 4.36558e-07
-4.63132e-07 4.36558e-07 5.37458e-06
0.000940751 -8.16953e-05 3.34327e-07
-8.16953e-05 4.5042e-05 5.8688e-07
3.34327e-07 5.8688e-07 -4.16138e-05
0.0012583 -9.80317e-05 3.30587e-07
-9.80317e-05 0.000241269 -8.70068e-07
3.30587e-07 -8.70068e-07 0.000151865
0.000836213 -5.99201e-05 3.89426e-08
-5.99201e-05 2.71635e-05 2.92055e-07
3.89426e-08 2.92055e-07 -7.02589e-05
0.000962564 1.97156e-07 6.58039e-08
1.97156e-07 7.58826e-05 -2.41864e-07
6.58039e-08 -2.41864e-07 7.46957e-07
0.00164792 1.16108e-05 -2.83423e-06
1.16108e-05 1.77769e-05 -1.7452e-07
-2.83423e-06 -1.7452e-07 -6.80706e-05
0.00205894 -2.90988e-05 5.84699e-07
-2.90988e-05 0.000214837 2.30318e-06
5.84699e-07 2.30318e-06 0.000112944
0.00175399 -0.00011027 -3.08161e-06
-0.00011027 7.92375e-06 -4.64443e-06
-3.08161e-06 -4.64443e-06 -6.37857e-05
0.00139702 -0.000132287 1.33234e-06
-0.000132287 3.8794e-05 2.1037e-06
1.33234e-06 2.1037e-06 -7.70844e-05
0.00114257 -8.57643e-05 -2.12476e-06
-8.57643e-05 0.000178371 -3.22279e-07
-2.12476e-06 -3.22279e-07 7.99166e-05
0.00180322 -0.000147687 -8.0846e-07
-0.000147687 0.000465778 -9.2205e-07
-8.0846e-07 -9.2205e-07 0.000300532
0.000723584 3.1483e-05 -8.90108e-07
3.1483e-05 -5.58741e-05 -1.23589e-06
-8.90108e-07 -1.23589e-06 -9.97349e-05
0.000874205 -1.65057e-05 6.20001e-07
-1.65057e-05 2.18503e-05 -9.75609e-07
6.20001e-07 -9.75609e-07 -2.43328e-05
0.0010897 -2.93253e-05 4.16578e-07
-2.93253e-05 0.000147637 -3.29394e-07
4.16578e-07 -3.29394e-07 8.97694e-05
0.000808212 1.94399e-05 -6.69185e-07
1.94399e-05 -1.16754e-06 -7.40867e-07
-6.69185e-07 -7.40867e-07 -6.74181e-05
0.00108679 -7.18807e-06 4.41343e-08
-7.18807e-06 0.000142687 4.89814e-08
4.41343e-08 4.89814e-08 7.11259e-05
0.000734877 -1.32464e-05 1.08137e-07
-1.32464e-05 -2.78267e-05 6.99203e-07
1.08137e-07 6.99203e-07 -0.000113465
0.00115913 -6.63503e-05 4.01458e-06
-6.63503e-05 0.000207438 3.94191e-07
4.01458e-06 3.94191e-07 0.000101803
0.000876282 -8.61471e-05 -4.35482e-06
-8.61471e-05 3.41757e-05 2.22799e-06
-4.35482e-06 2.22799e-06 -5.21872e-05
0.000827093 1.82756e-05 -3.63784e-07
1.82756e-05 3.56103e-06 -4.06607e-07
-3.63784e-07 -4.06607e-07 -6.2623e-05
0.000919602 4.38758e-05 -1.26875e-06
4.38758e-05 6.1003e-05 -1.61409e-06
-1.26875e-06 -1.61409e-06 -2.25861e-05
0.00190511 5.07601e-05 7.83795e-07
5.07601e-05 0.000163085 7.51722e-07
7.83795e-07 7.51722e-07 7.58141e-05
0.00142473 0.000101362 -5.33212e-07
0.000101362 -9.92548e-06 6.00401e-07
-5.33212e-07 6.00401e-07 -8.23195e-05
0.00112238 6.14861e-05 -1.8327e-06
6.14861e-05 0.000169863 -8.7805e-07
-1.8327e-06 -8.7805e-07 6.93382e-05
0.00107542 9.06452e-05 -2.05637e-06
9.06452e-05 0.000160894 -2.26986e-06
-2.05637e-06 -2.26986e-06 5.14526e-05
0.00205914 0.000151936 -2.4211e-06
0.000151936 0.0004694 2.05476e-06
-2.4211e-06 2.05476e-06 0.000349645
0.0010156 0.000104503 -1.80383e-06
0.000104503 7.96839e-05 -9.60012e-07
-1.80383e-06 -9.60012e-07 -6.2577e-05
0.000955436 2.28983e-05 1.39521e-08
2.28983e-05 7.46614e-05 -4.85049e-07
1.39521e-08 -4.85049e-07 9.73614e-07
0.00172814 2.08091e-05 -4.0288e-07
2.08091e-05 7.63635e-05 3.77809e-08
-4.0288e-07 3.77809e-08 -7.08499e-06
0.0010007 6.75052e-05 1.88531e-07
6.75052e-05 0.000113865 7.18038e-07
1.88531e-07 7.18038e-07 1.76428e-05
0.000913514 8.51782e-05 9.72282e-09
8.51782e-05 6.10172e-05 -1.57842e-07
9.72282e-09 -1.57842e-07 -5.91718e-05
0.00180284 7.90947e-05 1.04829e-06
7.90947e-05 5.54603e-05 -2.90214e-07
1.04829e-06 -2.90214e-07 -1.43405e-05
0.00188144 0.000148739 8.79741e-07
0.000148739 0.000240118 -5.01196e-07
8.79741e-07 -5.01196e-07 0.00013391
0.0016581 0.000136931 2.89247e-07
0.000136931 0.000377162 7.39924e-07
2.89247e-07 7.39924e-07 0.00022267
0.00101481 3.51701e-05 1.13842e-07
3.51701e-05 0.000114082 9.08106e-07
1.13842e-07 9.08106e-07 2.78607e-05
0.00238418 4.76627e-05 -1.47652e-06
4.76627e-05 0.000358082 -3.04066e-07
-1.47652e-06 -3.04066e-07 0.000289038
0.00148238 9.40731e-05 -7.50343e-07
9.40731e-05 0.000347183 2.9442e-07
-7.50343e-07 2.9442e-07 0.000241973
0.00184283 0.000132996 -1.50912e-06
0.000132996 0.000523902 1.60039e-06
-1.50912e-06 1.60039e-06 0.000386755
0.00208236 0.000151926 5.3511e-06
0.000151926 0.000160217 -2.08692e-06
5.3511e-06 -2.08692e-06 0.000105055
0.000923689 0.000116064 -8.39382e-08
0.000116064 -7.82108e-05 -2.86032e-07
-8.39382e-08 -2.86032e-07 -0.000226562
0.000739144 5.42745e-05 1.29511e-05
5.42745e-05 -0.000253089 1.33673e-06
1.29511e-05 1.33673e-06 -0.000327738
0.000986145 -7.06104e-07 -3.5367e-07
-7.06104e-07 8.71473e-05 -7.84198e-07
-3.5367e-07 -7.84198e-07 1.91605e-05
0.000976278 6.09011e-06 2.41007e-08
6.09011e-06 8.6406e-05 -4.52861e-08
2.41007e-08 -4.52861e-08 1.02904e-05
0.00101861 2.35045e-05 2.66309e-07
2.35045e-05 0.000106628 2.44359e-07
2.66309e-07 2.44359e-07 2.43845e-05
0.000891329 -2.41872e-05 8.09836e-08
-2.41872e-05 2.77191e-05 -8.18545e-07
8.09836e-08 -8.18545e-07 -1.67894e-05
0.000812786 -3.73938e-05 -3.40398e-07
-3.73938e-05 -2.05385e-06 -2.16243e-07
-3.40398e-07 -2.16243e-07 -5.93952e-05
0.00103434 3.84556e-05 -7.54545e-07
3.84556e-05 0.000121373 -1.41318e-07
-7.54545e-07 -1.41318e-07 5.41069e-05
0.000949691 -7.54235e-06 -7.8277e-08
-7.54235e-06 7.10203e-05 -1.13261e-06
-7.8277e-08 -1.13261e-06 -2.61921e-06
0.000893886 -1.57453e-05 -2.24037e-07
-1.57453e-05 2.94557e-05 3.53026e-08
-2.24037e-07 3.53026e-08 -1.587e-05
0.000843498 -3.56049e-06 1.87643e-07
-3.56049e-06 1.08631e-05 1.86122e-08
1.87643e-07 1.86122e-08 -4.49436e-05
0.000954962 6.91075e-06 1.70804e-07
6.91075e-06 7.53059e-05 -5.90534e-07
1.70804e-07 -5.90534e-07 -2.22843e-06
0.000976079 -9.9039e-06 -2.26177e-07
-9.9039e-06 8.57946e-05 -1.82713e-07
-2.26177e-07 -1.82713e-07 2.19218e-05
0.000950754 -1.66139e-05 1.79702e-07
-1.66139e-05 7.34161e-05 -1.19929e-08
1.79702e-07 -1.19929e-08 2.04457e-06
0.000951677 1.6482e-06 -8.60192e-08
1.6482e-06 7.22422e-05 4.88738e-07
-8.60192e-08 4.88738e-07 -4.7553e-06
0.000965335 4.14597e-06 3.78491e-07
4.14597e-06 8.25049e-05 -1.2861e-08
3.78491e-07 -1.2861e-08 1.51588e-05
0.00101905 9.18162e-06 4.82097e-07
9.18162e-06 0.00010354 -1.58983e-07
4.82097e-07 -1.58983e-07 4.15992e-05
0.000823133 5.53083e-06 -2.66285e-07
5.53083e-06 -5.93767e-07 6.22873e-07
-2.66285e-07 6.22873e-07 -5.88449e-05
0.00076618 7.69511e-06 3.68177e-07
7.69511e-06 -4.03599e-05 1.22388e-06
3.68177e-07 1.22388e-06 -8.58308e-05
0.00104854 -4.78542e-06 2.65678e-07
-4.78542e-06 0.000123272 2.55644e-08
2.65678e-07 2.55644e-08 6.42847e-05
0.000757629 3.9046e-06 -4.44247e-07
3.9046e-06 -4.28923e-05 1.17592e-06
-4.44247e-07 1.17592e-06 -8.88883e-05
0.000855186 1.18859e-05 2.30085e-07
1.18859e-05 4.04557e-07 1.58636e-06
2.30085e-07 1.58636e-06 -2.69437e-05
0.000853126 1.55458e-06 -2.37965e-07
1.55458e-06 -1.22947e-06 3.95757e-09
-2.37965e-07 3.95757e-09 -2.82172e-05
0.000802617 4.7335e-07 2.27249e-07
4.7335e-07 -3.88767e-05 3.04296e-06
2.27249e-07 3.04296e-06 -3.86961e-05
0.000861178 -8.55883e-06 1.01431e-07
-8.55883e-06 2.12843e-06 -1.57397e-06
1.01431e-07 -1.57397e-06 -2.42569e-05
0.00108492 -4.17442e-06 -1.03829e-06
-4.17442e-06 0.000111056 -1.24088e-06
-1.03829e-06 -1.24088e-06 0.000112942
0.00211901 -6.52639e-06 4.74762e-06
-6.52639e-06 0.000660505 3.94226e-06
4.74762e-06 3.94226e-06 0.000683715
0.001379 -9.11582e-06 -2.63865e-06
-9.11582e-06 0.000268529 -4.23723e-06
-2.63865e-06 -4.23723e-06 0.000271874
0.000999535 -9.72423e-06 1.56697e-06
-9.72423e-06 6.78584e-05 2.4025e-06
1.56697e-06 2.4025e-06 8.54531e-05
0.00095039 -1.40725e-05 -1.23868e-06
-1.40725e-05 4.4496e-05 -1.53904e-06
-1.23868e-06 -1.53904e-06 6.19702e-05
0.00086582 7.38949e-06 2.62307e-07
7.38949e-06 3.1215e-06 -1.57733e-06
2.62307e-07 -1.57733e-06 -2.1027e-05
0.000862905 1.04616e-05 -3.69398e-08
1.04616e-05 2.79175e-06 9.4953e-09
-3.69398e-08 9.4953e-09 -2.29605e-05
0.000795525 1.36162e-05 6.08198e-07
1.36162e-05 -3.91487e-05 -3.11085e-06
6.08198e-07 -3.11085e-06 -3.86881e-05
0.0010793 1.98445e-05 -4.7212e-07
1.98445e-05 0.000115361 3.38434e-08
-4.7212e-07 3.38434e-08 0.000115453
0.0021203 2.44917e-05 1.29231e-05
2.44917e-05 0.000668737 -3.82329e-06
1.29231e-05 -3.82329e-06 0.000690473
0.000806879 2.23205e-05 -1.54523e-06
2.23205e-05 -2.42285e-05 3.22837e-06
-1.54523e-06 3.22837e-06 -2.77185e-05
0.00216996 3.09247e-05 -1.26742e-06
3.09247e-05 0.000700433 -5.6119e-08
-1.26742e-06 -5.6119e-08 0.000720586
0.00223256 3.67689e-05 -2.09808e-05
3.67689e-05 0.00073983 3.76881e-06
-2.09808e-05 3.76881e-06 0.000758197
0.00161485 3.06699e-05 -2.37562e-07
3.06699e-05 3.73776e-05 5.50536e-07
-2.37562e-07 5.50536e-07 -5.31377e-05
0.00180752 -3.90916e-06 6.92744e-07
-3.90916e-06 0.000115433 -1.00393e-06
6.92744e-07 -1.00393e-06 2.16265e-05
0.00172902 5.72705e-06 7.94833e-07
5.72705e-06 8.1199e-05 1.85921e-07
7.94833e-07 1.85921e-07 -2.80454e-05
0.00179548 5.21837e-06 4.30111e-07
5.21837e-06 0.000105115 5.74896e-07
4.30111e-07 5.74896e-07 5.02112e-06
0.00178685 4.01755e-06 -2.28729e-07
4.01755e-06 0.000104826 -9.83877e-08
-2.28729e-07 -9.83877e-08 1.57945e-05
0.00175249 -1.97961e-06 1.38157e-06
-1.97961e-06 7.97615e-05 -1.9661e-08
1.38157e-06 -1.9661e-08 1.57414e-06
0.00167698 8.99961e-06 -1.52845e-06
8.99961e-06 3.37404e-05 -2.00131e-07
-1.52845e-06 -2.00131e-07 -4.87482e-05
0.00374624 -7.60883e-05 2.9986e-06
-7.60883e-05 0.00100863 -2.69619e-06
2.9986e-06 -2.69619e-06 0.000958698
0.00142448 -1.63671e-06 -3.32044e-07
-1.63671e-06 -0.000139002 -1.69978e-08
-3.32044e-07 -1.69978e-08 -0.000206693
0.000897451 1.454e-05 1.35405e-07
1.454e-05 3.2472e-05 -7.19081e-07
1.35405e-07 -7.19081e-07 -7.92503e-06
0.00189918 1.55824e-05 1.60092e-06
1.55824e-05 0.000167319 -2.27493e-07
1.60092e-06 -2.27493e-07 6.6614e-05
0.00183088 -2.06427e-05 -1.13953e-06
-2.06427e-05 0.000112218 -1.44427e-06
-1.13953e-06 -1.44427e-06 9.95123e-06
0.00161913 -7.53387e-05 1.5366e-06
-7.53387e-05 3.04855e-06 1.80487e-06
1.5366e-06 1.80487e-06 -9.1545e-05
0.000878643 -8.09398e-05 1.41838e-06
-8.09398e-05 5.02729e-05 5.38493e-07
1.41838e-06 5.38493e-07 -4.31524e-05
0.00121909 -0.000108795 1.06e-07
-0.000108795 0.000189967 2.96155e-06
1.06e-07 2.96155e-06 5.09112e-05
0.00111837 -0.000112907 7.59275e-07
-0.000112907 2.48755e-05 -1.02706e-06
7.59275e-07 -1.02706e-06 -0.000113862
0.00168434 -0.000120697 -1.18622e-06
-0.000120697 0.000100684 -1.28534e-06
-1.18622e-06 -1.28534e-06 1.47451e-05
0.00108082 -8.76384e-05 2.84186e-06
-8.76384e-05 0.000114637 -2.87588e-06
2.84186e-06 -2.87588e-06 2.5987e-05
0.000770289 -7.73535e-05 -2.70411e-06
-7.73535e-05 -1.11481e-05 -6.33887e-06
-2.70411e-06 -6.33887e-06 -9.41156e-05
0.00074557 -5.63104e-05 2.89421e-07
-5.63104e-05 -1.86129e-05 3.33624e-07
2.89421e-07 3.33624e-07 -0.000117013
0.000862098 1.34153e-05 -7.38848e-07
1.34153e-05 4.53924e-06 1.68449e-06
-7.38848e-07 1.68449e-06 -2.33181e-05
0.000959989 -8.83513e-06 -3.94864e-08
-8.83513e-06 7.48794e-05 -5.56591e-07
-3.94864e-08 -5.56591e-07 -1.07544e-06
0.00112359 -3.22922e-05 -4.42419e-07
-3.22922e-05 0.000155421 4.93919e-07
-4.42419e-07 4.93919e-07 0.000106252
0.000938864 -9.88367e-07 -3.86882e-07
-9.88367e-07 6.3707e-05 9.90074e-07
-3.86882e-07 9.90074e-07 -1.58315e-06
0.000729014 7.64445e-06 1.79559e-07
7.64445e-06 -5.61494e-05 8.1025e-07
1.79559e-07 8.1025e-07 -9.97403e-05
0.00174247 1.09376e-05 -5.32163e-07
1.09376e-05 6.93363e-05 -1.20967e-07
-5.32163e-07 -1.20967e-07 -1.62072e-05
0.000810314 1.0974e-05 2.31418e-07
1.0974e-05 -1.07262e-05 -4.81303e-07
2.31418e-07 -4.81303e-07 -5.40211e-05
0.000881425 -2.11772e-05 -3.99003e-07
-2.11772e-05 2.72401e-05 2.54159e-08
-3.99003e-07 2.54159e-08 -2.02365e-05
0.000924739 -1.0146e-05 -7.22847e-07
-1.0146e-05 6.13629e-05 4.65961e-07
-7.22847e-07 4.65961e-07 2.13823e-06
0.00190426 -2.92302e-05 1.69912e-06
-2.92302e-05 0.000128133 3.51337e-07
1.69912e-06 3.51337e-07 2.76328e-05
0.00199433 -0.000115976 -1.62782e-06
-0.000115976 0.000140342 -3.69471e-07
-1.62782e-06 -3.69471e-07 6.55196e-05
0.000933678 -8.05261e-05 -8.25878e-07
-8.05261e-05 6.12927e-05 5.10064e-07
-8.25878e-07 5.10064e-07 -3.47428e-05
0.00108387 -0.000115131 3.52476e-07
-0.000115131 0.000111478 -7.70943e-07
3.52476e-07 -7.70943e-07 -5.76036e-05
0.00144445 -0.000136619 5.42783e-07
-0.000136619 6.46038e-05 6.71155e-07
5.42783e-07 6.71155e-07 -5.24048e-05
0.000908389 1.04425e-05 -1.75126e-07
1.04425e-05 5.11454e-05 4.03478e-08
-1.75126e-07 4.03478e-08 -1.42053e-05
0.00100747 -1.95511e-05 -1.60662e-07
-1.95511e-05 0.000104679 7.47807e-09
-1.60662e-07 7.47807e-09 3.09373e-05
0.000804549 -8.32888e-05 -3.25514e-06
-8.32888e-05 -1.8539e-07 7.42458e-07
-3.25514e-06 7.42458e-07 -8.92703e-05
0.00108171 -5.13936e-05 4.34371e-07
-5.13936e-05 0.000165888 -4.6453e-07
4.34371e-07 -4.6453e-07 6.2748e-05
0.000900199 -2.66851e-05 1.82266e-07
-2.66851e-05 5.8075e-05 7.08749e-07
1.82266e-07 7.08749e-07 -2.75927e-05
0.00189225 1.23704e-07 -2.23594e-06
1.23704e-07 0.000128252 8.11714e-07
-2.23594e-06 8.11714e-07 4.66935e-05
0.0023675 -6.66057e-05 -7.25305e-07
-6.66057e-05 0.000303916 -5.8539e-07
-7.25305e-07 -5.8539e-07 0.000226029
0.00165426 -0.000146633 3.33953e-06
-0.000146633 4.40653e-06 -2.83021e-06
3.33953e-06 -2.83021e-06 -8.86153e-05
0.00160386 -0.00014618 -3.98509e-06
-0.00014618 0.000289253 1.10722e-07
-3.98509e-06 1.10722e-07 0.000142668
0.00107448 -9.55978e-05 8.44968e-08
-9.55978e-05 0.000158037 -1.45445e-06
8.44968e-08 -1.45445e-06 3.05238e-05
0.000739718 1.04756e-05 8.03615e-08
1.04756e-05 -3.62763e-05 -6.8812e-07
8.03615e-08 -6.8812e-07 -9.45054e-05
0.000846236 3.20332e-05 3.40084e-08
3.20332e-05 2.12845e-05 -8.64856e-07
3.40084e-08 -8.64856e-07 -4.21688e-05
0.0010912 1.20866e-05 4.59366e-07
1.20866e-05 0.000148194 4.02863e-07
4.59366e-07 4.02863e-07 8.10494e-05
0.000944365 -3.68023e-05 8.70411e-07
-3.68023e-05 7.61539e-05 -2.35787e-07
8.70411e-07 -2.35787e-07 2.8373e-06
0.00107972 2.3422e-06 4.4153e-07
2.3422e-06 0.000142359 7.93386e-07
4.4153e-07 7.93386e-07 6.55181e-05
0.000872345 -1.85533e-05 -7.57549e-07
-1.85533e-05 5.24024e-05 -7.96556e-07
-7.57549e-07 -7.96556e-07 -3.8871e-05
0.000835629 -6.08313e-05 5.53195e-06
-6.08313e-05 5.7955e-05 1.28929e-06
5.53195e-06 1.28929e-06 -6.41181e-05
0.000939807 3.38072e-05 -6.08417e-07
3.38072e-05 6.90193e-05 -1.50531e-06
-6.08417e-07 -1.50531e-06 -5.94988e-06
0.000888702 5.80112e-05 -1.87951e-07
5.80112e-05 5.50341e-05 -2.99693e-07
-1.87951e-07 -2.99693e-07 -3.98268e-05
0.0018652 1.91537e-05 1.56051e-06
1.91537e-05 0.000143953 3.08387e-07
1.56051e-06 3.08387e-07 6.02058e-05
0.00132156 7.07238e-05 5.35016e-07
7.07238e-05 -0.000179895 -5.65748e-07
5.35016e-07 -5.65748e-07 -0.000249179
0.00220914 0.000160793 -1.67327e-06
0.000160793 0.000397573 1.49433e-06
-1.67327e-06 1.49433e-06 0.000292164
0.000746035 7.74309e-05 -4.61056e-07
7.74309e-05 -2.44937e-05 -9.661e-07
-4.61056e-07 -9.661e-07 -0.000145835
0.00156981 0.000134265 -1.03982e-06
0.000134265 0.000337144 5.29692e-07
-1.03982e-06 5.29692e-07 0.000185149
0.00102241 2.818e-05 -2.61002e-08
2.818e-05 0.000117392 7.08574e-08
-2.61002e-08 7.08574e-08 3.32441e-05
0.00175471 4.11821e-05 -1.70952e-06
4.11821e-05 2.12784e-05 -3.65548e-07
-1.70952e-06 -3.65548e-07 -4.32142e-05
0.00120027 8.50289e-05 -5.91498e-07
8.50289e-05 0.000207783 4.66432e-08
-5.91498e-07 4.66432e-08 0.000103497
0.00133006 0.000108838 -6.6815e-07
0.000108838 0.000271631 8.40758e-07
-6.6815e-07 8.40758e-07 0.000135405
0.00191667 0.000138986 1.2766e-06
0.000138986 7.64621e-05 -8.51741e-07
1.2766e-06 -8.51741e-07 2.14303e-05
0.00127466 0.000130959 -9.77144e-07
0.000130959 0.000106366 1.43281e-06
-9.77144e-07 1.43281e-06 -4.82048e-05
0.00178316 4.2328e-05 2.12967e-06
4.2328e-05 0.000105848 -9.25805e-07
2.12967e-06 -9.25805e-07 3.17144e-05
0.00106083 4.76752e-05 -3.40105e-07
4.76752e-05 0.000134492 -3.17783e-07
-3.40105e-07 -3.17783e-07 4.22953e-05
0.0021201 0.000105101 -6.0659e-07
0.000105101 0.000142813 -6.21114e-06
-6.0659e-07 -6.21114e-06 0.000136183
0.00129084 0.000102229 -1.35086e-06
0.000102229 0.000265264 -3.61982e-07
-1.35086e-06 -3.61982e-07 0.000156613
0.00103383 0.000102708 -1.69744e-06
0.000102708 0.00013527 -1.88553e-07
-1.69744e-06 -1.88553e-07 -3.03234e-05
0.000336298 0.000138405 -8.25099e-07
0.000138405 -0.000505115 -2.25775e-06
-8.25099e-07 -2.25775e-06 -0.000629544
0.00628004 -9.46728e-05 -3.15215e-05
-9.46728e-05 0.00201819 -8.77891e-06
-3.15215e-05 -8.77891e-06 0.00143753
0.00237871 -2.48605e-05 6.88985e-05
-2.48605e-05 -8.10966e-05 3.26978e-06
6.88985e-05 3.26978e-06 -0.000468877
0.00114333 0.000146969 1.29704e-05
0.000146969 -0.000178785 1.04405e-05
1.29704e-05 1.04405e-05 -0.000150728
-0.00234789 -0.000258781 -2.0533e-05
-0.000258781 -0.00115015 -1.62437e-05
-2.0533e-05 -1.62437e-05 -0.00107263
0.00241851 -0.000375474 -2.12015e-05
-0.000375474 0.000199672 -4.06538e-06
-2.12015e-05 -4.06538e-06 0.00107812
0.000978498 6.46622e-06 -4.14634e-07
6.46622e-06 8.77626e-05 -1.046e-06
-4.14634e-07 -1.046e-06 1.15439e-05
0.00101153 1.69438e-05 1.58729e-07
1.69438e-05 0.000104017 -2.40424e-07
1.58729e-07 -2.40424e-07 2.27275e-05
0.00106639 4.00771e-05 -2.72627e-08
4.00771e-05 0.000128585 2.60787e-07
-2.72627e-08 2.60787e-07 4.60221e-05
0.000878319 -3.53975e-05 2.68932e-07
-3.53975e-05 2.37702e-05 -8.89802e-07
2.68932e-07 -8.89802e-07 -2.31784e-05
0.000779169 1.5093e-05 -3.33294e-07
1.5093e-05 -2.24207e-05 -5.83391e-07
-3.33294e-07 -5.83391e-07 -7.91117e-05
0.000972737 -3.2179e-05 -7.15073e-08
-3.2179e-05 8.29343e-05 -5.60294e-07
-7.15073e-08 -5.60294e-07 1.94846e-05
0.0010331 -9.42826e-06 -2.95694e-07
-9.42826e-06 0.000116804 -4.68838e-07
-2.95694e-07 -4.68838e-07 4.62343e-05
0.000923209 1.98129e-06 1.45512e-07
1.98129e-06 5.83512e-05 -1.46139e-06
1.45512e-07 -1.46139e-06 -1.92961e-05
0.000951406 1.64792e-05 -4.67083e-07
1.64792e-05 6.94538e-05 -3.46296e-07
-4.67083e-07 -3.46296e-07 6.03406e-06
0.000825789 3.71481e-06 9.41756e-08
3.71481e-06 -6.14756e-06 4.46417e-07
9.41756e-08 4.46417e-07 -5.25959e-05
0.000880063 4.9682e-06 -2.32573e-07
4.9682e-06 2.96193e-05 -2.55563e-08
-2.32573e-07 -2.55563e-08 -2.84355e-05
0.000944723 2.61586e-06 -2.77164e-08
2.61586e-06 6.94226e-05 1.55963e-07
-2.77164e-08 1.55963e-07 -7.31624e-06
0.000958308 -5.52979e-08 9.7192e-08
-5.52979e-08 7.78026e-05 -7.8823e-08
9.7192e-08 -7.8823e-08 1.04375e-05
0.000896393 1.66107e-05 4.87899e-07
1.66107e-05 4.42209e-05 -1.8992e-07
4.87899e-07 -1.8992e-07 -2.20548e-05
0.00100291 1.94752e-05 4.98444e-07
1.94752e-05 9.94966e-05 3.36406e-07
4.98444e-07 3.36406e-07 2.77639e-05
0.000851353 6.03772e-06 5.22579e-07
6.03772e-06 1.10839e-05 5.77983e-07
5.22579e-07 5.77983e-07 -5.17357e-05
0.000837994 1.4238e-06 7.21095e-07
1.4238e-06 4.12276e-06 2.58431e-07
7.21095e-07 2.58431e-07 -5.4617e-05
0.000736944 -3.11865e-05 -1.23804e-06
-3.11865e-05 -5.24845e-05 1.30809e-06
-1.23804e-06 1.30809e-06 -9.96988e-05
0.000960174 7.05203e-06 -2.7006e-07
7.05203e-06 7.13138e-05 3.41838e-07
-2.7006e-07 3.41838e-07 1.30309e-05
0.00103018 6.37779e-05 7.77721e-08
6.37779e-05 0.000112529 1.9285e-07
7.77721e-08 1.9285e-07 4.80341e-05
0.000897631 3.54731e-06 -5.0377e-07
3.54731e-06 4.35226e-05 4.38216e-07
-5.0377e-07 4.38216e-07 -1.44489e-05
0.000955087 9.90576e-06 4.15665e-07
9.90576e-06 7.06011e-05 -3.36796e-07
4.15665e-07 -3.36796e-07 1.32603e-05
0.000892251 -1.9923e-05 -1.14267e-06
-1.9923e-05 2.86632e-05 7.74604e-07
-1.14267e-06 7.74604e-07 -1.65652e-05
0.000765579 4.35172e-06 1.0959e-07
4.35172e-06 -3.6584e-05 3.68087e-07
1.0959e-07 3.68087e-07 -8.40535e-05
0.000858205 1.23783e-05 -8.7106e-08
1.23783e-05 2.0384e-06 1.64236e-06
-8.7106e-08 1.64236e-06 -2.53995e-05
0.00085172 3.85791e-06 -1.77353e-07
3.85791e-06 -1.54982e-06 7.40114e-10
-1.77353e-07 7.40114e-10 -2.8812e-05
0.000816925 4.56949e-06 -2.98078e-07
4.56949e-06 -3.03452e-05 4.29987e-06
-2.98078e-07 4.29987e-06 -3.05774e-05
0.000852891 -6.53331e-06 3.05461e-07
-6.53331e-06 -1.37569e-06 -1.56056e-06
3.05461e-07 -1.56056e-06 -2.83238e-05
0.000805224 4.91298e-07 1.37386e-07
4.91298e-07 -3.75138e-05 -2.23609e-09
1.37386e-07 -2.23609e-09 -3.73515e-05
0.00213032 -9.64736e-07 1.23301e-07
-9.64736e-07 0.000666068 3.98042e-06
1.23301e-07 3.98042e-06 0.000689216
0.000822227 -3.5216e-06 -5.37495e-07
-3.5216e-06 -2.79642e-05 -4.27577e-06
-5.37495e-07 -4.27577e-06 -2.76751e-05
0.00156002 -5.56258e-06 -2.36696e-07
-5.56258e-06 0.000363795 2.14245e-08
-2.36696e-07 2.14245e-08 0.000384177
0.000962982 -9.27845e-06 -7.5975e-07
-9.27845e-06 4.79179e-05 -1.51594e-06
-7.5975e-07 -1.51594e-06 6.57742e-05
0.000869008 3.42463e-06 3.24475e-08
3.42463e-06 3.7266e-06 -1.62585e-06
3.24475e-08 -1.62585e-06 -1.92425e-05
0.000864403 6.79037e-06 2.88439e-08
6.79037e-06 2.11264e-06 1.1157e-09
2.88439e-08 1.1157e-09 -2.19914e-05
0.000802239 9.16947e-06 3.73358e-07
9.16947e-06 -3.84042e-05 -3.07511e-06
3.73358e-07 -3.07511e-06 -3.66207e-05
0.000865696 9.93097e-06 -5.57557e-07
9.93097e-06 3.9586e-06 1.63625e-06
-5.57557e-07 1.63625e-06 -2.17898e-05
0.00107062 1.499e-05 -2.25866e-07
1.499e-05 0.000106532 -6.07433e-07
-2.25866e-07 -6.07433e-07 0.000108393
0.00209037 1.83324e-05 9.58633e-06
1.83324e-05 0.000649165 -3.86754e-06
9.58633e-06 -3.86754e-06 0.000671962
0.000805729 1.83467e-05 -1.13853e-06
1.83467e-05 -2.95515e-05 3.1768e-06
-1.13853e-06 3.1768e-06 -3.10349e-05
0.00214921 2.4106e-05 -5.26146e-06
2.4106e-05 0.000685074 1.09622e-06
-5.26146e-06 1.09622e-06 0.000706532
0.00218043 3.10533e-05 -1.75442e-05
3.10533e-05 0.0007067 3.83296e-06
-1.75442e-05 3.83296e-06 0.000726638
0.00172102 4.27723e-06 1.20319e-06
4.27723e-06 7.10947e-05 2.82456e-07
1.20319e-06 2.82456e-07 -1.8187e-05
0.00180898 7.86486e-06 1.26149e-06
7.86486e-06 0.000111038 -5.26321e-08
1.26149e-06 -5.26321e-08 1.07945e-05
0.00182781 -3.79254e-06 3.66733e-06
-3.79254e-06 0.000129096 -4.25514e-07
3.66733e-06 -4.25514e-07 5.18248e-05
0.00163013 -3.79756e-05 1.40869e-06
-3.79756e-05 -5.50913e-05 8.28107e-07
1.40869e-06 8.28107e-07 -0.00010909
0.00179075 7.8688e-06 -4.17378e-07
7.8688e-06 8.84303e-05 2.59258e-07
-4.17378e-07 2.59258e-07 6.65571e-06
0.00173179 4.89754e-06 9.49376e-07
4.89754e-06 2.97124e-05 8.84337e-08
9.49376e-07 8.84337e-08 -4.07329e-05
0.00210747 2.32827e-05 4.71995e-07
2.32827e-05 0.000200323 1.14223e-06
4.71995e-07 1.14223e-06 0.000114078
0.00313469 -0.000150202 0.000137828
-0.000150202 0.000586572 2.29043e-05
0.000137828 2.29043e-05 0.000362225
0.00114734 -4.85689e-05 -4.75171e-06
-4.85689e-05 -0.000279347 3.02678e-07
-4.75171e-06 3.02678e-07 -0.000344678
0.000898121 1.73094e-05 -6.05054e-07
1.73094e-05 3.36555e-05 -7.72831e-07
-6.05054e-07 -7.72831e-07 -6.89831e-06
0.000895022 -1.38201e-05 5.5287e-07
-1.38201e-05 3.30104e-05 -3.37931e-08
5.5287e-07 -3.37931e-08 -8.69583e-06
0.000898712 -2.94572e-05 -2.03665e-07
-2.94572e-05 4.35469e-05 2.26096e-08
-2.03665e-07 2.26096e-08 -9.28447e-06
0.000899814 -2.6353e-05 -7.83469e-07
-2.6353e-05 5.29002e-05 8.62406e-08
-7.83469e-07 8.62406e-08 -3.60806e-06
0.00183717 1.00652e-05 3.09267e-06
1.00652e-05 0.000120966 -1.18243e-06
3.09267e-06 -1.18243e-06 3.57202e-05
0.0018134 -3.00015e-05 3.09435e-06
-3.00015e-05 7.66255e-05 -7.05314e-07
3.09435e-06 -7.05314e-07 -2.30123e-05
0.00226991 -0.000122933 -3.24447e-06
-0.000122933 0.000288594 1.48615e-06
-3.24447e-06 1.48615e-06 0.000209777
0.000698733 -7.37441e-05 1.51399e-06
-7.37441e-05 -6.97458e-05 2.45181e-06
1.51399e-06 2.45181e-06 -0.000162274
0.000509037 -8.85687e-05 2.48466e-06
-8.85687e-05 -0.00017207 -6.35418e-07
2.48466e-06 -6.35418e-07 -0.000340403
0.00155227 -0.000143043 -1.46721e-08
-0.000143043 0.000119903 -9.74946e-07
-1.46721e-08 -9.74946e-07 3.21795e-06
0.000769052 -8.179e-05 -5.12263e-06
-8.179e-05 -1.59868e-05 9.67264e-08
-5.12263e-06 9.67264e-08 -0.000107939
0.00104203 -3.86027e-05 -6.66392e-07
-3.86027e-05 0.000143738 -6.68447e-07
-6.66392e-07 -6.68447e-07 4.27687e-05
0.00106992 -4.1403e-05 -6.94992e-07
-4.1403e-05 0.000146464 8.14061e-07
-6.94992e-07 8.14061e-07 6.07045e-05
0.000892007 -1.70108e-06 -9.41129e-07
-1.70108e-06 3.27272e-05 1.00991e-06
-9.41129e-07 1.00991e-06 -1.49664e-05
0.000930094 -3.33899e-05 -1.78931e-07
-3.33899e-05 6.7513e-05 2.20398e-08
-1.78931e-07 2.20398e-08 -8.27289e-06
0.000999641 8.41665e-06 -6.85487e-07
8.41665e-06 9.74228e-05 6.61315e-07
-6.85487e-07 6.61315e-07 3.39823e-05
0.000897899 -4.075e-06 -8.32547e-09
-4.075e-06 3.56209e-05 3.01624e-07
-8.32547e-09 3.01624e-07 -7.57976e-06
0.000755313 1.7107e-05 1.6542e-07
1.7107e-05 -2.67001e-05 1.01478e-06
1.6542e-07 1.01478e-06 -8.75132e-05
0.00172666 1.95326e-06 -8.75347e-07
1.95326e-06 5.16811e-05 8.88264e-07
-8.75347e-07 8.88264e-07 -2.9452e-05
0.000905233 8.98945e-06 4.37624e-07
8.98945e-06 4.91788e-05 -4.81137e-07
4.37624e-07 -4.81137e-07 -7.27072e-06
0.000867773 1.69577e-05 5.22187e-07
1.69577e-05 3.21846e-05 8.34589e-09
5.22187e-07 8.34589e-09 -3.02244e-05
0.000974276 3.80931e-05 -2.76673e-07
3.80931e-05 8.75489e-05 7.87233e-07
-2.76673e-07 7.87233e-07 1.98378e-05
0.00205654 -6.41675e-05 -3.97752e-06
-6.41675e-05 0.000145938 6.72758e-07
-3.97752e-06 6.72758e-07 6.38444e-05
0.00166666 -0.000141424 4.4626e-07
-0.000141424 1.67927e-05 -5.19896e-07
4.4626e-07 -5.19896e-07 -7.55733e-05
0.000982185 -9.44209e-05 -2.16656e-07
-9.44209e-05 9.86914e-05 -4.31502e-07
-2.16656e-07 -4.31502e-07 -2.442e-05
0.00171755 -0.000151161 -3.52031e-07
-0.000151161 0.000350545 -1.15661e-06
-3.52031e-07 -1.15661e-06 0.000198208
0.000987034 -1.33942e-05 -3.82991e-07
-1.33942e-05 9.55356e-05 1.03983e-07
-3.82991e-07 1.03983e-07 2.41473e-05
0.000985194 -9.06135e-06 1.43098e-07
-9.06135e-06 9.75207e-05 6.34468e-07
1.43098e-07 6.34468e-07 1.95073e-05
0.000887435 -6.31484e-05 3.05856e-06
-6.31484e-05 7.87445e-05 -8.53414e-07
3.05856e-06 -8.53414e-07 -3.8636e-05
0.00103923 -4.04351e-05 1.25559e-07
-4.04351e-05 0.000140986 -7.5131e-07
1.25559e-07 -7.5131e-07 4.51041e-05
0.00165796 1.45092e-06 -5.52741e-07
1.45092e-06 -2.75805e-05 2.14376e-06
-5.52741e-07 2.14376e-06 -0.000111571
0.00234541 -0.000141788 7.72234e-06
-0.000141788 0.000235963 -4.14917e-06
7.72234e-06 -4.14917e-06 0.000151068
0.00182707 -0.000156938 -1.03965e-06
-0.000156938 0.000285072 -3.87605e-06
-1.03965e-06 -3.87605e-06 0.000150491
0.0011154 -0.000114198 -2.20096e-06
-0.000114198 0.000173445 2.51895e-07
-2.20096e-06 2.51895e-07 3.81667e-05
0.000875883 2.02461e-05 -7.72399e-07
2.02461e-05 4.05031e-05 -6.31745e-08
-7.72399e-07 -6.31745e-08 -3.17846e-05
0.000912602 -3.80958e-05 8.94718e-07
-3.80958e-05 6.19631e-05 -6.95637e-07
8.94718e-07 -6.95637e-07 -1.01949e-05
0.000970989 -3.07455e-05 4.83637e-07
-3.07455e-05 8.94657e-05 -1.62898e-08
4.83637e-07 -1.62898e-08 1.05288e-05
0.000956753 -1.12159e-05 -2.00033e-06
-1.12159e-05 0.000108112 7.74244e-07
-2.00033e-06 7.74244e-07 -1.24323e-05
0.000379455 -3.28946e-05 -2.56315e-06
-3.28946e-05 -0.000791714 -6.157e-06
-2.56315e-06 -6.157e-06 -0.00126384
0.00102141 2.19892e-05 -1.31939e-07
2.19892e-05 0.000116537 -9.31694e-07
-1.31939e-07 -9.31694e-07 3.43554e-05
0.000903777 7.20295e-05 7.63446e-07
7.20295e-05 6.03178e-05 2.18844e-07
7.63446e-07 2.18844e-07 -4.25243e-05
0.00109666 3.48262e-05 2.27442e-06
3.48262e-05 -0.000333919 6.25988e-07
2.27442e-06 6.25988e-07 -0.000394348
0.00169394 0.000123771 -2.30784e-06
0.000123771 -3.36551e-05 1.72706e-06
-2.30784e-06 1.72706e-06 -8.9363e-05
0.00159134 0.000144951 -2.14894e-06
0.000144951 0.000276463 2.67874e-06
-2.14894e-06 2.67874e-06 0.00011406
0.000768402 8.29518e-05 1.05589e-06
8.29518e-05 -5.471e-06 -9.4592e-08
1.05589e-06 -9.4592e-08 -0.000142031
0.00263985 3.34654e-05 -6.12011e-06
3.34654e-05 0.000385108 6.19461e-07
-6.12011e-06 6.19461e-07 0.000302637
0.00101386 4.66863e-05 3.44951e-07
4.66863e-05 0.000113914 -2.6537e-07
3.44951e-07 -2.6537e-07 2.20894e-05
0.00196197 0.000102914 -3.07233e-06
0.000102914 5.99507e-05 -2.02819e-06
-3.07233e-06 -2.02819e-06 5.61913e-05
0.00106209 9.21087e-05 8.10249e-07
9.21087e-05 0.000150569 -3.59914e-07
8.10249e-07 -3.59914e-07 4.24266e-05
0.00102978 0.000104944 -2.05814e-07
0.000104944 0.000137471 1.65157e-07
-2.05814e-07 1.65157e-07 -2.82461e-05
0.000838067 0.000155323 -3.04958e-06
0.000155323 -0.00027861 3.54066e-07
-3.04958e-06 3.54066e-07 -0.00039491
0.00186405 -0.000160933 -2.57819e-05
-0.000160933 -5.47429e-05 -8.55161e-06
-2.57819e-05 -8.55161e-06 -0.000585238
0.00314401 -9.58022e-05 7.87387e-06
-9.58022e-05 0.00018565 -1.11554e-05
7.87387e-06 -1.11554e-05 -0.000274631
0.000980039 0.000139563 3.86595e-06
0.000139563 -0.00026452 1.1811e-06
3.86595e-06 1.1811e-06 -0.000232926
-0.00139625 -0.000248093 1.15944e-05
-0.000248093 -0.000596593 2.01041e-06
1.15944e-05 2.01041e-06 -0.000718466
0.000525485 -0.000406647 9.95799e-06
-0.000406647 -0.000872587 1.04518e-06
9.95799e-06 1.04518e-06 0.000120702
0.00112057 6.81344e-05 2.09977e-07
6.81344e-05 0.000170747 -2.39275e-07
2.09977e-07 -2.39275e-07 8.016e-05
0.000364741 5.16653e-05 -8.78092e-05
5.16653e-05 0.000201408 -1.96895e-05
-8.78092e-05 -1.96895e-05 -2.01387e-05
0.00165505 -0.000236242 -2.85133e-05
-0.000236242 0.000502786 -1.82038e-05
-2.85133e-05 -1.82038e-05 0.000857039
0.00128178 0.000127464 -1.61102e-06
0.000127464 -0.000208913 -2.07334e-06
-1.61102e-06 -2.07334e-06 -0.000181178
0.00104957 4.85191e-05 -9.12825e-07
4.85191e-05 0.000160092 -5.95548e-07
-9.12825e-07 -5.95548e-07 4.01184e-05
0.00136617 0.000114983 -5.17237e-06
0.000114983 0.000314664 -1.04608e-06
-5.17237e-06 -1.04608e-06 0.000119744
0.00168196 0.0001802 5.09228e-06
0.0001802 0.000169776 1.65285e-05
5.09228e-06 1.65285e-05 0.000204711
0.00640715 -0.000272195 -5.66666e-05
-0.000272195 0.00204121 -1.69363e-05
-5.66666e-05 -1.69363e-05 0.00112745
0.00158378 3.55015e-05 1.51141e-05
3.55015e-05 -0.000644425 2.17134e-05
1.51141e-05 2.17134e-05 -0.00127254
-0.000107822 -0.000377628 -4.60098e-05
-0.000377628 -0.000309697 -1.72886e-05
-4.60098e-05 -1.72886e-05 -3.87726e-05
4.11896e-06 -0.000185414 -2.57839e-05
-0.000185414 -0.00163009 -2.90047e-07
-2.57839e-05 -2.90047e-07 -0.00105132
0.000998495 1.17615e-05 -3.10541e-07
1.17615e-05 9.89889e-05 -9.82422e-07
-3.10541e-07 -9.82422e-07 1.83756e-05
0.00101791 3.38002e-05 -3.26143e-07
3.38002e-05 0.000104248 1.28632e-07
-3.26143e-07 1.28632e-07 2.23407e-05
0.00118273 6.08171e-05 -3.81203e-07
6.08171e-05 0.000192244 -2.66994e-07
-3.81203e-07 -2.66994e-07 0.000112675
0.000882982 1.90904e-06 -4.13845e-08
1.90904e-06 2.75685e-05 -4.52571e-07
-4.13845e-08 -4.52571e-07 -2.03818e-05
0.000935228 -5.49239e-06 -3.35155e-07
-5.49239e-06 5.80809e-05 -5.3129e-07
-3.35155e-07 -5.3129e-07 7.3792e-07
0.000894818 -1.17825e-05 -1.94311e-07
-1.17825e-05 3.74928e-05 -8.25292e-07
-1.94311e-07 -8.25292e-07 -2.51017e-05
0.000963364 -3.4028e-06 -2.7533e-08
-3.4028e-06 7.91336e-05 -4.57176e-07
-2.7533e-08 -4.57176e-07 1.17184e-05
0.000942707 1.64775e-07 -6.78043e-08
1.64775e-07 6.93201e-05 -4.03103e-07
-6.78043e-08 -4.03103e-07 -7.31202e-06
0.000757041 -6.14935e-06 3.48554e-07
-6.14935e-06 -4.14376e-05 4.04534e-07
3.48554e-07 4.04534e-07 -8.91683e-05
0.000901628 5.88437e-06 -1.3848e-07
5.88437e-06 4.73111e-05 -3.1065e-07
-1.3848e-07 -3.1065e-07 -1.84474e-05
0.000965606 -1.47081e-05 -2.01503e-07
-1.47081e-05 7.25312e-05 3.57828e-07
-2.01503e-07 3.57828e-07 9.09122e-06
0.000915878 1.86337e-05 3.25852e-07
1.86337e-05 4.66676e-05 -1.96699e-07
3.25852e-07 -1.96699e-07 -1.26548e-05
0.000966487 2.10058e-05 -2.93386e-09
2.10058e-05 8.03567e-05 7.02503e-08
-2.93386e-09 7.02503e-08 7.94658e-06
0.000888279 2.32324e-06 4.83091e-07
2.32324e-06 3.13385e-05 3.43575e-07
4.83091e-07 3.43575e-07 -3.61985e-05
0.00105363 3.73487e-05 -2.37911e-07
3.73487e-05 0.000124881 -2.01924e-07
-2.37911e-07 -2.01924e-07 5.01398e-05
0.000974822 -4.94864e-05 4.73094e-08
-4.94864e-05 7.62142e-05 2.77143e-07
4.73094e-08 2.77143e-07 1.27528e-05
0.00098282 -3.5179e-05 -4.55755e-07
-3.5179e-05 8.18936e-05 7.36937e-08
-4.55755e-07 7.36937e-08 2.23351e-05
0.000973259 -3.1289e-06 -3.38449e-07
-3.1289e-06 7.71623e-05 -7.49252e-08
-3.38449e-07 -7.49252e-08 1.92434e-05
0.000954863 4.43916e-05 -2.5063e-07
4.43916e-05 6.96067e-05 -2.763e-07
-2.5063e-07 -2.763e-07 6.66258e-06
0.000957221 2.29143e-05 -2.0561e-08
2.29143e-05 7.0481e-05 2.00487e-07
-2.0561e-08 2.00487e-07 5.12139e-06
0.000924694 3.6245e-05 1.123e-07
3.6245e-05 5.61418e-05 5.8922e-07
1.123e-07 5.8922e-07 -6.86355e-06
0.00106251 4.70304e-05 -9.52252e-08
4.70304e-05 0.000122641 1.03829e-07
-9.52252e-08 1.03829e-07 5.59975e-05
0.000883793 7.3678e-06 4.96782e-07
7.3678e-06 4.09871e-05 1.56409e-06
4.96782e-07 1.56409e-06 -2.87532e-05
0.000891659 1.40615e-05 -1.68471e-07
1.40615e-05 3.69832e-05 5.57143e-07
-1.68471e-07 5.57143e-07 -1.92749e-05
0.000899459 1.18193e-06 -2.87205e-08
1.18193e-06 4.28443e-05 -2.14062e-08
-2.87205e-08 -2.14062e-08 -1.4082e-05
0.00088592 2.76192e-06 -8.84258e-07
2.76192e-06 2.60394e-05 7.28045e-07
-8.84258e-07 7.28045e-07 -1.87243e-05
0.000861206 1.43242e-05 2.96417e-07
1.43242e-05 1.74564e-05 -6.71448e-07
2.96417e-07 -6.71448e-07 -3.80744e-05
0.000838271 -1.13637e-05 9.02327e-08
-1.13637e-05 2.17662e-07 1.77134e-08
9.02327e-08 1.77134e-08 -4.53529e-05
0.000860129 1.2376e-05 -3.97192e-07
1.2376e-05 3.4284e-06 1.70066e-06
-3.97192e-07 1.70066e-06 -2.41363e-05
0.000778575 5.31686e-06 3.6047e-07
5.31686e-06 -2.89315e-05 -4.6998e-07
3.6047e-07 -4.6998e-07 -7.70804e-05
0.00085554 5.56611e-06 -1.52339e-07
5.56611e-06 4.50329e-07 -4.1431e-09
-1.52339e-07 -4.1431e-09 -2.68966e-05
0.00138787 9.85531e-06 -2.71716e-06
9.85531e-06 0.000274043 4.26858e-06
-2.71716e-06 4.26858e-06 0.000276391
0.000849334 -4.1286e-06 5.27617e-07
-4.1286e-06 -2.88101e-06 -1.59124e-06
5.27617e-07 -1.59124e-06 -3.00924e-05
0.00109736 5.13317e-06 -1.15971e-06
5.13317e-06 0.000118366 6.13521e-07
-1.15971e-06 6.13521e-07 0.000119608
0.00101116 2.76647e-06 -2.45739e-06
2.76647e-06 7.24434e-05 3.89261e-06
-2.45739e-06 3.89261e-06 8.97232e-05
0.000808897 5.03603e-07 -1.02961e-08
5.03603e-07 -3.55677e-05 -3.03362e-06
-1.02961e-08 -3.03362e-06 -3.54321e-05
0.0021326 -5.8402e-07 1.82041e-06
-5.8402e-07 0.000667287 2.60686e-10
1.82041e-06 2.60686e-10 0.000690407
0.00101704 -3.58451e-06 -1.56085e-06
-3.58451e-06 7.54019e-05 -3.87589e-06
-1.56085e-06 -3.87589e-06 9.29918e-05
0.000885881 3.53584e-05 2.89515e-07
3.53584e-05 2.97966e-05 -1.94408e-07
2.89515e-07 -1.94408e-07 -1.25423e-05
0.000870306 -5.25318e-07 -9.4345e-09
-5.25318e-07 4.39787e-06 -1.61006e-06
-9.4345e-09 -1.61006e-06 -1.80903e-05
0.000869096 2.80504e-06 -5.27187e-08
2.80504e-06 3.66914e-06 -7.91323e-10
-5.27187e-08 -7.91323e-10 -1.92815e-05
0.000810152 4.48168e-06 8.87811e-08
4.48168e-06 -3.60216e-05 -3.0476e-06
8.87811e-08 -3.0476e-06 -3.32589e-05
0.000863558 6.23007e-06 -2.8921e-07
6.23007e-06 1.40542e-06 1.56151e-06
-2.8921e-07 1.56151e-06 -2.26571e-05
0.000803077 9.30852e-06 5.61499e-08
9.30852e-06 -3.82554e-05 -6.20651e-07
5.61499e-08 -6.20651e-07 -3.64002e-05
0.00205836 1.20639e-05 6.34349e-06
1.20639e-05 0.00062961 -3.89333e-06
6.34349e-06 -3.89333e-06 0.000653261
0.00133715 1.73647e-05 -1.28594e-06
1.73647e-05 0.000248344 1.90324e-06
-1.28594e-06 1.90324e-06 0.000251373
0.00156138 1.59338e-05 3.24439e-07
1.59338e-05 0.000369354 1.20922e-06
3.24439e-07 1.20922e-06 0.000389048
0.00105216 1.80652e-05 -1.34454e-05
1.80652e-05 0.000103389 6.31299e-06
-1.34454e-05 6.31299e-06 0.000119055
-0.00074828 1.29796e-05 3.66342e-06
1.29796e-05 -0.00124892 2.6956e-06
3.66342e-06 2.6956e-06 -0.00130134
0.00193655 6.32575e-06 2.22959e-06
6.32575e-06 0.000159462 1.22269e-07
2.22959e-06 1.22269e-07 7.83729e-05
0.00200776 1.15358e-05 -2.37858e-06
1.15358e-05 0.000182581 -1.81017e-06
-2.37858e-06 -1.81017e-06 0.000109511
0.00105675 -7.31827e-05 2.84624e-05
-7.31827e-05 -0.0002451 1.55344e-06
2.84624e-05 1.55344e-06 -0.000459777
0.00170574 -4.34616e-05 -2.07792e-06
-4.34616e-05 5.31221e-05 -3.77924e-07
-2.07792e-06 -3.77924e-07 -2.45249e-05
0.00174879 2.12609e-05 -3.59766e-06
2.12609e-05 -5.33253e-07 -1.99528e-06
-3.59766e-06 -1.99528e-06 -8.4468e-05
0.00183032 3.73474e-05 -9.16708e-06
3.73474e-05 0.000170796 1.00963e-06
-9.16708e-06 1.00963e-06 9.11984e-05
0.00165149 -7.42743e-05 0.000124989
-7.42743e-05 6.57224e-05 -2.41208e-07
0.000124989 -2.41208e-07 -0.000230263
0.00549746 0.000105659 -1.51133e-05
0.000105659 0.00157914 -2.4742e-07
-1.51133e-05 -2.4742e-07 0.000818439
0.00414666 0.000485695 -2.33763e-05
0.000485695 0.00175739 7.01203e-06
-2.33763e-05 7.01203e-06 0.00195427
0.0014943 0.000406209 -1.54583e-05
0.000406209 4.43738e-05 6.183e-06
-1.54583e-05 6.183e-06 0.000834698
0.000745012 -3.35499e-05 1.1317e-06
-3.35499e-05 -3.26292e-05 -6.23817e-07
1.1317e-06 -6.23817e-07 -8.72668e-05
0.000900468 -9.53268e-06 1.72652e-07
-9.53268e-06 3.55138e-05 -2.47153e-08
1.72652e-07 -2.47153e-08 -5.48168e-06
0.000895924 -4.11405e-05 -8.07417e-07
-4.11405e-05 3.53847e-05 8.11214e-07
-8.07417e-07 8.11214e-07 -7.70614e-06
0.000857777 -8.49659e-06 -2.84762e-07
-8.49659e-06 2.37584e-05 2.46191e-08
-2.84762e-07 2.46191e-08 -3.03664e-05
0.000907779 3.90557e-05 6.719e-08
3.90557e-05 5.97907e-05 7.444e-07
6.719e-08 7.444e-07 -4.80967e-06
0.000940585 4.42111e-05 1.34241e-07
4.42111e-05 7.17898e-05 6.87759e-07
1.34241e-07 6.87759e-07 1.05081e-05
0.000939528 -2.35756e-05 6.94053e-07
-2.35756e-05 7.00483e-05 -8.40382e-07
6.94053e-07 -8.40382e-07 1.43625e-05
0.000849597 -4.21439e-05 -5.14714e-07
-4.21439e-05 2.35331e-05 4.77509e-07
-5.14714e-07 4.77509e-07 -3.15587e-05
0.00154527 4.28172e-06 1.41202e-06
4.28172e-06 -3.31666e-05 -9.98887e-07
1.41202e-06 -9.98887e-07 -0.000113792
0.00167498 -6.06035e-05 -1.10867e-06
-6.06035e-05 -5.3406e-05 2.43363e-07
-1.10867e-06 2.43363e-07 -0.000138021
0.00171773 -0.000137731 -5.27832e-06
-0.000137731 4.85368e-05 2.36706e-06
-5.27832e-06 2.36706e-06 -4.28679e-05
0.000876068 -9.28778e-05 1.05444e-06
-9.28778e-05 3.37235e-05 9.94663e-07
1.05444e-06 9.94663e-07 -8.71856e-05
0.0016693 -0.000150222 1.09052e-06
-0.000150222 0.000330893 5.35148e-07
1.09052e-06 5.35148e-07 0.000169756
0.000927488 -6.39734e-05 5.86673e-07
-6.39734e-05 9.37353e-05 -1.00056e-06
5.86673e-07 -1.00056e-06 -1.91627e-05
0.00121013 -6.1831e-05 2.99243e-07
-6.1831e-05 0.000231526 -5.53374e-07
2.99243e-07 -5.53374e-07 0.000131214
0.000884884 -2.01172e-05 -4.8127e-07
-2.01172e-05 4.94093e-05 1.1296e-07
-4.8127e-07 1.1296e-07 -2.96797e-05
0.000890119 6.13833e-06 4.04124e-07
6.13833e-06 4.37725e-05 5.71982e-07
4.04124e-07 5.71982e-07 -1.77867e-05
0.00104238 1.04189e-06 -7.38573e-07
1.04189e-06 0.000121962 2.61303e-07
-7.38573e-07 2.61303e-07 5.20909e-05
0.00108177 1.81422e-06 2.86518e-07
1.81422e-06 0.000139403 -1.53498e-08
2.86518e-07 -1.53498e-08 8.52257e-05
0.000857832 6.26934e-05 1.08425e-06
6.26934e-05 2.713e-05 1.34724e-06
1.08425e-06 1.34724e-06 -4.11765e-05
0.00162938 7.07316e-06 1.19241e-06
7.07316e-06 -5.0982e-05 -3.22577e-06
1.19241e-06 -3.22577e-06 -0.000133133
0.00088776 2.08645e-05 -3.85564e-07
2.08645e-05 4.74944e-05 3.86967e-07
-3.85564e-07 3.86967e-07 -2.36536e-05
0.000899487 -2.59208e-05 -2.82024e-07
-2.59208e-05 5.26563e-05 -3.17331e-07
-2.82024e-07 -3.17331e-07 -1.84299e-05
0.00220874 -0.000139117 -2.01173e-06
-0.000139117 0.000171824 1.44148e-07
-2.01173e-06 1.44148e-07 9.07735e-05
0.00108142 -0.000128611 2.97974e-07
-0.000128611 -7.70096e-05 1.34352e-06
2.97974e-07 1.34352e-06 -0.000204838
0.00122389 -0.000119746 1.09658e-06
-0.000119746 0.000227094 -8.9685e-07
1.09658e-06 -8.9685e-07 8.72212e-05
0.00097198 -3.19825e-05 1.43849e-07
-3.19825e-05 8.9702e-05 -1.15493e-07
1.43849e-07 -1.15493e-07 8.78182e-06
0.00104349 -2.37898e-05 -8.2638e-08
-2.37898e-05 0.000153284 2.84207e-07
-8.2638e-08 2.84207e-07 3.2037e-05
0.00263141 -7.98786e-05 -7.06593e-06
-7.98786e-05 0.000483261 1.04459e-05
-7.06593e-06 1.04459e-05 0.000418466
0.0026275 -0.000215133 2.9602e-06
-0.000215133 0.000523631 -5.25836e-06
2.9602e-06 -5.25836e-06 0.000397712
0.00052765 -0.000107514 -3.75083e-06
-0.000107514 -0.000157861 -1.02013e-06
-3.75083e-06 -1.02013e-06 -0.000288708
0.00132525 -8.03963e-05 -3.33076e-06
-8.03963e-05 0.000306868 2.45786e-06
-3.33076e-06 2.45786e-06 0.00016131
0.000787006 -5.77647e-05 7.88446e-07
-5.77647e-05 -2.62061e-06 -1.0034e-07
7.88446e-07 -1.0034e-07 -7.91203e-05
0.000985432 -4.33021e-05 1.71307e-06
-4.33021e-05 9.53425e-05 -1.98285e-07
1.71307e-06 -1.98285e-07 1.46803e-05
0.00109442 -1.8819e-05 -9.3454e-07
-1.8819e-05 0.000153073 5.54692e-07
-9.3454e-07 5.54692e-07 5.91314e-05
-0.00231859 -1.62115e-05 -2.88042e-05
-1.62115e-05 -0.00116203 -9.22861e-07
-2.88042e-05 -9.22861e-07 -0.00102929
0.00657703 -2.12637e-05 -2.27755e-05
-2.12637e-05 0.00222475 -1.39092e-06
-2.27755e-05 -1.39092e-06 0.00167182
0.000978417 4.69562e-05 6.24112e-07
4.69562e-05 9.91916e-05 -5.06725e-07
6.24112e-07 -5.06725e-07 7.59694e-06
0.00087402 8.33127e-05 1.48002e-06
8.33127e-05 5.68243e-05 -1.52904e-06
1.48002e-06 -1.52904e-06 -5.01349e-05
0.00182966 0.000100606 -5.86471e-06
0.000100606 -1.28016e-05 3.21166e-06
-5.86471e-06 3.21166e-06 -1.21143e-05
0.0015324 0.000179169 -2.1482e-06
0.000179169 4.14189e-05 2.18942e-06
-2.1482e-06 2.18942e-06 -6.59495e-05
0.00105987 0.000107821 1.46602e-06
0.000107821 0.000154855 1.95116e-07
1.46602e-06 1.95116e-07 -8.60294e-06
0.0055224 -8.54457e-06 2.90854e-05
-8.54457e-06 0.00156913 -6.53794e-06
2.90854e-05 -6.53794e-06 0.000890279
0.00338728 -9.85172e-05 -6.59532e-05
-9.85172e-05 0.000302603 -1.6201e-05
-6.59532e-05 -1.6201e-05 -5.85216e-05
0.000635601 0.000116286 -5.83827e-06
0.000116286 -0.000451504 -1.00314e-05
-5.83827e-06 -1.00314e-05 -0.000404779
0.00309285 -0.000381804 2.83306e-05
-0.000381804 0.00148034 1.56693e-05
2.83306e-05 1.56693e-05 0.00150213
-0.0013601 -0.000444935 1.70614e-05
-0.000444935 -0.00192955 -9.0555e-06
1.70614e-05 -9.0555e-06 -0.000807206
0.00103783 7.63867e-05 -1.2973e-07
7.63867e-05 0.000130162 -2.30161e-07
-1.2973e-07 -2.30161e-07 3.83418e-05
-0.00199428 -9.49175e-05 -1.62262e-06
-9.49175e-05 -0.00104583 -1.44656e-06
-1.62262e-06 -1.44656e-06 -0.000892148
0.000398293 -0.00022159 -9.76191e-06
-0.00022159 -5.84016e-05 -1.48755e-06
-9.76191e-06 -1.48755e-06 0.000149373
0.00208109 0.000147215 -1.1908e-06
0.000147215 0.000180092 -1.01342e-06
-1.1908e-06 -1.01342e-06 0.000205812
0.000991299 6.10141e-05 -1.4273e-07
6.10141e-05 0.00013951 -9.69287e-07
-1.4273e-07 -9.69287e-07 2.10296e-05
0.000833268 9.86284e-05 2.31206e-08
9.86284e-05 4.72752e-05 4.57504e-07
2.31206e-08 4.57504e-07 -0.000146995
-8.02958e-05 0.000112787 1.4513e-05
0.000112787 -0.000686687 6.05021e-06
1.4513e-05 6.05021e-06 -0.000634618
0.00473864 -0.000189078 1.93797e-06
-0.000189078 0.00112574 1.53337e-06
1.93797e-06 1.53337e-06 0.000157624
0.00360679 9.70976e-05 -2.46378e-05
9.70976e-05 0.000468465 -1.49543e-05
-2.46378e-05 -1.49543e-05 8.64627e-05
0.0035909 -0.00052429 1.08354e-05
-0.00052429 0.00123328 -1.64384e-06
1.08354e-05 -1.64384e-06 0.00133574
0.000470826 -0.000236632 6.84152e-06
-0.000236632 -0.00151111 1.91601e-05
6.84152e-06 1.91601e-05 -0.000753208
0.00112658 3.8103e-05 -2.15699e-06
3.8103e-05 0.000166161 -8.20373e-07
-2.15699e-06 -8.20373e-07 8.1279e-05
-0.000617154 -6.45464e-05 -3.44455e-05
-6.45464e-05 -0.000361338 -6.1631e-06
-3.44455e-05 -6.1631e-06 -0.000498556
0.00141499 -2.06078e-05 -2.6528e-05
-2.06078e-05 -4.05468e-05 -2.45347e-05
-2.6528e-05 -2.45347e-05 -0.000108157
0.000706332 0.00012398 -4.89393e-06
0.00012398 -0.000179136 -6.47617e-06
-4.89393e-06 -6.47617e-06 -0.000243612
0.00171632 9.43827e-05 -8.25444e-06
9.43827e-05 0.000567509 -8.35923e-07
-8.25444e-06 -8.35923e-07 0.000418742
0.00173332 -7.76978e-07 -3.69364e-06
-7.76978e-07 0.000596301 -3.14733e-06
-3.69364e-06 -3.14733e-06 0.00054618
0.00243176 0.000304083 -8.84684e-05
0.000304083 0.000207636 1.29619e-05
-8.84684e-05 1.29619e-05 -0.000137986
0.000487665 -0.000271509 1.76017e-05
-0.000271509 -0.000557229 1.96907e-05
1.76017e-05 1.96907e-05 -0.00178077
0.0058304 -0.000520321 -5.06472e-05
-0.000520321 0.00155585 -6.2313e-06
-5.06472e-05 -6.2313e-06 0.00172478
0.000782593 -0.000103613 -4.57851e-06
-0.000103613 -0.00116641 -1.07214e-05
-4.57851e-06 -1.07214e-05 -0.00074142
0.000970582 3.81412e-05 2.48886e-07
3.81412e-05 8.26636e-05 4.00028e-07
2.48886e-07 4.00028e-07 -3.55241e-08
0.00107874 5.83975e-05 9.99944e-07
5.83975e-05 0.000137928 5.81938e-07
9.99944e-07 5.81938e-07 5.75784e-05
0.000628768 5.46345e-05 1.0314e-06
5.46345e-05 -7.60005e-05 -1.38458e-06
1.0314e-06 -1.38458e-06 -0.000156314
0.000774539 2.02683e-05 2.10664e-07
2.02683e-05 -3.23187e-05 -4.74851e-07
2.10664e-07 -4.74851e-07 -8.01549e-05
0.000987604 2.66209e-05 -3.83367e-07
2.66209e-05 8.60084e-05 -5.18389e-07
-3.83367e-07 -5.18389e-07 2.62428e-05
0.00108024 -3.3815e-05 -6.71836e-10
-3.3815e-05 0.000133369 -6.25937e-08
-6.71836e-10 -6.25937e-08 6.99192e-05
0.000885515 8.0847e-07 -6.41496e-07
8.0847e-07 3.98134e-05 -5.03597e-07
-6.41496e-07 -5.03597e-07 -2.5548e-05
0.000943172 1.73561e-05 -4.42905e-07
1.73561e-05 6.71364e-05 1.55477e-08
-4.42905e-07 1.55477e-08 -5.37963e-06
0.000962247 1.33195e-05 3.50673e-07
1.33195e-05 7.1789e-05 -3.94842e-07
3.50673e-07 -3.94842e-07 1.1985e-05
0.000946495 -8.39735e-07 -5.47396e-08
-8.39735e-07 6.40358e-05 -1.31379e-07
-5.47396e-08 -1.31379e-07 -3.43378e-06
0.000953085 -3.44824e-05 1.66448e-07
-3.44824e-05 6.50363e-05 4.64521e-09
1.66448e-07 4.64521e-09 1.27472e-06
0.00100417 2.31159e-05 -4.54091e-08
2.31159e-05 0.000101007 3.01771e-07
-4.54091e-08 3.01771e-07 2.70303e-05
0.00126653 -2.18601e-05 4.14739e-07
-2.18601e-05 0.000231923 -6.98886e-08
4.14739e-07 -6.98886e-08 0.000159165
0.000968443 -1.03414e-05 -1.94496e-07
-1.03414e-05 6.96963e-05 3.63015e-07
-1.94496e-07 3.63015e-07 1.65147e-06
0.000968978 3.65827e-06 1.40129e-07
3.65827e-06 7.61854e-05 2.48076e-07
1.40129e-07 2.48076e-07 9.52712e-06
0.000975896 -2.3643e-05 1.74632e-07
-2.3643e-05 8.01808e-05 -5.50895e-07
1.74632e-07 -5.50895e-07 2.0973e-05
0.000873892 2.09428e-05 -2.02628e-07
2.09428e-05 2.38528e-05 -7.67293e-07
-2.02628e-07 -7.67293e-07 -3.75057e-05
0.000946343 6.56971e-07 2.77852e-07
6.56971e-07 6.50284e-05 -9.35693e-08
2.77852e-07 -9.35693e-08 -1.1657e-07
0.000911984 3.50003e-05 -3.46366e-08
3.50003e-05 4.96979e-05 -1.59934e-08
-3.46366e-08 -1.59934e-08 -1.32412e-05
0.000995495 3.38655e-05 -5.2074e-07
3.38655e-05 8.49271e-05 -5.71653e-07
-5.2074e-07 -5.71653e-07 1.92163e-05
0.00088448 2.36017e-05 4.1993e-07
2.36017e-05 3.72072e-05 1.13642e-06
4.1993e-07 1.13642e-06 -2.74719e-05
0.00100083 3.18885e-05 3.55959e-07
3.18885e-05 9.18657e-05 3.0532e-07
3.55959e-07 3.0532e-07 2.36427e-05
0.000936815 2.02949e-05 -7.23091e-08
2.02949e-05 5.47121e-05 6.00356e-07
-7.23091e-08 6.00356e-07 -1.32074e-05
0.000900759 -4.73515e-06 6.7915e-07
-4.73515e-06 5.11524e-05 6.00388e-07
6.7915e-07 6.00388e-07 -2.93561e-05
0.000811547 -5.0328e-05 -2.55381e-07
-5.0328e-05 2.74008e-05 5.24931e-07
-2.55381e-07 5.24931e-07 -6.80225e-05
0.000783701 -4.98146e-06 -4.86016e-07
-4.98146e-06 -6.42516e-06 4.31808e-07
-4.86016e-07 4.31808e-07 -8.29239e-05
0.00091255 7.19253e-06 1.43256e-07
7.19253e-06 5.67654e-05 3.81762e-07
1.43256e-07 3.81762e-07 -1.32915e-05
0.000897154 1.22049e-05 6.7642e-08
1.22049e-05 4.0262e-05 1.19035e-06
6.7642e-08 1.19035e-06 -1.85492e-05
0.000905642 1.0364e-05 -1.35322e-07
1.0364e-05 4.51596e-05 -6.6339e-08
-1.35322e-07 -6.6339e-08 -1.16592e-05
0.000883373 2.00825e-05 -4.15924e-07
2.00825e-05 2.61709e-05 7.82627e-07
-4.15924e-07 7.82627e-07 -1.91267e-05
0.000907468 1.34712e-05 3.55139e-07
1.34712e-05 4.55098e-05 -3.93147e-07
3.55139e-07 -3.93147e-07 -1.0405e-05
0.000892875 5.76127e-06 -4.23897e-08
5.76127e-06 2.94057e-05 1.16611e-08
-4.23897e-08 1.16611e-08 -1.53457e-05
0.000856097 1.53897e-05 -7.17563e-07
1.53897e-05 3.23921e-06 1.68495e-06
-7.17563e-07 1.68495e-06 -2.4825e-05
0.000779178 6.33133e-06 3.78918e-07
6.33133e-06 -3.2064e-05 -7.48655e-07
3.78918e-07 -7.48655e-07 -7.71784e-05
0.000859261 7.91077e-06 -7.86198e-08
7.91077e-06 2.8384e-06 -5.21937e-09
-7.86198e-08 -5.21937e-09 -2.46655e-05
0.00138371 1.48563e-05 -4.34915e-06
1.48563e-05 0.000274116 4.26621e-06
-4.34915e-06 4.26621e-06 0.000276121
0.000853163 -2.46623e-07 6.49275e-07
-2.46623e-07 -9.89914e-07 -1.62875e-06
6.49275e-07 -1.62875e-06 -2.8259e-05
0.0010945 9.82439e-06 -1.81198e-06
9.82439e-06 0.000118369 6.04913e-07
-1.81198e-06 6.04913e-07 0.00011935
0.000968315 8.80576e-06 -6.93335e-07
8.80576e-06 5.11566e-05 1.54397e-06
-6.93335e-07 1.54397e-06 6.82996e-05
0.000805209 4.72475e-06 2.91839e-07
4.72475e-06 -3.69476e-05 -3.04774e-06
2.91839e-07 -3.04774e-06 -3.70655e-05
0.0021394 5.58335e-06 1.68871e-06
5.58335e-06 0.000671348 1.18029e-08
1.68871e-06 1.18029e-08 0.000694313
0.00213485 -2.00679e-07 1.06355e-06
-2.00679e-07 0.000668475 -3.98789e-06
1.06355e-06 -3.98789e-06 0.000691564
0.00112771 2.20816e-05 -8.23106e-07
2.20816e-05 0.000155717 -3.73556e-07
-8.23106e-07 -3.73556e-07 0.000114641
0.00087041 -3.83016e-06 -1.76888e-07
-3.83016e-06 5.46001e-06 -1.52933e-06
-1.76888e-07 -1.52933e-06 -1.74827e-05
0.000893576 2.99046e-06 6.32056e-07
2.99046e-06 3.36017e-05 4.52738e-07
6.32056e-07 4.52738e-07 -8.43312e-06
0.000816598 -3.28978e-07 -6.62815e-08
-3.28978e-07 -3.30482e-05 -3.02482e-06
-6.62815e-08 -3.02482e-06 -2.99331e-05
0.000870309 -9.73361e-07 3.34752e-08
-9.73361e-07 4.35646e-06 -2.22003e-10
3.34752e-08 -2.22003e-10 -1.81285e-05
0.000866167 2.21705e-06 -2.18e-07
2.21705e-06 1.99831e-06 1.58741e-06
-2.18e-07 1.58741e-06 -2.09199e-05
0.00081316 4.65351e-06 -1.25807e-07
4.65351e-06 -3.44365e-05 8.00882e-09
-1.25807e-07 8.00882e-09 -3.17082e-05
0.00203179 5.86037e-06 2.7645e-06
5.86037e-06 0.000614042 -3.90627e-06
2.7645e-06 -3.90627e-06 0.000638257
0.0013305 1.1797e-05 -7.96845e-07
1.1797e-05 0.000241749 1.86888e-06
-7.96845e-07 1.86888e-06 0.00024622
0.00152159 1.08563e-05 1.84274e-06
1.08563e-05 0.000344972 2.72914e-08
1.84274e-06 2.72914e-08 0.000365795
0.00104532 1.33916e-05 -1.11549e-05
1.33916e-05 9.5148e-05 6.28588e-06
-1.11549e-05 6.28588e-06 0.000112196
-0.00384347 0.000111659 -2.50113e-05
0.000111659 -0.0020046 8.01657e-06
-2.50113e-05 8.01657e-06 -0.00192157
-0.00120724 0.000197446 -8.16346e-06
0.000197446 -0.00096204 1.18351e-05
-8.16346e-06 1.18351e-05 -0.000743278
0.000409561 -2.75994e-05 -8.47925e-05
-2.75994e-05 -0.000587971 -8.81879e-06
-8.47925e-05 -8.81879e-06 -0.000794975
0.00248635 -4.39731e-05 3.75425e-07
-4.39731e-05 0.000497586 -1.90133e-07
3.75425e-07 -1.90133e-07 0.000409576
0.00144827 1.96e-05 -1.00522e-05
1.96e-05 -0.000170301 -2.2187e-07
-1.00522e-05 -2.2187e-07 -0.000252037
0.00110865 -2.81102e-05 2.36697e-05
-2.81102e-05 -3.31058e-05 -2.34043e-06
2.36697e-05 -2.34043e-06 -0.000250441
0.00202375 4.21283e-05 7.59369e-07
4.21283e-05 0.000276268 1.4258e-06
7.59369e-07 1.4258e-06 0.000195237
0.00523073 0.000254414 -2.34345e-05
0.000254414 0.00137855 -3.83207e-06
-2.34345e-05 -3.83207e-06 0.000728865
-0.00308316 0.000236219 -7.48766e-06
0.000236219 -0.00135129 -2.88703e-06
-7.48766e-06 -2.88703e-06 -0.00129913
0.000170889 0.000431735 4.46881e-06
0.000431735 -0.000927509 -6.15838e-06
4.46881e-06 -6.15838e-06 3.19017e-05
0.00119185 5.10409e-06 4.41092e-05
5.10409e-06 2.72063e-05 -9.35437e-06
4.41092e-05 -9.35437e-06 -0.000203602
0.00632339 0.000407518 -6.04191e-06
0.000407518 0.00186301 -7.25773e-06
-6.04191e-06 -7.25773e-06 0.00101851
-0.000105994 0.000397562 -4.36038e-05
0.000397562 -0.000282343 1.66504e-05
-4.36038e-05 1.66504e-05 1.81702e-05
0.00274495 0.00023355 -3.37384e-05
0.00023355 -7.71718e-06 1.90306e-05
-3.37384e-05 1.90306e-05 0.000574171
0.000868554 3.05159e-05 -5.68941e-07
3.05159e-05 3.95556e-05 -2.38202e-07
-5.68941e-07 -2.38202e-07 -2.8659e-05
0.00081338 -1.06367e-05 1.13262e-07
-1.06367e-05 2.28748e-06 -3.69834e-07
1.13262e-07 -3.69834e-07 -5.16113e-05
0.00089337 -3.84366e-05 -7.73481e-07
-3.84366e-05 3.34039e-05 8.12997e-07
-7.73481e-07 8.12997e-07 -8.65815e-06
0.000803717 7.37358e-06 1.20679e-07
7.37358e-06 -3.46897e-06 2.50621e-07
1.20679e-07 2.50621e-07 -5.83456e-05
0.000914585 4.39496e-05 6.97516e-07
4.39496e-05 6.48492e-05 7.99781e-07
6.97516e-07 7.99781e-07 9.89486e-07
0.000955584 2.99214e-05 -5.4213e-07
2.99214e-05 8.49422e-05 1.78818e-07
-5.4213e-07 1.78818e-07 1.73318e-05
0.000910479 3.23111e-05 1.07053e-06
3.23111e-05 6.00918e-05 1.00892e-06
1.07053e-06 1.00892e-06 -3.96635e-06
0.000881298 -1.04361e-05 7.0875e-07
-1.04361e-05 3.93902e-05 1.59574e-07
7.0875e-07 1.59574e-07 -2.15816e-05
0.0008741 -2.36961e-05 3.33322e-07
-2.36961e-05 3.67114e-05 -5.41267e-07
3.33322e-07 -5.41267e-07 -2.05071e-05
0.000793072 -3.51516e-05 -3.08261e-07
-3.51516e-05 -5.53631e-06 5.97089e-07
-3.08261e-07 5.97089e-07 -6.15242e-05
0.00163167 1.38806e-05 -1.02672e-06
1.38806e-05 -5.85149e-05 -1.85278e-07
-1.02672e-06 -1.85278e-07 -0.000139421
0.00181482 -0.000129674 -7.74314e-06
-0.000129674 -2.0378e-05 3.5958e-06
-7.74314e-06 3.5958e-06 -9.71294e-05
0.000147387 -9.41959e-05 3.72143e-06
-9.41959e-05 -0.000532127 4.39407e-06
3.72143e-06 4.39407e-06 -0.000652951
0.00134806 -0.000126135 2.05856e-06
-0.000126135 0.000288908 -2.11876e-07
2.05856e-06 -2.11876e-07 0.00014625
0.00109489 -3.7561e-05 2.23107e-06
-3.7561e-05 0.000179059 -1.00859e-06
2.23107e-06 -1.00859e-06 5.78873e-05
0.000987013 -3.99646e-05 -2.53425e-07
-3.99646e-05 9.58006e-05 -4.77101e-07
-2.53425e-07 -4.77101e-07 1.36129e-05
0.000875461 -2.03369e-05 -8.9199e-07
-2.03369e-05 3.77382e-05 3.11792e-08
-8.9199e-07 3.11792e-08 -3.22015e-05
0.000904004 2.19177e-05 -4.96021e-07
2.19177e-05 5.68106e-05 2.72265e-07
-4.96021e-07 2.72265e-07 -1.32445e-05
0.00186522 -6.29025e-05 -5.21229e-06
-6.29025e-05 8.44681e-05 1.97187e-06
-5.21229e-06 1.97187e-06 1.87937e-05
0.000825106 -2.74043e-05 -1.62682e-07
-2.74043e-05 1.66642e-05 6.69694e-08
-1.62682e-07 6.69694e-08 -6.04272e-05
0.000916884 -4.63147e-05 6.20983e-07
-4.63147e-05 5.80693e-05 -3.87156e-07
6.20983e-07 -3.87156e-07 -2.37815e-05
0.00198748 -0.000188372 1.46156e-06
-0.000188372 0.00021909 -8.03847e-07
1.46156e-06 -8.03847e-07 9.76092e-05
0.000556468 -0.000104492 1.72673e-06
-0.000104492 -0.000122877 2.44457e-06
1.72673e-06 2.44457e-06 -0.000249948
0.0011592 -7.44379e-05 8.61619e-07
-7.44379e-05 0.000210628 -4.12724e-08
8.61619e-07 -4.12724e-08 7.2612e-05
0.00109396 -3.04921e-05 -5.37037e-07
-3.04921e-05 0.000152856 -2.57045e-07
-5.37037e-07 -2.57045e-07 5.50213e-05
0.00239398 -0.000169042 2.71269e-06
-0.000169042 0.000442658 1.9203e-06
2.71269e-06 1.9203e-06 0.000399911
0.00263176 -0.000217316 -4.63542e-06
-0.000217316 0.000805768 -2.75559e-06
-4.63542e-06 -2.75559e-06 0.000677981
0.000925802 -8.80068e-06 -2.214e-06
-8.80068e-06 0.000105495 2.74452e-06
-2.214e-06 2.74452e-06 -2.76258e-05
0.000891364 2.96161e-05 4.62542e-07
2.96161e-05 5.2279e-05 9.48108e-07
4.62542e-07 9.48108e-07 -2.58559e-05
0.00089655 -7.33518e-05 1.1648e-06
-7.33518e-05 4.79272e-05 7.06046e-08
1.1648e-06 7.06046e-08 -3.80996e-05
0.00108127 -3.35081e-05 3.46029e-07
-3.35081e-05 0.000127833 1.34465e-06
3.46029e-07 1.34465e-06 3.95169e-05
0.00112276 -1.80764e-06 -3.46487e-05
-1.80764e-06 0.000659171 8.43409e-07
-3.46487e-05 8.43409e-07 0.000597939
0.0013345 -9.01535e-06 1.19835e-05
-9.01535e-06 0.000587977 1.57564e-06
1.19835e-05 1.57564e-06 0.000522005
0.00033251 0.00013737 -4.47526e-05
0.00013737 -0.000878646 1.35519e-05
-4.47526e-05 1.35519e-05 -0.00142099
0.000985832 7.5889e-05 1.86366e-07
7.5889e-05 0.00010318 2.85608e-07
1.86366e-07 2.85608e-07 1.14335e-05
0.000927099 7.31061e-05 2.273e-06
7.31061e-05 0.000115339 -3.91655e-07
2.273e-06 -3.91655e-07 -2.32474e-06
0.00284648 0.000165226 -3.52753e-07
0.000165226 0.000555858 2.01358e-08
-3.52753e-07 2.01358e-08 0.000573719
0.000289954 8.42909e-05 3.41054e-06
8.42909e-05 -0.000222743 -9.48592e-08
3.41054e-06 -9.48592e-08 -0.000419157
0.00325695 -0.000253804 4.56992e-05
-0.000253804 0.00135387 9.04685e-06
4.56992e-05 9.04685e-06 0.00149269
0.000986388 -0.000264523 1.25142e-05
-0.000264523 -0.000592876 2.14126e-05
1.25142e-05 2.14126e-05 -0.00129935
0.00467656 0.000122831 -7.68182e-05
0.000122831 0.000769751 -5.4832e-05
-7.68182e-05 -5.4832e-05 0.000240461
-0.000829113 9.7795e-05 2.81095e-06
9.7795e-05 -0.00100353 2.28453e-06
2.81095e-06 2.28453e-06 -0.000957974
-0.00215796 -0.000314379 5.51833e-05
-0.000314379 -0.00127359 2.69968e-05
5.51833e-05 2.69968e-05 -0.0011929
0.00172481 -0.000219028 2.88217e-05
-0.000219028 0.00058879 1.51689e-05
2.88217e-05 1.51689e-05 0.000790307
0.00308384 -0.000288143 3.35332e-05
-0.000288143 6.10093e-05 1.88551e-05
3.35332e-05 1.88551e-05 0.000911763
0.00102976 5.09123e-05 1.00307e-07
5.09123e-05 0.00012063 -8.76759e-08
1.00307e-07 -8.76759e-08 3.45284e-05
0.00020447 -8.38354e-05 -1.33368e-05
-8.38354e-05 4.43005e-05 -2.75071e-06
-1.33368e-05 -2.75071e-06 1.76861e-05
0.00169675 -1.95527e-05 -2.60723e-06
-1.95527e-05 0.000121694 -7.47351e-06
-2.60723e-06 -7.47351e-06 5.53853e-05
0.00104034 0.000115801 -1.78093e-06
0.000115801 1.17619e-05 -3.35933e-07
-1.78093e-06 -3.35933e-07 -8.38023e-05
0.000832906 5.37151e-05 -1.04777e-06
5.37151e-05 0.000135702 -3.19693e-07
-1.04777e-06 -3.19693e-07 -2.05559e-05
0.00131746 4.06501e-05 1.02224e-05
4.06501e-05 0.000387988 -6.82707e-06
1.02224e-05 -6.82707e-06 0.000338995
0.00524265 0.000424388 -3.4482e-05
0.000424388 0.0014082 -1.52473e-05
-3.4482e-05 -1.52473e-05 0.000849159
0.00750185 -0.000339035 4.63529e-06
-0.000339035 0.0023973 4.34208e-06
4.63529e-06 4.34208e-06 0.00136244
0.000183413 -0.000305652 5.77434e-06
-0.000305652 -0.000997292 1.03935e-05
5.77434e-06 1.03935e-05 -0.000848535
0.00288916 -0.000139698 1.27773e-06
-0.000139698 0.000128431 6.59959e-07
1.27773e-06 6.59959e-07 0.000609706
0.00144605 9.76028e-05 -2.81714e-06
9.76028e-05 0.000376493 -4.05846e-06
-2.81714e-06 -4.05846e-06 0.000301625
0.00188335 2.07207e-06 -1.4496e-05
2.07207e-06 0.000405946 -2.15568e-06
-1.4496e-05 -2.15568e-06 0.000308627
0.00146686 -2.4298e-06 -2.04527e-06
-2.4298e-06 0.000165747 -1.16682e-05
-2.04527e-06 -1.16682e-05 0.000107817
0.000345058 -4.01206e-05 -1.17945e-05
-4.01206e-05 -8.71095e-06 -5.35193e-06
-1.17945e-05 -5.35193e-06 -0.000133671
0.00265687 0.000230158 -9.47819e-06
0.000230158 0.00095544 4.75441e-05
-9.47819e-06 4.75441e-05 0.000598924
0.00808599 -0.000199153 9.07812e-06
-0.000199153 0.00234368 -1.27229e-05
9.07812e-06 -1.27229e-05 0.00109873
-0.00138351 -0.000166043 -4.2783e-05
-0.000166043 -0.00197004 -3.5949e-05
-4.2783e-05 -3.5949e-05 -0.00199266
0.00344239 3.00645e-05 -3.70864e-09
3.00645e-05 0.000476184 -1.38918e-05
-3.70864e-09 -1.38918e-05 0.000925259
0.000929787 5.7306e-05 1.62479e-07
5.7306e-05 6.07361e-05 1.16322e-07
1.62479e-07 1.16322e-07 -2.04359e-05
0.000973539 6.81447e-05 -5.6096e-08
6.81447e-05 9.69002e-05 -4.86589e-07
-5.6096e-08 -4.86589e-07 1.79724e-05
0.000620873 4.07049e-05 2.23657e-07
4.07049e-05 -8.26621e-05 -1.66007e-06
2.23657e-07 -1.66007e-06 -0.000153135
0.000959213 4.75484e-05 -7.78247e-07
4.75484e-05 6.86908e-05 -8.91526e-07
-7.78247e-07 -8.91526e-07 9.83207e-06
0.000935523 -2.03012e-05 1.67473e-07
-2.03012e-05 5.70949e-05 -2.12691e-07
1.67473e-07 -2.12691e-07 -7.79124e-06
0.000999809 -3.62809e-06 -6.53971e-07
-3.62809e-06 9.3907e-05 -7.47308e-08
-6.53971e-07 -7.47308e-08 2.6626e-05
0.000937762 9.57794e-06 -1.13724e-07
9.57794e-06 6.82679e-05 1.01654e-07
-1.13724e-07 1.01654e-07 -5.12521e-06
0.000977795 9.34579e-06 3.18913e-07
9.34579e-06 7.78868e-05 8.89395e-10
3.18913e-07 8.89395e-10 1.32316e-05
0.000963064 -5.96307e-06 -1.95775e-07
-5.96307e-06 6.71439e-05 1.77857e-07
-1.95775e-07 1.77857e-07 -5.47085e-07
0.00102333 -1.18213e-05 2.86606e-07
-1.18213e-05 0.0001097 2.27676e-07
2.86606e-07 2.27676e-07 3.54827e-05
0.00127169 -3.22287e-05 -4.28144e-07
-3.22287e-05 0.000239151 9.2098e-07
-4.28144e-07 9.2098e-07 0.000174826
0.00101867 -4.31167e-05 7.69359e-07
-4.31167e-05 8.48617e-05 3.72061e-07
7.69359e-07 3.72061e-07 1.83696e-05
0.000915579 3.154e-05 9.14959e-07
3.154e-05 4.66234e-05 5.33503e-07
9.14959e-07 5.33503e-07 -2.17809e-05
0.000945457 -1.3658e-05 8.06767e-07
-1.3658e-05 6.33882e-05 -3.87127e-07
8.06767e-07 -3.87127e-07 -7.15117e-07
0.000897498 3.45437e-05 -9.21652e-08
3.45437e-05 4.25298e-05 -6.08549e-07
-9.21652e-08 -6.08549e-07 -2.04706e-05
0.000946306 2.76026e-05 -7.84447e-07
2.76026e-05 5.64364e-05 -1.05273e-06
-7.84447e-07 -1.05273e-06 -8.44336e-06
0.000993107 3.09363e-05 -2.22176e-07
3.09363e-05 8.63285e-05 -2.10549e-07
-2.22176e-07 -2.10549e-07 1.91744e-05
0.000902276 2.68001e-05 2.41975e-07
2.68001e-05 4.82034e-05 3.27238e-07
2.41975e-07 3.27238e-07 -1.72e-05
0.000935762 2.95881e-05 5.35997e-08
2.95881e-05 5.38122e-05 -1.65085e-07
5.35997e-08 -1.65085e-07 -1.4017e-05
0.000910291 1.07697e-05 8.40724e-07
1.07697e-05 4.8041e-05 1.25176e-06
8.40724e-07 1.25176e-06 -2.40194e-05
0.000964937 1.68575e-05 1.38992e-07
1.68575e-05 6.13956e-05 7.56689e-07
1.38992e-07 7.56689e-07 -5.98317e-06
0.000949534 -4.39243e-05 4.25415e-09
-4.39243e-05 8.50436e-05 5.10991e-07
4.25415e-09 5.10991e-07 -4.61717e-07
0.000992661 -1.02349e-05 -1.51069e-07
-1.02349e-05 9.83353e-05 -3.8804e-09
-1.51069e-07 -3.8804e-09 1.79112e-05
0.000791433 -4.16287e-05 -2.23561e-07
-4.16287e-05 1.7403e-05 2.19903e-06
-2.23561e-07 2.19903e-06 -7.54271e-05
0.00103547 -8.71126e-05 -1.89683e-06
-8.71126e-05 0.000129727 2.86696e-06
-1.89683e-06 2.86696e-06 2.28728e-05
0.00107406 -3.65026e-05 2.688e-07
-3.65026e-05 0.000147409 -3.11364e-07
2.688e-07 -3.11364e-07 6.47223e-05
0.000822279 -5.32742e-05 4.04694e-07
-5.32742e-05 3.44581e-05 -1.71105e-06
4.04694e-07 -1.71105e-06 -5.86967e-05
0.000937908 -6.23692e-06 -1.79768e-07
-6.23692e-06 7.38189e-05 -6.09978e-07
-1.79768e-07 -6.09978e-07 -1.5171e-06
0.000787274 5.57106e-06 4.60559e-08
5.57106e-06 -1.56519e-05 1.15185e-06
4.60559e-08 1.15185e-06 -8.05281e-05
0.000940384 6.78596e-06 -1.52653e-07
6.78596e-06 7.21149e-05 -6.26957e-07
-1.52653e-07 -6.26957e-07 1.74939e-06
0.000911893 8.06534e-06 7.27014e-08
8.06534e-06 4.82571e-05 3.69517e-07
7.27014e-08 3.69517e-07 -1.07843e-05
0.00087847 2.04753e-05 -4.85384e-07
2.04753e-05 2.42693e-05 9.30757e-07
-4.85384e-07 9.30757e-07 -2.23198e-05
0.00091021 -4.7963e-06 2.00996e-07
-4.7963e-06 4.91492e-05 -6.82758e-07
2.00996e-07 -6.82758e-07 -8.70669e-06
0.000884149 5.95354e-06 -2.63328e-07
5.95354e-06 2.66724e-05 2.30111e-09
-2.63328e-07 2.30111e-09 -1.87531e-05
0.000851154 1.82082e-05 -9.13175e-07
1.82082e-05 3.72651e-06 1.69581e-06
-9.13175e-07 1.69581e-06 -2.51794e-05
0.000902632 -1.68414e-06 8.78954e-07
-1.68414e-06 3.44939e-05 -7.747e-07
8.78954e-07 -7.747e-07 -1.04168e-05
0.000858899 1.08831e-05 -1.48623e-07
1.08831e-05 4.32129e-06 2.70605e-10
-1.48623e-07 2.70605e-10 -2.3628e-05
0.00137831 1.98531e-05 -5.96667e-06
1.98531e-05 0.000274695 4.25599e-06
-5.96667e-06 4.25599e-06 0.000276078
0.000857164 2.63079e-06 9.56856e-07
2.63079e-06 1.57526e-06 -1.65494e-06
9.56856e-07 -1.65494e-06 -2.58439e-05
0.00109005 1.45047e-05 -2.42718e-06
1.45047e-05 0.000118546 5.80748e-07
-2.42718e-06 5.80748e-07 0.000119136
0.000964025 1.36129e-05 -1.22281e-06
1.36129e-05 5.21005e-05 1.55422e-06
-1.22281e-06 1.55422e-06 6.87099e-05
0.00080196 9.05948e-06 5.55895e-07
9.05948e-06 -3.71928e-05 -3.08524e-06
5.55895e-07 -3.08524e-06 -3.75652e-05
0.00155497 1.0945e-05 3.7284e-06
1.0945e-05 0.000362508 -1.18434e-06
3.7284e-06 -1.18434e-06 0.00038243
0.00213872 6.23559e-06 4.47959e-06
6.23559e-06 0.000671258 -3.96082e-06
4.47959e-06 -3.96082e-06 0.000694183
0.00094846 -2.13126e-05 6.50158e-07
-2.13126e-05 6.23556e-05 -4.32816e-07
6.50158e-07 -4.32816e-07 1.79781e-05
0.000866662 -7.04601e-06 -2.56439e-07
-7.04601e-06 5.33856e-06 -1.42466e-06
-2.56439e-07 -1.42466e-06 -1.87565e-05
0.000932521 -6.39936e-06 4.44622e-07
-6.39936e-06 5.37943e-05 1.40421e-07
4.44622e-07 1.40421e-07 1.16218e-05
0.000820466 -4.9851e-06 -3.35553e-07
-4.9851e-06 -3.00502e-05 -3.00215e-06
-3.35553e-07 -3.00215e-06 -2.73488e-05
0.000869723 -4.34807e-06 -4.2072e-08
-4.34807e-06 5.03713e-06 -7.78941e-09
-4.2072e-08 -7.78941e-09 -1.78961e-05
0.000905194 -2.29747e-05 -8.3711e-07
-2.29747e-05 3.78268e-05 1.06041e-06
-8.3711e-07 1.06041e-06 -2.85998e-06
0.00202247 -3.24153e-07 -7.55037e-07
-3.24153e-07 0.000608828 -3.91826e-06
-7.55037e-07 -3.91826e-06 0.000633195
0.000814685 -1.16282e-07 -7.22385e-08
-1.16282e-07 -3.41061e-05 -1.58675e-09
-7.22385e-08 -1.58675e-09 -3.09801e-05
0.000869555 -1.45506e-06 -3.56735e-09
-1.45506e-06 3.89873e-06 1.59012e-06
-3.56735e-09 1.59012e-06 -1.85745e-05
0.0008165 4.82503e-06 -2.6617e-07
4.82503e-06 -3.26673e-05 3.04017e-06
-2.6617e-07 3.04017e-06 -2.99776e-05
0.002035 6.18033e-06 -1.80227e-06
6.18033e-06 0.000615919 -1.29124e-08
-1.80227e-06 -1.29124e-08 0.000640065
0.00206256 1.20792e-05 -8.32518e-06
1.20792e-05 0.000632009 3.88242e-06
-8.32518e-06 3.88242e-06 0.000655614
-0.00107563 6.2607e-05 -1.81986e-05
6.2607e-05 -0.000588454 1.73713e-06
-1.81986e-05 1.73713e-06 -0.000701
-0.000978601 0.000209159 1.28201e-05
0.000209159 -0.000441272 1.62344e-06
1.28201e-05 1.62344e-06 -0.000457711
0.00151173 4.14777e-05 -3.36383e-05
4.14777e-05 -5.23231e-05 1.85445e-05
-3.36383e-05 1.85445e-05 -7.5168e-05
-0.00127492 0.000223092 2.16967e-05
0.000223092 -0.000929326 -7.12288e-06
2.16967e-05 -7.12288e-06 -0.00068814
0.00185068 2.04954e-05 -7.66176e-05
2.04954e-05 0.000221453 -9.62418e-07
-7.66176e-05 -9.62418e-07 -7.84097e-05
0.00186537 3.86786e-05 2.32187e-05
3.86786e-05 0.000210861 -3.40713e-06
2.32187e-05 -3.40713e-06 0.000129826
0.001257 -4.96497e-05 -4.53386e-05
-4.96497e-05 -0.000378968 -1.18333e-06
-4.53386e-05 -1.18333e-06 -0.000908902
0.00492515 0.000370324 8.33097e-05
0.000370324 0.00234936 -2.73961e-05
8.33097e-05 -2.73961e-05 0.0024488
-0.00119415 0.000459108 1.41678e-05
0.000459108 -0.00192594 1.03938e-05
1.41678e-05 1.03938e-05 -0.000797202
0.00137969 7.35126e-05 -1.30192e-06
7.35126e-05 -1.30359e-05 3.46299e-06
-1.30192e-06 3.46299e-06 -0.00021321
0.00279648 0.000281271 6.53296e-06
0.000281271 0.000275117 -1.35565e-05
6.53296e-06 -1.35565e-05 -0.0007701
0.00376455 0.000563197 -3.86697e-06
0.000563197 0.00105772 -3.59697e-06
-3.86697e-06 -3.59697e-06 0.00131715
0.00213645 0.000235952 -2.47326e-06
0.000235952 -0.000402327 3.89013e-06
-2.47326e-06 3.89013e-06 0.000183168
0.00166819 2.80352e-05 -1.36213e-05
2.80352e-05 -0.000212452 -7.09651e-07
-1.36213e-05 -7.09651e-07 -0.000414223
0.00321365 0.000380881 4.60184e-05
0.000380881 0.000649277 -2.98719e-05
4.60184e-05 -2.98719e-05 -0.000513045
-0.00341094 0.000250256 -7.41001e-05
0.000250256 -0.00280087 3.04877e-05
-7.41001e-05 3.04877e-05 -0.00266172
0.00104705 0.000119493 -8.55033e-06
0.000119493 -0.00107744 1.27012e-05
-8.55033e-06 1.27012e-05 -0.000657134
0.00099777 -1.12024e-05 1.07441e-06
-1.12024e-05 0.000108266 1.26888e-07
1.07441e-06 1.26888e-07 3.21492e-05
0.000936581 3.00606e-05 -1.17264e-06
3.00606e-05 7.48251e-05 -3.56924e-07
-1.17264e-06 -3.56924e-07 7.82856e-06
0.000893755 4.48648e-06 6.80112e-07
4.48648e-06 4.40927e-05 -1.51351e-07
6.80112e-07 -1.51351e-07 -9.56949e-06
0.000928919 4.848e-05 1.58608e-06
4.848e-05 7.36903e-05 7.98707e-07
1.58608e-06 7.98707e-07 1.05667e-05
0.00086306 1.04153e-05 -1.49802e-07
1.04153e-05 3.62468e-05 5.05779e-07
-1.49802e-07 5.05779e-07 -3.8526e-05
0.000984362 3.00498e-05 1.59335e-07
3.00498e-05 0.000100639 5.13749e-07
1.59335e-07 5.13749e-07 3.32833e-05
0.000888403 -3.08858e-06 -3.65366e-07
-3.08858e-06 4.61587e-05 1.20758e-06
-3.65366e-07 1.20758e-06 -1.63372e-05
0.00100406 5.06102e-05 -7.85846e-07
5.06102e-05 0.000106688 1.05367e-07
-7.85846e-07 1.05367e-07 4.08215e-05
0.000983499 2.03348e-05 -3.18363e-07
2.03348e-05 9.61353e-05 3.82422e-07
-3.18363e-07 3.82422e-07 3.35531e-05
0.00081118 -2.25482e-05 -8.31157e-07
-2.25482e-05 4.98339e-06 -2.62908e-07
-8.31157e-07 -2.62908e-07 -5.40475e-05
0.00129191 -5.50038e-05 2.08857e-06
-5.50038e-05 -0.000208585 -2.24105e-06
2.08857e-06 -2.24105e-06 -0.000279411
0.00133491 -0.000157183 -2.51982e-08
-0.000157183 -8.53662e-05 5.18016e-06
-2.51982e-08 5.18016e-06 -0.000205216
0.000667951 -0.000105363 9.97118e-06
-0.000105363 -4.82564e-05 1.47972e-06
9.97118e-06 1.47972e-06 -0.000171626
0.0010061 -6.74635e-05 3.24839e-06
-6.74635e-05 0.000122232 -1.57626e-06
3.24839e-06 -1.57626e-06 -1.07408e-05
0.00106668 -2.13212e-05 8.61879e-08
-2.13212e-05 0.000140862 -1.18744e-06
8.61879e-08 -1.18744e-06 3.84761e-05
0.000831476 -4.93817e-05 -5.82979e-07
-4.93817e-05 1.47486e-05 -3.95233e-07
-5.82979e-07 -3.95233e-07 -6.97959e-05
0.000865987 3.42157e-05 -1.31331e-07
3.42157e-05 3.75713e-05 -1.63102e-07
-1.31331e-07 -1.63102e-07 -4.01444e-05
0.000935476 -1.82224e-05 6.99478e-08
-1.82224e-05 7.5939e-05 6.05028e-07
6.99478e-08 6.05028e-07 -3.1797e-06
0.00178876 -0.000160256 2.04014e-06
-0.000160256 0.000149402 -1.29017e-07
2.04014e-06 -1.29017e-07 0.000112921
0.000994395 -3.60241e-06 -1.80711e-07
-3.60241e-06 9.98654e-05 -3.63645e-07
-1.80711e-07 -3.63645e-07 1.47829e-05
0.00112573 -3.41486e-05 -5.44749e-07
-3.41486e-05 0.000153246 -1.18403e-07
-5.44749e-07 -1.18403e-07 6.304e-05
0.00144653 -0.000167688 -8.60517e-07
-0.000167688 0.000236026 -2.4851e-06
-8.60517e-07 -2.4851e-06 8.74418e-05
0.00110224 -2.41376e-05 -5.28038e-07
-2.41376e-05 0.000181499 5.73369e-07
-5.28038e-07 5.73369e-07 5.1567e-05
-0.000395756 -0.000157001 -3.84917e-06
-0.000157001 -0.000915327 -6.41013e-06
-3.84917e-06 -6.41013e-06 -0.00087994
0.0019315 -8.09873e-05 -1.25536e-06
-8.09873e-05 0.000607024 8.53154e-06
-1.25536e-06 8.53154e-06 0.000425973
0.000635376 2.20779e-05 -1.69564e-06
2.20779e-05 -9.63672e-05 4.39186e-06
-1.69564e-06 4.39186e-06 -0.000188675
0.000946216 1.25044e-05 3.65552e-07
1.25044e-05 6.69015e-05 5.20625e-07
3.65552e-07 5.20625e-07 -1.31774e-05
0.000948061 2.0971e-05 -5.3055e-07
2.0971e-05 6.11856e-05 1.14838e-06
-5.3055e-07 1.14838e-06 -2.99336e-05
0.00156573 -5.19425e-06 -1.28206e-06
-5.19425e-06 0.00025857 7.73069e-07
-1.28206e-06 7.73069e-07 0.000164914
3.94654e-05 -5.66337e-06 -1.22962e-06
-5.66337e-06 7.11907e-05 -6.65141e-07
-1.22962e-06 -6.65141e-07 -3.22108e-05
-0.00442828 -4.14578e-05 2.17127e-05
-4.14578e-05 -0.00239113 3.39699e-06
2.17127e-05 3.39699e-06 -0.00230834
0.000977187 6.49315e-05 1.55632e-06
6.49315e-05 9.86974e-05 4.99118e-07
1.55632e-06 4.99118e-07 1.11365e-05
6.01027e-05 1.79101e-05 2.43277e-06
1.79101e-05 -0.000240109 -4.48383e-07
2.43277e-06 -4.48383e-07 -0.000402201
0.00128868 9.49037e-05 4.98453e-06
9.49037e-05 0.000148038 -4.31034e-08
4.98453e-06 -4.31034e-08 3.88352e-05
-0.00126101 -4.37977e-05 1.34124e-05
-4.37977e-05 -0.000742089 2.58241e-06
1.34124e-05 2.58241e-06 -0.000866673
0.00269255 -0.000365955 1.68707e-05
-0.000365955 0.000340796 9.6209e-06
1.68707e-05 9.6209e-06 -0.0008757
0.0046581 0.000377181 7.8167e-05
0.000377181 0.00119356 -3.27501e-05
7.8167e-05 -3.27501e-05 0.000791479
-0.00039835 2.94676e-05 -8.35168e-06
2.94676e-05 -0.000519256 6.37636e-06
-8.35168e-06 6.37636e-06 -0.000558569
0.00500484 -0.000489245 4.42389e-05
-0.000489245 0.00139908 4.47851e-05
4.42389e-05 4.47851e-05 0.00144881
0.00182515 -1.79054e-05 1.82989e-05
-1.79054e-05 0.000184711 8.54779e-06
1.82989e-05 8.54779e-06 0.00011916
0.00230227 -0.000120783 1.20804e-05
-0.000120783 -0.000142753 1.00943e-05
1.20804e-05 1.00943e-05 0.000318009
0.00112429 8.60033e-05 8.64906e-07
8.60033e-05 0.000212993 -7.82456e-07
8.64906e-07 -7.82456e-07 0.000139644
0.00148023 3.14543e-06 -9.16177e-07
3.14543e-06 0.000189477 -1.73669e-06
-9.16177e-07 -1.73669e-06 0.000104132
0.00132047 -3.28451e-06 -3.74638e-06
-3.28451e-06 5.49992e-05 -2.82361e-06
-3.74638e-06 -2.82361e-06 8.96267e-08
-7.72593e-05 3.26146e-06 2.58314e-06
3.26146e-06 -0.000219826 2.07803e-08
2.58314e-06 2.07803e-08 -0.000349228
0.00280683 0.000286207 -2.47162e-05
0.000286207 0.000744727 -2.21895e-05
-2.47162e-05 -2.21895e-05 0.000446724
0.00474146 6.66481e-05 3.1388e-05
6.66481e-05 0.000854511 7.34801e-06
3.1388e-05 7.34801e-06 -0.000503889
0.00213175 1.57453e-05 1.54119e-06
1.57453e-05 -0.000331983 -6.33102e-06
1.54119e-06 -6.33102e-06 0.000113697
0.00122635 -0.000219032 -7.19407e-06
-0.000219032 -0.00059169 2.19328e-05
-7.19407e-06 2.19328e-05 -0.000604529
0.00101848 3.86708e-05 -2.45039e-06
3.86708e-05 0.00021747 -7.6351e-06
-2.45039e-06 -7.6351e-06 0.000168107
0.000837462 8.0154e-06 8.07136e-06
8.0154e-06 2.51875e-05 7.19892e-06
8.07136e-06 7.19892e-06 -4.55767e-05
0.00135406 2.58681e-06 -5.06876e-06
2.58681e-06 0.000126197 -3.2976e-06
-5.06876e-06 -3.2976e-06 4.51384e-05
0.00112685 0.000110492 7.68441e-06
0.000110492 -0.000941909 -1.51064e-05
7.68441e-06 -1.51064e-05 -0.000587639
-0.00132969 6.42268e-05 7.02556e-06
6.42268e-05 -0.000689336 -5.00816e-06
7.02556e-06 -5.00816e-06 -0.000904139
0.00724169 -2.40048e-05 3.81371e-05
-2.40048e-05 0.00199329 7.87259e-06
3.81371e-05 7.87259e-06 0.000893163
-0.000472662 -1.28377e-05 9.02899e-06
-1.28377e-05 -0.00103489 -6.21464e-05
9.02899e-06 -6.21464e-05 -0.00091465
0.00131241 8.90766e-05 1.97997e-06
8.90766e-05 0.00026709 2.45383e-06
1.97997e-06 2.45383e-06 0.000188925
0.000802109 5.66778e-05 -8.55834e-07
5.66778e-05 2.16052e-06 1.45467e-06
-8.55834e-07 1.45467e-06 -7.18086e-05
0.000949111 3.3137e-05 -1.64083e-06
3.3137e-05 9.08538e-05 -3.0141e-06
-1.64083e-06 -3.0141e-06 2.51138e-05
0.000977613 5.55516e-05 -1.7439e-07
5.55516e-05 7.8682e-05 -2.85217e-07
-1.7439e-07 -2.85217e-07 1.35571e-05
0.000954889 5.48143e-06 -3.7896e-07
5.48143e-06 6.25239e-05 -4.82775e-07
-3.7896e-07 -4.82775e-07 -4.26456e-06
0.00079489 -2.23463e-05 -5.81722e-07
-2.23463e-05 -5.85961e-06 1.23611e-06
-5.81722e-07 1.23611e-06 -8.21581e-05
0.000973475 3.49944e-05 1.13918e-07
3.49944e-05 7.40427e-05 8.59776e-09
1.13918e-07 8.59776e-09 6.95542e-06
0.000907716 -4.81178e-05 -9.24364e-08
-4.81178e-05 2.93604e-05 -2.37562e-07
-9.24364e-08 -2.37562e-07 -3.86526e-05
0.00107927 -5.19012e-05 2.38215e-06
-5.19012e-05 0.000135664 1.24176e-06
2.38215e-06 1.24176e-06 6.64519e-05
0.000844375 -1.13071e-05 1.54995e-07
-1.13071e-05 2.96689e-05 1.42823e-06
1.54995e-07 1.42823e-06 -2.07628e-05
0.000952292 -1.33472e-05 2.75731e-07
-1.33472e-05 4.49665e-05 2.35724e-07
2.75731e-07 2.35724e-07 -2.03846e-05
0.000978702 3.06211e-05 -6.32675e-07
3.06211e-05 7.71578e-05 -5.59431e-07
-6.32675e-07 -5.59431e-07 1.12002e-05
0.00091973 3.01036e-05 -4.37588e-08
3.01036e-05 5.88496e-05 -4.67675e-07
-4.37588e-08 -4.67675e-07 -7.23804e-06
0.000927489 3.29457e-05 -3.9865e-07
3.29457e-05 4.89676e-05 -1.07115e-06
-3.9865e-07 -1.07115e-06 -1.86333e-05
0.000951213 1.17931e-05 3.21179e-08
1.17931e-05 5.46582e-05 2.37836e-07
3.21179e-08 2.37836e-07 -1.28478e-05
0.000958333 1.19388e-05 4.59452e-07
1.19388e-05 7.17838e-05 3.79316e-07
4.59452e-07 3.79316e-07 3.50292e-07
0.000876085 -4.15206e-05 1.08131e-07
-4.15206e-05 4.65892e-05 1.18482e-06
1.08131e-07 1.18482e-06 -3.0275e-05
0.000895722 -3.17787e-05 -1.24213e-07
-3.17787e-05 5.82311e-05 -6.29467e-07
-1.24213e-07 -6.29467e-07 -2.53252e-05
0.000916238 -5.07361e-05 7.35336e-07
-5.07361e-05 8.8452e-05 1.43495e-06
7.35336e-07 1.43495e-06 -1.65853e-05
0.00108708 -1.51483e-05 -4.59724e-07
-1.51483e-05 0.000146824 -1.01949e-06
-4.59724e-07 -1.01949e-06 6.65691e-05
0.00103742 -5.17708e-05 -2.41228e-07
-5.17708e-05 0.000138696 7.45605e-07
-2.41228e-07 7.45605e-07 4.49794e-05
0.000602076 -7.1387e-05 -1.53443e-06
-7.1387e-05 -9.09832e-05 2.70219e-06
-1.53443e-06 2.70219e-06 -0.000205462
0.000958942 -8.43434e-05 -2.91401e-06
-8.43434e-05 9.22203e-05 4.98968e-07
-2.91401e-06 4.98968e-07 -1.58374e-05
0.000989815 -6.52787e-05 -1.12176e-06
-6.52787e-05 0.000107785 1.20537e-06
-1.12176e-06 1.20537e-06 1.72143e-05
0.000927455 -8.20344e-05 -2.39856e-08
-8.20344e-05 7.65649e-05 1.10255e-07
-2.39856e-08 1.10255e-07 -3.00439e-05
0.000930069 -1.03307e-05 -8.84851e-08
-1.03307e-05 6.11854e-05 1.15264e-06
-8.84851e-08 1.15264e-06 -8.94768e-06
0.00101612 -3.81245e-05 -4.86305e-07
-3.81245e-05 0.000116642 -4.99706e-07
-4.86305e-07 -4.99706e-07 3.28696e-05
0.000827351 -5.5458e-05 8.84568e-07
-5.5458e-05 3.85002e-05 -2.78431e-06
8.84568e-07 -2.78431e-06 -5.23291e-05
0.00109454 -7.72034e-06 -3.54189e-07
-7.72034e-06 0.000155373 -1.48623e-06
-3.54189e-07 -1.48623e-06 8.11858e-05
0.000869546 4.86076e-06 3.6437e-08
4.86076e-06 2.75255e-05 -2.73708e-08
3.6437e-08 -2.73708e-08 -3.6292e-05
0.000885617 2.27e-05 -2.92156e-07
2.27e-05 2.99778e-05 1.14839e-06
-2.92156e-07 1.14839e-06 -1.98975e-05
0.000930865 2.9373e-06 2.29582e-07
2.9373e-06 5.8954e-05 -5.00044e-07
2.29582e-07 -5.00044e-07 -6.86185e-07
0.000885406 1.56924e-05 -2.53141e-07
1.56924e-05 2.8079e-05 -7.04004e-08
-2.53141e-07 -7.04004e-08 -1.86176e-05
0.000845283 2.22327e-05 -1.11301e-06
2.22327e-05 4.12259e-06 1.7139e-06
-1.11301e-06 1.7139e-06 -2.59494e-05
0.000890716 1.91616e-07 7.19504e-07
1.91616e-07 2.99672e-05 -8.82652e-07
7.19504e-07 -8.82652e-07 -1.54682e-05
0.000852599 1.7162e-05 -7.87956e-08
1.7162e-05 4.01407e-06 2.69594e-09
-7.87956e-08 2.69594e-09 -2.48083e-05
0.00134891 2.47412e-05 -6.71512e-06
2.47412e-05 0.000264529 3.06358e-06
-6.71512e-06 3.06358e-06 0.00026486
0.000859682 7.09718e-06 1.03241e-06
7.09718e-06 4.32993e-06 -1.64824e-06
1.03241e-06 -1.64824e-06 -2.35058e-05
0.00108671 1.91774e-05 -3.00387e-06
1.91774e-05 0.000120443 5.53427e-07
-3.00387e-06 5.53427e-07 0.000120331
0.000954498 1.82166e-05 -1.76622e-06
1.82166e-05 5.14278e-05 1.55914e-06
-1.76622e-06 1.55914e-06 6.72172e-05
0.000800564 1.34589e-05 8.52409e-07
1.34589e-05 -3.53177e-05 -3.11688e-06
8.52409e-07 -3.11688e-06 -3.61172e-05
0.00155059 1.6484e-05 4.96676e-06
1.6484e-05 0.000363152 -1.13662e-06
4.96676e-06 -1.13662e-06 0.000382578
0.00213562 1.26027e-05 7.72141e-06
1.26027e-05 0.000671523 -3.9011e-06
7.72141e-06 -3.9011e-06 0.000694135
0.000738964 -1.12099e-06 -3.1578e-07
-1.12099e-06 -4.41141e-05 -1.08959e-06
-3.1578e-07 -1.08959e-06 -9.5518e-05
0.000634782 -1.0991e-05 -2.00116e-07
-1.0991e-05 -0.000112881 -1.84979e-06
-2.00116e-07 -1.84979e-06 -0.000140675
0.000966366 -9.12255e-06 -3.54145e-08
-9.12255e-06 7.28854e-05 2.0467e-08
-3.54145e-08 2.0467e-08 2.75472e-05
0.000820912 -9.5261e-06 -4.87844e-07
-9.5261e-06 -2.75227e-05 -2.99494e-06
-4.87844e-07 -2.99494e-06 -2.5977e-05
0.000746914 -7.55096e-06 3.54306e-08
-7.55096e-06 -5.71323e-05 1.02637e-08
3.54306e-08 1.02637e-08 -8.20989e-05
0.000744222 -3.16954e-05 1.58991e-08
-3.16954e-05 -4.38978e-05 6.36651e-07
1.58991e-08 6.36651e-07 -8.76201e-05
0.00203125 -6.41011e-06 -4.46551e-06
-6.41011e-06 0.000614425 -3.91813e-06
-4.46551e-06 -3.91813e-06 0.000638504
0.000813962 -4.80875e-06 -1.48619e-07
-4.80875e-06 -3.35888e-05 -1.20981e-08
-1.48619e-07 -1.20981e-08 -3.08228e-05
0.000868448 -4.93539e-06 1.26775e-10
-4.93539e-06 4.30861e-06 1.54228e-06
1.26775e-10 1.54228e-06 -1.86128e-05
0.0020211 2.334e-09 -1.76728e-06
2.334e-09 0.000608081 -5.91559e-10
-1.76728e-06 -5.91559e-10 0.000632457
0.000814616 9.15357e-08 4.23661e-09
9.15357e-08 -3.41829e-05 3.02905e-06
4.23661e-09 3.02905e-06 -3.10563e-05
0.0020376 6.49347e-06 -4.22714e-06
6.49347e-06 0.000617463 3.9238e-06
-4.22714e-06 3.9238e-06 0.000641538
0.00115688 -8.72355e-07 -1.48335e-05
-8.72355e-07 -4.42407e-06 4.73043e-06
-1.48335e-05 4.73043e-06 -0.000106417
0.00114263 0.00010039 1.51626e-06
0.00010039 0.000614868 -2.12106e-06
1.51626e-06 -2.12106e-06 0.000643958
0.000497674 1.60707e-05 7.03769e-05
1.60707e-05 0.000219526 -1.4179e-05
7.03769e-05 -1.4179e-05 6.01191e-05
0.000923393 1.82072e-05 -1.24345e-07
1.82072e-05 5.74253e-05 -7.3271e-08
-1.24345e-07 -7.3271e-08 -9.23683e-06
0.0013483 2.1572e-05 -3.95561e-07
2.1572e-05 8.46773e-05 8.68231e-06
-3.95561e-07 8.68231e-06 3.46675e-05
0.00131058 3.33328e-05 -1.11705e-05
3.33328e-05 -0.000165879 4.43576e-06
-1.11705e-05 4.43576e-06 -0.000215997
0.00125512 0.000258061 3.80368e-05
0.000258061 0.000343047 -2.13293e-05
3.80368e-05 -2.13293e-05 0.000740529
0.00325277 8.52649e-05 -3.92287e-05
8.52649e-05 0.000699718 9.27285e-06
-3.92287e-05 9.27285e-06 0.000481406
0.00787176 0.000478913 1.8782e-05
0.000478913 0.00268821 -1.04474e-05
1.8782e-05 -1.04474e-05 0.00173566
-0.00230774 0.000368499 4.81584e-05
0.000368499 -0.00180235 -1.59143e-05
4.81584e-05 -1.59143e-05 -0.00145151
0.0029459 0.000246233 2.3715e-05
0.000246233 0.000141325 -1.8185e-05
2.3715e-05 -1.8185e-05 0.000691499
0.00211732 4.59019e-05 -3.79796e-05
4.59019e-05 -0.000329113 4.30611e-06
-3.79796e-05 4.30611e-06 -0.000625355
0.00663649 0.000361386 3.49642e-05
0.000361386 0.00224053 -1.35151e-05
3.49642e-05 -1.35151e-05 0.00115677
0.00313636 0.000392156 -4.56555e-06
0.000392156 3.7264e-05 4.97072e-06
-4.56555e-06 4.97072e-06 0.000156682
0.00281294 0.000134041 -3.06737e-06
0.000134041 -7.51338e-05 1.88655e-06
-3.06737e-06 1.88655e-06 0.000390347
0.00478972 -0.000168782 4.03557e-05
-0.000168782 0.000932026 -2.8776e-05
4.03557e-05 -2.8776e-05 0.000571829
0.00715278 0.000388271 2.48178e-05
0.000388271 0.00225207 -5.48067e-06
2.48178e-05 -5.48067e-06 0.00082176
0.00198661 0.000292785 8.42536e-06
0.000292785 -0.000578383 5.08754e-05
8.42536e-06 5.08754e-05 -0.000579671
0.00339611 4.42078e-05 3.07666e-07
4.42078e-05 0.00034016 7.35152e-06
3.07666e-07 7.35152e-06 0.000829686
0.000924771 -1.56559e-05 4.24249e-07
-1.56559e-05 6.32699e-05 2.02284e-07
4.24249e-07 2.02284e-07 -1.63305e-05
0.000964601 -2.59455e-05 4.23548e-07
-2.59455e-05 9.20346e-05 5.71498e-09
4.23548e-07 5.71498e-09 1.4864e-05
0.000999868 3.60512e-05 -8.58237e-07
3.60512e-05 0.00010928 1.05621e-07
-8.58237e-07 1.05621e-07 4.22997e-05
0.000928691 -6.06089e-06 -2.09616e-07
-6.06089e-06 6.1536e-05 -2.08917e-07
-2.09616e-07 -2.08917e-07 -9.87932e-06
0.000957613 3.63294e-05 -4.79171e-07
3.63294e-05 8.58904e-05 3.36572e-07
-4.79171e-07 3.36572e-07 1.23525e-05
0.00100875 1.5502e-05 4.45244e-07
1.5502e-05 0.000113881 9.94241e-07
4.45244e-07 9.94241e-07 4.68227e-05
0.00105509 4.87253e-05 -4.68612e-07
4.87253e-05 0.000132709 1.21688e-07
-4.68612e-07 1.21688e-07 6.72322e-05
0.00108833 5.195e-05 7.11547e-07
5.195e-05 0.000152783 8.72512e-07
7.11547e-07 8.72512e-07 8.96081e-05
0.00126718 -0.000156479 8.58969e-06
-0.000156479 -0.000118398 -8.87911e-06
8.58969e-06 -8.87911e-06 -0.000141047
0.000885573 -0.000140719 2.74553e-06
-0.000140719 -3.23245e-05 -4.8793e-07
2.74553e-06 -4.8793e-07 -0.000190823
0.000945579 -8.5032e-05 -1.94095e-06
-8.5032e-05 8.52046e-05 1.11529e-07
-1.94095e-06 1.11529e-07 3.06549e-06
0.00138891 -4.17736e-05 1.34116e-06
-4.17736e-05 0.000314063 -1.92483e-06
1.34116e-06 -1.92483e-06 0.000188561
0.00116714 -4.48574e-05 -1.40101e-06
-4.48574e-05 0.000173886 -8.8296e-07
-1.40101e-06 -8.8296e-07 8.31565e-05
0.00107983 -9.46952e-06 -8.7122e-07
-9.46952e-06 0.000141876 -6.21308e-07
-8.7122e-07 -6.21308e-07 5.97532e-05
0.001001 1.4266e-05 2.5872e-08
1.4266e-05 9.88032e-05 1.00329e-10
2.5872e-08 1.00329e-10 1.70924e-05
0.00146218 -0.0002301 -3.74827e-06
-0.0002301 -2.3504e-05 -9.64398e-07
-3.74827e-06 -9.64398e-07 3.56943e-06
0.00101994 9.25635e-06 1.17876e-07
9.25635e-06 0.000104133 -6.91861e-07
1.17876e-07 -6.91861e-07 1.23608e-05
0.00107631 -1.79857e-05 -1.09933e-06
-1.79857e-05 0.000133654 8.37194e-08
-1.09933e-06 8.37194e-08 3.46847e-05
0.00115342 -6.63706e-05 -9.32268e-07
-6.63706e-05 0.000218787 9.14829e-07
-9.32268e-07 9.14829e-07 2.99407e-05
0.00111176 4.43236e-06 1.28756e-07
4.43236e-06 0.000146191 7.61911e-07
1.28756e-07 7.61911e-07 6.96981e-05
-0.00130721 -0.000202103 -5.60662e-06
-0.000202103 -0.00107545 -9.4109e-06
-5.60662e-06 -9.4109e-06 -0.00110179
0.00136857 3.85442e-05 -4.74008e-06
3.85442e-05 0.000452791 1.31263e-05
-4.74008e-06 1.31263e-05 0.000282445
0.000614665 7.23221e-06 -8.48796e-07
7.23221e-06 -0.000118871 3.30205e-06
-8.48796e-07 3.30205e-06 -0.000199871
0.00102712 7.06505e-05 1.79272e-07
7.06505e-05 0.0001087 1.10067e-06
1.79272e-07 1.10067e-06 2.36654e-05
0.00115312 -1.42754e-06 1.55324e-05
-1.42754e-06 0.000232259 3.21227e-06
1.55324e-05 3.21227e-06 0.000146826
0.00142689 -6.9118e-06 7.2614e-06
-6.9118e-06 0.000192074 2.73176e-07
7.2614e-06 2.73176e-07 9.43105e-05
-0.00106381 -5.51936e-06 1.52818e-05
-5.51936e-06 -0.000530263 -2.04147e-07
1.52818e-05 -2.04147e-07 -0.000677589
0.000747995 6.91524e-05 4.18612e-06
6.91524e-05 2.16214e-05 1.11039e-06
4.18612e-06 1.11039e-06 -4.92267e-05
-0.000440703 2.47315e-05 -3.49571e-06
2.47315e-05 -0.000386775 3.47783e-06
-3.49571e-06 3.47783e-06 -0.000521493
0.00109563 3.23651e-06 9.69581e-06
3.23651e-06 -1.88248e-05 -1.5451e-06
9.69581e-06 -1.5451e-06 -9.0696e-05
0.00536917 -0.000431689 5.87417e-05
-0.000431689 0.00142017 1.85852e-05
5.87417e-05 1.85852e-05 0.000101659
0.00568613 0.000406906 -2.50158e-05
0.000406906 0.00184756 -6.77719e-05
-2.50158e-05 -6.77719e-05 0.0012834
0.0029296 -0.00032172 1.02553e-05
-0.00032172 -0.000134762 7.94314e-05
1.02553e-05 7.94314e-05 -0.000101738
0.00125249 -4.90807e-06 -5.23006e-06
-4.90807e-06 1.59324e-06 6.20961e-06
-5.23006e-06 6.20961e-06 -5.15e-05
0.00099225 1.27696e-05 -3.78847e-07
1.27696e-05 -0.00105167 3.2619e-06
-3.78847e-07 3.2619e-06 -0.000608389
0.0009337 5.60382e-05 -4.26425e-07
5.60382e-05 0.000170001 -1.11392e-07
-4.26425e-07 -1.11392e-07 0.000112097
0.000905702 7.78934e-06 -1.24448e-06
7.78934e-06 7.26578e-05 4.15952e-07
-1.24448e-06 4.15952e-07 3.2878e-06
0.00124393 7.16971e-07 -3.18994e-06
7.16971e-07 0.000120553 -2.02034e-07
-3.18994e-06 -2.02034e-07 4.00003e-05
-0.000416534 7.05603e-05 3.84157e-06
7.05603e-05 -0.00015076 -1.58329e-06
3.84157e-06 -1.58329e-06 -0.000294852
0.0027528 0.000129521 2.1232e-06
0.000129521 -3.92714e-05 -1.49307e-06
2.1232e-06 -1.49307e-06 0.000377651
0.00522998 0.000188617 3.42521e-05
0.000188617 0.000781782 -1.23567e-06
3.42521e-05 -1.23567e-06 -0.00011683
0.00331993 0.000108988 -4.19187e-05
0.000108988 0.000498949 -3.30809e-06
-4.19187e-05 -3.30809e-06 0.000512636
4.41986e-05 5.47662e-05 -1.29838e-07
5.47662e-05 -0.000112738 -1.13193e-05
-1.29838e-07 -1.13193e-05 -0.000193973
0.00103828 -1.41126e-06 -7.42726e-06
-1.41126e-06 0.000156908 1.22607e-05
-7.42726e-06 1.22607e-05 5.53204e-05
0.00131173 1.37077e-05 2.53308e-06
1.37077e-05 6.65178e-05 -8.89821e-06
2.53308e-06 -8.89821e-06 1.01726e-05
0.00280666 0.000239835 3.28207e-05
0.000239835 6.09293e-05 -1.90172e-05
3.28207e-05 -1.90172e-05 0.000633927
0.00160816 0.000332528 -6.42819e-06
0.000332528 -0.000668731 -5.50033e-05
-6.42819e-06 -5.50033e-05 -0.0006835
0.00135862 0.00018813 1.74126e-05
0.00018813 0.00037238 -1.25321e-05
1.74126e-05 -1.25321e-05 0.000400272
0.00293367 -0.000183951 8.32395e-05
-0.000183951 0.000271839 7.11389e-06
8.32395e-05 7.11389e-06 -0.000821114
0.00100265 7.43782e-05 -6.13892e-07
7.43782e-05 9.90461e-05 5.08285e-06
-6.13892e-07 5.08285e-06 2.12865e-05
0.00109959 2.08716e-05 1.07419e-06
2.08716e-05 0.000163263 2.38516e-06
1.07419e-06 2.38516e-06 0.000102161
0.00031579 -2.53107e-05 2.93088e-06
-2.53107e-05 -7.38794e-05 -5.36507e-06
2.93088e-06 -5.36507e-06 -0.000183162
0.00104149 1.45376e-05 -4.70031e-07
1.45376e-05 0.000106097 -4.50338e-07
-4.70031e-07 -4.50338e-07 4.08593e-05
0.000844912 -5.04628e-05 -6.17722e-07
-5.04628e-05 -2.06856e-06 -9.04493e-08
-6.17722e-07 -9.04493e-08 -7.0718e-05
0.000971373 -4.92915e-05 -3.7913e-08
-4.92915e-05 7.65617e-05 7.60696e-07
-3.7913e-08 7.60696e-07 3.92513e-06
0.000984212 -2.59086e-05 7.02363e-08
-2.59086e-05 6.54875e-05 -2.38366e-07
7.02363e-08 -2.38366e-07 -1.12715e-06
0.000823525 -2.14597e-05 -7.23435e-07
-2.14597e-05 5.7715e-06 1.91457e-06
-7.23435e-07 1.91457e-06 -4.32113e-05
0.000694896 -4.01692e-05 1.33219e-06
-4.01692e-05 -3.81559e-06 -2.93314e-07
1.33219e-06 -2.93314e-07 -0.000102701
0.000938861 5.0667e-06 -2.3739e-07
5.0667e-06 4.9288e-05 -3.47844e-07
-2.3739e-07 -3.47844e-07 -1.86301e-05
0.00101853 2.39151e-05 -1.10403e-09
2.39151e-05 0.000101549 -3.82702e-07
-1.10403e-09 -3.82702e-07 3.07373e-05
0.00105363 -3.93026e-05 1.43758e-07
-3.93026e-05 0.000132511 2.22788e-07
1.43758e-07 2.22788e-07 5.42162e-05
0.000736913 -5.07245e-05 1.71651e-06
-5.07245e-05 3.08875e-05 1.75169e-06
1.71651e-06 1.75169e-06 -8.28049e-05
0.000859833 -2.17524e-05 -1.46245e-06
-2.17524e-05 4.08269e-05 -1.30942e-06
-1.46245e-06 -1.30942e-06 -4.10577e-05
0.000748106 -5.27496e-05 2.19727e-07
-5.27496e-05 6.62821e-06 -2.48564e-08
2.19727e-07 -2.48564e-08 -9.56405e-05
0.00103498 -9.46608e-05 7.52994e-07
-9.46608e-05 0.000143613 1.27467e-06
7.52994e-07 1.27467e-06 1.44841e-05
0.00112633 -9.89098e-05 -3.6692e-06
-9.89098e-05 0.000141359 2.48603e-06
-3.6692e-06 2.48603e-06 1.90513e-05
0.00128065 -6.2781e-05 -1.23768e-07
-6.2781e-05 0.000258601 -1.12426e-06
-1.23768e-07 -1.12426e-06 0.000163911
0.000800849 -8.03232e-05 -6.87833e-07
-8.03232e-05 5.62522e-06 3.41629e-07
-6.87833e-07 3.41629e-07 -0.000112014
0.00132429 -0.000101482 -5.3439e-07
-0.000101482 0.000273644 -4.68637e-07
-5.3439e-07 -4.68637e-07 0.000170553
0.000746264 -6.50912e-05 -1.51471e-06
-6.50912e-05 -7.88675e-06 3.50784e-07
-1.51471e-06 3.50784e-07 -0.00010465
0.000956373 -8.38525e-05 2.94625e-07
-8.38525e-05 9.05516e-05 -2.67931e-07
2.94625e-07 -2.67931e-07 -1.55507e-05
0.000966203 -1.74915e-05 -7.19418e-07
-1.74915e-05 8.1894e-05 8.73884e-07
-7.19418e-07 8.73884e-07 7.33612e-06
0.00104674 -6.5719e-05 -1.03692e-06
-6.5719e-05 0.000135183 7.99317e-07
-1.03692e-06 7.99317e-07 4.45507e-05
0.00081628 -7.68382e-05 4.88504e-07
-7.68382e-05 2.18614e-05 -1.61446e-06
4.88504e-07 -1.61446e-06 -8.45062e-05
0.000909998 1.85834e-05 -3.68856e-07
1.85834e-05 4.51815e-05 1.3405e-06
-3.68856e-07 1.3405e-06 -9.96267e-06
0.0008682 -8.83608e-06 3.25104e-07
-8.83608e-06 2.86423e-05 9.49833e-08
3.25104e-07 9.49833e-08 -4.16812e-05
0.000960647 -3.96492e-05 1.26879e-06
-3.96492e-05 8.71217e-05 -1.72227e-06
1.26879e-06 -1.72227e-06 2.26052e-06
0.000950464 4.54564e-06 6.3413e-08
4.54564e-06 6.99805e-05 -1.10397e-06
6.3413e-08 -1.10397e-06 7.22856e-06
0.000885594 2.05056e-05 -6.28142e-08
2.05056e-05 3.00134e-05 -1.16313e-07
-6.28142e-08 -1.16313e-07 -1.98835e-05
0.000840822 2.72619e-05 -1.14113e-06
2.72619e-05 6.54659e-06 1.76508e-06
-1.14113e-06 1.76508e-06 -2.56878e-05
0.000886094 1.04004e-05 4.17205e-07
1.04004e-05 2.86292e-05 -1.07782e-06
4.17205e-07 -1.07782e-06 -1.81519e-05
0.000845864 2.324e-05 4.14805e-09
2.324e-05 4.19209e-06 -1.49769e-09
4.14805e-09 -1.49769e-09 -2.59168e-05
0.000769764 2.54304e-05 -1.64119e-06
2.54304e-05 -3.68316e-05 3.253e-06
-1.64119e-06 3.253e-06 -4.0851e-05
0.000856347 1.55653e-05 9.63902e-07
1.55653e-05 5.4975e-06 -1.68257e-06
9.63902e-07 -1.68257e-06 -2.323e-05
0.000786697 2.18246e-05 1.37456e-07
2.18246e-05 -3.37647e-05 1.52818e-08
1.37456e-07 1.52818e-08 -3.64047e-05
0.00207806 3.33089e-05 -4.79258e-06
3.33089e-05 0.000652968 1.533e-06
-4.79258e-06 1.533e-06 0.000673206
0.00079997 1.78235e-05 1.13702e-06
1.78235e-05 -3.19494e-05 -3.14409e-06
1.13702e-06 -3.14409e-06 -3.34723e-05
0.00154444 2.18525e-05 6.09298e-06
2.18525e-05 0.000363976 -1.08568e-06
6.09298e-06 -1.08568e-06 0.000382653
0.00212962 1.87888e-05 1.08671e-05
1.87888e-05 0.0006714 -3.82252e-06
1.08671e-05 -3.82252e-06 0.000693497
0.000757835 -2.13521e-05 9.89681e-08
-2.13521e-05 -3.94737e-05 -1.03376e-06
9.89681e-08 -1.03376e-06 -9.09692e-05
0.000607244 -1.39063e-05 -3.14434e-07
-1.39063e-05 -0.000124132 -1.94771e-06
-3.14434e-07 -1.94771e-06 -0.000155215
0.000864749 -2.8178e-06 -2.1075e-07
-2.8178e-06 2.11895e-05 -5.47923e-07
-2.1075e-07 -5.47923e-07 -2.94965e-05
0.000818226 -1.4133e-05 -5.80506e-07
-1.4133e-05 -2.53207e-05 -3.05502e-06
-5.80506e-07 -3.05502e-06 -2.56052e-05
0.000620831 -1.10913e-05 8.30582e-09
-1.10913e-05 -0.000119996 -5.80539e-07
8.30582e-09 -5.80539e-07 -0.000148119
0.000981752 -5.39121e-07 -1.14667e-07
-5.39121e-07 8.24568e-05 5.17304e-07
-1.14667e-07 5.17304e-07 3.58881e-05
0.00205941 -1.2583e-05 -7.80707e-06
-1.2583e-05 0.000631516 -3.91795e-06
-7.80707e-06 -3.91795e-06 0.000654867
0.000810517 -9.36142e-06 -1.1494e-07
-9.36142e-06 -3.30678e-05 -1.92439e-08
-1.1494e-07 -1.92439e-08 -3.14281e-05
0.000621267 -7.88647e-06 1.05203e-07
-7.88647e-06 -0.000122577 1.38412e-06
1.05203e-07 1.38412e-06 -0.000148411
0.00202779 -6.12864e-06 -1.88729e-06
-6.12864e-06 0.000612399 1.22154e-08
-1.88729e-06 1.22154e-08 0.000636554
0.000808422 -4.63851e-06 1.42e-07
-4.63851e-06 -3.66015e-05 3.0088e-06
1.42e-07 3.0088e-06 -3.37786e-05
0.00202214 3.34221e-07 -6.14012e-07
3.34221e-07 0.000608618 3.9195e-06
-6.14012e-07 3.9195e-06 0.000632984
0.0010852 -5.34408e-06 9.0671e-06
-5.34408e-06 0.000131694 -3.57259e-06
9.0671e-06 -3.57259e-06 4.64768e-05
0.00115878 -2.87308e-06 -2.3372e-06
-2.87308e-06 -2.33402e-06 1.09418e-06
-2.3372e-06 1.09418e-06 -0.000100884
0.000975291 7.47111e-05 2.78105e-05
7.47111e-05 0.00057598 -4.41791e-06
2.78105e-05 -4.41791e-06 0.000558118
0.000952015 2.02663e-05 1.15118e-07
2.02663e-05 7.11362e-05 6.41098e-08
1.15118e-07 6.41098e-08 6.04184e-06
0.000876491 -6.08247e-07 1.54294e-08
-6.08247e-07 2.62254e-05 -1.08832e-07
1.54294e-08 -1.08832e-07 -3.89872e-05
0.00101892 3.06969e-05 -3.06636e-07
3.06969e-05 0.000110487 5.82201e-07
-3.06636e-07 5.82201e-07 3.85396e-05
0.00131338 1.31106e-05 5.43888e-06
1.31106e-05 0.000101619 7.31067e-06
5.43888e-06 7.31067e-06 2.36876e-05
0.00120809 1.67778e-05 -3.55684e-06
1.67778e-05 5.3314e-07 3.26818e-06
-3.55684e-06 3.26818e-06 -5.39774e-05
0.00103361 2.58397e-05 1.18056e-05
2.58397e-05 -0.000318134 -1.35721e-05
1.18056e-05 -1.35721e-05 -0.000406501
0.00239328 3.23717e-05 -4.47788e-05
3.23717e-05 -0.000159652 1.19917e-05
-4.47788e-05 1.19917e-05 -0.000343794
0.00133356 0.00030309 4.30351e-06
0.00030309 -3.6916e-05 4.77411e-06
4.30351e-06 4.77411e-06 -0.00125986
0.00451891 0.000478125 5.30964e-05
0.000478125 0.00103997 -2.69147e-05
5.30964e-05 -2.69147e-05 0.00106417
0.00142345 0.000104298 4.97301e-06
0.000104298 -0.000951537 -1.26546e-05
4.97301e-06 -1.26546e-05 -0.000478915
0.00221475 -0.000101255 -2.25487e-06
-0.000101255 -0.000162824 6.61191e-06
-2.25487e-06 6.61191e-06 -0.000218661
0.00545996 0.00018296 3.43303e-05
0.00018296 0.00146951 -3.51789e-05
3.43303e-05 -3.51789e-05 0.000164951
0.000888922 0.000101113 -8.22682e-06
0.000101113 -0.000763867 9.51006e-06
-8.22682e-06 9.51006e-06 -0.000656677
0.00226185 3.11216e-05 -5.01624e-07
3.11216e-05 -0.000326202 2.0862e-06
-5.01624e-07 2.0862e-06 0.000154163
0.00576746 -0.000417814 5.47032e-06
-0.000417814 0.00153099 -6.02785e-05
5.47032e-06 -6.02785e-05 0.00133445
0.00811902 0.000210943 3.92551e-05
0.000210943 0.00270574 -2.34228e-05
3.92551e-05 -2.34228e-05 0.00145309
-8.9327e-05 4.10609e-05 1.1548e-05
4.10609e-05 -0.000939808 5.23285e-05
1.1548e-05 5.23285e-05 -0.000889073
0.000699685 -7.88827e-05 5.04314e-06
-7.88827e-05 -0.00120141 5.95277e-06
5.04314e-06 5.95277e-06 -0.000769452
0.000991388 -4.13499e-07 -1.05206e-08
-4.13499e-07 8.97643e-05 7.12397e-07
-1.05206e-08 7.12397e-07 1.16436e-05
0.000924322 -1.02158e-05 -3.86007e-08
-1.02158e-05 6.48421e-05 -1.65803e-07
-3.86007e-08 -1.65803e-07 -1.59097e-05
0.000952953 -3.44255e-05 -3.70801e-07
-3.44255e-05 8.59969e-05 -5.22961e-08
-3.70801e-07 -5.22961e-08 8.40315e-06
0.000932685 1.16145e-05 -3.53887e-07
1.16145e-05 6.39986e-05 -4.66481e-07
-3.53887e-07 -4.66481e-07 -7.77041e-06
0.00105242 6.78194e-05 1.15091e-06
6.78194e-05 0.000135647 2.18751e-07
1.15091e-06 2.18751e-07 6.33772e-05
0.00110228 5.0377e-05 3.55589e-08
5.0377e-05 0.000157679 2.88573e-07
3.55589e-08 2.88573e-07 9.19609e-05
0.00306841 -0.000290917 1.81445e-06
-0.000290917 0.000765192 -4.90437e-06
1.81445e-06 -4.90437e-06 0.000763972
-0.000220289 -2.6977e-05 3.42339e-06
-2.6977e-05 -0.000447976 -4.85182e-07
3.42339e-06 -4.85182e-07 -0.000659474
0.00108391 3.54244e-05 2.68921e-07
3.54244e-05 0.000145844 -3.85543e-07
2.68921e-07 -3.85543e-07 6.22799e-05
0.00133085 -5.75785e-05 8.71365e-07
-5.75785e-05 0.000266598 -3.60847e-06
8.71365e-07 -3.60847e-06 0.000160819
0.00115502 9.86476e-08 -4.55861e-08
9.86476e-08 0.000176434 -1.78257e-06
-4.55861e-08 -1.78257e-06 8.67188e-05
0.00100386 -2.13662e-06 4.50742e-07
-2.13662e-06 8.86156e-05 -1.00622e-07
4.50742e-07 -1.00622e-07 1.16122e-05
0.00100263 3.60184e-05 2.24014e-07
3.60184e-05 9.47708e-05 -1.57931e-07
2.24014e-07 -1.57931e-07 1.16611e-05
0.000746305 -0.000218081 -5.27576e-06
-0.000218081 -7.3528e-05 3.02756e-06
-5.27576e-06 3.02756e-06 -0.000101566
0.00101508 -1.68813e-05 8.82894e-07
-1.68813e-05 8.93301e-05 -1.08128e-06
8.82894e-07 -1.08128e-06 9.2007e-06
0.00092286 2.83341e-05 -2.28281e-06
2.83341e-05 0.000274159 -1.59846e-06
-2.28281e-06 -1.59846e-06 0.0001165
0.000958716 -5.0538e-07 8.1324e-07
-5.0538e-07 6.94643e-05 4.29565e-07
8.1324e-07 4.29565e-07 -4.41135e-06
-0.00140836 -8.71028e-05 -2.33601e-07
-8.71028e-05 -0.000707102 -1.14294e-05
-2.33601e-07 -1.14294e-05 -0.000927637
0.000495809 -1.12993e-06 -2.52067e-06
-1.12993e-06 1.28131e-05 2.04227e-05
-2.52067e-06 2.04227e-05 -2.13688e-05
0.00101381 -1.81379e-05 4.20034e-07
-1.81379e-05 9.42578e-05 2.05627e-06
4.20034e-07 2.05627e-06 1.51201e-05
0.00109661 1.33823e-06 -2.20303e-07
1.33823e-06 0.000210103 3.50291e-07
-2.20303e-07 3.50291e-07 9.13066e-05
0.000976551 -6.59911e-07 3.47256e-06
-6.59911e-07 0.000127904 1.64263e-06
3.47256e-06 1.64263e-06 3.49632e-05
0.00131144 -8.0492e-06 1.73605e-05
-8.0492e-06 0.000141308 1.36456e-06
1.73605e-05 1.36456e-06 3.88158e-05
0.00085768 7.16131e-05 4.47073e-06
7.16131e-05 0.000124534 5.16185e-06
4.47073e-06 5.16185e-06 5.80666e-05
0.000497005 0.000127121 1.21106e-05
0.000127121 0.000144129 -1.46603e-05
1.21106e-05 -1.46603e-05 1.30252e-05
0.000968709 7.67064e-06 -1.23385e-05
7.67064e-06 0.000116439 -5.94275e-06
-1.23385e-05 -5.94275e-06 4.83655e-05
0.00335602 6.62885e-05 -2.63127e-05
6.62885e-05 0.000436016 -3.35292e-06
-2.63127e-05 -3.35292e-06 -0.000424842
-0.00238423 3.19273e-05 -1.37675e-05
3.19273e-05 -0.00227069 6.55166e-05
-1.37675e-05 6.55166e-05 -0.00225363
0.00106471 -3.1376e-07 -7.03721e-06
-3.1376e-07 6.802e-05 9.84006e-07
-7.03721e-06 9.84006e-07 -1.39575e-05
0.00159115 9.7883e-05 -4.39292e-06
9.7883e-05 -0.000764829 1.4067e-05
-4.39292e-06 1.4067e-05 -0.000353407
0.000499974 4.16274e-05 -4.52908e-06
4.16274e-05 9.56151e-05 -2.70777e-06
-4.52908e-06 -2.70777e-06 2.37575e-05
0.00102993 -1.52126e-06 -4.66593e-06
-1.52126e-06 0.000163578 5.4008e-06
-4.66593e-06 5.4008e-06 5.38843e-05
0.00119451 8.93323e-06 3.63831e-06
8.93323e-06 -1.0696e-06 -3.10143e-06
3.63831e-06 -3.10143e-06 -6.38446e-05
0.00146857 0.000243751 4.35074e-05
0.000243751 0.000129053 1.57042e-06
4.35074e-05 1.57042e-06 1.90966e-05
0.00198385 0.000237702 2.43417e-06
0.000237702 -0.000477403 -3.99181e-06
2.43417e-06 -3.99181e-06 0.00010079
0.000942301 0.000140051 7.52505e-06
0.000140051 -0.000717282 -1.02174e-05
7.52505e-06 -1.02174e-05 -0.000601777
0.00735524 0.000122284 1.01398e-05
0.000122284 0.00244378 -1.94274e-05
1.01398e-05 -1.94274e-05 0.00136497
-0.000626768 1.76584e-06 -2.83121e-05
1.76584e-06 -0.000144331 -1.48938e-05
-2.83121e-05 -1.48938e-05 -0.000278897
0.0010816 -8.18423e-06 -7.99265e-06
-8.18423e-06 0.000134703 3.55698e-06
-7.99265e-06 3.55698e-06 4.87592e-05
0.00150733 3.5622e-05 3.39641e-05
3.5622e-05 -3.74321e-05 -1.69686e-05
3.39641e-05 -1.69686e-05 -8.85039e-05
0.00131563 0.000419274 1.70029e-05
0.000419274 -2.54369e-05 -2.99482e-06
1.70029e-05 -2.99482e-06 0.000769033
-0.00375904 0.000289797 6.43682e-05
0.000289797 -0.0028249 -2.9596e-05
6.43682e-05 -2.9596e-05 -0.00268025
0.00807518 0.000265847 1.93047e-05
0.000265847 0.00255035 -3.77312e-05
1.93047e-05 -3.77312e-05 0.00117795
0.00210525 -5.49397e-05 -2.19e-06
-5.49397e-05 0.000311327 9.78083e-05
-2.19e-06 9.78083e-05 0.000155402
0.00127247 1.0292e-05 1.44851e-07
1.0292e-05 0.000248246 8.07492e-06
1.44851e-07 8.07492e-06 0.000192412
0.000233861 -2.66462e-05 -4.03152e-07
-2.66462e-05 -0.000111888 6.40249e-07
-4.03152e-07 6.40249e-07 -0.00023771
0.000311882 -5.13234e-05 3.57026e-06
-5.13234e-05 1.87029e-05 -4.62394e-06
3.57026e-06 -4.62394e-06 -0.000164038
0.000960285 -3.39901e-05 7.13481e-08
-3.39901e-05 5.68448e-05 -9.68098e-07
7.13481e-08 -9.68098e-07 -1.1088e-05
0.000749421 -2.63148e-05 3.17737e-07
-2.63148e-05 -4.55828e-05 2.68847e-06
3.17737e-07 2.68847e-06 -9.32537e-05
0.000771089 -1.28965e-05 1.02974e-07
-1.28965e-05 3.66124e-05 1.23023e-07
1.02974e-07 1.23023e-07 -5.32491e-05
0.000993009 -9.43783e-05 4.63166e-06
-9.43783e-05 0.000219877 -2.02178e-07
4.63166e-06 -2.02178e-07 4.47238e-05
0.00124873 -4.12631e-05 -5.38686e-07
-4.12631e-05 0.000226807 -5.10821e-07
-5.38686e-07 -5.10821e-07 0.000147636
0.00115134 -8.03711e-05 5.22848e-07
-8.03711e-05 0.000227392 3.11262e-07
5.22848e-07 3.11262e-07 0.000109827
0.000987238 -9.58264e-05 1.66071e-06
-9.58264e-05 0.00015703 2.30681e-06
1.66071e-06 2.30681e-06 -1.32891e-05
0.000558623 -4.83539e-05 -2.13801e-07
-4.83539e-05 -8.74947e-05 -1.56707e-06
-2.13801e-07 -1.56707e-06 -0.000185698
0.00111017 -9.70265e-05 -4.25058e-07
-9.70265e-05 0.000180492 -1.00557e-07
-4.25058e-07 -1.00557e-07 4.8389e-05
0.00161929 -0.000129632 -1.33832e-06
-0.000129632 0.000393906 1.8405e-06
-1.33832e-06 1.8405e-06 0.000241574
0.00146383 -0.000123168 -3.61518e-06
-0.000123168 0.000281261 2.80762e-06
-3.61518e-06 2.80762e-06 0.000143436
0.000752062 -8.09488e-05 -1.50152e-06
-8.09488e-05 -3.5949e-05 1.9148e-06
-1.50152e-06 1.9148e-06 -0.000142684
0.00106436 -9.731e-05 -9.78269e-07
-9.731e-05 0.000109327 7.90882e-07
-9.78269e-07 7.90882e-07 -1.46953e-05
0.000988636 -8.88214e-05 -2.3734e-07
-8.88214e-05 9.64891e-05 -1.08894e-06
-2.3734e-07 -1.08894e-06 -2.42714e-05
0.00116341 -9.25487e-05 2.93681e-07
-9.25487e-05 0.00019014 -1.00606e-06
2.93681e-07 -1.00606e-06 9.37624e-05
0.001082 -9.02696e-05 1.62898e-06
-9.02696e-05 0.000151058 -6.84557e-07
1.62898e-06 -6.84557e-07 5.07841e-05
0.000809581 -3.95813e-05 -5.03638e-07
-3.95813e-05 1.27409e-05 1.24116e-06
-5.03638e-07 1.24116e-06 -7.22773e-05
0.000917748 -6.9508e-05 3.93573e-07
-6.9508e-05 7.90015e-05 -1.20146e-07
3.93573e-07 -1.20146e-07 -1.68456e-05
0.000958804 -8.35483e-05 3.61417e-06
-8.35483e-05 9.13436e-05 -1.88101e-06
3.61417e-06 -1.88101e-06 -1.28015e-05
0.000914829 2.12784e-05 -6.26161e-07
2.12784e-05 5.02914e-05 1.3627e-06
-6.26161e-07 1.3627e-06 -1.16198e-05
0.000975564 -2.48072e-05 -1.33831e-07
-2.48072e-05 8.78245e-05 -3.67583e-08
-1.33831e-07 -3.67583e-08 1.24523e-05
0.00109862 -6.60347e-05 4.73484e-07
-6.60347e-05 0.000159903 -5.44763e-07
4.73484e-07 -5.44763e-07 6.93017e-05
0.000832785 3.02885e-05 -1.07416e-06
3.02885e-05 7.41244e-06 1.95538e-06
-1.07416e-06 1.95538e-06 -2.85239e-05
0.000892462 1.75848e-05 9.34456e-08
1.75848e-05 3.58107e-05 -6.44771e-08
9.34456e-08 -6.44771e-08 -1.91044e-05
0.000808774 -8.12187e-06 7.39554e-07
-8.12187e-06 -2.60624e-06 -1.01498e-06
7.39554e-07 -1.01498e-06 -7.31405e-05
0.000886633 1.86896e-05 3.99188e-07
1.86896e-05 3.06178e-05 -1.31481e-06
3.99188e-07 -1.31481e-06 -1.92981e-05
0.00083803 2.95928e-05 2.50938e-08
2.95928e-05 5.20413e-06 -4.28424e-08
2.50938e-08 -4.28424e-08 -2.72362e-05
0.000755536 2.92414e-05 -1.97022e-06
2.92414e-05 -3.73303e-05 3.28281e-06
-1.97022e-06 3.28281e-06 -4.33111e-05
0.000846876 2.43983e-05 9.03319e-07
2.43983e-05 4.45263e-06 -1.78842e-06
9.03319e-07 -1.78842e-06 -2.56856e-05
0.000783341 2.57977e-05 9.49605e-08
2.57977e-05 -2.99277e-05 2.14071e-09
9.49605e-08 2.14071e-09 -3.39791e-05
0.00213242 3.59475e-05 -1.80307e-05
3.59475e-05 0.000686713 3.56758e-06
-1.80307e-05 3.56758e-06 0.000705982
0.000800407 2.20762e-05 1.46751e-06
2.20762e-05 -2.6951e-05 -3.18141e-06
1.46751e-06 -3.18141e-06 -2.95807e-05
0.0015379 2.721e-05 7.19173e-06
2.721e-05 0.000366203 -1.0193e-06
7.19173e-06 -1.0193e-06 0.00038375
0.00212217 2.47813e-05 1.37745e-05
2.47813e-05 0.000671596 -3.73364e-06
1.37745e-05 -3.73364e-06 0.000692945
0.000885924 1.46858e-05 -5.89099e-07
1.46858e-05 2.84617e-05 -6.62428e-07
-5.89099e-07 -6.62428e-07 -2.45477e-05
0.000832286 -1.59626e-05 -6.95738e-07
-1.59626e-05 -4.81378e-06 -1.52204e-06
-6.95738e-07 -1.52204e-06 -3.68157e-05
0.000810552 8.64542e-06 -6.23055e-07
8.64542e-06 -8.63881e-06 -5.1402e-07
-6.23055e-07 -5.1402e-07 -6.12279e-05
0.000811638 -1.8605e-05 -6.94573e-07
-1.8605e-05 -2.38487e-05 -3.1751e-06
-6.94573e-07 -3.1751e-06 -2.64753e-05
0.000729351 -1.41532e-05 -1.38963e-07
-1.41532e-05 -6.02465e-05 -6.04291e-07
-1.38963e-07 -6.04291e-07 -9.07712e-05
0.000992652 -4.13737e-06 3.18064e-08
-4.13737e-06 8.76654e-05 5.89147e-08
3.18064e-08 5.89147e-08 3.76994e-05
0.00210416 -1.88222e-05 -1.09361e-05
-1.88222e-05 0.000658555 -3.92491e-06
-1.09361e-05 -3.92491e-06 0.000680776
0.00080395 -1.39169e-05 -1.12479e-07
-1.39169e-05 -3.27677e-05 -2.29429e-08
-1.12479e-07 -2.29429e-08 -3.2946e-05
0.000612002 -1.11454e-05 5.01756e-08
-1.11454e-05 -0.000124421 7.45715e-07
5.01756e-08 7.45715e-07 -0.000152888
0.00205291 -1.22863e-05 -1.7146e-06
-1.22863e-05 0.000627732 2.60857e-08
-1.7146e-06 2.60857e-08 0.000651223
0.000799908 -9.201e-06 3.81673e-07
-9.201e-06 -3.87138e-05 3.00199e-06
3.81673e-07 3.00199e-06 -3.69824e-05
0.0020239 -5.83577e-06 2.89576e-06
-5.83577e-06 0.000610123 3.90115e-06
2.89576e-06 3.90115e-06 0.000634353
0.000958876 7.49331e-08 7.89263e-06
7.49331e-08 0.000104191 -1.21136e-05
7.89263e-06 -1.21136e-05 -3.19459e-06
0.00112299 -5.74201e-06 -3.16661e-06
-5.74201e-06 0.000166938 5.15778e-07
-3.16661e-06 5.15778e-07 8.30994e-05
0.00115437 -5.93421e-06 1.04168e-05
-5.93421e-06 -5.61747e-06 3.03484e-06
1.04168e-05 3.03484e-06 -9.85933e-05
0.00086553 -2.39335e-05 4.36339e-08
-2.39335e-05 1.75227e-05 -3.88064e-07
4.36339e-08 -3.88064e-07 -4.6981e-05
0.00101078 -5.30218e-06 -1.09723e-07
-5.30218e-06 9.89399e-05 -2.99912e-07
-1.09723e-07 -2.99912e-07 2.84535e-05
0.00098383 1.83762e-05 1.03771e-06
1.83762e-05 8.6446e-05 1.15306e-07
1.03771e-06 1.15306e-07 2.29765e-05
0.000870929 -1.05645e-05 2.60119e-08
-1.05645e-05 2.16998e-05 2.42815e-08
2.60119e-08 2.42815e-08 -4.24309e-05
0.000959291 1.21255e-05 7.22243e-08
1.21255e-05 7.64505e-05 3.30285e-07
7.22243e-08 3.30285e-07 5.1741e-06
0.00097668 9.06855e-06 -5.66693e-07
9.06855e-06 8.32212e-05 1.71281e-07
-5.66693e-07 1.71281e-07 1.26795e-05
0.000948598 7.75828e-05 9.71718e-08
7.75828e-05 7.74751e-05 7.98257e-07
9.71718e-08 7.98257e-07 -1.49958e-06
0.00143999 4.3052e-06 5.80673e-07
4.3052e-06 0.000165123 1.66348e-05
5.80673e-07 1.66348e-05 0.00010443
0.00119836 1.06663e-05 2.18294e-06
1.06663e-05 8.97461e-05 4.37942e-06
2.18294e-06 4.37942e-06 1.0003e-05
0.00109151 1.19328e-05 -6.31059e-06
1.19328e-05 -7.2069e-05 -4.06522e-06
-6.31059e-06 -4.06522e-06 -0.000126397
0.00101275 2.11597e-05 2.88152e-06
2.11597e-05 -0.00108299 -7.66476e-06
2.88152e-06 -7.66476e-06 -0.00061487
-0.000131903 -6.74512e-05 -5.38514e-05
-6.74512e-05 -0.00162164 5.88786e-05
-5.38514e-05 5.88786e-05 -0.00178892
0.0023316 0.000104441 4.45672e-05
0.000104441 0.000214283 -4.46852e-05
4.45672e-05 -4.46852e-05 -0.00101019
0.00538056 0.00035758 2.75413e-05
0.00035758 0.00142101 -2.32931e-05
2.75413e-05 -2.32931e-05 0.0012754
0.0021141 -0.000285231 -2.04461e-05
-0.000285231 -0.000257789 9.66739e-06
-2.04461e-05 9.66739e-06 -0.000606394
0.00252982 -8.23232e-05 3.19268e-05
-8.23232e-05 -4.28109e-05 -4.2354e-05
3.19268e-05 -4.2354e-05 -0.00129223
0.00359134 9.7823e-06 -1.56952e-05
9.7823e-06 0.000497684 2.22056e-06
-1.56952e-05 2.22056e-06 0.000450102
0.0030529 -0.000110332 -8.781e-07
-0.000110332 0.000200169 -6.54876e-06
-8.781e-07 -6.54876e-06 0.000683551
0.00382736 -0.000261349 7.6143e-06
-0.000261349 0.00100331 -1.46637e-05
7.6143e-06 -1.46637e-05 0.000893494
0.00315698 -0.000368882 -1.62454e-06
-0.000368882 -0.000547043 -9.35313e-05
-1.62454e-06 -9.35313e-05 -0.00105139
-0.000436064 -0.000146815 3.67979e-05
-0.000146815 -0.00165311 3.45881e-05
3.67979e-05 3.45881e-05 -0.00172752
1.70987e-05 -0.000163752 2.03221e-05
-0.000163752 -0.00156558 6.16744e-06
2.03221e-05 6.16744e-06 -0.00103528
0.00108901 -3.0129e-05 -1.52757e-07
-3.0129e-05 0.000133998 1.30258e-06
-1.52757e-07 1.30258e-06 6.05373e-05
0.00090797 2.07786e-06 7.44755e-08
2.07786e-06 4.70945e-05 -8.23581e-08
7.44755e-08 -8.23581e-08 -3.14322e-05
0.000890398 -2.11303e-06 -3.72116e-07
-2.11303e-06 4.91899e-05 -9.67154e-07
-3.72116e-07 -9.67154e-07 -3.25663e-05
0.000938358 2.18319e-05 -7.37078e-08
2.18319e-05 6.76223e-05 -1.05407e-06
-7.37078e-08 -1.05407e-06 -4.67618e-06
0.0035344 -0.000255986 1.24431e-05
-0.000255986 0.00129771 3.02636e-06
1.24431e-05 3.02636e-06 0.00127637
0.000723941 9.6469e-06 5.05285e-06
9.6469e-06 0.000215747 -7.01335e-06
5.05285e-06 -7.01335e-06 7.44631e-05
0.00088397 -1.58735e-05 5.5e-08
-1.58735e-05 2.28734e-05 -1.12864e-06
5.5e-08 -1.12864e-06 -5.36522e-05
0.000952578 3.36904e-05 5.63033e-07
3.36904e-05 7.15445e-05 -1.18844e-06
5.63033e-07 -1.18844e-06 -1.24667e-05
0.00147237 -7.28448e-06 1.12423e-06
-7.28448e-06 0.00033073 -4.87386e-06
1.12423e-06 -4.87386e-06 0.000249766
0.000934477 5.0618e-06 -1.71562e-07
5.0618e-06 5.50131e-05 4.70382e-08
-1.71562e-07 4.70382e-08 -1.88491e-05
0.000923129 -7.39519e-06 -1.43995e-06
-7.39519e-06 5.06509e-05 3.00893e-07
-1.43995e-06 3.00893e-07 -3.07748e-05
0.000343029 -0.000110874 -1.1933e-06
-0.000110874 0.000179712 -4.36738e-06
-1.1933e-06 -4.36738e-06 -1.80927e-05
0.000908883 -6.20046e-06 4.05286e-06
-6.20046e-06 0.000222788 6.63641e-06
4.05286e-06 6.63641e-06 0.000194588
0.000970792 -1.16108e-05 8.72882e-07
-1.16108e-05 8.27921e-05 -5.80161e-07
8.72882e-07 -5.80161e-07 6.49436e-06
-0.000214886 2.82295e-05 -3.22524e-06
2.82295e-05 0.000361758 -1.74971e-05
-3.22524e-06 -1.74971e-05 -0.000225019
0.00151302 -3.77345e-05 5.06457e-06
-3.77345e-05 0.000519848 1.08173e-05
5.06457e-06 1.08173e-05 0.00043341
0.0012071 -5.08887e-07 -1.52231e-05
-5.08887e-07 0.000267464 -3.23238e-06
-1.52231e-05 -3.23238e-06 0.000178029
0.00107517 2.41125e-07 4.76425e-08
2.41125e-07 0.000168045 4.13345e-07
4.76425e-08 4.13345e-07 3.64544e-05
0.000786229 1.6402e-07 -1.09833e-05
1.6402e-07 1.462e-05 1.38159e-06
-1.09833e-05 1.38159e-06 -8.60281e-05
0.00103623 3.20371e-05 1.51416e-06
3.20371e-05 0.000338461 4.87989e-06
1.51416e-06 4.87989e-06 0.00027672
0.00149215 0.000146626 -5.75859e-05
0.000146626 0.000445543 1.27212e-05
-5.75859e-05 1.27212e-05 0.000480752
0.00104502 -1.7299e-06 -5.13323e-06
-1.7299e-06 0.000185707 -5.90778e-06
-5.13323e-06 -5.90778e-06 6.84013e-05
0.00320043 0.000219732 3.85805e-05
0.000219732 0.000362954 -7.85401e-05
3.85805e-05 -7.85401e-05 -0.000732362
0.00512166 0.000376557 -3.2466e-05
0.000376557 0.00132243 2.8581e-05
-3.2466e-05 2.8581e-05 0.00120873
0.00110221 4.04809e-06 4.68468e-06
4.04809e-06 -5.75869e-05 5.26333e-06
4.68468e-06 5.26333e-06 -0.00012054
0.00317364 0.000242417 -2.40904e-05
0.000242417 0.000339707 1.72131e-05
-2.40904e-05 1.72131e-05 0.000850511
-0.000165767 -1.78332e-05 2.02687e-05
-1.78332e-05 5.21998e-05 -2.43181e-06
2.02687e-05 -2.43181e-06 -7.79949e-05
0.00110349 -7.66122e-06 3.32114e-06
-7.66122e-06 0.000159928 -6.49489e-07
3.32114e-06 -6.49489e-07 7.54287e-05
0.00129853 2.69455e-05 1.04487e-05
2.69455e-05 -0.000157755 -4.53752e-06
1.04487e-05 -4.53752e-06 -0.000233088
0.00172348 -3.74499e-05 -1.11767e-05
-3.74499e-05 0.000242101 2.10749e-05
-1.11767e-05 2.10749e-05 0.0002339
2.47005e-05 0.0004409 -4.31539e-06
0.0004409 -0.000965949 4.12565e-06
-4.31539e-06 4.12565e-06 -4.10108e-06
0.00266065 0.000433398 3.24986e-06
0.000433398 -5.93419e-05 -2.80803e-06
3.24986e-06 -2.80803e-06 8.22728e-05
0.00282064 -2.0412e-07 3.28129e-05
-2.0412e-07 0.0002853 -1.5577e-05
3.28129e-05 -1.5577e-05 -0.00118478
0.000499164 -6.53453e-05 2.3541e-05
-6.53453e-05 0.000240869 -8.24736e-06
2.3541e-05 -8.24736e-06 0.00014026
0.00113272 -5.08822e-06 1.34792e-05
-5.08822e-06 -1.30411e-05 -4.34361e-06
1.34792e-05 -4.34361e-06 -0.000122717
-0.00114108 0.000200162 9.01675e-06
0.000200162 -0.000858063 -1.01659e-05
9.01675e-06 -1.01659e-05 -0.000678238
-0.000130706 0.000418341 4.78258e-05
0.000418341 -0.000254631 -8.5168e-06
4.78258e-05 -8.5168e-06 4.99791e-05
0.0084128 0.000538791 2.50902e-05
0.000538791 0.0027485 -5.07132e-05
2.50902e-05 -5.07132e-05 0.00151276
0.00299473 -0.000262332 -6.09913e-05
-0.000262332 0.000387273 9.22356e-05
-6.09913e-05 9.22356e-05 -9.57531e-05
0.000397756 -3.22034e-05 -2.02204e-06
-3.22034e-05 -3.68934e-05 6.63172e-06
-2.02204e-06 6.63172e-06 -0.000173947
0.000442809 -2.70898e-05 8.93207e-07
-2.70898e-05 8.95271e-05 -7.93612e-07
8.93207e-07 -7.93612e-07 -9.33916e-05
0.00164057 -0.000156369 1.0362e-05
-0.000156369 0.000531532 -2.67492e-06
1.0362e-05 -2.67492e-06 0.000391276
0.000821415 6.86973e-06 -1.92336e-06
6.86973e-06 6.62383e-05 -1.15146e-06
-1.92336e-06 -1.15146e-06 -1.58209e-05
0.000471592 -5.85151e-05 8.48046e-07
-5.85151e-05 -2.01794e-05 -2.9618e-07
8.48046e-07 -2.9618e-07 -0.000201813
0.00119425 -0.000118423 4.00035e-06
-0.000118423 0.000242052 4.67137e-06
4.00035e-06 4.67137e-06 5.70934e-05
0.00155726 -0.000113957 -1.19986e-06
-0.000113957 0.000420365 -5.07029e-07
-1.19986e-06 -5.07029e-07 0.000296957
0.00119086 -0.00010379 1.40142e-07
-0.00010379 0.000248799 7.22286e-07
1.40142e-07 7.22286e-07 7.91488e-05
0.00115654 -0.000121559 -1.69006e-07
-0.000121559 0.000148897 1.15935e-06
-1.69006e-07 1.15935e-06 -2.653e-05
0.0012224 -0.000100914 -6.62153e-07
-0.000100914 0.00023673 -1.19289e-06
-6.62153e-07 -1.19289e-06 0.000101012
0.00156382 -0.000128005 8.68368e-09
-0.000128005 0.000357789 6.06744e-07
8.68368e-09 6.06744e-07 0.000204636
0.00123117 -0.000122077 -1.03272e-06
-0.000122077 0.000143198 1.94952e-07
-1.03272e-06 1.94952e-07 -1.60389e-05
0.00138762 -0.000122017 -2.84901e-06
-0.000122017 0.000184073 -1.03519e-06
-2.84901e-06 -1.03519e-06 4.55991e-05
0.00162707 -0.000124103 -3.97135e-06
-0.000124103 0.000368261 3.64119e-06
-3.97135e-06 3.64119e-06 0.000245663
0.00138786 -0.000121234 -6.77711e-07
-0.000121234 0.00023882 6.70649e-07
-6.77711e-07 6.70649e-07 9.81781e-05
0.000676889 -7.50488e-05 -2.03003e-07
-7.50488e-05 -7.5204e-05 -5.59713e-07
-2.03003e-07 -5.59713e-07 -0.000172256
0.000886717 -8.61459e-05 1.32596e-06
-8.61459e-05 3.32756e-05 -4.25445e-07
1.32596e-06 -4.25445e-07 -7.27947e-05
0.0010075 -9.594e-05 1.62092e-06
-9.594e-05 7.98634e-05 -1.56714e-06
1.62092e-06 -1.56714e-06 -4.59482e-05
0.00103736 -8.18475e-05 -3.74955e-07
-8.18475e-05 0.000123509 3.04418e-07
-3.74955e-07 3.04418e-07 3.09158e-05
0.00112309 -9.03755e-05 -1.11514e-07
-9.03755e-05 0.000170662 -3.11516e-07
-1.11514e-07 -3.11516e-07 7.3961e-05
0.000838303 -7.90254e-05 3.18672e-06
-7.90254e-05 2.78983e-05 9.42595e-08
3.18672e-06 9.42595e-08 -6.95777e-05
0.000873805 9.81091e-06 -1.16526e-07
9.81091e-06 3.46835e-05 1.33408e-06
-1.16526e-07 1.33408e-06 -3.67981e-05
0.000893824 -4.15331e-05 4.14041e-08
-4.15331e-05 5.56653e-05 4.31295e-07
4.14041e-08 4.31295e-07 -2.86324e-05
0.00109191 -7.40244e-05 1.24988e-06
-7.40244e-05 0.000167402 -9.74033e-07
1.24988e-06 -9.74033e-07 7.23768e-05
0.000816646 3.82149e-05 -1.21684e-06
3.82149e-05 3.15608e-06 2.18871e-06
-1.21684e-06 2.18871e-06 -3.87194e-05
0.000892896 1.24615e-05 -1.60536e-07
1.24615e-05 3.98243e-05 -5.99587e-08
-1.60536e-07 -5.99587e-08 -2.26898e-05
0.000982414 -2.96134e-05 5.54585e-07
-2.96134e-05 9.21343e-05 -9.02742e-07
5.54585e-07 -9.02742e-07 1.61399e-05
0.000769033 3.29815e-05 -3.28232e-06
3.29815e-05 -2.3698e-05 4.58474e-06
-3.28232e-06 4.58474e-06 -3.21321e-05
0.00082466 3.48619e-05 2.07788e-07
3.48619e-05 3.87872e-06 -6.7182e-08
2.07788e-07 -6.7182e-08 -3.25609e-05
0.000874245 1.70373e-05 6.72653e-07
1.70373e-05 2.61585e-05 -1.31402e-06
6.72653e-07 -1.31402e-06 -2.85825e-05
0.000833824 3.18832e-05 7.28328e-07
3.18832e-05 3.07858e-06 -1.96247e-06
7.28328e-07 -1.96247e-06 -2.95377e-05
0.000775255 2.98258e-05 4.59955e-08
2.98258e-05 -2.72612e-05 -3.00637e-08
4.59955e-08 -3.00637e-08 -3.33277e-05
0.00214788 4.15533e-05 -2.04228e-05
4.15533e-05 0.000701841 3.45678e-06
-2.04228e-05 3.45678e-06 0.000719572
0.000798327 2.61987e-05 1.79479e-06
2.61987e-05 -2.22957e-05 -3.2153e-06
1.79479e-06 -3.2153e-06 -2.6383e-05
0.00213041 3.60994e-05 9.61369e-07
3.60994e-05 0.000686546 5.96594e-08
9.61369e-07 5.96594e-08 0.000705678
0.00212085 3.05755e-05 1.65637e-05
3.05755e-05 0.000676134 -3.64572e-06
1.65637e-05 -3.64572e-06 0.000696449
0.000937779 1.10357e-05 -2.26145e-07
1.10357e-05 5.90593e-05 -5.50981e-07
-2.26145e-07 -5.50981e-07 -8.04054e-06
0.000889183 2.1015e-05 -8.43893e-07
2.1015e-05 3.16561e-05 -1.00759e-06
-8.43893e-07 -1.00759e-06 -2.48757e-05
0.000826213 -2.27829e-05 -7.19497e-07
-2.27829e-05 -5.40631e-06 -1.67995e-06
-7.19497e-07 -1.67995e-06 -3.96022e-05
0.000891138 9.9288e-06 -1.35997e-07
9.9288e-06 3.02904e-05 -4.59806e-08
-1.35997e-07 -4.59806e-08 -2.22679e-05
0.000797356 -2.22868e-05 -1.149e-06
-2.22868e-05 -2.59758e-05 -3.2786e-06
-1.149e-06 -3.2786e-06 -3.09163e-05
0.000840433 -1.7459e-05 -9.71044e-08
-1.7459e-05 -1.22807e-07 6.1658e-09
-9.71044e-08 6.1658e-09 -3.22417e-05
0.000860564 8.87037e-06 1.54277e-07
8.87037e-06 1.51481e-05 1.46616e-07
1.54277e-07 1.46616e-07 -3.48016e-05
0.00216491 -2.50257e-05 -1.40494e-05
-2.50257e-05 0.000695103 -3.93248e-06
-1.40494e-05 -3.93248e-06 0.000715863
0.000793414 -1.8297e-05 -1.18773e-07
-1.8297e-05 -3.33396e-05 -2.38757e-08
-1.18773e-07 -2.38757e-08 -3.58442e-05
0.000850164 -1.46058e-05 8.46322e-08
-1.46058e-05 2.85564e-06 8.95636e-07
8.46322e-08 8.95636e-07 -2.70976e-05
0.00209695 -1.85585e-05 -1.57286e-06
-1.85585e-05 0.000654288 4.12554e-08
-1.57286e-06 4.12554e-08 0.000676688
0.00078809 -1.36949e-05 4.79222e-07
-1.36949e-05 -4.103e-05 3.04807e-06
4.79222e-07 3.04807e-06 -4.11003e-05
0.00204603 -1.19631e-05 6.54316e-06
-1.19631e-05 0.000623715 3.88359e-06
6.54316e-06 3.88359e-06 0.000647347
0.000846909 7.49304e-06 -7.99183e-06
7.49304e-06 3.87836e-05 -7.88244e-06
-7.99183e-06 -7.88244e-06 -4.10007e-05
0.00101914 1.49797e-07 4.7891e-06
1.49797e-07 0.000155795 -5.49188e-06
4.7891e-06 -5.49188e-06 4.05001e-05
0.00115338 -6.17917e-06 -1.46636e-05
-6.17917e-06 0.000197478 9.75116e-06
-1.46636e-05 9.75116e-06 0.000114566
0.000901275 2.33904e-06 -2.11603e-07
2.33904e-06 3.98257e-05 2.07165e-09
-2.11603e-07 2.07165e-09 -2.65615e-05
0.000964173 -7.19523e-06 -3.25296e-08
-7.19523e-06 7.42461e-05 2.26996e-07
-3.25296e-08 2.26996e-07 3.2652e-06
0.000893626 -2.82606e-06 -4.10921e-08
-2.82606e-06 4.11807e-05 -1.31153e-06
-4.10921e-08 -1.31153e-06 -3.40489e-05
0.000864901 -1.19089e-05 -6.27588e-08
-1.19089e-05 2.34877e-05 -5.62693e-07
-6.27588e-08 -5.62693e-07 -4.71355e-05
0.00103755 2.97965e-05 -4.17252e-07
2.97965e-05 0.000120555 -1.29548e-07
-4.17252e-07 -1.29548e-07 4.2711e-05
0.000855074 -1.49573e-05 -1.02127e-07
-1.49573e-05 1.24633e-05 2.35478e-07
-1.02127e-07 2.35478e-07 -5.10994e-05
0.000892877 -5.47796e-06 1.52716e-07
-5.47796e-06 3.88087e-05 -1.4953e-07
1.52716e-07 -1.4953e-07 -3.17195e-05
0.00094656 2.11623e-05 -1.79105e-07
2.11623e-05 6.97868e-05 -4.00526e-08
-1.79105e-07 -4.00526e-08 -1.47201e-06
0.000966641 2.52751e-05 3.29486e-07
2.52751e-05 7.90934e-05 3.97883e-07
3.29486e-07 3.97883e-07 3.19314e-06
0.00102349 2.06008e-05 -2.03377e-07
2.06008e-05 0.000114391 3.75774e-07
-2.03377e-07 3.75774e-07 3.88344e-05
0.00137633 -2.37683e-05 2.26892e-05
-2.37683e-05 -1.2189e-06 2.68517e-05
2.26892e-05 2.68517e-05 -0.000104111
0.00131967 3.697e-06 2.83027e-06
3.697e-06 7.61165e-05 8.85602e-06
2.83027e-06 8.85602e-06 1.87061e-05
0.00116761 8.86397e-06 4.79429e-06
8.86397e-06 0.000134364 3.79766e-06
4.79429e-06 3.79766e-06 5.41075e-05
0.00227042 -9.70498e-05 -9.62962e-06
-9.70498e-05 -0.000208343 -1.80789e-05
-9.62962e-06 -1.80789e-05 0.000267254
-0.00200307 7.62974e-05 -6.56392e-06
7.62974e-05 -0.00211689 -5.50688e-05
-6.56392e-06 -5.50688e-05 -0.00216344
0.00107188 -0.000281515 -0.000100737
-0.000281515 -0.000874477 8.59265e-05
-0.000100737 8.59265e-05 -0.00131144
0.0078907 0.000210282 -2.90589e-05
0.000210282 0.00205847 -4.28115e-05
-2.90589e-05 -4.28115e-05 0.00126392
0.00224723 -0.000270588 -3.58888e-05
-0.000270588 3.91655e-05 3.9277e-05
-3.58888e-05 3.9277e-05 -0.000385793
0.00806754 -0.000133004 4.22039e-05
-0.000133004 0.00244123 -7.42621e-07
4.22039e-05 -7.42621e-07 0.00145783
0.00105739 -0.000194261 1.40036e-05
-0.000194261 -0.000782767 -1.64485e-05
1.40036e-05 -1.64485e-05 -0.000806068
0.000529719 -0.000198905 -6.13157e-06
-0.000198905 -0.00138008 -1.8748e-05
-6.13157e-06 -1.8748e-05 -0.000709553
0.00201973 -5.93681e-05 -6.71277e-05
-5.93681e-05 0.000230669 -5.05998e-05
-6.71277e-05 -5.05998e-05 -0.000239908
0.0081014 -0.000420007 -2.7767e-05
-0.000420007 0.00207368 4.95038e-05
-2.7767e-05 4.95038e-05 0.00133597
0.00736169 -0.000559999 2.89877e-05
-0.000559999 0.00216683 1.58173e-05
2.89877e-05 1.58173e-05 0.00238806
0.00223278 -0.000338864 1.12119e-05
-0.000338864 0.00010999 1.95772e-06
1.12119e-05 1.95772e-06 0.000964182
0.000857715 1.81486e-05 3.32991e-07
1.81486e-05 3.94038e-05 1.49109e-06
3.32991e-07 1.49109e-06 -2.86709e-05
0.00102934 -2.15713e-05 -1.40721e-07
-2.15713e-05 0.000107296 2.29645e-07
-1.40721e-07 2.29645e-07 3.24843e-05
0.000869643 2.56014e-06 2.17747e-07
2.56014e-06 2.6686e-05 -8.27561e-07
2.17747e-07 -8.27561e-07 -5.18359e-05
0.00149099 -0.000109633 2.08105e-05
-0.000109633 0.000736941 -1.04039e-06
2.08105e-05 -1.04039e-06 0.000579632
0.00111859 -2.35973e-05 -5.3887e-06
-2.35973e-05 0.000331055 -6.34814e-06
-5.3887e-06 -6.34814e-06 0.000307236
0.000903686 -3.96449e-06 -3.96456e-07
-3.96449e-06 3.77914e-05 -2.16866e-07
-3.96456e-07 -2.16866e-07 -3.64115e-05
0.000897166 -3.86214e-05 -1.29797e-06
-3.86214e-05 3.66202e-05 -1.20421e-06
-1.29797e-06 -1.20421e-06 -4.43709e-05
0.000911225 -1.46625e-05 -4.01537e-07
-1.46625e-05 5.42515e-05 -1.26256e-07
-4.01537e-07 -1.26256e-07 -2.15445e-05
0.000618302 -3.82616e-05 1.0473e-06
-3.82616e-05 7.06095e-05 4.28316e-06
1.0473e-06 4.28316e-06 -1.994e-05
-0.000439326 7.96817e-06 1.52225e-05
7.96817e-06 0.000149893 -1.94859e-05
1.52225e-05 -1.94859e-05 -0.000415033
2.17868e-06 -9.43323e-06 -1.13021e-06
-9.43323e-06 -0.000252049 5.22897e-06
-1.13021e-06 5.22897e-06 -0.000360041
0.00162094 0.00011709 2.05257e-05
0.00011709 0.000699674 -5.14991e-06
2.05257e-05 -5.14991e-06 0.000429637
0.00152509 -2.10161e-06 6.43538e-06
-2.10161e-06 0.000256616 -1.67923e-08
6.43538e-06 -1.67923e-08 0.000152791
0.000967554 6.04721e-07 -3.31918e-06
6.04721e-07 0.000123012 -1.57662e-06
-3.31918e-06 -1.57662e-06 2.6425e-05
0.00105434 -7.38894e-07 1.3504e-07
-7.38894e-07 0.000127661 -1.32745e-07
1.3504e-07 -1.32745e-07 -1.68303e-05
-0.000859731 -1.55381e-05 -1.41778e-05
-1.55381e-05 -0.000263786 1.27732e-05
-1.41778e-05 1.27732e-05 -0.000406499
0.00118967 2.52863e-05 3.11527e-05
2.52863e-05 -0.000200949 -4.50601e-05
3.11527e-05 -4.50601e-05 -0.000497347
0.00113787 -7.15451e-06 1.39775e-05
-7.15451e-06 0.000193708 -9.55979e-06
1.39775e-05 -9.55979e-06 0.000110051
0.00910048 0.00023856 5.18701e-05
0.00023856 0.00276037 3.25031e-06
5.18701e-05 3.25031e-06 0.00140871
0.00501542 0.000577123 -4.64177e-05
0.000577123 0.00133279 3.16619e-05
-4.64177e-05 3.16619e-05 0.00136815
0.00101585 1.77777e-05 -1.37695e-05
1.77777e-05 -0.000318135 1.29919e-05
-1.37695e-05 1.29919e-05 -0.000426512
-0.00131135 0.000464593 -1.77685e-05
0.000464593 -0.00193555 -1.18122e-05
-1.77685e-05 -1.18122e-05 -0.000816094
3.70267e-05 -3.69627e-05 -5.43132e-06
-3.69627e-05 5.6488e-05 -7.16383e-07
-5.43132e-06 -7.16383e-07 -5.93404e-05
0.00112695 -6.724e-06 1.91801e-06
-6.724e-06 -1.53681e-05 -1.12009e-06
1.91801e-06 -1.12009e-06 -0.000122136
-0.00130526 0.000227461 -2.08092e-05
0.000227461 -0.000885347 6.15011e-06
-2.08092e-05 6.15011e-06 -0.000670456
0.00215266 -0.000230534 -4.60192e-06
-0.000230534 0.000172959 2.97797e-05
-4.60192e-06 2.97797e-05 -0.00015156
0.0036328 0.000589415 5.68515e-06
0.000589415 0.00101988 4.00756e-06
5.68515e-06 4.00756e-06 0.00128256
0.00549496 0.000171266 3.24518e-05
0.000171266 0.00132342 -1.76514e-05
3.24518e-05 -1.76514e-05 -0.000116319
0.00250577 -0.000180416 2.47301e-05
-0.000180416 0.000764074 8.75988e-06
2.47301e-05 8.75988e-06 0.000831409
-0.00106757 5.98041e-05 1.74285e-05
5.98041e-05 -0.000575589 -1.6864e-06
1.74285e-05 -1.6864e-06 -0.000686895
0.00308469 0.000436801 2.69522e-05
0.000436801 0.00137011 -8.11201e-06
2.69522e-05 -8.11201e-06 0.00151308
0.0045072 0.00044911 -3.87311e-05
0.00044911 0.00100644 3.69866e-05
-3.87311e-05 3.69866e-05 -0.000170271
0.00182458 -0.000288173 -1.69398e-05
-0.000288173 7.59381e-06 2.90143e-05
-1.69398e-05 2.90143e-05 -0.00045813
0.00066986 -3.72775e-06 -3.65039e-06
-3.72775e-06 0.000200693 5.27319e-06
-3.65039e-06 5.27319e-06 2.1884e-05
0.000754855 -0.000120974 1.42255e-06
-0.000120974 0.00011386 -2.79497e-06
1.42255e-06 -2.79497e-06 -5.61443e-05
0.00190629 -0.00016404 7.64902e-06
-0.00016404 0.000354329 5.58962e-07
7.64902e-06 5.58962e-07 0.000273598
-3.68004e-05 -2.14007e-05 -1.26484e-06
-2.14007e-05 -0.000256021 1.35852e-07
-1.26484e-06 1.35852e-07 -0.000441783
0.000842405 -0.00010188 2.31668e-06
-0.00010188 7.82827e-05 7.26392e-08
2.31668e-06 7.26392e-08 -0.00010475
0.00125759 -0.000143927 7.38079e-07
-0.000143927 0.000116049 1.21572e-06
7.38079e-07 1.21572e-06 -3.61042e-05
0.00138373 -0.000110796 -1.33365e-06
-0.000110796 0.000334444 -3.4491e-07
-1.33365e-06 -3.4491e-07 0.000167401
0.00116864 -0.0001204 -4.50108e-07
-0.0001204 0.000147552 -5.72643e-07
-4.50108e-07 -5.72643e-07 -2.29442e-05
0.00167724 -0.000147861 -1.76804e-06
-0.000147861 0.000286344 -1.44993e-06
-1.76804e-06 -1.44993e-06 0.000142079
0.0015035 -0.000126116 7.17744e-07
-0.000126116 0.000319163 -1.13833e-06
7.17744e-07 -1.13833e-06 0.000165603
0.00126598 -0.000121175 4.12596e-07
-0.000121175 0.000158474 -7.17919e-07
4.12596e-07 -7.17919e-07 3.23891e-06
0.00145925 -0.000126071 -2.60259e-06
-0.000126071 0.000163617 -2.90221e-06
-2.60259e-06 -2.90221e-06 3.03561e-05
0.00140014 -0.000114059 -2.3447e-06
-0.000114059 0.000122283 -2.46112e-06
-2.3447e-06 -2.46112e-06 1.73167e-06
0.00112348 -0.000106022 -2.54787e-06
-0.000106022 7.19219e-05 3.95954e-07
-2.54787e-06 3.95954e-07 -5.46248e-05
0.00127535 -0.000116603 3.19638e-07
-0.000116603 0.000124383 -8.75278e-07
3.19638e-07 -8.75278e-07 -1.27608e-05
0.00130109 -0.000105265 -1.89712e-06
-0.000105265 0.000216427 2.18706e-06
-1.89712e-06 2.18706e-06 0.000107681
0.00128681 -0.000110832 -2.10661e-07
-0.000110832 0.000195314 7.16587e-07
-2.10661e-07 7.16587e-07 7.08753e-05
0.00130716 -0.000119009 1.62917e-06
-0.000119009 0.00019418 -9.96056e-07
1.62917e-06 -9.96056e-07 5.0808e-05
0.000967296 -8.36679e-05 -7.10796e-07
-8.36679e-05 7.42227e-05 -8.11566e-07
-7.10796e-07 -8.11566e-07 -1.69716e-05
0.000784819 -7.90525e-05 -2.52496e-07
-7.90525e-05 -1.8187e-05 -1.06925e-06
-2.52496e-07 -1.06925e-06 -0.000114159
0.0010228 -9.14479e-05 4.1669e-06
-9.14479e-05 0.000103135 -2.63792e-06
4.1669e-06 -2.63792e-06 -2.27047e-06
0.000922131 -3.66224e-05 -4.95497e-07
-3.66224e-05 5.92208e-05 1.16186e-06
-4.95497e-07 1.16186e-06 -1.98297e-05
0.00101939 -7.66635e-05 2.19786e-07
-7.66635e-05 0.000114314 4.70568e-07
2.19786e-07 4.70568e-07 2.27554e-05
0.00107897 -8.80596e-05 9.86918e-07
-8.80596e-05 0.000149182 8.55217e-07
9.86918e-07 8.55217e-07 5.21762e-05
0.000825882 5.50169e-05 -8.23846e-07
5.50169e-05 1.38066e-05 2.48824e-06
-8.23846e-07 2.48824e-06 -3.72777e-05
0.000904281 1.94009e-06 -9.23569e-09
1.94009e-06 5.14336e-05 -1.80623e-08
-9.23569e-09 -1.80623e-08 -2.09808e-05
0.000979565 -4.70679e-05 2.35139e-07
-4.70679e-05 9.98538e-05 -4.06579e-07
2.35139e-07 -4.06579e-07 1.60105e-05
0.00138019 4.26741e-05 -1.2297e-05
4.26741e-05 0.000307328 3.14604e-06
-1.2297e-05 3.14604e-06 0.000298677
0.000806985 3.71593e-05 3.55211e-08
3.71593e-05 -1.994e-06 -1.42804e-07
3.55211e-08 -1.42804e-07 -4.37812e-05
0.000875327 4.65257e-06 7.08239e-07
4.65257e-06 3.15674e-05 -1.40415e-06
7.08239e-07 -1.40415e-06 -3.15033e-05
0.000931669 2.89269e-05 -1.90711e-05
2.89269e-05 6.64286e-05 3.541e-06
-1.90711e-05 3.541e-06 7.62659e-05
0.00109225 3.69273e-05 -5.00429e-06
3.69273e-05 0.000147572 3.86144e-07
-5.00429e-06 3.86144e-07 0.000140319
0.00081568 3.93789e-05 6.86406e-07
3.93789e-05 -2.50226e-07 -2.11421e-06
6.86406e-07 -2.11421e-06 -3.70926e-05
0.000795616 3.04773e-05 1.99776e-06
3.04773e-05 -1.68663e-05 -3.30073e-06
1.99776e-06 -3.30073e-06 -2.30218e-05
0.0021549 4.16964e-05 7.6042e-07
4.16964e-05 0.000706542 6.03819e-08
7.6042e-07 6.03819e-08 0.000724047
0.00212965 3.61866e-05 1.92009e-05
3.61866e-05 0.000687068 -3.5427e-06
1.92009e-05 -3.5427e-06 0.000706061
0.000880709 -4.24239e-06 -1.17299e-07
-4.24239e-06 2.99117e-05 -1.17534e-06
-1.17299e-07 -1.17534e-06 -3.95829e-05
0.000898114 3.15549e-07 -4.38603e-07
3.15549e-07 3.51228e-05 -1.28417e-06
-4.38603e-07 -1.28417e-06 -2.33272e-05
0.000930993 -4.40313e-06 -4.28992e-08
-4.40313e-06 5.4078e-05 -1.16252e-08
-4.28992e-08 -1.16252e-08 -1.25261e-05
0.000820472 -3.2874e-05 -6.0079e-07
-3.2874e-05 -4.18827e-06 -1.93032e-06
-6.0079e-07 -1.93032e-06 -4.07537e-05
0.000902774 2.27721e-07 4.39046e-07
2.27721e-07 3.73704e-05 -8.69369e-08
4.39046e-07 -8.69369e-08 -1.81189e-05
0.000784253 -2.55931e-05 -1.53073e-06
-2.55931e-05 -2.72715e-05 -3.38446e-06
-1.53073e-06 -3.38446e-06 -3.4262e-05
0.000835949 -1.90266e-05 -2.03003e-07
-1.90266e-05 -1.00821e-08 9.89396e-09
-2.03003e-07 9.89396e-09 -3.41855e-05
0.000907283 2.74487e-05 9.49209e-07
2.74487e-05 4.22198e-05 8.43312e-07
9.49209e-07 8.43312e-07 -1.27432e-05
0.00222152 -3.08988e-05 -1.75298e-05
-3.08988e-05 0.000730166 -3.88299e-06
-1.75298e-05 -3.88299e-06 0.000749409
0.000782128 -2.19928e-05 -2.3021e-07
-2.19928e-05 -3.38167e-05 -4.69445e-09
-2.3021e-07 -4.69445e-09 -3.86775e-05
0.000853036 -1.71732e-05 4.02153e-07
-1.71732e-05 6.86517e-06 1.52983e-06
4.02153e-07 1.52983e-06 -2.53299e-05
0.00215257 -2.48287e-05 -1.41349e-06
-2.48287e-05 0.000688035 5.4026e-08
-1.41349e-06 5.4026e-08 0.000709015
0.000776251 -1.80117e-05 5.84352e-07
-1.80117e-05 -4.22552e-05 3.16441e-06
5.84352e-07 3.16441e-06 -4.46457e-05
0.00208486 -1.82279e-05 9.70312e-06
-1.82279e-05 0.000647417 3.86392e-06
9.70312e-06 3.86392e-06 0.000670024
0.0012604 2.0457e-06 1.21464e-05
2.0457e-06 0.0001278 2.90496e-06
1.21464e-05 2.90496e-06 4.54903e-05
0.000889287 7.80747e-06 1.12543e-06
7.80747e-06 6.76087e-05 -6.30069e-07
1.12543e-06 -6.30069e-07 -1.08608e-05
0.00111212 1.32981e-07 5.01933e-06
1.32981e-07 0.000228851 5.73465e-06
5.01933e-06 5.73465e-06 0.000106303
0.000969589 3.53537e-05 -7.10716e-07
3.53537e-05 9.0218e-05 6.58485e-09
-7.10716e-07 6.58485e-09 1.03155e-05
0.000963585 -9.5363e-07 1.32763e-07
-9.5363e-07 7.26212e-05 3.74397e-07
1.32763e-07 3.74397e-07 6.60593e-06
0.000945719 -8.21984e-06 9.90064e-08
-8.21984e-06 6.38056e-05 4.99173e-07
9.90064e-08 4.99173e-07 -7.70795e-06
0.000958307 -1.33847e-05 1.01281e-07
-1.33847e-05 7.21018e-05 -1.79937e-07
1.01281e-07 -1.79937e-07 1.85725e-06
0.000962638 1.28532e-05 5.44249e-08
1.28532e-05 7.77737e-05 -3.23441e-07
5.44249e-08 -3.23441e-07 2.12792e-06
0.000976219 2.20042e-05 -2.94936e-08
2.20042e-05 8.67493e-05 4.41072e-07
-2.94936e-08 4.41072e-07 9.76615e-06
0.000982355 3.19962e-05 -4.51597e-07
3.19962e-05 9.29038e-05 -1.11429e-06
-4.51597e-07 -1.11429e-06 1.15763e-05
0.000841823 7.82781e-06 4.46027e-08
7.82781e-06 1.90936e-05 -1.06422e-07
4.46027e-08 -1.06422e-07 -5.69859e-05
0.000919847 3.88357e-05 3.74594e-07
3.88357e-05 5.87546e-05 -1.36647e-07
3.74594e-07 -1.36647e-07 -1.3614e-05
0.000953738 -2.629e-05 3.24507e-07
-2.629e-05 6.59902e-05 -2.7355e-07
3.24507e-07 -2.7355e-07 -7.37068e-06
0.000980475 1.42847e-05 -9.67043e-08
1.42847e-05 9.14819e-05 6.987e-08
-9.67043e-08 6.987e-08 1.63998e-05
0.00144126 1.80276e-05 2.37692e-06
1.80276e-05 0.000335567 4.55061e-07
2.37692e-06 4.55061e-07 0.000258748
0.00156103 -0.000219933 2.86996e-05
-0.000219933 0.00048584 2.02768e-05
2.86996e-05 2.02768e-05 0.000765529
0.0015982 -2.12286e-05 2.97608e-06
-2.12286e-05 0.000129832 7.77522e-06
2.97608e-06 7.77522e-06 2.83916e-05
0.00118656 2.33982e-06 4.3986e-06
2.33982e-06 -2.4607e-05 1.18551e-06
4.3986e-06 1.18551e-06 -8.02086e-05
0.00286925 -0.000248804 -2.69489e-05
-0.000248804 -1.17136e-06 -2.43259e-05
-2.69489e-05 -2.43259e-05 0.000752272
0.0039459 -0.000320845 3.24936e-06
-0.000320845 0.000163003 -6.97346e-05
3.24936e-06 -6.97346e-05 0.000146226
0.00305228 2.80895e-05 -7.73366e-05
2.80895e-05 -0.000565167 9.55044e-05
-7.73366e-05 9.55044e-05 -0.00104525
0.00189846 -0.000270181 -5.65162e-05
-0.000270181 0.000132059 8.73344e-05
-5.65162e-05 8.73344e-05 -0.000266399
0.00283589 -0.000126494 -1.43463e-05
-0.000126494 0.000783476 1.41218e-05
-1.43463e-05 1.41218e-05 0.000496295
0.000492719 -0.000363856 -1.13013e-05
-0.000363856 -0.000834057 -3.23815e-06
-1.13013e-05 -3.23815e-06 9.13086e-05
0.00499119 -0.000125347 1.41895e-05
-0.000125347 0.000897399 4.8313e-05
1.41895e-05 4.8313e-05 -0.000222824
-0.000269907 -0.000295735 -3.9077e-06
-0.000295735 -0.00117851 -4.60625e-06
-3.9077e-06 -4.60625e-06 -0.000946172
0.00318538 0.000168008 -6.88901e-05
0.000168008 0.000726958 -4.42376e-05
-6.88901e-05 -4.42376e-05 0.000500958
0.00826267 -0.000384739 2.92835e-06
-0.000384739 0.00267502 3.66134e-05
2.92835e-06 3.66134e-05 0.00161311
-7.65987e-05 -0.00034681 1.68048e-05
-0.00034681 -0.000188215 -2.16675e-06
1.68048e-05 -2.16675e-06 9.16681e-05
0.00068669 9.47272e-05 -1.80866e-06
9.47272e-05 -3.04862e-05 -5.5334e-07
-1.80866e-06 -5.5334e-07 -9.62233e-05
0.00108908 1.83606e-05 2.12361e-06
1.83606e-05 0.000153244 1.28936e-07
2.12361e-06 1.28936e-07 8.65332e-05
0.000964915 -3.68322e-06 -4.78332e-07
-3.68322e-06 7.86299e-05 -7.53005e-07
-4.78332e-07 -7.53005e-07 2.24378e-06
-0.000590303 -5.91203e-06 -1.68072e-05
-5.91203e-06 -3.12619e-05 -2.25291e-05
-1.68072e-05 -2.25291e-05 -0.000565938
1.24876e-05 -2.21805e-05 -1.1202e-06
-2.21805e-05 -0.000239894 -3.95011e-06
-1.1202e-06 -3.95011e-06 -0.000335485
0.00079166 3.85182e-06 1.1932e-06
3.85182e-06 -3.40537e-06 1.11064e-06
1.1932e-06 1.11064e-06 -7.90827e-05
0.000824754 3.93702e-05 1.14486e-06
3.93702e-05 0.000134981 5.14957e-07
1.14486e-06 5.14957e-07 2.6361e-05
0.000775018 7.28264e-05 1.26288e-06
7.28264e-05 0.000237226 -1.04592e-05
1.26288e-06 -1.04592e-05 2.03795e-05
-0.000755756 7.5922e-05 9.64426e-06
7.5922e-05 -0.000659614 1.24953e-05
9.64426e-06 1.24953e-05 -0.000800041
0.00160054 -8.79422e-06 3.02249e-05
-8.79422e-06 0.00090596 -1.25134e-06
3.02249e-05 -1.25134e-06 0.000817004
0.00109701 -1.57061e-06 -6.31158e-07
-1.57061e-06 4.88958e-05 -4.08989e-07
-6.31158e-07 -4.08989e-07 -4.52052e-05
0.000722084 1.8113e-06 1.11302e-05
1.8113e-06 -2.54426e-05 -1.32015e-06
1.11302e-05 -1.32015e-06 -0.000129375
0.000293962 -4.08661e-05 1.29401e-07
-4.08661e-05 0.000200857 6.09077e-06
1.29401e-07 6.09077e-06 7.91995e-05
0.00147548 -0.000206075 2.70255e-05
-0.000206075 -0.000126295 -3.67235e-05
2.70255e-05 -3.67235e-05 -0.000359307
0.00114731 -9.06711e-06 -9.43334e-06
-9.06711e-06 -9.4166e-07 -3.68306e-06
-9.43334e-06 -3.68306e-06 -0.000103401
0.00200724 0.000179336 -4.81174e-06
0.000179336 -0.000155669 2.02132e-05
-4.81174e-06 2.02132e-05 -0.00140151
-0.0022833 0.000387531 -4.84288e-05
0.000387531 -0.00173878 1.19684e-05
-4.84288e-05 1.19684e-05 -0.00138641
0.00120568 0.000267821 -3.85317e-05
0.000267821 0.00034178 1.86097e-05
-3.85317e-05 1.86097e-05 0.000742361
0.00163044 -0.00014788 -6.4278e-06
-0.00014788 0.00029523 4.31219e-06
-6.4278e-06 4.31219e-06 0.000407233
0.00110934 9.84495e-05 -2.42497e-06
9.84495e-05 0.000595648 2.3352e-06
-2.42497e-06 2.3352e-06 0.000640396
-0.00338668 0.000217458 6.3268e-06
0.000217458 -0.00134195 1.57556e-06
6.3268e-06 1.57556e-06 -0.00137429
0.00308045 -0.00032004 -6.56744e-06
-0.00032004 0.000497303 1.7263e-05
-6.56744e-06 1.7263e-05 -0.000229885
0.00692682 0.000386362 -1.64e-05
0.000386362 0.00208788 2.88956e-06
-1.64e-05 2.88956e-06 0.00102098
0.000179225 -0.000154264 -2.89131e-06
-0.000154264 -0.000462625 5.26543e-06
-2.89131e-06 5.26543e-06 -0.000417068
-0.00405417 0.000109026 2.50347e-05
0.000109026 -0.00212168 -1.22805e-05
2.50347e-05 -1.22805e-05 -0.00203097
0.00653306 0.00035798 3.94226e-06
0.00035798 0.00208246 2.44118e-06
3.94226e-06 2.44118e-06 0.00114206
0.00305442 -0.000110928 -2.08994e-05
-0.000110928 -9.4158e-05 2.87138e-05
-2.08994e-05 2.87138e-05 -0.000537834
-0.000159584 -8.20653e-05 -6.46837e-06
-8.20653e-05 -0.000301465 -2.15316e-06
-6.46837e-06 -2.15316e-06 -0.000512369
0.00138141 -0.00014604 -1.37923e-06
-0.00014604 0.00013191 -9.8858e-08
-1.37923e-06 -9.8858e-08 6.2075e-05
0.00156156 -0.000157298 3.3195e-06
-0.000157298 1.62289e-05 -2.94691e-06
3.3195e-06 -2.94691e-06 -2.29001e-05
0.000459982 -8.42441e-05 -1.49407e-06
-8.42441e-05 -9.9281e-05 -3.70413e-06
-1.49407e-06 -3.70413e-06 -0.000282836
0.00119101 -0.000139407 -6.26831e-07
-0.000139407 7.60504e-05 -1.47338e-06
-6.26831e-07 -1.47338e-06 -7.47874e-05
0.00164928 -0.000158488 -3.51529e-06
-0.000158488 0.000121987 -2.48054e-06
-3.51529e-06 -2.48054e-06 1.03304e-05
0.00113371 -0.000117664 -3.38625e-07
-0.000117664 0.000122663 -1.9669e-06
-3.38625e-07 -1.9669e-06 -4.37645e-05
0.00134391 -0.000134 3.79782e-07
-0.000134 0.000117225 -1.07799e-06
3.79782e-07 -1.07799e-06 -2.69995e-05
0.0017727 -0.0001366 -3.11009e-06
-0.0001366 0.000206993 -3.91091e-06
-3.11009e-06 -3.91091e-06 9.67224e-05
0.00128577 -0.000119661 9.96553e-07
-0.000119661 0.000166339 -1.1693e-06
9.96553e-07 -1.1693e-06 1.495e-05
0.0013384 -0.00012 -3.46318e-07
-0.00012 9.95723e-05 -1.01484e-06
-3.46318e-07 -1.01484e-06 -3.21477e-05
0.00161204 -0.000115104 -2.5492e-06
-0.000115104 0.000151369 -4.04253e-06
-2.5492e-06 -4.04253e-06 5.0877e-05
0.00156415 -0.000106307 -2.06057e-06
-0.000106307 0.000160569 -2.98917e-06
-2.06057e-06 -2.98917e-06 6.4468e-05
0.00132116 -0.000110049 -2.77248e-06
-0.000110049 0.000115288 -1.30743e-06
-2.77248e-06 -1.30743e-06 -2.3257e-06
0.00139113 -0.000111202 8.36454e-07
-0.000111202 0.000118194 9.09881e-08
8.36454e-07 9.09881e-08 -2.45582e-08
0.000712151 -8.48592e-05 -2.24063e-06
-8.48592e-05 -0.000117469 1.27792e-06
-2.24063e-06 1.27792e-06 -0.000231273
0.00130099 -0.000111838 1.03582e-06
-0.000111838 0.000162604 -1.05194e-06
1.03582e-06 -1.05194e-06 3.7252e-05
0.00115659 -0.000110941 2.58013e-06
-0.000110941 6.14805e-05 -5.43261e-07
2.58013e-06 -5.43261e-07 -7.43148e-05
0.00101809 -8.94691e-05 -7.76586e-07
-8.94691e-05 8.85151e-05 8.29171e-07
-7.76586e-07 8.29171e-07 -7.48154e-06
0.00101421 -9.32193e-05 4.03097e-07
-9.32193e-05 7.3145e-05 -1.96411e-07
4.03097e-07 -1.96411e-07 -3.50695e-05
0.000943138 -9.73681e-05 2.03891e-06
-9.73681e-05 2.06266e-05 -1.86474e-06
2.03891e-06 -1.86474e-06 -0.00010564
0.000981222 -6.89434e-05 -1.74629e-06
-6.89434e-05 8.13132e-05 2.91768e-07
-1.74629e-06 2.91768e-07 1.53023e-08
0.0010449 -8.64713e-05 -2.27003e-07
-8.64713e-05 0.000112646 -4.07644e-07
-2.27003e-07 -4.07644e-07 2.12999e-05
0.000895117 -8.31617e-05 5.01783e-07
-8.31617e-05 4.00292e-05 -1.37719e-06
5.01783e-07 -1.37719e-06 -5.48671e-05
0.000882611 1.54388e-05 -1.03704e-06
1.54388e-05 4.56808e-05 2.64355e-06
-1.03704e-06 2.64355e-06 -1.29042e-05
0.000960729 -3.33276e-05 6.51106e-07
-3.33276e-05 7.85675e-05 3.43266e-07
6.51106e-07 3.43266e-07 -2.64712e-07
0.000999389 -7.02268e-05 1.10534e-06
-7.02268e-05 0.000103925 6.14856e-07
1.10534e-06 6.14856e-07 1.34842e-05
0.000704892 4.07665e-05 -3.21256e-06
4.07665e-05 -4.20078e-05 3.7555e-06
-3.21256e-06 3.7555e-06 -5.84562e-05
0.000807406 2.59988e-05 -2.25265e-07
2.59988e-05 1.51635e-06 -1.81187e-07
-2.25265e-07 -1.81187e-07 -4.79532e-05
0.000928667 -6.87768e-06 4.53079e-07
-6.87768e-06 6.49787e-05 -1.47222e-06
4.53079e-07 -1.47222e-06 -8.32611e-06
0.00225648 5.83932e-05 -9.28015e-06
5.83932e-05 0.000776365 1.40744e-06
-9.28015e-06 1.40744e-06 0.000788728
0.000745192 3.72047e-05 1.63869e-07
3.72047e-05 -2.80862e-05 -2.39653e-09
1.63869e-07 -2.39653e-09 -4.06864e-05
0.000796485 3.60789e-05 1.21303e-06
3.60789e-05 -7.15973e-06 -2.25913e-06
1.21303e-06 -2.25913e-06 -4.91433e-05
0.00220288 4.69564e-05 7.97418e-07
4.69564e-05 0.000738915 5.5251e-08
7.97418e-07 5.5251e-08 0.000754616
0.000789643 3.46234e-05 2.40338e-06
3.46234e-05 -1.25104e-05 -3.44879e-06
2.40338e-06 -3.44879e-06 -2.16213e-05
0.00216313 4.17012e-05 2.19301e-05
4.17012e-05 0.000711884 -3.47976e-06
2.19301e-05 -3.47976e-06 0.000729177
0.0010064 3.22765e-05 -4.39686e-07
3.22765e-05 0.000104637 -1.75818e-07
-4.39686e-07 -1.75818e-07 3.04573e-05
0.000900157 4.04486e-06 5.20064e-08
4.04486e-06 4.06542e-05 -3.07705e-07
5.20064e-08 -3.07705e-07 -2.94257e-05
0.000894643 -8.48435e-06 -4.37486e-07
-8.48435e-06 3.74613e-05 -1.51111e-06
-4.37486e-07 -1.51111e-06 -2.54745e-05
0.000812254 -3.67315e-05 -8.86448e-07
-3.67315e-05 -5.02602e-06 -2.1707e-06
-8.86448e-07 -2.1707e-06 -4.37619e-05
0.000883746 -9.22386e-06 4.15856e-07
-9.22386e-06 2.83717e-05 -3.5764e-08
4.15856e-07 -3.5764e-08 -3.02281e-05
0.000891261 7.93248e-06 5.01524e-07
7.93248e-06 3.55594e-05 7.21466e-07
5.01524e-07 7.21466e-07 -3.28025e-05
0.000777738 -2.86121e-05 -2.17564e-06
-2.86121e-05 -2.5298e-05 -3.47489e-06
-2.17564e-06 -3.47489e-06 -3.40543e-05
0.00082605 -2.58768e-05 -2.20312e-07
-2.58768e-05 -1.95198e-06 5.09225e-09
-2.20312e-07 5.09225e-09 -3.80781e-05
0.000892499 -7.07072e-06 8.89406e-07
-7.07072e-06 3.19721e-05 1.00811e-06
8.89406e-07 1.00811e-06 -2.33916e-05
0.00226211 -3.65371e-05 -2.06152e-05
-3.65371e-05 0.000757334 -3.81094e-06
-2.06152e-05 -3.81094e-06 0.000775087
0.000769126 -2.51814e-05 -1.45658e-07
-2.51814e-05 -3.50044e-05 -1.72223e-09
-1.45658e-07 -1.72223e-09 -4.1937e-05
0.000844369 -1.78069e-05 8.52993e-07
-1.78069e-05 4.46886e-06 1.62994e-06
8.52993e-07 1.62994e-06 -2.96387e-05
0.00221234 -3.08268e-05 -1.46354e-06
-3.08268e-05 0.000724733 6.61475e-08
-1.46354e-06 6.61475e-08 0.000744152
0.000765203 -2.16838e-05 8.09932e-07
-2.16838e-05 -4.25319e-05 3.3083e-06
8.09932e-07 3.3083e-06 -4.73094e-05
0.00214107 -2.45509e-05 1.26531e-05
-2.45509e-05 0.000681398 3.85717e-06
1.26531e-05 3.85717e-06 0.000702602
-0.000601317 -7.82398e-05 2.22089e-05
-7.82398e-05 -0.000347039 6.38787e-06
2.22089e-05 6.38787e-06 -0.000477443
0.00120635 -1.22014e-07 2.18386e-06
-1.22014e-07 8.41446e-05 1.39845e-06
2.18386e-06 1.39845e-06 3.59213e-06
0.000928303 8.10396e-06 1.22188e-05
8.10396e-06 9.3574e-05 6.28261e-06
1.22188e-05 6.28261e-06 1.63328e-05
0.000959811 2.33153e-05 -4.21075e-07
2.33153e-05 8.39393e-05 5.14977e-07
-4.21075e-07 5.14977e-07 4.58513e-06
0.00109306 7.53411e-05 -2.77429e-07
7.53411e-05 0.00016248 9.70006e-07
-2.77429e-07 9.70006e-07 7.60876e-05
0.000975479 4.1034e-05 -4.60095e-07
4.1034e-05 9.50665e-05 2.75062e-07
-4.60095e-07 2.75062e-07 1.13085e-05
0.00104227 -1.77155e-05 4.6159e-08
-1.77155e-05 0.000115743 -2.82535e-07
4.6159e-08 -2.82535e-07 4.59509e-05
0.00100455 1.59999e-05 3.69388e-07
1.59999e-05 9.79508e-05 4.84322e-07
3.69388e-07 4.84322e-07 2.37493e-05
0.000876092 -2.9881e-06 -4.67565e-07
-2.9881e-06 3.21354e-05 1.14302e-06
-4.67565e-07 1.14302e-06 -4.30537e-05
0.000874949 1.57125e-05 -3.8914e-07
1.57125e-05 3.78178e-05 2.3209e-08
-3.8914e-07 2.3209e-08 -4.00168e-05
0.0009397 1.96576e-05 1.72502e-07
1.96576e-05 6.99289e-05 -1.11194e-08
1.72502e-07 -1.11194e-08 -1.04987e-05
0.00102713 4.6532e-05 2.74786e-07
4.6532e-05 0.00013214 -9.0005e-07
2.74786e-07 -9.0005e-07 4.35294e-05
0.000829968 4.41108e-05 1.39209e-06
4.41108e-05 1.19106e-05 -1.67022e-06
1.39209e-06 -1.67022e-06 -6.83249e-05
0.000948538 3.62862e-05 -5.33045e-08
3.62862e-05 7.75169e-05 -4.94236e-07
-5.33045e-08 -4.94236e-07 6.36451e-07
0.00111802 2.96931e-05 4.36834e-07
2.96931e-05 0.000171163 1.94605e-07
4.36834e-07 1.94605e-07 9.41198e-05
-0.0024843 -0.000240633 1.94282e-05
-0.000240633 -0.00127304 2.48484e-05
1.94282e-05 2.48484e-05 -0.00122561
0.000440332 -0.000215732 7.59167e-06
-0.000215732 -6.69894e-05 1.89372e-06
7.59167e-06 1.89372e-06 0.000142522
0.00168639 -1.7906e-05 -1.55638e-05
-1.7906e-05 0.000175724 -1.0429e-05
-1.55638e-05 -1.0429e-05 7.4424e-05
-0.00117193 -0.000384303 -9.85368e-06
-0.000384303 -0.00175746 7.15021e-06
-9.85368e-06 7.15021e-06 -0.000745797
0.00437952 -0.000457221 -2.19988e-05
-0.000457221 0.00119181 -4.49822e-05
-2.19988e-05 -4.49822e-05 0.00129608
0.00440703 -5.18872e-05 5.47638e-05
-5.18872e-05 0.000709219 2.51611e-05
5.47638e-05 2.51611e-05 -0.000308119
0.00159326 -0.000114726 -6.63464e-05
-0.000114726 0.00014266 7.87835e-05
-6.63464e-05 7.87835e-05 -0.000494196
0.00261498 0.000124952 -4.55761e-05
0.000124952 0.000301095 -1.88223e-05
-4.55761e-05 -1.88223e-05 -6.07517e-05
0.00301987 -0.000471383 -6.83684e-06
-0.000471383 0.000967348 6.62716e-06
-6.83684e-06 6.62716e-06 0.0011134
0.00262957 -8.72039e-05 2.6199e-05
-8.72039e-05 3.46779e-05 3.74029e-05
2.6199e-05 3.74029e-05 -0.00108279
0.00161535 0.000210945 -8.29654e-05
0.000210945 -4.35465e-05 -8.83381e-05
-8.29654e-05 -8.83381e-05 -0.000621581
0.00332288 6.3305e-05 -8.08634e-05
6.3305e-05 0.000619735 -2.56138e-05
-8.08634e-05 -2.56138e-05 -0.000504904
0.00238824 0.000220487 1.0711e-05
0.000220487 0.000716268 -6.1186e-06
1.0711e-05 -6.1186e-06 0.000588648
0.000881202 9.30536e-05 -9.24319e-07
9.30536e-05 5.80758e-05 -2.09794e-07
-9.24319e-07 -2.09794e-07 -5.48121e-06
0.00126987 2.19412e-05 2.94524e-07
2.19412e-05 0.000242838 -1.92014e-06
2.94524e-07 -1.92014e-06 0.00017622
-0.000464557 1.90626e-05 -1.83937e-05
1.90626e-05 -0.000408739 -1.37351e-05
-1.83937e-05 -1.37351e-05 -0.000576185
0.0015776 7.85779e-05 -1.13584e-06
7.85779e-05 0.000484336 -4.62954e-06
-1.13584e-06 -4.62954e-06 0.000375908
0.0010211 0.000150138 9.40542e-06
0.000150138 0.000150383 2.98961e-07
9.40542e-06 2.98961e-07 3.30332e-05
0.000522048 0.000169824 3.21078e-05
0.000169824 -0.000365878 2.33826e-05
3.21078e-05 2.33826e-05 -0.000437112
-0.00224054 -1.38099e-05 1.37322e-05
-1.38099e-05 -0.00127067 -8.15831e-06
1.37322e-05 -8.15831e-06 -0.00103624
0.000228688 -4.72854e-07 1.62051e-06
-4.72854e-07 0.000163206 8.61721e-07
1.62051e-06 8.61721e-07 4.57192e-05
0.000648302 -1.2794e-06 -5.67224e-06
-1.2794e-06 -0.000172453 -2.24838e-06
-5.67224e-06 -2.24838e-06 -0.000256349
0.000522174 -0.00012815 -2.87182e-05
-0.00012815 -0.000242168 -5.63982e-06
-2.87182e-05 -5.63982e-06 -0.00014518
0.00309594 -0.000346286 -4.61413e-05
-0.000346286 0.000537504 -2.82229e-06
-4.61413e-05 -2.82229e-06 2.2509e-07
0.000951607 7.76236e-05 -2.69079e-05
7.76236e-05 0.000541771 5.53689e-06
-2.69079e-05 5.53689e-06 0.000545207
0.00120233 0.000284111 2.04549e-05
0.000284111 -0.000284454 -4.37319e-05
2.04549e-05 -4.37319e-05 -0.00153721
0.00575489 0.000393615 -9.35555e-05
0.000393615 0.0028248 1.74559e-05
-9.35555e-05 1.74559e-05 0.00288266
0.00120941 -0.00020576 8.94672e-06
-0.00020576 -1.23719e-05 -1.59437e-07
8.94672e-06 -1.59437e-07 1.21713e-05
-0.00087316 0.000183183 -2.0917e-05
0.000183183 -0.000431969 -9.17156e-07
-2.0917e-05 -9.17156e-07 -0.000441376
0.00265579 0.000238401 -5.57984e-06
0.000238401 0.000268506 1.17595e-05
-5.57984e-06 1.17595e-05 -0.000863503
0.00353545 -9.50227e-05 9.24733e-07
-9.50227e-05 0.000486942 4.87909e-06
9.24733e-07 4.87909e-06 0.000167874
0.00059514 -0.000126975 -2.90743e-06
-0.000126975 -0.000244177 -5.80506e-06
-2.90743e-06 -5.80506e-06 -0.000290812
0.00597921 9.38968e-05 2.52631e-05
9.38968e-05 0.00185095 2.2078e-06
2.52631e-05 2.2078e-06 0.00103607
0.00132777 6.35005e-05 2.78999e-06
6.35005e-05 -0.000476851 -7.91683e-06
2.78999e-06 -7.91683e-06 -0.000727094
0.000866253 -0.000133381 -4.13852e-06
-0.000133381 -8.46359e-05 -1.71278e-06
-4.13852e-06 -1.71278e-06 -0.000145274
0.00148754 -0.000161935 -2.2307e-07
-0.000161935 -4.9214e-07 -2.84735e-07
-2.2307e-07 -2.84735e-07 -5.29822e-05
0.00204707 -0.000181713 -8.07623e-06
-0.000181713 0.000114149 3.50809e-06
-8.07623e-06 3.50809e-06 7.02281e-05
0.0011693 -0.000136237 -2.62073e-06
-0.000136237 5.92272e-05 -2.87393e-06
-2.62073e-06 -2.87393e-06 -8.94774e-05
0.00151901 -0.000150921 -2.9354e-06
-0.000150921 5.38558e-05 7.18057e-07
-2.9354e-06 7.18057e-07 -5.64249e-05
0.00166661 -0.000136161 -7.44949e-06
-0.000136161 -1.10326e-05 1.18175e-06
-7.44949e-06 1.18175e-06 -8.1006e-05
0.00103797 -0.000121218 1.5072e-06
-0.000121218 -3.73997e-05 -2.20434e-07
1.5072e-06 -2.20434e-07 -0.000181704
0.00146633 -0.000125308 -9.53831e-07
-0.000125308 4.80277e-05 -4.21644e-09
-9.53831e-07 -4.21644e-09 -6.06729e-05
0.00177957 -0.000114984 -2.96461e-06
-0.000114984 0.000100921 -1.22768e-06
-2.96461e-06 -1.22768e-06 2.89009e-05
0.00120208 -0.000113612 1.98013e-06
-0.000113612 2.76219e-05 1.00635e-06
1.98013e-06 1.00635e-06 -0.000102511
0.00143888 -0.000109398 -1.87887e-07
-0.000109398 6.15953e-05 3.06755e-07
-1.87887e-07 3.06755e-07 -3.80875e-05
0.00155137 -0.000100185 -1.57785e-06
-0.000100185 7.45387e-05 -1.50351e-06
-1.57785e-06 -1.50351e-06 -6.04752e-07
0.00182561 -0.00010047 -6.87516e-07
-0.00010047 0.000266071 -1.79095e-06
-6.87516e-07 -1.79095e-06 0.000184358
0.00151433 -0.000102828 -9.6932e-07
-0.000102828 0.000134806 1.3809e-06
-9.6932e-07 1.3809e-06 4.11709e-05
0.00140573 -0.000101759 -1.16682e-06
-0.000101759 0.000113416 -3.36888e-06
-1.16682e-06 -3.36888e-06 1.33444e-05
0.00130882 -0.000104806 -2.62214e-06
-0.000104806 0.000131857 -1.50652e-07
-2.62214e-06 -1.50652e-07 2.08756e-05
0.00143355 -0.000112794 9.90498e-07
-0.000112794 0.000173851 -4.1286e-07
9.90498e-07 -4.1286e-07 5.6241e-05
0.00137473 -0.000108269 3.17333e-06
-0.000108269 0.000110157 2.51144e-06
3.17333e-06 2.51144e-06 -5.69393e-06
0.000794227 -8.35966e-05 -2.39263e-06
-8.35966e-05 -5.71589e-05 1.96471e-06
-2.39263e-06 1.96471e-06 -0.000160583
0.00103097 -9.61109e-05 1.31089e-07
-9.61109e-05 4.65301e-05 -4.92397e-08
1.31089e-07 -4.92397e-08 -6.62027e-05
0.00147553 -0.000117523 3.89561e-06
-0.000117523 0.000251834 -2.27807e-06
3.89561e-06 -2.27807e-06 0.000127687
0.000954564 -7.45522e-05 -1.52565e-06
-7.45522e-05 6.02767e-05 4.94596e-07
-1.52565e-06 4.94596e-07 -2.42887e-05
0.00107374 -9.11371e-05 1.11821e-07
-9.11371e-05 0.000115439 -2.132e-07
1.11821e-07 -2.132e-07 1.92732e-05
0.000765953 -8.2837e-05 1.18189e-06
-8.2837e-05 -5.06982e-05 -2.48812e-06
1.18189e-06 -2.48812e-06 -0.000158479
0.000842969 -1.19668e-05 -2.53795e-06
-1.19668e-05 2.52813e-05 2.32197e-06
-2.53795e-06 2.32197e-06 -3.95744e-05
0.00101811 -7.09516e-05 -2.79771e-08
-7.09516e-05 9.90885e-05 -2.59492e-08
-2.79771e-08 -2.59492e-08 1.78259e-05
0.00111507 -8.89104e-05 1.06883e-06
-8.89104e-05 0.00014723 -4.00606e-07
1.06883e-06 -4.00606e-07 5.57703e-05
0.000652149 4.81483e-05 -2.69188e-06
4.81483e-05 -6.13522e-05 4.25976e-06
-2.69188e-06 4.25976e-06 -8.38018e-05
0.000833671 6.98748e-06 -2.55479e-08
6.98748e-06 1.98299e-05 2.95346e-08
-2.55479e-08 2.95346e-08 -3.93266e-05
0.000998392 -3.71771e-05 1.60083e-06
-3.71771e-05 9.79855e-05 -4.36766e-07
1.60083e-06 -4.36766e-07 1.8924e-05
0.0024035 5.91476e-05 -2.92053e-05
5.91476e-05 0.000858528 3.20434e-06
-2.92053e-05 3.20434e-06 0.000869659
0.000724966 4.30854e-05 -7.92707e-08
4.30854e-05 -3.06699e-05 -8.78953e-08
-7.92707e-08 -8.78953e-08 -4.77121e-05
0.000785974 9.32649e-06 2.33862e-06
9.32649e-06 -1.01395e-05 -2.51635e-06
2.33862e-06 -2.51635e-06 -5.95298e-05
0.00163269 4.60014e-05 1.12038e-05
4.60014e-05 0.000445762 -8.06468e-07
1.12038e-05 -8.06468e-07 0.000455531
0.00077481 3.88162e-05 2.85818e-06
3.88162e-05 -1.28351e-05 -3.67676e-06
2.85818e-06 -3.67676e-06 -2.56132e-05
0.00223552 4.72404e-05 2.51766e-05
4.72404e-05 0.000757508 -3.4355e-06
2.51766e-05 -3.4355e-06 0.000772712
0.000982879 4.79743e-05 2.74262e-08
4.79743e-05 9.49513e-05 7.38796e-07
2.74262e-08 7.38796e-07 1.57576e-05
0.000968784 1.26748e-05 -9.71903e-08
1.26748e-05 8.23315e-05 4.98027e-07
-9.71903e-08 4.98027e-07 9.39345e-06
0.000911668 -2.07575e-05 -5.52938e-07
-2.07575e-05 5.21853e-05 -1.25144e-06
-5.52938e-07 -1.25144e-06 -1.47049e-05
0.000945504 1.59614e-05 3.3551e-07
1.59614e-05 6.51001e-05 5.80651e-07
3.3551e-07 5.80651e-07 -5.84169e-06
0.000894447 -2.50359e-05 1.12892e-07
-2.50359e-05 3.54997e-05 -3.35906e-08
1.12892e-07 -3.35906e-08 -2.60773e-05
0.000796319 -3.425e-05 -1.28979e-06
-3.425e-05 -8.33262e-06 -2.33375e-06
-1.28979e-06 -2.33375e-06 -5.02145e-05
0.000770507 -3.21795e-05 -2.64523e-06
-3.21795e-05 -2.35974e-05 -3.56397e-06
-2.64523e-06 -3.56397e-06 -3.40142e-05
0.000816274 -3.28466e-05 -1.72156e-07
-3.28466e-05 -3.47786e-06 -1.7187e-08
-1.72156e-07 -1.7187e-08 -4.18261e-05
0.000891484 -3.47551e-05 3.68031e-09
-3.47551e-05 3.10714e-05 1.33929e-06
3.68031e-09 1.33929e-06 -2.62411e-05
0.00228291 -4.18805e-05 -2.34247e-05
-4.18805e-05 0.000774607 -3.67904e-06
-2.34247e-05 -3.67904e-06 0.000790923
0.000760026 -2.81516e-05 -2.08118e-07
-2.81516e-05 -3.42833e-05 1.81872e-08
-2.08118e-07 1.81872e-08 -4.29864e-05
0.000833739 -1.80818e-05 1.48783e-06
-1.80818e-05 1.47277e-06 1.8232e-06
1.48783e-06 1.8232e-06 -3.42478e-05
0.00226061 -3.65578e-05 -1.1398e-06
-3.65578e-05 0.000755896 7.28595e-08
-1.1398e-06 7.28595e-08 0.000773771
0.000754672 -2.48197e-05 1.328e-06
-2.48197e-05 -4.2334e-05 3.41639e-06
1.328e-06 3.41639e-06 -4.92216e-05
0.00220124 -3.07249e-05 1.56128e-05
-3.07249e-05 0.000718282 3.84558e-06
1.56128e-05 3.84558e-06 0.000737888
0.000729963 7.56751e-05 9.71224e-05
7.56751e-05 0.000282022 2.28229e-05
9.71224e-05 2.28229e-05 5.73308e-05
0.000597383 -9.14431e-05 5.83025e-06
-9.14431e-05 0.000267756 2.65966e-06
5.83025e-06 2.65966e-06 0.000198282
0.00116532 -1.96789e-06 -8.00579e-06
-1.96789e-06 4.81162e-05 -2.14247e-07
-8.00579e-06 -2.14247e-07 -3.0773e-05
0.000954841 1.55391e-05 5.18018e-07
1.55391e-05 8.07546e-05 5.21395e-07
5.18018e-07 5.21395e-07 1.57384e-06
0.000945261 2.56683e-05 2.02599e-07
2.56683e-05 7.89238e-05 3.53032e-07
2.02599e-07 3.53032e-07 -4.61489e-06
0.000993486 7.61446e-05 -9.4803e-08
7.61446e-05 0.000114299 2.38234e-08
-9.4803e-08 2.38234e-08 2.80713e-05
0.00109903 9.12111e-05 5.05958e-07
9.12111e-05 0.000162743 9.66815e-07
5.05958e-07 9.66815e-07 7.27947e-05
0.00101248 6.7081e-05 -1.04621e-06
6.7081e-05 0.000126864 5.37031e-07
-1.04621e-06 5.37031e-07 3.68997e-05
0.000913893 2.07283e-05 1.35525e-07
2.07283e-05 5.75235e-05 7.39179e-07
1.35525e-07 7.39179e-07 -2.06623e-05
0.000915909 1.8282e-05 3.72882e-07
1.8282e-05 5.70996e-05 7.3987e-07
3.72882e-07 7.3987e-07 -2.29655e-05
0.000858938 4.92238e-05 -4.72826e-07
4.92238e-05 4.56889e-05 -5.48554e-07
-4.72826e-07 -5.48554e-07 -4.198e-05
0.00034551 5.85925e-05 -5.40771e-07
5.85925e-05 -0.000211474 1.24892e-06
-5.40771e-07 1.24892e-06 -0.00030348
0.000824717 7.56981e-05 -1.81666e-07
7.56981e-05 1.04819e-05 -1.32808e-06
-1.81666e-07 -1.32808e-06 -7.92878e-05
0.0019073 0.000156787 2.64292e-06
0.000156787 0.000464748 -3.96874e-06
2.64292e-06 -3.96874e-06 0.000355831
0.00094471 5.11468e-05 -1.69465e-06
5.11468e-05 8.54945e-05 -2.30758e-07
-1.69465e-06 -2.30758e-07 3.4337e-06
0.000900937 1.66833e-05 -2.1991e-08
1.66833e-05 5.67327e-05 -1.88085e-07
-2.1991e-08 -1.88085e-07 -1.8409e-05
0.00882122 -0.000146374 -2.46708e-05
-0.000146374 0.00263016 -1.26272e-05
-2.46708e-05 -1.26272e-05 0.00174788
-0.00126965 -0.000254233 -1.14722e-05
-0.000254233 -0.000652333 2.76603e-06
-1.14722e-05 2.76603e-06 -0.000761458
0.00174633 -0.00021949 -2.73516e-05
-0.00021949 0.000630429 -1.66385e-05
-2.73516e-05 -1.66385e-05 0.000832654
-0.00222137 -0.000289909 -2.85697e-05
-0.000289909 -0.00146236 -1.22128e-05
-2.85697e-05 -1.22128e-05 -0.00124587
0.00884398 -0.000353779 5.70044e-05
-0.000353779 0.00286018 3.15099e-05
5.70044e-05 3.15099e-05 0.00146033
0.00205497 9.06099e-05 2.03798e-05
9.06099e-05 0.000235 1.4721e-05
2.03798e-05 1.4721e-05 3.09151e-05
0.00195776 0.000221124 -3.51894e-05
0.000221124 7.84085e-05 -2.37948e-05
-3.51894e-05 -2.37948e-05 -0.000369838
0.00611708 -0.000260265 4.01258e-05
-0.000260265 0.00160999 1.78021e-05
4.01258e-05 1.78021e-05 0.000663557
0.0021418 0.000139805 -1.75122e-05
0.000139805 -4.73566e-05 -4.40108e-05
-1.75122e-05 -4.40108e-05 -0.000434101
0.00222889 0.000251022 1.67379e-05
0.000251022 0.000419818 1.06673e-05
1.67379e-05 1.06673e-05 0.000274577
0.00088138 0.000143949 3.62907e-07
0.000143949 2.73539e-05 -4.62099e-06
3.62907e-07 -4.62099e-06 -0.000114403
0.000934368 7.37313e-05 -1.63207e-06
7.37313e-05 7.71015e-05 1.62094e-06
-1.63207e-06 1.62094e-06 1.78629e-05
0.00196552 0.000194931 -3.38505e-05
0.000194931 0.000590286 -1.89787e-05
-3.38505e-05 -1.89787e-05 0.00048181
0.000370172 0.000176602 -9.91148e-06
0.000176602 -0.00043771 1.31582e-05
-9.91148e-06 1.31582e-05 -0.000517132
0.000184033 -8.20275e-06 -1.04136e-06
-8.20275e-06 -0.0009931 -8.03486e-06
-1.04136e-06 -8.03486e-06 -0.00146468
0.00161824 1.54423e-05 -4.05315e-06
1.54423e-05 0.000614203 9.73102e-07
-4.05315e-06 9.73102e-07 0.000606379
-0.00111343 5.42752e-06 -1.28268e-05
5.42752e-06 -0.000554093 2.94084e-07
-1.28268e-05 2.94084e-07 -0.000711415
0.00235718 -0.000247801 -3.63372e-05
-0.000247801 0.000488125 9.3713e-06
-3.63372e-05 9.3713e-06 0.000517084
0.00295803 -0.000126006 3.98755e-06
-0.000126006 2.10745e-06 -2.27601e-05
3.98755e-06 -2.27601e-05 -0.000564686
0.000173701 3.62433e-06 -8.37175e-05
3.62433e-06 4.89472e-05 2.48025e-05
-8.37175e-05 2.48025e-05 -0.00013338
0.00719249 0.00040795 -2.74649e-05
0.00040795 0.00251523 1.64542e-05
-2.74649e-05 1.64542e-05 0.00144554
0.000861325 -0.000134394 2.21237e-06
-0.000134394 -0.000148033 -1.95289e-06
2.21237e-06 -1.95289e-06 -0.000158177
0.00508916 0.000198149 2.41947e-05
0.000198149 0.00136299 6.68136e-06
2.41947e-05 6.68136e-06 0.000655473
0.00303944 7.66248e-05 3.74826e-05
7.66248e-05 0.000116896 -3.14942e-06
3.74826e-05 -3.14942e-06 -0.000260595
0.00320975 -0.00014023 -5.7006e-06
-0.00014023 0.000939305 8.96643e-07
-5.7006e-06 8.96643e-07 0.000881339
0.00124088 4.17442e-05 -4.84537e-05
4.17442e-05 5.41436e-05 -3.56005e-07
-4.84537e-05 -3.56005e-07 -0.000217603
0.00139796 -0.00016098 5.72912e-06
-0.00016098 -3.38289e-05 -3.26469e-06
5.72912e-06 -3.26469e-06 -9.12011e-05
0.00177525 -0.000173062 -1.29537e-06
-0.000173062 2.9864e-06 2.8378e-06
-1.29537e-06 2.8378e-06 -4.52939e-05
0.00237549 -0.000125258 -1.16558e-05
-0.000125258 0.000217065 1.43707e-06
-1.16558e-05 1.43707e-06 0.000170954
0.00137261 -0.000142715 3.58913e-06
-0.000142715 -2.20949e-05 9.84936e-07
3.58913e-06 9.84936e-07 -0.000130266
0.00177812 -0.000134449 1.01202e-07
-0.000134449 5.75447e-05 1.32116e-06
1.01202e-07 1.32116e-06 -1.30237e-05
0.00175384 -9.45358e-05 -2.5971e-06
-9.45358e-05 -5.68911e-06 3.13321e-06
-2.5971e-06 3.13321e-06 -6.34222e-05
0.00117851 -0.0001148 3.12873e-06
-0.0001148 -0.000102337 2.61364e-06
3.12873e-06 2.61364e-06 -0.000209378
0.00160463 -0.000111679 -3.18031e-07
-0.000111679 2.03729e-05 1.82279e-06
-3.18031e-07 1.82279e-06 -5.3422e-05
0.00180198 -9.465e-05 -5.0182e-07
-9.465e-05 0.00010737 2.46248e-06
-5.0182e-07 2.46248e-06 4.27538e-05
0.00128149 -0.000104248 3.58231e-06
-0.000104248 -2.00349e-05 3.73616e-06
3.58231e-06 3.73616e-06 -0.000118967
0.00151161 -0.000100084 5.40804e-08
-0.000100084 5.71375e-05 1.2665e-06
5.40804e-08 1.2665e-06 -1.90912e-05
0.00169083 -9.1568e-05 2.83271e-07
-9.1568e-05 0.000141726 -4.11807e-07
2.83271e-07 -4.11807e-07 6.87613e-05
0.00156047 -9.49729e-05 -1.9419e-06
-9.49729e-05 0.000133259 1.11679e-06
-1.9419e-06 1.11679e-06 5.3951e-05
0.00173308 -9.7977e-05 1.40991e-06
-9.7977e-05 0.00023977 -2.4432e-06
1.40991e-06 -2.4432e-06 0.000150827
0.00148024 -9.98757e-05 2.09035e-06
-9.98757e-05 0.000117353 4.72428e-06
2.09035e-06 4.72428e-06 2.61038e-05
0.0014063 -0.00010079 2.07811e-07
-0.00010079 0.000113206 -5.71737e-07
2.07811e-07 -5.71737e-07 1.27759e-05
0.00138679 -9.83623e-05 -1.30055e-06
-9.83623e-05 0.000124429 -1.4526e-06
-1.30055e-06 -1.4526e-06 2.26147e-05
0.00092231 -8.72665e-05 -2.82692e-06
-8.72665e-05 -3.885e-05 9.78569e-07
-2.82692e-06 9.78569e-07 -0.000143405
0.00129557 -0.000103468 6.28977e-08
-0.000103468 0.000125704 -1.77625e-07
6.28977e-08 -1.77625e-07 1.43713e-05
0.00154924 -0.000115724 3.45955e-06
-0.000115724 0.000234156 2.6531e-07
3.45955e-06 2.6531e-07 0.000116525
0.000993907 -8.16973e-05 -2.06822e-06
-8.16973e-05 6.4583e-05 1.07553e-06
-2.06822e-06 1.07553e-06 -2.55419e-05
0.000888223 -8.66541e-05 -5.82327e-07
-8.66541e-05 -7.10595e-06 6.87736e-07
-5.82327e-07 6.87736e-07 -0.000109646
0.00131249 -0.000105779 2.67766e-06
-0.000105779 0.0001918 -1.59489e-06
2.67766e-06 -1.59489e-06 8.02177e-05
0.000760893 -2.27588e-05 -2.43867e-06
-2.27588e-05 -1.91966e-05 1.67534e-06
-2.43867e-06 1.67534e-06 -8.67189e-05
0.00103391 -7.82618e-05 4.73278e-08
-7.82618e-05 9.94786e-05 -1.89149e-07
4.73278e-08 -1.89149e-07 1.45677e-05
0.00113683 -9.31635e-05 1.35664e-06
-9.31635e-05 0.000146248 -1.32049e-06
1.35664e-06 -1.32049e-06 4.98722e-05
0.000608688 5.44153e-05 -1.93365e-06
5.44153e-05 -7.8059e-05 4.66548e-06
-1.93365e-06 4.66548e-06 -0.000107183
0.000848692 -1.4773e-05 -3.21133e-08
-1.4773e-05 2.66827e-05 2.19141e-07
-3.21133e-08 2.19141e-07 -3.78623e-05
0.00106132 -6.62919e-05 1.74309e-06
-6.62919e-05 0.000119679 -3.20382e-07
1.74309e-06 -3.20382e-07 3.88503e-05
0.00257797 6.68414e-05 -3.19987e-05
6.68414e-05 0.000955581 3.14704e-06
-3.19987e-05 3.14704e-06 0.000964016
0.00068483 5.05161e-05 1.94063e-08
5.05161e-05 -4.28995e-05 -1.16771e-07
1.94063e-08 -1.16771e-07 -6.6082e-05
0.000800041 -1.36284e-05 2.41586e-06
-1.36284e-05 -2.26255e-07 -2.26452e-06
2.41586e-06 -2.26452e-06 -5.83405e-05
0.00244125 5.95275e-05 4.15201e-07
5.95275e-05 0.000878655 8.24121e-08
4.15201e-07 8.24121e-08 0.000889443
0.000749866 4.5398e-05 2.21796e-06
4.5398e-05 -1.67522e-05 -4.06291e-06
2.21796e-06 -4.06291e-06 -3.44198e-05
0.00233774 5.30877e-05 2.85399e-05
5.30877e-05 0.000818404 -3.34843e-06
2.85399e-05 -3.34843e-06 0.000831347
0.00102282 8.0229e-05 -1.18947e-08
8.0229e-05 0.000115593 5.03252e-07
-1.18947e-08 5.03252e-07 2.89198e-05
0.000939702 5.55903e-05 3.48825e-07
5.55903e-05 7.40052e-05 1.41476e-07
3.48825e-07 1.41476e-07 -5.83913e-06
0.000839712 -1.15641e-05 -9.62816e-07
-1.15641e-05 1.81059e-05 -5.9822e-07
-9.62816e-07 -5.9822e-07 -5.53211e-05
0.000917075 3.42273e-06 3.1874e-07
3.42273e-06 5.47466e-05 9.42872e-07
3.1874e-07 9.42872e-07 -1.84733e-05
0.000880235 -2.66816e-05 -4.81769e-08
-2.66816e-05 3.55375e-05 1.35357e-07
-4.81769e-08 1.35357e-07 -3.18041e-05
0.000790153 -3.01705e-05 -1.52085e-06
-3.01705e-05 -6.6522e-06 -2.23935e-06
-1.52085e-06 -2.23935e-06 -5.41537e-05
0.000876798 -3.17475e-05 3.01366e-07
-3.17475e-05 2.62897e-05 1.48219e-06
3.01366e-07 1.48219e-06 -3.51572e-05
0.000809627 -3.40525e-05 -2.8867e-08
-3.40525e-05 -2.19029e-06 -9.97239e-08
-2.8867e-08 -9.97239e-08 -4.38588e-05
0.000762341 -3.76026e-05 -2.79847e-06
-3.76026e-05 -2.0153e-05 -3.69113e-06
-2.79847e-06 -3.69113e-06 -3.31169e-05
0.00228974 -4.71202e-05 -2.56292e-05
-4.71202e-05 0.00078524 -3.50524e-06
-2.56292e-05 -3.50524e-06 0.000800067
0.000756061 -3.14567e-05 -6.29818e-08
-3.14567e-05 -3.07939e-05 1.82475e-08
-6.29818e-08 1.82475e-08 -4.11446e-05
0.000817629 -2.89041e-05 1.47537e-06
-2.89041e-05 -3.33307e-06 2.02217e-06
1.47537e-06 2.02217e-06 -4.1309e-05
0.00229005 -4.19526e-05 -1.02257e-06
-4.19526e-05 0.000777579 8.15534e-08
-1.02257e-06 8.15534e-08 0.000793982
0.000744244 -2.76939e-05 1.78193e-06
-2.76939e-05 -4.23061e-05 3.52416e-06
1.78193e-06 3.52416e-06 -5.09539e-05
0.00225593 -3.64895e-05 1.90307e-05
-3.64895e-05 0.000752816 3.79759e-06
1.90307e-05 3.79759e-06 0.000770831
0.0069135 3.33384e-06 4.21485e-05
3.33384e-06 0.00204041 5.02203e-06
4.21485e-05 5.02203e-06 0.00135091
-0.0018216 -6.77784e-05 3.51868e-06
-6.77784e-05 -0.000970269 1.28691e-06
3.51868e-06 1.28691e-06 -0.00085963
-0.000615184 -5.97652e-05 -2.04674e-05
-5.97652e-05 -0.000422177 -2.00639e-06
-2.04674e-05 -2.00639e-06 -0.000562257
0.000925647 1.0504e-05 6.06205e-07
1.0504e-05 6.86541e-05 4.59425e-07
6.06205e-07 4.59425e-07 -1.47907e-05
0.000889369 7.1146e-05 2.75329e-08
7.1146e-05 6.22413e-05 -3.89429e-07
2.75329e-08 -3.89429e-07 -2.28095e-05
0.00106281 7.06288e-05 3.35437e-07
7.06288e-05 0.000153222 -3.86317e-08
3.35437e-07 -3.86317e-08 6.33142e-05
0.00103146 8.84157e-05 -6.60911e-07
8.84157e-05 0.000128765 -1.84932e-07
-6.60911e-07 -1.84932e-07 3.89641e-05
0.00113718 9.52415e-05 4.78811e-06
9.52415e-05 0.000177405 1.72118e-06
4.78811e-06 1.72118e-06 8.18741e-05
0.000711218 7.48482e-05 -1.04087e-06
7.48482e-05 -2.54949e-05 1.39398e-06
-1.04087e-06 1.39398e-06 -0.000115992
0.000674449 5.0557e-05 6.74014e-08
5.0557e-05 -4.8284e-05 -3.52623e-09
6.74014e-08 -3.52623e-09 -0.000135758
0.000674987 7.34484e-05 5.17855e-07
7.34484e-05 -4.54658e-05 -1.28635e-09
5.17855e-07 -1.28635e-09 -0.000140755
0.000802703 6.73673e-05 4.10244e-07
6.73673e-05 7.21973e-06 6.87922e-08
4.10244e-07 6.87922e-08 -8.42537e-05
0.000369577 7.51346e-05 1.14396e-06
7.51346e-05 -0.000243583 7.57207e-07
1.14396e-06 7.57207e-07 -0.000337645
0.00280159 0.000183767 1.00705e-06
0.000183767 0.000908889 -2.85664e-07
1.00705e-06 -2.85664e-07 0.000804987
0.00186132 0.000171168 2.30818e-06
0.000171168 0.000275102 -1.03718e-06
2.30818e-06 -1.03718e-06 0.000153836
0.00131369 0.000133781 1.21017e-06
0.000133781 0.000176269 -5.57945e-07
1.21017e-06 -5.57945e-07 7.12581e-05
0.0010642 5.04498e-05 -2.81785e-06
5.04498e-05 0.000159083 9.78052e-07
-2.81785e-06 9.78052e-07 7.61392e-05
0.00205272 -7.9029e-05 -1.84269e-05
-7.9029e-05 -0.00020257 -1.4047e-05
-1.84269e-05 -1.4047e-05 -0.000401921
0.00433617 -0.000155199 2.22891e-06
-0.000155199 0.000830862 -2.986e-07
2.22891e-06 -2.986e-07 1.50371e-05
0.00382023 -0.000376157 -3.7007e-05
-0.000376157 0.00173728 -2.43554e-05
-3.7007e-05 -2.43554e-05 0.00178065
0.00621985 -0.000134119 0.000156555
-0.000134119 0.00170998 4.8405e-05
0.000156555 4.8405e-05 0.000621618
0.00321959 0.000245358 4.49306e-05
0.000245358 0.000737083 4.86514e-05
4.49306e-05 4.86514e-05 0.00051431
0.00171403 9.04733e-05 -3.65986e-05
9.04733e-05 -2.55314e-05 -1.21567e-05
-3.65986e-05 -1.21567e-05 -0.00024304
0.00155311 0.000156194 2.46038e-05
0.000156194 -4.6095e-05 1.54396e-05
2.46038e-05 1.54396e-05 -7.15461e-05
0.00192372 0.00024089 -1.52718e-06
0.00024089 0.000272721 5.27445e-06
-1.52718e-06 5.27445e-06 0.000146178
0.000215003 0.000106558 -2.44066e-06
0.000106558 -0.000292881 3.14651e-06
-2.44066e-06 3.14651e-06 -0.000431247
0.00182737 0.000249871 -6.475e-05
0.000249871 0.000223453 -4.92832e-05
-6.475e-05 -4.92832e-05 0.000165627
0.00308746 -5.16461e-05 -0.000132277
-5.16461e-05 0.000828954 -2.89747e-06
-0.000132277 -2.89747e-06 0.000471969
0.0065654 4.26023e-05 9.7861e-06
4.26023e-05 0.00219376 -3.67752e-06
9.7861e-06 -3.67752e-06 0.00159278
-0.00421806 -4.3816e-05 -9.90383e-06
-4.3816e-05 -0.00240489 5.44104e-06
-9.90383e-06 5.44104e-06 -0.00223329
0.000941083 -0.000140466 -4.7314e-07
-0.000140466 -0.000130788 9.29481e-06
-4.7314e-07 9.29481e-06 -0.000127048
0.00379724 6.59919e-05 5.66732e-05
6.59919e-05 0.000527301 2.75737e-06
5.66732e-05 2.75737e-06 0.000217727
0.00101952 -6.76495e-05 4.38709e-05
-6.76495e-05 -0.000417086 7.75422e-06
4.38709e-05 7.75422e-06 -0.001027
0.00159302 -0.000108874 3.44624e-06
-0.000108874 0.000136829 1.41374e-06
3.44624e-06 1.41374e-06 0.000101575
0.00147543 9.88083e-05 -1.64366e-06
9.88083e-05 5.21228e-05 -3.85128e-06
-1.64366e-06 -3.85128e-06 -0.000189332
0.00318307 -3.81231e-05 1.40597e-06
-3.81231e-05 0.000781993 -1.05924e-05
1.40597e-06 -1.05924e-05 0.000728426
0.00129885 6.65171e-05 1.53463e-05
6.65171e-05 -8.78205e-05 -3.01259e-06
1.53463e-05 -3.01259e-06 -0.000187393
0.0015762 -0.000169026 5.71906e-06
-0.000169026 -6.77712e-05 -1.31411e-06
5.71906e-06 -1.31411e-06 -0.00012784
0.0020225 -0.000116301 3.73975e-08
-0.000116301 5.15743e-05 -2.16937e-06
3.73975e-08 -2.16937e-06 3.80394e-06
0.00225516 -3.15298e-05 3.10162e-07
-3.15298e-05 0.000236098 -1.77725e-06
3.10162e-07 -1.77725e-06 0.000172086
0.00171606 -0.000130605 9.62606e-06
-0.000130605 3.82678e-05 5.01185e-07
9.62606e-06 5.01185e-07 -3.36111e-05
0.00188566 -9.58583e-05 2.73732e-06
-9.58583e-05 7.37539e-05 -6.02727e-08
2.73732e-06 -6.02727e-08 1.28011e-05
0.0019321 -5.72615e-05 -9.25899e-07
-5.72615e-05 0.000132987 1.84082e-06
-9.25899e-07 1.84082e-06 5.16744e-05
0.00150877 -0.000109506 5.29471e-06
-0.000109506 -2.09476e-05 2.88538e-06
5.29471e-06 2.88538e-06 -9.66773e-05
0.00176443 -9.44752e-05 1.08659e-06
-9.44752e-05 9.93599e-05 9.01083e-07
1.08659e-06 9.01083e-07 3.22018e-05
0.00186016 -7.6171e-05 -3.84698e-07
-7.6171e-05 0.000165901 1.45012e-06
-3.84698e-07 1.45012e-06 8.53317e-05
0.00148676 -0.000100114 2.67532e-06
-0.000100114 4.71663e-05 3.16192e-06
2.67532e-06 3.16192e-06 -3.01756e-05
0.00153303 -9.09543e-05 6.92243e-08
-9.09543e-05 7.04258e-05 -4.67404e-07
6.92243e-08 -4.67404e-07 -2.61984e-06
0.00148033 -8.55181e-05 2.13357e-06
-8.55181e-05 6.78812e-05 -7.96068e-08
2.13357e-06 -7.96068e-08 -1.99751e-05
0.00130166 -8.95482e-05 -4.06882e-07
-8.95482e-05 3.47425e-06 3.78941e-06
-4.06882e-07 3.78941e-06 -7.34288e-05
0.00155904 -9.31623e-05 -1.10574e-06
-9.31623e-05 0.000150667 -9.02643e-07
-1.10574e-06 -9.02643e-07 6.32118e-05
0.00169312 -9.59693e-05 4.71912e-08
-9.59693e-05 0.000240392 -1.29572e-06
4.71912e-08 -1.29572e-06 0.000144402
0.00140595 -9.98012e-05 1.51974e-06
-9.98012e-05 0.00011239 2.05111e-06
1.51974e-06 2.05111e-06 1.16235e-05
0.0013855 -9.74606e-05 2.61778e-07
-9.74606e-05 0.000124016 -3.75084e-07
2.61778e-07 -3.75084e-07 2.18421e-05
0.00144347 -9.7163e-05 -1.72345e-06
-9.7163e-05 0.000179569 -4.28049e-07
-1.72345e-06 -4.28049e-07 7.97354e-05
0.000760377 -7.44419e-05 -3.3894e-06
-7.44419e-05 -9.09283e-05 1.40388e-06
-3.3894e-06 1.40388e-06 -0.000184825
0.0010138 -8.95983e-05 -4.60337e-07
-8.95983e-05 1.0988e-05 4.57259e-07
-4.60337e-07 4.57259e-07 -9.27768e-05
0.00128279 -0.000102156 2.42339e-06
-0.000102156 0.000119801 -4.05757e-07
2.42339e-06 -4.05757e-07 8.11458e-06
0.000824048 -4.63286e-05 -3.01636e-06
-4.63286e-05 6.86127e-06 1.62425e-06
-3.01636e-06 1.62425e-06 -6.45528e-05
0.00104573 -8.33163e-05 1.05007e-07
-8.33163e-05 8.98191e-05 1.46848e-08
1.05007e-07 1.46848e-08 -3.40506e-07
0.000998998 -9.03676e-05 1.02075e-06
-9.03676e-05 5.12866e-05 -5.4536e-07
1.02075e-06 -5.4536e-07 -5.03903e-05
0.000639331 5.28924e-05 -2.84948e-06
5.28924e-05 -5.49639e-05 4.44597e-06
-2.84948e-06 4.44597e-06 -9.05767e-05
0.000861961 -2.6053e-05 8.80144e-08
-2.6053e-05 3.30644e-05 5.70055e-08
8.80144e-08 5.70055e-08 -3.5138e-05
0.00110518 -8.14399e-05 2.02833e-06
-8.14399e-05 0.00013466 -1.02307e-06
2.02833e-06 -1.02307e-06 4.94315e-05
0.00278073 7.49665e-05 -3.57938e-05
7.49665e-05 0.00106598 3.14461e-06
-3.57938e-05 3.14461e-06 0.0010715
0.000671582 5.04473e-05 5.5839e-07
5.04473e-05 -4.56455e-05 -9.18595e-09
5.5839e-07 -9.18595e-09 -7.45421e-05
0.000859086 -1.72239e-05 2.8552e-06
-1.72239e-05 3.03829e-05 -1.91753e-06
2.8552e-06 -1.91753e-06 -3.38604e-05
0.0026151 6.68115e-05 4.44229e-07
6.68115e-05 0.000974947 1.00796e-07
4.44229e-07 1.00796e-07 0.000983048
0.000719668 5.21546e-05 1.63793e-06
5.21546e-05 -2.37318e-05 -4.42508e-06
1.63793e-06 -4.42508e-06 -4.75102e-05
0.00247788 5.95488e-05 3.19747e-05
5.95488e-05 0.000898095 -3.31535e-06
3.19747e-05 -3.31535e-06 0.000908605
0.00108592 8.83835e-05 -4.50452e-07
8.83835e-05 0.000143632 -5.45277e-07
-4.50452e-07 -5.45277e-07 5.15859e-05
0.0010705 8.2535e-05 2.185e-07
8.2535e-05 0.000140296 1.31335e-07
2.185e-07 1.31335e-07 5.38713e-05
0.000951817 3.73757e-05 -1.27482e-06
3.73757e-05 7.59205e-05 -2.07462e-07
-1.27482e-06 -2.07462e-07 -2.67442e-06
0.00090983 7.10156e-05 3.95455e-07
7.10156e-05 6.15368e-05 -9.45189e-08
3.95455e-07 -9.45189e-08 -2.00336e-05
0.000843614 -8.68292e-07 -3.90421e-07
-8.68292e-07 2.09504e-05 -5.82876e-08
-3.90421e-07 -5.82876e-08 -5.34756e-05
0.000787281 -7.26665e-06 -2.34746e-06
-7.26665e-06 -4.03544e-06 -1.70478e-06
-2.34746e-06 -1.70478e-06 -5.96766e-05
0.000853783 -3.22676e-05 3.56296e-07
-3.22676e-05 2.21848e-05 1.24763e-06
3.56296e-07 1.24763e-06 -4.62147e-05
0.000803052 -3.17939e-05 7.1408e-08
-3.17939e-05 1.91776e-07 -1.87153e-07
7.1408e-08 -1.87153e-07 -4.73759e-05
0.000747905 -4.50436e-05 -2.46907e-06
-4.50436e-05 -1.82515e-05 -3.87543e-06
-2.46907e-06 -3.87543e-06 -3.54155e-05
0.00082288 -3.44248e-05 1.28431e-06
-3.44248e-05 4.0197e-06 2.24997e-06
1.28431e-06 2.24997e-06 -3.74824e-05
0.000744203 -3.60658e-05 2.92922e-08
-3.60658e-05 -2.98549e-05 -2.32369e-08
2.92922e-08 -2.32369e-08 -4.25364e-05
0.00233549 -5.26944e-05 -2.80665e-05
-5.26944e-05 0.000816858 -3.3384e-06
-2.80665e-05 -3.3384e-06 0.000829804
0.00230529 -4.72561e-05 -5.92748e-07
-4.72561e-05 0.000792374 8.04237e-08
-5.92748e-07 8.04237e-08 0.000807286
0.000740954 -3.0749e-05 2.49145e-06
-3.0749e-05 -3.84189e-05 3.56191e-06
2.49145e-06 3.56191e-06 -4.86929e-05
0.00229572 -4.20795e-05 2.19565e-05
-4.20795e-05 0.000779876 3.70297e-06
2.19565e-05 3.70297e-06 0.000796351
0.000811863 -6.19429e-05 -5.68994e-05
-6.19429e-05 -0.000475941 -2.93299e-06
-5.68994e-05 -2.93299e-06 -0.000696707
0.00174692 -0.000115808 -6.5113e-07
-0.000115808 -0.000363588 -2.01508e-06
-6.5113e-07 -2.01508e-06 -0.000957165
0.00298899 -0.000276869 -4.19961e-05
-0.000276869 0.00119201 -8.25719e-06
-4.19961e-05 -8.25719e-06 0.00130439
0.00118962 0.000100973 5.24769e-06
0.000100973 0.000166021 1.68417e-06
5.24769e-06 1.68417e-06 6.60361e-05
0.00112036 7.25233e-05 5.26973e-07
7.25233e-05 0.000183311 -7.15851e-07
5.26973e-07 -7.15851e-07 9.35608e-05
0.000957424 8.52558e-05 -4.17315e-07
8.52558e-05 9.15907e-05 -6.25478e-07
-4.17315e-07 -6.25478e-07 1.96311e-06
0.00092397 8.43683e-05 1.49046e-07
8.43683e-05 8.40571e-05 2.75702e-07
1.49046e-07 2.75702e-07 -7.59414e-06
0.00103493 9.12833e-05 -1.25156e-07
9.12833e-05 0.000128085 -6.07508e-07
-1.25156e-07 -6.07508e-07 3.19939e-05
0.000686692 8.16609e-05 -4.33595e-07
8.16609e-05 -6.60638e-05 1.67677e-06
-4.33595e-07 1.67677e-06 -0.000151408
0.00106732 9.15975e-05 7.81906e-07
9.15975e-05 0.000153796 -1.55565e-06
7.81906e-07 -1.55565e-06 5.47682e-05
0.00100361 6.6659e-05 -8.72156e-07
6.6659e-05 0.000114913 1.10867e-06
-8.72156e-07 1.10867e-06 2.127e-05
0.000978634 0.000100551 8.13317e-08
0.000100551 6.31138e-05 -1.19842e-07
8.13317e-08 -1.19842e-07 -3.08551e-05
0.0020797 0.000156321 5.69188e-07
0.000156321 0.000556807 1.83962e-06
5.69188e-07 1.83962e-06 0.000454986
0.0015784 0.000146394 1.30432e-06
0.000146394 0.000178649 -1.09582e-06
1.30432e-06 -1.09582e-06 6.74095e-05
0.00189929 0.000136448 4.35184e-06
0.000136448 0.00010631 5.46996e-06
4.35184e-06 5.46996e-06 -1.20975e-05
0.00136349 0.000152396 1.27771e-06
0.000152396 2.66782e-05 4.23462e-07
1.27771e-06 4.23462e-07 -9.38764e-05
0.000805587 0.000111725 -1.21358e-06
0.000111725 -7.61121e-05 3.24128e-06
-1.21358e-06 3.24128e-06 -0.000176959
0.0006361 1.81464e-05 -9.30032e-06
1.81464e-05 -0.000365738 2.47685e-06
-9.30032e-06 2.47685e-06 -0.000375162
0.00346226 -7.18736e-05 -8.80789e-06
-7.18736e-05 0.000295816 9.27046e-07
-8.80789e-06 9.27046e-07 3.69196e-05
0.00144563 -0.00017992 4.45087e-06
-0.00017992 -0.000488476 1.40066e-06
4.45087e-06 1.40066e-06 -0.00120792
0.00277661 0.000174664 3.98345e-05
0.000174664 0.000213692 2.29314e-05
3.98345e-05 2.29314e-05 -0.000134322
0.0012546 0.000137166 -4.50386e-06
0.000137166 -0.000144732 8.20917e-07
-4.50386e-06 8.20917e-07 -0.000179844
0.000356736 0.000172681 -1.57641e-05
0.000172681 -0.000435963 -1.06879e-05
-1.57641e-05 -1.06879e-05 -0.000571093
0.00284992 -6.40275e-05 1.00204e-05
-6.40275e-05 0.000698852 -6.84152e-06
1.00204e-05 -6.84152e-06 0.000612775
0.00108434 -1.11859e-05 -2.22968e-05
-1.11859e-05 4.80395e-06 2.89413e-06
-2.22968e-05 2.89413e-06 -0.00030623
0.000696718 0.000179552 5.00754e-05
0.000179552 -0.000795592 -5.55673e-06
5.00754e-05 -5.55673e-06 -0.00136057
-8.13696e-06 -6.97967e-05 -6.50562e-06
-6.97967e-05 -0.000672383 1.25418e-05
-6.50562e-06 1.25418e-05 -0.000672085
0.00358069 0.00015883 4.06854e-05
0.00015883 0.000921464 -6.2321e-06
4.06854e-05 -6.2321e-06 0.000641273
0.0017489 -2.09996e-05 5.51931e-06
-2.09996e-05 4.27499e-05 -1.95913e-06
5.51931e-06 -1.95913e-06 -1.23878e-06
0.00209838 8.2676e-05 1.78506e-06
8.2676e-05 0.000327402 -3.95852e-06
1.78506e-06 -3.95852e-06 0.000235706
0.00103662 3.83017e-05 1.14808e-06
3.83017e-05 -0.000355813 -3.47607e-06
1.14808e-06 -3.47607e-06 -0.00044221
0.00239169 5.76203e-05 -2.30564e-06
5.76203e-05 0.000366598 -4.74127e-06
-2.30564e-06 -4.74127e-06 0.000272373
0.0016614 -0.000106261 4.70561e-06
-0.000106261 -0.000116324 -2.1867e-06
4.70561e-06 -2.1867e-06 -0.00016294
0.00197422 -3.08172e-05 4.16579e-06
-3.08172e-05 9.12334e-05 1.30159e-07
4.16579e-06 1.30159e-07 2.30502e-05
0.00196569 -4.15172e-06 -2.32026e-07
-4.15172e-06 0.000182794 -2.73528e-06
-2.32026e-07 -2.73528e-06 8.99439e-05
0.00214053 -9.98962e-05 3.05342e-06
-9.98962e-05 0.000212964 5.0759e-07
3.05342e-06 5.0759e-07 0.000148443
0.00193181 -5.93069e-05 -2.21645e-07
-5.93069e-05 0.000132486 -7.03567e-07
-2.21645e-07 -7.03567e-07 5.0068e-05
0.00184393 -4.0003e-05 -1.32371e-06
-4.0003e-05 0.000134104 1.94471e-07
-1.32371e-06 1.94471e-07 3.49318e-05
0.00162579 -9.26548e-05 1.41084e-06
-9.26548e-05 4.13981e-05 -1.06376e-07
1.41084e-06 -1.06376e-07 -2.81809e-05
0.00174104 -7.69623e-05 -1.4752e-07
-7.69623e-05 0.000118149 -1.54571e-06
-1.4752e-07 -1.54571e-06 3.92774e-05
0.00149682 -6.74176e-05 4.30758e-07
-6.74176e-05 2.65233e-05 1.81125e-06
4.30758e-07 1.81125e-06 -6.78011e-05
0.00136261 -9.00454e-05 -6.17491e-07
-9.00454e-05 -7.35076e-06 -8.50278e-07
-6.17491e-07 -8.50278e-07 -8.043e-05
0.00147383 -8.49543e-05 4.05763e-07
-8.49543e-05 6.50963e-05 -8.82889e-07
4.05763e-07 -8.82889e-07 -2.27663e-05
0.00145836 -8.51531e-05 3.08603e-07
-8.51531e-05 8.01261e-05 -1.35657e-11
3.08603e-07 -1.35657e-11 -1.68239e-05
0.00138451 -8.83892e-05 -2.22226e-06
-8.83892e-05 6.13607e-05 1.87678e-06
-2.22226e-06 1.87678e-06 -2.46211e-05
0.00152359 -9.06672e-05 -2.55408e-07
-9.06672e-05 0.000152833 -6.26433e-07
-2.55408e-07 -6.26433e-07 5.7608e-05
0.00142057 -8.70311e-05 -1.53519e-06
-8.70311e-05 0.000127405 -3.8018e-07
-1.53519e-06 -3.8018e-07 2.95082e-05
0.00138527 -9.65849e-05 1.78084e-06
-9.65849e-05 0.000124114 6.84559e-07
1.78084e-06 6.84559e-07 2.15844e-05
0.00125497 -9.10356e-05 3.68585e-07
-9.10356e-05 8.38164e-05 -2.1679e-07
3.68585e-07 -2.1679e-07 -1.64966e-05
0.00126356 -8.6176e-05 -3.18746e-06
-8.6176e-05 0.000123652 6.28631e-07
-3.18746e-06 6.28631e-07 3.0181e-05
0.000897124 -5.86641e-05 -3.68117e-06
-5.86641e-05 2.16511e-05 1.66745e-06
-3.68117e-06 1.66745e-06 -5.35932e-05
0.000878306 -7.82383e-05 -7.51923e-07
-7.82383e-05 -2.85031e-05 5.4493e-07
-7.51923e-07 5.4493e-07 -0.000121558
0.00108804 -9.12107e-05 1.6826e-06
-9.12107e-05 5.21497e-05 -1.70749e-07
1.6826e-06 -1.70749e-07 -5.07846e-05
0.000649133 -1.09472e-06 -5.50934e-06
-1.09472e-06 -4.7529e-05 4.40804e-06
-5.50934e-06 4.40804e-06 -8.67867e-05
0.00087942 -4.80707e-05 1.39032e-07
-4.80707e-05 3.53143e-05 -7.06999e-10
1.39032e-07 -7.06999e-10 -3.66249e-05
0.00109643 -8.50404e-05 2.39594e-06
-8.50404e-05 0.000114272 -1.1083e-06
2.39594e-06 -1.1083e-06 2.40909e-05
0.00289177 8.18613e-05 -3.93139e-05
8.18613e-05 0.00113296 3.10355e-06
-3.93139e-05 3.10355e-06 0.00113506
0.000682462 2.21239e-05 -1.2099e-07
2.21239e-05 -3.84924e-05 -1.25848e-07
-1.2099e-07 -1.25848e-07 -7.16685e-05
0.000917109 -3.16098e-05 3.25762e-06
-3.16098e-05 6.07756e-05 -1.93587e-06
3.25762e-06 -1.93587e-06 -7.48183e-06
0.00275912 7.3558e-05 7.44894e-07
7.3558e-05 0.00105589 1.29775e-07
7.44894e-07 1.29775e-07 0.00106112
0.000711104 3.7546e-05 4.31894e-06
3.7546e-05 -2.5982e-05 -4.24684e-06
4.31894e-06 -4.24684e-06 -5.42307e-05
0.00263601 6.61849e-05 3.56127e-05
6.61849e-05 0.000985958 -3.40471e-06
3.56127e-05 -3.40471e-06 0.000993804
0.000888522 8.60196e-05 -4.04571e-07
8.60196e-05 2.02931e-05 -5.13353e-07
-4.04571e-07 -5.13353e-07 -7.70115e-05
0.0010156 8.50432e-05 -2.29611e-08
8.50432e-05 0.000107419 -4.55051e-07
-2.29611e-08 -4.55051e-07 1.5859e-05
0.00107808 7.39788e-05 -9.77312e-07
7.39788e-05 0.000134456 -1.07908e-07
-9.77312e-07 -1.07908e-07 5.16697e-05
0.00111187 8.46896e-05 4.84643e-08
8.46896e-05 0.000161672 -6.24145e-07
4.84643e-08 -6.24145e-07 7.55125e-05
0.000943608 4.00537e-05 -6.2214e-07
4.00537e-05 7.18891e-05 -2.52444e-07
-6.2214e-07 -2.52444e-07 -6.15813e-06
0.000819701 5.6391e-06 -2.34638e-06
5.6391e-06 1.52981e-05 -1.34247e-06
-2.34638e-06 -1.34247e-06 -4.72405e-05
0.000844808 1.12244e-05 3.43201e-07
1.12244e-05 2.16599e-05 9.60071e-08
3.43201e-07 9.60071e-08 -5.32e-05
0.000807791 -2.57726e-05 -1.1682e-07
-2.57726e-05 7.10185e-06 5.99004e-09
-1.1682e-07 5.99004e-09 -4.81738e-05
0.000719391 -5.24718e-05 -1.99629e-06
-5.24718e-05 -2.30645e-05 -3.96947e-06
-1.99629e-06 -3.96947e-06 -4.58728e-05
0.00081483 -3.40853e-05 1.44513e-06
-3.40853e-05 6.63832e-06 2.32826e-06
1.44513e-06 2.32826e-06 -4.1032e-05
0.000725143 -4.26337e-05 1.93436e-08
-4.26337e-05 -3.10082e-05 -6.0316e-08
1.93436e-08 -6.0316e-08 -4.75769e-05
0.00243161 -5.88291e-05 -3.09776e-05
-5.88291e-05 0.000874428 -3.18842e-06
-3.09776e-05 -3.18842e-06 0.000885099
0.000733071 -3.48625e-05 2.98928e-06
-3.48625e-05 -3.59388e-05 3.58947e-06
2.98928e-06 3.58947e-06 -4.83697e-05
0.00233167 -5.27496e-05 -3.86322e-07
-5.27496e-05 0.000813737 7.31597e-08
-3.86322e-07 7.31597e-08 0.000826893
0.00231713 -4.72814e-05 2.48356e-05
-4.72814e-05 0.000797732 3.56676e-06
2.48356e-05 3.56676e-06 0.000812727
0.000563911 -4.36507e-05 -2.38471e-06
-4.36507e-05 -0.000415511 6.46676e-07
-2.38471e-06 6.46676e-07 -0.000445897
0.00299797 -4.79474e-05 3.90473e-07
-4.79474e-05 0.000339693 1.02292e-05
3.90473e-07 1.02292e-05 4.32077e-05
0.00544175 8.02533e-05 -7.35596e-05
8.02533e-05 0.00159087 -8.79108e-06
-7.35596e-05 -8.79108e-06 0.000922313
0.000820885 8.41232e-05 2.74896e-06
8.41232e-05 -4.21848e-05 1.39594e-06
2.74896e-06 1.39594e-06 -0.000133417
0.00137461 0.000112264 3.65842e-06
0.000112264 0.00017292 -1.15751e-06
3.65842e-06 -1.15751e-06 6.68272e-05
0.000839032 8.78351e-05 1.97556e-07
8.78351e-05 -4.2587e-06 -6.44948e-07
1.97556e-07 -6.44948e-07 -0.000103061
0.00110987 9.27022e-05 -4.87361e-07
9.27022e-05 0.000178838 -1.85346e-06
-4.87361e-07 -1.85346e-06 8.62745e-05
0.000964227 8.86651e-05 -7.14168e-07
8.86651e-05 9.45284e-05 -1.06013e-06
-7.14168e-07 -1.06013e-06 -2.21168e-06
0.000997459 9.59856e-05 1.91778e-06
9.59856e-05 8.24441e-05 1.16436e-06
1.91778e-06 1.16436e-06 -4.76953e-06
0.00173721 0.000140159 -2.13755e-06
0.000140159 0.000269691 -2.86625e-06
-2.13755e-06 -2.86625e-06 0.00016377
0.00146491 0.000120719 1.13111e-06
0.000120719 0.000309681 -4.24473e-07
1.13111e-06 -4.24473e-07 0.000215936
0.000931454 0.000112271 -1.47019e-06
0.000112271 -5.23499e-06 4.66483e-06
-1.47019e-06 4.66483e-06 -0.000104455
0.0015458 0.000144963 -1.22595e-06
0.000144963 0.000164613 -5.80605e-08
-1.22595e-06 -5.80605e-08 5.40581e-05
0.00145082 0.000118331 -1.65286e-06
0.000118331 -5.54554e-05 -3.11181e-07
-1.65286e-06 -3.11181e-07 -0.000175386
0.00164025 3.29831e-05 6.21899e-06
3.29831e-05 -7.69151e-05 4.30004e-06
6.21899e-06 4.30004e-06 -0.000164651
0.00206841 0.000139072 3.27307e-06
0.000139072 0.000196313 1.6698e-06
3.27307e-06 1.6698e-06 7.83965e-05
0.00123471 0.000145213 -3.20458e-06
0.000145213 -3.87095e-05 1.71607e-06
-3.20458e-06 1.71607e-06 -0.000158188
0.00124072 1.37032e-05 1.00001e-06
1.37032e-05 -6.81814e-05 -5.06053e-07
1.00001e-06 -5.06053e-07 -8.10326e-05
0.00447154 -0.000143151 4.70486e-05
-0.000143151 0.0006714 2.27321e-05
4.70486e-05 2.27321e-05 0.000375106
0.00187599 0.000137324 -2.89581e-07
0.000137324 0.00020448 -6.99539e-06
-2.89581e-07 -6.99539e-06 0.000160757
0.00204787 -4.28977e-06 3.38272e-06
-4.28977e-06 0.000265926 -3.32838e-06
3.38272e-06 -3.32838e-06 0.000200224
0.00169919 -4.37706e-05 -6.91259e-07
-4.37706e-05 0.000156238 5.96658e-07
-6.91259e-07 5.96658e-07 5.58081e-05
0.000730671 6.44473e-05 5.8195e-05
6.44473e-05 -0.000371623 1.86171e-06
5.8195e-05 1.86171e-06 -0.000746663
0.000422602 -1.48218e-05 -4.02412e-06
-1.48218e-05 -0.000629208 2.14722e-06
-4.02412e-06 2.14722e-06 -0.00066874
0.00259646 8.75713e-05 -2.37279e-05
8.75713e-05 0.000598966 4.08232e-06
-2.37279e-05 4.08232e-06 0.000517743
0.00114871 3.76614e-05 -5.0754e-07
3.76614e-05 -0.000308119 4.74896e-06
-5.0754e-07 4.74896e-06 -0.000388159
0.00216388 5.14159e-05 1.9804e-06
5.14159e-05 0.000232408 7.51524e-07
1.9804e-06 7.51524e-07 0.00014079
0.0018495 2.06861e-05 -1.18926e-06
2.06861e-05 0.000106855 1.59962e-07
-1.18926e-06 1.59962e-07 1.82325e-05
0.00149309 2.77555e-05 1.21074e-06
2.77555e-05 -9.16964e-05 -1.94377e-06
1.21074e-06 -1.94377e-06 -0.000172959
0.00167719 -2.9138e-05 6.89336e-06
-2.9138e-05 -6.60312e-05 1.96839e-06
6.89336e-06 1.96839e-06 -0.000137589
0.00181988 -4.35264e-06 -2.05692e-06
-4.35264e-06 0.000101262 2.16275e-07
-2.05692e-06 2.16275e-07 9.80958e-06
0.00166195 -2.97379e-07 1.26889e-07
-2.97379e-07 5.02897e-05 -2.73719e-06
1.26889e-07 -2.73719e-06 -4.72435e-05
0.00198247 -6.13604e-05 -1.85078e-06
-6.13604e-05 0.00015986 -1.21361e-06
-1.85078e-06 -1.21361e-06 7.66588e-05
0.00183116 -4.0357e-05 -6.00884e-08
-4.0357e-05 0.000131694 -4.36031e-07
-6.00884e-08 -4.36031e-07 3.4914e-05
0.00156444 -3.02291e-05 -5.48629e-07
-3.02291e-05 2.93347e-05 -5.16884e-08
-5.48629e-07 -5.16884e-08 -7.11435e-05
0.00162791 -7.77105e-05 -2.50816e-06
-7.77105e-05 7.33867e-05 -3.62445e-06
-2.50816e-06 -3.62445e-06 -3.81242e-06
0.00159312 -6.80191e-05 4.92854e-07
-6.80191e-05 7.28721e-05 3.66806e-07
4.92854e-07 3.66806e-07 -2.1624e-05
0.00152786 -6.97832e-05 -3.30001e-07
-6.97832e-05 6.37107e-05 8.10785e-07
-3.30001e-07 8.10785e-07 -3.59658e-05
0.0014705 -8.4444e-05 -1.2989e-06
-8.4444e-05 6.38888e-05 -1.67244e-06
-1.2989e-06 -1.67244e-06 -2.39765e-05
0.00146286 -8.43395e-05 1.45493e-07
-8.43395e-05 8.18732e-05 -4.81498e-07
1.45493e-07 -4.81498e-07 -1.49927e-05
0.00140406 -8.27237e-05 -1.29408e-06
-8.27237e-05 8.11215e-05 2.62404e-07
-1.29408e-06 2.62404e-07 -1.86645e-05
0.00135212 -8.53768e-05 -1.22827e-07
-8.53768e-05 6.42947e-05 6.05971e-07
-1.22827e-07 6.05971e-07 -3.01713e-05
0.00127475 -8.29183e-05 -1.81524e-07
-8.29183e-05 5.37209e-05 -2.50871e-07
-1.81524e-07 -2.50871e-07 -4.39252e-05
0.00122443 -7.8606e-05 -3.28709e-06
-7.8606e-05 6.84732e-05 5.14141e-07
-3.28709e-06 5.14141e-07 -2.46358e-05
0.00106277 -8.48297e-05 2.32581e-06
-8.48297e-05 -1.37364e-05 -5.47352e-08
2.32581e-06 -5.47352e-08 -0.000114542
0.00106332 -7.93032e-05 1.89333e-07
-7.93032e-05 2.19542e-05 3.08733e-08
1.89333e-07 3.08733e-08 -7.15012e-05
0.000959804 -6.23382e-05 -4.54502e-06
-6.23382e-05 2.11051e-05 1.69777e-06
-4.54502e-06 1.69777e-06 -5.55569e-05
0.000595078 -2.21176e-05 -6.6906e-06
-2.21176e-05 -7.68241e-05 4.62488e-06
-6.6906e-06 4.62488e-06 -0.000121131
0.000925619 -6.10193e-05 1.5162e-07
-6.10193e-05 3.65057e-05 3.26782e-08
1.5162e-07 3.26782e-08 -3.90292e-05
0.00100597 -8.24675e-05 1.67581e-06
-8.24675e-05 3.88216e-05 -2.75487e-07
1.67581e-06 -2.75487e-07 -5.34184e-05
0.00299865 9.01261e-05 -4.08716e-05
9.01261e-05 0.00120484 3.01201e-06
-4.08716e-05 3.01201e-06 0.00120221
0.000708335 5.54542e-06 -2.9523e-07
5.54542e-06 -1.98908e-05 -7.09876e-08
-2.9523e-07 -7.09876e-08 -6.01126e-05
0.000953499 -4.75095e-05 3.52586e-06
-4.75095e-05 7.39612e-05 -1.7462e-06
3.52586e-06 -1.7462e-06 1.01144e-06
0.00288881 8.13e-05 7.31984e-07
8.13e-05 0.00113438 1.4246e-07
7.31984e-07 1.4246e-07 0.00113576
0.000746346 2.26765e-05 5.59532e-06
2.26765e-05 -6.55483e-06 -4.13972e-06
5.59532e-06 -4.13972e-06 -4.01513e-05
0.00277378 7.30719e-05 3.88851e-05
7.30719e-05 0.0010647 -3.36726e-06
3.88851e-05 -3.36726e-06 0.00106946
0.000652982 8.25097e-05 -9.83324e-08
8.25097e-05 -0.000145441 -4.30015e-07
-9.83324e-08 -4.30015e-07 -0.00025026
0.000743634 8.03189e-05 -4.60544e-09
8.03189e-05 -5.60534e-05 -9.75346e-08
-4.60544e-09 -9.75346e-08 -0.000153944
0.00112127 8.38191e-05 -1.45285e-06
8.38191e-05 0.000136236 -1.81428e-07
-1.45285e-06 -1.81428e-07 4.83133e-05
0.000947288 8.17716e-05 -1.11937e-07
8.17716e-05 7.21479e-05 -6.11234e-07
-1.11937e-07 -6.11234e-07 -1.89142e-05
0.000995737 6.9828e-05 -1.5256e-07
6.9828e-05 9.27881e-05 -1.67211e-07
-1.5256e-07 -1.67211e-07 1.04478e-05
0.000891295 2.09922e-05 -2.58178e-06
2.09922e-05 5.45862e-05 -1.12973e-06
-2.58178e-06 -1.12973e-06 -1.38504e-05
0.000937854 4.22011e-05 4.18146e-07
4.22011e-05 6.92041e-05 -4.89113e-07
4.18146e-07 -4.89113e-07 -8.35204e-06
0.000824134 3.27338e-07 5.91688e-08
3.27338e-07 2.06201e-05 8.60181e-08
5.91688e-08 8.60181e-08 -4.26963e-05
0.000701049 -5.30055e-05 -2.45129e-06
-5.30055e-05 -2.59225e-05 -3.95216e-06
-2.45129e-06 -3.95216e-06 -5.44427e-05
0.000824256 -3.45689e-05 1.5933e-06
-3.45689e-05 1.71931e-05 2.1601e-06
1.5933e-06 2.1601e-06 -3.84312e-05
0.000691954 -5.06327e-05 -2.18209e-08
-5.06327e-05 -3.86476e-05 -8.10661e-08
-2.18209e-08 -8.10661e-08 -6.08141e-05
0.00256722 -6.57123e-05 -3.41993e-05
-6.57123e-05 0.00095176 -3.1073e-06
-3.41993e-05 -3.1073e-06 0.000959813
0.000703293 -4.03113e-05 3.23772e-06
-4.03113e-05 -4.3294e-05 3.64473e-06
3.23772e-06 3.64473e-06 -5.92855e-05
0.00241187 -5.88303e-05 -3.81076e-07
-5.88303e-05 0.000863274 7.48901e-08
-3.81076e-07 7.48901e-08 0.000874229
0.00233872 -5.27623e-05 2.686e-05
-5.27623e-05 0.000816363 3.3763e-06
2.686e-05 3.3763e-06 0.0008297
0.00150239 -3.11381e-05 9.38405e-06
-3.11381e-05 -0.000127503 1.80227e-06
9.38405e-06 1.80227e-06 -0.000197154
0.00100948 -6.0132e-05 1.15829e-06
-6.0132e-05 -0.000236265 1.53066e-06
1.15829e-06 1.53066e-06 -0.000275631
0.00205512 -9.63395e-05 6.13039e-05
-9.63395e-05 -3.08595e-05 1.70918e-05
6.13039e-05 1.70918e-05 -0.000264301
0.00191391 0.000128062 1.80261e-06
0.000128062 0.000377371 -2.4943e-06
1.80261e-06 -2.4943e-06 0.000274498
0.000836884 8.70531e-05 -1.23415e-06
8.70531e-05 -2.03868e-05 5.61115e-07
-1.23415e-06 5.61115e-07 -0.000106588
0.000747158 9.31748e-05 -2.62344e-06
9.31748e-05 -0.000237572 1.21368e-06
-2.62344e-06 1.21368e-06 -0.000347949
0.00138789 0.000112906 3.93897e-07
0.000112906 0.000178801 1.49606e-07
3.93897e-07 1.49606e-07 7.18404e-05
0.000493734 7.47074e-05 -2.56376e-06
7.47074e-05 -0.000171032 4.95306e-07
-2.56376e-06 4.95306e-07 -0.000268742
0.0020099 0.000122421 -2.42333e-06
0.000122421 0.000257151 -3.47147e-06
-2.42333e-06 -3.47147e-06 0.000141519
0.0012919 0.000109475 -9.67372e-07
0.000109475 0.000222911 -8.098e-07
-9.67372e-07 -8.098e-07 0.000133942
0.0015872 0.000133375 -5.72341e-08
0.000133375 0.000190042 4.08992e-07
-5.72341e-08 4.08992e-07 8.3603e-05
0.00176302 5.41329e-05 2.95984e-06
5.41329e-05 5.42784e-05 2.11523e-06
2.95984e-06 2.11523e-06 -5.16888e-05
0.00154416 0.000145069 1.09303e-06
0.000145069 0.000164834 2.52442e-06
1.09303e-06 2.52442e-06 5.50269e-05
0.00171292 0.000126658 -1.10338e-06
0.000126658 6.69499e-05 -1.01605e-06
-1.10338e-06 -1.01605e-06 -5.45776e-05
0.00172901 3.97756e-05 -2.21723e-07
3.97756e-05 -2.17458e-05 -1.52275e-07
-2.21723e-07 -1.52275e-07 -0.000111931
0.00180683 0.000126549 -8.55111e-08
0.000126549 8.25921e-05 -1.13902e-06
-8.55111e-08 -1.13902e-06 -3.51422e-05
0.0012686 1.61557e-05 -4.27879e-06
1.61557e-05 -5.53424e-05 -7.2418e-06
-4.27879e-06 -7.2418e-06 -6.88891e-05
0.00153412 4.34856e-07 3.55123e-06
4.34856e-07 -3.5791e-05 -1.25858e-06
3.55123e-06 -1.25858e-06 -0.000113234
0.00176666 -2.68705e-06 -2.51004e-07
-2.68705e-06 0.000124695 -1.97468e-07
-2.51004e-07 -1.97468e-07 5.94034e-05
0.000434859 -1.46143e-05 -4.66593e-06
-1.46143e-05 -0.00044627 3.61602e-06
-4.66593e-06 3.61602e-06 -0.000559815
0.00125792 3.81918e-05 1.153e-07
3.81918e-05 -0.000266519 2.69164e-06
1.153e-07 2.69164e-06 -0.000340296
0.00202165 4.58893e-05 9.47556e-06
4.58893e-05 0.000143454 4.07345e-06
9.47556e-06 4.07345e-06 5.42636e-05
0.00165907 1.99978e-05 -3.24199e-06
1.99978e-05 7.80557e-06 2.0204e-07
-3.24199e-06 2.0204e-07 -8.02228e-05
0.00169652 2.65464e-05 4.7227e-07
2.65464e-05 1.58527e-05 1.56185e-06
4.7227e-07 1.56185e-06 -6.63969e-05
0.0018984 1.89539e-05 1.0858e-06
1.89539e-05 0.000152066 -6.07259e-07
1.0858e-06 -6.07259e-07 6.02309e-05
0.00161195 -4.823e-06 -3.37984e-06
-4.823e-06 -8.82516e-06 1.38776e-06
-3.37984e-06 1.38776e-06 -9.93669e-05
0.00173431 5.59331e-07 -1.22513e-07
5.59331e-07 8.86058e-05 1.36166e-08
-1.22513e-07 1.36166e-08 -9.37182e-06
0.00160342 5.31048e-06 -3.98844e-07
5.31048e-06 3.98752e-05 -1.5725e-06
-3.98844e-07 -1.5725e-06 -5.96908e-05
0.00184016 -4.11373e-05 -2.658e-07
-4.11373e-05 0.000139936 -9.10534e-07
-2.658e-07 -9.10534e-07 4.55758e-05
0.00164981 -3.12595e-05 -3.4295e-08
-3.12595e-05 7.00753e-05 8.95335e-07
-3.4295e-08 8.95335e-07 -3.04006e-05
0.00161151 -3.27894e-05 -1.26169e-06
-3.27894e-05 7.19346e-05 -6.86798e-07
-1.26169e-06 -6.86798e-07 -2.86329e-05
0.00168649 -6.8505e-05 6.89388e-07
-6.8505e-05 0.000117802 -9.77185e-07
6.89388e-07 -9.77185e-07 2.31327e-05
0.00156309 -6.92698e-05 2.72104e-07
-6.92698e-05 8.03859e-05 4.8223e-07
2.72104e-07 4.8223e-07 -1.93735e-05
0.00149222 -7.10544e-05 -1.63265e-06
-7.10544e-05 7.74912e-05 4.93628e-07
-1.63265e-06 4.93628e-07 -2.38487e-05
0.00146897 -8.36333e-05 9.92764e-08
-8.36333e-05 8.44313e-05 -9.61084e-07
9.92764e-08 -9.61084e-07 -1.23559e-05
0.0014078 -8.2169e-05 7.21207e-08
-8.2169e-05 8.24877e-05 -2.31212e-07
7.21207e-08 -2.31212e-07 -1.72138e-05
0.00128947 -7.55876e-05 -3.18298e-06
-7.55876e-05 6.29308e-05 7.84234e-07
-3.18298e-06 7.84234e-07 -3.27479e-05
0.00113297 -7.88835e-05 1.30285e-06
-7.88835e-05 -1.79919e-05 -6.79053e-09
1.30285e-06 -6.79053e-09 -0.000115375
0.00121729 -7.78118e-05 2.29779e-08
-7.78118e-05 6.47592e-05 -9.37641e-08
2.29779e-08 -9.37641e-08 -2.81978e-05
0.0010181 -6.10061e-05 -5.44757e-06
-6.10061e-05 1.8167e-05 1.90981e-06
-5.44757e-06 1.90981e-06 -5.95809e-05
0.000861096 -7.22995e-05 2.7966e-06
-7.22995e-05 -8.07264e-05 -4.22514e-07
2.7966e-06 -4.22514e-07 -0.000174156
0.000972586 -6.32116e-05 1.97639e-07
-6.32116e-05 2.78416e-05 -1.27929e-08
1.97639e-07 -1.27929e-08 -4.89974e-05
0.00166575 -4.19835e-06 -7.69466e-06
-4.19835e-06 0.000483753 3.01581e-06
-7.69466e-06 3.01581e-06 0.0004413
0.00106525 3.76092e-05 -4.32892e-05
3.76092e-05 0.000198205 6.59938e-06
-4.32892e-05 6.59938e-06 0.000180296
0.00122752 -9.97204e-06 -1.39148e-06
-9.97204e-06 0.000251255 -5.45816e-08
-1.39148e-06 -5.45816e-08 0.000209412
0.000968373 -6.35475e-05 3.99048e-06
-6.35475e-05 5.87605e-05 -1.47977e-06
3.99048e-06 -1.47977e-06 -1.70999e-05
0.00305626 8.89628e-05 1.50796e-06
8.89628e-05 0.00123809 2.06796e-07
1.50796e-06 2.06796e-07 0.00123471
0.000772036 -8.90159e-06 6.76419e-06
-8.90159e-06 6.83803e-06 -4.22343e-06
6.76419e-06 -4.22343e-06 -3.20843e-05
0.00288645 7.90563e-05 4.28212e-05
7.90563e-05 0.00113553 -3.24625e-06
4.28212e-05 -3.24625e-06 0.0011365
0.00122679 9.77205e-05 -3.37613e-07
9.77205e-05 -3.7819e-05 4.71299e-07
-3.37613e-07 4.71299e-07 -0.000137692
0.00080408 9.07535e-05 1.95501e-06
9.07535e-05 -0.000124664 1.3199e-06
1.95501e-06 1.3199e-06 -0.000232291
0.000821608 8.96318e-05 -1.86561e-07
8.96318e-05 -6.53654e-05 -9.97981e-08
-1.86561e-07 -9.97981e-08 -0.000171489
0.00113889 8.95105e-05 -1.65751e-06
8.95105e-05 0.000117328 -4.10519e-07
-1.65751e-06 -4.10519e-07 2.49505e-05
0.000593892 7.443e-05 -9.15109e-08
7.443e-05 -0.000134887 3.48068e-07
-9.15109e-08 3.48068e-07 -0.000233352
0.00102987 7.8941e-05 -2.77706e-07
7.8941e-05 9.0864e-05 -6.68492e-08
-2.77706e-07 -6.68492e-08 3.47772e-06
0.000944828 4.03224e-05 -3.03197e-06
4.03224e-05 7.50219e-05 -8.57098e-07
-3.03197e-06 -8.57098e-07 3.8771e-06
0.000922098 6.59621e-05 9.764e-07
6.59621e-05 5.56537e-05 -4.08764e-08
9.764e-07 -4.08764e-08 -2.62728e-05
0.000836083 1.77913e-05 2.96485e-10
1.77913e-05 2.70131e-05 1.77881e-07
2.96485e-10 1.77881e-07 -4.11479e-05
0.000725658 -3.36018e-05 -4.68765e-06
-3.36018e-05 -1.13769e-05 -3.77213e-06
-4.68765e-06 -3.77213e-06 -4.51486e-05
0.000841623 -1.37992e-05 1.67727e-06
-1.37992e-05 3.17319e-05 1.52839e-06
1.67727e-06 1.52839e-06 -3.16689e-05
0.0006589 -5.67292e-05 -6.112e-08
-5.67292e-05 -4.74599e-05 -1.09583e-07
-6.112e-08 -1.09583e-07 -7.62345e-05
0.00270093 -7.29765e-05 -3.7262e-05
-7.29765e-05 0.00102878 -3.11422e-06
-3.7262e-05 -3.11422e-06 0.00103373
0.000663768 -4.80164e-05 3.05023e-06
-4.80164e-05 -5.47057e-05 3.80611e-06
3.05023e-06 3.80611e-06 -7.61283e-05
0.00254378 -6.58398e-05 -3.9809e-07
-6.58398e-05 0.000939055 8.88485e-08
-3.9809e-07 8.88485e-08 0.000947408
0.0023972 -5.87472e-05 2.89055e-05
-5.87472e-05 0.000854638 3.17526e-06
2.89055e-05 3.17526e-06 0.000865896
0.00154142 -5.19088e-06 5.57487e-06
-5.19088e-06 -4.81613e-05 2.44622e-06
5.57487e-06 2.44622e-06 -0.000137624
0.00207434 -3.21137e-05 -1.75004e-06
-3.21137e-05 0.00019472 -9.80726e-07
-1.75004e-06 -9.80726e-07 0.000128014
0.00205295 -9.17328e-05 5.39102e-07
-9.17328e-05 0.000239185 -2.66845e-07
5.39102e-07 -2.66845e-07 0.000187562
0.00160613 0.000106793 -5.02553e-06
0.000106793 8.21234e-05 -2.31197e-06
-5.02553e-06 -2.31197e-06 -2.79653e-05
0.00163054 0.00011871 -4.23141e-07
0.00011871 0.000255236 5.03032e-07
-4.23141e-07 5.03032e-07 0.000155883
0.000788251 8.8033e-05 -7.0295e-06
8.8033e-05 -3.21006e-05 3.97431e-07
-7.0295e-06 3.97431e-07 -0.000113119
0.00142346 0.00011379 1.82945e-06
0.00011379 0.000100331 1.38522e-06
1.82945e-06 1.38522e-06 -8.1026e-06
0.00142502 0.000114354 -2.70461e-06
0.000114354 0.000196881 4.40351e-07
-2.70461e-06 4.40351e-07 8.89961e-05
0.00197598 5.5533e-05 3.37157e-07
5.5533e-05 0.00017226 1.5218e-06
3.37157e-07 1.5218e-06 6.31925e-05
0.00172519 0.000116121 -2.1333e-06
0.000116121 0.000112602 -1.54812e-06
-2.1333e-06 -1.54812e-06 -6.04667e-06
0.00146137 0.000127892 1.1968e-06
0.000127892 0.000122763 4.75956e-06
1.1968e-06 4.75956e-06 1.5556e-05
0.00178193 5.4078e-05 -5.07678e-07
5.4078e-05 6.40412e-05 -1.00448e-09
-5.07678e-07 -1.00448e-09 -4.23008e-05
0.0020596 0.00013773 1.48369e-06
0.00013773 0.000229742 -8.79612e-07
1.48369e-06 -8.79612e-07 0.000106688
0.00189011 4.39386e-05 -7.35687e-06
4.39386e-05 6.27203e-05 -4.33292e-06
-7.35687e-06 -4.33292e-06 -2.92027e-05
0.00190714 -1.27089e-06 2.4821e-06
-1.27089e-06 0.000151479 4.01363e-07
2.4821e-06 4.01363e-07 5.97143e-05
0.00177116 1.58511e-07 -8.80066e-07
1.58511e-07 7.42547e-05 -8.78539e-07
-8.80066e-07 -8.78539e-07 -3.24581e-06
0.00144348 -4.0017e-06 -3.22418e-06
-4.0017e-06 -3.89862e-05 3.23346e-06
-3.22418e-06 3.23346e-06 -0.000103733
0.00150507 1.94048e-05 -1.5551e-06
1.94048e-05 -7.25836e-05 2.09203e-06
-1.5551e-06 2.09203e-06 -0.000159914
0.00191274 2.5905e-05 2.96996e-06
2.5905e-05 0.00012877 4.47373e-06
2.96996e-06 4.47373e-06 4.57248e-05
0.00180883 1.87201e-05 -5.89918e-07
1.87201e-05 0.000109497 -3.7465e-07
-5.89918e-07 -3.7465e-07 1.79158e-05
0.00172356 1.64291e-05 1.2689e-06
1.64291e-05 9.25775e-05 -5.81878e-07
1.2689e-06 -5.81878e-07 -8.71231e-06
0.00180573 1.26047e-06 8.11452e-07
1.26047e-06 0.000125806 1.57941e-06
8.11452e-07 1.57941e-06 2.74818e-05
0.00163291 3.71105e-06 -6.11515e-07
3.71105e-06 5.67596e-05 4.74e-08
-6.11515e-07 4.74e-08 -4.31921e-05
0.00164802 -1.63755e-06 -1.71423e-06
-1.63755e-06 8.30628e-05 -6.68057e-07
-1.71423e-06 -6.68057e-07 -1.944e-05
0.00172859 -3.24644e-05 1.19301e-06
-3.24644e-05 0.000107526 1.62169e-06
1.19301e-06 1.62169e-06 7.03786e-06
0.00163058 -3.32531e-05 2.27344e-08
-3.32531e-05 8.10907e-05 1.89453e-07
2.27344e-08 1.89453e-07 -1.94723e-05
0.00156131 -4.13721e-05 -2.15027e-06
-4.13721e-05 7.89935e-05 -7.46813e-07
-2.15027e-06 -7.46813e-07 -2.12277e-05
0.00159941 -6.86581e-05 1.38865e-06
-6.86581e-05 9.75926e-05 1.34703e-07
1.38865e-06 1.34703e-07 -2.23867e-06
0.0015005 -7.05959e-05 1.4811e-07
-7.05959e-05 8.11927e-05 4.57799e-07
1.4811e-07 4.57799e-07 -2.01548e-05
0.0013778 -6.71413e-05 -3.44859e-06
-6.71413e-05 6.54498e-05 8.06958e-07
-3.44859e-06 8.06958e-07 -3.21022e-05
0.00141178 -8.16738e-05 1.47611e-06
-8.16738e-05 8.39959e-05 -7.10163e-07
1.47611e-06 -7.10163e-07 -1.56281e-05
0.00129389 -7.51008e-05 6.74806e-08
-7.51008e-05 6.46895e-05 -9.786e-08
6.74806e-08 -9.786e-08 -3.09083e-05
0.00107409 -5.90036e-05 -6.17934e-06
-5.90036e-05 1.46478e-05 2.2065e-06
-6.17934e-06 2.2065e-06 -6.58427e-05
0.00120941 -7.70056e-05 2.91954e-06
-7.70056e-05 6.07068e-05 -5.92822e-07
2.91954e-06 -5.92822e-07 -3.21033e-05
0.00102496 -6.11383e-05 2.56243e-07
-6.11383e-05 2.12512e-05 -9.48965e-08
2.56243e-07 -9.48965e-08 -5.6594e-05
0.0017619 -7.03619e-06 -7.5956e-06
-7.03619e-06 0.000522667 3.22565e-06
-7.5956e-06 3.22565e-06 0.000479066
0.000990674 -6.43882e-05 4.6287e-06
-6.43882e-05 3.74769e-05 -1.54414e-06
4.6287e-06 -1.54414e-06 -3.95874e-05
0.00184223 -1.70181e-05 1.2909e-05
-1.70181e-05 0.000568827 -9.78832e-07
1.2909e-05 -9.78832e-07 0.000527334
0.00119106 1.19091e-05 -5.83531e-05
1.19091e-05 0.000277061 7.00877e-06
-5.83531e-05 7.00877e-06 0.000256901
0.00215939 5.60473e-05 -4.18485e-05
5.60473e-05 0.000778956 1.3041e-06
-4.18485e-05 1.3041e-06 0.00076695
0.0018913 -1.46943e-05 2.90863e-05
-1.46943e-05 0.000593592 -3.48325e-06
2.90863e-05 -3.48325e-06 0.000556501
0.00309396 7.99858e-05 5.13496e-05
7.99858e-05 0.00125997 -3.19151e-06
5.13496e-05 -3.19151e-06 0.00125682
0.00158844 9.6678e-05 -3.43424e-06
9.6678e-05 6.96672e-05 -3.01941e-06
-3.43424e-06 -3.01941e-06 -3.46773e-05
0.00150536 0.000107256 3.51702e-06
0.000107256 0.0001716 5.83152e-07
3.51702e-06 5.83152e-07 7.02522e-05
0.00124983 9.9471e-05 1.4786e-06
9.9471e-05 -1.57295e-05 8.54376e-07
1.4786e-06 8.54376e-07 -0.000108353
0.00115488 9.42437e-05 -1.80744e-06
9.42437e-05 8.84973e-05 -7.42735e-07
-1.80744e-06 -7.42735e-07 -8.96017e-06
0.00115229 0.000104502 -5.45775e-07
0.000104502 4.9091e-05 3.0033e-07
-5.45775e-07 3.0033e-07 -5.94679e-05
0.000993545 9.71858e-05 1.00378e-07
9.71858e-05 1.62072e-05 3.82527e-07
1.00378e-07 3.82527e-07 -9.12367e-05
0.00108682 8.739e-05 -1.49278e-07
8.739e-05 9.34251e-05 -1.42834e-07
-1.49278e-07 -1.42834e-07 9.4028e-07
0.00098017 5.93496e-05 -3.12415e-06
5.93496e-05 7.62644e-05 -1.03545e-06
-3.12415e-06 -1.03545e-06 2.08355e-06
0.000936146 7.40169e-05 8.57746e-07
7.40169e-05 4.4209e-05 9.95548e-09
8.57746e-07 9.95548e-09 -4.2629e-05
0.000861393 3.50963e-05 -2.53907e-07
3.50963e-05 3.2266e-05 5.53105e-08
-2.53907e-07 5.53105e-08 -3.84824e-05
0.000755133 -9.79367e-06 -5.76042e-06
-9.79367e-06 3.29236e-06 -3.67424e-06
-5.76042e-06 -3.67424e-06 -3.52133e-05
0.000767491 1.13604e-05 1.89678e-06
1.13604e-05 -6.93031e-06 1.11317e-06
1.89678e-06 1.11317e-06 -7.52016e-05
0.00066061 -4.53679e-05 -2.15421e-07
-4.53679e-05 -4.35595e-05 -7.31403e-08
-2.15421e-07 -7.31403e-08 -7.7416e-05
0.00283457 -8.04649e-05 -4.08842e-05
-8.04649e-05 0.00110991 -3.02937e-06
-4.08842e-05 -3.02937e-06 0.00111091
0.000607074 -5.49182e-05 2.29864e-06
-5.49182e-05 -7.51952e-05 4.10299e-06
2.29864e-06 4.10299e-06 -0.000103423
0.00269459 -7.35568e-05 -5.16872e-07
-7.35568e-05 0.00102456 1.13658e-07
-5.16872e-07 1.13658e-07 0.00102989
0.00251845 -6.56908e-05 3.14848e-05
-6.56908e-05 0.000925169 3.00429e-06
3.14848e-05 3.00429e-06 0.000933891
0.00187032 -2.89825e-06 9.67082e-07
-2.89825e-06 0.000112939 1.28777e-06
9.67082e-07 1.28777e-06 1.54424e-05
0.00170443 -6.2963e-06 6.89365e-07
-6.2963e-06 3.0356e-05 5.18141e-07
6.89365e-07 5.18141e-07 -5.91477e-05
0.00236331 -3.14725e-05 -1.52279e-05
-3.14725e-05 0.00037664 -2.96689e-06
-1.52279e-05 -2.96689e-06 0.000312767
0.00171237 5.6064e-05 -4.97083e-07
5.6064e-05 5.70372e-05 9.27544e-07
-4.97083e-07 9.27544e-07 -5.0271e-05
0.00171789 0.000109734 1.83218e-07
0.000109734 0.000141267 -1.0741e-06
1.83218e-07 -1.0741e-06 3.12729e-05
0.00142717 0.000111832 -2.81307e-06
0.000111832 0.000172417 1.87785e-06
-2.81307e-06 1.87785e-06 7.6627e-05
0.00204217 0.00013254 1.65675e-06
0.00013254 0.00040884 2.0694e-07
1.65675e-06 2.0694e-07 0.000302479
0.00192429 5.56853e-05 -5.92093e-07
5.56853e-05 0.000144765 -1.1242e-07
-5.92093e-07 -1.1242e-07 3.54884e-05
0.00145208 0.000109663 9.30902e-07
0.000109663 -2.59315e-05 1.17467e-08
9.30902e-07 1.17467e-08 -0.000147548
0.00177394 5.4896e-05 -2.12222e-06
5.4896e-05 6.21282e-05 -2.1276e-06
-2.12222e-06 -2.1276e-06 -4.47764e-05
0.00173762 -1.14004e-06 2.85281e-06
-1.14004e-06 6.41586e-05 9.42333e-07
2.85281e-06 9.42333e-07 -3.60066e-05
0.00178485 -8.61118e-07 -1.82059e-07
-8.61118e-07 8.8683e-05 -3.9921e-07
-1.82059e-07 -3.9921e-07 -4.28453e-06
0.00197084 3.23651e-07 -4.4637e-06
3.23651e-07 0.000167337 8.29031e-07
-4.4637e-06 8.29031e-07 8.96422e-05
0.00185422 2.06212e-05 1.61824e-06
2.06212e-05 0.000153517 1.5536e-07
1.61824e-06 1.5536e-07 4.89464e-05
0.00171211 1.85455e-05 -1.83532e-06
1.85455e-05 6.40338e-05 9.83665e-07
-1.83532e-06 9.83665e-07 -2.74352e-05
0.00173215 1.68565e-05 -4.9713e-08
1.68565e-05 9.73308e-05 4.81203e-07
-4.9713e-08 4.81203e-07 -3.68251e-06
0.00161233 1.14838e-05 7.20374e-07
1.14838e-05 6.5319e-05 -1.1717e-06
7.20374e-07 -1.1717e-06 -3.99147e-05
0.0016972 2.37497e-06 2.29414e-07
2.37497e-06 9.12663e-05 1.97879e-06
2.29414e-07 1.97879e-06 -9.08061e-06
0.00165827 -1.16912e-06 -6.08125e-07
-1.16912e-06 8.89382e-05 2.4261e-07
-6.08125e-07 2.4261e-07 -1.35343e-05
0.00159051 -7.66113e-06 -2.80523e-06
-7.66113e-06 8.43185e-05 -1.22661e-07
-2.80523e-06 -1.22661e-07 -1.70365e-05
0.00165208 -3.3105e-05 1.70483e-06
-3.3105e-05 9.14746e-05 1.06996e-06
1.70483e-06 1.06996e-06 -9.07362e-06
0.00156359 -3.97933e-05 -2.86494e-08
-3.97933e-05 8.01123e-05 1.58931e-08
-2.86494e-08 1.58931e-08 -2.01289e-05
0.00144049 -4.73164e-05 -3.81895e-06
-4.73164e-05 6.71694e-05 -1.63534e-07
-3.81895e-06 -1.63534e-07 -2.95132e-05
0.00151206 -7.01228e-05 2.28326e-06
-7.01228e-05 8.65062e-05 3.94309e-07
2.28326e-06 3.94309e-07 -1.48386e-05
0.00137684 -6.65476e-05 1.05883e-07
-6.65476e-05 6.4711e-05 3.70074e-07
1.05883e-07 3.70074e-07 -3.27884e-05
0.00114463 -5.37892e-05 -6.90478e-06
-5.37892e-05 1.84209e-05 2.10545e-06
-6.90478e-06 2.10545e-06 -6.45994e-05
0.0012983 -7.45692e-05 3.27543e-06
-7.45692e-05 6.64692e-05 -9.54163e-07
3.27543e-06 -9.54163e-07 -2.9047e-05
0.00108601 -5.85331e-05 3.37587e-07
-5.85331e-05 1.94151e-05 -5.58303e-08
3.37587e-07 -5.58303e-08 -6.10719e-05
0.00188252 -7.89399e-06 -8.37281e-06
-7.89399e-06 0.000568601 3.05301e-06
-8.37281e-06 3.05301e-06 0.000525325
0.00102986 -6.11837e-05 5.36374e-06
-6.11837e-05 2.35245e-05 -1.93314e-06
5.36374e-06 -1.93314e-06 -5.4438e-05
0.00194679 -2.28324e-05 1.4753e-05
-2.28324e-05 0.000612383 -9.76719e-07
1.4753e-05 -9.76719e-07 0.000570005
0.00125824 4.12209e-07 -6.36569e-05
4.12209e-07 0.000316104 6.74735e-06
-6.36569e-05 6.74735e-06 0.0002948
0.00200433 -3.27142e-05 3.53714e-05
-3.27142e-05 0.000645546 -5.48892e-06
3.53714e-05 -5.48892e-06 0.000605482
0.0012051 3.7037e-05 -2.647e-05
3.7037e-05 0.000291256 2.26105e-06
-2.647e-05 2.26105e-06 0.000267578
0.00316558 0.000115928 1.27861e-05
0.000115928 0.00131893 -1.42165e-06
1.27861e-05 -1.42165e-06 0.00130707
0.00192593 6.93031e-05 -1.58081e-06
6.93031e-05 0.000205967 -1.23342e-06
-1.58081e-06 -1.23342e-06 9.77881e-05
0.00157891 9.39708e-05 -6.01242e-07
9.39708e-05 0.000116308 -2.70259e-06
-6.01242e-07 -2.70259e-06 1.43745e-05
0.00167716 0.000100509 -2.61809e-06
0.000100509 0.00012584 1.45375e-06
-2.61809e-06 1.45375e-06 2.25404e-05
0.00155776 0.000103669 -1.23742e-06
0.000103669 0.000242982 -7.75005e-09
-1.23742e-06 -7.75005e-09 0.000145884
0.00134799 0.00010447 5.51626e-07
0.00010447 8.83344e-05 -1.42594e-06
5.51626e-07 -1.42594e-06 -1.23967e-05
0.00132788 0.000102627 2.83539e-06
0.000102627 3.38215e-05 1.33806e-06
2.83539e-06 1.33806e-06 -5.16412e-05
0.00101081 7.10341e-05 -3.89254e-06
7.10341e-05 6.11152e-05 -1.77443e-06
-3.89254e-06 -1.77443e-06 -1.84559e-05
0.00115304 9.45177e-05 -1.35362e-07
9.45177e-05 8.82113e-05 -6.64645e-08
-1.35362e-07 -6.64645e-08 -9.49671e-06
0.00149529 0.000117833 1.62509e-06
0.000117833 0.000220528 6.58771e-07
1.62509e-06 6.58771e-07 0.000111018
0.00102233 8.47507e-05 1.22113e-06
8.47507e-05 6.31684e-05 4.99706e-08
1.22113e-06 4.99706e-08 -2.93804e-05
0.000912634 5.63186e-05 -1.81725e-07
5.63186e-05 4.20966e-05 -1.61983e-07
-1.81725e-07 -1.61983e-07 -3.17553e-05
0.000787455 2.3528e-05 -7.01726e-06
2.3528e-05 1.94217e-05 -4.10524e-06
-7.01726e-06 -4.10524e-06 -2.42596e-05
0.000772091 3.3261e-05 2.16528e-06
3.3261e-05 -1.44776e-05 6.87007e-07
2.16528e-06 6.87007e-07 -8.43288e-05
0.000693677 -1.26719e-05 7.00842e-08
-1.26719e-05 -2.39487e-05 -5.3585e-08
7.00842e-08 -5.3585e-08 -6.31396e-05
0.00300189 -8.52609e-05 -4.75434e-05
-8.52609e-05 0.00121383 -2.80636e-06
-4.75434e-05 -2.80636e-06 0.00121051
0.000596115 -5.93063e-05 1.88457e-06
-5.93063e-05 -7.28364e-05 4.23922e-06
1.88457e-06 4.23922e-06 -0.000108531
0.00282625 -8.16376e-05 -7.59979e-07
-8.16376e-05 0.00110335 1.47681e-07
-7.59979e-07 1.47681e-07 0.00110488
0.00268629 -7.38944e-05 3.43338e-05
-7.38944e-05 0.00101929 2.89851e-06
3.43338e-05 2.89851e-06 0.00102504
0.00182005 8.04628e-06 -5.41124e-07
8.04628e-06 9.7727e-05 2.34614e-07
-5.41124e-07 2.34614e-07 -2.74844e-06
0.00177535 -7.3732e-07 -4.00082e-07
-7.3732e-07 6.07945e-05 3.67733e-07
-4.00082e-07 3.67733e-07 -3.72785e-05
0.00195629 -7.54415e-06 -4.54251e-06
-7.54415e-06 0.000151166 -1.4987e-06
-4.54251e-06 -1.4987e-06 6.18021e-05
0.00175916 5.69461e-05 1.04059e-06
5.69461e-05 7.87536e-05 -2.07909e-07
1.04059e-06 -2.07909e-07 -2.6794e-05
0.00181516 0.000112631 1.00809e-06
0.000112631 0.000193587 -2.80723e-07
1.00809e-06 -2.80723e-07 8.36002e-05
0.00179789 5.47787e-05 4.74676e-08
5.47787e-05 7.98262e-05 -1.72378e-06
4.74676e-08 -1.72378e-06 -2.9643e-05
0.00178259 3.17399e-06 1.49091e-06
3.17399e-06 8.46376e-05 1.61342e-06
1.49091e-06 1.61342e-06 -2.00077e-05
0.00178195 2.17318e-06 2.98288e-07
2.17318e-06 8.69554e-05 -1.17638e-07
2.98288e-07 -1.17638e-07 -1.45252e-05
0.0016219 7.52451e-07 -2.42079e-06
7.52451e-07 4.84526e-06 -6.52329e-07
-2.42079e-06 -6.52329e-07 -8.93292e-05
0.00176518 1.09276e-05 -6.98848e-07
1.09276e-05 0.000108206 -5.2439e-07
-6.98848e-07 -5.2439e-07 6.18372e-06
0.00177596 8.39272e-06 1.996e-06
8.39272e-06 0.000130128 -8.48755e-08
1.996e-06 -8.48755e-08 2.28943e-05
0.00172032 1.72225e-05 -1.22285e-06
1.72225e-05 9.19587e-05 3.44603e-07
-1.22285e-06 3.44603e-07 -8.80318e-06
0.00170098 1.22284e-05 4.1681e-07
1.22284e-05 0.00011119 -2.0216e-07
4.1681e-07 -2.0216e-07 5.86144e-06
0.00150393 6.65262e-06 -9.4489e-08
6.65262e-06 3.56866e-05 -4.25727e-07
-9.4489e-08 -4.25727e-07 -6.98516e-05
0.00166472 -1.36457e-06 5.21652e-07
-1.36457e-06 9.2934e-05 1.16324e-06
5.21652e-07 1.16324e-06 -9.52205e-06
0.00158996 -8.38059e-06 -9.04761e-07
-8.38059e-06 8.4578e-05 3.95619e-07
-9.04761e-07 3.95619e-07 -1.68849e-05
0.00146881 -1.63934e-05 -4.45302e-06
-1.63934e-05 6.99298e-05 1.90236e-07
-4.45302e-06 1.90236e-07 -2.74254e-05
0.00156747 -3.97378e-05 2.14346e-06
-3.97378e-05 8.19565e-05 7.61097e-07
2.14346e-06 7.61097e-07 -1.83177e-05
0.0014378 -4.62954e-05 5.22342e-08
-4.62954e-05 6.56174e-05 3.61569e-08
5.22342e-08 3.61569e-08 -3.10259e-05
0.00117474 -3.9579e-05 -7.36929e-06
-3.9579e-05 1.05904e-05 1.17023e-06
-7.36929e-06 1.17023e-06 -7.22713e-05
0.00137542 -6.58838e-05 3.77391e-06
-6.58838e-05 6.37272e-05 -7.05145e-08
3.77391e-06 -7.05145e-08 -3.37165e-05
0.00114488 -5.24323e-05 2.95589e-07
-5.24323e-05 1.71788e-05 2.79496e-07
2.95589e-07 2.79496e-07 -6.56842e-05
0.00204703 -1.71189e-05 -1.20241e-05
-1.71189e-05 0.000630293 2.33325e-06
-1.20241e-05 2.33325e-06 0.000588859
0.0010916 -5.80314e-05 6.26931e-06
-5.80314e-05 2.10105e-05 -2.24149e-06
6.26931e-06 -2.24149e-06 -5.94815e-05
0.00205704 -3.16254e-05 1.44956e-05
-3.16254e-05 0.000651947 -1.0289e-06
1.44956e-05 -1.0289e-06 0.000610678
0.00135616 -1.8879e-06 -6.74516e-05
-1.8879e-06 0.000362226 6.08715e-06
-6.74516e-05 6.08715e-06 0.000340327
0.00212164 -4.22336e-05 3.88761e-05
-4.22336e-05 0.000695508 -5.43183e-06
3.88761e-05 -5.43183e-06 0.000654925
0.00127441 3.36618e-05 -2.99248e-05
3.36618e-05 0.0003319 2.05739e-06
-2.99248e-05 2.05739e-06 0.0003065
0.00124629 6.81443e-05 5.6763e-06
6.81443e-05 0.000320856 -2.49372e-06
5.6763e-06 -2.49372e-06 0.000292832
0.00163133 2.18295e-05 -1.42992e-06
2.18295e-05 3.18566e-05 2.17961e-07
-1.42992e-06 2.17961e-07 -7.02593e-05
0.00163263 7.02406e-05 -2.58886e-06
7.02406e-05 9.57691e-05 -9.07512e-07
-2.58886e-06 -9.07512e-07 -9.49003e-06
0.00180095 6.77852e-05 -1.76841e-06
6.77852e-05 0.000140137 -1.00591e-06
-1.76841e-06 -1.00591e-06 3.14714e-05
0.00154136 9.24038e-05 -2.5619e-06
9.24038e-05 0.000163115 -9.5808e-07
-2.5619e-06 -9.5808e-07 6.57583e-05
0.0016995 9.75083e-05 1.09902e-06
9.75083e-05 0.000182471 7.61706e-07
1.09902e-06 7.61706e-07 8.09067e-05
0.00173964 0.000103598 4.1391e-06
0.000103598 0.000169187 2.92754e-06
4.1391e-06 2.92754e-06 6.69734e-05
0.000974741 7.22406e-05 -4.99393e-06
7.22406e-05 -2.81854e-06 -1.85742e-06
-4.99393e-06 -1.85742e-06 -8.5214e-05
0.00122087 9.46169e-05 1.5098e-06
9.46169e-05 6.66149e-05 8.24049e-07
1.5098e-06 8.24049e-07 -3.159e-05
0.00118624 0.000101605 8.8267e-07
0.000101605 2.56022e-06 9.31508e-07
8.8267e-07 9.31508e-07 -9.75046e-05
0.000792412 4.85481e-05 -9.11765e-06
4.85481e-05 1.64944e-05 -4.94057e-06
-9.11765e-06 -4.94057e-06 -3.21774e-05
0.0009673 6.82592e-05 -3.34746e-07
6.82592e-05 3.90412e-05 -1.95997e-07
-3.34746e-07 -1.95997e-07 -4.01417e-05
0.00115528 9.49565e-05 1.95086e-06
9.49565e-05 9.00652e-05 7.37312e-07
1.95086e-06 7.37312e-07 -7.91323e-06
0.000856831 5.30871e-05 2.74636e-06
5.30871e-05 1.40119e-05 7.82121e-07
2.74636e-06 7.82121e-07 -5.95209e-05
0.00070837 1.90299e-05 -1.0196e-08
1.90299e-05 -1.55058e-05 -1.16446e-08
-1.0196e-08 -1.16446e-08 -5.94839e-05
0.00327313 -7.09809e-05 -5.88377e-05
-7.09809e-05 0.00137173 -3.42701e-06
-5.88377e-05 -3.42701e-06 0.00136517
0.000649397 -2.0803e-05 3.69562e-06
-2.0803e-05 -4.30547e-05 4.02905e-06
3.69562e-06 4.02905e-06 -8.21805e-05
0.00297761 -9.05371e-05 -1.31737e-06
-9.05371e-05 0.00119836 2.0623e-07
-1.31737e-06 2.0623e-07 0.00119512
0.00284168 -8.25092e-05 3.73663e-05
-8.25092e-05 0.00110882 2.84762e-06
3.73663e-05 2.84762e-06 0.00111096
0.00183535 -7.9963e-07 -5.61412e-07
-7.9963e-07 0.000117143 -4.5754e-08
-5.61412e-07 -4.5754e-08 1.31109e-05
0.00182613 7.47223e-06 -2.41623e-07
7.47223e-06 0.000101041 8.22208e-09
-2.41623e-07 8.22208e-09 7.32652e-07
0.00177483 7.01167e-07 -9.67773e-07
7.01167e-07 5.65813e-05 -1.19473e-06
-9.67773e-07 -1.19473e-06 -4.19951e-05
0.0018221 5.80626e-05 9.39295e-07
5.80626e-05 0.000108119 -4.99981e-07
9.39295e-07 -4.99981e-07 4.39716e-06
0.00190341 -3.07077e-06 9.26415e-07
-3.07077e-06 0.000159148 2.86591e-07
9.26415e-07 2.86591e-07 5.04219e-05
0.0018237 2.23237e-06 2.84636e-07
2.23237e-06 0.000108669 -8.35611e-08
2.84636e-07 -8.35611e-08 4.16395e-06
0.00184847 5.22585e-06 -2.75486e-06
5.22585e-06 0.000121279 -6.22163e-07
-2.75486e-06 -6.22163e-07 1.84297e-05
0.00168369 5.01538e-06 -2.94735e-06
5.01538e-06 6.67267e-05 -1.27974e-06
-2.94735e-06 -1.27974e-06 -3.27948e-05
0.00180529 1.42433e-05 -3.38349e-07
1.42433e-05 0.000141498 -7.79465e-07
-3.38349e-07 -7.79465e-07 3.42759e-05
0.00173316 9.87911e-06 1.165e-07
9.87911e-06 0.000127202 9.04599e-07
1.165e-07 9.04599e-07 1.8127e-05
0.00179162 1.29946e-05 2.81736e-07
1.29946e-05 0.000157981 1.79685e-07
2.81736e-07 1.79685e-07 5.25702e-05
0.00164636 8.10058e-06 5.99244e-07
8.10058e-06 0.00010988 -2.49409e-07
5.99244e-07 -2.49409e-07 4.97573e-06
0.00129487 4.69306e-06 -3.04137e-06
4.69306e-06 -3.04025e-05 5.3146e-07
-3.04137e-06 5.3146e-07 -0.000131888
0.00157945 -7.57194e-06 8.12153e-07
-7.57194e-06 7.99861e-05 9.12621e-07
8.12153e-07 9.12621e-07 -2.15854e-05
0.00146453 -1.39482e-05 -5.49423e-07
-1.39482e-05 6.7649e-05 1.54149e-07
-5.49423e-07 1.54149e-07 -2.9653e-05
0.00117994 -1.76593e-05 -7.25362e-06
-1.76593e-05 1.97684e-06 7.34938e-07
-7.25362e-06 7.34938e-07 -8.10103e-05
0.00143217 -4.30752e-05 3.73387e-06
-4.30752e-05 6.26337e-05 2.61602e-07
3.73387e-06 2.61602e-07 -3.38979e-05
0.00118345 -3.99115e-05 6.23696e-08
-3.99115e-05 1.41426e-05 2.03363e-07
6.23696e-08 2.03363e-07 -6.86164e-05
0.000684531 -2.33721e-05 -1.11039e-05
-2.33721e-05 -0.000100476 2.54036e-06
-1.11039e-05 2.54036e-06 -0.000148042
0.00114634 -5.12927e-05 7.08097e-06
-5.12927e-05 1.64851e-05 -1.56881e-06
7.08097e-06 -1.56881e-06 -6.62254e-05
0.00142347 -3.78656e-05 1.73088e-05
-3.78656e-05 0.000298955 -6.23351e-07
1.73088e-05 -6.23351e-07 0.000255178
0.00436379 3.10002e-05 -7.82194e-05
3.10002e-05 0.00193001 2.64641e-06
-7.82194e-05 2.64641e-06 0.00192243
0.00222296 -4.29225e-05 4.20939e-05
-4.29225e-05 0.000732634 -4.96247e-06
4.20939e-05 -4.96247e-06 0.000692135
0.00134647 3.12128e-05 -3.22051e-05
3.12128e-05 0.000364481 1.89196e-06
-3.22051e-05 1.89196e-06 0.000338881
0.00131715 7.31898e-05 3.62963e-06
7.31898e-05 0.000363861 -2.63932e-06
3.62963e-06 -2.63932e-06 0.00033322
0.00170055 9.34777e-06 -3.43457e-07
9.34777e-06 6.99548e-05 1.62456e-07
-3.43457e-07 1.62456e-07 -3.23671e-05
0.00146094 3.28081e-05 -1.66692e-06
3.28081e-05 -7.33447e-06 -9.07317e-10
-1.66692e-06 -9.07317e-10 -0.000110134
0.00173412 2.21262e-05 -2.01688e-07
2.21262e-05 8.79192e-05 2.71208e-08
-2.01688e-07 2.71208e-08 -1.43606e-05
0.00114251 6.52305e-05 -3.83058e-06
6.52305e-05 -9.63461e-05 -1.46915e-06
-3.83058e-06 -1.46915e-06 -0.00019648
0.00165221 7.06615e-05 6.99486e-08
7.06615e-05 0.000108706 -4.79661e-08
6.99486e-08 -4.79661e-08 4.02977e-06
0.00169039 6.62766e-05 2.58379e-09
6.62766e-05 8.22386e-05 -3.20273e-07
2.58379e-09 -3.20273e-07 -2.70165e-05
0.000663402 5.7969e-05 -7.41403e-06
5.7969e-05 -0.000217815 -2.61877e-06
-7.41403e-06 -2.61877e-06 -0.000302667
0.00154254 9.37894e-05 8.52639e-07
9.37894e-05 0.00016339 2.90407e-08
8.52639e-07 2.90407e-08 6.58212e-05
0.00181921 0.000101156 2.76346e-06
0.000101156 0.000248454 1.90355e-06
2.76346e-06 1.90355e-06 0.000147211
0.000751024 6.30381e-05 -1.08844e-05
6.30381e-05 -2.12393e-05 -5.0586e-06
-1.08844e-05 -5.0586e-06 -7.24613e-05
0.000783716 6.62453e-05 -1.37859e-07
6.62453e-05 -0.000104413 1.34199e-07
-1.37859e-07 1.34199e-07 -0.000187774
0.000884005 8.56154e-05 3.69998e-06
8.56154e-05 -0.00010978 1.7455e-06
3.69998e-06 1.7455e-06 -0.000209091
0.0037079 -6.53097e-05 -6.62911e-05
-6.53097e-05 0.00160768 -4.17724e-06
-6.62911e-05 -4.17724e-06 0.00159714
0.000688227 4.19701e-05 -8.58663e-08
4.19701e-05 -3.18191e-05 1.46005e-08
-8.58663e-08 1.46005e-08 -8.05008e-05
0.000930997 6.57269e-05 3.52984e-06
6.57269e-05 2.09606e-05 1.59874e-06
3.52984e-06 1.59874e-06 -5.78925e-05
0.000626932 1.50226e-05 5.84713e-06
1.50226e-05 -5.19463e-05 4.14271e-06
5.84713e-06 4.14271e-06 -9.61483e-05
0.00318894 -9.44365e-05 -3.50096e-06
-9.44365e-05 0.00132674 1.97067e-07
-3.50096e-06 1.97067e-07 0.00131907
0.00294409 -9.09155e-05 3.97954e-05
-9.09155e-05 0.00117715 2.78051e-06
3.97954e-05 2.78051e-06 0.00117473
0.00175756 -4.50491e-06 -8.71942e-07
-4.50491e-06 8.15792e-05 -6.03962e-07
-8.71942e-07 -6.03962e-07 -2.5233e-05
0.00184055 -6.87248e-07 -3.44555e-07
-6.87248e-07 0.000116201 -2.64084e-07
-3.44555e-07 -2.64084e-07 1.2592e-05
0.00184141 7.09442e-06 2.09452e-07
7.09442e-06 0.000109034 -5.98471e-07
2.09452e-07 -5.98471e-07 8.91264e-06
0.00193103 9.64517e-06 -3.46438e-07
9.64517e-06 0.000190027 2.12664e-07
-3.46438e-07 2.12664e-07 7.69847e-05
0.00183937 1.00176e-06 -4.07235e-07
1.00176e-06 0.00012453 -1.79662e-07
-4.07235e-07 -1.79662e-07 1.54093e-05
0.00183729 -1.6765e-06 -2.62535e-06
-1.6765e-06 0.00011832 -7.94918e-07
-2.62535e-06 -7.94918e-07 1.40781e-05
0.0017937 1.83198e-05 -1.75566e-06
1.83198e-05 0.000132344 -1.11404e-06
-1.75566e-06 -1.11404e-06 2.51251e-05
0.00175245 1.23457e-05 6.91279e-07
1.23457e-05 0.000137717 -1.92664e-07
6.91279e-07 -1.92664e-07 2.8412e-05
0.00173349 7.63146e-06 -2.33793e-06
7.63146e-06 0.000164625 1.19997e-06
-2.33793e-06 1.19997e-06 6.01158e-05
0.001795 9.58768e-06 1.84576e-06
9.58768e-06 0.000187122 -3.21941e-07
1.84576e-06 -3.21941e-07 8.28653e-05
0.0015608 7.64284e-06 -4.30381e-08
7.64284e-06 0.000108921 5.34392e-08
-4.30381e-08 5.34392e-08 9.1959e-06
0.000845218 6.27773e-07 -8.24226e-06
6.27773e-07 -0.000189729 1.59086e-06
-8.24226e-06 1.59086e-06 -0.000278788
0.00145011 -1.39799e-05 2.91744e-06
-1.39799e-05 6.03286e-05 1.35262e-07
2.91744e-06 1.35262e-07 -3.70268e-05
0.00119261 -1.5336e-05 -6.89397e-08
-1.5336e-05 7.73474e-06 -1.1671e-07
-6.89397e-08 -1.1671e-07 -7.51169e-05
0.000709477 -1.26779e-05 -1.11706e-05
-1.26779e-05 -9.4846e-05 1.54365e-06
-1.11706e-05 1.54365e-06 -0.000143121
0.00118553 -3.86094e-05 7.5377e-06
-3.86094e-05 1.4311e-05 -8.83752e-07
7.5377e-06 -8.83752e-07 -6.82722e-05
0.00068908 -2.03619e-05 -2.65442e-08
-2.03619e-05 -9.8017e-05 1.68198e-07
-2.65442e-08 1.68198e-07 -0.00014557
0.00440456 2.45256e-05 -8.04651e-05
2.45256e-05 0.0019451 1.88365e-06
-8.04651e-05 1.88365e-06 0.0019385
0.00077967 -3.94934e-05 1.31833e-05
-3.94934e-05 -4.07412e-05 -4.3917e-06
1.31833e-05 -4.3917e-06 -8.94432e-05
0.00293659 3.48284e-05 2.99692e-05
3.48284e-05 0.00118285 7.59791e-07
2.99692e-05 7.59791e-07 0.00116604
0.0013571 3.97831e-05 8.86847e-06
3.97831e-05 0.000373505 -2.1015e-06
8.86847e-06 -2.1015e-06 0.000346739
0.00179168 -1.00464e-07 -3.06498e-07
-1.00464e-07 0.000120893 2.10144e-08
-3.06498e-07 2.10144e-08 1.81592e-05
0.00164417 1.54966e-05 -9.42803e-07
1.54966e-05 7.94503e-05 -1.88968e-07
-9.42803e-07 -1.88968e-07 -2.11838e-05
0.00169548 8.58236e-06 3.22708e-07
8.58236e-06 6.75841e-05 4.17309e-07
3.22708e-07 4.17309e-07 -3.47518e-05
0.00144438 4.18175e-05 -3.17967e-06
4.18175e-05 4.10433e-05 -6.0894e-07
-3.17967e-06 -6.0894e-07 -5.64667e-05
0.00153812 3.29251e-05 4.26956e-07
3.29251e-05 3.06299e-05 -1.88499e-07
4.26956e-07 -1.88499e-07 -7.13668e-05
0.00179435 2.23037e-05 1.00119e-06
2.23037e-05 0.000122078 -3.23255e-07
1.00119e-06 -3.23255e-07 1.96909e-05
0.000757521 4.93647e-05 -8.18902e-06
4.93647e-05 -0.00020963 -2.57349e-06
-8.18902e-06 -2.57349e-06 -0.000295214
0.00153935 7.44662e-05 -1.21491e-06
7.44662e-05 0.000110813 -3.30304e-07
-1.21491e-06 -3.30304e-07 1.21206e-05
0.00169148 7.13489e-05 2.94036e-06
7.13489e-05 0.000131125 2.71238e-07
2.94036e-06 2.71238e-07 2.70999e-05
0.000715821 6.18606e-05 -1.18657e-05
6.18606e-05 -6.25805e-05 -4.57442e-06
-1.18657e-05 -4.57442e-06 -0.000112884
0.000707904 5.96864e-05 -1.96474e-06
5.96864e-05 -0.000197775 -6.87866e-07
-1.96474e-06 -6.87866e-07 -0.000283263
0.00154513 9.52186e-05 4.12832e-06
9.52186e-05 0.000164383 1.234e-06
4.12832e-06 1.234e-06 6.66012e-05
0.00414789 -7.2379e-05 -6.97541e-05
-7.2379e-05 0.00183657 -4.34967e-06
-6.97541e-05 -4.34967e-06 0.00182305
0.000681639 5.71853e-05 3.24312e-07
5.71853e-05 -5.43904e-05 2.00493e-07
3.24312e-07 2.00493e-07 -0.000105285
0.000586515 5.99899e-05 4.84346e-06
5.99899e-05 -0.000208985 2.32117e-06
4.84346e-06 2.32117e-06 -0.000293322
0.00351681 -8.33872e-05 -3.62621e-06
-8.33872e-05 0.0015094 2.26092e-07
-3.62621e-06 2.26092e-07 0.00149867
0.000593519 3.55756e-05 7.0403e-06
3.55756e-05 -7.60044e-05 4.7323e-06
7.0403e-06 4.7323e-06 -0.000124665
0.00307292 -0.000100134 4.19044e-05
-0.000100134 0.00126413 2.67544e-06
4.19044e-05 2.67544e-06 0.00125651
0.00184445 6.1026e-06 -7.79367e-07
6.1026e-06 0.000148232 -9.04843e-07
-7.79367e-07 -9.04843e-07 3.9782e-05
0.00182791 -3.6242e-06 7.85274e-08
-3.6242e-06 0.000118877 4.10958e-07
7.85274e-08 4.10958e-07 1.25862e-05
0.00184786 -5.76097e-07 -4.50782e-07
-5.76097e-07 0.000116853 -1.21214e-07
-4.50782e-07 -1.21214e-07 1.35672e-05
0.00182143 -2.72388e-06 -3.24569e-06
-2.72388e-06 0.000176196 1.74623e-07
-3.24569e-06 1.74623e-07 6.83036e-05
0.00186382 9.07796e-06 6.71018e-07
9.07796e-06 0.000158056 2.74814e-08
6.71018e-07 2.74814e-08 4.56242e-05
0.00182856 7.85474e-06 -4.05512e-07
7.85474e-06 0.000116771 -9.78484e-07
-4.05512e-07 -9.78484e-07 7.21894e-06
0.00178265 1.35054e-05 9.05911e-07
1.35054e-05 0.00015389 -9.45054e-07
9.05911e-07 -9.45054e-07 4.43599e-05
0.00173787 7.74265e-06 9.15284e-07
7.74265e-06 0.000167496 -7.64248e-08
9.15284e-07 -7.64248e-08 6.29694e-05
0.000931027 1.7829e-06 -8.24116e-06
1.7829e-06 -0.000178978 1.79618e-06
-8.24116e-06 1.79618e-06 -0.000273691
0.00184429 1.05725e-05 3.78705e-06
1.05725e-05 0.000257082 -5.83548e-07
3.78705e-06 -5.83548e-07 0.00015914
0.00102936 3.05845e-06 -1.62327e-06
3.05845e-06 -9.12184e-05 4.18312e-07
-1.62327e-06 4.18312e-07 -0.000178506
0.00071493 -4.09479e-06 -1.14544e-05
-4.09479e-06 -0.000102571 1.27486e-06
-1.14544e-05 1.27486e-06 -0.00015451
0.00121292 -1.48167e-05 7.15746e-06
-1.48167e-05 1.71775e-05 -1.08589e-06
7.15746e-06 -1.08589e-06 -6.5574e-05
0.000711789 -3.79346e-06 2.35404e-07
-3.79346e-06 -9.37194e-05 -8.24045e-08
2.35404e-07 -8.24045e-08 -0.000142208
0.00448299 2.50344e-05 -8.2902e-05
2.50344e-05 0.00198139 1.10479e-06
-8.2902e-05 1.10479e-06 0.00197525
0.000684217 -1.53167e-05 1.07433e-05
-1.53167e-05 -0.000100379 -2.14673e-06
1.07433e-05 -2.14673e-06 -0.000147702
0.00444495 3.16654e-05 3.03949e-07
3.16654e-05 0.00196524 2.97679e-07
3.03949e-07 2.97679e-07 0.00195861
0.00156281 -3.73452e-06 7.24982e-05
-3.73452e-06 0.000459429 -2.92617e-06
7.24982e-05 -2.92617e-06 0.000438235
0.00187044 4.63788e-06 -5.54889e-07
4.63788e-06 0.000188868 -5.39452e-07
-5.54889e-07 -5.39452e-07 8.75424e-05
0.00172034 -5.55537e-07 6.85969e-07
-5.55537e-07 8.55495e-05 7.39578e-07
6.85969e-07 7.39578e-07 -1.61724e-05
0.00149083 1.50355e-05 -2.81186e-06
1.50355e-05 4.86788e-05 -8.47956e-07
-2.81186e-06 -8.47956e-07 -4.91356e-05
0.00166224 1.49478e-05 2.84999e-07
1.49478e-05 8.77708e-05 -7.7026e-08
2.84999e-07 -7.7026e-08 -1.29243e-05
0.00170093 7.86748e-06 1.49901e-06
7.86748e-06 7.02837e-05 3.5881e-07
1.49901e-06 3.5881e-07 -3.20289e-05
0.00121648 3.71429e-05 -7.27991e-06
3.71429e-05 8.92924e-06 -1.84451e-06
-7.27991e-06 -1.84451e-06 -7.47584e-05
0.00147942 4.24251e-05 -3.04741e-08
4.24251e-05 5.71993e-05 5.3528e-08
-3.04741e-08 5.3528e-08 -4.02355e-05
0.00160329 3.28617e-05 1.76668e-06
3.28617e-05 6.29328e-05 -1.26613e-08
1.76668e-06 -1.26613e-08 -3.83235e-05
0.000709501 4.62747e-05 -1.20585e-05
4.62747e-05 -8.56196e-05 -3.84102e-06
-1.20585e-05 -3.84102e-06 -0.000134744
0.000983265 5.49846e-05 -2.31895e-06
5.49846e-05 -9.15979e-05 -5.13769e-07
-2.31895e-06 -5.13769e-07 -0.000176583
0.00193418 8.36002e-05 3.242e-06
8.36002e-05 0.000317063 7.38267e-07
3.242e-06 7.38267e-07 0.000219806
0.00442779 -5.0469e-05 -7.75168e-05
-5.0469e-05 0.00196894 -3.69434e-06
-7.75168e-05 -3.69434e-06 0.0019587
0.000674703 5.64826e-05 2.12362e-07
5.64826e-05 -8.1989e-05 1.67452e-07
2.12362e-07 1.67452e-07 -0.000132525
0.000747352 6.14477e-05 4.44826e-06
6.14477e-05 -0.000180247 1.61197e-06
4.44826e-06 1.61197e-06 -0.000266392
0.00393217 -6.41323e-05 -3.89294e-07
-6.41323e-05 0.0017236 1.85457e-07
-3.89294e-07 1.85457e-07 0.00171233
0.000591887 5.12267e-05 9.11793e-06
5.12267e-05 -9.77375e-05 5.1386e-06
9.11793e-06 5.1386e-06 -0.00014842
0.0033259 -0.000102695 4.82705e-05
-0.000102695 0.00141145 2.83792e-06
4.82705e-05 2.83792e-06 0.00139996
0.00180429 1.00932e-05 -2.31775e-06
1.00932e-05 0.000175293 -9.63593e-07
-2.31775e-06 -9.63593e-07 7.17619e-05
0.00185104 3.74618e-06 2.65657e-07
3.74618e-06 0.000154276 3.21751e-07
2.65657e-07 3.21751e-07 4.62391e-05
0.00187764 -3.13774e-06 1.39436e-06
-3.13774e-06 0.000145714 1.04619e-06
1.39436e-06 1.04619e-06 3.99584e-05
0.000967522 -1.34902e-05 -9.12359e-06
-1.34902e-05 -0.000183452 5.36699e-07
-9.12359e-06 5.36699e-07 -0.000280818
0.00182346 4.23199e-06 9.40983e-07
4.23199e-06 0.000178244 1.08001e-07
9.40983e-07 1.08001e-07 7.01183e-05
0.00176809 8.74911e-06 1.82042e-06
8.74911e-06 0.000111503 -6.65318e-07
1.82042e-06 -6.65318e-07 -3.19265e-07
0.00173844 7.5478e-06 3.9893e-06
7.5478e-06 0.000168326 -9.75221e-07
3.9893e-06 -9.75221e-07 6.3795e-05
0.000907501 1.1668e-06 -1.19398e-06
1.1668e-06 -0.000186864 4.72726e-07
-1.19398e-06 4.72726e-07 -0.000280859
0.000741709 4.22972e-06 -1.20735e-05
4.22972e-06 -0.000108293 8.77129e-07
-1.20735e-05 8.77129e-07 -0.000164309
0.00119953 6.25853e-06 5.45739e-06
6.25853e-06 1.20517e-07 -9.06251e-07
5.45739e-06 -9.06251e-07 -8.53869e-05
0.000745153 5.3529e-06 3.03064e-07
5.3529e-06 -8.85249e-05 -5.71926e-08
3.03064e-07 -5.71926e-08 -0.000140507
0.00462704 2.54614e-05 -8.56053e-05
2.54614e-05 0.0020512 3.54302e-07
-8.56053e-05 3.54302e-07 0.00204493
0.000721047 5.38618e-06 1.08597e-05
5.38618e-06 -8.93401e-05 -1.47516e-06
1.08597e-05 -1.47516e-06 -0.000137783
0.00452721 4.38394e-05 2.60497e-06
4.38394e-05 0.00200396 2.19283e-07
2.60497e-06 2.19283e-07 0.00199723
0.0044995 3.58248e-05 8.52957e-05
3.58248e-05 0.00199199 -1.25983e-06
8.52957e-05 -1.25983e-06 0.00198557
0.0015645 5.89101e-06 -2.89837e-06
5.89101e-06 7.17789e-05 -1.22174e-06
-2.89837e-06 -1.22174e-06 -2.84983e-05
0.0017485 3.48575e-06 4.07503e-07
3.48575e-06 0.00012411 3.84579e-08
4.07503e-07 3.84579e-08 2.26474e-05
0.00166748 -9.80014e-07 1.46594e-06
-9.80014e-07 5.97608e-05 1.39034e-06
1.46594e-06 1.39034e-06 -4.09782e-05
0.00124272 1.23625e-05 -7.1178e-06
1.23625e-05 5.22497e-06 -1.8387e-06
-7.1178e-06 -1.8387e-06 -7.99583e-05
0.00151913 1.51216e-05 1.26922e-07
1.51216e-05 6.25579e-05 -8.9262e-08
1.26922e-07 -8.9262e-08 -3.53245e-05
0.00168124 1.43545e-05 1.18403e-06
1.43545e-05 9.64299e-05 9.71403e-08
1.18403e-06 9.71403e-08 -4.3067e-06
0.000726126 2.77203e-05 -1.18928e-05
2.77203e-05 -9.2653e-05 -3.17448e-06
-1.18928e-05 -3.17448e-06 -0.000141793
0.00121817 3.78381e-05 -5.18789e-08
3.78381e-05 1.01455e-05 1.11694e-07
-5.18789e-08 1.11694e-07 -7.36982e-05
0.0015193 4.30509e-05 3.53027e-06
4.30509e-05 7.57208e-05 7.84943e-07
3.53027e-06 7.84943e-07 -2.16327e-05
0.00456557 -1.80726e-05 -8.7843e-05
-1.80726e-05 0.00202616 -2.88622e-06
-8.7843e-05 -2.88622e-06 0.0020197
0.000689239 4.47935e-05 1.19657e-08
4.47935e-05 -9.52423e-05 1.19477e-07
1.19657e-08 1.19477e-07 -0.000144472
0.00120599 6.07412e-05 5.2086e-06
6.07412e-05 2.48964e-05 1.69912e-06
5.2086e-06 1.69912e-06 -5.95001e-05
0.0042645 -4.34371e-05 4.43855e-06
-4.34371e-05 0.00188688 1.09123e-07
4.43855e-06 1.09123e-07 0.00187659
0.000629491 5.12744e-05 1.03579e-05
5.12744e-05 -0.00010381 4.64981e-06
1.03579e-05 4.64981e-06 -0.000154387
0.00372282 -8.92461e-05 5.6306e-05
-8.92461e-05 0.00162038 3.64855e-06
5.6306e-05 3.64855e-06 0.00160735
0.00133459 2.57283e-06 -7.71028e-06
2.57283e-06 1.34025e-05 -7.21883e-07
-7.71028e-06 -7.21883e-07 -7.95783e-05
0.00163763 4.7301e-06 1.07274e-06
4.7301e-06 8.59776e-05 -1.58533e-07
1.07274e-06 -1.58533e-07 -1.93262e-05
0.00187777 3.01349e-07 1.81022e-06
3.01349e-07 0.000170431 1.52283e-06
1.81022e-06 1.52283e-06 6.28247e-05
0.000760275 1.32012e-05 -1.28847e-05
1.32012e-05 -0.000115997 -1.24737e-07
-1.28847e-05 -1.24737e-07 -0.000173289
0.000952919 -6.22895e-06 -1.50305e-06
-6.22895e-06 -0.000189221 3.80284e-07
-1.50305e-06 3.80284e-07 -0.000286358
0.00183501 1.08705e-05 4.98293e-06
1.08705e-05 0.00018532 -5.96172e-07
4.98293e-06 -5.96172e-07 7.69326e-05
0.000887239 1.05185e-06 5.32078e-06
1.05185e-06 -0.000193211 -5.85436e-07
5.32078e-06 -5.85436e-07 -0.000286468
0.000761569 7.36316e-06 1.79379e-07
7.36316e-06 -9.93648e-05 2.68816e-07
1.79379e-07 2.68816e-07 -0.00015552
0.00491539 2.62628e-05 -8.94522e-05
2.62628e-05 0.00219188 -4.10987e-07
-8.94522e-05 -4.10987e-07 0.00218513
0.000767809 1.40817e-05 1.13965e-05
1.40817e-05 -7.79032e-05 -1.15403e-06
1.13965e-05 -1.15403e-06 -0.000130135
0.00471701 2.92668e-05 1.59399e-06
2.92668e-05 0.00209494 3.17948e-07
1.59399e-06 3.17948e-07 0.00208869
0.00456714 3.48621e-05 8.96586e-05
3.48621e-05 0.00202214 -5.13476e-07
8.96586e-05 -5.13476e-07 0.00201619
0.00129192 3.14508e-06 -7.48177e-06
3.14508e-06 9.95584e-06 -1.81588e-06
-7.48177e-06 -1.81588e-06 -7.90738e-05
0.00149245 4.36488e-06 -5.33702e-08
4.36488e-06 3.17107e-05 -1.28572e-07
-5.33702e-08 -1.28572e-07 -6.92185e-05
0.00162037 2.30274e-06 1.22906e-06
2.30274e-06 5.6277e-05 9.33453e-07
1.22906e-06 9.33453e-07 -4.53304e-05
0.0024211 5.0287e-06 -5.0572e-05
5.0287e-06 0.000780398 -1.93499e-06
-5.0572e-05 -1.93499e-06 0.000739399
0.00124736 1.3181e-05 1.11286e-07
1.3181e-05 7.95922e-06 9.39779e-09
1.11286e-07 9.39779e-09 -7.74245e-05
0.00154971 1.50346e-05 3.2194e-06
1.50346e-05 7.75905e-05 7.22761e-07
3.2194e-06 7.22761e-07 -2.03605e-05
0.00468756 -1.03401e-05 -9.50584e-05
-1.03401e-05 0.00207983 -2.08141e-06
-9.50584e-05 -2.08141e-06 0.00207441
0.00071892 2.88878e-05 -3.68029e-08
2.88878e-05 -9.60654e-05 4.25132e-08
-3.68029e-08 4.25132e-08 -0.000145222
0.00122075 3.8429e-05 7.45876e-06
3.8429e-05 1.17871e-05 2.01061e-06
7.45876e-06 2.01061e-06 -7.2224e-05
0.00448053 -1.30076e-05 1.99956e-06
-1.30076e-05 0.00198498 3.36728e-07
1.99956e-06 3.36728e-07 0.00197814
0.000670061 4.36335e-05 1.11864e-05
4.36335e-05 -0.000104242 3.96743e-06
1.11864e-05 3.96743e-06 -0.000153531
0.00412406 -3.29061e-05 7.2809e-05
-3.29061e-05 0.00181352 3.50313e-06
7.2809e-05 3.50313e-06 0.0018052
0.000807252 6.56258e-06 -1.49473e-05
6.56258e-06 -9.44246e-05 -1.82462e-06
-1.49473e-05 -1.82462e-06 -0.000153229
0.00114045 -4.671e-07 2.48153e-07
-4.671e-07 -8.84209e-05 3.97857e-07
2.48153e-07 3.97857e-07 -0.000182518
0.00146603 -6.23569e-07 4.20032e-06
-6.23569e-07 -6.1433e-06 8.93892e-07
4.20032e-06 8.93892e-07 -0.000113146
0.00518968 -5.27209e-05 -9.06942e-05
-5.27209e-05 0.00233307 -1.5305e-06
-9.06942e-05 -1.5305e-06 0.0023212
0.000782079 9.13123e-06 1.18625e-08
9.13123e-06 -0.000104295 3.61879e-07
1.18625e-08 3.61879e-07 -0.000162436
0.000941357 6.60933e-07 5.8468e-06
6.60933e-07 -0.000193392 7.08195e-08
5.8468e-06 7.08195e-08 -0.000290316
0.000790566 1.48093e-05 1.21578e-05
1.48093e-05 -8.55558e-05 -2.35791e-07
1.21578e-05 -2.35791e-07 -0.000142055
0.00502518 6.19984e-05 4.04503e-06
6.19984e-05 0.00224768 4.22307e-07
4.04503e-06 4.22307e-07 0.0022395
0.0048184 6.32135e-05 9.46674e-05
6.32135e-05 0.00214594 2.87516e-07
9.46674e-05 2.87516e-07 0.00213849
0.00255116 -1.50477e-05 -5.55208e-05
-1.50477e-05 0.000830573 -2.06555e-06
-5.55208e-05 -2.06555e-06 0.000785747
0.00129112 4.79423e-06 -1.09087e-07
4.79423e-06 9.56321e-06 1.01244e-08
-1.09087e-07 1.01244e-08 -7.94616e-05
0.00141473 2.98777e-06 2.90737e-06
2.98777e-06 -1.12341e-05 9.94567e-07
2.90737e-06 9.94567e-07 -0.000112815
0.0045917 4.26687e-06 -2.72111e-05
4.26687e-06 0.00203209 -9.2569e-07
-2.72111e-05 -9.2569e-07 0.00202262
0.000768444 1.00894e-05 -1.42038e-07
1.00894e-05 -8.26759e-05 6.5073e-08
-1.42038e-07 6.5073e-08 -0.000134081
0.0012579 1.49178e-05 7.28807e-06
1.49178e-05 1.33975e-05 1.83681e-06
7.28807e-06 1.83681e-06 -7.21284e-05
0.00461651 -4.40639e-06 -4.13085e-07
-4.40639e-06 0.00204597 3.61024e-07
-4.13085e-07 3.61024e-07 0.00204031
0.000709632 3.07697e-05 1.19795e-05
3.07697e-05 -0.000100257 3.34627e-06
1.19795e-05 3.34627e-06 -0.000149453
0.00437869 -4.65973e-06 8.27122e-05
-4.65973e-06 0.00193429 3.27866e-06
8.27122e-05 3.27866e-06 0.00192761
0.00179418 -1.2216e-05 -9.5619e-05
-1.2216e-05 0.00053926 -1.76313e-07
-9.5619e-05 -1.76313e-07 0.00051336
0.00170497 5.28956e-06 -2.24983e-05
5.28956e-06 0.000378059 5.69966e-07
-2.24983e-05 5.69966e-07 0.000326372
0.00095401 1.57044e-08 7.53302e-06
1.57044e-08 -0.000186173 1.52443e-06
7.53302e-06 1.52443e-06 -0.000281392
0.00521449 -4.34057e-05 4.26727e-06
-4.34057e-05 0.00234263 -8.69558e-07
4.26727e-06 -8.69558e-07 0.00233236
0.000788091 7.19505e-06 1.30257e-05
7.19505e-06 -0.000101121 8.49412e-07
1.30257e-05 8.49412e-07 -0.00015962
0.00510854 3.13522e-05 0.000101071
3.13522e-05 0.00228576 1.00594e-06
0.000101071 1.00594e-06 0.00227914
0.00149773 -4.59964e-05 -9.55446e-06
-4.59964e-05 0.000402243 -8.2005e-07
-9.55446e-06 -8.2005e-07 0.00037224
0.00168161 3.24294e-06 -2.12555e-05
3.24294e-06 0.000379379 1.89773e-07
-2.12555e-05 1.89773e-07 0.000329632
0.00129144 4.13455e-06 7.15504e-06
4.13455e-06 9.85312e-06 1.87807e-06
7.15504e-06 1.87807e-06 -7.92039e-05
0.00310286 -6.64145e-07 3.83463e-05
-6.64145e-07 0.00124678 4.00757e-07
3.83463e-05 4.00757e-07 0.00123057
0.000757413 1.69555e-05 1.23727e-05
1.69555e-05 -8.83083e-05 2.93684e-06
1.23727e-05 2.93684e-06 -0.000139981
0.0045704 3.92691e-06 8.9014e-05
3.92691e-06 0.00202423 2.77067e-06
8.9014e-05 2.77067e-06 0.00201841
0.00524704 -6.22743e-05 -4.57286e-06
-6.22743e-05 0.00235594 4.8073e-07
-4.57286e-06 4.8073e-07 0.00234696
0.000779719 1.18201e-05 1.30727e-05
1.18201e-05 -0.000105413 2.00077e-06
1.30727e-05 2.00077e-06 -0.000162871
0.00525423 3.89657e-05 9.8322e-05
3.89657e-05 0.00236092 -1.01166e-06
9.8322e-05 -1.01166e-06 0.00235118
0.00328238 -4.2239e-06 4.0961e-05
-4.2239e-06 0.00133116 3.73237e-08
4.0961e-05 3.73237e-08 0.00131338
0.000780926 8.95141e-06 1.25184e-05
8.95141e-06 -9.04768e-05 2.62504e-06
1.25184e-05 2.62504e-06 -0.000145967
0.00473393 8.28933e-07 9.14805e-05
8.28933e-07 0.00210185 1.9889e-06
9.14805e-05 1.9889e-06 0.0020961
0.00516717 -0.00012124 9.11607e-05
-0.00012124 0.00232386 -6.1266e-08
9.11607e-05 -6.1266e-08 0.00230986
0.00495917 -5.85768e-05 9.06196e-05
-5.85768e-05 0.00221372 8.0284e-07
9.06196e-05 8.0284e-07 0.00220588
