# vtk DataFile Version 2.0
Wound Healing Simulation
ASCII
DATASET UNSTRUCTURED_GRID
POINTS 3012 float
69.9759 18.75 4
67.2507 60.3285 4
69.976 18.75 2
73.0099 25.446 4
71.1327 20.9142 4
68.6801 16.6661 4
67.8258 19.9261 3.98313
67.2507 60.3286 2
71.1327 54.0858 4
68.6801 58.3339 4
65.6939 62.2254 4
65.3124 59.0015 3.98288
74.6784 42.3946 4
73.7221 47.2057 4
69.9759 18.75 0
73.0099 25.446 2
68.6801 16.6661 2
71.1327 20.9142 2
67.8262 19.929 2
74.6792 32.6053 4
73.7222 27.7943 4
72.1454 23.1494 4
70.6144 26.2209 3.98291
68.886 21.9581 3.98363
67.2507 14.6715 4
66.6371 17.9719 3.98223
65.7971 21.0254 3.97426
67.2507 60.3285 0
71.1327 54.0858 2
68.6801 58.3339 2
65.694 62.2255 2
65.3135 58.9983 2
72.1454 51.8506 4
69.9759 56.25 4
68.8365 53.1131 3.98264
64.0165 64.0165 4
66.6108 57.1338 3.98272
63.886 60.7664 3.98504
63.5002 57.771 3.97498
60.3285 67.2507 4
74.6792 42.3947 2
73.7222 47.2057 2
74.9194 39.9526 4
74.2788 44.8158 4
72.1683 42.0856 3.9817
73.0099 49.554 4
71.2495 46.5982 3.98184
73.0099 25.446 0
71.1327 20.9142 0
68.6801 16.6661 0
67.8258 19.9261 0.0168728
74.6792 32.6053 2
73.7222 27.7943 2
67.2508 14.6715 2
72.1455 23.1494 2
70.6144 26.2214 2
66.6379 17.9753 2
68.8863 21.96 2
65.7965 21.0258 2
74.9197 35.0474 4
74.2794 30.1841 4
72.185 32.9432 3.98209
71.2784 28.4313 3.98232
69.8158 24.0596 3.98345
68.347 26.9511 3.97275
66.7626 22.9331 3.9736
65.694 12.7746 4
65.3239 16.1032 3.98338
64.7132 19.1958 3.97423
63.8853 22.0366 3.97024
71.1327 54.0858 0
65.6939 62.2254 0
68.6801 58.3339 0
65.3124 59.0015 0.0171229
72.1455 51.8506 2
69.9759 56.25 2
68.8368 53.1111 2
64.0165 64.0165 2
66.6116 57.1305 2
63.8876 60.7641 2
63.4998 57.7713 2
62.2254 65.694 4
58.8949 65.4144 3.99148
69.7691 50.989 3.98261
67.7838 55.1673 3.98257
66.6492 52.2091 3.97252
62.3365 62.4278 3.98777
64.6605 56.0311 3.97445
62.2029 59.4041 3.97674
61.8208 56.6784 3.9702
58.3339 68.6801 4
60.3285 67.2508 2
73.7221 47.2057 0
74.6784 42.3946 0
74.9197 39.9526 2
74.2794 44.8159 2
72.168 42.0856 2
73.0099 49.554 2
71.2494 46.5979 2
75 37.5 4
72.4056 39.8022 3.98192
71.7827 44.3529 3.98188
69.8039 41.7895 3.97172
70.5753 48.8136 3.98219
68.9122 46.0147 3.97171
74.6792 32.6053 0
73.7222 27.7943 0
67.2507 14.6715 0
72.1454 23.1494 0
70.6144 26.2209 0.0170914
68.886 21.9581 0.0163721
66.6371 17.9719 0.0177699
65.7971 21.0254 0.0257376
74.9197 35.0474 2
74.2794 30.1841 2
72.1846 32.9434 2
71.2784 28.4316 2
65.694 12.7745 2
65.3252 16.1061 2
69.8159 24.0607 2
68.3469 26.9514 2
64.7126 19.196 2
66.7622 22.9336 2
63.8847 22.0366 2
72.4134 35.2241 3.982
71.8041 30.6762 3.98221
69.84 33.268 3.97218
68.9662 29.0378 3.97244
67.6114 24.9118 3.97308
66.1935 27.6346 3.96904
64.0165 10.9835 4
64.7551 23.8305 3.96971
63.8906 14.3267 3.98609
63.513 17.4478 3.97555
62.9041 20.3233 3.96988
62.089 22.9462 3.96868
60.6843 11.0975 3.98862
57.6124 11.4478 3.98141
72.1454 51.8506 0
69.9759 56.25 0
68.8365 53.1131 0.017356
64.0165 64.0165 0
63.886 60.7664 0.0149576
66.6108 57.1338 0.0172782
63.5002 57.771 0.0250234
62.2255 65.694 2
58.8958 65.414 2
69.7692 50.9879 2
67.7843 55.1644 2
66.6488 52.2085 2
62.338 62.4264 2
64.66 56.031 2
62.2028 59.4049 2
61.8203 56.6791 2
60.6691 63.9772 3.98973
57.0259 66.735 3.99215
57.5583 63.6922 3.98393
67.5074 50.1767 3.97197
65.7015 54.1729 3.97313
64.5359 51.3841 3.96838
60.7733 60.9379 3.97959
62.8177 55.0655 3.97023
60.6567 58.157 3.9713
60.3228 55.7795 3.96964
56.25 69.9759 4
58.3339 68.6801 2
60.3285 67.2507 0
58.9215 9.65579 3.98963
62.2254 9.30607 4
73.0099 49.554 0
74.2788 44.8158 0
71.2495 46.5982 0.0181572
72.1683 42.0856 0.0182968
74.9194 39.9526 0
75 37.5 2
72.4055 39.8024 2
71.7826 44.3527 2
69.8037 41.7892 2
70.5753 48.8132 2
68.9122 46.0143 2
72.4889 37.512 3.98181
70.0411 39.6571 3.97167
69.4303 43.9074 3.97176
67.5963 41.4969 3.9688
68.2659 48.1071 3.97174
66.7086 45.4391 3.96845
74.9197 35.0474 0
74.2794 30.1841 0
72.185 32.9432 0.0179063
71.2784 28.4313 0.0176833
65.694 12.7746 0
65.3239 16.1032 0.0166214
69.8158 24.0596 0.0165531
68.347 26.9511 0.0272505
66.7626 22.9331 0.0264048
64.7132 19.1958 0.0257684
63.8853 22.0366 0.0297568
72.4133 35.2241 2
71.804 30.6765 2
69.8397 33.2683 2
68.9662 29.038 2
64.0165 10.9835 2
63.892 14.3289 2
63.5127 17.4474 2
67.6111 24.9121 2
66.1934 27.6347 2
62.9035 20.3232 2
64.7547 23.8306 2
62.0884 22.9462 2
60.6855 11.0988 2
57.6126 11.447 2
70.0578 35.3916 3.97191
69.4671 31.1491 3.9721
67.6546 33.5907 3.96908
66.7712 29.6227 3.96891
65.5228 25.6994 3.9693
64.1389 28.2572 3.96922
62.3421 12.6547 3.98762
62.8531 24.6394 3.96871
62.1996 15.7849 3.97881
61.8106 18.6887 3.96948
61.2115 21.3466 3.96768
60.4132 23.7339 3.96856
59.2465 12.7793 3.98012
55.8744 10.2339 3.98327
56.4049 13.1163 3.97762
69.7691 50.989 0.017394
62.2254 65.694 0
58.8949 65.4144 0.00852448
67.7838 55.1673 0.0174278
66.6492 52.2091 0.0274768
62.3365 62.4278 0.0122276
62.2029 59.4041 0.0232637
64.6605 56.0311 0.0255456
61.8208 56.6784 0.0298046
60.6703 63.9764 2
57.0264 66.7349 2
57.5584 63.6935 2
67.5072 50.1762 2
65.7011 54.1725 2
64.5355 51.384 2
60.7734 60.9393 2
62.8172 55.066 2
60.6565 58.1581 2
60.3225 55.7797 2
55.0715 67.9319 3.99249
59.2194 62.3662 3.98099
55.8052 64.9104 3.98673
56.3267 62.0894 3.97938
65.3304 49.4073 3.96826
63.7034 53.2906 3.96861
62.4335 50.6478 3.96742
59.3326 59.5555 3.97552
61.0712 54.3037 3.96902
59.2851 57.0049 3.96887
59.2344 55.1734 3.97149
48.1032 68.5786 3.98834
50.9491 69.9316 3.99271
54.0858 71.1327 4
56.25 69.976 2
58.3339 68.6801 0
57.0588 8.33578 3.99043
60.3285 7.74928 4
58.9226 9.65663 2
62.2255 9.30602 2
70.5753 48.8136 0.0178051
71.7827 44.3529 0.018116
68.9122 46.0147 0.0282928
69.8039 41.7895 0.0282822
72.4056 39.8022 0.0180804
75 37.5 0
72.4887 37.5121 2
70.041 39.657 2
69.4302 43.9071 2
67.5961 41.4967 2
68.2659 48.1066 2
66.7086 45.4389 2
70.1292 37.5213 3.97196
67.8336 39.5118 3.96889
67.2226 43.4692 3.96863
65.5376 41.2076 3.97007
66.0675 47.4171 3.96836
64.6381 44.845 3.96908
72.4134 35.2241 0.0179985
71.8041 30.6762 0.0177921
69.84 33.268 0.0278177
68.9662 29.0378 0.0275583
64.0165 10.9835 0
63.8906 14.3267 0.0139118
63.513 17.4478 0.0244526
67.6114 24.9118 0.0269187
66.1935 27.6346 0.0309569
64.7551 23.8305 0.030293
62.9041 20.3233 0.0301204
62.089 22.9462 0.0313164
60.6843 11.0975 0.0113778
57.6124 11.4478 0.0185894
70.0578 35.3918 2
69.467 31.1494 2
67.6543 33.5908 2
66.7712 29.6228 2
62.3434 12.6565 2
62.1993 15.7841 2
61.8103 18.6879 2
65.5225 25.6995 2
64.1385 28.2573 2
61.2109 21.3466 2
62.8527 24.6394 2
60.4134 23.734 2
59.2466 12.7788 2
56.4047 13.1153 2
55.8746 10.233 2
67.8697 35.5472 3.96908
67.2642 31.6223 3.96891
65.6855 33.9278 3.97024
64.653 30.1936 3.96929
63.5326 26.4161 3.96897
62.2326 28.7826 3.97214
60.7758 14.2237 3.98002
61.0309 25.3436 3.96998
60.6115 17.1301 3.97416
60.2141 19.824 3.96578
59.6458 22.2663 3.96616
58.9545 24.33 3.97041
54.0376 9.13636 3.98465
57.91 14.3345 3.97842
54.7865 12.0148 3.97905
55.3113 14.652 3.97618
67.5074 50.1767 0.0280269
57.0259 66.735 0.00785263
60.6691 63.9772 0.0102721
57.5583 63.6922 0.0160654
65.7015 54.1729 0.0268708
64.5359 51.3841 0.0316208
60.7733 60.9379 0.0204079
60.6567 58.157 0.0287033
62.8177 55.0655 0.0297747
60.3228 55.7795 0.0303635
55.0719 67.932 2
59.2196 62.3675 2
55.8052 64.9114 2
56.3267 62.0908 2
65.3302 49.4072 2
63.703 53.2907 2
62.4339 50.6477 2
59.3327 59.557 2
61.0711 54.3038 2
59.2851 57.0046 2
59.2342 55.1732 2
53.0433 68.9998 3.99261
53.9677 66.0131 3.98772
57.8802 60.8689 3.97796
54.6841 63.2076 3.9825
55.2103 60.6137 3.9772
63.181 48.6567 3.96798
61.7353 52.5707 3.96735
60.2432 50.0084 3.96848
58.0154 58.257 3.97162
59.3175 53.9375 3.96786
58.1182 55.7988 3.96611
50.11 67.8566 3.98824
47.4636 66.5808 3.98553
46.0568 69.1579 3.98837
48.1032 68.5792 2
48.8032 70.7229 3.99281
50.9495 69.9317 2
51.8506 72.1454 4
54.0858 71.1327 2
56.25 69.9759 0
55.1034 7.14031 3.99119
58.3339 6.31992 4
57.0598 8.33619 2
60.3286 7.74926 2
58.9215 9.65579 0.0103664
62.2254 9.30607 0
68.2659 48.1071 0.0282562
69.4303 43.9074 0.0282412
66.7086 45.4391 0.0315497
67.5963 41.4969 0.0312015
70.0411 39.6571 0.0283315
72.4889 37.512 0.0181856
70.129 37.5212 2
67.8335 39.5117 2
67.2225 43.469 2
65.5372 41.2075 2
66.0674 47.417 2
64.6377 44.8448 2
67.9301 37.5216 3.96917
65.7694 39.3687 3.97032
65.1619 43.0225 3.96967
63.706 40.9257 3.97277
63.9488 46.7126 3.96848
62.7694 44.2098 3.97248
70.0578 35.3916 0.0280933
69.4671 31.1491 0.0278998
67.6546 33.5907 0.0309177
66.7712 29.6227 0.0310886
62.3421 12.6547 0.0123843
62.1996 15.7849 0.0211905
61.8106 18.6887 0.0305241
65.5228 25.6994 0.0306963
64.1389 28.2572 0.0307811
62.8531 24.6394 0.0312947
61.2115 21.3466 0.0323196
60.4132 23.7339 0.0314351
59.2465 12.7793 0.0198834
56.4049 13.1163 0.0223817
55.8744 10.2339 0.0167265
67.8696 35.5473 2
67.2641 31.6223 2
65.6853 33.9278 2
64.6527 30.1936 2
60.7757 14.2231 2
60.6111 17.1289 2
60.2141 19.8236 2
63.5323 26.4161 2
62.2318 28.7828 2
59.6474 22.2663 2
61.0307 25.3438 2
58.9541 24.3305 2
57.9095 14.3336 2
55.3108 14.6513 2
54.0378 9.13558 2
54.7865 12.0136 2
65.8591 35.6667 3.97026
65.1711 32.1555 3.96968
64.2488 34.2505 3.97257
62.5531 30.64 3.97248
61.6266 27.0782 3.97078
60.8047 29.1473 3.97528
59.3102 15.6708 3.9775
59.2943 25.8066 3.97311
59.1182 18.3619 3.97065
58.7229 20.8644 3.96452
58.2597 23.1034 3.96635
57.9299 24.6772 3.97215
52.1123 8.15429 3.98579
53.058 11.0197 3.98076
56.6751 15.7473 3.97751
53.8085 13.6867 3.97669
54.3739 16.0072 3.97714
55.0715 67.9319 0.007509
65.3304 49.4073 0.0317428
55.8052 64.9104 0.0132694
59.2194 62.3662 0.0190106
56.3267 62.0894 0.0206159
63.7034 53.2906 0.031395
62.4335 50.6478 0.0325765
59.3326 59.5555 0.0244828
59.2851 57.0049 0.0311348
61.0712 54.3037 0.0309771
59.2344 55.1734 0.0285125
53.0437 68.9998 2
53.9676 66.0138 2
57.88 60.8701 2
54.684 63.2088 2
55.2103 60.6152 2
63.1808 48.6566 2
61.7353 52.5707 2
60.2431 50.0082 2
58.0152 58.2589 2
59.3178 53.9372 2
58.1179 55.7982 2
52.0711 66.9997 3.9881
52.9539 64.2189 3.98453
56.6466 59.4858 3.97578
53.6808 61.6213 3.97993
54.2579 59.3163 3.97587
60.9499 47.87 3.96925
59.6881 52.0944 3.96787
57.9704 49.6 3.97076
56.7707 56.9741 3.96853
57.1026 54.106 3.96672
50.1099 67.8572 2
49.3375 65.9212 3.98541
47.4635 66.5813 2
46.8929 64.7356 3.98397
45.5586 67.0979 3.98554
43.9736 69.5902 3.98841
46.0568 69.1584 2
46.6098 71.3673 3.9928
48.1032 68.5786 0.0116628
48.8036 70.7231 2
49.554 73.0099 4
50.9491 69.9316 0.00728682
51.8506 72.1455 2
54.0858 71.1327 0
53.0647 6.07187 3.99155
55.1041 7.14044 2
56.25 5.02411 4
58.3339 6.3199 2
57.0588 8.33578 0.00956977
60.3285 7.74928 0
66.0675 47.4171 0.0316449
67.2226 43.4692 0.0313732
64.6381 44.845 0.0309226
65.5376 41.2076 0.0299331
67.8336 39.5118 0.0311057
70.1292 37.5213 0.028043
67.9299 37.5216 2
65.7689 39.3686 2
65.1616 43.0224 2
63.7054 40.9256 2
63.9483 46.7124 2
62.7683 44.2096 2
65.8725 37.501 3.9703
63.8447 39.2641 3.97254
63.2813 42.5448 3.97261
62.3575 40.6929 3.97577
61.9277 45.9107 3.97108
61.3859 43.6745 3.97577
67.8697 35.5472 0.0309152
67.2642 31.6223 0.031086
65.6855 33.9278 0.0297628
64.653 30.1936 0.0307052
60.7758 14.2237 0.0199797
60.6115 17.1301 0.0258358
60.2141 19.824 0.0342208
63.5326 26.4161 0.0310298
62.2326 28.7826 0.0278612
61.0309 25.3436 0.0300189
59.6458 22.2663 0.0338417
58.9545 24.33 0.0295939
57.91 14.3345 0.0215751
55.3113 14.652 0.0238192
54.0376 9.13636 0.0153465
54.7865 12.0148 0.0209531
65.8587 35.6666 2
65.1711 32.1555 2
64.2486 34.2504 2
62.5524 30.6402 2
59.3097 15.6699 2
59.1182 18.3608 2
58.7238 20.8646 2
61.6259 27.0784 2
60.8044 29.1475 2
58.2604 23.1038 2
59.2943 25.807 2
57.9301 24.6778 2
56.6744 15.7462 2
54.3731 16.0066 2
53.8083 13.6855 2
52.1124 8.15364 2
53.0579 11.0187 2
64.0433 35.6322 3.97209
62.8758 33.0487 3.97315
60.5502 30.6186 3.97557
59.5185 27.92 3.9744
57.9367 16.9881 3.97576
57.6898 25.7394 3.97479
57.7029 19.4866 3.96761
57.3417 21.8545 3.96329
57.1423 23.9618 3.96883
50.1125 7.28539 3.98701
51.2328 10.1269 3.98234
52.1716 12.8019 3.97888
55.534 16.9797 3.97714
52.9758 15.2733 3.97498
53.754 16.9909 3.97962
53.0433 68.9998 0.00738787
53.9677 66.0131 0.0122817
63.181 48.6567 0.0320209
54.6841 63.2076 0.0174957
57.8802 60.8689 0.0220368
55.2103 60.6137 0.0227955
61.7353 52.5707 0.0326543
60.2432 50.0084 0.031516
58.0154 58.257 0.0283804
58.1182 55.7988 0.0338899
59.3175 53.9375 0.0321405
52.071 67.0003 2
52.9536 64.2196 2
56.6463 59.4869 2
53.6807 61.6227 2
54.258 59.3178 2
60.9488 47.8696 2
59.6891 52.0943 2
57.9685 49.5992 2
56.7701 56.9787 2
57.102 54.1055 2
51.1685 65.1281 3.98524
52.0464 62.5385 3.9822
55.477 58.2448 3.97656
52.8329 60.1326 3.97801
53.6357 58.4661 3.97929
58.2298 46.832 3.97382
57.5291 51.7702 3.96826
56.1726 49.5337 3.97075
55.4588 55.7725 3.96526
55.3277 53.3628 3.96477
50.11 67.8566 0.0117567
49.3373 65.9217 2
48.6187 64.1223 3.98413
47.4636 66.5808 0.014466
45.5586 67.0984 2
46.8928 64.7361 2
46.3826 63.0523 3.98339
45.1331 65.1966 3.98393
43.6317 67.4685 3.9856
41.8607 69.8776 3.98828
43.9736 69.5906 2
44.3771 71.8622 3.99269
46.0568 69.1579 0.0116252
46.6101 71.3676 2
47.2057 73.7222 4
48.8032 70.7229 0.00719461
49.554 73.0099 2
51.8506 72.1454 0
50.9546 5.13203 3.99206
53.0652 6.07184 2
54.0858 3.86728 4
55.1034 7.14031 0.00880728
56.25 5.02406 2
58.3339 6.31992 0
63.9488 46.7126 0.0315198
65.1619 43.0225 0.0303286
62.7694 44.2098 0.0275246
63.706 40.9257 0.0272337
65.7694 39.3687 0.0296785
67.9301 37.5216 0.0308292
65.872 37.5009 2
63.8439 39.264 2
63.2805 42.5447 2
62.3566 40.6928 2
61.9266 45.9104 2
61.3847 43.6741 2
63.9066 37.4557 3.97211
62.072 39.3517 3.97451
61.1358 41.9504 3.97565
60.1854 44.7588 3.97532
65.8591 35.6667 0.0297419
65.1711 32.1555 0.0303221
64.2488 34.2505 0.0274297
62.5531 30.64 0.0275161
59.3102 15.6708 0.0225033
59.1182 18.3619 0.0293544
58.7229 20.8644 0.0354834
61.6266 27.0782 0.029224
60.8047 29.1473 0.0247176
59.2943 25.8066 0.0268888
58.2597 23.1034 0.0336547
57.9299 24.6772 0.0278504
56.6751 15.7473 0.0224914
54.3739 16.0072 0.0228592
53.8085 13.6867 0.0233065
52.1123 8.15429 0.0142096
53.058 11.0197 0.0192415
64.0428 35.6322 2
62.8749 33.0487 2
60.55 30.6188 2
57.9362 16.987 2
57.7032 19.485 2
57.3424 21.8548 2
59.5178 27.9204 2
57.1419 23.9625 2
57.6907 25.7401 2
50.1126 7.28476 2
55.5333 16.9787 2
53.7532 16.99 2
52.9753 15.2721 2
52.1714 12.801 2
51.2327 10.1262 2
62.1066 35.3603 3.97369
60.1989 32.751 3.97575
58.5373 30.0872 3.9764
57.2187 27.3967 3.97571
56.6297 18.1642 3.97549
56.2324 25.1199 3.97222
56.3363 20.5372 3.96492
56.0645 22.8876 3.96353
48.0565 6.52783 3.98816
49.3248 9.33335 3.98319
50.4332 11.998 3.98024
51.3761 14.5054 3.97614
54.4079 17.9306 3.97815
52.3568 17.0505 3.97424
52.0711 66.9997 0.0119031
52.9539 64.2189 0.0154707
60.9499 47.87 0.0307501
53.6808 61.6213 0.0200663
56.6466 59.4858 0.0242162
54.2579 59.3163 0.0241277
59.6881 52.0944 0.0321261
57.9704 49.6 0.0292426
56.7707 56.9741 0.0314693
57.1026 54.106 0.0332846
51.1683 65.1287 2
52.0461 62.5394 2
55.4768 58.2458 2
52.8329 60.1343 2
53.6356 58.4667 2
58.2288 46.8313 2
57.5291 51.7697 2
56.1714 49.5331 2
55.4592 55.7736 2
55.3283 53.363 2
50.3468 63.3806 3.98366
51.2437 60.9338 3.97963
54.2116 57.261 3.97607
52.309 58.6272 3.97645
56.5833 44.1603 3.97766
55.3957 47.8715 3.97286
55.024 51.3696 3.96749
53.9801 54.5202 3.96577
49.3375 65.9212 0.0145897
48.6185 64.1228 2
47.9627 62.4738 3.98323
45.5586 67.0979 0.014458
46.8929 64.7356 0.0160349
43.6317 67.4691 2
46.3825 63.0528 2
45.133 65.1972 2
45.9882 61.5842 3.98331
44.7679 63.4526 3.98291
43.3571 65.506 3.98385
41.6638 67.6872 3.98529
39.7024 70.0246 3.98841
41.8608 69.8781 2
42.1113 72.2071 3.99263
43.9736 69.5902 0.0115878
44.3773 71.8625 2
44.8159 74.2794 4
46.6098 71.3673 0.00719722
47.2057 73.7222 2
49.554 73.0099 0
48.7851 4.32278 3.99254
50.955 5.13185 2
51.8506 2.85458 4
53.0647 6.07187 0.00845054
54.0858 3.86728 2
56.25 5.02411 0
61.9277 45.9107 0.0289162
63.2813 42.5448 0.0273948
61.3859 43.6745 0.0242339
62.3575 40.6929 0.0242346
63.8447 39.2641 0.0274633
65.8725 37.501 0.029703
63.9059 37.4556 2
62.0711 39.3516 2
61.1348 41.9501 2
60.1842 44.7584 2
61.9097 37.4433 3.97375
60.14 39.8399 3.97706
58.8814 42.9036 3.97708
64.0433 35.6322 0.0279055
62.8758 33.0487 0.0268495
60.5502 30.6186 0.0244338
57.9367 16.9881 0.0242448
57.7029 19.4866 0.0323913
57.3417 21.8545 0.0367072
59.5185 27.92 0.0256039
57.6898 25.7394 0.025208
57.1423 23.9618 0.0311668
55.534 16.9797 0.0228551
53.754 16.9909 0.0203809
52.9758 15.2733 0.0250191
50.1125 7.28539 0.0129916
52.1716 12.8019 0.0211196
51.2328 10.1269 0.0176613
62.1054 35.3603 2
60.1975 32.7512 2
58.537 30.0877 2
56.6292 18.163 2
56.3367 20.5343 2
56.0657 22.8883 2
57.2204 27.3973 2
56.2347 25.1206 2
48.0565 6.52706 2
49.3248 9.33271 2
54.4075 17.9297 2
52.3558 17.0498 2
51.3754 14.5042 2
50.4329 11.9975 2
59.7833 35.1225 3.97683
57.8692 32.2828 3.97686
56.4504 29.3579 3.97719
55.3587 26.622 3.97568
55.3295 19.199 3.97436
54.8692 24.0802 3.96663
54.9685 21.5828 3.96355
45.9625 5.88256 3.98882
43.3741 7.4739 3.98578
47.3554 8.62567 3.9844
48.6002 11.2978 3.98099
49.7127 13.7493 3.97941
50.6303 16.1432 3.9771
53.1145 18.6743 3.97373
51.293 18.0641 3.98055
51.1685 65.1281 0.0147642
52.0464 62.5385 0.0178032
58.2298 46.832 0.0261824
52.8329 60.1326 0.0219861
55.477 58.2448 0.0234364
53.6357 58.4661 0.0207115
57.5291 51.7702 0.0317422
56.1726 49.5337 0.0292516
55.4588 55.7725 0.0347446
55.3277 53.3628 0.0352343
50.3464 63.3811 2
51.2434 60.9348 2
54.2115 57.262 2
52.3088 58.6278 2
56.5826 44.1596 2
55.3944 47.8707 2
55.0241 51.3694 2
53.9808 54.5216 2
49.5922 61.7438 3.98225
55.4507 41.6801 3.97678
50.5646 59.3253 3.97587
52.1734 56.4805 3.97024
54.0359 45.5308 3.97629
53.2402 49.3023 3.97053
52.6255 52.8264 3.96595
48.6187 64.1223 0.0158711
47.9625 62.4741 2
47.3295 61.0074 3.98343
43.6317 67.4685 0.0144008
45.1331 65.1966 0.0160668
46.3826 63.0523 0.0166057
41.6638 67.6876 2
43.357 65.5068 2
45.9882 61.5848 2
44.7678 63.4533 2
45.7665 60.6281 3.98155
44.4843 61.8329 3.98253
43.1471 63.7248 3.98245
41.5466 65.6435 3.98308
39.6329 67.7667 3.98491
37.5259 70.0496 3.98823
39.7024 70.0252 2
39.818 72.4041 3.99246
41.8607 69.8776 0.0117223
42.1116 72.2074 2
42.3947 74.6792 4
44.3771 71.8622 0.00730769
44.8159 74.2794 2
47.2057 73.7222 0
43.8519 5.35933 3.98898
46.5711 3.64719 3.99276
48.7854 4.32249 2
49.554 1.99015 4
50.9546 5.13203 0.0079417
51.8506 2.85453 2
54.0858 3.86728 0
60.1854 44.7588 0.0246778
61.1358 41.9504 0.0243494
62.072 39.3517 0.0254872
63.9066 37.4557 0.0278881
61.9087 37.4432 2
60.1389 39.8396 2
58.8804 42.9032 2
59.6377 37.564 3.97796
57.8491 40.6415 3.97768
54.8906 39.6962 3.97664
62.1066 35.3603 0.0263106
60.1989 32.751 0.0242529
58.5373 30.0872 0.0235982
56.6297 18.1642 0.0245065
56.3363 20.5372 0.03508
56.0645 22.8876 0.0364716
57.2187 27.3967 0.0242905
56.2324 25.1199 0.027781
54.4079 17.9306 0.0218465
52.3568 17.0505 0.0257571
51.3761 14.5054 0.0238614
48.0565 6.52783 0.0118447
49.3248 9.33335 0.0168057
50.4332 11.998 0.0197595
59.7811 35.1226 2
45.9625 5.88212 2
43.374 7.47347 2
57.8696 32.2835 2
56.4504 29.3587 2
55.3293 19.1982 2
54.9697 21.5819 2
54.8689 24.0817 2
55.354 26.6233 2
47.3554 8.62458 2
48.6 11.2972 2
53.1144 18.6733 2
51.2924 18.0634 2
50.6295 16.1424 2
49.7121 13.7489 2
57.2337 34.7713 3.97762
55.5989 31.5394 3.97809
54.3805 28.4348 3.97835
53.701 25.5261 3.97313
53.9501 20.1523 3.97388
53.5333 22.7391 3.95907
41.3992 7.0791 3.98634
45.3602 7.99569 3.98588
42.8661 9.41751 3.98319
46.6669 10.6567 3.98185
47.7447 13.1077 3.98094
48.9292 15.4091 3.97711
49.9997 17.7119 3.97778
51.6346 19.3403 3.98075
50.3468 63.3806 0.0163418
51.2437 60.9338 0.0203715
56.5833 44.1603 0.0223415
55.3957 47.8715 0.0271436
52.309 58.6272 0.0235505
54.2116 57.261 0.0239332
55.024 51.3696 0.0325096
53.9801 54.5202 0.0342303
49.5917 61.7441 2
55.4506 41.6798 2
50.5644 59.3263 2
52.1732 56.4812 2
54.0399 45.53 2
53.2436 49.3022 2
52.6273 52.826 2
48.848 60.2002 3.98049
52.3136 42.605 3.97993
49.7832 57.6178 3.97589
50.5649 54.4108 3.96705
51.6729 47.2363 3.97593
51.1424 50.9211 3.96403
47.956 43.7585 3.99084
47.9627 62.4738 0.016767
47.3295 61.0078 2
46.6184 59.7932 3.98266
41.6638 67.6872 0.0147055
43.3571 65.506 0.0161508
44.7679 63.4526 0.0170917
45.9882 61.5842 0.0166899
39.633 67.7675 2
41.5464 65.6437 2
45.7662 60.6288 2
43.1471 63.7254 2
44.4842 61.8335 2
44.6233 60.29 3.98237
42.9513 62.0805 3.98091
41.6005 63.8177 3.98243
39.6479 65.611 3.9822
37.5634 67.7488 3.98472
31.6967 65.1295 3.98294
33.3921 67.4861 3.98451
35.3334 69.9595 3.98821
37.526 70.0502 2
37.5095 72.4587 3.99232
39.7024 70.0246 0.0115868
39.8181 72.4045 2
39.9526 74.9197 4
42.1113 72.2071 0.00737108
42.3947 74.6792 2
44.8159 74.2794 0
41.7365 4.96847 3.98932
43.8519 5.35885 2
44.3263 3.11025 3.99311
46.5713 3.64698 2
47.2057 1.27793 4
48.7851 4.32278 0.00746455
49.554 1.99013 2
51.8506 2.85458 0
58.8814 42.9036 0.0229235
60.14 39.8399 0.0229391
61.9097 37.4433 0.0262458
59.6364 37.564 2
57.8478 40.641 2
54.8914 39.6947 2
56.6371 37.8867 3.97799
49.347 41.3093 3.98948
52.9122 39.3031 3.98312
39.4427 6.80266 3.98639
59.7833 35.1225 0.0231662
57.8692 32.2828 0.0231401
56.4504 29.3579 0.0228051
55.3295 19.199 0.0256407
54.9685 21.5828 0.0364452
54.8692 24.0802 0.0333684
55.3587 26.622 0.0243225
53.1145 18.6743 0.0262651
51.293 18.0641 0.0194512
50.6303 16.1432 0.0228996
45.9625 5.88256 0.0111774
49.7127 13.7493 0.0205851
47.3554 8.62567 0.0155981
48.6002 11.2978 0.0190105
43.3741 7.4739 0.014225
57.2308 34.7713 2
41.3992 7.07863 2
45.3601 7.99531 2
42.8658 9.41708 2
55.6002 31.5403 2
54.3777 28.436 2
53.9504 20.152 2
53.534 22.7364 2
53.6988 25.5275 2
46.6667 10.6552 2
47.7442 13.1069 2
51.6346 19.3395 2
49.9989 17.711 2
48.9283 15.4088 2
54.6818 33.9744 3.97688
53.3371 30.5197 3.97809
52.48 27.2396 3.97506
52.0784 24.1343 3.97437
52.362 21.0753 3.97751
41.014 9.0502 3.9834
44.7247 9.99689 3.98348
42.4689 10.9051 3.9836
46.005 12.7352 3.97923
47.6793 14.5916 3.97743
48.1071 16.9964 3.97607
49.8081 19.6599 3.97685
49.5922 61.7438 0.0177473
50.5646 59.3253 0.0241313
55.4507 41.6801 0.0232162
54.0359 45.5308 0.0237087
53.2402 49.3023 0.0294719
52.1734 56.4805 0.0297596
52.6255 52.8264 0.0340463
48.8478 60.1998 2
52.32 42.6049 2
49.7829 57.6187 2
50.5651 54.4117 2
51.6762 47.236 2
51.1442 50.9202 2
47.9621 43.7729 2
47.9839 58.7386 3.97899
49.9047 45.2432 3.97932
48.5825 55.9093 3.97715
49.0825 52.5728 3.97279
49.5709 49.0189 3.97044
45.7514 39.8585 3.88829
46.1945 42.6373 3.92723
46.322 45.8008 3.99001
43.5794 41.1368 3.82505
41.9058 42.0096 3.71788
47.3295 61.0074 0.0165708
46.6179 59.7938 2
45.4667 58.7897 3.98149
39.6329 67.7667 0.0150894
41.5466 65.6435 0.0169176
43.1471 63.7248 0.0175475
44.4843 61.8329 0.017475
45.7665 60.6281 0.0184545
41.6005 63.818 2
37.5635 67.7496 2
39.6478 65.6117 2
44.623 60.2905 2
42.9513 62.081 2
41.7541 62.4913 3.98129
42.4806 59.9791 3.98208
39.8942 63.5514 3.98127
37.6423 65.51 3.98261
35.4635 67.6579 3.98453
33.5752 65.3426 3.9824
31.9591 63.3004 3.98238
29.8827 64.7208 3.98373
31.6967 65.1303 2
31.3767 67.1961 3.98478
33.3922 67.4868 2
33.1563 69.7529 3.988
35.3334 69.9603 2
35.1947 72.373 3.99227
37.5259 70.0496 0.011768
37.5095 72.4591 2
37.5 75 4
39.818 72.4041 0.00753871
39.9526 74.9197 2
42.3947 74.6792 0
39.6242 4.71576 3.98958
41.7365 4.96799 2
42.0626 2.71778 3.99323
43.8519 5.35933 0.0110237
44.3265 3.10995 2
44.8158 0.721173 4
46.5711 3.64719 0.00724081
47.2057 1.27779 2
49.554 1.99015 0
57.8491 40.6415 0.0223229
59.6377 37.564 0.0220437
54.8906 39.6962 0.0233596
49.3638 41.3126 2
56.6353 37.887 2
52.9138 39.3019 2
53.7588 36.6309 3.97701
47.2732 40.3833 3.93492
50.288 38.5086 3.99327
37.5166 6.67388 3.98651
39.4427 6.80209 2
39.2115 8.69288 3.98415
35.9424 8.49299 3.98426
57.2337 34.7713 0.0223822
55.5989 31.5394 0.0219084
54.3805 28.4348 0.0216485
53.9501 20.1523 0.0261175
53.5333 22.7391 0.0409267
53.701 25.5261 0.0268742
51.6346 19.3403 0.019245
49.9997 17.7119 0.0222249
48.9292 15.4091 0.022885
45.3602 7.99569 0.014119
47.7447 13.1077 0.0190645
46.6669 10.6567 0.0181513
41.3992 7.0791 0.0136634
42.8661 9.41751 0.0168135
54.6822 33.974 2
41.0138 9.04997 2
44.7242 9.99669 2
42.4685 10.9051 2
53.3336 30.5183 2
52.4849 27.241 2
52.3627 21.0744 2
52.0801 24.1353 2
46.0045 12.733 2
47.6786 14.5906 2
49.8082 19.6581 2
48.1061 16.996 2
52.2428 32.8917 3.98024
51.1598 29.1944 3.97665
50.6895 25.7718 3.97207
49.9126 22.2432 3.9782
40.5702 11.6102 3.98067
43.8587 11.9201 3.97998
45.7996 15.4299 3.98071
47.4977 19.2737 3.97728
46.0898 37.4859 3.89553
48.848 60.2002 0.019511
49.7832 57.6178 0.0241089
52.3136 42.605 0.0200709
51.6729 47.2363 0.0240702
51.1424 50.9211 0.035971
50.5649 54.4108 0.0329452
47.956 43.7585 0.00915864
47.9834 58.7394 2
49.9119 45.2481 2
48.5818 55.9112 2
49.0826 52.5752 2
49.5741 49.0189 2
45.7791 39.8657 2
46.2152 42.6533 2
46.322 45.7956 2
43.6029 41.158 2
41.9175 42.0195 2
46.8326 57.3406 3.98284
44.3268 39.4189 3.82566
42.2547 40.8729 3.76052
47.9322 47.2084 3.97646
47.1418 54.2287 3.97464
47.5186 50.7268 3.96603
44.6758 47.386 3.98257
44.8539 41.9433 3.88358
44.7955 44.534 3.94233
42.4362 42.6513 3.83361
40.8149 42.348 3.7514
46.6184 59.7932 0.017342
45.4661 58.7903 2
43.8728 57.7129 3.9843
37.5634 67.7488 0.0152828
39.6479 65.611 0.017795
41.6005 63.8177 0.0175668
42.9513 62.0805 0.0190859
44.6233 60.29 0.0176306
35.4635 67.659 2
41.7542 62.4917 2
39.8941 63.5519 2
37.6424 65.5107 2
42.4804 59.9794 2
40.6237 61.6479 3.98169
40.4428 58.2068 3.98094
37.8373 63.2129 3.98073
35.5729 65.4315 3.98217
33.5753 65.3431 2
31.9589 63.3012 2
33.6288 63.3397 3.98174
30.378 62.8594 3.98272
32.1229 62.006 3.98295
26.8682 61.5022 3.98191
28.0616 64.1487 3.98336
29.8828 64.7216 2
29.406 66.7599 3.98503
31.6967 65.1295 0.0170641
31.3767 67.1968 2
31.0136 69.4178 3.98798
33.3921 67.4861 0.0154883
33.1563 69.7535 2
32.8916 72.1472 3.99231
35.3334 69.9595 0.0117878
35.1947 72.3735 2
35.0474 74.9194 4
37.5095 72.4587 0.0076772
37.5 75 2
39.9526 74.9197 0
35.6212 6.72495 3.98616
37.5236 4.61531 3.98962
39.6242 4.7152 2
39.789 2.47423 3.99325
41.7365 4.96847 0.0106808
42.0627 2.71747 2
42.3946 0.32156 4
44.3263 3.11025 0.00688819
44.8159 0.72056 2
47.2057 1.27793 0
49.347 41.3093 0.010521
56.6371 37.8867 0.0220137
52.9122 39.3031 0.0168767
47.2903 40.3975 2
50.3003 38.5065 2
53.766 36.6324 2
51.0802 35.5733 3.97868
47.9321 37.7423 3.94762
45.752 35.1314 3.88909
43.5859 33.8507 3.82163
41.9151 32.9883 3.71443
37.4584 8.53463 3.98452
37.5165 6.67316 2
39.4427 6.80266 0.0136098
39.2114 8.69228 2
38.977 10.1273 3.9832
35.8992 9.77399 3.98263
34.151 8.82265 3.98378
35.9421 8.4922 2
54.6818 33.9744 0.0231229
53.3371 30.5197 0.0219146
52.48 27.2396 0.0249392
52.362 21.0753 0.0224913
52.0784 24.1343 0.0256285
49.8081 19.6599 0.0231503
48.1071 16.9964 0.0239272
47.6793 14.5916 0.0225659
44.7247 9.99689 0.01652
46.005 12.7352 0.0207658
41.014 9.0502 0.0166041
42.4689 10.9051 0.0163962
52.2474 32.8923 2
40.5702 11.6108 2
43.8577 11.9202 2
51.1731 29.1951 2
50.6929 25.7737 2
49.913 22.2412 2
45.7986 15.427 2
47.4971 19.274 2
49.7765 31.4315 3.98129
49.1562 27.5419 3.97524
49.3379 24.4573 3.98575
47.1695 22.0132 3.97376
38.3031 12.7381 3.97954
42.1019 14.3096 3.9784
44.7967 18.4796 3.97688
44.6287 37.493 3.82915
46.1347 37.4919 2
47.9839 58.7386 0.0210141
48.5825 55.9093 0.0228466
49.9047 45.2432 0.0206779
49.5709 49.0189 0.0295575
49.0825 52.5728 0.0272082
45.7514 39.8585 0.111714
46.1945 42.6373 0.0727696
46.322 45.8008 0.00998631
43.5794 41.1368 0.17495
41.9058 42.0096 0.28212
46.8317 57.3417 2
44.3472 39.4342 2
42.2444 40.8747 2
47.9318 47.2114 2
47.1412 54.2329 2
47.5196 50.7296 2
44.68 47.3635 2
44.875 41.9586 2
44.8092 44.5513 2
42.4711 42.6764 2
40.8151 42.3471 2
45.3866 55.9323 3.99
42.5753 39.2694 3.77251
40.7131 40.7876 3.84323
45.9941 48.8914 3.98338
45.4956 52.5209 3.98145
43.3535 48.4107 4.00057
43.2982 46.0838 3.92977
43.5204 43.7345 3.88101
41.0145 43.8 3.82775
39.2779 42.6892 3.76647
45.4667 58.7897 0.0185128
43.8722 57.7132 2
42.1017 56.3348 3.98672
35.4635 67.6579 0.0154674
37.6423 65.51 0.0173866
39.8942 63.5514 0.0187327
41.7541 62.4913 0.0187121
42.4806 59.9791 0.0179198
35.5731 65.4328 2
40.6237 61.6485 2
37.8372 63.2134 2
40.4423 58.2073 2
38.9217 56.4982 3.98851
38.2505 60.3299 3.98044
35.607 63.2053 3.98023
33.5752 65.3426 0.0176034
31.9591 63.3004 0.0176175
33.6286 63.3405 2
30.3779 62.86 2
32.1228 62.0068 2
28.6806 62.2041 3.9824
33.3457 61.5178 3.98218
31.0662 61.2231 3.98217
27.5681 59.5977 3.98113
23.7927 59.0846 3.98075
25.034 60.8747 3.98099
26.8683 61.5028 2
26.2282 63.4808 3.9833
28.0617 64.1493 2
27.4625 66.1839 3.98512
29.8827 64.7208 0.0162658
29.4061 66.7606 2
28.9058 68.9436 3.98792
31.3767 67.1961 0.0152192
31.0136 69.4186 2
30.6139 71.7781 3.99234
33.1563 69.7529 0.0119964
32.8915 72.1476 2
32.6054 74.6784 4
35.1947 72.373 0.00773071
35.0474 74.9197 2
37.5 75 0
33.7239 6.97969 3.9857
35.4352 4.68554 3.98943
35.621 6.72432 2
37.5144 2.38684 3.99324
37.5236 4.61478 2
39.6242 4.71576 0.0104232
39.789 2.47389 2
39.9526 0.0806499 4
42.0626 2.71778 0.00676939
42.3947 0.320817 2
44.8158 0.721173 0
44.3419 35.5665 3.82068
42.2657 34.1167 3.7563
47.2732 40.3833 0.0650814
50.288 38.5086 0.00672541
53.7588 36.6309 0.0229918
47.9441 37.7484 2
51.0918 35.5744 2
45.7731 35.1167 2
43.6123 33.831 2
41.9258 32.9783 2
48.1057 34.3066 3.97287
44.8599 33.0422 3.87559
42.4512 32.3474 3.83017
40.8261 32.6527 3.74919
37.3114 10.6314 3.98182
37.4583 8.5336 2
37.5166 6.67388 0.0134927
39.2115 8.69288 0.0158514
38.9772 10.1267 2
34.7545 10.3804 3.98172
35.8991 9.77316 2
32.3778 9.36978 3.98285
34.1507 8.82202 2
35.9424 8.49299 0.015745
52.2428 32.8917 0.0197581
51.1598 29.1944 0.0233526
50.6895 25.7718 0.0279266
49.9126 22.2432 0.0218018
47.4977 19.2737 0.022725
45.7996 15.4299 0.0192887
43.8587 11.9201 0.0200205
40.5702 11.6102 0.0193289
49.7872 31.4286 2
38.3028 12.737 2
42.1012 14.3118 2
49.1603 27.5429 2
49.3401 24.4547 2
47.1682 22.0101 2
44.796 18.4876 2
47.6166 29.5349 3.98876
47.0323 25.2015 3.9837
44.2783 21.385 3.97572
36.583 12.9349 3.97915
38.6823 14.8122 3.97809
41.7479 17.8543 3.97787
42.6926 37.4858 3.7822
44.6463 37.4936 2
46.0898 37.4859 0.104467
46.8326 57.3406 0.0171592
47.1418 54.2287 0.0253562
47.9322 47.2084 0.023545
47.5186 50.7268 0.0339737
44.3268 39.4189 0.174338
44.8539 41.9433 0.11642
44.7955 44.534 0.0576685
44.6758 47.386 0.0174265
42.4362 42.6513 0.166393
42.2547 40.8729 0.239475
40.8149 42.348 0.2486
45.3859 55.9326 2
42.5675 39.2679 2
40.7004 40.7774 2
45.9933 48.896 2
45.496 52.5257 2
43.3553 48.4295 2
43.3252 46.1102 2
43.5432 43.7573 2
41.0394 43.8266 2
39.2693 42.6789 2
43.7219 54.4413 3.99682
40.8111 39.1626 3.87475
39.148 40.8691 3.86864
43.6317 50.4666 4.00232
41.9038 47.6292 3.96318
41.8315 45.1579 3.88636
39.343 44.5161 3.83801
37.4982 42.7967 3.78696
43.8728 57.7129 0.0157022
42.1011 56.3353 2
40.4114 54.9406 3.99084
35.5729 65.4315 0.0178278
37.8373 63.2129 0.0192701
40.6237 61.6479 0.0183067
40.4428 58.2068 0.019058
35.6069 63.2066 2
38.2506 60.3305 2
38.921 56.4988 2
37.998 55.2501 3.98905
36.9334 57.6274 3.98063
35.3636 60.9147 3.9814
33.6288 63.3397 0.0182615
30.378 62.8594 0.0172825
32.1229 62.006 0.0170542
33.3457 61.5188 2
28.6806 62.2046 2
31.0662 61.2238 2
29.4028 60.2917 3.9812
32.3573 59.7499 3.98542
28.0245 58.3779 3.98675
27.5683 59.5982 2
25.3796 58.5963 3.97905
22.7591 58.2407 3.97278
23.4003 60.3538 3.97942
23.7928 59.0855 2
25.0341 60.8755 2
24.431 62.7731 3.98285
26.8682 61.5022 0.0180855
26.2284 63.4815 2
25.5465 65.4938 3.98495
28.0616 64.1487 0.0166368
27.4625 66.1844 2
26.8353 68.332 3.98794
29.406 66.7599 0.0149659
28.9058 68.9441 2
28.3689 71.2633 3.99244
31.0136 69.4178 0.0120159
30.6137 71.7785 2
30.1842 74.2788 4
32.8916 72.1472 0.00768564
32.6053 74.6792 2
35.0474 74.9194 0
31.7884 7.41978 3.9851
33.3474 4.92477 3.98909
33.7237 6.97904 2
35.2445 2.46292 3.99323
35.4351 4.68506 2
35.6212 6.72495 0.013835
37.5 0 4
37.5143 2.38653 2
37.5236 4.61531 0.0103841
39.789 2.47423 0.00675304
39.9526 0.0802889 2
42.3946 0.32156 0
42.5783 35.7093 3.77423
44.3562 35.5534 2
40.7228 34.2089 3.84144
42.2545 34.1166 2
47.9321 37.7423 0.0523823
51.0802 35.5733 0.0213226
45.752 35.1314 0.110906
43.5859 33.8507 0.178373
41.9151 32.9883 0.285572
48.1219 34.2867 2
44.8819 33.0289 2
42.4779 32.3251 2
40.8254 32.6528 2
46.1315 31.573 3.94778
43.5186 31.2632 3.88088
41.0234 31.2001 3.82767
39.2871 32.3163 3.76566
35.6932 11.7774 3.98043
37.3116 10.6301 2
37.4584 8.53463 0.015475
38.977 10.1273 0.016801
33.0985 11.218 3.98021
34.7544 10.3796 2
35.8992 9.77399 0.0173686
30.4825 10.0182 3.98214
32.3775 9.36932 2
34.151 8.82265 0.0162198
49.7765 31.4315 0.0187071
49.1562 27.5419 0.0247629
49.3379 24.4573 0.0142541
47.1695 22.0132 0.0262423
44.7967 18.4796 0.0231166
42.1019 14.3096 0.0216026
38.3031 12.7381 0.0204613
36.5826 12.9338 2
47.6207 29.5183 2
38.6812 14.8112 2
41.7469 17.8605 2
47.0363 25.1991 2
44.2767 21.3699 2
45.4315 27.6659 4.00119
43.7605 24.112 4.0034
41.3357 20.76 3.97933
35.7731 14.7636 3.97798
38.682 17.6035 3.97799
40.8583 37.4799 3.88395
42.6931 37.4873 2
44.6287 37.493 0.170854
45.3866 55.9323 0.00999705
45.4956 52.5209 0.0185546
45.9941 48.8914 0.0166181
42.5753 39.2694 0.227486
43.5204 43.7345 0.118992
43.2982 46.0838 0.070226
43.3535 48.4107 -0.000572486
41.0145 43.8 0.172255
40.7131 40.7876 0.156767
39.2779 42.6892 0.233532
43.7212 54.4415 2
40.7963 39.156 2
39.1361 40.8538 2
43.6302 50.4815 2
41.8939 47.6455 2
41.8537 45.1807 2
37.4985 42.7846 2
39.3599 44.5357 2
41.8613 53.0128 3.99335
39.162 39.1643 3.90393
37.4972 40.9076 3.88549
35.723 42.6919 3.76666
40.8674 49.6839 3.99924
39.8062 46.0499 3.86883
37.4964 44.7403 3.82463
42.1017 56.3348 0.0132839
40.4111 54.9412 2
38.7259 53.859 3.99506
35.607 63.2053 0.0197704
38.2505 60.3299 0.0195642
38.9217 56.4982 0.0114919
35.3636 60.9158 2
36.9333 57.6284 2
37.9975 55.2491 2
36.32 55.3656 3.98911
34.4884 58.5253 3.98621
33.3457 61.5178 0.0178182
28.6806 62.2041 0.0175984
31.0662 61.2231 0.0178292
32.3572 59.7509 2
29.4029 60.2919 2
30.3013 57.823 3.98506
28.0246 58.3785 2
26.9519 56.8287 3.97848
27.5681 59.5977 0.0188727
25.3796 58.5972 2
23.846 56.7986 3.9709
21.3383 57.3951 3.9721
21.9941 59.6244 3.97844
22.759 58.2423 2
22.7351 62.0241 3.98152
23.4004 60.3547 2
23.7927 59.0846 0.0192486
25.034 60.8747 0.0190128
24.4312 62.7739 2
23.6805 64.7119 3.98465
26.2282 63.4808 0.0166958
25.5466 65.4945 2
24.8075 67.5932 3.98784
27.4625 66.1839 0.0148759
26.8353 68.3326 2
26.1641 70.604 3.99252
28.9058 68.9436 0.0120776
28.3686 71.2636 2
27.7943 73.7221 4
30.6139 71.7781 0.00766278
30.1841 74.2794 2
32.6054 74.6784 0
29.8109 7.99329 3.98434
31.2526 5.33194 3.98844
31.7882 7.41916 2
32.9802 2.70114 3.99301
33.3472 4.9242 2
33.7239 6.97969 0.014301
35.0474 0.080333 4
35.2444 2.46265 2
35.4352 4.68554 0.0105679
37.5 0 2
37.5144 2.38684 0.00675729
39.9526 0.0806499 0
40.812 35.8105 3.87614
42.5698 35.7122 2
44.3419 35.5665 0.179317
28.5432 10.694 3.98158
39.1552 34.135 3.86795
40.7081 34.2188 2
42.2657 34.1167 0.243703
48.1057 34.3066 0.0271294
44.8599 33.0422 0.124414
42.4512 32.3474 0.169831
40.8261 32.6527 0.250806
46.1548 31.5635 2
43.5351 31.2448 2
41.0467 31.1739 2
39.2791 32.3258 2
44.3179 29.7705 3.93826
41.8458 29.8426 3.88823
39.3611 30.4841 3.83786
37.5098 32.2129 3.78635
34.0936 12.9369 3.97915
35.6932 11.7763 2
37.3114 10.6314 0.0181848
31.1864 11.9867 3.98041
33.0985 11.2175 2
34.7545 10.3804 0.018276
30.4823 10.0176 2
32.3778 9.36978 0.0171496
47.6166 29.5349 0.0112414
47.0323 25.2015 0.0163048
36.583 12.9349 0.020848
44.2783 21.385 0.0242767
41.7479 17.8543 0.0221282
38.6823 14.8122 0.0219133
35.7726 14.7632 2
45.4352 27.6651 2
38.6803 17.6058 2
41.3335 20.7471 2
43.7618 24.0994 2
33.6091 15.8815 3.97734
42.9831 26.5096 3.99697
40.8946 23.3275 4.00805
38.4172 20.3732 3.97557
35.8496 17.519 3.97791
39.176 37.4835 3.91574
40.8414 37.4783 2
42.6926 37.4858 0.217804
43.7219 54.4413 0.0031836
43.6317 50.4666 -0.0023216
40.8111 39.1626 0.125252
41.8315 45.1579 0.113645
41.9038 47.6292 0.0368245
39.343 44.5161 0.161994
39.148 40.8691 0.131359
37.4982 42.7967 0.213038
41.8636 53.0118 2
39.1465 39.1624 2
37.4965 40.8923 2
40.8854 49.6963 2
35.7293 42.6817 2
39.83 46.0774 2
37.4933 44.7557 2
39.7976 51.9077 3.99529
37.4962 39.1836 3.92106
35.845 40.8816 3.86741
34.1811 42.3488 3.75034
35.6407 44.5243 3.83548
38.6747 48.6976 3.97954
37.4925 46.3565 3.87413
40.4114 54.9406 0.0091613
38.727 53.8578 2
36.7328 53.1914 4.00125
35.3636 60.9147 0.0185963
36.9334 57.6274 0.0193746
37.998 55.2501 0.0109548
34.4883 58.5268 2
36.3203 55.3712 2
33.2347 55.5104 3.99147
32.3573 59.7499 0.0145808
29.4028 60.2917 0.0188035
30.3017 57.8233 2
28.7039 55.3181 3.9789
28.0245 58.3779 0.0132491
26.9515 56.8295 2
25.3255 55.1367 3.97392
21.8223 55.3416 3.96755
25.3796 58.5963 0.0209498
23.8456 56.8008 2
20.2242 57.0235 3.97782
20.6468 58.7791 3.97598
21.338 57.3969 2
21.166 61.1726 3.9799
21.994 59.6256 2
22.7591 58.2407 0.0272214
21.894 63.8396 3.98391
22.7353 62.025 2
23.4003 60.3538 0.0205831
24.431 62.7731 0.0171537
23.6806 64.7126 2
22.8357 66.7366 3.98765
25.5465 65.4938 0.0150465
24.8075 67.5938 2
24.0083 69.8052 3.99259
26.8353 68.332 0.0120636
26.1638 70.6043 2
25.446 73.0099 4
28.3689 71.2633 0.0075619
27.7943 73.7222 2
30.1842 74.2788 0
27.8207 8.65316 3.98396
29.1546 5.87773 3.98779
29.8106 7.99258 2
30.7253 3.09834 3.99271
31.2524 5.33143 2
31.7884 7.41978 0.0149008
32.6053 0.320823 4
32.98 2.70082 2
33.3474 4.92477 0.010909
35.0474 0.0802903 2
35.2445 2.46292 0.00677382
37.5 0 0
39.1705 35.815 3.90228
40.7958 35.8161 2
42.5783 35.7093 0.225773
28.5432 10.6935 2
26.6219 11.3895 3.98184
29.2252 12.6437 3.98121
37.503 34.1023 3.88396
39.1413 34.1505 2
40.7228 34.2089 0.158557
46.1315 31.573 0.0522152
43.5186 31.2632 0.119116
41.0234 31.2001 0.172327
39.2871 32.3163 0.234343
44.3381 29.7541 2
41.8626 29.8263 2
39.3768 30.4615 2
37.5112 32.2259 2
42.3231 28.4174 3.91931
39.8501 28.9472 3.88759
37.5211 30.2619 3.82482
35.7362 32.3146 3.76573
31.9154 14.4832 3.97929
34.0936 12.9365 2
35.6932 11.7774 0.0195718
31.1865 11.9863 2
33.0985 11.218 0.0197904
30.4825 10.0182 0.0178585
45.4315 27.6659 -0.00119256
43.7605 24.112 -0.00340155
35.7731 14.7636 0.022022
41.3357 20.76 0.0206746
38.682 17.6035 0.0220071
33.6081 15.882 2
35.8477 17.5186 2
42.9901 26.5067 2
38.4179 20.3686 2
40.8931 23.3137 2
33.5518 17.3934 3.97888
40.3718 25.6685 4.00162
38.0698 22.9245 3.9947
35.5816 20.0931 3.97854
37.4963 37.4953 3.93623
39.1582 37.4843 2
40.8583 37.4799 0.116047
41.8613 53.0128 0.0066532
40.8674 49.6839 0.000757615
39.162 39.1643 0.0960697
39.8062 46.0499 0.131167
37.4964 44.7403 0.175371
37.4972 40.9076 0.114507
35.723 42.6919 0.233341
39.8064 51.9072 2
37.4952 39.1765 2
35.8581 40.8656 2
38.6788 48.7317 2
34.1806 42.3486 2
35.6244 44.5466 2
37.4912 46.382 2
37.6384 50.9808 4.01134
35.8324 39.1833 3.90332
34.2829 40.7997 3.84232
33.0846 42.0123 3.71625
33.9711 43.7925 3.82673
35.1544 46.0321 3.8801
36.8683 48.3359 3.9471
38.7259 53.859 0.00493973
36.7308 53.1967 2
34.3737 52.4666 3.9948
34.4884 58.5253 0.0137933
36.32 55.3656 0.0108939
33.2348 55.5115 2
30.5342 53.3633 3.97869
30.3013 57.823 0.0149426
28.7034 55.3198 2
26.9056 53.4292 3.97297
26.9519 56.8287 0.0215245
25.325 55.1402 2
23.5996 53.4708 3.96543
20.4953 53.2119 3.96066
19.942 55.8263 3.97134
21.821 55.3432 2
23.846 56.7986 0.0291022
19.441 57.8846 3.97497
20.2236 57.0251 2
19.7068 60.2038 3.97736
20.6465 58.7802 2
21.3383 57.3951 0.0279033
20.2066 62.8601 3.98201
21.1662 61.1739 2
21.9941 59.6244 0.0215591
20.9371 65.7655 3.98727
21.8941 63.8405 2
22.7351 62.0241 0.0184805
23.6805 64.7119 0.0153497
22.8358 66.7373 2
21.9108 68.8722 3.99245
24.8075 67.5932 0.0121575
24.0079 69.8054 2
23.1494 72.1454 4
26.1641 70.604 0.00748334
25.446 73.0099 2
27.7943 73.7221 0
25.8599 9.38162 3.98347
27.0694 6.54192 3.98708
27.8205 8.65259 2
28.4874 3.64434 3.9924
29.1543 5.87715 2
29.8109 7.99329 0.0156608
30.1841 0.720592 4
30.7251 3.09807 2
31.2526 5.33194 0.011563
32.6053 0.320817 2
32.9802 2.70114 0.00698989
35.0474 0.080333 0
37.498 35.8124 3.92119
39.1531 35.8176 2
40.812 35.8105 0.123862
24.7767 12.0726 3.98217
23.7515 14.3592 3.98128
28.5432 10.694 0.0184171
26.6219 11.389 2
29.2255 12.6432 2
27.2914 13.3764 3.98169
29.7808 14.2041 3.98078
35.8546 34.1301 3.86722
37.5014 34.1179 2
39.1552 34.135 0.132054
37.5098 32.2129 0.21365
44.3179 29.7705 0.0617384
41.8458 29.8426 0.111766
39.3611 30.4841 0.162135
42.3488 28.3921 2
39.8628 28.9184 2
37.5211 30.2511 2
35.7438 32.3251 2
40.0369 27.5808 3.91573
37.5281 28.6437 3.88055
35.6705 30.4896 3.83901
34.2011 32.6554 3.74977
30.9272 16.8419 3.97939
31.9154 14.4832 2
34.0936 12.9369 0.020848
31.1864 11.9867 0.0195914
42.9831 26.5096 0.00302594
40.8946 23.3275 -0.0080515
33.6091 15.8815 0.0226628
35.8496 17.519 0.0220946
38.4172 20.3732 0.0244314
33.5503 17.3951 2
35.5835 20.1002 2
40.3741 25.6554 2
38.0658 22.9144 2
32.8618 19.8028 3.98058
37.7963 25.2371 4.00757
35.1951 22.6762 3.98853
35.8223 37.5008 3.91657
37.4935 37.494 2
39.176 37.4835 0.0842566
39.7976 51.9077 0.00471102
38.6747 48.6976 0.0204562
37.4962 39.1836 0.0789446
37.4925 46.3565 0.12587
35.6407 44.5243 0.164516
35.845 40.8816 0.132589
34.1811 42.3488 0.249664
37.6472 50.9965 2
35.8466 39.1775 2
34.2965 40.79 2
36.8623 48.3606 2
33.0731 42.0231 2
33.9493 43.8169 2
35.1392 46.0569 2
35.4888 50.1188 4.00068
34.1925 39.183 3.87741
32.7288 40.8819 3.75858
32.5522 42.6545 3.83364
33.1597 45.1537 3.88575
34.2844 47.4076 3.92412
36.7328 53.1914 -0.00124876
34.3723 52.4714 2
32.034 51.1738 4.00177
33.2347 55.5104 0.00853286
30.5334 53.3685 2
28.4566 51.5784 3.97702
28.7039 55.3181 0.0210974
26.9047 53.4321 2
25.1145 51.7323 3.96176
25.3255 55.1367 0.0260796
23.5986 53.4734 2
22.0066 51.7914 3.9594
19.2393 51.6246 3.96421
18.9398 54.2999 3.96175
20.4945 53.2113 2
18.4526 56.7168 3.97428
19.941 55.8278 2
21.8223 55.3416 0.032446
18.3701 59.1061 3.97429
19.4404 57.8857 2
20.2242 57.0235 0.0221816
18.6184 61.7653 3.97885
19.7069 60.2053 2
20.6468 58.7791 0.0240165
19.1261 64.676 3.98629
20.2067 62.8614 2
21.166 61.1726 0.0200978
19.8849 67.8088 3.99236
20.9372 65.7663 2
21.894 63.8396 0.0160868
22.8357 66.7366 0.0123509
21.9104 68.8723 2
20.9142 71.1327 4
24.0083 69.8052 0.00741441
23.1494 72.1455 2
25.446 73.0099 0
23.0961 12.7876 3.98182
23.9723 10.1685 3.98322
25.0231 7.31235 3.98648
25.8597 9.38112 2
26.2791 4.32866 3.99201
27.069 6.54146 2
27.8207 8.65316 0.0160378
27.7943 1.27781 4
28.4871 3.64408 2
29.1546 5.87773 0.0122082
30.1841 0.720551 2
30.7253 3.09834 0.00729314
32.6053 0.320823 0
35.8321 35.8202 3.90321
37.4956 35.8199 2
39.1705 35.815 0.0977207
24.7769 12.0724 2
23.7521 14.359 2
22.4804 15.0361 3.98086
25.3576 13.9082 3.98119
24.0254 15.6224 3.98049
26.6219 11.3895 0.0181566
29.2252 12.6437 0.0187909
27.2918 13.3759 2
29.7809 14.2038 2
28.3572 15.9787 3.98094
34.2929 34.2111 3.84163
35.8656 34.1462 2
37.503 34.1023 0.116035
35.7362 32.3146 0.234273
37.5211 30.2619 0.175177
42.3231 28.4174 0.08069
39.8501 28.9472 0.112413
40.0462 27.5591 2
37.5301 28.6189 2
35.6461 30.4636 2
34.1954 32.6562 2
37.6098 27.2802 3.93047
35.1904 28.9565 3.8869
33.9916 31.2111 3.82748
33.1112 32.9906 3.71676
30.2086 19.3466 3.98468
30.9265 16.8423 2
31.9154 14.4832 0.0207066
40.3718 25.6685 -0.00161538
38.0698 22.9245 0.00530245
33.5518 17.3934 0.0211228
35.5816 20.0931 0.0214628
32.8625 19.8048 2
35.1936 22.6706 2
37.782 25.2249 2
32.3097 22.4301 3.99172
34.9991 25.2219 4.00452
34.1392 37.503 3.88508
35.8355 37.5 2
37.4963 37.4953 0.0637736
37.6384 50.9808 -0.0113446
36.8683 48.3359 0.0528967
35.8324 39.1833 0.0966826
35.1544 46.0321 0.119896
33.9711 43.7925 0.173266
34.2829 40.7997 0.157677
33.0846 42.0123 0.283754
35.4855 50.1364 2
34.2136 39.1751 2
32.7391 40.8836 2
34.2748 47.4418 2
32.5253 42.6762 2
33.1438 45.1748 2
33.2832 49.1141 3.99954
32.4122 39.2853 3.77668
31.401 41.1447 3.82405
31.4784 43.7362 3.88341
32.2975 46.3317 3.92263
34.3737 52.4666 0.00520251
32.0322 51.1828 2
29.907 49.6943 3.99021
30.5342 53.3633 0.0213113
28.4548 51.5775 2
26.5564 49.9671 3.97193
26.9056 53.4292 0.0270335
25.1126 51.7301 2
23.3941 50.1769 3.9685
23.5996 53.4708 0.0345659
22.0054 51.7902 2
20.5131 50.3029 3.96698
18.0299 50.3206 3.96847
17.864 52.783 3.96307
19.2377 51.6241 2
17.448 55.332 3.96642
18.9388 54.2996 2
20.4953 53.2119 0.0393397
17.1381 57.8681 3.97352
18.4517 56.7177 2
19.942 55.8263 0.0286561
17.1371 60.546 3.97607
18.3699 59.1072 2
19.441 57.8846 0.0250342
17.407 63.4675 3.98348
18.6184 61.7667 2
19.7068 60.2038 0.0226436
17.9412 66.6173 3.99211
19.1261 64.677 2
20.2066 62.8601 0.0179873
18.75 69.9759 4
19.8845 67.8089 2
20.9371 65.7655 0.0127299
21.9108 68.8722 0.00754715
20.9142 71.1327 2
23.1494 72.1454 0
21.5871 13.6082 3.98128
22.1904 11.0281 3.98273
23.0965 12.7876 2
23.0409 8.17805 3.98606
23.9723 10.1681 2
24.1167 5.14353 3.99169
25.0227 7.31186 2
25.8599 9.38162 0.0165264
25.446 1.99014 4
26.2787 4.3285 2
27.0694 6.54192 0.0129233
27.7943 1.27778 2
28.4874 3.64434 0.00760467
30.1841 0.720592 0
34.1862 35.8244 3.8748
35.8448 35.8252 2
37.498 35.8124 0.0788083
21.3061 15.8321 3.98108
24.7767 12.0726 0.0178273
23.7515 14.3592 0.0187219
25.3581 13.908 2
22.4812 15.0361 2
24.026 15.6224 2
23.265 16.2545 3.9796
25.3809 16.091 3.98081
27.2914 13.3764 0.0183141
29.7808 14.2041 0.0192175
28.3574 15.979 2
27.4409 18.8028 3.98335
32.7501 34.1213 3.75638
34.3113 34.2222 2
35.8546 34.1301 0.132783
34.2011 32.6554 0.250226
35.6705 30.4896 0.160991
37.5281 28.6437 0.119449
40.0369 27.5808 0.0842719
37.6106 27.2496 2
33.0967 32.9817 2
35.1793 28.9303 2
33.9656 31.1786 2
35.0734 27.4092 3.93325
33.1808 29.852 3.88184
32.5747 32.3419 3.823
29.5826 21.9415 3.99712
30.2094 19.3494 2
30.9272 16.8419 0.0206139
37.7963 25.2371 -0.00756572
35.1951 22.6762 0.011475
32.8618 19.8028 0.0194233
32.3083 22.4283 2
35.0122 25.2145 2
31.744 25.6517 4.0047
32.2933 37.5055 3.78421
34.1605 37.5055 2
35.8223 37.5008 0.0834269
35.4888 50.1188 -0.000683938
34.2844 47.4076 0.075877
34.1925 39.183 0.122595
33.1597 45.1537 0.114246
32.5522 42.6545 0.166364
32.7288 40.8819 0.241423
33.277 49.106 2
32.4249 39.2823 2
31.378 41.1623 2
32.2702 46.3563 2
31.4548 43.7578 2
31.2126 47.947 3.99173
30.6504 39.4289 3.82221
30.1334 41.9545 3.8765
30.5013 44.9219 3.9392
32.034 51.1738 -0.00176865
29.904 49.6935 2
27.9495 48.1594 3.96871
28.4566 51.5784 0.0229847
26.5547 49.9653 2
24.7224 48.4491 3.97267
25.1145 51.7323 0.0382424
23.3932 50.175 2
21.7376 48.7723 3.97022
22.0066 51.7914 0.0406032
20.5115 50.3019 2
19.0955 49.0803 3.97209
16.9359 49.3223 3.97225
16.8047 51.3988 3.96642
18.0306 50.3198 2
16.4051 53.8636 3.96473
17.8617 52.7828 2
19.2393 51.6246 0.0357858
15.9833 56.468 3.96804
17.4473 55.3323 2
18.9398 54.2999 0.0382498
15.7517 59.2063 3.9747
17.1377 57.8693 2
18.4526 56.7168 0.0257192
15.7883 62.1361 3.97977
17.1371 60.5476 2
18.3701 59.1061 0.025706
16.0882 65.3 3.99129
17.4068 63.4688 2
18.6184 61.7653 0.0211454
16.6661 68.6801 4
17.9407 66.6173 2
19.1261 64.676 0.0137118
18.75 69.9759 2
19.8849 67.8088 0.00764071
20.9142 71.1327 0
20.2195 14.5975 3.98036
21.5876 13.6082 2
20.5296 11.9982 3.98209
21.1437 9.14798 3.98572
22.1905 11.0279 2
23.0961 12.7876 0.0181753
22.0157 6.08263 3.99147
23.0406 8.17759 2
23.9723 10.1685 0.0167841
23.1494 2.85457 4
24.1161 5.14342 2
25.0231 7.31235 0.0135227
25.446 1.99012 2
26.2791 4.32866 0.00799111
27.7943 1.27781 0
32.4167 35.7203 3.77092
34.2043 35.8328 2
35.8321 35.8202 0.0967924
21.3069 15.8319 2
20.3044 16.9657 3.98166
22.0982 16.6387 3.97874
25.3576 13.9082 0.0188084
22.4804 15.0361 0.0191447
24.0254 15.6224 0.019507
25.3815 16.0911 2
23.2657 16.2545 2
24.2056 18.4571 3.97732
27.0226 21.4641 3.99076
28.3572 15.9787 0.0190649
27.4424 18.8032 2
31.4322 33.8641 3.82497
32.7633 34.1202 2
34.2929 34.2111 0.158371
33.1112 32.9906 0.283236
33.9916 31.2111 0.172525
35.1904 28.9565 0.113104
37.6098 27.2802 0.0695264
35.0551 27.3733 2
32.5241 32.3204 2
33.1639 29.8274 2
32.6056 28.1325 3.94424
31.4867 31.2729 3.8843
28.8469 24.4154 3.98118
29.5799 21.946 2
30.2086 19.3466 0.0153177
34.9991 25.2219 -0.00451833
32.3097 22.4301 0.00827881
31.7479 25.635 2
29.719 27.3302 3.96349
30.3498 37.4968 3.82852
32.3003 37.5021 2
34.1392 37.503 0.114918
33.2832 49.1141 0.000455908
32.2975 46.3317 0.0773741
32.4122 39.2853 0.223318
31.4784 43.7362 0.116592
31.401 41.1447 0.175948
31.2096 47.9493 2
30.6293 39.444 2
30.1119 41.9691 2
30.4885 44.9371 2
29.2852 46.548 4.00083
29.2298 39.8544 3.88838
28.8473 43.1465 3.94049
29.907 49.6943 0.00978646
27.9461 48.1555 2
26.0507 46.6311 3.9756
26.5564 49.9671 0.0280717
24.7222 48.4466 2
22.9122 47.0553 3.97423
23.3941 50.1769 0.0315001
21.7375 48.7708 2
20.0664 47.6035 3.97697
20.5131 50.3029 0.0330154
19.0966 49.0793 2
17.7259 48.1681 3.97591
16.1803 48.6749 3.97481
16.937 49.3216 2
15.8793 50.1622 3.96929
15.3954 52.4092 3.96606
16.8042 51.3984 2
18.0299 50.3206 0.0315329
14.8778 54.9701 3.96686
16.4047 53.8637 2
17.864 52.783 0.0369335
14.463 57.7344 3.97116
15.9829 56.4687 2
17.448 55.332 0.0335779
14.267 60.6896 3.9783
15.7517 59.2079 2
17.1381 57.8681 0.0264798
14.3331 63.8588 3.98908
15.7881 62.1374 2
17.1371 60.546 0.0239267
14.6715 67.2507 4
16.0874 65.2997 2
17.407 63.4675 0.0165183
16.6661 68.6801 2
17.9412 66.6173 0.00788891
18.75 69.9759 0
18.9338 15.7845 3.98021
20.2201 14.5974 2
18.9795 13.1094 3.98109
21.5871 13.6082 0.0187175
20.53 11.9981 2
19.3429 10.236 3.98525
19.9903 7.14725 3.9914
21.1436 9.14774 2
22.1904 11.0281 0.0172749
20.9142 3.86727 4
22.015 6.08268 2
23.0409 8.17805 0.0139438
23.1494 2.85451 2
24.1167 5.14353 0.00831261
25.446 1.99014 0
30.6687 35.5839 3.82529
32.4288 35.7216 2
34.1862 35.8244 0.125199
21.3061 15.8321 0.0189208
22.0991 16.6387 2
20.3052 16.965 2
19.2479 18.4139 3.97736
21.7834 17.8561 3.97973
25.3809 16.091 0.0191868
23.265 16.2545 0.0204022
24.2068 18.4572 2
22.286 19.9022 3.97427
24.6031 21.3337 3.98562
26.4564 23.7303 3.96965
27.0224 21.4639 2
27.4409 18.8028 0.0166486
30.1641 33.0548 3.88336
31.4094 33.8303 2
32.7501 34.1213 0.243622
32.5747 32.3419 0.177003
33.1808 29.852 0.118164
35.0734 27.4092 0.066753
32.5957 28.1184 2
31.4699 31.2477 2
30.2099 29.5713 3.95762
27.9599 26.5546 3.97939
28.8459 24.4261 2
29.5826 21.9415 0.00287849
31.744 25.6517 -0.00469995
29.7168 27.2969 2
28.8885 37.511 3.89592
30.34 37.4989 2
32.2933 37.5055 0.215788
31.2126 47.947 0.0082704
30.5013 44.9219 0.0608035
30.6504 39.4289 0.17779
30.1334 41.9545 0.123498
29.2829 46.5623 2
29.2068 39.8727 2
28.8207 43.1643 2
27.4264 44.8432 3.98106
27.0028 40.5837 3.96355
27.9495 48.1594 0.0312864
26.0478 46.6331 2
24.1422 45.1851 3.97611
24.7224 48.4491 0.0273321
22.9132 47.0535 2
21.0382 45.8751 3.97877
21.7376 48.7723 0.029775
20.0682 47.6023 2
18.3982 46.7252 3.97796
19.0955 49.0803 0.0279093
17.7265 48.1674 2
16.3825 47.7045 3.97591
16.1811 48.6743 2
15.2232 49.008 3.97236
16.9359 49.3223 0.0277468
15.8802 50.1617 2
14.5076 50.979 3.96802
13.8378 53.4296 3.96762
15.3958 52.409 2
16.8047 51.3988 0.0335802
13.2604 56.1612 3.96862
14.8777 54.9702 2
16.4051 53.8636 0.0352748
12.8503 59.1228 3.97676
14.463 57.7354 2
15.9833 56.468 0.0319585
12.6789 62.301 3.98665
14.2668 60.6906 2
15.7517 59.2063 0.0253034
12.7746 65.6939 4
14.3319 63.8581 2
15.7883 62.1361 0.0202254
14.6714 67.2507 2
16.0882 65.3 0.00870582
16.6661 68.6801 0
17.67 17.1607 3.977
18.9344 15.7842 2
17.5113 14.3742 3.97996
20.2195 14.5975 0.019635
18.98 13.1092 2
17.6385 11.4551 3.98425
20.5296 11.9982 0.0179096
19.343 10.2358 2
18.0506 8.33998 3.99136
18.75 5.0241 4
19.9896 7.14761 2
21.1437 9.14798 0.014278
20.9142 3.86727 2
22.0157 6.08263 0.00852965
23.1494 2.85457 0
29.2502 35.1341 3.8923
30.6457 35.5649 2
32.4167 35.7203 0.229083
22.0982 16.6387 0.0212615
20.3044 16.9657 0.0183408
21.7842 17.8559 2
19.2487 18.413 2
17.9901 19.9474 3.97279
20.8829 19.3869 3.97712
24.2056 18.4571 0.0226809
22.2867 19.9018 2
24.6032 21.3342 2
22.375 21.7299 3.97735
24.728 23.1765 3.97341
25.5427 25.9586 3.97139
26.4591 23.7303 2
27.0226 21.4641 0.00923814
28.5405 32.3535 3.93887
30.1388 33.0426 2
31.4322 33.8641 0.175026
31.4867 31.2729 0.115699
32.6056 28.1325 0.0557596
30.1977 29.5673 2
27.1415 29.1408 4.00475
27.956 26.5595 2
28.8469 24.4154 0.0188204
29.719 27.3302 0.0365108
27.1236 37.3663 3.9445
28.8511 37.5048 2
30.3498 37.4968 0.171483
29.2852 46.548 -0.000834562
28.8473 43.1465 0.0595071
29.2298 39.8544 0.111624
27.4201 44.8617 2
26.9879 40.6007 2
25.4457 43.1558 3.98408
24.2546 39.443 3.97819
26.0507 46.6311 0.0243994
24.1376 45.1838 2
22.0348 43.9288 3.97871
22.9122 47.0553 0.0257681
21.0377 45.8739 2
19.0835 44.9557 3.97842
20.0664 47.6035 0.0230324
18.3996 46.7243 2
16.6888 46.2032 3.97644
17.7259 48.1681 0.0240916
16.3832 47.704 2
14.9644 47.6627 3.97382
16.1803 48.6749 0.0251851
15.2242 49.0076 2
13.8043 49.5408 3.96954
15.8793 50.1622 0.0307055
14.5084 50.9787 2
12.9038 51.8706 3.96783
12.1478 54.5224 3.96983
13.8382 53.4295 2
15.3954 52.4092 0.0339406
11.5365 57.4546 3.97397
13.2605 56.1616 2
14.8778 54.9701 0.0331404
11.1338 60.6269 3.98473
12.8503 59.1235 2
14.463 57.7344 0.0288446
10.9835 64.0165 4
12.6776 62.2995 2
14.267 60.6896 0.0216971
12.7745 65.694 2
14.3331 63.8588 0.0109227
14.6715 67.2507 0
16.4059 18.6564 3.97359
17.6704 17.16 2
16.1029 15.7839 3.97886
18.9338 15.7845 0.0197883
17.5118 14.3736 2
16.0202 12.8091 3.98235
18.9795 13.1094 0.018912
17.6387 11.4548 2
16.2018 9.66288 3.99109
19.3429 10.236 0.0147491
18.0498 8.34056 2
16.6661 6.31991 4
18.75 5.02404 2
19.9903 7.14725 0.00859886
20.9142 3.86727 0
27.6479 34.7866 3.93772
29.2254 35.113 2
30.6687 35.5839 0.174708
16.698 21.3868 3.96412
21.7834 17.8561 0.0202668
19.2479 18.4139 0.0226445
20.8835 19.3864 2
17.9908 19.9462 2
19.7406 21.5837 3.97524
22.286 19.9022 0.025731
24.6031 21.3337 0.0143826
22.3753 21.7297 2
24.7291 23.176 2
22.8964 24.6107 3.97085
24.6829 28.5377 3.97724
25.5404 25.9577 2
26.4564 23.7303 0.0303502
26.385 31.7182 3.98707
28.5137 32.3363 2
30.1641 33.0548 0.116637
30.2099 29.5713 0.0423782
27.1572 29.1313 2
27.9599 26.5546 0.0206107
24.9508 36.8595 3.98785
27.1012 37.3623 2
28.8885 37.511 0.104081
27.4264 44.8432 0.0189422
27.0028 40.5837 0.0364511
25.4322 43.1622 2
24.2412 39.4419 2
23.1515 41.8026 3.97992
21.973 38.5138 3.9776
24.1422 45.1851 0.0238915
22.0337 43.9294 2
19.8824 42.8773 3.97767
21.0382 45.8751 0.0212304
19.0835 44.9551 2
17.0431 44.37 3.97685
18.3982 46.7252 0.0220391
16.6897 46.2026 2
14.8986 46.0834 3.97453
16.3825 47.7045 0.0240884
14.9651 47.6624 2
13.3159 48.0036 3.97065
15.2232 49.008 0.0276404
13.8051 49.5406 2
12.1221 50.2501 3.96822
14.5076 50.979 0.0319822
12.9042 51.8705 2
11.1427 52.8338 3.96955
10.3274 55.7081 3.97364
12.1482 54.5224 2
13.8378 53.4296 0.0323782
9.70079 58.8488 3.98235
11.5366 57.4548 2
13.2604 56.1612 0.0313816
9.30605 62.2254 4
11.1323 60.6247 2
12.8503 59.1228 0.0232352
10.9835 64.0165 2
12.6789 62.301 0.0133545
12.7746 65.6939 0
15.1567 20.1946 3.96743
16.4063 18.6556 2
14.7504 17.3077 3.97577
17.67 17.1607 0.0229999
16.1033 15.7828 2
14.483 14.2918 3.9808
17.5113 14.3742 0.020039
16.0205 12.8084 2
14.4447 11.114 3.99028
17.6385 11.4551 0.0157508
16.2011 9.66365 2
14.6715 7.74927 4
18.0506 8.33998 0.00864289
16.6661 6.31988 2
18.75 5.0241 0
25.6049 34.2717 3.99092
27.6269 34.7786 2
29.2502 35.1341 0.1077
17.8803 22.3354 3.97363
15.5436 22.9262 3.96905
16.6985 21.3863 2
20.8829 19.3869 0.0228848
17.9901 19.9474 0.0272142
19.741 21.5832 2
19.7164 24.3912 3.96945
22.375 21.7299 0.0226536
24.728 23.1765 0.026593
22.8968 24.6105 2
22.0513 27.8384 3.97158
23.9436 31.2023 3.97549
24.6931 28.5391 2
25.5427 25.9586 0.0286118
26.3738 31.7002 2
28.5405 32.3535 0.0611329
27.1415 29.1408 -0.00474711
22.702 36.2853 3.98137
24.9295 36.8555 2
27.1236 37.3663 0.055502
25.4457 43.1558 0.0159224
24.2546 39.443 0.0218074
23.1449 41.8013 2
21.9661 38.5126 2
20.8888 40.6395 3.97639
20.2923 37.7964 3.9775
22.0348 43.9288 0.0212907
19.8823 42.877 2
17.4867 42.0906 3.97687
19.0835 44.9557 0.021577
17.0442 44.3693 2
14.9224 44.1942 3.97477
16.6888 46.2032 0.0235612
14.8993 46.0831 2
12.9969 46.2907 3.97114
14.9644 47.6627 0.02618
13.3164 48.0034 2
11.4939 48.5475 3.96839
13.8043 49.5408 0.0304562
12.1225 50.25 2
10.268 51.0787 3.96935
12.9038 51.8706 0.0321658
11.1432 52.8337 2
9.23592 53.888 3.97378
8.38445 56.9816 3.98198
10.3277 55.7077 2
12.1478 54.5224 0.0301663
7.74927 60.3285 4
9.69957 58.8458 2
11.5365 57.4546 0.026031
9.306 62.2255 2
11.1338 60.6269 0.0152723
10.9835 64.0165 0
13.9711 21.759 3.96789
15.1573 20.1939 2
13.4548 18.9072 3.97022
16.4059 18.6564 0.0264081
14.7509 17.3065 2
13.029 15.8854 3.97924
16.1029 15.7839 0.0211402
14.4832 14.2907 2
12.7822 12.6875 3.98868
16.0202 12.8091 0.0176484
14.4439 11.1149 2
12.7746 9.30605 4
16.2018 9.66288 0.00891104
14.6715 7.74924 2
16.6661 6.31991 0
23.2787 33.8136 3.98141
25.5846 34.2667 2
27.6479 34.7866 0.0622791
17.6705 24.0522 3.9714
17.8806 22.335 2
14.3395 24.4562 3.96971
15.5442 22.9259 2
16.698 21.3868 0.0358764
19.1497 27.2163 3.97088
19.7406 21.5837 0.0247577
19.7164 24.3909 2
21.3417 30.6785 3.97354
22.8964 24.6107 0.0291515
22.057 27.839 2
23.9306 31.203 2
24.6829 28.5377 0.0227559
26.385 31.7182 0.0129341
20.4146 35.9363 3.97718
22.6977 36.2805 2
24.9508 36.8595 0.0121547
23.1515 41.8026 0.0200775
21.973 38.5138 0.0224026
20.8902 40.6401 2
20.294 37.7964 2
18.2271 39.0029 3.97757
19.8824 42.8773 0.0223315
17.4883 42.0898 2
14.8985 41.9139 3.97525
17.0431 44.37 0.0231545
14.9235 44.194 2
12.7508 44.3871 3.97126
14.8986 46.0834 0.0254701
12.9973 46.2905 2
10.9976 46.7313 3.96844
13.3159 48.0036 0.029349
11.4942 48.5474 2
9.53097 49.2391 3.96893
12.1221 50.2501 0.0317782
10.2684 51.0786 2
8.26871 52.0018 3.97346
11.1427 52.8338 0.0304483
9.23631 53.8874 2
7.19334 55.0323 3.98284
6.31991 58.3339 4
8.38361 56.9784 2
10.3274 55.7081 0.0263582
7.74924 60.3285 2
9.70079 58.8488 0.0176534
9.30605 62.2254 0
13.2476 25.3665 3.97148
12.8365 23.2846 3.96827
13.9719 21.7587 2
12.2426 20.5566 3.96898
15.1567 20.1946 0.0325674
13.4554 18.9062 2
11.6604 17.5676 3.97617
14.7504 17.3077 0.0242338
13.0293 15.8843 2
11.2198 14.3729 3.98651
14.483 14.2918 0.0192016
12.7812 12.6887 2
10.9835 10.9835 4
14.4447 11.114 0.00971973
12.7745 9.306 2
14.6715 7.74927 0
20.7751 33.409 3.97547
23.2845 33.8161 2
25.6049 34.2717 0.00908208
15.9764 26.4101 3.97155
17.6706 24.0519 2
17.8803 22.3354 0.0263718
14.3397 24.4561 2
15.5436 22.9262 0.0309459
18.509 30.1849 3.97424
19.1493 27.2164 2
19.7164 24.3912 0.03055
21.3498 30.6791 2
22.0513 27.8384 0.0284226
23.9436 31.2023 0.0245147
17.8439 35.9706 3.97813
20.4126 35.9369 2
22.702 36.2853 0.0186346
20.8888 40.6395 0.0236137
20.2923 37.7964 0.0224976
18.2293 39.0032 2
14.4134 39.1741 3.97636
17.4867 42.0906 0.0231302
14.8997 41.9138 2
12.452 42.2724 3.97201
14.9224 44.1942 0.0252342
12.7512 44.3869 2
10.5796 44.7999 3.96882
12.9969 46.2907 0.0288638
10.9978 46.7312 2
8.91306 47.3184 3.96853
11.4939 48.5475 0.0316085
9.53118 49.239 2
7.4356 50.0354 3.97288
10.268 51.0787 0.0306549
8.26904 52.0012 2
6.13394 53.0073 3.98336
9.23592 53.888 0.0262239
7.1928 55.0295 2
5.0241 56.25 4
6.31988 58.3339 2
8.38445 56.9816 0.0180203
7.74927 60.3285 0
13.5044 26.8196 3.97066
11.9464 24.7903 3.96929
13.2476 25.3663 2
11.1452 22.2383 3.96961
12.8369 23.2843 2
13.9711 21.759 0.0321107
12.2435 20.5562 2
10.3924 19.3227 3.97371
13.4548 18.9072 0.0297794
11.6609 17.5668 2
9.76105 16.157 3.98394
13.029 15.8854 0.0207579
11.2186 14.3746 2
9.30607 12.7746 4
12.7822 12.6875 0.0113217
10.9835 10.9835 2
12.7746 9.30605 0
18.0139 33.1206 3.97673
20.776 33.4092 2
23.2787 33.8136 0.0185861
15.5869 29.6452 3.97309
15.9765 26.4101 2
17.6705 24.0522 0.0285961
14.3395 24.4562 0.0302868
18.5089 30.1851 2
19.1497 27.2163 0.0291166
21.3417 30.6785 0.0264647
15.0304 36.021 3.97621
17.8461 35.9709 2
20.4146 35.9363 0.0228234
12.6745 37.8287 3.97501
18.2271 39.0029 0.0224283
14.4142 39.174 2
11.9716 40.1376 3.97258
14.8985 41.9139 0.0247548
12.4526 42.2723 2
10.1866 42.7753 3.96896
12.7508 44.3871 0.0287432
10.5796 44.7998 2
8.39086 45.3203 3.96829
10.9976 46.7313 0.0315606
8.91314 47.3183 2
6.72686 48.0006 3.97236
9.53097 49.2391 0.0310654
7.43578 50.0349 2
5.21077 50.9107 3.98321
8.26871 52.0018 0.0265394
6.13365 53.0054 2
3.86727 54.0858 4
7.19334 55.0323 0.0171615
5.02404 56.25 2
6.31991 58.3339 0
12.9728 29.0381 3.9704
11.3828 26.4898 3.96905
13.504 26.8195 2
10.2026 23.9692 3.96992
11.9469 24.7902 2
13.2476 25.3665 0.0285185
9.2449 21.1403 3.97327
11.1461 22.238 2
12.8365 23.2846 0.0317306
12.2426 20.5566 0.0310236
10.3933 19.3225 2
8.41732 18.0288 3.98203
11.6604 17.5676 0.0238319
9.75991 16.1595 2
7.74928 14.6715 4
11.2198 14.3729 0.0134909
9.30602 12.7745 2
10.9835 10.9835 0
14.5894 32.868 3.97479
18.0159 33.121 2
20.7751 33.409 0.0245314
15.5876 29.6453 2
15.9764 26.4101 0.0284464
18.509 30.1849 0.0257621
12.9723 36.21 3.97375
15.0325 36.021 2
17.8439 35.9706 0.0218724
12.6753 37.8286 2
11.3173 38.3085 3.97305
14.4134 39.1741 0.023645
11.9728 40.1375 2
9.77841 40.7521 3.9694
12.452 42.2724 0.0279877
10.1871 42.7751 2
7.94025 43.269 3.96807
10.5796 44.7999 0.031183
8.39096 45.3201 2
6.13311 45.9056 3.97184
8.91306 47.3184 0.0314734
6.72691 48.0002 2
4.42234 48.7514 3.98266
7.4356 50.0354 0.027123
5.21063 50.9096 2
2.85457 51.8506 4
6.13394 53.0073 0.0166414
3.86727 54.0858 2
5.0241 56.25 0
12.1199 31.2605 3.97157
10.801 28.4173 3.96892
12.9734 29.038 2
9.4174 25.7988 3.96924
11.383 26.4896 2
13.5044 26.8196 0.029337
8.23129 23.0237 3.97363
10.2032 23.9691 2
11.9464 24.7903 0.0307075
7.19952 19.9789 3.9821
9.24579 21.1405 2
11.1452 22.2383 0.0303922
10.3924 19.3227 0.0262895
8.41671 18.0319 2
6.31992 16.6661 4
9.76105 16.157 0.0160552
7.74926 14.6714 2
9.30607 12.7746 0
12.1503 34.2968 3.97403
14.5906 32.8681 2
18.0139 33.1206 0.0232712
15.5869 29.6452 0.0269099
10.8797 36.611 3.9725
12.9732 36.21 2
15.0304 36.021 0.0237892
12.6745 37.8287 0.024985
11.318 38.3084 2
9.36956 38.8221 3.97011
11.9716 40.1376 0.0274197
9.77905 40.752 2
7.55157 41.2105 3.96816
10.1866 42.7753 0.0310362
7.94031 43.2689 2
5.64531 43.7684 3.97138
8.39086 45.3203 0.0317056
6.13321 45.9053 2
3.76799 46.5371 3.98209
6.72686 48.0006 0.0276387
4.42231 48.751 2
1.99014 49.554 4
5.21077 50.9107 0.0167945
2.85451 51.8506 2
3.86727 54.0858 0
10.9628 32.9214 3.97291
10.1193 30.3843 3.96915
12.1207 31.2606 2
8.72528 27.7322 3.96883
10.8012 28.4173 2
12.9728 29.0381 0.0296014
7.35684 24.9825 3.97275
9.41767 25.7987 2
11.3828 26.4898 0.0309502
6.11627 22.0023 3.98323
8.23193 23.0239 2
10.2026 23.9692 0.030079
5.02411 18.75 4
7.19929 19.9816 2
9.2449 21.1403 0.0267278
8.41732 18.0288 0.017968
6.3199 16.6661 2
7.74928 14.6715 0
10.4855 35.0009 3.97225
12.1512 34.2968 2
14.5894 32.868 0.0252061
9.03776 36.9844 3.97036
10.8809 36.611 2
12.9723 36.21 0.0262476
11.3173 38.3085 0.0269457
9.37021 38.822 2
7.23178 39.1815 3.96865
9.77841 40.7521 0.0305979
7.55179 41.2103 2
5.26076 41.6139 3.97093
7.94025 43.269 0.0319297
5.64537 43.7681 2
3.24582 44.2819 3.98175
6.13311 45.9056 0.0281613
3.76811 46.5368 2
1.27781 47.2057 4
4.42234 48.7514 0.0173395
1.99012 49.554 2
2.85457 51.8506 0
10.1226 33.8827 3.97262
9.40707 32.1559 3.96983
10.9634 32.9214 2
8.07424 29.6956 3.96871
10.1197 30.3842 2
12.1199 31.2605 0.0284262
6.60068 27.0084 3.97225
8.7253 27.7321 2
10.801 28.4173 0.0310828
5.17165 24.095 3.98325
7.35716 24.9826 2
9.4174 25.7988 0.0307613
3.86728 20.9142 4
6.11621 22.004 2
8.23129 23.0237 0.0263719
5.02406 18.75 2
7.19952 19.9789 0.0178999
6.31992 16.6661 0
8.86195 35.2796 3.97062
10.4861 35.0008 2
12.1503 34.2968 0.0259672
7.01531 37.2055 3.96886
9.03796 36.9843 2
10.8797 36.611 0.0275039
9.36956 38.8221 0.029894
7.23198 39.1814 2
4.98849 39.4672 3.97107
7.55157 41.2105 0.0318399
5.26097 41.6136 2
2.85641 42.0022 3.98146
5.64531 43.7684 0.0286163
3.24592 44.2818 2
0.720592 44.8159 4
3.76799 46.5371 0.0179102
1.27778 47.2057 2
1.99014 49.554 0
8.89963 33.6984 3.97049
10.1231 33.8827 2
7.51168 31.6092 3.96888
9.40741 32.1558 2
10.9628 32.9214 0.0270882
5.94582 29.0693 3.97206
8.07417 29.6956 2
10.1193 30.3843 0.0308452
4.35944 26.2475 3.98261
6.60073 27.0085 2
8.72528 27.7322 0.0311726
2.85458 23.1494 4
5.17166 24.0957 2
7.35684 24.9825 0.0272533
3.86728 20.9142 2
6.11627 22.0023 0.016775
5.02411 18.75 0
6.9654 35.3058 3.96903
8.86242 35.2795 2
10.4855 35.0009 0.0277509
4.83846 37.3396 3.97169
7.01537 37.2055 2
9.03776 36.9844 0.0296389
7.23178 39.1815 0.0313494
4.9887 39.467 2
2.60452 39.7139 3.98123
5.26076 41.6139 0.029072
2.85664 42.0024 2
0.320823 42.3947 4
3.24582 44.2819 0.0182485
0.720551 44.8159 2
1.27781 47.2057 0
7.12536 33.4608 3.96914
8.89983 33.6984 2
10.1226 33.8827 0.0273839
5.4167 31.1333 3.97202
7.51172 31.6092 2
9.40707 32.1559 0.0301739
3.68118 28.4433 3.98212
5.94577 29.0694 2
8.07424 29.6956 0.0312916
1.99015 25.446 4
4.35946 26.2476 2
6.60068 27.0084 0.0277546
2.85453 23.1494 2
5.17165 24.095 0.0167501
3.86728 20.9142 0
4.8527 35.2513 3.97193
6.96567 35.3058 2
8.86195 35.2796 0.0293817
2.49587 37.4285 3.98185
4.83849 37.3396 2
7.01531 37.2055 0.0311355
4.98849 39.4672 0.0289306
2.60477 39.7143 2
0.080333 39.9526 4
2.85641 42.0022 0.0185377
0.320817 42.3947 2
0.720592 44.8159 0
5.04606 33.1899 3.9721
7.12548 33.4608 2
8.89963 33.6984 0.0295088
3.14551 30.666 3.9818
5.41672 31.1335 2
7.51168 31.6092 0.0311161
1.27793 27.7943 4
3.68123 28.4435 2
5.94582 29.0693 0.027937
1.99013 25.446 2
4.35944 26.2475 0.0173853
2.85458 23.1494 0
2.54797 35.159 3.98189
4.85297 35.2514 2
6.9654 35.3058 0.0309694
0 37.5 4
2.49595 37.4289 2
4.83846 37.3396 0.0283143
2.60452 39.7139 0.0187735
0.0802903 39.9526 2
0.320823 42.3947 0
2.76555 32.9057 3.98198
5.04618 33.1901 2
7.12536 33.4608 0.0308626
0.721173 30.1842 4
3.14564 30.6664 2
5.4167 31.1333 0.0279765
1.27779 27.7943 2
3.68118 28.4433 0.0178778
1.99015 25.446 0
0.0806499 35.0474 4
2.54828 35.1594 2
4.8527 35.2513 0.0280697
0 37.5 2
2.49587 37.4285 0.0181463
0.080333 39.9526 0
0.32156 32.6054 4
2.76568 32.9062 2
5.04606 33.1899 0.0279037
0.72056 30.1841 2
3.14551 30.666 0.0182007
1.27793 27.7943 0
0.0802889 35.0474 2
2.54797 35.159 0.0181136
0 37.5 0
0.320817 32.6053 2
2.76555 32.9057 0.0180193
0.721173 30.1842 0
0.0806499 35.0474 0
0.32156 32.6054 0
CELLS 1910 17190
8 18 6 25 56 2 0 5 16
8 57 23 6 18 17 4 0 2
8 78 36 9 29 31 11 1 7
8 31 11 1 7 79 37 10 30
8 110 57 18 50 48 17 2 14
8 50 18 56 111 14 2 16 49
8 116 62 22 55 52 20 3 15
8 56 25 67 118 16 5 24 53
8 119 63 23 57 54 21 4 17
8 55 22 63 119 15 3 21 54
8 58 26 68 121 18 6 25 56
8 122 65 26 58 57 23 6 18
8 73 31 7 27 142 79 30 71
8 143 78 29 72 73 31 7 27
8 83 147 76 34 32 74 28 8
8 84 148 78 36 33 75 29 9
8 76 34 8 28 148 84 33 75
8 37 79 150 86 10 30 77 35
8 151 87 36 78 80 38 11 31
8 80 38 11 31 152 88 37 79
8 175 100 42 94 96 44 12 40
8 44 96 176 101 12 40 95 43
8 101 176 98 46 43 95 41 13
8 46 98 178 103 13 41 97 45
8 178 103 45 97 147 83 32 74
8 189 116 55 109 106 52 15 47
8 111 56 118 191 49 16 53 107
8 192 119 57 110 108 54 17 48
8 109 55 119 192 47 15 54 108
8 194 122 58 112 110 57 18 50
8 112 58 121 195 50 18 56 111
8 115 61 19 51 197 124 59 113
8 115 61 125 198 51 19 60 114
8 198 125 62 116 114 60 20 52
8 200 127 64 120 116 62 22 55
8 118 67 132 202 53 24 66 117
8 121 68 133 203 56 25 67 118
8 120 64 128 204 55 22 63 119
8 204 128 65 122 119 63 23 57
8 206 134 68 121 123 69 26 58
8 123 69 26 58 207 131 65 122
8 226 147 74 138 140 76 28 70
8 229 148 75 139 143 78 29 72
8 140 76 28 70 229 148 75 139
8 142 79 30 71 231 150 77 141
8 144 80 31 73 232 152 79 142
8 233 151 78 143 144 80 31 73
8 150 86 35 77 235 154 81 145
8 235 154 81 145 146 82 39 91
8 146 82 39 91 236 155 90 165
8 238 157 83 147 149 85 34 76
8 239 158 84 148 151 87 36 78
8 149 85 34 76 239 158 84 148
8 152 88 37 79 241 160 86 150
8 242 161 87 151 153 89 38 80
8 153 89 38 80 243 162 88 152
8 171 98 41 92 265 178 97 169
8 265 178 97 169 226 147 74 138
8 172 96 40 93 266 176 95 170
8 266 176 95 170 171 98 41 92
8 269 175 94 173 172 96 40 93
8 271 180 99 174 175 100 42 94
8 197 124 59 113 271 180 99 174
8 272 181 100 175 177 102 44 96
8 273 182 101 176 179 104 46 98
8 177 102 44 96 273 182 101 176
8 179 104 46 98 275 184 103 178
8 275 184 103 178 238 157 83 147
8 188 115 51 105 283 197 113 186
8 188 115 198 284 105 51 114 187
8 284 198 116 189 187 114 52 106
8 286 200 120 193 189 116 55 109
8 191 118 202 288 107 53 117 190
8 195 121 203 289 111 56 118 191
8 193 120 204 290 109 55 119 192
8 290 204 122 194 192 119 57 110
8 196 123 58 112 292 207 122 194
8 293 206 121 195 196 123 58 112
8 199 126 61 115 297 211 124 197
8 298 212 127 200 198 125 62 116
8 199 126 212 298 115 61 125 198
8 205 129 64 120 300 214 127 200
8 301 217 130 201 202 132 66 117
8 209 136 168 264 301 217 130 201
8 302 219 132 202 203 133 67 118
8 303 220 133 203 206 134 68 121
8 205 129 215 304 120 64 128 204
8 304 215 131 207 204 128 65 122
8 306 221 134 206 208 135 69 123
8 208 135 69 123 307 218 131 207
8 210 137 167 263 309 223 136 209
8 328 238 147 226 230 149 76 140
8 228 146 91 166 329 236 165 260
8 231 150 77 141 330 235 145 227
8 330 235 145 227 228 146 91 166
8 332 239 148 229 233 151 78 143
8 230 149 76 140 332 239 148 229
8 232 152 79 142 334 241 150 231
8 234 153 80 144 335 243 152 232
8 336 242 151 233 234 153 80 144
8 236 155 90 165 338 245 164 259
8 241 160 86 150 339 246 154 235
8 339 246 154 235 237 156 82 146
8 237 156 82 146 340 247 155 236
8 342 249 157 238 240 159 85 149
8 343 250 158 239 242 161 87 151
8 240 159 85 149 343 250 158 239
8 243 162 88 152 345 252 160 241
8 244 163 253 346 153 89 161 242
8 244 163 89 153 347 254 162 243
8 311 224 261 371 210 137 167 263
8 263 167 262 372 209 136 168 264
8 267 179 98 171 375 275 178 265
8 375 275 178 265 328 238 147 226
8 376 273 176 266 267 179 98 171
8 268 177 96 172 376 273 176 266
8 379 272 175 269 268 177 96 172
8 380 271 174 270 269 175 94 173
8 283 197 113 186 380 271 174 270
8 381 277 180 271 272 181 100 175
8 297 211 124 197 381 277 180 271
8 382 278 181 272 274 183 102 177
8 274 183 102 177 383 279 182 273
8 383 279 182 273 276 185 104 179
8 385 281 184 275 342 249 157 238
8 276 185 104 179 385 281 184 275
8 285 199 115 188 393 297 197 283
8 394 298 200 286 284 198 116 189
8 285 199 298 394 188 115 198 284
8 291 205 120 193 396 300 200 286
8 397 301 201 287 288 202 117 190
8 295 209 264 374 397 301 201 287
8 398 302 202 288 289 203 118 191
8 399 303 203 289 293 206 121 195
8 291 205 304 400 193 120 204 290
8 400 304 207 292 290 204 122 194
8 294 208 123 196 402 307 207 292
8 403 306 206 293 294 208 123 196
8 296 210 263 373 405 309 209 295
8 408 312 213 299 297 211 126 199
8 299 213 313 409 199 126 212 298
8 409 313 214 300 298 212 127 200
8 305 216 129 205 411 315 214 300
8 412 318 217 301 302 219 132 202
8 309 223 136 209 412 318 217 301
8 413 320 219 302 303 220 133 203
8 306 221 321 414 206 134 220 303
8 307 218 131 207 415 316 215 304
8 305 216 316 415 205 129 215 304
8 417 322 221 306 308 222 135 208
8 308 222 135 208 418 319 218 307
8 310 225 137 210 420 325 223 309
8 423 326 224 311 310 225 137 210
8 329 236 165 260 441 338 259 368
8 442 342 238 328 333 240 149 230
8 331 237 146 228 443 340 236 329
8 334 241 150 231 444 339 235 330
8 444 339 235 330 331 237 146 228
8 446 343 239 332 336 242 151 233
8 333 240 149 230 446 343 239 332
8 335 243 152 232 448 345 241 334
8 337 244 153 234 449 347 243 335
8 337 244 346 450 234 153 242 336
8 338 245 164 259 452 349 258 367
8 340 247 155 236 453 350 245 338
8 345 252 160 241 454 351 246 339
8 454 351 246 339 341 248 156 237
8 341 248 156 237 455 352 247 340
8 240 159 251 344 342 249 354 457
8 242 161 253 346 343 250 355 458
8 343 250 355 458 240 159 251 344
8 347 254 162 243 460 357 252 345
8 348 255 358 461 244 163 253 346
8 348 255 163 244 462 359 254 347
8 473 360 257 365 363 256 364 482
8 452 349 258 367 365 257 366 485
8 422 324 369 488 311 224 261 371
8 371 261 370 490 263 167 262 372
8 407 311 371 491 296 210 263 373
8 373 263 372 492 295 209 264 374
8 493 385 275 375 442 342 238 328
8 377 276 179 267 493 385 275 375
8 378 274 177 268 494 383 273 376
8 494 383 273 376 377 276 179 267
8 497 382 272 379 378 274 177 268
8 498 381 271 380 379 272 175 269
8 393 297 197 283 498 381 271 380
8 499 387 277 381 382 278 181 272
8 408 312 211 297 499 387 277 381
8 500 388 278 382 384 280 183 274
8 501 389 279 383 386 282 185 276
8 384 280 183 274 501 389 279 383
8 386 282 185 276 503 391 281 385
8 503 391 281 385 457 354 249 342
8 511 408 299 395 393 297 199 285
8 395 299 409 512 285 199 298 394
8 512 409 300 396 394 298 200 286
8 401 305 205 291 514 411 300 396
8 515 412 301 397 398 302 202 288
8 405 309 209 295 515 412 301 397
8 516 413 302 398 399 303 203 289
8 403 306 414 517 293 206 303 399
8 402 307 207 292 518 415 304 400
8 401 305 415 518 291 205 304 400
8 404 308 208 294 520 418 307 402
8 521 417 306 403 404 308 208 294
8 406 310 210 296 523 420 309 405
8 526 423 311 407 406 310 210 296
8 410 314 213 299 527 424 312 408
8 528 425 315 411 409 313 214 300
8 410 314 425 528 299 213 313 409
8 416 317 216 305 530 427 315 411
8 531 430 318 412 413 320 219 302
8 420 325 223 309 531 430 318 412
8 532 432 320 413 414 321 220 303
8 417 322 433 533 306 221 321 414
8 418 319 218 307 534 428 316 415
8 416 317 428 534 305 216 316 415
8 419 323 434 536 308 222 322 417
8 419 323 222 308 537 431 319 418
8 421 327 225 310 539 438 325 420
8 421 327 439 541 310 225 326 423
8 543 437 324 422 423 326 224 311
8 441 338 259 368 559 452 367 486
8 443 340 236 329 560 453 338 441
8 333 240 344 447 442 342 457 561
8 445 341 237 331 562 455 340 443
8 448 345 241 334 563 454 339 444
8 563 454 339 444 445 341 237 331
8 336 242 346 450 446 343 458 565
8 446 343 458 565 333 240 344 447
8 449 347 243 335 567 460 345 448
8 451 348 244 337 568 462 347 449
8 451 348 461 569 337 244 346 450
8 570 463 349 452 473 360 257 365
8 453 350 245 338 570 463 349 452
8 455 352 247 340 571 464 350 453
8 460 357 252 345 572 465 351 454
8 572 465 351 454 456 353 248 341
8 456 353 248 341 573 466 352 455
8 344 251 356 459 457 354 468 575
8 458 355 469 576 344 251 356 459
8 346 253 358 461 458 355 469 576
8 462 359 254 347 578 471 357 460
8 348 255 359 462 461 358 472 579
8 591 474 360 473 475 361 256 363
8 475 361 256 363 594 477 362 479
8 363 256 364 482 479 362 480 603
8 590 473 365 484 481 363 482 605
8 482 364 257 365 606 483 366 485
8 559 452 367 486 484 365 485 607
8 542 436 487 609 422 324 369 488
8 525 422 488 611 407 311 371 491
8 488 369 489 612 371 261 370 490
8 491 371 490 613 373 263 372 492
8 495 386 276 377 614 503 385 493
8 614 503 385 493 561 457 342 442
8 615 501 383 494 495 386 276 377
8 496 384 274 378 615 501 383 494
8 618 500 382 497 496 384 274 378
8 619 499 381 498 497 382 272 379
8 511 408 297 393 619 499 381 498
8 620 505 387 499 500 388 278 382
8 527 424 312 408 620 505 387 499
8 502 390 506 621 384 280 388 500
8 622 507 389 501 504 392 282 386
8 502 390 280 384 622 507 389 501
8 504 392 282 386 624 509 391 503
8 624 509 391 503 575 468 354 457
8 513 410 299 395 630 527 408 511
8 631 528 411 514 512 409 300 396
8 513 410 528 631 395 299 409 512
8 519 416 305 401 633 530 411 514
8 634 531 412 515 516 413 302 398
8 523 420 309 405 634 531 412 515
8 635 532 413 516 517 414 303 399
8 521 417 533 636 403 306 414 517
8 520 418 307 402 637 534 415 518
8 519 416 534 637 401 305 415 518
8 522 419 308 404 639 537 418 520
8 522 419 536 640 404 308 417 521
8 524 421 310 406 642 539 420 523
8 524 421 541 644 406 310 423 526
8 646 543 422 525 526 423 311 407
8 529 426 314 410 647 544 424 527
8 528 425 545 648 411 315 427 530
8 529 426 545 648 410 314 425 528
8 535 429 317 416 649 546 427 530
8 650 548 430 531 532 432 320 413
8 539 438 325 420 650 548 430 531
8 533 433 550 651 414 321 432 532
8 536 434 551 652 417 322 433 533
8 537 431 319 418 653 547 428 534
8 535 429 547 653 416 317 428 534
8 538 435 552 654 419 323 434 536
8 538 435 323 419 655 549 431 537
8 540 440 327 421 657 556 438 539
8 540 440 557 659 421 327 439 541
8 541 439 555 660 423 326 437 543
8 661 554 436 542 543 437 324 422
8 676 570 452 559 590 473 365 484
8 560 453 338 441 676 570 452 559
8 562 455 340 443 677 571 453 560
8 447 344 459 566 561 457 575 678
8 564 456 341 445 679 573 455 562
8 567 460 345 448 680 572 454 563
8 680 572 454 563 564 456 341 445
8 565 458 576 682 447 344 459 566
8 450 346 461 569 565 458 576 682
8 568 462 347 449 684 578 460 567
8 451 348 462 568 569 461 579 685
8 686 580 463 570 591 474 360 473
8 571 464 350 453 686 580 463 570
8 573 466 352 455 687 581 464 571
8 572 465 582 688 460 357 471 578
8 574 467 582 688 456 353 465 572
8 574 467 353 456 689 583 466 573
8 459 356 470 577 575 468 585 691
8 576 469 586 692 459 356 470 577
8 461 358 472 579 576 469 586 692
8 462 359 471 578 579 472 588 694
8 704 591 473 590 593 475 363 481
8 595 476 592 705 475 361 474 591
8 593 475 363 481 707 594 479 602
8 594 477 362 479 709 598 478 600
8 595 476 361 475 711 597 477 594
8 479 362 480 603 600 478 601 720
8 481 363 482 605 602 479 603 722
8 603 480 364 482 723 604 483 606
8 605 482 365 484 724 606 485 607
8 656 553 608 726 542 436 487 609
8 645 542 609 728 525 422 488 611
8 609 487 610 729 488 369 489 612
8 611 488 612 730 491 371 490 613
8 616 504 386 495 731 624 503 614
8 731 624 503 614 678 575 457 561
8 732 622 501 615 616 504 386 495
8 617 502 384 496 732 622 501 615
8 617 502 621 735 496 384 500 618
8 736 620 499 619 618 500 382 497
8 630 527 408 511 736 620 499 619
8 621 506 626 737 500 388 505 620
8 647 544 424 527 737 626 505 620
8 623 508 627 738 502 390 506 621
8 623 508 390 502 739 628 507 622
8 625 510 628 739 504 392 507 622
8 740 629 509 624 691 585 468 575
8 625 510 392 504 740 629 509 624
8 632 529 410 513 744 647 527 630
8 631 528 648 745 514 411 530 633
8 632 529 648 745 513 410 528 631
8 638 535 416 519 746 649 530 633
8 747 650 531 634 635 532 413 516
8 642 539 420 523 747 650 531 634
8 636 533 651 748 517 414 532 635
8 640 536 652 749 521 417 533 636
8 639 537 418 520 750 653 534 637
8 638 535 653 750 519 416 534 637
8 641 538 419 522 751 655 537 639
8 641 538 654 752 522 419 536 640
8 643 540 421 524 753 657 539 642
8 643 540 659 755 524 421 541 644
8 644 541 660 757 526 423 543 646
8 758 661 542 645 646 543 422 525
8 529 426 544 647 648 545 662 759
8 530 427 545 648 649 546 663 760
8 535 429 546 649 653 547 664 761
8 762 666 548 650 651 550 432 532
8 657 556 438 539 762 666 548 650
8 652 551 668 763 533 433 550 651
8 654 552 669 764 536 434 551 652
8 655 549 431 537 765 665 547 653
8 538 435 549 655 654 552 667 766
8 661 554 671 768 542 436 553 656
8 658 558 440 540 769 674 556 657
8 658 558 675 770 540 440 557 659
8 659 557 673 771 541 439 555 660
8 660 555 672 772 543 437 554 661
8 788 686 570 676 704 591 473 590
8 677 571 453 560 788 686 570 676
8 679 573 455 562 789 687 571 677
8 566 459 577 683 678 575 691 790
8 681 574 456 564 791 689 573 679
8 680 572 688 792 567 460 578 684
8 681 574 688 792 564 456 572 680
8 682 576 692 794 566 459 577 683
8 569 461 579 685 682 576 692 794
8 568 462 578 684 685 579 694 796
8 687 581 464 571 798 696 580 686
8 798 696 580 686 705 592 474 591
8 689 583 466 573 799 697 581 687
8 688 582 698 800 578 471 588 694
8 690 584 698 800 574 467 582 688
8 690 584 467 574 801 699 583 689
8 693 587 701 803 577 470 585 691
8 693 587 470 577 804 702 586 692
8 695 589 702 804 579 472 586 692
8 695 589 472 579 805 703 588 694
8 708 595 705 813 593 475 591 704
8 710 596 706 814 595 476 592 705
8 707 594 479 602 816 709 600 719
8 708 595 475 593 817 711 594 707
8 709 598 478 600 819 715 599 717
8 711 597 477 594 820 714 598 709
8 710 596 476 595 822 713 597 711
8 600 478 601 720 717 599 718 832
8 602 479 603 722 719 600 720 834
8 720 601 480 603 835 721 604 723
8 722 603 482 605 836 723 606 724
8 767 670 725 839 656 553 608 726
8 756 656 726 841 645 542 609 728
8 726 608 727 842 609 487 610 729
8 728 609 729 843 611 488 612 730
8 844 740 624 731 790 691 575 678
8 733 625 504 616 844 740 624 731
8 734 623 502 617 845 739 622 732
8 733 625 739 845 616 504 622 732
8 734 623 738 846 617 502 621 735
8 735 621 737 847 618 500 620 736
8 744 647 527 630 847 737 620 736
8 621 506 627 738 737 626 741 848
8 647 544 626 737 759 662 741 848
8 623 508 628 739 738 627 742 849
8 740 629 585 691 850 743 700 802
8 625 510 629 740 739 628 743 850
8 632 529 647 744 745 648 759 854
8 633 530 648 745 746 649 760 855
8 638 535 649 746 750 653 761 856
8 857 762 650 747 748 651 532 635
8 753 657 539 642 857 762 650 747
8 749 652 763 858 636 533 651 748
8 752 654 764 859 640 536 652 749
8 751 655 537 639 860 765 653 750
8 641 538 655 751 752 654 766 861
8 754 658 540 643 862 769 657 753
8 754 658 770 863 643 540 659 755
8 755 659 771 864 644 541 660 757
8 758 661 768 866 645 542 656 756
8 757 660 772 867 646 543 661 758
8 759 662 773 868 648 545 663 760
8 649 546 663 760 761 664 774 871
8 765 665 547 653 872 775 664 761
8 873 777 666 762 763 668 550 651
8 769 674 556 657 873 777 666 762
8 764 669 779 874 652 551 668 763
8 654 552 667 766 764 669 778 875
8 655 549 665 765 766 667 776 876
8 768 671 782 877 656 553 670 767
8 772 672 783 878 661 554 671 768
8 658 558 674 769 770 675 786 879
8 659 557 675 770 771 673 785 881
8 882 784 672 772 771 673 555 660
8 789 687 571 677 897 798 686 788
8 897 798 686 788 813 705 591 704
8 791 689 573 679 898 799 687 789
8 795 693 803 900 683 577 691 790
8 793 690 574 681 901 801 689 791
8 792 688 800 902 684 578 694 796
8 793 690 800 902 681 574 688 792
8 795 693 577 683 903 804 692 794
8 797 695 804 903 685 579 692 794
8 797 695 579 685 904 805 694 796
8 905 806 697 799 798 696 581 687
8 814 706 806 905 705 592 696 798
8 689 583 697 799 801 699 808 907
8 800 698 809 908 694 588 703 805
8 690 584 699 801 800 698 809 908
8 803 701 810 909 691 585 700 802
8 693 587 702 804 803 701 811 910
8 695 589 703 805 804 702 812 911
8 818 710 814 919 708 595 705 813
8 821 712 815 920 710 596 706 814
8 816 709 600 719 922 819 717 831
8 817 711 594 707 923 820 709 816
8 818 710 595 708 924 822 711 817
8 819 715 599 717 926 827 716 829
8 820 714 598 709 927 826 715 819
8 929 825 713 822 820 714 597 711
8 821 712 596 710 930 824 713 822
8 717 599 718 832 829 716 830 942
8 719 600 720 834 831 717 832 944
8 832 718 601 720 945 833 721 835
8 834 720 603 722 946 835 723 836
8 869 780 838 950 767 670 725 839
8 865 767 839 952 756 656 726 841
8 839 725 840 953 726 608 727 842
8 841 726 842 954 728 609 729 843
8 844 740 691 790 955 850 802 899
8 733 625 740 844 845 739 850 955
8 734 623 739 845 846 738 849 956
8 735 621 738 846 847 737 848 957
8 744 647 737 847 854 759 848 957
8 738 627 742 849 848 741 851 958
8 848 741 851 958 759 662 773 868
8 850 743 700 802 959 852 807 906
8 849 742 628 739 959 852 743 850
8 854 759 868 965 745 648 760 855
8 746 649 760 855 856 761 871 966
8 860 765 653 750 967 872 761 856
8 968 873 762 857 858 763 651 748
8 862 769 657 753 968 873 762 857
8 859 764 874 969 749 652 763 858
8 752 654 766 861 859 764 875 970
8 751 655 765 860 861 766 876 971
8 754 658 769 862 863 770 879 972
8 755 659 770 863 864 771 881 974
8 976 882 772 867 864 771 660 757
8 866 768 877 977 756 656 767 865
8 867 772 878 978 758 661 768 866
8 760 663 773 868 871 774 883 980
8 870 781 837 948 982 890 780 869
8 982 890 780 869 877 782 670 767
8 761 664 774 871 872 775 884 984
8 876 776 665 765 985 885 775 872
8 873 777 668 763 986 887 779 874
8 769 674 777 873 879 786 887 986
8 764 669 778 875 874 779 888 987
8 766 667 776 876 875 778 886 988
8 878 783 892 989 768 671 782 877
8 878 783 672 772 990 893 784 882
8 880 787 675 770 991 896 786 879
8 880 787 895 992 770 675 785 881
8 881 785 894 993 771 673 784 882
8 1006 905 799 898 897 798 687 789
8 919 814 905 1006 813 705 798 897
8 791 689 799 898 901 801 907 1007
8 900 803 909 1009 790 691 802 899
8 795 693 804 903 900 803 910 1010
8 902 800 908 1011 796 694 805 904
8 793 690 801 901 902 800 908 1011
8 797 695 805 904 903 804 911 1012
8 799 697 806 905 907 808 912 1013
8 920 815 912 1013 814 706 806 905
8 802 700 810 909 906 807 913 1014
8 801 699 808 907 908 809 914 1015
8 805 703 809 908 911 812 915 1016
8 803 701 811 910 909 810 916 1017
8 911 812 917 1018 804 702 811 910
8 925 821 920 1030 818 710 814 919
8 928 823 921 1031 821 712 815 920
8 922 819 717 831 1033 926 829 941
8 923 820 709 816 1034 927 819 922
8 1035 929 822 924 923 820 711 817
8 925 821 710 818 1036 930 822 924
8 1038 933 825 929 927 826 714 820
8 926 827 716 829 1039 935 828 939
8 927 826 715 819 1040 934 827 926
8 928 823 712 821 1041 931 824 930
8 1042 932 824 930 929 825 713 822
8 829 716 830 942 939 828 940 1058
8 831 717 832 944 941 829 942 1060
8 942 830 718 832 1061 943 833 945
8 944 832 720 834 1062 945 835 946
8 981 889 947 1064 870 781 837 948
8 948 837 949 1067 869 780 838 950
8 975 869 950 1069 865 767 839 952
8 950 838 951 1070 839 725 840 953
8 952 839 953 1071 841 726 842 954
8 955 850 802 899 1072 959 906 1008
8 956 849 739 845 1072 959 850 955
8 846 738 849 956 957 848 958 1073
8 957 848 958 1073 854 759 868 965
8 849 742 852 959 958 851 961 1076
8 960 853 961 1076 906 807 852 959
8 958 851 961 1076 868 773 883 980
8 960 853 807 906 1077 963 913 1014
8 855 760 868 965 966 871 980 1085
8 856 761 871 966 967 872 984 1086
8 971 876 765 860 1087 985 872 967
8 968 873 763 858 1088 986 874 969
8 862 769 873 968 972 879 986 1088
8 859 764 875 970 969 874 987 1089
8 861 766 876 971 970 875 988 1090
8 973 880 770 863 1091 991 879 972
8 973 880 992 1092 863 770 881 974
8 974 881 993 1093 864 771 882 976
8 979 870 948 1066 1094 982 869 975
8 1094 982 869 975 977 877 767 865
8 978 878 772 867 1095 990 882 976
8 978 878 989 1096 866 768 877 977
8 871 774 883 980 984 884 994 1099
8 983 891 999 1100 870 781 889 981
8 1101 1000 890 982 989 892 782 877
8 983 891 781 870 1101 1000 890 982
8 872 775 884 984 985 885 995 1103
8 876 776 885 985 988 886 996 1104
8 986 887 779 874 1105 998 888 987
8 879 786 887 986 991 896 998 1105
8 875 778 886 988 987 888 997 1106
8 990 893 1002 1107 878 783 892 989
8 1108 1003 893 990 993 894 784 882
8 880 787 896 991 992 895 1005 1109
8 993 894 785 881 1110 1004 895 992
8 898 799 905 1006 1007 907 1013 1120
8 1030 920 1013 1120 919 814 905 1006
8 901 801 907 1007 1011 908 1015 1121
8 899 802 909 1009 1008 906 1014 1122
8 900 803 910 1010 1009 909 1017 1123
8 1012 911 1018 1124 903 804 910 1010
8 904 805 908 1011 1012 911 1016 1125
8 1013 912 1020 1127 907 808 914 1015
8 1031 921 1020 1127 920 815 912 1013
8 1019 918 962 1075 1128 1021 913 1014
8 1128 1021 913 1014 1017 916 810 909
8 1015 914 1022 1129 908 809 915 1016
8 1016 915 1023 1130 911 812 917 1018
8 1018 917 1024 1131 910 811 916 1017
8 1037 928 1031 1148 925 821 920 1030
8 928 823 931 1041 1031 921 1032 1149
8 1033 926 829 941 1151 1039 939 1057
8 1034 927 819 922 1152 1040 926 1033
8 1153 1038 929 1035 1034 927 820 923
8 1154 1042 930 1036 1035 929 822 924
8 1037 928 821 925 1155 1041 930 1036
8 1039 935 828 939 1156 1047 938 1055
8 1157 1043 932 1042 1038 933 825 929
8 1038 933 826 927 1158 1045 934 1040
8 1040 934 827 926 1159 1046 935 1039
8 930 824 932 1042 1041 931 1044 1160
8 1051 936 1048 1165 1175 1052 937 1053
8 1156 1047 938 1055 1053 937 1054 1178
8 939 828 940 1058 1055 938 1056 1181
8 941 829 942 1060 1057 939 1058 1183
8 942 830 943 1061 1058 940 1059 1184
8 1060 942 832 944 1185 1061 945 1062
8 1082 964 1063 1188 981 889 947 1064
8 1097 981 1064 1190 979 870 948 1066
8 1064 947 1065 1191 948 837 949 1067
8 1066 948 1067 1193 975 869 950 1069
8 1067 949 1068 1194 950 838 951 1070
8 1069 950 1070 1195 952 839 953 1071
8 956 849 959 1072 1073 958 1076 1197
8 1074 960 1076 1197 1008 906 959 1072
8 1073 958 1076 1197 965 868 980 1085
8 1074 960 906 1008 1198 1077 1014 1122
8 1133 1026 1079 1199 1019 918 962 1075
8 1077 963 913 1014 1200 1080 962 1075
8 960 853 963 1077 1076 961 1078 1201
8 980 883 961 1076 1099 994 1078 1201
8 1210 1083 964 1082 1100 999 889 981
8 966 871 980 1085 1086 984 1099 1215
8 967 872 984 1086 1087 985 1103 1216
8 971 876 985 1087 1090 988 1104 1217
8 1088 986 874 969 1218 1105 987 1089
8 972 879 986 1088 1091 991 1105 1218
8 970 875 988 1090 1089 987 1106 1219
8 973 880 991 1091 1092 992 1109 1220
8 1093 993 881 974 1221 1110 992 1092
8 1222 1108 990 1095 1093 993 882 976
8 1223 1101 982 1094 1096 989 877 977
8 1098 983 870 979 1223 1101 982 1094
8 1095 990 1107 1224 978 878 989 1096
8 1098 983 1100 1225 979 870 981 1097
8 984 884 994 1099 1103 995 1111 1227
8 1102 1001 1115 1228 983 891 999 1100
8 1101 1000 892 989 1229 1116 1002 1107
8 1102 1001 891 983 1229 1116 1000 1101
8 985 885 995 1103 1104 996 1112 1230
8 988 886 996 1104 1106 997 1113 1231
8 1105 998 888 987 1232 1114 997 1106
8 991 896 998 1105 1109 1005 1114 1232
8 1108 1003 1117 1233 990 893 1002 1107
8 1108 1003 894 993 1233 1117 1004 1110
8 992 895 1005 1109 1110 1004 1118 1234
8 1120 1013 1127 1244 1007 907 1015 1121
8 1148 1031 1127 1244 1030 920 1013 1120
8 1121 1015 1129 1245 1011 908 1016 1125
8 1126 1019 1075 1196 1246 1128 1014 1122
8 1246 1128 1014 1122 1123 1017 909 1009
8 1124 1018 1131 1247 1010 910 1017 1123
8 1125 1016 1130 1248 1012 911 1018 1124
8 1127 1020 1137 1254 1015 914 1022 1129
8 1031 921 1032 1149 1127 1020 1137 1254
8 1134 1027 918 1019 1257 1140 1021 1128
8 1257 1140 1021 1128 1131 1024 916 1017
8 1129 1022 1141 1258 1016 915 1023 1130
8 1130 1023 1142 1259 1018 917 1024 1131
8 1261 1144 1025 1132 1133 1026 1079 1199
8 1255 1138 1025 1132 1135 1028 1144 1261
8 1133 1026 918 1019 1262 1145 1027 1134
8 1136 1029 1139 1256 1263 1146 1028 1135
8 1037 928 1041 1155 1148 1031 1149 1275
8 1041 931 1044 1160 1149 1032 1150 1276
8 1151 1039 939 1057 1278 1156 1055 1180
8 1152 1040 926 1033 1279 1159 1039 1151
8 1153 1038 927 1034 1280 1158 1040 1152
8 1281 1157 1042 1154 1153 1038 929 1035
8 1036 930 1042 1154 1155 1041 1160 1282
8 1283 1164 1046 1159 1156 1047 935 1039
8 1165 1048 1164 1283 1053 937 1047 1156
8 1157 1043 933 1038 1284 1161 1045 1158
8 1157 1043 1161 1284 1042 932 1044 1160
8 1040 934 1046 1159 1158 1045 1163 1285
8 1166 1049 1167 1292 1051 936 1048 1165
8 1166 1049 936 1051 1293 1168 1050 1172
8 1051 936 1052 1175 1172 1050 1173 1306
8 1174 1051 1165 1290 1308 1175 1053 1177
8 1053 937 1054 1178 1175 1052 1176 1309
8 1278 1156 1055 1180 1177 1053 1178 1311
8 1055 938 1056 1181 1178 1054 1179 1312
8 1057 939 1058 1183 1180 1055 1181 1314
8 1058 940 1059 1184 1181 1056 1182 1315
8 1060 942 1061 1185 1183 1058 1184 1316
8 1208 1081 1187 1321 1082 964 1063 1188
8 1209 1082 1188 1322 1097 981 1064 1190
8 1188 1063 1189 1323 1064 947 1065 1191
8 1190 1064 1191 1325 1066 948 1067 1193
8 1191 1065 1192 1326 1067 949 1068 1194
8 1067 1193 1069 950 1194 1327 1195 1070
8 1250 1133 1199 1330 1126 1019 1075 1196
8 1198 1077 1014 1122 1331 1200 1075 1196
8 1074 960 1077 1198 1197 1076 1201 1332
8 1085 980 1076 1197 1215 1099 1201 1332
8 1199 1079 1203 1333 1075 962 1080 1200
8 1132 1025 1119 1243 1199 1079 1203 1333
8 1201 1078 963 1077 1334 1202 1080 1200
8 1099 994 1078 1201 1227 1111 1202 1334
8 1343 1207 1081 1208 1210 1083 964 1082
8 1214 1084 1186 1319 1343 1207 1081 1208
8 1345 1210 1082 1209 1225 1100 981 1097
8 1346 1211 1083 1210 1228 1115 999 1100
8 1086 984 1099 1215 1216 1103 1227 1352
8 1087 985 1103 1216 1217 1104 1230 1353
8 1090 988 1104 1217 1219 1106 1231 1354
8 1218 1105 987 1089 1355 1232 1106 1219
8 1091 991 1105 1218 1220 1109 1232 1355
8 1092 992 1109 1220 1221 1110 1234 1356
8 1222 1108 1233 1357 1095 990 1107 1224
8 1222 1108 993 1093 1357 1233 1110 1221
8 1223 1101 989 1096 1358 1229 1107 1224
8 1226 1102 983 1098 1358 1229 1101 1223
8 1226 1102 1228 1359 1098 983 1100 1225
8 1103 995 1111 1227 1230 1112 1235 1360
8 1107 1002 1117 1233 1229 1116 1240 1362
8 1102 1001 1116 1229 1228 1115 1240 1362
8 1104 996 1112 1230 1231 1113 1236 1363
8 1364 1237 1114 1232 1231 1113 997 1106
8 1109 1005 1114 1232 1234 1118 1238 1365
8 1110 1004 1118 1234 1233 1117 1241 1366
8 1242 1374 1255 1138 1119 1243 1132 1025
8 1244 1127 1254 1376 1121 1015 1129 1245
8 1148 1031 1149 1275 1244 1127 1254 1376
8 1245 1129 1258 1377 1125 1016 1130 1248
8 1251 1134 1019 1126 1378 1257 1128 1246
8 1378 1257 1128 1246 1247 1131 1017 1123
8 1248 1130 1259 1379 1124 1018 1131 1247
8 1261 1381 1250 1133 1132 1249 1330 1199
8 1255 1380 1252 1135 1132 1249 1381 1261
8 1250 1133 1019 1126 1382 1262 1134 1251
8 1253 1136 1256 1385 1384 1263 1135 1252
8 1254 1137 1265 1387 1129 1022 1141 1258
8 1149 1032 1150 1276 1254 1137 1265 1387
8 1028 1135 1255 1138 1139 1256 1388 1266
8 1136 1029 1147 1264 1256 1139 1267 1389
8 1390 1268 1140 1257 1259 1142 1024 1131
8 1260 1143 1027 1134 1390 1268 1140 1257
8 1258 1141 1269 1391 1130 1023 1142 1259
8 1262 1145 1027 1134 1393 1271 1143 1260
8 1261 1144 1026 1133 1394 1272 1145 1262
8 1135 1028 1144 1261 1263 1146 1272 1394
8 1136 1029 1146 1263 1264 1147 1273 1395
8 1155 1041 1160 1282 1275 1149 1276 1405
8 1276 1150 1044 1160 1406 1277 1162 1286
8 1408 1283 1159 1279 1278 1156 1039 1151
8 1290 1165 1283 1408 1177 1053 1156 1278
8 1152 1040 1159 1279 1280 1158 1285 1409
8 1281 1157 1038 1153 1410 1284 1158 1280
8 1281 1157 1284 1410 1154 1042 1160 1282
8 1159 1046 1164 1283 1285 1163 1289 1412
8 1292 1167 1289 1412 1165 1048 1164 1283
8 1158 1045 1163 1285 1284 1161 1288 1413
8 1284 1161 1288 1413 1160 1044 1162 1286
8 1291 1166 1292 1418 1174 1051 1165 1290
8 1291 1166 1051 1174 1419 1293 1172 1305
8 1294 1169 1296 1421 1166 1049 1167 1292
8 1293 1168 1050 1172 1422 1295 1171 1303
8 1294 1169 1049 1166 1423 1297 1168 1293
8 1422 1295 1171 1303 1301 1170 1302 1435
8 1172 1050 1173 1306 1303 1171 1304 1438
8 1174 1051 1175 1308 1305 1172 1306 1440
8 1175 1052 1176 1309 1306 1173 1307 1441
8 1177 1053 1178 1311 1308 1175 1309 1443
8 1178 1054 1179 1312 1309 1176 1310 1444
8 1180 1055 1181 1314 1311 1178 1312 1446
8 1056 1181 1312 1179 1182 1315 1447 1313
8 1183 1058 1184 1316 1314 1181 1315 1448
8 1319 1186 1084 1214 1451 1317 1213 1350
8 1319 1186 1318 1453 1208 1081 1187 1321
8 1321 1187 1320 1456 1188 1063 1189 1323
8 1344 1208 1321 1457 1209 1082 1188 1322
8 1322 1188 1323 1458 1190 1064 1191 1325
8 1323 1189 1324 1459 1191 1065 1192 1326
8 1191 1325 1193 1067 1326 1460 1327 1194
8 1242 1374 1243 1119 1328 1462 1335 1204
8 1330 1199 1333 1465 1196 1075 1200 1331
8 1132 1249 1330 1199 1243 1375 1465 1333
8 1332 1201 1077 1198 1466 1334 1200 1331
8 1215 1099 1201 1332 1352 1227 1334 1466
8 1119 1243 1333 1203 1204 1335 1470 1338
8 1333 1203 1338 1470 1200 1080 1202 1334
8 1227 1111 1202 1334 1360 1235 1338 1470
8 1328 1462 1335 1204 1205 1336 1471 1339
8 1337 1206 1340 1472 1464 1329 1205 1336
8 1346 1211 1342 1479 1210 1083 1207 1343
8 1346 1211 1115 1228 1479 1342 1239 1361
8 1348 1212 1084 1214 1479 1342 1207 1343
8 1480 1343 1208 1344 1345 1210 1082 1209
8 1351 1214 1319 1454 1480 1343 1208 1344
8 1481 1346 1210 1345 1359 1228 1100 1225
8 1348 1212 1347 1483 1214 1084 1213 1350
8 1216 1103 1227 1352 1353 1230 1360 1488
8 1217 1104 1230 1353 1354 1231 1363 1489
8 1490 1364 1232 1355 1354 1231 1106 1219
8 1220 1109 1232 1355 1356 1234 1365 1491
8 1221 1110 1234 1356 1357 1233 1366 1492
8 1224 1107 1233 1357 1358 1229 1362 1493
8 1226 1102 1229 1358 1359 1228 1362 1493
8 1230 1112 1235 1360 1363 1236 1367 1496
8 1361 1239 1115 1228 1497 1371 1240 1362
8 1366 1241 1372 1498 1233 1117 1240 1362
8 1364 1237 1113 1231 1499 1368 1236 1363
8 1364 1237 1368 1499 1232 1114 1238 1365
8 1234 1118 1238 1365 1366 1241 1369 1500
8 1507 1373 1242 1374 1388 1266 1138 1255
8 1508 1374 1243 1375 1380 1255 1132 1249
8 1376 1254 1387 1509 1245 1129 1258 1377
8 1275 1149 1276 1405 1376 1254 1387 1509
8 1377 1258 1391 1510 1248 1130 1259 1379
8 1511 1390 1257 1378 1379 1259 1131 1247
8 1383 1260 1134 1251 1511 1390 1257 1378
8 1252 1135 1256 1385 1380 1255 1388 1512
8 1261 1381 1513 1394 1133 1250 1382 1262
8 1135 1252 1384 1263 1261 1381 1513 1394
8 1382 1262 1134 1251 1514 1393 1260 1383
8 1253 1136 1263 1384 1386 1264 1395 1516
8 1253 1136 1264 1386 1385 1256 1389 1517
8 1387 1265 1397 1519 1258 1141 1269 1391
8 1276 1150 1277 1406 1387 1265 1397 1519
8 1256 1139 1267 1389 1388 1266 1398 1520
8 1264 1147 1274 1396 1389 1267 1399 1521
8 1392 1270 1143 1260 1522 1400 1268 1390
8 1390 1268 1142 1259 1522 1400 1269 1391
8 1392 1270 1401 1523 1260 1143 1271 1393
8 1272 1394 1524 1402 1145 1262 1393 1271
8 1395 1273 1146 1263 1524 1402 1272 1394
8 1273 1395 1264 1147 1403 1526 1396 1274
8 1405 1276 1160 1282 1534 1406 1286 1411
8 1414 1287 1407 1535 1286 1162 1277 1406
8 1279 1159 1283 1408 1409 1285 1412 1537
8 1418 1292 1412 1537 1290 1165 1283 1408
8 1280 1158 1285 1409 1410 1284 1413 1538
8 1410 1284 1413 1538 1282 1160 1286 1411
8 1285 1163 1289 1412 1413 1288 1417 1540
8 1421 1296 1417 1540 1292 1167 1289 1412
8 1414 1287 1162 1286 1541 1416 1288 1413
8 1420 1294 1421 1545 1291 1166 1292 1418
8 1419 1293 1172 1305 1546 1422 1303 1437
8 1420 1294 1166 1291 1547 1423 1293 1419
8 1294 1169 1297 1423 1421 1296 1425 1548
8 1423 1297 1168 1293 1549 1424 1295 1422
8 1301 1170 1298 1427 1422 1295 1424 1549
8 1432 1300 1428 1554 1301 1170 1298 1427
8 1431 1299 1428 1554 1560 1430 1300 1432
8 1563 1433 1300 1432 1435 1302 1170 1301
8 1546 1422 1303 1437 1434 1301 1435 1565
8 1303 1171 1304 1438 1435 1302 1436 1566
8 1305 1172 1306 1440 1437 1303 1438 1568
8 1306 1173 1307 1441 1438 1304 1439 1569
8 1308 1175 1309 1443 1440 1306 1441 1571
8 1309 1176 1310 1444 1441 1307 1442 1572
8 1311 1178 1312 1446 1443 1309 1444 1574
8 1179 1312 1444 1310 1313 1447 1575 1445
8 1314 1181 1315 1448 1446 1312 1447 1576
8 1350 1213 1349 1486 1451 1317 1449 1579
8 1451 1317 1450 1581 1319 1186 1318 1453
8 1454 1319 1214 1351 1582 1451 1350 1487
8 1453 1318 1452 1584 1321 1187 1320 1456
8 1454 1319 1453 1585 1344 1208 1321 1457
8 1456 1320 1455 1586 1323 1189 1324 1459
8 1457 1321 1456 1587 1322 1188 1323 1458
8 1458 1323 1459 1588 1325 1191 1326 1460
8 1205 1336 1464 1329 1328 1462 1590 1461
8 1507 1373 1461 1590 1374 1242 1328 1462
8 1508 1374 1462 1591 1375 1243 1335 1467
8 1337 1206 1329 1464 1473 1341 1463 1594
8 1375 1243 1335 1467 1465 1333 1470 1596
8 1465 1333 1470 1596 1331 1200 1334 1466
8 1352 1227 1334 1466 1488 1360 1470 1596
8 1591 1462 1336 1468 1467 1335 1471 1597
8 1469 1337 1472 1598 1595 1464 1336 1468
8 1471 1339 1474 1600 1335 1204 1338 1470
8 1600 1474 1367 1496 1470 1338 1235 1360
8 1336 1205 1340 1472 1471 1339 1475 1601
8 1337 1206 1341 1473 1472 1340 1476 1602
8 1495 1370 1478 1609 1361 1239 1342 1479
8 1348 1212 1342 1479 1483 1347 1478 1609
8 1481 1346 1479 1610 1345 1210 1343 1480
8 1481 1346 1228 1359 1610 1479 1361 1494
8 1484 1348 1214 1351 1610 1479 1343 1480
8 1483 1347 1482 1612 1350 1213 1349 1486
8 1484 1348 1483 1613 1351 1214 1350 1487
8 1353 1230 1360 1488 1489 1363 1496 1616
8 1490 1364 1231 1354 1617 1499 1363 1489
8 1490 1364 1499 1617 1355 1232 1365 1491
8 1356 1234 1365 1491 1492 1366 1500 1619
8 1492 1366 1498 1620 1357 1233 1362 1493
8 1494 1361 1228 1359 1621 1497 1362 1493
8 1495 1370 1239 1361 1622 1504 1371 1497
8 1363 1236 1367 1496 1499 1368 1501 1623
8 1497 1371 1240 1362 1624 1505 1372 1498
8 1625 1503 1372 1498 1500 1369 1241 1366
8 1365 1238 1368 1499 1500 1369 1502 1626
8 1520 1398 1506 1633 1388 1266 1373 1507
8 1634 1507 1374 1508 1512 1388 1255 1380
8 1509 1387 1519 1635 1377 1258 1391 1510
8 1405 1276 1406 1534 1509 1387 1519 1635
8 1515 1392 1260 1383 1636 1522 1390 1511
8 1511 1390 1259 1379 1636 1522 1391 1510
8 1385 1256 1389 1517 1512 1388 1520 1637
8 1513 1394 1262 1382 1638 1524 1393 1514
8 1395 1516 1638 1524 1263 1384 1513 1394
8 1515 1392 1523 1639 1383 1260 1393 1514
8 1516 1395 1526 1640 1386 1264 1396 1518
8 1386 1264 1396 1518 1517 1389 1521 1641
8 1519 1397 1527 1643 1391 1269 1400 1522
8 1535 1407 1527 1643 1406 1277 1397 1519
8 1389 1267 1399 1521 1520 1398 1528 1644
8 1645 1529 1399 1521 1525 1404 1274 1396
8 1392 1270 1400 1522 1523 1401 1531 1646
8 1524 1402 1271 1393 1648 1532 1401 1523
8 1403 1526 1648 1532 1273 1395 1524 1402
8 1525 1404 1274 1396 1649 1533 1403 1526
8 1539 1414 1535 1657 1411 1286 1406 1534
8 1542 1415 1536 1658 1414 1287 1407 1535
8 1409 1285 1412 1537 1538 1413 1540 1660
8 1545 1421 1540 1660 1418 1292 1412 1537
8 1539 1414 1286 1411 1661 1541 1413 1538
8 1540 1417 1544 1663 1413 1288 1416 1541
8 1421 1296 1425 1548 1540 1417 1544 1663
8 1542 1415 1287 1414 1664 1543 1416 1541
8 1420 1294 1423 1547 1545 1421 1548 1666
8 1547 1423 1293 1419 1667 1549 1422 1546
8 1434 1301 1427 1553 1546 1422 1549 1667
8 1423 1297 1424 1549 1548 1425 1550 1668
8 1551 1426 1550 1668 1427 1298 1424 1549
8 1551 1426 1298 1427 1671 1552 1428 1554
8 1562 1432 1554 1674 1434 1301 1427 1553
8 1431 1299 1429 1558 1554 1428 1555 1675
8 1431 1299 1430 1560 1558 1429 1557 1680
8 1560 1430 1300 1432 1683 1559 1433 1563
8 1561 1431 1554 1674 1684 1560 1432 1562
8 1685 1563 1432 1562 1565 1435 1301 1434
8 1435 1302 1436 1566 1563 1433 1564 1686
8 1437 1303 1438 1568 1565 1435 1566 1688
8 1438 1304 1439 1569 1566 1436 1567 1689
8 1440 1306 1441 1571 1568 1438 1569 1691
8 1441 1307 1442 1572 1569 1439 1570 1692
8 1443 1309 1444 1574 1571 1441 1572 1694
8 1310 1444 1572 1442 1445 1575 1695 1573
8 1446 1312 1447 1576 1574 1444 1575 1696
8 1486 1349 1485 1614 1579 1449 1577 1699
8 1451 1317 1449 1579 1581 1450 1578 1701
8 1487 1350 1486 1615 1582 1451 1579 1702
8 1581 1450 1580 1704 1453 1318 1452 1584
8 1582 1451 1581 1705 1454 1319 1453 1585
8 1584 1452 1583 1706 1456 1320 1455 1586
8 1585 1453 1584 1707 1457 1321 1456 1587
8 1587 1456 1586 1708 1458 1323 1459 1588
8 1633 1506 1589 1710 1507 1373 1461 1590
8 1464 1329 1461 1590 1594 1463 1589 1710
8 1468 1336 1462 1591 1595 1464 1590 1711
8 1634 1507 1590 1711 1508 1374 1462 1591
8 1473 1341 1463 1594 1603 1477 1593 1716
8 1469 1337 1464 1595 1599 1473 1594 1717
8 1471 1597 1467 1335 1600 1718 1596 1470
8 1718 1600 1496 1616 1596 1470 1360 1488
8 1336 1468 1597 1471 1472 1598 1719 1601
8 1469 1337 1473 1599 1598 1472 1602 1720
8 1722 1604 1501 1623 1600 1474 1367 1496
8 1475 1601 1471 1339 1604 1722 1600 1474
8 1602 1476 1605 1723 1472 1340 1475 1601
8 1476 1602 1724 1606 1341 1473 1603 1477
8 1483 1347 1478 1609 1612 1482 1608 1731
8 1495 1370 1504 1622 1609 1478 1608 1731
8 1618 1495 1609 1732 1494 1361 1479 1610
8 1484 1348 1479 1610 1613 1483 1609 1732
8 1486 1349 1482 1612 1614 1485 1611 1733
8 1613 1483 1612 1734 1487 1350 1486 1615
8 1489 1363 1496 1616 1617 1499 1623 1736
8 1491 1365 1499 1617 1619 1500 1626 1737
8 1618 1495 1361 1494 1738 1622 1497 1621
8 1739 1625 1498 1620 1619 1500 1366 1492
8 1621 1497 1362 1493 1740 1624 1498 1620
8 1742 1631 1504 1622 1624 1505 1371 1497
8 1743 1628 1502 1626 1623 1501 1368 1499
8 1744 1630 1505 1624 1625 1503 1372 1498
8 1745 1629 1503 1625 1626 1502 1369 1500
8 1520 1398 1528 1644 1633 1506 1632 1751
8 1637 1520 1633 1752 1512 1388 1507 1634
8 1635 1519 1643 1753 1510 1391 1522 1636
8 1657 1535 1643 1753 1534 1406 1519 1635
8 1515 1392 1522 1636 1639 1523 1646 1754
8 1517 1389 1521 1641 1637 1520 1644 1755
8 1524 1638 1756 1648 1393 1514 1639 1523
8 1640 1526 1395 1516 1756 1648 1524 1638
8 1642 1525 1396 1518 1757 1649 1526 1640
8 1758 1645 1521 1641 1642 1525 1396 1518
8 1646 1531 1400 1522 1760 1650 1527 1643
8 1535 1407 1536 1658 1643 1527 1650 1760
8 1521 1399 1529 1645 1644 1528 1651 1761
8 1647 1530 1652 1762 1525 1404 1529 1645
8 1401 1523 1648 1532 1531 1646 1763 1655
8 1525 1404 1533 1649 1647 1530 1654 1765
8 1533 1649 1766 1656 1403 1526 1648 1532
8 1662 1542 1658 1774 1539 1414 1535 1657
8 1542 1415 1543 1664 1658 1536 1659 1775
8 1660 1540 1663 1777 1538 1413 1541 1661
8 1545 1421 1548 1666 1660 1540 1663 1777
8 1662 1542 1414 1539 1778 1664 1541 1661
8 1664 1543 1416 1541 1779 1665 1544 1663
8 1548 1425 1550 1668 1663 1544 1665 1779
8 1547 1423 1549 1667 1666 1548 1668 1781
8 1670 1551 1668 1781 1553 1427 1549 1667
8 1551 1426 1552 1671 1668 1550 1669 1782
8 1670 1551 1427 1553 1784 1671 1554 1674
8 1675 1555 1672 1785 1554 1428 1552 1671
8 1678 1556 1673 1789 1558 1429 1555 1675
8 1561 1431 1558 1681 1674 1554 1675 1790
8 1794 1677 1556 1678 1680 1557 1429 1558
8 1560 1430 1559 1683 1680 1557 1679 1797
8 1561 1431 1560 1684 1681 1558 1680 1798
8 1563 1433 1564 1686 1683 1559 1682 1800
8 1684 1560 1432 1562 1801 1683 1563 1685
8 1565 1435 1566 1688 1685 1563 1686 1802
8 1566 1436 1567 1689 1686 1564 1687 1803
8 1568 1438 1569 1691 1688 1566 1689 1805
8 1569 1439 1570 1692 1689 1567 1690 1806
8 1571 1441 1572 1694 1691 1569 1692 1808
8 1442 1572 1692 1570 1573 1695 1809 1693
8 1574 1444 1575 1696 1694 1572 1695 1810
8 1614 1485 1592 1712 1699 1577 1697 1813
8 1579 1449 1577 1699 1701 1578 1698 1815
8 1615 1486 1614 1735 1702 1579 1699 1816
8 1701 1578 1700 1818 1581 1450 1580 1704
8 1582 1451 1579 1702 1705 1581 1701 1819
8 1704 1580 1703 1820 1584 1452 1583 1706
8 1705 1581 1704 1821 1585 1453 1584 1707
8 1707 1584 1706 1822 1587 1456 1586 1708
8 1710 1589 1506 1633 1824 1709 1632 1751
8 1594 1463 1589 1710 1716 1593 1709 1824
8 1752 1633 1710 1825 1634 1507 1590 1711
8 1595 1464 1590 1711 1717 1594 1710 1825
8 1830 1714 1592 1712 1733 1611 1485 1614
8 1603 1477 1593 1716 1725 1607 1715 1834
8 1599 1473 1594 1717 1721 1603 1716 1835
8 1837 1722 1623 1736 1718 1600 1496 1616
8 1719 1601 1722 1837 1597 1471 1600 1718
8 1602 1720 1598 1472 1723 1838 1719 1601
8 1720 1602 1473 1599 1839 1724 1603 1721
8 1723 1605 1726 1840 1601 1475 1604 1722
8 1840 1726 1628 1743 1722 1604 1501 1623
8 1724 1606 1727 1841 1602 1476 1605 1723
8 1725 1607 1728 1842 1603 1477 1606 1724
8 1612 1482 1608 1731 1733 1611 1730 1849
8 1741 1627 1730 1849 1622 1504 1608 1731
8 1613 1483 1609 1732 1734 1612 1731 1850
8 1618 1495 1622 1738 1732 1609 1731 1850
8 1615 1486 1612 1734 1735 1614 1733 1851
8 1852 1743 1626 1737 1736 1623 1499 1617
8 1853 1745 1625 1739 1737 1626 1500 1619
8 1855 1742 1622 1738 1740 1624 1497 1621
8 1856 1744 1624 1740 1739 1625 1498 1620
8 1741 1627 1504 1622 1857 1746 1631 1742
8 1742 1631 1505 1624 1858 1749 1630 1744
8 1859 1747 1629 1745 1743 1628 1502 1626
8 1860 1748 1630 1744 1745 1629 1503 1625
8 1644 1528 1651 1761 1751 1632 1750 1865
8 1637 1520 1644 1755 1752 1633 1751 1866
8 1754 1646 1522 1636 1867 1760 1643 1753
8 1657 1535 1658 1774 1753 1643 1760 1867
8 1639 1523 1646 1754 1756 1648 1763 1868
8 1641 1521 1645 1758 1755 1644 1761 1869
8 1757 1649 1526 1640 1870 1766 1648 1756
8 1642 1525 1649 1757 1759 1647 1765 1871
8 1759 1647 1762 1872 1642 1525 1645 1758
8 1760 1650 1767 1874 1646 1531 1655 1763
8 1658 1536 1659 1775 1760 1650 1767 1874
8 1762 1652 1768 1875 1645 1529 1651 1761
8 1764 1653 1769 1876 1647 1530 1652 1762
8 1656 1766 1877 1773 1532 1648 1763 1655
8 1771 1879 1765 1654 1653 1764 1647 1530
8 1533 1649 1765 1654 1656 1766 1880 1772
8 1662 1542 1664 1778 1774 1658 1775 1887
8 1664 1543 1665 1779 1775 1659 1776 1888
8 1778 1664 1541 1661 1890 1779 1663 1777
8 1666 1548 1668 1781 1777 1663 1779 1890
8 1782 1669 1780 1891 1668 1550 1665 1779
8 1670 1551 1671 1784 1781 1668 1782 1893
8 1671 1552 1672 1785 1782 1669 1783 1894
8 1790 1675 1785 1896 1674 1554 1671 1784
8 1675 1555 1673 1789 1785 1672 1786 1897
8 1792 1676 1788 1903 1678 1556 1673 1789
8 1795 1678 1789 1904 1681 1558 1675 1790
8 1792 1676 1556 1678 1906 1791 1677 1794
8 1680 1557 1679 1797 1794 1677 1793 1909
8 1910 1794 1678 1795 1798 1680 1558 1681
8 1683 1559 1682 1800 1797 1679 1796 1912
8 1684 1560 1683 1801 1798 1680 1797 1913
8 1686 1564 1687 1803 1800 1682 1799 1915
8 1685 1563 1686 1802 1801 1683 1800 1916
8 1688 1566 1689 1805 1802 1686 1803 1917
8 1689 1567 1690 1806 1803 1687 1804 1918
8 1691 1569 1692 1808 1805 1689 1806 1920
8 1692 1570 1693 1809 1806 1690 1807 1921
8 1694 1572 1695 1810 1808 1692 1809 1922
8 1829 1713 1811 1926 1712 1592 1697 1813
8 1813 1697 1812 1928 1699 1577 1698 1815
8 1735 1614 1712 1828 1816 1699 1813 1929
8 1815 1698 1814 1931 1701 1578 1700 1818
8 1702 1579 1699 1816 1819 1701 1815 1932
8 1818 1700 1817 1933 1704 1580 1703 1820
8 1819 1701 1818 1934 1705 1581 1704 1821
8 1821 1704 1820 1935 1707 1584 1706 1822
8 1824 1709 1632 1751 1937 1823 1750 1865
8 1716 1593 1709 1824 1834 1715 1823 1937
8 1825 1710 1633 1752 1938 1824 1751 1866
8 1717 1594 1710 1825 1835 1716 1824 1938
8 1945 1830 1712 1828 1851 1733 1614 1735
8 1830 1714 1831 1946 1712 1592 1713 1829
8 1947 1832 1714 1830 1849 1730 1611 1733
8 1843 1729 1607 1725 1950 1833 1715 1834
8 1721 1603 1716 1835 1836 1725 1834 1951
8 1836 1725 1842 1953 1721 1603 1724 1839
8 1723 1838 1719 1601 1840 1954 1837 1722
8 1954 1840 1743 1852 1837 1722 1623 1736
8 1724 1839 1720 1602 1841 1955 1838 1723
8 1841 1727 1844 1956 1723 1605 1726 1840
8 1956 1844 1747 1859 1840 1726 1628 1743
8 1728 1842 1724 1606 1845 1957 1841 1727
8 1725 1607 1729 1843 1842 1728 1846 1958
8 1741 1627 1746 1857 1849 1730 1848 1965
8 1734 1612 1731 1850 1851 1733 1849 1966
8 1854 1741 1849 1966 1738 1622 1731 1850
8 1967 1859 1745 1853 1852 1743 1626 1737
8 1968 1860 1744 1856 1853 1745 1625 1739
8 1854 1741 1622 1738 1969 1857 1742 1855
8 1855 1742 1624 1740 1970 1858 1744 1856
8 1857 1746 1631 1742 1971 1861 1749 1858
8 1858 1749 1630 1744 1972 1863 1748 1860
8 1859 1747 1862 1973 1745 1629 1748 1860
8 1875 1768 1864 1977 1761 1651 1750 1865
8 1755 1644 1761 1869 1866 1751 1865 1978
8 1867 1760 1874 1979 1754 1646 1763 1868
8 1774 1658 1775 1887 1867 1760 1874 1979
8 1870 1766 1648 1756 1980 1877 1763 1868
8 1872 1762 1875 1981 1758 1645 1761 1869
8 1757 1649 1766 1870 1871 1765 1880 1982
8 1983 1879 1764 1873 1871 1765 1647 1759
8 1873 1764 1876 1984 1759 1647 1762 1872
8 1877 1773 1655 1763 1986 1881 1767 1874
8 1775 1659 1776 1888 1874 1767 1881 1986
8 1876 1769 1882 1987 1762 1652 1768 1875
8 1878 1770 1883 1988 1764 1653 1769 1876
8 1880 1772 1656 1766 1989 1886 1773 1877
8 1878 1770 1653 1764 1990 1884 1771 1879
8 1765 1654 1772 1880 1879 1771 1885 1991
8 1778 1664 1779 1890 1887 1775 1888 1997
8 1998 1889 1776 1888 1891 1780 1665 1779
8 1893 1782 1891 2000 1781 1668 1779 1890
8 1894 1783 1892 2001 1782 1669 1780 1891
8 1784 1671 1785 1896 1893 1782 1894 2003
8 1897 1786 1895 2004 1785 1672 1783 1894
8 1790 1675 1789 1904 1896 1785 1897 2006
8 1901 1787 1898 2007 1789 1673 1786 1897
8 1903 1788 1900 2013 1789 1673 1787 1901
8 1792 1676 1791 1906 1903 1788 1902 2016
8 1907 1792 1903 2017 1795 1678 1789 1904
8 1906 1791 1677 1794 2019 1905 1793 1909
8 1907 1792 1678 1795 2020 1906 1794 1910
8 1797 1679 1796 1912 1909 1793 1908 2022
8 1798 1680 1797 1913 1910 1794 1909 2023
8 1800 1682 1799 1915 1912 1796 1911 2025
8 1801 1683 1800 1916 1913 1797 1912 2026
8 1803 1687 1804 1918 1915 1799 1914 2028
8 1802 1686 1803 1917 1916 1800 1915 2029
8 1805 1689 1806 1920 1917 1803 1918 2030
8 1806 1690 1807 1921 1918 1804 1919 2031
8 1808 1692 1809 1922 1920 1806 1921 2032
8 1939 1826 1924 2037 1829 1713 1811 1926
8 1926 1811 1925 2039 1813 1697 1812 1928
8 1944 1829 1926 2040 1828 1712 1813 1929
8 1928 1812 1927 2042 1815 1698 1814 1931
8 1929 1813 1928 2043 1816 1699 1815 1932
8 1931 1814 1930 2044 1818 1700 1817 1933
8 1932 1815 1931 2045 1819 1701 1818 1934
8 1934 1818 1933 2046 1821 1704 1820 1935
8 2048 1936 1823 1937 1977 1864 1750 1865
8 1950 1833 1715 1834 2048 1936 1823 1937
8 1938 1824 1751 1866 2049 1937 1865 1978
8 1835 1716 1824 1938 1951 1834 1937 2049
8 1939 1826 1713 1829 2053 1942 1831 1946
8 1940 1827 1923 2035 2053 1942 1826 1939
8 1945 1830 1946 2058 1828 1712 1829 1944
8 2059 1947 1830 1945 1966 1849 1733 1851
8 1947 1832 1730 1849 2060 1948 1848 1965
8 1947 1832 1948 2060 1830 1714 1831 1946
8 1959 1847 1729 1843 2063 1949 1833 1950
8 1952 1843 1725 1836 2064 1950 1834 1951
8 1836 1725 1843 1952 1953 1842 1958 2066
8 1953 1842 1957 2067 1839 1724 1841 1955
8 1841 1955 1838 1723 1956 2068 1954 1840
8 2068 1956 1859 1967 1954 1840 1743 1852
8 1956 1844 1960 2069 1859 1747 1862 1973
8 1845 1957 1841 1727 1960 2069 1956 1844
8 1728 1842 1957 1845 1846 1958 2071 1961
8 1962 2072 1959 1847 1846 1958 1843 1729
8 1971 1861 1964 2077 1857 1746 1848 1965
8 1854 1741 1857 1969 1966 1849 1965 2078
8 1967 1859 1973 2079 1853 1745 1860 1968
8 1970 1858 1744 1856 2080 1972 1860 1968
8 1969 1857 1742 1855 2081 1971 1858 1970
8 1971 1861 1749 1858 2082 1974 1863 1972
8 1973 1862 1975 2083 1860 1748 1863 1972
8 1987 1882 1976 2086 1875 1768 1864 1977
8 1981 1875 1977 2087 1869 1761 1865 1978
8 1980 1877 1763 1868 2088 1986 1874 1979
8 1887 1775 1888 1997 1979 1874 1986 2088
8 1880 1982 2089 1989 1766 1870 1980 1877
8 1984 1876 1987 2090 1872 1762 1875 1981
8 1765 1871 1983 1879 1880 1982 2091 1991
8 1985 1878 1764 1873 2092 1990 1879 1983
8 1985 1878 1988 2093 1873 1764 1876 1984
8 2094 1992 1881 1986 1998 1889 1776 1888
8 1986 1881 1992 2094 1877 1773 1886 1989
8 1988 1883 1993 2095 1876 1769 1882 1987
8 1878 1770 1884 1990 1988 1883 1994 2096
8 1991 1885 1772 1880 2097 1996 1886 1989
8 1879 1771 1885 1991 1990 1884 1995 2098
8 2103 1998 1888 1997 2000 1891 1779 1890
8 2104 1999 1889 1998 2001 1892 1780 1891
8 2003 1894 2001 2106 1893 1782 1891 2000
8 2004 1895 2002 2107 1894 1783 1892 2001
8 2006 1897 2004 2109 1896 1785 1894 2003
8 2007 1898 2005 2110 1897 1786 1895 2004
8 2014 1901 2007 2112 1904 1789 1897 2006
8 2011 1899 2008 2113 1901 1787 1898 2007
8 2119 2010 1899 2011 2013 1900 1787 1901
8 2016 1902 2012 2122 1903 1788 1900 2013
8 2017 1903 2013 2123 1904 1789 1901 2014
8 1906 1791 1905 2019 2016 1902 2015 2125
8 1907 1792 1906 2020 2017 1903 2016 2126
8 1909 1793 1908 2022 2019 1905 2018 2128
8 2020 1906 1794 1910 2129 2019 1909 2023
8 1912 1796 1911 2025 2022 1908 2021 2131
8 1913 1797 1912 2026 2023 1909 2022 2132
8 1915 1799 1914 2028 2025 1911 2024 2134
8 1916 1800 1915 2029 2026 1912 2025 2135
8 1918 1804 1919 2031 2028 1914 2027 2136
8 1917 1803 1918 2030 2029 1915 2028 2137
8 1920 1806 1921 2032 2030 1918 2031 2138
8 1940 1827 1941 2054 2035 1923 2033 2140
8 2035 1923 2034 2143 1939 1826 1924 2037
8 2037 1924 2036 2146 1926 1811 1925 2039
8 2051 1939 2037 2147 1944 1829 1926 2040
8 2039 1925 2038 2149 1928 1812 1927 2042
8 2040 1926 2039 2150 1929 1813 1928 2043
8 2042 1927 2041 2151 1931 1814 1930 2044
8 2043 1928 2042 2152 1932 1815 1931 2045
8 2045 1931 2044 2153 1934 1818 1933 2046
8 2155 2047 1936 2048 2086 1976 1864 1977
8 2063 1949 1833 1950 2155 2047 1936 2048
8 2156 2048 1937 2049 2087 1977 1865 1978
8 2064 1950 1834 1951 2156 2048 1937 2049
8 2051 1939 1829 1944 2160 2053 1946 2058
8 2052 1940 2035 2144 2160 2053 1939 2051
8 2053 1942 1831 1946 2163 2057 1948 2060
8 2055 1943 1827 1940 2163 2057 1942 2053
8 2055 1943 2056 2164 1940 1827 1941 2054
8 2059 1947 1849 1966 2167 2060 1965 2078
8 2059 1947 2060 2167 1945 1830 1946 2058
8 2077 1964 2061 2168 1965 1848 1948 2060
8 2070 1963 1847 1959 2170 2062 1949 2063
8 2065 1959 1843 1952 2171 2063 1950 2064
8 2173 2072 1958 2066 2065 1959 1843 1952
8 1953 1842 1958 2066 2067 1957 2071 2174
8 2068 1956 2069 2175 1967 1859 1973 2079
8 2067 1957 2069 2175 1955 1841 1956 2068
8 1845 1957 2069 1960 1961 2071 2176 2073
8 2069 1960 2073 2176 1973 1862 1975 2083
8 2070 1963 2075 2177 1959 1847 1962 2072
8 1846 1958 2071 1961 1962 2072 2178 2074
8 2077 1964 1861 1971 2182 2076 1974 2082
8 2081 1971 2077 2183 1969 1857 1965 2078
8 2079 1973 2083 2184 1968 1860 1972 2080
8 2081 1971 1858 1970 2185 2082 1972 2080
8 2083 1975 2084 2186 1972 1863 1974 2082
8 2086 1976 1882 1987 2189 2085 1993 2095
8 2090 1987 2086 2190 1981 1875 1977 2087
8 2191 2094 1986 2088 2103 1998 1888 1997
8 2088 1986 2094 2191 1980 1877 1989 2089
8 1991 2091 2192 2097 1880 1982 2089 1989
8 2093 1988 2095 2193 1984 1876 1987 2090
8 1879 1983 2092 1990 1991 2091 2194 2098
8 1985 1878 1990 2092 2093 1988 2096 2195
8 2097 1996 1886 1989 2196 2099 1992 2094
8 2196 2099 1992 2094 2104 1999 1889 1998
8 1994 2096 1988 1883 2100 2197 2095 1993
8 2096 1994 1884 1990 2198 2101 1995 2098
8 1995 2098 2199 2102 1885 1991 2097 1996
8 2203 2104 1998 2103 2106 2001 1891 2000
8 2107 2002 2105 2204 2001 1892 1999 2104
8 2109 2004 2107 2206 2003 1894 2001 2106
8 2110 2005 2108 2207 2004 1895 2002 2107
8 2112 2007 2110 2209 2006 1897 2004 2109
8 2113 2008 2111 2210 2007 1898 2005 2110
8 2120 2011 2113 2212 2014 1901 2007 2112
8 2117 2009 2114 2213 2011 1899 2008 2113
8 2219 2116 2009 2117 2119 2010 1899 2011
8 2222 2118 2010 2119 2122 2012 1900 2013
8 2223 2119 2011 2120 2123 2013 1901 2014
8 2016 1902 2015 2125 2122 2012 2121 2225
8 2126 2016 2122 2226 2017 1903 2013 2123
8 2019 1905 2018 2128 2125 2015 2124 2228
8 2020 1906 2019 2129 2126 2016 2125 2229
8 2022 1908 2021 2131 2128 2018 2127 2231
8 2023 1909 2022 2132 2129 2019 2128 2232
8 2025 1911 2024 2134 2131 2021 2130 2234
8 2026 1912 2025 2135 2132 2022 2131 2235
8 1914 2028 2134 2024 2027 2136 2236 2133
8 2029 1915 2028 2137 2135 2025 2134 2237
8 2030 1918 2031 2138 2137 2028 2136 2238
8 2157 2050 2139 2240 2054 1941 2033 2140
8 2052 1940 2054 2161 2144 2035 2140 2242
8 2140 2033 2141 2243 2035 1923 2034 2143
8 2143 2034 2142 2246 2037 1924 2036 2146
8 2144 2035 2143 2247 2051 1939 2037 2147
8 2146 2036 2145 2249 2039 1925 2038 2149
8 2147 2037 2146 2250 2040 1926 2039 2150
8 2149 2038 2148 2251 2042 1927 2041 2151
8 2150 2039 2149 2252 2043 1928 2042 2152
8 2152 2042 2151 2253 2045 1931 2044 2153
8 2255 2154 2047 2155 2189 2085 1976 2086
8 2170 2062 1949 2063 2255 2154 2047 2155
8 2256 2155 2048 2156 2190 2086 1977 2087
8 2171 2063 1950 2064 2256 2155 2048 2156
8 2258 2159 2050 2157 2164 2056 1941 2054
8 2160 2053 1946 2058 2262 2163 2060 2167
8 2162 2055 1940 2052 2262 2163 2053 2160
8 2162 2055 2164 2263 2052 1940 2054 2161
8 2163 2057 1948 2060 2264 2165 2061 2168
8 2055 1943 2057 2163 2164 2056 2165 2264
8 2182 2076 2166 2268 2077 1964 2061 2168
8 2183 2077 2168 2269 2078 1965 2060 2167
8 2070 1963 2062 2170 2177 2075 2169 2271
8 2172 2070 1959 2065 2272 2170 2063 2171
8 2172 2070 2177 2273 2065 1959 2072 2173
8 2066 1958 2072 2173 2174 2071 2178 2274
8 2067 1957 2071 2174 2175 2069 2176 2275
8 2175 2069 2176 2275 2079 1973 2083 2184
8 2071 1961 2074 2178 2176 2073 2179 2276
8 2176 2073 2179 2276 2083 1975 2084 2186
8 2072 1962 2075 2177 2178 2074 2180 2277
8 2182 2076 1974 2082 2280 2181 2084 2186
8 2183 2077 1971 2081 2281 2182 2082 2185
8 2184 2083 2186 2282 2080 1972 2082 2185
8 2189 2085 1993 2095 2285 2188 2100 2197
8 2190 2086 1987 2090 2286 2189 2095 2193
8 2192 2097 1989 2089 2287 2196 2094 2191
8 2287 2196 2094 2191 2203 2104 1998 2103
8 2194 2098 1991 2091 2288 2199 2097 2192
8 2195 2096 2197 2289 2093 1988 2095 2193
8 2096 2195 2290 2198 1990 2092 2194 2098
8 2097 1996 2099 2196 2199 2102 2200 2291
8 2196 2099 1999 2104 2291 2200 2105 2204
8 2100 2197 2292 2201 1994 2096 2198 2101
8 1995 2098 2198 2101 2102 2199 2293 2202
8 2206 2107 2204 2296 2106 2001 2104 2203
8 2207 2108 2205 2297 2107 2002 2105 2204
8 2209 2110 2207 2299 2109 2004 2107 2206
8 2210 2111 2208 2300 2110 2005 2108 2207
8 2212 2113 2210 2302 2112 2007 2110 2209
8 2213 2114 2211 2303 2113 2008 2111 2210
8 2220 2117 2213 2305 2120 2011 2113 2212
8 2216 2115 2214 2306 2117 2009 2114 2213
8 2216 2115 2009 2117 2311 2217 2116 2219
8 2219 2116 2010 2119 2314 2218 2118 2222
8 2315 2219 2117 2220 2223 2119 2011 2120
8 2122 2012 2121 2225 2222 2118 2221 2317
8 2318 2222 2119 2223 2226 2122 2013 2123
8 2125 2015 2124 2228 2225 2121 2224 2320
8 2126 2016 2125 2229 2226 2122 2225 2321
8 2128 2018 2127 2231 2228 2124 2227 2323
8 2129 2019 2128 2232 2229 2125 2228 2324
8 2131 2021 2130 2234 2231 2127 2230 2326
8 2132 2022 2131 2235 2232 2128 2231 2327
8 2134 2024 2133 2236 2234 2130 2233 2328
8 2135 2025 2134 2237 2235 2131 2234 2329
8 2137 2028 2136 2238 2237 2134 2236 2330
8 2157 2050 2158 2259 2240 2139 2239 2332
8 2257 2157 2240 2334 2161 2054 2140 2242
8 2240 2139 2241 2335 2140 2033 2141 2243
8 2242 2140 2243 2337 2144 2035 2143 2247
8 2243 2141 2244 2338 2143 2034 2142 2246
8 2246 2142 2245 2341 2146 2036 2145 2249
8 2247 2143 2246 2342 2147 2037 2146 2250
8 2249 2145 2248 2343 2149 2038 2148 2251
8 2250 2146 2249 2344 2150 2039 2149 2252
8 2252 2149 2251 2345 2152 2042 2151 2253
8 2169 2271 2347 2254 2062 2170 2255 2154
8 2189 2085 2188 2285 2255 2154 2254 2347
8 2348 2255 2155 2256 2286 2189 2086 2190
8 2272 2170 2063 2171 2348 2255 2155 2256
8 2349 2258 2157 2257 2263 2164 2054 2161
8 2258 2159 2261 2351 2157 2050 2158 2259
8 2258 2159 2056 2164 2351 2261 2165 2264
8 2262 2163 2060 2167 2355 2264 2168 2269
8 2162 2055 2163 2262 2263 2164 2264 2355
8 2357 2266 2165 2264 2268 2166 2061 2168
8 2268 2166 2076 2182 2361 2267 2181 2280
8 2281 2182 2268 2362 2183 2077 2168 2269
8 2271 2169 2270 2364 2177 2075 2180 2277
8 2172 2070 2170 2272 2273 2177 2271 2365
8 2072 2173 2274 2178 2177 2273 2366 2277
8 2071 2174 2275 2176 2178 2274 2367 2276
8 2275 2176 2276 2367 2184 2083 2186 2282
8 2283 2187 2084 2186 2368 2278 2179 2276
8 2178 2074 2180 2277 2276 2179 2278 2368
8 2283 2187 2279 2370 2186 2084 2181 2280
8 2281 2182 2082 2185 2371 2280 2186 2282
8 2188 2285 2374 2284 2100 2197 2292 2201
8 2286 2189 2095 2193 2375 2285 2197 2289
8 2192 2097 2196 2287 2288 2199 2291 2376
8 2287 2196 2104 2203 2376 2291 2204 2296
8 2194 2098 2199 2288 2290 2198 2293 2377
8 2289 2197 2096 2195 2378 2292 2198 2290
8 2291 2200 2105 2204 2379 2294 2205 2297
8 2199 2102 2200 2291 2293 2202 2294 2379
8 2198 2101 2202 2293 2292 2201 2295 2380
8 2299 2207 2297 2383 2206 2107 2204 2296
8 2300 2208 2298 2384 2207 2108 2205 2297
8 2302 2210 2300 2386 2209 2110 2207 2299
8 2303 2211 2301 2387 2210 2111 2208 2300
8 2305 2213 2303 2389 2212 2113 2210 2302
8 2306 2214 2304 2390 2213 2114 2211 2303
8 2310 2216 2306 2392 2220 2117 2213 2305
8 2308 2215 2307 2393 2216 2115 2214 2306
8 2308 2215 2115 2216 2396 2309 2217 2311
8 2310 2216 2117 2220 2398 2311 2219 2315
8 2311 2217 2116 2219 2399 2312 2218 2314
8 2314 2218 2118 2222 2402 2313 2221 2317
8 2315 2219 2119 2223 2403 2314 2222 2318
8 2225 2121 2224 2320 2317 2221 2316 2405
8 2226 2122 2225 2321 2318 2222 2317 2406
8 2228 2124 2227 2323 2320 2224 2319 2408
8 2229 2125 2228 2324 2321 2225 2320 2409
8 2231 2127 2230 2326 2323 2227 2322 2411
8 2232 2128 2231 2327 2324 2228 2323 2412
8 2234 2130 2233 2328 2326 2230 2325 2413
8 2235 2131 2234 2329 2327 2231 2326 2414
8 2237 2134 2236 2330 2329 2234 2328 2415
8 2259 2158 2260 2352 2332 2239 2331 2417
8 2257 2157 2259 2350 2334 2240 2332 2419
8 2240 2139 2239 2332 2335 2241 2333 2420
8 2334 2240 2335 2422 2242 2140 2243 2337
8 2335 2241 2336 2423 2243 2141 2244 2338
8 2337 2243 2338 2425 2247 2143 2246 2342
8 2338 2244 2339 2426 2246 2142 2245 2341
8 2341 2245 2340 2428 2249 2145 2248 2343
8 2342 2246 2341 2429 2250 2146 2249 2344
8 2344 2249 2343 2430 2252 2149 2251 2345
8 2188 2285 2347 2254 2284 2374 2432 2346
8 2347 2254 2346 2432 2271 2169 2270 2364
8 2365 2271 2170 2272 2433 2347 2255 2348
8 2286 2189 2285 2375 2348 2255 2347 2433
8 2349 2258 2351 2435 2257 2157 2259 2350
8 2349 2258 2164 2263 2435 2351 2264 2355
8 2259 2158 2261 2351 2352 2260 2354 2437
8 2356 2265 2354 2437 2264 2165 2261 2351
8 2441 2357 2264 2355 2362 2268 2168 2269
8 2356 2265 2165 2264 2442 2358 2266 2357
8 2443 2359 2266 2357 2361 2267 2166 2268
8 2370 2279 2360 2446 2280 2181 2267 2361
8 2362 2268 2182 2281 2447 2361 2280 2371
8 2180 2277 2368 2278 2270 2364 2449 2363
8 2271 2365 2273 2177 2364 2450 2366 2277
8 2372 2283 2186 2282 2451 2368 2276 2367
8 2178 2274 2367 2276 2277 2366 2451 2368
8 2283 2187 2278 2368 2370 2279 2369 2452
8 2372 2283 2370 2453 2282 2186 2280 2371
8 2284 2374 2455 2373 2201 2292 2380 2295
8 2375 2285 2197 2289 2456 2374 2292 2378
8 2376 2291 2204 2296 2457 2379 2297 2383
8 2288 2199 2291 2376 2377 2293 2379 2457
8 2198 2290 2378 2292 2293 2377 2458 2380
8 2293 2202 2294 2379 2380 2295 2381 2459
8 2384 2298 2381 2459 2297 2205 2294 2379
8 2386 2300 2384 2463 2299 2207 2297 2383
8 2387 2301 2385 2464 2300 2208 2298 2384
8 2389 2303 2387 2466 2302 2210 2300 2386
8 2390 2304 2388 2467 2303 2211 2301 2387
8 2392 2306 2390 2469 2305 2213 2303 2389
8 2393 2307 2391 2470 2306 2214 2304 2390
8 2395 2308 2393 2472 2310 2216 2306 2392
8 2308 2215 2309 2396 2393 2307 2394 2473
8 2395 2308 2216 2310 2475 2396 2311 2398
8 2396 2309 2217 2311 2476 2397 2312 2399
8 2398 2311 2219 2315 2478 2399 2314 2403
8 2399 2312 2218 2314 2479 2400 2313 2402
8 2317 2221 2316 2405 2402 2313 2401 2482
8 2403 2314 2222 2318 2483 2402 2317 2406
8 2320 2224 2319 2408 2405 2316 2404 2485
8 2321 2225 2320 2409 2406 2317 2405 2486
8 2323 2227 2322 2411 2408 2319 2407 2488
8 2324 2228 2323 2412 2409 2320 2408 2489
8 2326 2230 2325 2413 2411 2322 2410 2490
8 2327 2231 2326 2414 2412 2323 2411 2491
8 2329 2234 2328 2415 2414 2326 2413 2492
8 2417 2331 2260 2352 2494 2416 2353 2438
8 2350 2259 2352 2436 2419 2332 2417 2496
8 2332 2239 2331 2417 2420 2333 2418 2497
8 2334 2240 2332 2419 2422 2335 2420 2499
8 2420 2333 2421 2500 2335 2241 2336 2423
8 2422 2335 2423 2502 2337 2243 2338 2425
8 2423 2336 2424 2503 2338 2244 2339 2426
8 2425 2338 2426 2505 2342 2246 2341 2429
8 2426 2339 2427 2506 2341 2245 2340 2428
8 2429 2341 2428 2507 2344 2249 2343 2430
8 2432 2346 2284 2374 2509 2431 2373 2455
8 2432 2346 2431 2509 2364 2270 2363 2449
8 2375 2285 2374 2456 2433 2347 2432 2510
8 2347 2433 2365 2271 2432 2510 2450 2364
8 2350 2259 2351 2435 2436 2352 2437 2514
8 2440 2356 2437 2514 2355 2264 2351 2435
8 2352 2260 2354 2437 2438 2353 2439 2516
8 2356 2265 2358 2442 2437 2354 2439 2516
8 2440 2356 2264 2355 2518 2442 2357 2441
8 2519 2443 2357 2441 2447 2361 2268 2362
8 2443 2359 2444 2520 2357 2266 2358 2442
8 2443 2359 2267 2361 2520 2444 2360 2446
8 2446 2360 2279 2370 2523 2445 2369 2452
8 2453 2370 2446 2524 2371 2280 2361 2447
8 2449 2363 2448 2525 2368 2278 2369 2452
8 2366 2277 2364 2450 2451 2368 2449 2526
8 2372 2283 2368 2451 2453 2370 2452 2527
8 2455 2373 2295 2380 2529 2454 2382 2460
8 2456 2374 2292 2378 2530 2455 2380 2458
8 2377 2293 2379 2457 2458 2380 2459 2531
8 2463 2384 2459 2531 2383 2297 2379 2457
8 2533 2461 2382 2460 2459 2381 2295 2380
8 2464 2385 2461 2533 2384 2298 2381 2459
8 2466 2387 2464 2537 2386 2300 2384 2463
8 2467 2388 2465 2538 2387 2301 2385 2464
8 2469 2390 2467 2540 2389 2303 2387 2466
8 2470 2391 2468 2541 2390 2304 2388 2467
8 2472 2393 2470 2543 2392 2306 2390 2469
8 2393 2307 2394 2473 2470 2391 2471 2544
8 2395 2308 2396 2475 2472 2393 2473 2546
8 2396 2309 2397 2476 2473 2394 2474 2547
8 2475 2396 2311 2398 2549 2476 2399 2478
8 2476 2397 2312 2399 2550 2477 2400 2479
8 2478 2399 2314 2403 2552 2479 2402 2483
8 2479 2400 2313 2402 2553 2480 2401 2482
8 2405 2316 2404 2485 2482 2401 2481 2556
8 2406 2317 2405 2486 2483 2402 2482 2557
8 2408 2319 2407 2488 2485 2404 2484 2559
8 2409 2320 2408 2489 2486 2405 2485 2560
8 2411 2322 2410 2490 2488 2407 2487 2561
8 2412 2323 2411 2491 2489 2408 2488 2562
8 2414 2326 2413 2492 2491 2411 2490 2563
8 2513 2434 2493 2565 2438 2353 2416 2494
8 2496 2417 2352 2436 2567 2494 2438 2515
8 2494 2416 2495 2568 2417 2331 2418 2497
8 2419 2332 2417 2496 2499 2420 2497 2570
8 2497 2418 2498 2571 2420 2333 2421 2500
8 2499 2420 2500 2573 2422 2335 2423 2502
8 2500 2421 2501 2574 2423 2336 2424 2503
8 2502 2423 2503 2576 2425 2338 2426 2505
8 2503 2424 2504 2577 2426 2339 2427 2506
8 2505 2426 2506 2578 2429 2341 2428 2507
8 2509 2431 2373 2455 2580 2508 2454 2529
8 2509 2431 2508 2580 2449 2363 2448 2525
8 2432 2510 2581 2509 2374 2456 2530 2455
8 2432 2510 2450 2364 2509 2581 2526 2449
8 2583 2511 2434 2513 2516 2439 2353 2438
8 2436 2352 2437 2514 2515 2438 2516 2588
8 2440 2356 2442 2518 2514 2437 2516 2588
8 2442 2358 2444 2520 2516 2439 2517 2589
8 2519 2443 2520 2591 2441 2357 2442 2518
8 2519 2443 2361 2447 2591 2520 2446 2524
8 2446 2360 2445 2523 2520 2444 2521 2592
8 2525 2448 2522 2593 2452 2369 2445 2523
8 2524 2446 2370 2453 2594 2523 2452 2527
8 2526 2449 2525 2595 2451 2368 2452 2527
8 2534 2462 2528 2597 2460 2382 2454 2529
8 2530 2455 2380 2458 2598 2529 2460 2532
8 2599 2533 2460 2532 2531 2459 2380 2458
8 2537 2464 2533 2599 2463 2384 2459 2531
8 2534 2462 2382 2460 2601 2535 2461 2533
8 2538 2465 2535 2601 2464 2385 2461 2533
8 2540 2467 2538 2604 2466 2387 2464 2537
8 2541 2468 2539 2605 2467 2388 2465 2538
8 2543 2470 2541 2607 2469 2390 2467 2540
8 2470 2391 2471 2544 2541 2468 2542 2608
8 2472 2393 2473 2546 2543 2470 2544 2610
8 2473 2394 2474 2547 2544 2471 2545 2611
8 2475 2396 2476 2549 2546 2473 2547 2613
8 2476 2397 2477 2550 2547 2474 2548 2614
8 2549 2476 2399 2478 2616 2550 2479 2552
8 2479 2400 2480 2553 2550 2477 2551 2617
8 2552 2479 2402 2483 2619 2553 2482 2557
8 2482 2401 2481 2556 2553 2480 2554 2620
8 2485 2404 2484 2559 2556 2481 2555 2623
8 2486 2405 2485 2560 2557 2482 2556 2624
8 2488 2407 2487 2561 2559 2484 2558 2625
8 2489 2408 2488 2562 2560 2485 2559 2626
8 2491 2411 2490 2563 2562 2488 2561 2627
8 2513 2434 2512 2585 2565 2493 2564 2630
8 2586 2513 2565 2632 2515 2438 2494 2567
8 2565 2493 2566 2633 2494 2416 2495 2568
8 2567 2494 2568 2635 2496 2417 2497 2570
8 2568 2495 2569 2636 2497 2418 2498 2571
8 2570 2497 2571 2638 2499 2420 2500 2573
8 2571 2498 2572 2639 2500 2421 2501 2574
8 2573 2500 2574 2641 2502 2423 2503 2576
8 2574 2501 2575 2642 2503 2424 2504 2577
8 2576 2503 2577 2643 2505 2426 2506 2578
8 2597 2528 2579 2645 2529 2454 2508 2580
8 2580 2508 2579 2645 2525 2448 2522 2593
8 2581 2509 2455 2530 2646 2580 2529 2598
8 2581 2509 2580 2646 2526 2449 2525 2595
8 2583 2511 2582 2648 2513 2434 2512 2585
8 2583 2511 2439 2516 2648 2582 2517 2589
8 2649 2583 2513 2586 2588 2516 2438 2515
8 2589 2517 2444 2520 2653 2587 2521 2592
8 2518 2442 2520 2591 2588 2516 2589 2654
8 2593 2522 2590 2655 2523 2445 2521 2592
8 2524 2446 2523 2594 2591 2520 2592 2656
8 2595 2525 2593 2657 2527 2452 2523 2594
8 2602 2536 2596 2659 2534 2462 2528 2597
8 2600 2534 2597 2660 2532 2460 2529 2598
8 2600 2534 2460 2532 2661 2601 2533 2599
8 2604 2538 2601 2661 2537 2464 2533 2599
8 2602 2536 2462 2534 2663 2603 2535 2601
8 2601 2535 2465 2538 2663 2603 2539 2605
8 2607 2541 2605 2665 2540 2467 2538 2604
8 2608 2542 2606 2666 2541 2468 2539 2605
8 2543 2470 2544 2610 2607 2541 2608 2668
8 2544 2471 2545 2611 2608 2542 2609 2669
8 2546 2473 2547 2613 2610 2544 2611 2671
8 2547 2474 2548 2614 2611 2545 2612 2672
8 2549 2476 2550 2616 2613 2547 2614 2674
8 2550 2477 2551 2617 2614 2548 2615 2675
8 2552 2479 2553 2619 2616 2550 2617 2677
8 2553 2480 2554 2620 2617 2551 2618 2678
8 2557 2482 2556 2624 2619 2553 2620 2680
8 2556 2481 2555 2623 2620 2554 2621 2681
8 2559 2484 2558 2625 2623 2555 2622 2683
8 2560 2485 2559 2626 2624 2556 2623 2684
8 2562 2488 2561 2627 2626 2559 2625 2685
8 2690 2629 2564 2630 2650 2584 2512 2585
8 2586 2513 2585 2651 2632 2565 2630 2691
8 2630 2564 2631 2692 2565 2493 2566 2633
8 2632 2565 2633 2694 2567 2494 2568 2635
8 2633 2566 2634 2695 2568 2495 2569 2636
8 2635 2568 2636 2697 2570 2497 2571 2638
8 2636 2569 2637 2698 2571 2498 2572 2639
8 2638 2571 2639 2700 2573 2500 2574 2641
8 2639 2572 2640 2701 2574 2501 2575 2642
8 2641 2574 2642 2702 2576 2503 2577 2643
8 2597 2528 2596 2659 2645 2579 2644 2704
8 2645 2579 2644 2704 2593 2522 2590 2655
8 2660 2597 2645 2705 2598 2529 2580 2646
8 2646 2580 2645 2705 2595 2525 2593 2657
8 2650 2584 2512 2585 2707 2647 2582 2648
8 2648 2582 2517 2589 2707 2647 2587 2653
8 2649 2583 2648 2708 2586 2513 2585 2651
8 2649 2583 2516 2588 2708 2648 2589 2654
8 2655 2590 2652 2710 2592 2521 2587 2653
8 2654 2589 2520 2591 2711 2653 2592 2656
8 2657 2593 2655 2712 2594 2523 2592 2656
8 2602 2536 2603 2663 2659 2596 2658 2714
8 2662 2602 2659 2715 2600 2534 2597 2660
8 2662 2602 2534 2600 2717 2663 2601 2661
8 2661 2601 2538 2604 2717 2663 2605 2665
8 2666 2606 2664 2718 2605 2539 2603 2663
8 2668 2608 2666 2720 2607 2541 2605 2665
8 2608 2542 2609 2669 2666 2606 2667 2721
8 2610 2544 2611 2671 2668 2608 2669 2723
8 2611 2545 2612 2672 2669 2609 2670 2724
8 2613 2547 2614 2674 2671 2611 2672 2726
8 2614 2548 2615 2675 2672 2612 2673 2727
8 2616 2550 2617 2677 2674 2614 2675 2729
8 2617 2551 2618 2678 2675 2615 2676 2730
8 2619 2553 2620 2680 2677 2617 2678 2732
8 2620 2554 2621 2681 2678 2618 2679 2733
8 2624 2556 2623 2684 2680 2620 2681 2735
8 2681 2621 2555 2623 2736 2682 2622 2683
8 2626 2559 2625 2685 2684 2623 2683 2737
8 2688 2628 2584 2650 2740 2686 2647 2707
8 2688 2628 2687 2742 2650 2584 2629 2690
8 2690 2629 2689 2745 2630 2564 2631 2692
8 2746 2690 2630 2691 2709 2650 2585 2651
8 2691 2630 2692 2747 2632 2565 2633 2694
8 2692 2631 2693 2748 2633 2566 2634 2695
8 2694 2633 2695 2750 2635 2568 2636 2697
8 2695 2634 2696 2751 2636 2569 2637 2698
8 2697 2636 2698 2753 2638 2571 2639 2700
8 2698 2637 2699 2754 2639 2572 2640 2701
8 2700 2639 2701 2755 2641 2574 2642 2702
8 2659 2596 2658 2714 2704 2644 2703 2757
8 2704 2644 2703 2757 2655 2590 2652 2710
8 2660 2597 2659 2715 2705 2645 2704 2758
8 2705 2645 2704 2758 2657 2593 2655 2712
8 2759 2706 2647 2707 2710 2652 2587 2653
8 2709 2650 2585 2651 2760 2707 2648 2708
8 2708 2648 2589 2654 2760 2707 2653 2711
8 2712 2655 2710 2761 2656 2592 2653 2711
8 2763 2713 2658 2714 2718 2664 2603 2663
8 2662 2602 2663 2717 2715 2659 2714 2764
8 2720 2666 2718 2767 2665 2605 2663 2717
8 2768 2719 2664 2718 2721 2667 2606 2666
8 2668 2608 2669 2723 2720 2666 2721 2770
8 2669 2609 2670 2724 2721 2667 2722 2771
8 2671 2611 2672 2726 2723 2669 2724 2773
8 2672 2612 2673 2727 2724 2670 2725 2774
8 2674 2614 2675 2729 2726 2672 2727 2776
8 2675 2615 2676 2730 2727 2673 2728 2777
8 2677 2617 2678 2732 2729 2675 2730 2779
8 2678 2618 2679 2733 2730 2676 2731 2780
8 2680 2620 2681 2735 2732 2678 2733 2782
8 2733 2679 2621 2681 2783 2734 2682 2736
8 2735 2681 2623 2684 2784 2736 2683 2737
8 2740 2686 2647 2707 2787 2738 2706 2759
8 2688 2628 2686 2740 2742 2687 2739 2789
8 2743 2688 2650 2709 2790 2740 2707 2760
8 2742 2687 2741 2792 2690 2629 2689 2745
8 2743 2688 2742 2793 2709 2650 2690 2746
8 2745 2689 2744 2795 2692 2631 2693 2748
8 2746 2690 2745 2796 2691 2630 2692 2747
8 2747 2692 2748 2797 2694 2633 2695 2750
8 2748 2693 2749 2798 2695 2634 2696 2751
8 2750 2695 2751 2800 2697 2636 2698 2753
8 2751 2696 2752 2801 2698 2637 2699 2754
8 2753 2698 2754 2802 2700 2639 2701 2755
8 2763 2713 2756 2804 2714 2658 2703 2757
8 2759 2706 2652 2710 2804 2756 2703 2757
8 2715 2659 2714 2764 2758 2704 2757 2805
8 2758 2704 2757 2805 2712 2655 2710 2761
8 2806 2759 2707 2760 2761 2710 2653 2711
8 2765 2716 2762 2808 2718 2664 2713 2763
8 2809 2763 2714 2764 2767 2718 2663 2717
8 2765 2716 2664 2718 2811 2766 2719 2768
8 2813 2768 2718 2767 2770 2721 2666 2720
8 2814 2769 2719 2768 2771 2722 2667 2721
8 2723 2669 2724 2773 2770 2721 2771 2816
8 2724 2670 2725 2774 2771 2722 2772 2817
8 2726 2672 2727 2776 2773 2724 2774 2819
8 2727 2673 2728 2777 2774 2725 2775 2820
8 2729 2675 2730 2779 2776 2727 2777 2822
8 2730 2676 2731 2780 2777 2728 2778 2823
8 2732 2678 2733 2782 2779 2730 2780 2825
8 2780 2731 2679 2733 2826 2781 2734 2783
8 2782 2733 2681 2735 2827 2783 2736 2784
8 2830 2785 2738 2787 2804 2756 2706 2759
8 2789 2739 2686 2740 2832 2786 2738 2787
8 2790 2740 2707 2760 2833 2787 2759 2806
8 2742 2687 2739 2789 2792 2741 2788 2835
8 2743 2688 2740 2790 2793 2742 2789 2836
8 2792 2741 2791 2838 2745 2689 2744 2795
8 2793 2742 2792 2839 2746 2690 2745 2796
8 2795 2744 2794 2841 2748 2693 2749 2798
8 2796 2745 2795 2842 2747 2692 2748 2797
8 2797 2748 2798 2843 2750 2695 2751 2800
8 2798 2749 2799 2844 2751 2696 2752 2801
8 2800 2751 2801 2845 2753 2698 2754 2802
8 2808 2762 2803 2847 2763 2713 2756 2804
8 2809 2763 2804 2848 2764 2714 2757 2805
8 2806 2759 2710 2761 2848 2804 2757 2805
8 2765 2716 2766 2811 2808 2762 2807 2850
8 2810 2765 2808 2851 2767 2718 2763 2809
8 2810 2765 2718 2767 2852 2811 2768 2813
8 2811 2766 2719 2768 2853 2812 2769 2814
8 2855 2814 2768 2813 2816 2771 2721 2770
8 2856 2815 2769 2814 2817 2772 2722 2771
8 2773 2724 2774 2819 2816 2771 2817 2858
8 2774 2725 2775 2820 2817 2772 2818 2859
8 2776 2727 2777 2822 2819 2774 2820 2861
8 2777 2728 2778 2823 2820 2775 2821 2862
8 2779 2730 2780 2825 2822 2777 2823 2864
8 2823 2778 2731 2780 2865 2824 2781 2826
8 2825 2780 2733 2782 2866 2826 2783 2827
8 2869 2828 2785 2830 2847 2803 2756 2804
8 2871 2829 2786 2832 2830 2785 2738 2787
8 2872 2830 2787 2833 2848 2804 2759 2806
8 2789 2739 2786 2832 2835 2788 2831 2874
8 2836 2789 2740 2790 2875 2832 2787 2833
8 2792 2741 2788 2835 2838 2791 2834 2877
8 2793 2742 2789 2836 2839 2792 2835 2878
8 2838 2791 2837 2880 2795 2744 2794 2841
8 2839 2792 2838 2881 2796 2745 2795 2842
8 2841 2794 2840 2882 2798 2749 2799 2844
8 2842 2795 2841 2883 2797 2748 2798 2843
8 2843 2798 2844 2884 2800 2751 2801 2845
8 2886 2846 2803 2847 2850 2807 2762 2808
8 2851 2808 2847 2887 2809 2763 2804 2848
8 2850 2807 2766 2811 2889 2849 2812 2853
8 2810 2765 2811 2852 2851 2808 2850 2890
8 2852 2811 2768 2813 2891 2853 2814 2855
8 2853 2812 2769 2814 2892 2854 2815 2856
8 2894 2856 2814 2855 2858 2817 2771 2816
8 2817 2772 2818 2859 2856 2815 2857 2895
8 2819 2774 2820 2861 2858 2817 2859 2897
8 2820 2775 2821 2862 2859 2818 2860 2898
8 2822 2777 2823 2864 2861 2820 2862 2900
8 2823 2778 2824 2865 2862 2821 2863 2901
8 2864 2823 2780 2825 2902 2865 2826 2866
8 2904 2867 2828 2869 2886 2846 2803 2847
8 2869 2828 2868 2906 2830 2785 2829 2871
8 2907 2869 2830 2872 2887 2847 2804 2848
8 2871 2829 2870 2909 2832 2786 2831 2874
8 2910 2871 2832 2875 2872 2830 2787 2833
8 2835 2788 2831 2874 2877 2834 2873 2912
8 2836 2789 2832 2875 2878 2835 2874 2913
8 2877 2834 2876 2915 2838 2791 2837 2880
8 2839 2792 2835 2878 2881 2838 2877 2916
8 2880 2837 2879 2917 2841 2794 2840 2882
8 2881 2838 2880 2918 2842 2795 2841 2883
8 2883 2841 2882 2919 2843 2798 2844 2884
8 2921 2885 2846 2886 2889 2849 2807 2850
8 2922 2886 2847 2887 2890 2850 2808 2851
8 2889 2849 2812 2853 2924 2888 2854 2892
8 2890 2850 2811 2852 2925 2889 2853 2891
8 2891 2853 2814 2855 2926 2892 2856 2894
8 2892 2854 2815 2856 2927 2893 2857 2895
8 2858 2817 2859 2897 2894 2856 2895 2929
8 2859 2818 2860 2898 2895 2857 2896 2930
8 2861 2820 2862 2900 2897 2859 2898 2932
8 2862 2821 2863 2901 2898 2860 2899 2933
8 2864 2823 2865 2902 2900 2862 2901 2934
8 2904 2867 2846 2886 2936 2903 2885 2921
8 2904 2867 2903 2936 2869 2828 2868 2906
8 2937 2904 2869 2907 2922 2886 2847 2887
8 2906 2868 2905 2939 2871 2829 2870 2909
8 2907 2869 2906 2940 2872 2830 2871 2910
8 2909 2870 2908 2942 2874 2831 2873 2912
8 2910 2871 2909 2943 2875 2832 2874 2913
8 2912 2873 2911 2945 2877 2834 2876 2915
8 2878 2835 2874 2913 2916 2877 2912 2946
8 2915 2876 2914 2947 2880 2837 2879 2917
8 2916 2877 2915 2948 2881 2838 2880 2918
8 2918 2880 2917 2949 2883 2841 2882 2919
8 2921 2885 2849 2889 2951 2920 2888 2924
8 2952 2921 2886 2922 2925 2889 2850 2890
8 2924 2888 2854 2892 2954 2923 2893 2927
8 2925 2889 2853 2891 2955 2924 2892 2926
8 2926 2892 2856 2894 2956 2927 2895 2929
8 2895 2857 2896 2930 2927 2893 2928 2957
8 2897 2859 2898 2932 2929 2895 2930 2959
8 2898 2860 2899 2933 2930 2896 2931 2960
8 2900 2862 2901 2934 2932 2898 2933 2961
8 2936 2903 2885 2921 2963 2935 2920 2951
8 2936 2903 2935 2963 2906 2868 2905 2939
8 2937 2904 2886 2922 2964 2936 2921 2952
8 2937 2904 2936 2964 2907 2869 2906 2940
8 2939 2905 2938 2966 2909 2870 2908 2942
8 2940 2906 2939 2967 2910 2871 2909 2943
8 2942 2908 2941 2969 2912 2873 2911 2945
8 2943 2909 2942 2970 2913 2874 2912 2946
8 2945 2911 2944 2971 2915 2876 2914 2947
8 2946 2912 2945 2972 2916 2877 2915 2948
8 2948 2915 2947 2973 2918 2880 2917 2949
8 2951 2920 2888 2924 2975 2950 2923 2954
8 2952 2921 2889 2925 2976 2951 2924 2955
8 2927 2893 2928 2957 2954 2923 2953 2978
8 2955 2924 2892 2926 2979 2954 2927 2956
8 2929 2895 2930 2959 2956 2927 2957 2980
8 2930 2896 2931 2960 2957 2928 2958 2981
8 2932 2898 2933 2961 2959 2930 2960 2982
8 2951 2920 2950 2975 2963 2935 2962 2984
8 2963 2935 2962 2984 2939 2905 2938 2966
8 2964 2936 2921 2952 2985 2963 2951 2976
8 2964 2936 2963 2985 2940 2906 2939 2967
8 2966 2938 2965 2987 2942 2908 2941 2969
8 2967 2939 2966 2988 2943 2909 2942 2970
8 2969 2941 2968 2989 2945 2911 2944 2971
8 2970 2942 2969 2990 2946 2912 2945 2972
8 2972 2945 2971 2991 2948 2915 2947 2973
8 2954 2923 2953 2978 2975 2950 2974 2993
8 2976 2951 2924 2955 2994 2975 2954 2979
8 2957 2928 2958 2981 2978 2953 2977 2995
8 2956 2927 2957 2980 2979 2954 2978 2996
8 2959 2930 2960 2982 2980 2957 2981 2997
8 2984 2962 2983 2999 2966 2938 2965 2987
8 2975 2950 2974 2993 2984 2962 2983 2999
8 2976 2951 2975 2994 2985 2963 2984 3000
8 2985 2963 2984 3000 2967 2939 2966 2988
8 2987 2965 2986 3001 2969 2941 2968 2989
8 2988 2966 2987 3002 2970 2942 2969 2990
8 2990 2969 2989 3003 2972 2945 2971 2991
8 2978 2953 2977 2995 2993 2974 2992 3004
8 2979 2954 2978 2996 2994 2975 2993 3005
8 2980 2957 2981 2997 2996 2978 2995 3006
8 2974 2993 2999 2983 2992 3004 3007 2998
8 2983 2999 2987 2965 2998 3007 3001 2986
8 3000 2984 2999 3008 2988 2966 2987 3002
8 2994 2975 2993 3005 3000 2984 2999 3008
8 3002 2987 3001 3009 2990 2969 2989 3003
8 2996 2978 2995 3006 3005 2993 3004 3010
8 3005 2993 3004 3010 3008 2999 3007 3011
8 3008 2999 3007 3011 3002 2987 3001 3009

CELL_TYPES 1910
12
12
12
12
12
12
12
12
12
12
12
12
12
12
12
12
12
12
12
12
12
12
12
12
12
12
12
12
12
12
12
12
12
12
12
12
12
12
12
12
12
12
12
12
12
12
12
12
12
12
12
12
12
12
12
12
12
12
12
12
12
12
12
12
12
12
12
12
12
12
12
12
12
12
12
12
12
12
12
12
12
12
12
12
12
12
12
12
12
12
12
12
12
12
12
12
12
12
12
12
12
12
12
12
12
12
12
12
12
12
12
12
12
12
12
12
12
12
12
12
12
12
12
12
12
12
12
12
12
12
12
12
12
12
12
12
12
12
12
12
12
12
12
12
12
12
12
12
12
12
12
12
12
12
12
12
12
12
12
12
12
12
12
12
12
12
12
12
12
12
12
12
12
12
12
12
12
12
12
12
12
12
12
12
12
12
12
12
12
12
12
12
12
12
12
12
12
12
12
12
12
12
12
12
12
12
12
12
12
12
12
12
12
12
12
12
12
12
12
12
12
12
12
12
12
12
12
12
12
12
12
12
12
12
12
12
12
12
12
12
12
12
12
12
12
12
12
12
12
12
12
12
12
12
12
12
12
12
12
12
12
12
12
12
12
12
12
12
12
12
12
12
12
12
12
12
12
12
12
12
12
12
12
12
12
12
12
12
12
12
12
12
12
12
12
12
12
12
12
12
12
12
12
12
12
12
12
12
12
12
12
12
12
12
12
12
12
12
12
12
12
12
12
12
12
12
12
12
12
12
12
12
12
12
12
12
12
12
12
12
12
12
12
12
12
12
12
12
12
12
12
12
12
12
12
12
12
12
12
12
12
12
12
12
12
12
12
12
12
12
12
12
12
12
12
12
12
12
12
12
12
12
12
12
12
12
12
12
12
12
12
12
12
12
12
12
12
12
12
12
12
12
12
12
12
12
12
12
12
12
12
12
12
12
12
12
12
12
12
12
12
12
12
12
12
12
12
12
12
12
12
12
12
12
12
12
12
12
12
12
12
12
12
12
12
12
12
12
12
12
12
12
12
12
12
12
12
12
12
12
12
12
12
12
12
12
12
12
12
12
12
12
12
12
12
12
12
12
12
12
12
12
12
12
12
12
12
12
12
12
12
12
12
12
12
12
12
12
12
12
12
12
12
12
12
12
12
12
12
12
12
12
12
12
12
12
12
12
12
12
12
12
12
12
12
12
12
12
12
12
12
12
12
12
12
12
12
12
12
12
12
12
12
12
12
12
12
12
12
12
12
12
12
12
12
12
12
12
12
12
12
12
12
12
12
12
12
12
12
12
12
12
12
12
12
12
12
12
12
12
12
12
12
12
12
12
12
12
12
12
12
12
12
12
12
12
12
12
12
12
12
12
12
12
12
12
12
12
12
12
12
12
12
12
12
12
12
12
12
12
12
12
12
12
12
12
12
12
12
12
12
12
12
12
12
12
12
12
12
12
12
12
12
12
12
12
12
12
12
12
12
12
12
12
12
12
12
12
12
12
12
12
12
12
12
12
12
12
12
12
12
12
12
12
12
12
12
12
12
12
12
12
12
12
12
12
12
12
12
12
12
12
12
12
12
12
12
12
12
12
12
12
12
12
12
12
12
12
12
12
12
12
12
12
12
12
12
12
12
12
12
12
12
12
12
12
12
12
12
12
12
12
12
12
12
12
12
12
12
12
12
12
12
12
12
12
12
12
12
12
12
12
12
12
12
12
12
12
12
12
12
12
12
12
12
12
12
12
12
12
12
12
12
12
12
12
12
12
12
12
12
12
12
12
12
12
12
12
12
12
12
12
12
12
12
12
12
12
12
12
12
12
12
12
12
12
12
12
12
12
12
12
12
12
12
12
12
12
12
12
12
12
12
12
12
12
12
12
12
12
12
12
12
12
12
12
12
12
12
12
12
12
12
12
12
12
12
12
12
12
12
12
12
12
12
12
12
12
12
12
12
12
12
12
12
12
12
12
12
12
12
12
12
12
12
12
12
12
12
12
12
12
12
12
12
12
12
12
12
12
12
12
12
12
12
12
12
12
12
12
12
12
12
12
12
12
12
12
12
12
12
12
12
12
12
12
12
12
12
12
12
12
12
12
12
12
12
12
12
12
12
12
12
12
12
12
12
12
12
12
12
12
12
12
12
12
12
12
12
12
12
12
12
12
12
12
12
12
12
12
12
12
12
12
12
12
12
12
12
12
12
12
12
12
12
12
12
12
12
12
12
12
12
12
12
12
12
12
12
12
12
12
12
12
12
12
12
12
12
12
12
12
12
12
12
12
12
12
12
12
12
12
12
12
12
12
12
12
12
12
12
12
12
12
12
12
12
12
12
12
12
12
12
12
12
12
12
12
12
12
12
12
12
12
12
12
12
12
12
12
12
12
12
12
12
12
12
12
12
12
12
12
12
12
12
12
12
12
12
12
12
12
12
12
12
12
12
12
12
12
12
12
12
12
12
12
12
12
12
12
12
12
12
12
12
12
12
12
12
12
12
12
12
12
12
12
12
12
12
12
12
12
12
12
12
12
12
12
12
12
12
12
12
12
12
12
12
12
12
12
12
12
12
12
12
12
12
12
12
12
12
12
12
12
12
12
12
12
12
12
12
12
12
12
12
12
12
12
12
12
12
12
12
12
12
12
12
12
12
12
12
12
12
12
12
12
12
12
12
12
12
12
12
12
12
12
12
12
12
12
12
12
12
12
12
12
12
12
12
12
12
12
12
12
12
12
12
12
12
12
12
12
12
12
12
12
12
12
12
12
12
12
12
12
12
12
12
12
12
12
12
12
12
12
12
12
12
12
12
12
12
12
12
12
12
12
12
12
12
12
12
12
12
12
12
12
12
12
12
12
12
12
12
12
12
12
12
12
12
12
12
12
12
12
12
12
12
12
12
12
12
12
12
12
12
12
12
12
12
12
12
12
12
12
12
12
12
12
12
12
12
12
12
12
12
12
12
12
12
12
12
12
12
12
12
12
12
12
12
12
12
12
12
12
12
12
12
12
12
12
12
12
12
12
12
12
12
12
12
12
12
12
12
12
12
12
12
12
12
12
12
12
12
12
12
12
12
12
12
12
12
12
12
12
12
12
12
12
12
12
12
12
12
12
12
12
12
12
12
12
12
12
12
12
12
12
12
12
12
12
12
12
12
12
12
12
12
12
12
12
12
12
12
12
12
12
12
12
12
12
12
12
12
12
12
12
12
12
12
12
12
12
12
12
12
12
12
12
12
12
12
12
12
12
12
12
12
12
12
12
12
12
12
12
12
12
12
12
12
12
12
12
12
12
12
12
12
12
12
12
12
12
12
12
12
12
12
12
12
12
12
12
12
12
12
12
12
12
12
12
12
12
12
12
12
12
12
12
12
12
12
12
12
12
12
12
12
12
12
12
12
12
12
12
12
12
12
12
12
12
12
12
12
12
12
12
12
12
12
12
12
12
12
12
12
12
12
12
12
12
12
12
12
12
12
12
12
12
12
12
12
12
12
12
12
12
12
12
12
12
12
12
12
12
12
12
12
12
12
12
12
12
12
12
12
12
12
12
12
12
12
12
12
12
12
12
12
12
12
12
12
12
12
12
12
12
12
12
12
12
12
12
12
12
12
12
12
12
12
12
12
12
12
12
12
12
12
12
12
12
12
12
12
12
12
12
12
12
12
12
12
12
12
12
12
12
12
12
12
12
12
12
12
12
12
12
12
12
12
12
12
12
12
12
12
12
12
12
12
12
12
12
12
12
12
12
12
12
12
12
12
12
12
12
12
12
12
12
12
12
12
12
12
12
12
12
12
12
12
12
12
12
12
12
12
12
12
12
12
12
12
12
12
12
12
12
12
12
12
12
12
12
12
12
12
12
12
12
12
12
12
12
12
12
12
12
12
12
12
12
12
12
12
12
12
12
12
12
12
12
12
12
12
12
12
12
12
12
12
12
12
12
12
12
12
12
12
12
12
12
12
12
12
12
12
12
12
12
12
12
12
12
12
12
12
12
12
12
12
12
12
12
12
12
12
12
12
12
12
12
12
12
12
12
12
12
12
12
12
12
12
12
12
12
12
12
12
12
12
12
12
12
12
12
12
12
12
12
12
12
12
12
12
12
12
12
12
12
12
12
12
12
12
12
12
12
12
12
12
12
12
12
12
12
12
12
12
12
12
12
12
12
12
12
12
12
12
12
12
12
12
12
12
12
12
12
12
12
12
12
12
12
12
12
12
12
12
12
12
12
12
12
12
12
12
12
12
12
12
12
12
12
12
12
12
12
12
12
12
12
12
12
12
12
12
12
12
12
12
12
12
12
12
12
12
12
12
12
12
12

POINT_DATA 3012
SCALARS Jp_lamdaP float 4
LOOKUP_TABLE default
0.999941 1 1 0.999941
1 1 1 1
0.999943 1 1 0.999943
0.999911 1 1 0.999911
0.999938 1 1 0.999938
0.999946 1 1 0.999946
0.999602 1 1 0.999602
1 1 1 1
1 1 1 1
1 1 1 1
0.999993 1 1 0.999993
0.999771 1 1 0.999771
0.999871 1 1 0.999871
0.999903 1 1 0.999903
0.999944 1 1 0.999944
0.99992 1 1 0.99992
0.99995 1 1 0.99995
0.999942 1 1 0.999942
0.999605 1 1 0.999605
1 1 1 1
0.999898 1 1 0.999898
0.999926 1 1 0.999926
0.999484 1 1 0.999484
0.999568 1 1 0.999568
0.999969 1 1 0.999969
0.999648 1 1 0.999648
0.999053 1 1 0.999053
1 1 1 1
0.999961 1 1 0.999961
0.999974 1 1 0.999974
1 1 1 1
0.999779 1 1 0.999779
0.999918 1 1 0.999918
0.99994 1 1 0.99994
0.999653 1 1 0.999653
1 1 1 1
0.999743 1 1 0.999743
0.999839 1 1 0.999839
0.999148 1 1 0.999148
1 1 1 1
1 1 1 1
0.99995 1 1 0.99995
1 1 1 1
0.999892 1 1 0.999892
0.999426 1 1 0.999426
1 1 1 1
0.999576 1 1 0.999576
0.999926 1 1 0.999926
0.999945 1 1 0.999945
0.999953 1 1 0.999953
0.99961 1 1 0.99961
0.999935 1 1 0.999935
0.999907 1 1 0.999907
0.999974 1 1 0.999974
0.999933 1 1 0.999933
0.999485 1 1 0.999485
0.999653 1 1 0.999653
0.999571 1 1 0.999571
0.999039 1 1 0.999039
1 1 1 1
0.999883 1 1 0.999883
0.999528 1 1 0.999528
0.999456 1 1 0.999456
0.999525 1 1 0.999525
0.998772 1 1 0.998772
0.998907 1 1 0.998907
0.999993 1 1 0.999993
0.999751 1 1 0.999751
0.999167 1 1 0.999167
0.998504 1 1 0.998504
1 1 1 1
1 1 1 1
1 1 1 1
0.999787 1 1 0.999787
1 1 1 1
1 1 1 1
0.999619 1 1 0.999619
1 1 1 1
0.999726 1 1 0.999726
0.999859 1 1 0.999859
0.999146 1 1 0.999146
1 1 1 1
0.999994 1 1 0.999994
0.99957 1 1 0.99957
0.999657 1 1 0.999657
0.998768 1 1 0.998768
0.999919 1 1 0.999919
0.999055 1 1 0.999055
0.999248 1 1 0.999248
0.998759 1 1 0.998759
1 1 1 1
1 1 1 1
1 1 1 1
1 1 1 1
1 1 1 1
0.999942 1 1 0.999942
0.999476 1 1 0.999476
0.999954 1 1 0.999954
0.999555 1 1 0.999555
1 1 1 1
0.999398 1 1 0.999398
0.999544 1 1 0.999544
0.998452 1 1 0.998452
0.999603 1 1 0.999603
0.998558 1 1 0.998558
0.999884 1 1 0.999884
0.999915 1 1 0.999915
0.999979 1 1 0.999979
0.999938 1 1 0.999938
0.999487 1 1 0.999487
0.999575 1 1 0.999575
0.999658 1 1 0.999658
0.999025 1 1 0.999025
1 1 1 1
0.999893 1 1 0.999893
0.999423 1 1 0.999423
0.999456 1 1 0.999456
0.999996 1 1 0.999996
0.999788 1 1 0.999788
0.999528 1 1 0.999528
0.99874 1 1 0.99874
0.999147 1 1 0.999147
0.998929 1 1 0.998929
0.998519 1.00001 1 0.998506
0.999417 1 1 0.999417
0.99943 1 1 0.99943
0.998565 1 1 0.998565
0.998672 1 1 0.998672
0.998796 1 1 0.998796
0.999452 1.00119 1 0.998265
1 1 1 1
0.998537 1.00011 1 0.998426
0.999904 1 1 0.999904
0.999235 1 1 0.999235
0.998585 1 1 0.998585
0.999901 1.00162 1 0.998288
0.99997 1 1 0.99997
0.999549 1 1 0.999549
1 1 1 1
1 1 1 1
0.999626 1 1 0.999626
1 1 1 1
0.999873 1 1 0.999873
0.99973 1 1 0.99973
0.999144 1 1 0.999144
1 1 1 1
0.999997 1 1 0.999997
0.999601 1 1 0.999601
0.999686 1 1 0.999686
0.99877 1 1 0.99877
0.999935 1 1 0.999935
0.999058 1 1 0.999058
0.999248 1 1 0.999248
0.998745 1 1 0.998745
0.99997 1 1 0.99997
1 1 1 1
0.999654 1 1 0.999654
0.998661 1 1 0.998661
0.998917 1 1 0.998917
0.999663 1.00135 1 0.99832
0.999378 1 1 0.999378
0.998648 1 1 0.998648
0.999053 1 1.00022 0.998837
0.998613 1 1 0.998613
1 1 1 1
1 1 1 1
1 1 1 1
0.999987 1 1 0.999987
1 1 1 1
1 1 1 1
1 1 1 1
0.999532 1 1 0.999532
0.999447 1 1 0.999447
1 1 1 1
1 1 1 1
0.999401 1 1 0.999401
0.999524 1 1 0.999524
0.998452 1 1 0.998452
0.999555 1 1 0.999555
0.998558 1 1 0.998558
0.999388 1 1 0.999388
0.998393 1 1 0.998393
0.998515 1 1 0.998515
1.00199 1.00395 1 0.998047
0.998598 1 1 0.998598
1.00105 1.0029 1 0.998151
1 1 1 1
0.999902 1 1 0.999902
0.999311 1 1 0.999311
0.999457 1 1 0.999457
1 1 1 1
0.999825 1 1 0.999825
0.999531 1 1 0.999531
0.998708 1 1 0.998708
0.998952 1 1 0.998952
0.999128 1 1 0.999128
0.998532 1.00002 1 0.998509
0.999414 1 1 0.999414
0.99943 1 1 0.99943
0.998499 1 1 0.998499
0.998696 1 1 0.998696
1 1 1 1
0.999892 1 1 0.999892
0.999264 1 1 0.999264
0.998796 1 1 0.998796
0.999477 1.00125 1 0.998229
0.99858 1 1 0.99858
0.998638 1.00019 1 0.998447
0.99995 1.00166 1 0.998291
0.999963 1 1 0.999963
0.999549 1 1 0.999549
0.998408 1 1 0.998408
0.998626 1 1 0.998626
1.00098 1.00285 1 0.998131
0.999695 1.00155 1 0.998144
0.998799 1.00044 1 0.998357
1.00388 1.00579 1 0.998104
0.999944 1 1 0.999944
1.00054 1.00231 1 0.998234
0.999335 1 1 0.999335
0.998738 1 1 0.998738
0.999576 1.00122 1 0.998362
1.00305 1.00482 1 0.998236
0.99945 1 1 0.99945
0.99967 1 1 0.99967
0.999134 1 1 0.999134
0.999585 1 1 0.999585
1 1 1 1
0.999999 1 1 0.999999
0.999681 1 1 0.999681
0.998773 1 1 0.998773
0.999949 1 1 0.999949
0.999248 1 1 0.999248
0.99906 1 1 0.99906
0.998731 1 1 0.998731
0.999978 1 1 0.999978
1 1 1 1
0.999656 1 1 0.999656
0.998662 1 1 0.998662
0.998921 1 1 0.998921
0.999334 1.00102 1 0.998319
0.999379 1 1 0.999379
0.998663 1.00001 1 0.998658
0.998901 1 1.00007 0.998834
0.998602 1 1 0.998602
1 1 1 1
0.999508 1 1 0.999508
0.999794 1 1 0.999794
0.999245 1 1 0.999245
1.00064 1.00242 1 0.998224
0.998847 1.00036 1 0.998492
1.0035 1.0054 1 0.998117
0.999117 1 1.00013 0.998984
0.999561 1.00107 1 0.998493
0.999786 1 1.0012 0.998584
0.998882 1.0004 1 0.998486
0.999943 1 1 0.999943
1 1 1 1
1 1 1 1
1 1 1 1
1 1 1 1
0.999996 1 1 0.999996
1 1 1 1
0.999982 1 1 0.999982
1 1 1 1
0.999557 1 1 0.999557
0.999496 1 1 0.999496
0.998558 1 1 0.998558
0.998452 1 1 0.998452
0.999403 1 1 0.999403
1 1 1 1
0.999387 1 1 0.999387
0.998393 1 1 0.998393
0.998515 1 1 0.998515
1.00184 1.0038 1 0.998046
0.998598 1 1 0.998598
1.00111 1.00296 1 0.998151
0.99838 1 1 0.99838
1.00217 1.00419 1 0.99799
1.00144 1.00334 1 0.998107
1.01021 1.01226 1 0.997977
1.0011 1.00292 1 0.998182
1.008 1.00997 1 0.998048
0.999411 1 1 0.999411
0.99943 1 1 0.99943
0.998433 1 1 0.998433
0.99872 1 1 0.99872
1 1 1 1
0.999879 1 1 0.999879
0.999292 1 1 0.999292
0.998797 1 1 0.998797
0.999498 1.00131 1 0.998192
0.99874 1.00027 1 0.998468
0.998575 1 1 0.998575
1.00004 1.00175 1 0.998295
0.999956 1 1 0.999956
0.999549 1 1 0.999549
0.998387 1 1 0.998387
0.998624 1 1 0.998624
1.00117 1.00305 1 0.99812
0.999875 1.0017 1 0.998182
0.999935 1 1 0.999935
0.999333 1 1 0.999333
0.998769 1 1 0.998769
0.998893 1.00054 1 0.998358
1.00422 1.00613 1 0.9981
0.999566 1.00124 1 0.998332
1.00085 1.00262 1 0.998235
1.00327 1.00504 1 0.998236
0.999452 1 1 0.999452
0.999133 1 1 0.999133
0.999668 1 1 0.999668
1.00159 1.00353 1 0.998068
1.00099 1.00284 1 0.998155
1.00914 1.01119 1 0.997974
1.00569 1.00767 1 0.998032
1.00213 1.00397 1 0.998171
1.00987 1.01175 1 0.998141
0.999397 1 1 0.999397
1.00526 1.00706 1 0.998213
0.998972 1 1 0.998972
0.998809 1.00038 1 0.998434
1.00131 1.00312 1 0.998194
1.00727 1.00897 1 0.998312
0.999765 1 1 0.999765
0.999116 1 1 0.999116
0.999193 1 1 0.999193
0.998988 1 1 0.998988
0.998662 1 1 0.998662
1 1 1 1
0.999987 1 1 0.999987
0.999657 1 1 0.999657
0.998926 1 1 0.998926
0.999055 1.00074 1 0.998318
0.99938 1 1 0.99938
0.998832 1 1 0.998832
0.998668 1 1 0.998668
0.998591 1 1 0.998591
1 1 1 1
0.999508 1 1 0.999508
0.999798 1 1 0.999798
0.999243 1 1 0.999243
1.00034 1.00212 1 0.998222
0.998759 1.00026 1 0.998494
1.00335 1.00524 1 0.998116
0.999095 1 1.00011 0.998987
0.999183 1.00068 1 0.998506
0.999773 1 1.0012 0.998574
0.998727 1.00017 1 0.998553
1 1 1 1
0.999876 1 1 0.999876
0.999124 1 1 0.999124
0.999383 1 1 0.999383
0.999078 1 1.00006 0.999016
1.00503 1.00698 1 0.998059
1.00154 1.00325 1 0.998294
1.00632 1.00827 1 0.998072
1.00025 1 1.00156 0.998693
0.999556 1.00114 1 0.998418
0.99934 1.00015 1.00086 0.998333
0.999931 1 1 0.999931
0.999658 1 1 0.999658
0.99995 1 1 0.99995
0.999945 1 1 0.999945
1 1 1 1
1 1 1 1
1 1 1 1
1 1 1 1
1 1 1 1
0.999999 1 1 0.999999
1 1 1 1
0.999994 1 1 0.999994
1 1 1 1
0.999978 1 1 0.999978
1 1 1 1
0.998598 1 1 0.998598
0.998515 1 1 0.998515
1.00116 1.00301 1 0.998151
1.00167 1.00363 1 0.998045
0.998393 1 1 0.998393
0.999386 1 1 0.999386
0.998379 1 1 0.998379
1.00215 1.00417 1 0.99799
1.00127 1.00317 1 0.998106
1.01039 1.01244 1 0.997978
1.00103 1.00285 1 0.998181
1.00745 1.00942 1 0.998048
1.00212 1.00416 1 0.997976
1.01176 1.01386 1 0.997935
1.00918 1.01118 1 0.998013
1.01587 1.01788 1 0.998027
1.00631 1.00826 1 0.998059
1.01219 1.01406 1 0.998154
0.998367 1 1 0.998367
0.998623 1 1 0.998623
1.00134 1.00324 1 0.998108
1.00005 1.00184 1 0.998219
0.999926 1 1 0.999926
0.999331 1 1 0.999331
0.9988 1 1 0.9988
0.998991 1.00063 1 0.998359
1.00456 1.00648 1 0.998096
1.00116 1.00293 1 0.998237
0.999521 1.00122 1 0.998302
1.0035 1.00527 1 0.998236
0.999454 1 1 0.999454
0.999132 1 1 0.999132
0.999666 1 1 0.999666
1.00176 1.00373 1 0.998037
1.00094 1.00279 1 0.998154
1.00909 1.01114 1 0.99797
1.00621 1.00819 1 0.998039
0.999397 1 1 0.999397
0.998967 1 1 0.998967
0.998891 1.00038 1.00003 0.998476
1.00242 1.00425 1 0.99818
1.00937 1.01123 1 0.998158
1.00145 1.00329 1 0.99817
1.00529 1.00709 1 0.998215
1.0067 1.00839 1 0.998326
0.999119 1 1 0.999119
0.998971 1 1 0.998971
0.999761 1 1 0.999761
0.999209 1 1 0.999209
1.01016 1.01226 1 0.99792
1.00867 1.01068 1 0.998009
1.01594 1.01801 1 0.997964
1.01151 1.01344 1 0.998097
1.00794 1.00976 1 0.998196
1.0121 1.01389 1 0.998234
0.999085 1 1 0.999085
1.00823 1.00989 1 0.998355
0.99871 1 1 0.99871
0.999871 1.00148 1.00018 0.998219
1.00527 1.00718 1 0.998109
1.00829 1.00997 1 0.99834
0.999819 1 1 0.999819
0.999308 1 1 0.999308
0.998977 1 1 0.998977
0.999058 1 1.00005 0.999008
0.998924 1 1 0.998924
1 1 1 1
0.999987 1.00177 1 0.998219
0.999803 1 1 0.999803
0.999508 1 1 0.999508
0.999241 1 1 0.999241
0.998662 1.00017 1 0.998496
1.0031 1.00499 1 0.998115
0.998989 1 1 0.998989
0.999794 1 1.00123 0.998564
0.998786 1.00027 1 0.99852
0.99862 1 1 0.99862
1 1 1 1
0.999881 1 1 0.999881
0.999124 1 1 0.999124
0.999383 1 1 0.999383
0.999029 1 1.00003 0.998999
1.00528 1.00724 1 0.998055
1.00094 1.00265 1 0.998295
1.0063 1.00825 1 0.998065
1.00023 1 1.00153 0.998697
0.999847 1.00142 1 0.998432
0.999578 1.00027 1.00096 0.998352
0.999913 1 1 0.999913
0.999506 1 1 0.999506
0.99928 1 1.00042 0.998863
0.999189 1 1.00006 0.999129
0.999215 1 1.00034 0.998877
1.00865 1.01061 1 0.998061
1.00276 1.00455 1 0.998225
1.00659 1.0084 1 0.998204
1.0022 1 1.00373 0.998469
0.999278 1.00107 1 0.998209
0.999934 1 1 0.999934
0.999598 1 1 0.999598
0.999641 1 1 0.999641
0.999472 1 1 0.999472
0.999665 1 1 0.999665
0.999953 1 1 0.999953
0.999952 1 1 0.999952
1 1 1 1
0.999947 1 1 0.999947
1 1 1 1
1 1 1 1
1 1 1 1
1 1 1 1
1 1 1 1
1 1 1 1
0.999999 1 1 0.999999
1 1 1 1
1 1 1 1
0.999991 1 1 0.999991
1 1 1 1
1.00098 1.00281 1 0.998179
1.0011 1.003 1 0.998106
1.00692 1.00889 1 0.998048
1.01057 1.01262 1 0.997979
1.00214 1.00416 1 0.997991
0.998379 1 1 0.998379
1.00215 1.00418 1 0.997976
1.01181 1.01391 1 0.997928
1.00897 1.01097 1 0.998013
1.01568 1.01767 1 0.998039
1.00646 1.00843 1 0.998056
1.01233 1.01419 1 0.998161
1.01116 1.01329 1 0.997903
1.01714 1.01921 1 0.997973
1.01377 1.01569 1 0.998106
1.01522 1.01716 1 0.998096
1.01093 1.01283 1 0.998125
1.01405 1.01582 1 0.998261
1.00195 1.00396 1 0.998005
1.00089 1.00275 1 0.998153
1.00906 1.01112 1 0.997965
1.00674 1.00871 1 0.998045
0.999398 1 1 0.999398
0.998961 1 1 0.998961
0.99906 1.00036 1.00018 0.998518
1.00272 1.00454 1 0.998189
1.00887 1.01071 1 0.998175
1.00526 1.00706 1 0.998216
1.00162 1.00348 1 0.998146
1.00614 1.00781 1 0.998339
0.999122 1 1 0.999122
0.998954 1 1 0.998954
0.999758 1 1 0.999758
0.999226 1 1 0.999226
1.01017 1.01227 1 0.99792
1.00867 1.01069 1 0.998004
1.01567 1.01773 1 0.997971
1.01094 1.01288 1 0.998091
0.999083 1 1 0.999083
0.998777 1 1.00003 0.998746
1.00004 1.00144 1.00039 0.998214
1.0076 1.00944 1 0.998183
1.01223 1.01399 1 0.998271
1.00515 1.00706 1 0.998099
1.00792 1.00958 1 0.998357
1.00883 1.01048 1 0.998373
0.998977 1 1 0.998977
0.998921 1 1 0.998921
0.999146 1 1.00014 0.999005
0.999791 1 1 0.999791
0.999323 1 1 0.999323
1.01704 1.01913 1 0.997946
1.01494 1.01698 1 0.997999
1.01295 1.01477 1 0.99821
1.01032 1.01202 1 0.998321
0.998931 1 1 0.998931
1.00992 1.01148 1 0.99846
0.998832 1 1.00029 0.998544
1.00149 1.003 1.00051 0.997993
1.0075 1.00946 1 0.998056
0.999811 1 1 0.999811
0.999455 1 1 0.999455
0.999172 1 1.00004 0.99913
0.998938 1 1 0.998938
0.999167 1 1.0003 0.998864
0.998873 1 1 0.998873
1 1 1 1
0.999887 1 1 0.999887
1.00557 1.00753 1 0.998051
0.999384 1 1 0.999384
0.999125 1 1 0.999125
0.998993 1 1.00001 0.998981
1.00044 1.00215 1 0.998295
1.00622 1.00818 1 0.998059
1.00025 1 1.00155 0.998701
0.999513 1.00037 1.00077 0.998372
1.00013 1.00169 1 0.998447
0.999917 1 1 0.999917
0.999507 1 1 0.999507
0.999224 1 1.00035 0.99887
0.999164 1 1.00004 0.999128
0.999328 1 1.00046 0.998864
1.00869 1.01066 1 0.998057
1.00285 1.00464 1 0.998218
1.00654 1.00833 1 0.998225
1.00164 1 1.00319 0.998452
0.999347 1.00111 1.00006 0.99818
0.999584 1 1 0.999584
0.999219 1 1 0.999219
1.00063 1 1.00193 0.998703
0.999532 1 1.00063 0.998898
0.999341 1 1.00058 0.998766
1.01205 1.01372 1 0.998354
1.00285 1.00472 1 0.998141
1.00592 1.00768 1 0.998251
1.00282 1.00019 1.00432 0.998317
0.998753 1.00078 1 0.997978
0.999938 1 1 0.999938
0.999613 1 1 0.999613
0.999385 1 1 0.999385
0.999623 1 1 0.999623
0.999665 1 1 0.999665
0.999446 1 1 0.999446
0.999316 1 1 0.999316
0.999433 1 1 0.999433
0.999669 1 1 0.999669
0.99995 1 1 0.99995
0.999953 1 1 0.999953
1 1 1 1
0.999953 1 1 0.999953
1 1 1 1
1 1 1 1
1 1 1 1
1 1 1 1
1 1 1 1
1 1 1 1
1 1 1 1
1 1 1 1
0.999998 1 1 0.999998
1 1 1 1
1 1 1 1
1.0066 1.00856 1 0.998052
1.00876 1.01077 1 0.998013
1.01246 1.01432 1 0.998168
1.0155 1.01748 1 0.998051
1.01184 1.01395 1 0.997921
1.00217 1.0042 1 0.997977
1.01125 1.01339 1 0.997896
1.01718 1.01925 1 0.997969
1.01398 1.01592 1 0.99809
1.01529 1.01722 1 0.9981
1.01034 1.01223 1 0.998126
1.01388 1.01562 1 0.998286
1.01655 1.01865 1 0.997938
1.01668 1.01866 1 0.998064
1.0158 1.01763 0.999999 0.998203
1.0134 1.01506 1 0.998359
1.01016 1.01227 1 0.997921
1.00866 1.01068 1 0.997999
1.01539 1.01745 1 0.997978
1.01037 1.01231 1 0.998084
0.99908 1 1 0.99908
0.998782 1 1 0.998782
1.00024 1.00145 1.00058 0.998209
1.00725 1.0091 1 0.998169
1.01235 1.01407 1 0.998308
1.00769 1.00935 1 0.998359
1.00497 1.00689 1 0.998089
1.00922 1.01084 1 0.998405
0.998977 1 1 0.998977
0.998919 1 1 0.998919
0.99923 1 1.00023 0.999001
0.999764 1 1 0.999764
0.999337 1 1 0.999337
1.01674 1.01883 1 0.997949
1.01483 1.01686 1 0.998006
1.01277 1.01459 1 0.998209
0.998926 1 1 0.998926
0.998835 1 1.00026 0.998578
1.00164 1.00289 1.00076 0.997985
1.01059 1.0123 1 0.998311
1.00722 1.00913 1 0.998104
1.00942 1.01098 1 0.998452
0.999816 1 1 0.999816
0.998935 1 1 0.998935
0.9989 1 1 0.9989
0.999253 1 1.0004 0.998855
0.999151 1 1.00001 0.999139
0.999433 1 1 0.999433
1.01621 1.01826 1 0.997989
1.01566 1.01783 0.999756 0.998112
1.01246 1.01419 1 0.998293
1.01309 1.01465 1 0.998457
0.998832 1 1 0.998832
1.00718 1.00896 1 0.998243
0.999859 1 1.00165 0.998217
1.00241 1.00352 1.00104 0.997863
0.999861 1 1 0.999861
0.999531 1 1 0.999531
0.999233 1 1 0.999233
0.999205 1 1.00029 0.998919
0.998865 1 1 0.998865
0.999 1 1.00022 0.998785
0.999921 1 1 0.999921
0.999509 1 1 0.999509
1.00881 1.01078 1 0.998053
0.999127 1 1 0.999127
0.999086 1 1.00021 0.998878
0.999531 1 1.00068 0.998851
1.00289 1.00469 1 0.998211
1.00657 1.00834 1 0.998245
1.00111 1 1.00268 0.998435
0.999506 1.00109 1.00027 0.99815
0.999585 1 1 0.999585
0.999229 1 1 0.999229
1.00064 1 1.00193 0.99872
0.999791 1 1.00089 0.998902
0.999105 1 1.00031 0.998795
1.01213 1.01378 1 0.99837
1.00276 1.00463 1 0.99814
1.00623 1.00792 1 0.998325
1.00291 1.00005 1.00457 0.998299
0.998789 1.00082 1.00003 0.997942
0.999333 1 1 0.999333
0.998978 1 1 0.998978
1.00235 1 1.00377 0.998581
0.999431 1 1.00075 0.998679
1.01804 1.02007 0.999514 0.998486
1.01126 1.01294 0.999872 0.998468
1.0032 1.00525 1 0.997967
1.00248 1.00026 1.00426 0.997977
0.999627 1 1 0.999627
0.999397 1 1 0.999397
0.999257 1 1 0.999257
0.999665 1 1 0.999665
0.99942 1 1 0.99942
0.999669 1 1 0.999669
0.999297 1 1 0.999297
0.999443 1 1 0.999443
0.999191 1 1 0.999191
0.99929 1 1 0.99929
0.999432 1 1 0.999432
0.999664 1 1 0.999664
0.999946 1 1 0.999946
0.999949 1 1 0.999949
1 1 1 1
0.999953 1 1 0.999953
1 1 1 1
1 1 1 1
1 1 1 1
1 1 1 1
1 1 1 1
1 1 1 1
1 1 1 1
1 1 1 1
1 1 1 1
1 1 1 1
1 1 1 1
1.00975 1.01165 1 0.998126
1.01417 1.01613 1 0.998074
1.0137 1.01541 1 0.998311
1.01535 1.01728 1 0.998104
1.01722 1.01929 1 0.997966
1.01136 1.0135 1 0.997888
1.01649 1.01858 1 0.997944
1.01607 1.01804 1 0.998061
1.01553 1.01735 1 0.998206
1.01449 1.01616 1 0.998355
1.01643 1.01844 1 0.998021
1.01933 1.02151 0.99965 0.998217
1.01864 1.02042 0.999914 0.998337
1.01645 1.01853 1 0.997952
1.01474 1.01676 1 0.998012
1.01256 1.01438 1 0.998208
0.998922 1 1 0.998922
0.99879 1 1.00018 0.998612
1.00164 1.00282 1.00085 0.997977
1.01077 1.01249 1 0.998301
1.00912 1.0107 1 0.998444
1.00727 1.00913 1 0.998153
0.998932 1 1 0.998932
0.998926 1 1 0.998926
0.999294 1 1.00045 0.998847
0.99982 1 1 0.99982
0.999148 1 1 0.999148
0.999412 1 1 0.999412
1.01672 1.01877 1 0.997992
1.01592 1.01797 0.999864 0.998116
1.01229 1.01404 0.999999 0.998282
0.998823 1 1 0.998823
0.999692 1.00001 1.0014 0.998282
1.00254 1.00377 1.0009 0.997877
1.01326 1.01482 0.999995 0.998471
1.00757 1.00935 1 0.998235
0.999887 1 1 0.999887
0.999531 1 1 0.999531
0.998871 1 1 0.998871
0.999017 1 1.00019 0.998822
0.999253 1 1.00033 0.998922
0.999216 1 1 0.999216
1.01932 1.02169 0.999544 0.998132
1.01398 1.01759 0.998212 0.998234
1.0143 1.01644 0.999421 0.99847
1.01125 1.01275 1 0.998512
0.999547 1 1.00088 0.998664
1.00262 1.00334 1.0014 0.997879
1.00089 1.00021 1.00264 0.998048
0.999945 1 1 0.999945
0.999681 1 1 0.999681
0.999546 1 1 0.999546
0.99927 1 1 0.99927
0.999022 1 1 0.999022
0.999065 1 1.00028 0.998789
0.998897 1 1 0.998897
1.00487 1 1.00597 0.998907
0.999587 1 1 0.999587
0.999239 1 1 0.999239
1.01208 1.01372 1 0.998386
0.999923 1 1.00102 0.998907
1.00084 1 1.00211 0.998738
0.99886 1 1.00004 0.998825
1.00268 1.00455 1 0.998139
1.00645 1.00807 1 0.9984
1.00308 1 1.00481 0.99828
0.998826 1.00092 1 0.997907
0.999321 1 1 0.999321
0.999073 1 1.00009 0.998987
1.00273 1 1.00414 0.998598
0.999307 1 1.00061 0.9987
1.01804 1.02007 0.999525 0.998487
1.01052 1.01215 0.999949 0.998448
1.00374 1.00575 1 0.998005
1.00206 1.00035 1.00377 0.997947
0.99917 1 1 0.99917
1.01754 1.02123 0.997927 0.998458
0.999619 1 1.00083 0.998795
1.00107 1 1.00268 0.998394
1.01637 1.01855 0.999285 0.998579
1.00616 1.00813 1 0.998049
1.00377 1.00273 1.00323 0.997812
0.999408 1 1 0.999408
0.999256 1 1 0.999256
0.999134 1 1 0.999134
0.999669 1 1 0.999669
0.999452 1 1 0.999452
0.999279 1 1 0.999279
0.999663 1 1 0.999663
0.999433 1 1 0.999433
0.999175 1 1 0.999175
0.999309 1 1 0.999309
0.999093 1 1 0.999093
0.999168 1 1 0.999168
0.999309 1 1 0.999309
0.999436 1 1 0.999436
0.999649 1 1 0.999649
0.999941 1 1 0.999941
0.999945 1 1 0.999945
1 1 1 1
0.999948 1 1 0.999948
1 1 1 1
1 1 1 1
1 1 1 1
1 1 1 1
1 1 1 1
0.999965 1 1 0.999965
1 1 1 1
1 1 1 1
1 1 1 1
1 1 1 1
1 1 1 1
1 1 1 1
1.01557 1.01725 1 0.998352
1.01526 1.01708 1 0.998209
1.01544 1.01742 1 0.998057
1.01641 1.0185 1 0.997949
1.01635 1.01835 1 0.998033
1.01936 1.02156 0.999647 0.998205
1.01903 1.02083 0.999888 0.998351
1.01997 1.02261 0.999238 0.998184
1.02237 1.02558 0.998534 0.998335
1.00916 1.01808 0.992712 0.99852
1.0172 1.01925 1 0.997996
1.01619 1.01815 0.999951 0.99812
1.01221 1.01397 0.999994 0.998271
0.998871 1 1.00006 0.998815
0.999611 1 1.00126 0.998347
1.00241 1.00375 1.00078 0.997891
1.01353 1.01508 0.999992 0.998486
1.00738 1.00917 1 0.998227
0.998878 1 1 0.998878
0.999035 1 1.00018 0.998859
0.999389 1 1.00046 0.998925
0.999913 1 1 0.999913
0.999531 1 1 0.999531
0.999199 1 1 0.999199
1.01905 1.02144 0.999514 0.998148
0.999941 1 1 0.999941
0.999665 1 1 0.999665
1.01406 1.0171 0.99877 0.998233
1.01534 1.01736 0.999574 0.998439
0.999552 1 1.00084 0.998713
1.00162 1.00031 1.0033 0.998013
1.00236 1.00364 1.00084 0.997886
1.01043 1.01195 1 0.998502
0.999591 1 1 0.999591
0.999268 1 1 0.999268
0.998853 1 1 0.998853
1.00243 1 1.00345 0.998983
0.999119 1 1.00035 0.998769
0.999029 1 1 0.999028
1.02124 1.0247 0.998321 0.998303
1.0131 1.01833 0.996496 0.998363
1.01339 1.0169 0.99787 0.998668
1.00364 1.00547 0.999926 0.998256
1.00102 1 1.00234 0.998674
1.00413 1.00084 1.00547 0.997834
0.999685 1 1 0.999685
0.999636 1 1 0.999636
0.999464 1 1 0.999464
0.999271 1 1 0.999271
0.99911 1 1 0.99911
0.99884 1 1 0.998839
1.00805 1 1.00936 0.998707
0.999693 1 1.00068 0.99901
0.99931 1 1 0.99931
0.999152 1 1.00016 0.998996
1.01814 1.02016 0.999532 0.998487
1.01007 1.01166 1 0.998429
0.99922 1 1.0005 0.99872
1.00301 1 1.0044 0.998614
1.00442 1.00635 1.00004 0.998042
1.00165 1.00039 1.00335 0.997918
0.999165 1 1 0.999165
1.01743 1.02183 0.997216 0.998479
0.999529 1 1.00073 0.998805
1.00105 1 1.00269 0.998372
1.0161 1.01824 0.999344 0.998557
1.00697 1.00891 1 0.998079
1.00362 1.00232 1.00348 0.997822
0.999295 1 1.00034 0.998956
1.01711 1.02398 0.994577 0.998705
0.99951 1 1.00088 0.998633
1.00229 1.00036 1.00379 0.99815
1.00799 1.01253 0.997225 0.998288
1.00193 1.00185 1.00221 0.997871
1.00552 1.00823 0.998499 0.998814
0.999254 1 1 0.999254
0.999132 1 1 0.999132
0.999028 1 1 0.999028
0.999662 1 1 0.999662
0.999434 1 1 0.999434
0.999329 1 1 0.999329
0.999158 1 1 0.999158
0.999649 1 1 0.999649
0.999426 1 1 0.999426
0.999083 1 1 0.999083
0.999308 1 1 0.999308
0.999184 1 1 0.999184
0.999073 1 1 0.999073
0.999207 1 1 0.999207
0.999308 1 1 0.999308
0.999389 1 1 0.999389
0.999601 1 1 0.999601
0.999465 1 1 0.999465
0.999603 1 1 0.999603
0.999937 1 1 0.999937
0.99994 1 1 0.99994
1 1 1 1
0.999944 1 1 0.999944
1 1 1 1
1 1 1 1
1 1 1 1
1 1 1 1
1 1 1 1
0.999976 1 1 0.999976
0.999962 1 1 0.999962
1 1 1 1
1 1 1 1
1 1 1 1
1 1 1 1
1 1 1 1
1 1 1 1
1.0194 1.0212 0.999869 0.998364
1.0194 1.02161 0.999642 0.998193
1.0163 1.01829 1 0.998045
1.01982 1.02244 0.999258 0.998182
1.02147 1.02463 0.998584 0.998332
1.01021 1.01837 0.993462 0.998517
1.01796 1.02454 0.995163 0.998403
1.00644 1.01596 0.992267 0.998356
1.01456 1.02405 0.991898 0.998829
0.999747 1 1 0.999747
1.01882 1.02121 0.999503 0.998163
1.01407 1.01654 0.999339 0.998231
1.01612 1.0181 0.999642 0.998409
0.999582 1 1.00082 0.998762
1.00249 1.0005 1.00402 0.997977
1.00258 1.00424 1.00045 0.997893
1.00971 1.01124 1 0.998493
0.99881 1 1 0.99881
0.999965 1 1.0009 0.999061
0.999114 1 1.00036 0.998749
0.999938 1 1 0.999938
0.999034 1 1 0.999034
0.999635 1 1 0.999635
0.999267 1 1 0.999267
0.999649 1 1 0.999649
1.02086 1.02537 0.997285 0.99831
0.999707 1 1 0.999707
0.999635 1 1 0.999635
0.999431 1 1 0.999431
1.0134 1.01852 0.996602 0.998367
1.01284 1.01609 0.998175 0.998623
1.0003 1 1.00161 0.998691
1.0038 1.00044 1.00554 0.997841
1.0036 1.00524 1.00011 0.998259
0.999294 1 1 0.999294
0.999096 1 1 0.999096
1.00122 1 1.00226 0.998956
1.00662 1 1.00789 0.998741
0.998858 1 1 0.998858
1.01384 1.02075 0.994836 0.998381
1.01269 1.02067 0.993692 0.998484
1.00796 1.01112 0.998437 0.998434
1.00458 1.00325 1.00321 0.998124
1.00341 1 1.00478 0.998642
0.99943 1 1 0.99943
0.999341 1 1 0.999341
0.99925 1 1 0.99925
0.999106 1 1 0.999106
0.998957 1 1 0.998957
1.00526 1 1.00652 0.998743
1.00902 1 1.01039 0.998647
0.99916 1 1 0.99916
0.999415 1 1.0006 0.998815
1.01721 1.02234 0.996482 0.998499
1.01564 1.01778 0.999354 0.998534
1.00745 1.00935 1 0.99811
1.00102 1 1.00268 0.99835
1.0032 1.00177 1.0036 0.997832
0.999272 1 1.00029 0.998984
1.01663 1.02405 0.994043 0.99871
0.999472 1 1.00082 0.998651
1.00239 1.00015 1.00408 0.998161
1.00903 1.01289 0.99784 0.998344
1.00247 1.00192 1.00269 0.99786
1.00555 1.00848 0.998563 0.998527
0.999214 1 1.00037 0.99884
1.00431 1.01538 0.990398 0.998691
1.00052 1 1.00192 0.998604
1.00444 1 1.00636 0.998094
1.00323 1.00411 1.00104 0.998088
0.958449 0.975517 0.992114 0.990313
0.985981 0.989303 1.00109 0.995554
0.981408 1.00076 0.981703 0.99894
0.893101 0.923309 0.976432 0.99063
0.869283 0.928389 0.945745 0.990049
0.999131 1 1 0.999131
0.99904 1 1 0.99904
0.999043 1 1 0.999043
0.999648 1 1 0.999648
0.999417 1 1 0.999417
0.999307 1 1 0.999307
0.9992 1 1 0.9992
0.999073 1 1 0.999073
0.999291 1 1 0.999291
0.999619 1 1 0.999619
0.999401 1 1 0.999401
0.999079 1 1 0.999079
0.999205 1 1 0.999205
0.999213 1 1 0.999213
0.999145 1 1 0.999145
0.999248 1 1 0.999248
0.999364 1 1 0.999364
0.999597 1 1 0.999597
0.99942 1 1 0.99942
0.999317 1 1 0.999317
0.999439 1 1 0.999439
0.999441 1 1 0.999441
0.999644 1 1 0.999644
0.999602 1 1 0.999602
0.999935 1 1 0.999935
0.999937 1 1 0.999937
1 1 1 1
0.99994 1 1 0.99994
1 1 1 1
1 1 1 1
1 1 1 1
1 1 1 1
1 1 1 1
0.999981 1 1 0.999981
0.999974 1 1 0.999974
1 1 1 1
0.999959 1 1 0.999959
1 1 1 1
1 1 1 1
1 1 1 1
1 1 1 1
1 1 1 1
1.02065 1.02375 0.998644 0.99833
1.01965 1.02224 0.999284 0.99818
1.01115 1.01852 0.994241 0.998514
1.00664 1.01572 0.992658 0.998387
1.01735 1.02389 0.995198 0.998401
1.01714 1.02534 0.993224 0.998773
1.02116 1.02638 0.996504 0.998402
0.970839 0.984914 0.990844 0.994818
1.01262 1.01935 0.994724 0.99866
0.999758 1 1 0.999758
0.999746 1 1 0.999746
0.999502 1 1 0.999502
0.99953 1 1 0.99953
1.0205 1.02604 0.99628 0.998317
1.01378 1.0186 0.996893 0.99837
1.01249 1.01531 0.998636 0.998578
0.999479 1 1.00077 0.998708
1.00327 1.00007 1.00536 0.997849
1.00357 1.00518 1.00013 0.998262
1.00275 1 1.00385 0.9989
1.00524 1 1.00648 0.998775
0.998877 1 1 0.998877
0.999634 1 1 0.999634
0.999082 1 1 0.999082
0.999317 1 1 0.999317
0.999728 1 1 0.999728
0.999398 1 1 0.999398
1.01227 1.01908 0.994905 0.998396
0.999465 1 1 0.999465
0.999362 1 1 0.999362
0.999256 1 1 0.999256
1.01475 1.02214 0.994265 0.998495
1.00674 1.01024 0.998103 0.99843
1.00333 1 1.0047 0.998636
1.00455 1.00363 1.00281 0.998114
0.999109 1 1 0.999109
0.998961 1 1 0.998961
1.00886 1 1.01022 0.998647
1.00614 1 1.00742 0.998723
1.01555 1.02398 0.993354 0.998408
1.0001 1.01656 0.985304 0.99848
1.00468 1.00581 1.00073 0.99815
1.00161 1 1.00306 0.998552
0.999184 1 1 0.999184
0.999152 1 1 0.999152
1.00045 1 1.00154 0.998906
1.01536 1 1.01688 0.998509
0.947299 0.972442 0.98404 0.989945
0.999308 1 1.0003 0.999012
0.999534 1 1.00087 0.998669
1.01578 1.02395 0.993294 0.998715
1.01017 1.01323 0.99857 0.9984
1.00325 1.00211 1.0033 0.997848
1.00263 1 1.00447 0.998172
1.00492 1.00843 0.998281 0.998236
0.999403 1 1.00054 0.998861
1.00344 1.01503 0.98989 0.998677
1.00004 1 1.00143 0.998614
1.0042 1 1.00611 0.998096
1.00359 1.0053 1.0002 0.998108
0.956076 0.975385 0.989803 0.990301
0.981621 0.988043 0.999284 0.994213
0.983074 0.99946 0.984603 0.998986
0.896685 0.92349 0.980451 0.990335
0.855299 0.917532 0.942314 0.989239
0.999587 1 1.00064 0.998946
0.909031 0.93468 0.982183 0.9902
0.90341 0.933245 0.977076 0.990742
0.98079 1.00587 0.976382 0.998651
1.00487 1 1.00622 0.998655
1.00985 1.00143 1.01017 0.998255
0.9822 0.996283 0.986728 0.999124
0.961477 0.972991 0.998306 0.989844
0.974019 0.976513 1.0037 0.993766
0.876319 0.923344 0.958066 0.990611
0.90673 0.957606 0.954813 0.991683
0.999052 1 1 0.999052
0.999039 1 1 0.999039
0.999186 1 1 0.999186
0.999637 1 1 0.999637
0.999414 1 1 0.999414
0.999274 1 1 0.999274
0.999203 1 1 0.999203
0.999085 1 1 0.999085
0.999597 1 1 0.999597
0.999211 1 1 0.999211
0.999265 1 1 0.999265
0.999384 1 1 0.999384
0.999139 1 1 0.999139
0.999165 1 1 0.999165
0.999353 1 1.0002 0.999156
0.999242 1 1 0.999242
0.999398 1 1 0.999398
0.999418 1 1 0.999418
0.999302 1 1 0.999302
0.999277 1 1 0.999277
0.999294 1 1 0.999294
0.999235 1 1 0.999235
0.999187 1 1 0.999187
0.999419 1 1 0.999419
0.999439 1 1 0.999439
0.999645 1 1 0.999645
0.999416 1 1 0.999416
0.999629 1 1 0.999629
0.999934 1 1 0.999934
0.999601 1 1 0.999601
0.999935 1 1 0.999935
1 1 1 1
0.999937 1 1 0.999937
1 1 1 1
1 1 1 1
1 1 1 1
1 1 1 1
1 1 1 1
0.999747 1 1 0.999747
0.999982 1 1 0.999982
0.99998 1 1 0.99998
1 1 1 1
0.999971 1 1 0.999971
1 1 1 1
1 1 1 1
1 1 1 1
1 1 1 1
1 1 1 1
1.0078 1.01579 0.993698 0.998421
1.01682 1.02339 0.995172 0.9984
1.02001 1.02687 0.994592 0.998716
0.972358 0.983548 0.99304 0.995551
1.01245 1.01907 0.994776 0.998717
1.02239 1.02822 0.995945 0.99838
1.01753 1.02314 0.996033 0.998473
0.976866 0.986208 0.994592 0.995914
0.958319 0.975854 0.992779 0.989174
0.874609 0.915501 0.965496 0.989474
0.856436 0.910038 0.950775 0.989822
0.999493 1 1 0.999493
0.999757 1 1 0.999757
0.999746 1 1 0.999746
0.999491 1 1 0.999491
0.999336 1 1 0.999336
0.999373 1 1 0.999373
0.999502 1 1 0.999502
0.999514 1 1 0.999514
1.01061 1.01754 0.994768 0.998411
1.01693 1.02416 0.994429 0.998506
1.00556 1.0094 0.997765 0.998426
1.00345 1 1.00482 0.998631
1.00453 1.00371 1.00272 0.998103
1.00866 1 1.01003 0.998648
1.00722 1 1.00853 0.998702
0.998964 1 1 0.998964
0.999382 1 1 0.999382
0.999111 1 1 0.999111
0.9995 1 1 0.9995
0.999261 1 1 0.999261
1.01587 1.02442 0.993251 0.998387
0.999204 1 1 0.999204
0.999158 1 1 0.999158
1.0016 1.01537 0.987954 0.998464
1.00436 1.00627 0.999867 0.998233
1.00342 1.00014 1.00479 0.998503
1.00135 1 1.00246 0.998891
1.01371 1 1.01522 0.998514
1.01457 1.02258 0.993804 0.998354
0.98418 1.00466 0.98112 0.998471
0.999467 1 1.00103 0.998437
1.00707 1 1.00852 0.998566
0.999082 1 1 0.999082
1.00007 1 1.0011 0.99897
1.00977 1 1.01109 0.998694
0.897968 0.936521 0.968019 0.990512
0.954236 0.973401 0.989456 0.990758
0.999474 1 1.00059 0.998883
0.999688 1 1.00107 0.998623
1.00357 1.0151 0.989965 0.998664
1.00403 1.00666 0.999261 0.998127
1.0038 1 1.00571 0.998097
0.956822 0.975206 0.991942 0.989119
0.983012 0.990318 0.997675 0.994936
0.985495 0.998673 0.987762 0.999031
0.890876 0.924414 0.973409 0.990046
0.841483 0.905856 0.939816 0.988424
0.999338 1 1.00039 0.998947
0.902918 0.937598 0.972149 0.990601
0.901676 0.929794 0.979107 0.990452
0.983562 1.00671 0.978341 0.99864
1.00447 1 1.00581 0.998672
1.00911 1.00076 1.01002 0.998337
0.975232 0.993193 0.98274 0.999162
0.963751 0.976482 0.99775 0.989187
0.976245 0.980192 1.00092 0.995054
0.877897 0.918865 0.965519 0.989535
0.905542 0.957659 0.953899 0.991277
1.00101 1 1.00193 0.999079
0.923034 0.937313 0.992808 0.991901
0.975468 0.980692 1.00011 0.99456
0.988063 1.00082 0.988222 0.999024
1.01073 1.00038 1.01135 0.999014
0.997139 0.990077 1.00767 0.999466
0.966121 0.974592 0.995139 0.996151
0.960759 0.966328 1.00509 0.9892
0.899302 0.941205 0.965474 0.989649
0.931147 0.975269 0.961349 0.993144
0.999036 1 1 0.999036
0.999164 1 1 0.999164
0.999752 1 1.00042 0.999331
0.999597 1 1 0.999597
0.999404 1 1 0.999404
0.999282 1 1 0.999282
0.99921 1 1 0.99921
0.999134 1 1 0.999134
0.999397 1 1 0.999397
0.999175 1 1 0.999175
0.999241 1 1 0.999241
0.999414 1 1.00024 0.999169
0.999834 1 1.00055 0.99928
0.999247 1 1.00009 0.99916
0.999245 1 1 0.999245
0.999417 1 1 0.999417
0.999287 1 1 0.999287
0.999277 1 1 0.999277
0.999293 1 1 0.999293
0.999236 1 1 0.999236
0.999258 1 1 0.999258
0.999213 1 1 0.999213
0.99921 1 1 0.99921
0.999036 1 1 0.999036
0.999505 1 1.00068 0.998828
0.999088 1 1 0.999088
0.999185 1 1 0.999185
0.999376 1 1 0.999376
0.999418 1 1 0.999418
0.999638 1 1 0.999638
0.999438 1 1 0.999438
0.999645 1 1 0.999645
0.999934 1 1 0.999934
0.999613 1 1 0.999613
0.999934 1 1 0.999934
1 1 1 1
0.999935 1 1 0.999935
1 1 1 1
1 1 1 1
1 1 1 1
1 1 1 1
1 1 1 1
0.999765 1 1 0.999765
0.999977 1 1 0.999977
0.999747 1 1 0.999747
1 1 1 1
0.999982 1 1 0.999982
0.999979 1 1 0.999979
1 1 1 1
1 1 1 1
1 1 1 1
1 1 1 1
1 1 1 1
0.900322 0.930436 0.976785 0.990632
0.909149 0.934154 0.981801 0.991272
0.974771 0.985009 0.993544 0.996037
1.01281 1.01871 0.995427 0.998774
1.02354 1.02979 0.995568 0.998358
0.975211 0.983701 0.994298 0.997055
1.01801 1.02296 0.996661 0.998495
0.960409 0.977146 0.992412 0.990387
0.888203 0.920888 0.97387 0.990385
0.846693 0.906854 0.944047 0.988997
0.995485 0.999943 0.997639 0.997897
0.960924 0.972634 0.997712 0.990227
0.86976 0.91905 0.955547 0.990394
0.904552 0.952672 0.958295 0.990812
0.999278 1 1 0.999278
0.999507 1 1 0.999507
0.999756 1 1 0.999756
0.999481 1 1 0.999481
0.999356 1 1 0.999356
0.999307 1 1 0.999307
0.999372 1 1 0.999372
0.99941 1 1 0.99941
0.999482 1 1 0.999482
0.999498 1 1 0.999498
1.01587 1.0246 0.993106 0.998366
1.00221 1.01338 0.99052 0.998449
1.00405 1.00676 0.998995 0.998317
1.00502 1.00032 1.00626 0.998453
1.01131 1 1.01281 0.99852
1.00211 1 1.00324 0.998875
0.999164 1 1 0.999164
0.999223 1 1 0.999223
1.0122 1.02263 0.991437 0.998345
0.999075 1 1 0.999075
0.99999 1 1.00104 0.998949
0.985767 1.00416 0.983243 0.998412
0.999859 1 1.00133 0.998528
1.00685 1 1.00837 0.998496
1.00862 1 1.00996 0.998677
1.00199 1.00743 0.996003 0.998597
0.99109 1 0.992147 0.998934
1.01012 1 1.01149 0.998641
0.999065 1 1 0.999065
0.999283 1 1.00035 0.998933
1.00395 1 1.00518 0.998778
0.924665 0.940613 0.990196 0.992778
0.904841 0.936356 0.976043 0.990062
0.951606 0.975526 0.985404 0.989929
0.998948 1 1 0.998948
1.00406 1 1.00538 0.998689
0.986282 1.00731 0.980467 0.998629
1.00842 1 1.01002 0.998418
0.899223 0.935062 0.971426 0.989959
0.962225 0.974276 0.996874 0.990728
0.973943 0.981099 0.998872 0.993828
0.972353 0.990853 0.98211 0.999205
0.880965 0.919258 0.967746 0.990284
0.903639 0.933368 0.977617 0.990315
0.90012 0.955162 0.950881 0.991054
1.00152 1 1.00244 0.99908
0.923127 0.940009 0.989901 0.992059
0.977756 0.98229 1.00086 0.994531
0.990252 1.00035 0.990823 0.999072
1.01047 1.00007 1.01141 0.999002
0.996669 0.991205 1.00635 0.999165
0.96701 0.974216 0.998071 0.994522
0.960282 0.969794 1.00075 0.989447
0.903353 0.946383 0.96347 0.990723
0.923215 0.968521 0.960013 0.992925
1.002 0.999781 1.00273 0.99949
0.976947 0.981938 0.999015 0.995897
0.974264 0.97746 1.00025 0.996484
1.00947 0.99699 1.0128 0.999715
0.9817 0.978727 1.00524 0.997813
0.964882 0.967285 1.00864 0.988968
0.935848 0.962744 0.980871 0.991021
0.93701 0.983395 0.959894 0.992642
0.999142 1 1 0.999142
0.999689 1 1.00036 0.999334
1.00075 1 1.0013 0.999451
0.999397 1 1 0.999397
0.999241 1 1 0.999241
0.999186 1 1 0.999186
0.999464 1 1.00028 0.999182
0.999245 1 1 0.999245
0.999189 1 1.00003 0.999158
1.00055 1 1.00125 0.999306
1.00076 0.999578 1.00173 0.999447
1.00015 1 1.00091 0.999233
0.99918 1 1 0.99918
0.999277 1 1 0.999277
0.999291 1 1 0.999291
0.999236 1 1 0.999236
0.999216 1 1 0.999216
0.999257 1 1 0.999257
0.999214 1 1 0.999214
0.999159 1 1 0.999159
0.999239 1 1 0.999239
0.999037 1 1 0.999037
0.999051 1 1 0.999051
0.999581 1 1.00069 0.998888
0.999848 1 1.00126 0.998586
0.999033 1 1 0.999033
0.9994 1 1.00051 0.998887
0.999114 1 1 0.999114
0.999276 1 1 0.999276
0.999183 1 1 0.999183
0.999375 1 1 0.999375
0.999613 1 1 0.999613
0.999417 1 1 0.999417
0.999637 1 1 0.999637
0.999932 1 1 0.999932
0.999645 1 1 0.999645
0.999933 1 1 0.999933
1 1 1 1
0.999934 1 1 0.999934
1 1 1 1
1 1 1 1
1 1 1 1
1 1 1 1
1 1 1 1
0.999682 1 1 0.999682
0.999972 1 1 0.999972
0.999728 1 1 0.999728
1 1 1 1
0.999979 1 1 0.999979
0.999747 1 1 0.999747
1 1 1 1
1 1 1 1
0.999982 1 1 0.999982
1 1 1 1
1 1 1 1
1 1 1 1
0.927822 0.941341 0.992917 0.99267
0.901686 0.933479 0.975596 0.990104
0.976645 0.983892 0.998204 0.994421
0.900227 0.927927 0.979059 0.990899
0.97116 0.982838 0.992577 0.995508
1.01775 1.02285 0.996493 0.998516
0.961387 0.977778 0.991566 0.9916
0.889191 0.924674 0.971686 0.989647
0.83863 0.905071 0.937682 0.988171
0.991956 0.998429 0.996193 0.997313
0.96298 0.973628 0.999729 0.98933
0.876586 0.923765 0.959192 0.989298
0.901793 0.951768 0.956603 0.990477
0.985962 0.99227 0.99669 0.996942
0.967628 0.96947 1.00926 0.988939
0.90352 0.94791 0.962302 0.990511
0.928595 0.975691 0.958992 0.992429
0.999162 1 1 0.999162
0.999299 1 1 0.999299
0.999522 1 1 0.999522
0.999376 1 1 0.999376
0.99919 1 1 0.99919
0.999321 1 1 0.999321
0.999372 1 1 0.999372
0.999391 1 1 0.999391
0.999431 1 1 0.999431
0.999463 1 1 0.999463
1.01017 1.02322 0.988891 0.998337
0.988346 1.00408 0.985955 0.998355
1.00021 1 1.00159 0.998617
1.00736 1 1.00895 0.998426
1.00814 1 1.00949 0.998659
0.999856 1 1.00093 0.998927
0.999068 1 1 0.999068
0.999068 1 1 0.999068
0.996277 1.00673 0.990991 0.998614
0.999113 1 1.00017 0.998945
1.00416 1 1.0054 0.998773
0.989452 1 0.990568 0.998873
1.00876 1 1.01014 0.998631
0.973996 0.996059 0.978765 0.999065
1.00758 1 1.0083 0.999289
1.004 1 1.00519 0.998817
0.998971 1 1 0.998971
1.00323 1 1.00445 0.998777
0.973959 0.97842 0.998855 0.996581
0.928508 0.940907 0.993833 0.992947
0.900768 0.934005 0.973347 0.990823
1.00207 1 1.003 0.999082
1.01003 0.999629 1.01143 0.998989
0.990938 1 0.991814 0.999117
0.931239 0.944017 0.993854 0.992564
0.968368 0.969986 1.00951 0.98893
0.968943 0.975262 0.997831 0.99568
0.989107 0.989929 1.00033 0.998837
0.903233 0.94457 0.966244 0.989643
0.979305 0.983086 1.00166 0.994503
0.918991 0.96526 0.958784 0.992992
1.00192 0.999691 1.00275 0.999481
0.976075 0.980578 0.999099 0.996305
0.978388 0.980592 1.00126 0.996495
1.01016 0.997966 1.01264 0.999577
0.980491 0.978431 1.00475 0.997365
0.965354 0.96978 1.00698 0.988539
0.937446 0.986203 0.957108 0.993159
0.924393 0.95613 0.976108 0.990472
1.004 0.998191 1.00612 0.999711
0.974574 0.978796 0.997138 0.998544
0.984078 0.989221 0.997947 0.996847
0.931225 0.977312 0.960097 0.992445
0.997562 0.983617 1.01481 0.999378
0.976302 0.973803 1.01327 0.989432
0.917511 0.941262 0.983707 0.990913
0.999605 1 1.00027 0.999337
1.0005 1 1.00109 0.99941
1.00313 0.999456 1.00411 0.999566
0.999244 1 1 0.999244
0.999156 1 1 0.999156
1.00153 1 1.0022 0.999332
0.999185 1 1 0.999185
1.00042 1 1.00119 0.999236
1.00142 0.999637 1.00236 0.999422
1.00048 1 1.00099 0.999489
1.00013 1 1.0009 0.999227
0.999219 1 1 0.999219
0.999255 1 1 0.999255
0.999218 1 1 0.999218
0.999233 1 1 0.999233
0.999168 1 1 0.999168
0.99949 1 1.00029 0.999199
0.999097 1 1 0.999097
1.00126 1 1.00257 0.998693
0.999067 1 1 0.999067
0.999434 1 1.00056 0.998871
0.999452 1 1.00101 0.998441
0.999731 1 1.00118 0.998554
0.999356 1 1.00044 0.998917
0.999727 1 1.00113 0.998599
0.9992 1 1 0.9992
0.99902 1 1.00001 0.99901
0.999302 1 1.00036 0.998946
0.99914 1 1 0.99914
0.999299 1 1 0.999299
0.999566 1 1 0.999566
0.999373 1 1 0.999373
0.999612 1 1 0.999612
0.999927 1 1 0.999927
0.999636 1 1 0.999636
0.999931 1 1 0.999931
1 1 1 1
0.999933 1 1 0.999933
1 1 1 1
1 1 1 1
1 1 1 1
1 1 1 1
1 1 1 1
0.999573 1 1 0.999573
0.999909 1 1 0.999909
0.99968 1 1 0.99968
1 1 1 1
0.99995 1 1 0.99995
0.999691 1 1 0.999691
1 1 1 1
1 1 1 1
0.99998 1 1 0.99998
1 1 1 1
1 1 1 1
1 1 1 1
0.974274 0.979477 0.998387 0.996295
0.91903 0.939739 0.985543 0.992309
0.902844 0.931417 0.979228 0.989885
0.999327 1 1 0.999327
0.971048 0.975057 0.99902 0.996866
0.978808 0.984019 1.00031 0.994398
0.893408 0.927087 0.972734 0.990684
0.991364 0.998712 0.995981 0.996648
0.968022 0.975538 1.00225 0.990067
0.882374 0.931577 0.956704 0.990049
0.895598 0.947727 0.954224 0.99033
0.987633 0.994108 0.99822 0.995259
0.958632 0.965372 1.00356 0.989499
0.910141 0.949715 0.967805 0.990211
0.92739 0.974311 0.95939 0.992132
0.974861 0.980939 0.999711 0.994092
0.970256 0.964667 1.01807 0.987943
0.923832 0.957706 0.974253 0.990123
0.934003 0.981589 0.95858 0.992637
0.999056 1 1 0.999056
0.99915 1 1 0.99915
0.999321 1 1 0.999321
0.999187 1 1 0.999187
0.999216 1 1 0.999216
0.999336 1 1 0.999336
0.999396 1 1 0.999396
0.999452 1 1 0.999452
0.990431 1.00578 0.986095 0.998629
0.987286 1 0.98846 0.998812
0.99907 1 1 0.99907
1.00694 1 1.00833 0.99862
1.00418 1 1.00542 0.998768
0.999108 1 1.00015 0.998956
0.999009 1 1.00003 0.998976
0.979658 0.998383 0.982151 0.999077
1.00309 1 1.00429 0.998805
1.00451 1 1.0057 0.998817
1.0021 0.999992 1.0028 0.999307
0.999007 1 1 0.999007
0.972464 0.989652 0.983168 0.999455
1.01168 0.998623 1.01362 0.999454
1.00321 1 1.00431 0.998902
1.00033 1 1.0014 0.998927
0.977598 0.979797 0.99894 0.998815
0.973494 0.97767 0.999085 0.99664
0.933112 0.941678 0.997768 0.993121
1.00178 0.9997 1.00261 0.999474
1.01188 0.999018 1.01344 0.999442
0.975196 0.979416 0.998977 0.996712
0.972533 0.96843 1.0151 0.9893
0.97783 0.975521 1.00688 0.995517
0.928904 0.959012 0.978602 0.989785
0.981597 0.982749 1.00233 0.996507
0.939359 0.990243 0.954653 0.993674
1.00437 0.998319 1.00638 0.999678
0.972828 0.977921 0.996228 0.998558
0.983212 0.987339 0.99848 0.997335
1.00632 0.990654 1.01591 0.999909
0.929207 0.976114 0.959492 0.992134
0.970791 0.969672 1.01203 0.989251
0.927099 0.955045 0.980693 0.989849
1.00748 0.995574 1.01219 0.999771
0.982727 0.988061 0.995661 0.998936
0.971895 0.976615 0.998278 0.996884
0.905385 0.955253 0.956544 0.990855
0.923537 0.959882 0.971911 0.989944
0.983937 0.979152 1.00565 0.999242
0.977822 0.96706 1.02326 0.988141
1.00026 1 1.00089 0.999368
1.00246 0.999205 1.00371 0.99955
1.00396 0.991716 1.01277 0.999582
0.99919 1 1 0.99919
1.00024 1 1.001 0.999239
1.00214 1 1.00274 0.999396
0.999572 1 1.00035 0.999222
1.00075 0.999933 1.00133 0.999488
1.00568 0.99897 1.0074 0.999321
0.999227 1 1 0.999227
0.999176 1 1 0.999176
1.00009 1 1.00092 0.99917
1.00649 1 1.00768 0.998814
0.999156 1 1 0.999156
1.00073 1 1.00197 0.998758
1.00244 1 1.00413 0.99832
1.00004 1 1.00188 0.998162
0.999258 1 1.0004 0.998854
0.999488 1 1.00109 0.998395
0.999162 1 1.00053 0.998638
1.00026 1 1.00146 0.998798
0.999666 1 1.00108 0.998593
0.999175 1 1.00006 0.999114
0.999337 1 1.00042 0.998913
0.999634 1 1.00102 0.998611
0.99949 1 1 0.99949
0.999192 1 1 0.999192
0.999007 1 1.00002 0.998987
0.999322 1 1 0.999322
0.999565 1 1 0.999565
0.999913 1 1 0.999913
0.999611 1 1 0.999611
0.999924 1 1 0.999924
1 1 1 1
0.99993 1 1 0.99993
1 1 1 1
1 1 1 1
1 1 1 1
1 1 1 1
1 1 1 1
0.999531 1 1 0.999531
0.999869 1 1 0.999869
0.999595 1 1 0.999595
1 1 1 1
0.999906 1 1 0.999906
0.999679 1 1 0.999679
1 1 1 1
1 1 1 1
0.999928 1 1 0.999928
1 1 1 1
1 1 1 1
1 1 1 1
0.971454 0.976301 0.996487 0.998543
0.974 0.979327 0.998253 0.996301
0.919164 0.940714 0.984617 0.992357
0.999337 1 1 0.999337
0.9993 1 1 0.9993
0.999213 1 1 0.999213
0.983024 0.987862 0.99826 0.996837
0.972975 0.976022 0.999993 0.996885
0.980468 0.984108 1.00194 0.994376
0.993301 0.993917 1.00283 0.996558
0.960471 0.966575 1.00474 0.988997
0.902991 0.942792 0.967757 0.989695
0.931072 0.97751 0.960052 0.992127
0.971294 0.976464 0.999148 0.995554
0.965122 0.964586 1.01171 0.988973
0.920676 0.949968 0.977766 0.991204
0.93544 0.984715 0.95651 0.993153
0.961055 0.969822 0.99604 0.9949
0.980039 0.97122 1.02015 0.989152
0.917498 0.939562 0.985405 0.990979
0.930092 0.973845 0.961713 0.993096
0.999051 1 1 0.999051
0.999054 1 1 0.999054
0.999138 1 1 0.999138
0.999184 1 1 0.999184
0.999241 1 1 0.999241
0.999401 1 1 0.999401
0.986213 1.00075 0.986378 0.999088
0.997191 1 0.997865 0.999324
0.998981 1 1 0.998981
1.00531 1 1.0065 0.998816
1.00327 1 1.00444 0.998833
0.99899 1 1 0.99899
1.00024 1 1.00131 0.998934
0.983752 0.993173 0.991054 0.999455
1.00463 1 1.00567 0.99897
1.00689 0.995505 1.01197 0.99948
0.999041 1 1 0.999041
1.0001 0.984519 1.01612 0.999705
0.993541 0.991949 1.00204 0.999568
1.00199 1 1.0029 0.999088
0.990676 0.991891 0.999495 0.999279
0.977128 0.979631 0.9985 0.998944
0.972992 0.976877 0.999324 0.996697
1.00499 0.998729 1.00663 0.999644
1.00159 0.992548 1.00944 0.999671
0.971342 0.977339 0.995286 0.998571
0.975064 0.968277 1.01502 0.992112
0.929938 0.95284 0.984633 0.991196
0.982373 0.98571 0.998788 0.997824
0.932672 0.978967 0.96025 0.992148
1.00663 0.995734 1.01116 0.999788
0.981218 0.987745 0.99434 0.999046
0.974194 0.977634 0.999577 0.996903
0.982235 0.97518 1.01015 0.997116
0.901897 0.953448 0.954968 0.990539
0.918434 0.953606 0.971837 0.991027
0.987736 0.972787 1.02657 0.989088
1.00651 0.981249 1.02593 0.999825
0.972456 0.97712 0.996655 0.998567
0.977875 0.985365 0.997909 0.994479
0.855418 0.909744 0.949837 0.989944
0.905212 0.949524 0.962431 0.990546
0.979479 0.972611 1.01823 0.989028
0.957069 0.969727 0.990748 0.996164
1.00137 0.998524 1.00332 0.999534
1.00752 0.994234 1.01379 0.999586
1.019 0.998701 1.02081 0.999529
0.999216 1 1 0.999216
1.00102 0.999649 1.00188 0.999487
1.00587 0.99948 1.00703 0.999362
1.01647 1 1.01748 0.999008
1.00063 1 1.00148 0.999142
1.00664 1 1.00791 0.998743
1.01333 1 1.01513 0.998219
1.00027 1 1.00145 0.998823
1.00329 1 1.005 0.998303
1.00309 1 1.0052 0.997904
1.00058 1.00083 1.00191 0.997839
0.999492 1 1.00108 0.998416
1.00009 1.00007 1.00189 0.998135
0.999574 1 1.00123 0.998349
0.99981 1 1.00103 0.998778
0.999177 1 1.00048 0.998698
1.00001 1 1.00106 0.998952
1.00031 1 1.00149 0.998825
0.99956 1 1.00093 0.998632
0.999376 1 1 0.999376
0.999174 1 1.00006 0.999116
0.999323 1 1.00042 0.998909
0.99988 1 1 0.99988
0.999489 1 1 0.999489
0.999185 1 1 0.999185
0.999563 1 1 0.999563
0.999909 1 1 0.999909
1 1 1 1
0.999922 1 1 0.999922
1 1 1 1
1 1 1 1
1 1 1 1
1 1 1 1
1 1 1 1
0.99953 1 1 0.99953
0.999887 1 1 0.999887
0.999546 1 1 0.999546
1 1 1 1
0.999894 1 1 0.999894
0.999616 1 1 0.999616
1 1 1 1
1 1 1 1
0.999904 1 1 0.999904
1 1 1 1
1 1 1 1
1 1 1 1
0.982505 0.987756 0.99575 0.998929
0.972945 0.977705 0.996569 0.998558
0.974287 0.979114 0.998753 0.996312
0.999283 1 1 0.999283
0.999186 1 1 0.999186
0.999347 1 1 0.999347
0.999298 1 1 0.999298
0.999197 1 1 0.999197
0.999203 1 1 0.999203
0.999122 1 1 0.999122
0.973227 0.976878 0.999802 0.996459
0.981321 0.985586 0.998341 0.997327
0.97543 0.97696 1.00153 0.996905
0.938953 0.989474 0.954988 0.993669
0.963091 0.970136 0.998506 0.994224
0.971234 0.968094 1.01329 0.990084
0.924303 0.947328 0.985601 0.989949
0.960204 0.970107 0.995487 0.994279
0.96986 0.965736 1.0157 0.988748
0.928777 0.955781 0.981412 0.990152
0.922867 0.968092 0.960128 0.992872
0.955554 0.968179 0.99119 0.995732
0.970472 0.969262 1.01291 0.988487
0.93814 0.964574 0.981362 0.991067
0.904573 0.956185 0.954066 0.99157
0.999104 1 1 0.999104
0.99905 1 1 0.99905
0.999052 1 1 0.999052
0.999181 1 1 0.999181
0.993017 0.996345 0.997202 0.999455
1.00215 0.992821 1.0099 0.999505
0.998973 1 1 0.998973
0.999876 1 1.00093 0.998942
1.0053 1 1.00626 0.999039
0.999037 1 1 0.999037
1.00272 1 1.00365 0.999074
0.995734 0.982959 1.0137 0.999305
0.994593 0.993213 1.00173 0.999656
1.00012 1 1.00098 0.999142
1.00197 0.980532 1.02257 0.999302
1.00448 0.996382 1.00879 0.999344
0.977661 0.979696 0.99908 0.998841
0.987809 0.989606 0.99881 0.999373
0.97754 0.979466 0.99896 0.999073
1.00604 0.996002 1.01028 0.999805
0.984169 0.975645 1.00949 0.999255
0.979726 0.987264 0.993202 0.999157
0.97602 0.967253 1.02097 0.988343
0.922266 0.950092 0.980763 0.989753
0.976913 0.978663 1.00129 0.996922
0.896194 0.948722 0.953796 0.990393
1.01185 0.983846 1.02863 0.99984
0.972766 0.977906 0.996156 0.998582
0.979892 0.985526 0.999826 0.994456
0.960378 0.971394 0.990601 0.99804
0.847345 0.907341 0.944148 0.989121
0.907802 0.948952 0.966126 0.990178
0.979884 0.970092 1.0211 0.989223
0.999104 0.983505 1.01637 0.999494
0.974678 0.980131 0.998077 0.996353
0.910425 0.935263 0.981894 0.991393
0.872165 0.919428 0.957654 0.99054
0.968913 0.96442 1.01561 0.989213
0.949062 0.967163 0.986386 0.994827
1.0122 0.99777 1.01487 0.99959
1.01891 0.997229 1.02223 0.999522
1.0133 1 1.01392 0.999385
1.00604 1 1.00664 0.999404
1.01615 0.999676 1.01743 0.999062
1.00991 1.00003 1.01147 0.998423
1.00699 1 1.00833 0.998672
1.01269 1 1.01454 0.998176
1.00679 1.00017 1.00881 0.997836
1.00412 1 1.00585 0.998286
1.00334 1 1.00549 0.997862
1.00292 1.00172 1.00349 0.997712
1.00109 1.00327 1 0.99783
0.999597 1.00081 1.00077 0.998019
1.00083 1.00087 1.00218 0.997792
0.998735 1 1.00013 0.998609
0.999196 1 1.00074 0.998455
1.00011 1.00011 1.0019 0.998107
0.999765 1 1.00095 0.998815
0.999825 1 1.00106 0.998771
0.999184 1 1.00043 0.998758
0.999216 1 1 0.999216
0.999875 1 1.0009 0.998978
1.00035 1 1.0015 0.998851
0.999798 1 1 0.999798
0.999376 1 1 0.999376
0.99917 1 1.00005 0.999118
1 1 1 1
0.999875 1 1 0.999875
0.999488 1 1 0.999488
0.999905 1 1 0.999905
1 1 1 1
1 1 1 1
1 1 1 1
1 1 1 1
1 1 1 1
0.999279 1 1 0.999279
0.999495 1 1 0.999495
0.999861 1 1 0.999861
0.999529 1 1 0.999529
1 1 1 1
0.999891 1 1 0.999891
0.99956 1 1 0.99956
1 1 1 1
1 1 1 1
0.999919 1 1 0.999919
1 1 1 1
1 1 1 1
1 1 1 1
0.972949 0.977892 0.996382 0.998558
0.980904 0.987393 0.994382 0.999041
0.972937 0.979108 0.995117 0.998573
0.999291 1 1 0.999291
0.999173 1 1 0.999173
0.999113 1 1 0.999113
0.999174 1 1 0.999174
0.999101 1 1 0.999101
0.999296 1 1 0.999296
0.999181 1 1 0.999181
0.999203 1 1 0.999203
0.999117 1 1 0.999117
0.999152 1 1 0.999152
0.973456 0.979047 0.999799 0.99449
0.976547 0.979374 1.00064 0.996475
0.97899 0.983077 0.998022 0.997817
0.919652 0.965801 0.958979 0.992949
0.928801 0.950407 0.985841 0.991303
0.951986 0.964594 0.993344 0.993543
0.9768 0.973185 1.01486 0.989013
0.957132 0.969065 0.993569 0.994079
0.982956 0.977152 1.01719 0.988936
0.926083 0.957605 0.976198 0.990663
0.904696 0.957076 0.953718 0.991143
0.975493 0.976055 1.00446 0.994982
0.972286 0.971606 1.01154 0.989283
0.897061 0.940634 0.963738 0.98956
0.868642 0.928045 0.945623 0.989814
0.999361 1 1 0.999361
0.999107 1 1 0.999107
0.99905 1 1 0.99905
0.992225 0.980947 1.01261 0.998903
0.994814 0.993377 1.0017 0.999748
0.999033 1 1 0.999032
1.00399 1 1.00493 0.999061
1.0003 1 1.00115 0.99915
1.00491 0.997367 1.00823 0.999336
0.999772 0.979222 1.02167 0.99933
1.00519 1 1.00583 0.999368
1.00169 0.987581 1.0152 0.999092
0.974771 0.979599 0.998529 0.996537
0.976618 0.979106 0.998489 0.998969
0.984321 0.98727 0.997545 0.999467
1.01599 0.985296 1.03131 0.999851
0.962044 0.973977 0.992186 0.995528
0.972252 0.978712 0.994796 0.998596
0.974946 0.97174 1.01616 0.987348
0.903663 0.942968 0.968291 0.9897
0.981363 0.985747 1.00113 0.994434
0.840852 0.906392 0.938676 0.988297
0.997673 0.982212 1.01618 0.999566
0.975565 0.980753 0.998345 0.996359
0.901555 0.929117 0.979126 0.991021
0.950144 0.968789 0.984955 0.995736
0.878805 0.924397 0.960827 0.989439
0.959243 0.962275 1.00858 0.98837
0.978647 0.983606 0.996002 0.998952
0.929018 0.942258 0.993115 0.992784
0.877193 0.916683 0.96697 0.989608
0.970726 0.971714 1.01007 0.989028
0.960081 0.970051 0.993774 0.995923
1.01783 0.995484 1.02294 0.999515
1.01514 0.999673 1.01611 0.999368
0.993222 1.00002 0.994269 0.99893
1.01558 0.999345 1.01714 0.999116
1.01037 1.00032 1.01157 0.998496
1.00245 1.00161 1.00272 0.998133
1.01179 1 1.01368 0.998133
1.00554 1.00031 1.00739 0.997846
0.999428 1.00147 1.00003 0.997932
1.00341 1 1.00561 0.997821
1.00314 1.0027 1.00272 0.997727
1.00425 1.00631 1 0.997951
1.00521 1.00717 1 0.998054
1.00124 1.00334 1.00002 0.997887
1.00118 1.00335 1 0.997842
0.998597 1.00033 1 0.998269
0.99951 1.00046 1.00107 0.997977
1.0011 1.00092 1.00244 0.997745
0.998753 1 1 0.998753
0.998679 1 1.00002 0.998655
0.99881 1 1.00032 0.998493
0.999053 1 1 0.999053
0.999848 1 1.00102 0.998829
0.999858 1 1.0011 0.998764
0.999648 1 1 0.999648
0.999288 1 1.00007 0.999216
0.999764 1 1.00076 0.999004
1 1 1 1
0.999793 1 1 0.999793
0.999377 1 1 0.999377
1 1 1 1
1 1 1 1
0.999869 1 1 0.999869
1 1 1 1
1 1 1 1
1 1 1 1
0.999209 1 1 0.999209
0.99945 1 1 0.99945
0.999268 1 1 0.999268
0.999841 1 1 0.999841
0.999494 1 1 0.999494
1 1 1 1
0.999864 1 1 0.999864
0.999528 1 1 0.999528
1 1 1 1
1 1 1 1
0.999894 1 1 0.999894
1 1 1 1
1 1 1 1
1 1 1 1
0.976932 0.981736 0.998355 0.996746
0.971883 0.977214 0.995967 0.998572
0.979862 0.986939 0.993671 0.999153
0.999104 1 1 0.999104
0.9993 1 1 0.9993
0.99916 1 1 0.99916
0.999187 1 1 0.999187
0.999126 1 1 0.999126
0.999096 1 1 0.999096
0.999032 1 1 0.999032
0.999081 1 1 0.999081
0.999204 1 1 0.999204
0.999113 1 1 0.999113
0.999146 1 1 0.999146
0.999201 1 1 0.999201
0.902437 0.932116 0.977346 0.990601
0.975777 0.980755 1.00047 0.99446
0.978847 0.980824 1.0015 0.996491
0.900093 0.954851 0.951305 0.990905
0.933123 0.963594 0.978002 0.990159
0.971047 0.968805 1.01394 0.988537
0.958959 0.967991 0.995616 0.995033
0.975483 0.975196 1.00388 0.996428
0.855503 0.917799 0.942465 0.989028
0.974666 0.970406 1.01636 0.988221
0.901935 0.946086 0.962441 0.990537
0.969464 0.976107 0.996456 0.996726
0.965634 0.963554 1.01251 0.989778
0.874959 0.922712 0.957586 0.990248
1.00004 1 1.00041 0.999638
0.999362 1 1 0.999362
0.999109 1 1 0.999109
1.00053 0.981102 1.02047 0.999351
1.00608 0.99918 1.00758 0.999328
1.00033 1 1.00117 0.999157
1.00506 1 1.0057 0.999369
1.00041 0.987824 1.01362 0.999133
1.00425 0.995562 1.00939 0.999345
0.925408 0.941422 0.990963 0.991954
0.974691 0.978907 0.998616 0.997073
0.975875 0.978435 0.998285 0.999097
0.996212 0.980627 1.01626 0.999638
0.949498 0.970783 0.981604 0.996405
0.976528 0.981349 0.998715 0.996368
0.966741 0.964989 1.01186 0.99007
0.88684 0.934149 0.958762 0.990189
0.894041 0.927777 0.97258 0.990806
0.978127 0.984366 0.994653 0.999004
0.919716 0.940336 0.985542 0.992421
0.890892 0.921552 0.975973 0.99053
0.959722 0.967676 0.997506 0.99426
0.960155 0.968317 1.00206 0.989536
0.96817 0.990258 0.97836 0.99932
0.900764 0.931145 0.976414 0.990741
0.962748 0.973856 0.998577 0.990002
0.97356 0.982063 0.997276 0.99405
1.01785 0.999352 1.01917 0.999352
0.989664 1.00002 0.990637 0.999002
0.982177 1.00189 0.981634 0.99866
1.0112 1.00056 1.01208 0.998569
1.00292 1.00189 1.00291 0.998126
1.00069 1.00295 0.999428 0.998317
1.00468 1.00049 1.00634 0.997856
0.999502 1.00108 1.00048 0.997947
1.00689 1.0086 1 0.998306
1.00347 1.0037 1.00203 0.997742
1.00408 1.00613 1 0.997956
1.00943 1.01112 1 0.998325
1.00992 1.01162 1 0.998322
1.00466 1.00665 1 0.998027
1.00534 1.00728 1 0.998074
1.00061 1.00253 1 0.998084
1.00124 1.00332 1 0.99792
1.00127 1.00342 1 0.997853
0.998567 1 1 0.998567
0.999049 1.00063 1.00014 0.99828
0.999618 1.00021 1.00148 0.997935
0.998944 1 1 0.998944
0.998748 1 1 0.998748
0.998702 1 1 0.998702
0.99947 1 1 0.99947
0.99912 1 1.00006 0.999056
0.99991 1 1.00107 0.998843
0.999998 1 1 0.999998
0.999645 1 1 0.999645
0.999344 1 1.00013 0.999217
1 1 1 1
1 1 1 1
0.999789 1 1 0.999789
1 1 1 1
1 1 1 1
1 1 1 1
0.999187 1 1 0.999187
0.999211 1 1 0.999211
0.99939 1 1 0.99939
0.999818 1 1 0.999818
0.999451 1 1 0.999451
0.999257 1 1 0.999257
1 1 1 1
0.999844 1 1 0.999844
0.999494 1 1 0.999494
1 1 1 1
1 1 1 1
0.999867 1 1 0.999867
1 1 1 1
1 1 1 1
1 1 1 1
0.922667 0.937482 0.992187 0.991948
0.976008 0.980731 0.998418 0.996761
0.971142 0.976893 0.99552 0.998586
0.999092 1 1 0.999092
0.999048 1 1 0.999048
0.999028 1 1 0.999028
0.999199 1 1 0.999199
0.99914 1 1 0.99914
0.999091 1 1 0.999091
0.999078 1 1 0.999078
0.99903 1 1 0.99903
0.998957 1 1 0.998957
0.999183 1 1 0.999183
0.999139 1 1 0.999139
0.999198 1 1 0.999198
0.888624 0.920177 0.975081 0.990389
0.898974 0.927752 0.978472 0.990301
0.978638 0.982937 1.0012 0.994434
0.841612 0.905818 0.940174 0.988241
0.901237 0.943152 0.965671 0.989527
0.979248 0.975127 1.01391 0.990444
0.976966 0.972809 1.00953 0.994794
0.96596 0.972456 0.998081 0.995229
0.875342 0.917787 0.96409 0.989278
0.959583 0.961353 1.0084 0.98984
0.966506 0.973416 0.997226 0.995663
0.961223 0.970801 1.00082 0.98932
1.00735 1 1.00819 0.999171
0.999868 1 1.00027 0.999601
0.999364 1 1 0.999364
0.996165 0.985097 1.01207 0.999172
1.00507 1 1.0057 0.99937
1.00497 0.996574 1.00918 0.999252
0.998747 1.00067 0.999451 0.998627
0.897576 0.937095 0.966937 0.990579
0.929463 0.941977 0.994141 0.99253
0.975439 0.978832 0.998926 0.997606
0.976561 0.98497 0.992383 0.999074
0.95932 0.967359 0.996483 0.99519
0.920186 0.941188 0.985106 0.992467
0.961615 0.967026 1.00536 0.989104
0.892968 0.927095 0.97314 0.989774
0.971616 0.990893 0.981516 0.999011
0.903105 0.934383 0.976101 0.99019
0.965412 0.975538 1.00035 0.989277
0.976801 0.980456 1.00083 0.995446
0.985652 0.997845 0.988657 0.999113
0.959275 0.977272 0.992451 0.989052
0.9828 0.990231 0.996183 0.996298
0.986031 1 0.986946 0.999073
0.98299 1.00223 0.982134 0.998641
0.983408 1.00494 0.979979 0.998566
1.0031 1.00224 1.00275 0.99812
1.00024 1.00329 0.998648 0.998311
1.00761 1.01174 0.997227 0.998687
0.999339 1.00062 1.00076 0.997962
1.00682 1.00853 1 0.998301
1.01397 1.01536 1 0.99863
1.00386 1.00591 1 0.997961
1.00892 1.01061 1 0.998325
1.01176 1.01322 1 0.998555
1.00979 1.01133 1 0.998473
1.00974 1.0114 1 0.998353
1.00817 1.00993 1 0.998258
1.00426 1.00616 1 0.998116
1.00507 1.00705 1 0.99803
1.00547 1.0074 1 0.998093
0.998929 1.00061 1 0.998318
1.00094 1.00283 1 0.998117
1.00116 1.00322 1 0.997954
0.998813 1 1 0.998813
0.998639 1.00008 1 0.998561
0.999303 1.00084 1.00017 0.998291
0.999336 1 1 0.999336
0.998944 1 1 0.998944
0.998744 1 1 0.998744
0.999978 1 1 0.999978
0.99947 1 1 0.99947
0.999202 1 1.00014 0.999059
1 1 1 1
0.999994 1 1 0.999994
0.999642 1 1 0.999642
1 1 1 1
1 1 1 1
1 1 1 1
0.999118 1 1 0.999118
0.999175 1 1 0.999175
0.999324 1 1 0.999324
0.999213 1 1 0.999213
0.99939 1 1 0.99939
0.999774 1 1 0.999774
1 1 1 1
0.99982 1 1 0.99982
0.999451 1 1 0.999451
1 1 1 1
1 1 1 1
0.999846 1 1 0.999846
1 1 1 1
1 1 1 1
1 1 1 1
0.908057 0.933801 0.982051 0.990204
0.922646 0.939531 0.990313 0.991634
0.974327 0.978966 0.998482 0.996775
0.99908 1 1 0.99908
0.999007 1 1 0.999007
0.99907 1 1 0.99907
0.998934 1 1 0.998934
0.99897 1 1 0.99897
0.999076 1 1 0.999076
0.999028 1 1 0.999028
0.99897 1 1 0.99897
0.99888 1 1 0.99888
0.999026 1 1 0.999026
0.998959 1.00021 1.00026 0.998495
0.999317 1 1.0001 0.999216
0.999196 1 1 0.999196
0.961256 0.977914 0.994191 0.988709
0.892457 0.920755 0.978929 0.99013
0.900592 0.930572 0.977393 0.990169
0.87509 0.917713 0.963192 0.989995
0.965604 0.963872 1.01393 0.988034
0.968167 0.971139 1.0001 0.996844
0.968896 0.975384 0.996758 0.99658
0.963418 0.972177 1.00101 0.989986
0.981367 0.993703 0.99197 0.995581
1.00303 1.00132 1.00332 0.998397
1.00581 1 1.00666 0.999152
0.999564 1 1 0.999564
1.00548 0.998288 1.00804 0.999169
0.999103 1.00101 0.999537 0.998554
0.948547 0.97392 0.983855 0.98993
0.904427 0.936967 0.974858 0.990165
0.933782 0.94254 0.997578 0.993113
0.974911 0.991642 0.984416 0.998692
0.97163 0.975287 1.00215 0.994111
0.903816 0.932801 0.978768 0.989945
0.966923 0.974641 1.00217 0.989928
0.983974 0.998364 0.98647 0.999104
0.96057 0.978006 0.991893 0.990199
0.984199 0.991708 0.997573 0.994844
1.00072 1.00553 0.99659 0.998625
0.990687 0.996936 0.996258 0.997465
0.983638 1.00271 0.982333 0.998622
0.985569 1.00446 0.982646 0.998521
1.0035 1.01965 0.985521 0.998618
1 1.00358 0.998123 0.998306
1.00647 1.01064 0.997193 0.998678
1.01392 1.01902 0.996194 0.998789
1.00671 1.00842 1 0.998296
1.01403 1.01556 0.999876 0.998616
1.01456 1.01597 0.999926 0.998679
1.00848 1.01017 1 0.998324
1.01184 1.01332 1 0.998542
1.00998 1.01145 1 0.998543
1.01016 1.01168 1 0.998506
1.00874 1.0104 1 0.998364
1.00959 1.01123 1 0.998383
1.00802 1.00978 1 0.998253
1.00528 1.00708 1 0.998214
1.00051 1.00227 1 0.998237
1.00407 1.00598 1 0.998109
1.00542 1.0074 1 0.998033
0.99864 1 1 0.99864
0.999102 1.00077 1 0.998339
1.00139 1.00325 1 0.998149
0.999227 1 1 0.999227
0.998809 1 1 0.998809
0.998744 1.00019 1 0.998555
0.999927 1 1 0.999927
0.999337 1 1 0.999337
0.998943 1 1 0.998943
1 1 1 1
0.999966 1 1 0.999966
0.99947 1 1 0.99947
1 1 1 1
0.999989 1 1 0.999989
1 1 1 1
0.998964 1 1 0.998964
0.999118 1 1 0.999118
0.999218 1 1 0.999218
0.999162 1 1 0.999162
0.999306 1 1 0.999306
0.999685 1 1 0.999685
0.99939 1 1 0.99939
0.999776 1 1 0.999776
1 1 1 1
1 1 1 1
1 1 1 1
0.999822 1 1 0.999822
1 1 1 1
1 1 1 1
1 1 1 1
0.962211 0.978538 0.993024 0.990223
0.901831 0.936127 0.97244 0.990666
0.930165 0.943809 0.993824 0.991668
0.998986 1 1 0.998986
0.999092 1 1 0.999092
0.99898 1 1 0.99898
0.998941 1 1 0.998941
0.998771 1 1.00002 0.99875
0.99893 1 1 0.99893
0.998983 1 1 0.998983
0.998825 1 1 0.998825
0.9991 1 1.00011 0.998995
0.99873 1 1 0.99873
1.00071 1.00213 1 0.998583
0.999035 1.00111 0.999896 0.998032
0.999322 1.0007 1.00006 0.998562
0.99946 1 1.00021 0.999248
0.979301 0.99122 0.992191 0.995751
0.961975 0.977039 0.994938 0.989591
0.8871 0.921722 0.972401 0.989754
0.972649 0.976101 1.00745 0.989094
0.967319 0.976519 0.993236 0.997325
0.986087 0.995225 0.993593 0.997207
0.994836 1.00423 0.99207 0.998561
1.00052 1.00067 1.00137 0.998488
1.00476 1 1.00563 0.999133
0.997618 1.00112 0.998028 0.998471
0.977129 0.985776 0.995577 0.995631
0.955453 0.9742 0.98994 0.990722
0.899353 0.934233 0.971501 0.990905
0.984523 0.999954 0.985462 0.999093
0.990298 0.99312 1.00122 0.995944
0.961803 0.978745 0.991234 0.99138
0.994814 1.00459 0.991623 0.998634
0.988539 0.996146 0.995441 0.996909
1.00813 1.02109 0.988893 0.99839
1.00741 1.01458 0.994619 0.998305
0.98763 1.00385 0.985339 0.998475
1.00483 1.01971 0.986775 0.998611
1.0101 1.0228 0.988944 0.998621
1.00544 1.0098 0.997009 0.99867
1.01382 1.0186 0.996519 0.998778
1.01263 1.01666 0.997428 0.998603
1.01418 1.01585 0.999751 0.998602
1.01417 1.0157 0.999832 0.998666
1.01144 1.01306 0.99993 0.998472
1.01186 1.01335 1 0.998529
1.00962 1.01109 1 0.998547
1.00946 1.01113 1 0.998346
1.01052 1.012 1 0.998538
1.00846 1.01009 1 0.998387
1.00571 1.00748 1 0.998248
1.00789 1.00966 1 0.998248
1.0052 1.00701 1 0.998208
1.00088 1.0026 1 0.99828
0.998486 1 1 0.998486
1.00045 1.0022 1 0.998256
1.00388 1.00579 1 0.998102
0.99909 1 1 0.99909
0.99864 1 1 0.99864
0.999269 1.00091 1 0.998359
0.999853 1 1 0.999853
0.999225 1 1 0.999225
0.998805 1 1 0.998805
1 1 1 1
0.999913 1 1 0.999913
0.999338 1 1 0.999338
1 1 1 1
0.999953 1 1 0.999953
1 1 1 1
0.998797 1 1 0.998797
0.998976 1 1 0.998976
0.999102 1 1 0.999102
0.999118 1 1 0.999118
0.999205 1 1 0.999205
0.999561 1 1 0.999561
0.999289 1 1 0.999289
0.999686 1 1 0.999686
0.999997 1 1 0.999997
0.999777 1 1 0.999777
1 1 1 1
1 1 1 1
1 1 1 1
1 1 1 1
1 1 1 1
0.974317 0.986272 0.991899 0.995947
0.956835 0.976728 0.989765 0.989763
0.897872 0.933705 0.971361 0.989974
0.999566 1.00098 1.00007 0.998522
0.99899 1 1 0.99899
0.998949 1 1 0.998949
0.998918 1 1 0.998918
0.998862 1 1.00012 0.99874
0.999041 1.00014 1 0.998897
0.998771 1 1 0.998771
0.999165 1 1.0002 0.998963
0.998771 1 1 0.998771
1.00003 1.00145 1 0.998578
1.00108 1.00298 1 0.998111
1.00363 1.0058 0.999965 0.997875
0.999999 1.00188 1.00013 0.997997
0.999938 1.00131 1 0.99863
0.999611 1.00618 0.994508 0.998961
0.979966 0.992468 0.992286 0.995079
0.964917 0.977855 0.996074 0.990658
0.982649 0.992574 0.994033 0.995944
0.999367 1.00618 0.994466 0.998757
1.00012 1.0002 1.00134 0.998579
1.00275 1.00668 0.997634 0.998456
0.976345 0.983957 0.995537 0.996712
0.952376 0.975204 0.986461 0.989996
0.988158 1.00287 0.986671 0.99864
0.988468 0.996208 0.995952 0.996264
1.0078 1.02171 0.98797 0.998398
1.00684 1.01274 0.995759 0.998404
1.01467 1.02583 0.990733 0.998366
1.01471 1.01858 0.997893 0.998308
1.0063 1.0197 0.988243 0.998603
1.01189 1.02379 0.989736 0.998628
1.0072 1.01572 0.993139 0.998471
1.01362 1.01799 0.99694 0.998767
1.01382 1.01743 0.997849 0.998601
1.01148 1.01392 0.999241 0.998351
1.01383 1.01545 0.999745 0.998653
1.0116 1.01317 0.99996 0.998489
1.01081 1.0126 1 0.998234
1.00928 1.01075 1 0.99855
1.00903 1.0107 1 0.998347
1.00757 1.00939 1 0.998197
1.00818 1.00979 1 0.99841
1.00582 1.00757 1 0.998258
1.00113 1.0029 1 0.998238
1.00512 1.00693 1 0.998202
1.00089 1.00263 1 0.998263
0.998539 1.00009 1 0.998454
0.998967 1 1 0.998967
0.998509 1 1 0.998509
1.00038 1.00211 1 0.998275
0.999765 1 1 0.999765
0.999089 1 1 0.999089
0.99864 1 1 0.99864
1 1 1 1
0.999841 1 1 0.999841
0.999224 1 1 0.999224
1 1 1 1
0.9999 1 1 0.9999
1 1 1 1
0.998601 1.00003 1 0.998568
0.9988 1 1 0.9988
0.998969 1 1 0.998969
0.998987 1 1 0.998987
0.999109 1 1 0.999109
0.999439 1 1 0.999439
0.999191 1 1 0.999191
0.999561 1 1 0.999561
0.999982 1 1 0.999982
0.999688 1 1 0.999688
0.999998 1 1 0.999998
1 1 1 1
1 1 1 1
1 1 1 1
1 1 1 1
1.00488 1.01035 0.995619 0.998966
0.973748 0.986802 0.992102 0.994627
0.960667 0.974972 0.994869 0.99041
1.00079 1.00216 1.00001 0.998621
1.00237 1.00412 1 0.998254
0.99928 1.00059 1.00013 0.998554
0.998905 1 1 0.998905
0.998973 1 1.00024 0.998728
0.999226 1.00037 1 0.998854
1.00256 1.00432 1 0.998246
0.998813 1 1 0.998813
0.999193 1.00062 1 0.998573
1.00121 1.00306 1 0.998154
1.00612 1.00834 1 0.997795
1.01183 1.01487 0.998812 0.998194
1.00287 1.00521 0.999814 0.997866
1.00056 1.0026 1 0.997962
1.00279 1.00885 0.99495 0.999034
0.978756 0.99167 0.992671 0.994265
1.00134 1.00756 0.994862 0.998955
1.01399 1.01692 0.998346 0.998764
1.00174 1.00539 0.997851 0.998519
0.974027 0.984604 0.993943 0.995287
1.00738 1.02243 0.986848 0.998407
1.00571 1.01098 0.996282 0.998505
1.01335 1.02583 0.98941 0.99841
1.01695 1.02038 0.998316 0.998323
1.01153 1.01908 0.994238 0.998347
1.0215 1.02442 0.998701 0.998445
1.01333 1.02491 0.990046 0.998636
1.00726 1.01541 0.993487 0.998476
1.01381 1.01832 0.9973 0.998261
1.01493 1.01816 0.99823 0.998599
1.01165 1.01385 0.999483 0.998351
1.01295 1.01482 1 0.998156
1.01168 1.01322 0.999982 0.998506
1.01051 1.0123 1 0.998232
1.01044 1.01236 1 0.998099
1.0086 1.01027 1 0.998347
1.00759 1.00941 1 0.998198
1.0021 1.00393 1 0.998171
1.00591 1.00766 1 0.998267
1.00125 1.00301 1 0.99824
0.998564 1.00017 1 0.998398
1.00089 1.00264 1 0.998247
0.998519 1.00008 1 0.998444
0.998889 1 1 0.998889
0.999691 1 1 0.999691
0.998967 1 1 0.998967
0.998532 1 1 0.998532
1 1 1 1
0.999754 1 1 0.999754
0.999088 1 1 0.999088
1 1 1 1
0.99983 1 1 0.99983
1 1 1 1
0.998935 1.00062 1 0.99832
0.99856 1.00002 1 0.998544
0.998767 1 1 0.998767
0.998804 1 1 0.998804
0.998973 1 1 0.998973
0.99932 1 1 0.99932
0.999116 1 1 0.999116
0.999439 1 1 0.999439
0.999943 1 1 0.999943
0.999561 1 1 0.999561
0.999987 1 1 0.999987
1 1 1 1
0.999999 1 1 0.999999
1 1 1 1
1 1 1 1
1.01259 1.01697 0.997113 0.998574
1.00299 1.00941 0.994858 0.99877
0.97265 0.986004 0.991 0.995416
1.00573 1.00751 1 0.998238
1.00001 1.00123 1 0.998778
1.00922 1.01116 1 0.998084
1.00217 1.00394 1 0.998238
0.998975 1.00021 1.00018 0.998586
1.01206 1.01422 1 0.997875
0.999407 1.0006 1 0.998812
1.00262 1.00444 1 0.998197
1.0163 1.01838 1 0.997952
1.00127 1.00308 1 0.998197
1.00668 1.00893 1 0.997771
1.0107 1.01343 0.999106 0.998201
1.00181 1.00396 1 0.997856
1.00534 1.01083 0.995456 0.99911
1.02156 1.02355 0.999523 0.998533
1.01371 1.01675 0.99824 0.998763
1.00107 1.00409 0.998409 0.998579
1.01215 1.02582 0.988195 0.998454
1.01853 1.02168 0.998581 0.998338
1.01186 1.01955 0.994091 0.998359
1.02219 1.02549 0.998324 0.998453
1.02181 1.02522 0.998328 0.998346
1.00735 1.01502 0.99396 0.99848
1.01402 1.01802 0.997799 0.998268
1.0162 1.01881 0.999297 0.99814
1.01184 1.0138 0.999711 0.998351
1.01246 1.01434 1 0.998143
1.01297 1.01498 1 0.998014
1.01024 1.01203 1 0.998231
1.01026 1.01218 1 0.998098
1.00413 1.00606 1 0.998077
1.00761 1.00943 1 0.998198
1.00235 1.00419 1 0.998171
0.998692 1.00038 1 0.998311
1.00137 1.00313 1 0.998241
0.998598 1.0002 1 0.9984
0.998819 1 1 0.998819
0.998499 1.00006 1 0.998434
0.998888 1 1 0.998888
0.999692 1 1 0.999692
0.99993 1 1 0.99993
0.999701 1 1 0.999701
0.998967 1 1 0.998967
1 1 1 1
0.999743 1 1 0.999743
1 1 1 1
1.01159 1.01349 1 0.998127
1.0018 1.00358 1 0.998226
0.998656 1.00036 1 0.998299
0.998655 1.00006 1 0.998591
0.998524 1.00001 1 0.998519
0.998772 1 1 0.998772
0.99919 1 1 0.99919
0.998976 1 1 0.998976
0.999322 1 1 0.999322
0.99988 1 1 0.99988
0.999438 1 1 0.999438
0.999956 1 1 0.999956
1 1 1 1
0.999993 1 1 0.999993
1 1 1 1
1 1 1 1
1.02148 1.02336 0.999857 0.998303
1.01651 1.02043 0.997498 0.998653
1.00256 1.00962 0.994425 0.998572
1.01404 1.01613 1 0.99795
1.00477 1.00646 1 0.998317
0.999218 1.00029 1 0.998932
1.00965 1.01157 1 0.998108
1.00197 1.00376 1 0.998223
1.01924 1.02136 1 0.997928
1.01134 1.01353 1 0.997842
1.00283 1.0047 1 0.998147
1.01629 1.01838 1 0.997945
1.00825 1.01052 1 0.997746
1.01173 1.01436 0.999197 0.998209
1.02423 1.02627 0.999582 0.998432
1.02275 1.0246 0.999651 0.998534
1.01417 1.0169 0.998556 0.998764
1.01261 1.02043 0.993954 0.998371
1.02326 1.02679 0.998096 0.998461
1.02173 1.0258 0.997669 0.998362
1.02136 1.02322 1 0.998186
1.01427 1.01772 0.99834 0.998274
1.01634 1.01857 0.999668 0.998134
1.01521 1.01724 1 0.997997
1.01195 1.01385 1 0.99813
1.01302 1.01504 1 0.998014
1.00686 1.00889 1 0.997995
1.01007 1.01199 1 0.998096
1.00437 1.0063 1 0.998076
0.999138 1.00092 1 0.998215
1.0026 1.00444 1 0.998172
0.99882 1.00051 1 0.998312
0.99873 1 1 0.99873
0.998631 1.00023 1 0.998401
0.998817 1 1 0.998817
0.999682 1 1 0.999682
0.998887 1 1 0.998887
0.999688 1 1 0.999688
0.999931 1 1 0.999931
0.999966 1 1 0.999966
0.999711 1 1 0.999711
1 1 1 1
1.01411 1.01618 1 0.997964
1.00311 1.00489 1 0.99823
1.01121 1.01301 1 0.998216
0.998656 1.0002 1 0.998453
1.00222 1.004 1 0.998222
0.998365 1.00009 1 0.998278
0.998633 1.00004 1 0.99859
0.999044 1 1 0.999044
0.998777 1 1 0.998777
0.999192 1 1 0.999192
0.999801 1 1 0.999801
0.999324 1 1 0.999324
0.999896 1 1 0.999896
1 1 1 1
0.999969 1 1 0.999969
1 1 1 1
1 1 1 1
1.02169 1.02355 1 0.998181
1.02055 1.02247 0.99982 0.998301
1.01836 1.02203 0.997671 0.998729
1.01857 1.0207 1 0.99791
1.01356 1.01564 1 0.997954
1.0038 1.00541 1 0.998397
1.01005 1.01194 1 0.998132
1.01896 1.02109 1 0.997916
1.01039 1.01261 1 0.997808
1.01429 1.01638 1 0.997938
1.02327 1.02507 1 0.99825
1.02387 1.02593 0.999593 0.998395
1.02379 1.02563 0.999669 0.998534
1.02023 1.02216 1 0.99811
1.02154 1.02633 0.996946 0.998377
1.02107 1.02317 0.999764 0.998184
1.01715 1.01914 1 0.998048
1.01647 1.01838 1 0.998128
1.01531 1.01735 1 0.997999
1.00955 1.01163 1 0.997948
1.01307 1.01509 1 0.998014
1.00684 1.00886 1 0.997996
1.00004 1.00191 1 0.998133
1.00459 1.00653 1 0.998076
0.999391 1.00118 1 0.998215
0.998639 1 1 0.998639
0.998948 1.00064 1 0.998312
0.998728 1 1 0.998728
0.999664 1 1 0.999664
0.998815 1 1 0.998815
0.999677 1 1 0.999677
0.999932 1 1 0.999932
0.999684 1 1 0.999684
0.999932 1 1 0.999932
1 1 1 1
1.01483 1.017 1 0.997867
1.0061 1.00808 1 0.99804
1.0144 1.01644 1 0.997992
0.998789 1.00038 1 0.998406
1.00307 1.00485 1 0.998227
1.01086 1.01257 1 0.998305
0.998892 1 1 0.998892
0.998671 1.00022 1 0.998449
1.00267 1.00446 1 0.998219
0.998625 1.00003 1 0.99859
0.999046 1 1 0.999046
0.999717 1 1 0.999717
0.999194 1 1 0.999194
0.999813 1 1 0.999813
1 1 1 1
0.999911 1 1 0.999911
1 1 1 1
1 1 1 1
1.02091 1.02289 1 0.998073
1.02206 1.02394 1 0.998165
1.02092 1.02284 0.999826 0.998299
1.01809 1.02022 1 0.997913
1.01312 1.01519 1 0.997958
1.01899 1.02113 1 0.997904
1.01998 1.02191 1 0.998111
1.02315 1.02495 1 0.998242
1.02325 1.02534 0.999602 0.998359
1.02036 1.02229 1 0.998121
1.01712 1.01914 1 0.998016
1.02075 1.02306 0.999557 0.998181
1.01698 1.01898 1 0.998032
1.01157 1.01363 1 0.997959
1.01537 1.01741 1 0.998002
1.0093 1.01137 1 0.997951
1.00142 1.00336 1 0.998063
1.00686 1.00888 1 0.997997
1.00046 1.00233 1 0.998133
0.998568 1 1 0.998568
0.999651 1.00144 1 0.998215
0.998638 1 1 0.998638
0.999631 1 1 0.999631
0.998726 1 1 0.998726
0.999656 1 1 0.999656
0.999924 1 1 0.999924
0.999673 1 1 0.999673
0.999936 1 1 0.999936
0.999932 1 1 0.999932
1.01675 1.01879 1 0.997993
1.00837 1.01049 1 0.997906
1.01508 1.01725 1 0.997869
0.999882 1.00164 1 0.998244
1.00591 1.00788 1 0.99805
1.01462 1.01664 1 0.998019
0.998771 1 1 0.998771
0.998682 1.00032 1 0.998366
1.00299 1.00478 1 0.998225
0.999648 1 1 0.999648
0.998894 1 1 0.998894
0.998662 1.00022 1 0.998446
0.999048 1 1 0.999048
0.999726 1 1 0.999726
1 1 1 1
0.999824 1 1 0.999824
1 1 1 1
1 1 1 1
1.01837 1.02037 1 0.998042
1.02059 1.02256 1 0.998072
1.02229 1.02418 1 0.998149
1.01763 1.01975 1 0.997916
1.01777 1.01982 1 0.997986
1.02044 1.02236 1 0.998119
1.02305 1.02486 1 0.998235
1.02051 1.02242 1 0.998132
1.01703 1.01904 1 0.998022
1.01124 1.0133 1 0.997966
1.01687 1.01889 1 0.998015
1.01131 1.01338 1 0.997956
1.00287 1.00486 1 0.998015
1.00903 1.0111 1 0.997954
1.00189 1.00383 1 0.998065
0.998502 1 1 0.998502
1.00085 1.00272 1 0.998132
0.998567 1 1 0.998567
0.999551 1 1 0.999551
0.998637 1 1 0.998637
0.999605 1 1 0.999605
1 1 1 1
0.999649 1 1 0.999649
0.999931 1 1 0.999931
0.999938 1 1 0.999938
1.01611 1.01812 1 0.998025
1.00959 1.01166 1 0.997946
1.0165 1.01855 1 0.997992
1.0016 1.00354 1 0.99807
1.00841 1.01051 1 0.997926
1.0154 1.01756 1 0.997872
0.998598 1 1 0.998598
0.999892 1.00165 1 0.998242
1.00576 1.00772 1 0.99806
0.999607 1 1 0.999607
0.998737 1 1 0.998737
0.998585 1.00026 1 0.998326
1 1 1 1
0.999658 1 1 0.999658
0.998896 1 1 0.998896
0.999736 1 1 0.999736
1 1 1 1
1 1 1 1
1.01734 1.01939 1 0.997992
1.01883 1.02082 1 0.99805
1.02024 1.02221 1 0.99807
1.01206 1.01417 1 0.997919
1.01708 1.01913 1 0.997988
1.02089 1.02281 1 0.998126
1.01693 1.01894 1 0.998027
1.01131 1.01338 1 0.997966
1.00316 1.00513 1 0.998047
1.01104 1.01311 1 0.997953
1.0031 1.00506 1 0.998047
0.998377 1 1 0.998377
1.00238 1.00432 1 0.998066
0.998502 1 1 0.998502
0.999504 1 1 0.999504
0.998566 1 1 0.998566
0.999549 1 1 0.999549
1 1 1 1
0.999575 1 1 0.999575
0.999959 1 1 0.999959
0.999936 1 1 0.999936
1.01443 1.01645 1 0.998009
1.01002 1.01206 1 0.997984
1.01604 1.01805 1 0.998026
1.00231 1.00424 1 0.998076
1.00992 1.012 1 0.997944
1.01625 1.0183 1 0.997992
0.998498 1 1 0.998498
1.00151 1.00341 1 0.998112
1.00842 1.0105 1 0.997946
0.999579 1 1 0.999579
0.998585 1 1 0.998585
0.9999 1.00166 1 0.998241
1 1 1 1
0.999616 1 1 0.999616
0.998702 1 1 0.998702
1 1 1 1
0.999669 1 1 0.999669
1 1 1 1
1.0123 1.01438 1 0.997949
1.01687 1.01892 1 0.997989
1.01932 1.0213 1 0.998059
1.00268 1.00467 1 0.998022
1.01208 1.01419 1 0.997929
1.01646 1.01851 1 0.99799
1.01141 1.01347 1 0.997966
1.00319 1.00516 1 0.998047
0.998328 1 1 0.998328
1.00333 1.00526 1 0.998078
0.998408 1 1 0.998408
0.999439 1 1 0.999439
0.998502 1 1 0.998502
0.9995 1 1 0.9995
1 1 1 1
0.999546 1 1 0.999546
1 1 1 1
0.999926 1 1 0.999926
1.01009 1.01211 1 0.998
1.0146 1.01662 1 0.998012
1.00191 1.00384 1 0.998078
1.00989 1.01193 1 0.997984
1.01597 1.01798 1 0.998027
0.998509 1 1 0.998509
1.00223 1.00417 1 0.998073
1.01024 1.01233 1 0.997942
0.999545 1 1 0.999545
0.998522 1 1 0.998522
1.00142 1.00328 1 0.998154
1 1 1 1
0.999584 1 1 0.999584
0.998572 1 1 0.998572
1 1 1 1
0.999624 1 1 0.999624
1 1 1 1
1.00241 1.00436 1 0.998055
1.01221 1.01429 1 0.997948
1.01631 1.01836 1 0.997986
0.998317 1 1 0.998317
1.0027 1.00469 1 0.998022
1.01206 1.01415 1 0.997938
1.00322 1.00518 1 0.998046
0.998332 1 1 0.998332
0.999385 1 1 0.999385
0.99844 1 1 0.99844
0.999435 1 1 0.999435
1 1 1 1
0.999497 1 1 0.999497
1 1 1 1
1 1 1 1
1.00168 1.00362 1 0.998067
1.00978 1.01181 1 0.998
1.01477 1.01679 1 0.998015
0.998482 1 1 0.998482
1.00212 1.00406 1 0.998076
1.00974 1.01178 1 0.997983
0.999506 1 1 0.999506
0.998508 1 1 0.998508
1.00218 1.00411 1 0.99807
1 1 1 1
0.999549 1 1 0.999549
0.998547 1 1 0.998547
1 1 1 1
0.99959 1 1 0.99959
1 1 1 1
0.998393 1 1 0.998393
1.00239 1.00438 1 0.998023
1.01215 1.01424 1 0.997947
0.999372 1 1 0.999372
0.998318 1 1 0.998318
1.00273 1.00471 1 0.998022
0.998336 1 1 0.998336
0.999384 1 1 0.999384
1 1 1 1
0.999432 1 1 0.999432
1 1 1 1
1 1 1 1
0.998441 1 1 0.998441
1.00174 1.00369 1 0.998058
1.0095 1.01152 1 0.998
0.999535 1 1 0.999535
0.99848 1 1 0.99848
1.00234 1.00427 1 0.998074
1 1 1 1
0.999508 1 1 0.999508
0.998506 1 1 0.998506
1 1 1 1
0.999552 1 1 0.999552
1 1 1 1
0.999373 1 1 0.999373
0.998367 1 1 0.998367
1.00238 1.0044 1 0.997991
1 1 1 1
0.999372 1 1 0.999372
0.998318 1 1 0.998318
0.999382 1 1 0.999382
1 1 1 1
1 1 1 1
0.999487 1 1 0.999487
0.998441 1 1 0.998441
1.0018 1.00375 1 0.998048
1 1 1 1
0.999467 1 1 0.999467
0.998478 1 1 0.998478
1 1 1 1
0.999509 1 1 0.999509
1 1 1 1
0.999844 1 1 0.999844
0.999426 1 1 0.999426
0.998341 1 1 0.998341
1 1 1 1
0.999372 1 1 0.999372
1 1 1 1
0.999862 1 1 0.999862
0.999459 1 1 0.999459
0.998441 1 1 0.998441
0.999936 1 1 0.999936
0.999466 1 1 0.999466
1 1 1 1
1 1 1 1
0.999389 1 1 0.999389
1 1 1 1
0.999927 1 1 0.999927
0.999424 1 1 0.999424
1 1 1 1
1 1 1 1
1 1 1 1

VECTORS lamdaE float
0.999808 1.00017 0.995566
0.99972 1.00018 0.997978
0.999575 1.00036 0.995697
1.00008 0.999922 0.99543
0.999887 0.999997 0.995644
0.99979 1.00026 0.995422
1.00098 1.00051 0.99291
0.999692 1.00005 0.998032
0.999666 1.00024 0.998141
0.999365 1.00058 0.998179
0.999696 0.999832 0.996088
1.00068 1.00116 0.99234
1.00007 1.00002 0.995264
0.999802 0.999961 0.99556
0.999366 1.00058 0.995802
0.999895 0.9999 0.99561
0.999552 1.00054 0.995548
0.999684 1.00008 0.995791
1.00112 1.00036 0.992851
1.00004 1 0.9978
1.00012 0.999979 0.995287
1 0.999897 0.995578
1.00136 0.99996 0.992784
1.00115 1.00013 0.992975
0.99969 1.00003 0.995692
1.00076 1.00103 0.992734
1.00342 1.00035 0.988901
0.999639 0.999953 0.998108
0.999788 1.00011 0.996812
0.99954 1.00043 0.996836
0.999639 0.999636 0.998231
1.00057 1.00127 0.992354
1.00003 0.999843 0.99545
0.999793 1.00037 0.995469
1.00145 1.00016 0.99314
0.999398 0.999018 0.998696
1.00108 1.00083 0.993184
1.00035 1.00115 0.99291
1.00217 1.00218 0.988659
0.999487 0.998209 0.998965
1.00008 1.00001 0.997763
0.999933 0.999987 0.996677
1.00006 1 0.997767
0.999783 1.00002 0.995563
1.0016 1.00005 0.991741
0.999828 0.999953 0.998077
1.00166 1.00009 0.992879
0.999712 0.999842 0.99579
0.999494 1.00016 0.995923
0.999308 1.00087 0.995665
1.00125 1.00019 0.992805
0.99995 1.00001 0.996658
0.999928 0.999973 0.995478
0.9995 1.00026 0.995814
0.999822 0.999895 0.995741
1.00144 0.99992 0.992715
1.00089 1.00091 0.992685
1.00126 1.00004 0.992918
1.00341 1.00036 0.988901
1.00003 1 0.997794
1.00012 1.00001 0.995252
1.00145 1.00001 0.993201
1.00141 1 0.992644
1.00129 0.999953 0.992913
1.00376 0.99991 0.988663
1.00358 0.999976 0.988672
0.999638 0.999345 0.996364
1.00008 1.00148 0.993263
1.003 1.00113 0.988838
1.00455 0.999925 0.9866
0.999932 1.00014 0.9979
0.999573 0.999416 0.998387
0.999699 1.00026 0.997955
1.00048 1.00134 0.992374
1.00004 0.999971 0.997879
0.99984 1.00031 0.997911
1.00136 1.00012 0.992021
0.999475 0.999097 0.99771
1.00089 1.00092 0.992089
1.00022 1.0012 0.993564
1.00219 1.00213 0.988653
0.999556 0.998584 0.998747
0.999625 0.999716 0.995643
1.00155 0.999943 0.991934
1.00127 1.00041 0.992001
1.00376 1.00016 0.987781
0.999971 1.00078 0.994912
1.00295 1.00116 0.988252
1.00127 1.0031 0.989411
1.00314 1.00231 0.986679
0.999479 0.997872 0.99911
0.999442 0.99814 0.999028
1.00008 0.99997 0.997817
1.00008 1 0.997771
1.00008 1 0.997765
0.999926 1.00001 0.996672
1.00162 1.00004 0.992353
0.999938 0.999955 0.996725
1.00161 1.0001 0.992332
1.00007 0.999999 0.997773
1.00154 0.999989 0.991861
1.00166 1.00011 0.992881
1.00398 0.999807 0.987751
1.00161 0.999989 0.993021
1.00396 0.99997 0.987645
1.00004 1.00001 0.995336
0.999734 0.99996 0.995674
0.999281 1.00052 0.995968
0.999643 0.999874 0.995901
1.00152 0.999915 0.992646
1.00136 0.99995 0.992869
1.00102 1.00075 0.99264
1.0034 1.00038 0.988901
1.00006 1 0.997781
0.999922 1.00001 0.995447
1.00154 0.999987 0.992195
1.00149 0.999989 0.992567
0.999523 0.999505 0.997357
1.00033 1.00138 0.9934
1.00138 0.9999 0.992851
1.00377 0.999894 0.988533
1.00298 1.0012 0.988828
1.00358 1.00004 0.988767
1.00454 0.999948 0.986611
1.00152 1 0.991909
1.00144 1 0.9926
1.0039 0.999735 0.988329
1.00381 0.999869 0.988351
1.00371 0.999837 0.98855
1.00486 0.999586 0.986699
0.99955 0.99892 0.998621
1.00467 0.999745 0.986594
0.999837 1.00131 0.99353
1.0018 1.00239 0.988994
1.00422 1.00071 0.986466
1.00506 0.999629 0.985953
0.999784 1.00046 0.994517
1.0002 1.00286 0.991462
1.00002 1 0.997889
0.999789 1.00028 0.997917
1.00137 1.00009 0.992025
0.999515 0.998874 0.998671
1.00003 1.00139 0.993105
1.00083 1.00097 0.9921
1.00221 1.00208 0.988646
0.999494 0.998518 0.99883
0.999628 0.999633 0.995686
1.00155 0.999976 0.992523
1.00124 1.00044 0.992583
1.00376 1.00016 0.987781
0.999849 1.0008 0.994143
1.00296 1.00115 0.98826
1.00124 1.00309 0.989416
1.00317 1.00228 0.986645
0.999692 1.00031 0.994938
0.999697 0.999121 0.996118
1.00013 1.00202 0.992448
1.00388 1.00005 0.987691
1.00345 1.00053 0.987959
1.00481 1.00003 0.986042
1.00071 1.00311 0.990435
1.00406 1.0009 0.986336
1.00205 1.00375 0.987342
1.00359 1.00211 0.986235
0.999537 0.997602 0.999168
0.999463 0.997825 0.999132
0.999406 0.998075 0.999074
0.999773 1.00007 0.994952
0.999558 0.998609 0.998757
1.00007 0.999963 0.997853
1.00007 0.999992 0.997787
1.00154 1.0001 0.991775
1.00155 1.00005 0.991797
1.00006 1.00001 0.997771
1.00005 1 0.997774
1.00154 0.999997 0.991857
1.0016 1.0001 0.992322
1.00398 0.999805 0.987749
1.00153 1.00001 0.991872
1.00396 0.999971 0.98764
1.00152 0.999981 0.991898
1.00397 0.999736 0.987835
1.00397 0.999886 0.987691
1.00498 0.999262 0.986541
1.00393 1.00002 0.987641
1.00496 0.999573 0.986271
1.00005 0.999999 0.997775
0.999732 1.00001 0.995641
1.00155 0.999983 0.991274
1.00157 0.999979 0.992488
0.999305 0.999586 0.998514
1.00061 1.0012 0.993521
1.00146 0.999868 0.992792
1.00379 0.999863 0.988403
1.00358 1.00011 0.988863
1.00297 1.00129 0.988817
1.00452 0.999972 0.986621
1.00151 0.99999 0.99191
1.00152 1 0.992513
1.00391 0.999725 0.988029
1.00383 0.999904 0.988431
0.999561 0.998995 0.998566
1.00001 1.00117 0.993954
1.00184 1.00249 0.989199
1.00371 0.999868 0.988537
1.00486 0.999494 0.986604
1.00417 1.00072 0.986387
1.00467 0.999788 0.986709
1.00505 0.999641 0.98598
0.999787 1.00049 0.994512
1.00025 1.00276 0.991471
1.00393 0.99973 0.987909
1.00388 0.999822 0.988284
1.00493 0.999321 0.986823
1.00489 0.999367 0.986538
1.00479 0.999588 0.986738
1.00518 0.998907 0.98661
0.999804 1.00086 0.994056
1.00511 0.999316 0.986208
1.00087 1.00305 0.989995
1.00315 1.00243 0.986465
1.00491 1.00047 0.9857
1.00517 0.999343 0.986152
1.00042 1.00291 0.991046
1.00013 1.00235 0.992087
1.00063 1.00375 0.989924
1.00148 0.999956 0.991981
0.99944 0.998434 0.998915
0.999632 0.999541 0.995726
1.00112 1.0005 0.992044
1.00377 1.00016 0.987781
0.99979 1.00085 0.994085
1.00119 1.00308 0.989422
1.00295 1.00114 0.988268
1.00319 1.00223 0.986611
0.999682 1.00024 0.994964
0.999701 0.999057 0.996146
1.00005 1.00212 0.992462
1.00387 1.00006 0.987687
1.00346 1.00052 0.987969
1.00481 1.00002 0.986029
1.00063 1.00315 0.99045
1.0041 1.00094 0.986364
1.00204 1.00382 0.987326
1.00363 1.00198 0.986215
0.999802 0.998694 0.996349
1.00035 1.00267 0.99142
1.00003 1.00124 0.993405
1.00031 1.00346 0.99076
1.00489 0.99985 0.986098
1.00459 1.00036 0.986132
1.00511 0.999778 0.985738
1.00122 1.00409 0.988576
1.0046 1.00048 0.985833
1.00241 1.00396 0.986367
1.0043 1.00126 0.985756
1.00027 0.999931 0.994305
0.999982 0.998213 0.996496
0.999627 0.997349 0.999196
0.999539 0.99755 0.999177
0.999453 0.997768 0.99915
0.999791 0.999641 0.99536
0.999555 0.998325 0.998875
0.999773 1.00012 0.994931
0.99958 0.998658 0.99871
1.00152 1.00003 0.991866
1.00155 1.00009 0.991761
1.00396 0.999973 0.987636
1.00399 0.999803 0.987747
1.00155 1 0.991855
1.00007 1 0.997764
1.00153 0.999983 0.991896
1.00397 0.999741 0.987833
1.00397 0.999894 0.987688
1.00498 0.999265 0.986537
1.00392 1.00003 0.987634
1.00496 0.999574 0.986262
1.00394 0.999726 0.987904
1.00497 0.999154 0.986669
1.00498 0.999414 0.986403
1.0052 0.998358 0.987073
1.00494 0.999709 0.986168
1.0052 0.9988 0.986604
1.00152 0.999977 0.991911
1.0016 0.999987 0.992426
1.00392 0.9997 0.987731
1.00385 0.999936 0.988511
0.999578 0.999074 0.998505
1.00019 1.00112 0.994304
1.00195 1.00254 0.989402
1.0037 0.999888 0.988524
1.00485 0.9994 0.986509
1.00468 0.999833 0.986823
1.00412 1.00072 0.986308
1.00503 0.999653 0.986007
0.999796 1.00052 0.994506
1.0003 1.00267 0.991479
1.00393 0.999689 0.987835
1.0039 0.999811 0.988271
1.00493 0.999254 0.986869
1.00489 0.999456 0.986613
0.999849 1.00085 0.994054
1.00099 1.00301 0.989966
1.0031 1.00249 0.986543
1.00479 0.999635 0.986732
1.00518 0.998777 0.986717
1.00492 1.00042 0.985601
1.00509 0.999316 0.986231
1.00517 0.999309 0.98615
1.00046 1.00284 0.991058
1.00052 1.0038 0.989941
1.00015 1.00234 0.992078
1.00493 0.999241 0.986878
1.00492 0.99932 0.986793
1.00518 0.998428 0.987082
1.00519 0.998677 0.986743
1.00514 0.998918 0.986526
1.00518 0.997722 0.987697
1.00058 1.00291 0.990741
1.00517 0.998609 0.986747
1.0018 1.00348 0.988041
1.00423 1.00226 0.984803
1.00516 1.00035 0.985279
1.00516 0.998644 0.986866
1.00014 1.00173 0.992686
1.0009 1.00319 0.989925
1.00024 1.00401 0.990175
1.00094 1.00376 0.989502
1.00386 1.00007 0.987682
0.9997 0.999004 0.996174
0.999669 1.00019 0.994992
1 1.00219 0.992476
1.00346 1.00052 0.987978
1.00482 1.00002 0.986017
1.00055 1.00322 0.990465
1.00203 1.00387 0.987308
1.00414 1.00099 0.986392
1.00367 1.00188 0.986195
0.999803 0.998666 0.996359
1.00032 1.00272 0.991422
1.00002 1.00122 0.993432
1.00023 1.00359 0.990751
1.00489 0.999852 0.986086
1.00458 1.00036 0.986127
1.00512 0.999786 0.985726
1.00117 1.00412 0.988593
1.00466 1.00056 0.985865
1.00247 1.00399 0.986314
1.00418 1.00104 0.986091
0.999905 0.9984 0.996448
1.00011 1.00055 0.993969
1.00071 1.00381 0.989767
1.00014 1.00273 0.991805
1.00026 1.00442 0.989904
1.00515 0.999464 0.986017
1.00497 1.00003 0.985667
1.00513 0.999208 0.986274
1.00154 1.00477 0.987304
1.00493 1.00014 0.985664
1.00335 1.00276 0.985383
1.00024 1.00001 0.994269
1.00023 1.00116 0.993169
1.00028 0.999909 0.994319
1.00026 0.999942 0.994303
1.00002 0.99803 0.997056
0.99997 0.998202 0.996763
0.999783 0.997159 0.998162
0.999638 0.997304 0.999201
0.999545 0.997497 0.999186
0.999839 0.999232 0.995692
0.999571 0.998042 0.998977
0.999791 0.999689 0.995337
0.999581 0.998372 0.998834
0.999774 1.00016 0.994911
0.999602 0.998712 0.998662
1.00392 1.00004 0.987626
1.00397 0.999899 0.987684
1.00495 0.999585 0.986253
1.00498 0.999267 0.986532
1.00397 0.999746 0.98783
1.00152 0.999986 0.991895
1.00394 0.999724 0.987904
1.00496 0.999156 0.986669
1.00497 0.999427 0.986396
1.0052 0.998276 0.987174
1.00493 0.999714 0.986159
1.0052 0.998822 0.986595
1.00494 0.999128 0.986745
1.00518 0.998133 0.987381
1.00521 0.998518 0.986877
1.00518 0.997332 0.988121
1.00518 0.999147 0.986312
1.00517 0.997488 0.987911
1.00393 0.99965 0.987762
1.00392 0.999809 0.988257
1.00493 0.999193 0.986915
1.00489 0.999545 0.986687
0.999901 1.00083 0.994052
1.00102 1.00302 0.989938
1.00307 1.00256 0.986621
1.0048 0.999682 0.986727
1.00518 0.998645 0.986824
1.00507 0.999315 0.986253
1.00493 1.00036 0.985502
1.00517 0.999271 0.986148
1.00049 1.00276 0.99107
1.00048 1.00379 0.989958
1.00018 1.00231 0.992068
1.00494 0.999202 0.986804
1.00493 0.999318 0.986783
1.00518 0.998288 0.987215
1.00519 0.998717 0.98674
1.00063 1.00287 0.990726
1.00188 1.00343 0.988004
1.00403 1.00229 0.985045
1.00514 0.999048 0.986461
1.00518 0.997556 0.987896
1.00516 1.00037 0.985149
1.00517 0.998607 0.986773
1.00515 0.998555 0.986984
1.00095 1.00318 0.989929
1.00091 1.00377 0.989468
1.00016 1.00175 0.992673
1.00018 1.00397 0.990269
1.00517 0.998293 0.987232
1.00519 0.998511 0.987101
1.00516 0.997508 0.987936
1.00517 0.997068 0.988366
1.00517 0.997969 0.987475
1.00512 0.996722 0.988799
1.00126 1.00304 0.989441
1.00513 0.997438 0.987921
1.00218 1.00379 0.986521
1.00486 1.00206 0.984327
1.00514 1.00006 0.985369
1.0051 0.998243 0.987312
1.00015 1.00129 0.993127
1.00012 1.00348 0.990899
1.0012 1.00316 0.98946
1.00037 1.00458 0.989531
1.00116 1.00326 0.989591
0.999801 0.998646 0.99637
1.00489 0.999853 0.986075
1.00001 1.00118 0.993459
1.00027 1.00281 0.991425
1.00014 1.00371 0.99074
1.00456 1.00036 0.986122
1.00513 0.999793 0.985713
1.00118 1.0041 0.988611
1.00257 1.004 0.986261
1.00473 1.00063 0.985896
1.00407 1.00083 0.986421
0.999903 0.998393 0.996452
1.00011 1.00053 0.993981
1.00071 1.00376 0.989776
1.00006 1.00281 0.991813
1.00019 1.00452 0.989831
1.00515 0.999474 0.986001
1.00501 1.00004 0.985647
1.00513 0.999201 0.986243
1.00148 1.00482 0.987329
1.0049 1.00019 0.985741
1.00354 1.00266 0.98543
1.0002 1.00018 0.994187
1.00015 1.00188 0.992634
1.00093 1.00443 0.988772
0.999962 1.00405 0.990808
1.00048 1.00449 0.989616
1.00513 0.998661 0.986823
1.0051 0.999665 0.985817
1.00512 0.998307 0.986898
1.00185 1.00476 0.986601
1.00476 1.0009 0.985126
1.00024 1.00002 0.994267
1.00023 1.00118 0.993075
1.00021 1.00118 0.993126
1.00017 1.0019 0.992668
1.00022 1.00119 0.993174
1.00026 0.999941 0.99431
1.00027 0.999912 0.994319
1.00008 0.997919 0.997062
1.00026 0.999954 0.994301
1.00003 0.998035 0.997056
0.999886 0.99693 0.998189
0.99996 0.998197 0.997025
0.999754 0.997115 0.998691
0.99965 0.997259 0.999206
0.999897 0.998878 0.99595
0.999834 0.999277 0.995673
0.999609 0.997782 0.999051
0.999591 0.998093 0.998943
0.99979 0.999741 0.995314
0.999607 0.998416 0.998791
1.00493 0.999718 0.986151
1.00496 0.999431 0.986389
1.0052 0.99884 0.986586
1.0052 0.998193 0.987275
1.00496 0.999157 0.986669
1.00394 0.999722 0.987903
1.00494 0.999127 0.986747
1.00517 0.99814 0.987391
1.00521 0.99853 0.986877
1.00518 0.997177 0.988306
1.00518 0.999158 0.986292
1.00518 0.997365 0.988031
1.00516 0.998168 0.987387
1.00515 0.997277 0.988221
1.00518 0.997047 0.9884
1.00516 0.996314 0.98914
1.00514 0.99801 0.987429
1.00515 0.996499 0.988994
1.00494 0.999159 0.98673
1.00494 0.999323 0.986773
1.00517 0.998145 0.987348
1.00519 0.998753 0.986737
1.0007 1.00284 0.990711
1.00196 1.00338 0.987967
1.00382 1.00226 0.985288
1.00514 0.99918 0.986395
1.00517 0.99739 0.988095
1.00516 0.998605 0.9868
1.00515 1.00043 0.98502
1.00514 0.998472 0.987101
1.00092 1.00324 0.989934
1.00079 1.00389 0.989434
1.00017 1.00176 0.99266
1.00015 1.00392 0.990364
1.00517 0.998298 0.987227
1.00518 0.998561 0.986999
1.00516 0.997444 0.988032
1.00517 0.997163 0.988245
1.00126 1.00315 0.989401
1.00219 1.0038 0.986721
1.00481 1.00184 0.984298
1.00517 0.998114 0.987296
1.00513 0.99653 0.988929
1.00513 1.0001 0.985344
1.00512 0.997459 0.98793
1.00512 0.998042 0.987395
1.00126 1.00314 0.989448
1.00113 1.00322 0.989652
1.00034 1.00463 0.989503
1.00015 1.00129 0.993056
1.0001 1.00341 0.990999
1.00516 0.99735 0.9882
1.00515 0.997019 0.988493
1.00512 0.996031 0.989488
1.00511 0.996606 0.988755
1.00142 1.0036 0.988608
1.0051 0.997021 0.988538
1.00246 1.0035 0.985927
1.00509 1.00164 0.984113
1.00509 0.999586 0.985754
1.00011 1.00088 0.993409
1.00012 1.00283 0.991748
1.0002 1.00416 0.990317
1.00142 1.00281 0.989498
1.00053 1.00467 0.989105
1.00141 1.00256 0.989529
0.9999 0.99839 0.996456
1.00011 1.00051 0.993992
1.00515 0.999484 0.985985
0.999978 1.0029 0.991823
1.00065 1.00379 0.989786
1.00011 1.00464 0.989757
1.00505 1.00005 0.985628
1.00513 0.999195 0.986212
1.0014 1.0049 0.987354
1.00368 1.00261 0.985477
1.00488 1.00023 0.985823
1.00019 1.00018 0.994188
1.00011 1.00189 0.992651
1.0009 1.00448 0.988743
0.999884 1.00416 0.990798
1.00041 1.00442 0.989648
1.00513 0.99868 0.9868
1.00511 0.999663 0.985781
1.00512 0.99834 0.986942
1.00184 1.00466 0.986488
1.00475 1.00108 0.985113
1.00022 1.00137 0.993019
0.999889 1.0032 0.991598
1.00115 1.00421 0.988477
0.999961 1.00479 0.990005
1.00089 1.00374 0.989449
1.00513 0.997062 0.988211
1.00511 0.999474 0.985978
1.00508 0.998227 0.986984
1.00297 1.00365 0.986038
1.00479 1.00059 0.98515
1.00023 1.00003 0.994265
1.00024 1.00118 0.993107
1.00006 1.00196 0.992604
1.00019 1.0012 0.993084
1.0002 1.00121 0.993173
1.00011 1.00194 0.992612
1.00003 1.00237 0.99239
1.00011 1.00199 0.992484
1.00019 1.00127 0.993143
1.00022 1.00003 0.994288
1.00026 0.99995 0.99431
1.00012 0.997875 0.997038
1.00026 0.999918 0.994319
1.00008 0.997935 0.997058
0.999962 0.996796 0.998188
1.00004 0.998037 0.997058
0.999875 0.996902 0.998195
0.99972 0.997058 0.999229
0.999951 0.998549 0.996196
0.999893 0.998914 0.995932
0.999664 0.997528 0.999107
0.999829 0.999327 0.995654
0.999619 0.99783 0.999029
0.999612 0.998138 0.998907
1.00518 0.999168 0.986272
1.00521 0.998544 0.986877
1.00518 0.99724 0.98815
1.00517 0.997023 0.988491
1.00517 0.998147 0.987401
1.00494 0.999128 0.986749
1.00516 0.998226 0.987326
1.00515 0.997372 0.988156
1.00518 0.99712 0.988314
1.00515 0.996138 0.989309
1.00515 0.998036 0.987422
1.00514 0.996282 0.989142
1.00516 0.997463 0.988105
1.00518 0.996216 0.989189
1.00516 0.995833 0.989579
1.00513 0.996332 0.989146
1.00517 0.998302 0.987222
1.00518 0.99861 0.986897
1.00517 0.997382 0.988129
1.00517 0.997263 0.988123
1.00132 1.0032 0.989361
1.0022 1.00382 0.986921
1.00476 1.00161 0.984269
1.00517 0.99826 0.987116
1.00514 0.996344 0.989058
1.00512 0.997481 0.987938
1.00512 1.00012 0.985319
1.00514 0.997841 0.987478
1.00131 1.00313 0.989436
1.00118 1.00307 0.989712
1.00031 1.00469 0.989475
1.00015 1.00128 0.992986
1.00008 1.00333 0.9911
1.00516 0.997366 0.988201
1.00515 0.997061 0.988449
1.00512 0.996111 0.989356
1.00149 1.00359 0.988573
1.00266 1.00364 0.986041
1.00507 1.00148 0.984069
1.00512 0.996643 0.988733
1.00508 0.999368 0.986003
1.0051 0.996975 0.98839
1.00011 1.00083 0.993477
1.0015 1.00273 0.989464
1.0013 1.00244 0.989892
1.0006 1.00471 0.989032
1.0002 1.00419 0.990337
1.00011 1.00281 0.991693
1.00516 0.996624 0.988752
1.00518 0.995806 0.989653
1.00512 0.995556 0.989713
1.00515 0.995907 0.989449
1.00172 1.00355 0.98817
1.00512 0.997741 0.987537
1.00353 1.00329 0.984625
1.00508 1.00132 0.98415
1.00014 1.0003 0.993945
1.00011 1.00232 0.99228
1.00018 1.00351 0.991061
1.00022 1.00494 0.989402
1.00168 1.00235 0.989311
1.0014 1.00337 0.988892
1.00019 1.00018 0.994189
1.00008 1.00187 0.992667
1.00513 0.998699 0.986778
0.999811 1.00425 0.990789
1.00087 1.0045 0.988715
1.00026 1.00429 0.989681
1.00513 0.999658 0.985745
1.00512 0.998383 0.986986
1.00186 1.00459 0.986374
1.0048 1.00122 0.9851
1.0002 1.00136 0.993029
0.999945 1.00316 0.991622
1.00117 1.00426 0.988489
0.999858 1.00485 0.989969
1.00072 1.00355 0.989815
1.00513 0.997043 0.988405
1.0051 0.999453 0.986039
1.00509 0.998325 0.986939
1.00289 1.00378 0.985902
1.00496 1.00055 0.984973
0.999978 1.00224 0.992383
0.999808 1.00421 0.990589
1.00169 1.00363 0.988113
1.00017 1.00459 0.989088
1.00511 0.99559 0.98969
1.00496 0.997417 0.988296
1.00505 0.999544 0.985855
1.00345 1.00191 0.985469
1.00025 1.00116 0.993139
1.00007 1.00198 0.99262
0.999863 1.00261 0.992439
1.00018 1.00123 0.993171
1.00006 1.00197 0.992557
1.00019 1.00127 0.993137
1 1.00235 0.992379
1.00012 1.00199 0.992513
0.999948 1.00256 0.992298
1.00007 1.00243 0.992184
1.00013 1.00207 0.992341
1.00018 1.00138 0.993029
1.00017 1.00013 0.994263
1.00022 1.00003 0.994286
1.00014 0.997863 0.997008
1.00025 0.999945 0.994309
1.00012 0.997899 0.997033
1.00002 0.996713 0.998167
1.00009 0.99795 0.997056
0.999954 0.996763 0.998195
0.999864 0.996878 0.998197
1.00002 0.998213 0.996413
0.999955 0.998566 0.996177
0.999734 0.997238 0.999164
0.999888 0.998955 0.995914
0.999667 0.997579 0.999091
0.999633 0.997872 0.999004
1.00515 0.99806 0.987415
1.00517 0.997195 0.988229
1.00513 0.996069 0.989289
1.00514 0.995964 0.989478
1.00515 0.997467 0.988092
1.00516 0.998285 0.987266
1.00516 0.997457 0.988107
1.00517 0.996283 0.989128
1.00516 0.995859 0.989543
1.00513 0.996294 0.9892
1.00518 0.996584 0.9889
1.00518 0.995195 0.990225
1.00516 0.995277 0.989906
1.00517 0.997382 0.988203
1.00516 0.997101 0.988406
1.00512 0.996194 0.989224
1.00157 1.00359 0.988538
1.00288 1.00379 0.986155
1.00506 1.00138 0.984025
1.00512 0.996676 0.988712
1.0051 0.996925 0.988241
1.00508 0.999165 0.986251
1.00157 1.00267 0.989431
1.00114 1.00236 0.990256
1.00067 1.00479 0.988959
1.00012 1.00076 0.993545
1.00019 1.00417 0.990358
1.00011 1.00279 0.991638
1.00517 0.996684 0.988774
1.00518 0.995722 0.989712
1.00512 0.995562 0.989745
1.00174 1.00359 0.988132
1.00337 1.00336 0.98497
1.00507 1.00114 0.984358
1.00515 0.995941 0.989383
1.00512 0.997726 0.987499
1.00014 1.00027 0.994082
1.00012 1.00232 0.992274
1.00151 1.00229 0.989427
1.00132 1.00342 0.989218
1.00023 1.00483 0.989549
1.00016 1.00355 0.990988
1.00519 0.995258 0.990204
1.00517 0.995099 0.990173
1.00513 0.995273 0.990022
1.00513 0.99616 0.989142
1.00186 1.00336 0.987499
1.00502 0.999881 0.985541
1.00436 1.00316 0.98424
1.00018 0.999938 0.994455
1.00017 1.00118 0.993272
1.00011 1.00176 0.992658
1.00006 1.0032 0.991469
1.00005 1.00426 0.990339
1.00003 1.00473 0.989568
1.00211 1.00115 0.989358
1.00135 1.00322 0.989981
1.00018 1.00137 0.993038
0.999994 1.00316 0.991646
1.00512 0.997027 0.988599
0.999898 1.00493 0.989933
1.00117 1.00435 0.988501
1.00052 1.00343 0.990179
1.0051 0.999413 0.986101
1.00511 0.998404 0.986895
1.00274 1.00388 0.985769
1.00508 1.0005 0.984797
1 1.00229 0.992319
0.999875 1.00419 0.990602
1.0016 1.00373 0.988201
1.00044 1.00462 0.98918
1.00513 0.995474 0.989836
1.00501 0.997463 0.988083
1.00506 0.999491 0.985881
1.0038 1.00207 0.985318
0.999826 1.00314 0.991869
1.00508 0.995115 0.990199
1.00026 1.00487 0.989773
1.00179 1.0041 0.987416
1.00497 0.996033 0.989835
1.00485 0.998713 0.986522
1.00453 1.00117 0.985372
1.00006 1.00201 0.992636
0.999854 1.00259 0.992421
0.99966 1.0031 0.992309
1.00019 1.00126 0.993132
1.00011 1.00199 0.992541
0.999941 1.00236 0.992367
1.00019 1.00138 0.993017
1.00012 1.00207 0.992363
0.9999 1.00259 0.992268
1.0001 1.00238 0.992221
1.0001 1.00248 0.992162
1.00004 1.00257 0.992101
1.00014 1.0026 0.99192
1.00026 1.00214 0.992116
1.00021 1.0015 0.99288
1.00014 1.00022 0.994224
1.00017 1.00014 0.994262
1.00015 0.997898 0.996956
1.00022 1.00004 0.994283
1.00014 0.997897 0.997002
1.00007 0.996649 0.998148
1.00012 0.997925 0.997029
1.00002 0.996677 0.998173
0.999947 0.996732 0.9982
1.00017 0.99983 0.994597
1.00007 0.997968 0.996566
1.00003 0.998228 0.996399
0.999816 0.996969 0.999208
0.999958 0.998592 0.996159
0.999732 0.997305 0.999147
0.999673 0.997631 0.999073
1.00514 0.996255 0.989253
1.00517 0.995883 0.989507
1.00516 0.996351 0.989067
1.00515 0.99745 0.988109
1.00519 0.996519 0.988947
1.0052 0.995184 0.990231
1.00516 0.99534 0.989897
1.00519 0.994998 0.990364
1.00517 0.994986 0.990413
1.00493 0.995015 0.990802
1.00517 0.996745 0.988797
1.00518 0.995631 0.989771
1.00512 0.995565 0.989777
1.00175 1.00362 0.988093
1.00323 1.00344 0.985317
1.00505 1.00094 0.984566
1.00514 0.995979 0.989318
1.00512 0.9977 0.987461
1.00136 1.00225 0.989544
1.00128 1.00347 0.989539
1.00016 1.00478 0.989696
1.00014 1.00024 0.994219
1.00014 1.0023 0.992268
1.00014 1.0036 0.990915
1.00517 0.995225 0.990187
1.00017 0.999951 0.994452
1.00014 1.0012 0.993213
1.00517 0.9951 0.990187
1.00512 0.995263 0.989993
1.00164 1.00354 0.987881
1.0042 1.00306 0.984228
1.00502 0.99977 0.985502
1.00512 0.996216 0.989027
1.00012 1.00174 0.992832
1.00009 1.00316 0.991454
1.0023 1.00145 0.989122
1.00087 1.00326 0.990279
1.00008 1.00477 0.989631
1.00003 1.00424 0.990425
1.00516 0.994981 0.99032
1.00508 0.994907 0.990497
1.0051 0.995167 0.989923
1.00501 0.99661 0.988452
1.00197 1.00285 0.988152
1.00442 1.00284 0.984497
1.00012 1.00114 0.993235
1.00015 1.00133 0.993146
1.00016 1.00212 0.992483
1.00007 1.00292 0.991542
1 1.00378 0.991094
1.00037 1.00431 0.989762
0.99961 1.00488 0.990021
1.00151 1.00129 0.99041
1.00003 1.00231 0.992256
0.999955 1.00413 0.990616
1.00514 0.995348 0.989981
1.00505 0.997536 0.98787
1.00068 1.00466 0.989271
1.00152 1.00381 0.988285
1.00507 0.999445 0.985907
1.00419 1.00225 0.985165
0.999857 1.00313 0.991831
1.00509 0.995025 0.990292
1.00008 1.0048 0.989873
1.0018 1.00393 0.987368
1.00498 0.99589 0.989732
1.00476 0.998775 0.986745
1.00451 1.00136 0.985411
0.999851 1.00438 0.990966
1.00466 0.995102 0.99166
1.00111 1.00454 0.989124
1.00269 1.00377 0.98681
1.00478 0.996847 0.988816
1.00407 1.00065 0.986179
0.999597 0.99755 0.991761
0.99984 1.00259 0.992403
0.999618 1.00313 0.9923
0.999898 1.00318 0.991946
1.00019 1.00139 0.993005
1.00011 1.0021 0.992385
1.00013 1.00234 0.992258
0.999876 1.00259 0.992237
1.00021 1.00149 0.992878
1.00023 1.00218 0.992115
1.00009 1.00256 0.992041
1.00012 1.00262 0.991924
1.00008 1.00252 0.992113
1.00022 1.00237 0.992021
1.00025 1.00279 0.991564
1.00019 1.00265 0.991807
1.00034 1.00225 0.991866
1.00024 1.00156 0.992664
1.00027 1.00211 0.992262
1.00023 1.00161 0.992604
1.00014 1.00027 0.994175
1.00014 1.00022 0.994223
1.00018 0.997979 0.996363
1.00017 1.00013 0.994261
1.00017 0.997936 0.996679
1.00003 0.996595 0.999203
1.00014 0.99793 0.996998
1.00006 0.996609 0.998154
1.00001 0.996642 0.998177
1.00013 0.999743 0.99472
1.00017 0.999813 0.9946
1.0001 0.997813 0.996685
1.00006 0.997972 0.996819
0.99989 0.996759 0.999243
1.00003 0.998238 0.996385
0.999809 0.997031 0.999196
0.999731 0.99737 0.999129
1.00516 0.995404 0.989889
1.00521 0.995174 0.990237
1.0052 0.996451 0.988995
1.00518 0.994997 0.99036
1.00515 0.994975 0.990384
1.00493 0.995092 0.990534
1.00515 0.994923 0.990452
1.00083 0.996557 0.988395
1.00426 0.994906 0.993136
1.00007 1.00111 0.993501
1.00516 0.995191 0.99017
1.00518 0.995115 0.9902
1.00511 0.995251 0.989963
1.00141 1.00369 0.988262
1.00404 1.003 0.984217
1.00503 0.999673 0.985465
1.00508 0.996291 0.98891
1.00256 1.00162 0.988892
1.00035 1.00328 0.990584
1.00017 1.00479 0.989695
1.00016 0.999975 0.99445
1.00003 1.00419 0.990511
1.00013 1.00171 0.993006
1.0001 1.00313 0.991439
1.00013 1.0012 0.993155
1.00516 0.99495 0.990342
1.00011 1.00113 0.993332
1.00015 1.00134 0.993143
1.00017 1.00211 0.992383
1.00506 0.994928 0.990489
1.0051 0.995271 0.989838
1.00206 1.00277 0.988199
1.0041 1.00242 0.984824
1.00498 0.996908 0.988393
1.00005 1.00293 0.99164
1.00003 1.00375 0.99096
1.0014 1.00178 0.990223
0.999828 1.00484 0.990087
1.00037 1.00418 0.989843
1.00509 0.994994 0.990533
1.00509 0.994889 0.990491
1.00505 0.996031 0.989132
1.00451 0.998964 0.988036
1.00135 1.00308 0.989187
1.00008 1.00218 0.992259
1.00018 1.0023 0.991947
0.999989 1.0031 0.991617
0.99992 1.00407 0.991035
0.999998 1.00413 0.990535
0.999927 1.00462 0.989929
1.00007 1.00417 0.99026
0.999903 1.00311 0.991791
0.999876 1.00474 0.989974
1.00511 0.994959 0.990384
1.005 0.995732 0.989628
1.00472 0.998807 0.986968
1.00181 1.00372 0.987324
1.00451 1.00153 0.98545
0.999818 1.00423 0.991113
1.00457 0.99504 0.991733
1.00076 1.00441 0.989307
1.00241 1.00387 0.98678
1.00475 0.996675 0.989129
1.0042 1.00058 0.986119
0.999609 0.997514 0.989879
0.999982 1.00439 0.990637
1.004 0.995901 0.991823
1.00069 1.00429 0.989401
1.0025 1.00252 0.987318
1.00415 0.998131 0.987758
1.00061 0.995611 0.956212
0.996455 0.996633 0.975114
0.997727 1.00183 0.991223
0.999841 0.996669 0.916121
0.994903 0.998141 0.898769
0.999586 1.00314 0.99229
0.999721 1.00331 0.992006
1.00009 1.00249 0.992187
1.0002 1.00149 0.992875
1.00026 1.00211 0.992113
1.00012 1.00264 0.991928
1.00012 1.00247 0.992125
1.00008 1.00267 0.99192
1.00022 1.0026 0.99176
1.00023 1.00153 0.992734
1.00034 1.00224 0.991879
1.00022 1.00239 0.991985
1.00021 1.0028 0.991612
1.00027 1.00279 0.991609
1.00013 1.00257 0.991827
1.00032 1.00268 0.991555
1.00038 1.00223 0.991777
1.00025 1.00163 0.992575
1.00034 1.00222 0.991972
1.00028 1.00232 0.991981
1.00014 1.00215 0.992315
1.00026 1.00213 0.992198
1.00023 1.0015 0.99283
1.00024 1.00162 0.992596
1.00017 1.00027 0.994131
1.00014 1.00027 0.994174
1.00017 0.99805 0.996335
1.00014 1.00023 0.994222
1.00018 0.997987 0.996361
1.00004 0.996605 0.999194
1.00018 0.997973 0.996404
1.00006 0.996598 0.99866
1.00006 0.996569 0.998158
1.0001 0.999713 0.994813
1.00014 0.999745 0.994718
1.00013 0.9977 0.99676
1.00017 0.999795 0.994602
1.0001 0.997782 0.996938
0.999946 0.996583 0.999271
1.00007 0.998011 0.996534
0.999879 0.996843 0.999226
0.999803 0.997082 0.999184
1.00514 0.994965 0.990355
1.00517 0.99499 0.990356
1.00493 0.995137 0.990264
1.00074 0.996407 0.988495
1.00514 0.994923 0.990424
1.00417 0.995363 0.992753
1.00491 0.996106 0.991189
0.997197 0.996634 0.973304
1.00131 0.996206 0.990223
1.00008 1.00111 0.993499
1.0001 1.00108 0.993495
0.999984 1.00218 0.992556
1.00006 1.00203 0.992611
1.00517 0.994926 0.990363
1.00504 0.99494 0.99048
1.00511 0.995369 0.989752
1.00232 1.00256 0.988247
1.00373 1.00188 0.985146
1.00498 0.997235 0.988333
1.00122 1.0024 0.990031
1.00009 1.00483 0.990151
1.00035 1.00403 0.989923
1.00013 1.00138 0.993141
1.00005 1.0037 0.990826
1.00006 1.00293 0.991739
1.00011 1.00113 0.993429
1.00014 1.00213 0.992282
1.0051 0.994937 0.990522
1.00006 1.00224 0.992382
1.00017 1.00233 0.992075
0.999916 1.00294 0.991862
1.00508 0.994884 0.990432
1.00502 0.995867 0.989147
1.00169 1.00262 0.989131
1.00431 0.998855 0.988244
0.999951 1.00401 0.990987
1.00011 1.0041 0.990327
1.00007 1.00441 0.990255
1.00024 1.00452 0.989884
1.00486 0.99482 0.991131
1.00509 0.995283 0.990199
1.00469 0.997113 0.989075
1.00187 1.00116 0.990378
0.999979 1.00337 0.991321
1.00002 1.00357 0.991066
0.999552 1.00457 0.990875
0.999719 1.00519 0.989911
1.00003 0.994944 0.950973
0.999763 1.0041 0.991259
1.00035 1.00432 0.989489
1.00452 0.994966 0.9918
1.00471 0.996523 0.989441
1.00433 1.00047 0.986058
1.00208 1.00398 0.986748
0.999729 0.997334 0.987952
0.999832 1.00446 0.990767
1.00413 0.995721 0.991802
1.00056 1.00433 0.989458
1.00272 1.00222 0.987313
1.00438 0.998149 0.987899
1.00151 0.995851 0.949787
0.996197 0.99677 0.971154
0.997615 1.00183 0.991067
0.999818 0.997404 0.918753
0.994729 0.998103 0.890499
0.999799 1.00368 0.991652
0.999888 0.995322 0.923504
0.995283 0.998252 0.900389
1.00274 0.99959 0.990686
1.00026 1.00404 0.9903
1.00264 1.00128 0.987756
0.997117 1.00328 0.991147
0.999994 0.997025 0.954695
0.99487 0.997445 0.969477
0.998476 0.998473 0.921873
0.99475 0.999467 0.898835
0.999568 1.00344 0.992065
0.999983 1.00274 0.99211
0.999952 1.00157 0.993606
1.00024 1.0015 0.992804
1.00035 1.00226 0.991891
1.00014 1.00267 0.991714
1.00018 1.0028 0.99166
1.00022 1.0024 0.991948
1.00026 1.0016 0.992583
1.00023 1.00283 0.991558
1.00031 1.00266 0.991579
1.00039 1.00222 0.991833
1.00015 1.0025 0.991887
1.0002 1.00293 0.991624
1.00006 1.00249 0.991959
1.00043 1.00266 0.991332
1.00042 1.00226 0.991791
1.00037 1.00219 0.991958
1.00028 1.00232 0.991982
1.00044 1.00231 0.991711
1.00013 1.00251 0.992018
1.00019 1.00224 0.992027
0.999795 1.00331 0.991732
1.00003 1.00233 0.992331
1.00015 1.00217 0.992313
1.00019 1.00148 0.992919
1.00025 1.00216 0.992134
1.00024 1.00151 0.992775
1.00021 1.00022 0.994112
1.00024 1.00163 0.992588
1.00017 1.00027 0.994132
1.00013 0.998076 0.996891
1.00014 1.00028 0.994172
1.00016 0.998039 0.996614
1.00009 0.996638 0.998071
1.00018 0.997997 0.99636
1.00004 0.996612 0.999191
1.0001 0.996602 0.998116
1.00011 1.00118 0.993386
1.00009 0.99973 0.994824
1.0001 0.999707 0.994813
1.00014 0.997652 0.996784
1.00014 0.999747 0.994717
1.00013 0.997677 0.996758
0.999991 0.996474 0.999283
1.00008 0.99779 0.997173
0.99996 0.996656 0.99876
0.999922 0.996892 0.998189
1.00054 0.996326 0.988618
1.00512 0.994931 0.990397
1.00407 0.99593 0.992367
0.99655 0.996431 0.97483
1.00106 0.996196 0.990467
1.00496 0.99561 0.990972
1.00361 0.996425 0.989882
0.997333 0.996516 0.977708
1.00004 0.995563 0.954405
0.999419 0.997941 0.92416
0.994663 0.998079 0.897403
0.999966 1.0021 0.992515
1.00008 1.00111 0.993498
1.00013 1.00105 0.99349
1 1.00219 0.992511
0.999964 1.00297 0.99187
1.00018 1.00256 0.99195
1.00008 1.00225 0.99239
1.00002 1.00212 0.992539
1.00512 0.9949 0.990508
1.00507 0.994883 0.990368
1.00505 0.99562 0.989164
1.00186 1.00231 0.989079
1.00416 0.99878 0.988451
1.00007 1.00451 0.990252
1.00053 1.00445 0.989841
1.00026 1.00412 0.99012
1.00014 1.00233 0.992203
0.999954 1.004 0.990939
1.00006 1.00231 0.992507
0.999939 1.00273 0.992107
1.00486 0.99486 0.991172
0.999974 1.00337 0.991405
1.00001 1.00355 0.99121
1.00504 0.995161 0.990099
1.00417 0.996945 0.9895
1.00194 1.001 0.990272
0.999753 1.00469 0.990569
0.99996 1.00494 0.989948
1.00299 0.997464 0.99176
1.00452 0.996104 0.990854
1.0033 0.997 0.990897
1.00103 1.00178 0.990736
0.999997 1.00394 0.990723
0.999727 1.00445 0.990676
0.999673 1.00523 0.990193
0.999918 0.99486 0.923939
1.00062 0.995064 0.958813
0.999729 1.00451 0.990897
1.00046 1.00428 0.989515
1.00418 0.995545 0.991784
1.00458 0.998225 0.98804
1.00293 1.00203 0.987312
1.00043 0.995267 0.954555
0.996663 0.99704 0.970497
0.997494 1.00163 0.990892
0.998877 0.997088 0.925799
0.994695 0.998099 0.882116
0.999745 1.00364 0.991674
0.999914 0.995818 0.9224
0.995314 0.99816 0.896311
1.00268 0.999462 0.990688
1.00017 1.00394 0.990397
1.00238 1.0013 0.988405
0.997486 1.00294 0.991756
1.00118 0.996968 0.949685
0.994889 0.99689 0.973117
0.998574 0.999145 0.92234
0.994942 0.999386 0.896763
0.999357 1.00301 0.993383
0.995412 0.997686 0.901444
0.995072 0.999447 0.91682
0.999946 1.00167 0.992604
0.999368 1.00406 0.992245
0.996495 1.00289 0.992427
0.994826 0.999343 0.973357
0.997992 0.998764 0.948059
0.995295 0.999911 0.927343
0.99477 0.997766 0.905965
0.999948 1.00292 0.992033
1.00001 1.00144 0.993557
0.999682 1.00048 0.994668
1.00026 1.00158 0.99259
1.00037 1.00222 0.991889
1.00031 1.00263 0.991603
1.00021 1.00288 0.991507
1.00013 1.00247 0.991947
1.00041 1.00228 0.991782
1.00021 1.00284 0.991594
1.00043 1.00268 0.991335
0.999888 1.00253 0.992122
0.998593 1.00333 0.993481
1.00022 1.00311 0.991357
1.00056 1.00256 0.991327
1.0004 1.00216 0.991945
1.0003 1.0023 0.991984
1.00043 1.00232 0.991706
1.00014 1.00251 0.992003
1.00021 1.00223 0.992075
0.999959 1.00284 0.991927
1.00026 1.00223 0.991926
1.00002 1.00239 0.992221
1.00017 1.00288 0.991583
0.9997 1.00489 0.989981
0.999559 1.00387 0.991378
0.999813 1.00334 0.991722
0.999931 1.00258 0.992245
1.00004 1.00234 0.992327
1.00013 1.00151 0.992957
1.00015 1.00219 0.992311
1.0002 1.00147 0.992923
1.00023 1.00016 0.994116
1.00025 1.00152 0.992721
1.00021 1.00021 0.994115
1.00011 0.998097 0.996898
1.00017 1.00027 0.994134
1.00014 0.99806 0.996614
1.00006 0.996657 0.998079
1.00017 0.998019 0.996334
1.00003 0.996645 0.999185
1.00004 0.996623 0.999188
1.00014 1.00129 0.993427
1.0001 0.999794 0.994742
1.00009 1.00119 0.993389
1.00015 0.997635 0.996782
1.00009 0.999724 0.994825
1.0001 0.999708 0.994813
1.00014 0.997646 0.996782
1.00002 0.996416 0.999286
1.00011 0.997666 0.997241
1.00001 0.996491 0.998791
0.99999 0.996648 0.998275
0.999855 0.99602 0.917526
0.995159 0.997444 0.89999
0.997704 0.996131 0.975375
1.00084 0.996061 0.990722
1.00501 0.994995 0.990757
0.996749 0.995839 0.979295
1.0037 0.995971 0.99014
1.00127 0.995865 0.954048
0.999825 0.997151 0.917252
0.994673 0.998048 0.889073
0.998304 0.996193 0.982631
0.99971 0.997639 0.955035
0.998418 0.998799 0.920624
0.994748 0.998955 0.897674
1.00008 1.00298 0.991602
0.999988 1.00209 0.992589
1.0001 1.00108 0.993496
1.00002 1.00216 0.992467
0.99996 1.00287 0.991954
1.0002 1.00287 0.991614
1.00016 1.00255 0.991945
1.00016 1.00248 0.99195
1.0001 1.00224 0.992313
0.999996 1.00219 0.992468
1.00484 0.994874 0.991223
1.00509 0.995073 0.990015
1.00359 0.996809 0.989932
1.00191 1.00096 0.990167
1.00021 1.00481 0.989983
0.999932 1.0048 0.990262
0.999978 1.00353 0.991354
0.999925 1.00337 0.991489
1.00313 0.996978 0.991974
0.999974 1.00402 0.990674
0.999724 1.00456 0.990557
1.00444 0.996057 0.990566
1.00284 0.996894 0.9918
1.00134 1.0019 0.990179
0.999889 1.00519 0.990062
1.00012 0.998551 0.993387
1.00192 0.997155 0.994382
0.999746 1.00375 0.990872
0.999884 1.0042 0.990601
0.999837 1.00463 0.990263
0.999672 1.00514 0.990167
0.994831 0.997574 0.914608
0.999909 0.994895 0.92687
1.00004 0.994945 0.950891
0.999617 1.00377 0.991696
1.00008 1.0038 0.990495
1.00264 0.999329 0.990694
1.00222 1.00135 0.989049
0.999882 0.995559 0.927371
0.999635 0.99692 0.949777
0.994891 0.996219 0.969574
0.99783 1.002 0.992305
0.998563 0.998475 0.914673
0.99523 0.998022 0.897377
0.994984 0.999291 0.901015
0.999117 1.00295 0.993388
0.995362 0.997005 0.906427
0.995272 0.999607 0.916234
1.00029 1.00169 0.992541
0.999024 1.0041 0.992237
0.996291 1.00069 0.99508
0.994838 0.99845 0.971637
0.997475 0.998842 0.955522
0.997276 0.999905 0.919627
0.994763 0.99774 0.910587
0.998141 1.00239 0.9957
0.995158 0.997258 0.927514
0.994628 0.997628 0.92896
0.996108 1.00246 0.99889
0.994848 1.00002 0.979689
0.995587 1.00001 0.95523
0.994813 0.999939 0.918191
0.994845 0.99609 0.907805
1.00005 1.00133 0.993508
0.999724 1.00052 0.99485
0.998379 1.00226 0.996182
1.00041 1.0023 0.991774
1.00044 1.0027 0.991338
1.00024 1.00273 0.991565
0.999758 1.00257 0.992286
1.0005 1.0026 0.991313
1.0002 1.0031 0.991366
0.998638 1.0032 0.993752
0.996643 1.00456 0.995846
0.998891 1.00403 0.992875
1.00039 1.00273 0.991473
1.00045 1.00231 0.991699
1.00015 1.0025 0.991988
1.00022 1.00225 0.992122
1.00025 1.00227 0.99194
0.99996 1.00288 0.991924
1.00007 1.00238 0.992231
1.00011 1.0026 0.992043
0.999614 1.0021 0.993155
1.00077 1.00116 0.992012
1.0002 1.00275 0.991707
0.999839 1.00407 0.990721
1.00089 1.00496 0.988236
0.999802 1.00449 0.990885
0.999557 1.00492 0.990354
0.999643 1.00385 0.991453
0.999802 1.00297 0.991912
0.999833 1.00337 0.991712
0.999973 1.00256 0.992239
1.00009 1.00164 0.992908
1.00008 1.00232 0.992322
1.00016 1.00151 0.992955
1.00023 1.00017 0.994116
1.00021 1.00146 0.992926
1.00024 1.00017 0.994118
1.00009 0.998116 0.99692
1.00021 1.00021 0.994118
1.00012 0.998084 0.996626
1.00001 0.996743 0.998088
1.00016 0.998036 0.996334
1.00004 0.996672 0.998631
1.00003 0.996656 0.999185
1.00015 1.0015 0.993003
1.00013 0.999878 0.99461
1.0001 1.00133 0.993271
1.00016 0.997658 0.996745
1.0001 0.999784 0.994745
1.00006 1.00123 0.99339
1.00003 0.996394 0.999285
1.00015 0.997634 0.996783
1.00009 0.999708 0.994827
1.00014 0.997641 0.996779
1.00002 0.996427 0.999286
0.999989 0.996484 0.999281
0.994988 0.996046 0.908301
0.999886 0.995568 0.921691
0.995126 0.999816 0.916165
0.995249 0.997979 0.897564
0.997384 0.99527 0.976278
1.00371 0.995984 0.99041
1.00059 0.996257 0.953294
0.999838 0.996946 0.924921
0.994689 0.99813 0.880694
0.998309 0.996662 0.981548
1.00127 0.99729 0.946443
0.99857 0.9991 0.921239
0.994763 0.999265 0.893236
0.995155 0.998156 0.977365
0.997924 0.999473 0.947925
0.995842 0.999802 0.915835
0.994786 0.99741 0.900267
1.00006 1.00354 0.991135
1.00005 1.00296 0.9917
0.999969 1.00214 0.992661
0.999944 1.00277 0.992037
1.00031 1.00308 0.991086
1.00019 1.00281 0.991681
1.00012 1.00256 0.99194
1.00031 1.00245 0.991853
1.00021 1.00242 0.992037
1.00011 1.00223 0.992235
1.0034 0.996673 0.992175
1.00428 0.996001 0.990281
1.00248 0.996835 0.992693
1.0017 1.00183 0.989633
1.00003 1.00514 0.989932
0.999774 1.00465 0.990438
0.999987 1.00404 0.990625
0.999968 1.00418 0.990568
1.00042 0.998649 0.993678
0.999913 1.00467 0.990271
0.999809 1.00515 0.99017
1.00203 0.997077 0.993975
1.00027 1.00356 0.990721
0.998658 0.997091 0.995122
0.998536 0.998576 0.999221
0.999253 1.00472 0.991243
0.999975 1.00463 0.990094
0.999707 1.00507 0.990116
0.99476 0.997042 0.933167
0.994815 0.997191 0.913139
0.999889 0.994878 0.919888
0.998906 1.00287 0.99339
0.998764 1.00411 0.992215
1.00054 1.00168 0.992488
0.995396 0.996011 0.907804
0.997906 0.998755 0.948591
0.994842 0.997811 0.972335
0.996374 0.999755 0.997945
0.996209 0.999731 0.927177
0.995657 0.999778 0.915656
0.99479 0.997697 0.91069
0.998132 1.00241 0.995904
0.99523 0.996181 0.930325
0.994629 0.997578 0.928879
0.996349 1.00295 0.998067
0.994854 0.99992 0.980727
0.996169 0.999982 0.948293
0.99482 0.996649 0.909108
0.994855 0.999961 0.923762
0.996572 1.0037 0.997967
0.994452 0.994634 0.949938
0.994684 0.99673 0.931961
0.994785 0.997486 0.900535
0.994934 1.00161 0.993804
0.995411 0.999855 0.957936
0.994906 1.00001 0.922145
0.999833 1.00059 0.995034
0.998538 1.00195 0.995945
0.995995 1.00449 0.99796
1.00046 1.00264 0.991298
1.00015 1.00307 0.991373
0.998647 1.00311 0.994025
1.0003 1.00265 0.991548
0.998916 1.00389 0.992888
0.996902 1.00431 0.995662
0.996609 1.00503 0.996323
0.99913 1.00304 0.993195
1.00024 1.00231 0.991955
0.999959 1.00291 0.991921
1.00013 1.00237 0.992241
0.999736 1.00216 0.993072
1.00011 1.00251 0.992051
0.999738 1.00223 0.992975
1.00025 1.00156 0.992601
1.00058 1.00307 0.990335
1.00025 1.00261 0.991832
1.00018 1.00398 0.990566
1.00114 1.0041 0.988078
1.00122 1.00446 0.987841
0.999974 1.00484 0.990042
1.00073 1.00486 0.988384
0.999881 1.00358 0.991432
0.999738 1.00455 0.990809
0.999405 1.00493 0.990727
0.999728 1.00384 0.991529
0.999839 1.00292 0.991997
1.00006 1.00184 0.992771
1.00001 1.00254 0.992234
1.00012 1.00163 0.992908
1.0002 1.00027 0.994081
1.00018 1.0015 0.992953
1.00024 1.00017 0.994116
1.00004 0.998159 0.996948
1.00025 1.00016 0.99412
1.00009 0.998105 0.996652
0.999943 0.996839 0.998112
1.00014 0.998048 0.99635
0.999988 0.996754 0.998635
0.999996 0.99672 0.999187
1.00024 1.00166 0.992516
1.00017 1.00006 0.994158
1.00016 1.00151 0.993002
1.00016 0.997742 0.996647
1.00013 0.999887 0.99449
1.00008 1.00134 0.993115
1.00003 0.99643 0.999275
1.00015 0.997657 0.996749
1.0001 0.999771 0.994748
1.00003 0.9964 0.999286
1.00015 0.997632 0.996784
1.00002 0.996433 0.999285
0.994924 0.995638 0.931007
0.99498 0.996334 0.911614
0.999871 0.996034 0.922637
1.00039 1.00246 0.991597
0.994674 0.99823 0.932307
0.995287 0.999705 0.915687
0.995311 0.998114 0.900599
0.998312 0.996976 0.980079
0.999681 0.997692 0.954743
0.998399 0.998726 0.913159
0.99475 0.999535 0.895326
0.995897 0.998076 0.973438
0.997459 0.999044 0.954785
0.99737 0.9999 0.919261
0.994771 0.99783 0.90177
0.994879 0.998492 0.969672
0.995381 1.00044 0.953981
0.994852 0.999934 0.923345
0.99483 0.996502 0.907624
1.0002 1.00381 0.990584
1.00007 1.00358 0.99105
1.00007 1.00293 0.991798
1.00034 1.00296 0.991145
1.00031 1.00304 0.991197
1.00017 1.00277 0.991748
1.00032 1.00245 0.991875
1.00024 1.00238 0.992123
1.00061 0.998875 0.993944
1.00212 0.997062 0.993546
1.00001 1.00419 0.990536
1.00078 1.00342 0.99056
1 1.00515 0.990172
0.999903 1.00472 0.990277
0.999998 1.0046 0.990156
0.99846 0.997933 0.995603
0.999832 1.0051 0.990052
0.99975 1.00391 0.991307
0.998631 0.998276 0.999225
0.99997 1.00446 0.990235
0.997031 0.998533 0.995721
0.996777 0.999596 1.00166
0.999499 1.00505 0.990675
0.999986 1.00495 0.990075
0.994486 0.995203 0.954094
0.994743 0.997266 0.933772
0.994791 0.997004 0.911682
0.998018 1.00244 0.996128
0.99632 1.00306 0.997218
0.995227 0.995447 0.933086
0.995662 1 0.95587
0.994859 0.998994 0.977336
0.99484 0.999944 0.922869
0.994643 0.997537 0.9288
0.994799 0.997131 0.91039
0.996651 1.00337 0.997836
0.994493 0.994824 0.94985
0.994663 0.996498 0.936398
0.994943 1.00258 0.996937
0.994782 0.997889 0.901961
0.995127 0.999346 0.953786
0.995195 1 0.925821
0.995419 1.00456 0.998149
0.994529 0.994667 0.954755
0.994663 0.998323 0.932506
0.994759 0.999077 0.897921
0.9958 0.99995 0.922533
0.994958 0.998725 0.98791
0.995741 1.00094 0.94627
0.998615 1.00141 0.995694
0.996097 1.00464 0.997518
0.995328 1.00471 1.00004
1.00023 1.00256 0.991624
0.998922 1.00384 0.992899
0.997145 1.00379 0.995472
0.999209 1.00303 0.993155
0.996642 1.00418 0.996283
0.99781 1.00398 0.995059
0.999874 1.00221 0.992988
1.00007 1.00245 0.99206
0.999889 1.00231 0.992956
0.999426 1.0041 0.991232
0.999687 1.00194 0.993185
1.00038 1.00293 0.990706
1.0013 1.00412 0.988245
1.00317 1.00299 0.985955
1.00052 1.00389 0.990409
1.00135 1.00421 0.987818
1.00208 1.00339 0.988149
1.00016 1.00491 0.989113
1.00126 1.00434 0.988077
0.999776 1.00438 0.990723
1.00003 1.00482 0.990013
1.00056 1.0048 0.988532
1.00002 1.00226 0.9924
0.999842 1.00357 0.991416
0.999677 1.00463 0.990731
0.999876 1.00288 0.992082
1.00008 1.00183 0.992764
1.00015 1.00044 0.993989
1.00014 1.00162 0.992907
1.00021 1.00026 0.99408
0.999988 0.998279 0.996414
1.00025 1.00017 0.994115
1.00006 0.998154 0.996411
0.999816 0.996941 0.999209
1.00011 0.99808 0.996378
0.999927 0.996845 0.998648
0.99995 0.996795 0.99919
1.00028 1.00177 0.992325
1.00023 1.00027 0.993833
1.00024 1.00167 0.992602
1.00016 0.997881 0.996502
1.00018 1.00007 0.994118
1.00016 1.00152 0.993001
1.00001 0.996524 0.999249
1.00016 0.99774 0.996655
1.00013 0.9999 0.994371
1.00003 0.996418 0.999278
1.00015 0.997656 0.996753
1.00003 0.996405 0.999286
0.994547 0.994908 0.950522
0.994919 0.99665 0.930799
0.994968 0.997179 0.911777
1.00036 1.00247 0.991673
1.00036 1.00238 0.991671
1.0004 1.00277 0.991352
0.994704 0.996517 0.931566
0.994645 0.997758 0.932232
0.99551 0.999973 0.915208
0.995446 0.997754 0.975775
0.998367 0.999786 0.946959
0.995201 0.999904 0.927153
0.994793 0.998257 0.898744
0.995105 0.998012 0.972737
0.996398 1.00001 0.951726
0.994805 0.999959 0.924743
0.99481 0.996728 0.908822
0.99489 0.998418 0.968688
0.995556 1.00001 0.955334
0.994891 0.99999 0.922646
0.994779 0.998085 0.905605
1.00035 1.00351 0.99061
1.0002 1.00378 0.990588
1.0001 1.00359 0.990965
1.00035 1.00299 0.991125
1.0003 1.00301 0.991309
1.00035 1.00243 0.991898
0.998185 0.998426 0.996069
0.998409 0.998146 0.999242
1.00003 1.00459 0.990219
1.00023 1.00306 0.991373
0.999942 1.00512 0.989989
1.00008 1.00446 0.990092
0.999775 1.00496 0.990106
0.996889 0.998012 0.996094
0.999528 1.00449 0.991268
0.996442 1.00045 1.00111
1.00003 1.00447 0.99051
0.995603 0.997623 0.996622
0.996854 1.00266 0.99777
0.999193 1.00518 0.991485
0.994443 0.99523 0.960201
0.994437 0.995166 0.955756
0.994725 0.997454 0.934355
0.996868 1.00329 0.997703
0.995195 1.00252 0.99458
0.994488 0.995016 0.94976
0.994954 0.999249 0.957666
0.994888 0.999993 0.918931
0.99463 0.996307 0.940838
0.994795 0.998347 0.899035
0.995392 1.00486 0.99845
0.994513 0.994684 0.956435
0.994647 0.99784 0.932437
0.9949 0.998934 0.983627
0.994755 0.999357 0.893636
0.994825 0.999975 0.923865
0.99548 1.00073 0.95442
0.994839 1.00355 0.99893
0.994563 0.994727 0.950857
0.99523 0.999665 0.91661
0.994657 0.998083 0.898286
0.996109 0.998956 0.915909
0.996125 1.00001 0.95419
0.995714 0.999893 0.977125
0.9964 1.00471 0.997137
0.995377 1.00358 1.00001
0.996575 1.00324 0.998427
0.999285 1.00298 0.993115
0.99666 1.00362 0.996257
0.997228 1.00418 0.995344
0.999413 1.00299 0.993181
1.00004 1.00246 0.992938
1.00024 1.0039 0.990842
1.00107 1.00485 0.98789
1.00017 1.00281 0.991083
1.00142 1.00411 0.988032
1.00337 1.00416 0.985164
1.00469 1.00246 0.98385
1.00271 1.00263 0.986778
1.00311 1.00329 0.985812
1.00155 1.00429 0.987558
1.00159 1.00364 0.988695
1.00177 1.00308 0.988664
0.99991 1.00496 0.989608
1.00028 1.00492 0.989223
1.0013 1.00421 0.988316
0.999948 1.0032 0.991582
0.999879 1.00429 0.990734
1.00006 1.0048 0.989983
1.00009 1.00074 0.993787
1.00006 1.00224 0.992388
0.999806 1.00356 0.9914
1.00011 1.00182 0.992757
1.00016 1.00044 0.993987
0.999903 0.998464 0.996377
1.00022 1.00026 0.994079
0.999991 0.998276 0.996412
0.99975 0.9971 0.999201
1.00006 0.998142 0.996408
0.999846 0.996967 0.998662
0.999889 0.996891 0.999197
1.00034 1.00182 0.992314
1.00029 1.00044 0.993756
1.0003 1.00177 0.992373
1.00016 0.998054 0.996337
1.00023 1.00028 0.993911
1.00025 1.00169 0.992687
0.999983 0.996664 0.999216
1.00016 0.997876 0.996512
1.00018 1.00009 0.994079
1.00002 0.996503 0.999257
1.00016 0.99774 0.996662
1.00004 0.996411 0.999282
0.994529 0.994593 0.954533
0.994497 0.994682 0.950433
0.994919 0.996923 0.930693
1.00027 1.00251 0.991683
1.0002 1.003 0.991446
1.00032 1.00248 0.991749
1.00034 1.00242 0.991679
1.00035 1.00281 0.991323
1.00028 1.00273 0.991535
1.0005 1.00283 0.991137
0.994658 0.997503 0.928412
0.994678 0.996585 0.936054
0.994615 0.997265 0.932159
0.994789 0.99692 0.910013
0.994861 0.998295 0.970005
0.995262 1.00002 0.950334
0.994851 0.999957 0.928242
0.994894 0.998637 0.968064
0.995105 1.00003 0.949098
0.995107 0.999983 0.926883
0.994764 0.99783 0.910315
0.995663 0.997033 0.971975
0.995022 1.00065 0.948243
0.994814 0.999947 0.918787
0.994745 0.999498 0.898243
0.999978 1.00364 0.991127
1.00033 1.0035 0.99061
1.00019 1.00377 0.990591
1.00037 1.003 0.991105
0.996924 0.997904 0.996479
0.99636 1.00115 1.00056
1.00009 1.00447 0.989949
0.999772 1.00495 0.990138
0.999733 1.004 0.991863
0.999895 1.00435 0.990536
0.999062 1.00519 0.991468
0.995507 0.998753 0.994051
0.996402 1.00363 0.998075
0.998598 1.00466 0.992344
0.995322 0.999063 0.992373
0.997738 1.00474 0.996006
0.994504 0.994996 0.95431
0.994433 0.994888 0.962579
0.994401 0.994857 0.957415
0.995222 1.00513 0.998683
0.994962 0.997491 0.988891
0.994517 0.994637 0.958132
0.996728 1.00095 0.946838
0.995062 0.999961 0.927231
0.994631 0.997337 0.932365
0.994729 0.999546 0.895696
0.994888 1.00209 0.999324
0.994514 0.994711 0.950782
0.995458 0.999527 0.916124
0.994884 1.00066 0.978715
0.994666 0.998025 0.889954
0.997364 0.999902 0.918905
0.994977 1.00001 0.948493
0.995329 1.00392 0.993436
0.995162 0.995215 0.931697
0.99521 0.997379 0.900858
0.998683 0.99761 0.921839
0.995491 0.999973 0.954635
0.994897 0.999509 0.97173
0.995449 1.00231 0.999878
0.995961 1.00406 0.998427
0.998417 1.00003 0.99793
0.996659 1.00438 0.995628
0.998485 1.00323 0.993612
1.00279 1.00024 0.989849
1.00107 1.00362 0.99045
1.00139 1.00481 0.987752
1.00276 1.00351 0.985544
1.00156 1.00414 0.98782
1.0033 1.00422 0.984943
1.00434 1.00304 0.983822
1.00505 1.00112 0.984331
1.0049 1.00261 0.983922
1.00481 1.00247 0.983639
1.00222 1.0029 0.987343
1.00269 1.00272 0.987011
1.00307 1.00364 0.985667
1.00108 1.00445 0.988489
1.00148 1.00358 0.988721
1.00145 1.00279 0.989174
1.00003 1.00428 0.990381
0.999978 1.00491 0.989731
1.00041 1.00492 0.989335
1 1.0014 0.993254
1.00004 1.00308 0.991579
0.999968 1.00421 0.990744
0.999814 0.998677 0.996314
1.0001 1.00075 0.993775
1.0001 1.00223 0.992377
1.00017 1.00043 0.993985
0.999904 0.998472 0.996372
0.999658 0.997289 0.999192
0.999995 0.998271 0.99641
0.99974 0.997133 0.999199
0.999815 0.997002 0.999202
1.00027 1.0026 0.991662
1.00039 1.00191 0.992179
1.00033 1.00061 0.993513
1.00035 1.00184 0.992303
1.00013 0.998268 0.996164
1.00028 1.00045 0.993754
1.00028 1.0018 0.99242
0.999941 0.996837 0.999177
1.00015 0.998053 0.996348
1.00024 1.00028 0.993989
0.999989 0.996633 0.999226
1.00016 0.997873 0.996522
1.00002 0.996476 0.999266
0.994491 0.994617 0.949691
0.994526 0.99465 0.956249
0.994449 0.994733 0.950335
1.00032 1.00246 0.991707
1.00015 1.00305 0.991408
1.00006 1.00335 0.991204
1.00013 1.00295 0.991433
1.0002 1.00342 0.991102
1.00032 1.00245 0.991687
1.0003 1.00287 0.991293
1.00028 1.00271 0.991531
1.00043 1.00287 0.991175
1.00015 1.00303 0.991562
0.995112 0.99925 0.916226
0.994654 0.997678 0.928358
0.99466 0.996684 0.940537
0.994771 0.997563 0.910425
0.994899 0.99997 0.919446
0.994895 0.998888 0.966694
0.994954 1.00026 0.954873
0.994993 0.997342 0.968695
0.99532 1.00034 0.954994
0.994831 0.99997 0.924835
0.994958 0.999315 0.896041
0.995113 0.995406 0.973467
0.994931 1.00042 0.955883
0.995668 0.999883 0.926619
0.994915 0.998176 0.897031
0.99897 1.00275 0.993607
0.999959 1.00376 0.991163
1.00031 1.00356 0.99061
0.995325 0.999454 0.991438
0.995916 1.00442 0.998351
0.999856 1.0043 0.990563
0.998624 1.00521 0.991451
0.998653 1.00471 0.992391
0.997111 1.00439 0.995956
0.995007 0.999399 0.992648
0.996753 1.00309 0.996727
0.995939 1.00058 0.992385
0.994912 0.9969 0.93295
0.994462 0.994966 0.955933
0.994404 0.99475 0.964962
0.994923 1.00058 0.999765
0.9949 1.00084 0.974464
0.994468 0.994727 0.950695
0.996862 1.00012 0.952142
0.995256 0.999909 0.926732
0.995629 0.99987 0.915653
0.994683 0.998138 0.881563
0.995353 1.00399 0.993812
0.995092 0.996072 0.931488
0.995351 0.997762 0.898438
0.994902 0.999488 0.97279
0.998575 0.99892 0.922113
0.996357 0.999975 0.950607
0.996115 1.00116 0.991394
0.995055 0.995761 0.909242
0.999322 0.997601 0.925059
0.997865 0.998543 0.948502
0.994848 0.997962 0.974017
0.995508 1.00477 0.998402
0.998224 1.00021 0.997874
1.00303 0.998524 0.992781
0.9976 1.0034 0.993998
1.00179 1.00067 0.99035
1.00392 0.998546 0.988368
1.0017 1.00472 0.987613
1.00285 1.00356 0.985613
1.0044 1.00075 0.985718
1.00325 1.00424 0.984724
1.00425 1.00289 0.983898
1.00498 1.00016 0.985362
1.0051 0.999422 0.985886
1.0051 1.0016 0.983737
1.00503 1.00107 0.984381
1.00432 1.00226 0.984984
1.00474 1.0025 0.983789
1.0049 1.00246 0.98343
1.00186 1.0039 0.987534
1.00216 1.00288 0.987642
1.00268 1.00283 0.987245
1.00068 1.00428 0.989263
1.00095 1.00443 0.988596
1.00136 1.00351 0.988745
0.999947 1.00254 0.992179
1.00012 1.00415 0.990388
1.00005 1.00485 0.989853
0.99972 0.999028 0.996668
1.00003 1.00142 0.993228
1.00013 1.00297 0.991576
0.999577 0.997527 0.998065
0.999812 0.998724 0.996562
1.00011 1.00077 0.993762
0.999904 0.998482 0.996368
0.99965 0.997331 0.999187
0.999731 0.997165 0.999197
1.00019 1.00296 0.99139
1.00037 1.00212 0.992
1.00024 1.00267 0.991629
1.00033 1.00079 0.993325
1.00035 1.00196 0.992174
1.00009 0.998487 0.996012
1.00032 1.00062 0.993512
1.00037 1.00183 0.992292
0.999887 0.997047 0.999135
1.00013 0.998262 0.996174
1.00028 1.00046 0.993752
0.999947 0.996803 0.999188
1.00015 0.998051 0.996358
0.999994 0.996604 0.999236
0.99547 0.994956 0.934012
0.994512 0.994722 0.94961
0.994531 0.994627 0.957976
1.0002 1.00316 0.991233
1.00032 1.00248 0.991731
1.00011 1.0031 0.99137
1.00019 1.00296 0.991466
1.00016 1.00328 0.991249
1.00013 1.00341 0.991123
1.00014 1.00376 0.990742
0.999951 1.00357 0.991032
1.00034 1.00266 0.991526
1.00034 1.00289 0.991214
1.0001 1.00308 0.991511
0.999471 1.00346 0.992636
0.99527 0.998543 0.899405
0.995475 0.999423 0.915634
0.994647 0.997864 0.928304
0.995218 0.999099 0.900336
0.994909 0.999949 0.924482
0.994956 1.00065 0.948249
0.995684 0.997366 0.966496
0.995261 0.995596 0.975233
0.994766 0.998152 0.889077
0.995013 1.00002 0.952049
0.997302 0.99985 0.918905
0.994889 0.996393 0.976351
0.995646 1.00003 0.95621
0.999274 0.99772 0.91899
0.998904 1.00126 0.995443
0.999188 1.00267 0.993578
0.99993 1.00386 0.991199
0.994864 0.999572 0.992899
0.996773 1.00402 0.995907
0.998753 1.00467 0.992437
0.997912 1.00289 0.996497
0.995557 1.00077 0.992506
0.99718 1.00065 0.993643
0.994885 0.998776 0.908422
0.994894 0.995943 0.937226
0.994402 0.994857 0.957558
0.995253 1.00454 0.994202
0.9949 0.999342 0.973354
0.994975 0.996557 0.931361
0.99528 0.999998 0.949606
0.998674 0.997516 0.91426
0.995592 0.997648 0.901448
0.996274 1.00158 0.991416
0.99512 0.995936 0.912464
0.999837 0.99672 0.918258
0.994867 0.998122 0.970031
0.997521 0.998608 0.95524
0.997983 0.999336 0.993607
0.99986 0.995808 0.918135
0.999608 0.997883 0.954813
0.994876 0.997342 0.969554
0.997982 1.0006 0.997889
1.00222 0.997801 0.993386
1.00396 0.998429 0.990052
1.00084 1.00108 0.990852
1.00361 0.999188 0.988293
1.00473 0.997804 0.987872
1.0029 1.00356 0.985681
1.00421 1.00086 0.985708
1.00493 0.998187 0.987378
1.00414 1.00277 0.983973
1.00499 1.00004 0.985362
1.00509 0.997755 0.98756
1.00513 0.998006 0.987276
1.00512 1.00022 0.985135
1.0051 0.999354 0.985936
1.00508 1.001 0.984409
1.00508 1.00153 0.983917
1.005 1.00101 0.98443
1.00321 1.00293 0.98606
1.00397 1.00227 0.985102
1.00457 1.00237 0.983654
1.00158 1.00365 0.988269
1.00193 1.00383 0.987512
1.00211 1.00283 0.98794
1.00028 1.00324 0.990943
1.00073 1.00423 0.98927
1.00082 1.00439 0.988705
0.999657 0.999621 0.995596
1.00006 1.00243 0.99216
1.00022 1.00401 0.990395
0.999467 0.99776 0.999158
0.999713 0.999107 0.996077
1.00006 1.00142 0.993201
0.999568 0.997526 0.999171
0.999803 0.998757 0.99628
0.999643 0.997376 0.999182
1.00035 1.00297 0.991202
1.00023 1.00295 0.991375
1.00035 1.00242 0.991727
1.0003 1.00102 0.993161
1.00033 1.00215 0.992
1.00024 1.00267 0.991596
1.00003 0.998691 0.995909
1.00032 1.0008 0.993327
1.00033 1.00199 0.992168
0.999826 0.997254 0.999099
1.00009 0.998479 0.99602
1.00031 1.00064 0.993511
0.999894 0.997002 0.999148
1.00013 0.998257 0.996184
0.999954 0.996763 0.9992
0.995336 0.997744 0.901796
0.995278 0.995107 0.933828
0.994531 0.994837 0.949527
1.00009 1.00332 0.991195
1.00054 1.00331 0.990836
1.00007 1.00367 0.990899
1.00021 1.00298 0.991499
1.00024 1.00319 0.991293
1.00001 1.00345 0.991143
1.00007 1.00352 0.991017
1.0001 1.00379 0.990758
1.00002 1.00424 0.99053
0.999998 1.0013 0.993114
1.00018 1.00298 0.99146
0.999545 1.00317 0.99248
0.999815 0.996912 0.915116
0.995217 0.998533 0.895154
0.995721 0.99963 0.915074
0.994682 0.998157 0.88104
0.996717 0.998701 0.926247
0.994896 1.00004 0.95179
0.995491 0.995319 0.972802
0.9949 0.996716 0.97461
0.998567 0.998871 0.921121
0.996271 0.999986 0.95002
0.995282 0.998229 0.975054
0.998977 0.998319 0.948291
1.00196 0.998716 0.992978
0.999126 1.0012 0.995193
0.999352 1.00257 0.993561
0.994996 1.0011 0.992598
0.998731 1.00272 0.996256
0.997756 1.00087 0.992972
1.00003 0.999345 0.989867
0.999924 0.994851 0.923812
0.994923 0.997819 0.909871
0.994801 0.995059 0.941427
0.996424 1.00168 0.991551
0.994872 0.99821 0.968595
0.995233 0.996489 0.912602
0.998393 0.998128 0.94776
0.999839 0.997303 0.925913
0.997806 0.999156 0.991705
0.999894 0.995502 0.922304
1.00131 0.99708 0.946765
0.994894 0.997006 0.972787
0.999099 0.996376 0.993282
1.00005 0.996281 0.95429
0.995982 0.997332 0.975165
1.00145 0.996968 0.993962
1.00379 0.997635 0.990015
1.00497 0.99698 0.989156
1.00317 0.999831 0.988223
1.00451 0.997929 0.987869
1.00482 0.996784 0.98873
1.00406 1.00102 0.9857
1.00481 0.998292 0.98733
1.00507 0.996087 0.989064
1.00499 0.999931 0.985362
1.00509 0.997705 0.987557
1.00512 0.996366 0.988926
1.00511 0.997169 0.988331
1.00513 0.997856 0.987452
1.00516 0.998846 0.986581
1.00515 1.00031 0.985169
1.00512 1.00023 0.985156
1.0051 0.999286 0.985987
1.00458 1.00117 0.985195
1.00499 1.00102 0.984513
1.00507 1.00142 0.984096
1.0025 1.00326 0.987037
1.00324 1.00291 0.986038
1.00362 1.00233 0.985221
1.00085 1.00313 0.990035
1.00166 1.00361 0.988244
1.00199 1.00377 0.98749
0.999724 1.00038 0.994694
1.00037 1.0031 0.990945
1.0008 1.00413 0.989277
0.999473 0.998017 0.999057
0.999658 0.999717 0.995551
1.00015 1.00235 0.992142
0.999499 0.997783 0.998569
0.999705 0.999168 0.996056
0.99957 0.99759 0.999159
1.00048 1.00294 0.990996
1.00023 1.00307 0.991218
1.00026 1.00284 0.99141
1.00029 1.00294 0.99136
1.0003 1.00247 0.991727
1.00024 1.00133 0.992936
0.999951 0.9989 0.995848
1.00029 1.00101 0.993166
1.00028 1.00221 0.992
0.999759 0.997438 0.999075
1.00003 0.998684 0.995915
1.00032 1.00081 0.993328
0.999832 0.997217 0.99911
1.00009 0.998475 0.996028
0.999901 0.996961 0.99916
0.99987 0.995238 0.923596
0.995379 0.997935 0.903041
0.995236 0.99522 0.933633
0.999977 1.0035 0.991157
1 1.0039 0.990766
1.00034 1.0033 0.991027
1.00121 1.00344 0.989405
1.00005 1.00426 0.990482
1.00015 1.00353 0.991002
1.00008 1.0038 0.990774
0.999939 1.00408 0.990705
1.00021 1.00375 0.989734
1.00073 1.00105 0.992408
1.0041 0.999121 0.988275
0.999823 1.00143 0.993423
0.999725 1.00284 0.99232
0.99988 0.997352 0.953766
0.999773 0.99731 0.918235
0.995199 0.998297 0.896417
0.999108 0.998756 0.912744
0.995843 0.999935 0.953545
0.994908 0.996593 0.976614
0.995031 0.998158 0.97715
0.997442 0.998505 0.956593
0.996266 0.998722 0.976016
1.00374 0.996509 0.991487
1.00144 0.999036 0.993057
0.999359 1.00119 0.994932
0.998354 1.0009 0.992357
1.00126 0.999933 0.98816
1.00002 0.995108 0.950911
0.999912 0.994887 0.926978
0.995049 0.996835 0.911406
0.997526 0.999121 0.989771
0.994862 0.99688 0.96984
0.999875 0.995894 0.923217
0.999906 0.99794 0.954647
0.998627 0.99776 0.993639
1.00133 0.996146 0.953564
0.996205 0.9971 0.972018
1.001 0.997576 0.991745
0.999222 0.996186 0.980321
1.0036 0.996852 0.990015
1.00496 0.996405 0.989079
1.00502 0.995655 0.989952
1.00433 0.998118 0.987865
1.00474 0.996822 0.988698
1.00508 0.995292 0.989927
1.00467 0.998402 0.987283
1.00507 0.996144 0.989042
1.00512 0.995232 0.989933
1.0051 0.997656 0.987555
1.00512 0.996375 0.988886
1.0051 0.996225 0.989313
1.00512 0.996967 0.988462
1.00514 0.997875 0.987619
1.00512 0.997707 0.987629
1.00516 0.998866 0.986564
1.00516 0.999504 0.98594
1.00503 1.00014 0.985467
1.00515 1.00037 0.985135
1.00513 1.00024 0.985178
1.00374 1.00187 0.986245
1.00455 1.0012 0.985222
1.00487 1.00106 0.984618
1.00148 1.00284 0.989166
1.00255 1.0032 0.987023
1.00325 1.0029 0.986015
0.999957 1.00091 0.993731
1.00091 1.00307 0.990029
1.00169 1.00361 0.98822
0.999525 0.998415 0.998865
0.999758 1.00041 0.994665
1.00048 1.00295 0.990949
0.999511 0.998087 0.999003
0.999663 0.999807 0.995504
0.999533 0.997818 0.9991
1.00128 1.0031 0.9894
1.00052 1.00284 0.990984
1.00033 1.00306 0.990977
1.00012 1.00313 0.991233
1.00023 1.0029 0.991362
1.0002 1.0018 0.992529
1.00026 1.00251 0.991727
1.00023 1.00133 0.992945
0.999859 0.999147 0.995771
0.999689 0.997607 0.99906
0.999955 0.99888 0.995854
1.00028 1.001 0.993172
0.999764 0.997418 0.999082
1.00003 0.99868 0.995921
0.999838 0.997175 0.99912
1.0007 0.995056 0.957118
0.999888 0.995785 0.922322
0.995262 0.998336 0.900603
0.999937 1.00413 0.990633
1.00017 1.00323 0.991217
1.00012 1.0042 0.990525
1.0011 1.0034 0.989506
1.00212 1.00388 0.987397
1.00039 1.00393 0.989758
0.99985 1.00395 0.990879
1.00064 1.00381 0.989354
1.00058 1.00144 0.992225
1.00223 1.00097 0.989018
1.0042 0.998604 0.989295
1.00455 0.997303 0.988918
1.00358 0.998979 0.988994
0.999457 1.00177 0.993735
0.9958 0.997421 0.975393
1.0004 0.996551 0.95209
0.998892 0.997491 0.925667
0.998459 0.999012 0.948207
0.994869 0.998369 0.978459
0.996434 0.998593 0.980405
1.00042 0.998322 0.992247
1.00378 0.996273 0.991682
1.00122 0.999255 0.993139
1.00271 1.00045 0.986386
0.99731 0.996996 0.97643
1.00047 0.995209 0.958829
0.999895 0.994866 0.919887
0.998289 0.998622 0.993894
0.996178 0.996546 0.974116
1.00063 0.99642 0.952636
1.00096 0.997666 0.991879
0.998657 0.996434 0.979375
1.00359 0.99695 0.99108
1.00349 0.997247 0.988959
1.0049 0.99585 0.988979
1.00499 0.995561 0.989904
1.0051 0.994867 0.99046
1.00469 0.99683 0.988665
1.00507 0.99527 0.98989
1.00508 0.994998 0.990389
1.00506 0.99619 0.989018
1.00513 0.995321 0.989903
1.00511 0.995698 0.989832
1.00512 0.996384 0.988847
1.0051 0.99621 0.989215
1.00512 0.997024 0.988396
1.00512 0.996766 0.988592
1.00514 0.997746 0.987779
1.00517 0.998953 0.986539
1.00515 0.998886 0.986547
1.00516 0.999574 0.985905
1.0051 0.999765 0.9859
1.00449 1.00032 0.98618
1.00505 1.00023 0.985476
1.00514 1.00043 0.985101
1.00244 1.00198 0.988346
1.00368 1.00186 0.986266
1.00454 1.00122 0.985251
1.00018 1.00136 0.992863
1.00152 1.00286 0.989152
1.00259 1.00314 0.987009
0.999633 0.998897 0.998585
1.00002 1.00089 0.99372
1.00098 1.00301 0.990021
0.999588 0.998522 0.998767
0.999785 1.00046 0.994637
0.999562 0.998158 0.998934
1.00194 1.00366 0.987665
1.00135 1.00311 0.98943
1.00089 1.00312 0.989995
1.00052 1.0028 0.990973
1.00039 1.00304 0.990893
1.00032 1.00222 0.991932
1.00019 1.00296 0.991314
1.00019 1.0018 0.992536
0.999774 0.999503 0.995569
1.00022 1.00132 0.992953
0.999867 0.999107 0.995782
0.999628 0.997772 0.999037
0.999694 0.997588 0.999064
0.999958 0.99886 0.995861
0.999768 0.997388 0.999089
0.996675 0.996547 0.977047
1.00068 0.995244 0.949839
0.999874 0.994982 0.927481
1.00392 1.0024 0.985545
1.0002 1.00415 0.990568
1.001 1.00337 0.989609
1.00058 1.00397 0.989607
1.00197 1.00389 0.987372
1.00225 1.00175 0.988635
1.00105 1.00386 0.988976
1.00044 1.00178 0.992046
1.00249 1.00091 0.989141
1.00421 0.998415 0.98894
1.00479 0.99791 0.987697
1.0042 0.996057 0.990919
1.00446 0.997159 0.988645
1.00298 0.998753 0.989713
0.999964 0.998149 0.993605
0.996012 0.997548 0.973721
1.00016 0.996477 0.950951
0.996636 0.998208 0.97817
1.00049 0.997392 0.99438
1.00332 0.996167 0.991854
1.00146 0.996505 0.98891
0.99682 0.995916 0.978324
1.00003 0.995013 0.951075
1.00067 0.998183 0.99205
0.998595 0.99682 0.978079
1.00337 0.996517 0.991335
1.0034 0.996838 0.98918
1.00479 0.994911 0.991058
1.00461 0.997024 0.990747
1.00501 0.995451 0.98986
1.0051 0.9949 0.990365
1.00511 0.994885 0.990394
1.00505 0.995258 0.989854
1.00506 0.994982 0.990381
1.00512 0.995311 0.99011
1.00513 0.995418 0.989872
1.00512 0.99567 0.989769
1.00511 0.996576 0.988877
1.0051 0.996195 0.989118
1.00512 0.997039 0.988397
1.00517 0.998343 0.987065
1.00514 0.997619 0.987938
1.00517 0.998849 0.986669
1.00513 0.999564 0.985968
1.00517 0.999642 0.985871
1.0051 0.999787 0.985818
1.00466 0.999926 0.986415
1.00322 1.00083 0.988108
1.00444 1.00038 0.986249
1.00507 1.00032 0.985485
1.00062 1.0013 0.992156
1.00241 1.00202 0.988356
1.00363 1.00185 0.986285
0.999687 0.999398 0.998315
1.00034 1.0012 0.992843
1.00155 1.00286 0.989139
0.999684 0.99899 0.998487
1.0001 1.00085 0.993708
0.999654 0.998607 0.998664
1.00334 1.0027 0.985909
1.0019 1.00369 0.987696
1.0016 1.00338 0.988635
1.00141 1.00311 0.989459
1.00093 1.00309 0.99001
1.0005 1.00263 0.991232
1.00045 1.00302 0.990807
1.00023 1.00234 0.991931
0.999735 0.999988 0.995151
1.00016 1.00183 0.992542
0.999785 0.99944 0.99559
0.999588 0.997981 0.998976
0.999875 0.99907 0.995793
0.999628 0.997753 0.999046
0.999697 0.997576 0.999069
1.00088 0.996871 0.9919
0.996992 0.995912 0.973386
1.00011 0.995144 0.95796
1.00351 1.00087 0.986784
1.00509 0.999185 0.986337
1.0038 1.00214 0.985678
1.00076 1.00401 0.989454
1.00182 1.00389 0.987338
1.00257 1.00168 0.988394
1.00507 0.998223 0.987557
1.00275 1.00086 0.98926
1.00417 0.99823 0.988579
1.00476 0.99792 0.987952
1.00501 0.996837 0.988602
1.00445 0.995526 0.990922
1.00423 0.996244 0.990578
1.00457 0.997168 0.988371
1.00012 0.998338 0.993727
0.995968 0.997682 0.971648
1.00069 0.996736 0.996555
1.00436 0.995361 0.992049
1.00118 0.996897 0.989067
0.997076 0.995313 0.975789
1.00339 0.996148 0.991566
1.00333 0.996915 0.989422
1.00481 0.994975 0.991253
1.0047 0.996287 0.990624
1.00513 0.994939 0.990286
1.00513 0.995107 0.990366
1.00511 0.994965 0.990269
1.00511 0.994899 0.990385
1.00519 0.995177 0.990045
1.00506 0.994961 0.990374
1.00512 0.99534 0.99003
1.00511 0.996089 0.989305
1.00512 0.995643 0.989707
1.00511 0.996587 0.988881
1.00517 0.997986 0.98744
1.00512 0.997056 0.988397
1.00517 0.998351 0.98708
1.00514 0.999382 0.986109
1.00517 0.998743 0.986798
1.00512 0.999525 0.986007
1.00472 0.999871 0.98637
1.0051 0.999816 0.985736
1.00465 0.999937 0.986372
1.00351 1.00023 0.988195
1.00101 1.00085 0.99188
1.0032 1.00085 0.988112
1.0044 1.00045 0.98632
0.999731 0.999903 0.998073
1.0007 1.00125 0.992134
1.00236 1.0021 0.988367
0.999736 0.999522 0.998223
1.00046 1.00111 0.99282
0.999733 0.999089 0.998393
1.0047 1.00034 0.985711
1.00337 1.00261 0.985877
1.00265 1.00297 0.98701
1.00187 1.00371 0.987727
1.00152 1.0034 0.988669
1.00088 1.00297 0.990274
1.00096 1.00306 0.990026
1.00042 1.00273 0.991237
0.999827 1.00051 0.994494
1.00016 1.00244 0.99193
0.99974 0.999925 0.995173
0.999576 0.998296 0.998841
0.999796 0.99938 0.99561
0.99958 0.997947 0.999001
0.99963 0.997737 0.999054
1.00451 0.995001 0.991646
1.00102 0.996419 0.990569
0.996515 0.995381 0.973884
1.00512 0.998246 0.987197
1.00375 1.00043 0.987
1.00514 0.998536 0.986953
1.00506 0.999317 0.98633
1.00368 1.00187 0.985822
1.0051 0.99743 0.987865
1.00287 1.00159 0.98816
1.00505 0.998286 0.987363
1.00514 0.996097 0.989008
1.00473 0.997968 0.988209
1.00495 0.996936 0.988531
1.00444 0.995618 0.991038
1.00409 0.99628 0.990226
1.00009 0.99852 0.993841
1.00511 0.995062 0.990104
1.00437 0.995872 0.992105
1.00094 0.996938 0.989199
1.00483 0.995042 0.991453
1.00472 0.995487 0.990506
1.00512 0.994948 0.990343
1.00514 0.99499 0.990329
1.0052 0.994963 0.990267
1.0051 0.994904 0.990378
1.00519 0.995136 0.990066
1.00515 0.995853 0.989591
1.00511 0.995365 0.98995
1.00512 0.99615 0.98923
1.00515 0.997764 0.987707
1.00511 0.996599 0.988885
1.00517 0.997999 0.987446
1.00517 0.999191 0.986284
1.00516 0.998359 0.987095
1.00514 0.999375 0.986127
1.00478 0.999842 0.986299
1.00512 0.999486 0.986047
1.00472 0.999879 0.98638
1.00361 1.00009 0.988157
1.00464 0.999945 0.986328
1.0035 1.00024 0.988181
1.00112 1.00044 0.993324
0.99996 0.999994 0.995379
1.00106 1.00079 0.99253
1.00317 1.00088 0.988115
0.999793 0.999996 0.99799
1.00082 1.00111 0.992119
0.999789 0.999622 0.998121
1.00519 0.998545 0.986904
1.0051 0.999382 0.986216
1.00472 1.00034 0.985787
1.0039 1.00134 0.986306
1.0034 1.00253 0.985845
1.00263 1.00303 0.987008
1.00162 1.00279 0.989084
1.00145 1.00341 0.988703
1.00079 1.003 0.990304
1.00007 1.00102 0.993604
1.00033 1.00283 0.991242
0.999785 1.00051 0.994507
0.999573 0.998758 0.998619
0.999745 0.99986 0.995194
0.999554 0.998228 0.998895
0.999576 0.997916 0.999022
1.00514 0.995427 0.989692
1.00472 0.994995 0.991855
1.00141 0.995851 0.989253
1.00511 0.997658 0.987646
1.00508 0.998275 0.987154
1.004 1.00002 0.987205
1.00514 0.998595 0.986914
1.00503 0.999452 0.986323
1.00511 0.996357 0.989207
1.00509 0.997448 0.987773
1.00504 0.998352 0.98717
1.00513 0.996098 0.989028
1.00494 0.997014 0.98846
1.0045 0.995788 0.991176
1.00517 0.995093 0.990343
1.00513 0.995102 0.990239
1.00441 0.996415 0.992165
1.00512 0.994919 0.990396
1.00515 0.994955 0.990292
1.0052 0.994944 0.990272
1.00513 0.995802 0.989766
1.00519 0.9951 0.990088
1.00516 0.99584 0.989548
1.00511 0.997592 0.987981
1.00512 0.996215 0.989154
1.00515 0.997767 0.987709
1.00518 0.999016 0.986463
1.00517 0.998013 0.987451
1.00516 0.999187 0.986294
1.00485 0.999812 0.98623
1.00514 0.999367 0.986145
1.00478 0.999842 0.986309
1.0037 1.00008 0.988017
1.00472 0.999887 0.986389
1.00362 1.00008 0.988152
1.00122 1.00012 0.993485
1.0035 1.00025 0.988168
1.00125 1.00035 0.993283
0.999947 1.00002 0.995507
0.99983 1.00022 0.996633
1.0012 1.00071 0.993071
0.999835 1.00012 0.997922
1.00517 0.998159 0.987334
1.00513 0.999106 0.986443
1.0052 0.998379 0.987005
1.00462 0.999953 0.986449
1.00511 0.999387 0.986174
1.00473 1.00034 0.985863
1.00395 1.00135 0.986279
1.00262 1.00173 0.988238
1.0026 1.0031 0.987005
1.00159 1.00276 0.989101
1.00041 1.00138 0.992636
1.0007 1.00303 0.990334
0.999944 1.00111 0.993626
0.999568 0.999404 0.998329
0.999738 1.00052 0.994519
0.999546 0.998658 0.998707
0.999543 0.998164 0.998941
1.00513 0.995591 0.989746
1.00515 0.995451 0.98968
1.00483 0.994968 0.992032
1.00513 0.997058 0.988443
1.00511 0.997688 0.987636
1.00504 0.9983 0.987108
1.00514 0.998651 0.986874
1.00511 0.996344 0.989078
1.00507 0.997473 0.98768
1.00512 0.996093 0.989049
1.00519 0.995764 0.989732
1.00517 0.995137 0.990255
1.00516 0.995097 0.990373
1.00511 0.996428 0.989063
1.00521 0.994934 0.990277
1.00513 0.995896 0.989633
1.00509 0.997338 0.98843
1.00517 0.995829 0.989505
1.0051 0.997583 0.987986
1.00517 0.998857 0.98664
1.00516 0.997774 0.987711
1.00516 0.999016 0.986473
1.00491 0.999748 0.986189
1.00516 0.999182 0.986304
1.00484 0.999807 0.986241
1.00378 1.00009 0.987848
1.00478 0.999841 0.986319
1.0037 1.00006 0.988018
1.0013 1.00002 0.993463
1.00362 1.00007 0.988146
1.00132 1.00008 0.993415
0.999968 0.99993 0.995583
1.00138 1.00025 0.993251
0.99972 1.00018 0.995633
0.999499 1.00049 0.998111
1.00516 0.998089 0.987329
1.00515 0.998843 0.986687
1.00518 0.998178 0.987241
1.00474 0.999631 0.986881
1.00513 0.998995 0.98649
1.00521 0.998218 0.987106
1.00339 1.00049 0.988076
1.00463 0.999919 0.986441
1.00512 0.999399 0.986132
1.00399 1.00135 0.986251
1.00266 1.00169 0.988228
1.0008 1.00125 0.991997
1.00156 1.00273 0.989118
1.00027 1.00149 0.992669
0.999606 1.00011 0.99804
0.999838 1.00119 0.993646
0.999532 0.999264 0.998443
0.999526 0.998544 0.998784
1.00515 0.996376 0.98898
1.00513 0.995508 0.989777
1.00515 0.995487 0.989669
1.00512 0.996985 0.988488
1.00512 0.997712 0.987626
1.00511 0.996329 0.98895
1.00514 0.996566 0.98903
1.00518 0.995806 0.989674
1.00517 0.99518 0.990167
1.00511 0.996442 0.989143
1.00511 0.997424 0.988174
1.00513 0.995984 0.989501
1.00508 0.997448 0.988216
1.00517 0.998527 0.987022
1.00509 0.99757 0.987992
1.00516 0.998846 0.986648
1.00497 0.999638 0.98619
1.00515 0.999008 0.986482
1.0049 0.999746 0.986201
1.00388 1.00008 0.987679
1.00484 0.999802 0.986253
1.00378 1.00008 0.987853
1.00137 1.00008 0.993289
1.00371 1.00004 0.988019
1.0014 0.999986 0.993369
1.00003 0.999904 0.995523
1.00142 1.00003 0.993353
0.999768 0.999991 0.995732
0.999509 1.00036 0.995742
1.00515 0.997489 0.988032
1.00517 0.998813 0.986624
1.00516 0.997946 0.987475
1.00484 0.999422 0.986772
1.00515 0.998904 0.986625
1.00518 0.998197 0.987147
1.00363 0.999949 0.988223
1.00473 0.999535 0.986761
1.00513 0.998882 0.986537
1.00109 1.00069 0.991957
1.00341 1.00048 0.988076
1.00464 0.999886 0.986433
1.00269 1.00167 0.988218
1.00071 1.00134 0.992012
0.999666 1.00057 0.99789
1.00013 1.00161 0.9927
0.999541 0.999957 0.998148
0.999504 0.999103 0.998548
1.00513 0.996698 0.988776
1.00515 0.996365 0.989006
1.00515 0.995425 0.989808
1.00512 0.996914 0.988533
1.00512 0.997514 0.988087
1.00514 0.996547 0.989062
1.00517 0.995848 0.989617
1.0051 0.996458 0.989222
1.00511 0.997357 0.988235
1.00514 0.998438 0.987212
1.00508 0.997556 0.988001
1.00517 0.99865 0.986869
1.00502 0.999371 0.986351
1.00515 0.998842 0.986656
1.00496 0.999638 0.986199
1.00398 1.00003 0.98753
1.00488 0.999749 0.986212
1.00388 1.00007 0.987683
1.00147 1.00013 0.991854
1.00379 1.00007 0.987858
1.00146 1.00004 0.992588
0.999987 0.999947 0.997901
1.00149 0.999962 0.993277
0.999851 0.999898 0.995684
0.99958 1.00006 0.995863
1.00514 0.997347 0.988256
1.00517 0.998573 0.986937
1.00515 0.99757 0.987984
1.00494 0.999245 0.986517
1.00517 0.998802 0.986675
1.00516 0.997802 0.987622
1.00376 0.999746 0.987916
1.00484 0.999435 0.98678
1.00516 0.998963 0.986563
1.00124 1.00016 0.992194
1.00363 0.999902 0.988106
1.00472 0.999432 0.986641
0.999712 1.00056 0.997913
1.00107 1.00072 0.991957
1.00343 1.00047 0.988077
1.00062 1.0014 0.992037
0.999626 1.00043 0.99793
0.999479 0.999787 0.99826
1.00513 0.997433 0.988142
1.00513 0.996715 0.988774
1.00514 0.996353 0.989031
1.00515 0.998408 0.987162
1.00512 0.997451 0.988144
1.00514 0.996527 0.989093
1.00511 0.997285 0.988297
1.00514 0.99842 0.987218
1.005 0.999255 0.986731
1.00517 0.998775 0.986716
1.00501 0.999468 0.986377
1.00406 0.99987 0.987322
1.00495 0.999632 0.986209
1.00398 1.00003 0.987533
1.00154 1.00013 0.99172
1.00388 1.00007 0.987688
1.00148 1.00013 0.991847
1.00001 0.999975 0.997859
1.00148 1.00003 0.991963
0.999916 0.999935 0.996763
0.999673 0.999872 0.995843
1.00513 0.997641 0.987938
1.00517 0.998457 0.987
1.00514 0.997327 0.988268
1.00498 0.999286 0.986497
1.00517 0.99862 0.986855
1.00515 0.997651 0.987935
1.00391 0.999627 0.987749
1.00494 0.999326 0.986595
1.00517 0.998793 0.986727
1.00136 0.999903 0.992231
1.00377 0.999748 0.98789
1.00485 0.999449 0.986788
0.999813 1.0003 0.997962
1.00124 1.00015 0.992198
1.00363 0.999857 0.987989
0.999721 1.0005 0.997889
1.00104 1.00073 0.991956
0.999544 1.00034 0.997997
1.00515 0.998268 0.987325
1.00512 0.997469 0.988084
1.00513 0.996733 0.988772
1.00495 0.999126 0.986915
1.00515 0.998352 0.987241
1.00512 0.997396 0.988199
1.00514 0.998402 0.987224
1.005 0.999259 0.986729
1.00405 0.99975 0.987466
1.005 0.999568 0.986404
1.00406 0.999913 0.98739
1.00162 1.00007 0.991647
1.00398 1.00002 0.987537
1.00155 1.00012 0.991716
1.00005 1 0.997794
1.00148 1.00013 0.99184
1.00002 0.999987 0.997831
0.999987 0.999884 0.995464
1.00517 0.998416 0.987092
1.00513 0.997509 0.98803
1.00498 0.999227 0.986571
1.00517 0.998465 0.986995
1.00514 0.997305 0.988279
1.00398 0.999685 0.98787
1.00497 0.999289 0.986491
1.00517 0.998666 0.986774
1.0015 0.999843 0.992061
1.00391 0.999677 0.987829
1.00494 0.999411 0.986673
0.999962 1.00006 0.997926
1.00137 0.999895 0.992239
1.00378 0.999744 0.987863
0.999797 1.0003 0.997945
1.00124 1.00015 0.992199
0.999703 1.00047 0.997877
1.00494 0.999086 0.986994
1.00515 0.998312 0.98727
1.00512 0.997507 0.988027
1.00397 0.999677 0.987667
1.00496 0.99914 0.986916
1.00515 0.998292 0.98732
1.005 0.999262 0.986727
1.00406 0.999745 0.987438
1.00162 1.00003 0.991681
1.00405 0.999953 0.987458
1.00161 1.00007 0.991647
1.00011 1.00001 0.997747
1.00155 1.00012 0.991712
1.00007 1.00001 0.997779
1.00004 0.999996 0.997808
1.00497 0.99917 0.986667
1.00517 0.998283 0.987221
1.00514 0.997377 0.988122
1.00397 0.999698 0.98787
1.00497 0.999229 0.986563
1.00517 0.998473 0.986991
1.00155 0.999924 0.991894
1.00397 0.999693 0.987864
1.00497 0.999291 0.986485
1.00006 0.999944 0.997847
1.00149 0.999859 0.992066
1.00391 0.999719 0.987909
0.999914 1.00009 0.997945
1.00136 0.999901 0.992249
0.999804 1.0003 0.997918
1.00394 0.999725 0.987918
1.00494 0.999049 0.986917
1.00515 0.998354 0.987215
1.00157 0.999983 0.991822
1.00399 0.999665 0.987642
1.00496 0.999152 0.986918
1.00407 0.999737 0.987411
1.00162 1.00002 0.99169
1.00014 1.00001 0.997714
1.0016 1.00008 0.991647
1.00012 1.00001 0.997729
1.00008 1.00002 0.997765
1.00395 0.999699 0.987907
1.00496 0.999092 0.986719
1.00516 0.998153 0.987349
1.00163 0.999997 0.992998
1.00397 0.999695 0.987867
1.00496 0.999232 0.986555
1.00009 0.999947 0.997783
1.00155 0.999944 0.991897
1.00397 0.999701 0.987859
1.00003 0.999978 0.997878
1.00149 0.999885 0.992071
0.999885 1.00011 0.997958
1.00158 0.999978 0.99184
1.00394 0.999682 0.987832
1.00493 0.999011 0.98684
1.0001 1 0.99774
1.00156 0.999984 0.991825
1.004 0.999655 0.987617
1.00161 1.00001 0.991695
1.00012 1.00001 0.997719
1.00013 1.00002 0.997719
1.00167 0.999985 0.992971
1.00396 0.999694 0.987907
1.00495 0.999013 0.98677
0.999803 0.999984 0.998059
1.00156 1 0.991833
1.00398 0.99969 0.987864
1.00008 0.999959 0.997812
1.00155 0.999965 0.9919
1 0.999999 0.997906
1.00006 1 0.995319
1.0016 0.999976 0.992441
1.00395 0.99964 0.987746
1.0001 1 0.997746
1.00156 0.999984 0.991833
1.00013 1.00001 0.997719
0.999765 1 0.995612
1.00161 0.999986 0.992418
1.00396 0.999691 0.987906
0.999933 0.999985 0.996681
1.00156 0.999997 0.991839
1.00007 0.999971 0.997839
1.00007 0.999994 0.997762
1.00153 0.999979 0.991903
1.00007 0.999999 0.997754
0.999916 0.999994 0.996693
1.00155 0.99999 0.991874
1.00008 0.999972 0.997791
1.00007 0.999989 0.997774
1.00006 0.999984 0.997776

TENSORS stress float
0.00159875 -7.34305e-05 0.000150945
-7.34305e-05 0.0005726 -1.86682e-05
0.000150945 -1.86682e-05 0.000551774
0.004882 -0.000113985 0.000142957
-0.000113985 0.00248373 1.25991e-05
0.000142957 1.25991e-05 0.00246528
0.00145542 7.14347e-07 7.38797e-05
7.14347e-07 0.000502068 -6.70632e-06
7.38797e-05 -6.70632e-06 0.000471161
0.00174621 -4.58218e-05 0.000151166
-4.58218e-05 0.000635604 -1.22777e-05
0.000151166 -1.22777e-05 0.000616946
0.00166575 -6.65179e-05 0.000147428
-6.65179e-05 0.000604716 -1.70866e-05
0.000147428 -1.70866e-05 0.000584798
0.00147384 -6.65258e-05 0.000151542
-6.65258e-05 0.000498095 -1.79142e-05
0.000151542 -1.79142e-05 0.000479056
0.00142723 -4.01094e-05 1.9246e-05
-4.01094e-05 0.000408679 -8.0903e-06
1.9246e-05 -8.0903e-06 0.000333936
0.00469348 -0.00013383 7.42418e-06
-0.00013383 0.002373 -1.05799e-06
7.42418e-06 -1.05799e-06 0.00235616
0.00509957 -1.43061e-05 5.24304e-05
-1.43061e-05 0.00256764 2.53692e-06
5.24304e-05 2.53692e-06 0.00255488
0.00481274 -0.000289929 -8.29967e-06
-0.000289929 0.00247707 5.26938e-06
-8.29967e-06 5.26938e-06 0.00242633
0.00157114 3.16459e-05 0.000135048
3.16459e-05 0.000556383 1.11722e-05
0.000135048 1.11722e-05 0.000545765
0.000730566 0.000141045 1.83421e-05
0.000141045 2.53836e-05 1.18835e-05
1.83421e-05 1.18835e-05 -5.05725e-05
0.00163057 -2.62641e-05 0.00016514
-2.62641e-05 0.00056314 1.92771e-06
0.00016514 1.92771e-06 0.000549123
0.00126631 -2.35558e-05 1.96012e-05
-2.35558e-05 0.000373494 1.32833e-06
1.96012e-05 1.32833e-06 0.000339206
0.00138602 2.06812e-05 -1.81455e-05
2.06812e-05 0.000462079 4.31441e-06
-1.81455e-05 4.31441e-06 0.000428558
0.00149682 -4.362e-05 5.71738e-05
-4.362e-05 0.000502257 -3.30912e-06
5.71738e-05 -3.30912e-06 0.000476892
0.00142808 2.06829e-05 7.96631e-05
2.06829e-05 0.000494096 -5.91924e-06
7.96631e-05 -5.91924e-06 0.000458534
0.00146808 -1.98071e-05 6.53749e-05
-1.98071e-05 0.000496602 -6.51058e-06
6.53749e-05 -6.51058e-06 0.000471177
0.00149012 -8.5219e-05 -2.78342e-05
-8.5219e-05 0.000431787 2.28073e-06
-2.78342e-05 2.28073e-06 0.000366173
0.00522664 -0.00010415 0.000183433
-0.00010415 0.00264443 -4.38359e-06
0.000183433 -4.38359e-06 0.00264223
0.00172915 -3.02278e-05 0.000154475
-3.02278e-05 0.000622613 -9.31441e-06
0.000154475 -9.31441e-06 0.000604098
0.0017329 -5.82752e-05 0.000148608
-5.82752e-05 0.000633868 -1.48908e-05
0.000148608 -1.48908e-05 0.000614997
0.00146154 -8.03103e-05 3.82034e-05
-8.03103e-05 0.000391538 -5.79759e-06
3.82034e-05 -5.79759e-06 0.000326529
0.00144261 -5.90606e-05 2.77754e-05
-5.90606e-05 0.000396682 -7.08895e-06
2.77754e-05 -7.08895e-06 0.000330166
0.00125837 -3.31616e-05 0.000131544
-3.31616e-05 0.000373236 -1.42958e-05
0.000131544 -1.42958e-05 0.000358357
0.00135102 -2.09893e-05 1.22112e-05
-2.09893e-05 0.000387863 -9.28347e-06
1.22112e-05 -9.28347e-06 0.000304128
0.00199515 -0.000191444 1.15829e-05
-0.000191444 0.000588874 -4.53101e-06
1.15829e-05 -4.53101e-06 0.000465837
0.00451612 -0.000176959 -0.000111303
-0.000176959 0.00228077 -7.80232e-06
-0.000111303 -7.80232e-06 0.00225772
0.00328427 2.42679e-05 -8.70922e-05
2.42679e-05 0.00153277 -5.34725e-06
-8.70922e-05 -5.34725e-06 0.00151427
0.00311253 -8.85988e-05 -7.81691e-05
-8.85988e-05 0.00146649 -2.14658e-06
-7.81691e-05 -2.14658e-06 0.00143656
0.00423321 -0.000145297 8.10544e-06
-0.000145297 0.00210675 -6.87143e-07
8.10544e-06 -6.87143e-07 0.00209286
0.000631308 0.000127122 -8.58077e-07
0.000127122 -2.82803e-05 -4.63911e-07
-8.58077e-07 -4.63911e-07 -0.000102323
0.00153327 4.86026e-05 0.000154115
4.86026e-05 0.000517792 1.09983e-05
0.000154115 1.09983e-05 0.000499598
0.00172183 0.000106561 0.000156363
0.000106561 0.000640218 1.56112e-05
0.000156363 1.56112e-05 0.000620633
0.00251942 0.000151024 9.52392e-05
0.000151024 0.0010021 1.13948e-05
9.52392e-05 1.13948e-05 0.000944723
0.00336952 -0.000186511 1.08997e-05
-0.000186511 0.00161869 2.29229e-06
1.08997e-05 2.29229e-06 0.00159702
0.00255814 0.000165026 9.16558e-05
0.000165026 0.00105375 1.24971e-05
9.16558e-05 1.24971e-05 0.000992568
0.00068984 8.88931e-05 1.71893e-05
8.88931e-05 1.1793e-05 1.43661e-05
1.71893e-05 1.43661e-05 -5.34709e-05
0.000946339 0.000151996 7.74899e-06
0.000151996 8.07685e-05 4.13274e-06
7.74899e-06 4.13274e-06 -5.53318e-05
0.00280698 -0.000102288 7.07203e-05
-0.000102288 0.00127534 2.55005e-06
7.07203e-05 2.55005e-06 0.00127829
0.0052801 5.29615e-05 4.05581e-06
5.29615e-05 0.00266431 -1.02161e-06
4.05581e-06 -1.02161e-06 0.00266773
0.00328562 3.61064e-05 -7.05726e-05
3.61064e-05 0.00152538 -2.27991e-06
-7.05726e-05 -2.27991e-06 0.00150948
0.00522943 5.6297e-05 0.000181375
5.6297e-05 0.00263761 1.41676e-06
0.000181375 1.41676e-06 0.00264048
0.00130952 3.81506e-05 2.23588e-05
3.81506e-05 0.000396283 1.48716e-06
2.23588e-05 1.48716e-06 0.00036418
0.000716846 4.16321e-06 1.60864e-05
4.16321e-06 -6.27381e-05 1.78928e-06
1.60864e-05 1.78928e-06 -0.000129578
0.00499881 0.000161352 8.20894e-05
0.000161352 0.00252435 6.71196e-06
8.20894e-05 6.71196e-06 0.0025046
0.0025935 4.14071e-05 9.51131e-05
4.14071e-05 0.00101401 5.52184e-06
9.51131e-05 5.52184e-06 0.000965632
0.00118731 -7.36777e-05 -3.46016e-05
-7.36777e-05 0.000340695 4.61753e-06
-3.46016e-05 4.61753e-06 0.000304704
0.00128769 -3.17081e-05 -2.96449e-05
-3.17081e-05 0.000399069 4.45682e-06
-2.96449e-05 4.45682e-06 0.000368413
0.00145122 9.00527e-05 -4.61389e-06
9.00527e-05 0.00051989 5.77223e-06
-4.61389e-06 5.77223e-06 0.00047372
0.00150818 -0.000102351 -8.17037e-05
-0.000102351 0.000434661 1.1708e-05
-8.17037e-05 1.1708e-05 0.000374566
0.00332903 1.9697e-05 -7.60131e-05
1.9697e-05 0.00155636 -1.2407e-06
-7.60131e-05 -1.2407e-06 0.00153688
0.00149724 -3.61352e-05 6.4502e-05
-3.61352e-05 0.000499785 -2.61031e-06
6.4502e-05 -2.61031e-06 0.000474034
0.00127302 3.22589e-05 6.77804e-05
3.22589e-05 0.000403855 -4.69082e-06
6.77804e-05 -4.69082e-06 0.000373651
0.00149315 -3.53718e-05 5.97419e-05
-3.53718e-05 0.000501664 -5.14392e-06
5.97419e-05 -5.14392e-06 0.000477952
0.00150566 -7.49664e-05 -2.2339e-05
-7.49664e-05 0.000412658 7.74611e-07
-2.2339e-05 7.74611e-07 0.000351852
0.00144595 -6.74469e-05 -3.20917e-05
-6.74469e-05 0.000426635 1.57633e-06
-3.20917e-05 1.57633e-06 0.000354175
0.00149884 -8.83746e-05 -2.33191e-05
-8.83746e-05 0.000423894 1.70851e-06
-2.33191e-05 1.70851e-06 0.000362209
0.00199322 -0.000189649 -5.4929e-06
-0.000189649 0.00058663 1.52162e-06
-5.4929e-06 1.52162e-06 0.000463928
0.00518863 5.42089e-05 0.000174308
5.42089e-05 0.00261557 -1.03833e-07
0.000174308 -1.03833e-07 0.00261839
0.00172575 -1.43682e-05 0.000157157
-1.43682e-05 0.000620233 -6.30621e-06
0.000157157 -6.30621e-06 0.00060236
0.00237044 3.94631e-05 2.30661e-05
3.94631e-05 0.000900341 -1.07773e-06
2.30661e-05 -1.07773e-06 0.000843415
0.00146388 -6.93877e-05 3.21973e-05
-6.93877e-05 0.000386747 -4.29179e-06
3.21973e-05 -4.29179e-06 0.000322241
0.00146318 -7.32504e-05 3.46023e-05
-7.32504e-05 0.000395902 -6.38823e-06
3.46023e-05 -6.38823e-06 0.000332007
0.00195717 -0.000117112 1.05916e-05
-0.000117112 0.000516777 -2.48077e-06
1.05916e-05 -2.48077e-06 0.000407688
0.00157609 -0.000150408 1.35092e-05
-0.000150408 0.00032645 -4.71772e-06
1.35092e-05 -4.71772e-06 0.000208662
0.00109969 2.07128e-05 9.5081e-05
2.07128e-05 0.000285261 -1.04803e-05
9.5081e-05 -1.04803e-05 0.000271441
0.00096951 1.04752e-05 8.80827e-06
1.04752e-05 0.000200869 -8.26578e-06
8.80827e-06 -8.26578e-06 0.000127935
0.00190936 -0.00019947 1.02454e-05
-0.00019947 0.000577148 -4.88625e-06
1.02454e-05 -4.88625e-06 0.000445842
0.0012493 -0.000175448 7.27447e-06
-0.000175448 7.31936e-05 -1.73946e-06
7.27447e-06 -1.73946e-06 -7.605e-05
0.00529306 7.30592e-05 -0.000182777
7.30592e-05 0.00267468 -1.23684e-05
-0.000182777 -1.23684e-05 0.00267535
0.00396088 -0.000160159 -9.71772e-05
-0.000160159 0.00195277 -4.52262e-06
-9.71772e-05 -4.52262e-06 0.00193819
0.00490998 -0.000118896 -0.000138635
-0.000118896 0.00248891 -8.98173e-06
-0.000138635 -8.98173e-06 0.00247549
0.000523789 0.000125317 -1.75299e-05
0.000125317 -8.76118e-05 -1.21031e-05
-1.75299e-05 -1.21031e-05 -0.000159878
0.00531576 0.000114307 -2.71026e-06
0.000114307 0.00268542 -1.49065e-06
-2.71026e-06 -1.49065e-06 0.00268513
0.00530871 -2.29306e-06 -8.20415e-06
-2.29306e-06 0.00269568 -3.00394e-07
-8.20415e-06 -3.00394e-07 0.00269075
0.000575238 0.000111582 -3.77728e-07
0.000111582 -0.000109102 -2.2283e-07
-3.77728e-07 -2.2283e-07 -0.000183624
0.00226005 -0.000105954 -4.22557e-05
-0.000105954 0.000970462 -3.33315e-07
-4.22557e-05 -3.33315e-07 0.000954063
0.00057772 0.000150285 -1.15173e-06
0.000150285 -7.57641e-05 -1.86258e-07
-1.15173e-06 -1.86258e-07 -0.00015267
0.0013525 6.70471e-05 2.74672e-05
6.70471e-05 0.000401372 3.5185e-07
2.74672e-05 3.5185e-07 0.000344494
0.000900135 0.000145081 4.57144e-07
0.000145081 5.20735e-05 -3.76514e-07
4.57144e-07 -3.76514e-07 -8.27602e-05
0.0032232 -0.000103418 9.32111e-05
-0.000103418 0.00151379 3.71661e-06
9.32111e-05 3.71661e-06 0.0015153
0.000607251 -6.22892e-05 1.8767e-07
-6.22892e-05 7.4279e-06 6.48997e-06
1.8767e-07 6.48997e-06 -2.77013e-05
0.000691276 8.07408e-05 1.70541e-05
8.07408e-05 -6.1251e-05 7.99132e-06
1.70541e-05 7.99132e-06 -0.000132155
0.000717655 0.000131078 2.14681e-05
0.000131078 -1.62105e-05 1.29508e-05
2.14681e-05 1.29508e-05 -9.46135e-05
0.00103321 0.000128237 1.21402e-05
0.000128237 8.25048e-07 4.77079e-06
1.21402e-05 4.77079e-06 -0.000125949
0.00202473 4.57237e-06 5.56514e-05
4.57237e-06 0.000799555 6.86967e-06
5.56514e-05 6.86967e-06 0.000759375
0.00097499 0.000151446 9.64256e-06
0.000151446 3.93558e-05 5.08206e-06
9.64256e-06 5.08206e-06 -9.41634e-05
0.000959308 0.00014214 6.58165e-06
0.00014214 0.000148462 4.61333e-06
6.58165e-06 4.61333e-06 1.56819e-05
0.000943747 0.0001805 3.66897e-06
0.0001805 2.4114e-05 4.94351e-07
3.66897e-06 4.94351e-07 -0.00014502
0.00250473 -0.000104373 4.22195e-05
-0.000104373 0.0010993 2.45514e-06
4.22195e-05 2.45514e-06 0.00110188
0.0026778 -0.00011659 5.26727e-06
-0.00011659 0.00120462 -3.45394e-07
5.26727e-06 -3.45394e-07 0.00120375
0.00530299 4.57558e-06 -0.000175777
4.57558e-06 0.00267471 -7.03743e-06
-0.000175777 -7.03743e-06 0.00267693
0.00529339 4.5486e-05 -0.00018376
4.5486e-05 0.00267075 -3.68325e-06
-0.00018376 -3.68325e-06 0.00267466
0.00527076 7.75442e-05 -1.32404e-07
7.75442e-05 0.00266736 -1.76243e-06
-1.32404e-07 -1.76243e-06 0.00266613
0.00328613 7.34181e-07 -8.5567e-05
7.34181e-07 0.00152409 -2.4853e-06
-8.5567e-05 -2.4853e-06 0.0015102
0.00164802 2.34117e-05 4.05188e-05
2.34117e-05 0.000471735 5.91929e-07
4.05188e-05 5.91929e-07 0.000414556
0.00332423 7.70786e-05 -7.1485e-05
7.70786e-05 0.00154824 -3.34625e-06
-7.1485e-05 -3.34625e-06 0.00153117
0.00166648 5.85356e-05 3.90745e-05
5.85356e-05 0.000487704 1.2098e-06
3.90745e-05 1.2098e-06 0.000428256
0.0052475 0.000142643 0.000184968
0.000142643 0.00266421 3.90569e-06
0.000184968 3.90569e-06 0.00265667
0.000648171 4.07631e-06 1.71991e-05
4.07631e-06 -9.98441e-05 3.90204e-07
1.71991e-05 3.90204e-07 -0.000165725
0.00262123 1.19189e-05 9.61297e-05
1.19189e-05 0.00102786 3.63726e-06
9.61297e-05 3.63726e-06 0.000980689
0.00108598 2.92021e-05 1.18223e-05
2.92021e-05 -6.54574e-06 1.294e-06
1.18223e-05 1.294e-06 -0.000119646
0.00251381 8.38265e-05 9.53773e-05
8.38265e-05 0.000977196 6.80181e-06
9.53773e-05 6.80181e-06 0.000926424
0.00109399 6.98882e-05 1.15659e-05
6.98882e-05 7.46712e-06 2.4669e-06
1.15659e-05 2.4669e-06 -0.000110283
0.00163798 3.27885e-05 -0.000163085
3.27885e-05 0.000569597 1.12501e-06
-0.000163085 1.12501e-06 0.000555727
0.00125032 5.62726e-06 -2.11163e-05
5.62726e-06 0.00036706 1.69445e-06
-2.11163e-05 1.69445e-06 0.000334519
0.00129564 0.000127302 2.26977e-06
0.000127302 0.000447605 6.58413e-06
2.26977e-06 6.58413e-06 0.000395907
0.00122242 -5.36865e-05 -3.59918e-05
-5.36865e-05 0.000358312 4.67706e-06
-3.59918e-05 4.67706e-06 0.000326477
0.0016084 -5.44837e-05 -8.16796e-05
-5.44837e-05 0.000464423 6.62406e-06
-8.16796e-05 6.62406e-06 0.00040957
0.0015504 -8.82765e-05 -8.03411e-05
-8.82765e-05 0.000447926 1.05036e-05
-8.03411e-05 1.05036e-05 0.000390876
0.00147789 -0.000103579 -8.2236e-05
-0.000103579 0.000433762 1.20667e-05
-8.2236e-05 1.20667e-05 0.000369834
0.00199945 -0.000188788 -2.19741e-05
-0.000188788 0.000589466 7.2044e-06
-2.19741e-05 7.2044e-06 0.000466984
0.00524635 -8.11287e-05 2.1069e-06
-8.11287e-05 0.00265427 -1.19846e-06
2.1069e-06 -1.19846e-06 0.00265264
0.00148411 4.50106e-05 7.32844e-05
4.50106e-05 0.000491259 -2.06841e-06
7.32844e-05 -2.06841e-06 0.000466055
0.00112903 3.04037e-06 -4.31152e-05
3.04037e-06 0.000179217 6.63867e-07
-4.31152e-05 6.63867e-07 0.00012055
0.0015252 -4.08925e-05 -2.65502e-05
-4.08925e-05 0.000416776 1.0328e-06
-2.65502e-05 1.0328e-06 0.000357124
0.00247106 6.49712e-05 9.69225e-05
6.49712e-05 0.00108654 -9.53777e-07
9.69225e-05 -9.53777e-07 0.00107627
0.00165331 -3.04239e-05 -2.57896e-05
-3.04239e-05 0.000578669 -7.97878e-07
-2.57896e-05 -7.97878e-07 0.000511353
0.00151084 -8.27243e-05 -2.15185e-05
-8.27243e-05 0.000420617 1.20413e-06
-2.15185e-05 1.20413e-06 0.000360316
0.00178919 -0.000108923 -7.53207e-06
-0.000108923 0.000419568 1.29475e-06
-7.53207e-06 1.29475e-06 0.000309411
0.00195314 -0.000202894 -4.5088e-06
-0.000202894 0.000602627 1.22972e-06
-4.5088e-06 1.22972e-06 0.000470343
0.00180918 -0.000159504 -2.94945e-06
-0.000159504 0.000459361 6.42945e-07
-2.94945e-06 6.42945e-07 0.000342302
0.00126094 -0.00017532 2.86398e-07
-0.00017532 8.03366e-05 1.25725e-07
2.86398e-07 1.25725e-07 -6.87619e-05
0.000683877 9.92776e-06 1.7569e-05
9.92776e-06 -7.96277e-05 -1.17051e-06
1.7569e-05 -1.17051e-06 -0.000143455
0.00145646 1.88657e-05 2.44229e-05
1.88657e-05 0.000377344 -2.4979e-06
2.44229e-05 -2.4979e-06 0.0003145
0.00160705 -2.4876e-05 1.21196e-05
-2.4876e-05 0.000295821 -1.04557e-06
1.21196e-05 -1.04557e-06 0.000190498
0.00159509 -8.48827e-05 1.19341e-05
-8.48827e-05 0.000302825 -2.20301e-06
1.19341e-05 -2.20301e-06 0.000192803
0.00155598 -0.000126913 1.30275e-05
-0.000126913 0.000297163 -3.71429e-06
1.30275e-05 -3.71429e-06 0.000183173
0.00174868 -0.000126351 3.05379e-06
-0.000126351 0.000303192 -7.04838e-07
3.05379e-06 -7.04838e-07 0.000170527
0.00352109 0.000136784 8.70227e-05
0.000136784 0.00169036 -2.88668e-06
8.70227e-05 -2.88668e-06 0.00168329
0.00130292 -0.000158183 6.43101e-06
-0.000158183 8.48386e-05 -2.03856e-06
6.43101e-06 -2.03856e-06 -5.85723e-05
0.00044516 -1.87592e-05 7.46852e-06
-1.87592e-05 -0.000103816 -9.50148e-06
7.46852e-06 -9.50148e-06 -0.000158414
0.000720582 -0.000133656 5.94015e-06
-0.000133656 -2.643e-05 -5.54046e-06
5.94015e-06 -5.54046e-06 -0.000158186
0.00129482 -0.000198997 7.82179e-06
-0.000198997 0.00013753 -1.81807e-06
7.82179e-06 -1.81807e-06 -2.45496e-05
0.00140725 -0.000194913 4.31696e-06
-0.000194913 0.000102732 2.32131e-08
4.31696e-06 2.32131e-08 -5.59155e-05
0.000490448 2.32565e-05 3.75176e-06
2.32565e-05 -7.2075e-05 -8.0602e-06
3.75176e-06 -8.0602e-06 -0.000115275
0.000670891 -3.055e-07 1.17742e-06
-3.055e-07 2.17531e-05 -3.80402e-06
1.17742e-06 -3.80402e-06 -6.71781e-05
0.00532195 0.000123223 -0.000193198
0.000123223 0.00269111 -1.31766e-05
-0.000193198 -1.31766e-05 0.0026901
0.00514029 -2.03165e-05 -0.000162898
-2.03165e-05 0.00259908 -1.04237e-05
-0.000162898 -1.04237e-05 0.00259674
0.000574501 0.0001033 -1.68956e-05
0.0001033 -0.000110673 -9.10677e-06
-1.68956e-05 -9.10677e-06 -0.000185124
0.00342981 -0.000139786 -8.24165e-05
-0.000139786 0.00164152 -2.79556e-06
-8.24165e-05 -2.79556e-06 0.00163419
0.000468321 5.34038e-05 -9.79767e-06
5.34038e-05 -0.00010189 -1.08467e-05
-9.79767e-06 -1.08467e-05 -0.000160983
0.000515875 0.000138284 -1.84153e-05
0.000138284 -0.000106903 -1.16599e-05
-1.84153e-05 -1.16599e-05 -0.000184549
0.000870858 0.00014057 -7.89521e-06
0.00014057 3.32937e-05 -5.16179e-06
-7.89521e-06 -5.16179e-06 -0.000100618
0.00308218 -0.000117828 5.20853e-06
-0.000117828 0.0014373 -2.57918e-07
5.20853e-06 -2.57918e-07 0.00143589
0.000552285 -6.99614e-05 4.9177e-07
-6.99614e-05 -2.16042e-05 2.4228e-07
4.9177e-07 2.4228e-07 -5.74568e-05
0.00161285 0.000101628 3.84742e-05
0.000101628 0.000468904 1.99484e-06
3.84742e-05 1.99484e-06 0.000405868
0.00154708 0.00014339 3.65262e-05
0.00014339 0.00046145 1.60555e-06
3.65262e-05 1.60555e-06 0.000392205
0.00104069 0.000130593 1.46894e-07
0.000130593 5.93761e-06 -1.34717e-07
1.46894e-07 -1.34717e-07 -0.0001214
0.000626503 5.33364e-06 -5.84581e-07
5.33364e-06 6.49897e-08 1.27841e-07
-5.84581e-07 1.27841e-07 -4.8033e-05
0.000970451 0.000150887 5.38683e-07
0.000150887 3.73839e-05 1.89628e-07
5.38683e-07 1.89628e-07 -9.60309e-05
0.000848055 0.000128781 1.85897e-07
0.000128781 8.42051e-05 -3.17573e-07
1.85897e-07 -3.17573e-07 -4.61602e-05
0.000932621 0.000180065 1.10647e-07
0.000180065 1.59382e-05 -1.53228e-07
1.10647e-07 -1.53228e-07 -0.000153504
0.000630657 -2.57345e-05 5.16504e-06
-2.57345e-05 1.4016e-05 7.46345e-06
5.16504e-06 7.46345e-06 -2.70255e-05
0.000619579 -7.15332e-05 -2.01494e-06
-7.15332e-05 8.82964e-06 5.51685e-06
-2.01494e-06 5.51685e-06 -2.03173e-05
0.000691205 2.02255e-05 2.38279e-06
2.02255e-05 4.63604e-05 3.642e-06
2.38279e-06 3.642e-06 -3.70281e-05
0.00106874 0.00010864 1.19503e-05
0.00010864 6.31697e-06 4.04176e-06
1.19503e-05 4.04176e-06 -0.000116952
0.000998607 0.000144299 1.13994e-05
0.000144299 1.03685e-05 5.07421e-06
1.13994e-05 5.07421e-06 -0.000120376
0.00132527 0.000166183 6.57353e-06
0.000166183 8.15352e-05 1.67087e-06
6.57353e-06 1.67087e-06 -7.21017e-05
0.000913903 0.000115094 5.21346e-06
0.000115094 0.000156657 4.45847e-06
5.21346e-06 4.45847e-06 3.707e-05
0.000932589 0.000174157 4.39301e-06
0.000174157 -5.97904e-05 1.81339e-06
4.39301e-06 1.81339e-06 -0.000221059
0.00103472 0.000183593 2.9443e-06
0.000183593 0.000157143 1.59065e-06
2.9443e-06 1.59065e-06 -1.64721e-05
0.00129771 0.000221251 -2.2067e-06
0.000221251 0.000192869 -5.18479e-07
-2.2067e-06 -5.18479e-07 1.1366e-05
0.00234698 -9.28944e-05 3.41348e-05
-9.28944e-05 0.00100145 2.84556e-06
3.41348e-05 2.84556e-06 0.00100704
0.00242473 -0.000103934 2.42063e-06
-0.000103934 0.00105378 -2.49112e-07
2.42063e-06 -2.49112e-07 0.00105626
0.00255431 -0.000116655 -4.04894e-05
-0.000116655 0.00113531 -2.39916e-06
-4.04894e-05 -2.39916e-06 0.00113409
0.00050633 3.47483e-05 2.63516e-06
3.47483e-05 -6.19703e-05 -7.07068e-06
2.63516e-06 -7.07068e-06 -0.000100391
0.00328312 0.000126232 7.45198e-05
0.000126232 0.00154906 -2.78865e-06
7.45198e-05 -2.78865e-06 0.0015451
0.00531875 0.000143603 -0.000195354
0.000143603 0.00269326 -1.24437e-05
-0.000195354 -1.24437e-05 0.00268982
0.00526674 3.62839e-05 -0.000179078
3.62839e-05 0.0026539 -5.32775e-06
-0.000179078 -5.32775e-06 0.00265789
0.000677711 6.82422e-05 -1.78324e-05
6.82422e-05 -7.6467e-05 -4.36774e-06
-1.78324e-05 -4.36774e-06 -0.00014496
0.000661189 2.89526e-05 -1.78315e-05
2.89526e-05 -8.95726e-05 -2.13351e-06
-1.78315e-05 -2.13351e-06 -0.000157137
0.00523436 -3.23997e-05 -0.000175933
-3.23997e-05 0.00263854 -8.32726e-07
-0.000175933 -8.32726e-07 0.00264262
0.00521814 1.70055e-05 -6.1117e-07
1.70055e-05 0.00263041 1.705e-07
-6.1117e-07 1.705e-07 0.00263398
0.000643399 -1.10016e-06 -1.21692e-07
-1.10016e-06 -0.000103472 -1.90302e-07
-1.21692e-07 -1.90302e-07 -0.000168632
0.00163172 2.37348e-05 4.00704e-05
2.37348e-05 0.000464058 1.07308e-06
4.00704e-05 1.07308e-06 0.000406909
0.0010921 3.3412e-05 1.02546e-07
3.3412e-05 -2.93397e-06 -1.38063e-07
1.02546e-07 -1.38063e-07 -0.000116266
0.000650614 6.09564e-05 -2.12731e-07
6.09564e-05 -8.78831e-05 -2.01561e-07
-2.12731e-07 -2.01561e-07 -0.000157078
0.0010881 7.23803e-05 -4.98347e-08
7.23803e-05 4.48284e-06 -1.6273e-07
-4.98347e-08 -1.6273e-07 -0.000113693
0.000632864 -2.01967e-05 1.75446e-05
-2.01967e-05 -0.000110226 -5.282e-07
1.75446e-05 -5.282e-07 -0.000174041
0.00108658 1.2783e-05 1.16646e-05
1.2783e-05 -7.81706e-06 4.07799e-07
1.16646e-05 4.07799e-07 -0.00011959
0.00108488 5.00751e-05 1.17305e-05
5.00751e-05 -2.77529e-06 1.91852e-06
1.17305e-05 1.91852e-06 -0.0001179
0.00140505 4.32294e-05 3.96851e-06
4.32294e-05 6.35501e-05 3.65957e-07
3.96851e-06 3.65957e-07 -6.25641e-05
0.00108774 8.84044e-05 1.16049e-05
8.84044e-05 9.21721e-06 3.19644e-06
1.16049e-05 3.19644e-06 -0.000111174
0.00140016 9.01628e-05 4.10168e-06
9.01628e-05 7.97769e-05 6.10761e-07
4.10168e-06 6.10761e-07 -5.47266e-05
0.00521223 -4.56049e-05 -0.000183018
-4.56049e-05 0.00262936 -3.10971e-07
-0.000183018 -3.10971e-07 0.0026314
0.00127373 -9.86739e-05 -2.19832e-05
-9.86739e-05 0.000384412 2.44927e-06
-2.19832e-05 2.44927e-06 0.000349219
-0.000200251 -7.07362e-07 -1.33869e-05
-7.07362e-07 -0.000581296 2.09101e-06
-1.33869e-05 2.09101e-06 -0.00065507
0.00160122 -3.70549e-05 -8.28996e-05
-3.70549e-05 0.000456059 4.8895e-06
-8.28996e-05 4.8895e-06 0.000400916
0.00368804 0.000220755 -9.3903e-06
0.000220755 0.00181758 2.70491e-06
-9.3903e-06 2.70491e-06 0.00178499
0.00233111 -0.000108006 -7.3332e-05
-0.000108006 0.000946391 1.11216e-05
-7.3332e-05 1.11216e-05 0.000889133
0.00159192 -7.24651e-05 -8.07936e-05
-7.24651e-05 0.000461304 8.64921e-06
-8.07936e-05 8.64921e-06 0.000406023
0.00159618 -0.000100159 -2.36666e-05
-0.000100159 0.000307886 4.52303e-06
-2.36666e-05 4.52303e-06 0.000196822
0.00203155 -0.000168233 -2.07381e-05
-0.000168233 0.000586415 6.22146e-06
-2.07381e-05 6.22146e-06 0.000470197
0.00203593 -0.000208451 -1.94386e-05
-0.000208451 0.000650829 7.41043e-06
-1.94386e-05 7.41043e-06 0.000517232
0.00126389 -0.000174685 -6.25213e-06
-0.000174685 8.27306e-05 1.82555e-06
-6.25213e-06 1.82555e-06 -6.61929e-05
0.000637826 8.73541e-06 -3.32438e-08
8.73541e-06 -0.000104921 -1.09128e-07
-3.32438e-08 -1.09128e-07 -0.000169181
0.00155201 -4.99545e-05 -2.69859e-05
-4.99545e-05 0.000429012 2.88356e-07
-2.69859e-05 2.88356e-07 0.000369635
0.00117885 -2.13244e-05 -5.50975e-06
-2.13244e-05 5.13563e-05 2.53136e-07
-5.50975e-06 2.53136e-07 -5.7888e-05
0.00181616 -8.75141e-05 -3.90029e-06
-8.75141e-05 0.000427053 5.55148e-07
-3.90029e-06 5.55148e-07 0.0003187
0.00357957 0.000129626 -2.7747e-06
0.000129626 0.00172322 -4.43162e-07
-2.7747e-06 -4.43162e-07 0.00171731
0.00131765 -2.62129e-05 1.0757e-06
-2.62129e-05 0.000395203 5.76879e-07
1.0757e-06 5.76879e-07 0.000336695
0.00128707 -0.000163664 5.46369e-07
-0.000163664 0.000297709 -1.0737e-06
5.46369e-07 -1.0737e-06 0.000165278
0.00157723 -0.000126254 -4.24355e-06
-0.000126254 0.000309116 8.41613e-07
-4.24355e-06 8.41613e-07 0.000195166
0.00147784 -0.000117543 -2.62367e-06
-0.000117543 0.000147388 5.74311e-07
-2.62367e-06 5.74311e-07 1.38835e-05
0.00105983 -0.000183318 -3.30774e-08
-0.000183318 4.55895e-06 3.56625e-08
-3.30774e-08 3.56625e-08 -0.000156853
0.00154308 -0.000167638 1.94759e-07
-0.000167638 0.000221213 -1.82017e-07
1.94759e-07 -1.82017e-07 7.87505e-05
0.00141239 -0.00019526 4.9478e-07
-0.00019526 0.000106877 1.55758e-07
4.9478e-07 1.55758e-07 -5.15829e-05
0.00053678 1.78151e-05 -6.82256e-07
1.78151e-05 -4.69519e-05 1.0078e-07
-6.82256e-07 1.0078e-07 -9.02011e-05
0.000668622 -1.49974e-05 -4.02752e-07
-1.49974e-05 1.94102e-05 1.90527e-08
-4.02752e-07 1.90527e-08 -7.05322e-05
0.0010798 -1.03456e-05 1.15593e-05
-1.03456e-05 -9.16393e-06 -9.06287e-07
1.15593e-05 -9.06287e-07 -0.000119872
0.00161693 -5.00445e-05 1.16989e-05
-5.00445e-05 0.000305715 -1.55807e-06
1.16989e-05 -1.55807e-06 0.000198574
0.00173391 -3.45856e-05 2.78247e-06
-3.45856e-05 0.000262978 -1.36285e-07
2.78247e-06 -1.36285e-07 0.000141818
0.0012834 -8.99977e-05 5.02967e-06
-8.99977e-05 2.6178e-05 -6.91302e-07
5.02967e-06 -6.91302e-07 -0.000104661
0.00161892 -0.000151933 4.8391e-06
-0.000151933 0.00024653 -1.08907e-06
4.8391e-06 -1.08907e-06 0.000109235
0.00165735 -0.000136542 -3.39715e-07
-0.000136542 0.000173217 5.20885e-07
-3.39715e-07 5.20885e-07 4.06473e-05
0.000449368 -6.65144e-08 6.07528e-06
-6.65144e-08 -9.88449e-05 -8.70197e-06
6.07528e-06 -8.70197e-06 -0.000146687
0.00147002 -0.000179049 2.64924e-06
-0.000179049 0.000116989 -1.9893e-07
2.64924e-06 -1.9893e-07 -3.20308e-05
0.000626972 -0.000102737 3.80247e-06
-0.000102737 -2.32589e-05 -3.78425e-06
3.80247e-06 -3.78425e-06 -0.000143681
0.000843804 -0.000178499 6.93986e-06
-0.000178499 -3.17351e-05 -4.72519e-06
6.93986e-06 -4.72519e-06 -0.00020535
0.00182735 -0.000247986 3.83064e-06
-0.000247986 0.000378337 3.34984e-07
3.83064e-06 3.34984e-07 0.000201102
0.0017148 -0.00022342 -5.86444e-07
-0.00022342 0.000227469 2.7033e-06
-5.86444e-07 2.7033e-06 6.90272e-05
0.000741534 -5.29483e-05 2.6608e-06
-5.29483e-05 6.20272e-05 -3.40586e-06
2.6608e-06 -3.40586e-06 -4.05496e-05
0.000625894 4.57008e-06 1.22492e-06
4.57008e-06 -4.22734e-07 -3.35053e-06
1.22492e-06 -3.35053e-06 -7.99375e-05
0.000884566 -9.38625e-05 1.31288e-06
-9.38625e-05 0.000147687 -6.58749e-07
1.31288e-06 -6.58749e-07 1.84836e-05
0.000612915 8.21201e-05 -1.64074e-05
8.21201e-05 -0.000101689 -7.09586e-06
-1.64074e-05 -7.09586e-06 -0.000172961
0.00294063 -0.000132679 -5.4913e-05
-0.000132679 0.00135997 -2.14073e-06
-5.4913e-05 -2.14073e-06 0.00135482
0.000483102 -7.60751e-05 1.65382e-06
-7.60751e-05 -5.84072e-05 -6.01263e-06
1.65382e-06 -6.01263e-06 -9.53131e-05
0.000529405 0.000124916 -1.76306e-05
0.000124916 -0.000116742 -1.09122e-05
-1.76306e-05 -1.09122e-05 -0.000194203
0.00105061 0.000133399 -1.25377e-05
0.000133399 1.22481e-05 -5.04274e-06
-1.25377e-05 -5.04274e-06 -0.000115686
0.000449286 -3.22911e-06 -5.9475e-06
-3.22911e-06 -9.80565e-05 -8.94173e-06
-5.9475e-06 -8.94173e-06 -0.000145625
0.000714409 0.000113785 -4.89847e-06
0.000113785 7.57579e-06 -4.94032e-06
-4.89847e-06 -4.94032e-06 -0.000120216
0.000952717 0.000149362 -9.23201e-06
0.000149362 2.80551e-05 -4.83878e-06
-9.23201e-06 -4.83878e-06 -0.000105142
0.000864999 0.000175519 -4.81848e-06
0.000175519 -2.4533e-05 -1.93607e-06
-4.81848e-06 -1.93607e-06 -0.000193665
0.000542736 -3.65127e-05 1.31988e-06
-3.65127e-05 -3.42887e-05 3.12589e-07
1.31988e-06 3.12589e-07 -7.52193e-05
0.000576391 -6.8994e-05 -2.5594e-07
-6.8994e-05 -1.71695e-05 1.7843e-07
-2.5594e-07 1.7843e-07 -4.53568e-05
0.00064217 -1.74515e-05 4.3484e-07
-1.74515e-05 1.44171e-05 3.76899e-07
4.3484e-07 3.76899e-07 -6.34257e-05
0.00106872 0.000110795 4.57694e-08
0.000110795 7.34027e-06 -2.06636e-07
4.57694e-08 -2.06636e-07 -0.00011655
0.00101135 0.000146217 4.31097e-07
0.000146217 1.87825e-05 -2.47185e-07
4.31097e-07 -2.47185e-07 -0.000112325
0.00131329 0.000165555 1.40998e-07
0.000165555 7.70393e-05 1.25918e-08
1.40998e-07 1.25918e-08 -7.66928e-05
0.000794774 0.00010178 -1.16569e-07
0.00010178 9.07085e-05 1.68276e-07
-1.16569e-07 1.68276e-07 -2.70163e-05
0.0011148 0.000186364 -2.31683e-07
0.000186364 4.49046e-05 -1.71173e-07
-2.31683e-07 -1.71173e-07 -0.000117628
0.00108731 0.000186112 5.78403e-07
0.000186112 0.000188579 -6.26162e-07
5.78403e-07 -6.26162e-07 1.52238e-05
0.00122037 0.000218872 -5.53494e-07
0.000218872 0.000144115 1.30715e-06
-5.53494e-07 1.30715e-06 -3.70511e-05
0.000618393 -5.98313e-05 3.93397e-07
-5.98313e-05 -5.92251e-06 4.36284e-06
3.93397e-07 4.36284e-06 -2.79626e-05
0.000736616 6.25446e-05 3.45911e-06
6.25446e-05 6.50244e-05 3.33753e-06
3.45911e-06 3.33753e-06 -3.45131e-05
0.000665546 -3.02691e-05 5.092e-07
-3.02691e-05 2.1421e-05 2.99522e-06
5.092e-07 2.99522e-06 -3.92685e-05
0.000843387 6.30223e-05 5.85831e-07
6.30223e-05 0.000144359 1.17759e-06
5.85831e-07 1.17759e-06 2.31865e-05
0.0013633 0.000141617 6.14401e-06
0.000141617 7.94949e-05 1.27948e-06
6.14401e-06 1.27948e-06 -6.70344e-05
0.00132566 0.000187611 6.75211e-06
0.000187611 0.000116165 2.32824e-06
6.75211e-06 2.32824e-06 -4.33379e-05
0.00151459 0.000201454 2.18075e-06
0.000201454 0.000122173 3.33749e-07
2.18075e-06 3.33749e-07 -4.08745e-05
0.00106099 0.000156277 2.57152e-06
0.000156277 0.000222244 3.06736e-06
2.57152e-06 3.06736e-06 6.6429e-05
0.00118555 0.00020915 4.82514e-07
0.00020915 2.937e-05 2.40118e-06
4.82514e-07 2.40118e-06 -0.000142101
0.000990006 0.0001969 -3.49002e-07
0.0001969 0.000111144 -8.3833e-07
-3.49002e-07 -8.3833e-07 -8.92216e-05
0.00144042 0.000240502 5.99122e-07
0.000240502 0.000205788 6.35193e-07
5.99122e-07 6.35193e-07 2.0998e-05
0.00068354 -1.72227e-05 1.68949e-06
-1.72227e-05 8.16081e-06 1.94273e-06
1.68949e-06 1.94273e-06 -3.37963e-05
0.000617277 -4.33985e-05 8.97975e-07
-4.33985e-05 -2.63464e-05 3.99547e-06
8.97975e-07 3.99547e-06 -4.12721e-05
0.00225816 -8.12249e-05 2.9127e-05
-8.12249e-05 0.000941592 3.26578e-06
2.9127e-05 3.26578e-06 0.000950221
0.00229105 -9.12102e-05 2.19167e-06
-9.12102e-05 0.000968603 -2.05607e-07
2.19167e-06 -2.05607e-07 0.000974562
0.00234143 -0.000101569 -3.55096e-05
-0.000101569 0.00100583 -2.66948e-06
-3.55096e-05 -2.66948e-06 0.00100878
0.00052875 3.88615e-05 1.88405e-06
3.88615e-05 -5.25272e-05 -6.12457e-06
1.88405e-06 -6.12457e-06 -8.54206e-05
0.00303069 0.000117094 6.0511e-05
0.000117094 0.00140088 -2.8967e-06
6.0511e-05 -2.8967e-06 0.00139923
0.000552707 3.23963e-05 -2.8022e-07
3.23963e-05 -3.63286e-05 1.21941e-07
-2.8022e-07 1.21941e-07 -7.48498e-05
0.00334436 0.000119081 -2.38648e-06
0.000119081 0.0015826 -3.05638e-07
-2.38648e-06 -3.05638e-07 0.00158022
0.000669296 8.0007e-05 -1.7612e-05
8.0007e-05 -7.57301e-05 -5.66379e-06
-1.7612e-05 -5.66379e-06 -0.000146138
0.000667353 3.0785e-05 -1.73457e-05
3.0785e-05 -8.59132e-05 -3.11676e-06
-1.73457e-05 -3.11676e-06 -0.000153168
0.00108724 7.42734e-05 -1.14212e-05
7.42734e-05 4.18515e-06 -2.7681e-06
-1.14212e-05 -2.7681e-06 -0.000114329
0.00109206 3.56359e-05 -1.18993e-05
3.56359e-05 -2.80109e-06 -1.55366e-06
-1.18993e-05 -1.55366e-06 -0.00011627
0.000680461 -3.68945e-06 -1.78438e-05
-3.68945e-06 -8.50418e-05 -8.89249e-07
-1.78438e-05 -8.89249e-07 -0.000148767
0.00526161 -9.64958e-05 -0.000190947
-9.64958e-05 0.00266232 2.49694e-06
-0.000190947 2.49694e-06 0.00266164
0.000663994 -8.27798e-07 1.31125e-07
-8.27798e-07 -9.36222e-05 -2.87105e-07
1.31125e-07 -2.87105e-07 -0.000157128
0.00109216 1.73634e-05 -1.55969e-08
1.73634e-05 -4.51924e-06 -1.88173e-07
-1.55969e-08 -1.88173e-07 -0.0001164
0.00108995 5.16129e-05 -1.50857e-08
5.16129e-05 4.16374e-07 -1.16969e-07
-1.50857e-08 -1.16969e-07 -0.000114942
0.00139325 4.25312e-05 -4.98465e-08
4.25312e-05 5.81838e-05 -1.62321e-08
-4.98465e-08 -1.62321e-08 -6.80053e-05
0.00107897 9.09692e-05 -3.83835e-08
9.09692e-05 5.22212e-06 -1.87525e-07
-3.83835e-08 -1.87525e-07 -0.000115842
0.00138505 9.19669e-05 -3.98639e-08
9.19669e-05 7.12665e-05 -7.52472e-08
-3.98639e-08 -7.52472e-08 -6.37027e-05
0.00109265 -2.71755e-07 1.16048e-05
-2.71755e-07 -2.9032e-06 -1.4739e-07
1.16048e-05 -1.4739e-07 -0.000113821
0.00140554 2.49185e-05 3.81061e-06
2.49185e-05 6.03489e-05 7.27562e-08
3.81061e-06 7.27562e-08 -6.33856e-05
0.00140706 6.7922e-05 4.10401e-06
6.7922e-05 7.4304e-05 4.71752e-07
4.10401e-06 4.71752e-07 -5.56198e-05
0.00162714 6.11964e-05 -4.78518e-07
6.11964e-05 8.44272e-05 -2.2564e-07
-4.78518e-07 -2.2564e-07 -3.21404e-05
0.00139659 0.000116429 4.46601e-06
0.000116429 8.44121e-05 8.77057e-07
4.46601e-06 8.77057e-07 -5.57442e-05
0.00158586 0.000112281 -2.51041e-07
0.000112281 9.10506e-05 -7.35421e-07
-2.51041e-07 -7.35421e-07 -3.81911e-05
0.000647463 7.47653e-06 -1.69493e-05
7.47653e-06 -9.9075e-05 7.85777e-07
-1.69493e-05 7.85777e-07 -0.000164001
0.00161521 -1.69074e-05 -8.3857e-05
-1.69074e-05 0.000460195 3.21002e-06
-8.3857e-05 3.21002e-06 0.00040558
0.000732636 -1.64291e-05 -1.29669e-05
-1.64291e-05 -0.000203237 1.57043e-06
-1.29669e-05 1.57043e-06 -0.000316494
0.00203085 -8.89861e-05 -2.08579e-05
-8.89861e-05 0.000547392 3.24153e-06
-2.08579e-05 3.24153e-06 0.000440858
0.00365125 0.000115366 -0.000104947
0.000115366 0.00176222 4.20083e-06
-0.000104947 4.20083e-06 0.00175864
0.00221436 -4.78646e-05 -6.15786e-05
-4.78646e-05 0.000900546 8.05911e-06
-6.15786e-05 8.05911e-06 0.000850788
0.00195736 -0.000203363 -1.42869e-05
-0.000203363 0.000678364 6.27654e-06
-1.42869e-05 6.27654e-06 0.000544029
0.0015813 -0.000124736 -2.11035e-05
-0.000124736 0.000311065 5.15628e-06
-2.11035e-05 5.15628e-06 0.000197372
0.00120454 -0.000108527 -6.75918e-06
-0.000108527 -9.8266e-06 1.41401e-06
-6.75918e-06 1.41401e-06 -0.000144145
0.00179026 -0.000177556 -7.47063e-06
-0.000177556 0.000361472 1.96125e-06
-7.47063e-06 1.96125e-06 0.000219912
0.000794605 -0.000165352 -6.83274e-06
-0.000165352 -0.000145816 1.12662e-06
-6.83274e-06 1.12662e-06 -0.000306187
0.0014373 -0.000196969 -2.70865e-06
-0.000196969 0.000121557 2.07894e-08
-2.70865e-06 2.07894e-08 -3.68606e-05
0.000595104 9.1884e-06 -5.95705e-06
9.1884e-06 -1.44457e-05 7.83386e-06
-5.95705e-06 7.83386e-06 -5.81434e-05
0.000690082 -3.16669e-05 -2.5631e-06
-3.16669e-05 3.18407e-05 3.15869e-06
-2.5631e-06 3.15869e-06 -6.0081e-05
0.000910832 -5.99779e-06 -4.13066e-07
-5.99779e-06 -0.000104919 -1.56911e-07
-4.13066e-07 -1.56911e-07 -0.000216768
0.00162375 -5.11367e-05 -4.54985e-06
-5.11367e-05 0.000308625 4.50958e-07
-4.54985e-06 4.50958e-07 0.000201483
0.00171572 -3.11208e-05 -2.38984e-06
-3.11208e-05 0.000249518 2.80626e-07
-2.38984e-06 2.80626e-07 0.000129265
0.00152138 -9.42177e-05 6.33401e-07
-9.42177e-05 0.000161152 -1.16791e-07
6.33401e-07 -1.16791e-07 3.13799e-05
0.000555676 -1.03143e-05 1.36979e-07
-1.03143e-05 -4.10285e-05 2.09633e-07
1.36979e-07 2.09633e-07 -8.93374e-05
0.000838006 -0.000124033 -6.71962e-08
-0.000124033 9.43789e-05 3.94791e-07
-6.71962e-08 3.94791e-07 -2.91816e-05
0.000902838 -0.000182102 1.66717e-06
-0.000182102 5.4059e-06 -1.78302e-06
1.66717e-06 -1.78302e-06 -0.000167626
0.00169669 -0.000152958 -1.84203e-06
-0.000152958 0.000289597 4.51365e-07
-1.84203e-06 4.51365e-07 0.000152353
0.00163356 -0.000135218 -2.72853e-07
-0.000135218 0.000154743 2.69165e-07
-2.72853e-07 2.69165e-07 2.41879e-05
0.00165269 -0.000236946 -1.96596e-06
-0.000236946 0.000275323 3.02351e-07
-1.96596e-06 3.02351e-07 9.81246e-05
0.00144741 -0.000178228 2.50074e-07
-0.000178228 0.000103056 -1.22963e-07
2.50074e-07 -1.22963e-07 -4.57275e-05
0.00167111 -0.000222298 6.38693e-07
-0.000222298 0.000199728 4.68187e-07
6.38693e-07 4.68187e-07 4.13034e-05
0.000730837 -6.04055e-05 -2.5654e-07
-6.04055e-05 5.57111e-05 -1.80691e-07
-2.5654e-07 -1.80691e-07 -4.76819e-05
0.000709533 -6.03085e-05 -6.19256e-07
-6.03085e-05 4.20325e-05 -5.07306e-07
-6.19256e-07 -5.07306e-07 -7.96028e-05
0.000668684 -4.78387e-06 2.65358e-07
-4.78387e-06 2.2108e-05 2.09991e-07
2.65358e-07 2.09991e-07 -5.75624e-05
0.00172683 -1.0962e-05 2.43905e-06
-1.0962e-05 0.000250562 -8.95235e-08
2.43905e-06 -8.95235e-08 0.000130569
0.00168079 -6.04802e-05 3.02895e-06
-6.04802e-05 0.000234553 -1.15689e-08
3.02895e-06 -1.15689e-08 0.000111351
0.00165427 -4.37548e-05 -6.66218e-07
-4.37548e-05 0.000112864 7.00751e-07
-6.66218e-07 7.00751e-07 -2.66507e-06
0.00156932 -0.000110147 -1.01004e-06
-0.000110147 9.73967e-05 7.56135e-07
-1.01004e-06 7.56135e-07 -2.92243e-05
0.00146106 -0.000158753 1.4481e-06
-0.000158753 8.45859e-05 8.46119e-07
1.4481e-06 8.46119e-07 -5.42171e-05
0.00168025 -0.000153393 -2.39281e-06
-0.000153393 0.000110562 1.44367e-06
-2.39281e-06 1.44367e-06 -4.47114e-06
0.000701062 -8.44602e-05 3.47634e-06
-8.44602e-05 3.73658e-05 -2.72879e-06
3.47634e-06 -2.72879e-06 -7.39948e-05
0.00156161 -0.000206825 -1.19007e-06
-0.000206825 0.000103991 1.7809e-06
-1.19007e-06 1.7809e-06 -3.95412e-05
0.000948666 -0.000172114 1.77359e-06
-0.000172114 0.000125116 -3.00983e-06
1.77359e-06 -3.00983e-06 -3.57985e-05
0.00126151 -0.000233236 5.09938e-06
-0.000233236 0.000129146 -4.21908e-06
5.09938e-06 -4.21908e-06 -7.34933e-05
0.0018844 -0.000262242 1.37404e-06
-0.000262242 0.000360673 2.77761e-06
1.37404e-06 2.77761e-06 0.00017579
0.0018799 -0.000254961 -3.80196e-06
-0.000254961 0.000264733 3.9081e-06
-3.80196e-06 3.9081e-06 0.000113877
0.000633644 -2.8662e-06 1.35071e-06
-2.8662e-06 9.57331e-07 -2.93196e-06
1.35071e-06 -2.93196e-06 -6.89453e-05
0.000798121 -0.000106884 2.08144e-06
-0.000106884 7.93042e-05 6.56872e-07
2.08144e-06 6.56872e-07 -4.6789e-05
0.000614769 -3.91956e-05 1.28232e-06
-3.91956e-05 6.06764e-06 -2.02756e-06
1.28232e-06 -2.02756e-06 -0.000113814
0.00113163 -0.00016219 -7.17393e-08
-0.00016219 0.000282999 2.00676e-06
-7.17393e-08 2.00676e-06 0.000138104
0.0010578 0.000112763 -1.23945e-05
0.000112763 2.25736e-06 -4.39964e-06
-1.23945e-05 -4.39964e-06 -0.000122249
0.000538796 -6.34134e-05 -5.37482e-07
-6.34134e-05 -4.08988e-05 -4.61646e-06
-5.37482e-07 -4.61646e-06 -6.75041e-05
0.000469247 -5.4417e-05 7.38857e-07
-5.4417e-05 -7.13347e-05 -7.74404e-06
7.38857e-07 -7.74404e-06 -0.000113721
0.000632638 -4.90039e-05 1.30429e-06
-4.90039e-05 1.31036e-05 -3.69028e-06
1.30429e-06 -3.69028e-06 -6.5244e-05
0.00102473 0.000148417 -1.09027e-05
0.000148417 2.77579e-05 -5.55337e-06
-1.09027e-05 -5.55337e-06 -0.000103807
0.00129229 0.000164483 -6.32614e-06
0.000164483 6.72536e-05 -1.6633e-06
-6.32614e-06 -1.6633e-06 -8.65754e-05
0.000680234 8.67104e-05 -3.2752e-06
8.67104e-05 2.73499e-05 -3.43868e-06
-3.2752e-06 -3.43868e-06 -8.8225e-05
0.00111727 0.000187011 -4.0311e-06
0.000187011 0.000206918 -3.76191e-06
-4.0311e-06 -3.76191e-06 3.35115e-05
0.00133807 0.000201291 -5.09585e-06
0.000201291 0.000172837 -1.80066e-06
-5.09585e-06 -1.80066e-06 8.71661e-06
0.00115374 0.000216971 -2.35511e-06
0.000216971 0.000102209 -8.8547e-07
-2.35511e-06 -8.8547e-07 -7.87664e-05
0.000593695 -5.65767e-05 -3.91725e-08
-5.65767e-05 -2.1363e-05 5.96209e-08
-3.91725e-08 5.96209e-08 -4.26361e-05
0.000736571 5.39488e-05 4.2847e-07
5.39488e-05 6.99919e-05 -1.76367e-07
4.2847e-07 -1.76367e-07 -3.15e-05
0.000637725 -4.60679e-05 -7.46364e-07
-4.60679e-05 9.05602e-06 5.9697e-07
-7.46364e-07 5.9697e-07 -5.28555e-05
0.000792054 3.62013e-05 8.05311e-07
3.62013e-05 0.00011385 -4.07767e-07
8.05311e-07 -4.07767e-07 -3.7891e-06
0.00134716 0.000140929 7.19201e-07
0.000140929 7.27652e-05 -1.15924e-08
7.19201e-07 -1.15924e-08 -7.39113e-05
0.00127388 0.000185712 2.42388e-07
0.000185712 8.91885e-05 6.20155e-08
2.42388e-07 6.20155e-08 -7.05365e-05
0.0015361 0.000202191 2.93274e-07
0.000202191 0.000134869 1.86649e-07
2.93274e-07 1.86649e-07 -2.83663e-05
0.000979276 0.000152034 4.7989e-07
0.000152034 0.000177987 5.92367e-07
4.7989e-07 5.92367e-07 2.34866e-05
0.0015117 0.000228958 -1.04721e-06
0.000228958 0.000217312 -8.28745e-07
-1.04721e-06 -8.28745e-07 4.40551e-05
0.00113855 0.000210699 1.70229e-07
0.000210699 0.000194945 -1.44155e-06
1.70229e-07 -1.44155e-06 -8.89443e-06
0.00126083 0.000227752 -2.41709e-06
0.000227752 0.000111808 -6.29363e-07
-2.41709e-06 -6.29363e-07 -6.60451e-05
0.000612054 -5.06386e-05 1.00833e-06
-5.06386e-05 -2.11326e-05 4.05633e-06
1.00833e-06 4.05633e-06 -3.87916e-05
0.000687752 -3.2162e-05 1.13985e-06
-3.2162e-05 2.63678e-05 2.26528e-06
1.13985e-06 2.26528e-06 -2.42212e-05
0.000964432 0.000105698 2.13598e-06
0.000105698 0.000193146 1.64569e-06
2.13598e-06 1.64569e-06 5.80056e-05
0.000803041 3.81964e-05 -3.5482e-07
3.81964e-05 0.0001216 2.09797e-06
-3.5482e-07 2.09797e-06 2.06305e-05
0.000884555 0.000115705 2.51812e-07
0.000115705 0.000178355 -3.78593e-07
2.51812e-07 -3.78593e-07 3.66961e-05
0.00156076 0.000172058 1.8272e-06
0.000172058 0.000120069 -6.62998e-07
1.8272e-06 -6.62998e-07 -3.06365e-05
0.00136879 0.000212206 2.10235e-06
0.000212206 7.82402e-05 1.77182e-06
2.10235e-06 1.77182e-06 -9.12949e-05
0.00170922 0.000238796 -3.84472e-07
0.000238796 0.000184559 -4.35184e-07
-3.84472e-07 -4.35184e-07 2.39077e-05
0.00113778 0.000196543 4.00853e-06
0.000196543 0.000261585 4.5621e-06
4.00853e-06 4.5621e-06 6.5495e-05
0.00152721 0.000251093 2.95533e-06
0.000251093 0.00018135 2.91874e-06
2.95533e-06 2.91874e-06 2.82041e-06
0.000503579 0.000179497 3.43917e-06
0.000179497 -0.000247801 -2.09459e-06
3.43917e-06 -2.09459e-06 -0.000452811
0.000678456 -2.04937e-05 2.12067e-06
-2.04937e-05 8.09876e-06 1.90325e-06
2.12067e-06 1.90325e-06 -3.50564e-05
0.000722692 2.62824e-05 3.44246e-07
2.62824e-05 5.36321e-05 8.2156e-07
3.44246e-07 8.2156e-07 -1.52438e-05
0.000701402 -7.51456e-06 1.38132e-06
-7.51456e-06 1.68658e-05 1.9689e-06
1.38132e-06 1.9689e-06 -2.44536e-05
0.000684016 -2.61092e-05 -2.26964e-07
-2.61092e-05 9.71846e-06 2.91186e-09
-2.26964e-07 2.91186e-09 -3.29017e-05
0.00126158 -4.89852e-05 1.19034e-06
-4.89852e-05 0.000339701 2.38769e-06
1.19034e-06 2.38769e-06 0.000330179
0.000949057 -4.91247e-05 7.35768e-07
-4.91247e-05 0.000165355 -5.6714e-08
7.35768e-07 -5.6714e-08 0.000152126
0.000921638 -4.35066e-05 2.4233e-05
-4.35066e-05 0.000158838 6.81373e-06
2.4233e-05 6.81373e-06 0.000164065
0.00222813 -7.97946e-05 2.18145e-06
-7.97946e-05 0.000923236 -1.86988e-07
2.18145e-06 -1.86988e-07 0.000932234
0.00224275 -8.92777e-05 -3.18673e-05
-8.92777e-05 0.000939919 -3.05072e-06
-3.18673e-05 -3.05072e-06 0.000946347
0.000542248 4.79815e-05 2.26303e-07
4.79815e-05 -4.89205e-05 -5.39872e-06
2.26303e-07 -5.39872e-06 -7.78299e-05
0.00280531 0.000107656 4.69692e-05
0.000107656 0.00126702 -3.13529e-06
4.69692e-05 -3.13529e-06 0.00126775
0.000568249 3.73366e-05 -2.52478e-07
3.73366e-05 -3.02292e-05 1.21924e-07
-2.52478e-07 1.21924e-07 -6.33061e-05
0.00310925 0.000112133 -3.32464e-06
0.000112133 0.00144427 -2.64365e-07
-3.32464e-06 -2.64365e-07 0.00144391
0.000595551 2.92138e-05 -3.14401e-06
2.92138e-05 -1.27822e-05 7.21842e-06
-3.14401e-06 7.21842e-06 -5.14252e-05
0.00341097 0.000110694 -9.22022e-05
0.000110694 0.00161899 3.61713e-06
-9.22022e-05 3.61713e-06 0.00161829
0.00108263 9.38072e-05 -1.18073e-05
9.38072e-05 7.82475e-06 -3.51639e-06
-1.18073e-05 -3.51639e-06 -0.000113844
0.00109735 5.56699e-05 -1.16449e-05
5.56699e-05 5.07006e-06 -2.11879e-06
-1.16449e-05 -2.11879e-06 -0.000110684
0.00136361 9.02312e-05 -4.42247e-06
9.02312e-05 5.91839e-05 -7.87923e-07
-4.42247e-06 -7.87923e-07 -7.59536e-05
0.0013809 4.20314e-05 -4.18494e-06
4.20314e-05 5.25928e-05 -3.65598e-07
-4.18494e-06 -3.65598e-07 -7.36788e-05
0.00109696 2.0678e-05 -1.18468e-05
2.0678e-05 -1.6441e-06 -8.36447e-07
-1.18468e-05 -8.36447e-07 -0.00011365
0.000643397 1.90123e-05 -1.75126e-05
1.90123e-05 -0.00010452 -5.4778e-08
-1.75126e-05 -5.4778e-08 -0.000168264
0.00108898 2.00586e-06 1.59827e-08
2.00586e-06 -5.02141e-06 -3.53883e-08
1.59827e-08 -3.53883e-08 -0.000115978
0.001394 2.6519e-05 -9.3955e-08
2.6519e-05 5.43671e-05 -6.59229e-08
-9.3955e-08 -6.59229e-08 -6.9471e-05
0.00138528 6.49943e-05 -7.46959e-11
6.49943e-05 6.37058e-05 -3.62338e-08
-7.46959e-11 -3.62338e-08 -6.62162e-05
0.00166943 6.2308e-05 -7.22623e-08
6.2308e-05 0.000104999 1.6965e-07
-7.22623e-08 1.6965e-07 -9.92711e-06
0.00137574 0.000115989 -1.75747e-07
0.000115989 7.34101e-05 -7.38309e-08
-1.75747e-07 -7.38309e-08 -6.69538e-05
0.00159618 0.000110916 -1.53412e-07
0.000110916 0.000101534 3.66306e-08
-1.53412e-07 3.66306e-08 -2.77286e-05
0.00139637 6.70666e-06 3.98408e-06
6.70666e-06 5.68408e-05 7.50829e-08
3.98408e-06 7.50829e-08 -6.57064e-05
0.00168659 3.88029e-05 -1.09988e-06
3.88029e-05 0.00010506 1.01828e-07
-1.09988e-06 1.01828e-07 -5.92172e-06
0.00160378 9.20739e-05 -4.42691e-07
9.20739e-05 8.3108e-05 -5.20908e-07
-4.42691e-07 -5.20908e-07 -3.91261e-05
0.00175567 7.22596e-05 -1.27329e-06
7.22596e-05 9.02762e-05 1.43156e-07
-1.27329e-06 1.43156e-07 -8.85668e-06
0.00158088 0.000134737 4.21154e-08
0.000134737 0.000110857 -8.01721e-07
4.21154e-08 -8.01721e-07 -2.7208e-05
0.0016878 0.000133845 -2.99554e-06
0.000133845 8.31674e-05 -1.01378e-06
-2.99554e-06 -1.01378e-06 -2.45012e-05
0.000739091 -3.26668e-06 -1.14365e-05
-3.26668e-06 -0.000202033 4.78567e-07
-1.14365e-05 4.78567e-07 -0.000315075
0.00165117 -5.37085e-05 -2.06138e-05
-5.37085e-05 0.000323129 2.40489e-06
-2.06138e-05 2.40489e-06 0.000215972
0.00170103 -2.47379e-05 -7.25117e-06
-2.47379e-05 0.000238139 4.52771e-07
-7.25117e-06 4.52771e-07 0.000118937
0.00175841 -9.86803e-05 -5.24582e-06
-9.86803e-05 0.000295638 8.53916e-07
-5.24582e-06 8.53916e-07 0.000166916
0.000668345 -2.15453e-05 -8.31203e-06
-2.15453e-05 2.19289e-05 8.75335e-06
-8.31203e-06 8.75335e-06 -2.80433e-05
0.000923947 -0.000138072 -5.86597e-06
-0.000138072 0.000143971 5.26834e-06
-5.86597e-06 5.26834e-06 1.7977e-05
0.00102946 -0.000190932 -3.32505e-06
-0.000190932 8.10635e-05 1.16675e-06
-3.32505e-06 1.16675e-06 -9.21905e-05
0.0017716 -0.000153797 -8.11926e-06
-0.000153797 0.00033109 2.04212e-06
-8.11926e-06 2.04212e-06 0.000193918
0.00160431 -0.00013362 -6.95686e-07
-0.00013362 0.000133087 -4.42799e-07
-6.95686e-07 -4.42799e-07 4.571e-06
0.001424 -0.000177343 -2.07257e-06
-0.000177343 8.86846e-05 -1.32132e-07
-2.07257e-06 -1.32132e-07 -5.98564e-05
0.00145643 -0.000224261 -5.70711e-06
-0.000224261 0.000160246 -2.15711e-07
-5.70711e-06 -2.15711e-07 -1.66316e-05
0.00161291 -0.000220159 2.11872e-06
-0.000220159 0.000163784 -2.28717e-06
2.11872e-06 -2.28717e-06 5.50885e-06
0.000714602 -6.50366e-05 -3.71805e-06
-6.50366e-05 4.41045e-05 2.90929e-06
-3.71805e-06 2.90929e-06 -5.87333e-05
0.000621387 -5.256e-05 -2.35333e-06
-5.256e-05 -6.58109e-06 -2.9934e-07
-2.35333e-06 -2.9934e-07 -0.000127628
0.000698143 -1.16811e-05 -1.376e-06
-1.16811e-05 3.76359e-05 3.3864e-06
-1.376e-06 3.3864e-06 -4.25199e-05
0.00156864 -9.19152e-06 -2.3828e-06
-9.19152e-06 0.000158923 1.07891e-07
-2.3828e-06 1.07891e-07 3.76755e-05
0.00168558 -6.67555e-05 -1.98939e-06
-6.67555e-05 0.000237349 3.55804e-07
-1.98939e-06 3.55804e-07 0.000113674
0.00163648 -4.02883e-05 -1.26897e-08
-4.02883e-05 0.000101557 2.41682e-07
-1.26897e-08 2.41682e-07 -1.1562e-05
0.00161739 -0.000108289 -1.00399e-06
-0.000108289 0.000120882 2.30546e-07
-1.00399e-06 2.30546e-07 -5.56371e-06
0.000768782 -9.72576e-05 2.26803e-07
-9.72576e-05 7.51996e-05 4.68589e-08
2.26803e-07 4.68589e-08 -3.76965e-05
0.0010435 -0.000180353 -7.16165e-07
-0.000180353 0.000174832 6.52331e-07
-7.16165e-07 6.52331e-07 1.27443e-05
0.00109252 -0.000217684 4.35795e-07
-0.000217684 4.48183e-05 -1.31645e-06
4.35795e-07 -1.31645e-06 -0.000153256
0.00154174 -0.000162328 -2.74648e-07
-0.000162328 0.000130349 2.18801e-07
-2.74648e-07 2.18801e-07 -1.00622e-05
0.00171499 -0.000153677 1.05717e-06
-0.000153677 0.000132365 2.0609e-07
1.05717e-06 2.0609e-07 2.08725e-05
0.001716 -0.000253145 -9.73739e-07
-0.000253145 0.00026285 5.18014e-07
-9.73739e-07 5.18014e-07 7.67481e-05
0.00158169 -0.000206708 2.47384e-07
-0.000206708 0.000115705 1.82796e-07
2.47384e-07 1.82796e-07 -2.73275e-05
0.00191159 -0.000255671 1.04132e-06
-0.000255671 0.000284948 -5.27273e-07
1.04132e-06 -5.27273e-07 0.000136232
0.000919286 -0.000122804 7.51874e-08
-0.000122804 0.000151313 2.05767e-07
7.51874e-08 2.05767e-07 2.17139e-05
0.0010349 -0.00015859 -4.16214e-07
-0.00015859 0.00023051 3.81131e-07
-4.16214e-07 3.81131e-07 8.43385e-05
0.000673343 -9.19465e-06 1.63733e-07
-9.19465e-06 2.31013e-05 1.90012e-07
1.63733e-07 1.90012e-07 -4.73179e-05
0.000531716 -1.36143e-05 -1.50469e-07
-1.36143e-05 -4.56694e-05 -8.54987e-07
-1.50469e-07 -8.54987e-07 -0.000159358
0.00164118 -2.36423e-05 -2.98762e-07
-2.36423e-05 9.60316e-05 1.36818e-07
-2.98762e-07 1.36818e-07 -1.71245e-05
0.00183528 -7.3796e-05 -2.73737e-07
-7.3796e-05 0.000222131 8.45915e-07
-2.73737e-07 8.45915e-07 0.000104914
0.00165015 -5.75267e-05 4.15118e-07
-5.75267e-05 3.50899e-05 1.43921e-07
4.15118e-07 1.43921e-07 -6.69851e-05
0.00173508 -0.000135628 -3.9011e-06
-0.000135628 0.000109449 8.92287e-07
-3.9011e-06 8.92287e-07 8.88616e-06
0.00169987 -0.000184187 -3.09809e-06
-0.000184187 0.000147321 2.58128e-06
-3.09809e-06 2.58128e-06 2.19818e-05
0.00177558 -0.00015588 1.73446e-07
-0.00015588 0.000128299 1.4579e-07
1.73446e-07 1.4579e-07 3.26732e-05
0.000833008 -0.000151679 1.50828e-06
-0.000151679 9.04403e-05 -5.60333e-07
1.50828e-06 -5.60333e-07 -4.93611e-05
0.00162605 -0.000227513 -4.86045e-06
-0.000227513 8.93168e-05 3.10886e-06
-4.86045e-06 3.10886e-06 -3.60234e-05
0.000299105 -0.000145338 -4.18144e-07
-0.000145338 -0.000274275 -5.15339e-06
-4.18144e-07 -5.15339e-06 -0.000455858
0.0021416 -0.000313374 3.68074e-06
-0.000313374 0.000572327 -1.46975e-06
3.68074e-06 -1.46975e-06 0.000351348
0.00170157 -0.000267201 -1.20753e-06
-0.000267201 0.000205226 5.45033e-06
-1.20753e-06 5.45033e-06 1.9611e-05
0.00192169 -0.00025751 -1.84048e-06
-0.00025751 0.000263637 1.61032e-06
-1.84048e-06 1.61032e-06 0.000120192
0.000642454 -1.14604e-05 1.73169e-06
-1.14604e-05 3.76601e-06 -2.78645e-06
1.73169e-06 -2.78645e-06 -5.94854e-05
0.000541734 -1.75796e-05 2.65178e-08
-1.75796e-05 -2.66281e-05 -2.22488e-06
2.65178e-08 -2.22488e-06 -0.000137569
0.00088581 -0.0001654 5.7027e-07
-0.0001654 0.000130137 2.16918e-06
5.7027e-07 2.16918e-06 -1.57621e-05
0.000880757 -0.000119455 1.77416e-06
-0.000119455 0.000165005 3.53896e-07
1.77416e-06 3.53896e-07 2.39781e-05
0.00112994 -0.000187309 -9.08393e-07
-0.000187309 0.000276222 3.99757e-06
-9.08393e-07 3.99757e-06 0.000126561
0.000575319 -5.42836e-05 -1.26688e-06
-5.42836e-05 -3.27095e-05 -4.12873e-06
-1.26688e-06 -4.12873e-06 -5.34548e-05
0.00133437 0.000140328 -4.66683e-06
0.000140328 6.82267e-05 -1.29734e-06
-4.66683e-06 -1.29734e-06 -7.85932e-05
0.000594819 -6.29436e-05 -1.8542e-08
-6.29436e-05 -1.06522e-05 -2.38643e-06
-1.8542e-08 -2.38643e-06 -7.47127e-05
0.000720855 3.47109e-05 -8.16777e-07
3.47109e-05 5.80429e-05 -3.65258e-06
-8.16777e-07 -3.65258e-06 -3.95521e-05
0.00072411 8.16901e-06 1.63302e-06
8.16901e-06 7.27443e-05 -1.61868e-06
1.63302e-06 -1.61868e-06 -4.05285e-05
0.00121704 0.000183381 -6.13959e-06
0.000183381 5.93585e-05 -2.23408e-06
-6.13959e-06 -2.23408e-06 -0.000100522
0.00154745 0.000202232 -1.12137e-06
0.000202232 0.000142659 1.02564e-07
-1.12137e-06 1.02564e-07 -2.06842e-05
0.00100847 0.000163962 -2.07683e-06
0.000163962 0.00019842 -2.16539e-06
-2.07683e-06 -2.16539e-06 4.23052e-05
0.00135815 0.000230674 -2.91337e-06
0.000230674 0.000317158 -2.79021e-06
-2.91337e-06 -2.79021e-06 0.000109095
0.00184193 0.000248845 -4.074e-06
0.000248845 0.000407433 -2.19555e-06
-4.074e-06 -2.19555e-06 0.000232454
0.00111327 0.000217549 -5.95432e-06
0.000217549 3.58269e-05 -7.72641e-07
-5.95432e-06 -7.72641e-07 -0.000135495
0.00060394 -4.90284e-05 6.17264e-08
-4.90284e-05 -2.62718e-05 1.29749e-09
6.17264e-08 1.29749e-09 -4.36485e-05
0.000663251 -4.0601e-05 -6.00916e-07
-4.0601e-05 1.41203e-05 2.21758e-07
-6.00916e-07 2.21758e-07 -3.72167e-05
0.000918311 0.000107053 5.74558e-07
0.000107053 0.000165973 1.90069e-07
5.74558e-07 1.90069e-07 3.17372e-05
0.000723813 -8.95682e-06 -4.32335e-07
-8.95682e-06 7.40866e-05 3.10236e-07
-4.32335e-07 3.10236e-07 -2.25043e-05
0.000731468 7.90592e-05 1.02167e-06
7.90592e-05 8.59206e-05 -4.19784e-07
1.02167e-06 -4.19784e-07 -5.05664e-05
0.00155976 0.000173324 6.17842e-07
0.000173324 0.000117193 -3.32408e-07
6.17842e-07 -3.32408e-07 -3.40515e-05
0.00145976 0.000217334 6.83581e-07
0.000217334 0.000132248 7.08395e-07
6.83581e-07 7.08395e-07 -3.79103e-05
0.00165108 0.000237498 1.4213e-06
0.000237498 0.000151718 2.7602e-07
1.4213e-06 2.7602e-07 -9.59525e-06
0.00108341 0.000191426 1.30966e-06
0.000191426 0.000236427 1.32582e-06
1.30966e-06 1.32582e-06 4.03211e-05
0.0016222 0.00025689 1.4927e-06
0.00025689 0.0002378 -4.88434e-07
1.4927e-06 -4.88434e-07 5.9307e-05
0.000935423 0.000212378 -2.67385e-06
0.000212378 -1.13776e-05 -1.1043e-06
-2.67385e-06 -1.1043e-06 -0.000219143
0.00069501 -2.66543e-05 1.98113e-06
-2.66543e-05 2.23241e-05 1.93657e-06
1.98113e-06 1.93657e-06 -2.32528e-05
0.000780959 2.50396e-05 3.79772e-07
2.50396e-05 9.61931e-05 1.6766e-06
3.79772e-07 1.6766e-06 1.5112e-05
0.00105968 0.000177292 -8.51028e-07
0.000177292 0.000248756 -4.5165e-07
-8.51028e-07 -4.5165e-07 8.37419e-05
0.000848673 3.61166e-05 -1.92702e-07
3.61166e-05 0.000154151 9.33665e-07
-1.92702e-07 9.33665e-07 3.74131e-05
0.00118819 9.20186e-05 -3.23164e-06
9.20186e-05 0.000327942 -3.75843e-06
-3.23164e-06 -3.75843e-06 0.000185565
0.00163515 0.000183187 -2.7565e-06
0.000183187 0.000112797 -2.71289e-06
-2.7565e-06 -2.71289e-06 -2.57846e-05
0.00164043 0.000260111 1.50523e-06
0.000260111 0.000188511 6.43194e-07
1.50523e-06 6.43194e-07 1.33747e-05
0.0014981 0.000256221 4.11584e-07
0.000256221 3.17734e-05 -1.18401e-06
4.11584e-07 -1.18401e-06 -0.000121152
0.00104281 0.000198728 -9.43712e-07
0.000198728 0.000194792 2.48158e-06
-9.43712e-07 2.48158e-06 -3.1634e-05
0.00146248 0.000267432 5.35697e-06
0.000267432 0.000162571 -4.4154e-07
5.35697e-06 -4.4154e-07 -3.56123e-05
0.000679795 -2.80373e-05 -1.31494e-07
-2.80373e-05 9.81076e-06 -1.36167e-09
-1.31494e-07 -1.36167e-09 -3.38459e-05
0.000610726 5.1762e-06 1.39232e-06
5.1762e-06 -1.77686e-05 1.21135e-06
1.39232e-06 1.21135e-06 -8.37392e-05
0.000628443 -1.10683e-05 -5.79426e-07
-1.10683e-05 -3.06701e-06 -6.61975e-08
-5.79426e-07 -6.61975e-08 -7.00264e-05
0.000919285 5.6964e-05 8.18098e-07
5.6964e-05 0.000175691 -3.30104e-07
8.18098e-07 -3.30104e-07 9.35432e-05
0.00073113 4.26114e-05 1.67584e-06
4.26114e-05 5.77686e-05 1.00894e-06
1.67584e-06 1.00894e-06 -1.00524e-05
0.0006885 5.25947e-06 1.35342e-06
5.25947e-06 1.06545e-05 1.95685e-06
1.35342e-06 1.95685e-06 -3.09485e-05
0.000690582 -1.89851e-05 -4.10574e-07
-1.89851e-05 1.18941e-05 1.8156e-08
-4.10574e-07 1.8156e-08 -2.99601e-05
0.00125907 -3.87538e-05 7.98483e-07
-3.87538e-05 0.000332466 2.35617e-06
7.98483e-07 2.35617e-06 0.00032472
0.000686696 -3.32297e-05 -1.02506e-06
-3.32297e-05 1.2203e-05 -1.97281e-06
-1.02506e-06 -1.97281e-06 -3.08669e-05
0.00128771 -4.60233e-05 -4.92609e-06
-4.60233e-05 0.000354204 -1.30213e-06
-4.92609e-06 -1.30213e-06 0.000345116
0.000900117 -3.56093e-05 2.20469e-05
-3.56093e-05 0.000137666 7.01723e-06
2.20469e-05 7.01723e-06 0.000145412
0.0012904 -5.24487e-05 -9.74763e-06
-5.24487e-05 0.00036282 -3.51985e-06
-9.74763e-06 -3.51985e-06 0.000351712
0.00153588 -5.60357e-05 2.01797e-05
-5.60357e-05 0.0005144 1.95317e-06
2.01797e-05 1.95317e-06 0.00052283
0.00220062 -7.82794e-05 -2.83101e-05
-7.82794e-05 0.000906286 -3.45859e-06
-2.83101e-05 -3.45859e-06 0.000915671
0.000559831 4.67285e-05 4.44878e-07
4.67285e-05 -4.62719e-05 -4.78901e-06
4.44878e-07 -4.78901e-06 -7.04657e-05
0.000571004 4.21725e-05 -1.08952e-07
4.21725e-05 -3.35466e-05 1.23597e-07
-1.08952e-07 1.23597e-07 -6.18879e-05
0.00263398 9.58055e-05 3.81198e-05
9.58055e-05 0.00116279 -3.45965e-06
3.81198e-05 -3.45965e-06 0.00116645
0.00288574 0.000105255 -4.70077e-06
0.000105255 0.00131218 -2.83179e-07
-4.70077e-06 -2.83179e-07 0.00131363
0.00061011 3.55169e-05 -2.35571e-06
3.55169e-05 -6.65374e-06 6.34788e-06
-2.35571e-06 6.34788e-06 -3.99275e-05
0.00317907 0.000104177 -7.96452e-05
0.000104177 0.00148243 3.39784e-06
-7.96452e-05 3.39784e-06 0.0014839
0.00135413 0.000115674 -4.82392e-06
0.000115674 6.18573e-05 -1.03573e-06
-4.82392e-06 -1.03573e-06 -7.87377e-05
0.00136648 6.52278e-05 -4.34059e-06
6.52278e-05 5.48801e-05 -5.31831e-07
-4.34059e-06 -5.31831e-07 -7.53148e-05
0.00160103 0.000110604 -3.02767e-08
0.000110604 0.00010902 7.9931e-07
-3.02767e-08 7.9931e-07 -2.03812e-05
0.00171218 6.34203e-05 4.22625e-07
6.34203e-05 0.000125778 4.27822e-07
4.22625e-07 4.27822e-07 1.25069e-05
0.00138502 2.9544e-05 -3.81435e-06
2.9544e-05 4.96952e-05 -1.76693e-07
-3.81435e-06 -1.76693e-07 -7.42848e-05
0.00109485 6.76941e-06 -1.15559e-05
6.76941e-06 -1.99889e-06 -2.25008e-08
-1.15559e-05 -2.25008e-08 -0.000112925
0.00139418 1.01857e-05 6.7252e-08
1.01857e-05 5.56422e-05 6.2501e-08
6.7252e-08 6.2501e-08 -6.69972e-05
0.00169297 2.85802e-05 -8.52564e-07
2.85802e-05 0.000109186 -8.62966e-09
-8.52564e-07 -8.62966e-09 -1.49759e-06
0.00162428 9.10105e-05 -1.10815e-07
9.10105e-05 9.62023e-05 6.21042e-08
-1.10815e-07 6.21042e-08 -2.58699e-05
0.00180166 7.45228e-05 1.24734e-06
7.45228e-05 0.000115164 9.261e-07
1.24734e-06 9.261e-07 1.91536e-05
0.00157172 0.000135703 -2.01308e-07
0.000135703 0.000104283 -6.29301e-08
-2.01308e-07 -6.29301e-08 -3.43494e-05
0.00169486 0.000131285 -2.6474e-07
0.000131285 8.43997e-05 8.27794e-07
-2.6474e-07 8.27794e-07 -2.07834e-05
0.00166632 -1.80128e-08 -2.25796e-07
-1.80128e-08 0.000102394 2.7042e-07
-2.25796e-07 2.7042e-07 -8.14448e-06
0.00171139 4.43941e-05 4.14078e-08
4.43941e-05 5.9914e-05 1.00799e-06
4.14078e-08 1.00799e-06 -3.70932e-05
0.00179973 0.000107929 -3.72085e-06
0.000107929 0.000124813 -7.04786e-07
-3.72085e-06 -7.04786e-07 2.82015e-05
0.00180024 8.10201e-05 8.51079e-07
8.10201e-05 0.00010153 3.08183e-07
8.51079e-07 3.08183e-07 2.03217e-05
0.00160246 0.000139314 -1.84912e-06
0.000139314 6.21884e-05 -2.36791e-06
-1.84912e-06 -2.36791e-06 -5.62546e-05
0.00191107 0.000144665 1.05e-06
0.000144665 0.000168673 2.85357e-08
1.05e-06 2.85357e-08 7.9939e-05
0.0014056 -7.82696e-06 -5.86582e-06
-7.82696e-06 6.43853e-05 1.36908e-07
-5.86582e-06 1.36908e-07 -5.81233e-05
0.00169636 -6.99811e-05 -7.10021e-06
-6.99811e-05 0.000243439 7.26329e-07
-7.10021e-06 7.26329e-07 0.000119456
0.00161526 -3.83511e-05 1.27417e-07
-3.83511e-05 8.82292e-05 -5.89141e-07
1.27417e-07 -5.89141e-07 -2.25647e-05
0.00166133 -0.000106822 -9.23699e-07
-0.000106822 0.000141957 -1.5949e-07
-9.23699e-07 -1.5949e-07 1.56457e-05
0.000870153 -0.000112672 -4.61186e-06
-0.000112672 0.000132151 3.58193e-06
-4.61186e-06 3.58193e-06 1.74035e-05
0.00113082 -0.000187965 -2.92538e-06
-0.000187965 0.000220469 4.14854e-06
-2.92538e-06 4.14854e-06 5.72664e-05
0.000828401 -0.000194357 -3.14522e-06
-0.000194357 -9.3418e-05 7.52128e-07
-3.14522e-06 7.52128e-07 -0.000286711
0.00162578 -0.000166066 -1.84197e-06
-0.000166066 0.000177899 7.82804e-08
-1.84197e-06 7.82804e-08 3.58572e-05
0.00174987 -0.000153837 3.53441e-06
-0.000153837 0.000154211 -1.69691e-06
3.53441e-06 -1.69691e-06 4.62833e-05
0.00160489 -0.000206674 1.83801e-06
-0.000206674 0.000129639 -1.35446e-06
1.83801e-06 -1.35446e-06 -1.28852e-05
0.0016115 -0.00024883 -1.68327e-06
-0.00024883 0.000201661 -1.24921e-06
-1.68327e-06 -1.24921e-06 1.3524e-05
0.00194703 -0.000255929 5.46643e-06
-0.000255929 0.00030755 -5.98974e-06
5.46643e-06 -5.98974e-06 0.000161074
0.000940168 -0.00012224 -1.56753e-06
-0.00012224 0.000164109 -1.10872e-07
-1.56753e-06 -1.10872e-07 3.46279e-05
0.000833368 -0.0001204 -1.83411e-06
-0.0001204 0.00010902 -1.40681e-06
-1.83411e-06 -1.40681e-06 -2.91143e-05
0.000712639 -1.27792e-05 -1.57781e-06
-1.27792e-05 4.45062e-05 3.10533e-06
-1.57781e-06 3.10533e-06 -2.61317e-05
0.000490091 4.49446e-06 -2.52717e-07
4.49446e-06 -7.06248e-05 4.22613e-07
-2.52717e-07 4.22613e-07 -0.000180984
0.00163984 -2.34001e-05 -8.3074e-09
-2.34001e-05 9.53528e-05 2.92579e-09
-8.3074e-09 2.92579e-09 -1.78797e-05
0.0017489 -7.26239e-05 -3.5793e-07
-7.26239e-05 0.000172466 -8.30664e-08
-3.5793e-07 -8.30664e-08 5.36549e-05
0.00170052 -5.70723e-05 8.96936e-07
-5.70723e-05 6.57954e-05 -1.70074e-07
8.96936e-07 -1.70074e-07 -3.45703e-05
0.00168316 -0.000133447 -1.09039e-06
-0.000133447 8.70279e-05 4.51292e-07
-1.09039e-06 4.51292e-07 -1.55058e-05
0.00095675 -0.000150922 -3.60906e-07
-0.000150922 0.000158667 8.17343e-07
-3.60906e-07 8.17343e-07 1.92331e-05
0.000627062 -0.000167652 1.07042e-06
-0.000167652 -8.56159e-05 -1.7617e-06
1.07042e-06 -1.7617e-06 -0.000267327
0.00166429 -0.000279684 -3.91772e-07
-0.000279684 0.000300775 5.52166e-07
-3.91772e-07 5.52166e-07 8.22735e-05
0.00163396 -0.000181363 -1.24218e-06
-0.000181363 0.000114898 5.97431e-07
-1.24218e-06 5.97431e-07 -1.33053e-05
0.00170621 -0.000156564 1.92556e-06
-0.000156564 8.54587e-05 -9.64396e-07
1.92556e-06 -9.64396e-07 -7.54819e-06
0.00170583 -0.000268758 -9.38971e-07
-0.000268758 0.000209377 1.21188e-06
-9.38971e-07 1.21188e-06 2.2706e-05
0.00165742 -0.000228207 -3.00459e-07
-0.000228207 0.000109923 8.13761e-07
-3.00459e-07 8.13761e-07 -1.54396e-05
0.0017984 -0.000251868 2.86994e-06
-0.000251868 0.00018594 -4.06745e-06
2.86994e-06 -4.06745e-06 4.55987e-05
0.00100372 -0.000175273 3.01793e-07
-0.000175273 0.000195855 6.50526e-07
3.01793e-07 6.50526e-07 4.84658e-05
0.00108715 -0.000176183 1.3552e-06
-0.000176183 0.00024796 6.12054e-07
1.3552e-06 6.12054e-07 0.000102333
0.000827585 -8.78513e-05 -4.06175e-07
-8.78513e-05 0.000129902 1.77175e-07
-4.06175e-07 1.77175e-07 -7.62678e-06
0.000535217 5.70947e-06 -7.93936e-07
5.70947e-06 -5.7265e-05 1.507e-07
-7.93936e-07 1.507e-07 -0.000121992
0.000524381 1.07116e-05 -1.26732e-07
1.07116e-05 -4.0178e-05 -6.47628e-07
-1.26732e-07 -6.47628e-07 -0.000146757
0.00178722 -3.65976e-05 4.94909e-07
-3.65976e-05 0.00010462 -3.03057e-07
4.94909e-07 -3.03057e-07 7.27243e-06
0.00177662 -8.07933e-05 3.51396e-07
-8.07933e-05 0.000105506 1.72896e-07
3.51396e-07 1.72896e-07 1.17773e-05
0.00184463 -0.000155625 -2.12511e-06
-0.000155625 0.00013956 -5.03968e-07
-2.12511e-06 -5.03968e-07 5.71747e-05
0.00155632 -0.000181561 -1.85268e-06
-0.000181561 1.83204e-05 1.07361e-06
-1.85268e-06 1.07361e-06 -8.25221e-05
0.000907296 -0.000173842 -7.63222e-07
-0.000173842 0.000129792 -4.73095e-07
-7.63222e-07 -4.73095e-07 -2.92985e-05
0.00208269 -0.000264906 -4.50824e-06
-0.000264906 0.000301378 1.84716e-06
-4.50824e-06 1.84716e-06 0.000182232
-0.000139936 -0.000127155 -9.85586e-07
-0.000127155 -0.000547368 -5.83932e-06
-9.85586e-07 -5.83932e-06 -0.000738909
0.00202031 -0.000324144 2.74608e-06
-0.000324144 0.000453955 9.13343e-07
2.74608e-06 9.13343e-07 0.000224856
0.00160095 -0.00027175 2.52021e-07
-0.00027175 0.000107771 3.79288e-06
2.52021e-07 3.79288e-06 -7.26917e-05
0.000353455 1.56787e-05 1.06126e-06
1.56787e-05 -0.00016148 -3.58079e-06
1.06126e-06 -3.58079e-06 -0.000220923
0.000804851 -2.09266e-05 1.19796e-06
-2.09266e-05 0.000124539 -1.33607e-06
1.19796e-06 -1.33607e-06 2.51132e-05
0.000918911 -5.60532e-05 -3.4872e-07
-5.60532e-05 0.00018633 -6.86043e-07
-3.4872e-07 -6.86043e-07 6.29617e-05
0.00103592 -0.000183063 -2.43112e-06
-0.000183063 0.000202107 2.95258e-06
-2.43112e-06 2.95258e-06 5.49743e-05
0.000831473 -0.000113848 2.4965e-06
-0.000113848 0.000123072 2.70519e-06
2.4965e-06 2.70519e-06 -2.41722e-05
0.000700971 -0.000160145 2.52088e-07
-0.000160145 5.00883e-06 1.92877e-06
2.52088e-07 1.92877e-06 -0.00013826
0.000597793 -4.77844e-05 -1.2512e-06
-4.77844e-05 -3.00757e-05 -4.03421e-06
-1.2512e-06 -4.03421e-06 -4.72554e-05
0.000640243 -4.33889e-05 -1.75872e-06
-4.33889e-05 1.34982e-06 -1.83599e-06
-1.75872e-06 -1.83599e-06 -4.99572e-05
0.00156369 0.000174925 -8.40377e-07
0.000174925 0.000116646 -7.41737e-08
-8.40377e-07 -7.41737e-08 -3.51693e-05
0.000658876 -6.53491e-05 1.28005e-06
-6.53491e-05 3.65186e-05 -1.66809e-06
1.28005e-06 -1.66809e-06 -5.69017e-05
0.000825193 9.94077e-05 -7.04354e-07
9.94077e-05 0.000111255 -8.01627e-07
-7.04354e-07 -8.01627e-07 -1.95827e-05
0.000602925 4.60935e-05 1.71036e-06
4.60935e-05 7.23105e-06 -2.55206e-07
1.71036e-06 -2.55206e-07 -0.000123988
0.00154512 0.00022235 -2.09487e-06
0.00022235 0.000182553 -7.25824e-07
-2.09487e-06 -7.25824e-07 1.17137e-05
0.00159933 0.000236319 1.3155e-06
0.000236319 0.000122965 6.9812e-07
1.3155e-06 6.9812e-07 -3.89825e-05
0.00100139 0.000184051 -4.88225e-08
0.000184051 0.000197148 -9.50138e-07
-4.88225e-08 -9.50138e-07 7.50326e-07
0.00132156 0.000241374 -1.71438e-06
0.000241374 0.000199001 -1.2217e-06
-1.71438e-06 -1.2217e-06 -9.20587e-06
0.00172322 0.000263449 -4.21088e-06
0.000263449 0.000297445 -1.97923e-06
-4.21088e-06 -1.97923e-06 0.000118892
0.000678196 -2.75782e-05 -2.29245e-07
-2.75782e-05 1.32389e-05 5.3835e-08
-2.29245e-07 5.3835e-08 -3.24291e-05
0.000724911 -1.8264e-05 -8.30783e-07
-1.8264e-05 6.27849e-05 3.83321e-07
-8.30783e-07 3.83321e-07 -1.59242e-05
0.00101439 0.000173086 -8.75931e-07
0.000173086 0.000224849 -3.0393e-07
-8.75931e-07 -3.0393e-07 6.0256e-05
0.000799585 -1.32044e-06 1.84065e-07
-1.32044e-06 0.000122778 1.25772e-07
1.84065e-07 1.25772e-07 1.1019e-05
0.000934177 0.000105568 3.32458e-07
0.000105568 0.000194459 1.8327e-07
3.32458e-07 1.8327e-07 4.71969e-05
0.0016466 0.000186362 -1.71276e-06
0.000186362 0.000119156 -1.2693e-06
-1.71276e-06 -1.2693e-06 -2.05116e-05
0.00161259 0.000257573 1.34248e-06
0.000257573 0.000171499 4.56275e-07
1.34248e-06 4.56275e-07 -3.68347e-06
0.00160472 0.000258392 5.7559e-07
0.000258392 9.23626e-05 4.05289e-08
5.7559e-07 4.05289e-08 -5.95868e-05
0.000696649 0.000174328 4.36797e-07
0.000174328 -4.84871e-06 3.5755e-06
4.36797e-07 3.5755e-06 -0.000226972
0.00167621 0.000283789 -1.38793e-06
0.000283789 0.000287639 -6.82157e-07
-1.38793e-06 -6.82157e-07 8.5402e-05
0.000774037 1.95434e-05 1.00877e-06
1.95434e-05 8.16153e-05 1.16336e-06
1.00877e-06 1.16336e-06 1.10834e-05
0.000551649 -2.48131e-05 -9.45131e-07
-2.48131e-05 -2.7582e-05 2.10489e-06
-9.45131e-07 2.10489e-06 -0.000121857
0.00094522 0.000175191 -2.90374e-06
0.000175191 0.000172056 -1.25221e-06
-2.90374e-06 -1.25221e-06 -8.67952e-06
0.000791656 5.51247e-05 -2.47517e-06
5.51247e-05 0.000132109 -1.65194e-06
-2.47517e-06 -1.65194e-06 -7.38322e-06
0.000945275 0.000162889 -1.20405e-06
0.000162889 0.000179996 -1.7371e-06
-1.20405e-06 -1.7371e-06 2.42902e-05
0.00160002 0.000201901 -1.3157e-06
0.000201901 1.85454e-05 -2.56998e-06
-1.3157e-06 -2.56998e-06 -9.41144e-05
0.00182899 0.00029937 1.56146e-06
0.00029937 0.000267932 -1.72804e-06
1.56146e-06 -1.72804e-06 8.68042e-05
0.00151301 0.000263243 2.04704e-06
0.000263243 2.71324e-05 9.73687e-09
2.04704e-06 9.73687e-09 -0.000124655
0.00171879 0.000261605 2.38976e-06
0.000261605 0.000501382 6.11192e-06
2.38976e-06 6.11192e-06 0.000260546
0.00128423 0.000268016 -5.65075e-07
0.000268016 4.2431e-05 -9.11541e-07
-5.65075e-07 -9.11541e-07 -0.000158262
0.000677972 -3.05936e-05 -1.50651e-06
-3.05936e-05 9.50423e-06 -1.93163e-06
-1.50651e-06 -1.93163e-06 -3.45008e-05
0.000665937 8.02944e-06 5.46962e-07
8.02944e-06 1.54089e-05 4.12886e-07
5.46962e-07 4.12886e-07 -5.11314e-05
0.000623756 -1.84618e-05 -2.13775e-07
-1.84618e-05 -7.34497e-07 5.46444e-07
-2.13775e-07 5.46444e-07 -7.63911e-05
0.000543663 -3.98194e-05 -8.15756e-07
-3.98194e-05 -5.33276e-05 -9.03043e-07
-8.15756e-07 -9.03043e-07 -0.000119241
0.000718031 1.51134e-05 -6.95611e-08
1.51134e-05 4.88887e-05 2.37573e-08
-6.95611e-08 2.37573e-08 -1.76089e-05
0.000743118 1.63678e-05 -5.06933e-08
1.63678e-05 6.75816e-05 -3.60129e-07
-5.06933e-08 -3.60129e-07 -8.71484e-06
0.000841205 4.40734e-05 -3.2904e-07
4.40734e-05 0.000131662 -8.28709e-07
-3.2904e-07 -8.28709e-07 4.68523e-05
0.000628139 -2.59652e-05 7.03458e-07
-2.59652e-05 1.00052e-05 2.73121e-07
7.03458e-07 2.73121e-07 -7.3009e-05
0.000740328 3.13629e-05 6.02754e-07
3.13629e-05 5.79534e-05 9.35988e-07
6.02754e-07 9.35988e-07 -6.0688e-06
0.00068986 1.20767e-05 1.32671e-06
1.20767e-05 1.43995e-05 1.88242e-06
1.32671e-06 1.88242e-06 -2.80604e-05
0.000695172 -6.72546e-06 -5.44684e-07
-6.72546e-06 1.49205e-05 1.42541e-08
-5.44684e-07 1.42541e-08 -2.68714e-05
0.00126678 -2.82101e-05 8.26418e-07
-2.82101e-05 0.000332914 2.31384e-06
8.26418e-07 2.31384e-06 0.000326078
0.000682629 -3.09124e-05 -6.89359e-07
-3.09124e-05 8.54419e-06 -1.98366e-06
-6.89359e-07 -1.98366e-06 -3.38396e-05
0.00129151 -3.60097e-05 -4.22145e-06
-3.60097e-05 0.000350879 -1.36009e-06
-4.22145e-06 -1.36009e-06 0.00034333
0.000907797 -2.94005e-05 1.82049e-05
-2.94005e-05 0.000135873 7.30281e-06
1.82049e-05 7.30281e-06 0.000144904
0.00131362 -4.38803e-05 -8.34229e-06
-4.38803e-05 0.000368664 -5.07027e-06
-8.34229e-06 -5.07027e-06 0.000359777
0.000842542 -3.65726e-05 6.99377e-06
-3.65726e-05 0.000104449 2.72894e-06
6.99377e-06 2.72894e-06 0.000111764
0.00213305 -7.38924e-05 -5.70963e-06
-7.38924e-05 0.000859712 -1.72458e-06
-5.70963e-06 -1.72458e-06 0.000870334
0.000584932 3.93441e-05 4.32878e-07
3.93441e-05 -4.02311e-05 -4.22448e-06
4.32878e-07 -4.22448e-06 -5.92898e-05
0.000576903 4.74695e-05 -4.48605e-08
4.74695e-05 -3.57374e-05 6.97471e-08
-4.48605e-08 6.97471e-08 -6.04006e-05
0.00249058 8.40121e-05 3.02228e-05
8.40121e-05 0.00107371 -3.77432e-06
3.02228e-05 -3.77432e-06 0.0010803
0.000602911 3.99933e-05 -1.83818e-06
3.99933e-05 -1.52618e-05 5.53238e-06
-1.83818e-06 5.53238e-06 -4.36701e-05
0.00269931 9.62345e-05 -4.06647e-06
9.62345e-05 0.00120012 -2.71231e-07
-4.06647e-06 -2.71231e-07 0.00120376
0.00295501 9.92771e-05 -6.46407e-05
9.92771e-05 0.00135049 3.20927e-06
-6.46407e-05 3.20927e-06 0.00135343
0.00156226 0.00013656 -1.40421e-06
0.00013656 9.77458e-05 4.53764e-07
-1.40421e-06 4.53764e-07 -4.1436e-05
0.00164905 8.909e-05 6.85135e-07
8.909e-05 0.000111492 7.39368e-07
6.85135e-07 7.39368e-07 -1.03209e-05
0.00169859 0.000128659 2.73659e-06
0.000128659 8.37043e-05 2.01116e-06
2.73659e-06 2.01116e-06 -1.89801e-05
0.0018482 7.66853e-05 3.02098e-06
7.66853e-05 0.000140131 4.52088e-07
3.02098e-06 4.52088e-07 4.72551e-05
0.00169733 2.09352e-05 -8.26674e-07
2.09352e-05 0.000112498 1.82787e-09
-8.26674e-07 1.82787e-09 2.05545e-06
0.00139109 1.29796e-05 -3.67002e-06
1.29796e-05 5.39717e-05 7.64682e-08
-3.67002e-06 7.64682e-08 -6.87099e-05
0.00165683 2.70706e-06 -6.60819e-07
2.70706e-06 9.70613e-05 4.71704e-09
-6.60819e-07 4.71704e-09 -1.46394e-05
0.00173023 3.8557e-05 8.52396e-07
3.8557e-05 7.33075e-05 -7.19783e-08
8.52396e-07 -7.19783e-08 -2.4808e-05
0.00176371 0.000106049 -1.18851e-06
0.000106049 0.000103573 -3.14987e-07
-1.18851e-06 -3.14987e-07 5.56864e-06
0.00176214 8.10898e-05 2.26794e-06
8.10898e-05 7.71093e-05 8.106e-08
2.26794e-06 8.106e-08 -1.21093e-06
0.00162292 0.000138206 -7.52152e-07
0.000138206 7.98562e-05 -1.07396e-07
-7.52152e-07 -1.07396e-07 -3.85419e-05
0.00180706 0.000145437 3.39293e-06
0.000145437 0.000107268 1.05169e-06
3.39293e-06 1.05169e-06 2.13304e-05
0.00176695 -1.62684e-06 -3.24883e-07
-1.62684e-06 0.000104683 3.2336e-07
-3.24883e-07 3.2336e-07 6.24711e-06
0.0017117 4.75459e-05 6.03117e-07
4.75459e-05 4.54911e-05 1.20129e-06
6.03117e-07 1.20129e-06 -3.37541e-05
0.00181968 0.000107586 2.66387e-07
0.000107586 9.42281e-05 -2.06241e-07
2.66387e-07 -2.06241e-07 1.95771e-05
0.00187129 0.000173512 -5.29319e-07
0.000173512 0.00014757 -1.20337e-06
-5.29319e-07 -1.20337e-06 5.82078e-05
0.0016368 -2.31491e-05 -9.90147e-08
-2.31491e-05 9.38934e-05 -9.56007e-08
-9.90147e-08 -9.56007e-08 -1.94171e-05
0.00165917 -7.32427e-05 -8.91381e-08
-7.32427e-05 0.000121209 -8.46432e-07
-8.91381e-08 -8.46432e-07 7.07068e-07
0.00175004 -5.68552e-05 2.34087e-06
-5.68552e-05 9.61921e-05 -3.89092e-07
2.34087e-06 -3.89092e-07 -2.49185e-06
0.00163756 -0.000131071 1.00275e-06
-0.000131071 6.8026e-05 -3.45923e-07
1.00275e-06 -3.45923e-07 -3.64459e-05
0.00112001 -0.000162554 -1.73085e-06
-0.000162554 0.000251237 2.09245e-06
-1.73085e-06 2.09245e-06 0.000109283
0.000963884 -0.000191342 8.57996e-07
-0.000191342 0.000108338 2.03852e-06
8.57996e-07 2.03852e-06 -7.31937e-05
0.0011464 -0.000243332 -2.4068e-06
-0.000243332 6.14314e-06 1.71063e-06
-2.4068e-06 1.71063e-06 -0.000209489
0.00156754 -0.000178575 3.5513e-07
-0.000178575 8.23458e-05 -7.54155e-07
3.5513e-07 -7.54155e-07 -4.87238e-05
0.00164582 -0.000157826 4.26159e-06
-0.000157826 4.79206e-05 -2.28343e-06
4.26159e-06 -2.28343e-06 -4.25571e-05
0.00169119 -0.000229078 3.99942e-06
-0.000229078 0.000131186 -1.36827e-06
3.99942e-06 -1.36827e-06 5.77844e-06
0.00167275 -0.000268489 -8.25206e-07
-0.000268489 0.000192212 -3.19516e-06
-8.25206e-07 -3.19516e-06 4.73028e-06
0.00167955 -0.000246795 4.29197e-06
-0.000246795 0.000111959 -9.69167e-06
4.29197e-06 -9.69167e-06 -2.53743e-05
0.00112718 -0.000185534 5.01887e-07
-0.000185534 0.000264973 -7.88391e-07
5.01887e-07 -7.88391e-07 0.000115987
0.00107947 -0.000175887 5.99727e-07
-0.000175887 0.000239676 -3.91203e-06
5.99727e-07 -3.91203e-06 9.57635e-05
0.000789541 -6.7496e-05 -2.84201e-07
-6.7496e-05 0.000102983 2.14794e-07
-2.84201e-07 2.14794e-07 -3.09034e-05
0.000420589 1.5526e-05 -1.76254e-06
1.5526e-05 -0.000121979 2.78778e-06
-1.76254e-06 2.78778e-06 -0.000188472
0.00051021 3.45017e-05 3.4734e-07
3.45017e-05 -5.00471e-05 7.21732e-07
3.4734e-07 7.21732e-07 -0.000153573
0.0018224 -3.94817e-05 1.79546e-07
-3.94817e-05 0.000127155 1.78458e-08
1.79546e-07 1.78458e-08 2.97793e-05
0.00178605 -8.38079e-05 5.40149e-07
-8.38079e-05 0.00011143 -5.65118e-07
5.40149e-07 -5.65118e-07 1.67496e-05
0.00176398 -0.000151772 -1.44344e-06
-0.000151772 9.73647e-05 1.30399e-07
-1.44344e-06 1.30399e-07 1.30008e-05
0.00105355 -0.000184792 -1.45392e-07
-0.000184792 0.000209541 1.16243e-06
-1.45392e-07 1.16243e-06 4.88981e-05
0.000781949 -0.000195468 1.8752e-06
-0.000195468 -3.0249e-05 -2.84255e-06
1.8752e-06 -2.84255e-06 -0.000228069
0.00168246 -0.000300936 -9.41233e-07
-0.000300936 0.000263366 8.51537e-07
-9.41233e-07 8.51537e-07 3.42408e-05
0.0015953 -0.000183082 3.85315e-07
-0.000183082 3.74636e-05 -1.63288e-07
3.85315e-07 -1.63288e-07 -6.39836e-05
0.00159247 -0.000268601 8.62415e-07
-0.000268601 0.000105754 -2.32511e-06
8.62415e-07 -2.32511e-06 -6.92785e-05
0.00179261 -0.000251134 -5.59852e-07
-0.000251134 0.000143982 -1.02012e-06
-5.59852e-07 -1.02012e-06 2.41612e-05
0.000379511 2.10065e-05 1.39321e-07
2.10065e-05 -0.000148252 -7.80609e-07
1.39321e-07 -7.80609e-07 -0.000206034
0.00108884 -0.000186504 -1.34037e-07
-0.000186504 0.000227549 6.78764e-07
-1.34037e-07 6.78764e-07 8.0312e-05
0.000749191 -0.000162251 -6.5912e-07
-0.000162251 3.82583e-05 1.3805e-07
-6.5912e-07 1.3805e-07 -0.000100741
0.000978291 -0.000129634 -5.32924e-07
-0.000129634 0.000210165 6.5964e-07
-5.32924e-07 6.5964e-07 5.67341e-05
0.000989703 -5.59528e-05 -8.54476e-08
-5.59528e-05 0.000227002 -1.70674e-07
-8.54476e-08 -1.70674e-07 0.000103723
0.000673293 6.73908e-06 -3.37556e-07
6.73908e-06 4.48793e-05 3.55283e-07
-3.37556e-07 3.55283e-07 -5.23081e-05
0.00159203 -4.5751e-05 -4.05058e-07
-4.5751e-05 -1.47236e-05 -2.95107e-07
-4.05058e-07 -2.95107e-07 -0.000101944
0.00198528 -0.000116851 -1.46512e-07
-0.000116851 0.000174939 -9.07313e-08
-1.46512e-07 -9.07313e-08 0.000102677
0.00154371 -0.000170819 -4.53872e-07
-0.000170819 -3.84477e-05 -2.8157e-07
-4.53872e-07 -2.8157e-07 -0.000117963
0.00197506 -0.000229548 -1.75683e-06
-0.000229548 0.000188265 -6.83781e-07
-1.75683e-06 -6.83781e-07 9.47047e-05
0.00107223 -0.000196396 -2.32477e-06
-0.000196396 0.00020435 -3.96613e-07
-2.32477e-06 -3.96613e-07 3.56821e-05
0.00177655 -0.000280134 8.92058e-08
-0.000280134 0.00015603 4.07898e-06
8.92058e-08 4.07898e-06 1.15583e-05
0.000740649 -0.000221681 -1.16616e-06
-0.000221681 -0.000113598 -2.56588e-06
-1.16616e-06 -2.56588e-06 -0.000347105
0.00174255 -0.000321678 -2.96883e-08
-0.000321678 0.000272744 3.37364e-06
-2.96883e-08 3.37364e-06 3.77413e-05
0.000364128 4.01501e-05 -8.16425e-07
4.01501e-05 -0.000161153 -2.94815e-06
-8.16425e-07 -2.94815e-06 -0.000211991
0.000804087 -1.13728e-05 1.00243e-06
-1.13728e-05 0.000118092 -1.39114e-06
1.00243e-06 -1.39114e-06 2.97008e-05
0.000987486 -7.70169e-05 -2.00993e-07
-7.70169e-05 0.000228558 5.10201e-07
-2.00993e-07 5.10201e-07 0.000114215
0.000834782 -2.16428e-05 -4.5092e-07
-2.16428e-05 0.000136086 -1.63301e-07
-4.5092e-07 -1.63301e-07 -2.87895e-06
0.000815389 -0.000176158 -1.16204e-06
-0.000176158 5.34825e-05 7.01352e-07
-1.16204e-06 7.01352e-07 -9.38068e-05
0.000951876 -0.000177023 -3.73009e-06
-0.000177023 0.000154912 3.10485e-06
-3.73009e-06 3.10485e-06 -3.34423e-06
0.000660498 -3.46432e-05 -1.92053e-06
-3.46432e-05 4.10123e-06 -1.84837e-06
-1.92053e-06 -1.84837e-06 -4.19901e-05
0.00064851 -5.88488e-05 6.53417e-08
-5.88488e-05 1.9241e-05 -1.04939e-06
6.53417e-08 -1.04939e-06 -5.80995e-05
0.00165829 0.000189713 -9.71745e-07
0.000189713 0.00012505 1.42418e-07
-9.71745e-07 1.42418e-07 -1.57523e-05
0.000727151 -3.74042e-05 8.854e-07
-3.74042e-05 7.88179e-05 -8.26485e-07
8.854e-07 -8.26485e-07 -2.85018e-05
0.000917359 0.00016454 6.07273e-07
0.00016454 0.000170587 -6.11806e-07
6.07273e-07 -6.11806e-07 7.64556e-06
0.000406173 5.97988e-05 1.97885e-06
5.97988e-05 -0.000110538 6.802e-07
1.97885e-06 6.802e-07 -0.000249543
0.00158314 0.00025485 -2.13632e-07
0.00025485 0.000153952 6.04056e-08
-2.13632e-07 6.04056e-08 -2.12332e-05
0.00173304 0.000262119 1.49968e-07
0.000262119 0.000163946 1.31593e-06
1.49968e-07 1.31593e-06 1.27235e-05
0.000491198 0.000160667 -2.42381e-07
0.000160667 -0.000125164 7.4824e-07
-2.42381e-07 7.4824e-07 -0.000343874
0.00199332 0.000307451 -1.41709e-06
0.000307451 0.000469756 7.08949e-07
-1.41709e-06 7.08949e-07 0.000261801
0.00072513 -6.079e-06 -6.99326e-07
-6.079e-06 5.30198e-05 1.2605e-07
-6.99326e-07 1.2605e-07 -1.62236e-05
0.000681749 -6.31176e-06 1.40535e-07
-6.31176e-06 4.61864e-05 1.06312e-06
1.40535e-07 1.06312e-06 -4.93023e-05
0.00108395 0.000186044 -1.52293e-07
0.000186044 0.000257934 -2.31785e-06
-1.52293e-07 -2.31785e-06 7.38958e-05
0.000563554 1.0868e-06 -4.42081e-07
1.0868e-06 -1.08409e-05 -1.6761e-07
-4.42081e-07 -1.6761e-07 -0.000138961
0.000744832 0.000131978 -1.70025e-06
0.000131978 6.33477e-05 -6.88839e-07
-1.70025e-06 -6.88839e-07 -7.89877e-05
0.00185199 0.000210533 -2.35902e-06
0.000210533 0.000159865 -1.20926e-06
-2.35902e-06 -1.20926e-06 4.9347e-05
0.00187183 0.000298755 1.21188e-06
0.000298755 0.000292437 -1.93516e-07
1.21188e-06 -1.93516e-07 0.000112896
0.00161556 0.000275046 4.3296e-07
0.000275046 8.27668e-05 1.66082e-06
4.3296e-07 1.66082e-06 -7.11853e-05
0.00150013 0.000248442 2.67567e-06
0.000248442 0.00038698 3.72224e-06
2.67567e-06 3.72224e-06 0.000141786
0.0014246 0.000282494 -1.91789e-06
0.000282494 0.000114019 3.98504e-07
-1.91789e-06 3.98504e-07 -9.12256e-05
0.00051109 -2.96255e-05 -3.09361e-07
-2.96255e-05 -5.76475e-05 1.49592e-06
-3.09361e-07 1.49592e-06 -0.000139011
0.000356383 5.71313e-05 -4.24501e-07
5.71313e-05 -0.000117625 7.06817e-07
-4.24501e-07 7.06817e-07 -0.000239054
0.00105908 0.000188683 1.08903e-06
0.000188683 0.000218912 2.51028e-06
1.08903e-06 2.51028e-06 1.6813e-05
-0.000255713 5.17365e-05 1.8707e-06
5.17365e-05 -0.000481781 3.31789e-07
1.8707e-06 3.31789e-07 -0.00063038
0.00190624 0.000214141 -2.62928e-06
0.000214141 7.67556e-05 -7.04822e-07
-2.62928e-06 -7.04822e-07 -2.09976e-06
0.00205038 0.000261661 9.40583e-07
0.000261661 0.000258833 -4.60133e-07
9.40583e-07 -4.60133e-07 0.00013767
0.00177872 0.00032754 -1.32229e-06
0.00032754 0.000216966 -2.71806e-06
-1.32229e-06 -2.71806e-06 2.46618e-05
-0.000175822 0.000140848 -1.20495e-06
0.000140848 -0.000629971 1.61132e-06
-1.20495e-06 1.61132e-06 -0.00086929
0.000719241 2.85123e-05 -8.15744e-07
2.85123e-05 5.05578e-05 -3.60756e-07
-8.15744e-07 -3.60756e-07 -1.87195e-05
0.000698112 8.3277e-06 -3.11095e-07
8.3277e-06 4.68838e-05 3.74322e-07
-3.11095e-07 3.74322e-07 -3.20604e-05
0.000840736 -7.80799e-06 -6.57942e-07
-7.80799e-06 0.000131113 -2.38298e-07
-6.57942e-07 -2.38298e-07 5.09883e-05
0.000702562 -2.05126e-05 -1.19195e-06
-2.05126e-05 3.61896e-05 -9.00699e-07
-1.19195e-06 -9.00699e-07 -2.72504e-05
0.000573158 -2.56144e-05 -2.48251e-07
-2.56144e-05 -2.72424e-05 -5.79252e-07
-2.48251e-07 -5.79252e-07 -0.000104242
0.000726433 6.23603e-06 3.56597e-09
6.23603e-06 5.16297e-05 -7.27484e-09
3.56597e-09 -7.27484e-09 -1.34089e-05
0.000723235 4.44747e-05 -4.58056e-07
4.44747e-05 7.22039e-05 -2.68308e-07
-4.58056e-07 -2.68308e-07 -1.70327e-05
0.000682181 3.17454e-06 5.18279e-07
3.17454e-06 4.31615e-05 3.21021e-07
5.18279e-07 3.21021e-07 -4.10159e-05
0.000791642 1.45715e-05 8.53749e-07
1.45715e-05 0.000102255 1.18243e-07
8.53749e-07 1.18243e-07 1.68279e-05
0.00074951 -3.28692e-05 9.77273e-07
-3.28692e-05 8.16642e-05 -4.152e-07
9.77273e-07 -4.152e-07 -8.31327e-06
0.000603091 2.63606e-05 4.66423e-07
2.63606e-05 -5.147e-06 8.03877e-07
4.66423e-07 8.03877e-07 -8.97656e-05
0.000716925 4.48367e-05 9.13642e-07
4.48367e-05 4.77943e-05 1.10534e-06
9.13642e-07 1.10534e-06 -1.93366e-05
0.000667325 2.31564e-05 8.90282e-07
2.31564e-05 6.09807e-06 1.78133e-06
8.90282e-07 1.78133e-06 -3.79651e-05
0.000676698 -5.23246e-06 -4.48666e-07
-5.23246e-06 7.54908e-06 1.73068e-08
-4.48666e-07 1.73068e-08 -3.53117e-05
0.0012737 -1.81225e-05 6.47751e-07
-1.81225e-05 0.000334528 2.22675e-06
6.47751e-07 2.22675e-06 0.000328066
0.000680715 -2.58941e-05 -4.15284e-07
-2.58941e-05 7.50059e-06 -1.98221e-06
-4.15284e-07 -1.98221e-06 -3.47425e-05
0.00130009 -2.56936e-05 -3.49987e-06
-2.56936e-05 0.000352213 -1.4368e-06
-3.49987e-06 -1.4368e-06 0.000345394
0.000914009 -2.24849e-05 1.51716e-05
-2.24849e-05 0.000134711 7.61478e-06
1.51716e-05 7.61478e-06 0.000144513
0.00132238 -3.39395e-05 -6.86714e-06
-3.39395e-05 0.000368504 -5.10827e-06
-6.86714e-06 -5.10827e-06 0.000360978
0.000851792 -2.98419e-05 5.65511e-06
-2.98419e-05 0.000103284 2.82888e-06
5.65511e-06 2.82888e-06 0.000112165
0.000784698 -3.59816e-05 -1.77641e-06
-3.59816e-05 7.09492e-05 -1.91747e-06
-1.77641e-06 -1.91747e-06 7.82812e-05
0.000596857 3.3412e-05 4.81476e-07
3.3412e-05 -4.1909e-05 -3.79851e-06
4.81476e-07 -3.79851e-06 -5.63308e-05
0.000595929 4.13948e-05 -1.43896e-07
4.13948e-05 -3.34985e-05 7.93803e-08
-1.43896e-07 7.93803e-08 -5.3004e-05
0.00233542 7.09364e-05 2.42602e-05
7.09364e-05 0.000976892 -3.96572e-06
2.42602e-05 -3.96572e-06 0.000986882
0.000596677 4.27416e-05 -1.20807e-06
4.27416e-05 -2.49889e-05 4.96426e-06
-1.20807e-06 4.96426e-06 -4.92442e-05
0.00255052 8.50051e-05 -3.90633e-06
8.50051e-05 0.00110847 -2.53679e-07
-3.90633e-06 -2.53679e-07 0.00111482
0.00276261 9.42944e-05 -4.85995e-05
9.42944e-05 0.00123585 3.32567e-06
-4.85995e-05 3.32567e-06 0.00124007
0.00164054 0.000137113 1.30839e-06
0.000137113 9.58573e-05 2.28016e-06
1.30839e-06 2.28016e-06 -2.25056e-05
0.00173082 0.000104162 7.20182e-07
0.000104162 8.42424e-05 4.12078e-07
7.20182e-07 4.12078e-07 -1.51613e-05
0.00170601 0.000146219 4.60667e-06
0.000146219 4.7567e-05 1.57656e-06
4.60667e-06 1.57656e-06 -3.55922e-05
0.00172375 8.1233e-05 2.91123e-06
8.1233e-05 5.27482e-05 -3.33094e-07
2.91123e-06 -3.33094e-07 -2.2714e-05
0.00174941 3.35944e-05 2.0582e-06
3.35944e-05 8.68954e-05 -3.84199e-07
2.0582e-06 -3.84199e-07 -1.23647e-05
0.00165109 1.63269e-06 -8.96813e-07
1.63269e-06 9.35846e-05 -6.8512e-08
-8.96813e-07 -6.8512e-08 -1.92063e-05
0.00175129 8.82365e-07 -1.4962e-07
8.82365e-07 9.63155e-05 1.66721e-08
-1.4962e-07 1.66721e-08 -2.11017e-06
0.00168739 4.48554e-05 1.68695e-06
4.48554e-05 3.80402e-05 -4.97154e-07
1.68695e-06 -4.97154e-07 -4.22864e-05
0.00181657 0.00011092 7.06445e-07
0.00011092 9.37871e-05 -3.12765e-07
7.06445e-07 -3.12765e-07 1.82408e-05
0.00192063 0.000170744 3.48802e-07
0.000170744 0.000165528 2.61304e-07
3.48802e-07 2.61304e-07 7.75764e-05
0.00175763 -1.2871e-06 -1.67373e-06
-1.2871e-06 8.62493e-05 7.59995e-07
-1.67373e-06 7.59995e-07 2.49087e-06
0.001896 7.97733e-05 2.0638e-06
7.97733e-05 9.63103e-05 2.88472e-07
2.0638e-06 2.88472e-07 3.82857e-05
0.00168312 0.000156903 1.25031e-06
0.000156903 -3.35199e-05 -3.71736e-07
1.25031e-06 -3.71736e-07 -0.000105147
0.00186007 -4.21421e-05 7.37904e-07
-4.21421e-05 0.000151048 1.61106e-07
7.37904e-07 1.61106e-07 5.36609e-05
0.0017954 -8.65378e-05 9.45866e-07
-8.65378e-05 0.000117198 -6.44192e-07
9.45866e-07 -6.44192e-07 2.15861e-05
0.0016866 -0.000147363 4.73712e-07
-0.000147363 5.76752e-05 -3.70451e-08
4.73712e-07 -3.70451e-08 -2.8616e-05
0.00120165 -0.000195824 1.25116e-07
-0.000195824 0.000290302 2.85224e-06
1.25116e-07 2.85224e-06 0.000128107
0.00176859 -0.000268797 -4.82901e-07
-0.000268797 0.000523069 1.98532e-06
-4.82901e-07 1.98532e-06 0.000318984
0.00144583 -0.000285271 -2.6922e-06
-0.000285271 0.000129159 1.08023e-06
-2.6922e-06 1.08023e-06 -9.97041e-05
0.00163204 -0.000184418 1.43312e-06
-0.000184418 5.58315e-05 -9.15459e-07
1.43312e-06 -9.15459e-07 -4.61674e-05
0.00150108 -0.000239442 1.53234e-06
-0.000239442 -1.72094e-05 -3.14056e-06
1.53234e-06 -3.14056e-06 -0.000138075
0.00162769 -0.000268876 -4.52369e-07
-0.000268876 0.00012567 -8.3929e-06
-4.52369e-07 -8.3929e-06 -4.44326e-05
0.00113043 -0.000189116 1.14992e-06
-0.000189116 0.000247137 -7.17233e-07
1.14992e-06 -7.17233e-07 9.98135e-05
0.000724583 -0.000157961 -5.49683e-06
-0.000157961 3.1401e-05 -2.25916e-06
-5.49683e-06 -2.25916e-06 -0.000102545
0.00116766 -0.000149018 -2.90891e-07
-0.000149018 0.000328214 -5.47001e-07
-2.90891e-07 -5.47001e-07 0.000164412
0.000408426 1.91504e-05 -4.10533e-07
1.91504e-05 -0.000132538 1.54807e-06
-4.10533e-07 1.54807e-06 -0.000189342
0.000985227 -5.0896e-05 4.1105e-07
-5.0896e-05 0.000220937 6.8158e-07
4.1105e-07 6.8158e-07 0.000100498
0.000553531 3.15073e-05 9.333e-07
3.15073e-05 -2.89633e-05 1.83838e-06
9.333e-07 1.83838e-06 -0.000123509
0.00173587 -4.54503e-05 -8.71009e-07
-4.54503e-05 6.42809e-05 6.70763e-11
-8.71009e-07 6.70763e-11 -2.27133e-05
0.00195238 -0.000118284 2.51608e-09
-0.000118284 0.000156222 -9.41013e-08
2.51608e-09 -9.41013e-08 8.38955e-05
0.00160341 -0.000170918 -3.04378e-07
-0.000170918 -3.36434e-06 3.81658e-07
-3.04378e-07 3.81658e-07 -8.233e-05
0.001117 -0.000197983 1.92433e-07
-0.000197983 0.000226674 1.90595e-06
1.92433e-07 1.90595e-06 5.78655e-05
0.000925524 -0.000231929 -4.94882e-07
-0.000231929 -5.93471e-07 -1.08018e-07
-4.94882e-07 -1.08018e-07 -0.000228958
0.00175025 -0.000319756 -2.98126e-06
-0.000319756 0.000272622 7.28892e-07
-2.98126e-06 7.28892e-07 4.29228e-05
0.001912 -0.000230968 9.01707e-07
-0.000230968 0.000153109 -5.79507e-07
9.01707e-07 -5.79507e-07 5.80061e-05
0.00171 -0.000279658 1.2456e-06
-0.000279658 0.00011368 -1.44295e-06
1.2456e-06 -1.44295e-06 -3.14091e-05
0.00051711 2.78132e-05 2.35883e-07
2.78132e-05 -7.52339e-05 -7.76745e-07
2.35883e-07 -7.76745e-07 -0.000123225
0.000810683 -4.57674e-06 -4.4224e-07
-4.57674e-06 0.000120399 2.89741e-07
-4.4224e-07 2.89741e-07 3.27288e-05
0.000438323 -0.000145262 -2.37065e-06
-0.000145262 -0.000159454 2.03503e-06
-2.37065e-06 2.03503e-06 -0.00030045
0.00127601 -0.000190991 -6.56167e-08
-0.000190991 0.000345817 -7.77374e-08
-6.56167e-08 -7.77374e-08 0.000190846
0.000919962 -4.90292e-05 -1.33465e-07
-4.90292e-05 0.000188754 -2.37973e-07
-1.33465e-07 -2.37973e-07 4.82049e-05
0.000883906 -5.55078e-05 -4.57655e-07
-5.55078e-05 0.00016946 1.19416e-06
-4.57655e-07 1.19416e-06 5.47712e-05
0.00196879 -7.05238e-05 1.54407e-06
-7.05238e-05 0.000136913 4.81736e-07
1.54407e-06 4.81736e-07 7.93134e-05
0.00185274 -0.000166805 -1.3333e-06
-0.000166805 5.7699e-05 -1.02378e-06
-1.3333e-06 -1.02378e-06 5.59145e-06
0.00181324 -0.000192438 4.15746e-07
-0.000192438 6.91514e-05 -4.47819e-07
4.15746e-07 -4.47819e-07 -1.28507e-06
0.00215631 -0.000317849 5.5413e-06
-0.000317849 0.000261921 -7.28092e-07
5.5413e-06 -7.28092e-07 0.000146593
0.000255506 -0.000147353 -2.92506e-06
-0.000147353 -0.000271919 -1.63082e-06
-2.92506e-06 -1.63082e-06 -0.000453874
0.00176064 -0.000331817 -2.40496e-06
-0.000331817 0.000238143 8.63186e-06
-2.40496e-06 8.63186e-06 2.38581e-05
0.00247526 -0.00037778 2.44215e-06
-0.00037778 0.000806964 -3.91425e-06
2.44215e-06 -3.91425e-06 0.000542895
0.000684793 2.78742e-05 5.1622e-07
2.78742e-05 1.46353e-05 -1.9432e-06
5.1622e-07 -1.9432e-06 -2.66759e-05
0.000723611 -8.54359e-05 1.76736e-06
-8.54359e-05 7.01885e-05 -2.0067e-06
1.76736e-06 -2.0067e-06 -5.90484e-06
0.000516257 1.97599e-05 -2.26793e-07
1.97599e-05 -4.71904e-05 -2.14573e-06
-2.26793e-07 -2.14573e-06 -0.000130578
0.000805321 -3.75904e-05 8.76574e-07
-3.75904e-05 0.000132059 5.20445e-07
8.76574e-07 5.20445e-07 2.24526e-05
0.000727387 -7.18232e-06 1.14435e-06
-7.18232e-06 7.16604e-05 -1.72414e-06
1.14435e-06 -1.72414e-06 -4.57427e-05
0.000250605 -9.79544e-05 8.82164e-07
-9.79544e-05 -0.000174402 2.18163e-06
8.82164e-07 2.18163e-06 -0.000320847
0.000306918 -0.000142935 -1.19367e-06
-0.000142935 -0.000280999 -1.23766e-09
-1.19367e-06 -1.23766e-09 -0.000413298
0.00219483 -0.000264654 -7.61992e-06
-0.000264654 0.000911789 3.72304e-06
-7.61992e-06 3.72304e-06 0.00070655
0.000698673 -2.83595e-05 -8.64056e-07
-2.83595e-05 3.47668e-05 -7.28163e-07
-8.64056e-07 -7.28163e-07 -3.15363e-05
0.000837453 -3.44516e-07 2.43781e-08
-3.44516e-07 0.000136493 -1.39473e-07
2.43781e-08 -1.39473e-07 3.87852e-05
0.00210229 0.000218053 -3.86765e-07
0.000218053 0.000301823 2.92966e-07
-3.86765e-07 2.92966e-07 0.000193627
0.000726421 2.9893e-05 -1.52366e-07
2.9893e-05 8.84666e-05 -1.28326e-08
-1.52366e-07 -1.28326e-08 -4.64381e-05
0.00122164 0.000197378 1.55052e-06
0.000197378 0.000345766 -2.76629e-06
1.55052e-06 -2.76629e-06 0.000156254
0.000554591 0.00010199 2.12191e-07
0.00010199 -4.46687e-05 6.73149e-07
2.12191e-07 6.73149e-07 -0.000174388
0.00188289 0.000295667 -2.0835e-07
0.000295667 0.000299219 4.06366e-07
-2.0835e-07 4.06366e-07 0.000121684
0.00172826 0.000287375 1.01896e-06
0.000287375 0.000143302 4.06299e-06
1.01896e-06 4.06299e-06 -1.26183e-05
0.00104631 0.000217824 7.96838e-07
0.000217824 0.000142188 2.73124e-07
7.96838e-07 2.73124e-07 -0.000106014
0.00143348 0.000287234 -2.6723e-06
0.000287234 0.000112094 1.54368e-06
-2.6723e-06 1.54368e-06 -9.6104e-05
0.000548767 -8.44562e-06 4.53717e-08
-8.44562e-06 -3.05921e-05 8.07319e-07
4.53717e-08 8.07319e-07 -0.000117154
0.000526631 6.59149e-05 -5.49741e-07
6.59149e-05 -2.19009e-05 -1.54761e-06
-5.49741e-07 -1.54761e-06 -0.000144866
0.00108281 0.000192087 1.83349e-06
0.000192087 0.000243795 -1.89669e-06
1.83349e-06 -1.89669e-06 3.70881e-05
0.000648199 0.000113616 -1.00676e-06
0.000113616 2.50024e-05 -2.31517e-06
-1.00676e-06 -2.31517e-06 -0.000128851
0.00197069 0.000211922 5.24693e-07
0.000211922 0.000113294 -8.86467e-07
5.24693e-07 -8.86467e-07 3.74337e-05
0.00193012 0.000262714 2.24747e-06
0.000262714 0.000198802 8.00407e-07
2.24747e-06 8.00407e-07 7.29907e-05
0.00176918 0.000321381 -2.07289e-06
0.000321381 0.000206937 6.16499e-08
-2.07289e-06 6.16499e-08 1.70637e-05
0.000824746 0.000221073 6.94553e-07
0.000221073 -9.17975e-05 9.42942e-07
6.94553e-07 9.42942e-07 -0.000332978
0.00069706 9.3047e-06 -3.10009e-07
9.3047e-06 5.12758e-05 1.19703e-06
-3.10009e-07 1.19703e-06 -3.71482e-05
0.00190841 0.000166341 -1.19171e-06
0.000166341 4.92442e-05 1.5121e-06
-1.19171e-06 1.5121e-06 3.41707e-07
0.00139536 0.000194423 -3.40146e-08
0.000194423 0.000484377 2.92359e-06
-3.40146e-08 2.92359e-06 0.000319972
0.00108164 0.000201514 1.55933e-06
0.000201514 0.000216106 4.19358e-06
1.55933e-06 4.19358e-06 4.90828e-06
0.00245145 0.000263342 -1.05718e-05
0.000263342 0.000391514 -1.61202e-06
-1.05718e-05 -1.61202e-06 0.000306846
0.00131211 0.000311237 -2.99761e-06
0.000311237 -0.00011605 -4.51857e-06
-2.99761e-06 -4.51857e-06 -0.000292046
0.00180448 0.000322589 -2.74413e-06
0.000322589 0.000359125 4.52881e-07
-2.74413e-06 4.52881e-07 0.000118883
0.000765046 1.78525e-05 -1.41629e-06
1.78525e-05 8.55031e-05 -4.801e-08
-1.41629e-06 -4.801e-08 6.77112e-06
0.000760459 6.72243e-06 -4.53887e-07
6.72243e-06 8.79714e-05 -5.32063e-08
-4.53887e-07 -5.32063e-08 6.34302e-06
0.00084916 -6.18476e-06 -2.4428e-07
-6.18476e-06 0.000147967 5.93398e-07
-2.4428e-07 5.93398e-07 6.20713e-05
0.000698545 -1.77094e-05 -3.48925e-07
-1.77094e-05 3.73636e-05 -1.18933e-06
-3.48925e-07 -1.18933e-06 -2.88702e-05
0.000723499 2.15307e-05 4.67921e-07
2.15307e-05 6.82753e-05 1.35727e-07
4.67921e-07 1.35727e-07 -1.63929e-05
0.000559732 -6.01834e-06 -8.63852e-07
-6.01834e-06 -1.38223e-05 2.27004e-07
-8.63852e-07 2.27004e-07 -0.000105917
0.000705598 -6.67767e-06 -2.47524e-07
-6.67767e-06 4.63338e-05 -4.92479e-08
-2.47524e-07 -4.92479e-08 -2.43414e-05
0.000600409 -2.48727e-05 -5.94956e-07
-2.48727e-05 -1.10679e-06 3.60801e-07
-5.94956e-07 3.60801e-07 -8.86345e-05
0.000671823 -2.73606e-05 6.92549e-07
-2.73606e-05 3.51573e-05 -2.88163e-07
6.92549e-07 -2.88163e-07 -4.98042e-05
0.000802783 2.01311e-05 3.25378e-07
2.01311e-05 0.000120548 1.10925e-07
3.25378e-07 1.10925e-07 2.48826e-05
0.000905226 2.57958e-07 9.46124e-07
2.57958e-07 0.000149135 -6.77835e-07
9.46124e-07 -6.77835e-07 6.67618e-05
0.000750698 -4.69311e-05 1.03972e-06
-4.69311e-05 7.59886e-05 -7.72329e-08
1.03972e-06 -7.72329e-08 -1.22507e-05
0.000796044 2.13247e-05 4.70146e-07
2.13247e-05 0.000113333 3.12988e-07
4.70146e-07 3.12988e-07 1.54623e-05
0.000709331 2.45757e-05 1.83601e-06
2.45757e-05 6.12158e-05 7.02151e-07
1.83601e-06 7.02151e-07 -3.33266e-05
0.000729578 1.35615e-05 1.06074e-06
1.35615e-05 5.46468e-05 1.22385e-06
1.06074e-06 1.22385e-06 -1.46369e-05
0.000658902 -7.99534e-06 3.75891e-08
-7.99534e-06 2.17663e-06 1.7023e-06
3.75891e-08 1.7023e-06 -4.17684e-05
0.000671359 -8.53847e-06 -2.2543e-07
-8.53847e-06 7.55987e-06 4.68435e-08
-2.2543e-07 4.68435e-08 -3.58708e-05
0.00127919 -8.2848e-06 5.09856e-07
-8.2848e-06 0.000336978 2.13876e-06
5.09856e-07 2.13876e-06 0.000330179
0.000690833 -1.74184e-05 2.43268e-07
-1.74184e-05 1.55416e-05 -2.02333e-06
2.43268e-07 -2.02333e-06 -2.7202e-05
0.0013089 -1.58953e-05 -2.62458e-06
-1.58953e-05 0.000355388 -1.49198e-06
-2.62458e-06 -1.49198e-06 0.000348776
0.000911578 -1.53849e-05 1.13943e-05
-1.53849e-05 0.000129819 7.79205e-06
1.13943e-05 7.79205e-06 0.000140144
0.0013377 -2.39731e-05 -5.00108e-06
-2.39731e-05 0.000374036 -5.20234e-06
-5.00108e-06 -5.20234e-06 0.000367063
0.000864103 -2.28431e-05 3.91856e-06
-2.28431e-05 0.000105294 2.9432e-06
3.91856e-06 2.9432e-06 0.000115078
0.000798618 -2.90411e-05 -1.23991e-06
-2.90411e-05 7.21533e-05 -1.91377e-06
-1.23991e-06 -1.91377e-06 8.1204e-05
0.000703756 4.77252e-06 7.32223e-07
4.77252e-06 2.3435e-05 -2.0754e-06
7.32223e-07 -2.0754e-06 -1.48371e-05
0.000614849 2.66599e-05 4.53374e-07
2.66599e-05 -3.83593e-05 -3.74897e-06
4.53374e-07 -3.74897e-06 -4.92843e-05
0.00061637 3.41959e-05 -5.40094e-08
3.41959e-05 -3.07404e-05 7.21323e-08
-5.40094e-08 7.21323e-08 -4.53863e-05
0.00222529 5.80709e-05 2.01086e-05
5.80709e-05 0.000905635 -4.15677e-06
2.01086e-05 -4.15677e-06 0.000918802
0.000614675 4.47912e-05 1.56525e-07
4.47912e-05 -2.18897e-05 4.54022e-06
1.56525e-07 4.54022e-06 -4.21132e-05
0.00240395 7.27947e-05 -3.13443e-06
7.27947e-05 0.00101703 -2.02078e-07
-3.13443e-06 -2.02078e-07 0.00102646
0.00261659 8.56571e-05 -3.63087e-05
8.56571e-05 0.00114655 3.64934e-06
-3.63087e-05 3.64934e-06 0.00115276
0.00196925 0.000167932 1.16912e-06
0.000167932 0.000183166 2.12202e-06
1.16912e-06 2.12202e-06 9.66365e-05
0.00181477 0.00011418 8.26784e-07
0.00011418 9.41207e-05 -5.91384e-08
8.26784e-07 -5.91384e-08 1.77033e-05
0.00166986 4.50019e-05 1.47584e-06
4.50019e-05 3.44444e-05 -1.18962e-06
1.47584e-06 -1.18962e-06 -4.69503e-05
0.00173467 3.46717e-06 5.02764e-07
3.46717e-06 8.74861e-05 -1.37978e-07
5.02764e-07 -1.37978e-07 -1.09215e-05
0.00176507 1.49669e-06 -7.33593e-07
1.49669e-06 8.89102e-05 2.33232e-07
-7.33593e-07 2.33232e-07 6.32624e-06
0.00192435 7.69617e-05 2.1142e-07
7.69617e-05 0.000111967 1.63958e-07
2.1142e-07 1.63958e-07 5.43175e-05
0.001768 0.000160415 -8.53767e-07
0.000160415 1.1905e-05 -2.86779e-07
-8.53767e-07 -2.86779e-07 -6.00378e-05
0.00180529 3.30086e-06 1.47963e-06
3.30086e-06 3.53967e-05 6.2959e-08
1.47963e-06 6.2959e-08 -1.50496e-05
0.0019703 0.000109812 2.9325e-06
0.000109812 8.16151e-05 2.64772e-07
2.9325e-06 2.64772e-07 3.55177e-05
0.00192417 6.14768e-05 -2.75487e-06
6.14768e-05 8.03314e-05 6.07714e-07
-2.75487e-06 6.07714e-07 9.18469e-05
0.00187664 -4.52954e-05 -5.96827e-07
-4.52954e-05 0.000141818 6.63256e-08
-5.96827e-07 6.63256e-08 5.50421e-05
0.00191142 -0.000120853 -3.01921e-07
-0.000120853 0.000131774 2.64469e-07
-3.01921e-07 2.64469e-07 5.94961e-05
0.00165545 -0.000171592 -5.90779e-07
-0.000171592 2.62038e-05 7.25433e-07
-5.90779e-07 7.25433e-07 -5.22856e-05
0.00116151 -0.000199986 3.40265e-07
-0.000199986 0.000248708 4.53158e-06
3.40265e-07 4.53158e-06 7.93228e-05
0.00114964 -0.00024537 7.92463e-07
-0.00024537 0.000133744 4.6592e-06
7.92463e-07 4.6592e-06 -9.0802e-05
0.00169576 -0.000312177 -2.74103e-06
-0.000312177 0.000241239 -1.97699e-06
-2.74103e-06 -1.97699e-06 1.76814e-05
0.00184613 -0.000230102 3.46825e-06
-0.000230102 0.000116785 -9.96317e-07
3.46825e-06 -9.96317e-07 2.04906e-05
0.00160875 -0.00027266 1.65253e-08
-0.00027266 5.85923e-05 -5.26973e-06
1.65253e-08 -5.26973e-06 -8.59645e-05
0.000148519 -0.00012129 -3.37713e-06
-0.00012129 -0.000322187 3.00489e-06
-3.37713e-06 3.00489e-06 -0.000458064
0.00170783 -0.000217554 9.25726e-06
-0.000217554 0.000599033 -4.35846e-06
9.25726e-06 -4.35846e-06 0.000444939
0.000849806 -1.62211e-05 -4.03575e-07
-1.62211e-05 0.000137286 -1.08575e-07
-4.03575e-07 -1.08575e-07 8.1969e-06
0.000668255 1.09686e-05 -4.11427e-07
1.09686e-05 9.88721e-06 1.22199e-06
-4.11427e-07 1.22199e-06 -3.55796e-05
0.000838708 1.52641e-05 -6.08147e-07
1.52641e-05 0.000134803 1.76494e-06
-6.08147e-07 1.76494e-06 4.73833e-05
0.000805149 -2.58756e-05 -2.31202e-07
-2.58756e-05 0.000124189 2.1915e-06
-2.31202e-07 2.1915e-06 9.26482e-06
0.00186236 -7.05706e-05 7.58616e-08
-7.05706e-05 7.70802e-05 1.33493e-08
7.58616e-08 1.33493e-08 1.954e-05
0.000674186 7.89761e-06 9.92601e-07
7.89761e-06 9.39661e-06 6.56223e-08
9.92601e-07 6.56223e-08 -3.22233e-05
0.000612075 -2.39743e-05 -1.21805e-06
-2.39743e-05 -6.9916e-06 -3.97537e-08
-1.21805e-06 -3.97537e-08 -7.46802e-05
0.00186638 -0.000162881 -4.60064e-08
-0.000162881 7.62214e-05 2.60185e-07
-4.60064e-08 2.60185e-07 1.95654e-05
0.00169813 -0.000189484 -1.78764e-06
-0.000189484 2.09585e-06 5.18819e-07
-1.78764e-06 5.18819e-07 -7.00883e-05
0.000476694 -0.000162075 7.54964e-07
-0.000162075 -0.000135727 3.23182e-06
7.54964e-07 3.23182e-06 -0.000314505
0.00184705 -0.000326483 -2.94233e-06
-0.000326483 0.000465329 1.03335e-06
-2.94233e-06 1.03335e-06 0.000198262
0.00151663 -0.000312516 1.79921e-06
-0.000312516 9.60085e-05 -1.31552e-06
1.79921e-06 -1.31552e-06 -0.000110866
0.00204407 -0.00031285 2.45386e-06
-0.00031285 0.000210044 -1.13601e-06
2.45386e-06 -1.13601e-06 9.33089e-05
0.000770531 -2.09684e-05 1.06026e-06
-2.09684e-05 9.726e-05 -8.80249e-07
1.06026e-06 -8.80249e-07 1.64683e-05
0.000788004 -2.61638e-05 2.94888e-08
-2.61638e-05 0.000122426 9.32692e-07
2.94888e-08 9.32692e-07 1.16278e-05
0.000912945 -0.000173432 -1.9435e-06
-0.000173432 6.03373e-05 -4.85565e-07
-1.9435e-06 -4.85565e-07 -7.83571e-05
0.00139011 -0.000206958 9.85667e-06
-0.000206958 0.00045218 -2.37312e-06
9.85667e-06 -2.37312e-06 0.000279415
0.000556228 -8.33907e-05 -1.39533e-06
-8.33907e-05 -1.2594e-05 2.81655e-07
-1.39533e-06 2.81655e-07 -0.000154248
0.000768077 -7.34197e-06 2.24315e-07
-7.34197e-06 9.91533e-05 -5.95782e-07
2.24315e-07 -5.95782e-07 -1.92737e-05
0.00188348 -8.08956e-05 9.33715e-07
-8.08956e-05 2.71681e-05 3.31331e-07
9.33715e-07 3.31331e-07 -1.65347e-05
0.00179713 -0.000164817 5.30751e-07
-0.000164817 1.27589e-05 -8.87765e-07
5.30751e-07 -8.87765e-07 -1.82896e-05
0.00196459 -0.000293355 -4.21473e-08
-0.000293355 6.91005e-05 -1.11428e-06
-4.21473e-08 -1.11428e-06 -3.82794e-06
0.00150344 -0.000337311 2.29125e-06
-0.000337311 -2.71085e-05 1.56e-06
2.29125e-06 1.56e-06 -0.00016758
0.000733759 -0.000144519 -6.215e-06
-0.000144519 -4.79613e-06 -4.92071e-06
-6.215e-06 -4.92071e-06 -0.000184181
0.00285025 -0.000437637 -4.24483e-06
-0.000437637 0.000957098 4.63104e-06
-4.24483e-06 4.63104e-06 0.000670052
0.00047723 5.44486e-05 -1.23845e-06
5.44486e-05 -7.78092e-05 -2.72881e-06
-1.23845e-06 -2.72881e-06 -0.000147957
0.000728681 -5.08527e-05 2.11243e-06
-5.08527e-05 6.2077e-05 -1.49935e-06
2.11243e-06 -1.49935e-06 -8.59336e-06
0.000948128 -6.72113e-05 1.44083e-06
-6.72113e-05 0.000203044 -9.5254e-08
1.44083e-06 -9.5254e-08 0.000111204
0.000505628 1.58703e-05 -2.86177e-07
1.58703e-05 -3.7523e-05 3.30671e-07
-2.86177e-07 3.30671e-07 -0.000147248
0.000996432 -4.40446e-05 3.21341e-07
-4.40446e-05 0.000230085 -1.29612e-07
3.21341e-07 -1.29612e-07 0.000120217
0.000849566 -4.58521e-05 2.103e-06
-4.58521e-05 0.000125923 -4.63866e-07
2.103e-06 -4.63866e-07 -4.29941e-06
-1.88483e-05 -7.67897e-05 5.3442e-06
-7.67897e-05 -0.000238917 1.36712e-06
5.3442e-06 1.36712e-06 -0.000463128
0.000487208 -0.00018776 -1.52025e-05
-0.00018776 -0.000157283 4.54672e-06
-1.52025e-05 4.54672e-06 -0.00029542
0.000571005 1.63473e-05 -1.6296e-07
1.63473e-05 -1.44522e-05 -1.94464e-07
-1.6296e-07 -1.94464e-07 -0.000105043
0.000683697 8.40483e-05 -2.99098e-06
8.40483e-05 6.63596e-05 -2.95765e-06
-2.99098e-06 -2.95765e-06 -5.85619e-05
0.00202385 0.000210337 -1.43853e-06
0.000210337 0.000142198 -9.2745e-07
-1.43853e-06 -9.2745e-07 6.92871e-05
0.00180287 0.000263669 2.23808e-07
0.000263669 0.000134024 2.43002e-06
2.23808e-07 2.43002e-06 3.46692e-06
0.00150104 0.000153329 -4.60675e-06
0.000153329 0.00049673 -2.37808e-06
-4.60675e-06 -2.37808e-06 0.000342262
0.0011014 0.000194654 -1.74321e-06
0.000194654 0.000263188 -7.10999e-06
-1.74321e-06 -7.10999e-06 5.35969e-05
0.00176394 0.000315407 1.34718e-06
0.000315407 0.000199584 1.45816e-06
1.34718e-06 1.45816e-06 1.17513e-05
0.00196706 0.000311278 4.51496e-08
0.000311278 0.000526582 -1.42039e-07
4.51496e-08 -1.42039e-07 0.000281391
0.000712161 3.04846e-05 6.62199e-07
3.04846e-05 6.86536e-05 -7.3197e-07
6.62199e-07 -7.3197e-07 -2.67837e-05
0.00190134 0.000161164 -9.5306e-08
0.000161164 3.68698e-05 -9.69596e-08
-9.5306e-08 -9.69596e-08 -4.35338e-06
0.000944889 0.000136556 7.62486e-07
0.000136556 0.000224604 1.73365e-06
7.62486e-07 1.73365e-06 7.19985e-05
0.000780747 0.000178356 9.23667e-07
0.000178356 4.70311e-05 6.69609e-08
9.23667e-07 6.69609e-08 -0.000163287
0.00211302 0.000250768 2.61685e-06
0.000250768 0.000204314 1.50663e-07
2.61685e-06 1.50663e-07 0.000119554
0.0015197 0.000321986 -5.59541e-07
0.000321986 -3.37481e-06 -1.66889e-06
-5.59541e-07 -1.66889e-06 -0.000177809
0.00207243 0.0003439 5.06354e-07
0.0003439 0.000520347 3.48681e-07
5.06354e-07 3.48681e-07 0.00027741
0.0013006 8.18773e-05 -2.52435e-06
8.18773e-05 0.000418374 2.14537e-06
-2.52435e-06 2.14537e-06 0.000294824
0.00236716 0.000177683 -2.66188e-05
0.000177683 0.000330443 -4.33038e-06
-2.66188e-05 -4.33038e-06 0.000317349
0.00229951 0.000285416 -3.854e-06
0.000285416 0.000954321 2.27433e-07
-3.854e-06 2.27433e-07 0.000769436
0.00232899 0.000325334 -6.36817e-06
0.000325334 0.000834648 1.64962e-06
-6.36817e-06 1.64962e-06 0.000603541
0.00176213 0.00033903 -9.97708e-06
0.00033903 2.81002e-05 -8.91875e-06
-9.97708e-06 -8.91875e-06 -8.44877e-05
0.00134816 0.000317866 -8.93726e-06
0.000317866 5.12231e-05 -7.00512e-07
-8.93726e-06 -7.00512e-07 -0.000171252
0.000445266 0.000197332 1.65984e-05
0.000197332 -0.000555753 -5.84316e-06
1.65984e-05 -5.84316e-06 -0.000760313
0.000691413 1.66289e-05 2.93514e-07
1.66289e-05 5.36202e-05 -2.51804e-07
2.93514e-07 -2.51804e-07 -3.08789e-05
0.00076474 -2.82239e-07 -2.27151e-07
-2.82239e-07 0.000104121 5.00822e-07
-2.27151e-07 5.00822e-07 1.69564e-05
0.00108142 1.65021e-05 6.71999e-07
1.65021e-05 0.000266045 -8.14863e-07
6.71999e-07 -8.14863e-07 0.000175468
0.000694841 -5.38739e-05 -2.2283e-07
-5.38739e-05 4.48119e-05 -1.48292e-06
-2.2283e-07 -1.48292e-06 -2.88723e-05
0.000645463 -4.6053e-05 -1.21564e-06
-4.6053e-05 2.21124e-05 1.74483e-07
-1.21564e-06 1.74483e-07 -6.32471e-05
0.000877337 9.22504e-05 -4.45716e-07
9.22504e-05 0.000164868 5.17042e-07
-4.45716e-07 5.17042e-07 6.76396e-05
0.000550797 -3.68722e-05 -8.79015e-07
-3.68722e-05 -2.94567e-05 5.53055e-07
-8.79015e-07 5.53055e-07 -0.000116787
0.000703919 -2.45199e-05 3.08843e-08
-2.45199e-05 4.91029e-05 -1.5985e-08
3.08843e-08 -1.5985e-08 -2.5998e-05
0.00068043 2.40584e-05 -6.4286e-08
2.40584e-05 3.45365e-05 -2.50918e-07
-6.4286e-08 -2.50918e-07 -5.25714e-05
0.000825897 -4.47339e-06 -4.21653e-07
-4.47339e-06 0.000105476 -5.43215e-07
-4.21653e-07 -5.43215e-07 2.11458e-05
0.000794628 2.12018e-06 3.3029e-07
2.12018e-06 0.000104416 4.10848e-08
3.3029e-07 4.10848e-08 1.2328e-05
0.000815607 -2.57876e-05 -1.68581e-07
-2.57876e-05 0.000111544 -7.18147e-08
-1.68581e-07 -7.18147e-08 2.29511e-05
0.00085023 -6.251e-06 2.00692e-07
-6.251e-06 0.000111735 -9.25594e-07
2.00692e-07 -9.25594e-07 2.8217e-05
0.000863512 1.54887e-05 -2.96431e-07
1.54887e-05 0.00013174 -1.06894e-06
-2.96431e-07 -1.06894e-06 3.69692e-05
0.000836067 4.53418e-05 3.78193e-07
4.53418e-05 0.000119887 1.80259e-07
3.78193e-07 1.80259e-07 2.99144e-05
0.000720648 3.19943e-05 2.58523e-07
3.19943e-05 6.62613e-05 5.83866e-07
2.58523e-07 5.83866e-07 -3.29085e-05
0.000584305 -1.55996e-05 -1.45926e-07
-1.55996e-05 -3.07529e-05 1.54124e-06
-1.45926e-07 1.54124e-06 -0.000102306
0.000889744 -1.27418e-05 3.23015e-07
-1.27418e-05 0.00017735 -9.09742e-07
3.23015e-07 -9.09742e-07 7.62971e-05
0.000546293 -1.79356e-06 -5.82336e-07
-1.79356e-06 -4.72429e-05 1.59323e-06
-5.82336e-07 1.59323e-06 -0.000122562
0.000645714 9.48386e-06 -5.22739e-07
9.48386e-06 -3.39865e-06 1.65729e-06
-5.22739e-07 1.65729e-06 -4.88883e-05
0.000654048 1.16846e-05 4.82366e-07
1.16846e-05 4.14172e-07 5.26896e-09
4.82366e-07 5.26896e-09 -4.40873e-05
0.00062211 1.61389e-06 1.47679e-07
1.61389e-06 -4.21696e-05 3.57401e-06
1.47679e-07 3.57401e-06 -5.34969e-05
0.00066324 -3.8067e-06 -6.33808e-07
-3.8067e-06 3.46545e-06 -1.83995e-06
-6.33808e-07 -1.83995e-06 -4.03041e-05
0.000975419 -5.70109e-06 -1.721e-06
-5.70109e-06 0.000161906 -1.57368e-06
-1.721e-06 -1.57368e-06 0.000153024
0.00225398 -1.14076e-05 7.20012e-06
-1.14076e-05 0.000903518 4.90281e-06
7.20012e-06 4.90281e-06 0.000921457
0.00134698 -1.44274e-05 -2.90832e-06
-1.44274e-05 0.000377853 -5.14032e-06
-2.90832e-06 -5.14032e-06 0.000370983
0.000863665 -1.54427e-05 2.06299e-06
-1.54427e-05 0.000101227 3.02175e-06
2.06299e-06 3.02175e-06 0.000111706
0.000813354 -2.16975e-05 -6.86379e-07
-2.16975e-05 7.53004e-05 -1.94526e-06
-6.86379e-07 -1.94526e-06 8.53634e-05
0.000667019 1.05999e-05 -3.79615e-07
1.05999e-05 4.11011e-06 -2.04941e-06
-3.79615e-07 -2.04941e-06 -3.28954e-05
0.000688728 -2.08692e-06 4.72064e-07
-2.08692e-06 1.54661e-05 -4.35576e-08
4.72064e-07 -4.35576e-08 -2.32718e-05
0.000637675 2.02597e-05 3.23683e-07
2.02597e-05 -2.93328e-05 -3.6301e-06
3.23683e-07 -3.6301e-06 -3.78119e-05
0.000949894 3.15156e-05 -4.49032e-07
3.15156e-05 0.00015557 4.16066e-08
-4.49032e-07 4.16066e-08 0.000146168
0.0021638 4.60639e-05 1.61018e-05
4.60639e-05 0.000863503 -4.30215e-06
1.61018e-05 -4.30215e-06 0.000879189
0.000625539 3.52094e-05 -2.71959e-07
3.52094e-05 -2.53806e-05 4.02881e-06
-2.71959e-07 4.02881e-06 -4.02779e-05
0.00227996 5.99797e-05 -2.66174e-06
5.99797e-05 0.000938018 -1.49314e-07
-2.66174e-06 -1.49314e-07 0.000950612
0.00247206 7.4423e-05 -2.7496e-05
7.4423e-05 0.00105685 4.00399e-06
-2.7496e-05 4.00399e-06 0.00106576
0.00185547 0.000164159 -2.79246e-06
0.000164159 5.88302e-05 -7.16043e-07
-2.79246e-06 -7.16043e-07 -1.35108e-05
0.00194958 7.47093e-05 4.0948e-08
7.47093e-05 0.000126004 -1.28291e-07
4.0948e-08 -1.28291e-07 6.86874e-05
0.00176803 1.61998e-06 -1.20249e-07
1.61998e-06 8.8756e-05 -3.0082e-07
-1.20249e-07 -3.0082e-07 7.35205e-06
0.00175763 6.6714e-06 1.57424e-07
6.6714e-06 1.13988e-05 -2.17991e-07
1.57424e-07 -2.17991e-07 -3.93633e-05
0.00186072 0.000106731 -4.65118e-07
0.000106731 2.84739e-05 -2.66292e-07
-4.65118e-07 -2.66292e-07 -1.85024e-05
0.0017727 5.7782e-05 2.52385e-06
5.7782e-05 -1.04427e-05 1.15142e-06
2.52385e-06 1.15142e-06 -7.09347e-06
0.00186698 1.60292e-05 1.48605e-06
1.60292e-05 7.09306e-06 -1.65129e-07
1.48605e-06 -1.65129e-07 -3.90104e-06
0.00276827 0.000179843 2.25259e-05
0.000179843 9.03504e-05 -1.09484e-06
2.25259e-05 -1.09484e-06 6.53646e-05
0.00192969 3.20011e-05 -2.21376e-05
3.20011e-05 0.000200466 7.72677e-07
-2.21376e-05 7.72677e-07 0.000229329
0.000695664 6.2281e-05 -6.84006e-07
6.2281e-05 4.60129e-05 -1.33862e-06
-6.84006e-07 -1.33862e-06 -1.83776e-05
0.00175139 -7.03048e-05 -1.87437e-06
-7.03048e-05 1.50051e-05 -3.26332e-07
-1.87437e-06 -3.26332e-07 -4.26317e-05
0.00189826 -0.000157529 6.6649e-07
-0.000157529 0.000106856 9.93621e-07
6.6649e-07 9.93621e-07 4.5732e-05
0.00158707 -0.000187074 1.29965e-06
-0.000187074 -6.19369e-05 1.17715e-06
1.29965e-06 1.17715e-06 -0.00013516
0.000628993 -0.000170736 2.59897e-06
-0.000170736 -3.88898e-05 6.53861e-06
2.59897e-06 6.53861e-06 -0.000213517
0.00126748 -0.000278816 1.8142e-06
-0.000278816 0.000152162 6.09459e-06
1.8142e-06 6.09459e-06 -0.000119217
0.00134811 -0.000301535 -7.46176e-07
-0.000301535 -8.03971e-06 -6.60004e-06
-7.46176e-07 -6.60004e-06 -0.000210071
0.00188795 -0.000308003 -5.69987e-06
-0.000308003 0.000133569 -3.13373e-06
-5.69987e-06 -3.13373e-06 1.49482e-05
0.00150155 -0.000207038 9.71734e-06
-0.000207038 0.000388844 -3.29916e-06
9.71734e-06 -3.29916e-06 0.000243497
0.000480968 -0.00014232 6.81008e-06
-0.00014232 -6.41593e-05 -7.52689e-06
6.81008e-06 -7.52689e-06 -0.000204281
0.000917308 -0.000100174 4.96672e-08
-0.000100174 0.000188725 -1.85733e-06
4.96672e-08 -1.85733e-06 4.58779e-05
0.000670328 -5.7777e-06 -1.29709e-06
-5.7777e-06 7.33039e-06 2.09609e-06
-1.29709e-06 2.09609e-06 -3.399e-05
0.0008135 -1.05678e-05 3.71948e-07
-1.05678e-05 0.000131236 5.5479e-07
3.71948e-07 5.5479e-07 9.99701e-06
0.000999042 -5.07133e-05 5.33299e-07
-5.07133e-05 0.00023269 4.89988e-07
5.33299e-07 4.89988e-07 0.000150914
0.000771331 -1.91885e-05 -7.78564e-07
-1.91885e-05 0.000111081 7.5345e-07
-7.78564e-07 7.5345e-07 6.9792e-07
0.000490067 -1.61726e-05 -1.14789e-06
-1.61726e-05 -8.13696e-05 1.64653e-06
-1.14789e-06 1.64653e-06 -0.000146614
0.001902 -9.01429e-05 -9.53957e-08
-9.01429e-05 2.09723e-05 3.8281e-08
-9.53957e-08 3.8281e-08 -1.35675e-05
0.000585367 3.28729e-05 9.02426e-08
3.28729e-05 -1.30922e-05 -9.77959e-07
9.02426e-08 -9.77959e-07 -8.36422e-05
0.000724907 -5.4244e-05 8.55087e-08
-5.4244e-05 6.69362e-05 2.5271e-07
8.55087e-08 2.5271e-07 -8.18985e-06
0.000808974 -3.7587e-05 -4.72569e-07
-3.7587e-05 0.000125183 7.5489e-07
-4.72569e-07 7.5489e-07 3.05727e-05
0.00178714 -0.00017089 8.92667e-07
-0.00017089 3.11143e-06 -2.03355e-07
8.92667e-07 -2.03355e-07 -2.94858e-05
0.00197164 -0.000291588 -1.25878e-06
-0.000291588 8.70956e-05 -4.99534e-07
-1.25878e-06 -4.99534e-07 9.07079e-06
0.000950618 -0.000179637 2.88041e-06
-0.000179637 0.000105602 2.26105e-08
2.88041e-06 2.26105e-08 -6.97291e-05
0.00172664 -0.000348847 3.59332e-06
-0.000348847 0.000369845 -1.46371e-07
3.59332e-06 -1.46371e-07 8.84714e-05
0.00178655 -0.000359765 2.78265e-07
-0.000359765 0.000131129 1.36173e-06
2.78265e-07 1.36173e-06 -1.58068e-05
0.000612569 -9.28669e-06 -2.72121e-07
-9.28669e-06 2.45509e-05 -5.73806e-08
-2.72121e-07 -5.73806e-08 -8.39927e-05
0.000830425 -5.53562e-05 -8.20542e-07
-5.53562e-05 0.000140556 2.53503e-07
-8.20542e-07 2.53503e-07 2.51138e-05
0.00062945 -0.000198056 -4.39505e-06
-0.000198056 -5.86106e-05 1.03569e-06
-4.39505e-06 1.03569e-06 -0.000216436
0.000633847 -9.02416e-05 -7.74583e-08
-9.02416e-05 9.721e-05 -6.27672e-07
-7.74583e-08 -6.27672e-07 -0.000105753
0.000776562 -6.71477e-05 -2.17145e-07
-6.71477e-05 8.61925e-05 -2.31741e-09
-2.17145e-07 -2.31741e-09 -4.38988e-05
0.00213789 -0.000174265 -5.05028e-06
-0.000174265 0.000133162 -2.58307e-07
-5.05028e-06 -2.58307e-07 0.00011376
0.00183295 -0.000191065 -5.26396e-06
-0.000191065 -9.89786e-06 1.32973e-06
-5.26396e-06 1.32973e-06 -2.2395e-05
0.00227229 -0.000397663 -2.88701e-06
-0.000397663 0.000261986 -2.84669e-07
-2.88701e-06 -2.84669e-07 0.000145781
0.00280986 -0.000456408 -1.89026e-05
-0.000456408 0.00081374 2.91461e-06
-1.89026e-05 2.91461e-06 0.000608518
0.000937004 -0.000192936 -7.96931e-06
-0.000192936 0.000134578 -2.68865e-06
-7.96931e-06 -2.68865e-06 -7.51346e-05
0.000496545 2.08107e-05 9.84557e-07
2.08107e-05 -5.59013e-05 -2.26903e-06
9.84557e-07 -2.26903e-06 -0.000146663
0.000488562 4.70011e-05 6.7214e-07
4.70011e-05 -6.31884e-05 -7.67544e-07
6.7214e-07 -7.67544e-07 -0.000160702
0.000695387 8.47173e-06 8.93078e-07
8.47173e-06 6.75694e-05 -1.10736e-06
8.93078e-07 -1.10736e-06 -3.86758e-05
0.00110164 -0.000115263 9.96632e-07
-0.000115263 0.000310627 1.17631e-06
9.96632e-07 1.17631e-06 0.000188995
0.000703913 -4.44672e-05 9.72124e-07
-4.44672e-05 5.15622e-05 1.42502e-06
9.72124e-07 1.42502e-06 -5.9821e-05
0.00032659 -5.58029e-05 2.65015e-06
-5.58029e-05 -8.28847e-05 3.80378e-07
2.65015e-06 3.80378e-07 -0.000278722
0.00062077 -0.000201549 5.13084e-06
-0.000201549 9.59553e-05 1.33448e-06
5.13084e-06 1.33448e-06 -0.000156653
0.000744174 6.20593e-05 9.79498e-07
6.20593e-05 9.68932e-05 -2.91388e-06
9.79498e-07 -2.91388e-06 -6.93803e-06
0.000448307 6.74717e-05 8.17944e-07
6.74717e-05 -6.31481e-05 -7.14732e-07
8.17944e-07 -7.14732e-07 -0.000201554
0.00194932 0.000156358 4.36093e-06
0.000156358 5.61556e-05 -4.77919e-07
4.36093e-06 -4.77919e-07 2.23415e-05
0.0017663 0.000237877 7.93834e-06
0.000237877 1.35681e-05 1.05771e-06
7.93834e-06 1.05771e-06 -7.08156e-05
0.00180526 0.00033636 6.67084e-06
0.00033636 0.00015139 2.18731e-06
6.67084e-06 2.18731e-06 -2.13596e-05
0.000411617 0.000150348 1.41584e-06
0.000150348 -0.000161741 -1.32879e-06
1.41584e-06 -1.32879e-06 -0.000370189
0.00241324 0.000371589 3.65893e-06
0.000371589 0.000719003 1.23365e-06
3.65893e-06 1.23365e-06 0.000474667
0.00120365 6.63449e-05 -2.79459e-07
6.63449e-05 0.000356413 5.77086e-07
-2.79459e-07 5.77086e-07 0.000241568
0.00203667 0.000154111 -2.17659e-06
0.000154111 0.000157674 -3.05804e-08
-2.17659e-06 -3.05804e-08 0.000151919
0.00140754 0.000203721 -1.361e-06
0.000203721 0.00045461 -4.51636e-07
-1.361e-06 -4.51636e-07 0.000284415
0.00164538 0.000271526 -7.6052e-07
0.000271526 0.000477092 1.4398e-06
-7.6052e-07 1.4398e-06 0.000242437
0.00191307 0.000336049 -4.2661e-07
0.000336049 0.000112761 -2.29936e-06
-4.2661e-07 -2.29936e-06 3.18332e-06
0.00152195 0.000336581 -1.26446e-06
0.000336581 0.000144162 2.85451e-06
-1.26446e-06 2.85451e-06 -8.48446e-05
0.00158787 0.000253108 2.41884e-05
0.000253108 -0.000190621 9.84584e-07
2.41884e-05 9.84584e-07 -0.000462014
0.00119149 0.000118593 -3.12744e-06
0.000118593 0.00035724 -1.19576e-06
-3.12744e-06 -1.19576e-06 0.000224377
0.00232168 0.000251132 -3.36774e-05
0.000251132 0.000335965 -1.61493e-05
-3.36774e-05 -1.61493e-05 0.000337765
0.00126974 0.000216108 -5.7532e-06
0.000216108 0.000355402 -9.68243e-07
-5.7532e-06 -9.68243e-07 0.000178752
0.00108397 0.000259492 -4.26252e-06
0.000259492 8.58969e-05 -1.11243e-06
-4.26252e-06 -1.11243e-06 -0.000156097
0.000499504 0.000347245 -9.59142e-06
0.000347245 -0.000533675 -7.20695e-06
-9.59142e-06 -7.20695e-06 -0.00072345
0.00885585 0.000224092 -0.000126105
0.000224092 0.00235406 -3.89154e-05
-0.000126105 -3.89154e-05 0.0014051
0.00476568 0.000514548 0.000117386
0.000514548 0.000771116 -7.1086e-06
0.000117386 -7.1086e-06 0.00017753
0.000959807 0.000357889 1.69858e-05
0.000357889 -0.000203961 1.70905e-05
1.69858e-05 1.70905e-05 -0.000354236
-0.00465446 -0.00046987 0.000189504
-0.00046987 -0.00164468 -5.16445e-06
0.000189504 -5.16445e-06 -0.00233214
0.00531941 -0.00132994 -1.27444e-05
-0.00132994 0.000874631 3.19522e-06
-1.27444e-05 3.19522e-06 0.00244913
0.000674836 6.64561e-06 1.03951e-06
6.64561e-06 5.59386e-05 -1.89814e-07
1.03951e-06 -1.89814e-07 -3.20156e-05
0.000882267 -2.22039e-07 8.24322e-07
-2.22039e-07 0.000162963 -4.46423e-07
8.24322e-07 -4.46423e-07 7.26469e-05
0.000898629 5.26621e-05 -1.14247e-06
5.26621e-05 0.000160853 -2.15493e-06
-1.14247e-06 -2.15493e-06 6.87104e-05
0.000687142 -5.73058e-05 1.55042e-07
-5.73058e-05 4.56765e-05 -1.26102e-06
1.55042e-07 -1.26102e-06 -3.33917e-05
0.000649806 5.2055e-05 -1.09359e-06
5.2055e-05 1.94855e-05 -6.34326e-07
-1.09359e-06 -6.34326e-07 -7.01004e-05
0.000797507 -3.52925e-05 -9.27482e-09
-3.52925e-05 0.00010716 -2.64306e-07
-9.27482e-09 -2.64306e-07 1.46715e-05
0.000873617 -1.07441e-06 -1.50317e-06
-1.07441e-06 0.00014208 8.5431e-07
-1.50317e-06 8.5431e-07 5.39403e-05
0.000759459 -1.38921e-05 -1.1035e-06
-1.38921e-05 6.9476e-05 -4.16442e-07
-1.1035e-06 -4.16442e-07 -1.68643e-05
0.000770412 5.91602e-05 -1.03555e-06
5.91602e-05 9.16853e-05 -3.25036e-07
-1.03555e-06 -3.25036e-07 -5.71534e-06
0.000637191 -6.86673e-06 -8.51912e-08
-6.86673e-06 4.52545e-06 6.61459e-07
-8.51912e-08 6.61459e-07 -6.92348e-05
0.000726199 2.06056e-05 5.45178e-10
2.06056e-05 6.69891e-05 -1.08879e-08
5.45178e-10 -1.08879e-08 -3.03606e-05
0.000814871 -3.67187e-06 4.62537e-07
-3.67187e-06 9.1559e-05 6.18554e-07
4.62537e-07 6.18554e-07 7.83236e-06
0.000851172 1.82375e-05 -5.02874e-07
1.82375e-05 0.000123751 -3.38709e-07
-5.02874e-07 -3.38709e-07 3.13492e-05
0.000972995 5.62705e-05 -5.93318e-07
5.62705e-05 0.0001921 -7.69212e-07
-5.93318e-07 -7.69212e-07 9.91301e-05
0.000618051 2.12765e-05 8.6247e-07
2.12765e-05 -1.23235e-05 -1.44589e-06
8.6247e-07 -1.44589e-06 -9.89411e-05
0.000859529 5.51288e-05 1.32139e-06
5.51288e-05 0.000129144 3.28777e-07
1.32139e-06 3.28777e-07 3.46698e-05
0.000654903 -1.08579e-05 9.01082e-07
-1.08579e-05 1.38511e-05 -1.91383e-08
9.01082e-07 -1.91383e-08 -7.81655e-05
0.000572383 -4.7998e-05 -1.17046e-06
-4.7998e-05 -3.11762e-05 1.35396e-06
-1.17046e-06 1.35396e-06 -0.000108159
0.00082522 1.08428e-05 -5.86661e-07
1.08428e-05 0.000122825 -2.51752e-07
-5.86661e-07 -2.51752e-07 2.72982e-05
0.000837618 5.06849e-05 2.52129e-07
5.06849e-05 0.000128525 -1.69467e-06
2.52129e-07 -1.69467e-06 3.31325e-05
0.00070294 -3.25253e-06 -7.3416e-07
-3.25253e-06 6.28062e-05 -3.38446e-07
-7.3416e-07 -3.38446e-07 -2.94521e-05
0.000821996 -2.78763e-06 9.32862e-07
-2.78763e-06 0.000126546 -4.90309e-07
9.32862e-07 -4.90309e-07 3.24222e-05
0.000714347 -5.88246e-05 -1.71586e-06
-5.88246e-05 5.02827e-05 8.41993e-07
-1.71586e-06 8.41993e-07 -2.31152e-05
0.000566753 -4.33989e-07 1.1349e-07
-4.33989e-07 -3.27426e-05 6.601e-07
1.1349e-07 6.601e-07 -0.000110229
0.000663328 5.07817e-06 -7.84912e-07
5.07817e-06 4.24864e-06 1.8122e-06
-7.84912e-07 1.8122e-06 -4.11563e-05
0.000654292 -5.80981e-06 4.10078e-07
-5.80981e-06 8.70834e-07 -2.50279e-08
4.10078e-07 -2.50279e-08 -4.42412e-05
0.000645523 7.31583e-06 -3.8021e-07
7.31583e-06 -2.71022e-05 5.15508e-06
-3.8021e-07 5.15508e-06 -3.92089e-05
0.000651579 1.26863e-06 -2.01044e-07
1.26863e-06 -1.07357e-06 -1.72479e-06
-2.01044e-07 -1.72479e-06 -4.53844e-05
0.000629744 1.75196e-06 2.84619e-07
1.75196e-06 -3.76785e-05 -1.49891e-08
2.84619e-07 -1.49891e-08 -4.90696e-05
0.00227302 -1.23297e-06 -1.07971e-07
-1.23297e-06 0.000913951 5.00045e-06
-1.07971e-07 5.00045e-06 0.000931748
0.000661212 -4.02642e-06 -4.93792e-07
-4.02642e-06 -1.95424e-05 -5.18429e-06
-4.93792e-07 -5.18429e-06 -3.05628e-05
0.00156134 -8.77102e-06 -2.28367e-07
-8.77102e-06 0.000502534 5.56244e-08
-2.28367e-07 5.56244e-08 0.000516707
0.000810255 -1.39599e-05 -1.77299e-07
-1.39599e-05 6.95761e-05 -1.92382e-06
-1.77299e-07 -1.92382e-06 8.04129e-05
0.000670619 5.81972e-06 1.50878e-07
5.81972e-06 6.92768e-06 -1.91384e-06
1.50878e-07 -1.91384e-06 -2.86305e-05
0.000678035 -4.66556e-06 2.79739e-07
-4.66556e-06 1.00965e-05 2.5527e-08
2.79739e-07 2.5527e-08 -2.69281e-05
0.000647471 1.37106e-05 1.72636e-07
1.37106e-05 -2.68078e-05 -3.49961e-06
1.72636e-07 -3.49961e-06 -3.35796e-05
0.000671541 -1.36754e-05 -1.66714e-06
-1.36754e-05 5.78547e-06 2.06125e-06
-1.66714e-06 2.06125e-06 -3.3117e-05
0.00093692 2.33262e-05 -1.37827e-07
2.33262e-05 0.000143402 -7.34526e-07
-1.37827e-07 -7.34526e-07 0.000136799
0.00209697 3.39507e-05 1.23084e-05
3.39507e-05 0.000819813 -4.43825e-06
1.23084e-05 -4.43825e-06 0.000837579
0.000626721 2.80054e-05 -4.23172e-07
2.80054e-05 -3.07416e-05 3.77358e-06
-4.23172e-07 3.77358e-06 -4.22738e-05
0.00223121 4.71054e-05 -7.56896e-06
4.71054e-05 0.000904183 1.17882e-06
-7.56896e-06 1.17882e-06 0.000919256
0.0023203 6.14739e-05 -2.11812e-05
6.14739e-05 0.000962086 4.17865e-06
-2.11812e-05 4.17865e-06 0.000974218
0.0017518 0.000103461 -2.90898e-06
0.000103461 -2.44071e-05 -4.27923e-07
-2.90898e-06 -4.27923e-07 -7.23673e-05
0.00170805 9.50748e-06 -1.27523e-06
9.50748e-06 -1.37579e-05 -7.03009e-07
-1.27523e-06 -7.03009e-07 -6.48245e-05
0.00156982 5.38303e-05 9.15819e-06
5.38303e-05 -0.000129981 -5.97332e-07
9.15819e-06 -5.97332e-07 -0.000134414
0.00215554 0.000126091 2.40294e-05
0.000126091 -0.000155507 5.1892e-06
2.40294e-05 5.1892e-06 -0.000186008
0.00184536 7.64344e-06 -2.56165e-06
7.64344e-06 -4.28379e-06 -3.93759e-07
-2.56165e-06 -3.93759e-07 -1.55806e-05
0.00180872 4.09009e-05 4.0525e-06
4.09009e-05 0.000141813 -3.37572e-08
4.0525e-06 -3.37572e-08 0.000160598
0.00285137 -4.5169e-06 -2.06439e-05
-4.5169e-06 0.000700634 5.05491e-07
-2.06439e-05 5.05491e-07 0.000677027
0.00272641 -8.88102e-06 0.000134147
-8.88102e-06 -0.000268454 -1.58824e-05
0.000134147 -1.58824e-05 -0.000431884
0.00249572 1.22834e-05 -4.36621e-06
1.22834e-05 0.000208484 1.69894e-06
-4.36621e-06 1.69894e-06 0.000199219
0.000709054 5.88018e-05 -3.93394e-07
5.88018e-05 5.6293e-05 -1.36021e-06
-3.93394e-07 -1.36021e-06 -9.966e-06
0.000718681 -8.83771e-06 7.21414e-07
-8.83771e-06 6.3814e-05 -9.64992e-08
7.21414e-07 -9.64992e-08 -4.57076e-06
0.000681985 -7.16771e-05 1.42391e-07
-7.16771e-05 4.76611e-05 -8.68574e-07
1.42391e-07 -8.68574e-07 -3.44715e-05
0.000718897 -2.87132e-05 -1.0723e-06
-2.87132e-05 8.16727e-05 -2.02425e-07
-1.0723e-06 -2.02425e-07 -9.83804e-06
0.00193267 -9.98646e-05 -3.09679e-06
-9.98646e-05 2.14964e-05 3.11567e-08
-3.09679e-06 3.11567e-08 -4.25683e-06
0.00178374 -0.000177079 -7.40304e-07
-0.000177079 -6.31527e-07 9.66951e-07
-7.40304e-07 9.66951e-07 -3.66238e-05
0.00196295 -0.00028789 -5.55509e-06
-0.00028789 9.76631e-05 3.28581e-07
-5.55509e-06 3.28581e-07 1.37431e-05
0.00143758 -0.000246743 3.17772e-06
-0.000246743 0.000365225 4.13985e-06
3.17772e-06 4.13985e-06 0.000188961
0.000296414 -0.000237262 6.77423e-06
-0.000237262 -0.000388967 -3.20914e-06
6.77423e-06 -3.20914e-06 -0.000661321
0.00219714 -0.000390278 3.66689e-06
-0.000390278 0.00035799 -3.55548e-06
3.66689e-06 -3.55548e-06 0.000204345
0.000748706 -0.000195655 -5.55878e-06
-0.000195655 2.44273e-05 -3.87018e-07
-5.55878e-06 -3.87018e-07 -0.000149721
0.0014331 -0.000107011 -9.16684e-07
-0.000107011 0.000512556 -1.9383e-06
-9.16684e-07 -1.9383e-06 0.000331634
0.000602092 -8.36116e-05 -1.66663e-06
-8.36116e-05 -1.20966e-05 1.33805e-06
-1.66663e-06 1.33805e-06 -0.000140322
0.000734664 -2.67957e-05 -8.18865e-07
-2.67957e-05 6.79657e-05 1.76278e-06
-8.18865e-07 1.76278e-06 -3.81904e-06
0.000604033 -6.51293e-05 -8.92773e-07
-6.51293e-05 1.8064e-05 1.92518e-08
-8.92773e-07 1.92518e-08 -0.000103394
0.000789624 -1.09655e-05 -9.28765e-07
-1.09655e-05 0.000123791 5.16704e-07
-9.28765e-07 5.16704e-07 1.73278e-05
0.000721336 4.29607e-06 1.45024e-07
4.29607e-06 6.90481e-05 9.70875e-07
1.45024e-07 9.70875e-07 -3.04444e-06
0.000628921 1.58649e-05 -1.42961e-06
1.58649e-05 2.55652e-05 2.7438e-06
-1.42961e-06 2.7438e-06 -7.16978e-05
0.00206491 -0.000155533 9.77381e-07
-0.000155533 0.000114132 5.63749e-07
9.77381e-07 5.63749e-07 9.72224e-05
0.000705624 7.32088e-07 8.53124e-07
7.32088e-07 7.00791e-05 -4.77835e-07
8.53124e-07 -4.77835e-07 -2.25713e-05
0.000681252 9.21984e-06 1.10601e-06
9.21984e-06 5.28099e-05 -2.11392e-07
1.10601e-06 -2.11392e-07 -4.6815e-05
0.000611508 6.10033e-05 -1.54636e-07
6.10033e-05 2.4418e-05 1.46443e-06
-1.54636e-07 1.46443e-06 -7.93428e-05
0.00184127 -0.00019374 -1.93251e-06
-0.00019374 -2.32716e-05 -8.1072e-07
-1.93251e-06 -8.1072e-07 -4.11941e-05
0.001931 -0.000372705 1.35991e-06
-0.000372705 8.52355e-05 -2.91027e-07
1.35991e-06 -2.91027e-07 -2.37709e-05
0.00115023 -0.000245246 -6.22887e-07
-0.000245246 0.000232535 -1.0433e-06
-6.22887e-07 -1.0433e-06 1.88876e-05
0.0023955 -0.00042966 -3.78303e-06
-0.00042966 0.000591541 1.5485e-06
-3.78303e-06 1.5485e-06 0.0003869
0.00103022 -5.24615e-05 -6.522e-07
-5.24615e-05 0.000260225 3.38361e-07
-6.522e-07 3.38361e-07 0.000143535
0.000658979 -6.26254e-05 -3.5542e-07
-6.26254e-05 2.75589e-05 1.0163e-06
-3.5542e-07 1.0163e-06 -9.10507e-05
0.000968311 -0.000231623 2.78351e-06
-0.000231623 0.000290172 -6.4177e-07
2.78351e-06 -6.4177e-07 3.50773e-05
0.000991976 -0.000119012 5.49652e-07
-0.000119012 0.000278501 -5.89449e-08
5.49652e-07 -5.89449e-08 7.81725e-05
0.00196398 -0.000145794 -1.60624e-05
-0.000145794 2.26111e-05 1.35561e-06
-1.60624e-05 1.35561e-06 2.44223e-05
0.00222639 -0.000311432 -1.40463e-05
-0.000311432 0.000138322 3.6668e-06
-1.40463e-05 3.6668e-06 0.000155637
0.00262668 -0.000469074 -1.11202e-05
-0.000469074 0.000566267 -4.33966e-06
-1.11202e-05 -4.33966e-06 0.000396367
0.0017475 -0.000364675 -2.51009e-06
-0.000364675 0.000476827 4.44659e-06
-2.51009e-06 4.44659e-06 0.000270628
0.000636813 1.69423e-05 -7.146e-07
1.69423e-05 4.26411e-05 -2.74499e-06
-7.146e-07 -2.74499e-06 -7.29974e-05
0.000649861 -6.92398e-05 1.23873e-06
-6.92398e-05 5.03012e-05 -3.16682e-06
1.23873e-06 -3.16682e-06 -7.07881e-05
0.000624253 -7.11385e-05 5.90612e-07
-7.11385e-05 5.99526e-05 1.1094e-06
5.90612e-07 1.1094e-06 -7.38399e-05
0.000572488 -7.10068e-05 1.44496e-06
-7.10068e-05 0.000154874 -1.69444e-06
1.44496e-06 -1.69444e-06 -0.000146985
0.000425408 -0.000244569 2.06166e-05
-0.000244569 -0.00229577 -7.10057e-07
2.06166e-05 -7.10057e-07 -0.00278673
0.00107575 4.94967e-05 9.94822e-07
4.94967e-05 0.000279333 -2.48467e-06
9.94822e-07 -2.48467e-06 0.000172103
0.000432255 0.000119911 2.92585e-06
0.000119911 -8.79263e-05 5.55322e-07
2.92585e-06 5.55322e-07 -0.000244215
0.00175805 0.000136018 2.87549e-05
0.000136018 1.36608e-05 3.75744e-06
2.87549e-05 3.75744e-06 1.45852e-05
0.00206258 0.000333365 9.84572e-06
0.000333365 0.000196192 3.41972e-06
9.84572e-06 3.41972e-06 8.86909e-05
0.00165996 0.000353673 5.17433e-06
0.000353673 0.000217752 4.15471e-06
5.17433e-06 4.15471e-06 -1.91138e-05
0.000825981 0.000206349 4.37473e-06
0.000206349 4.53228e-05 1.7917e-06
4.37473e-06 1.7917e-06 -0.000192672
0.00272625 0.000320878 3.7028e-05
0.000320878 0.000193327 9.23099e-06
3.7028e-05 9.23099e-06 -0.000157272
0.00107378 9.90783e-05 1.36144e-06
9.90783e-05 0.000296181 -3.71068e-07
1.36144e-06 -3.71068e-07 0.00016557
0.00235424 0.000253992 -8.96212e-06
0.000253992 0.000347071 -1.50576e-06
-8.96212e-06 -1.50576e-06 0.000357145
0.00105346 0.000198246 8.11644e-07
0.000198246 0.000246 -1.94952e-07
8.11644e-07 -1.94952e-07 7.24333e-05
0.00122735 0.0002811 2.50396e-07
0.0002811 0.000168684 -4.10178e-07
2.50396e-07 -4.10178e-07 -7.71301e-05
0.00142117 0.000410436 -3.83033e-06
0.000410436 -7.47492e-05 -1.57549e-06
-3.83033e-06 -1.57549e-06 -0.000258714
0.00309344 -0.000161262 -7.85501e-05
-0.000161262 -0.000698187 -2.6406e-05
-7.85501e-05 -2.6406e-05 -0.00163047
0.00466326 0.000411424 -3.39215e-06
0.000411424 0.000484309 -2.20922e-05
-3.39215e-06 -2.20922e-05 -0.000206346
0.000224062 0.000267491 1.48311e-06
0.000267491 -0.000506545 7.57084e-06
1.48311e-06 7.57084e-06 -0.00068033
-0.000866989 -0.000364296 9.55504e-05
-0.000364296 0.000598731 3.50651e-05
9.55504e-05 3.50651e-05 -0.000306637
-0.000578736 -0.00130952 -4.46974e-05
-0.00130952 -0.00139767 -6.31287e-05
-4.46974e-05 -6.31287e-05 0.000353905
0.00113466 0.00014493 -3.50384e-06
0.00014493 0.00032917 -4.21066e-06
-3.50384e-06 -4.21066e-06 0.000204995
0.000372055 0.000270741 5.84619e-05
0.000270741 0.00105293 -2.87384e-05
5.84619e-05 -2.87384e-05 0.000256614
0.00133674 -0.000467028 -6.80798e-05
-0.000467028 0.00157834 -0.000104012
-6.80798e-05 -0.000104012 0.000890619
0.00281898 0.000383412 -2.46843e-05
0.000383412 0.000663222 -9.80699e-06
-2.46843e-05 -9.80699e-06 0.000675279
0.00118051 0.000140904 -1.19854e-05
0.000140904 0.000308911 -1.87623e-06
-1.19854e-05 -1.87623e-06 0.000128504
0.000719637 0.000376841 -1.70372e-05
0.000376841 -0.000146772 -1.15901e-05
-1.70372e-05 -1.15901e-05 -0.000414633
-7.67249e-05 0.000312499 2.39153e-05
0.000312499 -0.000678666 5.41309e-05
2.39153e-05 5.41309e-05 -0.000757993
0.00960478 0.0003187 -3.52262e-05
0.0003187 0.00321469 -2.41506e-05
-3.52262e-05 -2.41506e-05 0.00175149
0.00361833 0.000718892 8.358e-07
0.000718892 0.000844966 1.14706e-05
8.358e-07 1.14706e-05 -0.000360573
0.00134484 -0.0011181 0.000119465
-0.0011181 -0.000393697 9.51488e-05
0.000119465 9.51488e-05 6.84809e-05
0.00265893 -0.000669637 9.78744e-07
-0.000669637 -0.00155281 0.000136351
9.78744e-07 0.000136351 -0.000114146
0.00074251 -8.02957e-06 8.22357e-07
-8.02957e-06 9.24876e-05 -1.13138e-06
8.22357e-07 -1.13138e-06 2.33103e-06
0.000891101 5.26001e-05 7.55362e-07
5.26001e-05 0.000161351 9.51606e-07
7.55362e-07 9.51606e-07 6.81169e-05
0.00126223 0.000103207 -1.77749e-06
0.000103207 0.00037708 -3.23469e-06
-1.77749e-06 -3.23469e-06 0.000299142
0.000690706 3.80897e-06 3.07844e-07
3.80897e-06 4.88436e-05 -2.81618e-07
3.07844e-07 -2.81618e-07 -3.28884e-05
0.000773002 2.50673e-05 -5.84018e-08
2.50673e-05 9.20163e-05 -6.9836e-07
-5.84018e-08 -6.9836e-07 -4.03388e-06
0.000607789 -1.8253e-05 -7.93838e-07
-1.8253e-05 -1.0284e-05 -8.90913e-08
-7.93838e-07 -8.90913e-08 -0.000100098
0.000832195 2.23826e-05 -8.40749e-07
2.23826e-05 0.000112416 1.439e-07
-8.40749e-07 1.439e-07 2.19867e-05
0.000791039 -1.84426e-06 -7.62092e-07
-1.84426e-06 7.75865e-05 4.30385e-07
-7.62092e-07 4.30385e-07 -6.39676e-06
0.000559161 -1.122e-06 4.32867e-07
-1.122e-06 -3.62924e-05 6.74037e-07
4.32867e-07 6.74037e-07 -0.000115012
0.000862007 1.8032e-05 1.55802e-08
1.8032e-05 0.00012937 -5.76863e-08
1.55802e-08 -5.76863e-08 3.68103e-05
0.000850112 1.53665e-05 2.16942e-08
1.53665e-05 0.000125075 2.69519e-07
2.16942e-08 2.69519e-07 3.03849e-05
0.000735087 1.74066e-05 5.88551e-07
1.74066e-05 7.18809e-05 -3.54525e-07
5.88551e-07 -3.54525e-07 -2.72537e-05
0.000638737 2.42304e-05 -1.25086e-07
2.42304e-05 -9.28213e-07 7.15015e-08
-1.25086e-07 7.15015e-08 -8.69329e-05
0.00101323 2.16585e-05 8.82077e-08
2.16585e-05 0.000212999 -1.01618e-06
8.82077e-08 -1.01618e-06 0.000123479
0.000484585 4.32155e-05 -1.04543e-06
4.32155e-05 -7.79198e-05 -4.48067e-06
-1.04543e-06 -4.48067e-06 -0.000168329
0.000797742 -6.5931e-05 -2.5504e-07
-6.5931e-05 9.27993e-05 -8.19055e-08
-2.5504e-07 -8.19055e-08 -6.74132e-06
0.000824076 -5.41472e-05 -7.58937e-07
-5.41472e-05 0.000126108 -9.7095e-07
-7.58937e-07 -9.7095e-07 2.35082e-05
0.000834486 -1.82916e-05 -5.21279e-07
-1.82916e-05 0.000131689 -3.22022e-07
-5.21279e-07 -3.22022e-07 3.28609e-05
0.000851544 2.98345e-05 -4.63309e-07
2.98345e-05 0.000129836 -3.09875e-07
-4.63309e-07 -3.09875e-07 3.85604e-05
0.000837815 1.51047e-05 -1.01958e-06
1.51047e-05 0.000135662 -1.7339e-06
-1.01958e-06 -1.7339e-06 2.80216e-05
0.000764701 3.82452e-05 7.54798e-07
3.82452e-05 8.97479e-05 -8.74205e-07
7.54798e-07 -8.74205e-07 -2.91733e-06
0.00056266 7.60136e-06 7.45218e-07
7.60136e-06 -4.6661e-05 -1.80877e-06
7.45218e-07 -1.80877e-06 -0.0001285
0.000664487 3.64436e-05 1.33184e-06
3.64436e-05 3.84523e-05 7.3616e-07
1.33184e-06 7.3616e-07 -5.42383e-05
0.000711717 -1.58081e-05 4.07186e-08
-1.58081e-05 5.29042e-05 -8.89153e-09
4.07186e-08 -8.89153e-09 -2.69999e-05
0.000738894 -1.84109e-05 -1.9348e-07
-1.84109e-05 7.87235e-05 -3.40138e-10
-1.9348e-07 -3.40138e-10 -1.09792e-05
0.000708615 -2.34021e-05 -1.3413e-06
-2.34021e-05 4.00197e-05 5.92921e-07
-1.3413e-06 5.92921e-07 -2.67161e-05
0.000746239 -9.73399e-06 9.97693e-07
-9.73399e-06 6.93503e-05 -1.89117e-07
9.97693e-07 -1.89117e-07 -1.6605e-05
0.000673123 -5.35968e-05 -1.09156e-08
-5.35968e-05 2.53556e-05 9.95441e-08
-1.09156e-08 9.95441e-08 -4.8197e-05
0.000684233 6.62817e-06 -1.25551e-06
6.62817e-06 1.33631e-05 1.85544e-06
-1.25551e-06 1.85544e-06 -3.19161e-05
0.00057112 -1.10877e-06 8.33289e-07
-1.10877e-06 -2.45536e-05 -2.97984e-07
8.33289e-07 -2.97984e-07 -0.00010587
0.000667122 7.13644e-06 5.44183e-07
7.13644e-06 6.85442e-06 -2.32295e-08
5.44183e-07 -2.32295e-08 -3.88863e-05
0.00136837 1.68691e-05 -2.76865e-06
1.68691e-05 0.000392366 5.09596e-06
-2.76865e-06 5.09596e-06 0.000383645
0.000658839 1.58475e-05 1.43238e-08
1.58475e-05 3.30594e-06 -1.6644e-06
1.43238e-08 -1.6644e-06 -4.1755e-05
0.00100046 8.90633e-06 -1.5474e-06
8.90633e-06 0.000177973 7.7705e-07
-1.5474e-06 7.7705e-07 0.000167852
0.000868599 3.90489e-06 -3.54295e-06
3.90489e-06 0.000102803 4.86291e-06
-3.54295e-06 4.86291e-06 0.000112734
0.000638814 1.86191e-06 6.27679e-08
1.86191e-06 -3.23396e-05 -3.55678e-06
6.27679e-08 -3.55678e-06 -4.38029e-05
0.00227777 1.48416e-07 3.65392e-06
1.48416e-07 0.000916751 -3.05768e-09
3.65392e-06 -3.05768e-09 0.000934495
0.00088642 -3.6563e-06 -3.52095e-06
-3.6563e-06 0.000112556 -4.88061e-06
-3.52095e-06 -4.88061e-06 0.000123096
0.000721991 6.58727e-05 1.26174e-06
6.58727e-05 7.01319e-05 -5.9271e-07
1.26174e-06 -5.9271e-07 -2.43318e-06
0.000675868 1.39854e-05 -6.45617e-07
1.39854e-05 1.11821e-05 -1.99663e-06
-6.45617e-07 -1.99663e-06 -2.47404e-05
0.000666877 -2.24094e-07 6.23215e-07
-2.24094e-07 5.38828e-06 1.79167e-08
6.23215e-07 1.79167e-08 -3.06704e-05
0.000646778 7.48988e-06 -1.68007e-08
7.48988e-06 -2.87647e-05 -3.47633e-06
-1.68007e-08 -3.47633e-06 -3.48141e-05
0.00068793 -1.56909e-05 -1.13401e-06
-1.56909e-05 1.60176e-05 2.05132e-06
-1.13401e-06 2.05132e-06 -2.13973e-05
0.000631405 1.36605e-05 5.41694e-09
1.36605e-05 -3.65461e-05 -7.55931e-07
5.41694e-09 -7.55931e-07 -4.31499e-05
0.00207474 2.24252e-05 8.23384e-06
2.24252e-05 0.000803106 -4.60069e-06
8.23384e-06 -4.60069e-06 0.000822165
0.00125046 2.86733e-05 -8.35131e-07
2.86733e-05 0.000324997 2.13656e-06
-8.35131e-07 2.13656e-06 0.000319717
0.00151268 2.90607e-05 2.841e-07
2.90607e-05 0.000482868 1.45914e-06
2.841e-07 1.45914e-06 0.000496682
0.000940026 3.20803e-05 -1.59685e-05
3.20803e-05 0.000157616 7.3793e-06
-1.59685e-05 7.3793e-06 0.000165669
0.00140453 7.03013e-05 4.70445e-05
7.03013e-05 -0.000472684 1.39902e-05
4.70445e-05 1.39902e-05 -0.000522575
0.00183788 -7.27878e-07 1.19245e-06
-7.27878e-07 -9.32381e-06 7.82112e-08
1.19245e-06 7.82112e-08 -2.05785e-05
0.00183008 4.8603e-05 2.60742e-05
4.8603e-05 0.000167533 -3.12254e-06
2.60742e-05 -3.12254e-06 0.000176089
0.000880363 5.22815e-05 1.94451e-06
5.22815e-05 -0.000891802 -5.37651e-06
1.94451e-06 -5.37651e-06 -0.00108692
0.00171969 2.37126e-05 1.14718e-05
2.37126e-05 -0.000158826 1.14095e-06
1.14718e-05 1.14095e-06 -0.000156781
0.00224536 -1.32499e-05 -1.20904e-06
-1.32499e-05 0.000298737 -9.10012e-07
-1.20904e-06 -9.10012e-07 0.000277979
0.00307351 -3.61748e-05 -5.50427e-05
-3.61748e-05 0.000634647 5.03988e-06
-5.50427e-05 5.03988e-06 0.000623766
0.00306713 -9.1364e-05 0.000134596
-9.1364e-05 0.000390662 -8.18221e-06
0.000134596 -8.18221e-06 0.000161697
0.00811035 -0.000273453 -4.80233e-06
-0.000273453 0.00198191 1.5431e-05
-4.80233e-06 1.5431e-05 0.000802081
0.00697802 0.00112069 0.000182841
0.00112069 0.00344106 -8.23747e-05
0.000182841 -8.23747e-05 0.00358228
0.00296632 0.00112374 8.12519e-06
0.00112374 0.00184336 1.1451e-05
8.12519e-06 1.1451e-05 0.0027942
0.000446928 -6.76662e-05 1.94153e-06
-6.76662e-05 -8.17782e-05 -1.33251e-06
1.94153e-06 -1.33251e-06 -0.000166597
0.000714497 -8.87521e-06 1.04761e-06
-8.87521e-06 6.14453e-05 -9.44139e-08
1.04761e-06 -9.44139e-08 -6.27381e-06
0.000729954 -6.93879e-05 -1.37314e-06
-6.93879e-05 7.51376e-05 1.81326e-06
-1.37314e-06 1.81326e-06 2.72279e-06
0.000666329 -2.47257e-05 -3.91615e-07
-2.47257e-05 4.11811e-05 1.59113e-07
-3.91615e-07 1.59113e-07 -4.37083e-05
0.000793685 6.83916e-05 4.40434e-08
6.83916e-05 0.000128578 2.21632e-07
4.40434e-08 2.21632e-07 2.45967e-05
0.000865568 0.000112829 1.09781e-06
0.000112829 0.000157712 8.98238e-07
1.09781e-06 8.98238e-07 5.689e-05
0.000786379 -9.47416e-06 1.4013e-06
-9.47416e-06 0.000113088 -2.02038e-06
1.4013e-06 -2.02038e-06 2.27588e-05
0.000654208 -2.82493e-05 -6.63396e-07
-2.82493e-05 3.7416e-05 6.79874e-07
-6.63396e-07 6.79874e-07 -4.92504e-05
0.00204466 -0.000138639 6.05493e-06
-0.000138639 0.000121 3.40499e-07
6.05493e-06 3.40499e-07 0.00010787
0.00185082 -0.000200116 3.79337e-06
-0.000200116 -4.6116e-05 -1.74907e-06
3.79337e-06 -1.74907e-06 -6.65764e-05
0.0016361 -0.000351135 8.98218e-07
-0.000351135 -7.10469e-05 1.6554e-06
8.98218e-07 1.6554e-06 -0.00017318
0.00111717 -0.000266822 4.67089e-06
-0.000266822 0.000197577 3.02207e-06
4.67089e-06 3.02207e-06 -1.70212e-05
0.00219849 -0.000417795 4.67097e-06
-0.000417795 0.000486686 -1.50447e-07
4.67097e-06 -1.50447e-07 0.000280802
0.00108816 -0.00024377 -3.48133e-07
-0.00024377 0.000357757 -1.98972e-06
-3.48133e-07 -1.98972e-06 0.00010044
0.00159739 -0.00018147 -1.13518e-06
-0.00018147 0.000613083 -5.27621e-07
-1.13518e-06 -5.27621e-07 0.00040361
0.000775343 -9.50255e-05 -8.7608e-07
-9.50255e-05 9.55522e-05 1.21679e-06
-8.7608e-07 1.21679e-06 -3.19987e-05
0.000777752 -2.21163e-05 -3.41786e-07
-2.21163e-05 0.000112367 2.18142e-06
-3.41786e-07 2.18142e-06 1.24493e-05
0.000959741 -1.2535e-05 -1.61815e-06
-1.2535e-05 0.000211457 -2.28459e-06
-1.61815e-06 -2.28459e-06 9.98946e-05
0.000984334 -1.26264e-05 9.73753e-07
-1.26264e-05 0.000231377 1.15981e-06
9.73753e-07 1.15981e-06 0.000138951
0.000724079 0.00011684 2.24501e-06
0.00011684 9.25278e-05 3.4587e-06
2.24501e-06 3.4587e-06 -1.15549e-05
0.00173639 -0.000144459 -6.24679e-07
-0.000144459 -7.53354e-05 -2.54558e-07
-6.24679e-07 -2.54558e-07 -7.2118e-05
0.000733286 2.86738e-05 -1.01556e-06
2.86738e-05 9.78423e-05 2.36018e-07
-1.01556e-06 2.36018e-07 -1.65031e-05
0.000815398 -6.02822e-05 -9.22037e-07
-6.02822e-05 0.000139392 1.86203e-07
-9.22037e-07 1.86203e-07 2.36249e-05
0.0018232 -0.000305137 7.41835e-07
-0.000305137 -6.23834e-05 -1.53662e-06
7.41835e-07 -1.53662e-06 -5.94045e-05
0.0014053 -0.000382383 -2.34652e-07
-0.000382383 -6.25359e-05 2.6137e-06
-2.34652e-07 2.6137e-06 -0.00020978
0.00159084 -0.00035293 1.75999e-06
-0.00035293 0.0003905 -1.51634e-06
1.75999e-06 -1.51634e-06 0.000171185
0.000896086 -8.49724e-05 3.84485e-07
-8.49724e-05 0.000212979 -2.05011e-06
3.84485e-07 -2.05011e-06 6.55927e-05
0.000919681 -0.00010399 -3.14892e-07
-0.00010399 0.00032474 1.28083e-07
-3.14892e-07 1.28083e-07 3.9054e-05
0.00249874 -0.000205861 -1.86227e-05
-0.000205861 0.000432542 4.3678e-06
-1.86227e-05 4.3678e-06 0.0003758
0.00280137 -0.00041919 -2.45644e-05
-0.00041919 0.000534601 3.14951e-06
-2.45644e-05 3.14951e-06 0.000553914
0.000727042 -0.000368507 -7.20593e-06
-0.000368507 -0.000279231 1.24767e-06
-7.20593e-06 1.24767e-06 -0.000433766
0.000673256 -0.000230166 -3.41468e-06
-0.000230166 6.04891e-06 1.4706e-05
-3.41468e-06 1.4706e-05 -0.000222581
0.000660959 -0.000106284 1.21471e-06
-0.000106284 5.26917e-05 -9.64322e-07
1.21471e-06 -9.64322e-07 -6.97216e-05
0.000622564 -6.60247e-05 2.05719e-06
-6.60247e-05 4.83828e-05 -4.0913e-06
2.05719e-06 -4.0913e-06 -8.2873e-05
0.000921897 -3.37395e-05 4.26461e-07
-3.37395e-05 0.000305698 -3.24563e-06
4.26461e-07 -3.24563e-06 7.27786e-05
-0.0042091 -2.75066e-05 0.00019757
-2.75066e-05 -0.00239258 3.81485e-08
0.00019757 3.81485e-08 -0.00187102
0.00941966 -0.000113341 -1.56424e-05
-0.000113341 0.00295797 1.19064e-06
-1.56424e-05 1.19064e-06 0.00232561
0.00106924 8.34347e-05 2.94446e-06
8.34347e-05 0.000294274 -4.50058e-07
2.94446e-06 -4.50058e-07 0.00016768
0.000754333 0.000173697 3.97732e-06
0.000173697 8.75356e-05 -1.40111e-06
3.97732e-06 -1.40111e-06 -8.20474e-05
0.00214302 0.000240124 2.21842e-05
0.000240124 0.000229826 1.45691e-05
2.21842e-05 1.45691e-05 0.000250182
0.0023364 0.000471023 6.79226e-06
0.000471023 0.000384404 6.46702e-06
6.79226e-06 6.46702e-06 0.00020742
0.0014711 0.000310591 6.7118e-06
0.000310591 0.000309226 7.72943e-07
6.7118e-06 7.72943e-07 5.98434e-05
0.00803629 0.000379558 5.94425e-05
0.000379558 0.00195314 6.03217e-06
5.94425e-05 6.03217e-06 0.000885314
0.00662178 0.000609204 -0.000119811
0.000609204 0.00118808 -3.11174e-05
-0.000119811 -3.11174e-05 0.000595552
-0.000862393 0.000159921 5.1615e-07
0.000159921 -0.00100073 -1.93137e-05
5.1615e-07 -1.93137e-05 -0.00119126
0.00530575 -0.000901872 -2.80649e-05
-0.000901872 0.00266536 2.76669e-05
-2.80649e-05 2.76669e-05 0.00231889
-0.00670204 -0.00133286 -0.000274068
-0.00133286 -0.00363475 -0.000226605
-0.000274068 -0.000226605 -0.00174484
0.00095659 0.000142705 1.76612e-08
0.000142705 0.000238194 -1.69036e-06
1.76612e-08 -1.69036e-06 0.000113078
-0.00244381 -0.000374494 7.13993e-05
-0.000374494 -0.00168914 7.262e-06
7.13993e-05 7.262e-06 -0.00178099
-0.00154804 -0.000382821 -8.02683e-05
-0.000382821 0.000543852 -3.74868e-05
-8.02683e-05 -3.74868e-05 -0.000419593
0.00254528 0.000348677 -5.14356e-06
0.000348677 0.000487624 -1.24419e-06
-5.14356e-06 -1.24419e-06 0.000525531
0.000889862 0.000157861 -1.83041e-06
0.000157861 0.000177555 3.33013e-07
-1.83041e-06 3.33013e-07 -1.31837e-05
0.000738703 0.000333607 4.48779e-06
0.000333607 -0.000105749 1.73181e-06
4.48779e-06 1.73181e-06 -0.000366869
0.000750104 0.000260549 1.17639e-05
0.000260549 -0.000170407 1.03061e-05
1.17639e-05 1.03061e-05 -0.000169037
0.00763326 0.000231679 -2.93531e-05
0.000231679 0.00181092 -1.90548e-05
-2.93531e-05 -1.90548e-05 0.000193696
0.00636947 0.000923389 -4.34219e-05
0.000923389 0.00166737 -1.72338e-05
-4.34219e-05 -1.72338e-05 0.000850953
0.00768081 -0.00113771 6.52854e-05
-0.00113771 0.00364495 -3.24312e-05
6.52854e-05 -3.24312e-05 0.003747
0.00226177 -0.000806671 8.44534e-05
-0.000806671 -0.0018913 0.000176558
8.44534e-05 0.000176558 -0.00040168
0.00145849 0.000122167 -1.22936e-05
0.000122167 0.000540527 -7.75894e-06
-1.22936e-05 -7.75894e-06 0.000434524
-0.00384779 5.5432e-05 -7.92425e-05
5.5432e-05 0.000184583 -3.93947e-05
-7.92425e-05 -3.93947e-05 -0.00135862
0.00235194 0.000118486 -0.00010084
0.000118486 0.000814001 -0.000145157
-0.00010084 -0.000145157 -0.000748825
0.000172187 0.000281321 -1.5302e-05
0.000281321 -0.000442419 1.22694e-06
-1.5302e-05 1.22694e-06 -0.000453764
0.00157259 0.000355323 -3.92676e-05
0.000355323 0.000615999 -1.08907e-05
-3.92676e-05 -1.08907e-05 0.000398386
0.00265238 0.0002724 -7.10804e-05
0.0002724 0.00116952 -5.42867e-06
-7.10804e-05 -5.42867e-06 0.000897381
0.00361021 0.000795358 -5.75565e-05
0.000795358 0.000501691 -1.3288e-05
-5.75565e-05 -1.3288e-05 0.000119996
1.28862e-05 0.000350978 0.000107942
0.000350978 -0.000513033 8.01729e-05
0.000107942 8.01729e-05 -0.00284704
0.0083018 -0.00115097 8.20888e-06
-0.00115097 0.0025073 0.000141699
8.20888e-06 0.000141699 0.00234325
0.00281103 -0.000486484 -1.04027e-05
-0.000486484 -0.00209599 -2.08977e-05
-1.04027e-05 -2.08977e-05 -0.000714522
0.000947814 7.12058e-05 2.07054e-06
7.12058e-05 0.000202001 3.83947e-06
2.07054e-06 3.83947e-06 0.000102784
0.00115475 9.69333e-05 3.91674e-06
9.69333e-05 0.00031188 2.56545e-06
3.91674e-06 2.56545e-06 0.000233928
0.000489106 7.00806e-05 -1.00505e-06
7.00806e-05 -5.75898e-05 -7.46297e-06
-1.00505e-06 -7.46297e-06 -0.000119406
0.000550801 4.3604e-05 9.0296e-07
4.3604e-05 -4.1999e-05 -1.2928e-08
9.0296e-07 -1.2928e-08 -0.000120186
0.000780662 4.02197e-05 -6.89254e-07
4.02197e-05 0.00010411 -9.14883e-07
-6.89254e-07 -9.14883e-07 2.26297e-06
0.000814204 -9.21106e-06 -2.7958e-07
-9.21106e-06 0.000104574 8.04066e-07
-2.7958e-07 8.04066e-07 1.05244e-05
0.000817037 -6.24802e-06 1.00323e-06
-6.24802e-06 0.000107264 -2.74558e-07
1.00323e-06 -2.74558e-07 1.23983e-05
0.000624741 1.78704e-05 -6.38649e-07
1.78704e-05 -8.45439e-06 2.40195e-06
-6.38649e-07 2.40195e-06 -9.3376e-05
0.000825632 3.73213e-05 7.67804e-08
3.73213e-05 0.000127742 -6.78477e-07
7.67804e-08 -6.78477e-07 2.47373e-05
0.000891865 1.99097e-05 -7.87925e-08
1.99097e-05 0.000142631 2.39393e-07
-7.87925e-08 2.39393e-07 5.30162e-05
0.000830548 -3.12015e-05 -9.8667e-08
-3.12015e-05 0.000114559 4.58196e-07
-9.8667e-08 4.58196e-07 1.30357e-05
0.000329015 3.00375e-05 8.43295e-07
3.00375e-05 -0.000158969 -4.10596e-07
8.43295e-07 -4.10596e-07 -0.000246704
1.38227e-05 1.92463e-05 1.95027e-06
1.92463e-05 -0.000258457 -3.566e-06
1.95027e-06 -3.566e-06 -0.000340747
0.000967085 -6.29906e-06 -2.0215e-06
-6.29906e-06 0.000194946 -2.52409e-06
-2.0215e-06 -2.52409e-06 9.61756e-05
0.000969989 7.59365e-07 3.29991e-08
7.59365e-07 0.000209458 -1.72005e-06
3.29991e-08 -1.72005e-06 9.41866e-05
0.000837359 -4.6865e-05 -2.83724e-08
-4.6865e-05 0.00013638 -4.38798e-07
-2.83724e-08 -4.38798e-07 3.47508e-05
0.000880714 -3.53021e-06 -7.32036e-07
-3.53021e-06 0.000141635 9.66722e-07
-7.32036e-07 9.66722e-07 5.27467e-05
0.000836114 -3.07773e-05 4.77718e-07
-3.07773e-05 0.000126515 -3.60266e-07
4.77718e-07 -3.60266e-07 2.40467e-05
0.000783581 3.34817e-05 -1.92014e-07
3.34817e-05 9.76439e-05 -7.46837e-08
-1.92014e-07 -7.46837e-08 6.04674e-06
0.000674783 -1.9094e-05 -1.95611e-07
-1.9094e-05 1.84134e-05 5.1361e-07
-1.95611e-07 5.1361e-07 -6.41282e-05
0.000691757 4.10581e-05 9.64453e-07
4.10581e-05 4.82686e-05 3.12596e-07
9.64453e-07 3.12596e-07 -4.15353e-05
0.000561712 4.30541e-06 -7.13066e-08
4.30541e-06 -3.07892e-05 -3.13854e-06
-7.13066e-08 -3.13854e-06 -0.000126143
0.000632353 -7.50013e-06 1.62684e-06
-7.50013e-06 2.43765e-06 -1.27006e-06
1.62684e-06 -1.27006e-06 -7.87739e-05
0.000850879 7.77892e-06 2.90083e-06
7.77892e-06 0.000118814 -3.08709e-06
2.90083e-06 -3.08709e-06 2.53098e-05
0.000217823 -3.31299e-05 8.4802e-07
-3.31299e-05 -0.000191192 1.89847e-07
8.4802e-07 1.89847e-07 -0.000326886
0.000352752 3.16799e-05 -2.91697e-07
3.16799e-05 -0.000123202 -4.4955e-07
-2.91697e-07 -4.4955e-07 -0.000223875
0.000741332 2.8807e-05 4.18862e-07
2.8807e-05 8.12596e-05 4.0427e-07
4.18862e-07 4.0427e-07 -1.19412e-05
0.000690627 1.86706e-05 3.40772e-08
1.86706e-05 4.3668e-05 3.89601e-07
3.40772e-08 3.89601e-07 -3.70092e-05
0.000744547 -4.00811e-06 -4.32241e-08
-4.00811e-06 8.04838e-05 3.69638e-09
-4.32241e-08 3.69638e-09 -5.70369e-06
0.000670446 1.42332e-05 -6.12958e-07
1.42332e-05 2.32351e-05 5.50936e-07
-6.12958e-07 5.50936e-07 -4.49101e-05
0.000774499 -1.91471e-06 2.11138e-07
-1.91471e-06 9.7222e-05 2.62505e-07
2.11138e-07 2.62505e-07 8.61443e-06
0.000722558 -2.45802e-05 -2.33945e-07
-2.45802e-05 5.3145e-05 3.10691e-08
-2.33945e-07 3.10691e-08 -1.71789e-05
0.000654237 3.59659e-05 -7.37848e-07
3.59659e-05 -3.24028e-06 1.84156e-06
-7.37848e-07 1.84156e-06 -4.95655e-05
0.000626579 -4.53033e-05 1.03471e-06
-4.53033e-05 -4.97064e-06 -5.54831e-07
1.03471e-06 -5.54831e-07 -7.71876e-05
0.000669768 1.38244e-05 -1.93005e-07
1.38244e-05 5.40407e-06 -2.81112e-08
-1.93005e-07 -2.81112e-08 -4.00412e-05
0.00136787 2.56391e-05 -4.8421e-06
2.56391e-05 0.000393722 5.09578e-06
-4.8421e-06 5.09578e-06 0.000384527
0.000662556 -6.0323e-06 6.9631e-07
-6.0323e-06 3.87919e-06 -1.70228e-06
6.9631e-07 -1.70228e-06 -4.15893e-05
0.000995325 1.61979e-05 -2.44488e-06
1.61979e-05 0.000176321 7.47002e-07
-2.44488e-06 7.47002e-07 0.000165825
0.000816588 1.39875e-05 -4.27659e-07
1.39875e-05 7.40296e-05 1.90938e-06
-4.27659e-07 1.90938e-06 8.36339e-05
0.0006236 7.44299e-06 3.23824e-07
7.44299e-06 -4.046e-05 -3.59198e-06
3.23824e-07 -3.59198e-06 -5.23498e-05
0.00229298 1.18619e-05 3.28914e-06
1.18619e-05 0.000926309 3.31276e-08
3.28914e-06 3.31276e-08 0.000943702
0.00228935 1.54849e-06 -5.537e-08
1.54849e-06 0.000923492 -5.02887e-06
-5.537e-08 -5.02887e-06 0.000941112
0.00102453 6.83108e-05 -1.30648e-06
6.83108e-05 0.000237625 -1.30014e-06
-1.30648e-06 -1.30014e-06 0.000168053
0.000686314 1.7685e-05 -8.12388e-07
1.7685e-05 1.72319e-05 -2.13111e-06
-8.12388e-07 -2.13111e-06 -2.00613e-05
0.000700044 -1.5122e-06 6.74309e-07
-1.5122e-06 5.61751e-05 7.83148e-07
6.74309e-07 7.83148e-07 -1.50361e-05
0.000646775 1.44342e-06 -1.39489e-07
1.44342e-06 -2.96832e-05 -3.55896e-06
-1.39489e-07 -3.55896e-06 -3.55373e-05
0.000672957 -2.82009e-06 2.30239e-07
-2.82009e-06 9.24038e-06 -3.15648e-08
2.30239e-07 -3.15648e-08 -2.65253e-05
0.000674541 -1.47004e-05 -9.62086e-07
-1.47004e-05 9.63903e-06 1.9083e-06
-9.62086e-07 1.9083e-06 -2.64608e-05
0.00064161 7.52253e-06 -1.63068e-07
7.52253e-06 -3.18431e-05 -1.72895e-08
-1.63068e-07 -1.72895e-08 -3.78636e-05
0.00207205 1.10496e-05 3.86428e-06
1.10496e-05 0.000799137 -4.72916e-06
3.86428e-06 -4.72916e-06 0.00081888
0.00123839 1.92209e-05 -6.23726e-07
1.92209e-05 0.000314658 2.13e-06
-6.23726e-07 2.13e-06 0.000311241
0.00145459 1.94216e-05 1.72102e-06
1.94216e-05 0.000444223 7.18531e-08
1.72102e-06 7.18531e-08 0.00045984
0.000892646 2.29993e-05 -1.42302e-05
2.29993e-05 0.000123729 7.24285e-06
-1.42302e-05 7.24285e-06 0.000134738
-0.00698342 0.00019713 0.000138855
0.00019713 -0.00326425 -9.5757e-07
0.000138855 -9.5757e-07 -0.00375152
-0.00206999 0.000152494 0.000133018
0.000152494 0.000577198 1.64559e-05
0.000133018 1.64559e-05 -0.000269679
0.00385287 0.000132492 -0.000177307
0.000132492 0.000536486 6.13971e-07
-0.000177307 6.13971e-07 0.000371769
0.000851361 2.93795e-05 3.36801e-05
2.93795e-05 -0.000565656 -4.39394e-07
3.36801e-05 -4.39394e-07 -0.000579066
0.00146067 -2.05161e-05 1.61105e-05
-2.05161e-05 -0.000207378 1.87922e-07
1.61105e-05 1.87922e-07 -0.000226258
0.000874189 3.40975e-05 1.34248e-05
3.40975e-05 -0.000609421 -3.22306e-06
1.34248e-05 -3.22306e-06 -0.000691075
0.00235598 -6.46591e-05 2.4878e-06
-6.46591e-05 0.000225568 2.48549e-06
2.4878e-06 2.48549e-06 0.000189806
0.00779851 0.000139711 2.02183e-05
0.000139711 0.00173638 -2.49101e-05
2.02183e-05 -2.49101e-05 0.000790323
-0.00361091 0.000584278 -3.17273e-05
0.000584278 -0.00122023 -4.41215e-06
-3.17273e-05 -4.41215e-06 -0.00183438
-0.0018875 0.0011947 -5.93092e-05
0.0011947 -0.000908218 2.44421e-05
-5.93092e-05 2.44421e-05 0.000584789
0.00119387 -0.000147073 4.45161e-05
-0.000147073 -0.000583798 1.16253e-05
4.45161e-05 1.16253e-05 -0.000864975
0.00940682 5.87517e-06 5.06605e-05
5.87517e-06 0.00289882 -2.55564e-05
5.06605e-05 -2.55564e-05 0.00153696
0.000905495 0.00109785 8.7846e-05
0.00109785 -0.000442263 -0.000148112
8.7846e-05 -0.000148112 0.000197408
0.00465422 0.000867301 -0.000101424
0.000867301 5.30911e-05 7.79747e-05
-0.000101424 7.79747e-05 0.000807454
0.000738024 6.67191e-05 -1.1227e-06
6.67191e-05 9.89234e-05 -6.21523e-07
-1.1227e-06 -6.21523e-07 -1.38714e-05
0.00060087 1.13199e-05 -2.53264e-07
1.13199e-05 2.55426e-06 -6.55404e-07
-2.53264e-07 -6.55404e-07 -7.98669e-05
0.000716403 -7.46069e-05 -1.05204e-06
-7.46069e-05 6.67263e-05 1.4382e-06
-1.05204e-06 1.4382e-06 -4.18204e-06
0.00060751 2.041e-06 1.37597e-07
2.041e-06 1.17941e-05 1.17103e-06
1.37597e-07 1.17103e-06 -7.69749e-05
0.000756759 6.7323e-05 9.51036e-07
6.7323e-05 0.000109817 1.41506e-06
9.51036e-07 1.41506e-06 5.80246e-06
0.000884558 6.87989e-05 -2.53955e-07
6.87989e-05 0.000174647 -2.48868e-07
-2.53955e-07 -2.48868e-07 6.409e-05
0.000807294 8.04486e-05 1.62334e-06
8.04486e-05 0.000129154 1.57163e-06
1.62334e-06 1.57163e-06 2.58357e-05
0.000714406 1.09224e-06 1.27415e-06
1.09224e-06 6.53567e-05 -7.57982e-07
1.27415e-06 -7.57982e-07 -2.98077e-05
0.000691744 -1.65501e-05 4.80421e-07
-1.65501e-05 6.18792e-05 -9.09919e-07
4.80421e-07 -9.09919e-07 -3.18692e-05
0.000587047 -9.51588e-06 -3.20023e-07
-9.51588e-06 -7.79037e-06 1.29997e-06
-3.20023e-07 1.29997e-06 -9.02427e-05
0.00142488 -0.000137243 1.38094e-05
-0.000137243 -0.000219074 -1.53598e-06
1.38094e-05 -1.53598e-06 -0.000212897
0.00178548 -0.000310138 1.44155e-05
-0.000310138 -5.856e-05 -2.78083e-06
1.44155e-05 -2.78083e-06 -7.80461e-05
9.42227e-05 -0.000288857 1.16934e-05
-0.000288857 -0.000737824 2.60054e-06
1.16934e-05 2.60054e-06 -0.000860637
0.00132805 -0.00033572 2.57543e-06
-0.00033572 0.000253673 -1.3393e-06
2.57543e-06 -1.3393e-06 2.54749e-05
0.00147866 -0.000143398 -8.81252e-08
-0.000143398 0.000607735 2.69323e-06
-8.81252e-08 2.69323e-06 0.00034361
0.00108748 -0.000115064 -8.15978e-07
-0.000115064 0.000324264 1.03125e-06
-8.15978e-07 1.03125e-06 0.000162255
0.000921932 -5.15892e-05 -1.07129e-06
-5.15892e-05 0.000191961 8.79162e-07
-1.07129e-06 8.79162e-07 8.40172e-05
0.000727055 3.69774e-05 -1.31684e-06
3.69774e-05 9.44947e-05 2.29358e-06
-1.31684e-06 2.29358e-06 -1.7039e-05
0.00161463 -0.000171853 -1.77851e-06
-0.000171853 -2.03271e-05 -4.98669e-07
-1.77851e-06 -4.98669e-07 -5.17335e-05
0.000638341 -4.31079e-05 -2.01194e-07
-4.31079e-05 4.24507e-05 -1.83055e-08
-2.01194e-07 -1.83055e-08 -8.1506e-05
0.00059959 -5.88096e-05 7.61905e-07
-5.88096e-05 3.79124e-05 -1.11594e-06
7.61905e-07 -1.11594e-06 -9.64312e-05
0.00196287 -0.000374087 4.99749e-06
-0.000374087 0.000113039 -1.02384e-06
4.99749e-06 -1.02384e-06 0.00012356
0.000664829 -0.000359447 1.42718e-06
-0.000359447 -0.000291253 2.40462e-06
1.42718e-06 2.40462e-06 -0.000435657
0.000969756 -0.00026509 6.11099e-06
-0.00026509 0.000161635 -2.42941e-06
6.11099e-06 -2.42941e-06 -7.7966e-05
0.00125367 -8.09149e-05 -4.32806e-07
-8.09149e-05 0.000472453 -2.24108e-06
-4.32806e-07 -2.24108e-06 0.000247945
0.000408691 -0.000217798 -1.0705e-05
-0.000217798 -0.000352881 -1.17431e-06
-1.0705e-05 -1.17431e-06 -0.000583897
0.00146696 -0.000312748 -2.46862e-05
-0.000312748 0.000176277 8.24301e-06
-2.46862e-05 8.24301e-06 0.000130404
4.31585e-05 -0.000127208 -1.68564e-05
-0.000127208 -0.000189512 3.18128e-05
-1.68564e-05 3.18128e-05 -0.000436292
0.000572607 3.21158e-05 5.38341e-07
3.21158e-05 3.45512e-06 1.07794e-06
5.38341e-07 1.07794e-06 -0.000117593
0.000574122 -9.71157e-05 2.25575e-06
-9.71157e-05 1.78165e-05 -1.37312e-06
2.25575e-06 -1.37312e-06 -0.000116824
0.000767751 -5.65562e-05 1.76831e-06
-5.65562e-05 0.000157019 -5.54124e-06
1.76831e-06 -5.54124e-06 -1.19452e-05
0.000845238 9.26961e-05 -0.000116605
9.26961e-05 0.00255539 1.4502e-06
-0.000116605 1.4502e-06 0.00160788
0.00210973 -0.000218246 1.75662e-05
-0.000218246 0.00144087 1.35796e-05
1.75662e-05 1.35796e-05 0.00131376
8.7156e-05 0.000449827 -5.50656e-05
0.000449827 -0.00259462 2.11378e-05
-5.50656e-05 2.11378e-05 -0.00317591
0.000815566 0.000131521 4.75678e-06
0.000131521 0.000167191 2.0498e-06
4.75678e-06 2.0498e-06 4.44957e-05
0.000534477 0.000169195 6.52583e-06
0.000169195 7.43203e-06 4.52025e-06
6.52583e-06 4.52025e-06 -0.000191548
0.00230922 0.000312573 1.43967e-05
0.000312573 0.000346282 9.39221e-06
1.43967e-05 9.39221e-06 0.000395323
0.00107634 0.000304649 1.26846e-05
0.000304649 9.22762e-05 9.19655e-06
1.26846e-05 9.19655e-06 -0.00016707
0.00548132 -0.000478601 4.4838e-05
-0.000478601 0.00220824 2.74031e-05
4.4838e-05 2.74031e-05 0.00233272
0.00025905 -7.10324e-05 -8.63625e-05
-7.10324e-05 -0.00175633 -5.97776e-06
-8.63625e-05 -5.97776e-06 -0.00322083
0.0032611 0.000826015 -9.28316e-05
0.000826015 -0.000167775 -2.84191e-05
-9.28316e-05 -2.84191e-05 -0.00099147
0.000486424 0.00016273 2.41035e-05
0.00016273 -0.000202564 -1.74812e-05
2.41035e-05 -1.74812e-05 -0.000176155
-0.00411002 -0.000541761 -4.05789e-05
-0.000541761 -0.00148357 -6.14371e-05
-4.05789e-05 -6.14371e-05 -0.0016645
7.26747e-06 -0.000514984 -2.04659e-05
-0.000514984 0.000694496 1.55287e-05
-2.04659e-05 1.55287e-05 -0.000293818
0.00666706 -0.00107275 0.000123731
-0.00107275 0.000418357 0.000104504
0.000123731 0.000104504 0.00197711
0.000721013 9.4726e-05 4.53567e-06
9.4726e-05 0.000143211 -2.5406e-06
4.53567e-06 -2.5406e-06 3.06848e-05
-0.000984351 -5.57978e-05 -5.4517e-05
-5.57978e-05 0.00120373 -1.71583e-05
-5.4517e-05 -1.71583e-05 -3.81448e-05
0.00265066 0.000138684 -7.23241e-06
0.000138684 0.000970892 -3.8985e-05
-7.23241e-06 -3.8985e-05 -0.000648457
0.000906365 0.000272366 -8.44382e-06
0.000272366 -1.01982e-05 3.59424e-06
-8.44382e-06 3.59424e-06 -7.05223e-05
0.000635751 0.000204347 6.69257e-07
0.000204347 0.000138744 1.69623e-06
6.69257e-07 1.69623e-06 -8.06864e-05
0.000119194 0.000200932 3.59408e-05
0.000200932 -0.000203277 -2.71696e-05
3.59408e-05 -2.71696e-05 -0.000400332
0.00524347 0.00102368 -9.77607e-06
0.00102368 0.00152177 1.31847e-06
-9.77607e-06 1.31847e-06 0.000758659
0.00972878 0.00021064 4.33026e-05
0.00021064 0.0035635 1.58557e-05
4.33026e-05 1.58557e-05 0.00182474
0.00198164 -0.000719368 9.64139e-06
-0.000719368 -0.00109919 -1.92627e-05
9.64139e-06 -1.92627e-05 -0.00104051
0.00734008 -0.000684339 7.01444e-06
-0.000684339 0.000846652 -2.05716e-05
7.01444e-06 -2.05716e-05 0.00215214
0.000627281 0.000135256 -1.12586e-05
0.000135256 0.000125473 -7.57984e-06
-1.12586e-05 -7.57984e-06 3.14256e-05
0.00212591 -8.03295e-06 -7.93665e-05
-8.03295e-06 0.000595074 -3.72813e-05
-7.93665e-05 -3.72813e-05 -0.000497089
0.000749458 6.48998e-05 -9.93277e-06
6.48998e-05 0.000298973 -7.319e-05
-9.93277e-06 -7.319e-05 -0.000882243
-0.00097001 2.87798e-05 -2.06551e-05
2.87798e-05 -0.000496194 -1.60623e-05
-2.06551e-05 -1.60623e-05 -0.000639656
0.00234983 0.000364681 -8.02692e-06
0.000364681 0.000689797 5.00424e-05
-8.02692e-06 5.00424e-05 7.7322e-05
0.00949258 0.00047228 3.3915e-05
0.00047228 0.00392242 -8.54928e-07
3.3915e-05 -8.54928e-07 0.0014836
-0.00691328 -0.000997761 -3.9023e-05
-0.000997761 -0.00415268 6.48204e-05
-3.9023e-05 6.48204e-05 -0.0055493
0.00546383 0.000241217 2.02191e-06
0.000241217 -0.000769205 -0.000105678
2.02191e-06 -0.000105678 0.000697007
0.00102288 8.42332e-05 1.74275e-06
8.42332e-05 0.000230342 7.01275e-06
1.74275e-06 7.01275e-06 0.000154877
0.000933399 0.000101426 -4.62802e-06
0.000101426 0.000200711 -1.01336e-06
-4.62802e-06 -1.01336e-06 0.000135837
0.00180947 0.000102634 -8.12516e-06
0.000102634 0.000778525 -3.67398e-06
-8.12516e-06 -3.67398e-06 0.000715414
0.000834209 7.4765e-05 -1.80477e-06
7.4765e-05 0.000124136 -4.99872e-07
-1.80477e-06 -4.99872e-07 2.66857e-05
0.000883602 -3.50197e-05 -3.30133e-07
-3.50197e-05 0.000153396 9.45767e-07
-3.30133e-07 9.45767e-07 4.61229e-05
0.00076799 2.61399e-05 2.60455e-07
2.61399e-05 7.14508e-05 1.00068e-06
2.60455e-07 1.00068e-06 -1.90095e-05
0.000284069 2.10784e-05 -1.51317e-08
2.10784e-05 -0.000177798 2.41238e-06
-1.51317e-08 2.41238e-06 -0.000263686
0.0008777 -1.99433e-07 7.75343e-07
-1.99433e-07 0.000143531 9.27493e-08
7.75343e-07 9.27493e-08 3.82924e-05
0.000890506 8.66022e-06 -3.87575e-08
8.66022e-06 0.000154446 -4.25595e-07
-3.87575e-08 -4.25595e-07 5.47777e-05
0.000345142 6.71342e-06 -1.24757e-07
6.71342e-06 -6.75024e-05 1.15181e-06
-1.24757e-07 1.15181e-06 -0.000152939
3.66501e-05 1.93102e-05 -3.7079e-06
1.93102e-05 -0.000116093 -4.22798e-06
-3.7079e-06 -4.22798e-06 -0.000192023
0.000951018 -2.1152e-05 1.47048e-06
-2.1152e-05 0.000263072 -5.9699e-06
1.47048e-06 -5.9699e-06 0.000170888
0.000994095 3.82711e-05 -3.33109e-07
3.82711e-05 0.000217991 -3.57097e-06
-3.33109e-07 -3.57097e-06 0.000111734
0.000862304 -7.50914e-05 9.5108e-07
-7.50914e-05 0.000131891 9.6048e-07
9.5108e-07 9.6048e-07 3.50087e-05
0.000771406 3.63645e-05 -7.10008e-07
3.63645e-05 8.84087e-05 2.6161e-07
-7.10008e-07 2.6161e-07 -2.1133e-06
0.000779852 -2.59345e-05 -1.81141e-06
-2.59345e-05 7.91374e-05 2.13498e-06
-1.81141e-06 2.13498e-06 -3.38595e-06
0.000640616 -6.2193e-06 7.09604e-07
-6.2193e-06 7.10288e-06 6.73836e-07
7.09604e-07 6.73836e-07 -8.33767e-05
0.000745398 3.78213e-05 2.8999e-07
3.78213e-05 8.01146e-05 2.60679e-07
2.8999e-07 2.60679e-07 -1.09377e-05
0.000764514 9.99131e-06 -6.04066e-07
9.99131e-06 7.59855e-05 1.62395e-07
-6.04066e-07 1.62395e-07 -5.4898e-06
0.000926861 2.01702e-05 9.56287e-07
2.01702e-05 0.000166556 -1.59436e-06
9.56287e-07 -1.59436e-06 8.06903e-05
0.000458463 -1.24172e-05 2.98445e-06
-1.24172e-05 -7.49593e-05 -3.86447e-06
2.98445e-06 -3.86447e-06 -0.000146193
0.00055799 -8.03902e-05 1.40798e-06
-8.03902e-05 -7.60386e-05 -7.30084e-07
1.40798e-06 -7.30084e-07 -0.00016872
0.000923123 -1.39786e-05 -1.5223e-06
-1.39786e-05 0.000164826 -2.82045e-07
-1.5223e-06 -2.82045e-07 6.81219e-05
0.000457284 -5.69392e-05 2.75811e-06
-5.69392e-05 -6.32135e-05 1.38975e-06
2.75811e-06 1.38975e-06 -0.00018976
0.0010431 -0.000185013 8.54314e-08
-0.000185013 0.000238784 4.58027e-06
8.54314e-08 4.58027e-06 5.29595e-05
0.00121195 -7.0058e-05 1.41574e-06
-7.0058e-05 0.000363023 -1.44053e-06
1.41574e-06 -1.44053e-06 0.000246513
0.000418407 -5.43972e-05 -1.25527e-06
-5.43972e-05 -6.48554e-05 -3.08621e-06
-1.25527e-06 -3.08621e-06 -0.000199019
0.000664893 2.30859e-05 -4.68079e-07
2.30859e-05 4.74754e-05 -5.78243e-07
-4.68079e-07 -5.78243e-07 -5.10782e-05
0.000432891 2.04201e-05 6.53762e-07
2.04201e-05 -9.38857e-05 5.00417e-07
6.53762e-07 5.00417e-07 -0.000181837
0.00083038 1.72247e-05 -2.46369e-07
1.72247e-05 0.000131137 3.3887e-07
-2.46369e-07 3.3887e-07 3.72344e-05
0.000764044 -9.98649e-06 -5.71639e-07
-9.98649e-06 9.13646e-05 4.48353e-07
-5.71639e-07 4.48353e-07 5.2523e-06
0.000681579 8.58748e-06 -7.66615e-07
8.58748e-06 2.78676e-05 6.40419e-07
-7.66615e-07 6.40419e-07 -3.89191e-05
0.000812519 -3.09041e-05 4.00896e-07
-3.09041e-05 0.000127932 -4.87495e-08
4.00896e-07 -4.87495e-08 3.46837e-05
0.000722531 -2.75916e-05 -4.29394e-07
-2.75916e-05 5.42185e-05 4.40077e-08
-4.29394e-07 4.40077e-08 -1.55676e-05
0.000663898 3.42017e-05 -1.40141e-06
3.42017e-05 2.48187e-06 1.72062e-06
-1.40141e-06 1.72062e-06 -4.38144e-05
0.000758465 -5.57777e-05 1.33388e-06
-5.57777e-05 7.61596e-05 -6.18809e-07
1.33388e-06 -6.18809e-07 3.74926e-06
0.000690452 1.08934e-05 -2.80083e-07
1.08934e-05 1.50963e-05 1.82188e-09
-2.80083e-07 1.82188e-09 -2.99297e-05
0.00135947 3.47325e-05 -6.95131e-06
3.47325e-05 0.000391474 5.0277e-06
-6.95131e-06 5.0277e-06 0.000381768
0.000680657 -9.20423e-06 1.49142e-06
-9.20423e-06 1.12386e-05 -1.71258e-06
1.49142e-06 -1.71258e-06 -3.40163e-05
0.000996104 2.40493e-05 -3.32664e-06
2.40493e-05 0.000178678 7.00151e-07
-3.32664e-06 7.00151e-07 0.000167735
0.000817111 2.16673e-05 -8.63653e-07
2.16673e-05 7.85356e-05 1.88975e-06
-8.63653e-07 1.88975e-06 8.72046e-05
0.000613785 1.38946e-05 4.28855e-07
1.38946e-05 -4.4806e-05 -3.6474e-06
4.28855e-07 -3.6474e-06 -5.70438e-05
0.0015565 2.04812e-05 5.2429e-06
2.04812e-05 0.000502089 -1.44972e-06
5.2429e-06 -1.44972e-06 0.000515295
0.00229822 1.39619e-05 4.38317e-06
1.39619e-05 0.000929701 -4.95168e-06
4.38317e-06 -4.95168e-06 0.000946967
0.00077271 -5.95285e-06 7.50881e-07
-5.95285e-06 8.60905e-05 -1.37672e-06
7.50881e-07 -1.37672e-06 1.53365e-05
0.00070469 1.19032e-05 -4.58394e-07
1.19032e-05 2.62564e-05 -2.13914e-06
-4.58394e-07 -2.13914e-06 -1.24782e-05
0.000763515 -1.7144e-06 7.07505e-07
-1.7144e-06 8.6683e-05 1.55611e-07
7.07505e-07 1.55611e-07 1.73e-05
0.000643876 -4.8416e-06 -1.89065e-07
-4.8416e-06 -3.1362e-05 -3.63543e-06
-1.89065e-07 -3.63543e-06 -3.76796e-05
0.000675716 1.0857e-05 3.74257e-08
1.0857e-05 1.07858e-05 -2.36525e-08
3.74257e-08 -2.36525e-08 -2.61692e-05
0.000689074 -6.68959e-05 -2.68185e-06
-6.68959e-05 4.51208e-05 2.03711e-06
-2.68185e-06 2.03711e-06 -2.21683e-05
0.00207468 -3.02897e-07 -7.06434e-07
-3.02897e-07 0.000799608 -4.77286e-06
-7.06434e-07 -4.77286e-06 0.000819599
0.000643813 1.4754e-06 -1.42823e-07
1.4754e-06 -3.13007e-05 -4.70822e-09
-1.42823e-07 -4.70822e-09 -3.71375e-05
0.000658694 -1.08308e-05 -7.53169e-07
-1.08308e-05 8.71992e-07 1.95759e-06
-7.53169e-07 1.95759e-06 -3.48075e-05
0.000637018 7.57395e-06 -1.34309e-07
7.57395e-06 -3.45798e-05 3.51725e-06
-1.34309e-07 3.51725e-06 -4.05822e-05
0.00208133 1.22367e-05 -3.24548e-06
1.22367e-05 0.00080467 -3.54897e-08
-3.24548e-06 -3.54897e-08 0.000824341
0.00208085 2.29274e-05 -1.07404e-05
2.29274e-05 0.000806802 4.48504e-06
-1.07404e-05 4.48504e-06 0.000825896
-0.00280812 -0.000105861 -3.83801e-05
-0.000105861 0.000533536 1.15903e-05
-3.83801e-05 1.15903e-05 -0.000769334
-0.00111223 0.000337614 -3.5944e-05
0.000337614 -0.000505719 9.36156e-06
-3.5944e-05 9.36156e-06 -0.000826903
0.00282283 -0.000143261 -0.000136689
-0.000143261 0.000674467 0.000114535
-0.000136689 0.000114535 -0.000769724
-0.00258938 0.000189673 0.000184649
0.000189673 0.000685987 -8.12769e-05
0.000184649 -8.12769e-05 -1.97556e-05
0.001887 0.000159544 -8.82051e-05
0.000159544 -0.000257671 1.43582e-05
-8.82051e-05 1.43582e-05 -0.000460817
0.00209518 -0.00010352 8.392e-05
-0.00010352 5.44879e-05 -9.73234e-06
8.392e-05 -9.73234e-06 1.91007e-05
0.00181542 -0.000410391 -9.08406e-05
-0.000410391 -0.00119417 -4.42664e-05
-9.08406e-05 -4.42664e-05 -0.00218898
0.00781641 0.000663164 -3.35647e-05
0.000663164 0.00382522 -1.19719e-05
-3.35647e-05 -1.19719e-05 0.00356604
-0.00677047 0.00130111 -0.000276346
0.00130111 -0.00378044 0.000232476
-0.000276346 0.000232476 -0.00172933
0.00235777 -4.2371e-05 -8.55667e-06
-4.2371e-05 -0.000109796 -5.72408e-06
-8.55667e-06 -5.72408e-06 -0.000342058
0.0039795 -0.000133388 2.79825e-05
-0.000133388 0.00026143 -3.91738e-05
2.79825e-05 -3.91738e-05 -0.00165773
0.00802614 0.0012614 -4.0217e-05
0.0012614 0.00260736 -4.71835e-05
-4.0217e-05 -4.71835e-05 0.00329266
0.00198263 0.000817038 -4.28776e-05
0.000817038 -0.00152957 9.25046e-05
-4.28776e-05 9.25046e-05 -0.00069181
0.00265413 -0.00048629 -5.49039e-05
-0.00048629 -0.000195467 1.60069e-05
-5.49039e-05 1.60069e-05 -0.000620861
0.00276269 -0.000433901 0.000144823
-0.000433901 0.000571162 -0.000102809
0.000144823 -0.000102809 -0.0021087
-0.00547239 0.000499921 -4.45574e-05
0.000499921 -0.00457447 -0.000184308
-4.45574e-05 -0.000184308 -0.00437029
0.00178531 0.000502863 -3.04762e-05
0.000502863 -0.0029477 -7.94732e-07
-3.04762e-05 -7.94732e-07 -0.0016357
0.000812558 -1.34788e-05 8.5687e-07
-1.34788e-05 0.00014217 -3.4828e-08
8.5687e-07 -3.4828e-08 2.22142e-05
0.00076467 5.70132e-05 -1.72755e-06
5.70132e-05 0.000111357 -7.33899e-07
-1.72755e-06 -7.33899e-07 2.75288e-06
0.000726346 4.59629e-05 2.47589e-07
4.59629e-05 7.26481e-05 -9.63592e-08
2.47589e-07 -9.63592e-08 -7.30395e-06
0.000690757 7.00633e-05 2.5476e-06
7.00633e-05 7.32886e-05 2.54841e-06
2.5476e-06 2.54841e-06 -2.95075e-05
0.000725898 3.36869e-05 -2.1474e-07
3.36869e-05 8.34016e-05 -2.89411e-07
-2.1474e-07 -2.89411e-07 -3.79883e-05
0.000873343 6.99169e-05 2.0397e-07
6.99169e-05 0.000169814 8.95924e-07
2.0397e-07 8.95924e-07 5.96101e-05
0.000706571 1.81074e-05 -4.85151e-07
1.81074e-05 6.85191e-05 2.30814e-06
-4.85151e-07 2.30814e-06 -3.13127e-05
0.000899135 0.000101664 -2.96014e-07
0.000101664 0.000187324 -3.46366e-07
-2.96014e-07 -3.46366e-07 7.56458e-05
0.000852659 5.62965e-05 -1.49438e-07
5.62965e-05 0.000159446 5.15405e-07
-1.49438e-07 5.15405e-07 5.44054e-05
0.000621659 -6.92958e-06 -1.56803e-06
-6.92958e-06 2.43413e-05 3.46543e-07
-1.56803e-06 3.46543e-07 -7.27246e-05
0.00129099 -0.000173162 2.83272e-05
-0.000173162 -0.000180357 -1.26479e-05
2.83272e-05 -1.26479e-05 -0.000189382
0.000866937 -0.000323514 2.25362e-05
-0.000323514 -0.000444463 -3.37087e-06
2.25362e-05 -3.37087e-06 -0.000444114
0.000921613 -0.000374675 1.38486e-05
-0.000374675 -0.00013728 -1.5294e-06
1.38486e-05 -1.5294e-06 -0.000274966
0.00117608 -0.000293155 8.5612e-06
-0.000293155 0.000265514 -1.37996e-05
8.5612e-06 -1.37996e-05 7.29737e-06
0.00138545 -0.000100623 -6.8541e-07
-0.000100623 0.000529099 7.0794e-06
-6.8541e-07 7.0794e-06 0.000311518
0.00069747 -7.76591e-05 -1.28543e-06
-7.76591e-05 0.000100813 4.17912e-06
-1.28543e-06 4.17912e-06 -4.13234e-05
0.000632464 6.3537e-05 -3.14444e-07
6.3537e-05 4.20227e-05 -1.58173e-07
-3.14444e-07 -1.58173e-07 -8.49739e-05
0.000721122 -4.638e-05 -3.92809e-07
-4.638e-05 9.222e-05 1.19002e-06
-3.92809e-07 1.19002e-06 -3.48793e-05
0.00120875 -0.000219987 -1.99866e-06
-0.000219987 4.20583e-05 -2.57698e-07
-1.99866e-06 -2.57698e-07 -0.00011257
0.000845026 -6.99208e-06 -1.58074e-08
-6.99208e-06 0.000171739 7.37917e-09
-1.58074e-08 7.37917e-09 3.46368e-05
0.0011475 -8.55513e-05 -9.40691e-08
-8.55513e-05 0.000379832 6.17475e-08
-9.40691e-08 6.17475e-08 0.000200439
0.0011377 -0.000295437 -2.25961e-06
-0.000295437 -2.48983e-05 -1.34172e-06
-2.25961e-06 -1.34172e-06 -5.24996e-05
0.00102667 -0.000163951 -1.00792e-05
-0.000163951 0.000313308 3.78949e-06
-1.00792e-05 3.78949e-06 8.18008e-05
-0.000646365 -0.000269155 -1.13417e-05
-0.000269155 -0.000977503 -1.50366e-05
-1.13417e-05 -1.50366e-05 -0.000963448
0.000625562 -0.000139018 -1.76455e-05
-0.000139018 0.00010484 2.25953e-05
-1.76455e-05 2.25953e-05 8.28853e-06
0.000668602 -3.98103e-05 -6.49658e-06
-3.98103e-05 0.00012081 2.55278e-05
-6.49658e-06 2.55278e-05 -4.15766e-05
0.000706013 -4.44145e-06 5.31445e-07
-4.44145e-06 7.12217e-05 -7.07902e-08
5.31445e-07 -7.07902e-08 -5.4232e-05
0.000661274 2.17912e-05 1.40393e-06
2.17912e-05 0.000105792 -2.90178e-06
1.40393e-06 -2.90178e-06 -6.74625e-05
0.00153506 -2.45334e-05 -2.34067e-05
-2.45334e-05 0.000509254 -2.29203e-06
-2.34067e-05 -2.29203e-06 -0.000389534
-0.00136358 3.15962e-05 -7.87323e-05
3.15962e-05 0.00158611 -3.39058e-06
-7.87323e-05 -3.39058e-06 0.000362813
-0.00808806 -0.000269052 -0.000219029
-0.000269052 -0.00413323 5.1074e-06
-0.000219029 5.1074e-06 -0.00408801
2.40809e-05 7.70862e-05 6.80064e-06
7.70862e-05 -0.000229116 -5.71219e-07
6.80064e-06 -5.71219e-07 -0.000351926
-0.00013122 8.15405e-05 5.23425e-06
8.15405e-05 -0.000255116 2.36157e-06
5.23425e-06 2.36157e-06 -0.000474237
0.00141266 0.000242527 1.39053e-05
0.000242527 0.000268295 3.29799e-06
1.39053e-05 3.29799e-06 0.000201865
-0.00273685 0.000137748 -1.05434e-05
0.000137748 0.000425934 8.9452e-06
-1.05434e-05 8.9452e-06 -0.000981442
0.00219392 0.000261356 -5.83164e-05
0.000261356 0.000384129 -5.02775e-05
-5.83164e-05 -5.02775e-05 -0.00229139
0.0036107 0.00085274 7.96825e-05
0.00085274 0.00050715 1.00364e-05
7.96825e-05 1.00364e-05 -6.02904e-05
0.000749902 0.000249529 5.83981e-06
0.000249529 7.40876e-05 -1.24729e-05
5.83981e-06 -1.24729e-05 2.99791e-05
0.0103145 -0.000929559 1.99364e-05
-0.000929559 0.00318303 -4.98936e-05
1.99364e-05 -4.98936e-05 0.00321627
0.00308114 0.000149075 8.69616e-05
0.000149075 0.0012707 6.51874e-05
8.69616e-05 6.51874e-05 -0.000403186
0.00718895 -0.00060148 2.67488e-05
-0.00060148 0.00104194 4.92553e-06
2.67488e-05 4.92553e-06 0.00241201
0.00092658 0.000154219 -5.65054e-07
0.000154219 0.000322584 -2.47191e-06
-5.65054e-07 -2.47191e-06 0.000221591
0.00228396 -4.23212e-06 5.77969e-06
-4.23212e-06 0.00082156 -7.98172e-06
5.77969e-06 -7.98172e-06 -0.000153809
0.00107955 8.73113e-05 7.06733e-06
8.73113e-05 0.000262302 1.39839e-05
7.06733e-06 1.39839e-05 -0.000968959
-1.86263e-05 0.00014753 -7.82718e-06
0.00014753 -3.65669e-05 -1.06341e-06
-7.82718e-06 -1.06341e-06 -0.000208595
0.0027786 0.000499853 -5.79266e-05
0.000499853 0.00074205 -3.55118e-05
-5.79266e-05 -3.55118e-05 0.000168684
0.00223609 0.000914346 5.21027e-05
0.000914346 0.000460275 3.8066e-05
5.21027e-05 3.8066e-05 -0.00230233
0.00444058 8.57912e-05 -6.11743e-06
8.57912e-05 -0.00196044 -7.18035e-05
-6.11743e-06 -7.18035e-05 -2.57713e-05
0.00101594 -0.000570801 -2.02182e-05
-0.000570801 -0.000201611 -1.34546e-05
-2.02182e-05 -1.34546e-05 -0.00109869
0.00120745 9.6349e-05 -3.52743e-06
9.6349e-05 0.000615806 -7.39305e-06
-3.52743e-06 -7.39305e-06 0.000514937
0.000850445 -4.52477e-05 2.40813e-07
-4.52477e-05 0.000130149 -2.88764e-05
2.40813e-07 -2.88764e-05 -0.000213561
0.00225312 -2.91231e-06 1.54241e-05
-2.91231e-06 0.000265449 -6.2709e-05
1.54241e-05 -6.2709e-05 -0.000675053
0.00196277 0.000527684 3.46955e-05
0.000527684 -0.00286062 -4.7288e-07
3.46955e-05 -4.7288e-07 -0.00163572
-0.0010979 3.87981e-05 -5.86623e-06
3.87981e-05 -0.000341136 -1.37059e-05
-5.86623e-06 -1.37059e-05 -0.000738931
0.0099184 0.000665184 0.000102248
0.000665184 0.00445936 4.33802e-05
0.000102248 4.33802e-05 0.00158741
-0.00833658 -0.000269112 5.32036e-05
-0.000269112 -0.00110437 9.53017e-05
5.32036e-05 9.53017e-05 -0.00244938
0.00159194 0.000157514 1.448e-05
0.000157514 0.000580975 7.37292e-06
1.448e-05 7.37292e-06 0.000509615
0.00141974 0.000115366 -2.81476e-06
0.000115366 0.000554041 8.69274e-07
-2.81476e-06 8.69274e-07 0.000485174
0.000635348 9.14242e-05 -1.48952e-05
9.14242e-05 0.000298961 -5.26835e-06
-1.48952e-05 -5.26835e-06 0.000219232
0.000794551 0.000114864 1.01767e-06
0.000114864 0.000104728 1.71836e-06
1.01767e-06 1.71836e-06 -4.85803e-06
0.000736657 3.67748e-05 4.37726e-07
3.67748e-05 6.31649e-05 1.55293e-06
4.37726e-07 1.55293e-06 -3.25197e-05
0.000647136 -3.1376e-06 -1.25334e-08
-3.1376e-06 0.000107652 8.65964e-06
-1.25334e-08 8.65964e-06 1.91969e-05
0.000752345 3.51903e-05 -1.90423e-07
3.51903e-05 7.54589e-05 -4.88016e-07
-1.90423e-07 -4.88016e-07 -2.41719e-05
0.0008333 -3.1929e-05 -2.60836e-07
-3.1929e-05 0.000200151 -1.24903e-06
-2.60836e-07 -1.24903e-06 0.000104057
0.000133677 1.13083e-05 6.48924e-06
1.13083e-05 -7.45559e-05 3.86556e-06
6.48924e-06 3.86556e-06 -0.000156853
0.00142115 -1.26392e-05 -4.60438e-06
-1.26392e-05 0.000656685 -1.02355e-05
-4.60438e-06 -1.02355e-05 0.000588101
0.000600031 -2.61725e-05 -1.22555e-06
-2.61725e-05 4.76721e-05 -6.35584e-06
-1.22555e-06 -6.35584e-06 -3.72062e-05
0.000691213 -1.39588e-05 -3.28719e-07
-1.39588e-05 2.75927e-05 3.08581e-06
-3.28719e-07 3.08581e-06 -5.7092e-05
0.000790715 3.83862e-05 -3.72e-07
3.83862e-05 0.000107262 2.49793e-07
-3.72e-07 2.49793e-07 1.50635e-05
0.000910327 2.11372e-05 -3.76796e-06
2.11372e-05 0.000157361 2.9288e-06
-3.76796e-06 2.9288e-06 7.54625e-05
0.000749114 -1.22618e-05 1.08825e-06
-1.22618e-05 8.43565e-05 7.61802e-08
1.08825e-06 7.61802e-08 1.23063e-05
0.000792504 2.53155e-05 1.52146e-07
2.53155e-05 9.24766e-05 1.36991e-07
1.52146e-07 1.36991e-07 5.69458e-06
0.000704934 -5.71241e-05 2.28124e-06
-5.71241e-05 7.20944e-05 1.34125e-07
2.28124e-06 1.34125e-07 -1.49289e-05
0.00059002 -6.05505e-05 -1.3525e-06
-6.05505e-05 -3.39469e-05 -8.30962e-07
-1.3525e-06 -8.30962e-07 -0.000117467
0.000415948 -0.000118703 5.04121e-06
-0.000118703 -0.000104498 1.60712e-07
5.04121e-06 1.60712e-07 -0.000258611
0.00103557 -3.73683e-05 -1.07502e-06
-3.73683e-05 0.000232093 6.52544e-07
-1.07502e-06 6.52544e-07 0.000132526
0.00102898 -0.000105633 -8.07653e-07
-0.000105633 0.000249153 1.83763e-06
-8.07653e-07 1.83763e-06 0.00011536
0.000256169 -0.000138856 6.28387e-07
-0.000138856 -0.000232885 2.43404e-06
6.28387e-07 2.43404e-06 -0.000412305
0.000627768 -0.0001551 -5.28249e-06
-0.0001551 -2.23225e-05 -6.68533e-07
-5.28249e-06 -6.68533e-07 -0.000206368
0.000949474 -0.000138986 -1.38945e-06
-0.000138986 0.000230349 2.36068e-06
-1.38945e-06 2.36068e-06 8.37377e-05
0.00066617 -0.000150654 6.78905e-07
-0.000150654 2.80378e-05 3.61507e-07
6.78905e-07 3.61507e-07 -0.000150082
0.000860224 -3.42022e-05 4.53872e-07
-3.42022e-05 0.000151235 5.35097e-07
4.53872e-07 5.35097e-07 5.14451e-05
0.0010124 -6.24815e-05 -1.09125e-06
-6.24815e-05 0.000256782 -7.12995e-07
-1.09125e-06 -7.12995e-07 0.000136639
0.000559602 -6.91756e-05 5.99064e-07
-6.91756e-05 2.66211e-05 -5.96046e-06
5.99064e-07 -5.96046e-06 -0.000104871
0.000987458 1.37948e-05 -1.28463e-06
1.37948e-05 0.000223515 -7.76439e-07
-1.28463e-06 -7.76439e-07 0.000127371
0.000581989 1.23939e-05 1.87478e-07
1.23939e-05 -8.01685e-06 -2.73125e-08
1.87478e-07 -2.73125e-08 -9.68039e-05
0.000677759 2.21056e-05 -3.06618e-07
2.21056e-05 2.94088e-05 6.4321e-07
-3.06618e-07 6.4321e-07 -4.10969e-05
0.000811501 -2.74597e-05 -1.01039e-07
-2.74597e-05 0.000124793 2.21504e-07
-1.01039e-07 2.21504e-07 3.31995e-05
0.000721489 -1.21625e-05 -4.36257e-07
-1.21625e-05 5.49344e-05 -9.77307e-09
-4.36257e-07 -9.77307e-09 -1.54897e-05
0.000667312 3.35242e-05 -1.13759e-06
3.35242e-05 7.77876e-06 1.72025e-06
-1.13759e-06 1.72025e-06 -3.98778e-05
0.000759655 -4.60088e-05 9.7346e-07
-4.60088e-05 7.93985e-05 -6.901e-07
9.7346e-07 -6.901e-07 6.32651e-06
0.000680935 2.5228e-05 -5.00886e-07
2.5228e-05 1.14154e-05 -1.90966e-08
-5.00886e-07 -1.90966e-08 -3.46892e-05
0.00133089 4.45817e-05 -8.00685e-06
4.45817e-05 0.000379693 3.42723e-06
-8.00685e-06 3.42723e-06 0.000369079
0.000696954 -2.39919e-06 1.78391e-06
-2.39919e-06 1.82143e-05 -1.73947e-06
1.78391e-06 -1.73947e-06 -2.66398e-05
0.000984629 3.22891e-05 -4.16383e-06
3.22891e-05 0.000174973 6.36922e-07
-4.16383e-06 6.36922e-07 0.000163512
0.000817428 2.90969e-05 -1.39015e-06
2.90969e-05 8.38843e-05 1.90312e-06
-1.39015e-06 1.90312e-06 9.1515e-05
0.000602284 2.06204e-05 6.55065e-07
2.06204e-05 -4.95684e-05 -3.71763e-06
6.55065e-07 -3.71763e-06 -6.21549e-05
0.00155669 3.03817e-05 7.03022e-06
3.03817e-05 0.000506235 -1.349e-06
7.03022e-06 -1.349e-06 0.000518474
0.00231062 2.64053e-05 8.53281e-06
2.64053e-05 0.000939592 -4.80835e-06
8.53281e-06 -4.80835e-06 0.000956119
0.000497901 3.23822e-06 -4.18913e-08
3.23822e-06 -6.30613e-05 -2.10452e-06
-4.18913e-08 -2.10452e-06 -0.000147845
0.000414801 -4.00577e-06 -3.13884e-07
-4.00577e-06 -0.000140055 -3.04454e-06
-3.13884e-07 -3.04454e-06 -0.000184749
0.000799302 5.92304e-06 6.59052e-08
5.92304e-06 0.000105896 6.21002e-08
6.59052e-08 6.21002e-08 3.20083e-05
0.000640756 -1.12834e-05 -1.27928e-07
-1.12834e-05 -3.2345e-05 -3.75587e-06
-1.27928e-07 -3.75587e-06 -4.01336e-05
0.000534762 4.11577e-06 6.52153e-07
4.11577e-06 -7.06179e-05 -4.73196e-08
6.52153e-07 -4.73196e-08 -0.000110841
0.000496642 -6.30985e-05 -3.26854e-07
-6.30985e-05 -6.36083e-05 1.57425e-06
-3.26854e-07 1.57425e-06 -0.000135787
0.00210453 -1.18361e-05 -5.17505e-06
-1.18361e-05 0.000817317 -4.77968e-06
-5.17505e-06 -4.77968e-06 0.0008369
0.00064531 -4.70342e-06 -1.494e-07
-4.70342e-06 -3.05128e-05 -1.83615e-08
-1.494e-07 -1.83615e-08 -3.67996e-05
0.000658614 -3.79718e-06 -6.54138e-07
-3.79718e-06 7.95002e-07 2.036e-06
-6.54138e-07 2.036e-06 -3.58867e-05
0.00208264 8.20132e-07 -3.32739e-06
8.20132e-07 0.000804235 3.76813e-09
-3.32739e-06 3.76813e-09 0.000824198
0.000639881 1.53227e-06 5.08498e-08
1.53227e-06 -3.34759e-05 3.52124e-06
5.08498e-08 3.52124e-06 -3.9294e-05
0.00208469 1.34003e-05 -4.01792e-06
1.34003e-05 0.00080679 4.6494e-06
-4.01792e-06 4.6494e-06 0.000826388
0.000929057 -6.41264e-05 -6.83893e-05
-6.41264e-05 -5.23772e-05 3.01112e-05
-6.83893e-05 3.01112e-05 -0.00101964
0.00146198 0.000148066 -1.26823e-05
0.000148066 0.00229673 -9.29033e-06
-1.26823e-05 -9.29033e-06 0.00152436
0.00131578 -0.000259761 -0.000137317
-0.000259761 0.00148323 -8.2705e-06
-0.000137317 -8.2705e-06 0.000858798
0.000760316 5.65554e-05 -9.27721e-08
5.65554e-05 9.17589e-05 -4.66817e-08
-9.27721e-08 -4.66817e-08 -1.55203e-05
0.00311286 -0.000121461 -1.92851e-05
-0.000121461 0.00166564 7.41756e-05
-1.92851e-05 7.41756e-05 0.000773208
0.00295798 -0.000173275 -4.64908e-05
-0.000173275 0.000857134 3.99081e-06
-4.64908e-05 3.99081e-06 -0.000728201
0.0014247 0.000454991 0.000105813
0.000454991 0.00212574 -0.000101792
0.000105813 -0.000101792 0.00183725
0.00316833 -0.000150594 4.2993e-06
-0.000150594 5.16466e-05 -2.5986e-05
4.2993e-06 -2.5986e-05 -0.000214862
0.00980316 2.84232e-05 6.72892e-05
2.84232e-05 0.00313378 -3.51011e-05
6.72892e-05 -3.51011e-05 0.00142148
-0.00348012 0.000847236 -7.31832e-05
0.000847236 -0.00355256 8.52841e-05
-7.31832e-05 8.52841e-05 -0.00268097
0.00394967 0.000902884 1.16983e-05
0.000902884 -0.000379493 2.34887e-05
1.16983e-05 2.34887e-05 0.000423629
0.00467593 -0.000594161 -7.58989e-05
-0.000594161 0.00051003 4.09498e-07
-7.58989e-05 4.09498e-07 -0.00018593
0.00864663 -0.000246951 4.68605e-05
-0.000246951 0.00347004 -1.3733e-05
4.68605e-05 -1.3733e-05 0.00149193
0.00540678 0.000664593 3.42111e-05
0.000664593 0.000324798 -6.293e-05
3.42111e-05 -6.293e-05 0.000362169
0.00397418 0.000506428 -1.3885e-05
0.000506428 -0.00163304 5.44757e-06
-1.3885e-05 5.44757e-06 -0.000433779
0.00486872 -0.00102415 -5.23113e-06
-0.00102415 0.000798799 -7.89909e-06
-5.23113e-06 -7.89909e-06 -0.000235638
0.0100605 -0.000705395 5.88059e-05
-0.000705395 0.00499037 -3.04548e-05
5.88059e-05 -3.04548e-05 0.00171191
0.00191174 -9.63161e-05 4.90747e-05
-9.63161e-05 -0.000385651 -9.94086e-05
4.90747e-05 -9.94086e-05 -0.000559261
0.00551128 0.000117123 -1.58242e-05
0.000117123 -0.000725917 4.70507e-05
-1.58242e-05 4.70507e-05 0.000833926
0.000786385 -2.52825e-05 1.80007e-07
-2.52825e-05 0.000120727 -9.25242e-07
1.80007e-07 -9.25242e-07 -6.89371e-06
0.000779636 -3.78291e-05 4.07615e-07
-3.78291e-05 0.000126343 4.6744e-08
4.07615e-07 4.6744e-08 2.96898e-06
0.0008954 8.29826e-05 -9.90903e-07
8.29826e-05 0.000190409 1.81722e-07
-9.90903e-07 1.81722e-07 7.97788e-05
0.000733827 1.86372e-05 -7.03709e-07
1.86372e-05 6.50201e-05 -8.57844e-07
-7.03709e-07 -8.57844e-07 -4.16209e-05
0.000847979 7.30595e-05 -6.85331e-07
7.30595e-05 0.000154147 6.49515e-07
-6.85331e-07 6.49515e-07 3.34664e-05
0.000873247 5.49157e-05 4.50222e-07
5.49157e-05 0.000168878 2.0498e-06
4.50222e-07 2.0498e-06 6.07046e-05
0.000964475 9.62222e-05 -7.18255e-07
9.62222e-05 0.000222146 2.15312e-08
-7.18255e-07 2.15312e-08 0.000111929
0.000994871 0.000103081 9.05527e-07
0.000103081 0.000247567 2.34649e-06
9.05527e-07 2.34649e-06 0.00013831
0.00181792 -0.00021628 4.49032e-05
-0.00021628 0.000324462 -1.59319e-05
4.49032e-05 -1.59319e-05 0.000253089
0.00080602 -0.000277036 9.10236e-06
-0.000277036 -0.000228233 -1.4109e-05
9.10236e-06 -1.4109e-05 -0.000233193
0.000778802 -0.000139585 -1.2722e-06
-0.000139585 0.000135872 7.5192e-07
-1.2722e-06 7.5192e-07 2.07665e-07
0.00202892 -0.00018926 5.99755e-06
-0.00018926 0.000828139 -2.05973e-05
5.99755e-06 -2.05973e-05 0.000613599
0.00167017 -0.000113106 -2.13076e-06
-0.000113106 0.000672788 5.59503e-06
-2.13076e-06 5.59503e-06 0.000489242
0.00091601 -4.55659e-05 -1.94922e-06
-4.55659e-05 0.000204892 -3.61237e-07
-1.94922e-06 -3.61237e-07 7.25152e-05
0.000813806 1.15906e-05 8.29112e-08
1.15906e-05 0.00014138 -2.88752e-07
8.29112e-08 -2.88752e-07 1.01277e-05
0.000531763 -0.00035128 -9.75687e-06
-0.00035128 -0.000410792 1.28222e-07
-9.75687e-06 1.28222e-07 -0.000422492
0.000974046 3.12095e-05 -3.34855e-07
3.12095e-05 0.000285303 1.33129e-06
-3.34855e-07 1.33129e-06 0.000105667
0.000935218 -9.42182e-05 1.05463e-07
-9.42182e-05 0.000244377 1.18608e-06
1.05463e-07 1.18608e-06 7.53923e-05
0.00034954 -0.000121683 2.71644e-07
-0.000121683 -7.88648e-05 3.8956e-06
2.71644e-07 3.8956e-06 -0.000128763
0.000632706 2.25824e-05 1.03146e-06
2.25824e-05 1.59161e-05 -6.35294e-07
1.03146e-06 -6.35294e-07 -9.73445e-05
0.00108206 -0.000296719 2.98405e-05
-0.000296719 -5.86027e-05 -2.89454e-05
2.98405e-05 -2.89454e-05 7.48738e-05
0.00047684 -9.0851e-05 -8.90944e-06
-9.0851e-05 0.000225755 2.90971e-05
-8.90944e-06 2.90971e-05 0.000122402
0.000928001 -1.07473e-05 -1.13006e-06
-1.07473e-05 0.000263374 1.06826e-05
-1.13006e-06 1.06826e-05 9.73654e-05
0.0012443 0.000156331 1.92102e-06
0.000156331 0.000410012 -2.44154e-06
1.92102e-06 -2.44154e-06 0.000254423
0.00123746 -3.0433e-05 -9.69427e-06
-3.0433e-05 0.000448457 -3.61159e-06
-9.69427e-06 -3.61159e-06 9.37448e-05
0.00135864 -4.2899e-05 5.28949e-05
-4.2899e-05 0.000469204 -5.20253e-06
5.28949e-05 -5.20253e-06 -0.00043428
-0.00346914 -4.68768e-05 -6.33197e-05
-4.68768e-05 0.000684974 3.77461e-06
-6.33197e-05 3.77461e-06 -0.000840142
0.000968893 0.00014543 1.58607e-05
0.00014543 0.000379828 2.24441e-06
1.58607e-05 2.24441e-06 0.000274958
-0.000468142 0.000189865 1.53671e-05
0.000189865 -0.000297172 1.0786e-05
1.53671e-05 1.0786e-05 -0.000512902
0.00257547 -8.89266e-06 6.97855e-05
-8.89266e-06 0.00109859 7.99329e-06
6.97855e-05 7.99329e-06 0.000259691
0.00819472 0.000190519 0.000107768
0.000190519 0.0036701 5.69393e-05
0.000107768 5.69393e-05 0.000861254
0.0025006 0.000516022 -8.68403e-05
0.000516022 0.000820666 -8.26946e-05
-8.68403e-05 -8.26946e-05 -0.000138367
0.00310003 -0.000343041 6.57798e-06
-0.000343041 0.00053008 -9.43904e-05
6.57798e-06 -9.43904e-05 -0.00044033
0.00136945 0.000103384 2.50304e-05
0.000103384 0.000251648 0.00010032
2.50304e-05 0.00010032 -0.00103549
0.00349732 -1.30706e-06 1.53646e-06
-1.30706e-06 -0.00320485 -6.84441e-05
1.53646e-06 -6.84441e-05 -0.000812234
0.000658656 0.000115233 2.26409e-06
0.000115233 0.000320102 -9.60538e-07
2.26409e-06 -9.60538e-07 0.000204229
0.00101044 -4.29601e-05 -1.19009e-07
-4.29601e-05 0.000204734 -9.78281e-06
-1.19009e-07 -9.78281e-06 -8.88569e-05
0.00241377 1.27803e-05 2.63326e-05
1.27803e-05 0.000559078 6.4012e-06
2.63326e-05 6.4012e-06 -0.000254563
-0.000930805 9.22804e-05 -1.41619e-05
9.22804e-05 -0.000389608 -5.46162e-06
-1.41619e-05 -5.46162e-06 -0.000711897
0.00422681 0.000583886 1.19301e-05
0.000583886 -0.00160527 -5.81085e-06
1.19301e-05 -5.81085e-06 -0.000419581
0.00553959 0.000763996 7.40087e-05
0.000763996 0.00256815 3.14497e-05
7.40087e-05 3.14497e-05 -0.000397131
0.00315472 0.000178973 -4.52485e-05
0.000178973 0.00198172 5.07367e-06
-4.52485e-05 5.07367e-06 0.00122586
-3.81164e-05 0.000132915 -2.69552e-05
0.000132915 1.45958e-05 -1.21697e-05
-2.69552e-05 -1.21697e-05 -0.0001703
0.0016424 2.14722e-05 7.21067e-07
2.14722e-05 0.000143883 -2.70628e-05
7.21067e-07 -2.70628e-05 -4.30268e-05
0.00319044 -9.25957e-05 2.31673e-05
-9.25957e-05 0.00161029 -7.32227e-05
2.31673e-05 -7.32227e-05 0.000763915
0.00500775 0.000925977 0.000102008
0.000925977 -0.000105965 -7.71944e-05
0.000102008 -7.71944e-05 0.00080436
0.00460119 -3.856e-06 -6.16852e-05
-3.856e-06 0.000500811 8.99073e-05
-6.16852e-05 8.99073e-05 0.000570462
0.00156696 0.000219 -9.36457e-06
0.000219 0.000165192 -3.66874e-05
-9.36457e-06 -3.66874e-05 0.000196579
-0.00010935 0.000509006 9.60008e-05
0.000509006 0.00179727 3.61529e-05
9.60008e-05 3.61529e-05 -0.00261272
0.000475422 0.000101598 2.53382e-06
0.000101598 1.72928e-05 5.76474e-06
2.53382e-06 5.76474e-06 -5.38327e-05
0.000590271 8.22589e-05 9.45198e-06
8.22589e-05 0.000266737 1.53529e-06
9.45198e-06 1.53529e-06 0.000183183
0.00170255 2.08558e-05 -1.93673e-05
2.08558e-05 0.00100773 -1.81562e-05
-1.93673e-05 -1.81562e-05 0.00092537
0.000552072 -8.91252e-06 6.97686e-07
-8.91252e-06 -4.80758e-05 3.48211e-06
6.97686e-07 3.48211e-06 -0.000138698
0.00078983 -3.49257e-05 1.2068e-06
-3.49257e-05 0.000174184 4.23385e-06
1.2068e-06 4.23385e-06 7.95416e-05
-0.00023005 4.19966e-06 -2.79098e-06
4.19966e-06 -0.000297008 8.31941e-06
-2.79098e-06 8.31941e-06 -0.00038426
0.000739551 -4.14087e-05 3.09093e-07
-4.14087e-05 0.000120654 -3.33892e-07
3.09093e-07 -3.33892e-07 3.87418e-05
0.00018662 -6.8116e-07 -3.60703e-06
-6.8116e-07 -4.3827e-05 2.14997e-06
-3.60703e-06 2.14997e-06 -0.000113153
0.0010153 -0.000159525 6.41938e-06
-0.000159525 0.000461408 -6.49396e-06
6.41938e-06 -6.49396e-06 0.00030269
0.00107976 -2.1353e-05 -1.99528e-06
-2.1353e-05 0.000266887 4.00918e-06
-1.99528e-06 4.00918e-06 0.00019323
0.000607414 3.96389e-05 -1.22933e-06
3.96389e-05 -9.164e-06 1.64072e-06
-1.22933e-06 1.64072e-06 -9.66415e-05
0.0012514 -9.36289e-05 1.04946e-06
-9.36289e-05 0.000370064 1.38809e-06
1.04946e-06 1.38809e-06 0.000275097
7.45567e-05 -0.000101005 4.21418e-06
-0.000101005 -0.000185528 1.62479e-06
4.21418e-06 1.62479e-06 -0.000385885
0.000495406 -3.57463e-05 -4.41031e-06
-3.57463e-05 -6.22576e-05 1.24324e-06
-4.41031e-06 1.24324e-06 -0.00013656
0.000209398 -0.000105777 1.59698e-06
-0.000105777 -0.000219519 -8.8627e-07
1.59698e-06 -8.8627e-07 -0.000361948
0.00104513 -0.000211965 6.62656e-06
-0.000211965 0.000214298 -1.83164e-06
6.62656e-06 -1.83164e-06 1.0888e-06
0.00121899 -0.000240887 -1.29049e-06
-0.000240887 0.000180447 4.94702e-06
-1.29049e-06 4.94702e-06 -3.92876e-05
0.00159601 -0.000154916 -2.24863e-06
-0.000154916 0.000559535 -3.09884e-08
-2.24863e-06 -3.09884e-08 0.000418141
0.000612099 -0.000168561 -2.18166e-07
-0.000168561 -4.02387e-05 -1.18709e-07
-2.18166e-07 -1.18709e-07 -0.000228081
0.00180842 -0.000260769 1.94933e-06
-0.000260769 0.000609936 -1.77199e-06
1.94933e-06 -1.77199e-06 0.000426935
0.000214613 -9.64411e-05 -2.13201e-06
-9.64411e-05 -0.000194205 -5.48758e-07
-2.13201e-06 -5.48758e-07 -0.000357879
0.000888583 -0.000174641 -3.34679e-07
-0.000174641 0.000126872 1.01105e-06
-3.34679e-07 1.01105e-06 -5.5264e-05
0.000733687 -3.04011e-05 8.03271e-08
-3.04011e-05 9.06545e-05 3.77922e-07
8.03271e-08 3.77922e-07 -2.28293e-05
0.00103357 -0.000149444 -2.98773e-06
-0.000149444 0.0002777 2.16136e-06
-2.98773e-06 2.16136e-06 0.000128842
0.000349444 -0.000121557 -1.78051e-06
-0.000121557 -0.000147058 -1.09112e-06
-1.78051e-06 -1.09112e-06 -0.000318929
0.000671272 3.71464e-05 3.14494e-07
3.71464e-05 3.41798e-05 9.02927e-07
3.14494e-07 9.02927e-07 -4.64563e-05
0.000715098 -1.9405e-05 7.96565e-07
-1.9405e-05 7.37832e-05 -9.56194e-08
7.96565e-07 -9.56194e-08 -2.80797e-05
0.00084709 -5.81843e-05 2.11365e-06
-5.81843e-05 0.000170796 -2.73684e-06
2.11365e-06 -2.73684e-06 4.62434e-05
0.000741534 1.76267e-06 2.52635e-07
1.76267e-06 8.36162e-05 -4.71178e-07
2.52635e-07 -4.71178e-07 -5.91314e-06
0.00073046 1.88513e-06 -5.38341e-07
1.88513e-06 6.27119e-05 -1.2244e-07
-5.38341e-07 -1.2244e-07 -1.10607e-05
0.000662383 3.68449e-05 -1.41882e-06
3.68449e-05 9.11252e-06 1.73151e-06
-1.41882e-06 1.73151e-06 -4.05969e-05
0.000767489 -3.02532e-05 7.73225e-07
-3.02532e-05 8.46688e-05 -7.18676e-07
7.73225e-07 -7.18676e-07 1.11375e-05
0.000679709 2.9261e-05 -3.1088e-07
2.9261e-05 1.36251e-05 -2.90528e-08
-3.1088e-07 -2.90528e-08 -3.35159e-05
0.000614732 4.24934e-05 -1.06367e-06
4.24934e-05 -2.79807e-05 3.78614e-06
-1.06367e-06 3.78614e-06 -4.38752e-05
0.000709609 7.76727e-06 1.7824e-06
7.76727e-06 2.5621e-05 -1.7292e-06
1.7824e-06 -1.7292e-06 -1.93919e-05
0.000618938 3.54793e-05 1.27561e-07
3.54793e-05 -3.21491e-05 2.75786e-08
1.27561e-07 2.75786e-08 -4.63262e-05
0.0021884 6.3477e-05 -4.48723e-06
6.3477e-05 0.000883458 1.76901e-06
-4.48723e-06 1.76901e-06 0.000895935
0.000600702 2.81589e-05 7.99366e-07
2.81589e-05 -4.73015e-05 -3.75846e-06
7.99366e-07 -3.75846e-06 -6.0486e-05
0.00154501 3.98715e-05 8.52752e-06
3.98715e-05 0.000504634 -1.19283e-06
8.52752e-06 -1.19283e-06 0.000515743
0.00230214 3.83325e-05 1.26969e-05
3.83325e-05 0.000938755 -4.57476e-06
1.26969e-05 -4.57476e-06 0.000954322
0.000505027 -7.88471e-06 -2.24808e-07
-7.88471e-06 -6.88884e-05 -1.83631e-06
-2.24808e-07 -1.83631e-06 -0.000151088
0.000390713 -6.37011e-06 -2.89151e-07
-6.37011e-06 -0.000154616 -3.05936e-06
-2.89151e-07 -3.05936e-06 -0.000203899
0.000664438 1.08421e-05 -4.22302e-07
1.08421e-05 3.11972e-05 -7.54534e-07
-4.22302e-07 -7.54534e-07 -5.19292e-05
0.000636091 -1.7854e-05 -1.66038e-07
-1.7854e-05 -3.3115e-05 -3.9176e-06
-1.66038e-07 -3.9176e-06 -4.32305e-05
0.000389099 -4.7893e-06 -2.26821e-07
-4.7893e-06 -0.000154566 -9.27702e-07
-2.26821e-07 -9.27702e-07 -0.000199888
0.000818953 1.66057e-05 -1.0904e-07
1.66057e-05 0.000123988 1.63537e-06
-1.0904e-07 1.63537e-06 4.55775e-05
0.00215926 -2.36257e-05 -9.37983e-06
-2.36257e-05 0.000850743 -4.76034e-06
-9.37983e-06 -4.76034e-06 0.000869231
0.000640621 -1.1167e-05 -1.38439e-07
-1.1167e-05 -3.23302e-05 -3.73452e-08
-1.38439e-07 -3.73452e-08 -4.0055e-05
0.000371496 -3.81297e-06 3.87583e-07
-3.81297e-06 -0.000163776 2.11082e-06
3.87583e-07 2.11082e-06 -0.000205416
0.00209738 -1.06835e-05 -3.28684e-06
-1.06835e-05 0.000812962 3.62625e-08
-3.28684e-06 3.62625e-08 0.000832682
0.00064573 -4.57983e-06 1.45658e-07
-4.57983e-06 -3.02416e-05 3.58187e-06
1.45658e-07 3.58187e-06 -3.64916e-05
0.00209019 1.95216e-06 4.25514e-07
1.95216e-06 0.00080863 4.74398e-06
4.25514e-07 4.74398e-06 0.000828534
0.00141404 1.05367e-05 -2.55806e-06
1.05367e-05 0.00056883 2.29157e-05
-2.55806e-06 2.29157e-05 0.000256839
0.00150228 -5.05198e-05 9.92552e-06
-5.05198e-05 0.000324259 -4.16769e-06
9.92552e-06 -4.16769e-06 -0.000634857
0.00182906 9.45144e-05 3.03644e-05
9.45144e-05 0.00249698 -3.08662e-05
3.03644e-05 -3.08662e-05 0.00183669
0.000820647 6.19197e-05 -1.05584e-07
6.19197e-05 0.000120768 2.68162e-07
-1.05584e-07 2.68162e-07 1.88191e-05
0.000685218 3.23821e-05 -6.72989e-08
3.23821e-05 2.97409e-05 2.11254e-07
-6.72989e-08 2.11254e-07 -6.36287e-05
0.000905435 8.60767e-05 -2.89933e-07
8.60767e-05 0.000165043 6.65874e-07
-2.89933e-07 6.65874e-07 5.76735e-05
0.0019873 -3.56496e-05 1.08275e-05
-3.56496e-05 0.000162538 0.000116694
1.08275e-05 0.000116694 -0.000800085
0.00290679 -0.000100683 -5.19309e-06
-0.000100683 0.00154835 7.55344e-07
-5.19309e-06 7.55344e-07 0.000618003
0.00336026 -0.000198158 4.40556e-05
-0.000198158 0.00117544 -8.84345e-05
4.40556e-05 -8.84345e-05 -0.000505867
0.0047838 -0.000624848 -4.36114e-05
-0.000624848 0.000854395 -5.53713e-07
-4.36114e-05 -5.53713e-07 0.000104188
0.00187375 -0.000406246 -8.29378e-05
-0.000406246 0.000257237 6.42399e-05
-8.29378e-05 6.42399e-05 -0.00210947
0.00748774 0.000885805 6.1645e-05
0.000885805 0.00228247 2.96309e-05
6.1645e-05 2.96309e-05 0.00208093
0.00159607 0.000200795 1.89445e-05
0.000200795 -0.00304831 -5.0275e-05
1.89445e-05 -5.0275e-05 -0.00181872
0.00541099 -0.00101383 -1.29547e-05
-0.00101383 0.00145587 4.54943e-06
-1.29547e-05 4.54943e-06 0.000686822
0.00642233 -0.000603801 5.28921e-06
-0.000603801 0.00287455 6.8477e-06
5.28921e-06 6.8477e-06 0.000105345
-0.002063 0.000383626 -1.22996e-05
0.000383626 -0.000595557 -6.2493e-05
-1.22996e-05 -6.2493e-05 -0.00163368
0.00434634 -4.65385e-05 -1.26741e-05
-4.65385e-05 -0.00199934 2.69476e-05
-1.26741e-05 2.69476e-05 -5.17173e-05
0.00284172 -0.000738708 -3.40634e-05
-0.000738708 0.000359965 -1.62887e-05
-3.40634e-05 -1.62887e-05 -0.000309393
0.0107331 -0.000878579 7.54547e-06
-0.000878579 0.00501383 3.13917e-05
7.54547e-06 3.13917e-05 0.00167879
-0.00847068 -8.55041e-05 5.47419e-05
-8.55041e-05 -0.00098376 -0.000126573
5.47419e-05 -0.000126573 -0.00250057
0.00276562 -0.000490108 2.09782e-06
-0.000490108 -0.00198069 -2.1881e-05
2.09782e-06 -2.1881e-05 -0.000638254
0.000799945 3.65721e-05 -6.82631e-07
3.65721e-05 0.00010642 -3.33535e-07
-6.82631e-07 -3.33535e-07 -1.14772e-05
0.000764252 1.9359e-06 9.67618e-08
1.9359e-06 0.000107594 -5.41453e-07
9.67618e-08 -5.41453e-07 -1.99477e-05
0.000757225 -5.48863e-05 3.28832e-07
-5.48863e-05 0.000113805 9.50175e-08
3.28832e-07 9.50175e-08 -1.19501e-05
0.000777306 4.2067e-05 -4.74663e-07
4.2067e-05 9.2498e-05 -4.7815e-07
-4.74663e-07 -4.7815e-07 -1.66641e-05
0.000933845 0.000112751 1.25587e-06
0.000112751 0.000202833 1.34428e-06
1.25587e-06 1.34428e-06 8.41269e-05
0.00104941 0.000107725 -5.80421e-07
0.000107725 0.000272313 1.04802e-06
-5.80421e-07 1.04802e-06 0.000160412
0.00098831 -0.000379077 1.29204e-05
-0.000379077 -0.000183515 5.195e-06
1.29204e-05 5.195e-06 -0.00023787
-0.000551514 -7.21535e-05 1.22599e-05
-7.21535e-05 -0.000579507 -2.07225e-05
1.22599e-05 -2.07225e-05 -0.00058788
0.000963264 5.87535e-05 -8.75896e-07
5.87535e-05 0.000233479 3.76896e-08
-8.75896e-07 3.76896e-08 9.73338e-05
0.00111286 -0.000128957 1.50399e-05
-0.000128957 0.000310009 -2.86419e-05
1.50399e-05 -2.86419e-05 0.000140734
0.00124417 1.425e-05 -1.8006e-06
1.425e-05 0.000430986 5.41886e-07
-1.8006e-06 5.41886e-07 0.000250003
0.000734898 1.63741e-05 1.79715e-07
1.63741e-05 7.41817e-05 -5.42359e-09
1.79715e-07 -5.42359e-09 -4.46903e-05
0.000720424 8.3647e-05 1.88562e-07
8.3647e-05 0.00010682 7.01823e-09
1.88562e-07 7.01823e-09 -3.65213e-05
0.00026849 -0.00029703 -2.937e-06
-0.00029703 -0.000474098 -2.9261e-06
-2.937e-06 -2.9261e-06 -0.000460425
0.000936153 -2.61218e-05 3.78649e-06
-2.61218e-05 0.000268303 -2.41611e-06
3.78649e-06 -2.41611e-06 0.000105867
0.000437742 -4.44838e-05 2.13334e-05
-4.44838e-05 0.000216655 -1.20587e-07
2.13334e-05 -1.20587e-07 0.000115237
0.00123645 6.12076e-05 1.58037e-06
6.12076e-05 0.000363003 -1.65225e-06
1.58037e-06 -1.65225e-06 0.00024749
-0.00241937 0.000117636 -4.43808e-05
0.000117636 -0.00111615 -1.79481e-05
-4.43808e-05 -1.79481e-05 -0.00146602
0.000349767 1.33236e-05 8.52776e-06
1.33236e-05 0.000119377 3.06381e-05
8.52776e-06 3.06381e-05 4.3649e-05
0.00125934 1.30456e-05 1.82076e-06
1.30456e-05 0.000462818 -5.0501e-07
1.82076e-06 -5.0501e-07 0.000324836
0.00138289 -2.39553e-05 3.62425e-06
-2.39553e-05 8.34218e-05 5.6307e-07
3.62425e-06 5.6307e-07 -0.000193973
0.00107007 -2.41042e-05 -1.30098e-05
-2.41042e-05 0.000329887 -4.28653e-06
-1.30098e-05 -4.28653e-06 2.26991e-05
0.0011528 -3.39414e-05 0.000131136
-3.39414e-05 0.00041075 -2.14641e-06
0.000131136 -2.14641e-06 -0.000504276
0.00087025 0.000165213 1.99342e-05
0.000165213 0.00043257 1.2581e-05
1.99342e-05 1.2581e-05 0.000305949
0.00232491 0.000385914 1.66642e-05
0.000385914 0.000865279 -1.39979e-05
1.66642e-05 -1.39979e-05 0.000666007
0.00114364 -4.45235e-05 -1.51449e-06
-4.45235e-05 0.000250809 8.9818e-06
-1.51449e-06 8.9818e-06 9.27807e-06
-0.00119657 0.000401788 1.2856e-05
0.000401788 -1.28856e-05 2.57642e-05
1.2856e-05 2.57642e-05 -0.00302897
-0.0101879 0.000116953 -5.20259e-05
0.000116953 -0.00373284 -0.000123278
-5.20259e-05 -0.000123278 -0.00524407
0.00257786 2.57562e-05 2.79862e-05
2.57562e-05 0.000847891 5.78624e-05
2.79862e-05 5.78624e-05 0.000189393
0.00183451 0.000323267 -2.42165e-05
0.000323267 -0.00297341 5.03654e-05
-2.42165e-05 5.03654e-05 -0.00176936
0.000410647 0.000126447 4.4863e-06
0.000126447 0.00028103 -8.43187e-07
4.4863e-06 -8.43187e-07 0.000115441
0.00152768 -2.78269e-06 7.23488e-06
-2.78269e-06 6.22824e-05 -1.43775e-05
7.23488e-06 -1.43775e-05 -4.58072e-05
0.00299968 -7.35776e-05 3.83224e-06
-7.35776e-05 0.00151161 -1.04852e-06
3.83224e-06 -1.04852e-06 0.000609765
0.00137859 0.000208072 7.62919e-06
0.000208072 0.000126329 -4.14065e-06
7.62919e-06 -4.14065e-06 -0.00020547
0.00223934 0.00084964 4.06444e-05
0.00084964 -0.00164718 -9.17471e-05
4.06444e-05 -9.17471e-05 -0.000663446
-0.00189174 0.000372171 1.05831e-05
0.000372171 -0.00128572 6.05318e-05
1.05831e-05 6.05318e-05 -0.00182198
0.0067838 1.70596e-05 5.97951e-05
1.70596e-05 0.00452505 -2.01911e-05
5.97951e-05 -2.01911e-05 0.000275246
0.00160237 -5.0427e-06 2.26312e-05
-5.0427e-06 0.00116769 -1.31296e-05
2.26312e-05 -1.31296e-05 0.000880945
0.00138516 2.95977e-05 4.8457e-06
2.95977e-05 0.000513124 -1.88484e-05
4.8457e-06 -1.88484e-05 0.000201832
0.00288473 -0.000114275 0.000136219
-0.000114275 0.000613174 -0.000115021
0.000136219 -0.000115021 -0.000793611
0.00321243 0.0011616 -8.65022e-06
0.0011616 0.00188867 -1.19019e-05
-8.65022e-06 -1.19019e-05 0.00290047
-0.00550588 0.000464513 4.19591e-05
0.000464513 -0.00471833 0.000177113
4.19591e-05 0.000177113 -0.00449295
0.011671 -0.000700631 7.29984e-05
-0.000700631 0.00489105 -7.85156e-05
7.29984e-05 -7.85156e-05 0.00173236
0.00447484 -0.000375881 -8.8828e-05
-0.000375881 0.00135429 0.000108248
-8.8828e-05 0.000108248 0.00129428
0.00107875 9.46632e-05 5.57634e-06
9.46632e-05 0.000540091 5.16412e-06
5.57634e-06 5.16412e-06 0.000448097
7.52945e-05 -1.37339e-05 -4.18843e-06
-1.37339e-05 0.000111058 1.38105e-06
-4.18843e-06 1.38105e-06 -2.87566e-06
0.000535862 -0.000201376 8.98726e-06
-0.000201376 0.000398257 -1.38553e-05
8.98726e-06 -1.38553e-05 0.000160643
0.00080464 -5.131e-05 1.19935e-06
-5.131e-05 0.000154359 2.55325e-06
1.19935e-06 2.55325e-06 7.28884e-05
-0.000656178 -1.29932e-05 4.49118e-06
-1.29932e-05 -0.000513763 1.38067e-05
4.49118e-06 1.38067e-05 -0.00058903
0.000190454 -0.000118414 -1.71759e-06
-0.000118414 1.30475e-05 4.54905e-08
-1.71759e-06 4.54905e-08 -0.00013345
0.00114509 -0.000213241 2.24719e-05
-0.000213241 0.00048762 -1.4368e-05
2.24719e-05 -1.4368e-05 0.000225921
0.00188032 -0.000133915 -3.45765e-06
-0.000133915 0.00071542 2.99849e-06
-3.45765e-06 2.99849e-06 0.000611993
0.00149996 -0.000231951 1.55466e-06
-0.000231951 0.000552528 2.79273e-07
1.55466e-06 2.79273e-07 0.000343671
0.00107331 -0.00023447 8.58965e-06
-0.00023447 0.000327987 2.33205e-06
8.58965e-06 2.33205e-06 -7.07301e-06
3.39031e-05 -8.78812e-05 -1.94922e-06
-8.78812e-05 -0.000318458 -9.07221e-07
-1.94922e-06 -9.07221e-07 -0.000447404
0.00109742 -0.000214043 -3.83732e-07
-0.000214043 0.00022699 1.31334e-06
-3.83732e-07 1.31334e-06 6.85871e-06
0.00258894 -0.000378147 2.92809e-06
-0.000378147 0.000934742 2.36346e-06
2.92809e-06 2.36346e-06 0.000651602
0.00185398 -0.000323731 -2.82424e-06
-0.000323731 0.000404205 2.45047e-06
-2.82424e-06 2.45047e-06 0.000150555
0.00051327 -0.000175215 1.28821e-06
-0.000175215 -0.000187315 6.82365e-06
1.28821e-06 6.82365e-06 -0.000379057
0.00129808 -0.000248 -2.87574e-06
-0.000248 0.000228124 2.01179e-06
-2.87574e-06 2.01179e-06 4.56692e-06
0.000916734 -0.00019427 -4.75536e-06
-0.00019427 0.000122805 1.45887e-06
-4.75536e-06 1.45887e-06 -7.28779e-05
0.00162802 -0.000236547 4.63275e-06
-0.000236547 0.000540509 -3.20864e-06
4.63275e-06 -3.20864e-06 0.000363439
0.00124765 -0.000212494 2.69317e-06
-0.000212494 0.000299691 -2.21013e-06
2.69317e-06 -2.21013e-06 0.000131239
0.000326824 -4.4736e-05 1.86862e-06
-4.4736e-05 -0.000133516 8.22197e-07
1.86862e-06 8.22197e-07 -0.000275325
0.000702105 -0.000137361 1.32434e-06
-0.000137361 8.32172e-05 -4.6122e-07
1.32434e-06 -4.6122e-07 -8.42013e-05
0.00113523 -0.000192827 5.37315e-06
-0.000192827 0.000267408 -3.36509e-06
5.37315e-06 -3.36509e-06 8.79068e-05
0.00067475 4.59654e-05 1.12024e-06
4.59654e-05 4.57663e-05 1.3455e-06
1.12024e-06 1.3455e-06 -5.01489e-05
0.00088728 -5.91026e-05 -3.91954e-07
-5.91026e-05 0.000181394 -5.84275e-08
-3.91954e-07 -5.84275e-08 6.20975e-05
0.00104566 -0.000153289 -7.12822e-07
-0.000153289 0.000283491 -3.14533e-07
-7.12822e-07 -3.14533e-07 0.000133599
0.000647211 4.01834e-05 -1.14935e-06
4.01834e-05 6.63861e-06 1.81098e-06
-1.14935e-06 1.81098e-06 -4.74997e-05
0.00073874 8.9959e-06 -6.94087e-07
8.9959e-06 7.07162e-05 -2.87556e-07
-6.94087e-07 -2.87556e-07 -1.02701e-05
0.00057738 -8.1623e-06 1.09569e-07
-8.1623e-06 -1.08663e-07 -6.74454e-07
1.09569e-07 -6.74454e-07 -0.000103795
0.000777334 -1.93754e-05 7.22154e-07
-1.93754e-05 9.0369e-05 -9.89474e-07
7.22154e-07 -9.89474e-07 1.49264e-05
0.000682193 2.68056e-05 -2.69184e-07
2.68056e-05 1.89074e-05 -6.31913e-08
-2.69184e-07 -6.31913e-08 -3.01311e-05
0.000598054 4.98601e-05 -1.02351e-06
4.98601e-05 -2.89556e-05 3.93683e-06
-1.02351e-06 3.93683e-06 -4.75268e-05
0.000697053 1.72571e-05 1.80293e-06
1.72571e-05 2.1708e-05 -1.72284e-06
1.80293e-06 -1.72284e-06 -2.45412e-05
0.000614581 4.3529e-05 2.94225e-08
4.3529e-05 -2.79361e-05 2.85385e-09
2.94225e-08 2.85385e-09 -4.39367e-05
0.00222876 6.92624e-05 -2.33725e-05
6.92624e-05 0.000913932 3.75475e-06
-2.33725e-05 3.75475e-06 0.000925193
0.000608132 3.61682e-05 8.71513e-07
3.61682e-05 -3.84255e-05 -3.7638e-06
8.71513e-07 -3.7638e-06 -5.26162e-05
0.00152792 4.95814e-05 1.0068e-05
4.95814e-05 0.00050157 -1.0407e-06
1.0068e-05 -1.0407e-06 0.000511127
0.00228842 4.99445e-05 1.65406e-05
4.99445e-05 0.000936148 -4.27013e-06
1.65406e-05 -4.27013e-06 0.000950457
0.000727417 4.70381e-05 -6.27723e-07
4.70381e-05 5.72829e-05 -8.36782e-07
-6.27723e-07 -8.36782e-07 -2.64638e-05
0.000675896 5.86226e-06 -7.60609e-07
5.86226e-06 6.97996e-06 -2.29869e-06
-7.60609e-07 -2.29869e-06 -4.34374e-05
0.000615535 2.97202e-05 -9.5553e-07
2.97202e-05 1.48506e-06 -7.14646e-07
-9.5553e-07 -7.14646e-07 -8.5301e-05
0.000625172 -2.47949e-05 -1.30715e-08
-2.47949e-05 -3.61949e-05 -4.13835e-06
-1.30715e-08 -4.13835e-06 -4.9206e-05
0.000522011 2.16604e-06 -8.80368e-07
2.16604e-06 -7.96134e-05 -9.16023e-07
-8.80368e-07 -9.16023e-07 -0.000127782
0.000832533 2.56865e-05 3.33516e-07
2.56865e-05 0.000127644 6.30325e-07
3.33516e-07 6.30325e-07 4.52573e-05
0.00223436 -3.56568e-05 -1.38387e-05
-3.56568e-05 0.000897159 -4.67829e-06
-1.38387e-05 -4.67829e-06 0.000914014
0.000633978 -1.75604e-05 -2.25708e-07
-1.75604e-05 -3.43121e-05 -3.20274e-08
-2.25708e-07 -3.20274e-08 -4.43213e-05
0.000356343 -5.09717e-06 -3.37748e-07
-5.09717e-06 -0.000173143 1.36613e-06
-3.37748e-07 1.36613e-06 -0.000219026
0.00215058 -2.24994e-05 -3.25105e-06
-2.24994e-05 0.000845324 7.35795e-08
-3.25105e-06 7.35795e-08 0.000864045
0.00064081 -1.10777e-05 1.57849e-07
-1.10777e-05 -3.211e-05 3.68324e-06
1.57849e-07 3.68324e-06 -3.97824e-05
0.00209923 -9.52704e-06 4.98083e-06
-9.52704e-06 0.000813824 4.75658e-06
4.98083e-06 4.75658e-06 0.000833603
0.00156522 -1.83414e-05 2.67627e-06
-1.83414e-05 0.000113505 2.89506e-05
2.67627e-06 2.89506e-05 -8.14049e-05
0.00129986 6.27455e-06 -5.15155e-06
6.27455e-06 0.000444375 -7.83931e-07
-5.15155e-06 -7.83931e-07 0.000132697
0.00166634 -4.38936e-05 8.95903e-05
-4.38936e-05 0.000487192 -2.86504e-05
8.95903e-05 -2.86504e-05 -0.000493383
0.000653892 -6.9871e-06 -2.29509e-07
-6.9871e-06 4.63813e-06 -3.8122e-07
-2.29509e-07 -3.8122e-07 -8.14786e-05
0.000878598 1.8482e-05 -1.09661e-06
1.8482e-05 0.000141359 -5.34152e-07
-1.09661e-06 -5.34152e-07 4.58397e-05
0.000828713 6.01421e-05 1.37733e-06
6.01421e-05 0.00012302 6.32544e-07
1.37733e-06 6.32544e-07 2.50229e-05
0.000689884 1.70214e-05 1.85871e-07
1.70214e-05 2.70442e-05 1.5802e-07
1.85871e-07 1.5802e-07 -6.2085e-05
0.00079487 4.08655e-05 2.99677e-08
4.08655e-05 0.000100677 2.00926e-07
2.99677e-08 2.00926e-07 -4.57391e-06
0.00079287 2.44077e-05 -1.06758e-06
2.44077e-05 9.31251e-05 2.2146e-07
-1.06758e-06 2.2146e-07 -3.28889e-06
0.000952736 0.00015484 6.28648e-07
0.00015484 0.000205267 3.29025e-07
6.28648e-07 3.29025e-07 8.15007e-05
0.000592773 2.67791e-05 2.97134e-05
2.67791e-05 0.000206028 0.000113895
2.97134e-05 0.000113895 -0.000964845
0.00230184 -2.1478e-05 -4.98498e-06
-2.1478e-05 0.000575526 3.98918e-05
-4.98498e-06 3.98918e-05 -0.000226527
0.00267297 -7.63505e-05 4.74791e-06
-7.63505e-05 0.00144194 -6.1335e-05
4.74791e-06 -6.1335e-05 0.000445393
0.00316675 -0.00011947 -2.14739e-05
-0.00011947 -0.00333498 3.20343e-05
-2.14739e-05 3.20343e-05 -0.000987274
0.00381167 -0.00087245 -4.29178e-05
-0.00087245 0.00120401 5.47445e-05
-4.29178e-05 5.47445e-05 0.000245378
-0.0016748 -0.000834646 2.53246e-05
-0.000834646 -0.00071225 4.45552e-05
2.53246e-05 4.45552e-05 -0.00383887
0.00621425 0.00100762 4.68546e-05
0.00100762 0.00363821 -2.1877e-05
4.68546e-05 -2.1877e-05 0.00211076
0.00413733 -0.000851372 -1.81153e-05
-0.000851372 0.000976062 4.91777e-06
-1.81153e-05 4.91777e-06 0.000193102
0.000549367 -0.000401076 4.05714e-05
-0.000401076 0.000881117 2.39284e-06
4.05714e-05 2.39284e-06 -0.00250041
0.00413538 -8.38974e-05 -1.95855e-05
-8.38974e-05 0.00220156 -3.64114e-06
-1.95855e-05 -3.64114e-06 0.00144555
0.00722592 -0.000692914 -2.31253e-05
-0.000692914 0.000848609 -3.0364e-05
-2.31253e-05 -3.0364e-05 0.00214703
0.0014801 2.20278e-06 -6.71609e-05
2.20278e-06 -0.000464366 4.73381e-05
-6.71609e-05 4.73381e-05 -0.000374631
0.000778449 0.000571609 4.87531e-06
0.000571609 0.000761112 -8.9884e-05
4.87531e-06 -8.9884e-05 -0.00240638
-0.00677792 -0.00099308 5.24225e-05
-0.00099308 -0.00422676 -7.75386e-05
5.24225e-05 -7.75386e-05 -0.00561167
0.00247192 -0.000666271 1.17062e-05
-0.000666271 -0.00159666 -0.000135963
1.17062e-05 -0.000135963 -8.66095e-05
0.000752903 -1.90972e-06 -1.80725e-06
-1.90972e-06 7.78592e-05 4.51319e-07
-1.80725e-06 4.51319e-07 -2.0527e-05
0.000733355 3.66364e-05 2.2162e-07
3.66364e-05 7.03849e-05 1.98991e-07
2.2162e-07 1.98991e-07 -4.79602e-05
0.000725502 1.2179e-05 -3.42375e-07
1.2179e-05 9.16889e-05 -2.40336e-07
-3.42375e-07 -2.40336e-07 -3.95598e-05
0.000818927 3.85834e-05 1.44805e-07
3.85834e-05 0.00012575 -7.43463e-07
1.44805e-07 -7.43463e-07 9.48002e-06
0.000621192 -0.000336345 9.07776e-07
-0.000336345 -0.000347882 1.78263e-05
9.07776e-07 1.78263e-05 -0.000402365
0.00094579 -3.59728e-05 -6.12125e-06
-3.59728e-05 0.000497475 -2.50735e-05
-6.12125e-06 -2.50735e-05 0.000412543
0.000576091 1.00594e-05 -6.76635e-07
1.00594e-05 -2.46359e-05 3.97612e-07
-6.76635e-07 3.97612e-07 -0.000140129
0.000740547 8.53276e-05 -1.52557e-06
8.53276e-05 0.000121714 2.36791e-06
-1.52557e-06 2.36791e-06 -2.14756e-05
0.00151249 -4.95947e-05 5.75384e-06
-4.95947e-05 0.000600616 -2.32774e-05
5.75384e-06 -2.32774e-05 0.000433206
0.000734344 3.46079e-05 -4.08935e-07
3.46079e-05 8.12523e-05 4.22397e-07
-4.08935e-07 4.22397e-07 -3.17084e-05
0.000931141 4.04299e-05 -1.35927e-06
4.04299e-05 0.000288715 -2.13954e-06
-1.35927e-06 -2.13954e-06 0.000143611
-0.000264222 2.37555e-05 1.06128e-05
2.37555e-05 -9.41271e-05 -1.18679e-05
1.06128e-05 -1.18679e-05 -0.000507417
0.000874634 -2.30095e-05 2.48952e-05
-2.30095e-05 0.000426545 -5.8725e-07
2.48952e-05 -5.8725e-07 0.000371084
0.000376836 6.84591e-05 -7.93908e-07
6.84591e-05 -4.16521e-05 -2.74557e-07
-7.93908e-07 -2.74557e-07 -0.000148202
0.000239247 -3.0575e-05 -2.37671e-05
-3.0575e-05 0.000680307 -4.39332e-05
-2.37671e-05 -4.39332e-05 -0.000410191
0.00296676 5.92497e-05 1.07478e-05
5.92497e-05 0.0015199 1.90294e-05
1.07478e-05 1.90294e-05 0.00138413
0.00120549 -1.66983e-05 1.23205e-05
-1.66983e-05 0.000429725 4.22757e-06
1.23205e-05 4.22757e-06 7.4043e-05
0.00131638 -2.27216e-05 -9.03383e-08
-2.27216e-05 0.000132762 5.87044e-07
-9.03383e-08 5.87044e-07 -8.61048e-05
0.000731557 -2.15022e-05 -8.72064e-06
-2.15022e-05 0.000152618 -5.27205e-06
-8.72064e-06 -5.27205e-06 -0.000143067
0.000367246 0.000105212 1.6545e-05
0.000105212 0.000279643 7.14569e-06
1.6545e-05 7.14569e-06 0.000133161
7.84478e-05 0.000183717 -1.9858e-06
0.000183717 -0.000518023 2.9256e-05
-1.9858e-06 2.9256e-05 -0.000605093
0.00139477 -1.58903e-05 7.68495e-06
-1.58903e-05 -1.33345e-05 4.27957e-06
7.68495e-06 4.27957e-06 -5.68128e-05
0.00359098 -0.000668928 0.000138531
-0.000668928 0.00307507 -0.000124033
0.000138531 -0.000124033 -0.000929753
0.00677385 0.00104975 -4.84434e-05
0.00104975 0.00326719 2.86961e-05
-4.84434e-05 2.86961e-05 0.00207125
0.00278446 -5.61054e-05 -1.1559e-05
-5.61054e-05 0.00141662 6.08995e-05
-1.1559e-05 6.08995e-05 0.000437249
0.00401236 0.000911271 -1.35101e-05
0.000911271 -0.000431506 -1.99931e-05
-1.35101e-05 -1.99931e-05 0.000415313
-0.000416622 5.44701e-05 1.94175e-05
5.44701e-05 0.000152617 4.69203e-06
1.94175e-05 4.69203e-06 -0.000230948
0.00137485 1.99128e-05 5.00837e-06
1.99128e-05 0.000461241 6.34694e-07
5.00837e-06 6.34694e-07 0.000173264
0.00306638 -0.000151379 4.58513e-05
-0.000151379 0.000816771 -3.85391e-06
4.58513e-05 -3.85391e-06 -0.000722477
0.000733478 -0.000108127 4.31988e-08
-0.000108127 -0.000638184 2.44587e-05
4.31988e-08 2.44587e-05 -0.000468937
-0.00170532 0.00123593 6.20456e-05
0.00123593 -0.000867602 -2.37457e-05
6.20456e-05 -2.37457e-05 0.000622576
0.00535606 0.000665985 -2.83473e-05
0.000665985 0.000150242 6.24641e-05
-2.83473e-05 6.24641e-05 0.000341456
-0.0020986 -0.000678192 5.65317e-05
-0.000678192 -0.00017614 -4.77857e-05
5.65317e-05 -4.77857e-05 -0.00420585
0.000579796 -2.2469e-05 3.70245e-05
-2.2469e-05 0.000234283 -8.40897e-06
3.70245e-05 -8.40897e-06 0.000104072
0.00104431 -5.55569e-05 5.83191e-05
-5.55569e-05 -3.54413e-05 -2.6155e-05
5.83191e-05 -2.6155e-05 -0.000969919
-0.00185063 0.000192092 -0.000134965
0.000192092 0.000601502 -1.80703e-05
-0.000134965 -1.80703e-05 -0.000227163
0.000988458 0.00107862 -9.36727e-05
0.00107862 -0.000342315 0.000143362
-9.36727e-05 0.000143362 0.000167114
0.00802352 -0.000328076 1.98047e-05
-0.000328076 0.00367678 -2.43288e-05
1.98047e-05 -2.43288e-05 0.000766345
0.00325107 -0.000341241 -7.02124e-05
-0.000341241 0.000664006 6.78673e-05
-7.02124e-05 6.78673e-05 0.000330225
-0.0019107 1.30666e-05 2.2189e-06
1.30666e-05 -0.000959931 1.20187e-05
2.2189e-06 1.20187e-05 -0.00111811
4.14884e-05 -0.000143206 -5.14703e-07
-0.000143206 0.000147939 -1.51473e-07
-5.14703e-07 -1.51473e-07 -8.03135e-05
0.000724142 -0.000215317 2.0121e-05
-0.000215317 0.00023602 -7.69754e-06
2.0121e-05 -7.69754e-06 9.26148e-05
-0.000612471 -7.62851e-05 -3.56597e-06
-7.62851e-05 -0.000423565 5.59356e-06
-3.56597e-06 5.59356e-06 -0.000556927
-0.0004384 -0.000106652 5.07801e-07
-0.000106652 -0.000328326 -3.46784e-06
5.07801e-07 -3.46784e-06 -0.00059434
0.00239334 -0.000391478 2.51266e-05
-0.000391478 0.000805175 -5.7254e-06
2.51266e-05 -5.7254e-06 0.000553107
0.00288085 -0.000365742 -5.89529e-06
-0.000365742 0.0012629 1.78526e-06
-5.89529e-06 1.78526e-06 0.00104416
0.00173858 -0.000283232 2.90468e-06
-0.000283232 0.0006487 7.99777e-07
2.90468e-06 7.99777e-07 0.000328584
0.000830465 -0.000268703 6.91013e-06
-0.000268703 -3.63831e-05 -4.08463e-06
6.91013e-06 -4.08463e-06 -0.000344566
0.00125804 -0.000225804 -5.14804e-06
-0.000225804 0.000298242 9.85699e-07
-5.14804e-06 9.85699e-07 7.11257e-05
0.00219001 -0.000347492 2.11636e-06
-0.000347492 0.000706401 5.53857e-08
2.11636e-06 5.53857e-08 0.000423784
0.00190855 -0.000344717 3.0906e-06
-0.000344717 0.000424203 -4.89404e-06
3.0906e-06 -4.89404e-06 0.000149834
0.00166193 -0.000298162 6.07071e-07
-0.000298162 0.000210936 -3.77845e-06
6.07071e-07 -3.77845e-06 -5.27976e-06
0.00264013 -0.000374113 -6.55999e-06
-0.000374113 0.000848762 6.36698e-06
-6.55999e-06 6.36698e-06 0.000602904
0.00190208 -0.000329492 -1.24235e-06
-0.000329492 0.000423214 -3.86168e-07
-1.24235e-06 -3.86168e-07 0.000164316
0.000349295 -0.000152275 5.00964e-06
-0.000152275 -0.000257661 1.05418e-07
5.00964e-06 1.05418e-07 -0.000428962
0.000949072 -0.000206762 2.45165e-06
-0.000206762 5.91387e-05 -4.84218e-07
2.45165e-06 -4.84218e-07 -0.000129822
0.00152183 -0.000266375 -1.84337e-06
-0.000266375 0.000356051 -1.61779e-06
-1.84337e-06 -1.61779e-06 0.000128014
0.00112429 -0.000184845 1.89235e-06
-0.000184845 0.000280002 -1.86661e-07
1.89235e-06 -1.86661e-07 0.000105403
0.00125967 -0.00020476 -1.86065e-06
-0.00020476 0.0003308 -1.42747e-06
-1.86065e-06 -1.42747e-06 0.000158047
0.000704447 -0.000165757 3.81903e-06
-0.000165757 4.67872e-08 -1.91261e-06
3.81903e-06 -1.91261e-06 -0.000154285
0.000744532 -1.91346e-05 1.93403e-06
-1.91346e-05 9.51211e-05 1.43803e-06
1.93403e-06 1.43803e-06 -2.6863e-05
0.000604182 -7.1276e-05 1.24036e-07
-7.1276e-05 2.77829e-05 7.67665e-07
1.24036e-07 7.67665e-07 -0.000116742
0.00122926 -0.00018201 2.06567e-06
-0.00018201 0.000383311 -1.79068e-06
2.06567e-06 -1.79068e-06 0.000211425
0.000595051 5.49563e-05 -3.90144e-08
5.49563e-05 -1.07243e-05 2.34097e-06
-3.90144e-08 2.34097e-06 -7.67923e-05
0.000741299 3.47811e-06 -4.33442e-07
3.47811e-06 8.49585e-05 -3.7527e-07
-4.33442e-07 -3.7527e-07 -1.49926e-05
0.00101062 -8.07772e-05 -5.95809e-07
-8.07772e-05 0.000255216 -6.63767e-07
-5.95809e-07 -6.63767e-07 0.000130492
0.000573861 5.68986e-05 -1.75492e-06
5.68986e-05 -3.31e-05 5.4836e-06
-1.75492e-06 5.4836e-06 -5.48709e-05
0.000668879 3.72573e-05 -2.85854e-07
3.72573e-05 1.81183e-05 -1.99096e-07
-2.85854e-07 -1.99096e-07 -3.59306e-05
0.000804 -1.37333e-05 2.55483e-08
-1.37333e-05 0.000108361 -1.2811e-06
2.55483e-08 -1.2811e-06 2.55295e-05
0.000690939 2.52098e-05 1.42505e-06
2.52098e-05 2.3172e-05 -1.84514e-06
1.42505e-06 -1.84514e-06 -2.57008e-05
0.000604951 5.13889e-05 2.83754e-08
5.13889e-05 -2.44509e-05 -3.4805e-09
2.83754e-08 -3.4805e-09 -4.33052e-05
0.00224706 8.05143e-05 -2.63443e-05
8.05143e-05 0.000932749 3.39084e-06
-2.63443e-05 3.39084e-06 0.000941505
0.000614166 4.46813e-05 7.77442e-07
4.46813e-05 -2.80386e-05 -3.83207e-06
7.77442e-07 -3.83207e-06 -4.41648e-05
0.00224969 7.09003e-05 2.17695e-06
7.09003e-05 0.000926887 1.64099e-07
2.17695e-06 1.64099e-07 0.000937818
0.00226112 6.10341e-05 1.98893e-05
6.10341e-05 0.000926827 -3.91458e-06
1.98893e-05 -3.91458e-06 0.000939602
0.00076242 2.9197e-05 -4.07234e-07
2.9197e-05 8.53367e-05 -6.74797e-07
-4.07234e-07 -6.74797e-07 -1.36602e-05
0.000782161 6.13469e-05 -7.23608e-07
6.13469e-05 9.64682e-05 -1.21576e-06
-7.23608e-07 -1.21576e-06 4.17666e-06
0.000677939 -2.50431e-06 -9.33846e-07
-2.50431e-06 7.27294e-06 -2.31699e-06
-9.33846e-07 -2.31699e-06 -4.63975e-05
0.00074972 5.53055e-05 -1.00103e-07
5.53055e-05 7.00206e-05 1.60763e-08
-1.00103e-07 1.60763e-08 -1.39574e-05
0.000610877 -3.19704e-05 -1.02297e-07
-3.19704e-05 -3.94868e-05 -4.37436e-06
-1.02297e-07 -4.37436e-06 -5.5906e-05
0.000679964 5.15798e-06 -1.17469e-07
5.15798e-06 9.66619e-06 -4.8263e-08
-1.17469e-07 -4.8263e-08 -4.07671e-05
0.000714286 3.28258e-05 -5.88958e-07
3.28258e-05 4.81744e-05 6.53428e-07
-5.88958e-07 6.53428e-07 -3.13091e-05
0.00231928 -4.79557e-05 -1.82102e-05
-4.79557e-05 0.000950446 -4.57171e-06
-1.82102e-05 -4.57171e-06 0.000965223
0.000626612 -2.43116e-05 -1.8534e-07
-2.43116e-05 -3.53352e-05 -3.97207e-08
-1.8534e-07 -3.97207e-08 -4.82408e-05
0.000659423 8.90502e-06 -4.01043e-07
8.90502e-06 -1.22925e-06 1.4701e-06
-4.01043e-07 1.4701e-06 -4.82763e-05
0.00221756 -3.45303e-05 -3.37715e-06
-3.45303e-05 0.000886913 1.14383e-07
-3.37715e-06 1.14383e-07 0.000904078
0.000633953 -1.73048e-05 8.46071e-08
-1.73048e-05 -3.42811e-05 3.82466e-06
8.46071e-08 3.82466e-06 -4.41964e-05
0.00213349 -2.12944e-05 9.26699e-06
-2.12944e-05 0.000835045 4.69809e-06
9.26699e-06 4.69809e-06 0.000854019
0.000867584 -6.12566e-05 4.83522e-06
-6.12566e-05 0.000132084 2.73603e-05
4.83522e-06 2.73603e-05 -0.000179649
0.00150599 -3.08229e-05 -8.50726e-06
-3.08229e-05 6.15195e-05 1.52303e-05
-8.50726e-06 1.52303e-05 -5.15866e-05
0.00137283 -2.92907e-06 -2.59594e-06
-2.92907e-06 0.000364638 -1.86864e-05
-2.59594e-06 -1.86864e-05 0.000122074
0.000755241 2.9084e-05 -1.56128e-07
2.9084e-05 7.40559e-05 -5.03532e-08
-1.56128e-07 -5.03532e-08 -2.09044e-05
0.000748575 4.89303e-06 5.25268e-08
4.89303e-06 6.76942e-05 1.57668e-07
5.25268e-08 1.57668e-07 -2.67899e-05
0.000673841 7.43144e-06 -1.79499e-06
7.43144e-06 2.6709e-05 -1.88694e-06
-1.79499e-06 -1.88694e-06 -6.9793e-05
0.000596699 -1.33431e-05 -7.6915e-07
-1.33431e-05 -1.90737e-05 -7.69779e-07
-7.6915e-07 -7.69779e-07 -0.000112341
0.000987755 8.64595e-05 -1.42183e-06
8.64595e-05 0.000218006 -5.81053e-07
-1.42183e-06 -5.81053e-07 0.00010686
0.000711126 -1.88719e-06 7.40988e-08
-1.88719e-06 3.5811e-05 2.03956e-08
7.40988e-08 2.03956e-08 -5.06058e-05
0.00071724 1.99786e-05 9.5934e-07
1.99786e-05 4.89988e-05 -3.54571e-07
9.5934e-07 -3.54571e-07 -5.05381e-05
0.000781157 3.45315e-05 -1.03967e-07
3.45315e-05 8.99264e-05 -4.46319e-08
-1.03967e-07 -4.46319e-08 -9.1192e-06
0.000887859 6.79334e-05 3.24666e-07
6.79334e-05 0.000149678 3.3141e-07
3.24666e-07 3.3141e-07 4.10091e-05
0.000937098 3.8279e-05 -7.65343e-07
3.8279e-05 0.000192508 1.67843e-08
-7.65343e-07 1.67843e-08 8.72986e-05
0.00208475 6.10839e-05 9.62665e-05
6.10839e-05 0.000763937 0.000143544
9.62665e-05 0.000143544 -0.000800575
0.00101258 5.5368e-05 9.08296e-06
5.5368e-05 0.000256149 3.57909e-05
9.08296e-06 3.57909e-05 -0.000952108
0.00262818 -7.72401e-06 -1.529e-05
-7.72401e-06 0.00098297 -1.75214e-05
-1.529e-05 -1.75214e-05 0.000366429
0.00700579 -0.000614766 -4.82587e-05
-0.000614766 0.000903537 -6.52035e-05
-4.82587e-05 -6.52035e-05 0.00224843
-0.0103146 0.000387226 -5.14977e-05
0.000387226 -0.00354987 0.000152205
-5.14977e-05 0.000152205 -0.00517632
0.00504471 -0.000842394 -9.11853e-05
-0.000842394 0.00167636 5.09766e-05
-9.11853e-05 5.09766e-05 0.000899686
0.00914823 -0.000457195 -3.31441e-05
-0.000457195 0.00359116 -2.94599e-05
-3.31441e-05 -2.94599e-05 0.000822702
0.00284549 -0.00014216 -3.15217e-05
-0.00014216 0.000312293 4.97493e-05
-3.15217e-05 4.97493e-05 -2.75347e-05
0.0108239 -0.000183182 4.09552e-05
-0.000183182 0.00498593 -1.62954e-05
4.09552e-05 -1.62954e-05 0.00164549
0.00134717 -0.000564285 3.63314e-05
-0.000564285 -0.000199067 3.34861e-05
3.63314e-05 3.34861e-05 -0.000967948
0.00203738 -0.000793686 -7.84183e-05
-0.000793686 -0.00196827 -0.000171275
-7.84183e-05 -0.000171275 -0.00045826
0.00362685 0.000145054 -8.47753e-05
0.000145054 0.000553342 4.54936e-06
-8.47753e-05 4.54936e-06 0.00012575
0.0088628 0.000391422 -4.65388e-06
0.000391422 0.00380786 2.73945e-05
-4.65388e-06 2.73945e-05 0.00124551
0.00901538 -0.00129609 -7.24044e-06
-0.00129609 0.0027271 -0.000122594
-7.24044e-06 -0.000122594 0.00280873
0.00479366 -0.00122837 3.72642e-05
-0.00122837 0.000687188 3.03658e-06
3.72642e-05 3.03658e-06 0.00228009
0.000375579 3.82528e-05 4.45481e-07
3.82528e-05 -7.28485e-05 7.6712e-07
4.45481e-07 7.6712e-07 -0.00015345
0.000935077 -3.99713e-06 -4.1536e-08
-3.99713e-06 0.000187983 8.83324e-07
-4.1536e-08 8.83324e-07 8.61179e-05
0.00074819 3.41571e-05 1.68631e-07
3.41571e-05 7.83186e-05 3.06304e-07
1.68631e-07 3.06304e-07 -3.87787e-05
0.000676459 2.56379e-05 -3.71603e-05
2.56379e-05 0.000348847 1.55178e-05
-3.71603e-05 1.55178e-05 -0.000152022
0.000982541 -6.14087e-05 -6.2673e-05
-6.14087e-05 0.00051446 -2.20054e-05
-6.2673e-05 -2.20054e-05 0.000475836
0.000592707 -7.11427e-06 -1.52879e-07
-7.11427e-06 3.94503e-06 1.54385e-06
-1.52879e-07 1.54385e-06 -0.000109353
-0.000228184 3.02018e-05 7.32107e-08
3.02018e-05 -0.000347578 -2.78976e-06
7.32107e-08 -2.78976e-06 -0.00049798
0.000682009 6.92314e-05 -2.99359e-07
6.92314e-05 0.000138727 -2.39521e-06
-2.99359e-07 -2.39521e-06 2.33746e-05
0.00049774 4.96787e-05 -3.93086e-06
4.96787e-05 0.000200764 4.79575e-06
-3.93086e-06 4.79575e-06 5.75738e-05
-4.82355e-05 -3.10347e-06 7.73435e-05
-3.10347e-06 0.000630731 -3.68081e-05
7.73435e-05 -3.68081e-05 -0.000443451
-0.00192617 -8.01803e-06 -1.86687e-05
-8.01803e-06 -0.00112587 1.18322e-05
-1.86687e-05 1.18322e-05 -0.00123817
0.00171885 0.000186211 -1.24642e-05
0.000186211 0.00090731 -3.31229e-05
-1.24642e-05 -3.31229e-05 0.000248534
0.00176554 -3.8411e-06 6.28077e-05
-3.8411e-06 0.000561552 7.41581e-06
6.28077e-05 7.41581e-06 -0.000338414
0.00102117 -1.9769e-05 1.46814e-05
-1.9769e-05 0.000316279 4.96026e-06
1.46814e-05 4.96026e-06 1.54368e-05
0.00137838 -2.51612e-05 -4.2586e-06
-2.51612e-05 0.000231516 -1.5052e-06
-4.2586e-06 -1.5052e-06 8.5824e-05
-0.00252195 3.94927e-05 -5.55063e-07
3.94927e-05 -0.000901152 1.00268e-05
-5.55063e-07 1.00268e-05 -0.00139857
0.00305318 5.35585e-05 -1.30699e-05
5.35585e-05 0.000495016 -2.53573e-05
-1.30699e-05 -2.53573e-05 0.000161713
0.00140397 7.36542e-06 6.04947e-07
7.36542e-06 0.000388782 1.41996e-05
6.04947e-07 1.41996e-05 0.000167561
0.0150608 -0.000805329 0.000108573
-0.000805329 0.00665852 -1.51899e-05
0.000108573 -1.51899e-05 0.00346152
0.00749168 0.00092814 -5.43992e-05
0.00092814 0.00227406 -2.39039e-05
-5.43992e-05 -2.39039e-05 0.00201395
0.00348855 -0.000177715 -4.49289e-05
-0.000177715 0.001123 8.82886e-05
-4.49289e-05 8.82886e-05 -0.000494187
-0.00657212 0.00135753 0.000286218
0.00135753 -0.00372097 -0.000233451
0.000286218 -0.000233451 -0.0017366
0.000681865 -6.45809e-05 -3.17636e-06
-6.45809e-05 0.000391362 -2.61231e-07
-3.17636e-06 -2.61231e-07 0.000222631
0.00150951 -4.95339e-05 -1.00681e-05
-4.95339e-05 0.000251013 4.46581e-06
-1.00681e-05 4.46581e-06 -0.000698717
-0.00239897 0.000235174 -0.000185136
0.000235174 0.00068466 8.23036e-05
-0.000185136 8.23036e-05 -4.65685e-06
0.00180404 -0.000291176 -1.98987e-05
-0.000291176 -1.76259e-05 2.93736e-05
-1.98987e-05 2.93736e-05 -0.000290488
0.00844831 0.00134645 4.20315e-05
0.00134645 0.00281388 4.44112e-05
4.20315e-05 4.44112e-05 0.00340021
0.00741417 -0.000753412 6.35753e-05
-0.000753412 0.00309646 -3.8563e-05
6.35753e-05 -3.8563e-05 0.000464336
0.00116957 -0.000217398 8.78705e-06
-0.000217398 0.000181936 2.52654e-05
8.78705e-06 2.52654e-05 0.000321073
-0.0026855 -9.28343e-05 2.53227e-05
-9.28343e-05 0.00054187 -1.03085e-05
2.53227e-05 -1.03085e-05 -0.00074563
0.00645028 0.00114793 -0.00018077
0.00114793 0.00320278 8.44945e-05
-0.00018077 8.44945e-05 0.00326118
0.00260196 -0.000343667 -0.000132237
-0.000343667 0.000278653 9.12797e-05
-0.000132237 9.12797e-05 -0.00243176
0.00261539 -0.000757124 4.9165e-05
-0.000757124 0.000343056 -1.16679e-05
4.9165e-05 -1.16679e-05 -0.000154412
-0.000275052 -0.000100014 -3.48563e-06
-0.000100014 -1.20124e-05 1.17349e-05
-3.48563e-06 1.17349e-05 -0.00022303
0.000397236 -0.000195709 -3.77008e-06
-0.000195709 9.11068e-05 2.49421e-06
-3.77008e-06 2.49421e-06 -9.62172e-05
0.00406572 -0.000485964 3.02837e-05
-0.000485964 0.00156489 2.94929e-06
3.02837e-05 2.94929e-06 0.00149603
-0.00204773 -9.96901e-06 -5.68067e-06
-9.96901e-06 -0.00116214 8.14622e-06
-5.68067e-06 8.14622e-06 -0.00142958
0.0007103 -0.000251603 2.97868e-06
-0.000251603 -2.76976e-05 -2.68295e-07
2.97868e-06 -2.68295e-07 -0.000286051
0.00142102 -0.000373257 5.88642e-06
-0.000373257 4.4728e-05 1.30745e-06
5.88642e-06 1.30745e-06 -0.000154207
0.00230697 -0.000322148 -8.30123e-06
-0.000322148 0.000914483 1.98207e-06
-8.30123e-06 1.98207e-06 0.000612797
0.00124808 -0.000296044 -2.99575e-06
-0.000296044 0.000168889 -2.56636e-06
-2.99575e-06 -2.56636e-06 -0.000122196
0.00192308 -0.000390433 5.10729e-06
-0.000390433 0.000313553 -1.90379e-06
5.10729e-06 -1.90379e-06 9.6634e-05
0.00176013 -0.00031369 -3.59964e-06
-0.00031369 0.000459867 -8.74877e-07
-3.59964e-06 -8.74877e-07 0.00017889
0.00153477 -0.000315561 -2.92805e-07
-0.000315561 0.000207853 -3.21616e-06
-2.92805e-07 -3.21616e-06 -5.65312e-05
0.00180747 -0.000328903 1.04085e-06
-0.000328903 0.00022385 -5.06908e-06
1.04085e-06 -5.06908e-06 2.33013e-05
0.0015679 -0.00025942 -5.15838e-07
-0.00025942 9.87912e-05 -3.24459e-06
-5.15838e-07 -3.24459e-06 -7.48246e-05
0.00148062 -0.000280805 1.11078e-06
-0.000280805 0.00013066 -1.33204e-06
1.11078e-06 -1.33204e-06 -9.32565e-05
0.00159389 -0.000293514 1.28678e-06
-0.000293514 0.000172771 -9.46236e-07
1.28678e-06 -9.46236e-07 -4.18912e-05
0.00186913 -0.000291567 -1.75286e-06
-0.000291567 0.000462484 5.79429e-06
-1.75286e-06 5.79429e-06 0.000250887
0.0018389 -0.000314304 -3.45156e-07
-0.000314304 0.000407208 3.40179e-07
-3.45156e-07 3.40179e-07 0.000162572
0.00184989 -0.00032735 -1.26505e-06
-0.00032735 0.000387488 -3.05994e-06
-1.26505e-06 -3.05994e-06 0.000123583
0.00103654 -0.00019237 2.80696e-06
-0.00019237 0.000173286 -5.92115e-07
2.80696e-06 -5.92115e-07 -2.82752e-06
0.00057367 -0.000167011 -1.10705e-06
-0.000167011 -0.000126044 -2.12285e-06
-1.10705e-06 -2.12285e-06 -0.000294172
0.00139532 -0.000239408 4.8755e-06
-0.000239408 0.000311114 -6.11301e-06
4.8755e-06 -6.11301e-06 0.000125321
0.00087966 -0.000117034 3.27027e-07
-0.000117034 0.000149038 8.44912e-07
3.27027e-07 8.44912e-07 3.4311e-06
0.000885778 -0.000158379 1.2721e-07
-0.000158379 0.000146049 3.04533e-07
1.2721e-07 3.04533e-07 -2.34775e-05
0.000874402 -0.000171405 -1.66517e-06
-0.000171405 0.000111383 1.27767e-06
-1.66517e-06 1.27767e-06 -5.68429e-05
0.000566285 5.77691e-05 1.31079e-06
5.77691e-05 -1.89678e-05 3.62849e-06
1.31079e-06 3.62849e-06 -0.000102871
0.000793784 -4.0488e-05 4.9624e-07
-4.0488e-05 0.000127032 6.54669e-08
4.9624e-07 6.54669e-08 -8.68964e-07
0.000889354 -0.000103346 -1.55268e-06
-0.000103346 0.000194125 5.59522e-07
-1.55268e-06 5.59522e-07 4.62684e-05
0.00133284 8.74151e-05 -1.38373e-05
8.74151e-05 0.000418386 3.55992e-06
-1.38373e-05 3.55992e-06 0.000393715
0.000654559 3.24649e-05 -5.46747e-07
3.24649e-05 1.84093e-05 -5.4746e-07
-5.46747e-07 -5.4746e-07 -4.60728e-05
0.000808385 -3.15661e-05 -6.18926e-07
-3.15661e-05 0.000125116 -1.78077e-06
-6.18926e-07 -1.78077e-06 2.08208e-05
0.000770611 4.50038e-05 -2.59127e-05
4.50038e-05 8.82601e-05 3.36324e-06
-2.59127e-05 3.36324e-06 8.9649e-05
0.000991065 6.99603e-05 -7.4044e-06
6.99603e-05 0.00020922 1.78413e-07
-7.4044e-06 1.78413e-07 0.000188087
0.000686593 3.30045e-05 7.53367e-07
3.30045e-05 2.70425e-05 -2.19508e-06
7.53367e-07 -2.19508e-06 -2.67515e-05
0.000612936 5.3401e-05 5.60666e-07
5.3401e-05 -1.91119e-05 -3.9999e-06
5.60666e-07 -3.9999e-06 -3.83523e-05
0.0022803 8.21812e-05 2.11526e-06
8.21812e-05 0.000952763 1.84657e-07
2.11526e-06 1.84657e-07 0.000961136
0.00226665 7.22548e-05 2.34048e-05
7.22548e-05 0.000937578 -3.59247e-06
2.34048e-05 -3.59247e-06 0.000948224
0.000702103 1.80012e-05 -2.86523e-07
1.80012e-05 4.25571e-05 -8.44949e-07
-2.86523e-07 -8.44949e-07 -5.34268e-05
0.000792037 4.36554e-05 -3.86878e-07
4.36554e-05 0.000100326 -1.6221e-06
-3.86878e-07 -1.6221e-06 6.73645e-06
0.000728584 1.2966e-05 8.94574e-08
1.2966e-05 5.74571e-05 5.17481e-10
8.94574e-08 5.17481e-10 -3.55021e-05
0.00068144 -1.39056e-05 -1.149e-06
-1.39056e-05 1.06477e-05 -2.4828e-06
-1.149e-06 -2.4828e-06 -4.60001e-05
0.000754362 3.50564e-05 6.72503e-07
3.50564e-05 7.18758e-05 4.26859e-09
6.72503e-07 4.26859e-09 -1.36854e-05
0.000596288 -3.91924e-05 -1.42046e-07
-3.91924e-05 -4.17815e-05 -4.59306e-06
-1.42046e-07 -4.59306e-06 -6.16744e-05
0.00067481 9.2745e-07 -1.50274e-07
9.2745e-07 6.51533e-06 -3.81453e-08
-1.50274e-07 -3.81453e-08 -4.7466e-05
0.000768985 5.4605e-05 7.22183e-07
5.4605e-05 9.3281e-05 1.36912e-06
7.22183e-07 1.36912e-06 7.88077e-07
0.00242355 -6.02718e-05 -2.36078e-05
-6.02718e-05 0.00101596 -4.37204e-06
-2.36078e-05 -4.37204e-06 0.00102832
0.000613055 -3.10903e-05 -3.46448e-07
-3.10903e-05 -3.84865e-05 -2.38482e-08
-3.46448e-07 -2.38482e-08 -5.47281e-05
0.000676036 5.52692e-06 5.72714e-07
5.52692e-06 7.81994e-06 2.43611e-06
5.72714e-07 2.43611e-06 -4.26411e-05
0.00230266 -4.69295e-05 -3.23373e-06
-4.69295e-05 0.000940191 1.48444e-07
-3.23373e-06 1.48444e-07 0.000955294
0.000626288 -2.39043e-05 1.36629e-07
-2.39043e-05 -3.54553e-05 4.03835e-06
1.36629e-07 4.03835e-06 -4.82662e-05
0.00220555 -3.33999e-05 1.33749e-05
-3.33999e-05 0.000879416 4.63868e-06
1.33749e-05 4.63868e-06 0.000896848
0.00268972 -2.17412e-05 6.31534e-05
-2.17412e-05 0.000941424 3.47424e-05
6.31534e-05 3.47424e-05 0.000131429
0.000950056 -5.74386e-05 4.67132e-07
-5.74386e-05 0.000178219 9.86812e-06
4.67132e-07 9.86812e-06 -0.000105059
0.00140147 -4.03046e-05 -1.45239e-05
-4.03046e-05 1.41427e-05 -6.21185e-06
-1.45239e-05 -6.21185e-06 -5.07545e-05
0.000809796 8.19999e-05 -2.88747e-06
8.19999e-05 0.000113554 -5.12229e-07
-2.88747e-06 -5.12229e-07 5.41697e-06
0.000823783 3.05441e-05 4.66108e-07
3.05441e-05 0.000110491 3.30863e-07
4.66108e-07 3.30863e-07 1.75049e-05
0.00066662 -1.57443e-06 7.39172e-07
-1.57443e-06 2.07887e-05 6.68128e-07
7.39172e-07 6.68128e-07 -7.27784e-05
0.000817001 4.16652e-06 3.89308e-08
4.16652e-06 0.000101885 -1.02536e-07
3.89308e-08 -1.02536e-07 1.00576e-05
0.000879615 4.09087e-05 -1.22344e-07
4.09087e-05 0.000146099 -2.21706e-07
-1.22344e-07 -2.21706e-07 4.58161e-05
0.000821065 6.52381e-05 4.55763e-07
6.52381e-05 0.00012145 7.75561e-07
4.55763e-07 7.75561e-07 1.40368e-05
0.000808675 5.22002e-05 -1.68218e-06
5.22002e-05 0.000113356 -2.37262e-06
-1.68218e-06 -2.37262e-06 6.35594e-07
0.000448513 -3.76988e-06 -6.63984e-07
-3.76988e-06 -9.40232e-05 -7.1616e-07
-6.63984e-07 -7.1616e-07 -0.000194353
0.00083153 8.85528e-05 4.30509e-07
8.85528e-05 0.000123335 -2.41662e-07
4.30509e-07 -2.41662e-07 1.94147e-05
0.000753594 -1.11592e-05 1.53611e-06
-1.11592e-05 5.51358e-05 1.51355e-07
1.53611e-06 1.51355e-07 -3.84218e-05
0.000815079 3.45155e-05 -3.43182e-07
3.45155e-05 0.000118582 8.02047e-08
-3.43182e-07 8.02047e-08 1.71347e-05
0.00135778 7.59057e-05 4.49172e-06
7.59057e-05 0.000464423 4.02527e-06
4.49172e-06 4.02527e-06 0.000367234
0.00116434 -0.000488766 6.04268e-05
-0.000488766 0.00162223 0.000111507
6.04268e-05 0.000111507 0.000898145
0.00258215 9.67351e-05 9.04108e-06
9.67351e-05 0.00101885 3.84478e-05
9.04108e-06 3.84478e-05 -0.000595209
0.00135527 7.40349e-05 -8.31477e-06
7.40349e-05 0.000347886 -4.07197e-05
-8.31477e-06 -4.07197e-05 -0.00089349
0.00660183 -0.00104538 -0.000135136
-0.00104538 0.00048466 -0.000112236
-0.000135136 -0.000112236 0.00200742
0.00443612 -0.000300153 8.98047e-06
-0.000300153 0.000593596 0.000119993
8.98047e-06 0.000119993 -8.79247e-05
0.00048319 -0.000517066 -9.33047e-05
-0.000517066 0.000610174 8.79004e-05
-9.33047e-05 8.79004e-05 -0.00264678
0.00254151 -0.000183135 -5.70903e-05
-0.000183135 0.000408864 7.9959e-05
-5.70903e-05 7.9959e-05 -0.000104621
0.0039389 -8.17875e-05 1.33417e-05
-8.17875e-05 0.000748697 4.21681e-05
1.33417e-05 4.21681e-05 0.000513529
-0.000814079 -0.00123586 4.03932e-05
-0.00123586 -0.00148998 5.61222e-05
4.03932e-05 5.61222e-05 0.000268631
0.00532836 0.000470639 4.74248e-06
0.000470639 0.00291397 2.41646e-06
4.74248e-06 2.41646e-06 -0.000383993
0.00154148 -0.000670593 -1.67216e-05
-0.000670593 -0.00132163 2.45197e-05
-1.67216e-05 2.45197e-05 -0.00117061
0.00149369 0.000310162 -1.52451e-05
0.000310162 -0.000295487 1.45801e-05
-1.52451e-05 1.45801e-05 -0.000467731
0.00796883 0.000176019 -3.33107e-05
0.000176019 0.00398851 1.88299e-05
-3.33107e-05 1.88299e-05 0.00137845
0.000606121 -0.00103076 -7.25269e-05
-0.00103076 -0.000741823 -8.83096e-05
-7.25269e-05 -8.83096e-05 -0.000238179
0.000510492 0.00019591 7.12427e-07
0.00019591 -2.55459e-05 -4.756e-06
7.12427e-07 -4.756e-06 -0.000115346
0.000811402 5.50977e-05 6.15863e-06
5.50977e-05 0.000164709 -1.55913e-07
6.15863e-06 -1.55913e-07 8.40537e-05
0.00105835 2.06644e-05 -2.61207e-07
2.06644e-05 0.000260643 1.09243e-06
-2.61207e-07 1.09243e-06 0.000157971
0.000131104 3.1692e-06 -0.000132016
3.1692e-06 0.000642362 -3.18665e-05
-0.000132016 -3.18665e-05 -0.000386529
-0.00122258 7.33003e-05 8.14901e-06
7.33003e-05 -0.000733074 -9.77737e-06
8.14901e-06 -9.77737e-06 -0.000879713
0.000976667 0.000101826 2.93941e-06
0.000101826 0.00030954 -2.94177e-06
2.93941e-06 -2.94177e-06 0.000186142
0.000753493 0.000188869 6.67874e-06
0.000188869 0.000263348 2.79333e-06
6.67874e-06 2.79333e-06 0.00013803
0.000771909 0.000205437 -5.11848e-06
0.000205437 0.000378488 -2.79647e-05
-5.11848e-06 -2.79647e-05 -0.000163553
1.44077e-05 0.000322499 1.51212e-05
0.000322499 -0.000374343 1.23128e-06
1.51212e-05 1.23128e-06 -0.000604776
0.000280644 7.82231e-05 0.000111263
7.82231e-05 0.0021888 7.94749e-06
0.000111263 7.94749e-06 0.000955624
0.00169705 -2.39669e-05 -5.52362e-06
-2.39669e-05 0.000589827 1.07597e-05
-5.52362e-06 1.07597e-05 -0.000169074
0.000758633 -1.8574e-05 2.46074e-06
-1.8574e-05 0.000182304 5.15785e-06
2.46074e-06 5.15785e-06 -8.25782e-05
0.00130289 -8.96205e-05 -3.84781e-05
-8.96205e-05 0.000801303 7.60089e-06
-3.84781e-05 7.60089e-06 0.000634163
0.000836011 -0.000150028 -2.5032e-05
-0.000150028 -0.00091942 -1.44223e-05
-2.5032e-05 -1.44223e-05 -0.000835272
0.00173201 -4.77446e-05 -7.82318e-05
-4.77446e-05 0.000400059 2.45125e-05
-7.82318e-05 2.45125e-05 -0.000566524
-0.00117077 -0.000827626 4.99498e-05
-0.000827626 -0.000502419 -5.85015e-05
4.99498e-05 -5.85015e-05 -0.00353663
-0.003337 0.000864182 7.14613e-05
0.000864182 -0.00359069 -8.71812e-05
7.14613e-05 -8.71812e-05 -0.00283738
0.0015746 0.000500458 -0.00010363
0.000500458 0.002133 0.000102113
-0.00010363 0.000102113 0.00186973
0.00205204 -0.000101586 -3.8684e-06
-0.000101586 0.000431892 1.58473e-06
-3.8684e-06 1.58473e-06 0.000712892
0.00153398 0.000152435 1.20025e-05
0.000152435 0.00229204 8.66387e-06
1.20025e-05 8.66387e-06 0.00154513
-0.00369998 0.000634586 3.1566e-05
0.000634586 -0.00117207 5.15208e-06
3.1566e-05 5.15208e-06 -0.00192189
0.00382607 -0.000824888 8.37453e-06
-0.000824888 0.00124543 -1.46414e-06
8.37453e-06 -1.46414e-06 0.000338364
0.00958736 -0.000144849 3.81418e-06
-0.000144849 0.00356885 -6.10784e-06
3.81418e-06 -6.10784e-06 0.00174343
0.00153807 -0.000351874 2.59258e-06
-0.000351874 0.000192144 2.09075e-05
2.59258e-06 2.09075e-05 0.00029013
-0.00700137 0.000246946 -0.000138077
0.000246946 -0.00338372 -1.68907e-06
-0.000138077 -1.68907e-06 -0.00383497
0.00910667 -3.06524e-05 -4.04671e-05
-3.06524e-05 0.00288175 1.86097e-05
-4.04671e-05 1.86097e-05 0.00141466
0.00492986 -0.000928559 -3.10868e-06
-0.000928559 0.000558089 2.09364e-06
-3.10868e-06 2.09364e-06 -0.00024221
0.000370196 -0.000177301 -2.10668e-05
-0.000177301 0.000114731 1.50525e-05
-2.10668e-05 1.50525e-05 -0.000124883
0.0016994 -0.000335915 -2.86728e-06
-0.000335915 0.000273984 9.85139e-07
-2.86728e-06 9.85139e-07 0.000278693
0.00268134 -0.000381704 1.56445e-05
-0.000381704 0.000586331 -1.82847e-06
1.56445e-05 -1.82847e-06 0.000592419
-0.000889018 -0.000117185 -5.41546e-06
-0.000117185 -0.000818294 5.17484e-07
-5.41546e-06 5.17484e-07 -0.00108776
0.00134929 -0.000363416 -3.19402e-06
-0.000363416 2.87293e-05 -7.32824e-07
-3.19402e-06 -7.32824e-07 -0.000178809
0.00212805 -0.000427144 1.59085e-06
-0.000427144 0.000282337 1.14875e-06
1.59085e-06 1.14875e-06 0.000117701
0.00150561 -0.000312676 -9.1535e-06
-0.000312676 0.00029307 -2.72174e-06
-9.1535e-06 -2.72174e-06 1.54436e-05
0.00149991 -0.000356729 7.69346e-07
-0.000356729 0.000102976 6.69872e-07
7.69346e-07 6.69872e-07 -0.000115357
0.00201526 -0.000351763 -1.80424e-06
-0.000351763 0.000248022 -3.69171e-06
-1.80424e-06 -3.69171e-06 8.60991e-05
0.00115127 -0.000285904 -6.6229e-06
-0.000285904 -1.18302e-05 -2.57268e-07
-6.6229e-06 -2.57268e-07 -0.000267119
0.001649 -0.000315703 -4.07684e-07
-0.000315703 0.000134326 4.94525e-07
-4.07684e-07 4.94525e-07 -6.37878e-05
0.00179412 -0.000279142 -7.83626e-07
-0.000279142 0.000137694 -5.04188e-06
-7.83626e-07 -5.04188e-06 -4.0546e-06
0.001575 -0.000219879 -1.9675e-06
-0.000219879 4.71019e-05 -3.36188e-06
-1.9675e-06 -3.36188e-06 -8.85765e-05
0.00153742 -0.000246686 -5.00484e-07
-0.000246686 0.000114295 -2.56229e-06
-5.00484e-07 -2.56229e-06 -7.1302e-05
0.00151966 -0.000251536 4.79818e-07
-0.000251536 7.15307e-05 1.45295e-06
4.79818e-07 1.45295e-06 -9.95085e-05
0.00136209 -0.000254675 -3.51125e-06
-0.000254675 8.56191e-05 1.04742e-06
-3.51125e-06 1.04742e-06 -0.000119571
0.00156663 -0.000283252 2.19332e-06
-0.000283252 0.00018162 -5.48428e-07
2.19332e-06 -5.48428e-07 -3.89362e-05
0.00151635 -0.000288028 8.93288e-07
-0.000288028 0.000129536 2.43128e-06
8.93288e-07 2.43128e-06 -8.34488e-05
0.00123568 -0.000222028 1.24107e-06
-0.000222028 0.000192017 3.52994e-06
1.24107e-06 3.52994e-06 7.2622e-07
0.00109545 -0.000233075 3.00296e-06
-0.000233075 3.90138e-05 -1.13795e-06
3.00296e-06 -1.13795e-06 -0.000166156
0.000984573 -0.000250215 -8.14253e-07
-0.000250215 -6.46404e-05 -4.52319e-06
-8.14253e-07 -4.52319e-06 -0.00030812
0.00091991 -0.000162085 -1.19608e-06
-0.000162085 0.000120628 5.87226e-07
-1.19608e-06 5.87226e-07 -3.65347e-05
0.0010942 -0.000195844 -6.47403e-08
-0.000195844 0.000200279 -1.33762e-06
-6.47403e-08 -1.33762e-06 2.43324e-05
0.000808874 -0.000182504 -2.25542e-06
-0.000182504 1.16425e-05 -5.21877e-06
-2.25542e-06 -5.21877e-06 -0.000154081
0.000704302 -3.63494e-05 -2.42355e-07
-3.63494e-05 4.68992e-05 3.95763e-06
-2.42355e-07 3.95763e-06 -5.68807e-05
0.000925505 -0.000120247 8.20433e-07
-0.000120247 0.000173348 4.20586e-07
8.20433e-07 4.20586e-07 2.70368e-05
0.00064572 -0.000129288 -2.10679e-06
-0.000129288 1.03353e-05 1.35423e-06
-2.10679e-06 1.35423e-06 -0.000153668
0.00047926 7.48701e-05 2.10056e-06
7.48701e-05 -6.22538e-05 6.06768e-06
2.10056e-06 6.06768e-06 -0.000100273
0.00068291 -4.74495e-06 -5.33282e-07
-4.74495e-06 4.29073e-05 -4.40036e-07
-5.33282e-07 -4.40036e-07 -4.23739e-05
0.000865843 -6.96741e-05 -1.6811e-08
-6.96741e-05 0.000169933 -1.61131e-06
-1.6811e-08 -1.61131e-06 3.69709e-05
0.00238319 0.000113327 -8.8696e-06
0.000113327 0.00102897 1.37068e-06
-8.8696e-06 1.37068e-06 0.00102906
0.000583761 7.14462e-05 -1.63068e-07
7.14462e-05 -1.25188e-05 -1.5304e-07
-1.63068e-07 -1.5304e-07 -4.19827e-05
0.000710225 1.19403e-05 1.48012e-06
1.19403e-05 4.75112e-05 -3.01126e-06
1.48012e-06 -3.01126e-06 -1.68456e-05
0.0023249 9.22968e-05 2.17845e-06
9.22968e-05 0.000986189 1.85884e-07
2.17845e-06 1.85884e-07 0.000992088
0.000613211 6.38879e-05 -4.79431e-07
6.38879e-05 -6.97007e-06 -4.39424e-06
-4.79431e-07 -4.39424e-06 -3.07395e-05
0.00232269 8.38086e-05 2.76098e-05
8.38086e-05 0.00097802 -3.19836e-06
2.76098e-05 -3.19836e-06 0.000986016
0.000876773 7.92045e-05 -6.99526e-07
7.92045e-05 0.000144985 2.32493e-07
-6.99526e-07 2.32493e-07 3.84914e-05
0.000770001 3.09797e-05 -1.0344e-07
3.09797e-05 8.22732e-05 -2.75632e-07
-1.0344e-07 -2.75632e-07 -1.57408e-05
0.000787346 2.36081e-05 -2.50842e-07
2.36081e-05 0.000103783 -2.00767e-06
-2.50842e-07 -2.00767e-06 2.16409e-06
0.000682366 -1.90597e-05 -1.23766e-06
-1.90597e-05 1.49922e-05 -2.88889e-06
-1.23766e-06 -2.88889e-06 -4.50797e-05
0.000740299 1.57875e-05 5.79539e-07
1.57875e-05 6.78856e-05 5.42614e-08
5.79539e-07 5.42614e-08 -2.25799e-05
0.000692256 2.29144e-05 1.01829e-06
2.29144e-05 4.1533e-05 8.19648e-07
1.01829e-06 8.19648e-07 -5.49998e-05
0.000589589 -4.78029e-05 -6.67365e-08
-4.78029e-05 -3.82784e-05 -4.89827e-06
-6.67365e-08 -4.89827e-06 -6.1552e-05
0.000670511 -7.15937e-06 -1.09631e-07
-7.15937e-06 5.33609e-06 -4.83893e-08
-1.09631e-07 -4.83893e-08 -5.15569e-05
0.000741892 3.13679e-05 1.39056e-06
3.13679e-05 6.209e-05 1.21328e-06
1.39056e-06 1.21328e-06 -2.10983e-05
0.00251094 -7.20767e-05 -2.93644e-05
-7.20767e-05 0.00107245 -4.06199e-06
-2.93644e-05 -4.06199e-06 0.00108241
0.00059749 -3.75807e-05 -3.33557e-07
-3.75807e-05 -4.16062e-05 -3.37093e-09
-3.33557e-07 -3.37093e-09 -6.12138e-05
0.000676448 3.07923e-06 9.84487e-07
3.07923e-06 8.04383e-06 2.45003e-06
9.84487e-07 2.45003e-06 -4.605e-05
0.0023932 -5.92626e-05 -3.57427e-06
-5.92626e-05 0.000997744 1.91434e-07
-3.57427e-06 1.91434e-07 0.00101046
0.000614234 -3.03655e-05 7.1083e-08
-3.03655e-05 -3.79442e-05 4.3032e-06
7.1083e-08 4.3032e-06 -5.40367e-05
0.00227859 -4.56632e-05 1.75979e-05
-4.56632e-05 0.000925632 4.5378e-06
1.75979e-05 4.5378e-06 0.000941104
-0.00366386 -1.7728e-05 6.19663e-06
-1.7728e-05 0.000223664 4.07518e-05
6.19663e-06 4.07518e-05 -0.00125399
0.0025783 -5.27664e-05 8.89611e-07
-5.27664e-05 0.000958481 1.21462e-05
8.89611e-07 1.21462e-05 0.000154042
0.00105474 -5.65064e-05 -3.18874e-06
-5.65064e-05 0.000219099 -7.01722e-06
-3.18874e-06 -7.01722e-06 -3.34293e-05
0.000682875 4.53443e-05 -6.12904e-07
4.53443e-05 3.81474e-05 4.46769e-07
-6.12904e-07 4.46769e-07 -6.44769e-05
0.00134343 0.000186556 -8.09764e-07
0.000186556 0.000427147 7.75157e-07
-8.09764e-07 7.75157e-07 0.000292349
0.000733191 4.60675e-05 -2.1645e-06
4.60675e-05 7.38118e-05 -2.44309e-07
-2.1645e-06 -2.44309e-07 -3.78309e-05
0.000955711 9.46158e-07 6.63339e-07
9.46158e-07 0.00017809 -4.09858e-08
6.63339e-07 -4.09858e-08 8.77276e-05
0.00105334 7.49771e-05 1.70671e-06
7.49771e-05 0.000244083 5.37942e-07
1.70671e-06 5.37942e-07 0.000142244
0.000603641 1.66282e-05 3.14186e-07
1.66282e-05 -1.01961e-05 2.27653e-06
3.14186e-07 2.27653e-06 -0.000108115
0.000661701 2.87536e-05 -1.10462e-06
2.87536e-05 3.39915e-05 1.40844e-07
-1.10462e-06 1.40844e-07 -7.48876e-05
0.000774625 3.7884e-05 -1.28533e-07
3.7884e-05 9.2239e-05 -3.07877e-07
-1.28533e-07 -3.07877e-07 -1.77684e-05
0.000911244 7.75676e-05 1.97998e-07
7.75676e-05 0.000193549 -1.92521e-06
1.97998e-07 -1.92521e-06 6.12941e-05
0.000531575 0.000123458 3.43171e-06
0.000123458 -7.44489e-05 -6.12744e-06
3.43171e-06 -6.12744e-06 -0.000169617
0.000794854 5.45873e-05 4.5896e-07
5.45873e-05 0.000110205 -4.12943e-07
4.5896e-07 -4.12943e-07 3.59886e-06
0.000882154 7.56674e-05 6.89126e-07
7.56674e-05 0.00019568 1.67065e-06
6.89126e-07 1.67065e-06 9.50499e-05
-0.0052585 -0.00056742 -0.000201883
-0.00056742 -0.00179067 2.36319e-05
-0.000201883 2.36319e-05 -0.00242482
-0.00185858 -0.000410891 8.89074e-05
-0.000410891 0.000537853 3.96878e-05
8.89074e-05 3.96878e-05 -0.000402561
0.00300738 0.00010967 -8.08546e-05
0.00010967 0.00120519 -6.56268e-05
-8.08546e-05 -6.56268e-05 -0.000463264
-0.00685788 -0.00127358 0.000212902
-0.00127358 -0.00363967 0.000202689
0.000212902 0.000202689 -0.0017615
0.00905516 -0.000910631 -4.82625e-05
-0.000910631 0.00273671 5.24633e-05
-4.82625e-05 5.24633e-05 0.00280184
-1.80524e-05 0.000692272 8.20815e-06
0.000692272 -7.78143e-05 -2.93245e-05
8.20815e-06 -2.93245e-05 -0.00321509
0.00378468 -6.36266e-05 -0.000143618
-6.36266e-05 0.000934659 5.89379e-05
-0.000143618 5.89379e-05 0.000213045
0.00288153 0.0002461 -2.19726e-05
0.0002461 0.000570944 1.30237e-05
-2.19726e-05 1.30237e-05 0.000258705
0.00702023 -0.0010834 -7.89602e-05
-0.0010834 0.00341471 3.9235e-05
-7.89602e-05 3.9235e-05 0.00361694
0.000861542 0.000457305 5.07943e-06
0.000457305 0.000668158 -7.10728e-06
5.07943e-06 -7.10728e-06 -0.00193453
0.00201121 0.00052499 -8.80136e-05
0.00052499 0.000557531 -7.14069e-05
-8.80136e-05 -7.14069e-05 -4.02344e-05
0.00371551 0.000875809 -0.000155237
0.000875809 0.000600011 -7.7406e-05
-0.000155237 -7.7406e-05 -0.00147972
0.00206277 0.000467348 1.26961e-05
0.000467348 0.000505427 -1.7076e-05
1.26961e-05 -1.7076e-05 0.000320858
0.000733256 0.000198231 -5.14787e-06
0.000198231 9.14667e-05 1.28693e-06
-5.14787e-06 1.28693e-06 2.59789e-06
0.00107458 5.88635e-05 6.34426e-07
5.88635e-05 0.000305096 -2.26441e-06
6.34426e-07 -2.26441e-06 0.000225109
-0.000574637 0.000155665 -3.31819e-05
0.000155665 -0.000228927 -3.25921e-05
-3.31819e-05 -3.25921e-05 -0.000669787
0.00248369 0.000302789 -1.0305e-05
0.000302789 0.00115058 -1.01346e-05
-1.0305e-05 -1.01346e-05 0.00101272
0.00119067 0.000418858 1.10503e-05
0.000418858 0.000131672 -3.33754e-06
1.10503e-05 -3.33754e-06 -0.000102186
0.00261641 0.000636982 7.44115e-05
0.000636982 0.000228998 2.94026e-05
7.44115e-05 2.94026e-05 0.000184967
-0.00415584 -3.36294e-05 -0.00021747
-3.36294e-05 -0.00253345 -5.76563e-06
-0.00021747 -5.76563e-06 -0.00192911
-0.0014514 4.56729e-05 7.50682e-05
4.56729e-05 0.00143039 1.25625e-06
7.50682e-05 1.25625e-06 5.75372e-05
0.00161054 -4.88418e-05 -5.53055e-05
-4.88418e-05 0.000572979 1.35963e-05
-5.53055e-05 1.35963e-05 -5.79045e-05
0.00273521 -0.000205947 -5.32966e-05
-0.000205947 0.00070975 -3.12774e-05
-5.32966e-05 -3.12774e-05 0.000975406
0.00267357 -0.000784842 -3.93348e-05
-0.000784842 0.000421611 -2.85433e-07
-3.93348e-05 -2.85433e-07 -0.000290636
0.0018997 0.000104723 -2.21795e-05
0.000104723 0.002492 2.94703e-05
-2.21795e-05 2.94703e-05 0.00181388
0.000744445 -0.000428654 0.000107712
-0.000428654 -0.000293136 -9.02767e-05
0.000107712 -9.02767e-05 -0.00266254
0.00890637 0.000686044 1.53394e-05
0.000686044 0.00432621 1.02787e-05
1.53394e-05 1.02787e-05 0.00398132
0.00224632 -0.000491892 -1.39503e-05
-0.000491892 0.000439351 5.16611e-06
-1.39503e-05 5.16611e-06 0.000412918
-0.0010895 0.000379002 2.53246e-05
0.000379002 -0.000511143 -8.85646e-06
2.53246e-05 -8.85646e-06 -0.000859619
0.00380617 -5.94645e-05 -2.79391e-05
-5.94645e-05 0.00017608 3.90341e-05
-2.79391e-05 3.90341e-05 -0.00178054
0.00582995 -0.000924352 -3.0336e-05
-0.000924352 0.00141792 1.12386e-05
-3.0336e-05 1.12386e-05 0.000613044
-0.000469098 -0.000230615 2.89043e-05
-0.000230615 -0.000796526 -6.76065e-06
2.89043e-05 -6.76065e-06 -0.00102972
0.00851099 -0.000289758 3.45711e-05
-0.000289758 0.00216169 -2.52887e-05
3.45711e-05 -2.52887e-05 0.000995127
0.00361302 -0.000408133 4.24573e-05
-0.000408133 0.000137744 -2.50005e-05
4.24573e-05 -2.50005e-05 -0.000265192
-0.000702276 -0.000188208 -2.08193e-05
-0.000188208 -0.00103904 6.44169e-06
-2.08193e-05 6.44169e-06 -0.000957667
0.000896442 -0.000288973 -4.78168e-06
-0.000288973 -0.000365564 -8.31183e-07
-4.78168e-06 -8.31183e-07 -0.00032837
0.00258378 -0.000391522 1.70754e-05
-0.000391522 0.000381029 -1.43605e-05
1.70754e-05 -1.43605e-05 0.000395274
0.000921191 -0.000327293 -1.01334e-05
-0.000327293 -0.000168688 -3.67907e-06
-1.01334e-05 -3.67907e-06 -0.000378553
0.00167042 -0.000392903 -7.83201e-07
-0.000392903 4.80487e-05 -3.8593e-07
-7.83201e-07 -3.8593e-07 -0.000107055
0.00207052 -0.000359976 -5.59953e-06
-0.000359976 0.000158273 -9.86358e-08
-5.59953e-06 -9.86358e-08 5.26015e-05
0.00127969 -0.000337222 -8.56271e-07
-0.000337222 -7.30572e-07 1.163e-06
-8.56271e-07 1.163e-06 -0.000220087
0.00176916 -0.000335659 -2.33088e-06
-0.000335659 0.000118973 -4.21891e-07
-2.33088e-06 -4.21891e-07 -4.23861e-05
0.00181052 -0.000274735 -3.4271e-06
-0.000274735 5.2227e-05 -1.25124e-06
-3.4271e-06 -1.25124e-06 -5.42795e-05
0.00148098 -0.000301671 1.29895e-06
-0.000301671 4.0479e-05 4.15768e-06
1.29895e-06 4.15768e-06 -0.00015516
0.00170723 -0.000269848 -1.42201e-07
-0.000269848 9.4686e-05 3.68432e-07
-1.42201e-07 3.68432e-07 -4.52045e-05
0.00177777 -0.000228429 -1.19027e-06
-0.000228429 0.000100415 -1.96842e-06
-1.19027e-06 -1.96842e-06 -2.51877e-06
0.00179417 -0.000206319 -9.78986e-07
-0.000206319 0.000163879 -1.09982e-06
-9.78986e-07 -1.09982e-06 5.19266e-05
0.00159068 -0.000218131 -2.39495e-06
-0.000218131 5.66132e-05 2.71116e-06
-2.39495e-06 2.71116e-06 -7.51906e-05
0.0017177 -0.000220275 2.11196e-07
-0.000220275 0.000167472 -5.46725e-06
2.11196e-07 -5.46725e-06 1.85418e-05
0.00164708 -0.000242903 -3.39176e-06
-0.000242903 0.000197228 -1.4564e-06
-3.39176e-06 -1.4564e-06 1.40896e-05
0.0015775 -0.00024842 1.25823e-06
-0.00024842 0.000134788 5.09128e-07
1.25823e-06 5.09128e-07 -5.05894e-05
0.00147079 -0.000243302 2.62714e-07
-0.000243302 4.38479e-05 6.11953e-06
2.62714e-07 6.11953e-06 -0.000124551
0.00118015 -0.000220558 -5.91339e-06
-0.000220558 4.59777e-05 2.23509e-06
-5.91339e-06 2.23509e-06 -0.000143069
0.00127116 -0.000246337 8.67714e-07
-0.000246337 3.78328e-05 -4.42548e-07
8.67714e-07 -4.42548e-07 -0.000164833
0.00162196 -0.000283685 3.90215e-06
-0.000283685 0.000215517 -1.64199e-07
3.90215e-06 -1.64199e-07 -1.46349e-06
0.00108426 -0.000187468 -1.57692e-06
-0.000187468 0.000156564 2.92736e-06
-1.57692e-06 2.92736e-06 -1.60574e-05
0.00123603 -0.000220221 1.075e-06
-0.000220221 0.000187757 8.7613e-07
1.075e-06 8.7613e-07 -2.76906e-06
0.000403307 -0.000180642 -1.12485e-07
-0.000180642 -0.000338884 -6.23829e-06
-1.12485e-07 -6.23829e-06 -0.000537403
0.000746246 -9.83823e-05 -4.0303e-06
-9.83823e-05 4.59003e-05 3.42514e-06
-4.0303e-06 3.42514e-06 -7.33721e-05
0.00104568 -0.000173357 5.46895e-08
-0.000173357 0.000188958 -6.64437e-07
5.46895e-08 -6.64437e-07 3.0139e-05
0.00113615 -0.0001982 -1.73961e-06
-0.0001982 0.000218963 -2.50079e-06
-1.73961e-06 -2.50079e-06 4.32419e-05
0.000469964 3.91477e-05 2.43195e-07
3.91477e-05 -7.73809e-05 7.87211e-06
2.43195e-07 7.87211e-06 -0.000121093
0.000744867 -5.68029e-05 3.71845e-07
-5.68029e-05 7.22689e-05 3.3615e-07
3.71845e-07 3.3615e-07 -3.61234e-05
0.00100006 -0.000128378 8.37336e-07
-0.000128378 0.000215392 -1.04619e-07
8.37336e-07 -1.04619e-07 6.62652e-05
0.00262323 0.000118406 -4.05765e-05
0.000118406 0.00117056 2.29881e-06
-4.05765e-05 2.29881e-06 0.00116955
0.000561918 6.10566e-05 -1.64186e-07
6.10566e-05 -2.04708e-05 -4.18525e-07
-1.64186e-07 -4.18525e-07 -5.61109e-05
0.000784369 -4.6602e-05 2.60019e-06
-4.6602e-05 9.88895e-05 -4.0365e-06
2.60019e-06 -4.0365e-06 1.11774e-05
0.00165915 8.46685e-05 1.75055e-05
8.46685e-05 0.00060894 -1.82277e-07
1.75055e-05 -1.82277e-07 0.000608212
0.000620331 6.80796e-05 -1.1413e-06
6.80796e-05 7.57378e-06 -5.2731e-06
-1.1413e-06 -5.2731e-06 -2.13617e-05
0.00240623 9.48463e-05 3.33925e-05
9.48463e-05 0.00103358 -2.73161e-06
3.33925e-05 -2.73161e-06 0.00103896
0.000896816 9.30536e-05 9.07782e-07
9.30536e-05 0.000149384 5.62311e-07
9.07782e-07 5.62311e-07 3.86143e-05
0.000712045 3.84795e-05 -2.38304e-07
3.84795e-05 4.5676e-05 4.84082e-07
-2.38304e-07 4.84082e-07 -5.30903e-05
0.000725645 -1.68815e-06 -3.27601e-08
-1.68815e-06 6.23183e-05 -1.68614e-06
-3.27601e-08 -1.68614e-06 -3.80361e-05
0.0008759 5.26113e-05 7.36622e-07
5.26113e-05 0.000144079 6.54981e-07
7.36622e-07 6.54981e-07 4.32453e-05
0.000736459 3.83588e-08 2.61166e-07
3.83588e-08 6.32323e-05 9.77313e-09
2.61166e-07 9.77313e-09 -2.91985e-05
0.000677312 -1.96083e-05 -1.28206e-06
-1.96083e-05 1.65984e-05 -3.30598e-06
-1.28206e-06 -3.30598e-06 -4.8288e-05
0.000587412 -5.50529e-05 -4.34662e-09
-5.50529e-05 -3.09296e-05 -5.32127e-06
-4.34662e-09 -5.32127e-06 -5.72804e-05
0.000666 -1.56342e-05 1.96847e-07
-1.56342e-05 6.31354e-06 -8.8285e-08
1.96847e-07 -8.8285e-08 -5.38343e-05
0.000691753 -1.49774e-05 2.03067e-07
-1.49774e-05 2.86496e-05 1.39945e-06
2.03067e-07 1.39945e-06 -5.27129e-05
0.00256508 -8.31117e-05 -3.50806e-05
-8.31117e-05 0.00111022 -3.64957e-06
-3.50806e-05 -3.64957e-06 0.00111801
0.000584244 -4.436e-05 -3.55633e-07
-4.436e-05 -4.21525e-05 3.92648e-08
-3.55633e-07 3.92648e-08 -6.48559e-05
0.000667699 3.89578e-07 1.76398e-06
3.89578e-07 4.78922e-06 2.57445e-06
1.76398e-06 2.57445e-06 -5.24817e-05
0.0024881 -7.13386e-05 -3.52551e-06
-7.13386e-05 0.00105866 2.22789e-07
-3.52551e-06 2.22789e-07 0.00106883
0.000600112 -3.65019e-05 3.18144e-07
-3.65019e-05 -4.03553e-05 4.54629e-06
3.18144e-07 4.54629e-06 -5.97886e-05
0.00237023 -5.82876e-05 2.16787e-05
-5.82876e-05 0.00098373 4.3915e-06
2.16787e-05 4.3915e-06 0.000996763
0.000603377 0.000249608 -7.01043e-05
0.000249608 0.00115112 5.30969e-05
-7.01043e-05 5.30969e-05 0.00035564
-0.00122364 -0.000110484 5.83523e-06
-0.000110484 0.00108939 1.18616e-05
5.83523e-06 1.18616e-05 -0.000306857
0.00253382 -7.58241e-05 -5.39895e-05
-7.58241e-05 0.00106364 -8.78884e-06
-5.39895e-05 -8.78884e-06 0.000269566
0.00060961 1.51318e-05 1.65496e-06
1.51318e-05 -5.29858e-06 -1.31969e-07
1.65496e-06 -1.31969e-07 -0.00010371
0.000703298 2.40539e-05 8.65005e-07
2.40539e-05 5.5062e-05 5.9307e-07
8.65005e-07 5.9307e-07 -5.50171e-05
0.00107481 0.000159707 -7.54251e-07
0.000159707 0.000281236 4.94966e-07
-7.54251e-07 4.94966e-07 0.000151838
0.00131048 0.000209879 9.71897e-07
0.000209879 0.000371038 -4.83355e-07
9.71897e-07 -4.83355e-07 0.00021406
0.000935443 0.000118756 -3.95024e-06
0.000118756 0.00021543 -1.58031e-06
-3.95024e-06 -1.58031e-06 7.82076e-05
0.000874826 7.69999e-05 1.6824e-06
7.69999e-05 0.000154131 1.73172e-06
1.6824e-06 1.73172e-06 4.28969e-05
0.00076672 4.50219e-05 2.17973e-06
4.50219e-05 8.84188e-05 1.69051e-06
2.17973e-06 1.69051e-06 -2.12551e-05
0.000703793 9.34871e-05 -2.12446e-06
9.34871e-05 7.66651e-05 -2.04249e-06
-2.12446e-06 -2.04249e-06 -4.96454e-05
-0.000441242 6.90224e-05 -9.56591e-07
6.90224e-05 -0.000590483 -6.45777e-08
-9.56591e-07 -6.45777e-08 -0.000726744
0.00112338 0.000192398 3.06204e-07
0.000192398 0.000216133 -4.24034e-06
3.06204e-07 -4.24034e-06 0.000104684
0.00225529 0.000416334 3.76344e-06
0.000416334 0.000543031 -1.2629e-05
3.76344e-06 -1.2629e-05 0.000360188
0.000606216 0.00013087 -3.72473e-06
0.00013087 -9.23061e-06 -4.40466e-07
-3.72473e-06 -4.40466e-07 -0.000104885
0.000649251 2.73249e-05 1.08347e-06
2.73249e-05 4.13146e-05 -1.17359e-06
1.08347e-06 -1.17359e-06 -5.12689e-05
0.0114682 0.000338598 -6.69907e-05
0.000338598 0.00351625 2.2554e-05
-6.69907e-05 2.2554e-05 0.00221931
-0.0012271 -0.000467613 -0.00010812
-0.000467613 0.000534494 -2.8035e-05
-0.00010812 -2.8035e-05 -0.00027258
-0.000186441 -0.000568512 2.86279e-05
-0.000568512 0.00080469 -3.00677e-05
2.86279e-05 -3.00677e-05 -0.000180369
-0.00352817 -0.000499848 -1.60279e-06
-0.000499848 -0.0014666 7.51159e-05
-1.60279e-06 7.51159e-05 -0.00131988
0.00982693 0.00030996 3.6365e-05
0.00030996 0.0047943 -8.66392e-06
3.6365e-05 -8.66392e-06 0.00181108
0.00152366 0.000289586 -3.9892e-05
0.000289586 1.58416e-06 -8.15294e-06
-3.9892e-05 -8.15294e-06 -0.000194724
0.00140524 0.000504749 -2.91497e-05
0.000504749 0.000138946 -1.23032e-05
-2.91497e-05 -1.23032e-05 -0.000334296
0.00863053 0.000247816 3.76572e-05
0.000247816 0.00301222 1.60581e-05
3.76572e-05 1.60581e-05 0.00129551
0.00495755 0.000902546 -4.74615e-06
0.000902546 0.000867348 -3.41046e-05
-4.74615e-06 -3.41046e-05 0.000302042
0.0020617 0.000526846 1.01117e-06
0.000526846 0.000303468 5.80632e-06
1.01117e-06 5.80632e-06 0.000139954
0.000947001 0.000344475 4.43091e-06
0.000344475 3.33948e-05 -3.61564e-06
4.43091e-06 -3.61564e-06 -0.000148069
0.00101646 0.000197018 -1.46537e-05
0.000197018 0.000252169 9.71351e-06
-1.46537e-05 9.71351e-06 0.00016593
0.00214795 0.000513848 -2.94859e-05
0.000513848 0.00049541 -1.38818e-05
-2.94859e-05 -1.38818e-05 0.000277234
0.00232522 0.00061516 -7.49092e-06
0.00061516 9.90525e-05 1.52488e-05
-7.49092e-06 1.52488e-05 1.157e-05
0.00044321 -0.0002418 -2.15929e-05
-0.0002418 -0.00239018 -6.61406e-06
-2.15929e-05 -6.61406e-06 -0.00285642
0.0023664 -0.000228393 -1.25038e-07
-0.000228393 0.00138123 -1.28779e-05
-1.25038e-07 -1.28779e-05 0.00135379
-0.00319755 7.28971e-06 7.79016e-05
7.28971e-06 0.000741815 -7.1611e-06
7.79016e-05 -7.1611e-06 -0.000784237
0.00247662 -0.000566309 -4.45527e-05
-0.000566309 0.000490647 3.54933e-06
-4.45527e-05 3.54933e-06 0.000394064
0.00366018 -0.000838381 1.64927e-05
-0.000838381 0.000875127 -1.49369e-05
1.64927e-05 -1.49369e-05 -0.000247177
0.00120025 -0.000220229 0.000113105
-0.000220229 0.00130015 1.59256e-05
0.000113105 1.59256e-05 0.000737803
0.0104667 -2.04346e-05 -8.59467e-05
-2.04346e-05 0.00370479 4.55862e-05
-8.59467e-05 4.55862e-05 0.00199936
0.000709545 -0.000293038 -1.6337e-05
-0.000293038 -0.000294647 -1.69412e-06
-1.6337e-05 -1.69412e-06 -0.000425109
0.00746806 6.50222e-05 -1.54389e-05
6.50222e-05 0.00156851 2.37346e-05
-1.54389e-05 2.37346e-05 0.000629884
0.00444913 -0.000499319 6.1218e-05
-0.000499319 0.000319212 -2.09466e-07
6.1218e-05 -2.09466e-07 -0.000350037
0.00173468 -0.000284493 2.61766e-05
-0.000284493 0.000230341 -6.88894e-06
2.61766e-05 -6.88894e-06 -4.8111e-05
0.00301054 -0.000148731 -7.41382e-05
-0.000148731 0.000260648 -1.12493e-05
-7.41382e-05 -1.12493e-05 4.24961e-06
-0.000819221 -0.000199151 -1.80796e-05
-0.000199151 -0.00129173 4.60603e-06
-1.80796e-05 4.60603e-06 -0.00121884
0.00153962 -0.000344719 6.59414e-07
-0.000344719 -0.000154747 -8.38584e-07
6.59414e-07 -8.38584e-07 -0.000146138
0.00198908 -0.00026812 7.07331e-06
-0.00026812 -7.09166e-06 -5.7178e-06
7.07331e-06 -5.7178e-06 2.00268e-05
0.00140702 -0.000373304 -1.31016e-06
-0.000373304 -8.29363e-05 2.22522e-07
-1.31016e-06 2.22522e-07 -0.000232692
0.00180553 -0.000334365 -1.5468e-06
-0.000334365 3.83543e-05 -6.25723e-08
-1.5468e-06 -6.25723e-08 -6.49854e-05
0.0020291 -0.000249698 -1.94929e-06
-0.000249698 8.69324e-05 1.62431e-06
-1.94929e-06 1.62431e-06 3.73931e-05
0.00148946 -0.00031632 -1.96046e-06
-0.00031632 -2.69321e-05 3.10124e-06
-1.96046e-06 3.10124e-06 -0.000187424
0.00182234 -0.000273313 4.96693e-07
-0.000273313 6.01279e-05 1.29384e-06
4.96693e-07 1.29384e-06 -4.60231e-05
0.00177895 -0.000226726 -7.30869e-07
-0.000226726 3.74357e-05 9.94286e-07
-7.30869e-07 9.94286e-07 -4.29234e-05
0.00162274 -0.000261142 2.1359e-06
-0.000261142 5.2214e-05 4.93498e-06
2.1359e-06 4.93498e-06 -8.59173e-05
0.00173077 -0.000227639 5.75691e-08
-0.000227639 7.47495e-05 1.22038e-06
5.75691e-08 1.22038e-06 -2.90571e-05
0.00195263 -0.000219236 8.99732e-07
-0.000219236 0.000222477 -2.42715e-07
8.99732e-07 -2.42715e-07 0.000127745
0.00172468 -0.000206315 -3.62676e-06
-0.000206315 0.000118153 3.32392e-06
-3.62676e-06 3.32392e-06 8.88845e-06
0.00175286 -0.00020695 2.45639e-06
-0.00020695 0.000168009 -3.38263e-06
2.45639e-06 -3.38263e-06 4.2222e-05
0.00160753 -0.000216983 5.44199e-07
-0.000216983 6.65212e-05 7.60386e-06
5.44199e-07 7.60386e-06 -6.15449e-05
0.00171214 -0.000221155 7.68803e-07
-0.000221155 0.000165091 -8.56727e-07
7.68803e-07 -8.56727e-07 1.56371e-05
0.00162385 -0.00020992 -1.75101e-06
-0.00020992 0.000157799 -2.76335e-06
-1.75101e-06 -2.76335e-06 -1.4628e-06
0.00135002 -0.00021059 -6.97365e-06
-0.00021059 7.9815e-05 6.48474e-07
-6.97365e-06 6.48474e-07 -9.32441e-05
0.00167675 -0.00024543 6.61871e-07
-0.00024543 0.000216481 -7.29709e-07
6.61871e-07 -7.29709e-07 3.2148e-05
0.00163201 -0.000251253 2.0187e-06
-0.000251253 0.000163957 3.67677e-06
2.0187e-06 3.67677e-06 -2.13404e-05
0.00130616 -0.000209313 -5.43805e-06
-0.000209313 0.000192798 3.25404e-06
-5.43805e-06 3.25404e-06 1.74108e-05
0.00121072 -0.000221887 -1.49234e-06
-0.000221887 6.36752e-05 9.76215e-07
-1.49234e-06 9.76215e-07 -0.000125077
0.00115267 -0.00023582 3.84979e-06
-0.00023582 -2.50789e-05 -1.59484e-06
3.84979e-06 -1.59484e-06 -0.00022513
0.000751147 -0.000119474 -4.80031e-06
-0.000119474 1.09365e-05 4.40916e-06
-4.80031e-06 4.40916e-06 -0.000118377
0.00110051 -0.000189124 8.28482e-07
-0.000189124 0.000162129 4.67768e-08
8.28482e-07 4.67768e-08 -1.03772e-05
0.0012284 -0.000218208 2.23717e-06
-0.000218208 0.000179775 -2.27363e-06
2.23717e-06 -2.27363e-06 -1.01629e-05
0.000463503 -2.01131e-05 -6.96238e-06
-2.01131e-05 -0.000101073 9.11193e-06
-6.96238e-06 9.11193e-06 -0.000151151
0.000811773 -0.000110491 -1.58358e-07
-0.000110491 8.2311e-05 1.44474e-07
-1.58358e-07 1.44474e-07 -3.86158e-05
0.00110506 -0.000175453 1.09382e-06
-0.000175453 0.000219545 -1.77326e-06
1.09382e-06 -1.77326e-06 6.08174e-05
0.00306902 0.000138263 -5.2905e-05
0.000138263 0.00142876 2.21244e-06
-5.2905e-05 2.21244e-06 0.00142262
0.000565316 2.03472e-05 4.44672e-07
2.03472e-05 -2.7838e-05 -4.05627e-07
4.44672e-07 -4.05627e-07 -7.07957e-05
0.00082331 -9.80539e-05 3.75005e-06
-9.80539e-05 0.000115068 -3.32334e-06
3.75005e-06 -3.32334e-06 4.05432e-06
0.00275109 0.000118832 3.78077e-06
0.000118832 0.00124223 2.96666e-07
3.78077e-06 2.96666e-07 0.0012413
0.000645035 5.01212e-05 1.88163e-06
5.01212e-05 2.44087e-05 -6.45399e-06
1.88163e-06 -6.45399e-06 -1.07715e-05
0.00255524 0.000105086 4.28643e-05
0.000105086 0.00112472 -2.34136e-06
4.28643e-05 -2.34136e-06 0.00112765
0.000962204 0.000169111 1.10895e-06
0.000169111 0.00016345 -1.61752e-06
1.10895e-06 -1.61752e-06 1.77008e-05
0.000826095 0.000120993 6.95159e-07
0.000120993 0.00011664 -1.08865e-07
6.95159e-07 -1.08865e-07 -2.41261e-07
0.000599083 1.34533e-05 -7.70959e-07
1.34533e-05 -1.49899e-05 -8.50597e-07
-7.70959e-07 -8.50597e-07 -0.000121199
0.000537616 6.09089e-06 5.18875e-07
6.09089e-06 -5.45175e-05 6.02273e-07
5.18875e-07 6.02273e-07 -0.000149134
0.000651244 -1.52689e-05 -1.05835e-07
-1.52689e-05 1.53401e-05 2.9128e-07
-1.05835e-07 2.9128e-07 -8.16344e-05
0.000662245 -1.8252e-05 -1.33376e-06
-1.8252e-05 1.22956e-05 -3.48205e-06
-1.33376e-06 -3.48205e-06 -6.04796e-05
0.000677794 -1.74074e-05 2.46989e-07
-1.74074e-05 2.42883e-05 1.69718e-06
2.46989e-07 1.69718e-06 -6.318e-05
0.000650815 -2.4102e-05 3.38767e-07
-2.4102e-05 2.93613e-06 -1.89542e-07
3.38767e-07 -1.89542e-07 -6.21385e-05
0.000586771 -6.22395e-05 1.50152e-07
-6.22395e-05 -2.1721e-05 -5.81838e-06
1.50152e-07 -5.81838e-06 -5.16112e-05
0.00260338 -9.382e-05 -4.02244e-05
-9.382e-05 0.00113917 -3.15407e-06
-4.02244e-05 -3.15407e-06 0.00114482
0.000575585 -5.35693e-05 -1.29585e-07
-5.35693e-05 -3.83701e-05 4.30859e-08
-1.29585e-07 4.30859e-08 -6.43321e-05
0.000640488 -1.35477e-05 1.98292e-06
-1.35477e-05 -7.46287e-06 2.84775e-06
1.98292e-06 2.84775e-06 -6.76718e-05
0.00256012 -8.2717e-05 -3.3009e-06
-8.2717e-05 0.00110687 2.51937e-07
-3.3009e-06 2.51937e-07 0.00111467
0.000583001 -4.23897e-05 5.79854e-07
-4.23897e-05 -4.33091e-05 4.827e-06
5.79854e-07 4.827e-06 -6.57206e-05
0.00245837 -7.03854e-05 2.68729e-05
-7.03854e-05 0.0010408 4.17948e-06
2.68729e-05 4.17948e-06 0.00105125
0.00995193 0.000359612 0.000137254
0.000359612 0.00271338 6.38544e-05
0.000137254 6.38544e-05 0.00176645
-0.00235021 -0.000436533 -7.24022e-05
-0.000436533 -0.00154352 -7.16683e-06
-7.24022e-05 -7.16683e-06 -0.00167846
-0.00319846 7.96962e-05 -4.10805e-05
7.96962e-05 0.000100907 -2.50884e-05
-4.10805e-05 -2.50884e-05 -0.00157962
0.00067232 -3.25944e-06 3.79422e-06
-3.25944e-06 3.32476e-05 1.85073e-06
3.79422e-06 1.85073e-06 -7.38048e-05
0.000810944 0.000143942 -6.08739e-07
0.000143942 0.000137095 1.34846e-06
-6.08739e-07 1.34846e-06 1.2659e-05
0.00111701 0.000136596 3.72949e-07
0.000136596 0.000314963 -3.76778e-08
3.72949e-07 -3.76778e-08 0.000177465
0.00109966 0.000191657 -2.00135e-06
0.000191657 0.000255453 2.61161e-07
-2.00135e-06 2.61161e-07 0.000102406
0.00157712 0.000244342 1.67135e-05
0.000244342 0.000462185 -9.66113e-07
1.67135e-05 -9.66113e-07 0.000276337
0.00034875 0.000132114 -1.69671e-06
0.000132114 -0.000140894 -1.62416e-06
-1.69671e-06 -1.62416e-06 -0.000286832
0.000515668 9.67641e-05 -1.23773e-06
9.67641e-05 -2.2736e-05 -1.53362e-06
-1.23773e-06 -1.53362e-06 -0.000147373
0.000257449 0.000129952 3.79966e-07
0.000129952 -0.000209527 1.08147e-06
3.79966e-07 1.08147e-06 -0.000359727
0.00102605 0.000185 -1.13614e-06
0.000185 0.000169411 2.64231e-07
-1.13614e-06 2.64231e-07 5.36715e-05
0.0002525 0.000180258 2.30481e-06
0.000180258 -0.00035604 -8.97508e-07
2.30481e-06 -8.97508e-07 -0.000502317
0.00317363 0.00044718 -3.48476e-06
0.00044718 0.00104246 -4.38472e-06
-3.48476e-06 -4.38472e-06 0.000876079
0.00191387 0.000425487 -3.64179e-06
0.000425487 0.000245479 1.85669e-06
-3.64179e-06 1.85669e-06 8.09803e-05
0.0015926 0.000366398 4.20752e-06
0.000366398 0.000209911 -3.05879e-06
4.20752e-06 -3.05879e-06 4.19015e-05
0.00052156 0.000138763 -3.26306e-06
0.000138763 -3.69078e-05 5.48552e-06
-3.26306e-06 5.48552e-06 -0.000133206
0.00398708 0.000349505 -5.86305e-06
0.000349505 5.92176e-05 1.09335e-05
-5.86305e-06 1.09335e-05 -7.33821e-05
0.00707272 0.000235194 3.7594e-05
0.000235194 0.00144213 2.95229e-05
3.7594e-05 2.95229e-05 8.03166e-05
0.00593661 -0.000926042 2.50897e-05
-0.000926042 0.00319936 -5.58105e-05
2.50897e-05 -5.58105e-05 0.00290003
0.00471145 0.000682579 0.000296706
0.000682579 0.000954314 9.9997e-05
0.000296706 9.9997e-05 -0.00168426
0.00148 0.000487516 1.98233e-05
0.000487516 -3.72614e-05 2.41314e-05
1.98233e-05 2.41314e-05 -0.000141477
0.00302467 0.000702222 -7.19987e-05
0.000702222 7.93252e-06 -2.34034e-05
-7.19987e-05 -2.34034e-05 -0.000330481
0.0032229 0.000603727 4.86324e-05
0.000603727 0.000549354 2.36078e-05
4.86324e-05 2.36078e-05 0.000560038
0.00260537 0.000562563 3.08649e-06
0.000562563 0.000529946 7.45574e-06
3.08649e-06 7.45574e-06 0.000383658
0.00066572 0.000301122 -4.16876e-06
0.000301122 -6.94283e-05 1.14867e-05
-4.16876e-06 1.14867e-05 -0.000241327
0.00276112 0.00066653 -9.18812e-05
0.00066653 0.000284975 -3.95469e-05
-9.18812e-05 -3.95469e-05 0.000145662
0.00322152 -0.000177978 -0.000113781
-0.000177978 0.000535391 5.37514e-06
-0.000113781 5.37514e-06 0.000191522
0.00956555 -0.000191335 4.65396e-06
-0.000191335 0.00298336 -3.7253e-06
4.65396e-06 -3.7253e-06 0.00231709
-0.00790967 -0.000295223 0.000234539
-0.000295223 -0.00424673 -3.17563e-06
0.000234539 -3.17563e-06 -0.00406628
0.00135752 -0.000345392 -3.51142e-05
-0.000345392 -6.57168e-05 8.66667e-06
-3.51142e-05 8.66667e-06 -0.00014309
0.00581777 -0.000585255 9.37487e-05
-0.000585255 0.00111871 1.21203e-05
9.37487e-05 1.21203e-05 0.000434103
0.00143106 -0.000391327 6.57873e-05
-0.000391327 -0.00150763 5.40748e-05
6.57873e-05 5.40748e-05 -0.00250256
0.00128186 -0.000234111 1.82521e-05
-0.000234111 -3.12836e-05 -7.26141e-07
1.82521e-05 -7.26141e-07 -0.000213097
0.00223489 -4.90021e-05 -3.07379e-06
-4.90021e-05 -0.000278885 6.56855e-06
-3.07379e-06 6.56855e-06 -0.000520467
0.003698 -0.00025226 1.53607e-05
-0.00025226 0.000952366 -4.84513e-06
1.53607e-05 -4.84513e-06 0.000929626
0.00326986 -4.11496e-05 6.41647e-05
-4.11496e-05 0.000731019 -3.18539e-06
6.41647e-05 -3.18539e-06 0.000709878
0.000302238 -0.000292745 -7.65348e-06
-0.000292745 -0.00079047 4.74353e-06
-7.65348e-06 4.74353e-06 -0.000782394
0.00173476 -0.000267017 -5.47313e-07
-0.000267017 -0.000138626 9.40517e-07
-5.47313e-07 9.40517e-07 -0.000119547
0.00170468 -0.000158383 8.32232e-06
-0.000158383 -0.000140865 -5.54655e-07
8.32232e-06 -5.54655e-07 -0.000102255
0.00157514 -0.000312979 4.2098e-06
-0.000312979 -7.07731e-05 -5.51039e-07
4.2098e-06 -5.51039e-07 -0.000170726
0.00190807 -0.000246269 2.1395e-06
-0.000246269 2.97979e-05 9.26669e-07
2.1395e-06 9.26669e-07 -2.28089e-05
0.00186396 -0.000181797 9.96119e-07
-0.000181797 6.58003e-05 1.82731e-06
9.96119e-07 1.82731e-06 2.30839e-05
0.00180239 -0.000271032 6.953e-06
-0.000271032 4.94416e-05 3.18211e-06
6.953e-06 3.18211e-06 -5.6285e-05
0.00184025 -0.00022728 1.11149e-06
-0.00022728 7.8534e-05 4.45758e-07
1.11149e-06 4.45758e-07 -1.9173e-06
0.00198469 -0.000193672 -5.84251e-07
-0.000193672 0.000213605 1.07309e-06
-5.84251e-07 1.07309e-06 0.000134025
0.00168144 -0.000226008 2.02269e-06
-0.000226008 4.84506e-05 3.90153e-06
2.02269e-06 3.90153e-06 -5.60926e-05
0.00178675 -0.000213327 -8.72705e-09
-0.000213327 0.000134051 5.27511e-07
-8.72705e-09 5.27511e-07 3.8326e-05
0.00164696 -0.000198573 4.12505e-06
-0.000198573 8.53752e-05 -1.95672e-06
4.12505e-06 -1.95672e-06 -2.47835e-05
0.00165555 -0.000206375 -3.41857e-06
-0.000206375 7.29958e-05 7.07783e-06
-3.41857e-06 7.07783e-06 -3.3605e-05
0.00180601 -0.000207742 -1.79648e-06
-0.000207742 0.000197718 3.04999e-08
-1.79648e-06 3.04999e-08 7.49245e-05
0.00170005 -0.000192623 8.08345e-07
-0.000192623 0.000186142 -1.73083e-06
8.08345e-07 -1.73083e-06 4.27417e-05
0.00170726 -0.000221832 1.41731e-06
-0.000221832 0.000162863 3.29114e-06
1.41731e-06 3.29114e-06 1.29472e-05
0.00167723 -0.000212577 7.57636e-07
-0.000212577 0.000189184 -7.52998e-07
7.57636e-07 -7.52998e-07 2.89288e-05
0.00161889 -0.000197206 -3.20046e-06
-0.000197206 0.000212053 -2.50015e-07
-3.20046e-06 -2.50015e-07 5.3795e-05
0.00102433 -0.000178553 -8.78663e-06
-0.000178553 -3.92837e-05 1.88779e-06
-8.78663e-06 1.88779e-06 -0.000199611
0.00153512 -0.000222827 -1.40202e-06
-0.000222827 0.000186948 3.13201e-08
-1.40202e-06 3.13201e-08 1.22399e-05
0.00169985 -0.000247424 4.26743e-06
-0.000247424 0.000232023 -1.32549e-07
4.26743e-06 -1.32549e-07 4.65903e-05
0.000923265 -0.000146829 -7.31719e-06
-0.000146829 4.78851e-05 5.94037e-06
-7.31719e-06 5.94037e-06 -8.96396e-05
0.00116872 -0.00019785 5.87854e-07
-0.00019785 0.000115012 9.61516e-07
5.87854e-07 9.61516e-07 -5.82609e-05
0.00123647 -0.000222789 2.79509e-06
-0.000222789 7.77333e-05 -4.96059e-07
2.79509e-06 -4.96059e-07 -0.000110494
0.000465388 -5.15357e-05 -1.05236e-05
-5.15357e-05 -0.000112814 1.03538e-05
-1.05236e-05 1.03538e-05 -0.000173171
0.000869365 -0.000132557 9.06217e-08
-0.000132557 7.83085e-05 -1.62577e-07
9.06217e-08 -1.62577e-07 -5.31407e-05
0.00112181 -0.000191186 3.28838e-06
-0.000191186 0.000170725 -2.74008e-06
3.28838e-06 -2.74008e-06 -1.7427e-06
0.00365546 0.000148842 -8.20325e-05
0.000148842 0.0017644 2.60078e-06
-8.20325e-05 2.60078e-06 0.00175519
0.000596967 -2.73801e-05 4.43473e-07
-2.73801e-05 -2.73316e-05 -2.35901e-07
4.43473e-07 -2.35901e-07 -7.89725e-05
0.000903462 -0.00012214 5.17501e-06
-0.00012214 0.000132619 -3.76951e-06
5.17501e-06 -3.76951e-06 1.02292e-05
0.00324846 0.000126011 5.5897e-06
0.000126011 0.00152758 2.62662e-07
5.5897e-06 2.62662e-07 0.00152444
0.000669234 1.00818e-05 5.78689e-06
1.00818e-05 2.78003e-05 -7.63298e-06
5.78689e-06 -7.63298e-06 -1.48226e-05
0.00288733 0.000107591 6.73438e-05
0.000107591 0.00131692 -2.46904e-06
6.73438e-05 -2.46904e-06 0.00131893
0.00109897 0.00019288 -7.19834e-07
0.00019288 0.000201076 -5.44389e-06
-7.19834e-07 -5.44389e-06 2.91847e-05
0.00118528 0.000186943 4.95786e-07
0.000186943 0.000292009 1.62333e-07
4.95786e-07 1.62333e-07 0.000143809
0.000786403 0.000106725 -1.59157e-06
0.000106725 7.25679e-05 -2.50059e-06
-1.59157e-06 -2.50059e-06 -5.48688e-05
0.000726275 0.000137179 -1.24119e-07
0.000137179 6.79937e-05 3.65273e-07
-1.24119e-07 3.65273e-07 -5.40478e-05
0.00061314 3.17074e-05 -4.94796e-07
3.17074e-05 -6.54932e-06 -2.16355e-07
-4.94796e-07 -2.16355e-07 -0.000116279
0.000730485 3.96195e-05 -2.3806e-06
3.96195e-05 6.01469e-05 -3.15997e-06
-2.3806e-06 -3.15997e-06 -3.09909e-05
0.000582032 -2.99265e-05 3.697e-07
-2.99265e-05 -2.59701e-05 1.54716e-06
3.697e-07 1.54716e-06 -0.000121357
0.00065273 -2.02503e-05 3.1785e-07
-2.02503e-05 9.3156e-06 -3.00254e-07
3.1785e-07 -3.00254e-07 -6.43514e-05
0.000586717 -6.02097e-05 -2.09211e-07
-6.02097e-05 -1.51387e-05 -6.3871e-06
-2.09211e-07 -6.3871e-06 -4.85993e-05
0.000626209 -2.72454e-05 1.41789e-06
-2.72454e-05 -9.93634e-06 3.19509e-06
1.41789e-06 3.19509e-06 -7.50807e-05
0.000565069 -6.0299e-05 1.88107e-07
-6.0299e-05 -3.52422e-05 -3.30376e-08
1.88107e-07 -3.30376e-08 -6.45562e-05
0.00264888 -0.000103839 -4.61847e-05
-0.000103839 0.0011718 -2.62067e-06
-4.61847e-05 -2.62067e-06 0.00117536
0.00259654 -9.3407e-05 -2.38589e-06
-9.3407e-05 0.00113477 2.42542e-07
-2.38589e-06 2.42542e-07 0.00114037
0.000565611 -4.94736e-05 9.69083e-07
-4.94736e-05 -4.54777e-05 5.16219e-06
9.69083e-07 5.16219e-06 -7.06454e-05
0.00253702 -8.19637e-05 3.24535e-05
-8.19637e-05 0.0010931 3.85962e-06
3.24535e-05 3.85962e-06 0.00110099
0.0030691 -1.61145e-05 -2.36021e-05
-1.61145e-05 -4.28003e-06 2.56065e-05
-2.36021e-05 2.56065e-05 -2.54707e-05
0.00166999 -0.000422677 3.50597e-05
-0.000422677 -0.00154522 1.69284e-05
3.50597e-05 1.69284e-05 -0.00254272
0.00500599 -0.000540989 -3.4296e-05
-0.000540989 0.00202841 -4.74579e-05
-3.4296e-05 -4.74579e-05 0.00217088
0.00175465 0.000274084 8.92292e-06
0.000274084 0.000423405 5.05004e-06
8.92292e-06 5.05004e-06 0.000222476
0.0013176 0.000159328 2.22351e-06
0.000159328 0.000426582 1.22107e-06
2.22351e-06 1.22107e-06 0.000287447
0.000934167 0.000177386 -1.58787e-06
0.000177386 0.000166068 2.33276e-06
-1.58787e-06 2.33276e-06 1.62121e-05
0.00071023 0.000164193 7.8049e-07
0.000164193 5.84895e-05 1.08801e-06
7.8049e-07 1.08801e-06 -9.44133e-05
0.00114246 0.000211394 -9.39286e-08
0.000211394 0.000222576 -3.22026e-06
-9.39286e-08 -3.22026e-06 3.8964e-05
0.000844231 0.000208975 1.04372e-06
0.000208975 -1.35028e-05 -4.38225e-07
1.04372e-06 -4.38225e-07 -0.000168926
0.000908272 0.000187922 -1.49184e-06
0.000187922 0.000145368 -7.57593e-07
-1.49184e-06 -7.57593e-07 -1.84994e-05
0.000911644 0.000177769 2.92096e-08
0.000177769 0.00011312 5.4849e-06
2.92096e-08 5.4849e-06 -6.59386e-06
0.00109935 0.000244997 1.02107e-06
0.000244997 0.000105786 -3.17859e-07
1.02107e-06 -3.17859e-07 -4.70446e-05
0.00232402 0.000385509 2.02034e-06
0.000385509 0.000585701 6.49949e-06
2.02034e-06 6.49949e-06 0.000424838
0.00169461 0.000374533 -1.68816e-06
0.000374533 0.000133076 -5.79637e-07
-1.68816e-06 -5.79637e-07 -3.83983e-05
0.00137471 0.000326576 7.99194e-06
0.000326576 -3.43944e-05 6.81418e-06
7.99194e-06 6.81418e-06 -0.000144333
0.00111151 0.000372751 -1.4099e-06
0.000372751 -0.000182178 -2.84397e-06
-1.4099e-06 -2.84397e-06 -0.000345571
0.000562298 0.000285608 1.18062e-06
0.000285608 -0.000316332 3.78e-06
1.18062e-06 3.78e-06 -0.000464916
0.000770941 0.000228135 1.56673e-05
0.000228135 -0.000322021 1.64825e-05
1.56673e-05 1.64825e-05 -0.000316408
0.00510263 0.000499276 -3.21354e-05
0.000499276 0.000452149 -2.86843e-06
-3.21354e-05 -2.86843e-06 0.000207646
0.00187878 5.43629e-05 0.000143657
5.43629e-05 -0.00112725 2.22466e-05
0.000143657 2.22466e-05 -0.00250843
0.00158573 0.000600833 2.7501e-05
0.000600833 -0.000606078 -3.5497e-06
2.7501e-05 -3.5497e-06 -0.00104425
0.00202442 0.000472422 -2.33098e-05
0.000472422 0.000192455 -2.19912e-06
-2.33098e-05 -2.19912e-06 0.000172927
0.00163923 0.000468522 -4.15262e-05
0.000468522 8.4494e-05 -2.27933e-05
-4.15262e-05 -2.27933e-05 -6.43351e-05
0.00235072 -0.000144305 1.4697e-05
-0.000144305 0.000200729 9.29278e-07
1.4697e-05 9.29278e-07 0.000144839
0.00125846 1.08989e-06 -9.32846e-06
1.08989e-06 -0.000407325 3.54922e-06
-9.32846e-06 3.54922e-06 -0.000590371
0.000619915 0.00047856 7.29754e-05
0.00047856 -0.00228405 -2.31574e-05
7.29754e-05 -2.31574e-05 -0.00293224
0.000840034 -0.000170548 -1.06418e-05
-0.000170548 -0.000286863 2.11539e-05
-1.06418e-05 2.11539e-05 -0.000349492
0.00291233 -7.98021e-05 -1.1596e-05
-7.98021e-05 -8.45042e-05 3.01544e-05
-1.1596e-05 3.01544e-05 -0.000414355
0.00179754 -0.000172363 -5.96731e-06
-0.000172363 -2.31048e-05 2.15009e-06
-5.96731e-06 2.15009e-06 -1.38923e-05
0.00254765 -7.34099e-05 -6.18944e-06
-7.34099e-05 0.000336809 -2.34064e-06
-6.18944e-06 -2.34064e-06 0.000291399
0.00145524 -9.8605e-05 2.26746e-05
-9.8605e-05 -0.00025675 -1.03188e-06
2.26746e-05 -1.03188e-06 -0.000229112
0.00294877 -4.69802e-05 2.13343e-05
-4.69802e-05 0.000778114 7.0196e-07
2.13343e-05 7.0196e-07 0.000735109
0.00161963 -0.000272793 -8.54321e-06
-0.000272793 -0.000195568 4.40782e-06
-8.54321e-06 4.40782e-06 -0.000190327
0.00175217 -0.00016782 1.77509e-06
-0.00016782 -0.000127581 1.60054e-06
1.77509e-06 1.60054e-06 -9.81373e-05
0.0018408 -0.000176367 7.41812e-07
-0.000176367 1.24227e-06 8.15202e-07
7.41812e-07 8.15202e-07 1.53836e-07
0.00174399 -0.000240463 3.83267e-06
-0.000240463 -4.71167e-05 8.54146e-07
3.83267e-06 8.54146e-07 -0.000103518
0.00180502 -0.000191985 5.11835e-07
-0.000191985 2.67126e-05 1.40286e-07
5.11835e-07 1.40286e-07 -2.12072e-05
0.00187071 -0.000181248 6.18605e-07
-0.000181248 0.000120837 1.37872e-06
6.18605e-07 1.37872e-06 5.57503e-05
0.00191413 -0.000229067 1.31673e-06
-0.000229067 0.00012648 1.03446e-06
1.31673e-06 1.03446e-06 4.56709e-05
0.00187622 -0.000197537 -1.00388e-06
-0.000197537 0.000151723 4.95894e-08
-1.00388e-06 4.95894e-08 7.02647e-05
0.0016688 -0.000177042 2.09153e-06
-0.000177042 7.63336e-05 -2.97785e-07
2.09153e-06 -2.97785e-07 -2.1489e-05
0.00161992 -0.000207696 -2.20601e-06
-0.000207696 4.48611e-05 1.69099e-06
-2.20601e-06 1.69099e-06 -5.19018e-05
0.00166534 -0.000199218 4.5447e-07
-0.000199218 9.9159e-05 -5.57674e-07
4.5447e-07 -5.57674e-07 -1.11247e-05
0.00161589 -0.000181697 1.97756e-06
-0.000181697 0.000110059 -1.57585e-06
1.97756e-06 -1.57585e-06 -2.19438e-05
0.00186148 -0.000208393 -4.89599e-06
-0.000208393 0.000228732 4.75705e-06
-4.89599e-06 4.75705e-06 0.00010896
0.00174007 -0.000192969 -7.17199e-07
-0.000192969 0.000206032 -5.75045e-08
-7.17199e-07 -5.75045e-08 6.50563e-05
0.00149285 -0.000168047 -2.33604e-06
-0.000168047 0.000126788 -5.72322e-08
-2.33604e-06 -5.72322e-08 -2.35483e-05
0.00172678 -0.000215098 2.97899e-06
-0.000215098 0.000218307 1.03112e-06
2.97899e-06 1.03112e-06 5.70667e-05
0.00153853 -0.00019347 8.26276e-07
-0.00019347 0.000165667 -6.55765e-07
8.26276e-07 -6.55765e-07 6.4162e-06
0.00126351 -0.000166517 -6.89115e-06
-0.000166517 7.15202e-05 2.36275e-06
-6.89115e-06 2.36275e-06 -7.73369e-05
0.00101264 -0.000151525 -1.01311e-05
-0.000151525 4.06849e-05 5.027e-06
-1.01311e-05 5.027e-06 -9.24928e-05
0.00109123 -0.00018122 -2.09116e-06
-0.00018122 2.00381e-06 3.61833e-07
-2.09116e-06 3.61833e-07 -0.000157804
0.00175712 -0.000237541 3.93505e-06
-0.000237541 0.0003146 -8.92231e-07
3.93505e-06 -8.92231e-07 0.000137979
0.00053512 -0.000129258 -1.67029e-05
-0.000129258 -9.08173e-05 1.18817e-05
-1.67029e-05 1.18817e-05 -0.000164304
0.000913946 -0.000148585 7.75342e-07
-0.000148585 4.47028e-05 5.36487e-07
7.75342e-07 5.36487e-07 -9.32806e-05
0.00102702 -0.000186412 6.09459e-06
-0.000186412 3.49462e-05 -1.31886e-06
6.09459e-06 -1.31886e-06 -0.000136288
0.00413787 0.000163104 -0.00010102
0.000163104 0.00204662 4.17634e-06
-0.00010102 4.17634e-06 0.00203179
0.000619164 -8.90794e-05 4.75387e-07
-8.90794e-05 -2.7477e-05 -1.31189e-07
4.75387e-07 -1.31189e-07 -9.23164e-05
0.000938742 -0.000143076 6.26476e-06
-0.000143076 0.000118084 -5.1842e-06
6.26476e-06 -5.1842e-06 -1.5247e-05
0.00378347 0.000130995 4.33814e-06
0.000130995 0.00183409 4.79164e-07
4.33814e-06 4.79164e-07 0.00182798
0.000718544 -4.51004e-05 1.03679e-05
-4.51004e-05 3.98376e-05 -9.16319e-06
1.03679e-05 -9.16319e-06 -1.38489e-05
0.00339869 0.000104872 9.54377e-05
0.000104872 0.0016086 -3.95991e-06
9.54377e-05 -3.95991e-06 0.00160934
0.00103636 0.000203077 -4.12294e-06
0.000203077 6.19542e-05 -8.15602e-07
-4.12294e-06 -8.15602e-07 -0.000125414
0.00107441 0.000190705 -8.58309e-08
0.000190705 0.000190535 -1.73606e-06
-8.58309e-08 -1.73606e-06 1.89323e-05
0.00112479 0.000175569 -1.27819e-06
0.000175569 0.000234224 -3.28475e-06
-1.27819e-06 -3.28475e-06 8.11443e-05
0.00139563 0.000203664 -5.56841e-07
0.000203664 0.000413157 9.11845e-07
-5.56841e-07 9.11845e-07 0.000262718
0.00087131 0.000116145 -1.17119e-06
0.000116145 0.000119794 -1.04015e-06
-1.17119e-06 -1.04015e-06 -7.84801e-06
0.000819811 7.46394e-05 -3.22483e-06
7.46394e-05 0.000107903 -2.76769e-06
-3.22483e-06 -2.76769e-06 2.82484e-06
0.000637692 5.45061e-05 1.48995e-07
5.45061e-05 4.91944e-06 3.68413e-07
1.48995e-07 3.68413e-07 -0.000106642
0.000669567 -1.20379e-06 -4.41698e-07
-1.20379e-06 2.24973e-05 -7.17497e-08
-4.41698e-07 -7.17497e-08 -6.36888e-05
0.000586521 -4.75524e-05 -2.14945e-06
-4.75524e-05 -1.38325e-05 -6.7969e-06
-2.14945e-06 -6.7969e-06 -5.20606e-05
0.000609368 -3.53424e-05 1.06132e-06
-3.53424e-05 -1.31774e-05 3.48755e-06
1.06132e-06 3.48755e-06 -8.68435e-05
0.000551596 -6.41206e-05 4.04017e-07
-6.41206e-05 -3.44087e-05 -1.70671e-07
4.04017e-07 -1.70671e-07 -6.82707e-05
0.00276038 -0.000113158 -5.51918e-05
-0.000113158 0.00124127 -2.16157e-06
-5.51918e-05 -2.16157e-06 0.00124261
0.000549569 -5.90154e-05 5.81021e-07
-5.90154e-05 -4.50817e-05 5.5783e-06
5.81021e-07 5.5783e-06 -7.38894e-05
0.00263649 -0.000104082 -1.79192e-06
-0.000104082 0.0011645 2.22035e-07
-1.79192e-06 2.22035e-07 0.00116784
0.00259478 -9.28775e-05 3.8286e-05
-9.28775e-05 0.00113339 3.43641e-06
3.8286e-05 3.43641e-06 0.00113897
0.000490652 2.67375e-05 1.02461e-05
2.67375e-05 -0.000600667 8.16485e-06
1.02461e-05 8.16485e-06 -0.000600258
0.00415836 4.48061e-05 3.48019e-05
4.48061e-05 0.00038134 9.35494e-06
3.48019e-05 9.35494e-06 0.000153194
0.00889572 0.000431479 -8.51485e-05
0.000431479 0.00268208 -4.31011e-05
-8.51485e-05 -4.31011e-05 0.0015805
0.000313658 0.00017069 1.46775e-06
0.00017069 -0.000423794 1.93122e-06
1.46775e-06 1.93122e-06 -0.000587134
0.00159022 0.000266209 1.97337e-06
0.000266209 0.00017305 1.8889e-06
1.97337e-06 1.8889e-06 4.05573e-06
0.00125493 0.000240364 -2.21228e-06
0.000240364 0.000142056 2.4284e-07
-2.21228e-06 2.4284e-07 -5.28579e-05
0.00103049 0.000192597 -6.39426e-07
0.000192597 0.000234607 8.86611e-07
-6.39426e-07 8.86611e-07 7.53593e-05
0.000691527 0.000176371 -1.34257e-06
0.000176371 -2.73319e-05 -6.61248e-08
-1.34257e-06 -6.61248e-08 -0.000208438
0.00126178 0.000245673 6.11081e-06
0.000245673 0.000202181 1.30151e-06
6.11081e-06 1.30151e-06 3.93909e-05
0.00248719 0.000395448 -8.82191e-06
0.000395448 0.000581982 -4.0814e-06
-8.82191e-06 -4.0814e-06 0.000410488
0.0019165 0.000307863 -1.06794e-06
0.000307863 0.000551834 1.9081e-06
-1.06794e-06 1.9081e-06 0.000392606
0.00134331 0.000315639 9.37806e-06
0.000315639 5.82124e-05 1.59353e-05
9.37806e-06 1.59353e-05 -9.65293e-05
0.0019722 0.00038796 -1.65048e-06
0.00038796 0.000289922 1.00615e-06
-1.65048e-06 1.00615e-06 0.000120454
0.00214521 0.00036595 -1.10263e-05
0.00036595 0.000289033 1.77628e-06
-1.10263e-05 1.77628e-06 0.000143327
0.000785195 0.000157096 1.45891e-05
0.000157096 -0.00041717 4.90748e-06
1.45891e-05 4.90748e-06 -0.000476192
0.00128621 0.000315441 8.46689e-06
0.000315441 -7.74109e-05 9.37943e-07
8.46689e-06 9.37943e-07 -0.000189859
0.00108739 0.000366011 -6.45598e-06
0.000366011 -0.000206321 -7.26962e-06
-6.45598e-06 -7.26962e-06 -0.000370707
0.00128359 0.000224174 -2.75583e-06
0.000224174 -6.92707e-05 3.69162e-06
-2.75583e-06 3.69162e-06 -7.57419e-05
0.004874 0.000281834 3.62795e-05
0.000281834 0.00025499 -6.22047e-06
3.62795e-05 -6.22047e-06 -6.17541e-05
0.00171476 0.000398333 7.75571e-06
0.000398333 0.000246872 -1.78846e-05
7.75571e-06 -1.78846e-05 0.000223278
0.00135422 -3.58792e-05 2.2228e-05
-3.58792e-05 -5.97562e-05 3.33771e-06
2.2228e-05 3.33771e-06 -8.90792e-05
0.00204138 -7.53133e-05 -1.59146e-05
-7.53133e-05 9.11021e-05 -7.4877e-07
-1.59146e-05 -7.4877e-07 2.8336e-05
0.0014552 0.000139903 4.04676e-05
0.000139903 -0.000594658 -8.43864e-06
4.04676e-05 -8.43864e-06 -0.000847586
0.000599166 -0.000139646 -2.39119e-05
-0.000139646 -0.000631833 1.60288e-05
-2.39119e-05 1.60288e-05 -0.000599589
0.00260749 -0.000123343 -7.69761e-05
-0.000123343 0.000348457 3.76939e-06
-7.69761e-05 3.76939e-06 0.000303822
0.00167942 -0.00012634 1.28039e-06
-0.00012634 -0.000129354 -7.79969e-07
1.28039e-06 -7.79969e-07 -9.50515e-05
0.00228786 -5.57489e-05 -5.39306e-06
-5.57489e-05 0.00036228 4.28938e-07
-5.39306e-06 4.28938e-07 0.000316804
0.00195355 -0.000150951 4.2715e-06
-0.000150951 2.52648e-05 2.91929e-07
4.2715e-06 2.91929e-07 1.5587e-05
0.00208438 -2.64643e-05 4.23413e-06
-2.64643e-05 0.000148953 2.29895e-07
4.23413e-06 2.29895e-07 0.000105309
0.00185936 -0.000178907 -2.06696e-06
-0.000178907 -8.56828e-05 1.45075e-06
-2.06696e-06 1.45075e-06 -6.19568e-05
0.00184751 -0.000172564 -1.73803e-06
-0.000172564 9.12431e-06 -9.3595e-08
-1.73803e-06 -9.3595e-08 5.33034e-06
0.00195174 -0.000155272 -5.21513e-07
-0.000155272 8.45756e-05 8.97925e-07
-5.21513e-07 8.97925e-07 4.09031e-05
0.00179475 -0.000202723 -1.13395e-06
-0.000202723 1.38619e-05 -1.34716e-06
-1.13395e-06 -1.34716e-06 -3.87883e-05
0.00178058 -0.000177485 7.64754e-08
-0.000177485 7.38782e-05 -2.80956e-07
7.64754e-08 -2.80956e-07 5.70853e-06
0.00167292 -0.000156512 9.19349e-07
-0.000156512 3.64476e-05 3.97166e-07
9.19349e-07 3.97166e-07 -4.90811e-05
0.00176724 -0.000200631 -3.57582e-06
-0.000200631 8.99317e-05 -3.56751e-07
-3.57582e-06 -3.56751e-07 6.78469e-06
0.00168666 -0.000177422 2.09237e-07
-0.000177422 8.79952e-05 -2.39115e-07
2.09237e-07 -2.39115e-07 -9.79032e-06
0.00165825 -0.000164295 2.1085e-06
-0.000164295 9.89639e-05 -5.86326e-07
2.1085e-06 -5.86326e-07 -2.32982e-05
0.00168497 -0.000199885 -2.55838e-06
-0.000199885 0.000113596 7.6481e-07
-2.55838e-06 7.6481e-07 3.18812e-06
0.00163492 -0.000181716 -8.55728e-08
-0.000181716 0.000121252 -3.06883e-07
-8.55728e-08 -3.06883e-07 -1.05176e-05
0.0014936 -0.00015537 -1.38756e-06
-0.00015537 0.000111177 -2.69015e-08
-1.38756e-06 -2.69015e-08 -3.41435e-05
0.00177585 -0.000193271 -1.18742e-06
-0.000193271 0.000223547 2.56923e-06
-1.18742e-06 2.56923e-06 8.49884e-05
0.00148787 -0.000168277 -4.75093e-07
-0.000168277 0.000122533 -1.16871e-07
-4.75093e-07 -1.16871e-07 -2.72111e-05
0.0012871 -0.000148481 -6.62229e-06
-0.000148481 7.27919e-05 2.10722e-06
-6.62229e-06 2.10722e-06 -7.18043e-05
0.0014712 -0.000190625 4.93384e-06
-0.000190625 0.000126861 -8.23483e-07
4.93384e-06 -8.23483e-07 -3.35211e-05
0.00119477 -0.000162912 8.71152e-08
-0.000162912 3.2728e-05 -1.50544e-08
8.71152e-08 -1.50544e-08 -0.000116561
0.00103763 -0.000138222 -1.10948e-05
-0.000138222 2.63329e-05 4.83885e-06
-1.10948e-05 4.83885e-06 -9.85597e-05
0.000490907 -0.00014406 -1.88217e-05
-0.00014406 -0.000135281 1.16629e-05
-1.88217e-05 1.16629e-05 -0.000212891
0.000980085 -0.000149462 2.60908e-07
-0.000149462 2.3088e-05 1.51713e-07
2.60908e-07 1.51713e-07 -0.00010987
0.00117461 -0.000184995 4.76781e-06
-0.000184995 5.24777e-05 -1.33047e-06
4.76781e-06 -1.33047e-06 -0.000106915
0.00463803 0.000187812 -0.000107941
0.000187812 0.002345 6.87776e-06
-0.000107941 6.87776e-06 0.00232061
0.000617299 -0.000120232 -6.99619e-07
-0.000120232 -4.63082e-05 4.23512e-07
-6.99619e-07 4.23512e-07 -0.000120931
0.000916899 -0.000152235 8.161e-06
-0.000152235 4.95533e-05 -4.5473e-06
8.161e-06 -4.5473e-06 -8.9164e-05
0.00431685 0.000149353 8.55466e-06
0.000149353 0.00214652 8.68761e-07
8.55466e-06 8.68761e-07 0.00213317
0.000777482 -9.13537e-05 1.41815e-05
-9.13537e-05 5.67892e-05 -1.10893e-05
1.41815e-05 -1.10893e-05 -9.17441e-06
0.0039243 0.000114365 0.000113273
0.000114365 0.00191053 -5.12117e-06
0.000113273 -5.12117e-06 0.00190681
0.00111683 0.000210204 -4.69868e-06
0.000210204 -1.4111e-05 1.88902e-06
-4.69868e-06 1.88902e-06 -0.000189277
0.000955523 0.000198316 -1.35616e-06
0.000198316 1.34717e-05 2.18426e-06
-1.35616e-06 2.18426e-06 -0.000173699
0.00107254 0.000183641 -4.20584e-06
0.000183641 0.000131719 -1.89453e-06
-4.20584e-06 -1.89453e-06 -3.79987e-05
0.00106148 0.000189618 -2.71452e-07
0.000189618 0.000186241 1.37896e-06
-2.71452e-07 1.37896e-06 1.48175e-05
0.000992304 0.000164122 -3.60795e-07
0.000164122 0.00016154 -8.96254e-07
-3.60795e-07 -8.96254e-07 1.04077e-05
0.000951572 0.000119017 -4.86598e-06
0.000119017 0.000166032 -4.0009e-06
-4.86598e-06 -4.0009e-06 4.51689e-05
0.000934607 0.00012355 1.61672e-07
0.00012355 0.000154882 -2.76033e-07
1.61672e-07 -2.76033e-07 2.72364e-05
0.000736396 5.53112e-05 -3.39968e-07
5.53112e-05 6.25285e-05 6.36077e-08
-3.39968e-07 6.36077e-08 -4.09669e-05
0.000642278 -9.04931e-06 -6.28357e-06
-9.04931e-06 1.14418e-05 -7.56481e-06
-6.28357e-06 -7.56481e-06 -3.40486e-05
0.000633081 -2.87463e-05 8.58485e-07
-2.87463e-05 2.40425e-06 3.42124e-06
8.58485e-07 3.42124e-06 -8.19348e-05
0.000537312 -5.58991e-05 1.68215e-08
-5.58991e-05 -3.98548e-05 -2.53539e-07
1.68215e-08 -2.53539e-07 -7.87916e-05
0.00299369 -0.000120275 -7.04188e-05
-0.000120275 0.00137939 -1.97633e-06
-7.04188e-05 -1.97633e-06 0.00137852
0.000522788 -6.56487e-05 7.44782e-08
-6.56487e-05 -5.0932e-05 6.13005e-06
7.44782e-08 6.13005e-06 -8.4713e-05
0.00272399 -0.000115063 -1.74744e-06
-0.000115063 0.00122081 2.20853e-07
-1.74744e-06 2.20853e-07 0.00122156
0.0026283 -0.000103622 4.29177e-05
-0.000103622 0.00115956 2.92794e-06
4.29177e-05 2.92794e-06 0.00116286
0.000979794 4.92419e-05 1.18761e-05
4.92419e-05 -0.000322455 1.10792e-06
1.18761e-05 1.10792e-06 -0.000341771
0.00173298 -5.02647e-06 -4.78738e-06
-5.02647e-06 -9.14057e-05 2.17472e-06
-4.78738e-06 2.17472e-06 -0.000102545
0.00333218 -5.77361e-06 9.51747e-05
-5.77361e-06 -0.000145492 -5.07278e-06
9.51747e-05 -5.07278e-06 -0.00019245
0.00178525 0.000303456 -1.95702e-06
0.000303456 0.000213256 -4.07626e-07
-1.95702e-06 -4.07626e-07 5.45001e-05
0.000666116 0.000209167 1.07875e-06
0.000209167 -0.00023182 -9.54678e-07
1.07875e-06 -9.54678e-07 -0.000395165
0.00184109 0.000268917 -1.47857e-06
0.000268917 0.000224411 2.30636e-06
-1.47857e-06 2.30636e-06 6.88076e-05
0.00167481 0.000271309 1.06888e-06
0.000271309 0.000226685 4.5562e-07
1.06888e-06 4.5562e-07 5.61295e-05
0.00077507 0.000209422 -3.33012e-06
0.000209422 -0.000129438 2.03824e-06
-3.33012e-06 2.03824e-06 -0.000318705
0.0018754 0.000300906 -5.75882e-06
0.000300906 0.000146058 1.38064e-06
-5.75882e-06 1.38064e-06 7.0707e-07
0.00164319 0.000279709 -6.11588e-07
0.000279709 0.000398954 2.56744e-07
-6.11588e-07 2.56744e-07 0.000229167
0.00221266 0.000375253 -2.26646e-07
0.000375253 0.000434367 -1.52704e-06
-2.26646e-07 -1.52704e-06 0.000262717
0.00180266 0.000205279 -8.13422e-06
0.000205279 3.57658e-05 8.09579e-07
-8.13422e-06 8.09579e-07 -6.49291e-05
0.00231511 0.000406694 5.16678e-06
0.000406694 0.000482562 3.59439e-06
5.16678e-06 3.59439e-06 0.000314199
0.00204235 0.00036156 -9.10176e-07
0.00036156 0.000232603 5.97682e-07
-9.10176e-07 5.97682e-07 8.54373e-05
0.00101205 0.000174632 9.02404e-07
0.000174632 -0.000271324 2.04311e-06
9.02404e-07 2.04311e-06 -0.000333485
0.00044883 0.000263824 -1.79383e-06
0.000263824 -0.000502527 -2.30517e-06
-1.79383e-06 -2.30517e-06 -0.000616622
0.00120726 0.000217143 -3.13168e-05
0.000217143 -0.000113216 -1.10869e-05
-3.13168e-05 -1.10869e-05 -0.00012992
0.0016977 2.96362e-05 3.30521e-06
2.96362e-05 -6.76851e-05 4.58017e-07
3.30521e-06 4.58017e-07 -0.000121251
0.0020228 -1.6858e-05 -6.23526e-07
-1.6858e-05 0.000329 1.23486e-06
-6.23526e-07 1.23486e-06 0.000302559
0.00130063 -3.49538e-06 -5.34111e-05
-3.49538e-06 -0.000254732 -6.0751e-06
-5.34111e-05 -6.0751e-06 -0.000348186
0.00192817 -0.0001517 -2.06235e-05
-0.0001517 7.82085e-06 1.16103e-06
-2.06235e-05 1.16103e-06 4.82887e-05
0.00134019 -6.45379e-05 -9.26275e-06
-6.45379e-05 -0.000212529 3.58774e-07
-9.26275e-06 3.58774e-07 -0.00025919
0.00192185 -0.000143823 -7.62462e-08
-0.000143823 1.31366e-05 -2.79212e-07
-7.62462e-08 -2.79212e-07 4.52274e-06
0.00193783 -2.64016e-05 -1.2735e-06
-2.64016e-05 4.96067e-05 5.01829e-07
-1.2735e-06 5.01829e-07 9.75244e-06
0.0018735 -5.6582e-05 -3.95467e-06
-5.6582e-05 1.6486e-05 -1.02628e-06
-3.95467e-06 -1.02628e-06 -2.62157e-05
0.00183876 -0.000168105 -2.41245e-06
-0.000168105 1.04856e-05 -1.11937e-06
-2.41245e-06 -1.11937e-06 3.08194e-06
0.0019052 -0.000149708 6.2858e-07
-0.000149708 6.7782e-05 -1.67563e-07
6.2858e-07 -1.67563e-07 2.06335e-05
0.00197708 -0.000119164 -2.28602e-07
-0.000119164 0.000146818 -3.20917e-07
-2.28602e-07 -3.20917e-07 7.79097e-05
0.00168916 -0.00017438 -1.33053e-06
-0.00017438 2.56338e-05 -1.22975e-06
-1.33053e-06 -1.22975e-06 -4.56092e-05
0.00166243 -0.000155095 2.28878e-07
-0.000155095 3.48104e-05 -1.01236e-07
2.28878e-07 -1.01236e-07 -5.19584e-05
0.00173879 -0.00013325 1.66724e-06
-0.00013325 0.000108358 -2.34893e-07
1.66724e-06 -2.34893e-07 -4.41085e-06
0.0017096 -0.000177874 -1.71242e-06
-0.000177874 0.000102265 -1.73156e-07
-1.71242e-06 -1.73156e-07 4.52689e-06
0.00168498 -0.000163721 2.3508e-08
-0.000163721 0.000115787 -1.71495e-07
2.3508e-08 -1.71495e-07 -6.25417e-06
0.00154809 -0.0001387 -5.96914e-07
-0.0001387 0.000114948 -6.22158e-08
-5.96914e-07 -6.22158e-08 -2.43322e-05
0.00165446 -0.000181794 -1.77619e-06
-0.000181794 0.000132677 8.67573e-07
-1.77619e-06 8.67573e-07 1.13804e-06
0.00150173 -0.000155422 -1.38905e-07
-0.000155422 0.000113854 -2.82458e-08
-1.38905e-07 -2.82458e-08 -3.11684e-05
0.00131258 -0.000132301 -5.74846e-06
-0.000132301 7.61419e-05 1.84105e-06
-5.74846e-06 1.84105e-06 -6.59525e-05
0.00148216 -0.000168416 2.0392e-06
-0.000168416 0.000117728 8.48711e-08
2.0392e-06 8.48711e-08 -3.14092e-05
0.00130985 -0.00014889 -1.48136e-07
-0.00014889 8.55419e-05 3.83711e-08
-1.48136e-07 3.83711e-08 -5.88801e-05
0.00106307 -0.000122651 -1.19072e-05
-0.000122651 2.69619e-05 4.85174e-06
-1.19072e-05 4.85174e-06 -9.3804e-05
0.0011158 -0.000158677 6.4249e-06
-0.000158677 -1.18799e-05 -1.99403e-06
6.4249e-06 -1.99403e-06 -0.000161528
0.00102149 -0.000136163 1.86217e-07
-0.000136163 1.68497e-05 -1.61639e-08
1.86217e-07 -1.61639e-08 -0.00010784
0.00229099 -7.08324e-05 -1.87195e-05
-7.08324e-05 0.000893969 7.28594e-06
-1.87195e-05 7.28594e-06 0.000824935
0.00146946 -2.40378e-05 -0.00014199
-2.40378e-05 0.000482955 1.41353e-05
-0.00014199 1.41353e-05 0.000463831
0.00149543 -0.000108529 -1.46538e-06
-0.000108529 0.000441997 -1.33153e-07
-1.46538e-06 -1.33153e-07 0.000365835
0.000950517 -0.000147694 9.92986e-06
-0.000147694 7.2711e-06 -4.52726e-06
9.92986e-06 -4.52726e-06 -0.000125543
0.00482539 0.000139388 7.55767e-06
0.000139388 0.00243939 6.4781e-07
7.55767e-06 6.4781e-07 0.00242314
0.000720959 -0.000142354 1.86034e-05
-0.000142354 9.58799e-06 -1.17438e-05
1.86034e-05 -1.17438e-05 -6.73432e-05
0.00445637 0.000112557 0.000134454
0.000112557 0.00221969 -7.69247e-06
0.000134454 -7.69247e-06 0.00221098
0.00184415 0.000220665 2.57205e-07
0.000220665 0.00020661 7.63718e-07
2.57205e-07 7.63718e-07 6.34652e-05
0.00161037 0.000230455 -2.21034e-07
0.000230455 0.000197025 1.98716e-06
-2.21034e-07 1.98716e-06 3.45015e-05
0.00126775 0.000220961 -6.10961e-07
0.000220961 7.40983e-05 -9.6657e-08
-6.10961e-07 -9.6657e-08 -0.000101579
0.00109946 0.000187384 -6.38627e-06
0.000187384 4.99721e-05 -6.70942e-07
-6.38627e-06 -6.70942e-07 -0.000117085
0.000853764 0.000192064 1.63235e-06
0.000192064 -4.63791e-05 3.63805e-06
1.63235e-06 3.63805e-06 -0.000233218
0.00108369 0.000183491 -1.19689e-06
0.000183491 0.000140873 7.10579e-07
-1.19689e-06 7.10579e-07 -2.91691e-05
0.000960066 0.000143363 -6.61364e-06
0.000143363 0.000123534 -4.46174e-06
-6.61364e-06 -4.46174e-06 -1.01701e-05
0.00086489 0.000153006 1.59121e-06
0.000153006 9.18309e-05 2.08655e-06
1.59121e-06 2.08655e-06 -5.74142e-05
0.00080145 0.000105083 -4.89724e-08
0.000105083 8.20229e-05 -2.80144e-07
-4.89724e-08 -2.80144e-07 -3.6219e-05
0.0007595 5.41969e-05 -1.06108e-05
5.41969e-05 6.71041e-05 -9.38168e-06
-1.06108e-05 -9.38168e-06 9.45227e-06
0.000672241 3.64119e-05 1.52719e-06
3.64119e-05 2.46663e-05 2.53782e-06
1.52719e-06 2.53782e-06 -7.51508e-05
0.000546119 -2.06931e-05 -5.50976e-07
-2.06931e-05 -4.09888e-05 -3.1609e-07
-5.50976e-07 -3.1609e-07 -8.57019e-05
0.00333688 -0.000119958 -9.2252e-05
-0.000119958 0.0015805 -2.73311e-06
-9.2252e-05 -2.73311e-06 0.00157769
0.000481332 -6.47335e-05 -3.03423e-07
-6.47335e-05 -6.84543e-05 6.93066e-06
-3.03423e-07 6.93066e-06 -0.000108753
0.00291402 -0.000127305 -2.27256e-06
-0.000127305 0.00133527 2.62153e-07
-2.27256e-06 2.62153e-07 0.00133268
0.00269925 -0.000115235 4.75989e-05
-0.000115235 0.00120667 2.37766e-06
4.75989e-05 2.37766e-06 0.00120731
0.00179746 0.000112591 -8.05841e-07
0.000112591 -1.72945e-05 1.11454e-06
-8.05841e-07 1.11454e-06 -8.66773e-05
0.00188599 4.2551e-05 8.87879e-06
4.2551e-05 0.000151078 1.82833e-07
8.87879e-06 1.82833e-07 0.000128227
0.00358614 -3.16033e-05 -5.92679e-05
-3.16033e-05 0.000732077 -1.41093e-05
-5.92679e-05 -1.41093e-05 0.000697435
0.00167738 0.00025508 -3.38792e-06
0.00025508 5.26272e-05 8.85935e-07
-3.38792e-06 8.85935e-07 -8.6817e-05
0.0015989 0.000289645 -1.37103e-06
0.000289645 0.00012653 -1.41448e-07
-1.37103e-06 -1.41448e-07 -3.09941e-05
0.0010607 0.00025013 -1.44566e-05
0.00025013 -1.5052e-05 -4.38636e-06
-1.44566e-05 -4.38636e-06 -0.000178657
0.00184191 0.00025916 2.02151e-06
0.00025916 0.000224322 5.40079e-07
2.02151e-06 5.40079e-07 7.06054e-05
0.00177585 0.000277109 -3.47217e-07
0.000277109 0.000290282 -2.50612e-06
-3.47217e-07 -2.50612e-06 0.000118137
0.00213185 0.000203651 -3.45836e-06
0.000203651 0.000233316 1.24897e-06
-3.45836e-06 1.24897e-06 0.000135829
0.00173103 0.000296467 -1.37069e-06
0.000296467 7.04052e-05 7.6448e-07
-1.37069e-06 7.6448e-07 -7.66212e-05
0.00200785 0.000359911 3.5391e-06
0.000359911 0.000321845 1.48074e-07
3.5391e-06 1.48074e-07 0.000149552
0.00182547 0.000206181 -8.31769e-07
0.000206181 4.97402e-05 9.22452e-08
-8.31769e-07 9.22452e-08 -5.09874e-05
0.00207446 0.000364695 1.37096e-05
0.000364695 0.000237555 8.87607e-07
1.37096e-05 8.87607e-07 8.87716e-05
0.00156704 0.000195571 -1.94964e-05
0.000195571 3.39245e-05 -2.94801e-06
-1.94964e-05 -2.94801e-06 -3.05324e-05
0.00195996 3.35898e-05 -3.72112e-06
3.35898e-05 8.88526e-05 -1.63897e-07
-3.72112e-06 -1.63897e-07 3.69528e-05
0.00190345 3.75395e-05 -1.47335e-06
3.75395e-05 4.86279e-05 2.70345e-08
-1.47335e-06 2.70345e-08 -4.58041e-06
0.00283021 2.7036e-06 -3.50552e-05
2.7036e-06 0.000798215 -5.36834e-06
-3.50552e-05 -5.36834e-06 0.000770095
0.00187115 -0.000136608 -9.38509e-06
-0.000136608 -1.36766e-05 -6.94655e-07
-9.38509e-06 -6.94655e-07 -2.109e-05
0.00192865 -2.63865e-05 1.28013e-06
-2.63865e-05 2.81384e-05 1.19648e-07
1.28013e-06 1.19648e-07 -9.55585e-06
0.0018959 -6.00207e-05 4.5698e-07
-6.00207e-05 1.58856e-05 1.28963e-08
4.5698e-07 1.28963e-08 -2.07088e-05
0.0019266 -4.35948e-05 -9.76122e-07
-4.35948e-05 0.000119559 9.37113e-08
-9.76122e-07 9.37113e-08 5.08718e-05
0.00185838 -0.000144259 2.07279e-06
-0.000144259 5.14783e-05 -1.16236e-06
2.07279e-06 -1.16236e-06 4.35375e-07
0.00190929 -0.000119059 1.66939e-07
-0.000119059 0.000114912 -1.34198e-07
1.66939e-07 -1.34198e-07 4.19985e-05
0.00181276 -9.68275e-05 2.83158e-06
-9.68275e-05 0.000124328 -1.38887e-06
2.83158e-06 -1.38887e-06 2.00906e-05
0.00165457 -0.000153824 -1.04909e-06
-0.000153824 3.48476e-05 -1.04854e-07
-1.04909e-06 -1.04854e-07 -5.32012e-05
0.00174872 -0.000133422 -5.45645e-08
-0.000133422 0.00011371 1.41015e-07
-5.45645e-08 1.41015e-07 9.49958e-07
0.00161769 -0.000114523 -3.58979e-07
-0.000114523 0.00011945 -2.44156e-07
-3.58979e-07 -2.44156e-07 -1.30555e-05
0.00171032 -0.000163012 -1.74373e-06
-0.000163012 0.000131877 2.22693e-07
-1.74373e-06 2.22693e-07 1.00709e-05
0.00154694 -0.000138279 -1.78156e-07
-0.000138279 0.000112595 9.62888e-08
-1.78156e-07 9.62888e-08 -2.64893e-05
0.00134325 -0.00011337 -5.19032e-06
-0.00011337 7.96881e-05 1.47372e-06
-5.19032e-06 1.47372e-06 -6.00106e-05
0.00150819 -0.00015544 1.05606e-06
-0.00015544 0.000115681 -1.47714e-08
1.05606e-06 -1.47714e-08 -2.9046e-05
0.00132932 -0.000132406 -9.89703e-08
-0.000132406 8.44566e-05 8.13443e-08
-9.89703e-08 8.13443e-08 -5.74115e-05
0.0010701 -0.000107768 -1.19514e-05
-0.000107768 2.1059e-05 4.32279e-06
-1.19514e-05 4.32279e-06 -9.85299e-05
0.00133497 -0.000149447 6.12936e-06
-0.000149447 9.9602e-05 -1.93939e-06
6.12936e-06 -1.93939e-06 -4.46582e-05
0.00105241 -0.000120454 2.10392e-07
-0.000120454 2.02032e-05 4.42904e-08
2.10392e-07 4.42904e-08 -0.000100162
0.00233513 -8.2974e-05 -2.56264e-05
-8.2974e-05 0.000904891 6.24946e-06
-2.56264e-05 6.24946e-06 0.000843823
0.00100401 -0.000134307 1.11709e-05
-0.000134307 6.66328e-06 -4.90211e-06
1.11709e-05 -4.90211e-06 -0.000117869
0.00245289 -0.000120157 3.2841e-05
-0.000120157 0.000977139 -3.44019e-06
3.2841e-05 -3.44019e-06 0.000915164
0.00165817 -6.53705e-05 -0.000152145
-6.53705e-05 0.000596004 1.77901e-05
-0.000152145 1.77901e-05 0.000576526
0.00327586 2.50536e-05 -0.00014968
2.50536e-05 0.00154248 5.8605e-06
-0.00014968 5.8605e-06 0.00152325
0.00255218 -0.0001611 9.18473e-05
-0.0001611 0.0010405 -1.17455e-05
9.18473e-05 -1.17455e-05 0.000979758
0.00501496 0.000115802 0.000144762
0.000115802 0.00255177 -1.20687e-05
0.000144762 -1.20687e-05 0.00253331
0.00191055 0.000215596 -2.08673e-06
0.000215596 0.000207792 -2.81613e-07
-2.08673e-06 -2.81613e-07 7.31909e-05
0.00161347 0.000197481 1.90055e-06
0.000197481 0.00017291 9.21589e-07
1.90055e-06 9.21589e-07 2.44611e-05
0.00177161 0.000220263 5.25736e-07
0.000220263 0.000165271 -4.55706e-07
5.25736e-07 -4.55706e-07 2.47383e-05
0.001279 0.000187284 -6.71252e-06
0.000187284 8.55195e-05 -5.59464e-07
-6.71252e-06 -5.59464e-07 -6.90502e-05
0.00157937 0.000225798 2.10826e-07
0.000225798 0.000175086 2.57598e-07
2.10826e-07 2.57598e-07 1.30606e-05
0.00140314 0.000230738 2.81094e-06
0.000230738 0.000154056 -8.91552e-07
2.81094e-06 -8.91552e-07 -2.20395e-05
0.001182 0.00019437 -3.57276e-07
0.00019437 9.64302e-05 5.40762e-07
-3.57276e-07 5.40762e-07 -7.20596e-05
0.000912918 0.000147952 -9.1406e-06
0.000147952 2.53135e-05 -3.96411e-06
-9.1406e-06 -3.96411e-06 -0.000111887
0.00110296 0.000183847 2.65032e-06
0.000183847 0.000154644 3.79986e-06
2.65032e-06 3.79986e-06 -1.57886e-05
0.000858913 0.000133541 -5.20653e-07
0.000133541 6.60922e-05 9.58256e-08
-5.20653e-07 9.58256e-08 -6.59206e-05
0.000790474 0.000111934 -1.57222e-05
0.000111934 6.97964e-05 -1.09207e-05
-1.57222e-05 -1.09207e-05 -1.16473e-06
0.000646496 8.99973e-05 2.76925e-06
8.99973e-05 -4.23072e-06 2.73511e-06
2.76925e-06 2.73511e-06 -0.00011994
0.000580015 3.0393e-05 3.62281e-08
3.0393e-05 -2.99754e-05 -2.93767e-07
3.62281e-08 -2.93767e-07 -8.55313e-05
0.00384761 -0.00011035 -0.000117775
-0.00011035 0.00188032 -5.58123e-06
-0.000117775 -5.58123e-06 0.00187386
0.000445875 -4.46478e-05 1.26776e-06
-4.46478e-05 -9.13814e-05 7.73657e-06
1.26776e-06 7.73657e-06 -0.000137823
0.00324849 -0.000139977 -4.05978e-06
-0.000139977 0.00153295 3.7324e-07
-4.05978e-06 3.7324e-07 0.0015263
0.00285873 -0.000128923 5.36388e-05
-0.000128923 0.00130393 1.92185e-06
5.36388e-05 1.92185e-06 0.00130103
0.00183051 0.000116668 -3.04945e-06
0.000116668 2.70215e-05 1.03867e-06
-3.04945e-06 1.03867e-06 -4.55641e-05
0.00182913 0.00011175 6.16041e-07
0.00011175 8.30522e-06 -3.94446e-07
6.16041e-07 -3.94446e-07 -6.08048e-05
0.00243755 3.64975e-05 -4.41306e-05
3.64975e-05 0.000449809 -7.74776e-06
-4.41306e-05 -7.74776e-06 0.000427564
0.00196342 0.000181984 1.06143e-07
0.000181984 0.000166253 1.24365e-06
1.06143e-07 1.24365e-06 5.73198e-05
0.00167613 0.00024928 -5.9488e-07
0.00024928 6.1412e-05 -8.34676e-08
-5.9488e-07 -8.34676e-08 -7.71049e-05
0.00140795 0.000275659 3.98476e-08
0.000275659 3.66154e-05 -2.41047e-06
3.98476e-08 -2.41047e-06 -0.000119703
0.00183501 0.000248758 2.68097e-07
0.000248758 0.000219861 -1.83739e-06
2.68097e-07 -1.83739e-06 6.81297e-05
0.00193745 0.000194271 -3.97279e-07
0.000194271 0.000124209 -1.67244e-07
-3.97279e-07 -1.67244e-07 2.57535e-05
0.00158946 0.000291725 1.50481e-06
0.000291725 -1.99009e-06 -5.16626e-07
1.50481e-06 -5.16626e-07 -0.000150612
0.00181775 0.000203869 9.41069e-06
0.000203869 6.41401e-05 -4.6314e-07
9.41069e-06 -4.6314e-07 -3.62594e-05
0.00195008 2.57205e-05 -4.19371e-07
2.57205e-05 0.000118213 7.53728e-07
-4.19371e-07 7.53728e-07 5.011e-05
0.0018958 3.30366e-05 -1.0275e-07
3.30366e-05 5.56961e-05 -1.02104e-09
-1.0275e-07 -1.02104e-09 1.93401e-06
0.00206261 4.57344e-05 -7.08693e-06
4.57344e-05 0.000137828 -1.69138e-06
-7.08693e-06 -1.69138e-06 8.61399e-05
0.00161142 -1.43202e-05 -1.38806e-06
-1.43202e-05 -2.9241e-05 2.7856e-07
-1.38806e-06 2.7856e-07 -0.000109916
0.00192507 -6.49263e-05 3.25639e-06
-6.49263e-05 1.93275e-05 4.23194e-07
3.25639e-06 4.23194e-07 -1.06699e-05
0.00188235 -4.56694e-05 -1.00606e-06
-4.56694e-05 9.1066e-05 6.01472e-07
-1.00606e-06 6.01472e-07 2.20735e-05
0.00197576 -5.01547e-05 3.83097e-07
-5.01547e-05 0.000211029 -6.52928e-07
3.83097e-07 -6.52928e-07 0.000116783
0.00184719 -0.000119038 3.13305e-07
-0.000119038 8.54695e-05 -5.86998e-08
3.13305e-07 -5.86998e-08 8.89298e-06
0.00178617 -9.66242e-05 1.53446e-06
-9.66242e-05 0.000108978 -6.28627e-07
1.53446e-06 -6.28627e-07 4.78003e-06
0.00165987 -8.25711e-05 1.0536e-07
-8.25711e-05 0.00011127 -6.52098e-07
1.0536e-07 -6.52098e-07 -1.47911e-05
0.00176674 -0.000133165 -1.12236e-06
-0.000133165 0.000123599 4.97423e-07
-1.12236e-06 4.97423e-07 1.09246e-05
0.0016009 -0.000112639 -1.73656e-07
-0.000112639 0.000110761 -3.30719e-09
-1.73656e-07 -3.30719e-09 -2.14837e-05
0.00137881 -9.05638e-05 -4.78896e-06
-9.05638e-05 8.16447e-05 1.08706e-06
-4.78896e-06 1.08706e-06 -5.50984e-05
0.00154693 -0.000137812 7.10291e-07
-0.000137812 0.000110949 1.67226e-07
7.10291e-07 1.67226e-07 -2.79211e-05
0.00134641 -0.000112979 -1.1272e-07
-0.000112979 7.94644e-05 1.24029e-07
-1.1272e-07 1.24029e-07 -5.99982e-05
0.0010785 -9.13466e-05 -1.17631e-05
-9.13466e-05 1.64222e-05 3.57037e-06
-1.17631e-05 3.57037e-06 -0.000102698
0.00134723 -0.000132501 5.54798e-06
-0.000132501 9.33926e-05 -1.65955e-06
5.54798e-06 -1.65955e-06 -4.82371e-05
0.00107046 -0.000105433 1.09966e-07
-0.000105433 2.02101e-05 1.55203e-07
1.09966e-07 1.55203e-07 -9.88053e-05
0.00238374 -9.85883e-05 -3.28405e-05
-9.85883e-05 0.000923653 5.68157e-06
-3.28405e-05 5.68157e-06 0.000865721
0.0010346 -0.000118003 1.18197e-05
-0.000118003 9.35382e-06 -4.78781e-06
1.18197e-05 -4.78781e-06 -0.000110571
0.00244281 -0.00011908 2.9434e-05
-0.00011908 0.000962204 -3.10369e-06
2.9434e-05 -3.10369e-06 0.000905234
0.00169681 -5.73317e-05 -0.000147764
-5.73317e-05 0.000616068 1.61024e-05
-0.000147764 1.61024e-05 0.000596965
0.00258462 -0.000143714 9.35008e-05
-0.000143714 0.00104763 -1.36826e-05
9.35008e-05 -1.36826e-05 0.000989681
0.00147811 3.34752e-06 -7.25762e-05
3.34752e-06 0.000504636 6.40281e-06
-7.25762e-05 6.40281e-06 0.000475141
0.0049449 0.000269423 -5.52938e-07
0.000269423 0.00253608 -4.27208e-06
-5.52938e-07 -4.27208e-06 0.00249105
0.00175912 0.000170749 5.37741e-07
0.000170749 0.000106685 8.26051e-07
5.37741e-07 8.26051e-07 -2.05038e-05
0.00170899 0.000184887 -8.85174e-07
0.000184887 0.00018274 -3.83847e-07
-8.85174e-07 -3.83847e-07 4.16952e-05
0.00180724 0.000212273 -2.60895e-06
0.000212273 0.000148122 6.63306e-08
-2.60895e-06 6.63306e-08 1.23685e-05
0.00179609 0.000190617 -4.2267e-06
0.000190617 0.000357911 -6.73028e-07
-4.2267e-06 -6.73028e-07 0.000214466
0.00154969 0.000199634 7.91503e-07
0.000199634 0.000133474 -5.84598e-07
7.91503e-07 -5.84598e-07 -1.47053e-05
0.00170974 0.00022038 4.48876e-07
0.00022038 0.000129947 -1.95195e-06
4.48876e-07 -1.95195e-06 -7.95247e-06
0.000950628 0.000145418 -1.1266e-05
0.000145418 -1.41432e-05 -3.65724e-06
-1.1266e-05 -3.65724e-06 -0.00014465
0.00124553 0.000186349 1.10758e-07
0.000186349 6.58857e-05 1.116e-07
1.10758e-07 1.116e-07 -8.87512e-05
0.00156646 0.000222609 3.34182e-06
0.000222609 0.000162999 -8.8168e-07
3.34182e-06 -8.8168e-07 1.22189e-06
0.00126322 0.000201491 6.13459e-06
0.000201491 0.000142049 1.80264e-06
6.13459e-06 1.80264e-06 -2.79279e-05
0.000930777 0.000147968 -9.05264e-07
0.000147968 3.41497e-05 3.80644e-07
-9.05264e-07 3.80644e-07 -0.000102924
0.000692413 0.000161739 -2.07223e-05
0.000161739 -2.49911e-06 -1.11583e-05
-2.07223e-05 -1.11583e-05 -8.30462e-05
0.000752649 0.000123383 4.96946e-06
0.000123383 5.96317e-06 4.56777e-06
4.96946e-06 4.56777e-06 -0.000124287
0.000620935 0.000104236 -4.48495e-07
0.000104236 -1.90599e-05 1.24195e-07
-4.48495e-07 1.24195e-07 -8.92862e-05
0.00456451 -0.000101387 -0.000138898
-0.000101387 0.00230268 -1.05968e-05
-0.000138898 -1.05968e-05 0.00228686
0.000446118 1.84208e-05 6.48145e-06
1.84208e-05 -0.000103558 8.77978e-06
6.48145e-06 8.77978e-06 -0.000156451
0.00371324 -0.000150364 -7.3321e-06
-0.000150364 0.00180866 5.77674e-07
-7.3321e-06 5.77674e-07 0.00179672
0.00314194 -0.000146368 6.26562e-05
-0.000146368 0.00147277 1.65371e-06
6.26562e-05 1.65371e-06 0.00146478
0.00176521 9.86952e-05 -5.45331e-07
9.86952e-05 2.35599e-05 1.49262e-06
-5.45331e-07 1.49262e-06 -6.24547e-05
0.00177714 0.000117952 -3.30416e-07
0.000117952 -7.95126e-06 2.97786e-07
-3.30416e-07 2.97786e-07 -8.01254e-05
0.00187752 0.000114202 1.46213e-06
0.000114202 3.18532e-05 -1.00331e-06
1.46213e-06 -1.00331e-06 -3.76506e-05
0.00191271 0.000178475 7.7221e-07
0.000178475 0.000139964 -1.61747e-07
7.7221e-07 -1.61747e-07 3.2497e-05
0.00166798 0.000243108 1.42894e-07
0.000243108 6.61848e-05 -1.22233e-06
1.42894e-07 -1.22233e-06 -7.13576e-05
0.00172562 0.000184461 2.98571e-06
0.000184461 3.53286e-06 -1.38185e-06
2.98571e-06 -1.38185e-06 -9.58977e-05
0.0018871 2.66273e-05 -7.40748e-07
2.66273e-05 0.000125482 5.11631e-07
-7.40748e-07 5.11631e-07 4.34401e-05
0.00190618 2.65892e-05 4.13812e-07
2.65892e-05 9.56794e-05 -2.33581e-07
4.13812e-07 -2.33581e-07 2.65055e-05
0.00181843 3.30638e-05 4.1951e-06
3.30638e-05 1.69963e-05 1.68364e-07
4.1951e-06 1.68364e-07 -3.8647e-05
0.00172537 -2.05833e-05 -1.76877e-06
-2.05833e-05 3.73854e-05 -6.2583e-08
-1.76877e-06 -6.2583e-08 -4.23367e-05
0.00169512 -2.55856e-05 8.26344e-07
-2.55856e-05 5.96254e-05 -4.76587e-07
8.26344e-07 -4.76587e-07 -3.77195e-05
0.00183047 -4.75223e-05 6.33035e-07
-4.75223e-05 5.89923e-05 7.93357e-07
6.33035e-07 7.93357e-07 -1.05187e-05
0.00180224 -4.98355e-05 -8.01728e-07
-4.98355e-05 0.00011377 3.44332e-07
-8.01728e-07 3.44332e-07 1.59426e-05
0.00173962 -4.52113e-05 4.13616e-08
-4.52113e-05 0.000138354 -5.27951e-07
4.13616e-08 -5.27951e-07 2.10416e-05
0.00174843 -9.67988e-05 8.20064e-07
-9.67988e-05 8.7859e-05 9.71653e-08
8.20064e-07 9.71653e-08 -1.63846e-05
0.00163311 -8.36545e-05 5.10661e-07
-8.36545e-05 9.90007e-05 -3.47742e-07
5.10661e-07 -3.47742e-07 -2.70888e-05
0.00139739 -5.96952e-05 -4.89791e-06
-5.96952e-05 6.99762e-05 7.66108e-07
-4.89791e-06 7.66108e-07 -6.34759e-05
0.00157315 -0.000112224 1.77676e-07
-0.000112224 9.57228e-05 1.72687e-07
1.77676e-07 1.72687e-07 -3.64381e-05
0.00136638 -8.95845e-05 -2.13624e-08
-8.95845e-05 7.17165e-05 5.03717e-08
-2.13624e-08 5.03717e-08 -6.48583e-05
0.00107767 -7.11424e-05 -1.16465e-05
-7.11424e-05 5.11258e-06 2.94088e-06
-1.16465e-05 2.94088e-06 -0.000113212
0.00134726 -0.000112454 4.87178e-06
-0.000112454 7.7904e-05 -1.21309e-06
4.87178e-06 -1.21309e-06 -6.1317e-05
0.00107749 -8.87014e-05 -2.45647e-08
-8.87014e-05 1.50265e-05 1.56299e-07
-2.45647e-08 1.56299e-07 -0.000103519
0.00237806 -0.000113231 -3.59244e-05
-0.000113231 0.000916853 5.13024e-06
-3.59244e-05 5.13024e-06 0.000857208
0.00106707 -0.000103038 1.19629e-05
-0.000103038 1.71396e-05 -4.09945e-06
1.19629e-05 -4.09945e-06 -0.000101278
0.00244464 -0.000111471 2.83495e-05
-0.000111471 0.000955637 -2.43153e-06
2.83495e-05 -2.43153e-06 0.000900417
0.00173501 -4.99572e-05 -0.000147564
-4.99572e-05 0.000632595 1.39213e-05
-0.000147564 1.39213e-05 0.000613732
0.00254632 -0.000125449 9.22779e-05
-0.000125449 0.0010175 -1.20881e-05
9.22779e-05 -1.20881e-05 0.000964014
0.00147821 -1.30195e-05 -6.54297e-05
-1.30195e-05 0.000497255 6.12687e-06
-6.54297e-05 6.12687e-06 0.000471987
0.00136286 2.20191e-05 1.94048e-05
2.20191e-05 0.00044064 -4.22778e-06
1.94048e-05 -4.22778e-06 0.000407614
0.00188025 0.00010271 -3.17546e-08
0.00010271 0.000147233 1.93652e-06
-3.17546e-08 1.93652e-06 4.31425e-05
0.00163182 0.000149866 -1.60034e-06
0.000149866 0.00010914 2.8817e-07
-1.60034e-06 2.8817e-07 -2.69951e-05
0.00178009 0.000171858 -8.98656e-07
0.000171858 0.000113224 -8.66378e-08
-8.98656e-07 -8.66378e-08 -1.15662e-05
0.0016294 0.000159277 -4.29156e-06
0.000159277 0.000232664 -8.28959e-07
-4.29156e-06 -8.28959e-07 9.43311e-05
0.00169975 0.000182566 9.86746e-07
0.000182566 0.000180867 2.33935e-07
9.86746e-07 2.33935e-07 3.92678e-05
0.00169885 0.00020878 1.45659e-06
0.00020878 8.63232e-05 -1.5571e-07
1.45659e-06 -1.5571e-07 -5.06276e-05
0.001034 0.000135286 -1.19286e-05
0.000135286 7.89809e-06 -4.13314e-06
-1.19286e-05 -4.13314e-06 -0.000114982
0.00145168 0.000176363 3.19286e-06
0.000176363 0.000161493 7.3023e-07
3.19286e-06 7.3023e-07 1.74278e-05
0.00148048 0.000201434 2.3625e-06
0.000201434 9.08423e-05 -9.6293e-07
2.3625e-06 -9.6293e-07 -5.70237e-05
0.000599794 0.000159623 -2.14564e-05
0.000159623 -7.55024e-05 -9.78889e-06
-2.14564e-05 -9.78889e-06 -0.000153684
0.000999392 0.000148323 -6.02961e-07
0.000148323 1.32405e-05 2.11513e-07
-6.02961e-07 2.11513e-07 -0.000117569
0.0012073 0.00018498 7.14726e-06
0.00018498 4.38055e-05 7.72954e-07
7.14726e-06 7.72954e-07 -0.000110834
0.000956903 0.000148666 8.6431e-06
0.000148666 4.80286e-05 5.16075e-06
8.6431e-06 5.16075e-06 -8.90848e-05
0.000619071 0.00014936 1.21575e-06
0.00014936 -4.17281e-05 3.70296e-07
1.21575e-06 3.70296e-07 -0.000121077
0.00517038 -0.000103739 -0.00014177
-0.000103739 0.00266524 -1.6053e-05
-0.00014177 -1.6053e-05 0.00263488
0.000461686 9.10282e-05 1.1569e-05
9.10282e-05 -0.000105993 1.04662e-05
1.1569e-05 1.04662e-05 -0.000173404
0.00431931 -0.000153514 -1.15635e-05
-0.000153514 0.00216829 1.02521e-06
-1.15635e-05 1.02521e-06 0.00214868
0.00355457 -0.000166929 7.71545e-05
-0.000166929 0.00171934 1.89572e-06
7.71545e-05 1.89572e-06 0.00170464
0.0017621 7.24197e-05 -5.99594e-07
7.24197e-05 5.87075e-05 4.13087e-07
-5.99594e-07 4.13087e-07 -2.94069e-05
0.00177045 9.82109e-05 5.35867e-07
9.82109e-05 3.00168e-05 5.13051e-07
5.35867e-07 5.13051e-07 -5.55947e-05
0.00174106 0.000118914 4.81878e-06
0.000118914 -3.20663e-05 -3.45972e-07
4.81878e-06 -3.45972e-07 -0.000103733
0.00187066 0.000175096 9.796e-07
0.000175096 0.000118218 -1.09012e-06
9.796e-07 -1.09012e-06 1.22549e-05
0.00173615 -7.62806e-06 1.45425e-06
-7.62806e-06 7.85735e-05 4.74316e-08
1.45425e-06 4.74316e-08 -2.04949e-05
0.00189737 2.17264e-05 -5.46669e-08
2.17264e-05 0.00012899 -2.11894e-07
-5.46669e-08 -2.11894e-07 4.75033e-05
0.00185504 2.68146e-05 1.59028e-06
2.68146e-05 6.90573e-05 -2.92079e-07
1.59028e-06 -2.92079e-07 -1.16798e-06
0.00184496 -2.43146e-05 -3.38965e-06
-2.43146e-05 0.00010696 -1.05725e-06
-3.38965e-06 -1.05725e-06 2.82277e-05
0.00168165 -1.84049e-05 -1.31202e-06
-1.84049e-05 5.17129e-05 -3.84557e-08
-1.31202e-06 -3.84557e-08 -4.43349e-05
0.00175393 -1.54836e-05 1.41315e-06
-1.54836e-05 0.000155708 -5.29067e-07
1.41315e-06 -5.29067e-07 4.23276e-05
0.00163137 -4.9468e-05 -1.76517e-06
-4.9468e-05 1.73474e-05 1.31844e-06
-1.76517e-06 1.31844e-06 -8.40486e-05
0.00168938 -4.55069e-05 3.00587e-07
-4.55069e-05 0.000113083 1.74049e-07
3.00587e-07 1.74049e-07 -6.77884e-06
0.00139906 -2.90966e-05 -4.24733e-06
-2.90966e-05 4.89802e-05 1.65152e-07
-4.24733e-06 1.65152e-07 -7.95304e-05
0.00162008 -8.33323e-05 8.76395e-07
-8.33323e-05 9.44119e-05 -5.28688e-08
8.76395e-07 -5.28688e-08 -3.15289e-05
0.00138674 -5.76818e-05 -1.79333e-07
-5.76818e-05 6.05456e-05 3.87429e-08
-1.79333e-07 3.87429e-08 -7.26466e-05
0.00108013 -4.69411e-05 -1.1723e-05
-4.69411e-05 -4.70646e-06 2.37174e-06
-1.1723e-05 2.37174e-06 -0.000122365
0.00134987 -8.65517e-05 4.37485e-06
-8.65517e-05 5.9621e-05 -9.57817e-07
4.37485e-06 -9.57817e-07 -7.65999e-05
0.00108013 -7.01491e-05 1.60053e-09
-7.01491e-05 6.16169e-06 1.38567e-07
1.60053e-09 1.38567e-07 -0.000111922
0.000642164 -6.19853e-05 -1.76392e-05
-6.19853e-05 -9.29773e-05 4.27159e-06
-1.76392e-05 4.27159e-06 -0.000159962
0.00108609 -8.64147e-05 1.17003e-05
-8.64147e-05 1.88128e-05 -3.30786e-06
1.17003e-05 -3.30786e-06 -9.91419e-05
0.00155267 -7.28682e-05 3.7431e-05
-7.28682e-05 0.000435637 -2.22883e-06
3.7431e-05 -2.22883e-06 0.000376581
0.00515514 -0.00011025 -0.000179417
-0.00011025 0.00259805 1.03991e-05
-0.000179417 1.03991e-05 0.00259752
0.00252554 -0.000102725 9.19076e-05
-0.000102725 0.000995996 -9.90649e-06
9.19076e-05 -9.90649e-06 0.000945076
0.00149172 -3.06522e-05 -5.88149e-05
-3.06522e-05 0.000499092 4.70047e-06
-5.88149e-05 4.70047e-06 0.000475069
0.00127917 -2.77577e-05 3.00553e-05
-2.77577e-05 0.000388676 -4.30323e-06
3.00553e-05 -4.30323e-06 0.000358526
0.00189577 7.44097e-05 8.1004e-07
7.44097e-05 0.000166707 1.22677e-06
8.1004e-07 1.22677e-06 6.91791e-05
0.0017328 0.000100452 -1.66606e-07
0.000100452 0.000148298 1.40327e-06
-1.66606e-07 1.40327e-06 2.49715e-05
0.00190345 0.000100185 3.61029e-07
0.000100185 0.000165831 2.10768e-08
3.61029e-07 2.10768e-08 6.08844e-05
0.00130411 0.000120535 -5.21534e-06
0.000120535 1.55304e-05 -7.70256e-07
-5.21534e-06 -7.70256e-07 -0.000120383
0.0016983 0.000150067 9.0865e-08
0.000150067 0.000146531 -1.30965e-08
9.0865e-08 -1.30965e-08 1.15939e-05
0.00180314 0.000173311 -4.67436e-07
0.000173311 0.000120388 -8.92005e-07
-4.67436e-07 -8.92005e-07 -2.06899e-06
0.000661436 9.91395e-05 -1.38483e-05
9.91395e-05 -0.000222673 -4.18123e-06
-1.38483e-05 -4.18123e-06 -0.000343548
0.00167428 0.000162678 1.73034e-06
0.000162678 0.000258184 4.51154e-07
1.73034e-06 4.51154e-07 0.000119544
0.00168914 0.000180398 2.33244e-06
0.000180398 0.000178193 2.28637e-07
2.33244e-06 2.28637e-07 3.59885e-05
0.000568556 0.000121386 -1.85497e-05
0.000121386 -0.000105833 -8.18796e-06
-1.85497e-05 -8.18796e-06 -0.000179212
0.00080833 0.000125211 6.07847e-07
0.000125211 -0.000121418 -4.1148e-08
6.07847e-07 -4.1148e-08 -0.000245198
0.00110494 0.000161969 8.75004e-06
0.000161969 -3.6464e-05 1.68641e-06
8.75004e-06 1.68641e-06 -0.000181111
0.0053462 -2.66864e-05 -0.000153661
-2.66864e-05 0.00273628 -1.45894e-05
-0.000153661 -1.45894e-05 0.00272072
0.000576857 0.000145857 1.47031e-06
0.000145857 -8.62878e-05 5.8197e-07
1.47031e-06 5.8197e-07 -0.000165696
0.00103908 0.000150893 1.14211e-05
0.000150893 3.54995e-05 4.2426e-06
1.14211e-05 4.2426e-06 -9.56074e-05
0.000493593 0.000140333 1.77159e-05
0.000140333 -0.000110003 1.12053e-05
1.77159e-05 1.12053e-05 -0.000188213
0.00492561 -9.55902e-05 -1.20544e-07
-9.55902e-05 0.00250631 -5.66761e-07
-1.20544e-07 -5.66761e-07 0.00248948
0.00406753 -0.000186964 9.2581e-05
-0.000186964 0.00202866 4.04087e-06
9.2581e-05 4.04087e-06 0.00200528
0.00179486 4.50871e-05 -8.94791e-07
4.50871e-05 0.000102912 -4.20051e-07
-8.94791e-07 -4.20051e-07 4.19408e-06
0.00178524 7.17588e-05 -2.14214e-07
7.17588e-05 6.82169e-05 4.19773e-07
-2.14214e-07 4.19773e-07 -1.98874e-05
0.00177236 9.79874e-05 1.80744e-06
9.79874e-05 3.46315e-05 -4.77759e-07
1.80744e-06 -4.77759e-07 -5.06028e-05
0.00166592 2.74299e-06 1.64199e-06
2.74299e-06 9.7321e-05 -3.17847e-07
1.64199e-06 -3.17847e-07 -1.71052e-05
0.00172266 -5.28893e-06 1.42364e-07
-5.28893e-06 7.48953e-05 7.84995e-08
1.42364e-07 7.84995e-08 -2.30197e-05
0.00190573 1.51514e-05 -4.31566e-07
1.51514e-05 0.00013153 -2.22446e-07
-4.31566e-07 -2.22446e-07 5.05657e-05
0.00166078 -1.25784e-05 -2.24001e-06
-1.25784e-05 3.96067e-05 5.4187e-07
-2.24001e-06 5.4187e-07 -5.51555e-05
0.00174185 -1.15361e-05 1.09644e-06
-1.15361e-05 0.000147787 -1.60613e-07
1.09644e-06 -1.60613e-07 3.45913e-05
0.00172015 -9.43589e-06 -2.07598e-06
-9.43589e-06 0.000228479 -2.01347e-07
-2.07598e-06 -2.01347e-07 0.000106549
0.00163739 -4.58099e-05 3.36209e-07
-4.58099e-05 8.70803e-05 7.30577e-07
3.36209e-07 7.30577e-07 -3.53423e-05
0.00155831 -2.90497e-05 2.71335e-09
-2.90497e-05 0.000139011 6.54274e-08
2.71335e-09 6.54274e-08 1.09485e-05
0.000783673 -2.06332e-05 -1.35359e-05
-2.06332e-05 -0.000182634 1.63684e-06
-1.35359e-05 1.63684e-06 -0.000301752
0.00138273 -5.79046e-05 4.1785e-06
-5.79046e-05 5.47007e-05 -6.80901e-07
4.1785e-06 -6.80901e-07 -7.84163e-05
0.00107704 -4.39468e-05 3.06308e-08
-4.39468e-05 -6.98884e-06 1.39448e-07
3.06308e-08 1.39448e-07 -0.000124315
0.000644338 -2.03193e-05 -1.7166e-05
-2.03193e-05 -9.87922e-05 2.88237e-06
-1.7166e-05 2.88237e-06 -0.000166152
0.00108394 -6.81269e-05 1.16875e-05
-6.81269e-05 7.89625e-06 -2.66889e-06
1.16875e-05 -2.66889e-06 -0.000109835
0.000654892 -4.73137e-05 -2.04854e-07
-4.73137e-05 -8.51538e-05 2.66109e-07
-2.04854e-07 2.66109e-07 -0.000152863
0.00520904 1.25292e-06 -0.000168862
1.25292e-06 0.00262394 6.49677e-06
-0.000168862 6.49677e-06 0.00262586
0.00068513 -5.84683e-05 1.61478e-05
-5.84683e-05 -6.47757e-05 -6.08576e-06
1.61478e-05 -6.08576e-06 -0.000132632
0.00328956 -6.56813e-05 8.3656e-05
-6.56813e-05 0.00152914 -2.05221e-06
8.3656e-05 -2.05221e-06 0.00151274
0.0012144 -5.43435e-05 3.52733e-05
-5.43435e-05 0.000352362 -4.62723e-06
3.52733e-05 -4.62723e-06 0.000319959
0.00180521 6.70749e-05 1.05423e-07
6.70749e-05 0.000133376 2.23428e-07
1.05423e-07 2.23428e-07 3.08598e-05
0.00160832 5.71698e-05 1.11033e-06
5.71698e-05 7.48841e-05 1.58354e-06
1.11033e-06 1.58354e-06 -4.28922e-05
0.00187819 7.17508e-05 -1.76413e-07
7.17508e-05 0.000157017 -2.17349e-07
-1.76413e-07 -2.17349e-07 5.98692e-05
0.00141294 8.57073e-05 -3.99159e-06
8.57073e-05 6.5102e-05 -2.17627e-07
-3.99159e-06 -2.17627e-07 -6.55987e-05
0.00168677 9.876e-05 4.95163e-07
9.876e-05 0.000119722 1.41198e-07
4.95163e-07 1.41198e-07 -4.80145e-06
0.00192647 9.74264e-05 -5.2106e-07
9.74264e-05 0.000184433 -1.73218e-06
-5.2106e-07 -1.73218e-06 7.86562e-05
0.000674786 7.90687e-05 -1.35868e-05
7.90687e-05 -0.000231463 -3.16318e-06
-1.35868e-05 -3.16318e-06 -0.000350193
0.00152784 0.000127317 -9.67398e-07
0.000127317 0.00014513 -8.942e-08
-9.67398e-07 -8.942e-08 1.01046e-05
0.00176537 0.000150157 1.75541e-06
0.000150157 0.000184468 -4.89965e-07
1.75541e-06 -4.89965e-07 5.07495e-05
0.000584092 8.67333e-05 -1.70455e-05
8.67333e-05 -0.00011187 -6.3232e-06
-1.70455e-05 -6.3232e-06 -0.000180744
0.000650934 9.94651e-05 -2.80415e-06
9.94651e-05 -0.000228813 -5.90264e-07
-2.80415e-06 -5.90264e-07 -0.000350261
0.00172133 0.000166244 7.9744e-06
0.000166244 0.00028495 1.85987e-06
7.9744e-06 1.85987e-06 0.000145985
0.005305 5.90874e-05 -0.000171122
5.90874e-05 0.00268888 -1.30287e-05
-0.000171122 -1.30287e-05 0.00268612
0.000563887 0.000113823 7.52792e-07
0.000113823 -0.000108104 2.51294e-07
7.52792e-07 2.51294e-07 -0.000182148
0.000581894 0.000115332 1.18929e-05
0.000115332 -0.000251199 3.56633e-06
1.18929e-05 3.56633e-06 -0.000375908
0.00523237 -1.1579e-05 1.145e-05
-1.1579e-05 0.00266839 -1.70027e-07
1.145e-05 -1.70027e-07 0.00265593
0.000533564 0.000132103 1.8063e-05
0.000132103 -0.000108481 1.01229e-05
1.8063e-05 1.01229e-05 -0.000189059
0.00468009 -0.000150434 0.000118086
-0.000150434 0.00237217 7.14369e-06
0.000118086 7.14369e-06 0.00235213
0.00176541 3.2525e-05 1.83822e-07
3.2525e-05 0.00014499 -3.32979e-07
1.83822e-07 -3.32979e-07 3.30382e-05
0.00174863 4.32014e-05 -6.82412e-07
4.32014e-05 8.20198e-05 2.10674e-07
-6.82412e-07 2.10674e-07 -1.75904e-05
0.00180835 7.08724e-05 6.07806e-07
7.08724e-05 7.77232e-05 -6.33617e-08
6.07806e-07 -6.33617e-08 -1.0375e-05
0.00169368 -3.35424e-06 -1.78159e-06
-3.35424e-06 0.000217818 -2.53217e-07
-1.78159e-06 -2.53217e-07 9.83129e-05
0.00169907 1.36082e-06 5.20413e-07
1.36082e-06 0.000115571 4.34885e-08
5.20413e-07 4.34885e-08 2.47851e-06
0.00172042 -1.1619e-06 7.18399e-07
-1.1619e-06 7.72e-05 -4.39519e-08
7.18399e-07 -4.39519e-08 -1.95514e-05
0.00173139 -8.09024e-06 4.61624e-07
-8.09024e-06 0.000140778 5.05043e-07
4.61624e-07 5.05043e-07 2.7746e-05
0.00172569 -8.83073e-06 2.12604e-06
-8.83073e-06 0.000231167 -2.4046e-07
2.12604e-06 -2.4046e-07 0.000109219
0.000786257 -7.54846e-06 -1.27595e-05
-7.54846e-06 -0.000182794 5.90857e-07
-1.27595e-05 5.90857e-07 -0.000299738
0.00172025 -2.91628e-05 5.07458e-06
-2.91628e-05 0.000230623 -2.82662e-07
5.07458e-06 -2.82662e-07 0.000103008
0.000932448 -1.95383e-05 -2.55256e-06
-1.95383e-05 -9.79816e-05 3.37003e-07
-2.55256e-06 3.37003e-07 -0.000215841
0.000659702 -6.08537e-06 -1.7555e-05
-6.08537e-06 -9.72894e-05 1.88366e-06
-1.7555e-05 1.88366e-06 -0.00016459
0.00107862 -4.22327e-05 1.14742e-05
-4.22327e-05 -6.62381e-06 -2.08729e-06
1.14742e-05 -2.08729e-06 -0.000123715
0.000641863 -2.38443e-05 5.17683e-07
-2.38443e-05 -0.000101533 5.83463e-10
5.17683e-07 5.83463e-10 -0.000168212
0.00524937 -9.06874e-05 -0.000180401
-9.06874e-05 0.00265059 5.888e-06
-0.000180401 5.888e-06 0.00265039
0.00064609 -3.24853e-05 1.63119e-05
-3.24853e-05 -9.12811e-05 -3.43365e-06
1.63119e-05 -3.43365e-06 -0.000158408
0.00521069 -3.38442e-05 8.91994e-06
-3.38442e-05 0.0026265 9.14563e-10
8.91994e-06 9.14563e-10 0.00262771
0.00150639 -1.36505e-05 0.000153105
-1.36505e-05 0.000501488 -7.51663e-06
0.000153105 -7.51663e-06 0.000485639
0.00166385 4.52064e-05 1.16768e-06
4.52064e-05 0.000106784 3.71159e-07
1.16768e-06 3.71159e-07 -8.5595e-06
0.00177785 7.09565e-05 -1.9039e-06
7.09565e-05 0.000112105 -2.7023e-07
-1.9039e-06 -2.7023e-07 1.11335e-05
0.00143433 4.8647e-05 -3.46812e-06
4.8647e-05 7.67434e-05 7.0772e-08
-3.46812e-06 7.0772e-08 -4.88252e-05
0.00161103 5.62408e-05 4.47387e-07
5.62408e-05 7.75215e-05 1.73629e-08
4.47387e-07 1.73629e-08 -4.03014e-05
0.00185877 6.92225e-05 -9.89225e-07
6.92225e-05 0.000146079 -2.00577e-06
-9.89225e-07 -2.00577e-06 4.93127e-05
0.00109101 6.5259e-05 -1.15713e-05
6.5259e-05 -2.67834e-06 -2.03375e-06
-1.15713e-05 -2.03375e-06 -0.000116445
0.0013961 8.52802e-05 5.28116e-08
8.52802e-05 5.63745e-05 1.3697e-07
5.28116e-08 1.3697e-07 -7.44502e-05
0.00163943 9.70944e-05 4.04603e-07
9.70944e-05 9.04372e-05 -8.51905e-07
4.04603e-07 -8.51905e-07 -3.52904e-05
0.000607095 6.05141e-05 -1.6618e-05
6.05141e-05 -0.000113433 -4.60993e-06
-1.6618e-05 -4.60993e-06 -0.000180149
0.000855408 8.63533e-05 -3.24667e-06
8.63533e-05 -0.000127982 -4.43001e-07
-3.24667e-06 -4.43001e-07 -0.000246129
0.00175912 0.000134293 5.22246e-06
0.000134293 0.000278979 9.52221e-07
5.22246e-06 9.52221e-07 0.000144839
0.00529224 0.000117263 -0.000189965
0.000117263 0.00267442 -1.24895e-05
-0.000189965 -1.24895e-05 0.00267419
0.000588078 8.41423e-05 7.21411e-08
8.41423e-05 -0.000109689 1.24936e-07
7.21411e-08 1.24936e-07 -0.000178686
0.000636837 9.97583e-05 8.26643e-06
9.97583e-05 -0.000237152 2.90596e-06
8.26643e-06 2.90596e-06 -0.000359145
0.0052427 7.72017e-05 1.0306e-05
7.72017e-05 0.00265904 1.54102e-06
1.0306e-05 1.54102e-06 0.00265388
0.0005639 0.000105204 1.71172e-05
0.000105204 -0.000108257 7.92441e-06
1.71172e-05 7.92441e-06 -0.000182556
0.00513351 -1.89374e-05 0.000157242
-1.89374e-05 0.00260057 1.01539e-05
0.000157242 1.01539e-05 0.00259606
0.00170968 2.2914e-05 -1.7258e-06
2.2914e-05 0.000229179 -1.57016e-07
-1.7258e-06 -1.57016e-07 0.000110917
0.00173543 2.79534e-05 -4.01462e-07
2.79534e-05 0.000130573 1.23071e-07
-4.01462e-07 1.23071e-07 1.78157e-05
0.00170535 4.11099e-05 -9.31488e-07
4.11099e-05 6.34322e-05 2.49414e-07
-9.31488e-07 2.49414e-07 -3.7035e-05
0.000770682 -9.996e-06 -1.31894e-05
-9.996e-06 -0.000187637 -2.65106e-07
-1.31894e-05 -2.65106e-07 -0.000302351
0.00171636 2.94567e-06 2.30468e-06
2.94567e-06 0.000230752 -6.58416e-08
2.30468e-06 -6.58416e-08 0.000111251
0.00172603 -1.19685e-07 4.06849e-07
-1.19685e-07 0.000130562 2.13651e-07
4.06849e-07 2.13651e-07 1.88134e-05
0.00173147 -8.55394e-06 6.22965e-06
-8.55394e-06 0.000234018 1.90349e-08
6.22965e-06 1.90349e-08 0.00011205
0.000772372 -7.38213e-06 -1.94518e-06
-7.38213e-06 -0.000191394 1.10331e-07
-1.94518e-06 1.10331e-07 -0.000308608
0.000669418 -1.91556e-05 -1.76717e-05
-1.91556e-05 -9.4317e-05 6.39874e-07
-1.76717e-05 6.39874e-07 -0.000161018
0.00107264 -1.76872e-05 9.25836e-06
-1.76872e-05 -1.82079e-05 -1.19445e-06
9.25836e-06 -1.19445e-06 -0.000134796
0.00064437 3.36236e-06 1.9268e-07
3.36236e-06 -0.00010623 1.03049e-07
1.9268e-07 1.03049e-07 -0.000173291
0.00533969 -7.17021e-05 -0.000190114
-7.17021e-05 0.00269903 3.90492e-06
-0.000190114 3.90492e-06 0.00270027
0.000648289 -1.96017e-05 1.70385e-05
-1.96017e-05 -9.7669e-05 -2.30529e-06
1.70385e-05 -2.30529e-06 -0.000164787
0.00529336 1.45036e-05 -2.93407e-06
1.45036e-05 0.00266914 9.03825e-07
-2.93407e-06 9.03825e-07 0.00267263
0.00524167 -5.48153e-05 0.000181382
-5.48153e-05 0.0026407 -5.51506e-06
0.000181382 -5.51506e-06 0.00264401
0.00143942 3.10478e-05 -3.48471e-06
3.10478e-05 8.22938e-05 -1.51197e-07
-3.48471e-06 -1.51197e-07 -4.08638e-05
0.00166962 4.80214e-05 -2.43678e-07
4.80214e-05 0.000109075 -6.76886e-07
-2.43678e-07 -6.76886e-07 -4.17643e-06
0.00175007 7.50294e-05 -3.19466e-06
7.50294e-05 9.06514e-05 -3.05678e-07
-3.19466e-06 -3.05678e-07 -8.786e-06
0.00108657 3.49597e-05 -1.14144e-05
3.49597e-05 -7.60551e-06 -1.47728e-06
-1.14144e-05 -1.47728e-06 -0.000118921
0.00140059 4.86945e-05 2.10341e-07
4.86945e-05 5.6617e-05 7.68785e-08
2.10341e-07 7.68785e-08 -6.92624e-05
0.00161298 5.52597e-05 -4.41487e-07
5.52597e-05 7.99336e-05 -1.48464e-06
-4.41487e-07 -1.48464e-06 -3.79343e-05
0.000634679 3.59794e-05 -1.62099e-05
3.59794e-05 -0.000105626 -3.48174e-06
-1.62099e-05 -3.48174e-06 -0.00017151
0.00108092 6.68797e-05 1.10334e-07
6.68797e-05 -7.98928e-06 2.0345e-07
1.10334e-07 2.0345e-07 -0.000122139
0.00137855 8.48233e-05 4.40875e-06
8.48233e-05 4.71445e-05 5.66747e-07
4.40875e-06 5.66747e-07 -8.38099e-05
0.00527808 0.00012881 -0.000201902
0.00012881 0.00266661 -1.10169e-05
-0.000201902 -1.10169e-05 0.00266576
0.000625656 6.15256e-05 2.26903e-07
6.15256e-05 -0.000102618 1.70229e-07
2.26903e-07 1.70229e-07 -0.00016954
0.00103101 9.35482e-05 8.48701e-06
9.35482e-05 -2.74046e-05 2.4017e-06
8.48701e-06 2.4017e-06 -0.000144928
0.00524169 0.00013032 5.25038e-06
0.00013032 0.00265236 1.84992e-06
5.25038e-06 1.84992e-06 0.00264947
0.00059515 8.19136e-05 1.61706e-05
8.19136e-05 -0.00010555 6.41879e-06
1.61706e-05 6.41879e-06 -0.00017454
0.00521525 9.73631e-05 0.000179106
9.73631e-05 0.00263963 1.34482e-05
0.000179106 1.34482e-05 0.0026375
0.00111141 1.02015e-05 -1.20443e-05
1.02015e-05 7.45749e-06 -7.14946e-07
-1.20443e-05 -7.14946e-07 -0.00010333
0.00154188 1.76902e-05 2.60276e-06
1.76902e-05 0.000134128 8.05972e-08
2.60276e-06 8.05972e-08 1.4577e-05
0.00170226 2.2424e-05 -7.48646e-07
2.2424e-05 0.000113912 2.15648e-07
-7.48646e-07 2.15648e-07 3.38102e-07
0.000680705 2.47803e-05 -1.80384e-05
2.47803e-05 -9.25976e-05 -4.75604e-07
-1.80384e-05 -4.75604e-07 -0.000153522
0.000758146 -4.40199e-06 -2.13956e-06
-4.40199e-06 -0.000195829 1.12602e-08
-2.13956e-06 1.12602e-08 -0.000310757
0.00173988 9.27943e-06 6.44701e-06
9.27943e-06 0.000244119 1.19204e-07
6.44701e-06 1.19204e-07 0.000124613
0.000755085 -6.80134e-06 8.82966e-06
-6.80134e-06 -0.000201971 -3.2631e-07
8.82966e-06 -3.2631e-07 -0.000319444
0.000653089 -1.71931e-06 1.86212e-07
-1.71931e-06 -0.000103693 2.9883e-07
1.86212e-07 2.9883e-07 -0.000170125
0.00537101 5.20917e-05 -0.000198236
5.20917e-05 0.00271357 -9.07987e-07
-0.000198236 -9.07987e-07 0.00271686
0.000626141 1.25017e-05 1.67564e-05
1.25017e-05 -0.000116945 -1.12103e-06
1.67564e-05 -1.12103e-06 -0.000183651
0.00535042 -7.0985e-05 -7.86493e-06
-7.0985e-05 0.00270489 1.28926e-06
-7.86493e-06 1.28926e-06 0.00270595
0.00530375 3.98003e-05 0.000175149
3.98003e-05 0.00267574 -2.44653e-06
0.000175149 -2.44653e-06 0.00267826
0.00109504 1.80469e-05 -1.19177e-05
1.80469e-05 -2.66893e-06 -1.23862e-06
-1.19177e-05 -1.23862e-06 -0.000113022
0.0013772 3.03541e-05 4.04011e-08
3.03541e-05 4.56207e-05 -6.0215e-08
4.04011e-08 -6.0215e-08 -7.68058e-05
0.00167877 5.06868e-05 -1.64084e-06
5.06868e-05 0.000113179 -1.25023e-06
-1.64084e-06 -1.25023e-06 2.01871e-06
0.00256589 3.43949e-05 -9.85339e-05
3.43949e-05 0.000996966 -2.90308e-06
-9.85339e-05 -2.90308e-06 0.000950395
0.00109322 3.72169e-05 1.59197e-07
3.72169e-05 -4.29197e-06 1.90158e-07
1.59197e-07 1.90158e-07 -0.000115793
0.00136606 4.86013e-05 4.04378e-06
4.86013e-05 3.60315e-05 1.53277e-07
4.04378e-06 1.53277e-07 -9.01624e-05
0.00525598 0.00011915 -0.000205324
0.00011915 0.00265641 -8.65896e-06
-0.000205324 -8.65896e-06 0.00265486
0.000664709 4.62568e-05 5.34598e-07
4.62568e-05 -8.72563e-05 2.46278e-07
5.34598e-07 2.46278e-07 -0.000154005
0.00108226 6.88083e-05 1.15554e-05
6.88083e-05 -7.05792e-06 2.43209e-06
1.15554e-05 2.43209e-06 -0.000121569
0.00528532 0.000143402 8.23677e-07
0.000143402 0.00267486 1.56551e-06
8.23677e-07 1.56551e-06 0.00267223
0.000652586 6.24638e-05 1.67029e-05
6.24638e-05 -8.67302e-05 5.20453e-06
1.67029e-05 5.20453e-06 -0.000153934
0.00519972 0.000150288 0.000187922
0.000150288 0.00263293 1.4626e-05
0.000187922 1.4626e-05 0.0026282
0.000715829 7.82311e-06 -1.61917e-05
7.82311e-06 -6.38676e-05 -1.73758e-06
-1.61917e-05 -1.73758e-06 -0.000129831
0.000931426 7.91742e-06 6.28772e-07
7.91742e-06 -9.47927e-05 2.24711e-07
6.28772e-07 2.24711e-07 -0.000206946
0.00136858 1.2248e-05 6.01545e-06
1.2248e-05 3.5982e-05 2.28894e-07
6.01545e-06 2.28894e-07 -8.48315e-05
0.0052787 -9.18588e-05 -0.000182423
-9.18588e-05 0.00267638 -6.52269e-07
-0.000182423 -6.52269e-07 0.00267054
0.000653194 7.79136e-06 -3.22361e-07
7.79136e-06 -0.000103766 2.07825e-07
-3.22361e-07 2.07825e-07 -0.000167117
0.000751829 8.72442e-07 8.8228e-06
8.72442e-07 -0.000200537 1.64653e-07
8.8228e-06 1.64653e-07 -0.000315666
0.000625261 1.85977e-05 1.71223e-05
1.85977e-05 -0.000119287 2.08783e-07
1.71223e-05 2.08783e-07 -0.000185511
0.00534522 1.75677e-05 2.86541e-06
1.75677e-05 0.00270222 -2.13347e-07
2.86541e-06 -2.13347e-07 0.00270292
0.00537594 2.24273e-05 0.000186848
2.24273e-05 0.00271222 -6.26799e-07
0.000186848 -6.26799e-07 0.00271662
0.00260931 1.11754e-06 -9.70198e-05
1.11754e-06 0.00101787 -1.981e-06
-9.70198e-05 -1.981e-06 0.000971854
0.00110938 2.06817e-05 5.058e-09
2.06817e-05 4.96516e-06 5.77846e-08
5.058e-09 5.77846e-08 -0.000105467
0.00131309 2.98599e-05 3.76668e-06
2.98599e-05 7.92669e-06 -4.94004e-08
3.76668e-06 -4.94004e-08 -0.00011377
0.00495461 -6.55157e-05 -4.33395e-05
-6.55157e-05 0.00249377 -1.6698e-07
-4.33395e-05 -1.6698e-07 0.00247894
0.000676406 3.66722e-05 -3.89361e-08
3.66722e-05 -8.30044e-05 2.37636e-07
-3.89361e-08 2.37636e-07 -0.000149249
0.00111214 3.9996e-05 1.15271e-05
3.9996e-05 5.67842e-06 1.90478e-06
1.15271e-05 1.90478e-06 -0.000105972
0.00529419 8.28368e-05 -1.13431e-05
8.28368e-05 0.00267322 -5.12661e-07
-1.13431e-05 -5.12661e-07 0.00267434
0.000694014 6.38861e-05 1.79105e-05
6.38861e-05 -6.92288e-05 4.36156e-06
1.79105e-05 4.36156e-06 -0.000136828
0.00527205 0.000164758 0.000197764
0.000164758 0.00267337 1.42445e-05
0.000197764 1.42445e-05 0.00266786
0.00165615 -3.85089e-05 -0.000164469
-3.85089e-05 0.000579388 4.27634e-07
-0.000164469 4.27634e-07 0.000564372
0.0016424 1.96886e-05 -3.98265e-05
1.96886e-05 0.000462368 2.36482e-07
-3.98265e-05 2.36482e-07 0.000409382
0.000758046 8.10874e-06 1.17158e-05
8.10874e-06 -0.000193306 9.31505e-07
1.17158e-05 9.31505e-07 -0.000306846
0.00529285 -3.7551e-05 8.43759e-06
-3.7551e-05 0.00268002 2.21849e-07
8.43759e-06 2.21849e-07 0.00267777
0.00065329 -8.32275e-06 1.76048e-05
-8.32275e-06 -0.000100404 9.67224e-07
1.76048e-05 9.67224e-07 -0.000165559
0.00535689 -5.30645e-05 0.00020228
-5.30645e-05 0.00270879 -7.22124e-07
0.00020228 -7.22124e-07 0.00271042
0.00130375 -1.37128e-05 -2.07273e-05
-1.37128e-05 0.000397732 -7.71442e-07
-2.07273e-05 -7.71442e-07 0.00036395
0.0016369 1.05089e-05 -4.00715e-05
1.05089e-05 0.000463013 -2.86658e-07
-4.00715e-05 -2.86658e-07 0.000407769
0.00111127 2.17726e-05 1.16821e-05
2.17726e-05 5.85233e-06 1.38377e-06
1.16821e-05 1.38377e-06 -0.000104684
0.00328746 3.61752e-05 7.42665e-05
3.61752e-05 0.00152501 1.45189e-06
7.42665e-05 1.45189e-06 0.00151067
0.000685287 4.51503e-05 1.80062e-05
4.51503e-05 -7.77378e-05 3.56639e-06
1.80062e-05 3.56639e-06 -0.000144255
0.00531241 8.21049e-05 0.000188382
8.21049e-05 0.00268132 9.20449e-06
0.000188382 9.20449e-06 0.00268397
0.0052266 -2.61911e-05 -8.88997e-06
-2.61911e-05 0.00264465 -8.61398e-07
-8.88997e-06 -8.61398e-07 0.00264189
0.000666699 3.32452e-05 1.84811e-05
3.32452e-05 -9.61852e-05 1.7538e-06
1.84811e-05 1.7538e-06 -0.000156967
0.00523254 5.62122e-05 0.000186944
5.62122e-05 0.002643 -5.64762e-07
0.000186944 -5.64762e-07 0.00264316
0.00327102 2.83757e-05 8.88524e-05
2.83757e-05 0.00151982 1.99604e-06
8.88524e-05 1.99604e-06 0.00150446
0.000691073 6.05104e-06 1.75651e-05
6.05104e-06 -7.6356e-05 2.50626e-06
1.75651e-05 2.50626e-06 -0.00014122
0.00528112 -3.8952e-05 0.000181415
-3.8952e-05 0.00266567 4.55105e-06
0.000181415 4.55105e-06 0.00266686
0.00523411 -0.000134144 0.000181377
-0.000134144 0.00265584 -1.57348e-06
0.000181377 -1.57348e-06 0.00264789
0.00523417 -2.55006e-05 0.000179805
-2.55006e-05 0.00263588 2.14807e-06
0.000179805 2.14807e-06 0.00264003
